# vtk DataFile Version 5.1
vtk output
ASCII

DATASET UNSTRUCTURED_GRID
POINTS 14161 float
0 0 1.1
0.125 0 1.1
0.25 0 1.1
0.375 0 1.1
0.5 0 1.1
0.625 0 1.1
0.75 0 1.1
0.875 0 1.1
1 0 1.1
1.125 0 1.1
1.25 0 1.1
1.375 0 1.1
1.5 0 1.1
1.625 0 1.1
1.75 0 1.1
1.875 0 1.1
2 0 1.1
2.125 0 1.1
2.25 0 1.1
2.375 0 1.1
2.5 0 1.1
2.625 0 1.1
2.75 0 1.1
2.875 0 1.1
3 0 1.1
0 0.125 1.1
0.125 0.125 1.1
0.25 0.125 1.1
0.375 0.125 1.1
0.5 0.125 1.1
0.625 0.125 1.1
0.75 0.125 1.1
0.875 0.125 1.1
1 0.125 1.1
1.125 0.125 1.1
1.25 0.125 1.1
1.375 0.125 1.1
1.5 0.125 1.1
1.625 0.125 1.1
1.75 0.125 1.1
1.875 0.125 1.1
2 0.125 1.1
2.125 0.125 1.1
2.25 0.125 1.1
2.375 0.125 1.1
2.5 0.125 1.1
2.625 0.125 1.1
2.75 0.125 1.1
2.875 0.125 1.1
3 0.125 1.1
0 0.25 1.1
0.125 0.25 1.1
0.25 0.25 1.1
0.375 0.25 1.1
0.5 0.25 1.1
0.625 0.25 1.1
0.75 0.25 1.1
0.875 0.25 1.1
1 0.25 1.1
1.125 0.25 1.1
1.25 0.25 1.1
1.375 0.25 1.1
1.5 0.25 1.1
1.625 0.25 1.1
1.75 0.25 1.1
1.875 0.25 1.1
2 0.25 1.1
2.125 0.25 1.1
2.25 0.25 1.1
2.375 0.25 1.1
2.5 0.25 1.1
2.625 0.25 1.1
2.75 0.25 1.1
2.875 0.25 1.1
3 0.25 1.1
0 0.375 1.1
0.125 0.375 1.1
0.25 0.375 1.1
0.375 0.375 1.1
0.5 0.375 1.1
0.625 0.375 1.1
0.75 0.375 1.1
0.875 0.375 1.1
1 0.375 1.1
1.125 0.375 1.1
1.25 0.375 1.1
1.375 0.375 1.1
1.5 0.375 1.1
1.625 0.375 1.1
1.75 0.375 1.1
1.875 0.375 1.1
2 0.375 1.1
2.125 0.375 1.1
2.25 0.375 1.1
2.375 0.375 1.1
2.5 0.375 1.1
2.625 0.375 1.1
2.75 0.375 1.1
2.875 0.375 1.1
3 0.375 1.1
0 0.5 1.1
0.125 0.5 1.1
0.25 0.5 1.1
0.375 0.5 1.1
0.5 0.5 1.1
0.625 0.5 1.1
0.75 0.5 1.1
0.875 0.5 1.1
1 0.5 1.1
1.125 0.5 1.1
1.25 0.5 1.1
1.375 0.5 1.1
1.5 0.5 1.1
1.625 0.5 1.1
1.75 0.5 1.1
1.875 0.5 1.1
2 0.5 1.1
2.125 0.5 1.1
2.25 0.5 1.1
2.375 0.5 1.1
2.5 0.5 1.1
2.625 0.5 1.1
2.75 0.5 1.1
2.875 0.5 1.1
3 0.5 1.1
0 0.625 1.1
0.125 0.625 1.1
0.25 0.625 1.1
0.375 0.625 1.1
0.5 0.625 1.1
0.625 0.625 1.1
0.75 0.625 1.1
0.875 0.625 1.1
1 0.625 1.1
1.125 0.625 1.1
1.25 0.625 1.1
1.375 0.625 1.1
1.5 0.625 1.1
1.625 0.625 1.1
1.75 0.625 1.1
1.875 0.625 1.1
2 0.625 1.1
2.125 0.625 1.1
2.25 0.625 1.1
2.375 0.625 1.1
2.5 0.625 1.1
2.625 0.625 1.1
2.75 0.625 1.1
2.875 0.625 1.1
3 0.625 1.1
0 0.75 1.1
0.125 0.75 1.1
0.25 0.75 1.1
0.375 0.75 1.1
0.5 0.75 1.1
0.625 0.75 1.1
0.75 0.75 1.1
0.875 0.75 1.1
1 0.75 1.1
1.125 0.75 1.1
1.25 0.75 1.1
1.375 0.75 1.1
1.5 0.75 1.1
1.625 0.75 1.1
1.75 0.75 1.1
1.875 0.75 1.1
2 0.75 1.1
2.125 0.75 1.1
2.25 0.75 1.1
2.375 0.75 1.1
2.5 0.75 1.1
2.625 0.75 1.1
2.75 0.75 1.1
2.875 0.75 1.1
3 0.75 1.1
0 0.875 1.1
0.125 0.875 1.1
0.25 0.875 1.1
0.375 0.875 1.1
0.5 0.875 1.1
0.625 0.875 1.1
0.75 0.875 1.1
0.875 0.875 1.1
1 0.875 1.1
1.125 0.875 1.1
1.25 0.875 1.1
1.375 0.875 1.1
1.5 0.875 1.1
1.625 0.875 1.1
1.75 0.875 1.1
1.875 0.875 1.1
2 0.875 1.1
2.125 0.875 1.1
2.25 0.875 1.1
2.375 0.875 1.1
2.5 0.875 1.1
2.625 0.875 1.1
2.75 0.875 1.1
2.875 0.875 1.1
3 0.875 1.1
0 1 1.1
0.125 1 1.1
0.25 1 1.1
0.375 1 1.1
0.5 1 1.1
0.625 1 1.1
0.75 1 1.1
0.875 1 1.1
1 1 1.1
1.125 1 1.1
1.25 1 1.1
1.375 1 1.1
1.5 1 1.1
1.625 1 1.1
1.75 1 1.1
1.875 1 1.1
2 1 1.1
2.125 1 1.1
2.25 1 1.1
2.375 1 1.1
2.5 1 1.1
2.625 1 1.1
2.75 1 1.1
2.875 1 1.1
3 1 1.1
0 0 1.225
0.125 0 1.225
0.25 0 1.225
0.375 0 1.225
0.5 0 1.225
0.625 0 1.225
0.75 0 1.225
0.875 0 1.225
1 0 1.225
1.125 0 1.225
1.25 0 1.225
1.375 0 1.225
1.5 0 1.225
1.625 0 1.225
1.75 0 1.225
1.875 0 1.225
2 0 1.225
2.125 0 1.225
2.25 0 1.225
2.375 0 1.225
2.5 0 1.225
2.625 0 1.225
2.75 0 1.225
2.875 0 1.225
3 0 1.225
0 0.125 1.225
0.125 0.125 1.225
0.25 0.125 1.225
0.375 0.125 1.225
0.5 0.125 1.225
0.625 0.125 1.225
0.75 0.125 1.225
0.875 0.125 1.225
1 0.125 1.225
1.125 0.125 1.225
1.25 0.125 1.225
1.375 0.125 1.225
1.5 0.125 1.225
1.625 0.125 1.225
1.75 0.125 1.225
1.875 0.125 1.225
2 0.125 1.225
2.125 0.125 1.225
2.25 0.125 1.225
2.375 0.125 1.225
2.5 0.125 1.225
2.625 0.125 1.225
2.75 0.125 1.225
2.875 0.125 1.225
3 0.125 1.225
0 0.25 1.225
0.125 0.25 1.225
0.25 0.25 1.225
0.375 0.25 1.225
0.5 0.25 1.225
0.625 0.25 1.225
0.75 0.25 1.225
0.875 0.25 1.225
1 0.25 1.225
1.125 0.25 1.225
1.25 0.25 1.225
1.375 0.25 1.225
1.5 0.25 1.225
1.625 0.25 1.225
1.75 0.25 1.225
1.875 0.25 1.225
2 0.25 1.225
2.125 0.25 1.225
2.25 0.25 1.225
2.375 0.25 1.225
2.5 0.25 1.225
2.625 0.25 1.225
2.75 0.25 1.225
2.875 0.25 1.225
3 0.25 1.225
0 0.375 1.225
0.125 0.375 1.225
0.25 0.375 1.225
0.375 0.375 1.225
0.5 0.375 1.225
0.625 0.375 1.225
0.75 0.375 1.225
0.875 0.375 1.225
1 0.375 1.225
1.125 0.375 1.225
1.25 0.375 1.225
1.375 0.375 1.225
1.5 0.375 1.225
1.625 0.375 1.225
1.75 0.375 1.225
1.875 0.375 1.225
2 0.375 1.225
2.125 0.375 1.225
2.25 0.375 1.225
2.375 0.375 1.225
2.5 0.375 1.225
2.625 0.375 1.225
2.75 0.375 1.225
2.875 0.375 1.225
3 0.375 1.225
0 0.5 1.225
0.125 0.5 1.225
0.25 0.5 1.225
0.375 0.5 1.225
0.5 0.5 1.225
0.625 0.5 1.225
0.75 0.5 1.225
0.875 0.5 1.225
1 0.5 1.225
1.125 0.5 1.225
1.25 0.5 1.225
1.375 0.5 1.225
1.5 0.5 1.225
1.625 0.5 1.225
1.75 0.5 1.225
1.875 0.5 1.225
2 0.5 1.225
2.125 0.5 1.225
2.25 0.5 1.225
2.375 0.5 1.225
2.5 0.5 1.225
2.625 0.5 1.225
2.75 0.5 1.225
2.875 0.5 1.225
3 0.5 1.225
0 0.625 1.225
0.125 0.625 1.225
0.25 0.625 1.225
0.375 0.625 1.225
0.5 0.625 1.225
0.625 0.625 1.225
0.75 0.625 1.225
0.875 0.625 1.225
1 0.625 1.225
1.125 0.625 1.225
1.25 0.625 1.225
1.375 0.625 1.225
1.5 0.625 1.225
1.625 0.625 1.225
1.75 0.625 1.225
1.875 0.625 1.225
2 0.625 1.225
2.125 0.625 1.225
2.25 0.625 1.225
2.375 0.625 1.225
2.5 0.625 1.225
2.625 0.625 1.225
2.75 0.625 1.225
2.875 0.625 1.225
3 0.625 1.225
0 0.75 1.225
0.125 0.75 1.225
0.25 0.75 1.225
0.375 0.75 1.225
0.5 0.75 1.225
0.625 0.75 1.225
0.75 0.75 1.225
0.875 0.75 1.225
1 0.75 1.225
1.125 0.75 1.225
1.25 0.75 1.225
1.375 0.75 1.225
1.5 0.75 1.225
1.625 0.75 1.225
1.75 0.75 1.225
1.875 0.75 1.225
2 0.75 1.225
2.125 0.75 1.225
2.25 0.75 1.225
2.375 0.75 1.225
2.5 0.75 1.225
2.625 0.75 1.225
2.75 0.75 1.225
2.875 0.75 1.225
3 0.75 1.225
0 0.875 1.225
0.125 0.875 1.225
0.25 0.875 1.225
0.375 0.875 1.225
0.5 0.875 1.225
0.625 0.875 1.225
0.75 0.875 1.225
0.875 0.875 1.225
1 0.875 1.225
1.125 0.875 1.225
1.25 0.875 1.225
1.375 0.875 1.225
1.5 0.875 1.225
1.625 0.875 1.225
1.75 0.875 1.225
1.875 0.875 1.225
2 0.875 1.225
2.125 0.875 1.225
2.25 0.875 1.225
2.375 0.875 1.225
2.5 0.875 1.225
2.625 0.875 1.225
2.75 0.875 1.225
2.875 0.875 1.225
3 0.875 1.225
0 1 1.225
0.125 1 1.225
0.25 1 1.225
0.375 1 1.225
0.5 1 1.225
0.625 1 1.225
0.75 1 1.225
0.875 1 1.225
1 1 1.225
1.125 1 1.225
1.25 1 1.225
1.375 1 1.225
1.5 1 1.225
1.625 1 1.225
1.75 1 1.225
1.875 1 1.225
2 1 1.225
2.125 1 1.225
2.25 1 1.225
2.375 1 1.225
2.5 1 1.225
2.625 1 1.225
2.75 1 1.225
2.875 1 1.225
3 1 1.225
0 0 1.35
0.125 0 1.35
0.25 0 1.35
0.375 0 1.35
0.5 0 1.35
0.625 0 1.35
0.75 0 1.35
0.875 0 1.35
1 0 1.35
1.125 0 1.35
1.25 0 1.35
1.375 0 1.35
1.5 0 1.35
1.625 0 1.35
1.75 0 1.35
1.875 0 1.35
2 0 1.35
2.125 0 1.35
2.25 0 1.35
2.375 0 1.35
2.5 0 1.35
2.625 0 1.35
2.75 0 1.35
2.875 0 1.35
3 0 1.35
0 0.125 1.35
0.125 0.125 1.35
0.25 0.125 1.35
0.375 0.125 1.35
0.5 0.125 1.35
0.625 0.125 1.35
0.75 0.125 1.35
0.875 0.125 1.35
1 0.125 1.35
1.125 0.125 1.35
1.25 0.125 1.35
1.375 0.125 1.35
1.5 0.125 1.35
1.625 0.125 1.35
1.75 0.125 1.35
1.875 0.125 1.35
2 0.125 1.35
2.125 0.125 1.35
2.25 0.125 1.35
2.375 0.125 1.35
2.5 0.125 1.35
2.625 0.125 1.35
2.75 0.125 1.35
2.875 0.125 1.35
3 0.125 1.35
0 0.25 1.35
0.125 0.25 1.35
0.25 0.25 1.35
0.375 0.25 1.35
0.5 0.25 1.35
0.625 0.25 1.35
0.75 0.25 1.35
0.875 0.25 1.35
1 0.25 1.35
1.125 0.25 1.35
1.25 0.25 1.35
1.375 0.25 1.35
1.5 0.25 1.35
1.625 0.25 1.35
1.75 0.25 1.35
1.875 0.25 1.35
2 0.25 1.35
2.125 0.25 1.35
2.25 0.25 1.35
2.375 0.25 1.35
2.5 0.25 1.35
2.625 0.25 1.35
2.75 0.25 1.35
2.875 0.25 1.35
3 0.25 1.35
0 0.375 1.35
0.125 0.375 1.35
0.25 0.375 1.35
0.375 0.375 1.35
0.5 0.375 1.35
0.625 0.375 1.35
0.75 0.375 1.35
0.875 0.375 1.35
1 0.375 1.35
1.125 0.375 1.35
1.25 0.375 1.35
1.375 0.375 1.35
1.5 0.375 1.35
1.625 0.375 1.35
1.75 0.375 1.35
1.875 0.375 1.35
2 0.375 1.35
2.125 0.375 1.35
2.25 0.375 1.35
2.375 0.375 1.35
2.5 0.375 1.35
2.625 0.375 1.35
2.75 0.375 1.35
2.875 0.375 1.35
3 0.375 1.35
0 0.5 1.35
0.125 0.5 1.35
0.25 0.5 1.35
0.375 0.5 1.35
0.5 0.5 1.35
0.625 0.5 1.35
0.75 0.5 1.35
0.875 0.5 1.35
1 0.5 1.35
1.125 0.5 1.35
1.25 0.5 1.35
1.375 0.5 1.35
1.5 0.5 1.35
1.625 0.5 1.35
1.75 0.5 1.35
1.875 0.5 1.35
2 0.5 1.35
2.125 0.5 1.35
2.25 0.5 1.35
2.375 0.5 1.35
2.5 0.5 1.35
2.625 0.5 1.35
2.75 0.5 1.35
2.875 0.5 1.35
3 0.5 1.35
0 0.625 1.35
0.125 0.625 1.35
0.25 0.625 1.35
0.375 0.625 1.35
0.5 0.625 1.35
0.625 0.625 1.35
0.75 0.625 1.35
0.875 0.625 1.35
1 0.625 1.35
1.125 0.625 1.35
1.25 0.625 1.35
1.375 0.625 1.35
1.5 0.625 1.35
1.625 0.625 1.35
1.75 0.625 1.35
1.875 0.625 1.35
2 0.625 1.35
2.125 0.625 1.35
2.25 0.625 1.35
2.375 0.625 1.35
2.5 0.625 1.35
2.625 0.625 1.35
2.75 0.625 1.35
2.875 0.625 1.35
3 0.625 1.35
0 0.75 1.35
0.125 0.75 1.35
0.25 0.75 1.35
0.375 0.75 1.35
0.5 0.75 1.35
0.625 0.75 1.35
0.75 0.75 1.35
0.875 0.75 1.35
1 0.75 1.35
1.125 0.75 1.35
1.25 0.75 1.35
1.375 0.75 1.35
1.5 0.75 1.35
1.625 0.75 1.35
1.75 0.75 1.35
1.875 0.75 1.35
2 0.75 1.35
2.125 0.75 1.35
2.25 0.75 1.35
2.375 0.75 1.35
2.5 0.75 1.35
2.625 0.75 1.35
2.75 0.75 1.35
2.875 0.75 1.35
3 0.75 1.35
0 0.875 1.35
0.125 0.875 1.35
0.25 0.875 1.35
0.375 0.875 1.35
0.5 0.875 1.35
0.625 0.875 1.35
0.75 0.875 1.35
0.875 0.875 1.35
1 0.875 1.35
1.125 0.875 1.35
1.25 0.875 1.35
1.375 0.875 1.35
1.5 0.875 1.35
1.625 0.875 1.35
1.75 0.875 1.35
1.875 0.875 1.35
2 0.875 1.35
2.125 0.875 1.35
2.25 0.875 1.35
2.375 0.875 1.35
2.5 0.875 1.35
2.625 0.875 1.35
2.75 0.875 1.35
2.875 0.875 1.35
3 0.875 1.35
0 1 1.35
0.125 1 1.35
0.25 1 1.35
0.375 1 1.35
0.5 1 1.35
0.625 1 1.35
0.75 1 1.35
0.875 1 1.35
1 1 1.35
1.125 1 1.35
1.25 1 1.35
1.375 1 1.35
1.5 1 1.35
1.625 1 1.35
1.75 1 1.35
1.875 1 1.35
2 1 1.35
2.125 1 1.35
2.25 1 1.35
2.375 1 1.35
2.5 1 1.35
2.625 1 1.35
2.75 1 1.35
2.875 1 1.35
3 1 1.35
0 0 1.475
0.125 0 1.475
0.25 0 1.475
0.375 0 1.475
0.5 0 1.475
0.625 0 1.475
0.75 0 1.475
0.875 0 1.475
1 0 1.475
1.125 0 1.475
1.25 0 1.475
1.375 0 1.475
1.5 0 1.475
1.625 0 1.475
1.75 0 1.475
1.875 0 1.475
2 0 1.475
2.125 0 1.475
2.25 0 1.475
2.375 0 1.475
2.5 0 1.475
2.625 0 1.475
2.75 0 1.475
2.875 0 1.475
3 0 1.475
0 0.125 1.475
0.125 0.125 1.475
0.25 0.125 1.475
0.375 0.125 1.475
0.5 0.125 1.475
0.625 0.125 1.475
0.75 0.125 1.475
0.875 0.125 1.475
1 0.125 1.475
1.125 0.125 1.475
1.25 0.125 1.475
1.375 0.125 1.475
1.5 0.125 1.475
1.625 0.125 1.475
1.75 0.125 1.475
1.875 0.125 1.475
2 0.125 1.475
2.125 0.125 1.475
2.25 0.125 1.475
2.375 0.125 1.475
2.5 0.125 1.475
2.625 0.125 1.475
2.75 0.125 1.475
2.875 0.125 1.475
3 0.125 1.475
0 0.25 1.475
0.125 0.25 1.475
0.25 0.25 1.475
0.375 0.25 1.475
0.5 0.25 1.475
0.625 0.25 1.475
0.75 0.25 1.475
0.875 0.25 1.475
1 0.25 1.475
1.125 0.25 1.475
1.25 0.25 1.475
1.375 0.25 1.475
1.5 0.25 1.475
1.625 0.25 1.475
1.75 0.25 1.475
1.875 0.25 1.475
2 0.25 1.475
2.125 0.25 1.475
2.25 0.25 1.475
2.375 0.25 1.475
2.5 0.25 1.475
2.625 0.25 1.475
2.75 0.25 1.475
2.875 0.25 1.475
3 0.25 1.475
0 0.375 1.475
0.125 0.375 1.475
0.25 0.375 1.475
0.375 0.375 1.475
0.5 0.375 1.475
0.625 0.375 1.475
0.75 0.375 1.475
0.875 0.375 1.475
1 0.375 1.475
1.125 0.375 1.475
1.25 0.375 1.475
1.375 0.375 1.475
1.5 0.375 1.475
1.625 0.375 1.475
1.75 0.375 1.475
1.875 0.375 1.475
2 0.375 1.475
2.125 0.375 1.475
2.25 0.375 1.475
2.375 0.375 1.475
2.5 0.375 1.475
2.625 0.375 1.475
2.75 0.375 1.475
2.875 0.375 1.475
3 0.375 1.475
0 0.5 1.475
0.125 0.5 1.475
0.25 0.5 1.475
0.375 0.5 1.475
0.5 0.5 1.475
0.625 0.5 1.475
0.75 0.5 1.475
0.875 0.5 1.475
1 0.5 1.475
1.125 0.5 1.475
1.25 0.5 1.475
1.375 0.5 1.475
1.5 0.5 1.475
1.625 0.5 1.475
1.75 0.5 1.475
1.875 0.5 1.475
2 0.5 1.475
2.125 0.5 1.475
2.25 0.5 1.475
2.375 0.5 1.475
2.5 0.5 1.475
2.625 0.5 1.475
2.75 0.5 1.475
2.875 0.5 1.475
3 0.5 1.475
0 0.625 1.475
0.125 0.625 1.475
0.25 0.625 1.475
0.375 0.625 1.475
0.5 0.625 1.475
0.625 0.625 1.475
0.75 0.625 1.475
0.875 0.625 1.475
1 0.625 1.475
1.125 0.625 1.475
1.25 0.625 1.475
1.375 0.625 1.475
1.5 0.625 1.475
1.625 0.625 1.475
1.75 0.625 1.475
1.875 0.625 1.475
2 0.625 1.475
2.125 0.625 1.475
2.25 0.625 1.475
2.375 0.625 1.475
2.5 0.625 1.475
2.625 0.625 1.475
2.75 0.625 1.475
2.875 0.625 1.475
3 0.625 1.475
0 0.75 1.475
0.125 0.75 1.475
0.25 0.75 1.475
0.375 0.75 1.475
0.5 0.75 1.475
0.625 0.75 1.475
0.75 0.75 1.475
0.875 0.75 1.475
1 0.75 1.475
1.125 0.75 1.475
1.25 0.75 1.475
1.375 0.75 1.475
1.5 0.75 1.475
1.625 0.75 1.475
1.75 0.75 1.475
1.875 0.75 1.475
2 0.75 1.475
2.125 0.75 1.475
2.25 0.75 1.475
2.375 0.75 1.475
2.5 0.75 1.475
2.625 0.75 1.475
2.75 0.75 1.475
2.875 0.75 1.475
3 0.75 1.475
0 0.875 1.475
0.125 0.875 1.475
0.25 0.875 1.475
0.375 0.875 1.475
0.5 0.875 1.475
0.625 0.875 1.475
0.75 0.875 1.475
0.875 0.875 1.475
1 0.875 1.475
1.125 0.875 1.475
1.25 0.875 1.475
1.375 0.875 1.475
1.5 0.875 1.475
1.625 0.875 1.475
1.75 0.875 1.475
1.875 0.875 1.475
2 0.875 1.475
2.125 0.875 1.475
2.25 0.875 1.475
2.375 0.875 1.475
2.5 0.875 1.475
2.625 0.875 1.475
2.75 0.875 1.475
2.875 0.875 1.475
3 0.875 1.475
0 1 1.475
0.125 1 1.475
0.25 1 1.475
0.375 1 1.475
0.5 1 1.475
0.625 1 1.475
0.75 1 1.475
0.875 1 1.475
1 1 1.475
1.125 1 1.475
1.25 1 1.475
1.375 1 1.475
1.5 1 1.475
1.625 1 1.475
1.75 1 1.475
1.875 1 1.475
2 1 1.475
2.125 1 1.475
2.25 1 1.475
2.375 1 1.475
2.5 1 1.475
2.625 1 1.475
2.75 1 1.475
2.875 1 1.475
3 1 1.475
0 0 1.6
0.125 0 1.6
0.25 0 1.6
0.375 0 1.6
0.5 0 1.6
0.625 0 1.6
0.75 0 1.6
0.875 0 1.6
1 0 1.6
1.125 0 1.6
1.25 0 1.6
1.375 0 1.6
1.5 0 1.6
1.625 0 1.6
1.75 0 1.6
1.875 0 1.6
2 0 1.6
2.125 0 1.6
2.25 0 1.6
2.375 0 1.6
2.5 0 1.6
2.625 0 1.6
2.75 0 1.6
2.875 0 1.6
3 0 1.6
0 0.125 1.6
0.125 0.125 1.6
0.25 0.125 1.6
0.375 0.125 1.6
0.5 0.125 1.6
0.625 0.125 1.6
0.75 0.125 1.6
0.875 0.125 1.6
1 0.125 1.6
1.125 0.125 1.6
1.25 0.125 1.6
1.375 0.125 1.6
1.5 0.125 1.6
1.625 0.125 1.6
1.75 0.125 1.6
1.875 0.125 1.6
2 0.125 1.6
2.125 0.125 1.6
2.25 0.125 1.6
2.375 0.125 1.6
2.5 0.125 1.6
2.625 0.125 1.6
2.75 0.125 1.6
2.875 0.125 1.6
3 0.125 1.6
0 0.25 1.6
0.125 0.25 1.6
0.25 0.25 1.6
0.375 0.25 1.6
0.5 0.25 1.6
0.625 0.25 1.6
0.75 0.25 1.6
0.875 0.25 1.6
1 0.25 1.6
1.125 0.25 1.6
1.25 0.25 1.6
1.375 0.25 1.6
1.5 0.25 1.6
1.625 0.25 1.6
1.75 0.25 1.6
1.875 0.25 1.6
2 0.25 1.6
2.125 0.25 1.6
2.25 0.25 1.6
2.375 0.25 1.6
2.5 0.25 1.6
2.625 0.25 1.6
2.75 0.25 1.6
2.875 0.25 1.6
3 0.25 1.6
0 0.375 1.6
0.125 0.375 1.6
0.25 0.375 1.6
0.375 0.375 1.6
0.5 0.375 1.6
0.625 0.375 1.6
0.75 0.375 1.6
0.875 0.375 1.6
1 0.375 1.6
1.125 0.375 1.6
1.25 0.375 1.6
1.375 0.375 1.6
1.5 0.375 1.6
1.625 0.375 1.6
1.75 0.375 1.6
1.875 0.375 1.6
2 0.375 1.6
2.125 0.375 1.6
2.25 0.375 1.6
2.375 0.375 1.6
2.5 0.375 1.6
2.625 0.375 1.6
2.75 0.375 1.6
2.875 0.375 1.6
3 0.375 1.6
0 0.5 1.6
0.125 0.5 1.6
0.25 0.5 1.6
0.375 0.5 1.6
0.5 0.5 1.6
0.625 0.5 1.6
0.75 0.5 1.6
0.875 0.5 1.6
1 0.5 1.6
1.125 0.5 1.6
1.25 0.5 1.6
1.375 0.5 1.6
1.5 0.5 1.6
1.625 0.5 1.6
1.75 0.5 1.6
1.875 0.5 1.6
2 0.5 1.6
2.125 0.5 1.6
2.25 0.5 1.6
2.375 0.5 1.6
2.5 0.5 1.6
2.625 0.5 1.6
2.75 0.5 1.6
2.875 0.5 1.6
3 0.5 1.6
0 0.625 1.6
0.125 0.625 1.6
0.25 0.625 1.6
0.375 0.625 1.6
0.5 0.625 1.6
0.625 0.625 1.6
0.75 0.625 1.6
0.875 0.625 1.6
1 0.625 1.6
1.125 0.625 1.6
1.25 0.625 1.6
1.375 0.625 1.6
1.5 0.625 1.6
1.625 0.625 1.6
1.75 0.625 1.6
1.875 0.625 1.6
2 0.625 1.6
2.125 0.625 1.6
2.25 0.625 1.6
2.375 0.625 1.6
2.5 0.625 1.6
2.625 0.625 1.6
2.75 0.625 1.6
2.875 0.625 1.6
3 0.625 1.6
0 0.75 1.6
0.125 0.75 1.6
0.25 0.75 1.6
0.375 0.75 1.6
0.5 0.75 1.6
0.625 0.75 1.6
0.75 0.75 1.6
0.875 0.75 1.6
1 0.75 1.6
1.125 0.75 1.6
1.25 0.75 1.6
1.375 0.75 1.6
1.5 0.75 1.6
1.625 0.75 1.6
1.75 0.75 1.6
1.875 0.75 1.6
2 0.75 1.6
2.125 0.75 1.6
2.25 0.75 1.6
2.375 0.75 1.6
2.5 0.75 1.6
2.625 0.75 1.6
2.75 0.75 1.6
2.875 0.75 1.6
3 0.75 1.6
0 0.875 1.6
0.125 0.875 1.6
0.25 0.875 1.6
0.375 0.875 1.6
0.5 0.875 1.6
0.625 0.875 1.6
0.75 0.875 1.6
0.875 0.875 1.6
1 0.875 1.6
1.125 0.875 1.6
1.25 0.875 1.6
1.375 0.875 1.6
1.5 0.875 1.6
1.625 0.875 1.6
1.75 0.875 1.6
1.875 0.875 1.6
2 0.875 1.6
2.125 0.875 1.6
2.25 0.875 1.6
2.375 0.875 1.6
2.5 0.875 1.6
2.625 0.875 1.6
2.75 0.875 1.6
2.875 0.875 1.6
3 0.875 1.6
0 1 1.6
0.125 1 1.6
0.25 1 1.6
0.375 1 1.6
0.5 1 1.6
0.625 1 1.6
0.75 1 1.6
0.875 1 1.6
1 1 1.6
1.125 1 1.6
1.25 1 1.6
1.375 1 1.6
1.5 1 1.6
1.625 1 1.6
1.75 1 1.6
1.875 1 1.6
2 1 1.6
2.125 1 1.6
2.25 1 1.6
2.375 1 1.6
2.5 1 1.6
2.625 1 1.6
2.75 1 1.6
2.875 1 1.6
3 1 1.6
0 0 1.725
0.125 0 1.725
0.25 0 1.725
0.375 0 1.725
0.5 0 1.725
0.625 0 1.725
0.75 0 1.725
0.875 0 1.725
1 0 1.725
1.125 0 1.725
1.25 0 1.725
1.375 0 1.725
1.5 0 1.725
1.625 0 1.725
1.75 0 1.725
1.875 0 1.725
2 0 1.725
2.125 0 1.725
2.25 0 1.725
2.375 0 1.725
2.5 0 1.725
2.625 0 1.725
2.75 0 1.725
2.875 0 1.725
3 0 1.725
0 0.125 1.725
0.125 0.125 1.725
0.25 0.125 1.725
0.375 0.125 1.725
0.5 0.125 1.725
0.625 0.125 1.725
0.75 0.125 1.725
0.875 0.125 1.725
1 0.125 1.725
1.125 0.125 1.725
1.25 0.125 1.725
1.375 0.125 1.725
1.5 0.125 1.725
1.625 0.125 1.725
1.75 0.125 1.725
1.875 0.125 1.725
2 0.125 1.725
2.125 0.125 1.725
2.25 0.125 1.725
2.375 0.125 1.725
2.5 0.125 1.725
2.625 0.125 1.725
2.75 0.125 1.725
2.875 0.125 1.725
3 0.125 1.725
0 0.25 1.725
0.125 0.25 1.725
0.25 0.25 1.725
0.375 0.25 1.725
0.5 0.25 1.725
0.625 0.25 1.725
0.75 0.25 1.725
0.875 0.25 1.725
1 0.25 1.725
1.125 0.25 1.725
1.25 0.25 1.725
1.375 0.25 1.725
1.5 0.25 1.725
1.625 0.25 1.725
1.75 0.25 1.725
1.875 0.25 1.725
2 0.25 1.725
2.125 0.25 1.725
2.25 0.25 1.725
2.375 0.25 1.725
2.5 0.25 1.725
2.625 0.25 1.725
2.75 0.25 1.725
2.875 0.25 1.725
3 0.25 1.725
0 0.375 1.725
0.125 0.375 1.725
0.25 0.375 1.725
0.375 0.375 1.725
0.5 0.375 1.725
0.625 0.375 1.725
0.75 0.375 1.725
0.875 0.375 1.725
1 0.375 1.725
1.125 0.375 1.725
1.25 0.375 1.725
1.375 0.375 1.725
1.5 0.375 1.725
1.625 0.375 1.725
1.75 0.375 1.725
1.875 0.375 1.725
2 0.375 1.725
2.125 0.375 1.725
2.25 0.375 1.725
2.375 0.375 1.725
2.5 0.375 1.725
2.625 0.375 1.725
2.75 0.375 1.725
2.875 0.375 1.725
3 0.375 1.725
0 0.5 1.725
0.125 0.5 1.725
0.25 0.5 1.725
0.375 0.5 1.725
0.5 0.5 1.725
0.625 0.5 1.725
0.75 0.5 1.725
0.875 0.5 1.725
1 0.5 1.725
1.125 0.5 1.725
1.25 0.5 1.725
1.375 0.5 1.725
1.5 0.5 1.725
1.625 0.5 1.725
1.75 0.5 1.725
1.875 0.5 1.725
2 0.5 1.725
2.125 0.5 1.725
2.25 0.5 1.725
2.375 0.5 1.725
2.5 0.5 1.725
2.625 0.5 1.725
2.75 0.5 1.725
2.875 0.5 1.725
3 0.5 1.725
0 0.625 1.725
0.125 0.625 1.725
0.25 0.625 1.725
0.375 0.625 1.725
0.5 0.625 1.725
0.625 0.625 1.725
0.75 0.625 1.725
0.875 0.625 1.725
1 0.625 1.725
1.125 0.625 1.725
1.25 0.625 1.725
1.375 0.625 1.725
1.5 0.625 1.725
1.625 0.625 1.725
1.75 0.625 1.725
1.875 0.625 1.725
2 0.625 1.725
2.125 0.625 1.725
2.25 0.625 1.725
2.375 0.625 1.725
2.5 0.625 1.725
2.625 0.625 1.725
2.75 0.625 1.725
2.875 0.625 1.725
3 0.625 1.725
0 0.75 1.725
0.125 0.75 1.725
0.25 0.75 1.725
0.375 0.75 1.725
0.5 0.75 1.725
0.625 0.75 1.725
0.75 0.75 1.725
0.875 0.75 1.725
1 0.75 1.725
1.125 0.75 1.725
1.25 0.75 1.725
1.375 0.75 1.725
1.5 0.75 1.725
1.625 0.75 1.725
1.75 0.75 1.725
1.875 0.75 1.725
2 0.75 1.725
2.125 0.75 1.725
2.25 0.75 1.725
2.375 0.75 1.725
2.5 0.75 1.725
2.625 0.75 1.725
2.75 0.75 1.725
2.875 0.75 1.725
3 0.75 1.725
0 0.875 1.725
0.125 0.875 1.725
0.25 0.875 1.725
0.375 0.875 1.725
0.5 0.875 1.725
0.625 0.875 1.725
0.75 0.875 1.725
0.875 0.875 1.725
1 0.875 1.725
1.125 0.875 1.725
1.25 0.875 1.725
1.375 0.875 1.725
1.5 0.875 1.725
1.625 0.875 1.725
1.75 0.875 1.725
1.875 0.875 1.725
2 0.875 1.725
2.125 0.875 1.725
2.25 0.875 1.725
2.375 0.875 1.725
2.5 0.875 1.725
2.625 0.875 1.725
2.75 0.875 1.725
2.875 0.875 1.725
3 0.875 1.725
0 1 1.725
0.125 1 1.725
0.25 1 1.725
0.375 1 1.725
0.5 1 1.725
0.625 1 1.725
0.75 1 1.725
0.875 1 1.725
1 1 1.725
1.125 1 1.725
1.25 1 1.725
1.375 1 1.725
1.5 1 1.725
1.625 1 1.725
1.75 1 1.725
1.875 1 1.725
2 1 1.725
2.125 1 1.725
2.25 1 1.725
2.375 1 1.725
2.5 1 1.725
2.625 1 1.725
2.75 1 1.725
2.875 1 1.725
3 1 1.725
0 0 1.85
0.125 0 1.85
0.25 0 1.85
0.375 0 1.85
0.5 0 1.85
0.625 0 1.85
0.75 0 1.85
0.875 0 1.85
1 0 1.85
1.125 0 1.85
1.25 0 1.85
1.375 0 1.85
1.5 0 1.85
1.625 0 1.85
1.75 0 1.85
1.875 0 1.85
2 0 1.85
2.125 0 1.85
2.25 0 1.85
2.375 0 1.85
2.5 0 1.85
2.625 0 1.85
2.75 0 1.85
2.875 0 1.85
3 0 1.85
0 0.125 1.85
0.125 0.125 1.85
0.25 0.125 1.85
0.375 0.125 1.85
0.5 0.125 1.85
0.625 0.125 1.85
0.75 0.125 1.85
0.875 0.125 1.85
1 0.125 1.85
1.125 0.125 1.85
1.25 0.125 1.85
1.375 0.125 1.85
1.5 0.125 1.85
1.625 0.125 1.85
1.75 0.125 1.85
1.875 0.125 1.85
2 0.125 1.85
2.125 0.125 1.85
2.25 0.125 1.85
2.375 0.125 1.85
2.5 0.125 1.85
2.625 0.125 1.85
2.75 0.125 1.85
2.875 0.125 1.85
3 0.125 1.85
0 0.25 1.85
0.125 0.25 1.85
0.25 0.25 1.85
0.375 0.25 1.85
0.5 0.25 1.85
0.625 0.25 1.85
0.75 0.25 1.85
0.875 0.25 1.85
1 0.25 1.85
1.125 0.25 1.85
1.25 0.25 1.85
1.375 0.25 1.85
1.5 0.25 1.85
1.625 0.25 1.85
1.75 0.25 1.85
1.875 0.25 1.85
2 0.25 1.85
2.125 0.25 1.85
2.25 0.25 1.85
2.375 0.25 1.85
2.5 0.25 1.85
2.625 0.25 1.85
2.75 0.25 1.85
2.875 0.25 1.85
3 0.25 1.85
0 0.375 1.85
0.125 0.375 1.85
0.25 0.375 1.85
0.375 0.375 1.85
0.5 0.375 1.85
0.625 0.375 1.85
0.75 0.375 1.85
0.875 0.375 1.85
1 0.375 1.85
1.125 0.375 1.85
1.25 0.375 1.85
1.375 0.375 1.85
1.5 0.375 1.85
1.625 0.375 1.85
1.75 0.375 1.85
1.875 0.375 1.85
2 0.375 1.85
2.125 0.375 1.85
2.25 0.375 1.85
2.375 0.375 1.85
2.5 0.375 1.85
2.625 0.375 1.85
2.75 0.375 1.85
2.875 0.375 1.85
3 0.375 1.85
0 0.5 1.85
0.125 0.5 1.85
0.25 0.5 1.85
0.375 0.5 1.85
0.5 0.5 1.85
0.625 0.5 1.85
0.75 0.5 1.85
0.875 0.5 1.85
1 0.5 1.85
1.125 0.5 1.85
1.25 0.5 1.85
1.375 0.5 1.85
1.5 0.5 1.85
1.625 0.5 1.85
1.75 0.5 1.85
1.875 0.5 1.85
2 0.5 1.85
2.125 0.5 1.85
2.25 0.5 1.85
2.375 0.5 1.85
2.5 0.5 1.85
2.625 0.5 1.85
2.75 0.5 1.85
2.875 0.5 1.85
3 0.5 1.85
0 0.625 1.85
0.125 0.625 1.85
0.25 0.625 1.85
0.375 0.625 1.85
0.5 0.625 1.85
0.625 0.625 1.85
0.75 0.625 1.85
0.875 0.625 1.85
1 0.625 1.85
1.125 0.625 1.85
1.25 0.625 1.85
1.375 0.625 1.85
1.5 0.625 1.85
1.625 0.625 1.85
1.75 0.625 1.85
1.875 0.625 1.85
2 0.625 1.85
2.125 0.625 1.85
2.25 0.625 1.85
2.375 0.625 1.85
2.5 0.625 1.85
2.625 0.625 1.85
2.75 0.625 1.85
2.875 0.625 1.85
3 0.625 1.85
0 0.75 1.85
0.125 0.75 1.85
0.25 0.75 1.85
0.375 0.75 1.85
0.5 0.75 1.85
0.625 0.75 1.85
0.75 0.75 1.85
0.875 0.75 1.85
1 0.75 1.85
1.125 0.75 1.85
1.25 0.75 1.85
1.375 0.75 1.85
1.5 0.75 1.85
1.625 0.75 1.85
1.75 0.75 1.85
1.875 0.75 1.85
2 0.75 1.85
2.125 0.75 1.85
2.25 0.75 1.85
2.375 0.75 1.85
2.5 0.75 1.85
2.625 0.75 1.85
2.75 0.75 1.85
2.875 0.75 1.85
3 0.75 1.85
0 0.875 1.85
0.125 0.875 1.85
0.25 0.875 1.85
0.375 0.875 1.85
0.5 0.875 1.85
0.625 0.875 1.85
0.75 0.875 1.85
0.875 0.875 1.85
1 0.875 1.85
1.125 0.875 1.85
1.25 0.875 1.85
1.375 0.875 1.85
1.5 0.875 1.85
1.625 0.875 1.85
1.75 0.875 1.85
1.875 0.875 1.85
2 0.875 1.85
2.125 0.875 1.85
2.25 0.875 1.85
2.375 0.875 1.85
2.5 0.875 1.85
2.625 0.875 1.85
2.75 0.875 1.85
2.875 0.875 1.85
3 0.875 1.85
0 1 1.85
0.125 1 1.85
0.25 1 1.85
0.375 1 1.85
0.5 1 1.85
0.625 1 1.85
0.75 1 1.85
0.875 1 1.85
1 1 1.85
1.125 1 1.85
1.25 1 1.85
1.375 1 1.85
1.5 1 1.85
1.625 1 1.85
1.75 1 1.85
1.875 1 1.85
2 1 1.85
2.125 1 1.85
2.25 1 1.85
2.375 1 1.85
2.5 1 1.85
2.625 1 1.85
2.75 1 1.85
2.875 1 1.85
3 1 1.85
0 0 1.975
0.125 0 1.975
0.25 0 1.975
0.375 0 1.975
0.5 0 1.975
0.625 0 1.975
0.75 0 1.975
0.875 0 1.975
1 0 1.975
1.125 0 1.975
1.25 0 1.975
1.375 0 1.975
1.5 0 1.975
1.625 0 1.975
1.75 0 1.975
1.875 0 1.975
2 0 1.975
2.125 0 1.975
2.25 0 1.975
2.375 0 1.975
2.5 0 1.975
2.625 0 1.975
2.75 0 1.975
2.875 0 1.975
3 0 1.975
0 0.125 1.975
0.125 0.125 1.975
0.25 0.125 1.975
0.375 0.125 1.975
0.5 0.125 1.975
0.625 0.125 1.975
0.75 0.125 1.975
0.875 0.125 1.975
1 0.125 1.975
1.125 0.125 1.975
1.25 0.125 1.975
1.375 0.125 1.975
1.5 0.125 1.975
1.625 0.125 1.975
1.75 0.125 1.975
1.875 0.125 1.975
2 0.125 1.975
2.125 0.125 1.975
2.25 0.125 1.975
2.375 0.125 1.975
2.5 0.125 1.975
2.625 0.125 1.975
2.75 0.125 1.975
2.875 0.125 1.975
3 0.125 1.975
0 0.25 1.975
0.125 0.25 1.975
0.25 0.25 1.975
0.375 0.25 1.975
0.5 0.25 1.975
0.625 0.25 1.975
0.75 0.25 1.975
0.875 0.25 1.975
1 0.25 1.975
1.125 0.25 1.975
1.25 0.25 1.975
1.375 0.25 1.975
1.5 0.25 1.975
1.625 0.25 1.975
1.75 0.25 1.975
1.875 0.25 1.975
2 0.25 1.975
2.125 0.25 1.975
2.25 0.25 1.975
2.375 0.25 1.975
2.5 0.25 1.975
2.625 0.25 1.975
2.75 0.25 1.975
2.875 0.25 1.975
3 0.25 1.975
0 0.375 1.975
0.125 0.375 1.975
0.25 0.375 1.975
0.375 0.375 1.975
0.5 0.375 1.975
0.625 0.375 1.975
0.75 0.375 1.975
0.875 0.375 1.975
1 0.375 1.975
1.125 0.375 1.975
1.25 0.375 1.975
1.375 0.375 1.975
1.5 0.375 1.975
1.625 0.375 1.975
1.75 0.375 1.975
1.875 0.375 1.975
2 0.375 1.975
2.125 0.375 1.975
2.25 0.375 1.975
2.375 0.375 1.975
2.5 0.375 1.975
2.625 0.375 1.975
2.75 0.375 1.975
2.875 0.375 1.975
3 0.375 1.975
0 0.5 1.975
0.125 0.5 1.975
0.25 0.5 1.975
0.375 0.5 1.975
0.5 0.5 1.975
0.625 0.5 1.975
0.75 0.5 1.975
0.875 0.5 1.975
1 0.5 1.975
1.125 0.5 1.975
1.25 0.5 1.975
1.375 0.5 1.975
1.5 0.5 1.975
1.625 0.5 1.975
1.75 0.5 1.975
1.875 0.5 1.975
2 0.5 1.975
2.125 0.5 1.975
2.25 0.5 1.975
2.375 0.5 1.975
2.5 0.5 1.975
2.625 0.5 1.975
2.75 0.5 1.975
2.875 0.5 1.975
3 0.5 1.975
0 0.625 1.975
0.125 0.625 1.975
0.25 0.625 1.975
0.375 0.625 1.975
0.5 0.625 1.975
0.625 0.625 1.975
0.75 0.625 1.975
0.875 0.625 1.975
1 0.625 1.975
1.125 0.625 1.975
1.25 0.625 1.975
1.375 0.625 1.975
1.5 0.625 1.975
1.625 0.625 1.975
1.75 0.625 1.975
1.875 0.625 1.975
2 0.625 1.975
2.125 0.625 1.975
2.25 0.625 1.975
2.375 0.625 1.975
2.5 0.625 1.975
2.625 0.625 1.975
2.75 0.625 1.975
2.875 0.625 1.975
3 0.625 1.975
0 0.75 1.975
0.125 0.75 1.975
0.25 0.75 1.975
0.375 0.75 1.975
0.5 0.75 1.975
0.625 0.75 1.975
0.75 0.75 1.975
0.875 0.75 1.975
1 0.75 1.975
1.125 0.75 1.975
1.25 0.75 1.975
1.375 0.75 1.975
1.5 0.75 1.975
1.625 0.75 1.975
1.75 0.75 1.975
1.875 0.75 1.975
2 0.75 1.975
2.125 0.75 1.975
2.25 0.75 1.975
2.375 0.75 1.975
2.5 0.75 1.975
2.625 0.75 1.975
2.75 0.75 1.975
2.875 0.75 1.975
3 0.75 1.975
0 0.875 1.975
0.125 0.875 1.975
0.25 0.875 1.975
0.375 0.875 1.975
0.5 0.875 1.975
0.625 0.875 1.975
0.75 0.875 1.975
0.875 0.875 1.975
1 0.875 1.975
1.125 0.875 1.975
1.25 0.875 1.975
1.375 0.875 1.975
1.5 0.875 1.975
1.625 0.875 1.975
1.75 0.875 1.975
1.875 0.875 1.975
2 0.875 1.975
2.125 0.875 1.975
2.25 0.875 1.975
2.375 0.875 1.975
2.5 0.875 1.975
2.625 0.875 1.975
2.75 0.875 1.975
2.875 0.875 1.975
3 0.875 1.975
0 1 1.975
0.125 1 1.975
0.25 1 1.975
0.375 1 1.975
0.5 1 1.975
0.625 1 1.975
0.75 1 1.975
0.875 1 1.975
1 1 1.975
1.125 1 1.975
1.25 1 1.975
1.375 1 1.975
1.5 1 1.975
1.625 1 1.975
1.75 1 1.975
1.875 1 1.975
2 1 1.975
2.125 1 1.975
2.25 1 1.975
2.375 1 1.975
2.5 1 1.975
2.625 1 1.975
2.75 1 1.975
2.875 1 1.975
3 1 1.975
0 0 2.1
0.125 0 2.1
0.25 0 2.1
0.375 0 2.1
0.5 0 2.1
0.625 0 2.1
0.75 0 2.1
0.875 0 2.1
1 0 2.1
1.125 0 2.1
1.25 0 2.1
1.375 0 2.1
1.5 0 2.1
1.625 0 2.1
1.75 0 2.1
1.875 0 2.1
2 0 2.1
2.125 0 2.1
2.25 0 2.1
2.375 0 2.1
2.5 0 2.1
2.625 0 2.1
2.75 0 2.1
2.875 0 2.1
3 0 2.1
0 0.125 2.1
0.125 0.125 2.1
0.25 0.125 2.1
0.375 0.125 2.1
0.5 0.125 2.1
0.625 0.125 2.1
0.75 0.125 2.1
0.875 0.125 2.1
1 0.125 2.1
1.125 0.125 2.1
1.25 0.125 2.1
1.375 0.125 2.1
1.5 0.125 2.1
1.625 0.125 2.1
1.75 0.125 2.1
1.875 0.125 2.1
2 0.125 2.1
2.125 0.125 2.1
2.25 0.125 2.1
2.375 0.125 2.1
2.5 0.125 2.1
2.625 0.125 2.1
2.75 0.125 2.1
2.875 0.125 2.1
3 0.125 2.1
0 0.25 2.1
0.125 0.25 2.1
0.25 0.25 2.1
0.375 0.25 2.1
0.5 0.25 2.1
0.625 0.25 2.1
0.75 0.25 2.1
0.875 0.25 2.1
1 0.25 2.1
1.125 0.25 2.1
1.25 0.25 2.1
1.375 0.25 2.1
1.5 0.25 2.1
1.625 0.25 2.1
1.75 0.25 2.1
1.875 0.25 2.1
2 0.25 2.1
2.125 0.25 2.1
2.25 0.25 2.1
2.375 0.25 2.1
2.5 0.25 2.1
2.625 0.25 2.1
2.75 0.25 2.1
2.875 0.25 2.1
3 0.25 2.1
0 0.375 2.1
0.125 0.375 2.1
0.25 0.375 2.1
0.375 0.375 2.1
0.5 0.375 2.1
0.625 0.375 2.1
0.75 0.375 2.1
0.875 0.375 2.1
1 0.375 2.1
1.125 0.375 2.1
1.25 0.375 2.1
1.375 0.375 2.1
1.5 0.375 2.1
1.625 0.375 2.1
1.75 0.375 2.1
1.875 0.375 2.1
2 0.375 2.1
2.125 0.375 2.1
2.25 0.375 2.1
2.375 0.375 2.1
2.5 0.375 2.1
2.625 0.375 2.1
2.75 0.375 2.1
2.875 0.375 2.1
3 0.375 2.1
0 0.5 2.1
0.125 0.5 2.1
0.25 0.5 2.1
0.375 0.5 2.1
0.5 0.5 2.1
0.625 0.5 2.1
0.75 0.5 2.1
0.875 0.5 2.1
1 0.5 2.1
1.125 0.5 2.1
1.25 0.5 2.1
1.375 0.5 2.1
1.5 0.5 2.1
1.625 0.5 2.1
1.75 0.5 2.1
1.875 0.5 2.1
2 0.5 2.1
2.125 0.5 2.1
2.25 0.5 2.1
2.375 0.5 2.1
2.5 0.5 2.1
2.625 0.5 2.1
2.75 0.5 2.1
2.875 0.5 2.1
3 0.5 2.1
0 0.625 2.1
0.125 0.625 2.1
0.25 0.625 2.1
0.375 0.625 2.1
0.5 0.625 2.1
0.625 0.625 2.1
0.75 0.625 2.1
0.875 0.625 2.1
1 0.625 2.1
1.125 0.625 2.1
1.25 0.625 2.1
1.375 0.625 2.1
1.5 0.625 2.1
1.625 0.625 2.1
1.75 0.625 2.1
1.875 0.625 2.1
2 0.625 2.1
2.125 0.625 2.1
2.25 0.625 2.1
2.375 0.625 2.1
2.5 0.625 2.1
2.625 0.625 2.1
2.75 0.625 2.1
2.875 0.625 2.1
3 0.625 2.1
0 0.75 2.1
0.125 0.75 2.1
0.25 0.75 2.1
0.375 0.75 2.1
0.5 0.75 2.1
0.625 0.75 2.1
0.75 0.75 2.1
0.875 0.75 2.1
1 0.75 2.1
1.125 0.75 2.1
1.25 0.75 2.1
1.375 0.75 2.1
1.5 0.75 2.1
1.625 0.75 2.1
1.75 0.75 2.1
1.875 0.75 2.1
2 0.75 2.1
2.125 0.75 2.1
2.25 0.75 2.1
2.375 0.75 2.1
2.5 0.75 2.1
2.625 0.75 2.1
2.75 0.75 2.1
2.875 0.75 2.1
3 0.75 2.1
0 0.875 2.1
0.125 0.875 2.1
0.25 0.875 2.1
0.375 0.875 2.1
0.5 0.875 2.1
0.625 0.875 2.1
0.75 0.875 2.1
0.875 0.875 2.1
1 0.875 2.1
1.125 0.875 2.1
1.25 0.875 2.1
1.375 0.875 2.1
1.5 0.875 2.1
1.625 0.875 2.1
1.75 0.875 2.1
1.875 0.875 2.1
2 0.875 2.1
2.125 0.875 2.1
2.25 0.875 2.1
2.375 0.875 2.1
2.5 0.875 2.1
2.625 0.875 2.1
2.75 0.875 2.1
2.875 0.875 2.1
3 0.875 2.1
0 1 2.1
0.125 1 2.1
0.25 1 2.1
0.375 1 2.1
0.5 1 2.1
0.625 1 2.1
0.75 1 2.1
0.875 1 2.1
1 1 2.1
1.125 1 2.1
1.25 1 2.1
1.375 1 2.1
1.5 1 2.1
1.625 1 2.1
1.75 1 2.1
1.875 1 2.1
2 1 2.1
2.125 1 2.1
2.25 1 2.1
2.375 1 2.1
2.5 1 2.1
2.625 1 2.1
2.75 1 2.1
2.875 1 2.1
3 1 2.1
0.0625 0 1.1
0.125 0 1.1625
0.0625 0 1.225
0 0 1.1625
0 0.0625 1.1
0.125 0.0625 1.1
0.125 0.0625 1.225
0 0.0625 1.225
0.0625 0.125 1.1
0.125 0.125 1.1625
0.0625 0.125 1.225
0 0.125 1.1625
0.0625 0 1.1625
0.0625 0.0625 1.1
0.125 0.0625 1.1625
0.0625 0.0625 1.225
0 0.0625 1.1625
0.0625 0.125 1.1625
0.0625 0.0625 1.1625
0.1875 0 1.1
0.25 0 1.1625
0.1875 0 1.225
0.25 0.0625 1.1
0.25 0.0625 1.225
0.1875 0.125 1.1
0.25 0.125 1.1625
0.1875 0.125 1.225
0.1875 0 1.1625
0.1875 0.0625 1.1
0.25 0.0625 1.1625
0.1875 0.0625 1.225
0.1875 0.125 1.1625
0.1875 0.0625 1.1625
0.3125 0 1.1
0.375 0 1.1625
0.3125 0 1.225
0.375 0.0625 1.1
0.375 0.0625 1.225
0.3125 0.125 1.1
0.375 0.125 1.1625
0.3125 0.125 1.225
0.3125 0 1.1625
0.3125 0.0625 1.1
0.375 0.0625 1.1625
0.3125 0.0625 1.225
0.3125 0.125 1.1625
0.3125 0.0625 1.1625
0.4375 0 1.1
0.5 0 1.1625
0.4375 0 1.225
0.5 0.0625 1.1
0.5 0.0625 1.225
0.4375 0.125 1.1
0.5 0.125 1.1625
0.4375 0.125 1.225
0.4375 0 1.1625
0.4375 0.0625 1.1
0.5 0.0625 1.1625
0.4375 0.0625 1.225
0.4375 0.125 1.1625
0.4375 0.0625 1.1625
0.5625 0 1.1
0.625 0 1.1625
0.5625 0 1.225
0.625 0.0625 1.1
0.625 0.0625 1.225
0.5625 0.125 1.1
0.625 0.125 1.1625
0.5625 0.125 1.225
0.5625 0 1.1625
0.5625 0.0625 1.1
0.625 0.0625 1.1625
0.5625 0.0625 1.225
0.5625 0.125 1.1625
0.5625 0.0625 1.1625
0.6875 0 1.1
0.75 0 1.1625
0.6875 0 1.225
0.75 0.0625 1.1
0.75 0.0625 1.225
0.6875 0.125 1.1
0.75 0.125 1.1625
0.6875 0.125 1.225
0.6875 0 1.1625
0.6875 0.0625 1.1
0.75 0.0625 1.1625
0.6875 0.0625 1.225
0.6875 0.125 1.1625
0.6875 0.0625 1.1625
0.8125 0 1.1
0.875 0 1.1625
0.8125 0 1.225
0.875 0.0625 1.1
0.875 0.0625 1.225
0.8125 0.125 1.1
0.875 0.125 1.1625
0.8125 0.125 1.225
0.8125 0 1.1625
0.8125 0.0625 1.1
0.875 0.0625 1.1625
0.8125 0.0625 1.225
0.8125 0.125 1.1625
0.8125 0.0625 1.1625
0.9375 0 1.1
1 0 1.1625
0.9375 0 1.225
1 0.0625 1.1
1 0.0625 1.225
0.9375 0.125 1.1
1 0.125 1.1625
0.9375 0.125 1.225
0.9375 0 1.1625
0.9375 0.0625 1.1
1 0.0625 1.1625
0.9375 0.0625 1.225
0.9375 0.125 1.1625
0.9375 0.0625 1.1625
1.0625 0 1.1
1.125 0 1.1625
1.0625 0 1.225
1.125 0.0625 1.1
1.125 0.0625 1.225
1.0625 0.125 1.1
1.125 0.125 1.1625
1.0625 0.125 1.225
1.0625 0 1.1625
1.0625 0.0625 1.1
1.125 0.0625 1.1625
1.0625 0.0625 1.225
1.0625 0.125 1.1625
1.0625 0.0625 1.1625
1.1875 0 1.1
1.25 0 1.1625
1.1875 0 1.225
1.25 0.0625 1.1
1.25 0.0625 1.225
1.1875 0.125 1.1
1.25 0.125 1.1625
1.1875 0.125 1.225
1.1875 0 1.1625
1.1875 0.0625 1.1
1.25 0.0625 1.1625
1.1875 0.0625 1.225
1.1875 0.125 1.1625
1.1875 0.0625 1.1625
1.3125 0 1.1
1.375 0 1.1625
1.3125 0 1.225
1.375 0.0625 1.1
1.375 0.0625 1.225
1.3125 0.125 1.1
1.375 0.125 1.1625
1.3125 0.125 1.225
1.3125 0 1.1625
1.3125 0.0625 1.1
1.375 0.0625 1.1625
1.3125 0.0625 1.225
1.3125 0.125 1.1625
1.3125 0.0625 1.1625
1.4375 0 1.1
1.5 0 1.1625
1.4375 0 1.225
1.5 0.0625 1.1
1.5 0.0625 1.225
1.4375 0.125 1.1
1.5 0.125 1.1625
1.4375 0.125 1.225
1.4375 0 1.1625
1.4375 0.0625 1.1
1.5 0.0625 1.1625
1.4375 0.0625 1.225
1.4375 0.125 1.1625
1.4375 0.0625 1.1625
1.5625 0 1.1
1.625 0 1.1625
1.5625 0 1.225
1.625 0.0625 1.1
1.625 0.0625 1.225
1.5625 0.125 1.1
1.625 0.125 1.1625
1.5625 0.125 1.225
1.5625 0 1.1625
1.5625 0.0625 1.1
1.625 0.0625 1.1625
1.5625 0.0625 1.225
1.5625 0.125 1.1625
1.5625 0.0625 1.1625
1.6875 0 1.1
1.75 0 1.1625
1.6875 0 1.225
1.75 0.0625 1.1
1.75 0.0625 1.225
1.6875 0.125 1.1
1.75 0.125 1.1625
1.6875 0.125 1.225
1.6875 0 1.1625
1.6875 0.0625 1.1
1.75 0.0625 1.1625
1.6875 0.0625 1.225
1.6875 0.125 1.1625
1.6875 0.0625 1.1625
1.8125 0 1.1
1.875 0 1.1625
1.8125 0 1.225
1.875 0.0625 1.1
1.875 0.0625 1.225
1.8125 0.125 1.1
1.875 0.125 1.1625
1.8125 0.125 1.225
1.8125 0 1.1625
1.8125 0.0625 1.1
1.875 0.0625 1.1625
1.8125 0.0625 1.225
1.8125 0.125 1.1625
1.8125 0.0625 1.1625
1.9375 0 1.1
2 0 1.1625
1.9375 0 1.225
2 0.0625 1.1
2 0.0625 1.225
1.9375 0.125 1.1
2 0.125 1.1625
1.9375 0.125 1.225
1.9375 0 1.1625
1.9375 0.0625 1.1
2 0.0625 1.1625
1.9375 0.0625 1.225
1.9375 0.125 1.1625
1.9375 0.0625 1.1625
2.0625 0 1.1
2.125 0 1.1625
2.0625 0 1.225
2.125 0.0625 1.1
2.125 0.0625 1.225
2.0625 0.125 1.1
2.125 0.125 1.1625
2.0625 0.125 1.225
2.0625 0 1.1625
2.0625 0.0625 1.1
2.125 0.0625 1.1625
2.0625 0.0625 1.225
2.0625 0.125 1.1625
2.0625 0.0625 1.1625
2.1875 0 1.1
2.25 0 1.1625
2.1875 0 1.225
2.25 0.0625 1.1
2.25 0.0625 1.225
2.1875 0.125 1.1
2.25 0.125 1.1625
2.1875 0.125 1.225
2.1875 0 1.1625
2.1875 0.0625 1.1
2.25 0.0625 1.1625
2.1875 0.0625 1.225
2.1875 0.125 1.1625
2.1875 0.0625 1.1625
2.3125 0 1.1
2.375 0 1.1625
2.3125 0 1.225
2.375 0.0625 1.1
2.375 0.0625 1.225
2.3125 0.125 1.1
2.375 0.125 1.1625
2.3125 0.125 1.225
2.3125 0 1.1625
2.3125 0.0625 1.1
2.375 0.0625 1.1625
2.3125 0.0625 1.225
2.3125 0.125 1.1625
2.3125 0.0625 1.1625
2.4375 0 1.1
2.5 0 1.1625
2.4375 0 1.225
2.5 0.0625 1.1
2.5 0.0625 1.225
2.4375 0.125 1.1
2.5 0.125 1.1625
2.4375 0.125 1.225
2.4375 0 1.1625
2.4375 0.0625 1.1
2.5 0.0625 1.1625
2.4375 0.0625 1.225
2.4375 0.125 1.1625
2.4375 0.0625 1.1625
2.5625 0 1.1
2.625 0 1.1625
2.5625 0 1.225
2.625 0.0625 1.1
2.625 0.0625 1.225
2.5625 0.125 1.1
2.625 0.125 1.1625
2.5625 0.125 1.225
2.5625 0 1.1625
2.5625 0.0625 1.1
2.625 0.0625 1.1625
2.5625 0.0625 1.225
2.5625 0.125 1.1625
2.5625 0.0625 1.1625
2.6875 0 1.1
2.75 0 1.1625
2.6875 0 1.225
2.75 0.0625 1.1
2.75 0.0625 1.225
2.6875 0.125 1.1
2.75 0.125 1.1625
2.6875 0.125 1.225
2.6875 0 1.1625
2.6875 0.0625 1.1
2.75 0.0625 1.1625
2.6875 0.0625 1.225
2.6875 0.125 1.1625
2.6875 0.0625 1.1625
2.8125 0 1.1
2.875 0 1.1625
2.8125 0 1.225
2.875 0.0625 1.1
2.875 0.0625 1.225
2.8125 0.125 1.1
2.875 0.125 1.1625
2.8125 0.125 1.225
2.8125 0 1.1625
2.8125 0.0625 1.1
2.875 0.0625 1.1625
2.8125 0.0625 1.225
2.8125 0.125 1.1625
2.8125 0.0625 1.1625
2.9375 0 1.1
3 0 1.1625
2.9375 0 1.225
3 0.0625 1.1
3 0.0625 1.225
2.9375 0.125 1.1
3 0.125 1.1625
2.9375 0.125 1.225
2.9375 0 1.1625
2.9375 0.0625 1.1
3 0.0625 1.1625
2.9375 0.0625 1.225
2.9375 0.125 1.1625
2.9375 0.0625 1.1625
0 0.1875 1.1
0.125 0.1875 1.1
0.125 0.1875 1.225
0 0.1875 1.225
0.0625 0.25 1.1
0.125 0.25 1.1625
0.0625 0.25 1.225
0 0.25 1.1625
0.0625 0.1875 1.1
0.125 0.1875 1.1625
0.0625 0.1875 1.225
0 0.1875 1.1625
0.0625 0.25 1.1625
0.0625 0.1875 1.1625
0.25 0.1875 1.1
0.25 0.1875 1.225
0.1875 0.25 1.1
0.25 0.25 1.1625
0.1875 0.25 1.225
0.1875 0.1875 1.1
0.25 0.1875 1.1625
0.1875 0.1875 1.225
0.1875 0.25 1.1625
0.1875 0.1875 1.1625
0.375 0.1875 1.1
0.375 0.1875 1.225
0.3125 0.25 1.1
0.375 0.25 1.1625
0.3125 0.25 1.225
0.3125 0.1875 1.1
0.375 0.1875 1.1625
0.3125 0.1875 1.225
0.3125 0.25 1.1625
0.3125 0.1875 1.1625
0.5 0.1875 1.1
0.5 0.1875 1.225
0.4375 0.25 1.1
0.5 0.25 1.1625
0.4375 0.25 1.225
0.4375 0.1875 1.1
0.5 0.1875 1.1625
0.4375 0.1875 1.225
0.4375 0.25 1.1625
0.4375 0.1875 1.1625
0.625 0.1875 1.1
0.625 0.1875 1.225
0.5625 0.25 1.1
0.625 0.25 1.1625
0.5625 0.25 1.225
0.5625 0.1875 1.1
0.625 0.1875 1.1625
0.5625 0.1875 1.225
0.5625 0.25 1.1625
0.5625 0.1875 1.1625
0.75 0.1875 1.1
0.75 0.1875 1.225
0.6875 0.25 1.1
0.75 0.25 1.1625
0.6875 0.25 1.225
0.6875 0.1875 1.1
0.75 0.1875 1.1625
0.6875 0.1875 1.225
0.6875 0.25 1.1625
0.6875 0.1875 1.1625
0.875 0.1875 1.1
0.875 0.1875 1.225
0.8125 0.25 1.1
0.875 0.25 1.1625
0.8125 0.25 1.225
0.8125 0.1875 1.1
0.875 0.1875 1.1625
0.8125 0.1875 1.225
0.8125 0.25 1.1625
0.8125 0.1875 1.1625
1 0.1875 1.1
1 0.1875 1.225
0.9375 0.25 1.1
1 0.25 1.1625
0.9375 0.25 1.225
0.9375 0.1875 1.1
1 0.1875 1.1625
0.9375 0.1875 1.225
0.9375 0.25 1.1625
0.9375 0.1875 1.1625
1.125 0.1875 1.1
1.125 0.1875 1.225
1.0625 0.25 1.1
1.125 0.25 1.1625
1.0625 0.25 1.225
1.0625 0.1875 1.1
1.125 0.1875 1.1625
1.0625 0.1875 1.225
1.0625 0.25 1.1625
1.0625 0.1875 1.1625
1.25 0.1875 1.1
1.25 0.1875 1.225
1.1875 0.25 1.1
1.25 0.25 1.1625
1.1875 0.25 1.225
1.1875 0.1875 1.1
1.25 0.1875 1.1625
1.1875 0.1875 1.225
1.1875 0.25 1.1625
1.1875 0.1875 1.1625
1.375 0.1875 1.1
1.375 0.1875 1.225
1.3125 0.25 1.1
1.375 0.25 1.1625
1.3125 0.25 1.225
1.3125 0.1875 1.1
1.375 0.1875 1.1625
1.3125 0.1875 1.225
1.3125 0.25 1.1625
1.3125 0.1875 1.1625
1.5 0.1875 1.1
1.5 0.1875 1.225
1.4375 0.25 1.1
1.5 0.25 1.1625
1.4375 0.25 1.225
1.4375 0.1875 1.1
1.5 0.1875 1.1625
1.4375 0.1875 1.225
1.4375 0.25 1.1625
1.4375 0.1875 1.1625
1.625 0.1875 1.1
1.625 0.1875 1.225
1.5625 0.25 1.1
1.625 0.25 1.1625
1.5625 0.25 1.225
1.5625 0.1875 1.1
1.625 0.1875 1.1625
1.5625 0.1875 1.225
1.5625 0.25 1.1625
1.5625 0.1875 1.1625
1.75 0.1875 1.1
1.75 0.1875 1.225
1.6875 0.25 1.1
1.75 0.25 1.1625
1.6875 0.25 1.225
1.6875 0.1875 1.1
1.75 0.1875 1.1625
1.6875 0.1875 1.225
1.6875 0.25 1.1625
1.6875 0.1875 1.1625
1.875 0.1875 1.1
1.875 0.1875 1.225
1.8125 0.25 1.1
1.875 0.25 1.1625
1.8125 0.25 1.225
1.8125 0.1875 1.1
1.875 0.1875 1.1625
1.8125 0.1875 1.225
1.8125 0.25 1.1625
1.8125 0.1875 1.1625
2 0.1875 1.1
2 0.1875 1.225
1.9375 0.25 1.1
2 0.25 1.1625
1.9375 0.25 1.225
1.9375 0.1875 1.1
2 0.1875 1.1625
1.9375 0.1875 1.225
1.9375 0.25 1.1625
1.9375 0.1875 1.1625
2.125 0.1875 1.1
2.125 0.1875 1.225
2.0625 0.25 1.1
2.125 0.25 1.1625
2.0625 0.25 1.225
2.0625 0.1875 1.1
2.125 0.1875 1.1625
2.0625 0.1875 1.225
2.0625 0.25 1.1625
2.0625 0.1875 1.1625
2.25 0.1875 1.1
2.25 0.1875 1.225
2.1875 0.25 1.1
2.25 0.25 1.1625
2.1875 0.25 1.225
2.1875 0.1875 1.1
2.25 0.1875 1.1625
2.1875 0.1875 1.225
2.1875 0.25 1.1625
2.1875 0.1875 1.1625
2.375 0.1875 1.1
2.375 0.1875 1.225
2.3125 0.25 1.1
2.375 0.25 1.1625
2.3125 0.25 1.225
2.3125 0.1875 1.1
2.375 0.1875 1.1625
2.3125 0.1875 1.225
2.3125 0.25 1.1625
2.3125 0.1875 1.1625
2.5 0.1875 1.1
2.5 0.1875 1.225
2.4375 0.25 1.1
2.5 0.25 1.1625
2.4375 0.25 1.225
2.4375 0.1875 1.1
2.5 0.1875 1.1625
2.4375 0.1875 1.225
2.4375 0.25 1.1625
2.4375 0.1875 1.1625
2.625 0.1875 1.1
2.625 0.1875 1.225
2.5625 0.25 1.1
2.625 0.25 1.1625
2.5625 0.25 1.225
2.5625 0.1875 1.1
2.625 0.1875 1.1625
2.5625 0.1875 1.225
2.5625 0.25 1.1625
2.5625 0.1875 1.1625
2.75 0.1875 1.1
2.75 0.1875 1.225
2.6875 0.25 1.1
2.75 0.25 1.1625
2.6875 0.25 1.225
2.6875 0.1875 1.1
2.75 0.1875 1.1625
2.6875 0.1875 1.225
2.6875 0.25 1.1625
2.6875 0.1875 1.1625
2.875 0.1875 1.1
2.875 0.1875 1.225
2.8125 0.25 1.1
2.875 0.25 1.1625
2.8125 0.25 1.225
2.8125 0.1875 1.1
2.875 0.1875 1.1625
2.8125 0.1875 1.225
2.8125 0.25 1.1625
2.8125 0.1875 1.1625
3 0.1875 1.1
3 0.1875 1.225
2.9375 0.25 1.1
3 0.25 1.1625
2.9375 0.25 1.225
2.9375 0.1875 1.1
3 0.1875 1.1625
2.9375 0.1875 1.225
2.9375 0.25 1.1625
2.9375 0.1875 1.1625
0 0.3125 1.1
0.125 0.3125 1.1
0.125 0.3125 1.225
0 0.3125 1.225
0.0625 0.375 1.1
0.125 0.375 1.1625
0.0625 0.375 1.225
0 0.375 1.1625
0.0625 0.3125 1.1
0.125 0.3125 1.1625
0.0625 0.3125 1.225
0 0.3125 1.1625
0.0625 0.375 1.1625
0.0625 0.3125 1.1625
0.25 0.3125 1.1
0.25 0.3125 1.225
0.1875 0.375 1.1
0.25 0.375 1.1625
0.1875 0.375 1.225
0.1875 0.3125 1.1
0.25 0.3125 1.1625
0.1875 0.3125 1.225
0.1875 0.375 1.1625
0.1875 0.3125 1.1625
0.375 0.3125 1.1
0.375 0.3125 1.225
0.3125 0.375 1.1
0.375 0.375 1.1625
0.3125 0.375 1.225
0.3125 0.3125 1.1
0.375 0.3125 1.1625
0.3125 0.3125 1.225
0.3125 0.375 1.1625
0.3125 0.3125 1.1625
0.5 0.3125 1.1
0.5 0.3125 1.225
0.4375 0.375 1.1
0.5 0.375 1.1625
0.4375 0.375 1.225
0.4375 0.3125 1.1
0.5 0.3125 1.1625
0.4375 0.3125 1.225
0.4375 0.375 1.1625
0.4375 0.3125 1.1625
0.625 0.3125 1.1
0.625 0.3125 1.225
0.5625 0.375 1.1
0.625 0.375 1.1625
0.5625 0.375 1.225
0.5625 0.3125 1.1
0.625 0.3125 1.1625
0.5625 0.3125 1.225
0.5625 0.375 1.1625
0.5625 0.3125 1.1625
0.75 0.3125 1.1
0.75 0.3125 1.225
0.6875 0.375 1.1
0.75 0.375 1.1625
0.6875 0.375 1.225
0.6875 0.3125 1.1
0.75 0.3125 1.1625
0.6875 0.3125 1.225
0.6875 0.375 1.1625
0.6875 0.3125 1.1625
0.875 0.3125 1.1
0.875 0.3125 1.225
0.8125 0.375 1.1
0.875 0.375 1.1625
0.8125 0.375 1.225
0.8125 0.3125 1.1
0.875 0.3125 1.1625
0.8125 0.3125 1.225
0.8125 0.375 1.1625
0.8125 0.3125 1.1625
1 0.3125 1.1
1 0.3125 1.225
0.9375 0.375 1.1
1 0.375 1.1625
0.9375 0.375 1.225
0.9375 0.3125 1.1
1 0.3125 1.1625
0.9375 0.3125 1.225
0.9375 0.375 1.1625
0.9375 0.3125 1.1625
1.125 0.3125 1.1
1.125 0.3125 1.225
1.0625 0.375 1.1
1.125 0.375 1.1625
1.0625 0.375 1.225
1.0625 0.3125 1.1
1.125 0.3125 1.1625
1.0625 0.3125 1.225
1.0625 0.375 1.1625
1.0625 0.3125 1.1625
1.25 0.3125 1.1
1.25 0.3125 1.225
1.1875 0.375 1.1
1.25 0.375 1.1625
1.1875 0.375 1.225
1.1875 0.3125 1.1
1.25 0.3125 1.1625
1.1875 0.3125 1.225
1.1875 0.375 1.1625
1.1875 0.3125 1.1625
1.375 0.3125 1.1
1.375 0.3125 1.225
1.3125 0.375 1.1
1.375 0.375 1.1625
1.3125 0.375 1.225
1.3125 0.3125 1.1
1.375 0.3125 1.1625
1.3125 0.3125 1.225
1.3125 0.375 1.1625
1.3125 0.3125 1.1625
1.5 0.3125 1.1
1.5 0.3125 1.225
1.4375 0.375 1.1
1.5 0.375 1.1625
1.4375 0.375 1.225
1.4375 0.3125 1.1
1.5 0.3125 1.1625
1.4375 0.3125 1.225
1.4375 0.375 1.1625
1.4375 0.3125 1.1625
1.625 0.3125 1.1
1.625 0.3125 1.225
1.5625 0.375 1.1
1.625 0.375 1.1625
1.5625 0.375 1.225
1.5625 0.3125 1.1
1.625 0.3125 1.1625
1.5625 0.3125 1.225
1.5625 0.375 1.1625
1.5625 0.3125 1.1625
1.75 0.3125 1.1
1.75 0.3125 1.225
1.6875 0.375 1.1
1.75 0.375 1.1625
1.6875 0.375 1.225
1.6875 0.3125 1.1
1.75 0.3125 1.1625
1.6875 0.3125 1.225
1.6875 0.375 1.1625
1.6875 0.3125 1.1625
1.875 0.3125 1.1
1.875 0.3125 1.225
1.8125 0.375 1.1
1.875 0.375 1.1625
1.8125 0.375 1.225
1.8125 0.3125 1.1
1.875 0.3125 1.1625
1.8125 0.3125 1.225
1.8125 0.375 1.1625
1.8125 0.3125 1.1625
2 0.3125 1.1
2 0.3125 1.225
1.9375 0.375 1.1
2 0.375 1.1625
1.9375 0.375 1.225
1.9375 0.3125 1.1
2 0.3125 1.1625
1.9375 0.3125 1.225
1.9375 0.375 1.1625
1.9375 0.3125 1.1625
2.125 0.3125 1.1
2.125 0.3125 1.225
2.0625 0.375 1.1
2.125 0.375 1.1625
2.0625 0.375 1.225
2.0625 0.3125 1.1
2.125 0.3125 1.1625
2.0625 0.3125 1.225
2.0625 0.375 1.1625
2.0625 0.3125 1.1625
2.25 0.3125 1.1
2.25 0.3125 1.225
2.1875 0.375 1.1
2.25 0.375 1.1625
2.1875 0.375 1.225
2.1875 0.3125 1.1
2.25 0.3125 1.1625
2.1875 0.3125 1.225
2.1875 0.375 1.1625
2.1875 0.3125 1.1625
2.375 0.3125 1.1
2.375 0.3125 1.225
2.3125 0.375 1.1
2.375 0.375 1.1625
2.3125 0.375 1.225
2.3125 0.3125 1.1
2.375 0.3125 1.1625
2.3125 0.3125 1.225
2.3125 0.375 1.1625
2.3125 0.3125 1.1625
2.5 0.3125 1.1
2.5 0.3125 1.225
2.4375 0.375 1.1
2.5 0.375 1.1625
2.4375 0.375 1.225
2.4375 0.3125 1.1
2.5 0.3125 1.1625
2.4375 0.3125 1.225
2.4375 0.375 1.1625
2.4375 0.3125 1.1625
2.625 0.3125 1.1
2.625 0.3125 1.225
2.5625 0.375 1.1
2.625 0.375 1.1625
2.5625 0.375 1.225
2.5625 0.3125 1.1
2.625 0.3125 1.1625
2.5625 0.3125 1.225
2.5625 0.375 1.1625
2.5625 0.3125 1.1625
2.75 0.3125 1.1
2.75 0.3125 1.225
2.6875 0.375 1.1
2.75 0.375 1.1625
2.6875 0.375 1.225
2.6875 0.3125 1.1
2.75 0.3125 1.1625
2.6875 0.3125 1.225
2.6875 0.375 1.1625
2.6875 0.3125 1.1625
2.875 0.3125 1.1
2.875 0.3125 1.225
2.8125 0.375 1.1
2.875 0.375 1.1625
2.8125 0.375 1.225
2.8125 0.3125 1.1
2.875 0.3125 1.1625
2.8125 0.3125 1.225
2.8125 0.375 1.1625
2.8125 0.3125 1.1625
3 0.3125 1.1
3 0.3125 1.225
2.9375 0.375 1.1
3 0.375 1.1625
2.9375 0.375 1.225
2.9375 0.3125 1.1
3 0.3125 1.1625
2.9375 0.3125 1.225
2.9375 0.375 1.1625
2.9375 0.3125 1.1625
0 0.4375 1.1
0.125 0.4375 1.1
0.125 0.4375 1.225
0 0.4375 1.225
0.0625 0.5 1.1
0.125 0.5 1.1625
0.0625 0.5 1.225
0 0.5 1.1625
0.0625 0.4375 1.1
0.125 0.4375 1.1625
0.0625 0.4375 1.225
0 0.4375 1.1625
0.0625 0.5 1.1625
0.0625 0.4375 1.1625
0.25 0.4375 1.1
0.25 0.4375 1.225
0.1875 0.5 1.1
0.25 0.5 1.1625
0.1875 0.5 1.225
0.1875 0.4375 1.1
0.25 0.4375 1.1625
0.1875 0.4375 1.225
0.1875 0.5 1.1625
0.1875 0.4375 1.1625
0.375 0.4375 1.1
0.375 0.4375 1.225
0.3125 0.5 1.1
0.375 0.5 1.1625
0.3125 0.5 1.225
0.3125 0.4375 1.1
0.375 0.4375 1.1625
0.3125 0.4375 1.225
0.3125 0.5 1.1625
0.3125 0.4375 1.1625
0.5 0.4375 1.1
0.5 0.4375 1.225
0.4375 0.5 1.1
0.5 0.5 1.1625
0.4375 0.5 1.225
0.4375 0.4375 1.1
0.5 0.4375 1.1625
0.4375 0.4375 1.225
0.4375 0.5 1.1625
0.4375 0.4375 1.1625
0.625 0.4375 1.1
0.625 0.4375 1.225
0.5625 0.5 1.1
0.625 0.5 1.1625
0.5625 0.5 1.225
0.5625 0.4375 1.1
0.625 0.4375 1.1625
0.5625 0.4375 1.225
0.5625 0.5 1.1625
0.5625 0.4375 1.1625
0.75 0.4375 1.1
0.75 0.4375 1.225
0.6875 0.5 1.1
0.75 0.5 1.1625
0.6875 0.5 1.225
0.6875 0.4375 1.1
0.75 0.4375 1.1625
0.6875 0.4375 1.225
0.6875 0.5 1.1625
0.6875 0.4375 1.1625
0.875 0.4375 1.1
0.875 0.4375 1.225
0.8125 0.5 1.1
0.875 0.5 1.1625
0.8125 0.5 1.225
0.8125 0.4375 1.1
0.875 0.4375 1.1625
0.8125 0.4375 1.225
0.8125 0.5 1.1625
0.8125 0.4375 1.1625
1 0.4375 1.1
1 0.4375 1.225
0.9375 0.5 1.1
1 0.5 1.1625
0.9375 0.5 1.225
0.9375 0.4375 1.1
1 0.4375 1.1625
0.9375 0.4375 1.225
0.9375 0.5 1.1625
0.9375 0.4375 1.1625
1.125 0.4375 1.1
1.125 0.4375 1.225
1.0625 0.5 1.1
1.125 0.5 1.1625
1.0625 0.5 1.225
1.0625 0.4375 1.1
1.125 0.4375 1.1625
1.0625 0.4375 1.225
1.0625 0.5 1.1625
1.0625 0.4375 1.1625
1.25 0.4375 1.1
1.25 0.4375 1.225
1.1875 0.5 1.1
1.25 0.5 1.1625
1.1875 0.5 1.225
1.1875 0.4375 1.1
1.25 0.4375 1.1625
1.1875 0.4375 1.225
1.1875 0.5 1.1625
1.1875 0.4375 1.1625
1.375 0.4375 1.1
1.375 0.4375 1.225
1.3125 0.5 1.1
1.375 0.5 1.1625
1.3125 0.5 1.225
1.3125 0.4375 1.1
1.375 0.4375 1.1625
1.3125 0.4375 1.225
1.3125 0.5 1.1625
1.3125 0.4375 1.1625
1.5 0.4375 1.1
1.5 0.4375 1.225
1.4375 0.5 1.1
1.5 0.5 1.1625
1.4375 0.5 1.225
1.4375 0.4375 1.1
1.5 0.4375 1.1625
1.4375 0.4375 1.225
1.4375 0.5 1.1625
1.4375 0.4375 1.1625
1.625 0.4375 1.1
1.625 0.4375 1.225
1.5625 0.5 1.1
1.625 0.5 1.1625
1.5625 0.5 1.225
1.5625 0.4375 1.1
1.625 0.4375 1.1625
1.5625 0.4375 1.225
1.5625 0.5 1.1625
1.5625 0.4375 1.1625
1.75 0.4375 1.1
1.75 0.4375 1.225
1.6875 0.5 1.1
1.75 0.5 1.1625
1.6875 0.5 1.225
1.6875 0.4375 1.1
1.75 0.4375 1.1625
1.6875 0.4375 1.225
1.6875 0.5 1.1625
1.6875 0.4375 1.1625
1.875 0.4375 1.1
1.875 0.4375 1.225
1.8125 0.5 1.1
1.875 0.5 1.1625
1.8125 0.5 1.225
1.8125 0.4375 1.1
1.875 0.4375 1.1625
1.8125 0.4375 1.225
1.8125 0.5 1.1625
1.8125 0.4375 1.1625
2 0.4375 1.1
2 0.4375 1.225
1.9375 0.5 1.1
2 0.5 1.1625
1.9375 0.5 1.225
1.9375 0.4375 1.1
2 0.4375 1.1625
1.9375 0.4375 1.225
1.9375 0.5 1.1625
1.9375 0.4375 1.1625
2.125 0.4375 1.1
2.125 0.4375 1.225
2.0625 0.5 1.1
2.125 0.5 1.1625
2.0625 0.5 1.225
2.0625 0.4375 1.1
2.125 0.4375 1.1625
2.0625 0.4375 1.225
2.0625 0.5 1.1625
2.0625 0.4375 1.1625
2.25 0.4375 1.1
2.25 0.4375 1.225
2.1875 0.5 1.1
2.25 0.5 1.1625
2.1875 0.5 1.225
2.1875 0.4375 1.1
2.25 0.4375 1.1625
2.1875 0.4375 1.225
2.1875 0.5 1.1625
2.1875 0.4375 1.1625
2.375 0.4375 1.1
2.375 0.4375 1.225
2.3125 0.5 1.1
2.375 0.5 1.1625
2.3125 0.5 1.225
2.3125 0.4375 1.1
2.375 0.4375 1.1625
2.3125 0.4375 1.225
2.3125 0.5 1.1625
2.3125 0.4375 1.1625
2.5 0.4375 1.1
2.5 0.4375 1.225
2.4375 0.5 1.1
2.5 0.5 1.1625
2.4375 0.5 1.225
2.4375 0.4375 1.1
2.5 0.4375 1.1625
2.4375 0.4375 1.225
2.4375 0.5 1.1625
2.4375 0.4375 1.1625
2.625 0.4375 1.1
2.625 0.4375 1.225
2.5625 0.5 1.1
2.625 0.5 1.1625
2.5625 0.5 1.225
2.5625 0.4375 1.1
2.625 0.4375 1.1625
2.5625 0.4375 1.225
2.5625 0.5 1.1625
2.5625 0.4375 1.1625
2.75 0.4375 1.1
2.75 0.4375 1.225
2.6875 0.5 1.1
2.75 0.5 1.1625
2.6875 0.5 1.225
2.6875 0.4375 1.1
2.75 0.4375 1.1625
2.6875 0.4375 1.225
2.6875 0.5 1.1625
2.6875 0.4375 1.1625
2.875 0.4375 1.1
2.875 0.4375 1.225
2.8125 0.5 1.1
2.875 0.5 1.1625
2.8125 0.5 1.225
2.8125 0.4375 1.1
2.875 0.4375 1.1625
2.8125 0.4375 1.225
2.8125 0.5 1.1625
2.8125 0.4375 1.1625
3 0.4375 1.1
3 0.4375 1.225
2.9375 0.5 1.1
3 0.5 1.1625
2.9375 0.5 1.225
2.9375 0.4375 1.1
3 0.4375 1.1625
2.9375 0.4375 1.225
2.9375 0.5 1.1625
2.9375 0.4375 1.1625
0 0.5625 1.1
0.125 0.5625 1.1
0.125 0.5625 1.225
0 0.5625 1.225
0.0625 0.625 1.1
0.125 0.625 1.1625
0.0625 0.625 1.225
0 0.625 1.1625
0.0625 0.5625 1.1
0.125 0.5625 1.1625
0.0625 0.5625 1.225
0 0.5625 1.1625
0.0625 0.625 1.1625
0.0625 0.5625 1.1625
0.25 0.5625 1.1
0.25 0.5625 1.225
0.1875 0.625 1.1
0.25 0.625 1.1625
0.1875 0.625 1.225
0.1875 0.5625 1.1
0.25 0.5625 1.1625
0.1875 0.5625 1.225
0.1875 0.625 1.1625
0.1875 0.5625 1.1625
0.375 0.5625 1.1
0.375 0.5625 1.225
0.3125 0.625 1.1
0.375 0.625 1.1625
0.3125 0.625 1.225
0.3125 0.5625 1.1
0.375 0.5625 1.1625
0.3125 0.5625 1.225
0.3125 0.625 1.1625
0.3125 0.5625 1.1625
0.5 0.5625 1.1
0.5 0.5625 1.225
0.4375 0.625 1.1
0.5 0.625 1.1625
0.4375 0.625 1.225
0.4375 0.5625 1.1
0.5 0.5625 1.1625
0.4375 0.5625 1.225
0.4375 0.625 1.1625
0.4375 0.5625 1.1625
0.625 0.5625 1.1
0.625 0.5625 1.225
0.5625 0.625 1.1
0.625 0.625 1.1625
0.5625 0.625 1.225
0.5625 0.5625 1.1
0.625 0.5625 1.1625
0.5625 0.5625 1.225
0.5625 0.625 1.1625
0.5625 0.5625 1.1625
0.75 0.5625 1.1
0.75 0.5625 1.225
0.6875 0.625 1.1
0.75 0.625 1.1625
0.6875 0.625 1.225
0.6875 0.5625 1.1
0.75 0.5625 1.1625
0.6875 0.5625 1.225
0.6875 0.625 1.1625
0.6875 0.5625 1.1625
0.875 0.5625 1.1
0.875 0.5625 1.225
0.8125 0.625 1.1
0.875 0.625 1.1625
0.8125 0.625 1.225
0.8125 0.5625 1.1
0.875 0.5625 1.1625
0.8125 0.5625 1.225
0.8125 0.625 1.1625
0.8125 0.5625 1.1625
1 0.5625 1.1
1 0.5625 1.225
0.9375 0.625 1.1
1 0.625 1.1625
0.9375 0.625 1.225
0.9375 0.5625 1.1
1 0.5625 1.1625
0.9375 0.5625 1.225
0.9375 0.625 1.1625
0.9375 0.5625 1.1625
1.125 0.5625 1.1
1.125 0.5625 1.225
1.0625 0.625 1.1
1.125 0.625 1.1625
1.0625 0.625 1.225
1.0625 0.5625 1.1
1.125 0.5625 1.1625
1.0625 0.5625 1.225
1.0625 0.625 1.1625
1.0625 0.5625 1.1625
1.25 0.5625 1.1
1.25 0.5625 1.225
1.1875 0.625 1.1
1.25 0.625 1.1625
1.1875 0.625 1.225
1.1875 0.5625 1.1
1.25 0.5625 1.1625
1.1875 0.5625 1.225
1.1875 0.625 1.1625
1.1875 0.5625 1.1625
1.375 0.5625 1.1
1.375 0.5625 1.225
1.3125 0.625 1.1
1.375 0.625 1.1625
1.3125 0.625 1.225
1.3125 0.5625 1.1
1.375 0.5625 1.1625
1.3125 0.5625 1.225
1.3125 0.625 1.1625
1.3125 0.5625 1.1625
1.5 0.5625 1.1
1.5 0.5625 1.225
1.4375 0.625 1.1
1.5 0.625 1.1625
1.4375 0.625 1.225
1.4375 0.5625 1.1
1.5 0.5625 1.1625
1.4375 0.5625 1.225
1.4375 0.625 1.1625
1.4375 0.5625 1.1625
1.625 0.5625 1.1
1.625 0.5625 1.225
1.5625 0.625 1.1
1.625 0.625 1.1625
1.5625 0.625 1.225
1.5625 0.5625 1.1
1.625 0.5625 1.1625
1.5625 0.5625 1.225
1.5625 0.625 1.1625
1.5625 0.5625 1.1625
1.75 0.5625 1.1
1.75 0.5625 1.225
1.6875 0.625 1.1
1.75 0.625 1.1625
1.6875 0.625 1.225
1.6875 0.5625 1.1
1.75 0.5625 1.1625
1.6875 0.5625 1.225
1.6875 0.625 1.1625
1.6875 0.5625 1.1625
1.875 0.5625 1.1
1.875 0.5625 1.225
1.8125 0.625 1.1
1.875 0.625 1.1625
1.8125 0.625 1.225
1.8125 0.5625 1.1
1.875 0.5625 1.1625
1.8125 0.5625 1.225
1.8125 0.625 1.1625
1.8125 0.5625 1.1625
2 0.5625 1.1
2 0.5625 1.225
1.9375 0.625 1.1
2 0.625 1.1625
1.9375 0.625 1.225
1.9375 0.5625 1.1
2 0.5625 1.1625
1.9375 0.5625 1.225
1.9375 0.625 1.1625
1.9375 0.5625 1.1625
2.125 0.5625 1.1
2.125 0.5625 1.225
2.0625 0.625 1.1
2.125 0.625 1.1625
2.0625 0.625 1.225
2.0625 0.5625 1.1
2.125 0.5625 1.1625
2.0625 0.5625 1.225
2.0625 0.625 1.1625
2.0625 0.5625 1.1625
2.25 0.5625 1.1
2.25 0.5625 1.225
2.1875 0.625 1.1
2.25 0.625 1.1625
2.1875 0.625 1.225
2.1875 0.5625 1.1
2.25 0.5625 1.1625
2.1875 0.5625 1.225
2.1875 0.625 1.1625
2.1875 0.5625 1.1625
2.375 0.5625 1.1
2.375 0.5625 1.225
2.3125 0.625 1.1
2.375 0.625 1.1625
2.3125 0.625 1.225
2.3125 0.5625 1.1
2.375 0.5625 1.1625
2.3125 0.5625 1.225
2.3125 0.625 1.1625
2.3125 0.5625 1.1625
2.5 0.5625 1.1
2.5 0.5625 1.225
2.4375 0.625 1.1
2.5 0.625 1.1625
2.4375 0.625 1.225
2.4375 0.5625 1.1
2.5 0.5625 1.1625
2.4375 0.5625 1.225
2.4375 0.625 1.1625
2.4375 0.5625 1.1625
2.625 0.5625 1.1
2.625 0.5625 1.225
2.5625 0.625 1.1
2.625 0.625 1.1625
2.5625 0.625 1.225
2.5625 0.5625 1.1
2.625 0.5625 1.1625
2.5625 0.5625 1.225
2.5625 0.625 1.1625
2.5625 0.5625 1.1625
2.75 0.5625 1.1
2.75 0.5625 1.225
2.6875 0.625 1.1
2.75 0.625 1.1625
2.6875 0.625 1.225
2.6875 0.5625 1.1
2.75 0.5625 1.1625
2.6875 0.5625 1.225
2.6875 0.625 1.1625
2.6875 0.5625 1.1625
2.875 0.5625 1.1
2.875 0.5625 1.225
2.8125 0.625 1.1
2.875 0.625 1.1625
2.8125 0.625 1.225
2.8125 0.5625 1.1
2.875 0.5625 1.1625
2.8125 0.5625 1.225
2.8125 0.625 1.1625
2.8125 0.5625 1.1625
3 0.5625 1.1
3 0.5625 1.225
2.9375 0.625 1.1
3 0.625 1.1625
2.9375 0.625 1.225
2.9375 0.5625 1.1
3 0.5625 1.1625
2.9375 0.5625 1.225
2.9375 0.625 1.1625
2.9375 0.5625 1.1625
0 0.6875 1.1
0.125 0.6875 1.1
0.125 0.6875 1.225
0 0.6875 1.225
0.0625 0.75 1.1
0.125 0.75 1.1625
0.0625 0.75 1.225
0 0.75 1.1625
0.0625 0.6875 1.1
0.125 0.6875 1.1625
0.0625 0.6875 1.225
0 0.6875 1.1625
0.0625 0.75 1.1625
0.0625 0.6875 1.1625
0.25 0.6875 1.1
0.25 0.6875 1.225
0.1875 0.75 1.1
0.25 0.75 1.1625
0.1875 0.75 1.225
0.1875 0.6875 1.1
0.25 0.6875 1.1625
0.1875 0.6875 1.225
0.1875 0.75 1.1625
0.1875 0.6875 1.1625
0.375 0.6875 1.1
0.375 0.6875 1.225
0.3125 0.75 1.1
0.375 0.75 1.1625
0.3125 0.75 1.225
0.3125 0.6875 1.1
0.375 0.6875 1.1625
0.3125 0.6875 1.225
0.3125 0.75 1.1625
0.3125 0.6875 1.1625
0.5 0.6875 1.1
0.5 0.6875 1.225
0.4375 0.75 1.1
0.5 0.75 1.1625
0.4375 0.75 1.225
0.4375 0.6875 1.1
0.5 0.6875 1.1625
0.4375 0.6875 1.225
0.4375 0.75 1.1625
0.4375 0.6875 1.1625
0.625 0.6875 1.1
0.625 0.6875 1.225
0.5625 0.75 1.1
0.625 0.75 1.1625
0.5625 0.75 1.225
0.5625 0.6875 1.1
0.625 0.6875 1.1625
0.5625 0.6875 1.225
0.5625 0.75 1.1625
0.5625 0.6875 1.1625
0.75 0.6875 1.1
0.75 0.6875 1.225
0.6875 0.75 1.1
0.75 0.75 1.1625
0.6875 0.75 1.225
0.6875 0.6875 1.1
0.75 0.6875 1.1625
0.6875 0.6875 1.225
0.6875 0.75 1.1625
0.6875 0.6875 1.1625
0.875 0.6875 1.1
0.875 0.6875 1.225
0.8125 0.75 1.1
0.875 0.75 1.1625
0.8125 0.75 1.225
0.8125 0.6875 1.1
0.875 0.6875 1.1625
0.8125 0.6875 1.225
0.8125 0.75 1.1625
0.8125 0.6875 1.1625
1 0.6875 1.1
1 0.6875 1.225
0.9375 0.75 1.1
1 0.75 1.1625
0.9375 0.75 1.225
0.9375 0.6875 1.1
1 0.6875 1.1625
0.9375 0.6875 1.225
0.9375 0.75 1.1625
0.9375 0.6875 1.1625
1.125 0.6875 1.1
1.125 0.6875 1.225
1.0625 0.75 1.1
1.125 0.75 1.1625
1.0625 0.75 1.225
1.0625 0.6875 1.1
1.125 0.6875 1.1625
1.0625 0.6875 1.225
1.0625 0.75 1.1625
1.0625 0.6875 1.1625
1.25 0.6875 1.1
1.25 0.6875 1.225
1.1875 0.75 1.1
1.25 0.75 1.1625
1.1875 0.75 1.225
1.1875 0.6875 1.1
1.25 0.6875 1.1625
1.1875 0.6875 1.225
1.1875 0.75 1.1625
1.1875 0.6875 1.1625
1.375 0.6875 1.1
1.375 0.6875 1.225
1.3125 0.75 1.1
1.375 0.75 1.1625
1.3125 0.75 1.225
1.3125 0.6875 1.1
1.375 0.6875 1.1625
1.3125 0.6875 1.225
1.3125 0.75 1.1625
1.3125 0.6875 1.1625
1.5 0.6875 1.1
1.5 0.6875 1.225
1.4375 0.75 1.1
1.5 0.75 1.1625
1.4375 0.75 1.225
1.4375 0.6875 1.1
1.5 0.6875 1.1625
1.4375 0.6875 1.225
1.4375 0.75 1.1625
1.4375 0.6875 1.1625
1.625 0.6875 1.1
1.625 0.6875 1.225
1.5625 0.75 1.1
1.625 0.75 1.1625
1.5625 0.75 1.225
1.5625 0.6875 1.1
1.625 0.6875 1.1625
1.5625 0.6875 1.225
1.5625 0.75 1.1625
1.5625 0.6875 1.1625
1.75 0.6875 1.1
1.75 0.6875 1.225
1.6875 0.75 1.1
1.75 0.75 1.1625
1.6875 0.75 1.225
1.6875 0.6875 1.1
1.75 0.6875 1.1625
1.6875 0.6875 1.225
1.6875 0.75 1.1625
1.6875 0.6875 1.1625
1.875 0.6875 1.1
1.875 0.6875 1.225
1.8125 0.75 1.1
1.875 0.75 1.1625
1.8125 0.75 1.225
1.8125 0.6875 1.1
1.875 0.6875 1.1625
1.8125 0.6875 1.225
1.8125 0.75 1.1625
1.8125 0.6875 1.1625
2 0.6875 1.1
2 0.6875 1.225
1.9375 0.75 1.1
2 0.75 1.1625
1.9375 0.75 1.225
1.9375 0.6875 1.1
2 0.6875 1.1625
1.9375 0.6875 1.225
1.9375 0.75 1.1625
1.9375 0.6875 1.1625
2.125 0.6875 1.1
2.125 0.6875 1.225
2.0625 0.75 1.1
2.125 0.75 1.1625
2.0625 0.75 1.225
2.0625 0.6875 1.1
2.125 0.6875 1.1625
2.0625 0.6875 1.225
2.0625 0.75 1.1625
2.0625 0.6875 1.1625
2.25 0.6875 1.1
2.25 0.6875 1.225
2.1875 0.75 1.1
2.25 0.75 1.1625
2.1875 0.75 1.225
2.1875 0.6875 1.1
2.25 0.6875 1.1625
2.1875 0.6875 1.225
2.1875 0.75 1.1625
2.1875 0.6875 1.1625
2.375 0.6875 1.1
2.375 0.6875 1.225
2.3125 0.75 1.1
2.375 0.75 1.1625
2.3125 0.75 1.225
2.3125 0.6875 1.1
2.375 0.6875 1.1625
2.3125 0.6875 1.225
2.3125 0.75 1.1625
2.3125 0.6875 1.1625
2.5 0.6875 1.1
2.5 0.6875 1.225
2.4375 0.75 1.1
2.5 0.75 1.1625
2.4375 0.75 1.225
2.4375 0.6875 1.1
2.5 0.6875 1.1625
2.4375 0.6875 1.225
2.4375 0.75 1.1625
2.4375 0.6875 1.1625
2.625 0.6875 1.1
2.625 0.6875 1.225
2.5625 0.75 1.1
2.625 0.75 1.1625
2.5625 0.75 1.225
2.5625 0.6875 1.1
2.625 0.6875 1.1625
2.5625 0.6875 1.225
2.5625 0.75 1.1625
2.5625 0.6875 1.1625
2.75 0.6875 1.1
2.75 0.6875 1.225
2.6875 0.75 1.1
2.75 0.75 1.1625
2.6875 0.75 1.225
2.6875 0.6875 1.1
2.75 0.6875 1.1625
2.6875 0.6875 1.225
2.6875 0.75 1.1625
2.6875 0.6875 1.1625
2.875 0.6875 1.1
2.875 0.6875 1.225
2.8125 0.75 1.1
2.875 0.75 1.1625
2.8125 0.75 1.225
2.8125 0.6875 1.1
2.875 0.6875 1.1625
2.8125 0.6875 1.225
2.8125 0.75 1.1625
2.8125 0.6875 1.1625
3 0.6875 1.1
3 0.6875 1.225
2.9375 0.75 1.1
3 0.75 1.1625
2.9375 0.75 1.225
2.9375 0.6875 1.1
3 0.6875 1.1625
2.9375 0.6875 1.225
2.9375 0.75 1.1625
2.9375 0.6875 1.1625
0 0.8125 1.1
0.125 0.8125 1.1
0.125 0.8125 1.225
0 0.8125 1.225
0.0625 0.875 1.1
0.125 0.875 1.1625
0.0625 0.875 1.225
0 0.875 1.1625
0.0625 0.8125 1.1
0.125 0.8125 1.1625
0.0625 0.8125 1.225
0 0.8125 1.1625
0.0625 0.875 1.1625
0.0625 0.8125 1.1625
0.25 0.8125 1.1
0.25 0.8125 1.225
0.1875 0.875 1.1
0.25 0.875 1.1625
0.1875 0.875 1.225
0.1875 0.8125 1.1
0.25 0.8125 1.1625
0.1875 0.8125 1.225
0.1875 0.875 1.1625
0.1875 0.8125 1.1625
0.375 0.8125 1.1
0.375 0.8125 1.225
0.3125 0.875 1.1
0.375 0.875 1.1625
0.3125 0.875 1.225
0.3125 0.8125 1.1
0.375 0.8125 1.1625
0.3125 0.8125 1.225
0.3125 0.875 1.1625
0.3125 0.8125 1.1625
0.5 0.8125 1.1
0.5 0.8125 1.225
0.4375 0.875 1.1
0.5 0.875 1.1625
0.4375 0.875 1.225
0.4375 0.8125 1.1
0.5 0.8125 1.1625
0.4375 0.8125 1.225
0.4375 0.875 1.1625
0.4375 0.8125 1.1625
0.625 0.8125 1.1
0.625 0.8125 1.225
0.5625 0.875 1.1
0.625 0.875 1.1625
0.5625 0.875 1.225
0.5625 0.8125 1.1
0.625 0.8125 1.1625
0.5625 0.8125 1.225
0.5625 0.875 1.1625
0.5625 0.8125 1.1625
0.75 0.8125 1.1
0.75 0.8125 1.225
0.6875 0.875 1.1
0.75 0.875 1.1625
0.6875 0.875 1.225
0.6875 0.8125 1.1
0.75 0.8125 1.1625
0.6875 0.8125 1.225
0.6875 0.875 1.1625
0.6875 0.8125 1.1625
0.875 0.8125 1.1
0.875 0.8125 1.225
0.8125 0.875 1.1
0.875 0.875 1.1625
0.8125 0.875 1.225
0.8125 0.8125 1.1
0.875 0.8125 1.1625
0.8125 0.8125 1.225
0.8125 0.875 1.1625
0.8125 0.8125 1.1625
1 0.8125 1.1
1 0.8125 1.225
0.9375 0.875 1.1
1 0.875 1.1625
0.9375 0.875 1.225
0.9375 0.8125 1.1
1 0.8125 1.1625
0.9375 0.8125 1.225
0.9375 0.875 1.1625
0.9375 0.8125 1.1625
1.125 0.8125 1.1
1.125 0.8125 1.225
1.0625 0.875 1.1
1.125 0.875 1.1625
1.0625 0.875 1.225
1.0625 0.8125 1.1
1.125 0.8125 1.1625
1.0625 0.8125 1.225
1.0625 0.875 1.1625
1.0625 0.8125 1.1625
1.25 0.8125 1.1
1.25 0.8125 1.225
1.1875 0.875 1.1
1.25 0.875 1.1625
1.1875 0.875 1.225
1.1875 0.8125 1.1
1.25 0.8125 1.1625
1.1875 0.8125 1.225
1.1875 0.875 1.1625
1.1875 0.8125 1.1625
1.375 0.8125 1.1
1.375 0.8125 1.225
1.3125 0.875 1.1
1.375 0.875 1.1625
1.3125 0.875 1.225
1.3125 0.8125 1.1
1.375 0.8125 1.1625
1.3125 0.8125 1.225
1.3125 0.875 1.1625
1.3125 0.8125 1.1625
1.5 0.8125 1.1
1.5 0.8125 1.225
1.4375 0.875 1.1
1.5 0.875 1.1625
1.4375 0.875 1.225
1.4375 0.8125 1.1
1.5 0.8125 1.1625
1.4375 0.8125 1.225
1.4375 0.875 1.1625
1.4375 0.8125 1.1625
1.625 0.8125 1.1
1.625 0.8125 1.225
1.5625 0.875 1.1
1.625 0.875 1.1625
1.5625 0.875 1.225
1.5625 0.8125 1.1
1.625 0.8125 1.1625
1.5625 0.8125 1.225
1.5625 0.875 1.1625
1.5625 0.8125 1.1625
1.75 0.8125 1.1
1.75 0.8125 1.225
1.6875 0.875 1.1
1.75 0.875 1.1625
1.6875 0.875 1.225
1.6875 0.8125 1.1
1.75 0.8125 1.1625
1.6875 0.8125 1.225
1.6875 0.875 1.1625
1.6875 0.8125 1.1625
1.875 0.8125 1.1
1.875 0.8125 1.225
1.8125 0.875 1.1
1.875 0.875 1.1625
1.8125 0.875 1.225
1.8125 0.8125 1.1
1.875 0.8125 1.1625
1.8125 0.8125 1.225
1.8125 0.875 1.1625
1.8125 0.8125 1.1625
2 0.8125 1.1
2 0.8125 1.225
1.9375 0.875 1.1
2 0.875 1.1625
1.9375 0.875 1.225
1.9375 0.8125 1.1
2 0.8125 1.1625
1.9375 0.8125 1.225
1.9375 0.875 1.1625
1.9375 0.8125 1.1625
2.125 0.8125 1.1
2.125 0.8125 1.225
2.0625 0.875 1.1
2.125 0.875 1.1625
2.0625 0.875 1.225
2.0625 0.8125 1.1
2.125 0.8125 1.1625
2.0625 0.8125 1.225
2.0625 0.875 1.1625
2.0625 0.8125 1.1625
2.25 0.8125 1.1
2.25 0.8125 1.225
2.1875 0.875 1.1
2.25 0.875 1.1625
2.1875 0.875 1.225
2.1875 0.8125 1.1
2.25 0.8125 1.1625
2.1875 0.8125 1.225
2.1875 0.875 1.1625
2.1875 0.8125 1.1625
2.375 0.8125 1.1
2.375 0.8125 1.225
2.3125 0.875 1.1
2.375 0.875 1.1625
2.3125 0.875 1.225
2.3125 0.8125 1.1
2.375 0.8125 1.1625
2.3125 0.8125 1.225
2.3125 0.875 1.1625
2.3125 0.8125 1.1625
2.5 0.8125 1.1
2.5 0.8125 1.225
2.4375 0.875 1.1
2.5 0.875 1.1625
2.4375 0.875 1.225
2.4375 0.8125 1.1
2.5 0.8125 1.1625
2.4375 0.8125 1.225
2.4375 0.875 1.1625
2.4375 0.8125 1.1625
2.625 0.8125 1.1
2.625 0.8125 1.225
2.5625 0.875 1.1
2.625 0.875 1.1625
2.5625 0.875 1.225
2.5625 0.8125 1.1
2.625 0.8125 1.1625
2.5625 0.8125 1.225
2.5625 0.875 1.1625
2.5625 0.8125 1.1625
2.75 0.8125 1.1
2.75 0.8125 1.225
2.6875 0.875 1.1
2.75 0.875 1.1625
2.6875 0.875 1.225
2.6875 0.8125 1.1
2.75 0.8125 1.1625
2.6875 0.8125 1.225
2.6875 0.875 1.1625
2.6875 0.8125 1.1625
2.875 0.8125 1.1
2.875 0.8125 1.225
2.8125 0.875 1.1
2.875 0.875 1.1625
2.8125 0.875 1.225
2.8125 0.8125 1.1
2.875 0.8125 1.1625
2.8125 0.8125 1.225
2.8125 0.875 1.1625
2.8125 0.8125 1.1625
3 0.8125 1.1
3 0.8125 1.225
2.9375 0.875 1.1
3 0.875 1.1625
2.9375 0.875 1.225
2.9375 0.8125 1.1
3 0.8125 1.1625
2.9375 0.8125 1.225
2.9375 0.875 1.1625
2.9375 0.8125 1.1625
0 0.9375 1.1
0.125 0.9375 1.1
0.125 0.9375 1.225
0 0.9375 1.225
0.0625 1 1.1
0.125 1 1.1625
0.0625 1 1.225
0 1 1.1625
0.0625 0.9375 1.1
0.125 0.9375 1.1625
0.0625 0.9375 1.225
0 0.9375 1.1625
0.0625 1 1.1625
0.0625 0.9375 1.1625
0.25 0.9375 1.1
0.25 0.9375 1.225
0.1875 1 1.1
0.25 1 1.1625
0.1875 1 1.225
0.1875 0.9375 1.1
0.25 0.9375 1.1625
0.1875 0.9375 1.225
0.1875 1 1.1625
0.1875 0.9375 1.1625
0.375 0.9375 1.1
0.375 0.9375 1.225
0.3125 1 1.1
0.375 1 1.1625
0.3125 1 1.225
0.3125 0.9375 1.1
0.375 0.9375 1.1625
0.3125 0.9375 1.225
0.3125 1 1.1625
0.3125 0.9375 1.1625
0.5 0.9375 1.1
0.5 0.9375 1.225
0.4375 1 1.1
0.5 1 1.1625
0.4375 1 1.225
0.4375 0.9375 1.1
0.5 0.9375 1.1625
0.4375 0.9375 1.225
0.4375 1 1.1625
0.4375 0.9375 1.1625
0.625 0.9375 1.1
0.625 0.9375 1.225
0.5625 1 1.1
0.625 1 1.1625
0.5625 1 1.225
0.5625 0.9375 1.1
0.625 0.9375 1.1625
0.5625 0.9375 1.225
0.5625 1 1.1625
0.5625 0.9375 1.1625
0.75 0.9375 1.1
0.75 0.9375 1.225
0.6875 1 1.1
0.75 1 1.1625
0.6875 1 1.225
0.6875 0.9375 1.1
0.75 0.9375 1.1625
0.6875 0.9375 1.225
0.6875 1 1.1625
0.6875 0.9375 1.1625
0.875 0.9375 1.1
0.875 0.9375 1.225
0.8125 1 1.1
0.875 1 1.1625
0.8125 1 1.225
0.8125 0.9375 1.1
0.875 0.9375 1.1625
0.8125 0.9375 1.225
0.8125 1 1.1625
0.8125 0.9375 1.1625
1 0.9375 1.1
1 0.9375 1.225
0.9375 1 1.1
1 1 1.1625
0.9375 1 1.225
0.9375 0.9375 1.1
1 0.9375 1.1625
0.9375 0.9375 1.225
0.9375 1 1.1625
0.9375 0.9375 1.1625
1.125 0.9375 1.1
1.125 0.9375 1.225
1.0625 1 1.1
1.125 1 1.1625
1.0625 1 1.225
1.0625 0.9375 1.1
1.125 0.9375 1.1625
1.0625 0.9375 1.225
1.0625 1 1.1625
1.0625 0.9375 1.1625
1.25 0.9375 1.1
1.25 0.9375 1.225
1.1875 1 1.1
1.25 1 1.1625
1.1875 1 1.225
1.1875 0.9375 1.1
1.25 0.9375 1.1625
1.1875 0.9375 1.225
1.1875 1 1.1625
1.1875 0.9375 1.1625
1.375 0.9375 1.1
1.375 0.9375 1.225
1.3125 1 1.1
1.375 1 1.1625
1.3125 1 1.225
1.3125 0.9375 1.1
1.375 0.9375 1.1625
1.3125 0.9375 1.225
1.3125 1 1.1625
1.3125 0.9375 1.1625
1.5 0.9375 1.1
1.5 0.9375 1.225
1.4375 1 1.1
1.5 1 1.1625
1.4375 1 1.225
1.4375 0.9375 1.1
1.5 0.9375 1.1625
1.4375 0.9375 1.225
1.4375 1 1.1625
1.4375 0.9375 1.1625
1.625 0.9375 1.1
1.625 0.9375 1.225
1.5625 1 1.1
1.625 1 1.1625
1.5625 1 1.225
1.5625 0.9375 1.1
1.625 0.9375 1.1625
1.5625 0.9375 1.225
1.5625 1 1.1625
1.5625 0.9375 1.1625
1.75 0.9375 1.1
1.75 0.9375 1.225
1.6875 1 1.1
1.75 1 1.1625
1.6875 1 1.225
1.6875 0.9375 1.1
1.75 0.9375 1.1625
1.6875 0.9375 1.225
1.6875 1 1.1625
1.6875 0.9375 1.1625
1.875 0.9375 1.1
1.875 0.9375 1.225
1.8125 1 1.1
1.875 1 1.1625
1.8125 1 1.225
1.8125 0.9375 1.1
1.875 0.9375 1.1625
1.8125 0.9375 1.225
1.8125 1 1.1625
1.8125 0.9375 1.1625
2 0.9375 1.1
2 0.9375 1.225
1.9375 1 1.1
2 1 1.1625
1.9375 1 1.225
1.9375 0.9375 1.1
2 0.9375 1.1625
1.9375 0.9375 1.225
1.9375 1 1.1625
1.9375 0.9375 1.1625
2.125 0.9375 1.1
2.125 0.9375 1.225
2.0625 1 1.1
2.125 1 1.1625
2.0625 1 1.225
2.0625 0.9375 1.1
2.125 0.9375 1.1625
2.0625 0.9375 1.225
2.0625 1 1.1625
2.0625 0.9375 1.1625
2.25 0.9375 1.1
2.25 0.9375 1.225
2.1875 1 1.1
2.25 1 1.1625
2.1875 1 1.225
2.1875 0.9375 1.1
2.25 0.9375 1.1625
2.1875 0.9375 1.225
2.1875 1 1.1625
2.1875 0.9375 1.1625
2.375 0.9375 1.1
2.375 0.9375 1.225
2.3125 1 1.1
2.375 1 1.1625
2.3125 1 1.225
2.3125 0.9375 1.1
2.375 0.9375 1.1625
2.3125 0.9375 1.225
2.3125 1 1.1625
2.3125 0.9375 1.1625
2.5 0.9375 1.1
2.5 0.9375 1.225
2.4375 1 1.1
2.5 1 1.1625
2.4375 1 1.225
2.4375 0.9375 1.1
2.5 0.9375 1.1625
2.4375 0.9375 1.225
2.4375 1 1.1625
2.4375 0.9375 1.1625
2.625 0.9375 1.1
2.625 0.9375 1.225
2.5625 1 1.1
2.625 1 1.1625
2.5625 1 1.225
2.5625 0.9375 1.1
2.625 0.9375 1.1625
2.5625 0.9375 1.225
2.5625 1 1.1625
2.5625 0.9375 1.1625
2.75 0.9375 1.1
2.75 0.9375 1.225
2.6875 1 1.1
2.75 1 1.1625
2.6875 1 1.225
2.6875 0.9375 1.1
2.75 0.9375 1.1625
2.6875 0.9375 1.225
2.6875 1 1.1625
2.6875 0.9375 1.1625
2.875 0.9375 1.1
2.875 0.9375 1.225
2.8125 1 1.1
2.875 1 1.1625
2.8125 1 1.225
2.8125 0.9375 1.1
2.875 0.9375 1.1625
2.8125 0.9375 1.225
2.8125 1 1.1625
2.8125 0.9375 1.1625
3 0.9375 1.1
3 0.9375 1.225
2.9375 1 1.1
3 1 1.1625
2.9375 1 1.225
2.9375 0.9375 1.1
3 0.9375 1.1625
2.9375 0.9375 1.225
2.9375 1 1.1625
2.9375 0.9375 1.1625
0.125 0 1.2875
0.0625 0 1.35
0 0 1.2875
0.125 0.0625 1.35
0 0.0625 1.35
0.125 0.125 1.2875
0.0625 0.125 1.35
0 0.125 1.2875
0.0625 0 1.2875
0.125 0.0625 1.2875
0.0625 0.0625 1.35
0 0.0625 1.2875
0.0625 0.125 1.2875
0.0625 0.0625 1.2875
0.25 0 1.2875
0.1875 0 1.35
0.25 0.0625 1.35
0.25 0.125 1.2875
0.1875 0.125 1.35
0.1875 0 1.2875
0.25 0.0625 1.2875
0.1875 0.0625 1.35
0.1875 0.125 1.2875
0.1875 0.0625 1.2875
0.375 0 1.2875
0.3125 0 1.35
0.375 0.0625 1.35
0.375 0.125 1.2875
0.3125 0.125 1.35
0.3125 0 1.2875
0.375 0.0625 1.2875
0.3125 0.0625 1.35
0.3125 0.125 1.2875
0.3125 0.0625 1.2875
0.5 0 1.2875
0.4375 0 1.35
0.5 0.0625 1.35
0.5 0.125 1.2875
0.4375 0.125 1.35
0.4375 0 1.2875
0.5 0.0625 1.2875
0.4375 0.0625 1.35
0.4375 0.125 1.2875
0.4375 0.0625 1.2875
0.625 0 1.2875
0.5625 0 1.35
0.625 0.0625 1.35
0.625 0.125 1.2875
0.5625 0.125 1.35
0.5625 0 1.2875
0.625 0.0625 1.2875
0.5625 0.0625 1.35
0.5625 0.125 1.2875
0.5625 0.0625 1.2875
0.75 0 1.2875
0.6875 0 1.35
0.75 0.0625 1.35
0.75 0.125 1.2875
0.6875 0.125 1.35
0.6875 0 1.2875
0.75 0.0625 1.2875
0.6875 0.0625 1.35
0.6875 0.125 1.2875
0.6875 0.0625 1.2875
0.875 0 1.2875
0.8125 0 1.35
0.875 0.0625 1.35
0.875 0.125 1.2875
0.8125 0.125 1.35
0.8125 0 1.2875
0.875 0.0625 1.2875
0.8125 0.0625 1.35
0.8125 0.125 1.2875
0.8125 0.0625 1.2875
1 0 1.2875
0.9375 0 1.35
1 0.0625 1.35
1 0.125 1.2875
0.9375 0.125 1.35
0.9375 0 1.2875
1 0.0625 1.2875
0.9375 0.0625 1.35
0.9375 0.125 1.2875
0.9375 0.0625 1.2875
1.125 0 1.2875
1.0625 0 1.35
1.125 0.0625 1.35
1.125 0.125 1.2875
1.0625 0.125 1.35
1.0625 0 1.2875
1.125 0.0625 1.2875
1.0625 0.0625 1.35
1.0625 0.125 1.2875
1.0625 0.0625 1.2875
1.25 0 1.2875
1.1875 0 1.35
1.25 0.0625 1.35
1.25 0.125 1.2875
1.1875 0.125 1.35
1.1875 0 1.2875
1.25 0.0625 1.2875
1.1875 0.0625 1.35
1.1875 0.125 1.2875
1.1875 0.0625 1.2875
1.375 0 1.2875
1.3125 0 1.35
1.375 0.0625 1.35
1.375 0.125 1.2875
1.3125 0.125 1.35
1.3125 0 1.2875
1.375 0.0625 1.2875
1.3125 0.0625 1.35
1.3125 0.125 1.2875
1.3125 0.0625 1.2875
1.5 0 1.2875
1.4375 0 1.35
1.5 0.0625 1.35
1.5 0.125 1.2875
1.4375 0.125 1.35
1.4375 0 1.2875
1.5 0.0625 1.2875
1.4375 0.0625 1.35
1.4375 0.125 1.2875
1.4375 0.0625 1.2875
1.625 0 1.2875
1.5625 0 1.35
1.625 0.0625 1.35
1.625 0.125 1.2875
1.5625 0.125 1.35
1.5625 0 1.2875
1.625 0.0625 1.2875
1.5625 0.0625 1.35
1.5625 0.125 1.2875
1.5625 0.0625 1.2875
1.75 0 1.2875
1.6875 0 1.35
1.75 0.0625 1.35
1.75 0.125 1.2875
1.6875 0.125 1.35
1.6875 0 1.2875
1.75 0.0625 1.2875
1.6875 0.0625 1.35
1.6875 0.125 1.2875
1.6875 0.0625 1.2875
1.875 0 1.2875
1.8125 0 1.35
1.875 0.0625 1.35
1.875 0.125 1.2875
1.8125 0.125 1.35
1.8125 0 1.2875
1.875 0.0625 1.2875
1.8125 0.0625 1.35
1.8125 0.125 1.2875
1.8125 0.0625 1.2875
2 0 1.2875
1.9375 0 1.35
2 0.0625 1.35
2 0.125 1.2875
1.9375 0.125 1.35
1.9375 0 1.2875
2 0.0625 1.2875
1.9375 0.0625 1.35
1.9375 0.125 1.2875
1.9375 0.0625 1.2875
2.125 0 1.2875
2.0625 0 1.35
2.125 0.0625 1.35
2.125 0.125 1.2875
2.0625 0.125 1.35
2.0625 0 1.2875
2.125 0.0625 1.2875
2.0625 0.0625 1.35
2.0625 0.125 1.2875
2.0625 0.0625 1.2875
2.25 0 1.2875
2.1875 0 1.35
2.25 0.0625 1.35
2.25 0.125 1.2875
2.1875 0.125 1.35
2.1875 0 1.2875
2.25 0.0625 1.2875
2.1875 0.0625 1.35
2.1875 0.125 1.2875
2.1875 0.0625 1.2875
2.375 0 1.2875
2.3125 0 1.35
2.375 0.0625 1.35
2.375 0.125 1.2875
2.3125 0.125 1.35
2.3125 0 1.2875
2.375 0.0625 1.2875
2.3125 0.0625 1.35
2.3125 0.125 1.2875
2.3125 0.0625 1.2875
2.5 0 1.2875
2.4375 0 1.35
2.5 0.0625 1.35
2.5 0.125 1.2875
2.4375 0.125 1.35
2.4375 0 1.2875
2.5 0.0625 1.2875
2.4375 0.0625 1.35
2.4375 0.125 1.2875
2.4375 0.0625 1.2875
2.625 0 1.2875
2.5625 0 1.35
2.625 0.0625 1.35
2.625 0.125 1.2875
2.5625 0.125 1.35
2.5625 0 1.2875
2.625 0.0625 1.2875
2.5625 0.0625 1.35
2.5625 0.125 1.2875
2.5625 0.0625 1.2875
2.75 0 1.2875
2.6875 0 1.35
2.75 0.0625 1.35
2.75 0.125 1.2875
2.6875 0.125 1.35
2.6875 0 1.2875
2.75 0.0625 1.2875
2.6875 0.0625 1.35
2.6875 0.125 1.2875
2.6875 0.0625 1.2875
2.875 0 1.2875
2.8125 0 1.35
2.875 0.0625 1.35
2.875 0.125 1.2875
2.8125 0.125 1.35
2.8125 0 1.2875
2.875 0.0625 1.2875
2.8125 0.0625 1.35
2.8125 0.125 1.2875
2.8125 0.0625 1.2875
3 0 1.2875
2.9375 0 1.35
3 0.0625 1.35
3 0.125 1.2875
2.9375 0.125 1.35
2.9375 0 1.2875
3 0.0625 1.2875
2.9375 0.0625 1.35
2.9375 0.125 1.2875
2.9375 0.0625 1.2875
0.125 0.1875 1.35
0 0.1875 1.35
0.125 0.25 1.2875
0.0625 0.25 1.35
0 0.25 1.2875
0.125 0.1875 1.2875
0.0625 0.1875 1.35
0 0.1875 1.2875
0.0625 0.25 1.2875
0.0625 0.1875 1.2875
0.25 0.1875 1.35
0.25 0.25 1.2875
0.1875 0.25 1.35
0.25 0.1875 1.2875
0.1875 0.1875 1.35
0.1875 0.25 1.2875
0.1875 0.1875 1.2875
0.375 0.1875 1.35
0.375 0.25 1.2875
0.3125 0.25 1.35
0.375 0.1875 1.2875
0.3125 0.1875 1.35
0.3125 0.25 1.2875
0.3125 0.1875 1.2875
0.5 0.1875 1.35
0.5 0.25 1.2875
0.4375 0.25 1.35
0.5 0.1875 1.2875
0.4375 0.1875 1.35
0.4375 0.25 1.2875
0.4375 0.1875 1.2875
0.625 0.1875 1.35
0.625 0.25 1.2875
0.5625 0.25 1.35
0.625 0.1875 1.2875
0.5625 0.1875 1.35
0.5625 0.25 1.2875
0.5625 0.1875 1.2875
0.75 0.1875 1.35
0.75 0.25 1.2875
0.6875 0.25 1.35
0.75 0.1875 1.2875
0.6875 0.1875 1.35
0.6875 0.25 1.2875
0.6875 0.1875 1.2875
0.875 0.1875 1.35
0.875 0.25 1.2875
0.8125 0.25 1.35
0.875 0.1875 1.2875
0.8125 0.1875 1.35
0.8125 0.25 1.2875
0.8125 0.1875 1.2875
1 0.1875 1.35
1 0.25 1.2875
0.9375 0.25 1.35
1 0.1875 1.2875
0.9375 0.1875 1.35
0.9375 0.25 1.2875
0.9375 0.1875 1.2875
1.125 0.1875 1.35
1.125 0.25 1.2875
1.0625 0.25 1.35
1.125 0.1875 1.2875
1.0625 0.1875 1.35
1.0625 0.25 1.2875
1.0625 0.1875 1.2875
1.25 0.1875 1.35
1.25 0.25 1.2875
1.1875 0.25 1.35
1.25 0.1875 1.2875
1.1875 0.1875 1.35
1.1875 0.25 1.2875
1.1875 0.1875 1.2875
1.375 0.1875 1.35
1.375 0.25 1.2875
1.3125 0.25 1.35
1.375 0.1875 1.2875
1.3125 0.1875 1.35
1.3125 0.25 1.2875
1.3125 0.1875 1.2875
1.5 0.1875 1.35
1.5 0.25 1.2875
1.4375 0.25 1.35
1.5 0.1875 1.2875
1.4375 0.1875 1.35
1.4375 0.25 1.2875
1.4375 0.1875 1.2875
1.625 0.1875 1.35
1.625 0.25 1.2875
1.5625 0.25 1.35
1.625 0.1875 1.2875
1.5625 0.1875 1.35
1.5625 0.25 1.2875
1.5625 0.1875 1.2875
1.75 0.1875 1.35
1.75 0.25 1.2875
1.6875 0.25 1.35
1.75 0.1875 1.2875
1.6875 0.1875 1.35
1.6875 0.25 1.2875
1.6875 0.1875 1.2875
1.875 0.1875 1.35
1.875 0.25 1.2875
1.8125 0.25 1.35
1.875 0.1875 1.2875
1.8125 0.1875 1.35
1.8125 0.25 1.2875
1.8125 0.1875 1.2875
2 0.1875 1.35
2 0.25 1.2875
1.9375 0.25 1.35
2 0.1875 1.2875
1.9375 0.1875 1.35
1.9375 0.25 1.2875
1.9375 0.1875 1.2875
2.125 0.1875 1.35
2.125 0.25 1.2875
2.0625 0.25 1.35
2.125 0.1875 1.2875
2.0625 0.1875 1.35
2.0625 0.25 1.2875
2.0625 0.1875 1.2875
2.25 0.1875 1.35
2.25 0.25 1.2875
2.1875 0.25 1.35
2.25 0.1875 1.2875
2.1875 0.1875 1.35
2.1875 0.25 1.2875
2.1875 0.1875 1.2875
2.375 0.1875 1.35
2.375 0.25 1.2875
2.3125 0.25 1.35
2.375 0.1875 1.2875
2.3125 0.1875 1.35
2.3125 0.25 1.2875
2.3125 0.1875 1.2875
2.5 0.1875 1.35
2.5 0.25 1.2875
2.4375 0.25 1.35
2.5 0.1875 1.2875
2.4375 0.1875 1.35
2.4375 0.25 1.2875
2.4375 0.1875 1.2875
2.625 0.1875 1.35
2.625 0.25 1.2875
2.5625 0.25 1.35
2.625 0.1875 1.2875
2.5625 0.1875 1.35
2.5625 0.25 1.2875
2.5625 0.1875 1.2875
2.75 0.1875 1.35
2.75 0.25 1.2875
2.6875 0.25 1.35
2.75 0.1875 1.2875
2.6875 0.1875 1.35
2.6875 0.25 1.2875
2.6875 0.1875 1.2875
2.875 0.1875 1.35
2.875 0.25 1.2875
2.8125 0.25 1.35
2.875 0.1875 1.2875
2.8125 0.1875 1.35
2.8125 0.25 1.2875
2.8125 0.1875 1.2875
3 0.1875 1.35
3 0.25 1.2875
2.9375 0.25 1.35
3 0.1875 1.2875
2.9375 0.1875 1.35
2.9375 0.25 1.2875
2.9375 0.1875 1.2875
0.125 0.3125 1.35
0 0.3125 1.35
0.125 0.375 1.2875
0.0625 0.375 1.35
0 0.375 1.2875
0.125 0.3125 1.2875
0.0625 0.3125 1.35
0 0.3125 1.2875
0.0625 0.375 1.2875
0.0625 0.3125 1.2875
0.25 0.3125 1.35
0.25 0.375 1.2875
0.1875 0.375 1.35
0.25 0.3125 1.2875
0.1875 0.3125 1.35
0.1875 0.375 1.2875
0.1875 0.3125 1.2875
0.375 0.3125 1.35
0.375 0.375 1.2875
0.3125 0.375 1.35
0.375 0.3125 1.2875
0.3125 0.3125 1.35
0.3125 0.375 1.2875
0.3125 0.3125 1.2875
0.5 0.3125 1.35
0.5 0.375 1.2875
0.4375 0.375 1.35
0.5 0.3125 1.2875
0.4375 0.3125 1.35
0.4375 0.375 1.2875
0.4375 0.3125 1.2875
0.625 0.3125 1.35
0.625 0.375 1.2875
0.5625 0.375 1.35
0.625 0.3125 1.2875
0.5625 0.3125 1.35
0.5625 0.375 1.2875
0.5625 0.3125 1.2875
0.75 0.3125 1.35
0.75 0.375 1.2875
0.6875 0.375 1.35
0.75 0.3125 1.2875
0.6875 0.3125 1.35
0.6875 0.375 1.2875
0.6875 0.3125 1.2875
0.875 0.3125 1.35
0.875 0.375 1.2875
0.8125 0.375 1.35
0.875 0.3125 1.2875
0.8125 0.3125 1.35
0.8125 0.375 1.2875
0.8125 0.3125 1.2875
1 0.3125 1.35
1 0.375 1.2875
0.9375 0.375 1.35
1 0.3125 1.2875
0.9375 0.3125 1.35
0.9375 0.375 1.2875
0.9375 0.3125 1.2875
1.125 0.3125 1.35
1.125 0.375 1.2875
1.0625 0.375 1.35
1.125 0.3125 1.2875
1.0625 0.3125 1.35
1.0625 0.375 1.2875
1.0625 0.3125 1.2875
1.25 0.3125 1.35
1.25 0.375 1.2875
1.1875 0.375 1.35
1.25 0.3125 1.2875
1.1875 0.3125 1.35
1.1875 0.375 1.2875
1.1875 0.3125 1.2875
1.375 0.3125 1.35
1.375 0.375 1.2875
1.3125 0.375 1.35
1.375 0.3125 1.2875
1.3125 0.3125 1.35
1.3125 0.375 1.2875
1.3125 0.3125 1.2875
1.5 0.3125 1.35
1.5 0.375 1.2875
1.4375 0.375 1.35
1.5 0.3125 1.2875
1.4375 0.3125 1.35
1.4375 0.375 1.2875
1.4375 0.3125 1.2875
1.625 0.3125 1.35
1.625 0.375 1.2875
1.5625 0.375 1.35
1.625 0.3125 1.2875
1.5625 0.3125 1.35
1.5625 0.375 1.2875
1.5625 0.3125 1.2875
1.75 0.3125 1.35
1.75 0.375 1.2875
1.6875 0.375 1.35
1.75 0.3125 1.2875
1.6875 0.3125 1.35
1.6875 0.375 1.2875
1.6875 0.3125 1.2875
1.875 0.3125 1.35
1.875 0.375 1.2875
1.8125 0.375 1.35
1.875 0.3125 1.2875
1.8125 0.3125 1.35
1.8125 0.375 1.2875
1.8125 0.3125 1.2875
2 0.3125 1.35
2 0.375 1.2875
1.9375 0.375 1.35
2 0.3125 1.2875
1.9375 0.3125 1.35
1.9375 0.375 1.2875
1.9375 0.3125 1.2875
2.125 0.3125 1.35
2.125 0.375 1.2875
2.0625 0.375 1.35
2.125 0.3125 1.2875
2.0625 0.3125 1.35
2.0625 0.375 1.2875
2.0625 0.3125 1.2875
2.25 0.3125 1.35
2.25 0.375 1.2875
2.1875 0.375 1.35
2.25 0.3125 1.2875
2.1875 0.3125 1.35
2.1875 0.375 1.2875
2.1875 0.3125 1.2875
2.375 0.3125 1.35
2.375 0.375 1.2875
2.3125 0.375 1.35
2.375 0.3125 1.2875
2.3125 0.3125 1.35
2.3125 0.375 1.2875
2.3125 0.3125 1.2875
2.5 0.3125 1.35
2.5 0.375 1.2875
2.4375 0.375 1.35
2.5 0.3125 1.2875
2.4375 0.3125 1.35
2.4375 0.375 1.2875
2.4375 0.3125 1.2875
2.625 0.3125 1.35
2.625 0.375 1.2875
2.5625 0.375 1.35
2.625 0.3125 1.2875
2.5625 0.3125 1.35
2.5625 0.375 1.2875
2.5625 0.3125 1.2875
2.75 0.3125 1.35
2.75 0.375 1.2875
2.6875 0.375 1.35
2.75 0.3125 1.2875
2.6875 0.3125 1.35
2.6875 0.375 1.2875
2.6875 0.3125 1.2875
2.875 0.3125 1.35
2.875 0.375 1.2875
2.8125 0.375 1.35
2.875 0.3125 1.2875
2.8125 0.3125 1.35
2.8125 0.375 1.2875
2.8125 0.3125 1.2875
3 0.3125 1.35
3 0.375 1.2875
2.9375 0.375 1.35
3 0.3125 1.2875
2.9375 0.3125 1.35
2.9375 0.375 1.2875
2.9375 0.3125 1.2875
0.125 0.4375 1.35
0 0.4375 1.35
0.125 0.5 1.2875
0.0625 0.5 1.35
0 0.5 1.2875
0.125 0.4375 1.2875
0.0625 0.4375 1.35
0 0.4375 1.2875
0.0625 0.5 1.2875
0.0625 0.4375 1.2875
0.25 0.4375 1.35
0.25 0.5 1.2875
0.1875 0.5 1.35
0.25 0.4375 1.2875
0.1875 0.4375 1.35
0.1875 0.5 1.2875
0.1875 0.4375 1.2875
0.375 0.4375 1.35
0.375 0.5 1.2875
0.3125 0.5 1.35
0.375 0.4375 1.2875
0.3125 0.4375 1.35
0.3125 0.5 1.2875
0.3125 0.4375 1.2875
0.5 0.4375 1.35
0.5 0.5 1.2875
0.4375 0.5 1.35
0.5 0.4375 1.2875
0.4375 0.4375 1.35
0.4375 0.5 1.2875
0.4375 0.4375 1.2875
0.625 0.4375 1.35
0.625 0.5 1.2875
0.5625 0.5 1.35
0.625 0.4375 1.2875
0.5625 0.4375 1.35
0.5625 0.5 1.2875
0.5625 0.4375 1.2875
0.75 0.4375 1.35
0.75 0.5 1.2875
0.6875 0.5 1.35
0.75 0.4375 1.2875
0.6875 0.4375 1.35
0.6875 0.5 1.2875
0.6875 0.4375 1.2875
0.875 0.4375 1.35
0.875 0.5 1.2875
0.8125 0.5 1.35
0.875 0.4375 1.2875
0.8125 0.4375 1.35
0.8125 0.5 1.2875
0.8125 0.4375 1.2875
1 0.4375 1.35
1 0.5 1.2875
0.9375 0.5 1.35
1 0.4375 1.2875
0.9375 0.4375 1.35
0.9375 0.5 1.2875
0.9375 0.4375 1.2875
1.125 0.4375 1.35
1.125 0.5 1.2875
1.0625 0.5 1.35
1.125 0.4375 1.2875
1.0625 0.4375 1.35
1.0625 0.5 1.2875
1.0625 0.4375 1.2875
1.25 0.4375 1.35
1.25 0.5 1.2875
1.1875 0.5 1.35
1.25 0.4375 1.2875
1.1875 0.4375 1.35
1.1875 0.5 1.2875
1.1875 0.4375 1.2875
1.375 0.4375 1.35
1.375 0.5 1.2875
1.3125 0.5 1.35
1.375 0.4375 1.2875
1.3125 0.4375 1.35
1.3125 0.5 1.2875
1.3125 0.4375 1.2875
1.5 0.4375 1.35
1.5 0.5 1.2875
1.4375 0.5 1.35
1.5 0.4375 1.2875
1.4375 0.4375 1.35
1.4375 0.5 1.2875
1.4375 0.4375 1.2875
1.625 0.4375 1.35
1.625 0.5 1.2875
1.5625 0.5 1.35
1.625 0.4375 1.2875
1.5625 0.4375 1.35
1.5625 0.5 1.2875
1.5625 0.4375 1.2875
1.75 0.4375 1.35
1.75 0.5 1.2875
1.6875 0.5 1.35
1.75 0.4375 1.2875
1.6875 0.4375 1.35
1.6875 0.5 1.2875
1.6875 0.4375 1.2875
1.875 0.4375 1.35
1.875 0.5 1.2875
1.8125 0.5 1.35
1.875 0.4375 1.2875
1.8125 0.4375 1.35
1.8125 0.5 1.2875
1.8125 0.4375 1.2875
2 0.4375 1.35
2 0.5 1.2875
1.9375 0.5 1.35
2 0.4375 1.2875
1.9375 0.4375 1.35
1.9375 0.5 1.2875
1.9375 0.4375 1.2875
2.125 0.4375 1.35
2.125 0.5 1.2875
2.0625 0.5 1.35
2.125 0.4375 1.2875
2.0625 0.4375 1.35
2.0625 0.5 1.2875
2.0625 0.4375 1.2875
2.25 0.4375 1.35
2.25 0.5 1.2875
2.1875 0.5 1.35
2.25 0.4375 1.2875
2.1875 0.4375 1.35
2.1875 0.5 1.2875
2.1875 0.4375 1.2875
2.375 0.4375 1.35
2.375 0.5 1.2875
2.3125 0.5 1.35
2.375 0.4375 1.2875
2.3125 0.4375 1.35
2.3125 0.5 1.2875
2.3125 0.4375 1.2875
2.5 0.4375 1.35
2.5 0.5 1.2875
2.4375 0.5 1.35
2.5 0.4375 1.2875
2.4375 0.4375 1.35
2.4375 0.5 1.2875
2.4375 0.4375 1.2875
2.625 0.4375 1.35
2.625 0.5 1.2875
2.5625 0.5 1.35
2.625 0.4375 1.2875
2.5625 0.4375 1.35
2.5625 0.5 1.2875
2.5625 0.4375 1.2875
2.75 0.4375 1.35
2.75 0.5 1.2875
2.6875 0.5 1.35
2.75 0.4375 1.2875
2.6875 0.4375 1.35
2.6875 0.5 1.2875
2.6875 0.4375 1.2875
2.875 0.4375 1.35
2.875 0.5 1.2875
2.8125 0.5 1.35
2.875 0.4375 1.2875
2.8125 0.4375 1.35
2.8125 0.5 1.2875
2.8125 0.4375 1.2875
3 0.4375 1.35
3 0.5 1.2875
2.9375 0.5 1.35
3 0.4375 1.2875
2.9375 0.4375 1.35
2.9375 0.5 1.2875
2.9375 0.4375 1.2875
0.125 0.5625 1.35
0 0.5625 1.35
0.125 0.625 1.2875
0.0625 0.625 1.35
0 0.625 1.2875
0.125 0.5625 1.2875
0.0625 0.5625 1.35
0 0.5625 1.2875
0.0625 0.625 1.2875
0.0625 0.5625 1.2875
0.25 0.5625 1.35
0.25 0.625 1.2875
0.1875 0.625 1.35
0.25 0.5625 1.2875
0.1875 0.5625 1.35
0.1875 0.625 1.2875
0.1875 0.5625 1.2875
0.375 0.5625 1.35
0.375 0.625 1.2875
0.3125 0.625 1.35
0.375 0.5625 1.2875
0.3125 0.5625 1.35
0.3125 0.625 1.2875
0.3125 0.5625 1.2875
0.5 0.5625 1.35
0.5 0.625 1.2875
0.4375 0.625 1.35
0.5 0.5625 1.2875
0.4375 0.5625 1.35
0.4375 0.625 1.2875
0.4375 0.5625 1.2875
0.625 0.5625 1.35
0.625 0.625 1.2875
0.5625 0.625 1.35
0.625 0.5625 1.2875
0.5625 0.5625 1.35
0.5625 0.625 1.2875
0.5625 0.5625 1.2875
0.75 0.5625 1.35
0.75 0.625 1.2875
0.6875 0.625 1.35
0.75 0.5625 1.2875
0.6875 0.5625 1.35
0.6875 0.625 1.2875
0.6875 0.5625 1.2875
0.875 0.5625 1.35
0.875 0.625 1.2875
0.8125 0.625 1.35
0.875 0.5625 1.2875
0.8125 0.5625 1.35
0.8125 0.625 1.2875
0.8125 0.5625 1.2875
1 0.5625 1.35
1 0.625 1.2875
0.9375 0.625 1.35
1 0.5625 1.2875
0.9375 0.5625 1.35
0.9375 0.625 1.2875
0.9375 0.5625 1.2875
1.125 0.5625 1.35
1.125 0.625 1.2875
1.0625 0.625 1.35
1.125 0.5625 1.2875
1.0625 0.5625 1.35
1.0625 0.625 1.2875
1.0625 0.5625 1.2875
1.25 0.5625 1.35
1.25 0.625 1.2875
1.1875 0.625 1.35
1.25 0.5625 1.2875
1.1875 0.5625 1.35
1.1875 0.625 1.2875
1.1875 0.5625 1.2875
1.375 0.5625 1.35
1.375 0.625 1.2875
1.3125 0.625 1.35
1.375 0.5625 1.2875
1.3125 0.5625 1.35
1.3125 0.625 1.2875
1.3125 0.5625 1.2875
1.5 0.5625 1.35
1.5 0.625 1.2875
1.4375 0.625 1.35
1.5 0.5625 1.2875
1.4375 0.5625 1.35
1.4375 0.625 1.2875
1.4375 0.5625 1.2875
1.625 0.5625 1.35
1.625 0.625 1.2875
1.5625 0.625 1.35
1.625 0.5625 1.2875
1.5625 0.5625 1.35
1.5625 0.625 1.2875
1.5625 0.5625 1.2875
1.75 0.5625 1.35
1.75 0.625 1.2875
1.6875 0.625 1.35
1.75 0.5625 1.2875
1.6875 0.5625 1.35
1.6875 0.625 1.2875
1.6875 0.5625 1.2875
1.875 0.5625 1.35
1.875 0.625 1.2875
1.8125 0.625 1.35
1.875 0.5625 1.2875
1.8125 0.5625 1.35
1.8125 0.625 1.2875
1.8125 0.5625 1.2875
2 0.5625 1.35
2 0.625 1.2875
1.9375 0.625 1.35
2 0.5625 1.2875
1.9375 0.5625 1.35
1.9375 0.625 1.2875
1.9375 0.5625 1.2875
2.125 0.5625 1.35
2.125 0.625 1.2875
2.0625 0.625 1.35
2.125 0.5625 1.2875
2.0625 0.5625 1.35
2.0625 0.625 1.2875
2.0625 0.5625 1.2875
2.25 0.5625 1.35
2.25 0.625 1.2875
2.1875 0.625 1.35
2.25 0.5625 1.2875
2.1875 0.5625 1.35
2.1875 0.625 1.2875
2.1875 0.5625 1.2875
2.375 0.5625 1.35
2.375 0.625 1.2875
2.3125 0.625 1.35
2.375 0.5625 1.2875
2.3125 0.5625 1.35
2.3125 0.625 1.2875
2.3125 0.5625 1.2875
2.5 0.5625 1.35
2.5 0.625 1.2875
2.4375 0.625 1.35
2.5 0.5625 1.2875
2.4375 0.5625 1.35
2.4375 0.625 1.2875
2.4375 0.5625 1.2875
2.625 0.5625 1.35
2.625 0.625 1.2875
2.5625 0.625 1.35
2.625 0.5625 1.2875
2.5625 0.5625 1.35
2.5625 0.625 1.2875
2.5625 0.5625 1.2875
2.75 0.5625 1.35
2.75 0.625 1.2875
2.6875 0.625 1.35
2.75 0.5625 1.2875
2.6875 0.5625 1.35
2.6875 0.625 1.2875
2.6875 0.5625 1.2875
2.875 0.5625 1.35
2.875 0.625 1.2875
2.8125 0.625 1.35
2.875 0.5625 1.2875
2.8125 0.5625 1.35
2.8125 0.625 1.2875
2.8125 0.5625 1.2875
3 0.5625 1.35
3 0.625 1.2875
2.9375 0.625 1.35
3 0.5625 1.2875
2.9375 0.5625 1.35
2.9375 0.625 1.2875
2.9375 0.5625 1.2875
0.125 0.6875 1.35
0 0.6875 1.35
0.125 0.75 1.2875
0.0625 0.75 1.35
0 0.75 1.2875
0.125 0.6875 1.2875
0.0625 0.6875 1.35
0 0.6875 1.2875
0.0625 0.75 1.2875
0.0625 0.6875 1.2875
0.25 0.6875 1.35
0.25 0.75 1.2875
0.1875 0.75 1.35
0.25 0.6875 1.2875
0.1875 0.6875 1.35
0.1875 0.75 1.2875
0.1875 0.6875 1.2875
0.375 0.6875 1.35
0.375 0.75 1.2875
0.3125 0.75 1.35
0.375 0.6875 1.2875
0.3125 0.6875 1.35
0.3125 0.75 1.2875
0.3125 0.6875 1.2875
0.5 0.6875 1.35
0.5 0.75 1.2875
0.4375 0.75 1.35
0.5 0.6875 1.2875
0.4375 0.6875 1.35
0.4375 0.75 1.2875
0.4375 0.6875 1.2875
0.625 0.6875 1.35
0.625 0.75 1.2875
0.5625 0.75 1.35
0.625 0.6875 1.2875
0.5625 0.6875 1.35
0.5625 0.75 1.2875
0.5625 0.6875 1.2875
0.75 0.6875 1.35
0.75 0.75 1.2875
0.6875 0.75 1.35
0.75 0.6875 1.2875
0.6875 0.6875 1.35
0.6875 0.75 1.2875
0.6875 0.6875 1.2875
0.875 0.6875 1.35
0.875 0.75 1.2875
0.8125 0.75 1.35
0.875 0.6875 1.2875
0.8125 0.6875 1.35
0.8125 0.75 1.2875
0.8125 0.6875 1.2875
1 0.6875 1.35
1 0.75 1.2875
0.9375 0.75 1.35
1 0.6875 1.2875
0.9375 0.6875 1.35
0.9375 0.75 1.2875
0.9375 0.6875 1.2875
1.125 0.6875 1.35
1.125 0.75 1.2875
1.0625 0.75 1.35
1.125 0.6875 1.2875
1.0625 0.6875 1.35
1.0625 0.75 1.2875
1.0625 0.6875 1.2875
1.25 0.6875 1.35
1.25 0.75 1.2875
1.1875 0.75 1.35
1.25 0.6875 1.2875
1.1875 0.6875 1.35
1.1875 0.75 1.2875
1.1875 0.6875 1.2875
1.375 0.6875 1.35
1.375 0.75 1.2875
1.3125 0.75 1.35
1.375 0.6875 1.2875
1.3125 0.6875 1.35
1.3125 0.75 1.2875
1.3125 0.6875 1.2875
1.5 0.6875 1.35
1.5 0.75 1.2875
1.4375 0.75 1.35
1.5 0.6875 1.2875
1.4375 0.6875 1.35
1.4375 0.75 1.2875
1.4375 0.6875 1.2875
1.625 0.6875 1.35
1.625 0.75 1.2875
1.5625 0.75 1.35
1.625 0.6875 1.2875
1.5625 0.6875 1.35
1.5625 0.75 1.2875
1.5625 0.6875 1.2875
1.75 0.6875 1.35
1.75 0.75 1.2875
1.6875 0.75 1.35
1.75 0.6875 1.2875
1.6875 0.6875 1.35
1.6875 0.75 1.2875
1.6875 0.6875 1.2875
1.875 0.6875 1.35
1.875 0.75 1.2875
1.8125 0.75 1.35
1.875 0.6875 1.2875
1.8125 0.6875 1.35
1.8125 0.75 1.2875
1.8125 0.6875 1.2875
2 0.6875 1.35
2 0.75 1.2875
1.9375 0.75 1.35
2 0.6875 1.2875
1.9375 0.6875 1.35
1.9375 0.75 1.2875
1.9375 0.6875 1.2875
2.125 0.6875 1.35
2.125 0.75 1.2875
2.0625 0.75 1.35
2.125 0.6875 1.2875
2.0625 0.6875 1.35
2.0625 0.75 1.2875
2.0625 0.6875 1.2875
2.25 0.6875 1.35
2.25 0.75 1.2875
2.1875 0.75 1.35
2.25 0.6875 1.2875
2.1875 0.6875 1.35
2.1875 0.75 1.2875
2.1875 0.6875 1.2875
2.375 0.6875 1.35
2.375 0.75 1.2875
2.3125 0.75 1.35
2.375 0.6875 1.2875
2.3125 0.6875 1.35
2.3125 0.75 1.2875
2.3125 0.6875 1.2875
2.5 0.6875 1.35
2.5 0.75 1.2875
2.4375 0.75 1.35
2.5 0.6875 1.2875
2.4375 0.6875 1.35
2.4375 0.75 1.2875
2.4375 0.6875 1.2875
2.625 0.6875 1.35
2.625 0.75 1.2875
2.5625 0.75 1.35
2.625 0.6875 1.2875
2.5625 0.6875 1.35
2.5625 0.75 1.2875
2.5625 0.6875 1.2875
2.75 0.6875 1.35
2.75 0.75 1.2875
2.6875 0.75 1.35
2.75 0.6875 1.2875
2.6875 0.6875 1.35
2.6875 0.75 1.2875
2.6875 0.6875 1.2875
2.875 0.6875 1.35
2.875 0.75 1.2875
2.8125 0.75 1.35
2.875 0.6875 1.2875
2.8125 0.6875 1.35
2.8125 0.75 1.2875
2.8125 0.6875 1.2875
3 0.6875 1.35
3 0.75 1.2875
2.9375 0.75 1.35
3 0.6875 1.2875
2.9375 0.6875 1.35
2.9375 0.75 1.2875
2.9375 0.6875 1.2875
0.125 0.8125 1.35
0 0.8125 1.35
0.125 0.875 1.2875
0.0625 0.875 1.35
0 0.875 1.2875
0.125 0.8125 1.2875
0.0625 0.8125 1.35
0 0.8125 1.2875
0.0625 0.875 1.2875
0.0625 0.8125 1.2875
0.25 0.8125 1.35
0.25 0.875 1.2875
0.1875 0.875 1.35
0.25 0.8125 1.2875
0.1875 0.8125 1.35
0.1875 0.875 1.2875
0.1875 0.8125 1.2875
0.375 0.8125 1.35
0.375 0.875 1.2875
0.3125 0.875 1.35
0.375 0.8125 1.2875
0.3125 0.8125 1.35
0.3125 0.875 1.2875
0.3125 0.8125 1.2875
0.5 0.8125 1.35
0.5 0.875 1.2875
0.4375 0.875 1.35
0.5 0.8125 1.2875
0.4375 0.8125 1.35
0.4375 0.875 1.2875
0.4375 0.8125 1.2875
0.625 0.8125 1.35
0.625 0.875 1.2875
0.5625 0.875 1.35
0.625 0.8125 1.2875
0.5625 0.8125 1.35
0.5625 0.875 1.2875
0.5625 0.8125 1.2875
0.75 0.8125 1.35
0.75 0.875 1.2875
0.6875 0.875 1.35
0.75 0.8125 1.2875
0.6875 0.8125 1.35
0.6875 0.875 1.2875
0.6875 0.8125 1.2875
0.875 0.8125 1.35
0.875 0.875 1.2875
0.8125 0.875 1.35
0.875 0.8125 1.2875
0.8125 0.8125 1.35
0.8125 0.875 1.2875
0.8125 0.8125 1.2875
1 0.8125 1.35
1 0.875 1.2875
0.9375 0.875 1.35
1 0.8125 1.2875
0.9375 0.8125 1.35
0.9375 0.875 1.2875
0.9375 0.8125 1.2875
1.125 0.8125 1.35
1.125 0.875 1.2875
1.0625 0.875 1.35
1.125 0.8125 1.2875
1.0625 0.8125 1.35
1.0625 0.875 1.2875
1.0625 0.8125 1.2875
1.25 0.8125 1.35
1.25 0.875 1.2875
1.1875 0.875 1.35
1.25 0.8125 1.2875
1.1875 0.8125 1.35
1.1875 0.875 1.2875
1.1875 0.8125 1.2875
1.375 0.8125 1.35
1.375 0.875 1.2875
1.3125 0.875 1.35
1.375 0.8125 1.2875
1.3125 0.8125 1.35
1.3125 0.875 1.2875
1.3125 0.8125 1.2875
1.5 0.8125 1.35
1.5 0.875 1.2875
1.4375 0.875 1.35
1.5 0.8125 1.2875
1.4375 0.8125 1.35
1.4375 0.875 1.2875
1.4375 0.8125 1.2875
1.625 0.8125 1.35
1.625 0.875 1.2875
1.5625 0.875 1.35
1.625 0.8125 1.2875
1.5625 0.8125 1.35
1.5625 0.875 1.2875
1.5625 0.8125 1.2875
1.75 0.8125 1.35
1.75 0.875 1.2875
1.6875 0.875 1.35
1.75 0.8125 1.2875
1.6875 0.8125 1.35
1.6875 0.875 1.2875
1.6875 0.8125 1.2875
1.875 0.8125 1.35
1.875 0.875 1.2875
1.8125 0.875 1.35
1.875 0.8125 1.2875
1.8125 0.8125 1.35
1.8125 0.875 1.2875
1.8125 0.8125 1.2875
2 0.8125 1.35
2 0.875 1.2875
1.9375 0.875 1.35
2 0.8125 1.2875
1.9375 0.8125 1.35
1.9375 0.875 1.2875
1.9375 0.8125 1.2875
2.125 0.8125 1.35
2.125 0.875 1.2875
2.0625 0.875 1.35
2.125 0.8125 1.2875
2.0625 0.8125 1.35
2.0625 0.875 1.2875
2.0625 0.8125 1.2875
2.25 0.8125 1.35
2.25 0.875 1.2875
2.1875 0.875 1.35
2.25 0.8125 1.2875
2.1875 0.8125 1.35
2.1875 0.875 1.2875
2.1875 0.8125 1.2875
2.375 0.8125 1.35
2.375 0.875 1.2875
2.3125 0.875 1.35
2.375 0.8125 1.2875
2.3125 0.8125 1.35
2.3125 0.875 1.2875
2.3125 0.8125 1.2875
2.5 0.8125 1.35
2.5 0.875 1.2875
2.4375 0.875 1.35
2.5 0.8125 1.2875
2.4375 0.8125 1.35
2.4375 0.875 1.2875
2.4375 0.8125 1.2875
2.625 0.8125 1.35
2.625 0.875 1.2875
2.5625 0.875 1.35
2.625 0.8125 1.2875
2.5625 0.8125 1.35
2.5625 0.875 1.2875
2.5625 0.8125 1.2875
2.75 0.8125 1.35
2.75 0.875 1.2875
2.6875 0.875 1.35
2.75 0.8125 1.2875
2.6875 0.8125 1.35
2.6875 0.875 1.2875
2.6875 0.8125 1.2875
2.875 0.8125 1.35
2.875 0.875 1.2875
2.8125 0.875 1.35
2.875 0.8125 1.2875
2.8125 0.8125 1.35
2.8125 0.875 1.2875
2.8125 0.8125 1.2875
3 0.8125 1.35
3 0.875 1.2875
2.9375 0.875 1.35
3 0.8125 1.2875
2.9375 0.8125 1.35
2.9375 0.875 1.2875
2.9375 0.8125 1.2875
0.125 0.9375 1.35
0 0.9375 1.35
0.125 1 1.2875
0.0625 1 1.35
0 1 1.2875
0.125 0.9375 1.2875
0.0625 0.9375 1.35
0 0.9375 1.2875
0.0625 1 1.2875
0.0625 0.9375 1.2875
0.25 0.9375 1.35
0.25 1 1.2875
0.1875 1 1.35
0.25 0.9375 1.2875
0.1875 0.9375 1.35
0.1875 1 1.2875
0.1875 0.9375 1.2875
0.375 0.9375 1.35
0.375 1 1.2875
0.3125 1 1.35
0.375 0.9375 1.2875
0.3125 0.9375 1.35
0.3125 1 1.2875
0.3125 0.9375 1.2875
0.5 0.9375 1.35
0.5 1 1.2875
0.4375 1 1.35
0.5 0.9375 1.2875
0.4375 0.9375 1.35
0.4375 1 1.2875
0.4375 0.9375 1.2875
0.625 0.9375 1.35
0.625 1 1.2875
0.5625 1 1.35
0.625 0.9375 1.2875
0.5625 0.9375 1.35
0.5625 1 1.2875
0.5625 0.9375 1.2875
0.75 0.9375 1.35
0.75 1 1.2875
0.6875 1 1.35
0.75 0.9375 1.2875
0.6875 0.9375 1.35
0.6875 1 1.2875
0.6875 0.9375 1.2875
0.875 0.9375 1.35
0.875 1 1.2875
0.8125 1 1.35
0.875 0.9375 1.2875
0.8125 0.9375 1.35
0.8125 1 1.2875
0.8125 0.9375 1.2875
1 0.9375 1.35
1 1 1.2875
0.9375 1 1.35
1 0.9375 1.2875
0.9375 0.9375 1.35
0.9375 1 1.2875
0.9375 0.9375 1.2875
1.125 0.9375 1.35
1.125 1 1.2875
1.0625 1 1.35
1.125 0.9375 1.2875
1.0625 0.9375 1.35
1.0625 1 1.2875
1.0625 0.9375 1.2875
1.25 0.9375 1.35
1.25 1 1.2875
1.1875 1 1.35
1.25 0.9375 1.2875
1.1875 0.9375 1.35
1.1875 1 1.2875
1.1875 0.9375 1.2875
1.375 0.9375 1.35
1.375 1 1.2875
1.3125 1 1.35
1.375 0.9375 1.2875
1.3125 0.9375 1.35
1.3125 1 1.2875
1.3125 0.9375 1.2875
1.5 0.9375 1.35
1.5 1 1.2875
1.4375 1 1.35
1.5 0.9375 1.2875
1.4375 0.9375 1.35
1.4375 1 1.2875
1.4375 0.9375 1.2875
1.625 0.9375 1.35
1.625 1 1.2875
1.5625 1 1.35
1.625 0.9375 1.2875
1.5625 0.9375 1.35
1.5625 1 1.2875
1.5625 0.9375 1.2875
1.75 0.9375 1.35
1.75 1 1.2875
1.6875 1 1.35
1.75 0.9375 1.2875
1.6875 0.9375 1.35
1.6875 1 1.2875
1.6875 0.9375 1.2875
1.875 0.9375 1.35
1.875 1 1.2875
1.8125 1 1.35
1.875 0.9375 1.2875
1.8125 0.9375 1.35
1.8125 1 1.2875
1.8125 0.9375 1.2875
2 0.9375 1.35
2 1 1.2875
1.9375 1 1.35
2 0.9375 1.2875
1.9375 0.9375 1.35
1.9375 1 1.2875
1.9375 0.9375 1.2875
2.125 0.9375 1.35
2.125 1 1.2875
2.0625 1 1.35
2.125 0.9375 1.2875
2.0625 0.9375 1.35
2.0625 1 1.2875
2.0625 0.9375 1.2875
2.25 0.9375 1.35
2.25 1 1.2875
2.1875 1 1.35
2.25 0.9375 1.2875
2.1875 0.9375 1.35
2.1875 1 1.2875
2.1875 0.9375 1.2875
2.375 0.9375 1.35
2.375 1 1.2875
2.3125 1 1.35
2.375 0.9375 1.2875
2.3125 0.9375 1.35
2.3125 1 1.2875
2.3125 0.9375 1.2875
2.5 0.9375 1.35
2.5 1 1.2875
2.4375 1 1.35
2.5 0.9375 1.2875
2.4375 0.9375 1.35
2.4375 1 1.2875
2.4375 0.9375 1.2875
2.625 0.9375 1.35
2.625 1 1.2875
2.5625 1 1.35
2.625 0.9375 1.2875
2.5625 0.9375 1.35
2.5625 1 1.2875
2.5625 0.9375 1.2875
2.75 0.9375 1.35
2.75 1 1.2875
2.6875 1 1.35
2.75 0.9375 1.2875
2.6875 0.9375 1.35
2.6875 1 1.2875
2.6875 0.9375 1.2875
2.875 0.9375 1.35
2.875 1 1.2875
2.8125 1 1.35
2.875 0.9375 1.2875
2.8125 0.9375 1.35
2.8125 1 1.2875
2.8125 0.9375 1.2875
3 0.9375 1.35
3 1 1.2875
2.9375 1 1.35
3 0.9375 1.2875
2.9375 0.9375 1.35
2.9375 1 1.2875
2.9375 0.9375 1.2875
0.125 0 1.4125
0.0625 0 1.475
0 0 1.4125
0.125 0.0625 1.475
0 0.0625 1.475
0.125 0.125 1.4125
0.0625 0.125 1.475
0 0.125 1.4125
0.0625 0 1.4125
0.125 0.0625 1.4125
0.0625 0.0625 1.475
0 0.0625 1.4125
0.0625 0.125 1.4125
0.0625 0.0625 1.4125
0.25 0 1.4125
0.1875 0 1.475
0.25 0.0625 1.475
0.25 0.125 1.4125
0.1875 0.125 1.475
0.1875 0 1.4125
0.25 0.0625 1.4125
0.1875 0.0625 1.475
0.1875 0.125 1.4125
0.1875 0.0625 1.4125
0.375 0 1.4125
0.3125 0 1.475
0.375 0.0625 1.475
0.375 0.125 1.4125
0.3125 0.125 1.475
0.3125 0 1.4125
0.375 0.0625 1.4125
0.3125 0.0625 1.475
0.3125 0.125 1.4125
0.3125 0.0625 1.4125
0.5 0 1.4125
0.4375 0 1.475
0.5 0.0625 1.475
0.5 0.125 1.4125
0.4375 0.125 1.475
0.4375 0 1.4125
0.5 0.0625 1.4125
0.4375 0.0625 1.475
0.4375 0.125 1.4125
0.4375 0.0625 1.4125
0.625 0 1.4125
0.5625 0 1.475
0.625 0.0625 1.475
0.625 0.125 1.4125
0.5625 0.125 1.475
0.5625 0 1.4125
0.625 0.0625 1.4125
0.5625 0.0625 1.475
0.5625 0.125 1.4125
0.5625 0.0625 1.4125
0.75 0 1.4125
0.6875 0 1.475
0.75 0.0625 1.475
0.75 0.125 1.4125
0.6875 0.125 1.475
0.6875 0 1.4125
0.75 0.0625 1.4125
0.6875 0.0625 1.475
0.6875 0.125 1.4125
0.6875 0.0625 1.4125
0.875 0 1.4125
0.8125 0 1.475
0.875 0.0625 1.475
0.875 0.125 1.4125
0.8125 0.125 1.475
0.8125 0 1.4125
0.875 0.0625 1.4125
0.8125 0.0625 1.475
0.8125 0.125 1.4125
0.8125 0.0625 1.4125
1 0 1.4125
0.9375 0 1.475
1 0.0625 1.475
1 0.125 1.4125
0.9375 0.125 1.475
0.9375 0 1.4125
1 0.0625 1.4125
0.9375 0.0625 1.475
0.9375 0.125 1.4125
0.9375 0.0625 1.4125
1.125 0 1.4125
1.0625 0 1.475
1.125 0.0625 1.475
1.125 0.125 1.4125
1.0625 0.125 1.475
1.0625 0 1.4125
1.125 0.0625 1.4125
1.0625 0.0625 1.475
1.0625 0.125 1.4125
1.0625 0.0625 1.4125
1.25 0 1.4125
1.1875 0 1.475
1.25 0.0625 1.475
1.25 0.125 1.4125
1.1875 0.125 1.475
1.1875 0 1.4125
1.25 0.0625 1.4125
1.1875 0.0625 1.475
1.1875 0.125 1.4125
1.1875 0.0625 1.4125
1.375 0 1.4125
1.3125 0 1.475
1.375 0.0625 1.475
1.375 0.125 1.4125
1.3125 0.125 1.475
1.3125 0 1.4125
1.375 0.0625 1.4125
1.3125 0.0625 1.475
1.3125 0.125 1.4125
1.3125 0.0625 1.4125
1.5 0 1.4125
1.4375 0 1.475
1.5 0.0625 1.475
1.5 0.125 1.4125
1.4375 0.125 1.475
1.4375 0 1.4125
1.5 0.0625 1.4125
1.4375 0.0625 1.475
1.4375 0.125 1.4125
1.4375 0.0625 1.4125
1.625 0 1.4125
1.5625 0 1.475
1.625 0.0625 1.475
1.625 0.125 1.4125
1.5625 0.125 1.475
1.5625 0 1.4125
1.625 0.0625 1.4125
1.5625 0.0625 1.475
1.5625 0.125 1.4125
1.5625 0.0625 1.4125
1.75 0 1.4125
1.6875 0 1.475
1.75 0.0625 1.475
1.75 0.125 1.4125
1.6875 0.125 1.475
1.6875 0 1.4125
1.75 0.0625 1.4125
1.6875 0.0625 1.475
1.6875 0.125 1.4125
1.6875 0.0625 1.4125
1.875 0 1.4125
1.8125 0 1.475
1.875 0.0625 1.475
1.875 0.125 1.4125
1.8125 0.125 1.475
1.8125 0 1.4125
1.875 0.0625 1.4125
1.8125 0.0625 1.475
1.8125 0.125 1.4125
1.8125 0.0625 1.4125
2 0 1.4125
1.9375 0 1.475
2 0.0625 1.475
2 0.125 1.4125
1.9375 0.125 1.475
1.9375 0 1.4125
2 0.0625 1.4125
1.9375 0.0625 1.475
1.9375 0.125 1.4125
1.9375 0.0625 1.4125
2.125 0 1.4125
2.0625 0 1.475
2.125 0.0625 1.475
2.125 0.125 1.4125
2.0625 0.125 1.475
2.0625 0 1.4125
2.125 0.0625 1.4125
2.0625 0.0625 1.475
2.0625 0.125 1.4125
2.0625 0.0625 1.4125
2.25 0 1.4125
2.1875 0 1.475
2.25 0.0625 1.475
2.25 0.125 1.4125
2.1875 0.125 1.475
2.1875 0 1.4125
2.25 0.0625 1.4125
2.1875 0.0625 1.475
2.1875 0.125 1.4125
2.1875 0.0625 1.4125
2.375 0 1.4125
2.3125 0 1.475
2.375 0.0625 1.475
2.375 0.125 1.4125
2.3125 0.125 1.475
2.3125 0 1.4125
2.375 0.0625 1.4125
2.3125 0.0625 1.475
2.3125 0.125 1.4125
2.3125 0.0625 1.4125
2.5 0 1.4125
2.4375 0 1.475
2.5 0.0625 1.475
2.5 0.125 1.4125
2.4375 0.125 1.475
2.4375 0 1.4125
2.5 0.0625 1.4125
2.4375 0.0625 1.475
2.4375 0.125 1.4125
2.4375 0.0625 1.4125
2.625 0 1.4125
2.5625 0 1.475
2.625 0.0625 1.475
2.625 0.125 1.4125
2.5625 0.125 1.475
2.5625 0 1.4125
2.625 0.0625 1.4125
2.5625 0.0625 1.475
2.5625 0.125 1.4125
2.5625 0.0625 1.4125
2.75 0 1.4125
2.6875 0 1.475
2.75 0.0625 1.475
2.75 0.125 1.4125
2.6875 0.125 1.475
2.6875 0 1.4125
2.75 0.0625 1.4125
2.6875 0.0625 1.475
2.6875 0.125 1.4125
2.6875 0.0625 1.4125
2.875 0 1.4125
2.8125 0 1.475
2.875 0.0625 1.475
2.875 0.125 1.4125
2.8125 0.125 1.475
2.8125 0 1.4125
2.875 0.0625 1.4125
2.8125 0.0625 1.475
2.8125 0.125 1.4125
2.8125 0.0625 1.4125
3 0 1.4125
2.9375 0 1.475
3 0.0625 1.475
3 0.125 1.4125
2.9375 0.125 1.475
2.9375 0 1.4125
3 0.0625 1.4125
2.9375 0.0625 1.475
2.9375 0.125 1.4125
2.9375 0.0625 1.4125
0.125 0.1875 1.475
0 0.1875 1.475
0.125 0.25 1.4125
0.0625 0.25 1.475
0 0.25 1.4125
0.125 0.1875 1.4125
0.0625 0.1875 1.475
0 0.1875 1.4125
0.0625 0.25 1.4125
0.0625 0.1875 1.4125
0.25 0.1875 1.475
0.25 0.25 1.4125
0.1875 0.25 1.475
0.25 0.1875 1.4125
0.1875 0.1875 1.475
0.1875 0.25 1.4125
0.1875 0.1875 1.4125
0.375 0.1875 1.475
0.375 0.25 1.4125
0.3125 0.25 1.475
0.375 0.1875 1.4125
0.3125 0.1875 1.475
0.3125 0.25 1.4125
0.3125 0.1875 1.4125
0.5 0.1875 1.475
0.5 0.25 1.4125
0.4375 0.25 1.475
0.5 0.1875 1.4125
0.4375 0.1875 1.475
0.4375 0.25 1.4125
0.4375 0.1875 1.4125
0.625 0.1875 1.475
0.625 0.25 1.4125
0.5625 0.25 1.475
0.625 0.1875 1.4125
0.5625 0.1875 1.475
0.5625 0.25 1.4125
0.5625 0.1875 1.4125
0.75 0.1875 1.475
0.75 0.25 1.4125
0.6875 0.25 1.475
0.75 0.1875 1.4125
0.6875 0.1875 1.475
0.6875 0.25 1.4125
0.6875 0.1875 1.4125
0.875 0.1875 1.475
0.875 0.25 1.4125
0.8125 0.25 1.475
0.875 0.1875 1.4125
0.8125 0.1875 1.475
0.8125 0.25 1.4125
0.8125 0.1875 1.4125
1 0.1875 1.475
1 0.25 1.4125
0.9375 0.25 1.475
1 0.1875 1.4125
0.9375 0.1875 1.475
0.9375 0.25 1.4125
0.9375 0.1875 1.4125
1.125 0.1875 1.475
1.125 0.25 1.4125
1.0625 0.25 1.475
1.125 0.1875 1.4125
1.0625 0.1875 1.475
1.0625 0.25 1.4125
1.0625 0.1875 1.4125
1.25 0.1875 1.475
1.25 0.25 1.4125
1.1875 0.25 1.475
1.25 0.1875 1.4125
1.1875 0.1875 1.475
1.1875 0.25 1.4125
1.1875 0.1875 1.4125
1.375 0.1875 1.475
1.375 0.25 1.4125
1.3125 0.25 1.475
1.375 0.1875 1.4125
1.3125 0.1875 1.475
1.3125 0.25 1.4125
1.3125 0.1875 1.4125
1.5 0.1875 1.475
1.5 0.25 1.4125
1.4375 0.25 1.475
1.5 0.1875 1.4125
1.4375 0.1875 1.475
1.4375 0.25 1.4125
1.4375 0.1875 1.4125
1.625 0.1875 1.475
1.625 0.25 1.4125
1.5625 0.25 1.475
1.625 0.1875 1.4125
1.5625 0.1875 1.475
1.5625 0.25 1.4125
1.5625 0.1875 1.4125
1.75 0.1875 1.475
1.75 0.25 1.4125
1.6875 0.25 1.475
1.75 0.1875 1.4125
1.6875 0.1875 1.475
1.6875 0.25 1.4125
1.6875 0.1875 1.4125
1.875 0.1875 1.475
1.875 0.25 1.4125
1.8125 0.25 1.475
1.875 0.1875 1.4125
1.8125 0.1875 1.475
1.8125 0.25 1.4125
1.8125 0.1875 1.4125
2 0.1875 1.475
2 0.25 1.4125
1.9375 0.25 1.475
2 0.1875 1.4125
1.9375 0.1875 1.475
1.9375 0.25 1.4125
1.9375 0.1875 1.4125
2.125 0.1875 1.475
2.125 0.25 1.4125
2.0625 0.25 1.475
2.125 0.1875 1.4125
2.0625 0.1875 1.475
2.0625 0.25 1.4125
2.0625 0.1875 1.4125
2.25 0.1875 1.475
2.25 0.25 1.4125
2.1875 0.25 1.475
2.25 0.1875 1.4125
2.1875 0.1875 1.475
2.1875 0.25 1.4125
2.1875 0.1875 1.4125
2.375 0.1875 1.475
2.375 0.25 1.4125
2.3125 0.25 1.475
2.375 0.1875 1.4125
2.3125 0.1875 1.475
2.3125 0.25 1.4125
2.3125 0.1875 1.4125
2.5 0.1875 1.475
2.5 0.25 1.4125
2.4375 0.25 1.475
2.5 0.1875 1.4125
2.4375 0.1875 1.475
2.4375 0.25 1.4125
2.4375 0.1875 1.4125
2.625 0.1875 1.475
2.625 0.25 1.4125
2.5625 0.25 1.475
2.625 0.1875 1.4125
2.5625 0.1875 1.475
2.5625 0.25 1.4125
2.5625 0.1875 1.4125
2.75 0.1875 1.475
2.75 0.25 1.4125
2.6875 0.25 1.475
2.75 0.1875 1.4125
2.6875 0.1875 1.475
2.6875 0.25 1.4125
2.6875 0.1875 1.4125
2.875 0.1875 1.475
2.875 0.25 1.4125
2.8125 0.25 1.475
2.875 0.1875 1.4125
2.8125 0.1875 1.475
2.8125 0.25 1.4125
2.8125 0.1875 1.4125
3 0.1875 1.475
3 0.25 1.4125
2.9375 0.25 1.475
3 0.1875 1.4125
2.9375 0.1875 1.475
2.9375 0.25 1.4125
2.9375 0.1875 1.4125
0.125 0.3125 1.475
0 0.3125 1.475
0.125 0.375 1.4125
0.0625 0.375 1.475
0 0.375 1.4125
0.125 0.3125 1.4125
0.0625 0.3125 1.475
0 0.3125 1.4125
0.0625 0.375 1.4125
0.0625 0.3125 1.4125
0.25 0.3125 1.475
0.25 0.375 1.4125
0.1875 0.375 1.475
0.25 0.3125 1.4125
0.1875 0.3125 1.475
0.1875 0.375 1.4125
0.1875 0.3125 1.4125
0.375 0.3125 1.475
0.375 0.375 1.4125
0.3125 0.375 1.475
0.375 0.3125 1.4125
0.3125 0.3125 1.475
0.3125 0.375 1.4125
0.3125 0.3125 1.4125
0.5 0.3125 1.475
0.5 0.375 1.4125
0.4375 0.375 1.475
0.5 0.3125 1.4125
0.4375 0.3125 1.475
0.4375 0.375 1.4125
0.4375 0.3125 1.4125
0.625 0.3125 1.475
0.625 0.375 1.4125
0.5625 0.375 1.475
0.625 0.3125 1.4125
0.5625 0.3125 1.475
0.5625 0.375 1.4125
0.5625 0.3125 1.4125
0.75 0.3125 1.475
0.75 0.375 1.4125
0.6875 0.375 1.475
0.75 0.3125 1.4125
0.6875 0.3125 1.475
0.6875 0.375 1.4125
0.6875 0.3125 1.4125
0.875 0.3125 1.475
0.875 0.375 1.4125
0.8125 0.375 1.475
0.875 0.3125 1.4125
0.8125 0.3125 1.475
0.8125 0.375 1.4125
0.8125 0.3125 1.4125
1 0.3125 1.475
1 0.375 1.4125
0.9375 0.375 1.475
1 0.3125 1.4125
0.9375 0.3125 1.475
0.9375 0.375 1.4125
0.9375 0.3125 1.4125
1.125 0.3125 1.475
1.125 0.375 1.4125
1.0625 0.375 1.475
1.125 0.3125 1.4125
1.0625 0.3125 1.475
1.0625 0.375 1.4125
1.0625 0.3125 1.4125
1.25 0.3125 1.475
1.25 0.375 1.4125
1.1875 0.375 1.475
1.25 0.3125 1.4125
1.1875 0.3125 1.475
1.1875 0.375 1.4125
1.1875 0.3125 1.4125
1.375 0.3125 1.475
1.375 0.375 1.4125
1.3125 0.375 1.475
1.375 0.3125 1.4125
1.3125 0.3125 1.475
1.3125 0.375 1.4125
1.3125 0.3125 1.4125
1.5 0.3125 1.475
1.5 0.375 1.4125
1.4375 0.375 1.475
1.5 0.3125 1.4125
1.4375 0.3125 1.475
1.4375 0.375 1.4125
1.4375 0.3125 1.4125
1.625 0.3125 1.475
1.625 0.375 1.4125
1.5625 0.375 1.475
1.625 0.3125 1.4125
1.5625 0.3125 1.475
1.5625 0.375 1.4125
1.5625 0.3125 1.4125
1.75 0.3125 1.475
1.75 0.375 1.4125
1.6875 0.375 1.475
1.75 0.3125 1.4125
1.6875 0.3125 1.475
1.6875 0.375 1.4125
1.6875 0.3125 1.4125
1.875 0.3125 1.475
1.875 0.375 1.4125
1.8125 0.375 1.475
1.875 0.3125 1.4125
1.8125 0.3125 1.475
1.8125 0.375 1.4125
1.8125 0.3125 1.4125
2 0.3125 1.475
2 0.375 1.4125
1.9375 0.375 1.475
2 0.3125 1.4125
1.9375 0.3125 1.475
1.9375 0.375 1.4125
1.9375 0.3125 1.4125
2.125 0.3125 1.475
2.125 0.375 1.4125
2.0625 0.375 1.475
2.125 0.3125 1.4125
2.0625 0.3125 1.475
2.0625 0.375 1.4125
2.0625 0.3125 1.4125
2.25 0.3125 1.475
2.25 0.375 1.4125
2.1875 0.375 1.475
2.25 0.3125 1.4125
2.1875 0.3125 1.475
2.1875 0.375 1.4125
2.1875 0.3125 1.4125
2.375 0.3125 1.475
2.375 0.375 1.4125
2.3125 0.375 1.475
2.375 0.3125 1.4125
2.3125 0.3125 1.475
2.3125 0.375 1.4125
2.3125 0.3125 1.4125
2.5 0.3125 1.475
2.5 0.375 1.4125
2.4375 0.375 1.475
2.5 0.3125 1.4125
2.4375 0.3125 1.475
2.4375 0.375 1.4125
2.4375 0.3125 1.4125
2.625 0.3125 1.475
2.625 0.375 1.4125
2.5625 0.375 1.475
2.625 0.3125 1.4125
2.5625 0.3125 1.475
2.5625 0.375 1.4125
2.5625 0.3125 1.4125
2.75 0.3125 1.475
2.75 0.375 1.4125
2.6875 0.375 1.475
2.75 0.3125 1.4125
2.6875 0.3125 1.475
2.6875 0.375 1.4125
2.6875 0.3125 1.4125
2.875 0.3125 1.475
2.875 0.375 1.4125
2.8125 0.375 1.475
2.875 0.3125 1.4125
2.8125 0.3125 1.475
2.8125 0.375 1.4125
2.8125 0.3125 1.4125
3 0.3125 1.475
3 0.375 1.4125
2.9375 0.375 1.475
3 0.3125 1.4125
2.9375 0.3125 1.475
2.9375 0.375 1.4125
2.9375 0.3125 1.4125
0.125 0.4375 1.475
0 0.4375 1.475
0.125 0.5 1.4125
0.0625 0.5 1.475
0 0.5 1.4125
0.125 0.4375 1.4125
0.0625 0.4375 1.475
0 0.4375 1.4125
0.0625 0.5 1.4125
0.0625 0.4375 1.4125
0.25 0.4375 1.475
0.25 0.5 1.4125
0.1875 0.5 1.475
0.25 0.4375 1.4125
0.1875 0.4375 1.475
0.1875 0.5 1.4125
0.1875 0.4375 1.4125
0.375 0.4375 1.475
0.375 0.5 1.4125
0.3125 0.5 1.475
0.375 0.4375 1.4125
0.3125 0.4375 1.475
0.3125 0.5 1.4125
0.3125 0.4375 1.4125
0.5 0.4375 1.475
0.5 0.5 1.4125
0.4375 0.5 1.475
0.5 0.4375 1.4125
0.4375 0.4375 1.475
0.4375 0.5 1.4125
0.4375 0.4375 1.4125
0.625 0.4375 1.475
0.625 0.5 1.4125
0.5625 0.5 1.475
0.625 0.4375 1.4125
0.5625 0.4375 1.475
0.5625 0.5 1.4125
0.5625 0.4375 1.4125
0.75 0.4375 1.475
0.75 0.5 1.4125
0.6875 0.5 1.475
0.75 0.4375 1.4125
0.6875 0.4375 1.475
0.6875 0.5 1.4125
0.6875 0.4375 1.4125
0.875 0.4375 1.475
0.875 0.5 1.4125
0.8125 0.5 1.475
0.875 0.4375 1.4125
0.8125 0.4375 1.475
0.8125 0.5 1.4125
0.8125 0.4375 1.4125
1 0.4375 1.475
1 0.5 1.4125
0.9375 0.5 1.475
1 0.4375 1.4125
0.9375 0.4375 1.475
0.9375 0.5 1.4125
0.9375 0.4375 1.4125
1.125 0.4375 1.475
1.125 0.5 1.4125
1.0625 0.5 1.475
1.125 0.4375 1.4125
1.0625 0.4375 1.475
1.0625 0.5 1.4125
1.0625 0.4375 1.4125
1.25 0.4375 1.475
1.25 0.5 1.4125
1.1875 0.5 1.475
1.25 0.4375 1.4125
1.1875 0.4375 1.475
1.1875 0.5 1.4125
1.1875 0.4375 1.4125
1.375 0.4375 1.475
1.375 0.5 1.4125
1.3125 0.5 1.475
1.375 0.4375 1.4125
1.3125 0.4375 1.475
1.3125 0.5 1.4125
1.3125 0.4375 1.4125
1.5 0.4375 1.475
1.5 0.5 1.4125
1.4375 0.5 1.475
1.5 0.4375 1.4125
1.4375 0.4375 1.475
1.4375 0.5 1.4125
1.4375 0.4375 1.4125
1.625 0.4375 1.475
1.625 0.5 1.4125
1.5625 0.5 1.475
1.625 0.4375 1.4125
1.5625 0.4375 1.475
1.5625 0.5 1.4125
1.5625 0.4375 1.4125
1.75 0.4375 1.475
1.75 0.5 1.4125
1.6875 0.5 1.475
1.75 0.4375 1.4125
1.6875 0.4375 1.475
1.6875 0.5 1.4125
1.6875 0.4375 1.4125
1.875 0.4375 1.475
1.875 0.5 1.4125
1.8125 0.5 1.475
1.875 0.4375 1.4125
1.8125 0.4375 1.475
1.8125 0.5 1.4125
1.8125 0.4375 1.4125
2 0.4375 1.475
2 0.5 1.4125
1.9375 0.5 1.475
2 0.4375 1.4125
1.9375 0.4375 1.475
1.9375 0.5 1.4125
1.9375 0.4375 1.4125
2.125 0.4375 1.475
2.125 0.5 1.4125
2.0625 0.5 1.475
2.125 0.4375 1.4125
2.0625 0.4375 1.475
2.0625 0.5 1.4125
2.0625 0.4375 1.4125
2.25 0.4375 1.475
2.25 0.5 1.4125
2.1875 0.5 1.475
2.25 0.4375 1.4125
2.1875 0.4375 1.475
2.1875 0.5 1.4125
2.1875 0.4375 1.4125
2.375 0.4375 1.475
2.375 0.5 1.4125
2.3125 0.5 1.475
2.375 0.4375 1.4125
2.3125 0.4375 1.475
2.3125 0.5 1.4125
2.3125 0.4375 1.4125
2.5 0.4375 1.475
2.5 0.5 1.4125
2.4375 0.5 1.475
2.5 0.4375 1.4125
2.4375 0.4375 1.475
2.4375 0.5 1.4125
2.4375 0.4375 1.4125
2.625 0.4375 1.475
2.625 0.5 1.4125
2.5625 0.5 1.475
2.625 0.4375 1.4125
2.5625 0.4375 1.475
2.5625 0.5 1.4125
2.5625 0.4375 1.4125
2.75 0.4375 1.475
2.75 0.5 1.4125
2.6875 0.5 1.475
2.75 0.4375 1.4125
2.6875 0.4375 1.475
2.6875 0.5 1.4125
2.6875 0.4375 1.4125
2.875 0.4375 1.475
2.875 0.5 1.4125
2.8125 0.5 1.475
2.875 0.4375 1.4125
2.8125 0.4375 1.475
2.8125 0.5 1.4125
2.8125 0.4375 1.4125
3 0.4375 1.475
3 0.5 1.4125
2.9375 0.5 1.475
3 0.4375 1.4125
2.9375 0.4375 1.475
2.9375 0.5 1.4125
2.9375 0.4375 1.4125
0.125 0.5625 1.475
0 0.5625 1.475
0.125 0.625 1.4125
0.0625 0.625 1.475
0 0.625 1.4125
0.125 0.5625 1.4125
0.0625 0.5625 1.475
0 0.5625 1.4125
0.0625 0.625 1.4125
0.0625 0.5625 1.4125
0.25 0.5625 1.475
0.25 0.625 1.4125
0.1875 0.625 1.475
0.25 0.5625 1.4125
0.1875 0.5625 1.475
0.1875 0.625 1.4125
0.1875 0.5625 1.4125
0.375 0.5625 1.475
0.375 0.625 1.4125
0.3125 0.625 1.475
0.375 0.5625 1.4125
0.3125 0.5625 1.475
0.3125 0.625 1.4125
0.3125 0.5625 1.4125
0.5 0.5625 1.475
0.5 0.625 1.4125
0.4375 0.625 1.475
0.5 0.5625 1.4125
0.4375 0.5625 1.475
0.4375 0.625 1.4125
0.4375 0.5625 1.4125
0.625 0.5625 1.475
0.625 0.625 1.4125
0.5625 0.625 1.475
0.625 0.5625 1.4125
0.5625 0.5625 1.475
0.5625 0.625 1.4125
0.5625 0.5625 1.4125
0.75 0.5625 1.475
0.75 0.625 1.4125
0.6875 0.625 1.475
0.75 0.5625 1.4125
0.6875 0.5625 1.475
0.6875 0.625 1.4125
0.6875 0.5625 1.4125
0.875 0.5625 1.475
0.875 0.625 1.4125
0.8125 0.625 1.475
0.875 0.5625 1.4125
0.8125 0.5625 1.475
0.8125 0.625 1.4125
0.8125 0.5625 1.4125
1 0.5625 1.475
1 0.625 1.4125
0.9375 0.625 1.475
1 0.5625 1.4125
0.9375 0.5625 1.475
0.9375 0.625 1.4125
0.9375 0.5625 1.4125
1.125 0.5625 1.475
1.125 0.625 1.4125
1.0625 0.625 1.475
1.125 0.5625 1.4125
1.0625 0.5625 1.475
1.0625 0.625 1.4125
1.0625 0.5625 1.4125
1.25 0.5625 1.475
1.25 0.625 1.4125
1.1875 0.625 1.475
1.25 0.5625 1.4125
1.1875 0.5625 1.475
1.1875 0.625 1.4125
1.1875 0.5625 1.4125
1.375 0.5625 1.475
1.375 0.625 1.4125
1.3125 0.625 1.475
1.375 0.5625 1.4125
1.3125 0.5625 1.475
1.3125 0.625 1.4125
1.3125 0.5625 1.4125
1.5 0.5625 1.475
1.5 0.625 1.4125
1.4375 0.625 1.475
1.5 0.5625 1.4125
1.4375 0.5625 1.475
1.4375 0.625 1.4125
1.4375 0.5625 1.4125
1.625 0.5625 1.475
1.625 0.625 1.4125
1.5625 0.625 1.475
1.625 0.5625 1.4125
1.5625 0.5625 1.475
1.5625 0.625 1.4125
1.5625 0.5625 1.4125
1.75 0.5625 1.475
1.75 0.625 1.4125
1.6875 0.625 1.475
1.75 0.5625 1.4125
1.6875 0.5625 1.475
1.6875 0.625 1.4125
1.6875 0.5625 1.4125
1.875 0.5625 1.475
1.875 0.625 1.4125
1.8125 0.625 1.475
1.875 0.5625 1.4125
1.8125 0.5625 1.475
1.8125 0.625 1.4125
1.8125 0.5625 1.4125
2 0.5625 1.475
2 0.625 1.4125
1.9375 0.625 1.475
2 0.5625 1.4125
1.9375 0.5625 1.475
1.9375 0.625 1.4125
1.9375 0.5625 1.4125
2.125 0.5625 1.475
2.125 0.625 1.4125
2.0625 0.625 1.475
2.125 0.5625 1.4125
2.0625 0.5625 1.475
2.0625 0.625 1.4125
2.0625 0.5625 1.4125
2.25 0.5625 1.475
2.25 0.625 1.4125
2.1875 0.625 1.475
2.25 0.5625 1.4125
2.1875 0.5625 1.475
2.1875 0.625 1.4125
2.1875 0.5625 1.4125
2.375 0.5625 1.475
2.375 0.625 1.4125
2.3125 0.625 1.475
2.375 0.5625 1.4125
2.3125 0.5625 1.475
2.3125 0.625 1.4125
2.3125 0.5625 1.4125
2.5 0.5625 1.475
2.5 0.625 1.4125
2.4375 0.625 1.475
2.5 0.5625 1.4125
2.4375 0.5625 1.475
2.4375 0.625 1.4125
2.4375 0.5625 1.4125
2.625 0.5625 1.475
2.625 0.625 1.4125
2.5625 0.625 1.475
2.625 0.5625 1.4125
2.5625 0.5625 1.475
2.5625 0.625 1.4125
2.5625 0.5625 1.4125
2.75 0.5625 1.475
2.75 0.625 1.4125
2.6875 0.625 1.475
2.75 0.5625 1.4125
2.6875 0.5625 1.475
2.6875 0.625 1.4125
2.6875 0.5625 1.4125
2.875 0.5625 1.475
2.875 0.625 1.4125
2.8125 0.625 1.475
2.875 0.5625 1.4125
2.8125 0.5625 1.475
2.8125 0.625 1.4125
2.8125 0.5625 1.4125
3 0.5625 1.475
3 0.625 1.4125
2.9375 0.625 1.475
3 0.5625 1.4125
2.9375 0.5625 1.475
2.9375 0.625 1.4125
2.9375 0.5625 1.4125
0.125 0.6875 1.475
0 0.6875 1.475
0.125 0.75 1.4125
0.0625 0.75 1.475
0 0.75 1.4125
0.125 0.6875 1.4125
0.0625 0.6875 1.475
0 0.6875 1.4125
0.0625 0.75 1.4125
0.0625 0.6875 1.4125
0.25 0.6875 1.475
0.25 0.75 1.4125
0.1875 0.75 1.475
0.25 0.6875 1.4125
0.1875 0.6875 1.475
0.1875 0.75 1.4125
0.1875 0.6875 1.4125
0.375 0.6875 1.475
0.375 0.75 1.4125
0.3125 0.75 1.475
0.375 0.6875 1.4125
0.3125 0.6875 1.475
0.3125 0.75 1.4125
0.3125 0.6875 1.4125
0.5 0.6875 1.475
0.5 0.75 1.4125
0.4375 0.75 1.475
0.5 0.6875 1.4125
0.4375 0.6875 1.475
0.4375 0.75 1.4125
0.4375 0.6875 1.4125
0.625 0.6875 1.475
0.625 0.75 1.4125
0.5625 0.75 1.475
0.625 0.6875 1.4125
0.5625 0.6875 1.475
0.5625 0.75 1.4125
0.5625 0.6875 1.4125
0.75 0.6875 1.475
0.75 0.75 1.4125
0.6875 0.75 1.475
0.75 0.6875 1.4125
0.6875 0.6875 1.475
0.6875 0.75 1.4125
0.6875 0.6875 1.4125
0.875 0.6875 1.475
0.875 0.75 1.4125
0.8125 0.75 1.475
0.875 0.6875 1.4125
0.8125 0.6875 1.475
0.8125 0.75 1.4125
0.8125 0.6875 1.4125
1 0.6875 1.475
1 0.75 1.4125
0.9375 0.75 1.475
1 0.6875 1.4125
0.9375 0.6875 1.475
0.9375 0.75 1.4125
0.9375 0.6875 1.4125
1.125 0.6875 1.475
1.125 0.75 1.4125
1.0625 0.75 1.475
1.125 0.6875 1.4125
1.0625 0.6875 1.475
1.0625 0.75 1.4125
1.0625 0.6875 1.4125
1.25 0.6875 1.475
1.25 0.75 1.4125
1.1875 0.75 1.475
1.25 0.6875 1.4125
1.1875 0.6875 1.475
1.1875 0.75 1.4125
1.1875 0.6875 1.4125
1.375 0.6875 1.475
1.375 0.75 1.4125
1.3125 0.75 1.475
1.375 0.6875 1.4125
1.3125 0.6875 1.475
1.3125 0.75 1.4125
1.3125 0.6875 1.4125
1.5 0.6875 1.475
1.5 0.75 1.4125
1.4375 0.75 1.475
1.5 0.6875 1.4125
1.4375 0.6875 1.475
1.4375 0.75 1.4125
1.4375 0.6875 1.4125
1.625 0.6875 1.475
1.625 0.75 1.4125
1.5625 0.75 1.475
1.625 0.6875 1.4125
1.5625 0.6875 1.475
1.5625 0.75 1.4125
1.5625 0.6875 1.4125
1.75 0.6875 1.475
1.75 0.75 1.4125
1.6875 0.75 1.475
1.75 0.6875 1.4125
1.6875 0.6875 1.475
1.6875 0.75 1.4125
1.6875 0.6875 1.4125
1.875 0.6875 1.475
1.875 0.75 1.4125
1.8125 0.75 1.475
1.875 0.6875 1.4125
1.8125 0.6875 1.475
1.8125 0.75 1.4125
1.8125 0.6875 1.4125
2 0.6875 1.475
2 0.75 1.4125
1.9375 0.75 1.475
2 0.6875 1.4125
1.9375 0.6875 1.475
1.9375 0.75 1.4125
1.9375 0.6875 1.4125
2.125 0.6875 1.475
2.125 0.75 1.4125
2.0625 0.75 1.475
2.125 0.6875 1.4125
2.0625 0.6875 1.475
2.0625 0.75 1.4125
2.0625 0.6875 1.4125
2.25 0.6875 1.475
2.25 0.75 1.4125
2.1875 0.75 1.475
2.25 0.6875 1.4125
2.1875 0.6875 1.475
2.1875 0.75 1.4125
2.1875 0.6875 1.4125
2.375 0.6875 1.475
2.375 0.75 1.4125
2.3125 0.75 1.475
2.375 0.6875 1.4125
2.3125 0.6875 1.475
2.3125 0.75 1.4125
2.3125 0.6875 1.4125
2.5 0.6875 1.475
2.5 0.75 1.4125
2.4375 0.75 1.475
2.5 0.6875 1.4125
2.4375 0.6875 1.475
2.4375 0.75 1.4125
2.4375 0.6875 1.4125
2.625 0.6875 1.475
2.625 0.75 1.4125
2.5625 0.75 1.475
2.625 0.6875 1.4125
2.5625 0.6875 1.475
2.5625 0.75 1.4125
2.5625 0.6875 1.4125
2.75 0.6875 1.475
2.75 0.75 1.4125
2.6875 0.75 1.475
2.75 0.6875 1.4125
2.6875 0.6875 1.475
2.6875 0.75 1.4125
2.6875 0.6875 1.4125
2.875 0.6875 1.475
2.875 0.75 1.4125
2.8125 0.75 1.475
2.875 0.6875 1.4125
2.8125 0.6875 1.475
2.8125 0.75 1.4125
2.8125 0.6875 1.4125
3 0.6875 1.475
3 0.75 1.4125
2.9375 0.75 1.475
3 0.6875 1.4125
2.9375 0.6875 1.475
2.9375 0.75 1.4125
2.9375 0.6875 1.4125
0.125 0.8125 1.475
0 0.8125 1.475
0.125 0.875 1.4125
0.0625 0.875 1.475
0 0.875 1.4125
0.125 0.8125 1.4125
0.0625 0.8125 1.475
0 0.8125 1.4125
0.0625 0.875 1.4125
0.0625 0.8125 1.4125
0.25 0.8125 1.475
0.25 0.875 1.4125
0.1875 0.875 1.475
0.25 0.8125 1.4125
0.1875 0.8125 1.475
0.1875 0.875 1.4125
0.1875 0.8125 1.4125
0.375 0.8125 1.475
0.375 0.875 1.4125
0.3125 0.875 1.475
0.375 0.8125 1.4125
0.3125 0.8125 1.475
0.3125 0.875 1.4125
0.3125 0.8125 1.4125
0.5 0.8125 1.475
0.5 0.875 1.4125
0.4375 0.875 1.475
0.5 0.8125 1.4125
0.4375 0.8125 1.475
0.4375 0.875 1.4125
0.4375 0.8125 1.4125
0.625 0.8125 1.475
0.625 0.875 1.4125
0.5625 0.875 1.475
0.625 0.8125 1.4125
0.5625 0.8125 1.475
0.5625 0.875 1.4125
0.5625 0.8125 1.4125
0.75 0.8125 1.475
0.75 0.875 1.4125
0.6875 0.875 1.475
0.75 0.8125 1.4125
0.6875 0.8125 1.475
0.6875 0.875 1.4125
0.6875 0.8125 1.4125
0.875 0.8125 1.475
0.875 0.875 1.4125
0.8125 0.875 1.475
0.875 0.8125 1.4125
0.8125 0.8125 1.475
0.8125 0.875 1.4125
0.8125 0.8125 1.4125
1 0.8125 1.475
1 0.875 1.4125
0.9375 0.875 1.475
1 0.8125 1.4125
0.9375 0.8125 1.475
0.9375 0.875 1.4125
0.9375 0.8125 1.4125
1.125 0.8125 1.475
1.125 0.875 1.4125
1.0625 0.875 1.475
1.125 0.8125 1.4125
1.0625 0.8125 1.475
1.0625 0.875 1.4125
1.0625 0.8125 1.4125
1.25 0.8125 1.475
1.25 0.875 1.4125
1.1875 0.875 1.475
1.25 0.8125 1.4125
1.1875 0.8125 1.475
1.1875 0.875 1.4125
1.1875 0.8125 1.4125
1.375 0.8125 1.475
1.375 0.875 1.4125
1.3125 0.875 1.475
1.375 0.8125 1.4125
1.3125 0.8125 1.475
1.3125 0.875 1.4125
1.3125 0.8125 1.4125
1.5 0.8125 1.475
1.5 0.875 1.4125
1.4375 0.875 1.475
1.5 0.8125 1.4125
1.4375 0.8125 1.475
1.4375 0.875 1.4125
1.4375 0.8125 1.4125
1.625 0.8125 1.475
1.625 0.875 1.4125
1.5625 0.875 1.475
1.625 0.8125 1.4125
1.5625 0.8125 1.475
1.5625 0.875 1.4125
1.5625 0.8125 1.4125
1.75 0.8125 1.475
1.75 0.875 1.4125
1.6875 0.875 1.475
1.75 0.8125 1.4125
1.6875 0.8125 1.475
1.6875 0.875 1.4125
1.6875 0.8125 1.4125
1.875 0.8125 1.475
1.875 0.875 1.4125
1.8125 0.875 1.475
1.875 0.8125 1.4125
1.8125 0.8125 1.475
1.8125 0.875 1.4125
1.8125 0.8125 1.4125
2 0.8125 1.475
2 0.875 1.4125
1.9375 0.875 1.475
2 0.8125 1.4125
1.9375 0.8125 1.475
1.9375 0.875 1.4125
1.9375 0.8125 1.4125
2.125 0.8125 1.475
2.125 0.875 1.4125
2.0625 0.875 1.475
2.125 0.8125 1.4125
2.0625 0.8125 1.475
2.0625 0.875 1.4125
2.0625 0.8125 1.4125
2.25 0.8125 1.475
2.25 0.875 1.4125
2.1875 0.875 1.475
2.25 0.8125 1.4125
2.1875 0.8125 1.475
2.1875 0.875 1.4125
2.1875 0.8125 1.4125
2.375 0.8125 1.475
2.375 0.875 1.4125
2.3125 0.875 1.475
2.375 0.8125 1.4125
2.3125 0.8125 1.475
2.3125 0.875 1.4125
2.3125 0.8125 1.4125
2.5 0.8125 1.475
2.5 0.875 1.4125
2.4375 0.875 1.475
2.5 0.8125 1.4125
2.4375 0.8125 1.475
2.4375 0.875 1.4125
2.4375 0.8125 1.4125
2.625 0.8125 1.475
2.625 0.875 1.4125
2.5625 0.875 1.475
2.625 0.8125 1.4125
2.5625 0.8125 1.475
2.5625 0.875 1.4125
2.5625 0.8125 1.4125
2.75 0.8125 1.475
2.75 0.875 1.4125
2.6875 0.875 1.475
2.75 0.8125 1.4125
2.6875 0.8125 1.475
2.6875 0.875 1.4125
2.6875 0.8125 1.4125
2.875 0.8125 1.475
2.875 0.875 1.4125
2.8125 0.875 1.475
2.875 0.8125 1.4125
2.8125 0.8125 1.475
2.8125 0.875 1.4125
2.8125 0.8125 1.4125
3 0.8125 1.475
3 0.875 1.4125
2.9375 0.875 1.475
3 0.8125 1.4125
2.9375 0.8125 1.475
2.9375 0.875 1.4125
2.9375 0.8125 1.4125
0.125 0.9375 1.475
0 0.9375 1.475
0.125 1 1.4125
0.0625 1 1.475
0 1 1.4125
0.125 0.9375 1.4125
0.0625 0.9375 1.475
0 0.9375 1.4125
0.0625 1 1.4125
0.0625 0.9375 1.4125
0.25 0.9375 1.475
0.25 1 1.4125
0.1875 1 1.475
0.25 0.9375 1.4125
0.1875 0.9375 1.475
0.1875 1 1.4125
0.1875 0.9375 1.4125
0.375 0.9375 1.475
0.375 1 1.4125
0.3125 1 1.475
0.375 0.9375 1.4125
0.3125 0.9375 1.475
0.3125 1 1.4125
0.3125 0.9375 1.4125
0.5 0.9375 1.475
0.5 1 1.4125
0.4375 1 1.475
0.5 0.9375 1.4125
0.4375 0.9375 1.475
0.4375 1 1.4125
0.4375 0.9375 1.4125
0.625 0.9375 1.475
0.625 1 1.4125
0.5625 1 1.475
0.625 0.9375 1.4125
0.5625 0.9375 1.475
0.5625 1 1.4125
0.5625 0.9375 1.4125
0.75 0.9375 1.475
0.75 1 1.4125
0.6875 1 1.475
0.75 0.9375 1.4125
0.6875 0.9375 1.475
0.6875 1 1.4125
0.6875 0.9375 1.4125
0.875 0.9375 1.475
0.875 1 1.4125
0.8125 1 1.475
0.875 0.9375 1.4125
0.8125 0.9375 1.475
0.8125 1 1.4125
0.8125 0.9375 1.4125
1 0.9375 1.475
1 1 1.4125
0.9375 1 1.475
1 0.9375 1.4125
0.9375 0.9375 1.475
0.9375 1 1.4125
0.9375 0.9375 1.4125
1.125 0.9375 1.475
1.125 1 1.4125
1.0625 1 1.475
1.125 0.9375 1.4125
1.0625 0.9375 1.475
1.0625 1 1.4125
1.0625 0.9375 1.4125
1.25 0.9375 1.475
1.25 1 1.4125
1.1875 1 1.475
1.25 0.9375 1.4125
1.1875 0.9375 1.475
1.1875 1 1.4125
1.1875 0.9375 1.4125
1.375 0.9375 1.475
1.375 1 1.4125
1.3125 1 1.475
1.375 0.9375 1.4125
1.3125 0.9375 1.475
1.3125 1 1.4125
1.3125 0.9375 1.4125
1.5 0.9375 1.475
1.5 1 1.4125
1.4375 1 1.475
1.5 0.9375 1.4125
1.4375 0.9375 1.475
1.4375 1 1.4125
1.4375 0.9375 1.4125
1.625 0.9375 1.475
1.625 1 1.4125
1.5625 1 1.475
1.625 0.9375 1.4125
1.5625 0.9375 1.475
1.5625 1 1.4125
1.5625 0.9375 1.4125
1.75 0.9375 1.475
1.75 1 1.4125
1.6875 1 1.475
1.75 0.9375 1.4125
1.6875 0.9375 1.475
1.6875 1 1.4125
1.6875 0.9375 1.4125
1.875 0.9375 1.475
1.875 1 1.4125
1.8125 1 1.475
1.875 0.9375 1.4125
1.8125 0.9375 1.475
1.8125 1 1.4125
1.8125 0.9375 1.4125
2 0.9375 1.475
2 1 1.4125
1.9375 1 1.475
2 0.9375 1.4125
1.9375 0.9375 1.475
1.9375 1 1.4125
1.9375 0.9375 1.4125
2.125 0.9375 1.475
2.125 1 1.4125
2.0625 1 1.475
2.125 0.9375 1.4125
2.0625 0.9375 1.475
2.0625 1 1.4125
2.0625 0.9375 1.4125
2.25 0.9375 1.475
2.25 1 1.4125
2.1875 1 1.475
2.25 0.9375 1.4125
2.1875 0.9375 1.475
2.1875 1 1.4125
2.1875 0.9375 1.4125
2.375 0.9375 1.475
2.375 1 1.4125
2.3125 1 1.475
2.375 0.9375 1.4125
2.3125 0.9375 1.475
2.3125 1 1.4125
2.3125 0.9375 1.4125
2.5 0.9375 1.475
2.5 1 1.4125
2.4375 1 1.475
2.5 0.9375 1.4125
2.4375 0.9375 1.475
2.4375 1 1.4125
2.4375 0.9375 1.4125
2.625 0.9375 1.475
2.625 1 1.4125
2.5625 1 1.475
2.625 0.9375 1.4125
2.5625 0.9375 1.475
2.5625 1 1.4125
2.5625 0.9375 1.4125
2.75 0.9375 1.475
2.75 1 1.4125
2.6875 1 1.475
2.75 0.9375 1.4125
2.6875 0.9375 1.475
2.6875 1 1.4125
2.6875 0.9375 1.4125
2.875 0.9375 1.475
2.875 1 1.4125
2.8125 1 1.475
2.875 0.9375 1.4125
2.8125 0.9375 1.475
2.8125 1 1.4125
2.8125 0.9375 1.4125
3 0.9375 1.475
3 1 1.4125
2.9375 1 1.475
3 0.9375 1.4125
2.9375 0.9375 1.475
2.9375 1 1.4125
2.9375 0.9375 1.4125
0.125 0 1.5375
0.0625 0 1.6
0 0 1.5375
0.125 0.0625 1.6
0 0.0625 1.6
0.125 0.125 1.5375
0.0625 0.125 1.6
0 0.125 1.5375
0.0625 0 1.5375
0.125 0.0625 1.5375
0.0625 0.0625 1.6
0 0.0625 1.5375
0.0625 0.125 1.5375
0.0625 0.0625 1.5375
0.25 0 1.5375
0.1875 0 1.6
0.25 0.0625 1.6
0.25 0.125 1.5375
0.1875 0.125 1.6
0.1875 0 1.5375
0.25 0.0625 1.5375
0.1875 0.0625 1.6
0.1875 0.125 1.5375
0.1875 0.0625 1.5375
0.375 0 1.5375
0.3125 0 1.6
0.375 0.0625 1.6
0.375 0.125 1.5375
0.3125 0.125 1.6
0.3125 0 1.5375
0.375 0.0625 1.5375
0.3125 0.0625 1.6
0.3125 0.125 1.5375
0.3125 0.0625 1.5375
0.5 0 1.5375
0.4375 0 1.6
0.5 0.0625 1.6
0.5 0.125 1.5375
0.4375 0.125 1.6
0.4375 0 1.5375
0.5 0.0625 1.5375
0.4375 0.0625 1.6
0.4375 0.125 1.5375
0.4375 0.0625 1.5375
0.625 0 1.5375
0.5625 0 1.6
0.625 0.0625 1.6
0.625 0.125 1.5375
0.5625 0.125 1.6
0.5625 0 1.5375
0.625 0.0625 1.5375
0.5625 0.0625 1.6
0.5625 0.125 1.5375
0.5625 0.0625 1.5375
0.75 0 1.5375
0.6875 0 1.6
0.75 0.0625 1.6
0.75 0.125 1.5375
0.6875 0.125 1.6
0.6875 0 1.5375
0.75 0.0625 1.5375
0.6875 0.0625 1.6
0.6875 0.125 1.5375
0.6875 0.0625 1.5375
0.875 0 1.5375
0.8125 0 1.6
0.875 0.0625 1.6
0.875 0.125 1.5375
0.8125 0.125 1.6
0.8125 0 1.5375
0.875 0.0625 1.5375
0.8125 0.0625 1.6
0.8125 0.125 1.5375
0.8125 0.0625 1.5375
1 0 1.5375
0.9375 0 1.6
1 0.0625 1.6
1 0.125 1.5375
0.9375 0.125 1.6
0.9375 0 1.5375
1 0.0625 1.5375
0.9375 0.0625 1.6
0.9375 0.125 1.5375
0.9375 0.0625 1.5375
1.125 0 1.5375
1.0625 0 1.6
1.125 0.0625 1.6
1.125 0.125 1.5375
1.0625 0.125 1.6
1.0625 0 1.5375
1.125 0.0625 1.5375
1.0625 0.0625 1.6
1.0625 0.125 1.5375
1.0625 0.0625 1.5375
1.25 0 1.5375
1.1875 0 1.6
1.25 0.0625 1.6
1.25 0.125 1.5375
1.1875 0.125 1.6
1.1875 0 1.5375
1.25 0.0625 1.5375
1.1875 0.0625 1.6
1.1875 0.125 1.5375
1.1875 0.0625 1.5375
1.375 0 1.5375
1.3125 0 1.6
1.375 0.0625 1.6
1.375 0.125 1.5375
1.3125 0.125 1.6
1.3125 0 1.5375
1.375 0.0625 1.5375
1.3125 0.0625 1.6
1.3125 0.125 1.5375
1.3125 0.0625 1.5375
1.5 0 1.5375
1.4375 0 1.6
1.5 0.0625 1.6
1.5 0.125 1.5375
1.4375 0.125 1.6
1.4375 0 1.5375
1.5 0.0625 1.5375
1.4375 0.0625 1.6
1.4375 0.125 1.5375
1.4375 0.0625 1.5375
1.625 0 1.5375
1.5625 0 1.6
1.625 0.0625 1.6
1.625 0.125 1.5375
1.5625 0.125 1.6
1.5625 0 1.5375
1.625 0.0625 1.5375
1.5625 0.0625 1.6
1.5625 0.125 1.5375
1.5625 0.0625 1.5375
1.75 0 1.5375
1.6875 0 1.6
1.75 0.0625 1.6
1.75 0.125 1.5375
1.6875 0.125 1.6
1.6875 0 1.5375
1.75 0.0625 1.5375
1.6875 0.0625 1.6
1.6875 0.125 1.5375
1.6875 0.0625 1.5375
1.875 0 1.5375
1.8125 0 1.6
1.875 0.0625 1.6
1.875 0.125 1.5375
1.8125 0.125 1.6
1.8125 0 1.5375
1.875 0.0625 1.5375
1.8125 0.0625 1.6
1.8125 0.125 1.5375
1.8125 0.0625 1.5375
2 0 1.5375
1.9375 0 1.6
2 0.0625 1.6
2 0.125 1.5375
1.9375 0.125 1.6
1.9375 0 1.5375
2 0.0625 1.5375
1.9375 0.0625 1.6
1.9375 0.125 1.5375
1.9375 0.0625 1.5375
2.125 0 1.5375
2.0625 0 1.6
2.125 0.0625 1.6
2.125 0.125 1.5375
2.0625 0.125 1.6
2.0625 0 1.5375
2.125 0.0625 1.5375
2.0625 0.0625 1.6
2.0625 0.125 1.5375
2.0625 0.0625 1.5375
2.25 0 1.5375
2.1875 0 1.6
2.25 0.0625 1.6
2.25 0.125 1.5375
2.1875 0.125 1.6
2.1875 0 1.5375
2.25 0.0625 1.5375
2.1875 0.0625 1.6
2.1875 0.125 1.5375
2.1875 0.0625 1.5375
2.375 0 1.5375
2.3125 0 1.6
2.375 0.0625 1.6
2.375 0.125 1.5375
2.3125 0.125 1.6
2.3125 0 1.5375
2.375 0.0625 1.5375
2.3125 0.0625 1.6
2.3125 0.125 1.5375
2.3125 0.0625 1.5375
2.5 0 1.5375
2.4375 0 1.6
2.5 0.0625 1.6
2.5 0.125 1.5375
2.4375 0.125 1.6
2.4375 0 1.5375
2.5 0.0625 1.5375
2.4375 0.0625 1.6
2.4375 0.125 1.5375
2.4375 0.0625 1.5375
2.625 0 1.5375
2.5625 0 1.6
2.625 0.0625 1.6
2.625 0.125 1.5375
2.5625 0.125 1.6
2.5625 0 1.5375
2.625 0.0625 1.5375
2.5625 0.0625 1.6
2.5625 0.125 1.5375
2.5625 0.0625 1.5375
2.75 0 1.5375
2.6875 0 1.6
2.75 0.0625 1.6
2.75 0.125 1.5375
2.6875 0.125 1.6
2.6875 0 1.5375
2.75 0.0625 1.5375
2.6875 0.0625 1.6
2.6875 0.125 1.5375
2.6875 0.0625 1.5375
2.875 0 1.5375
2.8125 0 1.6
2.875 0.0625 1.6
2.875 0.125 1.5375
2.8125 0.125 1.6
2.8125 0 1.5375
2.875 0.0625 1.5375
2.8125 0.0625 1.6
2.8125 0.125 1.5375
2.8125 0.0625 1.5375
3 0 1.5375
2.9375 0 1.6
3 0.0625 1.6
3 0.125 1.5375
2.9375 0.125 1.6
2.9375 0 1.5375
3 0.0625 1.5375
2.9375 0.0625 1.6
2.9375 0.125 1.5375
2.9375 0.0625 1.5375
0.125 0.1875 1.6
0 0.1875 1.6
0.125 0.25 1.5375
0.0625 0.25 1.6
0 0.25 1.5375
0.125 0.1875 1.5375
0.0625 0.1875 1.6
0 0.1875 1.5375
0.0625 0.25 1.5375
0.0625 0.1875 1.5375
0.25 0.1875 1.6
0.25 0.25 1.5375
0.1875 0.25 1.6
0.25 0.1875 1.5375
0.1875 0.1875 1.6
0.1875 0.25 1.5375
0.1875 0.1875 1.5375
0.375 0.1875 1.6
0.375 0.25 1.5375
0.3125 0.25 1.6
0.375 0.1875 1.5375
0.3125 0.1875 1.6
0.3125 0.25 1.5375
0.3125 0.1875 1.5375
0.5 0.1875 1.6
0.5 0.25 1.5375
0.4375 0.25 1.6
0.5 0.1875 1.5375
0.4375 0.1875 1.6
0.4375 0.25 1.5375
0.4375 0.1875 1.5375
0.625 0.1875 1.6
0.625 0.25 1.5375
0.5625 0.25 1.6
0.625 0.1875 1.5375
0.5625 0.1875 1.6
0.5625 0.25 1.5375
0.5625 0.1875 1.5375
0.75 0.1875 1.6
0.75 0.25 1.5375
0.6875 0.25 1.6
0.75 0.1875 1.5375
0.6875 0.1875 1.6
0.6875 0.25 1.5375
0.6875 0.1875 1.5375
0.875 0.1875 1.6
0.875 0.25 1.5375
0.8125 0.25 1.6
0.875 0.1875 1.5375
0.8125 0.1875 1.6
0.8125 0.25 1.5375
0.8125 0.1875 1.5375
1 0.1875 1.6
1 0.25 1.5375
0.9375 0.25 1.6
1 0.1875 1.5375
0.9375 0.1875 1.6
0.9375 0.25 1.5375
0.9375 0.1875 1.5375
1.125 0.1875 1.6
1.125 0.25 1.5375
1.0625 0.25 1.6
1.125 0.1875 1.5375
1.0625 0.1875 1.6
1.0625 0.25 1.5375
1.0625 0.1875 1.5375
1.25 0.1875 1.6
1.25 0.25 1.5375
1.1875 0.25 1.6
1.25 0.1875 1.5375
1.1875 0.1875 1.6
1.1875 0.25 1.5375
1.1875 0.1875 1.5375
1.375 0.1875 1.6
1.375 0.25 1.5375
1.3125 0.25 1.6
1.375 0.1875 1.5375
1.3125 0.1875 1.6
1.3125 0.25 1.5375
1.3125 0.1875 1.5375
1.5 0.1875 1.6
1.5 0.25 1.5375
1.4375 0.25 1.6
1.5 0.1875 1.5375
1.4375 0.1875 1.6
1.4375 0.25 1.5375
1.4375 0.1875 1.5375
1.625 0.1875 1.6
1.625 0.25 1.5375
1.5625 0.25 1.6
1.625 0.1875 1.5375
1.5625 0.1875 1.6
1.5625 0.25 1.5375
1.5625 0.1875 1.5375
1.75 0.1875 1.6
1.75 0.25 1.5375
1.6875 0.25 1.6
1.75 0.1875 1.5375
1.6875 0.1875 1.6
1.6875 0.25 1.5375
1.6875 0.1875 1.5375
1.875 0.1875 1.6
1.875 0.25 1.5375
1.8125 0.25 1.6
1.875 0.1875 1.5375
1.8125 0.1875 1.6
1.8125 0.25 1.5375
1.8125 0.1875 1.5375
2 0.1875 1.6
2 0.25 1.5375
1.9375 0.25 1.6
2 0.1875 1.5375
1.9375 0.1875 1.6
1.9375 0.25 1.5375
1.9375 0.1875 1.5375
2.125 0.1875 1.6
2.125 0.25 1.5375
2.0625 0.25 1.6
2.125 0.1875 1.5375
2.0625 0.1875 1.6
2.0625 0.25 1.5375
2.0625 0.1875 1.5375
2.25 0.1875 1.6
2.25 0.25 1.5375
2.1875 0.25 1.6
2.25 0.1875 1.5375
2.1875 0.1875 1.6
2.1875 0.25 1.5375
2.1875 0.1875 1.5375
2.375 0.1875 1.6
2.375 0.25 1.5375
2.3125 0.25 1.6
2.375 0.1875 1.5375
2.3125 0.1875 1.6
2.3125 0.25 1.5375
2.3125 0.1875 1.5375
2.5 0.1875 1.6
2.5 0.25 1.5375
2.4375 0.25 1.6
2.5 0.1875 1.5375
2.4375 0.1875 1.6
2.4375 0.25 1.5375
2.4375 0.1875 1.5375
2.625 0.1875 1.6
2.625 0.25 1.5375
2.5625 0.25 1.6
2.625 0.1875 1.5375
2.5625 0.1875 1.6
2.5625 0.25 1.5375
2.5625 0.1875 1.5375
2.75 0.1875 1.6
2.75 0.25 1.5375
2.6875 0.25 1.6
2.75 0.1875 1.5375
2.6875 0.1875 1.6
2.6875 0.25 1.5375
2.6875 0.1875 1.5375
2.875 0.1875 1.6
2.875 0.25 1.5375
2.8125 0.25 1.6
2.875 0.1875 1.5375
2.8125 0.1875 1.6
2.8125 0.25 1.5375
2.8125 0.1875 1.5375
3 0.1875 1.6
3 0.25 1.5375
2.9375 0.25 1.6
3 0.1875 1.5375
2.9375 0.1875 1.6
2.9375 0.25 1.5375
2.9375 0.1875 1.5375
0.125 0.3125 1.6
0 0.3125 1.6
0.125 0.375 1.5375
0.0625 0.375 1.6
0 0.375 1.5375
0.125 0.3125 1.5375
0.0625 0.3125 1.6
0 0.3125 1.5375
0.0625 0.375 1.5375
0.0625 0.3125 1.5375
0.25 0.3125 1.6
0.25 0.375 1.5375
0.1875 0.375 1.6
0.25 0.3125 1.5375
0.1875 0.3125 1.6
0.1875 0.375 1.5375
0.1875 0.3125 1.5375
0.375 0.3125 1.6
0.375 0.375 1.5375
0.3125 0.375 1.6
0.375 0.3125 1.5375
0.3125 0.3125 1.6
0.3125 0.375 1.5375
0.3125 0.3125 1.5375
0.5 0.3125 1.6
0.5 0.375 1.5375
0.4375 0.375 1.6
0.5 0.3125 1.5375
0.4375 0.3125 1.6
0.4375 0.375 1.5375
0.4375 0.3125 1.5375
0.625 0.3125 1.6
0.625 0.375 1.5375
0.5625 0.375 1.6
0.625 0.3125 1.5375
0.5625 0.3125 1.6
0.5625 0.375 1.5375
0.5625 0.3125 1.5375
0.75 0.3125 1.6
0.75 0.375 1.5375
0.6875 0.375 1.6
0.75 0.3125 1.5375
0.6875 0.3125 1.6
0.6875 0.375 1.5375
0.6875 0.3125 1.5375
0.875 0.3125 1.6
0.875 0.375 1.5375
0.8125 0.375 1.6
0.875 0.3125 1.5375
0.8125 0.3125 1.6
0.8125 0.375 1.5375
0.8125 0.3125 1.5375
1 0.3125 1.6
1 0.375 1.5375
0.9375 0.375 1.6
1 0.3125 1.5375
0.9375 0.3125 1.6
0.9375 0.375 1.5375
0.9375 0.3125 1.5375
1.125 0.3125 1.6
1.125 0.375 1.5375
1.0625 0.375 1.6
1.125 0.3125 1.5375
1.0625 0.3125 1.6
1.0625 0.375 1.5375
1.0625 0.3125 1.5375
1.25 0.3125 1.6
1.25 0.375 1.5375
1.1875 0.375 1.6
1.25 0.3125 1.5375
1.1875 0.3125 1.6
1.1875 0.375 1.5375
1.1875 0.3125 1.5375
1.375 0.3125 1.6
1.375 0.375 1.5375
1.3125 0.375 1.6
1.375 0.3125 1.5375
1.3125 0.3125 1.6
1.3125 0.375 1.5375
1.3125 0.3125 1.5375
1.5 0.3125 1.6
1.5 0.375 1.5375
1.4375 0.375 1.6
1.5 0.3125 1.5375
1.4375 0.3125 1.6
1.4375 0.375 1.5375
1.4375 0.3125 1.5375
1.625 0.3125 1.6
1.625 0.375 1.5375
1.5625 0.375 1.6
1.625 0.3125 1.5375
1.5625 0.3125 1.6
1.5625 0.375 1.5375
1.5625 0.3125 1.5375
1.75 0.3125 1.6
1.75 0.375 1.5375
1.6875 0.375 1.6
1.75 0.3125 1.5375
1.6875 0.3125 1.6
1.6875 0.375 1.5375
1.6875 0.3125 1.5375
1.875 0.3125 1.6
1.875 0.375 1.5375
1.8125 0.375 1.6
1.875 0.3125 1.5375
1.8125 0.3125 1.6
1.8125 0.375 1.5375
1.8125 0.3125 1.5375
2 0.3125 1.6
2 0.375 1.5375
1.9375 0.375 1.6
2 0.3125 1.5375
1.9375 0.3125 1.6
1.9375 0.375 1.5375
1.9375 0.3125 1.5375
2.125 0.3125 1.6
2.125 0.375 1.5375
2.0625 0.375 1.6
2.125 0.3125 1.5375
2.0625 0.3125 1.6
2.0625 0.375 1.5375
2.0625 0.3125 1.5375
2.25 0.3125 1.6
2.25 0.375 1.5375
2.1875 0.375 1.6
2.25 0.3125 1.5375
2.1875 0.3125 1.6
2.1875 0.375 1.5375
2.1875 0.3125 1.5375
2.375 0.3125 1.6
2.375 0.375 1.5375
2.3125 0.375 1.6
2.375 0.3125 1.5375
2.3125 0.3125 1.6
2.3125 0.375 1.5375
2.3125 0.3125 1.5375
2.5 0.3125 1.6
2.5 0.375 1.5375
2.4375 0.375 1.6
2.5 0.3125 1.5375
2.4375 0.3125 1.6
2.4375 0.375 1.5375
2.4375 0.3125 1.5375
2.625 0.3125 1.6
2.625 0.375 1.5375
2.5625 0.375 1.6
2.625 0.3125 1.5375
2.5625 0.3125 1.6
2.5625 0.375 1.5375
2.5625 0.3125 1.5375
2.75 0.3125 1.6
2.75 0.375 1.5375
2.6875 0.375 1.6
2.75 0.3125 1.5375
2.6875 0.3125 1.6
2.6875 0.375 1.5375
2.6875 0.3125 1.5375
2.875 0.3125 1.6
2.875 0.375 1.5375
2.8125 0.375 1.6
2.875 0.3125 1.5375
2.8125 0.3125 1.6
2.8125 0.375 1.5375
2.8125 0.3125 1.5375
3 0.3125 1.6
3 0.375 1.5375
2.9375 0.375 1.6
3 0.3125 1.5375
2.9375 0.3125 1.6
2.9375 0.375 1.5375
2.9375 0.3125 1.5375
0.125 0.4375 1.6
0 0.4375 1.6
0.125 0.5 1.5375
0.0625 0.5 1.6
0 0.5 1.5375
0.125 0.4375 1.5375
0.0625 0.4375 1.6
0 0.4375 1.5375
0.0625 0.5 1.5375
0.0625 0.4375 1.5375
0.25 0.4375 1.6
0.25 0.5 1.5375
0.1875 0.5 1.6
0.25 0.4375 1.5375
0.1875 0.4375 1.6
0.1875 0.5 1.5375
0.1875 0.4375 1.5375
0.375 0.4375 1.6
0.375 0.5 1.5375
0.3125 0.5 1.6
0.375 0.4375 1.5375
0.3125 0.4375 1.6
0.3125 0.5 1.5375
0.3125 0.4375 1.5375
0.5 0.4375 1.6
0.5 0.5 1.5375
0.4375 0.5 1.6
0.5 0.4375 1.5375
0.4375 0.4375 1.6
0.4375 0.5 1.5375
0.4375 0.4375 1.5375
0.625 0.4375 1.6
0.625 0.5 1.5375
0.5625 0.5 1.6
0.625 0.4375 1.5375
0.5625 0.4375 1.6
0.5625 0.5 1.5375
0.5625 0.4375 1.5375
0.75 0.4375 1.6
0.75 0.5 1.5375
0.6875 0.5 1.6
0.75 0.4375 1.5375
0.6875 0.4375 1.6
0.6875 0.5 1.5375
0.6875 0.4375 1.5375
0.875 0.4375 1.6
0.875 0.5 1.5375
0.8125 0.5 1.6
0.875 0.4375 1.5375
0.8125 0.4375 1.6
0.8125 0.5 1.5375
0.8125 0.4375 1.5375
1 0.4375 1.6
1 0.5 1.5375
0.9375 0.5 1.6
1 0.4375 1.5375
0.9375 0.4375 1.6
0.9375 0.5 1.5375
0.9375 0.4375 1.5375
1.125 0.4375 1.6
1.125 0.5 1.5375
1.0625 0.5 1.6
1.125 0.4375 1.5375
1.0625 0.4375 1.6
1.0625 0.5 1.5375
1.0625 0.4375 1.5375
1.25 0.4375 1.6
1.25 0.5 1.5375
1.1875 0.5 1.6
1.25 0.4375 1.5375
1.1875 0.4375 1.6
1.1875 0.5 1.5375
1.1875 0.4375 1.5375
1.375 0.4375 1.6
1.375 0.5 1.5375
1.3125 0.5 1.6
1.375 0.4375 1.5375
1.3125 0.4375 1.6
1.3125 0.5 1.5375
1.3125 0.4375 1.5375
1.5 0.4375 1.6
1.5 0.5 1.5375
1.4375 0.5 1.6
1.5 0.4375 1.5375
1.4375 0.4375 1.6
1.4375 0.5 1.5375
1.4375 0.4375 1.5375
1.625 0.4375 1.6
1.625 0.5 1.5375
1.5625 0.5 1.6
1.625 0.4375 1.5375
1.5625 0.4375 1.6
1.5625 0.5 1.5375
1.5625 0.4375 1.5375
1.75 0.4375 1.6
1.75 0.5 1.5375
1.6875 0.5 1.6
1.75 0.4375 1.5375
1.6875 0.4375 1.6
1.6875 0.5 1.5375
1.6875 0.4375 1.5375
1.875 0.4375 1.6
1.875 0.5 1.5375
1.8125 0.5 1.6
1.875 0.4375 1.5375
1.8125 0.4375 1.6
1.8125 0.5 1.5375
1.8125 0.4375 1.5375
2 0.4375 1.6
2 0.5 1.5375
1.9375 0.5 1.6
2 0.4375 1.5375
1.9375 0.4375 1.6
1.9375 0.5 1.5375
1.9375 0.4375 1.5375
2.125 0.4375 1.6
2.125 0.5 1.5375
2.0625 0.5 1.6
2.125 0.4375 1.5375
2.0625 0.4375 1.6
2.0625 0.5 1.5375
2.0625 0.4375 1.5375
2.25 0.4375 1.6
2.25 0.5 1.5375
2.1875 0.5 1.6
2.25 0.4375 1.5375
2.1875 0.4375 1.6
2.1875 0.5 1.5375
2.1875 0.4375 1.5375
2.375 0.4375 1.6
2.375 0.5 1.5375
2.3125 0.5 1.6
2.375 0.4375 1.5375
2.3125 0.4375 1.6
2.3125 0.5 1.5375
2.3125 0.4375 1.5375
2.5 0.4375 1.6
2.5 0.5 1.5375
2.4375 0.5 1.6
2.5 0.4375 1.5375
2.4375 0.4375 1.6
2.4375 0.5 1.5375
2.4375 0.4375 1.5375
2.625 0.4375 1.6
2.625 0.5 1.5375
2.5625 0.5 1.6
2.625 0.4375 1.5375
2.5625 0.4375 1.6
2.5625 0.5 1.5375
2.5625 0.4375 1.5375
2.75 0.4375 1.6
2.75 0.5 1.5375
2.6875 0.5 1.6
2.75 0.4375 1.5375
2.6875 0.4375 1.6
2.6875 0.5 1.5375
2.6875 0.4375 1.5375
2.875 0.4375 1.6
2.875 0.5 1.5375
2.8125 0.5 1.6
2.875 0.4375 1.5375
2.8125 0.4375 1.6
2.8125 0.5 1.5375
2.8125 0.4375 1.5375
3 0.4375 1.6
3 0.5 1.5375
2.9375 0.5 1.6
3 0.4375 1.5375
2.9375 0.4375 1.6
2.9375 0.5 1.5375
2.9375 0.4375 1.5375
0.125 0.5625 1.6
0 0.5625 1.6
0.125 0.625 1.5375
0.0625 0.625 1.6
0 0.625 1.5375
0.125 0.5625 1.5375
0.0625 0.5625 1.6
0 0.5625 1.5375
0.0625 0.625 1.5375
0.0625 0.5625 1.5375
0.25 0.5625 1.6
0.25 0.625 1.5375
0.1875 0.625 1.6
0.25 0.5625 1.5375
0.1875 0.5625 1.6
0.1875 0.625 1.5375
0.1875 0.5625 1.5375
0.375 0.5625 1.6
0.375 0.625 1.5375
0.3125 0.625 1.6
0.375 0.5625 1.5375
0.3125 0.5625 1.6
0.3125 0.625 1.5375
0.3125 0.5625 1.5375
0.5 0.5625 1.6
0.5 0.625 1.5375
0.4375 0.625 1.6
0.5 0.5625 1.5375
0.4375 0.5625 1.6
0.4375 0.625 1.5375
0.4375 0.5625 1.5375
0.625 0.5625 1.6
0.625 0.625 1.5375
0.5625 0.625 1.6
0.625 0.5625 1.5375
0.5625 0.5625 1.6
0.5625 0.625 1.5375
0.5625 0.5625 1.5375
0.75 0.5625 1.6
0.75 0.625 1.5375
0.6875 0.625 1.6
0.75 0.5625 1.5375
0.6875 0.5625 1.6
0.6875 0.625 1.5375
0.6875 0.5625 1.5375
0.875 0.5625 1.6
0.875 0.625 1.5375
0.8125 0.625 1.6
0.875 0.5625 1.5375
0.8125 0.5625 1.6
0.8125 0.625 1.5375
0.8125 0.5625 1.5375
1 0.5625 1.6
1 0.625 1.5375
0.9375 0.625 1.6
1 0.5625 1.5375
0.9375 0.5625 1.6
0.9375 0.625 1.5375
0.9375 0.5625 1.5375
1.125 0.5625 1.6
1.125 0.625 1.5375
1.0625 0.625 1.6
1.125 0.5625 1.5375
1.0625 0.5625 1.6
1.0625 0.625 1.5375
1.0625 0.5625 1.5375
1.25 0.5625 1.6
1.25 0.625 1.5375
1.1875 0.625 1.6
1.25 0.5625 1.5375
1.1875 0.5625 1.6
1.1875 0.625 1.5375
1.1875 0.5625 1.5375
1.375 0.5625 1.6
1.375 0.625 1.5375
1.3125 0.625 1.6
1.375 0.5625 1.5375
1.3125 0.5625 1.6
1.3125 0.625 1.5375
1.3125 0.5625 1.5375
1.5 0.5625 1.6
1.5 0.625 1.5375
1.4375 0.625 1.6
1.5 0.5625 1.5375
1.4375 0.5625 1.6
1.4375 0.625 1.5375
1.4375 0.5625 1.5375
1.625 0.5625 1.6
1.625 0.625 1.5375
1.5625 0.625 1.6
1.625 0.5625 1.5375
1.5625 0.5625 1.6
1.5625 0.625 1.5375
1.5625 0.5625 1.5375
1.75 0.5625 1.6
1.75 0.625 1.5375
1.6875 0.625 1.6
1.75 0.5625 1.5375
1.6875 0.5625 1.6
1.6875 0.625 1.5375
1.6875 0.5625 1.5375
1.875 0.5625 1.6
1.875 0.625 1.5375
1.8125 0.625 1.6
1.875 0.5625 1.5375
1.8125 0.5625 1.6
1.8125 0.625 1.5375
1.8125 0.5625 1.5375
2 0.5625 1.6
2 0.625 1.5375
1.9375 0.625 1.6
2 0.5625 1.5375
1.9375 0.5625 1.6
1.9375 0.625 1.5375
1.9375 0.5625 1.5375
2.125 0.5625 1.6
2.125 0.625 1.5375
2.0625 0.625 1.6
2.125 0.5625 1.5375
2.0625 0.5625 1.6
2.0625 0.625 1.5375
2.0625 0.5625 1.5375
2.25 0.5625 1.6
2.25 0.625 1.5375
2.1875 0.625 1.6
2.25 0.5625 1.5375
2.1875 0.5625 1.6
2.1875 0.625 1.5375
2.1875 0.5625 1.5375
2.375 0.5625 1.6
2.375 0.625 1.5375
2.3125 0.625 1.6
2.375 0.5625 1.5375
2.3125 0.5625 1.6
2.3125 0.625 1.5375
2.3125 0.5625 1.5375
2.5 0.5625 1.6
2.5 0.625 1.5375
2.4375 0.625 1.6
2.5 0.5625 1.5375
2.4375 0.5625 1.6
2.4375 0.625 1.5375
2.4375 0.5625 1.5375
2.625 0.5625 1.6
2.625 0.625 1.5375
2.5625 0.625 1.6
2.625 0.5625 1.5375
2.5625 0.5625 1.6
2.5625 0.625 1.5375
2.5625 0.5625 1.5375
2.75 0.5625 1.6
2.75 0.625 1.5375
2.6875 0.625 1.6
2.75 0.5625 1.5375
2.6875 0.5625 1.6
2.6875 0.625 1.5375
2.6875 0.5625 1.5375
2.875 0.5625 1.6
2.875 0.625 1.5375
2.8125 0.625 1.6
2.875 0.5625 1.5375
2.8125 0.5625 1.6
2.8125 0.625 1.5375
2.8125 0.5625 1.5375
3 0.5625 1.6
3 0.625 1.5375
2.9375 0.625 1.6
3 0.5625 1.5375
2.9375 0.5625 1.6
2.9375 0.625 1.5375
2.9375 0.5625 1.5375
0.125 0.6875 1.6
0 0.6875 1.6
0.125 0.75 1.5375
0.0625 0.75 1.6
0 0.75 1.5375
0.125 0.6875 1.5375
0.0625 0.6875 1.6
0 0.6875 1.5375
0.0625 0.75 1.5375
0.0625 0.6875 1.5375
0.25 0.6875 1.6
0.25 0.75 1.5375
0.1875 0.75 1.6
0.25 0.6875 1.5375
0.1875 0.6875 1.6
0.1875 0.75 1.5375
0.1875 0.6875 1.5375
0.375 0.6875 1.6
0.375 0.75 1.5375
0.3125 0.75 1.6
0.375 0.6875 1.5375
0.3125 0.6875 1.6
0.3125 0.75 1.5375
0.3125 0.6875 1.5375
0.5 0.6875 1.6
0.5 0.75 1.5375
0.4375 0.75 1.6
0.5 0.6875 1.5375
0.4375 0.6875 1.6
0.4375 0.75 1.5375
0.4375 0.6875 1.5375
0.625 0.6875 1.6
0.625 0.75 1.5375
0.5625 0.75 1.6
0.625 0.6875 1.5375
0.5625 0.6875 1.6
0.5625 0.75 1.5375
0.5625 0.6875 1.5375
0.75 0.6875 1.6
0.75 0.75 1.5375
0.6875 0.75 1.6
0.75 0.6875 1.5375
0.6875 0.6875 1.6
0.6875 0.75 1.5375
0.6875 0.6875 1.5375
0.875 0.6875 1.6
0.875 0.75 1.5375
0.8125 0.75 1.6
0.875 0.6875 1.5375
0.8125 0.6875 1.6
0.8125 0.75 1.5375
0.8125 0.6875 1.5375
1 0.6875 1.6
1 0.75 1.5375
0.9375 0.75 1.6
1 0.6875 1.5375
0.9375 0.6875 1.6
0.9375 0.75 1.5375
0.9375 0.6875 1.5375
1.125 0.6875 1.6
1.125 0.75 1.5375
1.0625 0.75 1.6
1.125 0.6875 1.5375
1.0625 0.6875 1.6
1.0625 0.75 1.5375
1.0625 0.6875 1.5375
1.25 0.6875 1.6
1.25 0.75 1.5375
1.1875 0.75 1.6
1.25 0.6875 1.5375
1.1875 0.6875 1.6
1.1875 0.75 1.5375
1.1875 0.6875 1.5375
1.375 0.6875 1.6
1.375 0.75 1.5375
1.3125 0.75 1.6
1.375 0.6875 1.5375
1.3125 0.6875 1.6
1.3125 0.75 1.5375
1.3125 0.6875 1.5375
1.5 0.6875 1.6
1.5 0.75 1.5375
1.4375 0.75 1.6
1.5 0.6875 1.5375
1.4375 0.6875 1.6
1.4375 0.75 1.5375
1.4375 0.6875 1.5375
1.625 0.6875 1.6
1.625 0.75 1.5375
1.5625 0.75 1.6
1.625 0.6875 1.5375
1.5625 0.6875 1.6
1.5625 0.75 1.5375
1.5625 0.6875 1.5375
1.75 0.6875 1.6
1.75 0.75 1.5375
1.6875 0.75 1.6
1.75 0.6875 1.5375
1.6875 0.6875 1.6
1.6875 0.75 1.5375
1.6875 0.6875 1.5375
1.875 0.6875 1.6
1.875 0.75 1.5375
1.8125 0.75 1.6
1.875 0.6875 1.5375
1.8125 0.6875 1.6
1.8125 0.75 1.5375
1.8125 0.6875 1.5375
2 0.6875 1.6
2 0.75 1.5375
1.9375 0.75 1.6
2 0.6875 1.5375
1.9375 0.6875 1.6
1.9375 0.75 1.5375
1.9375 0.6875 1.5375
2.125 0.6875 1.6
2.125 0.75 1.5375
2.0625 0.75 1.6
2.125 0.6875 1.5375
2.0625 0.6875 1.6
2.0625 0.75 1.5375
2.0625 0.6875 1.5375
2.25 0.6875 1.6
2.25 0.75 1.5375
2.1875 0.75 1.6
2.25 0.6875 1.5375
2.1875 0.6875 1.6
2.1875 0.75 1.5375
2.1875 0.6875 1.5375
2.375 0.6875 1.6
2.375 0.75 1.5375
2.3125 0.75 1.6
2.375 0.6875 1.5375
2.3125 0.6875 1.6
2.3125 0.75 1.5375
2.3125 0.6875 1.5375
2.5 0.6875 1.6
2.5 0.75 1.5375
2.4375 0.75 1.6
2.5 0.6875 1.5375
2.4375 0.6875 1.6
2.4375 0.75 1.5375
2.4375 0.6875 1.5375
2.625 0.6875 1.6
2.625 0.75 1.5375
2.5625 0.75 1.6
2.625 0.6875 1.5375
2.5625 0.6875 1.6
2.5625 0.75 1.5375
2.5625 0.6875 1.5375
2.75 0.6875 1.6
2.75 0.75 1.5375
2.6875 0.75 1.6
2.75 0.6875 1.5375
2.6875 0.6875 1.6
2.6875 0.75 1.5375
2.6875 0.6875 1.5375
2.875 0.6875 1.6
2.875 0.75 1.5375
2.8125 0.75 1.6
2.875 0.6875 1.5375
2.8125 0.6875 1.6
2.8125 0.75 1.5375
2.8125 0.6875 1.5375
3 0.6875 1.6
3 0.75 1.5375
2.9375 0.75 1.6
3 0.6875 1.5375
2.9375 0.6875 1.6
2.9375 0.75 1.5375
2.9375 0.6875 1.5375
0.125 0.8125 1.6
0 0.8125 1.6
0.125 0.875 1.5375
0.0625 0.875 1.6
0 0.875 1.5375
0.125 0.8125 1.5375
0.0625 0.8125 1.6
0 0.8125 1.5375
0.0625 0.875 1.5375
0.0625 0.8125 1.5375
0.25 0.8125 1.6
0.25 0.875 1.5375
0.1875 0.875 1.6
0.25 0.8125 1.5375
0.1875 0.8125 1.6
0.1875 0.875 1.5375
0.1875 0.8125 1.5375
0.375 0.8125 1.6
0.375 0.875 1.5375
0.3125 0.875 1.6
0.375 0.8125 1.5375
0.3125 0.8125 1.6
0.3125 0.875 1.5375
0.3125 0.8125 1.5375
0.5 0.8125 1.6
0.5 0.875 1.5375
0.4375 0.875 1.6
0.5 0.8125 1.5375
0.4375 0.8125 1.6
0.4375 0.875 1.5375
0.4375 0.8125 1.5375
0.625 0.8125 1.6
0.625 0.875 1.5375
0.5625 0.875 1.6
0.625 0.8125 1.5375
0.5625 0.8125 1.6
0.5625 0.875 1.5375
0.5625 0.8125 1.5375
0.75 0.8125 1.6
0.75 0.875 1.5375
0.6875 0.875 1.6
0.75 0.8125 1.5375
0.6875 0.8125 1.6
0.6875 0.875 1.5375
0.6875 0.8125 1.5375
0.875 0.8125 1.6
0.875 0.875 1.5375
0.8125 0.875 1.6
0.875 0.8125 1.5375
0.8125 0.8125 1.6
0.8125 0.875 1.5375
0.8125 0.8125 1.5375
1 0.8125 1.6
1 0.875 1.5375
0.9375 0.875 1.6
1 0.8125 1.5375
0.9375 0.8125 1.6
0.9375 0.875 1.5375
0.9375 0.8125 1.5375
1.125 0.8125 1.6
1.125 0.875 1.5375
1.0625 0.875 1.6
1.125 0.8125 1.5375
1.0625 0.8125 1.6
1.0625 0.875 1.5375
1.0625 0.8125 1.5375
1.25 0.8125 1.6
1.25 0.875 1.5375
1.1875 0.875 1.6
1.25 0.8125 1.5375
1.1875 0.8125 1.6
1.1875 0.875 1.5375
1.1875 0.8125 1.5375
1.375 0.8125 1.6
1.375 0.875 1.5375
1.3125 0.875 1.6
1.375 0.8125 1.5375
1.3125 0.8125 1.6
1.3125 0.875 1.5375
1.3125 0.8125 1.5375
1.5 0.8125 1.6
1.5 0.875 1.5375
1.4375 0.875 1.6
1.5 0.8125 1.5375
1.4375 0.8125 1.6
1.4375 0.875 1.5375
1.4375 0.8125 1.5375
1.625 0.8125 1.6
1.625 0.875 1.5375
1.5625 0.875 1.6
1.625 0.8125 1.5375
1.5625 0.8125 1.6
1.5625 0.875 1.5375
1.5625 0.8125 1.5375
1.75 0.8125 1.6
1.75 0.875 1.5375
1.6875 0.875 1.6
1.75 0.8125 1.5375
1.6875 0.8125 1.6
1.6875 0.875 1.5375
1.6875 0.8125 1.5375
1.875 0.8125 1.6
1.875 0.875 1.5375
1.8125 0.875 1.6
1.875 0.8125 1.5375
1.8125 0.8125 1.6
1.8125 0.875 1.5375
1.8125 0.8125 1.5375
2 0.8125 1.6
2 0.875 1.5375
1.9375 0.875 1.6
2 0.8125 1.5375
1.9375 0.8125 1.6
1.9375 0.875 1.5375
1.9375 0.8125 1.5375
2.125 0.8125 1.6
2.125 0.875 1.5375
2.0625 0.875 1.6
2.125 0.8125 1.5375
2.0625 0.8125 1.6
2.0625 0.875 1.5375
2.0625 0.8125 1.5375
2.25 0.8125 1.6
2.25 0.875 1.5375
2.1875 0.875 1.6
2.25 0.8125 1.5375
2.1875 0.8125 1.6
2.1875 0.875 1.5375
2.1875 0.8125 1.5375
2.375 0.8125 1.6
2.375 0.875 1.5375
2.3125 0.875 1.6
2.375 0.8125 1.5375
2.3125 0.8125 1.6
2.3125 0.875 1.5375
2.3125 0.8125 1.5375
2.5 0.8125 1.6
2.5 0.875 1.5375
2.4375 0.875 1.6
2.5 0.8125 1.5375
2.4375 0.8125 1.6
2.4375 0.875 1.5375
2.4375 0.8125 1.5375
2.625 0.8125 1.6
2.625 0.875 1.5375
2.5625 0.875 1.6
2.625 0.8125 1.5375
2.5625 0.8125 1.6
2.5625 0.875 1.5375
2.5625 0.8125 1.5375
2.75 0.8125 1.6
2.75 0.875 1.5375
2.6875 0.875 1.6
2.75 0.8125 1.5375
2.6875 0.8125 1.6
2.6875 0.875 1.5375
2.6875 0.8125 1.5375
2.875 0.8125 1.6
2.875 0.875 1.5375
2.8125 0.875 1.6
2.875 0.8125 1.5375
2.8125 0.8125 1.6
2.8125 0.875 1.5375
2.8125 0.8125 1.5375
3 0.8125 1.6
3 0.875 1.5375
2.9375 0.875 1.6
3 0.8125 1.5375
2.9375 0.8125 1.6
2.9375 0.875 1.5375
2.9375 0.8125 1.5375
0.125 0.9375 1.6
0 0.9375 1.6
0.125 1 1.5375
0.0625 1 1.6
0 1 1.5375
0.125 0.9375 1.5375
0.0625 0.9375 1.6
0 0.9375 1.5375
0.0625 1 1.5375
0.0625 0.9375 1.5375
0.25 0.9375 1.6
0.25 1 1.5375
0.1875 1 1.6
0.25 0.9375 1.5375
0.1875 0.9375 1.6
0.1875 1 1.5375
0.1875 0.9375 1.5375
0.375 0.9375 1.6
0.375 1 1.5375
0.3125 1 1.6
0.375 0.9375 1.5375
0.3125 0.9375 1.6
0.3125 1 1.5375
0.3125 0.9375 1.5375
0.5 0.9375 1.6
0.5 1 1.5375
0.4375 1 1.6
0.5 0.9375 1.5375
0.4375 0.9375 1.6
0.4375 1 1.5375
0.4375 0.9375 1.5375
0.625 0.9375 1.6
0.625 1 1.5375
0.5625 1 1.6
0.625 0.9375 1.5375
0.5625 0.9375 1.6
0.5625 1 1.5375
0.5625 0.9375 1.5375
0.75 0.9375 1.6
0.75 1 1.5375
0.6875 1 1.6
0.75 0.9375 1.5375
0.6875 0.9375 1.6
0.6875 1 1.5375
0.6875 0.9375 1.5375
0.875 0.9375 1.6
0.875 1 1.5375
0.8125 1 1.6
0.875 0.9375 1.5375
0.8125 0.9375 1.6
0.8125 1 1.5375
0.8125 0.9375 1.5375
1 0.9375 1.6
1 1 1.5375
0.9375 1 1.6
1 0.9375 1.5375
0.9375 0.9375 1.6
0.9375 1 1.5375
0.9375 0.9375 1.5375
1.125 0.9375 1.6
1.125 1 1.5375
1.0625 1 1.6
1.125 0.9375 1.5375
1.0625 0.9375 1.6
1.0625 1 1.5375
1.0625 0.9375 1.5375
1.25 0.9375 1.6
1.25 1 1.5375
1.1875 1 1.6
1.25 0.9375 1.5375
1.1875 0.9375 1.6
1.1875 1 1.5375
1.1875 0.9375 1.5375
1.375 0.9375 1.6
1.375 1 1.5375
1.3125 1 1.6
1.375 0.9375 1.5375
1.3125 0.9375 1.6
1.3125 1 1.5375
1.3125 0.9375 1.5375
1.5 0.9375 1.6
1.5 1 1.5375
1.4375 1 1.6
1.5 0.9375 1.5375
1.4375 0.9375 1.6
1.4375 1 1.5375
1.4375 0.9375 1.5375
1.625 0.9375 1.6
1.625 1 1.5375
1.5625 1 1.6
1.625 0.9375 1.5375
1.5625 0.9375 1.6
1.5625 1 1.5375
1.5625 0.9375 1.5375
1.75 0.9375 1.6
1.75 1 1.5375
1.6875 1 1.6
1.75 0.9375 1.5375
1.6875 0.9375 1.6
1.6875 1 1.5375
1.6875 0.9375 1.5375
1.875 0.9375 1.6
1.875 1 1.5375
1.8125 1 1.6
1.875 0.9375 1.5375
1.8125 0.9375 1.6
1.8125 1 1.5375
1.8125 0.9375 1.5375
2 0.9375 1.6
2 1 1.5375
1.9375 1 1.6
2 0.9375 1.5375
1.9375 0.9375 1.6
1.9375 1 1.5375
1.9375 0.9375 1.5375
2.125 0.9375 1.6
2.125 1 1.5375
2.0625 1 1.6
2.125 0.9375 1.5375
2.0625 0.9375 1.6
2.0625 1 1.5375
2.0625 0.9375 1.5375
2.25 0.9375 1.6
2.25 1 1.5375
2.1875 1 1.6
2.25 0.9375 1.5375
2.1875 0.9375 1.6
2.1875 1 1.5375
2.1875 0.9375 1.5375
2.375 0.9375 1.6
2.375 1 1.5375
2.3125 1 1.6
2.375 0.9375 1.5375
2.3125 0.9375 1.6
2.3125 1 1.5375
2.3125 0.9375 1.5375
2.5 0.9375 1.6
2.5 1 1.5375
2.4375 1 1.6
2.5 0.9375 1.5375
2.4375 0.9375 1.6
2.4375 1 1.5375
2.4375 0.9375 1.5375
2.625 0.9375 1.6
2.625 1 1.5375
2.5625 1 1.6
2.625 0.9375 1.5375
2.5625 0.9375 1.6
2.5625 1 1.5375
2.5625 0.9375 1.5375
2.75 0.9375 1.6
2.75 1 1.5375
2.6875 1 1.6
2.75 0.9375 1.5375
2.6875 0.9375 1.6
2.6875 1 1.5375
2.6875 0.9375 1.5375
2.875 0.9375 1.6
2.875 1 1.5375
2.8125 1 1.6
2.875 0.9375 1.5375
2.8125 0.9375 1.6
2.8125 1 1.5375
2.8125 0.9375 1.5375
3 0.9375 1.6
3 1 1.5375
2.9375 1 1.6
3 0.9375 1.5375
2.9375 0.9375 1.6
2.9375 1 1.5375
2.9375 0.9375 1.5375
0.125 0 1.6625
0.0625 0 1.725
0 0 1.6625
0.125 0.0625 1.725
0 0.0625 1.725
0.125 0.125 1.6625
0.0625 0.125 1.725
0 0.125 1.6625
0.0625 0 1.6625
0.125 0.0625 1.6625
0.0625 0.0625 1.725
0 0.0625 1.6625
0.0625 0.125 1.6625
0.0625 0.0625 1.6625
0.25 0 1.6625
0.1875 0 1.725
0.25 0.0625 1.725
0.25 0.125 1.6625
0.1875 0.125 1.725
0.1875 0 1.6625
0.25 0.0625 1.6625
0.1875 0.0625 1.725
0.1875 0.125 1.6625
0.1875 0.0625 1.6625
0.375 0 1.6625
0.3125 0 1.725
0.375 0.0625 1.725
0.375 0.125 1.6625
0.3125 0.125 1.725
0.3125 0 1.6625
0.375 0.0625 1.6625
0.3125 0.0625 1.725
0.3125 0.125 1.6625
0.3125 0.0625 1.6625
0.5 0 1.6625
0.4375 0 1.725
0.5 0.0625 1.725
0.5 0.125 1.6625
0.4375 0.125 1.725
0.4375 0 1.6625
0.5 0.0625 1.6625
0.4375 0.0625 1.725
0.4375 0.125 1.6625
0.4375 0.0625 1.6625
0.625 0 1.6625
0.5625 0 1.725
0.625 0.0625 1.725
0.625 0.125 1.6625
0.5625 0.125 1.725
0.5625 0 1.6625
0.625 0.0625 1.6625
0.5625 0.0625 1.725
0.5625 0.125 1.6625
0.5625 0.0625 1.6625
0.75 0 1.6625
0.6875 0 1.725
0.75 0.0625 1.725
0.75 0.125 1.6625
0.6875 0.125 1.725
0.6875 0 1.6625
0.75 0.0625 1.6625
0.6875 0.0625 1.725
0.6875 0.125 1.6625
0.6875 0.0625 1.6625
0.875 0 1.6625
0.8125 0 1.725
0.875 0.0625 1.725
0.875 0.125 1.6625
0.8125 0.125 1.725
0.8125 0 1.6625
0.875 0.0625 1.6625
0.8125 0.0625 1.725
0.8125 0.125 1.6625
0.8125 0.0625 1.6625
1 0 1.6625
0.9375 0 1.725
1 0.0625 1.725
1 0.125 1.6625
0.9375 0.125 1.725
0.9375 0 1.6625
1 0.0625 1.6625
0.9375 0.0625 1.725
0.9375 0.125 1.6625
0.9375 0.0625 1.6625
1.125 0 1.6625
1.0625 0 1.725
1.125 0.0625 1.725
1.125 0.125 1.6625
1.0625 0.125 1.725
1.0625 0 1.6625
1.125 0.0625 1.6625
1.0625 0.0625 1.725
1.0625 0.125 1.6625
1.0625 0.0625 1.6625
1.25 0 1.6625
1.1875 0 1.725
1.25 0.0625 1.725
1.25 0.125 1.6625
1.1875 0.125 1.725
1.1875 0 1.6625
1.25 0.0625 1.6625
1.1875 0.0625 1.725
1.1875 0.125 1.6625
1.1875 0.0625 1.6625
1.375 0 1.6625
1.3125 0 1.725
1.375 0.0625 1.725
1.375 0.125 1.6625
1.3125 0.125 1.725
1.3125 0 1.6625
1.375 0.0625 1.6625
1.3125 0.0625 1.725
1.3125 0.125 1.6625
1.3125 0.0625 1.6625
1.5 0 1.6625
1.4375 0 1.725
1.5 0.0625 1.725
1.5 0.125 1.6625
1.4375 0.125 1.725
1.4375 0 1.6625
1.5 0.0625 1.6625
1.4375 0.0625 1.725
1.4375 0.125 1.6625
1.4375 0.0625 1.6625
1.625 0 1.6625
1.5625 0 1.725
1.625 0.0625 1.725
1.625 0.125 1.6625
1.5625 0.125 1.725
1.5625 0 1.6625
1.625 0.0625 1.6625
1.5625 0.0625 1.725
1.5625 0.125 1.6625
1.5625 0.0625 1.6625
1.75 0 1.6625
1.6875 0 1.725
1.75 0.0625 1.725
1.75 0.125 1.6625
1.6875 0.125 1.725
1.6875 0 1.6625
1.75 0.0625 1.6625
1.6875 0.0625 1.725
1.6875 0.125 1.6625
1.6875 0.0625 1.6625
1.875 0 1.6625
1.8125 0 1.725
1.875 0.0625 1.725
1.875 0.125 1.6625
1.8125 0.125 1.725
1.8125 0 1.6625
1.875 0.0625 1.6625
1.8125 0.0625 1.725
1.8125 0.125 1.6625
1.8125 0.0625 1.6625
2 0 1.6625
1.9375 0 1.725
2 0.0625 1.725
2 0.125 1.6625
1.9375 0.125 1.725
1.9375 0 1.6625
2 0.0625 1.6625
1.9375 0.0625 1.725
1.9375 0.125 1.6625
1.9375 0.0625 1.6625
2.125 0 1.6625
2.0625 0 1.725
2.125 0.0625 1.725
2.125 0.125 1.6625
2.0625 0.125 1.725
2.0625 0 1.6625
2.125 0.0625 1.6625
2.0625 0.0625 1.725
2.0625 0.125 1.6625
2.0625 0.0625 1.6625
2.25 0 1.6625
2.1875 0 1.725
2.25 0.0625 1.725
2.25 0.125 1.6625
2.1875 0.125 1.725
2.1875 0 1.6625
2.25 0.0625 1.6625
2.1875 0.0625 1.725
2.1875 0.125 1.6625
2.1875 0.0625 1.6625
2.375 0 1.6625
2.3125 0 1.725
2.375 0.0625 1.725
2.375 0.125 1.6625
2.3125 0.125 1.725
2.3125 0 1.6625
2.375 0.0625 1.6625
2.3125 0.0625 1.725
2.3125 0.125 1.6625
2.3125 0.0625 1.6625
2.5 0 1.6625
2.4375 0 1.725
2.5 0.0625 1.725
2.5 0.125 1.6625
2.4375 0.125 1.725
2.4375 0 1.6625
2.5 0.0625 1.6625
2.4375 0.0625 1.725
2.4375 0.125 1.6625
2.4375 0.0625 1.6625
2.625 0 1.6625
2.5625 0 1.725
2.625 0.0625 1.725
2.625 0.125 1.6625
2.5625 0.125 1.725
2.5625 0 1.6625
2.625 0.0625 1.6625
2.5625 0.0625 1.725
2.5625 0.125 1.6625
2.5625 0.0625 1.6625
2.75 0 1.6625
2.6875 0 1.725
2.75 0.0625 1.725
2.75 0.125 1.6625
2.6875 0.125 1.725
2.6875 0 1.6625
2.75 0.0625 1.6625
2.6875 0.0625 1.725
2.6875 0.125 1.6625
2.6875 0.0625 1.6625
2.875 0 1.6625
2.8125 0 1.725
2.875 0.0625 1.725
2.875 0.125 1.6625
2.8125 0.125 1.725
2.8125 0 1.6625
2.875 0.0625 1.6625
2.8125 0.0625 1.725
2.8125 0.125 1.6625
2.8125 0.0625 1.6625
3 0 1.6625
2.9375 0 1.725
3 0.0625 1.725
3 0.125 1.6625
2.9375 0.125 1.725
2.9375 0 1.6625
3 0.0625 1.6625
2.9375 0.0625 1.725
2.9375 0.125 1.6625
2.9375 0.0625 1.6625
0.125 0.1875 1.725
0 0.1875 1.725
0.125 0.25 1.6625
0.0625 0.25 1.725
0 0.25 1.6625
0.125 0.1875 1.6625
0.0625 0.1875 1.725
0 0.1875 1.6625
0.0625 0.25 1.6625
0.0625 0.1875 1.6625
0.25 0.1875 1.725
0.25 0.25 1.6625
0.1875 0.25 1.725
0.25 0.1875 1.6625
0.1875 0.1875 1.725
0.1875 0.25 1.6625
0.1875 0.1875 1.6625
0.375 0.1875 1.725
0.375 0.25 1.6625
0.3125 0.25 1.725
0.375 0.1875 1.6625
0.3125 0.1875 1.725
0.3125 0.25 1.6625
0.3125 0.1875 1.6625
0.5 0.1875 1.725
0.5 0.25 1.6625
0.4375 0.25 1.725
0.5 0.1875 1.6625
0.4375 0.1875 1.725
0.4375 0.25 1.6625
0.4375 0.1875 1.6625
0.625 0.1875 1.725
0.625 0.25 1.6625
0.5625 0.25 1.725
0.625 0.1875 1.6625
0.5625 0.1875 1.725
0.5625 0.25 1.6625
0.5625 0.1875 1.6625
0.75 0.1875 1.725
0.75 0.25 1.6625
0.6875 0.25 1.725
0.75 0.1875 1.6625
0.6875 0.1875 1.725
0.6875 0.25 1.6625
0.6875 0.1875 1.6625
0.875 0.1875 1.725
0.875 0.25 1.6625
0.8125 0.25 1.725
0.875 0.1875 1.6625
0.8125 0.1875 1.725
0.8125 0.25 1.6625
0.8125 0.1875 1.6625
1 0.1875 1.725
1 0.25 1.6625
0.9375 0.25 1.725
1 0.1875 1.6625
0.9375 0.1875 1.725
0.9375 0.25 1.6625
0.9375 0.1875 1.6625
1.125 0.1875 1.725
1.125 0.25 1.6625
1.0625 0.25 1.725
1.125 0.1875 1.6625
1.0625 0.1875 1.725
1.0625 0.25 1.6625
1.0625 0.1875 1.6625
1.25 0.1875 1.725
1.25 0.25 1.6625
1.1875 0.25 1.725
1.25 0.1875 1.6625
1.1875 0.1875 1.725
1.1875 0.25 1.6625
1.1875 0.1875 1.6625
1.375 0.1875 1.725
1.375 0.25 1.6625
1.3125 0.25 1.725
1.375 0.1875 1.6625
1.3125 0.1875 1.725
1.3125 0.25 1.6625
1.3125 0.1875 1.6625
1.5 0.1875 1.725
1.5 0.25 1.6625
1.4375 0.25 1.725
1.5 0.1875 1.6625
1.4375 0.1875 1.725
1.4375 0.25 1.6625
1.4375 0.1875 1.6625
1.625 0.1875 1.725
1.625 0.25 1.6625
1.5625 0.25 1.725
1.625 0.1875 1.6625
1.5625 0.1875 1.725
1.5625 0.25 1.6625
1.5625 0.1875 1.6625
1.75 0.1875 1.725
1.75 0.25 1.6625
1.6875 0.25 1.725
1.75 0.1875 1.6625
1.6875 0.1875 1.725
1.6875 0.25 1.6625
1.6875 0.1875 1.6625
1.875 0.1875 1.725
1.875 0.25 1.6625
1.8125 0.25 1.725
1.875 0.1875 1.6625
1.8125 0.1875 1.725
1.8125 0.25 1.6625
1.8125 0.1875 1.6625
2 0.1875 1.725
2 0.25 1.6625
1.9375 0.25 1.725
2 0.1875 1.6625
1.9375 0.1875 1.725
1.9375 0.25 1.6625
1.9375 0.1875 1.6625
2.125 0.1875 1.725
2.125 0.25 1.6625
2.0625 0.25 1.725
2.125 0.1875 1.6625
2.0625 0.1875 1.725
2.0625 0.25 1.6625
2.0625 0.1875 1.6625
2.25 0.1875 1.725
2.25 0.25 1.6625
2.1875 0.25 1.725
2.25 0.1875 1.6625
2.1875 0.1875 1.725
2.1875 0.25 1.6625
2.1875 0.1875 1.6625
2.375 0.1875 1.725
2.375 0.25 1.6625
2.3125 0.25 1.725
2.375 0.1875 1.6625
2.3125 0.1875 1.725
2.3125 0.25 1.6625
2.3125 0.1875 1.6625
2.5 0.1875 1.725
2.5 0.25 1.6625
2.4375 0.25 1.725
2.5 0.1875 1.6625
2.4375 0.1875 1.725
2.4375 0.25 1.6625
2.4375 0.1875 1.6625
2.625 0.1875 1.725
2.625 0.25 1.6625
2.5625 0.25 1.725
2.625 0.1875 1.6625
2.5625 0.1875 1.725
2.5625 0.25 1.6625
2.5625 0.1875 1.6625
2.75 0.1875 1.725
2.75 0.25 1.6625
2.6875 0.25 1.725
2.75 0.1875 1.6625
2.6875 0.1875 1.725
2.6875 0.25 1.6625
2.6875 0.1875 1.6625
2.875 0.1875 1.725
2.875 0.25 1.6625
2.8125 0.25 1.725
2.875 0.1875 1.6625
2.8125 0.1875 1.725
2.8125 0.25 1.6625
2.8125 0.1875 1.6625
3 0.1875 1.725
3 0.25 1.6625
2.9375 0.25 1.725
3 0.1875 1.6625
2.9375 0.1875 1.725
2.9375 0.25 1.6625
2.9375 0.1875 1.6625
0.125 0.3125 1.725
0 0.3125 1.725
0.125 0.375 1.6625
0.0625 0.375 1.725
0 0.375 1.6625
0.125 0.3125 1.6625
0.0625 0.3125 1.725
0 0.3125 1.6625
0.0625 0.375 1.6625
0.0625 0.3125 1.6625
0.25 0.3125 1.725
0.25 0.375 1.6625
0.1875 0.375 1.725
0.25 0.3125 1.6625
0.1875 0.3125 1.725
0.1875 0.375 1.6625
0.1875 0.3125 1.6625
0.375 0.3125 1.725
0.375 0.375 1.6625
0.3125 0.375 1.725
0.375 0.3125 1.6625
0.3125 0.3125 1.725
0.3125 0.375 1.6625
0.3125 0.3125 1.6625
0.5 0.3125 1.725
0.5 0.375 1.6625
0.4375 0.375 1.725
0.5 0.3125 1.6625
0.4375 0.3125 1.725
0.4375 0.375 1.6625
0.4375 0.3125 1.6625
0.625 0.3125 1.725
0.625 0.375 1.6625
0.5625 0.375 1.725
0.625 0.3125 1.6625
0.5625 0.3125 1.725
0.5625 0.375 1.6625
0.5625 0.3125 1.6625
0.75 0.3125 1.725
0.75 0.375 1.6625
0.6875 0.375 1.725
0.75 0.3125 1.6625
0.6875 0.3125 1.725
0.6875 0.375 1.6625
0.6875 0.3125 1.6625
0.875 0.3125 1.725
0.875 0.375 1.6625
0.8125 0.375 1.725
0.875 0.3125 1.6625
0.8125 0.3125 1.725
0.8125 0.375 1.6625
0.8125 0.3125 1.6625
1 0.3125 1.725
1 0.375 1.6625
0.9375 0.375 1.725
1 0.3125 1.6625
0.9375 0.3125 1.725
0.9375 0.375 1.6625
0.9375 0.3125 1.6625
1.125 0.3125 1.725
1.125 0.375 1.6625
1.0625 0.375 1.725
1.125 0.3125 1.6625
1.0625 0.3125 1.725
1.0625 0.375 1.6625
1.0625 0.3125 1.6625
1.25 0.3125 1.725
1.25 0.375 1.6625
1.1875 0.375 1.725
1.25 0.3125 1.6625
1.1875 0.3125 1.725
1.1875 0.375 1.6625
1.1875 0.3125 1.6625
1.375 0.3125 1.725
1.375 0.375 1.6625
1.3125 0.375 1.725
1.375 0.3125 1.6625
1.3125 0.3125 1.725
1.3125 0.375 1.6625
1.3125 0.3125 1.6625
1.5 0.3125 1.725
1.5 0.375 1.6625
1.4375 0.375 1.725
1.5 0.3125 1.6625
1.4375 0.3125 1.725
1.4375 0.375 1.6625
1.4375 0.3125 1.6625
1.625 0.3125 1.725
1.625 0.375 1.6625
1.5625 0.375 1.725
1.625 0.3125 1.6625
1.5625 0.3125 1.725
1.5625 0.375 1.6625
1.5625 0.3125 1.6625
1.75 0.3125 1.725
1.75 0.375 1.6625
1.6875 0.375 1.725
1.75 0.3125 1.6625
1.6875 0.3125 1.725
1.6875 0.375 1.6625
1.6875 0.3125 1.6625
1.875 0.3125 1.725
1.875 0.375 1.6625
1.8125 0.375 1.725
1.875 0.3125 1.6625
1.8125 0.3125 1.725
1.8125 0.375 1.6625
1.8125 0.3125 1.6625
2 0.3125 1.725
2 0.375 1.6625
1.9375 0.375 1.725
2 0.3125 1.6625
1.9375 0.3125 1.725
1.9375 0.375 1.6625
1.9375 0.3125 1.6625
2.125 0.3125 1.725
2.125 0.375 1.6625
2.0625 0.375 1.725
2.125 0.3125 1.6625
2.0625 0.3125 1.725
2.0625 0.375 1.6625
2.0625 0.3125 1.6625
2.25 0.3125 1.725
2.25 0.375 1.6625
2.1875 0.375 1.725
2.25 0.3125 1.6625
2.1875 0.3125 1.725
2.1875 0.375 1.6625
2.1875 0.3125 1.6625
2.375 0.3125 1.725
2.375 0.375 1.6625
2.3125 0.375 1.725
2.375 0.3125 1.6625
2.3125 0.3125 1.725
2.3125 0.375 1.6625
2.3125 0.3125 1.6625
2.5 0.3125 1.725
2.5 0.375 1.6625
2.4375 0.375 1.725
2.5 0.3125 1.6625
2.4375 0.3125 1.725
2.4375 0.375 1.6625
2.4375 0.3125 1.6625
2.625 0.3125 1.725
2.625 0.375 1.6625
2.5625 0.375 1.725
2.625 0.3125 1.6625
2.5625 0.3125 1.725
2.5625 0.375 1.6625
2.5625 0.3125 1.6625
2.75 0.3125 1.725
2.75 0.375 1.6625
2.6875 0.375 1.725
2.75 0.3125 1.6625
2.6875 0.3125 1.725
2.6875 0.375 1.6625
2.6875 0.3125 1.6625
2.875 0.3125 1.725
2.875 0.375 1.6625
2.8125 0.375 1.725
2.875 0.3125 1.6625
2.8125 0.3125 1.725
2.8125 0.375 1.6625
2.8125 0.3125 1.6625
3 0.3125 1.725
3 0.375 1.6625
2.9375 0.375 1.725
3 0.3125 1.6625
2.9375 0.3125 1.725
2.9375 0.375 1.6625
2.9375 0.3125 1.6625
0.125 0.4375 1.725
0 0.4375 1.725
0.125 0.5 1.6625
0.0625 0.5 1.725
0 0.5 1.6625
0.125 0.4375 1.6625
0.0625 0.4375 1.725
0 0.4375 1.6625
0.0625 0.5 1.6625
0.0625 0.4375 1.6625
0.25 0.4375 1.725
0.25 0.5 1.6625
0.1875 0.5 1.725
0.25 0.4375 1.6625
0.1875 0.4375 1.725
0.1875 0.5 1.6625
0.1875 0.4375 1.6625
0.375 0.4375 1.725
0.375 0.5 1.6625
0.3125 0.5 1.725
0.375 0.4375 1.6625
0.3125 0.4375 1.725
0.3125 0.5 1.6625
0.3125 0.4375 1.6625
0.5 0.4375 1.725
0.5 0.5 1.6625
0.4375 0.5 1.725
0.5 0.4375 1.6625
0.4375 0.4375 1.725
0.4375 0.5 1.6625
0.4375 0.4375 1.6625
0.625 0.4375 1.725
0.625 0.5 1.6625
0.5625 0.5 1.725
0.625 0.4375 1.6625
0.5625 0.4375 1.725
0.5625 0.5 1.6625
0.5625 0.4375 1.6625
0.75 0.4375 1.725
0.75 0.5 1.6625
0.6875 0.5 1.725
0.75 0.4375 1.6625
0.6875 0.4375 1.725
0.6875 0.5 1.6625
0.6875 0.4375 1.6625
0.875 0.4375 1.725
0.875 0.5 1.6625
0.8125 0.5 1.725
0.875 0.4375 1.6625
0.8125 0.4375 1.725
0.8125 0.5 1.6625
0.8125 0.4375 1.6625
1 0.4375 1.725
1 0.5 1.6625
0.9375 0.5 1.725
1 0.4375 1.6625
0.9375 0.4375 1.725
0.9375 0.5 1.6625
0.9375 0.4375 1.6625
1.125 0.4375 1.725
1.125 0.5 1.6625
1.0625 0.5 1.725
1.125 0.4375 1.6625
1.0625 0.4375 1.725
1.0625 0.5 1.6625
1.0625 0.4375 1.6625
1.25 0.4375 1.725
1.25 0.5 1.6625
1.1875 0.5 1.725
1.25 0.4375 1.6625
1.1875 0.4375 1.725
1.1875 0.5 1.6625
1.1875 0.4375 1.6625
1.375 0.4375 1.725
1.375 0.5 1.6625
1.3125 0.5 1.725
1.375 0.4375 1.6625
1.3125 0.4375 1.725
1.3125 0.5 1.6625
1.3125 0.4375 1.6625
1.5 0.4375 1.725
1.5 0.5 1.6625
1.4375 0.5 1.725
1.5 0.4375 1.6625
1.4375 0.4375 1.725
1.4375 0.5 1.6625
1.4375 0.4375 1.6625
1.625 0.4375 1.725
1.625 0.5 1.6625
1.5625 0.5 1.725
1.625 0.4375 1.6625
1.5625 0.4375 1.725
1.5625 0.5 1.6625
1.5625 0.4375 1.6625
1.75 0.4375 1.725
1.75 0.5 1.6625
1.6875 0.5 1.725
1.75 0.4375 1.6625
1.6875 0.4375 1.725
1.6875 0.5 1.6625
1.6875 0.4375 1.6625
1.875 0.4375 1.725
1.875 0.5 1.6625
1.8125 0.5 1.725
1.875 0.4375 1.6625
1.8125 0.4375 1.725
1.8125 0.5 1.6625
1.8125 0.4375 1.6625
2 0.4375 1.725
2 0.5 1.6625
1.9375 0.5 1.725
2 0.4375 1.6625
1.9375 0.4375 1.725
1.9375 0.5 1.6625
1.9375 0.4375 1.6625
2.125 0.4375 1.725
2.125 0.5 1.6625
2.0625 0.5 1.725
2.125 0.4375 1.6625
2.0625 0.4375 1.725
2.0625 0.5 1.6625
2.0625 0.4375 1.6625
2.25 0.4375 1.725
2.25 0.5 1.6625
2.1875 0.5 1.725
2.25 0.4375 1.6625
2.1875 0.4375 1.725
2.1875 0.5 1.6625
2.1875 0.4375 1.6625
2.375 0.4375 1.725
2.375 0.5 1.6625
2.3125 0.5 1.725
2.375 0.4375 1.6625
2.3125 0.4375 1.725
2.3125 0.5 1.6625
2.3125 0.4375 1.6625
2.5 0.4375 1.725
2.5 0.5 1.6625
2.4375 0.5 1.725
2.5 0.4375 1.6625
2.4375 0.4375 1.725
2.4375 0.5 1.6625
2.4375 0.4375 1.6625
2.625 0.4375 1.725
2.625 0.5 1.6625
2.5625 0.5 1.725
2.625 0.4375 1.6625
2.5625 0.4375 1.725
2.5625 0.5 1.6625
2.5625 0.4375 1.6625
2.75 0.4375 1.725
2.75 0.5 1.6625
2.6875 0.5 1.725
2.75 0.4375 1.6625
2.6875 0.4375 1.725
2.6875 0.5 1.6625
2.6875 0.4375 1.6625
2.875 0.4375 1.725
2.875 0.5 1.6625
2.8125 0.5 1.725
2.875 0.4375 1.6625
2.8125 0.4375 1.725
2.8125 0.5 1.6625
2.8125 0.4375 1.6625
3 0.4375 1.725
3 0.5 1.6625
2.9375 0.5 1.725
3 0.4375 1.6625
2.9375 0.4375 1.725
2.9375 0.5 1.6625
2.9375 0.4375 1.6625
0.125 0.5625 1.725
0 0.5625 1.725
0.125 0.625 1.6625
0.0625 0.625 1.725
0 0.625 1.6625
0.125 0.5625 1.6625
0.0625 0.5625 1.725
0 0.5625 1.6625
0.0625 0.625 1.6625
0.0625 0.5625 1.6625
0.25 0.5625 1.725
0.25 0.625 1.6625
0.1875 0.625 1.725
0.25 0.5625 1.6625
0.1875 0.5625 1.725
0.1875 0.625 1.6625
0.1875 0.5625 1.6625
0.375 0.5625 1.725
0.375 0.625 1.6625
0.3125 0.625 1.725
0.375 0.5625 1.6625
0.3125 0.5625 1.725
0.3125 0.625 1.6625
0.3125 0.5625 1.6625
0.5 0.5625 1.725
0.5 0.625 1.6625
0.4375 0.625 1.725
0.5 0.5625 1.6625
0.4375 0.5625 1.725
0.4375 0.625 1.6625
0.4375 0.5625 1.6625
0.625 0.5625 1.725
0.625 0.625 1.6625
0.5625 0.625 1.725
0.625 0.5625 1.6625
0.5625 0.5625 1.725
0.5625 0.625 1.6625
0.5625 0.5625 1.6625
0.75 0.5625 1.725
0.75 0.625 1.6625
0.6875 0.625 1.725
0.75 0.5625 1.6625
0.6875 0.5625 1.725
0.6875 0.625 1.6625
0.6875 0.5625 1.6625
0.875 0.5625 1.725
0.875 0.625 1.6625
0.8125 0.625 1.725
0.875 0.5625 1.6625
0.8125 0.5625 1.725
0.8125 0.625 1.6625
0.8125 0.5625 1.6625
1 0.5625 1.725
1 0.625 1.6625
0.9375 0.625 1.725
1 0.5625 1.6625
0.9375 0.5625 1.725
0.9375 0.625 1.6625
0.9375 0.5625 1.6625
1.125 0.5625 1.725
1.125 0.625 1.6625
1.0625 0.625 1.725
1.125 0.5625 1.6625
1.0625 0.5625 1.725
1.0625 0.625 1.6625
1.0625 0.5625 1.6625
1.25 0.5625 1.725
1.25 0.625 1.6625
1.1875 0.625 1.725
1.25 0.5625 1.6625
1.1875 0.5625 1.725
1.1875 0.625 1.6625
1.1875 0.5625 1.6625
1.375 0.5625 1.725
1.375 0.625 1.6625
1.3125 0.625 1.725
1.375 0.5625 1.6625
1.3125 0.5625 1.725
1.3125 0.625 1.6625
1.3125 0.5625 1.6625
1.5 0.5625 1.725
1.5 0.625 1.6625
1.4375 0.625 1.725
1.5 0.5625 1.6625
1.4375 0.5625 1.725
1.4375 0.625 1.6625
1.4375 0.5625 1.6625
1.625 0.5625 1.725
1.625 0.625 1.6625
1.5625 0.625 1.725
1.625 0.5625 1.6625
1.5625 0.5625 1.725
1.5625 0.625 1.6625
1.5625 0.5625 1.6625
1.75 0.5625 1.725
1.75 0.625 1.6625
1.6875 0.625 1.725
1.75 0.5625 1.6625
1.6875 0.5625 1.725
1.6875 0.625 1.6625
1.6875 0.5625 1.6625
1.875 0.5625 1.725
1.875 0.625 1.6625
1.8125 0.625 1.725
1.875 0.5625 1.6625
1.8125 0.5625 1.725
1.8125 0.625 1.6625
1.8125 0.5625 1.6625
2 0.5625 1.725
2 0.625 1.6625
1.9375 0.625 1.725
2 0.5625 1.6625
1.9375 0.5625 1.725
1.9375 0.625 1.6625
1.9375 0.5625 1.6625
2.125 0.5625 1.725
2.125 0.625 1.6625
2.0625 0.625 1.725
2.125 0.5625 1.6625
2.0625 0.5625 1.725
2.0625 0.625 1.6625
2.0625 0.5625 1.6625
2.25 0.5625 1.725
2.25 0.625 1.6625
2.1875 0.625 1.725
2.25 0.5625 1.6625
2.1875 0.5625 1.725
2.1875 0.625 1.6625
2.1875 0.5625 1.6625
2.375 0.5625 1.725
2.375 0.625 1.6625
2.3125 0.625 1.725
2.375 0.5625 1.6625
2.3125 0.5625 1.725
2.3125 0.625 1.6625
2.3125 0.5625 1.6625
2.5 0.5625 1.725
2.5 0.625 1.6625
2.4375 0.625 1.725
2.5 0.5625 1.6625
2.4375 0.5625 1.725
2.4375 0.625 1.6625
2.4375 0.5625 1.6625
2.625 0.5625 1.725
2.625 0.625 1.6625
2.5625 0.625 1.725
2.625 0.5625 1.6625
2.5625 0.5625 1.725
2.5625 0.625 1.6625
2.5625 0.5625 1.6625
2.75 0.5625 1.725
2.75 0.625 1.6625
2.6875 0.625 1.725
2.75 0.5625 1.6625
2.6875 0.5625 1.725
2.6875 0.625 1.6625
2.6875 0.5625 1.6625
2.875 0.5625 1.725
2.875 0.625 1.6625
2.8125 0.625 1.725
2.875 0.5625 1.6625
2.8125 0.5625 1.725
2.8125 0.625 1.6625
2.8125 0.5625 1.6625
3 0.5625 1.725
3 0.625 1.6625
2.9375 0.625 1.725
3 0.5625 1.6625
2.9375 0.5625 1.725
2.9375 0.625 1.6625
2.9375 0.5625 1.6625
0.125 0.6875 1.725
0 0.6875 1.725
0.125 0.75 1.6625
0.0625 0.75 1.725
0 0.75 1.6625
0.125 0.6875 1.6625
0.0625 0.6875 1.725
0 0.6875 1.6625
0.0625 0.75 1.6625
0.0625 0.6875 1.6625
0.25 0.6875 1.725
0.25 0.75 1.6625
0.1875 0.75 1.725
0.25 0.6875 1.6625
0.1875 0.6875 1.725
0.1875 0.75 1.6625
0.1875 0.6875 1.6625
0.375 0.6875 1.725
0.375 0.75 1.6625
0.3125 0.75 1.725
0.375 0.6875 1.6625
0.3125 0.6875 1.725
0.3125 0.75 1.6625
0.3125 0.6875 1.6625
0.5 0.6875 1.725
0.5 0.75 1.6625
0.4375 0.75 1.725
0.5 0.6875 1.6625
0.4375 0.6875 1.725
0.4375 0.75 1.6625
0.4375 0.6875 1.6625
0.625 0.6875 1.725
0.625 0.75 1.6625
0.5625 0.75 1.725
0.625 0.6875 1.6625
0.5625 0.6875 1.725
0.5625 0.75 1.6625
0.5625 0.6875 1.6625
0.75 0.6875 1.725
0.75 0.75 1.6625
0.6875 0.75 1.725
0.75 0.6875 1.6625
0.6875 0.6875 1.725
0.6875 0.75 1.6625
0.6875 0.6875 1.6625
0.875 0.6875 1.725
0.875 0.75 1.6625
0.8125 0.75 1.725
0.875 0.6875 1.6625
0.8125 0.6875 1.725
0.8125 0.75 1.6625
0.8125 0.6875 1.6625
1 0.6875 1.725
1 0.75 1.6625
0.9375 0.75 1.725
1 0.6875 1.6625
0.9375 0.6875 1.725
0.9375 0.75 1.6625
0.9375 0.6875 1.6625
1.125 0.6875 1.725
1.125 0.75 1.6625
1.0625 0.75 1.725
1.125 0.6875 1.6625
1.0625 0.6875 1.725
1.0625 0.75 1.6625
1.0625 0.6875 1.6625
1.25 0.6875 1.725
1.25 0.75 1.6625
1.1875 0.75 1.725
1.25 0.6875 1.6625
1.1875 0.6875 1.725
1.1875 0.75 1.6625
1.1875 0.6875 1.6625
1.375 0.6875 1.725
1.375 0.75 1.6625
1.3125 0.75 1.725
1.375 0.6875 1.6625
1.3125 0.6875 1.725
1.3125 0.75 1.6625
1.3125 0.6875 1.6625
1.5 0.6875 1.725
1.5 0.75 1.6625
1.4375 0.75 1.725
1.5 0.6875 1.6625
1.4375 0.6875 1.725
1.4375 0.75 1.6625
1.4375 0.6875 1.6625
1.625 0.6875 1.725
1.625 0.75 1.6625
1.5625 0.75 1.725
1.625 0.6875 1.6625
1.5625 0.6875 1.725
1.5625 0.75 1.6625
1.5625 0.6875 1.6625
1.75 0.6875 1.725
1.75 0.75 1.6625
1.6875 0.75 1.725
1.75 0.6875 1.6625
1.6875 0.6875 1.725
1.6875 0.75 1.6625
1.6875 0.6875 1.6625
1.875 0.6875 1.725
1.875 0.75 1.6625
1.8125 0.75 1.725
1.875 0.6875 1.6625
1.8125 0.6875 1.725
1.8125 0.75 1.6625
1.8125 0.6875 1.6625
2 0.6875 1.725
2 0.75 1.6625
1.9375 0.75 1.725
2 0.6875 1.6625
1.9375 0.6875 1.725
1.9375 0.75 1.6625
1.9375 0.6875 1.6625
2.125 0.6875 1.725
2.125 0.75 1.6625
2.0625 0.75 1.725
2.125 0.6875 1.6625
2.0625 0.6875 1.725
2.0625 0.75 1.6625
2.0625 0.6875 1.6625
2.25 0.6875 1.725
2.25 0.75 1.6625
2.1875 0.75 1.725
2.25 0.6875 1.6625
2.1875 0.6875 1.725
2.1875 0.75 1.6625
2.1875 0.6875 1.6625
2.375 0.6875 1.725
2.375 0.75 1.6625
2.3125 0.75 1.725
2.375 0.6875 1.6625
2.3125 0.6875 1.725
2.3125 0.75 1.6625
2.3125 0.6875 1.6625
2.5 0.6875 1.725
2.5 0.75 1.6625
2.4375 0.75 1.725
2.5 0.6875 1.6625
2.4375 0.6875 1.725
2.4375 0.75 1.6625
2.4375 0.6875 1.6625
2.625 0.6875 1.725
2.625 0.75 1.6625
2.5625 0.75 1.725
2.625 0.6875 1.6625
2.5625 0.6875 1.725
2.5625 0.75 1.6625
2.5625 0.6875 1.6625
2.75 0.6875 1.725
2.75 0.75 1.6625
2.6875 0.75 1.725
2.75 0.6875 1.6625
2.6875 0.6875 1.725
2.6875 0.75 1.6625
2.6875 0.6875 1.6625
2.875 0.6875 1.725
2.875 0.75 1.6625
2.8125 0.75 1.725
2.875 0.6875 1.6625
2.8125 0.6875 1.725
2.8125 0.75 1.6625
2.8125 0.6875 1.6625
3 0.6875 1.725
3 0.75 1.6625
2.9375 0.75 1.725
3 0.6875 1.6625
2.9375 0.6875 1.725
2.9375 0.75 1.6625
2.9375 0.6875 1.6625
0.125 0.8125 1.725
0 0.8125 1.725
0.125 0.875 1.6625
0.0625 0.875 1.725
0 0.875 1.6625
0.125 0.8125 1.6625
0.0625 0.8125 1.725
0 0.8125 1.6625
0.0625 0.875 1.6625
0.0625 0.8125 1.6625
0.25 0.8125 1.725
0.25 0.875 1.6625
0.1875 0.875 1.725
0.25 0.8125 1.6625
0.1875 0.8125 1.725
0.1875 0.875 1.6625
0.1875 0.8125 1.6625
0.375 0.8125 1.725
0.375 0.875 1.6625
0.3125 0.875 1.725
0.375 0.8125 1.6625
0.3125 0.8125 1.725
0.3125 0.875 1.6625
0.3125 0.8125 1.6625
0.5 0.8125 1.725
0.5 0.875 1.6625
0.4375 0.875 1.725
0.5 0.8125 1.6625
0.4375 0.8125 1.725
0.4375 0.875 1.6625
0.4375 0.8125 1.6625
0.625 0.8125 1.725
0.625 0.875 1.6625
0.5625 0.875 1.725
0.625 0.8125 1.6625
0.5625 0.8125 1.725
0.5625 0.875 1.6625
0.5625 0.8125 1.6625
0.75 0.8125 1.725
0.75 0.875 1.6625
0.6875 0.875 1.725
0.75 0.8125 1.6625
0.6875 0.8125 1.725
0.6875 0.875 1.6625
0.6875 0.8125 1.6625
0.875 0.8125 1.725
0.875 0.875 1.6625
0.8125 0.875 1.725
0.875 0.8125 1.6625
0.8125 0.8125 1.725
0.8125 0.875 1.6625
0.8125 0.8125 1.6625
1 0.8125 1.725
1 0.875 1.6625
0.9375 0.875 1.725
1 0.8125 1.6625
0.9375 0.8125 1.725
0.9375 0.875 1.6625
0.9375 0.8125 1.6625
1.125 0.8125 1.725
1.125 0.875 1.6625
1.0625 0.875 1.725
1.125 0.8125 1.6625
1.0625 0.8125 1.725
1.0625 0.875 1.6625
1.0625 0.8125 1.6625
1.25 0.8125 1.725
1.25 0.875 1.6625
1.1875 0.875 1.725
1.25 0.8125 1.6625
1.1875 0.8125 1.725
1.1875 0.875 1.6625
1.1875 0.8125 1.6625
1.375 0.8125 1.725
1.375 0.875 1.6625
1.3125 0.875 1.725
1.375 0.8125 1.6625
1.3125 0.8125 1.725
1.3125 0.875 1.6625
1.3125 0.8125 1.6625
1.5 0.8125 1.725
1.5 0.875 1.6625
1.4375 0.875 1.725
1.5 0.8125 1.6625
1.4375 0.8125 1.725
1.4375 0.875 1.6625
1.4375 0.8125 1.6625
1.625 0.8125 1.725
1.625 0.875 1.6625
1.5625 0.875 1.725
1.625 0.8125 1.6625
1.5625 0.8125 1.725
1.5625 0.875 1.6625
1.5625 0.8125 1.6625
1.75 0.8125 1.725
1.75 0.875 1.6625
1.6875 0.875 1.725
1.75 0.8125 1.6625
1.6875 0.8125 1.725
1.6875 0.875 1.6625
1.6875 0.8125 1.6625
1.875 0.8125 1.725
1.875 0.875 1.6625
1.8125 0.875 1.725
1.875 0.8125 1.6625
1.8125 0.8125 1.725
1.8125 0.875 1.6625
1.8125 0.8125 1.6625
2 0.8125 1.725
2 0.875 1.6625
1.9375 0.875 1.725
2 0.8125 1.6625
1.9375 0.8125 1.725
1.9375 0.875 1.6625
1.9375 0.8125 1.6625
2.125 0.8125 1.725
2.125 0.875 1.6625
2.0625 0.875 1.725
2.125 0.8125 1.6625
2.0625 0.8125 1.725
2.0625 0.875 1.6625
2.0625 0.8125 1.6625
2.25 0.8125 1.725
2.25 0.875 1.6625
2.1875 0.875 1.725
2.25 0.8125 1.6625
2.1875 0.8125 1.725
2.1875 0.875 1.6625
2.1875 0.8125 1.6625
2.375 0.8125 1.725
2.375 0.875 1.6625
2.3125 0.875 1.725
2.375 0.8125 1.6625
2.3125 0.8125 1.725
2.3125 0.875 1.6625
2.3125 0.8125 1.6625
2.5 0.8125 1.725
2.5 0.875 1.6625
2.4375 0.875 1.725
2.5 0.8125 1.6625
2.4375 0.8125 1.725
2.4375 0.875 1.6625
2.4375 0.8125 1.6625
2.625 0.8125 1.725
2.625 0.875 1.6625
2.5625 0.875 1.725
2.625 0.8125 1.6625
2.5625 0.8125 1.725
2.5625 0.875 1.6625
2.5625 0.8125 1.6625
2.75 0.8125 1.725
2.75 0.875 1.6625
2.6875 0.875 1.725
2.75 0.8125 1.6625
2.6875 0.8125 1.725
2.6875 0.875 1.6625
2.6875 0.8125 1.6625
2.875 0.8125 1.725
2.875 0.875 1.6625
2.8125 0.875 1.725
2.875 0.8125 1.6625
2.8125 0.8125 1.725
2.8125 0.875 1.6625
2.8125 0.8125 1.6625
3 0.8125 1.725
3 0.875 1.6625
2.9375 0.875 1.725
3 0.8125 1.6625
2.9375 0.8125 1.725
2.9375 0.875 1.6625
2.9375 0.8125 1.6625
0.125 0.9375 1.725
0 0.9375 1.725
0.125 1 1.6625
0.0625 1 1.725
0 1 1.6625
0.125 0.9375 1.6625
0.0625 0.9375 1.725
0 0.9375 1.6625
0.0625 1 1.6625
0.0625 0.9375 1.6625
0.25 0.9375 1.725
0.25 1 1.6625
0.1875 1 1.725
0.25 0.9375 1.6625
0.1875 0.9375 1.725
0.1875 1 1.6625
0.1875 0.9375 1.6625
0.375 0.9375 1.725
0.375 1 1.6625
0.3125 1 1.725
0.375 0.9375 1.6625
0.3125 0.9375 1.725
0.3125 1 1.6625
0.3125 0.9375 1.6625
0.5 0.9375 1.725
0.5 1 1.6625
0.4375 1 1.725
0.5 0.9375 1.6625
0.4375 0.9375 1.725
0.4375 1 1.6625
0.4375 0.9375 1.6625
0.625 0.9375 1.725
0.625 1 1.6625
0.5625 1 1.725
0.625 0.9375 1.6625
0.5625 0.9375 1.725
0.5625 1 1.6625
0.5625 0.9375 1.6625
0.75 0.9375 1.725
0.75 1 1.6625
0.6875 1 1.725
0.75 0.9375 1.6625
0.6875 0.9375 1.725
0.6875 1 1.6625
0.6875 0.9375 1.6625
0.875 0.9375 1.725
0.875 1 1.6625
0.8125 1 1.725
0.875 0.9375 1.6625
0.8125 0.9375 1.725
0.8125 1 1.6625
0.8125 0.9375 1.6625
1 0.9375 1.725
1 1 1.6625
0.9375 1 1.725
1 0.9375 1.6625
0.9375 0.9375 1.725
0.9375 1 1.6625
0.9375 0.9375 1.6625
1.125 0.9375 1.725
1.125 1 1.6625
1.0625 1 1.725
1.125 0.9375 1.6625
1.0625 0.9375 1.725
1.0625 1 1.6625
1.0625 0.9375 1.6625
1.25 0.9375 1.725
1.25 1 1.6625
1.1875 1 1.725
1.25 0.9375 1.6625
1.1875 0.9375 1.725
1.1875 1 1.6625
1.1875 0.9375 1.6625
1.375 0.9375 1.725
1.375 1 1.6625
1.3125 1 1.725
1.375 0.9375 1.6625
1.3125 0.9375 1.725
1.3125 1 1.6625
1.3125 0.9375 1.6625
1.5 0.9375 1.725
1.5 1 1.6625
1.4375 1 1.725
1.5 0.9375 1.6625
1.4375 0.9375 1.725
1.4375 1 1.6625
1.4375 0.9375 1.6625
1.625 0.9375 1.725
1.625 1 1.6625
1.5625 1 1.725
1.625 0.9375 1.6625
1.5625 0.9375 1.725
1.5625 1 1.6625
1.5625 0.9375 1.6625
1.75 0.9375 1.725
1.75 1 1.6625
1.6875 1 1.725
1.75 0.9375 1.6625
1.6875 0.9375 1.725
1.6875 1 1.6625
1.6875 0.9375 1.6625
1.875 0.9375 1.725
1.875 1 1.6625
1.8125 1 1.725
1.875 0.9375 1.6625
1.8125 0.9375 1.725
1.8125 1 1.6625
1.8125 0.9375 1.6625
2 0.9375 1.725
2 1 1.6625
1.9375 1 1.725
2 0.9375 1.6625
1.9375 0.9375 1.725
1.9375 1 1.6625
1.9375 0.9375 1.6625
2.125 0.9375 1.725
2.125 1 1.6625
2.0625 1 1.725
2.125 0.9375 1.6625
2.0625 0.9375 1.725
2.0625 1 1.6625
2.0625 0.9375 1.6625
2.25 0.9375 1.725
2.25 1 1.6625
2.1875 1 1.725
2.25 0.9375 1.6625
2.1875 0.9375 1.725
2.1875 1 1.6625
2.1875 0.9375 1.6625
2.375 0.9375 1.725
2.375 1 1.6625
2.3125 1 1.725
2.375 0.9375 1.6625
2.3125 0.9375 1.725
2.3125 1 1.6625
2.3125 0.9375 1.6625
2.5 0.9375 1.725
2.5 1 1.6625
2.4375 1 1.725
2.5 0.9375 1.6625
2.4375 0.9375 1.725
2.4375 1 1.6625
2.4375 0.9375 1.6625
2.625 0.9375 1.725
2.625 1 1.6625
2.5625 1 1.725
2.625 0.9375 1.6625
2.5625 0.9375 1.725
2.5625 1 1.6625
2.5625 0.9375 1.6625
2.75 0.9375 1.725
2.75 1 1.6625
2.6875 1 1.725
2.75 0.9375 1.6625
2.6875 0.9375 1.725
2.6875 1 1.6625
2.6875 0.9375 1.6625
2.875 0.9375 1.725
2.875 1 1.6625
2.8125 1 1.725
2.875 0.9375 1.6625
2.8125 0.9375 1.725
2.8125 1 1.6625
2.8125 0.9375 1.6625
3 0.9375 1.725
3 1 1.6625
2.9375 1 1.725
3 0.9375 1.6625
2.9375 0.9375 1.725
2.9375 1 1.6625
2.9375 0.9375 1.6625
0.125 0 1.7875
0.0625 0 1.85
0 0 1.7875
0.125 0.0625 1.85
0 0.0625 1.85
0.125 0.125 1.7875
0.0625 0.125 1.85
0 0.125 1.7875
0.0625 0 1.7875
0.125 0.0625 1.7875
0.0625 0.0625 1.85
0 0.0625 1.7875
0.0625 0.125 1.7875
0.0625 0.0625 1.7875
0.25 0 1.7875
0.1875 0 1.85
0.25 0.0625 1.85
0.25 0.125 1.7875
0.1875 0.125 1.85
0.1875 0 1.7875
0.25 0.0625 1.7875
0.1875 0.0625 1.85
0.1875 0.125 1.7875
0.1875 0.0625 1.7875
0.375 0 1.7875
0.3125 0 1.85
0.375 0.0625 1.85
0.375 0.125 1.7875
0.3125 0.125 1.85
0.3125 0 1.7875
0.375 0.0625 1.7875
0.3125 0.0625 1.85
0.3125 0.125 1.7875
0.3125 0.0625 1.7875
0.5 0 1.7875
0.4375 0 1.85
0.5 0.0625 1.85
0.5 0.125 1.7875
0.4375 0.125 1.85
0.4375 0 1.7875
0.5 0.0625 1.7875
0.4375 0.0625 1.85
0.4375 0.125 1.7875
0.4375 0.0625 1.7875
0.625 0 1.7875
0.5625 0 1.85
0.625 0.0625 1.85
0.625 0.125 1.7875
0.5625 0.125 1.85
0.5625 0 1.7875
0.625 0.0625 1.7875
0.5625 0.0625 1.85
0.5625 0.125 1.7875
0.5625 0.0625 1.7875
0.75 0 1.7875
0.6875 0 1.85
0.75 0.0625 1.85
0.75 0.125 1.7875
0.6875 0.125 1.85
0.6875 0 1.7875
0.75 0.0625 1.7875
0.6875 0.0625 1.85
0.6875 0.125 1.7875
0.6875 0.0625 1.7875
0.875 0 1.7875
0.8125 0 1.85
0.875 0.0625 1.85
0.875 0.125 1.7875
0.8125 0.125 1.85
0.8125 0 1.7875
0.875 0.0625 1.7875
0.8125 0.0625 1.85
0.8125 0.125 1.7875
0.8125 0.0625 1.7875
1 0 1.7875
0.9375 0 1.85
1 0.0625 1.85
1 0.125 1.7875
0.9375 0.125 1.85
0.9375 0 1.7875
1 0.0625 1.7875
0.9375 0.0625 1.85
0.9375 0.125 1.7875
0.9375 0.0625 1.7875
1.125 0 1.7875
1.0625 0 1.85
1.125 0.0625 1.85
1.125 0.125 1.7875
1.0625 0.125 1.85
1.0625 0 1.7875
1.125 0.0625 1.7875
1.0625 0.0625 1.85
1.0625 0.125 1.7875
1.0625 0.0625 1.7875
1.25 0 1.7875
1.1875 0 1.85
1.25 0.0625 1.85
1.25 0.125 1.7875
1.1875 0.125 1.85
1.1875 0 1.7875
1.25 0.0625 1.7875
1.1875 0.0625 1.85
1.1875 0.125 1.7875
1.1875 0.0625 1.7875
1.375 0 1.7875
1.3125 0 1.85
1.375 0.0625 1.85
1.375 0.125 1.7875
1.3125 0.125 1.85
1.3125 0 1.7875
1.375 0.0625 1.7875
1.3125 0.0625 1.85
1.3125 0.125 1.7875
1.3125 0.0625 1.7875
1.5 0 1.7875
1.4375 0 1.85
1.5 0.0625 1.85
1.5 0.125 1.7875
1.4375 0.125 1.85
1.4375 0 1.7875
1.5 0.0625 1.7875
1.4375 0.0625 1.85
1.4375 0.125 1.7875
1.4375 0.0625 1.7875
1.625 0 1.7875
1.5625 0 1.85
1.625 0.0625 1.85
1.625 0.125 1.7875
1.5625 0.125 1.85
1.5625 0 1.7875
1.625 0.0625 1.7875
1.5625 0.0625 1.85
1.5625 0.125 1.7875
1.5625 0.0625 1.7875
1.75 0 1.7875
1.6875 0 1.85
1.75 0.0625 1.85
1.75 0.125 1.7875
1.6875 0.125 1.85
1.6875 0 1.7875
1.75 0.0625 1.7875
1.6875 0.0625 1.85
1.6875 0.125 1.7875
1.6875 0.0625 1.7875
1.875 0 1.7875
1.8125 0 1.85
1.875 0.0625 1.85
1.875 0.125 1.7875
1.8125 0.125 1.85
1.8125 0 1.7875
1.875 0.0625 1.7875
1.8125 0.0625 1.85
1.8125 0.125 1.7875
1.8125 0.0625 1.7875
2 0 1.7875
1.9375 0 1.85
2 0.0625 1.85
2 0.125 1.7875
1.9375 0.125 1.85
1.9375 0 1.7875
2 0.0625 1.7875
1.9375 0.0625 1.85
1.9375 0.125 1.7875
1.9375 0.0625 1.7875
2.125 0 1.7875
2.0625 0 1.85
2.125 0.0625 1.85
2.125 0.125 1.7875
2.0625 0.125 1.85
2.0625 0 1.7875
2.125 0.0625 1.7875
2.0625 0.0625 1.85
2.0625 0.125 1.7875
2.0625 0.0625 1.7875
2.25 0 1.7875
2.1875 0 1.85
2.25 0.0625 1.85
2.25 0.125 1.7875
2.1875 0.125 1.85
2.1875 0 1.7875
2.25 0.0625 1.7875
2.1875 0.0625 1.85
2.1875 0.125 1.7875
2.1875 0.0625 1.7875
2.375 0 1.7875
2.3125 0 1.85
2.375 0.0625 1.85
2.375 0.125 1.7875
2.3125 0.125 1.85
2.3125 0 1.7875
2.375 0.0625 1.7875
2.3125 0.0625 1.85
2.3125 0.125 1.7875
2.3125 0.0625 1.7875
2.5 0 1.7875
2.4375 0 1.85
2.5 0.0625 1.85
2.5 0.125 1.7875
2.4375 0.125 1.85
2.4375 0 1.7875
2.5 0.0625 1.7875
2.4375 0.0625 1.85
2.4375 0.125 1.7875
2.4375 0.0625 1.7875
2.625 0 1.7875
2.5625 0 1.85
2.625 0.0625 1.85
2.625 0.125 1.7875
2.5625 0.125 1.85
2.5625 0 1.7875
2.625 0.0625 1.7875
2.5625 0.0625 1.85
2.5625 0.125 1.7875
2.5625 0.0625 1.7875
2.75 0 1.7875
2.6875 0 1.85
2.75 0.0625 1.85
2.75 0.125 1.7875
2.6875 0.125 1.85
2.6875 0 1.7875
2.75 0.0625 1.7875
2.6875 0.0625 1.85
2.6875 0.125 1.7875
2.6875 0.0625 1.7875
2.875 0 1.7875
2.8125 0 1.85
2.875 0.0625 1.85
2.875 0.125 1.7875
2.8125 0.125 1.85
2.8125 0 1.7875
2.875 0.0625 1.7875
2.8125 0.0625 1.85
2.8125 0.125 1.7875
2.8125 0.0625 1.7875
3 0 1.7875
2.9375 0 1.85
3 0.0625 1.85
3 0.125 1.7875
2.9375 0.125 1.85
2.9375 0 1.7875
3 0.0625 1.7875
2.9375 0.0625 1.85
2.9375 0.125 1.7875
2.9375 0.0625 1.7875
0.125 0.1875 1.85
0 0.1875 1.85
0.125 0.25 1.7875
0.0625 0.25 1.85
0 0.25 1.7875
0.125 0.1875 1.7875
0.0625 0.1875 1.85
0 0.1875 1.7875
0.0625 0.25 1.7875
0.0625 0.1875 1.7875
0.25 0.1875 1.85
0.25 0.25 1.7875
0.1875 0.25 1.85
0.25 0.1875 1.7875
0.1875 0.1875 1.85
0.1875 0.25 1.7875
0.1875 0.1875 1.7875
0.375 0.1875 1.85
0.375 0.25 1.7875
0.3125 0.25 1.85
0.375 0.1875 1.7875
0.3125 0.1875 1.85
0.3125 0.25 1.7875
0.3125 0.1875 1.7875
0.5 0.1875 1.85
0.5 0.25 1.7875
0.4375 0.25 1.85
0.5 0.1875 1.7875
0.4375 0.1875 1.85
0.4375 0.25 1.7875
0.4375 0.1875 1.7875
0.625 0.1875 1.85
0.625 0.25 1.7875
0.5625 0.25 1.85
0.625 0.1875 1.7875
0.5625 0.1875 1.85
0.5625 0.25 1.7875
0.5625 0.1875 1.7875
0.75 0.1875 1.85
0.75 0.25 1.7875
0.6875 0.25 1.85
0.75 0.1875 1.7875
0.6875 0.1875 1.85
0.6875 0.25 1.7875
0.6875 0.1875 1.7875
0.875 0.1875 1.85
0.875 0.25 1.7875
0.8125 0.25 1.85
0.875 0.1875 1.7875
0.8125 0.1875 1.85
0.8125 0.25 1.7875
0.8125 0.1875 1.7875
1 0.1875 1.85
1 0.25 1.7875
0.9375 0.25 1.85
1 0.1875 1.7875
0.9375 0.1875 1.85
0.9375 0.25 1.7875
0.9375 0.1875 1.7875
1.125 0.1875 1.85
1.125 0.25 1.7875
1.0625 0.25 1.85
1.125 0.1875 1.7875
1.0625 0.1875 1.85
1.0625 0.25 1.7875
1.0625 0.1875 1.7875
1.25 0.1875 1.85
1.25 0.25 1.7875
1.1875 0.25 1.85
1.25 0.1875 1.7875
1.1875 0.1875 1.85
1.1875 0.25 1.7875
1.1875 0.1875 1.7875
1.375 0.1875 1.85
1.375 0.25 1.7875
1.3125 0.25 1.85
1.375 0.1875 1.7875
1.3125 0.1875 1.85
1.3125 0.25 1.7875
1.3125 0.1875 1.7875
1.5 0.1875 1.85
1.5 0.25 1.7875
1.4375 0.25 1.85
1.5 0.1875 1.7875
1.4375 0.1875 1.85
1.4375 0.25 1.7875
1.4375 0.1875 1.7875
1.625 0.1875 1.85
1.625 0.25 1.7875
1.5625 0.25 1.85
1.625 0.1875 1.7875
1.5625 0.1875 1.85
1.5625 0.25 1.7875
1.5625 0.1875 1.7875
1.75 0.1875 1.85
1.75 0.25 1.7875
1.6875 0.25 1.85
1.75 0.1875 1.7875
1.6875 0.1875 1.85
1.6875 0.25 1.7875
1.6875 0.1875 1.7875
1.875 0.1875 1.85
1.875 0.25 1.7875
1.8125 0.25 1.85
1.875 0.1875 1.7875
1.8125 0.1875 1.85
1.8125 0.25 1.7875
1.8125 0.1875 1.7875
2 0.1875 1.85
2 0.25 1.7875
1.9375 0.25 1.85
2 0.1875 1.7875
1.9375 0.1875 1.85
1.9375 0.25 1.7875
1.9375 0.1875 1.7875
2.125 0.1875 1.85
2.125 0.25 1.7875
2.0625 0.25 1.85
2.125 0.1875 1.7875
2.0625 0.1875 1.85
2.0625 0.25 1.7875
2.0625 0.1875 1.7875
2.25 0.1875 1.85
2.25 0.25 1.7875
2.1875 0.25 1.85
2.25 0.1875 1.7875
2.1875 0.1875 1.85
2.1875 0.25 1.7875
2.1875 0.1875 1.7875
2.375 0.1875 1.85
2.375 0.25 1.7875
2.3125 0.25 1.85
2.375 0.1875 1.7875
2.3125 0.1875 1.85
2.3125 0.25 1.7875
2.3125 0.1875 1.7875
2.5 0.1875 1.85
2.5 0.25 1.7875
2.4375 0.25 1.85
2.5 0.1875 1.7875
2.4375 0.1875 1.85
2.4375 0.25 1.7875
2.4375 0.1875 1.7875
2.625 0.1875 1.85
2.625 0.25 1.7875
2.5625 0.25 1.85
2.625 0.1875 1.7875
2.5625 0.1875 1.85
2.5625 0.25 1.7875
2.5625 0.1875 1.7875
2.75 0.1875 1.85
2.75 0.25 1.7875
2.6875 0.25 1.85
2.75 0.1875 1.7875
2.6875 0.1875 1.85
2.6875 0.25 1.7875
2.6875 0.1875 1.7875
2.875 0.1875 1.85
2.875 0.25 1.7875
2.8125 0.25 1.85
2.875 0.1875 1.7875
2.8125 0.1875 1.85
2.8125 0.25 1.7875
2.8125 0.1875 1.7875
3 0.1875 1.85
3 0.25 1.7875
2.9375 0.25 1.85
3 0.1875 1.7875
2.9375 0.1875 1.85
2.9375 0.25 1.7875
2.9375 0.1875 1.7875
0.125 0.3125 1.85
0 0.3125 1.85
0.125 0.375 1.7875
0.0625 0.375 1.85
0 0.375 1.7875
0.125 0.3125 1.7875
0.0625 0.3125 1.85
0 0.3125 1.7875
0.0625 0.375 1.7875
0.0625 0.3125 1.7875
0.25 0.3125 1.85
0.25 0.375 1.7875
0.1875 0.375 1.85
0.25 0.3125 1.7875
0.1875 0.3125 1.85
0.1875 0.375 1.7875
0.1875 0.3125 1.7875
0.375 0.3125 1.85
0.375 0.375 1.7875
0.3125 0.375 1.85
0.375 0.3125 1.7875
0.3125 0.3125 1.85
0.3125 0.375 1.7875
0.3125 0.3125 1.7875
0.5 0.3125 1.85
0.5 0.375 1.7875
0.4375 0.375 1.85
0.5 0.3125 1.7875
0.4375 0.3125 1.85
0.4375 0.375 1.7875
0.4375 0.3125 1.7875
0.625 0.3125 1.85
0.625 0.375 1.7875
0.5625 0.375 1.85
0.625 0.3125 1.7875
0.5625 0.3125 1.85
0.5625 0.375 1.7875
0.5625 0.3125 1.7875
0.75 0.3125 1.85
0.75 0.375 1.7875
0.6875 0.375 1.85
0.75 0.3125 1.7875
0.6875 0.3125 1.85
0.6875 0.375 1.7875
0.6875 0.3125 1.7875
0.875 0.3125 1.85
0.875 0.375 1.7875
0.8125 0.375 1.85
0.875 0.3125 1.7875
0.8125 0.3125 1.85
0.8125 0.375 1.7875
0.8125 0.3125 1.7875
1 0.3125 1.85
1 0.375 1.7875
0.9375 0.375 1.85
1 0.3125 1.7875
0.9375 0.3125 1.85
0.9375 0.375 1.7875
0.9375 0.3125 1.7875
1.125 0.3125 1.85
1.125 0.375 1.7875
1.0625 0.375 1.85
1.125 0.3125 1.7875
1.0625 0.3125 1.85
1.0625 0.375 1.7875
1.0625 0.3125 1.7875
1.25 0.3125 1.85
1.25 0.375 1.7875
1.1875 0.375 1.85
1.25 0.3125 1.7875
1.1875 0.3125 1.85
1.1875 0.375 1.7875
1.1875 0.3125 1.7875
1.375 0.3125 1.85
1.375 0.375 1.7875
1.3125 0.375 1.85
1.375 0.3125 1.7875
1.3125 0.3125 1.85
1.3125 0.375 1.7875
1.3125 0.3125 1.7875
1.5 0.3125 1.85
1.5 0.375 1.7875
1.4375 0.375 1.85
1.5 0.3125 1.7875
1.4375 0.3125 1.85
1.4375 0.375 1.7875
1.4375 0.3125 1.7875
1.625 0.3125 1.85
1.625 0.375 1.7875
1.5625 0.375 1.85
1.625 0.3125 1.7875
1.5625 0.3125 1.85
1.5625 0.375 1.7875
1.5625 0.3125 1.7875
1.75 0.3125 1.85
1.75 0.375 1.7875
1.6875 0.375 1.85
1.75 0.3125 1.7875
1.6875 0.3125 1.85
1.6875 0.375 1.7875
1.6875 0.3125 1.7875
1.875 0.3125 1.85
1.875 0.375 1.7875
1.8125 0.375 1.85
1.875 0.3125 1.7875
1.8125 0.3125 1.85
1.8125 0.375 1.7875
1.8125 0.3125 1.7875
2 0.3125 1.85
2 0.375 1.7875
1.9375 0.375 1.85
2 0.3125 1.7875
1.9375 0.3125 1.85
1.9375 0.375 1.7875
1.9375 0.3125 1.7875
2.125 0.3125 1.85
2.125 0.375 1.7875
2.0625 0.375 1.85
2.125 0.3125 1.7875
2.0625 0.3125 1.85
2.0625 0.375 1.7875
2.0625 0.3125 1.7875
2.25 0.3125 1.85
2.25 0.375 1.7875
2.1875 0.375 1.85
2.25 0.3125 1.7875
2.1875 0.3125 1.85
2.1875 0.375 1.7875
2.1875 0.3125 1.7875
2.375 0.3125 1.85
2.375 0.375 1.7875
2.3125 0.375 1.85
2.375 0.3125 1.7875
2.3125 0.3125 1.85
2.3125 0.375 1.7875
2.3125 0.3125 1.7875
2.5 0.3125 1.85
2.5 0.375 1.7875
2.4375 0.375 1.85
2.5 0.3125 1.7875
2.4375 0.3125 1.85
2.4375 0.375 1.7875
2.4375 0.3125 1.7875
2.625 0.3125 1.85
2.625 0.375 1.7875
2.5625 0.375 1.85
2.625 0.3125 1.7875
2.5625 0.3125 1.85
2.5625 0.375 1.7875
2.5625 0.3125 1.7875
2.75 0.3125 1.85
2.75 0.375 1.7875
2.6875 0.375 1.85
2.75 0.3125 1.7875
2.6875 0.3125 1.85
2.6875 0.375 1.7875
2.6875 0.3125 1.7875
2.875 0.3125 1.85
2.875 0.375 1.7875
2.8125 0.375 1.85
2.875 0.3125 1.7875
2.8125 0.3125 1.85
2.8125 0.375 1.7875
2.8125 0.3125 1.7875
3 0.3125 1.85
3 0.375 1.7875
2.9375 0.375 1.85
3 0.3125 1.7875
2.9375 0.3125 1.85
2.9375 0.375 1.7875
2.9375 0.3125 1.7875
0.125 0.4375 1.85
0 0.4375 1.85
0.125 0.5 1.7875
0.0625 0.5 1.85
0 0.5 1.7875
0.125 0.4375 1.7875
0.0625 0.4375 1.85
0 0.4375 1.7875
0.0625 0.5 1.7875
0.0625 0.4375 1.7875
0.25 0.4375 1.85
0.25 0.5 1.7875
0.1875 0.5 1.85
0.25 0.4375 1.7875
0.1875 0.4375 1.85
0.1875 0.5 1.7875
0.1875 0.4375 1.7875
0.375 0.4375 1.85
0.375 0.5 1.7875
0.3125 0.5 1.85
0.375 0.4375 1.7875
0.3125 0.4375 1.85
0.3125 0.5 1.7875
0.3125 0.4375 1.7875
0.5 0.4375 1.85
0.5 0.5 1.7875
0.4375 0.5 1.85
0.5 0.4375 1.7875
0.4375 0.4375 1.85
0.4375 0.5 1.7875
0.4375 0.4375 1.7875
0.625 0.4375 1.85
0.625 0.5 1.7875
0.5625 0.5 1.85
0.625 0.4375 1.7875
0.5625 0.4375 1.85
0.5625 0.5 1.7875
0.5625 0.4375 1.7875
0.75 0.4375 1.85
0.75 0.5 1.7875
0.6875 0.5 1.85
0.75 0.4375 1.7875
0.6875 0.4375 1.85
0.6875 0.5 1.7875
0.6875 0.4375 1.7875
0.875 0.4375 1.85
0.875 0.5 1.7875
0.8125 0.5 1.85
0.875 0.4375 1.7875
0.8125 0.4375 1.85
0.8125 0.5 1.7875
0.8125 0.4375 1.7875
1 0.4375 1.85
1 0.5 1.7875
0.9375 0.5 1.85
1 0.4375 1.7875
0.9375 0.4375 1.85
0.9375 0.5 1.7875
0.9375 0.4375 1.7875
1.125 0.4375 1.85
1.125 0.5 1.7875
1.0625 0.5 1.85
1.125 0.4375 1.7875
1.0625 0.4375 1.85
1.0625 0.5 1.7875
1.0625 0.4375 1.7875
1.25 0.4375 1.85
1.25 0.5 1.7875
1.1875 0.5 1.85
1.25 0.4375 1.7875
1.1875 0.4375 1.85
1.1875 0.5 1.7875
1.1875 0.4375 1.7875
1.375 0.4375 1.85
1.375 0.5 1.7875
1.3125 0.5 1.85
1.375 0.4375 1.7875
1.3125 0.4375 1.85
1.3125 0.5 1.7875
1.3125 0.4375 1.7875
1.5 0.4375 1.85
1.5 0.5 1.7875
1.4375 0.5 1.85
1.5 0.4375 1.7875
1.4375 0.4375 1.85
1.4375 0.5 1.7875
1.4375 0.4375 1.7875
1.625 0.4375 1.85
1.625 0.5 1.7875
1.5625 0.5 1.85
1.625 0.4375 1.7875
1.5625 0.4375 1.85
1.5625 0.5 1.7875
1.5625 0.4375 1.7875
1.75 0.4375 1.85
1.75 0.5 1.7875
1.6875 0.5 1.85
1.75 0.4375 1.7875
1.6875 0.4375 1.85
1.6875 0.5 1.7875
1.6875 0.4375 1.7875
1.875 0.4375 1.85
1.875 0.5 1.7875
1.8125 0.5 1.85
1.875 0.4375 1.7875
1.8125 0.4375 1.85
1.8125 0.5 1.7875
1.8125 0.4375 1.7875
2 0.4375 1.85
2 0.5 1.7875
1.9375 0.5 1.85
2 0.4375 1.7875
1.9375 0.4375 1.85
1.9375 0.5 1.7875
1.9375 0.4375 1.7875
2.125 0.4375 1.85
2.125 0.5 1.7875
2.0625 0.5 1.85
2.125 0.4375 1.7875
2.0625 0.4375 1.85
2.0625 0.5 1.7875
2.0625 0.4375 1.7875
2.25 0.4375 1.85
2.25 0.5 1.7875
2.1875 0.5 1.85
2.25 0.4375 1.7875
2.1875 0.4375 1.85
2.1875 0.5 1.7875
2.1875 0.4375 1.7875
2.375 0.4375 1.85
2.375 0.5 1.7875
2.3125 0.5 1.85
2.375 0.4375 1.7875
2.3125 0.4375 1.85
2.3125 0.5 1.7875
2.3125 0.4375 1.7875
2.5 0.4375 1.85
2.5 0.5 1.7875
2.4375 0.5 1.85
2.5 0.4375 1.7875
2.4375 0.4375 1.85
2.4375 0.5 1.7875
2.4375 0.4375 1.7875
2.625 0.4375 1.85
2.625 0.5 1.7875
2.5625 0.5 1.85
2.625 0.4375 1.7875
2.5625 0.4375 1.85
2.5625 0.5 1.7875
2.5625 0.4375 1.7875
2.75 0.4375 1.85
2.75 0.5 1.7875
2.6875 0.5 1.85
2.75 0.4375 1.7875
2.6875 0.4375 1.85
2.6875 0.5 1.7875
2.6875 0.4375 1.7875
2.875 0.4375 1.85
2.875 0.5 1.7875
2.8125 0.5 1.85
2.875 0.4375 1.7875
2.8125 0.4375 1.85
2.8125 0.5 1.7875
2.8125 0.4375 1.7875
3 0.4375 1.85
3 0.5 1.7875
2.9375 0.5 1.85
3 0.4375 1.7875
2.9375 0.4375 1.85
2.9375 0.5 1.7875
2.9375 0.4375 1.7875
0.125 0.5625 1.85
0 0.5625 1.85
0.125 0.625 1.7875
0.0625 0.625 1.85
0 0.625 1.7875
0.125 0.5625 1.7875
0.0625 0.5625 1.85
0 0.5625 1.7875
0.0625 0.625 1.7875
0.0625 0.5625 1.7875
0.25 0.5625 1.85
0.25 0.625 1.7875
0.1875 0.625 1.85
0.25 0.5625 1.7875
0.1875 0.5625 1.85
0.1875 0.625 1.7875
0.1875 0.5625 1.7875
0.375 0.5625 1.85
0.375 0.625 1.7875
0.3125 0.625 1.85
0.375 0.5625 1.7875
0.3125 0.5625 1.85
0.3125 0.625 1.7875
0.3125 0.5625 1.7875
0.5 0.5625 1.85
0.5 0.625 1.7875
0.4375 0.625 1.85
0.5 0.5625 1.7875
0.4375 0.5625 1.85
0.4375 0.625 1.7875
0.4375 0.5625 1.7875
0.625 0.5625 1.85
0.625 0.625 1.7875
0.5625 0.625 1.85
0.625 0.5625 1.7875
0.5625 0.5625 1.85
0.5625 0.625 1.7875
0.5625 0.5625 1.7875
0.75 0.5625 1.85
0.75 0.625 1.7875
0.6875 0.625 1.85
0.75 0.5625 1.7875
0.6875 0.5625 1.85
0.6875 0.625 1.7875
0.6875 0.5625 1.7875
0.875 0.5625 1.85
0.875 0.625 1.7875
0.8125 0.625 1.85
0.875 0.5625 1.7875
0.8125 0.5625 1.85
0.8125 0.625 1.7875
0.8125 0.5625 1.7875
1 0.5625 1.85
1 0.625 1.7875
0.9375 0.625 1.85
1 0.5625 1.7875
0.9375 0.5625 1.85
0.9375 0.625 1.7875
0.9375 0.5625 1.7875
1.125 0.5625 1.85
1.125 0.625 1.7875
1.0625 0.625 1.85
1.125 0.5625 1.7875
1.0625 0.5625 1.85
1.0625 0.625 1.7875
1.0625 0.5625 1.7875
1.25 0.5625 1.85
1.25 0.625 1.7875
1.1875 0.625 1.85
1.25 0.5625 1.7875
1.1875 0.5625 1.85
1.1875 0.625 1.7875
1.1875 0.5625 1.7875
1.375 0.5625 1.85
1.375 0.625 1.7875
1.3125 0.625 1.85
1.375 0.5625 1.7875
1.3125 0.5625 1.85
1.3125 0.625 1.7875
1.3125 0.5625 1.7875
1.5 0.5625 1.85
1.5 0.625 1.7875
1.4375 0.625 1.85
1.5 0.5625 1.7875
1.4375 0.5625 1.85
1.4375 0.625 1.7875
1.4375 0.5625 1.7875
1.625 0.5625 1.85
1.625 0.625 1.7875
1.5625 0.625 1.85
1.625 0.5625 1.7875
1.5625 0.5625 1.85
1.5625 0.625 1.7875
1.5625 0.5625 1.7875
1.75 0.5625 1.85
1.75 0.625 1.7875
1.6875 0.625 1.85
1.75 0.5625 1.7875
1.6875 0.5625 1.85
1.6875 0.625 1.7875
1.6875 0.5625 1.7875
1.875 0.5625 1.85
1.875 0.625 1.7875
1.8125 0.625 1.85
1.875 0.5625 1.7875
1.8125 0.5625 1.85
1.8125 0.625 1.7875
1.8125 0.5625 1.7875
2 0.5625 1.85
2 0.625 1.7875
1.9375 0.625 1.85
2 0.5625 1.7875
1.9375 0.5625 1.85
1.9375 0.625 1.7875
1.9375 0.5625 1.7875
2.125 0.5625 1.85
2.125 0.625 1.7875
2.0625 0.625 1.85
2.125 0.5625 1.7875
2.0625 0.5625 1.85
2.0625 0.625 1.7875
2.0625 0.5625 1.7875
2.25 0.5625 1.85
2.25 0.625 1.7875
2.1875 0.625 1.85
2.25 0.5625 1.7875
2.1875 0.5625 1.85
2.1875 0.625 1.7875
2.1875 0.5625 1.7875
2.375 0.5625 1.85
2.375 0.625 1.7875
2.3125 0.625 1.85
2.375 0.5625 1.7875
2.3125 0.5625 1.85
2.3125 0.625 1.7875
2.3125 0.5625 1.7875
2.5 0.5625 1.85
2.5 0.625 1.7875
2.4375 0.625 1.85
2.5 0.5625 1.7875
2.4375 0.5625 1.85
2.4375 0.625 1.7875
2.4375 0.5625 1.7875
2.625 0.5625 1.85
2.625 0.625 1.7875
2.5625 0.625 1.85
2.625 0.5625 1.7875
2.5625 0.5625 1.85
2.5625 0.625 1.7875
2.5625 0.5625 1.7875
2.75 0.5625 1.85
2.75 0.625 1.7875
2.6875 0.625 1.85
2.75 0.5625 1.7875
2.6875 0.5625 1.85
2.6875 0.625 1.7875
2.6875 0.5625 1.7875
2.875 0.5625 1.85
2.875 0.625 1.7875
2.8125 0.625 1.85
2.875 0.5625 1.7875
2.8125 0.5625 1.85
2.8125 0.625 1.7875
2.8125 0.5625 1.7875
3 0.5625 1.85
3 0.625 1.7875
2.9375 0.625 1.85
3 0.5625 1.7875
2.9375 0.5625 1.85
2.9375 0.625 1.7875
2.9375 0.5625 1.7875
0.125 0.6875 1.85
0 0.6875 1.85
0.125 0.75 1.7875
0.0625 0.75 1.85
0 0.75 1.7875
0.125 0.6875 1.7875
0.0625 0.6875 1.85
0 0.6875 1.7875
0.0625 0.75 1.7875
0.0625 0.6875 1.7875
0.25 0.6875 1.85
0.25 0.75 1.7875
0.1875 0.75 1.85
0.25 0.6875 1.7875
0.1875 0.6875 1.85
0.1875 0.75 1.7875
0.1875 0.6875 1.7875
0.375 0.6875 1.85
0.375 0.75 1.7875
0.3125 0.75 1.85
0.375 0.6875 1.7875
0.3125 0.6875 1.85
0.3125 0.75 1.7875
0.3125 0.6875 1.7875
0.5 0.6875 1.85
0.5 0.75 1.7875
0.4375 0.75 1.85
0.5 0.6875 1.7875
0.4375 0.6875 1.85
0.4375 0.75 1.7875
0.4375 0.6875 1.7875
0.625 0.6875 1.85
0.625 0.75 1.7875
0.5625 0.75 1.85
0.625 0.6875 1.7875
0.5625 0.6875 1.85
0.5625 0.75 1.7875
0.5625 0.6875 1.7875
0.75 0.6875 1.85
0.75 0.75 1.7875
0.6875 0.75 1.85
0.75 0.6875 1.7875
0.6875 0.6875 1.85
0.6875 0.75 1.7875
0.6875 0.6875 1.7875
0.875 0.6875 1.85
0.875 0.75 1.7875
0.8125 0.75 1.85
0.875 0.6875 1.7875
0.8125 0.6875 1.85
0.8125 0.75 1.7875
0.8125 0.6875 1.7875
1 0.6875 1.85
1 0.75 1.7875
0.9375 0.75 1.85
1 0.6875 1.7875
0.9375 0.6875 1.85
0.9375 0.75 1.7875
0.9375 0.6875 1.7875
1.125 0.6875 1.85
1.125 0.75 1.7875
1.0625 0.75 1.85
1.125 0.6875 1.7875
1.0625 0.6875 1.85
1.0625 0.75 1.7875
1.0625 0.6875 1.7875
1.25 0.6875 1.85
1.25 0.75 1.7875
1.1875 0.75 1.85
1.25 0.6875 1.7875
1.1875 0.6875 1.85
1.1875 0.75 1.7875
1.1875 0.6875 1.7875
1.375 0.6875 1.85
1.375 0.75 1.7875
1.3125 0.75 1.85
1.375 0.6875 1.7875
1.3125 0.6875 1.85
1.3125 0.75 1.7875
1.3125 0.6875 1.7875
1.5 0.6875 1.85
1.5 0.75 1.7875
1.4375 0.75 1.85
1.5 0.6875 1.7875
1.4375 0.6875 1.85
1.4375 0.75 1.7875
1.4375 0.6875 1.7875
1.625 0.6875 1.85
1.625 0.75 1.7875
1.5625 0.75 1.85
1.625 0.6875 1.7875
1.5625 0.6875 1.85
1.5625 0.75 1.7875
1.5625 0.6875 1.7875
1.75 0.6875 1.85
1.75 0.75 1.7875
1.6875 0.75 1.85
1.75 0.6875 1.7875
1.6875 0.6875 1.85
1.6875 0.75 1.7875
1.6875 0.6875 1.7875
1.875 0.6875 1.85
1.875 0.75 1.7875
1.8125 0.75 1.85
1.875 0.6875 1.7875
1.8125 0.6875 1.85
1.8125 0.75 1.7875
1.8125 0.6875 1.7875
2 0.6875 1.85
2 0.75 1.7875
1.9375 0.75 1.85
2 0.6875 1.7875
1.9375 0.6875 1.85
1.9375 0.75 1.7875
1.9375 0.6875 1.7875
2.125 0.6875 1.85
2.125 0.75 1.7875
2.0625 0.75 1.85
2.125 0.6875 1.7875
2.0625 0.6875 1.85
2.0625 0.75 1.7875
2.0625 0.6875 1.7875
2.25 0.6875 1.85
2.25 0.75 1.7875
2.1875 0.75 1.85
2.25 0.6875 1.7875
2.1875 0.6875 1.85
2.1875 0.75 1.7875
2.1875 0.6875 1.7875
2.375 0.6875 1.85
2.375 0.75 1.7875
2.3125 0.75 1.85
2.375 0.6875 1.7875
2.3125 0.6875 1.85
2.3125 0.75 1.7875
2.3125 0.6875 1.7875
2.5 0.6875 1.85
2.5 0.75 1.7875
2.4375 0.75 1.85
2.5 0.6875 1.7875
2.4375 0.6875 1.85
2.4375 0.75 1.7875
2.4375 0.6875 1.7875
2.625 0.6875 1.85
2.625 0.75 1.7875
2.5625 0.75 1.85
2.625 0.6875 1.7875
2.5625 0.6875 1.85
2.5625 0.75 1.7875
2.5625 0.6875 1.7875
2.75 0.6875 1.85
2.75 0.75 1.7875
2.6875 0.75 1.85
2.75 0.6875 1.7875
2.6875 0.6875 1.85
2.6875 0.75 1.7875
2.6875 0.6875 1.7875
2.875 0.6875 1.85
2.875 0.75 1.7875
2.8125 0.75 1.85
2.875 0.6875 1.7875
2.8125 0.6875 1.85
2.8125 0.75 1.7875
2.8125 0.6875 1.7875
3 0.6875 1.85
3 0.75 1.7875
2.9375 0.75 1.85
3 0.6875 1.7875
2.9375 0.6875 1.85
2.9375 0.75 1.7875
2.9375 0.6875 1.7875
0.125 0.8125 1.85
0 0.8125 1.85
0.125 0.875 1.7875
0.0625 0.875 1.85
0 0.875 1.7875
0.125 0.8125 1.7875
0.0625 0.8125 1.85
0 0.8125 1.7875
0.0625 0.875 1.7875
0.0625 0.8125 1.7875
0.25 0.8125 1.85
0.25 0.875 1.7875
0.1875 0.875 1.85
0.25 0.8125 1.7875
0.1875 0.8125 1.85
0.1875 0.875 1.7875
0.1875 0.8125 1.7875
0.375 0.8125 1.85
0.375 0.875 1.7875
0.3125 0.875 1.85
0.375 0.8125 1.7875
0.3125 0.8125 1.85
0.3125 0.875 1.7875
0.3125 0.8125 1.7875
0.5 0.8125 1.85
0.5 0.875 1.7875
0.4375 0.875 1.85
0.5 0.8125 1.7875
0.4375 0.8125 1.85
0.4375 0.875 1.7875
0.4375 0.8125 1.7875
0.625 0.8125 1.85
0.625 0.875 1.7875
0.5625 0.875 1.85
0.625 0.8125 1.7875
0.5625 0.8125 1.85
0.5625 0.875 1.7875
0.5625 0.8125 1.7875
0.75 0.8125 1.85
0.75 0.875 1.7875
0.6875 0.875 1.85
0.75 0.8125 1.7875
0.6875 0.8125 1.85
0.6875 0.875 1.7875
0.6875 0.8125 1.7875
0.875 0.8125 1.85
0.875 0.875 1.7875
0.8125 0.875 1.85
0.875 0.8125 1.7875
0.8125 0.8125 1.85
0.8125 0.875 1.7875
0.8125 0.8125 1.7875
1 0.8125 1.85
1 0.875 1.7875
0.9375 0.875 1.85
1 0.8125 1.7875
0.9375 0.8125 1.85
0.9375 0.875 1.7875
0.9375 0.8125 1.7875
1.125 0.8125 1.85
1.125 0.875 1.7875
1.0625 0.875 1.85
1.125 0.8125 1.7875
1.0625 0.8125 1.85
1.0625 0.875 1.7875
1.0625 0.8125 1.7875
1.25 0.8125 1.85
1.25 0.875 1.7875
1.1875 0.875 1.85
1.25 0.8125 1.7875
1.1875 0.8125 1.85
1.1875 0.875 1.7875
1.1875 0.8125 1.7875
1.375 0.8125 1.85
1.375 0.875 1.7875
1.3125 0.875 1.85
1.375 0.8125 1.7875
1.3125 0.8125 1.85
1.3125 0.875 1.7875
1.3125 0.8125 1.7875
1.5 0.8125 1.85
1.5 0.875 1.7875
1.4375 0.875 1.85
1.5 0.8125 1.7875
1.4375 0.8125 1.85
1.4375 0.875 1.7875
1.4375 0.8125 1.7875
1.625 0.8125 1.85
1.625 0.875 1.7875
1.5625 0.875 1.85
1.625 0.8125 1.7875
1.5625 0.8125 1.85
1.5625 0.875 1.7875
1.5625 0.8125 1.7875
1.75 0.8125 1.85
1.75 0.875 1.7875
1.6875 0.875 1.85
1.75 0.8125 1.7875
1.6875 0.8125 1.85
1.6875 0.875 1.7875
1.6875 0.8125 1.7875
1.875 0.8125 1.85
1.875 0.875 1.7875
1.8125 0.875 1.85
1.875 0.8125 1.7875
1.8125 0.8125 1.85
1.8125 0.875 1.7875
1.8125 0.8125 1.7875
2 0.8125 1.85
2 0.875 1.7875
1.9375 0.875 1.85
2 0.8125 1.7875
1.9375 0.8125 1.85
1.9375 0.875 1.7875
1.9375 0.8125 1.7875
2.125 0.8125 1.85
2.125 0.875 1.7875
2.0625 0.875 1.85
2.125 0.8125 1.7875
2.0625 0.8125 1.85
2.0625 0.875 1.7875
2.0625 0.8125 1.7875
2.25 0.8125 1.85
2.25 0.875 1.7875
2.1875 0.875 1.85
2.25 0.8125 1.7875
2.1875 0.8125 1.85
2.1875 0.875 1.7875
2.1875 0.8125 1.7875
2.375 0.8125 1.85
2.375 0.875 1.7875
2.3125 0.875 1.85
2.375 0.8125 1.7875
2.3125 0.8125 1.85
2.3125 0.875 1.7875
2.3125 0.8125 1.7875
2.5 0.8125 1.85
2.5 0.875 1.7875
2.4375 0.875 1.85
2.5 0.8125 1.7875
2.4375 0.8125 1.85
2.4375 0.875 1.7875
2.4375 0.8125 1.7875
2.625 0.8125 1.85
2.625 0.875 1.7875
2.5625 0.875 1.85
2.625 0.8125 1.7875
2.5625 0.8125 1.85
2.5625 0.875 1.7875
2.5625 0.8125 1.7875
2.75 0.8125 1.85
2.75 0.875 1.7875
2.6875 0.875 1.85
2.75 0.8125 1.7875
2.6875 0.8125 1.85
2.6875 0.875 1.7875
2.6875 0.8125 1.7875
2.875 0.8125 1.85
2.875 0.875 1.7875
2.8125 0.875 1.85
2.875 0.8125 1.7875
2.8125 0.8125 1.85
2.8125 0.875 1.7875
2.8125 0.8125 1.7875
3 0.8125 1.85
3 0.875 1.7875
2.9375 0.875 1.85
3 0.8125 1.7875
2.9375 0.8125 1.85
2.9375 0.875 1.7875
2.9375 0.8125 1.7875
0.125 0.9375 1.85
0 0.9375 1.85
0.125 1 1.7875
0.0625 1 1.85
0 1 1.7875
0.125 0.9375 1.7875
0.0625 0.9375 1.85
0 0.9375 1.7875
0.0625 1 1.7875
0.0625 0.9375 1.7875
0.25 0.9375 1.85
0.25 1 1.7875
0.1875 1 1.85
0.25 0.9375 1.7875
0.1875 0.9375 1.85
0.1875 1 1.7875
0.1875 0.9375 1.7875
0.375 0.9375 1.85
0.375 1 1.7875
0.3125 1 1.85
0.375 0.9375 1.7875
0.3125 0.9375 1.85
0.3125 1 1.7875
0.3125 0.9375 1.7875
0.5 0.9375 1.85
0.5 1 1.7875
0.4375 1 1.85
0.5 0.9375 1.7875
0.4375 0.9375 1.85
0.4375 1 1.7875
0.4375 0.9375 1.7875
0.625 0.9375 1.85
0.625 1 1.7875
0.5625 1 1.85
0.625 0.9375 1.7875
0.5625 0.9375 1.85
0.5625 1 1.7875
0.5625 0.9375 1.7875
0.75 0.9375 1.85
0.75 1 1.7875
0.6875 1 1.85
0.75 0.9375 1.7875
0.6875 0.9375 1.85
0.6875 1 1.7875
0.6875 0.9375 1.7875
0.875 0.9375 1.85
0.875 1 1.7875
0.8125 1 1.85
0.875 0.9375 1.7875
0.8125 0.9375 1.85
0.8125 1 1.7875
0.8125 0.9375 1.7875
1 0.9375 1.85
1 1 1.7875
0.9375 1 1.85
1 0.9375 1.7875
0.9375 0.9375 1.85
0.9375 1 1.7875
0.9375 0.9375 1.7875
1.125 0.9375 1.85
1.125 1 1.7875
1.0625 1 1.85
1.125 0.9375 1.7875
1.0625 0.9375 1.85
1.0625 1 1.7875
1.0625 0.9375 1.7875
1.25 0.9375 1.85
1.25 1 1.7875
1.1875 1 1.85
1.25 0.9375 1.7875
1.1875 0.9375 1.85
1.1875 1 1.7875
1.1875 0.9375 1.7875
1.375 0.9375 1.85
1.375 1 1.7875
1.3125 1 1.85
1.375 0.9375 1.7875
1.3125 0.9375 1.85
1.3125 1 1.7875
1.3125 0.9375 1.7875
1.5 0.9375 1.85
1.5 1 1.7875
1.4375 1 1.85
1.5 0.9375 1.7875
1.4375 0.9375 1.85
1.4375 1 1.7875
1.4375 0.9375 1.7875
1.625 0.9375 1.85
1.625 1 1.7875
1.5625 1 1.85
1.625 0.9375 1.7875
1.5625 0.9375 1.85
1.5625 1 1.7875
1.5625 0.9375 1.7875
1.75 0.9375 1.85
1.75 1 1.7875
1.6875 1 1.85
1.75 0.9375 1.7875
1.6875 0.9375 1.85
1.6875 1 1.7875
1.6875 0.9375 1.7875
1.875 0.9375 1.85
1.875 1 1.7875
1.8125 1 1.85
1.875 0.9375 1.7875
1.8125 0.9375 1.85
1.8125 1 1.7875
1.8125 0.9375 1.7875
2 0.9375 1.85
2 1 1.7875
1.9375 1 1.85
2 0.9375 1.7875
1.9375 0.9375 1.85
1.9375 1 1.7875
1.9375 0.9375 1.7875
2.125 0.9375 1.85
2.125 1 1.7875
2.0625 1 1.85
2.125 0.9375 1.7875
2.0625 0.9375 1.85
2.0625 1 1.7875
2.0625 0.9375 1.7875
2.25 0.9375 1.85
2.25 1 1.7875
2.1875 1 1.85
2.25 0.9375 1.7875
2.1875 0.9375 1.85
2.1875 1 1.7875
2.1875 0.9375 1.7875
2.375 0.9375 1.85
2.375 1 1.7875
2.3125 1 1.85
2.375 0.9375 1.7875
2.3125 0.9375 1.85
2.3125 1 1.7875
2.3125 0.9375 1.7875
2.5 0.9375 1.85
2.5 1 1.7875
2.4375 1 1.85
2.5 0.9375 1.7875
2.4375 0.9375 1.85
2.4375 1 1.7875
2.4375 0.9375 1.7875
2.625 0.9375 1.85
2.625 1 1.7875
2.5625 1 1.85
2.625 0.9375 1.7875
2.5625 0.9375 1.85
2.5625 1 1.7875
2.5625 0.9375 1.7875
2.75 0.9375 1.85
2.75 1 1.7875
2.6875 1 1.85
2.75 0.9375 1.7875
2.6875 0.9375 1.85
2.6875 1 1.7875
2.6875 0.9375 1.7875
2.875 0.9375 1.85
2.875 1 1.7875
2.8125 1 1.85
2.875 0.9375 1.7875
2.8125 0.9375 1.85
2.8125 1 1.7875
2.8125 0.9375 1.7875
3 0.9375 1.85
3 1 1.7875
2.9375 1 1.85
3 0.9375 1.7875
2.9375 0.9375 1.85
2.9375 1 1.7875
2.9375 0.9375 1.7875
0.125 0 1.9125
0.0625 0 1.975
0 0 1.9125
0.125 0.0625 1.975
0 0.0625 1.975
0.125 0.125 1.9125
0.0625 0.125 1.975
0 0.125 1.9125
0.0625 0 1.9125
0.125 0.0625 1.9125
0.0625 0.0625 1.975
0 0.0625 1.9125
0.0625 0.125 1.9125
0.0625 0.0625 1.9125
0.25 0 1.9125
0.1875 0 1.975
0.25 0.0625 1.975
0.25 0.125 1.9125
0.1875 0.125 1.975
0.1875 0 1.9125
0.25 0.0625 1.9125
0.1875 0.0625 1.975
0.1875 0.125 1.9125
0.1875 0.0625 1.9125
0.375 0 1.9125
0.3125 0 1.975
0.375 0.0625 1.975
0.375 0.125 1.9125
0.3125 0.125 1.975
0.3125 0 1.9125
0.375 0.0625 1.9125
0.3125 0.0625 1.975
0.3125 0.125 1.9125
0.3125 0.0625 1.9125
0.5 0 1.9125
0.4375 0 1.975
0.5 0.0625 1.975
0.5 0.125 1.9125
0.4375 0.125 1.975
0.4375 0 1.9125
0.5 0.0625 1.9125
0.4375 0.0625 1.975
0.4375 0.125 1.9125
0.4375 0.0625 1.9125
0.625 0 1.9125
0.5625 0 1.975
0.625 0.0625 1.975
0.625 0.125 1.9125
0.5625 0.125 1.975
0.5625 0 1.9125
0.625 0.0625 1.9125
0.5625 0.0625 1.975
0.5625 0.125 1.9125
0.5625 0.0625 1.9125
0.75 0 1.9125
0.6875 0 1.975
0.75 0.0625 1.975
0.75 0.125 1.9125
0.6875 0.125 1.975
0.6875 0 1.9125
0.75 0.0625 1.9125
0.6875 0.0625 1.975
0.6875 0.125 1.9125
0.6875 0.0625 1.9125
0.875 0 1.9125
0.8125 0 1.975
0.875 0.0625 1.975
0.875 0.125 1.9125
0.8125 0.125 1.975
0.8125 0 1.9125
0.875 0.0625 1.9125
0.8125 0.0625 1.975
0.8125 0.125 1.9125
0.8125 0.0625 1.9125
1 0 1.9125
0.9375 0 1.975
1 0.0625 1.975
1 0.125 1.9125
0.9375 0.125 1.975
0.9375 0 1.9125
1 0.0625 1.9125
0.9375 0.0625 1.975
0.9375 0.125 1.9125
0.9375 0.0625 1.9125
1.125 0 1.9125
1.0625 0 1.975
1.125 0.0625 1.975
1.125 0.125 1.9125
1.0625 0.125 1.975
1.0625 0 1.9125
1.125 0.0625 1.9125
1.0625 0.0625 1.975
1.0625 0.125 1.9125
1.0625 0.0625 1.9125
1.25 0 1.9125
1.1875 0 1.975
1.25 0.0625 1.975
1.25 0.125 1.9125
1.1875 0.125 1.975
1.1875 0 1.9125
1.25 0.0625 1.9125
1.1875 0.0625 1.975
1.1875 0.125 1.9125
1.1875 0.0625 1.9125
1.375 0 1.9125
1.3125 0 1.975
1.375 0.0625 1.975
1.375 0.125 1.9125
1.3125 0.125 1.975
1.3125 0 1.9125
1.375 0.0625 1.9125
1.3125 0.0625 1.975
1.3125 0.125 1.9125
1.3125 0.0625 1.9125
1.5 0 1.9125
1.4375 0 1.975
1.5 0.0625 1.975
1.5 0.125 1.9125
1.4375 0.125 1.975
1.4375 0 1.9125
1.5 0.0625 1.9125
1.4375 0.0625 1.975
1.4375 0.125 1.9125
1.4375 0.0625 1.9125
1.625 0 1.9125
1.5625 0 1.975
1.625 0.0625 1.975
1.625 0.125 1.9125
1.5625 0.125 1.975
1.5625 0 1.9125
1.625 0.0625 1.9125
1.5625 0.0625 1.975
1.5625 0.125 1.9125
1.5625 0.0625 1.9125
1.75 0 1.9125
1.6875 0 1.975
1.75 0.0625 1.975
1.75 0.125 1.9125
1.6875 0.125 1.975
1.6875 0 1.9125
1.75 0.0625 1.9125
1.6875 0.0625 1.975
1.6875 0.125 1.9125
1.6875 0.0625 1.9125
1.875 0 1.9125
1.8125 0 1.975
1.875 0.0625 1.975
1.875 0.125 1.9125
1.8125 0.125 1.975
1.8125 0 1.9125
1.875 0.0625 1.9125
1.8125 0.0625 1.975
1.8125 0.125 1.9125
1.8125 0.0625 1.9125
2 0 1.9125
1.9375 0 1.975
2 0.0625 1.975
2 0.125 1.9125
1.9375 0.125 1.975
1.9375 0 1.9125
2 0.0625 1.9125
1.9375 0.0625 1.975
1.9375 0.125 1.9125
1.9375 0.0625 1.9125
2.125 0 1.9125
2.0625 0 1.975
2.125 0.0625 1.975
2.125 0.125 1.9125
2.0625 0.125 1.975
2.0625 0 1.9125
2.125 0.0625 1.9125
2.0625 0.0625 1.975
2.0625 0.125 1.9125
2.0625 0.0625 1.9125
2.25 0 1.9125
2.1875 0 1.975
2.25 0.0625 1.975
2.25 0.125 1.9125
2.1875 0.125 1.975
2.1875 0 1.9125
2.25 0.0625 1.9125
2.1875 0.0625 1.975
2.1875 0.125 1.9125
2.1875 0.0625 1.9125
2.375 0 1.9125
2.3125 0 1.975
2.375 0.0625 1.975
2.375 0.125 1.9125
2.3125 0.125 1.975
2.3125 0 1.9125
2.375 0.0625 1.9125
2.3125 0.0625 1.975
2.3125 0.125 1.9125
2.3125 0.0625 1.9125
2.5 0 1.9125
2.4375 0 1.975
2.5 0.0625 1.975
2.5 0.125 1.9125
2.4375 0.125 1.975
2.4375 0 1.9125
2.5 0.0625 1.9125
2.4375 0.0625 1.975
2.4375 0.125 1.9125
2.4375 0.0625 1.9125
2.625 0 1.9125
2.5625 0 1.975
2.625 0.0625 1.975
2.625 0.125 1.9125
2.5625 0.125 1.975
2.5625 0 1.9125
2.625 0.0625 1.9125
2.5625 0.0625 1.975
2.5625 0.125 1.9125
2.5625 0.0625 1.9125
2.75 0 1.9125
2.6875 0 1.975
2.75 0.0625 1.975
2.75 0.125 1.9125
2.6875 0.125 1.975
2.6875 0 1.9125
2.75 0.0625 1.9125
2.6875 0.0625 1.975
2.6875 0.125 1.9125
2.6875 0.0625 1.9125
2.875 0 1.9125
2.8125 0 1.975
2.875 0.0625 1.975
2.875 0.125 1.9125
2.8125 0.125 1.975
2.8125 0 1.9125
2.875 0.0625 1.9125
2.8125 0.0625 1.975
2.8125 0.125 1.9125
2.8125 0.0625 1.9125
3 0 1.9125
2.9375 0 1.975
3 0.0625 1.975
3 0.125 1.9125
2.9375 0.125 1.975
2.9375 0 1.9125
3 0.0625 1.9125
2.9375 0.0625 1.975
2.9375 0.125 1.9125
2.9375 0.0625 1.9125
0.125 0.1875 1.975
0 0.1875 1.975
0.125 0.25 1.9125
0.0625 0.25 1.975
0 0.25 1.9125
0.125 0.1875 1.9125
0.0625 0.1875 1.975
0 0.1875 1.9125
0.0625 0.25 1.9125
0.0625 0.1875 1.9125
0.25 0.1875 1.975
0.25 0.25 1.9125
0.1875 0.25 1.975
0.25 0.1875 1.9125
0.1875 0.1875 1.975
0.1875 0.25 1.9125
0.1875 0.1875 1.9125
0.375 0.1875 1.975
0.375 0.25 1.9125
0.3125 0.25 1.975
0.375 0.1875 1.9125
0.3125 0.1875 1.975
0.3125 0.25 1.9125
0.3125 0.1875 1.9125
0.5 0.1875 1.975
0.5 0.25 1.9125
0.4375 0.25 1.975
0.5 0.1875 1.9125
0.4375 0.1875 1.975
0.4375 0.25 1.9125
0.4375 0.1875 1.9125
0.625 0.1875 1.975
0.625 0.25 1.9125
0.5625 0.25 1.975
0.625 0.1875 1.9125
0.5625 0.1875 1.975
0.5625 0.25 1.9125
0.5625 0.1875 1.9125
0.75 0.1875 1.975
0.75 0.25 1.9125
0.6875 0.25 1.975
0.75 0.1875 1.9125
0.6875 0.1875 1.975
0.6875 0.25 1.9125
0.6875 0.1875 1.9125
0.875 0.1875 1.975
0.875 0.25 1.9125
0.8125 0.25 1.975
0.875 0.1875 1.9125
0.8125 0.1875 1.975
0.8125 0.25 1.9125
0.8125 0.1875 1.9125
1 0.1875 1.975
1 0.25 1.9125
0.9375 0.25 1.975
1 0.1875 1.9125
0.9375 0.1875 1.975
0.9375 0.25 1.9125
0.9375 0.1875 1.9125
1.125 0.1875 1.975
1.125 0.25 1.9125
1.0625 0.25 1.975
1.125 0.1875 1.9125
1.0625 0.1875 1.975
1.0625 0.25 1.9125
1.0625 0.1875 1.9125
1.25 0.1875 1.975
1.25 0.25 1.9125
1.1875 0.25 1.975
1.25 0.1875 1.9125
1.1875 0.1875 1.975
1.1875 0.25 1.9125
1.1875 0.1875 1.9125
1.375 0.1875 1.975
1.375 0.25 1.9125
1.3125 0.25 1.975
1.375 0.1875 1.9125
1.3125 0.1875 1.975
1.3125 0.25 1.9125
1.3125 0.1875 1.9125
1.5 0.1875 1.975
1.5 0.25 1.9125
1.4375 0.25 1.975
1.5 0.1875 1.9125
1.4375 0.1875 1.975
1.4375 0.25 1.9125
1.4375 0.1875 1.9125
1.625 0.1875 1.975
1.625 0.25 1.9125
1.5625 0.25 1.975
1.625 0.1875 1.9125
1.5625 0.1875 1.975
1.5625 0.25 1.9125
1.5625 0.1875 1.9125
1.75 0.1875 1.975
1.75 0.25 1.9125
1.6875 0.25 1.975
1.75 0.1875 1.9125
1.6875 0.1875 1.975
1.6875 0.25 1.9125
1.6875 0.1875 1.9125
1.875 0.1875 1.975
1.875 0.25 1.9125
1.8125 0.25 1.975
1.875 0.1875 1.9125
1.8125 0.1875 1.975
1.8125 0.25 1.9125
1.8125 0.1875 1.9125
2 0.1875 1.975
2 0.25 1.9125
1.9375 0.25 1.975
2 0.1875 1.9125
1.9375 0.1875 1.975
1.9375 0.25 1.9125
1.9375 0.1875 1.9125
2.125 0.1875 1.975
2.125 0.25 1.9125
2.0625 0.25 1.975
2.125 0.1875 1.9125
2.0625 0.1875 1.975
2.0625 0.25 1.9125
2.0625 0.1875 1.9125
2.25 0.1875 1.975
2.25 0.25 1.9125
2.1875 0.25 1.975
2.25 0.1875 1.9125
2.1875 0.1875 1.975
2.1875 0.25 1.9125
2.1875 0.1875 1.9125
2.375 0.1875 1.975
2.375 0.25 1.9125
2.3125 0.25 1.975
2.375 0.1875 1.9125
2.3125 0.1875 1.975
2.3125 0.25 1.9125
2.3125 0.1875 1.9125
2.5 0.1875 1.975
2.5 0.25 1.9125
2.4375 0.25 1.975
2.5 0.1875 1.9125
2.4375 0.1875 1.975
2.4375 0.25 1.9125
2.4375 0.1875 1.9125
2.625 0.1875 1.975
2.625 0.25 1.9125
2.5625 0.25 1.975
2.625 0.1875 1.9125
2.5625 0.1875 1.975
2.5625 0.25 1.9125
2.5625 0.1875 1.9125
2.75 0.1875 1.975
2.75 0.25 1.9125
2.6875 0.25 1.975
2.75 0.1875 1.9125
2.6875 0.1875 1.975
2.6875 0.25 1.9125
2.6875 0.1875 1.9125
2.875 0.1875 1.975
2.875 0.25 1.9125
2.8125 0.25 1.975
2.875 0.1875 1.9125
2.8125 0.1875 1.975
2.8125 0.25 1.9125
2.8125 0.1875 1.9125
3 0.1875 1.975
3 0.25 1.9125
2.9375 0.25 1.975
3 0.1875 1.9125
2.9375 0.1875 1.975
2.9375 0.25 1.9125
2.9375 0.1875 1.9125
0.125 0.3125 1.975
0 0.3125 1.975
0.125 0.375 1.9125
0.0625 0.375 1.975
0 0.375 1.9125
0.125 0.3125 1.9125
0.0625 0.3125 1.975
0 0.3125 1.9125
0.0625 0.375 1.9125
0.0625 0.3125 1.9125
0.25 0.3125 1.975
0.25 0.375 1.9125
0.1875 0.375 1.975
0.25 0.3125 1.9125
0.1875 0.3125 1.975
0.1875 0.375 1.9125
0.1875 0.3125 1.9125
0.375 0.3125 1.975
0.375 0.375 1.9125
0.3125 0.375 1.975
0.375 0.3125 1.9125
0.3125 0.3125 1.975
0.3125 0.375 1.9125
0.3125 0.3125 1.9125
0.5 0.3125 1.975
0.5 0.375 1.9125
0.4375 0.375 1.975
0.5 0.3125 1.9125
0.4375 0.3125 1.975
0.4375 0.375 1.9125
0.4375 0.3125 1.9125
0.625 0.3125 1.975
0.625 0.375 1.9125
0.5625 0.375 1.975
0.625 0.3125 1.9125
0.5625 0.3125 1.975
0.5625 0.375 1.9125
0.5625 0.3125 1.9125
0.75 0.3125 1.975
0.75 0.375 1.9125
0.6875 0.375 1.975
0.75 0.3125 1.9125
0.6875 0.3125 1.975
0.6875 0.375 1.9125
0.6875 0.3125 1.9125
0.875 0.3125 1.975
0.875 0.375 1.9125
0.8125 0.375 1.975
0.875 0.3125 1.9125
0.8125 0.3125 1.975
0.8125 0.375 1.9125
0.8125 0.3125 1.9125
1 0.3125 1.975
1 0.375 1.9125
0.9375 0.375 1.975
1 0.3125 1.9125
0.9375 0.3125 1.975
0.9375 0.375 1.9125
0.9375 0.3125 1.9125
1.125 0.3125 1.975
1.125 0.375 1.9125
1.0625 0.375 1.975
1.125 0.3125 1.9125
1.0625 0.3125 1.975
1.0625 0.375 1.9125
1.0625 0.3125 1.9125
1.25 0.3125 1.975
1.25 0.375 1.9125
1.1875 0.375 1.975
1.25 0.3125 1.9125
1.1875 0.3125 1.975
1.1875 0.375 1.9125
1.1875 0.3125 1.9125
1.375 0.3125 1.975
1.375 0.375 1.9125
1.3125 0.375 1.975
1.375 0.3125 1.9125
1.3125 0.3125 1.975
1.3125 0.375 1.9125
1.3125 0.3125 1.9125
1.5 0.3125 1.975
1.5 0.375 1.9125
1.4375 0.375 1.975
1.5 0.3125 1.9125
1.4375 0.3125 1.975
1.4375 0.375 1.9125
1.4375 0.3125 1.9125
1.625 0.3125 1.975
1.625 0.375 1.9125
1.5625 0.375 1.975
1.625 0.3125 1.9125
1.5625 0.3125 1.975
1.5625 0.375 1.9125
1.5625 0.3125 1.9125
1.75 0.3125 1.975
1.75 0.375 1.9125
1.6875 0.375 1.975
1.75 0.3125 1.9125
1.6875 0.3125 1.975
1.6875 0.375 1.9125
1.6875 0.3125 1.9125
1.875 0.3125 1.975
1.875 0.375 1.9125
1.8125 0.375 1.975
1.875 0.3125 1.9125
1.8125 0.3125 1.975
1.8125 0.375 1.9125
1.8125 0.3125 1.9125
2 0.3125 1.975
2 0.375 1.9125
1.9375 0.375 1.975
2 0.3125 1.9125
1.9375 0.3125 1.975
1.9375 0.375 1.9125
1.9375 0.3125 1.9125
2.125 0.3125 1.975
2.125 0.375 1.9125
2.0625 0.375 1.975
2.125 0.3125 1.9125
2.0625 0.3125 1.975
2.0625 0.375 1.9125
2.0625 0.3125 1.9125
2.25 0.3125 1.975
2.25 0.375 1.9125
2.1875 0.375 1.975
2.25 0.3125 1.9125
2.1875 0.3125 1.975
2.1875 0.375 1.9125
2.1875 0.3125 1.9125
2.375 0.3125 1.975
2.375 0.375 1.9125
2.3125 0.375 1.975
2.375 0.3125 1.9125
2.3125 0.3125 1.975
2.3125 0.375 1.9125
2.3125 0.3125 1.9125
2.5 0.3125 1.975
2.5 0.375 1.9125
2.4375 0.375 1.975
2.5 0.3125 1.9125
2.4375 0.3125 1.975
2.4375 0.375 1.9125
2.4375 0.3125 1.9125
2.625 0.3125 1.975
2.625 0.375 1.9125
2.5625 0.375 1.975
2.625 0.3125 1.9125
2.5625 0.3125 1.975
2.5625 0.375 1.9125
2.5625 0.3125 1.9125
2.75 0.3125 1.975
2.75 0.375 1.9125
2.6875 0.375 1.975
2.75 0.3125 1.9125
2.6875 0.3125 1.975
2.6875 0.375 1.9125
2.6875 0.3125 1.9125
2.875 0.3125 1.975
2.875 0.375 1.9125
2.8125 0.375 1.975
2.875 0.3125 1.9125
2.8125 0.3125 1.975
2.8125 0.375 1.9125
2.8125 0.3125 1.9125
3 0.3125 1.975
3 0.375 1.9125
2.9375 0.375 1.975
3 0.3125 1.9125
2.9375 0.3125 1.975
2.9375 0.375 1.9125
2.9375 0.3125 1.9125
0.125 0.4375 1.975
0 0.4375 1.975
0.125 0.5 1.9125
0.0625 0.5 1.975
0 0.5 1.9125
0.125 0.4375 1.9125
0.0625 0.4375 1.975
0 0.4375 1.9125
0.0625 0.5 1.9125
0.0625 0.4375 1.9125
0.25 0.4375 1.975
0.25 0.5 1.9125
0.1875 0.5 1.975
0.25 0.4375 1.9125
0.1875 0.4375 1.975
0.1875 0.5 1.9125
0.1875 0.4375 1.9125
0.375 0.4375 1.975
0.375 0.5 1.9125
0.3125 0.5 1.975
0.375 0.4375 1.9125
0.3125 0.4375 1.975
0.3125 0.5 1.9125
0.3125 0.4375 1.9125
0.5 0.4375 1.975
0.5 0.5 1.9125
0.4375 0.5 1.975
0.5 0.4375 1.9125
0.4375 0.4375 1.975
0.4375 0.5 1.9125
0.4375 0.4375 1.9125
0.625 0.4375 1.975
0.625 0.5 1.9125
0.5625 0.5 1.975
0.625 0.4375 1.9125
0.5625 0.4375 1.975
0.5625 0.5 1.9125
0.5625 0.4375 1.9125
0.75 0.4375 1.975
0.75 0.5 1.9125
0.6875 0.5 1.975
0.75 0.4375 1.9125
0.6875 0.4375 1.975
0.6875 0.5 1.9125
0.6875 0.4375 1.9125
0.875 0.4375 1.975
0.875 0.5 1.9125
0.8125 0.5 1.975
0.875 0.4375 1.9125
0.8125 0.4375 1.975
0.8125 0.5 1.9125
0.8125 0.4375 1.9125
1 0.4375 1.975
1 0.5 1.9125
0.9375 0.5 1.975
1 0.4375 1.9125
0.9375 0.4375 1.975
0.9375 0.5 1.9125
0.9375 0.4375 1.9125
1.125 0.4375 1.975
1.125 0.5 1.9125
1.0625 0.5 1.975
1.125 0.4375 1.9125
1.0625 0.4375 1.975
1.0625 0.5 1.9125
1.0625 0.4375 1.9125
1.25 0.4375 1.975
1.25 0.5 1.9125
1.1875 0.5 1.975
1.25 0.4375 1.9125
1.1875 0.4375 1.975
1.1875 0.5 1.9125
1.1875 0.4375 1.9125
1.375 0.4375 1.975
1.375 0.5 1.9125
1.3125 0.5 1.975
1.375 0.4375 1.9125
1.3125 0.4375 1.975
1.3125 0.5 1.9125
1.3125 0.4375 1.9125
1.5 0.4375 1.975
1.5 0.5 1.9125
1.4375 0.5 1.975
1.5 0.4375 1.9125
1.4375 0.4375 1.975
1.4375 0.5 1.9125
1.4375 0.4375 1.9125
1.625 0.4375 1.975
1.625 0.5 1.9125
1.5625 0.5 1.975
1.625 0.4375 1.9125
1.5625 0.4375 1.975
1.5625 0.5 1.9125
1.5625 0.4375 1.9125
1.75 0.4375 1.975
1.75 0.5 1.9125
1.6875 0.5 1.975
1.75 0.4375 1.9125
1.6875 0.4375 1.975
1.6875 0.5 1.9125
1.6875 0.4375 1.9125
1.875 0.4375 1.975
1.875 0.5 1.9125
1.8125 0.5 1.975
1.875 0.4375 1.9125
1.8125 0.4375 1.975
1.8125 0.5 1.9125
1.8125 0.4375 1.9125
2 0.4375 1.975
2 0.5 1.9125
1.9375 0.5 1.975
2 0.4375 1.9125
1.9375 0.4375 1.975
1.9375 0.5 1.9125
1.9375 0.4375 1.9125
2.125 0.4375 1.975
2.125 0.5 1.9125
2.0625 0.5 1.975
2.125 0.4375 1.9125
2.0625 0.4375 1.975
2.0625 0.5 1.9125
2.0625 0.4375 1.9125
2.25 0.4375 1.975
2.25 0.5 1.9125
2.1875 0.5 1.975
2.25 0.4375 1.9125
2.1875 0.4375 1.975
2.1875 0.5 1.9125
2.1875 0.4375 1.9125
2.375 0.4375 1.975
2.375 0.5 1.9125
2.3125 0.5 1.975
2.375 0.4375 1.9125
2.3125 0.4375 1.975
2.3125 0.5 1.9125
2.3125 0.4375 1.9125
2.5 0.4375 1.975
2.5 0.5 1.9125
2.4375 0.5 1.975
2.5 0.4375 1.9125
2.4375 0.4375 1.975
2.4375 0.5 1.9125
2.4375 0.4375 1.9125
2.625 0.4375 1.975
2.625 0.5 1.9125
2.5625 0.5 1.975
2.625 0.4375 1.9125
2.5625 0.4375 1.975
2.5625 0.5 1.9125
2.5625 0.4375 1.9125
2.75 0.4375 1.975
2.75 0.5 1.9125
2.6875 0.5 1.975
2.75 0.4375 1.9125
2.6875 0.4375 1.975
2.6875 0.5 1.9125
2.6875 0.4375 1.9125
2.875 0.4375 1.975
2.875 0.5 1.9125
2.8125 0.5 1.975
2.875 0.4375 1.9125
2.8125 0.4375 1.975
2.8125 0.5 1.9125
2.8125 0.4375 1.9125
3 0.4375 1.975
3 0.5 1.9125
2.9375 0.5 1.975
3 0.4375 1.9125
2.9375 0.4375 1.975
2.9375 0.5 1.9125
2.9375 0.4375 1.9125
0.125 0.5625 1.975
0 0.5625 1.975
0.125 0.625 1.9125
0.0625 0.625 1.975
0 0.625 1.9125
0.125 0.5625 1.9125
0.0625 0.5625 1.975
0 0.5625 1.9125
0.0625 0.625 1.9125
0.0625 0.5625 1.9125
0.25 0.5625 1.975
0.25 0.625 1.9125
0.1875 0.625 1.975
0.25 0.5625 1.9125
0.1875 0.5625 1.975
0.1875 0.625 1.9125
0.1875 0.5625 1.9125
0.375 0.5625 1.975
0.375 0.625 1.9125
0.3125 0.625 1.975
0.375 0.5625 1.9125
0.3125 0.5625 1.975
0.3125 0.625 1.9125
0.3125 0.5625 1.9125
0.5 0.5625 1.975
0.5 0.625 1.9125
0.4375 0.625 1.975
0.5 0.5625 1.9125
0.4375 0.5625 1.975
0.4375 0.625 1.9125
0.4375 0.5625 1.9125
0.625 0.5625 1.975
0.625 0.625 1.9125
0.5625 0.625 1.975
0.625 0.5625 1.9125
0.5625 0.5625 1.975
0.5625 0.625 1.9125
0.5625 0.5625 1.9125
0.75 0.5625 1.975
0.75 0.625 1.9125
0.6875 0.625 1.975
0.75 0.5625 1.9125
0.6875 0.5625 1.975
0.6875 0.625 1.9125
0.6875 0.5625 1.9125
0.875 0.5625 1.975
0.875 0.625 1.9125
0.8125 0.625 1.975
0.875 0.5625 1.9125
0.8125 0.5625 1.975
0.8125 0.625 1.9125
0.8125 0.5625 1.9125
1 0.5625 1.975
1 0.625 1.9125
0.9375 0.625 1.975
1 0.5625 1.9125
0.9375 0.5625 1.975
0.9375 0.625 1.9125
0.9375 0.5625 1.9125
1.125 0.5625 1.975
1.125 0.625 1.9125
1.0625 0.625 1.975
1.125 0.5625 1.9125
1.0625 0.5625 1.975
1.0625 0.625 1.9125
1.0625 0.5625 1.9125
1.25 0.5625 1.975
1.25 0.625 1.9125
1.1875 0.625 1.975
1.25 0.5625 1.9125
1.1875 0.5625 1.975
1.1875 0.625 1.9125
1.1875 0.5625 1.9125
1.375 0.5625 1.975
1.375 0.625 1.9125
1.3125 0.625 1.975
1.375 0.5625 1.9125
1.3125 0.5625 1.975
1.3125 0.625 1.9125
1.3125 0.5625 1.9125
1.5 0.5625 1.975
1.5 0.625 1.9125
1.4375 0.625 1.975
1.5 0.5625 1.9125
1.4375 0.5625 1.975
1.4375 0.625 1.9125
1.4375 0.5625 1.9125
1.625 0.5625 1.975
1.625 0.625 1.9125
1.5625 0.625 1.975
1.625 0.5625 1.9125
1.5625 0.5625 1.975
1.5625 0.625 1.9125
1.5625 0.5625 1.9125
1.75 0.5625 1.975
1.75 0.625 1.9125
1.6875 0.625 1.975
1.75 0.5625 1.9125
1.6875 0.5625 1.975
1.6875 0.625 1.9125
1.6875 0.5625 1.9125
1.875 0.5625 1.975
1.875 0.625 1.9125
1.8125 0.625 1.975
1.875 0.5625 1.9125
1.8125 0.5625 1.975
1.8125 0.625 1.9125
1.8125 0.5625 1.9125
2 0.5625 1.975
2 0.625 1.9125
1.9375 0.625 1.975
2 0.5625 1.9125
1.9375 0.5625 1.975
1.9375 0.625 1.9125
1.9375 0.5625 1.9125
2.125 0.5625 1.975
2.125 0.625 1.9125
2.0625 0.625 1.975
2.125 0.5625 1.9125
2.0625 0.5625 1.975
2.0625 0.625 1.9125
2.0625 0.5625 1.9125
2.25 0.5625 1.975
2.25 0.625 1.9125
2.1875 0.625 1.975
2.25 0.5625 1.9125
2.1875 0.5625 1.975
2.1875 0.625 1.9125
2.1875 0.5625 1.9125
2.375 0.5625 1.975
2.375 0.625 1.9125
2.3125 0.625 1.975
2.375 0.5625 1.9125
2.3125 0.5625 1.975
2.3125 0.625 1.9125
2.3125 0.5625 1.9125
2.5 0.5625 1.975
2.5 0.625 1.9125
2.4375 0.625 1.975
2.5 0.5625 1.9125
2.4375 0.5625 1.975
2.4375 0.625 1.9125
2.4375 0.5625 1.9125
2.625 0.5625 1.975
2.625 0.625 1.9125
2.5625 0.625 1.975
2.625 0.5625 1.9125
2.5625 0.5625 1.975
2.5625 0.625 1.9125
2.5625 0.5625 1.9125
2.75 0.5625 1.975
2.75 0.625 1.9125
2.6875 0.625 1.975
2.75 0.5625 1.9125
2.6875 0.5625 1.975
2.6875 0.625 1.9125
2.6875 0.5625 1.9125
2.875 0.5625 1.975
2.875 0.625 1.9125
2.8125 0.625 1.975
2.875 0.5625 1.9125
2.8125 0.5625 1.975
2.8125 0.625 1.9125
2.8125 0.5625 1.9125
3 0.5625 1.975
3 0.625 1.9125
2.9375 0.625 1.975
3 0.5625 1.9125
2.9375 0.5625 1.975
2.9375 0.625 1.9125
2.9375 0.5625 1.9125
0.125 0.6875 1.975
0 0.6875 1.975
0.125 0.75 1.9125
0.0625 0.75 1.975
0 0.75 1.9125
0.125 0.6875 1.9125
0.0625 0.6875 1.975
0 0.6875 1.9125
0.0625 0.75 1.9125
0.0625 0.6875 1.9125
0.25 0.6875 1.975
0.25 0.75 1.9125
0.1875 0.75 1.975
0.25 0.6875 1.9125
0.1875 0.6875 1.975
0.1875 0.75 1.9125
0.1875 0.6875 1.9125
0.375 0.6875 1.975
0.375 0.75 1.9125
0.3125 0.75 1.975
0.375 0.6875 1.9125
0.3125 0.6875 1.975
0.3125 0.75 1.9125
0.3125 0.6875 1.9125
0.5 0.6875 1.975
0.5 0.75 1.9125
0.4375 0.75 1.975
0.5 0.6875 1.9125
0.4375 0.6875 1.975
0.4375 0.75 1.9125
0.4375 0.6875 1.9125
0.625 0.6875 1.975
0.625 0.75 1.9125
0.5625 0.75 1.975
0.625 0.6875 1.9125
0.5625 0.6875 1.975
0.5625 0.75 1.9125
0.5625 0.6875 1.9125
0.75 0.6875 1.975
0.75 0.75 1.9125
0.6875 0.75 1.975
0.75 0.6875 1.9125
0.6875 0.6875 1.975
0.6875 0.75 1.9125
0.6875 0.6875 1.9125
0.875 0.6875 1.975
0.875 0.75 1.9125
0.8125 0.75 1.975
0.875 0.6875 1.9125
0.8125 0.6875 1.975
0.8125 0.75 1.9125
0.8125 0.6875 1.9125
1 0.6875 1.975
1 0.75 1.9125
0.9375 0.75 1.975
1 0.6875 1.9125
0.9375 0.6875 1.975
0.9375 0.75 1.9125
0.9375 0.6875 1.9125
1.125 0.6875 1.975
1.125 0.75 1.9125
1.0625 0.75 1.975
1.125 0.6875 1.9125
1.0625 0.6875 1.975
1.0625 0.75 1.9125
1.0625 0.6875 1.9125
1.25 0.6875 1.975
1.25 0.75 1.9125
1.1875 0.75 1.975
1.25 0.6875 1.9125
1.1875 0.6875 1.975
1.1875 0.75 1.9125
1.1875 0.6875 1.9125
1.375 0.6875 1.975
1.375 0.75 1.9125
1.3125 0.75 1.975
1.375 0.6875 1.9125
1.3125 0.6875 1.975
1.3125 0.75 1.9125
1.3125 0.6875 1.9125
1.5 0.6875 1.975
1.5 0.75 1.9125
1.4375 0.75 1.975
1.5 0.6875 1.9125
1.4375 0.6875 1.975
1.4375 0.75 1.9125
1.4375 0.6875 1.9125
1.625 0.6875 1.975
1.625 0.75 1.9125
1.5625 0.75 1.975
1.625 0.6875 1.9125
1.5625 0.6875 1.975
1.5625 0.75 1.9125
1.5625 0.6875 1.9125
1.75 0.6875 1.975
1.75 0.75 1.9125
1.6875 0.75 1.975
1.75 0.6875 1.9125
1.6875 0.6875 1.975
1.6875 0.75 1.9125
1.6875 0.6875 1.9125
1.875 0.6875 1.975
1.875 0.75 1.9125
1.8125 0.75 1.975
1.875 0.6875 1.9125
1.8125 0.6875 1.975
1.8125 0.75 1.9125
1.8125 0.6875 1.9125
2 0.6875 1.975
2 0.75 1.9125
1.9375 0.75 1.975
2 0.6875 1.9125
1.9375 0.6875 1.975
1.9375 0.75 1.9125
1.9375 0.6875 1.9125
2.125 0.6875 1.975
2.125 0.75 1.9125
2.0625 0.75 1.975
2.125 0.6875 1.9125
2.0625 0.6875 1.975
2.0625 0.75 1.9125
2.0625 0.6875 1.9125
2.25 0.6875 1.975
2.25 0.75 1.9125
2.1875 0.75 1.975
2.25 0.6875 1.9125
2.1875 0.6875 1.975
2.1875 0.75 1.9125
2.1875 0.6875 1.9125
2.375 0.6875 1.975
2.375 0.75 1.9125
2.3125 0.75 1.975
2.375 0.6875 1.9125
2.3125 0.6875 1.975
2.3125 0.75 1.9125
2.3125 0.6875 1.9125
2.5 0.6875 1.975
2.5 0.75 1.9125
2.4375 0.75 1.975
2.5 0.6875 1.9125
2.4375 0.6875 1.975
2.4375 0.75 1.9125
2.4375 0.6875 1.9125
2.625 0.6875 1.975
2.625 0.75 1.9125
2.5625 0.75 1.975
2.625 0.6875 1.9125
2.5625 0.6875 1.975
2.5625 0.75 1.9125
2.5625 0.6875 1.9125
2.75 0.6875 1.975
2.75 0.75 1.9125
2.6875 0.75 1.975
2.75 0.6875 1.9125
2.6875 0.6875 1.975
2.6875 0.75 1.9125
2.6875 0.6875 1.9125
2.875 0.6875 1.975
2.875 0.75 1.9125
2.8125 0.75 1.975
2.875 0.6875 1.9125
2.8125 0.6875 1.975
2.8125 0.75 1.9125
2.8125 0.6875 1.9125
3 0.6875 1.975
3 0.75 1.9125
2.9375 0.75 1.975
3 0.6875 1.9125
2.9375 0.6875 1.975
2.9375 0.75 1.9125
2.9375 0.6875 1.9125
0.125 0.8125 1.975
0 0.8125 1.975
0.125 0.875 1.9125
0.0625 0.875 1.975
0 0.875 1.9125
0.125 0.8125 1.9125
0.0625 0.8125 1.975
0 0.8125 1.9125
0.0625 0.875 1.9125
0.0625 0.8125 1.9125
0.25 0.8125 1.975
0.25 0.875 1.9125
0.1875 0.875 1.975
0.25 0.8125 1.9125
0.1875 0.8125 1.975
0.1875 0.875 1.9125
0.1875 0.8125 1.9125
0.375 0.8125 1.975
0.375 0.875 1.9125
0.3125 0.875 1.975
0.375 0.8125 1.9125
0.3125 0.8125 1.975
0.3125 0.875 1.9125
0.3125 0.8125 1.9125
0.5 0.8125 1.975
0.5 0.875 1.9125
0.4375 0.875 1.975
0.5 0.8125 1.9125
0.4375 0.8125 1.975
0.4375 0.875 1.9125
0.4375 0.8125 1.9125
0.625 0.8125 1.975
0.625 0.875 1.9125
0.5625 0.875 1.975
0.625 0.8125 1.9125
0.5625 0.8125 1.975
0.5625 0.875 1.9125
0.5625 0.8125 1.9125
0.75 0.8125 1.975
0.75 0.875 1.9125
0.6875 0.875 1.975
0.75 0.8125 1.9125
0.6875 0.8125 1.975
0.6875 0.875 1.9125
0.6875 0.8125 1.9125
0.875 0.8125 1.975
0.875 0.875 1.9125
0.8125 0.875 1.975
0.875 0.8125 1.9125
0.8125 0.8125 1.975
0.8125 0.875 1.9125
0.8125 0.8125 1.9125
1 0.8125 1.975
1 0.875 1.9125
0.9375 0.875 1.975
1 0.8125 1.9125
0.9375 0.8125 1.975
0.9375 0.875 1.9125
0.9375 0.8125 1.9125
1.125 0.8125 1.975
1.125 0.875 1.9125
1.0625 0.875 1.975
1.125 0.8125 1.9125
1.0625 0.8125 1.975
1.0625 0.875 1.9125
1.0625 0.8125 1.9125
1.25 0.8125 1.975
1.25 0.875 1.9125
1.1875 0.875 1.975
1.25 0.8125 1.9125
1.1875 0.8125 1.975
1.1875 0.875 1.9125
1.1875 0.8125 1.9125
1.375 0.8125 1.975
1.375 0.875 1.9125
1.3125 0.875 1.975
1.375 0.8125 1.9125
1.3125 0.8125 1.975
1.3125 0.875 1.9125
1.3125 0.8125 1.9125
1.5 0.8125 1.975
1.5 0.875 1.9125
1.4375 0.875 1.975
1.5 0.8125 1.9125
1.4375 0.8125 1.975
1.4375 0.875 1.9125
1.4375 0.8125 1.9125
1.625 0.8125 1.975
1.625 0.875 1.9125
1.5625 0.875 1.975
1.625 0.8125 1.9125
1.5625 0.8125 1.975
1.5625 0.875 1.9125
1.5625 0.8125 1.9125
1.75 0.8125 1.975
1.75 0.875 1.9125
1.6875 0.875 1.975
1.75 0.8125 1.9125
1.6875 0.8125 1.975
1.6875 0.875 1.9125
1.6875 0.8125 1.9125
1.875 0.8125 1.975
1.875 0.875 1.9125
1.8125 0.875 1.975
1.875 0.8125 1.9125
1.8125 0.8125 1.975
1.8125 0.875 1.9125
1.8125 0.8125 1.9125
2 0.8125 1.975
2 0.875 1.9125
1.9375 0.875 1.975
2 0.8125 1.9125
1.9375 0.8125 1.975
1.9375 0.875 1.9125
1.9375 0.8125 1.9125
2.125 0.8125 1.975
2.125 0.875 1.9125
2.0625 0.875 1.975
2.125 0.8125 1.9125
2.0625 0.8125 1.975
2.0625 0.875 1.9125
2.0625 0.8125 1.9125
2.25 0.8125 1.975
2.25 0.875 1.9125
2.1875 0.875 1.975
2.25 0.8125 1.9125
2.1875 0.8125 1.975
2.1875 0.875 1.9125
2.1875 0.8125 1.9125
2.375 0.8125 1.975
2.375 0.875 1.9125
2.3125 0.875 1.975
2.375 0.8125 1.9125
2.3125 0.8125 1.975
2.3125 0.875 1.9125
2.3125 0.8125 1.9125
2.5 0.8125 1.975
2.5 0.875 1.9125
2.4375 0.875 1.975
2.5 0.8125 1.9125
2.4375 0.8125 1.975
2.4375 0.875 1.9125
2.4375 0.8125 1.9125
2.625 0.8125 1.975
2.625 0.875 1.9125
2.5625 0.875 1.975
2.625 0.8125 1.9125
2.5625 0.8125 1.975
2.5625 0.875 1.9125
2.5625 0.8125 1.9125
2.75 0.8125 1.975
2.75 0.875 1.9125
2.6875 0.875 1.975
2.75 0.8125 1.9125
2.6875 0.8125 1.975
2.6875 0.875 1.9125
2.6875 0.8125 1.9125
2.875 0.8125 1.975
2.875 0.875 1.9125
2.8125 0.875 1.975
2.875 0.8125 1.9125
2.8125 0.8125 1.975
2.8125 0.875 1.9125
2.8125 0.8125 1.9125
3 0.8125 1.975
3 0.875 1.9125
2.9375 0.875 1.975
3 0.8125 1.9125
2.9375 0.8125 1.975
2.9375 0.875 1.9125
2.9375 0.8125 1.9125
0.125 0.9375 1.975
0 0.9375 1.975
0.125 1 1.9125
0.0625 1 1.975
0 1 1.9125
0.125 0.9375 1.9125
0.0625 0.9375 1.975
0 0.9375 1.9125
0.0625 1 1.9125
0.0625 0.9375 1.9125
0.25 0.9375 1.975
0.25 1 1.9125
0.1875 1 1.975
0.25 0.9375 1.9125
0.1875 0.9375 1.975
0.1875 1 1.9125
0.1875 0.9375 1.9125
0.375 0.9375 1.975
0.375 1 1.9125
0.3125 1 1.975
0.375 0.9375 1.9125
0.3125 0.9375 1.975
0.3125 1 1.9125
0.3125 0.9375 1.9125
0.5 0.9375 1.975
0.5 1 1.9125
0.4375 1 1.975
0.5 0.9375 1.9125
0.4375 0.9375 1.975
0.4375 1 1.9125
0.4375 0.9375 1.9125
0.625 0.9375 1.975
0.625 1 1.9125
0.5625 1 1.975
0.625 0.9375 1.9125
0.5625 0.9375 1.975
0.5625 1 1.9125
0.5625 0.9375 1.9125
0.75 0.9375 1.975
0.75 1 1.9125
0.6875 1 1.975
0.75 0.9375 1.9125
0.6875 0.9375 1.975
0.6875 1 1.9125
0.6875 0.9375 1.9125
0.875 0.9375 1.975
0.875 1 1.9125
0.8125 1 1.975
0.875 0.9375 1.9125
0.8125 0.9375 1.975
0.8125 1 1.9125
0.8125 0.9375 1.9125
1 0.9375 1.975
1 1 1.9125
0.9375 1 1.975
1 0.9375 1.9125
0.9375 0.9375 1.975
0.9375 1 1.9125
0.9375 0.9375 1.9125
1.125 0.9375 1.975
1.125 1 1.9125
1.0625 1 1.975
1.125 0.9375 1.9125
1.0625 0.9375 1.975
1.0625 1 1.9125
1.0625 0.9375 1.9125
1.25 0.9375 1.975
1.25 1 1.9125
1.1875 1 1.975
1.25 0.9375 1.9125
1.1875 0.9375 1.975
1.1875 1 1.9125
1.1875 0.9375 1.9125
1.375 0.9375 1.975
1.375 1 1.9125
1.3125 1 1.975
1.375 0.9375 1.9125
1.3125 0.9375 1.975
1.3125 1 1.9125
1.3125 0.9375 1.9125
1.5 0.9375 1.975
1.5 1 1.9125
1.4375 1 1.975
1.5 0.9375 1.9125
1.4375 0.9375 1.975
1.4375 1 1.9125
1.4375 0.9375 1.9125
1.625 0.9375 1.975
1.625 1 1.9125
1.5625 1 1.975
1.625 0.9375 1.9125
1.5625 0.9375 1.975
1.5625 1 1.9125
1.5625 0.9375 1.9125
1.75 0.9375 1.975
1.75 1 1.9125
1.6875 1 1.975
1.75 0.9375 1.9125
1.6875 0.9375 1.975
1.6875 1 1.9125
1.6875 0.9375 1.9125
1.875 0.9375 1.975
1.875 1 1.9125
1.8125 1 1.975
1.875 0.9375 1.9125
1.8125 0.9375 1.975
1.8125 1 1.9125
1.8125 0.9375 1.9125
2 0.9375 1.975
2 1 1.9125
1.9375 1 1.975
2 0.9375 1.9125
1.9375 0.9375 1.975
1.9375 1 1.9125
1.9375 0.9375 1.9125
2.125 0.9375 1.975
2.125 1 1.9125
2.0625 1 1.975
2.125 0.9375 1.9125
2.0625 0.9375 1.975
2.0625 1 1.9125
2.0625 0.9375 1.9125
2.25 0.9375 1.975
2.25 1 1.9125
2.1875 1 1.975
2.25 0.9375 1.9125
2.1875 0.9375 1.975
2.1875 1 1.9125
2.1875 0.9375 1.9125
2.375 0.9375 1.975
2.375 1 1.9125
2.3125 1 1.975
2.375 0.9375 1.9125
2.3125 0.9375 1.975
2.3125 1 1.9125
2.3125 0.9375 1.9125
2.5 0.9375 1.975
2.5 1 1.9125
2.4375 1 1.975
2.5 0.9375 1.9125
2.4375 0.9375 1.975
2.4375 1 1.9125
2.4375 0.9375 1.9125
2.625 0.9375 1.975
2.625 1 1.9125
2.5625 1 1.975
2.625 0.9375 1.9125
2.5625 0.9375 1.975
2.5625 1 1.9125
2.5625 0.9375 1.9125
2.75 0.9375 1.975
2.75 1 1.9125
2.6875 1 1.975
2.75 0.9375 1.9125
2.6875 0.9375 1.975
2.6875 1 1.9125
2.6875 0.9375 1.9125
2.875 0.9375 1.975
2.875 1 1.9125
2.8125 1 1.975
2.875 0.9375 1.9125
2.8125 0.9375 1.975
2.8125 1 1.9125
2.8125 0.9375 1.9125
3 0.9375 1.975
3 1 1.9125
2.9375 1 1.975
3 0.9375 1.9125
2.9375 0.9375 1.975
2.9375 1 1.9125
2.9375 0.9375 1.9125
0.125 0 2.0375
0.0625 0 2.1
0 0 2.0375
0.125 0.0625 2.1
0 0.0625 2.1
0.125 0.125 2.0375
0.0625 0.125 2.1
0 0.125 2.0375
0.0625 0 2.0375
0.125 0.0625 2.0375
0.0625 0.0625 2.1
0 0.0625 2.0375
0.0625 0.125 2.0375
0.0625 0.0625 2.0375
0.25 0 2.0375
0.1875 0 2.1
0.25 0.0625 2.1
0.25 0.125 2.0375
0.1875 0.125 2.1
0.1875 0 2.0375
0.25 0.0625 2.0375
0.1875 0.0625 2.1
0.1875 0.125 2.0375
0.1875 0.0625 2.0375
0.375 0 2.0375
0.3125 0 2.1
0.375 0.0625 2.1
0.375 0.125 2.0375
0.3125 0.125 2.1
0.3125 0 2.0375
0.375 0.0625 2.0375
0.3125 0.0625 2.1
0.3125 0.125 2.0375
0.3125 0.0625 2.0375
0.5 0 2.0375
0.4375 0 2.1
0.5 0.0625 2.1
0.5 0.125 2.0375
0.4375 0.125 2.1
0.4375 0 2.0375
0.5 0.0625 2.0375
0.4375 0.0625 2.1
0.4375 0.125 2.0375
0.4375 0.0625 2.0375
0.625 0 2.0375
0.5625 0 2.1
0.625 0.0625 2.1
0.625 0.125 2.0375
0.5625 0.125 2.1
0.5625 0 2.0375
0.625 0.0625 2.0375
0.5625 0.0625 2.1
0.5625 0.125 2.0375
0.5625 0.0625 2.0375
0.75 0 2.0375
0.6875 0 2.1
0.75 0.0625 2.1
0.75 0.125 2.0375
0.6875 0.125 2.1
0.6875 0 2.0375
0.75 0.0625 2.0375
0.6875 0.0625 2.1
0.6875 0.125 2.0375
0.6875 0.0625 2.0375
0.875 0 2.0375
0.8125 0 2.1
0.875 0.0625 2.1
0.875 0.125 2.0375
0.8125 0.125 2.1
0.8125 0 2.0375
0.875 0.0625 2.0375
0.8125 0.0625 2.1
0.8125 0.125 2.0375
0.8125 0.0625 2.0375
1 0 2.0375
0.9375 0 2.1
1 0.0625 2.1
1 0.125 2.0375
0.9375 0.125 2.1
0.9375 0 2.0375
1 0.0625 2.0375
0.9375 0.0625 2.1
0.9375 0.125 2.0375
0.9375 0.0625 2.0375
1.125 0 2.0375
1.0625 0 2.1
1.125 0.0625 2.1
1.125 0.125 2.0375
1.0625 0.125 2.1
1.0625 0 2.0375
1.125 0.0625 2.0375
1.0625 0.0625 2.1
1.0625 0.125 2.0375
1.0625 0.0625 2.0375
1.25 0 2.0375
1.1875 0 2.1
1.25 0.0625 2.1
1.25 0.125 2.0375
1.1875 0.125 2.1
1.1875 0 2.0375
1.25 0.0625 2.0375
1.1875 0.0625 2.1
1.1875 0.125 2.0375
1.1875 0.0625 2.0375
1.375 0 2.0375
1.3125 0 2.1
1.375 0.0625 2.1
1.375 0.125 2.0375
1.3125 0.125 2.1
1.3125 0 2.0375
1.375 0.0625 2.0375
1.3125 0.0625 2.1
1.3125 0.125 2.0375
1.3125 0.0625 2.0375
1.5 0 2.0375
1.4375 0 2.1
1.5 0.0625 2.1
1.5 0.125 2.0375
1.4375 0.125 2.1
1.4375 0 2.0375
1.5 0.0625 2.0375
1.4375 0.0625 2.1
1.4375 0.125 2.0375
1.4375 0.0625 2.0375
1.625 0 2.0375
1.5625 0 2.1
1.625 0.0625 2.1
1.625 0.125 2.0375
1.5625 0.125 2.1
1.5625 0 2.0375
1.625 0.0625 2.0375
1.5625 0.0625 2.1
1.5625 0.125 2.0375
1.5625 0.0625 2.0375
1.75 0 2.0375
1.6875 0 2.1
1.75 0.0625 2.1
1.75 0.125 2.0375
1.6875 0.125 2.1
1.6875 0 2.0375
1.75 0.0625 2.0375
1.6875 0.0625 2.1
1.6875 0.125 2.0375
1.6875 0.0625 2.0375
1.875 0 2.0375
1.8125 0 2.1
1.875 0.0625 2.1
1.875 0.125 2.0375
1.8125 0.125 2.1
1.8125 0 2.0375
1.875 0.0625 2.0375
1.8125 0.0625 2.1
1.8125 0.125 2.0375
1.8125 0.0625 2.0375
2 0 2.0375
1.9375 0 2.1
2 0.0625 2.1
2 0.125 2.0375
1.9375 0.125 2.1
1.9375 0 2.0375
2 0.0625 2.0375
1.9375 0.0625 2.1
1.9375 0.125 2.0375
1.9375 0.0625 2.0375
2.125 0 2.0375
2.0625 0 2.1
2.125 0.0625 2.1
2.125 0.125 2.0375
2.0625 0.125 2.1
2.0625 0 2.0375
2.125 0.0625 2.0375
2.0625 0.0625 2.1
2.0625 0.125 2.0375
2.0625 0.0625 2.0375
2.25 0 2.0375
2.1875 0 2.1
2.25 0.0625 2.1
2.25 0.125 2.0375
2.1875 0.125 2.1
2.1875 0 2.0375
2.25 0.0625 2.0375
2.1875 0.0625 2.1
2.1875 0.125 2.0375
2.1875 0.0625 2.0375
2.375 0 2.0375
2.3125 0 2.1
2.375 0.0625 2.1
2.375 0.125 2.0375
2.3125 0.125 2.1
2.3125 0 2.0375
2.375 0.0625 2.0375
2.3125 0.0625 2.1
2.3125 0.125 2.0375
2.3125 0.0625 2.0375
2.5 0 2.0375
2.4375 0 2.1
2.5 0.0625 2.1
2.5 0.125 2.0375
2.4375 0.125 2.1
2.4375 0 2.0375
2.5 0.0625 2.0375
2.4375 0.0625 2.1
2.4375 0.125 2.0375
2.4375 0.0625 2.0375
2.625 0 2.0375
2.5625 0 2.1
2.625 0.0625 2.1
2.625 0.125 2.0375
2.5625 0.125 2.1
2.5625 0 2.0375
2.625 0.0625 2.0375
2.5625 0.0625 2.1
2.5625 0.125 2.0375
2.5625 0.0625 2.0375
2.75 0 2.0375
2.6875 0 2.1
2.75 0.0625 2.1
2.75 0.125 2.0375
2.6875 0.125 2.1
2.6875 0 2.0375
2.75 0.0625 2.0375
2.6875 0.0625 2.1
2.6875 0.125 2.0375
2.6875 0.0625 2.0375
2.875 0 2.0375
2.8125 0 2.1
2.875 0.0625 2.1
2.875 0.125 2.0375
2.8125 0.125 2.1
2.8125 0 2.0375
2.875 0.0625 2.0375
2.8125 0.0625 2.1
2.8125 0.125 2.0375
2.8125 0.0625 2.0375
3 0 2.0375
2.9375 0 2.1
3 0.0625 2.1
3 0.125 2.0375
2.9375 0.125 2.1
2.9375 0 2.0375
3 0.0625 2.0375
2.9375 0.0625 2.1
2.9375 0.125 2.0375
2.9375 0.0625 2.0375
0.125 0.1875 2.1
0 0.1875 2.1
0.125 0.25 2.0375
0.0625 0.25 2.1
0 0.25 2.0375
0.125 0.1875 2.0375
0.0625 0.1875 2.1
0 0.1875 2.0375
0.0625 0.25 2.0375
0.0625 0.1875 2.0375
0.25 0.1875 2.1
0.25 0.25 2.0375
0.1875 0.25 2.1
0.25 0.1875 2.0375
0.1875 0.1875 2.1
0.1875 0.25 2.0375
0.1875 0.1875 2.0375
0.375 0.1875 2.1
0.375 0.25 2.0375
0.3125 0.25 2.1
0.375 0.1875 2.0375
0.3125 0.1875 2.1
0.3125 0.25 2.0375
0.3125 0.1875 2.0375
0.5 0.1875 2.1
0.5 0.25 2.0375
0.4375 0.25 2.1
0.5 0.1875 2.0375
0.4375 0.1875 2.1
0.4375 0.25 2.0375
0.4375 0.1875 2.0375
0.625 0.1875 2.1
0.625 0.25 2.0375
0.5625 0.25 2.1
0.625 0.1875 2.0375
0.5625 0.1875 2.1
0.5625 0.25 2.0375
0.5625 0.1875 2.0375
0.75 0.1875 2.1
0.75 0.25 2.0375
0.6875 0.25 2.1
0.75 0.1875 2.0375
0.6875 0.1875 2.1
0.6875 0.25 2.0375
0.6875 0.1875 2.0375
0.875 0.1875 2.1
0.875 0.25 2.0375
0.8125 0.25 2.1
0.875 0.1875 2.0375
0.8125 0.1875 2.1
0.8125 0.25 2.0375
0.8125 0.1875 2.0375
1 0.1875 2.1
1 0.25 2.0375
0.9375 0.25 2.1
1 0.1875 2.0375
0.9375 0.1875 2.1
0.9375 0.25 2.0375
0.9375 0.1875 2.0375
1.125 0.1875 2.1
1.125 0.25 2.0375
1.0625 0.25 2.1
1.125 0.1875 2.0375
1.0625 0.1875 2.1
1.0625 0.25 2.0375
1.0625 0.1875 2.0375
1.25 0.1875 2.1
1.25 0.25 2.0375
1.1875 0.25 2.1
1.25 0.1875 2.0375
1.1875 0.1875 2.1
1.1875 0.25 2.0375
1.1875 0.1875 2.0375
1.375 0.1875 2.1
1.375 0.25 2.0375
1.3125 0.25 2.1
1.375 0.1875 2.0375
1.3125 0.1875 2.1
1.3125 0.25 2.0375
1.3125 0.1875 2.0375
1.5 0.1875 2.1
1.5 0.25 2.0375
1.4375 0.25 2.1
1.5 0.1875 2.0375
1.4375 0.1875 2.1
1.4375 0.25 2.0375
1.4375 0.1875 2.0375
1.625 0.1875 2.1
1.625 0.25 2.0375
1.5625 0.25 2.1
1.625 0.1875 2.0375
1.5625 0.1875 2.1
1.5625 0.25 2.0375
1.5625 0.1875 2.0375
1.75 0.1875 2.1
1.75 0.25 2.0375
1.6875 0.25 2.1
1.75 0.1875 2.0375
1.6875 0.1875 2.1
1.6875 0.25 2.0375
1.6875 0.1875 2.0375
1.875 0.1875 2.1
1.875 0.25 2.0375
1.8125 0.25 2.1
1.875 0.1875 2.0375
1.8125 0.1875 2.1
1.8125 0.25 2.0375
1.8125 0.1875 2.0375
2 0.1875 2.1
2 0.25 2.0375
1.9375 0.25 2.1
2 0.1875 2.0375
1.9375 0.1875 2.1
1.9375 0.25 2.0375
1.9375 0.1875 2.0375
2.125 0.1875 2.1
2.125 0.25 2.0375
2.0625 0.25 2.1
2.125 0.1875 2.0375
2.0625 0.1875 2.1
2.0625 0.25 2.0375
2.0625 0.1875 2.0375
2.25 0.1875 2.1
2.25 0.25 2.0375
2.1875 0.25 2.1
2.25 0.1875 2.0375
2.1875 0.1875 2.1
2.1875 0.25 2.0375
2.1875 0.1875 2.0375
2.375 0.1875 2.1
2.375 0.25 2.0375
2.3125 0.25 2.1
2.375 0.1875 2.0375
2.3125 0.1875 2.1
2.3125 0.25 2.0375
2.3125 0.1875 2.0375
2.5 0.1875 2.1
2.5 0.25 2.0375
2.4375 0.25 2.1
2.5 0.1875 2.0375
2.4375 0.1875 2.1
2.4375 0.25 2.0375
2.4375 0.1875 2.0375
2.625 0.1875 2.1
2.625 0.25 2.0375
2.5625 0.25 2.1
2.625 0.1875 2.0375
2.5625 0.1875 2.1
2.5625 0.25 2.0375
2.5625 0.1875 2.0375
2.75 0.1875 2.1
2.75 0.25 2.0375
2.6875 0.25 2.1
2.75 0.1875 2.0375
2.6875 0.1875 2.1
2.6875 0.25 2.0375
2.6875 0.1875 2.0375
2.875 0.1875 2.1
2.875 0.25 2.0375
2.8125 0.25 2.1
2.875 0.1875 2.0375
2.8125 0.1875 2.1
2.8125 0.25 2.0375
2.8125 0.1875 2.0375
3 0.1875 2.1
3 0.25 2.0375
2.9375 0.25 2.1
3 0.1875 2.0375
2.9375 0.1875 2.1
2.9375 0.25 2.0375
2.9375 0.1875 2.0375
0.125 0.3125 2.1
0 0.3125 2.1
0.125 0.375 2.0375
0.0625 0.375 2.1
0 0.375 2.0375
0.125 0.3125 2.0375
0.0625 0.3125 2.1
0 0.3125 2.0375
0.0625 0.375 2.0375
0.0625 0.3125 2.0375
0.25 0.3125 2.1
0.25 0.375 2.0375
0.1875 0.375 2.1
0.25 0.3125 2.0375
0.1875 0.3125 2.1
0.1875 0.375 2.0375
0.1875 0.3125 2.0375
0.375 0.3125 2.1
0.375 0.375 2.0375
0.3125 0.375 2.1
0.375 0.3125 2.0375
0.3125 0.3125 2.1
0.3125 0.375 2.0375
0.3125 0.3125 2.0375
0.5 0.3125 2.1
0.5 0.375 2.0375
0.4375 0.375 2.1
0.5 0.3125 2.0375
0.4375 0.3125 2.1
0.4375 0.375 2.0375
0.4375 0.3125 2.0375
0.625 0.3125 2.1
0.625 0.375 2.0375
0.5625 0.375 2.1
0.625 0.3125 2.0375
0.5625 0.3125 2.1
0.5625 0.375 2.0375
0.5625 0.3125 2.0375
0.75 0.3125 2.1
0.75 0.375 2.0375
0.6875 0.375 2.1
0.75 0.3125 2.0375
0.6875 0.3125 2.1
0.6875 0.375 2.0375
0.6875 0.3125 2.0375
0.875 0.3125 2.1
0.875 0.375 2.0375
0.8125 0.375 2.1
0.875 0.3125 2.0375
0.8125 0.3125 2.1
0.8125 0.375 2.0375
0.8125 0.3125 2.0375
1 0.3125 2.1
1 0.375 2.0375
0.9375 0.375 2.1
1 0.3125 2.0375
0.9375 0.3125 2.1
0.9375 0.375 2.0375
0.9375 0.3125 2.0375
1.125 0.3125 2.1
1.125 0.375 2.0375
1.0625 0.375 2.1
1.125 0.3125 2.0375
1.0625 0.3125 2.1
1.0625 0.375 2.0375
1.0625 0.3125 2.0375
1.25 0.3125 2.1
1.25 0.375 2.0375
1.1875 0.375 2.1
1.25 0.3125 2.0375
1.1875 0.3125 2.1
1.1875 0.375 2.0375
1.1875 0.3125 2.0375
1.375 0.3125 2.1
1.375 0.375 2.0375
1.3125 0.375 2.1
1.375 0.3125 2.0375
1.3125 0.3125 2.1
1.3125 0.375 2.0375
1.3125 0.3125 2.0375
1.5 0.3125 2.1
1.5 0.375 2.0375
1.4375 0.375 2.1
1.5 0.3125 2.0375
1.4375 0.3125 2.1
1.4375 0.375 2.0375
1.4375 0.3125 2.0375
1.625 0.3125 2.1
1.625 0.375 2.0375
1.5625 0.375 2.1
1.625 0.3125 2.0375
1.5625 0.3125 2.1
1.5625 0.375 2.0375
1.5625 0.3125 2.0375
1.75 0.3125 2.1
1.75 0.375 2.0375
1.6875 0.375 2.1
1.75 0.3125 2.0375
1.6875 0.3125 2.1
1.6875 0.375 2.0375
1.6875 0.3125 2.0375
1.875 0.3125 2.1
1.875 0.375 2.0375
1.8125 0.375 2.1
1.875 0.3125 2.0375
1.8125 0.3125 2.1
1.8125 0.375 2.0375
1.8125 0.3125 2.0375
2 0.3125 2.1
2 0.375 2.0375
1.9375 0.375 2.1
2 0.3125 2.0375
1.9375 0.3125 2.1
1.9375 0.375 2.0375
1.9375 0.3125 2.0375
2.125 0.3125 2.1
2.125 0.375 2.0375
2.0625 0.375 2.1
2.125 0.3125 2.0375
2.0625 0.3125 2.1
2.0625 0.375 2.0375
2.0625 0.3125 2.0375
2.25 0.3125 2.1
2.25 0.375 2.0375
2.1875 0.375 2.1
2.25 0.3125 2.0375
2.1875 0.3125 2.1
2.1875 0.375 2.0375
2.1875 0.3125 2.0375
2.375 0.3125 2.1
2.375 0.375 2.0375
2.3125 0.375 2.1
2.375 0.3125 2.0375
2.3125 0.3125 2.1
2.3125 0.375 2.0375
2.3125 0.3125 2.0375
2.5 0.3125 2.1
2.5 0.375 2.0375
2.4375 0.375 2.1
2.5 0.3125 2.0375
2.4375 0.3125 2.1
2.4375 0.375 2.0375
2.4375 0.3125 2.0375
2.625 0.3125 2.1
2.625 0.375 2.0375
2.5625 0.375 2.1
2.625 0.3125 2.0375
2.5625 0.3125 2.1
2.5625 0.375 2.0375
2.5625 0.3125 2.0375
2.75 0.3125 2.1
2.75 0.375 2.0375
2.6875 0.375 2.1
2.75 0.3125 2.0375
2.6875 0.3125 2.1
2.6875 0.375 2.0375
2.6875 0.3125 2.0375
2.875 0.3125 2.1
2.875 0.375 2.0375
2.8125 0.375 2.1
2.875 0.3125 2.0375
2.8125 0.3125 2.1
2.8125 0.375 2.0375
2.8125 0.3125 2.0375
3 0.3125 2.1
3 0.375 2.0375
2.9375 0.375 2.1
3 0.3125 2.0375
2.9375 0.3125 2.1
2.9375 0.375 2.0375
2.9375 0.3125 2.0375
0.125 0.4375 2.1
0 0.4375 2.1
0.125 0.5 2.0375
0.0625 0.5 2.1
0 0.5 2.0375
0.125 0.4375 2.0375
0.0625 0.4375 2.1
0 0.4375 2.0375
0.0625 0.5 2.0375
0.0625 0.4375 2.0375
0.25 0.4375 2.1
0.25 0.5 2.0375
0.1875 0.5 2.1
0.25 0.4375 2.0375
0.1875 0.4375 2.1
0.1875 0.5 2.0375
0.1875 0.4375 2.0375
0.375 0.4375 2.1
0.375 0.5 2.0375
0.3125 0.5 2.1
0.375 0.4375 2.0375
0.3125 0.4375 2.1
0.3125 0.5 2.0375
0.3125 0.4375 2.0375
0.5 0.4375 2.1
0.5 0.5 2.0375
0.4375 0.5 2.1
0.5 0.4375 2.0375
0.4375 0.4375 2.1
0.4375 0.5 2.0375
0.4375 0.4375 2.0375
0.625 0.4375 2.1
0.625 0.5 2.0375
0.5625 0.5 2.1
0.625 0.4375 2.0375
0.5625 0.4375 2.1
0.5625 0.5 2.0375
0.5625 0.4375 2.0375
0.75 0.4375 2.1
0.75 0.5 2.0375
0.6875 0.5 2.1
0.75 0.4375 2.0375
0.6875 0.4375 2.1
0.6875 0.5 2.0375
0.6875 0.4375 2.0375
0.875 0.4375 2.1
0.875 0.5 2.0375
0.8125 0.5 2.1
0.875 0.4375 2.0375
0.8125 0.4375 2.1
0.8125 0.5 2.0375
0.8125 0.4375 2.0375
1 0.4375 2.1
1 0.5 2.0375
0.9375 0.5 2.1
1 0.4375 2.0375
0.9375 0.4375 2.1
0.9375 0.5 2.0375
0.9375 0.4375 2.0375
1.125 0.4375 2.1
1.125 0.5 2.0375
1.0625 0.5 2.1
1.125 0.4375 2.0375
1.0625 0.4375 2.1
1.0625 0.5 2.0375
1.0625 0.4375 2.0375
1.25 0.4375 2.1
1.25 0.5 2.0375
1.1875 0.5 2.1
1.25 0.4375 2.0375
1.1875 0.4375 2.1
1.1875 0.5 2.0375
1.1875 0.4375 2.0375
1.375 0.4375 2.1
1.375 0.5 2.0375
1.3125 0.5 2.1
1.375 0.4375 2.0375
1.3125 0.4375 2.1
1.3125 0.5 2.0375
1.3125 0.4375 2.0375
1.5 0.4375 2.1
1.5 0.5 2.0375
1.4375 0.5 2.1
1.5 0.4375 2.0375
1.4375 0.4375 2.1
1.4375 0.5 2.0375
1.4375 0.4375 2.0375
1.625 0.4375 2.1
1.625 0.5 2.0375
1.5625 0.5 2.1
1.625 0.4375 2.0375
1.5625 0.4375 2.1
1.5625 0.5 2.0375
1.5625 0.4375 2.0375
1.75 0.4375 2.1
1.75 0.5 2.0375
1.6875 0.5 2.1
1.75 0.4375 2.0375
1.6875 0.4375 2.1
1.6875 0.5 2.0375
1.6875 0.4375 2.0375
1.875 0.4375 2.1
1.875 0.5 2.0375
1.8125 0.5 2.1
1.875 0.4375 2.0375
1.8125 0.4375 2.1
1.8125 0.5 2.0375
1.8125 0.4375 2.0375
2 0.4375 2.1
2 0.5 2.0375
1.9375 0.5 2.1
2 0.4375 2.0375
1.9375 0.4375 2.1
1.9375 0.5 2.0375
1.9375 0.4375 2.0375
2.125 0.4375 2.1
2.125 0.5 2.0375
2.0625 0.5 2.1
2.125 0.4375 2.0375
2.0625 0.4375 2.1
2.0625 0.5 2.0375
2.0625 0.4375 2.0375
2.25 0.4375 2.1
2.25 0.5 2.0375
2.1875 0.5 2.1
2.25 0.4375 2.0375
2.1875 0.4375 2.1
2.1875 0.5 2.0375
2.1875 0.4375 2.0375
2.375 0.4375 2.1
2.375 0.5 2.0375
2.3125 0.5 2.1
2.375 0.4375 2.0375
2.3125 0.4375 2.1
2.3125 0.5 2.0375
2.3125 0.4375 2.0375
2.5 0.4375 2.1
2.5 0.5 2.0375
2.4375 0.5 2.1
2.5 0.4375 2.0375
2.4375 0.4375 2.1
2.4375 0.5 2.0375
2.4375 0.4375 2.0375
2.625 0.4375 2.1
2.625 0.5 2.0375
2.5625 0.5 2.1
2.625 0.4375 2.0375
2.5625 0.4375 2.1
2.5625 0.5 2.0375
2.5625 0.4375 2.0375
2.75 0.4375 2.1
2.75 0.5 2.0375
2.6875 0.5 2.1
2.75 0.4375 2.0375
2.6875 0.4375 2.1
2.6875 0.5 2.0375
2.6875 0.4375 2.0375
2.875 0.4375 2.1
2.875 0.5 2.0375
2.8125 0.5 2.1
2.875 0.4375 2.0375
2.8125 0.4375 2.1
2.8125 0.5 2.0375
2.8125 0.4375 2.0375
3 0.4375 2.1
3 0.5 2.0375
2.9375 0.5 2.1
3 0.4375 2.0375
2.9375 0.4375 2.1
2.9375 0.5 2.0375
2.9375 0.4375 2.0375
0.125 0.5625 2.1
0 0.5625 2.1
0.125 0.625 2.0375
0.0625 0.625 2.1
0 0.625 2.0375
0.125 0.5625 2.0375
0.0625 0.5625 2.1
0 0.5625 2.0375
0.0625 0.625 2.0375
0.0625 0.5625 2.0375
0.25 0.5625 2.1
0.25 0.625 2.0375
0.1875 0.625 2.1
0.25 0.5625 2.0375
0.1875 0.5625 2.1
0.1875 0.625 2.0375
0.1875 0.5625 2.0375
0.375 0.5625 2.1
0.375 0.625 2.0375
0.3125 0.625 2.1
0.375 0.5625 2.0375
0.3125 0.5625 2.1
0.3125 0.625 2.0375
0.3125 0.5625 2.0375
0.5 0.5625 2.1
0.5 0.625 2.0375
0.4375 0.625 2.1
0.5 0.5625 2.0375
0.4375 0.5625 2.1
0.4375 0.625 2.0375
0.4375 0.5625 2.0375
0.625 0.5625 2.1
0.625 0.625 2.0375
0.5625 0.625 2.1
0.625 0.5625 2.0375
0.5625 0.5625 2.1
0.5625 0.625 2.0375
0.5625 0.5625 2.0375
0.75 0.5625 2.1
0.75 0.625 2.0375
0.6875 0.625 2.1
0.75 0.5625 2.0375
0.6875 0.5625 2.1
0.6875 0.625 2.0375
0.6875 0.5625 2.0375
0.875 0.5625 2.1
0.875 0.625 2.0375
0.8125 0.625 2.1
0.875 0.5625 2.0375
0.8125 0.5625 2.1
0.8125 0.625 2.0375
0.8125 0.5625 2.0375
1 0.5625 2.1
1 0.625 2.0375
0.9375 0.625 2.1
1 0.5625 2.0375
0.9375 0.5625 2.1
0.9375 0.625 2.0375
0.9375 0.5625 2.0375
1.125 0.5625 2.1
1.125 0.625 2.0375
1.0625 0.625 2.1
1.125 0.5625 2.0375
1.0625 0.5625 2.1
1.0625 0.625 2.0375
1.0625 0.5625 2.0375
1.25 0.5625 2.1
1.25 0.625 2.0375
1.1875 0.625 2.1
1.25 0.5625 2.0375
1.1875 0.5625 2.1
1.1875 0.625 2.0375
1.1875 0.5625 2.0375
1.375 0.5625 2.1
1.375 0.625 2.0375
1.3125 0.625 2.1
1.375 0.5625 2.0375
1.3125 0.5625 2.1
1.3125 0.625 2.0375
1.3125 0.5625 2.0375
1.5 0.5625 2.1
1.5 0.625 2.0375
1.4375 0.625 2.1
1.5 0.5625 2.0375
1.4375 0.5625 2.1
1.4375 0.625 2.0375
1.4375 0.5625 2.0375
1.625 0.5625 2.1
1.625 0.625 2.0375
1.5625 0.625 2.1
1.625 0.5625 2.0375
1.5625 0.5625 2.1
1.5625 0.625 2.0375
1.5625 0.5625 2.0375
1.75 0.5625 2.1
1.75 0.625 2.0375
1.6875 0.625 2.1
1.75 0.5625 2.0375
1.6875 0.5625 2.1
1.6875 0.625 2.0375
1.6875 0.5625 2.0375
1.875 0.5625 2.1
1.875 0.625 2.0375
1.8125 0.625 2.1
1.875 0.5625 2.0375
1.8125 0.5625 2.1
1.8125 0.625 2.0375
1.8125 0.5625 2.0375
2 0.5625 2.1
2 0.625 2.0375
1.9375 0.625 2.1
2 0.5625 2.0375
1.9375 0.5625 2.1
1.9375 0.625 2.0375
1.9375 0.5625 2.0375
2.125 0.5625 2.1
2.125 0.625 2.0375
2.0625 0.625 2.1
2.125 0.5625 2.0375
2.0625 0.5625 2.1
2.0625 0.625 2.0375
2.0625 0.5625 2.0375
2.25 0.5625 2.1
2.25 0.625 2.0375
2.1875 0.625 2.1
2.25 0.5625 2.0375
2.1875 0.5625 2.1
2.1875 0.625 2.0375
2.1875 0.5625 2.0375
2.375 0.5625 2.1
2.375 0.625 2.0375
2.3125 0.625 2.1
2.375 0.5625 2.0375
2.3125 0.5625 2.1
2.3125 0.625 2.0375
2.3125 0.5625 2.0375
2.5 0.5625 2.1
2.5 0.625 2.0375
2.4375 0.625 2.1
2.5 0.5625 2.0375
2.4375 0.5625 2.1
2.4375 0.625 2.0375
2.4375 0.5625 2.0375
2.625 0.5625 2.1
2.625 0.625 2.0375
2.5625 0.625 2.1
2.625 0.5625 2.0375
2.5625 0.5625 2.1
2.5625 0.625 2.0375
2.5625 0.5625 2.0375
2.75 0.5625 2.1
2.75 0.625 2.0375
2.6875 0.625 2.1
2.75 0.5625 2.0375
2.6875 0.5625 2.1
2.6875 0.625 2.0375
2.6875 0.5625 2.0375
2.875 0.5625 2.1
2.875 0.625 2.0375
2.8125 0.625 2.1
2.875 0.5625 2.0375
2.8125 0.5625 2.1
2.8125 0.625 2.0375
2.8125 0.5625 2.0375
3 0.5625 2.1
3 0.625 2.0375
2.9375 0.625 2.1
3 0.5625 2.0375
2.9375 0.5625 2.1
2.9375 0.625 2.0375
2.9375 0.5625 2.0375
0.125 0.6875 2.1
0 0.6875 2.1
0.125 0.75 2.0375
0.0625 0.75 2.1
0 0.75 2.0375
0.125 0.6875 2.0375
0.0625 0.6875 2.1
0 0.6875 2.0375
0.0625 0.75 2.0375
0.0625 0.6875 2.0375
0.25 0.6875 2.1
0.25 0.75 2.0375
0.1875 0.75 2.1
0.25 0.6875 2.0375
0.1875 0.6875 2.1
0.1875 0.75 2.0375
0.1875 0.6875 2.0375
0.375 0.6875 2.1
0.375 0.75 2.0375
0.3125 0.75 2.1
0.375 0.6875 2.0375
0.3125 0.6875 2.1
0.3125 0.75 2.0375
0.3125 0.6875 2.0375
0.5 0.6875 2.1
0.5 0.75 2.0375
0.4375 0.75 2.1
0.5 0.6875 2.0375
0.4375 0.6875 2.1
0.4375 0.75 2.0375
0.4375 0.6875 2.0375
0.625 0.6875 2.1
0.625 0.75 2.0375
0.5625 0.75 2.1
0.625 0.6875 2.0375
0.5625 0.6875 2.1
0.5625 0.75 2.0375
0.5625 0.6875 2.0375
0.75 0.6875 2.1
0.75 0.75 2.0375
0.6875 0.75 2.1
0.75 0.6875 2.0375
0.6875 0.6875 2.1
0.6875 0.75 2.0375
0.6875 0.6875 2.0375
0.875 0.6875 2.1
0.875 0.75 2.0375
0.8125 0.75 2.1
0.875 0.6875 2.0375
0.8125 0.6875 2.1
0.8125 0.75 2.0375
0.8125 0.6875 2.0375
1 0.6875 2.1
1 0.75 2.0375
0.9375 0.75 2.1
1 0.6875 2.0375
0.9375 0.6875 2.1
0.9375 0.75 2.0375
0.9375 0.6875 2.0375
1.125 0.6875 2.1
1.125 0.75 2.0375
1.0625 0.75 2.1
1.125 0.6875 2.0375
1.0625 0.6875 2.1
1.0625 0.75 2.0375
1.0625 0.6875 2.0375
1.25 0.6875 2.1
1.25 0.75 2.0375
1.1875 0.75 2.1
1.25 0.6875 2.0375
1.1875 0.6875 2.1
1.1875 0.75 2.0375
1.1875 0.6875 2.0375
1.375 0.6875 2.1
1.375 0.75 2.0375
1.3125 0.75 2.1
1.375 0.6875 2.0375
1.3125 0.6875 2.1
1.3125 0.75 2.0375
1.3125 0.6875 2.0375
1.5 0.6875 2.1
1.5 0.75 2.0375
1.4375 0.75 2.1
1.5 0.6875 2.0375
1.4375 0.6875 2.1
1.4375 0.75 2.0375
1.4375 0.6875 2.0375
1.625 0.6875 2.1
1.625 0.75 2.0375
1.5625 0.75 2.1
1.625 0.6875 2.0375
1.5625 0.6875 2.1
1.5625 0.75 2.0375
1.5625 0.6875 2.0375
1.75 0.6875 2.1
1.75 0.75 2.0375
1.6875 0.75 2.1
1.75 0.6875 2.0375
1.6875 0.6875 2.1
1.6875 0.75 2.0375
1.6875 0.6875 2.0375
1.875 0.6875 2.1
1.875 0.75 2.0375
1.8125 0.75 2.1
1.875 0.6875 2.0375
1.8125 0.6875 2.1
1.8125 0.75 2.0375
1.8125 0.6875 2.0375
2 0.6875 2.1
2 0.75 2.0375
1.9375 0.75 2.1
2 0.6875 2.0375
1.9375 0.6875 2.1
1.9375 0.75 2.0375
1.9375 0.6875 2.0375
2.125 0.6875 2.1
2.125 0.75 2.0375
2.0625 0.75 2.1
2.125 0.6875 2.0375
2.0625 0.6875 2.1
2.0625 0.75 2.0375
2.0625 0.6875 2.0375
2.25 0.6875 2.1
2.25 0.75 2.0375
2.1875 0.75 2.1
2.25 0.6875 2.0375
2.1875 0.6875 2.1
2.1875 0.75 2.0375
2.1875 0.6875 2.0375
2.375 0.6875 2.1
2.375 0.75 2.0375
2.3125 0.75 2.1
2.375 0.6875 2.0375
2.3125 0.6875 2.1
2.3125 0.75 2.0375
2.3125 0.6875 2.0375
2.5 0.6875 2.1
2.5 0.75 2.0375
2.4375 0.75 2.1
2.5 0.6875 2.0375
2.4375 0.6875 2.1
2.4375 0.75 2.0375
2.4375 0.6875 2.0375
2.625 0.6875 2.1
2.625 0.75 2.0375
2.5625 0.75 2.1
2.625 0.6875 2.0375
2.5625 0.6875 2.1
2.5625 0.75 2.0375
2.5625 0.6875 2.0375
2.75 0.6875 2.1
2.75 0.75 2.0375
2.6875 0.75 2.1
2.75 0.6875 2.0375
2.6875 0.6875 2.1
2.6875 0.75 2.0375
2.6875 0.6875 2.0375
2.875 0.6875 2.1
2.875 0.75 2.0375
2.8125 0.75 2.1
2.875 0.6875 2.0375
2.8125 0.6875 2.1
2.8125 0.75 2.0375
2.8125 0.6875 2.0375
3 0.6875 2.1
3 0.75 2.0375
2.9375 0.75 2.1
3 0.6875 2.0375
2.9375 0.6875 2.1
2.9375 0.75 2.0375
2.9375 0.6875 2.0375
0.125 0.8125 2.1
0 0.8125 2.1
0.125 0.875 2.0375
0.0625 0.875 2.1
0 0.875 2.0375
0.125 0.8125 2.0375
0.0625 0.8125 2.1
0 0.8125 2.0375
0.0625 0.875 2.0375
0.0625 0.8125 2.0375
0.25 0.8125 2.1
0.25 0.875 2.0375
0.1875 0.875 2.1
0.25 0.8125 2.0375
0.1875 0.8125 2.1
0.1875 0.875 2.0375
0.1875 0.8125 2.0375
0.375 0.8125 2.1
0.375 0.875 2.0375
0.3125 0.875 2.1
0.375 0.8125 2.0375
0.3125 0.8125 2.1
0.3125 0.875 2.0375
0.3125 0.8125 2.0375
0.5 0.8125 2.1
0.5 0.875 2.0375
0.4375 0.875 2.1
0.5 0.8125 2.0375
0.4375 0.8125 2.1
0.4375 0.875 2.0375
0.4375 0.8125 2.0375
0.625 0.8125 2.1
0.625 0.875 2.0375
0.5625 0.875 2.1
0.625 0.8125 2.0375
0.5625 0.8125 2.1
0.5625 0.875 2.0375
0.5625 0.8125 2.0375
0.75 0.8125 2.1
0.75 0.875 2.0375
0.6875 0.875 2.1
0.75 0.8125 2.0375
0.6875 0.8125 2.1
0.6875 0.875 2.0375
0.6875 0.8125 2.0375
0.875 0.8125 2.1
0.875 0.875 2.0375
0.8125 0.875 2.1
0.875 0.8125 2.0375
0.8125 0.8125 2.1
0.8125 0.875 2.0375
0.8125 0.8125 2.0375
1 0.8125 2.1
1 0.875 2.0375
0.9375 0.875 2.1
1 0.8125 2.0375
0.9375 0.8125 2.1
0.9375 0.875 2.0375
0.9375 0.8125 2.0375
1.125 0.8125 2.1
1.125 0.875 2.0375
1.0625 0.875 2.1
1.125 0.8125 2.0375
1.0625 0.8125 2.1
1.0625 0.875 2.0375
1.0625 0.8125 2.0375
1.25 0.8125 2.1
1.25 0.875 2.0375
1.1875 0.875 2.1
1.25 0.8125 2.0375
1.1875 0.8125 2.1
1.1875 0.875 2.0375
1.1875 0.8125 2.0375
1.375 0.8125 2.1
1.375 0.875 2.0375
1.3125 0.875 2.1
1.375 0.8125 2.0375
1.3125 0.8125 2.1
1.3125 0.875 2.0375
1.3125 0.8125 2.0375
1.5 0.8125 2.1
1.5 0.875 2.0375
1.4375 0.875 2.1
1.5 0.8125 2.0375
1.4375 0.8125 2.1
1.4375 0.875 2.0375
1.4375 0.8125 2.0375
1.625 0.8125 2.1
1.625 0.875 2.0375
1.5625 0.875 2.1
1.625 0.8125 2.0375
1.5625 0.8125 2.1
1.5625 0.875 2.0375
1.5625 0.8125 2.0375
1.75 0.8125 2.1
1.75 0.875 2.0375
1.6875 0.875 2.1
1.75 0.8125 2.0375
1.6875 0.8125 2.1
1.6875 0.875 2.0375
1.6875 0.8125 2.0375
1.875 0.8125 2.1
1.875 0.875 2.0375
1.8125 0.875 2.1
1.875 0.8125 2.0375
1.8125 0.8125 2.1
1.8125 0.875 2.0375
1.8125 0.8125 2.0375
2 0.8125 2.1
2 0.875 2.0375
1.9375 0.875 2.1
2 0.8125 2.0375
1.9375 0.8125 2.1
1.9375 0.875 2.0375
1.9375 0.8125 2.0375
2.125 0.8125 2.1
2.125 0.875 2.0375
2.0625 0.875 2.1
2.125 0.8125 2.0375
2.0625 0.8125 2.1
2.0625 0.875 2.0375
2.0625 0.8125 2.0375
2.25 0.8125 2.1
2.25 0.875 2.0375
2.1875 0.875 2.1
2.25 0.8125 2.0375
2.1875 0.8125 2.1
2.1875 0.875 2.0375
2.1875 0.8125 2.0375
2.375 0.8125 2.1
2.375 0.875 2.0375
2.3125 0.875 2.1
2.375 0.8125 2.0375
2.3125 0.8125 2.1
2.3125 0.875 2.0375
2.3125 0.8125 2.0375
2.5 0.8125 2.1
2.5 0.875 2.0375
2.4375 0.875 2.1
2.5 0.8125 2.0375
2.4375 0.8125 2.1
2.4375 0.875 2.0375
2.4375 0.8125 2.0375
2.625 0.8125 2.1
2.625 0.875 2.0375
2.5625 0.875 2.1
2.625 0.8125 2.0375
2.5625 0.8125 2.1
2.5625 0.875 2.0375
2.5625 0.8125 2.0375
2.75 0.8125 2.1
2.75 0.875 2.0375
2.6875 0.875 2.1
2.75 0.8125 2.0375
2.6875 0.8125 2.1
2.6875 0.875 2.0375
2.6875 0.8125 2.0375
2.875 0.8125 2.1
2.875 0.875 2.0375
2.8125 0.875 2.1
2.875 0.8125 2.0375
2.8125 0.8125 2.1
2.8125 0.875 2.0375
2.8125 0.8125 2.0375
3 0.8125 2.1
3 0.875 2.0375
2.9375 0.875 2.1
3 0.8125 2.0375
2.9375 0.8125 2.1
2.9375 0.875 2.0375
2.9375 0.8125 2.0375
0.125 0.9375 2.1
0 0.9375 2.1
0.125 1 2.0375
0.0625 1 2.1
0 1 2.0375
0.125 0.9375 2.0375
0.0625 0.9375 2.1
0 0.9375 2.0375
0.0625 1 2.0375
0.0625 0.9375 2.0375
0.25 0.9375 2.1
0.25 1 2.0375
0.1875 1 2.1
0.25 0.9375 2.0375
0.1875 0.9375 2.1
0.1875 1 2.0375
0.1875 0.9375 2.0375
0.375 0.9375 2.1
0.375 1 2.0375
0.3125 1 2.1
0.375 0.9375 2.0375
0.3125 0.9375 2.1
0.3125 1 2.0375
0.3125 0.9375 2.0375
0.5 0.9375 2.1
0.5 1 2.0375
0.4375 1 2.1
0.5 0.9375 2.0375
0.4375 0.9375 2.1
0.4375 1 2.0375
0.4375 0.9375 2.0375
0.625 0.9375 2.1
0.625 1 2.0375
0.5625 1 2.1
0.625 0.9375 2.0375
0.5625 0.9375 2.1
0.5625 1 2.0375
0.5625 0.9375 2.0375
0.75 0.9375 2.1
0.75 1 2.0375
0.6875 1 2.1
0.75 0.9375 2.0375
0.6875 0.9375 2.1
0.6875 1 2.0375
0.6875 0.9375 2.0375
0.875 0.9375 2.1
0.875 1 2.0375
0.8125 1 2.1
0.875 0.9375 2.0375
0.8125 0.9375 2.1
0.8125 1 2.0375
0.8125 0.9375 2.0375
1 0.9375 2.1
1 1 2.0375
0.9375 1 2.1
1 0.9375 2.0375
0.9375 0.9375 2.1
0.9375 1 2.0375
0.9375 0.9375 2.0375
1.125 0.9375 2.1
1.125 1 2.0375
1.0625 1 2.1
1.125 0.9375 2.0375
1.0625 0.9375 2.1
1.0625 1 2.0375
1.0625 0.9375 2.0375
1.25 0.9375 2.1
1.25 1 2.0375
1.1875 1 2.1
1.25 0.9375 2.0375
1.1875 0.9375 2.1
1.1875 1 2.0375
1.1875 0.9375 2.0375
1.375 0.9375 2.1
1.375 1 2.0375
1.3125 1 2.1
1.375 0.9375 2.0375
1.3125 0.9375 2.1
1.3125 1 2.0375
1.3125 0.9375 2.0375
1.5 0.9375 2.1
1.5 1 2.0375
1.4375 1 2.1
1.5 0.9375 2.0375
1.4375 0.9375 2.1
1.4375 1 2.0375
1.4375 0.9375 2.0375
1.625 0.9375 2.1
1.625 1 2.0375
1.5625 1 2.1
1.625 0.9375 2.0375
1.5625 0.9375 2.1
1.5625 1 2.0375
1.5625 0.9375 2.0375
1.75 0.9375 2.1
1.75 1 2.0375
1.6875 1 2.1
1.75 0.9375 2.0375
1.6875 0.9375 2.1
1.6875 1 2.0375
1.6875 0.9375 2.0375
1.875 0.9375 2.1
1.875 1 2.0375
1.8125 1 2.1
1.875 0.9375 2.0375
1.8125 0.9375 2.1
1.8125 1 2.0375
1.8125 0.9375 2.0375
2 0.9375 2.1
2 1 2.0375
1.9375 1 2.1
2 0.9375 2.0375
1.9375 0.9375 2.1
1.9375 1 2.0375
1.9375 0.9375 2.0375
2.125 0.9375 2.1
2.125 1 2.0375
2.0625 1 2.1
2.125 0.9375 2.0375
2.0625 0.9375 2.1
2.0625 1 2.0375
2.0625 0.9375 2.0375
2.25 0.9375 2.1
2.25 1 2.0375
2.1875 1 2.1
2.25 0.9375 2.0375
2.1875 0.9375 2.1
2.1875 1 2.0375
2.1875 0.9375 2.0375
2.375 0.9375 2.1
2.375 1 2.0375
2.3125 1 2.1
2.375 0.9375 2.0375
2.3125 0.9375 2.1
2.3125 1 2.0375
2.3125 0.9375 2.0375
2.5 0.9375 2.1
2.5 1 2.0375
2.4375 1 2.1
2.5 0.9375 2.0375
2.4375 0.9375 2.1
2.4375 1 2.0375
2.4375 0.9375 2.0375
2.625 0.9375 2.1
2.625 1 2.0375
2.5625 1 2.1
2.625 0.9375 2.0375
2.5625 0.9375 2.1
2.5625 1 2.0375
2.5625 0.9375 2.0375
2.75 0.9375 2.1
2.75 1 2.0375
2.6875 1 2.1
2.75 0.9375 2.0375
2.6875 0.9375 2.1
2.6875 1 2.0375
2.6875 0.9375 2.0375
2.875 0.9375 2.1
2.875 1 2.0375
2.8125 1 2.1
2.875 0.9375 2.0375
2.8125 0.9375 2.1
2.8125 1 2.0375
2.8125 0.9375 2.0375
3 0.9375 2.1
3 1 2.0375
2.9375 1 2.1
3 0.9375 2.0375
2.9375 0.9375 2.1
2.9375 1 2.0375
2.9375 0.9375 2.0375

CELLS 1537 41472
OFFSETS vtktypeint64
0 27 54 81 108 135 162 189 216 243 270 297 324 351 378 405 432 459 486 513 540 567 594 621 648 675 702 729 756 783 810 837 864 891 918 945 972 999 1026 1053 1080 1107 1134 1161 1188 1215 1242 1269 1296 1323 1350 1377 1404 1431 1458 1485 1512 1539 1566 1593 1620 1647 1674 1701 1728 1755 1782 1809 1836 1863 1890 1917 1944 1971 1998 2025 2052 2079 2106 2133 2160 2187 2214 2241 2268 2295 2322 2349 2376 2403 2430 2457 2484 2511 2538 2565 2592 2619 2646 2673 2700 2727 2754 2781 2808 2835 2862 2889 2916 2943 2970 2997 3024 3051 3078 3105 3132 3159 3186 3213 3240 3267 3294 3321 3348 3375 3402 3429 3456 3483 3510 3537 3564 3591 3618 3645 3672 3699 3726 3753 3780 3807 3834 3861 3888 3915 3942 3969 3996 4023 4050 4077 4104 4131 4158 4185 4212 4239 4266 4293 4320 4347 4374 4401 4428 4455 4482 4509 4536 4563 4590 4617 4644 4671 4698 4725 4752 4779 4806 4833 4860 4887 4914 4941 4968 4995 5022 5049 5076 5103 5130 5157 5184 5211 5238 5265 5292 5319 5346 5373 5400 5427 5454 5481 5508 5535 5562 5589 5616 5643 5670 5697 5724 5751 5778 5805 5832 5859 5886 5913 5940 5967 5994 6021 6048 6075 6102 6129 6156 6183 6210 6237 6264 6291 6318 6345 6372 6399 6426 6453 6480 6507 6534 6561 6588 6615 6642 6669 6696 6723 6750 6777 6804 6831 6858 6885 6912 6939 6966 6993 7020 7047 7074 7101 7128 7155 7182 7209 7236 7263 7290 7317 7344 7371 7398 7425 7452 7479 7506 7533 7560 7587 7614 7641 7668 7695 7722 7749 7776 7803 7830 7857 7884 7911 7938 7965 7992 8019 8046 8073 8100 8127 8154 8181 8208 8235 8262 8289 8316 8343 8370 8397 8424 8451 8478 8505 8532 8559 8586 8613 8640 8667 8694 8721 8748 8775 8802 8829 8856 8883 8910 8937 8964 8991 9018 9045 9072 9099 9126 9153 9180 9207 9234 9261 9288 9315 9342 9369 9396 9423 9450 9477 9504 9531 9558 9585 9612 9639 9666 9693 9720 9747 9774 9801 9828 9855 9882 9909 9936 9963 9990 10017 10044 10071 10098 10125 10152 10179 10206 10233 10260 10287 10314 10341 10368 10395 10422 10449 10476 10503 10530 10557 10584 10611 10638 10665 10692 10719 10746 10773 10800 10827 10854 10881 10908 10935 10962 10989 11016 11043 11070 11097 11124 11151 11178 11205 11232 11259 11286 11313 11340 11367 11394 11421 11448 11475 11502 11529 11556 11583 11610 11637 11664 11691 11718 11745 11772 11799 11826 11853 11880 11907 11934 11961 11988 12015 12042 12069 12096 12123 12150 12177 12204 12231 12258 12285 12312 12339 12366 12393 12420 12447 12474 12501 12528 12555 12582 12609 12636 12663 12690 12717 12744 12771 12798 12825 12852 12879 12906 12933 12960 12987 13014 13041 13068 13095 13122 13149 13176 13203 13230 13257 13284 13311 13338 13365 13392 13419 13446 13473 13500 13527 13554 13581 13608 13635 13662 13689 13716 13743 13770 13797 13824 13851 13878 13905 13932 13959 13986 14013 14040 14067 14094 14121 14148 14175 14202 14229 14256 14283 14310 14337 14364 14391 14418 14445 14472 14499 14526 14553 14580 14607 14634 14661 14688 14715 14742 14769 14796 14823 14850 14877 14904 14931 14958 14985 15012 15039 15066 15093 15120 15147 15174 15201 15228 15255 15282 15309 15336 15363 15390 15417 15444 15471 15498 15525 15552 15579 15606 15633 15660 15687 15714 15741 15768 15795 15822 15849 15876 15903 15930 15957 15984 16011 16038 16065 16092 16119 16146 16173 16200 16227 16254 16281 16308 16335 16362 16389 16416 16443 16470 16497 16524 16551 16578 16605 16632 16659 16686 16713 16740 16767 16794 16821 16848 16875 16902 16929 16956 16983 17010 17037 17064 17091 17118 17145 17172 17199 17226 17253 17280 17307 17334 17361 17388 17415 17442 17469 17496 17523 17550 17577 17604 17631 17658 17685 17712 17739 17766 17793 17820 17847 17874 17901 17928 17955 17982 18009 18036 18063 18090 18117 18144 18171 18198 18225 18252 18279 18306 18333 18360 18387 18414 18441 18468 18495 18522 18549 18576 18603 18630 18657 18684 18711 18738 18765 18792 18819 18846 18873 18900 18927 18954 18981 19008 19035 19062 19089 19116 19143 19170 19197 19224 19251 19278 19305 19332 19359 19386 19413 19440 19467 19494 19521 19548 19575 19602 19629 19656 19683 19710 19737 19764 19791 19818 19845 19872 19899 19926 19953 19980 20007 20034 20061 20088 20115 20142 20169 20196 20223 20250 20277 20304 20331 20358 20385 20412 20439 20466 20493 20520 20547 20574 20601 20628 20655 20682 20709 20736 20763 20790 20817 20844 20871 20898 20925 20952 20979 21006 21033 21060 21087 21114 21141 21168 21195 21222 21249 21276 21303 21330 21357 21384 21411 21438 21465 21492 21519 21546 21573 21600 21627 21654 21681 21708 21735 21762 21789 21816 21843 21870 21897 21924 21951 21978 22005 22032 22059 22086 22113 22140 22167 22194 22221 22248 22275 22302 22329 22356 22383 22410 22437 22464 22491 22518 22545 22572 22599 22626 22653 22680 22707 22734 22761 22788 22815 22842 22869 22896 22923 22950 22977 23004 23031 23058 23085 23112 23139 23166 23193 23220 23247 23274 23301 23328 23355 23382 23409 23436 23463 23490 23517 23544 23571 23598 23625 23652 23679 23706 23733 23760 23787 23814 23841 23868 23895 23922 23949 23976 24003 24030 24057 24084 24111 24138 24165 24192 24219 24246 24273 24300 24327 24354 24381 24408 24435 24462 24489 24516 24543 24570 24597 24624 24651 24678 24705 24732 24759 24786 24813 24840 24867 24894 24921 24948 24975 25002 25029 25056 25083 25110 25137 25164 25191 25218 25245 25272 25299 25326 25353 25380 25407 25434 25461 25488 25515 25542 25569 25596 25623 25650 25677 25704 25731 25758 25785 25812 25839 25866 25893 25920 25947 25974 26001 26028 26055 26082 26109 26136 26163 26190 26217 26244 26271 26298 26325 26352 26379 26406 26433 26460 26487 26514 26541 26568 26595 26622 26649 26676 26703 26730 26757 26784 26811 26838 26865 26892 26919 26946 26973 27000 27027 27054 27081 27108 27135 27162 27189 27216 27243 27270 27297 27324 27351 27378 27405 27432 27459 27486 27513 27540 27567 27594 27621 27648 27675 27702 27729 27756 27783 27810 27837 27864 27891 27918 27945 27972 27999 28026 28053 28080 28107 28134 28161 28188 28215 28242 28269 28296 28323 28350 28377 28404 28431 28458 28485 28512 28539 28566 28593 28620 28647 28674 28701 28728 28755 28782 28809 28836 28863 28890 28917 28944 28971 28998 29025 29052 29079 29106 29133 29160 29187 29214 29241 29268 29295 29322 29349 29376 29403 29430 29457 29484 29511 29538 29565 29592 29619 29646 29673 29700 29727 29754 29781 29808 29835 29862 29889 29916 29943 29970 29997 30024 30051 30078 30105 30132 30159 30186 30213 30240 30267 30294 30321 30348 30375 30402 30429 30456 30483 30510 30537 30564 30591 30618 30645 30672 30699 30726 30753 30780 30807 30834 30861 30888 30915 30942 30969 30996 31023 31050 31077 31104 31131 31158 31185 31212 31239 31266 31293 31320 31347 31374 31401 31428 31455 31482 31509 31536 31563 31590 31617 31644 31671 31698 31725 31752 31779 31806 31833 31860 31887 31914 31941 31968 31995 32022 32049 32076 32103 32130 32157 32184 32211 32238 32265 32292 32319 32346 32373 32400 32427 32454 32481 32508 32535 32562 32589 32616 32643 32670 32697 32724 32751 32778 32805 32832 32859 32886 32913 32940 32967 32994 33021 33048 33075 33102 33129 33156 33183 33210 33237 33264 33291 33318 33345 33372 33399 33426 33453 33480 33507 33534 33561 33588 33615 33642 33669 33696 33723 33750 33777 33804 33831 33858 33885 33912 33939 33966 33993 34020 34047 34074 34101 34128 34155 34182 34209 34236 34263 34290 34317 34344 34371 34398 34425 34452 34479 34506 34533 34560 34587 34614 34641 34668 34695 34722 34749 34776 34803 34830 34857 34884 34911 34938 34965 34992 35019 35046 35073 35100 35127 35154 35181 35208 35235 35262 35289 35316 35343 35370 35397 35424 35451 35478 35505 35532 35559 35586 35613 35640 35667 35694 35721 35748 35775 35802 35829 35856 35883 35910 35937 35964 35991 36018 36045 36072 36099 36126 36153 36180 36207 36234 36261 36288 36315 36342 36369 36396 36423 36450 36477 36504 36531 36558 36585 36612 36639 36666 36693 36720 36747 36774 36801 36828 36855 36882 36909 36936 36963 36990 37017 37044 37071 37098 37125 37152 37179 37206 37233 37260 37287 37314 37341 37368 37395 37422 37449 37476 37503 37530 37557 37584 37611 37638 37665 37692 37719 37746 37773 37800 37827 37854 37881 37908 37935 37962 37989 38016 38043 38070 38097 38124 38151 38178 38205 38232 38259 38286 38313 38340 38367 38394 38421 38448 38475 38502 38529 38556 38583 38610 38637 38664 38691 38718 38745 38772 38799 38826 38853 38880 38907 38934 38961 38988 39015 39042 39069 39096 39123 39150 39177 39204 39231 39258 39285 39312 39339 39366 39393 39420 39447 39474 39501 39528 39555 39582 39609 39636 39663 39690 39717 39744 39771 39798 39825 39852 39879 39906 39933 39960 39987 40014 40041 40068 40095 40122 40149 40176 40203 40230 40257 40284 40311 40338 40365 40392 40419 40446 40473 40500 40527 40554 40581 40608 40635 40662 40689 40716 40743 40770 40797 40824 40851 40878 40905 40932 40959 40986 41013 41040 41067 41094 41121 41148 41175 41202 41229 41256 41283 41310 41337 41364 41391 41418 41445 41472 
CONNECTIVITY vtktypeint64
0 1 226 225 25 26 251 250 2025 2026 2027 2028 2033 2034 2035 2036 2029 2030 2031 2032 2041 2039 2038 2040 2037 2042 2043 
1 2 227 226 26 27 252 251 2044 2045 2046 2026 2049 2050 2051 2034 2030 2047 2048 2031 2039 2054 2053 2055 2052 2056 2057 
2 3 228 227 27 28 253 252 2058 2059 2060 2045 2063 2064 2065 2050 2047 2061 2062 2048 2054 2068 2067 2069 2066 2070 2071 
3 4 229 228 28 29 254 253 2072 2073 2074 2059 2077 2078 2079 2064 2061 2075 2076 2062 2068 2082 2081 2083 2080 2084 2085 
4 5 230 229 29 30 255 254 2086 2087 2088 2073 2091 2092 2093 2078 2075 2089 2090 2076 2082 2096 2095 2097 2094 2098 2099 
5 6 231 230 30 31 256 255 2100 2101 2102 2087 2105 2106 2107 2092 2089 2103 2104 2090 2096 2110 2109 2111 2108 2112 2113 
6 7 232 231 31 32 257 256 2114 2115 2116 2101 2119 2120 2121 2106 2103 2117 2118 2104 2110 2124 2123 2125 2122 2126 2127 
7 8 233 232 32 33 258 257 2128 2129 2130 2115 2133 2134 2135 2120 2117 2131 2132 2118 2124 2138 2137 2139 2136 2140 2141 
8 9 234 233 33 34 259 258 2142 2143 2144 2129 2147 2148 2149 2134 2131 2145 2146 2132 2138 2152 2151 2153 2150 2154 2155 
9 10 235 234 34 35 260 259 2156 2157 2158 2143 2161 2162 2163 2148 2145 2159 2160 2146 2152 2166 2165 2167 2164 2168 2169 
10 11 236 235 35 36 261 260 2170 2171 2172 2157 2175 2176 2177 2162 2159 2173 2174 2160 2166 2180 2179 2181 2178 2182 2183 
11 12 237 236 36 37 262 261 2184 2185 2186 2171 2189 2190 2191 2176 2173 2187 2188 2174 2180 2194 2193 2195 2192 2196 2197 
12 13 238 237 37 38 263 262 2198 2199 2200 2185 2203 2204 2205 2190 2187 2201 2202 2188 2194 2208 2207 2209 2206 2210 2211 
13 14 239 238 38 39 264 263 2212 2213 2214 2199 2217 2218 2219 2204 2201 2215 2216 2202 2208 2222 2221 2223 2220 2224 2225 
14 15 240 239 39 40 265 264 2226 2227 2228 2213 2231 2232 2233 2218 2215 2229 2230 2216 2222 2236 2235 2237 2234 2238 2239 
15 16 241 240 40 41 266 265 2240 2241 2242 2227 2245 2246 2247 2232 2229 2243 2244 2230 2236 2250 2249 2251 2248 2252 2253 
16 17 242 241 41 42 267 266 2254 2255 2256 2241 2259 2260 2261 2246 2243 2257 2258 2244 2250 2264 2263 2265 2262 2266 2267 
17 18 243 242 42 43 268 267 2268 2269 2270 2255 2273 2274 2275 2260 2257 2271 2272 2258 2264 2278 2277 2279 2276 2280 2281 
18 19 244 243 43 44 269 268 2282 2283 2284 2269 2287 2288 2289 2274 2271 2285 2286 2272 2278 2292 2291 2293 2290 2294 2295 
19 20 245 244 44 45 270 269 2296 2297 2298 2283 2301 2302 2303 2288 2285 2299 2300 2286 2292 2306 2305 2307 2304 2308 2309 
20 21 246 245 45 46 271 270 2310 2311 2312 2297 2315 2316 2317 2302 2299 2313 2314 2300 2306 2320 2319 2321 2318 2322 2323 
21 22 247 246 46 47 272 271 2324 2325 2326 2311 2329 2330 2331 2316 2313 2327 2328 2314 2320 2334 2333 2335 2332 2336 2337 
22 23 248 247 47 48 273 272 2338 2339 2340 2325 2343 2344 2345 2330 2327 2341 2342 2328 2334 2348 2347 2349 2346 2350 2351 
23 24 249 248 48 49 274 273 2352 2353 2354 2339 2357 2358 2359 2344 2341 2355 2356 2342 2348 2362 2361 2363 2360 2364 2365 
25 26 251 250 50 51 276 275 2033 2034 2035 2036 2370 2371 2372 2373 2366 2367 2368 2369 2377 2375 2374 2376 2042 2378 2379 
26 27 252 251 51 52 277 276 2049 2050 2051 2034 2382 2383 2384 2371 2367 2380 2381 2368 2375 2386 2385 2387 2056 2388 2389 
27 28 253 252 52 53 278 277 2063 2064 2065 2050 2392 2393 2394 2383 2380 2390 2391 2381 2386 2396 2395 2397 2070 2398 2399 
28 29 254 253 53 54 279 278 2077 2078 2079 2064 2402 2403 2404 2393 2390 2400 2401 2391 2396 2406 2405 2407 2084 2408 2409 
29 30 255 254 54 55 280 279 2091 2092 2093 2078 2412 2413 2414 2403 2400 2410 2411 2401 2406 2416 2415 2417 2098 2418 2419 
30 31 256 255 55 56 281 280 2105 2106 2107 2092 2422 2423 2424 2413 2410 2420 2421 2411 2416 2426 2425 2427 2112 2428 2429 
31 32 257 256 56 57 282 281 2119 2120 2121 2106 2432 2433 2434 2423 2420 2430 2431 2421 2426 2436 2435 2437 2126 2438 2439 
32 33 258 257 57 58 283 282 2133 2134 2135 2120 2442 2443 2444 2433 2430 2440 2441 2431 2436 2446 2445 2447 2140 2448 2449 
33 34 259 258 58 59 284 283 2147 2148 2149 2134 2452 2453 2454 2443 2440 2450 2451 2441 2446 2456 2455 2457 2154 2458 2459 
34 35 260 259 59 60 285 284 2161 2162 2163 2148 2462 2463 2464 2453 2450 2460 2461 2451 2456 2466 2465 2467 2168 2468 2469 
35 36 261 260 60 61 286 285 2175 2176 2177 2162 2472 2473 2474 2463 2460 2470 2471 2461 2466 2476 2475 2477 2182 2478 2479 
36 37 262 261 61 62 287 286 2189 2190 2191 2176 2482 2483 2484 2473 2470 2480 2481 2471 2476 2486 2485 2487 2196 2488 2489 
37 38 263 262 62 63 288 287 2203 2204 2205 2190 2492 2493 2494 2483 2480 2490 2491 2481 2486 2496 2495 2497 2210 2498 2499 
38 39 264 263 63 64 289 288 2217 2218 2219 2204 2502 2503 2504 2493 2490 2500 2501 2491 2496 2506 2505 2507 2224 2508 2509 
39 40 265 264 64 65 290 289 2231 2232 2233 2218 2512 2513 2514 2503 2500 2510 2511 2501 2506 2516 2515 2517 2238 2518 2519 
40 41 266 265 65 66 291 290 2245 2246 2247 2232 2522 2523 2524 2513 2510 2520 2521 2511 2516 2526 2525 2527 2252 2528 2529 
41 42 267 266 66 67 292 291 2259 2260 2261 2246 2532 2533 2534 2523 2520 2530 2531 2521 2526 2536 2535 2537 2266 2538 2539 
42 43 268 267 67 68 293 292 2273 2274 2275 2260 2542 2543 2544 2533 2530 2540 2541 2531 2536 2546 2545 2547 2280 2548 2549 
43 44 269 268 68 69 294 293 2287 2288 2289 2274 2552 2553 2554 2543 2540 2550 2551 2541 2546 2556 2555 2557 2294 2558 2559 
44 45 270 269 69 70 295 294 2301 2302 2303 2288 2562 2563 2564 2553 2550 2560 2561 2551 2556 2566 2565 2567 2308 2568 2569 
45 46 271 270 70 71 296 295 2315 2316 2317 2302 2572 2573 2574 2563 2560 2570 2571 2561 2566 2576 2575 2577 2322 2578 2579 
46 47 272 271 71 72 297 296 2329 2330 2331 2316 2582 2583 2584 2573 2570 2580 2581 2571 2576 2586 2585 2587 2336 2588 2589 
47 48 273 272 72 73 298 297 2343 2344 2345 2330 2592 2593 2594 2583 2580 2590 2591 2581 2586 2596 2595 2597 2350 2598 2599 
48 49 274 273 73 74 299 298 2357 2358 2359 2344 2602 2603 2604 2593 2590 2600 2601 2591 2596 2606 2605 2607 2364 2608 2609 
50 51 276 275 75 76 301 300 2370 2371 2372 2373 2614 2615 2616 2617 2610 2611 2612 2613 2621 2619 2618 2620 2378 2622 2623 
51 52 277 276 76 77 302 301 2382 2383 2384 2371 2626 2627 2628 2615 2611 2624 2625 2612 2619 2630 2629 2631 2388 2632 2633 
52 53 278 277 77 78 303 302 2392 2393 2394 2383 2636 2637 2638 2627 2624 2634 2635 2625 2630 2640 2639 2641 2398 2642 2643 
53 54 279 278 78 79 304 303 2402 2403 2404 2393 2646 2647 2648 2637 2634 2644 2645 2635 2640 2650 2649 2651 2408 2652 2653 
54 55 280 279 79 80 305 304 2412 2413 2414 2403 2656 2657 2658 2647 2644 2654 2655 2645 2650 2660 2659 2661 2418 2662 2663 
55 56 281 280 80 81 306 305 2422 2423 2424 2413 2666 2667 2668 2657 2654 2664 2665 2655 2660 2670 2669 2671 2428 2672 2673 
56 57 282 281 81 82 307 306 2432 2433 2434 2423 2676 2677 2678 2667 2664 2674 2675 2665 2670 2680 2679 2681 2438 2682 2683 
57 58 283 282 82 83 308 307 2442 2443 2444 2433 2686 2687 2688 2677 2674 2684 2685 2675 2680 2690 2689 2691 2448 2692 2693 
58 59 284 283 83 84 309 308 2452 2453 2454 2443 2696 2697 2698 2687 2684 2694 2695 2685 2690 2700 2699 2701 2458 2702 2703 
59 60 285 284 84 85 310 309 2462 2463 2464 2453 2706 2707 2708 2697 2694 2704 2705 2695 2700 2710 2709 2711 2468 2712 2713 
60 61 286 285 85 86 311 310 2472 2473 2474 2463 2716 2717 2718 2707 2704 2714 2715 2705 2710 2720 2719 2721 2478 2722 2723 
61 62 287 286 86 87 312 311 2482 2483 2484 2473 2726 2727 2728 2717 2714 2724 2725 2715 2720 2730 2729 2731 2488 2732 2733 
62 63 288 287 87 88 313 312 2492 2493 2494 2483 2736 2737 2738 2727 2724 2734 2735 2725 2730 2740 2739 2741 2498 2742 2743 
63 64 289 288 88 89 314 313 2502 2503 2504 2493 2746 2747 2748 2737 2734 2744 2745 2735 2740 2750 2749 2751 2508 2752 2753 
64 65 290 289 89 90 315 314 2512 2513 2514 2503 2756 2757 2758 2747 2744 2754 2755 2745 2750 2760 2759 2761 2518 2762 2763 
65 66 291 290 90 91 316 315 2522 2523 2524 2513 2766 2767 2768 2757 2754 2764 2765 2755 2760 2770 2769 2771 2528 2772 2773 
66 67 292 291 91 92 317 316 2532 2533 2534 2523 2776 2777 2778 2767 2764 2774 2775 2765 2770 2780 2779 2781 2538 2782 2783 
67 68 293 292 92 93 318 317 2542 2543 2544 2533 2786 2787 2788 2777 2774 2784 2785 2775 2780 2790 2789 2791 2548 2792 2793 
68 69 294 293 93 94 319 318 2552 2553 2554 2543 2796 2797 2798 2787 2784 2794 2795 2785 2790 2800 2799 2801 2558 2802 2803 
69 70 295 294 94 95 320 319 2562 2563 2564 2553 2806 2807 2808 2797 2794 2804 2805 2795 2800 2810 2809 2811 2568 2812 2813 
70 71 296 295 95 96 321 320 2572 2573 2574 2563 2816 2817 2818 2807 2804 2814 2815 2805 2810 2820 2819 2821 2578 2822 2823 
71 72 297 296 96 97 322 321 2582 2583 2584 2573 2826 2827 2828 2817 2814 2824 2825 2815 2820 2830 2829 2831 2588 2832 2833 
72 73 298 297 97 98 323 322 2592 2593 2594 2583 2836 2837 2838 2827 2824 2834 2835 2825 2830 2840 2839 2841 2598 2842 2843 
73 74 299 298 98 99 324 323 2602 2603 2604 2593 2846 2847 2848 2837 2834 2844 2845 2835 2840 2850 2849 2851 2608 2852 2853 
75 76 301 300 100 101 326 325 2614 2615 2616 2617 2858 2859 2860 2861 2854 2855 2856 2857 2865 2863 2862 2864 2622 2866 2867 
76 77 302 301 101 102 327 326 2626 2627 2628 2615 2870 2871 2872 2859 2855 2868 2869 2856 2863 2874 2873 2875 2632 2876 2877 
77 78 303 302 102 103 328 327 2636 2637 2638 2627 2880 2881 2882 2871 2868 2878 2879 2869 2874 2884 2883 2885 2642 2886 2887 
78 79 304 303 103 104 329 328 2646 2647 2648 2637 2890 2891 2892 2881 2878 2888 2889 2879 2884 2894 2893 2895 2652 2896 2897 
79 80 305 304 104 105 330 329 2656 2657 2658 2647 2900 2901 2902 2891 2888 2898 2899 2889 2894 2904 2903 2905 2662 2906 2907 
80 81 306 305 105 106 331 330 2666 2667 2668 2657 2910 2911 2912 2901 2898 2908 2909 2899 2904 2914 2913 2915 2672 2916 2917 
81 82 307 306 106 107 332 331 2676 2677 2678 2667 2920 2921 2922 2911 2908 2918 2919 2909 2914 2924 2923 2925 2682 2926 2927 
82 83 308 307 107 108 333 332 2686 2687 2688 2677 2930 2931 2932 2921 2918 2928 2929 2919 2924 2934 2933 2935 2692 2936 2937 
83 84 309 308 108 109 334 333 2696 2697 2698 2687 2940 2941 2942 2931 2928 2938 2939 2929 2934 2944 2943 2945 2702 2946 2947 
84 85 310 309 109 110 335 334 2706 2707 2708 2697 2950 2951 2952 2941 2938 2948 2949 2939 2944 2954 2953 2955 2712 2956 2957 
85 86 311 310 110 111 336 335 2716 2717 2718 2707 2960 2961 2962 2951 2948 2958 2959 2949 2954 2964 2963 2965 2722 2966 2967 
86 87 312 311 111 112 337 336 2726 2727 2728 2717 2970 2971 2972 2961 2958 2968 2969 2959 2964 2974 2973 2975 2732 2976 2977 
87 88 313 312 112 113 338 337 2736 2737 2738 2727 2980 2981 2982 2971 2968 2978 2979 2969 2974 2984 2983 2985 2742 2986 2987 
88 89 314 313 113 114 339 338 2746 2747 2748 2737 2990 2991 2992 2981 2978 2988 2989 2979 2984 2994 2993 2995 2752 2996 2997 
89 90 315 314 114 115 340 339 2756 2757 2758 2747 3000 3001 3002 2991 2988 2998 2999 2989 2994 3004 3003 3005 2762 3006 3007 
90 91 316 315 115 116 341 340 2766 2767 2768 2757 3010 3011 3012 3001 2998 3008 3009 2999 3004 3014 3013 3015 2772 3016 3017 
91 92 317 316 116 117 342 341 2776 2777 2778 2767 3020 3021 3022 3011 3008 3018 3019 3009 3014 3024 3023 3025 2782 3026 3027 
92 93 318 317 117 118 343 342 2786 2787 2788 2777 3030 3031 3032 3021 3018 3028 3029 3019 3024 3034 3033 3035 2792 3036 3037 
93 94 319 318 118 119 344 343 2796 2797 2798 2787 3040 3041 3042 3031 3028 3038 3039 3029 3034 3044 3043 3045 2802 3046 3047 
94 95 320 319 119 120 345 344 2806 2807 2808 2797 3050 3051 3052 3041 3038 3048 3049 3039 3044 3054 3053 3055 2812 3056 3057 
95 96 321 320 120 121 346 345 2816 2817 2818 2807 3060 3061 3062 3051 3048 3058 3059 3049 3054 3064 3063 3065 2822 3066 3067 
96 97 322 321 121 122 347 346 2826 2827 2828 2817 3070 3071 3072 3061 3058 3068 3069 3059 3064 3074 3073 3075 2832 3076 3077 
97 98 323 322 122 123 348 347 2836 2837 2838 2827 3080 3081 3082 3071 3068 3078 3079 3069 3074 3084 3083 3085 2842 3086 3087 
98 99 324 323 123 124 349 348 2846 2847 2848 2837 3090 3091 3092 3081 3078 3088 3089 3079 3084 3094 3093 3095 2852 3096 3097 
100 101 326 325 125 126 351 350 2858 2859 2860 2861 3102 3103 3104 3105 3098 3099 3100 3101 3109 3107 3106 3108 2866 3110 3111 
101 102 327 326 126 127 352 351 2870 2871 2872 2859 3114 3115 3116 3103 3099 3112 3113 3100 3107 3118 3117 3119 2876 3120 3121 
102 103 328 327 127 128 353 352 2880 2881 2882 2871 3124 3125 3126 3115 3112 3122 3123 3113 3118 3128 3127 3129 2886 3130 3131 
103 104 329 328 128 129 354 353 2890 2891 2892 2881 3134 3135 3136 3125 3122 3132 3133 3123 3128 3138 3137 3139 2896 3140 3141 
104 105 330 329 129 130 355 354 2900 2901 2902 2891 3144 3145 3146 3135 3132 3142 3143 3133 3138 3148 3147 3149 2906 3150 3151 
105 106 331 330 130 131 356 355 2910 2911 2912 2901 3154 3155 3156 3145 3142 3152 3153 3143 3148 3158 3157 3159 2916 3160 3161 
106 107 332 331 131 132 357 356 2920 2921 2922 2911 3164 3165 3166 3155 3152 3162 3163 3153 3158 3168 3167 3169 2926 3170 3171 
107 108 333 332 132 133 358 357 2930 2931 2932 2921 3174 3175 3176 3165 3162 3172 3173 3163 3168 3178 3177 3179 2936 3180 3181 
108 109 334 333 133 134 359 358 2940 2941 2942 2931 3184 3185 3186 3175 3172 3182 3183 3173 3178 3188 3187 3189 2946 3190 3191 
109 110 335 334 134 135 360 359 2950 2951 2952 2941 3194 3195 3196 3185 3182 3192 3193 3183 3188 3198 3197 3199 2956 3200 3201 
110 111 336 335 135 136 361 360 2960 2961 2962 2951 3204 3205 3206 3195 3192 3202 3203 3193 3198 3208 3207 3209 2966 3210 3211 
111 112 337 336 136 137 362 361 2970 2971 2972 2961 3214 3215 3216 3205 3202 3212 3213 3203 3208 3218 3217 3219 2976 3220 3221 
112 113 338 337 137 138 363 362 2980 2981 2982 2971 3224 3225 3226 3215 3212 3222 3223 3213 3218 3228 3227 3229 2986 3230 3231 
113 114 339 338 138 139 364 363 2990 2991 2992 2981 3234 3235 3236 3225 3222 3232 3233 3223 3228 3238 3237 3239 2996 3240 3241 
114 115 340 339 139 140 365 364 3000 3001 3002 2991 3244 3245 3246 3235 3232 3242 3243 3233 3238 3248 3247 3249 3006 3250 3251 
115 116 341 340 140 141 366 365 3010 3011 3012 3001 3254 3255 3256 3245 3242 3252 3253 3243 3248 3258 3257 3259 3016 3260 3261 
116 117 342 341 141 142 367 366 3020 3021 3022 3011 3264 3265 3266 3255 3252 3262 3263 3253 3258 3268 3267 3269 3026 3270 3271 
117 118 343 342 142 143 368 367 3030 3031 3032 3021 3274 3275 3276 3265 3262 3272 3273 3263 3268 3278 3277 3279 3036 3280 3281 
118 119 344 343 143 144 369 368 3040 3041 3042 3031 3284 3285 3286 3275 3272 3282 3283 3273 3278 3288 3287 3289 3046 3290 3291 
119 120 345 344 144 145 370 369 3050 3051 3052 3041 3294 3295 3296 3285 3282 3292 3293 3283 3288 3298 3297 3299 3056 3300 3301 
120 121 346 345 145 146 371 370 3060 3061 3062 3051 3304 3305 3306 3295 3292 3302 3303 3293 3298 3308 3307 3309 3066 3310 3311 
121 122 347 346 146 147 372 371 3070 3071 3072 3061 3314 3315 3316 3305 3302 3312 3313 3303 3308 3318 3317 3319 3076 3320 3321 
122 123 348 347 147 148 373 372 3080 3081 3082 3071 3324 3325 3326 3315 3312 3322 3323 3313 3318 3328 3327 3329 3086 3330 3331 
123 124 349 348 148 149 374 373 3090 3091 3092 3081 3334 3335 3336 3325 3322 3332 3333 3323 3328 3338 3337 3339 3096 3340 3341 
125 126 351 350 150 151 376 375 3102 3103 3104 3105 3346 3347 3348 3349 3342 3343 3344 3345 3353 3351 3350 3352 3110 3354 3355 
126 127 352 351 151 152 377 376 3114 3115 3116 3103 3358 3359 3360 3347 3343 3356 3357 3344 3351 3362 3361 3363 3120 3364 3365 
127 128 353 352 152 153 378 377 3124 3125 3126 3115 3368 3369 3370 3359 3356 3366 3367 3357 3362 3372 3371 3373 3130 3374 3375 
128 129 354 353 153 154 379 378 3134 3135 3136 3125 3378 3379 3380 3369 3366 3376 3377 3367 3372 3382 3381 3383 3140 3384 3385 
129 130 355 354 154 155 380 379 3144 3145 3146 3135 3388 3389 3390 3379 3376 3386 3387 3377 3382 3392 3391 3393 3150 3394 3395 
130 131 356 355 155 156 381 380 3154 3155 3156 3145 3398 3399 3400 3389 3386 3396 3397 3387 3392 3402 3401 3403 3160 3404 3405 
131 132 357 356 156 157 382 381 3164 3165 3166 3155 3408 3409 3410 3399 3396 3406 3407 3397 3402 3412 3411 3413 3170 3414 3415 
132 133 358 357 157 158 383 382 3174 3175 3176 3165 3418 3419 3420 3409 3406 3416 3417 3407 3412 3422 3421 3423 3180 3424 3425 
133 134 359 358 158 159 384 383 3184 3185 3186 3175 3428 3429 3430 3419 3416 3426 3427 3417 3422 3432 3431 3433 3190 3434 3435 
134 135 360 359 159 160 385 384 3194 3195 3196 3185 3438 3439 3440 3429 3426 3436 3437 3427 3432 3442 3441 3443 3200 3444 3445 
135 136 361 360 160 161 386 385 3204 3205 3206 3195 3448 3449 3450 3439 3436 3446 3447 3437 3442 3452 3451 3453 3210 3454 3455 
136 137 362 361 161 162 387 386 3214 3215 3216 3205 3458 3459 3460 3449 3446 3456 3457 3447 3452 3462 3461 3463 3220 3464 3465 
137 138 363 362 162 163 388 387 3224 3225 3226 3215 3468 3469 3470 3459 3456 3466 3467 3457 3462 3472 3471 3473 3230 3474 3475 
138 139 364 363 163 164 389 388 3234 3235 3236 3225 3478 3479 3480 3469 3466 3476 3477 3467 3472 3482 3481 3483 3240 3484 3485 
139 140 365 364 164 165 390 389 3244 3245 3246 3235 3488 3489 3490 3479 3476 3486 3487 3477 3482 3492 3491 3493 3250 3494 3495 
140 141 366 365 165 166 391 390 3254 3255 3256 3245 3498 3499 3500 3489 3486 3496 3497 3487 3492 3502 3501 3503 3260 3504 3505 
141 142 367 366 166 167 392 391 3264 3265 3266 3255 3508 3509 3510 3499 3496 3506 3507 3497 3502 3512 3511 3513 3270 3514 3515 
142 143 368 367 167 168 393 392 3274 3275 3276 3265 3518 3519 3520 3509 3506 3516 3517 3507 3512 3522 3521 3523 3280 3524 3525 
143 144 369 368 168 169 394 393 3284 3285 3286 3275 3528 3529 3530 3519 3516 3526 3527 3517 3522 3532 3531 3533 3290 3534 3535 
144 145 370 369 169 170 395 394 3294 3295 3296 3285 3538 3539 3540 3529 3526 3536 3537 3527 3532 3542 3541 3543 3300 3544 3545 
145 146 371 370 170 171 396 395 3304 3305 3306 3295 3548 3549 3550 3539 3536 3546 3547 3537 3542 3552 3551 3553 3310 3554 3555 
146 147 372 371 171 172 397 396 3314 3315 3316 3305 3558 3559 3560 3549 3546 3556 3557 3547 3552 3562 3561 3563 3320 3564 3565 
147 148 373 372 172 173 398 397 3324 3325 3326 3315 3568 3569 3570 3559 3556 3566 3567 3557 3562 3572 3571 3573 3330 3574 3575 
148 149 374 373 173 174 399 398 3334 3335 3336 3325 3578 3579 3580 3569 3566 3576 3577 3567 3572 3582 3581 3583 3340 3584 3585 
150 151 376 375 175 176 401 400 3346 3347 3348 3349 3590 3591 3592 3593 3586 3587 3588 3589 3597 3595 3594 3596 3354 3598 3599 
151 152 377 376 176 177 402 401 3358 3359 3360 3347 3602 3603 3604 3591 3587 3600 3601 3588 3595 3606 3605 3607 3364 3608 3609 
152 153 378 377 177 178 403 402 3368 3369 3370 3359 3612 3613 3614 3603 3600 3610 3611 3601 3606 3616 3615 3617 3374 3618 3619 
153 154 379 378 178 179 404 403 3378 3379 3380 3369 3622 3623 3624 3613 3610 3620 3621 3611 3616 3626 3625 3627 3384 3628 3629 
154 155 380 379 179 180 405 404 3388 3389 3390 3379 3632 3633 3634 3623 3620 3630 3631 3621 3626 3636 3635 3637 3394 3638 3639 
155 156 381 380 180 181 406 405 3398 3399 3400 3389 3642 3643 3644 3633 3630 3640 3641 3631 3636 3646 3645 3647 3404 3648 3649 
156 157 382 381 181 182 407 406 3408 3409 3410 3399 3652 3653 3654 3643 3640 3650 3651 3641 3646 3656 3655 3657 3414 3658 3659 
157 158 383 382 182 183 408 407 3418 3419 3420 3409 3662 3663 3664 3653 3650 3660 3661 3651 3656 3666 3665 3667 3424 3668 3669 
158 159 384 383 183 184 409 408 3428 3429 3430 3419 3672 3673 3674 3663 3660 3670 3671 3661 3666 3676 3675 3677 3434 3678 3679 
159 160 385 384 184 185 410 409 3438 3439 3440 3429 3682 3683 3684 3673 3670 3680 3681 3671 3676 3686 3685 3687 3444 3688 3689 
160 161 386 385 185 186 411 410 3448 3449 3450 3439 3692 3693 3694 3683 3680 3690 3691 3681 3686 3696 3695 3697 3454 3698 3699 
161 162 387 386 186 187 412 411 3458 3459 3460 3449 3702 3703 3704 3693 3690 3700 3701 3691 3696 3706 3705 3707 3464 3708 3709 
162 163 388 387 187 188 413 412 3468 3469 3470 3459 3712 3713 3714 3703 3700 3710 3711 3701 3706 3716 3715 3717 3474 3718 3719 
163 164 389 388 188 189 414 413 3478 3479 3480 3469 3722 3723 3724 3713 3710 3720 3721 3711 3716 3726 3725 3727 3484 3728 3729 
164 165 390 389 189 190 415 414 3488 3489 3490 3479 3732 3733 3734 3723 3720 3730 3731 3721 3726 3736 3735 3737 3494 3738 3739 
165 166 391 390 190 191 416 415 3498 3499 3500 3489 3742 3743 3744 3733 3730 3740 3741 3731 3736 3746 3745 3747 3504 3748 3749 
166 167 392 391 191 192 417 416 3508 3509 3510 3499 3752 3753 3754 3743 3740 3750 3751 3741 3746 3756 3755 3757 3514 3758 3759 
167 168 393 392 192 193 418 417 3518 3519 3520 3509 3762 3763 3764 3753 3750 3760 3761 3751 3756 3766 3765 3767 3524 3768 3769 
168 169 394 393 193 194 419 418 3528 3529 3530 3519 3772 3773 3774 3763 3760 3770 3771 3761 3766 3776 3775 3777 3534 3778 3779 
169 170 395 394 194 195 420 419 3538 3539 3540 3529 3782 3783 3784 3773 3770 3780 3781 3771 3776 3786 3785 3787 3544 3788 3789 
170 171 396 395 195 196 421 420 3548 3549 3550 3539 3792 3793 3794 3783 3780 3790 3791 3781 3786 3796 3795 3797 3554 3798 3799 
171 172 397 396 196 197 422 421 3558 3559 3560 3549 3802 3803 3804 3793 3790 3800 3801 3791 3796 3806 3805 3807 3564 3808 3809 
172 173 398 397 197 198 423 422 3568 3569 3570 3559 3812 3813 3814 3803 3800 3810 3811 3801 3806 3816 3815 3817 3574 3818 3819 
173 174 399 398 198 199 424 423 3578 3579 3580 3569 3822 3823 3824 3813 3810 3820 3821 3811 3816 3826 3825 3827 3584 3828 3829 
175 176 401 400 200 201 426 425 3590 3591 3592 3593 3834 3835 3836 3837 3830 3831 3832 3833 3841 3839 3838 3840 3598 3842 3843 
176 177 402 401 201 202 427 426 3602 3603 3604 3591 3846 3847 3848 3835 3831 3844 3845 3832 3839 3850 3849 3851 3608 3852 3853 
177 178 403 402 202 203 428 427 3612 3613 3614 3603 3856 3857 3858 3847 3844 3854 3855 3845 3850 3860 3859 3861 3618 3862 3863 
178 179 404 403 203 204 429 428 3622 3623 3624 3613 3866 3867 3868 3857 3854 3864 3865 3855 3860 3870 3869 3871 3628 3872 3873 
179 180 405 404 204 205 430 429 3632 3633 3634 3623 3876 3877 3878 3867 3864 3874 3875 3865 3870 3880 3879 3881 3638 3882 3883 
180 181 406 405 205 206 431 430 3642 3643 3644 3633 3886 3887 3888 3877 3874 3884 3885 3875 3880 3890 3889 3891 3648 3892 3893 
181 182 407 406 206 207 432 431 3652 3653 3654 3643 3896 3897 3898 3887 3884 3894 3895 3885 3890 3900 3899 3901 3658 3902 3903 
182 183 408 407 207 208 433 432 3662 3663 3664 3653 3906 3907 3908 3897 3894 3904 3905 3895 3900 3910 3909 3911 3668 3912 3913 
183 184 409 408 208 209 434 433 3672 3673 3674 3663 3916 3917 3918 3907 3904 3914 3915 3905 3910 3920 3919 3921 3678 3922 3923 
184 185 410 409 209 210 435 434 3682 3683 3684 3673 3926 3927 3928 3917 3914 3924 3925 3915 3920 3930 3929 3931 3688 3932 3933 
185 186 411 410 210 211 436 435 3692 3693 3694 3683 3936 3937 3938 3927 3924 3934 3935 3925 3930 3940 3939 3941 3698 3942 3943 
186 187 412 411 211 212 437 436 3702 3703 3704 3693 3946 3947 3948 3937 3934 3944 3945 3935 3940 3950 3949 3951 3708 3952 3953 
187 188 413 412 212 213 438 437 3712 3713 3714 3703 3956 3957 3958 3947 3944 3954 3955 3945 3950 3960 3959 3961 3718 3962 3963 
188 189 414 413 213 214 439 438 3722 3723 3724 3713 3966 3967 3968 3957 3954 3964 3965 3955 3960 3970 3969 3971 3728 3972 3973 
189 190 415 414 214 215 440 439 3732 3733 3734 3723 3976 3977 3978 3967 3964 3974 3975 3965 3970 3980 3979 3981 3738 3982 3983 
190 191 416 415 215 216 441 440 3742 3743 3744 3733 3986 3987 3988 3977 3974 3984 3985 3975 3980 3990 3989 3991 3748 3992 3993 
191 192 417 416 216 217 442 441 3752 3753 3754 3743 3996 3997 3998 3987 3984 3994 3995 3985 3990 4000 3999 4001 3758 4002 4003 
192 193 418 417 217 218 443 442 3762 3763 3764 3753 4006 4007 4008 3997 3994 4004 4005 3995 4000 4010 4009 4011 3768 4012 4013 
193 194 419 418 218 219 444 443 3772 3773 3774 3763 4016 4017 4018 4007 4004 4014 4015 4005 4010 4020 4019 4021 3778 4022 4023 
194 195 420 419 219 220 445 444 3782 3783 3784 3773 4026 4027 4028 4017 4014 4024 4025 4015 4020 4030 4029 4031 3788 4032 4033 
195 196 421 420 220 221 446 445 3792 3793 3794 3783 4036 4037 4038 4027 4024 4034 4035 4025 4030 4040 4039 4041 3798 4042 4043 
196 197 422 421 221 222 447 446 3802 3803 3804 3793 4046 4047 4048 4037 4034 4044 4045 4035 4040 4050 4049 4051 3808 4052 4053 
197 198 423 422 222 223 448 447 3812 3813 3814 3803 4056 4057 4058 4047 4044 4054 4055 4045 4050 4060 4059 4061 3818 4062 4063 
198 199 424 423 223 224 449 448 3822 3823 3824 3813 4066 4067 4068 4057 4054 4064 4065 4055 4060 4070 4069 4071 3828 4072 4073 
225 226 451 450 250 251 476 475 2027 4074 4075 4076 2035 4079 4080 4081 2032 2031 4077 4078 4085 4083 2040 4084 4082 4086 4087 
226 227 452 451 251 252 477 476 2046 4088 4089 4074 2051 4091 4092 4079 2031 2048 4090 4077 4083 4094 2055 4095 4093 4096 4097 
227 228 453 452 252 253 478 477 2060 4098 4099 4088 2065 4101 4102 4091 2048 2062 4100 4090 4094 4104 2069 4105 4103 4106 4107 
228 229 454 453 253 254 479 478 2074 4108 4109 4098 2079 4111 4112 4101 2062 2076 4110 4100 4104 4114 2083 4115 4113 4116 4117 
229 230 455 454 254 255 480 479 2088 4118 4119 4108 2093 4121 4122 4111 2076 2090 4120 4110 4114 4124 2097 4125 4123 4126 4127 
230 231 456 455 255 256 481 480 2102 4128 4129 4118 2107 4131 4132 4121 2090 2104 4130 4120 4124 4134 2111 4135 4133 4136 4137 
231 232 457 456 256 257 482 481 2116 4138 4139 4128 2121 4141 4142 4131 2104 2118 4140 4130 4134 4144 2125 4145 4143 4146 4147 
232 233 458 457 257 258 483 482 2130 4148 4149 4138 2135 4151 4152 4141 2118 2132 4150 4140 4144 4154 2139 4155 4153 4156 4157 
233 234 459 458 258 259 484 483 2144 4158 4159 4148 2149 4161 4162 4151 2132 2146 4160 4150 4154 4164 2153 4165 4163 4166 4167 
234 235 460 459 259 260 485 484 2158 4168 4169 4158 2163 4171 4172 4161 2146 2160 4170 4160 4164 4174 2167 4175 4173 4176 4177 
235 236 461 460 260 261 486 485 2172 4178 4179 4168 2177 4181 4182 4171 2160 2174 4180 4170 4174 4184 2181 4185 4183 4186 4187 
236 237 462 461 261 262 487 486 2186 4188 4189 4178 2191 4191 4192 4181 2174 2188 4190 4180 4184 4194 2195 4195 4193 4196 4197 
237 238 463 462 262 263 488 487 2200 4198 4199 4188 2205 4201 4202 4191 2188 2202 4200 4190 4194 4204 2209 4205 4203 4206 4207 
238 239 464 463 263 264 489 488 2214 4208 4209 4198 2219 4211 4212 4201 2202 2216 4210 4200 4204 4214 2223 4215 4213 4216 4217 
239 240 465 464 264 265 490 489 2228 4218 4219 4208 2233 4221 4222 4211 2216 2230 4220 4210 4214 4224 2237 4225 4223 4226 4227 
240 241 466 465 265 266 491 490 2242 4228 4229 4218 2247 4231 4232 4221 2230 2244 4230 4220 4224 4234 2251 4235 4233 4236 4237 
241 242 467 466 266 267 492 491 2256 4238 4239 4228 2261 4241 4242 4231 2244 2258 4240 4230 4234 4244 2265 4245 4243 4246 4247 
242 243 468 467 267 268 493 492 2270 4248 4249 4238 2275 4251 4252 4241 2258 2272 4250 4240 4244 4254 2279 4255 4253 4256 4257 
243 244 469 468 268 269 494 493 2284 4258 4259 4248 2289 4261 4262 4251 2272 2286 4260 4250 4254 4264 2293 4265 4263 4266 4267 
244 245 470 469 269 270 495 494 2298 4268 4269 4258 2303 4271 4272 4261 2286 2300 4270 4260 4264 4274 2307 4275 4273 4276 4277 
245 246 471 470 270 271 496 495 2312 4278 4279 4268 2317 4281 4282 4271 2300 2314 4280 4270 4274 4284 2321 4285 4283 4286 4287 
246 247 472 471 271 272 497 496 2326 4288 4289 4278 2331 4291 4292 4281 2314 2328 4290 4280 4284 4294 2335 4295 4293 4296 4297 
247 248 473 472 272 273 498 497 2340 4298 4299 4288 2345 4301 4302 4291 2328 2342 4300 4290 4294 4304 2349 4305 4303 4306 4307 
248 249 474 473 273 274 499 498 2354 4308 4309 4298 2359 4311 4312 4301 2342 2356 4310 4300 4304 4314 2363 4315 4313 4316 4317 
250 251 476 475 275 276 501 500 2035 4079 4080 4081 2372 4320 4321 4322 2369 2368 4318 4319 4325 4323 2376 4324 4086 4326 4327 
251 252 477 476 276 277 502 501 2051 4091 4092 4079 2384 4329 4330 4320 2368 2381 4328 4318 4323 4331 2387 4332 4096 4333 4334 
252 253 478 477 277 278 503 502 2065 4101 4102 4091 2394 4336 4337 4329 2381 2391 4335 4328 4331 4338 2397 4339 4106 4340 4341 
253 254 479 478 278 279 504 503 2079 4111 4112 4101 2404 4343 4344 4336 2391 2401 4342 4335 4338 4345 2407 4346 4116 4347 4348 
254 255 480 479 279 280 505 504 2093 4121 4122 4111 2414 4350 4351 4343 2401 2411 4349 4342 4345 4352 2417 4353 4126 4354 4355 
255 256 481 480 280 281 506 505 2107 4131 4132 4121 2424 4357 4358 4350 2411 2421 4356 4349 4352 4359 2427 4360 4136 4361 4362 
256 257 482 481 281 282 507 506 2121 4141 4142 4131 2434 4364 4365 4357 2421 2431 4363 4356 4359 4366 2437 4367 4146 4368 4369 
257 258 483 482 282 283 508 507 2135 4151 4152 4141 2444 4371 4372 4364 2431 2441 4370 4363 4366 4373 2447 4374 4156 4375 4376 
258 259 484 483 283 284 509 508 2149 4161 4162 4151 2454 4378 4379 4371 2441 2451 4377 4370 4373 4380 2457 4381 4166 4382 4383 
259 260 485 484 284 285 510 509 2163 4171 4172 4161 2464 4385 4386 4378 2451 2461 4384 4377 4380 4387 2467 4388 4176 4389 4390 
260 261 486 485 285 286 511 510 2177 4181 4182 4171 2474 4392 4393 4385 2461 2471 4391 4384 4387 4394 2477 4395 4186 4396 4397 
261 262 487 486 286 287 512 511 2191 4191 4192 4181 2484 4399 4400 4392 2471 2481 4398 4391 4394 4401 2487 4402 4196 4403 4404 
262 263 488 487 287 288 513 512 2205 4201 4202 4191 2494 4406 4407 4399 2481 2491 4405 4398 4401 4408 2497 4409 4206 4410 4411 
263 264 489 488 288 289 514 513 2219 4211 4212 4201 2504 4413 4414 4406 2491 2501 4412 4405 4408 4415 2507 4416 4216 4417 4418 
264 265 490 489 289 290 515 514 2233 4221 4222 4211 2514 4420 4421 4413 2501 2511 4419 4412 4415 4422 2517 4423 4226 4424 4425 
265 266 491 490 290 291 516 515 2247 4231 4232 4221 2524 4427 4428 4420 2511 2521 4426 4419 4422 4429 2527 4430 4236 4431 4432 
266 267 492 491 291 292 517 516 2261 4241 4242 4231 2534 4434 4435 4427 2521 2531 4433 4426 4429 4436 2537 4437 4246 4438 4439 
267 268 493 492 292 293 518 517 2275 4251 4252 4241 2544 4441 4442 4434 2531 2541 4440 4433 4436 4443 2547 4444 4256 4445 4446 
268 269 494 493 293 294 519 518 2289 4261 4262 4251 2554 4448 4449 4441 2541 2551 4447 4440 4443 4450 2557 4451 4266 4452 4453 
269 270 495 494 294 295 520 519 2303 4271 4272 4261 2564 4455 4456 4448 2551 2561 4454 4447 4450 4457 2567 4458 4276 4459 4460 
270 271 496 495 295 296 521 520 2317 4281 4282 4271 2574 4462 4463 4455 2561 2571 4461 4454 4457 4464 2577 4465 4286 4466 4467 
271 272 497 496 296 297 522 521 2331 4291 4292 4281 2584 4469 4470 4462 2571 2581 4468 4461 4464 4471 2587 4472 4296 4473 4474 
272 273 498 497 297 298 523 522 2345 4301 4302 4291 2594 4476 4477 4469 2581 2591 4475 4468 4471 4478 2597 4479 4306 4480 4481 
273 274 499 498 298 299 524 523 2359 4311 4312 4301 2604 4483 4484 4476 2591 2601 4482 4475 4478 4485 2607 4486 4316 4487 4488 
275 276 501 500 300 301 526 525 2372 4320 4321 4322 2616 4491 4492 4493 2613 2612 4489 4490 4496 4494 2620 4495 4326 4497 4498 
276 277 502 501 301 302 527 526 2384 4329 4330 4320 2628 4500 4501 4491 2612 2625 4499 4489 4494 4502 2631 4503 4333 4504 4505 
277 278 503 502 302 303 528 527 2394 4336 4337 4329 2638 4507 4508 4500 2625 2635 4506 4499 4502 4509 2641 4510 4340 4511 4512 
278 279 504 503 303 304 529 528 2404 4343 4344 4336 2648 4514 4515 4507 2635 2645 4513 4506 4509 4516 2651 4517 4347 4518 4519 
279 280 505 504 304 305 530 529 2414 4350 4351 4343 2658 4521 4522 4514 2645 2655 4520 4513 4516 4523 2661 4524 4354 4525 4526 
280 281 506 505 305 306 531 530 2424 4357 4358 4350 2668 4528 4529 4521 2655 2665 4527 4520 4523 4530 2671 4531 4361 4532 4533 
281 282 507 506 306 307 532 531 2434 4364 4365 4357 2678 4535 4536 4528 2665 2675 4534 4527 4530 4537 2681 4538 4368 4539 4540 
282 283 508 507 307 308 533 532 2444 4371 4372 4364 2688 4542 4543 4535 2675 2685 4541 4534 4537 4544 2691 4545 4375 4546 4547 
283 284 509 508 308 309 534 533 2454 4378 4379 4371 2698 4549 4550 4542 2685 2695 4548 4541 4544 4551 2701 4552 4382 4553 4554 
284 285 510 509 309 310 535 534 2464 4385 4386 4378 2708 4556 4557 4549 2695 2705 4555 4548 4551 4558 2711 4559 4389 4560 4561 
285 286 511 510 310 311 536 535 2474 4392 4393 4385 2718 4563 4564 4556 2705 2715 4562 4555 4558 4565 2721 4566 4396 4567 4568 
286 287 512 511 311 312 537 536 2484 4399 4400 4392 2728 4570 4571 4563 2715 2725 4569 4562 4565 4572 2731 4573 4403 4574 4575 
287 288 513 512 312 313 538 537 2494 4406 4407 4399 2738 4577 4578 4570 2725 2735 4576 4569 4572 4579 2741 4580 4410 4581 4582 
288 289 514 513 313 314 539 538 2504 4413 4414 4406 2748 4584 4585 4577 2735 2745 4583 4576 4579 4586 2751 4587 4417 4588 4589 
289 290 515 514 314 315 540 539 2514 4420 4421 4413 2758 4591 4592 4584 2745 2755 4590 4583 4586 4593 2761 4594 4424 4595 4596 
290 291 516 515 315 316 541 540 2524 4427 4428 4420 2768 4598 4599 4591 2755 2765 4597 4590 4593 4600 2771 4601 4431 4602 4603 
291 292 517 516 316 317 542 541 2534 4434 4435 4427 2778 4605 4606 4598 2765 2775 4604 4597 4600 4607 2781 4608 4438 4609 4610 
292 293 518 517 317 318 543 542 2544 4441 4442 4434 2788 4612 4613 4605 2775 2785 4611 4604 4607 4614 2791 4615 4445 4616 4617 
293 294 519 518 318 319 544 543 2554 4448 4449 4441 2798 4619 4620 4612 2785 2795 4618 4611 4614 4621 2801 4622 4452 4623 4624 
294 295 520 519 319 320 545 544 2564 4455 4456 4448 2808 4626 4627 4619 2795 2805 4625 4618 4621 4628 2811 4629 4459 4630 4631 
295 296 521 520 320 321 546 545 2574 4462 4463 4455 2818 4633 4634 4626 2805 2815 4632 4625 4628 4635 2821 4636 4466 4637 4638 
296 297 522 521 321 322 547 546 2584 4469 4470 4462 2828 4640 4641 4633 2815 2825 4639 4632 4635 4642 2831 4643 4473 4644 4645 
297 298 523 522 322 323 548 547 2594 4476 4477 4469 2838 4647 4648 4640 2825 2835 4646 4639 4642 4649 2841 4650 4480 4651 4652 
298 299 524 523 323 324 549 548 2604 4483 4484 4476 2848 4654 4655 4647 2835 2845 4653 4646 4649 4656 2851 4657 4487 4658 4659 
300 301 526 525 325 326 551 550 2616 4491 4492 4493 2860 4662 4663 4664 2857 2856 4660 4661 4667 4665 2864 4666 4497 4668 4669 
301 302 527 526 326 327 552 551 2628 4500 4501 4491 2872 4671 4672 4662 2856 2869 4670 4660 4665 4673 2875 4674 4504 4675 4676 
302 303 528 527 327 328 553 552 2638 4507 4508 4500 2882 4678 4679 4671 2869 2879 4677 4670 4673 4680 2885 4681 4511 4682 4683 
303 304 529 528 328 329 554 553 2648 4514 4515 4507 2892 4685 4686 4678 2879 2889 4684 4677 4680 4687 2895 4688 4518 4689 4690 
304 305 530 529 329 330 555 554 2658 4521 4522 4514 2902 4692 4693 4685 2889 2899 4691 4684 4687 4694 2905 4695 4525 4696 4697 
305 306 531 530 330 331 556 555 2668 4528 4529 4521 2912 4699 4700 4692 2899 2909 4698 4691 4694 4701 2915 4702 4532 4703 4704 
306 307 532 531 331 332 557 556 2678 4535 4536 4528 2922 4706 4707 4699 2909 2919 4705 4698 4701 4708 2925 4709 4539 4710 4711 
307 308 533 532 332 333 558 557 2688 4542 4543 4535 2932 4713 4714 4706 2919 2929 4712 4705 4708 4715 2935 4716 4546 4717 4718 
308 309 534 533 333 334 559 558 2698 4549 4550 4542 2942 4720 4721 4713 2929 2939 4719 4712 4715 4722 2945 4723 4553 4724 4725 
309 310 535 534 334 335 560 559 2708 4556 4557 4549 2952 4727 4728 4720 2939 2949 4726 4719 4722 4729 2955 4730 4560 4731 4732 
310 311 536 535 335 336 561 560 2718 4563 4564 4556 2962 4734 4735 4727 2949 2959 4733 4726 4729 4736 2965 4737 4567 4738 4739 
311 312 537 536 336 337 562 561 2728 4570 4571 4563 2972 4741 4742 4734 2959 2969 4740 4733 4736 4743 2975 4744 4574 4745 4746 
312 313 538 537 337 338 563 562 2738 4577 4578 4570 2982 4748 4749 4741 2969 2979 4747 4740 4743 4750 2985 4751 4581 4752 4753 
313 314 539 538 338 339 564 563 2748 4584 4585 4577 2992 4755 4756 4748 2979 2989 4754 4747 4750 4757 2995 4758 4588 4759 4760 
314 315 540 539 339 340 565 564 2758 4591 4592 4584 3002 4762 4763 4755 2989 2999 4761 4754 4757 4764 3005 4765 4595 4766 4767 
315 316 541 540 340 341 566 565 2768 4598 4599 4591 3012 4769 4770 4762 2999 3009 4768 4761 4764 4771 3015 4772 4602 4773 4774 
316 317 542 541 341 342 567 566 2778 4605 4606 4598 3022 4776 4777 4769 3009 3019 4775 4768 4771 4778 3025 4779 4609 4780 4781 
317 318 543 542 342 343 568 567 2788 4612 4613 4605 3032 4783 4784 4776 3019 3029 4782 4775 4778 4785 3035 4786 4616 4787 4788 
318 319 544 543 343 344 569 568 2798 4619 4620 4612 3042 4790 4791 4783 3029 3039 4789 4782 4785 4792 3045 4793 4623 4794 4795 
319 320 545 544 344 345 570 569 2808 4626 4627 4619 3052 4797 4798 4790 3039 3049 4796 4789 4792 4799 3055 4800 4630 4801 4802 
320 321 546 545 345 346 571 570 2818 4633 4634 4626 3062 4804 4805 4797 3049 3059 4803 4796 4799 4806 3065 4807 4637 4808 4809 
321 322 547 546 346 347 572 571 2828 4640 4641 4633 3072 4811 4812 4804 3059 3069 4810 4803 4806 4813 3075 4814 4644 4815 4816 
322 323 548 547 347 348 573 572 2838 4647 4648 4640 3082 4818 4819 4811 3069 3079 4817 4810 4813 4820 3085 4821 4651 4822 4823 
323 324 549 548 348 349 574 573 2848 4654 4655 4647 3092 4825 4826 4818 3079 3089 4824 4817 4820 4827 3095 4828 4658 4829 4830 
325 326 551 550 350 351 576 575 2860 4662 4663 4664 3104 4833 4834 4835 3101 3100 4831 4832 4838 4836 3108 4837 4668 4839 4840 
326 327 552 551 351 352 577 576 2872 4671 4672 4662 3116 4842 4843 4833 3100 3113 4841 4831 4836 4844 3119 4845 4675 4846 4847 
327 328 553 552 352 353 578 577 2882 4678 4679 4671 3126 4849 4850 4842 3113 3123 4848 4841 4844 4851 3129 4852 4682 4853 4854 
328 329 554 553 353 354 579 578 2892 4685 4686 4678 3136 4856 4857 4849 3123 3133 4855 4848 4851 4858 3139 4859 4689 4860 4861 
329 330 555 554 354 355 580 579 2902 4692 4693 4685 3146 4863 4864 4856 3133 3143 4862 4855 4858 4865 3149 4866 4696 4867 4868 
330 331 556 555 355 356 581 580 2912 4699 4700 4692 3156 4870 4871 4863 3143 3153 4869 4862 4865 4872 3159 4873 4703 4874 4875 
331 332 557 556 356 357 582 581 2922 4706 4707 4699 3166 4877 4878 4870 3153 3163 4876 4869 4872 4879 3169 4880 4710 4881 4882 
332 333 558 557 357 358 583 582 2932 4713 4714 4706 3176 4884 4885 4877 3163 3173 4883 4876 4879 4886 3179 4887 4717 4888 4889 
333 334 559 558 358 359 584 583 2942 4720 4721 4713 3186 4891 4892 4884 3173 3183 4890 4883 4886 4893 3189 4894 4724 4895 4896 
334 335 560 559 359 360 585 584 2952 4727 4728 4720 3196 4898 4899 4891 3183 3193 4897 4890 4893 4900 3199 4901 4731 4902 4903 
335 336 561 560 360 361 586 585 2962 4734 4735 4727 3206 4905 4906 4898 3193 3203 4904 4897 4900 4907 3209 4908 4738 4909 4910 
336 337 562 561 361 362 587 586 2972 4741 4742 4734 3216 4912 4913 4905 3203 3213 4911 4904 4907 4914 3219 4915 4745 4916 4917 
337 338 563 562 362 363 588 587 2982 4748 4749 4741 3226 4919 4920 4912 3213 3223 4918 4911 4914 4921 3229 4922 4752 4923 4924 
338 339 564 563 363 364 589 588 2992 4755 4756 4748 3236 4926 4927 4919 3223 3233 4925 4918 4921 4928 3239 4929 4759 4930 4931 
339 340 565 564 364 365 590 589 3002 4762 4763 4755 3246 4933 4934 4926 3233 3243 4932 4925 4928 4935 3249 4936 4766 4937 4938 
340 341 566 565 365 366 591 590 3012 4769 4770 4762 3256 4940 4941 4933 3243 3253 4939 4932 4935 4942 3259 4943 4773 4944 4945 
341 342 567 566 366 367 592 591 3022 4776 4777 4769 3266 4947 4948 4940 3253 3263 4946 4939 4942 4949 3269 4950 4780 4951 4952 
342 343 568 567 367 368 593 592 3032 4783 4784 4776 3276 4954 4955 4947 3263 3273 4953 4946 4949 4956 3279 4957 4787 4958 4959 
343 344 569 568 368 369 594 593 3042 4790 4791 4783 3286 4961 4962 4954 3273 3283 4960 4953 4956 4963 3289 4964 4794 4965 4966 
344 345 570 569 369 370 595 594 3052 4797 4798 4790 3296 4968 4969 4961 3283 3293 4967 4960 4963 4970 3299 4971 4801 4972 4973 
345 346 571 570 370 371 596 595 3062 4804 4805 4797 3306 4975 4976 4968 3293 3303 4974 4967 4970 4977 3309 4978 4808 4979 4980 
346 347 572 571 371 372 597 596 3072 4811 4812 4804 3316 4982 4983 4975 3303 3313 4981 4974 4977 4984 3319 4985 4815 4986 4987 
347 348 573 572 372 373 598 597 3082 4818 4819 4811 3326 4989 4990 4982 3313 3323 4988 4981 4984 4991 3329 4992 4822 4993 4994 
348 349 574 573 373 374 599 598 3092 4825 4826 4818 3336 4996 4997 4989 3323 3333 4995 4988 4991 4998 3339 4999 4829 5000 5001 
350 351 576 575 375 376 601 600 3104 4833 4834 4835 3348 5004 5005 5006 3345 3344 5002 5003 5009 5007 3352 5008 4839 5010 5011 
351 352 577 576 376 377 602 601 3116 4842 4843 4833 3360 5013 5014 5004 3344 3357 5012 5002 5007 5015 3363 5016 4846 5017 5018 
352 353 578 577 377 378 603 602 3126 4849 4850 4842 3370 5020 5021 5013 3357 3367 5019 5012 5015 5022 3373 5023 4853 5024 5025 
353 354 579 578 378 379 604 603 3136 4856 4857 4849 3380 5027 5028 5020 3367 3377 5026 5019 5022 5029 3383 5030 4860 5031 5032 
354 355 580 579 379 380 605 604 3146 4863 4864 4856 3390 5034 5035 5027 3377 3387 5033 5026 5029 5036 3393 5037 4867 5038 5039 
355 356 581 580 380 381 606 605 3156 4870 4871 4863 3400 5041 5042 5034 3387 3397 5040 5033 5036 5043 3403 5044 4874 5045 5046 
356 357 582 581 381 382 607 606 3166 4877 4878 4870 3410 5048 5049 5041 3397 3407 5047 5040 5043 5050 3413 5051 4881 5052 5053 
357 358 583 582 382 383 608 607 3176 4884 4885 4877 3420 5055 5056 5048 3407 3417 5054 5047 5050 5057 3423 5058 4888 5059 5060 
358 359 584 583 383 384 609 608 3186 4891 4892 4884 3430 5062 5063 5055 3417 3427 5061 5054 5057 5064 3433 5065 4895 5066 5067 
359 360 585 584 384 385 610 609 3196 4898 4899 4891 3440 5069 5070 5062 3427 3437 5068 5061 5064 5071 3443 5072 4902 5073 5074 
360 361 586 585 385 386 611 610 3206 4905 4906 4898 3450 5076 5077 5069 3437 3447 5075 5068 5071 5078 3453 5079 4909 5080 5081 
361 362 587 586 386 387 612 611 3216 4912 4913 4905 3460 5083 5084 5076 3447 3457 5082 5075 5078 5085 3463 5086 4916 5087 5088 
362 363 588 587 387 388 613 612 3226 4919 4920 4912 3470 5090 5091 5083 3457 3467 5089 5082 5085 5092 3473 5093 4923 5094 5095 
363 364 589 588 388 389 614 613 3236 4926 4927 4919 3480 5097 5098 5090 3467 3477 5096 5089 5092 5099 3483 5100 4930 5101 5102 
364 365 590 589 389 390 615 614 3246 4933 4934 4926 3490 5104 5105 5097 3477 3487 5103 5096 5099 5106 3493 5107 4937 5108 5109 
365 366 591 590 390 391 616 615 3256 4940 4941 4933 3500 5111 5112 5104 3487 3497 5110 5103 5106 5113 3503 5114 4944 5115 5116 
366 367 592 591 391 392 617 616 3266 4947 4948 4940 3510 5118 5119 5111 3497 3507 5117 5110 5113 5120 3513 5121 4951 5122 5123 
367 368 593 592 392 393 618 617 3276 4954 4955 4947 3520 5125 5126 5118 3507 3517 5124 5117 5120 5127 3523 5128 4958 5129 5130 
368 369 594 593 393 394 619 618 3286 4961 4962 4954 3530 5132 5133 5125 3517 3527 5131 5124 5127 5134 3533 5135 4965 5136 5137 
369 370 595 594 394 395 620 619 3296 4968 4969 4961 3540 5139 5140 5132 3527 3537 5138 5131 5134 5141 3543 5142 4972 5143 5144 
370 371 596 595 395 396 621 620 3306 4975 4976 4968 3550 5146 5147 5139 3537 3547 5145 5138 5141 5148 3553 5149 4979 5150 5151 
371 372 597 596 396 397 622 621 3316 4982 4983 4975 3560 5153 5154 5146 3547 3557 5152 5145 5148 5155 3563 5156 4986 5157 5158 
372 373 598 597 397 398 623 622 3326 4989 4990 4982 3570 5160 5161 5153 3557 3567 5159 5152 5155 5162 3573 5163 4993 5164 5165 
373 374 599 598 398 399 624 623 3336 4996 4997 4989 3580 5167 5168 5160 3567 3577 5166 5159 5162 5169 3583 5170 5000 5171 5172 
375 376 601 600 400 401 626 625 3348 5004 5005 5006 3592 5175 5176 5177 3589 3588 5173 5174 5180 5178 3596 5179 5010 5181 5182 
376 377 602 601 401 402 627 626 3360 5013 5014 5004 3604 5184 5185 5175 3588 3601 5183 5173 5178 5186 3607 5187 5017 5188 5189 
377 378 603 602 402 403 628 627 3370 5020 5021 5013 3614 5191 5192 5184 3601 3611 5190 5183 5186 5193 3617 5194 5024 5195 5196 
378 379 604 603 403 404 629 628 3380 5027 5028 5020 3624 5198 5199 5191 3611 3621 5197 5190 5193 5200 3627 5201 5031 5202 5203 
379 380 605 604 404 405 630 629 3390 5034 5035 5027 3634 5205 5206 5198 3621 3631 5204 5197 5200 5207 3637 5208 5038 5209 5210 
380 381 606 605 405 406 631 630 3400 5041 5042 5034 3644 5212 5213 5205 3631 3641 5211 5204 5207 5214 3647 5215 5045 5216 5217 
381 382 607 606 406 407 632 631 3410 5048 5049 5041 3654 5219 5220 5212 3641 3651 5218 5211 5214 5221 3657 5222 5052 5223 5224 
382 383 608 607 407 408 633 632 3420 5055 5056 5048 3664 5226 5227 5219 3651 3661 5225 5218 5221 5228 3667 5229 5059 5230 5231 
383 384 609 608 408 409 634 633 3430 5062 5063 5055 3674 5233 5234 5226 3661 3671 5232 5225 5228 5235 3677 5236 5066 5237 5238 
384 385 610 609 409 410 635 634 3440 5069 5070 5062 3684 5240 5241 5233 3671 3681 5239 5232 5235 5242 3687 5243 5073 5244 5245 
385 386 611 610 410 411 636 635 3450 5076 5077 5069 3694 5247 5248 5240 3681 3691 5246 5239 5242 5249 3697 5250 5080 5251 5252 
386 387 612 611 411 412 637 636 3460 5083 5084 5076 3704 5254 5255 5247 3691 3701 5253 5246 5249 5256 3707 5257 5087 5258 5259 
387 388 613 612 412 413 638 637 3470 5090 5091 5083 3714 5261 5262 5254 3701 3711 5260 5253 5256 5263 3717 5264 5094 5265 5266 
388 389 614 613 413 414 639 638 3480 5097 5098 5090 3724 5268 5269 5261 3711 3721 5267 5260 5263 5270 3727 5271 5101 5272 5273 
389 390 615 614 414 415 640 639 3490 5104 5105 5097 3734 5275 5276 5268 3721 3731 5274 5267 5270 5277 3737 5278 5108 5279 5280 
390 391 616 615 415 416 641 640 3500 5111 5112 5104 3744 5282 5283 5275 3731 3741 5281 5274 5277 5284 3747 5285 5115 5286 5287 
391 392 617 616 416 417 642 641 3510 5118 5119 5111 3754 5289 5290 5282 3741 3751 5288 5281 5284 5291 3757 5292 5122 5293 5294 
392 393 618 617 417 418 643 642 3520 5125 5126 5118 3764 5296 5297 5289 3751 3761 5295 5288 5291 5298 3767 5299 5129 5300 5301 
393 394 619 618 418 419 644 643 3530 5132 5133 5125 3774 5303 5304 5296 3761 3771 5302 5295 5298 5305 3777 5306 5136 5307 5308 
394 395 620 619 419 420 645 644 3540 5139 5140 5132 3784 5310 5311 5303 3771 3781 5309 5302 5305 5312 3787 5313 5143 5314 5315 
395 396 621 620 420 421 646 645 3550 5146 5147 5139 3794 5317 5318 5310 3781 3791 5316 5309 5312 5319 3797 5320 5150 5321 5322 
396 397 622 621 421 422 647 646 3560 5153 5154 5146 3804 5324 5325 5317 3791 3801 5323 5316 5319 5326 3807 5327 5157 5328 5329 
397 398 623 622 422 423 648 647 3570 5160 5161 5153 3814 5331 5332 5324 3801 3811 5330 5323 5326 5333 3817 5334 5164 5335 5336 
398 399 624 623 423 424 649 648 3580 5167 5168 5160 3824 5338 5339 5331 3811 3821 5337 5330 5333 5340 3827 5341 5171 5342 5343 
400 401 626 625 425 426 651 650 3592 5175 5176 5177 3836 5346 5347 5348 3833 3832 5344 5345 5351 5349 3840 5350 5181 5352 5353 
401 402 627 626 426 427 652 651 3604 5184 5185 5175 3848 5355 5356 5346 3832 3845 5354 5344 5349 5357 3851 5358 5188 5359 5360 
402 403 628 627 427 428 653 652 3614 5191 5192 5184 3858 5362 5363 5355 3845 3855 5361 5354 5357 5364 3861 5365 5195 5366 5367 
403 404 629 628 428 429 654 653 3624 5198 5199 5191 3868 5369 5370 5362 3855 3865 5368 5361 5364 5371 3871 5372 5202 5373 5374 
404 405 630 629 429 430 655 654 3634 5205 5206 5198 3878 5376 5377 5369 3865 3875 5375 5368 5371 5378 3881 5379 5209 5380 5381 
405 406 631 630 430 431 656 655 3644 5212 5213 5205 3888 5383 5384 5376 3875 3885 5382 5375 5378 5385 3891 5386 5216 5387 5388 
406 407 632 631 431 432 657 656 3654 5219 5220 5212 3898 5390 5391 5383 3885 3895 5389 5382 5385 5392 3901 5393 5223 5394 5395 
407 408 633 632 432 433 658 657 3664 5226 5227 5219 3908 5397 5398 5390 3895 3905 5396 5389 5392 5399 3911 5400 5230 5401 5402 
408 409 634 633 433 434 659 658 3674 5233 5234 5226 3918 5404 5405 5397 3905 3915 5403 5396 5399 5406 3921 5407 5237 5408 5409 
409 410 635 634 434 435 660 659 3684 5240 5241 5233 3928 5411 5412 5404 3915 3925 5410 5403 5406 5413 3931 5414 5244 5415 5416 
410 411 636 635 435 436 661 660 3694 5247 5248 5240 3938 5418 5419 5411 3925 3935 5417 5410 5413 5420 3941 5421 5251 5422 5423 
411 412 637 636 436 437 662 661 3704 5254 5255 5247 3948 5425 5426 5418 3935 3945 5424 5417 5420 5427 3951 5428 5258 5429 5430 
412 413 638 637 437 438 663 662 3714 5261 5262 5254 3958 5432 5433 5425 3945 3955 5431 5424 5427 5434 3961 5435 5265 5436 5437 
413 414 639 638 438 439 664 663 3724 5268 5269 5261 3968 5439 5440 5432 3955 3965 5438 5431 5434 5441 3971 5442 5272 5443 5444 
414 415 640 639 439 440 665 664 3734 5275 5276 5268 3978 5446 5447 5439 3965 3975 5445 5438 5441 5448 3981 5449 5279 5450 5451 
415 416 641 640 440 441 666 665 3744 5282 5283 5275 3988 5453 5454 5446 3975 3985 5452 5445 5448 5455 3991 5456 5286 5457 5458 
416 417 642 641 441 442 667 666 3754 5289 5290 5282 3998 5460 5461 5453 3985 3995 5459 5452 5455 5462 4001 5463 5293 5464 5465 
417 418 643 642 442 443 668 667 3764 5296 5297 5289 4008 5467 5468 5460 3995 4005 5466 5459 5462 5469 4011 5470 5300 5471 5472 
418 419 644 643 443 444 669 668 3774 5303 5304 5296 4018 5474 5475 5467 4005 4015 5473 5466 5469 5476 4021 5477 5307 5478 5479 
419 420 645 644 444 445 670 669 3784 5310 5311 5303 4028 5481 5482 5474 4015 4025 5480 5473 5476 5483 4031 5484 5314 5485 5486 
420 421 646 645 445 446 671 670 3794 5317 5318 5310 4038 5488 5489 5481 4025 4035 5487 5480 5483 5490 4041 5491 5321 5492 5493 
421 422 647 646 446 447 672 671 3804 5324 5325 5317 4048 5495 5496 5488 4035 4045 5494 5487 5490 5497 4051 5498 5328 5499 5500 
422 423 648 647 447 448 673 672 3814 5331 5332 5324 4058 5502 5503 5495 4045 4055 5501 5494 5497 5504 4061 5505 5335 5506 5507 
423 424 649 648 448 449 674 673 3824 5338 5339 5331 4068 5509 5510 5502 4055 4065 5508 5501 5504 5511 4071 5512 5342 5513 5514 
450 451 676 675 475 476 701 700 4075 5515 5516 5517 4080 5520 5521 5522 4078 4077 5518 5519 5526 5524 4084 5525 5523 5527 5528 
451 452 677 676 476 477 702 701 4089 5529 5530 5515 4092 5532 5533 5520 4077 4090 5531 5518 5524 5535 4095 5536 5534 5537 5538 
452 453 678 677 477 478 703 702 4099 5539 5540 5529 4102 5542 5543 5532 4090 4100 5541 5531 5535 5545 4105 5546 5544 5547 5548 
453 454 679 678 478 479 704 703 4109 5549 5550 5539 4112 5552 5553 5542 4100 4110 5551 5541 5545 5555 4115 5556 5554 5557 5558 
454 455 680 679 479 480 705 704 4119 5559 5560 5549 4122 5562 5563 5552 4110 4120 5561 5551 5555 5565 4125 5566 5564 5567 5568 
455 456 681 680 480 481 706 705 4129 5569 5570 5559 4132 5572 5573 5562 4120 4130 5571 5561 5565 5575 4135 5576 5574 5577 5578 
456 457 682 681 481 482 707 706 4139 5579 5580 5569 4142 5582 5583 5572 4130 4140 5581 5571 5575 5585 4145 5586 5584 5587 5588 
457 458 683 682 482 483 708 707 4149 5589 5590 5579 4152 5592 5593 5582 4140 4150 5591 5581 5585 5595 4155 5596 5594 5597 5598 
458 459 684 683 483 484 709 708 4159 5599 5600 5589 4162 5602 5603 5592 4150 4160 5601 5591 5595 5605 4165 5606 5604 5607 5608 
459 460 685 684 484 485 710 709 4169 5609 5610 5599 4172 5612 5613 5602 4160 4170 5611 5601 5605 5615 4175 5616 5614 5617 5618 
460 461 686 685 485 486 711 710 4179 5619 5620 5609 4182 5622 5623 5612 4170 4180 5621 5611 5615 5625 4185 5626 5624 5627 5628 
461 462 687 686 486 487 712 711 4189 5629 5630 5619 4192 5632 5633 5622 4180 4190 5631 5621 5625 5635 4195 5636 5634 5637 5638 
462 463 688 687 487 488 713 712 4199 5639 5640 5629 4202 5642 5643 5632 4190 4200 5641 5631 5635 5645 4205 5646 5644 5647 5648 
463 464 689 688 488 489 714 713 4209 5649 5650 5639 4212 5652 5653 5642 4200 4210 5651 5641 5645 5655 4215 5656 5654 5657 5658 
464 465 690 689 489 490 715 714 4219 5659 5660 5649 4222 5662 5663 5652 4210 4220 5661 5651 5655 5665 4225 5666 5664 5667 5668 
465 466 691 690 490 491 716 715 4229 5669 5670 5659 4232 5672 5673 5662 4220 4230 5671 5661 5665 5675 4235 5676 5674 5677 5678 
466 467 692 691 491 492 717 716 4239 5679 5680 5669 4242 5682 5683 5672 4230 4240 5681 5671 5675 5685 4245 5686 5684 5687 5688 
467 468 693 692 492 493 718 717 4249 5689 5690 5679 4252 5692 5693 5682 4240 4250 5691 5681 5685 5695 4255 5696 5694 5697 5698 
468 469 694 693 493 494 719 718 4259 5699 5700 5689 4262 5702 5703 5692 4250 4260 5701 5691 5695 5705 4265 5706 5704 5707 5708 
469 470 695 694 494 495 720 719 4269 5709 5710 5699 4272 5712 5713 5702 4260 4270 5711 5701 5705 5715 4275 5716 5714 5717 5718 
470 471 696 695 495 496 721 720 4279 5719 5720 5709 4282 5722 5723 5712 4270 4280 5721 5711 5715 5725 4285 5726 5724 5727 5728 
471 472 697 696 496 497 722 721 4289 5729 5730 5719 4292 5732 5733 5722 4280 4290 5731 5721 5725 5735 4295 5736 5734 5737 5738 
472 473 698 697 497 498 723 722 4299 5739 5740 5729 4302 5742 5743 5732 4290 4300 5741 5731 5735 5745 4305 5746 5744 5747 5748 
473 474 699 698 498 499 724 723 4309 5749 5750 5739 4312 5752 5753 5742 4300 4310 5751 5741 5745 5755 4315 5756 5754 5757 5758 
475 476 701 700 500 501 726 725 4080 5520 5521 5522 4321 5761 5762 5763 4319 4318 5759 5760 5766 5764 4324 5765 5527 5767 5768 
476 477 702 701 501 502 727 726 4092 5532 5533 5520 4330 5770 5771 5761 4318 4328 5769 5759 5764 5772 4332 5773 5537 5774 5775 
477 478 703 702 502 503 728 727 4102 5542 5543 5532 4337 5777 5778 5770 4328 4335 5776 5769 5772 5779 4339 5780 5547 5781 5782 
478 479 704 703 503 504 729 728 4112 5552 5553 5542 4344 5784 5785 5777 4335 4342 5783 5776 5779 5786 4346 5787 5557 5788 5789 
479 480 705 704 504 505 730 729 4122 5562 5563 5552 4351 5791 5792 5784 4342 4349 5790 5783 5786 5793 4353 5794 5567 5795 5796 
480 481 706 705 505 506 731 730 4132 5572 5573 5562 4358 5798 5799 5791 4349 4356 5797 5790 5793 5800 4360 5801 5577 5802 5803 
481 482 707 706 506 507 732 731 4142 5582 5583 5572 4365 5805 5806 5798 4356 4363 5804 5797 5800 5807 4367 5808 5587 5809 5810 
482 483 708 707 507 508 733 732 4152 5592 5593 5582 4372 5812 5813 5805 4363 4370 5811 5804 5807 5814 4374 5815 5597 5816 5817 
483 484 709 708 508 509 734 733 4162 5602 5603 5592 4379 5819 5820 5812 4370 4377 5818 5811 5814 5821 4381 5822 5607 5823 5824 
484 485 710 709 509 510 735 734 4172 5612 5613 5602 4386 5826 5827 5819 4377 4384 5825 5818 5821 5828 4388 5829 5617 5830 5831 
485 486 711 710 510 511 736 735 4182 5622 5623 5612 4393 5833 5834 5826 4384 4391 5832 5825 5828 5835 4395 5836 5627 5837 5838 
486 487 712 711 511 512 737 736 4192 5632 5633 5622 4400 5840 5841 5833 4391 4398 5839 5832 5835 5842 4402 5843 5637 5844 5845 
487 488 713 712 512 513 738 737 4202 5642 5643 5632 4407 5847 5848 5840 4398 4405 5846 5839 5842 5849 4409 5850 5647 5851 5852 
488 489 714 713 513 514 739 738 4212 5652 5653 5642 4414 5854 5855 5847 4405 4412 5853 5846 5849 5856 4416 5857 5657 5858 5859 
489 490 715 714 514 515 740 739 4222 5662 5663 5652 4421 5861 5862 5854 4412 4419 5860 5853 5856 5863 4423 5864 5667 5865 5866 
490 491 716 715 515 516 741 740 4232 5672 5673 5662 4428 5868 5869 5861 4419 4426 5867 5860 5863 5870 4430 5871 5677 5872 5873 
491 492 717 716 516 517 742 741 4242 5682 5683 5672 4435 5875 5876 5868 4426 4433 5874 5867 5870 5877 4437 5878 5687 5879 5880 
492 493 718 717 517 518 743 742 4252 5692 5693 5682 4442 5882 5883 5875 4433 4440 5881 5874 5877 5884 4444 5885 5697 5886 5887 
493 494 719 718 518 519 744 743 4262 5702 5703 5692 4449 5889 5890 5882 4440 4447 5888 5881 5884 5891 4451 5892 5707 5893 5894 
494 495 720 719 519 520 745 744 4272 5712 5713 5702 4456 5896 5897 5889 4447 4454 5895 5888 5891 5898 4458 5899 5717 5900 5901 
495 496 721 720 520 521 746 745 4282 5722 5723 5712 4463 5903 5904 5896 4454 4461 5902 5895 5898 5905 4465 5906 5727 5907 5908 
496 497 722 721 521 522 747 746 4292 5732 5733 5722 4470 5910 5911 5903 4461 4468 5909 5902 5905 5912 4472 5913 5737 5914 5915 
497 498 723 722 522 523 748 747 4302 5742 5743 5732 4477 5917 5918 5910 4468 4475 5916 5909 5912 5919 4479 5920 5747 5921 5922 
498 499 724 723 523 524 749 748 4312 5752 5753 5742 4484 5924 5925 5917 4475 4482 5923 5916 5919 5926 4486 5927 5757 5928 5929 
500 501 726 725 525 526 751 750 4321 5761 5762 5763 4492 5932 5933 5934 4490 4489 5930 5931 5937 5935 4495 5936 5767 5938 5939 
501 502 727 726 526 527 752 751 4330 5770 5771 5761 4501 5941 5942 5932 4489 4499 5940 5930 5935 5943 4503 5944 5774 5945 5946 
502 503 728 727 527 528 753 752 4337 5777 5778 5770 4508 5948 5949 5941 4499 4506 5947 5940 5943 5950 4510 5951 5781 5952 5953 
503 504 729 728 528 529 754 753 4344 5784 5785 5777 4515 5955 5956 5948 4506 4513 5954 5947 5950 5957 4517 5958 5788 5959 5960 
504 505 730 729 529 530 755 754 4351 5791 5792 5784 4522 5962 5963 5955 4513 4520 5961 5954 5957 5964 4524 5965 5795 5966 5967 
505 506 731 730 530 531 756 755 4358 5798 5799 5791 4529 5969 5970 5962 4520 4527 5968 5961 5964 5971 4531 5972 5802 5973 5974 
506 507 732 731 531 532 757 756 4365 5805 5806 5798 4536 5976 5977 5969 4527 4534 5975 5968 5971 5978 4538 5979 5809 5980 5981 
507 508 733 732 532 533 758 757 4372 5812 5813 5805 4543 5983 5984 5976 4534 4541 5982 5975 5978 5985 4545 5986 5816 5987 5988 
508 509 734 733 533 534 759 758 4379 5819 5820 5812 4550 5990 5991 5983 4541 4548 5989 5982 5985 5992 4552 5993 5823 5994 5995 
509 510 735 734 534 535 760 759 4386 5826 5827 5819 4557 5997 5998 5990 4548 4555 5996 5989 5992 5999 4559 6000 5830 6001 6002 
510 511 736 735 535 536 761 760 4393 5833 5834 5826 4564 6004 6005 5997 4555 4562 6003 5996 5999 6006 4566 6007 5837 6008 6009 
511 512 737 736 536 537 762 761 4400 5840 5841 5833 4571 6011 6012 6004 4562 4569 6010 6003 6006 6013 4573 6014 5844 6015 6016 
512 513 738 737 537 538 763 762 4407 5847 5848 5840 4578 6018 6019 6011 4569 4576 6017 6010 6013 6020 4580 6021 5851 6022 6023 
513 514 739 738 538 539 764 763 4414 5854 5855 5847 4585 6025 6026 6018 4576 4583 6024 6017 6020 6027 4587 6028 5858 6029 6030 
514 515 740 739 539 540 765 764 4421 5861 5862 5854 4592 6032 6033 6025 4583 4590 6031 6024 6027 6034 4594 6035 5865 6036 6037 
515 516 741 740 540 541 766 765 4428 5868 5869 5861 4599 6039 6040 6032 4590 4597 6038 6031 6034 6041 4601 6042 5872 6043 6044 
516 517 742 741 541 542 767 766 4435 5875 5876 5868 4606 6046 6047 6039 4597 4604 6045 6038 6041 6048 4608 6049 5879 6050 6051 
517 518 743 742 542 543 768 767 4442 5882 5883 5875 4613 6053 6054 6046 4604 4611 6052 6045 6048 6055 4615 6056 5886 6057 6058 
518 519 744 743 543 544 769 768 4449 5889 5890 5882 4620 6060 6061 6053 4611 4618 6059 6052 6055 6062 4622 6063 5893 6064 6065 
519 520 745 744 544 545 770 769 4456 5896 5897 5889 4627 6067 6068 6060 4618 4625 6066 6059 6062 6069 4629 6070 5900 6071 6072 
520 521 746 745 545 546 771 770 4463 5903 5904 5896 4634 6074 6075 6067 4625 4632 6073 6066 6069 6076 4636 6077 5907 6078 6079 
521 522 747 746 546 547 772 771 4470 5910 5911 5903 4641 6081 6082 6074 4632 4639 6080 6073 6076 6083 4643 6084 5914 6085 6086 
522 523 748 747 547 548 773 772 4477 5917 5918 5910 4648 6088 6089 6081 4639 4646 6087 6080 6083 6090 4650 6091 5921 6092 6093 
523 524 749 748 548 549 774 773 4484 5924 5925 5917 4655 6095 6096 6088 4646 4653 6094 6087 6090 6097 4657 6098 5928 6099 6100 
525 526 751 750 550 551 776 775 4492 5932 5933 5934 4663 6103 6104 6105 4661 4660 6101 6102 6108 6106 4666 6107 5938 6109 6110 
526 527 752 751 551 552 777 776 4501 5941 5942 5932 4672 6112 6113 6103 4660 4670 6111 6101 6106 6114 4674 6115 5945 6116 6117 
527 528 753 752 552 553 778 777 4508 5948 5949 5941 4679 6119 6120 6112 4670 4677 6118 6111 6114 6121 4681 6122 5952 6123 6124 
528 529 754 753 553 554 779 778 4515 5955 5956 5948 4686 6126 6127 6119 4677 4684 6125 6118 6121 6128 4688 6129 5959 6130 6131 
529 530 755 754 554 555 780 779 4522 5962 5963 5955 4693 6133 6134 6126 4684 4691 6132 6125 6128 6135 4695 6136 5966 6137 6138 
530 531 756 755 555 556 781 780 4529 5969 5970 5962 4700 6140 6141 6133 4691 4698 6139 6132 6135 6142 4702 6143 5973 6144 6145 
531 532 757 756 556 557 782 781 4536 5976 5977 5969 4707 6147 6148 6140 4698 4705 6146 6139 6142 6149 4709 6150 5980 6151 6152 
532 533 758 757 557 558 783 782 4543 5983 5984 5976 4714 6154 6155 6147 4705 4712 6153 6146 6149 6156 4716 6157 5987 6158 6159 
533 534 759 758 558 559 784 783 4550 5990 5991 5983 4721 6161 6162 6154 4712 4719 6160 6153 6156 6163 4723 6164 5994 6165 6166 
534 535 760 759 559 560 785 784 4557 5997 5998 5990 4728 6168 6169 6161 4719 4726 6167 6160 6163 6170 4730 6171 6001 6172 6173 
535 536 761 760 560 561 786 785 4564 6004 6005 5997 4735 6175 6176 6168 4726 4733 6174 6167 6170 6177 4737 6178 6008 6179 6180 
536 537 762 761 561 562 787 786 4571 6011 6012 6004 4742 6182 6183 6175 4733 4740 6181 6174 6177 6184 4744 6185 6015 6186 6187 
537 538 763 762 562 563 788 787 4578 6018 6019 6011 4749 6189 6190 6182 4740 4747 6188 6181 6184 6191 4751 6192 6022 6193 6194 
538 539 764 763 563 564 789 788 4585 6025 6026 6018 4756 6196 6197 6189 4747 4754 6195 6188 6191 6198 4758 6199 6029 6200 6201 
539 540 765 764 564 565 790 789 4592 6032 6033 6025 4763 6203 6204 6196 4754 4761 6202 6195 6198 6205 4765 6206 6036 6207 6208 
540 541 766 765 565 566 791 790 4599 6039 6040 6032 4770 6210 6211 6203 4761 4768 6209 6202 6205 6212 4772 6213 6043 6214 6215 
541 542 767 766 566 567 792 791 4606 6046 6047 6039 4777 6217 6218 6210 4768 4775 6216 6209 6212 6219 4779 6220 6050 6221 6222 
542 543 768 767 567 568 793 792 4613 6053 6054 6046 4784 6224 6225 6217 4775 4782 6223 6216 6219 6226 4786 6227 6057 6228 6229 
543 544 769 768 568 569 794 793 4620 6060 6061 6053 4791 6231 6232 6224 4782 4789 6230 6223 6226 6233 4793 6234 6064 6235 6236 
544 545 770 769 569 570 795 794 4627 6067 6068 6060 4798 6238 6239 6231 4789 4796 6237 6230 6233 6240 4800 6241 6071 6242 6243 
545 546 771 770 570 571 796 795 4634 6074 6075 6067 4805 6245 6246 6238 4796 4803 6244 6237 6240 6247 4807 6248 6078 6249 6250 
546 547 772 771 571 572 797 796 4641 6081 6082 6074 4812 6252 6253 6245 4803 4810 6251 6244 6247 6254 4814 6255 6085 6256 6257 
547 548 773 772 572 573 798 797 4648 6088 6089 6081 4819 6259 6260 6252 4810 4817 6258 6251 6254 6261 4821 6262 6092 6263 6264 
548 549 774 773 573 574 799 798 4655 6095 6096 6088 4826 6266 6267 6259 4817 4824 6265 6258 6261 6268 4828 6269 6099 6270 6271 
550 551 776 775 575 576 801 800 4663 6103 6104 6105 4834 6274 6275 6276 4832 4831 6272 6273 6279 6277 4837 6278 6109 6280 6281 
551 552 777 776 576 577 802 801 4672 6112 6113 6103 4843 6283 6284 6274 4831 4841 6282 6272 6277 6285 4845 6286 6116 6287 6288 
552 553 778 777 577 578 803 802 4679 6119 6120 6112 4850 6290 6291 6283 4841 4848 6289 6282 6285 6292 4852 6293 6123 6294 6295 
553 554 779 778 578 579 804 803 4686 6126 6127 6119 4857 6297 6298 6290 4848 4855 6296 6289 6292 6299 4859 6300 6130 6301 6302 
554 555 780 779 579 580 805 804 4693 6133 6134 6126 4864 6304 6305 6297 4855 4862 6303 6296 6299 6306 4866 6307 6137 6308 6309 
555 556 781 780 580 581 806 805 4700 6140 6141 6133 4871 6311 6312 6304 4862 4869 6310 6303 6306 6313 4873 6314 6144 6315 6316 
556 557 782 781 581 582 807 806 4707 6147 6148 6140 4878 6318 6319 6311 4869 4876 6317 6310 6313 6320 4880 6321 6151 6322 6323 
557 558 783 782 582 583 808 807 4714 6154 6155 6147 4885 6325 6326 6318 4876 4883 6324 6317 6320 6327 4887 6328 6158 6329 6330 
558 559 784 783 583 584 809 808 4721 6161 6162 6154 4892 6332 6333 6325 4883 4890 6331 6324 6327 6334 4894 6335 6165 6336 6337 
559 560 785 784 584 585 810 809 4728 6168 6169 6161 4899 6339 6340 6332 4890 4897 6338 6331 6334 6341 4901 6342 6172 6343 6344 
560 561 786 785 585 586 811 810 4735 6175 6176 6168 4906 6346 6347 6339 4897 4904 6345 6338 6341 6348 4908 6349 6179 6350 6351 
561 562 787 786 586 587 812 811 4742 6182 6183 6175 4913 6353 6354 6346 4904 4911 6352 6345 6348 6355 4915 6356 6186 6357 6358 
562 563 788 787 587 588 813 812 4749 6189 6190 6182 4920 6360 6361 6353 4911 4918 6359 6352 6355 6362 4922 6363 6193 6364 6365 
563 564 789 788 588 589 814 813 4756 6196 6197 6189 4927 6367 6368 6360 4918 4925 6366 6359 6362 6369 4929 6370 6200 6371 6372 
564 565 790 789 589 590 815 814 4763 6203 6204 6196 4934 6374 6375 6367 4925 4932 6373 6366 6369 6376 4936 6377 6207 6378 6379 
565 566 791 790 590 591 816 815 4770 6210 6211 6203 4941 6381 6382 6374 4932 4939 6380 6373 6376 6383 4943 6384 6214 6385 6386 
566 567 792 791 591 592 817 816 4777 6217 6218 6210 4948 6388 6389 6381 4939 4946 6387 6380 6383 6390 4950 6391 6221 6392 6393 
567 568 793 792 592 593 818 817 4784 6224 6225 6217 4955 6395 6396 6388 4946 4953 6394 6387 6390 6397 4957 6398 6228 6399 6400 
568 569 794 793 593 594 819 818 4791 6231 6232 6224 4962 6402 6403 6395 4953 4960 6401 6394 6397 6404 4964 6405 6235 6406 6407 
569 570 795 794 594 595 820 819 4798 6238 6239 6231 4969 6409 6410 6402 4960 4967 6408 6401 6404 6411 4971 6412 6242 6413 6414 
570 571 796 795 595 596 821 820 4805 6245 6246 6238 4976 6416 6417 6409 4967 4974 6415 6408 6411 6418 4978 6419 6249 6420 6421 
571 572 797 796 596 597 822 821 4812 6252 6253 6245 4983 6423 6424 6416 4974 4981 6422 6415 6418 6425 4985 6426 6256 6427 6428 
572 573 798 797 597 598 823 822 4819 6259 6260 6252 4990 6430 6431 6423 4981 4988 6429 6422 6425 6432 4992 6433 6263 6434 6435 
573 574 799 798 598 599 824 823 4826 6266 6267 6259 4997 6437 6438 6430 4988 4995 6436 6429 6432 6439 4999 6440 6270 6441 6442 
575 576 801 800 600 601 826 825 4834 6274 6275 6276 5005 6445 6446 6447 5003 5002 6443 6444 6450 6448 5008 6449 6280 6451 6452 
576 577 802 801 601 602 827 826 4843 6283 6284 6274 5014 6454 6455 6445 5002 5012 6453 6443 6448 6456 5016 6457 6287 6458 6459 
577 578 803 802 602 603 828 827 4850 6290 6291 6283 5021 6461 6462 6454 5012 5019 6460 6453 6456 6463 5023 6464 6294 6465 6466 
578 579 804 803 603 604 829 828 4857 6297 6298 6290 5028 6468 6469 6461 5019 5026 6467 6460 6463 6470 5030 6471 6301 6472 6473 
579 580 805 804 604 605 830 829 4864 6304 6305 6297 5035 6475 6476 6468 5026 5033 6474 6467 6470 6477 5037 6478 6308 6479 6480 
580 581 806 805 605 606 831 830 4871 6311 6312 6304 5042 6482 6483 6475 5033 5040 6481 6474 6477 6484 5044 6485 6315 6486 6487 
581 582 807 806 606 607 832 831 4878 6318 6319 6311 5049 6489 6490 6482 5040 5047 6488 6481 6484 6491 5051 6492 6322 6493 6494 
582 583 808 807 607 608 833 832 4885 6325 6326 6318 5056 6496 6497 6489 5047 5054 6495 6488 6491 6498 5058 6499 6329 6500 6501 
583 584 809 808 608 609 834 833 4892 6332 6333 6325 5063 6503 6504 6496 5054 5061 6502 6495 6498 6505 5065 6506 6336 6507 6508 
584 585 810 809 609 610 835 834 4899 6339 6340 6332 5070 6510 6511 6503 5061 5068 6509 6502 6505 6512 5072 6513 6343 6514 6515 
585 586 811 810 610 611 836 835 4906 6346 6347 6339 5077 6517 6518 6510 5068 5075 6516 6509 6512 6519 5079 6520 6350 6521 6522 
586 587 812 811 611 612 837 836 4913 6353 6354 6346 5084 6524 6525 6517 5075 5082 6523 6516 6519 6526 5086 6527 6357 6528 6529 
587 588 813 812 612 613 838 837 4920 6360 6361 6353 5091 6531 6532 6524 5082 5089 6530 6523 6526 6533 5093 6534 6364 6535 6536 
588 589 814 813 613 614 839 838 4927 6367 6368 6360 5098 6538 6539 6531 5089 5096 6537 6530 6533 6540 5100 6541 6371 6542 6543 
589 590 815 814 614 615 840 839 4934 6374 6375 6367 5105 6545 6546 6538 5096 5103 6544 6537 6540 6547 5107 6548 6378 6549 6550 
590 591 816 815 615 616 841 840 4941 6381 6382 6374 5112 6552 6553 6545 5103 5110 6551 6544 6547 6554 5114 6555 6385 6556 6557 
591 592 817 816 616 617 842 841 4948 6388 6389 6381 5119 6559 6560 6552 5110 5117 6558 6551 6554 6561 5121 6562 6392 6563 6564 
592 593 818 817 617 618 843 842 4955 6395 6396 6388 5126 6566 6567 6559 5117 5124 6565 6558 6561 6568 5128 6569 6399 6570 6571 
593 594 819 818 618 619 844 843 4962 6402 6403 6395 5133 6573 6574 6566 5124 5131 6572 6565 6568 6575 5135 6576 6406 6577 6578 
594 595 820 819 619 620 845 844 4969 6409 6410 6402 5140 6580 6581 6573 5131 5138 6579 6572 6575 6582 5142 6583 6413 6584 6585 
595 596 821 820 620 621 846 845 4976 6416 6417 6409 5147 6587 6588 6580 5138 5145 6586 6579 6582 6589 5149 6590 6420 6591 6592 
596 597 822 821 621 622 847 846 4983 6423 6424 6416 5154 6594 6595 6587 5145 5152 6593 6586 6589 6596 5156 6597 6427 6598 6599 
597 598 823 822 622 623 848 847 4990 6430 6431 6423 5161 6601 6602 6594 5152 5159 6600 6593 6596 6603 5163 6604 6434 6605 6606 
598 599 824 823 623 624 849 848 4997 6437 6438 6430 5168 6608 6609 6601 5159 5166 6607 6600 6603 6610 5170 6611 6441 6612 6613 
600 601 826 825 625 626 851 850 5005 6445 6446 6447 5176 6616 6617 6618 5174 5173 6614 6615 6621 6619 5179 6620 6451 6622 6623 
601 602 827 826 626 627 852 851 5014 6454 6455 6445 5185 6625 6626 6616 5173 5183 6624 6614 6619 6627 5187 6628 6458 6629 6630 
602 603 828 827 627 628 853 852 5021 6461 6462 6454 5192 6632 6633 6625 5183 5190 6631 6624 6627 6634 5194 6635 6465 6636 6637 
603 604 829 828 628 629 854 853 5028 6468 6469 6461 5199 6639 6640 6632 5190 5197 6638 6631 6634 6641 5201 6642 6472 6643 6644 
604 605 830 829 629 630 855 854 5035 6475 6476 6468 5206 6646 6647 6639 5197 5204 6645 6638 6641 6648 5208 6649 6479 6650 6651 
605 606 831 830 630 631 856 855 5042 6482 6483 6475 5213 6653 6654 6646 5204 5211 6652 6645 6648 6655 5215 6656 6486 6657 6658 
606 607 832 831 631 632 857 856 5049 6489 6490 6482 5220 6660 6661 6653 5211 5218 6659 6652 6655 6662 5222 6663 6493 6664 6665 
607 608 833 832 632 633 858 857 5056 6496 6497 6489 5227 6667 6668 6660 5218 5225 6666 6659 6662 6669 5229 6670 6500 6671 6672 
608 609 834 833 633 634 859 858 5063 6503 6504 6496 5234 6674 6675 6667 5225 5232 6673 6666 6669 6676 5236 6677 6507 6678 6679 
609 610 835 834 634 635 860 859 5070 6510 6511 6503 5241 6681 6682 6674 5232 5239 6680 6673 6676 6683 5243 6684 6514 6685 6686 
610 611 836 835 635 636 861 860 5077 6517 6518 6510 5248 6688 6689 6681 5239 5246 6687 6680 6683 6690 5250 6691 6521 6692 6693 
611 612 837 836 636 637 862 861 5084 6524 6525 6517 5255 6695 6696 6688 5246 5253 6694 6687 6690 6697 5257 6698 6528 6699 6700 
612 613 838 837 637 638 863 862 5091 6531 6532 6524 5262 6702 6703 6695 5253 5260 6701 6694 6697 6704 5264 6705 6535 6706 6707 
613 614 839 838 638 639 864 863 5098 6538 6539 6531 5269 6709 6710 6702 5260 5267 6708 6701 6704 6711 5271 6712 6542 6713 6714 
614 615 840 839 639 640 865 864 5105 6545 6546 6538 5276 6716 6717 6709 5267 5274 6715 6708 6711 6718 5278 6719 6549 6720 6721 
615 616 841 840 640 641 866 865 5112 6552 6553 6545 5283 6723 6724 6716 5274 5281 6722 6715 6718 6725 5285 6726 6556 6727 6728 
616 617 842 841 641 642 867 866 5119 6559 6560 6552 5290 6730 6731 6723 5281 5288 6729 6722 6725 6732 5292 6733 6563 6734 6735 
617 618 843 842 642 643 868 867 5126 6566 6567 6559 5297 6737 6738 6730 5288 5295 6736 6729 6732 6739 5299 6740 6570 6741 6742 
618 619 844 843 643 644 869 868 5133 6573 6574 6566 5304 6744 6745 6737 5295 5302 6743 6736 6739 6746 5306 6747 6577 6748 6749 
619 620 845 844 644 645 870 869 5140 6580 6581 6573 5311 6751 6752 6744 5302 5309 6750 6743 6746 6753 5313 6754 6584 6755 6756 
620 621 846 845 645 646 871 870 5147 6587 6588 6580 5318 6758 6759 6751 5309 5316 6757 6750 6753 6760 5320 6761 6591 6762 6763 
621 622 847 846 646 647 872 871 5154 6594 6595 6587 5325 6765 6766 6758 5316 5323 6764 6757 6760 6767 5327 6768 6598 6769 6770 
622 623 848 847 647 648 873 872 5161 6601 6602 6594 5332 6772 6773 6765 5323 5330 6771 6764 6767 6774 5334 6775 6605 6776 6777 
623 624 849 848 648 649 874 873 5168 6608 6609 6601 5339 6779 6780 6772 5330 5337 6778 6771 6774 6781 5341 6782 6612 6783 6784 
625 626 851 850 650 651 876 875 5176 6616 6617 6618 5347 6787 6788 6789 5345 5344 6785 6786 6792 6790 5350 6791 6622 6793 6794 
626 627 852 851 651 652 877 876 5185 6625 6626 6616 5356 6796 6797 6787 5344 5354 6795 6785 6790 6798 5358 6799 6629 6800 6801 
627 628 853 852 652 653 878 877 5192 6632 6633 6625 5363 6803 6804 6796 5354 5361 6802 6795 6798 6805 5365 6806 6636 6807 6808 
628 629 854 853 653 654 879 878 5199 6639 6640 6632 5370 6810 6811 6803 5361 5368 6809 6802 6805 6812 5372 6813 6643 6814 6815 
629 630 855 854 654 655 880 879 5206 6646 6647 6639 5377 6817 6818 6810 5368 5375 6816 6809 6812 6819 5379 6820 6650 6821 6822 
630 631 856 855 655 656 881 880 5213 6653 6654 6646 5384 6824 6825 6817 5375 5382 6823 6816 6819 6826 5386 6827 6657 6828 6829 
631 632 857 856 656 657 882 881 5220 6660 6661 6653 5391 6831 6832 6824 5382 5389 6830 6823 6826 6833 5393 6834 6664 6835 6836 
632 633 858 857 657 658 883 882 5227 6667 6668 6660 5398 6838 6839 6831 5389 5396 6837 6830 6833 6840 5400 6841 6671 6842 6843 
633 634 859 858 658 659 884 883 5234 6674 6675 6667 5405 6845 6846 6838 5396 5403 6844 6837 6840 6847 5407 6848 6678 6849 6850 
634 635 860 859 659 660 885 884 5241 6681 6682 6674 5412 6852 6853 6845 5403 5410 6851 6844 6847 6854 5414 6855 6685 6856 6857 
635 636 861 860 660 661 886 885 5248 6688 6689 6681 5419 6859 6860 6852 5410 5417 6858 6851 6854 6861 5421 6862 6692 6863 6864 
636 637 862 861 661 662 887 886 5255 6695 6696 6688 5426 6866 6867 6859 5417 5424 6865 6858 6861 6868 5428 6869 6699 6870 6871 
637 638 863 862 662 663 888 887 5262 6702 6703 6695 5433 6873 6874 6866 5424 5431 6872 6865 6868 6875 5435 6876 6706 6877 6878 
638 639 864 863 663 664 889 888 5269 6709 6710 6702 5440 6880 6881 6873 5431 5438 6879 6872 6875 6882 5442 6883 6713 6884 6885 
639 640 865 864 664 665 890 889 5276 6716 6717 6709 5447 6887 6888 6880 5438 5445 6886 6879 6882 6889 5449 6890 6720 6891 6892 
640 641 866 865 665 666 891 890 5283 6723 6724 6716 5454 6894 6895 6887 5445 5452 6893 6886 6889 6896 5456 6897 6727 6898 6899 
641 642 867 866 666 667 892 891 5290 6730 6731 6723 5461 6901 6902 6894 5452 5459 6900 6893 6896 6903 5463 6904 6734 6905 6906 
642 643 868 867 667 668 893 892 5297 6737 6738 6730 5468 6908 6909 6901 5459 5466 6907 6900 6903 6910 5470 6911 6741 6912 6913 
643 644 869 868 668 669 894 893 5304 6744 6745 6737 5475 6915 6916 6908 5466 5473 6914 6907 6910 6917 5477 6918 6748 6919 6920 
644 645 870 869 669 670 895 894 5311 6751 6752 6744 5482 6922 6923 6915 5473 5480 6921 6914 6917 6924 5484 6925 6755 6926 6927 
645 646 871 870 670 671 896 895 5318 6758 6759 6751 5489 6929 6930 6922 5480 5487 6928 6921 6924 6931 5491 6932 6762 6933 6934 
646 647 872 871 671 672 897 896 5325 6765 6766 6758 5496 6936 6937 6929 5487 5494 6935 6928 6931 6938 5498 6939 6769 6940 6941 
647 648 873 872 672 673 898 897 5332 6772 6773 6765 5503 6943 6944 6936 5494 5501 6942 6935 6938 6945 5505 6946 6776 6947 6948 
648 649 874 873 673 674 899 898 5339 6779 6780 6772 5510 6950 6951 6943 5501 5508 6949 6942 6945 6952 5512 6953 6783 6954 6955 
675 676 901 900 700 701 926 925 5516 6956 6957 6958 5521 6961 6962 6963 5519 5518 6959 6960 6967 6965 5525 6966 6964 6968 6969 
676 677 902 901 701 702 927 926 5530 6970 6971 6956 5533 6973 6974 6961 5518 5531 6972 6959 6965 6976 5536 6977 6975 6978 6979 
677 678 903 902 702 703 928 927 5540 6980 6981 6970 5543 6983 6984 6973 5531 5541 6982 6972 6976 6986 5546 6987 6985 6988 6989 
678 679 904 903 703 704 929 928 5550 6990 6991 6980 5553 6993 6994 6983 5541 5551 6992 6982 6986 6996 5556 6997 6995 6998 6999 
679 680 905 904 704 705 930 929 5560 7000 7001 6990 5563 7003 7004 6993 5551 5561 7002 6992 6996 7006 5566 7007 7005 7008 7009 
680 681 906 905 705 706 931 930 5570 7010 7011 7000 5573 7013 7014 7003 5561 5571 7012 7002 7006 7016 5576 7017 7015 7018 7019 
681 682 907 906 706 707 932 931 5580 7020 7021 7010 5583 7023 7024 7013 5571 5581 7022 7012 7016 7026 5586 7027 7025 7028 7029 
682 683 908 907 707 708 933 932 5590 7030 7031 7020 5593 7033 7034 7023 5581 5591 7032 7022 7026 7036 5596 7037 7035 7038 7039 
683 684 909 908 708 709 934 933 5600 7040 7041 7030 5603 7043 7044 7033 5591 5601 7042 7032 7036 7046 5606 7047 7045 7048 7049 
684 685 910 909 709 710 935 934 5610 7050 7051 7040 5613 7053 7054 7043 5601 5611 7052 7042 7046 7056 5616 7057 7055 7058 7059 
685 686 911 910 710 711 936 935 5620 7060 7061 7050 5623 7063 7064 7053 5611 5621 7062 7052 7056 7066 5626 7067 7065 7068 7069 
686 687 912 911 711 712 937 936 5630 7070 7071 7060 5633 7073 7074 7063 5621 5631 7072 7062 7066 7076 5636 7077 7075 7078 7079 
687 688 913 912 712 713 938 937 5640 7080 7081 7070 5643 7083 7084 7073 5631 5641 7082 7072 7076 7086 5646 7087 7085 7088 7089 
688 689 914 913 713 714 939 938 5650 7090 7091 7080 5653 7093 7094 7083 5641 5651 7092 7082 7086 7096 5656 7097 7095 7098 7099 
689 690 915 914 714 715 940 939 5660 7100 7101 7090 5663 7103 7104 7093 5651 5661 7102 7092 7096 7106 5666 7107 7105 7108 7109 
690 691 916 915 715 716 941 940 5670 7110 7111 7100 5673 7113 7114 7103 5661 5671 7112 7102 7106 7116 5676 7117 7115 7118 7119 
691 692 917 916 716 717 942 941 5680 7120 7121 7110 5683 7123 7124 7113 5671 5681 7122 7112 7116 7126 5686 7127 7125 7128 7129 
692 693 918 917 717 718 943 942 5690 7130 7131 7120 5693 7133 7134 7123 5681 5691 7132 7122 7126 7136 5696 7137 7135 7138 7139 
693 694 919 918 718 719 944 943 5700 7140 7141 7130 5703 7143 7144 7133 5691 5701 7142 7132 7136 7146 5706 7147 7145 7148 7149 
694 695 920 919 719 720 945 944 5710 7150 7151 7140 5713 7153 7154 7143 5701 5711 7152 7142 7146 7156 5716 7157 7155 7158 7159 
695 696 921 920 720 721 946 945 5720 7160 7161 7150 5723 7163 7164 7153 5711 5721 7162 7152 7156 7166 5726 7167 7165 7168 7169 
696 697 922 921 721 722 947 946 5730 7170 7171 7160 5733 7173 7174 7163 5721 5731 7172 7162 7166 7176 5736 7177 7175 7178 7179 
697 698 923 922 722 723 948 947 5740 7180 7181 7170 5743 7183 7184 7173 5731 5741 7182 7172 7176 7186 5746 7187 7185 7188 7189 
698 699 924 923 723 724 949 948 5750 7190 7191 7180 5753 7193 7194 7183 5741 5751 7192 7182 7186 7196 5756 7197 7195 7198 7199 
700 701 926 925 725 726 951 950 5521 6961 6962 6963 5762 7202 7203 7204 5760 5759 7200 7201 7207 7205 5765 7206 6968 7208 7209 
701 702 927 926 726 727 952 951 5533 6973 6974 6961 5771 7211 7212 7202 5759 5769 7210 7200 7205 7213 5773 7214 6978 7215 7216 
702 703 928 927 727 728 953 952 5543 6983 6984 6973 5778 7218 7219 7211 5769 5776 7217 7210 7213 7220 5780 7221 6988 7222 7223 
703 704 929 928 728 729 954 953 5553 6993 6994 6983 5785 7225 7226 7218 5776 5783 7224 7217 7220 7227 5787 7228 6998 7229 7230 
704 705 930 929 729 730 955 954 5563 7003 7004 6993 5792 7232 7233 7225 5783 5790 7231 7224 7227 7234 5794 7235 7008 7236 7237 
705 706 931 930 730 731 956 955 5573 7013 7014 7003 5799 7239 7240 7232 5790 5797 7238 7231 7234 7241 5801 7242 7018 7243 7244 
706 707 932 931 731 732 957 956 5583 7023 7024 7013 5806 7246 7247 7239 5797 5804 7245 7238 7241 7248 5808 7249 7028 7250 7251 
707 708 933 932 732 733 958 957 5593 7033 7034 7023 5813 7253 7254 7246 5804 5811 7252 7245 7248 7255 5815 7256 7038 7257 7258 
708 709 934 933 733 734 959 958 5603 7043 7044 7033 5820 7260 7261 7253 5811 5818 7259 7252 7255 7262 5822 7263 7048 7264 7265 
709 710 935 934 734 735 960 959 5613 7053 7054 7043 5827 7267 7268 7260 5818 5825 7266 7259 7262 7269 5829 7270 7058 7271 7272 
710 711 936 935 735 736 961 960 5623 7063 7064 7053 5834 7274 7275 7267 5825 5832 7273 7266 7269 7276 5836 7277 7068 7278 7279 
711 712 937 936 736 737 962 961 5633 7073 7074 7063 5841 7281 7282 7274 5832 5839 7280 7273 7276 7283 5843 7284 7078 7285 7286 
712 713 938 937 737 738 963 962 5643 7083 7084 7073 5848 7288 7289 7281 5839 5846 7287 7280 7283 7290 5850 7291 7088 7292 7293 
713 714 939 938 738 739 964 963 5653 7093 7094 7083 5855 7295 7296 7288 5846 5853 7294 7287 7290 7297 5857 7298 7098 7299 7300 
714 715 940 939 739 740 965 964 5663 7103 7104 7093 5862 7302 7303 7295 5853 5860 7301 7294 7297 7304 5864 7305 7108 7306 7307 
715 716 941 940 740 741 966 965 5673 7113 7114 7103 5869 7309 7310 7302 5860 5867 7308 7301 7304 7311 5871 7312 7118 7313 7314 
716 717 942 941 741 742 967 966 5683 7123 7124 7113 5876 7316 7317 7309 5867 5874 7315 7308 7311 7318 5878 7319 7128 7320 7321 
717 718 943 942 742 743 968 967 5693 7133 7134 7123 5883 7323 7324 7316 5874 5881 7322 7315 7318 7325 5885 7326 7138 7327 7328 
718 719 944 943 743 744 969 968 5703 7143 7144 7133 5890 7330 7331 7323 5881 5888 7329 7322 7325 7332 5892 7333 7148 7334 7335 
719 720 945 944 744 745 970 969 5713 7153 7154 7143 5897 7337 7338 7330 5888 5895 7336 7329 7332 7339 5899 7340 7158 7341 7342 
720 721 946 945 745 746 971 970 5723 7163 7164 7153 5904 7344 7345 7337 5895 5902 7343 7336 7339 7346 5906 7347 7168 7348 7349 
721 722 947 946 746 747 972 971 5733 7173 7174 7163 5911 7351 7352 7344 5902 5909 7350 7343 7346 7353 5913 7354 7178 7355 7356 
722 723 948 947 747 748 973 972 5743 7183 7184 7173 5918 7358 7359 7351 5909 5916 7357 7350 7353 7360 5920 7361 7188 7362 7363 
723 724 949 948 748 749 974 973 5753 7193 7194 7183 5925 7365 7366 7358 5916 5923 7364 7357 7360 7367 5927 7368 7198 7369 7370 
725 726 951 950 750 751 976 975 5762 7202 7203 7204 5933 7373 7374 7375 5931 5930 7371 7372 7378 7376 5936 7377 7208 7379 7380 
726 727 952 951 751 752 977 976 5771 7211 7212 7202 5942 7382 7383 7373 5930 5940 7381 7371 7376 7384 5944 7385 7215 7386 7387 
727 728 953 952 752 753 978 977 5778 7218 7219 7211 5949 7389 7390 7382 5940 5947 7388 7381 7384 7391 5951 7392 7222 7393 7394 
728 729 954 953 753 754 979 978 5785 7225 7226 7218 5956 7396 7397 7389 5947 5954 7395 7388 7391 7398 5958 7399 7229 7400 7401 
729 730 955 954 754 755 980 979 5792 7232 7233 7225 5963 7403 7404 7396 5954 5961 7402 7395 7398 7405 5965 7406 7236 7407 7408 
730 731 956 955 755 756 981 980 5799 7239 7240 7232 5970 7410 7411 7403 5961 5968 7409 7402 7405 7412 5972 7413 7243 7414 7415 
731 732 957 956 756 757 982 981 5806 7246 7247 7239 5977 7417 7418 7410 5968 5975 7416 7409 7412 7419 5979 7420 7250 7421 7422 
732 733 958 957 757 758 983 982 5813 7253 7254 7246 5984 7424 7425 7417 5975 5982 7423 7416 7419 7426 5986 7427 7257 7428 7429 
733 734 959 958 758 759 984 983 5820 7260 7261 7253 5991 7431 7432 7424 5982 5989 7430 7423 7426 7433 5993 7434 7264 7435 7436 
734 735 960 959 759 760 985 984 5827 7267 7268 7260 5998 7438 7439 7431 5989 5996 7437 7430 7433 7440 6000 7441 7271 7442 7443 
735 736 961 960 760 761 986 985 5834 7274 7275 7267 6005 7445 7446 7438 5996 6003 7444 7437 7440 7447 6007 7448 7278 7449 7450 
736 737 962 961 761 762 987 986 5841 7281 7282 7274 6012 7452 7453 7445 6003 6010 7451 7444 7447 7454 6014 7455 7285 7456 7457 
737 738 963 962 762 763 988 987 5848 7288 7289 7281 6019 7459 7460 7452 6010 6017 7458 7451 7454 7461 6021 7462 7292 7463 7464 
738 739 964 963 763 764 989 988 5855 7295 7296 7288 6026 7466 7467 7459 6017 6024 7465 7458 7461 7468 6028 7469 7299 7470 7471 
739 740 965 964 764 765 990 989 5862 7302 7303 7295 6033 7473 7474 7466 6024 6031 7472 7465 7468 7475 6035 7476 7306 7477 7478 
740 741 966 965 765 766 991 990 5869 7309 7310 7302 6040 7480 7481 7473 6031 6038 7479 7472 7475 7482 6042 7483 7313 7484 7485 
741 742 967 966 766 767 992 991 5876 7316 7317 7309 6047 7487 7488 7480 6038 6045 7486 7479 7482 7489 6049 7490 7320 7491 7492 
742 743 968 967 767 768 993 992 5883 7323 7324 7316 6054 7494 7495 7487 6045 6052 7493 7486 7489 7496 6056 7497 7327 7498 7499 
743 744 969 968 768 769 994 993 5890 7330 7331 7323 6061 7501 7502 7494 6052 6059 7500 7493 7496 7503 6063 7504 7334 7505 7506 
744 745 970 969 769 770 995 994 5897 7337 7338 7330 6068 7508 7509 7501 6059 6066 7507 7500 7503 7510 6070 7511 7341 7512 7513 
745 746 971 970 770 771 996 995 5904 7344 7345 7337 6075 7515 7516 7508 6066 6073 7514 7507 7510 7517 6077 7518 7348 7519 7520 
746 747 972 971 771 772 997 996 5911 7351 7352 7344 6082 7522 7523 7515 6073 6080 7521 7514 7517 7524 6084 7525 7355 7526 7527 
747 748 973 972 772 773 998 997 5918 7358 7359 7351 6089 7529 7530 7522 6080 6087 7528 7521 7524 7531 6091 7532 7362 7533 7534 
748 749 974 973 773 774 999 998 5925 7365 7366 7358 6096 7536 7537 7529 6087 6094 7535 7528 7531 7538 6098 7539 7369 7540 7541 
750 751 976 975 775 776 1001 1000 5933 7373 7374 7375 6104 7544 7545 7546 6102 6101 7542 7543 7549 7547 6107 7548 7379 7550 7551 
751 752 977 976 776 777 1002 1001 5942 7382 7383 7373 6113 7553 7554 7544 6101 6111 7552 7542 7547 7555 6115 7556 7386 7557 7558 
752 753 978 977 777 778 1003 1002 5949 7389 7390 7382 6120 7560 7561 7553 6111 6118 7559 7552 7555 7562 6122 7563 7393 7564 7565 
753 754 979 978 778 779 1004 1003 5956 7396 7397 7389 6127 7567 7568 7560 6118 6125 7566 7559 7562 7569 6129 7570 7400 7571 7572 
754 755 980 979 779 780 1005 1004 5963 7403 7404 7396 6134 7574 7575 7567 6125 6132 7573 7566 7569 7576 6136 7577 7407 7578 7579 
755 756 981 980 780 781 1006 1005 5970 7410 7411 7403 6141 7581 7582 7574 6132 6139 7580 7573 7576 7583 6143 7584 7414 7585 7586 
756 757 982 981 781 782 1007 1006 5977 7417 7418 7410 6148 7588 7589 7581 6139 6146 7587 7580 7583 7590 6150 7591 7421 7592 7593 
757 758 983 982 782 783 1008 1007 5984 7424 7425 7417 6155 7595 7596 7588 6146 6153 7594 7587 7590 7597 6157 7598 7428 7599 7600 
758 759 984 983 783 784 1009 1008 5991 7431 7432 7424 6162 7602 7603 7595 6153 6160 7601 7594 7597 7604 6164 7605 7435 7606 7607 
759 760 985 984 784 785 1010 1009 5998 7438 7439 7431 6169 7609 7610 7602 6160 6167 7608 7601 7604 7611 6171 7612 7442 7613 7614 
760 761 986 985 785 786 1011 1010 6005 7445 7446 7438 6176 7616 7617 7609 6167 6174 7615 7608 7611 7618 6178 7619 7449 7620 7621 
761 762 987 986 786 787 1012 1011 6012 7452 7453 7445 6183 7623 7624 7616 6174 6181 7622 7615 7618 7625 6185 7626 7456 7627 7628 
762 763 988 987 787 788 1013 1012 6019 7459 7460 7452 6190 7630 7631 7623 6181 6188 7629 7622 7625 7632 6192 7633 7463 7634 7635 
763 764 989 988 788 789 1014 1013 6026 7466 7467 7459 6197 7637 7638 7630 6188 6195 7636 7629 7632 7639 6199 7640 7470 7641 7642 
764 765 990 989 789 790 1015 1014 6033 7473 7474 7466 6204 7644 7645 7637 6195 6202 7643 7636 7639 7646 6206 7647 7477 7648 7649 
765 766 991 990 790 791 1016 1015 6040 7480 7481 7473 6211 7651 7652 7644 6202 6209 7650 7643 7646 7653 6213 7654 7484 7655 7656 
766 767 992 991 791 792 1017 1016 6047 7487 7488 7480 6218 7658 7659 7651 6209 6216 7657 7650 7653 7660 6220 7661 7491 7662 7663 
767 768 993 992 792 793 1018 1017 6054 7494 7495 7487 6225 7665 7666 7658 6216 6223 7664 7657 7660 7667 6227 7668 7498 7669 7670 
768 769 994 993 793 794 1019 1018 6061 7501 7502 7494 6232 7672 7673 7665 6223 6230 7671 7664 7667 7674 6234 7675 7505 7676 7677 
769 770 995 994 794 795 1020 1019 6068 7508 7509 7501 6239 7679 7680 7672 6230 6237 7678 7671 7674 7681 6241 7682 7512 7683 7684 
770 771 996 995 795 796 1021 1020 6075 7515 7516 7508 6246 7686 7687 7679 6237 6244 7685 7678 7681 7688 6248 7689 7519 7690 7691 
771 772 997 996 796 797 1022 1021 6082 7522 7523 7515 6253 7693 7694 7686 6244 6251 7692 7685 7688 7695 6255 7696 7526 7697 7698 
772 773 998 997 797 798 1023 1022 6089 7529 7530 7522 6260 7700 7701 7693 6251 6258 7699 7692 7695 7702 6262 7703 7533 7704 7705 
773 774 999 998 798 799 1024 1023 6096 7536 7537 7529 6267 7707 7708 7700 6258 6265 7706 7699 7702 7709 6269 7710 7540 7711 7712 
775 776 1001 1000 800 801 1026 1025 6104 7544 7545 7546 6275 7715 7716 7717 6273 6272 7713 7714 7720 7718 6278 7719 7550 7721 7722 
776 777 1002 1001 801 802 1027 1026 6113 7553 7554 7544 6284 7724 7725 7715 6272 6282 7723 7713 7718 7726 6286 7727 7557 7728 7729 
777 778 1003 1002 802 803 1028 1027 6120 7560 7561 7553 6291 7731 7732 7724 6282 6289 7730 7723 7726 7733 6293 7734 7564 7735 7736 
778 779 1004 1003 803 804 1029 1028 6127 7567 7568 7560 6298 7738 7739 7731 6289 6296 7737 7730 7733 7740 6300 7741 7571 7742 7743 
779 780 1005 1004 804 805 1030 1029 6134 7574 7575 7567 6305 7745 7746 7738 6296 6303 7744 7737 7740 7747 6307 7748 7578 7749 7750 
780 781 1006 1005 805 806 1031 1030 6141 7581 7582 7574 6312 7752 7753 7745 6303 6310 7751 7744 7747 7754 6314 7755 7585 7756 7757 
781 782 1007 1006 806 807 1032 1031 6148 7588 7589 7581 6319 7759 7760 7752 6310 6317 7758 7751 7754 7761 6321 7762 7592 7763 7764 
782 783 1008 1007 807 808 1033 1032 6155 7595 7596 7588 6326 7766 7767 7759 6317 6324 7765 7758 7761 7768 6328 7769 7599 7770 7771 
783 784 1009 1008 808 809 1034 1033 6162 7602 7603 7595 6333 7773 7774 7766 6324 6331 7772 7765 7768 7775 6335 7776 7606 7777 7778 
784 785 1010 1009 809 810 1035 1034 6169 7609 7610 7602 6340 7780 7781 7773 6331 6338 7779 7772 7775 7782 6342 7783 7613 7784 7785 
785 786 1011 1010 810 811 1036 1035 6176 7616 7617 7609 6347 7787 7788 7780 6338 6345 7786 7779 7782 7789 6349 7790 7620 7791 7792 
786 787 1012 1011 811 812 1037 1036 6183 7623 7624 7616 6354 7794 7795 7787 6345 6352 7793 7786 7789 7796 6356 7797 7627 7798 7799 
787 788 1013 1012 812 813 1038 1037 6190 7630 7631 7623 6361 7801 7802 7794 6352 6359 7800 7793 7796 7803 6363 7804 7634 7805 7806 
788 789 1014 1013 813 814 1039 1038 6197 7637 7638 7630 6368 7808 7809 7801 6359 6366 7807 7800 7803 7810 6370 7811 7641 7812 7813 
789 790 1015 1014 814 815 1040 1039 6204 7644 7645 7637 6375 7815 7816 7808 6366 6373 7814 7807 7810 7817 6377 7818 7648 7819 7820 
790 791 1016 1015 815 816 1041 1040 6211 7651 7652 7644 6382 7822 7823 7815 6373 6380 7821 7814 7817 7824 6384 7825 7655 7826 7827 
791 792 1017 1016 816 817 1042 1041 6218 7658 7659 7651 6389 7829 7830 7822 6380 6387 7828 7821 7824 7831 6391 7832 7662 7833 7834 
792 793 1018 1017 817 818 1043 1042 6225 7665 7666 7658 6396 7836 7837 7829 6387 6394 7835 7828 7831 7838 6398 7839 7669 7840 7841 
793 794 1019 1018 818 819 1044 1043 6232 7672 7673 7665 6403 7843 7844 7836 6394 6401 7842 7835 7838 7845 6405 7846 7676 7847 7848 
794 795 1020 1019 819 820 1045 1044 6239 7679 7680 7672 6410 7850 7851 7843 6401 6408 7849 7842 7845 7852 6412 7853 7683 7854 7855 
795 796 1021 1020 820 821 1046 1045 6246 7686 7687 7679 6417 7857 7858 7850 6408 6415 7856 7849 7852 7859 6419 7860 7690 7861 7862 
796 797 1022 1021 821 822 1047 1046 6253 7693 7694 7686 6424 7864 7865 7857 6415 6422 7863 7856 7859 7866 6426 7867 7697 7868 7869 
797 798 1023 1022 822 823 1048 1047 6260 7700 7701 7693 6431 7871 7872 7864 6422 6429 7870 7863 7866 7873 6433 7874 7704 7875 7876 
798 799 1024 1023 823 824 1049 1048 6267 7707 7708 7700 6438 7878 7879 7871 6429 6436 7877 7870 7873 7880 6440 7881 7711 7882 7883 
800 801 1026 1025 825 826 1051 1050 6275 7715 7716 7717 6446 7886 7887 7888 6444 6443 7884 7885 7891 7889 6449 7890 7721 7892 7893 
801 802 1027 1026 826 827 1052 1051 6284 7724 7725 7715 6455 7895 7896 7886 6443 6453 7894 7884 7889 7897 6457 7898 7728 7899 7900 
802 803 1028 1027 827 828 1053 1052 6291 7731 7732 7724 6462 7902 7903 7895 6453 6460 7901 7894 7897 7904 6464 7905 7735 7906 7907 
803 804 1029 1028 828 829 1054 1053 6298 7738 7739 7731 6469 7909 7910 7902 6460 6467 7908 7901 7904 7911 6471 7912 7742 7913 7914 
804 805 1030 1029 829 830 1055 1054 6305 7745 7746 7738 6476 7916 7917 7909 6467 6474 7915 7908 7911 7918 6478 7919 7749 7920 7921 
805 806 1031 1030 830 831 1056 1055 6312 7752 7753 7745 6483 7923 7924 7916 6474 6481 7922 7915 7918 7925 6485 7926 7756 7927 7928 
806 807 1032 1031 831 832 1057 1056 6319 7759 7760 7752 6490 7930 7931 7923 6481 6488 7929 7922 7925 7932 6492 7933 7763 7934 7935 
807 808 1033 1032 832 833 1058 1057 6326 7766 7767 7759 6497 7937 7938 7930 6488 6495 7936 7929 7932 7939 6499 7940 7770 7941 7942 
808 809 1034 1033 833 834 1059 1058 6333 7773 7774 7766 6504 7944 7945 7937 6495 6502 7943 7936 7939 7946 6506 7947 7777 7948 7949 
809 810 1035 1034 834 835 1060 1059 6340 7780 7781 7773 6511 7951 7952 7944 6502 6509 7950 7943 7946 7953 6513 7954 7784 7955 7956 
810 811 1036 1035 835 836 1061 1060 6347 7787 7788 7780 6518 7958 7959 7951 6509 6516 7957 7950 7953 7960 6520 7961 7791 7962 7963 
811 812 1037 1036 836 837 1062 1061 6354 7794 7795 7787 6525 7965 7966 7958 6516 6523 7964 7957 7960 7967 6527 7968 7798 7969 7970 
812 813 1038 1037 837 838 1063 1062 6361 7801 7802 7794 6532 7972 7973 7965 6523 6530 7971 7964 7967 7974 6534 7975 7805 7976 7977 
813 814 1039 1038 838 839 1064 1063 6368 7808 7809 7801 6539 7979 7980 7972 6530 6537 7978 7971 7974 7981 6541 7982 7812 7983 7984 
814 815 1040 1039 839 840 1065 1064 6375 7815 7816 7808 6546 7986 7987 7979 6537 6544 7985 7978 7981 7988 6548 7989 7819 7990 7991 
815 816 1041 1040 840 841 1066 1065 6382 7822 7823 7815 6553 7993 7994 7986 6544 6551 7992 7985 7988 7995 6555 7996 7826 7997 7998 
816 817 1042 1041 841 842 1067 1066 6389 7829 7830 7822 6560 8000 8001 7993 6551 6558 7999 7992 7995 8002 6562 8003 7833 8004 8005 
817 818 1043 1042 842 843 1068 1067 6396 7836 7837 7829 6567 8007 8008 8000 6558 6565 8006 7999 8002 8009 6569 8010 7840 8011 8012 
818 819 1044 1043 843 844 1069 1068 6403 7843 7844 7836 6574 8014 8015 8007 6565 6572 8013 8006 8009 8016 6576 8017 7847 8018 8019 
819 820 1045 1044 844 845 1070 1069 6410 7850 7851 7843 6581 8021 8022 8014 6572 6579 8020 8013 8016 8023 6583 8024 7854 8025 8026 
820 821 1046 1045 845 846 1071 1070 6417 7857 7858 7850 6588 8028 8029 8021 6579 6586 8027 8020 8023 8030 6590 8031 7861 8032 8033 
821 822 1047 1046 846 847 1072 1071 6424 7864 7865 7857 6595 8035 8036 8028 6586 6593 8034 8027 8030 8037 6597 8038 7868 8039 8040 
822 823 1048 1047 847 848 1073 1072 6431 7871 7872 7864 6602 8042 8043 8035 6593 6600 8041 8034 8037 8044 6604 8045 7875 8046 8047 
823 824 1049 1048 848 849 1074 1073 6438 7878 7879 7871 6609 8049 8050 8042 6600 6607 8048 8041 8044 8051 6611 8052 7882 8053 8054 
825 826 1051 1050 850 851 1076 1075 6446 7886 7887 7888 6617 8057 8058 8059 6615 6614 8055 8056 8062 8060 6620 8061 7892 8063 8064 
826 827 1052 1051 851 852 1077 1076 6455 7895 7896 7886 6626 8066 8067 8057 6614 6624 8065 8055 8060 8068 6628 8069 7899 8070 8071 
827 828 1053 1052 852 853 1078 1077 6462 7902 7903 7895 6633 8073 8074 8066 6624 6631 8072 8065 8068 8075 6635 8076 7906 8077 8078 
828 829 1054 1053 853 854 1079 1078 6469 7909 7910 7902 6640 8080 8081 8073 6631 6638 8079 8072 8075 8082 6642 8083 7913 8084 8085 
829 830 1055 1054 854 855 1080 1079 6476 7916 7917 7909 6647 8087 8088 8080 6638 6645 8086 8079 8082 8089 6649 8090 7920 8091 8092 
830 831 1056 1055 855 856 1081 1080 6483 7923 7924 7916 6654 8094 8095 8087 6645 6652 8093 8086 8089 8096 6656 8097 7927 8098 8099 
831 832 1057 1056 856 857 1082 1081 6490 7930 7931 7923 6661 8101 8102 8094 6652 6659 8100 8093 8096 8103 6663 8104 7934 8105 8106 
832 833 1058 1057 857 858 1083 1082 6497 7937 7938 7930 6668 8108 8109 8101 6659 6666 8107 8100 8103 8110 6670 8111 7941 8112 8113 
833 834 1059 1058 858 859 1084 1083 6504 7944 7945 7937 6675 8115 8116 8108 6666 6673 8114 8107 8110 8117 6677 8118 7948 8119 8120 
834 835 1060 1059 859 860 1085 1084 6511 7951 7952 7944 6682 8122 8123 8115 6673 6680 8121 8114 8117 8124 6684 8125 7955 8126 8127 
835 836 1061 1060 860 861 1086 1085 6518 7958 7959 7951 6689 8129 8130 8122 6680 6687 8128 8121 8124 8131 6691 8132 7962 8133 8134 
836 837 1062 1061 861 862 1087 1086 6525 7965 7966 7958 6696 8136 8137 8129 6687 6694 8135 8128 8131 8138 6698 8139 7969 8140 8141 
837 838 1063 1062 862 863 1088 1087 6532 7972 7973 7965 6703 8143 8144 8136 6694 6701 8142 8135 8138 8145 6705 8146 7976 8147 8148 
838 839 1064 1063 863 864 1089 1088 6539 7979 7980 7972 6710 8150 8151 8143 6701 6708 8149 8142 8145 8152 6712 8153 7983 8154 8155 
839 840 1065 1064 864 865 1090 1089 6546 7986 7987 7979 6717 8157 8158 8150 6708 6715 8156 8149 8152 8159 6719 8160 7990 8161 8162 
840 841 1066 1065 865 866 1091 1090 6553 7993 7994 7986 6724 8164 8165 8157 6715 6722 8163 8156 8159 8166 6726 8167 7997 8168 8169 
841 842 1067 1066 866 867 1092 1091 6560 8000 8001 7993 6731 8171 8172 8164 6722 6729 8170 8163 8166 8173 6733 8174 8004 8175 8176 
842 843 1068 1067 867 868 1093 1092 6567 8007 8008 8000 6738 8178 8179 8171 6729 6736 8177 8170 8173 8180 6740 8181 8011 8182 8183 
843 844 1069 1068 868 869 1094 1093 6574 8014 8015 8007 6745 8185 8186 8178 6736 6743 8184 8177 8180 8187 6747 8188 8018 8189 8190 
844 845 1070 1069 869 870 1095 1094 6581 8021 8022 8014 6752 8192 8193 8185 6743 6750 8191 8184 8187 8194 6754 8195 8025 8196 8197 
845 846 1071 1070 870 871 1096 1095 6588 8028 8029 8021 6759 8199 8200 8192 6750 6757 8198 8191 8194 8201 6761 8202 8032 8203 8204 
846 847 1072 1071 871 872 1097 1096 6595 8035 8036 8028 6766 8206 8207 8199 6757 6764 8205 8198 8201 8208 6768 8209 8039 8210 8211 
847 848 1073 1072 872 873 1098 1097 6602 8042 8043 8035 6773 8213 8214 8206 6764 6771 8212 8205 8208 8215 6775 8216 8046 8217 8218 
848 849 1074 1073 873 874 1099 1098 6609 8049 8050 8042 6780 8220 8221 8213 6771 6778 8219 8212 8215 8222 6782 8223 8053 8224 8225 
850 851 1076 1075 875 876 1101 1100 6617 8057 8058 8059 6788 8228 8229 8230 6786 6785 8226 8227 8233 8231 6791 8232 8063 8234 8235 
851 852 1077 1076 876 877 1102 1101 6626 8066 8067 8057 6797 8237 8238 8228 6785 6795 8236 8226 8231 8239 6799 8240 8070 8241 8242 
852 853 1078 1077 877 878 1103 1102 6633 8073 8074 8066 6804 8244 8245 8237 6795 6802 8243 8236 8239 8246 6806 8247 8077 8248 8249 
853 854 1079 1078 878 879 1104 1103 6640 8080 8081 8073 6811 8251 8252 8244 6802 6809 8250 8243 8246 8253 6813 8254 8084 8255 8256 
854 855 1080 1079 879 880 1105 1104 6647 8087 8088 8080 6818 8258 8259 8251 6809 6816 8257 8250 8253 8260 6820 8261 8091 8262 8263 
855 856 1081 1080 880 881 1106 1105 6654 8094 8095 8087 6825 8265 8266 8258 6816 6823 8264 8257 8260 8267 6827 8268 8098 8269 8270 
856 857 1082 1081 881 882 1107 1106 6661 8101 8102 8094 6832 8272 8273 8265 6823 6830 8271 8264 8267 8274 6834 8275 8105 8276 8277 
857 858 1083 1082 882 883 1108 1107 6668 8108 8109 8101 6839 8279 8280 8272 6830 6837 8278 8271 8274 8281 6841 8282 8112 8283 8284 
858 859 1084 1083 883 884 1109 1108 6675 8115 8116 8108 6846 8286 8287 8279 6837 6844 8285 8278 8281 8288 6848 8289 8119 8290 8291 
859 860 1085 1084 884 885 1110 1109 6682 8122 8123 8115 6853 8293 8294 8286 6844 6851 8292 8285 8288 8295 6855 8296 8126 8297 8298 
860 861 1086 1085 885 886 1111 1110 6689 8129 8130 8122 6860 8300 8301 8293 6851 6858 8299 8292 8295 8302 6862 8303 8133 8304 8305 
861 862 1087 1086 886 887 1112 1111 6696 8136 8137 8129 6867 8307 8308 8300 6858 6865 8306 8299 8302 8309 6869 8310 8140 8311 8312 
862 863 1088 1087 887 888 1113 1112 6703 8143 8144 8136 6874 8314 8315 8307 6865 6872 8313 8306 8309 8316 6876 8317 8147 8318 8319 
863 864 1089 1088 888 889 1114 1113 6710 8150 8151 8143 6881 8321 8322 8314 6872 6879 8320 8313 8316 8323 6883 8324 8154 8325 8326 
864 865 1090 1089 889 890 1115 1114 6717 8157 8158 8150 6888 8328 8329 8321 6879 6886 8327 8320 8323 8330 6890 8331 8161 8332 8333 
865 866 1091 1090 890 891 1116 1115 6724 8164 8165 8157 6895 8335 8336 8328 6886 6893 8334 8327 8330 8337 6897 8338 8168 8339 8340 
866 867 1092 1091 891 892 1117 1116 6731 8171 8172 8164 6902 8342 8343 8335 6893 6900 8341 8334 8337 8344 6904 8345 8175 8346 8347 
867 868 1093 1092 892 893 1118 1117 6738 8178 8179 8171 6909 8349 8350 8342 6900 6907 8348 8341 8344 8351 6911 8352 8182 8353 8354 
868 869 1094 1093 893 894 1119 1118 6745 8185 8186 8178 6916 8356 8357 8349 6907 6914 8355 8348 8351 8358 6918 8359 8189 8360 8361 
869 870 1095 1094 894 895 1120 1119 6752 8192 8193 8185 6923 8363 8364 8356 6914 6921 8362 8355 8358 8365 6925 8366 8196 8367 8368 
870 871 1096 1095 895 896 1121 1120 6759 8199 8200 8192 6930 8370 8371 8363 6921 6928 8369 8362 8365 8372 6932 8373 8203 8374 8375 
871 872 1097 1096 896 897 1122 1121 6766 8206 8207 8199 6937 8377 8378 8370 6928 6935 8376 8369 8372 8379 6939 8380 8210 8381 8382 
872 873 1098 1097 897 898 1123 1122 6773 8213 8214 8206 6944 8384 8385 8377 6935 6942 8383 8376 8379 8386 6946 8387 8217 8388 8389 
873 874 1099 1098 898 899 1124 1123 6780 8220 8221 8213 6951 8391 8392 8384 6942 6949 8390 8383 8386 8393 6953 8394 8224 8395 8396 
900 901 1126 1125 925 926 1151 1150 6957 8397 8398 8399 6962 8402 8403 8404 6960 6959 8400 8401 8408 8406 6966 8407 8405 8409 8410 
901 902 1127 1126 926 927 1152 1151 6971 8411 8412 8397 6974 8414 8415 8402 6959 6972 8413 8400 8406 8417 6977 8418 8416 8419 8420 
902 903 1128 1127 927 928 1153 1152 6981 8421 8422 8411 6984 8424 8425 8414 6972 6982 8423 8413 8417 8427 6987 8428 8426 8429 8430 
903 904 1129 1128 928 929 1154 1153 6991 8431 8432 8421 6994 8434 8435 8424 6982 6992 8433 8423 8427 8437 6997 8438 8436 8439 8440 
904 905 1130 1129 929 930 1155 1154 7001 8441 8442 8431 7004 8444 8445 8434 6992 7002 8443 8433 8437 8447 7007 8448 8446 8449 8450 
905 906 1131 1130 930 931 1156 1155 7011 8451 8452 8441 7014 8454 8455 8444 7002 7012 8453 8443 8447 8457 7017 8458 8456 8459 8460 
906 907 1132 1131 931 932 1157 1156 7021 8461 8462 8451 7024 8464 8465 8454 7012 7022 8463 8453 8457 8467 7027 8468 8466 8469 8470 
907 908 1133 1132 932 933 1158 1157 7031 8471 8472 8461 7034 8474 8475 8464 7022 7032 8473 8463 8467 8477 7037 8478 8476 8479 8480 
908 909 1134 1133 933 934 1159 1158 7041 8481 8482 8471 7044 8484 8485 8474 7032 7042 8483 8473 8477 8487 7047 8488 8486 8489 8490 
909 910 1135 1134 934 935 1160 1159 7051 8491 8492 8481 7054 8494 8495 8484 7042 7052 8493 8483 8487 8497 7057 8498 8496 8499 8500 
910 911 1136 1135 935 936 1161 1160 7061 8501 8502 8491 7064 8504 8505 8494 7052 7062 8503 8493 8497 8507 7067 8508 8506 8509 8510 
911 912 1137 1136 936 937 1162 1161 7071 8511 8512 8501 7074 8514 8515 8504 7062 7072 8513 8503 8507 8517 7077 8518 8516 8519 8520 
912 913 1138 1137 937 938 1163 1162 7081 8521 8522 8511 7084 8524 8525 8514 7072 7082 8523 8513 8517 8527 7087 8528 8526 8529 8530 
913 914 1139 1138 938 939 1164 1163 7091 8531 8532 8521 7094 8534 8535 8524 7082 7092 8533 8523 8527 8537 7097 8538 8536 8539 8540 
914 915 1140 1139 939 940 1165 1164 7101 8541 8542 8531 7104 8544 8545 8534 7092 7102 8543 8533 8537 8547 7107 8548 8546 8549 8550 
915 916 1141 1140 940 941 1166 1165 7111 8551 8552 8541 7114 8554 8555 8544 7102 7112 8553 8543 8547 8557 7117 8558 8556 8559 8560 
916 917 1142 1141 941 942 1167 1166 7121 8561 8562 8551 7124 8564 8565 8554 7112 7122 8563 8553 8557 8567 7127 8568 8566 8569 8570 
917 918 1143 1142 942 943 1168 1167 7131 8571 8572 8561 7134 8574 8575 8564 7122 7132 8573 8563 8567 8577 7137 8578 8576 8579 8580 
918 919 1144 1143 943 944 1169 1168 7141 8581 8582 8571 7144 8584 8585 8574 7132 7142 8583 8573 8577 8587 7147 8588 8586 8589 8590 
919 920 1145 1144 944 945 1170 1169 7151 8591 8592 8581 7154 8594 8595 8584 7142 7152 8593 8583 8587 8597 7157 8598 8596 8599 8600 
920 921 1146 1145 945 946 1171 1170 7161 8601 8602 8591 7164 8604 8605 8594 7152 7162 8603 8593 8597 8607 7167 8608 8606 8609 8610 
921 922 1147 1146 946 947 1172 1171 7171 8611 8612 8601 7174 8614 8615 8604 7162 7172 8613 8603 8607 8617 7177 8618 8616 8619 8620 
922 923 1148 1147 947 948 1173 1172 7181 8621 8622 8611 7184 8624 8625 8614 7172 7182 8623 8613 8617 8627 7187 8628 8626 8629 8630 
923 924 1149 1148 948 949 1174 1173 7191 8631 8632 8621 7194 8634 8635 8624 7182 7192 8633 8623 8627 8637 7197 8638 8636 8639 8640 
925 926 1151 1150 950 951 1176 1175 6962 8402 8403 8404 7203 8643 8644 8645 7201 7200 8641 8642 8648 8646 7206 8647 8409 8649 8650 
926 927 1152 1151 951 952 1177 1176 6974 8414 8415 8402 7212 8652 8653 8643 7200 7210 8651 8641 8646 8654 7214 8655 8419 8656 8657 
927 928 1153 1152 952 953 1178 1177 6984 8424 8425 8414 7219 8659 8660 8652 7210 7217 8658 8651 8654 8661 7221 8662 8429 8663 8664 
928 929 1154 1153 953 954 1179 1178 6994 8434 8435 8424 7226 8666 8667 8659 7217 7224 8665 8658 8661 8668 7228 8669 8439 8670 8671 
929 930 1155 1154 954 955 1180 1179 7004 8444 8445 8434 7233 8673 8674 8666 7224 7231 8672 8665 8668 8675 7235 8676 8449 8677 8678 
930 931 1156 1155 955 956 1181 1180 7014 8454 8455 8444 7240 8680 8681 8673 7231 7238 8679 8672 8675 8682 7242 8683 8459 8684 8685 
931 932 1157 1156 956 957 1182 1181 7024 8464 8465 8454 7247 8687 8688 8680 7238 7245 8686 8679 8682 8689 7249 8690 8469 8691 8692 
932 933 1158 1157 957 958 1183 1182 7034 8474 8475 8464 7254 8694 8695 8687 7245 7252 8693 8686 8689 8696 7256 8697 8479 8698 8699 
933 934 1159 1158 958 959 1184 1183 7044 8484 8485 8474 7261 8701 8702 8694 7252 7259 8700 8693 8696 8703 7263 8704 8489 8705 8706 
934 935 1160 1159 959 960 1185 1184 7054 8494 8495 8484 7268 8708 8709 8701 7259 7266 8707 8700 8703 8710 7270 8711 8499 8712 8713 
935 936 1161 1160 960 961 1186 1185 7064 8504 8505 8494 7275 8715 8716 8708 7266 7273 8714 8707 8710 8717 7277 8718 8509 8719 8720 
936 937 1162 1161 961 962 1187 1186 7074 8514 8515 8504 7282 8722 8723 8715 7273 7280 8721 8714 8717 8724 7284 8725 8519 8726 8727 
937 938 1163 1162 962 963 1188 1187 7084 8524 8525 8514 7289 8729 8730 8722 7280 7287 8728 8721 8724 8731 7291 8732 8529 8733 8734 
938 939 1164 1163 963 964 1189 1188 7094 8534 8535 8524 7296 8736 8737 8729 7287 7294 8735 8728 8731 8738 7298 8739 8539 8740 8741 
939 940 1165 1164 964 965 1190 1189 7104 8544 8545 8534 7303 8743 8744 8736 7294 7301 8742 8735 8738 8745 7305 8746 8549 8747 8748 
940 941 1166 1165 965 966 1191 1190 7114 8554 8555 8544 7310 8750 8751 8743 7301 7308 8749 8742 8745 8752 7312 8753 8559 8754 8755 
941 942 1167 1166 966 967 1192 1191 7124 8564 8565 8554 7317 8757 8758 8750 7308 7315 8756 8749 8752 8759 7319 8760 8569 8761 8762 
942 943 1168 1167 967 968 1193 1192 7134 8574 8575 8564 7324 8764 8765 8757 7315 7322 8763 8756 8759 8766 7326 8767 8579 8768 8769 
943 944 1169 1168 968 969 1194 1193 7144 8584 8585 8574 7331 8771 8772 8764 7322 7329 8770 8763 8766 8773 7333 8774 8589 8775 8776 
944 945 1170 1169 969 970 1195 1194 7154 8594 8595 8584 7338 8778 8779 8771 7329 7336 8777 8770 8773 8780 7340 8781 8599 8782 8783 
945 946 1171 1170 970 971 1196 1195 7164 8604 8605 8594 7345 8785 8786 8778 7336 7343 8784 8777 8780 8787 7347 8788 8609 8789 8790 
946 947 1172 1171 971 972 1197 1196 7174 8614 8615 8604 7352 8792 8793 8785 7343 7350 8791 8784 8787 8794 7354 8795 8619 8796 8797 
947 948 1173 1172 972 973 1198 1197 7184 8624 8625 8614 7359 8799 8800 8792 7350 7357 8798 8791 8794 8801 7361 8802 8629 8803 8804 
948 949 1174 1173 973 974 1199 1198 7194 8634 8635 8624 7366 8806 8807 8799 7357 7364 8805 8798 8801 8808 7368 8809 8639 8810 8811 
950 951 1176 1175 975 976 1201 1200 7203 8643 8644 8645 7374 8814 8815 8816 7372 7371 8812 8813 8819 8817 7377 8818 8649 8820 8821 
951 952 1177 1176 976 977 1202 1201 7212 8652 8653 8643 7383 8823 8824 8814 7371 7381 8822 8812 8817 8825 7385 8826 8656 8827 8828 
952 953 1178 1177 977 978 1203 1202 7219 8659 8660 8652 7390 8830 8831 8823 7381 7388 8829 8822 8825 8832 7392 8833 8663 8834 8835 
953 954 1179 1178 978 979 1204 1203 7226 8666 8667 8659 7397 8837 8838 8830 7388 7395 8836 8829 8832 8839 7399 8840 8670 8841 8842 
954 955 1180 1179 979 980 1205 1204 7233 8673 8674 8666 7404 8844 8845 8837 7395 7402 8843 8836 8839 8846 7406 8847 8677 8848 8849 
955 956 1181 1180 980 981 1206 1205 7240 8680 8681 8673 7411 8851 8852 8844 7402 7409 8850 8843 8846 8853 7413 8854 8684 8855 8856 
956 957 1182 1181 981 982 1207 1206 7247 8687 8688 8680 7418 8858 8859 8851 7409 7416 8857 8850 8853 8860 7420 8861 8691 8862 8863 
957 958 1183 1182 982 983 1208 1207 7254 8694 8695 8687 7425 8865 8866 8858 7416 7423 8864 8857 8860 8867 7427 8868 8698 8869 8870 
958 959 1184 1183 983 984 1209 1208 7261 8701 8702 8694 7432 8872 8873 8865 7423 7430 8871 8864 8867 8874 7434 8875 8705 8876 8877 
959 960 1185 1184 984 985 1210 1209 7268 8708 8709 8701 7439 8879 8880 8872 7430 7437 8878 8871 8874 8881 7441 8882 8712 8883 8884 
960 961 1186 1185 985 986 1211 1210 7275 8715 8716 8708 7446 8886 8887 8879 7437 7444 8885 8878 8881 8888 7448 8889 8719 8890 8891 
961 962 1187 1186 986 987 1212 1211 7282 8722 8723 8715 7453 8893 8894 8886 7444 7451 8892 8885 8888 8895 7455 8896 8726 8897 8898 
962 963 1188 1187 987 988 1213 1212 7289 8729 8730 8722 7460 8900 8901 8893 7451 7458 8899 8892 8895 8902 7462 8903 8733 8904 8905 
963 964 1189 1188 988 989 1214 1213 7296 8736 8737 8729 7467 8907 8908 8900 7458 7465 8906 8899 8902 8909 7469 8910 8740 8911 8912 
964 965 1190 1189 989 990 1215 1214 7303 8743 8744 8736 7474 8914 8915 8907 7465 7472 8913 8906 8909 8916 7476 8917 8747 8918 8919 
965 966 1191 1190 990 991 1216 1215 7310 8750 8751 8743 7481 8921 8922 8914 7472 7479 8920 8913 8916 8923 7483 8924 8754 8925 8926 
966 967 1192 1191 991 992 1217 1216 7317 8757 8758 8750 7488 8928 8929 8921 7479 7486 8927 8920 8923 8930 7490 8931 8761 8932 8933 
967 968 1193 1192 992 993 1218 1217 7324 8764 8765 8757 7495 8935 8936 8928 7486 7493 8934 8927 8930 8937 7497 8938 8768 8939 8940 
968 969 1194 1193 993 994 1219 1218 7331 8771 8772 8764 7502 8942 8943 8935 7493 7500 8941 8934 8937 8944 7504 8945 8775 8946 8947 
969 970 1195 1194 994 995 1220 1219 7338 8778 8779 8771 7509 8949 8950 8942 7500 7507 8948 8941 8944 8951 7511 8952 8782 8953 8954 
970 971 1196 1195 995 996 1221 1220 7345 8785 8786 8778 7516 8956 8957 8949 7507 7514 8955 8948 8951 8958 7518 8959 8789 8960 8961 
971 972 1197 1196 996 997 1222 1221 7352 8792 8793 8785 7523 8963 8964 8956 7514 7521 8962 8955 8958 8965 7525 8966 8796 8967 8968 
972 973 1198 1197 997 998 1223 1222 7359 8799 8800 8792 7530 8970 8971 8963 7521 7528 8969 8962 8965 8972 7532 8973 8803 8974 8975 
973 974 1199 1198 998 999 1224 1223 7366 8806 8807 8799 7537 8977 8978 8970 7528 7535 8976 8969 8972 8979 7539 8980 8810 8981 8982 
975 976 1201 1200 1000 1001 1226 1225 7374 8814 8815 8816 7545 8985 8986 8987 7543 7542 8983 8984 8990 8988 7548 8989 8820 8991 8992 
976 977 1202 1201 1001 1002 1227 1226 7383 8823 8824 8814 7554 8994 8995 8985 7542 7552 8993 8983 8988 8996 7556 8997 8827 8998 8999 
977 978 1203 1202 1002 1003 1228 1227 7390 8830 8831 8823 7561 9001 9002 8994 7552 7559 9000 8993 8996 9003 7563 9004 8834 9005 9006 
978 979 1204 1203 1003 1004 1229 1228 7397 8837 8838 8830 7568 9008 9009 9001 7559 7566 9007 9000 9003 9010 7570 9011 8841 9012 9013 
979 980 1205 1204 1004 1005 1230 1229 7404 8844 8845 8837 7575 9015 9016 9008 7566 7573 9014 9007 9010 9017 7577 9018 8848 9019 9020 
980 981 1206 1205 1005 1006 1231 1230 7411 8851 8852 8844 7582 9022 9023 9015 7573 7580 9021 9014 9017 9024 7584 9025 8855 9026 9027 
981 982 1207 1206 1006 1007 1232 1231 7418 8858 8859 8851 7589 9029 9030 9022 7580 7587 9028 9021 9024 9031 7591 9032 8862 9033 9034 
982 983 1208 1207 1007 1008 1233 1232 7425 8865 8866 8858 7596 9036 9037 9029 7587 7594 9035 9028 9031 9038 7598 9039 8869 9040 9041 
983 984 1209 1208 1008 1009 1234 1233 7432 8872 8873 8865 7603 9043 9044 9036 7594 7601 9042 9035 9038 9045 7605 9046 8876 9047 9048 
984 985 1210 1209 1009 1010 1235 1234 7439 8879 8880 8872 7610 9050 9051 9043 7601 7608 9049 9042 9045 9052 7612 9053 8883 9054 9055 
985 986 1211 1210 1010 1011 1236 1235 7446 8886 8887 8879 7617 9057 9058 9050 7608 7615 9056 9049 9052 9059 7619 9060 8890 9061 9062 
986 987 1212 1211 1011 1012 1237 1236 7453 8893 8894 8886 7624 9064 9065 9057 7615 7622 9063 9056 9059 9066 7626 9067 8897 9068 9069 
987 988 1213 1212 1012 1013 1238 1237 7460 8900 8901 8893 7631 9071 9072 9064 7622 7629 9070 9063 9066 9073 7633 9074 8904 9075 9076 
988 989 1214 1213 1013 1014 1239 1238 7467 8907 8908 8900 7638 9078 9079 9071 7629 7636 9077 9070 9073 9080 7640 9081 8911 9082 9083 
989 990 1215 1214 1014 1015 1240 1239 7474 8914 8915 8907 7645 9085 9086 9078 7636 7643 9084 9077 9080 9087 7647 9088 8918 9089 9090 
990 991 1216 1215 1015 1016 1241 1240 7481 8921 8922 8914 7652 9092 9093 9085 7643 7650 9091 9084 9087 9094 7654 9095 8925 9096 9097 
991 992 1217 1216 1016 1017 1242 1241 7488 8928 8929 8921 7659 9099 9100 9092 7650 7657 9098 9091 9094 9101 7661 9102 8932 9103 9104 
992 993 1218 1217 1017 1018 1243 1242 7495 8935 8936 8928 7666 9106 9107 9099 7657 7664 9105 9098 9101 9108 7668 9109 8939 9110 9111 
993 994 1219 1218 1018 1019 1244 1243 7502 8942 8943 8935 7673 9113 9114 9106 7664 7671 9112 9105 9108 9115 7675 9116 8946 9117 9118 
994 995 1220 1219 1019 1020 1245 1244 7509 8949 8950 8942 7680 9120 9121 9113 7671 7678 9119 9112 9115 9122 7682 9123 8953 9124 9125 
995 996 1221 1220 1020 1021 1246 1245 7516 8956 8957 8949 7687 9127 9128 9120 7678 7685 9126 9119 9122 9129 7689 9130 8960 9131 9132 
996 997 1222 1221 1021 1022 1247 1246 7523 8963 8964 8956 7694 9134 9135 9127 7685 7692 9133 9126 9129 9136 7696 9137 8967 9138 9139 
997 998 1223 1222 1022 1023 1248 1247 7530 8970 8971 8963 7701 9141 9142 9134 7692 7699 9140 9133 9136 9143 7703 9144 8974 9145 9146 
998 999 1224 1223 1023 1024 1249 1248 7537 8977 8978 8970 7708 9148 9149 9141 7699 7706 9147 9140 9143 9150 7710 9151 8981 9152 9153 
1000 1001 1226 1225 1025 1026 1251 1250 7545 8985 8986 8987 7716 9156 9157 9158 7714 7713 9154 9155 9161 9159 7719 9160 8991 9162 9163 
1001 1002 1227 1226 1026 1027 1252 1251 7554 8994 8995 8985 7725 9165 9166 9156 7713 7723 9164 9154 9159 9167 7727 9168 8998 9169 9170 
1002 1003 1228 1227 1027 1028 1253 1252 7561 9001 9002 8994 7732 9172 9173 9165 7723 7730 9171 9164 9167 9174 7734 9175 9005 9176 9177 
1003 1004 1229 1228 1028 1029 1254 1253 7568 9008 9009 9001 7739 9179 9180 9172 7730 7737 9178 9171 9174 9181 7741 9182 9012 9183 9184 
1004 1005 1230 1229 1029 1030 1255 1254 7575 9015 9016 9008 7746 9186 9187 9179 7737 7744 9185 9178 9181 9188 7748 9189 9019 9190 9191 
1005 1006 1231 1230 1030 1031 1256 1255 7582 9022 9023 9015 7753 9193 9194 9186 7744 7751 9192 9185 9188 9195 7755 9196 9026 9197 9198 
1006 1007 1232 1231 1031 1032 1257 1256 7589 9029 9030 9022 7760 9200 9201 9193 7751 7758 9199 9192 9195 9202 7762 9203 9033 9204 9205 
1007 1008 1233 1232 1032 1033 1258 1257 7596 9036 9037 9029 7767 9207 9208 9200 7758 7765 9206 9199 9202 9209 7769 9210 9040 9211 9212 
1008 1009 1234 1233 1033 1034 1259 1258 7603 9043 9044 9036 7774 9214 9215 9207 7765 7772 9213 9206 9209 9216 7776 9217 9047 9218 9219 
1009 1010 1235 1234 1034 1035 1260 1259 7610 9050 9051 9043 7781 9221 9222 9214 7772 7779 9220 9213 9216 9223 7783 9224 9054 9225 9226 
1010 1011 1236 1235 1035 1036 1261 1260 7617 9057 9058 9050 7788 9228 9229 9221 7779 7786 9227 9220 9223 9230 7790 9231 9061 9232 9233 
1011 1012 1237 1236 1036 1037 1262 1261 7624 9064 9065 9057 7795 9235 9236 9228 7786 7793 9234 9227 9230 9237 7797 9238 9068 9239 9240 
1012 1013 1238 1237 1037 1038 1263 1262 7631 9071 9072 9064 7802 9242 9243 9235 7793 7800 9241 9234 9237 9244 7804 9245 9075 9246 9247 
1013 1014 1239 1238 1038 1039 1264 1263 7638 9078 9079 9071 7809 9249 9250 9242 7800 7807 9248 9241 9244 9251 7811 9252 9082 9253 9254 
1014 1015 1240 1239 1039 1040 1265 1264 7645 9085 9086 9078 7816 9256 9257 9249 7807 7814 9255 9248 9251 9258 7818 9259 9089 9260 9261 
1015 1016 1241 1240 1040 1041 1266 1265 7652 9092 9093 9085 7823 9263 9264 9256 7814 7821 9262 9255 9258 9265 7825 9266 9096 9267 9268 
1016 1017 1242 1241 1041 1042 1267 1266 7659 9099 9100 9092 7830 9270 9271 9263 7821 7828 9269 9262 9265 9272 7832 9273 9103 9274 9275 
1017 1018 1243 1242 1042 1043 1268 1267 7666 9106 9107 9099 7837 9277 9278 9270 7828 7835 9276 9269 9272 9279 7839 9280 9110 9281 9282 
1018 1019 1244 1243 1043 1044 1269 1268 7673 9113 9114 9106 7844 9284 9285 9277 7835 7842 9283 9276 9279 9286 7846 9287 9117 9288 9289 
1019 1020 1245 1244 1044 1045 1270 1269 7680 9120 9121 9113 7851 9291 9292 9284 7842 7849 9290 9283 9286 9293 7853 9294 9124 9295 9296 
1020 1021 1246 1245 1045 1046 1271 1270 7687 9127 9128 9120 7858 9298 9299 9291 7849 7856 9297 9290 9293 9300 7860 9301 9131 9302 9303 
1021 1022 1247 1246 1046 1047 1272 1271 7694 9134 9135 9127 7865 9305 9306 9298 7856 7863 9304 9297 9300 9307 7867 9308 9138 9309 9310 
1022 1023 1248 1247 1047 1048 1273 1272 7701 9141 9142 9134 7872 9312 9313 9305 7863 7870 9311 9304 9307 9314 7874 9315 9145 9316 9317 
1023 1024 1249 1248 1048 1049 1274 1273 7708 9148 9149 9141 7879 9319 9320 9312 7870 7877 9318 9311 9314 9321 7881 9322 9152 9323 9324 
1025 1026 1251 1250 1050 1051 1276 1275 7716 9156 9157 9158 7887 9327 9328 9329 7885 7884 9325 9326 9332 9330 7890 9331 9162 9333 9334 
1026 1027 1252 1251 1051 1052 1277 1276 7725 9165 9166 9156 7896 9336 9337 9327 7884 7894 9335 9325 9330 9338 7898 9339 9169 9340 9341 
1027 1028 1253 1252 1052 1053 1278 1277 7732 9172 9173 9165 7903 9343 9344 9336 7894 7901 9342 9335 9338 9345 7905 9346 9176 9347 9348 
1028 1029 1254 1253 1053 1054 1279 1278 7739 9179 9180 9172 7910 9350 9351 9343 7901 7908 9349 9342 9345 9352 7912 9353 9183 9354 9355 
1029 1030 1255 1254 1054 1055 1280 1279 7746 9186 9187 9179 7917 9357 9358 9350 7908 7915 9356 9349 9352 9359 7919 9360 9190 9361 9362 
1030 1031 1256 1255 1055 1056 1281 1280 7753 9193 9194 9186 7924 9364 9365 9357 7915 7922 9363 9356 9359 9366 7926 9367 9197 9368 9369 
1031 1032 1257 1256 1056 1057 1282 1281 7760 9200 9201 9193 7931 9371 9372 9364 7922 7929 9370 9363 9366 9373 7933 9374 9204 9375 9376 
1032 1033 1258 1257 1057 1058 1283 1282 7767 9207 9208 9200 7938 9378 9379 9371 7929 7936 9377 9370 9373 9380 7940 9381 9211 9382 9383 
1033 1034 1259 1258 1058 1059 1284 1283 7774 9214 9215 9207 7945 9385 9386 9378 7936 7943 9384 9377 9380 9387 7947 9388 9218 9389 9390 
1034 1035 1260 1259 1059 1060 1285 1284 7781 9221 9222 9214 7952 9392 9393 9385 7943 7950 9391 9384 9387 9394 7954 9395 9225 9396 9397 
1035 1036 1261 1260 1060 1061 1286 1285 7788 9228 9229 9221 7959 9399 9400 9392 7950 7957 9398 9391 9394 9401 7961 9402 9232 9403 9404 
1036 1037 1262 1261 1061 1062 1287 1286 7795 9235 9236 9228 7966 9406 9407 9399 7957 7964 9405 9398 9401 9408 7968 9409 9239 9410 9411 
1037 1038 1263 1262 1062 1063 1288 1287 7802 9242 9243 9235 7973 9413 9414 9406 7964 7971 9412 9405 9408 9415 7975 9416 9246 9417 9418 
1038 1039 1264 1263 1063 1064 1289 1288 7809 9249 9250 9242 7980 9420 9421 9413 7971 7978 9419 9412 9415 9422 7982 9423 9253 9424 9425 
1039 1040 1265 1264 1064 1065 1290 1289 7816 9256 9257 9249 7987 9427 9428 9420 7978 7985 9426 9419 9422 9429 7989 9430 9260 9431 9432 
1040 1041 1266 1265 1065 1066 1291 1290 7823 9263 9264 9256 7994 9434 9435 9427 7985 7992 9433 9426 9429 9436 7996 9437 9267 9438 9439 
1041 1042 1267 1266 1066 1067 1292 1291 7830 9270 9271 9263 8001 9441 9442 9434 7992 7999 9440 9433 9436 9443 8003 9444 9274 9445 9446 
1042 1043 1268 1267 1067 1068 1293 1292 7837 9277 9278 9270 8008 9448 9449 9441 7999 8006 9447 9440 9443 9450 8010 9451 9281 9452 9453 
1043 1044 1269 1268 1068 1069 1294 1293 7844 9284 9285 9277 8015 9455 9456 9448 8006 8013 9454 9447 9450 9457 8017 9458 9288 9459 9460 
1044 1045 1270 1269 1069 1070 1295 1294 7851 9291 9292 9284 8022 9462 9463 9455 8013 8020 9461 9454 9457 9464 8024 9465 9295 9466 9467 
1045 1046 1271 1270 1070 1071 1296 1295 7858 9298 9299 9291 8029 9469 9470 9462 8020 8027 9468 9461 9464 9471 8031 9472 9302 9473 9474 
1046 1047 1272 1271 1071 1072 1297 1296 7865 9305 9306 9298 8036 9476 9477 9469 8027 8034 9475 9468 9471 9478 8038 9479 9309 9480 9481 
1047 1048 1273 1272 1072 1073 1298 1297 7872 9312 9313 9305 8043 9483 9484 9476 8034 8041 9482 9475 9478 9485 8045 9486 9316 9487 9488 
1048 1049 1274 1273 1073 1074 1299 1298 7879 9319 9320 9312 8050 9490 9491 9483 8041 8048 9489 9482 9485 9492 8052 9493 9323 9494 9495 
1050 1051 1276 1275 1075 1076 1301 1300 7887 9327 9328 9329 8058 9498 9499 9500 8056 8055 9496 9497 9503 9501 8061 9502 9333 9504 9505 
1051 1052 1277 1276 1076 1077 1302 1301 7896 9336 9337 9327 8067 9507 9508 9498 8055 8065 9506 9496 9501 9509 8069 9510 9340 9511 9512 
1052 1053 1278 1277 1077 1078 1303 1302 7903 9343 9344 9336 8074 9514 9515 9507 8065 8072 9513 9506 9509 9516 8076 9517 9347 9518 9519 
1053 1054 1279 1278 1078 1079 1304 1303 7910 9350 9351 9343 8081 9521 9522 9514 8072 8079 9520 9513 9516 9523 8083 9524 9354 9525 9526 
1054 1055 1280 1279 1079 1080 1305 1304 7917 9357 9358 9350 8088 9528 9529 9521 8079 8086 9527 9520 9523 9530 8090 9531 9361 9532 9533 
1055 1056 1281 1280 1080 1081 1306 1305 7924 9364 9365 9357 8095 9535 9536 9528 8086 8093 9534 9527 9530 9537 8097 9538 9368 9539 9540 
1056 1057 1282 1281 1081 1082 1307 1306 7931 9371 9372 9364 8102 9542 9543 9535 8093 8100 9541 9534 9537 9544 8104 9545 9375 9546 9547 
1057 1058 1283 1282 1082 1083 1308 1307 7938 9378 9379 9371 8109 9549 9550 9542 8100 8107 9548 9541 9544 9551 8111 9552 9382 9553 9554 
1058 1059 1284 1283 1083 1084 1309 1308 7945 9385 9386 9378 8116 9556 9557 9549 8107 8114 9555 9548 9551 9558 8118 9559 9389 9560 9561 
1059 1060 1285 1284 1084 1085 1310 1309 7952 9392 9393 9385 8123 9563 9564 9556 8114 8121 9562 9555 9558 9565 8125 9566 9396 9567 9568 
1060 1061 1286 1285 1085 1086 1311 1310 7959 9399 9400 9392 8130 9570 9571 9563 8121 8128 9569 9562 9565 9572 8132 9573 9403 9574 9575 
1061 1062 1287 1286 1086 1087 1312 1311 7966 9406 9407 9399 8137 9577 9578 9570 8128 8135 9576 9569 9572 9579 8139 9580 9410 9581 9582 
1062 1063 1288 1287 1087 1088 1313 1312 7973 9413 9414 9406 8144 9584 9585 9577 8135 8142 9583 9576 9579 9586 8146 9587 9417 9588 9589 
1063 1064 1289 1288 1088 1089 1314 1313 7980 9420 9421 9413 8151 9591 9592 9584 8142 8149 9590 9583 9586 9593 8153 9594 9424 9595 9596 
1064 1065 1290 1289 1089 1090 1315 1314 7987 9427 9428 9420 8158 9598 9599 9591 8149 8156 9597 9590 9593 9600 8160 9601 9431 9602 9603 
1065 1066 1291 1290 1090 1091 1316 1315 7994 9434 9435 9427 8165 9605 9606 9598 8156 8163 9604 9597 9600 9607 8167 9608 9438 9609 9610 
1066 1067 1292 1291 1091 1092 1317 1316 8001 9441 9442 9434 8172 9612 9613 9605 8163 8170 9611 9604 9607 9614 8174 9615 9445 9616 9617 
1067 1068 1293 1292 1092 1093 1318 1317 8008 9448 9449 9441 8179 9619 9620 9612 8170 8177 9618 9611 9614 9621 8181 9622 9452 9623 9624 
1068 1069 1294 1293 1093 1094 1319 1318 8015 9455 9456 9448 8186 9626 9627 9619 8177 8184 9625 9618 9621 9628 8188 9629 9459 9630 9631 
1069 1070 1295 1294 1094 1095 1320 1319 8022 9462 9463 9455 8193 9633 9634 9626 8184 8191 9632 9625 9628 9635 8195 9636 9466 9637 9638 
1070 1071 1296 1295 1095 1096 1321 1320 8029 9469 9470 9462 8200 9640 9641 9633 8191 8198 9639 9632 9635 9642 8202 9643 9473 9644 9645 
1071 1072 1297 1296 1096 1097 1322 1321 8036 9476 9477 9469 8207 9647 9648 9640 8198 8205 9646 9639 9642 9649 8209 9650 9480 9651 9652 
1072 1073 1298 1297 1097 1098 1323 1322 8043 9483 9484 9476 8214 9654 9655 9647 8205 8212 9653 9646 9649 9656 8216 9657 9487 9658 9659 
1073 1074 1299 1298 1098 1099 1324 1323 8050 9490 9491 9483 8221 9661 9662 9654 8212 8219 9660 9653 9656 9663 8223 9664 9494 9665 9666 
1075 1076 1301 1300 1100 1101 1326 1325 8058 9498 9499 9500 8229 9669 9670 9671 8227 8226 9667 9668 9674 9672 8232 9673 9504 9675 9676 
1076 1077 1302 1301 1101 1102 1327 1326 8067 9507 9508 9498 8238 9678 9679 9669 8226 8236 9677 9667 9672 9680 8240 9681 9511 9682 9683 
1077 1078 1303 1302 1102 1103 1328 1327 8074 9514 9515 9507 8245 9685 9686 9678 8236 8243 9684 9677 9680 9687 8247 9688 9518 9689 9690 
1078 1079 1304 1303 1103 1104 1329 1328 8081 9521 9522 9514 8252 9692 9693 9685 8243 8250 9691 9684 9687 9694 8254 9695 9525 9696 9697 
1079 1080 1305 1304 1104 1105 1330 1329 8088 9528 9529 9521 8259 9699 9700 9692 8250 8257 9698 9691 9694 9701 8261 9702 9532 9703 9704 
1080 1081 1306 1305 1105 1106 1331 1330 8095 9535 9536 9528 8266 9706 9707 9699 8257 8264 9705 9698 9701 9708 8268 9709 9539 9710 9711 
1081 1082 1307 1306 1106 1107 1332 1331 8102 9542 9543 9535 8273 9713 9714 9706 8264 8271 9712 9705 9708 9715 8275 9716 9546 9717 9718 
1082 1083 1308 1307 1107 1108 1333 1332 8109 9549 9550 9542 8280 9720 9721 9713 8271 8278 9719 9712 9715 9722 8282 9723 9553 9724 9725 
1083 1084 1309 1308 1108 1109 1334 1333 8116 9556 9557 9549 8287 9727 9728 9720 8278 8285 9726 9719 9722 9729 8289 9730 9560 9731 9732 
1084 1085 1310 1309 1109 1110 1335 1334 8123 9563 9564 9556 8294 9734 9735 9727 8285 8292 9733 9726 9729 9736 8296 9737 9567 9738 9739 
1085 1086 1311 1310 1110 1111 1336 1335 8130 9570 9571 9563 8301 9741 9742 9734 8292 8299 9740 9733 9736 9743 8303 9744 9574 9745 9746 
1086 1087 1312 1311 1111 1112 1337 1336 8137 9577 9578 9570 8308 9748 9749 9741 8299 8306 9747 9740 9743 9750 8310 9751 9581 9752 9753 
1087 1088 1313 1312 1112 1113 1338 1337 8144 9584 9585 9577 8315 9755 9756 9748 8306 8313 9754 9747 9750 9757 8317 9758 9588 9759 9760 
1088 1089 1314 1313 1113 1114 1339 1338 8151 9591 9592 9584 8322 9762 9763 9755 8313 8320 9761 9754 9757 9764 8324 9765 9595 9766 9767 
1089 1090 1315 1314 1114 1115 1340 1339 8158 9598 9599 9591 8329 9769 9770 9762 8320 8327 9768 9761 9764 9771 8331 9772 9602 9773 9774 
1090 1091 1316 1315 1115 1116 1341 1340 8165 9605 9606 9598 8336 9776 9777 9769 8327 8334 9775 9768 9771 9778 8338 9779 9609 9780 9781 
1091 1092 1317 1316 1116 1117 1342 1341 8172 9612 9613 9605 8343 9783 9784 9776 8334 8341 9782 9775 9778 9785 8345 9786 9616 9787 9788 
1092 1093 1318 1317 1117 1118 1343 1342 8179 9619 9620 9612 8350 9790 9791 9783 8341 8348 9789 9782 9785 9792 8352 9793 9623 9794 9795 
1093 1094 1319 1318 1118 1119 1344 1343 8186 9626 9627 9619 8357 9797 9798 9790 8348 8355 9796 9789 9792 9799 8359 9800 9630 9801 9802 
1094 1095 1320 1319 1119 1120 1345 1344 8193 9633 9634 9626 8364 9804 9805 9797 8355 8362 9803 9796 9799 9806 8366 9807 9637 9808 9809 
1095 1096 1321 1320 1120 1121 1346 1345 8200 9640 9641 9633 8371 9811 9812 9804 8362 8369 9810 9803 9806 9813 8373 9814 9644 9815 9816 
1096 1097 1322 1321 1121 1122 1347 1346 8207 9647 9648 9640 8378 9818 9819 9811 8369 8376 9817 9810 9813 9820 8380 9821 9651 9822 9823 
1097 1098 1323 1322 1122 1123 1348 1347 8214 9654 9655 9647 8385 9825 9826 9818 8376 8383 9824 9817 9820 9827 8387 9828 9658 9829 9830 
1098 1099 1324 1323 1123 1124 1349 1348 8221 9661 9662 9654 8392 9832 9833 9825 8383 8390 9831 9824 9827 9834 8394 9835 9665 9836 9837 
1125 1126 1351 1350 1150 1151 1376 1375 8398 9838 9839 9840 8403 9843 9844 9845 8401 8400 9841 9842 9849 9847 8407 9848 9846 9850 9851 
1126 1127 1352 1351 1151 1152 1377 1376 8412 9852 9853 9838 8415 9855 9856 9843 8400 8413 9854 9841 9847 9858 8418 9859 9857 9860 9861 
1127 1128 1353 1352 1152 1153 1378 1377 8422 9862 9863 9852 8425 9865 9866 9855 8413 8423 9864 9854 9858 9868 8428 9869 9867 9870 9871 
1128 1129 1354 1353 1153 1154 1379 1378 8432 9872 9873 9862 8435 9875 9876 9865 8423 8433 9874 9864 9868 9878 8438 9879 9877 9880 9881 
1129 1130 1355 1354 1154 1155 1380 1379 8442 9882 9883 9872 8445 9885 9886 9875 8433 8443 9884 9874 9878 9888 8448 9889 9887 9890 9891 
1130 1131 1356 1355 1155 1156 1381 1380 8452 9892 9893 9882 8455 9895 9896 9885 8443 8453 9894 9884 9888 9898 8458 9899 9897 9900 9901 
1131 1132 1357 1356 1156 1157 1382 1381 8462 9902 9903 9892 8465 9905 9906 9895 8453 8463 9904 9894 9898 9908 8468 9909 9907 9910 9911 
1132 1133 1358 1357 1157 1158 1383 1382 8472 9912 9913 9902 8475 9915 9916 9905 8463 8473 9914 9904 9908 9918 8478 9919 9917 9920 9921 
1133 1134 1359 1358 1158 1159 1384 1383 8482 9922 9923 9912 8485 9925 9926 9915 8473 8483 9924 9914 9918 9928 8488 9929 9927 9930 9931 
1134 1135 1360 1359 1159 1160 1385 1384 8492 9932 9933 9922 8495 9935 9936 9925 8483 8493 9934 9924 9928 9938 8498 9939 9937 9940 9941 
1135 1136 1361 1360 1160 1161 1386 1385 8502 9942 9943 9932 8505 9945 9946 9935 8493 8503 9944 9934 9938 9948 8508 9949 9947 9950 9951 
1136 1137 1362 1361 1161 1162 1387 1386 8512 9952 9953 9942 8515 9955 9956 9945 8503 8513 9954 9944 9948 9958 8518 9959 9957 9960 9961 
1137 1138 1363 1362 1162 1163 1388 1387 8522 9962 9963 9952 8525 9965 9966 9955 8513 8523 9964 9954 9958 9968 8528 9969 9967 9970 9971 
1138 1139 1364 1363 1163 1164 1389 1388 8532 9972 9973 9962 8535 9975 9976 9965 8523 8533 9974 9964 9968 9978 8538 9979 9977 9980 9981 
1139 1140 1365 1364 1164 1165 1390 1389 8542 9982 9983 9972 8545 9985 9986 9975 8533 8543 9984 9974 9978 9988 8548 9989 9987 9990 9991 
1140 1141 1366 1365 1165 1166 1391 1390 8552 9992 9993 9982 8555 9995 9996 9985 8543 8553 9994 9984 9988 9998 8558 9999 9997 10000 10001 
1141 1142 1367 1366 1166 1167 1392 1391 8562 10002 10003 9992 8565 10005 10006 9995 8553 8563 10004 9994 9998 10008 8568 10009 10007 10010 10011 
1142 1143 1368 1367 1167 1168 1393 1392 8572 10012 10013 10002 8575 10015 10016 10005 8563 8573 10014 10004 10008 10018 8578 10019 10017 10020 10021 
1143 1144 1369 1368 1168 1169 1394 1393 8582 10022 10023 10012 8585 10025 10026 10015 8573 8583 10024 10014 10018 10028 8588 10029 10027 10030 10031 
1144 1145 1370 1369 1169 1170 1395 1394 8592 10032 10033 10022 8595 10035 10036 10025 8583 8593 10034 10024 10028 10038 8598 10039 10037 10040 10041 
1145 1146 1371 1370 1170 1171 1396 1395 8602 10042 10043 10032 8605 10045 10046 10035 8593 8603 10044 10034 10038 10048 8608 10049 10047 10050 10051 
1146 1147 1372 1371 1171 1172 1397 1396 8612 10052 10053 10042 8615 10055 10056 10045 8603 8613 10054 10044 10048 10058 8618 10059 10057 10060 10061 
1147 1148 1373 1372 1172 1173 1398 1397 8622 10062 10063 10052 8625 10065 10066 10055 8613 8623 10064 10054 10058 10068 8628 10069 10067 10070 10071 
1148 1149 1374 1373 1173 1174 1399 1398 8632 10072 10073 10062 8635 10075 10076 10065 8623 8633 10074 10064 10068 10078 8638 10079 10077 10080 10081 
1150 1151 1376 1375 1175 1176 1401 1400 8403 9843 9844 9845 8644 10084 10085 10086 8642 8641 10082 10083 10089 10087 8647 10088 9850 10090 10091 
1151 1152 1377 1376 1176 1177 1402 1401 8415 9855 9856 9843 8653 10093 10094 10084 8641 8651 10092 10082 10087 10095 8655 10096 9860 10097 10098 
1152 1153 1378 1377 1177 1178 1403 1402 8425 9865 9866 9855 8660 10100 10101 10093 8651 8658 10099 10092 10095 10102 8662 10103 9870 10104 10105 
1153 1154 1379 1378 1178 1179 1404 1403 8435 9875 9876 9865 8667 10107 10108 10100 8658 8665 10106 10099 10102 10109 8669 10110 9880 10111 10112 
1154 1155 1380 1379 1179 1180 1405 1404 8445 9885 9886 9875 8674 10114 10115 10107 8665 8672 10113 10106 10109 10116 8676 10117 9890 10118 10119 
1155 1156 1381 1380 1180 1181 1406 1405 8455 9895 9896 9885 8681 10121 10122 10114 8672 8679 10120 10113 10116 10123 8683 10124 9900 10125 10126 
1156 1157 1382 1381 1181 1182 1407 1406 8465 9905 9906 9895 8688 10128 10129 10121 8679 8686 10127 10120 10123 10130 8690 10131 9910 10132 10133 
1157 1158 1383 1382 1182 1183 1408 1407 8475 9915 9916 9905 8695 10135 10136 10128 8686 8693 10134 10127 10130 10137 8697 10138 9920 10139 10140 
1158 1159 1384 1383 1183 1184 1409 1408 8485 9925 9926 9915 8702 10142 10143 10135 8693 8700 10141 10134 10137 10144 8704 10145 9930 10146 10147 
1159 1160 1385 1384 1184 1185 1410 1409 8495 9935 9936 9925 8709 10149 10150 10142 8700 8707 10148 10141 10144 10151 8711 10152 9940 10153 10154 
1160 1161 1386 1385 1185 1186 1411 1410 8505 9945 9946 9935 8716 10156 10157 10149 8707 8714 10155 10148 10151 10158 8718 10159 9950 10160 10161 
1161 1162 1387 1386 1186 1187 1412 1411 8515 9955 9956 9945 8723 10163 10164 10156 8714 8721 10162 10155 10158 10165 8725 10166 9960 10167 10168 
1162 1163 1388 1387 1187 1188 1413 1412 8525 9965 9966 9955 8730 10170 10171 10163 8721 8728 10169 10162 10165 10172 8732 10173 9970 10174 10175 
1163 1164 1389 1388 1188 1189 1414 1413 8535 9975 9976 9965 8737 10177 10178 10170 8728 8735 10176 10169 10172 10179 8739 10180 9980 10181 10182 
1164 1165 1390 1389 1189 1190 1415 1414 8545 9985 9986 9975 8744 10184 10185 10177 8735 8742 10183 10176 10179 10186 8746 10187 9990 10188 10189 
1165 1166 1391 1390 1190 1191 1416 1415 8555 9995 9996 9985 8751 10191 10192 10184 8742 8749 10190 10183 10186 10193 8753 10194 10000 10195 10196 
1166 1167 1392 1391 1191 1192 1417 1416 8565 10005 10006 9995 8758 10198 10199 10191 8749 8756 10197 10190 10193 10200 8760 10201 10010 10202 10203 
1167 1168 1393 1392 1192 1193 1418 1417 8575 10015 10016 10005 8765 10205 10206 10198 8756 8763 10204 10197 10200 10207 8767 10208 10020 10209 10210 
1168 1169 1394 1393 1193 1194 1419 1418 8585 10025 10026 10015 8772 10212 10213 10205 8763 8770 10211 10204 10207 10214 8774 10215 10030 10216 10217 
1169 1170 1395 1394 1194 1195 1420 1419 8595 10035 10036 10025 8779 10219 10220 10212 8770 8777 10218 10211 10214 10221 8781 10222 10040 10223 10224 
1170 1171 1396 1395 1195 1196 1421 1420 8605 10045 10046 10035 8786 10226 10227 10219 8777 8784 10225 10218 10221 10228 8788 10229 10050 10230 10231 
1171 1172 1397 1396 1196 1197 1422 1421 8615 10055 10056 10045 8793 10233 10234 10226 8784 8791 10232 10225 10228 10235 8795 10236 10060 10237 10238 
1172 1173 1398 1397 1197 1198 1423 1422 8625 10065 10066 10055 8800 10240 10241 10233 8791 8798 10239 10232 10235 10242 8802 10243 10070 10244 10245 
1173 1174 1399 1398 1198 1199 1424 1423 8635 10075 10076 10065 8807 10247 10248 10240 8798 8805 10246 10239 10242 10249 8809 10250 10080 10251 10252 
1175 1176 1401 1400 1200 1201 1426 1425 8644 10084 10085 10086 8815 10255 10256 10257 8813 8812 10253 10254 10260 10258 8818 10259 10090 10261 10262 
1176 1177 1402 1401 1201 1202 1427 1426 8653 10093 10094 10084 8824 10264 10265 10255 8812 8822 10263 10253 10258 10266 8826 10267 10097 10268 10269 
1177 1178 1403 1402 1202 1203 1428 1427 8660 10100 10101 10093 8831 10271 10272 10264 8822 8829 10270 10263 10266 10273 8833 10274 10104 10275 10276 
1178 1179 1404 1403 1203 1204 1429 1428 8667 10107 10108 10100 8838 10278 10279 10271 8829 8836 10277 10270 10273 10280 8840 10281 10111 10282 10283 
1179 1180 1405 1404 1204 1205 1430 1429 8674 10114 10115 10107 8845 10285 10286 10278 8836 8843 10284 10277 10280 10287 8847 10288 10118 10289 10290 
1180 1181 1406 1405 1205 1206 1431 1430 8681 10121 10122 10114 8852 10292 10293 10285 8843 8850 10291 10284 10287 10294 8854 10295 10125 10296 10297 
1181 1182 1407 1406 1206 1207 1432 1431 8688 10128 10129 10121 8859 10299 10300 10292 8850 8857 10298 10291 10294 10301 8861 10302 10132 10303 10304 
1182 1183 1408 1407 1207 1208 1433 1432 8695 10135 10136 10128 8866 10306 10307 10299 8857 8864 10305 10298 10301 10308 8868 10309 10139 10310 10311 
1183 1184 1409 1408 1208 1209 1434 1433 8702 10142 10143 10135 8873 10313 10314 10306 8864 8871 10312 10305 10308 10315 8875 10316 10146 10317 10318 
1184 1185 1410 1409 1209 1210 1435 1434 8709 10149 10150 10142 8880 10320 10321 10313 8871 8878 10319 10312 10315 10322 8882 10323 10153 10324 10325 
1185 1186 1411 1410 1210 1211 1436 1435 8716 10156 10157 10149 8887 10327 10328 10320 8878 8885 10326 10319 10322 10329 8889 10330 10160 10331 10332 
1186 1187 1412 1411 1211 1212 1437 1436 8723 10163 10164 10156 8894 10334 10335 10327 8885 8892 10333 10326 10329 10336 8896 10337 10167 10338 10339 
1187 1188 1413 1412 1212 1213 1438 1437 8730 10170 10171 10163 8901 10341 10342 10334 8892 8899 10340 10333 10336 10343 8903 10344 10174 10345 10346 
1188 1189 1414 1413 1213 1214 1439 1438 8737 10177 10178 10170 8908 10348 10349 10341 8899 8906 10347 10340 10343 10350 8910 10351 10181 10352 10353 
1189 1190 1415 1414 1214 1215 1440 1439 8744 10184 10185 10177 8915 10355 10356 10348 8906 8913 10354 10347 10350 10357 8917 10358 10188 10359 10360 
1190 1191 1416 1415 1215 1216 1441 1440 8751 10191 10192 10184 8922 10362 10363 10355 8913 8920 10361 10354 10357 10364 8924 10365 10195 10366 10367 
1191 1192 1417 1416 1216 1217 1442 1441 8758 10198 10199 10191 8929 10369 10370 10362 8920 8927 10368 10361 10364 10371 8931 10372 10202 10373 10374 
1192 1193 1418 1417 1217 1218 1443 1442 8765 10205 10206 10198 8936 10376 10377 10369 8927 8934 10375 10368 10371 10378 8938 10379 10209 10380 10381 
1193 1194 1419 1418 1218 1219 1444 1443 8772 10212 10213 10205 8943 10383 10384 10376 8934 8941 10382 10375 10378 10385 8945 10386 10216 10387 10388 
1194 1195 1420 1419 1219 1220 1445 1444 8779 10219 10220 10212 8950 10390 10391 10383 8941 8948 10389 10382 10385 10392 8952 10393 10223 10394 10395 
1195 1196 1421 1420 1220 1221 1446 1445 8786 10226 10227 10219 8957 10397 10398 10390 8948 8955 10396 10389 10392 10399 8959 10400 10230 10401 10402 
1196 1197 1422 1421 1221 1222 1447 1446 8793 10233 10234 10226 8964 10404 10405 10397 8955 8962 10403 10396 10399 10406 8966 10407 10237 10408 10409 
1197 1198 1423 1422 1222 1223 1448 1447 8800 10240 10241 10233 8971 10411 10412 10404 8962 8969 10410 10403 10406 10413 8973 10414 10244 10415 10416 
1198 1199 1424 1423 1223 1224 1449 1448 8807 10247 10248 10240 8978 10418 10419 10411 8969 8976 10417 10410 10413 10420 8980 10421 10251 10422 10423 
1200 1201 1426 1425 1225 1226 1451 1450 8815 10255 10256 10257 8986 10426 10427 10428 8984 8983 10424 10425 10431 10429 8989 10430 10261 10432 10433 
1201 1202 1427 1426 1226 1227 1452 1451 8824 10264 10265 10255 8995 10435 10436 10426 8983 8993 10434 10424 10429 10437 8997 10438 10268 10439 10440 
1202 1203 1428 1427 1227 1228 1453 1452 8831 10271 10272 10264 9002 10442 10443 10435 8993 9000 10441 10434 10437 10444 9004 10445 10275 10446 10447 
1203 1204 1429 1428 1228 1229 1454 1453 8838 10278 10279 10271 9009 10449 10450 10442 9000 9007 10448 10441 10444 10451 9011 10452 10282 10453 10454 
1204 1205 1430 1429 1229 1230 1455 1454 8845 10285 10286 10278 9016 10456 10457 10449 9007 9014 10455 10448 10451 10458 9018 10459 10289 10460 10461 
1205 1206 1431 1430 1230 1231 1456 1455 8852 10292 10293 10285 9023 10463 10464 10456 9014 9021 10462 10455 10458 10465 9025 10466 10296 10467 10468 
1206 1207 1432 1431 1231 1232 1457 1456 8859 10299 10300 10292 9030 10470 10471 10463 9021 9028 10469 10462 10465 10472 9032 10473 10303 10474 10475 
1207 1208 1433 1432 1232 1233 1458 1457 8866 10306 10307 10299 9037 10477 10478 10470 9028 9035 10476 10469 10472 10479 9039 10480 10310 10481 10482 
1208 1209 1434 1433 1233 1234 1459 1458 8873 10313 10314 10306 9044 10484 10485 10477 9035 9042 10483 10476 10479 10486 9046 10487 10317 10488 10489 
1209 1210 1435 1434 1234 1235 1460 1459 8880 10320 10321 10313 9051 10491 10492 10484 9042 9049 10490 10483 10486 10493 9053 10494 10324 10495 10496 
1210 1211 1436 1435 1235 1236 1461 1460 8887 10327 10328 10320 9058 10498 10499 10491 9049 9056 10497 10490 10493 10500 9060 10501 10331 10502 10503 
1211 1212 1437 1436 1236 1237 1462 1461 8894 10334 10335 10327 9065 10505 10506 10498 9056 9063 10504 10497 10500 10507 9067 10508 10338 10509 10510 
1212 1213 1438 1437 1237 1238 1463 1462 8901 10341 10342 10334 9072 10512 10513 10505 9063 9070 10511 10504 10507 10514 9074 10515 10345 10516 10517 
1213 1214 1439 1438 1238 1239 1464 1463 8908 10348 10349 10341 9079 10519 10520 10512 9070 9077 10518 10511 10514 10521 9081 10522 10352 10523 10524 
1214 1215 1440 1439 1239 1240 1465 1464 8915 10355 10356 10348 9086 10526 10527 10519 9077 9084 10525 10518 10521 10528 9088 10529 10359 10530 10531 
1215 1216 1441 1440 1240 1241 1466 1465 8922 10362 10363 10355 9093 10533 10534 10526 9084 9091 10532 10525 10528 10535 9095 10536 10366 10537 10538 
1216 1217 1442 1441 1241 1242 1467 1466 8929 10369 10370 10362 9100 10540 10541 10533 9091 9098 10539 10532 10535 10542 9102 10543 10373 10544 10545 
1217 1218 1443 1442 1242 1243 1468 1467 8936 10376 10377 10369 9107 10547 10548 10540 9098 9105 10546 10539 10542 10549 9109 10550 10380 10551 10552 
1218 1219 1444 1443 1243 1244 1469 1468 8943 10383 10384 10376 9114 10554 10555 10547 9105 9112 10553 10546 10549 10556 9116 10557 10387 10558 10559 
1219 1220 1445 1444 1244 1245 1470 1469 8950 10390 10391 10383 9121 10561 10562 10554 9112 9119 10560 10553 10556 10563 9123 10564 10394 10565 10566 
1220 1221 1446 1445 1245 1246 1471 1470 8957 10397 10398 10390 9128 10568 10569 10561 9119 9126 10567 10560 10563 10570 9130 10571 10401 10572 10573 
1221 1222 1447 1446 1246 1247 1472 1471 8964 10404 10405 10397 9135 10575 10576 10568 9126 9133 10574 10567 10570 10577 9137 10578 10408 10579 10580 
1222 1223 1448 1447 1247 1248 1473 1472 8971 10411 10412 10404 9142 10582 10583 10575 9133 9140 10581 10574 10577 10584 9144 10585 10415 10586 10587 
1223 1224 1449 1448 1248 1249 1474 1473 8978 10418 10419 10411 9149 10589 10590 10582 9140 9147 10588 10581 10584 10591 9151 10592 10422 10593 10594 
1225 1226 1451 1450 1250 1251 1476 1475 8986 10426 10427 10428 9157 10597 10598 10599 9155 9154 10595 10596 10602 10600 9160 10601 10432 10603 10604 
1226 1227 1452 1451 1251 1252 1477 1476 8995 10435 10436 10426 9166 10606 10607 10597 9154 9164 10605 10595 10600 10608 9168 10609 10439 10610 10611 
1227 1228 1453 1452 1252 1253 1478 1477 9002 10442 10443 10435 9173 10613 10614 10606 9164 9171 10612 10605 10608 10615 9175 10616 10446 10617 10618 
1228 1229 1454 1453 1253 1254 1479 1478 9009 10449 10450 10442 9180 10620 10621 10613 9171 9178 10619 10612 10615 10622 9182 10623 10453 10624 10625 
1229 1230 1455 1454 1254 1255 1480 1479 9016 10456 10457 10449 9187 10627 10628 10620 9178 9185 10626 10619 10622 10629 9189 10630 10460 10631 10632 
1230 1231 1456 1455 1255 1256 1481 1480 9023 10463 10464 10456 9194 10634 10635 10627 9185 9192 10633 10626 10629 10636 9196 10637 10467 10638 10639 
1231 1232 1457 1456 1256 1257 1482 1481 9030 10470 10471 10463 9201 10641 10642 10634 9192 9199 10640 10633 10636 10643 9203 10644 10474 10645 10646 
1232 1233 1458 1457 1257 1258 1483 1482 9037 10477 10478 10470 9208 10648 10649 10641 9199 9206 10647 10640 10643 10650 9210 10651 10481 10652 10653 
1233 1234 1459 1458 1258 1259 1484 1483 9044 10484 10485 10477 9215 10655 10656 10648 9206 9213 10654 10647 10650 10657 9217 10658 10488 10659 10660 
1234 1235 1460 1459 1259 1260 1485 1484 9051 10491 10492 10484 9222 10662 10663 10655 9213 9220 10661 10654 10657 10664 9224 10665 10495 10666 10667 
1235 1236 1461 1460 1260 1261 1486 1485 9058 10498 10499 10491 9229 10669 10670 10662 9220 9227 10668 10661 10664 10671 9231 10672 10502 10673 10674 
1236 1237 1462 1461 1261 1262 1487 1486 9065 10505 10506 10498 9236 10676 10677 10669 9227 9234 10675 10668 10671 10678 9238 10679 10509 10680 10681 
1237 1238 1463 1462 1262 1263 1488 1487 9072 10512 10513 10505 9243 10683 10684 10676 9234 9241 10682 10675 10678 10685 9245 10686 10516 10687 10688 
1238 1239 1464 1463 1263 1264 1489 1488 9079 10519 10520 10512 9250 10690 10691 10683 9241 9248 10689 10682 10685 10692 9252 10693 10523 10694 10695 
1239 1240 1465 1464 1264 1265 1490 1489 9086 10526 10527 10519 9257 10697 10698 10690 9248 9255 10696 10689 10692 10699 9259 10700 10530 10701 10702 
1240 1241 1466 1465 1265 1266 1491 1490 9093 10533 10534 10526 9264 10704 10705 10697 9255 9262 10703 10696 10699 10706 9266 10707 10537 10708 10709 
1241 1242 1467 1466 1266 1267 1492 1491 9100 10540 10541 10533 9271 10711 10712 10704 9262 9269 10710 10703 10706 10713 9273 10714 10544 10715 10716 
1242 1243 1468 1467 1267 1268 1493 1492 9107 10547 10548 10540 9278 10718 10719 10711 9269 9276 10717 10710 10713 10720 9280 10721 10551 10722 10723 
1243 1244 1469 1468 1268 1269 1494 1493 9114 10554 10555 10547 9285 10725 10726 10718 9276 9283 10724 10717 10720 10727 9287 10728 10558 10729 10730 
1244 1245 1470 1469 1269 1270 1495 1494 9121 10561 10562 10554 9292 10732 10733 10725 9283 9290 10731 10724 10727 10734 9294 10735 10565 10736 10737 
1245 1246 1471 1470 1270 1271 1496 1495 9128 10568 10569 10561 9299 10739 10740 10732 9290 9297 10738 10731 10734 10741 9301 10742 10572 10743 10744 
1246 1247 1472 1471 1271 1272 1497 1496 9135 10575 10576 10568 9306 10746 10747 10739 9297 9304 10745 10738 10741 10748 9308 10749 10579 10750 10751 
1247 1248 1473 1472 1272 1273 1498 1497 9142 10582 10583 10575 9313 10753 10754 10746 9304 9311 10752 10745 10748 10755 9315 10756 10586 10757 10758 
1248 1249 1474 1473 1273 1274 1499 1498 9149 10589 10590 10582 9320 10760 10761 10753 9311 9318 10759 10752 10755 10762 9322 10763 10593 10764 10765 
1250 1251 1476 1475 1275 1276 1501 1500 9157 10597 10598 10599 9328 10768 10769 10770 9326 9325 10766 10767 10773 10771 9331 10772 10603 10774 10775 
1251 1252 1477 1476 1276 1277 1502 1501 9166 10606 10607 10597 9337 10777 10778 10768 9325 9335 10776 10766 10771 10779 9339 10780 10610 10781 10782 
1252 1253 1478 1477 1277 1278 1503 1502 9173 10613 10614 10606 9344 10784 10785 10777 9335 9342 10783 10776 10779 10786 9346 10787 10617 10788 10789 
1253 1254 1479 1478 1278 1279 1504 1503 9180 10620 10621 10613 9351 10791 10792 10784 9342 9349 10790 10783 10786 10793 9353 10794 10624 10795 10796 
1254 1255 1480 1479 1279 1280 1505 1504 9187 10627 10628 10620 9358 10798 10799 10791 9349 9356 10797 10790 10793 10800 9360 10801 10631 10802 10803 
1255 1256 1481 1480 1280 1281 1506 1505 9194 10634 10635 10627 9365 10805 10806 10798 9356 9363 10804 10797 10800 10807 9367 10808 10638 10809 10810 
1256 1257 1482 1481 1281 1282 1507 1506 9201 10641 10642 10634 9372 10812 10813 10805 9363 9370 10811 10804 10807 10814 9374 10815 10645 10816 10817 
1257 1258 1483 1482 1282 1283 1508 1507 9208 10648 10649 10641 9379 10819 10820 10812 9370 9377 10818 10811 10814 10821 9381 10822 10652 10823 10824 
1258 1259 1484 1483 1283 1284 1509 1508 9215 10655 10656 10648 9386 10826 10827 10819 9377 9384 10825 10818 10821 10828 9388 10829 10659 10830 10831 
1259 1260 1485 1484 1284 1285 1510 1509 9222 10662 10663 10655 9393 10833 10834 10826 9384 9391 10832 10825 10828 10835 9395 10836 10666 10837 10838 
1260 1261 1486 1485 1285 1286 1511 1510 9229 10669 10670 10662 9400 10840 10841 10833 9391 9398 10839 10832 10835 10842 9402 10843 10673 10844 10845 
1261 1262 1487 1486 1286 1287 1512 1511 9236 10676 10677 10669 9407 10847 10848 10840 9398 9405 10846 10839 10842 10849 9409 10850 10680 10851 10852 
1262 1263 1488 1487 1287 1288 1513 1512 9243 10683 10684 10676 9414 10854 10855 10847 9405 9412 10853 10846 10849 10856 9416 10857 10687 10858 10859 
1263 1264 1489 1488 1288 1289 1514 1513 9250 10690 10691 10683 9421 10861 10862 10854 9412 9419 10860 10853 10856 10863 9423 10864 10694 10865 10866 
1264 1265 1490 1489 1289 1290 1515 1514 9257 10697 10698 10690 9428 10868 10869 10861 9419 9426 10867 10860 10863 10870 9430 10871 10701 10872 10873 
1265 1266 1491 1490 1290 1291 1516 1515 9264 10704 10705 10697 9435 10875 10876 10868 9426 9433 10874 10867 10870 10877 9437 10878 10708 10879 10880 
1266 1267 1492 1491 1291 1292 1517 1516 9271 10711 10712 10704 9442 10882 10883 10875 9433 9440 10881 10874 10877 10884 9444 10885 10715 10886 10887 
1267 1268 1493 1492 1292 1293 1518 1517 9278 10718 10719 10711 9449 10889 10890 10882 9440 9447 10888 10881 10884 10891 9451 10892 10722 10893 10894 
1268 1269 1494 1493 1293 1294 1519 1518 9285 10725 10726 10718 9456 10896 10897 10889 9447 9454 10895 10888 10891 10898 9458 10899 10729 10900 10901 
1269 1270 1495 1494 1294 1295 1520 1519 9292 10732 10733 10725 9463 10903 10904 10896 9454 9461 10902 10895 10898 10905 9465 10906 10736 10907 10908 
1270 1271 1496 1495 1295 1296 1521 1520 9299 10739 10740 10732 9470 10910 10911 10903 9461 9468 10909 10902 10905 10912 9472 10913 10743 10914 10915 
1271 1272 1497 1496 1296 1297 1522 1521 9306 10746 10747 10739 9477 10917 10918 10910 9468 9475 10916 10909 10912 10919 9479 10920 10750 10921 10922 
1272 1273 1498 1497 1297 1298 1523 1522 9313 10753 10754 10746 9484 10924 10925 10917 9475 9482 10923 10916 10919 10926 9486 10927 10757 10928 10929 
1273 1274 1499 1498 1298 1299 1524 1523 9320 10760 10761 10753 9491 10931 10932 10924 9482 9489 10930 10923 10926 10933 9493 10934 10764 10935 10936 
1275 1276 1501 1500 1300 1301 1526 1525 9328 10768 10769 10770 9499 10939 10940 10941 9497 9496 10937 10938 10944 10942 9502 10943 10774 10945 10946 
1276 1277 1502 1501 1301 1302 1527 1526 9337 10777 10778 10768 9508 10948 10949 10939 9496 9506 10947 10937 10942 10950 9510 10951 10781 10952 10953 
1277 1278 1503 1502 1302 1303 1528 1527 9344 10784 10785 10777 9515 10955 10956 10948 9506 9513 10954 10947 10950 10957 9517 10958 10788 10959 10960 
1278 1279 1504 1503 1303 1304 1529 1528 9351 10791 10792 10784 9522 10962 10963 10955 9513 9520 10961 10954 10957 10964 9524 10965 10795 10966 10967 
1279 1280 1505 1504 1304 1305 1530 1529 9358 10798 10799 10791 9529 10969 10970 10962 9520 9527 10968 10961 10964 10971 9531 10972 10802 10973 10974 
1280 1281 1506 1505 1305 1306 1531 1530 9365 10805 10806 10798 9536 10976 10977 10969 9527 9534 10975 10968 10971 10978 9538 10979 10809 10980 10981 
1281 1282 1507 1506 1306 1307 1532 1531 9372 10812 10813 10805 9543 10983 10984 10976 9534 9541 10982 10975 10978 10985 9545 10986 10816 10987 10988 
1282 1283 1508 1507 1307 1308 1533 1532 9379 10819 10820 10812 9550 10990 10991 10983 9541 9548 10989 10982 10985 10992 9552 10993 10823 10994 10995 
1283 1284 1509 1508 1308 1309 1534 1533 9386 10826 10827 10819 9557 10997 10998 10990 9548 9555 10996 10989 10992 10999 9559 11000 10830 11001 11002 
1284 1285 1510 1509 1309 1310 1535 1534 9393 10833 10834 10826 9564 11004 11005 10997 9555 9562 11003 10996 10999 11006 9566 11007 10837 11008 11009 
1285 1286 1511 1510 1310 1311 1536 1535 9400 10840 10841 10833 9571 11011 11012 11004 9562 9569 11010 11003 11006 11013 9573 11014 10844 11015 11016 
1286 1287 1512 1511 1311 1312 1537 1536 9407 10847 10848 10840 9578 11018 11019 11011 9569 9576 11017 11010 11013 11020 9580 11021 10851 11022 11023 
1287 1288 1513 1512 1312 1313 1538 1537 9414 10854 10855 10847 9585 11025 11026 11018 9576 9583 11024 11017 11020 11027 9587 11028 10858 11029 11030 
1288 1289 1514 1513 1313 1314 1539 1538 9421 10861 10862 10854 9592 11032 11033 11025 9583 9590 11031 11024 11027 11034 9594 11035 10865 11036 11037 
1289 1290 1515 1514 1314 1315 1540 1539 9428 10868 10869 10861 9599 11039 11040 11032 9590 9597 11038 11031 11034 11041 9601 11042 10872 11043 11044 
1290 1291 1516 1515 1315 1316 1541 1540 9435 10875 10876 10868 9606 11046 11047 11039 9597 9604 11045 11038 11041 11048 9608 11049 10879 11050 11051 
1291 1292 1517 1516 1316 1317 1542 1541 9442 10882 10883 10875 9613 11053 11054 11046 9604 9611 11052 11045 11048 11055 9615 11056 10886 11057 11058 
1292 1293 1518 1517 1317 1318 1543 1542 9449 10889 10890 10882 9620 11060 11061 11053 9611 9618 11059 11052 11055 11062 9622 11063 10893 11064 11065 
1293 1294 1519 1518 1318 1319 1544 1543 9456 10896 10897 10889 9627 11067 11068 11060 9618 9625 11066 11059 11062 11069 9629 11070 10900 11071 11072 
1294 1295 1520 1519 1319 1320 1545 1544 9463 10903 10904 10896 9634 11074 11075 11067 9625 9632 11073 11066 11069 11076 9636 11077 10907 11078 11079 
1295 1296 1521 1520 1320 1321 1546 1545 9470 10910 10911 10903 9641 11081 11082 11074 9632 9639 11080 11073 11076 11083 9643 11084 10914 11085 11086 
1296 1297 1522 1521 1321 1322 1547 1546 9477 10917 10918 10910 9648 11088 11089 11081 9639 9646 11087 11080 11083 11090 9650 11091 10921 11092 11093 
1297 1298 1523 1522 1322 1323 1548 1547 9484 10924 10925 10917 9655 11095 11096 11088 9646 9653 11094 11087 11090 11097 9657 11098 10928 11099 11100 
1298 1299 1524 1523 1323 1324 1549 1548 9491 10931 10932 10924 9662 11102 11103 11095 9653 9660 11101 11094 11097 11104 9664 11105 10935 11106 11107 
1300 1301 1526 1525 1325 1326 1551 1550 9499 10939 10940 10941 9670 11110 11111 11112 9668 9667 11108 11109 11115 11113 9673 11114 10945 11116 11117 
1301 1302 1527 1526 1326 1327 1552 1551 9508 10948 10949 10939 9679 11119 11120 11110 9667 9677 11118 11108 11113 11121 9681 11122 10952 11123 11124 
1302 1303 1528 1527 1327 1328 1553 1552 9515 10955 10956 10948 9686 11126 11127 11119 9677 9684 11125 11118 11121 11128 9688 11129 10959 11130 11131 
1303 1304 1529 1528 1328 1329 1554 1553 9522 10962 10963 10955 9693 11133 11134 11126 9684 9691 11132 11125 11128 11135 9695 11136 10966 11137 11138 
1304 1305 1530 1529 1329 1330 1555 1554 9529 10969 10970 10962 9700 11140 11141 11133 9691 9698 11139 11132 11135 11142 9702 11143 10973 11144 11145 
1305 1306 1531 1530 1330 1331 1556 1555 9536 10976 10977 10969 9707 11147 11148 11140 9698 9705 11146 11139 11142 11149 9709 11150 10980 11151 11152 
1306 1307 1532 1531 1331 1332 1557 1556 9543 10983 10984 10976 9714 11154 11155 11147 9705 9712 11153 11146 11149 11156 9716 11157 10987 11158 11159 
1307 1308 1533 1532 1332 1333 1558 1557 9550 10990 10991 10983 9721 11161 11162 11154 9712 9719 11160 11153 11156 11163 9723 11164 10994 11165 11166 
1308 1309 1534 1533 1333 1334 1559 1558 9557 10997 10998 10990 9728 11168 11169 11161 9719 9726 11167 11160 11163 11170 9730 11171 11001 11172 11173 
1309 1310 1535 1534 1334 1335 1560 1559 9564 11004 11005 10997 9735 11175 11176 11168 9726 9733 11174 11167 11170 11177 9737 11178 11008 11179 11180 
1310 1311 1536 1535 1335 1336 1561 1560 9571 11011 11012 11004 9742 11182 11183 11175 9733 9740 11181 11174 11177 11184 9744 11185 11015 11186 11187 
1311 1312 1537 1536 1336 1337 1562 1561 9578 11018 11019 11011 9749 11189 11190 11182 9740 9747 11188 11181 11184 11191 9751 11192 11022 11193 11194 
1312 1313 1538 1537 1337 1338 1563 1562 9585 11025 11026 11018 9756 11196 11197 11189 9747 9754 11195 11188 11191 11198 9758 11199 11029 11200 11201 
1313 1314 1539 1538 1338 1339 1564 1563 9592 11032 11033 11025 9763 11203 11204 11196 9754 9761 11202 11195 11198 11205 9765 11206 11036 11207 11208 
1314 1315 1540 1539 1339 1340 1565 1564 9599 11039 11040 11032 9770 11210 11211 11203 9761 9768 11209 11202 11205 11212 9772 11213 11043 11214 11215 
1315 1316 1541 1540 1340 1341 1566 1565 9606 11046 11047 11039 9777 11217 11218 11210 9768 9775 11216 11209 11212 11219 9779 11220 11050 11221 11222 
1316 1317 1542 1541 1341 1342 1567 1566 9613 11053 11054 11046 9784 11224 11225 11217 9775 9782 11223 11216 11219 11226 9786 11227 11057 11228 11229 
1317 1318 1543 1542 1342 1343 1568 1567 9620 11060 11061 11053 9791 11231 11232 11224 9782 9789 11230 11223 11226 11233 9793 11234 11064 11235 11236 
1318 1319 1544 1543 1343 1344 1569 1568 9627 11067 11068 11060 9798 11238 11239 11231 9789 9796 11237 11230 11233 11240 9800 11241 11071 11242 11243 
1319 1320 1545 1544 1344 1345 1570 1569 9634 11074 11075 11067 9805 11245 11246 11238 9796 9803 11244 11237 11240 11247 9807 11248 11078 11249 11250 
1320 1321 1546 1545 1345 1346 1571 1570 9641 11081 11082 11074 9812 11252 11253 11245 9803 9810 11251 11244 11247 11254 9814 11255 11085 11256 11257 
1321 1322 1547 1546 1346 1347 1572 1571 9648 11088 11089 11081 9819 11259 11260 11252 9810 9817 11258 11251 11254 11261 9821 11262 11092 11263 11264 
1322 1323 1548 1547 1347 1348 1573 1572 9655 11095 11096 11088 9826 11266 11267 11259 9817 9824 11265 11258 11261 11268 9828 11269 11099 11270 11271 
1323 1324 1549 1548 1348 1349 1574 1573 9662 11102 11103 11095 9833 11273 11274 11266 9824 9831 11272 11265 11268 11275 9835 11276 11106 11277 11278 
1350 1351 1576 1575 1375 1376 1601 1600 9839 11279 11280 11281 9844 11284 11285 11286 9842 9841 11282 11283 11290 11288 9848 11289 11287 11291 11292 
1351 1352 1577 1576 1376 1377 1602 1601 9853 11293 11294 11279 9856 11296 11297 11284 9841 9854 11295 11282 11288 11299 9859 11300 11298 11301 11302 
1352 1353 1578 1577 1377 1378 1603 1602 9863 11303 11304 11293 9866 11306 11307 11296 9854 9864 11305 11295 11299 11309 9869 11310 11308 11311 11312 
1353 1354 1579 1578 1378 1379 1604 1603 9873 11313 11314 11303 9876 11316 11317 11306 9864 9874 11315 11305 11309 11319 9879 11320 11318 11321 11322 
1354 1355 1580 1579 1379 1380 1605 1604 9883 11323 11324 11313 9886 11326 11327 11316 9874 9884 11325 11315 11319 11329 9889 11330 11328 11331 11332 
1355 1356 1581 1580 1380 1381 1606 1605 9893 11333 11334 11323 9896 11336 11337 11326 9884 9894 11335 11325 11329 11339 9899 11340 11338 11341 11342 
1356 1357 1582 1581 1381 1382 1607 1606 9903 11343 11344 11333 9906 11346 11347 11336 9894 9904 11345 11335 11339 11349 9909 11350 11348 11351 11352 
1357 1358 1583 1582 1382 1383 1608 1607 9913 11353 11354 11343 9916 11356 11357 11346 9904 9914 11355 11345 11349 11359 9919 11360 11358 11361 11362 
1358 1359 1584 1583 1383 1384 1609 1608 9923 11363 11364 11353 9926 11366 11367 11356 9914 9924 11365 11355 11359 11369 9929 11370 11368 11371 11372 
1359 1360 1585 1584 1384 1385 1610 1609 9933 11373 11374 11363 9936 11376 11377 11366 9924 9934 11375 11365 11369 11379 9939 11380 11378 11381 11382 
1360 1361 1586 1585 1385 1386 1611 1610 9943 11383 11384 11373 9946 11386 11387 11376 9934 9944 11385 11375 11379 11389 9949 11390 11388 11391 11392 
1361 1362 1587 1586 1386 1387 1612 1611 9953 11393 11394 11383 9956 11396 11397 11386 9944 9954 11395 11385 11389 11399 9959 11400 11398 11401 11402 
1362 1363 1588 1587 1387 1388 1613 1612 9963 11403 11404 11393 9966 11406 11407 11396 9954 9964 11405 11395 11399 11409 9969 11410 11408 11411 11412 
1363 1364 1589 1588 1388 1389 1614 1613 9973 11413 11414 11403 9976 11416 11417 11406 9964 9974 11415 11405 11409 11419 9979 11420 11418 11421 11422 
1364 1365 1590 1589 1389 1390 1615 1614 9983 11423 11424 11413 9986 11426 11427 11416 9974 9984 11425 11415 11419 11429 9989 11430 11428 11431 11432 
1365 1366 1591 1590 1390 1391 1616 1615 9993 11433 11434 11423 9996 11436 11437 11426 9984 9994 11435 11425 11429 11439 9999 11440 11438 11441 11442 
1366 1367 1592 1591 1391 1392 1617 1616 10003 11443 11444 11433 10006 11446 11447 11436 9994 10004 11445 11435 11439 11449 10009 11450 11448 11451 11452 
1367 1368 1593 1592 1392 1393 1618 1617 10013 11453 11454 11443 10016 11456 11457 11446 10004 10014 11455 11445 11449 11459 10019 11460 11458 11461 11462 
1368 1369 1594 1593 1393 1394 1619 1618 10023 11463 11464 11453 10026 11466 11467 11456 10014 10024 11465 11455 11459 11469 10029 11470 11468 11471 11472 
1369 1370 1595 1594 1394 1395 1620 1619 10033 11473 11474 11463 10036 11476 11477 11466 10024 10034 11475 11465 11469 11479 10039 11480 11478 11481 11482 
1370 1371 1596 1595 1395 1396 1621 1620 10043 11483 11484 11473 10046 11486 11487 11476 10034 10044 11485 11475 11479 11489 10049 11490 11488 11491 11492 
1371 1372 1597 1596 1396 1397 1622 1621 10053 11493 11494 11483 10056 11496 11497 11486 10044 10054 11495 11485 11489 11499 10059 11500 11498 11501 11502 
1372 1373 1598 1597 1397 1398 1623 1622 10063 11503 11504 11493 10066 11506 11507 11496 10054 10064 11505 11495 11499 11509 10069 11510 11508 11511 11512 
1373 1374 1599 1598 1398 1399 1624 1623 10073 11513 11514 11503 10076 11516 11517 11506 10064 10074 11515 11505 11509 11519 10079 11520 11518 11521 11522 
1375 1376 1601 1600 1400 1401 1626 1625 9844 11284 11285 11286 10085 11525 11526 11527 10083 10082 11523 11524 11530 11528 10088 11529 11291 11531 11532 
1376 1377 1602 1601 1401 1402 1627 1626 9856 11296 11297 11284 10094 11534 11535 11525 10082 10092 11533 11523 11528 11536 10096 11537 11301 11538 11539 
1377 1378 1603 1602 1402 1403 1628 1627 9866 11306 11307 11296 10101 11541 11542 11534 10092 10099 11540 11533 11536 11543 10103 11544 11311 11545 11546 
1378 1379 1604 1603 1403 1404 1629 1628 9876 11316 11317 11306 10108 11548 11549 11541 10099 10106 11547 11540 11543 11550 10110 11551 11321 11552 11553 
1379 1380 1605 1604 1404 1405 1630 1629 9886 11326 11327 11316 10115 11555 11556 11548 10106 10113 11554 11547 11550 11557 10117 11558 11331 11559 11560 
1380 1381 1606 1605 1405 1406 1631 1630 9896 11336 11337 11326 10122 11562 11563 11555 10113 10120 11561 11554 11557 11564 10124 11565 11341 11566 11567 
1381 1382 1607 1606 1406 1407 1632 1631 9906 11346 11347 11336 10129 11569 11570 11562 10120 10127 11568 11561 11564 11571 10131 11572 11351 11573 11574 
1382 1383 1608 1607 1407 1408 1633 1632 9916 11356 11357 11346 10136 11576 11577 11569 10127 10134 11575 11568 11571 11578 10138 11579 11361 11580 11581 
1383 1384 1609 1608 1408 1409 1634 1633 9926 11366 11367 11356 10143 11583 11584 11576 10134 10141 11582 11575 11578 11585 10145 11586 11371 11587 11588 
1384 1385 1610 1609 1409 1410 1635 1634 9936 11376 11377 11366 10150 11590 11591 11583 10141 10148 11589 11582 11585 11592 10152 11593 11381 11594 11595 
1385 1386 1611 1610 1410 1411 1636 1635 9946 11386 11387 11376 10157 11597 11598 11590 10148 10155 11596 11589 11592 11599 10159 11600 11391 11601 11602 
1386 1387 1612 1611 1411 1412 1637 1636 9956 11396 11397 11386 10164 11604 11605 11597 10155 10162 11603 11596 11599 11606 10166 11607 11401 11608 11609 
1387 1388 1613 1612 1412 1413 1638 1637 9966 11406 11407 11396 10171 11611 11612 11604 10162 10169 11610 11603 11606 11613 10173 11614 11411 11615 11616 
1388 1389 1614 1613 1413 1414 1639 1638 9976 11416 11417 11406 10178 11618 11619 11611 10169 10176 11617 11610 11613 11620 10180 11621 11421 11622 11623 
1389 1390 1615 1614 1414 1415 1640 1639 9986 11426 11427 11416 10185 11625 11626 11618 10176 10183 11624 11617 11620 11627 10187 11628 11431 11629 11630 
1390 1391 1616 1615 1415 1416 1641 1640 9996 11436 11437 11426 10192 11632 11633 11625 10183 10190 11631 11624 11627 11634 10194 11635 11441 11636 11637 
1391 1392 1617 1616 1416 1417 1642 1641 10006 11446 11447 11436 10199 11639 11640 11632 10190 10197 11638 11631 11634 11641 10201 11642 11451 11643 11644 
1392 1393 1618 1617 1417 1418 1643 1642 10016 11456 11457 11446 10206 11646 11647 11639 10197 10204 11645 11638 11641 11648 10208 11649 11461 11650 11651 
1393 1394 1619 1618 1418 1419 1644 1643 10026 11466 11467 11456 10213 11653 11654 11646 10204 10211 11652 11645 11648 11655 10215 11656 11471 11657 11658 
1394 1395 1620 1619 1419 1420 1645 1644 10036 11476 11477 11466 10220 11660 11661 11653 10211 10218 11659 11652 11655 11662 10222 11663 11481 11664 11665 
1395 1396 1621 1620 1420 1421 1646 1645 10046 11486 11487 11476 10227 11667 11668 11660 10218 10225 11666 11659 11662 11669 10229 11670 11491 11671 11672 
1396 1397 1622 1621 1421 1422 1647 1646 10056 11496 11497 11486 10234 11674 11675 11667 10225 10232 11673 11666 11669 11676 10236 11677 11501 11678 11679 
1397 1398 1623 1622 1422 1423 1648 1647 10066 11506 11507 11496 10241 11681 11682 11674 10232 10239 11680 11673 11676 11683 10243 11684 11511 11685 11686 
1398 1399 1624 1623 1423 1424 1649 1648 10076 11516 11517 11506 10248 11688 11689 11681 10239 10246 11687 11680 11683 11690 10250 11691 11521 11692 11693 
1400 1401 1626 1625 1425 1426 1651 1650 10085 11525 11526 11527 10256 11696 11697 11698 10254 10253 11694 11695 11701 11699 10259 11700 11531 11702 11703 
1401 1402 1627 1626 1426 1427 1652 1651 10094 11534 11535 11525 10265 11705 11706 11696 10253 10263 11704 11694 11699 11707 10267 11708 11538 11709 11710 
1402 1403 1628 1627 1427 1428 1653 1652 10101 11541 11542 11534 10272 11712 11713 11705 10263 10270 11711 11704 11707 11714 10274 11715 11545 11716 11717 
1403 1404 1629 1628 1428 1429 1654 1653 10108 11548 11549 11541 10279 11719 11720 11712 10270 10277 11718 11711 11714 11721 10281 11722 11552 11723 11724 
1404 1405 1630 1629 1429 1430 1655 1654 10115 11555 11556 11548 10286 11726 11727 11719 10277 10284 11725 11718 11721 11728 10288 11729 11559 11730 11731 
1405 1406 1631 1630 1430 1431 1656 1655 10122 11562 11563 11555 10293 11733 11734 11726 10284 10291 11732 11725 11728 11735 10295 11736 11566 11737 11738 
1406 1407 1632 1631 1431 1432 1657 1656 10129 11569 11570 11562 10300 11740 11741 11733 10291 10298 11739 11732 11735 11742 10302 11743 11573 11744 11745 
1407 1408 1633 1632 1432 1433 1658 1657 10136 11576 11577 11569 10307 11747 11748 11740 10298 10305 11746 11739 11742 11749 10309 11750 11580 11751 11752 
1408 1409 1634 1633 1433 1434 1659 1658 10143 11583 11584 11576 10314 11754 11755 11747 10305 10312 11753 11746 11749 11756 10316 11757 11587 11758 11759 
1409 1410 1635 1634 1434 1435 1660 1659 10150 11590 11591 11583 10321 11761 11762 11754 10312 10319 11760 11753 11756 11763 10323 11764 11594 11765 11766 
1410 1411 1636 1635 1435 1436 1661 1660 10157 11597 11598 11590 10328 11768 11769 11761 10319 10326 11767 11760 11763 11770 10330 11771 11601 11772 11773 
1411 1412 1637 1636 1436 1437 1662 1661 10164 11604 11605 11597 10335 11775 11776 11768 10326 10333 11774 11767 11770 11777 10337 11778 11608 11779 11780 
1412 1413 1638 1637 1437 1438 1663 1662 10171 11611 11612 11604 10342 11782 11783 11775 10333 10340 11781 11774 11777 11784 10344 11785 11615 11786 11787 
1413 1414 1639 1638 1438 1439 1664 1663 10178 11618 11619 11611 10349 11789 11790 11782 10340 10347 11788 11781 11784 11791 10351 11792 11622 11793 11794 
1414 1415 1640 1639 1439 1440 1665 1664 10185 11625 11626 11618 10356 11796 11797 11789 10347 10354 11795 11788 11791 11798 10358 11799 11629 11800 11801 
1415 1416 1641 1640 1440 1441 1666 1665 10192 11632 11633 11625 10363 11803 11804 11796 10354 10361 11802 11795 11798 11805 10365 11806 11636 11807 11808 
1416 1417 1642 1641 1441 1442 1667 1666 10199 11639 11640 11632 10370 11810 11811 11803 10361 10368 11809 11802 11805 11812 10372 11813 11643 11814 11815 
1417 1418 1643 1642 1442 1443 1668 1667 10206 11646 11647 11639 10377 11817 11818 11810 10368 10375 11816 11809 11812 11819 10379 11820 11650 11821 11822 
1418 1419 1644 1643 1443 1444 1669 1668 10213 11653 11654 11646 10384 11824 11825 11817 10375 10382 11823 11816 11819 11826 10386 11827 11657 11828 11829 
1419 1420 1645 1644 1444 1445 1670 1669 10220 11660 11661 11653 10391 11831 11832 11824 10382 10389 11830 11823 11826 11833 10393 11834 11664 11835 11836 
1420 1421 1646 1645 1445 1446 1671 1670 10227 11667 11668 11660 10398 11838 11839 11831 10389 10396 11837 11830 11833 11840 10400 11841 11671 11842 11843 
1421 1422 1647 1646 1446 1447 1672 1671 10234 11674 11675 11667 10405 11845 11846 11838 10396 10403 11844 11837 11840 11847 10407 11848 11678 11849 11850 
1422 1423 1648 1647 1447 1448 1673 1672 10241 11681 11682 11674 10412 11852 11853 11845 10403 10410 11851 11844 11847 11854 10414 11855 11685 11856 11857 
1423 1424 1649 1648 1448 1449 1674 1673 10248 11688 11689 11681 10419 11859 11860 11852 10410 10417 11858 11851 11854 11861 10421 11862 11692 11863 11864 
1425 1426 1651 1650 1450 1451 1676 1675 10256 11696 11697 11698 10427 11867 11868 11869 10425 10424 11865 11866 11872 11870 10430 11871 11702 11873 11874 
1426 1427 1652 1651 1451 1452 1677 1676 10265 11705 11706 11696 10436 11876 11877 11867 10424 10434 11875 11865 11870 11878 10438 11879 11709 11880 11881 
1427 1428 1653 1652 1452 1453 1678 1677 10272 11712 11713 11705 10443 11883 11884 11876 10434 10441 11882 11875 11878 11885 10445 11886 11716 11887 11888 
1428 1429 1654 1653 1453 1454 1679 1678 10279 11719 11720 11712 10450 11890 11891 11883 10441 10448 11889 11882 11885 11892 10452 11893 11723 11894 11895 
1429 1430 1655 1654 1454 1455 1680 1679 10286 11726 11727 11719 10457 11897 11898 11890 10448 10455 11896 11889 11892 11899 10459 11900 11730 11901 11902 
1430 1431 1656 1655 1455 1456 1681 1680 10293 11733 11734 11726 10464 11904 11905 11897 10455 10462 11903 11896 11899 11906 10466 11907 11737 11908 11909 
1431 1432 1657 1656 1456 1457 1682 1681 10300 11740 11741 11733 10471 11911 11912 11904 10462 10469 11910 11903 11906 11913 10473 11914 11744 11915 11916 
1432 1433 1658 1657 1457 1458 1683 1682 10307 11747 11748 11740 10478 11918 11919 11911 10469 10476 11917 11910 11913 11920 10480 11921 11751 11922 11923 
1433 1434 1659 1658 1458 1459 1684 1683 10314 11754 11755 11747 10485 11925 11926 11918 10476 10483 11924 11917 11920 11927 10487 11928 11758 11929 11930 
1434 1435 1660 1659 1459 1460 1685 1684 10321 11761 11762 11754 10492 11932 11933 11925 10483 10490 11931 11924 11927 11934 10494 11935 11765 11936 11937 
1435 1436 1661 1660 1460 1461 1686 1685 10328 11768 11769 11761 10499 11939 11940 11932 10490 10497 11938 11931 11934 11941 10501 11942 11772 11943 11944 
1436 1437 1662 1661 1461 1462 1687 1686 10335 11775 11776 11768 10506 11946 11947 11939 10497 10504 11945 11938 11941 11948 10508 11949 11779 11950 11951 
1437 1438 1663 1662 1462 1463 1688 1687 10342 11782 11783 11775 10513 11953 11954 11946 10504 10511 11952 11945 11948 11955 10515 11956 11786 11957 11958 
1438 1439 1664 1663 1463 1464 1689 1688 10349 11789 11790 11782 10520 11960 11961 11953 10511 10518 11959 11952 11955 11962 10522 11963 11793 11964 11965 
1439 1440 1665 1664 1464 1465 1690 1689 10356 11796 11797 11789 10527 11967 11968 11960 10518 10525 11966 11959 11962 11969 10529 11970 11800 11971 11972 
1440 1441 1666 1665 1465 1466 1691 1690 10363 11803 11804 11796 10534 11974 11975 11967 10525 10532 11973 11966 11969 11976 10536 11977 11807 11978 11979 
1441 1442 1667 1666 1466 1467 1692 1691 10370 11810 11811 11803 10541 11981 11982 11974 10532 10539 11980 11973 11976 11983 10543 11984 11814 11985 11986 
1442 1443 1668 1667 1467 1468 1693 1692 10377 11817 11818 11810 10548 11988 11989 11981 10539 10546 11987 11980 11983 11990 10550 11991 11821 11992 11993 
1443 1444 1669 1668 1468 1469 1694 1693 10384 11824 11825 11817 10555 11995 11996 11988 10546 10553 11994 11987 11990 11997 10557 11998 11828 11999 12000 
1444 1445 1670 1669 1469 1470 1695 1694 10391 11831 11832 11824 10562 12002 12003 11995 10553 10560 12001 11994 11997 12004 10564 12005 11835 12006 12007 
1445 1446 1671 1670 1470 1471 1696 1695 10398 11838 11839 11831 10569 12009 12010 12002 10560 10567 12008 12001 12004 12011 10571 12012 11842 12013 12014 
1446 1447 1672 1671 1471 1472 1697 1696 10405 11845 11846 11838 10576 12016 12017 12009 10567 10574 12015 12008 12011 12018 10578 12019 11849 12020 12021 
1447 1448 1673 1672 1472 1473 1698 1697 10412 11852 11853 11845 10583 12023 12024 12016 10574 10581 12022 12015 12018 12025 10585 12026 11856 12027 12028 
1448 1449 1674 1673 1473 1474 1699 1698 10419 11859 11860 11852 10590 12030 12031 12023 10581 10588 12029 12022 12025 12032 10592 12033 11863 12034 12035 
1450 1451 1676 1675 1475 1476 1701 1700 10427 11867 11868 11869 10598 12038 12039 12040 10596 10595 12036 12037 12043 12041 10601 12042 11873 12044 12045 
1451 1452 1677 1676 1476 1477 1702 1701 10436 11876 11877 11867 10607 12047 12048 12038 10595 10605 12046 12036 12041 12049 10609 12050 11880 12051 12052 
1452 1453 1678 1677 1477 1478 1703 1702 10443 11883 11884 11876 10614 12054 12055 12047 10605 10612 12053 12046 12049 12056 10616 12057 11887 12058 12059 
1453 1454 1679 1678 1478 1479 1704 1703 10450 11890 11891 11883 10621 12061 12062 12054 10612 10619 12060 12053 12056 12063 10623 12064 11894 12065 12066 
1454 1455 1680 1679 1479 1480 1705 1704 10457 11897 11898 11890 10628 12068 12069 12061 10619 10626 12067 12060 12063 12070 10630 12071 11901 12072 12073 
1455 1456 1681 1680 1480 1481 1706 1705 10464 11904 11905 11897 10635 12075 12076 12068 10626 10633 12074 12067 12070 12077 10637 12078 11908 12079 12080 
1456 1457 1682 1681 1481 1482 1707 1706 10471 11911 11912 11904 10642 12082 12083 12075 10633 10640 12081 12074 12077 12084 10644 12085 11915 12086 12087 
1457 1458 1683 1682 1482 1483 1708 1707 10478 11918 11919 11911 10649 12089 12090 12082 10640 10647 12088 12081 12084 12091 10651 12092 11922 12093 12094 
1458 1459 1684 1683 1483 1484 1709 1708 10485 11925 11926 11918 10656 12096 12097 12089 10647 10654 12095 12088 12091 12098 10658 12099 11929 12100 12101 
1459 1460 1685 1684 1484 1485 1710 1709 10492 11932 11933 11925 10663 12103 12104 12096 10654 10661 12102 12095 12098 12105 10665 12106 11936 12107 12108 
1460 1461 1686 1685 1485 1486 1711 1710 10499 11939 11940 11932 10670 12110 12111 12103 10661 10668 12109 12102 12105 12112 10672 12113 11943 12114 12115 
1461 1462 1687 1686 1486 1487 1712 1711 10506 11946 11947 11939 10677 12117 12118 12110 10668 10675 12116 12109 12112 12119 10679 12120 11950 12121 12122 
1462 1463 1688 1687 1487 1488 1713 1712 10513 11953 11954 11946 10684 12124 12125 12117 10675 10682 12123 12116 12119 12126 10686 12127 11957 12128 12129 
1463 1464 1689 1688 1488 1489 1714 1713 10520 11960 11961 11953 10691 12131 12132 12124 10682 10689 12130 12123 12126 12133 10693 12134 11964 12135 12136 
1464 1465 1690 1689 1489 1490 1715 1714 10527 11967 11968 11960 10698 12138 12139 12131 10689 10696 12137 12130 12133 12140 10700 12141 11971 12142 12143 
1465 1466 1691 1690 1490 1491 1716 1715 10534 11974 11975 11967 10705 12145 12146 12138 10696 10703 12144 12137 12140 12147 10707 12148 11978 12149 12150 
1466 1467 1692 1691 1491 1492 1717 1716 10541 11981 11982 11974 10712 12152 12153 12145 10703 10710 12151 12144 12147 12154 10714 12155 11985 12156 12157 
1467 1468 1693 1692 1492 1493 1718 1717 10548 11988 11989 11981 10719 12159 12160 12152 10710 10717 12158 12151 12154 12161 10721 12162 11992 12163 12164 
1468 1469 1694 1693 1493 1494 1719 1718 10555 11995 11996 11988 10726 12166 12167 12159 10717 10724 12165 12158 12161 12168 10728 12169 11999 12170 12171 
1469 1470 1695 1694 1494 1495 1720 1719 10562 12002 12003 11995 10733 12173 12174 12166 10724 10731 12172 12165 12168 12175 10735 12176 12006 12177 12178 
1470 1471 1696 1695 1495 1496 1721 1720 10569 12009 12010 12002 10740 12180 12181 12173 10731 10738 12179 12172 12175 12182 10742 12183 12013 12184 12185 
1471 1472 1697 1696 1496 1497 1722 1721 10576 12016 12017 12009 10747 12187 12188 12180 10738 10745 12186 12179 12182 12189 10749 12190 12020 12191 12192 
1472 1473 1698 1697 1497 1498 1723 1722 10583 12023 12024 12016 10754 12194 12195 12187 10745 10752 12193 12186 12189 12196 10756 12197 12027 12198 12199 
1473 1474 1699 1698 1498 1499 1724 1723 10590 12030 12031 12023 10761 12201 12202 12194 10752 10759 12200 12193 12196 12203 10763 12204 12034 12205 12206 
1475 1476 1701 1700 1500 1501 1726 1725 10598 12038 12039 12040 10769 12209 12210 12211 10767 10766 12207 12208 12214 12212 10772 12213 12044 12215 12216 
1476 1477 1702 1701 1501 1502 1727 1726 10607 12047 12048 12038 10778 12218 12219 12209 10766 10776 12217 12207 12212 12220 10780 12221 12051 12222 12223 
1477 1478 1703 1702 1502 1503 1728 1727 10614 12054 12055 12047 10785 12225 12226 12218 10776 10783 12224 12217 12220 12227 10787 12228 12058 12229 12230 
1478 1479 1704 1703 1503 1504 1729 1728 10621 12061 12062 12054 10792 12232 12233 12225 10783 10790 12231 12224 12227 12234 10794 12235 12065 12236 12237 
1479 1480 1705 1704 1504 1505 1730 1729 10628 12068 12069 12061 10799 12239 12240 12232 10790 10797 12238 12231 12234 12241 10801 12242 12072 12243 12244 
1480 1481 1706 1705 1505 1506 1731 1730 10635 12075 12076 12068 10806 12246 12247 12239 10797 10804 12245 12238 12241 12248 10808 12249 12079 12250 12251 
1481 1482 1707 1706 1506 1507 1732 1731 10642 12082 12083 12075 10813 12253 12254 12246 10804 10811 12252 12245 12248 12255 10815 12256 12086 12257 12258 
1482 1483 1708 1707 1507 1508 1733 1732 10649 12089 12090 12082 10820 12260 12261 12253 10811 10818 12259 12252 12255 12262 10822 12263 12093 12264 12265 
1483 1484 1709 1708 1508 1509 1734 1733 10656 12096 12097 12089 10827 12267 12268 12260 10818 10825 12266 12259 12262 12269 10829 12270 12100 12271 12272 
1484 1485 1710 1709 1509 1510 1735 1734 10663 12103 12104 12096 10834 12274 12275 12267 10825 10832 12273 12266 12269 12276 10836 12277 12107 12278 12279 
1485 1486 1711 1710 1510 1511 1736 1735 10670 12110 12111 12103 10841 12281 12282 12274 10832 10839 12280 12273 12276 12283 10843 12284 12114 12285 12286 
1486 1487 1712 1711 1511 1512 1737 1736 10677 12117 12118 12110 10848 12288 12289 12281 10839 10846 12287 12280 12283 12290 10850 12291 12121 12292 12293 
1487 1488 1713 1712 1512 1513 1738 1737 10684 12124 12125 12117 10855 12295 12296 12288 10846 10853 12294 12287 12290 12297 10857 12298 12128 12299 12300 
1488 1489 1714 1713 1513 1514 1739 1738 10691 12131 12132 12124 10862 12302 12303 12295 10853 10860 12301 12294 12297 12304 10864 12305 12135 12306 12307 
1489 1490 1715 1714 1514 1515 1740 1739 10698 12138 12139 12131 10869 12309 12310 12302 10860 10867 12308 12301 12304 12311 10871 12312 12142 12313 12314 
1490 1491 1716 1715 1515 1516 1741 1740 10705 12145 12146 12138 10876 12316 12317 12309 10867 10874 12315 12308 12311 12318 10878 12319 12149 12320 12321 
1491 1492 1717 1716 1516 1517 1742 1741 10712 12152 12153 12145 10883 12323 12324 12316 10874 10881 12322 12315 12318 12325 10885 12326 12156 12327 12328 
1492 1493 1718 1717 1517 1518 1743 1742 10719 12159 12160 12152 10890 12330 12331 12323 10881 10888 12329 12322 12325 12332 10892 12333 12163 12334 12335 
1493 1494 1719 1718 1518 1519 1744 1743 10726 12166 12167 12159 10897 12337 12338 12330 10888 10895 12336 12329 12332 12339 10899 12340 12170 12341 12342 
1494 1495 1720 1719 1519 1520 1745 1744 10733 12173 12174 12166 10904 12344 12345 12337 10895 10902 12343 12336 12339 12346 10906 12347 12177 12348 12349 
1495 1496 1721 1720 1520 1521 1746 1745 10740 12180 12181 12173 10911 12351 12352 12344 10902 10909 12350 12343 12346 12353 10913 12354 12184 12355 12356 
1496 1497 1722 1721 1521 1522 1747 1746 10747 12187 12188 12180 10918 12358 12359 12351 10909 10916 12357 12350 12353 12360 10920 12361 12191 12362 12363 
1497 1498 1723 1722 1522 1523 1748 1747 10754 12194 12195 12187 10925 12365 12366 12358 10916 10923 12364 12357 12360 12367 10927 12368 12198 12369 12370 
1498 1499 1724 1723 1523 1524 1749 1748 10761 12201 12202 12194 10932 12372 12373 12365 10923 10930 12371 12364 12367 12374 10934 12375 12205 12376 12377 
1500 1501 1726 1725 1525 1526 1751 1750 10769 12209 12210 12211 10940 12380 12381 12382 10938 10937 12378 12379 12385 12383 10943 12384 12215 12386 12387 
1501 1502 1727 1726 1526 1527 1752 1751 10778 12218 12219 12209 10949 12389 12390 12380 10937 10947 12388 12378 12383 12391 10951 12392 12222 12393 12394 
1502 1503 1728 1727 1527 1528 1753 1752 10785 12225 12226 12218 10956 12396 12397 12389 10947 10954 12395 12388 12391 12398 10958 12399 12229 12400 12401 
1503 1504 1729 1728 1528 1529 1754 1753 10792 12232 12233 12225 10963 12403 12404 12396 10954 10961 12402 12395 12398 12405 10965 12406 12236 12407 12408 
1504 1505 1730 1729 1529 1530 1755 1754 10799 12239 12240 12232 10970 12410 12411 12403 10961 10968 12409 12402 12405 12412 10972 12413 12243 12414 12415 
1505 1506 1731 1730 1530 1531 1756 1755 10806 12246 12247 12239 10977 12417 12418 12410 10968 10975 12416 12409 12412 12419 10979 12420 12250 12421 12422 
1506 1507 1732 1731 1531 1532 1757 1756 10813 12253 12254 12246 10984 12424 12425 12417 10975 10982 12423 12416 12419 12426 10986 12427 12257 12428 12429 
1507 1508 1733 1732 1532 1533 1758 1757 10820 12260 12261 12253 10991 12431 12432 12424 10982 10989 12430 12423 12426 12433 10993 12434 12264 12435 12436 
1508 1509 1734 1733 1533 1534 1759 1758 10827 12267 12268 12260 10998 12438 12439 12431 10989 10996 12437 12430 12433 12440 11000 12441 12271 12442 12443 
1509 1510 1735 1734 1534 1535 1760 1759 10834 12274 12275 12267 11005 12445 12446 12438 10996 11003 12444 12437 12440 12447 11007 12448 12278 12449 12450 
1510 1511 1736 1735 1535 1536 1761 1760 10841 12281 12282 12274 11012 12452 12453 12445 11003 11010 12451 12444 12447 12454 11014 12455 12285 12456 12457 
1511 1512 1737 1736 1536 1537 1762 1761 10848 12288 12289 12281 11019 12459 12460 12452 11010 11017 12458 12451 12454 12461 11021 12462 12292 12463 12464 
1512 1513 1738 1737 1537 1538 1763 1762 10855 12295 12296 12288 11026 12466 12467 12459 11017 11024 12465 12458 12461 12468 11028 12469 12299 12470 12471 
1513 1514 1739 1738 1538 1539 1764 1763 10862 12302 12303 12295 11033 12473 12474 12466 11024 11031 12472 12465 12468 12475 11035 12476 12306 12477 12478 
1514 1515 1740 1739 1539 1540 1765 1764 10869 12309 12310 12302 11040 12480 12481 12473 11031 11038 12479 12472 12475 12482 11042 12483 12313 12484 12485 
1515 1516 1741 1740 1540 1541 1766 1765 10876 12316 12317 12309 11047 12487 12488 12480 11038 11045 12486 12479 12482 12489 11049 12490 12320 12491 12492 
1516 1517 1742 1741 1541 1542 1767 1766 10883 12323 12324 12316 11054 12494 12495 12487 11045 11052 12493 12486 12489 12496 11056 12497 12327 12498 12499 
1517 1518 1743 1742 1542 1543 1768 1767 10890 12330 12331 12323 11061 12501 12502 12494 11052 11059 12500 12493 12496 12503 11063 12504 12334 12505 12506 
1518 1519 1744 1743 1543 1544 1769 1768 10897 12337 12338 12330 11068 12508 12509 12501 11059 11066 12507 12500 12503 12510 11070 12511 12341 12512 12513 
1519 1520 1745 1744 1544 1545 1770 1769 10904 12344 12345 12337 11075 12515 12516 12508 11066 11073 12514 12507 12510 12517 11077 12518 12348 12519 12520 
1520 1521 1746 1745 1545 1546 1771 1770 10911 12351 12352 12344 11082 12522 12523 12515 11073 11080 12521 12514 12517 12524 11084 12525 12355 12526 12527 
1521 1522 1747 1746 1546 1547 1772 1771 10918 12358 12359 12351 11089 12529 12530 12522 11080 11087 12528 12521 12524 12531 11091 12532 12362 12533 12534 
1522 1523 1748 1747 1547 1548 1773 1772 10925 12365 12366 12358 11096 12536 12537 12529 11087 11094 12535 12528 12531 12538 11098 12539 12369 12540 12541 
1523 1524 1749 1748 1548 1549 1774 1773 10932 12372 12373 12365 11103 12543 12544 12536 11094 11101 12542 12535 12538 12545 11105 12546 12376 12547 12548 
1525 1526 1751 1750 1550 1551 1776 1775 10940 12380 12381 12382 11111 12551 12552 12553 11109 11108 12549 12550 12556 12554 11114 12555 12386 12557 12558 
1526 1527 1752 1751 1551 1552 1777 1776 10949 12389 12390 12380 11120 12560 12561 12551 11108 11118 12559 12549 12554 12562 11122 12563 12393 12564 12565 
1527 1528 1753 1752 1552 1553 1778 1777 10956 12396 12397 12389 11127 12567 12568 12560 11118 11125 12566 12559 12562 12569 11129 12570 12400 12571 12572 
1528 1529 1754 1753 1553 1554 1779 1778 10963 12403 12404 12396 11134 12574 12575 12567 11125 11132 12573 12566 12569 12576 11136 12577 12407 12578 12579 
1529 1530 1755 1754 1554 1555 1780 1779 10970 12410 12411 12403 11141 12581 12582 12574 11132 11139 12580 12573 12576 12583 11143 12584 12414 12585 12586 
1530 1531 1756 1755 1555 1556 1781 1780 10977 12417 12418 12410 11148 12588 12589 12581 11139 11146 12587 12580 12583 12590 11150 12591 12421 12592 12593 
1531 1532 1757 1756 1556 1557 1782 1781 10984 12424 12425 12417 11155 12595 12596 12588 11146 11153 12594 12587 12590 12597 11157 12598 12428 12599 12600 
1532 1533 1758 1757 1557 1558 1783 1782 10991 12431 12432 12424 11162 12602 12603 12595 11153 11160 12601 12594 12597 12604 11164 12605 12435 12606 12607 
1533 1534 1759 1758 1558 1559 1784 1783 10998 12438 12439 12431 11169 12609 12610 12602 11160 11167 12608 12601 12604 12611 11171 12612 12442 12613 12614 
1534 1535 1760 1759 1559 1560 1785 1784 11005 12445 12446 12438 11176 12616 12617 12609 11167 11174 12615 12608 12611 12618 11178 12619 12449 12620 12621 
1535 1536 1761 1760 1560 1561 1786 1785 11012 12452 12453 12445 11183 12623 12624 12616 11174 11181 12622 12615 12618 12625 11185 12626 12456 12627 12628 
1536 1537 1762 1761 1561 1562 1787 1786 11019 12459 12460 12452 11190 12630 12631 12623 11181 11188 12629 12622 12625 12632 11192 12633 12463 12634 12635 
1537 1538 1763 1762 1562 1563 1788 1787 11026 12466 12467 12459 11197 12637 12638 12630 11188 11195 12636 12629 12632 12639 11199 12640 12470 12641 12642 
1538 1539 1764 1763 1563 1564 1789 1788 11033 12473 12474 12466 11204 12644 12645 12637 11195 11202 12643 12636 12639 12646 11206 12647 12477 12648 12649 
1539 1540 1765 1764 1564 1565 1790 1789 11040 12480 12481 12473 11211 12651 12652 12644 11202 11209 12650 12643 12646 12653 11213 12654 12484 12655 12656 
1540 1541 1766 1765 1565 1566 1791 1790 11047 12487 12488 12480 11218 12658 12659 12651 11209 11216 12657 12650 12653 12660 11220 12661 12491 12662 12663 
1541 1542 1767 1766 1566 1567 1792 1791 11054 12494 12495 12487 11225 12665 12666 12658 11216 11223 12664 12657 12660 12667 11227 12668 12498 12669 12670 
1542 1543 1768 1767 1567 1568 1793 1792 11061 12501 12502 12494 11232 12672 12673 12665 11223 11230 12671 12664 12667 12674 11234 12675 12505 12676 12677 
1543 1544 1769 1768 1568 1569 1794 1793 11068 12508 12509 12501 11239 12679 12680 12672 11230 11237 12678 12671 12674 12681 11241 12682 12512 12683 12684 
1544 1545 1770 1769 1569 1570 1795 1794 11075 12515 12516 12508 11246 12686 12687 12679 11237 11244 12685 12678 12681 12688 11248 12689 12519 12690 12691 
1545 1546 1771 1770 1570 1571 1796 1795 11082 12522 12523 12515 11253 12693 12694 12686 11244 11251 12692 12685 12688 12695 11255 12696 12526 12697 12698 
1546 1547 1772 1771 1571 1572 1797 1796 11089 12529 12530 12522 11260 12700 12701 12693 11251 11258 12699 12692 12695 12702 11262 12703 12533 12704 12705 
1547 1548 1773 1772 1572 1573 1798 1797 11096 12536 12537 12529 11267 12707 12708 12700 11258 11265 12706 12699 12702 12709 11269 12710 12540 12711 12712 
1548 1549 1774 1773 1573 1574 1799 1798 11103 12543 12544 12536 11274 12714 12715 12707 11265 11272 12713 12706 12709 12716 11276 12717 12547 12718 12719 
1575 1576 1801 1800 1600 1601 1826 1825 11280 12720 12721 12722 11285 12725 12726 12727 11283 11282 12723 12724 12731 12729 11289 12730 12728 12732 12733 
1576 1577 1802 1801 1601 1602 1827 1826 11294 12734 12735 12720 11297 12737 12738 12725 11282 11295 12736 12723 12729 12740 11300 12741 12739 12742 12743 
1577 1578 1803 1802 1602 1603 1828 1827 11304 12744 12745 12734 11307 12747 12748 12737 11295 11305 12746 12736 12740 12750 11310 12751 12749 12752 12753 
1578 1579 1804 1803 1603 1604 1829 1828 11314 12754 12755 12744 11317 12757 12758 12747 11305 11315 12756 12746 12750 12760 11320 12761 12759 12762 12763 
1579 1580 1805 1804 1604 1605 1830 1829 11324 12764 12765 12754 11327 12767 12768 12757 11315 11325 12766 12756 12760 12770 11330 12771 12769 12772 12773 
1580 1581 1806 1805 1605 1606 1831 1830 11334 12774 12775 12764 11337 12777 12778 12767 11325 11335 12776 12766 12770 12780 11340 12781 12779 12782 12783 
1581 1582 1807 1806 1606 1607 1832 1831 11344 12784 12785 12774 11347 12787 12788 12777 11335 11345 12786 12776 12780 12790 11350 12791 12789 12792 12793 
1582 1583 1808 1807 1607 1608 1833 1832 11354 12794 12795 12784 11357 12797 12798 12787 11345 11355 12796 12786 12790 12800 11360 12801 12799 12802 12803 
1583 1584 1809 1808 1608 1609 1834 1833 11364 12804 12805 12794 11367 12807 12808 12797 11355 11365 12806 12796 12800 12810 11370 12811 12809 12812 12813 
1584 1585 1810 1809 1609 1610 1835 1834 11374 12814 12815 12804 11377 12817 12818 12807 11365 11375 12816 12806 12810 12820 11380 12821 12819 12822 12823 
1585 1586 1811 1810 1610 1611 1836 1835 11384 12824 12825 12814 11387 12827 12828 12817 11375 11385 12826 12816 12820 12830 11390 12831 12829 12832 12833 
1586 1587 1812 1811 1611 1612 1837 1836 11394 12834 12835 12824 11397 12837 12838 12827 11385 11395 12836 12826 12830 12840 11400 12841 12839 12842 12843 
1587 1588 1813 1812 1612 1613 1838 1837 11404 12844 12845 12834 11407 12847 12848 12837 11395 11405 12846 12836 12840 12850 11410 12851 12849 12852 12853 
1588 1589 1814 1813 1613 1614 1839 1838 11414 12854 12855 12844 11417 12857 12858 12847 11405 11415 12856 12846 12850 12860 11420 12861 12859 12862 12863 
1589 1590 1815 1814 1614 1615 1840 1839 11424 12864 12865 12854 11427 12867 12868 12857 11415 11425 12866 12856 12860 12870 11430 12871 12869 12872 12873 
1590 1591 1816 1815 1615 1616 1841 1840 11434 12874 12875 12864 11437 12877 12878 12867 11425 11435 12876 12866 12870 12880 11440 12881 12879 12882 12883 
1591 1592 1817 1816 1616 1617 1842 1841 11444 12884 12885 12874 11447 12887 12888 12877 11435 11445 12886 12876 12880 12890 11450 12891 12889 12892 12893 
1592 1593 1818 1817 1617 1618 1843 1842 11454 12894 12895 12884 11457 12897 12898 12887 11445 11455 12896 12886 12890 12900 11460 12901 12899 12902 12903 
1593 1594 1819 1818 1618 1619 1844 1843 11464 12904 12905 12894 11467 12907 12908 12897 11455 11465 12906 12896 12900 12910 11470 12911 12909 12912 12913 
1594 1595 1820 1819 1619 1620 1845 1844 11474 12914 12915 12904 11477 12917 12918 12907 11465 11475 12916 12906 12910 12920 11480 12921 12919 12922 12923 
1595 1596 1821 1820 1620 1621 1846 1845 11484 12924 12925 12914 11487 12927 12928 12917 11475 11485 12926 12916 12920 12930 11490 12931 12929 12932 12933 
1596 1597 1822 1821 1621 1622 1847 1846 11494 12934 12935 12924 11497 12937 12938 12927 11485 11495 12936 12926 12930 12940 11500 12941 12939 12942 12943 
1597 1598 1823 1822 1622 1623 1848 1847 11504 12944 12945 12934 11507 12947 12948 12937 11495 11505 12946 12936 12940 12950 11510 12951 12949 12952 12953 
1598 1599 1824 1823 1623 1624 1849 1848 11514 12954 12955 12944 11517 12957 12958 12947 11505 11515 12956 12946 12950 12960 11520 12961 12959 12962 12963 
1600 1601 1826 1825 1625 1626 1851 1850 11285 12725 12726 12727 11526 12966 12967 12968 11524 11523 12964 12965 12971 12969 11529 12970 12732 12972 12973 
1601 1602 1827 1826 1626 1627 1852 1851 11297 12737 12738 12725 11535 12975 12976 12966 11523 11533 12974 12964 12969 12977 11537 12978 12742 12979 12980 
1602 1603 1828 1827 1627 1628 1853 1852 11307 12747 12748 12737 11542 12982 12983 12975 11533 11540 12981 12974 12977 12984 11544 12985 12752 12986 12987 
1603 1604 1829 1828 1628 1629 1854 1853 11317 12757 12758 12747 11549 12989 12990 12982 11540 11547 12988 12981 12984 12991 11551 12992 12762 12993 12994 
1604 1605 1830 1829 1629 1630 1855 1854 11327 12767 12768 12757 11556 12996 12997 12989 11547 11554 12995 12988 12991 12998 11558 12999 12772 13000 13001 
1605 1606 1831 1830 1630 1631 1856 1855 11337 12777 12778 12767 11563 13003 13004 12996 11554 11561 13002 12995 12998 13005 11565 13006 12782 13007 13008 
1606 1607 1832 1831 1631 1632 1857 1856 11347 12787 12788 12777 11570 13010 13011 13003 11561 11568 13009 13002 13005 13012 11572 13013 12792 13014 13015 
1607 1608 1833 1832 1632 1633 1858 1857 11357 12797 12798 12787 11577 13017 13018 13010 11568 11575 13016 13009 13012 13019 11579 13020 12802 13021 13022 
1608 1609 1834 1833 1633 1634 1859 1858 11367 12807 12808 12797 11584 13024 13025 13017 11575 11582 13023 13016 13019 13026 11586 13027 12812 13028 13029 
1609 1610 1835 1834 1634 1635 1860 1859 11377 12817 12818 12807 11591 13031 13032 13024 11582 11589 13030 13023 13026 13033 11593 13034 12822 13035 13036 
1610 1611 1836 1835 1635 1636 1861 1860 11387 12827 12828 12817 11598 13038 13039 13031 11589 11596 13037 13030 13033 13040 11600 13041 12832 13042 13043 
1611 1612 1837 1836 1636 1637 1862 1861 11397 12837 12838 12827 11605 13045 13046 13038 11596 11603 13044 13037 13040 13047 11607 13048 12842 13049 13050 
1612 1613 1838 1837 1637 1638 1863 1862 11407 12847 12848 12837 11612 13052 13053 13045 11603 11610 13051 13044 13047 13054 11614 13055 12852 13056 13057 
1613 1614 1839 1838 1638 1639 1864 1863 11417 12857 12858 12847 11619 13059 13060 13052 11610 11617 13058 13051 13054 13061 11621 13062 12862 13063 13064 
1614 1615 1840 1839 1639 1640 1865 1864 11427 12867 12868 12857 11626 13066 13067 13059 11617 11624 13065 13058 13061 13068 11628 13069 12872 13070 13071 
1615 1616 1841 1840 1640 1641 1866 1865 11437 12877 12878 12867 11633 13073 13074 13066 11624 11631 13072 13065 13068 13075 11635 13076 12882 13077 13078 
1616 1617 1842 1841 1641 1642 1867 1866 11447 12887 12888 12877 11640 13080 13081 13073 11631 11638 13079 13072 13075 13082 11642 13083 12892 13084 13085 
1617 1618 1843 1842 1642 1643 1868 1867 11457 12897 12898 12887 11647 13087 13088 13080 11638 11645 13086 13079 13082 13089 11649 13090 12902 13091 13092 
1618 1619 1844 1843 1643 1644 1869 1868 11467 12907 12908 12897 11654 13094 13095 13087 11645 11652 13093 13086 13089 13096 11656 13097 12912 13098 13099 
1619 1620 1845 1844 1644 1645 1870 1869 11477 12917 12918 12907 11661 13101 13102 13094 11652 11659 13100 13093 13096 13103 11663 13104 12922 13105 13106 
1620 1621 1846 1845 1645 1646 1871 1870 11487 12927 12928 12917 11668 13108 13109 13101 11659 11666 13107 13100 13103 13110 11670 13111 12932 13112 13113 
1621 1622 1847 1846 1646 1647 1872 1871 11497 12937 12938 12927 11675 13115 13116 13108 11666 11673 13114 13107 13110 13117 11677 13118 12942 13119 13120 
1622 1623 1848 1847 1647 1648 1873 1872 11507 12947 12948 12937 11682 13122 13123 13115 11673 11680 13121 13114 13117 13124 11684 13125 12952 13126 13127 
1623 1624 1849 1848 1648 1649 1874 1873 11517 12957 12958 12947 11689 13129 13130 13122 11680 11687 13128 13121 13124 13131 11691 13132 12962 13133 13134 
1625 1626 1851 1850 1650 1651 1876 1875 11526 12966 12967 12968 11697 13137 13138 13139 11695 11694 13135 13136 13142 13140 11700 13141 12972 13143 13144 
1626 1627 1852 1851 1651 1652 1877 1876 11535 12975 12976 12966 11706 13146 13147 13137 11694 11704 13145 13135 13140 13148 11708 13149 12979 13150 13151 
1627 1628 1853 1852 1652 1653 1878 1877 11542 12982 12983 12975 11713 13153 13154 13146 11704 11711 13152 13145 13148 13155 11715 13156 12986 13157 13158 
1628 1629 1854 1853 1653 1654 1879 1878 11549 12989 12990 12982 11720 13160 13161 13153 11711 11718 13159 13152 13155 13162 11722 13163 12993 13164 13165 
1629 1630 1855 1854 1654 1655 1880 1879 11556 12996 12997 12989 11727 13167 13168 13160 11718 11725 13166 13159 13162 13169 11729 13170 13000 13171 13172 
1630 1631 1856 1855 1655 1656 1881 1880 11563 13003 13004 12996 11734 13174 13175 13167 11725 11732 13173 13166 13169 13176 11736 13177 13007 13178 13179 
1631 1632 1857 1856 1656 1657 1882 1881 11570 13010 13011 13003 11741 13181 13182 13174 11732 11739 13180 13173 13176 13183 11743 13184 13014 13185 13186 
1632 1633 1858 1857 1657 1658 1883 1882 11577 13017 13018 13010 11748 13188 13189 13181 11739 11746 13187 13180 13183 13190 11750 13191 13021 13192 13193 
1633 1634 1859 1858 1658 1659 1884 1883 11584 13024 13025 13017 11755 13195 13196 13188 11746 11753 13194 13187 13190 13197 11757 13198 13028 13199 13200 
1634 1635 1860 1859 1659 1660 1885 1884 11591 13031 13032 13024 11762 13202 13203 13195 11753 11760 13201 13194 13197 13204 11764 13205 13035 13206 13207 
1635 1636 1861 1860 1660 1661 1886 1885 11598 13038 13039 13031 11769 13209 13210 13202 11760 11767 13208 13201 13204 13211 11771 13212 13042 13213 13214 
1636 1637 1862 1861 1661 1662 1887 1886 11605 13045 13046 13038 11776 13216 13217 13209 11767 11774 13215 13208 13211 13218 11778 13219 13049 13220 13221 
1637 1638 1863 1862 1662 1663 1888 1887 11612 13052 13053 13045 11783 13223 13224 13216 11774 11781 13222 13215 13218 13225 11785 13226 13056 13227 13228 
1638 1639 1864 1863 1663 1664 1889 1888 11619 13059 13060 13052 11790 13230 13231 13223 11781 11788 13229 13222 13225 13232 11792 13233 13063 13234 13235 
1639 1640 1865 1864 1664 1665 1890 1889 11626 13066 13067 13059 11797 13237 13238 13230 11788 11795 13236 13229 13232 13239 11799 13240 13070 13241 13242 
1640 1641 1866 1865 1665 1666 1891 1890 11633 13073 13074 13066 11804 13244 13245 13237 11795 11802 13243 13236 13239 13246 11806 13247 13077 13248 13249 
1641 1642 1867 1866 1666 1667 1892 1891 11640 13080 13081 13073 11811 13251 13252 13244 11802 11809 13250 13243 13246 13253 11813 13254 13084 13255 13256 
1642 1643 1868 1867 1667 1668 1893 1892 11647 13087 13088 13080 11818 13258 13259 13251 11809 11816 13257 13250 13253 13260 11820 13261 13091 13262 13263 
1643 1644 1869 1868 1668 1669 1894 1893 11654 13094 13095 13087 11825 13265 13266 13258 11816 11823 13264 13257 13260 13267 11827 13268 13098 13269 13270 
1644 1645 1870 1869 1669 1670 1895 1894 11661 13101 13102 13094 11832 13272 13273 13265 11823 11830 13271 13264 13267 13274 11834 13275 13105 13276 13277 
1645 1646 1871 1870 1670 1671 1896 1895 11668 13108 13109 13101 11839 13279 13280 13272 11830 11837 13278 13271 13274 13281 11841 13282 13112 13283 13284 
1646 1647 1872 1871 1671 1672 1897 1896 11675 13115 13116 13108 11846 13286 13287 13279 11837 11844 13285 13278 13281 13288 11848 13289 13119 13290 13291 
1647 1648 1873 1872 1672 1673 1898 1897 11682 13122 13123 13115 11853 13293 13294 13286 11844 11851 13292 13285 13288 13295 11855 13296 13126 13297 13298 
1648 1649 1874 1873 1673 1674 1899 1898 11689 13129 13130 13122 11860 13300 13301 13293 11851 11858 13299 13292 13295 13302 11862 13303 13133 13304 13305 
1650 1651 1876 1875 1675 1676 1901 1900 11697 13137 13138 13139 11868 13308 13309 13310 11866 11865 13306 13307 13313 13311 11871 13312 13143 13314 13315 
1651 1652 1877 1876 1676 1677 1902 1901 11706 13146 13147 13137 11877 13317 13318 13308 11865 11875 13316 13306 13311 13319 11879 13320 13150 13321 13322 
1652 1653 1878 1877 1677 1678 1903 1902 11713 13153 13154 13146 11884 13324 13325 13317 11875 11882 13323 13316 13319 13326 11886 13327 13157 13328 13329 
1653 1654 1879 1878 1678 1679 1904 1903 11720 13160 13161 13153 11891 13331 13332 13324 11882 11889 13330 13323 13326 13333 11893 13334 13164 13335 13336 
1654 1655 1880 1879 1679 1680 1905 1904 11727 13167 13168 13160 11898 13338 13339 13331 11889 11896 13337 13330 13333 13340 11900 13341 13171 13342 13343 
1655 1656 1881 1880 1680 1681 1906 1905 11734 13174 13175 13167 11905 13345 13346 13338 11896 11903 13344 13337 13340 13347 11907 13348 13178 13349 13350 
1656 1657 1882 1881 1681 1682 1907 1906 11741 13181 13182 13174 11912 13352 13353 13345 11903 11910 13351 13344 13347 13354 11914 13355 13185 13356 13357 
1657 1658 1883 1882 1682 1683 1908 1907 11748 13188 13189 13181 11919 13359 13360 13352 11910 11917 13358 13351 13354 13361 11921 13362 13192 13363 13364 
1658 1659 1884 1883 1683 1684 1909 1908 11755 13195 13196 13188 11926 13366 13367 13359 11917 11924 13365 13358 13361 13368 11928 13369 13199 13370 13371 
1659 1660 1885 1884 1684 1685 1910 1909 11762 13202 13203 13195 11933 13373 13374 13366 11924 11931 13372 13365 13368 13375 11935 13376 13206 13377 13378 
1660 1661 1886 1885 1685 1686 1911 1910 11769 13209 13210 13202 11940 13380 13381 13373 11931 11938 13379 13372 13375 13382 11942 13383 13213 13384 13385 
1661 1662 1887 1886 1686 1687 1912 1911 11776 13216 13217 13209 11947 13387 13388 13380 11938 11945 13386 13379 13382 13389 11949 13390 13220 13391 13392 
1662 1663 1888 1887 1687 1688 1913 1912 11783 13223 13224 13216 11954 13394 13395 13387 11945 11952 13393 13386 13389 13396 11956 13397 13227 13398 13399 
1663 1664 1889 1888 1688 1689 1914 1913 11790 13230 13231 13223 11961 13401 13402 13394 11952 11959 13400 13393 13396 13403 11963 13404 13234 13405 13406 
1664 1665 1890 1889 1689 1690 1915 1914 11797 13237 13238 13230 11968 13408 13409 13401 11959 11966 13407 13400 13403 13410 11970 13411 13241 13412 13413 
1665 1666 1891 1890 1690 1691 1916 1915 11804 13244 13245 13237 11975 13415 13416 13408 11966 11973 13414 13407 13410 13417 11977 13418 13248 13419 13420 
1666 1667 1892 1891 1691 1692 1917 1916 11811 13251 13252 13244 11982 13422 13423 13415 11973 11980 13421 13414 13417 13424 11984 13425 13255 13426 13427 
1667 1668 1893 1892 1692 1693 1918 1917 11818 13258 13259 13251 11989 13429 13430 13422 11980 11987 13428 13421 13424 13431 11991 13432 13262 13433 13434 
1668 1669 1894 1893 1693 1694 1919 1918 11825 13265 13266 13258 11996 13436 13437 13429 11987 11994 13435 13428 13431 13438 11998 13439 13269 13440 13441 
1669 1670 1895 1894 1694 1695 1920 1919 11832 13272 13273 13265 12003 13443 13444 13436 11994 12001 13442 13435 13438 13445 12005 13446 13276 13447 13448 
1670 1671 1896 1895 1695 1696 1921 1920 11839 13279 13280 13272 12010 13450 13451 13443 12001 12008 13449 13442 13445 13452 12012 13453 13283 13454 13455 
1671 1672 1897 1896 1696 1697 1922 1921 11846 13286 13287 13279 12017 13457 13458 13450 12008 12015 13456 13449 13452 13459 12019 13460 13290 13461 13462 
1672 1673 1898 1897 1697 1698 1923 1922 11853 13293 13294 13286 12024 13464 13465 13457 12015 12022 13463 13456 13459 13466 12026 13467 13297 13468 13469 
1673 1674 1899 1898 1698 1699 1924 1923 11860 13300 13301 13293 12031 13471 13472 13464 12022 12029 13470 13463 13466 13473 12033 13474 13304 13475 13476 
1675 1676 1901 1900 1700 1701 1926 1925 11868 13308 13309 13310 12039 13479 13480 13481 12037 12036 13477 13478 13484 13482 12042 13483 13314 13485 13486 
1676 1677 1902 1901 1701 1702 1927 1926 11877 13317 13318 13308 12048 13488 13489 13479 12036 12046 13487 13477 13482 13490 12050 13491 13321 13492 13493 
1677 1678 1903 1902 1702 1703 1928 1927 11884 13324 13325 13317 12055 13495 13496 13488 12046 12053 13494 13487 13490 13497 12057 13498 13328 13499 13500 
1678 1679 1904 1903 1703 1704 1929 1928 11891 13331 13332 13324 12062 13502 13503 13495 12053 12060 13501 13494 13497 13504 12064 13505 13335 13506 13507 
1679 1680 1905 1904 1704 1705 1930 1929 11898 13338 13339 13331 12069 13509 13510 13502 12060 12067 13508 13501 13504 13511 12071 13512 13342 13513 13514 
1680 1681 1906 1905 1705 1706 1931 1930 11905 13345 13346 13338 12076 13516 13517 13509 12067 12074 13515 13508 13511 13518 12078 13519 13349 13520 13521 
1681 1682 1907 1906 1706 1707 1932 1931 11912 13352 13353 13345 12083 13523 13524 13516 12074 12081 13522 13515 13518 13525 12085 13526 13356 13527 13528 
1682 1683 1908 1907 1707 1708 1933 1932 11919 13359 13360 13352 12090 13530 13531 13523 12081 12088 13529 13522 13525 13532 12092 13533 13363 13534 13535 
1683 1684 1909 1908 1708 1709 1934 1933 11926 13366 13367 13359 12097 13537 13538 13530 12088 12095 13536 13529 13532 13539 12099 13540 13370 13541 13542 
1684 1685 1910 1909 1709 1710 1935 1934 11933 13373 13374 13366 12104 13544 13545 13537 12095 12102 13543 13536 13539 13546 12106 13547 13377 13548 13549 
1685 1686 1911 1910 1710 1711 1936 1935 11940 13380 13381 13373 12111 13551 13552 13544 12102 12109 13550 13543 13546 13553 12113 13554 13384 13555 13556 
1686 1687 1912 1911 1711 1712 1937 1936 11947 13387 13388 13380 12118 13558 13559 13551 12109 12116 13557 13550 13553 13560 12120 13561 13391 13562 13563 
1687 1688 1913 1912 1712 1713 1938 1937 11954 13394 13395 13387 12125 13565 13566 13558 12116 12123 13564 13557 13560 13567 12127 13568 13398 13569 13570 
1688 1689 1914 1913 1713 1714 1939 1938 11961 13401 13402 13394 12132 13572 13573 13565 12123 12130 13571 13564 13567 13574 12134 13575 13405 13576 13577 
1689 1690 1915 1914 1714 1715 1940 1939 11968 13408 13409 13401 12139 13579 13580 13572 12130 12137 13578 13571 13574 13581 12141 13582 13412 13583 13584 
1690 1691 1916 1915 1715 1716 1941 1940 11975 13415 13416 13408 12146 13586 13587 13579 12137 12144 13585 13578 13581 13588 12148 13589 13419 13590 13591 
1691 1692 1917 1916 1716 1717 1942 1941 11982 13422 13423 13415 12153 13593 13594 13586 12144 12151 13592 13585 13588 13595 12155 13596 13426 13597 13598 
1692 1693 1918 1917 1717 1718 1943 1942 11989 13429 13430 13422 12160 13600 13601 13593 12151 12158 13599 13592 13595 13602 12162 13603 13433 13604 13605 
1693 1694 1919 1918 1718 1719 1944 1943 11996 13436 13437 13429 12167 13607 13608 13600 12158 12165 13606 13599 13602 13609 12169 13610 13440 13611 13612 
1694 1695 1920 1919 1719 1720 1945 1944 12003 13443 13444 13436 12174 13614 13615 13607 12165 12172 13613 13606 13609 13616 12176 13617 13447 13618 13619 
1695 1696 1921 1920 1720 1721 1946 1945 12010 13450 13451 13443 12181 13621 13622 13614 12172 12179 13620 13613 13616 13623 12183 13624 13454 13625 13626 
1696 1697 1922 1921 1721 1722 1947 1946 12017 13457 13458 13450 12188 13628 13629 13621 12179 12186 13627 13620 13623 13630 12190 13631 13461 13632 13633 
1697 1698 1923 1922 1722 1723 1948 1947 12024 13464 13465 13457 12195 13635 13636 13628 12186 12193 13634 13627 13630 13637 12197 13638 13468 13639 13640 
1698 1699 1924 1923 1723 1724 1949 1948 12031 13471 13472 13464 12202 13642 13643 13635 12193 12200 13641 13634 13637 13644 12204 13645 13475 13646 13647 
1700 1701 1926 1925 1725 1726 1951 1950 12039 13479 13480 13481 12210 13650 13651 13652 12208 12207 13648 13649 13655 13653 12213 13654 13485 13656 13657 
1701 1702 1927 1926 1726 1727 1952 1951 12048 13488 13489 13479 12219 13659 13660 13650 12207 12217 13658 13648 13653 13661 12221 13662 13492 13663 13664 
1702 1703 1928 1927 1727 1728 1953 1952 12055 13495 13496 13488 12226 13666 13667 13659 12217 12224 13665 13658 13661 13668 12228 13669 13499 13670 13671 
1703 1704 1929 1928 1728 1729 1954 1953 12062 13502 13503 13495 12233 13673 13674 13666 12224 12231 13672 13665 13668 13675 12235 13676 13506 13677 13678 
1704 1705 1930 1929 1729 1730 1955 1954 12069 13509 13510 13502 12240 13680 13681 13673 12231 12238 13679 13672 13675 13682 12242 13683 13513 13684 13685 
1705 1706 1931 1930 1730 1731 1956 1955 12076 13516 13517 13509 12247 13687 13688 13680 12238 12245 13686 13679 13682 13689 12249 13690 13520 13691 13692 
1706 1707 1932 1931 1731 1732 1957 1956 12083 13523 13524 13516 12254 13694 13695 13687 12245 12252 13693 13686 13689 13696 12256 13697 13527 13698 13699 
1707 1708 1933 1932 1732 1733 1958 1957 12090 13530 13531 13523 12261 13701 13702 13694 12252 12259 13700 13693 13696 13703 12263 13704 13534 13705 13706 
1708 1709 1934 1933 1733 1734 1959 1958 12097 13537 13538 13530 12268 13708 13709 13701 12259 12266 13707 13700 13703 13710 12270 13711 13541 13712 13713 
1709 1710 1935 1934 1734 1735 1960 1959 12104 13544 13545 13537 12275 13715 13716 13708 12266 12273 13714 13707 13710 13717 12277 13718 13548 13719 13720 
1710 1711 1936 1935 1735 1736 1961 1960 12111 13551 13552 13544 12282 13722 13723 13715 12273 12280 13721 13714 13717 13724 12284 13725 13555 13726 13727 
1711 1712 1937 1936 1736 1737 1962 1961 12118 13558 13559 13551 12289 13729 13730 13722 12280 12287 13728 13721 13724 13731 12291 13732 13562 13733 13734 
1712 1713 1938 1937 1737 1738 1963 1962 12125 13565 13566 13558 12296 13736 13737 13729 12287 12294 13735 13728 13731 13738 12298 13739 13569 13740 13741 
1713 1714 1939 1938 1738 1739 1964 1963 12132 13572 13573 13565 12303 13743 13744 13736 12294 12301 13742 13735 13738 13745 12305 13746 13576 13747 13748 
1714 1715 1940 1939 1739 1740 1965 1964 12139 13579 13580 13572 12310 13750 13751 13743 12301 12308 13749 13742 13745 13752 12312 13753 13583 13754 13755 
1715 1716 1941 1940 1740 1741 1966 1965 12146 13586 13587 13579 12317 13757 13758 13750 12308 12315 13756 13749 13752 13759 12319 13760 13590 13761 13762 
1716 1717 1942 1941 1741 1742 1967 1966 12153 13593 13594 13586 12324 13764 13765 13757 12315 12322 13763 13756 13759 13766 12326 13767 13597 13768 13769 
1717 1718 1943 1942 1742 1743 1968 1967 12160 13600 13601 13593 12331 13771 13772 13764 12322 12329 13770 13763 13766 13773 12333 13774 13604 13775 13776 
1718 1719 1944 1943 1743 1744 1969 1968 12167 13607 13608 13600 12338 13778 13779 13771 12329 12336 13777 13770 13773 13780 12340 13781 13611 13782 13783 
1719 1720 1945 1944 1744 1745 1970 1969 12174 13614 13615 13607 12345 13785 13786 13778 12336 12343 13784 13777 13780 13787 12347 13788 13618 13789 13790 
1720 1721 1946 1945 1745 1746 1971 1970 12181 13621 13622 13614 12352 13792 13793 13785 12343 12350 13791 13784 13787 13794 12354 13795 13625 13796 13797 
1721 1722 1947 1946 1746 1747 1972 1971 12188 13628 13629 13621 12359 13799 13800 13792 12350 12357 13798 13791 13794 13801 12361 13802 13632 13803 13804 
1722 1723 1948 1947 1747 1748 1973 1972 12195 13635 13636 13628 12366 13806 13807 13799 12357 12364 13805 13798 13801 13808 12368 13809 13639 13810 13811 
1723 1724 1949 1948 1748 1749 1974 1973 12202 13642 13643 13635 12373 13813 13814 13806 12364 12371 13812 13805 13808 13815 12375 13816 13646 13817 13818 
1725 1726 1951 1950 1750 1751 1976 1975 12210 13650 13651 13652 12381 13821 13822 13823 12379 12378 13819 13820 13826 13824 12384 13825 13656 13827 13828 
1726 1727 1952 1951 1751 1752 1977 1976 12219 13659 13660 13650 12390 13830 13831 13821 12378 12388 13829 13819 13824 13832 12392 13833 13663 13834 13835 
1727 1728 1953 1952 1752 1753 1978 1977 12226 13666 13667 13659 12397 13837 13838 13830 12388 12395 13836 13829 13832 13839 12399 13840 13670 13841 13842 
1728 1729 1954 1953 1753 1754 1979 1978 12233 13673 13674 13666 12404 13844 13845 13837 12395 12402 13843 13836 13839 13846 12406 13847 13677 13848 13849 
1729 1730 1955 1954 1754 1755 1980 1979 12240 13680 13681 13673 12411 13851 13852 13844 12402 12409 13850 13843 13846 13853 12413 13854 13684 13855 13856 
1730 1731 1956 1955 1755 1756 1981 1980 12247 13687 13688 13680 12418 13858 13859 13851 12409 12416 13857 13850 13853 13860 12420 13861 13691 13862 13863 
1731 1732 1957 1956 1756 1757 1982 1981 12254 13694 13695 13687 12425 13865 13866 13858 12416 12423 13864 13857 13860 13867 12427 13868 13698 13869 13870 
1732 1733 1958 1957 1757 1758 1983 1982 12261 13701 13702 13694 12432 13872 13873 13865 12423 12430 13871 13864 13867 13874 12434 13875 13705 13876 13877 
1733 1734 1959 1958 1758 1759 1984 1983 12268 13708 13709 13701 12439 13879 13880 13872 12430 12437 13878 13871 13874 13881 12441 13882 13712 13883 13884 
1734 1735 1960 1959 1759 1760 1985 1984 12275 13715 13716 13708 12446 13886 13887 13879 12437 12444 13885 13878 13881 13888 12448 13889 13719 13890 13891 
1735 1736 1961 1960 1760 1761 1986 1985 12282 13722 13723 13715 12453 13893 13894 13886 12444 12451 13892 13885 13888 13895 12455 13896 13726 13897 13898 
1736 1737 1962 1961 1761 1762 1987 1986 12289 13729 13730 13722 12460 13900 13901 13893 12451 12458 13899 13892 13895 13902 12462 13903 13733 13904 13905 
1737 1738 1963 1962 1762 1763 1988 1987 12296 13736 13737 13729 12467 13907 13908 13900 12458 12465 13906 13899 13902 13909 12469 13910 13740 13911 13912 
1738 1739 1964 1963 1763 1764 1989 1988 12303 13743 13744 13736 12474 13914 13915 13907 12465 12472 13913 13906 13909 13916 12476 13917 13747 13918 13919 
1739 1740 1965 1964 1764 1765 1990 1989 12310 13750 13751 13743 12481 13921 13922 13914 12472 12479 13920 13913 13916 13923 12483 13924 13754 13925 13926 
1740 1741 1966 1965 1765 1766 1991 1990 12317 13757 13758 13750 12488 13928 13929 13921 12479 12486 13927 13920 13923 13930 12490 13931 13761 13932 13933 
1741 1742 1967 1966 1766 1767 1992 1991 12324 13764 13765 13757 12495 13935 13936 13928 12486 12493 13934 13927 13930 13937 12497 13938 13768 13939 13940 
1742 1743 1968 1967 1767 1768 1993 1992 12331 13771 13772 13764 12502 13942 13943 13935 12493 12500 13941 13934 13937 13944 12504 13945 13775 13946 13947 
1743 1744 1969 1968 1768 1769 1994 1993 12338 13778 13779 13771 12509 13949 13950 13942 12500 12507 13948 13941 13944 13951 12511 13952 13782 13953 13954 
1744 1745 1970 1969 1769 1770 1995 1994 12345 13785 13786 13778 12516 13956 13957 13949 12507 12514 13955 13948 13951 13958 12518 13959 13789 13960 13961 
1745 1746 1971 1970 1770 1771 1996 1995 12352 13792 13793 13785 12523 13963 13964 13956 12514 12521 13962 13955 13958 13965 12525 13966 13796 13967 13968 
1746 1747 1972 1971 1771 1772 1997 1996 12359 13799 13800 13792 12530 13970 13971 13963 12521 12528 13969 13962 13965 13972 12532 13973 13803 13974 13975 
1747 1748 1973 1972 1772 1773 1998 1997 12366 13806 13807 13799 12537 13977 13978 13970 12528 12535 13976 13969 13972 13979 12539 13980 13810 13981 13982 
1748 1749 1974 1973 1773 1774 1999 1998 12373 13813 13814 13806 12544 13984 13985 13977 12535 12542 13983 13976 13979 13986 12546 13987 13817 13988 13989 
1750 1751 1976 1975 1775 1776 2001 2000 12381 13821 13822 13823 12552 13992 13993 13994 12550 12549 13990 13991 13997 13995 12555 13996 13827 13998 13999 
1751 1752 1977 1976 1776 1777 2002 2001 12390 13830 13831 13821 12561 14001 14002 13992 12549 12559 14000 13990 13995 14003 12563 14004 13834 14005 14006 
1752 1753 1978 1977 1777 1778 2003 2002 12397 13837 13838 13830 12568 14008 14009 14001 12559 12566 14007 14000 14003 14010 12570 14011 13841 14012 14013 
1753 1754 1979 1978 1778 1779 2004 2003 12404 13844 13845 13837 12575 14015 14016 14008 12566 12573 14014 14007 14010 14017 12577 14018 13848 14019 14020 
1754 1755 1980 1979 1779 1780 2005 2004 12411 13851 13852 13844 12582 14022 14023 14015 12573 12580 14021 14014 14017 14024 12584 14025 13855 14026 14027 
1755 1756 1981 1980 1780 1781 2006 2005 12418 13858 13859 13851 12589 14029 14030 14022 12580 12587 14028 14021 14024 14031 12591 14032 13862 14033 14034 
1756 1757 1982 1981 1781 1782 2007 2006 12425 13865 13866 13858 12596 14036 14037 14029 12587 12594 14035 14028 14031 14038 12598 14039 13869 14040 14041 
1757 1758 1983 1982 1782 1783 2008 2007 12432 13872 13873 13865 12603 14043 14044 14036 12594 12601 14042 14035 14038 14045 12605 14046 13876 14047 14048 
1758 1759 1984 1983 1783 1784 2009 2008 12439 13879 13880 13872 12610 14050 14051 14043 12601 12608 14049 14042 14045 14052 12612 14053 13883 14054 14055 
1759 1760 1985 1984 1784 1785 2010 2009 12446 13886 13887 13879 12617 14057 14058 14050 12608 12615 14056 14049 14052 14059 12619 14060 13890 14061 14062 
1760 1761 1986 1985 1785 1786 2011 2010 12453 13893 13894 13886 12624 14064 14065 14057 12615 12622 14063 14056 14059 14066 12626 14067 13897 14068 14069 
1761 1762 1987 1986 1786 1787 2012 2011 12460 13900 13901 13893 12631 14071 14072 14064 12622 12629 14070 14063 14066 14073 12633 14074 13904 14075 14076 
1762 1763 1988 1987 1787 1788 2013 2012 12467 13907 13908 13900 12638 14078 14079 14071 12629 12636 14077 14070 14073 14080 12640 14081 13911 14082 14083 
1763 1764 1989 1988 1788 1789 2014 2013 12474 13914 13915 13907 12645 14085 14086 14078 12636 12643 14084 14077 14080 14087 12647 14088 13918 14089 14090 
1764 1765 1990 1989 1789 1790 2015 2014 12481 13921 13922 13914 12652 14092 14093 14085 12643 12650 14091 14084 14087 14094 12654 14095 13925 14096 14097 
1765 1766 1991 1990 1790 1791 2016 2015 12488 13928 13929 13921 12659 14099 14100 14092 12650 12657 14098 14091 14094 14101 12661 14102 13932 14103 14104 
1766 1767 1992 1991 1791 1792 2017 2016 12495 13935 13936 13928 12666 14106 14107 14099 12657 12664 14105 14098 14101 14108 12668 14109 13939 14110 14111 
1767 1768 1993 1992 1792 1793 2018 2017 12502 13942 13943 13935 12673 14113 14114 14106 12664 12671 14112 14105 14108 14115 12675 14116 13946 14117 14118 
1768 1769 1994 1993 1793 1794 2019 2018 12509 13949 13950 13942 12680 14120 14121 14113 12671 12678 14119 14112 14115 14122 12682 14123 13953 14124 14125 
1769 1770 1995 1994 1794 1795 2020 2019 12516 13956 13957 13949 12687 14127 14128 14120 12678 12685 14126 14119 14122 14129 12689 14130 13960 14131 14132 
1770 1771 1996 1995 1795 1796 2021 2020 12523 13963 13964 13956 12694 14134 14135 14127 12685 12692 14133 14126 14129 14136 12696 14137 13967 14138 14139 
1771 1772 1997 1996 1796 1797 2022 2021 12530 13970 13971 13963 12701 14141 14142 14134 12692 12699 14140 14133 14136 14143 12703 14144 13974 14145 14146 
1772 1773 1998 1997 1797 1798 2023 2022 12537 13977 13978 13970 12708 14148 14149 14141 12699 12706 14147 14140 14143 14150 12710 14151 13981 14152 14153 
1773 1774 1999 1998 1798 1799 2024 2023 12544 13984 13985 13977 12715 14155 14156 14148 12706 12713 14154 14147 14150 14157 12717 14158 13988 14159 14160 
CELL_TYPES 1536
29 29 29 29 29 29 29 29 29 29 29 29 29 29 29 29 29 29 29 29 29 29 29 29 29 29 29 29 29 29 29 29 29 29 29 29 29 29 29 29 29 29 29 29 29 29 29 29 29 29 29 29 29 29 29 29 29 29 29 29 29 29 29 29 29 29 29 29 29 29 29 29 29 29 29 29 29 29 29 29 29 29 29 29 29 29 29 29 29 29 29 29 29 29 29 29 29 29 29 29 29 29 29 29 29 29 29 29 29 29 29 29 29 29 29 29 29 29 29 29 29 29 29 29 29 29 29 29 29 29 29 29 29 29 29 29 29 29 29 29 29 29 29 29 29 29 29 29 29 29 29 29 29 29 29 29 29 29 29 29 29 29 29 29 29 29 29 29 29 29 29 29 29 29 29 29 29 29 29 29 29 29 29 29 29 29 29 29 29 29 29 29 29 29 29 29 29 29 29 29 29 29 29 29 29 29 29 29 29 29 29 29 29 29 29 29 29 29 29 29 29 29 29 29 29 29 29 29 29 29 29 29 29 29 29 29 29 29 29 29 29 29 29 29 29 29 29 29 29 29 29 29 29 29 29 29 29 29 29 29 29 29 29 29 29 29 29 29 29 29 29 29 29 29 29 29 29 29 29 29 29 29 29 29 29 29 29 29 29 29 29 29 29 29 29 29 29 29 29 29 29 29 29 29 29 29 29 29 29 29 29 29 29 29 29 29 29 29 29 29 29 29 29 29 29 29 29 29 29 29 29 29 29 29 29 29 29 29 29 29 29 29 29 29 29 29 29 29 29 29 29 29 29 29 29 29 29 29 29 29 29 29 29 29 29 29 29 29 29 29 29 29 29 29 29 29 29 29 29 29 29 29 29 29 29 29 29 29 29 29 29 29 29 29 29 29 29 29 29 29 29 29 29 29 29 29 29 29 29 29 29 29 29 29 29 29 29 29 29 29 29 29 29 29 29 29 29 29 29 29 29 29 29 29 29 29 29 29 29 29 29 29 29 29 29 29 29 29 29 29 29 29 29 29 29 29 29 29 29 29 29 29 29 29 29 29 29 29 29 29 29 29 29 29 29 29 29 29 29 29 29 29 29 29 29 29 29 29 29 29 29 29 29 29 29 29 29 29 29 29 29 29 29 29 29 29 29 29 29 29 29 29 29 29 29 29 29 29 29 29 29 29 29 29 29 29 29 29 29 29 29 29 29 29 29 29 29 29 29 29 29 29 29 29 29 29 29 29 29 29 29 29 29 29 29 29 29 29 29 29 29 29 29 29 29 29 29 29 29 29 29 29 29 29 29 29 29 29 29 29 29 29 29 29 29 29 29 29 29 29 29 29 29 29 29 29 29 29 29 29 29 29 29 29 29 29 29 29 29 29 29 29 29 29 29 29 29 29 29 29 29 29 29 29 29 29 29 29 29 29 29 29 29 29 29 29 29 29 29 29 29 29 29 29 29 29 29 29 29 29 29 29 29 29 29 29 29 29 29 29 29 29 29 29 29 29 29 29 29 29 29 29 29 29 29 29 29 29 29 29 29 29 29 29 29 29 29 29 29 29 29 29 29 29 29 29 29 29 29 29 29 29 29 29 29 29 29 29 29 29 29 29 29 29 29 29 29 29 29 29 29 29 29 29 29 29 29 29 29 29 29 29 29 29 29 29 29 29 29 29 29 29 29 29 29 29 29 29 29 29 29 29 29 29 29 29 29 29 29 29 29 29 29 29 29 29 29 29 29 29 29 29 29 29 29 29 29 29 29 29 29 29 29 29 29 29 29 29 29 29 29 29 29 29 29 29 29 29 29 29 29 29 29 29 29 29 29 29 29 29 29 29 29 29 29 29 29 29 29 29 29 29 29 29 29 29 29 29 29 29 29 29 29 29 29 29 29 29 29 29 29 29 29 29 29 29 29 29 29 29 29 29 29 29 29 29 29 29 29 29 29 29 29 29 29 29 29 29 29 29 29 29 29 29 29 29 29 29 29 29 29 29 29 29 29 29 29 29 29 29 29 29 29 29 29 29 29 29 29 29 29 29 29 29 29 29 29 29 29 29 29 29 29 29 29 29 29 29 29 29 29 29 29 29 29 29 29 29 29 29 29 29 29 29 29 29 29 29 29 29 29 29 29 29 29 29 29 29 29 29 29 29 29 29 29 29 29 29 29 29 29 29 29 29 29 29 29 29 29 29 29 29 29 29 29 29 29 29 29 29 29 29 29 29 29 29 29 29 29 29 29 29 29 29 29 29 29 29 29 29 29 29 29 29 29 29 29 29 29 29 29 29 29 29 29 29 29 29 29 29 29 29 29 29 29 29 29 29 29 29 29 29 29 29 29 29 29 29 29 29 29 29 29 29 29 29 29 29 29 29 29 29 29 29 29 29 29 29 29 29 29 29 29 29 29 29 29 29 29 29 29 29 29 29 29 29 29 29 29 29 29 29 29 29 29 29 29 29 29 29 29 29 29 29 29 29 29 29 29 29 29 29 29 29 29 29 29 29 29 29 29 29 29 29 29 29 29 29 29 29 29 29 29 29 29 29 29 29 29 29 29 29 29 29 29 29 29 29 29 29 29 29 29 29 29 29 29 29 29 29 29 29 29 29 29 29 29 29 29 29 29 29 29 29 29 29 29 29 29 29 29 29 29 29 29 29 29 29 29 29 29 29 29 29 29 29 29 29 29 29 29 29 29 29 29 29 29 29 29 29 29 29 29 29 29 29 29 29 29 29 29 29 29 29 29 29 29 29 29 29 29 29 29 29 29 29 29 29 29 29 29 29 29 29 29 29 29 29 29 29 29 29 29 29 29 29 29 29 29 29 29 29 29 29 29 29 29 29 29 29 29 29 29 29 29 29 29 29 29 29 29 29 29 29 29 29 29 29 29 29 29 29 29 29 29 29 29 29 29 29 29 29 29 29 29 29 29 29 29 29 29 29 29 29 29 29 29 29 29 29 29 29 29 29 29 29 29 29 29 29 29 29 29 29 29 29 29 29 29 29 29 29 29 29 29 29 29 29 29 29 29 29 29 29 29 29 29 29 29 29 29 29 29 29 29 29 29 29 29 29 29 29 29 29 29 29 29 29 29 29 29 29 29 29 29 29 29 29 29 29 29 29 29 29 29 29 29 29 29 29 29 29 29 29 29 29 29 29 29 29 29 29 29 29 29 29 29 29 29 29 29 29 29 29 29 29 29 29 29 29 29 29 29 29 29 29 29 29 29 29 29 29 29 29 29 29 29 29 29 29 29 29 29 29 29 29 29 29 29 29 29 29 29 29 29 29 29 29 29 29 29 29 29 29 29 29 29 29 29 29 29 29 29 29 29 29 29 29 29 29 29 29 29 29 29 29 29 29 29 29 29 29 29 29 29 29 29 29 29 29 29 29 29 29 29 29 29 29 29 29 29 29 29 29 29 29 29 29 29 29 29 29 29 29 29 29 29 29 29 29 29 29 29 29 29 29 

POINT_DATA 14161
SCALARS weights float 1
LOOKUP_TABLE default
0.072338 0.144676 0.144676 0.144676 0.144676 0.144676 0.144676 0.144676 0.144676 0.144676 0.144676 0.144676 0.144676 0.144676 0.144676 0.144676 0.144676 0.144676 0.144676 0.144676 0.144676 0.144676 0.144676 0.144676 0.072338 0.144676 0.289352 0.289352 0.289352 0.289352 0.289352 0.289352 0.289352 0.289352 0.289352 0.289352 0.289352 0.289352 0.289352 0.289352 0.289352 0.289352 0.289352 0.289352 0.289352 0.289352 0.289352 0.289352 0.289352 0.144676 0.144676 0.289352 0.289352 0.289352 0.289352 0.289352 0.289352 0.289352 0.289352 0.289352 0.289352 0.289352 0.289352 0.289352 0.289352 0.289352 0.289352 0.289352 0.289352 0.289352 0.289352 0.289352 0.289352 0.289352 0.144676 0.144676 0.289352 0.289352 0.289352 0.289352 0.289352 0.289352 0.289352 0.289352 0.289352 0.289352 0.289352 0.289352 0.289352 0.289352 0.289352 0.289352 0.289352 0.289352 0.289352 0.289352 0.289352 0.289352 0.289352 0.144676 0.144676 0.289352 0.289352 0.289352 0.289352 0.289352 0.289352 0.289352 0.289352 0.289352 0.289352 0.289352 0.289352 0.289352 0.289352 0.289352 0.289352 0.289352 0.289352 0.289352 0.289352 0.289352 0.289352 0.289352 0.144676 0.144676 0.289352 0.289352 0.289352 0.289352 0.289352 0.289352 0.289352 0.289352 0.289352 0.289352 0.289352 0.289352 0.289352 0.289352 0.289352 0.289352 0.289352 0.289352 0.289352 0.289352 0.289352 0.289352 0.289352 0.144676 0.144676 0.289352 0.289352 0.289352 0.289352 0.289352 0.289352 0.289352 0.289352 0.289352 0.289352 0.289352 0.289352 0.289352 0.289352 0.289352 0.289352 0.289352 0.289352 0.289352 0.289352 0.289352 0.289352 0.289352 0.144676 0.144676 0.289352 0.289352 0.289352 0.289352 0.289352 0.289352 0.289352 0.289352 0.289352 0.289352 0.289352 0.289352 0.289352 0.289352 0.289352 0.289352 0.289352 0.289352 0.289352 0.289352 0.289352 0.289352 0.289352 0.144676 0.072338 0.144676 0.144676 0.144676 0.144676 0.144676 0.144676 0.144676 0.144676 0.144676 0.144676 0.144676 0.144676 0.144676 0.144676 0.144676 0.144676 0.144676 0.144676 0.144676 0.144676 0.144676 0.144676 0.144676 0.072338 0.144676 0.289352 0.289352 0.289352 0.289352 0.289352 0.289352 0.289352 0.289352 0.289352 0.289352 0.289352 0.289352 0.289352 0.289352 0.289352 0.289352 0.289352 0.289352 0.289352 0.289352 0.289352 0.289352 0.289352 0.144676 0.289352 0.578704 0.578704 0.578704 0.578704 0.578704 0.578704 0.578704 0.578704 0.578704 0.578704 0.578704 0.578704 0.578704 0.578704 0.578704 0.578704 0.578704 0.578704 0.578703 0.578704 0.578704 0.578704 0.578704 0.289352 0.289352 0.578704 0.578704 0.578704 0.578704 0.578704 0.578704 0.578704 0.578704 0.578704 0.578704 0.578704 0.578704 0.578704 0.578704 0.578704 0.578704 0.578704 0.578704 0.578703 0.578704 0.578704 0.578704 0.578704 0.289352 0.289352 0.578704 0.578704 0.578704 0.578704 0.578704 0.578704 0.578704 0.578704 0.578704 0.578704 0.578704 0.578704 0.578704 0.578704 0.578704 0.578704 0.578704 0.578704 0.578703 0.578704 0.578704 0.578704 0.578704 0.289352 0.289352 0.578704 0.578704 0.578704 0.578704 0.578704 0.578704 0.578704 0.578704 0.578704 0.578704 0.578704 0.578704 0.578704 0.578704 0.578704 0.578704 0.578704 0.578703 0.578703 0.578704 0.578704 0.578703 0.578704 0.289352 0.289352 0.578704 0.578704 0.578704 0.578704 0.578704 0.578704 0.578704 0.578704 0.578704 0.578704 0.578704 0.578704 0.578704 0.578704 0.578704 0.578704 0.578704 0.578704 0.578703 0.578704 0.578704 0.578704 0.578704 0.289352 0.289352 0.578704 0.578704 0.578704 0.578704 0.578704 0.578704 0.578704 0.578704 0.578704 0.578704 0.578704 0.578704 0.578704 0.578704 0.578704 0.578704 0.578704 0.578704 0.578703 0.578704 0.578704 0.578704 0.578704 0.289352 0.289352 0.578704 0.578704 0.578704 0.578704 0.578704 0.578704 0.578704 0.578704 0.578704 0.578704 0.578704 0.578704 0.578704 0.578704 0.578704 0.578704 0.578704 0.578704 0.578703 0.578704 0.578704 0.578704 0.578704 0.289352 0.144676 0.289352 0.289352 0.289352 0.289352 0.289352 0.289352 0.289352 0.289352 0.289352 0.289352 0.289352 0.289352 0.289352 0.289352 0.289352 0.289352 0.289352 0.289352 0.289352 0.289352 0.289352 0.289352 0.289352 0.144676 0.144676 0.289352 0.289352 0.289352 0.289352 0.289352 0.289352 0.289352 0.289352 0.289352 0.289352 0.289352 0.289352 0.289352 0.289352 0.289352 0.289352 0.289352 0.289352 0.289352 0.289352 0.289352 0.289352 0.289352 0.144676 0.289352 0.578704 0.578704 0.578704 0.578704 0.578704 0.578704 0.578704 0.578704 0.578703 0.578703 0.578703 0.578704 0.578704 0.578703 0.578703 0.578704 0.578703 0.578703 0.578703 0.578703 0.578704 0.578703 0.578703 0.289352 0.289352 0.578704 0.578704 0.578704 0.578704 0.578704 0.578704 0.578704 0.578704 0.578703 0.578703 0.578703 0.578703 0.578704 0.578703 0.578703 0.578704 0.578703 0.578703 0.578703 0.578703 0.578704 0.578703 0.578703 0.289352 0.289352 0.578704 0.578704 0.578703 0.578703 0.578703 0.578704 0.578704 0.578703 0.578703 0.578703 0.578703 0.578704 0.578704 0.578703 0.578703 0.578704 0.578703 0.578703 0.578703 0.578703 0.578703 0.578703 0.578703 0.289352 0.289352 0.578703 0.578704 0.578703 0.578703 0.578703 0.578703 0.578703 0.578703 0.578703 0.578703 0.578703 0.578703 0.578703 0.578703 0.578703 0.578704 0.578703 0.578703 0.578703 0.578703 0.578703 0.578703 0.578703 0.289352 0.289352 0.578704 0.578704 0.578703 0.578703 0.578704 0.578703 0.578703 0.578703 0.578703 0.578703 0.578703 0.578703 0.578704 0.578703 0.578703 0.578704 0.578703 0.578703 0.578703 0.578703 0.578704 0.578703 0.578703 0.289352 0.289352 0.578704 0.578704 0.578704 0.578703 0.578704 0.578704 0.578704 0.578704 0.578703 0.578703 0.578703 0.578704 0.578704 0.578703 0.578703 0.578704 0.578703 0.578703 0.578703 0.578703 0.578704 0.578703 0.578703 0.289352 0.289352 0.578704 0.578704 0.578703 0.578703 0.578704 0.578704 0.578703 0.578703 0.578703 0.578703 0.578703 0.578703 0.578703 0.578703 0.578703 0.578704 0.578703 0.578703 0.578703 0.578703 0.578703 0.578703 0.578703 0.289352 0.144676 0.289352 0.289352 0.289352 0.289352 0.289352 0.289352 0.289352 0.289352 0.289352 0.289352 0.289352 0.289352 0.289352 0.289352 0.289352 0.289352 0.289352 0.289352 0.289351 0.289352 0.289352 0.289352 0.289352 0.144676 0.144676 0.289352 0.289352 0.289352 0.289352 0.289352 0.289352 0.289352 0.289352 0.289352 0.289352 0.289352 0.289352 0.289352 0.289352 0.289352 0.289352 0.289352 0.289352 0.289352 0.289352 0.289352 0.289352 0.289352 0.144676 0.289352 0.578704 0.578704 0.578704 0.578704 0.578704 0.578704 0.578704 0.578704 0.578704 0.578703 0.578704 0.578704 0.578704 0.578703 0.578703 0.578704 0.578704 0.578703 0.578703 0.578703 0.578704 0.578703 0.578704 0.289352 0.289352 0.578704 0.578704 0.578704 0.578704 0.578704 0.578704 0.578704 0.578704 0.578704 0.578703 0.578704 0.578704 0.578704 0.578704 0.578703 0.578704 0.578704 0.578703 0.578703 0.578703 0.578704 0.578703 0.578704 0.289352 0.289352 0.578704 0.578704 0.578704 0.578704 0.578704 0.578704 0.578704 0.578704 0.578703 0.578703 0.578703 0.578704 0.578704 0.578703 0.578703 0.578704 0.578703 0.578703 0.578703 0.578703 0.578704 0.578703 0.578703 0.289352 0.289352 0.578704 0.578704 0.578704 0.578703 0.578704 0.578704 0.578703 0.578703 0.578703 0.578703 0.578703 0.578704 0.578704 0.578703 0.578703 0.578704 0.578703 0.578703 0.578703 0.578703 0.578703 0.578703 0.578703 0.289352 0.289352 0.578704 0.578704 0.578704 0.578703 0.578704 0.578704 0.578704 0.578704 0.578703 0.578703 0.578703 0.578704 0.578704 0.578703 0.578703 0.578704 0.578703 0.578703 0.578703 0.578703 0.578704 0.578703 0.578703 0.289352 0.289352 0.578704 0.578704 0.578704 0.578704 0.578704 0.578704 0.578704 0.578704 0.578704 0.578703 0.578704 0.578704 0.578704 0.578704 0.578703 0.578704 0.578704 0.578703 0.578703 0.578703 0.578704 0.578703 0.578704 0.289352 0.289352 0.578704 0.578704 0.578704 0.578703 0.578704 0.578704 0.578704 0.578704 0.578703 0.578703 0.578703 0.578704 0.578704 0.578703 0.578704 0.578704 0.578703 0.578703 0.578703 0.578703 0.578704 0.578703 0.578703 0.289352 0.144676 0.289352 0.289352 0.289352 0.289352 0.289352 0.289352 0.289352 0.289352 0.289352 0.289352 0.289352 0.289352 0.289352 0.289352 0.289352 0.289352 0.289352 0.289352 0.289352 0.289352 0.289352 0.289352 0.289352 0.144676 0.144676 0.289352 0.289352 0.289352 0.289352 0.289352 0.289352 0.289352 0.289352 0.289352 0.289352 0.289352 0.289352 0.289352 0.289352 0.289352 0.289352 0.289352 0.289352 0.289352 0.289352 0.289352 0.289352 0.289352 0.144676 0.289352 0.578704 0.578704 0.578704 0.578704 0.578704 0.578704 0.578704 0.578704 0.578704 0.578704 0.578704 0.578704 0.578704 0.578704 0.578704 0.578704 0.578704 0.578704 0.578703 0.578704 0.578704 0.578704 0.578704 0.289352 0.289352 0.578704 0.578704 0.578704 0.578704 0.578704 0.578704 0.578704 0.578704 0.578704 0.578704 0.578704 0.578704 0.578704 0.578704 0.578704 0.578704 0.578704 0.578704 0.578703 0.578704 0.578704 0.578704 0.578704 0.289352 0.289352 0.578704 0.578704 0.578704 0.578704 0.578704 0.578704 0.578704 0.578704 0.578704 0.578704 0.578704 0.578704 0.578704 0.578704 0.578704 0.578704 0.578704 0.578704 0.578703 0.578704 0.578704 0.578704 0.578704 0.289352 0.289352 0.578704 0.578704 0.578704 0.578704 0.578704 0.578704 0.578704 0.578704 0.578704 0.578704 0.578704 0.578704 0.578704 0.578704 0.578704 0.578704 0.578704 0.578704 0.578703 0.578704 0.578704 0.578703 0.578704 0.289352 0.289352 0.578704 0.578704 0.578704 0.578704 0.578704 0.578704 0.578704 0.578704 0.578704 0.578704 0.578704 0.578704 0.578704 0.578704 0.578704 0.578704 0.578704 0.578704 0.578703 0.578704 0.578704 0.578704 0.578704 0.289352 0.289352 0.578704 0.578704 0.578704 0.578704 0.578704 0.578704 0.578704 0.578704 0.578704 0.578704 0.578704 0.578704 0.578704 0.578704 0.578704 0.578704 0.578704 0.578704 0.578703 0.578704 0.578704 0.578704 0.578704 0.289352 0.289352 0.578704 0.578704 0.578704 0.578704 0.578704 0.578704 0.578704 0.578704 0.578704 0.578704 0.578704 0.578704 0.578704 0.578704 0.578704 0.578704 0.578704 0.578704 0.578703 0.578704 0.578704 0.578704 0.578704 0.289352 0.144676 0.289352 0.289352 0.289352 0.289352 0.289352 0.289352 0.289352 0.289352 0.289352 0.289352 0.289352 0.289352 0.289352 0.289352 0.289352 0.289352 0.289352 0.289352 0.289352 0.289352 0.289352 0.289352 0.289352 0.144676 0.144676 0.289352 0.289352 0.289352 0.289352 0.289352 0.289352 0.289352 0.289352 0.289352 0.289352 0.289352 0.289352 0.289352 0.289352 0.289352 0.289352 0.289352 0.289352 0.289352 0.289352 0.289352 0.289352 0.289352 0.144676 0.289352 0.578704 0.578704 0.578704 0.578704 0.578704 0.578704 0.578704 0.578704 0.578704 0.578704 0.578704 0.578704 0.578704 0.578704 0.578704 0.578704 0.578704 0.578704 0.578703 0.578704 0.578704 0.578704 0.578704 0.289352 0.289352 0.578704 0.578704 0.578704 0.578704 0.578704 0.578704 0.578704 0.578704 0.578704 0.578704 0.578704 0.578704 0.578704 0.578704 0.578704 0.578704 0.578704 0.578704 0.578703 0.578704 0.578704 0.578704 0.578704 0.289352 0.289352 0.578704 0.578704 0.578704 0.578704 0.578704 0.578704 0.578704 0.578704 0.578704 0.578704 0.578704 0.578704 0.578704 0.578704 0.578704 0.578704 0.578704 0.578704 0.578703 0.578704 0.578704 0.578704 0.578704 0.289352 0.289352 0.578704 0.578704 0.578704 0.578704 0.578704 0.578704 0.578704 0.578704 0.578704 0.578704 0.578704 0.578704 0.578704 0.578704 0.578704 0.578704 0.578704 0.578704 0.578703 0.578704 0.578704 0.578703 0.578704 0.289352 0.289352 0.578704 0.578704 0.578704 0.578704 0.578704 0.578704 0.578704 0.578704 0.578704 0.578704 0.578704 0.578704 0.578704 0.578704 0.578704 0.578704 0.578704 0.578704 0.578703 0.578704 0.578704 0.578704 0.578704 0.289352 0.289352 0.578704 0.578704 0.578704 0.578704 0.578704 0.578704 0.578704 0.578704 0.578704 0.578704 0.578704 0.578704 0.578704 0.578704 0.578704 0.578704 0.578704 0.578704 0.578703 0.578704 0.578704 0.578704 0.578704 0.289352 0.289352 0.578704 0.578704 0.578704 0.578704 0.578704 0.578704 0.578704 0.578704 0.578704 0.578704 0.578704 0.578704 0.578704 0.578704 0.578704 0.578704 0.578704 0.578703 0.578703 0.578704 0.578704 0.578704 0.578704 0.289352 0.144676 0.289352 0.289352 0.289352 0.289352 0.289352 0.289352 0.289352 0.289352 0.289352 0.289352 0.289352 0.289352 0.289352 0.289352 0.289352 0.289352 0.289352 0.289352 0.289352 0.289352 0.289352 0.289352 0.289352 0.144676 0.144676 0.289352 0.289352 0.289352 0.289352 0.289352 0.289352 0.289352 0.289352 0.289352 0.289352 0.289352 0.289352 0.289352 0.289352 0.289352 0.289352 0.289352 0.289352 0.289352 0.289352 0.289352 0.289352 0.289352 0.144676 0.289352 0.578704 0.578704 0.578704 0.578704 0.578704 0.578704 0.578704 0.578704 0.578704 0.578704 0.578704 0.578704 0.578704 0.578704 0.578704 0.578704 0.578704 0.578704 0.578703 0.578704 0.578704 0.578704 0.578704 0.289352 0.289352 0.578704 0.578704 0.578704 0.578704 0.578704 0.578704 0.578704 0.578704 0.578704 0.578704 0.578704 0.578704 0.578704 0.578704 0.578704 0.578704 0.578704 0.578703 0.578703 0.578704 0.578704 0.578703 0.578704 0.289352 0.289352 0.578704 0.578704 0.578704 0.578704 0.578704 0.578704 0.578704 0.578704 0.578704 0.578704 0.578704 0.578704 0.578704 0.578704 0.578704 0.578704 0.578704 0.578703 0.578703 0.578704 0.578704 0.578703 0.578704 0.289352 0.289352 0.578704 0.578704 0.578704 0.578704 0.578704 0.578704 0.578704 0.578704 0.578704 0.578703 0.578704 0.578704 0.578704 0.578704 0.578704 0.578704 0.578704 0.578703 0.578703 0.578703 0.578704 0.578703 0.578704 0.289352 0.289352 0.578704 0.578704 0.578704 0.578704 0.578704 0.578704 0.578704 0.578704 0.578704 0.578703 0.578704 0.578704 0.578704 0.578704 0.578704 0.578704 0.578704 0.578703 0.578703 0.578704 0.578704 0.578703 0.578704 0.289352 0.289352 0.578704 0.578704 0.578704 0.578704 0.578704 0.578704 0.578704 0.578704 0.578704 0.578704 0.578704 0.578704 0.578704 0.578704 0.578704 0.578704 0.578704 0.578704 0.578703 0.578704 0.578704 0.578704 0.578704 0.289352 0.289352 0.578704 0.578704 0.578704 0.578704 0.578704 0.578704 0.578704 0.578704 0.578704 0.578704 0.578704 0.578704 0.578704 0.578704 0.578704 0.578704 0.578704 0.578703 0.578703 0.578704 0.578704 0.578703 0.578704 0.289352 0.144676 0.289352 0.289352 0.289352 0.289352 0.289352 0.289352 0.289352 0.289352 0.289352 0.289352 0.289352 0.289352 0.289352 0.289352 0.289352 0.289352 0.289352 0.289352 0.289352 0.289352 0.289352 0.289352 0.289352 0.144676 0.144676 0.289352 0.289352 0.289352 0.289352 0.289352 0.289352 0.289352 0.289352 0.289352 0.289352 0.289352 0.289352 0.289352 0.289352 0.289352 0.289352 0.289352 0.289352 0.289352 0.289352 0.289352 0.289352 0.289352 0.144676 0.289352 0.578704 0.578704 0.578703 0.578703 0.578703 0.578704 0.578704 0.578703 0.578703 0.578703 0.578703 0.578704 0.578704 0.578703 0.578703 0.578704 0.578703 0.578703 0.578703 0.578703 0.578703 0.578703 0.578703 0.289352 0.289352 0.578704 0.578704 0.578703 0.578703 0.578703 0.578703 0.578703 0.578703 0.578703 0.578703 0.578703 0.578703 0.578703 0.578703 0.578703 0.578703 0.578703 0.578703 0.578703 0.578703 0.578703 0.578703 0.578703 0.289352 0.289352 0.578704 0.578704 0.578703 0.578703 0.578703 0.578703 0.578703 0.578703 0.578703 0.578703 0.578703 0.578703 0.578703 0.578703 0.578703 0.578703 0.578703 0.578703 0.578703 0.578703 0.578703 0.578703 0.578703 0.289352 0.289352 0.578703 0.578704 0.578703 0.578703 0.578703 0.578703 0.578703 0.578703 0.578703 0.578703 0.578703 0.578703 0.578703 0.578703 0.578703 0.578703 0.578703 0.578703 0.578703 0.578703 0.578703 0.578703 0.578703 0.289352 0.289352 0.578703 0.578703 0.578703 0.578703 0.578703 0.578703 0.578703 0.578703 0.578703 0.578703 0.578703 0.578703 0.578703 0.578703 0.578703 0.578703 0.578703 0.578703 0.578703 0.578703 0.578703 0.578703 0.578703 0.289352 0.289352 0.578704 0.578704 0.578703 0.578703 0.578703 0.578703 0.578703 0.578703 0.578703 0.578703 0.578703 0.578703 0.578703 0.578703 0.578703 0.578704 0.578703 0.578703 0.578703 0.578703 0.578704 0.578703 0.578703 0.289352 0.289352 0.578703 0.578703 0.578703 0.578703 0.578703 0.578703 0.578703 0.578703 0.578703 0.578703 0.578703 0.578703 0.578703 0.578703 0.578703 0.578704 0.578703 0.578703 0.578703 0.578703 0.578703 0.578703 0.578703 0.289352 0.144676 0.289352 0.289352 0.289352 0.289352 0.289352 0.289352 0.289352 0.289352 0.289352 0.289352 0.289352 0.289352 0.289352 0.289352 0.289352 0.289352 0.289352 0.289352 0.289351 0.289352 0.289352 0.289352 0.289352 0.144676 0.0723379 0.144676 0.144676 0.144676 0.144676 0.144676 0.144676 0.144676 0.144676 0.144676 0.144676 0.144676 0.144676 0.144676 0.144676 0.144676 0.144676 0.144676 0.144676 0.144676 0.144676 0.144676 0.144676 0.144676 0.0723379 0.144676 0.289352 0.289352 0.289352 0.289352 0.289352 0.289352 0.289352 0.289352 0.289352 0.289352 0.289352 0.289352 0.289352 0.289352 0.289352 0.289352 0.289352 0.289351 0.289351 0.289352 0.289352 0.289352 0.289352 0.144676 0.144676 0.289352 0.289352 0.289352 0.289352 0.289352 0.289352 0.289352 0.289352 0.289352 0.289352 0.289352 0.289352 0.289352 0.289352 0.289352 0.289352 0.289352 0.289351 0.289351 0.289352 0.289352 0.289352 0.289352 0.144676 0.144676 0.289352 0.289352 0.289352 0.289352 0.289352 0.289352 0.289352 0.289352 0.289352 0.289351 0.289352 0.289352 0.289352 0.289352 0.289352 0.289352 0.289352 0.289351 0.289351 0.289352 0.289352 0.289352 0.289352 0.144676 0.144676 0.289352 0.289352 0.289352 0.289352 0.289352 0.289352 0.289352 0.289352 0.289352 0.289351 0.289352 0.289352 0.289352 0.289352 0.289352 0.289352 0.289352 0.289351 0.289351 0.289352 0.289352 0.289352 0.289352 0.144676 0.144676 0.289352 0.289352 0.289352 0.289352 0.289352 0.289352 0.289352 0.289352 0.289352 0.289352 0.289352 0.289352 0.289352 0.289352 0.289352 0.289352 0.289352 0.289351 0.289351 0.289352 0.289352 0.289352 0.289352 0.144676 0.144676 0.289352 0.289352 0.289352 0.289352 0.289352 0.289352 0.289352 0.289352 0.289352 0.289352 0.289352 0.289352 0.289352 0.289352 0.289352 0.289352 0.289352 0.289352 0.289351 0.289352 0.289352 0.289352 0.289352 0.144676 0.144676 0.289352 0.289352 0.289352 0.289352 0.289352 0.289352 0.289352 0.289352 0.289352 0.289352 0.289352 0.289352 0.289352 0.289352 0.289352 0.289352 0.289352 0.289352 0.289351 0.289352 0.289352 0.289351 0.289352 0.144676 0.0723379 0.144676 0.144676 0.144676 0.144676 0.144676 0.144676 0.144676 0.144676 0.144676 0.144676 0.144676 0.144676 0.144676 0.144676 0.144676 0.144676 0.144676 0.144676 0.144676 0.144676 0.144676 0.144676 0.144676 0.0723379 0.072338 0.144676 0.144676 0.072338 0.072338 0.144676 0.289352 0.144676 0.144676 0.289352 0.289352 0.144676 0.072338 0.072338 0.144676 0.144676 0.072338 0.144676 0.072338 0.072338 0.144676 0.144676 0.144676 0.289352 0.144676 0.289352 0.289352 0.072338 0.072338 0.144676 0.144676 0.144676 0.072338 0.072338 0.144676 0.144676 0.144676 0.289352 0.144676 0.289352 0.289352 0.072338 0.072338 0.144676 0.144676 0.144676 0.072338 0.072338 0.144676 0.144676 0.144676 0.289352 0.144676 0.289352 0.289352 0.072338 0.072338 0.144676 0.144676 0.144676 0.072338 0.072338 0.144676 0.144676 0.144676 0.289352 0.144676 0.289352 0.289352 0.072338 0.072338 0.144676 0.144676 0.144676 0.072338 0.072338 0.144676 0.144676 0.144676 0.289352 0.144676 0.289352 0.289352 0.072338 0.072338 0.144676 0.144676 0.144676 0.072338 0.072338 0.144676 0.144676 0.144676 0.289352 0.144676 0.289352 0.289352 0.072338 0.072338 0.144676 0.144676 0.144676 0.072338 0.072338 0.144676 0.144676 0.144676 0.289352 0.144676 0.289352 0.289352 0.072338 0.072338 0.144676 0.144676 0.144676 0.072338 0.072338 0.144676 0.144676 0.144676 0.289352 0.144676 0.289352 0.289352 0.072338 0.072338 0.144676 0.144676 0.144676 0.072338 0.072338 0.144676 0.144676 0.144676 0.289352 0.144676 0.289352 0.289352 0.072338 0.072338 0.144676 0.144676 0.144676 0.072338 0.072338 0.144676 0.144676 0.144676 0.289352 0.144676 0.289352 0.289352 0.072338 0.072338 0.144676 0.144676 0.144676 0.072338 0.072338 0.144676 0.144676 0.144676 0.289352 0.144676 0.289352 0.289352 0.072338 0.072338 0.144676 0.144676 0.144676 0.072338 0.072338 0.144676 0.144676 0.144676 0.289352 0.144676 0.289352 0.289352 0.072338 0.072338 0.144676 0.144676 0.144676 0.072338 0.072338 0.144676 0.144676 0.144676 0.289352 0.144676 0.289352 0.289352 0.072338 0.072338 0.144676 0.144676 0.144676 0.072338 0.0723379 0.144676 0.144676 0.144676 0.289352 0.144676 0.289352 0.289352 0.0723379 0.0723379 0.144676 0.144676 0.144676 0.0723379 0.072338 0.144676 0.144676 0.144676 0.289352 0.144676 0.289352 0.289352 0.072338 0.072338 0.144676 0.144676 0.144676 0.072338 0.072338 0.144676 0.144676 0.144676 0.289352 0.144676 0.289352 0.289352 0.072338 0.072338 0.144676 0.144676 0.144676 0.072338 0.072338 0.144676 0.144676 0.144676 0.289352 0.144676 0.289352 0.289352 0.072338 0.072338 0.144676 0.144676 0.144676 0.072338 0.0723379 0.144676 0.144676 0.144676 0.289352 0.144676 0.289352 0.289352 0.0723379 0.0723379 0.144676 0.144676 0.144676 0.0723379 0.0723379 0.144676 0.144676 0.144676 0.289352 0.144676 0.289352 0.289352 0.0723379 0.0723379 0.144676 0.144676 0.144676 0.0723379 0.072338 0.144676 0.144676 0.144676 0.289352 0.144676 0.289352 0.289352 0.072338 0.072338 0.144676 0.144676 0.144676 0.072338 0.072338 0.144676 0.144676 0.144676 0.289352 0.144676 0.289352 0.289352 0.072338 0.072338 0.144676 0.144676 0.144676 0.072338 0.0723379 0.144676 0.144676 0.144676 0.289352 0.144676 0.289352 0.289352 0.0723379 0.0723379 0.144676 0.144676 0.144676 0.0723379 0.072338 0.072338 0.144676 0.072338 0.144676 0.144676 0.144676 0.289352 0.072338 0.072338 0.072338 0.144676 0.144676 0.072338 0.072338 0.144676 0.289352 0.144676 0.144676 0.289352 0.289352 0.144676 0.072338 0.144676 0.144676 0.072338 0.144676 0.072338 0.144676 0.289352 0.144676 0.289352 0.289352 0.072338 0.144676 0.144676 0.144676 0.072338 0.144676 0.289352 0.144676 0.289352 0.289352 0.072338 0.144676 0.144676 0.144676 0.072338 0.144676 0.289352 0.144676 0.289352 0.289352 0.072338 0.144676 0.144676 0.144676 0.072338 0.144676 0.289352 0.144676 0.289352 0.289352 0.072338 0.144676 0.144676 0.144676 0.072338 0.144676 0.289352 0.144676 0.289352 0.289352 0.072338 0.144676 0.144676 0.144676 0.072338 0.144676 0.289352 0.144676 0.289352 0.289352 0.072338 0.144676 0.144676 0.144676 0.072338 0.144676 0.289352 0.144676 0.289352 0.289352 0.072338 0.144676 0.144676 0.144676 0.072338 0.144676 0.289352 0.144676 0.289352 0.289352 0.072338 0.144676 0.144676 0.144676 0.072338 0.144676 0.289352 0.144676 0.289352 0.289352 0.072338 0.144676 0.144676 0.144676 0.072338 0.144676 0.289352 0.144676 0.289352 0.289352 0.072338 0.144676 0.144676 0.144676 0.072338 0.144676 0.289352 0.144676 0.289352 0.289352 0.072338 0.144676 0.144676 0.144676 0.072338 0.144676 0.289352 0.144676 0.289352 0.289352 0.072338 0.144676 0.144676 0.144676 0.072338 0.144676 0.289352 0.144676 0.289352 0.289352 0.072338 0.144676 0.144676 0.144676 0.072338 0.144676 0.289352 0.144676 0.289352 0.289352 0.0723379 0.144676 0.144676 0.144676 0.0723379 0.144676 0.289352 0.144676 0.289352 0.289352 0.072338 0.144676 0.144676 0.144676 0.072338 0.144676 0.289352 0.144676 0.289352 0.289352 0.072338 0.144676 0.144676 0.144676 0.072338 0.144676 0.289352 0.144676 0.289352 0.289352 0.072338 0.144676 0.144676 0.144676 0.072338 0.144676 0.289352 0.144676 0.289352 0.289352 0.0723379 0.144676 0.144676 0.144676 0.0723379 0.144676 0.289352 0.144676 0.289352 0.289352 0.0723379 0.144676 0.144676 0.144676 0.0723379 0.144676 0.289352 0.144676 0.289352 0.289352 0.072338 0.144676 0.144676 0.144676 0.072338 0.144676 0.289352 0.144676 0.289352 0.289352 0.072338 0.144676 0.144676 0.144676 0.072338 0.144676 0.289352 0.144676 0.289352 0.289352 0.0723379 0.144676 0.144676 0.144676 0.0723379 0.072338 0.144676 0.144676 0.144676 0.289352 0.072338 0.072338 0.144676 0.144676 0.072338 0.072338 0.144676 0.289352 0.144676 0.144676 0.289352 0.289352 0.144676 0.072338 0.144676 0.144676 0.072338 0.144676 0.072338 0.144676 0.289352 0.144676 0.289352 0.289352 0.072338 0.144676 0.144676 0.144676 0.072338 0.144676 0.289352 0.144676 0.289352 0.289352 0.072338 0.144676 0.144676 0.144676 0.072338 0.144676 0.289352 0.144676 0.289352 0.289352 0.072338 0.144676 0.144676 0.144676 0.072338 0.144676 0.289352 0.144676 0.289352 0.289352 0.072338 0.144676 0.144676 0.144676 0.072338 0.144676 0.289352 0.144676 0.289352 0.289352 0.072338 0.144676 0.144676 0.144676 0.072338 0.144676 0.289352 0.144676 0.289352 0.289352 0.072338 0.144676 0.144676 0.144676 0.072338 0.144676 0.289352 0.144676 0.289352 0.289352 0.072338 0.144676 0.144676 0.144676 0.072338 0.144676 0.289352 0.144676 0.289352 0.289352 0.072338 0.144676 0.144676 0.144676 0.072338 0.144676 0.289352 0.144676 0.289352 0.289352 0.072338 0.144676 0.144676 0.144676 0.072338 0.144676 0.289352 0.144676 0.289352 0.289352 0.072338 0.144676 0.144676 0.144676 0.072338 0.144676 0.289352 0.144676 0.289352 0.289352 0.072338 0.144676 0.144676 0.144676 0.072338 0.144676 0.289352 0.144676 0.289352 0.289352 0.072338 0.144676 0.144676 0.144676 0.072338 0.144676 0.289352 0.144676 0.289352 0.289352 0.072338 0.144676 0.144676 0.144676 0.072338 0.144676 0.289352 0.144676 0.289352 0.289352 0.0723379 0.144676 0.144676 0.144676 0.0723379 0.144676 0.289352 0.144676 0.289352 0.289352 0.072338 0.144676 0.144676 0.144676 0.072338 0.144676 0.289352 0.144676 0.289352 0.289352 0.072338 0.144676 0.144676 0.144676 0.072338 0.144676 0.289352 0.144676 0.289352 0.289352 0.072338 0.144676 0.144676 0.144676 0.072338 0.144676 0.289352 0.144676 0.289352 0.289352 0.0723379 0.144676 0.144676 0.144676 0.0723379 0.144676 0.289352 0.144676 0.289352 0.289352 0.0723379 0.144676 0.144676 0.144676 0.0723379 0.144676 0.289352 0.144676 0.289352 0.289352 0.072338 0.144676 0.144676 0.144676 0.072338 0.144676 0.289352 0.144676 0.289352 0.289352 0.072338 0.144676 0.144676 0.144676 0.072338 0.144676 0.289352 0.144676 0.289352 0.289352 0.072338 0.144676 0.144676 0.144676 0.072338 0.072338 0.144676 0.144676 0.144676 0.289352 0.072338 0.072338 0.144676 0.144676 0.072338 0.072338 0.144676 0.289352 0.144676 0.144676 0.289352 0.289352 0.144676 0.072338 0.144676 0.144676 0.072338 0.144676 0.072338 0.144676 0.289352 0.144676 0.289352 0.289352 0.072338 0.144676 0.144676 0.144676 0.072338 0.144676 0.289352 0.144676 0.289352 0.289352 0.072338 0.144676 0.144676 0.144676 0.072338 0.144676 0.289352 0.144676 0.289352 0.289352 0.072338 0.144676 0.144676 0.144676 0.072338 0.144676 0.289352 0.144676 0.289352 0.289352 0.072338 0.144676 0.144676 0.144676 0.072338 0.144676 0.289352 0.144676 0.289352 0.289352 0.072338 0.144676 0.144676 0.144676 0.072338 0.144676 0.289352 0.144676 0.289352 0.289352 0.072338 0.144676 0.144676 0.144676 0.072338 0.144676 0.289352 0.144676 0.289352 0.289352 0.072338 0.144676 0.144676 0.144676 0.072338 0.144676 0.289352 0.144676 0.289352 0.289352 0.072338 0.144676 0.144676 0.144676 0.072338 0.144676 0.289352 0.144676 0.289352 0.289352 0.072338 0.144676 0.144676 0.144676 0.072338 0.144676 0.289352 0.144676 0.289352 0.289352 0.0723379 0.144676 0.144676 0.144676 0.0723379 0.144676 0.289352 0.144676 0.289352 0.289352 0.072338 0.144676 0.144676 0.144676 0.072338 0.144676 0.289352 0.144676 0.289352 0.289352 0.072338 0.144676 0.144676 0.144676 0.072338 0.144676 0.289352 0.144676 0.289352 0.289352 0.072338 0.144676 0.144676 0.144676 0.072338 0.144676 0.289352 0.144676 0.289352 0.289352 0.0723379 0.144676 0.144676 0.144676 0.0723379 0.144676 0.289352 0.144676 0.289352 0.289352 0.072338 0.144676 0.144676 0.144676 0.072338 0.144676 0.289352 0.144676 0.289352 0.289352 0.072338 0.144676 0.144676 0.144676 0.072338 0.144676 0.289352 0.144676 0.289352 0.289352 0.072338 0.144676 0.144676 0.144676 0.072338 0.144676 0.289352 0.144676 0.289352 0.289352 0.0723379 0.144676 0.144676 0.144676 0.0723379 0.144676 0.289352 0.144676 0.289352 0.289352 0.0723379 0.144676 0.144676 0.144676 0.0723379 0.144676 0.289352 0.144676 0.289352 0.289352 0.072338 0.144676 0.144676 0.144676 0.072338 0.144676 0.289352 0.144676 0.289352 0.289352 0.0723379 0.144676 0.144676 0.144676 0.0723379 0.144676 0.289352 0.144676 0.289352 0.289352 0.0723379 0.144676 0.144676 0.144676 0.0723379 0.072338 0.144676 0.144676 0.144676 0.289352 0.072338 0.072338 0.144676 0.144676 0.072338 0.072338 0.144676 0.289352 0.144676 0.144676 0.289352 0.289352 0.144676 0.072338 0.144676 0.144676 0.072338 0.144676 0.072338 0.144676 0.289352 0.144676 0.289352 0.289352 0.072338 0.144676 0.144676 0.144676 0.072338 0.144676 0.289352 0.144676 0.289352 0.289352 0.072338 0.144676 0.144676 0.144676 0.072338 0.144676 0.289352 0.144676 0.289352 0.289352 0.072338 0.144676 0.144676 0.144676 0.072338 0.144676 0.289352 0.144676 0.289352 0.289352 0.072338 0.144676 0.144676 0.144676 0.072338 0.144676 0.289352 0.144676 0.289352 0.289352 0.072338 0.144676 0.144676 0.144676 0.072338 0.144676 0.289352 0.144676 0.289352 0.289352 0.072338 0.144676 0.144676 0.144676 0.072338 0.144676 0.289352 0.144676 0.289352 0.289352 0.072338 0.144676 0.144676 0.144676 0.072338 0.144676 0.289352 0.144676 0.289352 0.289352 0.072338 0.144676 0.144676 0.144676 0.072338 0.144676 0.289352 0.144676 0.289352 0.289352 0.072338 0.144676 0.144676 0.144676 0.072338 0.144676 0.289352 0.144676 0.289352 0.289352 0.0723379 0.144676 0.144676 0.144676 0.0723379 0.144676 0.289352 0.144676 0.289352 0.289352 0.072338 0.144676 0.144676 0.144676 0.072338 0.144676 0.289352 0.144676 0.289352 0.289352 0.072338 0.144676 0.144676 0.144676 0.072338 0.144676 0.289352 0.144676 0.289352 0.289352 0.072338 0.144676 0.144676 0.144676 0.072338 0.144676 0.289352 0.144676 0.289352 0.289352 0.0723379 0.144676 0.144676 0.144676 0.0723379 0.144676 0.289352 0.144676 0.289352 0.289352 0.072338 0.144676 0.144676 0.144676 0.072338 0.144676 0.289352 0.144676 0.289352 0.289352 0.072338 0.144676 0.144676 0.144676 0.072338 0.144676 0.289352 0.144676 0.289352 0.289352 0.072338 0.144676 0.144676 0.144676 0.072338 0.144676 0.289352 0.144676 0.289352 0.289352 0.0723379 0.144676 0.144676 0.144676 0.0723379 0.144676 0.289352 0.144676 0.289352 0.289352 0.0723379 0.144676 0.144676 0.144676 0.0723379 0.144676 0.289352 0.144676 0.289352 0.289352 0.072338 0.144676 0.144676 0.144676 0.072338 0.144676 0.289352 0.144676 0.289352 0.289352 0.072338 0.144676 0.144676 0.144676 0.072338 0.144676 0.289352 0.144676 0.289352 0.289352 0.0723379 0.144676 0.144676 0.144676 0.0723379 0.072338 0.144676 0.144676 0.144676 0.289352 0.072338 0.072338 0.144676 0.144676 0.072338 0.072338 0.144676 0.289352 0.144676 0.144676 0.289352 0.289352 0.144676 0.072338 0.144676 0.144676 0.072338 0.144676 0.072338 0.144676 0.289352 0.144676 0.289352 0.289352 0.072338 0.144676 0.144676 0.144676 0.072338 0.144676 0.289352 0.144676 0.289352 0.289352 0.072338 0.144676 0.144676 0.144676 0.072338 0.144676 0.289352 0.144676 0.289352 0.289352 0.072338 0.144676 0.144676 0.144676 0.072338 0.144676 0.289352 0.144676 0.289352 0.289352 0.072338 0.144676 0.144676 0.144676 0.072338 0.144676 0.289352 0.144676 0.289352 0.289352 0.072338 0.144676 0.144676 0.144676 0.072338 0.144676 0.289352 0.144676 0.289352 0.289352 0.072338 0.144676 0.144676 0.144676 0.072338 0.144676 0.289352 0.144676 0.289352 0.289352 0.072338 0.144676 0.144676 0.144676 0.072338 0.144676 0.289352 0.144676 0.289352 0.289352 0.072338 0.144676 0.144676 0.144676 0.072338 0.144676 0.289352 0.144676 0.289352 0.289352 0.072338 0.144676 0.144676 0.144676 0.072338 0.144676 0.289352 0.144676 0.289352 0.289352 0.072338 0.144676 0.144676 0.144676 0.072338 0.144676 0.289352 0.144676 0.289352 0.289352 0.072338 0.144676 0.144676 0.144676 0.072338 0.144676 0.289352 0.144676 0.289352 0.289352 0.072338 0.144676 0.144676 0.144676 0.072338 0.144676 0.289352 0.144676 0.289352 0.289352 0.072338 0.144676 0.144676 0.144676 0.072338 0.144676 0.289352 0.144676 0.289352 0.289352 0.0723379 0.144676 0.144676 0.144676 0.0723379 0.144676 0.289352 0.144676 0.289352 0.289352 0.072338 0.144676 0.144676 0.144676 0.072338 0.144676 0.289352 0.144676 0.289352 0.289352 0.072338 0.144676 0.144676 0.144676 0.072338 0.144676 0.289352 0.144676 0.289352 0.289352 0.072338 0.144676 0.144676 0.144676 0.072338 0.144676 0.289352 0.144676 0.289352 0.289352 0.0723379 0.144676 0.144676 0.144676 0.0723379 0.144676 0.289352 0.144676 0.289352 0.289352 0.0723379 0.144676 0.144676 0.144676 0.0723379 0.144676 0.289352 0.144676 0.289352 0.289352 0.072338 0.144676 0.144676 0.144676 0.072338 0.144676 0.289352 0.144676 0.289352 0.289352 0.072338 0.144676 0.144676 0.144676 0.072338 0.144676 0.289352 0.144676 0.289352 0.289352 0.072338 0.144676 0.144676 0.144676 0.072338 0.072338 0.144676 0.144676 0.144676 0.289352 0.072338 0.072338 0.144676 0.144676 0.072338 0.072338 0.144676 0.289352 0.144676 0.144676 0.289352 0.289352 0.144676 0.072338 0.144676 0.144676 0.072338 0.144676 0.072338 0.144676 0.289352 0.144676 0.289352 0.289352 0.072338 0.144676 0.144676 0.144676 0.072338 0.144676 0.289352 0.144676 0.289352 0.289352 0.072338 0.144676 0.144676 0.144676 0.072338 0.144676 0.289352 0.144676 0.289352 0.289352 0.072338 0.144676 0.144676 0.144676 0.072338 0.144676 0.289352 0.144676 0.289352 0.289352 0.072338 0.144676 0.144676 0.144676 0.072338 0.144676 0.289352 0.144676 0.289352 0.289352 0.072338 0.144676 0.144676 0.144676 0.072338 0.144676 0.289352 0.144676 0.289352 0.289352 0.072338 0.144676 0.144676 0.144676 0.072338 0.144676 0.289352 0.144676 0.289352 0.289352 0.072338 0.144676 0.144676 0.144676 0.072338 0.144676 0.289352 0.144676 0.289352 0.289352 0.072338 0.144676 0.144676 0.144676 0.072338 0.144676 0.289352 0.144676 0.289352 0.289352 0.072338 0.144676 0.144676 0.144676 0.072338 0.144676 0.289352 0.144676 0.289352 0.289352 0.072338 0.144676 0.144676 0.144676 0.072338 0.144676 0.289352 0.144676 0.289352 0.289352 0.072338 0.144676 0.144676 0.144676 0.072338 0.144676 0.289352 0.144676 0.289352 0.289352 0.072338 0.144676 0.144676 0.144676 0.072338 0.144676 0.289352 0.144676 0.289352 0.289352 0.072338 0.144676 0.144676 0.144676 0.072338 0.144676 0.289352 0.144676 0.289352 0.289352 0.072338 0.144676 0.144676 0.144676 0.072338 0.144676 0.289352 0.144676 0.289352 0.289352 0.072338 0.144676 0.144676 0.144676 0.072338 0.144676 0.289352 0.144676 0.289352 0.289352 0.072338 0.144676 0.144676 0.144676 0.072338 0.144676 0.289352 0.144676 0.289352 0.289352 0.072338 0.144676 0.144676 0.144676 0.072338 0.144676 0.289352 0.144676 0.289352 0.289352 0.0723379 0.144676 0.144676 0.144676 0.0723379 0.144676 0.289352 0.144676 0.289352 0.289352 0.0723379 0.144676 0.144676 0.144676 0.0723379 0.144676 0.289352 0.144676 0.289352 0.289352 0.072338 0.144676 0.144676 0.144676 0.072338 0.144676 0.289352 0.144676 0.289352 0.289352 0.072338 0.144676 0.144676 0.144676 0.072338 0.144676 0.289352 0.144676 0.289352 0.289352 0.0723379 0.144676 0.144676 0.144676 0.0723379 0.072338 0.144676 0.144676 0.144676 0.289352 0.072338 0.072338 0.144676 0.144676 0.072338 0.072338 0.144676 0.289352 0.144676 0.072338 0.144676 0.144676 0.072338 0.072338 0.144676 0.144676 0.072338 0.072338 0.072338 0.144676 0.289352 0.072338 0.144676 0.144676 0.072338 0.144676 0.144676 0.072338 0.072338 0.144676 0.289352 0.072338 0.144676 0.144676 0.072338 0.144676 0.144676 0.072338 0.072338 0.144676 0.289352 0.0723379 0.144676 0.144676 0.0723379 0.144676 0.144676 0.0723379 0.0723379 0.144676 0.289352 0.072338 0.144676 0.144676 0.072338 0.144676 0.144676 0.072338 0.072338 0.144676 0.289352 0.072338 0.144676 0.144676 0.072338 0.144676 0.144676 0.072338 0.072338 0.144676 0.289352 0.072338 0.144676 0.144676 0.072338 0.144676 0.144676 0.072338 0.072338 0.144676 0.289352 0.072338 0.144676 0.144676 0.072338 0.144676 0.144676 0.072338 0.072338 0.144676 0.289352 0.072338 0.144676 0.144676 0.072338 0.144676 0.144676 0.072338 0.072338 0.144676 0.289352 0.0723379 0.144676 0.144676 0.0723379 0.144676 0.144676 0.0723379 0.0723379 0.144676 0.289352 0.0723379 0.144676 0.144676 0.0723379 0.144676 0.144676 0.0723379 0.0723379 0.144676 0.289352 0.072338 0.144676 0.144676 0.072338 0.144676 0.144676 0.072338 0.072338 0.144676 0.289352 0.072338 0.144676 0.144676 0.072338 0.144676 0.144676 0.072338 0.072338 0.144676 0.289352 0.072338 0.144676 0.144676 0.072338 0.144676 0.144676 0.072338 0.072338 0.144676 0.289352 0.0723379 0.144676 0.144676 0.0723379 0.144676 0.144676 0.0723379 0.0723379 0.144676 0.289352 0.072338 0.144676 0.144676 0.072338 0.144676 0.144676 0.072338 0.072338 0.144676 0.289352 0.072338 0.144676 0.144676 0.072338 0.144676 0.144676 0.072338 0.072338 0.144676 0.289352 0.0723379 0.144676 0.144676 0.0723379 0.144676 0.144676 0.0723379 0.0723379 0.144676 0.289352 0.0723379 0.144676 0.144676 0.0723379 0.144676 0.144676 0.0723379 0.0723379 0.144676 0.289352 0.0723379 0.144676 0.144676 0.0723379 0.144676 0.144676 0.0723379 0.0723379 0.144676 0.289352 0.072338 0.144676 0.144676 0.072338 0.144676 0.144676 0.072338 0.072338 0.144676 0.289352 0.0723379 0.144676 0.144676 0.0723379 0.144676 0.144676 0.0723379 0.0723379 0.144676 0.289352 0.0723379 0.144676 0.144676 0.0723379 0.144676 0.144676 0.0723379 0.0723379 0.072338 0.144676 0.072338 0.072338 0.144676 0.072338 0.072338 0.144676 0.072338 0.072338 0.144676 0.144676 0.072338 0.289352 0.144676 0.289352 0.289352 0.144676 0.072338 0.144676 0.144676 0.072338 0.144676 0.072338 0.144676 0.144676 0.289352 0.289352 0.289352 0.072338 0.144676 0.144676 0.144676 0.072338 0.144676 0.144676 0.289352 0.289352 0.289352 0.072338 0.144676 0.144676 0.144676 0.072338 0.144676 0.144676 0.289352 0.289352 0.289352 0.0723379 0.144676 0.144676 0.144676 0.0723379 0.144676 0.144676 0.289352 0.289352 0.289352 0.072338 0.144676 0.144676 0.144676 0.072338 0.144676 0.144676 0.289352 0.289352 0.289352 0.072338 0.144676 0.144676 0.144676 0.072338 0.144676 0.144676 0.289352 0.289352 0.289352 0.072338 0.144676 0.144676 0.144676 0.072338 0.144676 0.144676 0.289352 0.289352 0.289352 0.072338 0.144676 0.144676 0.144676 0.072338 0.144676 0.144676 0.289352 0.289352 0.289352 0.072338 0.144676 0.144676 0.144676 0.072338 0.144676 0.144676 0.289352 0.289352 0.289352 0.0723379 0.144676 0.144676 0.144676 0.0723379 0.144676 0.144676 0.289352 0.289352 0.289352 0.0723379 0.144676 0.144676 0.144676 0.0723379 0.144676 0.144676 0.289352 0.289352 0.289352 0.072338 0.144676 0.144676 0.144676 0.072338 0.144676 0.144676 0.289352 0.289352 0.289352 0.072338 0.144676 0.144676 0.144676 0.072338 0.144676 0.144676 0.289352 0.289352 0.289352 0.072338 0.144676 0.144676 0.144676 0.072338 0.144676 0.144676 0.289352 0.289352 0.289352 0.0723379 0.144676 0.144676 0.144676 0.0723379 0.144676 0.144676 0.289352 0.289352 0.289352 0.072338 0.144676 0.144676 0.144676 0.072338 0.144676 0.144676 0.289352 0.289352 0.289352 0.072338 0.144676 0.144676 0.144676 0.072338 0.144676 0.144676 0.289352 0.289352 0.289352 0.0723379 0.144676 0.144676 0.144676 0.0723379 0.144676 0.144676 0.289352 0.289352 0.289352 0.0723379 0.144676 0.144676 0.144676 0.0723379 0.144676 0.144676 0.289352 0.289352 0.289352 0.0723379 0.144676 0.144676 0.144676 0.0723379 0.144676 0.144676 0.289352 0.289352 0.289352 0.072338 0.144676 0.144676 0.144676 0.072338 0.144676 0.144676 0.289352 0.289352 0.289352 0.0723379 0.144676 0.144676 0.144676 0.0723379 0.144676 0.144676 0.289352 0.289352 0.289352 0.0723379 0.144676 0.144676 0.144676 0.0723379 0.072338 0.144676 0.144676 0.144676 0.289352 0.072338 0.072338 0.144676 0.144676 0.072338 0.289352 0.144676 0.289352 0.289352 0.144676 0.144676 0.144676 0.072338 0.144676 0.072338 0.289352 0.289352 0.289352 0.144676 0.144676 0.144676 0.072338 0.289352 0.289352 0.289352 0.144676 0.144676 0.144676 0.072338 0.289352 0.289352 0.289352 0.144676 0.144676 0.144676 0.0723379 0.289352 0.289352 0.289352 0.144676 0.144676 0.144676 0.072338 0.289352 0.289352 0.289352 0.144676 0.144676 0.144676 0.072338 0.289352 0.289352 0.289352 0.144676 0.144676 0.144676 0.072338 0.289352 0.289352 0.289352 0.144676 0.144676 0.144676 0.0723379 0.289352 0.289352 0.289352 0.144676 0.144676 0.144676 0.072338 0.289352 0.289352 0.289352 0.144676 0.144676 0.144676 0.0723379 0.289352 0.289352 0.289352 0.144676 0.144676 0.144676 0.0723379 0.289352 0.289352 0.289352 0.144676 0.144676 0.144676 0.072338 0.289352 0.289352 0.289352 0.144676 0.144676 0.144676 0.072338 0.289352 0.289352 0.289352 0.144676 0.144676 0.144676 0.072338 0.289352 0.289352 0.289352 0.144676 0.144676 0.144676 0.0723379 0.289352 0.289352 0.289352 0.144676 0.144676 0.144676 0.072338 0.289352 0.289352 0.289352 0.144676 0.144676 0.144676 0.072338 0.289352 0.289352 0.289352 0.144676 0.144676 0.144676 0.0723379 0.289352 0.289352 0.289352 0.144676 0.144676 0.144676 0.0723379 0.289352 0.289352 0.289352 0.144676 0.144676 0.144676 0.0723379 0.289352 0.289352 0.289352 0.144676 0.144676 0.144676 0.072338 0.289352 0.289352 0.289352 0.144676 0.144676 0.144676 0.0723379 0.289352 0.289352 0.289352 0.144676 0.144676 0.144676 0.0723379 0.144676 0.144676 0.289352 0.072338 0.144676 0.144676 0.072338 0.289352 0.144676 0.289352 0.289352 0.144676 0.144676 0.144676 0.072338 0.144676 0.072338 0.289352 0.289352 0.289352 0.144676 0.144676 0.144676 0.072338 0.289352 0.289352 0.289352 0.144676 0.144676 0.144676 0.072338 0.289352 0.289352 0.289352 0.144676 0.144676 0.144676 0.072338 0.289352 0.289352 0.289352 0.144676 0.144676 0.144676 0.072338 0.289352 0.289352 0.289352 0.144676 0.144676 0.144676 0.072338 0.289352 0.289352 0.289352 0.144676 0.144676 0.144676 0.072338 0.289352 0.289352 0.289352 0.144676 0.144676 0.144676 0.072338 0.289352 0.289352 0.289352 0.144676 0.144676 0.144676 0.072338 0.289352 0.289352 0.289352 0.144676 0.144676 0.144676 0.0723379 0.289352 0.289352 0.289352 0.144676 0.144676 0.144676 0.0723379 0.289352 0.289352 0.289352 0.144676 0.144676 0.144676 0.072338 0.289352 0.289352 0.289352 0.144676 0.144676 0.144676 0.072338 0.289352 0.289352 0.289352 0.144676 0.144676 0.144676 0.072338 0.289352 0.289352 0.289352 0.144676 0.144676 0.144676 0.0723379 0.289352 0.289352 0.289352 0.144676 0.144676 0.144676 0.072338 0.289352 0.289352 0.289352 0.144676 0.144676 0.144676 0.072338 0.289352 0.289352 0.289352 0.144676 0.144676 0.144676 0.0723379 0.289352 0.289352 0.289352 0.144676 0.144676 0.144676 0.0723379 0.289352 0.289352 0.289351 0.144676 0.144676 0.144676 0.0723379 0.289352 0.289352 0.289352 0.144676 0.144676 0.144676 0.072338 0.289352 0.289352 0.289352 0.144676 0.144676 0.144676 0.0723379 0.289352 0.289352 0.289352 0.144676 0.144676 0.144676 0.0723379 0.144676 0.144676 0.289352 0.072338 0.144676 0.144676 0.072338 0.289352 0.144676 0.289352 0.289352 0.144676 0.144676 0.144676 0.0723379 0.144676 0.0723379 0.289352 0.289352 0.289352 0.144676 0.144676 0.144676 0.072338 0.289352 0.289352 0.289352 0.144676 0.144676 0.144676 0.072338 0.289352 0.289352 0.289352 0.144676 0.144676 0.144676 0.0723379 0.289352 0.289352 0.289352 0.144676 0.144676 0.144676 0.0723379 0.289352 0.289352 0.289352 0.144676 0.144676 0.144676 0.072338 0.289352 0.289352 0.289352 0.144676 0.144676 0.144676 0.072338 0.289352 0.289352 0.289352 0.144676 0.144676 0.144676 0.0723379 0.289352 0.289352 0.289352 0.144676 0.144676 0.144676 0.0723379 0.289352 0.289352 0.289352 0.144676 0.144676 0.144676 0.0723379 0.289352 0.289352 0.289352 0.144676 0.144676 0.144676 0.0723379 0.289352 0.289352 0.289352 0.144676 0.144676 0.144676 0.072338 0.289352 0.289352 0.289352 0.144676 0.144676 0.144676 0.0723379 0.289352 0.289352 0.289352 0.144676 0.144676 0.144676 0.072338 0.289352 0.289352 0.289352 0.144676 0.144676 0.144676 0.0723379 0.289352 0.289352 0.289352 0.144676 0.144676 0.144676 0.072338 0.289352 0.289352 0.289352 0.144676 0.144676 0.144676 0.072338 0.289352 0.289352 0.289352 0.144676 0.144676 0.144676 0.0723379 0.289352 0.289352 0.289352 0.144676 0.144676 0.144676 0.0723379 0.289352 0.289352 0.289351 0.144676 0.144676 0.144676 0.0723379 0.289352 0.289352 0.289352 0.144676 0.144676 0.144676 0.072338 0.289352 0.289352 0.289352 0.144676 0.144676 0.144676 0.0723379 0.289352 0.289352 0.289352 0.144676 0.144676 0.144676 0.0723379 0.144676 0.144676 0.289352 0.072338 0.144676 0.144676 0.072338 0.289352 0.144676 0.289352 0.289352 0.144676 0.144676 0.144676 0.072338 0.144676 0.072338 0.289352 0.289352 0.289352 0.144676 0.144676 0.144676 0.072338 0.289352 0.289352 0.289352 0.144676 0.144676 0.144676 0.072338 0.289352 0.289352 0.289352 0.144676 0.144676 0.144676 0.0723379 0.289352 0.289352 0.289352 0.144676 0.144676 0.144676 0.0723379 0.289352 0.289352 0.289352 0.144676 0.144676 0.144676 0.072338 0.289352 0.289352 0.289352 0.144676 0.144676 0.144676 0.072338 0.289352 0.289352 0.289352 0.144676 0.144676 0.144676 0.0723379 0.289352 0.289352 0.289352 0.144676 0.144676 0.144676 0.072338 0.289352 0.289352 0.289352 0.144676 0.144676 0.144676 0.0723379 0.289352 0.289352 0.289352 0.144676 0.144676 0.144676 0.0723379 0.289352 0.289352 0.289352 0.144676 0.144676 0.144676 0.072338 0.289352 0.289352 0.289352 0.144676 0.144676 0.144676 0.0723379 0.289352 0.289352 0.289352 0.144676 0.144676 0.144676 0.072338 0.289352 0.289352 0.289352 0.144676 0.144676 0.144676 0.0723379 0.289352 0.289352 0.289352 0.144676 0.144676 0.144676 0.072338 0.289352 0.289352 0.289352 0.144676 0.144676 0.144676 0.072338 0.289352 0.289352 0.289352 0.144676 0.144676 0.144676 0.0723379 0.289352 0.289352 0.289352 0.144676 0.144676 0.144676 0.0723379 0.289352 0.289352 0.289352 0.144676 0.144676 0.144676 0.0723379 0.289352 0.289352 0.289352 0.144676 0.144676 0.144676 0.072338 0.289352 0.289352 0.289352 0.144676 0.144676 0.144676 0.0723379 0.289352 0.289352 0.289352 0.144676 0.144676 0.144676 0.0723379 0.144676 0.144676 0.289352 0.072338 0.144676 0.144676 0.072338 0.289352 0.144676 0.289352 0.289352 0.144676 0.144676 0.144676 0.072338 0.144676 0.072338 0.289352 0.289352 0.289352 0.144676 0.144676 0.144676 0.072338 0.289352 0.289352 0.289352 0.144676 0.144676 0.144676 0.072338 0.289352 0.289352 0.289352 0.144676 0.144676 0.144676 0.072338 0.289352 0.289352 0.289352 0.144676 0.144676 0.144676 0.072338 0.289352 0.289352 0.289352 0.144676 0.144676 0.144676 0.072338 0.289352 0.289352 0.289352 0.144676 0.144676 0.144676 0.072338 0.289352 0.289352 0.289352 0.144676 0.144676 0.144676 0.072338 0.289352 0.289352 0.289352 0.144676 0.144676 0.144676 0.072338 0.289352 0.289352 0.289352 0.144676 0.144676 0.144676 0.0723379 0.289352 0.289352 0.289352 0.144676 0.144676 0.144676 0.0723379 0.289352 0.289352 0.289352 0.144676 0.144676 0.144676 0.072338 0.289352 0.289352 0.289352 0.144676 0.144676 0.144676 0.072338 0.289352 0.289352 0.289352 0.144676 0.144676 0.144676 0.072338 0.289352 0.289352 0.289352 0.144676 0.144676 0.144676 0.0723379 0.289352 0.289352 0.289352 0.144676 0.144676 0.144676 0.072338 0.289352 0.289352 0.289352 0.144676 0.144676 0.144676 0.072338 0.289352 0.289352 0.289352 0.144676 0.144676 0.144676 0.0723379 0.289352 0.289352 0.289352 0.144676 0.144676 0.144676 0.0723379 0.289352 0.289352 0.289352 0.144676 0.144676 0.144676 0.0723379 0.289352 0.289352 0.289352 0.144676 0.144676 0.144676 0.072338 0.289352 0.289352 0.289352 0.144676 0.144676 0.144676 0.0723379 0.289352 0.289352 0.289352 0.144676 0.144676 0.144676 0.0723379 0.144676 0.144676 0.289352 0.072338 0.144676 0.144676 0.072338 0.289352 0.144676 0.289352 0.289352 0.144676 0.144676 0.144676 0.072338 0.144676 0.072338 0.289352 0.289352 0.289352 0.144676 0.144676 0.144676 0.072338 0.289352 0.289352 0.289352 0.144676 0.144676 0.144676 0.072338 0.289352 0.289352 0.289352 0.144676 0.144676 0.144676 0.072338 0.289352 0.289352 0.289352 0.144676 0.144676 0.144676 0.072338 0.289352 0.289352 0.289352 0.144676 0.144676 0.144676 0.072338 0.289352 0.289352 0.289352 0.144676 0.144676 0.144676 0.072338 0.289352 0.289352 0.289352 0.144676 0.144676 0.144676 0.072338 0.289352 0.289352 0.289352 0.144676 0.144676 0.144676 0.072338 0.289352 0.289352 0.289352 0.144676 0.144676 0.144676 0.0723379 0.289352 0.289352 0.289352 0.144676 0.144676 0.144676 0.0723379 0.289352 0.289352 0.289352 0.144676 0.144676 0.144676 0.072338 0.289352 0.289352 0.289352 0.144676 0.144676 0.144676 0.072338 0.289352 0.289352 0.289352 0.144676 0.144676 0.144676 0.072338 0.289352 0.289352 0.289352 0.144676 0.144676 0.144676 0.0723379 0.289352 0.289352 0.289352 0.144676 0.144676 0.144676 0.072338 0.289352 0.289352 0.289352 0.144676 0.144676 0.144676 0.072338 0.289352 0.289352 0.289352 0.144676 0.144676 0.144676 0.072338 0.289352 0.289352 0.289352 0.144676 0.144676 0.144676 0.0723379 0.289352 0.289352 0.289351 0.144676 0.144676 0.144676 0.0723379 0.289352 0.289352 0.289352 0.144676 0.144676 0.144676 0.072338 0.289352 0.289352 0.289352 0.144676 0.144676 0.144676 0.0723379 0.289352 0.289352 0.289352 0.144676 0.144676 0.144676 0.0723379 0.144676 0.144676 0.289352 0.072338 0.144676 0.144676 0.072338 0.289352 0.144676 0.144676 0.144676 0.0723379 0.144676 0.144676 0.0723379 0.0723379 0.0723379 0.289352 0.144676 0.144676 0.144676 0.144676 0.0723379 0.0723379 0.289352 0.144676 0.144676 0.144676 0.144676 0.072338 0.072338 0.289352 0.144676 0.144676 0.144676 0.144676 0.0723379 0.0723379 0.289352 0.144676 0.144676 0.144676 0.144676 0.0723379 0.0723379 0.289352 0.144676 0.144676 0.144676 0.144676 0.0723379 0.0723379 0.289352 0.144676 0.144676 0.144676 0.144676 0.0723379 0.0723379 0.289352 0.144676 0.144676 0.144676 0.144676 0.0723379 0.0723379 0.289352 0.144676 0.144676 0.144676 0.144676 0.0723379 0.0723379 0.289352 0.144676 0.144676 0.144676 0.144676 0.0723379 0.0723379 0.289352 0.144676 0.144676 0.144676 0.144676 0.0723379 0.0723379 0.289352 0.144676 0.144676 0.144676 0.144676 0.0723379 0.0723379 0.289352 0.144676 0.144676 0.144676 0.144676 0.0723379 0.0723379 0.289352 0.144676 0.144676 0.144676 0.144676 0.072338 0.072338 0.289352 0.144676 0.144676 0.144676 0.144676 0.0723379 0.0723379 0.289352 0.144676 0.144676 0.144676 0.144676 0.072338 0.072338 0.289352 0.144676 0.144676 0.144676 0.144676 0.0723379 0.0723379 0.289352 0.144676 0.144676 0.144676 0.144676 0.0723379 0.0723379 0.289351 0.144676 0.144676 0.144676 0.144676 0.0723379 0.0723379 0.289352 0.144676 0.144676 0.144676 0.144676 0.0723379 0.0723379 0.289352 0.144676 0.144676 0.144676 0.144676 0.072338 0.072338 0.289352 0.144676 0.144676 0.144676 0.144676 0.0723379 0.0723379 0.289352 0.144676 0.144676 0.144676 0.144676 0.0723379 0.0723379 0.144676 0.072338 0.144676 0.072338 0.144676 0.072338 0.072338 0.144676 0.144676 0.0723379 0.289352 0.144676 0.289352 0.289352 0.144676 0.0723379 0.144676 0.144676 0.0723379 0.144676 0.0723379 0.144676 0.144676 0.289352 0.289352 0.289352 0.0723379 0.144676 0.144676 0.144676 0.0723379 0.144676 0.144676 0.289352 0.289352 0.289352 0.0723379 0.144676 0.144676 0.144676 0.0723379 0.144676 0.144676 0.289352 0.289352 0.289352 0.0723379 0.144676 0.144676 0.144676 0.0723379 0.144676 0.144676 0.289352 0.289352 0.289352 0.0723379 0.144676 0.144676 0.144676 0.0723379 0.144676 0.144676 0.289352 0.289352 0.289352 0.0723379 0.144676 0.144676 0.144676 0.0723379 0.144676 0.144676 0.289352 0.289352 0.289352 0.0723379 0.144676 0.144676 0.144676 0.0723379 0.144676 0.144676 0.289352 0.289352 0.289352 0.0723379 0.144676 0.144676 0.144676 0.0723379 0.144676 0.144676 0.289352 0.289352 0.289352 0.0723379 0.144676 0.144676 0.144676 0.0723379 0.144676 0.144676 0.289352 0.289352 0.289352 0.0723379 0.144676 0.144676 0.144676 0.0723379 0.144676 0.144676 0.289352 0.289352 0.289352 0.0723379 0.144676 0.144676 0.144676 0.0723379 0.144676 0.144676 0.289352 0.289352 0.289352 0.0723379 0.144676 0.144676 0.144676 0.0723379 0.144676 0.144676 0.289352 0.289352 0.289352 0.0723379 0.144676 0.144676 0.144676 0.0723379 0.144676 0.144676 0.289352 0.289352 0.289352 0.0723379 0.144676 0.144676 0.144676 0.0723379 0.144676 0.144676 0.289352 0.289352 0.289352 0.0723379 0.144676 0.144676 0.144676 0.0723379 0.144676 0.144676 0.289352 0.289352 0.289352 0.0723379 0.144676 0.144676 0.144676 0.0723379 0.144676 0.144676 0.289352 0.289352 0.289352 0.0723379 0.144676 0.144676 0.144676 0.0723379 0.144676 0.144676 0.289352 0.289352 0.289352 0.0723379 0.144676 0.144676 0.144676 0.0723379 0.144676 0.144676 0.289352 0.289352 0.289352 0.0723379 0.144676 0.144676 0.144676 0.0723379 0.144676 0.144676 0.289352 0.289352 0.289352 0.0723379 0.144676 0.144676 0.144676 0.0723379 0.144676 0.144676 0.289352 0.289352 0.289352 0.0723379 0.144676 0.144676 0.144676 0.0723379 0.144676 0.144676 0.289352 0.289352 0.289352 0.0723379 0.144676 0.144676 0.144676 0.0723379 0.144676 0.144676 0.289352 0.289352 0.289352 0.0723379 0.144676 0.144676 0.144676 0.0723379 0.0723379 0.144676 0.144676 0.144676 0.289352 0.0723379 0.0723379 0.144676 0.144676 0.0723379 0.289352 0.144676 0.289352 0.289352 0.144676 0.144676 0.144676 0.0723379 0.144676 0.0723379 0.289352 0.289352 0.289352 0.144676 0.144676 0.144676 0.0723379 0.289352 0.289352 0.289352 0.144676 0.144676 0.144676 0.0723379 0.289352 0.289352 0.289352 0.144676 0.144676 0.144676 0.0723379 0.289352 0.289352 0.289352 0.144676 0.144676 0.144676 0.0723379 0.289352 0.289352 0.289352 0.144676 0.144676 0.144676 0.0723379 0.289352 0.289352 0.289352 0.144676 0.144676 0.144676 0.0723379 0.289352 0.289352 0.289352 0.144676 0.144676 0.144676 0.0723379 0.289352 0.289352 0.289352 0.144676 0.144676 0.144676 0.0723379 0.289352 0.289352 0.289352 0.144676 0.144676 0.144676 0.0723379 0.289352 0.289352 0.289352 0.144676 0.144676 0.144676 0.0723379 0.289352 0.289352 0.289352 0.144676 0.144676 0.144676 0.0723379 0.289352 0.289352 0.289352 0.144676 0.144676 0.144676 0.0723379 0.289352 0.289352 0.289352 0.144676 0.144676 0.144676 0.0723379 0.289352 0.289352 0.289352 0.144676 0.144676 0.144676 0.0723379 0.289352 0.289352 0.289352 0.144676 0.144676 0.144676 0.0723379 0.289352 0.289352 0.289352 0.144676 0.144676 0.144676 0.0723379 0.289352 0.289352 0.289352 0.144676 0.144676 0.144676 0.0723379 0.289352 0.289351 0.289352 0.144676 0.144676 0.144676 0.0723379 0.289352 0.289352 0.289352 0.144676 0.144676 0.144676 0.0723379 0.289352 0.289352 0.289352 0.144676 0.144676 0.144676 0.0723379 0.289352 0.289352 0.289352 0.144676 0.144676 0.144676 0.0723379 0.289352 0.289352 0.289352 0.144676 0.144676 0.144676 0.0723379 0.144676 0.144676 0.289352 0.0723379 0.144676 0.144676 0.0723379 0.289352 0.144676 0.289352 0.289352 0.144676 0.144676 0.144676 0.0723379 0.144676 0.0723379 0.289352 0.289352 0.289352 0.144676 0.144676 0.144676 0.0723379 0.289352 0.289352 0.289352 0.144676 0.144676 0.144676 0.0723379 0.289352 0.289352 0.289352 0.144676 0.144676 0.144676 0.0723379 0.289352 0.289352 0.289352 0.144676 0.144676 0.144676 0.0723379 0.289352 0.289352 0.289352 0.144676 0.144676 0.144676 0.0723379 0.289352 0.289352 0.289352 0.144676 0.144676 0.144676 0.0723379 0.289352 0.289352 0.289352 0.144676 0.144676 0.144676 0.0723379 0.289352 0.289352 0.289352 0.144676 0.144676 0.144676 0.0723379 0.289352 0.289352 0.289352 0.144676 0.144676 0.144676 0.0723379 0.289352 0.289352 0.289352 0.144676 0.144676 0.144676 0.0723379 0.289352 0.289352 0.289352 0.144676 0.144676 0.144676 0.0723379 0.289352 0.289352 0.289352 0.144676 0.144676 0.144676 0.0723379 0.289352 0.289352 0.289352 0.144676 0.144676 0.144676 0.0723379 0.289352 0.289352 0.289352 0.144676 0.144676 0.144676 0.0723379 0.289352 0.289352 0.289352 0.144676 0.144676 0.144676 0.0723379 0.289352 0.289352 0.289352 0.144676 0.144676 0.144676 0.0723379 0.289352 0.289352 0.289352 0.144676 0.144676 0.144676 0.0723379 0.289352 0.289351 0.289352 0.144676 0.144676 0.144676 0.0723379 0.289352 0.289352 0.289352 0.144676 0.144676 0.144676 0.0723379 0.289352 0.289352 0.289352 0.144676 0.144676 0.144676 0.0723379 0.289352 0.289352 0.289352 0.144676 0.144676 0.144676 0.0723379 0.289352 0.289352 0.289352 0.144676 0.144676 0.144676 0.0723379 0.144676 0.144676 0.289352 0.0723379 0.144676 0.144676 0.0723379 0.289352 0.144676 0.289352 0.289352 0.144676 0.144676 0.144676 0.0723379 0.144676 0.0723379 0.289352 0.289352 0.289352 0.144676 0.144676 0.144676 0.0723379 0.289352 0.289352 0.289352 0.144676 0.144676 0.144676 0.0723379 0.289352 0.289352 0.289352 0.144676 0.144676 0.144676 0.0723379 0.289352 0.289352 0.289352 0.144676 0.144676 0.144676 0.0723379 0.289352 0.289352 0.289352 0.144676 0.144676 0.144676 0.0723379 0.289352 0.289352 0.289352 0.144676 0.144676 0.144676 0.0723379 0.289352 0.289352 0.289352 0.144676 0.144676 0.144676 0.0723379 0.289352 0.289352 0.289352 0.144676 0.144676 0.144676 0.0723379 0.289352 0.289352 0.289352 0.144676 0.144676 0.144676 0.0723379 0.289352 0.289352 0.289352 0.144676 0.144676 0.144676 0.0723379 0.289352 0.289352 0.289352 0.144676 0.144676 0.144676 0.0723379 0.289352 0.289352 0.289352 0.144676 0.144676 0.144676 0.0723379 0.289352 0.289352 0.289352 0.144676 0.144676 0.144676 0.0723379 0.289352 0.289352 0.289352 0.144676 0.144676 0.144676 0.0723379 0.289352 0.289352 0.289352 0.144676 0.144676 0.144676 0.0723379 0.289352 0.289352 0.289352 0.144676 0.144676 0.144676 0.0723379 0.289352 0.289351 0.289352 0.144676 0.144676 0.144676 0.0723379 0.289352 0.289351 0.289352 0.144676 0.144676 0.144676 0.0723379 0.289352 0.289352 0.289352 0.144676 0.144676 0.144676 0.0723378 0.289352 0.289352 0.289352 0.144676 0.144676 0.144676 0.0723379 0.289352 0.289352 0.289352 0.144676 0.144676 0.144676 0.0723379 0.289352 0.289352 0.289352 0.144676 0.144676 0.144676 0.0723379 0.144676 0.144676 0.289352 0.0723379 0.144676 0.144676 0.0723379 0.289352 0.144676 0.289352 0.289352 0.144676 0.144676 0.144676 0.0723379 0.144676 0.0723379 0.289352 0.289352 0.289352 0.144676 0.144676 0.144676 0.0723379 0.289352 0.289352 0.289352 0.144676 0.144676 0.144676 0.0723379 0.289352 0.289352 0.289352 0.144676 0.144676 0.144676 0.0723379 0.289352 0.289352 0.289352 0.144676 0.144676 0.144676 0.0723379 0.289352 0.289352 0.289352 0.144676 0.144676 0.144676 0.0723379 0.289352 0.289352 0.289352 0.144676 0.144676 0.144676 0.0723379 0.289352 0.289352 0.289352 0.144676 0.144676 0.144676 0.0723379 0.289352 0.289352 0.289352 0.144676 0.144676 0.144676 0.0723379 0.289352 0.289352 0.289352 0.144676 0.144676 0.144676 0.0723379 0.289352 0.289352 0.289352 0.144676 0.144676 0.144676 0.0723379 0.289352 0.289352 0.289352 0.144676 0.144676 0.144676 0.0723379 0.289352 0.289352 0.289352 0.144676 0.144676 0.144676 0.0723379 0.289352 0.289352 0.289352 0.144676 0.144676 0.144676 0.0723379 0.289352 0.289352 0.289352 0.144676 0.144676 0.144676 0.0723379 0.289352 0.289352 0.289352 0.144676 0.144676 0.144676 0.0723379 0.289352 0.289352 0.289352 0.144676 0.144676 0.144676 0.0723379 0.289352 0.289352 0.289352 0.144676 0.144676 0.144676 0.0723379 0.289352 0.289351 0.289352 0.144676 0.144676 0.144676 0.0723379 0.289352 0.289352 0.289352 0.144676 0.144676 0.144676 0.0723378 0.289352 0.289352 0.289352 0.144676 0.144676 0.144676 0.0723379 0.289352 0.289352 0.289352 0.144676 0.144676 0.144676 0.0723379 0.289352 0.289352 0.289352 0.144676 0.144676 0.144676 0.0723379 0.144676 0.144676 0.289352 0.0723379 0.144676 0.144676 0.0723379 0.289352 0.144676 0.289352 0.289352 0.144676 0.144676 0.144676 0.0723379 0.144676 0.0723379 0.289352 0.289352 0.289352 0.144676 0.144676 0.144676 0.0723379 0.289352 0.289352 0.289352 0.144676 0.144676 0.144676 0.0723379 0.289352 0.289352 0.289352 0.144676 0.144676 0.144676 0.0723379 0.289352 0.289352 0.289352 0.144676 0.144676 0.144676 0.0723379 0.289352 0.289352 0.289352 0.144676 0.144676 0.144676 0.0723379 0.289352 0.289352 0.289352 0.144676 0.144676 0.144676 0.0723379 0.289352 0.289352 0.289352 0.144676 0.144676 0.144676 0.0723379 0.289352 0.289352 0.289352 0.144676 0.144676 0.144676 0.0723379 0.289352 0.289352 0.289352 0.144676 0.144676 0.144676 0.0723379 0.289352 0.289352 0.289352 0.144676 0.144676 0.144676 0.0723379 0.289352 0.289352 0.289352 0.144676 0.144676 0.144676 0.0723379 0.289352 0.289352 0.289352 0.144676 0.144676 0.144676 0.0723379 0.289352 0.289352 0.289352 0.144676 0.144676 0.144676 0.0723379 0.289352 0.289352 0.289352 0.144676 0.144676 0.144676 0.0723379 0.289352 0.289352 0.289352 0.144676 0.144676 0.144676 0.0723379 0.289352 0.289352 0.289352 0.144676 0.144676 0.144676 0.0723379 0.289352 0.289352 0.289352 0.144676 0.144676 0.144676 0.0723379 0.289352 0.289351 0.289352 0.144676 0.144676 0.144676 0.0723379 0.289352 0.289352 0.289352 0.144676 0.144676 0.144676 0.0723379 0.289352 0.289352 0.289352 0.144676 0.144676 0.144676 0.0723379 0.289352 0.289352 0.289352 0.144676 0.144676 0.144676 0.0723379 0.289352 0.289352 0.289352 0.144676 0.144676 0.144676 0.0723379 0.144676 0.144676 0.289352 0.0723379 0.144676 0.144676 0.0723379 0.289352 0.144676 0.289352 0.289352 0.144676 0.144676 0.144676 0.0723379 0.144676 0.0723379 0.289352 0.289352 0.289352 0.144676 0.144676 0.144676 0.0723379 0.289352 0.289352 0.289352 0.144676 0.144676 0.144676 0.0723379 0.289352 0.289352 0.289352 0.144676 0.144676 0.144676 0.0723379 0.289352 0.289352 0.289352 0.144676 0.144676 0.144676 0.0723379 0.289352 0.289352 0.289352 0.144676 0.144676 0.144676 0.0723379 0.289352 0.289352 0.289352 0.144676 0.144676 0.144676 0.0723379 0.289352 0.289352 0.289352 0.144676 0.144676 0.144676 0.0723379 0.289352 0.289352 0.289352 0.144676 0.144676 0.144676 0.0723379 0.289352 0.289352 0.289352 0.144676 0.144676 0.144676 0.0723379 0.289352 0.289352 0.289352 0.144676 0.144676 0.144676 0.0723379 0.289352 0.289352 0.289352 0.144676 0.144676 0.144676 0.0723379 0.289352 0.289352 0.289352 0.144676 0.144676 0.144676 0.0723379 0.289352 0.289352 0.289352 0.144676 0.144676 0.144676 0.0723379 0.289352 0.289352 0.289352 0.144676 0.144676 0.144676 0.0723379 0.289352 0.289352 0.289352 0.144676 0.144676 0.144676 0.0723379 0.289352 0.289352 0.289352 0.144676 0.144676 0.144676 0.0723379 0.289352 0.289352 0.289352 0.144676 0.144676 0.144676 0.0723379 0.289352 0.289351 0.289352 0.144676 0.144676 0.144676 0.0723379 0.289352 0.289352 0.289352 0.144676 0.144676 0.144676 0.0723379 0.289352 0.289352 0.289352 0.144676 0.144676 0.144676 0.0723379 0.289352 0.289352 0.289352 0.144676 0.144676 0.144676 0.0723379 0.289352 0.289352 0.289352 0.144676 0.144676 0.144676 0.0723379 0.144676 0.144676 0.289352 0.0723379 0.144676 0.144676 0.0723379 0.289352 0.144676 0.144676 0.144676 0.0723379 0.144676 0.144676 0.0723379 0.0723379 0.0723379 0.289352 0.144676 0.144676 0.144676 0.144676 0.0723379 0.0723379 0.289352 0.144676 0.144676 0.144676 0.144676 0.0723379 0.0723379 0.289352 0.144676 0.144676 0.144676 0.144676 0.0723379 0.0723379 0.289352 0.144676 0.144676 0.144676 0.144676 0.0723379 0.0723379 0.289352 0.144676 0.144676 0.144676 0.144676 0.0723379 0.0723379 0.289352 0.144676 0.144676 0.144676 0.144676 0.0723379 0.0723379 0.289352 0.144676 0.144676 0.144676 0.144676 0.0723379 0.0723379 0.289352 0.144676 0.144676 0.144676 0.144676 0.0723379 0.0723379 0.289352 0.144676 0.144676 0.144676 0.144676 0.0723379 0.0723379 0.289352 0.144676 0.144676 0.144676 0.144676 0.0723379 0.0723379 0.289352 0.144676 0.144676 0.144676 0.144676 0.0723379 0.0723379 0.289352 0.144676 0.144676 0.144676 0.144676 0.0723379 0.0723379 0.289352 0.144676 0.144676 0.144676 0.144676 0.0723379 0.0723379 0.289352 0.144676 0.144676 0.144676 0.144676 0.0723379 0.0723379 0.289352 0.144676 0.144676 0.144676 0.144676 0.0723379 0.0723379 0.289352 0.144676 0.144676 0.144676 0.144676 0.0723379 0.0723379 0.289352 0.144676 0.144676 0.144676 0.144676 0.0723379 0.0723379 0.289352 0.144676 0.144676 0.144676 0.144676 0.0723379 0.0723379 0.289352 0.144676 0.144676 0.144676 0.144676 0.0723378 0.0723378 0.289352 0.144676 0.144676 0.144676 0.144676 0.0723379 0.0723379 0.289352 0.144676 0.144676 0.144676 0.144676 0.0723379 0.0723379 0.289352 0.144676 0.144676 0.144676 0.144676 0.0723379 0.0723379 0.144676 0.0723379 0.144676 0.0723379 0.144676 0.0723379 0.0723379 0.144676 0.144676 0.072338 0.289352 0.144676 0.289352 0.289352 0.144676 0.072338 0.144676 0.144676 0.072338 0.144676 0.072338 0.144676 0.144676 0.289352 0.289352 0.289352 0.072338 0.144676 0.144676 0.144676 0.072338 0.144676 0.144676 0.289352 0.289352 0.289352 0.072338 0.144676 0.144676 0.144676 0.072338 0.144676 0.144676 0.289352 0.289352 0.289352 0.072338 0.144676 0.144676 0.144676 0.072338 0.144676 0.144676 0.289352 0.289352 0.289352 0.072338 0.144676 0.144676 0.144676 0.072338 0.144676 0.144676 0.289352 0.289352 0.289352 0.072338 0.144676 0.144676 0.144676 0.072338 0.144676 0.144676 0.289352 0.289352 0.289352 0.072338 0.144676 0.144676 0.144676 0.072338 0.144676 0.144676 0.289352 0.289352 0.289352 0.072338 0.144676 0.144676 0.144676 0.072338 0.144676 0.144676 0.289352 0.289352 0.289352 0.072338 0.144676 0.144676 0.144676 0.072338 0.144676 0.144676 0.289352 0.289352 0.289352 0.072338 0.144676 0.144676 0.144676 0.072338 0.144676 0.144676 0.289352 0.289352 0.289352 0.072338 0.144676 0.144676 0.144676 0.072338 0.144676 0.144676 0.289352 0.289352 0.289352 0.072338 0.144676 0.144676 0.144676 0.072338 0.144676 0.144676 0.289352 0.289352 0.289352 0.072338 0.144676 0.144676 0.144676 0.072338 0.144676 0.144676 0.289352 0.289352 0.289352 0.072338 0.144676 0.144676 0.144676 0.072338 0.144676 0.144676 0.289352 0.289352 0.289352 0.072338 0.144676 0.144676 0.144676 0.072338 0.144676 0.144676 0.289352 0.289352 0.289352 0.072338 0.144676 0.144676 0.144676 0.072338 0.144676 0.144676 0.289352 0.289352 0.289352 0.072338 0.144676 0.144676 0.144676 0.072338 0.144676 0.144676 0.289352 0.289352 0.289352 0.072338 0.144676 0.144676 0.144676 0.072338 0.144676 0.144676 0.289352 0.289352 0.289352 0.072338 0.144676 0.144676 0.144676 0.072338 0.144676 0.144676 0.289352 0.289352 0.289352 0.0723379 0.144676 0.144676 0.144676 0.0723379 0.144676 0.144676 0.289352 0.289352 0.289352 0.072338 0.144676 0.144676 0.144676 0.072338 0.144676 0.144676 0.289352 0.289352 0.289352 0.072338 0.144676 0.144676 0.144676 0.072338 0.144676 0.144676 0.289352 0.289352 0.289352 0.072338 0.144676 0.144676 0.144676 0.072338 0.072338 0.144676 0.144676 0.144676 0.289352 0.072338 0.072338 0.144676 0.144676 0.072338 0.289352 0.144676 0.289352 0.289352 0.144676 0.144676 0.144676 0.072338 0.144676 0.072338 0.289352 0.289352 0.289352 0.144676 0.144676 0.144676 0.072338 0.289352 0.289352 0.289352 0.144676 0.144676 0.144676 0.072338 0.289352 0.289352 0.289352 0.144676 0.144676 0.144676 0.072338 0.289352 0.289352 0.289352 0.144676 0.144676 0.144676 0.072338 0.289352 0.289352 0.289352 0.144676 0.144676 0.144676 0.072338 0.289352 0.289352 0.289352 0.144676 0.144676 0.144676 0.072338 0.289352 0.289352 0.289352 0.144676 0.144676 0.144676 0.072338 0.289352 0.289352 0.289352 0.144676 0.144676 0.144676 0.072338 0.289352 0.289352 0.289352 0.144676 0.144676 0.144676 0.072338 0.289352 0.289352 0.289352 0.144676 0.144676 0.144676 0.072338 0.289352 0.289352 0.289352 0.144676 0.144676 0.144676 0.072338 0.289352 0.289352 0.289352 0.144676 0.144676 0.144676 0.072338 0.289352 0.289352 0.289352 0.144676 0.144676 0.144676 0.072338 0.289352 0.289352 0.289352 0.144676 0.144676 0.144676 0.0723379 0.289352 0.289352 0.289352 0.144676 0.144676 0.144676 0.072338 0.289352 0.289352 0.289352 0.144676 0.144676 0.144676 0.072338 0.289352 0.289352 0.289352 0.144676 0.144676 0.144676 0.072338 0.289352 0.289352 0.289352 0.144676 0.144676 0.144676 0.0723379 0.289352 0.289352 0.289352 0.144676 0.144676 0.144676 0.0723379 0.289352 0.289352 0.289352 0.144676 0.144676 0.144676 0.072338 0.289352 0.289352 0.289352 0.144676 0.144676 0.144676 0.072338 0.289352 0.289352 0.289352 0.144676 0.144676 0.144676 0.0723379 0.144676 0.144676 0.289352 0.072338 0.144676 0.144676 0.072338 0.289352 0.144676 0.289352 0.289352 0.144676 0.144676 0.144676 0.072338 0.144676 0.072338 0.289352 0.289352 0.289352 0.144676 0.144676 0.144676 0.072338 0.289352 0.289352 0.289352 0.144676 0.144676 0.144676 0.072338 0.289352 0.289352 0.289352 0.144676 0.144676 0.144676 0.072338 0.289352 0.289352 0.289352 0.144676 0.144676 0.144676 0.072338 0.289352 0.289352 0.289352 0.144676 0.144676 0.144676 0.072338 0.289352 0.289352 0.289352 0.144676 0.144676 0.144676 0.072338 0.289352 0.289352 0.289352 0.144676 0.144676 0.144676 0.072338 0.289352 0.289352 0.289352 0.144676 0.144676 0.144676 0.072338 0.289352 0.289352 0.289352 0.144676 0.144676 0.144676 0.072338 0.289352 0.289352 0.289352 0.144676 0.144676 0.144676 0.072338 0.289352 0.289352 0.289352 0.144676 0.144676 0.144676 0.072338 0.289352 0.289352 0.289352 0.144676 0.144676 0.144676 0.072338 0.289352 0.289352 0.289352 0.144676 0.144676 0.144676 0.072338 0.289352 0.289352 0.289352 0.144676 0.144676 0.144676 0.0723379 0.289352 0.289352 0.289352 0.144676 0.144676 0.144676 0.072338 0.289352 0.289352 0.289352 0.144676 0.144676 0.144676 0.072338 0.289352 0.289352 0.289352 0.144676 0.144676 0.144676 0.072338 0.289352 0.289352 0.289352 0.144676 0.144676 0.144676 0.0723379 0.289352 0.289352 0.289352 0.144676 0.144676 0.144676 0.0723379 0.289352 0.289352 0.289352 0.144676 0.144676 0.144676 0.072338 0.289352 0.289352 0.289352 0.144676 0.144676 0.144676 0.072338 0.289352 0.289352 0.289352 0.144676 0.144676 0.144676 0.0723379 0.144676 0.144676 0.289352 0.072338 0.144676 0.144676 0.072338 0.289352 0.144676 0.289352 0.289352 0.144676 0.144676 0.144676 0.072338 0.144676 0.072338 0.289352 0.289352 0.289352 0.144676 0.144676 0.144676 0.072338 0.289352 0.289352 0.289352 0.144676 0.144676 0.144676 0.072338 0.289352 0.289352 0.289352 0.144676 0.144676 0.144676 0.072338 0.289352 0.289352 0.289352 0.144676 0.144676 0.144676 0.072338 0.289352 0.289352 0.289352 0.144676 0.144676 0.144676 0.072338 0.289352 0.289352 0.289352 0.144676 0.144676 0.144676 0.072338 0.289352 0.289352 0.289352 0.144676 0.144676 0.144676 0.072338 0.289352 0.289352 0.289352 0.144676 0.144676 0.144676 0.072338 0.289352 0.289352 0.289352 0.144676 0.144676 0.144676 0.0723379 0.289352 0.289352 0.289352 0.144676 0.144676 0.144676 0.0723379 0.289352 0.289352 0.289352 0.144676 0.144676 0.144676 0.072338 0.289352 0.289352 0.289352 0.144676 0.144676 0.144676 0.072338 0.289352 0.289352 0.289352 0.144676 0.144676 0.144676 0.072338 0.289352 0.289352 0.289352 0.144676 0.144676 0.144676 0.0723379 0.289352 0.289352 0.289352 0.144676 0.144676 0.144676 0.072338 0.289352 0.289352 0.289352 0.144676 0.144676 0.144676 0.072338 0.289352 0.289352 0.289352 0.144676 0.144676 0.144676 0.072338 0.289352 0.289352 0.289352 0.144676 0.144676 0.144676 0.0723379 0.289352 0.289352 0.289352 0.144676 0.144676 0.144676 0.0723379 0.289352 0.289352 0.289352 0.144676 0.144676 0.144676 0.072338 0.289352 0.289352 0.289352 0.144676 0.144676 0.144676 0.072338 0.289352 0.289352 0.289352 0.144676 0.144676 0.144676 0.0723379 0.144676 0.144676 0.289352 0.072338 0.144676 0.144676 0.072338 0.289352 0.144676 0.289352 0.289352 0.144676 0.144676 0.144676 0.072338 0.144676 0.072338 0.289352 0.289352 0.289352 0.144676 0.144676 0.144676 0.072338 0.289352 0.289352 0.289352 0.144676 0.144676 0.144676 0.072338 0.289352 0.289352 0.289352 0.144676 0.144676 0.144676 0.072338 0.289352 0.289352 0.289352 0.144676 0.144676 0.144676 0.072338 0.289352 0.289352 0.289352 0.144676 0.144676 0.144676 0.072338 0.289352 0.289352 0.289352 0.144676 0.144676 0.144676 0.072338 0.289352 0.289352 0.289352 0.144676 0.144676 0.144676 0.072338 0.289352 0.289352 0.289352 0.144676 0.144676 0.144676 0.072338 0.289352 0.289352 0.289352 0.144676 0.144676 0.144676 0.0723379 0.289352 0.289352 0.289352 0.144676 0.144676 0.144676 0.0723379 0.289352 0.289352 0.289352 0.144676 0.144676 0.144676 0.072338 0.289352 0.289352 0.289352 0.144676 0.144676 0.144676 0.072338 0.289352 0.289352 0.289352 0.144676 0.144676 0.144676 0.072338 0.289352 0.289352 0.289352 0.144676 0.144676 0.144676 0.0723379 0.289352 0.289352 0.289352 0.144676 0.144676 0.144676 0.072338 0.289352 0.289352 0.289352 0.144676 0.144676 0.144676 0.072338 0.289352 0.289352 0.289352 0.144676 0.144676 0.144676 0.0723379 0.289352 0.289352 0.289352 0.144676 0.144676 0.144676 0.0723379 0.289352 0.289352 0.289352 0.144676 0.144676 0.144676 0.0723379 0.289352 0.289352 0.289352 0.144676 0.144676 0.144676 0.072338 0.289352 0.289352 0.289352 0.144676 0.144676 0.144676 0.0723379 0.289352 0.289352 0.289352 0.144676 0.144676 0.144676 0.0723379 0.144676 0.144676 0.289352 0.072338 0.144676 0.144676 0.072338 0.289352 0.144676 0.289352 0.289352 0.144676 0.144676 0.144676 0.072338 0.144676 0.072338 0.289352 0.289352 0.289352 0.144676 0.144676 0.144676 0.072338 0.289352 0.289352 0.289352 0.144676 0.144676 0.144676 0.072338 0.289352 0.289352 0.289352 0.144676 0.144676 0.144676 0.072338 0.289352 0.289352 0.289352 0.144676 0.144676 0.144676 0.072338 0.289352 0.289352 0.289352 0.144676 0.144676 0.144676 0.072338 0.289352 0.289352 0.289352 0.144676 0.144676 0.144676 0.072338 0.289352 0.289352 0.289352 0.144676 0.144676 0.144676 0.072338 0.289352 0.289352 0.289352 0.144676 0.144676 0.144676 0.072338 0.289352 0.289352 0.289352 0.144676 0.144676 0.144676 0.072338 0.289352 0.289352 0.289352 0.144676 0.144676 0.144676 0.072338 0.289352 0.289352 0.289352 0.144676 0.144676 0.144676 0.072338 0.289352 0.289352 0.289352 0.144676 0.144676 0.144676 0.072338 0.289352 0.289352 0.289352 0.144676 0.144676 0.144676 0.072338 0.289352 0.289352 0.289352 0.144676 0.144676 0.144676 0.0723379 0.289352 0.289352 0.289352 0.144676 0.144676 0.144676 0.072338 0.289352 0.289352 0.289352 0.144676 0.144676 0.144676 0.072338 0.289352 0.289352 0.289352 0.144676 0.144676 0.144676 0.072338 0.289352 0.289352 0.289352 0.144676 0.144676 0.144676 0.0723379 0.289352 0.289352 0.289352 0.144676 0.144676 0.144676 0.0723379 0.289352 0.289352 0.289352 0.144676 0.144676 0.144676 0.072338 0.289352 0.289352 0.289352 0.144676 0.144676 0.144676 0.072338 0.289352 0.289352 0.289352 0.144676 0.144676 0.144676 0.0723379 0.144676 0.144676 0.289352 0.072338 0.144676 0.144676 0.072338 0.289352 0.144676 0.289352 0.289352 0.144676 0.144676 0.144676 0.072338 0.144676 0.072338 0.289352 0.289352 0.289352 0.144676 0.144676 0.144676 0.072338 0.289352 0.289352 0.289352 0.144676 0.144676 0.144676 0.072338 0.289352 0.289352 0.289352 0.144676 0.144676 0.144676 0.072338 0.289352 0.289352 0.289352 0.144676 0.144676 0.144676 0.072338 0.289352 0.289352 0.289352 0.144676 0.144676 0.144676 0.072338 0.289352 0.289352 0.289352 0.144676 0.144676 0.144676 0.072338 0.289352 0.289352 0.289352 0.144676 0.144676 0.144676 0.072338 0.289352 0.289352 0.289352 0.144676 0.144676 0.144676 0.072338 0.289352 0.289352 0.289352 0.144676 0.144676 0.144676 0.072338 0.289352 0.289352 0.289352 0.144676 0.144676 0.144676 0.072338 0.289352 0.289352 0.289352 0.144676 0.144676 0.144676 0.072338 0.289352 0.289352 0.289352 0.144676 0.144676 0.144676 0.072338 0.289352 0.289352 0.289352 0.144676 0.144676 0.144676 0.072338 0.289352 0.289352 0.289352 0.144676 0.144676 0.144676 0.0723379 0.289352 0.289352 0.289352 0.144676 0.144676 0.144676 0.072338 0.289352 0.289352 0.289352 0.144676 0.144676 0.144676 0.072338 0.289352 0.289352 0.289352 0.144676 0.144676 0.144676 0.072338 0.289352 0.289352 0.289352 0.144676 0.144676 0.144676 0.0723379 0.289352 0.289352 0.289352 0.144676 0.144676 0.144676 0.0723379 0.289352 0.289352 0.289352 0.144676 0.144676 0.144676 0.072338 0.289352 0.289352 0.289352 0.144676 0.144676 0.144676 0.072338 0.289352 0.289352 0.289352 0.144676 0.144676 0.144676 0.0723379 0.144676 0.144676 0.289352 0.072338 0.144676 0.144676 0.072338 0.289352 0.144676 0.144676 0.144676 0.072338 0.144676 0.144676 0.072338 0.072338 0.072338 0.289352 0.144676 0.144676 0.144676 0.144676 0.072338 0.072338 0.289352 0.144676 0.144676 0.144676 0.144676 0.072338 0.072338 0.289352 0.144676 0.144676 0.144676 0.144676 0.0723379 0.0723379 0.289352 0.144676 0.144676 0.144676 0.144676 0.072338 0.072338 0.289352 0.144676 0.144676 0.144676 0.144676 0.072338 0.072338 0.289352 0.144676 0.144676 0.144676 0.144676 0.072338 0.072338 0.289352 0.144676 0.144676 0.144676 0.144676 0.0723379 0.0723379 0.289352 0.144676 0.144676 0.144676 0.144676 0.072338 0.072338 0.289352 0.144676 0.144676 0.144676 0.144676 0.0723379 0.0723379 0.289352 0.144676 0.144676 0.144676 0.144676 0.0723379 0.0723379 0.289352 0.144676 0.144676 0.144676 0.144676 0.072338 0.072338 0.289352 0.144676 0.144676 0.144676 0.144676 0.072338 0.072338 0.289352 0.144676 0.144676 0.144676 0.144676 0.072338 0.072338 0.289352 0.144676 0.144676 0.144676 0.144676 0.0723379 0.0723379 0.289352 0.144676 0.144676 0.144676 0.144676 0.072338 0.072338 0.289352 0.144676 0.144676 0.144676 0.144676 0.072338 0.072338 0.289352 0.144676 0.144676 0.144676 0.144676 0.0723379 0.0723379 0.289352 0.144676 0.144676 0.144676 0.144676 0.0723379 0.0723379 0.289352 0.144676 0.144676 0.144676 0.144676 0.0723379 0.0723379 0.289352 0.144676 0.144676 0.144676 0.144676 0.072338 0.072338 0.289352 0.144676 0.144676 0.144676 0.144676 0.0723379 0.0723379 0.289352 0.144676 0.144676 0.144676 0.144676 0.0723379 0.0723379 0.144676 0.072338 0.144676 0.072338 0.144676 0.072338 0.072338 0.144676 0.144676 0.072338 0.289352 0.144676 0.289352 0.289352 0.144676 0.072338 0.144676 0.144676 0.072338 0.144676 0.072338 0.144676 0.144676 0.289352 0.289352 0.289352 0.072338 0.144676 0.144676 0.144676 0.072338 0.144676 0.144676 0.289352 0.289352 0.289352 0.072338 0.144676 0.144676 0.144676 0.072338 0.144676 0.144676 0.289352 0.289352 0.289352 0.072338 0.144676 0.144676 0.144676 0.072338 0.144676 0.144676 0.289352 0.289352 0.289352 0.072338 0.144676 0.144676 0.144676 0.072338 0.144676 0.144676 0.289352 0.289352 0.289352 0.072338 0.144676 0.144676 0.144676 0.072338 0.144676 0.144676 0.289352 0.289352 0.289352 0.072338 0.144676 0.144676 0.144676 0.072338 0.144676 0.144676 0.289352 0.289352 0.289352 0.072338 0.144676 0.144676 0.144676 0.072338 0.144676 0.144676 0.289352 0.289352 0.289352 0.072338 0.144676 0.144676 0.144676 0.072338 0.144676 0.144676 0.289352 0.289352 0.289352 0.0723379 0.144676 0.144676 0.144676 0.0723379 0.144676 0.144676 0.289352 0.289352 0.289352 0.0723379 0.144676 0.144676 0.144676 0.0723379 0.144676 0.144676 0.289352 0.289352 0.289352 0.072338 0.144676 0.144676 0.144676 0.072338 0.144676 0.144676 0.289352 0.289352 0.289352 0.072338 0.144676 0.144676 0.144676 0.072338 0.144676 0.144676 0.289352 0.289352 0.289352 0.072338 0.144676 0.144676 0.144676 0.072338 0.144676 0.144676 0.289352 0.289352 0.289352 0.0723379 0.144676 0.144676 0.144676 0.0723379 0.144676 0.144676 0.289352 0.289352 0.289352 0.072338 0.144676 0.144676 0.144676 0.072338 0.144676 0.144676 0.289352 0.289352 0.289352 0.072338 0.144676 0.144676 0.144676 0.072338 0.144676 0.144676 0.289352 0.289352 0.289352 0.072338 0.144676 0.144676 0.144676 0.072338 0.144676 0.144676 0.289352 0.289352 0.289352 0.0723379 0.144676 0.144676 0.144676 0.0723379 0.144676 0.144676 0.289352 0.289352 0.289352 0.0723379 0.144676 0.144676 0.144676 0.0723379 0.144676 0.144676 0.289352 0.289352 0.289352 0.072338 0.144676 0.144676 0.144676 0.072338 0.144676 0.144676 0.289352 0.289352 0.289352 0.0723379 0.144676 0.144676 0.144676 0.0723379 0.144676 0.144676 0.289352 0.289352 0.289352 0.0723379 0.144676 0.144676 0.144676 0.0723379 0.072338 0.144676 0.144676 0.144676 0.289352 0.072338 0.072338 0.144676 0.144676 0.072338 0.289352 0.144676 0.289352 0.289352 0.144676 0.144676 0.144676 0.072338 0.144676 0.072338 0.289352 0.289352 0.289352 0.144676 0.144676 0.144676 0.072338 0.289352 0.289352 0.289352 0.144676 0.144676 0.144676 0.072338 0.289352 0.289352 0.289352 0.144676 0.144676 0.144676 0.072338 0.289352 0.289352 0.289352 0.144676 0.144676 0.144676 0.072338 0.289352 0.289352 0.289352 0.144676 0.144676 0.144676 0.072338 0.289352 0.289352 0.289352 0.144676 0.144676 0.144676 0.072338 0.289352 0.289352 0.289352 0.144676 0.144676 0.144676 0.072338 0.289352 0.289352 0.289352 0.144676 0.144676 0.144676 0.072338 0.289352 0.289352 0.289352 0.144676 0.144676 0.144676 0.0723379 0.289352 0.289352 0.289352 0.144676 0.144676 0.144676 0.0723379 0.289352 0.289352 0.289352 0.144676 0.144676 0.144676 0.072338 0.289352 0.289352 0.289352 0.144676 0.144676 0.144676 0.072338 0.289352 0.289352 0.289352 0.144676 0.144676 0.144676 0.072338 0.289352 0.289352 0.289352 0.144676 0.144676 0.144676 0.0723379 0.289352 0.289352 0.289352 0.144676 0.144676 0.144676 0.072338 0.289352 0.289352 0.289352 0.144676 0.144676 0.144676 0.072338 0.289352 0.289352 0.289352 0.144676 0.144676 0.144676 0.0723379 0.289352 0.289352 0.289352 0.144676 0.144676 0.144676 0.0723379 0.289352 0.289352 0.289352 0.144676 0.144676 0.144676 0.0723379 0.289352 0.289352 0.289352 0.144676 0.144676 0.144676 0.072338 0.289352 0.289352 0.289352 0.144676 0.144676 0.144676 0.0723379 0.289352 0.289352 0.289352 0.144676 0.144676 0.144676 0.0723379 0.144676 0.144676 0.289352 0.072338 0.144676 0.144676 0.072338 0.289352 0.144676 0.289352 0.289352 0.144676 0.144676 0.144676 0.072338 0.144676 0.072338 0.289352 0.289352 0.289352 0.144676 0.144676 0.144676 0.072338 0.289352 0.289352 0.289352 0.144676 0.144676 0.144676 0.072338 0.289352 0.289352 0.289352 0.144676 0.144676 0.144676 0.072338 0.289352 0.289352 0.289352 0.144676 0.144676 0.144676 0.072338 0.289352 0.289352 0.289352 0.144676 0.144676 0.144676 0.072338 0.289352 0.289352 0.289352 0.144676 0.144676 0.144676 0.072338 0.289352 0.289352 0.289352 0.144676 0.144676 0.144676 0.072338 0.289352 0.289352 0.289352 0.144676 0.144676 0.144676 0.072338 0.289352 0.289352 0.289352 0.144676 0.144676 0.144676 0.0723379 0.289352 0.289352 0.289352 0.144676 0.144676 0.144676 0.0723379 0.289352 0.289352 0.289352 0.144676 0.144676 0.144676 0.072338 0.289352 0.289352 0.289352 0.144676 0.144676 0.144676 0.072338 0.289352 0.289352 0.289352 0.144676 0.144676 0.144676 0.072338 0.289352 0.289352 0.289352 0.144676 0.144676 0.144676 0.0723379 0.289352 0.289352 0.289352 0.144676 0.144676 0.144676 0.072338 0.289352 0.289352 0.289352 0.144676 0.144676 0.144676 0.072338 0.289352 0.289352 0.289352 0.144676 0.144676 0.144676 0.0723379 0.289352 0.289352 0.289352 0.144676 0.144676 0.144676 0.0723379 0.289352 0.289352 0.289352 0.144676 0.144676 0.144676 0.0723379 0.289352 0.289352 0.289352 0.144676 0.144676 0.144676 0.072338 0.289352 0.289352 0.289352 0.144676 0.144676 0.144676 0.0723379 0.289352 0.289352 0.289352 0.144676 0.144676 0.144676 0.0723379 0.144676 0.144676 0.289352 0.072338 0.144676 0.144676 0.072338 0.289352 0.144676 0.289352 0.289352 0.144676 0.144676 0.144676 0.072338 0.144676 0.072338 0.289352 0.289352 0.289352 0.144676 0.144676 0.144676 0.072338 0.289352 0.289352 0.289352 0.144676 0.144676 0.144676 0.072338 0.289352 0.289352 0.289352 0.144676 0.144676 0.144676 0.0723379 0.289352 0.289352 0.289352 0.144676 0.144676 0.144676 0.072338 0.289352 0.289352 0.289352 0.144676 0.144676 0.144676 0.072338 0.289352 0.289352 0.289352 0.144676 0.144676 0.144676 0.072338 0.289352 0.289352 0.289352 0.144676 0.144676 0.144676 0.072338 0.289352 0.289352 0.289352 0.144676 0.144676 0.144676 0.072338 0.289352 0.289352 0.289352 0.144676 0.144676 0.144676 0.0723379 0.289352 0.289352 0.289352 0.144676 0.144676 0.144676 0.0723379 0.289352 0.289352 0.289352 0.144676 0.144676 0.144676 0.072338 0.289352 0.289352 0.289352 0.144676 0.144676 0.144676 0.072338 0.289352 0.289352 0.289352 0.144676 0.144676 0.144676 0.072338 0.289352 0.289352 0.289352 0.144676 0.144676 0.144676 0.0723379 0.289352 0.289352 0.289352 0.144676 0.144676 0.144676 0.072338 0.289352 0.289352 0.289352 0.144676 0.144676 0.144676 0.072338 0.289352 0.289352 0.289352 0.144676 0.144676 0.144676 0.0723379 0.289352 0.289352 0.289352 0.144676 0.144676 0.144676 0.0723379 0.289352 0.289352 0.289352 0.144676 0.144676 0.144676 0.0723379 0.289352 0.289352 0.289352 0.144676 0.144676 0.144676 0.072338 0.289352 0.289352 0.289352 0.144676 0.144676 0.144676 0.0723379 0.289352 0.289352 0.289352 0.144676 0.144676 0.144676 0.0723379 0.144676 0.144676 0.289352 0.072338 0.144676 0.144676 0.072338 0.289352 0.144676 0.289352 0.289352 0.144676 0.144676 0.144676 0.072338 0.144676 0.072338 0.289352 0.289352 0.289352 0.144676 0.144676 0.144676 0.072338 0.289352 0.289352 0.289352 0.144676 0.144676 0.144676 0.072338 0.289352 0.289352 0.289352 0.144676 0.144676 0.144676 0.0723379 0.289352 0.289352 0.289352 0.144676 0.144676 0.144676 0.072338 0.289352 0.289352 0.289352 0.144676 0.144676 0.144676 0.072338 0.289352 0.289352 0.289352 0.144676 0.144676 0.144676 0.072338 0.289352 0.289352 0.289352 0.144676 0.144676 0.144676 0.0723379 0.289352 0.289352 0.289352 0.144676 0.144676 0.144676 0.072338 0.289352 0.289352 0.289352 0.144676 0.144676 0.144676 0.0723379 0.289352 0.289352 0.289352 0.144676 0.144676 0.144676 0.0723379 0.289352 0.289352 0.289352 0.144676 0.144676 0.144676 0.072338 0.289352 0.289352 0.289352 0.144676 0.144676 0.144676 0.072338 0.289352 0.289352 0.289352 0.144676 0.144676 0.144676 0.072338 0.289352 0.289352 0.289352 0.144676 0.144676 0.144676 0.0723379 0.289352 0.289352 0.289352 0.144676 0.144676 0.144676 0.072338 0.289352 0.289352 0.289352 0.144676 0.144676 0.144676 0.072338 0.289352 0.289352 0.289352 0.144676 0.144676 0.144676 0.0723379 0.289352 0.289352 0.289352 0.144676 0.144676 0.144676 0.0723379 0.289352 0.289352 0.289352 0.144676 0.144676 0.144676 0.0723379 0.289352 0.289352 0.289352 0.144676 0.144676 0.144676 0.072338 0.289352 0.289352 0.289352 0.144676 0.144676 0.144676 0.0723379 0.289352 0.289352 0.289352 0.144676 0.144676 0.144676 0.0723379 0.144676 0.144676 0.289352 0.072338 0.144676 0.144676 0.072338 0.289352 0.144676 0.289352 0.289352 0.144676 0.144676 0.144676 0.072338 0.144676 0.072338 0.289352 0.289352 0.289352 0.144676 0.144676 0.144676 0.072338 0.289352 0.289352 0.289352 0.144676 0.144676 0.144676 0.072338 0.289352 0.289352 0.289352 0.144676 0.144676 0.144676 0.0723379 0.289352 0.289352 0.289352 0.144676 0.144676 0.144676 0.0723379 0.289352 0.289352 0.289352 0.144676 0.144676 0.144676 0.072338 0.289352 0.289352 0.289352 0.144676 0.144676 0.144676 0.072338 0.289352 0.289352 0.289352 0.144676 0.144676 0.144676 0.072338 0.289352 0.289352 0.289352 0.144676 0.144676 0.144676 0.072338 0.289352 0.289352 0.289352 0.144676 0.144676 0.144676 0.0723379 0.289352 0.289352 0.289352 0.144676 0.144676 0.144676 0.0723379 0.289352 0.289352 0.289352 0.144676 0.144676 0.144676 0.072338 0.289352 0.289352 0.289352 0.144676 0.144676 0.144676 0.072338 0.289352 0.289352 0.289352 0.144676 0.144676 0.144676 0.072338 0.289352 0.289352 0.289352 0.144676 0.144676 0.144676 0.0723379 0.289352 0.289352 0.289352 0.144676 0.144676 0.144676 0.072338 0.289352 0.289352 0.289352 0.144676 0.144676 0.144676 0.072338 0.289352 0.289352 0.289352 0.144676 0.144676 0.144676 0.0723379 0.289352 0.289352 0.289352 0.144676 0.144676 0.144676 0.0723379 0.289352 0.289352 0.289352 0.144676 0.144676 0.144676 0.0723379 0.289352 0.289352 0.289352 0.144676 0.144676 0.144676 0.072338 0.289352 0.289352 0.289352 0.144676 0.144676 0.144676 0.072338 0.289352 0.289352 0.289352 0.144676 0.144676 0.144676 0.0723379 0.144676 0.144676 0.289352 0.072338 0.144676 0.144676 0.072338 0.289352 0.144676 0.289352 0.289352 0.144676 0.144676 0.144676 0.072338 0.144676 0.072338 0.289352 0.289352 0.289352 0.144676 0.144676 0.144676 0.072338 0.289352 0.289352 0.289352 0.144676 0.144676 0.144676 0.072338 0.289352 0.289352 0.289352 0.144676 0.144676 0.144676 0.072338 0.289352 0.289352 0.289352 0.144676 0.144676 0.144676 0.072338 0.289352 0.289352 0.289352 0.144676 0.144676 0.144676 0.072338 0.289352 0.289352 0.289352 0.144676 0.144676 0.144676 0.072338 0.289352 0.289352 0.289352 0.144676 0.144676 0.144676 0.072338 0.289352 0.289352 0.289352 0.144676 0.144676 0.144676 0.072338 0.289352 0.289352 0.289352 0.144676 0.144676 0.144676 0.0723379 0.289352 0.289352 0.289352 0.144676 0.144676 0.144676 0.0723379 0.289352 0.289352 0.289352 0.144676 0.144676 0.144676 0.072338 0.289352 0.289352 0.289352 0.144676 0.144676 0.144676 0.072338 0.289352 0.289352 0.289352 0.144676 0.144676 0.144676 0.072338 0.289352 0.289352 0.289352 0.144676 0.144676 0.144676 0.0723379 0.289352 0.289352 0.289352 0.144676 0.144676 0.144676 0.072338 0.289352 0.289352 0.289352 0.144676 0.144676 0.144676 0.072338 0.289352 0.289352 0.289352 0.144676 0.144676 0.144676 0.0723379 0.289352 0.289352 0.289352 0.144676 0.144676 0.144676 0.0723379 0.289352 0.289352 0.289352 0.144676 0.144676 0.144676 0.0723379 0.289352 0.289352 0.289352 0.144676 0.144676 0.144676 0.072338 0.289352 0.289352 0.289352 0.144676 0.144676 0.144676 0.072338 0.289352 0.289352 0.289352 0.144676 0.144676 0.144676 0.0723379 0.144676 0.144676 0.289352 0.072338 0.144676 0.144676 0.072338 0.289352 0.144676 0.144676 0.144676 0.0723379 0.144676 0.144676 0.0723379 0.0723379 0.0723379 0.289352 0.144676 0.144676 0.144676 0.144676 0.0723379 0.0723379 0.289352 0.144676 0.144676 0.144676 0.144676 0.072338 0.072338 0.289352 0.144676 0.144676 0.144676 0.144676 0.0723379 0.0723379 0.289352 0.144676 0.144676 0.144676 0.144676 0.0723379 0.0723379 0.289352 0.144676 0.144676 0.144676 0.144676 0.0723379 0.0723379 0.289352 0.144676 0.144676 0.144676 0.144676 0.0723379 0.0723379 0.289352 0.144676 0.144676 0.144676 0.144676 0.0723379 0.0723379 0.289352 0.144676 0.144676 0.144676 0.144676 0.0723379 0.0723379 0.289352 0.144676 0.144676 0.144676 0.144676 0.0723379 0.0723379 0.289352 0.144676 0.144676 0.144676 0.144676 0.0723379 0.0723379 0.289352 0.144676 0.144676 0.144676 0.144676 0.072338 0.072338 0.289352 0.144676 0.144676 0.144676 0.144676 0.0723379 0.0723379 0.289352 0.144676 0.144676 0.144676 0.144676 0.072338 0.072338 0.289352 0.144676 0.144676 0.144676 0.144676 0.0723379 0.0723379 0.289352 0.144676 0.144676 0.144676 0.144676 0.072338 0.072338 0.289352 0.144676 0.144676 0.144676 0.144676 0.0723379 0.0723379 0.289352 0.144676 0.144676 0.144676 0.144676 0.0723379 0.0723379 0.289352 0.144676 0.144676 0.144676 0.144676 0.0723379 0.0723379 0.289352 0.144676 0.144676 0.144676 0.144676 0.0723379 0.0723379 0.289352 0.144676 0.144676 0.144676 0.144676 0.072338 0.072338 0.289352 0.144676 0.144676 0.144676 0.144676 0.0723379 0.0723379 0.289352 0.144676 0.144676 0.144676 0.144676 0.0723379 0.0723379 0.144676 0.072338 0.144676 0.072338 0.144676 0.072338 0.072338 0.144676 0.144676 0.072338 0.289352 0.144676 0.289352 0.289352 0.144676 0.072338 0.144676 0.144676 0.072338 0.144676 0.072338 0.144676 0.144676 0.289352 0.289352 0.289352 0.072338 0.144676 0.144676 0.144676 0.072338 0.144676 0.144676 0.289352 0.289352 0.289352 0.072338 0.144676 0.144676 0.144676 0.072338 0.144676 0.144676 0.289352 0.289352 0.289352 0.072338 0.144676 0.144676 0.144676 0.072338 0.144676 0.144676 0.289352 0.289352 0.289352 0.072338 0.144676 0.144676 0.144676 0.072338 0.144676 0.144676 0.289352 0.289352 0.289352 0.072338 0.144676 0.144676 0.144676 0.072338 0.144676 0.144676 0.289352 0.289352 0.289352 0.072338 0.144676 0.144676 0.144676 0.072338 0.144676 0.144676 0.289352 0.289352 0.289352 0.072338 0.144676 0.144676 0.144676 0.072338 0.144676 0.144676 0.289352 0.289352 0.289352 0.072338 0.144676 0.144676 0.144676 0.072338 0.144676 0.144676 0.289352 0.289352 0.289352 0.072338 0.144676 0.144676 0.144676 0.072338 0.144676 0.144676 0.289352 0.289352 0.289352 0.072338 0.144676 0.144676 0.144676 0.072338 0.144676 0.144676 0.289352 0.289352 0.289352 0.072338 0.144676 0.144676 0.144676 0.072338 0.144676 0.144676 0.289352 0.289352 0.289352 0.072338 0.144676 0.144676 0.144676 0.072338 0.144676 0.144676 0.289352 0.289352 0.289352 0.072338 0.144676 0.144676 0.144676 0.072338 0.144676 0.144676 0.289352 0.289352 0.289352 0.0723379 0.144676 0.144676 0.144676 0.0723379 0.144676 0.144676 0.289352 0.289352 0.289352 0.072338 0.144676 0.144676 0.144676 0.072338 0.144676 0.144676 0.289352 0.289352 0.289352 0.072338 0.144676 0.144676 0.144676 0.072338 0.144676 0.144676 0.289352 0.289352 0.289352 0.072338 0.144676 0.144676 0.144676 0.072338 0.144676 0.144676 0.289352 0.289352 0.289352 0.0723379 0.144676 0.144676 0.144676 0.0723379 0.144676 0.144676 0.289352 0.289352 0.289352 0.0723379 0.144676 0.144676 0.144676 0.0723379 0.144676 0.144676 0.289352 0.289352 0.289352 0.072338 0.144676 0.144676 0.144676 0.072338 0.144676 0.144676 0.289352 0.289352 0.289352 0.072338 0.144676 0.144676 0.144676 0.072338 0.144676 0.144676 0.289352 0.289352 0.289352 0.0723379 0.144676 0.144676 0.144676 0.0723379 0.072338 0.144676 0.144676 0.144676 0.289352 0.072338 0.072338 0.144676 0.144676 0.072338 0.289352 0.144676 0.289352 0.289352 0.144676 0.144676 0.144676 0.072338 0.144676 0.072338 0.289352 0.289352 0.289352 0.144676 0.144676 0.144676 0.072338 0.289352 0.289352 0.289352 0.144676 0.144676 0.144676 0.072338 0.289352 0.289352 0.289352 0.144676 0.144676 0.144676 0.072338 0.289352 0.289352 0.289352 0.144676 0.144676 0.144676 0.072338 0.289352 0.289352 0.289352 0.144676 0.144676 0.144676 0.072338 0.289352 0.289352 0.289352 0.144676 0.144676 0.144676 0.072338 0.289352 0.289352 0.289352 0.144676 0.144676 0.144676 0.072338 0.289352 0.289352 0.289352 0.144676 0.144676 0.144676 0.072338 0.289352 0.289352 0.289352 0.144676 0.144676 0.144676 0.0723379 0.289352 0.289352 0.289352 0.144676 0.144676 0.144676 0.072338 0.289352 0.289352 0.289352 0.144676 0.144676 0.144676 0.072338 0.289352 0.289352 0.289352 0.144676 0.144676 0.144676 0.072338 0.289352 0.289352 0.289352 0.144676 0.144676 0.144676 0.072338 0.289352 0.289352 0.289352 0.144676 0.144676 0.144676 0.0723379 0.289352 0.289352 0.289352 0.144676 0.144676 0.144676 0.072338 0.289352 0.289352 0.289352 0.144676 0.144676 0.144676 0.072338 0.289352 0.289352 0.289352 0.144676 0.144676 0.144676 0.0723379 0.289352 0.289352 0.289352 0.144676 0.144676 0.144676 0.0723379 0.289352 0.289352 0.289352 0.144676 0.144676 0.144676 0.0723379 0.289352 0.289352 0.289352 0.144676 0.144676 0.144676 0.072338 0.289352 0.289352 0.289352 0.144676 0.144676 0.144676 0.072338 0.289352 0.289352 0.289352 0.144676 0.144676 0.144676 0.0723379 0.144676 0.144676 0.289352 0.072338 0.144676 0.144676 0.072338 0.289352 0.144676 0.289352 0.289352 0.144676 0.144676 0.144676 0.072338 0.144676 0.072338 0.289352 0.289352 0.289352 0.144676 0.144676 0.144676 0.072338 0.289352 0.289352 0.289352 0.144676 0.144676 0.144676 0.072338 0.289352 0.289352 0.289352 0.144676 0.144676 0.144676 0.072338 0.289352 0.289352 0.289352 0.144676 0.144676 0.144676 0.072338 0.289352 0.289352 0.289352 0.144676 0.144676 0.144676 0.072338 0.289352 0.289352 0.289352 0.144676 0.144676 0.144676 0.072338 0.289352 0.289352 0.289352 0.144676 0.144676 0.144676 0.072338 0.289352 0.289352 0.289352 0.144676 0.144676 0.144676 0.072338 0.289352 0.289352 0.289352 0.144676 0.144676 0.144676 0.072338 0.289352 0.289352 0.289352 0.144676 0.144676 0.144676 0.072338 0.289352 0.289352 0.289352 0.144676 0.144676 0.144676 0.072338 0.289352 0.289352 0.289352 0.144676 0.144676 0.144676 0.072338 0.289352 0.289352 0.289352 0.144676 0.144676 0.144676 0.072338 0.289352 0.289352 0.289352 0.144676 0.144676 0.144676 0.0723379 0.289352 0.289352 0.289352 0.144676 0.144676 0.144676 0.072338 0.289352 0.289352 0.289352 0.144676 0.144676 0.144676 0.072338 0.289352 0.289352 0.289352 0.144676 0.144676 0.144676 0.072338 0.289352 0.289352 0.289352 0.144676 0.144676 0.144676 0.0723379 0.289352 0.289352 0.289352 0.144676 0.144676 0.144676 0.0723379 0.289352 0.289352 0.289352 0.144676 0.144676 0.144676 0.072338 0.289352 0.289352 0.289352 0.144676 0.144676 0.144676 0.072338 0.289352 0.289352 0.289352 0.144676 0.144676 0.144676 0.0723379 0.144676 0.144676 0.289352 0.072338 0.144676 0.144676 0.072338 0.289352 0.144676 0.289352 0.289352 0.144676 0.144676 0.144676 0.072338 0.144676 0.072338 0.289352 0.289352 0.289352 0.144676 0.144676 0.144676 0.072338 0.289352 0.289352 0.289352 0.144676 0.144676 0.144676 0.072338 0.289352 0.289352 0.289352 0.144676 0.144676 0.144676 0.072338 0.289352 0.289352 0.289352 0.144676 0.144676 0.144676 0.072338 0.289352 0.289352 0.289352 0.144676 0.144676 0.144676 0.072338 0.289352 0.289352 0.289352 0.144676 0.144676 0.144676 0.072338 0.289352 0.289352 0.289352 0.144676 0.144676 0.144676 0.072338 0.289352 0.289352 0.289352 0.144676 0.144676 0.144676 0.072338 0.289352 0.289352 0.289352 0.144676 0.144676 0.144676 0.0723379 0.289352 0.289352 0.289352 0.144676 0.144676 0.144676 0.0723379 0.289352 0.289352 0.289352 0.144676 0.144676 0.144676 0.072338 0.289352 0.289352 0.289352 0.144676 0.144676 0.144676 0.072338 0.289352 0.289352 0.289352 0.144676 0.144676 0.144676 0.072338 0.289352 0.289352 0.289352 0.144676 0.144676 0.144676 0.0723379 0.289352 0.289352 0.289352 0.144676 0.144676 0.144676 0.072338 0.289352 0.289352 0.289352 0.144676 0.144676 0.144676 0.072338 0.289352 0.289352 0.289352 0.144676 0.144676 0.144676 0.0723379 0.289352 0.289352 0.289352 0.144676 0.144676 0.144676 0.0723379 0.289352 0.289352 0.289352 0.144676 0.144676 0.144676 0.0723379 0.289352 0.289352 0.289352 0.144676 0.144676 0.144676 0.072338 0.289352 0.289352 0.289352 0.144676 0.144676 0.144676 0.0723379 0.289352 0.289352 0.289352 0.144676 0.144676 0.144676 0.0723379 0.144676 0.144676 0.289352 0.072338 0.144676 0.144676 0.072338 0.289352 0.144676 0.289352 0.289352 0.144676 0.144676 0.144676 0.072338 0.144676 0.072338 0.289352 0.289352 0.289352 0.144676 0.144676 0.144676 0.072338 0.289352 0.289352 0.289352 0.144676 0.144676 0.144676 0.072338 0.289352 0.289352 0.289352 0.144676 0.144676 0.144676 0.072338 0.289352 0.289352 0.289352 0.144676 0.144676 0.144676 0.072338 0.289352 0.289352 0.289352 0.144676 0.144676 0.144676 0.072338 0.289352 0.289352 0.289352 0.144676 0.144676 0.144676 0.072338 0.289352 0.289352 0.289352 0.144676 0.144676 0.144676 0.072338 0.289352 0.289352 0.289352 0.144676 0.144676 0.144676 0.072338 0.289352 0.289352 0.289352 0.144676 0.144676 0.144676 0.0723379 0.289352 0.289352 0.289352 0.144676 0.144676 0.144676 0.0723379 0.289352 0.289352 0.289352 0.144676 0.144676 0.144676 0.072338 0.289352 0.289352 0.289352 0.144676 0.144676 0.144676 0.072338 0.289352 0.289352 0.289352 0.144676 0.144676 0.144676 0.072338 0.289352 0.289352 0.289352 0.144676 0.144676 0.144676 0.0723379 0.289352 0.289352 0.289352 0.144676 0.144676 0.144676 0.072338 0.289352 0.289352 0.289352 0.144676 0.144676 0.144676 0.072338 0.289352 0.289352 0.289352 0.144676 0.144676 0.144676 0.0723379 0.289352 0.289352 0.289352 0.144676 0.144676 0.144676 0.0723379 0.289352 0.289352 0.289352 0.144676 0.144676 0.144676 0.0723379 0.289352 0.289352 0.289352 0.144676 0.144676 0.144676 0.072338 0.289352 0.289352 0.289352 0.144676 0.144676 0.144676 0.0723379 0.289352 0.289352 0.289352 0.144676 0.144676 0.144676 0.0723379 0.144676 0.144676 0.289352 0.072338 0.144676 0.144676 0.072338 0.289352 0.144676 0.289352 0.289352 0.144676 0.144676 0.144676 0.072338 0.144676 0.072338 0.289352 0.289352 0.289352 0.144676 0.144676 0.144676 0.072338 0.289352 0.289352 0.289352 0.144676 0.144676 0.144676 0.072338 0.289352 0.289352 0.289352 0.144676 0.144676 0.144676 0.072338 0.289352 0.289352 0.289352 0.144676 0.144676 0.144676 0.072338 0.289352 0.289352 0.289352 0.144676 0.144676 0.144676 0.072338 0.289352 0.289352 0.289352 0.144676 0.144676 0.144676 0.072338 0.289352 0.289352 0.289352 0.144676 0.144676 0.144676 0.072338 0.289352 0.289352 0.289352 0.144676 0.144676 0.144676 0.072338 0.289352 0.289352 0.289352 0.144676 0.144676 0.144676 0.072338 0.289352 0.289352 0.289352 0.144676 0.144676 0.144676 0.072338 0.289352 0.289352 0.289352 0.144676 0.144676 0.144676 0.072338 0.289352 0.289352 0.289352 0.144676 0.144676 0.144676 0.072338 0.289352 0.289352 0.289352 0.144676 0.144676 0.144676 0.072338 0.289352 0.289352 0.289352 0.144676 0.144676 0.144676 0.0723379 0.289352 0.289352 0.289352 0.144676 0.144676 0.144676 0.072338 0.289352 0.289352 0.289352 0.144676 0.144676 0.144676 0.072338 0.289352 0.289352 0.289352 0.144676 0.144676 0.144676 0.0723379 0.289352 0.289352 0.289352 0.144676 0.144676 0.144676 0.0723379 0.289352 0.289352 0.289352 0.144676 0.144676 0.144676 0.0723379 0.289352 0.289352 0.289352 0.144676 0.144676 0.144676 0.072338 0.289352 0.289352 0.289352 0.144676 0.144676 0.144676 0.072338 0.289352 0.289352 0.289352 0.144676 0.144676 0.144676 0.0723379 0.144676 0.144676 0.289352 0.072338 0.144676 0.144676 0.072338 0.289352 0.144676 0.289352 0.289352 0.144676 0.144676 0.144676 0.072338 0.144676 0.072338 0.289352 0.289352 0.289352 0.144676 0.144676 0.144676 0.072338 0.289352 0.289352 0.289352 0.144676 0.144676 0.144676 0.072338 0.289352 0.289352 0.289352 0.144676 0.144676 0.144676 0.072338 0.289352 0.289352 0.289352 0.144676 0.144676 0.144676 0.072338 0.289352 0.289352 0.289352 0.144676 0.144676 0.144676 0.072338 0.289352 0.289352 0.289352 0.144676 0.144676 0.144676 0.072338 0.289352 0.289352 0.289352 0.144676 0.144676 0.144676 0.072338 0.289352 0.289352 0.289352 0.144676 0.144676 0.144676 0.072338 0.289352 0.289352 0.289352 0.144676 0.144676 0.144676 0.072338 0.289352 0.289352 0.289352 0.144676 0.144676 0.144676 0.072338 0.289352 0.289352 0.289352 0.144676 0.144676 0.144676 0.072338 0.289352 0.289352 0.289352 0.144676 0.144676 0.144676 0.072338 0.289352 0.289352 0.289352 0.144676 0.144676 0.144676 0.072338 0.289352 0.289352 0.289352 0.144676 0.144676 0.144676 0.0723379 0.289352 0.289352 0.289352 0.144676 0.144676 0.144676 0.072338 0.289352 0.289352 0.289352 0.144676 0.144676 0.144676 0.072338 0.289352 0.289352 0.289352 0.144676 0.144676 0.144676 0.072338 0.289352 0.289352 0.289352 0.144676 0.144676 0.144676 0.072338 0.289352 0.289352 0.289352 0.144676 0.144676 0.144676 0.0723379 0.289352 0.289352 0.289352 0.144676 0.144676 0.144676 0.072338 0.289352 0.289352 0.289352 0.144676 0.144676 0.144676 0.072338 0.289352 0.289352 0.289352 0.144676 0.144676 0.144676 0.0723379 0.144676 0.144676 0.289352 0.072338 0.144676 0.144676 0.072338 0.289352 0.144676 0.144676 0.144676 0.072338 0.144676 0.144676 0.072338 0.072338 0.072338 0.289352 0.144676 0.144676 0.144676 0.144676 0.072338 0.072338 0.289352 0.144676 0.144676 0.144676 0.144676 0.072338 0.072338 0.289352 0.144676 0.144676 0.144676 0.144676 0.072338 0.072338 0.289352 0.144676 0.144676 0.144676 0.144676 0.072338 0.072338 0.289352 0.144676 0.144676 0.144676 0.144676 0.072338 0.072338 0.289352 0.144676 0.144676 0.144676 0.144676 0.072338 0.072338 0.289352 0.144676 0.144676 0.144676 0.144676 0.072338 0.072338 0.289352 0.144676 0.144676 0.144676 0.144676 0.072338 0.072338 0.289352 0.144676 0.144676 0.144676 0.144676 0.0723379 0.0723379 0.289352 0.144676 0.144676 0.144676 0.144676 0.0723379 0.0723379 0.289352 0.144676 0.144676 0.144676 0.144676 0.072338 0.072338 0.289352 0.144676 0.144676 0.144676 0.144676 0.072338 0.072338 0.289352 0.144676 0.144676 0.144676 0.144676 0.072338 0.072338 0.289352 0.144676 0.144676 0.144676 0.144676 0.0723379 0.0723379 0.289352 0.144676 0.144676 0.144676 0.144676 0.072338 0.072338 0.289352 0.144676 0.144676 0.144676 0.144676 0.072338 0.072338 0.289352 0.144676 0.144676 0.144676 0.144676 0.0723379 0.0723379 0.289352 0.144676 0.144676 0.144676 0.144676 0.0723379 0.0723379 0.289352 0.144676 0.144676 0.144676 0.144676 0.0723379 0.0723379 0.289352 0.144676 0.144676 0.144676 0.144676 0.072338 0.072338 0.289352 0.144676 0.144676 0.144676 0.144676 0.0723379 0.0723379 0.289352 0.144676 0.144676 0.144676 0.144676 0.0723379 0.0723379 0.144676 0.072338 0.144676 0.072338 0.144676 0.072338 0.072338 0.144676 0.144676 0.072338 0.289352 0.144676 0.289352 0.289352 0.144676 0.072338 0.144676 0.144676 0.072338 0.144676 0.072338 0.144676 0.144676 0.289352 0.289352 0.289352 0.072338 0.144676 0.144676 0.144676 0.072338 0.144676 0.144676 0.289352 0.289352 0.289352 0.072338 0.144676 0.144676 0.144676 0.072338 0.144676 0.144676 0.289352 0.289352 0.289352 0.0723379 0.144676 0.144676 0.144676 0.0723379 0.144676 0.144676 0.289352 0.289352 0.289352 0.0723379 0.144676 0.144676 0.144676 0.0723379 0.144676 0.144676 0.289352 0.289352 0.289352 0.0723379 0.144676 0.144676 0.144676 0.0723379 0.144676 0.144676 0.289352 0.289352 0.289352 0.072338 0.144676 0.144676 0.144676 0.072338 0.144676 0.144676 0.289352 0.289352 0.289352 0.0723379 0.144676 0.144676 0.144676 0.0723379 0.144676 0.144676 0.289352 0.289352 0.289352 0.072338 0.144676 0.144676 0.144676 0.072338 0.144676 0.144676 0.289352 0.289352 0.289352 0.0723379 0.144676 0.144676 0.144676 0.0723379 0.144676 0.144676 0.289352 0.289352 0.289352 0.0723379 0.144676 0.144676 0.144676 0.0723379 0.144676 0.144676 0.289352 0.289352 0.289352 0.072338 0.144676 0.144676 0.144676 0.072338 0.144676 0.144676 0.289352 0.289352 0.289352 0.0723379 0.144676 0.144676 0.144676 0.0723379 0.144676 0.144676 0.289352 0.289352 0.289352 0.072338 0.144676 0.144676 0.144676 0.072338 0.144676 0.144676 0.289352 0.289352 0.289352 0.0723379 0.144676 0.144676 0.144676 0.0723379 0.144676 0.144676 0.289352 0.289352 0.289352 0.072338 0.144676 0.144676 0.144676 0.072338 0.144676 0.144676 0.289352 0.289352 0.289352 0.0723379 0.144676 0.144676 0.144676 0.0723379 0.144676 0.144676 0.289352 0.289352 0.289352 0.0723379 0.144676 0.144676 0.144676 0.0723379 0.144676 0.144676 0.289352 0.289352 0.289352 0.0723379 0.144676 0.144676 0.144676 0.0723379 0.144676 0.144676 0.289352 0.289352 0.289351 0.0723379 0.144676 0.144676 0.144676 0.0723379 0.144676 0.144676 0.289352 0.289352 0.289352 0.072338 0.144676 0.144676 0.144676 0.072338 0.144676 0.144676 0.289352 0.289352 0.289352 0.0723379 0.144676 0.144676 0.144676 0.0723379 0.144676 0.144676 0.289352 0.289352 0.289352 0.0723379 0.144676 0.144676 0.144676 0.0723379 0.072338 0.144676 0.144676 0.144676 0.289352 0.072338 0.072338 0.144676 0.144676 0.072338 0.289352 0.144676 0.289352 0.289352 0.144676 0.144676 0.144676 0.072338 0.144676 0.072338 0.289352 0.289352 0.289352 0.144676 0.144676 0.144676 0.072338 0.289352 0.289352 0.289352 0.144676 0.144676 0.144676 0.072338 0.289352 0.289352 0.289352 0.144676 0.144676 0.144676 0.0723379 0.289352 0.289352 0.289352 0.144676 0.144676 0.144676 0.0723379 0.289352 0.289352 0.289352 0.144676 0.144676 0.144676 0.0723379 0.289352 0.289352 0.289352 0.144676 0.144676 0.144676 0.0723379 0.289352 0.289352 0.289352 0.144676 0.144676 0.144676 0.0723379 0.289352 0.289352 0.289352 0.144676 0.144676 0.144676 0.0723379 0.289352 0.289352 0.289352 0.144676 0.144676 0.144676 0.0723379 0.289352 0.289352 0.289352 0.144676 0.144676 0.144676 0.0723379 0.289352 0.289352 0.289352 0.144676 0.144676 0.144676 0.0723379 0.289352 0.289352 0.289352 0.144676 0.144676 0.144676 0.0723379 0.289352 0.289352 0.289352 0.144676 0.144676 0.144676 0.072338 0.289352 0.289352 0.289352 0.144676 0.144676 0.144676 0.0723379 0.289352 0.289352 0.289352 0.144676 0.144676 0.144676 0.072338 0.289352 0.289352 0.289352 0.144676 0.144676 0.144676 0.0723379 0.289352 0.289352 0.289352 0.144676 0.144676 0.144676 0.0723379 0.289352 0.289352 0.289352 0.144676 0.144676 0.144676 0.0723379 0.289352 0.289352 0.289351 0.144676 0.144676 0.144676 0.0723379 0.289352 0.289352 0.289352 0.144676 0.144676 0.144676 0.072338 0.289352 0.289352 0.289352 0.144676 0.144676 0.144676 0.0723379 0.289352 0.289352 0.289352 0.144676 0.144676 0.144676 0.0723379 0.144676 0.144676 0.289352 0.072338 0.144676 0.144676 0.072338 0.289352 0.144676 0.289352 0.289352 0.144676 0.144676 0.144676 0.072338 0.144676 0.072338 0.289352 0.289352 0.289352 0.144676 0.144676 0.144676 0.072338 0.289352 0.289352 0.289352 0.144676 0.144676 0.144676 0.072338 0.289352 0.289352 0.289352 0.144676 0.144676 0.144676 0.0723379 0.289352 0.289352 0.289352 0.144676 0.144676 0.144676 0.0723379 0.289352 0.289352 0.289352 0.144676 0.144676 0.144676 0.0723379 0.289352 0.289352 0.289352 0.144676 0.144676 0.144676 0.072338 0.289352 0.289352 0.289352 0.144676 0.144676 0.144676 0.0723379 0.289352 0.289352 0.289352 0.144676 0.144676 0.144676 0.0723379 0.289352 0.289352 0.289352 0.144676 0.144676 0.144676 0.0723379 0.289352 0.289352 0.289352 0.144676 0.144676 0.144676 0.0723379 0.289352 0.289352 0.289352 0.144676 0.144676 0.144676 0.0723379 0.289352 0.289352 0.289352 0.144676 0.144676 0.144676 0.0723379 0.289352 0.289352 0.289352 0.144676 0.144676 0.144676 0.072338 0.289352 0.289352 0.289352 0.144676 0.144676 0.144676 0.0723379 0.289352 0.289352 0.289352 0.144676 0.144676 0.144676 0.072338 0.289352 0.289352 0.289352 0.144676 0.144676 0.144676 0.0723379 0.289352 0.289352 0.289352 0.144676 0.144676 0.144676 0.0723379 0.289352 0.289352 0.289352 0.144676 0.144676 0.144676 0.0723379 0.289352 0.289352 0.289351 0.144676 0.144676 0.144676 0.0723379 0.289352 0.289352 0.289352 0.144676 0.144676 0.144676 0.072338 0.289352 0.289352 0.289352 0.144676 0.144676 0.144676 0.0723379 0.289352 0.289352 0.289352 0.144676 0.144676 0.144676 0.0723379 0.144676 0.144676 0.289352 0.072338 0.144676 0.144676 0.072338 0.289352 0.144676 0.289352 0.289352 0.144676 0.144676 0.144676 0.0723379 0.144676 0.0723379 0.289352 0.289352 0.289352 0.144676 0.144676 0.144676 0.0723379 0.289352 0.289352 0.289352 0.144676 0.144676 0.144676 0.072338 0.289352 0.289352 0.289352 0.144676 0.144676 0.144676 0.0723379 0.289352 0.289352 0.289352 0.144676 0.144676 0.144676 0.0723379 0.289352 0.289352 0.289352 0.144676 0.144676 0.144676 0.0723379 0.289352 0.289352 0.289352 0.144676 0.144676 0.144676 0.0723379 0.289352 0.289352 0.289352 0.144676 0.144676 0.144676 0.0723379 0.289352 0.289352 0.289352 0.144676 0.144676 0.144676 0.0723379 0.289352 0.289352 0.289352 0.144676 0.144676 0.144676 0.0723379 0.289352 0.289352 0.289352 0.144676 0.144676 0.144676 0.0723379 0.289352 0.289352 0.289352 0.144676 0.144676 0.144676 0.0723379 0.289352 0.289352 0.289352 0.144676 0.144676 0.144676 0.0723379 0.289352 0.289352 0.289352 0.144676 0.144676 0.144676 0.072338 0.289352 0.289352 0.289352 0.144676 0.144676 0.144676 0.0723379 0.289352 0.289352 0.289352 0.144676 0.144676 0.144676 0.072338 0.289352 0.289352 0.289352 0.144676 0.144676 0.144676 0.0723379 0.289352 0.289352 0.289352 0.144676 0.144676 0.144676 0.0723379 0.289351 0.289352 0.289352 0.144676 0.144676 0.144676 0.0723379 0.289352 0.289352 0.289351 0.144676 0.144676 0.144676 0.0723379 0.289352 0.289352 0.289352 0.144676 0.144676 0.144676 0.072338 0.289352 0.289352 0.289352 0.144676 0.144676 0.144676 0.0723379 0.289352 0.289352 0.289352 0.144676 0.144676 0.144676 0.0723379 0.144676 0.144676 0.289352 0.0723379 0.144676 0.144676 0.0723379 0.289352 0.144676 0.289352 0.289352 0.144676 0.144676 0.144676 0.0723379 0.144676 0.0723379 0.289352 0.289352 0.289352 0.144676 0.144676 0.144676 0.0723379 0.289352 0.289352 0.289352 0.144676 0.144676 0.144676 0.0723379 0.289352 0.289352 0.289352 0.144676 0.144676 0.144676 0.0723379 0.289352 0.289352 0.289352 0.144676 0.144676 0.144676 0.0723379 0.289352 0.289352 0.289352 0.144676 0.144676 0.144676 0.0723379 0.289352 0.289352 0.289352 0.144676 0.144676 0.144676 0.0723379 0.289352 0.289352 0.289352 0.144676 0.144676 0.144676 0.0723379 0.289352 0.289352 0.289352 0.144676 0.144676 0.144676 0.0723379 0.289352 0.289352 0.289352 0.144676 0.144676 0.144676 0.0723379 0.289352 0.289352 0.289352 0.144676 0.144676 0.144676 0.0723379 0.289352 0.289352 0.289352 0.144676 0.144676 0.144676 0.0723379 0.289352 0.289352 0.289352 0.144676 0.144676 0.144676 0.0723379 0.289352 0.289352 0.289352 0.144676 0.144676 0.144676 0.072338 0.289352 0.289352 0.289352 0.144676 0.144676 0.144676 0.0723379 0.289352 0.289352 0.289352 0.144676 0.144676 0.144676 0.072338 0.289352 0.289352 0.289352 0.144676 0.144676 0.144676 0.0723379 0.289352 0.289352 0.289352 0.144676 0.144676 0.144676 0.0723379 0.289351 0.289352 0.289352 0.144676 0.144676 0.144676 0.0723379 0.289352 0.289352 0.289351 0.144676 0.144676 0.144676 0.0723379 0.289352 0.289352 0.289352 0.144676 0.144676 0.144676 0.072338 0.289352 0.289352 0.289352 0.144676 0.144676 0.144676 0.0723379 0.289352 0.289352 0.289352 0.144676 0.144676 0.144676 0.0723379 0.144676 0.144676 0.289352 0.072338 0.144676 0.144676 0.072338 0.289352 0.144676 0.289352 0.289352 0.144676 0.144676 0.144676 0.0723379 0.144676 0.0723379 0.289352 0.289352 0.289352 0.144676 0.144676 0.144676 0.0723379 0.289352 0.289352 0.289352 0.144676 0.144676 0.144676 0.072338 0.289352 0.289352 0.289352 0.144676 0.144676 0.144676 0.0723379 0.289352 0.289352 0.289352 0.144676 0.144676 0.144676 0.0723379 0.289352 0.289352 0.289352 0.144676 0.144676 0.144676 0.0723379 0.289352 0.289352 0.289352 0.144676 0.144676 0.144676 0.072338 0.289352 0.289352 0.289352 0.144676 0.144676 0.144676 0.0723379 0.289352 0.289352 0.289352 0.144676 0.144676 0.144676 0.0723379 0.289352 0.289352 0.289352 0.144676 0.144676 0.144676 0.0723379 0.289352 0.289352 0.289352 0.144676 0.144676 0.144676 0.0723379 0.289352 0.289352 0.289352 0.144676 0.144676 0.144676 0.072338 0.289352 0.289352 0.289352 0.144676 0.144676 0.144676 0.0723379 0.289352 0.289352 0.289352 0.144676 0.144676 0.144676 0.072338 0.289352 0.289352 0.289352 0.144676 0.144676 0.144676 0.0723379 0.289352 0.289352 0.289352 0.144676 0.144676 0.144676 0.072338 0.289352 0.289352 0.289352 0.144676 0.144676 0.144676 0.072338 0.289352 0.289352 0.289352 0.144676 0.144676 0.144676 0.0723379 0.289352 0.289352 0.289352 0.144676 0.144676 0.144676 0.0723379 0.289352 0.289352 0.289351 0.144676 0.144676 0.144676 0.0723379 0.289352 0.289352 0.289352 0.144676 0.144676 0.144676 0.072338 0.289352 0.289352 0.289352 0.144676 0.144676 0.144676 0.0723379 0.289352 0.289352 0.289352 0.144676 0.144676 0.144676 0.0723379 0.144676 0.144676 0.289352 0.072338 0.144676 0.144676 0.072338 0.289352 0.144676 0.289352 0.289352 0.144676 0.144676 0.144676 0.072338 0.144676 0.072338 0.289352 0.289352 0.289352 0.144676 0.144676 0.144676 0.072338 0.289352 0.289352 0.289352 0.144676 0.144676 0.144676 0.072338 0.289352 0.289352 0.289352 0.144676 0.144676 0.144676 0.0723379 0.289352 0.289352 0.289352 0.144676 0.144676 0.144676 0.0723379 0.289352 0.289352 0.289352 0.144676 0.144676 0.144676 0.072338 0.289352 0.289352 0.289352 0.144676 0.144676 0.144676 0.072338 0.289352 0.289352 0.289352 0.144676 0.144676 0.144676 0.0723379 0.289352 0.289352 0.289352 0.144676 0.144676 0.144676 0.072338 0.289352 0.289352 0.289352 0.144676 0.144676 0.144676 0.0723379 0.289352 0.289352 0.289352 0.144676 0.144676 0.144676 0.0723379 0.289352 0.289352 0.289352 0.144676 0.144676 0.144676 0.072338 0.289352 0.289352 0.289352 0.144676 0.144676 0.144676 0.072338 0.289352 0.289352 0.289352 0.144676 0.144676 0.144676 0.072338 0.289352 0.289352 0.289352 0.144676 0.144676 0.144676 0.0723379 0.289352 0.289352 0.289352 0.144676 0.144676 0.144676 0.072338 0.289352 0.289352 0.289352 0.144676 0.144676 0.144676 0.072338 0.289352 0.289352 0.289352 0.144676 0.144676 0.144676 0.0723379 0.289352 0.289352 0.289352 0.144676 0.144676 0.144676 0.0723379 0.289352 0.289352 0.289351 0.144676 0.144676 0.144676 0.0723379 0.289352 0.289352 0.289352 0.144676 0.144676 0.144676 0.072338 0.289352 0.289352 0.289352 0.144676 0.144676 0.144676 0.0723379 0.289352 0.289352 0.289352 0.144676 0.144676 0.144676 0.0723379 0.144676 0.144676 0.289352 0.072338 0.144676 0.144676 0.072338 0.289352 0.144676 0.144676 0.144676 0.0723379 0.144676 0.144676 0.0723379 0.0723379 0.0723379 0.289352 0.144676 0.144676 0.144676 0.144676 0.0723379 0.0723379 0.289352 0.144676 0.144676 0.144676 0.144676 0.0723379 0.0723379 0.289352 0.144676 0.144676 0.144676 0.144676 0.0723379 0.0723379 0.289352 0.144676 0.144676 0.144676 0.144676 0.0723379 0.0723379 0.289352 0.144676 0.144676 0.144676 0.144676 0.0723379 0.0723379 0.289352 0.144676 0.144676 0.144676 0.144676 0.0723379 0.0723379 0.289352 0.144676 0.144676 0.144676 0.144676 0.0723379 0.0723379 0.289352 0.144676 0.144676 0.144676 0.144676 0.0723379 0.0723379 0.289352 0.144676 0.144676 0.144676 0.144676 0.0723379 0.0723379 0.289352 0.144676 0.144676 0.144676 0.144676 0.0723379 0.0723379 0.289352 0.144676 0.144676 0.144676 0.144676 0.0723379 0.0723379 0.289352 0.144676 0.144676 0.144676 0.144676 0.0723379 0.0723379 0.289352 0.144676 0.144676 0.144676 0.144676 0.072338 0.072338 0.289352 0.144676 0.144676 0.144676 0.144676 0.0723379 0.0723379 0.289352 0.144676 0.144676 0.144676 0.144676 0.072338 0.072338 0.289352 0.144676 0.144676 0.144676 0.144676 0.0723379 0.0723379 0.289352 0.144676 0.144676 0.144676 0.144676 0.0723379 0.0723379 0.289351 0.144676 0.144676 0.144676 0.144676 0.0723379 0.0723379 0.289352 0.144676 0.144676 0.144676 0.144676 0.0723379 0.0723379 0.289352 0.144676 0.144676 0.144676 0.144676 0.072338 0.072338 0.289352 0.144676 0.144676 0.144676 0.144676 0.0723379 0.0723379 0.289352 0.144676 0.144676 0.144676 0.144676 0.0723379 0.0723379 0.144676 0.0723379 0.144676 0.0723379 0.144676 0.0723379 0.0723379 0.144676 0.0723379 0.0723379 0.144676 0.0723379 0.289352 0.144676 0.144676 0.0723379 0.144676 0.0723379 0.0723379 0.144676 0.0723379 0.144676 0.0723379 0.144676 0.289352 0.144676 0.0723379 0.144676 0.0723379 0.144676 0.0723379 0.144676 0.0723379 0.144676 0.289352 0.144676 0.0723379 0.144676 0.0723379 0.144676 0.0723379 0.144676 0.0723379 0.144676 0.289352 0.144676 0.0723379 0.144676 0.0723379 0.144676 0.0723379 0.144676 0.0723379 0.144676 0.289352 0.144676 0.0723379 0.144676 0.0723379 0.144676 0.0723379 0.144676 0.0723379 0.144676 0.289352 0.144676 0.0723379 0.144676 0.0723379 0.144676 0.0723379 0.144676 0.0723379 0.144676 0.289352 0.144676 0.0723379 0.144676 0.0723379 0.144676 0.0723379 0.144676 0.0723379 0.144676 0.289352 0.144676 0.0723379 0.144676 0.0723379 0.144676 0.0723379 0.144676 0.0723379 0.144676 0.289352 0.144676 0.0723379 0.144676 0.0723379 0.144676 0.0723379 0.144676 0.0723379 0.144676 0.289352 0.144676 0.0723379 0.144676 0.0723379 0.144676 0.0723379 0.144676 0.0723379 0.144676 0.289352 0.144676 0.0723379 0.144676 0.0723379 0.144676 0.0723379 0.144676 0.0723379 0.144676 0.289352 0.144676 0.0723379 0.144676 0.0723379 0.144676 0.0723379 0.144676 0.0723379 0.144676 0.289352 0.144676 0.0723379 0.144676 0.0723379 0.144676 0.0723379 0.144676 0.0723379 0.144676 0.289352 0.144676 0.0723379 0.144676 0.0723379 0.144676 0.0723379 0.144676 0.0723379 0.144676 0.289352 0.144676 0.0723379 0.144676 0.0723379 0.144676 0.0723379 0.144676 0.0723379 0.144676 0.289352 0.144676 0.0723379 0.144676 0.0723379 0.144676 0.0723379 0.144676 0.0723379 0.144676 0.289352 0.144676 0.0723379 0.144676 0.0723379 0.144676 0.0723379 0.144676 0.0723379 0.144676 0.289351 0.144676 0.0723379 0.144676 0.0723379 0.144676 0.0723379 0.144676 0.0723379 0.144676 0.289351 0.144676 0.0723379 0.144676 0.0723379 0.144676 0.0723379 0.144676 0.0723379 0.144676 0.289352 0.144676 0.0723379 0.144676 0.0723379 0.144676 0.0723379 0.144676 0.0723379 0.144676 0.289352 0.144676 0.0723379 0.144676 0.0723379 0.144676 0.0723379 0.144676 0.0723379 0.144676 0.289352 0.144676 0.0723379 0.144676 0.0723379 0.144676 0.0723379 0.144676 0.0723379 0.144676 0.289352 0.144676 0.0723379 0.144676 0.0723379 0.144676 0.0723379 0.0723379 0.0723379 0.0723379 0.144676 0.144676 0.0723379 0.0723379 0.0723379 0.144676 0.0723379 0.144676 0.0723379 0.289352 0.144676 0.144676 0.144676 0.0723379 0.0723379 0.144676 0.0723379 0.144676 0.289352 0.144676 0.144676 0.0723379 0.144676 0.0723379 0.144676 0.289352 0.144676 0.144676 0.0723379 0.144676 0.0723379 0.144676 0.289352 0.144676 0.144676 0.0723379 0.144676 0.0723379 0.144676 0.289352 0.144676 0.144676 0.0723379 0.144676 0.0723379 0.144676 0.289352 0.144676 0.144676 0.0723379 0.144676 0.0723379 0.144676 0.289352 0.144676 0.144676 0.0723379 0.144676 0.0723379 0.144676 0.289352 0.144676 0.144676 0.0723379 0.144676 0.0723379 0.144676 0.289352 0.144676 0.144676 0.0723379 0.144676 0.0723379 0.144676 0.289352 0.144676 0.144676 0.0723379 0.144676 0.0723379 0.144676 0.289352 0.144676 0.144676 0.0723379 0.144676 0.0723379 0.144676 0.289352 0.144676 0.144676 0.0723379 0.144676 0.0723379 0.144676 0.289352 0.144676 0.144676 0.0723379 0.144676 0.0723379 0.144676 0.289352 0.144676 0.144676 0.0723379 0.144676 0.0723379 0.144676 0.289352 0.144676 0.144676 0.0723379 0.144676 0.0723379 0.144676 0.289352 0.144676 0.144676 0.0723379 0.144676 0.0723379 0.144676 0.289352 0.144676 0.144676 0.0723379 0.144676 0.0723379 0.144676 0.289351 0.144676 0.144676 0.0723379 0.144676 0.0723379 0.144676 0.289351 0.144676 0.144676 0.0723379 0.144676 0.0723379 0.144676 0.289352 0.144676 0.144676 0.0723379 0.144676 0.0723379 0.144676 0.289352 0.144676 0.144676 0.0723379 0.144676 0.0723379 0.144676 0.289352 0.144676 0.144676 0.0723379 0.144676 0.0723379 0.144676 0.289352 0.144676 0.144676 0.0723379 0.144676 0.0723379 0.0723379 0.144676 0.144676 0.0723379 0.0723379 0.144676 0.0723379 0.144676 0.0723379 0.289352 0.144676 0.144676 0.144676 0.0723379 0.0723379 0.144676 0.0723379 0.144676 0.289352 0.144676 0.144676 0.0723379 0.144676 0.0723379 0.144676 0.289352 0.144676 0.144676 0.0723379 0.144676 0.0723379 0.144676 0.289352 0.144676 0.144676 0.0723379 0.144676 0.0723379 0.144676 0.289352 0.144676 0.144676 0.0723379 0.144676 0.0723379 0.144676 0.289352 0.144676 0.144676 0.0723379 0.144676 0.0723379 0.144676 0.289352 0.144676 0.144676 0.0723379 0.144676 0.0723379 0.144676 0.289352 0.144676 0.144676 0.0723379 0.144676 0.0723379 0.144676 0.289352 0.144676 0.144676 0.0723379 0.144676 0.0723379 0.144676 0.289351 0.144676 0.144676 0.0723379 0.144676 0.0723379 0.144676 0.289352 0.144676 0.144676 0.0723379 0.144676 0.0723379 0.144676 0.289352 0.144676 0.144676 0.0723379 0.144676 0.0723379 0.144676 0.289352 0.144676 0.144676 0.0723379 0.144676 0.0723379 0.144676 0.289352 0.144676 0.144676 0.0723379 0.144676 0.0723379 0.144676 0.289352 0.144676 0.144676 0.0723379 0.144676 0.0723379 0.144676 0.289352 0.144676 0.144676 0.0723379 0.144676 0.0723379 0.144676 0.289352 0.144676 0.144676 0.0723379 0.144676 0.0723379 0.144676 0.289351 0.144676 0.144676 0.0723379 0.144676 0.0723379 0.144676 0.289351 0.144676 0.144676 0.0723379 0.144676 0.0723379 0.144676 0.289352 0.144676 0.144676 0.0723379 0.144676 0.0723379 0.144676 0.289352 0.144676 0.144676 0.0723379 0.144676 0.0723379 0.144676 0.289352 0.144676 0.144676 0.0723379 0.144676 0.0723379 0.144676 0.289352 0.144676 0.144676 0.0723379 0.144676 0.0723379 0.0723379 0.144676 0.144676 0.0723379 0.0723379 0.144676 0.0723379 0.144676 0.0723379 0.289352 0.144676 0.144676 0.144676 0.0723379 0.0723379 0.144676 0.0723379 0.144676 0.289352 0.144676 0.144676 0.0723379 0.144676 0.0723379 0.144676 0.289352 0.144676 0.144676 0.0723379 0.144676 0.0723379 0.144676 0.289352 0.144676 0.144676 0.0723379 0.144676 0.0723379 0.144676 0.289352 0.144676 0.144676 0.0723379 0.144676 0.0723379 0.144676 0.289352 0.144676 0.144676 0.0723379 0.144676 0.0723379 0.144676 0.289352 0.144676 0.144676 0.0723379 0.144676 0.0723379 0.144676 0.289352 0.144676 0.144676 0.0723379 0.144676 0.0723379 0.144676 0.289352 0.144676 0.144676 0.0723379 0.144676 0.0723379 0.144676 0.289351 0.144676 0.144676 0.0723379 0.144676 0.0723379 0.144676 0.289352 0.144676 0.144676 0.0723379 0.144676 0.0723379 0.144676 0.289352 0.144676 0.144676 0.0723379 0.144676 0.0723379 0.144676 0.289352 0.144676 0.144676 0.0723379 0.144676 0.0723379 0.144676 0.289352 0.144676 0.144676 0.0723379 0.144676 0.0723379 0.144676 0.289352 0.144676 0.144676 0.0723379 0.144676 0.0723379 0.144676 0.289352 0.144676 0.144676 0.0723379 0.144676 0.0723379 0.144676 0.289352 0.144676 0.144676 0.0723379 0.144676 0.0723379 0.144676 0.289351 0.144676 0.144676 0.0723379 0.144676 0.0723379 0.144676 0.289351 0.144676 0.144676 0.0723379 0.144676 0.0723379 0.144676 0.289352 0.144676 0.144676 0.0723378 0.144676 0.0723378 0.144676 0.289352 0.144676 0.144676 0.0723379 0.144676 0.0723379 0.144676 0.289352 0.144676 0.144676 0.0723379 0.144676 0.0723379 0.144676 0.289352 0.144676 0.144676 0.0723379 0.144676 0.0723379 0.0723379 0.144676 0.144676 0.0723379 0.0723379 0.144676 0.0723379 0.144676 0.0723379 0.289352 0.144676 0.144676 0.144676 0.0723379 0.0723379 0.144676 0.0723379 0.144676 0.289352 0.144676 0.144676 0.0723379 0.144676 0.0723379 0.144676 0.289352 0.144676 0.144676 0.0723379 0.144676 0.0723379 0.144676 0.289352 0.144676 0.144676 0.0723379 0.144676 0.0723379 0.144676 0.289352 0.144676 0.144676 0.0723379 0.144676 0.0723379 0.144676 0.289352 0.144676 0.144676 0.0723379 0.144676 0.0723379 0.144676 0.289352 0.144676 0.144676 0.0723379 0.144676 0.0723379 0.144676 0.289352 0.144676 0.144676 0.0723379 0.144676 0.0723379 0.144676 0.289352 0.144676 0.144676 0.0723379 0.144676 0.0723379 0.144676 0.289352 0.144676 0.144676 0.0723379 0.144676 0.0723379 0.144676 0.289352 0.144676 0.144676 0.0723379 0.144676 0.0723379 0.144676 0.289352 0.144676 0.144676 0.0723379 0.144676 0.0723379 0.144676 0.289352 0.144676 0.144676 0.0723379 0.144676 0.0723379 0.144676 0.289352 0.144676 0.144676 0.0723379 0.144676 0.0723379 0.144676 0.289352 0.144676 0.144676 0.0723379 0.144676 0.0723379 0.144676 0.289352 0.144676 0.144676 0.0723379 0.144676 0.0723379 0.144676 0.289352 0.144676 0.144676 0.0723379 0.144676 0.0723379 0.144676 0.289351 0.144676 0.144676 0.0723379 0.144676 0.0723379 0.144676 0.289351 0.144676 0.144676 0.0723379 0.144676 0.0723379 0.144676 0.289352 0.144676 0.144676 0.0723378 0.144676 0.0723378 0.144676 0.289352 0.144676 0.144676 0.0723379 0.144676 0.0723379 0.144676 0.289352 0.144676 0.144676 0.0723379 0.144676 0.0723379 0.144676 0.289352 0.144676 0.144676 0.0723379 0.144676 0.0723379 0.0723379 0.144676 0.144676 0.0723379 0.0723379 0.144676 0.0723379 0.144676 0.0723379 0.289352 0.144676 0.144676 0.144676 0.0723379 0.0723379 0.144676 0.0723379 0.144676 0.289352 0.144676 0.144676 0.0723379 0.144676 0.0723379 0.144676 0.289352 0.144676 0.144676 0.0723379 0.144676 0.0723379 0.144676 0.289352 0.144676 0.144676 0.0723379 0.144676 0.0723379 0.144676 0.289352 0.144676 0.144676 0.0723379 0.144676 0.0723379 0.144676 0.289352 0.144676 0.144676 0.0723379 0.144676 0.0723379 0.144676 0.289352 0.144676 0.144676 0.0723379 0.144676 0.0723379 0.144676 0.289352 0.144676 0.144676 0.0723379 0.144676 0.0723379 0.144676 0.289352 0.144676 0.144676 0.0723379 0.144676 0.0723379 0.144676 0.289352 0.144676 0.144676 0.0723379 0.144676 0.0723379 0.144676 0.289352 0.144676 0.144676 0.0723379 0.144676 0.0723379 0.144676 0.289352 0.144676 0.144676 0.0723379 0.144676 0.0723379 0.144676 0.289352 0.144676 0.144676 0.0723379 0.144676 0.0723379 0.144676 0.289352 0.144676 0.144676 0.0723379 0.144676 0.0723379 0.144676 0.289352 0.144676 0.144676 0.0723379 0.144676 0.0723379 0.144676 0.289352 0.144676 0.144676 0.0723379 0.144676 0.0723379 0.144676 0.289352 0.144676 0.144676 0.0723379 0.144676 0.0723379 0.144676 0.289352 0.144676 0.144676 0.0723379 0.144676 0.0723379 0.144676 0.289351 0.144676 0.144676 0.0723379 0.144676 0.0723379 0.144676 0.289352 0.144676 0.144676 0.0723379 0.144676 0.0723379 0.144676 0.289352 0.144676 0.144676 0.0723379 0.144676 0.0723379 0.144676 0.289352 0.144676 0.144676 0.0723379 0.144676 0.0723379 0.144676 0.289352 0.144676 0.144676 0.0723379 0.144676 0.0723379 0.0723379 0.144676 0.144676 0.0723379 0.0723379 0.144676 0.0723379 0.144676 0.0723379 0.289352 0.144676 0.144676 0.144676 0.0723379 0.0723379 0.144676 0.0723379 0.144676 0.289352 0.144676 0.144676 0.0723379 0.144676 0.0723379 0.144676 0.289352 0.144676 0.144676 0.0723379 0.144676 0.0723379 0.144676 0.289352 0.144676 0.144676 0.0723379 0.144676 0.0723379 0.144676 0.289352 0.144676 0.144676 0.0723379 0.144676 0.0723379 0.144676 0.289352 0.144676 0.144676 0.0723379 0.144676 0.0723379 0.144676 0.289352 0.144676 0.144676 0.0723379 0.144676 0.0723379 0.144676 0.289352 0.144676 0.144676 0.0723379 0.144676 0.0723379 0.144676 0.289352 0.144676 0.144676 0.0723379 0.144676 0.0723379 0.144676 0.289352 0.144676 0.144676 0.0723379 0.144676 0.0723379 0.144676 0.289352 0.144676 0.144676 0.0723379 0.144676 0.0723379 0.144676 0.289352 0.144676 0.144676 0.0723379 0.144676 0.0723379 0.144676 0.289352 0.144676 0.144676 0.0723379 0.144676 0.0723379 0.144676 0.289352 0.144676 0.144676 0.0723379 0.144676 0.0723379 0.144676 0.289352 0.144676 0.144676 0.0723379 0.144676 0.0723379 0.144676 0.289352 0.144676 0.144676 0.0723379 0.144676 0.0723379 0.144676 0.289352 0.144676 0.144676 0.0723379 0.144676 0.0723379 0.144676 0.289352 0.144676 0.144676 0.0723379 0.144676 0.0723379 0.144676 0.289351 0.144676 0.144676 0.0723379 0.144676 0.0723379 0.144676 0.289352 0.144676 0.144676 0.0723379 0.144676 0.0723379 0.144676 0.289352 0.144676 0.144676 0.0723379 0.144676 0.0723379 0.144676 0.289351 0.144676 0.144676 0.0723379 0.144676 0.0723379 0.144676 0.289352 0.144676 0.144676 0.0723379 0.144676 0.0723379 0.0723379 0.144676 0.144676 0.0723379 0.0723379 0.144676 0.0723379 0.144676 0.0723379 0.144676 0.0723379 0.0723379 0.144676 0.0723379 0.0723379 0.0723379 0.0723379 0.144676 0.144676 0.0723379 0.144676 0.0723379 0.0723379 0.0723379 0.144676 0.144676 0.0723379 0.144676 0.0723379 0.0723379 0.0723379 0.144676 0.144676 0.0723379 0.144676 0.0723379 0.0723379 0.0723379 0.144676 0.144676 0.0723379 0.144676 0.0723379 0.0723379 0.0723379 0.144676 0.144676 0.0723379 0.144676 0.0723379 0.0723379 0.0723379 0.144676 0.144676 0.0723379 0.144676 0.0723379 0.0723379 0.0723379 0.144676 0.144676 0.0723379 0.144676 0.0723379 0.0723379 0.0723379 0.144676 0.144676 0.0723379 0.144676 0.0723379 0.0723379 0.0723379 0.144676 0.144676 0.0723379 0.144676 0.0723379 0.0723379 0.0723379 0.144676 0.144676 0.0723379 0.144676 0.0723379 0.0723379 0.0723379 0.144676 0.144676 0.0723379 0.144676 0.0723379 0.0723379 0.0723379 0.144676 0.144676 0.0723379 0.144676 0.0723379 0.0723379 0.0723379 0.144676 0.144676 0.0723379 0.144676 0.0723379 0.0723379 0.0723379 0.144676 0.144676 0.0723379 0.144676 0.0723379 0.0723379 0.0723379 0.144676 0.144676 0.0723379 0.144676 0.0723379 0.0723379 0.0723379 0.144676 0.144676 0.0723379 0.144676 0.0723379 0.0723379 0.0723379 0.144676 0.144676 0.0723379 0.144676 0.0723379 0.0723379 0.0723379 0.144676 0.144676 0.0723379 0.144676 0.0723379 0.0723379 0.0723379 0.144676 0.144676 0.0723378 0.144676 0.0723378 0.0723378 0.0723378 0.144676 0.144676 0.0723379 0.144676 0.0723379 0.0723379 0.0723379 0.144676 0.144676 0.0723379 0.144676 0.0723379 0.0723379 0.0723379 0.144676 0.144676 0.0723379 0.144676 0.0723379 0.0723379 0.0723379 0.0723379 0.0723379 0.0723379 0.0723379 0.0723379 0.0723379 0.0723379 
VECTORS u float
0 0 0  -0.00778921 -0.00475181 -0.00945675  -0.0143584 -0.0092036 -0.013025  -0.0210446 -0.0153899 -0.0140772  -0.0277824 -0.0239369 -0.0137165  -0.0342051 -0.0340407 -0.0127282  -0.0403129 -0.0458701 -0.0115937  -0.0460501 -0.0588011 -0.0103288  -0.0514179 -0.0730231 -0.00914574  -0.0563897 -0.088058 -0.00798225  -0.0609875 -0.104063 -0.00693583  -0.0652041 -0.120671 -0.00594366  -0.0690708 -0.137981 -0.00505888  -0.0725925 -0.155717 -0.00423551  -0.0758008 -0.173923 -0.00350654  -0.0787081 -0.192396 -0.00284052  -0.0813438 -0.211142 -0.00226021  -0.0837262 -0.230018 -0.0017457  -0.0858822 -0.249005 -0.0013113  -0.0878367 -0.26801 -0.000946403  -0.0896163 -0.286997 -0.000659347  -0.0912476 -0.305917 -0.000444055  -0.0927629 -0.324736 -0.000301003  -0.0941975 -0.343442 -0.000211  -0.0956001 -0.362054 -0.000145674  0 0 0  -0.00436407 -0.00217973 -0.00666201  -0.00918102 -0.00651459 -0.00929093  -0.0140305 -0.0130348 -0.0101628  -0.0189321 -0.0217234 -0.00996959  -0.0237447 -0.0322096 -0.00933504  -0.0284107 -0.0442449 -0.00853276  -0.0328936 -0.0575656 -0.00764263  -0.0371668 -0.0720274 -0.00678301  -0.0411988 -0.0874286 -0.00593996  -0.0449911 -0.103672 -0.00517213  -0.0485305 -0.120595 -0.00444591  -0.0518327 -0.138118 -0.00379527  -0.0548954 -0.156106 -0.00319171  -0.0577385 -0.174489 -0.0026567  -0.0603651 -0.193152 -0.00216866  -0.0627974 -0.212035 -0.00174356  -0.0650425 -0.231044 -0.00136733  -0.0671213 -0.250129 -0.00105047  -0.0690453 -0.269216 -0.000782847  -0.0708351 -0.288268 -0.000571966  -0.0725038 -0.30723 -0.000408769  -0.0740714 -0.326084 -0.000291705  -0.0755537 -0.344802 -0.000199437  -0.0769765 -0.363415 -9.84669e-05  0 0 0  -0.00267613 -0.00080432 -0.00434482  -0.00542183 -0.00479466 -0.00591624  -0.00847125 -0.0114869 -0.00650716  -0.0116676 -0.0203625 -0.00644791  -0.0148959 -0.0310349 -0.0060755  -0.0181137 -0.0432746 -0.00555575  -0.021283 -0.0568122 -0.00499535  -0.0243781 -0.0714942 -0.00443017  -0.0273747 -0.087123 -0.00389373  -0.0302591 -0.103581 -0.00338793  -0.0330204 -0.120716 -0.00292397  -0.035656 -0.13843 -0.00249696  -0.038162 -0.156597 -0.00211096  -0.0405419 -0.175136 -0.00176179  -0.0427961 -0.193941 -0.00145018  -0.0449312 -0.212944 -0.00117445  -0.0469494 -0.232057 -0.000935197  -0.0488598 -0.251228 -0.00073123  -0.0506668 -0.270386 -0.000561357  -0.0523806 -0.289496 -0.00042522  -0.0540047 -0.308505 -0.000319004  -0.0555499 -0.327398 -0.000237703  -0.0570211 -0.346141 -0.000165343  -0.0584369 -0.364721 -7.7486e-05  0 0 0  -0.00110556 -0.000234723 -0.00212121  -0.00233118 -0.00402057 -0.00289333  -0.00373173 -0.0107016 -0.00317824  -0.00529429 -0.0196714 -0.00314701  -0.00696921 -0.030477 -0.00296974  -0.0087257 -0.0428534 -0.00271964  -0.0105567 -0.0565516 -0.00244009  -0.0124366 -0.071389 -0.00216496  -0.0143483 -0.0871864 -0.00189888  -0.0162749 -0.103803 -0.00165308  -0.0182006 -0.121097 -0.00142491  -0.0201155 -0.138956 -0.00121915  -0.0220072 -0.15726 -0.00103271  -0.0238698 -0.17592 -0.000866532  -0.0256947 -0.194835 -0.000718236  -0.0274791 -0.213932 -0.000589371  -0.0292168 -0.233126 -0.000478148  -0.0309081 -0.252365 -0.000385404  -0.0325482 -0.27158 -0.000308633  -0.0341399 -0.290738 -0.000248194  -0.0356796 -0.309786 -0.000202417  -0.0371714 -0.328711 -0.000167608  -0.0386136 -0.347469 -0.000135779  -0.0400128 -0.366019 -8.95262e-05  0 0 0  0.000160813 -0.000177234 7.67708e-05  0.000399023 -0.00394696 7.689e-05  0.000576884 -0.0106992 7.35521e-05  0.000625968 -0.0197282 7.05719e-05  0.000509083 -0.0306064 7.15256e-05  0.000209272 -0.0430668 7.39098e-05  -0.000270545 -0.0568565 7.67708e-05  -0.000922203 -0.0717936 7.79629e-05  -0.00172901 -0.0876955 7.72476e-05  -0.00267458 -0.104418 7.41482e-05  -0.003739 -0.121816 6.79493e-05  -0.00490522 -0.139773 5.93662e-05  -0.00615406 -0.15817 4.85182e-05  -0.00747001 -0.176913 3.57628e-05  -0.00883734 -0.195901 2.19345e-05  -0.0102433 -0.215062 6.67572e-06  -0.0116732 -0.234311 -9.17912e-06  -0.0131183 -0.253596 -2.64645e-05  -0.0145671 -0.272848 -4.29153e-05  -0.0160141 -0.292035 -6.04391e-05  -0.0174508 -0.311106 -7.76052e-05  -0.0188754 -0.330047 -9.4533e-05  -0.0202806 -0.348815 -0.000110626  -0.0216587 -0.367351 -0.000124097  0 0 0  0.00140394 -0.000626922 0.00225592  0.00310102 -0.00462258 0.00301802  0.00485399 -0.0114399 0.00329542  0.00651288 -0.0205199 0.00326014  0.00794619 -0.0314329 0.00309002  0.00909925 -0.0439253 0.0028491  0.00996405 -0.0577545 0.00258172  0.0105375 -0.0727363 0.00231314  0.010833 -0.0886876 0.00204957  0.0108695 -0.105462 0.00179935  0.0106691 -0.122912 0.00156188  0.0102551 -0.14092 0.00133967  0.00965357 -0.159362 0.00113189  0.00888813 -0.178148 0.000940323  0.00798333 -0.197172 0.000764251  0.00696135 -0.216364 0.000605106  0.00584364 -0.235637 0.000461459  0.00464821 -0.25494 0.000334501  0.00339484 -0.274205 0.000223637  0.00209522 -0.2934 0.000128746  0.00076437 -0.312474 4.74453e-05  -0.000590086 -0.331413 -2.09808e-05  -0.00195646 -0.350178 -8.59499e-05  -0.00331593 -0.368727 -0.000161529  0 0 0  0.00290832 -0.0015747 0.00440943  0.0061042 -0.00598252 0.00596178  0.00950184 -0.012962 0.00652599  0.0127791 -0.0220646 0.00646937  0.0157499 -0.0329641 0.00611567  0.0183417 -0.0454441 0.00562751  0.0205303 -0.0592571 0.00509489  0.0223078 -0.0742367 0.00455379  0.0236869 -0.090183 0.00403047  0.024684 -0.106962 0.00352967  0.0253283 -0.124412 0.0030607  0.0256462 -0.142425 0.00262117  0.025674 -0.160868 0.00221539  0.02544 -0.179654 0.00184202  0.0249799 -0.198675 0.0015018  0.0243218 -0.217861 0.00119579  0.0234985 -0.237127 0.000923753  0.0225348 -0.25642 0.000684619  0.0214591 -0.275672 0.00047946  0.0202913 -0.294851 0.000307679  0.0190547 -0.313907 0.000165343  0.0177617 -0.332826 4.95911e-05  0.0164287 -0.351579 -5.60284e-05  0.0150769 -0.370155 -0.000173211  0 0 0  0.00431928 -0.00332481 0.00662804  0.0096359 -0.00823194 0.00911891  0.0148591 -0.0152601 0.00993848  0.019816 -0.0243095 0.00977099  0.0243329 -0.0351701 0.0092088  0.0283412 -0.0475859 0.00846899  0.0318239 -0.0613568 0.0076555  0.0347723 -0.0762801 0.00684166  0.0371933 -0.0921848 0.00604403  0.0391135 -0.108912 0.00529063  0.040558 -0.126321 0.00457728  0.0415689 -0.144286 0.00391686  0.0421809 -0.162688 0.00330245  0.0424376 -0.181429 0.00274181  0.0423774 -0.200408 0.00222921  0.042042 -0.21955 0.00177181  0.0414681 -0.238774 0.00136316  0.0406933 -0.258025 0.00100935  0.0397525 -0.277237 0.000706553  0.0386779 -0.296376 0.000458241  0.0374999 -0.315393 0.000258803  0.0362418 -0.334277 0.000105143  0.0349278 -0.353003 -2.08616e-05  0.033576 -0.371609 -0.000152707  0 0 0  0.0077689 -0.00626409 0.00917971  0.0143654 -0.0114169 0.0125741  0.0214643 -0.0183198 0.0135056  0.0281204 -0.0273694 0.0131954  0.0342026 -0.0381056 0.0123886  0.0396141 -0.0504825 0.0113546  0.0443626 -0.0641206 0.0102509  0.048425 -0.0789836 0.00913787  0.051837 -0.0947531 0.00806582  0.0546056 -0.111408 0.00704265  0.0567905 -0.12869 0.00608516  0.0584158 -0.146575 0.00519085  0.0595468 -0.164861 0.00436616  0.0602162 -0.183518 0.00360847  0.0604867 -0.202393 0.00292075  0.0603948 -0.221452 0.00230372  0.0599968 -0.240585 0.00175595  0.0593314 -0.259757 0.00128078  0.0584486 -0.278893 0.000877261  0.0573852 -0.297962 0.000550747  0.0561879 -0.31692 0.000296593  0.0548928 -0.33575 0.000116825  0.0535378 -0.354439 -8.34465e-06  0.0521626 -0.373044 -0.000116587  0 0 0  -0.00586202 -0.00734457 -0.00609505  -0.0131624 -0.0124544 -0.00942802  -0.0209067 -0.018962 -0.010504  -0.0281452 -0.0271305 -0.0104187  -0.0349191 -0.0370363 -0.00976419  -0.0411811 -0.0483693 -0.00889468  -0.0469869 -0.0610848 -0.00793815  -0.0523375 -0.074894 -0.00701201  -0.0572749 -0.08975 -0.00612438  -0.0618019 -0.105432 -0.00531244  -0.0659559 -0.121889 -0.00456023  -0.0697428 -0.138947 -0.00388122  -0.0731975 -0.156552 -0.00326002  -0.0763302 -0.174563 -0.00270426  -0.0791725 -0.192924 -0.00220358  -0.0817394 -0.211525 -0.00176346  -0.0840611 -0.230309 -0.00137782  -0.0861566 -0.249194 -0.00104988  -0.0880568 -0.26813 -0.000778079  -0.0897849 -0.287059 -0.000563264  -0.0913746 -0.305942 -0.000404835  -0.0928597 -0.324743 -0.000296712  -0.0942838 -0.343451 -0.000224352  -0.095686 -0.362078 -0.000157714  0 0 0  -0.00277164 -0.00413118 -0.00435221  -0.00821626 -0.00936613 -0.00678492  -0.0138803 -0.0162274 -0.00759077  -0.0193001 -0.0248513 -0.00757909  -0.0244253 -0.0351122 -0.0071249  -0.0292557 -0.0468505 -0.006513  -0.0337993 -0.0598795 -0.00581968  -0.0380657 -0.0740428 -0.00515699  -0.0420589 -0.0891834 -0.00450683  -0.0457892 -0.105172 -0.00392246  -0.0492625 -0.121877 -0.00336981  -0.0524914 -0.13919 -0.00287998  -0.055485 -0.157 -0.00242436  -0.0582569 -0.175212 -0.00202322  -0.0608187 -0.193733 -0.00165689  -0.0631853 -0.212482 -0.00133955  -0.0653701 -0.231382 -0.00105822  -0.0673902 -0.250368 -0.000822067  -0.0692608 -0.26938 -0.000623941  -0.0710015 -0.288368 -0.000467658  -0.0726295 -0.30729 -0.000347972  -0.0741665 -0.326116 -0.000261664  -0.0756342 -0.344825 -0.000193596  -0.077065 -0.363436 -0.000130773  0 0 0  -0.00164641 -0.00244424 -0.00278473  -0.00478049 -0.00728342 -0.00430191  -0.00835434 -0.0142981 -0.00490224  -0.0119289 -0.0231901 -0.00492322  -0.0153955 -0.033739 -0.00465167  -0.0187456 -0.0457557 -0.00425231  -0.0219664 -0.0590534 -0.00380838  -0.0250633 -0.0734757 -0.00337148  -0.0280318 -0.088864 -0.0029546  -0.030872 -0.105087 -0.00257039  -0.0335814 -0.122011 -0.00221646  -0.0361615 -0.139526 -0.00189602  -0.0386127 -0.157518 -0.00160515  -0.0409379 -0.175893 -0.00134468  -0.0431402 -0.194557 -0.00111127  -0.0452248 -0.21343 -0.000906587  -0.0471959 -0.232435 -0.000728369  -0.0490615 -0.251508 -0.000577331  -0.0508282 -0.27059 -0.000451922  -0.0525055 -0.289633 -0.000351906  -0.0541 -0.308597 -0.000274539  -0.0556228 -0.327453 -0.00021553  -0.0570862 -0.346175 -0.000165105  -0.0585141 -0.364746 -0.000114441  0 0 0  -0.00068894 -0.00176612 -0.00139606  -0.00210117 -0.00630391 -0.00212073  -0.00375211 -0.013317 -0.0024066  -0.00551194 -0.0223478 -0.00242376  -0.00731713 -0.0330727 -0.00229621  -0.00915343 -0.0452726 -0.00209665  -0.0110139 -0.0587549 -0.00187612  -0.0128945 -0.0733598 -0.00165772  -0.0147868 -0.0889265 -0.00145185  -0.0166831 -0.105322 -0.00126231  -0.0185727 -0.122409 -0.00108981  -0.0204486 -0.140076 -0.000934482  -0.0223011 -0.158206 -0.000795245  -0.0241253 -0.176707 -0.000671268  -0.0259134 -0.195479 -0.000561476  -0.027663 -0.214448 -0.000466228  -0.0293684 -0.233532 -0.000384688  -0.0310295 -0.252674 -0.000316143  -0.0326431 -0.27181 -0.000260592  -0.0342107 -0.2909 -0.00021708  -0.0357318 -0.309897 -0.000184298  -0.0372097 -0.328778 -0.000159979  -0.0386469 -0.347508 -0.000137687  -0.0400531 -0.366049 -0.000114679  0 0 0  0.000112757 -0.00168461 1.63317e-05  0.00029701 -0.00617561 1.32322e-05  0.000424892 -0.0132292 7.51019e-06  0.000430226 -0.0223369 7.15256e-06  0.000282049 -0.0331585 1.23978e-05  -3.41535e-05 -0.0454602 1.95503e-05  -0.000517249 -0.0590523 2.70605e-05  -0.00116187 -0.0737675 3.18289e-05  -0.00195432 -0.0894487 3.39746e-05  -0.00287986 -0.105954 3.33786e-05  -0.00392175 -0.12315 2.94447e-05  -0.00506365 -0.140916 2.31266e-05  -0.00628889 -0.15914 1.4782e-05  -0.00758171 -0.177722 4.29153e-06  -0.00892735 -0.196569 -6.91414e-06  -0.0103127 -0.2156 -1.93119e-05  -0.0117249 -0.234739 -3.27826e-05  -0.013154 -0.253923 -4.6134e-05  -0.0145905 -0.273095 -6.03199e-05  -0.016026 -0.29221 -7.41482e-05  -0.0174549 -0.311229 -8.82149e-05  -0.0188723 -0.330122 -0.000101686  -0.020273 -0.348857 -0.000114799  -0.0216496 -0.367386 -0.000126958  0 0 0  0.000907242 -0.00209838 0.00141478  0.00268039 -0.0068354 0.0021255  0.0045751 -0.0139877 0.00239718  0.00633526 -0.0231435 0.00241411  0.00783288 -0.0339939 0.00229931  0.00902945 -0.0463305 0.00211942  0.0099178 -0.0599622 0.00191796  0.0105066 -0.0747263 0.00171363  0.0108148 -0.0904581 0.00151551  0.0108618 -0.107018 0.00132656  0.0106721 -0.124265 0.00114846  0.0102684 -0.142083 0.000981331  0.00967681 -0.160351 0.000825524  0.00891995 -0.178975 0.0006814  0.00802279 -0.197855 0.000548959  0.00700617 -0.216915 0.000428438  0.00589204 -0.236075 0.000320554  0.00469851 -0.255276 0.000224829  0.00344467 -0.274458 0.000141144  0.00214362 -0.293581 6.91414e-05  0.000810862 -0.3126 8.70228e-06  -0.000544548 -0.331493 -4.3273e-05  -0.00190759 -0.350229 -9.19104e-05  -0.00325775 -0.368771 -0.000139356  0 0 0  0.00184409 -0.00310403 0.00275362  0.00530121 -0.00831157 0.00424302  0.0090808 -0.0156161 0.00481105  0.01262 -0.0247707 0.00483274  0.0157495 -0.0355875 0.00458527  0.0184363 -0.0478931 0.00422025  0.0206723 -0.0615047 0.00381136  0.0224732 -0.0762571 0.00340188  0.0238618 -0.0919849 0.00300288  0.0248623 -0.108543 0.00262678  0.0255065 -0.125791 0.00227201  0.0258236 -0.143607 0.00194335  0.0258478 -0.161875 0.00163758  0.0256104 -0.180493 0.00135815  0.0251441 -0.199368 0.00110197  0.0244789 -0.218418 0.000872731  0.0236449 -0.237567 0.000667691  0.0226698 -0.256754 0.000488877  0.0215802 -0.275921 0.000334263  0.0203984 -0.295026 0.000205636  0.0191474 -0.314029 9.9659e-05  0.0178447 -0.332905 1.32322e-05  0.01651 -0.351634 -6.44922e-05  0.0151734 -0.370205 -0.000140071  0 0 0  0.00286794 -0.00493538 0.00425494  0.00858593 -0.0108005 0.00649655  0.0143896 -0.0181275 0.00731599  0.0197146 -0.0271907 0.00730717  0.0244465 -0.037903 0.0069195  0.0285839 -0.0501201 0.00636387  0.0321305 -0.0636574 0.00574756  0.0351056 -0.0783464 0.00512743  0.0375351 -0.0940165 0.00452423  0.0394505 -0.110522 0.00395429  0.0408883 -0.127718 0.00341749  0.0418869 -0.145485 0.00292063  0.0424869 -0.163703 0.00245929  0.0427284 -0.182274 0.002038  0.0426525 -0.201099 0.00165331  0.0422971 -0.220101 0.00130939  0.0417027 -0.239202 0.00100279  0.0409043 -0.258344 0.00073719  0.039938 -0.277467 0.000509858  0.0388365 -0.296531 0.000324368  0.0376322 -0.315496 0.00017488  0.0363533 -0.334343 6.05583e-05  0.035028 -0.353055 -3.55244e-05  0.0336847 -0.37166 -0.000123024  0 0 0  0.00610109 -0.00828737 0.00583911  0.0133252 -0.0143705 0.00890613  0.0209378 -0.0214193 0.00989628  0.0280023 -0.0302917 0.00986528  0.0343237 -0.0408504 0.00931573  0.0398811 -0.0529335 0.00856936  0.0446957 -0.0663658 0.00772429  0.0487956 -0.0809444 0.00689447  0.0522093 -0.0965198 0.00607181  0.0549817 -0.112922 0.00530899  0.0571508 -0.130027 0.00457835  0.0587687 -0.147696 0.00391221  0.0598799 -0.165824 0.00328577  0.0605369 -0.1843 0.00272095  0.0607842 -0.203039 0.00219977  0.0606747 -0.221953 0.00173855  0.0602508 -0.240972 0.00132477  0.0595622 -0.260034 0.000969768  0.0586491 -0.279085 0.000666499  0.0575583 -0.298082 0.000422835  0.0563316 -0.31699 0.000233173  0.0550132 -0.335793 9.59635e-05  0.0536473 -0.354482 -5.60284e-06  0.0522664 -0.373091 -9.63211e-05  0 0 0  -0.00618868 -0.00851061 -0.00371778  -0.0133524 -0.0143886 -0.0058285  -0.020766 -0.021219 -0.00676298  -0.0281285 -0.0294193 -0.00684071  -0.0350294 -0.0391389 -0.00651038  -0.0414217 -0.0502974 -0.00595891  -0.0472964 -0.0627643 -0.0053432  -0.0526935 -0.0763833 -0.00472331  -0.0576328 -0.0910229 -0.00413513  -0.0621566 -0.106541 -0.00358975  -0.066282 -0.122823 -0.00309062  -0.0700463 -0.139746 -0.00263715  -0.0734644 -0.15721 -0.00222576  -0.0765691 -0.175111 -0.00185645  -0.0793753 -0.19336 -0.00152552  -0.0819156 -0.211873 -0.00123477  -0.0842054 -0.230573 -0.000980377  -0.0862782 -0.249392 -0.000765443  -0.0881536 -0.268269 -0.000586271  -0.0898674 -0.287156 -0.000446916  -0.091445 -0.306004 -0.000342011  -0.0929265 -0.32479 -0.000270724  -0.0943484 -0.343489 -0.00022018  -0.0957451 -0.362125 -0.000177145  0 0 0  -0.00265399 -0.00501475 -0.00265265  -0.00789404 -0.0109765 -0.00429296  -0.0136384 -0.0181775 -0.00499654  -0.0192961 -0.0268713 -0.00507748  -0.0246105 -0.03706 -0.00482321  -0.0295865 -0.0486485 -0.00441527  -0.0342079 -0.0614972 -0.00395548  -0.0385107 -0.0754754 -0.00349879  -0.0425048 -0.0904362 -0.00306404  -0.0462189 -0.106257 -0.00266397  -0.0496618 -0.122808 -0.00229669  -0.0528569 -0.139981 -0.00196445  -0.0558116 -0.157663 -0.00166333  -0.0585465 -0.17576 -0.00139308  -0.0610697 -0.194178 -0.00115168  -0.0634015 -0.212837 -0.000939012  -0.0655518 -0.231657 -0.000754118  -0.0675411 -0.250576 -0.000597119  -0.0693834 -0.269531 -0.000467658  -0.0711005 -0.288475 -0.000364661  -0.0727098 -0.307364 -0.000287652  -0.0742342 -0.326168 -0.000230908  -0.0756962 -0.344868 -0.000187755  -0.0771241 -0.363481 -0.0001477  0 0 0  -0.00157531 -0.00325364 -0.00170422  -0.00461327 -0.00872388 -0.00275838  -0.0082292 -0.0160576 -0.00323987  -0.0119631 -0.0250606 -0.00331521  -0.015586 -0.035587 -0.00315988  -0.0190477 -0.0474933 -0.0028975  -0.0223354 -0.0606478 -0.00259793  -0.0254594 -0.0749014 -0.00229931  -0.0284281 -0.090127 -0.00201654  -0.0312517 -0.106186 -0.00175607  -0.0339342 -0.122963 -0.00151801  -0.0364828 -0.140335 -0.00130296  -0.0389 -0.158202 -0.001109  -0.0411913 -0.176459 -0.000935197  -0.0433599 -0.195022 -0.000780702  -0.0454123 -0.213801 -0.000644922  -0.0473533 -0.232727 -0.000527263  -0.049191 -0.25173 -0.000427842  -0.0509326 -0.270756 -0.000345945  -0.0525877 -0.289752 -0.000281096  -0.0541646 -0.308681 -0.000231266  -0.0556757 -0.32751 -0.000194073  -0.057132 -0.346222 -0.00016284  -0.0585585 -0.364798 -0.000133395  0 0 0  -0.000676133 -0.00246942 -0.000847816  -0.00202452 -0.00762126 -0.00136483  -0.00373158 -0.0149483 -0.00160384  -0.00558466 -0.0241104 -0.00164485  -0.00748134 -0.0348402 -0.00157118  -0.00938547 -0.0469639 -0.00144053  -0.0112856 -0.0603251 -0.00129139  -0.0131813 -0.074781 -0.0011425  -0.0150716 -0.0901949 -0.00100279  -0.0169538 -0.106435 -0.000874877  -0.0188229 -0.123377 -0.000759125  -0.0206742 -0.140904 -0.00065577  -0.0225015 -0.158909 -0.000563383  -0.0242994 -0.177293 -0.000481486  -0.0260627 -0.195963 -0.000409603  -0.027788 -0.214838 -0.000347376  -0.0294719 -0.233843 -0.000294209  -0.0311122 -0.252913 -0.000250101  -0.0327084 -0.271991 -0.000214696  -0.0342607 -0.291031 -0.000187278  -0.0357699 -0.309992 -0.000167251  -0.0372386 -0.328843 -0.000152469  -0.0386717 -0.347561 -0.000139952  -0.0400779 -0.36611 -0.000128627  0 0 0  9.09865e-05 -0.00233933 -2.74181e-06  0.000239879 -0.00744122 -1.13249e-05  0.000333756 -0.0147996 -1.85966e-05  0.000310421 -0.0240459 -2.0504e-05  0.000138342 -0.0348866 -1.8239e-05  -0.000193238 -0.0471266 -1.37091e-05  -0.000683725 -0.0606119 -8.9407e-06  -0.00132728 -0.0751879 -5.36442e-06  -0.00211251 -0.0907241 -3.93391e-06  -0.00302625 -0.107078 -4.88758e-06  -0.00405324 -0.124132 -8.22544e-06  -0.00517893 -0.141759 -1.32322e-05  -0.00638735 -0.15986 -2.02656e-05  -0.00766373 -0.178324 -2.80142e-05  -0.00899374 -0.197069 -3.68357e-05  -0.0103648 -0.216004 -4.64916e-05  -0.0117643 -0.235062 -5.67436e-05  -0.0131822 -0.254173 -6.71148e-05  -0.0146086 -0.273286 -7.77245e-05  -0.0160367 -0.29235 -8.80957e-05  -0.0174589 -0.311331 -9.88245e-05  -0.0188718 -0.330193 -0.000109196  -0.0202703 -0.348916 -0.000118971  -0.0216479 -0.367452 -0.000128508  0 0 0  0.000856385 -0.00277114 0.000835299  0.00249219 -0.00810158 0.00132775  0.004374 -0.0155634 0.00154984  0.00616544 -0.0248565 0.00158572  0.00770503 -0.0357248 0.00151837  0.00893772 -0.0480008 0.00139999  0.00985098 -0.0615255 0.0012641  0.0104584 -0.0761532 0.00112545  0.0107793 -0.0917408 0.00099051  0.0108372 -0.108152 0.000862718  0.0106566 -0.125258 0.000742078  0.0102624 -0.142938 0.000629187  0.0096786 -0.161081 0.000523806  0.00892997 -0.179587 0.000426292  0.00803888 -0.198364 0.000336528  0.00702786 -0.217327 0.000255227  0.00591755 -0.236405 0.000181556  0.00472689 -0.255533 0.000116587  0.00347352 -0.274654 5.97239e-05  0.00217342 -0.293725 1.13249e-05  0.000840187 -0.312705 -3.00407e-05  -0.000514269 -0.331568 -6.56843e-05  -0.00187802 -0.35029 -9.799e-05  -0.0032289 -0.36884 -0.000129461  0 0 0  0.00172065 -0.00383699 0.00166059  0.00502452 -0.00964445 0.00267482  0.0087736 -0.0172554 0.00312722  0.0124051 -0.0265327 0.00319695  0.0156358 -0.0373559 0.00305378  0.0184017 -0.0495846 0.00281465  0.0206908 -0.0630812 0.0025394  0.0225239 -0.0776907 0.00226057  0.0239301 -0.0932725 0.00199091  0.0249412 -0.10968 0.00173581  0.0255905 -0.126787 0.00149703  0.0259112 -0.144465 0.00127506  0.0259366 -0.162608 0.0010699  0.0256996 -0.181108 0.000881314  0.0252321 -0.199879 0.000709295  0.0245643 -0.218831 0.000554681  0.0237267 -0.237898 0.000416756  0.0227466 -0.257009 0.000295997  0.0216515 -0.276116 0.000192761  0.0204637 -0.295168 0.000106096  0.0192075 -0.314133 3.49283e-05  0.0179007 -0.33298 -2.36034e-05  0.0165637 -0.351697 -7.52211e-05  0.0152237 -0.370272 -0.000123978  0 0 0  0.00283378 -0.00580382 0.00254369  0.00820586 -0.0122741 0.00409186  0.0140027 -0.0198927 0.00476253  0.0194557 -0.0290452 0.00483644  0.0243262 -0.0397259 0.00461531  0.0285711 -0.0518379 0.00424933  0.0321862 -0.0652406 0.00383699  0.0352021 -0.0797778 0.00341642  0.0376538 -0.0952959 0.00301051  0.0395799 -0.11165 0.00262535  0.0410218 -0.128704 0.00226569  0.0420208 -0.146335 0.00193107  0.0426191 -0.164427 0.00162244  0.0428575 -0.182881 0.00133944  0.0427765 -0.201601 0.0010823  0.0424151 -0.220508 0.000850916  0.0418134 -0.239525 0.000646114  0.0410061 -0.258593 0.000467658  0.0400312 -0.277654 0.000316143  0.0389211 -0.296668 0.000191331  0.0377092 -0.315595 9.21488e-05  0.0364254 -0.334417 1.43051e-05  0.0350969 -0.353118 -5.00679e-05  0.0337491 -0.371722 -0.000109792  0 0 0  0.00601916 -0.00934774 0.0035336  0.0131288 -0.0160201 0.00553417  0.0205742 -0.0234087 0.00633764  0.0277004 -0.0322792 0.00645924  0.0341271 -0.0427399 0.00615883  0.0397806 -0.0546846 0.00568795  0.0446659 -0.0679494 0.00513768  0.0488114 -0.082368 0.00458264  0.0522527 -0.0977786 0.00403774  0.0550416 -0.114031 0.00352514  0.05722 -0.130988 0.00304174  0.0588444 -0.148523 0.00259471  0.059958 -0.166524 0.00218034  0.060617 -0.184886 0.00180209  0.0608646 -0.203518 0.00145733  0.0607538 -0.222338 0.00114846  0.060328 -0.241273 0.000875473  0.0596364 -0.260262 0.000637412  0.0587215 -0.279252 0.000437379  0.0576286 -0.298202 0.000273824  0.0564024 -0.317076 0.000148058  0.0550852 -0.335858 5.26905e-05  0.0537217 -0.354542 -1.70469e-05  0.0523441 -0.373153 -8.13007e-05  0 0 0  -0.00634099 -0.00931729 -0.00173306  -0.0132091 -0.0154254 -0.00280726  -0.0207467 -0.0223685 -0.00330222  -0.0280654 -0.0306428 -0.00339639  -0.0350199 -0.0403291 -0.00326574  -0.0414483 -0.0514064 -0.0030123  -0.0473783 -0.0637638 -0.0027169  -0.0527962 -0.07727 -0.00241387  -0.0577605 -0.0917974 -0.00212443  -0.0622807 -0.107212 -0.00185525  -0.0664099 -0.123398 -0.00160933  -0.0701585 -0.140235 -0.00138569  -0.0735713 -0.157621 -0.00118339  -0.0766575 -0.175451 -0.00100172  -0.0794562 -0.193639 -0.000839472  -0.0819789 -0.212095 -0.000696898  -0.0842619 -0.230748 -0.000572801  -0.0863209 -0.249524 -0.000467777  -0.0881932 -0.268369 -0.000381231  -0.0898995 -0.287226 -0.000313878  -0.0914788 -0.306056 -0.000263929  -0.0929623 -0.324826 -0.000229716  -0.0943887 -0.343521 -0.000205755  -0.0958021 -0.362154 -0.000185847  0 0 0  -0.00273193 -0.00549491 -0.00124693  -0.00790028 -0.0117805 -0.00207675  -0.0136182 -0.0191965 -0.00246608  -0.0192727 -0.0279864 -0.00254786  -0.0246621 -0.038173 -0.00244296  -0.0296963 -0.0496963 -0.00225186  -0.0343719 -0.0624581 -0.00202656  -0.0386992 -0.0763328 -0.00180161  -0.0427076 -0.0911947 -0.00158596  -0.0464168 -0.106916 -0.00138807  -0.0498526 -0.123379 -0.00120652  -0.0530301 -0.140466 -0.00104284  -0.0559703 -0.158074 -0.000894427  -0.0586847 -0.176101 -0.000761867  -0.0611918 -0.194459 -0.000643492  -0.0635042 -0.213062 -0.00053966  -0.0656393 -0.231837 -0.000449657  -0.0676129 -0.250714 -0.000373363  -0.0694437 -0.269637 -0.000311255  -0.0711496 -0.288552 -0.000262141  -0.072752 -0.30742 -0.000225782  -0.0742719 -0.32621 -0.000199556  -0.0757298 -0.344905 -0.000179768  -0.0771589 -0.363523 -0.000161409  0 0 0  -0.0015364 -0.00357784 -0.000808954  -0.00453146 -0.00940922 -0.00134671  -0.00817648 -0.0170001 -0.00161529  -0.0119598 -0.0261083 -0.00167644  -0.015652 -0.0366474 -0.00161362  -0.0191733 -0.0485111 -0.00149035  -0.0225028 -0.0615886 -0.0013442  -0.0256494 -0.0757545 -0.00119698  -0.0286255 -0.0908846 -0.00105727  -0.0314449 -0.106852 -0.000928521  -0.0341166 -0.123539 -0.000811577  -0.0366501 -0.140831 -0.000705957  -0.0390502 -0.158621 -0.000611186  -0.0413234 -0.176811 -0.000526309  -0.0434744 -0.195311 -0.000451446  -0.0455102 -0.214036 -0.000385523  -0.047435 -0.232914 -0.000328898  -0.0492589 -0.251876 -0.000281215  -0.0509875 -0.270866 -0.000242591  -0.0526316 -0.289835 -0.000212073  -0.0542004 -0.308742 -0.000189424  -0.0557053 -0.327557 -0.000172973  -0.0571587 -0.346262 -0.000159502  -0.058583 -0.364844 -0.00014782  0 0 0  -0.000657804 -0.00276473 -0.000405073  -0.00199576 -0.00824189 -0.000670791  -0.00371698 -0.0158246 -0.000805855  -0.00561434 -0.0251053 -0.000840664  -0.00755644 -0.0358629 -0.000812888  -0.00949806 -0.0479591 -0.000753284  -0.0114229 -0.0612562 -0.000682116  -0.0133316 -0.0756339 -0.000610352  -0.0152235 -0.0909579 -0.000542402  -0.017101 -0.10711 -0.000481009  -0.01896 -0.123964 -0.0004251  -0.0207989 -0.141412 -0.000375628  -0.0226119 -0.15934 -0.000331879  -0.0243957 -0.177656 -0.000293016  -0.0261449 -0.196262 -0.000259161  -0.0278572 -0.215083 -0.000230193  -0.0295279 -0.234038 -0.000205755  -0.0311575 -0.253067 -0.000185728  -0.0327435 -0.272108 -0.000169873  -0.0342879 -0.29112 -0.00015831  -0.03579 -0.310057 -0.000150204  -0.0372546 -0.328895 -0.000144958  -0.0386851 -0.347605 -0.000140786  -0.0400918 -0.366163 -0.000137925  0 0 0  8.34316e-05 -0.00260383 -6.79493e-06  0.00021401 -0.00802889 -1.57356e-05  0.000286788 -0.0156442 -2.38419e-05  0.000244856 -0.0250106 -2.87294e-05  5.82337e-05 -0.0358872 -3.15905e-05  -0.000282884 -0.0481076 -3.26633e-05  -0.000778198 -0.0615359 -3.33786e-05  -0.00142205 -0.0760394 -3.43323e-05  -0.00220358 -0.0914897 -3.6478e-05  -0.00311124 -0.107759 -3.95775e-05  -0.00413013 -0.124726 -4.3273e-05  -0.00524664 -0.142275 -4.8399e-05  -0.00644505 -0.160298 -5.42402e-05  -0.00771201 -0.178695 -6.04391e-05  -0.00903273 -0.197375 -6.67572e-05  -0.0103953 -0.216256 -7.36713e-05  -0.0117869 -0.235263 -8.09431e-05  -0.0131981 -0.254332 -8.80957e-05  -0.0146189 -0.273408 -9.50098e-05  -0.016042 -0.292443 -0.000102282  -0.0174608 -0.311399 -0.000109434  -0.0188711 -0.330247 -0.000116348  -0.0202687 -0.348963 -0.000123024  -0.0216472 -0.36751 -0.000129938  0 0 0  0.000819787 -0.00305134 0.000387192  0.00241417 -0.00869673 0.000631452  0.00426644 -0.0164082 0.00074923  0.00606358 -0.025821 0.000773072  0.00761962 -0.0367233 0.000741124  0.00886959 -0.0489796 0.000680685  0.00979888 -0.0624492 0.000610232  0.0104179 -0.0770053 0.000537753  0.0107486 -0.0925089 0.000467181  0.0108137 -0.108837 0.000400305  0.0106404 -0.125857 0.000337362  0.0102516 -0.143458 0.000278473  0.00967407 -0.161526 0.000223279  0.00892997 -0.179964 0.000172734  0.008044 -0.198676 0.000125647  0.00703621 -0.217584 8.30889e-05  0.00592923 -0.236611 4.45843e-05  0.00474048 -0.255696 1.01328e-05  0.00348949 -0.27478 -2.02656e-05  0.00219011 -0.293821 -4.60148e-05  0.000858068 -0.312777 -6.83069e-05  -0.000496387 -0.331625 -8.74996e-05  -0.00185966 -0.350339 -0.000105262  -0.00321388 -0.368898 -0.000122309  0 0 0  0.00167717 -0.00415099 0.000774503  0.00490075 -0.0102834 0.00128174  0.00862849 -0.0181352 0.00152647  0.0122684 -0.0275204 0.00157666  0.0155389 -0.0383673 0.00151241  0.0183454 -0.0505685 0.00139403  0.0206671 -0.0640051 0.00125432  0.0225232 -0.0785399 0.00111151  0.0239439 -0.0940374 0.000973463  0.0249642 -0.110361 0.00084269  0.0256193 -0.127383 0.00072062  0.0259439 -0.144983 0.000607252  0.0259719 -0.163051 0.000502586  0.0257368 -0.181483 0.000406265  0.0252701 -0.20019 0.000318408  0.0246027 -0.219087 0.000239253  0.0237646 -0.238102 0.000168443  0.0227835 -0.257171 0.000106454  0.0216868 -0.276241 5.30481e-05  0.020498 -0.295263 8.22544e-06  0.0192404 -0.314204 -2.86102e-05  0.0179327 -0.333036 -5.94854e-05  0.0165939 -0.351745 -8.64267e-05  0.0152512 -0.370326 -0.000112057  0 0 0  0.00273044 -0.00621533 0.00118566  0.00809062 -0.0129946 0.00195622  0.0138417 -0.0208248 0.00232065  0.01929 -0.0300705 0.00238812  0.0242068 -0.0407571 0.00229156  0.0285006 -0.0528302 0.00211322  0.032158 -0.0661634 0.00190544  0.0352026 -0.0806208 0.00169313  0.0376736 -0.0960518 0.00148666  0.0396106 -0.112321 0.00129199  0.04106 -0.12929 0.00110948  0.0420623 -0.146843 0.0009408  0.0426633 -0.164861 0.000784397  0.0429024 -0.183248 0.000641704  0.0428221 -0.201905 0.000511169  0.04246 -0.220756 0.000394464  0.0418575 -0.239723 0.000290275  0.041049 -0.258749 0.000199914  0.0400729 -0.277774 0.000122666  0.0389616 -0.296759 5.91278e-05  0.0377498 -0.315664 7.98702e-06  0.0364661 -0.334471 -3.25441e-05  0.0351369 -0.353165 -6.62804e-05  0.0337894 -0.371777 -9.81092e-05  0 0 0  0.00627308 -0.0101379 0.00164306  0.0130654 -0.0169685 0.00263524  0.0204404 -0.0244241 0.00307798  0.0275166 -0.0333714 0.00316918  0.0339596 -0.043811 0.00304711  0.0396523 -0.0556937 0.00282252  0.0445763 -0.0688767 0.00255275  0.0487514 -0.083205 0.00227487  0.0522158 -0.0985243 0.0020026  0.0550188 -0.114688 0.00174487  0.057209 -0.13156 0.00150263  0.0588399 -0.149017 0.0012778  0.0599606 -0.166943 0.00107014  0.0606235 -0.185238 0.000879765  0.0608758 -0.203807 0.000707388  0.0607686 -0.222572 0.000551939  0.0603461 -0.241458 0.000414371  0.0596571 -0.260406 0.000294924  0.0587463 -0.279361 0.000193834  0.0576575 -0.298283 0.000111222  0.0564363 -0.317137 4.68493e-05  0.0551255 -0.335908 -2.38419e-06  0.0537679 -0.354586 -3.94583e-05  0.0523937 -0.373208 -7.36713e-05  0 0 0  -0.00637062 -0.00939782 3.93391e-06  -0.0134367 -0.0157225 -1.66893e-06  -0.0207418 -0.0227688 -1.65701e-05  -0.0280735 -0.0310427 -3.40939e-05  -0.0350075 -0.0407249 -5.17368e-05  -0.0414644 -0.0517802 -6.67572e-05  -0.0473933 -0.0641034 -8.07047e-05  -0.0528333 -0.0775763 -9.29832e-05  -0.0577923 -0.0920655 -0.000103593  -0.0623242 -0.107449 -0.00011313  -0.066444 -0.123601 -0.000121713  -0.0701977 -0.140412 -0.000129223  -0.0736003 -0.15777 -0.000136018  -0.0766886 -0.17558 -0.000142097  -0.0794775 -0.193744 -0.000148177  -0.0820019 -0.212184 -0.000153542  -0.0842764 -0.230818 -0.000158787  -0.0863373 -0.249584 -0.000163555  -0.0882032 -0.268415 -0.000168085  -0.0899115 -0.287264 -0.000172257  -0.0914876 -0.306086 -0.000176907  -0.092972 -0.324854 -0.00018084  -0.0943997 -0.343546 -0.000184774  -0.095804 -0.362188 -0.000188708  0 0 0  -0.00260171 -0.0056112 1.07288e-06  -0.00780532 -0.0120429 -4.29153e-06  -0.0135362 -0.0195332 -1.66893e-05  -0.0192446 -0.0283487 -3.18289e-05  -0.0246484 -0.0385396 -4.673e-05  -0.0297146 -0.0500494 -6.04391e-05  -0.0344027 -0.0627842 -7.27177e-05  -0.0387464 -0.0766286 -8.38041e-05  -0.0427566 -0.0914578 -9.35793e-05  -0.0464709 -0.107149 -0.000102401  -0.0499017 -0.123581 -0.000110149  -0.0530787 -0.140641 -0.000117302  -0.0560116 -0.158223 -0.000123739  -0.0587234 -0.176228 -0.00012958  -0.0612233 -0.194566 -0.000134945  -0.0635328 -0.213151 -0.00014019  -0.0656621 -0.23191 -0.000145197  -0.0676329 -0.250774 -0.000149965  -0.069459 -0.269685 -0.000154138  -0.0711634 -0.288591 -0.00015831  -0.0727639 -0.307452 -0.000162721  -0.0742829 -0.326238 -0.000166655  -0.0757427 -0.344931 -0.000170469  -0.0771708 -0.363549 -0.000174284  0 0 0  -0.00152846 -0.00369294 -1.66893e-06  -0.00452229 -0.00962795 -7.39098e-06  -0.00814983 -0.0172904 -1.75238e-05  -0.0119524 -0.0264451 -3.00407e-05  -0.0156626 -0.0369975 -4.24385e-05  -0.0192038 -0.0488508 -5.42402e-05  -0.0225473 -0.0619083 -6.49691e-05  -0.025703 -0.0760455 -7.47442e-05  -0.0286824 -0.0911468 -8.35657e-05  -0.0315019 -0.107084 -9.17912e-05  -0.0341709 -0.123743 -9.88245e-05  -0.0367001 -0.141006 -0.0001055  -0.0390949 -0.158773 -0.000111461  -0.0413632 -0.17694 -0.000116944  -0.0435086 -0.19542 -0.00012219  -0.0455391 -0.214126 -0.000127077  -0.0474594 -0.232989 -0.000131607  -0.0492783 -0.251936 -0.000136256  -0.0510032 -0.270916 -0.000140429  -0.0526447 -0.289874 -0.000144482  -0.0542109 -0.308776 -0.000148535  -0.0557141 -0.327585 -0.000152588  -0.0571668 -0.346289 -0.000156283  -0.058593 -0.364872 -0.000159979  0 0 0  -0.000655413 -0.00285032 -3.93391e-06  -0.00198767 -0.00844514 -1.06096e-05  -0.00371307 -0.0161006 -1.93119e-05  -0.00561863 -0.0254288 -2.92063e-05  -0.00757414 -0.036202 -3.92199e-05  -0.0095284 -0.0482908 -4.8995e-05  -0.0114623 -0.0615717 -5.81741e-05  -0.0133758 -0.075923 -6.65188e-05  -0.0152696 -0.0912209 -7.42674e-05  -0.0171455 -0.107343 -8.14199e-05  -0.0190023 -0.124171 -8.78572e-05  -0.0208369 -0.14159 -9.39369e-05  -0.0226463 -0.159495 -9.9659e-05  -0.0244254 -0.177787 -0.000104666  -0.0261704 -0.196374 -0.000109673  -0.027878 -0.215175 -0.000113964  -0.0295455 -0.234115 -0.000118494  -0.0311711 -0.253129 -0.000122666  -0.0327544 -0.27216 -0.000126719  -0.0342956 -0.291161 -0.000130534  -0.0357962 -0.310091 -0.00013423  -0.0372591 -0.328923 -0.000138402  -0.0386899 -0.347633 -0.000141859  -0.0400965 -0.366191 -0.000145555  0 0 0  8.01831e-05 -0.00268659 -6.4373e-06  0.000205517 -0.00822556 -1.35899e-05  0.000272661 -0.015912 -2.12193e-05  0.000225365 -0.0253272 -2.90871e-05  3.41535e-05 -0.0362199 -3.68357e-05  -0.000309885 -0.0484351 -4.45843e-05  -0.000807047 -0.0618496 -5.20945e-05  -0.00145119 -0.0763284 -5.9247e-05  -0.00223172 -0.0917541 -6.58035e-05  -0.00313759 -0.107994 -7.20024e-05  -0.00415385 -0.124936 -7.77245e-05  -0.0052675 -0.142456 -8.30889e-05  -0.00646305 -0.160456 -8.79765e-05  -0.00772691 -0.178829 -9.27448e-05  -0.00904465 -0.19749 -9.70364e-05  -0.0104047 -0.21635 -0.000101328  -0.0117939 -0.235343 -0.000105143  -0.0132027 -0.254396 -0.000109315  -0.0146215 -0.273462 -0.00011301  -0.0160434 -0.292485 -0.000116587  -0.0174608 -0.311435 -0.000120163  -0.0188704 -0.330277 -0.000123858  -0.0202675 -0.348992 -0.000127554  -0.0216467 -0.367538 -0.000131249  0 0 0  0.000814989 -0.00313467 -9.53674e-06  0.00238881 -0.00889271 -1.72853e-05  0.00423476 -0.0166751 -2.36034e-05  0.00602853 -0.0261349 -2.92063e-05  0.00758874 -0.0370542 -3.50475e-05  0.00884563 -0.0493062 -4.07696e-05  0.00978005 -0.0627615 -4.63724e-05  0.0104038 -0.0772941 -5.22137e-05  0.0107375 -0.0927731 -5.78165e-05  0.0108061 -0.109072 -6.30617e-05  0.0106344 -0.126066 -6.79493e-05  0.0102481 -0.143641 -7.25985e-05  0.00967181 -0.161685 -7.67708e-05  0.00892985 -0.180099 -8.07047e-05  0.00804496 -0.198791 -8.4877e-05  0.00703859 -0.21768 -8.85725e-05  0.00593257 -0.236691 -9.21488e-05  0.00474477 -0.255761 -9.56059e-05  0.00349426 -0.274834 -9.90629e-05  0.00219607 -0.293863 -0.000102639  0.000863791 -0.312813 -0.000106215  -0.000490189 -0.331655 -0.000109553  -0.00185418 -0.350368 -0.000113249  -0.00320768 -0.368928 -0.000116587  0 0 0  0.00165881 -0.00425112 -1.34706e-05  0.00487038 -0.0104901 -2.16961e-05  0.00857371 -0.0184091 -2.63453e-05  0.0122219 -0.0278382 -2.95639e-05  0.0155013 -0.0387007 -3.3021e-05  0.0183214 -0.0508969 -3.69549e-05  0.0206544 -0.0643173 -4.1008e-05  0.0225188 -0.0788289 -4.54187e-05  0.0239453 -0.0943005 -4.99487e-05  0.0249689 -0.110596 -5.43594e-05  0.0256265 -0.127592 -5.81741e-05  0.0259525 -0.145165 -6.19888e-05  0.0259818 -0.163209 -6.56843e-05  0.0257472 -0.181618 -6.92606e-05  0.0252811 -0.200305 -7.27177e-05  0.0246139 -0.219183 -7.58171e-05  0.0237761 -0.238183 -7.90358e-05  0.0227947 -0.257237 -8.27312e-05  0.021698 -0.276295 -8.57115e-05  0.020509 -0.295306 -8.90493e-05  0.0192513 -0.314241 -9.20296e-05  0.0179436 -0.333067 -9.5129e-05  0.0166047 -0.351775 -9.90629e-05  0.0152619 -0.370357 -0.000102639  0 0 0  0.00277957 -0.0063532 -1.77622e-05  0.00805217 -0.0132576 -2.6226e-05  0.0137708 -0.0211291 -2.89679e-05  0.0192297 -0.0304013 -2.93255e-05  0.0241576 -0.0410979 -3.05176e-05  0.0284691 -0.0531615 -3.26633e-05  0.0321404 -0.0664758 -3.56436e-05  0.0351963 -0.0809079 -3.88622e-05  0.0376737 -0.0963122 -4.20809e-05  0.0396159 -0.112553 -4.55379e-05  0.0410676 -0.129496 -4.86374e-05  0.0420722 -0.147023 -5.16176e-05  0.0426739 -0.165017 -5.49555e-05  0.0429137 -0.183381 -5.75781e-05  0.0428336 -0.202019 -6.04391e-05  0.0424721 -0.220852 -6.29425e-05  0.0418692 -0.239803 -6.60419e-05  0.0410612 -0.258814 -6.90222e-05  0.0400848 -0.277827 -7.1764e-05  0.038974 -0.296803 -7.48634e-05  0.0377624 -0.315701 -7.79629e-05  0.036479 -0.334503 -8.10623e-05  0.0351501 -0.353196 -8.45194e-05  0.0338016 -0.371806 -8.7738e-05  0 0 0  0.00613478 -0.0101832 -2.01464e-05  0.0130784 -0.0172437 -2.7895e-05  0.0203815 -0.0247989 -2.83718e-05  0.0274549 -0.0337316 -2.69413e-05  0.0338987 -0.0441667 -2.6226e-05  0.0396029 -0.0560334 -2.70605e-05  0.0445374 -0.0691904 -2.87294e-05  0.0487245 -0.0834911 -3.09944e-05  0.0521953 -0.098781 -3.33786e-05  0.0550057 -0.114917 -3.5882e-05  0.0571984 -0.131761 -3.83854e-05  0.058834 -0.149192 -4.1008e-05  0.0599558 -0.167094 -4.30346e-05  0.0606217 -0.185367 -4.56572e-05  0.0608752 -0.203916 -4.79221e-05  0.0607698 -0.222663 -5.04255e-05  0.0603485 -0.241533 -5.26905e-05  0.0596616 -0.260467 -5.53131e-05  0.0587516 -0.279411 -5.79357e-05  0.0576653 -0.298324 -6.10352e-05  0.0564463 -0.317172 -6.38962e-05  0.0551374 -0.335938 -6.6638e-05  0.0537817 -0.354616 -6.97374e-05  0.0524092 -0.373235 -7.34329e-05  0 0 0  -0.00634053 -0.00931215 0.00174439  -0.0132129 -0.0154206 0.0028069  -0.0207514 -0.0223688 0.00326979  -0.0280686 -0.0306483 0.00332701  -0.0350201 -0.0403398 0.00316107  -0.0414461 -0.051421 0.00287676  -0.0473744 -0.0637813 0.00255454  -0.0527914 -0.0772898 0.00222731  -0.0577552 -0.0918191 0.00191689  -0.0622753 -0.107235 0.00162899  -0.0664046 -0.123423 0.00136602  -0.0701535 -0.140261 0.001127  -0.0735661 -0.157647 0.000911236  -0.0766526 -0.175479 0.000717044  -0.0794514 -0.193667 0.000543356  -0.0819746 -0.212123 0.000389934  -0.0842581 -0.230776 0.000255346  -0.0863173 -0.249554 0.000140905  -0.0881894 -0.268398 4.52995e-05  -0.0898962 -0.287255 -3.06368e-05  -0.0914752 -0.306086 -8.91685e-05  -0.0929585 -0.324856 -0.000131607  -0.0943851 -0.343551 -0.000163317  -0.095799 -0.362184 -0.000191569  0 0 0  -0.00273227 -0.00549377 0.00125134  -0.00790086 -0.0117797 0.00207102  -0.0136186 -0.0191989 0.00243402  -0.0192719 -0.027993 0.00248384  -0.024659 -0.0381838 0.00234842  -0.0296918 -0.0497104 0.00213039  -0.034366 -0.0624749 0.00188065  -0.0386925 -0.0763519 0.00163376  -0.042701 -0.0912159 0.0013988  -0.0464102 -0.106939 0.00118351  -0.0498462 -0.123402 0.000986457  -0.0530242 -0.140491 0.000808477  -0.0559645 -0.158099 0.000647306  -0.0586792 -0.176128 0.000502825  -0.0611868 -0.194486 0.000373602  -0.0634996 -0.21309 0.000259399  -0.0656352 -0.231865 0.00015974  -0.0676091 -0.250743 7.4029e-05  -0.0694396 -0.269665 2.86102e-06  -0.0711455 -0.288581 -5.45979e-05  -0.0727479 -0.30745 -9.93013e-05  -0.0742679 -0.32624 -0.000133395  -0.0757265 -0.344935 -0.00016129  -0.0771549 -0.363553 -0.000187397  0 0 0  -0.00153488 -0.00357939 0.000805855  -0.00453013 -0.0094122 0.00133371  -0.00817412 -0.0170049 0.0015806  -0.0119561 -0.0261161 0.00161624  -0.0156468 -0.0366585 0.00152814  -0.0191669 -0.0485252 0.00138116  -0.0224958 -0.0616055 0.00121403  -0.025642 -0.0757734 0.00104725  -0.0286183 -0.0909052 0.000890136  -0.0314378 -0.106875 0.000745296  -0.0341101 -0.123563 0.000613928  -0.0366436 -0.140855 0.000495195  -0.0390443 -0.158647 0.000388503  -0.0413179 -0.176837 0.00029254  -0.0434693 -0.195338 0.000207186  -0.0455053 -0.214064 0.000131726  -0.0474308 -0.232942 6.55651e-05  -0.0492542 -0.251905 9.05991e-06  -0.050983 -0.270895 -3.82662e-05  -0.0526276 -0.289864 -7.65324e-05  -0.0541966 -0.308772 -0.000107288  -0.0557015 -0.327587 -0.000131607  -0.0571549 -0.346292 -0.000152469  -0.058579 -0.364873 -0.000172257  0 0 0  -0.000656731 -0.00276765 0.000397682  -0.00199358 -0.00824741 0.000650525  -0.00371316 -0.0158314 0.000767589  -0.0056093 -0.0251138 0.000782371  -0.00755006 -0.0358745 0.00073421  -0.00949115 -0.0479733 0.000655174  -0.0114157 -0.0612729 0.000566006  -0.0133241 -0.0756525 0.000477314  -0.0152165 -0.0909785 0.000394106  -0.0170941 -0.107132 0.00031805  -0.0189536 -0.123988 0.000249147  -0.0207927 -0.141437 0.000187874  -0.022606 -0.159366 0.000133038  -0.0243903 -0.177682 8.39233e-05  -0.0261399 -0.196289 4.05312e-05  -0.0278525 -0.215111 2.26498e-06  -0.0295236 -0.234066 -3.09944e-05  -0.0311534 -0.253096 -5.93662e-05  -0.0327394 -0.272137 -8.30889e-05  -0.0342839 -0.29115 -0.000102758  -0.0357864 -0.310086 -0.000118494  -0.0372508 -0.328924 -0.00013113  -0.0386815 -0.347635 -0.000142574  -0.0400877 -0.366192 -0.000153184  0 0 0  8.44002e-05 -0.00260863 -6.07967e-06  0.000216514 -0.00803623 -1.14441e-05  0.00029096 -0.0156523 -1.85966e-05  0.00025034 -0.0250202 -2.93255e-05  6.45518e-05 -0.035899 -4.24385e-05  -0.00027585 -0.0481218 -5.65052e-05  -0.000771105 -0.0615526 -7.08103e-05  -0.0014149 -0.0760581 -8.35657e-05  -0.00219679 -0.09151 -9.50098e-05  -0.00310469 -0.107781 -0.000104427  -0.00412393 -0.124749 -0.000111699  -0.00524068 -0.1423 -0.00011754  -0.00643969 -0.160323 -0.000121713  -0.00770676 -0.178721 -0.000124931  -0.00902784 -0.197402 -0.000127196  -0.0103909 -0.216283 -0.000128746  -0.0117831 -0.235291 -0.00012958  -0.0131946 -0.254361 -0.000130534  -0.0146148 -0.273437 -0.000130653  -0.0160387 -0.292472 -0.000130653  -0.017457 -0.311429 -0.000130892  -0.0188675 -0.330276 -0.000131249  -0.0202651 -0.348992 -0.000131488  -0.0216439 -0.367539 -0.000132203  0 0 0  0.000820905 -0.00305712 -0.000406742  0.00241658 -0.0087046 -0.000666857  0.00427064 -0.016417 -0.000796676  0.006069 -0.025831 -0.000831842  0.00762612 -0.0367356 -0.000811219  0.00887638 -0.0489942 -0.000762105  0.0098058 -0.0624658 -0.000702977  0.0104247 -0.0770239 -0.000642061  0.0107552 -0.0925293 -0.000582457  0.0108204 -0.108858 -0.000526071  0.0106465 -0.12588 -0.000472903  0.0102576 -0.143483 -0.000423312  0.00967944 -0.161551 -0.00037694  0.00893509 -0.17999 -0.000334263  0.00804853 -0.198702 -0.000295162  0.00704026 -0.217612 -0.000259757  0.00593328 -0.236639 -0.000228643  0.00474405 -0.255725 -0.000201464  0.00349307 -0.274808 -0.000178337  0.00219345 -0.29385 -0.000159383  0.000861406 -0.312806 -0.000143886  -0.000493288 -0.331654 -0.000131488  -0.00185657 -0.350369 -0.000120759  -0.00321102 -0.368927 -0.000111222  0 0 0  0.00167823 -0.00415665 -0.000801921  0.00490364 -0.0102912 -0.0013268  0.00863364 -0.0181438 -0.00158036  0.0122744 -0.0275305 -0.00163639  0.0155453 -0.0383795 -0.00157857  0.0183523 -0.0505828 -0.00146782  0.0206739 -0.0640214 -0.00133634  0.0225301 -0.0785581 -0.0012027  0.0239508 -0.0940573 -0.001073  0.024971 -0.110382 -0.000950933  0.0256256 -0.127406 -0.000836968  0.0259498 -0.145007 -0.00073123  0.0259776 -0.163076 -0.000633836  0.0257418 -0.181509 -0.00054431  0.0252748 -0.200216 -0.000463486  0.0246069 -0.219114 -0.000390649  0.0237689 -0.23813 -0.000326514  0.0227876 -0.2572 -0.000270963  0.0216906 -0.276269 -0.000224233  0.0205011 -0.295292 -0.00018549  0.0192437 -0.314233 -0.000155091  0.017936 -0.333065 -0.00013113  0.0165975 -0.351775 -0.000110745  0.015254 -0.370356 -9.20296e-05  0 0 0  0.00273266 -0.0062198 -0.00122452  0.00809544 -0.0130017 -0.00201166  0.0138493 -0.0208328 -0.00238001  0.0192981 -0.0300805 -0.00244677  0.0242143 -0.0407695 -0.00235248  0.0285078 -0.0528448 -0.00217819  0.0321652 -0.0661799 -0.00197673  0.03521 -0.0806392 -0.0017705  0.0376809 -0.0960718 -0.00157106  0.0396174 -0.112343 -0.00138271  0.0410666 -0.129313 -0.00120664  0.0420687 -0.146867 -0.0010438  0.0426692 -0.164886 -0.000893712  0.0429076 -0.183274 -0.000756383  0.0428271 -0.201931 -0.000631809  0.0424647 -0.220783 -0.000520468  0.0418618 -0.239751 -0.000422001  0.0410528 -0.258778 -0.000337481  0.040077 -0.277802 -0.000266314  0.0389652 -0.296788 -0.000208855  0.0377533 -0.315693 -0.000163555  0.0364695 -0.334501 -0.00012958  0.0351403 -0.353194 -0.000102401  0.0337923 -0.371807 -7.78437e-05  0 0 0  0.00627673 -0.0101381 -0.0016892  0.013073 -0.0169724 -0.00269604  0.0204521 -0.0244302 -0.00313699  0.0275276 -0.0333806 -0.0032227  0.0339695 -0.0438225 -0.00310016  0.0396613 -0.0557083 -0.00287628  0.0445853 -0.0688929 -0.00261009  0.0487602 -0.0832234 -0.00233674  0.052224 -0.0985439 -0.00207007  0.0550269 -0.11471 -0.00181675  0.0572168 -0.131582 -0.00157952  0.0588473 -0.149041 -0.00135911  0.0599674 -0.166968 -0.00115669  0.0606298 -0.185263 -0.00097096  0.0608817 -0.203833 -0.000803113  0.0607734 -0.222599 -0.000652313  0.0603507 -0.241486 -0.000520229  0.0596616 -0.260434 -0.000405669  0.0587502 -0.27939 -0.000310183  0.0576615 -0.298312 -0.000232697  0.0564394 -0.317166 -0.000174046  0.0551288 -0.335937 -0.000131249  0.053772 -0.354616 -9.98974e-05  0.052397 -0.373238 -7.30753e-05  0 0 0  -0.00617392 -0.00850577 0.00374281  -0.0133565 -0.0143741 0.00584948  -0.0207725 -0.0212126 0.00673461  -0.0281309 -0.0294294 0.00676966  -0.0350264 -0.0391548 0.00640428  -0.0414147 -0.050326 0.00582111  -0.047286 -0.0627956 0.00518012  -0.0526825 -0.0764225 0.00453591  -0.0576206 -0.0910633 0.00392818  -0.0621449 -0.106587 0.00336337  -0.0662701 -0.122869 0.00284803  -0.0700353 -0.139796 0.0023787  -0.0734533 -0.157261 0.0019542  -0.0765593 -0.175165 0.00157189  -0.0793662 -0.193415 0.00123024  -0.0819074 -0.211929 0.000928044  -0.0841978 -0.230629 0.0006634  -0.0862708 -0.24945 0.000438213  -0.0881467 -0.268327 0.00025034  -0.0898602 -0.287214 0.000102043  -0.0914373 -0.306063 -1.12057e-05  -0.0929193 -0.324849 -9.07183e-05  -0.094341 -0.343548 -0.000149131  -0.0957377 -0.362184 -0.000200748  0 0 0  -0.00264283 -0.00501028 0.00265348  -0.00788595 -0.0109753 0.00429487  -0.0136358 -0.0181831 0.00496495  -0.0192908 -0.0268842 0.00501001  -0.024601 -0.0370837 0.0047251  -0.0295745 -0.0486773 0.00429046  -0.0341941 -0.061533 0.00380707  -0.0384964 -0.0755143 0.00332928  -0.0424902 -0.0904797 0.00287557  -0.0462049 -0.106303 0.00245833  -0.0496482 -0.122857 0.00207567  -0.0528443 -0.140031 0.00172949  -0.0558001 -0.157715 0.00141561  -0.0585357 -0.175814 0.00113368  -0.06106 -0.194233 0.000881433  -0.0633922 -0.212892 0.000658631  -0.0655432 -0.231714 0.000463843  -0.0675325 -0.250634 0.000297427  -0.0693755 -0.26959 0.000158906  -0.0710928 -0.288534 4.78029e-05  -0.0727024 -0.307423 -3.73125e-05  -0.0742266 -0.326227 -0.000101805  -0.0756891 -0.344927 -0.000153422  -0.0771167 -0.36354 -0.000201702  0 0 0  -0.00157016 -0.00325142 0.0017072  -0.00460692 -0.0087285 0.00274909  -0.00822029 -0.0160667 0.00320876  -0.0119532 -0.0250759 0.00325418  -0.0155728 -0.0356094 0.00307345  -0.0190332 -0.0475215 0.00278735  -0.0223198 -0.0606817 0.00246716  -0.0254437 -0.074939 0.00214887  -0.0284127 -0.0901689 0.00184906  -0.0312368 -0.10623 0.00157237  -0.0339205 -0.12301 0.00132048  -0.0364701 -0.140384 0.00109196  -0.038888 -0.158254 0.00088644  -0.0411803 -0.176512 0.000701666  -0.0433495 -0.195076 0.000536561  -0.0454026 -0.213856 0.000391126  -0.0473444 -0.232784 0.000264168  -0.0491824 -0.251787 0.000155568  -0.0509245 -0.270814 6.49691e-05  -0.0525801 -0.28981 -7.7486e-06  -0.0541575 -0.30874 -6.54459e-05  -0.0556686 -0.327569 -0.000110745  -0.0571251 -0.346281 -0.000149727  -0.0585511 -0.364857 -0.000186801  0 0 0  -0.000674233 -0.00247619 0.000841022  -0.00201787 -0.00763062 0.00134408  -0.00372115 -0.0149612 0.00156522  -0.00557202 -0.0241281 0.00158536  -0.00746679 -0.0348637 0.00149107  -0.00937009 -0.046993 0.00134146  -0.0112697 -0.0603589 0.00117469  -0.0131658 -0.0748188 0.00100923  -0.0150565 -0.0902362 0.000854135  -0.0169393 -0.106479 0.000712037  -0.0188097 -0.123423 0.000583291  -0.0206616 -0.140953 0.000467896  -0.0224898 -0.158961 0.000364661  -0.0242885 -0.177345 0.000272632  -0.0260531 -0.196017 0.000190973  -0.0277787 -0.214893 0.000119448  -0.0294633 -0.233899 5.75781e-05  -0.0311038 -0.25297 4.88758e-06  -0.0327008 -0.272049 -3.8743e-05  -0.0342531 -0.291089 -7.36713e-05  -0.0357625 -0.31005 -0.000101686  -0.0372314 -0.328903 -0.000123978  -0.0386646 -0.34762 -0.000143647  -0.040071 -0.366169 -0.000163078  0 0 0  9.32366e-05 -0.00234863 -1.0252e-05  0.000245571 -0.00745344 -1.66893e-05  0.000343204 -0.0148139 -2.52724e-05  0.00032264 -0.0240637 -3.8743e-05  0.00015223 -0.0349094 -5.6386e-05  -0.000178397 -0.0471547 -7.65324e-05  -0.000668943 -0.060645 -9.54866e-05  -0.00131249 -0.0752249 -0.00011301  -0.0020982 -0.0907647 -0.000127792  -0.00301254 -0.107121 -0.000138879  -0.00404024 -0.124178 -0.000147104  -0.00516689 -0.141808 -0.000152707  -0.00637615 -0.15991 -0.000155926  -0.00765324 -0.178376 -0.000156999  -0.00898409 -0.197122 -0.000156999  -0.0103559 -0.216058 -0.000155687  -0.0117559 -0.235118 -0.000154018  -0.0131743 -0.25423 -0.000151157  -0.0146012 -0.273344 -0.000148296  -0.0160296 -0.292408 -0.00014472  -0.017452 -0.31139 -0.000141859  -0.0188651 -0.330252 -0.000138521  -0.0202632 -0.348975 -0.000135779  -0.0216403 -0.367511 -0.000133634  0 0 0  0.000859827 -0.00278425 -0.000855446  0.00249755 -0.00811595 -0.00136471  0.0043821 -0.0155796 -0.00159979  0.00617641 -0.0248754 -0.00164568  0.00771761 -0.0357482 -0.00158942  0.00895137 -0.0480287 -0.00148201  0.00986493 -0.0615582 -0.00135767  0.0104721 -0.0761897 -0.00123024  0.0107926 -0.0917809 -0.00110638  0.0108502 -0.108195 -0.000988722  0.0106689 -0.125303 -0.000877738  0.0102738 -0.142986 -0.000773787  0.00968957 -0.161132 -0.000677228  0.0089401 -0.179639 -0.000587821  0.00804818 -0.198417 -0.000506043  0.00703645 -0.217382 -0.000431776  0.00592518 -0.236461 -0.000365853  0.00473404 -0.255589 -0.000307918  0.00348091 -0.274712 -0.000258327  0.00218058 -0.293783 -0.000216722  0.000846863 -0.312764 -0.000181913  -0.000507832 -0.331628 -0.000153661  -0.00187159 -0.350349 -0.000127912  -0.00322247 -0.368899 -0.000103712  0 0 0  0.00172445 -0.00384998 -0.00169659  0.00502947 -0.00965911 -0.00272489  0.00878185 -0.0172707 -0.00318539  0.0124167 -0.0265509 -0.00325799  0.015648 -0.0373792 -0.00312114  0.0184149 -0.0496123 -0.00288904  0.0207043 -0.0631139 -0.00262225  0.0225375 -0.077727 -0.002352  0.0239435 -0.0933123 -0.00209093  0.0249542 -0.109722 -0.00184393  0.0256027 -0.126832 -0.00161326  0.0259224 -0.144512 -0.00139856  0.0259473 -0.162658 -0.0012008  0.0257097 -0.18116 -0.00101948  0.0252413 -0.199931 -0.000854373  0.0245731 -0.218885 -0.000705957  0.023735 -0.237953 -0.000574827  0.0227544 -0.257065 -0.000460505  0.0216589 -0.276173 -0.000363827  0.0204706 -0.295225 -0.000283957  0.0192142 -0.314191 -0.000219107  0.0179069 -0.333038 -0.000166893  0.0165696 -0.351756 -0.00012219  0.015229 -0.370331 -8.01086e-05  0 0 0  0.0028396 -0.00580764 -0.00259638  0.00821504 -0.0122806 -0.00415969  0.0140119 -0.0199054 -0.00482774  0.019469 -0.0290635 -0.00489569  0.0243396 -0.039748 -0.0046773  0.0285847 -0.0518655 -0.00431585  0.0322004 -0.0652719 -0.00390899  0.0352166 -0.0798139 -0.0034951  0.0376678 -0.0953347 -0.00309527  0.0395935 -0.111693 -0.00271678  0.0410348 -0.128748 -0.00236297  0.042033 -0.146382 -0.00203454  0.0426307 -0.164476 -0.00173151  0.0428678 -0.182932 -0.00145447  0.0427865 -0.201653 -0.00120282  0.0424242 -0.220562 -0.000977397  0.0418217 -0.23958 -0.000777602  0.0410144 -0.258649 -0.000605345  0.0400391 -0.277711 -0.000459671  0.0389283 -0.296726 -0.000340939  0.0377159 -0.315654 -0.000247478  0.0364318 -0.334476 -0.000176191  0.0351028 -0.353177 -0.000118613  0.0337553 -0.371782 -6.56843e-05  0 0 0  0.00603013 -0.00933707 -0.00359952  0.0131346 -0.0160246 -0.00560594  0.0205937 -0.0234193 -0.00640047  0.0277191 -0.0322976 -0.00651217  0.0341439 -0.0427628 -0.00621045  0.0397974 -0.054713 -0.00574207  0.0446827 -0.0679814 -0.00519514  0.0488278 -0.082404 -0.00464499  0.0522689 -0.0978175 -0.00410461  0.0550572 -0.114073 -0.00359714  0.0572348 -0.131032 -0.00311804  0.0588579 -0.14857 -0.00267661  0.059971 -0.166572 -0.00226688  0.060629 -0.184937 -0.00189304  0.0608754 -0.20357 -0.0015533  0.0607641 -0.222392 -0.00124884  0.0603373 -0.241328 -0.000980616  0.0596452 -0.260319 -0.000748277  0.0587296 -0.279309 -0.000553966  0.0576365 -0.29826 -0.00039506  0.0564096 -0.317135 -0.000275731  0.0550916 -0.335917 -0.000187159  0.0537286 -0.354601 -0.000123024  0.0523512 -0.373214 -6.54459e-05  0 0 0  -0.00590587 -0.00727494 0.0061959  -0.0131682 -0.0124181 0.00942087  -0.0209095 -0.0189457 0.0104821  -0.0281415 -0.0271953 0.0103242  -0.0349047 -0.0370666 0.0096674  -0.0411654 -0.0484518 0.00873923  -0.0469668 -0.0611361 0.0077827  -0.0523185 -0.0749806 0.00681329  -0.0572544 -0.0898135 0.00592375  -0.0617837 -0.10552 0.00507915  -0.0659374 -0.121961 0.00432253  -0.0697267 -0.139037 0.0036186  -0.0731815 -0.156631 0.0029918  -0.0763158 -0.174653 0.00241733  -0.0791589 -0.193007 0.00191033  -0.081727 -0.211613 0.00145555  -0.084049 -0.230395 0.0010612  -0.0861449 -0.249283 0.000723004  -0.0880454 -0.268218 0.000441909  -0.0897739 -0.287148 0.000218987  -0.0913639 -0.30603 5.13792e-05  -0.0928488 -0.324832 -6.3777e-05  -0.0942721 -0.34354 -0.000145555  -0.0956764 -0.362166 -0.000218749  0 0 0  -0.00278918 -0.00410233 0.00438285  -0.0082172 -0.00934877 0.00681186  -0.0138707 -0.0162399 0.00756001  -0.0192806 -0.0248738 0.0075109  -0.0244033 -0.0351558 0.00703228  -0.0292307 -0.0468964 0.00638688  -0.033776 -0.0599401 0.00567806  -0.0380409 -0.0741026 0.004987  -0.0420368 -0.0892537 0.00432527  -0.0457664 -0.105241 0.00371706  -0.0492429 -0.121954 0.00315428  -0.0524722 -0.139266 0.00264525  -0.0554681 -0.157081 0.00218081  -0.0582404 -0.175293 0.00176406  -0.0608044 -0.193817 0.0013895  -0.0631713 -0.212566 0.00105906  -0.0653574 -0.231468 0.000769854  -0.067378 -0.250455 0.000522256  -0.0692499 -0.269467 0.00031662  -0.0709906 -0.288456 0.000150681  -0.0726185 -0.307378 2.38419e-05  -0.0741551 -0.326204 -7.16448e-05  -0.0756228 -0.344915 -0.000146627  -0.0770533 -0.363525 -0.000220418  0 0 0  -0.00163234 -0.00244398 0.00278568  -0.00476801 -0.00729395 0.00429177  -0.00833768 -0.0143135 0.00486553  -0.0119047 -0.023215 0.00485992  -0.0153692 -0.0337769 0.00456095  -0.0187187 -0.0458014 0.00414014  -0.0219399 -0.0591082 0.00367486  -0.0250375 -0.0735351 0.00322044  -0.0280074 -0.0889297 0.0027858  -0.0308487 -0.105155 0.00238693  -0.03356 -0.122084 0.00201845  -0.0361418 -0.139601 0.00168598  -0.0385947 -0.157596 0.00138247  -0.0409211 -0.175973 0.00111127  -0.0431248 -0.194639 0.000867724  -0.0452106 -0.213513 0.000653505  -0.0471828 -0.232519 0.000465751  -0.0490494 -0.251593 0.000305772  -0.0508168 -0.270676 0.000172019  -0.0524938 -0.28972 6.35386e-05  -0.0540886 -0.308685 -2.15769e-05  -0.0556116 -0.327541 -8.85725e-05  -0.0570748 -0.346264 -0.000146389  -0.0585008 -0.364834 -0.000206351  0 0 0  -0.000685789 -0.00177211 0.00138974  -0.00208341 -0.0063113 0.00210238  -0.00373337 -0.0133325 0.00236535  -0.00548744 -0.0223733 0.00236332  -0.00729126 -0.0331075 0.00221479  -0.00912696 -0.0453168 0.00199652  -0.0109879 -0.0588061 0.00175929  -0.0128695 -0.0734174 0.00152409  -0.014763 -0.0889892 0.00130379  -0.0166608 -0.105389 0.00109982  -0.0185519 -0.12248 0.00091517  -0.0204291 -0.14015 0.000747561  -0.0222834 -0.158283 0.000597358  -0.0241088 -0.176786 0.000463009  -0.0258985 -0.19556 0.000343919  -0.0276493 -0.214531 0.000239134  -0.0293558 -0.233617 0.000148654  -0.0310173 -0.25276 7.18832e-05  -0.0326319 -0.271897 7.86781e-06  -0.0342 -0.290987 -4.33922e-05  -0.0357213 -0.309985 -8.39233e-05  -0.037199 -0.328867 -0.000115871  -0.0386367 -0.347597 -0.000145793  -0.0400424 -0.366138 -0.000177145  0 0 0  0.000116497 -0.00169381 -2.81334e-05  0.000307769 -0.00618896 -4.29153e-05  0.000441819 -0.0132472 -5.31673e-05  0.000451624 -0.0223616 -6.83069e-05  0.000305414 -0.0331916 -8.84533e-05  -9.77516e-06 -0.0455015 -0.000110507  -0.000493467 -0.0591018 -0.000131726  -0.00113857 -0.0738224 -0.000150442  -0.00193214 -0.0895101 -0.000165462  -0.00285888 -0.106019 -0.00017643  -0.00390208 -0.123219 -0.000184059  -0.00504529 -0.140988 -0.000188351  -0.00627196 -0.159216 -0.00019002  -0.00756598 -0.1778 -0.000188828  -0.00891268 -0.19665 -0.000186324  -0.0102997 -0.215681 -0.000182152  -0.011713 -0.234823 -0.000177145  -0.0131431 -0.254007 -0.000171304  -0.0145795 -0.273181 -0.000165343  -0.016016 -0.292297 -0.000158906  -0.0174448 -0.311317 -0.000151873  -0.0188625 -0.33021 -0.000145555  -0.0202634 -0.348946 -0.000139832  -0.0216396 -0.367474 -0.000134706  0 0 0  0.000912324 -0.00211352 -0.00143492  0.00268549 -0.00685132 -0.00216794  0.0045909 -0.014007 -0.00244844  0.00635231 -0.023169 -0.00247657  0.00785291 -0.0340271 -0.00237155  0.00905019 -0.0463717 -0.00220168  0.0099389 -0.0600105 -0.00201201  0.010528 -0.0747811 -0.00181854  0.0108354 -0.0905182 -0.00163126  0.0108813 -0.107083 -0.00145221  0.0106903 -0.124334 -0.00128365  0.0102851 -0.142155 -0.00112534  0.00969279 -0.160426 -0.000978589  0.00893497 -0.179053 -0.000842214  0.00803638 -0.197935 -0.000717759  0.00701857 -0.216997 -0.000604987  0.00590372 -0.236158 -0.000504255  0.00470948 -0.255362 -0.000415683  0.00345492 -0.274545 -0.000339389  0.0021534 -0.293668 -0.00027442  0.000820398 -0.312688 -0.000220537  -0.000535488 -0.331582 -0.000175476  -0.00189924 -0.350318 -0.00013423  -0.00324917 -0.36886 -9.26256e-05  0 0 0  0.00184014 -0.0031181 -0.0027895  0.00531051 -0.00832963 -0.00429344  0.00909603 -0.0156351 -0.00487149  0.0126342 -0.0247936 -0.00489736  0.0157666 -0.0356204 -0.00465393  0.0184551 -0.0479327 -0.00429654  0.0206919 -0.0615527 -0.00389493  0.0224937 -0.0763099 -0.00349402  0.0238811 -0.0920442 -0.0031029  0.0248812 -0.108606 -0.00273502  0.025524 -0.125859 -0.00238776  0.0258402 -0.143677 -0.00206673  0.0258633 -0.161949 -0.00176835  0.025625 -0.180569 -0.00149572  0.0251573 -0.199447 -0.00124705  0.0244911 -0.218498 -0.00102365  0.0236566 -0.23765 -0.000825047  0.022681 -0.256838 -0.00065279  0.0215905 -0.276007 -0.000505805  0.0204084 -0.295112 -0.000383019  0.0191572 -0.314117 -0.000283599  0.0178533 -0.332992 -0.000203013  0.0165186 -0.351723 -0.000133276  0.0151799 -0.370293 -6.31809e-05  0 0 0  0.00286114 -0.00498271 -0.00432682  0.008587 -0.0108193 -0.00660217  0.0144125 -0.0181478 -0.00738621  0.019726 -0.0272194 -0.00736213  0.0244622 -0.0379409 -0.00698638  0.0286023 -0.0501645 -0.006428  0.0321499 -0.0637096 -0.00582373  0.0351256 -0.0784031 -0.00520349  0.0375545 -0.0940787 -0.00461185  0.0394695 -0.110587 -0.00404322  0.0409062 -0.127788 -0.00351691  0.0419037 -0.145558 -0.00302207  0.0425024 -0.163778 -0.00256956  0.0427431 -0.182351 -0.00215125  0.0426661 -0.201178 -0.00177455  0.0423098 -0.220182 -0.00143385  0.0417144 -0.239285 -0.00113463  0.0409153 -0.258429 -0.000873566  0.0399487 -0.277553 -0.000653505  0.0388465 -0.296618 -0.000472665  0.0376418 -0.315584 -0.000330687  0.0363619 -0.334431 -0.000221372  0.0350366 -0.353143 -0.000133157  0.0336931 -0.371749 -5.03063e-05  0 0 0  0.00610982 -0.00827837 -0.00603414  0.0133058 -0.014353 -0.00897014  0.0209633 -0.0214319 -0.009969  0.0280192 -0.0303239 -0.00991344  0.0343426 -0.0408945 -0.00937903  0.0399022 -0.0529829 -0.00861788  0.044718 -0.0664211 -0.00779402  0.0488185 -0.081004 -0.00695205  0.0522313 -0.0965837 -0.00614822  0.055003 -0.11299 -0.00537705  0.0571709 -0.130098 -0.00466216  0.0587877 -0.14777 -0.00399113  0.0598972 -0.165901 -0.00337696  0.0605531 -0.184378 -0.00281024  0.0607997 -0.20312 -0.00229871  0.0606887 -0.222035 -0.00183749  0.0602636 -0.241057 -0.00143135  0.0595741 -0.260119 -0.0010798  0.0586607 -0.279172 -0.000782728  0.0575693 -0.298169 -0.000543594  0.0563414 -0.317079 -0.000359535  0.0550225 -0.335881 -0.00022912  0.0536559 -0.35457 -0.000134349  0.052273 -0.37318 -5.05447e-05  0 0 0  -0.00763766 -0.00485015 0.00947785  -0.0142744 -0.00907505 0.0131154  -0.0210484 -0.0155036 0.0140793  -0.0277321 -0.0238707 0.0136011  -0.0341777 -0.0341601 0.0126944  -0.0402806 -0.0458446 0.0114217  -0.0460234 -0.058934 0.0102184  -0.0513874 -0.0730342 0.00894189  -0.0563655 -0.088191 0.0078125  -0.0609599 -0.104104 0.00670147  -0.0651827 -0.120801 0.00572705  -0.0690476 -0.138047 0.00479794  -0.0725744 -0.155844 0.00398088  -0.0757822 -0.174007 0.0032227  -0.0786923 -0.192519 0.00255513  -0.0813284 -0.211239 0.00195575  -0.0837119 -0.230139 0.00143361  -0.0858688 -0.249112 0.000988245  -0.0878224 -0.268127 0.000611305  -0.0896015 -0.28711 0.000319242  -0.0912328 -0.306034 9.03606e-05  -0.0927479 -0.324851 -5.50747e-05  -0.0941806 -0.343562 -0.000161409  -0.0955732 -0.362176 -0.000232697  0 0 0  -0.00426866 -0.00217607 0.00670433  -0.00911203 -0.00645269 0.00937366  -0.0139701 -0.0130256 0.0101137  -0.0188882 -0.0217666 0.00987959  -0.0236948 -0.0322546 0.0092361  -0.0283629 -0.0443149 0.008394  -0.0328472 -0.0576359 0.00749922  -0.0371243 -0.0721113 0.00660491  -0.0411582 -0.0875144 0.00575876  -0.044955 -0.103766 0.00496101  -0.0484964 -0.120691 0.00423241  -0.0518026 -0.13822 0.00355768  -0.0548671 -0.15621 0.00295091  -0.0577133 -0.174595 0.00239587  -0.0603422 -0.193261 0.00190425  -0.0627767 -0.212145 0.00146198  -0.0650225 -0.231158 0.00108218  -0.0671039 -0.250242 0.000750065  -0.0690281 -0.269332 0.000479221  -0.0708189 -0.288383 0.000255108  -0.0724888 -0.307347 8.7738e-05  -0.0740561 -0.3262 -4.22001e-05  -0.0755384 -0.344921 -0.000138044  -0.0769596 -0.363531 -0.000252962  0 0 0  -0.00258121 -0.000791803 0.00429869  -0.0053803 -0.00478455 0.00595355  -0.00841585 -0.011491 0.00648761  -0.0116194 -0.0203836 0.00638366  -0.0148507 -0.0310878 0.00597835  -0.0180692 -0.0433269 0.00544047  -0.0212415 -0.0568871 0.00485587  -0.0243387 -0.071567 0.00427747  -0.0273381 -0.0872118 0.00372171  -0.0302254 -0.103668 0.00320435  -0.0329895 -0.120814 0.00272441  -0.0356276 -0.138526 0.00228691  -0.0381364 -0.156703 0.0018878  -0.0405185 -0.17524 0.00152922  -0.042775 -0.194052 0.0012064  -0.0449119 -0.213052 0.000921965  -0.0469315 -0.232172 0.000673056  -0.0488436 -0.251339 0.000460148  -0.050652 -0.270503 0.000281572  -0.0523653 -0.28961 0.000137091  -0.0539901 -0.308625 2.26498e-05  -0.0555353 -0.327515 -6.62804e-05  -0.0570056 -0.346261 -0.000146151  -0.0584209 -0.364838 -0.00024271  0 0 0  -0.00115273 -0.000220835 0.00212073  -0.00232011 -0.00401649 0.00286746  -0.00369564 -0.0107157 0.00312781  -0.00525412 -0.0196994 0.00308013  -0.00692409 -0.030525 0.00288677  -0.00868428 -0.0429094 0.0026176  -0.0105174 -0.056621 0.00232339  -0.0123997 -0.0714642 0.00203109  -0.0143143 -0.0872709 0.00175095  -0.0162431 -0.103892 0.00149059  -0.0181718 -0.121192 0.00125074  -0.0200886 -0.139053 0.00103307  -0.0219834 -0.157364 0.000835896  -0.0238477 -0.176025 0.000659466  -0.0256751 -0.194944 0.000501633  -0.0274609 -0.214041 0.00036335  -0.0292006 -0.23324 0.000243425  -0.0308924 -0.252478 0.000141382  -0.0325341 -0.271698 5.62668e-05  -0.0341256 -0.290853 -1.16825e-05  -0.0356667 -0.309906 -6.53267e-05  -0.0371578 -0.328828 -0.000107527  -0.0386007 -0.347592 -0.000146866  -0.0399976 -0.366137 -0.000202417  0 0 0  0.000170201 -0.000189215 -9.5129e-05  0.000418812 -0.00395891 -0.000111103  0.000604749 -0.0107039 -0.000123262  0.000659466 -0.0197496 -0.000134945  0.000543416 -0.0306504 -0.000149488  0.000244856 -0.0431164 -0.000166178  -0.000236392 -0.0569234 -0.000182152  -0.000889301 -0.071865 -0.000196934  -0.00169837 -0.0877781 -0.000208378  -0.00264573 -0.104503 -0.000216484  -0.00371218 -0.12191 -0.000221729  -0.00488019 -0.139868 -0.000223637  -0.00613129 -0.158272 -0.000222683  -0.00744951 -0.177014 -0.000219107  -0.00881851 -0.19601 -0.000213861  -0.0102259 -0.215169 -0.000207186  -0.0116572 -0.234425 -0.000199318  -0.0131032 -0.253707 -0.000190735  -0.0145533 -0.272965 -0.000181437  -0.0160005 -0.292148 -0.0001719  -0.0174384 -0.311226 -0.000162125  -0.0188632 -0.330163 -0.000152588  -0.0202689 -0.348935 -0.00014329  -0.0216453 -0.367467 -0.000136375  0 0 0  0.00147727 -0.000618577 -0.00228786  0.00313249 -0.00462896 -0.0030601  0.00487795 -0.011456 -0.00334501  0.00654143 -0.0205461 -0.00332165  0.0079729 -0.0314758 -0.00316381  0.00912911 -0.0439761 -0.00293183  0.00999349 -0.0578178 -0.00267625  0.0105667 -0.0728061 -0.00241733  0.0108613 -0.088767 -0.00216484  0.0108962 -0.105546 -0.0019238  0.0106936 -0.123003 -0.00169611  0.0102779 -0.141014 -0.00148273  0.00967395 -0.159463 -0.00128388  0.00890768 -0.178249 -0.00110006  0.00800049 -0.197279 -0.000932217  0.00697708 -0.216471 -0.000780344  0.00585771 -0.23575 -0.000644207  0.00466204 -0.255052 -0.000524282  0.00340724 -0.274322 -0.000420809  0.00210786 -0.293515 -0.000333071  0.000775576 -0.312593 -0.000259161  -0.00057888 -0.331531 -0.000196695  -0.0019455 -0.350299 -0.00014019  -0.00330472 -0.368845 -7.10487e-05  0 0 0  0.00282721 -0.00158483 -0.00438523  0.00609753 -0.00600249 -0.00607395  0.00949797 -0.0129737 -0.00660944  0.0127952 -0.0220878 -0.0065372  0.0157704 -0.0330091 -0.00618076  0.0183656 -0.0454929 -0.00570059  0.0205556 -0.059323 -0.00517273  0.0223335 -0.0743049 -0.00464272  0.0237117 -0.0902636 -0.00412536  0.0247079 -0.107044 -0.00363541  0.0253502 -0.124504 -0.00317144  0.0256675 -0.142517 -0.00274229  0.0256928 -0.160968 -0.00234246  0.0254582 -0.179753 -0.00197744  0.024996 -0.198782 -0.00164413  0.0243368 -0.217967 -0.0013454  0.0235121 -0.237239 -0.00107908  0.022548 -0.25653 -0.000847578  0.0214713 -0.275789 -0.000649214  0.0203037 -0.294965 -0.000484228  0.0190654 -0.314026 -0.00034833  0.0177727 -0.332942 -0.000239372  0.016439 -0.351698 -0.000141144  0.0150883 -0.370271 -2.95639e-05  0 0 0  0.0045507 -0.00325495 -0.00670576  0.009675 -0.00827473 -0.00918317  0.0148644 -0.0152482 -0.0100296  0.0198331 -0.024353 -0.00981855  0.0243505 -0.0351964 -0.00929952  0.0283628 -0.0476512 -0.00852704  0.0318503 -0.0614064 -0.00774956  0.0347964 -0.0763597 -0.00691223  0.0372202 -0.0922522 -0.00614476  0.0391361 -0.109003 -0.00537491  0.0405822 -0.126404 -0.0046854  0.0415894 -0.144384 -0.00401497  0.042201 -0.162782 -0.00341892  0.0424552 -0.181532 -0.0028522  0.0423945 -0.200511 -0.0023551  0.0420566 -0.219659 -0.00189424  0.0414822 -0.238884 -0.00149775  0.0407066 -0.258138 -0.00114417  0.0397651 -0.277353 -0.000851393  0.0386901 -0.296492 -0.000604868  0.0375109 -0.315513 -0.000414848  0.036253 -0.334394 -0.00026536  0.0349379 -0.353124 -0.00014782  0.0335877 -0.371725 -2.28882e-05  0 0 0  0.00751857 -0.00591731 -0.0093081  0.0142966 -0.0115045 -0.0128305  0.0214433 -0.0183578 -0.0135205  0.0281315 -0.0274127 -0.0132687  0.0342261 -0.0381268 -0.0123935  0.0396383 -0.0505418 -0.0114253  0.0443928 -0.064163 -0.010272  0.0484514 -0.0790551 -0.00921249  0.0518662 -0.0948144 -0.00810385  0.0546308 -0.111491 -0.00712299  0.0568166 -0.128768 -0.00613999  0.0584379 -0.146667 -0.00527787  0.0595691 -0.164951 -0.00443697  0.060235 -0.183618 -0.00370359  0.060505 -0.202494 -0.00300717  0.0604098 -0.221558 -0.00240517  0.0600126 -0.240696 -0.0018549  0.0593462 -0.259867 -0.00139165  0.0584621 -0.27901 -0.000990868  0.0573988 -0.298077 -0.000671148  0.0561991 -0.317041 -0.000423193  0.0549037 -0.335866 -0.000249863  0.0535495 -0.354562 -0.000131369  0.0521753 -0.373155 -3.29018e-05  -0.00372025 -0.00345785 -0.00586152  -0.00620648 -0.00652387 -0.00772607  -0.00254719 -0.0047213 -0.00346351  0 0 0  0 0 0  -0.0057779 -0.00337283 -0.00818598  -0.00395167 -0.00563224 -0.00533855  0 0 0  -0.0019398 -0.000885129 -0.00425673  -0.00331417 -0.00332777 -0.00544822  -0.000956606 -0.00198855 -0.0024755  0 0 0  -0.0024567 -0.00397226 -0.00431716  -0.00252235 -0.00175542 -0.00493002  -0.0042755 -0.00470287 -0.00669563  -0.00130727 -0.00293788 -0.0029912  0 0 0  -0.00110006 -0.00158215 -0.0030638  -0.0013737 -0.00246786 -0.0036732  -0.0111141 -0.0067188 -0.0118214  -0.0135317 -0.0111248 -0.0113328  -0.00937724 -0.0096396 -0.00817513  -0.011546 -0.00778723 -0.0112466  -0.0104471 -0.0108074 -0.0081315  -0.00679132 -0.00413667 -0.00817621  -0.0085274 -0.00812395 -0.00812471  -0.00540458 -0.00654889 -0.005849  -0.00993869 -0.00837851 -0.0100058  -0.00870864 -0.00537626 -0.010047  -0.0107978 -0.00951324 -0.00978982  -0.00710103 -0.00801455 -0.00698507  -0.00582738 -0.00543831 -0.0070709  -0.00748222 -0.00682884 -0.00859165  -0.0176603 -0.011981 -0.0139841  -0.0209904 -0.0174287 -0.012362  -0.0170757 -0.0155265 -0.0101684  -0.0173042 -0.0141097 -0.0121548  -0.0171257 -0.0175247 -0.00906837  -0.0115827 -0.00949075 -0.00988364  -0.0139668 -0.0147945 -0.00890088  -0.0110697 -0.0125757 -0.00734138  -0.0172934 -0.0139793 -0.0121589  -0.0144194 -0.0106578 -0.0118469  -0.0172423 -0.0159954 -0.0106598  -0.0138095 -0.0139722 -0.00878954  -0.0112519 -0.0111847 -0.00866699  -0.0140439 -0.0124962 -0.0103875  -0.024415 -0.0194345 -0.0140754  -0.0280831 -0.0256528 -0.0121225  -0.0245834 -0.0228487 -0.0105537  -0.023101 -0.022714 -0.0118612  -0.023504 -0.0259206 -0.00899744  -0.0164897 -0.0171373 -0.0101212  -0.0191937 -0.0234101 -0.0087899  -0.0166269 -0.0202977 -0.0076561  -0.0245925 -0.0212854 -0.0123707  -0.0202208 -0.0181877 -0.0120375  -0.0233946 -0.0244245 -0.0104864  -0.0203778 -0.0215038 -0.00909853  -0.0166156 -0.0188557 -0.00891864  -0.0203604 -0.0199796 -0.0106258  -0.0310567 -0.02878 -0.0133555  -0.0347049 -0.0356492 -0.0112983  -0.0315995 -0.0319038 -0.0101465  -0.0287079 -0.0330427 -0.0110906  -0.0294496 -0.0360196 -0.008461  -0.0213552 -0.0267763 -0.00968027  -0.0241734 -0.0337712 -0.00823677  -0.0218985 -0.0297712 -0.00738955  -0.0314585 -0.0304393 -0.0118033  -0.0259394 -0.0276901 -0.0114655  -0.0291939 -0.0346347 -0.00980556  -0.026519 -0.0307792 -0.008757  -0.0217063 -0.0283769 -0.0085541  -0.0263412 -0.0293314 -0.0101526  -0.0372806 -0.0397891 -0.0122596  -0.0408842 -0.0471754 -0.0102801  -0.0381067 -0.04254 -0.00935626  -0.0340934 -0.0449722 -0.0101025  -0.0350089 -0.0475593 -0.00770736  -0.0261008 -0.0380617 -0.00893843  -0.0289183 -0.0456321 -0.00752914  -0.0268759 -0.0407934 -0.0068363  -0.0378391 -0.041229 -0.0108474  -0.0314268 -0.0388504 -0.0105674  -0.0346595 -0.0463294 -0.00893939  -0.0322853 -0.0416178 -0.00808859  -0.0265796 -0.0395149 -0.00790036  -0.0319634 -0.040311 -0.00936246  -0.0432443 -0.0521814 -0.0110362  -0.0466473 -0.0600102 -0.00916493  -0.0441456 -0.0545849 -0.0084275  -0.0392135 -0.0581266 -0.00905085  -0.0401908 -0.0604448 -0.00689876  -0.0306774 -0.0507631 -0.00808156  -0.0334244 -0.058799 -0.0067296  -0.0315619 -0.0531996 -0.00617325  -0.0438248 -0.0534334 -0.00976217  -0.0366965 -0.051411 -0.00953841  -0.0398039 -0.0593557 -0.00798857  -0.0376401 -0.0538543 -0.00729656  -0.0311956 -0.0520535 -0.00713503  -0.0372761 -0.0526943 -0.00844204  -0.0487677 -0.0657873 -0.00979745  -0.05199 -0.0739875 -0.00810087  -0.0497128 -0.0678622 -0.00747907  -0.0440505 -0.0724694 -0.00800753  -0.0450147 -0.0744347 -0.006091  -0.0350606 -0.0646729 -0.00720179  -0.0376835 -0.073092 -0.00597179  -0.0359654 -0.0668156 -0.00549054  -0.0493639 -0.0668609 -0.00866127  -0.0416676 -0.0651814 -0.00849092  -0.0446202 -0.0734918 -0.00706971  -0.0426525 -0.0673078 -0.0064826  -0.035588 -0.0658043 -0.00635099  -0.0422501 -0.0662956 -0.00750637  -0.0539626 -0.0804202 -0.00861371  -0.0569351 -0.0889451 -0.00707257  -0.0548614 -0.08221 -0.0065676  -0.048569 -0.0877083 -0.00701749  -0.0494913 -0.0894437 -0.00533283  -0.0392134 -0.0796189 -0.00634873  -0.0416898 -0.0883574 -0.00521982  -0.0400951 -0.0814851 -0.00483024  -0.0545171 -0.0813463 -0.00760806  -0.0463549 -0.0799817 -0.00747526  -0.0491101 -0.0886221 -0.00618172  -0.047291 -0.0818251 -0.00569952  -0.0397136 -0.0806034 -0.00559199  -0.0469086 -0.0809459 -0.00660145  -0.058726 -0.0959632 -0.00749898  -0.0614833 -0.10476 -0.00613797  -0.0595841 -0.0974911 -0.00571632  -0.0527829 -0.103833 -0.00609124  -0.0536351 -0.105281 -0.00462365  -0.0431268 -0.0954557 -0.00554371  -0.0454421 -0.104457 -0.00454748  -0.043955 -0.0970657 -0.00421274  -0.0592531 -0.0967496 -0.00662136  -0.0507133 -0.0956811 -0.00652158  -0.0532776 -0.10458 -0.00537002  -0.0516076 -0.0972611 -0.00496471  -0.0435989 -0.0963025 -0.00487983  -0.0512313 -0.096506 -0.00575459  -0.0631472 -0.112273 -0.00647378  -0.0656612 -0.121301 -0.00526416  -0.0639272 -0.113573 -0.00493288  -0.0566776 -0.120614 -0.00523949  -0.0574605 -0.121871 -0.00397825  -0.0467913 -0.11205 -0.00479698  -0.0489441 -0.121267 -0.00390482  -0.0475558 -0.113427 -0.00364268  -0.0636219 -0.112943 -0.00571382  -0.0547725 -0.112141 -0.00563562  -0.0571319 -0.121269 -0.00461221  -0.0555831 -0.113489 -0.00428951  -0.0472206 -0.112774 -0.0042206  -0.055245 -0.112844 -0.00497091  -0.067174 -0.129252 -0.00552833  -0.0694772 -0.138465 -0.00447917  -0.0678898 -0.130342 -0.00421691  -0.06028 -0.138032 -0.00445783  -0.0609829 -0.139059 -0.00338554  -0.0502114 -0.129285 -0.00411057  -0.0522027 -0.138672 -0.00333786  -0.0509052 -0.13045 -0.00312221  -0.0676101 -0.129809 -0.00488091  -0.058514 -0.129255 -0.00482333  -0.0606854 -0.138555 -0.00392926  -0.0592607 -0.130389 -0.00367022  -0.050604 -0.129895 -0.00361681  -0.0589435 -0.129844 -0.00425363  -0.0708754 -0.146779 -0.00467002  -0.0729594 -0.156139 -0.00375557  -0.0715119 -0.147684 -0.00356603  -0.0635879 -0.155903 -0.00374806  -0.0642186 -0.156772 -0.00285125  -0.0533919 -0.14705 -0.00348425  -0.0552275 -0.156568 -0.00280607  -0.054015 -0.148024 -0.002648  -0.071262 -0.147242 -0.00412464  -0.0619708 -0.146907 -0.00408018  -0.0639521 -0.156349 -0.00330138  -0.0626323 -0.147852 -0.00310874  -0.0537411 -0.14756 -0.00306642  -0.0623549 -0.147397 -0.00359917  -0.0742302 -0.164765 -0.00388813  -0.0761211 -0.174234 -0.00311136  -0.0747993 -0.165502 -0.00297713  -0.0666301 -0.174199 -0.00310588  -0.0671843 -0.174885 -0.00236702  -0.0563433 -0.165247 -0.0029161  -0.0580293 -0.174855 -0.00234032  -0.0568963 -0.166047 -0.00222051  -0.0745766 -0.165138 -0.00343764  -0.0651402 -0.165003 -0.00340819  -0.0669495 -0.174541 -0.00274074  -0.065735 -0.165774 -0.00259948  -0.0566556 -0.165663 -0.0025686  -0.0654823 -0.165401 -0.00300765  -0.0772907 -0.18311 -0.00318766  -0.0789909 -0.192652 -0.00252688  -0.0777866 -0.183697 -0.00244832  -0.0694126 -0.192774 -0.00253117  -0.0698977 -0.19333 -0.00193596  -0.0590764 -0.183778 -0.00240505  -0.0606207 -0.193444 -0.001912  -0.0595611 -0.184424 -0.00183582  -0.0775937 -0.183406 -0.00282168  -0.068053 -0.183445 -0.00280166  -0.0696927 -0.193051 -0.00223422  -0.0685688 -0.184064 -0.0021435  -0.0593489 -0.184113 -0.00212073  -0.0683522 -0.183762 -0.00247502  -0.0800558 -0.201732 -0.00256002  -0.0815842 -0.211315 -0.00201583  -0.0804862 -0.202186 -0.00197744  -0.0719619 -0.211589 -0.00202179  -0.072377 -0.212005 -0.00155365  -0.0616041 -0.20256 -0.00194979  -0.0630152 -0.212252 -0.00154245  -0.0620242 -0.203068 -0.00149429  -0.080319 -0.201957 -0.00227129  -0.0707142 -0.20215 -0.00226223  -0.0722009 -0.211787 -0.00178957  -0.0711654 -0.202632 -0.00173652  -0.0618415 -0.202822 -0.00172246  -0.0709742 -0.202395 -0.00200117  -0.0825633 -0.220547 -0.00201046  -0.0839305 -0.230145 -0.0015645  -0.0829288 -0.220887 -0.00156403  -0.0742898 -0.230536 -0.00157714  -0.074641 -0.23085 -0.00122118  -0.0639404 -0.221513 -0.00154972  -0.065227 -0.231204 -0.00121319  -0.064297 -0.221902 -0.00119424  -0.0827883 -0.220713 -0.00178897  -0.0731512 -0.221037 -0.00178683  -0.0744922 -0.230682 -0.00139928  -0.0735321 -0.221401 -0.00138021  -0.064142 -0.221712 -0.00137246  -0.0733727 -0.22122 -0.00158417  -0.0848291 -0.239489 -0.0015322  -0.0860493 -0.249075 -0.00118291  -0.0851328 -0.239728 -0.00120676  -0.0764229 -0.249572 -0.00119698  -0.0767112 -0.249785 -0.000937223  -0.0660999 -0.240567 -0.00120378  -0.0672722 -0.250234 -0.000937462  -0.0663981 -0.240852 -0.000935793  -0.0850158 -0.239601 -0.00137043  -0.0753779 -0.240037 -0.00137639  -0.0765882 -0.249662 -0.00106716  -0.0756981 -0.240298 -0.00107157  -0.0662689 -0.240711 -0.00107038  -0.0755632 -0.240165 -0.00122428  -0.0868804 -0.258488 -0.00113106  -0.08797 -0.268044 -0.000863791  -0.0871279 -0.258645 -0.000906348  -0.0783758 -0.268619 -0.000881314  -0.0786076 -0.268761 -0.000702143  -0.0680997 -0.259659 -0.000911832  -0.0691662 -0.269282 -0.000704765  -0.0683405 -0.259858 -0.000718236  -0.0870337 -0.258558 -0.00101924  -0.0774183 -0.259083 -0.00102949  -0.0785081 -0.268673 -0.000791669  -0.077677 -0.25926 -0.000813127  -0.0682364 -0.259757 -0.00081563  -0.0775685 -0.259167 -0.000921011  -0.0887454 -0.277492 -0.000802159  -0.0897167 -0.287001 -0.000613332  -0.088938 -0.277583 -0.000662923  -0.0801756 -0.287639 -0.000629783  -0.0803535 -0.287718 -0.000516176  -0.0699537 -0.278733 -0.000673175  -0.0709269 -0.288298 -0.000521421  -0.0701449 -0.278863 -0.000541329  -0.0888627 -0.277527 -0.00073278  -0.0792918 -0.278123 -0.000746965  -0.0802758 -0.287659 -0.000572205  -0.0794964 -0.278231 -0.000602365  -0.0700614 -0.278795 -0.000608206  -0.0794094 -0.278171 -0.000674129  -0.0904446 -0.296449 -0.000550866  -0.0913208 -0.305901 -0.000425816  -0.0905931 -0.296493 -0.00047648  -0.0818408 -0.306579 -0.000440717  -0.0819743 -0.306621 -0.000376225  -0.0716813 -0.297745 -0.000486851  -0.0725722 -0.307241 -0.00037992  -0.0718253 -0.297823 -0.000403285  -0.0905354 -0.29646 -0.00051403  -0.0810215 -0.297106 -0.000527501  -0.0819135 -0.30658 -0.00040853  -0.0811758 -0.297166 -0.000440478  -0.0717628 -0.297779 -0.000446081  -0.081109 -0.297129 -0.000483274  -0.0920169 -0.315322 -0.000371456  -0.0928142 -0.324714 -0.000301361  -0.0921257 -0.315338 -0.000343919  -0.0833979 -0.325413 -0.000308752  -0.0834968 -0.325433 -0.00027895  -0.0732968 -0.316656 -0.000347733  -0.0741222 -0.326079 -0.000278354  -0.0734062 -0.3167 -0.000301361  -0.0920789 -0.31532 -0.000358462  -0.0826297 -0.315996 -0.000368476  -0.0834491 -0.325403 -0.000293612  -0.0827446 -0.316026 -0.00032258  -0.0733573 -0.316673 -0.00032568  -0.0826921 -0.316004 -0.000344992  -0.0934844 -0.334084 -0.000258803  -0.0942402 -0.343424 -0.000219345  -0.0935745 -0.334094 -0.000256419  -0.0848699 -0.344123 -0.000216365  -0.0849528 -0.344139 -0.000208378  -0.0748203 -0.335442 -0.000246525  -0.0755968 -0.344796 -0.00019908  -0.0749049 -0.335469 -0.000226974  -0.0935326 -0.334081 -0.000258565  -0.0841401 -0.334769 -0.000259757  -0.0849111 -0.344114 -0.000212908  -0.0842288 -0.334786 -0.000241399  -0.074867 -0.335451 -0.000238061  -0.084187 -0.334772 -0.000250578  -0.0948975 -0.352735 -0.000183105  -0.095639 -0.362047 -0.000150561  -0.0949845 -0.352756 -0.000191808  -0.086287 -0.362737 -0.000124812  -0.0863705 -0.36276 -0.00014174  -0.0762677 -0.354102 -0.000157237  -0.0770264 -0.363406 -0.000118017  -0.0763495 -0.354125 -0.00016284  -0.0949409 -0.352743 -0.000187278  -0.0855811 -0.353422 -0.000172377  -0.0863311 -0.362735 -0.000133634  -0.0856633 -0.353444 -0.000176787  -0.0763144 -0.35411 -0.000161529  -0.0856247 -0.353431 -0.000174284  0 0 0  -0.00344011 -0.00137763 -0.00542641  -0.00223413 -0.00312324 -0.00353181  0 0 0  -0.00119888 2.48849e-05 -0.00276899  -0.0018772 -0.00172558 -0.00353789  -0.000574417 -0.000927314 -0.00157666  0 0 0  -0.00151581 -0.000350505 -0.00343251  -0.00253443 -0.00237498 -0.0044328  -0.00074783 -0.0013486 -0.00199819  0 0 0  -0.000625014 -0.000577584 -0.00199175  -0.000827126 -0.000980452 -0.00250399  -0.00720948 -0.00552447 -0.00750077  -0.00635749 -0.00819051 -0.00548792  -0.00401458 -0.00245254 -0.00526857  -0.00499821 -0.00618564 -0.00514042  -0.00310962 -0.00456966 -0.00368905  -0.00532204 -0.00311609 -0.00664163  -0.00663833 -0.00700106 -0.00653303  -0.00417252 -0.00538363 -0.00468171  -0.00339545 -0.00362223 -0.00450051  -0.00450394 -0.00437301 -0.00566816  -0.0111331 -0.0121743 -0.00826037  -0.0109687 -0.0151428 -0.00621045  -0.00691903 -0.00782631 -0.00630391  -0.0084042 -0.0130158 -0.0057323  -0.00655204 -0.0105293 -0.00470424  -0.0091607 -0.00853054 -0.00799859  -0.0110414 -0.0137911 -0.00726795  -0.00865224 -0.0114175 -0.00594747  -0.00668818 -0.00931345 -0.00553381  -0.00882876 -0.0101296 -0.00702167  -0.015163 -0.0209578 -0.00815296  -0.0154535 -0.0239213 -0.00621581  -0.0100643 -0.0156556 -0.00653601  -0.01184 -0.0218865 -0.00570035  -0.0101539 -0.0185138 -0.00495374  -0.0131405 -0.0162996 -0.00828683  -0.0153712 -0.0225578 -0.00719881  -0.0132316 -0.0193002 -0.00627041  -0.0101289 -0.0172207 -0.00576794  -0.0132261 -0.0179385 -0.00730288  -0.0191732 -0.031546 -0.007671  -0.0197631 -0.0343384 -0.00586915  -0.0132813 -0.0254705 -0.00628698  -0.0152027 -0.0324812 -0.00537336  -0.0136762 -0.0282561 -0.0048126  -0.017172 -0.0260366 -0.00795197  -0.0195369 -0.033041 -0.00677645  -0.0176347 -0.0289226 -0.00607467  -0.0135323 -0.0269816 -0.00556159  -0.0174715 -0.0275957 -0.00703073  -0.0231162 -0.0436918 -0.00701177  -0.0238565 -0.0462306 -0.0053612  -0.016506 -0.0369574 -0.00582552  -0.0184826 -0.0445871 -0.00490701  -0.0170861 -0.0395615 -0.00446153  -0.0211557 -0.0374321 -0.00735748  -0.0235533 -0.0450432 -0.00618839  -0.021834 -0.0401019 -0.00562537  -0.0168512 -0.0383578 -0.00514925  -0.0215652 -0.0388635 -0.00649929  -0.0269467 -0.0571282 -0.00629878  -0.0277467 -0.0594025 -0.00480223  -0.0197062 -0.0498713 -0.00527847  -0.0216724 -0.0579943 -0.00440216  -0.020371 -0.0522391 -0.00403345  -0.0250449 -0.0502483 -0.00666189  -0.0274053 -0.0583328 -0.00554764  -0.0258265 -0.0526543 -0.0050838  -0.0200906 -0.0511376 -0.00465667  -0.0254993 -0.0515326 -0.00587583  -0.0306374 -0.0717085 -0.00558662  -0.031436 -0.0737072 -0.00425041  -0.0228388 -0.0640046 -0.00471163  -0.0247611 -0.0725316 -0.00389874  -0.0235291 -0.066119 -0.00358951  -0.0288112 -0.064278 -0.00594401  -0.0310876 -0.0727635 -0.00491512  -0.0296147 -0.0664128 -0.00452328  -0.0232285 -0.0651314 -0.00414872  -0.0292688 -0.0654142 -0.00523365  -0.0341604 -0.087231 -0.00490594  -0.0349256 -0.0889783 -0.00372386  -0.0258896 -0.0791784 -0.00415921  -0.0277387 -0.0880329 -0.00342178  -0.0265628 -0.0810418 -0.00316107  -0.0324188 -0.0793475 -0.00524437  -0.0345869 -0.0881499 -0.00430977  -0.0332046 -0.081218 -0.00398195  -0.0262655 -0.0801688 -0.00365686  -0.0328596 -0.0803412 -0.00461161  -0.0375072 -0.103589 -0.00426853  -0.0382192 -0.105093 -0.00323808  -0.0288292 -0.09524 -0.00363731  -0.0305957 -0.104363 -0.00297606  -0.0294664 -0.0968641 -0.00275993  -0.0358557 -0.0953045 -0.0045855  -0.0379014 -0.104377 -0.00374937  -0.0365946 -0.0969275 -0.00347579  -0.0291814 -0.0961017 -0.00319517  -0.0362676 -0.0961649 -0.00402832  -0.0406671 -0.120624 -0.00368071  -0.0413195 -0.121913 -0.00279021  -0.0316544 -0.112051 -0.00315213  -0.0333278 -0.121387 -0.00256789  -0.0322416 -0.113453 -0.00239074  -0.039109 -0.112015 -0.00397122  -0.0410268 -0.121297 -0.00323081  -0.0397922 -0.11341 -0.00300837  -0.0319785 -0.112793 -0.0027678  -0.0394866 -0.112754 -0.00348735  -0.0436445 -0.138248 -0.00314212  -0.0442331 -0.139334 -0.00238419  -0.0343516 -0.12949 -0.002707  -0.0359318 -0.138992 -0.00219393  -0.0348859 -0.130686 -0.0020535  -0.0421774 -0.129359 -0.00340915  -0.0439681 -0.138812 -0.00275981  -0.0427973 -0.130544 -0.00258231  -0.034645 -0.130123 -0.00237703  -0.0425203 -0.129985 -0.00299346  -0.0464386 -0.156331 -0.00265181  -0.0469642 -0.157239 -0.00201452  -0.0369235 -0.147443 -0.00230014  -0.0384082 -0.157068 -0.00185633  -0.0374016 -0.148452 -0.00174797  -0.0450625 -0.147224 -0.00289309  -0.0467268 -0.1568 -0.00232947  -0.0456197 -0.14822 -0.00219405  -0.0371865 -0.147976 -0.00202107  -0.0453691 -0.14775 -0.00254154  -0.0490584 -0.174796 -0.0022105  -0.0495211 -0.175538 -0.00168359  -0.0393653 -0.165809 -0.0019331  -0.0407574 -0.175518 -0.00155139  -0.0397893 -0.166648 -0.00147212  -0.0477684 -0.16551 -0.00242877  -0.0493121 -0.175175 -0.00194454  -0.0482616 -0.166334 -0.00184464  -0.0395977 -0.166251 -0.00170016  -0.0480407 -0.165943 -0.00213504  -0.0515087 -0.193533 -0.00181365  -0.0519115 -0.194133 -0.00138617  -0.0416828 -0.184491 -0.00160229  -0.042984 -0.194249 -0.00127983  -0.0420523 -0.185178 -0.00122547  -0.050303 -0.184122 -0.00200844  -0.0517294 -0.193837 -0.0015974  -0.0507356 -0.184791 -0.00153029  -0.0418864 -0.184852 -0.0014118  -0.0505406 -0.184473 -0.00176811  -0.0538005 -0.212479 -0.00146437  -0.0541451 -0.212948 -0.00112534  -0.0438764 -0.203405 -0.00130928  -0.045091 -0.213181 -0.00103951  -0.0441952 -0.203956 -0.00100613  -0.0526719 -0.202973 -0.00163651  -0.0539888 -0.212712 -0.00129342  -0.053045 -0.203506 -0.0012517  -0.0440519 -0.203694 -0.00115609  -0.0528783 -0.203252 -0.00144315  -0.0559406 -0.231542 -0.00115824  -0.0562315 -0.231902 -0.00089705  -0.0459526 -0.222471 -0.00105131  -0.0470839 -0.232238 -0.000831485  -0.0462222 -0.222904 -0.000814915  -0.0548873 -0.221986 -0.00130785  -0.0560994 -0.231718 -0.00102603  -0.0552049 -0.2224 -0.00100696  -0.0461016 -0.222697 -0.000931859  -0.0550616 -0.222201 -0.00115693  -0.0579436 -0.250672 -0.000899076  -0.0581822 -0.250935 -0.000704169  -0.0479152 -0.241621 -0.000830173  -0.0489693 -0.251356 -0.000653863  -0.0481396 -0.24195 -0.000650167  -0.0569565 -0.241091 -0.00102592  -0.058073 -0.250795 -0.000800967  -0.0572205 -0.241401 -0.000796556  -0.0480392 -0.241792 -0.000739217  -0.0571027 -0.24125 -0.000910997  -0.0598171 -0.269796 -0.000680804  -0.0600088 -0.269982 -0.000542641  -0.0497735 -0.260792 -0.000642657  -0.0507545 -0.270475 -0.000506639  -0.0499549 -0.261035 -0.000512242  -0.0588939 -0.260224 -0.000786662  -0.0599205 -0.269879 -0.000610948  -0.0591087 -0.260447 -0.000619292  -0.0498738 -0.260917 -0.000576854  -0.0590115 -0.260338 -0.000703096  -0.0615766 -0.288878 -0.00050807  -0.0617242 -0.289 -0.000414729  -0.0515327 -0.279931 -0.000490308  -0.0524473 -0.289548 -0.000388622  -0.0516758 -0.280103 -0.000399113  -0.060708 -0.279333 -0.000591993  -0.0616555 -0.288925 -0.000461578  -0.0608768 -0.279486 -0.000475049  -0.0516117 -0.280019 -0.000444293  -0.0608013 -0.279409 -0.0005337  -0.0632298 -0.307864 -0.000371575  -0.0633426 -0.307943 -0.000315666  -0.0532007 -0.298996 -0.000368834  -0.0540555 -0.308536 -0.000296831  -0.0533102 -0.299111 -0.000311136  -0.0624139 -0.298371 -0.000437021  -0.0632892 -0.30789 -0.000343204  -0.0625439 -0.29847 -0.000362039  -0.0532615 -0.299054 -0.000339627  -0.062484 -0.298419 -0.000400186  -0.0647919 -0.326737 -0.000271082  -0.0648773 -0.326784 -0.000242233  -0.0547843 -0.31795 -0.000276685  -0.055588 -0.327406 -0.000226617  -0.0548675 -0.318024 -0.000243306  -0.0640199 -0.317304 -0.000320315  -0.0648358 -0.326745 -0.000257254  -0.064117 -0.317365 -0.000276566  -0.0548308 -0.317986 -0.000259757  -0.0640721 -0.317332 -0.000299096  -0.0662718 -0.345469 -0.000184655  -0.0663471 -0.3455 -0.000181079  -0.0562913 -0.33677 -0.000203371  -0.0570569 -0.346139 -0.000166178  -0.0563588 -0.336815 -0.000190735  -0.0655396 -0.336107 -0.000229955  -0.0663109 -0.34547 -0.000183582  -0.065618 -0.336145 -0.000211239  -0.0563297 -0.33679 -0.000197291  -0.0655808 -0.336124 -0.000221729  -0.0676963 -0.364067 -9.01222e-05  -0.0677764 -0.364091 -0.000122428  -0.0577321 -0.355437 -0.000129342  -0.0584836 -0.364708 -9.94205e-05  -0.0577998 -0.355465 -0.00014019  -0.0669856 -0.354772 -0.000143766  -0.0677428 -0.364062 -0.000109434  -0.0670609 -0.354798 -0.000150681  -0.0577724 -0.355445 -0.000135899  -0.0670292 -0.354781 -0.000148416  0 0 0  -0.00183652 -0.000456154 -0.0032227  -0.00115609 -0.00201914 -0.00209486  0 0 0  -0.000505544 0.000390589 -0.00136888  -0.000808254 -0.00107437 -0.00175893  -0.000234861 -0.000530154 -0.000800848  0 0 0  -0.000834696 0.000269771 -0.00208986  -0.00133859 -0.00131524 -0.00264537  -0.000390898 -0.000660837 -0.00120127  0 0 0  -0.000266232 -0.000206441 -0.00101054  -0.000437368 -0.000340968 -0.00153112  -0.00383081 -0.00430238 -0.00436425  -0.00338334 -0.00666431 -0.00320864  -0.0016975 -0.00166771 -0.00259435  -0.00218706 -0.00527486 -0.00252914  -0.00135252 -0.00368816 -0.00183213  -0.0028186 -0.00197732 -0.00391936  -0.00354031 -0.00562787 -0.003811  -0.00219533 -0.00402007 -0.00275815  -0.00144903 -0.00283191 -0.00223112  -0.00238568 -0.00312215 -0.00335729  -0.00602439 -0.0109818 -0.0048157  -0.00597665 -0.0136863 -0.00363886  -0.00300741 -0.00702688 -0.00307655  -0.00374892 -0.0121398 -0.00280499  -0.00290862 -0.00951537 -0.00231075  -0.00490552 -0.00733262 -0.00464618  -0.00600493 -0.0124707 -0.00424993  -0.00465557 -0.00990137 -0.00347626  -0.00294614 -0.00840324 -0.00271022  -0.00475052 -0.0087395 -0.00409067  -0.00840336 -0.0199227 -0.00477898  -0.0086275 -0.0226626 -0.00365674  -0.00449672 -0.0149271 -0.00318289  -0.00543311 -0.021128 -0.00279593  -0.00462422 -0.0175959 -0.00243676  -0.00719798 -0.015199 -0.0048337  -0.00855425 -0.0214086 -0.00423098  -0.00730106 -0.0179446 -0.00368214  -0.00458121 -0.0163926 -0.00282383  -0.00727576 -0.0167053 -0.00427282  -0.01085 -0.0306706 -0.00450897  -0.0112705 -0.0333105 -0.00346553  -0.00612062 -0.0248528 -0.00307453  -0.00717676 -0.0318748 -0.00264108  -0.00640869 -0.0275014 -0.00237358  -0.00961995 -0.0250754 -0.00466311  -0.0111038 -0.0320904 -0.00399578  -0.00995362 -0.0277821 -0.00358176  -0.00629783 -0.0262929 -0.00273263  -0.0098303 -0.026545 -0.00413465  -0.0133388 -0.0429838 -0.00413036  -0.0138636 -0.0454292 -0.00316668  -0.00783712 -0.0364751 -0.00285017  -0.00897187 -0.0441397 -0.00241184  -0.00823134 -0.0389872 -0.00220096  -0.0120884 -0.0366369 -0.00432587  -0.0136427 -0.0442829 -0.0036515  -0.0125725 -0.0391875 -0.0033226  -0.0080682 -0.0378273 -0.00253129  -0.0123746 -0.03801 -0.00382948  -0.0158404 -0.0566123 -0.0037111  -0.0164093 -0.0588298 -0.0028379  -0.00963265 -0.0495354 -0.00258243  -0.0108134 -0.0577169 -0.00215971  -0.0100795 -0.0518493 -0.00198781  -0.0145889 -0.0496323 -0.00392199  -0.0161608 -0.0577863 -0.00327492  -0.0151417 -0.0519685 -0.00300395  -0.00988722 -0.0507735 -0.00228727  -0.0149057 -0.0508821 -0.00346482  -0.0183312 -0.0713768 -0.00329447  -0.0189015 -0.0733519 -0.00251031  -0.011491 -0.0638259 -0.00230181  -0.0126896 -0.0724226 -0.00191092  -0.0119513 -0.0659126 -0.00176632  -0.0170867 -0.063852 -0.00350034  -0.0186467 -0.0724146 -0.00290048  -0.0176618 -0.0659494 -0.0026722  -0.0117478 -0.0649365 -0.00203454  -0.0174079 -0.0649693 -0.00308537  -0.0207894 -0.0870998 -0.00289333  -0.0213372 -0.0888385 -0.00220108  -0.0133882 -0.0791624 -0.00203013  -0.0145881 -0.0880972 -0.00167429  -0.0138382 -0.0810164 -0.00155365  -0.0195649 -0.079115 -0.00309014  -0.0210891 -0.0880123 -0.00254524  -0.020125 -0.0809718 -0.00235248  -0.0136365 -0.080146 -0.00179124  -0.0198745 -0.0801007 -0.00271928  -0.0231994 -0.103642 -0.00252008  -0.02371 -0.105155 -0.00191414  -0.01531 -0.0953869 -0.00177348  -0.0164967 -0.104592 -0.00145614  -0.015734 -0.0970144 -0.00135553  -0.0219994 -0.0952654 -0.00270283  -0.0234765 -0.104431 -0.00221407  -0.0225309 -0.0968898 -0.0020541  -0.0155417 -0.0962482 -0.00156343  -0.0222896 -0.0961263 -0.00237572  -0.0255481 -0.120864 -0.00217414  -0.0260152 -0.122168 -0.00165248  -0.0172368 -0.112358 -0.00153637  -0.0184022 -0.121778 -0.00125599  -0.0176276 -0.113771 -0.00117433  -0.0243813 -0.112163 -0.00234258  -0.0258007 -0.121544 -0.00191104  -0.0248693 -0.11357 -0.00177956  -0.01745 -0.113104 -0.0013541  -0.0246471 -0.112907 -0.00205827  -0.0278285 -0.138656 -0.0018599  -0.0282481 -0.139765 -0.00141442  -0.0191591 -0.129949 -0.00132  -0.0202956 -0.139532 -0.00107551  -0.0195116 -0.131162 -0.00101054  -0.0266954 -0.129684 -0.00201309  -0.0280545 -0.139229 -0.00163412  -0.02714 -0.130889 -0.00152993  -0.0193508 -0.130589 -0.00116396  -0.0269361 -0.130321 -0.00176871  -0.0300324 -0.156898 -0.00157332  -0.0304056 -0.157832 -0.00120056  -0.021063 -0.148044 -0.00112355  -0.0221661 -0.157747 -0.000912786  -0.0213764 -0.149074 -0.000863314  -0.0289391 -0.147714 -0.00171208  -0.0302331 -0.157381 -0.00138509  -0.0293342 -0.148734 -0.00130415  -0.0212336 -0.148586 -0.000992179  -0.0291535 -0.148252 -0.00150561  -0.032159 -0.175502 -0.00131714  -0.0324849 -0.176275 -0.00100815  -0.0229415 -0.166538 -0.000947595  -0.0240077 -0.17632 -0.000768065  -0.0232159 -0.167401 -0.000731826  -0.0311037 -0.166149 -0.00144136  -0.032334 -0.175897 -0.00116026  -0.0314541 -0.167001 -0.00110126  -0.0230906 -0.166992 -0.000838757  -0.031293 -0.166598 -0.00126886  -0.0342036 -0.194366 -0.00108731  -0.0344858 -0.194997 -0.000837564  -0.0247856 -0.185337 -0.000790596  -0.025813 -0.195161 -0.000638962  -0.0250221 -0.186049 -0.000615001  -0.0331903 -0.184894 -0.0011977  -0.0343552 -0.194688 -0.000961065  -0.0334932 -0.185594 -0.000919461  -0.0249147 -0.18571 -0.000701904  -0.0333544 -0.185262 -0.00105655  -0.0361686 -0.21342 -0.000886083  -0.0364072 -0.213922 -0.000687003  -0.0265913 -0.204352 -0.000652313  -0.0275787 -0.214188 -0.000527382  -0.0267917 -0.204929 -0.000512481  -0.0351945 -0.203862 -0.000982761  -0.0362965 -0.213671 -0.000784755  -0.0354555 -0.204427 -0.000759363  -0.0267006 -0.204654 -0.000581741  -0.0353353 -0.204159 -0.000869155  -0.0380516 -0.232576 -0.00071013  -0.0382509 -0.23297 -0.000558257  -0.0283525 -0.223507 -0.00053215  -0.029299 -0.233327 -0.00043118  -0.0285194 -0.223965 -0.000424027  -0.0371187 -0.222976 -0.000793815  -0.0381579 -0.232772 -0.000633359  -0.0373366 -0.223423 -0.00061965  -0.0284443 -0.223745 -0.000477672  -0.0372372 -0.223209 -0.000705123  -0.0398571 -0.251784 -0.000562429  -0.0400186 -0.25208 -0.000447989  -0.0300672 -0.242731 -0.000430346  -0.0309737 -0.252512 -0.000350595  -0.0302029 -0.243085 -0.000349164  -0.0389619 -0.242166 -0.000632644  -0.0399427 -0.251925 -0.000503898  -0.0391428 -0.242509 -0.000500321  -0.0301416 -0.242914 -0.000389338  -0.0390594 -0.242345 -0.000565052  -0.0415852 -0.270972 -0.00043869  -0.0417137 -0.271191 -0.000357985  -0.031733 -0.261965 -0.000345349  -0.0325994 -0.271687 -0.000284553  -0.0318401 -0.262231 -0.000287294  -0.0407288 -0.261371 -0.000496507  -0.0416532 -0.271075 -0.00039804  -0.0408728 -0.261627 -0.000400066  -0.0317922 -0.262101 -0.000316143  -0.040807 -0.261503 -0.000447154  -0.0432415 -0.290109 -0.000340462  -0.0433395 -0.29026 -0.000285268  -0.0333488 -0.281156 -0.000277162  -0.0341785 -0.290806 -0.000232577  -0.0334308 -0.281349 -0.000237465  -0.0424204 -0.280538 -0.000386119  -0.043293 -0.290173 -0.00031209  -0.0425336 -0.280721 -0.000319362  -0.0333943 -0.281254 -0.000257254  -0.0424812 -0.280632 -0.000351667  -0.044827 -0.309139 -0.000262976  -0.0449014 -0.309242 -0.000230312  -0.0349145 -0.300264 -0.000224113  -0.0357077 -0.30983 -0.000193357  -0.0349751 -0.300396 -0.000199795  -0.0440412 -0.299626 -0.000297904  -0.0448656 -0.30918 -0.000246644  -0.044126 -0.299751 -0.000255585  -0.0349486 -0.300329 -0.000211716  -0.0440874 -0.299689 -0.00027585  -0.0463479 -0.32805 -0.000203848  -0.0464044 -0.328111 -0.000187397  -0.0364299 -0.319253 -0.000184178  -0.0371916 -0.328728 -0.000163794  -0.036474 -0.319339 -0.000171423  -0.0455937 -0.318599 -0.000231147  -0.046376 -0.328066 -0.000195026  -0.0456591 -0.31868 -0.000207543  -0.0364552 -0.319294 -0.000177741  -0.0456276 -0.318639 -0.000218511  -0.047806 -0.3468 -0.000150084  -0.0478573 -0.346837 -0.0001508  -0.0378966 -0.338099 -0.000152826  -0.0386322 -0.347472 -0.000136971  -0.037931 -0.338148 -0.000149488  -0.0470827 -0.337434 -0.000177383  -0.0478327 -0.346805 -0.000151277  -0.0471342 -0.337481 -0.00016892  -0.0379162 -0.338119 -0.000151515  -0.0471103 -0.337454 -0.000172734  -0.0492144 -0.365365 -8.2016e-05  -0.0492742 -0.365392 -0.000112057  -0.0393174 -0.356768 -0.00011754  -0.0400352 -0.366007 -0.000103951  -0.0393507 -0.356792 -0.000126719  -0.0485132 -0.356102 -0.000119567  -0.0492482 -0.365355 -9.91821e-05  -0.0485671 -0.356127 -0.000130534  -0.0393379 -0.356769 -0.000122905  -0.0485437 -0.356107 -0.000125051  0 0 0  -0.000484288 -0.000143528 -0.00102174  -0.000291184 -0.00165859 -0.000691295  0 0 0  5.58719e-05 0.000404119 4.99487e-05  0.000131816 -0.00102609 3.93391e-05  3.68282e-05 -0.00047642 1.12057e-05  0 0 0  -0.00022985 0.000432432 -0.000655532  -0.000330649 -0.000995308 -0.000858784  -9.86047e-05 -0.000462621 -0.00039351  0 0 0  4.13358e-05 -0.000169307 2.44379e-05  -0.000112649 -0.000154287 -0.000488162  -0.000942245 -0.00388828 -0.00140548  -0.000878572 -0.00613946 -0.00105166  0.000280067 -0.00165847 6.85453e-05  0.000340551 -0.00520128 3.73125e-05  0.000205427 -0.00357637 1.39475e-05  -0.000702038 -0.00158659 -0.00124311  -0.000896543 -0.00514802 -0.00124359  -0.000557005 -0.00354624 -0.000904679  0.00023818 -0.00274241 3.54052e-05  -0.000591829 -0.00270006 -0.00108016  -0.00155818 -0.0106028 -0.00153375  -0.00163671 -0.0131624 -0.00119305  0.000501215 -0.00698695 6.98566e-05  0.00048998 -0.0120884 3.32594e-05  0.000373214 -0.00940445 9.41753e-06  -0.00123551 -0.00691405 -0.00148809  -0.00160313 -0.012015 -0.00137651  -0.0012407 -0.00935382 -0.0011394  0.000428349 -0.00833377 3.3021e-05  -0.0012328 -0.00827011 -0.00132787  -0.00231019 -0.0196032 -0.00152719  -0.00250867 -0.0222373 -0.00120401  0.00062114 -0.0149399 6.85453e-05  0.000515461 -0.021145 3.25441e-05  0.000445753 -0.0175436 5.48363e-06  -0.00191417 -0.0148382 -0.00154912  -0.00242841 -0.0210378 -0.00137448  -0.00205913 -0.0174628 -0.00120962  0.000521213 -0.0163786 3.08752e-05  -0.00200182 -0.0162856 -0.0013907  -0.00320035 -0.0304492 -0.00144434  -0.00348651 -0.0330177 -0.00113809  0.000590622 -0.0249351 6.84261e-05  0.000381649 -0.0319794 3.77893e-05  0.00037694 -0.0275364 8.9407e-06  -0.00273675 -0.0248035 -0.00149846  -0.00336605 -0.0318352 -0.00129688  -0.00298494 -0.0274197 -0.00117838  0.000469804 -0.0263579 3.37362e-05  -0.00288272 -0.0262316 -0.00134754  -0.0042308 -0.0428762 -0.00131822  -0.00456262 -0.0452781 -0.00103652  0.000383258 -0.0366363 7.16448e-05  7.52807e-05 -0.0443383 4.3869e-05  0.000145972 -0.0391219 1.56164e-05  -0.00369769 -0.0364715 -0.00138628  -0.00441754 -0.044156 -0.00118089  -0.00401074 -0.0389651 -0.00108981  0.000250697 -0.0379809 4.02927e-05  -0.00387812 -0.037818 -0.00124359  -0.00538462 -0.0566264 -0.00117922  -0.00573564 -0.0588237 -0.00092268  -7.33137e-06 -0.0497883 7.49826e-05  -0.000405312 -0.0580157 5.03063e-05  -0.000254035 -0.0520893 2.32458e-05  -0.00479126 -0.0495847 -0.00125146  -0.00557852 -0.0577906 -0.0010519  -0.00513732 -0.0518887 -0.000980854  -0.000143528 -0.0510235 4.69685e-05  -0.00498444 -0.0508202 -0.00111926  -0.00665182 -0.0715224 -0.00104153  -0.00699908 -0.0734925 -0.000812173  -0.000574648 -0.0641755 7.7486e-05  -0.00105149 -0.0728281 5.40018e-05  -0.000818849 -0.066263 2.96831e-05  -0.00600415 -0.0639307 -0.00111079  -0.00684065 -0.0725583 -0.000927567  -0.00635469 -0.0660162 -0.000867248  -0.000708282 -0.0652893 5.22137e-05  -0.00619787 -0.0650424 -0.000990391  -0.00801182 -0.0873781 -0.000909686  -0.00834298 -0.089124 -0.000708103  -0.00130594 -0.0796152 7.80821e-05  -0.00185001 -0.0886103 5.51939e-05  -0.00153911 -0.0814794 3.32594e-05  -0.00731981 -0.0793261 -0.000975132  -0.00819004 -0.0882937 -0.000808239  -0.00766134 -0.0811844 -0.000759721  -0.00143266 -0.0806062 5.49555e-05  -0.00750494 -0.0803133 -0.000867963  -0.0094496 -0.104055 -0.000789046  -0.00975549 -0.105582 -0.000614524  -0.00218427 -0.0959457 7.60555e-05  -0.00278401 -0.105215 5.37634e-05  -0.0023998 -0.0975899 3.42131e-05  -0.00872076 -0.0956105 -0.000849128  -0.00961292 -0.104851 -0.000701547  -0.00903916 -0.0972466 -0.000660896  -0.00230098 -0.0968173 5.48363e-05  -0.00889337 -0.0964771 -0.000754833  -0.0109464 -0.121407 -0.000678897  -0.0112233 -0.12273 -0.000530243  -0.00319135 -0.113022 7.16448e-05  -0.00383615 -0.122505 4.88758e-05  -0.00338554 -0.114456 3.15905e-05  -0.01019 -0.112641 -0.000733256  -0.0110937 -0.122096 -0.000603318  -0.0104828 -0.114065 -0.000571728  -0.00329638 -0.113781 5.16176e-05  -0.0103465 -0.113394 -0.000652313  -0.0124888 -0.139322 -0.000580907  -0.0127341 -0.140453 -0.000456691  -0.00430894 -0.130714 6.38962e-05  -0.00498915 -0.14036 4.12464e-05  -0.00447953 -0.131952 2.67029e-05  -0.0117115 -0.130289 -0.000629544  -0.0126189 -0.139907 -0.000518322  -0.0119717 -0.131515 -0.000492811  -0.00440097 -0.131368 4.54187e-05  -0.0118517 -0.130936 -0.00056076  -0.0140609 -0.157677 -0.00049305  -0.0142754 -0.158636 -0.000390887  -0.00551832 -0.148904 5.45979e-05  -0.00622535 -0.158666 3.17097e-05  -0.00566506 -0.14996 1.89543e-05  -0.0132703 -0.148437 -0.000536442  -0.0141741 -0.158172 -0.000440836  -0.0135009 -0.149481 -0.000423193  -0.00559759 -0.149462 3.69549e-05  -0.013393 -0.148988 -0.000479579  -0.0156525 -0.176384 -0.000416994  -0.0158358 -0.177183 -0.00033462  -0.0068028 -0.167486 4.23193e-05  -0.00752878 -0.177323 2.01464e-05  -0.00692606 -0.168376 9.89437e-06  -0.0148534 -0.166981 -0.000455141  -0.0157491 -0.176793 -0.00037539  -0.0150514 -0.167858 -0.000362396  -0.00686944 -0.167955 2.61068e-05  -0.0149599 -0.167443 -0.000408411  -0.0172505 -0.195339 -0.000350118  -0.0174053 -0.195997 -0.000285268  -0.00814617 -0.186363 2.92063e-05  -0.00888491 -0.196237 7.62939e-06  -0.00824702 -0.187101 -1.43051e-06  -0.0164498 -0.185823 -0.000383377  -0.0173318 -0.195675 -0.00031662  -0.0166194 -0.186549 -0.000309587  -0.00820124 -0.186752 1.41859e-05  -0.0165396 -0.186205 -0.000346422  -0.0188479 -0.214474 -0.000293374  -0.0189743 -0.215001 -0.000244498  -0.0095346 -0.205447 1.40667e-05  -0.0102797 -0.215328 -6.31809e-06  -0.00961399 -0.20605 -1.28746e-05  -0.0180483 -0.204877 -0.000321984  -0.0189139 -0.214738 -0.000268817  -0.018188 -0.205469 -0.000264406  -0.00957811 -0.205764 7.15256e-07  -0.0181235 -0.205187 -0.000293016  -0.0204339 -0.233698 -0.000246048  -0.0205357 -0.234116 -0.000209808  -0.0109539 -0.224661 -1.19209e-06  -0.0117006 -0.23452 -2.08616e-05  -0.0110145 -0.225143 -2.6226e-05  -0.0196409 -0.224065 -0.000269771  -0.0204866 -0.233907 -0.000227094  -0.0197556 -0.224537 -0.000226617  -0.0109875 -0.224914 -1.35899e-05  -0.0197015 -0.224312 -0.000248313  -0.0220039 -0.252963 -0.000207901  -0.0220823 -0.253283 -0.000183105  -0.0123923 -0.243935 -1.81198e-05  -0.0131369 -0.253749 -3.62396e-05  -0.0124359 -0.244312 -3.93391e-05  -0.0212195 -0.243317 -0.000227451  -0.0220437 -0.253118 -0.000195503  -0.0213084 -0.243685 -0.000196218  -0.0124171 -0.244132 -2.87294e-05  -0.0212677 -0.243509 -0.000211954  -0.02355 -0.272199 -0.000178099  -0.0236092 -0.272439 -0.000161648  -0.0138407 -0.263209 -3.44515e-05  -0.0145788 -0.272961 -5.17368e-05  -0.01387 -0.263497 -5.3525e-05  -0.022778 -0.262575 -0.000193238  -0.0235801 -0.272314 -0.000169158  -0.0228474 -0.262853 -0.000172138  -0.0138576 -0.263359 -4.3869e-05  -0.0228143 -0.262719 -0.000183105  -0.0250709 -0.291374 -0.000156045  -0.0251122 -0.291544 -0.000147462  -0.0152891 -0.282434 -5.19753e-05  -0.0160198 -0.292108 -6.74725e-05  -0.0153067 -0.282646 -6.69956e-05  -0.024312 -0.281785 -0.000167608  -0.0250912 -0.291449 -0.000151873  -0.0243614 -0.281989 -0.000154138  -0.0152998 -0.282544 -5.94854e-05  -0.024339 -0.28189 -0.000161171  -0.0265603 -0.310437 -0.000141263  -0.0265887 -0.310554 -0.00013721  -0.0167317 -0.301567 -6.8903e-05  -0.0174525 -0.311154 -8.29697e-05  -0.0167396 -0.301717 -8.13007e-05  -0.0258176 -0.300908 -0.000149012  -0.0265737 -0.310486 -0.000138521  -0.0258529 -0.301051 -0.000142097  -0.0167375 -0.301644 -7.49826e-05  -0.0258358 -0.300981 -0.000146031  -0.0280192 -0.329372 -0.000131845  -0.0280368 -0.329443 -0.000131965  -0.0181625 -0.320577 -8.65459e-05  -0.018873 -0.330066 -9.83477e-05  -0.018163 -0.320677 -9.47714e-05  -0.0272923 -0.31991 -0.000137925  -0.0280268 -0.329394 -0.000132084  -0.0273142 -0.320004 -0.000134706  -0.0181644 -0.320627 -9.07183e-05  -0.0273039 -0.319956 -0.000136852  -0.029444 -0.348136 -0.000124097  -0.0294571 -0.348176 -0.000126719  -0.0195785 -0.339435 -0.000102878  -0.0202761 -0.348816 -0.000113249  -0.019573 -0.339495 -0.000108719  -0.0287342 -0.338764 -0.000129938  -0.0294492 -0.348141 -0.00012517  -0.0287492 -0.338819 -0.000129938  -0.0195768 -0.339463 -0.000105739  -0.0287414 -0.338789 -0.000130653  -0.0308349 -0.366676 -0.000108719  -0.030848 -0.366708 -0.00012064  -0.020972 -0.358103 -0.000118852  -0.0216517 -0.36734 -0.000125766  -0.0209632 -0.358137 -0.00012064  -0.0301423 -0.357432 -0.000119686  -0.0308394 -0.366668 -0.000115395  -0.0301538 -0.357461 -0.000124216  -0.0209684 -0.358112 -0.000119686  -0.0301487 -0.357437 -0.000122666  0 0 0  0.000797987 -0.000340462 0.0011704  0.000515282 -0.00182712 0.000719547  0 0 0  0.000599697 0.000161409 0.00145757  0.00106326 -0.00143975 0.00182033  0.000305578 -0.000717044 0.000815988  0 0 0  0.000335515 0.000317872 0.000755072  0.000593826 -0.00117856 0.000932813  0.000170857 -0.000557363 0.000415206  0 0 0  0.000344068 -0.00040859 0.00105214  0.000195205 -0.000256538 0.000537515  0.00173423 -0.00419205 0.00155282  0.00146642 -0.00640619 0.00107169  0.00223699 -0.00218862 0.00270593  0.0028542 -0.0058443 0.00257742  0.00175333 -0.00413561 0.00184202  0.00125927 -0.00184733 0.00137711  0.00157395 -0.00543356 0.00131154  0.000964656 -0.00377142 0.000930071  0.00191173 -0.00331318 0.00227833  0.00106496 -0.00294125 0.00114632  0.00270122 -0.0109723 0.00167632  0.00247833 -0.0134994 0.00120246  0.00397989 -0.00769967 0.00318789  0.00470167 -0.0128444 0.0028435  0.00363532 -0.0101194 0.00230646  0.00222987 -0.00725222 0.00162387  0.00257695 -0.0123681 0.00143731  0.00198042 -0.00965637 0.00115204  0.00378036 -0.00904256 0.00274909  0.00208363 -0.00859147 0.00138891  0.00355119 -0.0200271 0.00166416  0.00335789 -0.0226355 0.0012126  0.00570613 -0.0157215 0.00328994  0.0064289 -0.021951 0.00283492  0.00548398 -0.0183293 0.00242388  0.00314626 -0.015236 0.00168431  0.00345021 -0.0214493 0.00143516  0.00294027 -0.0178303 0.00121748  0.00559157 -0.0171573 0.00285828  0.00303608 -0.0166683 0.00144875  0.00420517 -0.0309268 0.00158477  0.00403613 -0.0334781 0.00115776  0.00726426 -0.0257545 0.0031848  0.00789553 -0.0328147 0.00269365  0.00712037 -0.0283586 0.00236809  0.00390637 -0.025254 0.00163269  0.0041182 -0.0323048 0.00136805  0.00372624 -0.0278486 0.00119114  0.00719744 -0.0271736 0.00277531  0.00381172 -0.0266721 0.00141072  0.00463438 -0.0434105 0.00146437  0.0044781 -0.0458058 0.00107181  0.00855893 -0.037487 0.00297284  0.00907046 -0.0452065 0.00248218  0.00847107 -0.0399748 0.00221336  0.00444973 -0.036976 0.00152862  0.00455439 -0.044688 0.001266  0.00428689 -0.0394579 0.00111771  0.00852072 -0.0388292 0.00259209  0.00436652 -0.0383182 0.00132132  0.0048272 -0.0572259 0.00133216  0.00468242 -0.0594253 0.000973701  0.00956911 -0.0506707 0.00271642  0.00994521 -0.0589244 0.00224757  0.0095126 -0.0529802 0.00202  0.00476128 -0.0501503 0.00140059  0.00475287 -0.0583923 0.00115049  0.00461143 -0.0524529 0.00102425  0.00954539 -0.0519091 0.0023663  0.00468284 -0.0513862 0.00121057  0.00478971 -0.0721928 0.00119758  0.00465643 -0.0741728 0.000873923  0.0102876 -0.0650992 0.00244677  0.0105257 -0.0737819 0.00201118  0.0102499 -0.0671983 0.00181592  0.00483769 -0.0645648 0.00126588  0.00472152 -0.073235 0.0010345  0.00469732 -0.0666563 0.000924587  0.0102717 -0.0662189 0.0021292  0.00476557 -0.0656812 0.00109363  0.00453603 -0.0881256 0.0010649  0.00441515 -0.0898864 0.000775337  0.0107198 -0.0805853 0.00217998  0.0108269 -0.0896159 0.00178039  0.0106959 -0.0824651 0.00161409  0.00469041 -0.0800344 0.00113201  0.00447428 -0.0890496 0.000918508  0.00456369 -0.0819057 0.000825047  0.0107102 -0.0815846 0.00189507  0.00462377 -0.0810292 0.000977039  0.00408208 -0.104881 0.000938177  0.0039773 -0.106426 0.000680685  0.0108839 -0.0969666 0.00192297  0.0108684 -0.106272 0.00156116  0.0108711 -0.0986285 0.00142026  0.00433421 -0.0963968 0.00100207  0.00402892 -0.105687 0.000808954  0.00422001 -0.0980496 0.00072813  0.0108792 -0.0978479 0.00166988  0.00427544 -0.0972735 0.000864148  0.00345099 -0.12231 0.000815749  0.00336182 -0.123654 0.000589371  0.0107985 -0.114095 0.00167882  0.010673 -0.123616 0.0013535  0.0107967 -0.115548 0.00123644  0.00378907 -0.113505 0.000877619  0.00340617 -0.12301 0.000701547  0.00369263 -0.11495 0.000635028  0.0107991 -0.114864 0.00145626  0.00373852 -0.11427 0.000755429  0.00266147 -0.140299 0.000700355  0.00258994 -0.141453 0.000502825  0.0104889 -0.131839 0.00144887  0.0102645 -0.14152 0.00115919  0.0104971 -0.133095 0.00106382  0.0030762 -0.13123 0.000758648  0.00262642 -0.140896 0.000601649  0.00299478 -0.132477 0.000546098  0.0104945 -0.132503 0.00125515  0.00303495 -0.131889 0.000651956  0.00173748 -0.158724 0.00059092  0.00168228 -0.159705 0.000420451  0.00997734 -0.150078 0.00123417  0.00966775 -0.159873 0.000977516  0.00999618 -0.151152 0.000902414  0.00221682 -0.14945 0.000646591  0.00171077 -0.159231 0.00050509  0.00215435 -0.150516 0.000461578  0.00998855 -0.150644 0.0010674  0.00218427 -0.150013 0.000553727  0.000697136 -0.177494 0.000489235  0.000658512 -0.178313 0.000343919  0.00929117 -0.168705 0.00103462  0.00890696 -0.17857 0.000809908  0.00931919 -0.16961 0.000752449  0.00123227 -0.16806 0.000540495  0.000679255 -0.177914 0.000416636  0.00118446 -0.168958 0.000381947  0.00930691 -0.169182 0.000892758  0.00120842 -0.168534 0.00046134  -0.000437617 -0.196505 0.000393987  -0.000462651 -0.197181 0.000271678  0.00845313 -0.187621 0.000850677  0.00800586 -0.19752 0.000656009  0.00848937 -0.188373 0.000613928  0.000142336 -0.186961 0.000442386  -0.000448465 -0.196851 0.000332355  0.000111103 -0.187708 0.000307679  0.00847268 -0.188016 0.000731826  0.000126481 -0.187354 0.000375032  -0.00165129 -0.215686 0.000306487  -0.00166249 -0.216231 0.000205874  0.00748694 -0.206739 0.000683069  0.00698638 -0.216639 0.000516295  0.00752997 -0.207353 0.000487804  -0.00103402 -0.206067 0.000351071  -0.00165462 -0.21596 0.000256538  -0.00105298 -0.206677 0.000238657  0.00750983 -0.20706 0.000585079  -0.00104237 -0.206388 0.000295162  -0.00292397 -0.23495 0.000227213  -0.00292516 -0.235385 0.000144601  0.00641418 -0.22598 0.000531554  0.00587058 -0.235855 0.00039053  0.00646186 -0.226471 0.000373244  -0.00227904 -0.225298 0.000267744  -0.0029223 -0.235168 0.00018537  -0.00228453 -0.225787 0.000175118  0.00643969 -0.226236 0.000452161  -0.0022819 -0.225555 0.00022161  -0.00424314 -0.254248 0.000155449  -0.00423551 -0.254581 9.07183e-05  0.0052557 -0.245275 0.000396252  0.00467634 -0.255101 0.000279307  0.00530601 -0.245659 0.00027132  -0.00357652 -0.244587 0.000192165  -0.00423622 -0.25441 0.000123501  -0.00357413 -0.244969 0.000117421  0.00528264 -0.245475 0.000333667  -0.00357413 -0.244787 0.000155091  -0.0055933 -0.273509 9.16719e-05  -0.00557971 -0.273761 4.14848e-05  0.00402927 -0.264566 0.0002774  0.00342202 -0.274325 0.000182152  0.00408006 -0.264857 0.000181675  -0.00491285 -0.263873 0.000124335  -0.00558376 -0.27363 6.61612e-05  -0.00490141 -0.264164 6.59227e-05  0.00405622 -0.264716 0.000229478  -0.00490665 -0.264024 9.54866e-05  -0.00696588 -0.292704 3.49283e-05  -0.00694752 -0.292883 -8.34465e-07  0.00275135 -0.283801 0.000174522  0.00212145 -0.293478 9.84669e-05  0.00280094 -0.284015 0.00010407  -0.00627565 -0.283106 6.3777e-05  -0.00695372 -0.292783 1.74046e-05  -0.0062604 -0.28332 1.9908e-05  0.0027771 -0.28391 0.000139117  -0.00626612 -0.283217 4.23193e-05  -0.00834918 -0.311779 -1.37091e-05  -0.00832796 -0.311905 -3.91006e-05  0.0014348 -0.30294 8.66652e-05  0.000789165 -0.312526 2.80142e-05  0.00148225 -0.30309 3.76701e-05  -0.00765491 -0.302245 1.14441e-05  -0.00833607 -0.311833 -2.68221e-05  -0.00763416 -0.302396 -2.01464e-05  0.00145912 -0.303015 6.22272e-05  -0.00764394 -0.302322 -3.93391e-06  -0.00973892 -0.330721 -5.74589e-05  -0.00971317 -0.330799 -7.14064e-05  9.13143e-05 -0.32195 1.23978e-05  -0.000565767 -0.331438 -3.23057e-05  0.000137568 -0.32205 -1.81198e-05  -0.00904226 -0.321257 -3.46899e-05  -0.00972319 -0.330747 -6.42538e-05  -0.00901961 -0.321358 -5.50747e-05  0.000113726 -0.321998 -3.09944e-06  -0.00902891 -0.321307 -4.43459e-05  -0.0111234 -0.349488 -9.83477e-05  -0.011095 -0.349536 -0.000102997  -0.00127125 -0.340805 -5.29289e-05  -0.00192928 -0.350187 -8.91685e-05  -0.0012238 -0.340867 -6.73532e-05  -0.0104301 -0.340116 -7.56979e-05  -0.0111058 -0.349497 -0.00010097  -0.0104029 -0.340177 -8.70228e-05  -0.00124669 -0.340832 -5.98431e-05  -0.0104156 -0.340143 -8.09431e-05  -0.0124891 -0.368029 -0.000141263  -0.0124578 -0.368068 -0.000132442  -0.0026381 -0.359476 -0.000119805  -0.00328255 -0.368723 -0.000148654  -0.00258517 -0.359513 -0.000115156  -0.0118096 -0.358785 -0.000117898  -0.0124688 -0.368025 -0.000136375  -0.0117791 -0.35882 -0.00011766  -0.00260854 -0.359485 -0.000116587  -0.0117912 -0.358795 -0.000116944  0 0 0  0.00210996 -0.00103974 0.0033263  0.00136626 -0.00251466 0.00209486  0 0 0  0.00124102 -0.000424147 0.00280499  0.00209831 -0.00242674 0.00352299  0.000633717 -0.00129652 0.00157118  0 0 0  0.000910588 -7.12276e-05 0.00216138  0.00158209 -0.00185406 0.00267899  0.000455692 -0.000935912 0.00120735  0 0 0  0.000690863 -0.000971437 0.00199234  0.000512898 -0.000641048 0.00155795  0.00456792 -0.00520176 0.00445867  0.00393638 -0.00745279 0.0031848  0.00447322 -0.00345296 0.00531185  0.00559607 -0.00729132 0.00511098  0.00347248 -0.00543708 0.00363469  0.00332555 -0.00274569 0.00400019  0.0041779 -0.00647062 0.00382674  0.00257942 -0.00468355 0.00274575  0.00380585 -0.00456363 0.00447547  0.00282772 -0.00384152 0.00337255  0.00710985 -0.0120887 0.00489545  0.00676087 -0.0146856 0.00359774  0.00780287 -0.00916433 0.0063194  0.00926548 -0.0144113 0.00567985  0.00719753 -0.0117018 0.00463235  0.00584328 -0.00833869 0.00472224  0.00692245 -0.0135245 0.0042522  0.00534943 -0.0107968 0.00344288  0.00744307 -0.0105752 0.00548983  0.00555399 -0.00969154 0.00409758  0.00957799 -0.0211984 0.00485718  0.00939631 -0.0238516 0.00361466  0.0111775 -0.0172498 0.00654495  0.0127143 -0.0235269 0.00565124  0.0108997 -0.0199627 0.00485897  0.00836846 -0.016392 0.00490725  0.0095014 -0.0226425 0.00423586  0.00811341 -0.019039 0.00363851  0.0110349 -0.0187414 0.00571167  0.0082446 -0.0178503 0.00427341  0.0117763 -0.0321087 0.00460041  0.0117195 -0.0346941 0.00344074  0.0143112 -0.0272841 0.00631189  0.0157749 -0.0343712 0.00535059  0.0142391 -0.0299678 0.0047313  0.0107175 -0.026431 0.00474298  0.0117643 -0.0335031 0.00401998  0.0106037 -0.0290664 0.00354624  0.0142968 -0.0287458 0.00552285  0.0106758 -0.0278667 0.00414574  0.013651 -0.0446001 0.00423861  0.0136631 -0.0470226 0.00316703  0.0170955 -0.0390028 0.00587916  0.0184135 -0.0467437 0.00492024  0.0171515 -0.0415511 0.00441122  0.0127559 -0.0381614 0.00442469  0.0136738 -0.0458911 0.0036999  0.01274 -0.0406732 0.0033108  0.0171471 -0.0403784 0.00514376  0.0127642 -0.0395177 0.00386512  0.0151803 -0.0584278 0.00383782  0.0152298 -0.0606518 0.00286376  0.0194895 -0.052175 0.00536335  0.0206221 -0.0604465 0.00444889  0.019611 -0.0545309 0.00401878  0.0144613 -0.0513453 0.00403929  0.0152187 -0.0596086 0.00334775  0.0144937 -0.0536736 0.00301754  0.019572 -0.05344 0.00468731  0.0144923 -0.0525951 0.00352478  0.0163592 -0.0734127 0.00343418  0.0164286 -0.0754168 0.00255585  0.0214702 -0.0665953 0.00482368  0.022409 -0.0752983 0.00397348  0.0216271 -0.0687338 0.00360692  0.0158135 -0.0657753 0.00363445  0.0164059 -0.0744689 0.00299108  0.0158755 -0.0678912 0.00270915  0.0215668 -0.0677392 0.00421071  0.0158558 -0.0669056 0.00316763  0.0172004 -0.0893691 0.00303996  0.0172802 -0.0911536 0.0022583  0.0230488 -0.0820786 0.00429082  0.02379 -0.0911282 0.0035125  0.023219 -0.0839928 0.00320113  0.0168232 -0.0812663 0.00323474  0.0172508 -0.0903081 0.00264597  0.0168971 -0.0831609 0.00240517  0.0231497 -0.0830999 0.00374126  0.0168705 -0.0822754 0.00281584  0.0177206 -0.10615 0.00266552  0.0178081 -0.107719 0.00197518  0.024232 -0.0984602 0.00377774  0.0247878 -0.107786 0.00307441  0.0244099 -0.100154 0.00281334  0.0175 -0.0976537 0.00284982  0.0177741 -0.106971 0.00231683  0.017585 -0.09933 0.00211442  0.0243347 -0.0993618 0.00329113  0.0175508 -0.0985442 0.00247836  0.0179462 -0.123607 0.00231159  0.0180383 -0.124973 0.0017097  0.0250512 -0.115591 0.00329304  0.0254306 -0.125129 0.00266314  0.0252289 -0.117073 0.00244725  0.0178708 -0.11479 0.00248587  0.0180013 -0.124321 0.00200844  0.0179592 -0.116256 0.00183988  0.0251523 -0.116379 0.00286627  0.0179236 -0.115567 0.00215936  0.0179021 -0.141622 0.00198185  0.0179992 -0.142796 0.00146139  0.0255271 -0.133338 0.0028379  0.0257478 -0.143035 0.00227952  0.0257053 -0.13462 0.00210559  0.0179572 -0.132541 0.00214362  0.0179596 -0.142232 0.001719  0.0180528 -0.13381 0.0015831  0.0256275 -0.134018 0.00246835  0.0180122 -0.133213 0.00186038  0.0176188 -0.160072 0.00167501  0.0177187 -0.16107 0.00123167  0.025697 -0.151579 0.00241613  0.0257727 -0.161386 0.0019244  0.0258721 -0.152675 0.00178802  0.0177908 -0.150787 0.00182557  0.0176773 -0.16059 0.00145185  0.0178882 -0.151871 0.00134397  0.0257953 -0.15216 0.00209928  0.0178472 -0.151361 0.00158215  0.0171229 -0.178863 0.0013932  0.0172255 -0.179697 0.00101924  0.025589 -0.170206 0.00202572  0.0255368 -0.180081 0.00159812  0.0257617 -0.17113 0.0014956  0.017397 -0.169419 0.00153077  0.0171825 -0.179291 0.00120449  0.0174992 -0.170334 0.00112295  0.0256851 -0.170696 0.00175846  0.0174545 -0.169902 0.00132465  0.0164442 -0.19789 0.00113535  0.016547 -0.19858 0.000826359  0.0252392 -0.189121 0.00166941  0.0250725 -0.199026 0.00130081  0.0254058 -0.189888 0.0012275  0.0168066 -0.188339 0.001261  0.0165035 -0.198244 0.00098002  0.0169084 -0.189099 0.000920057  0.0253314 -0.189526 0.0014466  0.0168649 -0.18874 0.0010885  0.0156076 -0.217084 0.00090301  0.0157101 -0.217639 0.000651002  0.0246754 -0.208234 0.00134552  0.0244105 -0.218137 0.00103307  0.0248365 -0.20886 0.000984907  0.0160455 -0.20746 0.00101566  0.0156665 -0.217364 0.000775814  0.0161489 -0.20808 0.000735998  0.0247642 -0.208564 0.00116396  0.0161031 -0.207786 0.000874162  0.014641 -0.236357 0.000695229  0.0147393 -0.236798 0.000495195  0.0239313 -0.227469 0.00105667  0.0235806 -0.237342 0.000794888  0.0240829 -0.227968 0.000767469  0.0151412 -0.226702 0.000795841  0.0146973 -0.236578 0.000594974  0.0152409 -0.227198 0.000570536  0.0240147 -0.227731 0.000910997  0.0151973 -0.226962 0.00068152  0.0135653 -0.255659 0.000513077  0.0136592 -0.255996 0.000357509  0.0230346 -0.246755 0.00080061  0.0226109 -0.256577 0.000586033  0.0231757 -0.247143 0.000575662  0.014117 -0.245997 0.000600457  0.0136194 -0.255823 0.000434399  0.014214 -0.246384 0.00042367  0.0231116 -0.246959 0.000687361  0.0141704 -0.246199 0.000510812  0.0124044 -0.274921 0.00035429  0.0124903 -0.275174 0.000239253  0.0220118 -0.266034 0.000578761  0.0215268 -0.275786 0.000406742  0.0221398 -0.266327 0.000408769  0.0129964 -0.265285 0.000430226  0.0124536 -0.275043 0.000296712  0.0130858 -0.265579 0.000295877  0.0220816 -0.266187 0.000493288  0.0130467 -0.265438 0.0003618  0.0111742 -0.294111 0.000220656  0.0112529 -0.294291 0.000138164  0.0208874 -0.285255 0.000389576  0.0203512 -0.294923 0.000256181  0.0210013 -0.285468 0.000267863  0.0117986 -0.284516 0.000283837  0.011219 -0.294191 0.000178814  0.0118816 -0.284731 0.000186324  0.0209494 -0.285365 0.000328183  0.0118439 -0.284627 0.000234127  0.00989294 -0.313179 0.000108361  0.00996304 -0.313305 5.49555e-05  0.0196834 -0.304376 0.000233889  0.0191054 -0.313953 0.00013268  0.0197825 -0.304526 0.000150323  0.010541 -0.303649 0.000161529  0.00993228 -0.313232 8.17776e-05  0.0106144 -0.3038 9.42945e-05  0.0197361 -0.304453 0.000191927  0.0105817 -0.303726 0.000126839  0.00857067 -0.33211 1.51396e-05  0.00863695 -0.332191 -1.54972e-05  0.0184169 -0.323367 0.0001055  0.017807 -0.332847 3.14713e-05  0.0185039 -0.323468 5.49555e-05  0.00923753 -0.322651 5.94854e-05  0.00860763 -0.332137 -5.96046e-07  0.00930572 -0.322753 1.84774e-05  0.0184615 -0.323418 7.99894e-05  0.00927401 -0.322702 3.8147e-05  0.00722241 -0.350869 -7.20024e-05  0.00728965 -0.350924 -7.87973e-05  0.0171006 -0.342204 -1.3113e-06  0.0164742 -0.351588 -5.99623e-05  0.0171819 -0.342272 -2.59876e-05  0.00790119 -0.3415 -2.7895e-05  0.00726128 -0.350884 -7.45058e-05  0.00796604 -0.341566 -4.76837e-05  0.017144 -0.342237 -1.34706e-05  0.00793648 -0.341531 -3.83854e-05  0.005867 -0.369433 -0.000169635  0.0059464 -0.36948 -0.000142455  0.0157554 -0.360873 -0.000108957  0.0151367 -0.370158 -0.000154018  0.0158408 -0.360924 -0.000101566  0.00654411 -0.360171 -0.000118256  0.00591755 -0.369434 -0.00015378  0.00661731 -0.360215 -0.000111818  0.0158026 -0.360895 -0.00010407  0.00658655 -0.360186 -0.000114918  0 0 0  0.00359176 -0.00232124 0.00545073  0.00236094 -0.00390053 0.00345945  0 0 0  0.00180036 -0.00158203 0.00425422  0.00327359 -0.00423908 0.00538087  0.000979468 -0.00237232 0.00242019  0 0 0  0.00151364 -0.000895798 0.00348377  0.00269763 -0.00320613 0.00440109  0.000775784 -0.00177467 0.00196445  0 0 0  0.00104782 -0.0020172 0.00312185  0.000870638 -0.00144303 0.00251687  0.00781119 -0.00699884 0.00747406  0.00680116 -0.00942963 0.00535834  0.00698155 -0.00559402 0.00808275  0.00900018 -0.00974888 0.00782084  0.00563966 -0.00779253 0.00562251  0.00569323 -0.00434256 0.00660908  0.00717062 -0.00836265 0.00643373  0.00445226 -0.00644928 0.00458956  0.00600675 -0.00681722 0.00689888  0.00484554 -0.00552213 0.00558269  0.0120755 -0.0140195 0.0081867  0.0116017 -0.0167582 0.0060488  0.012266 -0.011472 0.00966859  0.0146191 -0.0168365 0.00863433  0.0115221 -0.0142523 0.00707567  0.00996247 -0.0102026 0.00794148  0.0118202 -0.0155188 0.00713348  0.00922057 -0.0128462 0.00579941  0.011854 -0.0130154 0.00839531  0.00951776 -0.0116868 0.00690126  0.0161794 -0.0230948 0.00809908  0.0160259 -0.0258819 0.00605297  0.0173886 -0.0195346 0.00991571  0.0198072 -0.0258619 0.00854182  0.0171255 -0.0224316 0.0073719  0.0141608 -0.0182973 0.00821519  0.0161356 -0.0246019 0.00707793  0.0138687 -0.0210944 0.00610626  0.0172801 -0.0211136 0.00865769  0.0140319 -0.0198307 0.00716889  0.0199139 -0.0339772 0.00765181  0.0199737 -0.0366542 0.00574112  0.0221373 -0.0295231 0.00952709  0.0244392 -0.0366251 0.00806522  0.0221545 -0.0323322 0.00714421  0.0180988 -0.0283163 0.00790501  0.019981 -0.0354122 0.00669491  0.0180671 -0.0310594 0.00592864  0.0221921 -0.0310417 0.00834012  0.0181176 -0.0298073 0.00692201  0.0232168 -0.0464325 0.00703776  0.0233893 -0.0489228 0.00528193  0.0264022 -0.0411912 0.00885403  0.0285097 -0.0489368 0.00741339  0.0265918 -0.0438212 0.00665438  0.0216238 -0.0400128 0.00735569  0.0233392 -0.0477607 0.00615597  0.0217469 -0.0426035 0.00552416  0.0265446 -0.042603 0.00775754  0.0217215 -0.0414092 0.00643885  0.0260566 -0.0602255 0.00636923  0.0262869 -0.0625025 0.00477076  0.0301492 -0.0543111 0.00806844  0.0320203 -0.0625739 0.00669825  0.0304307 -0.0567204 0.00606132  0.0246955 -0.053162 0.0067066  0.0262036 -0.0614344 0.00556469  0.0249037 -0.055549 0.00503111  0.0303343 -0.0555999 0.00706625  0.0248331 -0.0544433 0.00586593  0.0284241 -0.0751864 0.00569105  0.0286807 -0.0772305 0.00425696  0.0333661 -0.0686816 0.00724971  0.0349773 -0.0773757 0.00598037  0.0336899 -0.0708557 0.00543845  0.0273013 -0.0675622 0.00602925  0.0285804 -0.0762682 0.004969  0.0275456 -0.069724 0.00451458  0.0335672 -0.0698419 0.00634468  0.0274518 -0.0687192 0.00526798  0.0303311 -0.091114 0.00503421  0.0305954 -0.0929343 0.00375748  0.0360467 -0.084115 0.00644076  0.0373993 -0.0931488 0.00528038  0.0363876 -0.0860546 0.00482476  0.029435 -0.0830262 0.00535989  0.0304886 -0.0920743 0.0043906  0.0296978 -0.0849592 0.00400555  0.0362531 -0.0851483 0.00563276  0.029592 -0.0840585 0.00467861  0.031795 -0.107877 0.00440729  0.03206 -0.109473 0.00328565  0.0382161 -0.10045 0.00566483  0.0393139 -0.10976 0.00461888  0.0385568 -0.102161 0.00423717  0.0311189 -0.0993903 0.00471747  0.0319506 -0.108716 0.00384212  0.0313826 -0.101098 0.0035193  0.0384184 -0.10136 0.00495088  0.0312734 -0.100301 0.00411463  0.0328473 -0.125309 0.00381851  0.0331068 -0.126701 0.00284111  0.0398924 -0.117533 0.0049299  0.040753 -0.127052 0.00399435  0.0402282 -0.119027 0.00368321  0.0323719 -0.116504 0.00410926  0.0329987 -0.126039 0.00332558  0.0326353 -0.117998 0.00306022  0.0400902 -0.118327 0.00430655  0.0325247 -0.117299 0.0035814  0.0335175 -0.143307 0.00326896  0.0337715 -0.144499 0.00242949  0.0411173 -0.135234 0.00424337  0.0417553 -0.144912 0.00341606  0.041442 -0.136524 0.00316608  0.0332298 -0.134234 0.0035404  0.0336648 -0.143928 0.00284636  0.0334853 -0.135525 0.0026325  0.0413066 -0.135918 0.00370491  0.0333772 -0.134921 0.00308371  0.0338451 -0.161732 0.00276124  0.0340896 -0.162747 0.00204718  0.0419222 -0.15343 0.00360548  0.0423595 -0.163214 0.0028789  0.0422356 -0.15453 0.00268638  0.0337236 -0.152459 0.00301194  0.0339867 -0.16226 0.00240123  0.0339737 -0.153562 0.00223494  0.0421046 -0.154012 0.00314617  0.0338668 -0.153044 0.00262105  0.0338629 -0.180503 0.00229526  0.0340989 -0.181348 0.00169826  0.042353 -0.172013 0.0030185  0.0426072 -0.181863 0.0023886  0.0426519 -0.172936 0.00224543  0.0338922 -0.17107 0.00252485  0.0339987 -0.180938 0.00199485  0.0341313 -0.171998 0.00186968  0.0425256 -0.1725 0.00263238  0.0340291 -0.171562 0.0021956  0.0336105 -0.199507 0.00187039  0.0338334 -0.200202 0.00137889  0.0424454 -0.190882 0.00248098  0.0425369 -0.200759 0.00194037  0.0427293 -0.191644 0.00184178  0.0337702 -0.189968 0.00207961  0.0337389 -0.199864 0.00162268  0.0340002 -0.190737 0.00153494  0.0426091 -0.191284 0.00216198  0.0339009 -0.190374 0.0018059  0.0331202 -0.218678 0.00148952  0.0333309 -0.219233 0.00109315  0.0422436 -0.209952 0.00199628  0.0421898 -0.219826 0.00153995  0.0425094 -0.210568 0.00147736  0.0333942 -0.209065 0.00167668  0.033241 -0.218958 0.00129032  0.0336106 -0.209689 0.00123262  0.0423956 -0.210275 0.00173736  0.0335176 -0.209394 0.00145388  0.032429 -0.237926 0.00114965  0.0326228 -0.238363 0.000838041  0.0417833 -0.229142 0.00156271  0.0416036 -0.238985 0.00118256  0.0420294 -0.229627 0.00115144  0.0328 -0.228282 0.00131655  0.0325403 -0.238145 0.000992656  0.0330026 -0.228778 0.000962019  0.0419245 -0.229395 0.00135779  0.0329142 -0.228543 0.00113869  0.0315666 -0.257203 0.000855088  0.031743 -0.257532 0.000616789  0.0411055 -0.248387 0.00118172  0.0408149 -0.258175 0.000873327  0.0413289 -0.248757 0.000865698  0.0320191 -0.247552 0.000999093  0.0316677 -0.257362 0.000735521  0.0322034 -0.247935 0.000723958  0.0412323 -0.248578 0.00102448  0.0321236 -0.247752 0.000861406  0.0305662 -0.276438 0.000601053  0.0307214 -0.27668 0.00042665  0.0402427 -0.267624 0.000852823  0.0398583 -0.277341 0.000608444  0.0404418 -0.267895 0.000618696  0.0310848 -0.266815 0.000724792  0.0306549 -0.276553 0.000512958  0.0312507 -0.2671 0.000517845  0.0403559 -0.267762 0.000736594  0.0311773 -0.266962 0.000621319  0.0294518 -0.2956 0.000391483  0.029587 -0.295768 0.000269651  0.0392323 -0.286804 0.000577688  0.0387678 -0.296438 0.000391841  0.0394042 -0.286993 0.000412583  0.0300233 -0.286019 0.00049305  0.0295289 -0.295673 0.000330567  0.0301678 -0.286222 0.000344515  0.0393283 -0.286899 0.000495911  0.0301046 -0.286123 0.000419259  0.0282509 -0.314639 0.000219107  0.0283647 -0.314755 0.00014174  0.0381019 -0.305886 0.000353932  0.0375731 -0.31543 0.000217676  0.0382473 -0.306012 0.000245333  0.0288634 -0.305123 0.000302911  0.0283148 -0.314686 0.000180125  0.0289876 -0.305264 0.000202298  0.0381823 -0.305947 0.000300765  0.0289316 -0.305193 0.000253081  0.0269802 -0.333543 8.39233e-05  0.0270796 -0.333617 4.01735e-05  0.0368814 -0.324839 0.000178933  0.0363023 -0.334292 8.39233e-05  0.0370028 -0.32492 0.000114322  0.0276241 -0.324097 0.000150323  0.0270352 -0.333566 6.24657e-05  0.0277293 -0.324191 8.84533e-05  0.0369456 -0.324876 0.00014782  0.0276821 -0.324143 0.000120163  0.0256603 -0.352284 -3.71933e-05  0.0257525 -0.35234 -4.81606e-05  0.0355921 -0.343644 4.1604e-05  0.0349824 -0.353014 -2.77758e-05  0.035697 -0.3437 1.14441e-05  0.0263283 -0.34292 2.53916e-05  0.0257125 -0.352298 -4.22001e-05  0.0264223 -0.342984 -4.76837e-06  0.0356474 -0.343668 2.81334e-05  0.0263782 -0.34295 1.10865e-05  0.0243132 -0.370876 -0.000161171  0.0244119 -0.370928 -0.000132084  0.0342569 -0.362303 -8.05855e-05  0.0336337 -0.371614 -0.000133872  0.0343568 -0.362353 -7.84397e-05  0.0249879 -0.361585 -9.41753e-05  0.0243723 -0.370887 -0.000143766  0.0250821 -0.361637 -9.10759e-05  0.0343111 -0.362324 -7.76052e-05  0.0250421 -0.361609 -9.13143e-05  0 0 0  0.00562109 -0.00465626 0.00797617  0.00403146 -0.00642455 0.00518179  0 0 0  0.00343376 -0.00429368 0.00565135  0.00598954 -0.00753218 0.00739717  0.00250726 -0.00491178 0.00343037  0 0 0  0.00234706 -0.0025599 0.00493491  0.00436389 -0.00570965 0.00647986  0.00129016 -0.00319254 0.00288594  0 0 0  0.00235998 -0.00430888 0.0041883  0.00138459 -0.00282168 0.00368738  0.0118319 -0.00972736 0.0108429  0.0105357 -0.0124716 0.00770128  0.0110705 -0.00858313 0.0114244  0.0136428 -0.0130902 0.0107439  0.0096444 -0.0109511 0.00773799  0.00872499 -0.00709128 0.00981987  0.0110967 -0.0113549 0.00928473  0.00714736 -0.00934952 0.00674355  0.00988117 -0.0101042 0.00965285  0.00766627 -0.00840229 0.00828195  0.0180003 -0.0166898 0.0116616  0.0174689 -0.0196899 0.00862646  0.0179625 -0.0146914 0.0131885  0.0211648 -0.0200898 0.0117403  0.0171647 -0.0176668 0.00960195  0.0149925 -0.0129955 0.0114183  0.017717 -0.0183666 0.0101715  0.0140859 -0.0159003 0.00831699  0.0174494 -0.0163066 0.011446  0.0144545 -0.014564 0.00993216  0.0237827 -0.0257325 0.0114864  0.0236754 -0.0286636 0.00859559  0.0248557 -0.0226151 0.0134217  0.0281352 -0.0289288 0.0115532  0.0245794 -0.0256067 0.00997257  0.0209255 -0.0209733 0.0116723  0.0237895 -0.0273066 0.0100597  0.0206492 -0.0239502 0.0086813  0.0247428 -0.0242463 0.011748  0.0208358 -0.0225857 0.0102078  0.0290628 -0.0365382 0.0107876  0.0292141 -0.0393004 0.00813329  0.0312487 -0.0325383 0.0128065  0.0343466 -0.0395769 0.0108819  0.0312517 -0.0353485 0.00963867  0.0265046 -0.030923 0.0111814  0.029206 -0.0380204 0.00947273  0.0265386 -0.03377 0.00839746  0.0313359 -0.0340326 0.0112677  0.0265788 -0.0324456 0.00981557  0.0337723 -0.0489317 0.00993955  0.0340626 -0.0514565 0.00748277  0.0369829 -0.0441233 0.0118649  0.0398329 -0.0517713 0.00997663  0.0372061 -0.0466963 0.00896525  0.0314796 -0.0425525 0.0103816  0.0339865 -0.0502734 0.00872386  0.0317175 -0.0451896 0.00781703  0.0371776 -0.0454828 0.0104558  0.0316769 -0.0439558 0.00911939  0.0378913 -0.062647 0.0089556  0.0382502 -0.064941 0.00675404  0.0420769 -0.0571556 0.010787  0.0446086 -0.0653181 0.00900626  0.0423731 -0.0594792 0.0081569  0.0359174 -0.055636 0.00945199  0.0381322 -0.0638739 0.00786114  0.0362444 -0.058035 0.00711703  0.0423127 -0.0583785 0.0095067  0.036139 -0.0569065 0.00830066  0.041404 -0.0775416 0.00802028  0.0417918 -0.0795825 0.00602651  0.0464724 -0.0714259 0.00967586  0.0486858 -0.0800079 0.00802469  0.0468414 -0.0735068 0.00731349  0.0397136 -0.0699618 0.00848925  0.0416578 -0.0786211 0.00703132  0.0400957 -0.0721183 0.00638461  0.0467321 -0.0725206 0.00852454  0.039973 -0.0711048 0.00744963  0.0443302 -0.0933905 0.00706124  0.0447234 -0.095207 0.00531352  0.0502155 -0.0867611 0.00858212  0.0520911 -0.0956915 0.00708187  0.0505805 -0.0886049 0.00648308  0.0429486 -0.085355 0.00753546  0.0445788 -0.0943586 0.00619113  0.0433375 -0.0872728 0.00566137  0.0504739 -0.0877284 0.00755763  0.0431926 -0.0863674 0.00660908  0.046684 -0.110085 0.00619388  0.0470734 -0.111669 0.00464392  0.0532944 -0.102988 0.00753713  0.0548586 -0.112194 0.00618136  0.0536803 -0.104612 0.00568914  0.0455693 -0.101642 0.0066247  0.0469303 -0.110919 0.00542414  0.0459658 -0.103333 0.00497055  0.0535519 -0.103841 0.00663495  0.0458248 -0.102537 0.00580609  0.0485104 -0.127441 0.00533891  0.0488877 -0.128822 0.00400972  0.0557729 -0.119971 0.00654697  0.0570294 -0.129395 0.00534129  0.0561348 -0.121383 0.00494087  0.0476682 -0.118684 0.005759  0.0487438 -0.128173 0.0046767  0.0480494 -0.120158 0.00431752  0.0560184 -0.12071 0.00576198  0.0479022 -0.11946 0.00504541  0.0498388 -0.145371 0.00457668  0.0502028 -0.146547 0.00342524  0.0576671 -0.137566 0.00562513  0.0586487 -0.147151 0.00455558  0.0580317 -0.138784 0.00424266  0.0492291 -0.13634 0.00495398  0.050066 -0.145985 0.00400448  0.0496032 -0.137611 0.00370967  0.057905 -0.138205 0.00494909  0.0494646 -0.137011 0.00433755  0.0507224 -0.163724 0.00384307  0.0510697 -0.164724 0.00288045  0.059044 -0.155664 0.00476599  0.0597644 -0.165363 0.00383294  0.059382 -0.156697 0.00359511  0.0503395 -0.154495 0.00420237  0.0509356 -0.164249 0.00336349  0.0506935 -0.155576 0.00314438  0.0592682 -0.156203 0.00419259  0.0505549 -0.155062 0.00367808  0.0511965 -0.182428 0.00319457  0.0515269 -0.183254 0.0023855  0.0599347 -0.174145 0.00397813  0.0604248 -0.183914 0.00316763  0.060267 -0.17501 0.00299954  0.0510051 -0.173034 0.00351417  0.0514007 -0.182854 0.00279212  0.0513463 -0.17394 0.00262582  0.0601487 -0.174598 0.00349891  0.0512165 -0.173511 0.00307345  0.0513142 -0.201363 0.00258505  0.0516238 -0.20204 0.00193155  0.0604016 -0.192921 0.00325561  0.0606786 -0.202722 0.00256491  0.0607074 -0.193629 0.00245523  0.0513016 -0.191864 0.00288212  0.0515029 -0.201713 0.00225914  0.0516205 -0.192609 0.00215054  0.0606005 -0.193288 0.00286293  0.0514948 -0.192253 0.00251901  0.0511119 -0.22047 0.00205386  0.0514002 -0.221003 0.00152755  0.060483 -0.211894 0.00260627  0.0605748 -0.221697 0.00202286  0.0607753 -0.212464 0.00196421  0.0512494 -0.210892 0.00231421  0.0512888 -0.220738 0.0017916  0.0515497 -0.211493 0.00172269  0.0606686 -0.21219 0.00229084  0.0514332 -0.211206 0.00202  0.0506394 -0.239654 0.00157046  0.0509024 -0.240068 0.00116622  0.0602341 -0.230998 0.0020237  0.0601592 -0.240772 0.00154281  0.060499 -0.231439 0.00152588  0.0509102 -0.230046 0.00180423  0.0507989 -0.239861 0.00136864  0.0511854 -0.230515 0.00133955  0.0604033 -0.231224 0.00177836  0.0510759 -0.230289 0.00157285  0.0499313 -0.258871 0.00115943  0.0501676 -0.259174 0.000855327  0.0596967 -0.250156 0.00151408  0.0594776 -0.25988 0.00112629  0.0599403 -0.250486 0.00114143  0.050313 -0.249253 0.00135887  0.0500753 -0.259015 0.00100744  0.0505633 -0.249607 0.00100434  0.0598493 -0.250324 0.00133002  0.0504639 -0.249436 0.00118184  0.0490336 -0.278051 0.000804305  0.0492394 -0.278265 0.000589013  0.0589168 -0.269315 0.00107527  0.0585744 -0.278973 0.00077343  0.0591314 -0.269549 0.000811338  0.0495064 -0.268457 0.000973582  0.0491571 -0.278148 0.000696421  0.0497274 -0.268712 0.000715256  0.059051 -0.269431 0.000943899  0.0496383 -0.268586 0.000844121  0.0479784 -0.29716 0.000517607  0.0481541 -0.297299 0.000374556  0.0579393 -0.288421 0.000711441  0.0574915 -0.298001 0.000487804  0.058126 -0.288578 0.000538349  0.0485253 -0.287605 0.000653863  0.0480833 -0.297215 0.000445485  0.0487161 -0.287779 0.000475407  0.0580533 -0.288496 0.000625014  0.0486376 -0.287691 0.00056386  0.0468051 -0.31615 0.000290394  0.0469501 -0.316239 0.000203729  0.0568032 -0.307438 0.000421524  0.056273 -0.316933 0.000266433  0.0569603 -0.307534 0.00032115  0.0474062 -0.306659 0.000396609  0.0468891 -0.316179 0.000247002  0.0475662 -0.306769 0.000283003  0.0568967 -0.30748 0.00037086  0.0474989 -0.30671 0.000338912  0.0455434 -0.33501 0.000122666  0.0456631 -0.335065 7.80821e-05  0.0555525 -0.326333 0.000205278  0.0549598 -0.335747 0.000108004  0.0556839 -0.326391 0.000158787  0.0461855 -0.325586 0.000200748  0.04561 -0.33502 0.000100017  0.0463164 -0.325655 0.000135899  0.0556252 -0.326354 0.000181913  0.0462582 -0.325615 0.000167608  0.0442235 -0.353719 -6.91414e-06  0.0443265 -0.353766 -2.09808e-05  0.0542216 -0.345092 5.73397e-05  0.0535975 -0.354443 -5.24521e-06  0.0543339 -0.345135 4.19617e-05  0.0448911 -0.34437 5.60284e-05  0.0442798 -0.35373 -1.32322e-05  0.0450006 -0.344419 2.58684e-05  0.0542817 -0.345108 5.01871e-05  0.0449498 -0.34439 4.04119e-05  0.0428619 -0.372328 -0.000127077  0.0429702 -0.372378 -0.000110388  0.0528548 -0.363727 -5.59092e-05  0.0522182 -0.373045 -0.000106812  0.0529604 -0.363779 -4.91142e-05  0.0435474 -0.363019 -6.75917e-05  0.0429211 -0.372334 -0.000117421  0.0436518 -0.363068 -6.74725e-05  0.0529087 -0.363748 -5.43594e-05  0.0436037 -0.363038 -6.69956e-05  -0.00599934 -0.00802618 -0.00480509  -0.00270852 -0.00512482 -0.00208294  0 0 0  -0.00390121 -0.00652751 -0.00320423  0 0 0  -0.00284845 -0.00461341 -0.00346529  -0.000937015 -0.00248095 -0.00147641  0 0 0  -0.00252544 -0.00487139 -0.00275445  -0.00396681 -0.00610476 -0.00420523  -0.00126226 -0.00334635 -0.00177372  0 0 0  -0.000977337 -0.00225297 -0.00196683  -0.00129852 -0.0031686 -0.00238764  -0.0132156 -0.0135394 -0.00752079  -0.00971793 -0.0113155 -0.00496769  -0.0101124 -0.0125885 -0.00511861  -0.00808941 -0.010287 -0.0054996  -0.005123 -0.00786649 -0.00362384  -0.00955093 -0.0105921 -0.00647473  -0.0103001 -0.0118062 -0.00656128  -0.00690855 -0.00949912 -0.00431931  -0.00531349 -0.00731858 -0.0046699  -0.00701845 -0.00884029 -0.00556815  -0.0207956 -0.0202431 -0.00860667  -0.0170443 -0.0175638 -0.00644004  -0.0169317 -0.0196152 -0.005898  -0.0137693 -0.0173272 -0.00629222  -0.0107546 -0.0143657 -0.00475252  -0.0170343 -0.0166666 -0.00821686  -0.0170251 -0.0187031 -0.00745487  -0.0135334 -0.0158879 -0.00562346  -0.0109096 -0.0135974 -0.00603402  -0.0136558 -0.0150528 -0.00718749  -0.0281371 -0.028432 -0.00861239  -0.024495 -0.025103 -0.00687814  -0.0234676 -0.0280626 -0.00598657  -0.0193154 -0.0259731 -0.00633395  -0.0165119 -0.0223164 -0.00509584  -0.0245134 -0.0241475 -0.00869942  -0.0235092 -0.0271241 -0.00749362  -0.0202406 -0.0236383 -0.00600481  -0.01657 -0.0214463 -0.00638402  -0.0203135 -0.0227191 -0.00754809  -0.0349999 -0.0381985 -0.00814283  -0.0316429 -0.0340637 -0.0067203  -0.0296167 -0.0380324 -0.00567532  -0.024555 -0.0361852 -0.00598764  -0.021993 -0.0317672 -0.00498092  -0.0316425 -0.03312 -0.00842559  -0.02957 -0.0371322 -0.0070703  -0.0265984 -0.0328476 -0.0058614  -0.0219745 -0.0308869 -0.00619853  -0.0265911 -0.031939 -0.0073216  -0.0413409 -0.0494406 -0.00742745  -0.0382913 -0.0445314 -0.00625145  -0.0353076 -0.049417 -0.00519848  -0.0294656 -0.0478319 -0.00547194  -0.0271436 -0.0426729 -0.00463164  -0.0382327 -0.0436523 -0.00780571  -0.0352059 -0.0485855 -0.00646043  -0.0325172 -0.0435463 -0.00544918  -0.0270494 -0.0418379 -0.00574672  -0.0324408 -0.0426904 -0.00678003  -0.0471849 -0.0619952 -0.0066489  -0.0444193 -0.0563581 -0.00565779  -0.0405751 -0.0620838 -0.00465488  -0.0340518 -0.0607586 -0.00489688  -0.0319378 -0.0549068 -0.00418997  -0.0443271 -0.055565 -0.00704348  -0.0404312 -0.0613379 -0.00577903  -0.0379921 -0.0555849 -0.00492871  -0.0317982 -0.0541419 -0.00519192  -0.0378666 -0.0548094 -0.00612378  -0.0525596 -0.0757083 -0.00586855  -0.0500544 -0.0694245 -0.00503218  -0.0454323 -0.0758927 -0.00411737  -0.0383344 -0.0748152 -0.00433111  -0.0363975 -0.06834 -0.0037272  -0.0499288 -0.0687216 -0.00625801  -0.0452715 -0.0752299 -0.00510824  -0.0430524 -0.0688452 -0.00438368  -0.0362288 -0.0676541 -0.00461614  -0.0428985 -0.0681522 -0.00544047  -0.0574952 -0.0904302 -0.00513518  -0.0552158 -0.0835668 -0.004426  -0.0499164 -0.0906997 -0.0036031  -0.042326 -0.0898568 -0.0037899  -0.0405431 -0.0828241 -0.00327933  -0.0550833 -0.0829527 -0.00549674  -0.0497476 -0.0901208 -0.00446761  -0.0477179 -0.0831656 -0.00385559  -0.0403657 -0.0822191 -0.00405979  -0.0475526 -0.0825587 -0.00478363  -0.0620172 -0.106029 -0.00445092  -0.0599461 -0.0986652 -0.00385773  -0.0540429 -0.106377 -0.00313067  -0.0460436 -0.10575 -0.00329363  -0.044395 -0.0982328 -0.00286126  -0.0598063 -0.0981322 -0.0047878  -0.0538799 -0.105872 -0.00387859  -0.0520217 -0.0984274 -0.0033617  -0.0442172 -0.0977041 -0.00354028  -0.0518557 -0.0978976 -0.00416672  -0.0661532 -0.122381 -0.00382924  -0.0642642 -0.114577 -0.0033356  -0.0578432 -0.122798 -0.0026958  -0.0494987 -0.122372 -0.00283492  -0.0479709 -0.114432 -0.00247693  -0.0641341 -0.114119 -0.00413322  -0.0576879 -0.122365 -0.00333536  -0.055981 -0.114488 -0.00290787  -0.0478032 -0.113975 -0.00306177  -0.0558223 -0.114033 -0.00360167  -0.0699254 -0.139371 -0.00325894  -0.0682079 -0.131196 -0.00285888  -0.0613309 -0.139852 -0.00230277  -0.0527064 -0.139606 -0.00242138  -0.0512882 -0.131309 -0.00212753  -0.0680835 -0.130806 -0.00353837  -0.0611897 -0.139481 -0.00284445  -0.0596235 -0.131243 -0.00249445  -0.0511318 -0.130918 -0.00262594  -0.0594759 -0.130852 -0.00308383  -0.0733582 -0.156892 -0.00274599  -0.0717944 -0.148399 -0.00242686  -0.064532 -0.157429 -0.00194514  -0.0556777 -0.157346 -0.00204384  -0.0543611 -0.148748 -0.00181031  -0.0716842 -0.148071 -0.00299597  -0.0644034 -0.157117 -0.00239658  -0.0629644 -0.148568 -0.0021193  -0.0542207 -0.148417 -0.00222957  -0.0628307 -0.148239 -0.00261545  -0.0764735 -0.174846 -0.00228083  -0.0750542 -0.166096 -0.00203633  -0.0674595 -0.175432 -0.00162506  -0.058427 -0.175493 -0.00170708  -0.0572047 -0.16665 -0.00152504  -0.0749543 -0.165823 -0.00250745  -0.0673473 -0.17517 -0.00199604  -0.066027 -0.166372 -0.00178099  -0.0570785 -0.166373 -0.00187266  -0.065908 -0.166097 -0.00219071  -0.0792952 -0.193141 -0.00186753  -0.0780057 -0.18418 -0.00168657  -0.0701382 -0.193769 -0.00133836  -0.060967 -0.193959 -0.00140357  -0.0598314 -0.184918 -0.00126874  -0.077921 -0.183957 -0.00206757  -0.0700394 -0.193554 -0.00163591  -0.0688274 -0.184551 -0.00147736  -0.0597223 -0.18469 -0.00155187  -0.068723 -0.184325 -0.00181115  -0.0818453 -0.211695 -0.00150073  -0.0806767 -0.202573 -0.00137532  -0.0725818 -0.212357 -0.001086  -0.0633124 -0.212657 -0.00113809  -0.0622573 -0.203467 -0.00104189  -0.080603 -0.202393 -0.00167799  -0.072498 -0.212182 -0.00131989  -0.0713865 -0.203025 -0.00120807  -0.0621626 -0.203282 -0.00126731  -0.0712963 -0.202842 -0.00147235  -0.0841486 -0.230431 -0.0011822  -0.0830883 -0.221187 -0.00110304  -0.0748146 -0.23112 -0.000866175  -0.0654774 -0.231514 -0.000904799  -0.0644959 -0.222215 -0.00084281  -0.0830274 -0.221045 -0.00133479  -0.074743 -0.230981 -0.00104296  -0.0737218 -0.221708 -0.000971913  -0.0644163 -0.222068 -0.00101769  -0.0736455 -0.221563 -0.00117648  -0.0862296 -0.249281 -0.000909925  -0.0852659 -0.239957 -0.000867844  -0.076854 -0.24999 -0.000679135  -0.0674789 -0.250462 -0.00070858  -0.0665638 -0.241093 -0.000671983  -0.0852153 -0.239848 -0.00103962  -0.0767946 -0.249881 -0.000808358  -0.0758553 -0.240534 -0.000768781  -0.0664971 -0.240979 -0.000802755  -0.0757914 -0.240421 -0.000920177  -0.088115 -0.268184 -0.000685811  -0.0872371 -0.25881 -0.000670791  -0.0787249 -0.268908 -0.000525475  -0.0693331 -0.269444 -0.00054419  -0.0684772 -0.260036 -0.000528455  -0.0871956 -0.25873 -0.000790954  -0.078675 -0.268824 -0.000613451  -0.0778072 -0.259433 -0.000598311  -0.0684228 -0.25995 -0.000622272  -0.0777545 -0.259349 -0.000705957  -0.089833 -0.287089 -0.000508189  -0.0890269 -0.277699 -0.000511408  -0.0804489 -0.287822 -0.000403404  -0.071059 -0.288406 -0.000415564  -0.0702548 -0.278992 -0.000412345  -0.0889931 -0.277641 -0.000590563  -0.0804079 -0.287758 -0.000460386  -0.0796018 -0.278356 -0.000460505  -0.0702102 -0.278928 -0.000475764  -0.0795579 -0.278294 -0.000531673  -0.0914154 -0.305955 -0.000377417  -0.0906696 -0.296571 -0.000389934  -0.0820539 -0.306692 -0.000313044  -0.0726755 -0.307312 -0.000316381  -0.0719149 -0.297913 -0.0003227  -0.0906398 -0.29653 -0.000436306  -0.0820186 -0.306643 -0.000344753  -0.0812633 -0.297252 -0.000354648  -0.0718794 -0.297867 -0.000362039  -0.0812268 -0.297207 -0.00039804  -0.0928974 -0.324747 -0.000286341  -0.0921926 -0.315391 -0.000302315  -0.0835669 -0.325483 -0.000248194  -0.074204 -0.326125 -0.000245929  -0.0734792 -0.316762 -0.000256538  -0.0921664 -0.315362 -0.000326514  -0.0835342 -0.325444 -0.000264168  -0.0828183 -0.316086 -0.000277996  -0.0734491 -0.316729 -0.000278115  -0.0827858 -0.316054 -0.000300765  -0.0943186 -0.34345 -0.000225306  -0.0936406 -0.334134 -0.000243068  -0.085017 -0.344182 -0.000201583  -0.0756671 -0.344831 -0.000189424  -0.0749693 -0.335516 -0.000208139  -0.0936131 -0.334111 -0.000252724  -0.0849857 -0.344146 -0.000204444  -0.0842967 -0.334833 -0.000223875  -0.0749424 -0.33549 -0.000216722  -0.0842664 -0.334807 -0.000232935  -0.095717 -0.362085 -0.000166893  -0.0950444 -0.352793 -0.000199199  -0.0864339 -0.362804 -0.00015831  -0.0770938 -0.36344 -0.000139832  -0.0764093 -0.354168 -0.000167012  -0.0950181 -0.352772 -0.000196695  -0.0864034 -0.362769 -0.000150204  -0.0857253 -0.353486 -0.000180483  -0.0763812 -0.354144 -0.00016439  -0.0856962 -0.353462 -0.000179172  -0.00215621 -0.00399703 -0.00214851  0 0 0  -0.00161211 -0.00291394 -0.0022099  -0.000541799 -0.00135116 -0.000942588  0 0 0  -0.00217663 -0.00361837 -0.00281  -0.00071761 -0.00182295 -0.00118804  0 0 0  -0.000544537 -0.00119501 -0.00123537  -0.000723585 -0.0016329 -0.00156653  -0.00616272 -0.00968167 -0.00350535  -0.00466041 -0.00810111 -0.00351524  -0.00297998 -0.0057441 -0.00231206  -0.00625476 -0.00904423 -0.00447273  -0.00401571 -0.00662372 -0.00292611  -0.00302422 -0.00526445 -0.00296521  -0.00407496 -0.00612527 -0.00376749  -0.0108107 -0.0169821 -0.00410056  -0.00828606 -0.0152742 -0.00406754  -0.00638703 -0.0121567 -0.00306308  -0.0108774 -0.0161742 -0.00515103  -0.00845858 -0.0131193 -0.00387788  -0.00644475 -0.0114597 -0.00387096  -0.00854355 -0.0123957 -0.00489902  -0.0154811 -0.0258611 -0.00418341  -0.0119452 -0.0242219 -0.00412536  -0.0101027 -0.0203458 -0.00331438  -0.0154845 -0.0249955 -0.00520825  -0.0131623 -0.0212179 -0.00418651  -0.010121 -0.0195389 -0.00413573  -0.0131996 -0.0203811 -0.00523269  -0.0199612 -0.036234 -0.00398076  -0.0155137 -0.0347491 -0.00391352  -0.0137928 -0.0301241 -0.00325727  -0.0198889 -0.0353817 -0.00493693  -0.0177515 -0.0308521 -0.00410485  -0.0137479 -0.0292959 -0.00404298  -0.0177138 -0.0300001 -0.00509977  -0.0241852 -0.0479952 -0.00364697  -0.0189241 -0.0467023 -0.00358236  -0.0173382 -0.0413586 -0.00303686  -0.0240561 -0.0471951 -0.0045135  -0.0221049 -0.0419372 -0.00382197  -0.0172376 -0.0405571 -0.00375736  -0.0220023 -0.0411202 -0.00473464  -0.0281503 -0.061008 -0.00326896  -0.0221826 -0.0599165 -0.00320852  -0.0207117 -0.0539063 -0.00275004  -0.0279856 -0.0602773 -0.00404346  -0.0261986 -0.0543405 -0.0034591  -0.0205725 -0.0531593 -0.00339866  -0.0260498 -0.053586 -0.00428033  -0.0318703 -0.0751335 -0.00289237  -0.0252919 -0.0742449 -0.00283897  -0.0239164 -0.0676277 -0.0024482  -0.0316897 -0.0744795 -0.00357604  -0.0300381 -0.0679279 -0.00307822  -0.0237548 -0.0669496 -0.00302351  -0.029865 -0.0672472 -0.00380695  -0.0353608 -0.0902355 -0.00253487  -0.0282599 -0.0895412 -0.00248778  -0.0269611 -0.082384 -0.00215614  -0.0351775 -0.0896574 -0.00313306  -0.0336422 -0.0825574 -0.00270963  -0.0267935 -0.0817787 -0.00266171  -0.03346 -0.0819537 -0.00335002  -0.0386367 -0.106183 -0.00220561  -0.0310885 -0.105674 -0.00216448  -0.0298563 -0.0980422 -0.00188398  -0.0384593 -0.105678 -0.00272346  -0.0370227 -0.0980989 -0.0023663  -0.0296907 -0.09751 -0.00232387  -0.0368435 -0.0975695 -0.00292361  -0.0417084 -0.122853 -0.00190401  -0.0337828 -0.122516 -0.00186765  -0.0326084 -0.114475 -0.0016346  -0.0415423 -0.122416 -0.00234854  -0.0401959 -0.114422 -0.00205076  -0.0324525 -0.114012 -0.00201368  -0.040025 -0.113963 -0.00253105  -0.0445871 -0.140132 -0.0016315  -0.0363439 -0.139952 -0.00159967  -0.0352234 -0.131563 -0.0014081  -0.0444354 -0.139757 -0.00200772  -0.0431691 -0.131411 -0.00176406  -0.0350792 -0.131165 -0.00173116  -0.043012 -0.131017 -0.00217378  -0.0472816 -0.157911 -0.00138474  -0.0387762 -0.157875 -0.00135684  -0.0377059 -0.149196 -0.00120366  -0.047145 -0.157594 -0.00169992  -0.0459553 -0.148952 -0.00150442  -0.0375761 -0.148857 -0.00147593  -0.0458124 -0.148619 -0.00184941  -0.0498011 -0.176093 -0.0011636  -0.0410814 -0.176186 -0.00113988  -0.0400596 -0.167271 -0.00101984  -0.0496807 -0.175828 -0.00142276  -0.0485604 -0.166945 -0.00127089  -0.0399438 -0.166986 -0.00124586  -0.048434 -0.166666 -0.00155747  -0.0521555 -0.194587 -0.000966311  -0.0432652 -0.194793 -0.000945449  -0.0422887 -0.185691 -0.000855565  -0.0520502 -0.194368 -0.001176  -0.050997 -0.185293 -0.00106168  -0.0421885 -0.185456 -0.00104022  -0.0508853 -0.185063 -0.00129557  -0.054354 -0.213309 -0.000792623  -0.0453306 -0.213615 -0.000775456  -0.0443983 -0.204372 -0.000710368  -0.0542638 -0.213131 -0.000957847  -0.0532714 -0.203912 -0.000876427  -0.0443119 -0.20418 -0.00085783  -0.0531757 -0.203725 -0.00106323  -0.0564075 -0.232185 -0.000641823  -0.0472853 -0.232576 -0.000627518  -0.0463943 -0.223233 -0.000583887  -0.0563312 -0.232043 -0.000769019  -0.0553968 -0.222719 -0.000714302  -0.0463216 -0.22308 -0.000699043  -0.0553148 -0.222571 -0.000859857  -0.0583277 -0.251148 -0.00051403  -0.0491345 -0.251611 -0.000502348  -0.0482826 -0.242205 -0.000475287  -0.058264 -0.251036 -0.000607729  -0.0573809 -0.241647 -0.000575066  -0.0482221 -0.242086 -0.000562191  -0.0573137 -0.241531 -0.000684857  -0.0601265 -0.27014 -0.000408411  -0.0508873 -0.270661 -0.000398517  -0.0500715 -0.261226 -0.000384569  -0.0600746 -0.270054 -0.000475049  -0.0592396 -0.260631 -0.000458479  -0.0500224 -0.261135 -0.000448108  -0.0591834 -0.260544 -0.000537992  -0.0618181 -0.289111 -0.000324607  -0.0525508 -0.289679 -0.000316381  -0.0517683 -0.280243 -0.000311494  -0.0617762 -0.289045 -0.000368476  -0.0609825 -0.279618 -0.000364065  -0.051729 -0.280175 -0.000355005  -0.0609379 -0.279554 -0.000418663  -0.0634172 -0.308021 -0.000260949  -0.0541358 -0.308624 -0.000252724  -0.0533831 -0.29921 -0.000254154  -0.0633831 -0.307971 -0.000288129  -0.0626268 -0.298563 -0.000290513  -0.0533526 -0.299161 -0.000282407  -0.0625901 -0.298517 -0.000325441  -0.0649393 -0.326838 -0.000213146  -0.0556514 -0.327465 -0.000204802  -0.0549254 -0.318093 -0.00021112  -0.0649104 -0.326797 -0.000226736  -0.0641849 -0.317429 -0.000235558  -0.0549016 -0.318057 -0.000227094  -0.0641553 -0.317396 -0.000255466  -0.066401 -0.345543 -0.000174999  -0.057111 -0.34618 -0.000163913  -0.0564079 -0.336865 -0.00017786  -0.0663748 -0.345508 -0.00017786  -0.065675 -0.336192 -0.000193596  -0.0563874 -0.336838 -0.000184417  -0.065649 -0.336167 -0.000201821  -0.0678298 -0.364139 -0.000139236  -0.0585372 -0.364755 -0.000125051  -0.0578437 -0.355511 -0.000147462  -0.0678036 -0.364101 -0.000131488  -0.0671136 -0.354842 -0.000156522  -0.0578249 -0.355485 -0.000144124  -0.0670903 -0.354818 -0.000153542  -0.00110061 -0.00275978 -0.00126839  0 0 0  -0.00069578 -0.0021753 -0.00110376  -0.000233147 -0.000871152 -0.000473022  0 0 0  -0.00112808 -0.00245029 -0.00165319  -0.000371885 -0.0010438 -0.000708699  0 0 0  -0.000234287 -0.000751168 -0.000628591  -0.000375636 -0.000914991 -0.000935555  -0.00325932 -0.00804126 -0.00205541  -0.00205402 -0.0070383 -0.00173366  -0.00129017 -0.00473678 -0.00114655  -0.0033199 -0.00744659 -0.00261641  -0.00208782 -0.00512421 -0.00172174  -0.00131364 -0.00431782 -0.00146914  -0.00213413 -0.00467339 -0.00221217  -0.00590637 -0.0153731 -0.00241411  -0.00374299 -0.0142188 -0.00200605  -0.00285167 -0.0110218 -0.00151372  -0.0059402 -0.0146266 -0.00302458  -0.00454855 -0.0114658 -0.00227809  -0.00286978 -0.0103749 -0.00190842  -0.00460106 -0.010788 -0.00287044  -0.00868708 -0.0244709 -0.00247204  -0.00555432 -0.0233161 -0.00203848  -0.00464994 -0.0193082 -0.00164175  -0.00866926 -0.0236607 -0.00306988  -0.00729322 -0.0197076 -0.00247002  -0.00463796 -0.0185511 -0.00204229  -0.00730121 -0.0189291 -0.00308013  -0.0114486 -0.0351132 -0.00235951  -0.00741345 -0.0340409 -0.0019387  -0.00653011 -0.029277 -0.00161731  -0.0113767 -0.0343004 -0.0029186  -0.0100746 -0.029597 -0.00243056  -0.00647962 -0.0284863 -0.00200117  -0.0100281 -0.0287892 -0.00301266  -0.0141336 -0.0471421 -0.00216436  -0.00928718 -0.0461929 -0.00177252  -0.00843364 -0.0407248 -0.00150967  -0.0140213 -0.0463642 -0.00267124  -0.0128013 -0.0409509 -0.00226784  -0.00834876 -0.0399468 -0.00186026  -0.0127074 -0.040164 -0.00280249  -0.016732 -0.0604107 -0.00194085  -0.0111697 -0.0596091 -0.00158679  -0.0103351 -0.0534848 -0.00136709  -0.0165949 -0.0596909 -0.00239277  -0.0154424 -0.0536172 -0.00205398  -0.010227 -0.0527502 -0.00168145  -0.0153168 -0.0528784 -0.00253439  -0.0192463 -0.0747761 -0.00171804  -0.0130574 -0.0741268 -0.00140178  -0.0122331 -0.0674112 -0.00121665  -0.0190979 -0.0741228 -0.00211692  -0.0179984 -0.0674515 -0.00182867  -0.0121128 -0.0667358 -0.00149417  -0.0178547 -0.0667766 -0.00225449  -0.021681 -0.0901041 -0.00150692  -0.0149481 -0.0896113 -0.00122833  -0.0141263 -0.0823626 -0.00107181  -0.0215315 -0.0895227 -0.00185478  -0.0204718 -0.082315 -0.00161064  -0.0140023 -0.0817544 -0.00131428  -0.0203233 -0.0817097 -0.00198412  -0.0240386 -0.106262 -0.00131345  -0.0168355 -0.105917 -0.00106871  -0.0160128 -0.0982053 -0.000937581  -0.0238949 -0.105749 -0.00161469  -0.0228679 -0.0980738 -0.00140822  -0.0158921 -0.0976661 -0.00114739  -0.0227218 -0.0975395 -0.00173271  -0.0263202 -0.123128 -0.00113702  -0.0187138 -0.122927 -0.000924468  -0.017889 -0.114811 -0.00081563  -0.0261861 -0.122683 -0.00139427  -0.0251873 -0.114601 -0.00122309  -0.0177759 -0.114339 -0.000995278  -0.0250496 -0.114134 -0.00150228  -0.0285246 -0.140584 -0.000978351  -0.020575 -0.140514 -0.000794888  -0.0197499 -0.13206 -0.000706196  -0.0284027 -0.1402 -0.0011965  -0.0274304 -0.131776 -0.0010556  -0.0196465 -0.131652 -0.000858307  -0.0273036 -0.131374 -0.00129318  -0.0306523 -0.158526 -0.000835538  -0.022414 -0.158578 -0.000679016  -0.0215898 -0.14984 -0.000608325  -0.0305431 -0.1582 -0.00101709  -0.0295963 -0.149488 -0.000904918  -0.0214972 -0.14949 -0.000735641  -0.0294825 -0.149145 -0.00110471  -0.0327014 -0.176852 -0.000708461  -0.0242227 -0.177011 -0.000576019  -0.023403 -0.168046 -0.000521302  -0.0326058 -0.176576 -0.000858068  -0.0316849 -0.167634 -0.000770092  -0.0233219 -0.167751 -0.000626206  -0.0315839 -0.167346 -0.000935674  -0.0346729 -0.195472 -0.000595093  -0.025998 -0.19573 -0.000485063  -0.0251842 -0.186583 -0.000444412  -0.0345899 -0.195244 -0.000715137  -0.0336952 -0.186118 -0.000649691  -0.0251147 -0.186338 -0.00052917  -0.0336075 -0.185878 -0.000784516  -0.0365661 -0.214303 -0.000496507  -0.0277331 -0.214644 -0.000406265  -0.0269291 -0.205365 -0.000377297  -0.0364954 -0.214116 -0.000591516  -0.0356275 -0.204853 -0.000543952  -0.0268703 -0.205164 -0.000444412  -0.035552 -0.204658 -0.000651598  -0.0383835 -0.233272 -0.000411153  -0.0294268 -0.233687 -0.000338912  -0.0286338 -0.224314 -0.000319719  -0.0383241 -0.233122 -0.000483751  -0.0374823 -0.223762 -0.000452042  -0.028585 -0.224152 -0.000371456  -0.0374191 -0.223605 -0.000535727  -0.0401268 -0.252311 -0.000339508  -0.031076 -0.252787 -0.000282764  -0.0302958 -0.243359 -0.000270963  -0.0400782 -0.252192 -0.000393629  -0.0392623 -0.242773 -0.000373602  -0.0302565 -0.243231 -0.000309587  -0.0392101 -0.242651 -0.000436783  -0.0418 -0.271365 -0.000281096  -0.0326803 -0.271894 -0.000237226  -0.0319142 -0.26244 -0.000231266  -0.0417607 -0.271273 -0.000318646  -0.0409698 -0.261827 -0.000308633  -0.0318832 -0.262341 -0.000258923  -0.0409279 -0.261733 -0.00035429  -0.0434072 -0.290385 -0.000234723  -0.0342386 -0.290954 -0.000201941  -0.033488 -0.281504 -0.000199914  -0.043376 -0.290313 -0.000259995  -0.0426097 -0.280869 -0.0002563  -0.0334642 -0.281429 -0.000218511  -0.0425761 -0.280799 -0.00028789  -0.0449541 -0.309331 -0.000199437  -0.0357533 -0.309933 -0.000175595  -0.0350189 -0.300509 -0.000176191  -0.0449293 -0.309277 -0.000214338  -0.0441859 -0.299857 -0.000215769  -0.035001 -0.300453 -0.000187635  -0.0441599 -0.299805 -0.000235796  -0.0464461 -0.328173 -0.000172973  -0.0372255 -0.328796 -0.000156164  -0.0365069 -0.319419 -0.000159025  -0.0464263 -0.328129 -0.000180483  -0.0457048 -0.318754 -0.000185251  -0.036494 -0.319378 -0.000165105  -0.0456839 -0.318717 -0.000196576  -0.0478933 -0.346888 -0.000150442  -0.0386605 -0.34752 -0.000138879  -0.0379574 -0.338206 -0.000145912  -0.0478754 -0.34685 -0.000150204  -0.0471728 -0.337535 -0.000161648  -0.0379469 -0.338174 -0.0001477  -0.0471559 -0.337506 -0.000165582  -0.0493083 -0.365449 -0.00012958  -0.040066 -0.366063 -0.00012207  -0.0393751 -0.356846 -0.000133753  -0.0492923 -0.365406 -0.000121951  -0.0486007 -0.356177 -0.000139594  -0.0393653 -0.356815 -0.000130296  -0.0485854 -0.35615 -0.000135422  -0.000285946 -0.00232986 -0.000427008  0 0 0  9.88245e-05 -0.00206742 4.17233e-06  2.99886e-05 -0.0007976 2.38419e-07  0 0 0  -0.000287943 -0.00205457 -0.000551581  -9.64142e-05 -0.000793219 -0.000236154  0 0 0  3.1136e-05 -0.000690848 4.29153e-06  -9.69507e-05 -0.000682324 -0.000311494  -0.000873178 -0.00741944 -0.000684977  0.000262082 -0.00688776 -2.14577e-06  0.000166059 -0.0045819 -6.67572e-06  -0.000878558 -0.00686362 -0.00086534  -0.00054802 -0.00456861 -0.00057447  0.000180855 -0.00417486 8.34465e-07  -0.000554547 -0.00415492 -0.000734091  -0.00167111 -0.0147549 -0.000805974  0.000373185 -0.014096 -8.70228e-06  0.0002985 -0.0108543 -1.54972e-05  -0.00165525 -0.0140457 -0.00100064  -0.00125191 -0.0108273 -0.000759721  0.000329256 -0.0102283 -6.55651e-06  -0.00124654 -0.0101893 -0.000949502  -0.00260556 -0.0239649 -0.000828743  0.000362933 -0.0232737 -9.53674e-06  0.000339657 -0.0191981 -1.9908e-05  -0.00256389 -0.0231883 -0.00101972  -0.00212419 -0.01914 -0.000826478  0.000385493 -0.0184641 -1.0252e-05  -0.00209579 -0.0183966 -0.00102103  -0.00363958 -0.03476 -0.000791311  0.000201881 -0.0340991 -5.60284e-06  0.000244617 -0.0292638 -1.97887e-05  -0.00357276 -0.0339724 -0.000968814  -0.00311106 -0.0291655 -0.000815153  0.000302434 -0.0284947 -8.46386e-06  -0.00305605 -0.0283882 -0.00100017  -0.00475788 -0.0469536 -0.000724912  -0.000122309 -0.0463658 8.34465e-07  -6.49691e-06 -0.040825 -1.5974e-05  -0.00467235 -0.0461916 -0.000883341  -0.00418776 -0.0406805 -0.000760078  6.04391e-05 -0.0400631 -2.6226e-06  -0.00411165 -0.0399132 -0.000928164  -0.0059545 -0.0603868 -0.000648618  -0.000610054 -0.0598949 7.62939e-06  -0.000417888 -0.0537058 -1.09673e-05  -0.0058583 -0.0596744 -0.00078845  -0.0053457 -0.0535115 -0.000687122  -0.000346065 -0.052981 4.17233e-06  -0.00525439 -0.0527841 -0.000836372  -0.00722557 -0.0749126 -0.000573039  -0.00125337 -0.0745335 1.22786e-05  -0.000985861 -0.0677541 -6.79493e-06  -0.0071252 -0.0742611 -0.00069356  -0.00657982 -0.0675086 -0.000610232  -0.000912726 -0.0670837 1.01328e-05  -0.00648212 -0.0668377 -0.00074029  -0.00856507 -0.0903957 -0.000502586  -0.00204194 -0.0901321 1.45435e-05  -0.00170171 -0.0828273 -4.29153e-06  -0.00846624 -0.0898116 -0.000606894  -0.00788593 -0.0825299 -0.000536919  -0.00163019 -0.08222 1.34706e-05  -0.00778663 -0.0819239 -0.000649095  -0.0099647 -0.106701 -0.000439405  -0.00296032 -0.106555 1.40667e-05  -0.00255275 -0.0987884 -4.05312e-06  -0.00987124 -0.106183 -0.000526905  -0.00925612 -0.0984402 -0.000470042  -0.00248563 -0.0982475 1.45435e-05  -0.00916147 -0.0979013 -0.000565767  -0.0114151 -0.123705 -0.000383496  -0.00399435 -0.123671 1.06096e-05  -0.00352478 -0.115508 -6.19888e-06  -0.0113292 -0.123253 -0.000457525  -0.0106828 -0.11511 -0.000410557  -0.00346386 -0.115032 1.23978e-05  -0.0105939 -0.114638 -0.000491023  -0.0129055 -0.14129 -0.00033474  -0.00512683 -0.141362 4.88758e-06  -0.00460315 -0.132863 -1.03712e-05  -0.0128281 -0.140898 -0.000395179  -0.012154 -0.132419 -0.000358224  -0.00454891 -0.13245 7.98702e-06  -0.0120742 -0.13201 -0.00042522  -0.0144256 -0.159348 -0.000291944  -0.00634301 -0.159516 -2.6226e-06  -0.00577199 -0.15074 -1.64509e-05  -0.0143576 -0.159014 -0.000341773  -0.013661 -0.150253 -0.000312448  -0.00572538 -0.150386 1.19209e-06  -0.0135894 -0.149903 -0.000367284  -0.0159646 -0.177778 -0.000255227  -0.00762618 -0.178035 -1.18017e-05  -0.00701618 -0.169034 -2.38419e-05  -0.0159063 -0.177495 -0.000294089  -0.0151914 -0.168509 -0.00027287  -0.0069766 -0.168735 -7.03335e-06  -0.0151302 -0.168213 -0.000317097  -0.017514 -0.196489 -0.000223637  -0.00896382 -0.196824 -2.18153e-05  -0.00832093 -0.18765 -3.21865e-05  -0.0174643 -0.196254 -0.00025475  -0.0167372 -0.187091 -0.000238657  -0.00828922 -0.1874 -1.66893e-05  -0.0166842 -0.186844 -0.000273585  -0.0190638 -0.215399 -0.00019753  -0.0103408 -0.215804 -3.27826e-05  -0.009673 -0.206499 -4.13656e-05  -0.0190228 -0.215205 -0.000220299  -0.0182874 -0.205911 -0.000209808  -0.00964785 -0.206294 -2.70605e-05  -0.0182439 -0.205709 -0.000236511  -0.0206077 -0.234434 -0.000175834  -0.0117464 -0.234897 -4.45843e-05  -0.0110598 -0.225505 -5.14984e-05  -0.0205741 -0.234277 -0.000193  -0.0198352 -0.224892 -0.000186086  -0.0110407 -0.225339 -3.88622e-05  -0.0197995 -0.224729 -0.000205755  -0.0221384 -0.253528 -0.000159264  -0.0131691 -0.254042 -5.65052e-05  -0.0124693 -0.244597 -6.16312e-05  -0.0221119 -0.253402 -0.000170588  -0.0213728 -0.243964 -0.000167012  -0.0124559 -0.244465 -5.04255e-05  -0.0213451 -0.243835 -0.000181079  -0.0236516 -0.272626 -0.000146508  -0.0146003 -0.273181 -6.87838e-05  -0.0138929 -0.263715 -7.236e-05  -0.0236311 -0.272528 -0.000154376  -0.0228956 -0.263067 -0.000152588  -0.0138838 -0.263614 -6.29425e-05  -0.0228736 -0.262968 -0.000161886  -0.0251429 -0.29168 -0.000138283  -0.0160313 -0.292268 -8.11815e-05  -0.015321 -0.282809 -8.28505e-05  -0.0251274 -0.291604 -0.000142336  -0.0243979 -0.282149 -0.000141978  -0.0153158 -0.282732 -7.49826e-05  -0.0243821 -0.282073 -0.000147581  -0.0266104 -0.310653 -0.000133276  -0.0174568 -0.311265 -9.32217e-05  -0.0167468 -0.301836 -9.34601e-05  -0.0265992 -0.310595 -0.000135541  -0.025878 -0.301166 -0.000135541  -0.0167449 -0.301779 -8.73804e-05  -0.0258663 -0.301111 -0.000138402  -0.0280519 -0.329512 -0.000130773  -0.0188711 -0.330142 -0.000105262  -0.0181644 -0.320761 -0.000103712  -0.0280437 -0.329465 -0.00013113  -0.0273325 -0.320086 -0.000131845  -0.0181656 -0.320719 -9.91821e-05  -0.0273247 -0.320045 -0.000133038  -0.0294683 -0.348232 -0.000129223  -0.0202711 -0.34887 -0.000116587  -0.0195711 -0.339557 -0.000113964  -0.0294614 -0.348192 -0.000128269  -0.0287611 -0.338878 -0.000130296  -0.019573 -0.339524 -0.000111341  -0.0287557 -0.338847 -0.0001297  -0.0308614 -0.366773 -0.000128031  -0.0216479 -0.367403 -0.000127792  -0.0209601 -0.358195 -0.000123501  -0.0308521 -0.366727 -0.000124454  -0.030165 -0.357516 -0.000128508  -0.0209627 -0.358163 -0.00012207  -0.0301597 -0.357486 -0.000126243  0.000467971 -0.00248092 0.000420451  0 0 0  0.000889942 -0.00249028 0.0011009  0.00029242 -0.00104433 0.000469208  0 0 0  0.000486448 -0.00221288 0.000557303  0.000155762 -0.000877798 0.000234962  0 0 0  0.000294834 -0.000929952 0.000628948  0.000161141 -0.000772178 0.000317574  0.00134933 -0.00766182 0.000658989  0.0025669 -0.00754046 0.00171232  0.00161681 -0.00513768 0.00112224  0.00140351 -0.00711644 0.00085628  0.000879243 -0.00477082 0.000558972  0.00166632 -0.0047369 0.00145662  0.000916392 -0.00436646 0.000733495  0.00233155 -0.015065 0.000765324  0.00446406 -0.0148595 0.00196791  0.00343212 -0.0115716 0.00146699  0.00239587 -0.0143676 0.000978708  0.00184405 -0.0111044 0.000725269  0.00350991 -0.0109477 0.00187707  0.00190264 -0.010478 0.000931859  0.0032137 -0.024339 0.000783682  0.00624084 -0.0240846 0.00199795  0.00529698 -0.0199888 0.00158381  0.0032804 -0.0235733 0.000995278  0.00279361 -0.0194819 0.000782609  0.00537583 -0.0192549 0.00200069  0.00285915 -0.0187504 0.00099647  0.00390041 -0.0352024 0.000751138  0.00776559 -0.0349423 0.00190818  0.00697243 -0.0300907 0.00156045  0.00396299 -0.034423 0.000952959  0.00358605 -0.029573 0.00077188  0.00703889 -0.0293198 0.00196373  0.00364929 -0.0288054 0.000979066  0.00435305 -0.0474709 0.000694513  0.00898212 -0.0472396 0.00175917  0.00836265 -0.0416837 0.00146258  0.00441152 -0.0467139 0.000881314  0.00415754 -0.0411592 0.000724792  0.00841337 -0.0409192 0.00183761  0.00421757 -0.0403988 0.000919223  0.00456667 -0.0609849 0.00062871  0.00988382 -0.0608127 0.00159073  0.00943446 -0.0546021 0.00133348  0.00462073 -0.0602742 0.000800729  0.00449067 -0.0540686 0.000662208  0.00947195 -0.0538744 0.00167632  0.00454557 -0.0533445 0.000841618  0.00455034 -0.0755959 0.00056088  0.0104828 -0.0754971 0.00141931  0.0101928 -0.0686966 0.00119507  0.00460005 -0.0749434 0.00071609  0.00458741 -0.0681488 0.000594854  0.0102204 -0.0680223 0.00150502  0.00463855 -0.0674785 0.00075829  0.00431931 -0.0911653 0.000493884  0.0107971 -0.091151 0.00125265  0.0106541 -0.0838215 0.00105798  0.00436461 -0.090578 0.000634313  0.00446212 -0.0832564 0.000527143  0.0106745 -0.0832096 0.0013355  0.00450802 -0.0826482 0.000674963  0.00389254 -0.107555 0.000429511  0.0108504 -0.107626 0.00109434  0.0108407 -0.0998376 0.000926256  0.00393271 -0.107033 0.000554085  0.0041306 -0.0992525 0.000461221  0.0108556 -0.099291 0.00117266  0.00417233 -0.0987102 0.000593662  0.00328946 -0.124642 0.000367403  0.0106648 -0.124797 0.000945091  0.0107764 -0.116612 0.000801802  0.00332403 -0.124184 0.000478506  0.00361347 -0.116006 0.000397921  0.0107862 -0.11613 0.00101864  0.00364912 -0.115529 0.000515699  0.00253034 -0.142303 0.000308156  0.0102668 -0.142536 0.000804901  0.010486 -0.134019 0.000684977  0.0025593 -0.141905 0.000404835  0.00292969 -0.133394 0.000337243  0.0104915 -0.1336 0.000873923  0.00296032 -0.132979 0.000440955  0.00163472 -0.16043 0.000252247  0.00967896 -0.160738 0.000674367  0.00999403 -0.151944 0.000575781  0.00165832 -0.16009 0.000336647  0.00210023 -0.151302 0.000279665  0.00999534 -0.151583 0.000738621  0.00212467 -0.150945 0.000370026  0.000622988 -0.178921 0.000199676  0.00892723 -0.179295 0.000553608  0.00932503 -0.170281 0.000474334  0.000640988 -0.178633 0.000271201  0.00114381 -0.169623 0.000225544  0.00932276 -0.169975 0.000613093  0.00116324 -0.169321 0.000303149  -0.000487328 -0.197686 0.000150442  0.00803256 -0.19812 0.000442624  0.00850224 -0.188933 0.000380754  -0.000473976 -0.197445 0.000211358  8.07047e-05 -0.188262 0.000174403  0.00849652 -0.188677 0.000497103  9.47714e-05 -0.18801 0.000240564  -0.00167751 -0.21664 0.000105023  0.00701928 -0.217124 0.000341773  0.00754833 -0.207813 0.000295162  -0.00166857 -0.216441 0.000154853  -0.00107169 -0.207131 0.000127196  0.00753999 -0.207601 0.000391245  -0.00106204 -0.206924 0.00018239  -0.00293207 -0.235712 6.30617e-05  0.00590634 -0.236241 0.000250816  0.00648546 -0.226842 0.000217676  -0.00292683 -0.235551 0.000104189  -0.00229573 -0.226153 8.36849e-05  0.00647426 -0.226671 0.000295162  -0.00229073 -0.225985 0.000128865  -0.00423527 -0.254835 2.55108e-05  0.0047152 -0.2554 0.00017035  0.00533271 -0.245952 0.000148296  -0.00423312 -0.254706 5.76973e-05  -0.00357652 -0.245258 4.37498e-05  0.00532007 -0.245816 0.00020957  -0.00357461 -0.245125 8.01086e-05  -0.00557423 -0.273956 -8.10623e-06  0.00346112 -0.274551 0.000100374  0.00410867 -0.265083 8.73804e-05  -0.00557494 -0.273854 1.69277e-05  -0.00489902 -0.264386 8.22544e-06  0.00409555 -0.264977 0.00013411  -0.00490022 -0.264283 3.65973e-05  -0.00693727 -0.293026 -3.76701e-05  0.00216055 -0.293642 4.01735e-05  0.00283027 -0.284184 3.46899e-05  -0.00694013 -0.292946 -1.9908e-05  -0.00625157 -0.283486 -2.3365e-05  0.00281644 -0.284103 6.91414e-05  -0.00625491 -0.283408 -2.14577e-06  -0.00831461 -0.312009 -6.38962e-05  0.000826836 -0.312642 -1.06096e-05  0.00151205 -0.303214 -1.01328e-05  -0.00831914 -0.311948 -5.11408e-05  -0.00762272 -0.302517 -5.13792e-05  0.00149727 -0.303153 1.35899e-05  -0.00762844 -0.302459 -3.61204e-05  -0.00969744 -0.330873 -8.67844e-05  -0.000527143 -0.331516 -5.43594e-05  0.000167131 -0.322139 -4.8399e-05  -0.00970316 -0.330824 -7.96318e-05  -0.00900435 -0.321444 -7.55787e-05  0.000151873 -0.322094 -3.32594e-05  -0.00901055 -0.321402 -6.58035e-05  -0.0110788 -0.349596 -0.000108123  -0.00189114 -0.350245 -9.46522e-05  -0.00119424 -0.340933 -8.18968e-05  -0.0110841 -0.349554 -0.000105262  -0.0103869 -0.340241 -9.77516e-05  -0.00120831 -0.340898 -7.47442e-05  -0.0103943 -0.340208 -9.27448e-05  -0.0124416 -0.368136 -0.000128865  -0.00324249 -0.368789 -0.000133753  -0.00255585 -0.359576 -0.000113606  -0.0124483 -0.368089 -0.000130773  -0.0117621 -0.35888 -0.000118732  -0.00256991 -0.359541 -0.000114202  -0.0117695 -0.358848 -0.000118256  0.00127012 -0.0032087 0.00124443  0 0 0  0.00177051 -0.0035246 0.0021745  0.000584736 -0.00166273 0.000923634  0 0 0  0.00131372 -0.0029161 0.00163829  0.000424489 -0.00129753 0.000698328  0 0 0  0.000583522 -0.00153911 0.00123203  0.000433877 -0.00118232 0.000932336  0.00370795 -0.00875032 0.00199902  0.0051052 -0.00906485 0.00343823  0.00326268 -0.00651854 0.0022465  0.00381383 -0.0081898 0.00257123  0.00240079 -0.00571734 0.00168192  0.00332801 -0.00607109 0.00290465  0.00247565 -0.00529367 0.0021826  0.00651076 -0.0162866 0.00233674  0.00890625 -0.0165229 0.00395763  0.00689098 -0.013217 0.00296199  0.006623 -0.0155774 0.00295866  0.00509906 -0.0122781 0.00221002  0.00700134 -0.0125644 0.00377595  0.00521305 -0.011637 0.0028131  0.00921065 -0.0255842 0.00238883  0.0124956 -0.0257412 0.00401437  0.0106315 -0.0216788 0.003196  0.0093022 -0.0248091 0.0030005  0.00789282 -0.0207195 0.00238812  0.0107424 -0.0209223 0.00402164  0.00799388 -0.0199782 0.00301063  0.0116 -0.0364405 0.00228524  0.015696 -0.036555 0.00382078  0.014078 -0.0317423 0.00314283  0.0116606 -0.0356538 0.00286281  0.0104519 -0.0308147 0.00235081  0.0141531 -0.030956 0.00393772  0.0105258 -0.030038 0.0029484  0.0136027 -0.0487028 0.00210643  0.0184259 -0.0488148 0.00351965  0.0170802 -0.0432858 0.00294173  0.0136376 -0.0479403 0.00263774  0.0126525 -0.0423924 0.00220156  0.0171194 -0.0425129 0.00367856  0.0126979 -0.0416259 0.00275743  0.0152085 -0.0622215 0.00190091  0.0206912 -0.0623599 0.00317669  0.0196064 -0.056167 0.00267935  0.0152249 -0.0615076 0.00238204  0.0144557 -0.0553014 0.00200534  0.0196162 -0.0554354 0.00335097  0.0144793 -0.0545731 0.00251234  0.0164329 -0.0768481 0.0016923  0.0225092 -0.0770321 0.00283206  0.0216638 -0.0702386 0.00240052  0.0164373 -0.0761929 0.00212431  0.0158683 -0.0693924 0.00179636  0.0216542 -0.0695637 0.00300503  0.0158767 -0.0687187 0.00225341  0.0173004 -0.0924398 0.00148976  0.0239061 -0.0926775 0.00249732  0.0232798 -0.0853524 0.00212491  0.0172968 -0.09185 0.00187314  0.0169109 -0.0845191 0.00158989  0.0232589 -0.0847411 0.00266361  0.0169097 -0.0839084 0.00199783  0.0178385 -0.108856 0.00129843  0.0249124 -0.109152 0.00218165  0.0244844 -0.101364 0.00186229  0.01783 -0.108331 0.00163662  0.0176103 -0.10054 0.0013926  0.0244561 -0.100819 0.00233817  0.0176026 -0.0999948 0.00175357  0.0180758 -0.125969 0.00111854  0.025558 -0.126321 0.00188446  0.0253108 -0.118137 0.00161469  0.0180638 -0.125508 0.00141311  0.0179944 -0.11732 0.00120711  0.0252784 -0.117657 0.00203085  0.0179828 -0.11684 0.00152349  0.0180426 -0.143654 0.00095129  0.0258774 -0.144062 0.00160909  0.0257915 -0.135544 0.00138426  0.0180277 -0.143254 0.00120616  0.0180931 -0.134734 0.00103366  0.0257566 -0.135126 0.00174499  0.0180777 -0.134316 0.00130832  0.0177668 -0.161803 0.000796437  0.0259014 -0.16226 0.00135338  0.0259607 -0.153468 0.00117075  0.0177495 -0.16146 0.00101316  0.0179349 -0.152665 0.000872493  0.0259246 -0.153109 0.00147915  0.0179174 -0.152305 0.00110817  0.0172774 -0.180312 0.000653625  0.0256644 -0.180814 0.00111949  0.0258507 -0.171802 0.000973821  0.0172579 -0.180021 0.000836253  0.017549 -0.171006 0.0007236  0.0258137 -0.171497 0.00123465  0.0175288 -0.170701 0.000923157  0.0166011 -0.19909 0.00052309  0.0251963 -0.19963 0.000905395  0.0254946 -0.190448 0.000793338  0.0165805 -0.198847 0.00067389  0.0169623 -0.18966 0.000586867  0.0254574 -0.190193 0.00101018  0.0169412 -0.189405 0.000753403  0.0157654 -0.218054 0.000405073  0.0245299 -0.218627 0.000713468  0.0249231 -0.209319 0.00063014  0.015744 -0.217852 0.000527859  0.0162035 -0.208541 0.000462651  0.0248863 -0.209109 0.000807285  0.0161806 -0.20833 0.000599265  0.0147946 -0.23713 0.000299931  0.0236933 -0.23773 0.000541687  0.0241671 -0.228337 0.000483632  0.0147729 -0.236967 0.000396729  0.0152969 -0.227569 0.000350952  0.0241313 -0.228167 0.000625253  0.015274 -0.227399 0.000460625  0.0137126 -0.256253 0.000207067  0.0227156 -0.256876 0.000392079  0.0232549 -0.247434 0.000354528  0.0136917 -0.256123 0.000282288  0.0142682 -0.246676 0.00025177  0.0232205 -0.2473 0.000464797  0.0142446 -0.246542 0.000337601  0.0125413 -0.27537 0.000127077  0.0216215 -0.276009 0.000263333  0.0222139 -0.266549 0.000242352  0.0125215 -0.275268 0.000182509  0.0131388 -0.265803 0.000165462  0.022182 -0.266445 0.000325203  0.0131168 -0.265699 0.00023067  0.011301 -0.294435 5.94854e-05  0.0204368 -0.295085 0.000155568  0.0210698 -0.285634 0.000147462  0.011282 -0.294355 9.89437e-05  0.0119309 -0.284899 9.15527e-05  0.0210395 -0.285555 0.000207424  0.0119095 -0.28482 0.000138998  0.0100088 -0.31341 2.74181e-06  0.0191813 -0.314066 6.7234e-05  0.0198452 -0.304646 6.87838e-05  0.00999022 -0.313348 2.83718e-05  0.0106621 -0.303922 2.99215e-05  0.0198166 -0.304588 0.000109434  0.0106418 -0.303864 6.22272e-05  0.00868058 -0.332267 -4.44651e-05  0.0178766 -0.332927 -5.126e-06  0.0185616 -0.323555 4.41074e-06  0.00866294 -0.332217 -2.96831e-05  0.00935006 -0.322841 -2.16961e-05  0.0185339 -0.323511 2.96831e-05  0.00933027 -0.322798 -1.43051e-06  0.00733161 -0.350987 -8.67844e-05  0.0165398 -0.351648 -6.97374e-05  0.0172367 -0.342338 -4.98295e-05  0.00731492 -0.350944 -8.33273e-05  0.00800943 -0.341632 -6.61612e-05  0.0172114 -0.342304 -3.79086e-05  0.00799084 -0.341598 -5.66244e-05  0.00598478 -0.369548 -0.000127554  0.0152016 -0.370222 -0.000131249  0.0158925 -0.360985 -9.9659e-05  0.00597095 -0.3695 -0.00013423  0.0066576 -0.360277 -0.000107884  0.0158677 -0.360953 -0.000100374  0.00663972 -0.360244 -0.000109434  0.00223316 -0.00468105 0.00207722  0 0 0  0.00286378 -0.00545102 0.00333869  0.000984699 -0.00285417 0.00141466  0 0 0  0.00228365 -0.00436181 0.00272787  0.000733234 -0.0021475 0.00114787  0 0 0  0.000939146 -0.00266838 0.00186336  0.00074476 -0.00203425 0.00152063  0.00649607 -0.0108135 0.00337601  0.00830555 -0.0116781 0.00525868  0.00539365 -0.00893348 0.00346148  0.0066309 -0.0102139 0.00433147  0.00421965 -0.00756985 0.00282633  0.00539866 -0.00842708 0.00448227  0.00431469 -0.00710011 0.00366998  0.0112584 -0.0184568 0.00393653  0.0141695 -0.0191326 0.00602782  0.011131 -0.0158753 0.00452352  0.011407 -0.0177104 0.0049783  0.0088779 -0.0144165 0.0037291  0.0112645 -0.015183 0.00577831  0.00902161 -0.013743 0.00474298  0.0157971 -0.0276867 0.00401247  0.0195745 -0.0282189 0.00606894  0.0168004 -0.0242605 0.004848  0.0159131 -0.0268812 0.00503075  0.0135795 -0.0228646 0.00401592  0.0169341 -0.0234623 0.00610626  0.0137143 -0.0220889 0.00505662  0.0198614 -0.0384488 0.00382936  0.0243962 -0.0389084 0.00577092  0.0219686 -0.0341824 0.00475025  0.019925 -0.0376436 0.00478816  0.017898 -0.0328693 0.00394201  0.0220622 -0.0333662 0.00595033  0.0179834 -0.0320694 0.00493598  0.023374 -0.0506277 0.00352824  0.0285934 -0.0510596 0.00530934  0.0265306 -0.0455957 0.00444186  0.0233957 -0.0498566 0.00440753  0.0216887 -0.0443571 0.00368702  0.0265715 -0.0448068 0.00555229  0.0217286 -0.0435767 0.00460851  0.0263336 -0.0640838 0.00318372  0.0321774 -0.0645213 0.00479507  0.0304567 -0.0583722 0.00404692  0.0263261 -0.0633671 0.00397968  0.0249231 -0.0571932 0.00335813  0.0304614 -0.0576345 0.00505745  0.0249272 -0.0564585 0.004197  0.0287647 -0.0786642 0.00283527  0.0351729 -0.0791228 0.0042733  0.0337685 -0.072362 0.00362706  0.0287392 -0.0780097 0.00354719  0.0276141 -0.0712304 0.00300872  0.0337461 -0.0716865 0.0045352  0.0275957 -0.0705553 0.00376308  0.0306995 -0.09422 0.00249708  0.0376134 -0.0947093 0.00376868  0.0364974 -0.0874085 0.00321233  0.0306638 -0.0936326 0.00312829  0.0297936 -0.086317 0.00266385  0.0364615 -0.0868002 0.00401986  0.0297608 -0.0857067 0.00333548  0.032174 -0.110607 0.00217807  0.0395333 -0.111129 0.00329018  0.0386814 -0.103362 0.00281632  0.0321331 -0.110085 0.0027318  0.0314933 -0.102306 0.00233507  0.0386356 -0.102821 0.00352752  0.0314535 -0.101762 0.0029273  0.0332252 -0.127693 0.00187898  0.0409726 -0.128247 0.00284195  0.0403606 -0.120082 0.00244331  0.0331814 -0.127236 0.00236034  0.032752 -0.119058 0.00202549  0.0403115 -0.119607 0.00306344  0.0327079 -0.11858 0.00254273  0.0338908 -0.145354 0.0016017  0.04197 -0.145937 0.00242567  0.0415756 -0.13744 0.00209606  0.0338461 -0.144956 0.00201488  0.0336052 -0.136446 0.00173759  0.0415237 -0.137026 0.00263107  0.0335597 -0.136031 0.00218463  0.0342084 -0.163477 0.00134504  0.0425687 -0.164087 0.00204074  0.0423692 -0.155315 0.00177431  0.0341635 -0.163137 0.00169611  0.0340929 -0.154352 0.00147045  0.0423176 -0.154959 0.00222981  0.0340462 -0.153994 0.00185227  0.034215 -0.18196 0.00111043  0.0428075 -0.182591 0.00168848  0.0427822 -0.1736 0.00147855  0.0341702 -0.181671 0.00140333  0.0342498 -0.172667 0.00122511  0.0427305 -0.173299 0.00186145  0.0342035 -0.172364 0.00154674  0.0339463 -0.20071 0.000895977  0.0427281 -0.201359 0.00136733  0.0428563 -0.192198 0.00120819  0.0339026 -0.200469 0.00113726  0.0341146 -0.191294 0.00100029  0.0428056 -0.191946 0.00152421  0.0340689 -0.191041 0.00126696  0.0334384 -0.219644 0.000703692  0.0423689 -0.220307 0.0010798  0.04263 -0.211021 0.000963926  0.0333965 -0.219445 0.000897288  0.0337216 -0.210146 0.000797153  0.0425808 -0.210813 0.00121987  0.0336776 -0.209938 0.00101399  0.0327241 -0.23869 0.000532627  0.0417695 -0.239363 0.000823617  0.0421443 -0.229991 0.000745654  0.0326848 -0.238529 0.000684857  0.033107 -0.229145 0.000615358  0.0420973 -0.229824 0.000947475  0.0330646 -0.228977 0.000787854  0.0318367 -0.257784 0.000383615  0.0409656 -0.258462 0.000601768  0.0414348 -0.249041 0.000554085  0.0318 -0.257656 0.00049901  0.0323017 -0.248222 0.000455737  0.0413909 -0.248909 0.000708699  0.0322621 -0.248089 0.000588894  0.0308073 -0.276872 0.000256419  0.0399933 -0.277552 0.000412345  0.0405397 -0.268112 0.000388741  0.0307732 -0.276771 0.000341177  0.0313401 -0.267319 0.000317216  0.0404987 -0.26801 0.000502586  0.0313029 -0.267217 0.000416636  0.0296648 -0.295907 0.000150681  0.0388861 -0.296587 0.000257492  0.0394924 -0.287155 0.000250936  0.0296335 -0.295829 0.000208855  0.0302503 -0.286386 0.000201106  0.0394545 -0.287078 0.000330687  0.030216 -0.286308 0.000271916  0.0284357 -0.314856 6.53267e-05  0.0376766 -0.315533 0.000132918  0.0383282 -0.306129 0.000138998  0.0284064 -0.314796 0.000103235  0.0290616 -0.305382 0.000105858  0.0382929 -0.306072 0.000191092  0.0290296 -0.305324 0.000153303  0.0271447 -0.333691 -3.45707e-06  0.0363944 -0.334365 3.73125e-05  0.0370765 -0.325006 5.11408e-05  0.0271175 -0.333643 1.74046e-05  0.0277979 -0.324276 2.92063e-05  0.0370426 -0.324962 8.17776e-05  0.0277686 -0.324233 5.80549e-05  0.0258143 -0.352401 -6.2108e-05  0.0350659 -0.353072 -4.27961e-05  0.0357668 -0.343767 -1.85966e-05  0.0257885 -0.352358 -5.51939e-05  0.0264854 -0.34305 -3.34978e-05  0.0357349 -0.343732 -4.17233e-06  0.0264568 -0.343016 -1.95503e-05  0.0244722 -0.370993 -0.000117898  0.0337195 -0.371672 -0.000116587  0.0344241 -0.362414 -7.98702e-05  0.0244467 -0.370948 -0.000124335  0.0251434 -0.361698 -9.05991e-05  0.0343933 -0.362382 -7.96318e-05  0.0251164 -0.361666 -9.08375e-05  0.00393063 -0.00736904 0.00306547  0 0 0  0.00589955 -0.0088954 0.00461447  0.00254911 -0.00564837 0.00200629  0 0 0  0.0039362 -0.00695819 0.0040735  0.00127998 -0.00386161 0.00168598  0 0 0  0.00237777 -0.0051958 0.00271571  0.00126766 -0.0035516 0.00223231  0.0102858 -0.0140491 0.00483871  0.0130203 -0.0153772 0.00715363  0.0095378 -0.0125585 0.00472927  0.0104707 -0.0134445 0.00620246  0.00701557 -0.0106133 0.00412023  0.00936581 -0.0119387 0.00610816  0.00707629 -0.0100833 0.00534987  0.0170771 -0.0215514 0.00557911  0.0207169 -0.022545 0.0080719  0.0168566 -0.01952 0.00606048  0.0172433 -0.020757 0.00707281  0.0137157 -0.0176082 0.00531471  0.0169175 -0.0187047 0.00776863  0.013883 -0.0168639 0.00677216  0.0234012 -0.0305808 0.0056597  0.0278373 -0.0314011 0.00815332  0.02422 -0.0276034 0.00647533  0.0235384 -0.0297326 0.00711524  0.0203196 -0.0258481 0.00568044  0.0243619 -0.0267522 0.00819898  0.0204695 -0.0250311 0.00717056  0.029069 -0.0411563 0.00540113  0.0342304 -0.0418922 0.00773227  0.0310098 -0.0372959 0.00634539  0.0291525 -0.0403279 0.00676692  0.0263252 -0.0356628 0.00556195  0.0311322 -0.0364413 0.00798368  0.0264334 -0.0348317 0.00697839  0.0340238 -0.0531896 0.00497675  0.0398455 -0.0538916 0.00713015  0.0370524 -0.0485188 0.00594127  0.0340639 -0.052408 0.00622606  0.0316369 -0.0469857 0.00520182  0.0371347 -0.0477129 0.0074507  0.0316949 -0.0461903 0.00651109  0.0382816 -0.0665264 0.00449741  0.0447009 -0.0672275 0.00643039  0.0423194 -0.0611456 0.00541902  0.0382887 -0.0658088 0.00562668  0.0362398 -0.0596914 0.00474119  0.0423666 -0.060403 0.00678706  0.036261 -0.0589526 0.00593114  0.0418673 -0.0810106 0.00400567  0.0488222 -0.0817154 0.00574076  0.0468313 -0.0750086 0.00486243  0.0418545 -0.0803602 0.00501251  0.0401579 -0.0736219 0.00425124  0.0468509 -0.0743363 0.00608718  0.0401517 -0.0729495 0.00531936  0.0448223 -0.0964788 0.00353134  0.0522525 -0.0971986 0.00505424  0.0506183 -0.0899431 0.00430894  0.0447965 -0.0958984 0.00442243  0.0434226 -0.0886182 0.00376606  0.0506215 -0.089343 0.00539553  0.0434014 -0.0880143 0.00471461  0.0471859 -0.112789 0.00307953  0.0550295 -0.113518 0.00441909  0.0537287 -0.105793 0.00377977  0.0471537 -0.112275 0.00385833  0.0460775 -0.104525 0.0033021  0.0537196 -0.105262 0.0047338  0.0460454 -0.103989 0.0041368  0.0490052 -0.129799 0.00265813  0.0572052 -0.13054 0.00380993  0.0562052 -0.122414 0.00328052  0.0489684 -0.129349 0.00333333  0.0481625 -0.121202 0.0028652  0.05619 -0.12195 0.00411057  0.0481263 -0.120732 0.00359166  0.050323 -0.147389 0.00226521  0.0588228 -0.148135 0.00325561  0.0581012 -0.139675 0.00281537  0.0502852 -0.146998 0.00284278  0.049726 -0.138516 0.0024581  0.0580804 -0.139273 0.00352907  0.0496861 -0.138108 0.00308394  0.0511885 -0.165439 0.00190377  0.0599369 -0.166192 0.00273359  0.0594629 -0.157457 0.00238395  0.0511492 -0.165106 0.0023917  0.0508115 -0.156351 0.00208068  0.0594403 -0.157114 0.00299001  0.0507712 -0.156001 0.00261259  0.0516442 -0.183854 0.00157177  0.0605915 -0.184605 0.0022645  0.0603439 -0.17565 0.00198793  0.0516053 -0.183571 0.00197685  0.0514668 -0.174595 0.00173402  0.0603179 -0.17536 0.00249434  0.0514251 -0.174299 0.00217998  0.0517371 -0.202534 0.00127065  0.0608402 -0.203284 0.00182998  0.0607904 -0.194159 0.00162578  0.0516981 -0.202298 0.00160086  0.0517349 -0.193154 0.00141716  0.0607641 -0.193918 0.0020417  0.0516948 -0.192907 0.00178397  0.0515089 -0.221403 0.000999928  0.0607271 -0.222146 0.0014466  0.0608537 -0.212894 0.00129902  0.0514715 -0.221209 0.00126278  0.0516623 -0.211938 0.00113118  0.0608252 -0.212697 0.00163305  0.0516218 -0.211735 0.00142705  0.0510044 -0.240383 0.000759959  0.060303 -0.241118 0.00110245  0.0605791 -0.23178 0.00100744  0.0509684 -0.240227 0.000962853  0.0512905 -0.230871 0.000875831  0.0605516 -0.231623 0.00126851  0.0512521 -0.230708 0.00110781  0.0502634 -0.259417 0.000552058  0.0596094 -0.26014 0.000807405  0.060015 -0.25075 0.000752091  0.0502298 -0.259292 0.000703692  0.0506628 -0.249885 0.000651836  0.0599861 -0.250627 0.000948787  0.0506256 -0.249757 0.000828266  0.0493279 -0.278445 0.000375628  0.0586956 -0.279156 0.0005548  0.0592055 -0.269746 0.000532508  0.0492952 -0.278349 0.000482321  0.0498197 -0.268923 0.000459433  0.0591779 -0.269653 0.000674367  0.0497849 -0.268824 0.000587463  0.0482364 -0.297432 0.000231743  0.0576015 -0.298128 0.000352979  0.0581961 -0.288721 0.000350952  0.0482049 -0.297356 0.000303626  0.0488009 -0.287935 0.000299454  0.0581672 -0.288651 0.000447273  0.0487669 -0.28786 0.000387788  0.0470276 -0.316334 0.000118494  0.0563743 -0.317016 0.000194073  0.0570312 -0.307636 0.000206232  0.0469966 -0.316276 0.000161648  0.047646 -0.306883 0.000171185  0.0570025 -0.307585 0.000266671  0.0476139 -0.306828 0.000227571  0.0457377 -0.335138 3.26633e-05  0.0550561 -0.33581 7.86781e-05  0.0557544 -0.326466 9.66787e-05  0.045706 -0.33509 5.60284e-05  0.046392 -0.325738 7.22408e-05  0.0557225 -0.326427 0.000130653  0.0463591 -0.325696 0.000104666  0.0443995 -0.353829 -3.55244e-05  0.0536892 -0.354493 -9.77516e-06  0.0544086 -0.345196 1.60933e-05  0.0443687 -0.353786 -2.86102e-05  0.0450747 -0.344485 -3.21865e-06  0.0543766 -0.345165 3.12328e-05  0.045042 -0.344451 1.18017e-05  0.0430362 -0.372438 -9.90629e-05  0.0523067 -0.373095 -8.69036e-05  0.0530348 -0.363834 -4.81606e-05  0.0430059 -0.372389 -0.000105023  0.0437219 -0.363128 -6.71148e-05  0.0529985 -0.363803 -4.60148e-05  0.0436893 -0.363096 -6.7234e-05  -0.00619063 -0.00895868 -0.00272322  -0.00280948 -0.00570699 -0.000963569  0 0 0  -0.00394294 -0.00724076 -0.00150108  0 0 0  -0.00278801 -0.00526903 -0.001917  -0.000940446 -0.00267869 -0.0006814  0 0 0  -0.00267282 -0.00544304 -0.00149286  -0.00396372 -0.0068902 -0.0023042  -0.00130382 -0.00371281 -0.000812531  0 0 0  -0.000962794 -0.00258289 -0.00105405  -0.00130744 -0.00358314 -0.00124407  -0.0132714 -0.0149272 -0.00427508  -0.00968422 -0.0121192 -0.0023613  -0.0102272 -0.0134818 -0.00245869  -0.00796358 -0.0114407 -0.00315583  -0.0051944 -0.00847355 -0.00172281  -0.00970386 -0.0118052 -0.00356412  -0.0102276 -0.0130696 -0.00373971  -0.00699276 -0.0101559 -0.00205755  -0.00522622 -0.00824689 -0.00264597  -0.00697795 -0.0098949 -0.00317097  -0.0207414 -0.0218716 -0.004987  -0.0169658 -0.018734 -0.00311983  -0.0168789 -0.0206771 -0.0028981  -0.0136486 -0.0187765 -0.00371599  -0.0107519 -0.0153226 -0.00232232  -0.0170079 -0.0181997 -0.00475073  -0.0169096 -0.0202311 -0.00438142  -0.0135354 -0.0169176 -0.00273824  -0.0107703 -0.0149206 -0.00351262  -0.0135503 -0.0164672 -0.00413656  -0.0280947 -0.0301137 -0.00510204  -0.0244393 -0.0262947 -0.00338733  -0.0234455 -0.0292208 -0.00298309  -0.0192899 -0.0275106 -0.00381339  -0.0164712 -0.0233915 -0.0025394  -0.0244578 -0.0258082 -0.00509596  -0.0234644 -0.0287272 -0.00447571  -0.0201996 -0.0247498 -0.00297761  -0.0164909 -0.0229562 -0.00381029  -0.0202211 -0.0242939 -0.00448179  -0.0350273 -0.0398172 -0.00488138  -0.0316022 -0.0352871 -0.00335312  -0.029634 -0.0391786 -0.00286162  -0.0246507 -0.0376991 -0.00363672  -0.0220081 -0.0328935 -0.00251257  -0.0316262 -0.0347781 -0.00502598  -0.0296347 -0.0386907 -0.0042696  -0.0265912 -0.0340118 -0.00294316  -0.0220082 -0.0324253 -0.00374925  -0.0266023 -0.0335285 -0.00439918  -0.0414467 -0.0509283 -0.00448537  -0.0382974 -0.0456805 -0.00314867  -0.0353931 -0.0504886 -0.00263727  -0.0296612 -0.0492441 -0.00333941  -0.0272249 -0.0437545 -0.0023545  -0.0383028 -0.0452073 -0.00469315  -0.0353665 -0.0500303 -0.00392067  -0.0325683 -0.044653 -0.00275838  -0.0272 -0.043306 -0.0034982  -0.0325548 -0.0441949 -0.00410795  -0.0473512 -0.0633279 -0.0040307  -0.0444757 -0.0574175 -0.00286853  -0.0407039 -0.063061 -0.00237536  -0.0343141 -0.0620419 -0.00299644  -0.0320772 -0.0559154 -0.00214136  -0.0444643 -0.0569758 -0.00426447  -0.0406585 -0.0626397 -0.00351918  -0.0381017 -0.0566135 -0.00250936  -0.0320306 -0.0554928 -0.00317109  -0.0380655 -0.0561837 -0.00372255  -0.0527627 -0.0768821 -0.0035702  -0.0501464 -0.0703646 -0.0025655  -0.0455959 -0.0767595 -0.00211036  -0.0386307 -0.0759575 -0.00265419  -0.036577 -0.0692471 -0.00191379  -0.0501179 -0.0699732 -0.00379777  -0.0455353 -0.0763839 -0.00311637  -0.0432 -0.0697626 -0.00224245  -0.0365127 -0.0688672 -0.00282478  -0.0431463 -0.0693791 -0.00331759  -0.0577137 -0.0914534 -0.00313008  -0.0553329 -0.0843994 -0.00226796  -0.0500894 -0.0914638 -0.00185716  -0.0426319 -0.0908611 -0.00232816  -0.0407401 -0.0836335 -0.00169253  -0.0552956 -0.0840496 -0.0033493  -0.0500234 -0.0911296 -0.00273263  -0.0478883 -0.0839824 -0.00198197  -0.0406687 -0.0832922 -0.00248933  -0.0478255 -0.0836388 -0.0029211  -0.0622361 -0.106913 -0.00272369  -0.0600711 -0.0993845 -0.00198817  -0.0542201 -0.107038 -0.00162315  -0.0463423 -0.106623 -0.00202787  -0.0445973 -0.0989388 -0.00148547  -0.0600274 -0.0990832 -0.00292206  -0.0541518 -0.106747 -0.00237811  -0.0521972 -0.0991351 -0.00173783  -0.0445217 -0.0986414 -0.00217569  -0.0521303 -0.0988376 -0.00255251  -0.0663612 -0.123137 -0.0023495  -0.0643914 -0.115201 -0.0017302  -0.0580094 -0.12337 -0.0014087  -0.0497798 -0.123123 -0.00175333  -0.0481654 -0.115047 -0.00129545  -0.0643482 -0.114937 -0.00253463  -0.0579447 -0.123115 -0.00205362  -0.0561537 -0.115105 -0.00151348  -0.0480937 -0.114786 -0.00188792  -0.0560879 -0.114844 -0.00221169  -0.0701172 -0.140011 -0.00201178  -0.0683271 -0.131725 -0.00149536  -0.0614874 -0.140336 -0.00121474  -0.0529646 -0.140245 -0.00150442  -0.0514714 -0.131834 -0.00112271  -0.0682845 -0.131502 -0.00217617  -0.061426 -0.140119 -0.00175905  -0.0597848 -0.131766 -0.00130928  -0.0514024 -0.131612 -0.00162625  -0.0597223 -0.131545 -0.0019033  -0.0735303 -0.157428 -0.00170374  -0.0719039 -0.14885 -0.00128233  -0.0646704 -0.157838 -0.00103927  -0.0559096 -0.157884 -0.00128007  -0.0545266 -0.149196 -0.000966907  -0.0718664 -0.148658 -0.00185585  -0.0646158 -0.157652 -0.00149298  -0.0631121 -0.149015 -0.00112462  -0.0544655 -0.149004 -0.0013895  -0.0630555 -0.148824 -0.00162232  -0.0766246 -0.175289 -0.00142968  -0.0751507 -0.166469 -0.00109053  -0.0675842 -0.175771 -0.000881791  -0.0586323 -0.17594 -0.00107789  -0.0573535 -0.167024 -0.000826597  -0.0751164 -0.166311 -0.00156271  -0.0675349 -0.175614 -0.0012536  -0.0661583 -0.166742 -0.000958323  -0.0572975 -0.166864 -0.00117648  -0.0661076 -0.166585 -0.00137067  -0.0794256 -0.193502 -0.00118196  -0.0780898 -0.18449 -0.000918508  -0.0702441 -0.194047 -0.000741243  -0.0611453 -0.194323 -0.00089848  -0.0599608 -0.185229 -0.000700951  -0.0780618 -0.184357 -0.00130379  -0.0702019 -0.193915 -0.00104046  -0.0689424 -0.184859 -0.000809312  -0.0599138 -0.185094 -0.000985503  -0.068898 -0.184726 -0.00114346  -0.081956 -0.211983 -0.000966191  -0.0807478 -0.202821 -0.00076592  -0.0726738 -0.212579 -0.000617743  -0.0634652 -0.212949 -0.000739574  -0.0623701 -0.203718 -0.000589967  -0.0807233 -0.202715 -0.00107038  -0.0726371 -0.212471 -0.000851989  -0.0714852 -0.203272 -0.000677109  -0.0623282 -0.203609 -0.000816345  -0.0714468 -0.203166 -0.000943303  -0.0842409 -0.230654 -0.000776291  -0.0831474 -0.221385 -0.000632524  -0.0748904 -0.231296 -0.000510693  -0.0656061 -0.231744 -0.000602961  -0.0645903 -0.222417 -0.00049305  -0.0831286 -0.221299 -0.000869036  -0.0748596 -0.231207 -0.000689149  -0.0738051 -0.221907 -0.000561833  -0.0645567 -0.222328 -0.000668406  -0.0737733 -0.22182 -0.000767112  -0.0863056 -0.249449 -0.000617504  -0.0853152 -0.240107 -0.000518084  -0.0769181 -0.250124 -0.000419736  -0.0675857 -0.250638 -0.00048542  -0.0666437 -0.24125 -0.000409961  -0.085299 -0.240042 -0.000693083  -0.0768917 -0.250053 -0.000549793  -0.0759249 -0.240686 -0.00046289  -0.0666146 -0.241181 -0.000541329  -0.0758979 -0.240619 -0.00061667  -0.0881782 -0.268307 -0.000483632  -0.0872769 -0.258926 -0.00042212  -0.0787771 -0.269009 -0.00034523  -0.0694208 -0.269575 -0.000390649  -0.068542 -0.260157 -0.000340581  -0.087265 -0.258874 -0.000548124  -0.0787551 -0.268951 -0.000436306  -0.0778646 -0.25955 -0.000380039  -0.0685198 -0.260103 -0.000435114  -0.0778425 -0.259498 -0.000489712  -0.0898874 -0.287176 -0.000381589  -0.0890627 -0.277782 -0.00034523  -0.0804942 -0.287895 -0.000287056  -0.0711305 -0.288501 -0.00031364  -0.0703096 -0.279081 -0.000285029  -0.089051 -0.277744 -0.000429153  -0.0804749 -0.287849 -0.000345945  -0.0796502 -0.278441 -0.000313759  -0.0702896 -0.27904 -0.000349402  -0.0796311 -0.278402 -0.000388026  -0.0914655 -0.306015 -0.00030303  -0.0907011 -0.296631 -0.000286818  -0.0820937 -0.306745 -0.000244021  -0.0727353 -0.307379 -0.000258088  -0.0719593 -0.297979 -0.000242352  -0.0906916 -0.296602 -0.000339866  -0.0820765 -0.306707 -0.000279784  -0.0813046 -0.297314 -0.000263214  -0.0719445 -0.297947 -0.000283241  -0.0812886 -0.297284 -0.000309706  -0.0929472 -0.324791 -0.000251174  -0.0922282 -0.315434 -0.000245214  -0.0836046 -0.325522 -0.000213623  -0.0742559 -0.326174 -0.000215292  -0.0735192 -0.31681 -0.000211477  -0.0922158 -0.315413 -0.000275016  -0.0835879 -0.325491 -0.000231504  -0.0828574 -0.31613 -0.000227094  -0.0735049 -0.316786 -0.000234723  -0.0828414 -0.316108 -0.000253439  -0.0943718 -0.343488 -0.000212193  -0.093677 -0.334167 -0.000216842  -0.0850563 -0.344214 -0.00019145  -0.0757153 -0.344873 -0.000185013  -0.0750039 -0.335554 -0.000188947  -0.0936646 -0.33415 -0.000230432  -0.0850377 -0.344185 -0.000198007  -0.0843334 -0.334866 -0.000201702  -0.0749919 -0.335534 -0.000199199  -0.0843189 -0.334849 -0.000213623  -0.0957749 -0.362126 -0.000184417  -0.0950935 -0.352827 -0.000196457  -0.0864742 -0.362842 -0.000171661  -0.0771418 -0.363487 -0.000154972  -0.076443 -0.354205 -0.000170588  -0.0950732 -0.35281 -0.000199676  -0.0864558 -0.362814 -0.00016582  -0.0857663 -0.35352 -0.000181437  -0.0764287 -0.354186 -0.000169516  -0.0857482 -0.353502 -0.000181079  -0.00211342 -0.00435537 -0.00101459  0 0 0  -0.00155723 -0.00344153 -0.00124383  -0.000531614 -0.00149955 -0.000441432  0 0 0  -0.00211067 -0.00419664 -0.0015558  -0.000702418 -0.00197521 -0.000552297  0 0 0  -0.000528947 -0.00144276 -0.000683784  -0.000705078 -0.00191325 -0.000857592  -0.00606747 -0.0104282 -0.00170159  -0.00454882 -0.00912157 -0.00203907  -0.00290835 -0.0062602 -0.00111425  -0.00612198 -0.0101241 -0.00258315  -0.00394328 -0.0071864 -0.00140369  -0.00293285 -0.00604632 -0.00169396  -0.00396675 -0.0069627 -0.00214303  -0.0107471 -0.0179698 -0.00203514  -0.00820053 -0.0166006 -0.00242198  -0.00631362 -0.0129887 -0.00151205  -0.0107724 -0.0175591 -0.00305963  -0.00837222 -0.0140048 -0.00190639  -0.0063355 -0.0126589 -0.00227809  -0.00841221 -0.0136512 -0.00288033  -0.015458 -0.026942 -0.00210714  -0.0119569 -0.0256637 -0.0024966  -0.0100725 -0.0213587 -0.00166583  -0.0154782 -0.0264842 -0.00314784  -0.0131085 -0.022263 -0.00209522  -0.0100797 -0.0209422 -0.0024904  -0.0131386 -0.0218355 -0.0031389  -0.0200188 -0.0373202 -0.00202441  -0.0156296 -0.0361912 -0.00239122  -0.0138227 -0.0311893 -0.00165582  -0.0199995 -0.0368586 -0.00300694  -0.0177691 -0.0319461 -0.00207877  -0.0138129 -0.0307491 -0.00246036  -0.0177667 -0.0314943 -0.00309622  -0.024307 -0.0490277 -0.00186694  -0.0191251 -0.0480725 -0.00219858  -0.0174365 -0.0424045 -0.00155604  -0.0242628 -0.0485858 -0.00276327  -0.0221955 -0.0430015 -0.00195098  -0.0173995 -0.0419689 -0.00230169  -0.0221652 -0.0425588 -0.00289249  -0.0283206 -0.0619581 -0.00168192  -0.0224386 -0.0611793 -0.00197542  -0.0208604 -0.0548897 -0.00141799  -0.0282547 -0.0615498 -0.00248003  -0.0263479 -0.0553354 -0.00177574  -0.0208047 -0.0544784 -0.00208855  -0.0262917 -0.0549198 -0.00262308  -0.0320671 -0.0759886 -0.00149632  -0.0255744 -0.0753821 -0.0017513  -0.0240974 -0.0685268 -0.0012697  -0.0319897 -0.0756186 -0.00219858  -0.0302241 -0.0688312 -0.00158846  -0.0240273 -0.0681499 -0.00186276  -0.0301532 -0.0684527 -0.00233817  -0.035567 -0.0909928 -0.00131893  -0.0285475 -0.0905502 -0.00153911  -0.0271564 -0.0831906 -0.00112557  -0.0354848 -0.0906635 -0.00192928  -0.0338459 -0.0833647 -0.00140619  -0.0270805 -0.0828513 -0.00164342  -0.0337659 -0.0830254 -0.00206113  -0.0388396 -0.106846 -0.00115621  -0.0313673 -0.106557 -0.00134337  -0.0300529 -0.0987546 -0.000991225  -0.038758 -0.106555 -0.00168312  -0.0372287 -0.0988085 -0.00123584  -0.0299754 -0.0984546 -0.00143921  -0.0371481 -0.0985095 -0.00180364  -0.0419005 -0.123427 -0.00100732  -0.034044 -0.12328 -0.00116551  -0.0327967 -0.115097 -0.00086844  -0.0418229 -0.123173 -0.0014565  -0.0403947 -0.11504 -0.00108016  -0.0327232 -0.114834 -0.00125241  -0.0403155 -0.114779 -0.00156701  -0.0447637 -0.140623 -0.000873327  -0.0365825 -0.140606 -0.0010047  -0.0353988 -0.1321 -0.000757337  -0.044692 -0.140403 -0.00125349  -0.0433539 -0.131942 -0.000938654  -0.0353296 -0.131873 -0.00108325  -0.0432811 -0.131717 -0.00135267  -0.0474406 -0.158326 -0.000752091  -0.0389901 -0.158428 -0.000860214  -0.0378646 -0.149654 -0.00065732  -0.0473757 -0.158139 -0.00106847  -0.0461236 -0.149405 -0.000811219  -0.0378023 -0.149459 -0.000930548  -0.0460562 -0.149213 -0.00115848  -0.0499419 -0.17644 -0.000643849  -0.0412698 -0.176646 -0.000730515  -0.0402008 -0.167656 -0.000567555  -0.0498846 -0.176281 -0.000904083  -0.0487105 -0.167325 -0.00069654  -0.0401449 -0.167492 -0.000793576  -0.0486513 -0.167163 -0.00098443  -0.0522777 -0.194872 -0.00054729  -0.0434287 -0.195171 -0.000615597  -0.0424119 -0.186012 -0.000487566  -0.0522276 -0.194739 -0.000756383  -0.0511289 -0.185609 -0.000594139  -0.0423642 -0.185874 -0.000671148  -0.0510757 -0.185474 -0.000828147  -0.0544583 -0.213541 -0.00046289  -0.04547 -0.21392 -0.000514746  -0.0445046 -0.204634 -0.000417233  -0.0544155 -0.213429 -0.000627756  -0.0533845 -0.204169 -0.000503659  -0.044463 -0.204521 -0.000563383  -0.0533401 -0.204058 -0.000690341  -0.0564954 -0.232368 -0.000389695  -0.0474024 -0.232817 -0.000427723  -0.046484 -0.223444 -0.000355959  -0.0564587 -0.232278 -0.000515342  -0.0554929 -0.222926 -0.000424862  -0.0464497 -0.223352 -0.000469327  -0.0554543 -0.222836 -0.000569701  -0.0584002 -0.251291 -0.000328064  -0.0492308 -0.251797 -0.000353932  -0.0483572 -0.242372 -0.000304103  -0.0583694 -0.251217 -0.000420928  -0.0574613 -0.24181 -0.000357509  -0.0483284 -0.242299 -0.000389099  -0.0574298 -0.241738 -0.000466466  -0.0601861 -0.270249 -0.000277519  -0.0509653 -0.270801 -0.000293851  -0.050132 -0.261355 -0.00026083  -0.0601606 -0.270189 -0.000342369  -0.0593057 -0.260756 -0.000301361  -0.0501094 -0.261297 -0.000321984  -0.0592787 -0.260701 -0.000380039  -0.0618665 -0.289192 -0.00023818  -0.0526133 -0.289782 -0.000246048  -0.0518177 -0.28034 -0.000226498  -0.0618458 -0.289144 -0.000281453  -0.0610361 -0.279712 -0.000256419  -0.0517988 -0.280296 -0.000268459  -0.0610154 -0.27967 -0.000310421  -0.0634575 -0.30808 -0.000208139  -0.0541859 -0.308698 -0.000209808  -0.0534227 -0.299282 -0.000200033  -0.0634396 -0.308041 -0.000234127  -0.0626709 -0.298633 -0.000221848  -0.0534086 -0.299248 -0.000226617  -0.0626526 -0.2986 -0.000256419  -0.0649731 -0.326883 -0.000186443  -0.0556927 -0.327519 -0.000182629  -0.0549579 -0.318146 -0.000180483  -0.0649581 -0.326849 -0.000200033  -0.0642216 -0.317481 -0.000196457  -0.0549464 -0.31812 -0.000195384  -0.0642071 -0.317456 -0.000216246  -0.0664318 -0.345583 -0.000169635  -0.0571477 -0.346226 -0.000160933  -0.0564356 -0.336908 -0.000166059  -0.0664177 -0.345552 -0.000172138  -0.0657072 -0.336233 -0.000177503  -0.0564258 -0.336886 -0.000171661  -0.0656936 -0.336213 -0.000185966  -0.0678577 -0.364183 -0.000154495  -0.0585725 -0.364806 -0.000141025  -0.0578694 -0.355554 -0.000153542  -0.0678453 -0.36415 -0.000146985  -0.067143 -0.354882 -0.000161767  -0.0578601 -0.355532 -0.000150323  -0.067132 -0.354862 -0.000159383  -0.00106997 -0.00307426 -0.000605345  0 0 0  -0.000666127 -0.00262168 -0.000617504  -0.000226058 -0.000999928 -0.000222206  0 0 0  -0.0010853 -0.00293526 -0.000925064  -0.000362709 -0.00118753 -0.000331759  0 0 0  -0.000225846 -0.000951707 -0.000340462  -0.000363674 -0.00113449 -0.000511527  -0.00319377 -0.00868902 -0.00100517  -0.00200588 -0.00797525 -0.00101149  -0.0012624 -0.00519994 -0.000555992  -0.00322972 -0.0084208 -0.00152099  -0.00203253 -0.00560561 -0.000832319  -0.00126959 -0.00502223 -0.000843644  -0.00206137 -0.00541294 -0.00126445  -0.00586563 -0.0162787 -0.00120676  -0.00372499 -0.0154551 -0.00120294  -0.00282472 -0.0117868 -0.000753284  -0.00588578 -0.0159019 -0.00180733  -0.00448835 -0.0122567 -0.00112808  -0.00283092 -0.0114858 -0.00112808  -0.00451893 -0.0119382 -0.00169766  -0.00869417 -0.0254908 -0.00125539  -0.00560319 -0.0246813 -0.00124419  -0.00465536 -0.0202618 -0.000833631  -0.00869802 -0.0250597 -0.00186586  -0.00727275 -0.0206894 -0.00124538  -0.00465178 -0.0198701 -0.00123799  -0.00728542 -0.0202865 -0.00185716  -0.011519 -0.0361532 -0.00121045  -0.00752831 -0.0354269 -0.00119448  -0.00658321 -0.0302946 -0.000832319  -0.0114932 -0.0357117 -0.00178909  -0.0101137 -0.0306377 -0.00124061  -0.00656301 -0.0298732 -0.00122666  -0.0101025 -0.0302061 -0.00183928  -0.0142536 -0.0481476 -0.00111949  -0.00945401 -0.0475299 -0.00109994  -0.00852835 -0.0417385 -0.00078547  -0.0142075 -0.0477164 -0.0016458  -0.0128984 -0.0419803 -0.00116813  -0.00849187 -0.0413154 -0.00115061  -0.0128616 -0.0415521 -0.00172198  -0.0168872 -0.0613463 -0.00101113  -0.0113689 -0.0608553 -0.000989318  -0.0104617 -0.0544499 -0.000718355  -0.0168254 -0.0609448 -0.0014801  -0.0155817 -0.0545916 -0.00106597  -0.0104126 -0.0540458 -0.00104547  -0.0155283 -0.0541845 -0.00156391  -0.0194194 -0.0756287 -0.000902057  -0.0132713 -0.0752619 -0.000878215  -0.0123784 -0.0683031 -0.000645995  -0.0193497 -0.0752592 -0.00131249  -0.0181651 -0.0683473 -0.000956059  -0.0123214 -0.0679284 -0.000933766  -0.0180985 -0.0679726 -0.00139534  -0.021859 -0.0908645 -0.000798464  -0.0151628 -0.0906255 -0.000773787  -0.0142782 -0.0831695 -0.000575781  -0.0217865 -0.0905346 -0.00115502  -0.0206484 -0.0831224 -0.000849128  -0.0142181 -0.0828297 -0.000825405  -0.0205786 -0.0827835 -0.00123203  -0.0242119 -0.106933 -0.000703692  -0.0170413 -0.106811 -0.00067842  -0.016163 -0.0989232 -0.000510931  -0.024141 -0.106638 -0.00100946  -0.0230452 -0.0987895 -0.000749946  -0.0161034 -0.0986203 -0.000725389  -0.0229734 -0.098489 -0.00108039  -0.0264827 -0.12371 -0.000617504  -0.0189048 -0.123704 -0.00059247  -0.0180311 -0.115441 -0.00045228  -0.0264158 -0.123454 -0.000878572  -0.0253552 -0.115227 -0.000659347  -0.0179749 -0.115175 -0.00063467  -0.0252881 -0.114963 -0.000941992  -0.0286734 -0.141086 -0.000540614  -0.0207481 -0.141183 -0.000515938  -0.0198808 -0.132606 -0.000399828  -0.028612 -0.140862 -0.000759363  -0.0275873 -0.132318 -0.000577807  -0.0198288 -0.132374 -0.000553489  -0.0275233 -0.132089 -0.00081706  -0.0307852 -0.158951 -0.000471234  -0.0225675 -0.159146 -0.00044775  -0.0217073 -0.150307 -0.000353217  -0.0307299 -0.15876 -0.000653982  -0.0297366 -0.149951 -0.000504732  -0.0216608 -0.150108 -0.00048089  -0.0296806 -0.149755 -0.000705004  -0.0328183 -0.177209 -0.000409722  -0.0243565 -0.177487 -0.000387192  -0.0235064 -0.168441 -0.000311971  -0.0327697 -0.177045 -0.000558615  -0.0318105 -0.168024 -0.000439405  -0.0234655 -0.168272 -0.000416636  -0.0317593 -0.167859 -0.000604749  -0.0347735 -0.195766 -0.000355244  -0.0261122 -0.196122 -0.000334144  -0.025273 -0.186912 -0.000275612  -0.0347314 -0.19563 -0.000475526  -0.0338032 -0.186443 -0.00038147  -0.0252385 -0.186771 -0.000359893  -0.0337601 -0.186304 -0.000515342  -0.0366514 -0.214543 -0.000308156  -0.0278293 -0.214963 -0.000288606  -0.0270044 -0.205636 -0.000244141  -0.0366156 -0.214428 -0.000401855  -0.0357211 -0.20512 -0.000330567  -0.0269753 -0.205519 -0.00031054  -0.0356827 -0.205006 -0.000437021  -0.0384543 -0.233462 -0.000267506  -0.029506 -0.233941 -0.000249743  -0.0286961 -0.224532 -0.000217438  -0.0384243 -0.233369 -0.000339389  -0.0375597 -0.223977 -0.000286818  -0.0286725 -0.224437 -0.00026834  -0.0375292 -0.223884 -0.000369072  -0.0401843 -0.252461 -0.000234008  -0.0311394 -0.252985 -0.000217795  -0.0303462 -0.243532 -0.000195265  -0.0401595 -0.252383 -0.000286102  -0.0393269 -0.242943 -0.000249743  -0.0303276 -0.243456 -0.000232816  -0.0393007 -0.242869 -0.000311255  -0.041846 -0.271479 -0.000206709  -0.0327299 -0.272044 -0.000191927  -0.0319538 -0.262574 -0.000177622  -0.041826 -0.271418 -0.000244141  -0.0410209 -0.261958 -0.000219464  -0.0319395 -0.262514 -0.000204206  -0.0410008 -0.2619 -0.000263691  -0.0434437 -0.290471 -0.000185728  -0.034277 -0.291065 -0.000172377  -0.033519 -0.281606 -0.000163794  -0.0434275 -0.29042 -0.000209808  -0.0426514 -0.280969 -0.000195384  -0.0335081 -0.281559 -0.000181556  -0.042634 -0.280924 -0.000225425  -0.0449829 -0.309395 -0.000170469  -0.0357826 -0.310014 -0.000158429  -0.035042 -0.300584 -0.000153899  -0.0449698 -0.309355 -0.000185132  -0.0442178 -0.299931 -0.000177264  -0.0350344 -0.300548 -0.000164866  -0.0442057 -0.299897 -0.000196218  -0.0464697 -0.328222 -0.000158906  -0.0372481 -0.328856 -0.000148296  -0.0365248 -0.319475 -0.000147462  -0.046459 -0.328186 -0.000165701  -0.0457313 -0.318809 -0.000164032  -0.0365198 -0.319447 -0.000153065  -0.0457199 -0.318783 -0.000174403  -0.0479138 -0.34693 -0.000150084  -0.0386796 -0.347571 -0.000140309  -0.0379715 -0.338251 -0.000142932  -0.047904 -0.346898 -0.000150919  -0.047194 -0.337579 -0.000154376  -0.0379672 -0.338228 -0.000144362  -0.0471861 -0.337557 -0.000157833  -0.0493314 -0.365498 -0.000142574  -0.0400853 -0.366123 -0.000133395  -0.0393879 -0.356892 -0.000139236  -0.0493209 -0.365462 -0.000136375  -0.0486228 -0.356222 -0.000145912  -0.0393844 -0.356868 -0.000136733  -0.0486138 -0.3562 -0.00014329  -0.000281259 -0.00260752 -0.000205874  0 0 0  8.58158e-05 -0.00249285 -5.60284e-06  2.78205e-05 -0.000915289 -3.09944e-06  0 0 0  -0.000281304 -0.00248599 -0.00031209  -9.3542e-05 -0.000913858 -0.000112772  0 0 0  2.78205e-05 -0.000866622 -2.38419e-06  -9.64589e-05 -0.000865102 -0.000171781  -0.000869498 -0.00802049 -0.00034225  0.000222385 -0.00777966 -1.46627e-05  0.000149995 -0.00501323 -1.09673e-05  -0.00087212 -0.00777155 -0.000509977  -0.000543699 -0.00500825 -0.000282407  0.000155136 -0.00484091 -9.89437e-06  -0.000542849 -0.0048342 -0.000424504  -0.00168777 -0.0156107 -0.000412941  0.000304878 -0.0152849 -2.24113e-05  0.000262171 -0.0115822 -2.00272e-05  -0.00168079 -0.0152518 -0.000609636  -0.00125498 -0.0115669 -0.000383973  0.000275016 -0.0112943 -1.91927e-05  -0.00125358 -0.011272 -0.000570536  -0.00265211 -0.0249412 -0.000432968  0.000270486 -0.024598 -2.59876e-05  0.000282735 -0.0201186 -2.65837e-05  -0.00263426 -0.0245273 -0.000632644  -0.0021542 -0.0200718 -0.000427723  0.000304371 -0.0197389 -2.46763e-05  -0.00214323 -0.0196882 -0.000627995  -0.00371718 -0.0357693 -0.00042057  9.05395e-05 -0.0354551 -2.61068e-05  0.000171185 -0.0302554 -3.03984e-05  -0.00368571 -0.0353398 -0.000607491  -0.00317436 -0.0301671 -0.000429511  0.000199854 -0.0298458 -2.64645e-05  -0.00314879 -0.0297527 -0.000624537  -0.00485909 -0.0479403 -0.000391841  -0.000246406 -0.0476839 -2.43187e-05  -9.19104e-05 -0.0418229 -3.21865e-05  -0.00481784 -0.0475171 -0.00056088  -0.00427729 -0.041685 -0.000407338  -5.81145e-05 -0.0414069 -2.53916e-05  -0.00424242 -0.0412666 -0.00058639  -0.00607109 -0.0613137 -0.000356913  -0.000739753 -0.0611336 -2.19345e-05  -0.000510633 -0.0546626 -3.29018e-05  -0.00602311 -0.0609159 -0.000503898  -0.00545669 -0.0544721 -0.000374675  -0.000473559 -0.054263 -2.30074e-05  -0.00541127 -0.0540712 -0.000533342  -0.00734854 -0.0757648 -0.000321865  -0.00138301 -0.0756679 -2.03848e-05  -0.00108111 -0.0686449 -3.38554e-05  -0.00729752 -0.0753956 -0.000449061  -0.0066998 -0.0684007 -0.00033915  -0.00104308 -0.0682718 -2.12193e-05  -0.00665194 -0.0680272 -0.000476599  -0.0086875 -0.0911604 -0.000289083  -0.00216627 -0.0911521 -2.06232e-05  -0.00179517 -0.0836377 -3.52859e-05  -0.00863636 -0.0908288 -0.000396132  -0.00801015 -0.0833395 -0.000305057  -0.00175762 -0.0832975 -2.03848e-05  -0.00795901 -0.083 -0.000422478  -0.0100814 -0.107379 -0.000259876  -0.00307584 -0.107458 -2.22921e-05  -0.00264108 -0.0995131 -3.77893e-05  -0.0100325 -0.107082 -0.000350595  -0.00937569 -0.0991627 -0.000273943  -0.0026058 -0.0992083 -2.13385e-05  -0.00932777 -0.0988589 -0.000373125  -0.0115228 -0.124297 -0.000234485  -0.00409842 -0.12446 -2.57492e-05  -0.00360596 -0.116146 -4.14848e-05  -0.0114775 -0.124037 -0.000308752  -0.0107963 -0.115745 -0.000246644  -0.00357366 -0.115877 -2.40803e-05  -0.0107491 -0.115478 -0.000329375  -0.0130023 -0.141802 -0.000212431  -0.00521827 -0.142043 -3.08752e-05  -0.00467551 -0.133418 -4.60148e-05  -0.0129613 -0.141574 -0.000273943  -0.012256 -0.132971 -0.000222921  -0.0046469 -0.133184 -2.83718e-05  -0.012215 -0.132738 -0.000291228  -0.0145105 -0.159783 -0.000193357  -0.00642133 -0.160096 -3.71933e-05  -0.00583494 -0.151217 -5.13792e-05  -0.0144744 -0.159588 -0.000242114  -0.0137526 -0.150727 -0.000202298  -0.00581002 -0.151015 -3.39746e-05  -0.0137144 -0.150527 -0.000257969  -0.0160377 -0.178145 -0.000176907  -0.00769162 -0.178523 -4.39882e-05  -0.00706935 -0.169439 -5.71012e-05  -0.0160066 -0.177977 -0.000216365  -0.0152698 -0.168911 -0.000184774  -0.00704861 -0.169267 -4.05312e-05  -0.0152386 -0.16874 -0.000229239  -0.0175753 -0.196793 -0.000163078  -0.00901687 -0.197228 -5.14984e-05  -0.00836468 -0.187989 -6.35386e-05  -0.0175487 -0.196653 -0.000192761  -0.0168051 -0.187426 -0.000169635  -0.00834811 -0.187844 -4.78029e-05  -0.0167764 -0.187283 -0.000204444  -0.019114 -0.215648 -0.00015223  -0.0103822 -0.216133 -5.98431e-05  -0.00970781 -0.206779 -7.00951e-05  -0.0190922 -0.215529 -0.000174999  -0.0183424 -0.206187 -0.000157356  -0.00969493 -0.206659 -5.56707e-05  -0.0183206 -0.206069 -0.000183821  -0.0206475 -0.234632 -0.000143647  -0.0117776 -0.23516 -6.86646e-05  -0.0110862 -0.225731 -7.72476e-05  -0.0206299 -0.234536 -0.000159025  -0.019881 -0.225116 -0.000147581  -0.0110769 -0.225634 -6.42538e-05  -0.0198619 -0.225019 -0.000167131  -0.0221694 -0.253685 -0.00013721  -0.013191 -0.254248 -7.73668e-05  -0.0124886 -0.244777 -8.4281e-05  -0.022155 -0.253605 -0.000148296  -0.0214076 -0.244142 -0.000140071  -0.0124824 -0.244699 -7.29561e-05  -0.0213943 -0.244065 -0.00015378  -0.0236745 -0.272746 -0.000132918  -0.0146146 -0.273338 -8.59499e-05  -0.0139058 -0.263856 -9.15527e-05  -0.0236638 -0.272683 -0.000139117  -0.0229232 -0.263205 -0.000134826  -0.0139017 -0.263794 -8.17776e-05  -0.0229113 -0.263145 -0.000143886  -0.0251594 -0.291772 -0.000130773  -0.0160394 -0.292386 -9.5129e-05  -0.0153289 -0.282917 -9.88245e-05  -0.0251513 -0.291719 -0.000134706  -0.0244167 -0.282254 -0.000131488  -0.0153267 -0.282868 -9.07183e-05  -0.0244102 -0.282207 -0.000136971  -0.0266216 -0.310721 -0.000130296  -0.0174601 -0.311352 -0.000103951  -0.0167503 -0.301917 -0.000105858  -0.0266154 -0.310679 -0.00013113  -0.0258925 -0.301245 -0.000130296  -0.0167506 -0.30188 -9.9659e-05  -0.0258861 -0.301209 -0.000133157  -0.0280592 -0.329565 -0.000130773  -0.0188708 -0.330206 -0.000112295  -0.0181649 -0.320822 -0.000112772  -0.028055 -0.329528 -0.00013113  -0.0273411 -0.320145 -0.000130177  -0.018167 -0.320793 -0.000108123  -0.027338 -0.320117 -0.000131249  -0.0294735 -0.348278 -0.000132084  -0.0202692 -0.348924 -0.000120759  -0.0195696 -0.339606 -0.000119805  -0.02947 -0.348245 -0.000130177  -0.0287681 -0.338926 -0.000131369  -0.0195715 -0.339582 -0.000116825  -0.0287652 -0.338903 -0.00013113  -0.0308659 -0.366828 -0.000133634  -0.0216472 -0.367468 -0.000128865  -0.0209589 -0.358245 -0.000126719  -0.0308614 -0.36679 -0.000131369  -0.0301695 -0.357566 -0.000132799  -0.0209608 -0.35822 -0.00012517  -0.0301681 -0.357542 -0.000130892  0.000446901 -0.00275195 0.000191092  0 0 0  0.000835598 -0.00291401 0.000602245  0.000279501 -0.00116217 0.000212908  0 0 0  0.00045377 -0.00263262 0.000299335  0.000147641 -0.000996232 0.000105619  0 0 0  0.000279605 -0.00111854 0.000335097  0.000153169 -0.000949085 0.000166774  0.00129244 -0.00824898 0.000308394  0.00244221 -0.00844014 0.000970483  0.0015571 -0.00558043 0.000528097  0.00131789 -0.0080058 0.000477314  0.000841558 -0.00519991 0.000258803  0.00157414 -0.00541115 0.000815868  0.000854075 -0.00503004 0.000402212  0.00225383 -0.0159047 0.000362992  0.00431088 -0.0160524 0.00114477  0.0033336 -0.0123067 0.000704527  0.00228584 -0.0155523 0.000560999  0.00177333 -0.0118279 0.000341892  0.0033645 -0.0120172 0.00107646  0.00180164 -0.0115402 0.00052917  0.00312799 -0.0253003 0.00037241  0.00610399 -0.0254093 0.00117815  0.00518861 -0.0209103 0.000770569  0.00316584 -0.0248926 0.000576854  0.00270855 -0.0203974 0.000372171  0.00522798 -0.0205312 0.00117409  0.00274476 -0.0200208 0.000574708  0.00381786 -0.0361997 0.000355124  0.00765574 -0.0362974 0.00112975  0.00687826 -0.0310808 0.000761986  0.00385308 -0.035775 0.00055182  0.00350201 -0.0305606 0.000366211  0.00691533 -0.0306706 0.00115979  0.00353646 -0.0301521 0.000568032  0.00427443 -0.0484495 0.000324368  0.00889856 -0.0485574 0.00104105  0.00828594 -0.0426769 0.000712872  0.0043087 -0.0480299 0.000509501  0.00407547 -0.0421535 0.000340939  0.00831717 -0.0422626 0.00108802  0.00411093 -0.0417397 0.000532389  0.00449413 -0.0619085 0.000288606  0.00982124 -0.0620514 0.000937939  0.00937498 -0.0555553 0.000645876  0.00452548 -0.0615121 0.000457764  0.00441575 -0.0550237 0.000307083  0.00939965 -0.0551566 0.000990272  0.00444651 -0.0546252 0.000484467  0.0044837 -0.0764478 0.00025177  0.0104355 -0.0766339 0.000832319  0.0101472 -0.0695847 0.000573874  0.00451279 -0.0760791 0.000406504  0.00451684 -0.0690391 0.000270486  0.010166 -0.0692121 0.000884891  0.0045473 -0.0686668 0.000432611  0.00425923 -0.0919328 0.00021553  0.0107615 -0.0921746 0.000729442  0.0106189 -0.0846311 0.000502229  0.00428569 -0.0916001 0.000354052  0.0043993 -0.0840676 0.00023365  0.0106333 -0.0842907 0.000780344  0.00442493 -0.0837275 0.000380397  0.00383961 -0.108239 0.000180364  0.0108242 -0.108534 0.000631928  0.0108143 -0.100563 0.000433326  0.00386298 -0.10794 0.000305057  0.00407326 -0.0999787 0.000197887  0.0108247 -0.100257 0.000680089  0.00409782 -0.0996739 0.000329614  0.00324392 -0.12524 0.000146866  0.0106472 -0.125592 0.000540018  0.0107569 -0.117252 0.000368476  0.00326419 -0.124977 0.000256419  0.00356472 -0.116647 0.000163436  0.0107644 -0.116981 0.000585318  0.0035845 -0.116378 0.000280738  0.00249207 -0.142821 0.000114799  0.0102566 -0.143224 0.000454068  0.010473 -0.134577 0.000307441  0.00250947 -0.142591 0.000211835  0.00288689 -0.133952 0.000130653  0.0104777 -0.134341 0.000496268  0.00290549 -0.133717 0.000234008  0.00160432 -0.160872 8.44002e-05  0.00967598 -0.161325 0.00037396  0.00998652 -0.152425 0.000250459  0.0016185 -0.160674 0.000167727  0.00206661 -0.151782 9.95398e-05  0.0099889 -0.15222 0.000413299  0.00207984 -0.151579 0.000189781  0.000599623 -0.179296 5.60284e-05  0.00893033 -0.179789 0.000299692  0.009323 -0.170689 0.000197768  0.000610709 -0.179125 0.000128031  0.00111639 -0.170031 7.02143e-05  0.009323 -0.170515 0.000336051  0.00112832 -0.169858 0.000148058  -0.000503898 -0.197996 2.94447e-05  0.00804138 -0.19853 0.000231385  0.00850499 -0.189275 0.000148773  -0.000495434 -0.197853 8.9407e-05  6.13928e-05 -0.188604 4.25577e-05  0.00850248 -0.189129 0.000264764  6.90222e-05 -0.188459 0.0001086  -0.00168765 -0.216895 4.76837e-06  0.00703287 -0.21746 0.000169158  0.0075556 -0.208095 0.00010407  -0.00168192 -0.216774 5.51939e-05  -0.00108588 -0.207414 1.69277e-05  0.00755143 -0.207973 0.000199556  -0.00107932 -0.207293 7.22408e-05  -0.0029366 -0.235916 -1.81198e-05  0.00592375 -0.23651 0.000113249  0.00649571 -0.227071 6.34193e-05  -0.00293303 -0.235818 2.20537e-05  -0.00230265 -0.226383 -6.79493e-06  0.00648999 -0.226972 0.000140548  -0.00230026 -0.226284 3.85046e-05  -0.00423551 -0.254997 -3.86238e-05  0.00473499 -0.25561 6.35386e-05  0.00534606 -0.246135 2.68221e-05  -0.00423384 -0.254915 -6.31809e-06  -0.00357962 -0.245441 -2.8491e-05  0.00533867 -0.246054 8.74996e-05  -0.00357795 -0.245362 7.7486e-06  -0.00557113 -0.27408 -5.74589e-05  0.00348258 -0.274712 2.01464e-05  0.00412369 -0.265225 -5.48363e-06  -0.00557089 -0.274015 -3.33786e-05  -0.00489688 -0.264529 -4.82798e-05  0.00411606 -0.265162 4.1008e-05  -0.00489855 -0.264466 -2.00272e-05  -0.00693154 -0.293121 -7.41482e-05  0.0021832 -0.293763 -1.71661e-05  0.00284672 -0.284293 -3.33786e-05  -0.00693226 -0.293066 -5.56707e-05  -0.00624752 -0.283596 -6.59227e-05  0.00283837 -0.284243 4.76837e-07  -0.00624871 -0.283547 -4.45843e-05  -0.00830674 -0.312079 -8.86917e-05  0.000850439 -0.312732 -4.8995e-05  0.00152946 -0.303296 -5.74589e-05  -0.00830865 -0.312036 -7.67708e-05  -0.00761533 -0.3026 -8.15392e-05  0.0015204 -0.303257 -3.37362e-05  -0.00761914 -0.302562 -6.63996e-05  -0.00968814 -0.330928 -0.000101686  -0.000503778 -0.331583 -7.61747e-05  0.000185251 -0.322201 -7.82013e-05  -0.009691 -0.33089 -9.40561e-05  -0.00899649 -0.321507 -9.52482e-05  0.000175714 -0.322171 -6.31809e-05  -0.00899911 -0.321478 -8.52346e-05  -0.0110688 -0.349644 -0.000114322  -0.00186753 -0.350303 -0.000101209  -0.00117564 -0.340983 -9.66787e-05  -0.0110717 -0.34961 -0.00011158  -0.0103767 -0.340291 -0.000108123  -0.0011847 -0.340958 -8.91685e-05  -0.0103819 -0.340267 -0.000102758  -0.0124354 -0.368194 -0.0001266  -0.00322104 -0.368856 -0.000125408  -0.00253868 -0.359626 -0.000113964  -0.0124373 -0.368155 -0.000127673  -0.0117538 -0.358932 -0.000120282  -0.00254703 -0.3596 -0.000113606  -0.0117574 -0.358906 -0.000119567  0.00122571 -0.00350308 0.000580788  0 0 0  0.00169662 -0.00401032 0.00119722  0.000576183 -0.00182116 0.000422597  0 0 0  0.00124808 -0.00336915 0.000897646  0.000411429 -0.00142509 0.000318408  0 0 0  0.000565149 -0.00176567 0.000650525  0.000415817 -0.0013839 0.000496268  0.00359175 -0.00936097 0.000954866  0.00492582 -0.0100165 0.00196028  0.00317253 -0.00699961 0.00106406  0.00364959 -0.00910914 0.00146425  0.00231564 -0.00617045 0.000795603  0.00319508 -0.00679934 0.00163531  0.00235683 -0.00598991 0.00122273  0.00637645 -0.0171452 0.0011369  0.00868452 -0.01776 0.00231981  0.00674692 -0.0139882 0.00143325  0.0064353 -0.0167873 0.00173008  0.00496715 -0.0130246 0.00106728  0.00678986 -0.0136838 0.00218534  0.00502756 -0.0127254 0.00162995  0.00908464 -0.0265575 0.00117409  0.012317 -0.0270995 0.00238371  0.0104864 -0.0226289 0.00157022  0.00914389 -0.0261465 0.00178003  0.00775671 -0.0216534 0.0011692  0.0105357 -0.0222374 0.00237989  0.0078159 -0.02127 0.00177407  0.0115088 -0.0374434 0.00112665  0.0155815 -0.037932 0.00228441  0.0139577 -0.0327504 0.00155437  0.0115499 -0.0370178 0.0017066  0.0103422 -0.031813 0.00115764  0.0140063 -0.032334 0.00234854  0.0103914 -0.0313994 0.00175416  0.0135413 -0.0496832 0.00103652  0.0183709 -0.0501443 0.00210583  0.0170048 -0.0442894 0.00145698  0.0135708 -0.0492631 0.00157249  0.0125766 -0.0433901 0.0010848  0.0170362 -0.0438719 0.00220096  0.0126102 -0.0429755 0.00164354  0.0151731 -0.063145 0.000931501  0.02068 -0.0636038 0.00189888  0.0195668 -0.0571241 0.00132477  0.015191 -0.062749 0.00141776  0.0144076 -0.0562566 0.000985026  0.0195855 -0.0567251 0.00200367  0.0144306 -0.0558584 0.00149608  0.0164154 -0.0776992 0.000823975  0.0225265 -0.0781699 0.00168765  0.0216533 -0.0711272 0.00118244  0.0164257 -0.0773309 0.00125873  0.0158432 -0.0702814 0.000877738  0.0216591 -0.0707557 0.00179267  0.0158551 -0.0699098 0.00133765  0.0172949 -0.0932069 0.000719428  0.0239406 -0.093701 0.00148332  0.0232869 -0.0861607 0.00104141  0.0172999 -0.0928746 0.00110567  0.0168993 -0.0853291 0.000771165  0.023286 -0.0858218 0.00158405  0.0169064 -0.08499 0.00118089  0.0178416 -0.10954 0.000620842  0.0249572 -0.11006 0.00129008  0.0245037 -0.102087 0.000906825  0.0178429 -0.109241 0.000959635  0.0176103 -0.101266 0.00066936  0.0244966 -0.101784 0.00138509  0.017611 -0.100961 0.00103104  0.0180854 -0.126567 0.000528216  0.0256093 -0.127116 0.00110936  0.0253367 -0.118776 0.000780344  0.018084 -0.126305 0.000824213  0.0180001 -0.117961 0.000573874  0.025327 -0.118507 0.00119793  0.0179998 -0.117692 0.000890374  0.0180568 -0.144175 0.000442266  0.0259326 -0.14475 0.000941396  0.0258229 -0.136101 0.000662565  0.0180534 -0.143943 0.000696659  0.0181057 -0.135293 0.000484467  0.0258101 -0.135866 0.00102341  0.018101 -0.135058 0.000758886  0.0177848 -0.162247 0.000362635  0.0259589 -0.162848 0.000786304  0.0259944 -0.153949 0.000553608  0.0177797 -0.162049 0.000580072  0.0179504 -0.153146 0.000401616  0.0259809 -0.153745 0.000862122  0.0179455 -0.152943 0.000636697  0.0172986 -0.180689 0.000289321  0.0257232 -0.181309 0.000643849  0.0258871 -0.172211 0.000453234  0.0172919 -0.180517 0.000471115  0.0175693 -0.171416 0.000325203  0.025872 -0.172037 0.000713348  0.017561 -0.171242 0.000524163  0.0166247 -0.199403 0.000221729  0.0252553 -0.200041 0.000513911  0.0255321 -0.190791 0.000360966  0.0166169 -0.199259 0.000372887  0.0169841 -0.190004 0.00025475  0.0255165 -0.190645 0.000577092  0.0169765 -0.189858 0.000420332  0.0157909 -0.218311 0.000160933  0.0245886 -0.218962 0.000396729  0.0249616 -0.209603 0.0002774  0.0157821 -0.218188 0.000282764  0.0162287 -0.208825 0.000190735  0.0249451 -0.209481 0.000453472  0.0162181 -0.208703 0.000326276  0.0148211 -0.237335 0.000106454  0.0237498 -0.237998 0.000292659  0.024205 -0.228568 0.000202537  0.014812 -0.237236 0.00020349  0.0153224 -0.227799 0.000133038  0.024189 -0.228468 0.000342607  0.0153127 -0.227701 0.000241518  0.0137398 -0.256416 5.84126e-05  0.0227697 -0.257086 0.000201106  0.0232925 -0.247617 0.000136137  0.0137305 -0.256334 0.000132322  0.0142956 -0.24686 8.16584e-05  0.0232761 -0.247538 0.000244856  0.0142837 -0.24678 0.000166297  0.0125687 -0.275496 1.65701e-05  0.021673 -0.276169 0.000122786  0.0222499 -0.266693 7.84397e-05  0.0125589 -0.27543 7.21216e-05  0.0131652 -0.265946 3.69549e-05  0.0222347 -0.266629 0.000160098  0.0131552 -0.265884 0.000100732  0.0113277 -0.294531 -1.85966e-05  0.0204849 -0.295205 5.6982e-05  0.0211048 -0.285743 2.96831e-05  0.0113184 -0.294476 2.00272e-05  0.0119586 -0.285009 -1.78814e-06  0.0210891 -0.285694 8.82149e-05  0.0119464 -0.28496 4.44651e-05  0.010035 -0.313481 -4.8399e-05  0.019227 -0.314155 3.33786e-06  0.0198784 -0.304729 -1.13249e-05  0.0100257 -0.313438 -2.24113e-05  0.0106878 -0.304005 -3.40939e-05  0.0198636 -0.304691 2.8491e-05  0.0106781 -0.303968 -2.5034e-06  0.00870657 -0.332323 -7.36713e-05  0.0179203 -0.332994 -4.14848e-05  0.018594 -0.323618 -4.49419e-05  0.00869703 -0.332284 -5.93662e-05  0.00937676 -0.322905 -6.1512e-05  0.0185785 -0.323588 -2.0504e-05  0.00936508 -0.322875 -4.20809e-05  0.00735664 -0.351036 -9.63211e-05  0.0165815 -0.351706 -8.05855e-05  0.0172679 -0.342389 -7.34329e-05  0.00734782 -0.351001 -9.10759e-05  0.00803447 -0.341683 -8.49962e-05  0.0172541 -0.342364 -6.16312e-05  0.00802445 -0.341658 -7.59363e-05  0.00601053 -0.369605 -0.000117898  0.0152409 -0.370285 -0.000117183  0.0159218 -0.361036 -9.9659e-05  0.00600195 -0.369565 -0.000122309  0.00668335 -0.360328 -0.000107288  0.0159082 -0.361011 -9.97782e-05  0.00667214 -0.360303 -0.000107288  0.00218624 -0.00503916 0.000968218  0 0 0  0.0027716 -0.00604677 0.00184143  0.000936225 -0.00306487 0.000646353  0 0 0  0.00220287 -0.00488704 0.00149632  0.000717171 -0.00235951 0.000525832  0 0 0  0.000915706 -0.00297666 0.00102651  0.000724614 -0.00229388 0.000821829  0.00635245 -0.0114841 0.00161362  0.00810993 -0.0127367 0.00299215  0.00528803 -0.00956219 0.00162911  0.00642624 -0.0112132 0.00247514  0.00411867 -0.00809991 0.00133753  0.00526035 -0.0092845 0.00251842  0.00416704 -0.0078761 0.00205016  0.0110936 -0.0193594 0.00192106  0.013905 -0.0204386 0.00352609  0.0109807 -0.0167356 0.0021857  0.0111647 -0.0189817 0.00291777  0.00871491 -0.0152174 0.00180447  0.0110218 -0.0163929 0.00333011  0.00878784 -0.0149011 0.00275242  0.0156363 -0.0286904 0.00198162  0.0193548 -0.0296335 0.00360894  0.0166222 -0.0252491 0.00238514  0.0157138 -0.0282668 0.00299633  0.013404 -0.0238299 0.00197482  0.0166815 -0.0248446 0.0036099  0.0134838 -0.0234338 0.00298858  0.0197541 -0.0394706 0.00190055  0.0242608 -0.0403157 0.00345409  0.0218245 -0.0352172 0.00235581  0.0198039 -0.0390359 0.00286591  0.017764 -0.0338892 0.00195324  0.0218825 -0.0347912 0.0035522  0.017823 -0.0334691 0.00294828  0.0233138 -0.0516158 0.0017519  0.0285338 -0.0524027 0.00318372  0.0264352 -0.046611 0.00220847  0.0233451 -0.051194 0.00264287  0.0216041 -0.0453666 0.00183141  0.0264765 -0.0461903 0.00332737  0.0216445 -0.0449476 0.00276089  0.0263134 -0.0650083 0.00157785  0.0321743 -0.0657642 0.00287354  0.0304092 -0.0593313 0.00201154  0.0263273 -0.0646118 0.00238287  0.0248851 -0.058152 0.00166655  0.0304317 -0.0589327 0.00303125  0.0249051 -0.0577528 0.0025146  0.0287718 -0.0795112 0.00140071  0.0352063 -0.0802538 0.00255692  0.0337561 -0.0732456 0.00179935  0.0287734 -0.0791459 0.00211978  0.0276086 -0.0721174 0.00148928  0.0337639 -0.0728766 0.00271499  0.0276154 -0.071747 0.00225067  0.030723 -0.0949818 0.00122809  0.0376688 -0.095721 0.00225019  0.0365089 -0.0882074 0.00158906  0.0307181 -0.0946519 0.0018636  0.0298102 -0.0871218 0.00131357  0.0365065 -0.0878736 0.00240207  0.0298065 -0.0867848 0.00198984  0.0322084 -0.111284 0.00106597  0.0396008 -0.112025 0.00196004  0.0387075 -0.104075 0.00138819  0.0321982 -0.110989 0.00162303  0.0315225 -0.103025 0.00114608  0.0386984 -0.103776 0.00210321  0.0315139 -0.102724 0.00174153  0.0332651 -0.128287 0.000913739  0.0410467 -0.12903 0.0016886  0.0403956 -0.12071 0.00119936  0.0332526 -0.128026 0.00139666  0.0327898 -0.119694 0.000988603  0.0403823 -0.120447 0.00182211  0.0327765 -0.119427 0.00150764  0.033935 -0.145869 0.000772834  0.0420475 -0.146614 0.00143659  0.0416161 -0.137986 0.00102365  0.0339203 -0.145641 0.0011878  0.0336471 -0.137 0.000842094  0.0416001 -0.137756 0.00156045  0.0336328 -0.136767 0.00129032  0.0342537 -0.163917 0.000642657  0.0426471 -0.164664 0.00120425  0.0424124 -0.155785 0.000861049  0.0342387 -0.163721 0.000993848  0.034138 -0.154829 0.000706553  0.0423954 -0.155586 0.00131822  0.0341212 -0.154628 0.00108862  0.0342617 -0.182332 0.000523448  0.0428854 -0.183077 0.000991225  0.0428272 -0.173999 0.000711441  0.0342455 -0.182163 0.000817299  0.0342954 -0.173073 0.000581741  0.0428089 -0.17383 0.00109541  0.034279 -0.172901 0.000903606  0.0339929 -0.201019 0.000414491  0.0428046 -0.201762 0.00079751  0.0429018 -0.192532 0.000574589  0.0339768 -0.200877 0.000655174  0.0341618 -0.191635 0.000467658  0.0428826 -0.19239 0.000891924  0.0341438 -0.19149 0.000734091  0.0334842 -0.219898 0.00031662  0.042443 -0.220635 0.000623107  0.0426757 -0.211296 0.000450969  0.033468 -0.219778 0.000510335  0.0337677 -0.210427 0.000364304  0.0426564 -0.211178 0.000707984  0.0337505 -0.210307 0.000580788  0.0327685 -0.238894 0.000229597  0.0418403 -0.239624 0.000469208  0.0421886 -0.230213 0.000340581  0.032753 -0.238795 0.000380754  0.0331526 -0.229373 0.000271797  0.0421698 -0.230118 0.000543714  0.0331345 -0.229275 0.000443697  0.0318801 -0.257945 0.000153422  0.0410323 -0.258666 0.000334144  0.0414789 -0.249217 0.000243306  0.0318646 -0.257863 0.000268698  0.0323453 -0.248404 0.000190258  0.0414598 -0.24914 0.000399351  0.0323286 -0.248325 0.000323057  0.0308483 -0.276995 8.85725e-05  0.0400565 -0.277707 0.000220537  0.0405815 -0.268248 0.000159264  0.0308337 -0.27693 0.000172019  0.0313828 -0.267461 0.000119567  0.0405638 -0.268188 0.000274777  0.0313654 -0.267398 0.000218391  0.0297041 -0.296002 3.40939e-05  0.0389459 -0.296703 0.000125885  0.0395343 -0.287258 8.90493e-05  0.0296898 -0.295948 9.27448e-05  0.0302899 -0.286494 6.00815e-05  0.039516 -0.287211 0.000170708  0.0302746 -0.286446 0.000130773  0.0284734 -0.314927 -1.00136e-05  0.0377333 -0.315619 5.14984e-05  0.0383685 -0.306207 3.19481e-05  0.0284595 -0.314883 2.75373e-05  0.0291002 -0.305464 1.10865e-05  0.0383508 -0.306171 8.64267e-05  0.029084 -0.305426 5.8651e-05  0.0271819 -0.333747 -4.58956e-05  0.0364499 -0.33443 -8.34465e-06  0.0371177 -0.325065 -1.35899e-05  0.027168 -0.333709 -2.43187e-05  0.0278349 -0.324339 -2.87294e-05  0.0370986 -0.325037 1.96695e-05  0.0278206 -0.324309 4.76837e-07  0.0258503 -0.35245 -7.66516e-05  0.03512 -0.353129 -5.74589e-05  0.0358076 -0.343816 -4.99487e-05  0.0258367 -0.352415 -6.9499e-05  0.0265222 -0.343101 -6.16312e-05  0.03579 -0.343792 -3.3617e-05  0.0265062 -0.343076 -4.73261e-05  0.0245049 -0.371046 -0.000105977  0.0337718 -0.371733 -0.000103474  0.0344639 -0.362463 -8.23736e-05  0.0244927 -0.371009 -0.000111818  0.0251777 -0.361748 -9.14335e-05  0.0344467 -0.362439 -8.05855e-05  0.0251637 -0.361724 -9.09567e-05  0.00390629 -0.00794524 0.00142467  0 0 0  0.00600395 -0.00975972 0.00254428  0.002666 -0.00599164 0.000915289  0 0 0  0.0039064 -0.00769043 0.00216568  0.00125545 -0.0040254 0.000767231  0 0 0  0.00248811 -0.00577229 0.00138152  0.00127654 -0.00394613 0.00122118  0.0100832 -0.0148491 0.0023042  0.0129361 -0.0166277 0.00401461  0.00964624 -0.0132195 0.00222027  0.0102824 -0.0145829 0.0035485  0.0068434 -0.0112985 0.00193727  0.00937089 -0.0130622 0.00344825  0.00695932 -0.0110589 0.00300622  0.0169174 -0.0225118 0.0027163  0.0204819 -0.0239828 0.00468075  0.0167394 -0.0205463 0.00291181  0.0169832 -0.0221171 0.00412774  0.01355 -0.0185471 0.00256276  0.0167463 -0.0200751 0.00444901  0.0136486 -0.0181408 0.00392127  0.0232108 -0.0316296 0.00278938  0.0275856 -0.0329067 0.00479233  0.0240603 -0.0286613 0.00315797  0.0233015 -0.0311863 0.00421727  0.0201278 -0.0268671 0.00278473  0.0241009 -0.0282373 0.00479567  0.0202083 -0.0264575 0.00421858  0.0289265 -0.0422013 0.00267839  0.0340308 -0.0433483 0.00459599  0.030826 -0.0383846 0.0031265  0.028991 -0.0417569 0.00403738  0.0261564 -0.0367195 0.00275111  0.0309055 -0.0379308 0.00472474  0.026232 -0.0362847 0.00415277  0.0339273 -0.0541861 0.00247252  0.0397078 -0.0552577 0.004251  0.0369059 -0.0495574 0.00294352  0.0339769 -0.0537596 0.00372493  0.031517 -0.0480096 0.00258327  0.0369649 -0.0491293 0.0044384  0.0315722 -0.0475876 0.00389194  0.0382302 -0.0674494 0.00223362  0.0446184 -0.0684721 0.00384402  0.0422102 -0.0621173 0.00269008  0.0382586 -0.0670525 0.00336599  0.0361671 -0.0606543 0.00235593  0.0422594 -0.0617117 0.00405216  0.0362043 -0.0602545 0.0035491  0.0418446 -0.0818485 0.00198662  0.0487778 -0.0828388 0.00342739  0.0467582 -0.075889 0.00241363  0.041863 -0.0814863 0.0029968  0.0401221 -0.0745029 0.00211036  0.0467887 -0.0755224 0.00363731  0.0401428 -0.0741369 0.00318134  0.0448226 -0.0972288 0.00174701  0.0522361 -0.0981944 0.00301993  0.0505699 -0.0907366 0.00213706  0.0448291 -0.096903 0.00263941  0.0434123 -0.0894131 0.00186574  0.0505928 -0.0904036 0.00322187  0.0434228 -0.0890811 0.00281608  0.047197 -0.113452 0.0015198  0.055029 -0.114396 0.00263381  0.0537006 -0.106492 0.00187171  0.0472006 -0.113162 0.00229979  0.0460836 -0.10523 0.00163198  0.0537118 -0.106199 0.00282538  0.046086 -0.104936 0.00246704  0.0490268 -0.130378 0.00130701  0.0572172 -0.131302 0.00227201  0.0561877 -0.12303 0.00162148  0.0490234 -0.130123 0.00198281  0.0481788 -0.121823 0.00141191  0.0561967 -0.12277 0.00245011  0.0481774 -0.121562 0.0021385  0.0503482 -0.147888 0.00110948  0.0588417 -0.148792 0.00193501  0.0580945 -0.140205 0.0013876  0.0503449 -0.147666 0.00168741  0.0497495 -0.139054 0.00120664  0.0580961 -0.139983 0.00210118  0.0497437 -0.138829 0.00183213  0.0512191 -0.165866 0.000927329  0.0599624 -0.166748 0.0016253  0.0594615 -0.157914 0.00117147  0.0512117 -0.165675 0.00141597  0.0508389 -0.156814 0.00101662  0.0594627 -0.15772 0.00177705  0.0508322 -0.156619 0.00154841  0.0516757 -0.184212 0.000760317  0.0606207 -0.185073 0.00134027  0.0603496 -0.176033 0.000972509  0.0516689 -0.184049 0.00116611  0.0514981 -0.174986 0.000842094  0.0603455 -0.175871 0.00148046  0.0514882 -0.174821 0.00128794  0.0517715 -0.202831 0.000608444  0.060874 -0.203667 0.0010829  0.060799 -0.194479 0.000790954  0.0517617 -0.202693 0.000940084  0.0517675 -0.193481 0.000682712  0.0607957 -0.194342 0.00120807  0.0517582 -0.193342 0.00104988  0.051543 -0.221644 0.000472307  0.0607624 -0.222456 0.000849724  0.0608678 -0.213154 0.000627041  0.0515342 -0.221529 0.000736475  0.0516967 -0.212205 0.000538588  0.0608599 -0.213043 0.000963688  0.051685 -0.212091 0.000834823  0.0510404 -0.240575 0.000351191  0.0603406 -0.241361 0.000645638  0.0605946 -0.23199 0.00048089  0.0510292 -0.240481 0.000556469  0.0513251 -0.231087 0.000409961  0.0605879 -0.231899 0.000744343  0.0513139 -0.230994 0.000643015  0.0502987 -0.259566 0.000246048  0.059649 -0.260328 0.00046587  0.0600359 -0.250912 0.000352144  0.0502884 -0.259489 0.000399709  0.0506988 -0.250054 0.000296831  0.0600252 -0.250841 0.000552893  0.0506852 -0.249981 0.000474572  0.0493646 -0.278559 0.000156999  0.0587373 -0.279296 0.000316978  0.0592275 -0.269871 0.000241995  0.0493524 -0.278498 0.000267506  0.049855 -0.269053 0.000199556  0.0592182 -0.269815 0.000388026  0.0498426 -0.268996 0.000329852  0.0482736 -0.297517 8.39233e-05  0.057646 -0.298231 0.000192642  0.0582242 -0.288813 0.000150323  0.0482612 -0.297466 0.000158429  0.0488384 -0.288033 0.000118613  0.0582108 -0.288771 0.00025177  0.0488236 -0.287989 0.00020957  0.0470672 -0.316398 2.57492e-05  0.0564232 -0.317092 9.89437e-05  0.0570612 -0.307705 7.689e-05  0.0470526 -0.316358 7.36713e-05  0.047684 -0.306956 5.30481e-05  0.0570486 -0.307673 0.000142694  0.0476696 -0.306922 0.000112772  0.0457807 -0.33519 -1.83582e-05  0.0551107 -0.335869 2.52724e-05  0.0557928 -0.32652 2.0504e-05  0.0457635 -0.335153 7.86781e-06  0.0464334 -0.325795 2.26498e-06  0.0557747 -0.326493 5.97239e-05  0.046416 -0.325767 3.79086e-05  0.0444436 -0.353874 -5.49555e-05  0.0537488 -0.354547 -2.67029e-05  0.05445 -0.34524 -2.21729e-05  0.0444269 -0.353842 -4.3869e-05  0.0451179 -0.344532 -3.74317e-05  0.0544336 -0.34522 -2.02656e-06  0.0451 -0.344509 -1.97887e-05  0.0430861 -0.372495 -8.85725e-05  0.052372 -0.373157 -7.71284e-05  0.0530851 -0.363885 -5.68628e-05  0.0430646 -0.37245 -9.34601e-05  0.0437691 -0.363177 -7.15256e-05  0.0530615 -0.363859 -5.28097e-05  0.0437481 -0.363153 -6.86646e-05  -0.0062884 -0.00938823 -0.000810981  -0.00284664 -0.0056955 2.26498e-06  0 0 0  -0.00389662 -0.00726075 2.6226e-06  0 0 0  -0.00276753 -0.0055502 -0.000612497  -0.000922583 -0.00277475 4.76837e-07  0 0 0  -0.00274699 -0.00571555 -0.000468493  -0.00396859 -0.00723755 -0.000746727  -0.001266 -0.00373708 1.54972e-06  0 0 0  -0.000961866 -0.00272607 -0.000332236  -0.00131349 -0.00377135 -0.00041461  -0.0133105 -0.0155879 -0.00139201  -0.00985663 -0.0124604 2.98023e-06  -0.0100567 -0.0137891 -2.6226e-06  -0.00791807 -0.01196 -0.00103295  -0.00504439 -0.0087189 -4.76837e-07  -0.00977573 -0.0123655 -0.00121748  -0.0102063 -0.0136567 -0.00123107  -0.00687645 -0.0105026 1.54972e-06  -0.00519115 -0.00866071 -0.000843406  -0.0069707 -0.0103814 -0.000996828  -0.0207291 -0.022638 -0.00166059  -0.0170704 -0.0190338 -8.34465e-06  -0.0168462 -0.0210589 -1.63317e-05  -0.0135995 -0.0194378 -0.00123715  -0.0106537 -0.0155936 -1.00136e-05  -0.0170211 -0.0189232 -0.0015347  -0.0168693 -0.020941 -0.00144434  -0.0134608 -0.0172288 -8.82149e-06  -0.0107217 -0.0155223 -0.00116146  -0.0135156 -0.017127 -0.00138044  -0.0280622 -0.0309135 -0.00170898  -0.0244434 -0.026704 -2.52724e-05  -0.023405 -0.0296051 -3.29018e-05  -0.019263 -0.0282395 -0.00128508  -0.0164274 -0.0237498 -2.40803e-05  -0.0244296 -0.0265954 -0.00170767  -0.0234312 -0.0294873 -0.00150609  -0.0201572 -0.0251451 -2.44379e-05  -0.0164493 -0.0236622 -0.00127995  -0.0201817 -0.0250363 -0.00149357  -0.0350077 -0.0406047 -0.00165796  -0.0315994 -0.0356766 -4.31538e-05  -0.0296261 -0.039559 -4.91142e-05  -0.0246633 -0.0384314 -0.00124526  -0.0219834 -0.0332564 -3.94583e-05  -0.031598 -0.0355736 -0.00169158  -0.029632 -0.0394473 -0.00145411  -0.026568 -0.0343896 -4.1008e-05  -0.022 -0.0331629 -0.00127566  -0.026581 -0.0342918 -0.00149226  -0.0414558 -0.0516663 -0.00153852  -0.0383004 -0.0460708 -5.94854e-05  -0.0353981 -0.0508532 -6.34193e-05  -0.0297164 -0.0499424 -0.00115669  -0.0272293 -0.0441196 -5.38826e-05  -0.0382969 -0.0459716 -0.00160635  -0.0354021 -0.0507453 -0.001351  -0.0325676 -0.0450327 -5.6386e-05  -0.0272343 -0.0440261 -0.00120533  -0.0325717 -0.0449343 -0.00140679  -0.0473889 -0.0639988 -0.00140083  -0.0444925 -0.0577699 -7.39098e-05  -0.0407316 -0.0633939 -7.66516e-05  -0.0344023 -0.0626846 -0.00105011  -0.0321018 -0.0562535 -6.67572e-05  -0.0444888 -0.0576798 -0.00146949  -0.0407262 -0.063294 -0.00122666  -0.0381189 -0.0569586 -7.00951e-05  -0.0321038 -0.0561649 -0.00110507  -0.038118 -0.0568697 -0.00129151  -0.0528212 -0.0774795 -0.00125408  -0.0501739 -0.0706917 -8.67844e-05  -0.04563 -0.0770617 -8.83341e-05  -0.0387397 -0.0765355 -0.000943422  -0.0366168 -0.0695614 -7.83205e-05  -0.0501671 -0.0706071 -0.00132954  -0.0456246 -0.0769693 -0.00110018  -0.043232 -0.0700854 -8.24928e-05  -0.0366127 -0.0694782 -0.000996947  -0.0432262 -0.0699999 -0.00116277  -0.0577841 -0.091978 -0.00111616  -0.0553691 -0.0846832 -9.83477e-05  -0.0501341 -0.0917298 -9.83477e-05  -0.0427501 -0.0913731 -0.000839591  -0.0407887 -0.0839112 -8.88109e-05  -0.0553612 -0.0846092 -0.00118256  -0.0501232 -0.0916461 -0.000978112  -0.0479287 -0.0842634 -9.34601e-05  -0.0407835 -0.0838367 -0.000891089  -0.0479209 -0.0841893 -0.00103915  -0.0623108 -0.107369 -0.000984907  -0.0601099 -0.0996406 -0.00010848  -0.054263 -0.107274 -0.000107646  -0.0464615 -0.107071 -0.000745416  -0.0446491 -0.0991888 -9.81092e-05  -0.0601008 -0.0995727 -0.00105107  -0.0542543 -0.107198 -0.000865817  -0.0522418 -0.0993901 -0.000102997  -0.0446413 -0.0991208 -0.000792027  -0.0522324 -0.0993208 -0.000920534  -0.0664351 -0.12353 -0.000867248  -0.0644318 -0.115418 -0.000117302  -0.0580548 -0.123573 -0.000115633  -0.049894 -0.123511 -0.000657558  -0.0482175 -0.115263 -0.000106335  -0.0644231 -0.11536 -0.000923157  -0.0580437 -0.123505 -0.000762224  -0.0561984 -0.115321 -0.000111699  -0.0482107 -0.115203 -0.000700831  -0.0561893 -0.115263 -0.000813484  -0.0701863 -0.140347 -0.000758171  -0.0683645 -0.131918 -0.000125289  -0.0615265 -0.140514 -0.000123143  -0.0530699 -0.140577 -0.000579953  -0.05152 -0.132025 -0.000113845  -0.0683563 -0.131865 -0.000812531  -0.0615182 -0.140452 -0.000669122  -0.0598274 -0.13196 -0.000119328  -0.0515126 -0.131971 -0.0006181  -0.0598183 -0.131905 -0.000714064  -0.0735927 -0.157711 -0.000661612  -0.0719393 -0.149011 -0.00013268  -0.0647088 -0.157989 -0.000129819  -0.056005 -0.158166 -0.000508189  -0.0545719 -0.149357 -0.000120521  -0.0719322 -0.148966 -0.00070703  -0.0646989 -0.157934 -0.000584364  -0.0631511 -0.149176 -0.0001266  -0.054566 -0.149311 -0.000543356  -0.0631433 -0.149131 -0.000626326  -0.0766792 -0.175525 -0.000572801  -0.0751812 -0.16661 -0.000139356  -0.0676154 -0.1759 -0.000135779  -0.0587165 -0.176176 -0.000445604  -0.0573933 -0.167164 -0.000126719  -0.0751749 -0.16657 -0.000616908  -0.0676086 -0.175849 -0.000508785  -0.0661933 -0.166885 -0.000132918  -0.0573874 -0.167123 -0.000476241  -0.0661861 -0.166843 -0.000545382  -0.0794723 -0.193696 -0.000495553  -0.0781173 -0.184605 -0.000145316  -0.0702734 -0.194155 -0.000141501  -0.0612187 -0.194519 -0.000388145  -0.0599964 -0.185345 -0.000132442  -0.0781124 -0.184571 -0.000531673  -0.0702658 -0.19411 -0.000441194  -0.0689729 -0.184975 -0.00013864  -0.0599924 -0.185309 -0.00041616  -0.0689667 -0.184941 -0.000474453  -0.081995 -0.212139 -0.000426292  -0.0807703 -0.202921 -0.0001508  -0.0726968 -0.21267 -0.000146985  -0.0635279 -0.213108 -0.000339746  -0.0623997 -0.203817 -0.000137687  -0.0807663 -0.20289 -0.000460148  -0.0726912 -0.212629 -0.000382423  -0.0715113 -0.203373 -0.000144005  -0.0623962 -0.203786 -0.000363469  -0.0715058 -0.203342 -0.000410318  -0.0842731 -0.230779 -0.000367522  -0.0831673 -0.221464 -0.000156283  -0.0749111 -0.231369 -0.000151992  -0.0656588 -0.231872 -0.000296474  -0.0646164 -0.222497 -0.000142813  -0.083164 -0.221439 -0.000394464  -0.0749049 -0.231333 -0.000331044  -0.0738271 -0.221987 -0.000149369  -0.0646143 -0.222471 -0.000317454  -0.0738227 -0.221961 -0.000356078  -0.0863326 -0.249547 -0.000316501  -0.0853305 -0.240175 -0.000161171  -0.0769339 -0.250185 -0.000156641  -0.0676296 -0.250738 -0.000261664  -0.0666647 -0.241317 -0.0001477  -0.0853286 -0.240152 -0.000341296  -0.0769296 -0.250152 -0.000288367  -0.075943 -0.240755 -0.000154138  -0.0666628 -0.241294 -0.000278354  -0.0759394 -0.240731 -0.000308394  -0.088201 -0.268381 -0.000276685  -0.0872912 -0.258978 -0.000165701  -0.0787916 -0.269057 -0.000160813  -0.0694568 -0.269653 -0.000231504  -0.0685604 -0.260211 -0.000151992  -0.0872898 -0.258959 -0.000294328  -0.0787868 -0.269027 -0.000252843  -0.0778801 -0.259604 -0.000158668  -0.0685594 -0.260191 -0.00024581  -0.0778773 -0.259584 -0.000269771  -0.0899081 -0.287232 -0.000244379  -0.0890734 -0.277825 -0.00017035  -0.0805058 -0.287935 -0.000165582  -0.0711608 -0.288561 -0.000210404  -0.0703237 -0.279126 -0.000156403  -0.0890725 -0.277809 -0.000259519  -0.0805018 -0.287907 -0.000226378  -0.079663 -0.278487 -0.000163317  -0.0703225 -0.279108 -0.000220299  -0.0796602 -0.278469 -0.000238657  -0.0914857 -0.306057 -0.000222445  -0.0907125 -0.296665 -0.000174522  -0.0821054 -0.306777 -0.000169516  -0.0727615 -0.307425 -0.000193  -0.0719728 -0.298014 -0.000160456  -0.0907118 -0.296651 -0.000231385  -0.0821011 -0.306751 -0.000206351  -0.0813169 -0.29735 -0.00016737  -0.0719726 -0.297999 -0.000200987  -0.0813141 -0.297335 -0.000215769  -0.0929699 -0.324825 -0.000206113  -0.0922365 -0.315463 -0.000178814  -0.0836167 -0.325551 -0.000173569  -0.0742803 -0.32621 -0.000183105  -0.0735302 -0.31684 -0.000164509  -0.0922368 -0.31545 -0.000213146  -0.0836124 -0.325526 -0.000194192  -0.0828683 -0.316161 -0.000171423  -0.0735297 -0.316826 -0.000187516  -0.0828657 -0.316147 -0.000199676  -0.0943973 -0.343517 -0.00019753  -0.0936887 -0.334194 -0.000182748  -0.0850677 -0.344242 -0.000177503  -0.0757384 -0.344905 -0.000173807  -0.0750165 -0.335581 -0.000168562  -0.093689 -0.334182 -0.000201464  -0.0850627 -0.344217 -0.000183821  -0.0843468 -0.334896 -0.000175595  -0.0750155 -0.335568 -0.000178456  -0.0843437 -0.334882 -0.000188828  -0.0958049 -0.362159 -0.000185609  -0.0950992 -0.352852 -0.00018692  -0.0864868 -0.362869 -0.000181794  -0.0771654 -0.363522 -0.000167966  -0.0764556 -0.354231 -0.000172496  -0.0951011 -0.35284 -0.00019145  -0.086482 -0.362848 -0.00017643  -0.0857766 -0.353547 -0.000179529  -0.076452 -0.354219 -0.000171185  -0.0857737 -0.353534 -0.000181079  -0.00211105 -0.00449672 -2.38419e-07  0 0 0  -0.00153944 -0.00365293 -0.000396371  -0.000527393 -0.00155301 -7.15256e-07  0 0 0  -0.00209005 -0.00443573 -0.000505328  -0.000702281 -0.00205691 0  0 0 0  -0.000526302 -0.00153933 -0.000213981  -0.000700895 -0.00202838 -0.000266671  -0.00606166 -0.0106483 -5.72205e-06  -0.0045058 -0.00955531 -0.000673294  -0.00290677 -0.00642887 -3.8147e-06  -0.00607499 -0.010593 -0.000848174  -0.0039369 -0.00737225 -2.02656e-06  -0.00289938 -0.0063742 -0.000557065  -0.00393061 -0.00732224 -0.000693798  -0.0107147 -0.0182675 -1.71661e-05  -0.00816151 -0.0172006 -0.000815868  -0.00629178 -0.0132454 -1.21593e-05  -0.0107258 -0.0181859 -0.0010227  -0.00835168 -0.0142669 -1.07288e-05  -0.00629091 -0.013186 -0.000759244  -0.00836167 -0.0142085 -0.00095284  -0.0154514 -0.0272869 -3.0756e-05  -0.0119486 -0.0263469 -0.000854492  -0.0100528 -0.021674 -2.37226e-05  -0.01546 -0.0271883 -0.00106645  -0.0130937 -0.0225931 -2.37226e-05  -0.0100538 -0.0215945 -0.000843406  -0.0131032 -0.0225114 -0.0010581  -0.0200236 -0.0376748 -4.45843e-05  -0.0156621 -0.0368911 -0.000829458  -0.0138252 -0.0315352 -3.6478e-05  -0.0200241 -0.0375731 -0.00103617  -0.0177664 -0.0322989 -3.76701e-05  -0.0138246 -0.031448 -0.00084722  -0.0177693 -0.0322107 -0.00105834  -0.024335 -0.049372 -5.73397e-05  -0.0191961 -0.0487483 -0.000774384  -0.0174565 -0.0427504 -4.85182e-05  -0.0243295 -0.0492716 -0.000963211  -0.0222133 -0.0433534 -5.09024e-05  -0.0174522 -0.0426614 -0.000804186  -0.0222117 -0.0432635 -0.00100243  -0.0283634 -0.0622786 -6.87838e-05  -0.0225379 -0.0618085 -0.000706315  -0.0208989 -0.0552196 -5.96046e-05  -0.028353 -0.0621843 -0.00087738  -0.0263835 -0.0556679 -6.30617e-05  -0.0208917 -0.0551336 -0.000740767  -0.0263757 -0.0555821 -0.00092113  -0.0321202 -0.0762808 -7.93934e-05  -0.0256904 -0.075954 -0.000637293  -0.0241467 -0.0688322 -6.99759e-05  -0.0321071 -0.0761925 -0.000788808  -0.030273 -0.0691382 -7.41482e-05  -0.0241362 -0.0687519 -0.000671506  -0.0302625 -0.069058 -0.000832319  -0.0356246 -0.0912536 -8.86917e-05  -0.0286697 -0.0910607 -0.000571489  -0.0272125 -0.0834668 -7.93934e-05  -0.03561 -0.0911735 -0.000705123  -0.0339013 -0.0836404 -8.39233e-05  -0.0272009 -0.0833931 -0.000603795  -0.0338885 -0.0835676 -0.00074625  -0.0388976 -0.107076 -9.69172e-05  -0.0314882 -0.107006 -0.000510693  -0.03011 -0.099001 -8.76188e-05  -0.0388827 -0.107003 -0.000626922  -0.037287 -0.0990542 -9.26256e-05  -0.0300976 -0.0989349 -0.000540495  -0.037274 -0.0989884 -0.000664592  -0.0419558 -0.123628 -0.000104427  -0.0341586 -0.123671 -0.000455737  -0.0328528 -0.115313 -9.52482e-05  -0.0419418 -0.123562 -0.000556469  -0.0404512 -0.115255 -0.000100732  -0.0328416 -0.115254 -0.000482559  -0.0404377 -0.115197 -0.00059092  -0.0448149 -0.140797 -0.000111461  -0.0366879 -0.140943 -0.000406265  -0.0354507 -0.132289 -0.000102282  -0.0448018 -0.140737 -0.000492334  -0.0434074 -0.13213 -0.000107884  -0.0354397 -0.132237 -0.000430346  -0.0433958 -0.132078 -0.00052321  -0.047487 -0.158476 -0.00011766  -0.0390849 -0.158714 -0.000361562  -0.0379121 -0.149817 -0.00010848  -0.0474747 -0.158423 -0.000435233  -0.046172 -0.149566 -0.000114441  -0.0379027 -0.149771 -0.000383377  -0.0461606 -0.149521 -0.00046289  -0.0499829 -0.176567 -0.000123382  -0.0413535 -0.176887 -0.000321865  -0.0402428 -0.167795 -0.000114322  -0.0499722 -0.176519 -0.000383377  -0.0487541 -0.167463 -0.000120401  -0.0402342 -0.167755 -0.000341296  -0.0487447 -0.167424 -0.000408292  -0.0523132 -0.194979 -0.000128627  -0.0435011 -0.195371 -0.000286937  -0.042449 -0.186129 -0.000119686  -0.0523036 -0.194936 -0.000338197  -0.0511665 -0.185725 -0.000125885  -0.0424423 -0.186094 -0.000303984  -0.0511575 -0.185691 -0.000359893  -0.0544887 -0.213629 -0.000133634  -0.0455317 -0.214084 -0.0002563  -0.0445361 -0.204732 -0.000124693  -0.0544803 -0.21359 -0.000297785  -0.0534176 -0.204266 -0.00013113  -0.0445302 -0.204702 -0.000271201  -0.0534104 -0.204237 -0.000317097  -0.0565207 -0.232441 -0.000138521  -0.0474541 -0.232948 -0.000230193  -0.0465107 -0.223525 -0.000129342  -0.0565133 -0.232407 -0.000264168  -0.0555203 -0.223006 -0.000135899  -0.0465062 -0.223499 -0.000242829  -0.0555136 -0.222981 -0.000280261  -0.0584209 -0.251351 -0.00014329  -0.0492733 -0.251901 -0.000208974  -0.0483787 -0.242439 -0.00013411  -0.0584149 -0.251319 -0.0002352  -0.0574841 -0.241875 -0.000140667  -0.0483754 -0.242416 -0.000219226  -0.0574799 -0.241853 -0.00024879  -0.0602028 -0.270297 -0.000147223  -0.0509996 -0.270882 -0.000191569  -0.0501499 -0.261409 -0.000138402  -0.0601976 -0.270269 -0.00021255  -0.059324 -0.260809 -0.000145078  -0.0501478 -0.26139 -0.000199914  -0.0593197 -0.260791 -0.000222921  -0.0618808 -0.289231 -0.000151396  -0.0526412 -0.289844 -0.000178695  -0.0518317 -0.280384 -0.000142455  -0.0618761 -0.289204 -0.000194311  -0.0610518 -0.279755 -0.00014925  -0.0518298 -0.280367 -0.000184655  -0.0610487 -0.279739 -0.000202656  -0.0634692 -0.308112 -0.000155687  -0.0542088 -0.308746 -0.000169039  -0.0534346 -0.299318 -0.000146508  -0.0634649 -0.308088 -0.000182033  -0.0626838 -0.298667 -0.000153422  -0.0534337 -0.299303 -0.00017345  -0.0626805 -0.298653 -0.000187397  -0.0649836 -0.32691 -0.000159502  -0.0557117 -0.327558 -0.000162721  -0.0549672 -0.318176 -0.000150442  -0.0649803 -0.326886 -0.000172734  -0.0642326 -0.31751 -0.000157356  -0.0549672 -0.318163 -0.000165582  -0.0642304 -0.317497 -0.000176787  -0.0664415 -0.345608 -0.000163436  -0.0571647 -0.346261 -0.000158191  -0.0564437 -0.336934 -0.000154495  -0.0664377 -0.345586 -0.000166893  -0.065717 -0.336259 -0.000161409  -0.0564437 -0.336922 -0.000160456  -0.0657146 -0.336248 -0.000169277  -0.0678704 -0.364211 -0.000167251  -0.0585897 -0.364845 -0.000153661  -0.0578778 -0.35558 -0.000158191  -0.0678656 -0.364186 -0.000160933  -0.0671539 -0.354908 -0.000165105  -0.0578771 -0.355567 -0.000156403  -0.0671518 -0.354896 -0.000163674  -0.0010663 -0.00316399 -2.98023e-06  0 0 0  -0.000656754 -0.00280118 -0.000202656  -0.000226632 -0.00103617 -2.14577e-06  0 0 0  -0.00106913 -0.00312868 -0.000301361  -0.000361096 -0.001228 -1.3113e-06  0 0 0  -0.00022373 -0.00102848 -0.000111103  -0.000359442 -0.001219 -0.000163794  -0.00319222 -0.00890005 -8.9407e-06  -0.00198844 -0.00836691 -0.000338554  -0.00125669 -0.00534377 -7.03335e-06  -0.0031978 -0.00883126 -0.000503182  -0.00203189 -0.00576559 -5.36442e-06  -0.00125502 -0.00531018 -0.000278592  -0.00203566 -0.00571761 -0.000415444  -0.00585464 -0.016562 -1.84774e-05  -0.00371611 -0.0160167 -0.000411749  -0.00281838 -0.0120301 -1.46627e-05  -0.00586042 -0.0164808 -0.000610948  -0.00448135 -0.0125094 -1.33514e-05  -0.0028159 -0.0119719 -0.000383854  -0.00448728 -0.0124419 -0.000567675  -0.0086973 -0.0258202 -2.95639e-05  -0.00561801 -0.0253325 -0.000435352  -0.00465491 -0.0205645 -2.43187e-05  -0.00870061 -0.0257255 -0.0006423  -0.00726882 -0.0209964 -2.37226e-05  -0.00465351 -0.0204865 -0.000428915  -0.00727195 -0.020919 -0.000635266  -0.011534 -0.0364977 -4.06504e-05  -0.00757158 -0.0361032 -0.000427127  -0.00659406 -0.0306304 -3.42131e-05  -0.0115317 -0.0363991 -0.000626087  -0.0101227 -0.0309768 -3.50475e-05  -0.00659192 -0.0305433 -0.000434637  -0.010123 -0.0308895 -0.000638723  -0.0142854 -0.0484834 -5.14984e-05  -0.00952178 -0.0481907 -0.000402212  -0.00855291 -0.0420769 -4.42266e-05  -0.0142785 -0.0483841 -0.000586987  -0.012922 -0.0423214 -4.6134e-05  -0.00854814 -0.0419876 -0.000415921  -0.0129172 -0.0422336 -0.00060904  -0.0169303 -0.0616643 -6.13928e-05  -0.011454 -0.0614772 -0.000371099  -0.010497 -0.054776 -5.37634e-05  -0.0169198 -0.0615703 -0.000536919  -0.0156204 -0.0549189 -5.6386e-05  -0.01049 -0.0546893 -0.000387192  -0.0156123 -0.0548333 -0.000562787  -0.0194696 -0.0759192 -7.04527e-05  -0.0133656 -0.0758324 -0.000339031  -0.0124207 -0.0686074 -6.24657e-05  -0.0194571 -0.0758302 -0.000487447  -0.0182117 -0.0686517 -6.58035e-05  -0.012412 -0.0685257 -0.000354886  -0.0182006 -0.0685719 -0.000512362  -0.0219119 -0.0911275 -7.87973e-05  -0.0152594 -0.0911387 -0.000308752  -0.0143237 -0.0834472 -7.05719e-05  -0.0218983 -0.0910466 -0.000438809  -0.0207009 -0.0833987 -7.4625e-05  -0.0143143 -0.083372 -0.000323772  -0.0206891 -0.0833254 -0.000463009  -0.0242641 -0.107165 -8.65459e-05  -0.0171353 -0.107266 -0.000281453  -0.0162086 -0.0991725 -7.79629e-05  -0.0242507 -0.107091 -0.000395894  -0.0230973 -0.0990371 -8.2612e-05  -0.0161991 -0.0991043 -0.000294685  -0.0230849 -0.0989709 -0.000417113  -0.0265322 -0.123916 -9.33409e-05  -0.0189928 -0.124102 -0.000256658  -0.018075 -0.115662 -8.4877e-05  -0.0265194 -0.123849 -0.000355124  -0.025407 -0.115446 -8.98838e-05  -0.0180662 -0.115601 -0.000268817  -0.0253952 -0.115386 -0.000375271  -0.0287187 -0.141264 -9.97782e-05  -0.0208282 -0.141527 -0.000234842  -0.0199211 -0.132799 -9.11951e-05  -0.0287068 -0.141202 -0.000320554  -0.0276339 -0.132508 -9.64403e-05  -0.0199131 -0.132745 -0.000245571  -0.0276226 -0.132456 -0.000337601  -0.0308259 -0.159105 -0.0001055  -0.0226388 -0.159439 -0.00021565  -0.0217437 -0.150474 -9.69172e-05  -0.0308149 -0.159051 -0.00028789  -0.0297804 -0.150116 -0.00010252  -0.0217365 -0.150426 -0.000225067  -0.0297706 -0.15007 -0.000304103  -0.0328537 -0.177339 -0.000110865  -0.0244186 -0.177735 -0.00019896  -0.0235384 -0.168584 -0.000102162  -0.0328442 -0.17729 -0.000260472  -0.0318478 -0.168166 -0.000108004  -0.0235323 -0.168542 -0.000207067  -0.0318391 -0.168126 -0.000273943  -0.0348041 -0.195877 -0.000115752  -0.0261652 -0.196329 -0.000184178  -0.0253009 -0.187035 -0.000107288  -0.0347955 -0.195833 -0.000234842  -0.0338368 -0.186563 -0.00011313  -0.0252961 -0.186998 -0.000191212  -0.0338293 -0.186528 -0.000247598  -0.0366772 -0.214635 -0.000120401  -0.0278735 -0.215133 -0.000172138  -0.0270276 -0.205739 -0.000111818  -0.0366699 -0.214595 -0.000214338  -0.0357484 -0.20522 -0.000117898  -0.0270239 -0.205706 -0.00017786  -0.0357418 -0.20519 -0.000224471  -0.0384755 -0.233539 -0.000125051  -0.029542 -0.234078 -0.000162005  -0.0287156 -0.224618 -0.000116348  -0.0384693 -0.233504 -0.000195742  -0.0375836 -0.22406 -0.000122547  -0.0287125 -0.22459 -0.000166893  -0.0375788 -0.224034 -0.000204921  -0.0402017 -0.252523 -0.00012958  -0.0311677 -0.253094 -0.000154138  -0.0303617 -0.243602 -0.00012064  -0.0401959 -0.25249 -0.000181913  -0.0393455 -0.243012 -0.000127316  -0.0303597 -0.243578 -0.000157714  -0.0393412 -0.242989 -0.000188708  -0.0418599 -0.27153 -0.000133395  -0.0327523 -0.272129 -0.000148058  -0.0319664 -0.262632 -0.000124812  -0.0418551 -0.271501 -0.000169516  -0.0410368 -0.262014 -0.000131488  -0.0319648 -0.26261 -0.000151038  -0.0410335 -0.261995 -0.000175714  -0.0434544 -0.290512 -0.000137448  -0.0342939 -0.291131 -0.000144362  -0.0335283 -0.281653 -0.000128627  -0.0434506 -0.290484 -0.000161529  -0.0426631 -0.281014 -0.000135303  -0.0335279 -0.281634 -0.000146031  -0.04266 -0.280997 -0.000165582  -0.0449913 -0.309429 -0.000141382  -0.0357955 -0.310065 -0.000142097  -0.035049 -0.300623 -0.000132561  -0.0449882 -0.309404 -0.00015521  -0.0442278 -0.299967 -0.000139356  -0.0350492 -0.300606 -0.00014317  -0.0442262 -0.299953 -0.000158548  -0.0464766 -0.32825 -0.000145316  -0.0372581 -0.328896 -0.000141501  -0.03653 -0.319507 -0.000136375  -0.0464737 -0.328226 -0.000152349  -0.0457382 -0.31884 -0.000143051  -0.0365312 -0.319492 -0.00014174  -0.0457366 -0.318827 -0.000153899  -0.04792 -0.346958 -0.000149131  -0.0386884 -0.347608 -0.000141501  -0.037976 -0.33828 -0.000140071  -0.0479171 -0.346935 -0.000149131  -0.0472009 -0.337606 -0.000147104  -0.0379763 -0.338266 -0.000141501  -0.0472 -0.337594 -0.000151038  -0.0493355 -0.365527 -0.000152588  -0.0400949 -0.366165 -0.000141382  -0.0393929 -0.356921 -0.000143528  -0.0493343 -0.365502 -0.000147581  -0.0486274 -0.356249 -0.000150681  -0.0393929 -0.356906 -0.000141501  -0.0486267 -0.356237 -0.000148296  -0.000281662 -0.00269005 -5.24521e-06  0 0 0  8.0511e-05 -0.0026589 -6.79493e-06  2.67252e-05 -0.00094381 -3.33786e-06  0 0 0  -0.00027933 -0.00265655 -0.000104427  -9.45218e-05 -0.000947058 -2.38419e-06  0 0 0  2.61664e-05 -0.000935912 -2.98023e-06  -9.63509e-05 -0.000936538 -5.68628e-05  -0.000870481 -0.00821781 -1.20401e-05  0.000206053 -0.00815317 -1.50204e-05  0.000144422 -0.00515559 -9.89437e-06  -0.000871196 -0.00815204 -0.000177026  -0.000542805 -0.00515425 -8.34465e-06  0.000144929 -0.00511065 -1.07288e-05  -0.000540316 -0.00510994 -0.000145316  -0.00169185 -0.0158819 -2.01464e-05  0.000275254 -0.015826 -2.28882e-05  0.000250936 -0.0118208 -1.72853e-05  -0.00169063 -0.0158007 -0.000216246  -0.00125846 -0.0118095 -1.57356e-05  0.000251919 -0.0117601 -1.91927e-05  -0.00125659 -0.0117452 -0.000199676  -0.00266454 -0.0252605 -2.90871e-05  0.000228703 -0.0252309 -2.93255e-05  0.000266075 -0.0204131 -2.51532e-05  -0.0026623 -0.0251671 -0.000231147  -0.00216293 -0.0203701 -2.44379e-05  0.00026837 -0.020336 -2.64645e-05  -0.00216183 -0.0202928 -0.000226378  -0.00373787 -0.0361047 -3.80278e-05  3.93391e-05 -0.0361169 -3.46899e-05  0.000149429 -0.030583 -3.3021e-05  -0.00373298 -0.0360073 -0.000230551  -0.00319022 -0.0304978 -3.34978e-05  0.000153005 -0.0304994 -3.23057e-05  -0.00318664 -0.0304129 -0.000231862  -0.00488794 -0.0482696 -4.68493e-05  -0.000304043 -0.0483354 -3.91006e-05  -0.00011754 -0.0421537 -4.08888e-05  -0.00488096 -0.0481723 -0.000219584  -0.00430316 -0.0420181 -4.23193e-05  -0.00011301 -0.0420675 -3.70741e-05  -0.00429827 -0.0419318 -0.000225306  -0.00610542 -0.0616282 -5.50747e-05  -0.000800729 -0.0617509 -4.31538e-05  -0.000538409 -0.0549835 -4.8399e-05  -0.00609666 -0.0615351 -0.000207067  -0.0054875 -0.0547946 -5.09024e-05  -0.000533342 -0.0548998 -4.11272e-05  -0.00548023 -0.0547107 -0.000213146  -0.00738561 -0.0760539 -6.28233e-05  -0.00144446 -0.0762376 -4.70877e-05  -0.00111014 -0.068946 -5.56707e-05  -0.00737602 -0.0759658 -0.000192404  -0.00673652 -0.0687022 -5.87702e-05  -0.00110471 -0.0688667 -4.50611e-05  -0.00672865 -0.0686231 -0.000199318  -0.00872481 -0.0914241 -6.98566e-05  -0.00222552 -0.0916673 -5.126e-05  -0.00182378 -0.083914 -6.25849e-05  -0.00871503 -0.0913432 -0.000180244  -0.00804687 -0.0836155 -6.63996e-05  -0.0018183 -0.0838406 -4.92334e-05  -0.00803804 -0.0835427 -0.000185847  -0.0101174 -0.107614 -7.66516e-05  -0.00313127 -0.107916 -5.59092e-05  -0.00266838 -0.099762 -6.90222e-05  -0.0101079 -0.107539 -0.000168085  -0.00941312 -0.0994109 -7.31945e-05  -0.00266337 -0.0996953 -5.3525e-05  -0.00940514 -0.0993446 -0.000173688  -0.0115561 -0.124505 -8.29697e-05  -0.00414872 -0.124862 -6.06775e-05  -0.003631 -0.116368 -7.49826e-05  -0.0115473 -0.124438 -0.000159264  -0.0108302 -0.115966 -7.96318e-05  -0.00362682 -0.116308 -5.82933e-05  -0.0108219 -0.115907 -0.000163078  -0.0130324 -0.141982 -8.85725e-05  -0.00526249 -0.142392 -6.58035e-05  -0.0046978 -0.133613 -8.04663e-05  -0.0130241 -0.141921 -0.000150084  -0.0122883 -0.133164 -8.57115e-05  -0.00469422 -0.133559 -6.34193e-05  -0.0122814 -0.133111 -0.000154257  -0.0145369 -0.15994 -9.39369e-05  -0.00645924 -0.160396 -7.11679e-05  -0.00585413 -0.151386 -8.55923e-05  -0.0145295 -0.159885 -0.000144005  -0.01378 -0.150894 -9.10759e-05  -0.00585115 -0.151339 -6.86646e-05  -0.0137736 -0.150848 -0.000146508  -0.0160602 -0.178278 -9.85861e-05  -0.00772309 -0.178776 -7.65324e-05  -0.00708556 -0.169584 -9.03606e-05  -0.016054 -0.178228 -0.000137329  -0.0152947 -0.169054 -9.62019e-05  -0.00708318 -0.169543 -7.37906e-05  -0.0152899 -0.169013 -0.000140309  -0.0175941 -0.196906 -0.000103116  -0.00904226 -0.19744 -8.18968e-05  -0.00837791 -0.188112 -9.50098e-05  -0.0175885 -0.196862 -0.000133634  -0.016825 -0.187548 -0.000100851  -0.00837672 -0.188076 -7.92742e-05  -0.0168201 -0.187513 -0.000134945  -0.0191298 -0.215741 -0.000107646  -0.0104021 -0.216307 -8.74996e-05  -0.00971842 -0.206882 -9.91821e-05  -0.0191247 -0.215701 -0.00012958  -0.0183601 -0.20629 -0.000105381  -0.00971746 -0.206851 -8.47578e-05  -0.0183568 -0.206259 -0.000131249  -0.0206599 -0.234711 -0.000112057  -0.0117922 -0.235302 -9.29832e-05  -0.0110943 -0.225818 -0.000103235  -0.0206556 -0.234675 -0.000128269  -0.0198941 -0.225201 -0.000109792  -0.0110939 -0.225791 -9.02414e-05  -0.019891 -0.225175 -0.000128388  -0.0221784 -0.253748 -0.000115991  -0.013201 -0.254361 -9.85861e-05  -0.0124941 -0.244848 -0.000107288  -0.0221751 -0.253716 -0.000126123  -0.0214188 -0.244212 -0.000113726  -0.0124946 -0.244825 -9.57251e-05  -0.0214171 -0.244189 -0.0001266  -0.0236814 -0.272799 -0.000119686  -0.014621 -0.273427 -0.000103951  -0.0139091 -0.263914 -0.000110984  -0.0236783 -0.27277 -0.000126719  -0.0229304 -0.263262 -0.000117779  -0.0139101 -0.263894 -0.000101328  -0.0229285 -0.263243 -0.000126004  -0.0251639 -0.291813 -0.000123501  -0.0160425 -0.292455 -0.000109434  -0.0153306 -0.282964 -0.000114799  -0.0251617 -0.291786 -0.000126719  -0.0244231 -0.2823 -0.000121593  -0.0153315 -0.282946 -0.000106812  -0.0244226 -0.282283 -0.000126243  -0.0266247 -0.310756 -0.000127435  -0.0174608 -0.311405 -0.000114679  -0.0167506 -0.301955 -0.000118375  -0.0266228 -0.310731 -0.000129223  -0.0258956 -0.301283 -0.000125289  -0.0167522 -0.30194 -0.000112176  -0.0258949 -0.301268 -0.000127554  -0.0280614 -0.329594 -0.000130773  -0.0188699 -0.330249 -0.000120044  -0.0181644 -0.320854 -0.000121951  -0.0280597 -0.32957 -0.000130415  -0.0273442 -0.320176 -0.000128984  -0.0181668 -0.32084 -0.000117302  -0.027344 -0.320163 -0.000129342  -0.0294757 -0.348307 -0.000134587  -0.0202675 -0.348964 -0.000125408  -0.0195684 -0.339635 -0.000125647  -0.0294738 -0.348283 -0.000133872  -0.0287693 -0.338954 -0.00013268  -0.0195701 -0.339621 -0.000122786  -0.0287693 -0.338942 -0.000131845  -0.03087 -0.366857 -0.000138402  -0.0216467 -0.367513 -0.000130892  -0.0209575 -0.358273 -0.000129223  -0.0308659 -0.366834 -0.000135779  -0.0301726 -0.357593 -0.000136375  -0.0209596 -0.358261 -0.000127912  -0.0301721 -0.357581 -0.000134587  0.000442043 -0.00283158 -7.86781e-06  0 0 0  0.000816002 -0.00308502 0.000185609  0.00027962 -0.00120056 -5.126e-06  0 0 0  0.000441268 -0.00279891 9.0003e-05  0.000147425 -0.00102741 -4.05312e-06  0 0 0  0.000274464 -0.00119197 0.000100732  0.000149988 -0.00101835 4.93526e-05  0.00127855 -0.00844318 -1.5378e-05  0.00239274 -0.00881565 0.000304818  0.00154236 -0.00571853 -1.35899e-05  0.0012843 -0.00837797 0.000145793  0.000830919 -0.00534314 -1.14441e-05  0.00153932 -0.00568628 0.000253439  0.000831038 -0.00529921 0.000123143  0.00223055 -0.0161719 -2.22921e-05  0.00424305 -0.0165941 0.000361443  0.00330567 -0.0125417 -2.06232e-05  0.00223657 -0.0160913 0.000169396  0.00175574 -0.0120674 -1.85966e-05  0.00330397 -0.0124848 0.000341773  0.00175887 -0.0120039 0.000160456  0.0031026 -0.0256149 -2.90871e-05  0.00603515 -0.0260406 0.000371218  0.005155 -0.0212038 -2.63453e-05  0.00311047 -0.0255225 0.000170827  0.00268528 -0.0206916 -2.53916e-05  0.0051578 -0.0211272 0.000371218  0.00269151 -0.0206151 0.000172734  0.00379044 -0.036531 -3.5882e-05  0.00759608 -0.0369573 0.000353336  0.00684464 -0.0314074 -3.20673e-05  0.00379771 -0.0364344 0.000159979  0.00347435 -0.030887 -3.23057e-05  0.00685006 -0.0313222 0.000365376  0.00348049 -0.0308031 0.000166178  0.00424922 -0.0487764 -4.25577e-05  0.00885057 -0.049207 0.000319958  0.00825864 -0.0430087 -3.79086e-05  0.00425619 -0.0486796 0.000140429  0.00405031 -0.0424836 -3.92199e-05  0.00826323 -0.0429209 0.000337481  0.00405687 -0.0423981 0.000150442  0.00447059 -0.0622213 -4.92334e-05  0.0097838 -0.0626675 0.000281811  0.00935358 -0.0558773 -4.37498e-05  0.00447673 -0.0621285 0.000120163  0.00439066 -0.0553438 -4.58956e-05  0.00935709 -0.0557917 0.000301123  0.00439584 -0.0552604 0.000130177  0.00446224 -0.0767368 -5.55515e-05  0.0104065 -0.0772035 0.000242829  0.0101308 -0.0698873 -4.93526e-05  0.00446796 -0.0766487 9.77516e-05  0.00449526 -0.0693398 -5.23329e-05  0.010133 -0.069806 0.00026226  0.00450045 -0.0692611 0.0001086  0.00424016 -0.0921971 -6.1512e-05  0.0107391 -0.0926905 0.000204563  0.0106065 -0.084909 -5.48363e-05  0.00424552 -0.092116 7.7486e-05  0.00437844 -0.0843438 -5.8651e-05  0.0106078 -0.0848339 0.000223637  0.00438237 -0.0842707 8.72612e-05  0.00382268 -0.108475 -6.73532e-05  0.0108072 -0.108994 0.000168681  0.0108045 -0.100814 -6.04391e-05  0.00382757 -0.108399 5.61476e-05  0.0040561 -0.100228 -6.44922e-05  0.0108051 -0.100745 0.000186443  0.00406003 -0.100162 6.62804e-05  0.00322926 -0.125449 -7.25985e-05  0.0106349 -0.125997 0.000134587  0.0107502 -0.117476 -6.55651e-05  0.00323343 -0.125381 3.76701e-05  0.00354838 -0.116869 -6.99759e-05  0.0107497 -0.117414 0.000151277  0.00355136 -0.116809 4.63724e-05  0.00248003 -0.143004 -7.79629e-05  0.0102484 -0.143576 0.000102758  0.010468 -0.134774 -7.02143e-05  0.00248384 -0.142942 1.81198e-05  0.00287437 -0.134147 -7.51019e-05  0.0104674 -0.134719 0.000118494  0.00287724 -0.134095 2.74181e-05  0.00159442 -0.161031 -8.23736e-05  0.00967145 -0.161628 7.30753e-05  0.00998366 -0.152596 -7.47442e-05  0.00159788 -0.160976 1.54972e-06  0.00205493 -0.151952 -7.99894e-05  0.00998259 -0.152547 8.76188e-05  0.00205684 -0.151905 9.41753e-06  0.000592232 -0.17943 -8.67844e-05  0.00892949 -0.180046 4.60148e-05  0.00932157 -0.170837 -7.89165e-05  0.000594974 -0.17938 -1.54972e-05  0.00110841 -0.170177 -8.45194e-05  0.00932026 -0.170794 5.9247e-05  0.00111008 -0.170136 -7.51019e-06  -0.000508904 -0.198111 -9.09567e-05  0.00804365 -0.198745 2.01464e-05  0.00850546 -0.189401 -8.28505e-05  -0.000506639 -0.198067 -3.016e-05  5.47171e-05 -0.188728 -8.88109e-05  0.00850332 -0.189363 3.26633e-05  5.55515e-05 -0.188692 -2.3365e-05  -0.00169086 -0.216991 -9.48906e-05  0.00703788 -0.217636 -2.74181e-06  0.00755715 -0.208202 -8.65459e-05  -0.0016892 -0.21695 -4.54187e-05  -0.00108922 -0.207518 -9.27448e-05  0.00755501 -0.208168 8.58307e-06  -0.0010885 -0.207487 -3.82662e-05  -0.00293851 -0.235996 -9.88245e-05  0.0059309 -0.236653 -2.38419e-05  0.00649858 -0.22716 -9.03606e-05  -0.0029366 -0.23596 -5.78165e-05  -0.00230551 -0.226469 -9.66787e-05  0.00649595 -0.227131 -1.37091e-05  -0.00230575 -0.226443 -5.20945e-05  -0.00423551 -0.255062 -0.000102162  0.00474358 -0.255725 -4.26769e-05  0.0053494 -0.246208 -9.39369e-05  -0.00423431 -0.255029 -7.06911e-05  -0.00357985 -0.245512 -0.000100374  0.00534678 -0.246183 -3.3617e-05  -0.00357985 -0.245489 -6.47306e-05  -0.00557017 -0.274133 -0.000105858  0.00349236 -0.274802 -5.96046e-05  0.00412822 -0.265286 -9.75132e-05  -0.00556898 -0.274104 -8.10623e-05  -0.00489688 -0.264587 -0.00010407  0.00412536 -0.265264 -5.16176e-05  -0.00489759 -0.264567 -7.65324e-05  -0.0069294 -0.293163 -0.000109434  0.00219393 -0.293833 -7.43866e-05  0.00285172 -0.284342 -0.00010097  -0.00692844 -0.293136 -9.19104e-05  -0.00624537 -0.283643 -0.000107765  0.00284886 -0.284323 -6.73532e-05  -0.00624585 -0.283626 -8.7142e-05  -0.00830388 -0.312115 -0.00011313  0.000861645 -0.312786 -8.7142e-05  0.00153518 -0.303336 -0.000104308  -0.0083034 -0.31209 -0.000100255  -0.00761342 -0.302638 -0.000111103  0.0015316 -0.303319 -8.10623e-05  -0.00761461 -0.302623 -9.65595e-05  -0.00968456 -0.330959 -0.000116825  -0.000491858 -0.331627 -9.84669e-05  0.000190973 -0.322235 -0.000107884  -0.00968456 -0.330934 -0.000109673  -0.0089922 -0.321539 -0.000114679  0.000187159 -0.322219 -9.31025e-05  -0.00899339 -0.321526 -0.000105381  -0.0110655 -0.349673 -0.000120401  -0.00185585 -0.350343 -0.000109315  -0.00116992 -0.341014 -0.000111341  -0.0110648 -0.34965 -0.000116825  -0.0103738 -0.34032 -0.000118375  -0.00117302 -0.340999 -0.00010407  -0.0103748 -0.340307 -0.000113487  -0.01243 -0.368224 -0.00012362  -0.00321054 -0.3689 -0.000119209  -0.00253296 -0.359656 -0.000114918  -0.0124319 -0.3682 -0.000124812  -0.0117493 -0.35896 -0.000121951  -0.00253558 -0.359642 -0.000114441  -0.0117509 -0.358948 -0.000121117  0.0012164 -0.00358981 -1.12057e-05  0 0 0  0.00166877 -0.00421029 0.000376582  0.000565894 -0.0018574 -7.51019e-06  0 0 0  0.00122221 -0.00355136 0.000282168  0.000408269 -0.0014711 -6.31809e-06  0 0 0  0.000558138 -0.00185931 0.000211835  0.000408515 -0.00146478 0.000154614  0.00357652 -0.00956202 -1.94311e-05  0.00485209 -0.0104209 0.00062561  0.00315443 -0.00716007 -1.80006e-05  0.00358647 -0.00949645 0.000463367  0.00230549 -0.00632203 -1.5378e-05  0.00314298 -0.00710452 0.000518322  0.00231203 -0.00627619 0.000386596  0.00633857 -0.0174146 -2.5034e-05  0.00858703 -0.0183218 0.00074625  0.00670472 -0.0142359 -2.47955e-05  0.00635141 -0.0173364 0.00055337  0.00493985 -0.0132666 -2.24113e-05  0.00670052 -0.014176 0.000698924  0.00495121 -0.0132018 0.000517726  0.00904965 -0.0268735 -2.94447e-05  0.0122246 -0.0277431 0.00077343  0.0104337 -0.0229259 -2.80142e-05  0.00906277 -0.0267825 0.000571251  0.00772104 -0.0219465 -2.70605e-05  0.0104382 -0.0228496 0.000768065  0.00773072 -0.0218722 0.000570774  0.0114753 -0.0377761 -3.40939e-05  0.0155107 -0.0385985 0.000739813  0.0139169 -0.0330796 -3.1352e-05  0.0114852 -0.03768 0.000545979  0.0103075 -0.0321391 -3.15905e-05  0.0139229 -0.0329955 0.000761151  0.0103174 -0.032055 0.000562549  0.0135188 -0.0500111 -3.88622e-05  0.0183259 -0.0507963 0.000679493  0.0169733 -0.0446217 -3.48091e-05  0.0135257 -0.0499136 0.000499487  0.0125486 -0.0437215 -3.63588e-05  0.0169783 -0.0445353 0.000711679  0.0125554 -0.0436357 0.000524998  0.0151583 -0.063458 -4.3869e-05  0.0206571 -0.0642195 0.000607252  0.0195494 -0.0574456 -3.91006e-05  0.0151626 -0.0633651 0.000443935  0.0143898 -0.0565778 -4.12464e-05  0.0195522 -0.0573614 0.000643611  0.0143943 -0.0564939 0.000472426  0.0164071 -0.0779885 -4.88758e-05  0.0225195 -0.0787374 0.0005337  0.0216447 -0.0714282 -4.33922e-05  0.0164098 -0.0778997 0.000388265  0.0158314 -0.0705829 -4.60148e-05  0.0216447 -0.0713487 0.000570297  0.0158335 -0.0705034 0.000416398  0.0172911 -0.0934711 -5.38826e-05  0.0239443 -0.0942143 0.000462055  0.023286 -0.0864365 -4.76837e-05  0.0172926 -0.0933899 0.000332713  0.0168942 -0.0856058 -5.126e-05  0.0232848 -0.086363 0.00049746  0.0168952 -0.0855324 0.00036037  0.0178409 -0.109776 -5.8651e-05  0.0249678 -0.110518 0.000394583  0.0245066 -0.102336 -5.22137e-05  0.0178417 -0.1097 0.000281572  0.0176075 -0.101516 -5.62668e-05  0.0245039 -0.10227 0.000427842  0.017607 -0.101449 0.000306845  0.0180871 -0.126777 -6.31809e-05  0.0256244 -0.127519 0.000331283  0.0253432 -0.118997 -5.6386e-05  0.0180873 -0.126709 0.00023222  0.0180016 -0.118184 -6.07967e-05  0.02534 -0.118937 0.000362277  0.018001 -0.118124 0.000256896  0.01806 -0.144357 -6.7234e-05  0.0259503 -0.1451 0.000272632  0.0258306 -0.136297 -6.02007e-05  0.0180601 -0.144295 0.000187993  0.0181077 -0.135489 -6.52075e-05  0.0258266 -0.136243 0.00030148  0.018106 -0.135435 0.000209808  0.0177894 -0.162407 -7.14064e-05  0.0259789 -0.163148 0.000218391  0.0260041 -0.154118 -6.40154e-05  0.0177891 -0.162351 0.000145197  0.0179551 -0.153317 -6.91414e-05  0.026 -0.154071 0.000244975  0.0179536 -0.15327 0.000166416  0.0173043 -0.180824 -7.51019e-05  0.0257448 -0.181564 0.000168562  0.0258971 -0.172357 -6.74725e-05  0.0173037 -0.180773 0.000107408  0.0175738 -0.171562 -7.30753e-05  0.0258929 -0.172315 0.000193  0.0175716 -0.171521 0.000126243  0.0166315 -0.199519 -7.86781e-05  0.025278 -0.200255 0.000122905  0.0255431 -0.190916 -7.10487e-05  0.0166308 -0.199474 7.11679e-05  0.0169913 -0.190129 -7.67708e-05  0.0255386 -0.190879 0.000145078  0.0169896 -0.190093 8.91685e-05  0.0157983 -0.218407 -8.22544e-05  0.0246112 -0.219139 8.14199e-05  0.0249727 -0.209708 -7.43866e-05  0.0157974 -0.218366 3.96967e-05  0.0162352 -0.20893 -8.03471e-05  0.0249679 -0.209676 0.000101686  0.0162326 -0.208899 5.53131e-05  0.0148289 -0.237416 -8.57115e-05  0.0237732 -0.238141 4.44651e-05  0.0242167 -0.228655 -7.76052e-05  0.0148282 -0.23738 1.00136e-05  0.0153308 -0.227888 -8.38041e-05  0.0242121 -0.228628 6.24657e-05  0.0153286 -0.227861 2.46763e-05  0.0137479 -0.256482 -8.90493e-05  0.0227926 -0.2572 1.19209e-05  0.0233037 -0.24769 -8.08239e-05  0.0137472 -0.256448 -1.49012e-05  0.014303 -0.246933 -8.72612e-05  0.023299 -0.247666 2.77758e-05  0.0143003 -0.246909 -2.74181e-06  0.0125771 -0.27555 -9.23872e-05  0.0216951 -0.27626 -1.63317e-05  0.0222614 -0.266752 -8.40425e-05  0.0125761 -0.275521 -3.83854e-05  0.0131743 -0.266006 -9.07183e-05  0.0222573 -0.266731 -2.74181e-06  0.0131721 -0.265986 -2.68221e-05  0.0113363 -0.294574 -9.58443e-05  0.0205069 -0.295275 -4.02927e-05  0.0211155 -0.285791 -8.7142e-05  0.0113354 -0.294546 -5.68628e-05  0.0119662 -0.285057 -9.38177e-05  0.0211112 -0.285774 -2.86102e-05  0.0119634 -0.28504 -4.75645e-05  0.0100436 -0.313518 -9.90629e-05  0.0192485 -0.31421 -6.03199e-05  0.0198898 -0.304769 -9.04799e-05  0.0100427 -0.313493 -7.41482e-05  0.0106971 -0.304045 -9.72748e-05  0.0198853 -0.304753 -5.07832e-05  0.0106947 -0.30403 -6.54459e-05  0.00871491 -0.332354 -0.000102282  0.017941 -0.333038 -7.71284e-05  0.0186048 -0.323651 -9.36985e-05  0.00871372 -0.332329 -8.7738e-05  0.00938463 -0.322938 -0.000100493  0.0185995 -0.323637 -6.90222e-05  0.00938201 -0.322924 -8.08239e-05  0.00736499 -0.351066 -0.000105977  0.0166023 -0.351746 -9.23872e-05  0.0172787 -0.342419 -9.69172e-05  0.00736427 -0.351042 -0.000101447  0.00804329 -0.341713 -0.00010407  0.0172749 -0.342406 -8.52346e-05  0.00804114 -0.3417 -9.44138e-05  0.00601625 -0.369635 -0.000109315  0.01526 -0.370329 -0.000107527  0.0159328 -0.361066 -0.000100493  0.00601721 -0.36961 -0.000113487  0.00669026 -0.360357 -0.000107646  0.0159285 -0.361052 -9.97782e-05  0.00668812 -0.360344 -0.000107527  0.00217189 -0.00515151 -1.52588e-05  0 0 0  0.00274102 -0.0063166 0.00056994  0.000972815 -0.00313967 -1.01328e-05  0 0 0  0.00217301 -0.00511497 0.000474095  0.000714004 -0.00237691 -8.58307e-06  0 0 0  0.000908688 -0.00311601 0.000293851  0.000717141 -0.0024063 0.000251174  0.00633428 -0.0117138 -2.39611e-05  0.00803003 -0.0132161 0.00095737  0.00528747 -0.0097239 -2.28882e-05  0.00634813 -0.0116473 0.000784278  0.00410599 -0.00826728 -2.01464e-05  0.00520384 -0.00966388 0.000784636  0.00411266 -0.00820941 0.000656724  0.0110399 -0.0196453 -2.7895e-05  0.0137945 -0.0210454 0.00114048  0.0109307 -0.0170034 -2.82526e-05  0.0110586 -0.0195628 0.000941515  0.00867918 -0.0154814 -2.63453e-05  0.0109266 -0.016943 0.00107205  0.00869185 -0.0154168 0.000880361  0.0155927 -0.0290145 -2.95639e-05  0.0192415 -0.0302996 0.00117648  0.0165624 -0.0255695 -2.89679e-05  0.0156106 -0.02892 0.000972271  0.0133599 -0.0241383 -2.8491e-05  0.0165654 -0.0254864 0.0011729  0.0133758 -0.0240596 0.000971079  0.0197127 -0.0398059 -3.20673e-05  0.0241709 -0.0409955 0.00113022  0.0217686 -0.0355558 -2.98023e-05  0.019725 -0.0397082 0.000934601  0.0177185 -0.0342227 -3.06368e-05  0.0217785 -0.0354689 0.00116205  0.0177301 -0.0341381 0.000959754  0.0232883 -0.0519453 -3.48091e-05  0.0284753 -0.0530594 0.00104046  0.0263964 -0.0469494 -3.15905e-05  0.0232964 -0.051848 0.000858665  0.0215721 -0.045701 -3.32594e-05  0.0264019 -0.0468613 0.00108814  0.021581 -0.0456147 0.000899434  0.0263002 -0.0653196 -3.85046e-05  0.032144 -0.0663795 0.000935197  0.030385 -0.0596547 -3.39746e-05  0.0263043 -0.0652271 0.000770688  0.0248656 -0.0584735 -3.65973e-05  0.0303882 -0.0595701 0.00098896  0.02487 -0.0583897 0.000815392  0.0287675 -0.0797991 -4.22001e-05  0.0351963 -0.0808167 0.000827432  0.0337449 -0.073546 -3.70741e-05  0.0287693 -0.0797114 0.000679612  0.0276008 -0.0724174 -4.02927e-05  0.0337444 -0.0734662 0.000881314  0.0276027 -0.0723386 0.000724792  0.0307257 -0.0952429 -4.6134e-05  0.0376725 -0.0962286 0.00072217  0.0365061 -0.088482 -4.04119e-05  0.030726 -0.0951625 0.000591636  0.0298096 -0.0873963 -4.41074e-05  0.0365043 -0.0884087 0.000774145  0.029809 -0.0873234 0.000634909  0.0322146 -0.111518 -4.95911e-05  0.0396129 -0.112475 0.000623465  0.0387106 -0.104322 -4.37498e-05  0.0322137 -0.111444 0.000508308  0.0315276 -0.103272 -4.79221e-05  0.0387067 -0.104254 0.000671983  0.0315261 -0.103206 0.000549078  0.0332744 -0.128493 -5.3525e-05  0.0410644 -0.129426 0.000530005  0.0404022 -0.12093 -4.69685e-05  0.033273 -0.128426 0.000430584  0.0327973 -0.119913 -5.16176e-05  0.0403975 -0.120869 0.000575781  0.0327947 -0.119854 0.000468493  0.0339452 -0.14605 -5.68628e-05  0.0420682 -0.146958 0.000444293  0.0416247 -0.138179 -5.01871e-05  0.0339433 -0.145988 0.000357866  0.0336574 -0.137194 -5.51939e-05  0.0416193 -0.138125 0.000486255  0.0336547 -0.137141 0.000393271  0.0342655 -0.164074 -6.02007e-05  0.04267 -0.164959 0.000364184  0.0424227 -0.155953 -5.32866e-05  0.0342638 -0.164019 0.000291586  0.0341488 -0.154997 -5.85318e-05  0.0424173 -0.155906 0.000403404  0.0341452 -0.15495 0.000323772  0.0342737 -0.182466 -6.34193e-05  0.0429097 -0.183327 0.000291824  0.0428381 -0.174144 -5.62668e-05  0.0342715 -0.182416 0.000229716  0.0343078 -0.173218 -6.17504e-05  0.0428325 -0.174102 0.000326991  0.0343047 -0.173177 0.000259638  0.0340055 -0.201133 -6.6638e-05  0.0428296 -0.201971 0.00022471  0.0429134 -0.192656 -5.90086e-05  0.0340035 -0.201089 0.000174284  0.0341737 -0.191758 -6.48499e-05  0.0429076 -0.192619 0.000257254  0.0341702 -0.191722 0.000201106  0.0334969 -0.219994 -6.93798e-05  0.0424683 -0.220807 0.000165462  0.0426874 -0.211401 -6.17504e-05  0.0334945 -0.219953 0.000123262  0.0337806 -0.210531 -6.78301e-05  0.0426816 -0.211368 0.000194073  0.0337772 -0.2105 0.000147939  0.0327816 -0.238973 -7.27177e-05  0.0418656 -0.239764 0.000111341  0.0422008 -0.230301 -6.46114e-05  0.0327795 -0.238937 7.86781e-05  0.033165 -0.22946 -7.09295e-05  0.0421951 -0.230273 0.000137329  0.0331609 -0.229433 0.000100136  0.0318923 -0.25801 -7.56979e-05  0.0410576 -0.258777 6.53267e-05  0.0414903 -0.24929 -6.75917e-05  0.0318906 -0.257977 3.83854e-05  0.0323584 -0.248475 -7.41482e-05  0.0414848 -0.249265 8.72612e-05  0.0323551 -0.248452 5.75781e-05  0.0308609 -0.277049 -7.86781e-05  0.0400813 -0.277795 2.47955e-05  0.0405941 -0.268308 -7.03335e-05  0.0308592 -0.277019 5.126e-06  0.0313947 -0.267519 -7.71284e-05  0.0405889 -0.268287 4.3869e-05  0.0313911 -0.267499 2.08616e-05  0.0297165 -0.296045 -8.17776e-05  0.0389705 -0.296771 -7.86781e-06  0.0395455 -0.287307 -7.33137e-05  0.0297143 -0.296017 -2.40803e-05  0.0303028 -0.286542 -8.01086e-05  0.0395408 -0.287289 7.27177e-06  0.0302997 -0.286524 -1.03712e-05  0.0284858 -0.314963 -8.49962e-05  0.0377591 -0.315672 -3.56436e-05  0.0383816 -0.306248 -7.64132e-05  0.0284841 -0.314937 -4.72069e-05  0.0291123 -0.305503 -8.33273e-05  0.0383759 -0.306231 -2.28882e-05  0.0291085 -0.305487 -3.6478e-05  0.027194 -0.333779 -8.83341e-05  0.0364761 -0.334474 -5.67436e-05  0.0371299 -0.3251 -7.95126e-05  0.0271919 -0.333754 -6.73532e-05  0.0278478 -0.324372 -8.64267e-05  0.0371246 -0.325085 -4.70877e-05  0.0278447 -0.324358 -5.79357e-05  0.0258625 -0.35248 -9.14335e-05  0.0351467 -0.353169 -7.56979e-05  0.0358207 -0.343848 -8.27312e-05  0.0258605 -0.352456 -8.36849e-05  0.0265341 -0.343131 -8.97646e-05  0.0358164 -0.343833 -6.68764e-05  0.02653 -0.343118 -7.59363e-05  0.0245185 -0.371077 -9.50098e-05  0.033798 -0.371776 -9.31025e-05  0.0344775 -0.362493 -8.60691e-05  0.0245159 -0.371053 -0.000100136  0.0251908 -0.361777 -9.32217e-05  0.0344734 -0.36248 -8.45194e-05  0.0251873 -0.361765 -9.23872e-05  0.00391269 -0.00803715 -1.95503e-05  0 0 0  0.00606413 -0.010176 0.000789762  0.00264773 -0.00619704 -1.22786e-05  0 0 0  0.00389634 -0.00802356 0.000731945  0.00127988 -0.00423241 -1.12057e-05  0 0 0  0.00253326 -0.00603783 0.000481129  0.00127798 -0.00412893 0.000349283  0.0101453 -0.0151451 -2.77758e-05  0.0129089 -0.0172423 0.0013119  0.00958338 -0.0136425 -2.53916e-05  0.0102181 -0.0151252 0.00111055  0.00694299 -0.0115368 -2.46763e-05  0.00939521 -0.0135955 0.00105655  0.00692426 -0.0115083 0.000925422  0.0168523 -0.0228533 -2.94447e-05  0.020388 -0.0246692 0.00151229  0.0167221 -0.0208519 -2.90871e-05  0.0168747 -0.0227576 0.00133169  0.0135245 -0.0188249 -2.94447e-05  0.0166793 -0.020731 0.00142741  0.0135582 -0.0187376 0.00124764  0.0231607 -0.0319753 -2.83718e-05  0.0274629 -0.0336174 0.00156951  0.0239908 -0.0290333 -2.77758e-05  0.0231816 -0.031871 0.00137401  0.0200766 -0.0272064 -2.87294e-05  0.0239915 -0.0289385 0.00155461  0.0200902 -0.0271219 0.00137317  0.0288734 -0.0425501 -2.87294e-05  0.0339121 -0.0440549 0.00150776  0.0307673 -0.0387409 -2.65837e-05  0.028888 -0.0424469 0.00132263  0.0261031 -0.0370649 -2.83718e-05  0.0307796 -0.038642 0.00154603  0.0261176 -0.0369749 0.00135839  0.0338902 -0.0545219 -3.00407e-05  0.0396108 -0.0559276 0.00139797  0.0368482 -0.0499096 -2.67029e-05  0.0339031 -0.0544214 0.00122094  0.0314723 -0.0483533 -2.92063e-05  0.0368571 -0.049818 0.00145638  0.0314836 -0.048265 0.00127637  0.0382042 -0.067763 -3.21865e-05  0.0445464 -0.0690913 0.00126207  0.0421674 -0.0624429 -2.77758e-05  0.0382121 -0.0676689 0.00110066  0.0361364 -0.0609791 -3.11136e-05  0.0421747 -0.0623565 0.00133121  0.0361447 -0.0608941 0.00116241  0.0418311 -0.0821357 -3.52859e-05  0.0487264 -0.0833995 0.00112295  0.046725 -0.0761917 -2.98023e-05  0.0418375 -0.0820476 0.000975966  0.0401028 -0.0748042 -3.37362e-05  0.0467281 -0.0761119 0.00119185  0.0401077 -0.0747253 0.00103855  0.0448146 -0.0974884 -3.80278e-05  0.0522 -0.0986958 0.000985026  0.0505481 -0.0910066 -3.21865e-05  0.0448182 -0.0974075 0.000854373  0.0434026 -0.0896863 -3.65973e-05  0.0505496 -0.090934 0.00105321  0.0434054 -0.0896134 0.000914812  0.047196 -0.113683 -4.06504e-05  0.0550039 -0.114839 0.000855923  0.053683 -0.106736 -3.45707e-05  0.0471992 -0.113608 0.000739813  0.0460794 -0.105476 -3.93391e-05  0.0536819 -0.10667 0.000918865  0.0460802 -0.105411 0.000796556  0.0490276 -0.130582 -4.36306e-05  0.0572007 -0.131689 0.000732541  0.0561775 -0.123243 -3.71933e-05  0.0490289 -0.130515 0.000631571  0.0481795 -0.12204 -4.19617e-05  0.0561759 -0.123184 0.000793099  0.0481799 -0.121981 0.000685096  0.0503527 -0.148067 -4.66108e-05  0.0588309 -0.149127 0.000619769  0.0580857 -0.140395 -3.98159e-05  0.0503547 -0.148006 0.000531793  0.0497522 -0.139246 -4.49419e-05  0.0580826 -0.140342 0.000674248  0.0497514 -0.139194 0.000580907  0.0512236 -0.166021 -4.92334e-05  0.0599567 -0.167034 0.00051403  0.0594573 -0.158076 -4.22001e-05  0.0512244 -0.165966 0.000438929  0.0508443 -0.15698 -4.78029e-05  0.0594546 -0.158029 0.000565648  0.0508436 -0.156933 0.000484467  0.0516826 -0.184345 -5.16176e-05  0.0606186 -0.185314 0.000418901  0.0603456 -0.176175 -4.45843e-05  0.0516837 -0.184295 0.000354648  0.0515037 -0.17513 -5.03063e-05  0.0603418 -0.176134 0.00046432  0.0515021 -0.175089 0.000395894  0.0517782 -0.202944 -5.42402e-05  0.0608753 -0.203867 0.000330448  0.0607986 -0.194597 -4.70877e-05  0.0517783 -0.202898 0.000277042  0.051775 -0.193603 -5.28097e-05  0.0607953 -0.194562 0.000373125  0.051774 -0.193567 0.000314951  0.0515513 -0.221739 -5.68628e-05  0.0607667 -0.22262 0.000252724  0.0608673 -0.213255 -4.92334e-05  0.0515518 -0.221698 0.00020802  0.0517042 -0.212309 -5.54323e-05  0.0608627 -0.213224 0.000289559  0.0517021 -0.212278 0.000241756  0.0510485 -0.240654 -5.97239e-05  0.0603485 -0.241492 0.000181675  0.0605977 -0.232072 -5.1856e-05  0.0510483 -0.240617 0.000145674  0.0513339 -0.231174 -5.80549e-05  0.0605938 -0.232046 0.00021565  0.0513322 -0.231146 0.000176072  0.0503082 -0.259631 -6.22272e-05  0.0596588 -0.260431 0.000121713  0.0600383 -0.250982 -5.43594e-05  0.0503085 -0.259598 9.26256e-05  0.0507073 -0.250127 -6.10352e-05  0.0600338 -0.250958 0.000149846  0.050705 -0.250103 0.000118017  0.0493743 -0.278613 -6.50883e-05  0.0587504 -0.279376 6.9499e-05  0.0592334 -0.269926 -5.6982e-05  0.0493734 -0.278583 4.58956e-05  0.0498652 -0.269112 -6.34193e-05  0.0592299 -0.269906 9.36985e-05  0.0498631 -0.269092 6.83069e-05  0.0482843 -0.297562 -6.79493e-05  0.0576625 -0.298294 2.75373e-05  0.0582299 -0.28886 -5.96046e-05  0.0482838 -0.297532 8.70228e-06  0.0488482 -0.288082 -6.62804e-05  0.0582252 -0.288842 4.64916e-05  0.0488453 -0.288064 2.63453e-05  0.0470788 -0.316436 -7.09295e-05  0.0564442 -0.317141 -7.27177e-06  0.0570717 -0.307743 -6.25849e-05  0.0470772 -0.316409 -2.24113e-05  0.0476956 -0.306997 -6.92606e-05  0.0570676 -0.307728 8.46386e-06  0.0476933 -0.306981 -7.86781e-06  0.0457928 -0.335222 -7.4029e-05  0.0551362 -0.335911 -3.19481e-05  0.0558028 -0.326552 -6.53267e-05  0.04579 -0.335196 -4.56572e-05  0.0464451 -0.325829 -7.22408e-05  0.0557978 -0.326538 -2.12193e-05  0.0464413 -0.325814 -3.46899e-05  0.0444574 -0.353906 -7.72476e-05  0.0537786 -0.354585 -5.43594e-05  0.0544648 -0.345272 -6.84261e-05  0.0444555 -0.353881 -6.62804e-05  0.0451312 -0.344563 -7.54595e-05  0.0544615 -0.345259 -4.44651e-05  0.0451279 -0.34455 -5.61476e-05  0.0430954 -0.372521 -8.07047e-05  0.0524044 -0.373198 -7.25985e-05  0.0530972 -0.363911 -7.20024e-05  0.0430934 -0.372492 -8.4281e-05  0.0437808 -0.363206 -7.87973e-05  0.0530927 -0.363898 -6.23465e-05  0.0437772 -0.363193 -7.53403e-05  -0.00628839 -0.00938618 0.000819445  -0.00280771 -0.0057049 0.000969648  0 0 0  -0.00394247 -0.00723668 0.00151038  0 0 0  -0.00276726 -0.00554986 0.000614643  -0.000940312 -0.00267854 0.000683188  0 0 0  -0.0027468 -0.00571492 0.000473619  -0.00396864 -0.00723637 0.000752926  -0.0013033 -0.00371146 0.00081563  0 0 0  -0.000961706 -0.00272582 0.00033319  -0.00131319 -0.00377107 0.00041759  -0.0133123 -0.0155857 0.0013895  -0.00968669 -0.012114 0.00237072  -0.0102286 -0.013479 0.00245595  -0.00791849 -0.0119597 0.00102496  -0.00519447 -0.00847197 0.0017252  -0.00977653 -0.0123631 0.00122416  -0.0102075 -0.0136553 0.00122654  -0.00699411 -0.0101523 0.00206399  -0.00519124 -0.00866043 0.000843406  -0.00697151 -0.01038 0.00100088  -0.0207313 -0.0226376 0.00162756  -0.0169694 -0.0187308 0.00310516  -0.016881 -0.020678 0.00286651  -0.0136 -0.0194389 0.00120389  -0.0107525 -0.0153224 0.00230432  -0.0170234 -0.0189216 0.00151861  -0.0168706 -0.0209412 0.00141191  -0.0135371 -0.016916 0.00272226  -0.0107223 -0.0155224 0.00114202  -0.013517 -0.0171262 0.00136316  -0.028064 -0.0309159 0.00164068  -0.0244435 -0.0262967 0.00333679  -0.0234464 -0.0292268 0.00291681  -0.0192626 -0.0282425 0.00122142  -0.0164712 -0.0233956 0.00249147  -0.0244318 -0.0265964 0.00165725  -0.0234318 -0.0294899 0.00144029  -0.0202014 -0.0247528 0.00292861  -0.0164495 -0.0236641 0.00123179  -0.0201827 -0.0250378 0.00144446  -0.0350081 -0.0406094 0.00155437  -0.0316037 -0.0352948 0.00326562  -0.0296324 -0.0391892 0.00276244  -0.024662 -0.0384365 0.00115132  -0.0220061 -0.032902 0.00243282  -0.031599 -0.0355773 0.00160515  -0.0296314 -0.0394522 0.00135589  -0.0265907 -0.03402 0.00285995  -0.0219991 -0.0331671 0.00119674  -0.0265811 -0.0342956 0.00140977  -0.0414549 -0.0516729 0.00140464  -0.0382962 -0.0456925 0.00302851  -0.0353895 -0.0505026 0.00250924  -0.0297142 -0.0499492 0.00103557  -0.0272209 -0.0437668 0.00224626  -0.0382966 -0.0459775 0.00148714  -0.0354005 -0.0507519 0.00122404  -0.0325656 -0.0446651 0.0026443  -0.0272325 -0.0440322 0.00109756  -0.0325707 -0.0449402 0.00129342  -0.0473869 -0.0640072 0.00123942  -0.0444725 -0.0574328 0.0027194  -0.0406988 -0.063078 0.00222147  -0.0343994 -0.0626929 0.000904441  -0.0320717 -0.0559308 0.00200725  -0.0444872 -0.0576873 0.00132143  -0.0407237 -0.0633023 0.00107348  -0.0380973 -0.0566288 0.00236797  -0.0321012 -0.0561725 0.000971437  -0.0381158 -0.0568772 0.00115085  -0.0528188 -0.0774893 0.001068  -0.0501418 -0.0703827 0.00239086  -0.04559 -0.0767787 0.00193334  -0.0387365 -0.0765448 0.000775576  -0.0365705 -0.0692649 0.00175667  -0.0501649 -0.070616 0.00115561  -0.0456218 -0.0769788 0.000923634  -0.0431944 -0.0697806 0.00207675  -0.0366096 -0.0694871 0.000840187  -0.0432235 -0.0700087 0.000997543  -0.0577816 -0.0919885 0.00090909  -0.0553279 -0.0844197 0.00207078  -0.050083 -0.0914848 0.00165999  -0.0427467 -0.0913835 0.000652313  -0.0407336 -0.0836535 0.00151467  -0.0553588 -0.0846193 0.000985622  -0.0501206 -0.0916565 0.000781298  -0.0478822 -0.0840026 0.00179458  -0.0407802 -0.0838467 0.000713468  -0.0479183 -0.0841992 0.000852108  -0.0623082 -0.10738 0.000758886  -0.0600655 -0.0994068 0.00177097  -0.0542139 -0.107061 0.00140762  -0.0464581 -0.107082 0.000540853  -0.0445905 -0.0989606 0.00128925  -0.0600983 -0.0995835 0.000834227  -0.0542514 -0.107209 0.000650525  -0.0521909 -0.0991572 0.00153136  -0.0446379 -0.0991316 0.000595927  -0.0522295 -0.0993316 0.000714183  -0.0664325 -0.123542 0.000624299  -0.0643858 -0.115224 0.00149524  -0.0580033 -0.123393 0.00117743  -0.0498908 -0.123523 0.00043726  -0.0481591 -0.11507 0.0010829  -0.0644203 -0.115372 0.000688553  -0.0580409 -0.123516 0.000530958  -0.0561475 -0.115128 0.00128984  -0.0482075 -0.115214 0.000488281  -0.0561863 -0.115274 0.000589967  -0.0701835 -0.140359 0.000499845  -0.0683216 -0.13175 0.00124443  -0.0614815 -0.140361 0.000968456  -0.0530668 -0.140589 0.000345349  -0.0514652 -0.131858 0.0008955  -0.0683538 -0.131877 0.000561833  -0.0615153 -0.140464 0.000422835  -0.0597786 -0.13179 0.00107026  -0.0515094 -0.131983 0.000390649  -0.0598154 -0.131917 0.000475168  -0.07359 -0.157724 0.000389457  -0.0718991 -0.148876 0.00101697  -0.064665 -0.157864 0.000779629  -0.0560023 -0.158179 0.000260711  -0.0545207 -0.149221 0.000725865  -0.0719295 -0.148979 0.000441909  -0.0646962 -0.157946 0.000324845  -0.0631064 -0.14904 0.000871539  -0.0545632 -0.149323 0.000302434  -0.0631404 -0.149143 0.000373006  -0.076677 -0.175539 0.000288129  -0.0751457 -0.166496 0.000811934  -0.0675789 -0.175797 0.000609756  -0.0587138 -0.176189 0.000186443  -0.0573478 -0.16705 0.000573277  -0.0751724 -0.166583 0.000338197  -0.067606 -0.175863 0.000237107  -0.0661529 -0.166769 0.000692487  -0.0573846 -0.167136 0.000223041  -0.0661833 -0.166856 0.000279427  -0.0794698 -0.19371 0.000199556  -0.0780851 -0.184517 0.000627875  -0.0702392 -0.194075 0.000458241  -0.0612161 -0.194532 0.000118136  -0.0599555 -0.185256 0.000436425  -0.07811 -0.184585 0.00024128  -0.0702631 -0.194123 0.00015831  -0.0689374 -0.184886 0.000531673  -0.0599899 -0.185323 0.000151634  -0.068964 -0.184954 0.000196934  -0.0819927 -0.212154 0.000118971  -0.0807431 -0.202849 0.00046432  -0.0726691 -0.212607 0.000324011  -0.0635256 -0.213122 5.9247e-05  -0.0623653 -0.203745 0.000314713  -0.0807639 -0.202904 0.000158429  -0.0726888 -0.212643 8.86917e-05  -0.0714802 -0.2033 0.000388861  -0.0623937 -0.2038 8.80957e-05  -0.0715032 -0.203355 0.00012219  -0.0842712 -0.230794 4.98295e-05  -0.083143 -0.221414 0.000320315  -0.0748861 -0.231324 0.000206709  -0.0656567 -0.231886 5.96046e-06  -0.0645859 -0.222445 0.000207424  -0.083162 -0.221453 8.21352e-05  -0.074903 -0.231347 2.72989e-05  -0.0738007 -0.221935 0.000263095  -0.0646119 -0.222485 3.19481e-05  -0.0738207 -0.221975 5.71012e-05  -0.0863307 -0.249561 -1.03712e-05  -0.0853114 -0.240136 0.000195622  -0.0769141 -0.250153 0.000106454  -0.0676277 -0.250753 -3.82662e-05  -0.0666399 -0.241278 0.000114918  -0.0853267 -0.240166 1.90735e-05  -0.0769277 -0.250166 -2.46763e-05  -0.0759208 -0.240715 0.000154376  -0.0666606 -0.241308 -1.68085e-05  -0.0759375 -0.240745 -1.19209e-07  -0.0881991 -0.268396 -5.93662e-05  -0.0872731 -0.258955 9.07183e-05  -0.078773 -0.269038 2.32458e-05  -0.0694549 -0.269667 -7.66516e-05  -0.0685382 -0.260186 3.67165e-05  -0.0872877 -0.258974 -3.70741e-05  -0.0787849 -0.269042 -6.8903e-05  -0.0778606 -0.259579 6.24657e-05  -0.0685575 -0.260205 -5.80549e-05  -0.0778751 -0.259599 -4.78029e-05  -0.089906 -0.287247 -0.000100732  -0.0890589 -0.277811 4.64916e-06  -0.0804899 -0.287924 -4.3869e-05  -0.0711591 -0.288575 -0.000106812  -0.0703058 -0.27911 -2.77758e-05  -0.0890706 -0.277823 -8.13007e-05  -0.0805001 -0.287921 -0.000104308  -0.0796459 -0.27847 -1.27554e-05  -0.0703206 -0.279123 -9.25064e-05  -0.0796583 -0.278483 -8.79765e-05  -0.0914841 -0.306072 -0.000130892  -0.0906973 -0.29666 -6.22272e-05  -0.0820901 -0.306774 -9.50098e-05  -0.0727596 -0.307439 -0.000132203  -0.0719554 -0.298008 -7.84397e-05  -0.0907099 -0.296665 -0.000117302  -0.0820994 -0.306765 -0.000132442  -0.0813007 -0.297343 -7.15256e-05  -0.0719707 -0.298013 -0.000119686  -0.0813122 -0.297349 -0.000119209  -0.0929677 -0.324839 -0.00015521  -0.0922241 -0.315463 -0.000112295  -0.083601 -0.325552 -0.000133634  -0.0742781 -0.326225 -0.000149965  -0.0735152 -0.31684 -0.000117421  -0.0922351 -0.315465 -0.000144124  -0.0836103 -0.32554 -0.000153184  -0.0828538 -0.316159 -0.000115991  -0.0735278 -0.316841 -0.000141382  -0.0828638 -0.316162 -0.000143528  -0.0943956 -0.343532 -0.0001719  -0.0936732 -0.334197 -0.000148416  -0.0850527 -0.344244 -0.000163317  -0.0757363 -0.34492 -0.000167012  -0.075 -0.335583 -0.0001477  -0.0936868 -0.334196 -0.000163913  -0.0850611 -0.344231 -0.000171185  -0.0843298 -0.334896 -0.000149488  -0.0750134 -0.335583 -0.000158668  -0.0843415 -0.334896 -0.000162482  -0.095803 -0.362174 -0.000191689  -0.0950902 -0.352856 -0.000177264  -0.0864708 -0.362872 -0.000191569  -0.0771635 -0.363537 -0.000180602  -0.0764394 -0.354234 -0.000174284  -0.0950992 -0.352855 -0.000182271  -0.0864809 -0.362862 -0.000186801  -0.085763 -0.35355 -0.000177503  -0.0764499 -0.354234 -0.000173688  -0.0857723 -0.353549 -0.000178218  -0.00211287 -0.00435621 0.00101519  0 0 0  -0.00153919 -0.0036536 0.000392914  -0.00053104 -0.00149953 0.000439525  0 0 0  -0.00208965 -0.00443615 0.000504971  -0.000702199 -0.00197542 0.000551701  0 0 0  -0.000526186 -0.00153948 0.00021255  -0.000700675 -0.00202847 0.000266314  -0.00606717 -0.010429 0.00169182  -0.00450528 -0.00955668 0.00065887  -0.00290714 -0.00626253 0.00110745  -0.00607479 -0.0105936 0.000837207  -0.00394297 -0.0071876 0.00140131  -0.00289896 -0.00637542 0.000549555  -0.00393027 -0.00732279 0.000689983  -0.0107461 -0.0179732 0.00200152  -0.00816041 -0.017203 0.000780582  -0.00631177 -0.0129919 0.00148904  -0.0107254 -0.0181876 0.00098896  -0.00837186 -0.0140065 0.00188625  -0.00629014 -0.0131879 0.000735402  -0.00836146 -0.0142095 0.000931501  -0.0154556 -0.0269492 0.00204551  -0.0119468 -0.0263508 0.000794411  -0.0100695 -0.0213645 0.00161886  -0.015459 -0.0271917 0.00100517  -0.0131067 -0.0222681 0.00204813  -0.0100524 -0.0215975 0.000796318  -0.0131025 -0.0225138 0.00101066  -0.0200145 -0.037331 0.00193429  -0.0156596 -0.0368965 0.000744343  -0.0138186 -0.0311984 0.00158286  -0.0200221 -0.0375783 0.000946879  -0.0177658 -0.0319551 0.0020026  -0.0138224 -0.0314525 0.000774384  -0.0177678 -0.0322151 0.000982523  -0.0243014 -0.0490418 0.00175154  -0.0191932 -0.0487552 0.000665665  -0.0174306 -0.0424169 0.00145876  -0.0243267 -0.0492785 0.000848413  -0.0221903 -0.043014 0.00184798  -0.0174494 -0.0426675 0.00070703  -0.0222092 -0.0432696 0.00090003  -0.0283139 -0.0619747 0.00154364  -0.0225345 -0.0618168 0.000576138  -0.0208535 -0.054905 0.00129831  -0.0283497 -0.0621925 0.000739694  -0.0263417 -0.0553509 0.0016489  -0.0208884 -0.0551411 0.000621438  -0.0263727 -0.0555897 0.000794768  -0.0320602 -0.0760075 0.00133741  -0.0256868 -0.0759633 0.000487685  -0.0240902 -0.0685446 0.00112975  -0.0321036 -0.0762018 0.00063014  -0.0302172 -0.0688493 0.00143981  -0.0241327 -0.0687607 0.000531673  -0.0302591 -0.0690668 0.000683784  -0.03556 -0.0910137 0.00114155  -0.0286663 -0.0910711 0.000404239  -0.027149 -0.0832104 0.000966907  -0.0356066 -0.0911838 0.000527859  -0.0338389 -0.0833848 0.00123799  -0.0271975 -0.0834028 0.000445127  -0.033885 -0.0835775 0.000578165  -0.0388328 -0.106868 0.000962377  -0.0314848 -0.107017 0.000327468  -0.0300459 -0.0987761 0.000815988  -0.0388794 -0.107014 0.000433207  -0.0372217 -0.0988301 0.00105011  -0.030094 -0.0989455 0.000365257  -0.0372707 -0.0989991 0.000479102  -0.041894 -0.12345 0.000798106  -0.0341552 -0.123683 0.000257969  -0.0327899 -0.11512 0.000677824  -0.0419384 -0.123574 0.000347614  -0.0403879 -0.115063 0.000878453  -0.0328382 -0.115266 0.000292063  -0.0404345 -0.115208 0.000389218  -0.0447575 -0.140647 0.000650644  -0.0366848 -0.140955 0.000195265  -0.0353923 -0.132124 0.000552893  -0.0447985 -0.140749 0.000269651  -0.0433475 -0.131966 0.000722766  -0.0354365 -0.132248 0.000225902  -0.0433924 -0.13209 0.000307322  -0.0474348 -0.158352 0.000516891  -0.0390819 -0.158727 0.000138402  -0.0378584 -0.149679 0.000440478  -0.0474716 -0.158435 0.000200152  -0.0461175 -0.14943 0.000582218  -0.0378996 -0.149783 0.000166416  -0.0461575 -0.149533 0.000234008  -0.0499363 -0.176466 0.000397444  -0.0413507 -0.176901 8.79765e-05  -0.0401952 -0.167682 0.00033927  -0.0499693 -0.176532 0.000136733  -0.0487045 -0.167352 0.000455618  -0.0402313 -0.167768 0.000112891  -0.0487417 -0.167437 0.000167251  -0.0522727 -0.194899 0.000290155  -0.0434988 -0.195385 4.24385e-05  -0.0424066 -0.186038 0.000248551  -0.0523009 -0.19495 8.10623e-05  -0.0511235 -0.185636 0.000342131  -0.0424398 -0.186107 6.48499e-05  -0.0511547 -0.185704 0.000108004  -0.0544537 -0.213568 0.000195622  -0.0455296 -0.214097 2.38419e-06  -0.0444998 -0.204661 0.000168204  -0.054478 -0.213604 3.06368e-05  -0.0533797 -0.204197 0.000241518  -0.0445276 -0.204716 2.19345e-05  -0.053408 -0.20425 5.48363e-05  -0.0564904 -0.232397 0.000112891  -0.0474517 -0.232963 -3.32594e-05  -0.0464792 -0.223472 9.75132e-05  -0.0565109 -0.232421 -1.26362e-05  -0.0554881 -0.222954 0.000152707  -0.046504 -0.223513 -1.57356e-05  -0.0555115 -0.222995 8.22544e-06  -0.0583959 -0.25132 4.20809e-05  -0.0492711 -0.251915 -6.36578e-05  -0.048353 -0.2424 3.60012e-05  -0.0584126 -0.251333 -5.09024e-05  -0.0574565 -0.241838 7.59363e-05  -0.048373 -0.24243 -4.87566e-05  -0.0574775 -0.241868 -3.27826e-05  -0.0601819 -0.270278 -1.70469e-05  -0.0509977 -0.270897 -8.9407e-05  -0.050128 -0.261383 -1.57356e-05  -0.0601957 -0.270283 -8.2016e-05  -0.0593014 -0.260785 1.10865e-05  -0.0501454 -0.261404 -7.67708e-05  -0.0593178 -0.260805 -6.7234e-05  -0.0618627 -0.289222 -6.49691e-05  -0.0526392 -0.289859 -0.000110507  -0.0518136 -0.280369 -5.85318e-05  -0.0618742 -0.289219 -0.00010848  -0.0610321 -0.279742 -4.23193e-05  -0.0518277 -0.280381 -0.000100255  -0.0610468 -0.279754 -9.60827e-05  -0.0634534 -0.30811 -0.000102758  -0.0542066 -0.308761 -0.000128031  -0.0534189 -0.299311 -9.29832e-05  -0.0634632 -0.308102 -0.000128984  -0.0626669 -0.298662 -8.51154e-05  -0.0534317 -0.299317 -0.000119448  -0.0626786 -0.298668 -0.000119567  -0.0649693 -0.326913 -0.000132322  -0.0557094 -0.327572 -0.000141978  -0.0549543 -0.318176 -0.000120282  -0.0649784 -0.326901 -0.000146151  -0.0642176 -0.317511 -0.000118494  -0.054965 -0.318177 -0.000135183  -0.0642288 -0.317512 -0.000138164  -0.0664284 -0.345612 -0.000157118  -0.057163 -0.346276 -0.000154257  -0.0564318 -0.336937 -0.000142574  -0.0664363 -0.3456 -0.000159979  -0.0657036 -0.336263 -0.000145078  -0.0564418 -0.336937 -0.000148296  -0.0657129 -0.336262 -0.000153661  -0.0678544 -0.364213 -0.000180483  -0.058588 -0.364859 -0.000166178  -0.0578659 -0.355583 -0.000162601  -0.0678639 -0.364201 -0.00017345  -0.0671396 -0.354912 -0.00016892  -0.0578754 -0.355582 -0.00015986  -0.0671504 -0.354911 -0.000167012  -0.00106917 -0.00307596 0.000599861  0 0 0  -0.000656374 -0.00280267 0.000194669  -0.000225581 -0.00100112 0.000218987  0 0 0  -0.00106876 -0.00312966 0.000295639  -0.000362415 -0.00118774 0.000329137  0 0 0  -0.000223566 -0.00102913 0.000107169  -0.000359267 -0.00121927 0.000161052  -0.00319187 -0.00869328 0.000988007  -0.00198743 -0.00836968 0.000317693  -0.00126079 -0.00520414 0.000542641  -0.00319691 -0.00883338 0.00048542  -0.00203109 -0.00560895 0.000821829  -0.00125431 -0.00531229 0.000264883  -0.00203507 -0.00571924 0.000404716  -0.00586236 -0.0162844 0.00117028  -0.00371435 -0.0160201 0.000373125  -0.00282174 -0.0117928 0.000724196  -0.0058589 -0.0164836 0.00057435  -0.00448585 -0.0122615 0.00110173  -0.00281453 -0.011975 0.000354409  -0.00448608 -0.0124444 0.000540853  -0.0086894 -0.0254989 0.00119638  -0.00561559 -0.0253369 0.000376701  -0.00465086 -0.0202692 0.000785232  -0.0086984 -0.0257296 0.000583529  -0.00726855 -0.0206961 0.00119781  -0.0046514 -0.0204903 0.000380516  -0.00727007 -0.0209225 0.000587702  -0.0115132 -0.0361644 0.00112903  -0.00756848 -0.0361089 0.000348568  -0.00657743 -0.0303047 0.000763655  -0.011529 -0.0364045 0.000544906  -0.0101084 -0.0306474 0.00117028  -0.00658917 -0.0305483 0.000366211  -0.0101205 -0.0308942 0.00056839  -0.0142468 -0.0481615 0.00101614  -0.00951838 -0.0481977 0.000303984  -0.00852174 -0.0417512 0.000696898  -0.0142753 -0.048391 0.00048399  -0.0128921 -0.0419929 0.00107551  -0.00854492 -0.0419939 0.000327468  -0.0129142 -0.0422397 0.000516534  -0.01688 -0.061363 0.000888228  -0.0114504 -0.0614856 0.00025475  -0.0104544 -0.0544652 0.000610948  -0.0169163 -0.0615785 0.000414252  -0.0155746 -0.0546069 0.000952721  -0.0104864 -0.054697 0.000279665  -0.0156089 -0.0548409 0.000449777  -0.0194122 -0.0756475 0.000761032  -0.013362 -0.0758416 0.000205994  -0.0123709 -0.0683207 0.000521302  -0.0194534 -0.0758395 0.000346541  -0.0181577 -0.0683651 0.000823975  -0.0124084 -0.0685345 0.000230312  -0.018197 -0.0685807 0.000380397  -0.021852 -0.0908851 0.000640869  -0.0152559 -0.0911489 0.000160217  -0.0142709 -0.0831891 0.000434995  -0.0218947 -0.0910569 0.000281096  -0.020641 -0.0831421 0.000699759  -0.0143107 -0.0833816 0.000182748  -0.0206854 -0.0833351 0.00031364  -0.024205 -0.106955 0.000530839  -0.0171318 -0.107277 0.000118613  -0.0161561 -0.0989444 0.000355124  -0.0242473 -0.107101 0.000222921  -0.0230381 -0.098811 0.000584602  -0.0161958 -0.0991147 0.000138998  -0.0230814 -0.0989815 0.00025177  -0.0264761 -0.123734 0.000430822  -0.0189896 -0.124114 8.04663e-05  -0.0180243 -0.115464 0.000282764  -0.0265161 -0.12386 0.000168443  -0.0253484 -0.11525 0.000479579  -0.0180628 -0.115612 9.91821e-05  -0.0253918 -0.115398 0.000195384  -0.0286671 -0.141111 0.000341177  -0.0208254 -0.141539 4.673e-05  -0.0198743 -0.13263 0.000217915  -0.0287037 -0.141215 0.000121236  -0.0275806 -0.132342 0.000384808  -0.01991 -0.132757 6.34193e-05  -0.0276195 -0.132468 0.000144601  -0.0307794 -0.158977 0.000260592  -0.0226359 -0.159452 1.63317e-05  -0.0217012 -0.150332 0.00015974  -0.030812 -0.159063 7.71284e-05  -0.0297306 -0.149976 0.000299692  -0.0217336 -0.150438 3.15905e-05  -0.0297676 -0.150082 9.88245e-05  -0.0328127 -0.177235 0.00018847  -0.0244159 -0.177748 -1.04904e-05  -0.0235008 -0.168466 0.000108004  -0.0328416 -0.177303 3.88622e-05  -0.0318047 -0.16805 0.000223279  -0.0235294 -0.168555 2.86102e-06  -0.0318363 -0.168138 5.78165e-05  -0.0347683 -0.195793 0.000123978  -0.0261629 -0.196342 -3.50475e-05  -0.0252678 -0.186939 6.16312e-05  -0.0347933 -0.195847 3.57628e-06  -0.033798 -0.18647 0.00015521  -0.0252935 -0.187011 -2.28882e-05  -0.0338269 -0.186541 2.11e-05  -0.0366465 -0.214571 6.7234e-05  -0.0278713 -0.215146 -5.60284e-05  -0.0269996 -0.205663 2.08616e-05  -0.0366675 -0.214608 -2.63453e-05  -0.0357159 -0.205147 9.46522e-05  -0.0270215 -0.20572 -4.56572e-05  -0.0357395 -0.205204 -1.15633e-05  -0.0384498 -0.233491 1.7643e-05  -0.0295398 -0.234092 -7.53403e-05  -0.0286913 -0.22456 -1.4782e-05  -0.0384667 -0.233518 -5.42402e-05  -0.037555 -0.224005 4.1604e-05  -0.0287104 -0.224604 -6.56843e-05  -0.0375762 -0.224048 -4.04119e-05  -0.0401802 -0.25249 -2.47955e-05  -0.0311661 -0.253108 -9.13143e-05  -0.0303423 -0.24356 -4.56572e-05  -0.040194 -0.252504 -7.70092e-05  -0.0393226 -0.242972 -4.64916e-06  -0.0303578 -0.243592 -8.33273e-05  -0.0393391 -0.243004 -6.59227e-05  -0.041842 -0.271508 -6.03199e-05  -0.0327504 -0.272144 -0.000105143  -0.03195 -0.262603 -7.18832e-05  -0.0418534 -0.271516 -9.72748e-05  -0.0410168 -0.261987 -4.33922e-05  -0.0319631 -0.262625 -9.83477e-05  -0.0410318 -0.262009 -8.73804e-05  -0.0434399 -0.2905 -8.92878e-05  -0.0342917 -0.291145 -0.000116825  -0.0335152 -0.281635 -9.34601e-05  -0.0434487 -0.290499 -0.000113368  -0.0426471 -0.280998 -7.54595e-05  -0.0335257 -0.281649 -0.000111103  -0.0426583 -0.281012 -0.000105381  -0.0449791 -0.309424 -0.000112534  -0.0357938 -0.31008 -0.000126481  -0.0350382 -0.300614 -0.000110745  -0.0449862 -0.309419 -0.000127435  -0.044214 -0.29996 -0.000101447  -0.0350473 -0.300621 -0.000121593  -0.0442243 -0.299967 -0.000120282  -0.0464659 -0.328251 -0.000131369  -0.0372562 -0.328911 -0.000134706  -0.036521 -0.319504 -0.000124931  -0.0464721 -0.328241 -0.000138164  -0.0457275 -0.318839 -0.000122309  -0.0365293 -0.319507 -0.000130534  -0.0457346 -0.318842 -0.000132561  -0.04791 -0.34696 -0.00014782  -0.0386865 -0.347623 -0.000142217  -0.0379679 -0.338281 -0.000136852  -0.0479155 -0.346949 -0.000148892  -0.0471902 -0.337609 -0.000139952  -0.0379746 -0.33828 -0.000138402  -0.0471981 -0.337609 -0.000143409  -0.0493274 -0.365528 -0.000163555  -0.0400927 -0.366179 -0.000149369  -0.0393841 -0.356922 -0.000148177  -0.0493326 -0.365517 -0.000157952  -0.0486188 -0.356251 -0.000155687  -0.0393913 -0.356921 -0.000145793  -0.048625 -0.356251 -0.000153303  -0.000280261 -0.00261143 0.000195861  0 0 0  8.09431e-05 -0.00266135 -6.31809e-06  2.81259e-05 -0.000918508 -3.33786e-06  0 0 0  -0.000278831 -0.00265858 9.40561e-05  -9.32179e-05 -0.000916243 0.000108123  0 0 0  2.63378e-05 -0.000937283 -3.45707e-06  -9.61795e-05 -0.00093767 5.19753e-05  -0.000867322 -0.00802693 0.000318289  0.000207126 -0.00815663 -1.22786e-05  0.000151753 -0.00501916 -8.9407e-06  -0.000870064 -0.0081552 0.000152946  -0.000542045 -0.00501347 0.000265598  0.000145629 -0.00511357 -9.05991e-06  -0.000539511 -0.00511259 0.000128388  -0.00168383 -0.0156181 0.00037241  0.000277221 -0.01583 -1.93119e-05  0.000265419 -0.0115899 -1.4782e-05  -0.00168869 -0.0158044 0.000175834  -0.00125203 -0.0115739 0.000352144  0.000253499 -0.0117639 -1.54972e-05  -0.00125512 -0.0117488 0.000167966  -0.00264665 -0.0249503 0.000374794  0.000231445 -0.0252356 -2.88486e-05  0.000287652 -0.0201271 -2.37226e-05  -0.00265977 -0.0251717 0.000172973  -0.00214946 -0.0200799 0.000378489  0.000270784 -0.0203403 -2.37226e-05  -0.00215954 -0.0202968 0.000177264  -0.00371075 -0.0357808 0.000344396  4.25577e-05 -0.0361228 -3.92199e-05  0.000177205 -0.0302659 -3.57628e-05  -0.00372982 -0.0360129 0.000154495  -0.0031684 -0.0301774 0.000362039  0.000155926 -0.0305047 -3.37362e-05  -0.00318378 -0.0304181 0.000164747  -0.004852 -0.0479544 0.000297904  -0.000300586 -0.0483426 -5.04255e-05  -8.5175e-05 -0.0418359 -4.94719e-05  -0.00487739 -0.0481793 0.000125766  -0.00427032 -0.041698 0.000322223  -0.000109613 -0.0420739 -4.45843e-05  -0.00429487 -0.0419382 0.000140429  -0.00606376 -0.0613304 0.000246763  -0.000797212 -0.0617592 -6.11544e-05  -0.000503361 -0.054678 -6.3777e-05  -0.00609308 -0.0615434 9.71556e-05  -0.00544941 -0.0544876 0.000272632  -0.000529826 -0.0549074 -5.56707e-05  -0.00547665 -0.0547184 0.000111341  -0.00734115 -0.0757833 0.000196338  -0.001441 -0.0762469 -7.12872e-05  -0.0010739 -0.0686625 -7.73668e-05  -0.00737238 -0.0759749 6.67572e-05  -0.00669229 -0.0684184 0.000221372  -0.0011012 -0.0688754 -6.61612e-05  -0.00672501 -0.0686319 8.15392e-05  -0.00868046 -0.0911807 0.00014925  -0.00222218 -0.0916775 -8.03471e-05  -0.00178802 -0.0836572 -8.96454e-05  -0.00871158 -0.0913533 4.05312e-05  -0.008003 -0.0833591 0.000172257  -0.00181496 -0.0838501 -7.58171e-05  -0.00803447 -0.0835523 5.29289e-05  -0.0100749 -0.107401 0.000106692  -0.00312793 -0.107927 -8.82149e-05  -0.00263441 -0.0995342 -9.97782e-05  -0.0101047 -0.10755 1.4782e-05  -0.0093689 -0.0991839 0.000127435  -0.00266004 -0.0997058 -8.41618e-05  -0.00940168 -0.0993551 2.70605e-05  -0.0115163 -0.12432 6.87838e-05  -0.00414574 -0.124874 -9.47714e-05  -0.00359964 -0.116169 -0.000108242  -0.0115441 -0.124449 -6.4373e-06  -0.0107896 -0.115768 8.7142e-05  -0.0036236 -0.116319 -9.15527e-05  -0.0108187 -0.115918 3.57628e-06  -0.0129963 -0.141826 3.51667e-05  -0.00525963 -0.142404 -0.000100493  -0.00466943 -0.133442 -0.000114799  -0.0130211 -0.141933 -2.70605e-05  -0.0122497 -0.132995 5.14984e-05  -0.00469124 -0.133571 -9.75132e-05  -0.0122784 -0.133123 -1.74046e-05  -0.0145049 -0.159809 5.48363e-06  -0.00645638 -0.160408 -0.000105023  -0.0058291 -0.151242 -0.000119805  -0.0145267 -0.159898 -4.37498e-05  -0.0137467 -0.150752 1.9908e-05  -0.00584829 -0.151351 -0.000102639  -0.0137706 -0.15086 -3.5882e-05  -0.0160325 -0.178171 -2.02656e-05  -0.00772059 -0.178789 -0.000108838  -0.0070641 -0.169465 -0.000123501  -0.0160513 -0.178241 -5.98431e-05  -0.0152643 -0.168936 -7.7486e-06  -0.00708055 -0.169556 -0.000106931  -0.0152872 -0.169026 -5.23329e-05  -0.0175703 -0.19682 -4.31538e-05  -0.00904 -0.197453 -0.000112295  -0.00835967 -0.188015 -0.000125885  -0.017586 -0.196875 -7.27177e-05  -0.0167999 -0.187452 -3.20673e-05  -0.00837409 -0.188089 -0.000110388  -0.0168173 -0.187526 -6.67572e-05  -0.0191096 -0.215675 -6.31809e-05  -0.0104002 -0.21632 -0.000115156  -0.00970328 -0.206806 -0.000127912  -0.0191225 -0.215715 -8.58307e-05  -0.0183375 -0.206215 -5.34058e-05  -0.00971532 -0.206865 -0.000113606  -0.0183544 -0.206273 -7.9751e-05  -0.0206435 -0.23466 -8.01086e-05  -0.0117905 -0.235315 -0.00011766  -0.0110822 -0.225759 -0.000129104  -0.0206537 -0.234689 -9.57251e-05  -0.0198767 -0.225143 -7.18832e-05  -0.0110922 -0.225805 -0.00011611  -0.0198889 -0.225189 -9.13143e-05  -0.0221653 -0.253714 -9.46522e-05  -0.0131993 -0.254375 -0.000119925  -0.012485 -0.244806 -0.000130177  -0.0221732 -0.25373 -0.000105739  -0.0214033 -0.24417 -8.7738e-05  -0.0124929 -0.244839 -0.000118732  -0.0214152 -0.244203 -0.000101089  -0.0236707 -0.272775 -0.000106573  -0.0146191 -0.273441 -0.000121832  -0.0139019 -0.263885 -0.000130415  -0.0236764 -0.272784 -0.000112772  -0.0229192 -0.263234 -0.00010097  -0.0139081 -0.263909 -0.00012064  -0.0229266 -0.263257 -0.000109792  -0.0251555 -0.291801 -0.000116348  -0.016041 -0.292469 -0.000123739  -0.0153253 -0.282946 -0.000130534  -0.0251598 -0.291801 -0.000120282  -0.0244131 -0.282283 -0.000111699  -0.0153298 -0.282961 -0.000122547  -0.0244207 -0.282298 -0.000117064  -0.026618 -0.31075 -0.000124454  -0.0174592 -0.31142 -0.000125647  -0.0167468 -0.301946 -0.000130892  -0.0266209 -0.310746 -0.000125408  -0.0258887 -0.301275 -0.00012064  -0.0167508 -0.301955 -0.000124454  -0.025893 -0.301283 -0.000123382  -0.0280557 -0.329594 -0.000131011  -0.018868 -0.330264 -0.000127554  -0.0181613 -0.320852 -0.000130892  -0.0280583 -0.329584 -0.000131369  -0.0273373 -0.320175 -0.000127792  -0.0181649 -0.320855 -0.000126362  -0.0273423 -0.320178 -0.000128746  -0.0294704 -0.348308 -0.000136971  -0.0202658 -0.348978 -0.0001297  -0.0195661 -0.339636 -0.000131249  -0.0294721 -0.348298 -0.000135422  -0.0287647 -0.338956 -0.00013411  -0.0195682 -0.339636 -0.000128388  -0.0287676 -0.338956 -0.000133634  -0.0308623 -0.366858 -0.000143051  -0.0216448 -0.367527 -0.000131369  -0.0209553 -0.358275 -0.000131845  -0.030864 -0.366848 -0.000140786  -0.0301661 -0.357595 -0.000140071  -0.0209579 -0.358276 -0.000130415  -0.0301702 -0.357596 -0.000138283  0.000447944 -0.00275719 -0.000207305  0 0 0  0.000816613 -0.00308788 -0.000204682  0.000279896 -0.00116581 -0.000223994  0 0 0  0.000441834 -0.00280154 -0.000105858  0.000147961 -0.000999808 -0.000114441  0 0 0  0.000274636 -0.00119352 -0.000111222  0.000150196 -0.00101995 -5.76973e-05  0.00129479 -0.00825655 -0.000339627  0.00239399 -0.00881952 -0.000339627  0.00155897 -0.00558734 -0.000555277  0.00128552 -0.00838172 -0.000176668  0.000843212 -0.00520635 -0.000282288  0.0015402 -0.00568956 -0.000280499  0.000831887 -0.00530231 -0.00014627  0.00225785 -0.0159132 -0.000407815  0.00424507 -0.0165983 -0.000408649  0.00333703 -0.012315 -0.00074625  0.00223857 -0.0160955 -0.000213861  0.00177661 -0.0118362 -0.00037992  0.00330564 -0.012489 -0.000383139  0.00176045 -0.012008 -0.000198007  0.00313342 -0.02531 -0.000430822  0.00603789 -0.0260456 -0.000429749  0.00519347 -0.0209194 -0.000823498  0.00311309 -0.0255273 -0.000228763  0.00271335 -0.0204064 -0.000423551  0.00516012 -0.0211317 -0.000423908  0.00269383 -0.0206196 -0.000223875  0.00382411 -0.0362117 -0.000427008  0.00759917 -0.0369634 -0.000423312  0.00688416 -0.0310918 -0.00082624  0.00380081 -0.0364404 -0.000231743  0.00350797 -0.0305715 -0.000431418  0.0068531 -0.0313277 -0.000429511  0.00348341 -0.0308086 -0.000231147  0.00428122 -0.0484638 -0.000409722  0.00885391 -0.0492142 -0.000401497  0.0082925 -0.0426902 -0.000788569  0.00425959 -0.0486867 -0.000225544  0.00408208 -0.0421668 -0.000419497  0.00826639 -0.0429276 -0.000413179  0.00406009 -0.0424047 -0.000228882  0.00450116 -0.061925 -0.000387073  0.0097872 -0.0626758 -0.000374794  0.00938183 -0.0555708 -0.000733256  0.00448012 -0.0621367 -0.00021863  0.00442266 -0.0550392 -0.000398874  0.00936049 -0.0557993 -0.000388503  0.00439924 -0.0552682 -0.000221968  0.00449061 -0.0764664 -0.000362873  0.01041 -0.0772126 -0.000347137  0.0101541 -0.0696021 -0.00067246  0.00447142 -0.0766579 -0.000208735  0.00452381 -0.0690567 -0.000375152  0.0101364 -0.0698148 -0.000360966  0.00450391 -0.0692698 -0.000213385  0.00426602 -0.091953 -0.000338793  0.0107427 -0.0927005 -0.000320196  0.0106257 -0.0846505 -0.00061202  0.00424886 -0.0921261 -0.000200629  0.00440621 -0.0840871 -0.000350952  0.0106114 -0.0848436 -0.000333428  0.00438583 -0.0842804 -0.000204563  0.00384605 -0.108261 -0.00031507  0.0108104 -0.109005 -0.000294685  0.0108207 -0.100584 -0.000553846  0.00383067 -0.10841 -0.000190973  0.00407994 -0.0999999 -0.000326991  0.0108086 -0.100756 -0.000307083  0.00406325 -0.100172 -0.000195384  0.00324976 -0.125263 -0.000292182  0.0106378 -0.126008 -0.000270367  0.0107633 -0.117274 -0.00049901  0.00323653 -0.125393 -0.000182867  0.00357091 -0.11667 -0.000303507  0.0107528 -0.117425 -0.000282168  0.00355446 -0.11682 -0.000186443  0.00249791 -0.142846 -0.000270367  0.0102513 -0.143588 -0.000248075  0.0104792 -0.1346 -0.000447631  0.00248671 -0.142954 -0.000173688  0.00289285 -0.133976 -0.000281096  0.0104703 -0.13473 -0.000258803  0.00288022 -0.134106 -0.00017786  0.00160968 -0.160897 -0.000249505  0.00967407 -0.16164 -0.000226736  0.00999224 -0.152449 -0.000399709  0.00160062 -0.160988 -0.000166297  0.0020721 -0.151807 -0.000259757  0.00998533 -0.152559 -0.000237107  0.00205946 -0.151917 -0.000169754  0.000604868 -0.179321 -0.000229478  0.00893188 -0.180059 -0.000207663  0.00932813 -0.170715 -0.000355244  0.000597477 -0.179393 -0.000157833  0.00112164 -0.170057 -0.000239253  0.00932288 -0.170807 -0.000216842  0.00111282 -0.170149 -0.000161648  -0.000499129 -0.198023 -0.00021112  0.00804603 -0.198758 -0.0001899  0.00850987 -0.189301 -0.000314116  -0.000504375 -0.19808 -0.000151515  6.63996e-05 -0.18863 -0.00022018  0.00850582 -0.189376 -0.000198364  5.80549e-05 -0.188705 -0.000154257  -0.00168347 -0.216923 -0.000194311  0.00703979 -0.21765 -0.000174284  0.00756013 -0.208122 -0.000276804  -0.00168693 -0.216964 -0.000144243  -0.00108135 -0.207441 -0.000202537  0.00755727 -0.208182 -0.000181437  -0.00108612 -0.207501 -0.000147462  -0.00293303 -0.235944 -0.000179291  0.00593257 -0.236667 -0.000160456  0.00649977 -0.227099 -0.000243783  -0.00293493 -0.235974 -0.000139475  -0.00229859 -0.22641 -0.000186563  0.00649786 -0.227145 -0.000166893  -0.00230384 -0.226456 -0.000141382  -0.00423193 -0.255026 -0.00016582  0.00474524 -0.255739 -0.000148654  0.00534964 -0.246163 -0.000214696  -0.00423241 -0.255043 -0.000133753  -0.00357604 -0.245469 -0.000172496  0.00534844 -0.246197 -0.000154138  -0.00357819 -0.245503 -0.000136137  -0.00556803 -0.274108 -0.000154376  0.00349402 -0.274816 -0.000138402  0.00412703 -0.265254 -0.000189304  -0.00556731 -0.274118 -0.000130653  -0.0048933 -0.264558 -0.000160098  0.00412703 -0.265278 -0.00014329  -0.00489593 -0.264582 -0.000131845  -0.00692773 -0.29315 -0.000145078  0.0021956 -0.293848 -0.000131011  0.00285006 -0.284322 -0.000168204  -0.00692677 -0.29315 -0.000126958  -0.00624442 -0.283625 -0.000149727  0.00285053 -0.284338 -0.000134468  -0.00624418 -0.283641 -0.000128388  -0.00830317 -0.312108 -0.000137568  0.000863552 -0.312801 -0.000124812  0.00153255 -0.303325 -0.000151038  -0.0083015 -0.312105 -0.000125885  -0.00761175 -0.302629 -0.000141144  0.00153303 -0.303334 -0.000127435  -0.00761271 -0.302638 -0.000126004  -0.0096848 -0.330958 -0.000131369  -0.000490189 -0.331642 -0.000120521  0.000188589 -0.32223 -0.00013721  -0.00968289 -0.330949 -0.000123739  -0.00899267 -0.321536 -0.00013423  0.000188828 -0.322234 -0.000122428  -0.00899148 -0.32154 -0.000124216  -0.0110657 -0.349674 -0.000126004  -0.00185442 -0.350358 -0.000116825  -0.00117254 -0.341013 -0.000125647  -0.0110633 -0.349665 -0.000123501  -0.0103736 -0.340321 -0.000128746  -0.00117135 -0.341014 -0.000118375  -0.0103734 -0.340322 -0.000123382  -0.0124323 -0.368223 -0.000121474  -0.00320935 -0.368915 -0.000114083  -0.00253558 -0.359656 -0.000115514  -0.0124304 -0.368215 -0.000122547  -0.0117507 -0.358961 -0.00012362  -0.00253439 -0.359656 -0.000115275  -0.0117497 -0.358962 -0.000122905  0.00122678 -0.00350881 -0.000603676  0 0 0  0.00166959 -0.00421345 -0.000403523  0.000576593 -0.00182521 -0.000438809  0 0 0  0.00122295 -0.00355434 -0.000304818  0.000411913 -0.0014289 -0.000331998  0 0 0  0.000558481 -0.00186133 -0.000227213  0.000408813 -0.00146657 -0.000167489  0.00359407 -0.00936896 -0.000995159  0.00485373 -0.0104247 -0.000669599  0.00317447 -0.0070067 -0.00110149  0.00358787 -0.00950038 -0.000502586  0.00231718 -0.00617778 -0.000827312  0.00314404 -0.00710785 -0.000554562  0.00231303 -0.00627959 -0.000417709  0.00638074 -0.0171537 -0.00118768  0.00858945 -0.018326 -0.000799417  0.00675115 -0.013996 -0.00148404  0.00635359 -0.0173408 -0.000603437  0.00497076 -0.013033 -0.00111353  0.00670266 -0.0141799 -0.000748515  0.00495303 -0.0132059 -0.000563025  0.00909007 -0.0265675 -0.00123382  0.0122276 -0.0277481 -0.000833035  0.0104919 -0.0226379 -0.00162685  0.00906551 -0.0267876 -0.00063026  0.00776166 -0.0216624 -0.00122428  0.0104409 -0.0228541 -0.000824213  0.0077332 -0.0218768 -0.000625253  0.0115151 -0.0374558 -0.00119495  0.015514 -0.0386046 -0.000805974  0.0139641 -0.0327615 -0.00161719  0.0114884 -0.037686 -0.000614166  0.0103483 -0.0318241 -0.00122154  0.0139262 -0.033001 -0.000823855  0.0103204 -0.0320604 -0.000625968  0.013548 -0.0496976 -0.00111473  0.0183293 -0.0508034 -0.000753522  0.0170116 -0.0443026 -0.00152695  0.0135289 -0.0499206 -0.000577211  0.0125832 -0.0434034 -0.00115776  0.0169817 -0.0445418 -0.000781298  0.0125586 -0.0436423 -0.000597835  0.01518 -0.0631615 -0.00101936  0.0206605 -0.0642278 -0.000689507  0.0195735 -0.0571395 -0.00140297  0.0151659 -0.0633733 -0.000531435  0.0144144 -0.0562722 -0.001068  0.0195557 -0.0573691 -0.000721693  0.0143977 -0.0565016 -0.000555158  0.0164223 -0.0777174 -0.000921726  0.0225229 -0.0787466 -0.000624895  0.0216602 -0.0711446 -0.00126898  0.0164133 -0.0779089 -0.000485778  0.0158501 -0.0702988 -0.000970364  0.0216482 -0.0713573 -0.000656962  0.0158369 -0.0705121 -0.000508785  0.0173018 -0.093227 -0.000827193  0.0239478 -0.0942242 -0.000562191  0.0232939 -0.0861797 -0.0011369  0.0172962 -0.0933998 -0.00044024  0.0169063 -0.0853484 -0.000874043  0.0232885 -0.0863725 -0.000592828  0.0168988 -0.085542 -0.000463128  0.0178481 -0.109561 -0.000737906  0.0249711 -0.110528 -0.000503182  0.0245105 -0.102108 -0.00101089  0.0178452 -0.109711 -0.000398755  0.017617 -0.101287 -0.000782013  0.0245074 -0.10228 -0.000532031  0.0176105 -0.101459 -0.000419617  0.0180914 -0.12659 -0.000654459  0.0256275 -0.12753 -0.000448108  0.0253433 -0.118798 -0.000892878  0.0180904 -0.12672 -0.000358343  0.0180064 -0.117983 -0.000695467  0.0253432 -0.118948 -0.00047493  0.0180042 -0.118135 -0.000378609  0.0180625 -0.144199 -0.000576854  0.0259534 -0.145112 -0.000396967  0.0258288 -0.136125 -0.000783086  0.0180631 -0.144307 -0.000322461  0.0181116 -0.135317 -0.000615001  0.0258297 -0.136254 -0.000421762  0.0181091 -0.135447 -0.000340343  0.0177902 -0.162273 -0.000504971  0.0259815 -0.163161 -0.000349879  0.0260004 -0.153973 -0.000681162  0.017792 -0.162364 -0.000287771  0.0179559 -0.153171 -0.000540257  0.0260029 -0.154083 -0.000372887  0.0179565 -0.153282 -0.000305057  0.0173035 -0.180715 -0.000439286  0.0257474 -0.181577 -0.000307083  0.0258926 -0.172236 -0.00058794  0.0173062 -0.180786 -0.000257492  0.0175745 -0.171441 -0.000471473  0.0258955 -0.172328 -0.000327945  0.0175742 -0.171533 -0.000272632  0.0166293 -0.199429 -0.000379205  0.0252804 -0.200268 -0.00026834  0.025537 -0.190817 -0.000502586  0.0166332 -0.199487 -0.000228286  0.0169889 -0.19003 -0.00040853  0.0255412 -0.190892 -0.000286937  0.016992 -0.190106 -0.000242949  0.0157952 -0.218338 -0.000325322  0.0246136 -0.219152 -0.00023365  0.0249661 -0.209629 -0.000425816  0.0157998 -0.218379 -0.000203967  0.0162332 -0.208852 -0.000351667  0.0249702 -0.209689 -0.00025022  0.016235 -0.208912 -0.000216126  0.0148251 -0.237363 -0.000277758  0.0237749 -0.238155 -0.000203013  0.0242095 -0.228595 -0.00035727  0.0148301 -0.237394 -0.000181079  0.0153265 -0.227827 -0.000300765  0.0242143 -0.228641 -0.000217557  0.0153306 -0.227874 -0.000192523  0.0137436 -0.256445 -0.00023663  0.0227945 -0.257214 -0.000177145  0.0232968 -0.247645 -0.000297666  0.0137491 -0.256462 -0.000163317  0.0142999 -0.246888 -0.000256419  0.0233011 -0.24768 -0.000189304  0.014302 -0.246923 -0.000172019  0.0125721 -0.275524 -0.000201583  0.0216968 -0.276274 -0.000155091  0.022254 -0.266721 -0.000246525  0.0125778 -0.275535 -0.000146508  0.0131688 -0.265975 -0.000218391  0.022259 -0.266745 -0.000165343  0.0131738 -0.266 -0.000154734  0.0113308 -0.29456 -0.000173092  0.0205085 -0.29529 -0.000137687  0.0211082 -0.285772 -0.000203967  0.011337 -0.29456 -0.000134706  0.0119617 -0.285038 -0.000186443  0.0211129 -0.285788 -0.000145674  0.011965 -0.285054 -0.000140429  0.0100379 -0.313511 -0.000149846  0.0192502 -0.314224 -0.000123858  0.0198817 -0.304758 -0.000169754  0.0100441 -0.313507 -0.000123858  0.0106909 -0.304034 -0.000160694  0.019887 -0.304767 -0.000130177  0.0106964 -0.304044 -0.000129223  0.00870991 -0.332352 -0.00013113  0.0179429 -0.333053 -0.000113249  0.0185974 -0.323647 -0.000142336  0.00871539 -0.332343 -0.000116944  0.00937963 -0.322934 -0.000139952  0.0186014 -0.323651 -0.000118136  0.00938368 -0.322938 -0.000120401  0.00736022 -0.351065 -0.000115395  0.0166037 -0.351761 -0.000105381  0.0172713 -0.342419 -0.000120521  0.00736594 -0.351057 -0.000110269  0.00803781 -0.341713 -0.000123262  0.0172765 -0.342421 -0.000108719  0.00804281 -0.341715 -0.000113845  0.00601339 -0.369635 -0.000101209  0.0152617 -0.370344 -9.70364e-05  0.0159252 -0.361066 -0.000101089  0.00601888 -0.369625 -0.000105381  0.00668669 -0.360358 -0.000108004  0.0159299 -0.361067 -0.000101209  0.00668955 -0.360359 -0.000107884  0.00218801 -0.00504452 -0.00100064  0 0 0  0.00274198 -0.00631899 -0.000606537  0.000936911 -0.00306702 -0.000669956  0 0 0  0.00217399 -0.00511795 -0.000505328  0.000717804 -0.00236291 -0.000545859  0 0 0  0.000908963 -0.00311726 -0.000314713  0.000717498 -0.00240821 -0.000269175  0.00635555 -0.0114913 -0.00166428  0.0080328 -0.0132192 -0.00101089  0.00529097 -0.00956887 -0.00167751  0.00635007 -0.0116509 -0.000832796  0.00412056 -0.00810677 -0.00137949  0.00520556 -0.0096668 -0.000831127  0.00411403 -0.00821263 -0.000697613  0.0110995 -0.0193674 -0.00197768  0.0137985 -0.0210493 -0.00119913  0.0109874 -0.0167432 -0.00224459  0.0110617 -0.0195668 -0.000997424  0.00871986 -0.0152252 -0.00185907  0.0109301 -0.0169464 -0.00112927  0.0086945 -0.0154206 -0.000933766  0.0156432 -0.0287004 -0.00204134  0.0192456 -0.0303046 -0.00123501  0.0166302 -0.025258 -0.00244367  0.0156142 -0.028925 -0.00103152  0.0134104 -0.0238389 -0.00203276  0.0165696 -0.0254907 -0.00123107  0.0133791 -0.0240641 -0.00102854  0.0197611 -0.0394825 -0.00196433  0.0241748 -0.0410015 -0.00119162  0.0218325 -0.0352283 -0.00241518  0.0197285 -0.0397142 -0.000998497  0.0177711 -0.0339004 -0.00201464  0.0217825 -0.0354743 -0.00122154  0.0177337 -0.0341437 -0.00102103  0.0233207 -0.0516299 -0.00182164  0.0284792 -0.0530666 -0.00110579  0.0264426 -0.0466242 -0.00227118  0.0232999 -0.051855 -0.000928402  0.0216111 -0.0453799 -0.00189793  0.0264058 -0.0468678 -0.00115108  0.0215845 -0.0456212 -0.000966072  0.0263203 -0.0650246 -0.00165462  0.0321478 -0.0663877 -0.0010066  0.0304164 -0.0593468 -0.00207937  0.0263079 -0.0652353 -0.000847459  0.0248921 -0.0581673 -0.00173986  0.0303921 -0.0595778 -0.00105691  0.0248736 -0.0583973 -0.000888705  0.0287787 -0.0795291 -0.00148487  0.0351999 -0.0808258 -0.000905156  0.0337634 -0.0732627 -0.00187349  0.0287726 -0.0797204 -0.000763893  0.0276154 -0.0721349 -0.00156975  0.0337483 -0.0734748 -0.000955343  0.0276062 -0.0723472 -0.000805378  0.03073 -0.0950018 -0.00132024  0.0376761 -0.0962384 -0.000806689  0.0365163 -0.0882266 -0.00166988  0.0307294 -0.0951723 -0.000683904  0.0298173 -0.0871409 -0.0014019  0.0365077 -0.0884182 -0.000855207  0.0298123 -0.0873329 -0.000723243  0.0322152 -0.111306 -0.00116527  0.0396165 -0.112486 -0.000714183  0.0387146 -0.104096 -0.00147545  0.0322171 -0.111454 -0.00060761  0.0315294 -0.103046 -0.0012418  0.0387104 -0.104265 -0.000759482  0.0315295 -0.103217 -0.000644922  0.0332717 -0.128309 -0.00102055  0.041068 -0.129437 -0.000627398  0.0404024 -0.120732 -0.00129306  0.0332763 -0.128437 -0.000537634  0.0327966 -0.119716 -0.00109172  0.040401 -0.12088 -0.000669718  0.0327983 -0.119865 -0.000571728  0.0339408 -0.145893 -0.000886559  0.0420715 -0.14697 -0.000548005  0.0416225 -0.13801 -0.00112367  0.0339465 -0.146 -0.000471473  0.0336534 -0.137024 -0.000952363  0.0416228 -0.138137 -0.000586629  0.0336579 -0.137152 -0.000503659  0.0342594 -0.163942 -0.000763059  0.042673 -0.164972 -0.000474095  0.0424185 -0.155809 -0.000967145  0.0342668 -0.164032 -0.000411868  0.0341439 -0.154854 -0.000823498  0.0424205 -0.155918 -0.000509739  0.0341483 -0.154962 -0.000440836  0.0342672 -0.182358 -0.000650048  0.0429125 -0.18334 -0.0004071  0.0428329 -0.174025 -0.000823379  0.0342743 -0.182429 -0.000356317  0.034301 -0.173098 -0.000705361  0.0428354 -0.174114 -0.000439405  0.0343075 -0.173189 -0.000383258  0.0339978 -0.201046 -0.000547409  0.0428321 -0.201984 -0.000345588  0.0429069 -0.192558 -0.000692487  0.0340059 -0.201102 -0.000307202  0.0341669 -0.191661 -0.000597358  0.0429102 -0.192632 -0.000375152  0.0341729 -0.191735 -0.000330925  0.0334892 -0.219925 -0.000455499  0.0424707 -0.220821 -0.000291705  0.0426807 -0.211323 -0.00057435  0.0334971 -0.219966 -0.000262141  0.0337725 -0.210454 -0.000500202  0.0426841 -0.211381 -0.000317454  0.0337797 -0.210514 -0.000283718  0.032773 -0.238921 -0.000374556  0.0418677 -0.239778 -0.000243664  0.0421929 -0.230241 -0.000469446  0.0327818 -0.238951 -0.000223756  0.0331571 -0.2294 -0.000413537  0.0421975 -0.230287 -0.000266433  0.0331633 -0.229446 -0.000241995  0.0318842 -0.257973 -0.000304699  0.0410595 -0.258791 -0.000203371  0.0414829 -0.249245 -0.000378013  0.0318925 -0.257991 -0.000189781  0.0323496 -0.248432 -0.000338316  0.041487 -0.249279 -0.000222325  0.0323572 -0.248466 -0.000205874  0.0308523 -0.277024 -0.000245929  0.0400832 -0.277809 -0.000168443  0.0405858 -0.268277 -0.00030005  0.0308609 -0.277033 -0.000162601  0.0313869 -0.267489 -0.000273824  0.0405908 -0.268301 -0.000184655  0.0313931 -0.267513 -0.000175238  0.0297077 -0.296031 -0.000198007  0.0389726 -0.296785 -0.000142217  0.0395381 -0.287287 -0.000235796  0.0297163 -0.296032 -0.000139475  0.0302935 -0.286523 -0.000220537  0.0395427 -0.287303 -0.000153899  0.0303013 -0.286539 -0.000150084  0.028477 -0.314956 -0.00015986  0.0377607 -0.315687 -0.000120163  0.038372 -0.306236 -0.000184417  0.0284858 -0.314952 -0.000122547  0.0291038 -0.305493 -0.000177741  0.038378 -0.306246 -0.0001297  0.0291104 -0.305502 -0.000130296  0.027185 -0.333777 -0.000130415  0.0364776 -0.334489 -0.000105381  0.0371213 -0.325095 -0.000145316  0.0271938 -0.333768 -0.000108838  0.0278382 -0.324368 -0.000144124  0.0371261 -0.325099 -0.000111699  0.0278466 -0.324373 -0.000115037  0.0258534 -0.35248 -0.000106454  0.0351481 -0.353184 -9.31025e-05  0.0358105 -0.343846 -0.000115156  0.0258622 -0.352471 -9.93013e-05  0.0265257 -0.343131 -0.000118017  0.0358179 -0.343848 -9.84669e-05  0.0265317 -0.343132 -0.000103712  0.0245078 -0.371076 -8.4281e-05  0.0337994 -0.371791 -8.2612e-05  0.0344667 -0.362492 -8.96454e-05  0.0245171 -0.371068 -8.98838e-05  0.0251808 -0.361777 -9.50098e-05  0.0344748 -0.362494 -8.7738e-05  0.0251887 -0.36178 -9.42945e-05  0.00390816 -0.0079478 -0.00146902  0 0 0  0.00606613 -0.0101758 -0.000831246  0.00266666 -0.00598919 -0.000944972  0 0 0  0.00389756 -0.00802457 -0.000772595  0.00125598 -0.00402492 -0.000794172  0 0 0  0.00253371 -0.00603646 -0.000507116  0.00127825 -0.00412911 -0.000373006  0.0100894 -0.0148553 -0.00236404  0.0129131 -0.0172438 -0.00136912  0.00965275 -0.0132222 -0.00227535  0.0102217 -0.0151278 -0.00116694  0.00684701 -0.0113043 -0.00199151  0.00939839 -0.0135965 -0.00110793  0.0069267 -0.0115104 -0.000976086  0.0169269 -0.0225192 -0.00277722  0.0203938 -0.024672 -0.00156975  0.0167488 -0.020551 -0.00297332  0.0168796 -0.0227609 -0.00139093  0.0135585 -0.0185537 -0.00262475  0.0166844 -0.0207332 -0.00148594  0.0135627 -0.0187405 -0.00130737  0.0232202 -0.0316392 -0.00284612  0.0274684 -0.0336218 -0.00162327  0.0240718 -0.0286692 -0.00321376  0.0231864 -0.0318758 -0.00143075  0.0201376 -0.0268755 -0.00284326  0.0239975 -0.0289424 -0.00161028  0.0200953 -0.027126 -0.00143099  0.0289351 -0.0422134 -0.00273609  0.0339172 -0.0440606 -0.00156057  0.030836 -0.038395 -0.00317883  0.0288924 -0.0424528 -0.00137997  0.0261652 -0.0367303 -0.00280809  0.0307847 -0.0386472 -0.00159872  0.0261222 -0.0369802 -0.00141525  0.0339354 -0.0542006 -0.00253236  0.0396153 -0.0559347 -0.00145233  0.0369154 -0.0495707 -0.00299609  0.0339072 -0.0544285 -0.00128078  0.0315256 -0.048023 -0.0026418  0.0368621 -0.0498245 -0.00150931  0.0314878 -0.0482715 -0.00133502  0.0382383 -0.0674657 -0.00229871  0.044551 -0.0690994 -0.00131941  0.0422184 -0.0621328 -0.00274527  0.0382161 -0.067677 -0.00116503  0.036175 -0.06067 -0.00241816  0.0421792 -0.0623642 -0.00138652  0.0361487 -0.0609016 -0.00122476  0.0418525 -0.0818668 -0.0020566  0.0487309 -0.0834084 -0.00118542  0.0467675 -0.0759065 -0.00247312  0.0418415 -0.0820566 -0.00104618  0.0401304 -0.0745202 -0.00217783  0.0467327 -0.0761204 -0.00125134  0.0401118 -0.0747339 -0.00110614  0.0448301 -0.0972486 -0.00182343  0.0522041 -0.0987054 -0.00105226  0.0505781 -0.0907556 -0.00220132  0.0448221 -0.0974172 -0.000930429  0.0434198 -0.0894325 -0.00193918  0.0505538 -0.0909433 -0.00111759  0.0434093 -0.0896228 -0.000988126  0.0472043 -0.113473 -0.00160086  0.0550082 -0.114849 -0.000927567  0.0537084 -0.106512 -0.00194061  0.0472031 -0.113619 -0.000821114  0.0460913 -0.105251 -0.00171089  0.0536861 -0.106681 -0.000987768  0.0460842 -0.105421 -0.000875354  0.0490339 -0.1304 -0.00139451  0.0572044 -0.1317 -0.00080955  0.0561953 -0.123052 -0.00169516  0.0490324 -0.130526 -0.000718713  0.0481858 -0.121845 -0.00149608  0.0561799 -0.123195 -0.000867248  0.0481836 -0.121992 -0.000769258  0.0503551 -0.147913 -0.00120223  0.0588344 -0.149139 -0.000701904  0.0581021 -0.140229 -0.00146687  0.0503583 -0.148018 -0.000624537  0.0497566 -0.139078 -0.00129676  0.0580864 -0.140354 -0.000753641  0.049755 -0.139205 -0.000671029  0.0512254 -0.165891 -0.00102556  0.0599599 -0.167046 -0.000600815  0.059468 -0.157938 -0.00125539  0.0512276 -0.165978 -0.000537157  0.0508456 -0.156838 -0.0011121  0.059458 -0.158042 -0.000649691  0.0508469 -0.156945 -0.000580192  0.0516812 -0.184238 -0.000863671  0.0606214 -0.185326 -0.000510335  0.060356 -0.176059 -0.00106132  0.0516865 -0.184308 -0.000457883  0.0515041 -0.175012 -0.000942945  0.0603448 -0.176146 -0.00055337  0.0515051 -0.175102 -0.000496864  0.0517766 -0.202857 -0.000717163  0.0608779 -0.20388 -0.000426888  0.0608042 -0.194506 -0.000884533  0.0517811 -0.202911 -0.000385404  0.0517728 -0.193507 -0.00078845  0.060798 -0.194575 -0.000466824  0.0517768 -0.19358 -0.000420928  0.0515478 -0.221671 -0.000585914  0.0607693 -0.222633 -0.000353575  0.0608729 -0.21318 -0.000725269  0.0515544 -0.221711 -0.000321746  0.0517019 -0.212232 -0.000649571  0.0608655 -0.213237 -0.000387788  0.0517048 -0.212291 -0.00035274  0.0510447 -0.240603 -0.000470281  0.0603504 -0.241506 -0.000287771  0.0605993 -0.232017 -0.000583529  0.0510507 -0.240631 -0.000264764  0.0513296 -0.231114 -0.000525951  0.0605962 -0.232059 -0.000318885  0.0513346 -0.23116 -0.000292301  0.0503025 -0.259595 -0.00037086  0.0596609 -0.260445 -0.000233054  0.06004 -0.25094 -0.000460505  0.0503104 -0.259611 -0.000216842  0.0507028 -0.250082 -0.000418544  0.0600357 -0.250972 -0.000258207  0.0507069 -0.250117 -0.000240207  0.0493686 -0.278588 -0.000286579  0.0587525 -0.27939 -0.00018549  0.0592315 -0.269899 -0.000355363  0.0493755 -0.278597 -0.000175714  0.049859 -0.269082 -0.000326633  0.0592318 -0.26992 -0.000207186  0.0498652 -0.269106 -0.000195384  0.0482776 -0.297546 -0.000219941  0.0576646 -0.298308 -0.000149727  0.058228 -0.288842 -0.000269055  0.0482855 -0.297547 -0.000144362  0.0488422 -0.288062 -0.000251412  0.0582275 -0.288856 -0.000165224  0.048847 -0.288078 -0.000159144  0.047071 -0.316427 -0.000167608  0.0564461 -0.317156 -0.000120163  0.0570652 -0.307734 -0.000201225  0.0470788 -0.316424 -0.000119209  0.047688 -0.306985 -0.000191808  0.0570695 -0.307742 -0.000133038  0.0476949 -0.306995 -0.000130892  0.0457838 -0.335219 -0.000129104  0.0551381 -0.335925 -0.000101566  0.0557964 -0.326549 -0.000150681  0.0457916 -0.335211 -0.000102043  0.046437 -0.325824 -0.000146866  0.0557992 -0.326552 -0.000109076  0.0464432 -0.325829 -0.00011003  0.0444467 -0.353903 -9.94205e-05  0.0537798 -0.3546 -8.54731e-05  0.0544534 -0.34527 -0.00011456  0.044457 -0.353896 -8.83341e-05  0.0451212 -0.344561 -0.000113606  0.0544631 -0.345273 -9.2268e-05  0.0451293 -0.344565 -9.48906e-05  0.0430892 -0.372525 -7.29561e-05  0.0524061 -0.373213 -7.47442e-05  0.0530884 -0.363916 -8.64267e-05  0.0430949 -0.372507 -7.70092e-05  0.043772 -0.363207 -8.63075e-05  0.0530941 -0.363913 -8.11815e-05  0.0437787 -0.363208 -8.2612e-05  -0.00618693 -0.00895192 0.00273955  -0.00269949 -0.00512635 0.00209701  0 0 0  -0.00388053 -0.00652687 0.00321579  0 0 0  -0.00278443 -0.00526645 0.00192261  -0.000931811 -0.00247113 0.00146532  0 0 0  -0.00267041 -0.00544399 0.00150084  -0.00395769 -0.00688742 0.00231671  -0.00125366 -0.00335058 0.00176144  0 0 0  -0.00096133 -0.00257973 0.001055  -0.00130485 -0.00358412 0.00124466  -0.0132748 -0.0149186 0.00428104  -0.00970988 -0.0112929 0.00500596  -0.0101052 -0.0125829 0.00513375  -0.00796188 -0.0114385 0.00315332  -0.00511131 -0.0078638 0.0036329  -0.00970182 -0.0117915 0.00358117  -0.0102272 -0.0130649 0.00374138  -0.00689054 -0.00949335 0.00434804  -0.00522324 -0.00824551 0.00265205  -0.0069734 -0.00988909 0.00318396  -0.0207481 -0.0218703 0.00495625  -0.0170536 -0.0175554 0.00643373  -0.0169335 -0.0196171 0.00587046  -0.0136484 -0.0187794 0.00368488  -0.0107507 -0.0143659 0.00474  -0.0170144 -0.0181933 0.00473976  -0.0169128 -0.0202323 0.00435138  -0.0135351 -0.0158845 0.00561929  -0.0107699 -0.0149209 0.00349665  -0.0135528 -0.0164645 0.00412428  -0.0280982 -0.0301207 0.00503218  -0.0244981 -0.0251041 0.00682724  -0.0234656 -0.0280738 0.00591743  -0.0192876 -0.0275206 0.00374866  -0.0165097 -0.022325 0.00504804  -0.0244631 -0.0258107 0.00504529  -0.0234649 -0.028736 0.00440824  -0.0202402 -0.0236439 0.00595844  -0.01649 -0.022963 0.00376236  -0.0202234 -0.0242988 0.00443327  -0.0350266 -0.0398324 0.004776  -0.0316437 -0.0340762 0.00662947  -0.0296104 -0.0380534 0.00557482  -0.0246451 -0.0377155 0.00354075  -0.0219845 -0.031785 0.00489819  -0.0316276 -0.0347891 0.00493705  -0.0296315 -0.0387068 0.00416911  -0.0265944 -0.0328631 0.0057776  -0.0220043 -0.0324387 0.00366831  -0.0266006 -0.033541 0.00431502  -0.0414426 -0.050949 0.00434875  -0.0382852 -0.0445537 0.00612783  -0.0352978 -0.0494458 0.00506675  -0.0296533 -0.0492655 0.00321698  -0.0271336 -0.0426982 0.00452077  -0.0383003 -0.045225 0.00457144  -0.0353604 -0.0500516 0.00379121  -0.0325089 -0.0435707 0.00533414  -0.0271932 -0.0433251 0.00338888  -0.0325503 -0.0442134 0.00399292  -0.0473446 -0.0633536 0.00386775  -0.0444113 -0.0563874 0.00550556  -0.0405632 -0.0621184 0.00450039  -0.0343046 -0.0620678 0.00284946  -0.0319239 -0.0549385 0.00405371  -0.0444587 -0.0569987 0.00411415  -0.0406503 -0.0626656 0.00336432  -0.037981 -0.0556157 0.00478661  -0.0320217 -0.0555166 0.00303602  -0.038058 -0.0562072 0.00358033  -0.0527547 -0.0769111 0.00338352  -0.050043 -0.0694594 0.00485599  -0.0454193 -0.075932 0.00393867  -0.0386206 -0.0759865 0.00248611  -0.036384 -0.0683768 0.00356865  -0.0501104 -0.0700003 0.00362217  -0.0455262 -0.076413 0.00293863  -0.0430398 -0.0688816 0.00421798  -0.0365028 -0.0688948 0.00266707  -0.0431376 -0.0694066 0.00315142  -0.0577052 -0.0914853 0.00292242  -0.0552044 -0.0836061 0.00422764  -0.049903 -0.0907423 0.00340617  -0.0426213 -0.090893 0.00214064  -0.0405278 -0.0828649 0.00310063  -0.0552871 -0.0840797 0.00315166  -0.0500139 -0.0911617 0.0025351  -0.0477047 -0.0832059 0.00366843  -0.0406582 -0.0833227 0.00231111  -0.0478159 -0.0836691 0.00273347  -0.0622276 -0.106947 0.00249732  -0.0599337 -0.0987083 0.00364029  -0.0540299 -0.106423 0.00291443  -0.0463321 -0.106657 0.00182331  -0.044381 -0.098277 0.0026648  -0.0600188 -0.0991161 0.00270474  -0.0541424 -0.106782 0.00216222  -0.0520085 -0.0984714 0.00315607  -0.0445113 -0.0986745 0.00197923  -0.0521208 -0.0988707 0.00234604  -0.066353 -0.123173 0.00210643  -0.0642527 -0.114623 0.0031004  -0.0578308 -0.122847 0.00246465  -0.0497702 -0.123159 0.00153315  -0.0479567 -0.114479 0.00226426  -0.0643398 -0.114972 0.00229955  -0.0579356 -0.123152 0.00182188  -0.0559683 -0.114535 0.00268483  -0.0480837 -0.114821 0.00167525  -0.0560786 -0.114879 0.00198805  -0.0701091 -0.140049 0.00175345  -0.0681963 -0.131245 0.00260806  -0.0613189 -0.139903 0.00205588  -0.052955 -0.140282 0.00127017  -0.0512756 -0.131358 0.00189984  -0.0682763 -0.131539 0.00192511  -0.0614172 -0.140157 0.00151265  -0.0596113 -0.131292 0.00225604  -0.051393 -0.131648 0.0013988  -0.0597135 -0.131582 0.00166428  -0.0735226 -0.157468 0.00143194  -0.0717837 -0.148451 0.00216138  -0.0645207 -0.157481 0.00168645  -0.0559007 -0.157923 0.00103283  -0.0543486 -0.148799 0.00156939  -0.0718584 -0.148697 0.00159049  -0.0646074 -0.157691 0.00123358  -0.0629528 -0.148619 0.0018667  -0.0544564 -0.149043 0.00114858  -0.0630467 -0.148863 0.00136924  -0.0766176 -0.175329 0.00114477  -0.0750436 -0.166149 0.00175834  -0.0674491 -0.175486 0.00135326  -0.0586239 -0.17598 0.000819087  -0.0571935 -0.166703 0.00127172  -0.0751089 -0.166351 0.00128436  -0.0675272 -0.175654 0.000981808  -0.0660162 -0.166425 0.00151575  -0.0572889 -0.166904 0.000923157  -0.0660995 -0.166625 0.00110483  -0.0794187 -0.193543 0.000885844  -0.0779966 -0.184235 0.0013963  -0.0701287 -0.193824 0.00105596  -0.0611378 -0.194365 0.00062871  -0.0598209 -0.184972 0.00100434  -0.0780545 -0.184397 0.0010134  -0.0701948 -0.193957 0.000757456  -0.0688173 -0.184605 0.00120044  -0.0599059 -0.185135 0.000720978  -0.0688906 -0.184767 0.000866055  -0.0819494 -0.212024 0.000659466  -0.0806676 -0.202629 0.00107396  -0.0725729 -0.212413 0.000792265  -0.0634582 -0.212991 0.000459313  -0.0622479 -0.203522 0.000766873  -0.0807166 -0.202756 0.0007689  -0.0726303 -0.212513 0.000558496  -0.0713773 -0.203081 0.000920415  -0.0623208 -0.203651 0.00054121  -0.07144 -0.203207 0.000655293  -0.0842347 -0.230697 0.000458956  -0.0830804 -0.221243 0.000790715  -0.0748062 -0.231177 0.000562906  -0.0655994 -0.231786 0.000312805  -0.0644867 -0.222271 0.000557661  -0.0831221 -0.221341 0.000556946  -0.0748534 -0.231249 0.000385523  -0.0737132 -0.221764 0.000673532  -0.0645499 -0.22237 0.000383139  -0.0737666 -0.221862 0.000468373  -0.0862999 -0.249492 0.000290275  -0.085258 -0.240014 0.000545859  -0.0768459 -0.250048 0.000365973  -0.0675793 -0.250681 0.000185966  -0.0665553 -0.24115 0.000377059  -0.0852933 -0.240084 0.000370979  -0.0768857 -0.250096 0.00023675  -0.0758469 -0.240591 0.000460625  -0.066608 -0.241224 0.000246525  -0.0758917 -0.240662 0.000308156  -0.0881722 -0.268351 0.0001477  -0.08723 -0.258868 0.00033927  -0.0787172 -0.268966 0.000203609  -0.0694146 -0.269618 8.23736e-05  -0.068469 -0.260094 0.00022459  -0.0872591 -0.258917 0.000216603  -0.0787497 -0.268994 0.000114322  -0.0777993 -0.259491 0.000280738  -0.0685136 -0.260146 0.00013113  -0.0778368 -0.259541 0.0001719  -0.0898824 -0.28722 3.6478e-05  -0.08902 -0.277758 0.000171185  -0.0804415 -0.287881 7.24792e-05  -0.071125 -0.288545 -3.09944e-06  -0.0702472 -0.279051 9.97782e-05  -0.0890455 -0.277788 8.88109e-05  -0.0804691 -0.287893 1.50204e-05  -0.0795941 -0.278415 0.000133991  -0.0702837 -0.279084 3.67165e-05  -0.0796256 -0.278446 6.1512e-05  -0.0914593 -0.306059 -5.00679e-05  -0.0906625 -0.296629 4.05312e-05  -0.0820467 -0.306751 -2.563e-05  -0.0727296 -0.307423 -6.67572e-05  -0.0719075 -0.297971 1.90735e-06  -0.0906861 -0.296646 -9.05991e-06  -0.0820708 -0.306751 -5.90086e-05  -0.0812557 -0.297311 2.00272e-05  -0.0719388 -0.297991 -3.73125e-05  -0.0812829 -0.297328 -2.51532e-05  -0.0929415 -0.324835 -0.000109911  -0.0921853 -0.31545 -5.43594e-05  -0.08356 -0.325542 -9.84669e-05  -0.0742509 -0.326218 -0.000117183  -0.0734718 -0.316821 -7.21216e-05  -0.0922098 -0.315457 -8.22544e-05  -0.0835822 -0.325535 -0.000115514  -0.0828111 -0.316145 -6.48499e-05  -0.0734992 -0.316831 -9.39369e-05  -0.0828357 -0.316152 -8.96454e-05  -0.0943663 -0.343532 -0.000156522  -0.0936337 -0.334193 -0.000121951  -0.0850101 -0.344241 -0.000153065  -0.0757096 -0.344917 -0.000155687  -0.0749621 -0.335575 -0.000128627  -0.0936592 -0.334195 -0.000134587  -0.0850322 -0.34423 -0.000156641  -0.0842898 -0.334892 -0.000127077  -0.0749867 -0.335579 -0.000137448  -0.0843132 -0.334893 -0.000137448  -0.0957696 -0.362171 -0.000192881  -0.0950375 -0.352852 -0.000174284  -0.0864263 -0.362864 -0.000205278  -0.0771363 -0.363531 -0.000194311  -0.0764022 -0.354227 -0.00017786  -0.095068 -0.352854 -0.000173688  -0.0864503 -0.362858 -0.000197411  -0.0857179 -0.353545 -0.000178456  -0.0764232 -0.35423 -0.000175238  -0.0857427 -0.353547 -0.000177741  -0.00215159 -0.00399023 0.00215316  0 0 0  -0.00155615 -0.00344165 0.00124216  -0.000539914 -0.00134403 0.000945807  0 0 0  -0.00210907 -0.00419435 0.0015583  -0.000714917 -0.00180787 0.00118637  0 0 0  -0.000528511 -0.00144021 0.000681996  -0.000704218 -0.001909 0.000856519  -0.00615416 -0.00968228 0.00350201  -0.00454609 -0.00912544 0.00202763  -0.00297552 -0.00574651 0.0023104  -0.00611961 -0.0101248 0.00257659  -0.00400949 -0.00662307 0.0029279  -0.00293106 -0.00604957 0.00168908  -0.00396505 -0.00696303 0.00214279  -0.0108048 -0.016988 0.00407195  -0.00819591 -0.0166074 0.00238848  -0.00637883 -0.0121637 0.0030458  -0.0107697 -0.0175638 0.00302756  -0.00845042 -0.0131225 0.00386322  -0.00633147 -0.0126637 0.00225711  -0.00840962 -0.0136532 0.00286174  -0.0154739 -0.0258753 0.00411987  -0.0119506 -0.0256751 0.0024364  -0.010094 -0.0203584 0.00326943  -0.0154738 -0.0264948 0.00308597  -0.0131573 -0.0212285 0.0041405  -0.0100745 -0.0209511 0.00244403  -0.0131355 -0.0218431 0.00309181  -0.0199496 -0.0362562 0.00388753  -0.0156208 -0.0362079 0.00230527  -0.0137812 -0.0301437 0.00318348  -0.0199921 -0.036875 0.00291562  -0.0177414 -0.0308709 0.00402617  -0.0138053 -0.0307632 0.00238705  -0.0177608 -0.0315079 0.00301874  -0.0241717 -0.0480239 0.00352943  -0.0191149 -0.0480935 0.00208902  -0.0173243 -0.0413847 0.00293875  -0.0242535 -0.048607 0.0026474  -0.0220924 -0.0419629 0.00371742  -0.0173899 -0.041988 0.00220382  -0.0221568 -0.0425777 0.00278854  -0.0281352 -0.0610424 0.00312889  -0.0224276 -0.0612045 0.00184488  -0.0206965 -0.0539382 0.00262976  -0.0282442 -0.0615752 0.00234127  -0.0261842 -0.0543725 0.00333059  -0.020794 -0.0545017 0.00196874  -0.0262817 -0.0549432 0.00249517  -0.0318549 -0.0751721 0.0027324  -0.0255631 -0.0754105 0.00160134  -0.0239006 -0.0676644 0.00230789  -0.0319787 -0.0756473 0.00203955  -0.0300229 -0.0679647 0.00292873  -0.0240161 -0.0681769 0.00172234  -0.0301424 -0.0684799 0.00218904  -0.0353459 -0.0902778 0.00235677  -0.0285364 -0.0905815 0.00137186  -0.0269455 -0.0824245 0.00199759  -0.0354739 -0.090695 0.00175166  -0.0336269 -0.0825982 0.00254107  -0.0270694 -0.0828812 0.00148487  -0.0337549 -0.0830555 0.00189257  -0.0386219 -0.106228 0.00201118  -0.0313565 -0.10659 0.00116026  -0.0298413 -0.0980859 0.00170887  -0.0387474 -0.106589 0.00148904  -0.0370079 -0.0981429 0.0021801  -0.0299643 -0.098487 0.0012641  -0.0371374 -0.0985422 0.00161767  -0.0416948 -0.122901 0.00169468  -0.0340338 -0.123315 0.000967979  -0.0325941 -0.114521 0.00144434  -0.0418128 -0.123209 0.00124741  -0.0401818 -0.114469 0.00184906  -0.0327127 -0.114868 0.00106204  -0.040305 -0.114814 0.00136507  -0.0445744 -0.140181 0.0014087  -0.0365729 -0.140643 0.000794053  -0.0352103 -0.131612 0.00120425  -0.0446825 -0.14044 0.0010308  -0.0431559 -0.13146 0.00154805  -0.0353197 -0.131909 0.000879049  -0.0432713 -0.131754 0.00113654  -0.0472698 -0.157963 0.00114954  -0.0389813 -0.158466 0.00063777  -0.0376935 -0.149247 0.000987291  -0.047367 -0.158178 0.000833392  -0.045943 -0.149003 0.00127566  -0.0377932 -0.149497 0.000713944  -0.046047 -0.14925 0.000929356  -0.0497903 -0.176146 0.000916839  -0.0412614 -0.176686 0.000496745  -0.040048 -0.167323 0.000791907  -0.0498762 -0.17632 0.000657558  -0.0485491 -0.166998 0.00102997  -0.0401363 -0.167531 0.00056541  -0.0486429 -0.167203 0.00074327  -0.0521454 -0.194641 0.000708938  -0.0434211 -0.195212 0.000371575  -0.0422781 -0.185745 0.000617027  -0.05222 -0.19478 0.000499368  -0.0509865 -0.185347 0.000809789  -0.0423564 -0.185914 0.000432491  -0.0510677 -0.185514 0.000576138  -0.0543444 -0.213365 0.000525475  -0.0454631 -0.213961 0.00026083  -0.0443887 -0.204427 0.000461578  -0.0544083 -0.213471 0.000360727  -0.0532615 -0.203967 0.000614285  -0.0444558 -0.204562 0.000314474  -0.0533327 -0.204099 0.000428081  -0.0563984 -0.232242 0.0003649  -0.0473957 -0.232859 0.000164628  -0.046385 -0.223289 0.000325561  -0.0564523 -0.23232 0.000238419  -0.0553873 -0.222775 0.000442266  -0.0464427 -0.223394 0.000211  -0.0554473 -0.222878 0.000297427  -0.0583189 -0.251206 0.000227809  -0.0492246 -0.25184 8.17776e-05  -0.0482738 -0.242262 0.000207782  -0.0583632 -0.25126 0.000135064  -0.0573723 -0.241704 0.000293732  -0.048322 -0.242341 0.000121355  -0.0574236 -0.241781 0.000184894  -0.0601184 -0.270198 0.000113726  -0.0509591 -0.270845 1.32322e-05  -0.0500631 -0.261284 0.000108242  -0.0601544 -0.270233 4.78029e-05  -0.059231 -0.260689 0.000168085  -0.0501029 -0.261341 4.56572e-05  -0.0592725 -0.260744 8.95262e-05  -0.0618103 -0.28917 2.16961e-05  -0.0526073 -0.289826 -4.27961e-05  -0.0517607 -0.280301 2.68221e-05  -0.0618398 -0.289187 -2.15769e-05  -0.0609746 -0.279677 6.52075e-05  -0.0517929 -0.280339 -1.64509e-05  -0.0610092 -0.279713 1.16825e-05  -0.0634098 -0.308079 -4.99487e-05  -0.0541801 -0.308742 -8.66652e-05  -0.0533757 -0.299269 -3.83854e-05  -0.0634339 -0.308085 -7.66516e-05  -0.0626194 -0.298621 -1.60933e-05  -0.0534027 -0.299292 -6.60419e-05  -0.0626469 -0.298644 -5.05447e-05  -0.0649314 -0.326897 -0.000105262  -0.0556872 -0.327564 -0.000121713  -0.0549181 -0.318152 -8.92878e-05  -0.0649526 -0.326894 -0.000118494  -0.0641773 -0.317488 -7.92742e-05  -0.0549409 -0.318164 -0.000105143  -0.0642014 -0.3175 -9.85861e-05  -0.0663934 -0.345602 -0.000151515  -0.057142 -0.346271 -0.000151038  -0.0564005 -0.336924 -0.000130415  -0.066412 -0.345596 -0.000154614  -0.0656674 -0.336251 -0.000128984  -0.0564206 -0.33693 -0.000136614  -0.0656881 -0.336257 -0.000136733  -0.067822 -0.364199 -0.000195265  -0.058567 -0.364851 -0.000179172  -0.0578363 -0.35557 -0.000168681  -0.0678399 -0.364194 -0.000187755  -0.0671058 -0.354901 -0.000173926  -0.0578544 -0.355576 -0.00016582  -0.0671263 -0.354906 -0.000171185  -0.00109844 -0.00276327 0.00126696  0 0 0  -0.000664771 -0.00262642 0.00061059  -0.00023241 -0.000874698 0.00047183  0 0 0  -0.00108411 -0.00293827 0.000920653  -0.000370711 -0.00104409 0.000710368  0 0 0  -0.000225361 -0.000953764 0.000338197  -0.000363193 -0.00113454 0.000509858  -0.00325105 -0.00804982 0.00203919  -0.00200202 -0.0079833 0.000991583  -0.00128643 -0.00474477 0.00113261  -0.00322549 -0.00842726 0.0015049  -0.00208327 -0.00513056 0.00171089  -0.00126715 -0.00502852 0.00083065  -0.00205892 -0.00541836 0.00125396  -0.00589576 -0.0153851 0.00238025  -0.0037185 -0.0154651 0.00116491  -0.00284269 -0.0110326 0.00148475  -0.00587958 -0.0159105 0.00177145  -0.00453788 -0.0114758 0.00225425  -0.00282574 -0.0114947 0.00109935  -0.00451353 -0.0119456 0.00167239  -0.00867561 -0.0244879 0.00241303  -0.00559479 -0.0246944 0.00118577  -0.00463849 -0.0193233 0.00159335  -0.00869045 -0.0250722 0.00180697  -0.00728276 -0.0197218 0.00242376  -0.00464427 -0.0198814 0.00118983  -0.00727862 -0.0202967 0.00180995  -0.0114346 -0.0351367 0.00227726  -0.00751823 -0.0354443 0.00111556  -0.00651658 -0.0292974 0.00154757  -0.0114836 -0.035729 0.00170743  -0.0100618 -0.0296174 0.00235951  -0.00655365 -0.0298884 0.00115764  -0.0100939 -0.0302208 0.00176859  -0.0141184 -0.0471712 0.00206053  -0.00944293 -0.0475513 0.0010016  -0.00841862 -0.0407513 0.00142038  -0.0141968 -0.0477377 0.00154221  -0.0127866 -0.0409774 0.00217485  -0.00848126 -0.0413349 0.00106192  -0.0128514 -0.0415714 0.00162899  -0.0167164 -0.060445 0.0018177  -0.0113575 -0.0608805 0.00087297  -0.0103195 -0.0535166 0.00125909  -0.0168142 -0.06097 0.00135708  -0.015427 -0.0536491 0.00194025  -0.0104013 -0.0540692 0.000937939  -0.0155173 -0.0542079 0.0014503  -0.0192307 -0.0748142 0.0015769  -0.0132599 -0.0752901 0.000745296  -0.0122176 -0.0674471 0.00109172  -0.0193383 -0.0752875 0.00117123  -0.0179826 -0.067488 0.00169635  -0.01231 -0.0679553 0.000808954  -0.0180871 -0.0679995 0.00126314  -0.0216658 -0.0901462 0.00134957  -0.0151515 -0.0906565 0.000625491  -0.0141108 -0.0824025 0.000930786  -0.0217752 -0.0905658 0.000997663  -0.0204566 -0.0823553 0.00146139  -0.0142068 -0.0828595 0.000684619  -0.0205672 -0.0828133 0.00108266  -0.0240239 -0.106307 0.00114107  -0.0170305 -0.106844 0.000515938  -0.0159981 -0.0982487 0.000781894  -0.0241301 -0.106672 0.00083673  -0.0228528 -0.0981174 0.00124311  -0.0160923 -0.0986525 0.000569701  -0.0229625 -0.0985212 0.000915051  -0.0263064 -0.123175 0.000950933  -0.0188949 -0.12374 0.000416875  -0.0178751 -0.114857 0.00064671  -0.0264057 -0.123489 0.00069201  -0.0251729 -0.114647 0.0010438  -0.0179646 -0.115209 0.000465393  -0.0252776 -0.114997 0.000762463  -0.0285119 -0.140634 0.000779748  -0.020739 -0.14122 0.000328183  -0.0197371 -0.132108 0.00052464  -0.0286025 -0.140899 0.000560403  -0.0274172 -0.131824 0.000863194  -0.0198193 -0.13241 0.000371814  -0.0275135 -0.132125 0.000624299  -0.0306405 -0.158578 0.000625491  -0.0225588 -0.159184 0.000249028  -0.0215778 -0.14989 0.000415325  -0.0307212 -0.158799 0.000443578  -0.0295841 -0.149539 0.000700712  -0.0216517 -0.150145 0.000287652  -0.0296715 -0.149793 0.000500202  -0.0326906 -0.176905 0.000487328  -0.0243484 -0.177526 0.000178218  -0.0233921 -0.168098 0.000317693  -0.0327616 -0.177084 0.000337481  -0.0316736 -0.167686 0.000554323  -0.0234572 -0.168311 0.000212789  -0.0317509 -0.167898 0.000388622  -0.0346628 -0.195526 0.000364184  -0.0261047 -0.196163 0.000115871  -0.025174 -0.186637 0.000230789  -0.0347239 -0.195671 0.000244379  -0.033685 -0.186171 0.000424147  -0.0252308 -0.186811 0.00014627  -0.0337522 -0.186344 0.000289321  -0.0365568 -0.214359 0.000255942  -0.0278223 -0.215004 6.06775e-05  -0.0269196 -0.20542 0.000154257  -0.0366083 -0.214469 0.000161052  -0.0356177 -0.204908 0.000308394  -0.026968 -0.20556 8.74996e-05  -0.0356753 -0.205047 0.000201106  -0.0383747 -0.233328 0.000161767  -0.0294993 -0.233983 1.3113e-05  -0.028625 -0.22437 8.7738e-05  -0.0384176 -0.233412 8.98838e-05  -0.0374732 -0.223818 0.000207305  -0.0286658 -0.224479 3.63588e-05  -0.0375221 -0.223926 0.000123978  -0.0401185 -0.252369 8.13007e-05  -0.0311332 -0.253028 -2.75373e-05  -0.0302877 -0.243416 3.02792e-05  -0.0401533 -0.252426 2.75373e-05  -0.0392537 -0.24283 0.000119805  -0.0303211 -0.243498 -7.86781e-06  -0.0392942 -0.242912 5.71012e-05  -0.0417922 -0.271423 1.44243e-05  -0.0327239 -0.272088 -6.09159e-05  -0.0319064 -0.262498 -1.77622e-05  -0.0418198 -0.271461 -2.28882e-05  -0.0409617 -0.261885 4.62532e-05  -0.0319333 -0.262557 -4.50611e-05  -0.0409946 -0.261944 9.53674e-07  -0.0433996 -0.290444 -3.98159e-05  -0.0342712 -0.291109 -8.82149e-05  -0.0334809 -0.281563 -5.71012e-05  -0.0434217 -0.290464 -6.50883e-05  -0.0426018 -0.280927 -1.41859e-05  -0.0335021 -0.281603 -7.53403e-05  -0.0426283 -0.280968 -4.52995e-05  -0.0449467 -0.309391 -8.27312e-05  -0.0357771 -0.310059 -0.00011003  -0.0350115 -0.300568 -8.82149e-05  -0.0449641 -0.309399 -9.7394e-05  -0.0441785 -0.299915 -6.25849e-05  -0.0350289 -0.300593 -9.95398e-05  -0.0441999 -0.299941 -8.23736e-05  -0.0464389 -0.328232 -0.000116944  -0.0372424 -0.3289 -0.000127196  -0.0364997 -0.319478 -0.00011313  -0.046453 -0.328231 -0.000124574  -0.0456977 -0.318813 -0.000100732  -0.0365143 -0.319492 -0.00011909  -0.0457144 -0.318827 -0.000111938  -0.0478859 -0.346947 -0.000146866  -0.0386744 -0.347615 -0.000143051  -0.0379503 -0.338265 -0.000133634  -0.0478985 -0.346943 -0.000146747  -0.0471654 -0.337594 -0.000132084  -0.0379617 -0.338272 -0.000135183  -0.0471804 -0.337602 -0.000136256  -0.0493014 -0.365508 -0.000175834  -0.0400801 -0.366167 -0.000157833  -0.0393679 -0.356905 -0.000153661  -0.0493152 -0.365506 -0.000169277  -0.0485935 -0.356237 -0.000161648  -0.0393789 -0.356912 -0.000150681  -0.0486081 -0.356244 -0.000158429  -0.000283092 -0.00233808 0.000418186  0 0 0  8.72761e-05 -0.00250021 -7.15256e-06  3.08156e-05 -0.000804365 -6.4373e-06  0 0 0  -0.000279762 -0.00249195 0.000302434  -9.49614e-05 -0.000798553 0.000232935  0 0 0  2.8275e-05 -0.000871271 -3.93391e-06  -9.59113e-05 -0.000868618 0.000167727  -0.000867203 -0.00743064 0.000661492  0.00022611 -0.00778991 -1.27554e-05  0.000169873 -0.00459328 -1.35899e-05  -0.000868261 -0.00778073 0.000486374  -0.000543997 -0.00457796 0.000558019  0.000157744 -0.00484937 -1.01328e-05  -0.000540137 -0.00484166 0.000407815  -0.00166157 -0.0147687 0.000765085  0.000311345 -0.0152968 -2.03848e-05  0.00030601 -0.0108681 -2.02656e-05  -0.00167429 -0.0152628 0.000568986  -0.00124392 -0.0108401 0.000727773  0.000280052 -0.0113055 -1.5974e-05  -0.00124854 -0.0112822 0.000538588  -0.00259304 -0.0239828 0.000769496  0.000279069 -0.0246119 -3.23057e-05  0.000350505 -0.0192142 -3.11136e-05  -0.00262564 -0.0245408 0.00057435  -0.00211319 -0.0191555 0.00077641  0.000311971 -0.0197513 -2.57492e-05  -0.0021356 -0.0197001 0.000578403  -0.00362521 -0.0347834 0.000714064  0.000100613 -0.0354725 -4.79221e-05  0.00025779 -0.029284 -4.70877e-05  -0.00367552 -0.0353572 0.000530958  -0.0030973 -0.0291859 0.000746608  0.000209272 -0.0298614 -3.98159e-05  -0.00313926 -0.0297681 0.000556707  -0.00474262 -0.0469823 0.000630617  -0.000235677 -0.0477052 -6.50883e-05  7.92742e-06 -0.040851 -6.61612e-05  -0.00480682 -0.0475385 0.000467062  -0.00417286 -0.0407066 0.000674248  -4.78029e-05 -0.0414264 -5.62668e-05  -0.00423175 -0.041286 0.000500917  -0.00593919 -0.0604204 0.00053823  -0.000728786 -0.0611584 -8.2016e-05  -0.000402749 -0.0537365 -8.59499e-05  -0.00601184 -0.0609409 0.000393748  -0.00533015 -0.0535426 0.000584483  -0.000462651 -0.0542861 -7.36713e-05  -0.00540006 -0.0540944 0.000431061  -0.00721025 -0.0749502 0.000447392  -0.0013721 -0.0756959 -9.76324e-05  -0.000971079 -0.0677895 -0.000104427  -0.00728637 -0.0754237 0.000323653  -0.00656444 -0.0675444 0.000492096  -0.00103217 -0.0682982 -8.98838e-05  -0.00664073 -0.0680538 0.000358701  -0.00855029 -0.090437 0.000362992  -0.00215566 -0.0911827 -0.000110984  -0.00168705 -0.0828664 -0.000120401  -0.00862551 -0.0908597 0.000256419  -0.00787079 -0.0825693 0.000404119  -0.00174689 -0.0833268 -0.000104427  -0.00794792 -0.0830295 0.000289679  -0.00995064 -0.106745 0.000286579  -0.00306559 -0.10749 -0.000121355  -0.0025388 -0.0988309 -0.000133276  -0.010022 -0.107115 0.000197411  -0.0092417 -0.098483 0.000323534  -0.00259531 -0.09924 -0.00011611  -0.00931704 -0.0988908 0.000226617  -0.011402 -0.123752 0.000218511  -0.004089 -0.124494 -0.000129223  -0.00351155 -0.115553 -0.000143051  -0.0114678 -0.124072 0.00014329  -0.0106692 -0.115155 0.000251412  -0.003564 -0.115911 -0.000125408  -0.010739 -0.115512 0.000169992  -0.0128933 -0.141339 0.000157833  -0.00520933 -0.142079 -0.000134945  -0.00459075 -0.13291 -0.000149965  -0.0129522 -0.14161 9.70364e-05  -0.0121415 -0.132467 0.000187159  -0.00463772 -0.133219 -0.000132203  -0.0122057 -0.132774 0.000119925  -0.0144144 -0.159399 0.000104666  -0.00641298 -0.160134 -0.000138998  -0.00576055 -0.150789 -0.000154257  -0.0144658 -0.159626 5.45979e-05  -0.0136491 -0.150303 0.000130534  -0.00580156 -0.151052 -0.000136971  -0.0137056 -0.150564 7.55787e-05  -0.0159543 -0.17783 5.81741e-05  -0.00768375 -0.178562 -0.000141144  -0.00700557 -0.169085 -0.000156641  -0.0159986 -0.178016 1.91927e-05  -0.0151806 -0.168561 8.05855e-05  -0.0070405 -0.169306 -0.000140071  -0.0152304 -0.168779 3.67165e-05  -0.017504 -0.196543 1.75238e-05  -0.00900972 -0.197269 -0.000142097  -0.00831103 -0.187703 -0.000156999  -0.0175413 -0.196693 -1.34706e-05  -0.0167269 -0.187144 3.70741e-05  -0.00834072 -0.187884 -0.000141501  -0.0167687 -0.187323 2.74181e-06  -0.0190549 -0.215454 -1.75238e-05  -0.0103756 -0.216174 -0.000142217  -0.00966394 -0.206553 -0.000156403  -0.0190853 -0.21557 -4.00543e-05  -0.018278 -0.205966 -7.15256e-07  -0.00968802 -0.2067 -0.000142217  -0.0183135 -0.20611 -2.69413e-05  -0.0205989 -0.23449 -4.75645e-05  -0.0117717 -0.235202 -0.00014174  -0.0110512 -0.22556 -0.000154495  -0.0206234 -0.234578 -6.4373e-05  -0.0198264 -0.224948 -3.32594e-05  -0.0110707 -0.225675 -0.000141978  -0.0198553 -0.225061 -5.23329e-05  -0.0221305 -0.253585 -7.25985e-05  -0.0131853 -0.254291 -0.000140905  -0.0124617 -0.244653 -0.000152588  -0.0221491 -0.253648 -8.33273e-05  -0.0213645 -0.244021 -6.05583e-05  -0.0124762 -0.244741 -0.000141382  -0.0213883 -0.244107 -7.41482e-05  -0.0236442 -0.272684 -9.27448e-05  -0.0146091 -0.273382 -0.000139356  -0.0138853 -0.263773 -0.000149608  -0.023658 -0.272726 -0.000100255  -0.0228879 -0.263124 -8.33273e-05  -0.0138962 -0.263837 -0.00014019  -0.0229056 -0.263188 -9.19104e-05  -0.0251355 -0.291739 -0.000108838  -0.0160341 -0.29243 -0.000137806  -0.0153139 -0.282867 -0.000146389  -0.0251458 -0.291763 -0.000112414  -0.0243907 -0.282207 -0.000101209  -0.0153213 -0.282912 -0.000138402  -0.0244045 -0.282251 -0.000106215  -0.026603 -0.310712 -0.000121236  -0.0174549 -0.311396 -0.000136256  -0.0167398 -0.301895 -0.00014317  -0.0266104 -0.310723 -0.000123382  -0.0258706 -0.301225 -0.000115275  -0.0167453 -0.301924 -0.000136971  -0.0258808 -0.301253 -0.00011766  -0.0280449 -0.329571 -0.000131011  -0.0188656 -0.330251 -0.000134826  -0.0181577 -0.32082 -0.000139952  -0.0280499 -0.329572 -0.000130653  -0.0273254 -0.320145 -0.000126243  -0.0181615 -0.320837 -0.000135422  -0.0273333 -0.320161 -0.000126958  -0.0294611 -0.348292 -0.000139594  -0.0202639 -0.348969 -0.000133634  -0.0195644 -0.339616 -0.000136971  -0.0294647 -0.34829 -0.00013876  -0.0287542 -0.338937 -0.000135303  -0.0195663 -0.339626 -0.00013423  -0.02876 -0.338947 -0.000134468  -0.030854 -0.366831 -0.000148773  -0.0216422 -0.367512 -0.000133157  -0.0209532 -0.358254 -0.000134468  -0.0308561 -0.366834 -0.000145435  -0.0301576 -0.357575 -0.000144243  -0.0209558 -0.358265 -0.000133038  -0.0301628 -0.357586 -0.000142097  0.000469998 -0.00249213 -0.000437498  0 0 0  0.000837281 -0.00292307 -0.000622034  0.000293516 -0.00105369 -0.000481486  0 0 0  0.000455424 -0.00264084 -0.000315905  0.000156172 -0.000885725 -0.000244856  0 0 0  0.000280075 -0.00112468 -0.000346661  0.00015372 -0.000954449 -0.000176191  0.00135425 -0.00767571 -0.000691772  0.00244588 -0.00845206 -0.00100636  0.00162151 -0.00515145 -0.00115013  0.00132164 -0.00801688 -0.000509262  0.000882998 -0.00478327 -0.000582933  0.00157663 -0.00542134 -0.000843287  0.000856668 -0.00503945 -0.000425935  0.00234041 -0.0150806 -0.000811934  0.00431705 -0.0160651 -0.00119293  0.00343859 -0.0115864 -0.00151062  0.00229239 -0.0155648 -0.000606537  0.00185096 -0.0111194 -0.000765085  0.00336927 -0.0120295 -0.00111878  0.0018068 -0.0115521 -0.000567794  0.00322527 -0.0243577 -0.000842452  0.00611228 -0.0254241 -0.00123715  0.00530702 -0.0200059 -0.00163841  0.0031743 -0.0249071 -0.000635505  0.00280422 -0.0194985 -0.000834823  0.00523531 -0.0205445 -0.00122786  0.00275239 -0.0200337 -0.000626445  0.00391352 -0.0352257 -0.00082314  0.00766528 -0.0363155 -0.00119984  0.00698411 -0.0301119 -0.00162554  0.00386274 -0.0357928 -0.000623703  0.00359827 -0.0295937 -0.000837207  0.00692415 -0.0306869 -0.0012244  0.00354558 -0.0301682 -0.000633359  0.00436699 -0.0474992 -0.000779629  0.00890869 -0.0485789 -0.00112259  0.00837582 -0.0417097 -0.00153887  0.00431901 -0.0480512 -0.000594735  0.00417125 -0.041185 -0.000803471  0.00832707 -0.0422823 -0.00116384  0.00412107 -0.0417593 -0.000610948  0.0045808 -0.0610179 -0.000726819  0.00983149 -0.0620762 -0.0010308  0.00944811 -0.0546328 -0.00142086  0.00453609 -0.0615368 -0.000556111  0.0045048 -0.0540993 -0.000753999  0.00940984 -0.0551798 -0.00107741  0.00445706 -0.0546482 -0.000576377  0.00456452 -0.075633 -0.000671744  0.0104457 -0.0766617 -0.000936389  0.0102066 -0.0687316 -0.0012939  0.00452328 -0.076107 -0.000517488  0.00460166 -0.068184 -0.000699282  0.0101763 -0.0692385 -0.000983596  0.00455779 -0.0686932 -0.000537157  0.00433326 -0.091206 -0.000616908  0.0107718 -0.0922049 -0.000844836  0.0106678 -0.0838603 -0.00116789  0.00429606 -0.0916306 -0.000477076  0.00447619 -0.0832954 -0.000644207  0.0106436 -0.0843198 -0.000890255  0.00443542 -0.0837567 -0.00049758  0.00390565 -0.107599 -0.000563622  0.0108339 -0.108567 -0.000757456  0.0108538 -0.0998795 -0.00104678  0.00387287 -0.107972 -0.000439644  0.00414419 -0.0992948 -0.000589967  0.0108347 -0.100289 -0.00080049  0.00410795 -0.0997056 -0.000458717  0.00330186 -0.124688 -0.000512242  0.0106564 -0.125627 -0.00067544  0.0107892 -0.116656 -0.000932217  0.00327349 -0.125012 -0.000401616  0.00362623 -0.116051 -0.000537515  0.0107738 -0.117015 -0.000715852  0.00359404 -0.116411 -0.00042057  0.0025419 -0.142351 -0.00046289  0.0102652 -0.14326 -0.000598669  0.0104979 -0.134066 -0.000825167  0.00251818 -0.142627 -0.000366926  0.00294161 -0.133441 -0.000487208  0.0104865 -0.134376 -0.000636458  0.00291443 -0.133753 -0.000384331  0.00164545 -0.16048 -0.000416398  0.00968397 -0.161363 -0.000527143  0.010005 -0.151993 -0.000724554  0.00162661 -0.160712 -0.000332355  0.00211143 -0.151351 -0.000439286  0.00999725 -0.152257 -0.000562191  0.00208819 -0.151616 -0.00034976  0.000633121 -0.178973 -0.000372291  0.00893784 -0.179829 -0.000460982  0.00933516 -0.170332 -0.000631571  0.000618339 -0.179164 -0.000301123  0.00115442 -0.169674 -0.000393867  0.00933075 -0.170554 -0.000493407  0.00113618 -0.169897 -0.000316858  -0.000477791 -0.19774 -0.000331283  0.00804853 -0.19857 -0.000400543  0.00851178 -0.188986 -0.000545979  -0.0004884 -0.197894 -0.000270724  9.05991e-05 -0.188315 -0.000351429  0.00850987 -0.189168 -0.000429988  7.64132e-05 -0.188498 -0.000285983  -0.00166857 -0.216695 -0.000294089  0.00703955 -0.217501 -0.000345707  0.00755739 -0.207867 -0.000467896  -0.00167561 -0.216815 -0.000244498  -0.00106263 -0.207185 -0.000312209  0.00755811 -0.208014 -0.000372291  -0.00107265 -0.207334 -0.000257611  -0.00292397 -0.235768 -0.000259995  0.00592995 -0.236551 -0.000297308  0.00649357 -0.226897 -0.000397801  -0.0029273 -0.23586 -0.000218987  -0.00228739 -0.226208 -0.000276446  0.00649619 -0.227013 -0.000320792  -0.0022943 -0.226325 -0.000231743  -0.00422788 -0.254892 -0.000229836  0.00474024 -0.255653 -0.000254631  0.0053401 -0.246009 -0.00033617  -0.00422835 -0.254958 -0.000198126  -0.00356865 -0.245314 -0.000244498  0.00534463 -0.246097 -0.000275254  -0.00357246 -0.245404 -0.000208855  -0.00556731 -0.274013 -0.000203371  0.00348783 -0.274755 -0.000218153  0.00411558 -0.26514 -0.000282168  -0.00556588 -0.274058 -0.000178456  -0.00489163 -0.264443 -0.000216246  0.0041213 -0.265205 -0.000235677  -0.00489306 -0.264509 -0.000188231  -0.00693035 -0.293084 -0.000181198  0.00218821 -0.293807 -0.000187874  0.00283742 -0.284242 -0.000236511  -0.00692749 -0.29311 -0.000163436  -0.00624466 -0.283544 -0.000191808  0.00284362 -0.284287 -0.000202298  -0.00624394 -0.283591 -0.000170946  -0.00830817 -0.312068 -0.000162244  0.000855207 -0.312776 -0.000162959  0.00151873 -0.303273 -0.000198603  -0.00830364 -0.31208 -0.000149488  -0.00761604 -0.302576 -0.000170946  0.0015254 -0.303301 -0.000174761  -0.00761414 -0.302606 -0.000156164  -0.00969124 -0.330932 -0.000146031  -0.000498772 -0.331628 -0.000142574  0.000173569 -0.322198 -0.000167251  -0.00968599 -0.330935 -0.000138998  -0.00899792 -0.321503 -0.000153661  0.000180483 -0.322215 -0.00015223  -0.0089941 -0.321522 -0.000144124  -0.0110724 -0.349655 -0.000131726  -0.001863 -0.350347 -0.000124335  -0.0011878 -0.340993 -0.000140548  -0.0110669 -0.349654 -0.000128508  -0.0103805 -0.3403 -0.00013864  -0.00117993 -0.341003 -0.000133157  -0.0103769 -0.340311 -0.000133753  -0.0124352 -0.368196 -0.000118375  -0.00321674 -0.3689 -0.000107408  -0.00254941 -0.359635 -0.000115514  -0.0124333 -0.3682 -0.000120044  -0.0117555 -0.358939 -0.000124693  -0.0025425 -0.359644 -0.000115633  -0.0117531 -0.358951 -0.000124216  0.00127302 -0.00322318 -0.00127089  0 0 0  0.00169829 -0.00402039 -0.00122786  0.000585727 -0.00167114 -0.000945568  0 0 0  0.00125025 -0.00337911 -0.000921965  0.000425301 -0.00130773 -0.000715971  0 0 0  0.000564694 -0.00177181 -0.000668168  0.000416324 -0.00139046 -0.00051105  0.00371137 -0.00876623 -0.0020417  0.00492999 -0.0100282 -0.00200784  0.00326909 -0.00653499 -0.00229001  0.00365284 -0.00912136 -0.00150621  0.00240478 -0.00573248 -0.00171304  0.0031983 -0.00681049 -0.00167561  0.00235966 -0.00600117 -0.00125456  0.00651798 -0.0163028 -0.00239182  0.00869146 -0.0177725 -0.00237501  0.00689682 -0.0132322 -0.0030185  0.0064415 -0.0167999 -0.00178218  0.00510344 -0.0122935 -0.00225973  0.00679523 -0.0136959 -0.00223863  0.00503206 -0.0127379 -0.00167787  0.00922179 -0.0256031 -0.00245011  0.0123259 -0.0271142 -0.00244415  0.0106418 -0.0216953 -0.00325549  0.00915235 -0.0261613 -0.00184047  0.00790277 -0.0207365 -0.00244582  0.0105439 -0.0222505 -0.00243747  0.00782341 -0.0212834 -0.00182998  0.0116123 -0.0364641 -0.0023545  0.0155911 -0.0379499 -0.00235105  0.0140898 -0.0317633 -0.00320637  0.0115592 -0.0370359 -0.00177526  0.0104636 -0.0308359 -0.00241566  0.0140156 -0.0323505 -0.00241172  0.0104002 -0.0314159 -0.00181842  0.013616 -0.0487309 -0.00218487  0.018381 -0.0501654 -0.00217986  0.0170928 -0.0433115 -0.00301206  0.0135808 -0.0492844 -0.00165069  0.0126655 -0.0424182 -0.00227535  0.0170461 -0.0438918 -0.00227094  0.0126199 -0.0429952 -0.00171697  0.0152221 -0.0622544 -0.00198865  0.0206902 -0.0636284 -0.00198126  0.0196194 -0.0561975 -0.00275767  0.0152012 -0.0627737 -0.00150561  0.0144692 -0.0553318 -0.00208867  0.0195955 -0.0567481 -0.00208187  0.0144408 -0.0558815 -0.00157928  0.0164466 -0.0768849 -0.00179017  0.0225369 -0.0781974 -0.0017786  0.0216774 -0.0702734 -0.00248694  0.016436 -0.0773585 -0.00135648  0.0158819 -0.0694271 -0.00188935  0.0216694 -0.0707818 -0.00187922  0.0158653 -0.069936 -0.00143051  0.0173136 -0.0924798 -0.00159717  0.0239507 -0.0937311 -0.0015831  0.0232933 -0.0853906 -0.00222039  0.01731 -0.0929048 -0.00121331  0.0169246 -0.0845574 -0.00169289  0.0232961 -0.0858506 -0.00167954  0.0169166 -0.0850189 -0.00128388  0.0178514 -0.108899 -0.00141525  0.024967 -0.110092 -0.00139809  0.0244974 -0.101405 -0.00196576  0.0178528 -0.109273 -0.0010767  0.0176235 -0.100582 -0.00150514  0.0245066 -0.101815 -0.0014888  0.017621 -0.100993 -0.00114369  0.0180882 -0.126014 -0.00124431  0.0256186 -0.127151 -0.00122547  0.0253232 -0.118181 -0.00172675  0.0180931 -0.126339 -0.000950098  0.0180069 -0.117365 -0.00132835  0.0253364 -0.11854 -0.00131011  0.0180093 -0.117725 -0.00101185  0.0180539 -0.143702 -0.00108588  0.0259411 -0.144786 -0.00106525  0.0258034 -0.135591 -0.00150418  0.018062 -0.143979 -0.000831246  0.018105 -0.134781 -0.00116372  0.0258191 -0.135902 -0.00114369  0.0181097 -0.135093 -0.000889301  0.0177773 -0.161853 -0.000938535  0.025967 -0.162885 -0.000917554  0.0259715 -0.153517 -0.00129783  0.0177879 -0.162087 -0.000722289  0.0179459 -0.152714 -0.00101078  0.0259894 -0.153782 -0.000989556  0.0179539 -0.15298 -0.000775218  0.0172871 -0.180364 -0.000803471  0.0257307 -0.181348 -0.000782013  0.0258608 -0.171853 -0.00110817  0.0172993 -0.180556 -0.000620961  0.0175592 -0.171057 -0.000869513  0.0258799 -0.172075 -0.000847936  0.0175687 -0.17128 -0.000670195  0.0166103 -0.199143 -0.000680208  0.0252626 -0.200081 -0.000658989  0.0255041 -0.1905 -0.000934839  0.016624 -0.199299 -0.000529885  0.0169718 -0.189712 -0.00074029  0.0255238 -0.190684 -0.000718474  0.0169837 -0.189897 -0.000573993  0.0157738 -0.218108 -0.000569582  0.024595 -0.219003 -0.000548244  0.024932 -0.209373 -0.000778198  0.015789 -0.218229 -0.000446916  0.0162123 -0.208594 -0.000623465  0.0249521 -0.209522 -0.000601649  0.016225 -0.208744 -0.000487208  0.0148025 -0.237185 -0.000470757  0.0237565 -0.23804 -0.000450373  0.0241754 -0.228392 -0.000638247  0.0148182 -0.237278 -0.000374675  0.0153053 -0.227624 -0.00051856  0.0241957 -0.228509 -0.00049746  0.0153193 -0.227742 -0.000409126  0.01372 -0.25631 -0.000385046  0.0227757 -0.257128 -0.000365376  0.023263 -0.24749 -0.000515342  0.0137362 -0.256376 -0.000310063  0.0142756 -0.246732 -0.000426412  0.0232823 -0.247579 -0.000406027  0.0142896 -0.246822 -0.000340939  0.0125484 -0.275428 -0.000311732  0.0216782 -0.276212 -0.000293732  0.0222216 -0.266606 -0.00041008  0.0125644 -0.275473 -0.000257015  0.0131459 -0.26586 -0.000346899  0.0222402 -0.266672 -0.000327945  0.0131605 -0.265927 -0.000282049  0.011308 -0.294493 -0.000250936  0.0204902 -0.295249 -0.000234485  0.0210767 -0.285691 -0.000321746  0.0113235 -0.294519 -0.000211596  0.0119379 -0.284957 -0.000279903  0.0210943 -0.285737 -0.000262499  0.0119517 -0.285003 -0.000232697  0.0100152 -0.313469 -0.000201225  0.019232 -0.314199 -0.000187039  0.0198517 -0.304704 -0.000249386  0.0100305 -0.313482 -0.000175714  0.010669 -0.303981 -0.00022471  0.0198689 -0.304735 -0.000209332  0.0106826 -0.304012 -0.000192285  0.00868678 -0.332326 -0.000160575  0.017925 -0.333038 -0.000148773  0.0185676 -0.323614 -0.00019145  0.00870204 -0.332328 -0.000145555  0.0093565 -0.3229 -0.000180006  0.0185835 -0.323632 -0.000166535  0.00937009 -0.322919 -0.00015974  0.00733805 -0.351046 -0.000124335  0.0165863 -0.35175 -0.000116467  0.0172429 -0.342397 -0.000143886  0.00735283 -0.351046 -0.000120401  0.00801587 -0.341691 -0.000142217  0.0172589 -0.342409 -0.000132203  0.00802946 -0.341703 -0.000132442  0.0059917 -0.369607 -9.09567e-05  0.0152452 -0.37033 -8.70228e-05  0.0158982 -0.361044 -0.000100493  0.00600672 -0.36961 -9.63211e-05  0.00666404 -0.360336 -0.000107288  0.015913 -0.361055 -0.000100732  0.00667691 -0.360347 -0.000108004  0.00223649 -0.00469238 -0.00212133  0 0 0  0.00277381 -0.00605226 -0.00188291  0.000985242 -0.00285947 -0.00144935  0 0 0  0.00220503 -0.00489521 -0.00153255  0.000732966 -0.00215364 -0.00117731  0 0 0  0.000915773 -0.00297916 -0.00105512  0.000725009 -0.00229889 -0.000845313  0.00650072 -0.0108258 -0.00343454  0.00811648 -0.0127457 -0.00305212  0.00540285 -0.00893778 -0.00352097  0.00643095 -0.0112237 -0.00252962  0.00422546 -0.00758231 -0.00287545  0.00526379 -0.00929254 -0.00257003  0.00417046 -0.00788587 -0.00209379  0.0112674 -0.0184712 -0.00399983  0.0139152 -0.0204495 -0.00358689  0.0111395 -0.0158845 -0.00458884  0.0111728 -0.0189936 -0.00297642  0.0088836 -0.0144306 -0.00379014  0.0110306 -0.0164033 -0.00339103  0.00879407 -0.0149121 -0.00280917  0.0158091 -0.0277054 -0.00407255  0.0193661 -0.029648 -0.00366759  0.0168129 -0.0242761 -0.00490963  0.0157236 -0.0282815 -0.00305641  0.0135914 -0.0228804 -0.0040766  0.0166927 -0.0248572 -0.00366962  0.0134932 -0.0234469 -0.00304759  0.0198737 -0.0384722 -0.00389326  0.0242716 -0.0403333 -0.00351501  0.0219818 -0.0342025 -0.00480998  0.0198139 -0.0390539 -0.00292957  0.0179101 -0.0328898 -0.004004  0.0218936 -0.0348074 -0.00361168  0.0178329 -0.0334856 -0.0030098  0.0233871 -0.0506556 -0.0035975  0.0285445 -0.0524241 -0.00324881  0.026544 -0.0456209 -0.00450504  0.0233553 -0.0512154 -0.00271237  0.0217016 -0.0443827 -0.00375402  0.0264871 -0.0462101 -0.00339019  0.0216547 -0.0449674 -0.00282741  0.0263471 -0.0641168 -0.00326061  0.0321853 -0.0657887 -0.00294471  0.0304709 -0.0584021 -0.00411558  0.0263376 -0.0646363 -0.00245941  0.0249364 -0.0572236 -0.00343144  0.0304427 -0.0589558 -0.00309932  0.0249153 -0.0577759 -0.0025878  0.0287782 -0.0787007 -0.00291908  0.0352172 -0.0802813 -0.00263405  0.0337825 -0.072396 -0.00370193  0.0287839 -0.0791734 -0.00220394  0.0276278 -0.0712649 -0.00308943  0.0337746 -0.0729027 -0.00278926  0.0276258 -0.0717732 -0.00233138  0.0307128 -0.09426 -0.00258899  0.0376796 -0.095751 -0.00233424  0.036512 -0.0874462 -0.0032934  0.0307283 -0.0946819 -0.00195551  0.0298071 -0.0863552 -0.00275218  0.0365174 -0.0879023 -0.00248277  0.0298169 -0.0868136 -0.00207829  0.032187 -0.11065 -0.0022769  0.0396112 -0.112057 -0.0020504  0.038695 -0.103403 -0.00290358  0.0322081 -0.111021 -0.0017221  0.0315063 -0.102347 -0.00243068  0.0387088 -0.103807 -0.00219035  0.0315239 -0.102755 -0.00183713  0.0332375 -0.127739 -0.00198519  0.0410566 -0.129064 -0.00178564  0.0403739 -0.120126 -0.00253701  0.0332621 -0.128061 -0.00150311  0.0327647 -0.119103 -0.00212836  0.0403924 -0.12048 -0.00191569  0.0327864 -0.11946 -0.00161052  0.0339025 -0.145402 -0.00171483  0.0420567 -0.14665 -0.00153971  0.0415879 -0.137486 -0.00219619  0.0339292 -0.145676 -0.00130129  0.0336174 -0.136493 -0.00184739  0.0416095 -0.137791 -0.00166047  0.0336419 -0.136802 -0.00140035  0.0342193 -0.163527 -0.00146484  0.0426557 -0.164701 -0.00131345  0.0423813 -0.155363 -0.00188029  0.034247 -0.163758 -0.00111389  0.0341042 -0.154401 -0.00158691  0.0424043 -0.155623 -0.00142419  0.0341297 -0.154664 -0.00120544  0.0342251 -0.182011 -0.00123608  0.0428935 -0.183116 -0.00110579  0.0427929 -0.173651 -0.00159049  0.0342531 -0.182201 -0.000943422  0.0342604 -0.172718 -0.00134814  0.0428171 -0.173868 -0.00120747  0.034287 -0.172939 -0.00102711  0.0339556 -0.200763 -0.00102842  0.042812 -0.201801 -0.000917912  0.0428665 -0.19225 -0.00132573  0.0339841 -0.200916 -0.000787616  0.0341244 -0.191346 -0.00112963  0.0428904 -0.192429 -0.00100946  0.0341513 -0.191529 -0.000863671  0.033447 -0.219699 -0.000842094  0.04245 -0.220675 -0.000749111  0.0426395 -0.211074 -0.00108695  0.0334747 -0.219819 -0.000649095  0.0337306 -0.2102 -0.000932574  0.0426636 -0.211218 -0.000831246  0.0337574 -0.210347 -0.000716567  0.0327322 -0.238746 -0.000677109  0.0418468 -0.239666 -0.000600457  0.0421526 -0.230046 -0.000874162  0.0327597 -0.238837 -0.000525475  0.0331154 -0.2292 -0.00075686  0.0421765 -0.230159 -0.00067246  0.0331411 -0.229316 -0.000585318  0.0318446 -0.257841 -0.000534415  0.0410385 -0.258708 -0.000471711  0.0414429 -0.249097 -0.000688434  0.0318708 -0.257906 -0.000419617  0.0323098 -0.248278 -0.00060308  0.041466 -0.249182 -0.0005337  0.032335 -0.248367 -0.000470877  0.0308149 -0.276929 -0.000413299  0.0400622 -0.27775 -0.000363827  0.0405476 -0.268169 -0.00052917  0.0308394 -0.276973 -0.000329256  0.031348 -0.267376 -0.000471234  0.0405698 -0.268231 -0.000415325  0.0313714 -0.267441 -0.000372648  0.0296717 -0.295966 -0.000314116  0.0389509 -0.296746 -0.000275373  0.0394998 -0.287212 -0.000397205  0.0296953 -0.295991 -0.0002563  0.0302575 -0.286443 -0.000361204  0.0395215 -0.287254 -0.000317335  0.0302801 -0.286489 -0.000291109  0.0284419 -0.314914 -0.000234842  0.0377383 -0.315663 -0.000206709  0.0383351 -0.306188 -0.000291228  0.0284646 -0.314927 -0.000196934  0.029068 -0.30544 -0.000272036  0.0383558 -0.306215 -0.000238895  0.0290892 -0.30547 -0.000225186  0.0271506 -0.333751 -0.000172377  0.0364544 -0.334475 -0.000153184  0.0370831 -0.325065 -0.000209451  0.0271728 -0.333753 -0.000151634  0.0278041 -0.324335 -0.000201821  0.0371034 -0.325081 -0.000178337  0.0278254 -0.324353 -0.00017333  0.0258205 -0.352461 -0.000120282  0.0351248 -0.353173 -0.000111103  0.035773 -0.343827 -0.00014627  0.0258415 -0.35246 -0.000113249  0.0264916 -0.343109 -0.000145674  0.0357945 -0.343836 -0.000131488  0.026511 -0.343121 -0.000132084  0.024478 -0.371052 -7.15256e-05  0.0337763 -0.371778 -7.1764e-05  0.0344303 -0.362474 -9.16719e-05  0.0244973 -0.371054 -7.79629e-05  0.0251493 -0.361757 -9.53674e-05  0.0344515 -0.362484 -9.10759e-05  0.0251682 -0.361768 -9.53674e-05  0.00393096 -0.00736099 -0.00312603  0 0 0  0.00600851 -0.00975591 -0.0026027  0.00255692 -0.00563651 -0.00206113  0 0 0  0.00390904 -0.0076924 -0.0022155  0.0012782 -0.00386065 -0.00172567  0 0 0  0.002488 -0.00576627 -0.00141668  0.00127723 -0.00394601 -0.00125325  0.010291 -0.0140525 -0.00491095  0.0129457 -0.016634 -0.00408053  0.0095443 -0.0125603 -0.00479007  0.0102896 -0.0145901 -0.00361431  0.0070197 -0.0106131 -0.00418174  0.00937721 -0.0130681 -0.0035094  0.00696345 -0.0110656 -0.00306439  0.0170923 -0.0215629 -0.00564694  0.0204978 -0.0239912 -0.00474262  0.016872 -0.0195224 -0.0061363  0.0169961 -0.0221267 -0.00419128  0.0137261 -0.0176118 -0.00538814  0.0167598 -0.0200807 -0.00451672  0.0136594 -0.0181495 -0.00398755  0.0234169 -0.0305982 -0.0057168  0.0276014 -0.0329202 -0.0048455  0.0242379 -0.0276175 -0.00653243  0.0233151 -0.0312004 -0.00427389  0.0203354 -0.0258633 -0.00574076  0.0241174 -0.0282492 -0.00485146  0.0202221 -0.0264696 -0.00427783  0.0290835 -0.0411782 -0.00545681  0.0340445 -0.0433663 -0.00464869  0.0310277 -0.0373177 -0.00639451  0.029003 -0.0417745 -0.0040946  0.026341 -0.0356833 -0.00561786  0.0309199 -0.0379469 -0.00477624  0.0262448 -0.0363007 -0.00420964  0.0340386 -0.0532171 -0.00503659  0.0397207 -0.0552796 -0.00430453  0.0370681 -0.0485446 -0.00599194  0.0339885 -0.0537812 -0.0037843  0.0316506 -0.0470105 -0.00526035  0.036978 -0.049149 -0.00449038  0.0315837 -0.0476071 -0.00395048  0.0382968 -0.0665575 -0.00456119  0.0446315 -0.0684968 -0.00390244  0.0423369 -0.0611762 -0.0054729  0.0382704 -0.067077 -0.00343108  0.0362558 -0.0597211 -0.00480402  0.0422724 -0.061735 -0.00410724  0.0362161 -0.0602774 -0.00361156  0.0418824 -0.0810462 -0.00407553  0.0487906 -0.0828665 -0.0034889  0.0468469 -0.075043 -0.00492001  0.0418746 -0.0815138 -0.0030663  0.0401723 -0.0736555 -0.00431895  0.0468014 -0.0755486 -0.00369644  0.0401545 -0.0741627 -0.00324893  0.0448374 -0.0965175 -0.0036062  0.0522482 -0.0982244 -0.0030874  0.0506352 -0.0899812 -0.004372  0.0448405 -0.0969329 -0.00271571  0.0434387 -0.0886555 -0.00383925  0.0506055 -0.0904325 -0.003286  0.0434345 -0.0891098 -0.00288951  0.0472 -0.112831 -0.00316072  0.0550407 -0.114428 -0.00270534  0.0537437 -0.105834 -0.0038476  0.0472113 -0.113194 -0.00238061  0.0460914 -0.104565 -0.00338101  0.0537236 -0.10623 -0.00289428  0.0460968 -0.104967 -0.00254607  0.049019 -0.129843 -0.00274456  0.0572286 -0.131336 -0.00234902  0.0562208 -0.122458 -0.00335336  0.0490341 -0.130157 -0.00207019  0.048177 -0.121245 -0.0029496  0.056208 -0.122803 -0.00252366  0.0481883 -0.121595 -0.00222278  0.0503359 -0.147436 -0.00235784  0.0588523 -0.148829 -0.00201654  0.0581149 -0.139721 -0.00289345  0.0503548 -0.147702 -0.00177968  0.0497388 -0.138562 -0.00254798  0.0581069 -0.140017 -0.00218022  0.0497538 -0.138864 -0.00192225  0.0512005 -0.165488 -0.00200105  0.0599724 -0.166785 -0.00171196  0.0594766 -0.157506 -0.00246716  0.0512209 -0.165712 -0.00151384  0.0508244 -0.156399 -0.00217593  0.059473 -0.157757 -0.00186086  0.0508419 -0.156655 -0.0016439  0.0516552 -0.183905 -0.00167465  0.0606298 -0.185111 -0.00143099  0.0603559 -0.175701 -0.00207543  0.0516772 -0.184087 -0.0012691  0.0514779 -0.174645 -0.00183451  0.0603551 -0.175909 -0.00156868  0.0514969 -0.174859 -0.00138855  0.0517472 -0.202586 -0.00137842  0.0608821 -0.203706 -0.00117862  0.060802 -0.194211 -0.00171828  0.0517695 -0.202733 -0.00104868  0.0517459 -0.193206 -0.00152278  0.060804 -0.194381 -0.00130117  0.0517663 -0.193381 -0.00115561  0.0515182 -0.221457 -0.00111306  0.0607703 -0.222496 -0.000950098  0.0608637 -0.212947 -0.00139654  0.0515413 -0.22157 -0.000849724  0.0516717 -0.211991 -0.00124192  0.060868 -0.213083 -0.00106144  0.0516924 -0.212131 -0.000945926  0.0510132 -0.240438 -0.000878334  0.0603478 -0.241403 -0.000751257  0.0605888 -0.231835 -0.0011096  0.0510359 -0.240523 -0.000675201  0.0512998 -0.230926 -0.000991583  0.060595 -0.23194 -0.000846863  0.0513208 -0.231035 -0.000758886  0.0502715 -0.259473 -0.000676036  0.059655 -0.26037 -0.000576735  0.060024 -0.250806 -0.000859499  0.0502946 -0.259532 -0.000523806  0.0506713 -0.249941 -0.000773072  0.0600317 -0.250883 -0.000661016  0.0506918 -0.250023 -0.000596046  0.049336 -0.278503 -0.000504971  0.058743 -0.279339 -0.000432849  0.0592139 -0.269803 -0.000645638  0.0493586 -0.278541 -0.000397086  0.0498278 -0.268979 -0.00058639  0.0592241 -0.269858 -0.000501156  0.0498488 -0.269038 -0.000456929  0.0482438 -0.29749 -0.000367403  0.057652 -0.298275 -0.000313997  0.0582044 -0.288778 -0.000469685  0.0482666 -0.29751 -0.000294447  0.0488088 -0.287992 -0.000431895  0.0582168 -0.288814 -0.000370502  0.0488296 -0.288032 -0.000342131  0.0470345 -0.316393 -0.000259638  0.0564287 -0.317137 -0.000226259  0.0570388 -0.307694 -0.000330567  0.0470581 -0.316402 -0.000214934  0.0476532 -0.306941 -0.000309467  0.057054 -0.307717 -0.00026679  0.0476751 -0.306966 -0.000251293  0.0457442 -0.335198 -0.000180125  0.0551159 -0.335914 -0.000158429  0.0557613 -0.326525 -0.000226855  0.0457683 -0.335198 -0.00015533  0.0463986 -0.325797 -0.000216484  0.0557799 -0.326538 -0.0001899  0.0464211 -0.325812 -0.00018239  0.0444059 -0.353888 -0.000118732  0.0537541 -0.354591 -0.000112772  0.0544147 -0.345255 -0.000152588  0.0444317 -0.353886 -0.000110269  0.0450809 -0.344544 -0.000147581  0.0544388 -0.345264 -0.000134587  0.0451047 -0.344554 -0.00013113  0.0430429 -0.372498 -6.16312e-05  0.052377 -0.373202 -6.92606e-05  0.0530415 -0.363894 -9.48906e-05  0.0430694 -0.372495 -6.79493e-05  0.0437286 -0.363187 -9.02414e-05  0.053067 -0.363904 -9.02414e-05  0.0437531 -0.363198 -8.90493e-05  -0.00599594 -0.00798125 0.00484824  -0.00254297 -0.00459589 0.00353324  0 0 0  -0.0039143 -0.00559177 0.00536585  0 0 0  -0.00283359 -0.00459921 0.00346386  -0.000951372 -0.00193073 0.0024662  0 0 0  -0.00251622 -0.00485249 0.00278747  -0.00393119 -0.00607524 0.0042187  -0.00128556 -0.00283386 0.00292122  0 0 0  -0.00096868 -0.00222849 0.00193453  -0.00128253 -0.0031558 0.00234151  -0.0132156 -0.0135129 0.00754356  -0.00941895 -0.00952306 0.00821161  -0.0104478 -0.0107751 0.00819218  -0.00807841 -0.0102747 0.00551832  -0.00542974 -0.00650413 0.00589716  -0.0095516 -0.0105346 0.00654149  -0.0102991 -0.0117795 0.00660098  -0.00708678 -0.00790833 0.00713027  -0.00529794 -0.00731336 0.00468636  -0.00699423 -0.00880818 0.00563574  -0.0207992 -0.0202377 0.00857985  -0.0170792 -0.0154961 0.0101614  -0.0171164 -0.017527 0.00904036  -0.0137624 -0.0173317 0.00626278  -0.0110646 -0.0125786 0.00734508  -0.0170355 -0.0166521 0.00821602  -0.0170216 -0.0187022 0.00743103  -0.0138126 -0.0139477 0.00880027  -0.0109011 -0.0135956 0.00602734  -0.0136574 -0.0150442 0.0071888  -0.0281362 -0.0284456 0.00853801  -0.0245834 -0.0228514 0.0104955  -0.02349 -0.0259584 0.00891602  -0.0193042 -0.025989 0.00626731  -0.0166134 -0.0203222 0.00761032  -0.0245158 -0.0241447 0.00864887  -0.0235031 -0.0271378 0.00742209  -0.0203565 -0.0215154 0.00907576  -0.0165608 -0.0214603 0.00633717  -0.0203094 -0.0227238 0.00750911  -0.0349923 -0.0382231 0.00803721  -0.0315844 -0.0319268 0.0100398  -0.0294313 -0.0360575 0.00835133  -0.02454 -0.0362133 0.00589073  -0.0218759 -0.02981 0.00730717  -0.0316354 -0.0331322 0.00833082  -0.0295588 -0.0371582 0.00697088  -0.0265105 -0.0308057 0.00869036  -0.0219612 -0.0309127 0.00611544  -0.0265816 -0.0319562 0.00724232  -0.0413296 -0.0494765 0.0072875  -0.0380936 -0.0425743 0.00921941  -0.0349882 -0.0476178 0.00756574  -0.0294477 -0.0478678 0.00534725  -0.0268553 -0.0408415 0.00672579  -0.0382245 -0.0436763 0.00767946  -0.0351914 -0.0486208 0.00632596  -0.0322554 -0.0416567 0.00798786  -0.0270336 -0.0418728 0.00563514  -0.0324277 -0.0427185 0.00666857  -0.0471708 -0.0620368 0.0064863  -0.0441219 -0.0546299 0.00826585  -0.04017 -0.0605011 0.00673866  -0.0340332 -0.0608023 0.00475013  -0.0315355 -0.0532572 0.00603962  -0.0443121 -0.0555986 0.00688887  -0.0404148 -0.0613801 0.00562608  -0.0376257 -0.0539015 0.00716841  -0.0317796 -0.0541847 0.00505567  -0.0378503 -0.0548462 0.0059849  -0.0525442 -0.0757569 0.00568044  -0.0496949 -0.067912 0.00729489  -0.0449925 -0.0745037 0.00590634  -0.0383149 -0.0748638 0.00416243  -0.0359445 -0.0668775 0.00533366  -0.0499148 -0.0687619 0.00608075  -0.0452543 -0.0752779 0.00492811  -0.0426229 -0.0673618 0.00632942  -0.0362105 -0.0677024 0.00445759  -0.0428815 -0.0681956 0.00527823  -0.0574794 -0.0904826 0.00492907  -0.0548376 -0.0822682 0.00636387  -0.0494709 -0.0895109 0.00513303  -0.0423073 -0.0899104 0.00360346  -0.0400696 -0.0815532 0.004655  -0.0550659 -0.0829993 0.00529718  -0.0497302 -0.0901733 0.00427246  -0.0472745 -0.0818848 0.00552368  -0.0403463 -0.0822723 0.00388169  -0.0475346 -0.0826077 0.00459933  -0.0620021 -0.106087 0.00422454  -0.0595659 -0.0975527 0.00549436  -0.0536146 -0.105357 0.00440395  -0.0460255 -0.105807 0.00308907  -0.0439351 -0.0971362 0.00401855  -0.0597912 -0.0981836 0.00457036  -0.0538634 -0.105929 0.00366151  -0.0515809 -0.0973258 0.00476909  -0.0441993 -0.0977608 0.00334406  -0.0518386 -0.097951 0.00396395  -0.0661384 -0.122441 0.00358748  -0.0639055 -0.113641 0.0046947  -0.0574422 -0.121946 0.0037452  -0.0494822 -0.122432 0.00261569  -0.0475329 -0.113502 0.00343275  -0.064118 -0.114175 0.00389767  -0.0576719 -0.122425 0.00310564  -0.0555669 -0.113558 0.00407469  -0.0477856 -0.114035 0.00284946  -0.0558057 -0.11409 0.00338066  -0.0699116 -0.139434 0.00300097  -0.0678732 -0.130412 0.00396323  -0.0609652 -0.139139 0.00313663  -0.0526905 -0.139668 0.00218713  -0.0508879 -0.130527 0.00289631  -0.0680693 -0.130865 0.00328755  -0.061175 -0.139544 0.00259721  -0.0592382 -0.130462 0.00343943  -0.0511162 -0.13098 0.00239837  -0.0594605 -0.130913 0.00284755  -0.0733452 -0.156956 0.00247526  -0.0714936 -0.14776 0.00329888  -0.0642029 -0.156852 0.00259113  -0.0556632 -0.157411 0.00179768  -0.0539958 -0.148104 0.00240946  -0.0716702 -0.148134 0.00273013  -0.0643896 -0.157182 0.00213885  -0.062618 -0.147928 0.0028621  -0.0542053 -0.148482 0.00198925  -0.0628161 -0.148302 0.00236428  -0.0764612 -0.174913 0.00199676  -0.0747848 -0.165579 0.00269735  -0.067169 -0.174968 0.00209415  -0.0584134 -0.17556 0.00144815  -0.0568813 -0.166128 0.00196838  -0.0749418 -0.165887 0.00222969  -0.0673345 -0.175237 0.00172412  -0.0657163 -0.165853 0.00233948  -0.0570648 -0.16644 0.00161958  -0.0658946 -0.166162 0.00192702  -0.079284 -0.19321 0.00157237  -0.0777708 -0.183778 0.00215733  -0.0698841 -0.193413 0.00165284  -0.0609547 -0.194027 0.00113428  -0.0595449 -0.184507 0.00157285  -0.0779089 -0.184023 0.00177741  -0.0700274 -0.193622 0.00135422  -0.0685558 -0.184145 0.00187027  -0.0597092 -0.184758 0.00128782  -0.0687104 -0.184393 0.00153494  -0.0818348 -0.211765 0.001194  -0.0804733 -0.202268 0.00167549  -0.0723637 -0.212091 0.00125945  -0.0633008 -0.212726 0.000858188  -0.062011 -0.203152 0.00121999  -0.0805922 -0.202461 0.00137699  -0.072487 -0.212252 0.00102603  -0.0711498 -0.202715 0.00145185  -0.0621508 -0.203351 0.000992537  -0.0712849 -0.202911 0.00118554  -0.0841389 -0.230503 0.00086534  -0.0829155 -0.220971 0.00125158  -0.0746291 -0.230936 0.000917077  -0.0654666 -0.231585 0.000615358  -0.0642831 -0.221987 0.000910044  -0.0830169 -0.221115 0.00102246  -0.0747325 -0.231052 0.000739932  -0.0735205 -0.221485 0.00108373  -0.064405 -0.222138 0.00073278  -0.0736347 -0.221633 0.000878215  -0.08622 -0.249353 0.00058341  -0.0851209 -0.239813 0.000884414  -0.0766993 -0.249873 0.000623703  -0.0674686 -0.250534 0.000409245  -0.0663865 -0.240938 0.000641227  -0.0852056 -0.239919 0.000717759  -0.0767848 -0.249953 0.000495076  -0.075685 -0.240383 0.000764966  -0.0664866 -0.241051 0.00050807  -0.0757813 -0.240493 0.000612378  -0.0881059 -0.268257 0.000349998  -0.0871162 -0.258732 0.000574946  -0.0785964 -0.268848 0.000379801  -0.0693235 -0.269516 0.000236392  -0.0683286 -0.259945 0.000414729  -0.0871861 -0.258802 0.000459313  -0.0786657 -0.268897 0.000291705  -0.0776663 -0.259347 0.000496149  -0.0684128 -0.260023 0.000318646  -0.077745 -0.259421 0.000388384  -0.089824 -0.287162 0.000163794  -0.0889273 -0.27767 0.00032258  -0.0803428 -0.287806 0.000185251  -0.0710495 -0.28848 9.88245e-05  -0.0701346 -0.278951 0.000228524  -0.0889838 -0.277714 0.000250101  -0.0803988 -0.287831 0.000129342  -0.0794847 -0.278319 0.000276446  -0.0702009 -0.279002 0.000163198  -0.0795488 -0.278367 0.000205159  -0.0914066 -0.306028 2.44379e-05  -0.0905821 -0.296581 0.000127912  -0.0819635 -0.30671 3.73125e-05  -0.0726662 -0.307385 -7.98702e-06  -0.0718143 -0.297911 8.27312e-05  -0.0906308 -0.296603 8.72612e-05  -0.0820093 -0.306716 6.4373e-06  -0.0811656 -0.297254 0.000105739  -0.0718699 -0.29794 4.1604e-05  -0.0812175 -0.297281 6.30617e-05  -0.0928881 -0.324821 -7.42674e-05  -0.0921147 -0.315426 -1.23978e-05  -0.0834854 -0.325521 -6.74725e-05  -0.0741947 -0.326199 -8.65459e-05  -0.0733955 -0.316788 -2.75373e-05  -0.0921571 -0.315436 -3.00407e-05  -0.0835252 -0.325518 -8.22544e-05  -0.0827332 -0.316115 -1.97887e-05  -0.0734398 -0.316803 -5.05447e-05  -0.0827768 -0.316127 -4.18425e-05  -0.0943103 -0.343524 -0.000143886  -0.0935633 -0.334182 -0.000107884  -0.0849419 -0.344228 -0.00014627  -0.0756578 -0.344905 -0.000150919  -0.074893 -0.335558 -0.000109792  -0.0936046 -0.334185 -0.000112057  -0.0849767 -0.34422 -0.000150442  -0.0842175 -0.334875 -0.000109076  -0.0749328 -0.335564 -0.000119925  -0.0842571 -0.334881 -0.000118017  -0.0957077 -0.362159 -0.000210524  -0.0949736 -0.352845 -0.000181556  -0.086359 -0.362849 -0.000222087  -0.0770848 -0.363515 -0.000209808  -0.0763381 -0.354213 -0.000182509  -0.0950093 -0.352846 -0.000177145  -0.0863936 -0.362844 -0.000213504  -0.0856524 -0.353533 -0.00018394  -0.0763721 -0.354218 -0.000180721  -0.0856869 -0.353537 -0.000180721  -0.00221179 -0.00311761 0.00352657  0 0 0  -0.00159943 -0.00291321 0.0022155  -0.000572074 -0.000918925 0.0015856  0 0 0  -0.00216427 -0.00361431 0.00281477  -0.000744428 -0.00131939 0.00200474  0 0 0  -0.000537887 -0.00118661 0.00124013  -0.000719208 -0.00161602 0.00156569  -0.00633405 -0.00819254 0.00553441  -0.00465001 -0.00810787 0.00350893  -0.0030968 -0.00458483 0.00370085  -0.00623998 -0.00904578 0.00448012  -0.00413156 -0.00539598 0.00469577  -0.00301091 -0.00527073 0.00297296  -0.00405638 -0.0061262 0.00376904  -0.0109598 -0.0151575 0.00618076  -0.00827077 -0.0152848 0.00403821  -0.00654024 -0.0105322 0.00468016  -0.0108692 -0.0161821 0.00512683  -0.00865054 -0.0114212 0.0059526  -0.00643247 -0.0114679 0.00385249  -0.00853553 -0.0123998 0.00489271  -0.0154301 -0.0239465 0.00615025  -0.0119281 -0.0242417 0.00406444  -0.0101323 -0.0185336 0.00490725  -0.0154706 -0.0250149 0.00514293  -0.0132111 -0.019324 0.0062201  -0.0101041 -0.0195546 0.00409198  -0.0131885 -0.0203962 0.00518692  -0.0197402 -0.0343805 0.00577235  -0.0154951 -0.0347786 0.00382638  -0.0136502 -0.0282875 0.00473535  -0.0198717 -0.0354119 0.00484288  -0.0176122 -0.0289582 0.00599182  -0.0137305 -0.029321 0.00396836  -0.0176979 -0.030026 0.00501931  -0.0238311 -0.0462771 0.00523913  -0.0189039 -0.046739 0.00347161  -0.0170599 -0.0396036 0.00435948  -0.0240372 -0.0472328 0.00439417  -0.0218099 -0.0401484 0.00551784  -0.0172178 -0.0405908 0.00365829  -0.0219844 -0.0411548 0.00462925  -0.0277219 -0.0594615 0.00465965  -0.0221621 -0.0599604 0.00307739  -0.0203439 -0.0522899 0.00390971  -0.0279658 -0.0603223 0.00390279  -0.0258014 -0.0527098 0.00495231  -0.0205523 -0.0532003 0.0032773  -0.02603 -0.0536284 0.00415087  -0.0314109 -0.0737675 0.00408733  -0.0252714 -0.0742934 0.00268888  -0.0235035 -0.0661763 0.00344646  -0.0316696 -0.0745291 0.00341487  -0.02959 -0.0664741 0.00437176  -0.0237341 -0.0669962 0.00288272  -0.0298452 -0.067295 0.00365686  -0.0349016 -0.089047 0.00354469  -0.0282398 -0.0895946 0.00232053  -0.0265377 -0.0811047 0.00300026  -0.0351579 -0.0897117 0.00295484  -0.03318 -0.0812845 0.00381207  -0.0267735 -0.0818302 0.00250256  -0.0334399 -0.0820065 0.00318122  -0.0381964 -0.105162 0.00304198  -0.0310696 -0.10573 0.0019815  -0.0294429 -0.0969311 0.00258338  -0.0384407 -0.105735 0.00252843  -0.0365716 -0.0969978 0.00328875  -0.029671 -0.0975651 0.00214851  -0.0368246 -0.0976258 0.00273716  -0.0412986 -0.121989 0.00258029  -0.033765 -0.122575 0.00167072  -0.0322192 -0.113523 0.00219917  -0.0415248 -0.122477 0.00213921  -0.0397701 -0.113483 0.00280631  -0.0324343 -0.11407 0.00182319  -0.0400068 -0.114023 0.00232959  -0.0442133 -0.13941 0.00216031  -0.0363274 -0.140015 0.00138962  -0.0348654 -0.13076 0.00184906  -0.0444189 -0.13982 0.0017848  -0.0427773 -0.130621 0.00236547  -0.0350618 -0.131226 0.00152755  -0.0429951 -0.131079 0.00195754  -0.0469464 -0.157319 0.00177932  -0.0387611 -0.157939 0.00113487  -0.0373827 -0.148529 0.00153089  -0.04713 -0.157659 0.00146484  -0.0456009 -0.148299 0.00196528  -0.0375605 -0.148921 0.00125957  -0.0457966 -0.148683 0.00162077  -0.0495045 -0.175619 0.00143588  -0.0410674 -0.176252 0.000906587  -0.039772 -0.166727 0.00124383  -0.0496669 -0.175894 0.00117588  -0.0482447 -0.166415 0.00160313  -0.0399292 -0.167052 0.00101805  -0.0484197 -0.166732 0.00131631  -0.0518967 -0.194217 0.00112903  -0.0432523 -0.194861 0.000702143  -0.0420365 -0.185259 0.000986338  -0.0520376 -0.194436 0.000918746  -0.0507196 -0.184874 0.00127804  -0.0421751 -0.185523 0.000801563  -0.0508721 -0.185131 0.00104356  -0.054131 -0.213032 0.000857234  -0.0453187 -0.213684 0.000522137  -0.0441806 -0.204039 0.000757575  -0.0542518 -0.2132 0.00069046  -0.0530308 -0.20359 0.00098896  -0.0442995 -0.204249 0.000609398  -0.0531635 -0.203794 0.000800967  -0.0562186 -0.231988 0.000620365  -0.0472741 -0.232646 0.00036478  -0.0462086 -0.222988 0.000556469  -0.05632 -0.232113 0.000492334  -0.0551913 -0.222484 0.000734925  -0.0463102 -0.22315 0.000440955  -0.0553031 -0.222641 0.000587821  -0.0581696 -0.251021 0.000416875  -0.049124 -0.251682 0.000230551  -0.0481272 -0.242035 0.000382423  -0.0582535 -0.251108 0.000321388  -0.0572081 -0.241487 0.000514746  -0.0482111 -0.242157 0.000294685  -0.057303 -0.241603 0.000403285  -0.0599973 -0.27007 0.000248075  -0.0508773 -0.270733 0.000118494  -0.049943 -0.26112 0.000235438  -0.0600646 -0.270126 0.000180483  -0.0590966 -0.260534 0.000328541  -0.0500121 -0.261207 0.000171661  -0.0591731 -0.260616 0.000247359  -0.061713 -0.289088 0.000110865  -0.0525415 -0.289752 2.7895e-05  -0.0516646 -0.28019 0.000114918  -0.0617669 -0.289118 6.55651e-05  -0.0608659 -0.279573 0.000175714  -0.0517194 -0.280248 7.06911e-05  -0.0609283 -0.279627 0.000119567  -0.0633316 -0.308031 4.64916e-06  -0.0541265 -0.308698 -4.3273e-05  -0.0532992 -0.299199 1.84774e-05  -0.0633736 -0.308044 -2.28882e-05  -0.0625322 -0.298558 5.47171e-05  -0.0533433 -0.299234 -1.00136e-05  -0.0625808 -0.29859 1.84774e-05  -0.0648658 -0.326872 -7.78437e-05  -0.0556421 -0.327539 -9.91821e-05  -0.0548563 -0.318112 -5.6982e-05  -0.0649009 -0.326871 -9.21488e-05  -0.064106 -0.317454 -3.88622e-05  -0.0548921 -0.318131 -7.30753e-05  -0.064146 -0.31747 -5.96046e-05  -0.0663352 -0.345588 -0.000145793  -0.0571017 -0.346254 -0.00014782  -0.0563474 -0.336904 -0.000118017  -0.0663652 -0.345582 -0.000148892  -0.0656061 -0.336234 -0.000112176  -0.0563776 -0.336912 -0.000124216  -0.0656393 -0.336241 -0.000121117  -0.0677636 -0.364179 -0.000215054  -0.0585275 -0.364828 -0.000195384  -0.0577874 -0.355553 -0.000177026  -0.0677938 -0.364175 -0.000203848  -0.067049 -0.354886 -0.000180244  -0.0578156 -0.355559 -0.000172138  -0.0670807 -0.354892 -0.000177264  -0.00113584 -0.00201896 0.00208402  0 0 0  -0.000687487 -0.00218123 0.00109804  -0.000237446 -0.000534505 0.000797629  0 0 0  -0.00112334 -0.00245252 0.00165308  -0.000387188 -0.000665814 0.00121188  0 0 0  -0.000231005 -0.000755042 0.000626445  -0.000374541 -0.000913739 0.000942945  -0.00335294 -0.00667053 0.00320792  -0.00204353 -0.00704837 0.00171387  -0.00133972 -0.00369504 0.0018214  -0.00330243 -0.00745445 0.0026015  -0.00215656 -0.00402796 0.00272727  -0.00130349 -0.00432354 0.00145626  -0.00212069 -0.00468069 0.002195  -0.00595674 -0.0137003 0.0036037  -0.00372756 -0.0142323 0.00196719  -0.00289133 -0.00952211 0.00228155  -0.00592527 -0.0146383 0.00299239  -0.00463808 -0.00990775 0.00346172  -0.00285718 -0.0103868 0.0018791  -0.00458658 -0.0107969 0.00284898  -0.00860158 -0.0226878 0.00359941  -0.00553608 -0.0233375 0.00197875  -0.00460163 -0.0176167 0.00238764  -0.00865152 -0.0236811 0.00301158  -0.00727642 -0.0179634 0.00363672  -0.00462061 -0.0185691 0.00199354  -0.00728419 -0.0189456 0.00303483  -0.0112453 -0.0333455 0.00338113  -0.00739396 -0.0340701 0.00185812  -0.00638372 -0.0275313 0.00230241  -0.0113574 -0.0343298 0.00283563  -0.00992823 -0.0278121 0.00351  -0.00646055 -0.0285119 0.00193059  -0.0100097 -0.0288143 0.00294077  -0.0138373 -0.0454744 0.00306094  -0.00926679 -0.0462294 0.0016731  -0.00820482 -0.039027 0.00210977  -0.014001 -0.0464006 0.00256717  -0.0125471 -0.0392278 0.00322902  -0.00832874 -0.0399801 0.00177026  -0.0126874 -0.0401973 0.00270915  -0.0163832 -0.0588818 0.0027132  -0.0111492 -0.0596517 0.00147009  -0.0100536 -0.0518975 0.00187874  -0.0165741 -0.059734 0.00226903  -0.0151146 -0.0520175 0.00288904  -0.0102064 -0.0527901 0.00157285  -0.0152961 -0.0529186 0.00242007  -0.0188761 -0.0734104 0.00236833  -0.0130373 -0.0741744 0.00126863  -0.0119256 -0.0659671 0.00164068  -0.0190775 -0.0741709 0.00197589  -0.0176363 -0.0660047 0.00253975  -0.0120925 -0.0667812 0.001369  -0.0178342 -0.0668224 0.00212204  -0.0213127 -0.0889021 0.00204289  -0.0149291 -0.0896635 0.00108004  -0.0138141 -0.0810767 0.00141239  -0.0215119 -0.0895756 0.00169706  -0.0200995 -0.0810329 0.00220323  -0.0139825 -0.0818046 0.00117326  -0.0203034 -0.0817602 0.00183475  -0.0236868 -0.105223 0.00174177  -0.0168171 -0.105973 0.000906467  -0.0157108 -0.0970794 0.00119984  -0.023876 -0.105805 0.00144267  -0.0225075 -0.0969553 0.00188911  -0.0158736 -0.0977202 0.000991702  -0.0227025 -0.0975939 0.00156772  -0.0259936 -0.12224 0.00146651  -0.0186967 -0.122986 0.000749469  -0.0176061 -0.11384 0.00100565  -0.0261686 -0.122742 0.00120831  -0.0248466 -0.11364 0.0016011  -0.017758 -0.114397 0.000826597  -0.0250313 -0.114192 0.00132322  -0.0282282 -0.139839 0.00121629  -0.0205592 -0.140575 0.00060761  -0.0194914 -0.131235 0.000829458  -0.0283865 -0.140262 0.000998378  -0.0271195 -0.130962 0.00133848  -0.0196302 -0.131712 0.00067699  -0.0272865 -0.131435 0.00110114  -0.0303874 -0.157909 0.000990748  -0.0223994 -0.158642 0.00048089  -0.0213581 -0.149149 0.000670671  -0.0305282 -0.158264 0.000807285  -0.0293148 -0.14881 0.00110078  -0.021482 -0.149553 0.00054276  -0.029467 -0.149209 0.000900626  -0.0324683 -0.176354 0.000787854  -0.0242091 -0.177077 0.000367522  -0.0231988 -0.167479 0.000528336  -0.0325918 -0.176642 0.000637531  -0.0314368 -0.167079 0.000886559  -0.0233079 -0.167816 0.000422597  -0.0315695 -0.167411 0.000720263  -0.0344708 -0.195079 0.000607014  -0.0259852 -0.195798 0.000267267  -0.0250068 -0.186129 0.000401855  -0.0345771 -0.195312 0.000484705  -0.0334771 -0.185674 0.000695109  -0.0251015 -0.186405 0.000315905  -0.0335941 -0.185945 0.000559211  -0.036393 -0.214005 0.000447631  -0.0277216 -0.214714 0.000178933  -0.0267774 -0.205011 0.000289917  -0.0364836 -0.214185 0.000351667  -0.0354408 -0.204509 0.000524998  -0.0268581 -0.205233 0.00022161  -0.0355397 -0.204727 0.000416398  -0.038238 -0.233055 0.000308871  -0.0294161 -0.233758 0.000102997  -0.0285063 -0.224048 0.000192285  -0.0383132 -0.233192 0.000234485  -0.0373228 -0.223506 0.000376105  -0.028574 -0.224222 0.000139594  -0.0374079 -0.223675 0.000291228  -0.0400066 -0.252166 0.000190258  -0.0310657 -0.252859 3.80278e-05  -0.0301905 -0.243171 0.0001086  -0.0400674 -0.252263 0.000135779  -0.0391304 -0.242594 0.000247359  -0.0302463 -0.243302 6.91414e-05  -0.0391994 -0.242722 0.000183225  -0.0417023 -0.271278 9.19104e-05  -0.0326703 -0.271966 -1.5378e-05  -0.0318286 -0.262317 3.82662e-05  -0.0417509 -0.271345 5.23329e-05  -0.0408607 -0.261713 0.000138879  -0.0318732 -0.262413 1.00136e-05  -0.0409176 -0.261805 9.21488e-05  -0.043329 -0.290347 1.15633e-05  -0.0342293 -0.291027 -5.87702e-05  -0.0334201 -0.281436 -1.91927e-05  -0.0433667 -0.290386 -1.40667e-05  -0.0425227 -0.280808 4.97103e-05  -0.0334549 -0.281502 -3.83854e-05  -0.0425665 -0.280872 1.75238e-05  -0.0448909 -0.30933 -5.19753e-05  -0.0357442 -0.310007 -9.26256e-05  -0.0349646 -0.300484 -6.49691e-05  -0.0449204 -0.309351 -6.77109e-05  -0.0441153 -0.299839 -2.15769e-05  -0.0349917 -0.300527 -7.67708e-05  -0.0441508 -0.299879 -4.22001e-05  -0.0463934 -0.3282 -0.000101924  -0.0372164 -0.32887 -0.000119567  -0.0364633 -0.319428 -0.000100851  -0.0464172 -0.328203 -0.000109196  -0.0456481 -0.318769 -7.77245e-05  -0.0364854 -0.319452 -0.000106931  -0.0456748 -0.318791 -8.91685e-05  -0.0478468 -0.346927 -0.000146389  -0.0386515 -0.347594 -0.000144243  -0.0379205 -0.338237 -0.000130177  -0.0478663 -0.346924 -0.000147223  -0.047123 -0.33757 -0.000123501  -0.0379379 -0.338249 -0.000131965  -0.047147 -0.33758 -0.000127912  -0.0492635 -0.365481 -0.00019443  -0.0400567 -0.366136 -0.00016892  -0.0393403 -0.356881 -0.000161052  -0.0492833 -0.36548 -0.000183702  -0.0485568 -0.356216 -0.000169754  -0.0393562 -0.356889 -0.000157118  -0.0485766 -0.356224 -0.000165582  -0.000279605 -0.00166798 0.00067997  0 0 0  0.000101671 -0.00207955 -1.64509e-05  3.81395e-05 -0.000491887 -1.7643e-05  0 0 0  -0.000283465 -0.00206408 0.000543475  -9.44249e-05 -0.000472844 0.000393152  0 0 0  3.23132e-05 -0.000699997 -1.06096e-05  -9.55798e-05 -0.000688732 0.00030911  -0.000863448 -0.00614941 0.00103617  0.000269651 -0.00690404 -2.59876e-05  0.000211969 -0.00359344 -3.6478e-05  -0.000869021 -0.00687665 0.000844002  -0.000540927 -0.00355846 0.000893354  0.000185743 -0.00418845 -2.16961e-05  -0.000546366 -0.00416517 0.000718713  -0.00161859 -0.0131787 0.00115061  0.000385731 -0.0141129 -3.56436e-05  0.000387579 -0.00941536 -4.73261e-05  -0.00164226 -0.0140609 0.000959396  -0.00122535 -0.00936422 0.00110888  0.000339597 -0.0102443 -3.016e-05  -0.00123608 -0.0102029 0.000917554  -0.00248551 -0.0222625 0.00114214  0.000379324 -0.023295 -5.00679e-05  0.000464976 -0.017564 -5.9247e-05  -0.00254652 -0.0232096 0.000959277  -0.00203782 -0.0174834 0.00115514  0.000400126 -0.0184821 -4.18425e-05  -0.00208014 -0.0184147 0.000969172  -0.00346202 -0.0330519 0.00105846  0.000220299 -0.0341274 -6.93798e-05  0.000399649 -0.0275635 -7.7486e-05  -0.00355333 -0.0340011 0.000890613  -0.00296116 -0.0274484 0.0011059  0.000320077 -0.028519 -5.91278e-05  -0.00303739 -0.028413 0.000929952  -0.00453711 -0.0453209 0.000939608  -0.000103116 -0.0464008 -9.08375e-05  0.000169873 -0.0391589 -9.93013e-05  -0.00465232 -0.0462274 0.000787973  -0.00398535 -0.0390033 0.00100136  7.93338e-05 -0.0400947 -8.02279e-05  -0.00409186 -0.0399457 0.00084126  -0.00571084 -0.0588744 0.000811338  -0.00059092 -0.0599363 -0.000111699  -0.000229955 -0.0521347 -0.000120997  -0.00583822 -0.0597164 0.000677943  -0.00511229 -0.0519356 0.000876069  -0.000326693 -0.0530192 -0.000101447  -0.00523418 -0.0528232 0.00073278  -0.00697482 -0.0735489 0.000685334  -0.00123453 -0.0745798 -0.000130296  -0.000795484 -0.0663151 -0.000141621  -0.00710565 -0.0743081 0.000567555  -0.00632989 -0.0660696 0.000748158  -0.000893772 -0.0671277 -0.000121355  -0.00646228 -0.0668824 0.000621796  -0.00832009 -0.0891863 0.000568151  -0.0020237 -0.0901832 -0.000145435  -0.00151646 -0.0815377 -0.000158429  -0.00844741 -0.0898631 0.000467062  -0.00763774 -0.0812437 0.000626326  -0.00161159 -0.0822689 -0.000138402  -0.00776756 -0.0819734 0.000516057  -0.0097338 -0.105648 0.000461221  -0.00294328 -0.106609 -0.00015676  -0.00237846 -0.097653 -0.000171542  -0.00985336 -0.106238 0.00037384  -0.00901663 -0.0973108 0.000513911  -0.00246799 -0.0983004 -0.000151753  -0.00914311 -0.0979549 0.000419021  -0.0112034 -0.122801 0.000365257  -0.00397825 -0.123729 -0.000164866  -0.0033654 -0.114524 -0.000180721  -0.0113126 -0.123312 0.000292659  -0.010462 -0.114133 0.000412583  -0.00344718 -0.115088 -0.000161529  -0.0105766 -0.114695 0.000331879  -0.0127156 -0.140526 0.000279665  -0.00511181 -0.141422 -0.000170112  -0.00446057 -0.132023 -0.000186563  -0.0128129 -0.140959 0.000218391  -0.0119523 -0.131587 0.000321746  -0.00453353 -0.132509 -0.000167966  -0.0120583 -0.132069 0.000254035  -0.0142583 -0.158713 0.000203848  -0.00632906 -0.159579 -0.000172615  -0.00564766 -0.150034 -0.000189424  -0.0143433 -0.159077 0.000154734  -0.013483 -0.149556 0.000241041  -0.00571084 -0.150448 -0.000171781  -0.0135746 -0.149965 0.000185251  -0.0158198 -0.177261 0.000137448  -0.00761318 -0.1781 -0.000172734  -0.00690985 -0.168452 -0.0001899  -0.015893 -0.17756 9.7394e-05  -0.0150347 -0.167936 0.000169873  -0.00696325 -0.168799 -0.000173211  -0.0151165 -0.168278 0.000124574  -0.0173907 -0.196078 7.93934e-05  -0.00895202 -0.196891 -0.000171423  -0.008232 -0.18718 -0.000187635  -0.0174522 -0.196321 4.88758e-05  -0.0166041 -0.186629 0.000107765  -0.0082767 -0.187465 -0.000172257  -0.0166714 -0.186911 7.1764e-05  -0.0189611 -0.215084 2.89679e-05  -0.01033 -0.215872 -0.000168681  -0.0096004 -0.206131 -0.000184536  -0.0190115 -0.215273 5.126e-06  -0.0181739 -0.20555 5.3525e-05  -0.00963664 -0.206361 -0.000170469  -0.0182322 -0.205777 2.57492e-05  -0.0205233 -0.234201 -1.39475e-05  -0.0117364 -0.234967 -0.000165105  -0.0110018 -0.225226 -0.000179887  -0.0205641 -0.234347 -3.03984e-05  -0.0197427 -0.22462 7.03335e-06  -0.0110302 -0.225408 -0.000167251  -0.0197887 -0.224799 -1.38283e-05  -0.0220704 -0.253368 -4.92334e-05  -0.0131598 -0.254113 -0.00016129  -0.0124245 -0.244397 -0.000174522  -0.0221021 -0.253474 -6.12736e-05  -0.0212965 -0.24377 -3.23057e-05  -0.0124464 -0.244536 -0.000163674  -0.0213351 -0.243906 -4.69685e-05  -0.0235984 -0.272526 -7.80821e-05  -0.0145912 -0.273253 -0.000156522  -0.013859 -0.263582 -0.000168681  -0.023622 -0.272601 -8.51154e-05  -0.022836 -0.262939 -6.38962e-05  -0.0138748 -0.263685 -0.000159144  -0.0228643 -0.263039 -7.42674e-05  -0.0251017 -0.291632 -0.000100613  -0.0160227 -0.292341 -0.000151634  -0.0152965 -0.282732 -0.000162244  -0.0251186 -0.291677 -0.000105143  -0.0243504 -0.282076 -8.98838e-05  -0.0153069 -0.282805 -0.000154376  -0.0243733 -0.282146 -9.60827e-05  -0.0265784 -0.310643 -0.000117421  -0.0174484 -0.311339 -0.000146389  -0.0167298 -0.301804 -0.000155449  -0.0265901 -0.310668 -0.000118732  -0.0258427 -0.301139 -0.000109434  -0.0167363 -0.301852 -0.00014925  -0.0258572 -0.301184 -0.000112891  -0.0280266 -0.329532 -0.000130296  -0.018863 -0.330216 -0.000141621  -0.0181532 -0.320765 -0.000148773  -0.0280352 -0.329539 -0.000131011  -0.0273037 -0.320093 -0.000124216  -0.0181575 -0.320793 -0.000144362  -0.0273159 -0.320119 -0.000125527  -0.0294466 -0.348266 -0.000142694  -0.0202627 -0.348944 -0.000137568  -0.0195634 -0.339583 -0.000142574  -0.0294528 -0.348266 -0.000140905  -0.028739 -0.338907 -0.000136495  -0.0195646 -0.339598 -0.000139832  -0.0287471 -0.338921 -0.000136256  -0.0308363 -0.366797 -0.000157118  -0.0216391 -0.367477 -0.000133753  -0.0209534 -0.358225 -0.000137329  -0.0308428 -0.366801 -0.000152588  -0.0301425 -0.35755 -0.000149965  -0.0209539 -0.358237 -0.000135899  -0.0301507 -0.35756 -0.000147104  0.000511095 -0.00184053 -0.000733614  0 0 0  0.000888348 -0.00250465 -0.00112152  0.000310451 -0.00072962 -0.000826359  0 0 0  0.000488341 -0.00222641 -0.000574589  0.000169635 -0.00057143 -0.000428081  0 0 0  0.000293955 -0.000940979 -0.000639915  0.000161909 -0.000781953 -0.000328541  0.00147083 -0.00642061 -0.00111866  0.00257275 -0.0075562 -0.00175095  0.00175618 -0.00415081 -0.00187576  0.00140947 -0.00713277 -0.000893116  0.000960737 -0.00378668 -0.000960231  0.00166781 -0.00474995 -0.0014863  0.000918791 -0.00438005 -0.000759125  0.00249365 -0.0135176 -0.00125182  0.00447395 -0.014877 -0.00201905  0.00364763 -0.0101326 -0.0023545  0.00240859 -0.0143849 -0.00102663  0.00199312 -0.00966984 -0.00119913  0.00351799 -0.0109642 -0.00192249  0.00191301 -0.0104942 -0.000974178  0.00337583 -0.0226607 -0.00127339  0.00625437 -0.0241067 -0.00205863  0.00549963 -0.0183518 -0.00248265  0.00329518 -0.023595 -0.00105441  0.0029566 -0.0178515 -0.0012691  0.00538749 -0.0192748 -0.00205696  0.00287277 -0.0187695 -0.00104892  0.00405747 -0.0335113 -0.00123107  0.00778157 -0.0349711 -0.00197947  0.00713915 -0.0283875 -0.00243556  0.00397992 -0.0344513 -0.00102556  0.00374681 -0.0278764 -0.0012567  0.00705385 -0.0293452 -0.0020299  0.00366527 -0.0288302 -0.00104451  0.00449997 -0.045847 -0.00115728  0.00899917 -0.0472745 -0.00184119  0.00849128 -0.0400121 -0.00229084  0.00442946 -0.0467487 -0.000966549  0.00430852 -0.0394948 -0.00119638  0.00843006 -0.0409511 -0.0019145  0.00423521 -0.0404305 -0.000998259  0.00470454 -0.0594743 -0.00107241  0.00990123 -0.0608535 -0.00168419  0.00953364 -0.0530253 -0.00210822  0.00463885 -0.0603153 -0.000899076  0.00463384 -0.0524978 -0.00111604  0.00948918 -0.0539122 -0.00176418  0.00456363 -0.0533825 -0.000933528  0.00467825 -0.0742276 -0.000984669  0.0105002 -0.0755429 -0.00152361  0.010271 -0.0672499 -0.00191522  0.00461805 -0.0749894 -0.000827074  0.00471944 -0.066708 -0.00102925  0.0102379 -0.0680656 -0.00160408  0.00465673 -0.0675221 -0.000863075  0.00443637 -0.0899471 -0.00089848  0.0108142 -0.0912014 -0.00136793  0.0107166 -0.0825226 -0.00172436  0.00438201 -0.0906286 -0.000757575  0.00458539 -0.0819635 -0.000941992  0.0106916 -0.0832577 -0.00144565  0.00452578 -0.0826966 -0.000792146  0.00399733 -0.106491 -0.00081408  0.0108666 -0.10768 -0.00121951  0.010891 -0.098691 -0.00154078  0.00394952 -0.107088 -0.000687957  0.00424087 -0.0981123 -0.000856638  0.0108722 -0.0993432 -0.00129342  0.00418949 -0.0987627 -0.000722408  0.00338066 -0.123724 -0.000733733  0.0106803 -0.124854 -0.00108004  0.0108156 -0.115615 -0.00136685  0.00333989 -0.124242 -0.000623226  0.00371218 -0.115017 -0.000774026  0.0108019 -0.116185 -0.00114906  0.00366557 -0.115585 -0.000655174  0.0026077 -0.141525 -0.000656724  0.0102811 -0.142596 -0.000948906  0.0105146 -0.133166 -0.00120366  0.00257397 -0.141966 -0.000559211  0.00301325 -0.132548 -0.000695229  0.0105064 -0.133658 -0.00101399  0.00297546 -0.133038 -0.000590682  0.00169826 -0.15978 -0.000584126  0.00969207 -0.160801 -0.000827432  0.0100124 -0.151225 -0.00105107  0.00167191 -0.160153 -0.000500441  0.00217128 -0.15059 -0.000620246  0.0100091 -0.151645 -0.000887394  0.00213873 -0.151007 -0.000529408  0.000673771 -0.178391 -0.00051558  0.00893927 -0.179359 -0.000714421  0.00933444 -0.169686 -0.000909328  0.000653625 -0.178698 -0.000443459  0.00120008 -0.169035 -0.000549912  0.00933552 -0.170039 -0.000770092  0.00117636 -0.169385 -0.000471473  -0.000448942 -0.197262 -0.000452161  0.00804389 -0.198186 -0.000611305  0.00850332 -0.188451 -0.000778794  -0.000462413 -0.197512 -0.000392079  0.000125766 -0.187787 -0.000483394  0.00850809 -0.188742 -0.000662208  0.000106812 -0.188076 -0.000417233  -0.00164962 -0.216313 -0.000393987  0.00702977 -0.217192 -0.000517964  0.00754273 -0.207434 -0.000660181  -0.00165796 -0.21651 -0.000343561  -0.00103962 -0.206757 -0.000422597  0.00755084 -0.207669 -0.000563741  -0.00105083 -0.206991 -0.000367045  -0.00291324 -0.235468 -0.000341177  0.00591636 -0.236311 -0.000434518  0.00647378 -0.226554 -0.00055325  -0.00291681 -0.235621 -0.000301003  -0.00227213 -0.22587 -0.000366807  0.00648427 -0.22674 -0.000475168  -0.00228047 -0.226054 -0.000321507  -0.00422454 -0.254666 -0.000294209  0.00472403 -0.255471 -0.000361323  0.00531721 -0.245744 -0.000459075  -0.00422382 -0.254777 -0.000261545  -0.00356269 -0.245054 -0.000317097  0.00532961 -0.245886 -0.000397325  -0.00356507 -0.245196 -0.000280619  -0.0055697 -0.273848 -0.000253081  0.00346947 -0.274623 -0.000298262  0.00409055 -0.264943 -0.000376225  -0.00556612 -0.273926 -0.000228643  -0.00489092 -0.26425 -0.000273108  0.0041039 -0.265048 -0.000329018  -0.00489116 -0.264355 -0.000244498  -0.00693727 -0.29297 -0.000217199  0.00216913 -0.293715 -0.000245094  0.00281072 -0.284102 -0.000305772  -0.0069313 -0.293019 -0.000198722  -0.00625014 -0.283407 -0.000234604  0.00282502 -0.284176 -0.000270963  -0.00624585 -0.283481 -0.000212908  -0.00831819 -0.311993 -0.000186801  0.00083518 -0.312716 -0.000200868  0.00149202 -0.303178 -0.000246525  -0.00831056 -0.312021 -0.000174761  -0.00762415 -0.302484 -0.000201464  0.00150585 -0.303227 -0.000222445  -0.00761986 -0.302533 -0.000186086  -0.00970387 -0.330888 -0.000160813  -0.000519753 -0.33159 -0.000164151  0.000146866 -0.322138 -0.000197291  -0.00969505 -0.330899 -0.000152946  -0.00900984 -0.321446 -0.000173211  0.000159979 -0.322168 -0.000182271  -0.00900221 -0.321476 -0.000163317  -0.0110862 -0.349625 -0.000136852  -0.00188351 -0.350319 -0.00013113  -0.00121522 -0.340956 -0.00015521  -0.0110762 -0.349628 -0.000134706  -0.0103939 -0.340266 -0.000148654  -0.00120091 -0.340972 -0.000147939  -0.0103862 -0.340282 -0.000143647  -0.0124495 -0.368156 -0.000112891  -0.00323462 -0.368863 -9.89437e-05  -0.00257659 -0.359602 -0.000114322  -0.0124402 -0.368163 -0.000115633  -0.0117705 -0.358909 -0.000125051  -0.00256205 -0.359615 -0.000115156  -0.0117614 -0.358922 -0.00012517  0.00135492 -0.00252908 -0.00211346  0 0 0  0.00176597 -0.00354064 -0.00221407  0.000636943 -0.00131232 -0.00159764  0 0 0  0.00131683 -0.00293165 -0.00166583  0.000455163 -0.000953197 -0.00123334  0 0 0  0.000581272 -0.00154847 -0.00125694  0.000435345 -0.00119328 -0.00095582  0.00392964 -0.00746816 -0.00324917  0.00511158 -0.00908369 -0.00349009  0.00347611 -0.00546646 -0.00369823  0.00381336 -0.00820553 -0.00261664  0.00255685 -0.00470287 -0.00276172  0.00332659 -0.00608975 -0.00295424  0.00247411 -0.00531065 -0.00220895  0.00677413 -0.0147048 -0.00365615  0.00891346 -0.0165393 -0.00401855  0.00721404 -0.0117123 -0.00468338  0.00663403 -0.0155948 -0.00301683  0.00536072 -0.0108117 -0.00350761  0.00700888 -0.0125812 -0.00383079  0.0052208 -0.0116524 -0.00286758  0.00941044 -0.0238765 -0.00368285  0.0125076 -0.0257617 -0.00407672  0.0109128 -0.0199829 -0.00492334  0.00931501 -0.0248305 -0.00306404  0.00812587 -0.0190598 -0.00370121  0.0107518 -0.0209401 -0.00408423  0.00800505 -0.0199971 -0.00307107  0.0117381 -0.034727 -0.00351238  0.0157107 -0.0365829 -0.00388873  0.0142545 -0.0299954 -0.00479722  0.011676 -0.0356823 -0.00293303  0.0106209 -0.0290949 -0.00361562  0.014167 -0.0309801 -0.00400233  0.0105403 -0.0300628 -0.00301504  0.0136828 -0.0470636 -0.00324738  0.0184418 -0.0488485 -0.00359428  0.0171694 -0.0415875 -0.00448275  0.0136541 -0.0479746 -0.0027169  0.0127596 -0.04071 -0.00338697  0.0171347 -0.0425439 -0.00374949  0.012714 -0.0416574 -0.00283241  0.01525 -0.0606999 -0.00295269  0.0207077 -0.0623999 -0.00325978  0.0196298 -0.0545751 -0.0040977  0.0152417 -0.0615481 -0.00247014  0.0145134 -0.0537183 -0.0031023  0.0196327 -0.0554725 -0.00342953  0.014496 -0.0546105 -0.00259638  0.016449 -0.0754711 -0.00265479  0.022526 -0.0770766 -0.00292325  0.0216472 -0.0687845 -0.00369382  0.0164543 -0.076238 -0.00222266  0.0158965 -0.0679424 -0.00280333  0.021671 -0.0696061 -0.00309157  0.0158937 -0.0687616 -0.00234699  0.0173 -0.0912132 -0.0023663  0.0239224 -0.0927269 -0.00259721  0.0232385 -0.0840491 -0.00329649  0.0173135 -0.0919001 -0.00198066  0.0169169 -0.0832178 -0.00250912  0.0232756 -0.0847882 -0.00275898  0.0169266 -0.0839559 -0.00210118  0.0178272 -0.107783 -0.00209212  0.0249281 -0.109205 -0.00228906  0.0244291 -0.100215 -0.00291634  0.017846 -0.108384 -0.00175369  0.0176051 -0.0993919 -0.00222731  0.0244722 -0.10087 -0.00244141  0.0176189 -0.100046 -0.00186634  0.018056 -0.125042 -0.00183523  0.0255728 -0.126378 -0.00200021  0.025247 -0.117138 -0.00255859  0.0180788 -0.125565 -0.00153863  0.0179775 -0.116322 -0.00196147  0.0252939 -0.117711 -0.00214255  0.0179983 -0.116895 -0.00164509  0.0180155 -0.142868 -0.00159574  0.0258913 -0.144121 -0.00173223  0.0257225 -0.134689 -0.00222468  0.0180417 -0.143313 -0.00134051  0.0180702 -0.133879 -0.00171328  0.0257709 -0.135184 -0.00186443  0.0180924 -0.134374 -0.0014385  0.0177339 -0.161145 -0.00137377  0.0259142 -0.162322 -0.00148416  0.0258878 -0.152747 -0.00191462  0.0177625 -0.161523 -0.00115502  0.0179038 -0.151944 -0.00148261  0.025938 -0.153169 -0.00160611  0.0179309 -0.152366 -0.00124669  0.0172398 -0.179774 -0.00116944  0.0256765 -0.180878 -0.00125718  0.0257764 -0.171205 -0.00162923  0.0172701 -0.180085 -0.000986218  0.0175143 -0.17041 -0.00126946  0.0258263 -0.17156 -0.00136864  0.0175413 -0.170764 -0.00106955  0.01656 -0.198659 -0.000983357  0.0252073 -0.199696 -0.00105011  0.0254194 -0.189965 -0.0013684  0.0165918 -0.198913 -0.00083077  0.016922 -0.189177 -0.00107419  0.0254688 -0.190258 -0.00115132  0.0169529 -0.18947 -0.000907302  0.015722 -0.217721 -0.00081563  0.0245404 -0.218694 -0.000864506  0.0248489 -0.208939 -0.00113273  0.0157547 -0.21792 -0.000692368  0.0161619 -0.208161 -0.000897408  0.024897 -0.209176 -0.000955105  0.0161916 -0.208398 -0.000760317  0.0147507 -0.236882 -0.00066638  0.0237031 -0.237799 -0.000699401  0.0240948 -0.228049 -0.000921726  0.0147829 -0.237036 -0.000567436  0.0152524 -0.22728 -0.000738621  0.0241416 -0.228236 -0.000779629  0.0152843 -0.227468 -0.000628591  0.0136697 -0.256081 -0.000535965  0.0227249 -0.256946 -0.000556469  0.0231869 -0.247227 -0.000736237  0.013701 -0.256193 -0.000460386  0.0142255 -0.246468 -0.000599027  0.0232301 -0.247369 -0.000625491  0.0142543 -0.246611 -0.0005126  0.0125003 -0.275261 -0.000424385  0.02163 -0.27608 -0.000434279  0.0221503 -0.266411 -0.000576258  0.0125301 -0.27534 -0.000367284  0.0130959 -0.265664 -0.000478029  0.0221908 -0.266516 -0.00049293  0.0131257 -0.26577 -0.000412464  0.0112624 -0.294378 -0.000330448  0.0204449 -0.295158 -0.00033319  0.0210114 -0.285554 -0.00044179  0.0112903 -0.294427 -0.000290632  0.0118916 -0.284818 -0.00037539  0.0210478 -0.285627 -0.000381589  0.0119178 -0.284892 -0.000327706  0.00997257 -0.313393 -0.000253558  0.0191896 -0.314139 -0.000250936  0.0197923 -0.304613 -0.000331163  0.00999832 -0.313422 -0.000226498  0.0106239 -0.303887 -0.000290394  0.019825 -0.30466 -0.000290036  0.0106502 -0.303937 -0.00025773  0.00864601 -0.33228 -0.000189662  0.0178843 -0.333 -0.000184894  0.018513 -0.323556 -0.000241876  0.00867033 -0.332291 -0.000175357  0.00931549 -0.322842 -0.000220418  0.0185421 -0.323585 -0.000216603  0.00933814 -0.322872 -0.000200391  0.00729799 -0.351014 -0.000133872  0.0165472 -0.351722 -0.000127435  0.0171907 -0.34236 -0.000167847  0.00732231 -0.351018 -0.000128388  0.00797462 -0.341654 -0.000161886  0.0172188 -0.342377 -0.000155807  0.00799799 -0.341672 -0.000152349  0.0059557 -0.369569 -7.54595e-05  0.015209 -0.370296 -7.20024e-05  0.0158482 -0.361012 -9.76324e-05  0.00597906 -0.369574 -8.4281e-05  0.00662661 -0.360304 -0.000104904  0.0158751 -0.361027 -9.95398e-05  0.00664783 -0.360318 -0.000106335  0.00233811 -0.00392854 -0.00349367  0 0 0  0.00285178 -0.00545746 -0.00341225  0.000976339 -0.00239581 -0.00245488  0 0 0  0.00228639 -0.00437647 -0.00278056  0.000771992 -0.00178856 -0.00201023  0 0 0  0.000932664 -0.00266963 -0.00190032  0.000746705 -0.00204027 -0.0015614  0.00679076 -0.00944781 -0.00546753  0.00831386 -0.0116864 -0.00534534  0.00563531 -0.00783151 -0.00573754  0.0066303 -0.0102319 -0.00440347  0.00441423 -0.00647992 -0.00464118  0.00539534 -0.00843436 -0.00456536  0.00431041 -0.00711626 -0.00372314  0.011618 -0.0167776 -0.00611305  0.0141806 -0.0191478 -0.00609851  0.0115443 -0.0142588 -0.00715327  0.0114204 -0.0177264 -0.00504577  0.00923735 -0.012854 -0.00588799  0.0112754 -0.0151919 -0.00584996  0.0090324 -0.0137573 -0.00481343  0.016036 -0.0259053 -0.0061177  0.0195874 -0.0282378 -0.00612772  0.0171386 -0.0224531 -0.00743461  0.0159255 -0.0269014 -0.00509238  0.0138786 -0.0211151 -0.00616622  0.0169472 -0.0234811 -0.00616944  0.0137262 -0.0221069 -0.00511861  0.0199899 -0.0366893 -0.00580668  0.0244111 -0.038936 -0.00583601  0.0221671 -0.0323635 -0.00720692  0.0199395 -0.0376715 -0.00485361  0.0180821 -0.0310879 -0.00599205  0.0220749 -0.0333908 -0.00601184  0.0179968 -0.0320939 -0.00499868  0.0234073 -0.0489632 -0.00535202  0.0286099 -0.0510913 -0.00537598  0.02661 -0.0438614 -0.00672054  0.0234116 -0.0498897 -0.00447762  0.0217639 -0.0426412 -0.00559199  0.0265883 -0.0448381 -0.00561714  0.0217441 -0.0436081 -0.00467646  0.0263059 -0.0625525 -0.004848  0.0321944 -0.064561 -0.00486994  0.0304488 -0.0567676 -0.00613165  0.0263427 -0.0634071 -0.00405729  0.0249226 -0.0555944 -0.0051049  0.030477 -0.0576717 -0.00512755  0.0249432 -0.0564958 -0.00427103  0.0287 -0.0772837 -0.00434053  0.0351906 -0.0791656 -0.00435185  0.0337104 -0.0709092 -0.00551522  0.0287561 -0.0780538 -0.00363135  0.0275648 -0.0697756 -0.00459516  0.0337644 -0.0717292 -0.00461137  0.0276127 -0.0705979 -0.00384426  0.0306143 -0.0929952 -0.00384879  0.0376306 -0.0947583 -0.00385523  0.0364065 -0.0861128 -0.00490677  0.0306804 -0.093682 -0.00322032  0.0297174 -0.0850163 -0.00409353  0.0364779 -0.0868472 -0.00410187  0.0297774 -0.0857539 -0.00342405  0.0320785 -0.109537 -0.00338364  0.0395499 -0.11118 -0.00338113  0.0385767 -0.102224 -0.00432599  0.032149 -0.110138 -0.00283062  0.0314014 -0.10116 -0.00361395  0.0386534 -0.102872 -0.00361598  0.0314698 -0.101814 -0.00302291  0.033124 -0.126769 -0.00294685  0.0409882 -0.128303 -0.00294054  0.0402461 -0.119094 -0.00377762  0.0331966 -0.127292 -0.00246656  0.0326532 -0.118064 -0.0031625  0.0403268 -0.119661 -0.00315785  0.0327232 -0.118635 -0.00264573  0.033788 -0.14457 -0.0025413  0.0419849 -0.145995 -0.00252879  0.0414599 -0.136595 -0.00326681  0.0338603 -0.145015 -0.00212777  0.0335023 -0.135595 -0.00274146  0.0415395 -0.137084 -0.0027318  0.0335745 -0.136089 -0.00229442  0.0341047 -0.162822 -0.00216639  0.0425822 -0.164148 -0.00215065  0.0422512 -0.154603 -0.00279248  0.0341767 -0.163198 -0.00181556  0.0339895 -0.153635 -0.00235069  0.0423312 -0.15502 -0.00233626  0.0340596 -0.154055 -0.00196874  0.0341129 -0.181424 -0.00182271  0.0428202 -0.182654 -0.00180292  0.0426674 -0.173012 -0.00235713  0.0341825 -0.181734 -0.00152886  0.0341463 -0.172074 -0.00199151  0.0427439 -0.173362 -0.00197351  0.0342164 -0.172427 -0.00166941  0.0338465 -0.200282 -0.00151086  0.0427397 -0.201425 -0.00148809  0.042743 -0.191723 -0.00195897  0.0339141 -0.200534 -0.00126922  0.0340137 -0.190814 -0.00166321  0.0428175 -0.192011 -0.00164187  0.0340807 -0.191105 -0.00139606  0.0333426 -0.219314 -0.0012306  0.0423799 -0.220374 -0.00120521  0.0425227 -0.210648 -0.00160027  0.033407 -0.219513 -0.00103521  0.0336232 -0.209769 -0.00136697  0.0425924 -0.21088 -0.00134301  0.0336885 -0.210005 -0.0011493  0.032634 -0.238446 -0.000982642  0.0417795 -0.239432 -0.000955105  0.0420413 -0.22971 -0.00127983  0.0326948 -0.238598 -0.00082922  0.0330141 -0.22886 -0.00110269  0.0421076 -0.229892 -0.00107622  0.0330746 -0.229045 -0.000929117  0.0317538 -0.257616 -0.000766277  0.0409751 -0.258533 -0.00073874  0.0413406 -0.248841 -0.000999689  0.0318096 -0.257726 -0.000649214  0.0322149 -0.248018 -0.000870585  0.0414007 -0.248979 -0.000843167  0.0322721 -0.248159 -0.000735998  0.0307312 -0.276766 -0.000583529  0.0400023 -0.277624 -0.000555277  0.0404525 -0.26798 -0.000758886  0.0307822 -0.276843 -0.000497818  0.031261 -0.267184 -0.00067091  0.040508 -0.268081 -0.000643134  0.031312 -0.267287 -0.000570416  0.0295966 -0.295855 -0.000431895  0.0388944 -0.29666 -0.000406265  0.0394146 -0.28708 -0.000558496  0.0296416 -0.295902 -0.000371814  0.0301778 -0.286309 -0.000503898  0.0394635 -0.28715 -0.000476956  0.0302248 -0.286381 -0.000431776  0.028374 -0.314842 -0.000311017  0.0376847 -0.315606 -0.00028789  0.0382566 -0.306099 -0.000397325  0.0284145 -0.314869 -0.000272393  0.0289969 -0.305351 -0.00036788  0.0383008 -0.306145 -0.000343204  0.0290375 -0.305397 -0.000319362  0.0270879 -0.333706 -0.000214696  0.0364017 -0.334439 -0.000198245  0.0370121 -0.325008 -0.000272155  0.0271249 -0.333716 -0.000192761  0.0277383 -0.324278 -0.000259995  0.0370505 -0.325036 -0.000240088  0.0277765 -0.324307 -0.000230551  0.0257607 -0.352428 -0.00013411  0.0350738 -0.353146 -0.000125289  0.0357051 -0.343789 -0.000176311  0.0257959 -0.352432 -0.000126839  0.0264304 -0.343072 -0.000173569  0.0357425 -0.343806 -0.000160575  0.0264642 -0.34309 -0.000159383  0.0244195 -0.371016 -5.43594e-05  0.0337269 -0.371747 -5.78165e-05  0.0343654 -0.362442 -9.25064e-05  0.0244539 -0.371022 -6.38962e-05  0.0250907 -0.361725 -9.41753e-05  0.0344014 -0.362456 -9.17912e-05  0.0251238 -0.36174 -9.50098e-05  0.00396714 -0.00648612 -0.00523448  0 0 0  0.00588608 -0.00887483 -0.00469756  0.00251535 -0.00490683 -0.00349152  0 0 0  0.00392717 -0.00695634 -0.00414705  0.00127672 -0.00321317 -0.00294518  0 0 0  0.00236232 -0.00517851 -0.00277495  0.00126459 -0.00354487 -0.00228405  0.0105029 -0.0124806 -0.0078665  0.0130339 -0.0153621 -0.00722778  0.00966902 -0.0109475 -0.00781369  0.0104702 -0.0134374 -0.0062964  0.00705606 -0.00936425 -0.00683105  0.00937104 -0.0119335 -0.00616872  0.00706142 -0.0100769 -0.00541639  0.0174911 -0.0197088 -0.00870681  0.02073 -0.0225525 -0.00813711  0.0171624 -0.0176994 -0.00965929  0.0172627 -0.0207692 -0.00714493  0.0140959 -0.0159154 -0.00842106  0.0169292 -0.0187058 -0.00783825  0.0139003 -0.0168667 -0.00685942  0.0236874 -0.0286943 -0.00863469  0.0278535 -0.0314269 -0.00820184  0.0245961 -0.0256327 -0.0100247  0.0235537 -0.0297551 -0.00716901  0.0206746 -0.0239738 -0.00873935  0.0243787 -0.0267723 -0.0082562  0.0204873 -0.02505 -0.00723147  0.0292297 -0.0393473 -0.00819671  0.0342492 -0.0419204 -0.00778484  0.0312711 -0.0353877 -0.0096823  0.0291684 -0.0403555 -0.00682259  0.0265427 -0.0338034 -0.0084517  0.0311478 -0.0364685 -0.00803077  0.0264469 -0.0348566 -0.00703371  0.0340818 -0.0515037 -0.00752532  0.0398649 -0.0539289 -0.00718033  0.0372245 -0.0467426 -0.00900912  0.0340814 -0.0524425 -0.0062834  0.0317456 -0.0452328 -0.0078764  0.0371563 -0.0477458 -0.00749838  0.0317136 -0.0462211 -0.00657058  0.0382687 -0.0650007 -0.00682449  0.0447209 -0.0672666 -0.0064888  0.0423965 -0.0595306 -0.00820506  0.0383068 -0.0658481 -0.00569057  0.0362545 -0.0580823 -0.00718033  0.0423841 -0.0604411 -0.00683856  0.0362772 -0.0589891 -0.00599456  0.0418127 -0.0796414 -0.00608206  0.0488422 -0.0817622 -0.00579941  0.0468632 -0.0735641 -0.00736582  0.041873 -0.0804051 -0.00508034  0.0401247 -0.0721737 -0.00645328  0.0468732 -0.0743796 -0.00614262  0.0401716 -0.0729914 -0.00538778  0.0447421 -0.0952747 -0.00539351  0.0522723 -0.0972463 -0.00512183  0.0506041 -0.0886657 -0.00654066  0.0448146 -0.0959467 -0.00449705  0.0433503 -0.0873306 -0.00573516  0.0506396 -0.08939 -0.00545645  0.0434185 -0.0880604 -0.00478852  0.0470933 -0.111736 -0.00471401  0.0550481 -0.113571 -0.00448799  0.0537016 -0.104677 -0.0057528  0.0471711 -0.112327 -0.00393808  0.0459924 -0.103397 -0.00505006  0.0537405 -0.105312 -0.00479996  0.0460643 -0.10404 -0.00421607  0.0489048 -0.128896 -0.00409973  0.057223 -0.130595 -0.0038867  0.0561565 -0.121451 -0.00500977  0.0489849 -0.129405 -0.00341952  0.0480626 -0.120224 -0.00440252  0.0562068 -0.122004 -0.00418198  0.0481424 -0.120785 -0.00367653  0.0502207 -0.146621 -0.00350964  0.0588393 -0.148195 -0.00333571  0.0580511 -0.138856 -0.0043174  0.0503008 -0.147057 -0.00293386  0.0496262 -0.137682 -0.00379992  0.0580988 -0.139331 -0.00360572  0.0497029 -0.138165 -0.00317419  0.0510845 -0.164802 -0.00298035  0.0599523 -0.166252 -0.00282037  0.0594009 -0.156771 -0.00367486  0.0511637 -0.165167 -0.00248861  0.050706 -0.155649 -0.00323975  0.0594552 -0.157173 -0.00307178  0.0507857 -0.15606 -0.0027082  0.051542 -0.183332 -0.00248289  0.0606055 -0.184669 -0.00235391  0.0602837 -0.175087 -0.00308526  0.0516186 -0.183635 -0.00207901  0.0513651 -0.174017 -0.00272632  0.0603336 -0.175423 -0.00258112  0.0514394 -0.174361 -0.00228047  0.0516368 -0.202121 -0.00204074  0.0608532 -0.203349 -0.00192618  0.0607237 -0.193708 -0.00254607  0.0517104 -0.202364 -0.00170815  0.051632 -0.192687 -0.00225639  0.0607768 -0.193982 -0.00213337  0.051707 -0.192971 -0.00188982  0.0514133 -0.221085 -0.00163734  0.0607393 -0.222214 -0.00154614  0.0607896 -0.212545 -0.00206029  0.0514827 -0.221276 -0.00137532  0.0515652 -0.211574 -0.0018332  0.0608382 -0.212764 -0.00172973  0.0516338 -0.211801 -0.00153768  0.0509136 -0.240152 -0.00128543  0.0603142 -0.241187 -0.00120747  0.0605128 -0.231521 -0.00162709  0.0509789 -0.240296 -0.00108099  0.0511961 -0.230597 -0.00145543  0.0605626 -0.231692 -0.00137019  0.0512626 -0.230776 -0.0012238  0.0501795 -0.259259 -0.000978231  0.0596201 -0.260211 -0.000917435  0.0599527 -0.250571 -0.00124836  0.05024 -0.259363 -0.000827312  0.0505762 -0.249692 -0.00112569  0.0599973 -0.250697 -0.00105584  0.0506361 -0.249826 -0.000949621  0.0492501 -0.278351 -0.000718951  0.0587058 -0.279227 -0.00067091  0.0591433 -0.269634 -0.00092411  0.0493052 -0.27842 -0.000611901  0.0497382 -0.268797 -0.000842094  0.0591884 -0.269724 -0.000787258  0.0497949 -0.268895 -0.000714779  0.0481644 -0.297386 -0.000509381  0.0576108 -0.298201 -0.000473857  0.0581372 -0.288664 -0.000656605  0.048214 -0.297429 -0.000438809  0.0487268 -0.287866 -0.000607729  0.0581772 -0.288723 -0.000565529  0.0487764 -0.287933 -0.000520229  0.0469594 -0.316326 -0.00034523  0.0563827 -0.317089 -0.000320792  0.0569711 -0.307621 -0.000445127  0.0470049 -0.316349 -0.000302672  0.0475757 -0.306857 -0.000421047  0.0570114 -0.307658 -0.00039053  0.0476222 -0.306901 -0.000365973  0.0456722 -0.335154 -0.000225663  0.055064 -0.335884 -0.000211954  0.0556936 -0.326479 -0.000288606  0.0457139 -0.335163 -0.00020349  0.0463257 -0.325743 -0.000280023  0.0557306 -0.326501 -0.000260472  0.0463672 -0.32577 -0.000248909  0.0443349 -0.353855 -0.000133395  0.0536969 -0.354567 -0.000130296  0.0543432 -0.345223 -0.000179172  0.0443764 -0.35386 -0.000125885  0.0450091 -0.344507 -0.000176907  0.0543842 -0.345239 -0.000167966  0.0450499 -0.344525 -0.00016284  0.0429788 -0.372467 -4.82798e-05  0.0523148 -0.37317 -5.91278e-05  0.0529678 -0.363868 -9.35793e-05  0.0430138 -0.372464 -5.50747e-05  0.0436604 -0.363157 -9.11951e-05  0.0530066 -0.363877 -9.70364e-05  0.0436974 -0.363171 -9.08375e-05  -0.00597574 -0.00641529 0.0078752  -0.00370748 -0.00328545 0.00600672  0 0 0  -0.00571603 -0.0033948 0.00824332  0 0 0  -0.00327923 -0.00328001 0.00554061  -0.00196135 -0.000856183 0.00433064  0 0 0  -0.00234547 -0.00378751 0.00443745  -0.00432921 -0.00462941 0.00674319  -0.00240647 -0.00164166 0.00488472  0 0 0  -0.00108183 -0.00148567 0.00309229  -0.00139746 -0.00236409 0.00362396  -0.0134815 -0.0109718 0.0113628  -0.0109629 -0.00689299 0.0117073  -0.0112958 -0.00765692 0.0114965  -0.00855552 -0.00807706 0.00816774  -0.00668314 -0.00396404 0.00831676  -0.00975899 -0.00856189 0.00996661  -0.0107937 -0.00938292 0.00990105  -0.00851877 -0.00539703 0.0100422  -0.00583032 -0.0054535 0.00717568  -0.00750352 -0.00686051 0.00872445  -0.0209865 -0.0173849 0.0123684  -0.0176716 -0.0120204 0.0138907  -0.0172493 -0.0141626 0.0120845  -0.0139543 -0.0148024 0.0088594  -0.01151 -0.00940338 0.00993299  -0.0172893 -0.0139534 0.0121191  -0.0172276 -0.0159893 0.0106294  -0.0142838 -0.0106039 0.0118928  -0.0112487 -0.0111689 0.0086832  -0.0140459 -0.0124493 0.0104191  -0.0280555 -0.0256868 0.0120125  -0.0244135 -0.0194907 0.0139749  -0.0230473 -0.0227194 0.0117707  -0.019159 -0.0234299 0.00871325  -0.0164495 -0.0171361 0.0100656  -0.0245802 -0.021315 0.0123007  -0.0233665 -0.0244653 0.0103855  -0.0201774 -0.018199 0.0120184  -0.0165875 -0.018886 0.00886583  -0.0203328 -0.0200031 0.010613  -0.0346779 -0.0356813 0.0112433  -0.0309974 -0.0288416 0.0132277  -0.028657 -0.0331144 0.0109651  -0.0241402 -0.0338141 0.00814486  -0.0213104 -0.0267919 0.00960374  -0.0314161 -0.0304886 0.0116885  -0.029162 -0.0346762 0.00969315  -0.0258627 -0.0277122 0.011404  -0.021676 -0.0284228 0.00847173  -0.026311 -0.0293741 0.0100961  -0.0408598 -0.0472341 0.0101089  -0.0372719 -0.0398591 0.0120976  -0.0340461 -0.0450074 0.00995064  -0.0288852 -0.0456788 0.00739288  -0.0260434 -0.0380967 0.00883675  -0.0378315 -0.0412881 0.0107009  -0.0346285 -0.0463976 0.00878334  -0.0313969 -0.0388871 0.010473  -0.0265433 -0.0395735 0.00779176  -0.0319321 -0.0403652 0.00926995  -0.0466173 -0.0600667 0.00904202  -0.0432029 -0.0522624 0.0108495  -0.0391728 -0.0582199 0.00887918  -0.0333928 -0.0588627 0.00659037  -0.0306332 -0.0508095 0.00795674  -0.0437842 -0.0535051 0.00959277  -0.0397733 -0.0594186 0.00782752  -0.0366305 -0.0514651 0.00941634  -0.0311674 -0.0521208 0.00700426  -0.0372443 -0.0527589 0.00832295  -0.0519651 -0.0740591 0.00789309  -0.0487521 -0.0658736 0.00959158  -0.0440064 -0.0725246 0.00781751  -0.0376531 -0.0731557 0.00579357  -0.0350104 -0.0647309 0.00705528  -0.0493495 -0.0669378 0.00846863  -0.0445907 -0.0735711 0.00687551  -0.0416401 -0.0652424 0.00834084  -0.0355552 -0.0658786 0.00619745  -0.0422202 -0.0663665 0.00735927  -0.0569071 -0.089016 0.00689554  -0.0539299 -0.0805121 0.00838947  -0.0485342 -0.0878113 0.00681019  -0.0416611 -0.0884336 0.00504065  -0.0391726 -0.0796852 0.00618243  -0.0544821 -0.0814288 0.00739837  -0.049082 -0.0886977 0.00598192  -0.0462987 -0.0800549 0.00730491  -0.0396872 -0.080682 0.00542021  -0.0468789 -0.0810224 0.00643301  -0.0614604 -0.104842 0.00589919  -0.0587081 -0.0960605 0.00726056  -0.0527443 -0.103906 0.00586891  -0.0454152 -0.104533 0.00433588  -0.0430849 -0.0955311 0.00535822  -0.0592366 -0.0968367 0.00639296  -0.0532509 -0.104668 0.00514412  -0.0506874 -0.09576 0.00632739  -0.04357 -0.0963864 0.0046885  -0.0512042 -0.0965877 0.00556326  -0.0656368 -0.121383 0.00504303  -0.0631205 -0.112373 0.00622082  -0.0566481 -0.120723 0.00500202  -0.0489196 -0.121352 0.00369143  -0.0467559 -0.112132 0.00459504  -0.0635924 -0.113032 0.00547171  -0.0571076 -0.121354 0.00437951  -0.0547262 -0.112228 0.00542545  -0.0471967 -0.112861 0.00401378  -0.0552188 -0.112929 0.0047617  -0.0694574 -0.138554 0.00421357  -0.0671564 -0.129357 0.00526309  -0.060248 -0.138119 0.00420809  -0.0521802 -0.138758 0.00309873  -0.0501776 -0.129374 0.00389171  -0.0675939 -0.129903 0.0046227  -0.0606629 -0.138648 0.00367665  -0.0584908 -0.129347 0.00459361  -0.0505798 -0.129986 0.00339365  -0.0589204 -0.129934 0.00402594  -0.0729393 -0.156229 0.00349832  -0.0708543 -0.146885 0.00439262  -0.0635633 -0.156016 0.00348544  -0.055207 -0.156659 0.00256443  -0.0533626 -0.147144 0.00325131  -0.0712383 -0.147336 0.00385451  -0.0639321 -0.156441 0.00304151  -0.0619341 -0.147005 0.00383735  -0.053721 -0.147653 0.00283003  -0.0623331 -0.147488 0.00335693  -0.0761042 -0.174328 0.00282311  -0.0742147 -0.164875 0.00360036  -0.0666039 -0.174297 0.00283217  -0.0580102 -0.174947 0.00207806  -0.0563161 -0.165346 0.00266886  -0.0745621 -0.165236 0.00315452  -0.0669304 -0.174638 0.00246549  -0.0651202 -0.165105 0.00314832  -0.0566355 -0.165759 0.00231838  -0.0654631 -0.165496 0.00274944  -0.0789733 -0.192746 0.0022397  -0.0772727 -0.183219 0.00289035  -0.069392 -0.192888 0.00224686  -0.0606035 -0.19354 0.00164604  -0.0590519 -0.18388 0.00214624  -0.0775743 -0.183503 0.00252938  -0.0696754 -0.193146 0.00195122  -0.0680239 -0.18355 0.00253105  -0.0593315 -0.18421 0.00185943  -0.0683336 -0.183858 0.00220442  -0.0815693 -0.211414 0.00170755  -0.0800407 -0.201844 0.00225329  -0.0719399 -0.211695 0.0017271  -0.0629991 -0.212348 0.00125957  -0.0615821 -0.202666 0.00167847  -0.080305 -0.202057 0.00196743  -0.0721847 -0.211887 0.00149417  -0.0706962 -0.202258 0.00197768  -0.0618248 -0.20292 0.00144911  -0.0709577 -0.202493 0.00171757  -0.0839155 -0.230244 0.00125074  -0.0825487 -0.220659 0.00169349  -0.0742719 -0.230652 0.00127316  -0.065212 -0.231304 0.000925779  -0.0639193 -0.221622 0.00126791  -0.0827724 -0.220813 0.00147557  -0.0744772 -0.230782 0.00109529  -0.073128 -0.221147 0.00149202  -0.0641268 -0.221811 0.0010891  -0.0733567 -0.221319 0.00128937  -0.086036 -0.249177 0.000856876  -0.0848148 -0.239603 0.00120711  -0.0764043 -0.249683 0.000883341  -0.0672579 -0.250334 0.000636101  -0.0660818 -0.240679 0.000910759  -0.0850024 -0.239704 0.00104713  -0.0765738 -0.249764 0.000753403  -0.0753617 -0.24015 0.00106955  -0.0662546 -0.240812 0.000776291  -0.0755486 -0.240266 0.000917912  -0.0879564 -0.268146 0.000528097  -0.0868671 -0.258602 0.000796795  -0.0783603 -0.268736 0.00055933  -0.0691528 -0.269384 0.000398636  -0.0680814 -0.259772 0.000609636  -0.0870202 -0.25866 0.000687361  -0.0784948 -0.268774 0.000468969  -0.0773997 -0.259198 0.000713587  -0.0682228 -0.259858 0.000512838  -0.0775545 -0.259268 0.000604868  -0.0897038 -0.287103 0.000269651  -0.0887306 -0.277607 0.000460625  -0.0801594 -0.287753 0.000298738  -0.0709145 -0.2884 0.000203371  -0.0699384 -0.278849 0.000361443  -0.0888493 -0.27763 0.000392199  -0.0802624 -0.287761 0.000241518  -0.079277 -0.278238 0.00042057  -0.0700488 -0.278897 0.000295639  -0.0793962 -0.278273 0.000348091  -0.0913072 -0.306004 7.22408e-05  -0.0904317 -0.296564 0.000201225  -0.0818264 -0.306696 0.00010252  -0.0725598 -0.307344 5.6982e-05  -0.0716653 -0.297861 0.000166655  -0.0905225 -0.296563 0.000165462  -0.0819008 -0.306683 6.93798e-05  -0.0810051 -0.297222 0.000193596  -0.0717499 -0.297882 0.000125408  -0.0810959 -0.297232 0.000148773  -0.0928013 -0.324817 -5.74589e-05  -0.0920002 -0.315438 1.4782e-05  -0.0833824 -0.325529 -3.8147e-05  -0.0741084 -0.326182 -5.60284e-05  -0.0732825 -0.316772 1.85966e-05  -0.0920651 -0.315423 2.14577e-06  -0.0834355 -0.325506 -5.29289e-05  -0.0826156 -0.316113 2.55108e-05  -0.0733447 -0.316776 -3.33786e-06  -0.0826793 -0.316108 2.38419e-06  -0.0942261 -0.343526 -0.000151873  -0.0934691 -0.334202 -0.000107288  -0.0848525 -0.344242 -0.000140429  -0.0755825 -0.3449 -0.000141144  -0.0748029 -0.335561 -9.01222e-05  -0.0935209 -0.334185 -0.000106335  -0.0848966 -0.344217 -0.000141621  -0.0841241 -0.334887 -9.15527e-05  -0.0748527 -0.335555 -9.84669e-05  -0.0841732 -0.334875 -9.98974e-05  -0.0956237 -0.362157 -0.000225782  -0.0948744 -0.352852 -0.000193596  -0.0862689 -0.362855 -0.000246048  -0.0770104 -0.363508 -0.000234127  -0.0762529 -0.35422 -0.000189304  -0.0949242 -0.352846 -0.000186443  -0.0863152 -0.362839 -0.000232697  -0.0855627 -0.353541 -0.000189304  -0.0762997 -0.354213 -0.000184059  -0.085609 -0.353534 -0.00018692  -0.00350264 -0.00135915 0.00543308  0 0 0  -0.00185507 -0.00172402 0.00351834  -0.00116557 2.53022e-05 0.00273681  0 0 0  -0.00251453 -0.00235227 0.00442362  -0.0015428 -0.000351667 0.00352693  0 0 0  -0.000600528 -0.000586331 0.00200748  -0.000823762 -0.000952408 0.00254655  -0.007122 -0.00546899 0.00759053  -0.00492179 -0.00617 0.00514698  -0.00396758 -0.00237982 0.00529265  -0.00663953 -0.00698176 0.00661969  -0.00531217 -0.00300761 0.00662732  -0.00332089 -0.00360185 0.00449586  -0.00449219 -0.00436358 0.00568652  -0.0110746 -0.0121502 0.00821447  -0.00838593 -0.0130277 0.00569081  -0.00686395 -0.00781402 0.00632095  -0.0110282 -0.0138005 0.00722313  -0.00907588 -0.00850078 0.00803781  -0.00664777 -0.00933251 0.00553083  -0.00882778 -0.0101372 0.00702739  -0.0151174 -0.0209839 0.00808883  -0.0118076 -0.021915 0.00563335  -0.0100119 -0.0156787 0.0064764  -0.0153368 -0.0225795 0.00713658  -0.0130905 -0.0163141 0.00821781  -0.0101017 -0.017245 0.00571203  -0.013201 -0.0179672 0.00723767  -0.0191281 -0.0315955 0.00757146  -0.0151688 -0.0325245 0.00527668  -0.0132346 -0.0255117 0.00620794  -0.0195031 -0.033089 0.00667787  -0.0171282 -0.0260688 0.00786448  -0.0134979 -0.0270188 0.0054822  -0.0174373 -0.0276368 0.0069418  -0.0230721 -0.0437484 0.00689363  -0.0184496 -0.0446407 0.00479126  -0.0164621 -0.0370129 0.00572085  -0.0235184 -0.0450908 0.00606894  -0.0211071 -0.0374807 0.00724435  -0.0168196 -0.038408 0.00504494  -0.0215315 -0.0389184 0.00638556  -0.0269057 -0.0572005 0.00615549  -0.0216393 -0.0580581 0.00426316  -0.0196623 -0.0499378 0.00515223  -0.0273734 -0.0584011 0.00540471  -0.0250055 -0.0503072 0.00652695  -0.0200561 -0.051198 0.00453019  -0.0254661 -0.051597 0.00573945  -0.0305975 -0.0717843 0.00542736  -0.0247297 -0.0726013 0.00374508  -0.0227995 -0.0640801 0.00456715  -0.031056 -0.0728285 0.00475454  -0.0287675 -0.0643476 0.00578952  -0.0231978 -0.0651991 0.004004  -0.0292377 -0.0654858 0.00507784  -0.0341238 -0.0873175 0.00472713  -0.0277089 -0.0881092 0.00324917  -0.0258512 -0.0792613 0.00399756  -0.0345582 -0.0882297 0.00413084  -0.0323825 -0.0794241 0.00507331  -0.0262336 -0.0802431 0.00349474  -0.0328295 -0.0804183 0.0044384  -0.0374722 -0.103678 0.00407624  -0.0305675 -0.104443 0.00279093  -0.0287949 -0.0953291 0.00345993  -0.0378736 -0.104454 0.0035553  -0.0358175 -0.0953888 0.00439739  -0.0291533 -0.096181 0.00301719  -0.03624 -0.096247 0.00383878  -0.0406364 -0.120721 0.00347161  -0.0333022 -0.121472 0.00236702  -0.0316221 -0.112146 0.00296116  -0.0410022 -0.121385 0.00302124  -0.039077 -0.112105 0.00376964  -0.0319507 -0.112877 0.00257587  -0.0394607 -0.11284 0.00328326  -0.0436159 -0.138347 0.00292087  -0.0359082 -0.139081 0.00198245  -0.0343226 -0.129589 0.00250244  -0.0439448 -0.138897 0.00253725  -0.0421461 -0.129454 0.00319242  -0.0346209 -0.13021 0.00217175  -0.0424968 -0.130075 0.00277495  -0.0464133 -0.156435 0.00241756  -0.0383867 -0.157159 0.00163174  -0.0368972 -0.147546 0.00208354  -0.0467062 -0.156893 0.00209475  -0.0450362 -0.147324 0.00266504  -0.0371633 -0.148067 0.00180387  -0.0453473 -0.147842 0.00231147  -0.0490347 -0.174901 0.00196433  -0.0407379 -0.175612 0.00131726  -0.0393418 -0.165915 0.00170445  -0.0492928 -0.175267 0.00169754  -0.0477427 -0.165614 0.00218725  -0.0395774 -0.166344 0.00147128  -0.0480212 -0.166038 0.00189233  -0.0514878 -0.193643 0.00155735  -0.0429664 -0.194345 0.00103474  -0.0416611 -0.1846 0.00136399  -0.0517122 -0.193934 0.00134063  -0.0502809 -0.184228 0.00175714  -0.0418676 -0.184947 0.00117278  -0.0505223 -0.184569 0.00151491  -0.0537808 -0.212589 0.00119734  -0.0450741 -0.213279 0.000785828  -0.0438565 -0.203517 0.00106025  -0.0539727 -0.212809 0.00102592  -0.0526512 -0.203083 0.00137377  -0.0440344 -0.203791 0.000907183  -0.0528616 -0.20335 0.00117946  -0.055923 -0.231657 0.000882149  -0.0470686 -0.232337 0.000568151  -0.0459344 -0.222585 0.000793457  -0.0560846 -0.231818 0.000749826  -0.0548687 -0.222098 0.00103641  -0.0460854 -0.222796 0.000673532  -0.0550463 -0.2223 0.000884295  -0.0579264 -0.250786 0.000612259  -0.0489552 -0.251456 0.000381708  -0.0478985 -0.241737 0.000562429  -0.058059 -0.250895 0.000513792  -0.0569389 -0.241205 0.000743866  -0.0480247 -0.241892 0.000471354  -0.0570884 -0.241351 0.000628471  -0.0598018 -0.269913 0.000386953  -0.0507417 -0.270576 0.000226021  -0.0497584 -0.260909 0.000366926  -0.0599079 -0.269982 0.00031662  -0.0588779 -0.260339 0.000496626  -0.0498607 -0.261018 0.000300407  -0.0589981 -0.260439 0.000411987  -0.0615613 -0.288994 0.000204086  -0.0524344 -0.289651 9.98974e-05  -0.0515184 -0.28005 0.000205517  -0.0616429 -0.289028 0.000157118  -0.060693 -0.279449 0.00029254  -0.0515985 -0.280121 0.00015974  -0.0607884 -0.279511 0.000233889  -0.0632153 -0.307983 6.05583e-05  -0.0540433 -0.308638 -2.38419e-07  -0.0531869 -0.299115 7.65324e-05  -0.0632768 -0.307994 3.24249e-05  -0.0623994 -0.298488 0.000130177  -0.0532491 -0.299156 4.72069e-05  -0.0624714 -0.298522 9.25064e-05  -0.0647759 -0.326855 -4.93526e-05  -0.0555744 -0.327511 -7.77245e-05  -0.05477 -0.31807 -2.5034e-05  -0.0648224 -0.326849 -6.31809e-05  -0.0640044 -0.317423 3.8147e-06  -0.0548174 -0.31809 -4.1008e-05  -0.0640593 -0.317436 -1.74046e-05  -0.0662565 -0.345588 -0.000142813  -0.0570428 -0.346243 -0.000145674  -0.0562773 -0.336891 -0.000105143  -0.0662968 -0.345574 -0.000143528  -0.0655241 -0.336226 -9.29832e-05  -0.0563164 -0.336894 -0.000111341  -0.0655673 -0.336227 -0.000102043  -0.0676804 -0.364185 -0.000248432  -0.0584683 -0.364813 -0.000221014  -0.0577161 -0.355558 -0.000187635  -0.0677254 -0.364165 -0.000229836  -0.0669694 -0.354891 -0.000187635  -0.0577574 -0.35555 -0.000181437  -0.0670137 -0.354885 -0.000183344  -0.00184078 -0.000425816 0.00318003  0 0 0  -0.000802264 -0.00107107 0.00175238  -0.000539798 0.000389993 0.00138903  0 0 0  -0.00132936 -0.00130966 0.00261188  -0.000834335 0.000261724 0.00210404  0 0 0  -0.000262596 -0.000219136 0.00101376  -0.000438444 -0.000348747 0.00154185  -0.0037723 -0.00430429 0.00438976  -0.0021417 -0.00527585 0.00251341  -0.00172566 -0.00167963 0.00254035  -0.00351694 -0.00562179 0.00383186  -0.00278814 -0.00195733 0.00387716  -0.00142221 -0.00282028 0.0022037  -0.00236402 -0.00310799 0.00331879  -0.00598794 -0.0110035 0.00477648  -0.0037269 -0.0121551 0.00275898  -0.00297508 -0.00702262 0.00305605  -0.00598356 -0.0124868 0.00420904  -0.00485033 -0.00732812 0.00464535  -0.00291419 -0.00842056 0.00268936  -0.00473046 -0.00875819 0.0040791  -0.00835985 -0.0199493 0.00471663  -0.00540161 -0.0211561 0.00273371  -0.00446415 -0.014946 0.00312352  -0.00852051 -0.0214375 0.00417209  -0.00716084 -0.015218 0.00477695  -0.00455412 -0.0164152 0.0027709  -0.00724754 -0.016728 0.00422287  -0.0108061 -0.0307205 0.00442362  -0.00714344 -0.0319154 0.00255847  -0.00607592 -0.0248893 0.00299835  -0.0110688 -0.0321321 0.0039103  -0.00957328 -0.0251139 0.00458884  -0.00626498 -0.026328 0.00266027  -0.00979489 -0.0265813 0.00406194  -0.0132965 -0.0430401 0.00402093  -0.00893927 -0.0441904 0.00231004  -0.00779295 -0.0365254 0.00275683  -0.0136082 -0.0443358 0.00354314  -0.0120465 -0.0366897 0.00422907  -0.00803483 -0.0378738 0.00243902  -0.0123404 -0.0380584 0.00373435  -0.0158002 -0.0566837 0.00358653  -0.0107815 -0.0577774 0.00204229  -0.00959295 -0.0495989 0.00247002  -0.0161276 -0.0578478 0.00315022  -0.0145468 -0.0496977 0.00380492  -0.00985521 -0.0508296 0.002177  -0.0148711 -0.0509404 0.00334883  -0.0182932 -0.0714528 0.00314999  -0.012659 -0.0724894 0.00177646  -0.011452 -0.0638985 0.00217485  -0.0186154 -0.0724833 0.00275683  -0.0170485 -0.063926 0.00336623  -0.0117164 -0.0650007 0.00190854  -0.0173762 -0.0650351 0.0029521  -0.0207541 -0.0871862 0.00273609  -0.0145596 -0.088171 0.00152588  -0.0133535 -0.0792429 0.0018878  -0.0210596 -0.0880871 0.00238729  -0.0195272 -0.079197 0.00293994  -0.013607 -0.0802167 0.00164986  -0.0198436 -0.0801733 0.00256944  -0.0231665 -0.103731 0.00234652  -0.0164696 -0.10467 0.00129318  -0.0152767 -0.0954739 0.00161719  -0.0234492 -0.10451 0.00204062  -0.0219657 -0.0953533 0.00253725  -0.0155139 -0.0963245 0.00140762  -0.0222617 -0.0962039 0.00221038  -0.0255183 -0.120962 0.0019896  -0.0183777 -0.121862 0.00108099  -0.0172071 -0.11245 0.00136733  -0.0257754 -0.121628 0.00172567  -0.024349 -0.112257 0.00216413  -0.0174243 -0.113185 0.00118542  -0.0246205 -0.11299 0.00187993  -0.0278006 -0.138754 0.00166106  -0.0202723 -0.139618 0.000888348  -0.0191314 -0.130045 0.00113821  -0.0280311 -0.139316 0.00143552  -0.026667 -0.129782 0.00182128  -0.0193267 -0.130674 0.000982761  -0.0269122 -0.130407 0.00157714  -0.030008 -0.157003 0.00136518  -0.0221454 -0.157837 0.000714779  -0.0210383 -0.148144 0.000931501  -0.030212 -0.157471 0.00117612  -0.0289119 -0.147816 0.00150919  -0.0212116 -0.148674 0.000799894  -0.0291311 -0.148341 0.00130248  -0.0321361 -0.175606 0.00109649  -0.0239881 -0.176411 0.000559568  -0.0229189 -0.166642 0.000744343  -0.0323147 -0.175989 0.000939846  -0.0310805 -0.166254 0.0012269  -0.0230703 -0.167083 0.000635386  -0.0312731 -0.16669 0.00105453  -0.0341834 -0.194476 0.000858068  -0.0257959 -0.195257 0.000421524  -0.024765 -0.185443 0.000577927  -0.0343375 -0.194783 0.000731468  -0.0331682 -0.185001 0.00097394  -0.0248966 -0.185804 0.000489235  -0.0333359 -0.185356 0.000832796  -0.036149 -0.213529 0.000646114  -0.0275619 -0.214284 0.000300169  -0.026572 -0.204461 0.000429869  -0.0362799 -0.213767 0.000545025  -0.035175 -0.203972 0.000748396  -0.0266839 -0.204749 0.000359297  -0.0353185 -0.204255 0.000635147  -0.0380342 -0.232691 0.000463009  -0.0292847 -0.233426 0.000195265  -0.0283351 -0.223618 0.000301361  -0.0381434 -0.232871 0.000385046  -0.0370998 -0.223088 0.000551224  -0.0284286 -0.223843 0.000246525  -0.0372212 -0.223308 0.000462532  -0.0398402 -0.251897 0.000304222  -0.0309594 -0.252611 0.000105858  -0.030051 -0.242844 0.00019002  -0.0399287 -0.252025 0.000246048  -0.0389454 -0.24228 0.000379801  -0.0301275 -0.243014 0.000149012  -0.0390453 -0.242444 0.000312567  -0.0415707 -0.27109 0.000173807  -0.0325871 -0.271789 3.14713e-05  -0.031718 -0.262079 9.70364e-05  -0.04164 -0.271177 0.000132799  -0.0407128 -0.261486 0.000235558  -0.0317788 -0.262202 6.74725e-05  -0.0407932 -0.261604 0.000186205  -0.0432267 -0.290223 6.62804e-05  -0.0341656 -0.290908 -2.81334e-05  -0.033335 -0.281272 2.02656e-05  -0.0432801 -0.290275 3.8147e-05  -0.0424058 -0.280655 0.000116348  -0.0333817 -0.281355 4.76837e-07  -0.0424685 -0.280734 8.24928e-05  -0.0448132 -0.309259 -1.81198e-05  -0.0356963 -0.309934 -7.51019e-05  -0.0349011 -0.30038 -3.95775e-05  -0.0448532 -0.309284 -3.50475e-05  -0.0440264 -0.299743 2.09808e-05  -0.0349364 -0.300432 -5.24521e-05  -0.0440748 -0.299792 -7.15256e-07  -0.0463331 -0.328167 -8.63075e-05  -0.0371792 -0.328831 -0.000112057  -0.0364163 -0.319371 -8.82149e-05  -0.0463638 -0.328169 -9.46522e-05  -0.0455799 -0.318718 -5.43594e-05  -0.0364432 -0.319398 -9.44138e-05  -0.0456157 -0.318743 -6.65188e-05  -0.0477922 -0.346922 -0.000146866  -0.03862 -0.347578 -0.000146627  -0.0378828 -0.338218 -0.000127077  -0.0478196 -0.34691 -0.000145674  -0.0470681 -0.337553 -0.000115633  -0.037904 -0.338223 -0.000128269  -0.0470979 -0.337559 -0.000119448  -0.0491991 -0.365481 -0.000225067  -0.0400231 -0.366111 -0.000188351  -0.0393033 -0.356887 -0.000170708  -0.0492339 -0.365459 -0.000208139  -0.0484984 -0.356221 -0.000180483  -0.039326 -0.356874 -0.000165224  -0.0485303 -0.356212 -0.000174522  -0.000465922 -0.000145674 0.00100923  0 0 0  0.000137627 -0.00104564 -5.34058e-05  6.0074e-05 0.000397027 -5.98431e-05  0 0 0  -0.000319086 -0.00100303 0.000842333  -0.000221983 0.000426888 0.000659466  0 0 0  4.26099e-05 -0.000196576 -3.14713e-05  -0.000109486 -0.000176579 0.000491381  -0.000907689 -0.0038951 0.00138664  0.000353366 -0.00519323 -7.00951e-05  0.000296399 -0.00163728 -9.53674e-05  -0.00087294 -0.00514546 0.00122786  -0.000678286 -0.00158784 0.00121808  0.000247583 -0.00272995 -5.96046e-05  -0.000571191 -0.00268802 0.00106907  -0.00151685 -0.0106088 0.00148845  0.000512391 -0.0121014 -8.10623e-05  0.000525177 -0.00699219 -0.000113249  -0.00157648 -0.0120281 0.00133228  -0.00119343 -0.00691897 0.00145936  0.000445604 -0.00835145 -7.34329e-05  -0.00120747 -0.00828367 0.00129724  -0.00227281 -0.0196284 0.00146246  0.000541508 -0.0211723 -9.60827e-05  0.000652164 -0.0149629 -0.000125408  -0.002399 -0.0210654 0.00131226  -0.00187644 -0.0148574 0.00149083  0.000545442 -0.0163999 -8.58307e-05  -0.0019739 -0.0163078 0.00133276  -0.00316364 -0.0304959 0.00135994  0.000410676 -0.0320159 -0.000114918  0.000624418 -0.0249735 -0.000140429  -0.00333488 -0.0318747 0.00121498  -0.00269938 -0.0248391 0.00142241  0.00049758 -0.0263904 -0.000103951  -0.00285262 -0.0262652 0.00127244  -0.00419301 -0.042929 0.00121951  0.000104308 -0.0443868 -0.000135899  0.000417709 -0.0366872 -0.000157118  -0.00438595 -0.0442049 0.00108337  -0.00365978 -0.0365205 0.00129461  0.000279486 -0.0380242 -0.000124693  -0.00384623 -0.0378629 0.00115299  -0.00534898 -0.0566952 0.00106573  -0.000376403 -0.0580727 -0.000155687  2.74181e-05 -0.0498494 -0.000174284  -0.00554812 -0.0578501 0.000939846  -0.00475484 -0.0496458 0.00114441  -0.000114262 -0.0510761 -0.000145435  -0.00495362 -0.0508745 0.00101304  -0.00661689 -0.0715953 0.000914097  -0.00102377 -0.0728928 -0.00017333  -0.000541329 -0.0642454 -0.000190258  -0.0068112 -0.0726236 0.00080061  -0.00596833 -0.0640014 0.000989676  -0.000680089 -0.0653503 -0.000164509  -0.00616771 -0.0651049 0.000870228  -0.00797939 -0.087462 0.000768661  -0.00182366 -0.0886813 -0.000187159  -0.00127411 -0.0796928 -0.000203609  -0.00816262 -0.0883665 0.000668049  -0.00728631 -0.0794044 0.000840902  -0.00140536 -0.080674 -0.000180244  -0.00747657 -0.0803823 0.000734091  -0.00941885 -0.104142 0.000636339  -0.0027591 -0.105291 -0.000196934  -0.00215483 -0.0960298 -0.000213861  -0.00958717 -0.104928 0.000548601  -0.00868869 -0.0956958 0.000701189  -0.00227535 -0.0968908 -0.000192404  -0.00886655 -0.096552 0.000607491  -0.0109187 -0.121502 0.000513077  -0.00381339 -0.122586 -0.000203371  -0.00316381 -0.113112 -0.00022006  -0.01107 -0.122178 0.000437975  -0.010161 -0.112731 0.000573874  -0.00327229 -0.11386 -0.000200272  -0.010322 -0.113474 0.000492811  -0.0124624 -0.139418 0.000404596  -0.00496745 -0.140445 -0.000206709  -0.00428343 -0.130809 -0.000223875  -0.0125964 -0.139992 0.000341892  -0.0116838 -0.130384 0.000458241  -0.00437868 -0.131451 -0.000205278  -0.0118284 -0.13102 0.000389576  -0.014038 -0.15778 0.000305891  -0.0062058 -0.158754 -0.000207424  -0.00549483 -0.149004 -0.000224352  -0.014154 -0.158262 0.000253677  -0.0132455 -0.148537 0.000354767  -0.00557685 -0.149548 -0.000206947  -0.0133718 -0.149075 0.000297308  -0.015631 -0.176487 0.000220776  -0.00751066 -0.177414 -0.000204802  -0.0067817 -0.167589 -0.000222445  -0.0157305 -0.176884 0.000178814  -0.0148307 -0.167084 0.000262737  -0.0068506 -0.168045 -0.00020647  -0.0149405 -0.167533 0.000215769  -0.0172316 -0.195449 0.000143766  -0.00886869 -0.196331 -0.00020051  -0.00812697 -0.186469 -0.000217199  -0.0173153 -0.19577 0.000110626  -0.0164295 -0.185929 0.000181913  -0.00818396 -0.186844 -0.000202656  -0.016522 -0.186298 0.000144482  -0.0188296 -0.214581 7.86781e-05  -0.0102642 -0.215424 -0.000195503  -0.0095166 -0.205556 -0.000211716  -0.0188984 -0.214834 5.36442e-05  -0.0180295 -0.204986 0.000111103  -0.00956249 -0.205859 -0.000198126  -0.0181073 -0.205283 8.2016e-05  -0.0204175 -0.233812 2.19345e-05  -0.0116866 -0.234617 -0.000188828  -0.0109375 -0.224773 -0.000203848  -0.0204725 -0.234006 3.33786e-06  -0.0196238 -0.224176 5.03063e-05  -0.0109727 -0.225011 -0.000191927  -0.0196867 -0.22441 2.83718e-05  -0.0219882 -0.253075 -2.38419e-05  -0.0131233 -0.253849 -0.000181675  -0.0123773 -0.244049 -0.000195742  -0.0220304 -0.253217 -3.6478e-05  -0.0212033 -0.243431 -9.53674e-07  -0.0124035 -0.244231 -0.000185251  -0.0212538 -0.243609 -1.69277e-05  -0.0235357 -0.272317 -6.22272e-05  -0.0145669 -0.273061 -0.000173807  -0.0138264 -0.263325 -0.000186205  -0.0235674 -0.272415 -7.05719e-05  -0.0227635 -0.262689 -4.24385e-05  -0.0138447 -0.26346 -0.000177622  -0.0228014 -0.26282 -5.31673e-05  -0.0250568 -0.291489 -9.10759e-05  -0.0160081 -0.29221 -0.000165939  -0.0152764 -0.282552 -0.000177383  -0.025079 -0.291551 -9.56059e-05  -0.0242977 -0.281901 -7.62939e-05  -0.0152879 -0.282645 -0.000169754  -0.0243266 -0.281992 -8.32081e-05  -0.0265474 -0.310557 -0.000114202  -0.0174415 -0.311256 -0.000157356  -0.0167193 -0.301686 -0.00016737  -0.0265625 -0.31059 -0.00011611  -0.0258045 -0.301026 -0.000102043  -0.016726 -0.301747 -0.000161409  -0.0258243 -0.301084 -0.000105619  -0.0280056 -0.329489 -0.000130177  -0.0188613 -0.33017 -0.00014925  -0.0181508 -0.320697 -0.000157833  -0.0280154 -0.329497 -0.000129938  -0.0272789 -0.320029 -0.000121355  -0.0181532 -0.32073 -0.000153303  -0.0272925 -0.32006 -0.000122786  -0.0294311 -0.348257 -0.000147343  -0.0202651 -0.34892 -0.000141621  -0.0195665 -0.339556 -0.000147581  -0.0294378 -0.348246 -0.000145197  -0.0287213 -0.338883 -0.000136852  -0.0195653 -0.339567 -0.000144958  -0.0287302 -0.338893 -0.000136375  -0.0308213 -0.366794 -0.000169277  -0.0216405 -0.367445 -0.000135899  -0.0209608 -0.358225 -0.000139952  -0.0308261 -0.366772 -0.00016284  -0.0301285 -0.357552 -0.000155687  -0.020957 -0.358217 -0.000138521  -0.0301363 -0.357542 -0.000152826  0.000804111 -0.000343025 -0.00119305  0 0 0  0.00107312 -0.00143951 -0.00184345  0.000647038 0.000157654 -0.00149775  0 0 0  0.000594884 -0.00118738 -0.000944614  0.00033965 0.000312567 -0.000780821  0 0 0  0.000346608 -0.000429034 -0.00106955  0.000196673 -0.000281334 -0.0005548  0.00173569 -0.00420135 -0.00160646  0.00283524 -0.00585204 -0.00262713  0.00229885 -0.00220335 -0.00270295  0.00158039 -0.00543457 -0.00136328  0.00126643 -0.00184917 -0.00140119  0.00190465 -0.00330794 -0.00229669  0.00106503 -0.00293303 -0.00118089  0.00271824 -0.0109793 -0.00173044  0.00472522 -0.0128636 -0.00289392  0.00400096 -0.00770456 -0.00325584  0.00259569 -0.0123829 -0.00148797  0.00223586 -0.00725991 -0.00168276  0.00378492 -0.00906587 -0.00280929  0.00209641 -0.00860798 -0.00143981  0.00357932 -0.0200516 -0.00172925  0.00644809 -0.0219779 -0.00289965  0.00573945 -0.0157409 -0.00334477  0.00347412 -0.0214764 -0.00149846  0.00317118 -0.0152549 -0.00173926  0.00561327 -0.0171805 -0.00291538  0.00305781 -0.0166909 -0.00150037  0.00423747 -0.0309705 -0.00165772  0.00791925 -0.0328521 -0.00276685  0.00728989 -0.0257867 -0.00325489  0.00414485 -0.0323424 -0.00144124  0.00393689 -0.0252876 -0.00170159  0.00721902 -0.0272062 -0.00284457  0.0038377 -0.0267043 -0.00147653  0.00466698 -0.043461 -0.00155139  0.00909549 -0.0452535 -0.00256538  0.00858802 -0.0375319 -0.0030508  0.00458139 -0.0447351 -0.00135231  0.00448221 -0.0370227 -0.00160837  0.0085451 -0.038872 -0.00266957  0.00439304 -0.0383609 -0.00139976  0.00485945 -0.0572912 -0.00143075  0.00997031 -0.0589802 -0.00234222  0.00959897 -0.0507286 -0.00280452  0.00477988 -0.0584491 -0.00124907  0.00479424 -0.0502089 -0.00149322  0.0095706 -0.051961 -0.00245428  0.00471026 -0.0514383 -0.00130248  0.00482094 -0.0722633 -0.00130892  0.0105506 -0.0738449 -0.00211596  0.0103164 -0.0651658 -0.00254607  0.00474775 -0.0732984 -0.00114536  0.00486928 -0.0646324 -0.00137115  0.0102966 -0.0662786 -0.0022285  0.00479198 -0.0657412 -0.00119829  0.00456464 -0.0882065 -0.00118756  0.0108509 -0.0896856 -0.00189662  0.0107487 -0.0806606 -0.00229001  0.00449932 -0.0891204 -0.00104141  0.00472081 -0.0801104 -0.00124907  0.0107349 -0.0816514 -0.0020051  0.00464964 -0.0810964 -0.0010941  0.00410962 -0.104965 -0.00107193  0.0108913 -0.106347 -0.00168657  0.0109106 -0.0970486 -0.00204277  0.00405276 -0.105763 -0.00094223  0.00436223 -0.0964794 -0.00113034  0.0109025 -0.0979204 -0.00179005  0.00429976 -0.0973462 -0.000992298  0.0034759 -0.122403 -0.000959396  0.0106943 -0.123696 -0.00148892  0.0108244 -0.114183 -0.00180864  0.00342822 -0.123091 -0.000845432  0.00381577 -0.113594 -0.0010159  0.0108212 -0.114942 -0.0015862  0.00376153 -0.114348 -0.00089407  0.00268531 -0.140394 -0.000853777  0.0102845 -0.141603 -0.00130296  0.0105119 -0.131932 -0.00158787  0.00264692 -0.14098 -0.000755072  0.0031004 -0.131323 -0.000907183  0.0105147 -0.132585 -0.00139451  0.00305617 -0.131972 -0.00080061  0.00175869 -0.158826 -0.000753641  0.00968575 -0.15996 -0.00113082  0.00999928 -0.150175 -0.0013814  0.00172973 -0.159319 -0.000668287  0.00223994 -0.149548 -0.000804424  0.0100076 -0.15073 -0.00121546  0.00220418 -0.150099 -0.000711679  0.000717163 -0.177596 -0.000660658  0.00892401 -0.178659 -0.000971079  0.00931048 -0.168806 -0.00119066  0.000696659 -0.178004 -0.000588179  0.00125265 -0.168161 -0.000707865  0.00932455 -0.16927 -0.00104928  0.00122666 -0.168623 -0.00062871  -0.000419855 -0.196613 -0.000573158  0.00802112 -0.197613 -0.000824928  0.00847125 -0.187725 -0.00101447  -0.00043273 -0.196944 -0.000512123  0.00016129 -0.187066 -0.000617504  0.00848877 -0.188108 -0.000896215  0.00014317 -0.187446 -0.000550032  -0.00163412 -0.215793 -0.000494719  0.00700092 -0.216734 -0.000692606  0.00750351 -0.206845 -0.000854731  -0.00164008 -0.216055 -0.000444412  -0.00101697 -0.206174 -0.000534534  0.00752485 -0.207155 -0.000756979  -0.00102735 -0.206482 -0.000478506  -0.00290847 -0.235064 -0.000422001  0.00588346 -0.235953 -0.00057435  0.00642967 -0.226089 -0.000710726  -0.00290871 -0.235266 -0.000381231  -0.00226259 -0.225409 -0.000458717  0.00645328 -0.226333 -0.000631809  -0.0022676 -0.225651 -0.000412703  -0.00422835 -0.25436 -0.00035882  0.0046885 -0.2552 -0.0004704  0.00527 -0.245387 -0.00058341  -0.00422382 -0.254509 -0.000326633  -0.00356197 -0.244699 -0.000391245  0.00529528 -0.245573 -0.000521183  -0.00356126 -0.244886 -0.000354052  -0.00558043 -0.273627 -0.0003016  0.00343323 -0.274426 -0.000380278  0.00404263 -0.26468 -0.000471354  -0.00557208 -0.273731 -0.000277281  -0.00489879 -0.263987 -0.000331163  0.0040679 -0.264816 -0.00042367  -0.00489426 -0.264125 -0.000302076  -0.006953 -0.292818 -0.000253439  0.00213289 -0.293579 -0.000304222  0.00276327 -0.283916 -0.000375748  -0.00694227 -0.292885 -0.000235796  -0.00626278 -0.283221 -0.000278473  0.00278854 -0.284011 -0.0003407  -0.00625491 -0.283318 -0.000256538  -0.00833726 -0.311899 -0.000210762  0.000799417 -0.31263 -0.000240088  0.00144672 -0.303056 -0.000295162  -0.00832534 -0.311936 -0.000198364  -0.00764203 -0.302362 -0.000232697  0.00147009 -0.303117 -0.000270844  -0.00763273 -0.302424 -0.000216961  -0.00972629 -0.330838 -0.000174761  -0.000555038 -0.331541 -0.000186443  0.000102997 -0.322067 -0.00022769  -0.0097127 -0.33085 -0.000167847  -0.00903034 -0.321375 -0.000193834  0.000124454 -0.322101 -0.000212193  -0.00901842 -0.32141 -0.000183582  -0.0111129 -0.34961 -0.000140429  -0.00192022 -0.350293 -0.000137329  -0.00126052 -0.340924 -0.0001688  -0.0110962 -0.349602 -0.000138521  -0.0104182 -0.340235 -0.000159264  -0.00123715 -0.340936 -0.000162125  -0.0104058 -0.340248 -0.000154018  -0.0124774 -0.368147 -0.000103474  -0.00327158 -0.368827 -8.36849e-05  -0.00262761 -0.359595 -0.000109434  -0.0124598 -0.368129 -0.000108719  -0.0117984 -0.358905 -0.000124693  -0.00259852 -0.35959 -0.000112534  -0.0117819 -0.358899 -0.000124931  0.00213411 -0.00102139 -0.00331926  0 0 0  0.00208969 -0.00244868 -0.00354242  0.00121771 -0.000420213 -0.00278473  0 0 0  0.00158834 -0.00185794 -0.00267744  0.000917964 -8.49962e-05 -0.00219059  0 0 0  0.000665218 -0.00101042 -0.00201249  0.000518456 -0.000666857 -0.00158095  0.00454831 -0.00522023 -0.00455356  0.005537 -0.00729066 -0.00518966  0.00445357 -0.00343591 -0.00536704  0.0041849 -0.00648075 -0.00391698  0.00332785 -0.00273991 -0.0040071  0.0037449 -0.00455868 -0.00452328  0.00283049 -0.00383741 -0.00338721  0.00712925 -0.0121143 -0.00495958  0.00928292 -0.0144263 -0.00574231  0.00779459 -0.00917721 -0.00643134  0.00694415 -0.013544 -0.00431037  0.00583634 -0.00834721 -0.00481153  0.00743026 -0.0105989 -0.00557399  0.0055705 -0.00972033 -0.00417089  0.00959837 -0.0212235 -0.00492764  0.0127293 -0.0235549 -0.00571823  0.0111831 -0.0172758 -0.00660515  0.0095191 -0.0226697 -0.00430632  0.00839242 -0.016412 -0.0049665  0.0110489 -0.0187657 -0.00577116  0.00826377 -0.0178729 -0.00433636  0.0117999 -0.0321526 -0.00467443  0.0157949 -0.0344098 -0.00541759  0.0143292 -0.0273237 -0.00638032  0.0117854 -0.0335408 -0.00409222  0.0107373 -0.0264649 -0.00481606  0.0143144 -0.0287792 -0.0055902  0.0106949 -0.0278997 -0.00421762  0.0136777 -0.0446502 -0.00431752  0.0184352 -0.0467927 -0.0049963  0.017118 -0.0390532 -0.0059495  0.0136964 -0.0459384 -0.00377917  0.0127824 -0.0382081 -0.00450134  0.0171686 -0.0404227 -0.00521445  0.0127866 -0.039561 -0.00394225  0.0152071 -0.0584914 -0.00392771  0.0206445 -0.0605034 -0.00453043  0.0195132 -0.0522355 -0.00544024  0.0152422 -0.0596643 -0.00343704  0.0144876 -0.0514034 -0.00412369  0.0195934 -0.0534933 -0.00476503  0.0145149 -0.0526471 -0.0036099  0.0163867 -0.0734821 -0.00353074  0.0224319 -0.0753622 -0.00406504  0.0214962 -0.0666642 -0.0049088  0.0164295 -0.074532 -0.00308871  0.0158414 -0.0658424 -0.00372863  0.0215901 -0.0677996 -0.00429678  0.0158802 -0.0669653 -0.00326228  0.0172262 -0.0894481 -0.00314784  0.0238121 -0.0911981 -0.00361085  0.0230731 -0.0821553 -0.00438333  0.0172738 -0.0903775 -0.00275397  0.0168495 -0.0813414 -0.00333786  0.0231715 -0.0831672 -0.0038352  0.0168934 -0.082342 -0.00291991  0.0177459 -0.106234 -0.0027802  0.0248091 -0.107861 -0.00318217  0.0242567 -0.0985435 -0.00387907  0.0177963 -0.107045 -0.00243282  0.017526 -0.0977358 -0.00296211  0.024357 -0.0994347 -0.00339317  0.0175738 -0.0986167 -0.00259137  0.0179691 -0.123699 -0.00243688  0.0254502 -0.125209 -0.00277734  0.0250739 -0.11568 -0.00340176  0.0180219 -0.124401 -0.00213385  0.0178944 -0.114877 -0.00260615  0.0251725 -0.116457 -0.00297618  0.0179447 -0.115645 -0.00228071  0.0179238 -0.141716 -0.00211382  0.0257667 -0.143119 -0.00240254  0.0255485 -0.133432 -0.00295568  0.0179788 -0.142315 -0.00185227  0.0179803 -0.132634 -0.00227308  0.025647 -0.1341 -0.0025866  0.0180323 -0.133295 -0.00199056  0.0176383 -0.160172 -0.00181723  0.0257899 -0.161473 -0.00205421  0.0257167 -0.151678 -0.00254035  0.017695 -0.160677 -0.00159407  0.0178111 -0.150884 -0.00196314  0.0258132 -0.152246 -0.00222468  0.0178653 -0.151446 -0.00172067  0.0171413 -0.178964 -0.00154161  0.025553 -0.180171 -0.00173545  0.0256068 -0.170309 -0.00215793  0.0171988 -0.17938 -0.0013535  0.0174164 -0.16952 -0.00167656  0.025702 -0.170784 -0.00189114  0.0174717 -0.169991 -0.00147128  0.0164609 -0.197998 -0.00129271  0.0250871 -0.199118 -0.00144506  0.0252556 -0.189227 -0.0018084  0.0165185 -0.198337 -0.00113702  0.0168239 -0.188443 -0.0014143  0.0253468 -0.189618 -0.00158668  0.0168803 -0.188832 -0.00124264  0.0156236 -0.217191 -0.00106621  0.0244243 -0.218233 -0.00118423  0.0246905 -0.208343 -0.0014925  0.0156806 -0.217458 -0.000939369  0.0160621 -0.207567 -0.00117683  0.0247785 -0.208658 -0.0013113  0.0161177 -0.20788 -0.00103593  0.0146549 -0.23647 -0.000867128  0.0235937 -0.23744 -0.000952244  0.0239456 -0.227581 -0.00120974  0.0147102 -0.236676 -0.000766277  0.0151558 -0.226812 -0.000963449  0.0240283 -0.227828 -0.00106478  0.0152106 -0.227059 -0.000850201  0.0135789 -0.255771 -0.000690222  0.0226231 -0.256676 -0.000750303  0.0230474 -0.246869 -0.000960827  0.0136313 -0.255922 -0.00061202  0.0141313 -0.246109 -0.000775576  0.0231242 -0.247057 -0.000847578  0.014183 -0.246298 -0.000686407  0.0124166 -0.275038 -0.000540257  0.0215375 -0.275886 -0.000577927  0.0220244 -0.266151 -0.000745058  0.0124645 -0.275144 -0.000482082  0.0130091 -0.265399 -0.00061202  0.0220933 -0.266287 -0.000660181  0.0130579 -0.265538 -0.00054431  0.0111864 -0.294226 -0.000412226  0.0203619 -0.295025 -0.00043416  0.0208988 -0.285373 -0.000564098  0.01123 -0.294293 -0.000370502  0.0118113 -0.284632 -0.000473261  0.0209599 -0.285466 -0.000502586  0.0118549 -0.284728 -0.00042367  0.00990391 -0.313298 -0.000308037  0.0191157 -0.314056 -0.000316381  0.0196943 -0.304496 -0.000413418  0.00994301 -0.313336 -0.000280619  0.0105524 -0.303766 -0.000357151  0.0197465 -0.304555 -0.000372171  0.0105925 -0.303828 -0.000323296  0.00858259 -0.332227 -0.000219584  0.017817 -0.332951 -0.000221491  0.0184276 -0.323487 -0.000292301  0.00861812 -0.33224 -0.000203848  0.00924945 -0.32277 -0.000261545  0.0184717 -0.323521 -0.000266552  0.00928473 -0.322805 -0.000240564  0.00723338 -0.350991 -0.000141144  0.0164828 -0.351692 -0.000138283  0.0171123 -0.342325 -0.00019145  0.0072701 -0.350989 -0.000138283  0.0079124 -0.341619 -0.000181198  0.017154 -0.342341 -0.000179768  0.00794625 -0.341635 -0.000171423  0.00587988 -0.369549 -4.76837e-05  0.0151451 -0.370262 -5.05447e-05  0.015764 -0.360995 -9.20296e-05  0.00592637 -0.369538 -6.29425e-05  0.00655603 -0.36029 -9.98974e-05  0.0158105 -0.360999 -9.53674e-05  0.00659513 -0.360291 -0.000102997  0.00361048 -0.00233293 -0.00545216  0 0 0  0.00330743 -0.00430077 -0.00545692  0.0019925 -0.00145656 -0.00447273  0 0 0  0.00268519 -0.00323987 -0.00439167  0.00152855 -0.000849009 -0.00357962  0 0 0  0.00103746 -0.00202042 -0.00317478  0.000868462 -0.00147861 -0.00256872  0.00775719 -0.00700676 -0.00762033  0.0089336 -0.0097664 -0.00793386  0.00710857 -0.00563049 -0.00801778  0.00717992 -0.00836962 -0.00657606  0.00567745 -0.0043624 -0.00661063  0.00598858 -0.00687897 -0.00693774  0.00483811 -0.00554138 -0.00563025  0.0120738 -0.0140116 -0.00825715  0.0146461 -0.0168441 -0.00870657  0.012277 -0.011475 -0.00977969  0.0118404 -0.0155334 -0.00719333  0.00992253 -0.0102155 -0.00806475  0.0118465 -0.0130424 -0.00849724  0.00953576 -0.0117007 -0.0069983  0.0161929 -0.0231288 -0.00816631  0.0198177 -0.0258886 -0.00859284  0.0174104 -0.019561 -0.00995255  0.0161481 -0.0246301 -0.0071454  0.0141699 -0.0183215 -0.00826597  0.0172967 -0.0211473 -0.00870824  0.0140464 -0.0198591 -0.0072217  0.019933 -0.034021 -0.00771475  0.0244555 -0.0366703 -0.00813913  0.0221555 -0.0295628 -0.00958014  0.0199983 -0.0354568 -0.0067575  0.0181165 -0.0283542 -0.00796795  0.022203 -0.0310844 -0.00839925  0.0181329 -0.0298431 -0.006984  0.0232393 -0.0464894 -0.00710726  0.0285299 -0.0489859 -0.0074718  0.0264173 -0.0412419 -0.00890827  0.0233591 -0.0478098 -0.00622582  0.021642 -0.0400617 -0.00741768  0.0265641 -0.042659 -0.00781798  0.0217402 -0.0414571 -0.00650311  0.0260804 -0.0602909 -0.00644255  0.0320418 -0.0626361 -0.00677991  0.030178 -0.0543712 -0.00812864  0.0262247 -0.0614966 -0.00563884  0.0247221 -0.0532219 -0.00677538  0.0303529 -0.0556632 -0.0071311  0.0248536 -0.0545 -0.00593662  0.0284485 -0.0752593 -0.00577307  0.0349995 -0.0774388 -0.00605106  0.0333862 -0.0687482 -0.00731516  0.0286028 -0.0763319 -0.00505161  0.0273229 -0.0676292 -0.00610471  0.0335895 -0.0699117 -0.00641584  0.0274737 -0.0687825 -0.00534534  0.0303549 -0.0911942 -0.00512218  0.0374213 -0.0932225 -0.00537229  0.0360769 -0.08419 -0.00651455  0.0305103 -0.0921484 -0.00447941  0.029462 -0.0831017 -0.00544357  0.0362734 -0.085223 -0.00571036  0.0296139 -0.0841282 -0.00476384  0.0318179 -0.107962 -0.00450325  0.0393349 -0.109834 -0.00470376  0.0382369 -0.100529 -0.00574446  0.0319721 -0.108791 -0.00393891  0.0311403 -0.0994712 -0.00480795  0.0384403 -0.101439 -0.00503516  0.0312951 -0.100376 -0.00420666  0.0328685 -0.125401 -0.00392079  0.0407732 -0.127134 -0.00409698  0.0399195 -0.117619 -0.00501776  0.0330184 -0.126121 -0.00342917  0.0323963 -0.116591 -0.00420761  0.0401092 -0.118409 -0.00439739  0.0325451 -0.117379 -0.00368118  0.0335375 -0.143401 -0.00337958  0.0417742 -0.144995 -0.00351477  0.0411366 -0.135325 -0.00433731  0.0336837 -0.144012 -0.00295734  0.0332491 -0.134326 -0.00364614  0.0413264 -0.136005 -0.00380206  0.0333964 -0.135004 -0.00319052  0.0338632 -0.161833 -0.00287795  0.042377 -0.163302 -0.00299168  0.041945 -0.153525 -0.00370622  0.0340037 -0.162349 -0.00251889  0.0337442 -0.152556 -0.00312471  0.0421214 -0.154101 -0.00324941  0.0338845 -0.153131 -0.0027349  0.0338802 -0.180605 -0.00241852  0.0426234 -0.181952 -0.00249982  0.04237 -0.172111 -0.00312543  0.0340148 -0.181028 -0.00211835  0.0339091 -0.17117 -0.00264454  0.0425427 -0.172592 -0.00274158  0.0340456 -0.171652 -0.00231576  0.033626 -0.199614 -0.00200081  0.0425519 -0.200853 -0.00206351  0.0424638 -0.190985 -0.00259519  0.0337533 -0.199958 -0.00175357  0.0337875 -0.190072 -0.00220609  0.0426238 -0.191377 -0.00227714  0.033916 -0.190467 -0.00193262  0.0331349 -0.218785 -0.00162554  0.0422039 -0.21992 -0.00166345  0.0422589 -0.210057 -0.0021162  0.0332549 -0.219053 -0.00142694  0.0334091 -0.209171 -0.0018096  0.0424104 -0.21037 -0.00185871  0.0335318 -0.209489 -0.00158691  0.0324426 -0.238038 -0.00129318  0.0416162 -0.239082 -0.00131607  0.0417988 -0.229251 -0.0016892  0.032553 -0.238243 -0.00113654  0.0328145 -0.228393 -0.00145626  0.0419371 -0.229493 -0.00148487  0.0329273 -0.228639 -0.0012784  0.03158 -0.257315 -0.00100374  0.040827 -0.258273 -0.00100946  0.0411193 -0.248498 -0.0013144  0.0316801 -0.25746 -0.000884533  0.0320323 -0.247665 -0.00114536  0.041245 -0.248677 -0.00115776  0.032136 -0.24785 -0.00100732  0.0305777 -0.276555 -0.000757217  0.0398698 -0.277442 -0.000752926  0.0402558 -0.267737 -0.00099206  0.0306659 -0.276654 -0.000669718  0.0310969 -0.26693 -0.000877142  0.0403674 -0.267862 -0.000876188  0.031189 -0.267062 -0.000773668  0.029464 -0.295716 -0.000553131  0.038779 -0.296539 -0.000540018  0.0392447 -0.28692 -0.000723362  0.0295393 -0.295774 -0.000492573  0.0300353 -0.286135 -0.000652552  0.0393398 -0.287 -0.000641584  0.0301154 -0.286224 -0.000578165  0.0282617 -0.314759 -0.000388384  0.0375834 -0.315533 -0.00037384  0.0381131 -0.306003 -0.000505924  0.0283248 -0.314789 -0.000349283  0.0288746 -0.305241 -0.000468493  0.0381927 -0.306049 -0.000452518  0.0289416 -0.305296 -0.000418186  0.0269909 -0.33366 -0.000257492  0.0363123 -0.334394 -0.000244856  0.0368934 -0.324956 -0.000336647  0.027045 -0.333669 -0.000236273  0.0276351 -0.324215 -0.000321627  0.0369558 -0.324979 -0.000305414  0.0276923 -0.324246 -0.000291109  0.0256703 -0.352403 -0.00014472  0.0349905 -0.353117 -0.000141859  0.0356023 -0.343761 -0.000205994  0.0257208 -0.352402 -0.000140429  0.0263386 -0.343039 -0.000204086  0.0356565 -0.343771 -0.000192404  0.0263872 -0.343053 -0.000189066  0.0243237 -0.370994 -2.3365e-05  0.0336449 -0.371718 -4.00543e-05  0.0342677 -0.36242 -9.03606e-05  0.024379 -0.370991 -4.07696e-05  0.0249987 -0.361704 -9.17912e-05  0.0343208 -0.362428 -9.29832e-05  0.0250497 -0.361712 -9.34601e-05  0.00568308 -0.00443757 -0.00806117  0 0 0  0.00600891 -0.00750262 -0.00763464  0.00347001 -0.00402266 -0.00594282  0 0 0  0.00433744 -0.00574601 -0.00648451  0.00235865 -0.00238574 -0.00515628  0 0 0  0.00230554 -0.00412142 -0.0043385  0.00139176 -0.00275767 -0.00380111  0.0117038 -0.00982767 -0.0109863  0.0134341 -0.0132959 -0.0108614  0.0108615 -0.00864351 -0.0114727  0.0110608 -0.0114529 -0.00948  0.00870699 -0.00710446 -0.00982571  0.00961725 -0.0102382 -0.00965571  0.0076033 -0.00851625 -0.00837255  0.0179814 -0.0166923 -0.0117743  0.0211857 -0.0200654 -0.011785  0.0179136 -0.0146363 -0.0133893  0.0177384 -0.0183547 -0.0102615  0.0148836 -0.0129731 -0.0115955  0.0174286 -0.0163471 -0.0115573  0.014467 -0.0146031 -0.0100462  0.0237967 -0.0257729 -0.0115108  0.0281488 -0.0289626 -0.0116065  0.0248442 -0.0226082 -0.0134919  0.0237995 -0.0273365 -0.0100889  0.0209432 -0.0209936 -0.0117295  0.0247479 -0.0242847 -0.011791  0.0208457 -0.0226241 -0.0102575  0.0290847 -0.0365517 -0.0108762  0.0343673 -0.0396128 -0.0109262  0.031285 -0.0325364 -0.012893  0.0292239 -0.0380518 -0.00954676  0.0265152 -0.0309539 -0.0112424  0.0313606 -0.0340839 -0.0113139  0.0265923 -0.0324975 -0.00986743  0.033794 -0.048993 -0.00996828  0.0398572 -0.0518245 -0.0100303  0.0369962 -0.0441343 -0.0119505  0.0340068 -0.0503252 -0.00875449  0.0315062 -0.0425972 -0.0104454  0.0371916 -0.0455444 -0.0105023  0.0316935 -0.0440207 -0.00917625  0.0379172 -0.0626845 -0.00904775  0.0446348 -0.0653689 -0.00906301  0.0421224 -0.0571797 -0.0108716  0.0381563 -0.0639229 -0.00794077  0.0359365 -0.0556869 -0.00951982  0.042342 -0.0584472 -0.00955629  0.0361603 -0.0569777 -0.00836182  0.0414273 -0.0776166 -0.00806355  0.0487109 -0.0800743 -0.0080862  0.0464901 -0.0714603 -0.0097611  0.0416805 -0.0786864 -0.00707626  0.0397422 -0.0700227 -0.00856042  0.0467499 -0.0725937 -0.00857878  0.0399937 -0.0711814 -0.00751615  0.0443555 -0.0934478 -0.00715756  0.0521177 -0.0957549 -0.0071485  0.0502584 -0.0868064 -0.00866866  0.0446033 -0.0944214 -0.00627804  0.0429692 -0.0854214 -0.00761271  0.0505024 -0.0878072 -0.00761628  0.0432152 -0.0864483 -0.00668097  0.046706 -0.110171 -0.00625372  0.0548823 -0.11227 -0.00625253  0.0533137 -0.103043 -0.00762439  0.046952 -0.110994 -0.00548577  0.0455964 -0.101718 -0.00670552  0.0535706 -0.103922 -0.00669885  0.0458455 -0.10262 -0.00588393  0.0485325 -0.127516 -0.00544095  0.0570532 -0.129469 -0.0054183  0.0558097 -0.120036 -0.00663662  0.0487661 -0.128247 -0.00477195  0.0476875 -0.118764 -0.00584626  0.0560441 -0.120796 -0.00583124  0.0479232 -0.119548 -0.0051291  0.0498579 -0.145465 -0.00465345  0.0586694 -0.147235 -0.004637  0.0576853 -0.137639 -0.00571609  0.0500853 -0.146069 -0.00408268  0.0492524 -0.136427 -0.00504494  0.0579222 -0.138292 -0.00502396  0.0494837 -0.1371 -0.00442648  0.0507412 -0.163813 -0.00395083  0.0597847 -0.165446 -0.00391936  0.0590737 -0.155744 -0.00486016  0.0509548 -0.164332 -0.00346661  0.0503565 -0.154585 -0.00429964  0.0592899 -0.156294 -0.00427294  0.0505732 -0.155155 -0.0037725  0.0512131 -0.182529 -0.0032866  0.0604424 -0.184004 -0.00325871  0.0599511 -0.174232 -0.00407457  0.0514172 -0.182944 -0.0028851  0.0510247 -0.17313 -0.00361514  0.060164 -0.174689 -0.00358462  0.0512331 -0.173604 -0.00317311  0.0513296 -0.201463 -0.00269985  0.0606964 -0.202812 -0.00266123  0.0604252 -0.193013 -0.00335526  0.0515192 -0.201803 -0.0023706  0.0513163 -0.191962 -0.00298929  0.060619 -0.193383 -0.00295377  0.0515106 -0.192349 -0.00262427  0.0511262 -0.220577 -0.00216031  0.0605898 -0.221791 -0.00212288  0.0604978 -0.211994 -0.00270772  0.0513034 -0.220832 -0.00189877  0.0512657 -0.210997 -0.00242472  0.0606825 -0.212286 -0.00238657  0.0514477 -0.211303 -0.00213003  0.0506525 -0.239764 -0.00169253  0.0601737 -0.240868 -0.00164819  0.060252 -0.231101 -0.00212836  0.0508125 -0.239957 -0.00148892  0.0509229 -0.230152 -0.00192094  0.0604188 -0.231322 -0.00187922  0.0510895 -0.230387 -0.00168848  0.0499442 -0.258983 -0.00128007  0.0594909 -0.25998 -0.00123715  0.0597105 -0.250265 -0.00162315  0.0500882 -0.259114 -0.00112867  0.0503271 -0.249364 -0.0014801  0.0598617 -0.250423 -0.00143671  0.0504768 -0.249535 -0.00130296  0.0490448 -0.278167 -0.000934601  0.0585871 -0.279073 -0.000889301  0.0589311 -0.269426 -0.00118828  0.0491693 -0.278248 -0.000826359  0.0495179 -0.268569 -0.00110102  0.0590646 -0.269531 -0.00105643  0.0496507 -0.268686 -0.00097084  0.0479903 -0.297275 -0.000652075  0.0575037 -0.298102 -0.000609159  0.0579524 -0.288538 -0.000828505  0.0480945 -0.297316 -0.000580072  0.0485375 -0.287721 -0.000786304  0.0580652 -0.288597 -0.000742674  0.0486491 -0.287792 -0.000696182  0.0468159 -0.316271 -0.000432014  0.056284 -0.317035 -0.000393391  0.0568149 -0.307556 -0.000543594  0.0468998 -0.316282 -0.000388384  0.0474176 -0.306775 -0.000534773  0.0569084 -0.307582 -0.000494242  0.0475101 -0.306812 -0.000477076  0.0455546 -0.335126 -0.000269413  0.0549715 -0.335851 -0.000241041  0.0555646 -0.326452 -0.000334263  0.04562 -0.335123 -0.000247478  0.0461969 -0.325703 -0.000344753  0.0556364 -0.326458 -0.000311613  0.0462687 -0.325718 -0.000311613  0.0442324 -0.353841 -0.000147343  0.0536056 -0.354544 -0.000135422  0.0542328 -0.345212 -0.000190258  0.0442884 -0.353833 -0.000140905  0.0449009 -0.344487 -0.00020647  0.0542929 -0.345211 -0.00018549  0.0449593 -0.344492 -0.00019145  0.0428779 -0.372442 -3.52859e-05  0.0522223 -0.373139 -4.12464e-05  0.0528648 -0.363848 -8.39233e-05  0.0429296 -0.372434 -4.14848e-05  0.0435603 -0.363137 -9.29832e-05  0.0529158 -0.36385 -8.79765e-05  0.0436122 -0.363143 -9.2268e-05  
SCALARS smooth_stress float 1
LOOKUP_TABLE default
78.5851 158.745 162.615 150.231 154.552 163.426 135.187 115.242 114.134 108.551 102.654 99.0454 90.9318 94.987 106.045 96.3265 87.9332 89.4902 83.554 83.4586 100.797 94.5515 81.6944 82.4861 37.8563 127.33 275.286 296.18 272.587 279.426 301.609 257.609 230.766 234.741 228.721 206.991 173.549 190.78 211.675 204.79 181.234 173.399 187.781 174.844 163.376 179.285 174.3 166.947 179.156 87.7194 108.539 225.456 241.38 234.011 246.966 276.208 243.697 219.924 230.115 234.101 220.003 180.833 196.314 228.675 214.122 195.276 194.637 208.059 189.363 168.211 189.006 183.845 174.785 188.13 93.803 107.885 206.468 196.706 221.088 237.691 226.629 216.219 208.75 216.859 227.417 226.904 207.121 198.18 214.387 213.554 214.401 212.291 201.553 188.109 181.538 213.589 192.539 157.101 170.451 87.2555 94.411 202.19 193.348 213.654 231.978 212.742 217.178 209.943 215.357 227.996 213.635 198.36 198.153 200.261 207.466 210.159 194.714 176.091 168.056 172.395 191.714 176.066 153.02 156.553 77.3795 93.509 208.667 220.837 218.505 221.627 231.197 219.972 210.789 210.015 205.841 207.847 214.806 199.955 196.214 227.499 217.933 201.142 184.721 160.153 168.792 171.867 148.894 154.543 184.252 101.644 110.868 232.967 241.446 240.168 235.299 232.369 214.224 226.477 218.646 205.281 213.943 222.997 222.239 200.93 211.8 202.122 189.571 185.441 170.362 169.837 169.181 154.704 145.087 170.152 100.78 138.913 285.193 280.602 267.596 277.741 271.628 252.001 260.344 245.778 234.705 229.213 210.206 206.719 202.053 199.032 188.015 173.011 169.588 165.035 162.484 178.021 178.529 149.888 130.83 65.2191 75.2334 156.255 155.535 141.712 147.69 146.316 135.514 139.062 129.141 120.755 120.72 104.448 87.9949 99.4762 105.442 97.6996 92.987 84.5623 76.806 82.2898 92.0637 85.0954 73.8922 67.3671 32.0194 151.917 318.079 329.834 307.939 307.242 312.586 276.266 252.432 235.062 215.212 213.802 203.393 193.586 185.546 187.903 190.787 179.275 179.096 171.831 163.775 166.275 155.674 140.879 155.043 85.6897 270.073 566.469 588.838 557.637 560.78 573.804 499.676 488.997 476.226 431.412 418.566 373.198 379.406 398.653 400.198 376.702 352.489 364.139 355.666 336.103 333.646 315.397 308.364 343.194 181.778 223.569 468.479 516.612 497.565 498.992 531.818 466.686 447.703 446.645 428.377 409.171 379.574 389.052 416.494 429.805 396.699 369.061 370.807 353.52 336.651 353.54 331.97 329.62 367.29 187.154 190.025 401.942 451.53 469.979 477.105 458.974 432.356 415.243 406.142 429.677 418.476 413.155 405.855 413.207 410.211 398.419 402.428 368.931 343.626 355.646 387.498 343.388 308.192 343.265 178.384 184.939 397.663 419.328 449.352 461.073 420.342 424.958 413.267 408.794 440.02 406.022 394.362 397.626 400.083 387.407 383.438 395.087 347.341 330.74 360.218 380.609 350.143 320.185 321.423 160.881 189.761 425.234 466.41 460.759 450.209 452.288 436.487 425.305 425.693 414.953 407.495 427.356 410.497 386.952 408.041 415.41 400.176 352.951 321.302 333.915 352.438 327.427 318.454 339.382 174.969 210.031 465.02 497.61 498.708 490.657 458.723 431.444 458.529 457.687 426.105 422.599 441.624 430.455 393.796 410.707 402.58 391.362 386.837 363.214 358.56 369.203 331.334 289.437 308.028 165.437 264.686 555.35 563.135 562.8 579.765 551.394 517.375 509.042 492.602 479.87 441.552 412.722 398.357 387.611 397.511 368.044 360.431 375.872 367.314 373.202 375.508 345.855 299.831 275.665 139.36 144.09 299.754 306.528 297.61 309.894 312.99 286.54 266.656 252.474 246.197 234.496 207.478 183.393 190.504 200.138 185.072 180.738 177.813 168.602 179.662 179.463 162.947 154.72 149.722 75.3296 143.031 297.481 322.747 320.232 312.867 302.485 289.941 276.358 235.854 216.894 212.101 209.152 210.608 188.176 177.197 189.698 188.19 174.469 176.035 183.173 165.537 149.753 130.134 151.651 95.2811 280.749 557.257 592.687 611.27 594.536 553.377 502.051 519.524 467.311 419.608 426.85 406.408 382.984 371.094 386.409 396.111 376.78 350.797 364.013 367.267 341.117 300.465 268.778 327.5 196.412 231.001 479.912 554.598 558.151 516.09 489.005 437.479 452.203 432.125 410.098 414.933 396.699 378.446 381.795 401.919 386.54 352.071 333.48 343.582 344.49 341.108 306.611 284.627 341.379 192.384 175.367 425.109 512.786 482.041 458.976 449.317 426.372 418.541 412.539 419.17 401.15 402.816 411.806 398.476 374.928 344.502 353.676 349.062 327.961 350.672 342.154 300.466 296.571 340.803 186.688 182.113 412.111 458.199 463.254 441.147 408.182 423.492 419.915 408.002 421.101 398.569 398.146 412.806 391.964 359.056 338.593 369.171 359.576 336.939 361.021 347.008 326.426 314.771 315.676 164.692 184.669 407.06 483.592 500.555 453.835 424.226 425.616 426.076 413.057 408.636 398.953 406.68 434.029 393.643 356.671 369.408 356.976 338.84 339.556 335.012 346.395 357.915 328.629 304.732 150.804 188.769 441.905 519.595 519.997 502.93 470.348 431.841 441.752 447.088 425.095 419.64 414.804 403.103 397.245 381.561 377.232 388.328 378.249 360.475 374.849 386.692 343.804 309.044 297.115 143.329 238.749 534.383 580.599 578.347 577.978 562.75 524.166 497.519 492.915 473.081 431.926 398.224 361.887 379.506 400.025 346.489 363.99 398.49 379.141 398.388 390.581 342.222 313.454 292.95 146.936 134.621 292.399 314.524 310.58 312.292 319.65 295.451 271.432 262.755 247.308 213.638 195.325 185.742 183.54 198.3 164.447 153.663 191.415 193.641 187.807 179.902 174.474 168.858 160.164 85.154 151.924 303.653 318.279 324.2 318.502 288.944 272.328 264.465 227.628 213.482 215.605 224.345 218.951 200.253 181.686 171.297 182.077 170.71 166.782 180.943 184.893 173.023 153.963 171.889 94.5875 269.28 561.501 615.713 627.705 601.356 537.411 500.136 518.981 476.163 443.743 463.426 446.05 402.717 395.288 376.732 368.955 374.317 364.603 376.179 357.054 342.911 329.142 293.717 330.116 187.902 223.811 492.586 568.178 557.979 496.311 453.44 439.076 472.166 460.634 455.838 465.278 402.853 385.886 404.613 384.58 377.204 366.93 363.549 372.039 353.877 345.631 322.244 282.684 297.449 162.76 208.05 467.75 499.117 460.384 432.075 431.306 423.065 430.706 461.609 455.888 415.384 389.837 409.565 392.286 361.278 341.381 359.256 370.759 318.953 329.771 334.645 302.916 292.625 303.619 160.983 187.221 421.387 441.688 443.025 442.29 435.768 435.73 419.673 443.243 422.012 393.228 409.123 426.892 392.026 355.948 333.394 342.387 360.742 320.077 308.996 300.46 307.264 316.398 316.72 164.57 172.503 376.895 447.085 485.655 453.689 426.424 433.977 421.435 397.795 381.467 381.547 393.008 434.23 405.729 353.619 347.53 322.02 318.29 334.645 329.048 319.967 336.213 338.549 333.532 165.601 193.184 432.433 498.951 514.056 501.975 485.608 443.642 430.329 421.116 409.499 421.727 401.555 396.379 398.183 365.683 367.707 374.934 336.966 323.179 338.945 337.008 324.397 334.875 340.539 167.561 245.32 541.099 590.386 579.562 569.43 561.701 502.142 496.355 496.447 463.814 434.387 386.593 378.901 411.892 420.772 378.583 365.927 364.759 350.284 346.074 347.966 347.263 337.376 326.658 165.015 139.013 297.187 325.206 314.047 297.471 293.081 268.545 280.845 279.394 244.081 198.907 177.612 197.305 210.12 224.504 186.847 155.191 186.445 197.985 179.187 177.498 188.608 174.347 167.328 90.0217 144.677 306.521 317.096 320.052 310.474 275.418 276.347 267.217 234.898 219.571 221.667 219.697 201.231 208.366 190.028 165.824 184.066 166.141 151.986 165.836 175.731 173.109 166.534 167.208 80.2263 244.017 558.265 605.981 589.84 571.427 532.901 544.664 545.857 498.236 452.226 447.714 424.289 400.214 418.174 370.158 346.914 370.791 363.016 364.386 350.429 330.766 336.46 337.847 323.269 155.44 212.591 490.869 555.912 519.463 480.588 481.635 491.811 506.507 489.223 451.337 440.768 412.829 403.781 409.697 375.065 371.944 380.093 367.767 363.848 350.323 326.341 309.623 311.322 303.095 143.747 202.082 437.05 481.809 471.785 440.844 434.224 416.654 430.637 465.027 442.611 420.713 419.914 402.407 405.913 405.569 379.167 387.82 364.204 301.555 304.634 327.402 298.827 296.61 304.637 145.109 177.427 387.329 439.963 461.936 440.695 430.161 419.308 407.651 439.057 425.122 395.411 408.567 413.941 418.864 408.514 367.694 348.191 351.82 313.605 296.716 312.175 305.387 313.007 318.529 158.483 188.169 387.596 425.533 450.257 438.078 444.458 443.164 416.131 406.954 384.252 364.021 381.129 402.889 382.025 358.569 348.143 318.699 304.48 313.913 309.672 292.62 287.983 304.193 321.124 160.449 196.107 441.264 469.879 479.705 508.273 515.386 470.626 436.335 429.239 399.227 397.94 390.899 388.106 378.34 359.768 371.67 367.623 328.77 320.148 307.547 289.806 299.104 316.102 333.091 167.721 224.147 517.001 571.76 573.446 592.417 575.597 517.544 499.726 481.243 450.704 438.565 401.661 410.454 422.16 410.23 402.158 376.576 362.967 372.374 334.815 312.466 326.57 330.791 344.407 172.645 127.613 273.929 302.233 304.171 302.736 284.578 263.934 274.64 259.042 234.535 215.227 195.001 208.904 213.005 211.151 199.251 173.913 180.168 202.642 179.127 159.201 162.616 162.476 171.515 83.4641 140.077 296.999 312.962 313.7 288.684 281.94 315.861 295.185 244.508 233.213 236.871 226.801 199.48 215.149 203.646 172.013 196.769 174.971 160.283 175.108 184.461 168.143 153.204 154.179 70.592 242.55 535.756 593.739 594.693 557.485 555.379 602.124 568.069 480.473 441.501 426.879 413.454 398.363 405.726 374.215 345.495 374.215 350.265 346.131 348.794 333.424 315.253 313.971 331.312 162.127 205.009 451.071 513.507 511.638 504.436 517.848 507.923 488.746 448.609 403.49 400.045 401.033 388.858 371.163 354.348 353.252 357.404 344.469 340.921 332.566 327.556 319.324 315.917 338.167 168.233 182.322 400.112 449.149 466.199 473.217 470.057 428.421 424.231 423.174 393.858 433.605 436.801 392.982 406.735 408.15 370.456 366.944 346.466 328.451 341.5 368.867 331.473 313.02 329.321 148.907 172.596 370.528 424.314 466.669 453.359 429.147 411.472 412.843 412.4 400.95 418.702 414.891 401.408 423.35 438.615 400.509 365.195 346.191 329.447 343.585 357.432 313.701 301.274 320.566 156.716 214.869 403.128 409.253 431.889 425.448 433.177 419.896 410.804 415.294 397.688 366.466 365.771 369.232 374.69 405.336 392.608 361.905 337.848 340.012 344.122 327.957 298.445 268.665 306.098 171.934 203.421 453.243 483.297 482.379 509.326 521.14 477.995 447.035 443.487 398.189 373.853 378.412 373.599 382.573 383.435 379.474 373.059 354.276 359.204 355.903 337.905 304.813 283.227 320.1 175.727 214.903 526.99 596.288 596.317 612.985 580.177 546.062 526.768 482.788 426.25 428.015 418.206 408.706 413.817 400.133 409.277 382.699 383.836 384.469 344.955 327.078 308.709 317.392 322.74 156.524 133.543 294.146 314.348 314.711 313.331 288.715 283.251 286.064 252.726 223.457 225.494 213.094 205.938 208.734 207.789 212.587 193.335 198.509 209.207 172.208 149.973 147.899 159.425 156.46 68.2239 157.358 306.166 305.665 309.749 282.908 279.027 310.938 296.13 246.055 239.091 249.592 238.006 206.557 209.821 196.575 167.952 189.973 196.98 195.697 176.911 173.579 167.019 152.227 155.25 74.9784 268.375 550.07 600.148 606.74 541.98 536.569 560.461 532.715 475.35 456.882 461.538 444.384 402.836 401.357 381.813 346.691 351.601 350.278 374.068 338.277 319.625 336.371 304.722 307.575 165.392 221.309 471.813 514.437 513.749 499.218 505.763 483.098 445.312 420.068 410.956 417.92 406.674 386.427 374.872 371.873 353.798 330.639 329.498 365.854 347.373 328.603 360.17 325.469 316.014 171.079 224.61 454.543 423.512 434.407 485.296 495.45 462.99 415.902 387.44 388.786 439.449 425.323 381.791 384.647 394.323 378.632 371.097 343.72 346.962 376.656 381.011 354.213 328.241 322.397 147.951 207.142 396.387 396.734 446.144 471.441 454.123 424.307 408.974 398.541 395.513 435.912 433.878 387.151 378.532 404.85 397.286 371.153 333.529 313.729 355.479 363.93 317.223 323.093 339.326 158.409 213.154 402.997 421.859 447.601 432.402 424.94 405.993 412.145 425.747 410.101 399.92 400.125 366.284 380.7 414.604 381.918 369.849 341.195 339.018 370.84 351.924 312.978 300.891 339.317 183.209 228.454 473.097 501.971 516.213 497.877 488.409 462.325 452.789 474.479 431.043 392.914 391.773 358.68 390.23 395.969 361.586 388.146 363.079 354.522 384.42 375.162 340.269 313.527 323.931 172.813 252.648 560.006 610.027 620.011 602.57 557.36 531.654 535.21 519.08 455.079 425.598 409.821 401.697 402.273 379.907 387.546 380.991 377.916 363.772 343.639 340.07 334.625 342.719 330.287 163.041 144.523 320.152 336.739 322.903 310.804 286.997 280.431 292.766 268.474 234.246 230.167 209.321 213.793 215.522 201.38 214.167 193.626 190.023 194.019 165.229 151.357 153.505 162.257 165.054 82.3149 155.463 323.393 319.197 303.8 286.035 268.692 282.501 271.468 243.568 233.386 230.321 215.129 202.249 220.451 200.879 165.036 179.888 203.207 204.511 179.597 171.628 177.763 156.528 152.322 81.4763 282.254 595.966 622.562 596.336 551.409 526.168 529.542 493.764 467.966 468.398 453.695 421.614 396.582 411.817 380.697 362.833 356.721 350.383 383.743 348.93 341.182 370.878 313.042 294.223 161.914 240.506 502.815 537.723 525.717 486.218 482.759 482.515 431.22 435.81 458.084 427.614 402.81 381.986 379.509 386.581 388.637 348.306 315.673 363.9 368.488 348.732 380.015 337.106 314.304 173.033 235.18 453.681 438.141 444.166 446.538 461.772 476.118 430.669 399.131 395.717 411.891 403.286 362.508 363.46 409.848 423.438 380.897 331.074 341.115 364.187 333.519 350.49 352.03 320.108 155.133 203.823 393.255 417.608 430.266 428.929 451.025 455.167 440.438 407.258 387.878 419.25 426.875 379.817 350.374 369.371 395.342 375.302 345.097 337.311 334.892 312.369 316.191 354.135 344.282 155.574 193.547 400.444 452.44 443.142 419.236 439.161 423.146 427.066 430.781 418.514 429.461 441.264 385.384 358.634 365.6 339.07 335.95 350.668 352.546 347.553 326.047 297.864 328.134 352.747 173.858 238.539 480.655 518.202 521.824 483.032 490.692 454.891 436.765 469.603 451.461 422.288 412.787 363.649 374.632 402.779 357.52 354.84 357.741 343.296 342.611 345.82 337.661 318.914 312.117 160.614 261.59 549.672 603.627 623.182 588.358 564.852 534.218 504.775 512.173 489.403 443.744 406.521 393.689 408.61 394.557 365.286 361.668 360.865 347.055 328.506 340.725 351.867 328.146 326.097 170.086 134.241 299.645 324.04 325.219 321.327 298.785 287.951 276.383 253.811 241.223 239.318 215.085 210.462 217.556 191.091 184.092 176.899 171.271 175.441 163.587 162.923 159.469 154.668 170.151 90.2933 75.7293 173.21 172.149 149.376 139.661 131.804 134.541 128.603 119.824 111.186 110.583 103.766 104.939 120.049 104.27 79.3325 87.8463 100.903 96.1348 90.0437 91.6129 90.1687 73.986 76.8381 44.0033 143.687 318.814 325.856 295.934 283.66 268.307 266.692 240.948 225.19 227.617 219.474 205.685 200.255 209.185 188.671 183.035 185.172 177.518 184.407 171.532 180.372 183.074 150.8 161.345 88.7579 119.455 246.9 269.693 267.524 243.095 233.252 240.115 215.889 220.168 239.298 208.484 189.235 180.815 176.741 192.335 208.234 184.261 155.692 167.734 181.184 190.4 193.303 169.124 168.593 90.1678 105.633 200.315 223.123 231.409 206.127 216.488 237.724 227.021 208.19 197.155 191.14 187.903 176.725 172.266 201.113 216.991 184.639 158.691 167.558 177.604 160.372 182.223 187.343 158.026 76.4045 87.4848 184.816 214.694 204.326 200.391 231.074 243.042 239.737 210.738 181.126 193.676 206.301 193.691 176.213 171.455 198.952 194.741 178.355 185.246 162.079 136.044 162.197 188.102 172.907 78.7778 91.1784 199.382 223.369 204.527 202.64 226.229 218.761 219.47 213.79 203.793 214.227 224.661 196.186 173.423 175.252 177.216 173.385 190.521 195.864 170.32 163.603 152.18 165.545 182.334 90.2557 120.977 242.118 265.17 260.884 240.611 249.652 228.955 215.302 222.44 224.609 216.031 213.905 191.955 182.439 213.507 194.672 160.529 180.281 183.387 159.366 169.095 160.324 142.692 156.494 84.6969 132.043 276.529 310.448 322.461 299.831 290.788 274.433 244.141 244.994 245.768 222.396 204.131 198.896 215.937 223.779 196.982 176.157 176.372 168.8 153.409 170.139 171.749 145.893 152.687 83.1436 68.8966 147.997 161.092 172.221 168.501 156.03 150.957 132.049 118.992 118.114 118.464 109.173 100.662 115.37 107.249 93.0332 91.9756 87.8705 84.1278 80.1927 87.3336 83.233 75.6787 79.5605 40.916 78.5851 158.745 151.917 78.5851 78.5851 158.745 318.079 151.917 127.33 275.286 270.073 127.33 78.5851 78.5851 158.745 151.917 78.5851 127.33 78.5851 80.1601 162.615 166.162 162.615 329.834 147.956 296.18 296.395 80.1601 80.1601 162.615 166.162 147.956 80.1601 82.4552 150.231 163.672 150.231 307.939 148.224 272.587 292.442 82.4552 82.4552 150.231 163.672 148.224 82.4552 67.7759 154.552 144.267 154.552 307.242 124.363 279.426 265.195 67.7759 67.7759 154.552 144.267 124.363 67.7759 86.7761 163.426 162.975 163.426 312.586 155.062 301.609 295.585 86.7761 86.7761 163.426 162.975 155.062 86.7761 76.6501 135.187 149.611 135.187 276.266 146.547 257.609 278.219 76.6501 76.6501 135.187 149.611 146.547 76.6501 58.5372 115.242 126.655 115.242 252.432 111.062 230.766 221.457 58.5372 58.5372 115.242 126.655 111.062 58.5372 56.7049 114.134 125.777 114.134 235.062 119.703 234.741 267.539 56.7049 56.7049 114.134 125.777 119.703 56.7049 57.4296 108.551 109.285 108.551 215.212 115.037 228.721 208.686 57.4296 57.4296 108.551 109.285 115.037 57.4296 51.1209 102.654 105.927 102.654 213.802 113.684 206.991 222.726 51.1209 51.1209 102.654 105.927 113.684 51.1209 51.5336 99.0454 107.875 99.0454 203.393 93.307 173.549 195.84 51.5336 51.5336 99.0454 107.875 93.307 51.5336 47.5119 90.9318 95.5185 90.9318 193.586 80.2424 190.78 177.358 47.5119 47.5119 90.9318 95.5185 80.2424 47.5119 43.4199 94.987 98.0679 94.987 185.546 110.538 211.675 202.048 43.4199 43.4199 94.987 98.0679 110.538 43.4199 51.5671 106.045 87.4783 106.045 187.903 101.137 204.79 196.604 51.5671 51.5671 106.045 87.4783 101.137 51.5671 54.4776 96.3265 100.425 96.3265 190.787 103.653 181.234 203.594 54.4776 54.4776 96.3265 100.425 103.653 54.4776 41.8489 87.9332 90.3614 87.9332 179.275 77.5805 173.399 173.108 41.8489 41.8489 87.9332 90.3614 77.5805 41.8489 46.0843 89.4902 88.9131 89.4902 179.096 95.8185 187.781 179.38 46.0843 46.0843 89.4902 88.9131 95.8185 46.0843 43.4059 83.554 90.1827 83.554 171.831 91.9626 174.844 184.759 43.4059 43.4059 83.554 90.1827 91.9626 43.4059 40.1481 83.4586 81.6482 83.4586 163.775 82.8815 163.376 170.907 40.1481 40.1481 83.4586 81.6482 82.8815 40.1481 43.3105 100.797 82.1263 100.797 166.275 80.4945 179.285 165.197 43.3105 43.3105 100.797 82.1263 80.4945 43.3105 57.487 94.5515 84.1486 94.5515 155.674 98.79 174.3 168.449 57.487 57.487 94.5515 84.1486 98.79 57.487 37.0645 81.6944 71.5251 81.6944 140.879 75.5102 166.947 146.948 37.0645 37.0645 81.6944 71.5251 75.5102 37.0645 44.6298 82.4861 69.3537 82.4861 155.043 91.4364 179.156 161.416 44.6298 44.6298 82.4861 69.3537 91.4364 44.6298 37.8563 37.8563 85.6897 37.8563 85.6897 87.7194 87.7194 181.778 37.8563 37.8563 37.8563 85.6897 87.7194 37.8563 48.7449 116.541 248.389 118.156 108.539 225.456 223.569 108.539 48.7449 116.541 118.156 48.7449 108.539 48.7449 133.564 259.003 116.917 241.38 244.91 67.7957 133.564 130.233 116.917 67.7957 122.356 249.698 124.463 234.011 271.702 65.7687 122.356 128.77 124.463 65.7687 124.873 253.538 109.549 246.966 225.864 56.5874 124.873 120.928 109.549 56.5874 138.183 261.218 137.417 276.208 273.129 68.286 138.183 132.61 137.417 68.286 122.422 223.41 138.791 243.697 258.69 69.8967 122.422 128.608 138.791 69.8967 115.524 236.565 104.906 219.924 207.996 52.5253 115.524 94.8024 104.906 52.5253 120.606 241.163 115.017 230.115 239.706 62.9985 120.606 141.762 115.017 62.9985 120.17 216.2 115.097 234.101 206.939 57.6076 120.17 99.4009 115.097 57.6076 104.336 204.764 119.004 220.003 221.438 62.5628 104.336 116.799 119.004 62.5628 74.5039 169.804 101 180.833 187.732 41.7734 74.5039 87.965 101 41.7734 99.8481 185.82 79.8334 196.314 191.842 32.7305 99.8481 81.8392 79.8334 32.7305 116.688 213.106 116.481 228.675 197.21 67.1176 116.688 103.98 116.481 67.1176 98.7458 212.294 112.195 214.122 219.284 49.5701 98.7458 109.126 112.195 49.5701 84.9073 185.915 101.928 195.276 210.521 49.1757 84.9073 103.169 101.928 49.1757 85.4658 173.214 93.3484 194.637 186.177 35.7316 85.4658 82.7468 93.3484 35.7316 98.291 185.043 101.289 208.059 182.884 49.7342 98.291 90.4672 101.289 49.7342 91.2901 183.835 106.77 189.363 187.923 48.5568 91.2901 94.5762 106.77 48.5568 79.9174 172.329 82.5922 168.211 165.597 42.7333 79.9174 89.2584 82.5922 42.7333 78.4871 167.371 85.6193 189.006 171.054 37.184 78.4871 83.0703 85.6193 37.184 79.7487 159.723 103.387 183.845 182.486 41.303 79.7487 84.3004 103.387 41.303 85.2522 167.485 80.4582 174.785 149.484 38.4456 85.2522 75.4227 80.4582 38.4456 96.6697 188.151 94.327 188.13 180.136 46.8066 96.6697 92.0623 94.327 46.8066 49.8631 96.0884 93.803 93.803 187.154 49.8631 49.8631 96.0884 93.803 49.8631 59.7944 108.916 220.09 105.413 107.885 206.468 190.025 107.885 59.7944 108.916 105.413 59.7944 107.885 59.7944 107.815 257.608 98.5835 196.706 211.917 49.1215 107.815 114.677 98.5835 49.1215 111.655 247.867 98.122 221.088 239.613 58.694 111.655 142.931 98.122 58.694 122.092 245.454 122.966 237.691 230.367 52.9612 122.092 104.936 122.966 52.9612 138.026 270.601 114.725 226.629 246.738 69.1312 138.026 140.519 114.725 69.1312 121.275 243.276 111.904 216.219 212.235 68.8943 121.275 130.082 111.904 68.8943 104.4 211.138 104.315 208.75 220.12 52.3809 104.4 113.194 104.315 52.3809 109.508 205.482 104.434 216.859 195.122 52.019 109.508 97.9439 104.434 52.019 113.93 212.178 112.425 227.417 211.019 57.4895 113.93 107.538 112.425 57.4895 115.667 204.407 114.993 226.904 218.658 56.441 115.667 104.64 114.993 56.441 106.329 209.77 111.912 207.121 199.819 59.2262 106.329 99.7671 111.912 59.2262 96.466 203.233 95.2099 198.18 213.337 47.1029 96.466 110.003 95.2099 47.1029 111.987 203.388 102.97 214.387 192.518 49.363 111.987 93.2301 102.97 49.363 115.377 217.511 111.417 213.554 220.69 62.6245 115.377 110.158 111.417 62.6245 110.369 210.783 102.137 214.401 189.521 52.7522 110.369 107.353 102.137 52.7522 109.171 195.847 112.265 212.291 208.898 57.6168 109.171 103.43 112.265 57.6168 109.768 185.763 100.026 201.553 193.53 51.5544 109.768 92.4165 100.026 51.5544 98.0726 169.686 101.527 188.109 175.402 58.2137 98.0726 93.3469 101.527 58.2137 88.2941 164.322 86.5821 181.538 168.225 39.8589 88.2941 76.3387 86.5821 39.8589 110.519 186.169 94.9563 213.589 187.421 48.4352 110.519 87.9835 94.9563 48.4352 104.097 172.247 118.633 192.539 200.077 62.0841 104.097 98.1854 118.633 62.0841 89.533 162.135 73.906 157.101 143.311 42.0126 89.533 74.0614 73.906 42.0126 91.4604 179.139 83.195 170.451 164.881 47.5204 91.4604 88.074 83.195 47.5204 43.9399 91.0653 87.2555 87.2555 178.384 43.9399 43.9399 91.0653 87.2555 43.9399 48.0904 97.5524 181.853 84.6125 94.411 202.19 184.939 94.411 48.0904 97.5524 84.6125 48.0904 94.411 48.0904 88.8901 193.922 107.779 193.348 212.724 49.462 88.8901 97.2402 107.779 49.462 109.433 222.112 85.5686 213.654 206.605 39.4281 109.433 96.6813 85.5686 39.4281 115.598 231.651 128.086 231.978 242.748 70.0046 115.598 125.431 128.086 70.0046 88.6031 188.373 103.892 212.742 218.325 45.5938 88.6031 106.22 103.892 45.5938 94.9438 189.08 108.85 217.178 202.017 43.0092 94.9438 82.1535 108.85 43.0092 104.35 204.105 108.328 209.943 222.941 51.9346 104.35 106.926 108.328 51.9346 107.35 200.66 101.615 215.357 190.326 52.4152 107.35 97.1786 101.615 52.4152 113.487 217.499 113.742 227.996 218.468 54.9351 113.487 103.481 113.742 54.9351 111.237 214.069 114.255 213.635 221.551 58.5519 111.237 114.018 114.255 58.5519 100.792 203.385 99.38 198.36 184.471 52.6854 100.792 100.051 99.38 52.6854 101.714 202.622 98.9796 198.153 209.891 48.1069 101.714 103.334 98.9796 48.1069 102.4 209.819 99.1737 200.261 187.735 53.607 102.4 99.2879 99.1737 53.607 98.1771 192.7 101.087 207.466 212.347 48.7928 98.1771 110.532 101.087 48.7928 104.032 187.636 106.379 210.159 175.06 49.3843 104.032 82.1685 106.379 49.3843 103.12 206.581 103.78 194.714 208.379 54.6481 103.12 105.468 103.78 54.6481 91.7849 183.168 90.9344 176.091 186.708 48.4719 91.7849 101.113 90.9344 48.4719 90.0363 173.941 85.1562 168.056 160.633 43.3131 90.0363 82.0547 85.1562 43.3131 93.2443 191.324 82.9 172.395 170.108 46.7233 93.2443 91.886 82.9 46.7233 103.07 201.329 89.4947 191.714 190.11 46.5211 103.07 99.4375 89.4947 46.5211 88.4425 171.141 102.219 176.066 190.499 56.5491 88.4425 101.891 102.219 56.5491 67.568 146.057 73.8469 153.02 159.643 31.8934 67.568 69.2497 73.8469 31.8934 78.9901 164.126 79.173 156.553 160.542 35.6745 78.9901 76.807 79.173 35.6745 43.3156 87.3187 77.3795 77.3795 160.881 43.3156 43.3156 87.3187 77.3795 43.3156 46.3206 104.638 215.81 100.327 93.509 208.667 189.761 93.509 46.3206 104.638 100.327 46.3206 93.509 46.3206 104.458 225.407 115.158 220.837 235.473 58.3173 104.458 115.484 115.158 58.3173 104.222 227.24 105.679 218.505 230.938 46.1405 104.222 109.923 105.679 46.1405 116.38 229.423 112.826 221.627 229.821 58.081 116.38 117.317 112.826 58.081 124.139 231.969 108.801 231.197 220.388 58.2986 124.139 112.106 108.801 58.2986 122.234 235.878 122.396 219.972 231.9 65.8406 122.234 119.863 122.396 65.8406 105.593 209.162 97.5759 210.789 204.587 56.3938 105.593 116.015 97.5759 56.3938 108.006 208.134 113.213 210.015 220.718 49.1996 108.006 93.1472 113.213 49.1996 114.509 222.52 96.8018 205.841 204.976 58.8066 114.509 114.987 96.8018 58.8066 102.398 191.953 109.039 207.847 209.978 55.7028 102.398 107.533 109.039 55.7028 97.5674 190.977 98.8082 214.806 197.517 46.6947 97.5674 84.4192 98.8082 46.6947 96.4395 195.005 115.998 199.955 229.839 50.8727 96.4395 106.558 115.998 50.8727 97.8612 190.263 83.9571 196.214 180.658 45.5668 97.8612 88.4472 83.9571 45.5668 109.289 194.707 112.257 227.499 206.295 52.2944 109.289 101.816 112.257 52.2944 106.126 195.802 115.242 217.933 201.746 56.9944 106.126 92.8912 115.242 56.9944 91.5944 188.506 102.691 201.142 213.664 49.1318 91.5944 102.911 102.691 49.1318 84.3057 164.173 98.451 184.721 186.512 42.4626 84.3057 85.5952 98.451 42.4626 78.0199 156.8 86.2703 160.153 166.44 41.8432 78.0199 78.5778 86.2703 41.8432 79.1503 168.895 73.8826 168.792 154.862 36.1767 79.1503 78.2218 73.8826 36.1767 88.6434 179.281 94.9099 171.867 179.053 42.9736 88.6434 90.6727 94.9099 42.9736 87.6233 179.002 76.9575 148.894 173.385 45.6698 87.6233 88.608 76.9575 45.6698 85.452 174.129 71.9362 154.543 154.042 41.9535 85.452 90.3938 71.9362 41.9535 77.5624 157.298 82.6072 184.252 164.413 43.4985 77.5624 83.7349 82.6072 43.4985 34.0639 73.5626 101.644 101.644 174.969 34.0639 34.0639 73.5626 101.644 34.0639 47.1884 104.029 209.424 89.4347 110.868 232.967 210.031 110.868 47.1884 104.029 89.4347 47.1884 110.868 47.1884 116.379 241.004 122.099 241.446 254.989 56.8404 116.379 119.989 122.099 56.8404 114.284 233.519 119.347 240.168 242.622 59.5385 114.284 121.015 119.347 59.5385 105.247 220.787 120.822 235.299 256.087 54.7453 105.247 112.504 120.822 54.7453 107.057 220.319 114.477 232.369 234.57 50.502 107.057 108.282 114.477 50.502 97.7374 200.608 117.892 214.224 224.152 56.5552 97.7374 112.036 117.892 56.5552 105.195 216.143 96.3321 226.477 207.291 41.1822 105.195 88.5722 96.3321 41.1822 102.008 217.559 130.145 218.646 251.237 64.0132 102.008 127.571 130.145 64.0132 91.3315 192.433 88.5003 205.281 206.45 37.9952 91.3315 89.9883 88.5003 37.9952 105.45 215.542 116.781 213.943 219.656 53.3363 105.45 102.444 116.781 53.3363 117.238 236.379 97.1625 222.997 202.943 52.1135 117.238 113.098 97.1625 52.1135 103.515 215.492 125.834 222.239 238.681 65.1249 103.515 123.281 125.834 65.1249 98.3528 196.689 96.4047 200.93 191.775 38.3903 98.3528 92.2105 96.4047 38.3903 118.21 213.334 104.525 211.8 202.022 59.9625 118.21 104.479 104.525 59.9625 111.807 219.608 107.274 202.122 208.685 58.2476 111.807 108.855 107.274 58.2476 109.547 211.67 94.8472 189.571 193.895 53.559 109.547 110.753 94.8472 53.559 100.416 188.778 94.724 185.441 197.467 55.9885 100.416 100.916 94.724 55.9885 82.133 164.502 90.7174 170.362 189.369 44.4271 82.133 87.8617 90.7174 44.4271 89.6421 165.02 79.6442 169.837 173.845 37.7058 89.6421 76.6403 79.6442 37.7058 83.224 173.157 90.1923 169.181 184.715 51.9363 83.224 88.38 90.1923 51.9363 61.2704 148.425 78.9889 154.704 184.488 31.2877 61.2704 84.7775 78.9889 31.2877 69.0915 144.326 75.7153 145.087 146.846 29.9827 69.0915 63.648 75.7153 29.9827 106.689 182.085 69.372 170.152 142.591 39.1087 106.689 80.6777 69.372 39.1087 67.5805 101.407 100.78 100.78 165.437 67.5805 67.5805 101.407 100.78 67.5805 63.6792 128.938 255.596 120.596 138.913 285.193 264.686 138.913 63.6792 128.938 120.596 63.6792 138.913 63.6792 125.067 256.607 146.28 280.602 290.663 65.2587 125.067 135 146.28 65.2587 125.884 265.189 134.322 267.596 272.472 59.8081 125.884 121.607 134.322 59.8081 130.051 269.87 133.275 277.741 290.328 66.0763 130.051 143.582 133.275 66.0763 125.312 238.404 144.466 271.628 289.436 63.9752 125.312 126.288 144.466 63.9752 116.487 230.835 127.162 252.001 261.958 61.3368 116.487 112.116 127.162 61.3368 121.282 242.386 124.839 260.344 255.417 55.1499 121.282 118.719 124.839 55.1499 116.637 240.128 135.505 245.778 253.625 66.1322 116.637 123.666 135.505 66.1322 113.949 233.673 110.273 234.705 238.977 50.5051 113.949 116.461 110.273 50.5051 108.493 207.056 124.431 229.213 240.892 63.4443 108.493 117.212 124.431 63.4443 105.758 205.244 104.782 210.206 200.66 45.0489 105.758 89.8449 104.782 45.0489 118.724 214.964 105.424 206.719 212.062 60.7095 118.724 115.399 105.424 60.7095 102.577 197.107 101.294 202.053 186.294 58.0143 102.577 99.5643 101.294 58.0143 93.5898 197.373 100.759 199.032 201.317 44.5629 93.5898 97.5428 100.759 44.5629 90.3151 182.972 98.2726 188.015 196.194 49.0269 90.3151 99.8304 98.2726 49.0269 80.0238 179.693 89.7421 173.011 171.85 41.2882 80.0238 83.1415 89.7421 41.2882 85.0258 198.059 83.2687 169.588 188.581 38.7355 85.0258 96.5511 83.2687 38.7355 88.2286 198.712 86.3193 165.035 187.291 46.2902 88.2286 101.508 86.3193 46.2902 80.1944 193.539 78.7153 162.484 180.023 41.9384 80.1944 97.2044 78.7153 41.9384 85.9572 196.045 83.769 178.021 193.179 38.256 85.9572 96.335 83.769 38.256 93.4338 182.908 94.252 178.529 182.329 47.7012 93.4338 99.7103 94.252 47.7012 75.9959 145.111 84.2773 149.888 163.526 45.7326 75.9959 83.1978 84.2773 45.7326 63.463 125.944 65.6109 130.83 136.305 30.2633 63.463 61.9131 65.6109 30.2633 33.1997 64.0306 65.2191 65.2191 139.36 33.1997 33.1997 64.0306 65.2191 33.1997 75.2334 156.255 299.754 144.09 75.2334 156.255 144.09 75.2334 75.2334 156.255 144.09 75.2334 75.2334 75.2334 155.535 306.528 81.0212 155.535 155.664 81.0212 155.535 155.664 81.0212 81.0212 141.712 297.61 74.5136 141.712 150.865 74.5136 141.712 150.865 74.5136 74.5136 147.69 309.894 67.1984 147.69 146.746 67.1984 147.69 146.746 67.1984 67.1984 146.316 312.99 80.4913 146.316 163.148 80.4913 146.316 163.148 80.4913 80.4913 135.514 286.54 65.8248 135.514 149.842 65.8248 135.514 149.842 65.8248 65.8248 139.062 266.656 69.689 139.062 136.698 69.689 139.062 136.698 69.689 69.689 129.141 252.474 69.3728 129.141 129.958 69.3728 129.141 129.958 69.3728 69.3728 120.755 246.197 59.7682 120.755 122.516 59.7682 120.755 122.516 59.7682 59.7682 120.72 234.496 60.987 120.72 123.681 60.987 120.72 123.681 60.987 60.987 104.448 207.478 59.7328 104.448 110.815 59.7328 104.448 110.815 59.7328 59.7328 87.9949 183.393 44.7147 87.9949 96.6628 44.7147 87.9949 96.6628 44.7147 44.7147 99.4762 190.504 43.2801 99.4762 86.7301 43.2801 99.4762 86.7301 43.2801 43.2801 105.442 200.138 56.1961 105.442 103.774 56.1961 105.442 103.774 56.1961 56.1961 97.6996 185.072 49.2458 97.6996 96.3638 49.2458 97.6996 96.3638 49.2458 49.2458 92.987 180.738 48.4539 92.987 88.7081 48.4539 92.987 88.7081 48.4539 48.4539 84.5623 177.813 44.5332 84.5623 92.03 44.5332 84.5623 92.03 44.5332 44.5332 76.806 168.602 40.0291 76.806 85.7833 40.0291 76.806 85.7833 40.0291 40.0291 82.2898 179.662 36.7769 82.2898 82.8184 36.7769 82.2898 82.8184 36.7769 36.7769 92.0637 179.463 45.5129 92.0637 96.8439 45.5129 92.0637 96.8439 45.5129 45.5129 85.0954 162.947 46.5508 85.0954 82.6188 46.5508 85.0954 82.6188 46.5508 46.5508 73.8922 154.72 38.5446 73.8922 80.3282 38.5446 73.8922 80.3282 38.5446 38.5446 67.3671 149.722 35.3476 67.3671 74.3922 35.3476 67.3671 74.3922 35.3476 35.3476 32.0194 75.3296 32.0194 32.0194 75.3296 32.0194 32.0194 75.3296 32.0194 32.0194 159.334 143.031 73.3318 297.481 143.031 291.183 280.749 142.743 73.3318 159.334 143.031 73.3318 142.743 73.3318 167.219 154.451 322.747 292.658 276.508 86.002 167.219 154.451 148.439 86.002 157.708 168.297 320.232 285.05 316.179 81.2171 157.708 168.297 144.219 81.2171 152.69 151.935 312.867 281.354 295.091 76.4906 152.69 151.935 140.831 76.4906 149.16 160.932 302.485 272.195 299.445 76.1989 149.16 160.932 140.523 76.1989 141.078 141.553 289.941 242.067 253.932 72.9607 141.078 141.553 131.672 72.9607 137.19 148.388 276.358 258.231 248.119 68.1177 137.19 148.388 110.395 68.1177 120.928 127.97 235.854 241.485 271.405 69.0721 120.928 127.97 147.836 69.0721 106.662 107.884 216.894 202.691 195.906 51.8558 106.662 107.884 93.6491 51.8558 111.147 109.01 212.101 211.575 223.702 54.8058 111.147 109.01 109.042 54.8058 104.348 103.091 209.152 199.648 203.149 56.3413 104.348 103.091 102.533 56.3413 102.655 106.062 210.608 188.626 203.259 48.0066 102.655 106.062 97.1153 48.0066 90.5592 104.546 188.176 186.978 179.725 54.648 90.5592 104.546 91.5108 54.648 81.8588 83.6294 177.197 195.407 191.369 35.9113 81.8588 83.6294 95.4671 35.9113 94.46 93.5679 189.698 195.468 195.04 45.9475 94.46 93.5679 99.9403 45.9475 91.3413 96.1296 188.19 179.09 201.071 48.5125 91.3413 96.1296 95.5278 48.5125 89.6056 92.0603 174.469 176.358 175.709 42.8288 89.6056 92.0603 83.5617 42.8288 88.2769 82.4088 176.035 180.821 175.087 46.7768 88.2769 82.4088 92.7962 46.7768 80.3159 93.6258 183.173 172.727 188.926 41.5001 80.3159 93.6258 88.0252 41.5001 65.4774 89.5471 165.537 154.361 178.341 38.8158 65.4774 89.5471 84.7021 38.8158 61.1221 75.9897 149.753 141.097 162.776 26.6616 61.1221 75.9897 69.659 26.6616 59.1844 73.7637 130.134 141.417 137.689 34.4605 59.1844 73.7637 71.4376 34.4605 72.5572 56.3702 151.651 164.038 131.089 24.7238 72.5572 56.3702 69.9796 24.7238 47.8333 95.2811 95.2811 94.0587 196.412 47.8333 47.8333 95.2811 94.0587 47.8333 259.776 137.719 243.023 231.001 115.03 131.849 137.719 69.4116 115.03 69.4116 269.94 275.232 248.911 125.439 122.057 127.993 62.4372 291.039 263.554 305.686 127.342 147.883 147.239 63.0015 281.67 252.026 252.464 128.664 143.156 116.315 64.3405 250.892 255.61 263.626 123.035 138.513 135.711 64.3238 212.11 222.989 225.379 100.988 112.378 119.899 58.7113 243.166 227.779 212.1 121.041 99.7315 103.09 42.2771 231.457 216.53 240.102 120.557 143.435 124.689 78.7638 202.714 194.276 192.022 96.0294 88.023 91.8418 41.7934 214.749 189.167 218.075 100.428 114.691 102.435 54.236 197.255 198.741 196.858 95.3002 100.058 86.7325 46.1916 172.376 192.738 199.842 85.9715 97.1969 112.009 49.1087 182.918 187.819 178.604 96.4186 75.1793 80.7298 36.8628 209.211 215.683 203.191 113.549 107.739 107.089 59.5559 206.413 201.422 198.728 101.008 101.472 108.593 53.9928 188.59 174.424 187.812 87.7482 104.941 92.8288 47.0153 176.327 162.748 164.259 86.7524 83.6489 81.5951 40.7329 187.979 164.158 169.221 92.5445 92.6786 81.1527 46.0194 184.094 168.439 174.361 92.4114 95.3003 83.0049 46.5251 175.58 164.533 170.129 88.8837 88.7939 85.4346 45.8863 150.711 148.125 170.979 79.9744 86.7859 79.0987 42.9973 138.644 154.835 135.632 82.2328 63.9254 69.0258 36.9771 175.849 179.16 148.995 91.4811 74.7184 85.8093 45.2557 101.13 93.3507 192.384 46.2253 101.13 93.3507 46.2253 220.136 93.2823 195.474 175.367 82.1404 111.174 93.2823 45.6183 82.1404 45.6183 284.658 254.824 249.741 149.793 126.854 113.334 65.5555 267.112 248.892 263.045 136.212 157.804 141.491 84.2375 234.421 239.414 218.996 123.362 109.308 107.401 51.9744 238.113 232.345 239.981 132.575 125.113 132.013 71.3874 225.369 216.137 209.337 122.001 113.001 100.332 61.1876 209.036 206.493 217.035 106.738 112.369 115.805 60.8132 200.667 189.283 201.505 95.9733 96.6679 90.6883 45.9249 207.383 202.259 211.034 98.247 103.999 98.5946 50.0484 200.184 191.572 208.137 88.7395 103.384 103.665 48.1986 199.444 206.034 193.014 103.441 96.7997 87.907 40.5409 206.07 207.675 209.803 106.767 102.645 118.127 62.8999 198.876 198.82 202.003 91.4006 103.425 89.548 43.867 192.707 196.657 196.473 102.134 95.4514 109.272 47.5335 180.127 184.018 178.455 100.414 97.2559 87.3848 54.6006 163.481 190.137 166.047 86.6757 82.8711 96.6332 45.8135 157.153 167.378 187.629 75.9954 80.6101 93.5036 40.8622 155.603 155.517 161.433 71.6131 76.5425 73.8748 35.1332 160.396 174.107 166.528 76.0281 79.0606 81.6426 36.4798 165.528 173.908 184.144 75.6496 81.335 92.4647 39.5482 155.9 150.849 158.009 68.1501 84.1934 81.4436 36.1013 145.983 151.091 142.456 72.6024 71.7064 69.405 32.0488 165.53 172.815 154.115 87.6789 74.2767 81.6861 40.5536 91.2531 91.1285 186.688 47.1253 91.2531 91.1285 47.1253 204.973 82.0852 195.473 182.113 90.5279 84.3003 82.0852 36.522 90.5279 36.522 228.128 225.98 229.999 105.031 122.887 104.945 47.7783 214.929 235.698 228.201 112.68 105.241 121.036 57.2532 224.556 229.095 235.053 116.052 109.688 114.662 55.4265 211.204 207.6 206.094 99.7701 114.868 114.433 60.6258 201.003 207.78 202.088 94.1358 96.336 93.1671 39.1443 209.504 203.324 221.404 99.7549 104.667 114.613 54.9915 211.872 193.438 198.511 93.3096 104.837 88.711 44.7634 211.787 212.023 209.491 104.012 107.035 104.727 48.5462 200.966 192.387 211.61 102.832 104.753 107.297 55.4662 203.372 196.002 186.959 102.593 96.2138 85.0906 47.366 205.736 199.473 211.187 100.908 107.158 110.912 55.2268 199.6 199.822 201.619 107.42 98.5783 88.5613 45.6809 182.221 179.941 190.344 94.523 101.021 111.26 61.7388 164.375 173.28 168.712 83.6038 81.1991 68.681 32.7842 190.195 200.373 169.881 103.461 83.1758 104.599 50.8196 191.909 171.25 199.29 91.3831 107.019 95.7741 52.6414 172.358 162.684 160.286 83.9044 84.8904 75.4763 38.7416 190.276 187.823 176.653 98.0792 87.4673 87.2079 45.1628 176.625 188.896 184.368 98.2587 102.809 100.616 52.9164 144.566 174.077 162.64 82.6985 73.816 88.2805 45.3423 150.588 167.165 163.786 78.4887 70.7501 85.7966 37.3563 175.273 164.871 150.984 85.1356 79.8382 81.3688 41.1325 95.4346 83.5018 164.692 44.0032 95.4346 83.5018 44.0032 207.139 100.028 216.567 184.669 96.2522 111.172 100.028 54.0059 96.2522 54.0059 230.071 245.574 222.391 120.949 107.111 120.315 57.1663 248.325 242.254 261.201 123.019 122.96 125.259 63.7827 216.591 228.582 239.354 113.043 125.365 116.995 59.2359 196.978 221.091 214.48 107.83 91.226 111.587 53.807 222.489 216.515 209.746 113.644 105.752 109.504 54.0228 210.411 214.516 215.87 103.569 116.737 107.011 59.6212 196.13 215.679 210.205 100.128 93.6737 107.505 43.9476 209.314 209.112 202.852 108.011 102.456 108.174 56.1806 197.602 199.648 205.784 89.555 106.857 100.939 51.8304 194.774 212.55 193.17 93.4095 90.745 98.7091 37.7246 207.07 210.542 213.51 98.5654 104.029 113.841 55.685 192.364 190.738 220.519 92.4019 103.041 96.7006 42.8804 176.835 180.542 173.125 85.4183 89.3228 94.0378 49.5215 174.218 197.477 183.546 89.6759 87.5126 86.5043 35.8968 178.976 199.034 185.861 96.9117 86.7052 110.973 53.779 167.666 168.23 171.115 79.8673 92.271 88.0605 43.1326 164.581 161.149 167.725 78.7798 75.3954 80.1693 36.7347 170.744 165.122 171.831 89.7442 89.1857 80.9796 42.0451 170.383 180.571 163.181 90.6373 81.5588 84.1428 47.6991 181.86 178.534 183.214 91.3785 88.824 96.428 42.9382 164.182 163.911 174.701 88.6767 93.0363 82.1056 48.4403 140.403 155.13 153.928 79.7351 71.146 81.8054 40.2364 69.2574 73.325 150.804 39.4987 69.2574 73.325 39.4987 199.921 84.6416 232.053 188.769 99.1633 105.395 84.6416 42.2463 99.1633 42.2463 253.521 256.165 253.136 124.625 115.279 132.89 63.1486 252.231 258.54 266.459 119.235 138.241 123.275 61.4762 237.244 255.358 253.538 115.539 113.989 135.265 57.7591 227.248 226.353 249.392 113.261 123.254 120.093 57.7803 203.126 217.22 220.956 102.871 103.994 106.26 55.481 215.665 232.051 210.886 110.948 99.1329 110.959 47.39 216.927 239.041 230.866 115.551 116.532 121.092 63.5576 199.322 220.825 216.222 101.101 100.395 117.949 51.9931 201.351 208.656 208.873 110.093 98.9263 102.875 49.1081 211.906 218.627 210.766 119.141 102.425 105.781 60.9845 226.959 208.216 204.038 111.977 109.481 112.846 58.1563 201.28 192.866 199.065 98.3365 117.478 95.3701 53.8202 179.836 198.907 198.18 95.1237 83.8018 97.4961 44.5163 195.19 200.458 183.381 107.802 96.0337 101.411 50.6074 178 201.791 193.851 102.122 99.156 99.0475 57.1942 171.173 201.396 194.477 88.3625 78.8441 102.743 44.9279 174.975 192.853 183.772 82.369 92.3291 98.6521 43.4346 164.268 188.723 176.704 75.3781 82.6457 94.2004 38.9345 176.012 200.022 198.146 89.9335 81.6222 94.5227 36.4437 176.055 176.629 188.546 87.1551 94.3901 105.499 53.4898 164.447 144.349 155.257 75.2343 81.665 71.1304 33.6653 164.329 137.876 153.786 75.3953 82.7821 73.2188 41.569 81.5469 64.6572 143.329 33.8263 81.5469 64.6572 33.8263 241.984 104.128 270.157 238.749 125.774 126.658 104.128 56.917 125.774 56.917 266.075 282.533 295.634 131.54 137.857 144.384 69.7412 267.766 295.203 284.965 139.305 128.218 138.15 61.7989 265.686 302.023 293.382 139.819 139.548 157.054 77.506 243.1 279.766 284.596 113.092 126.138 144.97 62.3128 228.715 265.374 278.153 114.349 116.962 134.796 50.7792 226.087 248.698 246.012 121.104 111.753 130.578 63.5693 230.161 246.824 251.506 123.49 114.334 118.12 57.5342 225.773 245.165 241.409 119.723 115.826 128.704 65.9561 218.289 212.339 231.672 98.5632 109.947 116.461 53.7672 202.899 202.516 200.254 99.486 108.342 95.8784 44.796 176.145 191.638 197.97 96.2399 94.5571 106.638 54.69 195.966 185.557 163.917 94.5298 81.5876 84.9999 41.5499 201.725 198.479 215.589 103.783 114.378 100.558 52.9799 182.042 180.029 184.437 92.6568 87.3472 97.9216 50.8035 210.328 187.42 162.052 99.6688 94.6947 82.1075 41.8533 207.075 206.284 201.938 113.033 115.633 105.312 57.8155 185.501 202.279 196.552 110.483 91.4426 100.972 55.2175 210.581 210.718 182.589 113.345 94.0579 101.308 55.266 210.68 197.487 215.799 110.088 116.524 109.41 58.079 167.748 167.326 174.782 89.4743 94.156 88.0771 52.0091 144.597 149.943 167.44 69.115 73.5923 79.2487 37.4652 132.786 144.835 146.015 62.4807 71.0043 70.6944 31.6498 61.7819 74.141 146.936 30.8309 61.7819 74.141 30.8309 292.399 134.621 143.499 134.621 68.8568 143.499 134.621 68.8568 68.8568 68.8568 314.524 150.993 157.778 150.993 157.778 74.6423 74.6423 310.58 155.898 156.747 155.898 156.747 76.3509 76.3509 312.292 162.205 153.834 162.205 153.834 79.5476 79.5476 319.65 166.674 158.458 166.674 158.458 82.657 82.657 295.451 151.026 161.191 151.026 161.191 84.0168 84.0168 271.432 127.594 134.26 127.594 134.26 67.009 67.009 262.755 123.334 137.172 123.334 137.172 60.5855 60.5855 247.308 125.442 125.583 125.442 125.583 62.7481 62.7481 213.638 113.776 121.725 113.776 121.725 62.6938 62.6938 195.325 103.03 91.9128 103.03 91.9128 51.0824 51.0824 185.742 95.3981 103.412 95.3981 103.412 51.9481 51.9481 183.54 91.0276 82.3299 91.0276 82.3299 43.45 43.45 198.3 94.6957 101.21 94.6957 101.21 47.5777 47.5777 164.447 87.3723 97.0894 87.3723 97.0894 47.118 47.118 153.663 87.7511 67.3575 87.7511 67.3575 40.2542 40.2542 191.415 93.2511 86.3051 93.2511 86.3051 47.4968 47.4968 193.641 91.7958 105.11 91.7958 105.11 45.7542 45.7542 187.807 97.3726 88.531 97.3726 88.531 46.0416 46.0416 179.902 87.399 99.2756 87.399 99.2756 51.331 51.331 174.474 77.8515 80.6261 77.8515 80.6261 36.068 36.068 168.858 80.8281 93.8475 80.8281 93.8475 41.7835 41.7835 160.164 82.3547 75.0102 82.3547 75.0102 39.0446 39.0446 85.154 43.3101 85.154 43.3101 85.154 43.3101 43.3101 138.147 151.924 69.699 303.653 151.924 266.074 269.28 138.006 69.699 138.147 151.924 69.699 138.006 69.699 155.528 151.729 318.279 300.029 292.221 68.4485 155.528 151.729 128.069 68.4485 162.524 166.55 324.2 326.221 323.492 87.0794 162.524 166.55 171.96 87.0794 160.177 157.65 318.502 313.182 304.213 75.4444 160.177 157.65 154.26 75.4444 153.325 160.851 288.944 281.182 297.143 84.7327 153.325 160.851 158.922 84.7327 148.863 128.092 272.328 259.984 240.269 68.5927 148.863 128.092 122.26 68.5927 139.168 144.235 264.465 261.293 259.867 80.2701 139.168 144.235 137.724 80.2701 114.926 120.23 227.628 225.826 259.114 58.8983 114.926 120.23 123.569 58.8983 110.232 107.398 213.482 216.917 217.049 56.0277 110.232 107.398 102.257 56.0277 100.954 106.084 215.605 215.276 226.694 54.2044 100.954 106.084 114.66 54.2044 104.805 109.52 224.345 206.759 236.733 46.7494 104.805 109.52 100.616 46.7494 107.953 114.824 218.951 194.358 209.318 58.0551 107.953 114.824 106.143 58.0551 97.6164 104.126 200.253 184.116 193.4 49.8982 97.6164 104.126 88.2147 49.8982 95.3386 96.1264 181.686 191.001 201.889 47.7182 95.3386 96.1264 95.9015 47.7182 95.2375 85.5592 171.297 200.643 174.843 47.6204 95.2375 85.5592 95.0997 47.6204 96.8485 85.7379 182.077 197.69 194.112 47.617 96.8485 85.7379 105.543 47.617 84.8635 96.3391 170.71 174.439 180.205 49.2315 84.8635 96.3391 92.1475 49.2315 87.7578 74.3705 166.782 183.192 184.397 35.632 87.7578 74.3705 82.2911 35.632 102.857 92.4116 180.943 194.54 191.782 52.1258 102.857 92.4116 100.901 52.1258 100.059 88.5313 184.893 186.756 165.272 50.7313 100.059 88.5313 93.6389 50.7313 88.6313 96.3614 173.023 159.368 177.639 49.3281 88.6313 96.3614 93.1166 49.3281 70.9496 76.6612 153.963 127.361 151.503 39.3032 70.9496 76.6612 66.2515 39.3032 79.0942 77.3019 171.889 163.462 142.214 31.6464 79.0942 77.3019 61.1091 31.6464 47.4478 94.5875 94.5875 102.353 187.902 47.4478 47.4478 94.5875 102.353 47.4478 257.848 117.356 236.89 223.811 115.971 127.927 117.356 68.307 115.971 68.307 297.434 279.366 268.775 144.501 140.492 120.919 59.62 303.505 294.597 299.403 163.697 156.943 158.447 84.8811 282.854 264.064 258.576 153.005 146.562 136.15 78.8158 248.468 233.395 237.735 127.857 136.292 127.915 74.1896 227.808 214.49 215.705 111.121 112.176 105.48 53.667 254.516 224.424 223.371 122.125 115.632 109.01 57.4544 248.535 215.594 248.795 110.9 138.883 115.414 64.6707 230.261 215.821 211.839 106.685 109.652 100.18 46.2296 247.822 225.766 244 114.322 120.61 115.641 60.4552 221.706 197.958 221.278 101.955 127.212 110.125 53.8666 183.766 185.707 181.575 86.4047 94.4931 87.833 48.0883 195.036 193.976 204.312 86.4998 89.2731 97.8743 38.3165 195.046 186.236 200.302 95.6626 105.763 96.1012 48.1833 197.657 185.118 184.278 105.405 89.2836 90.1346 47.4793 192.24 177.647 192.926 100.842 108.374 94.9834 57.9258 193.893 170.732 174.004 89.5751 83.8663 82.6639 42.916 209.397 179.424 189.544 95.4343 110.027 88.0685 46.6591 176.111 176.05 182.494 91.6828 99.3704 91.3559 48.7752 158.019 176.575 171.382 86.6961 76.741 84.6944 42.9076 156.119 158.487 174.249 70.7369 81.2777 91.8806 43.7885 139.754 129.792 147.995 56.411 74.8417 66.606 26.9483 158.226 162.219 134.688 84.3678 64.9119 63.1858 29.4627 93.3144 99.0329 162.76 54.9051 93.3144 99.0329 54.9051 234.738 106.455 229.635 208.05 93.2271 108.963 106.455 47.6639 93.2271 47.6639 270.743 257.962 259.701 134.865 128.283 136.408 61.2987 254.474 233.149 239.416 130.9 142.46 121.554 73.5664 213.457 219.562 220.968 111.059 112.014 111.595 57.3337 204.972 216.972 211.107 105.538 101.443 107.967 53.7251 211.268 210.236 220.199 103.368 103.529 109.005 51.813 217.651 212.048 202.866 102.298 107.739 101.231 51.5554 212.099 223.256 227.841 104.694 109.912 110.817 50.7431 225.577 216.911 233.768 109.136 102.187 112.439 53.9507 217.456 209.578 222.12 111.444 123.39 104.472 55.1856 181.148 196.782 193.264 96.0035 94.0661 105.107 56.2588 202.12 204.131 196.573 99.3026 87.0816 91.6759 39.7447 209.578 199.656 212.992 107.476 115.039 112.455 59.5579 189.533 178.271 179.294 90.5732 94.5391 87.2006 47.9179 179.547 160.484 181.984 79.7128 94.9944 91.0702 42.6553 174.69 163.539 159.397 76.8055 84.5524 69.4136 37.0575 169.655 181.684 199.859 81.1573 90.138 94.1255 39.748 162.641 172.443 170.9 83.9901 79.5174 87.5581 41.4093 177.765 176.565 148.053 84.3675 83.1239 84.8853 42.5807 187.612 168.245 181.718 89.8789 94.6413 91.6795 41.7868 166.124 149.617 152.927 87.7497 92.9709 76.5658 48.0921 142.93 145.48 149.99 73.3807 73.1536 73.0515 39.6576 139.223 167.988 142.636 77.8509 69.7765 72.4288 33.7231 69.4461 95.5592 160.983 44.1278 69.4461 95.5592 44.1278 233.013 101.595 216.639 187.221 91.585 120.672 101.595 45.5632 91.585 45.5632 228.374 232.219 234.167 123.097 131.417 125.054 75.109 205.91 227.555 207.521 102.249 96.9561 107.165 47.9878 218.618 212.052 235.504 108.503 108.954 120.39 54.2612 226.334 200.582 206.785 111.434 109.663 91.6612 54.2422 211.797 215.712 228.983 106.867 116.67 108.921 57.1917 213.056 216.592 206.747 109.749 95.1269 106.791 49.6754 249.51 214.564 212.926 118.562 117.929 109.8 60.074 230.311 209.078 230.317 107.775 131.581 104.764 58.4883 197.928 206.182 191.694 98.1341 98.7303 104.313 49.2863 208.689 202.144 201.534 100.779 99.1977 101.868 48.8478 207.445 213.333 207.589 104.829 109.491 100.275 51.9312 182.708 192.142 219.303 92.1801 97.9537 113.058 52.8974 171.744 179.115 172.724 87.6976 84.7547 79.084 39.2827 161.834 165.313 183.224 80.771 86.9898 100.031 48.4149 184.565 168.798 150.17 86.7337 74.8447 65.2822 32.3561 201.103 188.325 192.217 100.526 109.721 103.516 54.3776 156.312 174.255 168.526 88.4533 91.3828 84.8095 46.1487 152.006 173.198 151.551 92.1973 64.929 89.4452 42.3046 147.032 158.112 157.444 78.3665 87.0765 83.7524 49.8927 136.792 152.349 143.016 61.8676 59.9557 74.3596 28.4737 149.695 147.605 164.249 72.0995 76.836 77.9899 33.3938 164.396 150.805 152.149 90.1371 72.8592 69.6154 38.7057 91.537 81.1901 164.57 51.4314 91.537 81.1901 51.4314 188.375 85.6256 190.493 172.503 88.4171 95.9667 85.6256 46.0218 88.4171 46.0218 213.314 238.018 204.392 109.122 102.749 102.076 49.945 237.115 258.301 242.693 125.306 110.565 135.942 59.1771 223.672 225.252 242.962 103.548 126.55 122.359 66.1291 209.435 203.135 210.727 89.1483 97.1221 102.893 37.4189 223.932 209.101 215.697 108.845 112.313 100.242 51.7293 206.617 211.559 218.28 106.842 111.62 108.859 57.116 193.733 197.378 203.155 96.0021 94.9974 102.7 49.7262 191.7 199.523 194.64 101.303 98.736 94.6782 46.2759 195.3 199.306 186.827 108.047 92.9642 104.845 55.027 200.434 194.13 194.72 101.365 102.336 94.4607 53.0205 219.447 223.487 198.289 108.505 98.0978 99.6689 48.3441 209.318 202.905 235.942 99.9619 121.349 123.818 60.1606 184.203 176.129 169.787 91.4171 87.9693 79.0869 39.8013 171.559 171.93 183.831 84.5419 96.2337 97.0421 51.6158 157.822 157.942 163.698 82.0645 75.3256 74.8879 32.9261 159.639 170.61 158.321 87.7992 82.4959 83.0546 49.1384 163.765 178.407 159.969 85.8014 77.143 87.5553 38.6608 156.99 169.89 174.676 81.0003 86.6221 90.8519 47.1406 153.428 165.824 154.372 79.7455 70.3679 79.0382 33.8597 170.472 179.382 165.596 90.4819 83.0598 86.7861 45.8858 166.703 164.719 170.618 75.5057 87.4126 92.5958 44.596 152.324 149.602 167.931 60.6684 79.2903 72.1227 30.9097 73.0333 77.4793 165.601 29.7587 73.0333 77.4793 29.7587 188.521 86.8778 209.852 193.184 89.6061 94.5262 86.8778 42.3953 89.6061 42.3953 233.771 263.43 239.248 128.896 101.643 120.246 52.1309 248.54 261.457 259.703 132.995 132.129 143.184 76.7651 230.016 247.572 254.353 121.704 116.412 118.272 56.2302 216.989 243.995 247.622 113.987 113.605 129.299 65.4742 210.045 214.622 237.986 100.255 103.385 114.695 48.5125 214.818 209.7 205.656 104.717 106.66 99.9262 51.7429 204.062 208.047 224.672 101.376 108.158 109.774 52.9742 189.767 204.271 196.443 98.2204 95.9039 98.2725 48.4023 186.247 210.984 213.056 91.2584 93.8631 105.998 49.8182 192.575 196.178 208.671 92.765 92.3838 104.986 41.4403 214.783 194.887 192.884 114.982 100.191 91.1918 51.3247 196.411 204.379 203.495 102.943 114.593 103.695 63.6575 169.416 182.654 194.687 84.7119 81.8182 100.684 39.2856 175.97 176.773 170.996 87.3881 87.5977 81.97 45.4263 164.198 186.537 196.711 75.878 88.3727 94.8032 41.9618 158.652 176.853 178.223 82.8107 75.8253 91.7334 33.9162 170.88 167.623 158.742 92.6058 82.8262 85.1196 48.8945 172.058 186.126 164.437 88.8898 88.0538 82.5032 43.7113 166.54 186.67 174.508 86.0788 84.0041 103.623 45.1785 165.741 167.174 162.499 88.9001 82.5357 83.0472 40.9003 171.846 164.694 161.897 89.2128 83.2054 84.1269 47.9998 181.208 159.239 172.977 88.9336 88.6404 80.5675 41.213 92.5679 78.6715 167.561 47.7206 92.5679 78.6715 47.7206 243.912 106.307 264.226 245.32 112.975 115.326 106.307 47.2108 112.975 47.2108 265.18 298.066 295.779 134.534 137.605 151.251 68.1153 265.516 283.143 294.607 128.461 127.575 146.815 66.4191 271.959 275.955 284.955 125.867 137.941 136.328 62.0422 268.619 282.984 284.475 130.008 134.018 139.627 63.825 233.598 258.791 277.226 114.366 134.602 143.357 66.1828 215.51 248.821 224.917 104.983 98.9961 115.434 48.1834 217.054 246.092 271.439 106.67 116.514 133.387 56.8001 219.732 227.916 225.009 106.05 100.539 112.705 49.8702 235.48 219.587 238.805 119.725 119.193 115.211 56.1799 208.98 195.707 195.582 103.413 116.287 104.376 63.5455 181.596 170.249 191.011 79.9048 92.6934 91.3315 39.8671 201.772 193.949 187.89 101.436 88.9025 78.9176 40.0377 196.268 201.546 224.002 97.9421 112.869 115.031 61.3985 191.736 166.46 196.77 89.3851 83.3985 86.5151 36.5437 210.736 176.57 181.814 110.659 108.338 79.9447 52.8415 178.314 192.206 184.113 94.0423 102.398 96.6255 57.8173 152.299 176.862 180.646 75.017 75.9162 95.5806 36.2251 166.887 187.67 169.638 97.2365 76.383 81.2813 38.7919 170.468 193.094 176.436 100.591 90.5043 106.389 58.4445 158.655 174.896 171.53 78.2741 79.9636 86.705 42.1469 163.029 163.511 175.733 75.4816 78.6918 88.1911 36.1272 159.33 148.115 161.643 70.3055 84.337 75.3201 39.3545 74.9934 72.7949 165.015 30.951 74.9934 72.7949 30.951 297.187 139.013 148.9 139.013 65.7642 148.9 139.013 65.7642 65.7642 65.7642 325.206 163.531 158.173 163.531 158.173 83.1353 83.1353 314.047 154.682 167.033 154.682 167.033 80.3958 80.3958 297.471 150.088 147.014 150.088 147.014 74.2861 74.2861 293.081 152.976 150.457 152.976 150.457 75.8015 75.8015 268.545 144.425 142.624 144.425 142.624 77.1745 77.1745 280.845 143.837 125.921 143.837 125.921 67.2508 67.2508 279.394 139.421 154.924 139.421 154.924 76.5865 76.5865 244.081 121.866 124.469 121.866 124.469 62.8348 62.8348 198.907 99.8614 119.612 99.8614 119.612 59.031 59.031 177.612 92.2948 79.2948 92.2948 79.2948 40.8304 40.8304 197.305 90.3443 98.3175 90.3443 98.3175 51.4644 51.4644 210.12 92.5126 98.987 92.5126 98.987 38.8799 38.8799 224.504 103.604 111.133 103.604 111.133 53.6327 53.6327 186.847 77.0746 113.371 77.0746 113.371 49.9714 49.9714 155.191 65.9115 73.4759 65.9115 73.4759 27.1032 27.1032 186.445 98.1638 81.715 98.1638 81.715 38.8083 38.8083 197.985 101.845 104.73 101.845 104.73 59.3555 59.3555 179.187 90.434 93.2548 90.434 93.2548 42.4894 42.4894 177.498 92.5027 85.9317 92.5027 85.9317 47.9446 47.9446 188.608 96.622 91.5666 96.622 91.5666 44.558 44.558 174.347 88.0296 97.0413 88.0296 97.0413 52.064 52.064 167.328 77.8095 77.3062 77.8095 77.3062 35.9657 35.9657 90.0217 41.8439 90.0217 41.8439 90.0217 41.8439 41.8439 165.505 144.677 82.2245 306.521 144.677 295.426 244.017 131.274 82.2245 165.505 144.677 82.2245 131.274 82.2245 162.751 161.844 317.096 315.684 314.248 83.2806 162.751 161.844 164.152 83.2806 161.676 155.252 320.052 301.484 291.733 79.4703 161.676 155.252 151.532 79.4703 158.324 164.8 310.474 288.173 298.107 82.206 158.324 164.8 149.953 82.206 135.618 145.673 275.418 256.229 273.32 76.1185 135.618 145.673 138.221 76.1185 123.465 129.745 276.347 240.152 259.581 59.4997 123.465 129.745 118.009 59.4997 125.297 146.602 267.217 257.688 285.084 63.9651 125.297 146.602 122.143 63.9651 112.702 120.615 234.898 250.337 260.774 61.3319 112.702 120.615 135.545 61.3319 103.25 114.284 219.571 226.826 237.462 51.3699 103.25 114.284 114.792 51.3699 114.651 105.287 221.667 248.151 214.764 51.88 114.651 105.287 112.034 51.88 119.54 116.38 219.697 239.291 232.95 62.7707 119.54 116.38 136.116 62.7707 110.998 103.317 201.231 208.359 191.339 56.7694 110.998 103.317 103.174 56.7694 102.636 97.9132 208.366 211.172 208.874 54.2282 102.636 97.9132 105.185 54.2282 86.347 110.453 190.028 185.731 209.299 48.4082 86.347 110.453 105.987 48.4082 76.0597 79.5746 165.824 168.312 160.858 37.9388 76.0597 79.5746 79.7431 37.9388 85.2285 86.2493 184.066 176.627 186.055 38.1209 85.2285 86.2493 88.5689 38.1209 85.8461 97.8169 166.141 190.164 184.736 47.1076 85.8461 97.8169 88.058 47.1076 79.0244 68.3238 151.986 192.987 178.28 38.7385 79.0244 68.3238 102.106 38.7385 78.0859 83.6625 165.836 162.514 186.106 40.2859 78.0859 83.6625 90.881 40.2859 84.8333 82.1732 175.731 156.156 164.323 37.8 84.8333 82.1732 71.6334 37.8 84.3912 93.5574 173.109 169.774 166.443 47.0333 84.3912 93.5574 84.5224 47.0333 83.0135 79.552 166.534 166.356 170.017 37.358 83.0135 79.552 85.2514 37.358 92.7952 86.9816 167.208 166.654 167.83 45.6555 92.7952 86.9816 81.1047 45.6555 47.1397 80.2263 80.2263 85.549 155.44 47.1397 47.1397 80.2263 85.549 47.1397 251.743 99.3397 255.697 212.591 107.84 129.921 99.3397 49.0494 107.84 49.0494 288.885 288.811 278.278 152.933 152.404 147.856 80.8718 269.788 263.382 277.634 139.808 136.481 140.955 72.0616 260.953 232.247 241.829 129.849 133.306 122.427 67.7466 257.483 220.045 238.759 120.611 127.647 109.82 62.1021 268.318 224.586 242.877 116.687 129.836 110.225 58.5091 278.641 247.743 248.935 132.391 138.482 114.361 58.1778 263.337 245.04 257.573 137.635 140.159 133.381 74.2128 232.655 240.017 231.65 123.576 123.178 111.658 63.4219 226.046 239.512 219.687 133.5 109.476 128.359 60.1543 204.592 204.895 221.081 119.751 116.57 111.153 73.3458 198.983 200.179 191.748 97.3615 88.022 93.7418 46.4049 209.807 210.638 212.034 108.536 110.961 106.437 50.9566 180.13 198.344 197.663 99.3836 98.846 104.2 57.5792 181.09 192.086 177.401 92.2523 81.2838 94.1434 41.8043 186.725 189.283 194.543 91.3983 99.806 97.9428 50.4479 196.875 192.816 185.55 104.318 86.9188 91.3404 40.9503 212.4 192.614 182.217 113.963 109.957 101.476 63.3678 184.593 177.826 181.631 84.4286 102.444 91.1384 50.5952 155.035 169.056 168.692 71.3226 82.1495 86.688 33.8334 163.351 163.757 157.648 85.3826 72.8857 82.3679 37.4892 171.313 152.892 151.974 83.3426 90.4651 81.3893 47.8934 156.061 135.23 159.348 73.8585 80.8482 71.5026 35.4492 75.2133 63.7275 143.747 38.4093 75.2133 63.7275 38.4093 239.125 113.251 238.116 202.082 114.823 125.775 113.251 58.7908 114.823 58.7908 267.027 241.155 234.968 135.878 125.874 123.293 66.9844 249.676 227.235 246.841 123.574 141.153 117.862 68.8937 219.635 212.513 224.944 102.398 108.523 109.373 54.6803 224.152 214.333 215.9 99.4337 111.112 103.139 47.7181 223.494 212.829 218.324 107.899 113.041 111.194 51.7156 227.867 218.659 198.33 115.352 110.453 101.635 56.1835 225.886 238.353 232.306 107.405 117.414 117.024 59.1686 218.682 238.977 232.721 116.441 108.472 121.329 48.2363 214.721 205.806 209.891 106.012 110.21 117.648 68.2045 208.237 193.054 210.822 85.1442 104.511 88.1573 37.8073 204.798 205.434 209.092 102.818 103.726 104.897 47.3369 199.889 192.63 193.315 102.102 101.072 100.537 55.4807 194.935 183.007 212.597 98.9603 98.8171 92.0932 46.6212 190.855 180.897 192.972 99.8339 96.1176 90.9139 52.339 193.369 195.717 186.196 97.8849 94.7369 89.9834 47.4949 170.892 189.075 201.625 88.4981 98.6317 105.733 50.39 151.448 146.51 162.579 78.6512 72.2602 83.3421 38.108 165.73 153.206 138.976 93.3978 79.1874 63.1676 40.5432 171.306 166.399 165.657 97.7333 86.5428 90.0384 52.8546 146.272 153.299 161.744 78.3747 84.7627 76.3608 44.8788 140.009 147.145 137.082 69.5493 61.5093 76.9381 33.496 147.033 135.631 159.528 61.3717 78.4995 70.2068 36.0534 68.5337 65.4239 145.109 25.3183 68.5337 65.4239 25.3183 197.925 88.8308 204.749 177.427 95.6359 112.34 88.8308 56.0321 95.6359 56.0321 214.782 209.469 209.902 105.277 109.094 109.113 56.3084 222.109 215.47 230.061 103.661 105.688 100.356 48.9683 221.209 230.238 231.875 110.114 116.421 115.114 54.693 210.071 235.186 208.82 114.9 104.788 115.124 55.4211 193.161 220.017 221.342 104.93 105.283 120.062 59.4786 202.77 203.081 197.966 103.306 87.8772 99.9552 45.4515 239.141 228.679 209.686 130.948 114.893 103.126 57.855 223.929 212.934 229.372 122.537 124.249 125.553 73.0927 205.992 187.047 195.751 99.7939 99.6803 87.3811 49.444 211.677 206.979 199.66 107.91 106.311 99.6655 50.3499 197.609 213.558 208.907 102.616 105.366 107.314 57.5601 206.023 199.884 205.034 90.5283 92.2432 106.245 45.0563 210.634 176.833 213.829 84.0469 113.78 93.64 45.472 188.313 168.081 194.685 81.0634 96.8542 83.1929 38.5749 194.452 173.589 173.009 97.8316 91.4586 84.8881 42.4885 193.312 172.417 175.182 100.577 102.993 88.7007 55.3431 150.108 145.822 176.638 67.8585 90.3188 83.7163 45.2341 138.904 135.798 136.967 59.8082 59.789 62.1059 22.6244 156.096 142.348 159.749 68.6658 79.1145 73.692 37.1838 152.555 154.915 152.426 74.9242 76.9818 68.656 31.482 156.602 168.793 152.962 77.5956 75.5727 86.2587 43.4422 157.604 165.914 160.046 74.259 81.0289 82.5341 34.1535 76.5751 83.3803 158.483 40.1056 76.5751 83.3803 40.1056 189.404 88.5964 186.402 188.169 84.0863 92.4081 88.5964 39.6038 84.0863 39.6038 225.181 209.067 199.427 104.192 100.808 102.316 52.8042 239.827 227.354 226.106 111.809 124.373 106.751 51.3879 219.486 228.436 224.151 120.124 115.454 120.603 60.4211 220.09 223.289 213.927 120.287 104.031 107.834 59.7031 226.147 224.876 230.531 115.087 116.058 115.455 60.5834 204.881 209.876 212.633 99.7749 110.089 109.421 54.5038 199.916 200.417 203.498 97.7313 94.7927 100.455 45.2712 201.193 181.944 203.457 90.3973 105.123 99.9617 52.4601 189.419 182.241 180.795 87.2527 96.0702 81.9822 37.9372 196.89 198.879 183.226 99.0692 93.3487 100.259 49.3155 216.332 210.743 197.903 110.942 103.541 98.6196 49.7536 212.84 202.824 204.985 109.356 112.791 112.123 61.1883 197.88 177.49 177.04 92.7859 100.049 90.7006 48.1679 179.381 175.6 181.529 87.0175 97.8312 86.7893 44.618 153.74 164.077 166.614 75.7571 81.5503 88.8104 42.3995 158.508 147.681 152.084 71.8398 72.1892 75.2666 33.3575 163.497 156.238 152.395 77.9637 86.3192 72.4139 38.4822 157.813 159.158 161.518 75.9897 77.1781 83.8241 39.4815 156.079 154.143 148.154 73.6822 80.6346 75.3337 36.5082 152.833 156.832 144.466 79.9905 75.444 78.8094 37.174 156.406 173.83 143.517 91.1971 77.3889 78.0221 42.8165 160.925 183.93 160.676 91.6553 79.0169 95.8079 48.3806 81.9083 88.122 160.449 43.2747 81.9083 88.122 43.2747 198.192 99.5728 222.58 196.107 103.578 93.9943 99.5728 44.4824 103.578 44.4824 200.353 235.521 245.157 104.875 98.6192 119.002 49.5119 210.43 252.599 224.722 115.545 101.734 116.519 55.3635 218.592 254.403 254.984 108.312 108.697 136.08 60.1816 224.368 241.614 253.29 103.002 109.896 118.323 48.1304 217.017 229.021 262.097 109.789 114.472 123.291 54.872 211.25 220.628 208.53 110.101 102.545 105.73 54.9172 207.039 213.069 227.806 102.685 108.705 114.898 55.1839 183.059 205.229 201.433 91.5466 98.3337 98.1709 47.5016 174.602 210.743 197.793 94.9885 84.7249 107.058 44.045 184.24 205.377 200.146 99.8095 89.8771 103.685 50.9435 186.557 201.492 190.753 99.8012 94.3626 101.692 48.866 169.185 193.803 197.353 93.4678 92.1942 99.8001 50.9352 160.689 183.029 180.986 84.704 76.9911 94.0033 42.5326 168.762 190.933 178.782 88.5822 83.6978 89.0262 42.1714 164.959 188.397 192.888 88.32 85.064 101.907 46.4109 145.971 160.113 174.735 75.8408 79.8951 86.4899 41.9091 150.416 155.556 154.035 78.2743 66.0762 73.6228 33.9317 151.859 152.819 166.113 83.1682 84.3398 81.9337 44.3426 136.541 150.337 141.434 80.461 67.5192 70.8853 38.8256 135.15 157.222 148.372 76.841 69.0219 79.4521 41.6354 147.787 170.18 150.732 82.6329 66.1281 77.7703 35.2056 160.199 181.3 165.37 92.2747 81.6587 92.4098 47.4273 78.5402 88.8898 167.721 44.8474 78.5402 88.8898 44.8474 243.072 96.5338 276.873 224.147 132.345 128.586 96.5338 59.0957 132.345 59.0957 269.526 292.321 292.854 130.646 146.538 144.528 69.4901 269.275 296.419 278.906 137.054 122.988 147.792 61.1555 289.681 293.475 294.541 146.091 146.287 148.627 75.8987 291.019 278.717 297.877 138.611 143.394 144.848 70.1927 253.609 243.351 277.72 119.232 147.625 133.868 68.4187 225.086 247.535 239.823 110.527 105.985 109.483 50.8128 222.201 250.356 259.902 110.384 119.101 138.052 59.7143 216.168 235.898 221.34 113.682 103.1 112.304 50.6693 223.338 214.8 229.363 115.755 113.069 123.594 63.013 206.659 190.885 209.201 105.568 110.269 91.2059 52.7416 201.549 208.651 192.46 101.691 96.3902 99.6795 52.8263 209.154 217.943 217.994 100.336 105.159 108.972 48.8649 199.079 219.225 204.166 98.3255 103.995 108.971 51.4707 202.908 212.124 206.065 102.351 95.0841 110.255 46.8548 202.664 189.357 196.094 100.077 107.824 101.869 55.4964 182.798 172.553 180.482 84.2719 94.8396 87.4875 44.5808 169.732 173.422 182.484 77.2822 87.9586 85.0656 39.6911 155.688 158.403 189.89 69.6508 81.7734 88.3565 37.5911 153.265 154.872 144.925 69.8764 73.915 70.0469 32.0597 163.954 172.367 167.541 80.3813 79.3497 84.8253 37.8167 168.315 173.865 159.029 87.5471 84.6039 87.5419 42.5646 172.892 178.543 171.762 89.025 83.7113 86.323 44.9825 89.1806 92.2203 172.645 44.0425 89.1806 92.2203 44.0425 273.929 127.613 148.287 127.613 73.2493 148.287 127.613 73.2493 73.2493 73.2493 302.233 161.675 146.316 161.675 146.316 75.0381 75.0381 304.171 159.365 155.917 159.365 155.917 86.6369 86.6369 302.736 147.384 148.254 147.384 148.254 72.728 72.728 284.578 140.105 154.483 140.105 154.483 74.6557 74.6557 263.934 124.119 130.096 124.119 130.096 65.4495 65.4495 274.64 137.008 133.839 137.008 133.839 58.6698 58.6698 259.042 139.972 140.801 139.972 140.801 78.338 78.338 234.535 122.215 118.241 122.215 118.241 61.6343 61.6343 215.227 99.0453 116.295 99.0453 116.295 60.581 60.581 195.001 85.3175 98.9321 85.3175 98.9321 38.4644 38.4644 208.904 106.96 96.0694 106.96 96.0694 46.8532 46.8532 213.005 117.607 112.835 117.607 112.835 60.1071 60.1071 211.151 120.9 100.17 120.9 100.17 57.5002 57.5002 199.251 109.772 110.981 109.772 110.981 63.3998 63.3998 173.913 89.2793 88.2698 89.2793 88.2698 46.3726 46.3726 180.168 88.2812 85.6427 88.2812 85.6427 42.9067 42.9067 202.642 96.14 94.5257 96.14 94.5257 45.3745 45.3745 179.127 88.7526 108.116 88.7526 108.116 50.7654 50.7654 159.201 84.9957 71.0101 84.9957 71.0101 37.9871 37.9871 162.616 91.9859 88.1912 91.9859 88.1912 47.0086 47.0086 162.476 86.3178 74.4249 86.3178 74.4249 44.9773 44.9773 171.515 89.5183 88.051 89.5183 88.051 41.3405 41.3405 83.4641 48.1778 83.4641 48.1778 83.4641 48.1778 48.1778 141.016 140.077 62.4525 296.999 140.077 262.838 242.55 112.743 62.4525 141.016 140.077 62.4525 112.743 62.4525 154.345 156.921 312.962 290.297 293.206 78.5637 154.345 156.921 150.096 78.5637 158.376 156.04 313.7 288.356 300.533 75.7817 158.376 156.04 140.201 75.7817 152.149 157.66 288.684 283.254 294.16 82.5944 152.149 157.66 148.154 82.5944 139.8 131.024 281.94 276.671 263.324 69.5546 139.8 131.024 135.099 69.5546 152.882 150.916 315.861 304.513 292.055 70.245 152.882 150.916 141.572 70.245 141.92 164.945 295.185 288.17 310.069 82.637 141.92 164.945 162.941 82.637 122.197 130.24 244.508 247.899 258 59.2827 122.197 130.24 125.229 59.2827 116.321 114.268 233.213 225.4 222.473 62.9138 116.321 114.268 122.67 62.9138 107.016 118.945 236.871 199.563 219.028 53.4074 107.016 118.945 102.73 53.4074 100.157 117.926 226.801 184.998 207.851 53.609 100.157 117.926 96.8332 53.609 90.233 108.874 199.48 191.855 205.603 46.548 90.233 108.874 88.1652 46.548 105.73 90.606 215.149 207.001 192.761 43.6849 105.73 90.606 103.69 43.6849 103.681 124.543 203.646 184.427 212.965 62.0449 103.681 124.543 103.312 62.0449 89.7642 79.1038 172.013 178.602 161.249 41.6359 89.7642 79.1038 81.1153 41.6359 98.8376 92.909 196.769 194.164 184.245 48.1283 98.8376 92.909 97.4864 48.1283 80.2945 103.86 174.971 172.852 189.97 50.7093 80.2945 103.86 96.6777 50.7093 72.9619 71.1103 160.283 171.399 160.295 29.5852 72.9619 71.1103 76.174 29.5852 87.7499 89.1726 175.108 187.914 185.836 43.3766 87.7499 89.1726 95.225 43.3766 90.8973 85.935 184.461 174.61 162.958 44.3732 90.8973 85.935 92.6893 44.3732 88.7181 98.5261 168.143 166.686 170.467 46.5241 88.7181 98.5261 81.9206 46.5241 83.5201 69.6171 153.204 171.491 144.786 42.194 83.5201 69.6171 84.7657 42.194 74.4127 83.5873 154.179 156.616 169.185 41.3261 74.4127 83.5873 86.725 41.3261 33.0866 70.592 70.592 69.8907 162.127 33.0866 33.0866 70.592 69.8907 33.0866 238.758 102.473 235.172 205.009 104.751 121.822 102.473 50.2902 104.751 50.2902 280.777 267.101 246.062 135.952 136.285 130.422 71.5319 280.993 256.081 267.445 129.979 144.492 136.679 64.4198 268.8 248.341 244.193 131.105 136.5 119.402 65.5597 273.44 261.591 260.243 136.872 132.3 128.938 65.5448 286.263 267.225 257.604 151.631 141.139 132.652 71.327 272.884 258.765 250.319 146.25 145.124 134.573 80.3038 235.965 244.183 238.427 125.703 127.76 124.191 65.9463 208.288 211.32 210.182 109.079 108.205 119.992 59.7564 190.008 201.256 193.308 92.5464 100.083 91.328 49.3221 186.653 207.934 206.737 84.8414 89.9249 109.928 43.2243 198.883 203.602 194.296 101.622 96.7282 98.0061 41.6171 190.578 199.059 194.562 101.271 102.155 105.596 60.0047 170.569 176.721 176.601 80.7462 88.4229 93.4627 41.2668 173.482 179.858 177.747 88.8374 82.1457 83.258 39.4794 177.446 190.81 175.505 95.3264 91.3362 96.6001 49.358 175.294 174.951 181.899 92.5571 86.1097 94.2101 45.9684 185.848 171.233 162.57 98.4371 89.1847 80.7409 46.5887 173.686 172.497 178.352 100.164 96.6633 90.4926 51.8484 148.963 157.285 154.215 83.7126 77.0226 82.0043 48.3161 147.11 145.866 173.341 77.9682 71.9408 75.2804 35.3965 160.767 158.43 145.983 87.9706 75.169 70.5851 42.5717 177.133 167.865 169.934 82.203 85.5977 87.845 45.3989 91.5351 80.0195 168.233 36.8041 91.5351 80.0195 36.8041 212.313 102.535 198.935 182.322 87.2591 113.35 102.535 54.4603 87.2591 54.4603 232.73 240.655 217.789 131.149 109.777 111.675 58.8899 230.645 244.55 231.359 126.102 122.953 128.979 72.2591 235.635 228.331 234.84 117.236 107.692 115.571 53.8427 244.408 219.89 238.378 124.719 127.943 112.761 63.3936 221.66 203.825 231.679 115.595 116.465 107.13 61.3251 215.862 211.978 196.742 112.514 105.195 96.6953 54.2696 212.644 226.675 227.49 118.481 110.667 115.283 58.2449 195.202 203.634 195.684 102.242 101.977 111.392 60.2358 210.037 214.907 198.174 108.71 93.2247 92.2422 42.0059 214.38 226.86 235.431 123.093 116.812 122.665 66.7039 189.975 196.973 201.369 101.98 97.5679 104.195 56.3889 180.585 213.282 191.612 97.7874 92.4074 92.7784 45.5915 183.779 222.562 215.123 95.9745 88.178 120.504 52.1959 179.77 198.27 193.027 91.0207 95.6013 102.058 43.7786 179.958 192.104 177.429 95.4837 84.1691 96.2122 47.2421 169.174 175.129 189.515 82.3938 95.7892 95.8917 48.2416 155.073 155.046 156.951 72.7964 73.3851 79.2369 34.1522 158.88 151.428 171.5 72.3325 81.6882 75.8088 38.6442 178.592 161.003 170 73.5722 77.1922 75.619 33.6883 172.214 145.528 198.867 67.8973 101.4 85.3837 39.8839 155.15 149.465 132.606 70.4595 70.8139 60.1439 28.0134 161.034 169.007 180.414 85.6616 84.3362 89.3215 42.4461 76.6981 79.685 148.907 43.2155 76.6981 79.685 43.2155 187.799 79.787 182.58 172.596 81.7913 85.5844 79.787 32.7988 81.7913 32.7988 216.418 230.494 197.932 109.506 108.012 100.789 52.7856 235.554 246.466 226.382 118.448 108.406 129.705 56.7199 237.582 210.456 240.287 111.095 127.147 116.761 61.7282 225.648 194.975 213.072 95.1716 110.435 93.6953 49.3669 206.76 199.29 216.075 88.2305 115.214 101.28 45.8047 208.369 204.57 195.397 99.4636 91.5465 98.0106 42.4257 210.53 210.378 217.446 108.194 116.823 106.559 57.0379 198.656 212.188 194.954 101.392 93.7072 103.819 51.156 223.568 208.364 205.996 106.198 104.949 108.369 50.2363 222.42 201.587 212.706 103.767 118.619 99.9945 55.9614 203.006 200.383 202.185 94.9926 103.801 101.593 47.8057 226.15 218.979 199.223 115.495 99.2048 98.7899 47.187 224.37 231.682 224.127 126.587 126.945 120.189 68.3081 190.685 199.613 214.488 107.249 97.4254 111.492 58.2793 186.985 174.603 186.021 96.6202 93.2598 88.1209 48.9701 177.291 179.403 179.173 92.7348 93.7256 86.4817 47.6501 173.378 167.783 167.017 82.2494 83.5657 92.9217 45.0847 182.62 160.918 162.43 79.0953 89.8118 74.8612 37.1646 190.275 169.827 181.155 87.4305 92.8079 86.0571 41.9307 159.259 150.473 176.276 77.6303 97.4668 83.7698 45.4998 157.87 144.215 137.425 79.0059 61.792 66.7029 32.1305 168.287 152.615 163.849 83.345 96.0776 77.5117 46.8754 72.2093 75.1032 156.716 36.4696 72.2093 75.1032 36.4696 182.729 92.8088 201.194 214.869 104.083 96.9961 92.8088 48.9926 104.083 48.9926 207.896 216.466 188.259 120.989 89.92 97.1108 48.0036 231.116 222.903 220.995 128.018 117.976 119.355 72.985 215.777 209.642 210.894 99.3613 113.14 103.548 55.033 203.498 221.169 214.554 99.8034 102.637 106.094 44.3284 204.711 218.288 218.622 111.06 100.861 115.075 55.4751 204.473 206.255 201.273 105.106 103.85 103.212 55.5849 201.87 206.538 209.531 102.185 100.623 103.043 49.5215 202.293 202.308 205.763 110.796 101.247 103.495 52.663 195.134 181.78 191.925 102.166 101.046 98.8129 58.133 192.471 182.25 174.541 97.8204 94.0875 82.9667 44.0332 198.401 192.146 191.23 105.39 98.3835 99.2838 53.7872 197.2 179.201 178.002 103.484 100.018 92.8619 51.603 214.245 181.079 196.688 105.094 97.182 86.3395 51.881 209.824 172.544 208.647 92.364 117.063 94.7396 53.2132 178.209 154.622 183.96 77.9824 92.7615 77.8039 39.1508 168.9 156.799 177.944 86.6686 85.4478 76.8177 38.8317 156.07 157.675 159.904 85.5335 83.4517 79.9815 47.8369 160.965 150.514 180.108 81.823 72.6178 77.6938 37.6966 167.157 138.477 164.013 82.3964 88.3474 72.82 44.1264 154.442 131.151 163.944 72.8424 78.8095 65.6565 38.27 143.405 130.362 134.501 65.2086 75.6327 65.4948 34.5724 152.279 137.194 134.164 69.27 67.7718 64.8676 30.6363 84.5071 72.3266 171.934 38.6337 84.5071 72.3266 38.6337 220.399 122.06 218.684 203.421 92.5285 104.198 122.06 55.0904 92.5285 55.0904 201.358 234.358 249.822 95.4773 98.3387 126.155 49.1073 200.773 227.106 233.475 94.8852 103.019 108.203 46.37 209.671 253.87 248.905 110.28 97.7543 118.903 48.5152 229.678 273.772 260.421 121.365 111.917 134.966 61.7652 215.184 241.606 260.719 107.228 117.761 138.806 59.6001 206.331 215.707 217.276 101.149 97.4232 102.8 47.6276 213.424 216.17 229.759 104.353 108.907 112.908 53.5211 195.395 193.998 213.728 91.512 104.517 103.262 50.8321 171.332 187.197 184.461 79.6134 90.8786 90.7355 40.6799 173.3 185.522 189.392 84.4301 80.4538 96.4611 38.9335 170.831 186.614 189.02 86.7555 92.8464 89.0605 45.4966 177.49 184.536 184.579 75.7175 77.9842 97.5531 41.259 191.091 176.739 197.994 75.9849 99.5062 86.9831 34.4585 182.784 180.736 185.442 80.1796 91.5846 89.7557 41.5264 183.695 179.225 194.033 76.6391 91.199 90.9806 38.6531 168.948 168.657 179.027 70.1305 92.4963 88.2448 37.986 183.943 164.592 175.249 72.1418 76.4518 80.4121 32.1445 183.156 154.728 183.956 68.6909 107.491 84.1796 39.9972 160.8 139.468 171.947 56.0801 75.6657 70.5489 28.6936 144.003 141.881 165.958 58.309 85.1346 68.9195 27.3865 125.261 145.922 138.855 65.1538 58.8686 72.9617 30.9225 153.819 151.791 144.373 67.9242 66.3922 72.9601 34.2314 87.4271 78.831 175.727 33.6929 87.4271 78.831 33.6929 232.844 81.3604 240.128 214.903 91.8016 114.486 81.3604 37.4381 91.8016 37.4381 281.939 279.439 312.087 138.881 151.484 148.326 77.0481 281.606 277.027 284.201 132.221 130.456 131.113 61.8327 299.654 298.942 312.116 143.59 151.15 145.914 70.3882 291.462 296.88 300.869 152.407 148.504 153.028 73.2013 262.811 274.193 279.308 134.378 142.958 143.852 79.2059 240.704 252.191 266.754 114.559 119.852 130.341 55.172 230.063 230.887 260.014 111.817 120.851 121.85 59.3866 202.794 214.806 222.774 102.486 109.211 109.037 52.4304 202.521 223.765 203.476 107.583 93.5823 105.769 50.0556 205.112 210.775 224.539 101.091 108.938 117.995 57.5276 202.768 201.802 193.667 99.858 96.1734 92.7801 43.5639 205.082 204.217 215.039 108.819 106.595 109.022 56.2942 192.344 191.005 198.778 100.754 98.4874 95.1947 52.5246 196.691 190.035 201.355 100.557 93.857 95.8102 48.2293 189.364 187.22 207.922 102.586 102.834 94.2247 52.3275 185.327 190.414 174.777 98.5264 86.5305 92.9948 50.2588 175.262 198.952 209.059 92.4499 98.7969 97.4188 48.2676 172.746 176.412 175.41 86.0376 76.465 101.533 44.1823 177.105 157.594 169.545 83.3883 96.2814 74.8783 41.8553 160.81 154.202 157.534 83.5722 80.8235 82.7156 41.533 157.967 156.926 151.175 80.768 79.9862 71.4869 42.0392 166.28 165.864 166.216 83.8669 77.9805 85.4393 38.7288 88.2998 80.4244 156.524 45.1381 88.2998 80.4244 45.1381 294.146 133.543 125.641 133.543 54.3635 125.641 133.543 54.3635 54.3635 54.3635 314.348 140.558 160.603 140.558 160.603 71.2779 71.2779 314.711 144.806 153.746 144.806 153.746 69.2806 69.2806 313.331 155.353 160.966 155.353 160.966 75.5257 75.5257 288.715 144.473 152.365 144.473 152.365 79.827 79.827 283.251 139.815 136.35 139.815 136.35 64.6461 64.6461 286.064 137.632 146.901 137.632 146.901 75.1687 75.1687 252.726 119.07 139.163 119.07 139.163 62.4635 62.4635 223.457 112.32 113.563 112.32 113.563 56.6065 56.6065 225.494 116.181 109.894 116.181 109.894 55.7137 55.7137 213.094 109.684 115.6 109.684 115.6 60.4677 60.4677 205.938 101.944 97.4938 101.944 97.4938 49.2162 49.2162 208.734 95.3979 108.444 95.3979 108.444 52.7279 52.7279 207.789 90.251 100.291 90.251 100.291 42.67 42.67 212.587 89.4781 107.498 89.4781 107.498 47.5809 47.5809 193.335 84.6332 105.089 84.6332 105.089 41.8972 41.8972 198.509 91.8872 88.2467 91.8872 88.2467 42.736 42.736 209.207 106.502 110.262 106.502 110.262 49.1512 49.1512 172.208 90.374 98.945 90.374 98.945 57.3509 57.3509 149.973 74.2056 73.2634 74.2056 73.2634 33.023 33.023 147.899 70.6303 76.7101 70.6303 76.7101 41.1826 41.1826 159.425 76.1581 71.1893 76.1581 71.1893 29.4476 29.4476 156.46 81.9968 88.236 81.9968 88.236 46.7105 46.7105 68.2239 35.2863 68.2239 35.2863 68.2239 35.2863 35.2863 155.982 157.358 77.6246 306.166 157.358 272.918 268.375 129.808 77.6246 155.982 157.358 77.6246 129.808 77.6246 158.616 148.808 305.665 303.442 281.695 78.3578 158.616 148.808 143.111 78.3578 155.324 156.857 309.749 306.337 318.453 80.2586 155.324 156.857 160.331 80.2586 136.535 152.892 282.908 274.231 288.287 75.0656 136.535 152.892 146.006 75.0656 142.14 130.017 279.027 278.708 253.693 61.4694 142.14 130.017 128.225 61.4694 162.979 149.01 310.938 297.611 282.876 80.6707 162.979 149.01 150.483 80.6707 153.265 161.928 296.13 279.899 277.585 82.3081 153.265 161.928 147.128 82.3081 122.311 134.202 246.055 232.574 255.13 70.9571 122.311 134.202 132.771 70.9571 116.892 111.852 239.091 216.102 220.221 51.3543 116.892 111.852 99.803 51.3543 129.855 127.239 249.592 227.316 236.661 65.5374 129.855 127.239 116.299 65.5374 126.643 122.353 238.006 228.455 224.876 64.3171 126.643 122.353 111.018 64.3171 109.247 115.652 206.557 206.509 219.507 62.3264 109.247 115.652 117.437 62.3264 109.419 90.9046 209.821 198.725 183.328 46.9211 109.419 90.9046 89.0711 46.9211 99.9655 118.916 196.575 189.788 218.029 62.4976 99.9655 118.916 109.654 62.4976 82.2486 77.6586 167.952 166.893 163.785 37.4679 82.2486 77.6586 80.1342 37.4679 97.9317 90.2935 189.973 180.051 182.907 44.7807 97.9317 90.2935 86.7588 44.7807 94.6761 99.6797 196.98 177.413 168.694 53.151 94.6761 99.6797 93.2923 53.151 87.321 97.3001 195.697 174.732 181.585 41.525 87.321 97.3001 84.121 41.525 87.3578 98.397 176.911 160.879 192.484 45.796 87.3578 98.397 90.6109 45.796 93.5638 78.5145 173.579 158.815 145.793 41.5618 93.5638 78.5145 70.2683 41.5618 79.4251 95.0644 167.019 148.567 173.832 52.002 79.4251 95.0644 88.5463 52.002 69.6843 71.9549 152.227 142.48 162.539 27.4231 69.6843 71.9549 60.0204 27.4231 79.7667 80.2718 155.25 174.697 142.182 42.2613 79.7667 80.2718 82.4601 42.2613 37.5054 74.9784 74.9784 92.2364 165.392 37.5054 37.5054 74.9784 92.2364 37.5054 243.904 111.017 215.898 221.309 100.258 116.936 111.017 52.183 100.258 52.183 294.483 246.407 250.504 144.825 132.887 115.64 64.7528 296.991 255.557 263.933 151.013 161.596 130.766 80.0726 259.071 256.095 249.816 137.696 135.395 124.79 70.9406 257.542 256.257 249.401 136.568 123.676 131.305 66.7553 249.523 240.698 256.362 134.632 133.866 124.952 69.8125 236.585 229.981 226.736 126.634 115.657 115.745 64.8198 229.296 204.426 218.577 110.263 120.927 114.236 61.8139 217.79 192.17 201.492 99.2097 108.368 90.1901 48.4487 211.945 198.789 209.464 97.4617 109.422 101.98 50.7611 206.378 193.099 208.456 101.812 102.523 96.809 46.7006 196.279 185.256 198.219 97.261 103.855 96.29 55.1111 191.536 172.104 188.208 89.306 92.4236 88.9659 42.1499 185.238 177.627 186.664 89.8224 99.1123 83.1382 47.1561 178.739 173.394 185.21 84.6445 86.1259 94.489 42.6663 161.627 166.594 168.588 82.1195 92.6133 78.9052 41.9782 153.299 169.518 162.051 82.7373 69.0142 87.6889 40.1413 178.371 169.688 167.448 87.411 84.2844 81.8289 42.596 161.365 160.069 198.406 73.5215 94.0865 87.859 44.815 146.046 170.271 148.967 65.2508 67.2789 72.2104 28.7065 169.351 173.458 179.636 69.1416 78.7672 98.0604 36.5443 152.495 157.487 180.533 72.7962 90.5842 75.3979 32.5974 152.325 170.303 144.935 94.9298 61.9107 82.0889 40.1988 90.414 88.2137 171.079 54.731 90.414 88.2137 54.731 227.909 110.292 201.177 224.61 95.0631 98.9625 110.292 48.0749 95.0631 48.0749 219.954 208.494 229.933 101.581 117.617 106.114 50.8876 216.759 221.649 193.579 104.544 102.337 102.38 50.6939 240.147 244.886 240.828 118.399 114.422 119.269 53.8497 248.222 250.166 244.469 119.689 125.725 125.617 64.5494 233.575 224.595 250.982 106.066 122.496 124.549 55.1399 208.728 212.253 212.008 103.347 111.079 100.046 50.9256 190.773 196.499 203.893 94.1632 97.6491 112.207 52.4217 193.165 190.224 183.547 92.9603 93.1235 84.2927 41.7415 205.974 218.698 205.24 101.327 100.042 105.932 51.2188 200.296 209.941 234.209 91.2874 105.933 112.766 50.1084 190.148 196.009 191.114 87.9949 94.3638 97.1747 41.179 183.336 193.453 190.678 82.7981 95.7844 98.8338 46.8159 186.635 185.588 193.969 87.8048 87.5513 94.619 35.9821 175.059 172.186 200.354 88.7497 99.0837 90.9688 51.8227 169.012 174.84 178.278 84.4745 75.9751 81.2167 36.927 176.2 171.337 192.819 86.7804 93.0366 93.6231 47.5476 187.483 173.405 150.9 82.2769 83.1631 77.7139 39.2329 186.008 190.072 196.062 86.5479 104.32 95.6912 43.044 182.557 207.864 180.594 105.02 81.6877 94.3811 43.5039 190.818 185.945 200.417 104.317 100.869 113.483 61.5161 172.974 163.554 153.795 84.6906 89.9492 72.462 42.8005 163.689 160.315 174.445 75.3727 83.0247 91.0923 41.8901 80.6647 69.2224 147.951 33.4826 80.6647 69.2224 33.4826 226.634 114.318 187.947 207.142 90.8044 102.215 114.318 46.9882 90.8044 46.9882 203.558 193.82 189.245 106.913 112.316 97.1429 55.2265 217.648 220.203 207.489 117.105 91.2418 96.677 51.6864 245.15 242.902 238.654 126.487 126.406 123.526 65.419 247.229 234.172 232.786 130.477 118.743 119.376 61.0678 229.415 212.181 221.337 118.53 128.485 114.795 69.4091 207.174 208.273 202.97 108.906 100.93 97.386 49.1208 196.668 202.022 206.004 102.336 106.244 110.887 59.785 195.621 188.761 192.538 97.2642 90.4233 91.135 42.5513 233.475 210.338 202.975 117.371 105.198 97.6262 54.7129 225.027 213.304 232.937 118.653 128.277 112.712 62.6576 191.643 201.025 200.941 108.014 96.75 100.592 55.9957 201.311 204.371 186.21 110.655 94.8932 100.433 52.0179 207.688 206.934 192.322 97.783 106.418 103.938 58.6369 203.573 200.896 212.528 83.4358 101.27 102.996 39.1461 202.086 190.592 184.757 90.3652 102.303 97.9004 44.2897 167.52 166.787 186.396 84.5565 99.7826 92.6917 46.0756 159.479 161.664 147.133 91.1282 67.7374 74.0958 38.481 190.648 182.666 166.596 103.524 91.7421 87.5684 52.6472 198.454 187.605 188.883 102.844 98.906 95.0981 50.8772 163.394 163.228 175.047 81.6285 99.5483 92.5066 51.967 155.267 157.06 142.176 78.8637 63.8461 70.7219 29.6615 158.707 167.951 180.917 84.942 91.4207 86.3378 49.2022 67.2865 81.6132 158.409 35.7398 67.2865 81.6132 35.7398 169.753 92.8247 201.934 213.154 110.786 85.7327 92.8247 43.8162 110.786 43.8162 193.176 192.788 189.842 86.9071 76.9287 91.1479 41.9165 228.496 208.986 232.017 103.098 116.247 101.64 44.9906 226.291 215.807 215.584 116.416 112.248 107.346 58.1069 206.894 212.008 216.818 103.695 114.043 108.461 58.3087 194.892 201.608 208.122 93.6516 92.8515 103.547 45.3863 201.8 204.549 197.871 99.3669 102.04 98.0609 48.2653 201.874 208.756 214.274 99.6854 99.7592 106.488 51.1016 199.892 195.38 211.474 91.497 102.114 102.268 48.5838 202.438 184.687 198.628 92.9676 97.7774 93.112 42.9132 208.851 183.521 201.293 94.6507 104.66 91.5747 50.0544 195.508 177.086 198.832 93.0112 104.191 91.9462 44.5963 177.221 195.489 167.452 93.7158 91.3167 85.1401 48.4149 197.162 224.256 213.248 109.151 85.904 110.349 45.3009 193.712 220.064 201.357 117.46 111.258 113.908 63.8496 169.068 207.283 180.562 100.227 82.4542 106.157 53.6107 166.009 181.049 189.287 82.2309 86.6134 101.126 46.6161 154.25 182.337 151.908 70.536 79.3956 79.9221 35.6148 164.831 193.608 187.11 79.1421 74.8543 102.415 34.9212 165.476 189.481 183.73 84.7605 89.9767 91.193 44.2209 153.829 167.294 168.194 81.5999 75.4988 98.2876 40.5395 167.826 138.303 144.784 78.1959 78.3298 69.0065 41.0604 180.619 168.904 156.108 83.009 89.496 69.2964 37.1355 91.1225 99.6076 183.209 45.8734 91.1225 99.6076 45.8734 233.243 120.33 234.559 228.454 110.892 116.201 120.33 66.9701 110.892 66.9701 228.683 248.939 244.643 105.88 112.913 123.667 49.2314 219.106 255.273 257.328 105.888 115.769 125.272 56.649 206.111 255.456 258.885 99.391 103.336 130.001 49.2391 218.045 247.368 238.992 108.313 102.775 125.455 50.1519 211.101 236.389 249.416 107.957 115.271 121.913 58.161 210.345 231.327 212.908 105.182 95.8307 114.476 49.7956 223.874 227.316 239.881 109.071 114.514 116.851 55.3864 210.21 204.191 234.598 103.883 109.359 110.465 53.6845 197.483 186.657 196.445 91.719 100.85 93.7255 50.1987 191.273 192.89 196.469 88.8701 96.6325 92.9311 41.5203 170.776 186.985 195.304 84.0751 94.6408 99.9593 47.3498 203.479 198.036 163.375 101.773 76.1354 87.0258 36.7252 217.442 206.696 226.855 115.106 127.344 111.011 65.0477 188.206 198.738 169.115 102.604 90.0984 95.6859 50.0582 200.781 193.834 192.471 107.056 98.1076 103.052 52.5459 175.186 185.619 195.675 98.8176 102.673 90.782 54.5103 184.768 194.613 167.404 111.801 72.5122 94.8367 44.3073 206.009 201.174 187.118 114.466 112.256 99.7761 67.4935 186.449 198.437 197.302 104.72 93.7532 101.398 46.9721 159.15 162.932 177.86 85.6942 92.6956 97.0386 57.7481 133.066 137.306 162.409 60.107 66.454 65.893 27.9461 158.699 168.309 151.118 85.8951 66.6116 71.4126 32.1609 92.087 96.8959 172.813 53.7342 92.087 96.8959 53.7342 239.854 108.124 286.862 252.648 123.102 118.358 108.124 43.9223 123.102 43.9223 273.288 316.848 307.358 143.058 131.729 163.761 74.4356 297.108 319.29 302.669 149.385 141.559 153.088 68.6228 291.766 314.043 317.342 156.065 155.549 166.202 80.7622 270.363 283.297 285.228 139.055 136.217 147.841 75.3027 251.224 271.869 272.132 128.433 134.146 135.456 63.7523 242.444 274.577 259.522 126.145 117.078 136.413 64.6805 250.605 251.901 275.688 118.246 125.367 138.164 61.4648 220.833 211.444 243.392 100.307 125.239 113.737 56.7808 195.431 204.25 211.687 94.9376 95.5947 97.7067 43.5267 200.499 207.43 213.91 104.02 99.8362 106.543 51.4108 187.903 206.904 195.91 102.91 100.663 100.887 52.6095 186.751 209.6 205.786 96.2634 87.24 106.017 50.3006 178.527 209.128 196.487 91.5905 99.5108 103.583 45.9628 173.38 219.242 183.42 96.1338 79.0163 105.545 45.6277 187.365 195.48 204.127 86.7778 94.3634 113.697 50.5061 187.893 193.423 176.864 86.8011 93.0014 81.7823 36.2717 169.754 185.517 201.052 82.812 94.8919 111.641 50.5294 178.41 168.543 162.721 86.7088 74.8617 73.8767 32.2827 188.713 169.484 180.919 93.7166 103.549 94.6665 54.4261 181.12 154.506 159.151 77.2374 85.1641 74.8179 39.2905 180.462 160.466 175.473 77.1986 95.9554 79.6886 37.9469 165.233 156.877 167.245 82.4135 84.5064 80.7772 39.2517 80.7265 76.0994 163.041 43.1618 80.7265 76.0994 43.1618 320.152 144.523 168.504 144.523 79.1792 168.504 144.523 79.1792 79.1792 79.1792 336.739 173.79 175.629 173.79 175.629 89.325 89.325 322.903 169.905 161.11 169.905 161.11 84.465 84.465 310.804 157.978 161.793 157.978 161.793 85.4398 85.4398 286.997 144.242 149.011 144.242 149.011 72.538 72.538 280.431 143.436 137.986 143.436 137.986 71.7037 71.7037 292.766 148.432 142.445 148.432 142.445 71.7323 71.7323 268.474 133.656 150.321 133.656 150.321 76.6992 76.6992 234.246 111.136 118.153 111.136 118.153 56.9565 56.9565 230.167 109.313 116.093 109.313 116.093 54.18 54.18 209.321 103.41 114.074 103.41 114.074 55.1326 55.1326 213.793 103.993 95.247 103.993 95.247 48.2775 48.2775 215.522 113.337 118.546 113.337 118.546 55.7159 55.7159 201.38 117.538 96.9761 117.538 96.9761 57.6206 57.6206 214.167 123.108 104.403 123.108 104.403 59.917 59.917 193.626 108.702 109.763 108.702 109.763 63.1914 63.1914 190.023 106.622 83.8627 106.622 83.8627 45.5106 45.5106 194.019 102.705 106.16 102.705 106.16 61.1111 61.1111 165.229 81.8344 87.8588 81.8344 87.8588 41.594 41.594 151.357 75.7679 77.3702 75.7679 77.3702 40.2404 40.2404 153.505 77.2691 73.9871 77.2691 73.9871 35.5274 35.5274 162.257 83.2671 79.5179 83.2671 79.5179 41.7417 41.7417 165.054 74.4631 82.7388 74.4631 82.7388 41.5255 41.5255 82.3149 32.9376 82.3149 32.9376 82.3149 32.9376 32.9376 150.183 155.463 79.7333 323.393 155.463 277.151 282.254 138.567 79.7333 150.183 155.463 79.7333 138.567 79.7333 147.049 167.931 319.197 296.706 313.712 70.45 147.049 167.931 138.585 70.45 154.425 151.266 303.8 300.402 308.851 76.5985 154.425 151.266 158.122 76.5985 146.373 152.534 286.035 267.749 287.486 77.826 146.373 152.534 142.28 77.826 136.887 133.501 268.692 257.861 263.923 68.5474 136.887 133.501 125.468 68.5474 147.96 135.191 282.501 262.85 262.244 68.3398 147.96 135.191 132.393 68.3398 142.865 147.31 271.468 252.816 267.298 79.6199 142.865 147.31 130.457 79.6199 123.743 124.158 243.568 242.776 226.466 63.2453 123.743 124.158 122.359 63.2453 122.2 119.41 233.386 240.78 241.5 60.498 122.2 119.41 120.418 60.498 119.738 113.976 230.321 234.222 226.897 61.7017 119.738 113.976 120.363 61.7017 111.362 116.345 215.129 215.929 226.798 58.0362 111.362 116.345 113.859 58.0362 97.3095 98.7834 202.249 196.327 194.816 53.326 97.3095 98.7834 102.07 53.326 100.402 103.465 220.451 202.632 201.766 43.9835 100.402 103.465 94.2572 43.9835 96.6094 116.986 200.879 192.025 210.051 56.4187 96.6094 116.986 108.375 56.4187 85.7036 83.8934 165.036 179.798 170.645 40.1907 85.7036 83.8934 83.6503 40.1907 92.0416 81.1428 179.888 171.55 192.188 45.5129 92.0416 81.1428 96.148 45.5129 102.304 98.7451 203.207 172.865 164.533 46.5287 102.304 98.7451 75.4016 46.5287 108.376 104.462 204.511 199.336 185.85 55.775 108.376 104.462 97.4635 55.775 89.5537 100.049 179.597 177.398 197.894 52.601 89.5537 100.049 101.873 52.601 80.015 79.548 171.628 160.81 151.037 36.9527 80.015 79.548 75.5251 36.9527 87.5942 92.0799 177.763 187.804 190.145 43.0623 87.5942 92.0799 85.2853 43.0623 82.5423 85.683 156.528 162.241 180.732 44.5318 82.5423 85.683 102.519 44.5318 75.4835 70.8453 152.322 132.878 132.309 38.0105 75.4835 70.8453 59.7224 38.0105 37.473 81.4763 81.4763 73.156 161.914 37.473 37.473 81.4763 73.156 37.473 272.572 126.791 255.915 240.506 121.051 126.968 126.791 58.8335 121.051 58.8335 303.365 268.03 262.309 149.658 145.781 134.864 68.1346 292.536 258.193 275.414 145.978 157.585 133.166 81.5232 265.374 243.123 250.303 121.375 134.952 125.026 64.4543 257.476 249.506 235.915 120.974 130.423 118.097 56.9209 247.041 242.4 246.844 114.89 127.054 131.41 64.0531 222.296 215.331 235.671 109.951 119.988 110.99 50.8373 224.398 215.643 195.549 119.033 102.308 104.341 59.1135 235.012 218.786 240.261 118.581 122.09 111.302 59.9196 223.374 219.131 217.823 114.484 112.922 107.484 58.6611 206.485 213.575 209.792 104.566 110.452 111.647 55.8226 194.334 201.171 193.018 99.0176 96.0329 101.929 48.7439 191.366 202.767 188.968 102.23 98.3008 99.2422 50.2737 179.817 194.246 190.541 95.4158 93.0654 103.525 51.9562 197.797 180.404 196.04 94.0947 86.7518 90.7206 43.4596 176.834 164.045 192.597 79.508 111.046 89.6832 50.6351 147.176 159.981 155.709 70.5613 65.7881 74.3619 28.8729 179.232 196.166 159.964 90.96 81.3881 85.6187 41.6884 169.333 187.304 203.936 87.844 97.8442 110.547 49.2716 169.554 158.332 164.552 80.7954 71.4886 76.7562 38.5724 193.115 186.712 184.18 100.21 98.0655 81.576 42.2229 156.513 167.982 195.835 79.6987 95.0491 105.136 57.9869 141.902 145.712 141.271 57.3948 61.4641 62.8465 21.7119 80.4376 82.8651 173.033 35.6829 80.4376 82.8651 35.6829 230.243 113.714 253.366 235.18 129.546 128.947 113.714 62.2171 129.546 62.2171 234.358 215.018 218.501 118.373 116.528 123.819 66.7296 233.18 212.758 219.64 112.215 117.83 91.1986 51.6432 220.843 240.411 224.526 121.748 115.351 121.559 60.5718 225.283 245.284 222.011 128.532 105.492 118.852 61.1758 235.473 238.395 239.761 127.509 119.79 126.433 67.3566 208.924 203.649 236.357 105.38 115.683 111.962 60.1529 211.412 190.941 194.312 96.6094 93.2412 91.6867 45.2274 223.072 198.562 204.819 100.205 118.171 99.2541 51.3821 204.24 220.751 190.898 104.647 104.901 99.3079 48.8228 196.325 215.382 220.993 109.009 99.3392 121.443 55.8241 187.652 185.783 182.293 102.153 96.9855 93.939 53.1848 188.142 191.194 180.215 100.538 90.6668 91.8438 48.9685 206.764 208.735 183.246 98.8301 97.4756 99.3501 51.5692 190.84 206.447 226.603 86.3091 109.288 109.385 47.261 171.473 196.258 196.835 84.5372 81.5516 97.0616 39.0481 168.497 172.383 184.062 89.4193 89.9212 99.1961 45.489 184.667 173.557 147.012 105.206 78.5757 73.1866 43.9302 199.155 186.583 194.103 99.4596 106.092 100.371 61.2759 179.178 173.147 170.084 77.5368 93.0635 86.2126 38.1837 186.9 168.268 163.435 86.5017 86.1147 86.9343 39.353 180.593 164.686 187.056 88.2833 100.786 81.3334 47.1487 172.403 162.082 164.974 88.3168 79.8073 83.3531 41.1346 92.5953 78.7289 155.133 47.1821 92.5953 78.7289 47.1821 223.439 121.466 208.44 203.823 116.338 124.419 121.466 67.3294 116.338 67.3294 203.783 202.914 189.433 96.6451 101.973 92.1019 57.0896 210.986 225.941 228.175 100.543 101.81 110.812 39.5554 225.694 228.538 202.091 118.663 109.176 115.129 60.9872 236.49 219.951 226.838 116.752 116.519 113.41 57.6757 240.645 212.126 224.187 110.885 119.971 106.541 59.0762 221.745 200.701 230.98 98.2684 120.674 105.584 51.809 187.719 196.52 209.458 94.3313 101.071 95.117 46.4593 172.645 206.752 197.8 98.3571 86.6478 101.403 47.872 207.651 225.574 190.077 116.104 85.9974 105.349 50.4851 206.961 220.574 229.173 106.373 121.654 120.225 65.6192 174.855 186.126 197.702 83.6296 85.3074 100.349 40.7542 175.318 174.161 182.115 90.6563 89.5478 85.7772 42.8753 203.084 197.917 168.259 109.905 85.7703 88.384 47.781 232.598 196.39 201.113 120.137 117.314 109.533 62.124 209.424 180.561 194.229 111.721 115.284 86.857 58.0135 162.577 166.741 181.073 82.9634 94.1405 93.7043 53.707 156.448 152.065 164.024 68.3512 68.4364 73.0372 29.2564 165.032 172.813 173.288 87.1237 88.0116 79.028 39.0949 154.34 176.325 161.604 95.6101 77.0206 93.7846 48.0288 163.59 153.995 150.765 81.7659 77.3199 82.5405 47.5813 171.437 166.033 165.427 76.4031 86.2701 71.4541 34.1846 147.705 171.375 188.708 73.7652 85.1669 94.579 42.2185 62.5381 76.7958 155.574 31.5467 62.5381 76.7958 31.5467 169.817 82.3568 201.062 193.547 102.368 84.0207 82.3568 49.0085 102.368 49.0085 213.825 229.072 206.898 106.269 87.4601 98.6942 35.0122 219.28 238.616 245.542 125.398 126.365 130.377 71.2569 203.235 216.595 197.6 109.875 92.9158 108.238 54.1413 214.535 212.932 221.636 103.199 110.319 108.357 55.734 214.522 204.385 217.525 101.24 104.216 104.575 47.4652 218.693 207.596 205.621 102.433 110.306 99.8103 53.7752 219.539 216.991 221.445 102.188 108.387 107.786 48.6576 215.232 214.721 209.335 108.395 111.153 109.205 53.5305 211.599 215.234 209.178 109.47 104.08 105.516 54.8641 219.914 216.604 220.282 114.2 107.519 109.718 54.6058 204.962 189.198 220.982 102.496 112.395 106.886 59.5946 175.056 185.211 164.402 83.5049 92.5675 82.3121 42.9018 166.287 190.348 194.233 88.0117 82.4883 102.899 40.6031 162.744 161.854 171.367 76.2521 83.7988 87.4489 47.4086 165.878 162.565 167.702 68.8408 78.9453 74.4052 28.8435 182.52 160.146 168.248 83.7781 86.9325 88.1603 39.9973 180.863 156.682 182.42 83.7139 95.5872 71.9857 43.7808 169.86 177.233 170.126 85.6889 85.2762 84.6958 39.9331 158.028 162.444 177.427 80.7151 84.5836 92.5368 45.7558 152.601 145.684 148.62 72.2287 73.4448 69.9068 34.9593 182.698 162.589 149.244 89.6299 79.1566 75.7773 37.2694 196.577 170.413 178.89 97.6096 103.541 86.8112 52.3605 93.0356 83.6019 173.858 45.2491 93.0356 83.6019 45.2491 230.628 111.19 238.537 238.539 117.562 117.042 111.19 53.3597 117.562 53.3597 238.615 253.032 242.117 122.802 119.438 120.976 63.682 223.862 260.94 276.085 113.217 119.178 132.057 59.1205 216.001 242.422 245.739 106.72 104.684 128.884 54.097 224.626 241.041 237.293 109.732 111.316 113.538 52.6229 208.624 225.936 253.399 103.145 113.309 127.503 57.1096 208.373 221.462 201.492 105.163 95.3147 98.4325 46.0351 211.241 247.163 235.273 114.803 113.059 123.03 59.1279 203.282 226.852 234.33 106.326 98.1827 124.133 55.6748 217.862 206.257 217.131 105.764 105.099 102.72 50.6516 221.35 198.882 205.157 102.403 112.763 103.538 55.1122 180.422 171.694 207.631 86.7012 108.587 95.3448 47.291 183.579 192.194 156.019 101.706 71.8341 76.3496 39.4102 199.313 189.273 218.614 102.336 111.744 115.844 62.296 176.326 162.848 184.166 85.6019 87.5686 73.4288 40.0403 170.072 194.312 173.354 93.7247 88.757 89.419 45.5617 168.148 177.46 181.486 76.3679 81.3152 104.893 48.163 171.682 159.909 176.255 72.9676 86.8326 72.5675 28.2049 177.693 183.245 167.041 91.5437 84.8499 87.3417 44.7626 168.018 176.725 175.57 81.7286 92.8431 95.9037 46.7811 145.263 177.338 170.25 73.4554 75.1752 80.8211 34.9475 145.436 176.222 167.411 72.9586 70.0875 96.5164 38.5079 156.171 155.623 151.503 72.8036 75.3488 79.7054 34.4507 80.8221 75.9176 160.614 38.3528 80.8221 75.9176 38.3528 250.028 127.349 273.144 261.59 129.546 121.496 127.349 64.202 129.546 64.202 279.586 293.178 288.083 130.23 122.679 143.598 57.2936 297.963 300.721 315.544 147.723 156.908 149.581 72.9361 267.032 288.527 307.638 135.702 141.055 151.14 74.7869 266.067 274.063 280.721 131.308 125.977 137.388 60.9148 246.267 259.785 284.131 122.791 140.09 136.676 70.3935 228.391 260.633 250.087 116.299 106.177 123.11 52.3974 258.362 267.178 254.687 132.36 122.215 137.524 63.9018 248.179 243.635 257.485 120.526 136.147 129.655 68.458 204.426 221.348 231.917 100.493 112.032 113.981 52.068 191.437 202.39 211.827 96.4792 92.3937 107.367 48.4253 183.228 194.793 194.695 84.9932 99.0432 95.0233 48.0539 191.054 192.673 198.995 90.4874 84.1847 99.7697 36.9394 203.467 170.778 209.615 86.9365 106.869 92.9035 53.548 181.195 168.304 184.942 77.2459 96.5974 77.875 33.3885 184.768 185.511 180.344 100.587 84.5972 90.4292 43.8573 189.593 184.493 181.324 101.092 100.171 95.0817 56.7297 171.614 178.255 179.541 86.9416 89.4224 89.4112 44.3625 164.918 175.096 167.514 91.7017 82.1914 88.8438 42.579 177.802 170.586 160.992 94.9963 82.727 86.2524 49.1226 192.398 180.118 179.733 103.882 95.0745 84.3333 45.8736 173.478 182.253 172.134 103.263 97.3239 95.7848 58.0085 155.946 173.41 156.012 82.8194 76.1538 86.468 45.2547 79.7924 86.942 170.086 37.5648 79.7924 86.942 37.5648 299.645 134.241 151.648 134.241 65.3442 151.648 134.241 65.3442 65.3442 65.3442 324.04 162.949 165.404 162.949 165.404 86.3039 86.3039 325.219 152.998 158.636 152.998 158.636 76.6449 76.6449 321.327 152.826 166.583 152.826 166.583 76.353 76.353 298.785 142.755 154.744 142.755 154.744 76.4729 76.4729 287.951 136.994 144.041 136.994 144.041 66.2823 66.2823 276.383 144.334 143.91 144.334 143.91 70.7122 70.7122 253.811 134.819 132.473 134.819 132.473 73.6219 73.6219 241.223 123.109 121.338 123.109 121.338 61.1967 61.1967 239.318 120.854 119.885 120.854 119.885 61.9127 61.9127 215.085 105.911 119.433 105.911 119.433 58.9417 58.9417 210.462 109.8 95.6516 109.8 95.6516 46.9695 46.9695 217.556 102.186 114.81 102.186 114.81 62.8303 62.8303 191.091 83.842 102.746 83.842 102.746 39.3555 39.3555 184.092 91.0583 88.3447 91.0583 88.3447 44.4865 44.4865 176.899 84.9239 95.7469 84.9239 95.7469 46.5719 46.5719 171.271 83.4007 81.1526 83.4007 81.1526 38.352 38.352 175.441 91.3135 90.1186 91.3135 90.1186 45.0487 45.0487 163.587 83.3946 85.3227 83.3946 85.3227 46.2648 46.2648 162.923 75.5895 78.2646 75.5895 78.2646 37.1298 37.1298 159.469 76.2359 84.6584 76.2359 84.6584 38.4596 38.4596 154.668 78.9896 74.8105 78.9896 74.8105 37.7763 37.7763 170.151 90.5906 79.8578 90.5906 79.8578 41.2134 41.2134 90.2933 49.3773 90.2933 49.3773 90.2933 49.3773 49.3773 173.21 75.7293 75.7293 173.21 75.7293 318.814 143.687 143.687 75.7293 173.21 75.7293 75.7293 143.687 75.7293 172.149 97.4809 172.149 325.856 175.127 97.4809 172.149 97.4809 175.127 97.4809 149.376 74.6677 149.376 295.934 150.729 74.6677 149.376 74.6677 150.729 74.6677 139.661 74.7079 139.661 283.66 145.205 74.7079 139.661 74.7079 145.205 74.7079 131.804 64.9535 131.804 268.307 138.455 64.9535 131.804 64.9535 138.455 64.9535 134.541 66.851 134.541 266.692 129.851 66.851 134.541 66.851 129.851 66.851 128.603 67.6903 128.603 240.948 136.841 67.6903 128.603 67.6903 136.841 67.6903 119.824 60.9125 119.824 225.19 104.107 60.9125 119.824 60.9125 104.107 60.9125 111.186 58.912 111.186 227.617 121.083 58.912 111.186 58.912 121.083 58.912 110.583 52.2739 110.583 219.474 106.535 52.2739 110.583 52.2739 106.535 52.2739 103.766 58.309 103.766 205.685 112.939 58.309 103.766 58.309 112.939 58.309 104.939 45.4574 104.939 200.255 92.7463 45.4574 104.939 45.4574 92.7463 45.4574 120.049 59.4818 120.049 209.185 107.509 59.4818 120.049 59.4818 107.509 59.4818 104.27 60.5673 104.27 188.671 101.677 60.5673 104.27 60.5673 101.677 60.5673 79.3325 43.7026 79.3325 183.035 86.9949 43.7026 79.3325 43.7026 86.9949 43.7026 87.8463 35.6299 87.8463 185.172 96.0403 35.6299 87.8463 35.6299 96.0403 35.6299 100.903 52.2164 100.903 177.518 89.1315 52.2164 100.903 52.2164 89.1315 52.2164 96.1348 48.6865 96.1348 184.407 88.3861 48.6865 96.1348 48.6865 88.3861 48.6865 90.0437 47.4484 90.0437 171.532 96.021 47.4484 90.0437 47.4484 96.021 47.4484 91.6129 42.5953 91.6129 180.372 75.5115 42.5953 91.6129 42.5953 75.5115 42.5953 90.1687 49.0176 90.1687 183.074 104.86 49.0176 90.1687 49.0176 104.86 49.0176 73.986 41.1512 73.986 150.8 78.2134 41.1512 73.986 41.1512 78.2134 41.1512 76.8381 32.8348 76.8381 161.345 72.5871 32.8348 76.8381 32.8348 72.5871 32.8348 44.0033 44.0033 44.0033 88.7579 88.7579 44.0033 44.0033 44.0033 88.7579 44.0033 145.604 67.9579 246.9 119.455 119.455 145.604 67.9579 67.9579 119.455 67.9579 153.708 269.693 127.445 153.708 77.6462 127.445 77.6462 146.559 267.524 142.248 146.559 76.0614 142.248 76.0614 143.999 243.095 125.276 143.999 70.4974 125.276 70.4974 136.502 233.252 117.818 136.502 73.5017 117.818 73.5017 132.151 240.115 115.434 132.151 63.0004 115.434 63.0004 112.345 215.889 124.681 112.345 69.1505 124.681 69.1505 105.365 220.168 91.2084 105.365 43.1945 91.2084 43.1945 116.431 239.298 128.959 116.431 62.1706 128.959 62.1706 108.891 208.484 110.339 108.891 54.2607 110.339 54.2607 101.919 189.235 98.145 101.919 54.6299 98.145 54.6299 95.316 180.815 91.0897 95.316 47.2889 91.0897 47.2889 89.1363 176.741 89.7254 89.1363 48.0271 89.7254 48.0271 84.4015 192.335 87.0157 84.4015 41.1092 87.0157 41.1092 103.703 208.234 105.32 103.703 43.2922 105.32 43.2922 97.3256 184.261 102.914 97.3256 60.4104 102.914 60.4104 76.6148 155.692 81.3474 76.6148 36.9152 81.3474 36.9152 88.2723 167.734 74.3451 88.2723 39.6997 74.3451 39.6997 81.4888 181.184 93.3884 81.4888 48.5726 93.3884 48.5726 88.7588 190.4 87.7959 88.7588 32.9162 87.7959 32.9162 92.9048 193.303 102.604 92.9048 55.8426 102.604 55.8426 76.8144 169.124 90.6991 76.8144 37.0622 90.6991 37.0622 84.5068 168.593 78.4249 84.5068 39.7522 78.4249 39.7522 44.7546 90.1678 90.1678 44.7546 44.7546 90.1678 44.7546 101.296 51.497 200.315 105.633 105.633 101.296 51.497 51.497 105.633 51.497 115.985 223.123 94.682 115.985 49.7989 94.682 49.7989 120.965 231.409 128.441 120.965 66.1864 128.441 66.1864 99.0957 206.127 102.967 99.0957 54.7791 102.967 54.7791 96.7503 216.488 103.16 96.7503 44.3166 103.16 44.3166 107.964 237.724 113.328 107.964 52.4336 113.328 52.4336 103.544 227.021 124.395 103.544 55.53 124.395 55.53 114.803 208.19 102.625 114.803 48.0139 102.625 48.0139 122.867 197.155 105.565 122.867 66.7888 105.565 66.7888 99.5931 191.14 91.5904 99.5931 56.078 91.5904 56.078 87.3158 187.903 99.5495 87.3158 43.5151 99.5495 43.5151 85.499 176.725 88.3539 85.499 43.8007 88.3539 43.8007 87.6047 172.266 88.3707 87.6047 41.6983 88.3707 41.6983 107.934 201.113 83.8958 107.934 45.9064 83.8958 45.9064 104.531 216.991 117.218 104.531 62.0275 117.218 62.0275 86.9356 184.639 99.7738 86.9356 42.5035 99.7738 42.5035 79.0776 158.691 84.8656 79.0776 44.4322 84.8656 44.4322 79.4612 167.558 73.8255 79.4612 34.6455 73.8255 34.6455 99.6955 177.604 93.7325 99.6955 44.8158 93.7325 44.8158 101.641 160.372 83.8715 101.641 54.8797 83.8715 54.8797 100.398 182.223 76.5003 100.398 46.7616 76.5003 46.7616 92.3096 187.343 105.722 92.3096 53.6368 105.722 53.6368 84.0859 158.026 81.6212 84.0859 38.6727 81.6212 38.6727 45.4132 76.4045 76.4045 45.4132 45.4132 76.4045 45.4132 99.0196 54.1365 184.816 87.4848 87.4848 99.0196 54.1365 54.1365 87.4848 54.1365 107.138 214.694 97.3309 107.138 44.8831 97.3309 44.8831 110.443 204.326 117.363 110.443 62.255 117.363 62.255 107.031 200.391 86.9627 107.031 48.1883 86.9627 48.1883 119.738 231.074 113.428 119.738 58.8432 113.428 58.8432 129.76 243.042 117.645 129.76 60.8947 117.645 60.8947 123.477 239.737 125.396 123.477 68.8653 125.396 68.8653 93.3872 210.738 114.341 93.3872 54.6115 114.341 54.6115 74.2881 181.126 96.3979 74.2881 38.7758 96.3979 38.7758 91.5468 193.676 84.7279 91.5468 35.5123 84.7279 35.5123 100.588 206.301 108.948 100.588 56.0344 108.948 56.0344 91.2256 193.691 97.3532 91.2256 44.5532 97.3532 44.5532 84.6618 176.213 96.3381 84.6618 46.6724 96.3381 46.6724 93.1794 171.455 79.8746 93.1794 37.9893 79.8746 37.9893 112.46 198.952 91.5803 112.46 55.1901 91.5803 55.1901 97.7038 194.741 107.372 97.7038 57.2703 107.372 57.2703 79.6135 178.355 87.3687 79.6135 40.4335 87.3687 40.4335 88.0968 185.246 90.9865 88.0968 39.18 90.9865 39.18 77.9085 162.079 94.2598 77.9085 48.9168 94.2598 48.9168 58.7304 136.044 67.8195 58.7304 28.9917 67.8195 28.9917 81.8241 162.197 68.2242 81.8241 29.7387 68.2242 29.7387 95.0339 188.102 93.9726 95.0339 52.0855 93.9726 52.0855 73.9398 172.907 94.1289 73.9398 42.9485 94.1289 42.9485 30.9913 78.7778 78.7778 30.9913 30.9913 78.7778 30.9913 85.7961 33.3483 199.382 91.1784 91.1784 85.7961 33.3483 33.3483 91.1784 33.3483 107.556 223.369 108.204 107.556 52.4478 108.204 52.4478 93.8823 204.527 115.165 93.8823 55.1079 115.165 55.1079 93.3596 202.64 89.3616 93.3596 38.7744 89.3616 38.7744 111.336 226.229 113.279 111.336 54.5852 113.279 54.5852 113.282 218.761 112.951 113.282 56.7508 112.951 56.7508 116.26 219.47 105.81 116.26 56.5308 105.81 56.5308 117.351 213.79 113.66 117.351 59.7291 113.66 59.7291 106.838 203.793 100.13 106.838 57.6221 100.13 57.6221 102.129 214.227 103.663 102.129 49.2155 103.663 49.2155 105.713 224.661 110.564 105.713 52.9134 110.564 52.9134 102.466 196.186 114.096 102.466 52.8 114.096 52.8 91.5509 173.423 82.0896 91.5509 49.6657 82.0896 49.6657 78.2754 175.252 91.3336 78.2754 41.8852 91.3336 41.8852 86.492 177.216 83.9185 86.492 36.3902 83.9185 36.3902 97.037 173.385 93.2971 97.037 50.1018 93.2971 50.1018 98.7416 190.521 80.0874 98.7416 46.9352 80.0874 46.9352 97.1494 195.864 110.434 97.1494 51.8064 110.434 51.8064 84.1708 170.32 85.4303 84.1708 45.343 85.4303 45.343 77.3133 163.603 84.8899 77.3133 38.8278 84.8899 38.8278 80.3727 152.18 78.7132 80.3727 38.4855 78.7132 38.4855 93.0676 165.545 73.4668 93.0676 41.8872 73.4668 41.8872 98.9669 182.334 92.0785 98.9669 51.1804 92.0785 51.1804 47.7865 90.2557 90.2557 47.7865 47.7865 90.2557 47.7865 113.586 57.8301 242.118 120.977 120.977 113.586 57.8301 57.8301 120.977 57.8301 115.813 265.17 121.141 115.813 55.7559 121.141 55.7559 110.644 260.884 144.029 110.644 60.057 144.029 60.057 109.281 240.611 116.855 109.281 50.5872 116.855 50.5872 114.893 249.652 123.755 114.893 58.6935 123.755 58.6935 105.479 228.955 125.896 105.479 56.1998 125.896 56.1998 103.21 215.302 103.059 103.21 49.2796 103.059 49.2796 96.4386 222.44 112.243 96.4386 53.9306 112.243 53.9306 96.9551 224.609 110.197 96.9551 42.5079 110.197 42.5079 112.098 216.031 114.412 112.098 54.4472 114.412 54.4472 118.947 213.905 101.619 118.947 57.6508 101.619 57.6508 93.7203 191.955 112.286 93.7203 61.2964 112.286 61.2964 81.8723 182.439 79.6692 81.8723 32.4239 79.6692 32.4239 96.9766 213.507 102.77 96.9766 49.4483 102.77 49.4483 90.7236 194.672 110.737 90.7236 47.5283 110.737 47.5283 76.3475 160.529 83.9352 76.3475 43.1953 83.9352 43.1953 91.7799 180.281 76.5935 91.7799 33.1522 76.5935 33.1522 98.7149 183.387 103.688 98.7149 58.6277 103.688 58.6277 86.1494 159.366 79.6996 86.1494 40.0873 79.6996 40.0873 86.2898 169.095 79.6665 86.2898 46.0621 79.6665 46.0621 71.8073 160.324 89.4286 71.8073 40.2277 89.4286 40.2277 72.4777 142.692 70.895 72.4777 31.5796 70.895 31.5796 83.3673 156.494 71.7972 83.3673 40.8981 71.7972 40.8981 42.4692 84.6969 84.6969 42.4692 42.4692 84.6969 42.4692 128.532 63.1468 276.529 132.043 132.043 128.532 63.1468 63.1468 132.043 63.1468 149.357 310.448 144.485 149.357 65.385 144.485 65.385 150.24 322.461 165.963 150.24 83.9717 165.963 83.9717 131.33 299.831 156.498 131.33 66.2682 156.498 66.2682 134.758 290.788 143.333 134.758 65.0618 143.333 65.0618 123.476 274.433 147.455 123.476 69.6964 147.455 69.6964 112.092 244.141 126.978 112.092 53.7795 126.978 53.7795 126.002 244.994 117.164 126.002 58.3128 117.164 58.3128 127.653 245.768 127.831 127.653 67.6892 127.831 67.6892 103.933 222.396 117.937 103.933 59.9643 117.937 59.9643 94.9577 204.131 104.46 94.9577 43.9684 104.46 43.9684 98.2346 198.896 99.6715 98.2346 50.9893 99.6715 50.9893 100.567 215.937 99.2249 100.567 47.2453 99.2249 47.2453 116.53 223.779 116.712 116.53 53.3212 116.712 53.3212 103.949 196.982 107.067 103.949 63.2088 107.067 63.2088 84.1812 176.157 89.9149 84.1812 40.7399 89.9149 40.7399 88.5011 176.372 86.2419 88.5011 43.4413 86.2419 43.4413 84.6722 168.8 90.1297 84.6722 45.0599 90.1297 45.0599 73.2167 153.409 78.6703 73.2167 39.6124 78.6703 39.6124 82.8053 170.139 74.7392 82.8053 33.6044 74.7392 33.6044 88.5163 171.749 95.3996 88.5163 49.2009 95.3996 49.2009 70.2145 145.893 76.3497 70.2145 39.3154 76.3497 39.3154 73.1267 152.687 69.5436 73.1267 30.8991 69.5436 30.8991 42.2276 83.1436 83.1436 42.2276 42.2276 83.1436 42.2276 147.997 68.8966 147.997 68.8966 68.8966 147.997 68.8966 68.8966 68.8966 68.8966 161.092 161.092 79.1003 161.092 79.1003 79.1003 79.1003 172.221 172.221 81.9913 172.221 81.9913 81.9913 81.9913 168.501 168.501 90.2297 168.501 90.2297 90.2297 90.2297 156.03 156.03 78.2713 156.03 78.2713 78.2713 78.2713 150.957 150.957 77.7587 150.957 77.7587 77.7587 77.7587 132.049 132.049 73.1982 132.049 73.1982 73.1982 73.1982 118.992 118.992 58.8508 118.992 58.8508 58.8508 58.8508 118.114 118.114 60.1416 118.114 60.1416 60.1416 60.1416 118.464 118.464 57.9724 118.464 57.9724 57.9724 57.9724 109.173 109.173 60.4912 109.173 60.4912 60.4912 60.4912 100.662 100.662 48.6822 100.662 48.6822 48.6822 48.6822 115.37 115.37 51.9796 115.37 51.9796 51.9796 51.9796 107.249 107.249 63.3905 107.249 63.3905 63.3905 63.3905 93.0332 93.0332 43.8582 93.0332 43.8582 43.8582 43.8582 91.9756 91.9756 49.175 91.9756 49.175 49.175 49.175 87.8705 87.8705 42.8006 87.8705 42.8006 42.8006 42.8006 84.1278 84.1278 45.0699 84.1278 45.0699 45.0699 45.0699 80.1927 80.1927 39.0579 80.1927 39.0579 39.0579 39.0579 87.3336 87.3336 41.1348 87.3336 41.1348 41.1348 41.1348 83.233 83.233 46.1987 83.233 46.1987 46.1987 46.1987 75.6787 75.6787 37.0342 75.6787 37.0342 37.0342 37.0342 79.5605 79.5605 38.6445 79.5605 38.6445 38.6445 38.6445 40.916 40.916 40.916 40.916 40.916 40.916 40.916 
CELL_DATA 1536
SCALARS stress float 1
LOOKUP_TABLE default
78.5851 80.1601 82.4552 67.7759 86.7761 76.6501 58.5372 56.7049 57.4296 51.1209 51.5336 47.5119 43.4199 51.5671 54.4776 41.8489 46.0843 43.4059 40.1481 43.3105 57.487 37.0645 44.6298 37.8563 48.7449 67.7957 65.7687 56.5874 68.286 69.8967 52.5253 62.9985 57.6076 62.5628 41.7734 32.7305 67.1176 49.5701 49.1757 35.7316 49.7342 48.5568 42.7333 37.184 41.303 38.4456 46.8066 49.8631 59.7944 49.1215 58.694 52.9612 69.1312 68.8943 52.3809 52.019 57.4895 56.441 59.2262 47.1029 49.363 62.6245 52.7522 57.6168 51.5544 58.2137 39.8589 48.4352 62.0841 42.0126 47.5204 43.9399 48.0904 49.462 39.4281 70.0046 45.5938 43.0092 51.9346 52.4152 54.9351 58.5519 52.6854 48.1069 53.607 48.7928 49.3843 54.6481 48.4719 43.3131 46.7233 46.5211 56.5491 31.8934 35.6745 43.3156 46.3206 58.3173 46.1405 58.081 58.2986 65.8406 56.3938 49.1996 58.8066 55.7028 46.6947 50.8727 45.5668 52.2944 56.9944 49.1318 42.4626 41.8432 36.1767 42.9736 45.6698 41.9535 43.4985 34.0639 47.1884 56.8404 59.5385 54.7453 50.502 56.5552 41.1822 64.0132 37.9952 53.3363 52.1135 65.1249 38.3903 59.9625 58.2476 53.559 55.9885 44.4271 37.7058 51.9363 31.2877 29.9827 39.1087 67.5805 63.6792 65.2587 59.8081 66.0763 63.9752 61.3368 55.1499 66.1322 50.5051 63.4443 45.0489 60.7095 58.0143 44.5629 49.0269 41.2882 38.7355 46.2902 41.9384 38.256 47.7012 45.7326 30.2633 33.1997 75.2334 81.0212 74.5136 67.1984 80.4913 65.8248 69.689 69.3728 59.7682 60.987 59.7328 44.7147 43.2801 56.1961 49.2458 48.4539 44.5332 40.0291 36.7769 45.5129 46.5508 38.5446 35.3476 32.0194 73.3318 86.002 81.2171 76.4906 76.1989 72.9607 68.1177 69.0721 51.8558 54.8058 56.3413 48.0066 54.648 35.9113 45.9475 48.5125 42.8288 46.7768 41.5001 38.8158 26.6616 34.4605 24.7238 47.8333 69.4116 62.4372 63.0015 64.3405 64.3238 58.7113 42.2771 78.7638 41.7934 54.236 46.1916 49.1087 36.8628 59.5559 53.9928 47.0153 40.7329 46.0194 46.5251 45.8863 42.9973 36.9771 45.2557 46.2253 45.6183 65.5555 84.2375 51.9744 71.3874 61.1876 60.8132 45.9249 50.0484 48.1986 40.5409 62.8999 43.867 47.5335 54.6006 45.8135 40.8622 35.1332 36.4798 39.5482 36.1013 32.0488 40.5536 47.1253 36.522 47.7783 57.2532 55.4265 60.6258 39.1443 54.9915 44.7634 48.5462 55.4662 47.366 55.2268 45.6809 61.7388 32.7842 50.8196 52.6414 38.7416 45.1628 52.9164 45.3423 37.3563 41.1325 44.0032 54.0059 57.1663 63.7827 59.2359 53.807 54.0228 59.6212 43.9476 56.1806 51.8304 37.7246 55.685 42.8804 49.5215 35.8968 53.779 43.1326 36.7347 42.0451 47.6991 42.9382 48.4403 40.2364 39.4987 42.2463 63.1486 61.4762 57.7591 57.7803 55.481 47.39 63.5576 51.9931 49.1081 60.9845 58.1563 53.8202 44.5163 50.6074 57.1942 44.9279 43.4346 38.9345 36.4437 53.4898 33.6653 41.569 33.8263 56.917 69.7412 61.7989 77.506 62.3128 50.7792 63.5693 57.5342 65.9561 53.7672 44.796 54.69 41.5499 52.9799 50.8035 41.8533 57.8155 55.2175 55.266 58.079 52.0091 37.4652 31.6498 30.8309 68.8568 74.6423 76.3509 79.5476 82.657 84.0168 67.009 60.5855 62.7481 62.6938 51.0824 51.9481 43.45 47.5777 47.118 40.2542 47.4968 45.7542 46.0416 51.331 36.068 41.7835 39.0446 43.3101 69.699 68.4485 87.0794 75.4444 84.7327 68.5927 80.2701 58.8983 56.0277 54.2044 46.7494 58.0551 49.8982 47.7182 47.6204 47.617 49.2315 35.632 52.1258 50.7313 49.3281 39.3032 31.6464 47.4478 68.307 59.62 84.8811 78.8158 74.1896 53.667 57.4544 64.6707 46.2296 60.4552 53.8666 48.0883 38.3165 48.1833 47.4793 57.9258 42.916 46.6591 48.7752 42.9076 43.7885 26.9483 29.4627 54.9051 47.6639 61.2987 73.5664 57.3337 53.7251 51.813 51.5554 50.7431 53.9507 55.1856 56.2588 39.7447 59.5579 47.9179 42.6553 37.0575 39.748 41.4093 42.5807 41.7868 48.0921 39.6576 33.7231 44.1278 45.5632 75.109 47.9878 54.2612 54.2422 57.1917 49.6754 60.074 58.4883 49.2863 48.8478 51.9312 52.8974 39.2827 48.4149 32.3561 54.3776 46.1487 42.3046 49.8927 28.4737 33.3938 38.7057 51.4314 46.0218 49.945 59.1771 66.1291 37.4189 51.7293 57.116 49.7262 46.2759 55.027 53.0205 48.3441 60.1606 39.8013 51.6158 32.9261 49.1384 38.6608 47.1406 33.8597 45.8858 44.596 30.9097 29.7587 42.3953 52.1309 76.7651 56.2302 65.4742 48.5125 51.7429 52.9742 48.4023 49.8182 41.4403 51.3247 63.6575 39.2856 45.4263 41.9618 33.9162 48.8945 43.7113 45.1785 40.9003 47.9998 41.213 47.7206 47.2108 68.1153 66.4191 62.0422 63.825 66.1828 48.1834 56.8001 49.8702 56.1799 63.5455 39.8671 40.0377 61.3985 36.5437 52.8415 57.8173 36.2251 38.7919 58.4445 42.1469 36.1272 39.3545 30.951 65.7642 83.1353 80.3958 74.2861 75.8015 77.1745 67.2508 76.5865 62.8348 59.031 40.8304 51.4644 38.8799 53.6327 49.9714 27.1032 38.8083 59.3555 42.4894 47.9446 44.558 52.064 35.9657 41.8439 82.2245 83.2806 79.4703 82.206 76.1185 59.4997 63.9651 61.3319 51.3699 51.88 62.7707 56.7694 54.2282 48.4082 37.9388 38.1209 47.1076 38.7385 40.2859 37.8 47.0333 37.358 45.6555 47.1397 49.0494 80.8718 72.0616 67.7466 62.1021 58.5091 58.1778 74.2128 63.4219 60.1543 73.3458 46.4049 50.9566 57.5792 41.8043 50.4479 40.9503 63.3678 50.5952 33.8334 37.4892 47.8934 35.4492 38.4093 58.7908 66.9844 68.8937 54.6803 47.7181 51.7156 56.1835 59.1686 48.2363 68.2045 37.8073 47.3369 55.4807 46.6212 52.339 47.4949 50.39 38.108 40.5432 52.8546 44.8788 33.496 36.0534 25.3183 56.0321 56.3084 48.9683 54.693 55.4211 59.4786 45.4515 57.855 73.0927 49.444 50.3499 57.5601 45.0563 45.472 38.5749 42.4885 55.3431 45.2341 22.6244 37.1838 31.482 43.4422 34.1535 40.1056 39.6038 52.8042 51.3879 60.4211 59.7031 60.5834 54.5038 45.2712 52.4601 37.9372 49.3155 49.7536 61.1883 48.1679 44.618 42.3995 33.3575 38.4822 39.4815 36.5082 37.174 42.8165 48.3806 43.2747 44.4824 49.5119 55.3635 60.1816 48.1304 54.872 54.9172 55.1839 47.5016 44.045 50.9435 48.866 50.9352 42.5326 42.1714 46.4109 41.9091 33.9317 44.3426 38.8256 41.6354 35.2056 47.4273 44.8474 59.0957 69.4901 61.1555 75.8987 70.1927 68.4187 50.8128 59.7143 50.6693 63.013 52.7416 52.8263 48.8649 51.4707 46.8548 55.4964 44.5808 39.6911 37.5911 32.0597 37.8167 42.5646 44.9825 44.0425 73.2493 75.0381 86.6369 72.728 74.6557 65.4495 58.6698 78.338 61.6343 60.581 38.4644 46.8532 60.1071 57.5002 63.3998 46.3726 42.9067 45.3745 50.7654 37.9871 47.0086 44.9773 41.3405 48.1778 62.4525 78.5637 75.7817 82.5944 69.5546 70.245 82.637 59.2827 62.9138 53.4074 53.609 46.548 43.6849 62.0449 41.6359 48.1283 50.7093 29.5852 43.3766 44.3732 46.5241 42.194 41.3261 33.0866 50.2902 71.5319 64.4198 65.5597 65.5448 71.327 80.3038 65.9463 59.7564 49.3221 43.2243 41.6171 60.0047 41.2668 39.4794 49.358 45.9684 46.5887 51.8484 48.3161 35.3965 42.5717 45.3989 36.8041 54.4603 58.8899 72.2591 53.8427 63.3936 61.3251 54.2696 58.2449 60.2358 42.0059 66.7039 56.3889 45.5915 52.1959 43.7786 47.2421 48.2416 34.1522 38.6442 33.6883 39.8839 28.0134 42.4461 43.2155 32.7988 52.7856 56.7199 61.7282 49.3669 45.8047 42.4257 57.0379 51.156 50.2363 55.9614 47.8057 47.187 68.3081 58.2793 48.9701 47.6501 45.0847 37.1646 41.9307 45.4998 32.1305 46.8754 36.4696 48.9926 48.0036 72.985 55.033 44.3284 55.4751 55.5849 49.5215 52.663 58.133 44.0332 53.7872 51.603 51.881 53.2132 39.1508 38.8317 47.8369 37.6966 44.1264 38.27 34.5724 30.6363 38.6337 55.0904 49.1073 46.37 48.5152 61.7652 59.6001 47.6276 53.5211 50.8321 40.6799 38.9335 45.4966 41.259 34.4585 41.5264 38.6531 37.986 32.1445 39.9972 28.6936 27.3865 30.9225 34.2314 33.6929 37.4381 77.0481 61.8327 70.3882 73.2013 79.2059 55.172 59.3866 52.4304 50.0556 57.5276 43.5639 56.2942 52.5246 48.2293 52.3275 50.2588 48.2676 44.1823 41.8553 41.533 42.0392 38.7288 45.1381 54.3635 71.2779 69.2806 75.5257 79.827 64.6461 75.1687 62.4635 56.6065 55.7137 60.4677 49.2162 52.7279 42.67 47.5809 41.8972 42.736 49.1512 57.3509 33.023 41.1826 29.4476 46.7105 35.2863 77.6246 78.3578 80.2586 75.0656 61.4694 80.6707 82.3081 70.9571 51.3543 65.5374 64.3171 62.3264 46.9211 62.4976 37.4679 44.7807 53.151 41.525 45.796 41.5618 52.002 27.4231 42.2613 37.5054 52.183 64.7528 80.0726 70.9406 66.7553 69.8125 64.8198 61.8139 48.4487 50.7611 46.7006 55.1111 42.1499 47.1561 42.6663 41.9782 40.1413 42.596 44.815 28.7065 36.5443 32.5974 40.1988 54.731 48.0749 50.8876 50.6939 53.8497 64.5494 55.1399 50.9256 52.4217 41.7415 51.2188 50.1084 41.179 46.8159 35.9821 51.8227 36.927 47.5476 39.2329 43.044 43.5039 61.5161 42.8005 41.8901 33.4826 46.9882 55.2265 51.6864 65.419 61.0678 69.4091 49.1208 59.785 42.5513 54.7129 62.6576 55.9957 52.0179 58.6369 39.1461 44.2897 46.0756 38.481 52.6472 50.8772 51.967 29.6615 49.2022 35.7398 43.8162 41.9165 44.9906 58.1069 58.3087 45.3863 48.2653 51.1016 48.5838 42.9132 50.0544 44.5963 48.4149 45.3009 63.8496 53.6107 46.6161 35.6148 34.9212 44.2209 40.5395 41.0604 37.1355 45.8734 66.9701 49.2314 56.649 49.2391 50.1519 58.161 49.7956 55.3864 53.6845 50.1987 41.5203 47.3498 36.7252 65.0477 50.0582 52.5459 54.5103 44.3073 67.4935 46.9721 57.7481 27.9461 32.1609 53.7342 43.9223 74.4356 68.6228 80.7622 75.3027 63.7523 64.6805 61.4648 56.7808 43.5267 51.4108 52.6095 50.3006 45.9628 45.6277 50.5061 36.2717 50.5294 32.2827 54.4261 39.2905 37.9469 39.2517 43.1618 79.1792 89.325 84.465 85.4398 72.538 71.7037 71.7323 76.6992 56.9565 54.18 55.1326 48.2775 55.7159 57.6206 59.917 63.1914 45.5106 61.1111 41.594 40.2404 35.5274 41.7417 41.5255 32.9376 79.7333 70.45 76.5985 77.826 68.5474 68.3398 79.6199 63.2453 60.498 61.7017 58.0362 53.326 43.9835 56.4187 40.1907 45.5129 46.5287 55.775 52.601 36.9527 43.0623 44.5318 38.0105 37.473 58.8335 68.1346 81.5232 64.4543 56.9209 64.0531 50.8373 59.1135 59.9196 58.6611 55.8226 48.7439 50.2737 51.9562 43.4596 50.6351 28.8729 41.6884 49.2716 38.5724 42.2229 57.9869 21.7119 35.6829 62.2171 66.7296 51.6432 60.5718 61.1758 67.3566 60.1529 45.2274 51.3821 48.8228 55.8241 53.1848 48.9685 51.5692 47.261 39.0481 45.489 43.9302 61.2759 38.1837 39.353 47.1487 41.1346 47.1821 67.3294 57.0896 39.5554 60.9872 57.6757 59.0762 51.809 46.4593 47.872 50.4851 65.6192 40.7542 42.8753 47.781 62.124 58.0135 53.707 29.2564 39.0949 48.0288 47.5813 34.1846 42.2185 31.5467 49.0085 35.0122 71.2569 54.1413 55.734 47.4652 53.7752 48.6576 53.5305 54.8641 54.6058 59.5946 42.9018 40.6031 47.4086 28.8435 39.9973 43.7808 39.9331 45.7558 34.9593 37.2694 52.3605 45.2491 53.3597 63.682 59.1205 54.097 52.6229 57.1096 46.0351 59.1279 55.6748 50.6516 55.1122 47.291 39.4102 62.296 40.0403 45.5617 48.163 28.2049 44.7626 46.7811 34.9475 38.5079 34.4507 38.3528 64.202 57.2936 72.9361 74.7869 60.9148 70.3935 52.3974 63.9018 68.458 52.068 48.4253 48.0539 36.9394 53.548 33.3885 43.8573 56.7297 44.3625 42.579 49.1226 45.8736 58.0085 45.2547 37.5648 65.3442 86.3039 76.6449 76.353 76.4729 66.2823 70.7122 73.6219 61.1967 61.9127 58.9417 46.9695 62.8303 39.3555 44.4865 46.5719 38.352 45.0487 46.2648 37.1298 38.4596 37.7763 41.2134 49.3773 75.7293 97.4809 74.6677 74.7079 64.9535 66.851 67.6903 60.9125 58.912 52.2739 58.309 45.4574 59.4818 60.5673 43.7026 35.6299 52.2164 48.6865 47.4484 42.5953 49.0176 41.1512 32.8348 44.0033 67.9579 77.6462 76.0614 70.4974 73.5017 63.0004 69.1505 43.1945 62.1706 54.2607 54.6299 47.2889 48.0271 41.1092 43.2922 60.4104 36.9152 39.6997 48.5726 32.9162 55.8426 37.0622 39.7522 44.7546 51.497 49.7989 66.1864 54.7791 44.3166 52.4336 55.53 48.0139 66.7888 56.078 43.5151 43.8007 41.6983 45.9064 62.0275 42.5035 44.4322 34.6455 44.8158 54.8797 46.7616 53.6368 38.6727 45.4132 54.1365 44.8831 62.255 48.1883 58.8432 60.8947 68.8653 54.6115 38.7758 35.5123 56.0344 44.5532 46.6724 37.9893 55.1901 57.2703 40.4335 39.18 48.9168 28.9917 29.7387 52.0855 42.9485 30.9913 33.3483 52.4478 55.1079 38.7744 54.5852 56.7508 56.5308 59.7291 57.6221 49.2155 52.9134 52.8 49.6657 41.8852 36.3902 50.1018 46.9352 51.8064 45.343 38.8278 38.4855 41.8872 51.1804 47.7865 57.8301 55.7559 60.057 50.5872 58.6935 56.1998 49.2796 53.9306 42.5079 54.4472 57.6508 61.2964 32.4239 49.4483 47.5283 43.1953 33.1522 58.6277 40.0873 46.0621 40.2277 31.5796 40.8981 42.4692 63.1468 65.385 83.9717 66.2682 65.0618 69.6964 53.7795 58.3128 67.6892 59.9643 43.9684 50.9893 47.2453 53.3212 63.2088 40.7399 43.4413 45.0599 39.6124 33.6044 49.2009 39.3154 30.8991 42.2276 68.8966 79.1003 81.9913 90.2297 78.2713 77.7587 73.1982 58.8508 60.1416 57.9724 60.4912 48.6822 51.9796 63.3905 43.8582 49.175 42.8006 45.0699 39.0579 41.1348 46.1987 37.0342 38.6445 40.916 
SCALARS volume float 1
LOOKUP_TABLE default
14.669 14.7379 14.7372 14.7369 14.739 14.7419 14.745 14.748 14.751 14.7537 14.7564 14.7589 14.7612 14.7632 14.7651 14.7668 14.7683 14.7695 14.7707 14.7715 14.7723 14.7728 14.7732 14.7734 14.7092 14.7433 14.7465 14.7474 14.7483 14.7502 14.7522 14.7544 14.7565 14.7586 14.7606 14.7625 14.7642 14.7658 14.7671 14.7684 14.7695 14.7705 14.7713 14.7719 14.7725 14.7729 14.7732 14.7737 14.7365 14.7563 14.7572 14.7578 14.7584 14.7595 14.7606 14.7619 14.7632 14.7645 14.7657 14.7668 14.7678 14.7688 14.7696 14.7704 14.771 14.7716 14.7721 14.7725 14.7728 14.773 14.7733 14.7736 14.7619 14.7674 14.7683 14.7682 14.7684 14.7687 14.7691 14.7695 14.77 14.7704 14.7709 14.7713 14.7716 14.7719 14.7722 14.7724 14.7727 14.7729 14.773 14.7731 14.7732 14.7733 14.7733 14.7734 14.7863 14.7795 14.7784 14.7785 14.7783 14.7779 14.7776 14.7772 14.7769 14.7765 14.7762 14.7758 14.7755 14.7752 14.7749 14.7747 14.7744 14.7742 14.774 14.7738 14.7737 14.7736 14.7734 14.7732 14.8113 14.7901 14.7893 14.7886 14.788 14.787 14.786 14.7848 14.7836 14.7825 14.7814 14.7803 14.7793 14.7784 14.7776 14.7768 14.7761 14.7755 14.7749 14.7745 14.7741 14.7738 14.7734 14.773 14.8351 14.8032 14.7989 14.7985 14.7976 14.796 14.7941 14.7922 14.7902 14.7883 14.7864 14.7847 14.783 14.7815 14.7801 14.7788 14.7777 14.7767 14.7758 14.775 14.7744 14.774 14.7735 14.7729 14.877 14.8043 14.8082 14.808 14.8065 14.804 14.8014 14.7986 14.7959 14.7933 14.7908 14.7884 14.7862 14.7841 14.7822 14.7805 14.779 14.7776 14.7764 14.7754 14.7747 14.774 14.7735 14.7732 14.6801 14.7264 14.7301 14.7349 14.7385 14.7424 14.7458 14.7491 14.752 14.7548 14.7574 14.7598 14.7619 14.764 14.7657 14.7674 14.7688 14.77 14.7711 14.7719 14.7726 14.7731 14.7734 14.7734 14.7187 14.7316 14.7407 14.7449 14.7476 14.7504 14.7529 14.7553 14.7575 14.7595 14.7615 14.7632 14.7648 14.7663 14.7676 14.7688 14.7698 14.7707 14.7715 14.7721 14.7726 14.7729 14.7732 14.7738 14.7408 14.7483 14.7528 14.7559 14.7574 14.7592 14.7607 14.7622 14.7636 14.7649 14.7661 14.7672 14.7681 14.7691 14.7698 14.7706 14.7712 14.7718 14.7722 14.7726 14.7729 14.7731 14.7733 14.7738 14.7635 14.7651 14.7664 14.7672 14.7678 14.7684 14.769 14.7695 14.77 14.7705 14.7709 14.7713 14.7717 14.772 14.7723 14.7725 14.7727 14.7729 14.773 14.7731 14.7732 14.7733 14.7733 14.7734 14.785 14.7815 14.7797 14.7788 14.7783 14.7778 14.7774 14.777 14.7767 14.7764 14.776 14.7757 14.7754 14.7751 14.7748 14.7746 14.7744 14.7742 14.774 14.7738 14.7737 14.7735 14.7734 14.7732 14.8071 14.7976 14.7926 14.7898 14.7885 14.7869 14.7856 14.7843 14.7831 14.782 14.7809 14.7799 14.779 14.7781 14.7773 14.7766 14.7759 14.7753 14.7748 14.7743 14.774 14.7737 14.7733 14.7729 14.8286 14.8127 14.804 14.8 14.798 14.7956 14.7934 14.7913 14.7893 14.7874 14.7857 14.784 14.7824 14.781 14.7797 14.7785 14.7774 14.7764 14.7756 14.7749 14.7743 14.7739 14.7734 14.7729 14.8689 14.8138 14.8129 14.8095 14.8067 14.8036 14.8007 14.7977 14.795 14.7924 14.7899 14.7876 14.7855 14.7834 14.7816 14.78 14.7785 14.7771 14.776 14.775 14.7743 14.7737 14.7733 14.7732 14.6718 14.7251 14.7272 14.7327 14.7371 14.7416 14.7454 14.749 14.7521 14.755 14.7576 14.76 14.7622 14.7642 14.7659 14.7676 14.769 14.7703 14.7713 14.7721 14.7728 14.7733 14.7735 14.7735 14.7157 14.7288 14.7383 14.7432 14.7467 14.7501 14.7529 14.7555 14.7578 14.7598 14.7618 14.7635 14.7651 14.7665 14.7678 14.769 14.77 14.7708 14.7716 14.7722 14.7727 14.773 14.7733 14.7738 14.7395 14.747 14.7511 14.7546 14.7568 14.759 14.7607 14.7623 14.7638 14.7651 14.7662 14.7673 14.7683 14.7692 14.77 14.7707 14.7713 14.7718 14.7722 14.7726 14.7729 14.7732 14.7734 14.7737 14.7628 14.7645 14.7657 14.7667 14.7675 14.7682 14.7689 14.7695 14.77 14.7705 14.771 14.7714 14.7717 14.772 14.7723 14.7725 14.7727 14.7729 14.773 14.7731 14.7732 14.7733 14.7733 14.7734 14.7855 14.782 14.7801 14.779 14.7783 14.7777 14.7773 14.7769 14.7766 14.7762 14.7759 14.7756 14.7753 14.7751 14.7748 14.7746 14.7743 14.7742 14.7739 14.7738 14.7737 14.7735 14.7733 14.7732 14.8082 14.7989 14.7941 14.7907 14.7888 14.787 14.7855 14.7841 14.7829 14.7818 14.7807 14.7798 14.7788 14.778 14.7772 14.7765 14.7758 14.7753 14.7747 14.7743 14.774 14.7736 14.7733 14.7729 14.8307 14.8151 14.8061 14.8013 14.7985 14.7957 14.7933 14.7911 14.789 14.7871 14.7853 14.7837 14.7822 14.7808 14.7794 14.7783 14.7772 14.7762 14.7755 14.7748 14.7742 14.7738 14.7733 14.7728 14.8751 14.8158 14.8153 14.8112 14.8076 14.804 14.8008 14.7976 14.7948 14.7921 14.7897 14.7873 14.7852 14.7832 14.7814 14.7797 14.7782 14.7769 14.7758 14.7748 14.7741 14.7736 14.7732 14.7731 14.6687 14.7232 14.7257 14.7315 14.7362 14.741 14.7451 14.7488 14.752 14.755 14.7576 14.7601 14.7623 14.7643 14.7661 14.7677 14.7691 14.7704 14.7714 14.7722 14.7729 14.7733 14.7735 14.7735 14.7146 14.7272 14.737 14.7422 14.7462 14.7497 14.7527 14.7554 14.7578 14.7599 14.7618 14.7635 14.7652 14.7666 14.7679 14.769 14.7701 14.7709 14.7717 14.7722 14.7727 14.773 14.7734 14.7738 14.7388 14.7461 14.7503 14.7541 14.7564 14.7588 14.7607 14.7623 14.7638 14.7651 14.7663 14.7674 14.7684 14.7692 14.77 14.7707 14.7713 14.7719 14.7723 14.7727 14.773 14.7732 14.7734 14.7737 14.7626 14.7642 14.7654 14.7665 14.7674 14.7681 14.7689 14.7695 14.7701 14.7706 14.771 14.7714 14.7718 14.7721 14.7723 14.7725 14.7728 14.7729 14.773 14.7731 14.7732 14.7733 14.7733 14.7735 14.7857 14.7823 14.7803 14.7791 14.7783 14.7777 14.7773 14.7769 14.7765 14.7762 14.7759 14.7756 14.7753 14.7751 14.7748 14.7746 14.7744 14.7741 14.7739 14.7738 14.7736 14.7735 14.7733 14.7732 14.8088 14.7996 14.7947 14.7911 14.789 14.787 14.7855 14.7841 14.7828 14.7817 14.7806 14.7797 14.7788 14.7779 14.7771 14.7764 14.7758 14.7752 14.7747 14.7743 14.774 14.7736 14.7733 14.7729 14.8316 14.8163 14.8071 14.802 14.799 14.7959 14.7934 14.791 14.789 14.787 14.7853 14.7836 14.7821 14.7807 14.7794 14.7782 14.7771 14.7762 14.7754 14.7747 14.7742 14.7737 14.7733 14.7729 14.8779 14.8172 14.8167 14.8122 14.8084 14.8044 14.801 14.7977 14.7949 14.792 14.7896 14.7872 14.7851 14.7831 14.7813 14.7796 14.7782 14.7768 14.7757 14.7747 14.774 14.7735 14.7732 14.7731 14.6688 14.7233 14.7257 14.7315 14.7362 14.741 14.7451 14.7489 14.752 14.755 14.7576 14.7601 14.7623 14.7643 14.7661 14.7677 14.7691 14.7704 14.7714 14.7722 14.7729 14.7733 14.7735 14.7735 14.7146 14.7273 14.737 14.7423 14.7462 14.7497 14.7528 14.7554 14.7578 14.7599 14.7618 14.7636 14.7651 14.7666 14.7679 14.769 14.77 14.7709 14.7717 14.7722 14.7727 14.7731 14.7733 14.7738 14.7388 14.7461 14.7503 14.7541 14.7564 14.7588 14.7607 14.7623 14.7638 14.7651 14.7663 14.7674 14.7684 14.7692 14.77 14.7707 14.7713 14.7719 14.7723 14.7726 14.773 14.7732 14.7734 14.7737 14.7626 14.7642 14.7654 14.7665 14.7674 14.7682 14.7689 14.7695 14.7701 14.7705 14.771 14.7714 14.7717 14.772 14.7723 14.7726 14.7727 14.7729 14.7731 14.7731 14.7732 14.7733 14.7733 14.7734 14.7857 14.7822 14.7803 14.7791 14.7784 14.7777 14.7773 14.7769 14.7765 14.7762 14.7759 14.7756 14.7753 14.775 14.7748 14.7746 14.7743 14.7741 14.7739 14.7738 14.7736 14.7735 14.7733 14.7732 14.8088 14.7996 14.7947 14.7911 14.7891 14.787 14.7855 14.7841 14.7828 14.7817 14.7806 14.7797 14.7787 14.7779 14.7771 14.7764 14.7758 14.7752 14.7747 14.7743 14.7739 14.7736 14.7733 14.7729 14.8316 14.8163 14.8071 14.802 14.799 14.7959 14.7934 14.791 14.789 14.7871 14.7853 14.7836 14.7821 14.7807 14.7794 14.7782 14.7771 14.7762 14.7754 14.7747 14.7742 14.7737 14.7733 14.7728 14.8779 14.8172 14.8167 14.8122 14.8084 14.8044 14.801 14.7977 14.7949 14.7921 14.7896 14.7872 14.7851 14.783 14.7813 14.7796 14.7781 14.7768 14.7757 14.7747 14.774 14.7735 14.7731 14.7731 14.6722 14.7251 14.7273 14.7327 14.7371 14.7416 14.7454 14.749 14.7521 14.755 14.7576 14.7601 14.7622 14.7642 14.766 14.7676 14.769 14.7703 14.7713 14.7722 14.7728 14.7732 14.7735 14.7735 14.7158 14.7288 14.7383 14.7432 14.7468 14.7501 14.753 14.7555 14.7578 14.7598 14.7618 14.7635 14.7651 14.7665 14.7678 14.769 14.77 14.7709 14.7716 14.7722 14.7727 14.773 14.7733 14.7738 14.7396 14.747 14.7512 14.7547 14.7568 14.759 14.7607 14.7624 14.7637 14.7651 14.7663 14.7673 14.7683 14.7692 14.7699 14.7707 14.7713 14.7718 14.7722 14.7726 14.7729 14.7732 14.7733 14.7738 14.7628 14.7645 14.7657 14.7667 14.7675 14.7683 14.7689 14.7695 14.7701 14.7706 14.771 14.7714 14.7717 14.772 14.7723 14.7725 14.7727 14.7729 14.773 14.7731 14.7732 14.7733 14.7733 14.7734 14.7855 14.782 14.7801 14.779 14.7783 14.7777 14.7773 14.7769 14.7766 14.7762 14.7759 14.7756 14.7753 14.7751 14.7748 14.7746 14.7743 14.7741 14.774 14.7738 14.7736 14.7735 14.7733 14.7732 14.8082 14.7987 14.794 14.7907 14.7888 14.787 14.7855 14.7841 14.7829 14.7818 14.7807 14.7797 14.7788 14.778 14.7772 14.7765 14.7758 14.7753 14.7747 14.7743 14.774 14.7736 14.7733 14.7729 14.8304 14.8149 14.806 14.8013 14.7986 14.7957 14.7933 14.7911 14.789 14.7871 14.7854 14.7837 14.7822 14.7807 14.7794 14.7783 14.7772 14.7763 14.7754 14.7747 14.7742 14.7738 14.7733 14.7728 14.8749 14.8155 14.8153 14.8112 14.8077 14.804 14.8008 14.7976 14.7948 14.7921 14.7897 14.7873 14.7852 14.7831 14.7814 14.7797 14.7782 14.7769 14.7758 14.7748 14.7741 14.7735 14.7732 14.7731 14.6807 14.7265 14.7299 14.7348 14.7385 14.7423 14.7457 14.7491 14.752 14.7548 14.7573 14.7598 14.7619 14.764 14.7657 14.7674 14.7688 14.77 14.771 14.772 14.7726 14.7731 14.7733 14.7734 14.7187 14.7316 14.741 14.7451 14.7478 14.7505 14.753 14.7554 14.7576 14.7596 14.7615 14.7633 14.7649 14.7663 14.7676 14.7688 14.7698 14.7707 14.7715 14.7721 14.7726 14.773 14.7732 14.7738 14.741 14.7485 14.7529 14.756 14.7574 14.7592 14.7607 14.7622 14.7636 14.7649 14.766 14.7671 14.7681 14.769 14.7698 14.7706 14.7712 14.7717 14.7722 14.7726 14.7729 14.7731 14.7733 14.7737 14.7636 14.7652 14.7664 14.7673 14.7679 14.7685 14.769 14.7695 14.77 14.7705 14.7709 14.7713 14.7717 14.772 14.7722 14.7725 14.7727 14.7729 14.773 14.7731 14.7732 14.7733 14.7733 14.7735 14.7849 14.7815 14.7797 14.7788 14.7783 14.7778 14.7774 14.777 14.7767 14.7763 14.776 14.7757 14.7754 14.7751 14.7748 14.7746 14.7744 14.7742 14.774 14.7738 14.7737 14.7735 14.7734 14.7732 14.8069 14.7973 14.7926 14.7898 14.7885 14.7869 14.7856 14.7843 14.7831 14.782 14.7809 14.7799 14.779 14.7781 14.7773 14.7766 14.7759 14.7753 14.7748 14.7744 14.774 14.7737 14.7733 14.7729 14.8278 14.8119 14.8038 14.7999 14.798 14.7955 14.7934 14.7913 14.7893 14.7874 14.7856 14.7839 14.7824 14.781 14.7796 14.7784 14.7774 14.7764 14.7756 14.7749 14.7743 14.7738 14.7734 14.7729 14.8681 14.8134 14.8128 14.8094 14.8067 14.8036 14.8007 14.7977 14.795 14.7924 14.7899 14.7876 14.7855 14.7835 14.7816 14.7799 14.7784 14.7771 14.776 14.775 14.7743 14.7737 14.7733 14.7732 14.6696 14.742 14.7369 14.7374 14.7396 14.7423 14.7453 14.7483 14.7512 14.754 14.7565 14.7591 14.7613 14.7634 14.7651 14.7669 14.7683 14.7696 14.7706 14.7715 14.7723 14.7728 14.7732 14.7734 14.7093 14.7435 14.7467 14.7472 14.7482 14.75 14.7521 14.7542 14.7564 14.7585 14.7606 14.7624 14.7641 14.7657 14.7671 14.7683 14.7695 14.7704 14.7712 14.7719 14.7724 14.7729 14.7732 14.7737 14.7366 14.7567 14.7569 14.758 14.7584 14.7594 14.7606 14.7618 14.7631 14.7644 14.7656 14.7668 14.7678 14.7688 14.7696 14.7704 14.771 14.7716 14.7721 14.7725 14.7728 14.773 14.7732 14.7736 14.762 14.7678 14.7683 14.7683 14.7684 14.7687 14.7691 14.7695 14.77 14.7704 14.7708 14.7712 14.7716 14.7719 14.7722 14.7724 14.7726 14.7728 14.7729 14.7731 14.7732 14.7732 14.7733 14.7734 14.7867 14.779 14.7785 14.7785 14.7783 14.778 14.7776 14.7772 14.7768 14.7765 14.7762 14.7758 14.7755 14.7752 14.7749 14.7747 14.7744 14.7742 14.774 14.7738 14.7737 14.7735 14.7734 14.7732 14.8115 14.7895 14.7893 14.7885 14.788 14.7871 14.786 14.7848 14.7837 14.7825 14.7814 14.7803 14.7793 14.7784 14.7775 14.7768 14.7761 14.7754 14.7749 14.7745 14.7741 14.7738 14.7734 14.773 14.836 14.8014 14.7991 14.7984 14.7977 14.796 14.7942 14.7922 14.7902 14.7883 14.7865 14.7847 14.783 14.7815 14.7801 14.7788 14.7777 14.7766 14.7758 14.7751 14.7745 14.7739 14.7735 14.773 14.8773 14.8008 14.8079 14.8083 14.8067 14.8042 14.8015 14.7987 14.796 14.7933 14.7908 14.7884 14.7862 14.7841 14.7822 14.7805 14.779 14.7776 14.7764 14.7754 14.7746 14.774 14.7735 14.7732 
SCALARS volume_diff float 1
LOOKUP_TABLE default
14.667 14.7359 14.7352 14.735 14.7371 14.74 14.743 14.746 14.749 14.7518 14.7545 14.7569 14.7592 14.7613 14.7632 14.7648 14.7663 14.7676 14.7687 14.7696 14.7704 14.7709 14.7712 14.7714 14.7072 14.7413 14.7446 14.7454 14.7463 14.7482 14.7503 14.7524 14.7546 14.7567 14.7587 14.7605 14.7622 14.7638 14.7652 14.7665 14.7675 14.7685 14.7693 14.77 14.7705 14.7709 14.7712 14.7717 14.7346 14.7543 14.7552 14.7558 14.7564 14.7575 14.7587 14.7599 14.7612 14.7625 14.7637 14.7648 14.7659 14.7668 14.7677 14.7684 14.7691 14.7696 14.7701 14.7705 14.7708 14.7711 14.7713 14.7717 14.76 14.7654 14.7664 14.7663 14.7665 14.7668 14.7671 14.7676 14.768 14.7685 14.7689 14.7693 14.7696 14.77 14.7703 14.7705 14.7707 14.7709 14.771 14.7712 14.7713 14.7713 14.7714 14.7715 14.7844 14.7775 14.7765 14.7765 14.7763 14.776 14.7756 14.7753 14.7749 14.7746 14.7742 14.7739 14.7736 14.7733 14.773 14.7727 14.7725 14.7723 14.772 14.7718 14.7717 14.7716 14.7714 14.7713 14.8094 14.7882 14.7873 14.7866 14.7861 14.7851 14.784 14.7829 14.7817 14.7805 14.7794 14.7784 14.7774 14.7765 14.7756 14.7748 14.7742 14.7735 14.773 14.7725 14.7722 14.7718 14.7715 14.7711 14.8331 14.8012 14.7969 14.7965 14.7957 14.794 14.7922 14.7902 14.7883 14.7863 14.7845 14.7827 14.781 14.7796 14.7781 14.7769 14.7757 14.7747 14.7738 14.7731 14.7725 14.772 14.7716 14.771 14.875 14.8024 14.8062 14.8061 14.8046 14.8021 14.7995 14.7967 14.794 14.7913 14.7888 14.7864 14.7842 14.7821 14.7803 14.7786 14.777 14.7756 14.7745 14.7735 14.7727 14.772 14.7716 14.7713 14.6781 14.7244 14.7282 14.7329 14.7366 14.7404 14.7438 14.7471 14.75 14.7529 14.7554 14.7579 14.76 14.762 14.7638 14.7654 14.7668 14.7681 14.7691 14.77 14.7707 14.7712 14.7714 14.7715 14.7167 14.7296 14.7388 14.7429 14.7457 14.7485 14.751 14.7534 14.7556 14.7576 14.7595 14.7613 14.7629 14.7643 14.7656 14.7668 14.7679 14.7688 14.7695 14.7701 14.7706 14.771 14.7713 14.7718 14.7389 14.7464 14.7509 14.7539 14.7555 14.7573 14.7588 14.7603 14.7616 14.7629 14.7641 14.7652 14.7662 14.7671 14.7679 14.7686 14.7692 14.7698 14.7702 14.7706 14.7709 14.7712 14.7714 14.7718 14.7615 14.7632 14.7644 14.7652 14.7659 14.7665 14.767 14.7676 14.7681 14.7686 14.769 14.7694 14.7697 14.7701 14.7703 14.7705 14.7707 14.7709 14.7711 14.7712 14.7712 14.7713 14.7713 14.7715 14.783 14.7796 14.7778 14.7769 14.7763 14.7759 14.7755 14.7751 14.7747 14.7744 14.774 14.7737 14.7734 14.7732 14.7729 14.7727 14.7724 14.7722 14.772 14.7718 14.7717 14.7716 14.7714 14.7712 14.8052 14.7956 14.7906 14.7878 14.7865 14.785 14.7836 14.7824 14.7812 14.78 14.779 14.778 14.777 14.7762 14.7753 14.7746 14.7739 14.7734 14.7728 14.7724 14.7721 14.7717 14.7714 14.7709 14.8266 14.8108 14.802 14.7981 14.796 14.7937 14.7915 14.7894 14.7874 14.7855 14.7837 14.782 14.7805 14.779 14.7777 14.7765 14.7754 14.7745 14.7736 14.7729 14.7724 14.7719 14.7715 14.7709 14.867 14.8119 14.811 14.8075 14.8047 14.8017 14.7987 14.7958 14.7931 14.7904 14.788 14.7857 14.7835 14.7815 14.7797 14.778 14.7765 14.7752 14.7741 14.7731 14.7723 14.7717 14.7713 14.7712 14.6698 14.7232 14.7253 14.7308 14.7351 14.7396 14.7434 14.7471 14.7501 14.7531 14.7556 14.7581 14.7602 14.7623 14.764 14.7657 14.7671 14.7683 14.7693 14.7702 14.7709 14.7713 14.7715 14.7715 14.7138 14.7268 14.7363 14.7412 14.7448 14.7481 14.751 14.7535 14.7558 14.7579 14.7598 14.7615 14.7631 14.7646 14.7658 14.767 14.768 14.7689 14.7696 14.7702 14.7707 14.7711 14.7713 14.7718 14.7376 14.745 14.7491 14.7527 14.7548 14.757 14.7588 14.7604 14.7618 14.7631 14.7643 14.7654 14.7663 14.7672 14.768 14.7687 14.7693 14.7699 14.7703 14.7707 14.771 14.7712 14.7714 14.7718 14.7608 14.7625 14.7637 14.7647 14.7656 14.7663 14.767 14.7676 14.7681 14.7686 14.769 14.7694 14.7697 14.7701 14.7703 14.7706 14.7708 14.7709 14.7711 14.7712 14.7713 14.7713 14.7714 14.7715 14.7836 14.7801 14.7782 14.777 14.7764 14.7758 14.7754 14.7749 14.7746 14.7743 14.774 14.7737 14.7734 14.7731 14.7728 14.7726 14.7724 14.7722 14.772 14.7718 14.7717 14.7715 14.7714 14.7712 14.8063 14.7969 14.7921 14.7887 14.7869 14.785 14.7835 14.7822 14.7809 14.7798 14.7788 14.7778 14.7768 14.776 14.7752 14.7745 14.7739 14.7733 14.7728 14.7723 14.772 14.7717 14.7714 14.7709 14.8287 14.8131 14.8042 14.7994 14.7966 14.7937 14.7913 14.7891 14.7871 14.7852 14.7834 14.7818 14.7802 14.7788 14.7775 14.7763 14.7752 14.7743 14.7735 14.7728 14.7723 14.7718 14.7714 14.7709 14.8732 14.8139 14.8134 14.8092 14.8057 14.8021 14.7988 14.7957 14.7929 14.7901 14.7877 14.7853 14.7833 14.7812 14.7794 14.7777 14.7763 14.7749 14.7738 14.7729 14.7721 14.7716 14.7712 14.7712 14.6668 14.7213 14.7237 14.7295 14.7342 14.7391 14.7431 14.7469 14.7501 14.7531 14.7557 14.7582 14.7603 14.7624 14.7641 14.7658 14.7672 14.7684 14.7694 14.7703 14.7709 14.7714 14.7715 14.7716 14.7126 14.7253 14.735 14.7403 14.7442 14.7478 14.7508 14.7535 14.7559 14.7579 14.7599 14.7616 14.7632 14.7646 14.7659 14.7671 14.7681 14.7689 14.7697 14.7703 14.7708 14.7711 14.7714 14.7719 14.7369 14.7441 14.7484 14.7521 14.7545 14.7568 14.7587 14.7604 14.7618 14.7632 14.7643 14.7654 14.7664 14.7673 14.7681 14.7688 14.7694 14.7699 14.7703 14.7707 14.771 14.7712 14.7714 14.7718 14.7606 14.7622 14.7634 14.7645 14.7654 14.7662 14.7669 14.7676 14.7681 14.7686 14.7691 14.7694 14.7698 14.7701 14.7704 14.7706 14.7708 14.771 14.7711 14.7712 14.7713 14.7713 14.7714 14.7715 14.7837 14.7803 14.7784 14.7771 14.7764 14.7758 14.7753 14.7749 14.7746 14.7743 14.7739 14.7737 14.7734 14.7731 14.7728 14.7726 14.7724 14.7722 14.772 14.7718 14.7717 14.7716 14.7714 14.7712 14.8068 14.7977 14.7927 14.7892 14.7871 14.7851 14.7835 14.7821 14.7809 14.7797 14.7787 14.7777 14.7768 14.776 14.7752 14.7745 14.7738 14.7733 14.7728 14.7724 14.772 14.7717 14.7713 14.7709 14.8296 14.8144 14.8051 14.8001 14.797 14.794 14.7914 14.7891 14.787 14.7851 14.7833 14.7817 14.7801 14.7787 14.7774 14.7762 14.7752 14.7742 14.7734 14.7728 14.7722 14.7718 14.7714 14.7709 14.8759 14.8152 14.8148 14.8103 14.8064 14.8024 14.799 14.7958 14.7929 14.7901 14.7877 14.7853 14.7832 14.7811 14.7793 14.7776 14.7762 14.7748 14.7738 14.7728 14.7721 14.7715 14.7712 14.7711 14.6668 14.7213 14.7237 14.7295 14.7342 14.7391 14.7431 14.7469 14.7501 14.7531 14.7557 14.7582 14.7603 14.7624 14.7641 14.7657 14.7672 14.7684 14.7694 14.7703 14.7709 14.7714 14.7716 14.7716 14.7126 14.7253 14.7351 14.7403 14.7442 14.7478 14.7508 14.7535 14.7558 14.7579 14.7599 14.7616 14.7632 14.7646 14.7659 14.7671 14.7681 14.769 14.7697 14.7703 14.7708 14.7711 14.7714 14.7718 14.7369 14.7441 14.7484 14.7522 14.7545 14.7568 14.7587 14.7604 14.7618 14.7632 14.7643 14.7654 14.7664 14.7673 14.7681 14.7688 14.7694 14.7699 14.7703 14.7707 14.771 14.7712 14.7714 14.7718 14.7606 14.7622 14.7634 14.7645 14.7654 14.7662 14.7669 14.7676 14.7681 14.7686 14.769 14.7694 14.7698 14.7701 14.7704 14.7706 14.7708 14.7709 14.7711 14.7712 14.7712 14.7713 14.7714 14.7715 14.7837 14.7803 14.7784 14.7771 14.7764 14.7758 14.7753 14.7749 14.7746 14.7743 14.7739 14.7737 14.7733 14.7731 14.7728 14.7726 14.7724 14.7722 14.772 14.7718 14.7717 14.7716 14.7714 14.7712 14.8068 14.7976 14.7927 14.7892 14.7871 14.7851 14.7835 14.7821 14.7809 14.7798 14.7787 14.7777 14.7768 14.776 14.7752 14.7745 14.7738 14.7733 14.7727 14.7723 14.772 14.7717 14.7714 14.7709 14.8296 14.8143 14.8051 14.8001 14.797 14.794 14.7914 14.7891 14.787 14.7851 14.7833 14.7817 14.7801 14.7787 14.7774 14.7763 14.7752 14.7742 14.7734 14.7727 14.7722 14.7718 14.7714 14.7709 14.8759 14.8152 14.8147 14.8103 14.8064 14.8025 14.799 14.7957 14.7929 14.7901 14.7877 14.7853 14.7832 14.7811 14.7793 14.7776 14.7762 14.7748 14.7738 14.7728 14.7721 14.7716 14.7712 14.7711 14.6702 14.7231 14.7254 14.7308 14.7351 14.7396 14.7434 14.747 14.7501 14.7531 14.7556 14.7581 14.7602 14.7623 14.764 14.7657 14.7671 14.7683 14.7693 14.7702 14.7709 14.7713 14.7715 14.7715 14.7138 14.7269 14.7364 14.7413 14.7448 14.7481 14.751 14.7535 14.7558 14.7579 14.7598 14.7615 14.7631 14.7646 14.7659 14.767 14.768 14.7689 14.7696 14.7702 14.7708 14.7711 14.7714 14.7718 14.7376 14.7451 14.7492 14.7528 14.7548 14.757 14.7588 14.7604 14.7618 14.7631 14.7643 14.7654 14.7663 14.7672 14.768 14.7687 14.7693 14.7699 14.7703 14.7707 14.7709 14.7712 14.7714 14.7718 14.7609 14.7626 14.7638 14.7648 14.7656 14.7663 14.767 14.7676 14.7681 14.7686 14.769 14.7694 14.7697 14.7701 14.7703 14.7706 14.7708 14.771 14.7711 14.7712 14.7713 14.7713 14.7714 14.7715 14.7836 14.78 14.7782 14.777 14.7764 14.7758 14.7754 14.775 14.7746 14.7743 14.774 14.7737 14.7734 14.7731 14.7728 14.7726 14.7724 14.7722 14.772 14.7718 14.7717 14.7716 14.7714 14.7712 14.8062 14.7968 14.7921 14.7887 14.7869 14.785 14.7835 14.7822 14.781 14.7798 14.7788 14.7778 14.7769 14.776 14.7752 14.7745 14.7739 14.7733 14.7728 14.7724 14.772 14.7717 14.7714 14.7709 14.8285 14.8129 14.804 14.7993 14.7966 14.7938 14.7914 14.7891 14.7871 14.7852 14.7834 14.7818 14.7802 14.7788 14.7775 14.7763 14.7752 14.7743 14.7735 14.7728 14.7723 14.7718 14.7714 14.7709 14.873 14.8136 14.8133 14.8092 14.8057 14.8021 14.7988 14.7957 14.7929 14.7902 14.7877 14.7853 14.7832 14.7812 14.7794 14.7777 14.7763 14.7749 14.7738 14.7729 14.7721 14.7716 14.7712 14.7712 14.6787 14.7246 14.7279 14.7329 14.7365 14.7404 14.7438 14.7471 14.75 14.7529 14.7554 14.7578 14.76 14.762 14.7637 14.7654 14.7668 14.7681 14.7691 14.77 14.7707 14.7712 14.7714 14.7715 14.7167 14.7296 14.739 14.7432 14.7458 14.7486 14.7511 14.7534 14.7557 14.7577 14.7596 14.7613 14.7629 14.7644 14.7656 14.7668 14.7678 14.7688 14.7695 14.7701 14.7706 14.771 14.7713 14.7718 14.739 14.7466 14.7509 14.754 14.7555 14.7573 14.7588 14.7603 14.7616 14.7629 14.7641 14.7652 14.7662 14.7671 14.7679 14.7686 14.7692 14.7698 14.7702 14.7706 14.7709 14.7712 14.7714 14.7718 14.7617 14.7633 14.7645 14.7653 14.7659 14.7665 14.7671 14.7676 14.7681 14.7685 14.769 14.7694 14.7697 14.7701 14.7703 14.7705 14.7708 14.7709 14.771 14.7711 14.7712 14.7713 14.7714 14.7715 14.783 14.7795 14.7778 14.7768 14.7763 14.7759 14.7754 14.7751 14.7747 14.7744 14.774 14.7737 14.7734 14.7732 14.7729 14.7727 14.7724 14.7722 14.772 14.7718 14.7717 14.7716 14.7714 14.7712 14.8049 14.7954 14.7906 14.7878 14.7865 14.785 14.7836 14.7824 14.7812 14.7801 14.779 14.778 14.777 14.7762 14.7753 14.7746 14.774 14.7734 14.7728 14.7724 14.772 14.7717 14.7714 14.7709 14.8258 14.81 14.8018 14.7979 14.796 14.7936 14.7914 14.7893 14.7874 14.7854 14.7837 14.782 14.7804 14.779 14.7777 14.7765 14.7754 14.7744 14.7736 14.7729 14.7724 14.7719 14.7715 14.7709 14.8662 14.8114 14.8109 14.8074 14.8048 14.8017 14.7987 14.7958 14.7931 14.7904 14.788 14.7856 14.7835 14.7815 14.7797 14.778 14.7765 14.7752 14.7741 14.7731 14.7723 14.7717 14.7714 14.7712 14.6676 14.74 14.7349 14.7354 14.7376 14.7404 14.7433 14.7464 14.7492 14.7521 14.7546 14.7571 14.7593 14.7614 14.7632 14.7649 14.7663 14.7676 14.7687 14.7696 14.7703 14.7709 14.7712 14.7714 14.7073 14.7416 14.7447 14.7453 14.7462 14.7481 14.7501 14.7523 14.7545 14.7566 14.7586 14.7605 14.7622 14.7637 14.7651 14.7664 14.7675 14.7685 14.7693 14.7699 14.7705 14.7709 14.7712 14.7717 14.7346 14.7548 14.755 14.756 14.7565 14.7575 14.7586 14.7599 14.7612 14.7625 14.7637 14.7648 14.7658 14.7668 14.7676 14.7684 14.7691 14.7696 14.7701 14.7705 14.7708 14.7711 14.7713 14.7717 14.76 14.7659 14.7664 14.7663 14.7665 14.7668 14.7671 14.7676 14.768 14.7685 14.7689 14.7693 14.7696 14.77 14.7702 14.7705 14.7707 14.7709 14.771 14.7711 14.7712 14.7713 14.7713 14.7714 14.7848 14.7771 14.7766 14.7765 14.7763 14.776 14.7757 14.7753 14.7749 14.7746 14.7742 14.7739 14.7736 14.7733 14.773 14.7727 14.7725 14.7722 14.772 14.7719 14.7717 14.7716 14.7714 14.7713 14.8096 14.7876 14.7873 14.7865 14.7861 14.7851 14.784 14.7829 14.7817 14.7805 14.7794 14.7784 14.7774 14.7764 14.7756 14.7748 14.7741 14.7735 14.773 14.7725 14.7721 14.7718 14.7715 14.771 14.834 14.7995 14.7971 14.7965 14.7957 14.7941 14.7922 14.7903 14.7883 14.7864 14.7845 14.7827 14.7811 14.7796 14.7781 14.7769 14.7757 14.7747 14.7738 14.7731 14.7725 14.772 14.7716 14.771 14.8754 14.7988 14.8059 14.8063 14.8047 14.8022 14.7995 14.7968 14.794 14.7914 14.7889 14.7864 14.7842 14.7822 14.7803 14.7785 14.777 14.7757 14.7745 14.7734 14.7726 14.772 14.7715 14.7713 
