# vtk DataFile Version 5.1
vtk output
ASCII

DATASET UNSTRUCTURED_GRID
POINTS 14161 float
0 0 1.1
0.125 0 1.1
0.25 0 1.1
0.375 0 1.1
0.5 0 1.1
0.625 0 1.1
0.75 0 1.1
0.875 0 1.1
1 0 1.1
1.125 0 1.1
1.25 0 1.1
1.375 0 1.1
1.5 0 1.1
1.625 0 1.1
1.75 0 1.1
1.875 0 1.1
2 0 1.1
2.125 0 1.1
2.25 0 1.1
2.375 0 1.1
2.5 0 1.1
2.625 0 1.1
2.75 0 1.1
2.875 0 1.1
3 0 1.1
0 0.125 1.1
0.125 0.125 1.1
0.25 0.125 1.1
0.375 0.125 1.1
0.5 0.125 1.1
0.625 0.125 1.1
0.75 0.125 1.1
0.875 0.125 1.1
1 0.125 1.1
1.125 0.125 1.1
1.25 0.125 1.1
1.375 0.125 1.1
1.5 0.125 1.1
1.625 0.125 1.1
1.75 0.125 1.1
1.875 0.125 1.1
2 0.125 1.1
2.125 0.125 1.1
2.25 0.125 1.1
2.375 0.125 1.1
2.5 0.125 1.1
2.625 0.125 1.1
2.75 0.125 1.1
2.875 0.125 1.1
3 0.125 1.1
0 0.25 1.1
0.125 0.25 1.1
0.25 0.25 1.1
0.375 0.25 1.1
0.5 0.25 1.1
0.625 0.25 1.1
0.75 0.25 1.1
0.875 0.25 1.1
1 0.25 1.1
1.125 0.25 1.1
1.25 0.25 1.1
1.375 0.25 1.1
1.5 0.25 1.1
1.625 0.25 1.1
1.75 0.25 1.1
1.875 0.25 1.1
2 0.25 1.1
2.125 0.25 1.1
2.25 0.25 1.1
2.375 0.25 1.1
2.5 0.25 1.1
2.625 0.25 1.1
2.75 0.25 1.1
2.875 0.25 1.1
3 0.25 1.1
0 0.375 1.1
0.125 0.375 1.1
0.25 0.375 1.1
0.375 0.375 1.1
0.5 0.375 1.1
0.625 0.375 1.1
0.75 0.375 1.1
0.875 0.375 1.1
1 0.375 1.1
1.125 0.375 1.1
1.25 0.375 1.1
1.375 0.375 1.1
1.5 0.375 1.1
1.625 0.375 1.1
1.75 0.375 1.1
1.875 0.375 1.1
2 0.375 1.1
2.125 0.375 1.1
2.25 0.375 1.1
2.375 0.375 1.1
2.5 0.375 1.1
2.625 0.375 1.1
2.75 0.375 1.1
2.875 0.375 1.1
3 0.375 1.1
0 0.5 1.1
0.125 0.5 1.1
0.25 0.5 1.1
0.375 0.5 1.1
0.5 0.5 1.1
0.625 0.5 1.1
0.75 0.5 1.1
0.875 0.5 1.1
1 0.5 1.1
1.125 0.5 1.1
1.25 0.5 1.1
1.375 0.5 1.1
1.5 0.5 1.1
1.625 0.5 1.1
1.75 0.5 1.1
1.875 0.5 1.1
2 0.5 1.1
2.125 0.5 1.1
2.25 0.5 1.1
2.375 0.5 1.1
2.5 0.5 1.1
2.625 0.5 1.1
2.75 0.5 1.1
2.875 0.5 1.1
3 0.5 1.1
0 0.625 1.1
0.125 0.625 1.1
0.25 0.625 1.1
0.375 0.625 1.1
0.5 0.625 1.1
0.625 0.625 1.1
0.75 0.625 1.1
0.875 0.625 1.1
1 0.625 1.1
1.125 0.625 1.1
1.25 0.625 1.1
1.375 0.625 1.1
1.5 0.625 1.1
1.625 0.625 1.1
1.75 0.625 1.1
1.875 0.625 1.1
2 0.625 1.1
2.125 0.625 1.1
2.25 0.625 1.1
2.375 0.625 1.1
2.5 0.625 1.1
2.625 0.625 1.1
2.75 0.625 1.1
2.875 0.625 1.1
3 0.625 1.1
0 0.75 1.1
0.125 0.75 1.1
0.25 0.75 1.1
0.375 0.75 1.1
0.5 0.75 1.1
0.625 0.75 1.1
0.75 0.75 1.1
0.875 0.75 1.1
1 0.75 1.1
1.125 0.75 1.1
1.25 0.75 1.1
1.375 0.75 1.1
1.5 0.75 1.1
1.625 0.75 1.1
1.75 0.75 1.1
1.875 0.75 1.1
2 0.75 1.1
2.125 0.75 1.1
2.25 0.75 1.1
2.375 0.75 1.1
2.5 0.75 1.1
2.625 0.75 1.1
2.75 0.75 1.1
2.875 0.75 1.1
3 0.75 1.1
0 0.875 1.1
0.125 0.875 1.1
0.25 0.875 1.1
0.375 0.875 1.1
0.5 0.875 1.1
0.625 0.875 1.1
0.75 0.875 1.1
0.875 0.875 1.1
1 0.875 1.1
1.125 0.875 1.1
1.25 0.875 1.1
1.375 0.875 1.1
1.5 0.875 1.1
1.625 0.875 1.1
1.75 0.875 1.1
1.875 0.875 1.1
2 0.875 1.1
2.125 0.875 1.1
2.25 0.875 1.1
2.375 0.875 1.1
2.5 0.875 1.1
2.625 0.875 1.1
2.75 0.875 1.1
2.875 0.875 1.1
3 0.875 1.1
0 1 1.1
0.125 1 1.1
0.25 1 1.1
0.375 1 1.1
0.5 1 1.1
0.625 1 1.1
0.75 1 1.1
0.875 1 1.1
1 1 1.1
1.125 1 1.1
1.25 1 1.1
1.375 1 1.1
1.5 1 1.1
1.625 1 1.1
1.75 1 1.1
1.875 1 1.1
2 1 1.1
2.125 1 1.1
2.25 1 1.1
2.375 1 1.1
2.5 1 1.1
2.625 1 1.1
2.75 1 1.1
2.875 1 1.1
3 1 1.1
0 0 1.225
0.125 0 1.225
0.25 0 1.225
0.375 0 1.225
0.5 0 1.225
0.625 0 1.225
0.75 0 1.225
0.875 0 1.225
1 0 1.225
1.125 0 1.225
1.25 0 1.225
1.375 0 1.225
1.5 0 1.225
1.625 0 1.225
1.75 0 1.225
1.875 0 1.225
2 0 1.225
2.125 0 1.225
2.25 0 1.225
2.375 0 1.225
2.5 0 1.225
2.625 0 1.225
2.75 0 1.225
2.875 0 1.225
3 0 1.225
0 0.125 1.225
0.125 0.125 1.225
0.25 0.125 1.225
0.375 0.125 1.225
0.5 0.125 1.225
0.625 0.125 1.225
0.75 0.125 1.225
0.875 0.125 1.225
1 0.125 1.225
1.125 0.125 1.225
1.25 0.125 1.225
1.375 0.125 1.225
1.5 0.125 1.225
1.625 0.125 1.225
1.75 0.125 1.225
1.875 0.125 1.225
2 0.125 1.225
2.125 0.125 1.225
2.25 0.125 1.225
2.375 0.125 1.225
2.5 0.125 1.225
2.625 0.125 1.225
2.75 0.125 1.225
2.875 0.125 1.225
3 0.125 1.225
0 0.25 1.225
0.125 0.25 1.225
0.25 0.25 1.225
0.375 0.25 1.225
0.5 0.25 1.225
0.625 0.25 1.225
0.75 0.25 1.225
0.875 0.25 1.225
1 0.25 1.225
1.125 0.25 1.225
1.25 0.25 1.225
1.375 0.25 1.225
1.5 0.25 1.225
1.625 0.25 1.225
1.75 0.25 1.225
1.875 0.25 1.225
2 0.25 1.225
2.125 0.25 1.225
2.25 0.25 1.225
2.375 0.25 1.225
2.5 0.25 1.225
2.625 0.25 1.225
2.75 0.25 1.225
2.875 0.25 1.225
3 0.25 1.225
0 0.375 1.225
0.125 0.375 1.225
0.25 0.375 1.225
0.375 0.375 1.225
0.5 0.375 1.225
0.625 0.375 1.225
0.75 0.375 1.225
0.875 0.375 1.225
1 0.375 1.225
1.125 0.375 1.225
1.25 0.375 1.225
1.375 0.375 1.225
1.5 0.375 1.225
1.625 0.375 1.225
1.75 0.375 1.225
1.875 0.375 1.225
2 0.375 1.225
2.125 0.375 1.225
2.25 0.375 1.225
2.375 0.375 1.225
2.5 0.375 1.225
2.625 0.375 1.225
2.75 0.375 1.225
2.875 0.375 1.225
3 0.375 1.225
0 0.5 1.225
0.125 0.5 1.225
0.25 0.5 1.225
0.375 0.5 1.225
0.5 0.5 1.225
0.625 0.5 1.225
0.75 0.5 1.225
0.875 0.5 1.225
1 0.5 1.225
1.125 0.5 1.225
1.25 0.5 1.225
1.375 0.5 1.225
1.5 0.5 1.225
1.625 0.5 1.225
1.75 0.5 1.225
1.875 0.5 1.225
2 0.5 1.225
2.125 0.5 1.225
2.25 0.5 1.225
2.375 0.5 1.225
2.5 0.5 1.225
2.625 0.5 1.225
2.75 0.5 1.225
2.875 0.5 1.225
3 0.5 1.225
0 0.625 1.225
0.125 0.625 1.225
0.25 0.625 1.225
0.375 0.625 1.225
0.5 0.625 1.225
0.625 0.625 1.225
0.75 0.625 1.225
0.875 0.625 1.225
1 0.625 1.225
1.125 0.625 1.225
1.25 0.625 1.225
1.375 0.625 1.225
1.5 0.625 1.225
1.625 0.625 1.225
1.75 0.625 1.225
1.875 0.625 1.225
2 0.625 1.225
2.125 0.625 1.225
2.25 0.625 1.225
2.375 0.625 1.225
2.5 0.625 1.225
2.625 0.625 1.225
2.75 0.625 1.225
2.875 0.625 1.225
3 0.625 1.225
0 0.75 1.225
0.125 0.75 1.225
0.25 0.75 1.225
0.375 0.75 1.225
0.5 0.75 1.225
0.625 0.75 1.225
0.75 0.75 1.225
0.875 0.75 1.225
1 0.75 1.225
1.125 0.75 1.225
1.25 0.75 1.225
1.375 0.75 1.225
1.5 0.75 1.225
1.625 0.75 1.225
1.75 0.75 1.225
1.875 0.75 1.225
2 0.75 1.225
2.125 0.75 1.225
2.25 0.75 1.225
2.375 0.75 1.225
2.5 0.75 1.225
2.625 0.75 1.225
2.75 0.75 1.225
2.875 0.75 1.225
3 0.75 1.225
0 0.875 1.225
0.125 0.875 1.225
0.25 0.875 1.225
0.375 0.875 1.225
0.5 0.875 1.225
0.625 0.875 1.225
0.75 0.875 1.225
0.875 0.875 1.225
1 0.875 1.225
1.125 0.875 1.225
1.25 0.875 1.225
1.375 0.875 1.225
1.5 0.875 1.225
1.625 0.875 1.225
1.75 0.875 1.225
1.875 0.875 1.225
2 0.875 1.225
2.125 0.875 1.225
2.25 0.875 1.225
2.375 0.875 1.225
2.5 0.875 1.225
2.625 0.875 1.225
2.75 0.875 1.225
2.875 0.875 1.225
3 0.875 1.225
0 1 1.225
0.125 1 1.225
0.25 1 1.225
0.375 1 1.225
0.5 1 1.225
0.625 1 1.225
0.75 1 1.225
0.875 1 1.225
1 1 1.225
1.125 1 1.225
1.25 1 1.225
1.375 1 1.225
1.5 1 1.225
1.625 1 1.225
1.75 1 1.225
1.875 1 1.225
2 1 1.225
2.125 1 1.225
2.25 1 1.225
2.375 1 1.225
2.5 1 1.225
2.625 1 1.225
2.75 1 1.225
2.875 1 1.225
3 1 1.225
0 0 1.35
0.125 0 1.35
0.25 0 1.35
0.375 0 1.35
0.5 0 1.35
0.625 0 1.35
0.75 0 1.35
0.875 0 1.35
1 0 1.35
1.125 0 1.35
1.25 0 1.35
1.375 0 1.35
1.5 0 1.35
1.625 0 1.35
1.75 0 1.35
1.875 0 1.35
2 0 1.35
2.125 0 1.35
2.25 0 1.35
2.375 0 1.35
2.5 0 1.35
2.625 0 1.35
2.75 0 1.35
2.875 0 1.35
3 0 1.35
0 0.125 1.35
0.125 0.125 1.35
0.25 0.125 1.35
0.375 0.125 1.35
0.5 0.125 1.35
0.625 0.125 1.35
0.75 0.125 1.35
0.875 0.125 1.35
1 0.125 1.35
1.125 0.125 1.35
1.25 0.125 1.35
1.375 0.125 1.35
1.5 0.125 1.35
1.625 0.125 1.35
1.75 0.125 1.35
1.875 0.125 1.35
2 0.125 1.35
2.125 0.125 1.35
2.25 0.125 1.35
2.375 0.125 1.35
2.5 0.125 1.35
2.625 0.125 1.35
2.75 0.125 1.35
2.875 0.125 1.35
3 0.125 1.35
0 0.25 1.35
0.125 0.25 1.35
0.25 0.25 1.35
0.375 0.25 1.35
0.5 0.25 1.35
0.625 0.25 1.35
0.75 0.25 1.35
0.875 0.25 1.35
1 0.25 1.35
1.125 0.25 1.35
1.25 0.25 1.35
1.375 0.25 1.35
1.5 0.25 1.35
1.625 0.25 1.35
1.75 0.25 1.35
1.875 0.25 1.35
2 0.25 1.35
2.125 0.25 1.35
2.25 0.25 1.35
2.375 0.25 1.35
2.5 0.25 1.35
2.625 0.25 1.35
2.75 0.25 1.35
2.875 0.25 1.35
3 0.25 1.35
0 0.375 1.35
0.125 0.375 1.35
0.25 0.375 1.35
0.375 0.375 1.35
0.5 0.375 1.35
0.625 0.375 1.35
0.75 0.375 1.35
0.875 0.375 1.35
1 0.375 1.35
1.125 0.375 1.35
1.25 0.375 1.35
1.375 0.375 1.35
1.5 0.375 1.35
1.625 0.375 1.35
1.75 0.375 1.35
1.875 0.375 1.35
2 0.375 1.35
2.125 0.375 1.35
2.25 0.375 1.35
2.375 0.375 1.35
2.5 0.375 1.35
2.625 0.375 1.35
2.75 0.375 1.35
2.875 0.375 1.35
3 0.375 1.35
0 0.5 1.35
0.125 0.5 1.35
0.25 0.5 1.35
0.375 0.5 1.35
0.5 0.5 1.35
0.625 0.5 1.35
0.75 0.5 1.35
0.875 0.5 1.35
1 0.5 1.35
1.125 0.5 1.35
1.25 0.5 1.35
1.375 0.5 1.35
1.5 0.5 1.35
1.625 0.5 1.35
1.75 0.5 1.35
1.875 0.5 1.35
2 0.5 1.35
2.125 0.5 1.35
2.25 0.5 1.35
2.375 0.5 1.35
2.5 0.5 1.35
2.625 0.5 1.35
2.75 0.5 1.35
2.875 0.5 1.35
3 0.5 1.35
0 0.625 1.35
0.125 0.625 1.35
0.25 0.625 1.35
0.375 0.625 1.35
0.5 0.625 1.35
0.625 0.625 1.35
0.75 0.625 1.35
0.875 0.625 1.35
1 0.625 1.35
1.125 0.625 1.35
1.25 0.625 1.35
1.375 0.625 1.35
1.5 0.625 1.35
1.625 0.625 1.35
1.75 0.625 1.35
1.875 0.625 1.35
2 0.625 1.35
2.125 0.625 1.35
2.25 0.625 1.35
2.375 0.625 1.35
2.5 0.625 1.35
2.625 0.625 1.35
2.75 0.625 1.35
2.875 0.625 1.35
3 0.625 1.35
0 0.75 1.35
0.125 0.75 1.35
0.25 0.75 1.35
0.375 0.75 1.35
0.5 0.75 1.35
0.625 0.75 1.35
0.75 0.75 1.35
0.875 0.75 1.35
1 0.75 1.35
1.125 0.75 1.35
1.25 0.75 1.35
1.375 0.75 1.35
1.5 0.75 1.35
1.625 0.75 1.35
1.75 0.75 1.35
1.875 0.75 1.35
2 0.75 1.35
2.125 0.75 1.35
2.25 0.75 1.35
2.375 0.75 1.35
2.5 0.75 1.35
2.625 0.75 1.35
2.75 0.75 1.35
2.875 0.75 1.35
3 0.75 1.35
0 0.875 1.35
0.125 0.875 1.35
0.25 0.875 1.35
0.375 0.875 1.35
0.5 0.875 1.35
0.625 0.875 1.35
0.75 0.875 1.35
0.875 0.875 1.35
1 0.875 1.35
1.125 0.875 1.35
1.25 0.875 1.35
1.375 0.875 1.35
1.5 0.875 1.35
1.625 0.875 1.35
1.75 0.875 1.35
1.875 0.875 1.35
2 0.875 1.35
2.125 0.875 1.35
2.25 0.875 1.35
2.375 0.875 1.35
2.5 0.875 1.35
2.625 0.875 1.35
2.75 0.875 1.35
2.875 0.875 1.35
3 0.875 1.35
0 1 1.35
0.125 1 1.35
0.25 1 1.35
0.375 1 1.35
0.5 1 1.35
0.625 1 1.35
0.75 1 1.35
0.875 1 1.35
1 1 1.35
1.125 1 1.35
1.25 1 1.35
1.375 1 1.35
1.5 1 1.35
1.625 1 1.35
1.75 1 1.35
1.875 1 1.35
2 1 1.35
2.125 1 1.35
2.25 1 1.35
2.375 1 1.35
2.5 1 1.35
2.625 1 1.35
2.75 1 1.35
2.875 1 1.35
3 1 1.35
0 0 1.475
0.125 0 1.475
0.25 0 1.475
0.375 0 1.475
0.5 0 1.475
0.625 0 1.475
0.75 0 1.475
0.875 0 1.475
1 0 1.475
1.125 0 1.475
1.25 0 1.475
1.375 0 1.475
1.5 0 1.475
1.625 0 1.475
1.75 0 1.475
1.875 0 1.475
2 0 1.475
2.125 0 1.475
2.25 0 1.475
2.375 0 1.475
2.5 0 1.475
2.625 0 1.475
2.75 0 1.475
2.875 0 1.475
3 0 1.475
0 0.125 1.475
0.125 0.125 1.475
0.25 0.125 1.475
0.375 0.125 1.475
0.5 0.125 1.475
0.625 0.125 1.475
0.75 0.125 1.475
0.875 0.125 1.475
1 0.125 1.475
1.125 0.125 1.475
1.25 0.125 1.475
1.375 0.125 1.475
1.5 0.125 1.475
1.625 0.125 1.475
1.75 0.125 1.475
1.875 0.125 1.475
2 0.125 1.475
2.125 0.125 1.475
2.25 0.125 1.475
2.375 0.125 1.475
2.5 0.125 1.475
2.625 0.125 1.475
2.75 0.125 1.475
2.875 0.125 1.475
3 0.125 1.475
0 0.25 1.475
0.125 0.25 1.475
0.25 0.25 1.475
0.375 0.25 1.475
0.5 0.25 1.475
0.625 0.25 1.475
0.75 0.25 1.475
0.875 0.25 1.475
1 0.25 1.475
1.125 0.25 1.475
1.25 0.25 1.475
1.375 0.25 1.475
1.5 0.25 1.475
1.625 0.25 1.475
1.75 0.25 1.475
1.875 0.25 1.475
2 0.25 1.475
2.125 0.25 1.475
2.25 0.25 1.475
2.375 0.25 1.475
2.5 0.25 1.475
2.625 0.25 1.475
2.75 0.25 1.475
2.875 0.25 1.475
3 0.25 1.475
0 0.375 1.475
0.125 0.375 1.475
0.25 0.375 1.475
0.375 0.375 1.475
0.5 0.375 1.475
0.625 0.375 1.475
0.75 0.375 1.475
0.875 0.375 1.475
1 0.375 1.475
1.125 0.375 1.475
1.25 0.375 1.475
1.375 0.375 1.475
1.5 0.375 1.475
1.625 0.375 1.475
1.75 0.375 1.475
1.875 0.375 1.475
2 0.375 1.475
2.125 0.375 1.475
2.25 0.375 1.475
2.375 0.375 1.475
2.5 0.375 1.475
2.625 0.375 1.475
2.75 0.375 1.475
2.875 0.375 1.475
3 0.375 1.475
0 0.5 1.475
0.125 0.5 1.475
0.25 0.5 1.475
0.375 0.5 1.475
0.5 0.5 1.475
0.625 0.5 1.475
0.75 0.5 1.475
0.875 0.5 1.475
1 0.5 1.475
1.125 0.5 1.475
1.25 0.5 1.475
1.375 0.5 1.475
1.5 0.5 1.475
1.625 0.5 1.475
1.75 0.5 1.475
1.875 0.5 1.475
2 0.5 1.475
2.125 0.5 1.475
2.25 0.5 1.475
2.375 0.5 1.475
2.5 0.5 1.475
2.625 0.5 1.475
2.75 0.5 1.475
2.875 0.5 1.475
3 0.5 1.475
0 0.625 1.475
0.125 0.625 1.475
0.25 0.625 1.475
0.375 0.625 1.475
0.5 0.625 1.475
0.625 0.625 1.475
0.75 0.625 1.475
0.875 0.625 1.475
1 0.625 1.475
1.125 0.625 1.475
1.25 0.625 1.475
1.375 0.625 1.475
1.5 0.625 1.475
1.625 0.625 1.475
1.75 0.625 1.475
1.875 0.625 1.475
2 0.625 1.475
2.125 0.625 1.475
2.25 0.625 1.475
2.375 0.625 1.475
2.5 0.625 1.475
2.625 0.625 1.475
2.75 0.625 1.475
2.875 0.625 1.475
3 0.625 1.475
0 0.75 1.475
0.125 0.75 1.475
0.25 0.75 1.475
0.375 0.75 1.475
0.5 0.75 1.475
0.625 0.75 1.475
0.75 0.75 1.475
0.875 0.75 1.475
1 0.75 1.475
1.125 0.75 1.475
1.25 0.75 1.475
1.375 0.75 1.475
1.5 0.75 1.475
1.625 0.75 1.475
1.75 0.75 1.475
1.875 0.75 1.475
2 0.75 1.475
2.125 0.75 1.475
2.25 0.75 1.475
2.375 0.75 1.475
2.5 0.75 1.475
2.625 0.75 1.475
2.75 0.75 1.475
2.875 0.75 1.475
3 0.75 1.475
0 0.875 1.475
0.125 0.875 1.475
0.25 0.875 1.475
0.375 0.875 1.475
0.5 0.875 1.475
0.625 0.875 1.475
0.75 0.875 1.475
0.875 0.875 1.475
1 0.875 1.475
1.125 0.875 1.475
1.25 0.875 1.475
1.375 0.875 1.475
1.5 0.875 1.475
1.625 0.875 1.475
1.75 0.875 1.475
1.875 0.875 1.475
2 0.875 1.475
2.125 0.875 1.475
2.25 0.875 1.475
2.375 0.875 1.475
2.5 0.875 1.475
2.625 0.875 1.475
2.75 0.875 1.475
2.875 0.875 1.475
3 0.875 1.475
0 1 1.475
0.125 1 1.475
0.25 1 1.475
0.375 1 1.475
0.5 1 1.475
0.625 1 1.475
0.75 1 1.475
0.875 1 1.475
1 1 1.475
1.125 1 1.475
1.25 1 1.475
1.375 1 1.475
1.5 1 1.475
1.625 1 1.475
1.75 1 1.475
1.875 1 1.475
2 1 1.475
2.125 1 1.475
2.25 1 1.475
2.375 1 1.475
2.5 1 1.475
2.625 1 1.475
2.75 1 1.475
2.875 1 1.475
3 1 1.475
0 0 1.6
0.125 0 1.6
0.25 0 1.6
0.375 0 1.6
0.5 0 1.6
0.625 0 1.6
0.75 0 1.6
0.875 0 1.6
1 0 1.6
1.125 0 1.6
1.25 0 1.6
1.375 0 1.6
1.5 0 1.6
1.625 0 1.6
1.75 0 1.6
1.875 0 1.6
2 0 1.6
2.125 0 1.6
2.25 0 1.6
2.375 0 1.6
2.5 0 1.6
2.625 0 1.6
2.75 0 1.6
2.875 0 1.6
3 0 1.6
0 0.125 1.6
0.125 0.125 1.6
0.25 0.125 1.6
0.375 0.125 1.6
0.5 0.125 1.6
0.625 0.125 1.6
0.75 0.125 1.6
0.875 0.125 1.6
1 0.125 1.6
1.125 0.125 1.6
1.25 0.125 1.6
1.375 0.125 1.6
1.5 0.125 1.6
1.625 0.125 1.6
1.75 0.125 1.6
1.875 0.125 1.6
2 0.125 1.6
2.125 0.125 1.6
2.25 0.125 1.6
2.375 0.125 1.6
2.5 0.125 1.6
2.625 0.125 1.6
2.75 0.125 1.6
2.875 0.125 1.6
3 0.125 1.6
0 0.25 1.6
0.125 0.25 1.6
0.25 0.25 1.6
0.375 0.25 1.6
0.5 0.25 1.6
0.625 0.25 1.6
0.75 0.25 1.6
0.875 0.25 1.6
1 0.25 1.6
1.125 0.25 1.6
1.25 0.25 1.6
1.375 0.25 1.6
1.5 0.25 1.6
1.625 0.25 1.6
1.75 0.25 1.6
1.875 0.25 1.6
2 0.25 1.6
2.125 0.25 1.6
2.25 0.25 1.6
2.375 0.25 1.6
2.5 0.25 1.6
2.625 0.25 1.6
2.75 0.25 1.6
2.875 0.25 1.6
3 0.25 1.6
0 0.375 1.6
0.125 0.375 1.6
0.25 0.375 1.6
0.375 0.375 1.6
0.5 0.375 1.6
0.625 0.375 1.6
0.75 0.375 1.6
0.875 0.375 1.6
1 0.375 1.6
1.125 0.375 1.6
1.25 0.375 1.6
1.375 0.375 1.6
1.5 0.375 1.6
1.625 0.375 1.6
1.75 0.375 1.6
1.875 0.375 1.6
2 0.375 1.6
2.125 0.375 1.6
2.25 0.375 1.6
2.375 0.375 1.6
2.5 0.375 1.6
2.625 0.375 1.6
2.75 0.375 1.6
2.875 0.375 1.6
3 0.375 1.6
0 0.5 1.6
0.125 0.5 1.6
0.25 0.5 1.6
0.375 0.5 1.6
0.5 0.5 1.6
0.625 0.5 1.6
0.75 0.5 1.6
0.875 0.5 1.6
1 0.5 1.6
1.125 0.5 1.6
1.25 0.5 1.6
1.375 0.5 1.6
1.5 0.5 1.6
1.625 0.5 1.6
1.75 0.5 1.6
1.875 0.5 1.6
2 0.5 1.6
2.125 0.5 1.6
2.25 0.5 1.6
2.375 0.5 1.6
2.5 0.5 1.6
2.625 0.5 1.6
2.75 0.5 1.6
2.875 0.5 1.6
3 0.5 1.6
0 0.625 1.6
0.125 0.625 1.6
0.25 0.625 1.6
0.375 0.625 1.6
0.5 0.625 1.6
0.625 0.625 1.6
0.75 0.625 1.6
0.875 0.625 1.6
1 0.625 1.6
1.125 0.625 1.6
1.25 0.625 1.6
1.375 0.625 1.6
1.5 0.625 1.6
1.625 0.625 1.6
1.75 0.625 1.6
1.875 0.625 1.6
2 0.625 1.6
2.125 0.625 1.6
2.25 0.625 1.6
2.375 0.625 1.6
2.5 0.625 1.6
2.625 0.625 1.6
2.75 0.625 1.6
2.875 0.625 1.6
3 0.625 1.6
0 0.75 1.6
0.125 0.75 1.6
0.25 0.75 1.6
0.375 0.75 1.6
0.5 0.75 1.6
0.625 0.75 1.6
0.75 0.75 1.6
0.875 0.75 1.6
1 0.75 1.6
1.125 0.75 1.6
1.25 0.75 1.6
1.375 0.75 1.6
1.5 0.75 1.6
1.625 0.75 1.6
1.75 0.75 1.6
1.875 0.75 1.6
2 0.75 1.6
2.125 0.75 1.6
2.25 0.75 1.6
2.375 0.75 1.6
2.5 0.75 1.6
2.625 0.75 1.6
2.75 0.75 1.6
2.875 0.75 1.6
3 0.75 1.6
0 0.875 1.6
0.125 0.875 1.6
0.25 0.875 1.6
0.375 0.875 1.6
0.5 0.875 1.6
0.625 0.875 1.6
0.75 0.875 1.6
0.875 0.875 1.6
1 0.875 1.6
1.125 0.875 1.6
1.25 0.875 1.6
1.375 0.875 1.6
1.5 0.875 1.6
1.625 0.875 1.6
1.75 0.875 1.6
1.875 0.875 1.6
2 0.875 1.6
2.125 0.875 1.6
2.25 0.875 1.6
2.375 0.875 1.6
2.5 0.875 1.6
2.625 0.875 1.6
2.75 0.875 1.6
2.875 0.875 1.6
3 0.875 1.6
0 1 1.6
0.125 1 1.6
0.25 1 1.6
0.375 1 1.6
0.5 1 1.6
0.625 1 1.6
0.75 1 1.6
0.875 1 1.6
1 1 1.6
1.125 1 1.6
1.25 1 1.6
1.375 1 1.6
1.5 1 1.6
1.625 1 1.6
1.75 1 1.6
1.875 1 1.6
2 1 1.6
2.125 1 1.6
2.25 1 1.6
2.375 1 1.6
2.5 1 1.6
2.625 1 1.6
2.75 1 1.6
2.875 1 1.6
3 1 1.6
0 0 1.725
0.125 0 1.725
0.25 0 1.725
0.375 0 1.725
0.5 0 1.725
0.625 0 1.725
0.75 0 1.725
0.875 0 1.725
1 0 1.725
1.125 0 1.725
1.25 0 1.725
1.375 0 1.725
1.5 0 1.725
1.625 0 1.725
1.75 0 1.725
1.875 0 1.725
2 0 1.725
2.125 0 1.725
2.25 0 1.725
2.375 0 1.725
2.5 0 1.725
2.625 0 1.725
2.75 0 1.725
2.875 0 1.725
3 0 1.725
0 0.125 1.725
0.125 0.125 1.725
0.25 0.125 1.725
0.375 0.125 1.725
0.5 0.125 1.725
0.625 0.125 1.725
0.75 0.125 1.725
0.875 0.125 1.725
1 0.125 1.725
1.125 0.125 1.725
1.25 0.125 1.725
1.375 0.125 1.725
1.5 0.125 1.725
1.625 0.125 1.725
1.75 0.125 1.725
1.875 0.125 1.725
2 0.125 1.725
2.125 0.125 1.725
2.25 0.125 1.725
2.375 0.125 1.725
2.5 0.125 1.725
2.625 0.125 1.725
2.75 0.125 1.725
2.875 0.125 1.725
3 0.125 1.725
0 0.25 1.725
0.125 0.25 1.725
0.25 0.25 1.725
0.375 0.25 1.725
0.5 0.25 1.725
0.625 0.25 1.725
0.75 0.25 1.725
0.875 0.25 1.725
1 0.25 1.725
1.125 0.25 1.725
1.25 0.25 1.725
1.375 0.25 1.725
1.5 0.25 1.725
1.625 0.25 1.725
1.75 0.25 1.725
1.875 0.25 1.725
2 0.25 1.725
2.125 0.25 1.725
2.25 0.25 1.725
2.375 0.25 1.725
2.5 0.25 1.725
2.625 0.25 1.725
2.75 0.25 1.725
2.875 0.25 1.725
3 0.25 1.725
0 0.375 1.725
0.125 0.375 1.725
0.25 0.375 1.725
0.375 0.375 1.725
0.5 0.375 1.725
0.625 0.375 1.725
0.75 0.375 1.725
0.875 0.375 1.725
1 0.375 1.725
1.125 0.375 1.725
1.25 0.375 1.725
1.375 0.375 1.725
1.5 0.375 1.725
1.625 0.375 1.725
1.75 0.375 1.725
1.875 0.375 1.725
2 0.375 1.725
2.125 0.375 1.725
2.25 0.375 1.725
2.375 0.375 1.725
2.5 0.375 1.725
2.625 0.375 1.725
2.75 0.375 1.725
2.875 0.375 1.725
3 0.375 1.725
0 0.5 1.725
0.125 0.5 1.725
0.25 0.5 1.725
0.375 0.5 1.725
0.5 0.5 1.725
0.625 0.5 1.725
0.75 0.5 1.725
0.875 0.5 1.725
1 0.5 1.725
1.125 0.5 1.725
1.25 0.5 1.725
1.375 0.5 1.725
1.5 0.5 1.725
1.625 0.5 1.725
1.75 0.5 1.725
1.875 0.5 1.725
2 0.5 1.725
2.125 0.5 1.725
2.25 0.5 1.725
2.375 0.5 1.725
2.5 0.5 1.725
2.625 0.5 1.725
2.75 0.5 1.725
2.875 0.5 1.725
3 0.5 1.725
0 0.625 1.725
0.125 0.625 1.725
0.25 0.625 1.725
0.375 0.625 1.725
0.5 0.625 1.725
0.625 0.625 1.725
0.75 0.625 1.725
0.875 0.625 1.725
1 0.625 1.725
1.125 0.625 1.725
1.25 0.625 1.725
1.375 0.625 1.725
1.5 0.625 1.725
1.625 0.625 1.725
1.75 0.625 1.725
1.875 0.625 1.725
2 0.625 1.725
2.125 0.625 1.725
2.25 0.625 1.725
2.375 0.625 1.725
2.5 0.625 1.725
2.625 0.625 1.725
2.75 0.625 1.725
2.875 0.625 1.725
3 0.625 1.725
0 0.75 1.725
0.125 0.75 1.725
0.25 0.75 1.725
0.375 0.75 1.725
0.5 0.75 1.725
0.625 0.75 1.725
0.75 0.75 1.725
0.875 0.75 1.725
1 0.75 1.725
1.125 0.75 1.725
1.25 0.75 1.725
1.375 0.75 1.725
1.5 0.75 1.725
1.625 0.75 1.725
1.75 0.75 1.725
1.875 0.75 1.725
2 0.75 1.725
2.125 0.75 1.725
2.25 0.75 1.725
2.375 0.75 1.725
2.5 0.75 1.725
2.625 0.75 1.725
2.75 0.75 1.725
2.875 0.75 1.725
3 0.75 1.725
0 0.875 1.725
0.125 0.875 1.725
0.25 0.875 1.725
0.375 0.875 1.725
0.5 0.875 1.725
0.625 0.875 1.725
0.75 0.875 1.725
0.875 0.875 1.725
1 0.875 1.725
1.125 0.875 1.725
1.25 0.875 1.725
1.375 0.875 1.725
1.5 0.875 1.725
1.625 0.875 1.725
1.75 0.875 1.725
1.875 0.875 1.725
2 0.875 1.725
2.125 0.875 1.725
2.25 0.875 1.725
2.375 0.875 1.725
2.5 0.875 1.725
2.625 0.875 1.725
2.75 0.875 1.725
2.875 0.875 1.725
3 0.875 1.725
0 1 1.725
0.125 1 1.725
0.25 1 1.725
0.375 1 1.725
0.5 1 1.725
0.625 1 1.725
0.75 1 1.725
0.875 1 1.725
1 1 1.725
1.125 1 1.725
1.25 1 1.725
1.375 1 1.725
1.5 1 1.725
1.625 1 1.725
1.75 1 1.725
1.875 1 1.725
2 1 1.725
2.125 1 1.725
2.25 1 1.725
2.375 1 1.725
2.5 1 1.725
2.625 1 1.725
2.75 1 1.725
2.875 1 1.725
3 1 1.725
0 0 1.85
0.125 0 1.85
0.25 0 1.85
0.375 0 1.85
0.5 0 1.85
0.625 0 1.85
0.75 0 1.85
0.875 0 1.85
1 0 1.85
1.125 0 1.85
1.25 0 1.85
1.375 0 1.85
1.5 0 1.85
1.625 0 1.85
1.75 0 1.85
1.875 0 1.85
2 0 1.85
2.125 0 1.85
2.25 0 1.85
2.375 0 1.85
2.5 0 1.85
2.625 0 1.85
2.75 0 1.85
2.875 0 1.85
3 0 1.85
0 0.125 1.85
0.125 0.125 1.85
0.25 0.125 1.85
0.375 0.125 1.85
0.5 0.125 1.85
0.625 0.125 1.85
0.75 0.125 1.85
0.875 0.125 1.85
1 0.125 1.85
1.125 0.125 1.85
1.25 0.125 1.85
1.375 0.125 1.85
1.5 0.125 1.85
1.625 0.125 1.85
1.75 0.125 1.85
1.875 0.125 1.85
2 0.125 1.85
2.125 0.125 1.85
2.25 0.125 1.85
2.375 0.125 1.85
2.5 0.125 1.85
2.625 0.125 1.85
2.75 0.125 1.85
2.875 0.125 1.85
3 0.125 1.85
0 0.25 1.85
0.125 0.25 1.85
0.25 0.25 1.85
0.375 0.25 1.85
0.5 0.25 1.85
0.625 0.25 1.85
0.75 0.25 1.85
0.875 0.25 1.85
1 0.25 1.85
1.125 0.25 1.85
1.25 0.25 1.85
1.375 0.25 1.85
1.5 0.25 1.85
1.625 0.25 1.85
1.75 0.25 1.85
1.875 0.25 1.85
2 0.25 1.85
2.125 0.25 1.85
2.25 0.25 1.85
2.375 0.25 1.85
2.5 0.25 1.85
2.625 0.25 1.85
2.75 0.25 1.85
2.875 0.25 1.85
3 0.25 1.85
0 0.375 1.85
0.125 0.375 1.85
0.25 0.375 1.85
0.375 0.375 1.85
0.5 0.375 1.85
0.625 0.375 1.85
0.75 0.375 1.85
0.875 0.375 1.85
1 0.375 1.85
1.125 0.375 1.85
1.25 0.375 1.85
1.375 0.375 1.85
1.5 0.375 1.85
1.625 0.375 1.85
1.75 0.375 1.85
1.875 0.375 1.85
2 0.375 1.85
2.125 0.375 1.85
2.25 0.375 1.85
2.375 0.375 1.85
2.5 0.375 1.85
2.625 0.375 1.85
2.75 0.375 1.85
2.875 0.375 1.85
3 0.375 1.85
0 0.5 1.85
0.125 0.5 1.85
0.25 0.5 1.85
0.375 0.5 1.85
0.5 0.5 1.85
0.625 0.5 1.85
0.75 0.5 1.85
0.875 0.5 1.85
1 0.5 1.85
1.125 0.5 1.85
1.25 0.5 1.85
1.375 0.5 1.85
1.5 0.5 1.85
1.625 0.5 1.85
1.75 0.5 1.85
1.875 0.5 1.85
2 0.5 1.85
2.125 0.5 1.85
2.25 0.5 1.85
2.375 0.5 1.85
2.5 0.5 1.85
2.625 0.5 1.85
2.75 0.5 1.85
2.875 0.5 1.85
3 0.5 1.85
0 0.625 1.85
0.125 0.625 1.85
0.25 0.625 1.85
0.375 0.625 1.85
0.5 0.625 1.85
0.625 0.625 1.85
0.75 0.625 1.85
0.875 0.625 1.85
1 0.625 1.85
1.125 0.625 1.85
1.25 0.625 1.85
1.375 0.625 1.85
1.5 0.625 1.85
1.625 0.625 1.85
1.75 0.625 1.85
1.875 0.625 1.85
2 0.625 1.85
2.125 0.625 1.85
2.25 0.625 1.85
2.375 0.625 1.85
2.5 0.625 1.85
2.625 0.625 1.85
2.75 0.625 1.85
2.875 0.625 1.85
3 0.625 1.85
0 0.75 1.85
0.125 0.75 1.85
0.25 0.75 1.85
0.375 0.75 1.85
0.5 0.75 1.85
0.625 0.75 1.85
0.75 0.75 1.85
0.875 0.75 1.85
1 0.75 1.85
1.125 0.75 1.85
1.25 0.75 1.85
1.375 0.75 1.85
1.5 0.75 1.85
1.625 0.75 1.85
1.75 0.75 1.85
1.875 0.75 1.85
2 0.75 1.85
2.125 0.75 1.85
2.25 0.75 1.85
2.375 0.75 1.85
2.5 0.75 1.85
2.625 0.75 1.85
2.75 0.75 1.85
2.875 0.75 1.85
3 0.75 1.85
0 0.875 1.85
0.125 0.875 1.85
0.25 0.875 1.85
0.375 0.875 1.85
0.5 0.875 1.85
0.625 0.875 1.85
0.75 0.875 1.85
0.875 0.875 1.85
1 0.875 1.85
1.125 0.875 1.85
1.25 0.875 1.85
1.375 0.875 1.85
1.5 0.875 1.85
1.625 0.875 1.85
1.75 0.875 1.85
1.875 0.875 1.85
2 0.875 1.85
2.125 0.875 1.85
2.25 0.875 1.85
2.375 0.875 1.85
2.5 0.875 1.85
2.625 0.875 1.85
2.75 0.875 1.85
2.875 0.875 1.85
3 0.875 1.85
0 1 1.85
0.125 1 1.85
0.25 1 1.85
0.375 1 1.85
0.5 1 1.85
0.625 1 1.85
0.75 1 1.85
0.875 1 1.85
1 1 1.85
1.125 1 1.85
1.25 1 1.85
1.375 1 1.85
1.5 1 1.85
1.625 1 1.85
1.75 1 1.85
1.875 1 1.85
2 1 1.85
2.125 1 1.85
2.25 1 1.85
2.375 1 1.85
2.5 1 1.85
2.625 1 1.85
2.75 1 1.85
2.875 1 1.85
3 1 1.85
0 0 1.975
0.125 0 1.975
0.25 0 1.975
0.375 0 1.975
0.5 0 1.975
0.625 0 1.975
0.75 0 1.975
0.875 0 1.975
1 0 1.975
1.125 0 1.975
1.25 0 1.975
1.375 0 1.975
1.5 0 1.975
1.625 0 1.975
1.75 0 1.975
1.875 0 1.975
2 0 1.975
2.125 0 1.975
2.25 0 1.975
2.375 0 1.975
2.5 0 1.975
2.625 0 1.975
2.75 0 1.975
2.875 0 1.975
3 0 1.975
0 0.125 1.975
0.125 0.125 1.975
0.25 0.125 1.975
0.375 0.125 1.975
0.5 0.125 1.975
0.625 0.125 1.975
0.75 0.125 1.975
0.875 0.125 1.975
1 0.125 1.975
1.125 0.125 1.975
1.25 0.125 1.975
1.375 0.125 1.975
1.5 0.125 1.975
1.625 0.125 1.975
1.75 0.125 1.975
1.875 0.125 1.975
2 0.125 1.975
2.125 0.125 1.975
2.25 0.125 1.975
2.375 0.125 1.975
2.5 0.125 1.975
2.625 0.125 1.975
2.75 0.125 1.975
2.875 0.125 1.975
3 0.125 1.975
0 0.25 1.975
0.125 0.25 1.975
0.25 0.25 1.975
0.375 0.25 1.975
0.5 0.25 1.975
0.625 0.25 1.975
0.75 0.25 1.975
0.875 0.25 1.975
1 0.25 1.975
1.125 0.25 1.975
1.25 0.25 1.975
1.375 0.25 1.975
1.5 0.25 1.975
1.625 0.25 1.975
1.75 0.25 1.975
1.875 0.25 1.975
2 0.25 1.975
2.125 0.25 1.975
2.25 0.25 1.975
2.375 0.25 1.975
2.5 0.25 1.975
2.625 0.25 1.975
2.75 0.25 1.975
2.875 0.25 1.975
3 0.25 1.975
0 0.375 1.975
0.125 0.375 1.975
0.25 0.375 1.975
0.375 0.375 1.975
0.5 0.375 1.975
0.625 0.375 1.975
0.75 0.375 1.975
0.875 0.375 1.975
1 0.375 1.975
1.125 0.375 1.975
1.25 0.375 1.975
1.375 0.375 1.975
1.5 0.375 1.975
1.625 0.375 1.975
1.75 0.375 1.975
1.875 0.375 1.975
2 0.375 1.975
2.125 0.375 1.975
2.25 0.375 1.975
2.375 0.375 1.975
2.5 0.375 1.975
2.625 0.375 1.975
2.75 0.375 1.975
2.875 0.375 1.975
3 0.375 1.975
0 0.5 1.975
0.125 0.5 1.975
0.25 0.5 1.975
0.375 0.5 1.975
0.5 0.5 1.975
0.625 0.5 1.975
0.75 0.5 1.975
0.875 0.5 1.975
1 0.5 1.975
1.125 0.5 1.975
1.25 0.5 1.975
1.375 0.5 1.975
1.5 0.5 1.975
1.625 0.5 1.975
1.75 0.5 1.975
1.875 0.5 1.975
2 0.5 1.975
2.125 0.5 1.975
2.25 0.5 1.975
2.375 0.5 1.975
2.5 0.5 1.975
2.625 0.5 1.975
2.75 0.5 1.975
2.875 0.5 1.975
3 0.5 1.975
0 0.625 1.975
0.125 0.625 1.975
0.25 0.625 1.975
0.375 0.625 1.975
0.5 0.625 1.975
0.625 0.625 1.975
0.75 0.625 1.975
0.875 0.625 1.975
1 0.625 1.975
1.125 0.625 1.975
1.25 0.625 1.975
1.375 0.625 1.975
1.5 0.625 1.975
1.625 0.625 1.975
1.75 0.625 1.975
1.875 0.625 1.975
2 0.625 1.975
2.125 0.625 1.975
2.25 0.625 1.975
2.375 0.625 1.975
2.5 0.625 1.975
2.625 0.625 1.975
2.75 0.625 1.975
2.875 0.625 1.975
3 0.625 1.975
0 0.75 1.975
0.125 0.75 1.975
0.25 0.75 1.975
0.375 0.75 1.975
0.5 0.75 1.975
0.625 0.75 1.975
0.75 0.75 1.975
0.875 0.75 1.975
1 0.75 1.975
1.125 0.75 1.975
1.25 0.75 1.975
1.375 0.75 1.975
1.5 0.75 1.975
1.625 0.75 1.975
1.75 0.75 1.975
1.875 0.75 1.975
2 0.75 1.975
2.125 0.75 1.975
2.25 0.75 1.975
2.375 0.75 1.975
2.5 0.75 1.975
2.625 0.75 1.975
2.75 0.75 1.975
2.875 0.75 1.975
3 0.75 1.975
0 0.875 1.975
0.125 0.875 1.975
0.25 0.875 1.975
0.375 0.875 1.975
0.5 0.875 1.975
0.625 0.875 1.975
0.75 0.875 1.975
0.875 0.875 1.975
1 0.875 1.975
1.125 0.875 1.975
1.25 0.875 1.975
1.375 0.875 1.975
1.5 0.875 1.975
1.625 0.875 1.975
1.75 0.875 1.975
1.875 0.875 1.975
2 0.875 1.975
2.125 0.875 1.975
2.25 0.875 1.975
2.375 0.875 1.975
2.5 0.875 1.975
2.625 0.875 1.975
2.75 0.875 1.975
2.875 0.875 1.975
3 0.875 1.975
0 1 1.975
0.125 1 1.975
0.25 1 1.975
0.375 1 1.975
0.5 1 1.975
0.625 1 1.975
0.75 1 1.975
0.875 1 1.975
1 1 1.975
1.125 1 1.975
1.25 1 1.975
1.375 1 1.975
1.5 1 1.975
1.625 1 1.975
1.75 1 1.975
1.875 1 1.975
2 1 1.975
2.125 1 1.975
2.25 1 1.975
2.375 1 1.975
2.5 1 1.975
2.625 1 1.975
2.75 1 1.975
2.875 1 1.975
3 1 1.975
0 0 2.1
0.125 0 2.1
0.25 0 2.1
0.375 0 2.1
0.5 0 2.1
0.625 0 2.1
0.75 0 2.1
0.875 0 2.1
1 0 2.1
1.125 0 2.1
1.25 0 2.1
1.375 0 2.1
1.5 0 2.1
1.625 0 2.1
1.75 0 2.1
1.875 0 2.1
2 0 2.1
2.125 0 2.1
2.25 0 2.1
2.375 0 2.1
2.5 0 2.1
2.625 0 2.1
2.75 0 2.1
2.875 0 2.1
3 0 2.1
0 0.125 2.1
0.125 0.125 2.1
0.25 0.125 2.1
0.375 0.125 2.1
0.5 0.125 2.1
0.625 0.125 2.1
0.75 0.125 2.1
0.875 0.125 2.1
1 0.125 2.1
1.125 0.125 2.1
1.25 0.125 2.1
1.375 0.125 2.1
1.5 0.125 2.1
1.625 0.125 2.1
1.75 0.125 2.1
1.875 0.125 2.1
2 0.125 2.1
2.125 0.125 2.1
2.25 0.125 2.1
2.375 0.125 2.1
2.5 0.125 2.1
2.625 0.125 2.1
2.75 0.125 2.1
2.875 0.125 2.1
3 0.125 2.1
0 0.25 2.1
0.125 0.25 2.1
0.25 0.25 2.1
0.375 0.25 2.1
0.5 0.25 2.1
0.625 0.25 2.1
0.75 0.25 2.1
0.875 0.25 2.1
1 0.25 2.1
1.125 0.25 2.1
1.25 0.25 2.1
1.375 0.25 2.1
1.5 0.25 2.1
1.625 0.25 2.1
1.75 0.25 2.1
1.875 0.25 2.1
2 0.25 2.1
2.125 0.25 2.1
2.25 0.25 2.1
2.375 0.25 2.1
2.5 0.25 2.1
2.625 0.25 2.1
2.75 0.25 2.1
2.875 0.25 2.1
3 0.25 2.1
0 0.375 2.1
0.125 0.375 2.1
0.25 0.375 2.1
0.375 0.375 2.1
0.5 0.375 2.1
0.625 0.375 2.1
0.75 0.375 2.1
0.875 0.375 2.1
1 0.375 2.1
1.125 0.375 2.1
1.25 0.375 2.1
1.375 0.375 2.1
1.5 0.375 2.1
1.625 0.375 2.1
1.75 0.375 2.1
1.875 0.375 2.1
2 0.375 2.1
2.125 0.375 2.1
2.25 0.375 2.1
2.375 0.375 2.1
2.5 0.375 2.1
2.625 0.375 2.1
2.75 0.375 2.1
2.875 0.375 2.1
3 0.375 2.1
0 0.5 2.1
0.125 0.5 2.1
0.25 0.5 2.1
0.375 0.5 2.1
0.5 0.5 2.1
0.625 0.5 2.1
0.75 0.5 2.1
0.875 0.5 2.1
1 0.5 2.1
1.125 0.5 2.1
1.25 0.5 2.1
1.375 0.5 2.1
1.5 0.5 2.1
1.625 0.5 2.1
1.75 0.5 2.1
1.875 0.5 2.1
2 0.5 2.1
2.125 0.5 2.1
2.25 0.5 2.1
2.375 0.5 2.1
2.5 0.5 2.1
2.625 0.5 2.1
2.75 0.5 2.1
2.875 0.5 2.1
3 0.5 2.1
0 0.625 2.1
0.125 0.625 2.1
0.25 0.625 2.1
0.375 0.625 2.1
0.5 0.625 2.1
0.625 0.625 2.1
0.75 0.625 2.1
0.875 0.625 2.1
1 0.625 2.1
1.125 0.625 2.1
1.25 0.625 2.1
1.375 0.625 2.1
1.5 0.625 2.1
1.625 0.625 2.1
1.75 0.625 2.1
1.875 0.625 2.1
2 0.625 2.1
2.125 0.625 2.1
2.25 0.625 2.1
2.375 0.625 2.1
2.5 0.625 2.1
2.625 0.625 2.1
2.75 0.625 2.1
2.875 0.625 2.1
3 0.625 2.1
0 0.75 2.1
0.125 0.75 2.1
0.25 0.75 2.1
0.375 0.75 2.1
0.5 0.75 2.1
0.625 0.75 2.1
0.75 0.75 2.1
0.875 0.75 2.1
1 0.75 2.1
1.125 0.75 2.1
1.25 0.75 2.1
1.375 0.75 2.1
1.5 0.75 2.1
1.625 0.75 2.1
1.75 0.75 2.1
1.875 0.75 2.1
2 0.75 2.1
2.125 0.75 2.1
2.25 0.75 2.1
2.375 0.75 2.1
2.5 0.75 2.1
2.625 0.75 2.1
2.75 0.75 2.1
2.875 0.75 2.1
3 0.75 2.1
0 0.875 2.1
0.125 0.875 2.1
0.25 0.875 2.1
0.375 0.875 2.1
0.5 0.875 2.1
0.625 0.875 2.1
0.75 0.875 2.1
0.875 0.875 2.1
1 0.875 2.1
1.125 0.875 2.1
1.25 0.875 2.1
1.375 0.875 2.1
1.5 0.875 2.1
1.625 0.875 2.1
1.75 0.875 2.1
1.875 0.875 2.1
2 0.875 2.1
2.125 0.875 2.1
2.25 0.875 2.1
2.375 0.875 2.1
2.5 0.875 2.1
2.625 0.875 2.1
2.75 0.875 2.1
2.875 0.875 2.1
3 0.875 2.1
0 1 2.1
0.125 1 2.1
0.25 1 2.1
0.375 1 2.1
0.5 1 2.1
0.625 1 2.1
0.75 1 2.1
0.875 1 2.1
1 1 2.1
1.125 1 2.1
1.25 1 2.1
1.375 1 2.1
1.5 1 2.1
1.625 1 2.1
1.75 1 2.1
1.875 1 2.1
2 1 2.1
2.125 1 2.1
2.25 1 2.1
2.375 1 2.1
2.5 1 2.1
2.625 1 2.1
2.75 1 2.1
2.875 1 2.1
3 1 2.1
0.0625 0 1.1
0.125 0 1.1625
0.0625 0 1.225
0 0 1.1625
0 0.0625 1.1
0.125 0.0625 1.1
0.125 0.0625 1.225
0 0.0625 1.225
0.0625 0.125 1.1
0.125 0.125 1.1625
0.0625 0.125 1.225
0 0.125 1.1625
0.0625 0 1.1625
0.0625 0.0625 1.1
0.125 0.0625 1.1625
0.0625 0.0625 1.225
0 0.0625 1.1625
0.0625 0.125 1.1625
0.0625 0.0625 1.1625
0.1875 0 1.1
0.25 0 1.1625
0.1875 0 1.225
0.25 0.0625 1.1
0.25 0.0625 1.225
0.1875 0.125 1.1
0.25 0.125 1.1625
0.1875 0.125 1.225
0.1875 0 1.1625
0.1875 0.0625 1.1
0.25 0.0625 1.1625
0.1875 0.0625 1.225
0.1875 0.125 1.1625
0.1875 0.0625 1.1625
0.3125 0 1.1
0.375 0 1.1625
0.3125 0 1.225
0.375 0.0625 1.1
0.375 0.0625 1.225
0.3125 0.125 1.1
0.375 0.125 1.1625
0.3125 0.125 1.225
0.3125 0 1.1625
0.3125 0.0625 1.1
0.375 0.0625 1.1625
0.3125 0.0625 1.225
0.3125 0.125 1.1625
0.3125 0.0625 1.1625
0.4375 0 1.1
0.5 0 1.1625
0.4375 0 1.225
0.5 0.0625 1.1
0.5 0.0625 1.225
0.4375 0.125 1.1
0.5 0.125 1.1625
0.4375 0.125 1.225
0.4375 0 1.1625
0.4375 0.0625 1.1
0.5 0.0625 1.1625
0.4375 0.0625 1.225
0.4375 0.125 1.1625
0.4375 0.0625 1.1625
0.5625 0 1.1
0.625 0 1.1625
0.5625 0 1.225
0.625 0.0625 1.1
0.625 0.0625 1.225
0.5625 0.125 1.1
0.625 0.125 1.1625
0.5625 0.125 1.225
0.5625 0 1.1625
0.5625 0.0625 1.1
0.625 0.0625 1.1625
0.5625 0.0625 1.225
0.5625 0.125 1.1625
0.5625 0.0625 1.1625
0.6875 0 1.1
0.75 0 1.1625
0.6875 0 1.225
0.75 0.0625 1.1
0.75 0.0625 1.225
0.6875 0.125 1.1
0.75 0.125 1.1625
0.6875 0.125 1.225
0.6875 0 1.1625
0.6875 0.0625 1.1
0.75 0.0625 1.1625
0.6875 0.0625 1.225
0.6875 0.125 1.1625
0.6875 0.0625 1.1625
0.8125 0 1.1
0.875 0 1.1625
0.8125 0 1.225
0.875 0.0625 1.1
0.875 0.0625 1.225
0.8125 0.125 1.1
0.875 0.125 1.1625
0.8125 0.125 1.225
0.8125 0 1.1625
0.8125 0.0625 1.1
0.875 0.0625 1.1625
0.8125 0.0625 1.225
0.8125 0.125 1.1625
0.8125 0.0625 1.1625
0.9375 0 1.1
1 0 1.1625
0.9375 0 1.225
1 0.0625 1.1
1 0.0625 1.225
0.9375 0.125 1.1
1 0.125 1.1625
0.9375 0.125 1.225
0.9375 0 1.1625
0.9375 0.0625 1.1
1 0.0625 1.1625
0.9375 0.0625 1.225
0.9375 0.125 1.1625
0.9375 0.0625 1.1625
1.0625 0 1.1
1.125 0 1.1625
1.0625 0 1.225
1.125 0.0625 1.1
1.125 0.0625 1.225
1.0625 0.125 1.1
1.125 0.125 1.1625
1.0625 0.125 1.225
1.0625 0 1.1625
1.0625 0.0625 1.1
1.125 0.0625 1.1625
1.0625 0.0625 1.225
1.0625 0.125 1.1625
1.0625 0.0625 1.1625
1.1875 0 1.1
1.25 0 1.1625
1.1875 0 1.225
1.25 0.0625 1.1
1.25 0.0625 1.225
1.1875 0.125 1.1
1.25 0.125 1.1625
1.1875 0.125 1.225
1.1875 0 1.1625
1.1875 0.0625 1.1
1.25 0.0625 1.1625
1.1875 0.0625 1.225
1.1875 0.125 1.1625
1.1875 0.0625 1.1625
1.3125 0 1.1
1.375 0 1.1625
1.3125 0 1.225
1.375 0.0625 1.1
1.375 0.0625 1.225
1.3125 0.125 1.1
1.375 0.125 1.1625
1.3125 0.125 1.225
1.3125 0 1.1625
1.3125 0.0625 1.1
1.375 0.0625 1.1625
1.3125 0.0625 1.225
1.3125 0.125 1.1625
1.3125 0.0625 1.1625
1.4375 0 1.1
1.5 0 1.1625
1.4375 0 1.225
1.5 0.0625 1.1
1.5 0.0625 1.225
1.4375 0.125 1.1
1.5 0.125 1.1625
1.4375 0.125 1.225
1.4375 0 1.1625
1.4375 0.0625 1.1
1.5 0.0625 1.1625
1.4375 0.0625 1.225
1.4375 0.125 1.1625
1.4375 0.0625 1.1625
1.5625 0 1.1
1.625 0 1.1625
1.5625 0 1.225
1.625 0.0625 1.1
1.625 0.0625 1.225
1.5625 0.125 1.1
1.625 0.125 1.1625
1.5625 0.125 1.225
1.5625 0 1.1625
1.5625 0.0625 1.1
1.625 0.0625 1.1625
1.5625 0.0625 1.225
1.5625 0.125 1.1625
1.5625 0.0625 1.1625
1.6875 0 1.1
1.75 0 1.1625
1.6875 0 1.225
1.75 0.0625 1.1
1.75 0.0625 1.225
1.6875 0.125 1.1
1.75 0.125 1.1625
1.6875 0.125 1.225
1.6875 0 1.1625
1.6875 0.0625 1.1
1.75 0.0625 1.1625
1.6875 0.0625 1.225
1.6875 0.125 1.1625
1.6875 0.0625 1.1625
1.8125 0 1.1
1.875 0 1.1625
1.8125 0 1.225
1.875 0.0625 1.1
1.875 0.0625 1.225
1.8125 0.125 1.1
1.875 0.125 1.1625
1.8125 0.125 1.225
1.8125 0 1.1625
1.8125 0.0625 1.1
1.875 0.0625 1.1625
1.8125 0.0625 1.225
1.8125 0.125 1.1625
1.8125 0.0625 1.1625
1.9375 0 1.1
2 0 1.1625
1.9375 0 1.225
2 0.0625 1.1
2 0.0625 1.225
1.9375 0.125 1.1
2 0.125 1.1625
1.9375 0.125 1.225
1.9375 0 1.1625
1.9375 0.0625 1.1
2 0.0625 1.1625
1.9375 0.0625 1.225
1.9375 0.125 1.1625
1.9375 0.0625 1.1625
2.0625 0 1.1
2.125 0 1.1625
2.0625 0 1.225
2.125 0.0625 1.1
2.125 0.0625 1.225
2.0625 0.125 1.1
2.125 0.125 1.1625
2.0625 0.125 1.225
2.0625 0 1.1625
2.0625 0.0625 1.1
2.125 0.0625 1.1625
2.0625 0.0625 1.225
2.0625 0.125 1.1625
2.0625 0.0625 1.1625
2.1875 0 1.1
2.25 0 1.1625
2.1875 0 1.225
2.25 0.0625 1.1
2.25 0.0625 1.225
2.1875 0.125 1.1
2.25 0.125 1.1625
2.1875 0.125 1.225
2.1875 0 1.1625
2.1875 0.0625 1.1
2.25 0.0625 1.1625
2.1875 0.0625 1.225
2.1875 0.125 1.1625
2.1875 0.0625 1.1625
2.3125 0 1.1
2.375 0 1.1625
2.3125 0 1.225
2.375 0.0625 1.1
2.375 0.0625 1.225
2.3125 0.125 1.1
2.375 0.125 1.1625
2.3125 0.125 1.225
2.3125 0 1.1625
2.3125 0.0625 1.1
2.375 0.0625 1.1625
2.3125 0.0625 1.225
2.3125 0.125 1.1625
2.3125 0.0625 1.1625
2.4375 0 1.1
2.5 0 1.1625
2.4375 0 1.225
2.5 0.0625 1.1
2.5 0.0625 1.225
2.4375 0.125 1.1
2.5 0.125 1.1625
2.4375 0.125 1.225
2.4375 0 1.1625
2.4375 0.0625 1.1
2.5 0.0625 1.1625
2.4375 0.0625 1.225
2.4375 0.125 1.1625
2.4375 0.0625 1.1625
2.5625 0 1.1
2.625 0 1.1625
2.5625 0 1.225
2.625 0.0625 1.1
2.625 0.0625 1.225
2.5625 0.125 1.1
2.625 0.125 1.1625
2.5625 0.125 1.225
2.5625 0 1.1625
2.5625 0.0625 1.1
2.625 0.0625 1.1625
2.5625 0.0625 1.225
2.5625 0.125 1.1625
2.5625 0.0625 1.1625
2.6875 0 1.1
2.75 0 1.1625
2.6875 0 1.225
2.75 0.0625 1.1
2.75 0.0625 1.225
2.6875 0.125 1.1
2.75 0.125 1.1625
2.6875 0.125 1.225
2.6875 0 1.1625
2.6875 0.0625 1.1
2.75 0.0625 1.1625
2.6875 0.0625 1.225
2.6875 0.125 1.1625
2.6875 0.0625 1.1625
2.8125 0 1.1
2.875 0 1.1625
2.8125 0 1.225
2.875 0.0625 1.1
2.875 0.0625 1.225
2.8125 0.125 1.1
2.875 0.125 1.1625
2.8125 0.125 1.225
2.8125 0 1.1625
2.8125 0.0625 1.1
2.875 0.0625 1.1625
2.8125 0.0625 1.225
2.8125 0.125 1.1625
2.8125 0.0625 1.1625
2.9375 0 1.1
3 0 1.1625
2.9375 0 1.225
3 0.0625 1.1
3 0.0625 1.225
2.9375 0.125 1.1
3 0.125 1.1625
2.9375 0.125 1.225
2.9375 0 1.1625
2.9375 0.0625 1.1
3 0.0625 1.1625
2.9375 0.0625 1.225
2.9375 0.125 1.1625
2.9375 0.0625 1.1625
0 0.1875 1.1
0.125 0.1875 1.1
0.125 0.1875 1.225
0 0.1875 1.225
0.0625 0.25 1.1
0.125 0.25 1.1625
0.0625 0.25 1.225
0 0.25 1.1625
0.0625 0.1875 1.1
0.125 0.1875 1.1625
0.0625 0.1875 1.225
0 0.1875 1.1625
0.0625 0.25 1.1625
0.0625 0.1875 1.1625
0.25 0.1875 1.1
0.25 0.1875 1.225
0.1875 0.25 1.1
0.25 0.25 1.1625
0.1875 0.25 1.225
0.1875 0.1875 1.1
0.25 0.1875 1.1625
0.1875 0.1875 1.225
0.1875 0.25 1.1625
0.1875 0.1875 1.1625
0.375 0.1875 1.1
0.375 0.1875 1.225
0.3125 0.25 1.1
0.375 0.25 1.1625
0.3125 0.25 1.225
0.3125 0.1875 1.1
0.375 0.1875 1.1625
0.3125 0.1875 1.225
0.3125 0.25 1.1625
0.3125 0.1875 1.1625
0.5 0.1875 1.1
0.5 0.1875 1.225
0.4375 0.25 1.1
0.5 0.25 1.1625
0.4375 0.25 1.225
0.4375 0.1875 1.1
0.5 0.1875 1.1625
0.4375 0.1875 1.225
0.4375 0.25 1.1625
0.4375 0.1875 1.1625
0.625 0.1875 1.1
0.625 0.1875 1.225
0.5625 0.25 1.1
0.625 0.25 1.1625
0.5625 0.25 1.225
0.5625 0.1875 1.1
0.625 0.1875 1.1625
0.5625 0.1875 1.225
0.5625 0.25 1.1625
0.5625 0.1875 1.1625
0.75 0.1875 1.1
0.75 0.1875 1.225
0.6875 0.25 1.1
0.75 0.25 1.1625
0.6875 0.25 1.225
0.6875 0.1875 1.1
0.75 0.1875 1.1625
0.6875 0.1875 1.225
0.6875 0.25 1.1625
0.6875 0.1875 1.1625
0.875 0.1875 1.1
0.875 0.1875 1.225
0.8125 0.25 1.1
0.875 0.25 1.1625
0.8125 0.25 1.225
0.8125 0.1875 1.1
0.875 0.1875 1.1625
0.8125 0.1875 1.225
0.8125 0.25 1.1625
0.8125 0.1875 1.1625
1 0.1875 1.1
1 0.1875 1.225
0.9375 0.25 1.1
1 0.25 1.1625
0.9375 0.25 1.225
0.9375 0.1875 1.1
1 0.1875 1.1625
0.9375 0.1875 1.225
0.9375 0.25 1.1625
0.9375 0.1875 1.1625
1.125 0.1875 1.1
1.125 0.1875 1.225
1.0625 0.25 1.1
1.125 0.25 1.1625
1.0625 0.25 1.225
1.0625 0.1875 1.1
1.125 0.1875 1.1625
1.0625 0.1875 1.225
1.0625 0.25 1.1625
1.0625 0.1875 1.1625
1.25 0.1875 1.1
1.25 0.1875 1.225
1.1875 0.25 1.1
1.25 0.25 1.1625
1.1875 0.25 1.225
1.1875 0.1875 1.1
1.25 0.1875 1.1625
1.1875 0.1875 1.225
1.1875 0.25 1.1625
1.1875 0.1875 1.1625
1.375 0.1875 1.1
1.375 0.1875 1.225
1.3125 0.25 1.1
1.375 0.25 1.1625
1.3125 0.25 1.225
1.3125 0.1875 1.1
1.375 0.1875 1.1625
1.3125 0.1875 1.225
1.3125 0.25 1.1625
1.3125 0.1875 1.1625
1.5 0.1875 1.1
1.5 0.1875 1.225
1.4375 0.25 1.1
1.5 0.25 1.1625
1.4375 0.25 1.225
1.4375 0.1875 1.1
1.5 0.1875 1.1625
1.4375 0.1875 1.225
1.4375 0.25 1.1625
1.4375 0.1875 1.1625
1.625 0.1875 1.1
1.625 0.1875 1.225
1.5625 0.25 1.1
1.625 0.25 1.1625
1.5625 0.25 1.225
1.5625 0.1875 1.1
1.625 0.1875 1.1625
1.5625 0.1875 1.225
1.5625 0.25 1.1625
1.5625 0.1875 1.1625
1.75 0.1875 1.1
1.75 0.1875 1.225
1.6875 0.25 1.1
1.75 0.25 1.1625
1.6875 0.25 1.225
1.6875 0.1875 1.1
1.75 0.1875 1.1625
1.6875 0.1875 1.225
1.6875 0.25 1.1625
1.6875 0.1875 1.1625
1.875 0.1875 1.1
1.875 0.1875 1.225
1.8125 0.25 1.1
1.875 0.25 1.1625
1.8125 0.25 1.225
1.8125 0.1875 1.1
1.875 0.1875 1.1625
1.8125 0.1875 1.225
1.8125 0.25 1.1625
1.8125 0.1875 1.1625
2 0.1875 1.1
2 0.1875 1.225
1.9375 0.25 1.1
2 0.25 1.1625
1.9375 0.25 1.225
1.9375 0.1875 1.1
2 0.1875 1.1625
1.9375 0.1875 1.225
1.9375 0.25 1.1625
1.9375 0.1875 1.1625
2.125 0.1875 1.1
2.125 0.1875 1.225
2.0625 0.25 1.1
2.125 0.25 1.1625
2.0625 0.25 1.225
2.0625 0.1875 1.1
2.125 0.1875 1.1625
2.0625 0.1875 1.225
2.0625 0.25 1.1625
2.0625 0.1875 1.1625
2.25 0.1875 1.1
2.25 0.1875 1.225
2.1875 0.25 1.1
2.25 0.25 1.1625
2.1875 0.25 1.225
2.1875 0.1875 1.1
2.25 0.1875 1.1625
2.1875 0.1875 1.225
2.1875 0.25 1.1625
2.1875 0.1875 1.1625
2.375 0.1875 1.1
2.375 0.1875 1.225
2.3125 0.25 1.1
2.375 0.25 1.1625
2.3125 0.25 1.225
2.3125 0.1875 1.1
2.375 0.1875 1.1625
2.3125 0.1875 1.225
2.3125 0.25 1.1625
2.3125 0.1875 1.1625
2.5 0.1875 1.1
2.5 0.1875 1.225
2.4375 0.25 1.1
2.5 0.25 1.1625
2.4375 0.25 1.225
2.4375 0.1875 1.1
2.5 0.1875 1.1625
2.4375 0.1875 1.225
2.4375 0.25 1.1625
2.4375 0.1875 1.1625
2.625 0.1875 1.1
2.625 0.1875 1.225
2.5625 0.25 1.1
2.625 0.25 1.1625
2.5625 0.25 1.225
2.5625 0.1875 1.1
2.625 0.1875 1.1625
2.5625 0.1875 1.225
2.5625 0.25 1.1625
2.5625 0.1875 1.1625
2.75 0.1875 1.1
2.75 0.1875 1.225
2.6875 0.25 1.1
2.75 0.25 1.1625
2.6875 0.25 1.225
2.6875 0.1875 1.1
2.75 0.1875 1.1625
2.6875 0.1875 1.225
2.6875 0.25 1.1625
2.6875 0.1875 1.1625
2.875 0.1875 1.1
2.875 0.1875 1.225
2.8125 0.25 1.1
2.875 0.25 1.1625
2.8125 0.25 1.225
2.8125 0.1875 1.1
2.875 0.1875 1.1625
2.8125 0.1875 1.225
2.8125 0.25 1.1625
2.8125 0.1875 1.1625
3 0.1875 1.1
3 0.1875 1.225
2.9375 0.25 1.1
3 0.25 1.1625
2.9375 0.25 1.225
2.9375 0.1875 1.1
3 0.1875 1.1625
2.9375 0.1875 1.225
2.9375 0.25 1.1625
2.9375 0.1875 1.1625
0 0.3125 1.1
0.125 0.3125 1.1
0.125 0.3125 1.225
0 0.3125 1.225
0.0625 0.375 1.1
0.125 0.375 1.1625
0.0625 0.375 1.225
0 0.375 1.1625
0.0625 0.3125 1.1
0.125 0.3125 1.1625
0.0625 0.3125 1.225
0 0.3125 1.1625
0.0625 0.375 1.1625
0.0625 0.3125 1.1625
0.25 0.3125 1.1
0.25 0.3125 1.225
0.1875 0.375 1.1
0.25 0.375 1.1625
0.1875 0.375 1.225
0.1875 0.3125 1.1
0.25 0.3125 1.1625
0.1875 0.3125 1.225
0.1875 0.375 1.1625
0.1875 0.3125 1.1625
0.375 0.3125 1.1
0.375 0.3125 1.225
0.3125 0.375 1.1
0.375 0.375 1.1625
0.3125 0.375 1.225
0.3125 0.3125 1.1
0.375 0.3125 1.1625
0.3125 0.3125 1.225
0.3125 0.375 1.1625
0.3125 0.3125 1.1625
0.5 0.3125 1.1
0.5 0.3125 1.225
0.4375 0.375 1.1
0.5 0.375 1.1625
0.4375 0.375 1.225
0.4375 0.3125 1.1
0.5 0.3125 1.1625
0.4375 0.3125 1.225
0.4375 0.375 1.1625
0.4375 0.3125 1.1625
0.625 0.3125 1.1
0.625 0.3125 1.225
0.5625 0.375 1.1
0.625 0.375 1.1625
0.5625 0.375 1.225
0.5625 0.3125 1.1
0.625 0.3125 1.1625
0.5625 0.3125 1.225
0.5625 0.375 1.1625
0.5625 0.3125 1.1625
0.75 0.3125 1.1
0.75 0.3125 1.225
0.6875 0.375 1.1
0.75 0.375 1.1625
0.6875 0.375 1.225
0.6875 0.3125 1.1
0.75 0.3125 1.1625
0.6875 0.3125 1.225
0.6875 0.375 1.1625
0.6875 0.3125 1.1625
0.875 0.3125 1.1
0.875 0.3125 1.225
0.8125 0.375 1.1
0.875 0.375 1.1625
0.8125 0.375 1.225
0.8125 0.3125 1.1
0.875 0.3125 1.1625
0.8125 0.3125 1.225
0.8125 0.375 1.1625
0.8125 0.3125 1.1625
1 0.3125 1.1
1 0.3125 1.225
0.9375 0.375 1.1
1 0.375 1.1625
0.9375 0.375 1.225
0.9375 0.3125 1.1
1 0.3125 1.1625
0.9375 0.3125 1.225
0.9375 0.375 1.1625
0.9375 0.3125 1.1625
1.125 0.3125 1.1
1.125 0.3125 1.225
1.0625 0.375 1.1
1.125 0.375 1.1625
1.0625 0.375 1.225
1.0625 0.3125 1.1
1.125 0.3125 1.1625
1.0625 0.3125 1.225
1.0625 0.375 1.1625
1.0625 0.3125 1.1625
1.25 0.3125 1.1
1.25 0.3125 1.225
1.1875 0.375 1.1
1.25 0.375 1.1625
1.1875 0.375 1.225
1.1875 0.3125 1.1
1.25 0.3125 1.1625
1.1875 0.3125 1.225
1.1875 0.375 1.1625
1.1875 0.3125 1.1625
1.375 0.3125 1.1
1.375 0.3125 1.225
1.3125 0.375 1.1
1.375 0.375 1.1625
1.3125 0.375 1.225
1.3125 0.3125 1.1
1.375 0.3125 1.1625
1.3125 0.3125 1.225
1.3125 0.375 1.1625
1.3125 0.3125 1.1625
1.5 0.3125 1.1
1.5 0.3125 1.225
1.4375 0.375 1.1
1.5 0.375 1.1625
1.4375 0.375 1.225
1.4375 0.3125 1.1
1.5 0.3125 1.1625
1.4375 0.3125 1.225
1.4375 0.375 1.1625
1.4375 0.3125 1.1625
1.625 0.3125 1.1
1.625 0.3125 1.225
1.5625 0.375 1.1
1.625 0.375 1.1625
1.5625 0.375 1.225
1.5625 0.3125 1.1
1.625 0.3125 1.1625
1.5625 0.3125 1.225
1.5625 0.375 1.1625
1.5625 0.3125 1.1625
1.75 0.3125 1.1
1.75 0.3125 1.225
1.6875 0.375 1.1
1.75 0.375 1.1625
1.6875 0.375 1.225
1.6875 0.3125 1.1
1.75 0.3125 1.1625
1.6875 0.3125 1.225
1.6875 0.375 1.1625
1.6875 0.3125 1.1625
1.875 0.3125 1.1
1.875 0.3125 1.225
1.8125 0.375 1.1
1.875 0.375 1.1625
1.8125 0.375 1.225
1.8125 0.3125 1.1
1.875 0.3125 1.1625
1.8125 0.3125 1.225
1.8125 0.375 1.1625
1.8125 0.3125 1.1625
2 0.3125 1.1
2 0.3125 1.225
1.9375 0.375 1.1
2 0.375 1.1625
1.9375 0.375 1.225
1.9375 0.3125 1.1
2 0.3125 1.1625
1.9375 0.3125 1.225
1.9375 0.375 1.1625
1.9375 0.3125 1.1625
2.125 0.3125 1.1
2.125 0.3125 1.225
2.0625 0.375 1.1
2.125 0.375 1.1625
2.0625 0.375 1.225
2.0625 0.3125 1.1
2.125 0.3125 1.1625
2.0625 0.3125 1.225
2.0625 0.375 1.1625
2.0625 0.3125 1.1625
2.25 0.3125 1.1
2.25 0.3125 1.225
2.1875 0.375 1.1
2.25 0.375 1.1625
2.1875 0.375 1.225
2.1875 0.3125 1.1
2.25 0.3125 1.1625
2.1875 0.3125 1.225
2.1875 0.375 1.1625
2.1875 0.3125 1.1625
2.375 0.3125 1.1
2.375 0.3125 1.225
2.3125 0.375 1.1
2.375 0.375 1.1625
2.3125 0.375 1.225
2.3125 0.3125 1.1
2.375 0.3125 1.1625
2.3125 0.3125 1.225
2.3125 0.375 1.1625
2.3125 0.3125 1.1625
2.5 0.3125 1.1
2.5 0.3125 1.225
2.4375 0.375 1.1
2.5 0.375 1.1625
2.4375 0.375 1.225
2.4375 0.3125 1.1
2.5 0.3125 1.1625
2.4375 0.3125 1.225
2.4375 0.375 1.1625
2.4375 0.3125 1.1625
2.625 0.3125 1.1
2.625 0.3125 1.225
2.5625 0.375 1.1
2.625 0.375 1.1625
2.5625 0.375 1.225
2.5625 0.3125 1.1
2.625 0.3125 1.1625
2.5625 0.3125 1.225
2.5625 0.375 1.1625
2.5625 0.3125 1.1625
2.75 0.3125 1.1
2.75 0.3125 1.225
2.6875 0.375 1.1
2.75 0.375 1.1625
2.6875 0.375 1.225
2.6875 0.3125 1.1
2.75 0.3125 1.1625
2.6875 0.3125 1.225
2.6875 0.375 1.1625
2.6875 0.3125 1.1625
2.875 0.3125 1.1
2.875 0.3125 1.225
2.8125 0.375 1.1
2.875 0.375 1.1625
2.8125 0.375 1.225
2.8125 0.3125 1.1
2.875 0.3125 1.1625
2.8125 0.3125 1.225
2.8125 0.375 1.1625
2.8125 0.3125 1.1625
3 0.3125 1.1
3 0.3125 1.225
2.9375 0.375 1.1
3 0.375 1.1625
2.9375 0.375 1.225
2.9375 0.3125 1.1
3 0.3125 1.1625
2.9375 0.3125 1.225
2.9375 0.375 1.1625
2.9375 0.3125 1.1625
0 0.4375 1.1
0.125 0.4375 1.1
0.125 0.4375 1.225
0 0.4375 1.225
0.0625 0.5 1.1
0.125 0.5 1.1625
0.0625 0.5 1.225
0 0.5 1.1625
0.0625 0.4375 1.1
0.125 0.4375 1.1625
0.0625 0.4375 1.225
0 0.4375 1.1625
0.0625 0.5 1.1625
0.0625 0.4375 1.1625
0.25 0.4375 1.1
0.25 0.4375 1.225
0.1875 0.5 1.1
0.25 0.5 1.1625
0.1875 0.5 1.225
0.1875 0.4375 1.1
0.25 0.4375 1.1625
0.1875 0.4375 1.225
0.1875 0.5 1.1625
0.1875 0.4375 1.1625
0.375 0.4375 1.1
0.375 0.4375 1.225
0.3125 0.5 1.1
0.375 0.5 1.1625
0.3125 0.5 1.225
0.3125 0.4375 1.1
0.375 0.4375 1.1625
0.3125 0.4375 1.225
0.3125 0.5 1.1625
0.3125 0.4375 1.1625
0.5 0.4375 1.1
0.5 0.4375 1.225
0.4375 0.5 1.1
0.5 0.5 1.1625
0.4375 0.5 1.225
0.4375 0.4375 1.1
0.5 0.4375 1.1625
0.4375 0.4375 1.225
0.4375 0.5 1.1625
0.4375 0.4375 1.1625
0.625 0.4375 1.1
0.625 0.4375 1.225
0.5625 0.5 1.1
0.625 0.5 1.1625
0.5625 0.5 1.225
0.5625 0.4375 1.1
0.625 0.4375 1.1625
0.5625 0.4375 1.225
0.5625 0.5 1.1625
0.5625 0.4375 1.1625
0.75 0.4375 1.1
0.75 0.4375 1.225
0.6875 0.5 1.1
0.75 0.5 1.1625
0.6875 0.5 1.225
0.6875 0.4375 1.1
0.75 0.4375 1.1625
0.6875 0.4375 1.225
0.6875 0.5 1.1625
0.6875 0.4375 1.1625
0.875 0.4375 1.1
0.875 0.4375 1.225
0.8125 0.5 1.1
0.875 0.5 1.1625
0.8125 0.5 1.225
0.8125 0.4375 1.1
0.875 0.4375 1.1625
0.8125 0.4375 1.225
0.8125 0.5 1.1625
0.8125 0.4375 1.1625
1 0.4375 1.1
1 0.4375 1.225
0.9375 0.5 1.1
1 0.5 1.1625
0.9375 0.5 1.225
0.9375 0.4375 1.1
1 0.4375 1.1625
0.9375 0.4375 1.225
0.9375 0.5 1.1625
0.9375 0.4375 1.1625
1.125 0.4375 1.1
1.125 0.4375 1.225
1.0625 0.5 1.1
1.125 0.5 1.1625
1.0625 0.5 1.225
1.0625 0.4375 1.1
1.125 0.4375 1.1625
1.0625 0.4375 1.225
1.0625 0.5 1.1625
1.0625 0.4375 1.1625
1.25 0.4375 1.1
1.25 0.4375 1.225
1.1875 0.5 1.1
1.25 0.5 1.1625
1.1875 0.5 1.225
1.1875 0.4375 1.1
1.25 0.4375 1.1625
1.1875 0.4375 1.225
1.1875 0.5 1.1625
1.1875 0.4375 1.1625
1.375 0.4375 1.1
1.375 0.4375 1.225
1.3125 0.5 1.1
1.375 0.5 1.1625
1.3125 0.5 1.225
1.3125 0.4375 1.1
1.375 0.4375 1.1625
1.3125 0.4375 1.225
1.3125 0.5 1.1625
1.3125 0.4375 1.1625
1.5 0.4375 1.1
1.5 0.4375 1.225
1.4375 0.5 1.1
1.5 0.5 1.1625
1.4375 0.5 1.225
1.4375 0.4375 1.1
1.5 0.4375 1.1625
1.4375 0.4375 1.225
1.4375 0.5 1.1625
1.4375 0.4375 1.1625
1.625 0.4375 1.1
1.625 0.4375 1.225
1.5625 0.5 1.1
1.625 0.5 1.1625
1.5625 0.5 1.225
1.5625 0.4375 1.1
1.625 0.4375 1.1625
1.5625 0.4375 1.225
1.5625 0.5 1.1625
1.5625 0.4375 1.1625
1.75 0.4375 1.1
1.75 0.4375 1.225
1.6875 0.5 1.1
1.75 0.5 1.1625
1.6875 0.5 1.225
1.6875 0.4375 1.1
1.75 0.4375 1.1625
1.6875 0.4375 1.225
1.6875 0.5 1.1625
1.6875 0.4375 1.1625
1.875 0.4375 1.1
1.875 0.4375 1.225
1.8125 0.5 1.1
1.875 0.5 1.1625
1.8125 0.5 1.225
1.8125 0.4375 1.1
1.875 0.4375 1.1625
1.8125 0.4375 1.225
1.8125 0.5 1.1625
1.8125 0.4375 1.1625
2 0.4375 1.1
2 0.4375 1.225
1.9375 0.5 1.1
2 0.5 1.1625
1.9375 0.5 1.225
1.9375 0.4375 1.1
2 0.4375 1.1625
1.9375 0.4375 1.225
1.9375 0.5 1.1625
1.9375 0.4375 1.1625
2.125 0.4375 1.1
2.125 0.4375 1.225
2.0625 0.5 1.1
2.125 0.5 1.1625
2.0625 0.5 1.225
2.0625 0.4375 1.1
2.125 0.4375 1.1625
2.0625 0.4375 1.225
2.0625 0.5 1.1625
2.0625 0.4375 1.1625
2.25 0.4375 1.1
2.25 0.4375 1.225
2.1875 0.5 1.1
2.25 0.5 1.1625
2.1875 0.5 1.225
2.1875 0.4375 1.1
2.25 0.4375 1.1625
2.1875 0.4375 1.225
2.1875 0.5 1.1625
2.1875 0.4375 1.1625
2.375 0.4375 1.1
2.375 0.4375 1.225
2.3125 0.5 1.1
2.375 0.5 1.1625
2.3125 0.5 1.225
2.3125 0.4375 1.1
2.375 0.4375 1.1625
2.3125 0.4375 1.225
2.3125 0.5 1.1625
2.3125 0.4375 1.1625
2.5 0.4375 1.1
2.5 0.4375 1.225
2.4375 0.5 1.1
2.5 0.5 1.1625
2.4375 0.5 1.225
2.4375 0.4375 1.1
2.5 0.4375 1.1625
2.4375 0.4375 1.225
2.4375 0.5 1.1625
2.4375 0.4375 1.1625
2.625 0.4375 1.1
2.625 0.4375 1.225
2.5625 0.5 1.1
2.625 0.5 1.1625
2.5625 0.5 1.225
2.5625 0.4375 1.1
2.625 0.4375 1.1625
2.5625 0.4375 1.225
2.5625 0.5 1.1625
2.5625 0.4375 1.1625
2.75 0.4375 1.1
2.75 0.4375 1.225
2.6875 0.5 1.1
2.75 0.5 1.1625
2.6875 0.5 1.225
2.6875 0.4375 1.1
2.75 0.4375 1.1625
2.6875 0.4375 1.225
2.6875 0.5 1.1625
2.6875 0.4375 1.1625
2.875 0.4375 1.1
2.875 0.4375 1.225
2.8125 0.5 1.1
2.875 0.5 1.1625
2.8125 0.5 1.225
2.8125 0.4375 1.1
2.875 0.4375 1.1625
2.8125 0.4375 1.225
2.8125 0.5 1.1625
2.8125 0.4375 1.1625
3 0.4375 1.1
3 0.4375 1.225
2.9375 0.5 1.1
3 0.5 1.1625
2.9375 0.5 1.225
2.9375 0.4375 1.1
3 0.4375 1.1625
2.9375 0.4375 1.225
2.9375 0.5 1.1625
2.9375 0.4375 1.1625
0 0.5625 1.1
0.125 0.5625 1.1
0.125 0.5625 1.225
0 0.5625 1.225
0.0625 0.625 1.1
0.125 0.625 1.1625
0.0625 0.625 1.225
0 0.625 1.1625
0.0625 0.5625 1.1
0.125 0.5625 1.1625
0.0625 0.5625 1.225
0 0.5625 1.1625
0.0625 0.625 1.1625
0.0625 0.5625 1.1625
0.25 0.5625 1.1
0.25 0.5625 1.225
0.1875 0.625 1.1
0.25 0.625 1.1625
0.1875 0.625 1.225
0.1875 0.5625 1.1
0.25 0.5625 1.1625
0.1875 0.5625 1.225
0.1875 0.625 1.1625
0.1875 0.5625 1.1625
0.375 0.5625 1.1
0.375 0.5625 1.225
0.3125 0.625 1.1
0.375 0.625 1.1625
0.3125 0.625 1.225
0.3125 0.5625 1.1
0.375 0.5625 1.1625
0.3125 0.5625 1.225
0.3125 0.625 1.1625
0.3125 0.5625 1.1625
0.5 0.5625 1.1
0.5 0.5625 1.225
0.4375 0.625 1.1
0.5 0.625 1.1625
0.4375 0.625 1.225
0.4375 0.5625 1.1
0.5 0.5625 1.1625
0.4375 0.5625 1.225
0.4375 0.625 1.1625
0.4375 0.5625 1.1625
0.625 0.5625 1.1
0.625 0.5625 1.225
0.5625 0.625 1.1
0.625 0.625 1.1625
0.5625 0.625 1.225
0.5625 0.5625 1.1
0.625 0.5625 1.1625
0.5625 0.5625 1.225
0.5625 0.625 1.1625
0.5625 0.5625 1.1625
0.75 0.5625 1.1
0.75 0.5625 1.225
0.6875 0.625 1.1
0.75 0.625 1.1625
0.6875 0.625 1.225
0.6875 0.5625 1.1
0.75 0.5625 1.1625
0.6875 0.5625 1.225
0.6875 0.625 1.1625
0.6875 0.5625 1.1625
0.875 0.5625 1.1
0.875 0.5625 1.225
0.8125 0.625 1.1
0.875 0.625 1.1625
0.8125 0.625 1.225
0.8125 0.5625 1.1
0.875 0.5625 1.1625
0.8125 0.5625 1.225
0.8125 0.625 1.1625
0.8125 0.5625 1.1625
1 0.5625 1.1
1 0.5625 1.225
0.9375 0.625 1.1
1 0.625 1.1625
0.9375 0.625 1.225
0.9375 0.5625 1.1
1 0.5625 1.1625
0.9375 0.5625 1.225
0.9375 0.625 1.1625
0.9375 0.5625 1.1625
1.125 0.5625 1.1
1.125 0.5625 1.225
1.0625 0.625 1.1
1.125 0.625 1.1625
1.0625 0.625 1.225
1.0625 0.5625 1.1
1.125 0.5625 1.1625
1.0625 0.5625 1.225
1.0625 0.625 1.1625
1.0625 0.5625 1.1625
1.25 0.5625 1.1
1.25 0.5625 1.225
1.1875 0.625 1.1
1.25 0.625 1.1625
1.1875 0.625 1.225
1.1875 0.5625 1.1
1.25 0.5625 1.1625
1.1875 0.5625 1.225
1.1875 0.625 1.1625
1.1875 0.5625 1.1625
1.375 0.5625 1.1
1.375 0.5625 1.225
1.3125 0.625 1.1
1.375 0.625 1.1625
1.3125 0.625 1.225
1.3125 0.5625 1.1
1.375 0.5625 1.1625
1.3125 0.5625 1.225
1.3125 0.625 1.1625
1.3125 0.5625 1.1625
1.5 0.5625 1.1
1.5 0.5625 1.225
1.4375 0.625 1.1
1.5 0.625 1.1625
1.4375 0.625 1.225
1.4375 0.5625 1.1
1.5 0.5625 1.1625
1.4375 0.5625 1.225
1.4375 0.625 1.1625
1.4375 0.5625 1.1625
1.625 0.5625 1.1
1.625 0.5625 1.225
1.5625 0.625 1.1
1.625 0.625 1.1625
1.5625 0.625 1.225
1.5625 0.5625 1.1
1.625 0.5625 1.1625
1.5625 0.5625 1.225
1.5625 0.625 1.1625
1.5625 0.5625 1.1625
1.75 0.5625 1.1
1.75 0.5625 1.225
1.6875 0.625 1.1
1.75 0.625 1.1625
1.6875 0.625 1.225
1.6875 0.5625 1.1
1.75 0.5625 1.1625
1.6875 0.5625 1.225
1.6875 0.625 1.1625
1.6875 0.5625 1.1625
1.875 0.5625 1.1
1.875 0.5625 1.225
1.8125 0.625 1.1
1.875 0.625 1.1625
1.8125 0.625 1.225
1.8125 0.5625 1.1
1.875 0.5625 1.1625
1.8125 0.5625 1.225
1.8125 0.625 1.1625
1.8125 0.5625 1.1625
2 0.5625 1.1
2 0.5625 1.225
1.9375 0.625 1.1
2 0.625 1.1625
1.9375 0.625 1.225
1.9375 0.5625 1.1
2 0.5625 1.1625
1.9375 0.5625 1.225
1.9375 0.625 1.1625
1.9375 0.5625 1.1625
2.125 0.5625 1.1
2.125 0.5625 1.225
2.0625 0.625 1.1
2.125 0.625 1.1625
2.0625 0.625 1.225
2.0625 0.5625 1.1
2.125 0.5625 1.1625
2.0625 0.5625 1.225
2.0625 0.625 1.1625
2.0625 0.5625 1.1625
2.25 0.5625 1.1
2.25 0.5625 1.225
2.1875 0.625 1.1
2.25 0.625 1.1625
2.1875 0.625 1.225
2.1875 0.5625 1.1
2.25 0.5625 1.1625
2.1875 0.5625 1.225
2.1875 0.625 1.1625
2.1875 0.5625 1.1625
2.375 0.5625 1.1
2.375 0.5625 1.225
2.3125 0.625 1.1
2.375 0.625 1.1625
2.3125 0.625 1.225
2.3125 0.5625 1.1
2.375 0.5625 1.1625
2.3125 0.5625 1.225
2.3125 0.625 1.1625
2.3125 0.5625 1.1625
2.5 0.5625 1.1
2.5 0.5625 1.225
2.4375 0.625 1.1
2.5 0.625 1.1625
2.4375 0.625 1.225
2.4375 0.5625 1.1
2.5 0.5625 1.1625
2.4375 0.5625 1.225
2.4375 0.625 1.1625
2.4375 0.5625 1.1625
2.625 0.5625 1.1
2.625 0.5625 1.225
2.5625 0.625 1.1
2.625 0.625 1.1625
2.5625 0.625 1.225
2.5625 0.5625 1.1
2.625 0.5625 1.1625
2.5625 0.5625 1.225
2.5625 0.625 1.1625
2.5625 0.5625 1.1625
2.75 0.5625 1.1
2.75 0.5625 1.225
2.6875 0.625 1.1
2.75 0.625 1.1625
2.6875 0.625 1.225
2.6875 0.5625 1.1
2.75 0.5625 1.1625
2.6875 0.5625 1.225
2.6875 0.625 1.1625
2.6875 0.5625 1.1625
2.875 0.5625 1.1
2.875 0.5625 1.225
2.8125 0.625 1.1
2.875 0.625 1.1625
2.8125 0.625 1.225
2.8125 0.5625 1.1
2.875 0.5625 1.1625
2.8125 0.5625 1.225
2.8125 0.625 1.1625
2.8125 0.5625 1.1625
3 0.5625 1.1
3 0.5625 1.225
2.9375 0.625 1.1
3 0.625 1.1625
2.9375 0.625 1.225
2.9375 0.5625 1.1
3 0.5625 1.1625
2.9375 0.5625 1.225
2.9375 0.625 1.1625
2.9375 0.5625 1.1625
0 0.6875 1.1
0.125 0.6875 1.1
0.125 0.6875 1.225
0 0.6875 1.225
0.0625 0.75 1.1
0.125 0.75 1.1625
0.0625 0.75 1.225
0 0.75 1.1625
0.0625 0.6875 1.1
0.125 0.6875 1.1625
0.0625 0.6875 1.225
0 0.6875 1.1625
0.0625 0.75 1.1625
0.0625 0.6875 1.1625
0.25 0.6875 1.1
0.25 0.6875 1.225
0.1875 0.75 1.1
0.25 0.75 1.1625
0.1875 0.75 1.225
0.1875 0.6875 1.1
0.25 0.6875 1.1625
0.1875 0.6875 1.225
0.1875 0.75 1.1625
0.1875 0.6875 1.1625
0.375 0.6875 1.1
0.375 0.6875 1.225
0.3125 0.75 1.1
0.375 0.75 1.1625
0.3125 0.75 1.225
0.3125 0.6875 1.1
0.375 0.6875 1.1625
0.3125 0.6875 1.225
0.3125 0.75 1.1625
0.3125 0.6875 1.1625
0.5 0.6875 1.1
0.5 0.6875 1.225
0.4375 0.75 1.1
0.5 0.75 1.1625
0.4375 0.75 1.225
0.4375 0.6875 1.1
0.5 0.6875 1.1625
0.4375 0.6875 1.225
0.4375 0.75 1.1625
0.4375 0.6875 1.1625
0.625 0.6875 1.1
0.625 0.6875 1.225
0.5625 0.75 1.1
0.625 0.75 1.1625
0.5625 0.75 1.225
0.5625 0.6875 1.1
0.625 0.6875 1.1625
0.5625 0.6875 1.225
0.5625 0.75 1.1625
0.5625 0.6875 1.1625
0.75 0.6875 1.1
0.75 0.6875 1.225
0.6875 0.75 1.1
0.75 0.75 1.1625
0.6875 0.75 1.225
0.6875 0.6875 1.1
0.75 0.6875 1.1625
0.6875 0.6875 1.225
0.6875 0.75 1.1625
0.6875 0.6875 1.1625
0.875 0.6875 1.1
0.875 0.6875 1.225
0.8125 0.75 1.1
0.875 0.75 1.1625
0.8125 0.75 1.225
0.8125 0.6875 1.1
0.875 0.6875 1.1625
0.8125 0.6875 1.225
0.8125 0.75 1.1625
0.8125 0.6875 1.1625
1 0.6875 1.1
1 0.6875 1.225
0.9375 0.75 1.1
1 0.75 1.1625
0.9375 0.75 1.225
0.9375 0.6875 1.1
1 0.6875 1.1625
0.9375 0.6875 1.225
0.9375 0.75 1.1625
0.9375 0.6875 1.1625
1.125 0.6875 1.1
1.125 0.6875 1.225
1.0625 0.75 1.1
1.125 0.75 1.1625
1.0625 0.75 1.225
1.0625 0.6875 1.1
1.125 0.6875 1.1625
1.0625 0.6875 1.225
1.0625 0.75 1.1625
1.0625 0.6875 1.1625
1.25 0.6875 1.1
1.25 0.6875 1.225
1.1875 0.75 1.1
1.25 0.75 1.1625
1.1875 0.75 1.225
1.1875 0.6875 1.1
1.25 0.6875 1.1625
1.1875 0.6875 1.225
1.1875 0.75 1.1625
1.1875 0.6875 1.1625
1.375 0.6875 1.1
1.375 0.6875 1.225
1.3125 0.75 1.1
1.375 0.75 1.1625
1.3125 0.75 1.225
1.3125 0.6875 1.1
1.375 0.6875 1.1625
1.3125 0.6875 1.225
1.3125 0.75 1.1625
1.3125 0.6875 1.1625
1.5 0.6875 1.1
1.5 0.6875 1.225
1.4375 0.75 1.1
1.5 0.75 1.1625
1.4375 0.75 1.225
1.4375 0.6875 1.1
1.5 0.6875 1.1625
1.4375 0.6875 1.225
1.4375 0.75 1.1625
1.4375 0.6875 1.1625
1.625 0.6875 1.1
1.625 0.6875 1.225
1.5625 0.75 1.1
1.625 0.75 1.1625
1.5625 0.75 1.225
1.5625 0.6875 1.1
1.625 0.6875 1.1625
1.5625 0.6875 1.225
1.5625 0.75 1.1625
1.5625 0.6875 1.1625
1.75 0.6875 1.1
1.75 0.6875 1.225
1.6875 0.75 1.1
1.75 0.75 1.1625
1.6875 0.75 1.225
1.6875 0.6875 1.1
1.75 0.6875 1.1625
1.6875 0.6875 1.225
1.6875 0.75 1.1625
1.6875 0.6875 1.1625
1.875 0.6875 1.1
1.875 0.6875 1.225
1.8125 0.75 1.1
1.875 0.75 1.1625
1.8125 0.75 1.225
1.8125 0.6875 1.1
1.875 0.6875 1.1625
1.8125 0.6875 1.225
1.8125 0.75 1.1625
1.8125 0.6875 1.1625
2 0.6875 1.1
2 0.6875 1.225
1.9375 0.75 1.1
2 0.75 1.1625
1.9375 0.75 1.225
1.9375 0.6875 1.1
2 0.6875 1.1625
1.9375 0.6875 1.225
1.9375 0.75 1.1625
1.9375 0.6875 1.1625
2.125 0.6875 1.1
2.125 0.6875 1.225
2.0625 0.75 1.1
2.125 0.75 1.1625
2.0625 0.75 1.225
2.0625 0.6875 1.1
2.125 0.6875 1.1625
2.0625 0.6875 1.225
2.0625 0.75 1.1625
2.0625 0.6875 1.1625
2.25 0.6875 1.1
2.25 0.6875 1.225
2.1875 0.75 1.1
2.25 0.75 1.1625
2.1875 0.75 1.225
2.1875 0.6875 1.1
2.25 0.6875 1.1625
2.1875 0.6875 1.225
2.1875 0.75 1.1625
2.1875 0.6875 1.1625
2.375 0.6875 1.1
2.375 0.6875 1.225
2.3125 0.75 1.1
2.375 0.75 1.1625
2.3125 0.75 1.225
2.3125 0.6875 1.1
2.375 0.6875 1.1625
2.3125 0.6875 1.225
2.3125 0.75 1.1625
2.3125 0.6875 1.1625
2.5 0.6875 1.1
2.5 0.6875 1.225
2.4375 0.75 1.1
2.5 0.75 1.1625
2.4375 0.75 1.225
2.4375 0.6875 1.1
2.5 0.6875 1.1625
2.4375 0.6875 1.225
2.4375 0.75 1.1625
2.4375 0.6875 1.1625
2.625 0.6875 1.1
2.625 0.6875 1.225
2.5625 0.75 1.1
2.625 0.75 1.1625
2.5625 0.75 1.225
2.5625 0.6875 1.1
2.625 0.6875 1.1625
2.5625 0.6875 1.225
2.5625 0.75 1.1625
2.5625 0.6875 1.1625
2.75 0.6875 1.1
2.75 0.6875 1.225
2.6875 0.75 1.1
2.75 0.75 1.1625
2.6875 0.75 1.225
2.6875 0.6875 1.1
2.75 0.6875 1.1625
2.6875 0.6875 1.225
2.6875 0.75 1.1625
2.6875 0.6875 1.1625
2.875 0.6875 1.1
2.875 0.6875 1.225
2.8125 0.75 1.1
2.875 0.75 1.1625
2.8125 0.75 1.225
2.8125 0.6875 1.1
2.875 0.6875 1.1625
2.8125 0.6875 1.225
2.8125 0.75 1.1625
2.8125 0.6875 1.1625
3 0.6875 1.1
3 0.6875 1.225
2.9375 0.75 1.1
3 0.75 1.1625
2.9375 0.75 1.225
2.9375 0.6875 1.1
3 0.6875 1.1625
2.9375 0.6875 1.225
2.9375 0.75 1.1625
2.9375 0.6875 1.1625
0 0.8125 1.1
0.125 0.8125 1.1
0.125 0.8125 1.225
0 0.8125 1.225
0.0625 0.875 1.1
0.125 0.875 1.1625
0.0625 0.875 1.225
0 0.875 1.1625
0.0625 0.8125 1.1
0.125 0.8125 1.1625
0.0625 0.8125 1.225
0 0.8125 1.1625
0.0625 0.875 1.1625
0.0625 0.8125 1.1625
0.25 0.8125 1.1
0.25 0.8125 1.225
0.1875 0.875 1.1
0.25 0.875 1.1625
0.1875 0.875 1.225
0.1875 0.8125 1.1
0.25 0.8125 1.1625
0.1875 0.8125 1.225
0.1875 0.875 1.1625
0.1875 0.8125 1.1625
0.375 0.8125 1.1
0.375 0.8125 1.225
0.3125 0.875 1.1
0.375 0.875 1.1625
0.3125 0.875 1.225
0.3125 0.8125 1.1
0.375 0.8125 1.1625
0.3125 0.8125 1.225
0.3125 0.875 1.1625
0.3125 0.8125 1.1625
0.5 0.8125 1.1
0.5 0.8125 1.225
0.4375 0.875 1.1
0.5 0.875 1.1625
0.4375 0.875 1.225
0.4375 0.8125 1.1
0.5 0.8125 1.1625
0.4375 0.8125 1.225
0.4375 0.875 1.1625
0.4375 0.8125 1.1625
0.625 0.8125 1.1
0.625 0.8125 1.225
0.5625 0.875 1.1
0.625 0.875 1.1625
0.5625 0.875 1.225
0.5625 0.8125 1.1
0.625 0.8125 1.1625
0.5625 0.8125 1.225
0.5625 0.875 1.1625
0.5625 0.8125 1.1625
0.75 0.8125 1.1
0.75 0.8125 1.225
0.6875 0.875 1.1
0.75 0.875 1.1625
0.6875 0.875 1.225
0.6875 0.8125 1.1
0.75 0.8125 1.1625
0.6875 0.8125 1.225
0.6875 0.875 1.1625
0.6875 0.8125 1.1625
0.875 0.8125 1.1
0.875 0.8125 1.225
0.8125 0.875 1.1
0.875 0.875 1.1625
0.8125 0.875 1.225
0.8125 0.8125 1.1
0.875 0.8125 1.1625
0.8125 0.8125 1.225
0.8125 0.875 1.1625
0.8125 0.8125 1.1625
1 0.8125 1.1
1 0.8125 1.225
0.9375 0.875 1.1
1 0.875 1.1625
0.9375 0.875 1.225
0.9375 0.8125 1.1
1 0.8125 1.1625
0.9375 0.8125 1.225
0.9375 0.875 1.1625
0.9375 0.8125 1.1625
1.125 0.8125 1.1
1.125 0.8125 1.225
1.0625 0.875 1.1
1.125 0.875 1.1625
1.0625 0.875 1.225
1.0625 0.8125 1.1
1.125 0.8125 1.1625
1.0625 0.8125 1.225
1.0625 0.875 1.1625
1.0625 0.8125 1.1625
1.25 0.8125 1.1
1.25 0.8125 1.225
1.1875 0.875 1.1
1.25 0.875 1.1625
1.1875 0.875 1.225
1.1875 0.8125 1.1
1.25 0.8125 1.1625
1.1875 0.8125 1.225
1.1875 0.875 1.1625
1.1875 0.8125 1.1625
1.375 0.8125 1.1
1.375 0.8125 1.225
1.3125 0.875 1.1
1.375 0.875 1.1625
1.3125 0.875 1.225
1.3125 0.8125 1.1
1.375 0.8125 1.1625
1.3125 0.8125 1.225
1.3125 0.875 1.1625
1.3125 0.8125 1.1625
1.5 0.8125 1.1
1.5 0.8125 1.225
1.4375 0.875 1.1
1.5 0.875 1.1625
1.4375 0.875 1.225
1.4375 0.8125 1.1
1.5 0.8125 1.1625
1.4375 0.8125 1.225
1.4375 0.875 1.1625
1.4375 0.8125 1.1625
1.625 0.8125 1.1
1.625 0.8125 1.225
1.5625 0.875 1.1
1.625 0.875 1.1625
1.5625 0.875 1.225
1.5625 0.8125 1.1
1.625 0.8125 1.1625
1.5625 0.8125 1.225
1.5625 0.875 1.1625
1.5625 0.8125 1.1625
1.75 0.8125 1.1
1.75 0.8125 1.225
1.6875 0.875 1.1
1.75 0.875 1.1625
1.6875 0.875 1.225
1.6875 0.8125 1.1
1.75 0.8125 1.1625
1.6875 0.8125 1.225
1.6875 0.875 1.1625
1.6875 0.8125 1.1625
1.875 0.8125 1.1
1.875 0.8125 1.225
1.8125 0.875 1.1
1.875 0.875 1.1625
1.8125 0.875 1.225
1.8125 0.8125 1.1
1.875 0.8125 1.1625
1.8125 0.8125 1.225
1.8125 0.875 1.1625
1.8125 0.8125 1.1625
2 0.8125 1.1
2 0.8125 1.225
1.9375 0.875 1.1
2 0.875 1.1625
1.9375 0.875 1.225
1.9375 0.8125 1.1
2 0.8125 1.1625
1.9375 0.8125 1.225
1.9375 0.875 1.1625
1.9375 0.8125 1.1625
2.125 0.8125 1.1
2.125 0.8125 1.225
2.0625 0.875 1.1
2.125 0.875 1.1625
2.0625 0.875 1.225
2.0625 0.8125 1.1
2.125 0.8125 1.1625
2.0625 0.8125 1.225
2.0625 0.875 1.1625
2.0625 0.8125 1.1625
2.25 0.8125 1.1
2.25 0.8125 1.225
2.1875 0.875 1.1
2.25 0.875 1.1625
2.1875 0.875 1.225
2.1875 0.8125 1.1
2.25 0.8125 1.1625
2.1875 0.8125 1.225
2.1875 0.875 1.1625
2.1875 0.8125 1.1625
2.375 0.8125 1.1
2.375 0.8125 1.225
2.3125 0.875 1.1
2.375 0.875 1.1625
2.3125 0.875 1.225
2.3125 0.8125 1.1
2.375 0.8125 1.1625
2.3125 0.8125 1.225
2.3125 0.875 1.1625
2.3125 0.8125 1.1625
2.5 0.8125 1.1
2.5 0.8125 1.225
2.4375 0.875 1.1
2.5 0.875 1.1625
2.4375 0.875 1.225
2.4375 0.8125 1.1
2.5 0.8125 1.1625
2.4375 0.8125 1.225
2.4375 0.875 1.1625
2.4375 0.8125 1.1625
2.625 0.8125 1.1
2.625 0.8125 1.225
2.5625 0.875 1.1
2.625 0.875 1.1625
2.5625 0.875 1.225
2.5625 0.8125 1.1
2.625 0.8125 1.1625
2.5625 0.8125 1.225
2.5625 0.875 1.1625
2.5625 0.8125 1.1625
2.75 0.8125 1.1
2.75 0.8125 1.225
2.6875 0.875 1.1
2.75 0.875 1.1625
2.6875 0.875 1.225
2.6875 0.8125 1.1
2.75 0.8125 1.1625
2.6875 0.8125 1.225
2.6875 0.875 1.1625
2.6875 0.8125 1.1625
2.875 0.8125 1.1
2.875 0.8125 1.225
2.8125 0.875 1.1
2.875 0.875 1.1625
2.8125 0.875 1.225
2.8125 0.8125 1.1
2.875 0.8125 1.1625
2.8125 0.8125 1.225
2.8125 0.875 1.1625
2.8125 0.8125 1.1625
3 0.8125 1.1
3 0.8125 1.225
2.9375 0.875 1.1
3 0.875 1.1625
2.9375 0.875 1.225
2.9375 0.8125 1.1
3 0.8125 1.1625
2.9375 0.8125 1.225
2.9375 0.875 1.1625
2.9375 0.8125 1.1625
0 0.9375 1.1
0.125 0.9375 1.1
0.125 0.9375 1.225
0 0.9375 1.225
0.0625 1 1.1
0.125 1 1.1625
0.0625 1 1.225
0 1 1.1625
0.0625 0.9375 1.1
0.125 0.9375 1.1625
0.0625 0.9375 1.225
0 0.9375 1.1625
0.0625 1 1.1625
0.0625 0.9375 1.1625
0.25 0.9375 1.1
0.25 0.9375 1.225
0.1875 1 1.1
0.25 1 1.1625
0.1875 1 1.225
0.1875 0.9375 1.1
0.25 0.9375 1.1625
0.1875 0.9375 1.225
0.1875 1 1.1625
0.1875 0.9375 1.1625
0.375 0.9375 1.1
0.375 0.9375 1.225
0.3125 1 1.1
0.375 1 1.1625
0.3125 1 1.225
0.3125 0.9375 1.1
0.375 0.9375 1.1625
0.3125 0.9375 1.225
0.3125 1 1.1625
0.3125 0.9375 1.1625
0.5 0.9375 1.1
0.5 0.9375 1.225
0.4375 1 1.1
0.5 1 1.1625
0.4375 1 1.225
0.4375 0.9375 1.1
0.5 0.9375 1.1625
0.4375 0.9375 1.225
0.4375 1 1.1625
0.4375 0.9375 1.1625
0.625 0.9375 1.1
0.625 0.9375 1.225
0.5625 1 1.1
0.625 1 1.1625
0.5625 1 1.225
0.5625 0.9375 1.1
0.625 0.9375 1.1625
0.5625 0.9375 1.225
0.5625 1 1.1625
0.5625 0.9375 1.1625
0.75 0.9375 1.1
0.75 0.9375 1.225
0.6875 1 1.1
0.75 1 1.1625
0.6875 1 1.225
0.6875 0.9375 1.1
0.75 0.9375 1.1625
0.6875 0.9375 1.225
0.6875 1 1.1625
0.6875 0.9375 1.1625
0.875 0.9375 1.1
0.875 0.9375 1.225
0.8125 1 1.1
0.875 1 1.1625
0.8125 1 1.225
0.8125 0.9375 1.1
0.875 0.9375 1.1625
0.8125 0.9375 1.225
0.8125 1 1.1625
0.8125 0.9375 1.1625
1 0.9375 1.1
1 0.9375 1.225
0.9375 1 1.1
1 1 1.1625
0.9375 1 1.225
0.9375 0.9375 1.1
1 0.9375 1.1625
0.9375 0.9375 1.225
0.9375 1 1.1625
0.9375 0.9375 1.1625
1.125 0.9375 1.1
1.125 0.9375 1.225
1.0625 1 1.1
1.125 1 1.1625
1.0625 1 1.225
1.0625 0.9375 1.1
1.125 0.9375 1.1625
1.0625 0.9375 1.225
1.0625 1 1.1625
1.0625 0.9375 1.1625
1.25 0.9375 1.1
1.25 0.9375 1.225
1.1875 1 1.1
1.25 1 1.1625
1.1875 1 1.225
1.1875 0.9375 1.1
1.25 0.9375 1.1625
1.1875 0.9375 1.225
1.1875 1 1.1625
1.1875 0.9375 1.1625
1.375 0.9375 1.1
1.375 0.9375 1.225
1.3125 1 1.1
1.375 1 1.1625
1.3125 1 1.225
1.3125 0.9375 1.1
1.375 0.9375 1.1625
1.3125 0.9375 1.225
1.3125 1 1.1625
1.3125 0.9375 1.1625
1.5 0.9375 1.1
1.5 0.9375 1.225
1.4375 1 1.1
1.5 1 1.1625
1.4375 1 1.225
1.4375 0.9375 1.1
1.5 0.9375 1.1625
1.4375 0.9375 1.225
1.4375 1 1.1625
1.4375 0.9375 1.1625
1.625 0.9375 1.1
1.625 0.9375 1.225
1.5625 1 1.1
1.625 1 1.1625
1.5625 1 1.225
1.5625 0.9375 1.1
1.625 0.9375 1.1625
1.5625 0.9375 1.225
1.5625 1 1.1625
1.5625 0.9375 1.1625
1.75 0.9375 1.1
1.75 0.9375 1.225
1.6875 1 1.1
1.75 1 1.1625
1.6875 1 1.225
1.6875 0.9375 1.1
1.75 0.9375 1.1625
1.6875 0.9375 1.225
1.6875 1 1.1625
1.6875 0.9375 1.1625
1.875 0.9375 1.1
1.875 0.9375 1.225
1.8125 1 1.1
1.875 1 1.1625
1.8125 1 1.225
1.8125 0.9375 1.1
1.875 0.9375 1.1625
1.8125 0.9375 1.225
1.8125 1 1.1625
1.8125 0.9375 1.1625
2 0.9375 1.1
2 0.9375 1.225
1.9375 1 1.1
2 1 1.1625
1.9375 1 1.225
1.9375 0.9375 1.1
2 0.9375 1.1625
1.9375 0.9375 1.225
1.9375 1 1.1625
1.9375 0.9375 1.1625
2.125 0.9375 1.1
2.125 0.9375 1.225
2.0625 1 1.1
2.125 1 1.1625
2.0625 1 1.225
2.0625 0.9375 1.1
2.125 0.9375 1.1625
2.0625 0.9375 1.225
2.0625 1 1.1625
2.0625 0.9375 1.1625
2.25 0.9375 1.1
2.25 0.9375 1.225
2.1875 1 1.1
2.25 1 1.1625
2.1875 1 1.225
2.1875 0.9375 1.1
2.25 0.9375 1.1625
2.1875 0.9375 1.225
2.1875 1 1.1625
2.1875 0.9375 1.1625
2.375 0.9375 1.1
2.375 0.9375 1.225
2.3125 1 1.1
2.375 1 1.1625
2.3125 1 1.225
2.3125 0.9375 1.1
2.375 0.9375 1.1625
2.3125 0.9375 1.225
2.3125 1 1.1625
2.3125 0.9375 1.1625
2.5 0.9375 1.1
2.5 0.9375 1.225
2.4375 1 1.1
2.5 1 1.1625
2.4375 1 1.225
2.4375 0.9375 1.1
2.5 0.9375 1.1625
2.4375 0.9375 1.225
2.4375 1 1.1625
2.4375 0.9375 1.1625
2.625 0.9375 1.1
2.625 0.9375 1.225
2.5625 1 1.1
2.625 1 1.1625
2.5625 1 1.225
2.5625 0.9375 1.1
2.625 0.9375 1.1625
2.5625 0.9375 1.225
2.5625 1 1.1625
2.5625 0.9375 1.1625
2.75 0.9375 1.1
2.75 0.9375 1.225
2.6875 1 1.1
2.75 1 1.1625
2.6875 1 1.225
2.6875 0.9375 1.1
2.75 0.9375 1.1625
2.6875 0.9375 1.225
2.6875 1 1.1625
2.6875 0.9375 1.1625
2.875 0.9375 1.1
2.875 0.9375 1.225
2.8125 1 1.1
2.875 1 1.1625
2.8125 1 1.225
2.8125 0.9375 1.1
2.875 0.9375 1.1625
2.8125 0.9375 1.225
2.8125 1 1.1625
2.8125 0.9375 1.1625
3 0.9375 1.1
3 0.9375 1.225
2.9375 1 1.1
3 1 1.1625
2.9375 1 1.225
2.9375 0.9375 1.1
3 0.9375 1.1625
2.9375 0.9375 1.225
2.9375 1 1.1625
2.9375 0.9375 1.1625
0.125 0 1.2875
0.0625 0 1.35
0 0 1.2875
0.125 0.0625 1.35
0 0.0625 1.35
0.125 0.125 1.2875
0.0625 0.125 1.35
0 0.125 1.2875
0.0625 0 1.2875
0.125 0.0625 1.2875
0.0625 0.0625 1.35
0 0.0625 1.2875
0.0625 0.125 1.2875
0.0625 0.0625 1.2875
0.25 0 1.2875
0.1875 0 1.35
0.25 0.0625 1.35
0.25 0.125 1.2875
0.1875 0.125 1.35
0.1875 0 1.2875
0.25 0.0625 1.2875
0.1875 0.0625 1.35
0.1875 0.125 1.2875
0.1875 0.0625 1.2875
0.375 0 1.2875
0.3125 0 1.35
0.375 0.0625 1.35
0.375 0.125 1.2875
0.3125 0.125 1.35
0.3125 0 1.2875
0.375 0.0625 1.2875
0.3125 0.0625 1.35
0.3125 0.125 1.2875
0.3125 0.0625 1.2875
0.5 0 1.2875
0.4375 0 1.35
0.5 0.0625 1.35
0.5 0.125 1.2875
0.4375 0.125 1.35
0.4375 0 1.2875
0.5 0.0625 1.2875
0.4375 0.0625 1.35
0.4375 0.125 1.2875
0.4375 0.0625 1.2875
0.625 0 1.2875
0.5625 0 1.35
0.625 0.0625 1.35
0.625 0.125 1.2875
0.5625 0.125 1.35
0.5625 0 1.2875
0.625 0.0625 1.2875
0.5625 0.0625 1.35
0.5625 0.125 1.2875
0.5625 0.0625 1.2875
0.75 0 1.2875
0.6875 0 1.35
0.75 0.0625 1.35
0.75 0.125 1.2875
0.6875 0.125 1.35
0.6875 0 1.2875
0.75 0.0625 1.2875
0.6875 0.0625 1.35
0.6875 0.125 1.2875
0.6875 0.0625 1.2875
0.875 0 1.2875
0.8125 0 1.35
0.875 0.0625 1.35
0.875 0.125 1.2875
0.8125 0.125 1.35
0.8125 0 1.2875
0.875 0.0625 1.2875
0.8125 0.0625 1.35
0.8125 0.125 1.2875
0.8125 0.0625 1.2875
1 0 1.2875
0.9375 0 1.35
1 0.0625 1.35
1 0.125 1.2875
0.9375 0.125 1.35
0.9375 0 1.2875
1 0.0625 1.2875
0.9375 0.0625 1.35
0.9375 0.125 1.2875
0.9375 0.0625 1.2875
1.125 0 1.2875
1.0625 0 1.35
1.125 0.0625 1.35
1.125 0.125 1.2875
1.0625 0.125 1.35
1.0625 0 1.2875
1.125 0.0625 1.2875
1.0625 0.0625 1.35
1.0625 0.125 1.2875
1.0625 0.0625 1.2875
1.25 0 1.2875
1.1875 0 1.35
1.25 0.0625 1.35
1.25 0.125 1.2875
1.1875 0.125 1.35
1.1875 0 1.2875
1.25 0.0625 1.2875
1.1875 0.0625 1.35
1.1875 0.125 1.2875
1.1875 0.0625 1.2875
1.375 0 1.2875
1.3125 0 1.35
1.375 0.0625 1.35
1.375 0.125 1.2875
1.3125 0.125 1.35
1.3125 0 1.2875
1.375 0.0625 1.2875
1.3125 0.0625 1.35
1.3125 0.125 1.2875
1.3125 0.0625 1.2875
1.5 0 1.2875
1.4375 0 1.35
1.5 0.0625 1.35
1.5 0.125 1.2875
1.4375 0.125 1.35
1.4375 0 1.2875
1.5 0.0625 1.2875
1.4375 0.0625 1.35
1.4375 0.125 1.2875
1.4375 0.0625 1.2875
1.625 0 1.2875
1.5625 0 1.35
1.625 0.0625 1.35
1.625 0.125 1.2875
1.5625 0.125 1.35
1.5625 0 1.2875
1.625 0.0625 1.2875
1.5625 0.0625 1.35
1.5625 0.125 1.2875
1.5625 0.0625 1.2875
1.75 0 1.2875
1.6875 0 1.35
1.75 0.0625 1.35
1.75 0.125 1.2875
1.6875 0.125 1.35
1.6875 0 1.2875
1.75 0.0625 1.2875
1.6875 0.0625 1.35
1.6875 0.125 1.2875
1.6875 0.0625 1.2875
1.875 0 1.2875
1.8125 0 1.35
1.875 0.0625 1.35
1.875 0.125 1.2875
1.8125 0.125 1.35
1.8125 0 1.2875
1.875 0.0625 1.2875
1.8125 0.0625 1.35
1.8125 0.125 1.2875
1.8125 0.0625 1.2875
2 0 1.2875
1.9375 0 1.35
2 0.0625 1.35
2 0.125 1.2875
1.9375 0.125 1.35
1.9375 0 1.2875
2 0.0625 1.2875
1.9375 0.0625 1.35
1.9375 0.125 1.2875
1.9375 0.0625 1.2875
2.125 0 1.2875
2.0625 0 1.35
2.125 0.0625 1.35
2.125 0.125 1.2875
2.0625 0.125 1.35
2.0625 0 1.2875
2.125 0.0625 1.2875
2.0625 0.0625 1.35
2.0625 0.125 1.2875
2.0625 0.0625 1.2875
2.25 0 1.2875
2.1875 0 1.35
2.25 0.0625 1.35
2.25 0.125 1.2875
2.1875 0.125 1.35
2.1875 0 1.2875
2.25 0.0625 1.2875
2.1875 0.0625 1.35
2.1875 0.125 1.2875
2.1875 0.0625 1.2875
2.375 0 1.2875
2.3125 0 1.35
2.375 0.0625 1.35
2.375 0.125 1.2875
2.3125 0.125 1.35
2.3125 0 1.2875
2.375 0.0625 1.2875
2.3125 0.0625 1.35
2.3125 0.125 1.2875
2.3125 0.0625 1.2875
2.5 0 1.2875
2.4375 0 1.35
2.5 0.0625 1.35
2.5 0.125 1.2875
2.4375 0.125 1.35
2.4375 0 1.2875
2.5 0.0625 1.2875
2.4375 0.0625 1.35
2.4375 0.125 1.2875
2.4375 0.0625 1.2875
2.625 0 1.2875
2.5625 0 1.35
2.625 0.0625 1.35
2.625 0.125 1.2875
2.5625 0.125 1.35
2.5625 0 1.2875
2.625 0.0625 1.2875
2.5625 0.0625 1.35
2.5625 0.125 1.2875
2.5625 0.0625 1.2875
2.75 0 1.2875
2.6875 0 1.35
2.75 0.0625 1.35
2.75 0.125 1.2875
2.6875 0.125 1.35
2.6875 0 1.2875
2.75 0.0625 1.2875
2.6875 0.0625 1.35
2.6875 0.125 1.2875
2.6875 0.0625 1.2875
2.875 0 1.2875
2.8125 0 1.35
2.875 0.0625 1.35
2.875 0.125 1.2875
2.8125 0.125 1.35
2.8125 0 1.2875
2.875 0.0625 1.2875
2.8125 0.0625 1.35
2.8125 0.125 1.2875
2.8125 0.0625 1.2875
3 0 1.2875
2.9375 0 1.35
3 0.0625 1.35
3 0.125 1.2875
2.9375 0.125 1.35
2.9375 0 1.2875
3 0.0625 1.2875
2.9375 0.0625 1.35
2.9375 0.125 1.2875
2.9375 0.0625 1.2875
0.125 0.1875 1.35
0 0.1875 1.35
0.125 0.25 1.2875
0.0625 0.25 1.35
0 0.25 1.2875
0.125 0.1875 1.2875
0.0625 0.1875 1.35
0 0.1875 1.2875
0.0625 0.25 1.2875
0.0625 0.1875 1.2875
0.25 0.1875 1.35
0.25 0.25 1.2875
0.1875 0.25 1.35
0.25 0.1875 1.2875
0.1875 0.1875 1.35
0.1875 0.25 1.2875
0.1875 0.1875 1.2875
0.375 0.1875 1.35
0.375 0.25 1.2875
0.3125 0.25 1.35
0.375 0.1875 1.2875
0.3125 0.1875 1.35
0.3125 0.25 1.2875
0.3125 0.1875 1.2875
0.5 0.1875 1.35
0.5 0.25 1.2875
0.4375 0.25 1.35
0.5 0.1875 1.2875
0.4375 0.1875 1.35
0.4375 0.25 1.2875
0.4375 0.1875 1.2875
0.625 0.1875 1.35
0.625 0.25 1.2875
0.5625 0.25 1.35
0.625 0.1875 1.2875
0.5625 0.1875 1.35
0.5625 0.25 1.2875
0.5625 0.1875 1.2875
0.75 0.1875 1.35
0.75 0.25 1.2875
0.6875 0.25 1.35
0.75 0.1875 1.2875
0.6875 0.1875 1.35
0.6875 0.25 1.2875
0.6875 0.1875 1.2875
0.875 0.1875 1.35
0.875 0.25 1.2875
0.8125 0.25 1.35
0.875 0.1875 1.2875
0.8125 0.1875 1.35
0.8125 0.25 1.2875
0.8125 0.1875 1.2875
1 0.1875 1.35
1 0.25 1.2875
0.9375 0.25 1.35
1 0.1875 1.2875
0.9375 0.1875 1.35
0.9375 0.25 1.2875
0.9375 0.1875 1.2875
1.125 0.1875 1.35
1.125 0.25 1.2875
1.0625 0.25 1.35
1.125 0.1875 1.2875
1.0625 0.1875 1.35
1.0625 0.25 1.2875
1.0625 0.1875 1.2875
1.25 0.1875 1.35
1.25 0.25 1.2875
1.1875 0.25 1.35
1.25 0.1875 1.2875
1.1875 0.1875 1.35
1.1875 0.25 1.2875
1.1875 0.1875 1.2875
1.375 0.1875 1.35
1.375 0.25 1.2875
1.3125 0.25 1.35
1.375 0.1875 1.2875
1.3125 0.1875 1.35
1.3125 0.25 1.2875
1.3125 0.1875 1.2875
1.5 0.1875 1.35
1.5 0.25 1.2875
1.4375 0.25 1.35
1.5 0.1875 1.2875
1.4375 0.1875 1.35
1.4375 0.25 1.2875
1.4375 0.1875 1.2875
1.625 0.1875 1.35
1.625 0.25 1.2875
1.5625 0.25 1.35
1.625 0.1875 1.2875
1.5625 0.1875 1.35
1.5625 0.25 1.2875
1.5625 0.1875 1.2875
1.75 0.1875 1.35
1.75 0.25 1.2875
1.6875 0.25 1.35
1.75 0.1875 1.2875
1.6875 0.1875 1.35
1.6875 0.25 1.2875
1.6875 0.1875 1.2875
1.875 0.1875 1.35
1.875 0.25 1.2875
1.8125 0.25 1.35
1.875 0.1875 1.2875
1.8125 0.1875 1.35
1.8125 0.25 1.2875
1.8125 0.1875 1.2875
2 0.1875 1.35
2 0.25 1.2875
1.9375 0.25 1.35
2 0.1875 1.2875
1.9375 0.1875 1.35
1.9375 0.25 1.2875
1.9375 0.1875 1.2875
2.125 0.1875 1.35
2.125 0.25 1.2875
2.0625 0.25 1.35
2.125 0.1875 1.2875
2.0625 0.1875 1.35
2.0625 0.25 1.2875
2.0625 0.1875 1.2875
2.25 0.1875 1.35
2.25 0.25 1.2875
2.1875 0.25 1.35
2.25 0.1875 1.2875
2.1875 0.1875 1.35
2.1875 0.25 1.2875
2.1875 0.1875 1.2875
2.375 0.1875 1.35
2.375 0.25 1.2875
2.3125 0.25 1.35
2.375 0.1875 1.2875
2.3125 0.1875 1.35
2.3125 0.25 1.2875
2.3125 0.1875 1.2875
2.5 0.1875 1.35
2.5 0.25 1.2875
2.4375 0.25 1.35
2.5 0.1875 1.2875
2.4375 0.1875 1.35
2.4375 0.25 1.2875
2.4375 0.1875 1.2875
2.625 0.1875 1.35
2.625 0.25 1.2875
2.5625 0.25 1.35
2.625 0.1875 1.2875
2.5625 0.1875 1.35
2.5625 0.25 1.2875
2.5625 0.1875 1.2875
2.75 0.1875 1.35
2.75 0.25 1.2875
2.6875 0.25 1.35
2.75 0.1875 1.2875
2.6875 0.1875 1.35
2.6875 0.25 1.2875
2.6875 0.1875 1.2875
2.875 0.1875 1.35
2.875 0.25 1.2875
2.8125 0.25 1.35
2.875 0.1875 1.2875
2.8125 0.1875 1.35
2.8125 0.25 1.2875
2.8125 0.1875 1.2875
3 0.1875 1.35
3 0.25 1.2875
2.9375 0.25 1.35
3 0.1875 1.2875
2.9375 0.1875 1.35
2.9375 0.25 1.2875
2.9375 0.1875 1.2875
0.125 0.3125 1.35
0 0.3125 1.35
0.125 0.375 1.2875
0.0625 0.375 1.35
0 0.375 1.2875
0.125 0.3125 1.2875
0.0625 0.3125 1.35
0 0.3125 1.2875
0.0625 0.375 1.2875
0.0625 0.3125 1.2875
0.25 0.3125 1.35
0.25 0.375 1.2875
0.1875 0.375 1.35
0.25 0.3125 1.2875
0.1875 0.3125 1.35
0.1875 0.375 1.2875
0.1875 0.3125 1.2875
0.375 0.3125 1.35
0.375 0.375 1.2875
0.3125 0.375 1.35
0.375 0.3125 1.2875
0.3125 0.3125 1.35
0.3125 0.375 1.2875
0.3125 0.3125 1.2875
0.5 0.3125 1.35
0.5 0.375 1.2875
0.4375 0.375 1.35
0.5 0.3125 1.2875
0.4375 0.3125 1.35
0.4375 0.375 1.2875
0.4375 0.3125 1.2875
0.625 0.3125 1.35
0.625 0.375 1.2875
0.5625 0.375 1.35
0.625 0.3125 1.2875
0.5625 0.3125 1.35
0.5625 0.375 1.2875
0.5625 0.3125 1.2875
0.75 0.3125 1.35
0.75 0.375 1.2875
0.6875 0.375 1.35
0.75 0.3125 1.2875
0.6875 0.3125 1.35
0.6875 0.375 1.2875
0.6875 0.3125 1.2875
0.875 0.3125 1.35
0.875 0.375 1.2875
0.8125 0.375 1.35
0.875 0.3125 1.2875
0.8125 0.3125 1.35
0.8125 0.375 1.2875
0.8125 0.3125 1.2875
1 0.3125 1.35
1 0.375 1.2875
0.9375 0.375 1.35
1 0.3125 1.2875
0.9375 0.3125 1.35
0.9375 0.375 1.2875
0.9375 0.3125 1.2875
1.125 0.3125 1.35
1.125 0.375 1.2875
1.0625 0.375 1.35
1.125 0.3125 1.2875
1.0625 0.3125 1.35
1.0625 0.375 1.2875
1.0625 0.3125 1.2875
1.25 0.3125 1.35
1.25 0.375 1.2875
1.1875 0.375 1.35
1.25 0.3125 1.2875
1.1875 0.3125 1.35
1.1875 0.375 1.2875
1.1875 0.3125 1.2875
1.375 0.3125 1.35
1.375 0.375 1.2875
1.3125 0.375 1.35
1.375 0.3125 1.2875
1.3125 0.3125 1.35
1.3125 0.375 1.2875
1.3125 0.3125 1.2875
1.5 0.3125 1.35
1.5 0.375 1.2875
1.4375 0.375 1.35
1.5 0.3125 1.2875
1.4375 0.3125 1.35
1.4375 0.375 1.2875
1.4375 0.3125 1.2875
1.625 0.3125 1.35
1.625 0.375 1.2875
1.5625 0.375 1.35
1.625 0.3125 1.2875
1.5625 0.3125 1.35
1.5625 0.375 1.2875
1.5625 0.3125 1.2875
1.75 0.3125 1.35
1.75 0.375 1.2875
1.6875 0.375 1.35
1.75 0.3125 1.2875
1.6875 0.3125 1.35
1.6875 0.375 1.2875
1.6875 0.3125 1.2875
1.875 0.3125 1.35
1.875 0.375 1.2875
1.8125 0.375 1.35
1.875 0.3125 1.2875
1.8125 0.3125 1.35
1.8125 0.375 1.2875
1.8125 0.3125 1.2875
2 0.3125 1.35
2 0.375 1.2875
1.9375 0.375 1.35
2 0.3125 1.2875
1.9375 0.3125 1.35
1.9375 0.375 1.2875
1.9375 0.3125 1.2875
2.125 0.3125 1.35
2.125 0.375 1.2875
2.0625 0.375 1.35
2.125 0.3125 1.2875
2.0625 0.3125 1.35
2.0625 0.375 1.2875
2.0625 0.3125 1.2875
2.25 0.3125 1.35
2.25 0.375 1.2875
2.1875 0.375 1.35
2.25 0.3125 1.2875
2.1875 0.3125 1.35
2.1875 0.375 1.2875
2.1875 0.3125 1.2875
2.375 0.3125 1.35
2.375 0.375 1.2875
2.3125 0.375 1.35
2.375 0.3125 1.2875
2.3125 0.3125 1.35
2.3125 0.375 1.2875
2.3125 0.3125 1.2875
2.5 0.3125 1.35
2.5 0.375 1.2875
2.4375 0.375 1.35
2.5 0.3125 1.2875
2.4375 0.3125 1.35
2.4375 0.375 1.2875
2.4375 0.3125 1.2875
2.625 0.3125 1.35
2.625 0.375 1.2875
2.5625 0.375 1.35
2.625 0.3125 1.2875
2.5625 0.3125 1.35
2.5625 0.375 1.2875
2.5625 0.3125 1.2875
2.75 0.3125 1.35
2.75 0.375 1.2875
2.6875 0.375 1.35
2.75 0.3125 1.2875
2.6875 0.3125 1.35
2.6875 0.375 1.2875
2.6875 0.3125 1.2875
2.875 0.3125 1.35
2.875 0.375 1.2875
2.8125 0.375 1.35
2.875 0.3125 1.2875
2.8125 0.3125 1.35
2.8125 0.375 1.2875
2.8125 0.3125 1.2875
3 0.3125 1.35
3 0.375 1.2875
2.9375 0.375 1.35
3 0.3125 1.2875
2.9375 0.3125 1.35
2.9375 0.375 1.2875
2.9375 0.3125 1.2875
0.125 0.4375 1.35
0 0.4375 1.35
0.125 0.5 1.2875
0.0625 0.5 1.35
0 0.5 1.2875
0.125 0.4375 1.2875
0.0625 0.4375 1.35
0 0.4375 1.2875
0.0625 0.5 1.2875
0.0625 0.4375 1.2875
0.25 0.4375 1.35
0.25 0.5 1.2875
0.1875 0.5 1.35
0.25 0.4375 1.2875
0.1875 0.4375 1.35
0.1875 0.5 1.2875
0.1875 0.4375 1.2875
0.375 0.4375 1.35
0.375 0.5 1.2875
0.3125 0.5 1.35
0.375 0.4375 1.2875
0.3125 0.4375 1.35
0.3125 0.5 1.2875
0.3125 0.4375 1.2875
0.5 0.4375 1.35
0.5 0.5 1.2875
0.4375 0.5 1.35
0.5 0.4375 1.2875
0.4375 0.4375 1.35
0.4375 0.5 1.2875
0.4375 0.4375 1.2875
0.625 0.4375 1.35
0.625 0.5 1.2875
0.5625 0.5 1.35
0.625 0.4375 1.2875
0.5625 0.4375 1.35
0.5625 0.5 1.2875
0.5625 0.4375 1.2875
0.75 0.4375 1.35
0.75 0.5 1.2875
0.6875 0.5 1.35
0.75 0.4375 1.2875
0.6875 0.4375 1.35
0.6875 0.5 1.2875
0.6875 0.4375 1.2875
0.875 0.4375 1.35
0.875 0.5 1.2875
0.8125 0.5 1.35
0.875 0.4375 1.2875
0.8125 0.4375 1.35
0.8125 0.5 1.2875
0.8125 0.4375 1.2875
1 0.4375 1.35
1 0.5 1.2875
0.9375 0.5 1.35
1 0.4375 1.2875
0.9375 0.4375 1.35
0.9375 0.5 1.2875
0.9375 0.4375 1.2875
1.125 0.4375 1.35
1.125 0.5 1.2875
1.0625 0.5 1.35
1.125 0.4375 1.2875
1.0625 0.4375 1.35
1.0625 0.5 1.2875
1.0625 0.4375 1.2875
1.25 0.4375 1.35
1.25 0.5 1.2875
1.1875 0.5 1.35
1.25 0.4375 1.2875
1.1875 0.4375 1.35
1.1875 0.5 1.2875
1.1875 0.4375 1.2875
1.375 0.4375 1.35
1.375 0.5 1.2875
1.3125 0.5 1.35
1.375 0.4375 1.2875
1.3125 0.4375 1.35
1.3125 0.5 1.2875
1.3125 0.4375 1.2875
1.5 0.4375 1.35
1.5 0.5 1.2875
1.4375 0.5 1.35
1.5 0.4375 1.2875
1.4375 0.4375 1.35
1.4375 0.5 1.2875
1.4375 0.4375 1.2875
1.625 0.4375 1.35
1.625 0.5 1.2875
1.5625 0.5 1.35
1.625 0.4375 1.2875
1.5625 0.4375 1.35
1.5625 0.5 1.2875
1.5625 0.4375 1.2875
1.75 0.4375 1.35
1.75 0.5 1.2875
1.6875 0.5 1.35
1.75 0.4375 1.2875
1.6875 0.4375 1.35
1.6875 0.5 1.2875
1.6875 0.4375 1.2875
1.875 0.4375 1.35
1.875 0.5 1.2875
1.8125 0.5 1.35
1.875 0.4375 1.2875
1.8125 0.4375 1.35
1.8125 0.5 1.2875
1.8125 0.4375 1.2875
2 0.4375 1.35
2 0.5 1.2875
1.9375 0.5 1.35
2 0.4375 1.2875
1.9375 0.4375 1.35
1.9375 0.5 1.2875
1.9375 0.4375 1.2875
2.125 0.4375 1.35
2.125 0.5 1.2875
2.0625 0.5 1.35
2.125 0.4375 1.2875
2.0625 0.4375 1.35
2.0625 0.5 1.2875
2.0625 0.4375 1.2875
2.25 0.4375 1.35
2.25 0.5 1.2875
2.1875 0.5 1.35
2.25 0.4375 1.2875
2.1875 0.4375 1.35
2.1875 0.5 1.2875
2.1875 0.4375 1.2875
2.375 0.4375 1.35
2.375 0.5 1.2875
2.3125 0.5 1.35
2.375 0.4375 1.2875
2.3125 0.4375 1.35
2.3125 0.5 1.2875
2.3125 0.4375 1.2875
2.5 0.4375 1.35
2.5 0.5 1.2875
2.4375 0.5 1.35
2.5 0.4375 1.2875
2.4375 0.4375 1.35
2.4375 0.5 1.2875
2.4375 0.4375 1.2875
2.625 0.4375 1.35
2.625 0.5 1.2875
2.5625 0.5 1.35
2.625 0.4375 1.2875
2.5625 0.4375 1.35
2.5625 0.5 1.2875
2.5625 0.4375 1.2875
2.75 0.4375 1.35
2.75 0.5 1.2875
2.6875 0.5 1.35
2.75 0.4375 1.2875
2.6875 0.4375 1.35
2.6875 0.5 1.2875
2.6875 0.4375 1.2875
2.875 0.4375 1.35
2.875 0.5 1.2875
2.8125 0.5 1.35
2.875 0.4375 1.2875
2.8125 0.4375 1.35
2.8125 0.5 1.2875
2.8125 0.4375 1.2875
3 0.4375 1.35
3 0.5 1.2875
2.9375 0.5 1.35
3 0.4375 1.2875
2.9375 0.4375 1.35
2.9375 0.5 1.2875
2.9375 0.4375 1.2875
0.125 0.5625 1.35
0 0.5625 1.35
0.125 0.625 1.2875
0.0625 0.625 1.35
0 0.625 1.2875
0.125 0.5625 1.2875
0.0625 0.5625 1.35
0 0.5625 1.2875
0.0625 0.625 1.2875
0.0625 0.5625 1.2875
0.25 0.5625 1.35
0.25 0.625 1.2875
0.1875 0.625 1.35
0.25 0.5625 1.2875
0.1875 0.5625 1.35
0.1875 0.625 1.2875
0.1875 0.5625 1.2875
0.375 0.5625 1.35
0.375 0.625 1.2875
0.3125 0.625 1.35
0.375 0.5625 1.2875
0.3125 0.5625 1.35
0.3125 0.625 1.2875
0.3125 0.5625 1.2875
0.5 0.5625 1.35
0.5 0.625 1.2875
0.4375 0.625 1.35
0.5 0.5625 1.2875
0.4375 0.5625 1.35
0.4375 0.625 1.2875
0.4375 0.5625 1.2875
0.625 0.5625 1.35
0.625 0.625 1.2875
0.5625 0.625 1.35
0.625 0.5625 1.2875
0.5625 0.5625 1.35
0.5625 0.625 1.2875
0.5625 0.5625 1.2875
0.75 0.5625 1.35
0.75 0.625 1.2875
0.6875 0.625 1.35
0.75 0.5625 1.2875
0.6875 0.5625 1.35
0.6875 0.625 1.2875
0.6875 0.5625 1.2875
0.875 0.5625 1.35
0.875 0.625 1.2875
0.8125 0.625 1.35
0.875 0.5625 1.2875
0.8125 0.5625 1.35
0.8125 0.625 1.2875
0.8125 0.5625 1.2875
1 0.5625 1.35
1 0.625 1.2875
0.9375 0.625 1.35
1 0.5625 1.2875
0.9375 0.5625 1.35
0.9375 0.625 1.2875
0.9375 0.5625 1.2875
1.125 0.5625 1.35
1.125 0.625 1.2875
1.0625 0.625 1.35
1.125 0.5625 1.2875
1.0625 0.5625 1.35
1.0625 0.625 1.2875
1.0625 0.5625 1.2875
1.25 0.5625 1.35
1.25 0.625 1.2875
1.1875 0.625 1.35
1.25 0.5625 1.2875
1.1875 0.5625 1.35
1.1875 0.625 1.2875
1.1875 0.5625 1.2875
1.375 0.5625 1.35
1.375 0.625 1.2875
1.3125 0.625 1.35
1.375 0.5625 1.2875
1.3125 0.5625 1.35
1.3125 0.625 1.2875
1.3125 0.5625 1.2875
1.5 0.5625 1.35
1.5 0.625 1.2875
1.4375 0.625 1.35
1.5 0.5625 1.2875
1.4375 0.5625 1.35
1.4375 0.625 1.2875
1.4375 0.5625 1.2875
1.625 0.5625 1.35
1.625 0.625 1.2875
1.5625 0.625 1.35
1.625 0.5625 1.2875
1.5625 0.5625 1.35
1.5625 0.625 1.2875
1.5625 0.5625 1.2875
1.75 0.5625 1.35
1.75 0.625 1.2875
1.6875 0.625 1.35
1.75 0.5625 1.2875
1.6875 0.5625 1.35
1.6875 0.625 1.2875
1.6875 0.5625 1.2875
1.875 0.5625 1.35
1.875 0.625 1.2875
1.8125 0.625 1.35
1.875 0.5625 1.2875
1.8125 0.5625 1.35
1.8125 0.625 1.2875
1.8125 0.5625 1.2875
2 0.5625 1.35
2 0.625 1.2875
1.9375 0.625 1.35
2 0.5625 1.2875
1.9375 0.5625 1.35
1.9375 0.625 1.2875
1.9375 0.5625 1.2875
2.125 0.5625 1.35
2.125 0.625 1.2875
2.0625 0.625 1.35
2.125 0.5625 1.2875
2.0625 0.5625 1.35
2.0625 0.625 1.2875
2.0625 0.5625 1.2875
2.25 0.5625 1.35
2.25 0.625 1.2875
2.1875 0.625 1.35
2.25 0.5625 1.2875
2.1875 0.5625 1.35
2.1875 0.625 1.2875
2.1875 0.5625 1.2875
2.375 0.5625 1.35
2.375 0.625 1.2875
2.3125 0.625 1.35
2.375 0.5625 1.2875
2.3125 0.5625 1.35
2.3125 0.625 1.2875
2.3125 0.5625 1.2875
2.5 0.5625 1.35
2.5 0.625 1.2875
2.4375 0.625 1.35
2.5 0.5625 1.2875
2.4375 0.5625 1.35
2.4375 0.625 1.2875
2.4375 0.5625 1.2875
2.625 0.5625 1.35
2.625 0.625 1.2875
2.5625 0.625 1.35
2.625 0.5625 1.2875
2.5625 0.5625 1.35
2.5625 0.625 1.2875
2.5625 0.5625 1.2875
2.75 0.5625 1.35
2.75 0.625 1.2875
2.6875 0.625 1.35
2.75 0.5625 1.2875
2.6875 0.5625 1.35
2.6875 0.625 1.2875
2.6875 0.5625 1.2875
2.875 0.5625 1.35
2.875 0.625 1.2875
2.8125 0.625 1.35
2.875 0.5625 1.2875
2.8125 0.5625 1.35
2.8125 0.625 1.2875
2.8125 0.5625 1.2875
3 0.5625 1.35
3 0.625 1.2875
2.9375 0.625 1.35
3 0.5625 1.2875
2.9375 0.5625 1.35
2.9375 0.625 1.2875
2.9375 0.5625 1.2875
0.125 0.6875 1.35
0 0.6875 1.35
0.125 0.75 1.2875
0.0625 0.75 1.35
0 0.75 1.2875
0.125 0.6875 1.2875
0.0625 0.6875 1.35
0 0.6875 1.2875
0.0625 0.75 1.2875
0.0625 0.6875 1.2875
0.25 0.6875 1.35
0.25 0.75 1.2875
0.1875 0.75 1.35
0.25 0.6875 1.2875
0.1875 0.6875 1.35
0.1875 0.75 1.2875
0.1875 0.6875 1.2875
0.375 0.6875 1.35
0.375 0.75 1.2875
0.3125 0.75 1.35
0.375 0.6875 1.2875
0.3125 0.6875 1.35
0.3125 0.75 1.2875
0.3125 0.6875 1.2875
0.5 0.6875 1.35
0.5 0.75 1.2875
0.4375 0.75 1.35
0.5 0.6875 1.2875
0.4375 0.6875 1.35
0.4375 0.75 1.2875
0.4375 0.6875 1.2875
0.625 0.6875 1.35
0.625 0.75 1.2875
0.5625 0.75 1.35
0.625 0.6875 1.2875
0.5625 0.6875 1.35
0.5625 0.75 1.2875
0.5625 0.6875 1.2875
0.75 0.6875 1.35
0.75 0.75 1.2875
0.6875 0.75 1.35
0.75 0.6875 1.2875
0.6875 0.6875 1.35
0.6875 0.75 1.2875
0.6875 0.6875 1.2875
0.875 0.6875 1.35
0.875 0.75 1.2875
0.8125 0.75 1.35
0.875 0.6875 1.2875
0.8125 0.6875 1.35
0.8125 0.75 1.2875
0.8125 0.6875 1.2875
1 0.6875 1.35
1 0.75 1.2875
0.9375 0.75 1.35
1 0.6875 1.2875
0.9375 0.6875 1.35
0.9375 0.75 1.2875
0.9375 0.6875 1.2875
1.125 0.6875 1.35
1.125 0.75 1.2875
1.0625 0.75 1.35
1.125 0.6875 1.2875
1.0625 0.6875 1.35
1.0625 0.75 1.2875
1.0625 0.6875 1.2875
1.25 0.6875 1.35
1.25 0.75 1.2875
1.1875 0.75 1.35
1.25 0.6875 1.2875
1.1875 0.6875 1.35
1.1875 0.75 1.2875
1.1875 0.6875 1.2875
1.375 0.6875 1.35
1.375 0.75 1.2875
1.3125 0.75 1.35
1.375 0.6875 1.2875
1.3125 0.6875 1.35
1.3125 0.75 1.2875
1.3125 0.6875 1.2875
1.5 0.6875 1.35
1.5 0.75 1.2875
1.4375 0.75 1.35
1.5 0.6875 1.2875
1.4375 0.6875 1.35
1.4375 0.75 1.2875
1.4375 0.6875 1.2875
1.625 0.6875 1.35
1.625 0.75 1.2875
1.5625 0.75 1.35
1.625 0.6875 1.2875
1.5625 0.6875 1.35
1.5625 0.75 1.2875
1.5625 0.6875 1.2875
1.75 0.6875 1.35
1.75 0.75 1.2875
1.6875 0.75 1.35
1.75 0.6875 1.2875
1.6875 0.6875 1.35
1.6875 0.75 1.2875
1.6875 0.6875 1.2875
1.875 0.6875 1.35
1.875 0.75 1.2875
1.8125 0.75 1.35
1.875 0.6875 1.2875
1.8125 0.6875 1.35
1.8125 0.75 1.2875
1.8125 0.6875 1.2875
2 0.6875 1.35
2 0.75 1.2875
1.9375 0.75 1.35
2 0.6875 1.2875
1.9375 0.6875 1.35
1.9375 0.75 1.2875
1.9375 0.6875 1.2875
2.125 0.6875 1.35
2.125 0.75 1.2875
2.0625 0.75 1.35
2.125 0.6875 1.2875
2.0625 0.6875 1.35
2.0625 0.75 1.2875
2.0625 0.6875 1.2875
2.25 0.6875 1.35
2.25 0.75 1.2875
2.1875 0.75 1.35
2.25 0.6875 1.2875
2.1875 0.6875 1.35
2.1875 0.75 1.2875
2.1875 0.6875 1.2875
2.375 0.6875 1.35
2.375 0.75 1.2875
2.3125 0.75 1.35
2.375 0.6875 1.2875
2.3125 0.6875 1.35
2.3125 0.75 1.2875
2.3125 0.6875 1.2875
2.5 0.6875 1.35
2.5 0.75 1.2875
2.4375 0.75 1.35
2.5 0.6875 1.2875
2.4375 0.6875 1.35
2.4375 0.75 1.2875
2.4375 0.6875 1.2875
2.625 0.6875 1.35
2.625 0.75 1.2875
2.5625 0.75 1.35
2.625 0.6875 1.2875
2.5625 0.6875 1.35
2.5625 0.75 1.2875
2.5625 0.6875 1.2875
2.75 0.6875 1.35
2.75 0.75 1.2875
2.6875 0.75 1.35
2.75 0.6875 1.2875
2.6875 0.6875 1.35
2.6875 0.75 1.2875
2.6875 0.6875 1.2875
2.875 0.6875 1.35
2.875 0.75 1.2875
2.8125 0.75 1.35
2.875 0.6875 1.2875
2.8125 0.6875 1.35
2.8125 0.75 1.2875
2.8125 0.6875 1.2875
3 0.6875 1.35
3 0.75 1.2875
2.9375 0.75 1.35
3 0.6875 1.2875
2.9375 0.6875 1.35
2.9375 0.75 1.2875
2.9375 0.6875 1.2875
0.125 0.8125 1.35
0 0.8125 1.35
0.125 0.875 1.2875
0.0625 0.875 1.35
0 0.875 1.2875
0.125 0.8125 1.2875
0.0625 0.8125 1.35
0 0.8125 1.2875
0.0625 0.875 1.2875
0.0625 0.8125 1.2875
0.25 0.8125 1.35
0.25 0.875 1.2875
0.1875 0.875 1.35
0.25 0.8125 1.2875
0.1875 0.8125 1.35
0.1875 0.875 1.2875
0.1875 0.8125 1.2875
0.375 0.8125 1.35
0.375 0.875 1.2875
0.3125 0.875 1.35
0.375 0.8125 1.2875
0.3125 0.8125 1.35
0.3125 0.875 1.2875
0.3125 0.8125 1.2875
0.5 0.8125 1.35
0.5 0.875 1.2875
0.4375 0.875 1.35
0.5 0.8125 1.2875
0.4375 0.8125 1.35
0.4375 0.875 1.2875
0.4375 0.8125 1.2875
0.625 0.8125 1.35
0.625 0.875 1.2875
0.5625 0.875 1.35
0.625 0.8125 1.2875
0.5625 0.8125 1.35
0.5625 0.875 1.2875
0.5625 0.8125 1.2875
0.75 0.8125 1.35
0.75 0.875 1.2875
0.6875 0.875 1.35
0.75 0.8125 1.2875
0.6875 0.8125 1.35
0.6875 0.875 1.2875
0.6875 0.8125 1.2875
0.875 0.8125 1.35
0.875 0.875 1.2875
0.8125 0.875 1.35
0.875 0.8125 1.2875
0.8125 0.8125 1.35
0.8125 0.875 1.2875
0.8125 0.8125 1.2875
1 0.8125 1.35
1 0.875 1.2875
0.9375 0.875 1.35
1 0.8125 1.2875
0.9375 0.8125 1.35
0.9375 0.875 1.2875
0.9375 0.8125 1.2875
1.125 0.8125 1.35
1.125 0.875 1.2875
1.0625 0.875 1.35
1.125 0.8125 1.2875
1.0625 0.8125 1.35
1.0625 0.875 1.2875
1.0625 0.8125 1.2875
1.25 0.8125 1.35
1.25 0.875 1.2875
1.1875 0.875 1.35
1.25 0.8125 1.2875
1.1875 0.8125 1.35
1.1875 0.875 1.2875
1.1875 0.8125 1.2875
1.375 0.8125 1.35
1.375 0.875 1.2875
1.3125 0.875 1.35
1.375 0.8125 1.2875
1.3125 0.8125 1.35
1.3125 0.875 1.2875
1.3125 0.8125 1.2875
1.5 0.8125 1.35
1.5 0.875 1.2875
1.4375 0.875 1.35
1.5 0.8125 1.2875
1.4375 0.8125 1.35
1.4375 0.875 1.2875
1.4375 0.8125 1.2875
1.625 0.8125 1.35
1.625 0.875 1.2875
1.5625 0.875 1.35
1.625 0.8125 1.2875
1.5625 0.8125 1.35
1.5625 0.875 1.2875
1.5625 0.8125 1.2875
1.75 0.8125 1.35
1.75 0.875 1.2875
1.6875 0.875 1.35
1.75 0.8125 1.2875
1.6875 0.8125 1.35
1.6875 0.875 1.2875
1.6875 0.8125 1.2875
1.875 0.8125 1.35
1.875 0.875 1.2875
1.8125 0.875 1.35
1.875 0.8125 1.2875
1.8125 0.8125 1.35
1.8125 0.875 1.2875
1.8125 0.8125 1.2875
2 0.8125 1.35
2 0.875 1.2875
1.9375 0.875 1.35
2 0.8125 1.2875
1.9375 0.8125 1.35
1.9375 0.875 1.2875
1.9375 0.8125 1.2875
2.125 0.8125 1.35
2.125 0.875 1.2875
2.0625 0.875 1.35
2.125 0.8125 1.2875
2.0625 0.8125 1.35
2.0625 0.875 1.2875
2.0625 0.8125 1.2875
2.25 0.8125 1.35
2.25 0.875 1.2875
2.1875 0.875 1.35
2.25 0.8125 1.2875
2.1875 0.8125 1.35
2.1875 0.875 1.2875
2.1875 0.8125 1.2875
2.375 0.8125 1.35
2.375 0.875 1.2875
2.3125 0.875 1.35
2.375 0.8125 1.2875
2.3125 0.8125 1.35
2.3125 0.875 1.2875
2.3125 0.8125 1.2875
2.5 0.8125 1.35
2.5 0.875 1.2875
2.4375 0.875 1.35
2.5 0.8125 1.2875
2.4375 0.8125 1.35
2.4375 0.875 1.2875
2.4375 0.8125 1.2875
2.625 0.8125 1.35
2.625 0.875 1.2875
2.5625 0.875 1.35
2.625 0.8125 1.2875
2.5625 0.8125 1.35
2.5625 0.875 1.2875
2.5625 0.8125 1.2875
2.75 0.8125 1.35
2.75 0.875 1.2875
2.6875 0.875 1.35
2.75 0.8125 1.2875
2.6875 0.8125 1.35
2.6875 0.875 1.2875
2.6875 0.8125 1.2875
2.875 0.8125 1.35
2.875 0.875 1.2875
2.8125 0.875 1.35
2.875 0.8125 1.2875
2.8125 0.8125 1.35
2.8125 0.875 1.2875
2.8125 0.8125 1.2875
3 0.8125 1.35
3 0.875 1.2875
2.9375 0.875 1.35
3 0.8125 1.2875
2.9375 0.8125 1.35
2.9375 0.875 1.2875
2.9375 0.8125 1.2875
0.125 0.9375 1.35
0 0.9375 1.35
0.125 1 1.2875
0.0625 1 1.35
0 1 1.2875
0.125 0.9375 1.2875
0.0625 0.9375 1.35
0 0.9375 1.2875
0.0625 1 1.2875
0.0625 0.9375 1.2875
0.25 0.9375 1.35
0.25 1 1.2875
0.1875 1 1.35
0.25 0.9375 1.2875
0.1875 0.9375 1.35
0.1875 1 1.2875
0.1875 0.9375 1.2875
0.375 0.9375 1.35
0.375 1 1.2875
0.3125 1 1.35
0.375 0.9375 1.2875
0.3125 0.9375 1.35
0.3125 1 1.2875
0.3125 0.9375 1.2875
0.5 0.9375 1.35
0.5 1 1.2875
0.4375 1 1.35
0.5 0.9375 1.2875
0.4375 0.9375 1.35
0.4375 1 1.2875
0.4375 0.9375 1.2875
0.625 0.9375 1.35
0.625 1 1.2875
0.5625 1 1.35
0.625 0.9375 1.2875
0.5625 0.9375 1.35
0.5625 1 1.2875
0.5625 0.9375 1.2875
0.75 0.9375 1.35
0.75 1 1.2875
0.6875 1 1.35
0.75 0.9375 1.2875
0.6875 0.9375 1.35
0.6875 1 1.2875
0.6875 0.9375 1.2875
0.875 0.9375 1.35
0.875 1 1.2875
0.8125 1 1.35
0.875 0.9375 1.2875
0.8125 0.9375 1.35
0.8125 1 1.2875
0.8125 0.9375 1.2875
1 0.9375 1.35
1 1 1.2875
0.9375 1 1.35
1 0.9375 1.2875
0.9375 0.9375 1.35
0.9375 1 1.2875
0.9375 0.9375 1.2875
1.125 0.9375 1.35
1.125 1 1.2875
1.0625 1 1.35
1.125 0.9375 1.2875
1.0625 0.9375 1.35
1.0625 1 1.2875
1.0625 0.9375 1.2875
1.25 0.9375 1.35
1.25 1 1.2875
1.1875 1 1.35
1.25 0.9375 1.2875
1.1875 0.9375 1.35
1.1875 1 1.2875
1.1875 0.9375 1.2875
1.375 0.9375 1.35
1.375 1 1.2875
1.3125 1 1.35
1.375 0.9375 1.2875
1.3125 0.9375 1.35
1.3125 1 1.2875
1.3125 0.9375 1.2875
1.5 0.9375 1.35
1.5 1 1.2875
1.4375 1 1.35
1.5 0.9375 1.2875
1.4375 0.9375 1.35
1.4375 1 1.2875
1.4375 0.9375 1.2875
1.625 0.9375 1.35
1.625 1 1.2875
1.5625 1 1.35
1.625 0.9375 1.2875
1.5625 0.9375 1.35
1.5625 1 1.2875
1.5625 0.9375 1.2875
1.75 0.9375 1.35
1.75 1 1.2875
1.6875 1 1.35
1.75 0.9375 1.2875
1.6875 0.9375 1.35
1.6875 1 1.2875
1.6875 0.9375 1.2875
1.875 0.9375 1.35
1.875 1 1.2875
1.8125 1 1.35
1.875 0.9375 1.2875
1.8125 0.9375 1.35
1.8125 1 1.2875
1.8125 0.9375 1.2875
2 0.9375 1.35
2 1 1.2875
1.9375 1 1.35
2 0.9375 1.2875
1.9375 0.9375 1.35
1.9375 1 1.2875
1.9375 0.9375 1.2875
2.125 0.9375 1.35
2.125 1 1.2875
2.0625 1 1.35
2.125 0.9375 1.2875
2.0625 0.9375 1.35
2.0625 1 1.2875
2.0625 0.9375 1.2875
2.25 0.9375 1.35
2.25 1 1.2875
2.1875 1 1.35
2.25 0.9375 1.2875
2.1875 0.9375 1.35
2.1875 1 1.2875
2.1875 0.9375 1.2875
2.375 0.9375 1.35
2.375 1 1.2875
2.3125 1 1.35
2.375 0.9375 1.2875
2.3125 0.9375 1.35
2.3125 1 1.2875
2.3125 0.9375 1.2875
2.5 0.9375 1.35
2.5 1 1.2875
2.4375 1 1.35
2.5 0.9375 1.2875
2.4375 0.9375 1.35
2.4375 1 1.2875
2.4375 0.9375 1.2875
2.625 0.9375 1.35
2.625 1 1.2875
2.5625 1 1.35
2.625 0.9375 1.2875
2.5625 0.9375 1.35
2.5625 1 1.2875
2.5625 0.9375 1.2875
2.75 0.9375 1.35
2.75 1 1.2875
2.6875 1 1.35
2.75 0.9375 1.2875
2.6875 0.9375 1.35
2.6875 1 1.2875
2.6875 0.9375 1.2875
2.875 0.9375 1.35
2.875 1 1.2875
2.8125 1 1.35
2.875 0.9375 1.2875
2.8125 0.9375 1.35
2.8125 1 1.2875
2.8125 0.9375 1.2875
3 0.9375 1.35
3 1 1.2875
2.9375 1 1.35
3 0.9375 1.2875
2.9375 0.9375 1.35
2.9375 1 1.2875
2.9375 0.9375 1.2875
0.125 0 1.4125
0.0625 0 1.475
0 0 1.4125
0.125 0.0625 1.475
0 0.0625 1.475
0.125 0.125 1.4125
0.0625 0.125 1.475
0 0.125 1.4125
0.0625 0 1.4125
0.125 0.0625 1.4125
0.0625 0.0625 1.475
0 0.0625 1.4125
0.0625 0.125 1.4125
0.0625 0.0625 1.4125
0.25 0 1.4125
0.1875 0 1.475
0.25 0.0625 1.475
0.25 0.125 1.4125
0.1875 0.125 1.475
0.1875 0 1.4125
0.25 0.0625 1.4125
0.1875 0.0625 1.475
0.1875 0.125 1.4125
0.1875 0.0625 1.4125
0.375 0 1.4125
0.3125 0 1.475
0.375 0.0625 1.475
0.375 0.125 1.4125
0.3125 0.125 1.475
0.3125 0 1.4125
0.375 0.0625 1.4125
0.3125 0.0625 1.475
0.3125 0.125 1.4125
0.3125 0.0625 1.4125
0.5 0 1.4125
0.4375 0 1.475
0.5 0.0625 1.475
0.5 0.125 1.4125
0.4375 0.125 1.475
0.4375 0 1.4125
0.5 0.0625 1.4125
0.4375 0.0625 1.475
0.4375 0.125 1.4125
0.4375 0.0625 1.4125
0.625 0 1.4125
0.5625 0 1.475
0.625 0.0625 1.475
0.625 0.125 1.4125
0.5625 0.125 1.475
0.5625 0 1.4125
0.625 0.0625 1.4125
0.5625 0.0625 1.475
0.5625 0.125 1.4125
0.5625 0.0625 1.4125
0.75 0 1.4125
0.6875 0 1.475
0.75 0.0625 1.475
0.75 0.125 1.4125
0.6875 0.125 1.475
0.6875 0 1.4125
0.75 0.0625 1.4125
0.6875 0.0625 1.475
0.6875 0.125 1.4125
0.6875 0.0625 1.4125
0.875 0 1.4125
0.8125 0 1.475
0.875 0.0625 1.475
0.875 0.125 1.4125
0.8125 0.125 1.475
0.8125 0 1.4125
0.875 0.0625 1.4125
0.8125 0.0625 1.475
0.8125 0.125 1.4125
0.8125 0.0625 1.4125
1 0 1.4125
0.9375 0 1.475
1 0.0625 1.475
1 0.125 1.4125
0.9375 0.125 1.475
0.9375 0 1.4125
1 0.0625 1.4125
0.9375 0.0625 1.475
0.9375 0.125 1.4125
0.9375 0.0625 1.4125
1.125 0 1.4125
1.0625 0 1.475
1.125 0.0625 1.475
1.125 0.125 1.4125
1.0625 0.125 1.475
1.0625 0 1.4125
1.125 0.0625 1.4125
1.0625 0.0625 1.475
1.0625 0.125 1.4125
1.0625 0.0625 1.4125
1.25 0 1.4125
1.1875 0 1.475
1.25 0.0625 1.475
1.25 0.125 1.4125
1.1875 0.125 1.475
1.1875 0 1.4125
1.25 0.0625 1.4125
1.1875 0.0625 1.475
1.1875 0.125 1.4125
1.1875 0.0625 1.4125
1.375 0 1.4125
1.3125 0 1.475
1.375 0.0625 1.475
1.375 0.125 1.4125
1.3125 0.125 1.475
1.3125 0 1.4125
1.375 0.0625 1.4125
1.3125 0.0625 1.475
1.3125 0.125 1.4125
1.3125 0.0625 1.4125
1.5 0 1.4125
1.4375 0 1.475
1.5 0.0625 1.475
1.5 0.125 1.4125
1.4375 0.125 1.475
1.4375 0 1.4125
1.5 0.0625 1.4125
1.4375 0.0625 1.475
1.4375 0.125 1.4125
1.4375 0.0625 1.4125
1.625 0 1.4125
1.5625 0 1.475
1.625 0.0625 1.475
1.625 0.125 1.4125
1.5625 0.125 1.475
1.5625 0 1.4125
1.625 0.0625 1.4125
1.5625 0.0625 1.475
1.5625 0.125 1.4125
1.5625 0.0625 1.4125
1.75 0 1.4125
1.6875 0 1.475
1.75 0.0625 1.475
1.75 0.125 1.4125
1.6875 0.125 1.475
1.6875 0 1.4125
1.75 0.0625 1.4125
1.6875 0.0625 1.475
1.6875 0.125 1.4125
1.6875 0.0625 1.4125
1.875 0 1.4125
1.8125 0 1.475
1.875 0.0625 1.475
1.875 0.125 1.4125
1.8125 0.125 1.475
1.8125 0 1.4125
1.875 0.0625 1.4125
1.8125 0.0625 1.475
1.8125 0.125 1.4125
1.8125 0.0625 1.4125
2 0 1.4125
1.9375 0 1.475
2 0.0625 1.475
2 0.125 1.4125
1.9375 0.125 1.475
1.9375 0 1.4125
2 0.0625 1.4125
1.9375 0.0625 1.475
1.9375 0.125 1.4125
1.9375 0.0625 1.4125
2.125 0 1.4125
2.0625 0 1.475
2.125 0.0625 1.475
2.125 0.125 1.4125
2.0625 0.125 1.475
2.0625 0 1.4125
2.125 0.0625 1.4125
2.0625 0.0625 1.475
2.0625 0.125 1.4125
2.0625 0.0625 1.4125
2.25 0 1.4125
2.1875 0 1.475
2.25 0.0625 1.475
2.25 0.125 1.4125
2.1875 0.125 1.475
2.1875 0 1.4125
2.25 0.0625 1.4125
2.1875 0.0625 1.475
2.1875 0.125 1.4125
2.1875 0.0625 1.4125
2.375 0 1.4125
2.3125 0 1.475
2.375 0.0625 1.475
2.375 0.125 1.4125
2.3125 0.125 1.475
2.3125 0 1.4125
2.375 0.0625 1.4125
2.3125 0.0625 1.475
2.3125 0.125 1.4125
2.3125 0.0625 1.4125
2.5 0 1.4125
2.4375 0 1.475
2.5 0.0625 1.475
2.5 0.125 1.4125
2.4375 0.125 1.475
2.4375 0 1.4125
2.5 0.0625 1.4125
2.4375 0.0625 1.475
2.4375 0.125 1.4125
2.4375 0.0625 1.4125
2.625 0 1.4125
2.5625 0 1.475
2.625 0.0625 1.475
2.625 0.125 1.4125
2.5625 0.125 1.475
2.5625 0 1.4125
2.625 0.0625 1.4125
2.5625 0.0625 1.475
2.5625 0.125 1.4125
2.5625 0.0625 1.4125
2.75 0 1.4125
2.6875 0 1.475
2.75 0.0625 1.475
2.75 0.125 1.4125
2.6875 0.125 1.475
2.6875 0 1.4125
2.75 0.0625 1.4125
2.6875 0.0625 1.475
2.6875 0.125 1.4125
2.6875 0.0625 1.4125
2.875 0 1.4125
2.8125 0 1.475
2.875 0.0625 1.475
2.875 0.125 1.4125
2.8125 0.125 1.475
2.8125 0 1.4125
2.875 0.0625 1.4125
2.8125 0.0625 1.475
2.8125 0.125 1.4125
2.8125 0.0625 1.4125
3 0 1.4125
2.9375 0 1.475
3 0.0625 1.475
3 0.125 1.4125
2.9375 0.125 1.475
2.9375 0 1.4125
3 0.0625 1.4125
2.9375 0.0625 1.475
2.9375 0.125 1.4125
2.9375 0.0625 1.4125
0.125 0.1875 1.475
0 0.1875 1.475
0.125 0.25 1.4125
0.0625 0.25 1.475
0 0.25 1.4125
0.125 0.1875 1.4125
0.0625 0.1875 1.475
0 0.1875 1.4125
0.0625 0.25 1.4125
0.0625 0.1875 1.4125
0.25 0.1875 1.475
0.25 0.25 1.4125
0.1875 0.25 1.475
0.25 0.1875 1.4125
0.1875 0.1875 1.475
0.1875 0.25 1.4125
0.1875 0.1875 1.4125
0.375 0.1875 1.475
0.375 0.25 1.4125
0.3125 0.25 1.475
0.375 0.1875 1.4125
0.3125 0.1875 1.475
0.3125 0.25 1.4125
0.3125 0.1875 1.4125
0.5 0.1875 1.475
0.5 0.25 1.4125
0.4375 0.25 1.475
0.5 0.1875 1.4125
0.4375 0.1875 1.475
0.4375 0.25 1.4125
0.4375 0.1875 1.4125
0.625 0.1875 1.475
0.625 0.25 1.4125
0.5625 0.25 1.475
0.625 0.1875 1.4125
0.5625 0.1875 1.475
0.5625 0.25 1.4125
0.5625 0.1875 1.4125
0.75 0.1875 1.475
0.75 0.25 1.4125
0.6875 0.25 1.475
0.75 0.1875 1.4125
0.6875 0.1875 1.475
0.6875 0.25 1.4125
0.6875 0.1875 1.4125
0.875 0.1875 1.475
0.875 0.25 1.4125
0.8125 0.25 1.475
0.875 0.1875 1.4125
0.8125 0.1875 1.475
0.8125 0.25 1.4125
0.8125 0.1875 1.4125
1 0.1875 1.475
1 0.25 1.4125
0.9375 0.25 1.475
1 0.1875 1.4125
0.9375 0.1875 1.475
0.9375 0.25 1.4125
0.9375 0.1875 1.4125
1.125 0.1875 1.475
1.125 0.25 1.4125
1.0625 0.25 1.475
1.125 0.1875 1.4125
1.0625 0.1875 1.475
1.0625 0.25 1.4125
1.0625 0.1875 1.4125
1.25 0.1875 1.475
1.25 0.25 1.4125
1.1875 0.25 1.475
1.25 0.1875 1.4125
1.1875 0.1875 1.475
1.1875 0.25 1.4125
1.1875 0.1875 1.4125
1.375 0.1875 1.475
1.375 0.25 1.4125
1.3125 0.25 1.475
1.375 0.1875 1.4125
1.3125 0.1875 1.475
1.3125 0.25 1.4125
1.3125 0.1875 1.4125
1.5 0.1875 1.475
1.5 0.25 1.4125
1.4375 0.25 1.475
1.5 0.1875 1.4125
1.4375 0.1875 1.475
1.4375 0.25 1.4125
1.4375 0.1875 1.4125
1.625 0.1875 1.475
1.625 0.25 1.4125
1.5625 0.25 1.475
1.625 0.1875 1.4125
1.5625 0.1875 1.475
1.5625 0.25 1.4125
1.5625 0.1875 1.4125
1.75 0.1875 1.475
1.75 0.25 1.4125
1.6875 0.25 1.475
1.75 0.1875 1.4125
1.6875 0.1875 1.475
1.6875 0.25 1.4125
1.6875 0.1875 1.4125
1.875 0.1875 1.475
1.875 0.25 1.4125
1.8125 0.25 1.475
1.875 0.1875 1.4125
1.8125 0.1875 1.475
1.8125 0.25 1.4125
1.8125 0.1875 1.4125
2 0.1875 1.475
2 0.25 1.4125
1.9375 0.25 1.475
2 0.1875 1.4125
1.9375 0.1875 1.475
1.9375 0.25 1.4125
1.9375 0.1875 1.4125
2.125 0.1875 1.475
2.125 0.25 1.4125
2.0625 0.25 1.475
2.125 0.1875 1.4125
2.0625 0.1875 1.475
2.0625 0.25 1.4125
2.0625 0.1875 1.4125
2.25 0.1875 1.475
2.25 0.25 1.4125
2.1875 0.25 1.475
2.25 0.1875 1.4125
2.1875 0.1875 1.475
2.1875 0.25 1.4125
2.1875 0.1875 1.4125
2.375 0.1875 1.475
2.375 0.25 1.4125
2.3125 0.25 1.475
2.375 0.1875 1.4125
2.3125 0.1875 1.475
2.3125 0.25 1.4125
2.3125 0.1875 1.4125
2.5 0.1875 1.475
2.5 0.25 1.4125
2.4375 0.25 1.475
2.5 0.1875 1.4125
2.4375 0.1875 1.475
2.4375 0.25 1.4125
2.4375 0.1875 1.4125
2.625 0.1875 1.475
2.625 0.25 1.4125
2.5625 0.25 1.475
2.625 0.1875 1.4125
2.5625 0.1875 1.475
2.5625 0.25 1.4125
2.5625 0.1875 1.4125
2.75 0.1875 1.475
2.75 0.25 1.4125
2.6875 0.25 1.475
2.75 0.1875 1.4125
2.6875 0.1875 1.475
2.6875 0.25 1.4125
2.6875 0.1875 1.4125
2.875 0.1875 1.475
2.875 0.25 1.4125
2.8125 0.25 1.475
2.875 0.1875 1.4125
2.8125 0.1875 1.475
2.8125 0.25 1.4125
2.8125 0.1875 1.4125
3 0.1875 1.475
3 0.25 1.4125
2.9375 0.25 1.475
3 0.1875 1.4125
2.9375 0.1875 1.475
2.9375 0.25 1.4125
2.9375 0.1875 1.4125
0.125 0.3125 1.475
0 0.3125 1.475
0.125 0.375 1.4125
0.0625 0.375 1.475
0 0.375 1.4125
0.125 0.3125 1.4125
0.0625 0.3125 1.475
0 0.3125 1.4125
0.0625 0.375 1.4125
0.0625 0.3125 1.4125
0.25 0.3125 1.475
0.25 0.375 1.4125
0.1875 0.375 1.475
0.25 0.3125 1.4125
0.1875 0.3125 1.475
0.1875 0.375 1.4125
0.1875 0.3125 1.4125
0.375 0.3125 1.475
0.375 0.375 1.4125
0.3125 0.375 1.475
0.375 0.3125 1.4125
0.3125 0.3125 1.475
0.3125 0.375 1.4125
0.3125 0.3125 1.4125
0.5 0.3125 1.475
0.5 0.375 1.4125
0.4375 0.375 1.475
0.5 0.3125 1.4125
0.4375 0.3125 1.475
0.4375 0.375 1.4125
0.4375 0.3125 1.4125
0.625 0.3125 1.475
0.625 0.375 1.4125
0.5625 0.375 1.475
0.625 0.3125 1.4125
0.5625 0.3125 1.475
0.5625 0.375 1.4125
0.5625 0.3125 1.4125
0.75 0.3125 1.475
0.75 0.375 1.4125
0.6875 0.375 1.475
0.75 0.3125 1.4125
0.6875 0.3125 1.475
0.6875 0.375 1.4125
0.6875 0.3125 1.4125
0.875 0.3125 1.475
0.875 0.375 1.4125
0.8125 0.375 1.475
0.875 0.3125 1.4125
0.8125 0.3125 1.475
0.8125 0.375 1.4125
0.8125 0.3125 1.4125
1 0.3125 1.475
1 0.375 1.4125
0.9375 0.375 1.475
1 0.3125 1.4125
0.9375 0.3125 1.475
0.9375 0.375 1.4125
0.9375 0.3125 1.4125
1.125 0.3125 1.475
1.125 0.375 1.4125
1.0625 0.375 1.475
1.125 0.3125 1.4125
1.0625 0.3125 1.475
1.0625 0.375 1.4125
1.0625 0.3125 1.4125
1.25 0.3125 1.475
1.25 0.375 1.4125
1.1875 0.375 1.475
1.25 0.3125 1.4125
1.1875 0.3125 1.475
1.1875 0.375 1.4125
1.1875 0.3125 1.4125
1.375 0.3125 1.475
1.375 0.375 1.4125
1.3125 0.375 1.475
1.375 0.3125 1.4125
1.3125 0.3125 1.475
1.3125 0.375 1.4125
1.3125 0.3125 1.4125
1.5 0.3125 1.475
1.5 0.375 1.4125
1.4375 0.375 1.475
1.5 0.3125 1.4125
1.4375 0.3125 1.475
1.4375 0.375 1.4125
1.4375 0.3125 1.4125
1.625 0.3125 1.475
1.625 0.375 1.4125
1.5625 0.375 1.475
1.625 0.3125 1.4125
1.5625 0.3125 1.475
1.5625 0.375 1.4125
1.5625 0.3125 1.4125
1.75 0.3125 1.475
1.75 0.375 1.4125
1.6875 0.375 1.475
1.75 0.3125 1.4125
1.6875 0.3125 1.475
1.6875 0.375 1.4125
1.6875 0.3125 1.4125
1.875 0.3125 1.475
1.875 0.375 1.4125
1.8125 0.375 1.475
1.875 0.3125 1.4125
1.8125 0.3125 1.475
1.8125 0.375 1.4125
1.8125 0.3125 1.4125
2 0.3125 1.475
2 0.375 1.4125
1.9375 0.375 1.475
2 0.3125 1.4125
1.9375 0.3125 1.475
1.9375 0.375 1.4125
1.9375 0.3125 1.4125
2.125 0.3125 1.475
2.125 0.375 1.4125
2.0625 0.375 1.475
2.125 0.3125 1.4125
2.0625 0.3125 1.475
2.0625 0.375 1.4125
2.0625 0.3125 1.4125
2.25 0.3125 1.475
2.25 0.375 1.4125
2.1875 0.375 1.475
2.25 0.3125 1.4125
2.1875 0.3125 1.475
2.1875 0.375 1.4125
2.1875 0.3125 1.4125
2.375 0.3125 1.475
2.375 0.375 1.4125
2.3125 0.375 1.475
2.375 0.3125 1.4125
2.3125 0.3125 1.475
2.3125 0.375 1.4125
2.3125 0.3125 1.4125
2.5 0.3125 1.475
2.5 0.375 1.4125
2.4375 0.375 1.475
2.5 0.3125 1.4125
2.4375 0.3125 1.475
2.4375 0.375 1.4125
2.4375 0.3125 1.4125
2.625 0.3125 1.475
2.625 0.375 1.4125
2.5625 0.375 1.475
2.625 0.3125 1.4125
2.5625 0.3125 1.475
2.5625 0.375 1.4125
2.5625 0.3125 1.4125
2.75 0.3125 1.475
2.75 0.375 1.4125
2.6875 0.375 1.475
2.75 0.3125 1.4125
2.6875 0.3125 1.475
2.6875 0.375 1.4125
2.6875 0.3125 1.4125
2.875 0.3125 1.475
2.875 0.375 1.4125
2.8125 0.375 1.475
2.875 0.3125 1.4125
2.8125 0.3125 1.475
2.8125 0.375 1.4125
2.8125 0.3125 1.4125
3 0.3125 1.475
3 0.375 1.4125
2.9375 0.375 1.475
3 0.3125 1.4125
2.9375 0.3125 1.475
2.9375 0.375 1.4125
2.9375 0.3125 1.4125
0.125 0.4375 1.475
0 0.4375 1.475
0.125 0.5 1.4125
0.0625 0.5 1.475
0 0.5 1.4125
0.125 0.4375 1.4125
0.0625 0.4375 1.475
0 0.4375 1.4125
0.0625 0.5 1.4125
0.0625 0.4375 1.4125
0.25 0.4375 1.475
0.25 0.5 1.4125
0.1875 0.5 1.475
0.25 0.4375 1.4125
0.1875 0.4375 1.475
0.1875 0.5 1.4125
0.1875 0.4375 1.4125
0.375 0.4375 1.475
0.375 0.5 1.4125
0.3125 0.5 1.475
0.375 0.4375 1.4125
0.3125 0.4375 1.475
0.3125 0.5 1.4125
0.3125 0.4375 1.4125
0.5 0.4375 1.475
0.5 0.5 1.4125
0.4375 0.5 1.475
0.5 0.4375 1.4125
0.4375 0.4375 1.475
0.4375 0.5 1.4125
0.4375 0.4375 1.4125
0.625 0.4375 1.475
0.625 0.5 1.4125
0.5625 0.5 1.475
0.625 0.4375 1.4125
0.5625 0.4375 1.475
0.5625 0.5 1.4125
0.5625 0.4375 1.4125
0.75 0.4375 1.475
0.75 0.5 1.4125
0.6875 0.5 1.475
0.75 0.4375 1.4125
0.6875 0.4375 1.475
0.6875 0.5 1.4125
0.6875 0.4375 1.4125
0.875 0.4375 1.475
0.875 0.5 1.4125
0.8125 0.5 1.475
0.875 0.4375 1.4125
0.8125 0.4375 1.475
0.8125 0.5 1.4125
0.8125 0.4375 1.4125
1 0.4375 1.475
1 0.5 1.4125
0.9375 0.5 1.475
1 0.4375 1.4125
0.9375 0.4375 1.475
0.9375 0.5 1.4125
0.9375 0.4375 1.4125
1.125 0.4375 1.475
1.125 0.5 1.4125
1.0625 0.5 1.475
1.125 0.4375 1.4125
1.0625 0.4375 1.475
1.0625 0.5 1.4125
1.0625 0.4375 1.4125
1.25 0.4375 1.475
1.25 0.5 1.4125
1.1875 0.5 1.475
1.25 0.4375 1.4125
1.1875 0.4375 1.475
1.1875 0.5 1.4125
1.1875 0.4375 1.4125
1.375 0.4375 1.475
1.375 0.5 1.4125
1.3125 0.5 1.475
1.375 0.4375 1.4125
1.3125 0.4375 1.475
1.3125 0.5 1.4125
1.3125 0.4375 1.4125
1.5 0.4375 1.475
1.5 0.5 1.4125
1.4375 0.5 1.475
1.5 0.4375 1.4125
1.4375 0.4375 1.475
1.4375 0.5 1.4125
1.4375 0.4375 1.4125
1.625 0.4375 1.475
1.625 0.5 1.4125
1.5625 0.5 1.475
1.625 0.4375 1.4125
1.5625 0.4375 1.475
1.5625 0.5 1.4125
1.5625 0.4375 1.4125
1.75 0.4375 1.475
1.75 0.5 1.4125
1.6875 0.5 1.475
1.75 0.4375 1.4125
1.6875 0.4375 1.475
1.6875 0.5 1.4125
1.6875 0.4375 1.4125
1.875 0.4375 1.475
1.875 0.5 1.4125
1.8125 0.5 1.475
1.875 0.4375 1.4125
1.8125 0.4375 1.475
1.8125 0.5 1.4125
1.8125 0.4375 1.4125
2 0.4375 1.475
2 0.5 1.4125
1.9375 0.5 1.475
2 0.4375 1.4125
1.9375 0.4375 1.475
1.9375 0.5 1.4125
1.9375 0.4375 1.4125
2.125 0.4375 1.475
2.125 0.5 1.4125
2.0625 0.5 1.475
2.125 0.4375 1.4125
2.0625 0.4375 1.475
2.0625 0.5 1.4125
2.0625 0.4375 1.4125
2.25 0.4375 1.475
2.25 0.5 1.4125
2.1875 0.5 1.475
2.25 0.4375 1.4125
2.1875 0.4375 1.475
2.1875 0.5 1.4125
2.1875 0.4375 1.4125
2.375 0.4375 1.475
2.375 0.5 1.4125
2.3125 0.5 1.475
2.375 0.4375 1.4125
2.3125 0.4375 1.475
2.3125 0.5 1.4125
2.3125 0.4375 1.4125
2.5 0.4375 1.475
2.5 0.5 1.4125
2.4375 0.5 1.475
2.5 0.4375 1.4125
2.4375 0.4375 1.475
2.4375 0.5 1.4125
2.4375 0.4375 1.4125
2.625 0.4375 1.475
2.625 0.5 1.4125
2.5625 0.5 1.475
2.625 0.4375 1.4125
2.5625 0.4375 1.475
2.5625 0.5 1.4125
2.5625 0.4375 1.4125
2.75 0.4375 1.475
2.75 0.5 1.4125
2.6875 0.5 1.475
2.75 0.4375 1.4125
2.6875 0.4375 1.475
2.6875 0.5 1.4125
2.6875 0.4375 1.4125
2.875 0.4375 1.475
2.875 0.5 1.4125
2.8125 0.5 1.475
2.875 0.4375 1.4125
2.8125 0.4375 1.475
2.8125 0.5 1.4125
2.8125 0.4375 1.4125
3 0.4375 1.475
3 0.5 1.4125
2.9375 0.5 1.475
3 0.4375 1.4125
2.9375 0.4375 1.475
2.9375 0.5 1.4125
2.9375 0.4375 1.4125
0.125 0.5625 1.475
0 0.5625 1.475
0.125 0.625 1.4125
0.0625 0.625 1.475
0 0.625 1.4125
0.125 0.5625 1.4125
0.0625 0.5625 1.475
0 0.5625 1.4125
0.0625 0.625 1.4125
0.0625 0.5625 1.4125
0.25 0.5625 1.475
0.25 0.625 1.4125
0.1875 0.625 1.475
0.25 0.5625 1.4125
0.1875 0.5625 1.475
0.1875 0.625 1.4125
0.1875 0.5625 1.4125
0.375 0.5625 1.475
0.375 0.625 1.4125
0.3125 0.625 1.475
0.375 0.5625 1.4125
0.3125 0.5625 1.475
0.3125 0.625 1.4125
0.3125 0.5625 1.4125
0.5 0.5625 1.475
0.5 0.625 1.4125
0.4375 0.625 1.475
0.5 0.5625 1.4125
0.4375 0.5625 1.475
0.4375 0.625 1.4125
0.4375 0.5625 1.4125
0.625 0.5625 1.475
0.625 0.625 1.4125
0.5625 0.625 1.475
0.625 0.5625 1.4125
0.5625 0.5625 1.475
0.5625 0.625 1.4125
0.5625 0.5625 1.4125
0.75 0.5625 1.475
0.75 0.625 1.4125
0.6875 0.625 1.475
0.75 0.5625 1.4125
0.6875 0.5625 1.475
0.6875 0.625 1.4125
0.6875 0.5625 1.4125
0.875 0.5625 1.475
0.875 0.625 1.4125
0.8125 0.625 1.475
0.875 0.5625 1.4125
0.8125 0.5625 1.475
0.8125 0.625 1.4125
0.8125 0.5625 1.4125
1 0.5625 1.475
1 0.625 1.4125
0.9375 0.625 1.475
1 0.5625 1.4125
0.9375 0.5625 1.475
0.9375 0.625 1.4125
0.9375 0.5625 1.4125
1.125 0.5625 1.475
1.125 0.625 1.4125
1.0625 0.625 1.475
1.125 0.5625 1.4125
1.0625 0.5625 1.475
1.0625 0.625 1.4125
1.0625 0.5625 1.4125
1.25 0.5625 1.475
1.25 0.625 1.4125
1.1875 0.625 1.475
1.25 0.5625 1.4125
1.1875 0.5625 1.475
1.1875 0.625 1.4125
1.1875 0.5625 1.4125
1.375 0.5625 1.475
1.375 0.625 1.4125
1.3125 0.625 1.475
1.375 0.5625 1.4125
1.3125 0.5625 1.475
1.3125 0.625 1.4125
1.3125 0.5625 1.4125
1.5 0.5625 1.475
1.5 0.625 1.4125
1.4375 0.625 1.475
1.5 0.5625 1.4125
1.4375 0.5625 1.475
1.4375 0.625 1.4125
1.4375 0.5625 1.4125
1.625 0.5625 1.475
1.625 0.625 1.4125
1.5625 0.625 1.475
1.625 0.5625 1.4125
1.5625 0.5625 1.475
1.5625 0.625 1.4125
1.5625 0.5625 1.4125
1.75 0.5625 1.475
1.75 0.625 1.4125
1.6875 0.625 1.475
1.75 0.5625 1.4125
1.6875 0.5625 1.475
1.6875 0.625 1.4125
1.6875 0.5625 1.4125
1.875 0.5625 1.475
1.875 0.625 1.4125
1.8125 0.625 1.475
1.875 0.5625 1.4125
1.8125 0.5625 1.475
1.8125 0.625 1.4125
1.8125 0.5625 1.4125
2 0.5625 1.475
2 0.625 1.4125
1.9375 0.625 1.475
2 0.5625 1.4125
1.9375 0.5625 1.475
1.9375 0.625 1.4125
1.9375 0.5625 1.4125
2.125 0.5625 1.475
2.125 0.625 1.4125
2.0625 0.625 1.475
2.125 0.5625 1.4125
2.0625 0.5625 1.475
2.0625 0.625 1.4125
2.0625 0.5625 1.4125
2.25 0.5625 1.475
2.25 0.625 1.4125
2.1875 0.625 1.475
2.25 0.5625 1.4125
2.1875 0.5625 1.475
2.1875 0.625 1.4125
2.1875 0.5625 1.4125
2.375 0.5625 1.475
2.375 0.625 1.4125
2.3125 0.625 1.475
2.375 0.5625 1.4125
2.3125 0.5625 1.475
2.3125 0.625 1.4125
2.3125 0.5625 1.4125
2.5 0.5625 1.475
2.5 0.625 1.4125
2.4375 0.625 1.475
2.5 0.5625 1.4125
2.4375 0.5625 1.475
2.4375 0.625 1.4125
2.4375 0.5625 1.4125
2.625 0.5625 1.475
2.625 0.625 1.4125
2.5625 0.625 1.475
2.625 0.5625 1.4125
2.5625 0.5625 1.475
2.5625 0.625 1.4125
2.5625 0.5625 1.4125
2.75 0.5625 1.475
2.75 0.625 1.4125
2.6875 0.625 1.475
2.75 0.5625 1.4125
2.6875 0.5625 1.475
2.6875 0.625 1.4125
2.6875 0.5625 1.4125
2.875 0.5625 1.475
2.875 0.625 1.4125
2.8125 0.625 1.475
2.875 0.5625 1.4125
2.8125 0.5625 1.475
2.8125 0.625 1.4125
2.8125 0.5625 1.4125
3 0.5625 1.475
3 0.625 1.4125
2.9375 0.625 1.475
3 0.5625 1.4125
2.9375 0.5625 1.475
2.9375 0.625 1.4125
2.9375 0.5625 1.4125
0.125 0.6875 1.475
0 0.6875 1.475
0.125 0.75 1.4125
0.0625 0.75 1.475
0 0.75 1.4125
0.125 0.6875 1.4125
0.0625 0.6875 1.475
0 0.6875 1.4125
0.0625 0.75 1.4125
0.0625 0.6875 1.4125
0.25 0.6875 1.475
0.25 0.75 1.4125
0.1875 0.75 1.475
0.25 0.6875 1.4125
0.1875 0.6875 1.475
0.1875 0.75 1.4125
0.1875 0.6875 1.4125
0.375 0.6875 1.475
0.375 0.75 1.4125
0.3125 0.75 1.475
0.375 0.6875 1.4125
0.3125 0.6875 1.475
0.3125 0.75 1.4125
0.3125 0.6875 1.4125
0.5 0.6875 1.475
0.5 0.75 1.4125
0.4375 0.75 1.475
0.5 0.6875 1.4125
0.4375 0.6875 1.475
0.4375 0.75 1.4125
0.4375 0.6875 1.4125
0.625 0.6875 1.475
0.625 0.75 1.4125
0.5625 0.75 1.475
0.625 0.6875 1.4125
0.5625 0.6875 1.475
0.5625 0.75 1.4125
0.5625 0.6875 1.4125
0.75 0.6875 1.475
0.75 0.75 1.4125
0.6875 0.75 1.475
0.75 0.6875 1.4125
0.6875 0.6875 1.475
0.6875 0.75 1.4125
0.6875 0.6875 1.4125
0.875 0.6875 1.475
0.875 0.75 1.4125
0.8125 0.75 1.475
0.875 0.6875 1.4125
0.8125 0.6875 1.475
0.8125 0.75 1.4125
0.8125 0.6875 1.4125
1 0.6875 1.475
1 0.75 1.4125
0.9375 0.75 1.475
1 0.6875 1.4125
0.9375 0.6875 1.475
0.9375 0.75 1.4125
0.9375 0.6875 1.4125
1.125 0.6875 1.475
1.125 0.75 1.4125
1.0625 0.75 1.475
1.125 0.6875 1.4125
1.0625 0.6875 1.475
1.0625 0.75 1.4125
1.0625 0.6875 1.4125
1.25 0.6875 1.475
1.25 0.75 1.4125
1.1875 0.75 1.475
1.25 0.6875 1.4125
1.1875 0.6875 1.475
1.1875 0.75 1.4125
1.1875 0.6875 1.4125
1.375 0.6875 1.475
1.375 0.75 1.4125
1.3125 0.75 1.475
1.375 0.6875 1.4125
1.3125 0.6875 1.475
1.3125 0.75 1.4125
1.3125 0.6875 1.4125
1.5 0.6875 1.475
1.5 0.75 1.4125
1.4375 0.75 1.475
1.5 0.6875 1.4125
1.4375 0.6875 1.475
1.4375 0.75 1.4125
1.4375 0.6875 1.4125
1.625 0.6875 1.475
1.625 0.75 1.4125
1.5625 0.75 1.475
1.625 0.6875 1.4125
1.5625 0.6875 1.475
1.5625 0.75 1.4125
1.5625 0.6875 1.4125
1.75 0.6875 1.475
1.75 0.75 1.4125
1.6875 0.75 1.475
1.75 0.6875 1.4125
1.6875 0.6875 1.475
1.6875 0.75 1.4125
1.6875 0.6875 1.4125
1.875 0.6875 1.475
1.875 0.75 1.4125
1.8125 0.75 1.475
1.875 0.6875 1.4125
1.8125 0.6875 1.475
1.8125 0.75 1.4125
1.8125 0.6875 1.4125
2 0.6875 1.475
2 0.75 1.4125
1.9375 0.75 1.475
2 0.6875 1.4125
1.9375 0.6875 1.475
1.9375 0.75 1.4125
1.9375 0.6875 1.4125
2.125 0.6875 1.475
2.125 0.75 1.4125
2.0625 0.75 1.475
2.125 0.6875 1.4125
2.0625 0.6875 1.475
2.0625 0.75 1.4125
2.0625 0.6875 1.4125
2.25 0.6875 1.475
2.25 0.75 1.4125
2.1875 0.75 1.475
2.25 0.6875 1.4125
2.1875 0.6875 1.475
2.1875 0.75 1.4125
2.1875 0.6875 1.4125
2.375 0.6875 1.475
2.375 0.75 1.4125
2.3125 0.75 1.475
2.375 0.6875 1.4125
2.3125 0.6875 1.475
2.3125 0.75 1.4125
2.3125 0.6875 1.4125
2.5 0.6875 1.475
2.5 0.75 1.4125
2.4375 0.75 1.475
2.5 0.6875 1.4125
2.4375 0.6875 1.475
2.4375 0.75 1.4125
2.4375 0.6875 1.4125
2.625 0.6875 1.475
2.625 0.75 1.4125
2.5625 0.75 1.475
2.625 0.6875 1.4125
2.5625 0.6875 1.475
2.5625 0.75 1.4125
2.5625 0.6875 1.4125
2.75 0.6875 1.475
2.75 0.75 1.4125
2.6875 0.75 1.475
2.75 0.6875 1.4125
2.6875 0.6875 1.475
2.6875 0.75 1.4125
2.6875 0.6875 1.4125
2.875 0.6875 1.475
2.875 0.75 1.4125
2.8125 0.75 1.475
2.875 0.6875 1.4125
2.8125 0.6875 1.475
2.8125 0.75 1.4125
2.8125 0.6875 1.4125
3 0.6875 1.475
3 0.75 1.4125
2.9375 0.75 1.475
3 0.6875 1.4125
2.9375 0.6875 1.475
2.9375 0.75 1.4125
2.9375 0.6875 1.4125
0.125 0.8125 1.475
0 0.8125 1.475
0.125 0.875 1.4125
0.0625 0.875 1.475
0 0.875 1.4125
0.125 0.8125 1.4125
0.0625 0.8125 1.475
0 0.8125 1.4125
0.0625 0.875 1.4125
0.0625 0.8125 1.4125
0.25 0.8125 1.475
0.25 0.875 1.4125
0.1875 0.875 1.475
0.25 0.8125 1.4125
0.1875 0.8125 1.475
0.1875 0.875 1.4125
0.1875 0.8125 1.4125
0.375 0.8125 1.475
0.375 0.875 1.4125
0.3125 0.875 1.475
0.375 0.8125 1.4125
0.3125 0.8125 1.475
0.3125 0.875 1.4125
0.3125 0.8125 1.4125
0.5 0.8125 1.475
0.5 0.875 1.4125
0.4375 0.875 1.475
0.5 0.8125 1.4125
0.4375 0.8125 1.475
0.4375 0.875 1.4125
0.4375 0.8125 1.4125
0.625 0.8125 1.475
0.625 0.875 1.4125
0.5625 0.875 1.475
0.625 0.8125 1.4125
0.5625 0.8125 1.475
0.5625 0.875 1.4125
0.5625 0.8125 1.4125
0.75 0.8125 1.475
0.75 0.875 1.4125
0.6875 0.875 1.475
0.75 0.8125 1.4125
0.6875 0.8125 1.475
0.6875 0.875 1.4125
0.6875 0.8125 1.4125
0.875 0.8125 1.475
0.875 0.875 1.4125
0.8125 0.875 1.475
0.875 0.8125 1.4125
0.8125 0.8125 1.475
0.8125 0.875 1.4125
0.8125 0.8125 1.4125
1 0.8125 1.475
1 0.875 1.4125
0.9375 0.875 1.475
1 0.8125 1.4125
0.9375 0.8125 1.475
0.9375 0.875 1.4125
0.9375 0.8125 1.4125
1.125 0.8125 1.475
1.125 0.875 1.4125
1.0625 0.875 1.475
1.125 0.8125 1.4125
1.0625 0.8125 1.475
1.0625 0.875 1.4125
1.0625 0.8125 1.4125
1.25 0.8125 1.475
1.25 0.875 1.4125
1.1875 0.875 1.475
1.25 0.8125 1.4125
1.1875 0.8125 1.475
1.1875 0.875 1.4125
1.1875 0.8125 1.4125
1.375 0.8125 1.475
1.375 0.875 1.4125
1.3125 0.875 1.475
1.375 0.8125 1.4125
1.3125 0.8125 1.475
1.3125 0.875 1.4125
1.3125 0.8125 1.4125
1.5 0.8125 1.475
1.5 0.875 1.4125
1.4375 0.875 1.475
1.5 0.8125 1.4125
1.4375 0.8125 1.475
1.4375 0.875 1.4125
1.4375 0.8125 1.4125
1.625 0.8125 1.475
1.625 0.875 1.4125
1.5625 0.875 1.475
1.625 0.8125 1.4125
1.5625 0.8125 1.475
1.5625 0.875 1.4125
1.5625 0.8125 1.4125
1.75 0.8125 1.475
1.75 0.875 1.4125
1.6875 0.875 1.475
1.75 0.8125 1.4125
1.6875 0.8125 1.475
1.6875 0.875 1.4125
1.6875 0.8125 1.4125
1.875 0.8125 1.475
1.875 0.875 1.4125
1.8125 0.875 1.475
1.875 0.8125 1.4125
1.8125 0.8125 1.475
1.8125 0.875 1.4125
1.8125 0.8125 1.4125
2 0.8125 1.475
2 0.875 1.4125
1.9375 0.875 1.475
2 0.8125 1.4125
1.9375 0.8125 1.475
1.9375 0.875 1.4125
1.9375 0.8125 1.4125
2.125 0.8125 1.475
2.125 0.875 1.4125
2.0625 0.875 1.475
2.125 0.8125 1.4125
2.0625 0.8125 1.475
2.0625 0.875 1.4125
2.0625 0.8125 1.4125
2.25 0.8125 1.475
2.25 0.875 1.4125
2.1875 0.875 1.475
2.25 0.8125 1.4125
2.1875 0.8125 1.475
2.1875 0.875 1.4125
2.1875 0.8125 1.4125
2.375 0.8125 1.475
2.375 0.875 1.4125
2.3125 0.875 1.475
2.375 0.8125 1.4125
2.3125 0.8125 1.475
2.3125 0.875 1.4125
2.3125 0.8125 1.4125
2.5 0.8125 1.475
2.5 0.875 1.4125
2.4375 0.875 1.475
2.5 0.8125 1.4125
2.4375 0.8125 1.475
2.4375 0.875 1.4125
2.4375 0.8125 1.4125
2.625 0.8125 1.475
2.625 0.875 1.4125
2.5625 0.875 1.475
2.625 0.8125 1.4125
2.5625 0.8125 1.475
2.5625 0.875 1.4125
2.5625 0.8125 1.4125
2.75 0.8125 1.475
2.75 0.875 1.4125
2.6875 0.875 1.475
2.75 0.8125 1.4125
2.6875 0.8125 1.475
2.6875 0.875 1.4125
2.6875 0.8125 1.4125
2.875 0.8125 1.475
2.875 0.875 1.4125
2.8125 0.875 1.475
2.875 0.8125 1.4125
2.8125 0.8125 1.475
2.8125 0.875 1.4125
2.8125 0.8125 1.4125
3 0.8125 1.475
3 0.875 1.4125
2.9375 0.875 1.475
3 0.8125 1.4125
2.9375 0.8125 1.475
2.9375 0.875 1.4125
2.9375 0.8125 1.4125
0.125 0.9375 1.475
0 0.9375 1.475
0.125 1 1.4125
0.0625 1 1.475
0 1 1.4125
0.125 0.9375 1.4125
0.0625 0.9375 1.475
0 0.9375 1.4125
0.0625 1 1.4125
0.0625 0.9375 1.4125
0.25 0.9375 1.475
0.25 1 1.4125
0.1875 1 1.475
0.25 0.9375 1.4125
0.1875 0.9375 1.475
0.1875 1 1.4125
0.1875 0.9375 1.4125
0.375 0.9375 1.475
0.375 1 1.4125
0.3125 1 1.475
0.375 0.9375 1.4125
0.3125 0.9375 1.475
0.3125 1 1.4125
0.3125 0.9375 1.4125
0.5 0.9375 1.475
0.5 1 1.4125
0.4375 1 1.475
0.5 0.9375 1.4125
0.4375 0.9375 1.475
0.4375 1 1.4125
0.4375 0.9375 1.4125
0.625 0.9375 1.475
0.625 1 1.4125
0.5625 1 1.475
0.625 0.9375 1.4125
0.5625 0.9375 1.475
0.5625 1 1.4125
0.5625 0.9375 1.4125
0.75 0.9375 1.475
0.75 1 1.4125
0.6875 1 1.475
0.75 0.9375 1.4125
0.6875 0.9375 1.475
0.6875 1 1.4125
0.6875 0.9375 1.4125
0.875 0.9375 1.475
0.875 1 1.4125
0.8125 1 1.475
0.875 0.9375 1.4125
0.8125 0.9375 1.475
0.8125 1 1.4125
0.8125 0.9375 1.4125
1 0.9375 1.475
1 1 1.4125
0.9375 1 1.475
1 0.9375 1.4125
0.9375 0.9375 1.475
0.9375 1 1.4125
0.9375 0.9375 1.4125
1.125 0.9375 1.475
1.125 1 1.4125
1.0625 1 1.475
1.125 0.9375 1.4125
1.0625 0.9375 1.475
1.0625 1 1.4125
1.0625 0.9375 1.4125
1.25 0.9375 1.475
1.25 1 1.4125
1.1875 1 1.475
1.25 0.9375 1.4125
1.1875 0.9375 1.475
1.1875 1 1.4125
1.1875 0.9375 1.4125
1.375 0.9375 1.475
1.375 1 1.4125
1.3125 1 1.475
1.375 0.9375 1.4125
1.3125 0.9375 1.475
1.3125 1 1.4125
1.3125 0.9375 1.4125
1.5 0.9375 1.475
1.5 1 1.4125
1.4375 1 1.475
1.5 0.9375 1.4125
1.4375 0.9375 1.475
1.4375 1 1.4125
1.4375 0.9375 1.4125
1.625 0.9375 1.475
1.625 1 1.4125
1.5625 1 1.475
1.625 0.9375 1.4125
1.5625 0.9375 1.475
1.5625 1 1.4125
1.5625 0.9375 1.4125
1.75 0.9375 1.475
1.75 1 1.4125
1.6875 1 1.475
1.75 0.9375 1.4125
1.6875 0.9375 1.475
1.6875 1 1.4125
1.6875 0.9375 1.4125
1.875 0.9375 1.475
1.875 1 1.4125
1.8125 1 1.475
1.875 0.9375 1.4125
1.8125 0.9375 1.475
1.8125 1 1.4125
1.8125 0.9375 1.4125
2 0.9375 1.475
2 1 1.4125
1.9375 1 1.475
2 0.9375 1.4125
1.9375 0.9375 1.475
1.9375 1 1.4125
1.9375 0.9375 1.4125
2.125 0.9375 1.475
2.125 1 1.4125
2.0625 1 1.475
2.125 0.9375 1.4125
2.0625 0.9375 1.475
2.0625 1 1.4125
2.0625 0.9375 1.4125
2.25 0.9375 1.475
2.25 1 1.4125
2.1875 1 1.475
2.25 0.9375 1.4125
2.1875 0.9375 1.475
2.1875 1 1.4125
2.1875 0.9375 1.4125
2.375 0.9375 1.475
2.375 1 1.4125
2.3125 1 1.475
2.375 0.9375 1.4125
2.3125 0.9375 1.475
2.3125 1 1.4125
2.3125 0.9375 1.4125
2.5 0.9375 1.475
2.5 1 1.4125
2.4375 1 1.475
2.5 0.9375 1.4125
2.4375 0.9375 1.475
2.4375 1 1.4125
2.4375 0.9375 1.4125
2.625 0.9375 1.475
2.625 1 1.4125
2.5625 1 1.475
2.625 0.9375 1.4125
2.5625 0.9375 1.475
2.5625 1 1.4125
2.5625 0.9375 1.4125
2.75 0.9375 1.475
2.75 1 1.4125
2.6875 1 1.475
2.75 0.9375 1.4125
2.6875 0.9375 1.475
2.6875 1 1.4125
2.6875 0.9375 1.4125
2.875 0.9375 1.475
2.875 1 1.4125
2.8125 1 1.475
2.875 0.9375 1.4125
2.8125 0.9375 1.475
2.8125 1 1.4125
2.8125 0.9375 1.4125
3 0.9375 1.475
3 1 1.4125
2.9375 1 1.475
3 0.9375 1.4125
2.9375 0.9375 1.475
2.9375 1 1.4125
2.9375 0.9375 1.4125
0.125 0 1.5375
0.0625 0 1.6
0 0 1.5375
0.125 0.0625 1.6
0 0.0625 1.6
0.125 0.125 1.5375
0.0625 0.125 1.6
0 0.125 1.5375
0.0625 0 1.5375
0.125 0.0625 1.5375
0.0625 0.0625 1.6
0 0.0625 1.5375
0.0625 0.125 1.5375
0.0625 0.0625 1.5375
0.25 0 1.5375
0.1875 0 1.6
0.25 0.0625 1.6
0.25 0.125 1.5375
0.1875 0.125 1.6
0.1875 0 1.5375
0.25 0.0625 1.5375
0.1875 0.0625 1.6
0.1875 0.125 1.5375
0.1875 0.0625 1.5375
0.375 0 1.5375
0.3125 0 1.6
0.375 0.0625 1.6
0.375 0.125 1.5375
0.3125 0.125 1.6
0.3125 0 1.5375
0.375 0.0625 1.5375
0.3125 0.0625 1.6
0.3125 0.125 1.5375
0.3125 0.0625 1.5375
0.5 0 1.5375
0.4375 0 1.6
0.5 0.0625 1.6
0.5 0.125 1.5375
0.4375 0.125 1.6
0.4375 0 1.5375
0.5 0.0625 1.5375
0.4375 0.0625 1.6
0.4375 0.125 1.5375
0.4375 0.0625 1.5375
0.625 0 1.5375
0.5625 0 1.6
0.625 0.0625 1.6
0.625 0.125 1.5375
0.5625 0.125 1.6
0.5625 0 1.5375
0.625 0.0625 1.5375
0.5625 0.0625 1.6
0.5625 0.125 1.5375
0.5625 0.0625 1.5375
0.75 0 1.5375
0.6875 0 1.6
0.75 0.0625 1.6
0.75 0.125 1.5375
0.6875 0.125 1.6
0.6875 0 1.5375
0.75 0.0625 1.5375
0.6875 0.0625 1.6
0.6875 0.125 1.5375
0.6875 0.0625 1.5375
0.875 0 1.5375
0.8125 0 1.6
0.875 0.0625 1.6
0.875 0.125 1.5375
0.8125 0.125 1.6
0.8125 0 1.5375
0.875 0.0625 1.5375
0.8125 0.0625 1.6
0.8125 0.125 1.5375
0.8125 0.0625 1.5375
1 0 1.5375
0.9375 0 1.6
1 0.0625 1.6
1 0.125 1.5375
0.9375 0.125 1.6
0.9375 0 1.5375
1 0.0625 1.5375
0.9375 0.0625 1.6
0.9375 0.125 1.5375
0.9375 0.0625 1.5375
1.125 0 1.5375
1.0625 0 1.6
1.125 0.0625 1.6
1.125 0.125 1.5375
1.0625 0.125 1.6
1.0625 0 1.5375
1.125 0.0625 1.5375
1.0625 0.0625 1.6
1.0625 0.125 1.5375
1.0625 0.0625 1.5375
1.25 0 1.5375
1.1875 0 1.6
1.25 0.0625 1.6
1.25 0.125 1.5375
1.1875 0.125 1.6
1.1875 0 1.5375
1.25 0.0625 1.5375
1.1875 0.0625 1.6
1.1875 0.125 1.5375
1.1875 0.0625 1.5375
1.375 0 1.5375
1.3125 0 1.6
1.375 0.0625 1.6
1.375 0.125 1.5375
1.3125 0.125 1.6
1.3125 0 1.5375
1.375 0.0625 1.5375
1.3125 0.0625 1.6
1.3125 0.125 1.5375
1.3125 0.0625 1.5375
1.5 0 1.5375
1.4375 0 1.6
1.5 0.0625 1.6
1.5 0.125 1.5375
1.4375 0.125 1.6
1.4375 0 1.5375
1.5 0.0625 1.5375
1.4375 0.0625 1.6
1.4375 0.125 1.5375
1.4375 0.0625 1.5375
1.625 0 1.5375
1.5625 0 1.6
1.625 0.0625 1.6
1.625 0.125 1.5375
1.5625 0.125 1.6
1.5625 0 1.5375
1.625 0.0625 1.5375
1.5625 0.0625 1.6
1.5625 0.125 1.5375
1.5625 0.0625 1.5375
1.75 0 1.5375
1.6875 0 1.6
1.75 0.0625 1.6
1.75 0.125 1.5375
1.6875 0.125 1.6
1.6875 0 1.5375
1.75 0.0625 1.5375
1.6875 0.0625 1.6
1.6875 0.125 1.5375
1.6875 0.0625 1.5375
1.875 0 1.5375
1.8125 0 1.6
1.875 0.0625 1.6
1.875 0.125 1.5375
1.8125 0.125 1.6
1.8125 0 1.5375
1.875 0.0625 1.5375
1.8125 0.0625 1.6
1.8125 0.125 1.5375
1.8125 0.0625 1.5375
2 0 1.5375
1.9375 0 1.6
2 0.0625 1.6
2 0.125 1.5375
1.9375 0.125 1.6
1.9375 0 1.5375
2 0.0625 1.5375
1.9375 0.0625 1.6
1.9375 0.125 1.5375
1.9375 0.0625 1.5375
2.125 0 1.5375
2.0625 0 1.6
2.125 0.0625 1.6
2.125 0.125 1.5375
2.0625 0.125 1.6
2.0625 0 1.5375
2.125 0.0625 1.5375
2.0625 0.0625 1.6
2.0625 0.125 1.5375
2.0625 0.0625 1.5375
2.25 0 1.5375
2.1875 0 1.6
2.25 0.0625 1.6
2.25 0.125 1.5375
2.1875 0.125 1.6
2.1875 0 1.5375
2.25 0.0625 1.5375
2.1875 0.0625 1.6
2.1875 0.125 1.5375
2.1875 0.0625 1.5375
2.375 0 1.5375
2.3125 0 1.6
2.375 0.0625 1.6
2.375 0.125 1.5375
2.3125 0.125 1.6
2.3125 0 1.5375
2.375 0.0625 1.5375
2.3125 0.0625 1.6
2.3125 0.125 1.5375
2.3125 0.0625 1.5375
2.5 0 1.5375
2.4375 0 1.6
2.5 0.0625 1.6
2.5 0.125 1.5375
2.4375 0.125 1.6
2.4375 0 1.5375
2.5 0.0625 1.5375
2.4375 0.0625 1.6
2.4375 0.125 1.5375
2.4375 0.0625 1.5375
2.625 0 1.5375
2.5625 0 1.6
2.625 0.0625 1.6
2.625 0.125 1.5375
2.5625 0.125 1.6
2.5625 0 1.5375
2.625 0.0625 1.5375
2.5625 0.0625 1.6
2.5625 0.125 1.5375
2.5625 0.0625 1.5375
2.75 0 1.5375
2.6875 0 1.6
2.75 0.0625 1.6
2.75 0.125 1.5375
2.6875 0.125 1.6
2.6875 0 1.5375
2.75 0.0625 1.5375
2.6875 0.0625 1.6
2.6875 0.125 1.5375
2.6875 0.0625 1.5375
2.875 0 1.5375
2.8125 0 1.6
2.875 0.0625 1.6
2.875 0.125 1.5375
2.8125 0.125 1.6
2.8125 0 1.5375
2.875 0.0625 1.5375
2.8125 0.0625 1.6
2.8125 0.125 1.5375
2.8125 0.0625 1.5375
3 0 1.5375
2.9375 0 1.6
3 0.0625 1.6
3 0.125 1.5375
2.9375 0.125 1.6
2.9375 0 1.5375
3 0.0625 1.5375
2.9375 0.0625 1.6
2.9375 0.125 1.5375
2.9375 0.0625 1.5375
0.125 0.1875 1.6
0 0.1875 1.6
0.125 0.25 1.5375
0.0625 0.25 1.6
0 0.25 1.5375
0.125 0.1875 1.5375
0.0625 0.1875 1.6
0 0.1875 1.5375
0.0625 0.25 1.5375
0.0625 0.1875 1.5375
0.25 0.1875 1.6
0.25 0.25 1.5375
0.1875 0.25 1.6
0.25 0.1875 1.5375
0.1875 0.1875 1.6
0.1875 0.25 1.5375
0.1875 0.1875 1.5375
0.375 0.1875 1.6
0.375 0.25 1.5375
0.3125 0.25 1.6
0.375 0.1875 1.5375
0.3125 0.1875 1.6
0.3125 0.25 1.5375
0.3125 0.1875 1.5375
0.5 0.1875 1.6
0.5 0.25 1.5375
0.4375 0.25 1.6
0.5 0.1875 1.5375
0.4375 0.1875 1.6
0.4375 0.25 1.5375
0.4375 0.1875 1.5375
0.625 0.1875 1.6
0.625 0.25 1.5375
0.5625 0.25 1.6
0.625 0.1875 1.5375
0.5625 0.1875 1.6
0.5625 0.25 1.5375
0.5625 0.1875 1.5375
0.75 0.1875 1.6
0.75 0.25 1.5375
0.6875 0.25 1.6
0.75 0.1875 1.5375
0.6875 0.1875 1.6
0.6875 0.25 1.5375
0.6875 0.1875 1.5375
0.875 0.1875 1.6
0.875 0.25 1.5375
0.8125 0.25 1.6
0.875 0.1875 1.5375
0.8125 0.1875 1.6
0.8125 0.25 1.5375
0.8125 0.1875 1.5375
1 0.1875 1.6
1 0.25 1.5375
0.9375 0.25 1.6
1 0.1875 1.5375
0.9375 0.1875 1.6
0.9375 0.25 1.5375
0.9375 0.1875 1.5375
1.125 0.1875 1.6
1.125 0.25 1.5375
1.0625 0.25 1.6
1.125 0.1875 1.5375
1.0625 0.1875 1.6
1.0625 0.25 1.5375
1.0625 0.1875 1.5375
1.25 0.1875 1.6
1.25 0.25 1.5375
1.1875 0.25 1.6
1.25 0.1875 1.5375
1.1875 0.1875 1.6
1.1875 0.25 1.5375
1.1875 0.1875 1.5375
1.375 0.1875 1.6
1.375 0.25 1.5375
1.3125 0.25 1.6
1.375 0.1875 1.5375
1.3125 0.1875 1.6
1.3125 0.25 1.5375
1.3125 0.1875 1.5375
1.5 0.1875 1.6
1.5 0.25 1.5375
1.4375 0.25 1.6
1.5 0.1875 1.5375
1.4375 0.1875 1.6
1.4375 0.25 1.5375
1.4375 0.1875 1.5375
1.625 0.1875 1.6
1.625 0.25 1.5375
1.5625 0.25 1.6
1.625 0.1875 1.5375
1.5625 0.1875 1.6
1.5625 0.25 1.5375
1.5625 0.1875 1.5375
1.75 0.1875 1.6
1.75 0.25 1.5375
1.6875 0.25 1.6
1.75 0.1875 1.5375
1.6875 0.1875 1.6
1.6875 0.25 1.5375
1.6875 0.1875 1.5375
1.875 0.1875 1.6
1.875 0.25 1.5375
1.8125 0.25 1.6
1.875 0.1875 1.5375
1.8125 0.1875 1.6
1.8125 0.25 1.5375
1.8125 0.1875 1.5375
2 0.1875 1.6
2 0.25 1.5375
1.9375 0.25 1.6
2 0.1875 1.5375
1.9375 0.1875 1.6
1.9375 0.25 1.5375
1.9375 0.1875 1.5375
2.125 0.1875 1.6
2.125 0.25 1.5375
2.0625 0.25 1.6
2.125 0.1875 1.5375
2.0625 0.1875 1.6
2.0625 0.25 1.5375
2.0625 0.1875 1.5375
2.25 0.1875 1.6
2.25 0.25 1.5375
2.1875 0.25 1.6
2.25 0.1875 1.5375
2.1875 0.1875 1.6
2.1875 0.25 1.5375
2.1875 0.1875 1.5375
2.375 0.1875 1.6
2.375 0.25 1.5375
2.3125 0.25 1.6
2.375 0.1875 1.5375
2.3125 0.1875 1.6
2.3125 0.25 1.5375
2.3125 0.1875 1.5375
2.5 0.1875 1.6
2.5 0.25 1.5375
2.4375 0.25 1.6
2.5 0.1875 1.5375
2.4375 0.1875 1.6
2.4375 0.25 1.5375
2.4375 0.1875 1.5375
2.625 0.1875 1.6
2.625 0.25 1.5375
2.5625 0.25 1.6
2.625 0.1875 1.5375
2.5625 0.1875 1.6
2.5625 0.25 1.5375
2.5625 0.1875 1.5375
2.75 0.1875 1.6
2.75 0.25 1.5375
2.6875 0.25 1.6
2.75 0.1875 1.5375
2.6875 0.1875 1.6
2.6875 0.25 1.5375
2.6875 0.1875 1.5375
2.875 0.1875 1.6
2.875 0.25 1.5375
2.8125 0.25 1.6
2.875 0.1875 1.5375
2.8125 0.1875 1.6
2.8125 0.25 1.5375
2.8125 0.1875 1.5375
3 0.1875 1.6
3 0.25 1.5375
2.9375 0.25 1.6
3 0.1875 1.5375
2.9375 0.1875 1.6
2.9375 0.25 1.5375
2.9375 0.1875 1.5375
0.125 0.3125 1.6
0 0.3125 1.6
0.125 0.375 1.5375
0.0625 0.375 1.6
0 0.375 1.5375
0.125 0.3125 1.5375
0.0625 0.3125 1.6
0 0.3125 1.5375
0.0625 0.375 1.5375
0.0625 0.3125 1.5375
0.25 0.3125 1.6
0.25 0.375 1.5375
0.1875 0.375 1.6
0.25 0.3125 1.5375
0.1875 0.3125 1.6
0.1875 0.375 1.5375
0.1875 0.3125 1.5375
0.375 0.3125 1.6
0.375 0.375 1.5375
0.3125 0.375 1.6
0.375 0.3125 1.5375
0.3125 0.3125 1.6
0.3125 0.375 1.5375
0.3125 0.3125 1.5375
0.5 0.3125 1.6
0.5 0.375 1.5375
0.4375 0.375 1.6
0.5 0.3125 1.5375
0.4375 0.3125 1.6
0.4375 0.375 1.5375
0.4375 0.3125 1.5375
0.625 0.3125 1.6
0.625 0.375 1.5375
0.5625 0.375 1.6
0.625 0.3125 1.5375
0.5625 0.3125 1.6
0.5625 0.375 1.5375
0.5625 0.3125 1.5375
0.75 0.3125 1.6
0.75 0.375 1.5375
0.6875 0.375 1.6
0.75 0.3125 1.5375
0.6875 0.3125 1.6
0.6875 0.375 1.5375
0.6875 0.3125 1.5375
0.875 0.3125 1.6
0.875 0.375 1.5375
0.8125 0.375 1.6
0.875 0.3125 1.5375
0.8125 0.3125 1.6
0.8125 0.375 1.5375
0.8125 0.3125 1.5375
1 0.3125 1.6
1 0.375 1.5375
0.9375 0.375 1.6
1 0.3125 1.5375
0.9375 0.3125 1.6
0.9375 0.375 1.5375
0.9375 0.3125 1.5375
1.125 0.3125 1.6
1.125 0.375 1.5375
1.0625 0.375 1.6
1.125 0.3125 1.5375
1.0625 0.3125 1.6
1.0625 0.375 1.5375
1.0625 0.3125 1.5375
1.25 0.3125 1.6
1.25 0.375 1.5375
1.1875 0.375 1.6
1.25 0.3125 1.5375
1.1875 0.3125 1.6
1.1875 0.375 1.5375
1.1875 0.3125 1.5375
1.375 0.3125 1.6
1.375 0.375 1.5375
1.3125 0.375 1.6
1.375 0.3125 1.5375
1.3125 0.3125 1.6
1.3125 0.375 1.5375
1.3125 0.3125 1.5375
1.5 0.3125 1.6
1.5 0.375 1.5375
1.4375 0.375 1.6
1.5 0.3125 1.5375
1.4375 0.3125 1.6
1.4375 0.375 1.5375
1.4375 0.3125 1.5375
1.625 0.3125 1.6
1.625 0.375 1.5375
1.5625 0.375 1.6
1.625 0.3125 1.5375
1.5625 0.3125 1.6
1.5625 0.375 1.5375
1.5625 0.3125 1.5375
1.75 0.3125 1.6
1.75 0.375 1.5375
1.6875 0.375 1.6
1.75 0.3125 1.5375
1.6875 0.3125 1.6
1.6875 0.375 1.5375
1.6875 0.3125 1.5375
1.875 0.3125 1.6
1.875 0.375 1.5375
1.8125 0.375 1.6
1.875 0.3125 1.5375
1.8125 0.3125 1.6
1.8125 0.375 1.5375
1.8125 0.3125 1.5375
2 0.3125 1.6
2 0.375 1.5375
1.9375 0.375 1.6
2 0.3125 1.5375
1.9375 0.3125 1.6
1.9375 0.375 1.5375
1.9375 0.3125 1.5375
2.125 0.3125 1.6
2.125 0.375 1.5375
2.0625 0.375 1.6
2.125 0.3125 1.5375
2.0625 0.3125 1.6
2.0625 0.375 1.5375
2.0625 0.3125 1.5375
2.25 0.3125 1.6
2.25 0.375 1.5375
2.1875 0.375 1.6
2.25 0.3125 1.5375
2.1875 0.3125 1.6
2.1875 0.375 1.5375
2.1875 0.3125 1.5375
2.375 0.3125 1.6
2.375 0.375 1.5375
2.3125 0.375 1.6
2.375 0.3125 1.5375
2.3125 0.3125 1.6
2.3125 0.375 1.5375
2.3125 0.3125 1.5375
2.5 0.3125 1.6
2.5 0.375 1.5375
2.4375 0.375 1.6
2.5 0.3125 1.5375
2.4375 0.3125 1.6
2.4375 0.375 1.5375
2.4375 0.3125 1.5375
2.625 0.3125 1.6
2.625 0.375 1.5375
2.5625 0.375 1.6
2.625 0.3125 1.5375
2.5625 0.3125 1.6
2.5625 0.375 1.5375
2.5625 0.3125 1.5375
2.75 0.3125 1.6
2.75 0.375 1.5375
2.6875 0.375 1.6
2.75 0.3125 1.5375
2.6875 0.3125 1.6
2.6875 0.375 1.5375
2.6875 0.3125 1.5375
2.875 0.3125 1.6
2.875 0.375 1.5375
2.8125 0.375 1.6
2.875 0.3125 1.5375
2.8125 0.3125 1.6
2.8125 0.375 1.5375
2.8125 0.3125 1.5375
3 0.3125 1.6
3 0.375 1.5375
2.9375 0.375 1.6
3 0.3125 1.5375
2.9375 0.3125 1.6
2.9375 0.375 1.5375
2.9375 0.3125 1.5375
0.125 0.4375 1.6
0 0.4375 1.6
0.125 0.5 1.5375
0.0625 0.5 1.6
0 0.5 1.5375
0.125 0.4375 1.5375
0.0625 0.4375 1.6
0 0.4375 1.5375
0.0625 0.5 1.5375
0.0625 0.4375 1.5375
0.25 0.4375 1.6
0.25 0.5 1.5375
0.1875 0.5 1.6
0.25 0.4375 1.5375
0.1875 0.4375 1.6
0.1875 0.5 1.5375
0.1875 0.4375 1.5375
0.375 0.4375 1.6
0.375 0.5 1.5375
0.3125 0.5 1.6
0.375 0.4375 1.5375
0.3125 0.4375 1.6
0.3125 0.5 1.5375
0.3125 0.4375 1.5375
0.5 0.4375 1.6
0.5 0.5 1.5375
0.4375 0.5 1.6
0.5 0.4375 1.5375
0.4375 0.4375 1.6
0.4375 0.5 1.5375
0.4375 0.4375 1.5375
0.625 0.4375 1.6
0.625 0.5 1.5375
0.5625 0.5 1.6
0.625 0.4375 1.5375
0.5625 0.4375 1.6
0.5625 0.5 1.5375
0.5625 0.4375 1.5375
0.75 0.4375 1.6
0.75 0.5 1.5375
0.6875 0.5 1.6
0.75 0.4375 1.5375
0.6875 0.4375 1.6
0.6875 0.5 1.5375
0.6875 0.4375 1.5375
0.875 0.4375 1.6
0.875 0.5 1.5375
0.8125 0.5 1.6
0.875 0.4375 1.5375
0.8125 0.4375 1.6
0.8125 0.5 1.5375
0.8125 0.4375 1.5375
1 0.4375 1.6
1 0.5 1.5375
0.9375 0.5 1.6
1 0.4375 1.5375
0.9375 0.4375 1.6
0.9375 0.5 1.5375
0.9375 0.4375 1.5375
1.125 0.4375 1.6
1.125 0.5 1.5375
1.0625 0.5 1.6
1.125 0.4375 1.5375
1.0625 0.4375 1.6
1.0625 0.5 1.5375
1.0625 0.4375 1.5375
1.25 0.4375 1.6
1.25 0.5 1.5375
1.1875 0.5 1.6
1.25 0.4375 1.5375
1.1875 0.4375 1.6
1.1875 0.5 1.5375
1.1875 0.4375 1.5375
1.375 0.4375 1.6
1.375 0.5 1.5375
1.3125 0.5 1.6
1.375 0.4375 1.5375
1.3125 0.4375 1.6
1.3125 0.5 1.5375
1.3125 0.4375 1.5375
1.5 0.4375 1.6
1.5 0.5 1.5375
1.4375 0.5 1.6
1.5 0.4375 1.5375
1.4375 0.4375 1.6
1.4375 0.5 1.5375
1.4375 0.4375 1.5375
1.625 0.4375 1.6
1.625 0.5 1.5375
1.5625 0.5 1.6
1.625 0.4375 1.5375
1.5625 0.4375 1.6
1.5625 0.5 1.5375
1.5625 0.4375 1.5375
1.75 0.4375 1.6
1.75 0.5 1.5375
1.6875 0.5 1.6
1.75 0.4375 1.5375
1.6875 0.4375 1.6
1.6875 0.5 1.5375
1.6875 0.4375 1.5375
1.875 0.4375 1.6
1.875 0.5 1.5375
1.8125 0.5 1.6
1.875 0.4375 1.5375
1.8125 0.4375 1.6
1.8125 0.5 1.5375
1.8125 0.4375 1.5375
2 0.4375 1.6
2 0.5 1.5375
1.9375 0.5 1.6
2 0.4375 1.5375
1.9375 0.4375 1.6
1.9375 0.5 1.5375
1.9375 0.4375 1.5375
2.125 0.4375 1.6
2.125 0.5 1.5375
2.0625 0.5 1.6
2.125 0.4375 1.5375
2.0625 0.4375 1.6
2.0625 0.5 1.5375
2.0625 0.4375 1.5375
2.25 0.4375 1.6
2.25 0.5 1.5375
2.1875 0.5 1.6
2.25 0.4375 1.5375
2.1875 0.4375 1.6
2.1875 0.5 1.5375
2.1875 0.4375 1.5375
2.375 0.4375 1.6
2.375 0.5 1.5375
2.3125 0.5 1.6
2.375 0.4375 1.5375
2.3125 0.4375 1.6
2.3125 0.5 1.5375
2.3125 0.4375 1.5375
2.5 0.4375 1.6
2.5 0.5 1.5375
2.4375 0.5 1.6
2.5 0.4375 1.5375
2.4375 0.4375 1.6
2.4375 0.5 1.5375
2.4375 0.4375 1.5375
2.625 0.4375 1.6
2.625 0.5 1.5375
2.5625 0.5 1.6
2.625 0.4375 1.5375
2.5625 0.4375 1.6
2.5625 0.5 1.5375
2.5625 0.4375 1.5375
2.75 0.4375 1.6
2.75 0.5 1.5375
2.6875 0.5 1.6
2.75 0.4375 1.5375
2.6875 0.4375 1.6
2.6875 0.5 1.5375
2.6875 0.4375 1.5375
2.875 0.4375 1.6
2.875 0.5 1.5375
2.8125 0.5 1.6
2.875 0.4375 1.5375
2.8125 0.4375 1.6
2.8125 0.5 1.5375
2.8125 0.4375 1.5375
3 0.4375 1.6
3 0.5 1.5375
2.9375 0.5 1.6
3 0.4375 1.5375
2.9375 0.4375 1.6
2.9375 0.5 1.5375
2.9375 0.4375 1.5375
0.125 0.5625 1.6
0 0.5625 1.6
0.125 0.625 1.5375
0.0625 0.625 1.6
0 0.625 1.5375
0.125 0.5625 1.5375
0.0625 0.5625 1.6
0 0.5625 1.5375
0.0625 0.625 1.5375
0.0625 0.5625 1.5375
0.25 0.5625 1.6
0.25 0.625 1.5375
0.1875 0.625 1.6
0.25 0.5625 1.5375
0.1875 0.5625 1.6
0.1875 0.625 1.5375
0.1875 0.5625 1.5375
0.375 0.5625 1.6
0.375 0.625 1.5375
0.3125 0.625 1.6
0.375 0.5625 1.5375
0.3125 0.5625 1.6
0.3125 0.625 1.5375
0.3125 0.5625 1.5375
0.5 0.5625 1.6
0.5 0.625 1.5375
0.4375 0.625 1.6
0.5 0.5625 1.5375
0.4375 0.5625 1.6
0.4375 0.625 1.5375
0.4375 0.5625 1.5375
0.625 0.5625 1.6
0.625 0.625 1.5375
0.5625 0.625 1.6
0.625 0.5625 1.5375
0.5625 0.5625 1.6
0.5625 0.625 1.5375
0.5625 0.5625 1.5375
0.75 0.5625 1.6
0.75 0.625 1.5375
0.6875 0.625 1.6
0.75 0.5625 1.5375
0.6875 0.5625 1.6
0.6875 0.625 1.5375
0.6875 0.5625 1.5375
0.875 0.5625 1.6
0.875 0.625 1.5375
0.8125 0.625 1.6
0.875 0.5625 1.5375
0.8125 0.5625 1.6
0.8125 0.625 1.5375
0.8125 0.5625 1.5375
1 0.5625 1.6
1 0.625 1.5375
0.9375 0.625 1.6
1 0.5625 1.5375
0.9375 0.5625 1.6
0.9375 0.625 1.5375
0.9375 0.5625 1.5375
1.125 0.5625 1.6
1.125 0.625 1.5375
1.0625 0.625 1.6
1.125 0.5625 1.5375
1.0625 0.5625 1.6
1.0625 0.625 1.5375
1.0625 0.5625 1.5375
1.25 0.5625 1.6
1.25 0.625 1.5375
1.1875 0.625 1.6
1.25 0.5625 1.5375
1.1875 0.5625 1.6
1.1875 0.625 1.5375
1.1875 0.5625 1.5375
1.375 0.5625 1.6
1.375 0.625 1.5375
1.3125 0.625 1.6
1.375 0.5625 1.5375
1.3125 0.5625 1.6
1.3125 0.625 1.5375
1.3125 0.5625 1.5375
1.5 0.5625 1.6
1.5 0.625 1.5375
1.4375 0.625 1.6
1.5 0.5625 1.5375
1.4375 0.5625 1.6
1.4375 0.625 1.5375
1.4375 0.5625 1.5375
1.625 0.5625 1.6
1.625 0.625 1.5375
1.5625 0.625 1.6
1.625 0.5625 1.5375
1.5625 0.5625 1.6
1.5625 0.625 1.5375
1.5625 0.5625 1.5375
1.75 0.5625 1.6
1.75 0.625 1.5375
1.6875 0.625 1.6
1.75 0.5625 1.5375
1.6875 0.5625 1.6
1.6875 0.625 1.5375
1.6875 0.5625 1.5375
1.875 0.5625 1.6
1.875 0.625 1.5375
1.8125 0.625 1.6
1.875 0.5625 1.5375
1.8125 0.5625 1.6
1.8125 0.625 1.5375
1.8125 0.5625 1.5375
2 0.5625 1.6
2 0.625 1.5375
1.9375 0.625 1.6
2 0.5625 1.5375
1.9375 0.5625 1.6
1.9375 0.625 1.5375
1.9375 0.5625 1.5375
2.125 0.5625 1.6
2.125 0.625 1.5375
2.0625 0.625 1.6
2.125 0.5625 1.5375
2.0625 0.5625 1.6
2.0625 0.625 1.5375
2.0625 0.5625 1.5375
2.25 0.5625 1.6
2.25 0.625 1.5375
2.1875 0.625 1.6
2.25 0.5625 1.5375
2.1875 0.5625 1.6
2.1875 0.625 1.5375
2.1875 0.5625 1.5375
2.375 0.5625 1.6
2.375 0.625 1.5375
2.3125 0.625 1.6
2.375 0.5625 1.5375
2.3125 0.5625 1.6
2.3125 0.625 1.5375
2.3125 0.5625 1.5375
2.5 0.5625 1.6
2.5 0.625 1.5375
2.4375 0.625 1.6
2.5 0.5625 1.5375
2.4375 0.5625 1.6
2.4375 0.625 1.5375
2.4375 0.5625 1.5375
2.625 0.5625 1.6
2.625 0.625 1.5375
2.5625 0.625 1.6
2.625 0.5625 1.5375
2.5625 0.5625 1.6
2.5625 0.625 1.5375
2.5625 0.5625 1.5375
2.75 0.5625 1.6
2.75 0.625 1.5375
2.6875 0.625 1.6
2.75 0.5625 1.5375
2.6875 0.5625 1.6
2.6875 0.625 1.5375
2.6875 0.5625 1.5375
2.875 0.5625 1.6
2.875 0.625 1.5375
2.8125 0.625 1.6
2.875 0.5625 1.5375
2.8125 0.5625 1.6
2.8125 0.625 1.5375
2.8125 0.5625 1.5375
3 0.5625 1.6
3 0.625 1.5375
2.9375 0.625 1.6
3 0.5625 1.5375
2.9375 0.5625 1.6
2.9375 0.625 1.5375
2.9375 0.5625 1.5375
0.125 0.6875 1.6
0 0.6875 1.6
0.125 0.75 1.5375
0.0625 0.75 1.6
0 0.75 1.5375
0.125 0.6875 1.5375
0.0625 0.6875 1.6
0 0.6875 1.5375
0.0625 0.75 1.5375
0.0625 0.6875 1.5375
0.25 0.6875 1.6
0.25 0.75 1.5375
0.1875 0.75 1.6
0.25 0.6875 1.5375
0.1875 0.6875 1.6
0.1875 0.75 1.5375
0.1875 0.6875 1.5375
0.375 0.6875 1.6
0.375 0.75 1.5375
0.3125 0.75 1.6
0.375 0.6875 1.5375
0.3125 0.6875 1.6
0.3125 0.75 1.5375
0.3125 0.6875 1.5375
0.5 0.6875 1.6
0.5 0.75 1.5375
0.4375 0.75 1.6
0.5 0.6875 1.5375
0.4375 0.6875 1.6
0.4375 0.75 1.5375
0.4375 0.6875 1.5375
0.625 0.6875 1.6
0.625 0.75 1.5375
0.5625 0.75 1.6
0.625 0.6875 1.5375
0.5625 0.6875 1.6
0.5625 0.75 1.5375
0.5625 0.6875 1.5375
0.75 0.6875 1.6
0.75 0.75 1.5375
0.6875 0.75 1.6
0.75 0.6875 1.5375
0.6875 0.6875 1.6
0.6875 0.75 1.5375
0.6875 0.6875 1.5375
0.875 0.6875 1.6
0.875 0.75 1.5375
0.8125 0.75 1.6
0.875 0.6875 1.5375
0.8125 0.6875 1.6
0.8125 0.75 1.5375
0.8125 0.6875 1.5375
1 0.6875 1.6
1 0.75 1.5375
0.9375 0.75 1.6
1 0.6875 1.5375
0.9375 0.6875 1.6
0.9375 0.75 1.5375
0.9375 0.6875 1.5375
1.125 0.6875 1.6
1.125 0.75 1.5375
1.0625 0.75 1.6
1.125 0.6875 1.5375
1.0625 0.6875 1.6
1.0625 0.75 1.5375
1.0625 0.6875 1.5375
1.25 0.6875 1.6
1.25 0.75 1.5375
1.1875 0.75 1.6
1.25 0.6875 1.5375
1.1875 0.6875 1.6
1.1875 0.75 1.5375
1.1875 0.6875 1.5375
1.375 0.6875 1.6
1.375 0.75 1.5375
1.3125 0.75 1.6
1.375 0.6875 1.5375
1.3125 0.6875 1.6
1.3125 0.75 1.5375
1.3125 0.6875 1.5375
1.5 0.6875 1.6
1.5 0.75 1.5375
1.4375 0.75 1.6
1.5 0.6875 1.5375
1.4375 0.6875 1.6
1.4375 0.75 1.5375
1.4375 0.6875 1.5375
1.625 0.6875 1.6
1.625 0.75 1.5375
1.5625 0.75 1.6
1.625 0.6875 1.5375
1.5625 0.6875 1.6
1.5625 0.75 1.5375
1.5625 0.6875 1.5375
1.75 0.6875 1.6
1.75 0.75 1.5375
1.6875 0.75 1.6
1.75 0.6875 1.5375
1.6875 0.6875 1.6
1.6875 0.75 1.5375
1.6875 0.6875 1.5375
1.875 0.6875 1.6
1.875 0.75 1.5375
1.8125 0.75 1.6
1.875 0.6875 1.5375
1.8125 0.6875 1.6
1.8125 0.75 1.5375
1.8125 0.6875 1.5375
2 0.6875 1.6
2 0.75 1.5375
1.9375 0.75 1.6
2 0.6875 1.5375
1.9375 0.6875 1.6
1.9375 0.75 1.5375
1.9375 0.6875 1.5375
2.125 0.6875 1.6
2.125 0.75 1.5375
2.0625 0.75 1.6
2.125 0.6875 1.5375
2.0625 0.6875 1.6
2.0625 0.75 1.5375
2.0625 0.6875 1.5375
2.25 0.6875 1.6
2.25 0.75 1.5375
2.1875 0.75 1.6
2.25 0.6875 1.5375
2.1875 0.6875 1.6
2.1875 0.75 1.5375
2.1875 0.6875 1.5375
2.375 0.6875 1.6
2.375 0.75 1.5375
2.3125 0.75 1.6
2.375 0.6875 1.5375
2.3125 0.6875 1.6
2.3125 0.75 1.5375
2.3125 0.6875 1.5375
2.5 0.6875 1.6
2.5 0.75 1.5375
2.4375 0.75 1.6
2.5 0.6875 1.5375
2.4375 0.6875 1.6
2.4375 0.75 1.5375
2.4375 0.6875 1.5375
2.625 0.6875 1.6
2.625 0.75 1.5375
2.5625 0.75 1.6
2.625 0.6875 1.5375
2.5625 0.6875 1.6
2.5625 0.75 1.5375
2.5625 0.6875 1.5375
2.75 0.6875 1.6
2.75 0.75 1.5375
2.6875 0.75 1.6
2.75 0.6875 1.5375
2.6875 0.6875 1.6
2.6875 0.75 1.5375
2.6875 0.6875 1.5375
2.875 0.6875 1.6
2.875 0.75 1.5375
2.8125 0.75 1.6
2.875 0.6875 1.5375
2.8125 0.6875 1.6
2.8125 0.75 1.5375
2.8125 0.6875 1.5375
3 0.6875 1.6
3 0.75 1.5375
2.9375 0.75 1.6
3 0.6875 1.5375
2.9375 0.6875 1.6
2.9375 0.75 1.5375
2.9375 0.6875 1.5375
0.125 0.8125 1.6
0 0.8125 1.6
0.125 0.875 1.5375
0.0625 0.875 1.6
0 0.875 1.5375
0.125 0.8125 1.5375
0.0625 0.8125 1.6
0 0.8125 1.5375
0.0625 0.875 1.5375
0.0625 0.8125 1.5375
0.25 0.8125 1.6
0.25 0.875 1.5375
0.1875 0.875 1.6
0.25 0.8125 1.5375
0.1875 0.8125 1.6
0.1875 0.875 1.5375
0.1875 0.8125 1.5375
0.375 0.8125 1.6
0.375 0.875 1.5375
0.3125 0.875 1.6
0.375 0.8125 1.5375
0.3125 0.8125 1.6
0.3125 0.875 1.5375
0.3125 0.8125 1.5375
0.5 0.8125 1.6
0.5 0.875 1.5375
0.4375 0.875 1.6
0.5 0.8125 1.5375
0.4375 0.8125 1.6
0.4375 0.875 1.5375
0.4375 0.8125 1.5375
0.625 0.8125 1.6
0.625 0.875 1.5375
0.5625 0.875 1.6
0.625 0.8125 1.5375
0.5625 0.8125 1.6
0.5625 0.875 1.5375
0.5625 0.8125 1.5375
0.75 0.8125 1.6
0.75 0.875 1.5375
0.6875 0.875 1.6
0.75 0.8125 1.5375
0.6875 0.8125 1.6
0.6875 0.875 1.5375
0.6875 0.8125 1.5375
0.875 0.8125 1.6
0.875 0.875 1.5375
0.8125 0.875 1.6
0.875 0.8125 1.5375
0.8125 0.8125 1.6
0.8125 0.875 1.5375
0.8125 0.8125 1.5375
1 0.8125 1.6
1 0.875 1.5375
0.9375 0.875 1.6
1 0.8125 1.5375
0.9375 0.8125 1.6
0.9375 0.875 1.5375
0.9375 0.8125 1.5375
1.125 0.8125 1.6
1.125 0.875 1.5375
1.0625 0.875 1.6
1.125 0.8125 1.5375
1.0625 0.8125 1.6
1.0625 0.875 1.5375
1.0625 0.8125 1.5375
1.25 0.8125 1.6
1.25 0.875 1.5375
1.1875 0.875 1.6
1.25 0.8125 1.5375
1.1875 0.8125 1.6
1.1875 0.875 1.5375
1.1875 0.8125 1.5375
1.375 0.8125 1.6
1.375 0.875 1.5375
1.3125 0.875 1.6
1.375 0.8125 1.5375
1.3125 0.8125 1.6
1.3125 0.875 1.5375
1.3125 0.8125 1.5375
1.5 0.8125 1.6
1.5 0.875 1.5375
1.4375 0.875 1.6
1.5 0.8125 1.5375
1.4375 0.8125 1.6
1.4375 0.875 1.5375
1.4375 0.8125 1.5375
1.625 0.8125 1.6
1.625 0.875 1.5375
1.5625 0.875 1.6
1.625 0.8125 1.5375
1.5625 0.8125 1.6
1.5625 0.875 1.5375
1.5625 0.8125 1.5375
1.75 0.8125 1.6
1.75 0.875 1.5375
1.6875 0.875 1.6
1.75 0.8125 1.5375
1.6875 0.8125 1.6
1.6875 0.875 1.5375
1.6875 0.8125 1.5375
1.875 0.8125 1.6
1.875 0.875 1.5375
1.8125 0.875 1.6
1.875 0.8125 1.5375
1.8125 0.8125 1.6
1.8125 0.875 1.5375
1.8125 0.8125 1.5375
2 0.8125 1.6
2 0.875 1.5375
1.9375 0.875 1.6
2 0.8125 1.5375
1.9375 0.8125 1.6
1.9375 0.875 1.5375
1.9375 0.8125 1.5375
2.125 0.8125 1.6
2.125 0.875 1.5375
2.0625 0.875 1.6
2.125 0.8125 1.5375
2.0625 0.8125 1.6
2.0625 0.875 1.5375
2.0625 0.8125 1.5375
2.25 0.8125 1.6
2.25 0.875 1.5375
2.1875 0.875 1.6
2.25 0.8125 1.5375
2.1875 0.8125 1.6
2.1875 0.875 1.5375
2.1875 0.8125 1.5375
2.375 0.8125 1.6
2.375 0.875 1.5375
2.3125 0.875 1.6
2.375 0.8125 1.5375
2.3125 0.8125 1.6
2.3125 0.875 1.5375
2.3125 0.8125 1.5375
2.5 0.8125 1.6
2.5 0.875 1.5375
2.4375 0.875 1.6
2.5 0.8125 1.5375
2.4375 0.8125 1.6
2.4375 0.875 1.5375
2.4375 0.8125 1.5375
2.625 0.8125 1.6
2.625 0.875 1.5375
2.5625 0.875 1.6
2.625 0.8125 1.5375
2.5625 0.8125 1.6
2.5625 0.875 1.5375
2.5625 0.8125 1.5375
2.75 0.8125 1.6
2.75 0.875 1.5375
2.6875 0.875 1.6
2.75 0.8125 1.5375
2.6875 0.8125 1.6
2.6875 0.875 1.5375
2.6875 0.8125 1.5375
2.875 0.8125 1.6
2.875 0.875 1.5375
2.8125 0.875 1.6
2.875 0.8125 1.5375
2.8125 0.8125 1.6
2.8125 0.875 1.5375
2.8125 0.8125 1.5375
3 0.8125 1.6
3 0.875 1.5375
2.9375 0.875 1.6
3 0.8125 1.5375
2.9375 0.8125 1.6
2.9375 0.875 1.5375
2.9375 0.8125 1.5375
0.125 0.9375 1.6
0 0.9375 1.6
0.125 1 1.5375
0.0625 1 1.6
0 1 1.5375
0.125 0.9375 1.5375
0.0625 0.9375 1.6
0 0.9375 1.5375
0.0625 1 1.5375
0.0625 0.9375 1.5375
0.25 0.9375 1.6
0.25 1 1.5375
0.1875 1 1.6
0.25 0.9375 1.5375
0.1875 0.9375 1.6
0.1875 1 1.5375
0.1875 0.9375 1.5375
0.375 0.9375 1.6
0.375 1 1.5375
0.3125 1 1.6
0.375 0.9375 1.5375
0.3125 0.9375 1.6
0.3125 1 1.5375
0.3125 0.9375 1.5375
0.5 0.9375 1.6
0.5 1 1.5375
0.4375 1 1.6
0.5 0.9375 1.5375
0.4375 0.9375 1.6
0.4375 1 1.5375
0.4375 0.9375 1.5375
0.625 0.9375 1.6
0.625 1 1.5375
0.5625 1 1.6
0.625 0.9375 1.5375
0.5625 0.9375 1.6
0.5625 1 1.5375
0.5625 0.9375 1.5375
0.75 0.9375 1.6
0.75 1 1.5375
0.6875 1 1.6
0.75 0.9375 1.5375
0.6875 0.9375 1.6
0.6875 1 1.5375
0.6875 0.9375 1.5375
0.875 0.9375 1.6
0.875 1 1.5375
0.8125 1 1.6
0.875 0.9375 1.5375
0.8125 0.9375 1.6
0.8125 1 1.5375
0.8125 0.9375 1.5375
1 0.9375 1.6
1 1 1.5375
0.9375 1 1.6
1 0.9375 1.5375
0.9375 0.9375 1.6
0.9375 1 1.5375
0.9375 0.9375 1.5375
1.125 0.9375 1.6
1.125 1 1.5375
1.0625 1 1.6
1.125 0.9375 1.5375
1.0625 0.9375 1.6
1.0625 1 1.5375
1.0625 0.9375 1.5375
1.25 0.9375 1.6
1.25 1 1.5375
1.1875 1 1.6
1.25 0.9375 1.5375
1.1875 0.9375 1.6
1.1875 1 1.5375
1.1875 0.9375 1.5375
1.375 0.9375 1.6
1.375 1 1.5375
1.3125 1 1.6
1.375 0.9375 1.5375
1.3125 0.9375 1.6
1.3125 1 1.5375
1.3125 0.9375 1.5375
1.5 0.9375 1.6
1.5 1 1.5375
1.4375 1 1.6
1.5 0.9375 1.5375
1.4375 0.9375 1.6
1.4375 1 1.5375
1.4375 0.9375 1.5375
1.625 0.9375 1.6
1.625 1 1.5375
1.5625 1 1.6
1.625 0.9375 1.5375
1.5625 0.9375 1.6
1.5625 1 1.5375
1.5625 0.9375 1.5375
1.75 0.9375 1.6
1.75 1 1.5375
1.6875 1 1.6
1.75 0.9375 1.5375
1.6875 0.9375 1.6
1.6875 1 1.5375
1.6875 0.9375 1.5375
1.875 0.9375 1.6
1.875 1 1.5375
1.8125 1 1.6
1.875 0.9375 1.5375
1.8125 0.9375 1.6
1.8125 1 1.5375
1.8125 0.9375 1.5375
2 0.9375 1.6
2 1 1.5375
1.9375 1 1.6
2 0.9375 1.5375
1.9375 0.9375 1.6
1.9375 1 1.5375
1.9375 0.9375 1.5375
2.125 0.9375 1.6
2.125 1 1.5375
2.0625 1 1.6
2.125 0.9375 1.5375
2.0625 0.9375 1.6
2.0625 1 1.5375
2.0625 0.9375 1.5375
2.25 0.9375 1.6
2.25 1 1.5375
2.1875 1 1.6
2.25 0.9375 1.5375
2.1875 0.9375 1.6
2.1875 1 1.5375
2.1875 0.9375 1.5375
2.375 0.9375 1.6
2.375 1 1.5375
2.3125 1 1.6
2.375 0.9375 1.5375
2.3125 0.9375 1.6
2.3125 1 1.5375
2.3125 0.9375 1.5375
2.5 0.9375 1.6
2.5 1 1.5375
2.4375 1 1.6
2.5 0.9375 1.5375
2.4375 0.9375 1.6
2.4375 1 1.5375
2.4375 0.9375 1.5375
2.625 0.9375 1.6
2.625 1 1.5375
2.5625 1 1.6
2.625 0.9375 1.5375
2.5625 0.9375 1.6
2.5625 1 1.5375
2.5625 0.9375 1.5375
2.75 0.9375 1.6
2.75 1 1.5375
2.6875 1 1.6
2.75 0.9375 1.5375
2.6875 0.9375 1.6
2.6875 1 1.5375
2.6875 0.9375 1.5375
2.875 0.9375 1.6
2.875 1 1.5375
2.8125 1 1.6
2.875 0.9375 1.5375
2.8125 0.9375 1.6
2.8125 1 1.5375
2.8125 0.9375 1.5375
3 0.9375 1.6
3 1 1.5375
2.9375 1 1.6
3 0.9375 1.5375
2.9375 0.9375 1.6
2.9375 1 1.5375
2.9375 0.9375 1.5375
0.125 0 1.6625
0.0625 0 1.725
0 0 1.6625
0.125 0.0625 1.725
0 0.0625 1.725
0.125 0.125 1.6625
0.0625 0.125 1.725
0 0.125 1.6625
0.0625 0 1.6625
0.125 0.0625 1.6625
0.0625 0.0625 1.725
0 0.0625 1.6625
0.0625 0.125 1.6625
0.0625 0.0625 1.6625
0.25 0 1.6625
0.1875 0 1.725
0.25 0.0625 1.725
0.25 0.125 1.6625
0.1875 0.125 1.725
0.1875 0 1.6625
0.25 0.0625 1.6625
0.1875 0.0625 1.725
0.1875 0.125 1.6625
0.1875 0.0625 1.6625
0.375 0 1.6625
0.3125 0 1.725
0.375 0.0625 1.725
0.375 0.125 1.6625
0.3125 0.125 1.725
0.3125 0 1.6625
0.375 0.0625 1.6625
0.3125 0.0625 1.725
0.3125 0.125 1.6625
0.3125 0.0625 1.6625
0.5 0 1.6625
0.4375 0 1.725
0.5 0.0625 1.725
0.5 0.125 1.6625
0.4375 0.125 1.725
0.4375 0 1.6625
0.5 0.0625 1.6625
0.4375 0.0625 1.725
0.4375 0.125 1.6625
0.4375 0.0625 1.6625
0.625 0 1.6625
0.5625 0 1.725
0.625 0.0625 1.725
0.625 0.125 1.6625
0.5625 0.125 1.725
0.5625 0 1.6625
0.625 0.0625 1.6625
0.5625 0.0625 1.725
0.5625 0.125 1.6625
0.5625 0.0625 1.6625
0.75 0 1.6625
0.6875 0 1.725
0.75 0.0625 1.725
0.75 0.125 1.6625
0.6875 0.125 1.725
0.6875 0 1.6625
0.75 0.0625 1.6625
0.6875 0.0625 1.725
0.6875 0.125 1.6625
0.6875 0.0625 1.6625
0.875 0 1.6625
0.8125 0 1.725
0.875 0.0625 1.725
0.875 0.125 1.6625
0.8125 0.125 1.725
0.8125 0 1.6625
0.875 0.0625 1.6625
0.8125 0.0625 1.725
0.8125 0.125 1.6625
0.8125 0.0625 1.6625
1 0 1.6625
0.9375 0 1.725
1 0.0625 1.725
1 0.125 1.6625
0.9375 0.125 1.725
0.9375 0 1.6625
1 0.0625 1.6625
0.9375 0.0625 1.725
0.9375 0.125 1.6625
0.9375 0.0625 1.6625
1.125 0 1.6625
1.0625 0 1.725
1.125 0.0625 1.725
1.125 0.125 1.6625
1.0625 0.125 1.725
1.0625 0 1.6625
1.125 0.0625 1.6625
1.0625 0.0625 1.725
1.0625 0.125 1.6625
1.0625 0.0625 1.6625
1.25 0 1.6625
1.1875 0 1.725
1.25 0.0625 1.725
1.25 0.125 1.6625
1.1875 0.125 1.725
1.1875 0 1.6625
1.25 0.0625 1.6625
1.1875 0.0625 1.725
1.1875 0.125 1.6625
1.1875 0.0625 1.6625
1.375 0 1.6625
1.3125 0 1.725
1.375 0.0625 1.725
1.375 0.125 1.6625
1.3125 0.125 1.725
1.3125 0 1.6625
1.375 0.0625 1.6625
1.3125 0.0625 1.725
1.3125 0.125 1.6625
1.3125 0.0625 1.6625
1.5 0 1.6625
1.4375 0 1.725
1.5 0.0625 1.725
1.5 0.125 1.6625
1.4375 0.125 1.725
1.4375 0 1.6625
1.5 0.0625 1.6625
1.4375 0.0625 1.725
1.4375 0.125 1.6625
1.4375 0.0625 1.6625
1.625 0 1.6625
1.5625 0 1.725
1.625 0.0625 1.725
1.625 0.125 1.6625
1.5625 0.125 1.725
1.5625 0 1.6625
1.625 0.0625 1.6625
1.5625 0.0625 1.725
1.5625 0.125 1.6625
1.5625 0.0625 1.6625
1.75 0 1.6625
1.6875 0 1.725
1.75 0.0625 1.725
1.75 0.125 1.6625
1.6875 0.125 1.725
1.6875 0 1.6625
1.75 0.0625 1.6625
1.6875 0.0625 1.725
1.6875 0.125 1.6625
1.6875 0.0625 1.6625
1.875 0 1.6625
1.8125 0 1.725
1.875 0.0625 1.725
1.875 0.125 1.6625
1.8125 0.125 1.725
1.8125 0 1.6625
1.875 0.0625 1.6625
1.8125 0.0625 1.725
1.8125 0.125 1.6625
1.8125 0.0625 1.6625
2 0 1.6625
1.9375 0 1.725
2 0.0625 1.725
2 0.125 1.6625
1.9375 0.125 1.725
1.9375 0 1.6625
2 0.0625 1.6625
1.9375 0.0625 1.725
1.9375 0.125 1.6625
1.9375 0.0625 1.6625
2.125 0 1.6625
2.0625 0 1.725
2.125 0.0625 1.725
2.125 0.125 1.6625
2.0625 0.125 1.725
2.0625 0 1.6625
2.125 0.0625 1.6625
2.0625 0.0625 1.725
2.0625 0.125 1.6625
2.0625 0.0625 1.6625
2.25 0 1.6625
2.1875 0 1.725
2.25 0.0625 1.725
2.25 0.125 1.6625
2.1875 0.125 1.725
2.1875 0 1.6625
2.25 0.0625 1.6625
2.1875 0.0625 1.725
2.1875 0.125 1.6625
2.1875 0.0625 1.6625
2.375 0 1.6625
2.3125 0 1.725
2.375 0.0625 1.725
2.375 0.125 1.6625
2.3125 0.125 1.725
2.3125 0 1.6625
2.375 0.0625 1.6625
2.3125 0.0625 1.725
2.3125 0.125 1.6625
2.3125 0.0625 1.6625
2.5 0 1.6625
2.4375 0 1.725
2.5 0.0625 1.725
2.5 0.125 1.6625
2.4375 0.125 1.725
2.4375 0 1.6625
2.5 0.0625 1.6625
2.4375 0.0625 1.725
2.4375 0.125 1.6625
2.4375 0.0625 1.6625
2.625 0 1.6625
2.5625 0 1.725
2.625 0.0625 1.725
2.625 0.125 1.6625
2.5625 0.125 1.725
2.5625 0 1.6625
2.625 0.0625 1.6625
2.5625 0.0625 1.725
2.5625 0.125 1.6625
2.5625 0.0625 1.6625
2.75 0 1.6625
2.6875 0 1.725
2.75 0.0625 1.725
2.75 0.125 1.6625
2.6875 0.125 1.725
2.6875 0 1.6625
2.75 0.0625 1.6625
2.6875 0.0625 1.725
2.6875 0.125 1.6625
2.6875 0.0625 1.6625
2.875 0 1.6625
2.8125 0 1.725
2.875 0.0625 1.725
2.875 0.125 1.6625
2.8125 0.125 1.725
2.8125 0 1.6625
2.875 0.0625 1.6625
2.8125 0.0625 1.725
2.8125 0.125 1.6625
2.8125 0.0625 1.6625
3 0 1.6625
2.9375 0 1.725
3 0.0625 1.725
3 0.125 1.6625
2.9375 0.125 1.725
2.9375 0 1.6625
3 0.0625 1.6625
2.9375 0.0625 1.725
2.9375 0.125 1.6625
2.9375 0.0625 1.6625
0.125 0.1875 1.725
0 0.1875 1.725
0.125 0.25 1.6625
0.0625 0.25 1.725
0 0.25 1.6625
0.125 0.1875 1.6625
0.0625 0.1875 1.725
0 0.1875 1.6625
0.0625 0.25 1.6625
0.0625 0.1875 1.6625
0.25 0.1875 1.725
0.25 0.25 1.6625
0.1875 0.25 1.725
0.25 0.1875 1.6625
0.1875 0.1875 1.725
0.1875 0.25 1.6625
0.1875 0.1875 1.6625
0.375 0.1875 1.725
0.375 0.25 1.6625
0.3125 0.25 1.725
0.375 0.1875 1.6625
0.3125 0.1875 1.725
0.3125 0.25 1.6625
0.3125 0.1875 1.6625
0.5 0.1875 1.725
0.5 0.25 1.6625
0.4375 0.25 1.725
0.5 0.1875 1.6625
0.4375 0.1875 1.725
0.4375 0.25 1.6625
0.4375 0.1875 1.6625
0.625 0.1875 1.725
0.625 0.25 1.6625
0.5625 0.25 1.725
0.625 0.1875 1.6625
0.5625 0.1875 1.725
0.5625 0.25 1.6625
0.5625 0.1875 1.6625
0.75 0.1875 1.725
0.75 0.25 1.6625
0.6875 0.25 1.725
0.75 0.1875 1.6625
0.6875 0.1875 1.725
0.6875 0.25 1.6625
0.6875 0.1875 1.6625
0.875 0.1875 1.725
0.875 0.25 1.6625
0.8125 0.25 1.725
0.875 0.1875 1.6625
0.8125 0.1875 1.725
0.8125 0.25 1.6625
0.8125 0.1875 1.6625
1 0.1875 1.725
1 0.25 1.6625
0.9375 0.25 1.725
1 0.1875 1.6625
0.9375 0.1875 1.725
0.9375 0.25 1.6625
0.9375 0.1875 1.6625
1.125 0.1875 1.725
1.125 0.25 1.6625
1.0625 0.25 1.725
1.125 0.1875 1.6625
1.0625 0.1875 1.725
1.0625 0.25 1.6625
1.0625 0.1875 1.6625
1.25 0.1875 1.725
1.25 0.25 1.6625
1.1875 0.25 1.725
1.25 0.1875 1.6625
1.1875 0.1875 1.725
1.1875 0.25 1.6625
1.1875 0.1875 1.6625
1.375 0.1875 1.725
1.375 0.25 1.6625
1.3125 0.25 1.725
1.375 0.1875 1.6625
1.3125 0.1875 1.725
1.3125 0.25 1.6625
1.3125 0.1875 1.6625
1.5 0.1875 1.725
1.5 0.25 1.6625
1.4375 0.25 1.725
1.5 0.1875 1.6625
1.4375 0.1875 1.725
1.4375 0.25 1.6625
1.4375 0.1875 1.6625
1.625 0.1875 1.725
1.625 0.25 1.6625
1.5625 0.25 1.725
1.625 0.1875 1.6625
1.5625 0.1875 1.725
1.5625 0.25 1.6625
1.5625 0.1875 1.6625
1.75 0.1875 1.725
1.75 0.25 1.6625
1.6875 0.25 1.725
1.75 0.1875 1.6625
1.6875 0.1875 1.725
1.6875 0.25 1.6625
1.6875 0.1875 1.6625
1.875 0.1875 1.725
1.875 0.25 1.6625
1.8125 0.25 1.725
1.875 0.1875 1.6625
1.8125 0.1875 1.725
1.8125 0.25 1.6625
1.8125 0.1875 1.6625
2 0.1875 1.725
2 0.25 1.6625
1.9375 0.25 1.725
2 0.1875 1.6625
1.9375 0.1875 1.725
1.9375 0.25 1.6625
1.9375 0.1875 1.6625
2.125 0.1875 1.725
2.125 0.25 1.6625
2.0625 0.25 1.725
2.125 0.1875 1.6625
2.0625 0.1875 1.725
2.0625 0.25 1.6625
2.0625 0.1875 1.6625
2.25 0.1875 1.725
2.25 0.25 1.6625
2.1875 0.25 1.725
2.25 0.1875 1.6625
2.1875 0.1875 1.725
2.1875 0.25 1.6625
2.1875 0.1875 1.6625
2.375 0.1875 1.725
2.375 0.25 1.6625
2.3125 0.25 1.725
2.375 0.1875 1.6625
2.3125 0.1875 1.725
2.3125 0.25 1.6625
2.3125 0.1875 1.6625
2.5 0.1875 1.725
2.5 0.25 1.6625
2.4375 0.25 1.725
2.5 0.1875 1.6625
2.4375 0.1875 1.725
2.4375 0.25 1.6625
2.4375 0.1875 1.6625
2.625 0.1875 1.725
2.625 0.25 1.6625
2.5625 0.25 1.725
2.625 0.1875 1.6625
2.5625 0.1875 1.725
2.5625 0.25 1.6625
2.5625 0.1875 1.6625
2.75 0.1875 1.725
2.75 0.25 1.6625
2.6875 0.25 1.725
2.75 0.1875 1.6625
2.6875 0.1875 1.725
2.6875 0.25 1.6625
2.6875 0.1875 1.6625
2.875 0.1875 1.725
2.875 0.25 1.6625
2.8125 0.25 1.725
2.875 0.1875 1.6625
2.8125 0.1875 1.725
2.8125 0.25 1.6625
2.8125 0.1875 1.6625
3 0.1875 1.725
3 0.25 1.6625
2.9375 0.25 1.725
3 0.1875 1.6625
2.9375 0.1875 1.725
2.9375 0.25 1.6625
2.9375 0.1875 1.6625
0.125 0.3125 1.725
0 0.3125 1.725
0.125 0.375 1.6625
0.0625 0.375 1.725
0 0.375 1.6625
0.125 0.3125 1.6625
0.0625 0.3125 1.725
0 0.3125 1.6625
0.0625 0.375 1.6625
0.0625 0.3125 1.6625
0.25 0.3125 1.725
0.25 0.375 1.6625
0.1875 0.375 1.725
0.25 0.3125 1.6625
0.1875 0.3125 1.725
0.1875 0.375 1.6625
0.1875 0.3125 1.6625
0.375 0.3125 1.725
0.375 0.375 1.6625
0.3125 0.375 1.725
0.375 0.3125 1.6625
0.3125 0.3125 1.725
0.3125 0.375 1.6625
0.3125 0.3125 1.6625
0.5 0.3125 1.725
0.5 0.375 1.6625
0.4375 0.375 1.725
0.5 0.3125 1.6625
0.4375 0.3125 1.725
0.4375 0.375 1.6625
0.4375 0.3125 1.6625
0.625 0.3125 1.725
0.625 0.375 1.6625
0.5625 0.375 1.725
0.625 0.3125 1.6625
0.5625 0.3125 1.725
0.5625 0.375 1.6625
0.5625 0.3125 1.6625
0.75 0.3125 1.725
0.75 0.375 1.6625
0.6875 0.375 1.725
0.75 0.3125 1.6625
0.6875 0.3125 1.725
0.6875 0.375 1.6625
0.6875 0.3125 1.6625
0.875 0.3125 1.725
0.875 0.375 1.6625
0.8125 0.375 1.725
0.875 0.3125 1.6625
0.8125 0.3125 1.725
0.8125 0.375 1.6625
0.8125 0.3125 1.6625
1 0.3125 1.725
1 0.375 1.6625
0.9375 0.375 1.725
1 0.3125 1.6625
0.9375 0.3125 1.725
0.9375 0.375 1.6625
0.9375 0.3125 1.6625
1.125 0.3125 1.725
1.125 0.375 1.6625
1.0625 0.375 1.725
1.125 0.3125 1.6625
1.0625 0.3125 1.725
1.0625 0.375 1.6625
1.0625 0.3125 1.6625
1.25 0.3125 1.725
1.25 0.375 1.6625
1.1875 0.375 1.725
1.25 0.3125 1.6625
1.1875 0.3125 1.725
1.1875 0.375 1.6625
1.1875 0.3125 1.6625
1.375 0.3125 1.725
1.375 0.375 1.6625
1.3125 0.375 1.725
1.375 0.3125 1.6625
1.3125 0.3125 1.725
1.3125 0.375 1.6625
1.3125 0.3125 1.6625
1.5 0.3125 1.725
1.5 0.375 1.6625
1.4375 0.375 1.725
1.5 0.3125 1.6625
1.4375 0.3125 1.725
1.4375 0.375 1.6625
1.4375 0.3125 1.6625
1.625 0.3125 1.725
1.625 0.375 1.6625
1.5625 0.375 1.725
1.625 0.3125 1.6625
1.5625 0.3125 1.725
1.5625 0.375 1.6625
1.5625 0.3125 1.6625
1.75 0.3125 1.725
1.75 0.375 1.6625
1.6875 0.375 1.725
1.75 0.3125 1.6625
1.6875 0.3125 1.725
1.6875 0.375 1.6625
1.6875 0.3125 1.6625
1.875 0.3125 1.725
1.875 0.375 1.6625
1.8125 0.375 1.725
1.875 0.3125 1.6625
1.8125 0.3125 1.725
1.8125 0.375 1.6625
1.8125 0.3125 1.6625
2 0.3125 1.725
2 0.375 1.6625
1.9375 0.375 1.725
2 0.3125 1.6625
1.9375 0.3125 1.725
1.9375 0.375 1.6625
1.9375 0.3125 1.6625
2.125 0.3125 1.725
2.125 0.375 1.6625
2.0625 0.375 1.725
2.125 0.3125 1.6625
2.0625 0.3125 1.725
2.0625 0.375 1.6625
2.0625 0.3125 1.6625
2.25 0.3125 1.725
2.25 0.375 1.6625
2.1875 0.375 1.725
2.25 0.3125 1.6625
2.1875 0.3125 1.725
2.1875 0.375 1.6625
2.1875 0.3125 1.6625
2.375 0.3125 1.725
2.375 0.375 1.6625
2.3125 0.375 1.725
2.375 0.3125 1.6625
2.3125 0.3125 1.725
2.3125 0.375 1.6625
2.3125 0.3125 1.6625
2.5 0.3125 1.725
2.5 0.375 1.6625
2.4375 0.375 1.725
2.5 0.3125 1.6625
2.4375 0.3125 1.725
2.4375 0.375 1.6625
2.4375 0.3125 1.6625
2.625 0.3125 1.725
2.625 0.375 1.6625
2.5625 0.375 1.725
2.625 0.3125 1.6625
2.5625 0.3125 1.725
2.5625 0.375 1.6625
2.5625 0.3125 1.6625
2.75 0.3125 1.725
2.75 0.375 1.6625
2.6875 0.375 1.725
2.75 0.3125 1.6625
2.6875 0.3125 1.725
2.6875 0.375 1.6625
2.6875 0.3125 1.6625
2.875 0.3125 1.725
2.875 0.375 1.6625
2.8125 0.375 1.725
2.875 0.3125 1.6625
2.8125 0.3125 1.725
2.8125 0.375 1.6625
2.8125 0.3125 1.6625
3 0.3125 1.725
3 0.375 1.6625
2.9375 0.375 1.725
3 0.3125 1.6625
2.9375 0.3125 1.725
2.9375 0.375 1.6625
2.9375 0.3125 1.6625
0.125 0.4375 1.725
0 0.4375 1.725
0.125 0.5 1.6625
0.0625 0.5 1.725
0 0.5 1.6625
0.125 0.4375 1.6625
0.0625 0.4375 1.725
0 0.4375 1.6625
0.0625 0.5 1.6625
0.0625 0.4375 1.6625
0.25 0.4375 1.725
0.25 0.5 1.6625
0.1875 0.5 1.725
0.25 0.4375 1.6625
0.1875 0.4375 1.725
0.1875 0.5 1.6625
0.1875 0.4375 1.6625
0.375 0.4375 1.725
0.375 0.5 1.6625
0.3125 0.5 1.725
0.375 0.4375 1.6625
0.3125 0.4375 1.725
0.3125 0.5 1.6625
0.3125 0.4375 1.6625
0.5 0.4375 1.725
0.5 0.5 1.6625
0.4375 0.5 1.725
0.5 0.4375 1.6625
0.4375 0.4375 1.725
0.4375 0.5 1.6625
0.4375 0.4375 1.6625
0.625 0.4375 1.725
0.625 0.5 1.6625
0.5625 0.5 1.725
0.625 0.4375 1.6625
0.5625 0.4375 1.725
0.5625 0.5 1.6625
0.5625 0.4375 1.6625
0.75 0.4375 1.725
0.75 0.5 1.6625
0.6875 0.5 1.725
0.75 0.4375 1.6625
0.6875 0.4375 1.725
0.6875 0.5 1.6625
0.6875 0.4375 1.6625
0.875 0.4375 1.725
0.875 0.5 1.6625
0.8125 0.5 1.725
0.875 0.4375 1.6625
0.8125 0.4375 1.725
0.8125 0.5 1.6625
0.8125 0.4375 1.6625
1 0.4375 1.725
1 0.5 1.6625
0.9375 0.5 1.725
1 0.4375 1.6625
0.9375 0.4375 1.725
0.9375 0.5 1.6625
0.9375 0.4375 1.6625
1.125 0.4375 1.725
1.125 0.5 1.6625
1.0625 0.5 1.725
1.125 0.4375 1.6625
1.0625 0.4375 1.725
1.0625 0.5 1.6625
1.0625 0.4375 1.6625
1.25 0.4375 1.725
1.25 0.5 1.6625
1.1875 0.5 1.725
1.25 0.4375 1.6625
1.1875 0.4375 1.725
1.1875 0.5 1.6625
1.1875 0.4375 1.6625
1.375 0.4375 1.725
1.375 0.5 1.6625
1.3125 0.5 1.725
1.375 0.4375 1.6625
1.3125 0.4375 1.725
1.3125 0.5 1.6625
1.3125 0.4375 1.6625
1.5 0.4375 1.725
1.5 0.5 1.6625
1.4375 0.5 1.725
1.5 0.4375 1.6625
1.4375 0.4375 1.725
1.4375 0.5 1.6625
1.4375 0.4375 1.6625
1.625 0.4375 1.725
1.625 0.5 1.6625
1.5625 0.5 1.725
1.625 0.4375 1.6625
1.5625 0.4375 1.725
1.5625 0.5 1.6625
1.5625 0.4375 1.6625
1.75 0.4375 1.725
1.75 0.5 1.6625
1.6875 0.5 1.725
1.75 0.4375 1.6625
1.6875 0.4375 1.725
1.6875 0.5 1.6625
1.6875 0.4375 1.6625
1.875 0.4375 1.725
1.875 0.5 1.6625
1.8125 0.5 1.725
1.875 0.4375 1.6625
1.8125 0.4375 1.725
1.8125 0.5 1.6625
1.8125 0.4375 1.6625
2 0.4375 1.725
2 0.5 1.6625
1.9375 0.5 1.725
2 0.4375 1.6625
1.9375 0.4375 1.725
1.9375 0.5 1.6625
1.9375 0.4375 1.6625
2.125 0.4375 1.725
2.125 0.5 1.6625
2.0625 0.5 1.725
2.125 0.4375 1.6625
2.0625 0.4375 1.725
2.0625 0.5 1.6625
2.0625 0.4375 1.6625
2.25 0.4375 1.725
2.25 0.5 1.6625
2.1875 0.5 1.725
2.25 0.4375 1.6625
2.1875 0.4375 1.725
2.1875 0.5 1.6625
2.1875 0.4375 1.6625
2.375 0.4375 1.725
2.375 0.5 1.6625
2.3125 0.5 1.725
2.375 0.4375 1.6625
2.3125 0.4375 1.725
2.3125 0.5 1.6625
2.3125 0.4375 1.6625
2.5 0.4375 1.725
2.5 0.5 1.6625
2.4375 0.5 1.725
2.5 0.4375 1.6625
2.4375 0.4375 1.725
2.4375 0.5 1.6625
2.4375 0.4375 1.6625
2.625 0.4375 1.725
2.625 0.5 1.6625
2.5625 0.5 1.725
2.625 0.4375 1.6625
2.5625 0.4375 1.725
2.5625 0.5 1.6625
2.5625 0.4375 1.6625
2.75 0.4375 1.725
2.75 0.5 1.6625
2.6875 0.5 1.725
2.75 0.4375 1.6625
2.6875 0.4375 1.725
2.6875 0.5 1.6625
2.6875 0.4375 1.6625
2.875 0.4375 1.725
2.875 0.5 1.6625
2.8125 0.5 1.725
2.875 0.4375 1.6625
2.8125 0.4375 1.725
2.8125 0.5 1.6625
2.8125 0.4375 1.6625
3 0.4375 1.725
3 0.5 1.6625
2.9375 0.5 1.725
3 0.4375 1.6625
2.9375 0.4375 1.725
2.9375 0.5 1.6625
2.9375 0.4375 1.6625
0.125 0.5625 1.725
0 0.5625 1.725
0.125 0.625 1.6625
0.0625 0.625 1.725
0 0.625 1.6625
0.125 0.5625 1.6625
0.0625 0.5625 1.725
0 0.5625 1.6625
0.0625 0.625 1.6625
0.0625 0.5625 1.6625
0.25 0.5625 1.725
0.25 0.625 1.6625
0.1875 0.625 1.725
0.25 0.5625 1.6625
0.1875 0.5625 1.725
0.1875 0.625 1.6625
0.1875 0.5625 1.6625
0.375 0.5625 1.725
0.375 0.625 1.6625
0.3125 0.625 1.725
0.375 0.5625 1.6625
0.3125 0.5625 1.725
0.3125 0.625 1.6625
0.3125 0.5625 1.6625
0.5 0.5625 1.725
0.5 0.625 1.6625
0.4375 0.625 1.725
0.5 0.5625 1.6625
0.4375 0.5625 1.725
0.4375 0.625 1.6625
0.4375 0.5625 1.6625
0.625 0.5625 1.725
0.625 0.625 1.6625
0.5625 0.625 1.725
0.625 0.5625 1.6625
0.5625 0.5625 1.725
0.5625 0.625 1.6625
0.5625 0.5625 1.6625
0.75 0.5625 1.725
0.75 0.625 1.6625
0.6875 0.625 1.725
0.75 0.5625 1.6625
0.6875 0.5625 1.725
0.6875 0.625 1.6625
0.6875 0.5625 1.6625
0.875 0.5625 1.725
0.875 0.625 1.6625
0.8125 0.625 1.725
0.875 0.5625 1.6625
0.8125 0.5625 1.725
0.8125 0.625 1.6625
0.8125 0.5625 1.6625
1 0.5625 1.725
1 0.625 1.6625
0.9375 0.625 1.725
1 0.5625 1.6625
0.9375 0.5625 1.725
0.9375 0.625 1.6625
0.9375 0.5625 1.6625
1.125 0.5625 1.725
1.125 0.625 1.6625
1.0625 0.625 1.725
1.125 0.5625 1.6625
1.0625 0.5625 1.725
1.0625 0.625 1.6625
1.0625 0.5625 1.6625
1.25 0.5625 1.725
1.25 0.625 1.6625
1.1875 0.625 1.725
1.25 0.5625 1.6625
1.1875 0.5625 1.725
1.1875 0.625 1.6625
1.1875 0.5625 1.6625
1.375 0.5625 1.725
1.375 0.625 1.6625
1.3125 0.625 1.725
1.375 0.5625 1.6625
1.3125 0.5625 1.725
1.3125 0.625 1.6625
1.3125 0.5625 1.6625
1.5 0.5625 1.725
1.5 0.625 1.6625
1.4375 0.625 1.725
1.5 0.5625 1.6625
1.4375 0.5625 1.725
1.4375 0.625 1.6625
1.4375 0.5625 1.6625
1.625 0.5625 1.725
1.625 0.625 1.6625
1.5625 0.625 1.725
1.625 0.5625 1.6625
1.5625 0.5625 1.725
1.5625 0.625 1.6625
1.5625 0.5625 1.6625
1.75 0.5625 1.725
1.75 0.625 1.6625
1.6875 0.625 1.725
1.75 0.5625 1.6625
1.6875 0.5625 1.725
1.6875 0.625 1.6625
1.6875 0.5625 1.6625
1.875 0.5625 1.725
1.875 0.625 1.6625
1.8125 0.625 1.725
1.875 0.5625 1.6625
1.8125 0.5625 1.725
1.8125 0.625 1.6625
1.8125 0.5625 1.6625
2 0.5625 1.725
2 0.625 1.6625
1.9375 0.625 1.725
2 0.5625 1.6625
1.9375 0.5625 1.725
1.9375 0.625 1.6625
1.9375 0.5625 1.6625
2.125 0.5625 1.725
2.125 0.625 1.6625
2.0625 0.625 1.725
2.125 0.5625 1.6625
2.0625 0.5625 1.725
2.0625 0.625 1.6625
2.0625 0.5625 1.6625
2.25 0.5625 1.725
2.25 0.625 1.6625
2.1875 0.625 1.725
2.25 0.5625 1.6625
2.1875 0.5625 1.725
2.1875 0.625 1.6625
2.1875 0.5625 1.6625
2.375 0.5625 1.725
2.375 0.625 1.6625
2.3125 0.625 1.725
2.375 0.5625 1.6625
2.3125 0.5625 1.725
2.3125 0.625 1.6625
2.3125 0.5625 1.6625
2.5 0.5625 1.725
2.5 0.625 1.6625
2.4375 0.625 1.725
2.5 0.5625 1.6625
2.4375 0.5625 1.725
2.4375 0.625 1.6625
2.4375 0.5625 1.6625
2.625 0.5625 1.725
2.625 0.625 1.6625
2.5625 0.625 1.725
2.625 0.5625 1.6625
2.5625 0.5625 1.725
2.5625 0.625 1.6625
2.5625 0.5625 1.6625
2.75 0.5625 1.725
2.75 0.625 1.6625
2.6875 0.625 1.725
2.75 0.5625 1.6625
2.6875 0.5625 1.725
2.6875 0.625 1.6625
2.6875 0.5625 1.6625
2.875 0.5625 1.725
2.875 0.625 1.6625
2.8125 0.625 1.725
2.875 0.5625 1.6625
2.8125 0.5625 1.725
2.8125 0.625 1.6625
2.8125 0.5625 1.6625
3 0.5625 1.725
3 0.625 1.6625
2.9375 0.625 1.725
3 0.5625 1.6625
2.9375 0.5625 1.725
2.9375 0.625 1.6625
2.9375 0.5625 1.6625
0.125 0.6875 1.725
0 0.6875 1.725
0.125 0.75 1.6625
0.0625 0.75 1.725
0 0.75 1.6625
0.125 0.6875 1.6625
0.0625 0.6875 1.725
0 0.6875 1.6625
0.0625 0.75 1.6625
0.0625 0.6875 1.6625
0.25 0.6875 1.725
0.25 0.75 1.6625
0.1875 0.75 1.725
0.25 0.6875 1.6625
0.1875 0.6875 1.725
0.1875 0.75 1.6625
0.1875 0.6875 1.6625
0.375 0.6875 1.725
0.375 0.75 1.6625
0.3125 0.75 1.725
0.375 0.6875 1.6625
0.3125 0.6875 1.725
0.3125 0.75 1.6625
0.3125 0.6875 1.6625
0.5 0.6875 1.725
0.5 0.75 1.6625
0.4375 0.75 1.725
0.5 0.6875 1.6625
0.4375 0.6875 1.725
0.4375 0.75 1.6625
0.4375 0.6875 1.6625
0.625 0.6875 1.725
0.625 0.75 1.6625
0.5625 0.75 1.725
0.625 0.6875 1.6625
0.5625 0.6875 1.725
0.5625 0.75 1.6625
0.5625 0.6875 1.6625
0.75 0.6875 1.725
0.75 0.75 1.6625
0.6875 0.75 1.725
0.75 0.6875 1.6625
0.6875 0.6875 1.725
0.6875 0.75 1.6625
0.6875 0.6875 1.6625
0.875 0.6875 1.725
0.875 0.75 1.6625
0.8125 0.75 1.725
0.875 0.6875 1.6625
0.8125 0.6875 1.725
0.8125 0.75 1.6625
0.8125 0.6875 1.6625
1 0.6875 1.725
1 0.75 1.6625
0.9375 0.75 1.725
1 0.6875 1.6625
0.9375 0.6875 1.725
0.9375 0.75 1.6625
0.9375 0.6875 1.6625
1.125 0.6875 1.725
1.125 0.75 1.6625
1.0625 0.75 1.725
1.125 0.6875 1.6625
1.0625 0.6875 1.725
1.0625 0.75 1.6625
1.0625 0.6875 1.6625
1.25 0.6875 1.725
1.25 0.75 1.6625
1.1875 0.75 1.725
1.25 0.6875 1.6625
1.1875 0.6875 1.725
1.1875 0.75 1.6625
1.1875 0.6875 1.6625
1.375 0.6875 1.725
1.375 0.75 1.6625
1.3125 0.75 1.725
1.375 0.6875 1.6625
1.3125 0.6875 1.725
1.3125 0.75 1.6625
1.3125 0.6875 1.6625
1.5 0.6875 1.725
1.5 0.75 1.6625
1.4375 0.75 1.725
1.5 0.6875 1.6625
1.4375 0.6875 1.725
1.4375 0.75 1.6625
1.4375 0.6875 1.6625
1.625 0.6875 1.725
1.625 0.75 1.6625
1.5625 0.75 1.725
1.625 0.6875 1.6625
1.5625 0.6875 1.725
1.5625 0.75 1.6625
1.5625 0.6875 1.6625
1.75 0.6875 1.725
1.75 0.75 1.6625
1.6875 0.75 1.725
1.75 0.6875 1.6625
1.6875 0.6875 1.725
1.6875 0.75 1.6625
1.6875 0.6875 1.6625
1.875 0.6875 1.725
1.875 0.75 1.6625
1.8125 0.75 1.725
1.875 0.6875 1.6625
1.8125 0.6875 1.725
1.8125 0.75 1.6625
1.8125 0.6875 1.6625
2 0.6875 1.725
2 0.75 1.6625
1.9375 0.75 1.725
2 0.6875 1.6625
1.9375 0.6875 1.725
1.9375 0.75 1.6625
1.9375 0.6875 1.6625
2.125 0.6875 1.725
2.125 0.75 1.6625
2.0625 0.75 1.725
2.125 0.6875 1.6625
2.0625 0.6875 1.725
2.0625 0.75 1.6625
2.0625 0.6875 1.6625
2.25 0.6875 1.725
2.25 0.75 1.6625
2.1875 0.75 1.725
2.25 0.6875 1.6625
2.1875 0.6875 1.725
2.1875 0.75 1.6625
2.1875 0.6875 1.6625
2.375 0.6875 1.725
2.375 0.75 1.6625
2.3125 0.75 1.725
2.375 0.6875 1.6625
2.3125 0.6875 1.725
2.3125 0.75 1.6625
2.3125 0.6875 1.6625
2.5 0.6875 1.725
2.5 0.75 1.6625
2.4375 0.75 1.725
2.5 0.6875 1.6625
2.4375 0.6875 1.725
2.4375 0.75 1.6625
2.4375 0.6875 1.6625
2.625 0.6875 1.725
2.625 0.75 1.6625
2.5625 0.75 1.725
2.625 0.6875 1.6625
2.5625 0.6875 1.725
2.5625 0.75 1.6625
2.5625 0.6875 1.6625
2.75 0.6875 1.725
2.75 0.75 1.6625
2.6875 0.75 1.725
2.75 0.6875 1.6625
2.6875 0.6875 1.725
2.6875 0.75 1.6625
2.6875 0.6875 1.6625
2.875 0.6875 1.725
2.875 0.75 1.6625
2.8125 0.75 1.725
2.875 0.6875 1.6625
2.8125 0.6875 1.725
2.8125 0.75 1.6625
2.8125 0.6875 1.6625
3 0.6875 1.725
3 0.75 1.6625
2.9375 0.75 1.725
3 0.6875 1.6625
2.9375 0.6875 1.725
2.9375 0.75 1.6625
2.9375 0.6875 1.6625
0.125 0.8125 1.725
0 0.8125 1.725
0.125 0.875 1.6625
0.0625 0.875 1.725
0 0.875 1.6625
0.125 0.8125 1.6625
0.0625 0.8125 1.725
0 0.8125 1.6625
0.0625 0.875 1.6625
0.0625 0.8125 1.6625
0.25 0.8125 1.725
0.25 0.875 1.6625
0.1875 0.875 1.725
0.25 0.8125 1.6625
0.1875 0.8125 1.725
0.1875 0.875 1.6625
0.1875 0.8125 1.6625
0.375 0.8125 1.725
0.375 0.875 1.6625
0.3125 0.875 1.725
0.375 0.8125 1.6625
0.3125 0.8125 1.725
0.3125 0.875 1.6625
0.3125 0.8125 1.6625
0.5 0.8125 1.725
0.5 0.875 1.6625
0.4375 0.875 1.725
0.5 0.8125 1.6625
0.4375 0.8125 1.725
0.4375 0.875 1.6625
0.4375 0.8125 1.6625
0.625 0.8125 1.725
0.625 0.875 1.6625
0.5625 0.875 1.725
0.625 0.8125 1.6625
0.5625 0.8125 1.725
0.5625 0.875 1.6625
0.5625 0.8125 1.6625
0.75 0.8125 1.725
0.75 0.875 1.6625
0.6875 0.875 1.725
0.75 0.8125 1.6625
0.6875 0.8125 1.725
0.6875 0.875 1.6625
0.6875 0.8125 1.6625
0.875 0.8125 1.725
0.875 0.875 1.6625
0.8125 0.875 1.725
0.875 0.8125 1.6625
0.8125 0.8125 1.725
0.8125 0.875 1.6625
0.8125 0.8125 1.6625
1 0.8125 1.725
1 0.875 1.6625
0.9375 0.875 1.725
1 0.8125 1.6625
0.9375 0.8125 1.725
0.9375 0.875 1.6625
0.9375 0.8125 1.6625
1.125 0.8125 1.725
1.125 0.875 1.6625
1.0625 0.875 1.725
1.125 0.8125 1.6625
1.0625 0.8125 1.725
1.0625 0.875 1.6625
1.0625 0.8125 1.6625
1.25 0.8125 1.725
1.25 0.875 1.6625
1.1875 0.875 1.725
1.25 0.8125 1.6625
1.1875 0.8125 1.725
1.1875 0.875 1.6625
1.1875 0.8125 1.6625
1.375 0.8125 1.725
1.375 0.875 1.6625
1.3125 0.875 1.725
1.375 0.8125 1.6625
1.3125 0.8125 1.725
1.3125 0.875 1.6625
1.3125 0.8125 1.6625
1.5 0.8125 1.725
1.5 0.875 1.6625
1.4375 0.875 1.725
1.5 0.8125 1.6625
1.4375 0.8125 1.725
1.4375 0.875 1.6625
1.4375 0.8125 1.6625
1.625 0.8125 1.725
1.625 0.875 1.6625
1.5625 0.875 1.725
1.625 0.8125 1.6625
1.5625 0.8125 1.725
1.5625 0.875 1.6625
1.5625 0.8125 1.6625
1.75 0.8125 1.725
1.75 0.875 1.6625
1.6875 0.875 1.725
1.75 0.8125 1.6625
1.6875 0.8125 1.725
1.6875 0.875 1.6625
1.6875 0.8125 1.6625
1.875 0.8125 1.725
1.875 0.875 1.6625
1.8125 0.875 1.725
1.875 0.8125 1.6625
1.8125 0.8125 1.725
1.8125 0.875 1.6625
1.8125 0.8125 1.6625
2 0.8125 1.725
2 0.875 1.6625
1.9375 0.875 1.725
2 0.8125 1.6625
1.9375 0.8125 1.725
1.9375 0.875 1.6625
1.9375 0.8125 1.6625
2.125 0.8125 1.725
2.125 0.875 1.6625
2.0625 0.875 1.725
2.125 0.8125 1.6625
2.0625 0.8125 1.725
2.0625 0.875 1.6625
2.0625 0.8125 1.6625
2.25 0.8125 1.725
2.25 0.875 1.6625
2.1875 0.875 1.725
2.25 0.8125 1.6625
2.1875 0.8125 1.725
2.1875 0.875 1.6625
2.1875 0.8125 1.6625
2.375 0.8125 1.725
2.375 0.875 1.6625
2.3125 0.875 1.725
2.375 0.8125 1.6625
2.3125 0.8125 1.725
2.3125 0.875 1.6625
2.3125 0.8125 1.6625
2.5 0.8125 1.725
2.5 0.875 1.6625
2.4375 0.875 1.725
2.5 0.8125 1.6625
2.4375 0.8125 1.725
2.4375 0.875 1.6625
2.4375 0.8125 1.6625
2.625 0.8125 1.725
2.625 0.875 1.6625
2.5625 0.875 1.725
2.625 0.8125 1.6625
2.5625 0.8125 1.725
2.5625 0.875 1.6625
2.5625 0.8125 1.6625
2.75 0.8125 1.725
2.75 0.875 1.6625
2.6875 0.875 1.725
2.75 0.8125 1.6625
2.6875 0.8125 1.725
2.6875 0.875 1.6625
2.6875 0.8125 1.6625
2.875 0.8125 1.725
2.875 0.875 1.6625
2.8125 0.875 1.725
2.875 0.8125 1.6625
2.8125 0.8125 1.725
2.8125 0.875 1.6625
2.8125 0.8125 1.6625
3 0.8125 1.725
3 0.875 1.6625
2.9375 0.875 1.725
3 0.8125 1.6625
2.9375 0.8125 1.725
2.9375 0.875 1.6625
2.9375 0.8125 1.6625
0.125 0.9375 1.725
0 0.9375 1.725
0.125 1 1.6625
0.0625 1 1.725
0 1 1.6625
0.125 0.9375 1.6625
0.0625 0.9375 1.725
0 0.9375 1.6625
0.0625 1 1.6625
0.0625 0.9375 1.6625
0.25 0.9375 1.725
0.25 1 1.6625
0.1875 1 1.725
0.25 0.9375 1.6625
0.1875 0.9375 1.725
0.1875 1 1.6625
0.1875 0.9375 1.6625
0.375 0.9375 1.725
0.375 1 1.6625
0.3125 1 1.725
0.375 0.9375 1.6625
0.3125 0.9375 1.725
0.3125 1 1.6625
0.3125 0.9375 1.6625
0.5 0.9375 1.725
0.5 1 1.6625
0.4375 1 1.725
0.5 0.9375 1.6625
0.4375 0.9375 1.725
0.4375 1 1.6625
0.4375 0.9375 1.6625
0.625 0.9375 1.725
0.625 1 1.6625
0.5625 1 1.725
0.625 0.9375 1.6625
0.5625 0.9375 1.725
0.5625 1 1.6625
0.5625 0.9375 1.6625
0.75 0.9375 1.725
0.75 1 1.6625
0.6875 1 1.725
0.75 0.9375 1.6625
0.6875 0.9375 1.725
0.6875 1 1.6625
0.6875 0.9375 1.6625
0.875 0.9375 1.725
0.875 1 1.6625
0.8125 1 1.725
0.875 0.9375 1.6625
0.8125 0.9375 1.725
0.8125 1 1.6625
0.8125 0.9375 1.6625
1 0.9375 1.725
1 1 1.6625
0.9375 1 1.725
1 0.9375 1.6625
0.9375 0.9375 1.725
0.9375 1 1.6625
0.9375 0.9375 1.6625
1.125 0.9375 1.725
1.125 1 1.6625
1.0625 1 1.725
1.125 0.9375 1.6625
1.0625 0.9375 1.725
1.0625 1 1.6625
1.0625 0.9375 1.6625
1.25 0.9375 1.725
1.25 1 1.6625
1.1875 1 1.725
1.25 0.9375 1.6625
1.1875 0.9375 1.725
1.1875 1 1.6625
1.1875 0.9375 1.6625
1.375 0.9375 1.725
1.375 1 1.6625
1.3125 1 1.725
1.375 0.9375 1.6625
1.3125 0.9375 1.725
1.3125 1 1.6625
1.3125 0.9375 1.6625
1.5 0.9375 1.725
1.5 1 1.6625
1.4375 1 1.725
1.5 0.9375 1.6625
1.4375 0.9375 1.725
1.4375 1 1.6625
1.4375 0.9375 1.6625
1.625 0.9375 1.725
1.625 1 1.6625
1.5625 1 1.725
1.625 0.9375 1.6625
1.5625 0.9375 1.725
1.5625 1 1.6625
1.5625 0.9375 1.6625
1.75 0.9375 1.725
1.75 1 1.6625
1.6875 1 1.725
1.75 0.9375 1.6625
1.6875 0.9375 1.725
1.6875 1 1.6625
1.6875 0.9375 1.6625
1.875 0.9375 1.725
1.875 1 1.6625
1.8125 1 1.725
1.875 0.9375 1.6625
1.8125 0.9375 1.725
1.8125 1 1.6625
1.8125 0.9375 1.6625
2 0.9375 1.725
2 1 1.6625
1.9375 1 1.725
2 0.9375 1.6625
1.9375 0.9375 1.725
1.9375 1 1.6625
1.9375 0.9375 1.6625
2.125 0.9375 1.725
2.125 1 1.6625
2.0625 1 1.725
2.125 0.9375 1.6625
2.0625 0.9375 1.725
2.0625 1 1.6625
2.0625 0.9375 1.6625
2.25 0.9375 1.725
2.25 1 1.6625
2.1875 1 1.725
2.25 0.9375 1.6625
2.1875 0.9375 1.725
2.1875 1 1.6625
2.1875 0.9375 1.6625
2.375 0.9375 1.725
2.375 1 1.6625
2.3125 1 1.725
2.375 0.9375 1.6625
2.3125 0.9375 1.725
2.3125 1 1.6625
2.3125 0.9375 1.6625
2.5 0.9375 1.725
2.5 1 1.6625
2.4375 1 1.725
2.5 0.9375 1.6625
2.4375 0.9375 1.725
2.4375 1 1.6625
2.4375 0.9375 1.6625
2.625 0.9375 1.725
2.625 1 1.6625
2.5625 1 1.725
2.625 0.9375 1.6625
2.5625 0.9375 1.725
2.5625 1 1.6625
2.5625 0.9375 1.6625
2.75 0.9375 1.725
2.75 1 1.6625
2.6875 1 1.725
2.75 0.9375 1.6625
2.6875 0.9375 1.725
2.6875 1 1.6625
2.6875 0.9375 1.6625
2.875 0.9375 1.725
2.875 1 1.6625
2.8125 1 1.725
2.875 0.9375 1.6625
2.8125 0.9375 1.725
2.8125 1 1.6625
2.8125 0.9375 1.6625
3 0.9375 1.725
3 1 1.6625
2.9375 1 1.725
3 0.9375 1.6625
2.9375 0.9375 1.725
2.9375 1 1.6625
2.9375 0.9375 1.6625
0.125 0 1.7875
0.0625 0 1.85
0 0 1.7875
0.125 0.0625 1.85
0 0.0625 1.85
0.125 0.125 1.7875
0.0625 0.125 1.85
0 0.125 1.7875
0.0625 0 1.7875
0.125 0.0625 1.7875
0.0625 0.0625 1.85
0 0.0625 1.7875
0.0625 0.125 1.7875
0.0625 0.0625 1.7875
0.25 0 1.7875
0.1875 0 1.85
0.25 0.0625 1.85
0.25 0.125 1.7875
0.1875 0.125 1.85
0.1875 0 1.7875
0.25 0.0625 1.7875
0.1875 0.0625 1.85
0.1875 0.125 1.7875
0.1875 0.0625 1.7875
0.375 0 1.7875
0.3125 0 1.85
0.375 0.0625 1.85
0.375 0.125 1.7875
0.3125 0.125 1.85
0.3125 0 1.7875
0.375 0.0625 1.7875
0.3125 0.0625 1.85
0.3125 0.125 1.7875
0.3125 0.0625 1.7875
0.5 0 1.7875
0.4375 0 1.85
0.5 0.0625 1.85
0.5 0.125 1.7875
0.4375 0.125 1.85
0.4375 0 1.7875
0.5 0.0625 1.7875
0.4375 0.0625 1.85
0.4375 0.125 1.7875
0.4375 0.0625 1.7875
0.625 0 1.7875
0.5625 0 1.85
0.625 0.0625 1.85
0.625 0.125 1.7875
0.5625 0.125 1.85
0.5625 0 1.7875
0.625 0.0625 1.7875
0.5625 0.0625 1.85
0.5625 0.125 1.7875
0.5625 0.0625 1.7875
0.75 0 1.7875
0.6875 0 1.85
0.75 0.0625 1.85
0.75 0.125 1.7875
0.6875 0.125 1.85
0.6875 0 1.7875
0.75 0.0625 1.7875
0.6875 0.0625 1.85
0.6875 0.125 1.7875
0.6875 0.0625 1.7875
0.875 0 1.7875
0.8125 0 1.85
0.875 0.0625 1.85
0.875 0.125 1.7875
0.8125 0.125 1.85
0.8125 0 1.7875
0.875 0.0625 1.7875
0.8125 0.0625 1.85
0.8125 0.125 1.7875
0.8125 0.0625 1.7875
1 0 1.7875
0.9375 0 1.85
1 0.0625 1.85
1 0.125 1.7875
0.9375 0.125 1.85
0.9375 0 1.7875
1 0.0625 1.7875
0.9375 0.0625 1.85
0.9375 0.125 1.7875
0.9375 0.0625 1.7875
1.125 0 1.7875
1.0625 0 1.85
1.125 0.0625 1.85
1.125 0.125 1.7875
1.0625 0.125 1.85
1.0625 0 1.7875
1.125 0.0625 1.7875
1.0625 0.0625 1.85
1.0625 0.125 1.7875
1.0625 0.0625 1.7875
1.25 0 1.7875
1.1875 0 1.85
1.25 0.0625 1.85
1.25 0.125 1.7875
1.1875 0.125 1.85
1.1875 0 1.7875
1.25 0.0625 1.7875
1.1875 0.0625 1.85
1.1875 0.125 1.7875
1.1875 0.0625 1.7875
1.375 0 1.7875
1.3125 0 1.85
1.375 0.0625 1.85
1.375 0.125 1.7875
1.3125 0.125 1.85
1.3125 0 1.7875
1.375 0.0625 1.7875
1.3125 0.0625 1.85
1.3125 0.125 1.7875
1.3125 0.0625 1.7875
1.5 0 1.7875
1.4375 0 1.85
1.5 0.0625 1.85
1.5 0.125 1.7875
1.4375 0.125 1.85
1.4375 0 1.7875
1.5 0.0625 1.7875
1.4375 0.0625 1.85
1.4375 0.125 1.7875
1.4375 0.0625 1.7875
1.625 0 1.7875
1.5625 0 1.85
1.625 0.0625 1.85
1.625 0.125 1.7875
1.5625 0.125 1.85
1.5625 0 1.7875
1.625 0.0625 1.7875
1.5625 0.0625 1.85
1.5625 0.125 1.7875
1.5625 0.0625 1.7875
1.75 0 1.7875
1.6875 0 1.85
1.75 0.0625 1.85
1.75 0.125 1.7875
1.6875 0.125 1.85
1.6875 0 1.7875
1.75 0.0625 1.7875
1.6875 0.0625 1.85
1.6875 0.125 1.7875
1.6875 0.0625 1.7875
1.875 0 1.7875
1.8125 0 1.85
1.875 0.0625 1.85
1.875 0.125 1.7875
1.8125 0.125 1.85
1.8125 0 1.7875
1.875 0.0625 1.7875
1.8125 0.0625 1.85
1.8125 0.125 1.7875
1.8125 0.0625 1.7875
2 0 1.7875
1.9375 0 1.85
2 0.0625 1.85
2 0.125 1.7875
1.9375 0.125 1.85
1.9375 0 1.7875
2 0.0625 1.7875
1.9375 0.0625 1.85
1.9375 0.125 1.7875
1.9375 0.0625 1.7875
2.125 0 1.7875
2.0625 0 1.85
2.125 0.0625 1.85
2.125 0.125 1.7875
2.0625 0.125 1.85
2.0625 0 1.7875
2.125 0.0625 1.7875
2.0625 0.0625 1.85
2.0625 0.125 1.7875
2.0625 0.0625 1.7875
2.25 0 1.7875
2.1875 0 1.85
2.25 0.0625 1.85
2.25 0.125 1.7875
2.1875 0.125 1.85
2.1875 0 1.7875
2.25 0.0625 1.7875
2.1875 0.0625 1.85
2.1875 0.125 1.7875
2.1875 0.0625 1.7875
2.375 0 1.7875
2.3125 0 1.85
2.375 0.0625 1.85
2.375 0.125 1.7875
2.3125 0.125 1.85
2.3125 0 1.7875
2.375 0.0625 1.7875
2.3125 0.0625 1.85
2.3125 0.125 1.7875
2.3125 0.0625 1.7875
2.5 0 1.7875
2.4375 0 1.85
2.5 0.0625 1.85
2.5 0.125 1.7875
2.4375 0.125 1.85
2.4375 0 1.7875
2.5 0.0625 1.7875
2.4375 0.0625 1.85
2.4375 0.125 1.7875
2.4375 0.0625 1.7875
2.625 0 1.7875
2.5625 0 1.85
2.625 0.0625 1.85
2.625 0.125 1.7875
2.5625 0.125 1.85
2.5625 0 1.7875
2.625 0.0625 1.7875
2.5625 0.0625 1.85
2.5625 0.125 1.7875
2.5625 0.0625 1.7875
2.75 0 1.7875
2.6875 0 1.85
2.75 0.0625 1.85
2.75 0.125 1.7875
2.6875 0.125 1.85
2.6875 0 1.7875
2.75 0.0625 1.7875
2.6875 0.0625 1.85
2.6875 0.125 1.7875
2.6875 0.0625 1.7875
2.875 0 1.7875
2.8125 0 1.85
2.875 0.0625 1.85
2.875 0.125 1.7875
2.8125 0.125 1.85
2.8125 0 1.7875
2.875 0.0625 1.7875
2.8125 0.0625 1.85
2.8125 0.125 1.7875
2.8125 0.0625 1.7875
3 0 1.7875
2.9375 0 1.85
3 0.0625 1.85
3 0.125 1.7875
2.9375 0.125 1.85
2.9375 0 1.7875
3 0.0625 1.7875
2.9375 0.0625 1.85
2.9375 0.125 1.7875
2.9375 0.0625 1.7875
0.125 0.1875 1.85
0 0.1875 1.85
0.125 0.25 1.7875
0.0625 0.25 1.85
0 0.25 1.7875
0.125 0.1875 1.7875
0.0625 0.1875 1.85
0 0.1875 1.7875
0.0625 0.25 1.7875
0.0625 0.1875 1.7875
0.25 0.1875 1.85
0.25 0.25 1.7875
0.1875 0.25 1.85
0.25 0.1875 1.7875
0.1875 0.1875 1.85
0.1875 0.25 1.7875
0.1875 0.1875 1.7875
0.375 0.1875 1.85
0.375 0.25 1.7875
0.3125 0.25 1.85
0.375 0.1875 1.7875
0.3125 0.1875 1.85
0.3125 0.25 1.7875
0.3125 0.1875 1.7875
0.5 0.1875 1.85
0.5 0.25 1.7875
0.4375 0.25 1.85
0.5 0.1875 1.7875
0.4375 0.1875 1.85
0.4375 0.25 1.7875
0.4375 0.1875 1.7875
0.625 0.1875 1.85
0.625 0.25 1.7875
0.5625 0.25 1.85
0.625 0.1875 1.7875
0.5625 0.1875 1.85
0.5625 0.25 1.7875
0.5625 0.1875 1.7875
0.75 0.1875 1.85
0.75 0.25 1.7875
0.6875 0.25 1.85
0.75 0.1875 1.7875
0.6875 0.1875 1.85
0.6875 0.25 1.7875
0.6875 0.1875 1.7875
0.875 0.1875 1.85
0.875 0.25 1.7875
0.8125 0.25 1.85
0.875 0.1875 1.7875
0.8125 0.1875 1.85
0.8125 0.25 1.7875
0.8125 0.1875 1.7875
1 0.1875 1.85
1 0.25 1.7875
0.9375 0.25 1.85
1 0.1875 1.7875
0.9375 0.1875 1.85
0.9375 0.25 1.7875
0.9375 0.1875 1.7875
1.125 0.1875 1.85
1.125 0.25 1.7875
1.0625 0.25 1.85
1.125 0.1875 1.7875
1.0625 0.1875 1.85
1.0625 0.25 1.7875
1.0625 0.1875 1.7875
1.25 0.1875 1.85
1.25 0.25 1.7875
1.1875 0.25 1.85
1.25 0.1875 1.7875
1.1875 0.1875 1.85
1.1875 0.25 1.7875
1.1875 0.1875 1.7875
1.375 0.1875 1.85
1.375 0.25 1.7875
1.3125 0.25 1.85
1.375 0.1875 1.7875
1.3125 0.1875 1.85
1.3125 0.25 1.7875
1.3125 0.1875 1.7875
1.5 0.1875 1.85
1.5 0.25 1.7875
1.4375 0.25 1.85
1.5 0.1875 1.7875
1.4375 0.1875 1.85
1.4375 0.25 1.7875
1.4375 0.1875 1.7875
1.625 0.1875 1.85
1.625 0.25 1.7875
1.5625 0.25 1.85
1.625 0.1875 1.7875
1.5625 0.1875 1.85
1.5625 0.25 1.7875
1.5625 0.1875 1.7875
1.75 0.1875 1.85
1.75 0.25 1.7875
1.6875 0.25 1.85
1.75 0.1875 1.7875
1.6875 0.1875 1.85
1.6875 0.25 1.7875
1.6875 0.1875 1.7875
1.875 0.1875 1.85
1.875 0.25 1.7875
1.8125 0.25 1.85
1.875 0.1875 1.7875
1.8125 0.1875 1.85
1.8125 0.25 1.7875
1.8125 0.1875 1.7875
2 0.1875 1.85
2 0.25 1.7875
1.9375 0.25 1.85
2 0.1875 1.7875
1.9375 0.1875 1.85
1.9375 0.25 1.7875
1.9375 0.1875 1.7875
2.125 0.1875 1.85
2.125 0.25 1.7875
2.0625 0.25 1.85
2.125 0.1875 1.7875
2.0625 0.1875 1.85
2.0625 0.25 1.7875
2.0625 0.1875 1.7875
2.25 0.1875 1.85
2.25 0.25 1.7875
2.1875 0.25 1.85
2.25 0.1875 1.7875
2.1875 0.1875 1.85
2.1875 0.25 1.7875
2.1875 0.1875 1.7875
2.375 0.1875 1.85
2.375 0.25 1.7875
2.3125 0.25 1.85
2.375 0.1875 1.7875
2.3125 0.1875 1.85
2.3125 0.25 1.7875
2.3125 0.1875 1.7875
2.5 0.1875 1.85
2.5 0.25 1.7875
2.4375 0.25 1.85
2.5 0.1875 1.7875
2.4375 0.1875 1.85
2.4375 0.25 1.7875
2.4375 0.1875 1.7875
2.625 0.1875 1.85
2.625 0.25 1.7875
2.5625 0.25 1.85
2.625 0.1875 1.7875
2.5625 0.1875 1.85
2.5625 0.25 1.7875
2.5625 0.1875 1.7875
2.75 0.1875 1.85
2.75 0.25 1.7875
2.6875 0.25 1.85
2.75 0.1875 1.7875
2.6875 0.1875 1.85
2.6875 0.25 1.7875
2.6875 0.1875 1.7875
2.875 0.1875 1.85
2.875 0.25 1.7875
2.8125 0.25 1.85
2.875 0.1875 1.7875
2.8125 0.1875 1.85
2.8125 0.25 1.7875
2.8125 0.1875 1.7875
3 0.1875 1.85
3 0.25 1.7875
2.9375 0.25 1.85
3 0.1875 1.7875
2.9375 0.1875 1.85
2.9375 0.25 1.7875
2.9375 0.1875 1.7875
0.125 0.3125 1.85
0 0.3125 1.85
0.125 0.375 1.7875
0.0625 0.375 1.85
0 0.375 1.7875
0.125 0.3125 1.7875
0.0625 0.3125 1.85
0 0.3125 1.7875
0.0625 0.375 1.7875
0.0625 0.3125 1.7875
0.25 0.3125 1.85
0.25 0.375 1.7875
0.1875 0.375 1.85
0.25 0.3125 1.7875
0.1875 0.3125 1.85
0.1875 0.375 1.7875
0.1875 0.3125 1.7875
0.375 0.3125 1.85
0.375 0.375 1.7875
0.3125 0.375 1.85
0.375 0.3125 1.7875
0.3125 0.3125 1.85
0.3125 0.375 1.7875
0.3125 0.3125 1.7875
0.5 0.3125 1.85
0.5 0.375 1.7875
0.4375 0.375 1.85
0.5 0.3125 1.7875
0.4375 0.3125 1.85
0.4375 0.375 1.7875
0.4375 0.3125 1.7875
0.625 0.3125 1.85
0.625 0.375 1.7875
0.5625 0.375 1.85
0.625 0.3125 1.7875
0.5625 0.3125 1.85
0.5625 0.375 1.7875
0.5625 0.3125 1.7875
0.75 0.3125 1.85
0.75 0.375 1.7875
0.6875 0.375 1.85
0.75 0.3125 1.7875
0.6875 0.3125 1.85
0.6875 0.375 1.7875
0.6875 0.3125 1.7875
0.875 0.3125 1.85
0.875 0.375 1.7875
0.8125 0.375 1.85
0.875 0.3125 1.7875
0.8125 0.3125 1.85
0.8125 0.375 1.7875
0.8125 0.3125 1.7875
1 0.3125 1.85
1 0.375 1.7875
0.9375 0.375 1.85
1 0.3125 1.7875
0.9375 0.3125 1.85
0.9375 0.375 1.7875
0.9375 0.3125 1.7875
1.125 0.3125 1.85
1.125 0.375 1.7875
1.0625 0.375 1.85
1.125 0.3125 1.7875
1.0625 0.3125 1.85
1.0625 0.375 1.7875
1.0625 0.3125 1.7875
1.25 0.3125 1.85
1.25 0.375 1.7875
1.1875 0.375 1.85
1.25 0.3125 1.7875
1.1875 0.3125 1.85
1.1875 0.375 1.7875
1.1875 0.3125 1.7875
1.375 0.3125 1.85
1.375 0.375 1.7875
1.3125 0.375 1.85
1.375 0.3125 1.7875
1.3125 0.3125 1.85
1.3125 0.375 1.7875
1.3125 0.3125 1.7875
1.5 0.3125 1.85
1.5 0.375 1.7875
1.4375 0.375 1.85
1.5 0.3125 1.7875
1.4375 0.3125 1.85
1.4375 0.375 1.7875
1.4375 0.3125 1.7875
1.625 0.3125 1.85
1.625 0.375 1.7875
1.5625 0.375 1.85
1.625 0.3125 1.7875
1.5625 0.3125 1.85
1.5625 0.375 1.7875
1.5625 0.3125 1.7875
1.75 0.3125 1.85
1.75 0.375 1.7875
1.6875 0.375 1.85
1.75 0.3125 1.7875
1.6875 0.3125 1.85
1.6875 0.375 1.7875
1.6875 0.3125 1.7875
1.875 0.3125 1.85
1.875 0.375 1.7875
1.8125 0.375 1.85
1.875 0.3125 1.7875
1.8125 0.3125 1.85
1.8125 0.375 1.7875
1.8125 0.3125 1.7875
2 0.3125 1.85
2 0.375 1.7875
1.9375 0.375 1.85
2 0.3125 1.7875
1.9375 0.3125 1.85
1.9375 0.375 1.7875
1.9375 0.3125 1.7875
2.125 0.3125 1.85
2.125 0.375 1.7875
2.0625 0.375 1.85
2.125 0.3125 1.7875
2.0625 0.3125 1.85
2.0625 0.375 1.7875
2.0625 0.3125 1.7875
2.25 0.3125 1.85
2.25 0.375 1.7875
2.1875 0.375 1.85
2.25 0.3125 1.7875
2.1875 0.3125 1.85
2.1875 0.375 1.7875
2.1875 0.3125 1.7875
2.375 0.3125 1.85
2.375 0.375 1.7875
2.3125 0.375 1.85
2.375 0.3125 1.7875
2.3125 0.3125 1.85
2.3125 0.375 1.7875
2.3125 0.3125 1.7875
2.5 0.3125 1.85
2.5 0.375 1.7875
2.4375 0.375 1.85
2.5 0.3125 1.7875
2.4375 0.3125 1.85
2.4375 0.375 1.7875
2.4375 0.3125 1.7875
2.625 0.3125 1.85
2.625 0.375 1.7875
2.5625 0.375 1.85
2.625 0.3125 1.7875
2.5625 0.3125 1.85
2.5625 0.375 1.7875
2.5625 0.3125 1.7875
2.75 0.3125 1.85
2.75 0.375 1.7875
2.6875 0.375 1.85
2.75 0.3125 1.7875
2.6875 0.3125 1.85
2.6875 0.375 1.7875
2.6875 0.3125 1.7875
2.875 0.3125 1.85
2.875 0.375 1.7875
2.8125 0.375 1.85
2.875 0.3125 1.7875
2.8125 0.3125 1.85
2.8125 0.375 1.7875
2.8125 0.3125 1.7875
3 0.3125 1.85
3 0.375 1.7875
2.9375 0.375 1.85
3 0.3125 1.7875
2.9375 0.3125 1.85
2.9375 0.375 1.7875
2.9375 0.3125 1.7875
0.125 0.4375 1.85
0 0.4375 1.85
0.125 0.5 1.7875
0.0625 0.5 1.85
0 0.5 1.7875
0.125 0.4375 1.7875
0.0625 0.4375 1.85
0 0.4375 1.7875
0.0625 0.5 1.7875
0.0625 0.4375 1.7875
0.25 0.4375 1.85
0.25 0.5 1.7875
0.1875 0.5 1.85
0.25 0.4375 1.7875
0.1875 0.4375 1.85
0.1875 0.5 1.7875
0.1875 0.4375 1.7875
0.375 0.4375 1.85
0.375 0.5 1.7875
0.3125 0.5 1.85
0.375 0.4375 1.7875
0.3125 0.4375 1.85
0.3125 0.5 1.7875
0.3125 0.4375 1.7875
0.5 0.4375 1.85
0.5 0.5 1.7875
0.4375 0.5 1.85
0.5 0.4375 1.7875
0.4375 0.4375 1.85
0.4375 0.5 1.7875
0.4375 0.4375 1.7875
0.625 0.4375 1.85
0.625 0.5 1.7875
0.5625 0.5 1.85
0.625 0.4375 1.7875
0.5625 0.4375 1.85
0.5625 0.5 1.7875
0.5625 0.4375 1.7875
0.75 0.4375 1.85
0.75 0.5 1.7875
0.6875 0.5 1.85
0.75 0.4375 1.7875
0.6875 0.4375 1.85
0.6875 0.5 1.7875
0.6875 0.4375 1.7875
0.875 0.4375 1.85
0.875 0.5 1.7875
0.8125 0.5 1.85
0.875 0.4375 1.7875
0.8125 0.4375 1.85
0.8125 0.5 1.7875
0.8125 0.4375 1.7875
1 0.4375 1.85
1 0.5 1.7875
0.9375 0.5 1.85
1 0.4375 1.7875
0.9375 0.4375 1.85
0.9375 0.5 1.7875
0.9375 0.4375 1.7875
1.125 0.4375 1.85
1.125 0.5 1.7875
1.0625 0.5 1.85
1.125 0.4375 1.7875
1.0625 0.4375 1.85
1.0625 0.5 1.7875
1.0625 0.4375 1.7875
1.25 0.4375 1.85
1.25 0.5 1.7875
1.1875 0.5 1.85
1.25 0.4375 1.7875
1.1875 0.4375 1.85
1.1875 0.5 1.7875
1.1875 0.4375 1.7875
1.375 0.4375 1.85
1.375 0.5 1.7875
1.3125 0.5 1.85
1.375 0.4375 1.7875
1.3125 0.4375 1.85
1.3125 0.5 1.7875
1.3125 0.4375 1.7875
1.5 0.4375 1.85
1.5 0.5 1.7875
1.4375 0.5 1.85
1.5 0.4375 1.7875
1.4375 0.4375 1.85
1.4375 0.5 1.7875
1.4375 0.4375 1.7875
1.625 0.4375 1.85
1.625 0.5 1.7875
1.5625 0.5 1.85
1.625 0.4375 1.7875
1.5625 0.4375 1.85
1.5625 0.5 1.7875
1.5625 0.4375 1.7875
1.75 0.4375 1.85
1.75 0.5 1.7875
1.6875 0.5 1.85
1.75 0.4375 1.7875
1.6875 0.4375 1.85
1.6875 0.5 1.7875
1.6875 0.4375 1.7875
1.875 0.4375 1.85
1.875 0.5 1.7875
1.8125 0.5 1.85
1.875 0.4375 1.7875
1.8125 0.4375 1.85
1.8125 0.5 1.7875
1.8125 0.4375 1.7875
2 0.4375 1.85
2 0.5 1.7875
1.9375 0.5 1.85
2 0.4375 1.7875
1.9375 0.4375 1.85
1.9375 0.5 1.7875
1.9375 0.4375 1.7875
2.125 0.4375 1.85
2.125 0.5 1.7875
2.0625 0.5 1.85
2.125 0.4375 1.7875
2.0625 0.4375 1.85
2.0625 0.5 1.7875
2.0625 0.4375 1.7875
2.25 0.4375 1.85
2.25 0.5 1.7875
2.1875 0.5 1.85
2.25 0.4375 1.7875
2.1875 0.4375 1.85
2.1875 0.5 1.7875
2.1875 0.4375 1.7875
2.375 0.4375 1.85
2.375 0.5 1.7875
2.3125 0.5 1.85
2.375 0.4375 1.7875
2.3125 0.4375 1.85
2.3125 0.5 1.7875
2.3125 0.4375 1.7875
2.5 0.4375 1.85
2.5 0.5 1.7875
2.4375 0.5 1.85
2.5 0.4375 1.7875
2.4375 0.4375 1.85
2.4375 0.5 1.7875
2.4375 0.4375 1.7875
2.625 0.4375 1.85
2.625 0.5 1.7875
2.5625 0.5 1.85
2.625 0.4375 1.7875
2.5625 0.4375 1.85
2.5625 0.5 1.7875
2.5625 0.4375 1.7875
2.75 0.4375 1.85
2.75 0.5 1.7875
2.6875 0.5 1.85
2.75 0.4375 1.7875
2.6875 0.4375 1.85
2.6875 0.5 1.7875
2.6875 0.4375 1.7875
2.875 0.4375 1.85
2.875 0.5 1.7875
2.8125 0.5 1.85
2.875 0.4375 1.7875
2.8125 0.4375 1.85
2.8125 0.5 1.7875
2.8125 0.4375 1.7875
3 0.4375 1.85
3 0.5 1.7875
2.9375 0.5 1.85
3 0.4375 1.7875
2.9375 0.4375 1.85
2.9375 0.5 1.7875
2.9375 0.4375 1.7875
0.125 0.5625 1.85
0 0.5625 1.85
0.125 0.625 1.7875
0.0625 0.625 1.85
0 0.625 1.7875
0.125 0.5625 1.7875
0.0625 0.5625 1.85
0 0.5625 1.7875
0.0625 0.625 1.7875
0.0625 0.5625 1.7875
0.25 0.5625 1.85
0.25 0.625 1.7875
0.1875 0.625 1.85
0.25 0.5625 1.7875
0.1875 0.5625 1.85
0.1875 0.625 1.7875
0.1875 0.5625 1.7875
0.375 0.5625 1.85
0.375 0.625 1.7875
0.3125 0.625 1.85
0.375 0.5625 1.7875
0.3125 0.5625 1.85
0.3125 0.625 1.7875
0.3125 0.5625 1.7875
0.5 0.5625 1.85
0.5 0.625 1.7875
0.4375 0.625 1.85
0.5 0.5625 1.7875
0.4375 0.5625 1.85
0.4375 0.625 1.7875
0.4375 0.5625 1.7875
0.625 0.5625 1.85
0.625 0.625 1.7875
0.5625 0.625 1.85
0.625 0.5625 1.7875
0.5625 0.5625 1.85
0.5625 0.625 1.7875
0.5625 0.5625 1.7875
0.75 0.5625 1.85
0.75 0.625 1.7875
0.6875 0.625 1.85
0.75 0.5625 1.7875
0.6875 0.5625 1.85
0.6875 0.625 1.7875
0.6875 0.5625 1.7875
0.875 0.5625 1.85
0.875 0.625 1.7875
0.8125 0.625 1.85
0.875 0.5625 1.7875
0.8125 0.5625 1.85
0.8125 0.625 1.7875
0.8125 0.5625 1.7875
1 0.5625 1.85
1 0.625 1.7875
0.9375 0.625 1.85
1 0.5625 1.7875
0.9375 0.5625 1.85
0.9375 0.625 1.7875
0.9375 0.5625 1.7875
1.125 0.5625 1.85
1.125 0.625 1.7875
1.0625 0.625 1.85
1.125 0.5625 1.7875
1.0625 0.5625 1.85
1.0625 0.625 1.7875
1.0625 0.5625 1.7875
1.25 0.5625 1.85
1.25 0.625 1.7875
1.1875 0.625 1.85
1.25 0.5625 1.7875
1.1875 0.5625 1.85
1.1875 0.625 1.7875
1.1875 0.5625 1.7875
1.375 0.5625 1.85
1.375 0.625 1.7875
1.3125 0.625 1.85
1.375 0.5625 1.7875
1.3125 0.5625 1.85
1.3125 0.625 1.7875
1.3125 0.5625 1.7875
1.5 0.5625 1.85
1.5 0.625 1.7875
1.4375 0.625 1.85
1.5 0.5625 1.7875
1.4375 0.5625 1.85
1.4375 0.625 1.7875
1.4375 0.5625 1.7875
1.625 0.5625 1.85
1.625 0.625 1.7875
1.5625 0.625 1.85
1.625 0.5625 1.7875
1.5625 0.5625 1.85
1.5625 0.625 1.7875
1.5625 0.5625 1.7875
1.75 0.5625 1.85
1.75 0.625 1.7875
1.6875 0.625 1.85
1.75 0.5625 1.7875
1.6875 0.5625 1.85
1.6875 0.625 1.7875
1.6875 0.5625 1.7875
1.875 0.5625 1.85
1.875 0.625 1.7875
1.8125 0.625 1.85
1.875 0.5625 1.7875
1.8125 0.5625 1.85
1.8125 0.625 1.7875
1.8125 0.5625 1.7875
2 0.5625 1.85
2 0.625 1.7875
1.9375 0.625 1.85
2 0.5625 1.7875
1.9375 0.5625 1.85
1.9375 0.625 1.7875
1.9375 0.5625 1.7875
2.125 0.5625 1.85
2.125 0.625 1.7875
2.0625 0.625 1.85
2.125 0.5625 1.7875
2.0625 0.5625 1.85
2.0625 0.625 1.7875
2.0625 0.5625 1.7875
2.25 0.5625 1.85
2.25 0.625 1.7875
2.1875 0.625 1.85
2.25 0.5625 1.7875
2.1875 0.5625 1.85
2.1875 0.625 1.7875
2.1875 0.5625 1.7875
2.375 0.5625 1.85
2.375 0.625 1.7875
2.3125 0.625 1.85
2.375 0.5625 1.7875
2.3125 0.5625 1.85
2.3125 0.625 1.7875
2.3125 0.5625 1.7875
2.5 0.5625 1.85
2.5 0.625 1.7875
2.4375 0.625 1.85
2.5 0.5625 1.7875
2.4375 0.5625 1.85
2.4375 0.625 1.7875
2.4375 0.5625 1.7875
2.625 0.5625 1.85
2.625 0.625 1.7875
2.5625 0.625 1.85
2.625 0.5625 1.7875
2.5625 0.5625 1.85
2.5625 0.625 1.7875
2.5625 0.5625 1.7875
2.75 0.5625 1.85
2.75 0.625 1.7875
2.6875 0.625 1.85
2.75 0.5625 1.7875
2.6875 0.5625 1.85
2.6875 0.625 1.7875
2.6875 0.5625 1.7875
2.875 0.5625 1.85
2.875 0.625 1.7875
2.8125 0.625 1.85
2.875 0.5625 1.7875
2.8125 0.5625 1.85
2.8125 0.625 1.7875
2.8125 0.5625 1.7875
3 0.5625 1.85
3 0.625 1.7875
2.9375 0.625 1.85
3 0.5625 1.7875
2.9375 0.5625 1.85
2.9375 0.625 1.7875
2.9375 0.5625 1.7875
0.125 0.6875 1.85
0 0.6875 1.85
0.125 0.75 1.7875
0.0625 0.75 1.85
0 0.75 1.7875
0.125 0.6875 1.7875
0.0625 0.6875 1.85
0 0.6875 1.7875
0.0625 0.75 1.7875
0.0625 0.6875 1.7875
0.25 0.6875 1.85
0.25 0.75 1.7875
0.1875 0.75 1.85
0.25 0.6875 1.7875
0.1875 0.6875 1.85
0.1875 0.75 1.7875
0.1875 0.6875 1.7875
0.375 0.6875 1.85
0.375 0.75 1.7875
0.3125 0.75 1.85
0.375 0.6875 1.7875
0.3125 0.6875 1.85
0.3125 0.75 1.7875
0.3125 0.6875 1.7875
0.5 0.6875 1.85
0.5 0.75 1.7875
0.4375 0.75 1.85
0.5 0.6875 1.7875
0.4375 0.6875 1.85
0.4375 0.75 1.7875
0.4375 0.6875 1.7875
0.625 0.6875 1.85
0.625 0.75 1.7875
0.5625 0.75 1.85
0.625 0.6875 1.7875
0.5625 0.6875 1.85
0.5625 0.75 1.7875
0.5625 0.6875 1.7875
0.75 0.6875 1.85
0.75 0.75 1.7875
0.6875 0.75 1.85
0.75 0.6875 1.7875
0.6875 0.6875 1.85
0.6875 0.75 1.7875
0.6875 0.6875 1.7875
0.875 0.6875 1.85
0.875 0.75 1.7875
0.8125 0.75 1.85
0.875 0.6875 1.7875
0.8125 0.6875 1.85
0.8125 0.75 1.7875
0.8125 0.6875 1.7875
1 0.6875 1.85
1 0.75 1.7875
0.9375 0.75 1.85
1 0.6875 1.7875
0.9375 0.6875 1.85
0.9375 0.75 1.7875
0.9375 0.6875 1.7875
1.125 0.6875 1.85
1.125 0.75 1.7875
1.0625 0.75 1.85
1.125 0.6875 1.7875
1.0625 0.6875 1.85
1.0625 0.75 1.7875
1.0625 0.6875 1.7875
1.25 0.6875 1.85
1.25 0.75 1.7875
1.1875 0.75 1.85
1.25 0.6875 1.7875
1.1875 0.6875 1.85
1.1875 0.75 1.7875
1.1875 0.6875 1.7875
1.375 0.6875 1.85
1.375 0.75 1.7875
1.3125 0.75 1.85
1.375 0.6875 1.7875
1.3125 0.6875 1.85
1.3125 0.75 1.7875
1.3125 0.6875 1.7875
1.5 0.6875 1.85
1.5 0.75 1.7875
1.4375 0.75 1.85
1.5 0.6875 1.7875
1.4375 0.6875 1.85
1.4375 0.75 1.7875
1.4375 0.6875 1.7875
1.625 0.6875 1.85
1.625 0.75 1.7875
1.5625 0.75 1.85
1.625 0.6875 1.7875
1.5625 0.6875 1.85
1.5625 0.75 1.7875
1.5625 0.6875 1.7875
1.75 0.6875 1.85
1.75 0.75 1.7875
1.6875 0.75 1.85
1.75 0.6875 1.7875
1.6875 0.6875 1.85
1.6875 0.75 1.7875
1.6875 0.6875 1.7875
1.875 0.6875 1.85
1.875 0.75 1.7875
1.8125 0.75 1.85
1.875 0.6875 1.7875
1.8125 0.6875 1.85
1.8125 0.75 1.7875
1.8125 0.6875 1.7875
2 0.6875 1.85
2 0.75 1.7875
1.9375 0.75 1.85
2 0.6875 1.7875
1.9375 0.6875 1.85
1.9375 0.75 1.7875
1.9375 0.6875 1.7875
2.125 0.6875 1.85
2.125 0.75 1.7875
2.0625 0.75 1.85
2.125 0.6875 1.7875
2.0625 0.6875 1.85
2.0625 0.75 1.7875
2.0625 0.6875 1.7875
2.25 0.6875 1.85
2.25 0.75 1.7875
2.1875 0.75 1.85
2.25 0.6875 1.7875
2.1875 0.6875 1.85
2.1875 0.75 1.7875
2.1875 0.6875 1.7875
2.375 0.6875 1.85
2.375 0.75 1.7875
2.3125 0.75 1.85
2.375 0.6875 1.7875
2.3125 0.6875 1.85
2.3125 0.75 1.7875
2.3125 0.6875 1.7875
2.5 0.6875 1.85
2.5 0.75 1.7875
2.4375 0.75 1.85
2.5 0.6875 1.7875
2.4375 0.6875 1.85
2.4375 0.75 1.7875
2.4375 0.6875 1.7875
2.625 0.6875 1.85
2.625 0.75 1.7875
2.5625 0.75 1.85
2.625 0.6875 1.7875
2.5625 0.6875 1.85
2.5625 0.75 1.7875
2.5625 0.6875 1.7875
2.75 0.6875 1.85
2.75 0.75 1.7875
2.6875 0.75 1.85
2.75 0.6875 1.7875
2.6875 0.6875 1.85
2.6875 0.75 1.7875
2.6875 0.6875 1.7875
2.875 0.6875 1.85
2.875 0.75 1.7875
2.8125 0.75 1.85
2.875 0.6875 1.7875
2.8125 0.6875 1.85
2.8125 0.75 1.7875
2.8125 0.6875 1.7875
3 0.6875 1.85
3 0.75 1.7875
2.9375 0.75 1.85
3 0.6875 1.7875
2.9375 0.6875 1.85
2.9375 0.75 1.7875
2.9375 0.6875 1.7875
0.125 0.8125 1.85
0 0.8125 1.85
0.125 0.875 1.7875
0.0625 0.875 1.85
0 0.875 1.7875
0.125 0.8125 1.7875
0.0625 0.8125 1.85
0 0.8125 1.7875
0.0625 0.875 1.7875
0.0625 0.8125 1.7875
0.25 0.8125 1.85
0.25 0.875 1.7875
0.1875 0.875 1.85
0.25 0.8125 1.7875
0.1875 0.8125 1.85
0.1875 0.875 1.7875
0.1875 0.8125 1.7875
0.375 0.8125 1.85
0.375 0.875 1.7875
0.3125 0.875 1.85
0.375 0.8125 1.7875
0.3125 0.8125 1.85
0.3125 0.875 1.7875
0.3125 0.8125 1.7875
0.5 0.8125 1.85
0.5 0.875 1.7875
0.4375 0.875 1.85
0.5 0.8125 1.7875
0.4375 0.8125 1.85
0.4375 0.875 1.7875
0.4375 0.8125 1.7875
0.625 0.8125 1.85
0.625 0.875 1.7875
0.5625 0.875 1.85
0.625 0.8125 1.7875
0.5625 0.8125 1.85
0.5625 0.875 1.7875
0.5625 0.8125 1.7875
0.75 0.8125 1.85
0.75 0.875 1.7875
0.6875 0.875 1.85
0.75 0.8125 1.7875
0.6875 0.8125 1.85
0.6875 0.875 1.7875
0.6875 0.8125 1.7875
0.875 0.8125 1.85
0.875 0.875 1.7875
0.8125 0.875 1.85
0.875 0.8125 1.7875
0.8125 0.8125 1.85
0.8125 0.875 1.7875
0.8125 0.8125 1.7875
1 0.8125 1.85
1 0.875 1.7875
0.9375 0.875 1.85
1 0.8125 1.7875
0.9375 0.8125 1.85
0.9375 0.875 1.7875
0.9375 0.8125 1.7875
1.125 0.8125 1.85
1.125 0.875 1.7875
1.0625 0.875 1.85
1.125 0.8125 1.7875
1.0625 0.8125 1.85
1.0625 0.875 1.7875
1.0625 0.8125 1.7875
1.25 0.8125 1.85
1.25 0.875 1.7875
1.1875 0.875 1.85
1.25 0.8125 1.7875
1.1875 0.8125 1.85
1.1875 0.875 1.7875
1.1875 0.8125 1.7875
1.375 0.8125 1.85
1.375 0.875 1.7875
1.3125 0.875 1.85
1.375 0.8125 1.7875
1.3125 0.8125 1.85
1.3125 0.875 1.7875
1.3125 0.8125 1.7875
1.5 0.8125 1.85
1.5 0.875 1.7875
1.4375 0.875 1.85
1.5 0.8125 1.7875
1.4375 0.8125 1.85
1.4375 0.875 1.7875
1.4375 0.8125 1.7875
1.625 0.8125 1.85
1.625 0.875 1.7875
1.5625 0.875 1.85
1.625 0.8125 1.7875
1.5625 0.8125 1.85
1.5625 0.875 1.7875
1.5625 0.8125 1.7875
1.75 0.8125 1.85
1.75 0.875 1.7875
1.6875 0.875 1.85
1.75 0.8125 1.7875
1.6875 0.8125 1.85
1.6875 0.875 1.7875
1.6875 0.8125 1.7875
1.875 0.8125 1.85
1.875 0.875 1.7875
1.8125 0.875 1.85
1.875 0.8125 1.7875
1.8125 0.8125 1.85
1.8125 0.875 1.7875
1.8125 0.8125 1.7875
2 0.8125 1.85
2 0.875 1.7875
1.9375 0.875 1.85
2 0.8125 1.7875
1.9375 0.8125 1.85
1.9375 0.875 1.7875
1.9375 0.8125 1.7875
2.125 0.8125 1.85
2.125 0.875 1.7875
2.0625 0.875 1.85
2.125 0.8125 1.7875
2.0625 0.8125 1.85
2.0625 0.875 1.7875
2.0625 0.8125 1.7875
2.25 0.8125 1.85
2.25 0.875 1.7875
2.1875 0.875 1.85
2.25 0.8125 1.7875
2.1875 0.8125 1.85
2.1875 0.875 1.7875
2.1875 0.8125 1.7875
2.375 0.8125 1.85
2.375 0.875 1.7875
2.3125 0.875 1.85
2.375 0.8125 1.7875
2.3125 0.8125 1.85
2.3125 0.875 1.7875
2.3125 0.8125 1.7875
2.5 0.8125 1.85
2.5 0.875 1.7875
2.4375 0.875 1.85
2.5 0.8125 1.7875
2.4375 0.8125 1.85
2.4375 0.875 1.7875
2.4375 0.8125 1.7875
2.625 0.8125 1.85
2.625 0.875 1.7875
2.5625 0.875 1.85
2.625 0.8125 1.7875
2.5625 0.8125 1.85
2.5625 0.875 1.7875
2.5625 0.8125 1.7875
2.75 0.8125 1.85
2.75 0.875 1.7875
2.6875 0.875 1.85
2.75 0.8125 1.7875
2.6875 0.8125 1.85
2.6875 0.875 1.7875
2.6875 0.8125 1.7875
2.875 0.8125 1.85
2.875 0.875 1.7875
2.8125 0.875 1.85
2.875 0.8125 1.7875
2.8125 0.8125 1.85
2.8125 0.875 1.7875
2.8125 0.8125 1.7875
3 0.8125 1.85
3 0.875 1.7875
2.9375 0.875 1.85
3 0.8125 1.7875
2.9375 0.8125 1.85
2.9375 0.875 1.7875
2.9375 0.8125 1.7875
0.125 0.9375 1.85
0 0.9375 1.85
0.125 1 1.7875
0.0625 1 1.85
0 1 1.7875
0.125 0.9375 1.7875
0.0625 0.9375 1.85
0 0.9375 1.7875
0.0625 1 1.7875
0.0625 0.9375 1.7875
0.25 0.9375 1.85
0.25 1 1.7875
0.1875 1 1.85
0.25 0.9375 1.7875
0.1875 0.9375 1.85
0.1875 1 1.7875
0.1875 0.9375 1.7875
0.375 0.9375 1.85
0.375 1 1.7875
0.3125 1 1.85
0.375 0.9375 1.7875
0.3125 0.9375 1.85
0.3125 1 1.7875
0.3125 0.9375 1.7875
0.5 0.9375 1.85
0.5 1 1.7875
0.4375 1 1.85
0.5 0.9375 1.7875
0.4375 0.9375 1.85
0.4375 1 1.7875
0.4375 0.9375 1.7875
0.625 0.9375 1.85
0.625 1 1.7875
0.5625 1 1.85
0.625 0.9375 1.7875
0.5625 0.9375 1.85
0.5625 1 1.7875
0.5625 0.9375 1.7875
0.75 0.9375 1.85
0.75 1 1.7875
0.6875 1 1.85
0.75 0.9375 1.7875
0.6875 0.9375 1.85
0.6875 1 1.7875
0.6875 0.9375 1.7875
0.875 0.9375 1.85
0.875 1 1.7875
0.8125 1 1.85
0.875 0.9375 1.7875
0.8125 0.9375 1.85
0.8125 1 1.7875
0.8125 0.9375 1.7875
1 0.9375 1.85
1 1 1.7875
0.9375 1 1.85
1 0.9375 1.7875
0.9375 0.9375 1.85
0.9375 1 1.7875
0.9375 0.9375 1.7875
1.125 0.9375 1.85
1.125 1 1.7875
1.0625 1 1.85
1.125 0.9375 1.7875
1.0625 0.9375 1.85
1.0625 1 1.7875
1.0625 0.9375 1.7875
1.25 0.9375 1.85
1.25 1 1.7875
1.1875 1 1.85
1.25 0.9375 1.7875
1.1875 0.9375 1.85
1.1875 1 1.7875
1.1875 0.9375 1.7875
1.375 0.9375 1.85
1.375 1 1.7875
1.3125 1 1.85
1.375 0.9375 1.7875
1.3125 0.9375 1.85
1.3125 1 1.7875
1.3125 0.9375 1.7875
1.5 0.9375 1.85
1.5 1 1.7875
1.4375 1 1.85
1.5 0.9375 1.7875
1.4375 0.9375 1.85
1.4375 1 1.7875
1.4375 0.9375 1.7875
1.625 0.9375 1.85
1.625 1 1.7875
1.5625 1 1.85
1.625 0.9375 1.7875
1.5625 0.9375 1.85
1.5625 1 1.7875
1.5625 0.9375 1.7875
1.75 0.9375 1.85
1.75 1 1.7875
1.6875 1 1.85
1.75 0.9375 1.7875
1.6875 0.9375 1.85
1.6875 1 1.7875
1.6875 0.9375 1.7875
1.875 0.9375 1.85
1.875 1 1.7875
1.8125 1 1.85
1.875 0.9375 1.7875
1.8125 0.9375 1.85
1.8125 1 1.7875
1.8125 0.9375 1.7875
2 0.9375 1.85
2 1 1.7875
1.9375 1 1.85
2 0.9375 1.7875
1.9375 0.9375 1.85
1.9375 1 1.7875
1.9375 0.9375 1.7875
2.125 0.9375 1.85
2.125 1 1.7875
2.0625 1 1.85
2.125 0.9375 1.7875
2.0625 0.9375 1.85
2.0625 1 1.7875
2.0625 0.9375 1.7875
2.25 0.9375 1.85
2.25 1 1.7875
2.1875 1 1.85
2.25 0.9375 1.7875
2.1875 0.9375 1.85
2.1875 1 1.7875
2.1875 0.9375 1.7875
2.375 0.9375 1.85
2.375 1 1.7875
2.3125 1 1.85
2.375 0.9375 1.7875
2.3125 0.9375 1.85
2.3125 1 1.7875
2.3125 0.9375 1.7875
2.5 0.9375 1.85
2.5 1 1.7875
2.4375 1 1.85
2.5 0.9375 1.7875
2.4375 0.9375 1.85
2.4375 1 1.7875
2.4375 0.9375 1.7875
2.625 0.9375 1.85
2.625 1 1.7875
2.5625 1 1.85
2.625 0.9375 1.7875
2.5625 0.9375 1.85
2.5625 1 1.7875
2.5625 0.9375 1.7875
2.75 0.9375 1.85
2.75 1 1.7875
2.6875 1 1.85
2.75 0.9375 1.7875
2.6875 0.9375 1.85
2.6875 1 1.7875
2.6875 0.9375 1.7875
2.875 0.9375 1.85
2.875 1 1.7875
2.8125 1 1.85
2.875 0.9375 1.7875
2.8125 0.9375 1.85
2.8125 1 1.7875
2.8125 0.9375 1.7875
3 0.9375 1.85
3 1 1.7875
2.9375 1 1.85
3 0.9375 1.7875
2.9375 0.9375 1.85
2.9375 1 1.7875
2.9375 0.9375 1.7875
0.125 0 1.9125
0.0625 0 1.975
0 0 1.9125
0.125 0.0625 1.975
0 0.0625 1.975
0.125 0.125 1.9125
0.0625 0.125 1.975
0 0.125 1.9125
0.0625 0 1.9125
0.125 0.0625 1.9125
0.0625 0.0625 1.975
0 0.0625 1.9125
0.0625 0.125 1.9125
0.0625 0.0625 1.9125
0.25 0 1.9125
0.1875 0 1.975
0.25 0.0625 1.975
0.25 0.125 1.9125
0.1875 0.125 1.975
0.1875 0 1.9125
0.25 0.0625 1.9125
0.1875 0.0625 1.975
0.1875 0.125 1.9125
0.1875 0.0625 1.9125
0.375 0 1.9125
0.3125 0 1.975
0.375 0.0625 1.975
0.375 0.125 1.9125
0.3125 0.125 1.975
0.3125 0 1.9125
0.375 0.0625 1.9125
0.3125 0.0625 1.975
0.3125 0.125 1.9125
0.3125 0.0625 1.9125
0.5 0 1.9125
0.4375 0 1.975
0.5 0.0625 1.975
0.5 0.125 1.9125
0.4375 0.125 1.975
0.4375 0 1.9125
0.5 0.0625 1.9125
0.4375 0.0625 1.975
0.4375 0.125 1.9125
0.4375 0.0625 1.9125
0.625 0 1.9125
0.5625 0 1.975
0.625 0.0625 1.975
0.625 0.125 1.9125
0.5625 0.125 1.975
0.5625 0 1.9125
0.625 0.0625 1.9125
0.5625 0.0625 1.975
0.5625 0.125 1.9125
0.5625 0.0625 1.9125
0.75 0 1.9125
0.6875 0 1.975
0.75 0.0625 1.975
0.75 0.125 1.9125
0.6875 0.125 1.975
0.6875 0 1.9125
0.75 0.0625 1.9125
0.6875 0.0625 1.975
0.6875 0.125 1.9125
0.6875 0.0625 1.9125
0.875 0 1.9125
0.8125 0 1.975
0.875 0.0625 1.975
0.875 0.125 1.9125
0.8125 0.125 1.975
0.8125 0 1.9125
0.875 0.0625 1.9125
0.8125 0.0625 1.975
0.8125 0.125 1.9125
0.8125 0.0625 1.9125
1 0 1.9125
0.9375 0 1.975
1 0.0625 1.975
1 0.125 1.9125
0.9375 0.125 1.975
0.9375 0 1.9125
1 0.0625 1.9125
0.9375 0.0625 1.975
0.9375 0.125 1.9125
0.9375 0.0625 1.9125
1.125 0 1.9125
1.0625 0 1.975
1.125 0.0625 1.975
1.125 0.125 1.9125
1.0625 0.125 1.975
1.0625 0 1.9125
1.125 0.0625 1.9125
1.0625 0.0625 1.975
1.0625 0.125 1.9125
1.0625 0.0625 1.9125
1.25 0 1.9125
1.1875 0 1.975
1.25 0.0625 1.975
1.25 0.125 1.9125
1.1875 0.125 1.975
1.1875 0 1.9125
1.25 0.0625 1.9125
1.1875 0.0625 1.975
1.1875 0.125 1.9125
1.1875 0.0625 1.9125
1.375 0 1.9125
1.3125 0 1.975
1.375 0.0625 1.975
1.375 0.125 1.9125
1.3125 0.125 1.975
1.3125 0 1.9125
1.375 0.0625 1.9125
1.3125 0.0625 1.975
1.3125 0.125 1.9125
1.3125 0.0625 1.9125
1.5 0 1.9125
1.4375 0 1.975
1.5 0.0625 1.975
1.5 0.125 1.9125
1.4375 0.125 1.975
1.4375 0 1.9125
1.5 0.0625 1.9125
1.4375 0.0625 1.975
1.4375 0.125 1.9125
1.4375 0.0625 1.9125
1.625 0 1.9125
1.5625 0 1.975
1.625 0.0625 1.975
1.625 0.125 1.9125
1.5625 0.125 1.975
1.5625 0 1.9125
1.625 0.0625 1.9125
1.5625 0.0625 1.975
1.5625 0.125 1.9125
1.5625 0.0625 1.9125
1.75 0 1.9125
1.6875 0 1.975
1.75 0.0625 1.975
1.75 0.125 1.9125
1.6875 0.125 1.975
1.6875 0 1.9125
1.75 0.0625 1.9125
1.6875 0.0625 1.975
1.6875 0.125 1.9125
1.6875 0.0625 1.9125
1.875 0 1.9125
1.8125 0 1.975
1.875 0.0625 1.975
1.875 0.125 1.9125
1.8125 0.125 1.975
1.8125 0 1.9125
1.875 0.0625 1.9125
1.8125 0.0625 1.975
1.8125 0.125 1.9125
1.8125 0.0625 1.9125
2 0 1.9125
1.9375 0 1.975
2 0.0625 1.975
2 0.125 1.9125
1.9375 0.125 1.975
1.9375 0 1.9125
2 0.0625 1.9125
1.9375 0.0625 1.975
1.9375 0.125 1.9125
1.9375 0.0625 1.9125
2.125 0 1.9125
2.0625 0 1.975
2.125 0.0625 1.975
2.125 0.125 1.9125
2.0625 0.125 1.975
2.0625 0 1.9125
2.125 0.0625 1.9125
2.0625 0.0625 1.975
2.0625 0.125 1.9125
2.0625 0.0625 1.9125
2.25 0 1.9125
2.1875 0 1.975
2.25 0.0625 1.975
2.25 0.125 1.9125
2.1875 0.125 1.975
2.1875 0 1.9125
2.25 0.0625 1.9125
2.1875 0.0625 1.975
2.1875 0.125 1.9125
2.1875 0.0625 1.9125
2.375 0 1.9125
2.3125 0 1.975
2.375 0.0625 1.975
2.375 0.125 1.9125
2.3125 0.125 1.975
2.3125 0 1.9125
2.375 0.0625 1.9125
2.3125 0.0625 1.975
2.3125 0.125 1.9125
2.3125 0.0625 1.9125
2.5 0 1.9125
2.4375 0 1.975
2.5 0.0625 1.975
2.5 0.125 1.9125
2.4375 0.125 1.975
2.4375 0 1.9125
2.5 0.0625 1.9125
2.4375 0.0625 1.975
2.4375 0.125 1.9125
2.4375 0.0625 1.9125
2.625 0 1.9125
2.5625 0 1.975
2.625 0.0625 1.975
2.625 0.125 1.9125
2.5625 0.125 1.975
2.5625 0 1.9125
2.625 0.0625 1.9125
2.5625 0.0625 1.975
2.5625 0.125 1.9125
2.5625 0.0625 1.9125
2.75 0 1.9125
2.6875 0 1.975
2.75 0.0625 1.975
2.75 0.125 1.9125
2.6875 0.125 1.975
2.6875 0 1.9125
2.75 0.0625 1.9125
2.6875 0.0625 1.975
2.6875 0.125 1.9125
2.6875 0.0625 1.9125
2.875 0 1.9125
2.8125 0 1.975
2.875 0.0625 1.975
2.875 0.125 1.9125
2.8125 0.125 1.975
2.8125 0 1.9125
2.875 0.0625 1.9125
2.8125 0.0625 1.975
2.8125 0.125 1.9125
2.8125 0.0625 1.9125
3 0 1.9125
2.9375 0 1.975
3 0.0625 1.975
3 0.125 1.9125
2.9375 0.125 1.975
2.9375 0 1.9125
3 0.0625 1.9125
2.9375 0.0625 1.975
2.9375 0.125 1.9125
2.9375 0.0625 1.9125
0.125 0.1875 1.975
0 0.1875 1.975
0.125 0.25 1.9125
0.0625 0.25 1.975
0 0.25 1.9125
0.125 0.1875 1.9125
0.0625 0.1875 1.975
0 0.1875 1.9125
0.0625 0.25 1.9125
0.0625 0.1875 1.9125
0.25 0.1875 1.975
0.25 0.25 1.9125
0.1875 0.25 1.975
0.25 0.1875 1.9125
0.1875 0.1875 1.975
0.1875 0.25 1.9125
0.1875 0.1875 1.9125
0.375 0.1875 1.975
0.375 0.25 1.9125
0.3125 0.25 1.975
0.375 0.1875 1.9125
0.3125 0.1875 1.975
0.3125 0.25 1.9125
0.3125 0.1875 1.9125
0.5 0.1875 1.975
0.5 0.25 1.9125
0.4375 0.25 1.975
0.5 0.1875 1.9125
0.4375 0.1875 1.975
0.4375 0.25 1.9125
0.4375 0.1875 1.9125
0.625 0.1875 1.975
0.625 0.25 1.9125
0.5625 0.25 1.975
0.625 0.1875 1.9125
0.5625 0.1875 1.975
0.5625 0.25 1.9125
0.5625 0.1875 1.9125
0.75 0.1875 1.975
0.75 0.25 1.9125
0.6875 0.25 1.975
0.75 0.1875 1.9125
0.6875 0.1875 1.975
0.6875 0.25 1.9125
0.6875 0.1875 1.9125
0.875 0.1875 1.975
0.875 0.25 1.9125
0.8125 0.25 1.975
0.875 0.1875 1.9125
0.8125 0.1875 1.975
0.8125 0.25 1.9125
0.8125 0.1875 1.9125
1 0.1875 1.975
1 0.25 1.9125
0.9375 0.25 1.975
1 0.1875 1.9125
0.9375 0.1875 1.975
0.9375 0.25 1.9125
0.9375 0.1875 1.9125
1.125 0.1875 1.975
1.125 0.25 1.9125
1.0625 0.25 1.975
1.125 0.1875 1.9125
1.0625 0.1875 1.975
1.0625 0.25 1.9125
1.0625 0.1875 1.9125
1.25 0.1875 1.975
1.25 0.25 1.9125
1.1875 0.25 1.975
1.25 0.1875 1.9125
1.1875 0.1875 1.975
1.1875 0.25 1.9125
1.1875 0.1875 1.9125
1.375 0.1875 1.975
1.375 0.25 1.9125
1.3125 0.25 1.975
1.375 0.1875 1.9125
1.3125 0.1875 1.975
1.3125 0.25 1.9125
1.3125 0.1875 1.9125
1.5 0.1875 1.975
1.5 0.25 1.9125
1.4375 0.25 1.975
1.5 0.1875 1.9125
1.4375 0.1875 1.975
1.4375 0.25 1.9125
1.4375 0.1875 1.9125
1.625 0.1875 1.975
1.625 0.25 1.9125
1.5625 0.25 1.975
1.625 0.1875 1.9125
1.5625 0.1875 1.975
1.5625 0.25 1.9125
1.5625 0.1875 1.9125
1.75 0.1875 1.975
1.75 0.25 1.9125
1.6875 0.25 1.975
1.75 0.1875 1.9125
1.6875 0.1875 1.975
1.6875 0.25 1.9125
1.6875 0.1875 1.9125
1.875 0.1875 1.975
1.875 0.25 1.9125
1.8125 0.25 1.975
1.875 0.1875 1.9125
1.8125 0.1875 1.975
1.8125 0.25 1.9125
1.8125 0.1875 1.9125
2 0.1875 1.975
2 0.25 1.9125
1.9375 0.25 1.975
2 0.1875 1.9125
1.9375 0.1875 1.975
1.9375 0.25 1.9125
1.9375 0.1875 1.9125
2.125 0.1875 1.975
2.125 0.25 1.9125
2.0625 0.25 1.975
2.125 0.1875 1.9125
2.0625 0.1875 1.975
2.0625 0.25 1.9125
2.0625 0.1875 1.9125
2.25 0.1875 1.975
2.25 0.25 1.9125
2.1875 0.25 1.975
2.25 0.1875 1.9125
2.1875 0.1875 1.975
2.1875 0.25 1.9125
2.1875 0.1875 1.9125
2.375 0.1875 1.975
2.375 0.25 1.9125
2.3125 0.25 1.975
2.375 0.1875 1.9125
2.3125 0.1875 1.975
2.3125 0.25 1.9125
2.3125 0.1875 1.9125
2.5 0.1875 1.975
2.5 0.25 1.9125
2.4375 0.25 1.975
2.5 0.1875 1.9125
2.4375 0.1875 1.975
2.4375 0.25 1.9125
2.4375 0.1875 1.9125
2.625 0.1875 1.975
2.625 0.25 1.9125
2.5625 0.25 1.975
2.625 0.1875 1.9125
2.5625 0.1875 1.975
2.5625 0.25 1.9125
2.5625 0.1875 1.9125
2.75 0.1875 1.975
2.75 0.25 1.9125
2.6875 0.25 1.975
2.75 0.1875 1.9125
2.6875 0.1875 1.975
2.6875 0.25 1.9125
2.6875 0.1875 1.9125
2.875 0.1875 1.975
2.875 0.25 1.9125
2.8125 0.25 1.975
2.875 0.1875 1.9125
2.8125 0.1875 1.975
2.8125 0.25 1.9125
2.8125 0.1875 1.9125
3 0.1875 1.975
3 0.25 1.9125
2.9375 0.25 1.975
3 0.1875 1.9125
2.9375 0.1875 1.975
2.9375 0.25 1.9125
2.9375 0.1875 1.9125
0.125 0.3125 1.975
0 0.3125 1.975
0.125 0.375 1.9125
0.0625 0.375 1.975
0 0.375 1.9125
0.125 0.3125 1.9125
0.0625 0.3125 1.975
0 0.3125 1.9125
0.0625 0.375 1.9125
0.0625 0.3125 1.9125
0.25 0.3125 1.975
0.25 0.375 1.9125
0.1875 0.375 1.975
0.25 0.3125 1.9125
0.1875 0.3125 1.975
0.1875 0.375 1.9125
0.1875 0.3125 1.9125
0.375 0.3125 1.975
0.375 0.375 1.9125
0.3125 0.375 1.975
0.375 0.3125 1.9125
0.3125 0.3125 1.975
0.3125 0.375 1.9125
0.3125 0.3125 1.9125
0.5 0.3125 1.975
0.5 0.375 1.9125
0.4375 0.375 1.975
0.5 0.3125 1.9125
0.4375 0.3125 1.975
0.4375 0.375 1.9125
0.4375 0.3125 1.9125
0.625 0.3125 1.975
0.625 0.375 1.9125
0.5625 0.375 1.975
0.625 0.3125 1.9125
0.5625 0.3125 1.975
0.5625 0.375 1.9125
0.5625 0.3125 1.9125
0.75 0.3125 1.975
0.75 0.375 1.9125
0.6875 0.375 1.975
0.75 0.3125 1.9125
0.6875 0.3125 1.975
0.6875 0.375 1.9125
0.6875 0.3125 1.9125
0.875 0.3125 1.975
0.875 0.375 1.9125
0.8125 0.375 1.975
0.875 0.3125 1.9125
0.8125 0.3125 1.975
0.8125 0.375 1.9125
0.8125 0.3125 1.9125
1 0.3125 1.975
1 0.375 1.9125
0.9375 0.375 1.975
1 0.3125 1.9125
0.9375 0.3125 1.975
0.9375 0.375 1.9125
0.9375 0.3125 1.9125
1.125 0.3125 1.975
1.125 0.375 1.9125
1.0625 0.375 1.975
1.125 0.3125 1.9125
1.0625 0.3125 1.975
1.0625 0.375 1.9125
1.0625 0.3125 1.9125
1.25 0.3125 1.975
1.25 0.375 1.9125
1.1875 0.375 1.975
1.25 0.3125 1.9125
1.1875 0.3125 1.975
1.1875 0.375 1.9125
1.1875 0.3125 1.9125
1.375 0.3125 1.975
1.375 0.375 1.9125
1.3125 0.375 1.975
1.375 0.3125 1.9125
1.3125 0.3125 1.975
1.3125 0.375 1.9125
1.3125 0.3125 1.9125
1.5 0.3125 1.975
1.5 0.375 1.9125
1.4375 0.375 1.975
1.5 0.3125 1.9125
1.4375 0.3125 1.975
1.4375 0.375 1.9125
1.4375 0.3125 1.9125
1.625 0.3125 1.975
1.625 0.375 1.9125
1.5625 0.375 1.975
1.625 0.3125 1.9125
1.5625 0.3125 1.975
1.5625 0.375 1.9125
1.5625 0.3125 1.9125
1.75 0.3125 1.975
1.75 0.375 1.9125
1.6875 0.375 1.975
1.75 0.3125 1.9125
1.6875 0.3125 1.975
1.6875 0.375 1.9125
1.6875 0.3125 1.9125
1.875 0.3125 1.975
1.875 0.375 1.9125
1.8125 0.375 1.975
1.875 0.3125 1.9125
1.8125 0.3125 1.975
1.8125 0.375 1.9125
1.8125 0.3125 1.9125
2 0.3125 1.975
2 0.375 1.9125
1.9375 0.375 1.975
2 0.3125 1.9125
1.9375 0.3125 1.975
1.9375 0.375 1.9125
1.9375 0.3125 1.9125
2.125 0.3125 1.975
2.125 0.375 1.9125
2.0625 0.375 1.975
2.125 0.3125 1.9125
2.0625 0.3125 1.975
2.0625 0.375 1.9125
2.0625 0.3125 1.9125
2.25 0.3125 1.975
2.25 0.375 1.9125
2.1875 0.375 1.975
2.25 0.3125 1.9125
2.1875 0.3125 1.975
2.1875 0.375 1.9125
2.1875 0.3125 1.9125
2.375 0.3125 1.975
2.375 0.375 1.9125
2.3125 0.375 1.975
2.375 0.3125 1.9125
2.3125 0.3125 1.975
2.3125 0.375 1.9125
2.3125 0.3125 1.9125
2.5 0.3125 1.975
2.5 0.375 1.9125
2.4375 0.375 1.975
2.5 0.3125 1.9125
2.4375 0.3125 1.975
2.4375 0.375 1.9125
2.4375 0.3125 1.9125
2.625 0.3125 1.975
2.625 0.375 1.9125
2.5625 0.375 1.975
2.625 0.3125 1.9125
2.5625 0.3125 1.975
2.5625 0.375 1.9125
2.5625 0.3125 1.9125
2.75 0.3125 1.975
2.75 0.375 1.9125
2.6875 0.375 1.975
2.75 0.3125 1.9125
2.6875 0.3125 1.975
2.6875 0.375 1.9125
2.6875 0.3125 1.9125
2.875 0.3125 1.975
2.875 0.375 1.9125
2.8125 0.375 1.975
2.875 0.3125 1.9125
2.8125 0.3125 1.975
2.8125 0.375 1.9125
2.8125 0.3125 1.9125
3 0.3125 1.975
3 0.375 1.9125
2.9375 0.375 1.975
3 0.3125 1.9125
2.9375 0.3125 1.975
2.9375 0.375 1.9125
2.9375 0.3125 1.9125
0.125 0.4375 1.975
0 0.4375 1.975
0.125 0.5 1.9125
0.0625 0.5 1.975
0 0.5 1.9125
0.125 0.4375 1.9125
0.0625 0.4375 1.975
0 0.4375 1.9125
0.0625 0.5 1.9125
0.0625 0.4375 1.9125
0.25 0.4375 1.975
0.25 0.5 1.9125
0.1875 0.5 1.975
0.25 0.4375 1.9125
0.1875 0.4375 1.975
0.1875 0.5 1.9125
0.1875 0.4375 1.9125
0.375 0.4375 1.975
0.375 0.5 1.9125
0.3125 0.5 1.975
0.375 0.4375 1.9125
0.3125 0.4375 1.975
0.3125 0.5 1.9125
0.3125 0.4375 1.9125
0.5 0.4375 1.975
0.5 0.5 1.9125
0.4375 0.5 1.975
0.5 0.4375 1.9125
0.4375 0.4375 1.975
0.4375 0.5 1.9125
0.4375 0.4375 1.9125
0.625 0.4375 1.975
0.625 0.5 1.9125
0.5625 0.5 1.975
0.625 0.4375 1.9125
0.5625 0.4375 1.975
0.5625 0.5 1.9125
0.5625 0.4375 1.9125
0.75 0.4375 1.975
0.75 0.5 1.9125
0.6875 0.5 1.975
0.75 0.4375 1.9125
0.6875 0.4375 1.975
0.6875 0.5 1.9125
0.6875 0.4375 1.9125
0.875 0.4375 1.975
0.875 0.5 1.9125
0.8125 0.5 1.975
0.875 0.4375 1.9125
0.8125 0.4375 1.975
0.8125 0.5 1.9125
0.8125 0.4375 1.9125
1 0.4375 1.975
1 0.5 1.9125
0.9375 0.5 1.975
1 0.4375 1.9125
0.9375 0.4375 1.975
0.9375 0.5 1.9125
0.9375 0.4375 1.9125
1.125 0.4375 1.975
1.125 0.5 1.9125
1.0625 0.5 1.975
1.125 0.4375 1.9125
1.0625 0.4375 1.975
1.0625 0.5 1.9125
1.0625 0.4375 1.9125
1.25 0.4375 1.975
1.25 0.5 1.9125
1.1875 0.5 1.975
1.25 0.4375 1.9125
1.1875 0.4375 1.975
1.1875 0.5 1.9125
1.1875 0.4375 1.9125
1.375 0.4375 1.975
1.375 0.5 1.9125
1.3125 0.5 1.975
1.375 0.4375 1.9125
1.3125 0.4375 1.975
1.3125 0.5 1.9125
1.3125 0.4375 1.9125
1.5 0.4375 1.975
1.5 0.5 1.9125
1.4375 0.5 1.975
1.5 0.4375 1.9125
1.4375 0.4375 1.975
1.4375 0.5 1.9125
1.4375 0.4375 1.9125
1.625 0.4375 1.975
1.625 0.5 1.9125
1.5625 0.5 1.975
1.625 0.4375 1.9125
1.5625 0.4375 1.975
1.5625 0.5 1.9125
1.5625 0.4375 1.9125
1.75 0.4375 1.975
1.75 0.5 1.9125
1.6875 0.5 1.975
1.75 0.4375 1.9125
1.6875 0.4375 1.975
1.6875 0.5 1.9125
1.6875 0.4375 1.9125
1.875 0.4375 1.975
1.875 0.5 1.9125
1.8125 0.5 1.975
1.875 0.4375 1.9125
1.8125 0.4375 1.975
1.8125 0.5 1.9125
1.8125 0.4375 1.9125
2 0.4375 1.975
2 0.5 1.9125
1.9375 0.5 1.975
2 0.4375 1.9125
1.9375 0.4375 1.975
1.9375 0.5 1.9125
1.9375 0.4375 1.9125
2.125 0.4375 1.975
2.125 0.5 1.9125
2.0625 0.5 1.975
2.125 0.4375 1.9125
2.0625 0.4375 1.975
2.0625 0.5 1.9125
2.0625 0.4375 1.9125
2.25 0.4375 1.975
2.25 0.5 1.9125
2.1875 0.5 1.975
2.25 0.4375 1.9125
2.1875 0.4375 1.975
2.1875 0.5 1.9125
2.1875 0.4375 1.9125
2.375 0.4375 1.975
2.375 0.5 1.9125
2.3125 0.5 1.975
2.375 0.4375 1.9125
2.3125 0.4375 1.975
2.3125 0.5 1.9125
2.3125 0.4375 1.9125
2.5 0.4375 1.975
2.5 0.5 1.9125
2.4375 0.5 1.975
2.5 0.4375 1.9125
2.4375 0.4375 1.975
2.4375 0.5 1.9125
2.4375 0.4375 1.9125
2.625 0.4375 1.975
2.625 0.5 1.9125
2.5625 0.5 1.975
2.625 0.4375 1.9125
2.5625 0.4375 1.975
2.5625 0.5 1.9125
2.5625 0.4375 1.9125
2.75 0.4375 1.975
2.75 0.5 1.9125
2.6875 0.5 1.975
2.75 0.4375 1.9125
2.6875 0.4375 1.975
2.6875 0.5 1.9125
2.6875 0.4375 1.9125
2.875 0.4375 1.975
2.875 0.5 1.9125
2.8125 0.5 1.975
2.875 0.4375 1.9125
2.8125 0.4375 1.975
2.8125 0.5 1.9125
2.8125 0.4375 1.9125
3 0.4375 1.975
3 0.5 1.9125
2.9375 0.5 1.975
3 0.4375 1.9125
2.9375 0.4375 1.975
2.9375 0.5 1.9125
2.9375 0.4375 1.9125
0.125 0.5625 1.975
0 0.5625 1.975
0.125 0.625 1.9125
0.0625 0.625 1.975
0 0.625 1.9125
0.125 0.5625 1.9125
0.0625 0.5625 1.975
0 0.5625 1.9125
0.0625 0.625 1.9125
0.0625 0.5625 1.9125
0.25 0.5625 1.975
0.25 0.625 1.9125
0.1875 0.625 1.975
0.25 0.5625 1.9125
0.1875 0.5625 1.975
0.1875 0.625 1.9125
0.1875 0.5625 1.9125
0.375 0.5625 1.975
0.375 0.625 1.9125
0.3125 0.625 1.975
0.375 0.5625 1.9125
0.3125 0.5625 1.975
0.3125 0.625 1.9125
0.3125 0.5625 1.9125
0.5 0.5625 1.975
0.5 0.625 1.9125
0.4375 0.625 1.975
0.5 0.5625 1.9125
0.4375 0.5625 1.975
0.4375 0.625 1.9125
0.4375 0.5625 1.9125
0.625 0.5625 1.975
0.625 0.625 1.9125
0.5625 0.625 1.975
0.625 0.5625 1.9125
0.5625 0.5625 1.975
0.5625 0.625 1.9125
0.5625 0.5625 1.9125
0.75 0.5625 1.975
0.75 0.625 1.9125
0.6875 0.625 1.975
0.75 0.5625 1.9125
0.6875 0.5625 1.975
0.6875 0.625 1.9125
0.6875 0.5625 1.9125
0.875 0.5625 1.975
0.875 0.625 1.9125
0.8125 0.625 1.975
0.875 0.5625 1.9125
0.8125 0.5625 1.975
0.8125 0.625 1.9125
0.8125 0.5625 1.9125
1 0.5625 1.975
1 0.625 1.9125
0.9375 0.625 1.975
1 0.5625 1.9125
0.9375 0.5625 1.975
0.9375 0.625 1.9125
0.9375 0.5625 1.9125
1.125 0.5625 1.975
1.125 0.625 1.9125
1.0625 0.625 1.975
1.125 0.5625 1.9125
1.0625 0.5625 1.975
1.0625 0.625 1.9125
1.0625 0.5625 1.9125
1.25 0.5625 1.975
1.25 0.625 1.9125
1.1875 0.625 1.975
1.25 0.5625 1.9125
1.1875 0.5625 1.975
1.1875 0.625 1.9125
1.1875 0.5625 1.9125
1.375 0.5625 1.975
1.375 0.625 1.9125
1.3125 0.625 1.975
1.375 0.5625 1.9125
1.3125 0.5625 1.975
1.3125 0.625 1.9125
1.3125 0.5625 1.9125
1.5 0.5625 1.975
1.5 0.625 1.9125
1.4375 0.625 1.975
1.5 0.5625 1.9125
1.4375 0.5625 1.975
1.4375 0.625 1.9125
1.4375 0.5625 1.9125
1.625 0.5625 1.975
1.625 0.625 1.9125
1.5625 0.625 1.975
1.625 0.5625 1.9125
1.5625 0.5625 1.975
1.5625 0.625 1.9125
1.5625 0.5625 1.9125
1.75 0.5625 1.975
1.75 0.625 1.9125
1.6875 0.625 1.975
1.75 0.5625 1.9125
1.6875 0.5625 1.975
1.6875 0.625 1.9125
1.6875 0.5625 1.9125
1.875 0.5625 1.975
1.875 0.625 1.9125
1.8125 0.625 1.975
1.875 0.5625 1.9125
1.8125 0.5625 1.975
1.8125 0.625 1.9125
1.8125 0.5625 1.9125
2 0.5625 1.975
2 0.625 1.9125
1.9375 0.625 1.975
2 0.5625 1.9125
1.9375 0.5625 1.975
1.9375 0.625 1.9125
1.9375 0.5625 1.9125
2.125 0.5625 1.975
2.125 0.625 1.9125
2.0625 0.625 1.975
2.125 0.5625 1.9125
2.0625 0.5625 1.975
2.0625 0.625 1.9125
2.0625 0.5625 1.9125
2.25 0.5625 1.975
2.25 0.625 1.9125
2.1875 0.625 1.975
2.25 0.5625 1.9125
2.1875 0.5625 1.975
2.1875 0.625 1.9125
2.1875 0.5625 1.9125
2.375 0.5625 1.975
2.375 0.625 1.9125
2.3125 0.625 1.975
2.375 0.5625 1.9125
2.3125 0.5625 1.975
2.3125 0.625 1.9125
2.3125 0.5625 1.9125
2.5 0.5625 1.975
2.5 0.625 1.9125
2.4375 0.625 1.975
2.5 0.5625 1.9125
2.4375 0.5625 1.975
2.4375 0.625 1.9125
2.4375 0.5625 1.9125
2.625 0.5625 1.975
2.625 0.625 1.9125
2.5625 0.625 1.975
2.625 0.5625 1.9125
2.5625 0.5625 1.975
2.5625 0.625 1.9125
2.5625 0.5625 1.9125
2.75 0.5625 1.975
2.75 0.625 1.9125
2.6875 0.625 1.975
2.75 0.5625 1.9125
2.6875 0.5625 1.975
2.6875 0.625 1.9125
2.6875 0.5625 1.9125
2.875 0.5625 1.975
2.875 0.625 1.9125
2.8125 0.625 1.975
2.875 0.5625 1.9125
2.8125 0.5625 1.975
2.8125 0.625 1.9125
2.8125 0.5625 1.9125
3 0.5625 1.975
3 0.625 1.9125
2.9375 0.625 1.975
3 0.5625 1.9125
2.9375 0.5625 1.975
2.9375 0.625 1.9125
2.9375 0.5625 1.9125
0.125 0.6875 1.975
0 0.6875 1.975
0.125 0.75 1.9125
0.0625 0.75 1.975
0 0.75 1.9125
0.125 0.6875 1.9125
0.0625 0.6875 1.975
0 0.6875 1.9125
0.0625 0.75 1.9125
0.0625 0.6875 1.9125
0.25 0.6875 1.975
0.25 0.75 1.9125
0.1875 0.75 1.975
0.25 0.6875 1.9125
0.1875 0.6875 1.975
0.1875 0.75 1.9125
0.1875 0.6875 1.9125
0.375 0.6875 1.975
0.375 0.75 1.9125
0.3125 0.75 1.975
0.375 0.6875 1.9125
0.3125 0.6875 1.975
0.3125 0.75 1.9125
0.3125 0.6875 1.9125
0.5 0.6875 1.975
0.5 0.75 1.9125
0.4375 0.75 1.975
0.5 0.6875 1.9125
0.4375 0.6875 1.975
0.4375 0.75 1.9125
0.4375 0.6875 1.9125
0.625 0.6875 1.975
0.625 0.75 1.9125
0.5625 0.75 1.975
0.625 0.6875 1.9125
0.5625 0.6875 1.975
0.5625 0.75 1.9125
0.5625 0.6875 1.9125
0.75 0.6875 1.975
0.75 0.75 1.9125
0.6875 0.75 1.975
0.75 0.6875 1.9125
0.6875 0.6875 1.975
0.6875 0.75 1.9125
0.6875 0.6875 1.9125
0.875 0.6875 1.975
0.875 0.75 1.9125
0.8125 0.75 1.975
0.875 0.6875 1.9125
0.8125 0.6875 1.975
0.8125 0.75 1.9125
0.8125 0.6875 1.9125
1 0.6875 1.975
1 0.75 1.9125
0.9375 0.75 1.975
1 0.6875 1.9125
0.9375 0.6875 1.975
0.9375 0.75 1.9125
0.9375 0.6875 1.9125
1.125 0.6875 1.975
1.125 0.75 1.9125
1.0625 0.75 1.975
1.125 0.6875 1.9125
1.0625 0.6875 1.975
1.0625 0.75 1.9125
1.0625 0.6875 1.9125
1.25 0.6875 1.975
1.25 0.75 1.9125
1.1875 0.75 1.975
1.25 0.6875 1.9125
1.1875 0.6875 1.975
1.1875 0.75 1.9125
1.1875 0.6875 1.9125
1.375 0.6875 1.975
1.375 0.75 1.9125
1.3125 0.75 1.975
1.375 0.6875 1.9125
1.3125 0.6875 1.975
1.3125 0.75 1.9125
1.3125 0.6875 1.9125
1.5 0.6875 1.975
1.5 0.75 1.9125
1.4375 0.75 1.975
1.5 0.6875 1.9125
1.4375 0.6875 1.975
1.4375 0.75 1.9125
1.4375 0.6875 1.9125
1.625 0.6875 1.975
1.625 0.75 1.9125
1.5625 0.75 1.975
1.625 0.6875 1.9125
1.5625 0.6875 1.975
1.5625 0.75 1.9125
1.5625 0.6875 1.9125
1.75 0.6875 1.975
1.75 0.75 1.9125
1.6875 0.75 1.975
1.75 0.6875 1.9125
1.6875 0.6875 1.975
1.6875 0.75 1.9125
1.6875 0.6875 1.9125
1.875 0.6875 1.975
1.875 0.75 1.9125
1.8125 0.75 1.975
1.875 0.6875 1.9125
1.8125 0.6875 1.975
1.8125 0.75 1.9125
1.8125 0.6875 1.9125
2 0.6875 1.975
2 0.75 1.9125
1.9375 0.75 1.975
2 0.6875 1.9125
1.9375 0.6875 1.975
1.9375 0.75 1.9125
1.9375 0.6875 1.9125
2.125 0.6875 1.975
2.125 0.75 1.9125
2.0625 0.75 1.975
2.125 0.6875 1.9125
2.0625 0.6875 1.975
2.0625 0.75 1.9125
2.0625 0.6875 1.9125
2.25 0.6875 1.975
2.25 0.75 1.9125
2.1875 0.75 1.975
2.25 0.6875 1.9125
2.1875 0.6875 1.975
2.1875 0.75 1.9125
2.1875 0.6875 1.9125
2.375 0.6875 1.975
2.375 0.75 1.9125
2.3125 0.75 1.975
2.375 0.6875 1.9125
2.3125 0.6875 1.975
2.3125 0.75 1.9125
2.3125 0.6875 1.9125
2.5 0.6875 1.975
2.5 0.75 1.9125
2.4375 0.75 1.975
2.5 0.6875 1.9125
2.4375 0.6875 1.975
2.4375 0.75 1.9125
2.4375 0.6875 1.9125
2.625 0.6875 1.975
2.625 0.75 1.9125
2.5625 0.75 1.975
2.625 0.6875 1.9125
2.5625 0.6875 1.975
2.5625 0.75 1.9125
2.5625 0.6875 1.9125
2.75 0.6875 1.975
2.75 0.75 1.9125
2.6875 0.75 1.975
2.75 0.6875 1.9125
2.6875 0.6875 1.975
2.6875 0.75 1.9125
2.6875 0.6875 1.9125
2.875 0.6875 1.975
2.875 0.75 1.9125
2.8125 0.75 1.975
2.875 0.6875 1.9125
2.8125 0.6875 1.975
2.8125 0.75 1.9125
2.8125 0.6875 1.9125
3 0.6875 1.975
3 0.75 1.9125
2.9375 0.75 1.975
3 0.6875 1.9125
2.9375 0.6875 1.975
2.9375 0.75 1.9125
2.9375 0.6875 1.9125
0.125 0.8125 1.975
0 0.8125 1.975
0.125 0.875 1.9125
0.0625 0.875 1.975
0 0.875 1.9125
0.125 0.8125 1.9125
0.0625 0.8125 1.975
0 0.8125 1.9125
0.0625 0.875 1.9125
0.0625 0.8125 1.9125
0.25 0.8125 1.975
0.25 0.875 1.9125
0.1875 0.875 1.975
0.25 0.8125 1.9125
0.1875 0.8125 1.975
0.1875 0.875 1.9125
0.1875 0.8125 1.9125
0.375 0.8125 1.975
0.375 0.875 1.9125
0.3125 0.875 1.975
0.375 0.8125 1.9125
0.3125 0.8125 1.975
0.3125 0.875 1.9125
0.3125 0.8125 1.9125
0.5 0.8125 1.975
0.5 0.875 1.9125
0.4375 0.875 1.975
0.5 0.8125 1.9125
0.4375 0.8125 1.975
0.4375 0.875 1.9125
0.4375 0.8125 1.9125
0.625 0.8125 1.975
0.625 0.875 1.9125
0.5625 0.875 1.975
0.625 0.8125 1.9125
0.5625 0.8125 1.975
0.5625 0.875 1.9125
0.5625 0.8125 1.9125
0.75 0.8125 1.975
0.75 0.875 1.9125
0.6875 0.875 1.975
0.75 0.8125 1.9125
0.6875 0.8125 1.975
0.6875 0.875 1.9125
0.6875 0.8125 1.9125
0.875 0.8125 1.975
0.875 0.875 1.9125
0.8125 0.875 1.975
0.875 0.8125 1.9125
0.8125 0.8125 1.975
0.8125 0.875 1.9125
0.8125 0.8125 1.9125
1 0.8125 1.975
1 0.875 1.9125
0.9375 0.875 1.975
1 0.8125 1.9125
0.9375 0.8125 1.975
0.9375 0.875 1.9125
0.9375 0.8125 1.9125
1.125 0.8125 1.975
1.125 0.875 1.9125
1.0625 0.875 1.975
1.125 0.8125 1.9125
1.0625 0.8125 1.975
1.0625 0.875 1.9125
1.0625 0.8125 1.9125
1.25 0.8125 1.975
1.25 0.875 1.9125
1.1875 0.875 1.975
1.25 0.8125 1.9125
1.1875 0.8125 1.975
1.1875 0.875 1.9125
1.1875 0.8125 1.9125
1.375 0.8125 1.975
1.375 0.875 1.9125
1.3125 0.875 1.975
1.375 0.8125 1.9125
1.3125 0.8125 1.975
1.3125 0.875 1.9125
1.3125 0.8125 1.9125
1.5 0.8125 1.975
1.5 0.875 1.9125
1.4375 0.875 1.975
1.5 0.8125 1.9125
1.4375 0.8125 1.975
1.4375 0.875 1.9125
1.4375 0.8125 1.9125
1.625 0.8125 1.975
1.625 0.875 1.9125
1.5625 0.875 1.975
1.625 0.8125 1.9125
1.5625 0.8125 1.975
1.5625 0.875 1.9125
1.5625 0.8125 1.9125
1.75 0.8125 1.975
1.75 0.875 1.9125
1.6875 0.875 1.975
1.75 0.8125 1.9125
1.6875 0.8125 1.975
1.6875 0.875 1.9125
1.6875 0.8125 1.9125
1.875 0.8125 1.975
1.875 0.875 1.9125
1.8125 0.875 1.975
1.875 0.8125 1.9125
1.8125 0.8125 1.975
1.8125 0.875 1.9125
1.8125 0.8125 1.9125
2 0.8125 1.975
2 0.875 1.9125
1.9375 0.875 1.975
2 0.8125 1.9125
1.9375 0.8125 1.975
1.9375 0.875 1.9125
1.9375 0.8125 1.9125
2.125 0.8125 1.975
2.125 0.875 1.9125
2.0625 0.875 1.975
2.125 0.8125 1.9125
2.0625 0.8125 1.975
2.0625 0.875 1.9125
2.0625 0.8125 1.9125
2.25 0.8125 1.975
2.25 0.875 1.9125
2.1875 0.875 1.975
2.25 0.8125 1.9125
2.1875 0.8125 1.975
2.1875 0.875 1.9125
2.1875 0.8125 1.9125
2.375 0.8125 1.975
2.375 0.875 1.9125
2.3125 0.875 1.975
2.375 0.8125 1.9125
2.3125 0.8125 1.975
2.3125 0.875 1.9125
2.3125 0.8125 1.9125
2.5 0.8125 1.975
2.5 0.875 1.9125
2.4375 0.875 1.975
2.5 0.8125 1.9125
2.4375 0.8125 1.975
2.4375 0.875 1.9125
2.4375 0.8125 1.9125
2.625 0.8125 1.975
2.625 0.875 1.9125
2.5625 0.875 1.975
2.625 0.8125 1.9125
2.5625 0.8125 1.975
2.5625 0.875 1.9125
2.5625 0.8125 1.9125
2.75 0.8125 1.975
2.75 0.875 1.9125
2.6875 0.875 1.975
2.75 0.8125 1.9125
2.6875 0.8125 1.975
2.6875 0.875 1.9125
2.6875 0.8125 1.9125
2.875 0.8125 1.975
2.875 0.875 1.9125
2.8125 0.875 1.975
2.875 0.8125 1.9125
2.8125 0.8125 1.975
2.8125 0.875 1.9125
2.8125 0.8125 1.9125
3 0.8125 1.975
3 0.875 1.9125
2.9375 0.875 1.975
3 0.8125 1.9125
2.9375 0.8125 1.975
2.9375 0.875 1.9125
2.9375 0.8125 1.9125
0.125 0.9375 1.975
0 0.9375 1.975
0.125 1 1.9125
0.0625 1 1.975
0 1 1.9125
0.125 0.9375 1.9125
0.0625 0.9375 1.975
0 0.9375 1.9125
0.0625 1 1.9125
0.0625 0.9375 1.9125
0.25 0.9375 1.975
0.25 1 1.9125
0.1875 1 1.975
0.25 0.9375 1.9125
0.1875 0.9375 1.975
0.1875 1 1.9125
0.1875 0.9375 1.9125
0.375 0.9375 1.975
0.375 1 1.9125
0.3125 1 1.975
0.375 0.9375 1.9125
0.3125 0.9375 1.975
0.3125 1 1.9125
0.3125 0.9375 1.9125
0.5 0.9375 1.975
0.5 1 1.9125
0.4375 1 1.975
0.5 0.9375 1.9125
0.4375 0.9375 1.975
0.4375 1 1.9125
0.4375 0.9375 1.9125
0.625 0.9375 1.975
0.625 1 1.9125
0.5625 1 1.975
0.625 0.9375 1.9125
0.5625 0.9375 1.975
0.5625 1 1.9125
0.5625 0.9375 1.9125
0.75 0.9375 1.975
0.75 1 1.9125
0.6875 1 1.975
0.75 0.9375 1.9125
0.6875 0.9375 1.975
0.6875 1 1.9125
0.6875 0.9375 1.9125
0.875 0.9375 1.975
0.875 1 1.9125
0.8125 1 1.975
0.875 0.9375 1.9125
0.8125 0.9375 1.975
0.8125 1 1.9125
0.8125 0.9375 1.9125
1 0.9375 1.975
1 1 1.9125
0.9375 1 1.975
1 0.9375 1.9125
0.9375 0.9375 1.975
0.9375 1 1.9125
0.9375 0.9375 1.9125
1.125 0.9375 1.975
1.125 1 1.9125
1.0625 1 1.975
1.125 0.9375 1.9125
1.0625 0.9375 1.975
1.0625 1 1.9125
1.0625 0.9375 1.9125
1.25 0.9375 1.975
1.25 1 1.9125
1.1875 1 1.975
1.25 0.9375 1.9125
1.1875 0.9375 1.975
1.1875 1 1.9125
1.1875 0.9375 1.9125
1.375 0.9375 1.975
1.375 1 1.9125
1.3125 1 1.975
1.375 0.9375 1.9125
1.3125 0.9375 1.975
1.3125 1 1.9125
1.3125 0.9375 1.9125
1.5 0.9375 1.975
1.5 1 1.9125
1.4375 1 1.975
1.5 0.9375 1.9125
1.4375 0.9375 1.975
1.4375 1 1.9125
1.4375 0.9375 1.9125
1.625 0.9375 1.975
1.625 1 1.9125
1.5625 1 1.975
1.625 0.9375 1.9125
1.5625 0.9375 1.975
1.5625 1 1.9125
1.5625 0.9375 1.9125
1.75 0.9375 1.975
1.75 1 1.9125
1.6875 1 1.975
1.75 0.9375 1.9125
1.6875 0.9375 1.975
1.6875 1 1.9125
1.6875 0.9375 1.9125
1.875 0.9375 1.975
1.875 1 1.9125
1.8125 1 1.975
1.875 0.9375 1.9125
1.8125 0.9375 1.975
1.8125 1 1.9125
1.8125 0.9375 1.9125
2 0.9375 1.975
2 1 1.9125
1.9375 1 1.975
2 0.9375 1.9125
1.9375 0.9375 1.975
1.9375 1 1.9125
1.9375 0.9375 1.9125
2.125 0.9375 1.975
2.125 1 1.9125
2.0625 1 1.975
2.125 0.9375 1.9125
2.0625 0.9375 1.975
2.0625 1 1.9125
2.0625 0.9375 1.9125
2.25 0.9375 1.975
2.25 1 1.9125
2.1875 1 1.975
2.25 0.9375 1.9125
2.1875 0.9375 1.975
2.1875 1 1.9125
2.1875 0.9375 1.9125
2.375 0.9375 1.975
2.375 1 1.9125
2.3125 1 1.975
2.375 0.9375 1.9125
2.3125 0.9375 1.975
2.3125 1 1.9125
2.3125 0.9375 1.9125
2.5 0.9375 1.975
2.5 1 1.9125
2.4375 1 1.975
2.5 0.9375 1.9125
2.4375 0.9375 1.975
2.4375 1 1.9125
2.4375 0.9375 1.9125
2.625 0.9375 1.975
2.625 1 1.9125
2.5625 1 1.975
2.625 0.9375 1.9125
2.5625 0.9375 1.975
2.5625 1 1.9125
2.5625 0.9375 1.9125
2.75 0.9375 1.975
2.75 1 1.9125
2.6875 1 1.975
2.75 0.9375 1.9125
2.6875 0.9375 1.975
2.6875 1 1.9125
2.6875 0.9375 1.9125
2.875 0.9375 1.975
2.875 1 1.9125
2.8125 1 1.975
2.875 0.9375 1.9125
2.8125 0.9375 1.975
2.8125 1 1.9125
2.8125 0.9375 1.9125
3 0.9375 1.975
3 1 1.9125
2.9375 1 1.975
3 0.9375 1.9125
2.9375 0.9375 1.975
2.9375 1 1.9125
2.9375 0.9375 1.9125
0.125 0 2.0375
0.0625 0 2.1
0 0 2.0375
0.125 0.0625 2.1
0 0.0625 2.1
0.125 0.125 2.0375
0.0625 0.125 2.1
0 0.125 2.0375
0.0625 0 2.0375
0.125 0.0625 2.0375
0.0625 0.0625 2.1
0 0.0625 2.0375
0.0625 0.125 2.0375
0.0625 0.0625 2.0375
0.25 0 2.0375
0.1875 0 2.1
0.25 0.0625 2.1
0.25 0.125 2.0375
0.1875 0.125 2.1
0.1875 0 2.0375
0.25 0.0625 2.0375
0.1875 0.0625 2.1
0.1875 0.125 2.0375
0.1875 0.0625 2.0375
0.375 0 2.0375
0.3125 0 2.1
0.375 0.0625 2.1
0.375 0.125 2.0375
0.3125 0.125 2.1
0.3125 0 2.0375
0.375 0.0625 2.0375
0.3125 0.0625 2.1
0.3125 0.125 2.0375
0.3125 0.0625 2.0375
0.5 0 2.0375
0.4375 0 2.1
0.5 0.0625 2.1
0.5 0.125 2.0375
0.4375 0.125 2.1
0.4375 0 2.0375
0.5 0.0625 2.0375
0.4375 0.0625 2.1
0.4375 0.125 2.0375
0.4375 0.0625 2.0375
0.625 0 2.0375
0.5625 0 2.1
0.625 0.0625 2.1
0.625 0.125 2.0375
0.5625 0.125 2.1
0.5625 0 2.0375
0.625 0.0625 2.0375
0.5625 0.0625 2.1
0.5625 0.125 2.0375
0.5625 0.0625 2.0375
0.75 0 2.0375
0.6875 0 2.1
0.75 0.0625 2.1
0.75 0.125 2.0375
0.6875 0.125 2.1
0.6875 0 2.0375
0.75 0.0625 2.0375
0.6875 0.0625 2.1
0.6875 0.125 2.0375
0.6875 0.0625 2.0375
0.875 0 2.0375
0.8125 0 2.1
0.875 0.0625 2.1
0.875 0.125 2.0375
0.8125 0.125 2.1
0.8125 0 2.0375
0.875 0.0625 2.0375
0.8125 0.0625 2.1
0.8125 0.125 2.0375
0.8125 0.0625 2.0375
1 0 2.0375
0.9375 0 2.1
1 0.0625 2.1
1 0.125 2.0375
0.9375 0.125 2.1
0.9375 0 2.0375
1 0.0625 2.0375
0.9375 0.0625 2.1
0.9375 0.125 2.0375
0.9375 0.0625 2.0375
1.125 0 2.0375
1.0625 0 2.1
1.125 0.0625 2.1
1.125 0.125 2.0375
1.0625 0.125 2.1
1.0625 0 2.0375
1.125 0.0625 2.0375
1.0625 0.0625 2.1
1.0625 0.125 2.0375
1.0625 0.0625 2.0375
1.25 0 2.0375
1.1875 0 2.1
1.25 0.0625 2.1
1.25 0.125 2.0375
1.1875 0.125 2.1
1.1875 0 2.0375
1.25 0.0625 2.0375
1.1875 0.0625 2.1
1.1875 0.125 2.0375
1.1875 0.0625 2.0375
1.375 0 2.0375
1.3125 0 2.1
1.375 0.0625 2.1
1.375 0.125 2.0375
1.3125 0.125 2.1
1.3125 0 2.0375
1.375 0.0625 2.0375
1.3125 0.0625 2.1
1.3125 0.125 2.0375
1.3125 0.0625 2.0375
1.5 0 2.0375
1.4375 0 2.1
1.5 0.0625 2.1
1.5 0.125 2.0375
1.4375 0.125 2.1
1.4375 0 2.0375
1.5 0.0625 2.0375
1.4375 0.0625 2.1
1.4375 0.125 2.0375
1.4375 0.0625 2.0375
1.625 0 2.0375
1.5625 0 2.1
1.625 0.0625 2.1
1.625 0.125 2.0375
1.5625 0.125 2.1
1.5625 0 2.0375
1.625 0.0625 2.0375
1.5625 0.0625 2.1
1.5625 0.125 2.0375
1.5625 0.0625 2.0375
1.75 0 2.0375
1.6875 0 2.1
1.75 0.0625 2.1
1.75 0.125 2.0375
1.6875 0.125 2.1
1.6875 0 2.0375
1.75 0.0625 2.0375
1.6875 0.0625 2.1
1.6875 0.125 2.0375
1.6875 0.0625 2.0375
1.875 0 2.0375
1.8125 0 2.1
1.875 0.0625 2.1
1.875 0.125 2.0375
1.8125 0.125 2.1
1.8125 0 2.0375
1.875 0.0625 2.0375
1.8125 0.0625 2.1
1.8125 0.125 2.0375
1.8125 0.0625 2.0375
2 0 2.0375
1.9375 0 2.1
2 0.0625 2.1
2 0.125 2.0375
1.9375 0.125 2.1
1.9375 0 2.0375
2 0.0625 2.0375
1.9375 0.0625 2.1
1.9375 0.125 2.0375
1.9375 0.0625 2.0375
2.125 0 2.0375
2.0625 0 2.1
2.125 0.0625 2.1
2.125 0.125 2.0375
2.0625 0.125 2.1
2.0625 0 2.0375
2.125 0.0625 2.0375
2.0625 0.0625 2.1
2.0625 0.125 2.0375
2.0625 0.0625 2.0375
2.25 0 2.0375
2.1875 0 2.1
2.25 0.0625 2.1
2.25 0.125 2.0375
2.1875 0.125 2.1
2.1875 0 2.0375
2.25 0.0625 2.0375
2.1875 0.0625 2.1
2.1875 0.125 2.0375
2.1875 0.0625 2.0375
2.375 0 2.0375
2.3125 0 2.1
2.375 0.0625 2.1
2.375 0.125 2.0375
2.3125 0.125 2.1
2.3125 0 2.0375
2.375 0.0625 2.0375
2.3125 0.0625 2.1
2.3125 0.125 2.0375
2.3125 0.0625 2.0375
2.5 0 2.0375
2.4375 0 2.1
2.5 0.0625 2.1
2.5 0.125 2.0375
2.4375 0.125 2.1
2.4375 0 2.0375
2.5 0.0625 2.0375
2.4375 0.0625 2.1
2.4375 0.125 2.0375
2.4375 0.0625 2.0375
2.625 0 2.0375
2.5625 0 2.1
2.625 0.0625 2.1
2.625 0.125 2.0375
2.5625 0.125 2.1
2.5625 0 2.0375
2.625 0.0625 2.0375
2.5625 0.0625 2.1
2.5625 0.125 2.0375
2.5625 0.0625 2.0375
2.75 0 2.0375
2.6875 0 2.1
2.75 0.0625 2.1
2.75 0.125 2.0375
2.6875 0.125 2.1
2.6875 0 2.0375
2.75 0.0625 2.0375
2.6875 0.0625 2.1
2.6875 0.125 2.0375
2.6875 0.0625 2.0375
2.875 0 2.0375
2.8125 0 2.1
2.875 0.0625 2.1
2.875 0.125 2.0375
2.8125 0.125 2.1
2.8125 0 2.0375
2.875 0.0625 2.0375
2.8125 0.0625 2.1
2.8125 0.125 2.0375
2.8125 0.0625 2.0375
3 0 2.0375
2.9375 0 2.1
3 0.0625 2.1
3 0.125 2.0375
2.9375 0.125 2.1
2.9375 0 2.0375
3 0.0625 2.0375
2.9375 0.0625 2.1
2.9375 0.125 2.0375
2.9375 0.0625 2.0375
0.125 0.1875 2.1
0 0.1875 2.1
0.125 0.25 2.0375
0.0625 0.25 2.1
0 0.25 2.0375
0.125 0.1875 2.0375
0.0625 0.1875 2.1
0 0.1875 2.0375
0.0625 0.25 2.0375
0.0625 0.1875 2.0375
0.25 0.1875 2.1
0.25 0.25 2.0375
0.1875 0.25 2.1
0.25 0.1875 2.0375
0.1875 0.1875 2.1
0.1875 0.25 2.0375
0.1875 0.1875 2.0375
0.375 0.1875 2.1
0.375 0.25 2.0375
0.3125 0.25 2.1
0.375 0.1875 2.0375
0.3125 0.1875 2.1
0.3125 0.25 2.0375
0.3125 0.1875 2.0375
0.5 0.1875 2.1
0.5 0.25 2.0375
0.4375 0.25 2.1
0.5 0.1875 2.0375
0.4375 0.1875 2.1
0.4375 0.25 2.0375
0.4375 0.1875 2.0375
0.625 0.1875 2.1
0.625 0.25 2.0375
0.5625 0.25 2.1
0.625 0.1875 2.0375
0.5625 0.1875 2.1
0.5625 0.25 2.0375
0.5625 0.1875 2.0375
0.75 0.1875 2.1
0.75 0.25 2.0375
0.6875 0.25 2.1
0.75 0.1875 2.0375
0.6875 0.1875 2.1
0.6875 0.25 2.0375
0.6875 0.1875 2.0375
0.875 0.1875 2.1
0.875 0.25 2.0375
0.8125 0.25 2.1
0.875 0.1875 2.0375
0.8125 0.1875 2.1
0.8125 0.25 2.0375
0.8125 0.1875 2.0375
1 0.1875 2.1
1 0.25 2.0375
0.9375 0.25 2.1
1 0.1875 2.0375
0.9375 0.1875 2.1
0.9375 0.25 2.0375
0.9375 0.1875 2.0375
1.125 0.1875 2.1
1.125 0.25 2.0375
1.0625 0.25 2.1
1.125 0.1875 2.0375
1.0625 0.1875 2.1
1.0625 0.25 2.0375
1.0625 0.1875 2.0375
1.25 0.1875 2.1
1.25 0.25 2.0375
1.1875 0.25 2.1
1.25 0.1875 2.0375
1.1875 0.1875 2.1
1.1875 0.25 2.0375
1.1875 0.1875 2.0375
1.375 0.1875 2.1
1.375 0.25 2.0375
1.3125 0.25 2.1
1.375 0.1875 2.0375
1.3125 0.1875 2.1
1.3125 0.25 2.0375
1.3125 0.1875 2.0375
1.5 0.1875 2.1
1.5 0.25 2.0375
1.4375 0.25 2.1
1.5 0.1875 2.0375
1.4375 0.1875 2.1
1.4375 0.25 2.0375
1.4375 0.1875 2.0375
1.625 0.1875 2.1
1.625 0.25 2.0375
1.5625 0.25 2.1
1.625 0.1875 2.0375
1.5625 0.1875 2.1
1.5625 0.25 2.0375
1.5625 0.1875 2.0375
1.75 0.1875 2.1
1.75 0.25 2.0375
1.6875 0.25 2.1
1.75 0.1875 2.0375
1.6875 0.1875 2.1
1.6875 0.25 2.0375
1.6875 0.1875 2.0375
1.875 0.1875 2.1
1.875 0.25 2.0375
1.8125 0.25 2.1
1.875 0.1875 2.0375
1.8125 0.1875 2.1
1.8125 0.25 2.0375
1.8125 0.1875 2.0375
2 0.1875 2.1
2 0.25 2.0375
1.9375 0.25 2.1
2 0.1875 2.0375
1.9375 0.1875 2.1
1.9375 0.25 2.0375
1.9375 0.1875 2.0375
2.125 0.1875 2.1
2.125 0.25 2.0375
2.0625 0.25 2.1
2.125 0.1875 2.0375
2.0625 0.1875 2.1
2.0625 0.25 2.0375
2.0625 0.1875 2.0375
2.25 0.1875 2.1
2.25 0.25 2.0375
2.1875 0.25 2.1
2.25 0.1875 2.0375
2.1875 0.1875 2.1
2.1875 0.25 2.0375
2.1875 0.1875 2.0375
2.375 0.1875 2.1
2.375 0.25 2.0375
2.3125 0.25 2.1
2.375 0.1875 2.0375
2.3125 0.1875 2.1
2.3125 0.25 2.0375
2.3125 0.1875 2.0375
2.5 0.1875 2.1
2.5 0.25 2.0375
2.4375 0.25 2.1
2.5 0.1875 2.0375
2.4375 0.1875 2.1
2.4375 0.25 2.0375
2.4375 0.1875 2.0375
2.625 0.1875 2.1
2.625 0.25 2.0375
2.5625 0.25 2.1
2.625 0.1875 2.0375
2.5625 0.1875 2.1
2.5625 0.25 2.0375
2.5625 0.1875 2.0375
2.75 0.1875 2.1
2.75 0.25 2.0375
2.6875 0.25 2.1
2.75 0.1875 2.0375
2.6875 0.1875 2.1
2.6875 0.25 2.0375
2.6875 0.1875 2.0375
2.875 0.1875 2.1
2.875 0.25 2.0375
2.8125 0.25 2.1
2.875 0.1875 2.0375
2.8125 0.1875 2.1
2.8125 0.25 2.0375
2.8125 0.1875 2.0375
3 0.1875 2.1
3 0.25 2.0375
2.9375 0.25 2.1
3 0.1875 2.0375
2.9375 0.1875 2.1
2.9375 0.25 2.0375
2.9375 0.1875 2.0375
0.125 0.3125 2.1
0 0.3125 2.1
0.125 0.375 2.0375
0.0625 0.375 2.1
0 0.375 2.0375
0.125 0.3125 2.0375
0.0625 0.3125 2.1
0 0.3125 2.0375
0.0625 0.375 2.0375
0.0625 0.3125 2.0375
0.25 0.3125 2.1
0.25 0.375 2.0375
0.1875 0.375 2.1
0.25 0.3125 2.0375
0.1875 0.3125 2.1
0.1875 0.375 2.0375
0.1875 0.3125 2.0375
0.375 0.3125 2.1
0.375 0.375 2.0375
0.3125 0.375 2.1
0.375 0.3125 2.0375
0.3125 0.3125 2.1
0.3125 0.375 2.0375
0.3125 0.3125 2.0375
0.5 0.3125 2.1
0.5 0.375 2.0375
0.4375 0.375 2.1
0.5 0.3125 2.0375
0.4375 0.3125 2.1
0.4375 0.375 2.0375
0.4375 0.3125 2.0375
0.625 0.3125 2.1
0.625 0.375 2.0375
0.5625 0.375 2.1
0.625 0.3125 2.0375
0.5625 0.3125 2.1
0.5625 0.375 2.0375
0.5625 0.3125 2.0375
0.75 0.3125 2.1
0.75 0.375 2.0375
0.6875 0.375 2.1
0.75 0.3125 2.0375
0.6875 0.3125 2.1
0.6875 0.375 2.0375
0.6875 0.3125 2.0375
0.875 0.3125 2.1
0.875 0.375 2.0375
0.8125 0.375 2.1
0.875 0.3125 2.0375
0.8125 0.3125 2.1
0.8125 0.375 2.0375
0.8125 0.3125 2.0375
1 0.3125 2.1
1 0.375 2.0375
0.9375 0.375 2.1
1 0.3125 2.0375
0.9375 0.3125 2.1
0.9375 0.375 2.0375
0.9375 0.3125 2.0375
1.125 0.3125 2.1
1.125 0.375 2.0375
1.0625 0.375 2.1
1.125 0.3125 2.0375
1.0625 0.3125 2.1
1.0625 0.375 2.0375
1.0625 0.3125 2.0375
1.25 0.3125 2.1
1.25 0.375 2.0375
1.1875 0.375 2.1
1.25 0.3125 2.0375
1.1875 0.3125 2.1
1.1875 0.375 2.0375
1.1875 0.3125 2.0375
1.375 0.3125 2.1
1.375 0.375 2.0375
1.3125 0.375 2.1
1.375 0.3125 2.0375
1.3125 0.3125 2.1
1.3125 0.375 2.0375
1.3125 0.3125 2.0375
1.5 0.3125 2.1
1.5 0.375 2.0375
1.4375 0.375 2.1
1.5 0.3125 2.0375
1.4375 0.3125 2.1
1.4375 0.375 2.0375
1.4375 0.3125 2.0375
1.625 0.3125 2.1
1.625 0.375 2.0375
1.5625 0.375 2.1
1.625 0.3125 2.0375
1.5625 0.3125 2.1
1.5625 0.375 2.0375
1.5625 0.3125 2.0375
1.75 0.3125 2.1
1.75 0.375 2.0375
1.6875 0.375 2.1
1.75 0.3125 2.0375
1.6875 0.3125 2.1
1.6875 0.375 2.0375
1.6875 0.3125 2.0375
1.875 0.3125 2.1
1.875 0.375 2.0375
1.8125 0.375 2.1
1.875 0.3125 2.0375
1.8125 0.3125 2.1
1.8125 0.375 2.0375
1.8125 0.3125 2.0375
2 0.3125 2.1
2 0.375 2.0375
1.9375 0.375 2.1
2 0.3125 2.0375
1.9375 0.3125 2.1
1.9375 0.375 2.0375
1.9375 0.3125 2.0375
2.125 0.3125 2.1
2.125 0.375 2.0375
2.0625 0.375 2.1
2.125 0.3125 2.0375
2.0625 0.3125 2.1
2.0625 0.375 2.0375
2.0625 0.3125 2.0375
2.25 0.3125 2.1
2.25 0.375 2.0375
2.1875 0.375 2.1
2.25 0.3125 2.0375
2.1875 0.3125 2.1
2.1875 0.375 2.0375
2.1875 0.3125 2.0375
2.375 0.3125 2.1
2.375 0.375 2.0375
2.3125 0.375 2.1
2.375 0.3125 2.0375
2.3125 0.3125 2.1
2.3125 0.375 2.0375
2.3125 0.3125 2.0375
2.5 0.3125 2.1
2.5 0.375 2.0375
2.4375 0.375 2.1
2.5 0.3125 2.0375
2.4375 0.3125 2.1
2.4375 0.375 2.0375
2.4375 0.3125 2.0375
2.625 0.3125 2.1
2.625 0.375 2.0375
2.5625 0.375 2.1
2.625 0.3125 2.0375
2.5625 0.3125 2.1
2.5625 0.375 2.0375
2.5625 0.3125 2.0375
2.75 0.3125 2.1
2.75 0.375 2.0375
2.6875 0.375 2.1
2.75 0.3125 2.0375
2.6875 0.3125 2.1
2.6875 0.375 2.0375
2.6875 0.3125 2.0375
2.875 0.3125 2.1
2.875 0.375 2.0375
2.8125 0.375 2.1
2.875 0.3125 2.0375
2.8125 0.3125 2.1
2.8125 0.375 2.0375
2.8125 0.3125 2.0375
3 0.3125 2.1
3 0.375 2.0375
2.9375 0.375 2.1
3 0.3125 2.0375
2.9375 0.3125 2.1
2.9375 0.375 2.0375
2.9375 0.3125 2.0375
0.125 0.4375 2.1
0 0.4375 2.1
0.125 0.5 2.0375
0.0625 0.5 2.1
0 0.5 2.0375
0.125 0.4375 2.0375
0.0625 0.4375 2.1
0 0.4375 2.0375
0.0625 0.5 2.0375
0.0625 0.4375 2.0375
0.25 0.4375 2.1
0.25 0.5 2.0375
0.1875 0.5 2.1
0.25 0.4375 2.0375
0.1875 0.4375 2.1
0.1875 0.5 2.0375
0.1875 0.4375 2.0375
0.375 0.4375 2.1
0.375 0.5 2.0375
0.3125 0.5 2.1
0.375 0.4375 2.0375
0.3125 0.4375 2.1
0.3125 0.5 2.0375
0.3125 0.4375 2.0375
0.5 0.4375 2.1
0.5 0.5 2.0375
0.4375 0.5 2.1
0.5 0.4375 2.0375
0.4375 0.4375 2.1
0.4375 0.5 2.0375
0.4375 0.4375 2.0375
0.625 0.4375 2.1
0.625 0.5 2.0375
0.5625 0.5 2.1
0.625 0.4375 2.0375
0.5625 0.4375 2.1
0.5625 0.5 2.0375
0.5625 0.4375 2.0375
0.75 0.4375 2.1
0.75 0.5 2.0375
0.6875 0.5 2.1
0.75 0.4375 2.0375
0.6875 0.4375 2.1
0.6875 0.5 2.0375
0.6875 0.4375 2.0375
0.875 0.4375 2.1
0.875 0.5 2.0375
0.8125 0.5 2.1
0.875 0.4375 2.0375
0.8125 0.4375 2.1
0.8125 0.5 2.0375
0.8125 0.4375 2.0375
1 0.4375 2.1
1 0.5 2.0375
0.9375 0.5 2.1
1 0.4375 2.0375
0.9375 0.4375 2.1
0.9375 0.5 2.0375
0.9375 0.4375 2.0375
1.125 0.4375 2.1
1.125 0.5 2.0375
1.0625 0.5 2.1
1.125 0.4375 2.0375
1.0625 0.4375 2.1
1.0625 0.5 2.0375
1.0625 0.4375 2.0375
1.25 0.4375 2.1
1.25 0.5 2.0375
1.1875 0.5 2.1
1.25 0.4375 2.0375
1.1875 0.4375 2.1
1.1875 0.5 2.0375
1.1875 0.4375 2.0375
1.375 0.4375 2.1
1.375 0.5 2.0375
1.3125 0.5 2.1
1.375 0.4375 2.0375
1.3125 0.4375 2.1
1.3125 0.5 2.0375
1.3125 0.4375 2.0375
1.5 0.4375 2.1
1.5 0.5 2.0375
1.4375 0.5 2.1
1.5 0.4375 2.0375
1.4375 0.4375 2.1
1.4375 0.5 2.0375
1.4375 0.4375 2.0375
1.625 0.4375 2.1
1.625 0.5 2.0375
1.5625 0.5 2.1
1.625 0.4375 2.0375
1.5625 0.4375 2.1
1.5625 0.5 2.0375
1.5625 0.4375 2.0375
1.75 0.4375 2.1
1.75 0.5 2.0375
1.6875 0.5 2.1
1.75 0.4375 2.0375
1.6875 0.4375 2.1
1.6875 0.5 2.0375
1.6875 0.4375 2.0375
1.875 0.4375 2.1
1.875 0.5 2.0375
1.8125 0.5 2.1
1.875 0.4375 2.0375
1.8125 0.4375 2.1
1.8125 0.5 2.0375
1.8125 0.4375 2.0375
2 0.4375 2.1
2 0.5 2.0375
1.9375 0.5 2.1
2 0.4375 2.0375
1.9375 0.4375 2.1
1.9375 0.5 2.0375
1.9375 0.4375 2.0375
2.125 0.4375 2.1
2.125 0.5 2.0375
2.0625 0.5 2.1
2.125 0.4375 2.0375
2.0625 0.4375 2.1
2.0625 0.5 2.0375
2.0625 0.4375 2.0375
2.25 0.4375 2.1
2.25 0.5 2.0375
2.1875 0.5 2.1
2.25 0.4375 2.0375
2.1875 0.4375 2.1
2.1875 0.5 2.0375
2.1875 0.4375 2.0375
2.375 0.4375 2.1
2.375 0.5 2.0375
2.3125 0.5 2.1
2.375 0.4375 2.0375
2.3125 0.4375 2.1
2.3125 0.5 2.0375
2.3125 0.4375 2.0375
2.5 0.4375 2.1
2.5 0.5 2.0375
2.4375 0.5 2.1
2.5 0.4375 2.0375
2.4375 0.4375 2.1
2.4375 0.5 2.0375
2.4375 0.4375 2.0375
2.625 0.4375 2.1
2.625 0.5 2.0375
2.5625 0.5 2.1
2.625 0.4375 2.0375
2.5625 0.4375 2.1
2.5625 0.5 2.0375
2.5625 0.4375 2.0375
2.75 0.4375 2.1
2.75 0.5 2.0375
2.6875 0.5 2.1
2.75 0.4375 2.0375
2.6875 0.4375 2.1
2.6875 0.5 2.0375
2.6875 0.4375 2.0375
2.875 0.4375 2.1
2.875 0.5 2.0375
2.8125 0.5 2.1
2.875 0.4375 2.0375
2.8125 0.4375 2.1
2.8125 0.5 2.0375
2.8125 0.4375 2.0375
3 0.4375 2.1
3 0.5 2.0375
2.9375 0.5 2.1
3 0.4375 2.0375
2.9375 0.4375 2.1
2.9375 0.5 2.0375
2.9375 0.4375 2.0375
0.125 0.5625 2.1
0 0.5625 2.1
0.125 0.625 2.0375
0.0625 0.625 2.1
0 0.625 2.0375
0.125 0.5625 2.0375
0.0625 0.5625 2.1
0 0.5625 2.0375
0.0625 0.625 2.0375
0.0625 0.5625 2.0375
0.25 0.5625 2.1
0.25 0.625 2.0375
0.1875 0.625 2.1
0.25 0.5625 2.0375
0.1875 0.5625 2.1
0.1875 0.625 2.0375
0.1875 0.5625 2.0375
0.375 0.5625 2.1
0.375 0.625 2.0375
0.3125 0.625 2.1
0.375 0.5625 2.0375
0.3125 0.5625 2.1
0.3125 0.625 2.0375
0.3125 0.5625 2.0375
0.5 0.5625 2.1
0.5 0.625 2.0375
0.4375 0.625 2.1
0.5 0.5625 2.0375
0.4375 0.5625 2.1
0.4375 0.625 2.0375
0.4375 0.5625 2.0375
0.625 0.5625 2.1
0.625 0.625 2.0375
0.5625 0.625 2.1
0.625 0.5625 2.0375
0.5625 0.5625 2.1
0.5625 0.625 2.0375
0.5625 0.5625 2.0375
0.75 0.5625 2.1
0.75 0.625 2.0375
0.6875 0.625 2.1
0.75 0.5625 2.0375
0.6875 0.5625 2.1
0.6875 0.625 2.0375
0.6875 0.5625 2.0375
0.875 0.5625 2.1
0.875 0.625 2.0375
0.8125 0.625 2.1
0.875 0.5625 2.0375
0.8125 0.5625 2.1
0.8125 0.625 2.0375
0.8125 0.5625 2.0375
1 0.5625 2.1
1 0.625 2.0375
0.9375 0.625 2.1
1 0.5625 2.0375
0.9375 0.5625 2.1
0.9375 0.625 2.0375
0.9375 0.5625 2.0375
1.125 0.5625 2.1
1.125 0.625 2.0375
1.0625 0.625 2.1
1.125 0.5625 2.0375
1.0625 0.5625 2.1
1.0625 0.625 2.0375
1.0625 0.5625 2.0375
1.25 0.5625 2.1
1.25 0.625 2.0375
1.1875 0.625 2.1
1.25 0.5625 2.0375
1.1875 0.5625 2.1
1.1875 0.625 2.0375
1.1875 0.5625 2.0375
1.375 0.5625 2.1
1.375 0.625 2.0375
1.3125 0.625 2.1
1.375 0.5625 2.0375
1.3125 0.5625 2.1
1.3125 0.625 2.0375
1.3125 0.5625 2.0375
1.5 0.5625 2.1
1.5 0.625 2.0375
1.4375 0.625 2.1
1.5 0.5625 2.0375
1.4375 0.5625 2.1
1.4375 0.625 2.0375
1.4375 0.5625 2.0375
1.625 0.5625 2.1
1.625 0.625 2.0375
1.5625 0.625 2.1
1.625 0.5625 2.0375
1.5625 0.5625 2.1
1.5625 0.625 2.0375
1.5625 0.5625 2.0375
1.75 0.5625 2.1
1.75 0.625 2.0375
1.6875 0.625 2.1
1.75 0.5625 2.0375
1.6875 0.5625 2.1
1.6875 0.625 2.0375
1.6875 0.5625 2.0375
1.875 0.5625 2.1
1.875 0.625 2.0375
1.8125 0.625 2.1
1.875 0.5625 2.0375
1.8125 0.5625 2.1
1.8125 0.625 2.0375
1.8125 0.5625 2.0375
2 0.5625 2.1
2 0.625 2.0375
1.9375 0.625 2.1
2 0.5625 2.0375
1.9375 0.5625 2.1
1.9375 0.625 2.0375
1.9375 0.5625 2.0375
2.125 0.5625 2.1
2.125 0.625 2.0375
2.0625 0.625 2.1
2.125 0.5625 2.0375
2.0625 0.5625 2.1
2.0625 0.625 2.0375
2.0625 0.5625 2.0375
2.25 0.5625 2.1
2.25 0.625 2.0375
2.1875 0.625 2.1
2.25 0.5625 2.0375
2.1875 0.5625 2.1
2.1875 0.625 2.0375
2.1875 0.5625 2.0375
2.375 0.5625 2.1
2.375 0.625 2.0375
2.3125 0.625 2.1
2.375 0.5625 2.0375
2.3125 0.5625 2.1
2.3125 0.625 2.0375
2.3125 0.5625 2.0375
2.5 0.5625 2.1
2.5 0.625 2.0375
2.4375 0.625 2.1
2.5 0.5625 2.0375
2.4375 0.5625 2.1
2.4375 0.625 2.0375
2.4375 0.5625 2.0375
2.625 0.5625 2.1
2.625 0.625 2.0375
2.5625 0.625 2.1
2.625 0.5625 2.0375
2.5625 0.5625 2.1
2.5625 0.625 2.0375
2.5625 0.5625 2.0375
2.75 0.5625 2.1
2.75 0.625 2.0375
2.6875 0.625 2.1
2.75 0.5625 2.0375
2.6875 0.5625 2.1
2.6875 0.625 2.0375
2.6875 0.5625 2.0375
2.875 0.5625 2.1
2.875 0.625 2.0375
2.8125 0.625 2.1
2.875 0.5625 2.0375
2.8125 0.5625 2.1
2.8125 0.625 2.0375
2.8125 0.5625 2.0375
3 0.5625 2.1
3 0.625 2.0375
2.9375 0.625 2.1
3 0.5625 2.0375
2.9375 0.5625 2.1
2.9375 0.625 2.0375
2.9375 0.5625 2.0375
0.125 0.6875 2.1
0 0.6875 2.1
0.125 0.75 2.0375
0.0625 0.75 2.1
0 0.75 2.0375
0.125 0.6875 2.0375
0.0625 0.6875 2.1
0 0.6875 2.0375
0.0625 0.75 2.0375
0.0625 0.6875 2.0375
0.25 0.6875 2.1
0.25 0.75 2.0375
0.1875 0.75 2.1
0.25 0.6875 2.0375
0.1875 0.6875 2.1
0.1875 0.75 2.0375
0.1875 0.6875 2.0375
0.375 0.6875 2.1
0.375 0.75 2.0375
0.3125 0.75 2.1
0.375 0.6875 2.0375
0.3125 0.6875 2.1
0.3125 0.75 2.0375
0.3125 0.6875 2.0375
0.5 0.6875 2.1
0.5 0.75 2.0375
0.4375 0.75 2.1
0.5 0.6875 2.0375
0.4375 0.6875 2.1
0.4375 0.75 2.0375
0.4375 0.6875 2.0375
0.625 0.6875 2.1
0.625 0.75 2.0375
0.5625 0.75 2.1
0.625 0.6875 2.0375
0.5625 0.6875 2.1
0.5625 0.75 2.0375
0.5625 0.6875 2.0375
0.75 0.6875 2.1
0.75 0.75 2.0375
0.6875 0.75 2.1
0.75 0.6875 2.0375
0.6875 0.6875 2.1
0.6875 0.75 2.0375
0.6875 0.6875 2.0375
0.875 0.6875 2.1
0.875 0.75 2.0375
0.8125 0.75 2.1
0.875 0.6875 2.0375
0.8125 0.6875 2.1
0.8125 0.75 2.0375
0.8125 0.6875 2.0375
1 0.6875 2.1
1 0.75 2.0375
0.9375 0.75 2.1
1 0.6875 2.0375
0.9375 0.6875 2.1
0.9375 0.75 2.0375
0.9375 0.6875 2.0375
1.125 0.6875 2.1
1.125 0.75 2.0375
1.0625 0.75 2.1
1.125 0.6875 2.0375
1.0625 0.6875 2.1
1.0625 0.75 2.0375
1.0625 0.6875 2.0375
1.25 0.6875 2.1
1.25 0.75 2.0375
1.1875 0.75 2.1
1.25 0.6875 2.0375
1.1875 0.6875 2.1
1.1875 0.75 2.0375
1.1875 0.6875 2.0375
1.375 0.6875 2.1
1.375 0.75 2.0375
1.3125 0.75 2.1
1.375 0.6875 2.0375
1.3125 0.6875 2.1
1.3125 0.75 2.0375
1.3125 0.6875 2.0375
1.5 0.6875 2.1
1.5 0.75 2.0375
1.4375 0.75 2.1
1.5 0.6875 2.0375
1.4375 0.6875 2.1
1.4375 0.75 2.0375
1.4375 0.6875 2.0375
1.625 0.6875 2.1
1.625 0.75 2.0375
1.5625 0.75 2.1
1.625 0.6875 2.0375
1.5625 0.6875 2.1
1.5625 0.75 2.0375
1.5625 0.6875 2.0375
1.75 0.6875 2.1
1.75 0.75 2.0375
1.6875 0.75 2.1
1.75 0.6875 2.0375
1.6875 0.6875 2.1
1.6875 0.75 2.0375
1.6875 0.6875 2.0375
1.875 0.6875 2.1
1.875 0.75 2.0375
1.8125 0.75 2.1
1.875 0.6875 2.0375
1.8125 0.6875 2.1
1.8125 0.75 2.0375
1.8125 0.6875 2.0375
2 0.6875 2.1
2 0.75 2.0375
1.9375 0.75 2.1
2 0.6875 2.0375
1.9375 0.6875 2.1
1.9375 0.75 2.0375
1.9375 0.6875 2.0375
2.125 0.6875 2.1
2.125 0.75 2.0375
2.0625 0.75 2.1
2.125 0.6875 2.0375
2.0625 0.6875 2.1
2.0625 0.75 2.0375
2.0625 0.6875 2.0375
2.25 0.6875 2.1
2.25 0.75 2.0375
2.1875 0.75 2.1
2.25 0.6875 2.0375
2.1875 0.6875 2.1
2.1875 0.75 2.0375
2.1875 0.6875 2.0375
2.375 0.6875 2.1
2.375 0.75 2.0375
2.3125 0.75 2.1
2.375 0.6875 2.0375
2.3125 0.6875 2.1
2.3125 0.75 2.0375
2.3125 0.6875 2.0375
2.5 0.6875 2.1
2.5 0.75 2.0375
2.4375 0.75 2.1
2.5 0.6875 2.0375
2.4375 0.6875 2.1
2.4375 0.75 2.0375
2.4375 0.6875 2.0375
2.625 0.6875 2.1
2.625 0.75 2.0375
2.5625 0.75 2.1
2.625 0.6875 2.0375
2.5625 0.6875 2.1
2.5625 0.75 2.0375
2.5625 0.6875 2.0375
2.75 0.6875 2.1
2.75 0.75 2.0375
2.6875 0.75 2.1
2.75 0.6875 2.0375
2.6875 0.6875 2.1
2.6875 0.75 2.0375
2.6875 0.6875 2.0375
2.875 0.6875 2.1
2.875 0.75 2.0375
2.8125 0.75 2.1
2.875 0.6875 2.0375
2.8125 0.6875 2.1
2.8125 0.75 2.0375
2.8125 0.6875 2.0375
3 0.6875 2.1
3 0.75 2.0375
2.9375 0.75 2.1
3 0.6875 2.0375
2.9375 0.6875 2.1
2.9375 0.75 2.0375
2.9375 0.6875 2.0375
0.125 0.8125 2.1
0 0.8125 2.1
0.125 0.875 2.0375
0.0625 0.875 2.1
0 0.875 2.0375
0.125 0.8125 2.0375
0.0625 0.8125 2.1
0 0.8125 2.0375
0.0625 0.875 2.0375
0.0625 0.8125 2.0375
0.25 0.8125 2.1
0.25 0.875 2.0375
0.1875 0.875 2.1
0.25 0.8125 2.0375
0.1875 0.8125 2.1
0.1875 0.875 2.0375
0.1875 0.8125 2.0375
0.375 0.8125 2.1
0.375 0.875 2.0375
0.3125 0.875 2.1
0.375 0.8125 2.0375
0.3125 0.8125 2.1
0.3125 0.875 2.0375
0.3125 0.8125 2.0375
0.5 0.8125 2.1
0.5 0.875 2.0375
0.4375 0.875 2.1
0.5 0.8125 2.0375
0.4375 0.8125 2.1
0.4375 0.875 2.0375
0.4375 0.8125 2.0375
0.625 0.8125 2.1
0.625 0.875 2.0375
0.5625 0.875 2.1
0.625 0.8125 2.0375
0.5625 0.8125 2.1
0.5625 0.875 2.0375
0.5625 0.8125 2.0375
0.75 0.8125 2.1
0.75 0.875 2.0375
0.6875 0.875 2.1
0.75 0.8125 2.0375
0.6875 0.8125 2.1
0.6875 0.875 2.0375
0.6875 0.8125 2.0375
0.875 0.8125 2.1
0.875 0.875 2.0375
0.8125 0.875 2.1
0.875 0.8125 2.0375
0.8125 0.8125 2.1
0.8125 0.875 2.0375
0.8125 0.8125 2.0375
1 0.8125 2.1
1 0.875 2.0375
0.9375 0.875 2.1
1 0.8125 2.0375
0.9375 0.8125 2.1
0.9375 0.875 2.0375
0.9375 0.8125 2.0375
1.125 0.8125 2.1
1.125 0.875 2.0375
1.0625 0.875 2.1
1.125 0.8125 2.0375
1.0625 0.8125 2.1
1.0625 0.875 2.0375
1.0625 0.8125 2.0375
1.25 0.8125 2.1
1.25 0.875 2.0375
1.1875 0.875 2.1
1.25 0.8125 2.0375
1.1875 0.8125 2.1
1.1875 0.875 2.0375
1.1875 0.8125 2.0375
1.375 0.8125 2.1
1.375 0.875 2.0375
1.3125 0.875 2.1
1.375 0.8125 2.0375
1.3125 0.8125 2.1
1.3125 0.875 2.0375
1.3125 0.8125 2.0375
1.5 0.8125 2.1
1.5 0.875 2.0375
1.4375 0.875 2.1
1.5 0.8125 2.0375
1.4375 0.8125 2.1
1.4375 0.875 2.0375
1.4375 0.8125 2.0375
1.625 0.8125 2.1
1.625 0.875 2.0375
1.5625 0.875 2.1
1.625 0.8125 2.0375
1.5625 0.8125 2.1
1.5625 0.875 2.0375
1.5625 0.8125 2.0375
1.75 0.8125 2.1
1.75 0.875 2.0375
1.6875 0.875 2.1
1.75 0.8125 2.0375
1.6875 0.8125 2.1
1.6875 0.875 2.0375
1.6875 0.8125 2.0375
1.875 0.8125 2.1
1.875 0.875 2.0375
1.8125 0.875 2.1
1.875 0.8125 2.0375
1.8125 0.8125 2.1
1.8125 0.875 2.0375
1.8125 0.8125 2.0375
2 0.8125 2.1
2 0.875 2.0375
1.9375 0.875 2.1
2 0.8125 2.0375
1.9375 0.8125 2.1
1.9375 0.875 2.0375
1.9375 0.8125 2.0375
2.125 0.8125 2.1
2.125 0.875 2.0375
2.0625 0.875 2.1
2.125 0.8125 2.0375
2.0625 0.8125 2.1
2.0625 0.875 2.0375
2.0625 0.8125 2.0375
2.25 0.8125 2.1
2.25 0.875 2.0375
2.1875 0.875 2.1
2.25 0.8125 2.0375
2.1875 0.8125 2.1
2.1875 0.875 2.0375
2.1875 0.8125 2.0375
2.375 0.8125 2.1
2.375 0.875 2.0375
2.3125 0.875 2.1
2.375 0.8125 2.0375
2.3125 0.8125 2.1
2.3125 0.875 2.0375
2.3125 0.8125 2.0375
2.5 0.8125 2.1
2.5 0.875 2.0375
2.4375 0.875 2.1
2.5 0.8125 2.0375
2.4375 0.8125 2.1
2.4375 0.875 2.0375
2.4375 0.8125 2.0375
2.625 0.8125 2.1
2.625 0.875 2.0375
2.5625 0.875 2.1
2.625 0.8125 2.0375
2.5625 0.8125 2.1
2.5625 0.875 2.0375
2.5625 0.8125 2.0375
2.75 0.8125 2.1
2.75 0.875 2.0375
2.6875 0.875 2.1
2.75 0.8125 2.0375
2.6875 0.8125 2.1
2.6875 0.875 2.0375
2.6875 0.8125 2.0375
2.875 0.8125 2.1
2.875 0.875 2.0375
2.8125 0.875 2.1
2.875 0.8125 2.0375
2.8125 0.8125 2.1
2.8125 0.875 2.0375
2.8125 0.8125 2.0375
3 0.8125 2.1
3 0.875 2.0375
2.9375 0.875 2.1
3 0.8125 2.0375
2.9375 0.8125 2.1
2.9375 0.875 2.0375
2.9375 0.8125 2.0375
0.125 0.9375 2.1
0 0.9375 2.1
0.125 1 2.0375
0.0625 1 2.1
0 1 2.0375
0.125 0.9375 2.0375
0.0625 0.9375 2.1
0 0.9375 2.0375
0.0625 1 2.0375
0.0625 0.9375 2.0375
0.25 0.9375 2.1
0.25 1 2.0375
0.1875 1 2.1
0.25 0.9375 2.0375
0.1875 0.9375 2.1
0.1875 1 2.0375
0.1875 0.9375 2.0375
0.375 0.9375 2.1
0.375 1 2.0375
0.3125 1 2.1
0.375 0.9375 2.0375
0.3125 0.9375 2.1
0.3125 1 2.0375
0.3125 0.9375 2.0375
0.5 0.9375 2.1
0.5 1 2.0375
0.4375 1 2.1
0.5 0.9375 2.0375
0.4375 0.9375 2.1
0.4375 1 2.0375
0.4375 0.9375 2.0375
0.625 0.9375 2.1
0.625 1 2.0375
0.5625 1 2.1
0.625 0.9375 2.0375
0.5625 0.9375 2.1
0.5625 1 2.0375
0.5625 0.9375 2.0375
0.75 0.9375 2.1
0.75 1 2.0375
0.6875 1 2.1
0.75 0.9375 2.0375
0.6875 0.9375 2.1
0.6875 1 2.0375
0.6875 0.9375 2.0375
0.875 0.9375 2.1
0.875 1 2.0375
0.8125 1 2.1
0.875 0.9375 2.0375
0.8125 0.9375 2.1
0.8125 1 2.0375
0.8125 0.9375 2.0375
1 0.9375 2.1
1 1 2.0375
0.9375 1 2.1
1 0.9375 2.0375
0.9375 0.9375 2.1
0.9375 1 2.0375
0.9375 0.9375 2.0375
1.125 0.9375 2.1
1.125 1 2.0375
1.0625 1 2.1
1.125 0.9375 2.0375
1.0625 0.9375 2.1
1.0625 1 2.0375
1.0625 0.9375 2.0375
1.25 0.9375 2.1
1.25 1 2.0375
1.1875 1 2.1
1.25 0.9375 2.0375
1.1875 0.9375 2.1
1.1875 1 2.0375
1.1875 0.9375 2.0375
1.375 0.9375 2.1
1.375 1 2.0375
1.3125 1 2.1
1.375 0.9375 2.0375
1.3125 0.9375 2.1
1.3125 1 2.0375
1.3125 0.9375 2.0375
1.5 0.9375 2.1
1.5 1 2.0375
1.4375 1 2.1
1.5 0.9375 2.0375
1.4375 0.9375 2.1
1.4375 1 2.0375
1.4375 0.9375 2.0375
1.625 0.9375 2.1
1.625 1 2.0375
1.5625 1 2.1
1.625 0.9375 2.0375
1.5625 0.9375 2.1
1.5625 1 2.0375
1.5625 0.9375 2.0375
1.75 0.9375 2.1
1.75 1 2.0375
1.6875 1 2.1
1.75 0.9375 2.0375
1.6875 0.9375 2.1
1.6875 1 2.0375
1.6875 0.9375 2.0375
1.875 0.9375 2.1
1.875 1 2.0375
1.8125 1 2.1
1.875 0.9375 2.0375
1.8125 0.9375 2.1
1.8125 1 2.0375
1.8125 0.9375 2.0375
2 0.9375 2.1
2 1 2.0375
1.9375 1 2.1
2 0.9375 2.0375
1.9375 0.9375 2.1
1.9375 1 2.0375
1.9375 0.9375 2.0375
2.125 0.9375 2.1
2.125 1 2.0375
2.0625 1 2.1
2.125 0.9375 2.0375
2.0625 0.9375 2.1
2.0625 1 2.0375
2.0625 0.9375 2.0375
2.25 0.9375 2.1
2.25 1 2.0375
2.1875 1 2.1
2.25 0.9375 2.0375
2.1875 0.9375 2.1
2.1875 1 2.0375
2.1875 0.9375 2.0375
2.375 0.9375 2.1
2.375 1 2.0375
2.3125 1 2.1
2.375 0.9375 2.0375
2.3125 0.9375 2.1
2.3125 1 2.0375
2.3125 0.9375 2.0375
2.5 0.9375 2.1
2.5 1 2.0375
2.4375 1 2.1
2.5 0.9375 2.0375
2.4375 0.9375 2.1
2.4375 1 2.0375
2.4375 0.9375 2.0375
2.625 0.9375 2.1
2.625 1 2.0375
2.5625 1 2.1
2.625 0.9375 2.0375
2.5625 0.9375 2.1
2.5625 1 2.0375
2.5625 0.9375 2.0375
2.75 0.9375 2.1
2.75 1 2.0375
2.6875 1 2.1
2.75 0.9375 2.0375
2.6875 0.9375 2.1
2.6875 1 2.0375
2.6875 0.9375 2.0375
2.875 0.9375 2.1
2.875 1 2.0375
2.8125 1 2.1
2.875 0.9375 2.0375
2.8125 0.9375 2.1
2.8125 1 2.0375
2.8125 0.9375 2.0375
3 0.9375 2.1
3 1 2.0375
2.9375 1 2.1
3 0.9375 2.0375
2.9375 0.9375 2.1
2.9375 1 2.0375
2.9375 0.9375 2.0375

CELLS 1537 41472
OFFSETS vtktypeint64
0 27 54 81 108 135 162 189 216 243 270 297 324 351 378 405 432 459 486 513 540 567 594 621 648 675 702 729 756 783 810 837 864 891 918 945 972 999 1026 1053 1080 1107 1134 1161 1188 1215 1242 1269 1296 1323 1350 1377 1404 1431 1458 1485 1512 1539 1566 1593 1620 1647 1674 1701 1728 1755 1782 1809 1836 1863 1890 1917 1944 1971 1998 2025 2052 2079 2106 2133 2160 2187 2214 2241 2268 2295 2322 2349 2376 2403 2430 2457 2484 2511 2538 2565 2592 2619 2646 2673 2700 2727 2754 2781 2808 2835 2862 2889 2916 2943 2970 2997 3024 3051 3078 3105 3132 3159 3186 3213 3240 3267 3294 3321 3348 3375 3402 3429 3456 3483 3510 3537 3564 3591 3618 3645 3672 3699 3726 3753 3780 3807 3834 3861 3888 3915 3942 3969 3996 4023 4050 4077 4104 4131 4158 4185 4212 4239 4266 4293 4320 4347 4374 4401 4428 4455 4482 4509 4536 4563 4590 4617 4644 4671 4698 4725 4752 4779 4806 4833 4860 4887 4914 4941 4968 4995 5022 5049 5076 5103 5130 5157 5184 5211 5238 5265 5292 5319 5346 5373 5400 5427 5454 5481 5508 5535 5562 5589 5616 5643 5670 5697 5724 5751 5778 5805 5832 5859 5886 5913 5940 5967 5994 6021 6048 6075 6102 6129 6156 6183 6210 6237 6264 6291 6318 6345 6372 6399 6426 6453 6480 6507 6534 6561 6588 6615 6642 6669 6696 6723 6750 6777 6804 6831 6858 6885 6912 6939 6966 6993 7020 7047 7074 7101 7128 7155 7182 7209 7236 7263 7290 7317 7344 7371 7398 7425 7452 7479 7506 7533 7560 7587 7614 7641 7668 7695 7722 7749 7776 7803 7830 7857 7884 7911 7938 7965 7992 8019 8046 8073 8100 8127 8154 8181 8208 8235 8262 8289 8316 8343 8370 8397 8424 8451 8478 8505 8532 8559 8586 8613 8640 8667 8694 8721 8748 8775 8802 8829 8856 8883 8910 8937 8964 8991 9018 9045 9072 9099 9126 9153 9180 9207 9234 9261 9288 9315 9342 9369 9396 9423 9450 9477 9504 9531 9558 9585 9612 9639 9666 9693 9720 9747 9774 9801 9828 9855 9882 9909 9936 9963 9990 10017 10044 10071 10098 10125 10152 10179 10206 10233 10260 10287 10314 10341 10368 10395 10422 10449 10476 10503 10530 10557 10584 10611 10638 10665 10692 10719 10746 10773 10800 10827 10854 10881 10908 10935 10962 10989 11016 11043 11070 11097 11124 11151 11178 11205 11232 11259 11286 11313 11340 11367 11394 11421 11448 11475 11502 11529 11556 11583 11610 11637 11664 11691 11718 11745 11772 11799 11826 11853 11880 11907 11934 11961 11988 12015 12042 12069 12096 12123 12150 12177 12204 12231 12258 12285 12312 12339 12366 12393 12420 12447 12474 12501 12528 12555 12582 12609 12636 12663 12690 12717 12744 12771 12798 12825 12852 12879 12906 12933 12960 12987 13014 13041 13068 13095 13122 13149 13176 13203 13230 13257 13284 13311 13338 13365 13392 13419 13446 13473 13500 13527 13554 13581 13608 13635 13662 13689 13716 13743 13770 13797 13824 13851 13878 13905 13932 13959 13986 14013 14040 14067 14094 14121 14148 14175 14202 14229 14256 14283 14310 14337 14364 14391 14418 14445 14472 14499 14526 14553 14580 14607 14634 14661 14688 14715 14742 14769 14796 14823 14850 14877 14904 14931 14958 14985 15012 15039 15066 15093 15120 15147 15174 15201 15228 15255 15282 15309 15336 15363 15390 15417 15444 15471 15498 15525 15552 15579 15606 15633 15660 15687 15714 15741 15768 15795 15822 15849 15876 15903 15930 15957 15984 16011 16038 16065 16092 16119 16146 16173 16200 16227 16254 16281 16308 16335 16362 16389 16416 16443 16470 16497 16524 16551 16578 16605 16632 16659 16686 16713 16740 16767 16794 16821 16848 16875 16902 16929 16956 16983 17010 17037 17064 17091 17118 17145 17172 17199 17226 17253 17280 17307 17334 17361 17388 17415 17442 17469 17496 17523 17550 17577 17604 17631 17658 17685 17712 17739 17766 17793 17820 17847 17874 17901 17928 17955 17982 18009 18036 18063 18090 18117 18144 18171 18198 18225 18252 18279 18306 18333 18360 18387 18414 18441 18468 18495 18522 18549 18576 18603 18630 18657 18684 18711 18738 18765 18792 18819 18846 18873 18900 18927 18954 18981 19008 19035 19062 19089 19116 19143 19170 19197 19224 19251 19278 19305 19332 19359 19386 19413 19440 19467 19494 19521 19548 19575 19602 19629 19656 19683 19710 19737 19764 19791 19818 19845 19872 19899 19926 19953 19980 20007 20034 20061 20088 20115 20142 20169 20196 20223 20250 20277 20304 20331 20358 20385 20412 20439 20466 20493 20520 20547 20574 20601 20628 20655 20682 20709 20736 20763 20790 20817 20844 20871 20898 20925 20952 20979 21006 21033 21060 21087 21114 21141 21168 21195 21222 21249 21276 21303 21330 21357 21384 21411 21438 21465 21492 21519 21546 21573 21600 21627 21654 21681 21708 21735 21762 21789 21816 21843 21870 21897 21924 21951 21978 22005 22032 22059 22086 22113 22140 22167 22194 22221 22248 22275 22302 22329 22356 22383 22410 22437 22464 22491 22518 22545 22572 22599 22626 22653 22680 22707 22734 22761 22788 22815 22842 22869 22896 22923 22950 22977 23004 23031 23058 23085 23112 23139 23166 23193 23220 23247 23274 23301 23328 23355 23382 23409 23436 23463 23490 23517 23544 23571 23598 23625 23652 23679 23706 23733 23760 23787 23814 23841 23868 23895 23922 23949 23976 24003 24030 24057 24084 24111 24138 24165 24192 24219 24246 24273 24300 24327 24354 24381 24408 24435 24462 24489 24516 24543 24570 24597 24624 24651 24678 24705 24732 24759 24786 24813 24840 24867 24894 24921 24948 24975 25002 25029 25056 25083 25110 25137 25164 25191 25218 25245 25272 25299 25326 25353 25380 25407 25434 25461 25488 25515 25542 25569 25596 25623 25650 25677 25704 25731 25758 25785 25812 25839 25866 25893 25920 25947 25974 26001 26028 26055 26082 26109 26136 26163 26190 26217 26244 26271 26298 26325 26352 26379 26406 26433 26460 26487 26514 26541 26568 26595 26622 26649 26676 26703 26730 26757 26784 26811 26838 26865 26892 26919 26946 26973 27000 27027 27054 27081 27108 27135 27162 27189 27216 27243 27270 27297 27324 27351 27378 27405 27432 27459 27486 27513 27540 27567 27594 27621 27648 27675 27702 27729 27756 27783 27810 27837 27864 27891 27918 27945 27972 27999 28026 28053 28080 28107 28134 28161 28188 28215 28242 28269 28296 28323 28350 28377 28404 28431 28458 28485 28512 28539 28566 28593 28620 28647 28674 28701 28728 28755 28782 28809 28836 28863 28890 28917 28944 28971 28998 29025 29052 29079 29106 29133 29160 29187 29214 29241 29268 29295 29322 29349 29376 29403 29430 29457 29484 29511 29538 29565 29592 29619 29646 29673 29700 29727 29754 29781 29808 29835 29862 29889 29916 29943 29970 29997 30024 30051 30078 30105 30132 30159 30186 30213 30240 30267 30294 30321 30348 30375 30402 30429 30456 30483 30510 30537 30564 30591 30618 30645 30672 30699 30726 30753 30780 30807 30834 30861 30888 30915 30942 30969 30996 31023 31050 31077 31104 31131 31158 31185 31212 31239 31266 31293 31320 31347 31374 31401 31428 31455 31482 31509 31536 31563 31590 31617 31644 31671 31698 31725 31752 31779 31806 31833 31860 31887 31914 31941 31968 31995 32022 32049 32076 32103 32130 32157 32184 32211 32238 32265 32292 32319 32346 32373 32400 32427 32454 32481 32508 32535 32562 32589 32616 32643 32670 32697 32724 32751 32778 32805 32832 32859 32886 32913 32940 32967 32994 33021 33048 33075 33102 33129 33156 33183 33210 33237 33264 33291 33318 33345 33372 33399 33426 33453 33480 33507 33534 33561 33588 33615 33642 33669 33696 33723 33750 33777 33804 33831 33858 33885 33912 33939 33966 33993 34020 34047 34074 34101 34128 34155 34182 34209 34236 34263 34290 34317 34344 34371 34398 34425 34452 34479 34506 34533 34560 34587 34614 34641 34668 34695 34722 34749 34776 34803 34830 34857 34884 34911 34938 34965 34992 35019 35046 35073 35100 35127 35154 35181 35208 35235 35262 35289 35316 35343 35370 35397 35424 35451 35478 35505 35532 35559 35586 35613 35640 35667 35694 35721 35748 35775 35802 35829 35856 35883 35910 35937 35964 35991 36018 36045 36072 36099 36126 36153 36180 36207 36234 36261 36288 36315 36342 36369 36396 36423 36450 36477 36504 36531 36558 36585 36612 36639 36666 36693 36720 36747 36774 36801 36828 36855 36882 36909 36936 36963 36990 37017 37044 37071 37098 37125 37152 37179 37206 37233 37260 37287 37314 37341 37368 37395 37422 37449 37476 37503 37530 37557 37584 37611 37638 37665 37692 37719 37746 37773 37800 37827 37854 37881 37908 37935 37962 37989 38016 38043 38070 38097 38124 38151 38178 38205 38232 38259 38286 38313 38340 38367 38394 38421 38448 38475 38502 38529 38556 38583 38610 38637 38664 38691 38718 38745 38772 38799 38826 38853 38880 38907 38934 38961 38988 39015 39042 39069 39096 39123 39150 39177 39204 39231 39258 39285 39312 39339 39366 39393 39420 39447 39474 39501 39528 39555 39582 39609 39636 39663 39690 39717 39744 39771 39798 39825 39852 39879 39906 39933 39960 39987 40014 40041 40068 40095 40122 40149 40176 40203 40230 40257 40284 40311 40338 40365 40392 40419 40446 40473 40500 40527 40554 40581 40608 40635 40662 40689 40716 40743 40770 40797 40824 40851 40878 40905 40932 40959 40986 41013 41040 41067 41094 41121 41148 41175 41202 41229 41256 41283 41310 41337 41364 41391 41418 41445 41472 
CONNECTIVITY vtktypeint64
0 1 226 225 25 26 251 250 2025 2026 2027 2028 2033 2034 2035 2036 2029 2030 2031 2032 2041 2039 2038 2040 2037 2042 2043 
1 2 227 226 26 27 252 251 2044 2045 2046 2026 2049 2050 2051 2034 2030 2047 2048 2031 2039 2054 2053 2055 2052 2056 2057 
2 3 228 227 27 28 253 252 2058 2059 2060 2045 2063 2064 2065 2050 2047 2061 2062 2048 2054 2068 2067 2069 2066 2070 2071 
3 4 229 228 28 29 254 253 2072 2073 2074 2059 2077 2078 2079 2064 2061 2075 2076 2062 2068 2082 2081 2083 2080 2084 2085 
4 5 230 229 29 30 255 254 2086 2087 2088 2073 2091 2092 2093 2078 2075 2089 2090 2076 2082 2096 2095 2097 2094 2098 2099 
5 6 231 230 30 31 256 255 2100 2101 2102 2087 2105 2106 2107 2092 2089 2103 2104 2090 2096 2110 2109 2111 2108 2112 2113 
6 7 232 231 31 32 257 256 2114 2115 2116 2101 2119 2120 2121 2106 2103 2117 2118 2104 2110 2124 2123 2125 2122 2126 2127 
7 8 233 232 32 33 258 257 2128 2129 2130 2115 2133 2134 2135 2120 2117 2131 2132 2118 2124 2138 2137 2139 2136 2140 2141 
8 9 234 233 33 34 259 258 2142 2143 2144 2129 2147 2148 2149 2134 2131 2145 2146 2132 2138 2152 2151 2153 2150 2154 2155 
9 10 235 234 34 35 260 259 2156 2157 2158 2143 2161 2162 2163 2148 2145 2159 2160 2146 2152 2166 2165 2167 2164 2168 2169 
10 11 236 235 35 36 261 260 2170 2171 2172 2157 2175 2176 2177 2162 2159 2173 2174 2160 2166 2180 2179 2181 2178 2182 2183 
11 12 237 236 36 37 262 261 2184 2185 2186 2171 2189 2190 2191 2176 2173 2187 2188 2174 2180 2194 2193 2195 2192 2196 2197 
12 13 238 237 37 38 263 262 2198 2199 2200 2185 2203 2204 2205 2190 2187 2201 2202 2188 2194 2208 2207 2209 2206 2210 2211 
13 14 239 238 38 39 264 263 2212 2213 2214 2199 2217 2218 2219 2204 2201 2215 2216 2202 2208 2222 2221 2223 2220 2224 2225 
14 15 240 239 39 40 265 264 2226 2227 2228 2213 2231 2232 2233 2218 2215 2229 2230 2216 2222 2236 2235 2237 2234 2238 2239 
15 16 241 240 40 41 266 265 2240 2241 2242 2227 2245 2246 2247 2232 2229 2243 2244 2230 2236 2250 2249 2251 2248 2252 2253 
16 17 242 241 41 42 267 266 2254 2255 2256 2241 2259 2260 2261 2246 2243 2257 2258 2244 2250 2264 2263 2265 2262 2266 2267 
17 18 243 242 42 43 268 267 2268 2269 2270 2255 2273 2274 2275 2260 2257 2271 2272 2258 2264 2278 2277 2279 2276 2280 2281 
18 19 244 243 43 44 269 268 2282 2283 2284 2269 2287 2288 2289 2274 2271 2285 2286 2272 2278 2292 2291 2293 2290 2294 2295 
19 20 245 244 44 45 270 269 2296 2297 2298 2283 2301 2302 2303 2288 2285 2299 2300 2286 2292 2306 2305 2307 2304 2308 2309 
20 21 246 245 45 46 271 270 2310 2311 2312 2297 2315 2316 2317 2302 2299 2313 2314 2300 2306 2320 2319 2321 2318 2322 2323 
21 22 247 246 46 47 272 271 2324 2325 2326 2311 2329 2330 2331 2316 2313 2327 2328 2314 2320 2334 2333 2335 2332 2336 2337 
22 23 248 247 47 48 273 272 2338 2339 2340 2325 2343 2344 2345 2330 2327 2341 2342 2328 2334 2348 2347 2349 2346 2350 2351 
23 24 249 248 48 49 274 273 2352 2353 2354 2339 2357 2358 2359 2344 2341 2355 2356 2342 2348 2362 2361 2363 2360 2364 2365 
25 26 251 250 50 51 276 275 2033 2034 2035 2036 2370 2371 2372 2373 2366 2367 2368 2369 2377 2375 2374 2376 2042 2378 2379 
26 27 252 251 51 52 277 276 2049 2050 2051 2034 2382 2383 2384 2371 2367 2380 2381 2368 2375 2386 2385 2387 2056 2388 2389 
27 28 253 252 52 53 278 277 2063 2064 2065 2050 2392 2393 2394 2383 2380 2390 2391 2381 2386 2396 2395 2397 2070 2398 2399 
28 29 254 253 53 54 279 278 2077 2078 2079 2064 2402 2403 2404 2393 2390 2400 2401 2391 2396 2406 2405 2407 2084 2408 2409 
29 30 255 254 54 55 280 279 2091 2092 2093 2078 2412 2413 2414 2403 2400 2410 2411 2401 2406 2416 2415 2417 2098 2418 2419 
30 31 256 255 55 56 281 280 2105 2106 2107 2092 2422 2423 2424 2413 2410 2420 2421 2411 2416 2426 2425 2427 2112 2428 2429 
31 32 257 256 56 57 282 281 2119 2120 2121 2106 2432 2433 2434 2423 2420 2430 2431 2421 2426 2436 2435 2437 2126 2438 2439 
32 33 258 257 57 58 283 282 2133 2134 2135 2120 2442 2443 2444 2433 2430 2440 2441 2431 2436 2446 2445 2447 2140 2448 2449 
33 34 259 258 58 59 284 283 2147 2148 2149 2134 2452 2453 2454 2443 2440 2450 2451 2441 2446 2456 2455 2457 2154 2458 2459 
34 35 260 259 59 60 285 284 2161 2162 2163 2148 2462 2463 2464 2453 2450 2460 2461 2451 2456 2466 2465 2467 2168 2468 2469 
35 36 261 260 60 61 286 285 2175 2176 2177 2162 2472 2473 2474 2463 2460 2470 2471 2461 2466 2476 2475 2477 2182 2478 2479 
36 37 262 261 61 62 287 286 2189 2190 2191 2176 2482 2483 2484 2473 2470 2480 2481 2471 2476 2486 2485 2487 2196 2488 2489 
37 38 263 262 62 63 288 287 2203 2204 2205 2190 2492 2493 2494 2483 2480 2490 2491 2481 2486 2496 2495 2497 2210 2498 2499 
38 39 264 263 63 64 289 288 2217 2218 2219 2204 2502 2503 2504 2493 2490 2500 2501 2491 2496 2506 2505 2507 2224 2508 2509 
39 40 265 264 64 65 290 289 2231 2232 2233 2218 2512 2513 2514 2503 2500 2510 2511 2501 2506 2516 2515 2517 2238 2518 2519 
40 41 266 265 65 66 291 290 2245 2246 2247 2232 2522 2523 2524 2513 2510 2520 2521 2511 2516 2526 2525 2527 2252 2528 2529 
41 42 267 266 66 67 292 291 2259 2260 2261 2246 2532 2533 2534 2523 2520 2530 2531 2521 2526 2536 2535 2537 2266 2538 2539 
42 43 268 267 67 68 293 292 2273 2274 2275 2260 2542 2543 2544 2533 2530 2540 2541 2531 2536 2546 2545 2547 2280 2548 2549 
43 44 269 268 68 69 294 293 2287 2288 2289 2274 2552 2553 2554 2543 2540 2550 2551 2541 2546 2556 2555 2557 2294 2558 2559 
44 45 270 269 69 70 295 294 2301 2302 2303 2288 2562 2563 2564 2553 2550 2560 2561 2551 2556 2566 2565 2567 2308 2568 2569 
45 46 271 270 70 71 296 295 2315 2316 2317 2302 2572 2573 2574 2563 2560 2570 2571 2561 2566 2576 2575 2577 2322 2578 2579 
46 47 272 271 71 72 297 296 2329 2330 2331 2316 2582 2583 2584 2573 2570 2580 2581 2571 2576 2586 2585 2587 2336 2588 2589 
47 48 273 272 72 73 298 297 2343 2344 2345 2330 2592 2593 2594 2583 2580 2590 2591 2581 2586 2596 2595 2597 2350 2598 2599 
48 49 274 273 73 74 299 298 2357 2358 2359 2344 2602 2603 2604 2593 2590 2600 2601 2591 2596 2606 2605 2607 2364 2608 2609 
50 51 276 275 75 76 301 300 2370 2371 2372 2373 2614 2615 2616 2617 2610 2611 2612 2613 2621 2619 2618 2620 2378 2622 2623 
51 52 277 276 76 77 302 301 2382 2383 2384 2371 2626 2627 2628 2615 2611 2624 2625 2612 2619 2630 2629 2631 2388 2632 2633 
52 53 278 277 77 78 303 302 2392 2393 2394 2383 2636 2637 2638 2627 2624 2634 2635 2625 2630 2640 2639 2641 2398 2642 2643 
53 54 279 278 78 79 304 303 2402 2403 2404 2393 2646 2647 2648 2637 2634 2644 2645 2635 2640 2650 2649 2651 2408 2652 2653 
54 55 280 279 79 80 305 304 2412 2413 2414 2403 2656 2657 2658 2647 2644 2654 2655 2645 2650 2660 2659 2661 2418 2662 2663 
55 56 281 280 80 81 306 305 2422 2423 2424 2413 2666 2667 2668 2657 2654 2664 2665 2655 2660 2670 2669 2671 2428 2672 2673 
56 57 282 281 81 82 307 306 2432 2433 2434 2423 2676 2677 2678 2667 2664 2674 2675 2665 2670 2680 2679 2681 2438 2682 2683 
57 58 283 282 82 83 308 307 2442 2443 2444 2433 2686 2687 2688 2677 2674 2684 2685 2675 2680 2690 2689 2691 2448 2692 2693 
58 59 284 283 83 84 309 308 2452 2453 2454 2443 2696 2697 2698 2687 2684 2694 2695 2685 2690 2700 2699 2701 2458 2702 2703 
59 60 285 284 84 85 310 309 2462 2463 2464 2453 2706 2707 2708 2697 2694 2704 2705 2695 2700 2710 2709 2711 2468 2712 2713 
60 61 286 285 85 86 311 310 2472 2473 2474 2463 2716 2717 2718 2707 2704 2714 2715 2705 2710 2720 2719 2721 2478 2722 2723 
61 62 287 286 86 87 312 311 2482 2483 2484 2473 2726 2727 2728 2717 2714 2724 2725 2715 2720 2730 2729 2731 2488 2732 2733 
62 63 288 287 87 88 313 312 2492 2493 2494 2483 2736 2737 2738 2727 2724 2734 2735 2725 2730 2740 2739 2741 2498 2742 2743 
63 64 289 288 88 89 314 313 2502 2503 2504 2493 2746 2747 2748 2737 2734 2744 2745 2735 2740 2750 2749 2751 2508 2752 2753 
64 65 290 289 89 90 315 314 2512 2513 2514 2503 2756 2757 2758 2747 2744 2754 2755 2745 2750 2760 2759 2761 2518 2762 2763 
65 66 291 290 90 91 316 315 2522 2523 2524 2513 2766 2767 2768 2757 2754 2764 2765 2755 2760 2770 2769 2771 2528 2772 2773 
66 67 292 291 91 92 317 316 2532 2533 2534 2523 2776 2777 2778 2767 2764 2774 2775 2765 2770 2780 2779 2781 2538 2782 2783 
67 68 293 292 92 93 318 317 2542 2543 2544 2533 2786 2787 2788 2777 2774 2784 2785 2775 2780 2790 2789 2791 2548 2792 2793 
68 69 294 293 93 94 319 318 2552 2553 2554 2543 2796 2797 2798 2787 2784 2794 2795 2785 2790 2800 2799 2801 2558 2802 2803 
69 70 295 294 94 95 320 319 2562 2563 2564 2553 2806 2807 2808 2797 2794 2804 2805 2795 2800 2810 2809 2811 2568 2812 2813 
70 71 296 295 95 96 321 320 2572 2573 2574 2563 2816 2817 2818 2807 2804 2814 2815 2805 2810 2820 2819 2821 2578 2822 2823 
71 72 297 296 96 97 322 321 2582 2583 2584 2573 2826 2827 2828 2817 2814 2824 2825 2815 2820 2830 2829 2831 2588 2832 2833 
72 73 298 297 97 98 323 322 2592 2593 2594 2583 2836 2837 2838 2827 2824 2834 2835 2825 2830 2840 2839 2841 2598 2842 2843 
73 74 299 298 98 99 324 323 2602 2603 2604 2593 2846 2847 2848 2837 2834 2844 2845 2835 2840 2850 2849 2851 2608 2852 2853 
75 76 301 300 100 101 326 325 2614 2615 2616 2617 2858 2859 2860 2861 2854 2855 2856 2857 2865 2863 2862 2864 2622 2866 2867 
76 77 302 301 101 102 327 326 2626 2627 2628 2615 2870 2871 2872 2859 2855 2868 2869 2856 2863 2874 2873 2875 2632 2876 2877 
77 78 303 302 102 103 328 327 2636 2637 2638 2627 2880 2881 2882 2871 2868 2878 2879 2869 2874 2884 2883 2885 2642 2886 2887 
78 79 304 303 103 104 329 328 2646 2647 2648 2637 2890 2891 2892 2881 2878 2888 2889 2879 2884 2894 2893 2895 2652 2896 2897 
79 80 305 304 104 105 330 329 2656 2657 2658 2647 2900 2901 2902 2891 2888 2898 2899 2889 2894 2904 2903 2905 2662 2906 2907 
80 81 306 305 105 106 331 330 2666 2667 2668 2657 2910 2911 2912 2901 2898 2908 2909 2899 2904 2914 2913 2915 2672 2916 2917 
81 82 307 306 106 107 332 331 2676 2677 2678 2667 2920 2921 2922 2911 2908 2918 2919 2909 2914 2924 2923 2925 2682 2926 2927 
82 83 308 307 107 108 333 332 2686 2687 2688 2677 2930 2931 2932 2921 2918 2928 2929 2919 2924 2934 2933 2935 2692 2936 2937 
83 84 309 308 108 109 334 333 2696 2697 2698 2687 2940 2941 2942 2931 2928 2938 2939 2929 2934 2944 2943 2945 2702 2946 2947 
84 85 310 309 109 110 335 334 2706 2707 2708 2697 2950 2951 2952 2941 2938 2948 2949 2939 2944 2954 2953 2955 2712 2956 2957 
85 86 311 310 110 111 336 335 2716 2717 2718 2707 2960 2961 2962 2951 2948 2958 2959 2949 2954 2964 2963 2965 2722 2966 2967 
86 87 312 311 111 112 337 336 2726 2727 2728 2717 2970 2971 2972 2961 2958 2968 2969 2959 2964 2974 2973 2975 2732 2976 2977 
87 88 313 312 112 113 338 337 2736 2737 2738 2727 2980 2981 2982 2971 2968 2978 2979 2969 2974 2984 2983 2985 2742 2986 2987 
88 89 314 313 113 114 339 338 2746 2747 2748 2737 2990 2991 2992 2981 2978 2988 2989 2979 2984 2994 2993 2995 2752 2996 2997 
89 90 315 314 114 115 340 339 2756 2757 2758 2747 3000 3001 3002 2991 2988 2998 2999 2989 2994 3004 3003 3005 2762 3006 3007 
90 91 316 315 115 116 341 340 2766 2767 2768 2757 3010 3011 3012 3001 2998 3008 3009 2999 3004 3014 3013 3015 2772 3016 3017 
91 92 317 316 116 117 342 341 2776 2777 2778 2767 3020 3021 3022 3011 3008 3018 3019 3009 3014 3024 3023 3025 2782 3026 3027 
92 93 318 317 117 118 343 342 2786 2787 2788 2777 3030 3031 3032 3021 3018 3028 3029 3019 3024 3034 3033 3035 2792 3036 3037 
93 94 319 318 118 119 344 343 2796 2797 2798 2787 3040 3041 3042 3031 3028 3038 3039 3029 3034 3044 3043 3045 2802 3046 3047 
94 95 320 319 119 120 345 344 2806 2807 2808 2797 3050 3051 3052 3041 3038 3048 3049 3039 3044 3054 3053 3055 2812 3056 3057 
95 96 321 320 120 121 346 345 2816 2817 2818 2807 3060 3061 3062 3051 3048 3058 3059 3049 3054 3064 3063 3065 2822 3066 3067 
96 97 322 321 121 122 347 346 2826 2827 2828 2817 3070 3071 3072 3061 3058 3068 3069 3059 3064 3074 3073 3075 2832 3076 3077 
97 98 323 322 122 123 348 347 2836 2837 2838 2827 3080 3081 3082 3071 3068 3078 3079 3069 3074 3084 3083 3085 2842 3086 3087 
98 99 324 323 123 124 349 348 2846 2847 2848 2837 3090 3091 3092 3081 3078 3088 3089 3079 3084 3094 3093 3095 2852 3096 3097 
100 101 326 325 125 126 351 350 2858 2859 2860 2861 3102 3103 3104 3105 3098 3099 3100 3101 3109 3107 3106 3108 2866 3110 3111 
101 102 327 326 126 127 352 351 2870 2871 2872 2859 3114 3115 3116 3103 3099 3112 3113 3100 3107 3118 3117 3119 2876 3120 3121 
102 103 328 327 127 128 353 352 2880 2881 2882 2871 3124 3125 3126 3115 3112 3122 3123 3113 3118 3128 3127 3129 2886 3130 3131 
103 104 329 328 128 129 354 353 2890 2891 2892 2881 3134 3135 3136 3125 3122 3132 3133 3123 3128 3138 3137 3139 2896 3140 3141 
104 105 330 329 129 130 355 354 2900 2901 2902 2891 3144 3145 3146 3135 3132 3142 3143 3133 3138 3148 3147 3149 2906 3150 3151 
105 106 331 330 130 131 356 355 2910 2911 2912 2901 3154 3155 3156 3145 3142 3152 3153 3143 3148 3158 3157 3159 2916 3160 3161 
106 107 332 331 131 132 357 356 2920 2921 2922 2911 3164 3165 3166 3155 3152 3162 3163 3153 3158 3168 3167 3169 2926 3170 3171 
107 108 333 332 132 133 358 357 2930 2931 2932 2921 3174 3175 3176 3165 3162 3172 3173 3163 3168 3178 3177 3179 2936 3180 3181 
108 109 334 333 133 134 359 358 2940 2941 2942 2931 3184 3185 3186 3175 3172 3182 3183 3173 3178 3188 3187 3189 2946 3190 3191 
109 110 335 334 134 135 360 359 2950 2951 2952 2941 3194 3195 3196 3185 3182 3192 3193 3183 3188 3198 3197 3199 2956 3200 3201 
110 111 336 335 135 136 361 360 2960 2961 2962 2951 3204 3205 3206 3195 3192 3202 3203 3193 3198 3208 3207 3209 2966 3210 3211 
111 112 337 336 136 137 362 361 2970 2971 2972 2961 3214 3215 3216 3205 3202 3212 3213 3203 3208 3218 3217 3219 2976 3220 3221 
112 113 338 337 137 138 363 362 2980 2981 2982 2971 3224 3225 3226 3215 3212 3222 3223 3213 3218 3228 3227 3229 2986 3230 3231 
113 114 339 338 138 139 364 363 2990 2991 2992 2981 3234 3235 3236 3225 3222 3232 3233 3223 3228 3238 3237 3239 2996 3240 3241 
114 115 340 339 139 140 365 364 3000 3001 3002 2991 3244 3245 3246 3235 3232 3242 3243 3233 3238 3248 3247 3249 3006 3250 3251 
115 116 341 340 140 141 366 365 3010 3011 3012 3001 3254 3255 3256 3245 3242 3252 3253 3243 3248 3258 3257 3259 3016 3260 3261 
116 117 342 341 141 142 367 366 3020 3021 3022 3011 3264 3265 3266 3255 3252 3262 3263 3253 3258 3268 3267 3269 3026 3270 3271 
117 118 343 342 142 143 368 367 3030 3031 3032 3021 3274 3275 3276 3265 3262 3272 3273 3263 3268 3278 3277 3279 3036 3280 3281 
118 119 344 343 143 144 369 368 3040 3041 3042 3031 3284 3285 3286 3275 3272 3282 3283 3273 3278 3288 3287 3289 3046 3290 3291 
119 120 345 344 144 145 370 369 3050 3051 3052 3041 3294 3295 3296 3285 3282 3292 3293 3283 3288 3298 3297 3299 3056 3300 3301 
120 121 346 345 145 146 371 370 3060 3061 3062 3051 3304 3305 3306 3295 3292 3302 3303 3293 3298 3308 3307 3309 3066 3310 3311 
121 122 347 346 146 147 372 371 3070 3071 3072 3061 3314 3315 3316 3305 3302 3312 3313 3303 3308 3318 3317 3319 3076 3320 3321 
122 123 348 347 147 148 373 372 3080 3081 3082 3071 3324 3325 3326 3315 3312 3322 3323 3313 3318 3328 3327 3329 3086 3330 3331 
123 124 349 348 148 149 374 373 3090 3091 3092 3081 3334 3335 3336 3325 3322 3332 3333 3323 3328 3338 3337 3339 3096 3340 3341 
125 126 351 350 150 151 376 375 3102 3103 3104 3105 3346 3347 3348 3349 3342 3343 3344 3345 3353 3351 3350 3352 3110 3354 3355 
126 127 352 351 151 152 377 376 3114 3115 3116 3103 3358 3359 3360 3347 3343 3356 3357 3344 3351 3362 3361 3363 3120 3364 3365 
127 128 353 352 152 153 378 377 3124 3125 3126 3115 3368 3369 3370 3359 3356 3366 3367 3357 3362 3372 3371 3373 3130 3374 3375 
128 129 354 353 153 154 379 378 3134 3135 3136 3125 3378 3379 3380 3369 3366 3376 3377 3367 3372 3382 3381 3383 3140 3384 3385 
129 130 355 354 154 155 380 379 3144 3145 3146 3135 3388 3389 3390 3379 3376 3386 3387 3377 3382 3392 3391 3393 3150 3394 3395 
130 131 356 355 155 156 381 380 3154 3155 3156 3145 3398 3399 3400 3389 3386 3396 3397 3387 3392 3402 3401 3403 3160 3404 3405 
131 132 357 356 156 157 382 381 3164 3165 3166 3155 3408 3409 3410 3399 3396 3406 3407 3397 3402 3412 3411 3413 3170 3414 3415 
132 133 358 357 157 158 383 382 3174 3175 3176 3165 3418 3419 3420 3409 3406 3416 3417 3407 3412 3422 3421 3423 3180 3424 3425 
133 134 359 358 158 159 384 383 3184 3185 3186 3175 3428 3429 3430 3419 3416 3426 3427 3417 3422 3432 3431 3433 3190 3434 3435 
134 135 360 359 159 160 385 384 3194 3195 3196 3185 3438 3439 3440 3429 3426 3436 3437 3427 3432 3442 3441 3443 3200 3444 3445 
135 136 361 360 160 161 386 385 3204 3205 3206 3195 3448 3449 3450 3439 3436 3446 3447 3437 3442 3452 3451 3453 3210 3454 3455 
136 137 362 361 161 162 387 386 3214 3215 3216 3205 3458 3459 3460 3449 3446 3456 3457 3447 3452 3462 3461 3463 3220 3464 3465 
137 138 363 362 162 163 388 387 3224 3225 3226 3215 3468 3469 3470 3459 3456 3466 3467 3457 3462 3472 3471 3473 3230 3474 3475 
138 139 364 363 163 164 389 388 3234 3235 3236 3225 3478 3479 3480 3469 3466 3476 3477 3467 3472 3482 3481 3483 3240 3484 3485 
139 140 365 364 164 165 390 389 3244 3245 3246 3235 3488 3489 3490 3479 3476 3486 3487 3477 3482 3492 3491 3493 3250 3494 3495 
140 141 366 365 165 166 391 390 3254 3255 3256 3245 3498 3499 3500 3489 3486 3496 3497 3487 3492 3502 3501 3503 3260 3504 3505 
141 142 367 366 166 167 392 391 3264 3265 3266 3255 3508 3509 3510 3499 3496 3506 3507 3497 3502 3512 3511 3513 3270 3514 3515 
142 143 368 367 167 168 393 392 3274 3275 3276 3265 3518 3519 3520 3509 3506 3516 3517 3507 3512 3522 3521 3523 3280 3524 3525 
143 144 369 368 168 169 394 393 3284 3285 3286 3275 3528 3529 3530 3519 3516 3526 3527 3517 3522 3532 3531 3533 3290 3534 3535 
144 145 370 369 169 170 395 394 3294 3295 3296 3285 3538 3539 3540 3529 3526 3536 3537 3527 3532 3542 3541 3543 3300 3544 3545 
145 146 371 370 170 171 396 395 3304 3305 3306 3295 3548 3549 3550 3539 3536 3546 3547 3537 3542 3552 3551 3553 3310 3554 3555 
146 147 372 371 171 172 397 396 3314 3315 3316 3305 3558 3559 3560 3549 3546 3556 3557 3547 3552 3562 3561 3563 3320 3564 3565 
147 148 373 372 172 173 398 397 3324 3325 3326 3315 3568 3569 3570 3559 3556 3566 3567 3557 3562 3572 3571 3573 3330 3574 3575 
148 149 374 373 173 174 399 398 3334 3335 3336 3325 3578 3579 3580 3569 3566 3576 3577 3567 3572 3582 3581 3583 3340 3584 3585 
150 151 376 375 175 176 401 400 3346 3347 3348 3349 3590 3591 3592 3593 3586 3587 3588 3589 3597 3595 3594 3596 3354 3598 3599 
151 152 377 376 176 177 402 401 3358 3359 3360 3347 3602 3603 3604 3591 3587 3600 3601 3588 3595 3606 3605 3607 3364 3608 3609 
152 153 378 377 177 178 403 402 3368 3369 3370 3359 3612 3613 3614 3603 3600 3610 3611 3601 3606 3616 3615 3617 3374 3618 3619 
153 154 379 378 178 179 404 403 3378 3379 3380 3369 3622 3623 3624 3613 3610 3620 3621 3611 3616 3626 3625 3627 3384 3628 3629 
154 155 380 379 179 180 405 404 3388 3389 3390 3379 3632 3633 3634 3623 3620 3630 3631 3621 3626 3636 3635 3637 3394 3638 3639 
155 156 381 380 180 181 406 405 3398 3399 3400 3389 3642 3643 3644 3633 3630 3640 3641 3631 3636 3646 3645 3647 3404 3648 3649 
156 157 382 381 181 182 407 406 3408 3409 3410 3399 3652 3653 3654 3643 3640 3650 3651 3641 3646 3656 3655 3657 3414 3658 3659 
157 158 383 382 182 183 408 407 3418 3419 3420 3409 3662 3663 3664 3653 3650 3660 3661 3651 3656 3666 3665 3667 3424 3668 3669 
158 159 384 383 183 184 409 408 3428 3429 3430 3419 3672 3673 3674 3663 3660 3670 3671 3661 3666 3676 3675 3677 3434 3678 3679 
159 160 385 384 184 185 410 409 3438 3439 3440 3429 3682 3683 3684 3673 3670 3680 3681 3671 3676 3686 3685 3687 3444 3688 3689 
160 161 386 385 185 186 411 410 3448 3449 3450 3439 3692 3693 3694 3683 3680 3690 3691 3681 3686 3696 3695 3697 3454 3698 3699 
161 162 387 386 186 187 412 411 3458 3459 3460 3449 3702 3703 3704 3693 3690 3700 3701 3691 3696 3706 3705 3707 3464 3708 3709 
162 163 388 387 187 188 413 412 3468 3469 3470 3459 3712 3713 3714 3703 3700 3710 3711 3701 3706 3716 3715 3717 3474 3718 3719 
163 164 389 388 188 189 414 413 3478 3479 3480 3469 3722 3723 3724 3713 3710 3720 3721 3711 3716 3726 3725 3727 3484 3728 3729 
164 165 390 389 189 190 415 414 3488 3489 3490 3479 3732 3733 3734 3723 3720 3730 3731 3721 3726 3736 3735 3737 3494 3738 3739 
165 166 391 390 190 191 416 415 3498 3499 3500 3489 3742 3743 3744 3733 3730 3740 3741 3731 3736 3746 3745 3747 3504 3748 3749 
166 167 392 391 191 192 417 416 3508 3509 3510 3499 3752 3753 3754 3743 3740 3750 3751 3741 3746 3756 3755 3757 3514 3758 3759 
167 168 393 392 192 193 418 417 3518 3519 3520 3509 3762 3763 3764 3753 3750 3760 3761 3751 3756 3766 3765 3767 3524 3768 3769 
168 169 394 393 193 194 419 418 3528 3529 3530 3519 3772 3773 3774 3763 3760 3770 3771 3761 3766 3776 3775 3777 3534 3778 3779 
169 170 395 394 194 195 420 419 3538 3539 3540 3529 3782 3783 3784 3773 3770 3780 3781 3771 3776 3786 3785 3787 3544 3788 3789 
170 171 396 395 195 196 421 420 3548 3549 3550 3539 3792 3793 3794 3783 3780 3790 3791 3781 3786 3796 3795 3797 3554 3798 3799 
171 172 397 396 196 197 422 421 3558 3559 3560 3549 3802 3803 3804 3793 3790 3800 3801 3791 3796 3806 3805 3807 3564 3808 3809 
172 173 398 397 197 198 423 422 3568 3569 3570 3559 3812 3813 3814 3803 3800 3810 3811 3801 3806 3816 3815 3817 3574 3818 3819 
173 174 399 398 198 199 424 423 3578 3579 3580 3569 3822 3823 3824 3813 3810 3820 3821 3811 3816 3826 3825 3827 3584 3828 3829 
175 176 401 400 200 201 426 425 3590 3591 3592 3593 3834 3835 3836 3837 3830 3831 3832 3833 3841 3839 3838 3840 3598 3842 3843 
176 177 402 401 201 202 427 426 3602 3603 3604 3591 3846 3847 3848 3835 3831 3844 3845 3832 3839 3850 3849 3851 3608 3852 3853 
177 178 403 402 202 203 428 427 3612 3613 3614 3603 3856 3857 3858 3847 3844 3854 3855 3845 3850 3860 3859 3861 3618 3862 3863 
178 179 404 403 203 204 429 428 3622 3623 3624 3613 3866 3867 3868 3857 3854 3864 3865 3855 3860 3870 3869 3871 3628 3872 3873 
179 180 405 404 204 205 430 429 3632 3633 3634 3623 3876 3877 3878 3867 3864 3874 3875 3865 3870 3880 3879 3881 3638 3882 3883 
180 181 406 405 205 206 431 430 3642 3643 3644 3633 3886 3887 3888 3877 3874 3884 3885 3875 3880 3890 3889 3891 3648 3892 3893 
181 182 407 406 206 207 432 431 3652 3653 3654 3643 3896 3897 3898 3887 3884 3894 3895 3885 3890 3900 3899 3901 3658 3902 3903 
182 183 408 407 207 208 433 432 3662 3663 3664 3653 3906 3907 3908 3897 3894 3904 3905 3895 3900 3910 3909 3911 3668 3912 3913 
183 184 409 408 208 209 434 433 3672 3673 3674 3663 3916 3917 3918 3907 3904 3914 3915 3905 3910 3920 3919 3921 3678 3922 3923 
184 185 410 409 209 210 435 434 3682 3683 3684 3673 3926 3927 3928 3917 3914 3924 3925 3915 3920 3930 3929 3931 3688 3932 3933 
185 186 411 410 210 211 436 435 3692 3693 3694 3683 3936 3937 3938 3927 3924 3934 3935 3925 3930 3940 3939 3941 3698 3942 3943 
186 187 412 411 211 212 437 436 3702 3703 3704 3693 3946 3947 3948 3937 3934 3944 3945 3935 3940 3950 3949 3951 3708 3952 3953 
187 188 413 412 212 213 438 437 3712 3713 3714 3703 3956 3957 3958 3947 3944 3954 3955 3945 3950 3960 3959 3961 3718 3962 3963 
188 189 414 413 213 214 439 438 3722 3723 3724 3713 3966 3967 3968 3957 3954 3964 3965 3955 3960 3970 3969 3971 3728 3972 3973 
189 190 415 414 214 215 440 439 3732 3733 3734 3723 3976 3977 3978 3967 3964 3974 3975 3965 3970 3980 3979 3981 3738 3982 3983 
190 191 416 415 215 216 441 440 3742 3743 3744 3733 3986 3987 3988 3977 3974 3984 3985 3975 3980 3990 3989 3991 3748 3992 3993 
191 192 417 416 216 217 442 441 3752 3753 3754 3743 3996 3997 3998 3987 3984 3994 3995 3985 3990 4000 3999 4001 3758 4002 4003 
192 193 418 417 217 218 443 442 3762 3763 3764 3753 4006 4007 4008 3997 3994 4004 4005 3995 4000 4010 4009 4011 3768 4012 4013 
193 194 419 418 218 219 444 443 3772 3773 3774 3763 4016 4017 4018 4007 4004 4014 4015 4005 4010 4020 4019 4021 3778 4022 4023 
194 195 420 419 219 220 445 444 3782 3783 3784 3773 4026 4027 4028 4017 4014 4024 4025 4015 4020 4030 4029 4031 3788 4032 4033 
195 196 421 420 220 221 446 445 3792 3793 3794 3783 4036 4037 4038 4027 4024 4034 4035 4025 4030 4040 4039 4041 3798 4042 4043 
196 197 422 421 221 222 447 446 3802 3803 3804 3793 4046 4047 4048 4037 4034 4044 4045 4035 4040 4050 4049 4051 3808 4052 4053 
197 198 423 422 222 223 448 447 3812 3813 3814 3803 4056 4057 4058 4047 4044 4054 4055 4045 4050 4060 4059 4061 3818 4062 4063 
198 199 424 423 223 224 449 448 3822 3823 3824 3813 4066 4067 4068 4057 4054 4064 4065 4055 4060 4070 4069 4071 3828 4072 4073 
225 226 451 450 250 251 476 475 2027 4074 4075 4076 2035 4079 4080 4081 2032 2031 4077 4078 4085 4083 2040 4084 4082 4086 4087 
226 227 452 451 251 252 477 476 2046 4088 4089 4074 2051 4091 4092 4079 2031 2048 4090 4077 4083 4094 2055 4095 4093 4096 4097 
227 228 453 452 252 253 478 477 2060 4098 4099 4088 2065 4101 4102 4091 2048 2062 4100 4090 4094 4104 2069 4105 4103 4106 4107 
228 229 454 453 253 254 479 478 2074 4108 4109 4098 2079 4111 4112 4101 2062 2076 4110 4100 4104 4114 2083 4115 4113 4116 4117 
229 230 455 454 254 255 480 479 2088 4118 4119 4108 2093 4121 4122 4111 2076 2090 4120 4110 4114 4124 2097 4125 4123 4126 4127 
230 231 456 455 255 256 481 480 2102 4128 4129 4118 2107 4131 4132 4121 2090 2104 4130 4120 4124 4134 2111 4135 4133 4136 4137 
231 232 457 456 256 257 482 481 2116 4138 4139 4128 2121 4141 4142 4131 2104 2118 4140 4130 4134 4144 2125 4145 4143 4146 4147 
232 233 458 457 257 258 483 482 2130 4148 4149 4138 2135 4151 4152 4141 2118 2132 4150 4140 4144 4154 2139 4155 4153 4156 4157 
233 234 459 458 258 259 484 483 2144 4158 4159 4148 2149 4161 4162 4151 2132 2146 4160 4150 4154 4164 2153 4165 4163 4166 4167 
234 235 460 459 259 260 485 484 2158 4168 4169 4158 2163 4171 4172 4161 2146 2160 4170 4160 4164 4174 2167 4175 4173 4176 4177 
235 236 461 460 260 261 486 485 2172 4178 4179 4168 2177 4181 4182 4171 2160 2174 4180 4170 4174 4184 2181 4185 4183 4186 4187 
236 237 462 461 261 262 487 486 2186 4188 4189 4178 2191 4191 4192 4181 2174 2188 4190 4180 4184 4194 2195 4195 4193 4196 4197 
237 238 463 462 262 263 488 487 2200 4198 4199 4188 2205 4201 4202 4191 2188 2202 4200 4190 4194 4204 2209 4205 4203 4206 4207 
238 239 464 463 263 264 489 488 2214 4208 4209 4198 2219 4211 4212 4201 2202 2216 4210 4200 4204 4214 2223 4215 4213 4216 4217 
239 240 465 464 264 265 490 489 2228 4218 4219 4208 2233 4221 4222 4211 2216 2230 4220 4210 4214 4224 2237 4225 4223 4226 4227 
240 241 466 465 265 266 491 490 2242 4228 4229 4218 2247 4231 4232 4221 2230 2244 4230 4220 4224 4234 2251 4235 4233 4236 4237 
241 242 467 466 266 267 492 491 2256 4238 4239 4228 2261 4241 4242 4231 2244 2258 4240 4230 4234 4244 2265 4245 4243 4246 4247 
242 243 468 467 267 268 493 492 2270 4248 4249 4238 2275 4251 4252 4241 2258 2272 4250 4240 4244 4254 2279 4255 4253 4256 4257 
243 244 469 468 268 269 494 493 2284 4258 4259 4248 2289 4261 4262 4251 2272 2286 4260 4250 4254 4264 2293 4265 4263 4266 4267 
244 245 470 469 269 270 495 494 2298 4268 4269 4258 2303 4271 4272 4261 2286 2300 4270 4260 4264 4274 2307 4275 4273 4276 4277 
245 246 471 470 270 271 496 495 2312 4278 4279 4268 2317 4281 4282 4271 2300 2314 4280 4270 4274 4284 2321 4285 4283 4286 4287 
246 247 472 471 271 272 497 496 2326 4288 4289 4278 2331 4291 4292 4281 2314 2328 4290 4280 4284 4294 2335 4295 4293 4296 4297 
247 248 473 472 272 273 498 497 2340 4298 4299 4288 2345 4301 4302 4291 2328 2342 4300 4290 4294 4304 2349 4305 4303 4306 4307 
248 249 474 473 273 274 499 498 2354 4308 4309 4298 2359 4311 4312 4301 2342 2356 4310 4300 4304 4314 2363 4315 4313 4316 4317 
250 251 476 475 275 276 501 500 2035 4079 4080 4081 2372 4320 4321 4322 2369 2368 4318 4319 4325 4323 2376 4324 4086 4326 4327 
251 252 477 476 276 277 502 501 2051 4091 4092 4079 2384 4329 4330 4320 2368 2381 4328 4318 4323 4331 2387 4332 4096 4333 4334 
252 253 478 477 277 278 503 502 2065 4101 4102 4091 2394 4336 4337 4329 2381 2391 4335 4328 4331 4338 2397 4339 4106 4340 4341 
253 254 479 478 278 279 504 503 2079 4111 4112 4101 2404 4343 4344 4336 2391 2401 4342 4335 4338 4345 2407 4346 4116 4347 4348 
254 255 480 479 279 280 505 504 2093 4121 4122 4111 2414 4350 4351 4343 2401 2411 4349 4342 4345 4352 2417 4353 4126 4354 4355 
255 256 481 480 280 281 506 505 2107 4131 4132 4121 2424 4357 4358 4350 2411 2421 4356 4349 4352 4359 2427 4360 4136 4361 4362 
256 257 482 481 281 282 507 506 2121 4141 4142 4131 2434 4364 4365 4357 2421 2431 4363 4356 4359 4366 2437 4367 4146 4368 4369 
257 258 483 482 282 283 508 507 2135 4151 4152 4141 2444 4371 4372 4364 2431 2441 4370 4363 4366 4373 2447 4374 4156 4375 4376 
258 259 484 483 283 284 509 508 2149 4161 4162 4151 2454 4378 4379 4371 2441 2451 4377 4370 4373 4380 2457 4381 4166 4382 4383 
259 260 485 484 284 285 510 509 2163 4171 4172 4161 2464 4385 4386 4378 2451 2461 4384 4377 4380 4387 2467 4388 4176 4389 4390 
260 261 486 485 285 286 511 510 2177 4181 4182 4171 2474 4392 4393 4385 2461 2471 4391 4384 4387 4394 2477 4395 4186 4396 4397 
261 262 487 486 286 287 512 511 2191 4191 4192 4181 2484 4399 4400 4392 2471 2481 4398 4391 4394 4401 2487 4402 4196 4403 4404 
262 263 488 487 287 288 513 512 2205 4201 4202 4191 2494 4406 4407 4399 2481 2491 4405 4398 4401 4408 2497 4409 4206 4410 4411 
263 264 489 488 288 289 514 513 2219 4211 4212 4201 2504 4413 4414 4406 2491 2501 4412 4405 4408 4415 2507 4416 4216 4417 4418 
264 265 490 489 289 290 515 514 2233 4221 4222 4211 2514 4420 4421 4413 2501 2511 4419 4412 4415 4422 2517 4423 4226 4424 4425 
265 266 491 490 290 291 516 515 2247 4231 4232 4221 2524 4427 4428 4420 2511 2521 4426 4419 4422 4429 2527 4430 4236 4431 4432 
266 267 492 491 291 292 517 516 2261 4241 4242 4231 2534 4434 4435 4427 2521 2531 4433 4426 4429 4436 2537 4437 4246 4438 4439 
267 268 493 492 292 293 518 517 2275 4251 4252 4241 2544 4441 4442 4434 2531 2541 4440 4433 4436 4443 2547 4444 4256 4445 4446 
268 269 494 493 293 294 519 518 2289 4261 4262 4251 2554 4448 4449 4441 2541 2551 4447 4440 4443 4450 2557 4451 4266 4452 4453 
269 270 495 494 294 295 520 519 2303 4271 4272 4261 2564 4455 4456 4448 2551 2561 4454 4447 4450 4457 2567 4458 4276 4459 4460 
270 271 496 495 295 296 521 520 2317 4281 4282 4271 2574 4462 4463 4455 2561 2571 4461 4454 4457 4464 2577 4465 4286 4466 4467 
271 272 497 496 296 297 522 521 2331 4291 4292 4281 2584 4469 4470 4462 2571 2581 4468 4461 4464 4471 2587 4472 4296 4473 4474 
272 273 498 497 297 298 523 522 2345 4301 4302 4291 2594 4476 4477 4469 2581 2591 4475 4468 4471 4478 2597 4479 4306 4480 4481 
273 274 499 498 298 299 524 523 2359 4311 4312 4301 2604 4483 4484 4476 2591 2601 4482 4475 4478 4485 2607 4486 4316 4487 4488 
275 276 501 500 300 301 526 525 2372 4320 4321 4322 2616 4491 4492 4493 2613 2612 4489 4490 4496 4494 2620 4495 4326 4497 4498 
276 277 502 501 301 302 527 526 2384 4329 4330 4320 2628 4500 4501 4491 2612 2625 4499 4489 4494 4502 2631 4503 4333 4504 4505 
277 278 503 502 302 303 528 527 2394 4336 4337 4329 2638 4507 4508 4500 2625 2635 4506 4499 4502 4509 2641 4510 4340 4511 4512 
278 279 504 503 303 304 529 528 2404 4343 4344 4336 2648 4514 4515 4507 2635 2645 4513 4506 4509 4516 2651 4517 4347 4518 4519 
279 280 505 504 304 305 530 529 2414 4350 4351 4343 2658 4521 4522 4514 2645 2655 4520 4513 4516 4523 2661 4524 4354 4525 4526 
280 281 506 505 305 306 531 530 2424 4357 4358 4350 2668 4528 4529 4521 2655 2665 4527 4520 4523 4530 2671 4531 4361 4532 4533 
281 282 507 506 306 307 532 531 2434 4364 4365 4357 2678 4535 4536 4528 2665 2675 4534 4527 4530 4537 2681 4538 4368 4539 4540 
282 283 508 507 307 308 533 532 2444 4371 4372 4364 2688 4542 4543 4535 2675 2685 4541 4534 4537 4544 2691 4545 4375 4546 4547 
283 284 509 508 308 309 534 533 2454 4378 4379 4371 2698 4549 4550 4542 2685 2695 4548 4541 4544 4551 2701 4552 4382 4553 4554 
284 285 510 509 309 310 535 534 2464 4385 4386 4378 2708 4556 4557 4549 2695 2705 4555 4548 4551 4558 2711 4559 4389 4560 4561 
285 286 511 510 310 311 536 535 2474 4392 4393 4385 2718 4563 4564 4556 2705 2715 4562 4555 4558 4565 2721 4566 4396 4567 4568 
286 287 512 511 311 312 537 536 2484 4399 4400 4392 2728 4570 4571 4563 2715 2725 4569 4562 4565 4572 2731 4573 4403 4574 4575 
287 288 513 512 312 313 538 537 2494 4406 4407 4399 2738 4577 4578 4570 2725 2735 4576 4569 4572 4579 2741 4580 4410 4581 4582 
288 289 514 513 313 314 539 538 2504 4413 4414 4406 2748 4584 4585 4577 2735 2745 4583 4576 4579 4586 2751 4587 4417 4588 4589 
289 290 515 514 314 315 540 539 2514 4420 4421 4413 2758 4591 4592 4584 2745 2755 4590 4583 4586 4593 2761 4594 4424 4595 4596 
290 291 516 515 315 316 541 540 2524 4427 4428 4420 2768 4598 4599 4591 2755 2765 4597 4590 4593 4600 2771 4601 4431 4602 4603 
291 292 517 516 316 317 542 541 2534 4434 4435 4427 2778 4605 4606 4598 2765 2775 4604 4597 4600 4607 2781 4608 4438 4609 4610 
292 293 518 517 317 318 543 542 2544 4441 4442 4434 2788 4612 4613 4605 2775 2785 4611 4604 4607 4614 2791 4615 4445 4616 4617 
293 294 519 518 318 319 544 543 2554 4448 4449 4441 2798 4619 4620 4612 2785 2795 4618 4611 4614 4621 2801 4622 4452 4623 4624 
294 295 520 519 319 320 545 544 2564 4455 4456 4448 2808 4626 4627 4619 2795 2805 4625 4618 4621 4628 2811 4629 4459 4630 4631 
295 296 521 520 320 321 546 545 2574 4462 4463 4455 2818 4633 4634 4626 2805 2815 4632 4625 4628 4635 2821 4636 4466 4637 4638 
296 297 522 521 321 322 547 546 2584 4469 4470 4462 2828 4640 4641 4633 2815 2825 4639 4632 4635 4642 2831 4643 4473 4644 4645 
297 298 523 522 322 323 548 547 2594 4476 4477 4469 2838 4647 4648 4640 2825 2835 4646 4639 4642 4649 2841 4650 4480 4651 4652 
298 299 524 523 323 324 549 548 2604 4483 4484 4476 2848 4654 4655 4647 2835 2845 4653 4646 4649 4656 2851 4657 4487 4658 4659 
300 301 526 525 325 326 551 550 2616 4491 4492 4493 2860 4662 4663 4664 2857 2856 4660 4661 4667 4665 2864 4666 4497 4668 4669 
301 302 527 526 326 327 552 551 2628 4500 4501 4491 2872 4671 4672 4662 2856 2869 4670 4660 4665 4673 2875 4674 4504 4675 4676 
302 303 528 527 327 328 553 552 2638 4507 4508 4500 2882 4678 4679 4671 2869 2879 4677 4670 4673 4680 2885 4681 4511 4682 4683 
303 304 529 528 328 329 554 553 2648 4514 4515 4507 2892 4685 4686 4678 2879 2889 4684 4677 4680 4687 2895 4688 4518 4689 4690 
304 305 530 529 329 330 555 554 2658 4521 4522 4514 2902 4692 4693 4685 2889 2899 4691 4684 4687 4694 2905 4695 4525 4696 4697 
305 306 531 530 330 331 556 555 2668 4528 4529 4521 2912 4699 4700 4692 2899 2909 4698 4691 4694 4701 2915 4702 4532 4703 4704 
306 307 532 531 331 332 557 556 2678 4535 4536 4528 2922 4706 4707 4699 2909 2919 4705 4698 4701 4708 2925 4709 4539 4710 4711 
307 308 533 532 332 333 558 557 2688 4542 4543 4535 2932 4713 4714 4706 2919 2929 4712 4705 4708 4715 2935 4716 4546 4717 4718 
308 309 534 533 333 334 559 558 2698 4549 4550 4542 2942 4720 4721 4713 2929 2939 4719 4712 4715 4722 2945 4723 4553 4724 4725 
309 310 535 534 334 335 560 559 2708 4556 4557 4549 2952 4727 4728 4720 2939 2949 4726 4719 4722 4729 2955 4730 4560 4731 4732 
310 311 536 535 335 336 561 560 2718 4563 4564 4556 2962 4734 4735 4727 2949 2959 4733 4726 4729 4736 2965 4737 4567 4738 4739 
311 312 537 536 336 337 562 561 2728 4570 4571 4563 2972 4741 4742 4734 2959 2969 4740 4733 4736 4743 2975 4744 4574 4745 4746 
312 313 538 537 337 338 563 562 2738 4577 4578 4570 2982 4748 4749 4741 2969 2979 4747 4740 4743 4750 2985 4751 4581 4752 4753 
313 314 539 538 338 339 564 563 2748 4584 4585 4577 2992 4755 4756 4748 2979 2989 4754 4747 4750 4757 2995 4758 4588 4759 4760 
314 315 540 539 339 340 565 564 2758 4591 4592 4584 3002 4762 4763 4755 2989 2999 4761 4754 4757 4764 3005 4765 4595 4766 4767 
315 316 541 540 340 341 566 565 2768 4598 4599 4591 3012 4769 4770 4762 2999 3009 4768 4761 4764 4771 3015 4772 4602 4773 4774 
316 317 542 541 341 342 567 566 2778 4605 4606 4598 3022 4776 4777 4769 3009 3019 4775 4768 4771 4778 3025 4779 4609 4780 4781 
317 318 543 542 342 343 568 567 2788 4612 4613 4605 3032 4783 4784 4776 3019 3029 4782 4775 4778 4785 3035 4786 4616 4787 4788 
318 319 544 543 343 344 569 568 2798 4619 4620 4612 3042 4790 4791 4783 3029 3039 4789 4782 4785 4792 3045 4793 4623 4794 4795 
319 320 545 544 344 345 570 569 2808 4626 4627 4619 3052 4797 4798 4790 3039 3049 4796 4789 4792 4799 3055 4800 4630 4801 4802 
320 321 546 545 345 346 571 570 2818 4633 4634 4626 3062 4804 4805 4797 3049 3059 4803 4796 4799 4806 3065 4807 4637 4808 4809 
321 322 547 546 346 347 572 571 2828 4640 4641 4633 3072 4811 4812 4804 3059 3069 4810 4803 4806 4813 3075 4814 4644 4815 4816 
322 323 548 547 347 348 573 572 2838 4647 4648 4640 3082 4818 4819 4811 3069 3079 4817 4810 4813 4820 3085 4821 4651 4822 4823 
323 324 549 548 348 349 574 573 2848 4654 4655 4647 3092 4825 4826 4818 3079 3089 4824 4817 4820 4827 3095 4828 4658 4829 4830 
325 326 551 550 350 351 576 575 2860 4662 4663 4664 3104 4833 4834 4835 3101 3100 4831 4832 4838 4836 3108 4837 4668 4839 4840 
326 327 552 551 351 352 577 576 2872 4671 4672 4662 3116 4842 4843 4833 3100 3113 4841 4831 4836 4844 3119 4845 4675 4846 4847 
327 328 553 552 352 353 578 577 2882 4678 4679 4671 3126 4849 4850 4842 3113 3123 4848 4841 4844 4851 3129 4852 4682 4853 4854 
328 329 554 553 353 354 579 578 2892 4685 4686 4678 3136 4856 4857 4849 3123 3133 4855 4848 4851 4858 3139 4859 4689 4860 4861 
329 330 555 554 354 355 580 579 2902 4692 4693 4685 3146 4863 4864 4856 3133 3143 4862 4855 4858 4865 3149 4866 4696 4867 4868 
330 331 556 555 355 356 581 580 2912 4699 4700 4692 3156 4870 4871 4863 3143 3153 4869 4862 4865 4872 3159 4873 4703 4874 4875 
331 332 557 556 356 357 582 581 2922 4706 4707 4699 3166 4877 4878 4870 3153 3163 4876 4869 4872 4879 3169 4880 4710 4881 4882 
332 333 558 557 357 358 583 582 2932 4713 4714 4706 3176 4884 4885 4877 3163 3173 4883 4876 4879 4886 3179 4887 4717 4888 4889 
333 334 559 558 358 359 584 583 2942 4720 4721 4713 3186 4891 4892 4884 3173 3183 4890 4883 4886 4893 3189 4894 4724 4895 4896 
334 335 560 559 359 360 585 584 2952 4727 4728 4720 3196 4898 4899 4891 3183 3193 4897 4890 4893 4900 3199 4901 4731 4902 4903 
335 336 561 560 360 361 586 585 2962 4734 4735 4727 3206 4905 4906 4898 3193 3203 4904 4897 4900 4907 3209 4908 4738 4909 4910 
336 337 562 561 361 362 587 586 2972 4741 4742 4734 3216 4912 4913 4905 3203 3213 4911 4904 4907 4914 3219 4915 4745 4916 4917 
337 338 563 562 362 363 588 587 2982 4748 4749 4741 3226 4919 4920 4912 3213 3223 4918 4911 4914 4921 3229 4922 4752 4923 4924 
338 339 564 563 363 364 589 588 2992 4755 4756 4748 3236 4926 4927 4919 3223 3233 4925 4918 4921 4928 3239 4929 4759 4930 4931 
339 340 565 564 364 365 590 589 3002 4762 4763 4755 3246 4933 4934 4926 3233 3243 4932 4925 4928 4935 3249 4936 4766 4937 4938 
340 341 566 565 365 366 591 590 3012 4769 4770 4762 3256 4940 4941 4933 3243 3253 4939 4932 4935 4942 3259 4943 4773 4944 4945 
341 342 567 566 366 367 592 591 3022 4776 4777 4769 3266 4947 4948 4940 3253 3263 4946 4939 4942 4949 3269 4950 4780 4951 4952 
342 343 568 567 367 368 593 592 3032 4783 4784 4776 3276 4954 4955 4947 3263 3273 4953 4946 4949 4956 3279 4957 4787 4958 4959 
343 344 569 568 368 369 594 593 3042 4790 4791 4783 3286 4961 4962 4954 3273 3283 4960 4953 4956 4963 3289 4964 4794 4965 4966 
344 345 570 569 369 370 595 594 3052 4797 4798 4790 3296 4968 4969 4961 3283 3293 4967 4960 4963 4970 3299 4971 4801 4972 4973 
345 346 571 570 370 371 596 595 3062 4804 4805 4797 3306 4975 4976 4968 3293 3303 4974 4967 4970 4977 3309 4978 4808 4979 4980 
346 347 572 571 371 372 597 596 3072 4811 4812 4804 3316 4982 4983 4975 3303 3313 4981 4974 4977 4984 3319 4985 4815 4986 4987 
347 348 573 572 372 373 598 597 3082 4818 4819 4811 3326 4989 4990 4982 3313 3323 4988 4981 4984 4991 3329 4992 4822 4993 4994 
348 349 574 573 373 374 599 598 3092 4825 4826 4818 3336 4996 4997 4989 3323 3333 4995 4988 4991 4998 3339 4999 4829 5000 5001 
350 351 576 575 375 376 601 600 3104 4833 4834 4835 3348 5004 5005 5006 3345 3344 5002 5003 5009 5007 3352 5008 4839 5010 5011 
351 352 577 576 376 377 602 601 3116 4842 4843 4833 3360 5013 5014 5004 3344 3357 5012 5002 5007 5015 3363 5016 4846 5017 5018 
352 353 578 577 377 378 603 602 3126 4849 4850 4842 3370 5020 5021 5013 3357 3367 5019 5012 5015 5022 3373 5023 4853 5024 5025 
353 354 579 578 378 379 604 603 3136 4856 4857 4849 3380 5027 5028 5020 3367 3377 5026 5019 5022 5029 3383 5030 4860 5031 5032 
354 355 580 579 379 380 605 604 3146 4863 4864 4856 3390 5034 5035 5027 3377 3387 5033 5026 5029 5036 3393 5037 4867 5038 5039 
355 356 581 580 380 381 606 605 3156 4870 4871 4863 3400 5041 5042 5034 3387 3397 5040 5033 5036 5043 3403 5044 4874 5045 5046 
356 357 582 581 381 382 607 606 3166 4877 4878 4870 3410 5048 5049 5041 3397 3407 5047 5040 5043 5050 3413 5051 4881 5052 5053 
357 358 583 582 382 383 608 607 3176 4884 4885 4877 3420 5055 5056 5048 3407 3417 5054 5047 5050 5057 3423 5058 4888 5059 5060 
358 359 584 583 383 384 609 608 3186 4891 4892 4884 3430 5062 5063 5055 3417 3427 5061 5054 5057 5064 3433 5065 4895 5066 5067 
359 360 585 584 384 385 610 609 3196 4898 4899 4891 3440 5069 5070 5062 3427 3437 5068 5061 5064 5071 3443 5072 4902 5073 5074 
360 361 586 585 385 386 611 610 3206 4905 4906 4898 3450 5076 5077 5069 3437 3447 5075 5068 5071 5078 3453 5079 4909 5080 5081 
361 362 587 586 386 387 612 611 3216 4912 4913 4905 3460 5083 5084 5076 3447 3457 5082 5075 5078 5085 3463 5086 4916 5087 5088 
362 363 588 587 387 388 613 612 3226 4919 4920 4912 3470 5090 5091 5083 3457 3467 5089 5082 5085 5092 3473 5093 4923 5094 5095 
363 364 589 588 388 389 614 613 3236 4926 4927 4919 3480 5097 5098 5090 3467 3477 5096 5089 5092 5099 3483 5100 4930 5101 5102 
364 365 590 589 389 390 615 614 3246 4933 4934 4926 3490 5104 5105 5097 3477 3487 5103 5096 5099 5106 3493 5107 4937 5108 5109 
365 366 591 590 390 391 616 615 3256 4940 4941 4933 3500 5111 5112 5104 3487 3497 5110 5103 5106 5113 3503 5114 4944 5115 5116 
366 367 592 591 391 392 617 616 3266 4947 4948 4940 3510 5118 5119 5111 3497 3507 5117 5110 5113 5120 3513 5121 4951 5122 5123 
367 368 593 592 392 393 618 617 3276 4954 4955 4947 3520 5125 5126 5118 3507 3517 5124 5117 5120 5127 3523 5128 4958 5129 5130 
368 369 594 593 393 394 619 618 3286 4961 4962 4954 3530 5132 5133 5125 3517 3527 5131 5124 5127 5134 3533 5135 4965 5136 5137 
369 370 595 594 394 395 620 619 3296 4968 4969 4961 3540 5139 5140 5132 3527 3537 5138 5131 5134 5141 3543 5142 4972 5143 5144 
370 371 596 595 395 396 621 620 3306 4975 4976 4968 3550 5146 5147 5139 3537 3547 5145 5138 5141 5148 3553 5149 4979 5150 5151 
371 372 597 596 396 397 622 621 3316 4982 4983 4975 3560 5153 5154 5146 3547 3557 5152 5145 5148 5155 3563 5156 4986 5157 5158 
372 373 598 597 397 398 623 622 3326 4989 4990 4982 3570 5160 5161 5153 3557 3567 5159 5152 5155 5162 3573 5163 4993 5164 5165 
373 374 599 598 398 399 624 623 3336 4996 4997 4989 3580 5167 5168 5160 3567 3577 5166 5159 5162 5169 3583 5170 5000 5171 5172 
375 376 601 600 400 401 626 625 3348 5004 5005 5006 3592 5175 5176 5177 3589 3588 5173 5174 5180 5178 3596 5179 5010 5181 5182 
376 377 602 601 401 402 627 626 3360 5013 5014 5004 3604 5184 5185 5175 3588 3601 5183 5173 5178 5186 3607 5187 5017 5188 5189 
377 378 603 602 402 403 628 627 3370 5020 5021 5013 3614 5191 5192 5184 3601 3611 5190 5183 5186 5193 3617 5194 5024 5195 5196 
378 379 604 603 403 404 629 628 3380 5027 5028 5020 3624 5198 5199 5191 3611 3621 5197 5190 5193 5200 3627 5201 5031 5202 5203 
379 380 605 604 404 405 630 629 3390 5034 5035 5027 3634 5205 5206 5198 3621 3631 5204 5197 5200 5207 3637 5208 5038 5209 5210 
380 381 606 605 405 406 631 630 3400 5041 5042 5034 3644 5212 5213 5205 3631 3641 5211 5204 5207 5214 3647 5215 5045 5216 5217 
381 382 607 606 406 407 632 631 3410 5048 5049 5041 3654 5219 5220 5212 3641 3651 5218 5211 5214 5221 3657 5222 5052 5223 5224 
382 383 608 607 407 408 633 632 3420 5055 5056 5048 3664 5226 5227 5219 3651 3661 5225 5218 5221 5228 3667 5229 5059 5230 5231 
383 384 609 608 408 409 634 633 3430 5062 5063 5055 3674 5233 5234 5226 3661 3671 5232 5225 5228 5235 3677 5236 5066 5237 5238 
384 385 610 609 409 410 635 634 3440 5069 5070 5062 3684 5240 5241 5233 3671 3681 5239 5232 5235 5242 3687 5243 5073 5244 5245 
385 386 611 610 410 411 636 635 3450 5076 5077 5069 3694 5247 5248 5240 3681 3691 5246 5239 5242 5249 3697 5250 5080 5251 5252 
386 387 612 611 411 412 637 636 3460 5083 5084 5076 3704 5254 5255 5247 3691 3701 5253 5246 5249 5256 3707 5257 5087 5258 5259 
387 388 613 612 412 413 638 637 3470 5090 5091 5083 3714 5261 5262 5254 3701 3711 5260 5253 5256 5263 3717 5264 5094 5265 5266 
388 389 614 613 413 414 639 638 3480 5097 5098 5090 3724 5268 5269 5261 3711 3721 5267 5260 5263 5270 3727 5271 5101 5272 5273 
389 390 615 614 414 415 640 639 3490 5104 5105 5097 3734 5275 5276 5268 3721 3731 5274 5267 5270 5277 3737 5278 5108 5279 5280 
390 391 616 615 415 416 641 640 3500 5111 5112 5104 3744 5282 5283 5275 3731 3741 5281 5274 5277 5284 3747 5285 5115 5286 5287 
391 392 617 616 416 417 642 641 3510 5118 5119 5111 3754 5289 5290 5282 3741 3751 5288 5281 5284 5291 3757 5292 5122 5293 5294 
392 393 618 617 417 418 643 642 3520 5125 5126 5118 3764 5296 5297 5289 3751 3761 5295 5288 5291 5298 3767 5299 5129 5300 5301 
393 394 619 618 418 419 644 643 3530 5132 5133 5125 3774 5303 5304 5296 3761 3771 5302 5295 5298 5305 3777 5306 5136 5307 5308 
394 395 620 619 419 420 645 644 3540 5139 5140 5132 3784 5310 5311 5303 3771 3781 5309 5302 5305 5312 3787 5313 5143 5314 5315 
395 396 621 620 420 421 646 645 3550 5146 5147 5139 3794 5317 5318 5310 3781 3791 5316 5309 5312 5319 3797 5320 5150 5321 5322 
396 397 622 621 421 422 647 646 3560 5153 5154 5146 3804 5324 5325 5317 3791 3801 5323 5316 5319 5326 3807 5327 5157 5328 5329 
397 398 623 622 422 423 648 647 3570 5160 5161 5153 3814 5331 5332 5324 3801 3811 5330 5323 5326 5333 3817 5334 5164 5335 5336 
398 399 624 623 423 424 649 648 3580 5167 5168 5160 3824 5338 5339 5331 3811 3821 5337 5330 5333 5340 3827 5341 5171 5342 5343 
400 401 626 625 425 426 651 650 3592 5175 5176 5177 3836 5346 5347 5348 3833 3832 5344 5345 5351 5349 3840 5350 5181 5352 5353 
401 402 627 626 426 427 652 651 3604 5184 5185 5175 3848 5355 5356 5346 3832 3845 5354 5344 5349 5357 3851 5358 5188 5359 5360 
402 403 628 627 427 428 653 652 3614 5191 5192 5184 3858 5362 5363 5355 3845 3855 5361 5354 5357 5364 3861 5365 5195 5366 5367 
403 404 629 628 428 429 654 653 3624 5198 5199 5191 3868 5369 5370 5362 3855 3865 5368 5361 5364 5371 3871 5372 5202 5373 5374 
404 405 630 629 429 430 655 654 3634 5205 5206 5198 3878 5376 5377 5369 3865 3875 5375 5368 5371 5378 3881 5379 5209 5380 5381 
405 406 631 630 430 431 656 655 3644 5212 5213 5205 3888 5383 5384 5376 3875 3885 5382 5375 5378 5385 3891 5386 5216 5387 5388 
406 407 632 631 431 432 657 656 3654 5219 5220 5212 3898 5390 5391 5383 3885 3895 5389 5382 5385 5392 3901 5393 5223 5394 5395 
407 408 633 632 432 433 658 657 3664 5226 5227 5219 3908 5397 5398 5390 3895 3905 5396 5389 5392 5399 3911 5400 5230 5401 5402 
408 409 634 633 433 434 659 658 3674 5233 5234 5226 3918 5404 5405 5397 3905 3915 5403 5396 5399 5406 3921 5407 5237 5408 5409 
409 410 635 634 434 435 660 659 3684 5240 5241 5233 3928 5411 5412 5404 3915 3925 5410 5403 5406 5413 3931 5414 5244 5415 5416 
410 411 636 635 435 436 661 660 3694 5247 5248 5240 3938 5418 5419 5411 3925 3935 5417 5410 5413 5420 3941 5421 5251 5422 5423 
411 412 637 636 436 437 662 661 3704 5254 5255 5247 3948 5425 5426 5418 3935 3945 5424 5417 5420 5427 3951 5428 5258 5429 5430 
412 413 638 637 437 438 663 662 3714 5261 5262 5254 3958 5432 5433 5425 3945 3955 5431 5424 5427 5434 3961 5435 5265 5436 5437 
413 414 639 638 438 439 664 663 3724 5268 5269 5261 3968 5439 5440 5432 3955 3965 5438 5431 5434 5441 3971 5442 5272 5443 5444 
414 415 640 639 439 440 665 664 3734 5275 5276 5268 3978 5446 5447 5439 3965 3975 5445 5438 5441 5448 3981 5449 5279 5450 5451 
415 416 641 640 440 441 666 665 3744 5282 5283 5275 3988 5453 5454 5446 3975 3985 5452 5445 5448 5455 3991 5456 5286 5457 5458 
416 417 642 641 441 442 667 666 3754 5289 5290 5282 3998 5460 5461 5453 3985 3995 5459 5452 5455 5462 4001 5463 5293 5464 5465 
417 418 643 642 442 443 668 667 3764 5296 5297 5289 4008 5467 5468 5460 3995 4005 5466 5459 5462 5469 4011 5470 5300 5471 5472 
418 419 644 643 443 444 669 668 3774 5303 5304 5296 4018 5474 5475 5467 4005 4015 5473 5466 5469 5476 4021 5477 5307 5478 5479 
419 420 645 644 444 445 670 669 3784 5310 5311 5303 4028 5481 5482 5474 4015 4025 5480 5473 5476 5483 4031 5484 5314 5485 5486 
420 421 646 645 445 446 671 670 3794 5317 5318 5310 4038 5488 5489 5481 4025 4035 5487 5480 5483 5490 4041 5491 5321 5492 5493 
421 422 647 646 446 447 672 671 3804 5324 5325 5317 4048 5495 5496 5488 4035 4045 5494 5487 5490 5497 4051 5498 5328 5499 5500 
422 423 648 647 447 448 673 672 3814 5331 5332 5324 4058 5502 5503 5495 4045 4055 5501 5494 5497 5504 4061 5505 5335 5506 5507 
423 424 649 648 448 449 674 673 3824 5338 5339 5331 4068 5509 5510 5502 4055 4065 5508 5501 5504 5511 4071 5512 5342 5513 5514 
450 451 676 675 475 476 701 700 4075 5515 5516 5517 4080 5520 5521 5522 4078 4077 5518 5519 5526 5524 4084 5525 5523 5527 5528 
451 452 677 676 476 477 702 701 4089 5529 5530 5515 4092 5532 5533 5520 4077 4090 5531 5518 5524 5535 4095 5536 5534 5537 5538 
452 453 678 677 477 478 703 702 4099 5539 5540 5529 4102 5542 5543 5532 4090 4100 5541 5531 5535 5545 4105 5546 5544 5547 5548 
453 454 679 678 478 479 704 703 4109 5549 5550 5539 4112 5552 5553 5542 4100 4110 5551 5541 5545 5555 4115 5556 5554 5557 5558 
454 455 680 679 479 480 705 704 4119 5559 5560 5549 4122 5562 5563 5552 4110 4120 5561 5551 5555 5565 4125 5566 5564 5567 5568 
455 456 681 680 480 481 706 705 4129 5569 5570 5559 4132 5572 5573 5562 4120 4130 5571 5561 5565 5575 4135 5576 5574 5577 5578 
456 457 682 681 481 482 707 706 4139 5579 5580 5569 4142 5582 5583 5572 4130 4140 5581 5571 5575 5585 4145 5586 5584 5587 5588 
457 458 683 682 482 483 708 707 4149 5589 5590 5579 4152 5592 5593 5582 4140 4150 5591 5581 5585 5595 4155 5596 5594 5597 5598 
458 459 684 683 483 484 709 708 4159 5599 5600 5589 4162 5602 5603 5592 4150 4160 5601 5591 5595 5605 4165 5606 5604 5607 5608 
459 460 685 684 484 485 710 709 4169 5609 5610 5599 4172 5612 5613 5602 4160 4170 5611 5601 5605 5615 4175 5616 5614 5617 5618 
460 461 686 685 485 486 711 710 4179 5619 5620 5609 4182 5622 5623 5612 4170 4180 5621 5611 5615 5625 4185 5626 5624 5627 5628 
461 462 687 686 486 487 712 711 4189 5629 5630 5619 4192 5632 5633 5622 4180 4190 5631 5621 5625 5635 4195 5636 5634 5637 5638 
462 463 688 687 487 488 713 712 4199 5639 5640 5629 4202 5642 5643 5632 4190 4200 5641 5631 5635 5645 4205 5646 5644 5647 5648 
463 464 689 688 488 489 714 713 4209 5649 5650 5639 4212 5652 5653 5642 4200 4210 5651 5641 5645 5655 4215 5656 5654 5657 5658 
464 465 690 689 489 490 715 714 4219 5659 5660 5649 4222 5662 5663 5652 4210 4220 5661 5651 5655 5665 4225 5666 5664 5667 5668 
465 466 691 690 490 491 716 715 4229 5669 5670 5659 4232 5672 5673 5662 4220 4230 5671 5661 5665 5675 4235 5676 5674 5677 5678 
466 467 692 691 491 492 717 716 4239 5679 5680 5669 4242 5682 5683 5672 4230 4240 5681 5671 5675 5685 4245 5686 5684 5687 5688 
467 468 693 692 492 493 718 717 4249 5689 5690 5679 4252 5692 5693 5682 4240 4250 5691 5681 5685 5695 4255 5696 5694 5697 5698 
468 469 694 693 493 494 719 718 4259 5699 5700 5689 4262 5702 5703 5692 4250 4260 5701 5691 5695 5705 4265 5706 5704 5707 5708 
469 470 695 694 494 495 720 719 4269 5709 5710 5699 4272 5712 5713 5702 4260 4270 5711 5701 5705 5715 4275 5716 5714 5717 5718 
470 471 696 695 495 496 721 720 4279 5719 5720 5709 4282 5722 5723 5712 4270 4280 5721 5711 5715 5725 4285 5726 5724 5727 5728 
471 472 697 696 496 497 722 721 4289 5729 5730 5719 4292 5732 5733 5722 4280 4290 5731 5721 5725 5735 4295 5736 5734 5737 5738 
472 473 698 697 497 498 723 722 4299 5739 5740 5729 4302 5742 5743 5732 4290 4300 5741 5731 5735 5745 4305 5746 5744 5747 5748 
473 474 699 698 498 499 724 723 4309 5749 5750 5739 4312 5752 5753 5742 4300 4310 5751 5741 5745 5755 4315 5756 5754 5757 5758 
475 476 701 700 500 501 726 725 4080 5520 5521 5522 4321 5761 5762 5763 4319 4318 5759 5760 5766 5764 4324 5765 5527 5767 5768 
476 477 702 701 501 502 727 726 4092 5532 5533 5520 4330 5770 5771 5761 4318 4328 5769 5759 5764 5772 4332 5773 5537 5774 5775 
477 478 703 702 502 503 728 727 4102 5542 5543 5532 4337 5777 5778 5770 4328 4335 5776 5769 5772 5779 4339 5780 5547 5781 5782 
478 479 704 703 503 504 729 728 4112 5552 5553 5542 4344 5784 5785 5777 4335 4342 5783 5776 5779 5786 4346 5787 5557 5788 5789 
479 480 705 704 504 505 730 729 4122 5562 5563 5552 4351 5791 5792 5784 4342 4349 5790 5783 5786 5793 4353 5794 5567 5795 5796 
480 481 706 705 505 506 731 730 4132 5572 5573 5562 4358 5798 5799 5791 4349 4356 5797 5790 5793 5800 4360 5801 5577 5802 5803 
481 482 707 706 506 507 732 731 4142 5582 5583 5572 4365 5805 5806 5798 4356 4363 5804 5797 5800 5807 4367 5808 5587 5809 5810 
482 483 708 707 507 508 733 732 4152 5592 5593 5582 4372 5812 5813 5805 4363 4370 5811 5804 5807 5814 4374 5815 5597 5816 5817 
483 484 709 708 508 509 734 733 4162 5602 5603 5592 4379 5819 5820 5812 4370 4377 5818 5811 5814 5821 4381 5822 5607 5823 5824 
484 485 710 709 509 510 735 734 4172 5612 5613 5602 4386 5826 5827 5819 4377 4384 5825 5818 5821 5828 4388 5829 5617 5830 5831 
485 486 711 710 510 511 736 735 4182 5622 5623 5612 4393 5833 5834 5826 4384 4391 5832 5825 5828 5835 4395 5836 5627 5837 5838 
486 487 712 711 511 512 737 736 4192 5632 5633 5622 4400 5840 5841 5833 4391 4398 5839 5832 5835 5842 4402 5843 5637 5844 5845 
487 488 713 712 512 513 738 737 4202 5642 5643 5632 4407 5847 5848 5840 4398 4405 5846 5839 5842 5849 4409 5850 5647 5851 5852 
488 489 714 713 513 514 739 738 4212 5652 5653 5642 4414 5854 5855 5847 4405 4412 5853 5846 5849 5856 4416 5857 5657 5858 5859 
489 490 715 714 514 515 740 739 4222 5662 5663 5652 4421 5861 5862 5854 4412 4419 5860 5853 5856 5863 4423 5864 5667 5865 5866 
490 491 716 715 515 516 741 740 4232 5672 5673 5662 4428 5868 5869 5861 4419 4426 5867 5860 5863 5870 4430 5871 5677 5872 5873 
491 492 717 716 516 517 742 741 4242 5682 5683 5672 4435 5875 5876 5868 4426 4433 5874 5867 5870 5877 4437 5878 5687 5879 5880 
492 493 718 717 517 518 743 742 4252 5692 5693 5682 4442 5882 5883 5875 4433 4440 5881 5874 5877 5884 4444 5885 5697 5886 5887 
493 494 719 718 518 519 744 743 4262 5702 5703 5692 4449 5889 5890 5882 4440 4447 5888 5881 5884 5891 4451 5892 5707 5893 5894 
494 495 720 719 519 520 745 744 4272 5712 5713 5702 4456 5896 5897 5889 4447 4454 5895 5888 5891 5898 4458 5899 5717 5900 5901 
495 496 721 720 520 521 746 745 4282 5722 5723 5712 4463 5903 5904 5896 4454 4461 5902 5895 5898 5905 4465 5906 5727 5907 5908 
496 497 722 721 521 522 747 746 4292 5732 5733 5722 4470 5910 5911 5903 4461 4468 5909 5902 5905 5912 4472 5913 5737 5914 5915 
497 498 723 722 522 523 748 747 4302 5742 5743 5732 4477 5917 5918 5910 4468 4475 5916 5909 5912 5919 4479 5920 5747 5921 5922 
498 499 724 723 523 524 749 748 4312 5752 5753 5742 4484 5924 5925 5917 4475 4482 5923 5916 5919 5926 4486 5927 5757 5928 5929 
500 501 726 725 525 526 751 750 4321 5761 5762 5763 4492 5932 5933 5934 4490 4489 5930 5931 5937 5935 4495 5936 5767 5938 5939 
501 502 727 726 526 527 752 751 4330 5770 5771 5761 4501 5941 5942 5932 4489 4499 5940 5930 5935 5943 4503 5944 5774 5945 5946 
502 503 728 727 527 528 753 752 4337 5777 5778 5770 4508 5948 5949 5941 4499 4506 5947 5940 5943 5950 4510 5951 5781 5952 5953 
503 504 729 728 528 529 754 753 4344 5784 5785 5777 4515 5955 5956 5948 4506 4513 5954 5947 5950 5957 4517 5958 5788 5959 5960 
504 505 730 729 529 530 755 754 4351 5791 5792 5784 4522 5962 5963 5955 4513 4520 5961 5954 5957 5964 4524 5965 5795 5966 5967 
505 506 731 730 530 531 756 755 4358 5798 5799 5791 4529 5969 5970 5962 4520 4527 5968 5961 5964 5971 4531 5972 5802 5973 5974 
506 507 732 731 531 532 757 756 4365 5805 5806 5798 4536 5976 5977 5969 4527 4534 5975 5968 5971 5978 4538 5979 5809 5980 5981 
507 508 733 732 532 533 758 757 4372 5812 5813 5805 4543 5983 5984 5976 4534 4541 5982 5975 5978 5985 4545 5986 5816 5987 5988 
508 509 734 733 533 534 759 758 4379 5819 5820 5812 4550 5990 5991 5983 4541 4548 5989 5982 5985 5992 4552 5993 5823 5994 5995 
509 510 735 734 534 535 760 759 4386 5826 5827 5819 4557 5997 5998 5990 4548 4555 5996 5989 5992 5999 4559 6000 5830 6001 6002 
510 511 736 735 535 536 761 760 4393 5833 5834 5826 4564 6004 6005 5997 4555 4562 6003 5996 5999 6006 4566 6007 5837 6008 6009 
511 512 737 736 536 537 762 761 4400 5840 5841 5833 4571 6011 6012 6004 4562 4569 6010 6003 6006 6013 4573 6014 5844 6015 6016 
512 513 738 737 537 538 763 762 4407 5847 5848 5840 4578 6018 6019 6011 4569 4576 6017 6010 6013 6020 4580 6021 5851 6022 6023 
513 514 739 738 538 539 764 763 4414 5854 5855 5847 4585 6025 6026 6018 4576 4583 6024 6017 6020 6027 4587 6028 5858 6029 6030 
514 515 740 739 539 540 765 764 4421 5861 5862 5854 4592 6032 6033 6025 4583 4590 6031 6024 6027 6034 4594 6035 5865 6036 6037 
515 516 741 740 540 541 766 765 4428 5868 5869 5861 4599 6039 6040 6032 4590 4597 6038 6031 6034 6041 4601 6042 5872 6043 6044 
516 517 742 741 541 542 767 766 4435 5875 5876 5868 4606 6046 6047 6039 4597 4604 6045 6038 6041 6048 4608 6049 5879 6050 6051 
517 518 743 742 542 543 768 767 4442 5882 5883 5875 4613 6053 6054 6046 4604 4611 6052 6045 6048 6055 4615 6056 5886 6057 6058 
518 519 744 743 543 544 769 768 4449 5889 5890 5882 4620 6060 6061 6053 4611 4618 6059 6052 6055 6062 4622 6063 5893 6064 6065 
519 520 745 744 544 545 770 769 4456 5896 5897 5889 4627 6067 6068 6060 4618 4625 6066 6059 6062 6069 4629 6070 5900 6071 6072 
520 521 746 745 545 546 771 770 4463 5903 5904 5896 4634 6074 6075 6067 4625 4632 6073 6066 6069 6076 4636 6077 5907 6078 6079 
521 522 747 746 546 547 772 771 4470 5910 5911 5903 4641 6081 6082 6074 4632 4639 6080 6073 6076 6083 4643 6084 5914 6085 6086 
522 523 748 747 547 548 773 772 4477 5917 5918 5910 4648 6088 6089 6081 4639 4646 6087 6080 6083 6090 4650 6091 5921 6092 6093 
523 524 749 748 548 549 774 773 4484 5924 5925 5917 4655 6095 6096 6088 4646 4653 6094 6087 6090 6097 4657 6098 5928 6099 6100 
525 526 751 750 550 551 776 775 4492 5932 5933 5934 4663 6103 6104 6105 4661 4660 6101 6102 6108 6106 4666 6107 5938 6109 6110 
526 527 752 751 551 552 777 776 4501 5941 5942 5932 4672 6112 6113 6103 4660 4670 6111 6101 6106 6114 4674 6115 5945 6116 6117 
527 528 753 752 552 553 778 777 4508 5948 5949 5941 4679 6119 6120 6112 4670 4677 6118 6111 6114 6121 4681 6122 5952 6123 6124 
528 529 754 753 553 554 779 778 4515 5955 5956 5948 4686 6126 6127 6119 4677 4684 6125 6118 6121 6128 4688 6129 5959 6130 6131 
529 530 755 754 554 555 780 779 4522 5962 5963 5955 4693 6133 6134 6126 4684 4691 6132 6125 6128 6135 4695 6136 5966 6137 6138 
530 531 756 755 555 556 781 780 4529 5969 5970 5962 4700 6140 6141 6133 4691 4698 6139 6132 6135 6142 4702 6143 5973 6144 6145 
531 532 757 756 556 557 782 781 4536 5976 5977 5969 4707 6147 6148 6140 4698 4705 6146 6139 6142 6149 4709 6150 5980 6151 6152 
532 533 758 757 557 558 783 782 4543 5983 5984 5976 4714 6154 6155 6147 4705 4712 6153 6146 6149 6156 4716 6157 5987 6158 6159 
533 534 759 758 558 559 784 783 4550 5990 5991 5983 4721 6161 6162 6154 4712 4719 6160 6153 6156 6163 4723 6164 5994 6165 6166 
534 535 760 759 559 560 785 784 4557 5997 5998 5990 4728 6168 6169 6161 4719 4726 6167 6160 6163 6170 4730 6171 6001 6172 6173 
535 536 761 760 560 561 786 785 4564 6004 6005 5997 4735 6175 6176 6168 4726 4733 6174 6167 6170 6177 4737 6178 6008 6179 6180 
536 537 762 761 561 562 787 786 4571 6011 6012 6004 4742 6182 6183 6175 4733 4740 6181 6174 6177 6184 4744 6185 6015 6186 6187 
537 538 763 762 562 563 788 787 4578 6018 6019 6011 4749 6189 6190 6182 4740 4747 6188 6181 6184 6191 4751 6192 6022 6193 6194 
538 539 764 763 563 564 789 788 4585 6025 6026 6018 4756 6196 6197 6189 4747 4754 6195 6188 6191 6198 4758 6199 6029 6200 6201 
539 540 765 764 564 565 790 789 4592 6032 6033 6025 4763 6203 6204 6196 4754 4761 6202 6195 6198 6205 4765 6206 6036 6207 6208 
540 541 766 765 565 566 791 790 4599 6039 6040 6032 4770 6210 6211 6203 4761 4768 6209 6202 6205 6212 4772 6213 6043 6214 6215 
541 542 767 766 566 567 792 791 4606 6046 6047 6039 4777 6217 6218 6210 4768 4775 6216 6209 6212 6219 4779 6220 6050 6221 6222 
542 543 768 767 567 568 793 792 4613 6053 6054 6046 4784 6224 6225 6217 4775 4782 6223 6216 6219 6226 4786 6227 6057 6228 6229 
543 544 769 768 568 569 794 793 4620 6060 6061 6053 4791 6231 6232 6224 4782 4789 6230 6223 6226 6233 4793 6234 6064 6235 6236 
544 545 770 769 569 570 795 794 4627 6067 6068 6060 4798 6238 6239 6231 4789 4796 6237 6230 6233 6240 4800 6241 6071 6242 6243 
545 546 771 770 570 571 796 795 4634 6074 6075 6067 4805 6245 6246 6238 4796 4803 6244 6237 6240 6247 4807 6248 6078 6249 6250 
546 547 772 771 571 572 797 796 4641 6081 6082 6074 4812 6252 6253 6245 4803 4810 6251 6244 6247 6254 4814 6255 6085 6256 6257 
547 548 773 772 572 573 798 797 4648 6088 6089 6081 4819 6259 6260 6252 4810 4817 6258 6251 6254 6261 4821 6262 6092 6263 6264 
548 549 774 773 573 574 799 798 4655 6095 6096 6088 4826 6266 6267 6259 4817 4824 6265 6258 6261 6268 4828 6269 6099 6270 6271 
550 551 776 775 575 576 801 800 4663 6103 6104 6105 4834 6274 6275 6276 4832 4831 6272 6273 6279 6277 4837 6278 6109 6280 6281 
551 552 777 776 576 577 802 801 4672 6112 6113 6103 4843 6283 6284 6274 4831 4841 6282 6272 6277 6285 4845 6286 6116 6287 6288 
552 553 778 777 577 578 803 802 4679 6119 6120 6112 4850 6290 6291 6283 4841 4848 6289 6282 6285 6292 4852 6293 6123 6294 6295 
553 554 779 778 578 579 804 803 4686 6126 6127 6119 4857 6297 6298 6290 4848 4855 6296 6289 6292 6299 4859 6300 6130 6301 6302 
554 555 780 779 579 580 805 804 4693 6133 6134 6126 4864 6304 6305 6297 4855 4862 6303 6296 6299 6306 4866 6307 6137 6308 6309 
555 556 781 780 580 581 806 805 4700 6140 6141 6133 4871 6311 6312 6304 4862 4869 6310 6303 6306 6313 4873 6314 6144 6315 6316 
556 557 782 781 581 582 807 806 4707 6147 6148 6140 4878 6318 6319 6311 4869 4876 6317 6310 6313 6320 4880 6321 6151 6322 6323 
557 558 783 782 582 583 808 807 4714 6154 6155 6147 4885 6325 6326 6318 4876 4883 6324 6317 6320 6327 4887 6328 6158 6329 6330 
558 559 784 783 583 584 809 808 4721 6161 6162 6154 4892 6332 6333 6325 4883 4890 6331 6324 6327 6334 4894 6335 6165 6336 6337 
559 560 785 784 584 585 810 809 4728 6168 6169 6161 4899 6339 6340 6332 4890 4897 6338 6331 6334 6341 4901 6342 6172 6343 6344 
560 561 786 785 585 586 811 810 4735 6175 6176 6168 4906 6346 6347 6339 4897 4904 6345 6338 6341 6348 4908 6349 6179 6350 6351 
561 562 787 786 586 587 812 811 4742 6182 6183 6175 4913 6353 6354 6346 4904 4911 6352 6345 6348 6355 4915 6356 6186 6357 6358 
562 563 788 787 587 588 813 812 4749 6189 6190 6182 4920 6360 6361 6353 4911 4918 6359 6352 6355 6362 4922 6363 6193 6364 6365 
563 564 789 788 588 589 814 813 4756 6196 6197 6189 4927 6367 6368 6360 4918 4925 6366 6359 6362 6369 4929 6370 6200 6371 6372 
564 565 790 789 589 590 815 814 4763 6203 6204 6196 4934 6374 6375 6367 4925 4932 6373 6366 6369 6376 4936 6377 6207 6378 6379 
565 566 791 790 590 591 816 815 4770 6210 6211 6203 4941 6381 6382 6374 4932 4939 6380 6373 6376 6383 4943 6384 6214 6385 6386 
566 567 792 791 591 592 817 816 4777 6217 6218 6210 4948 6388 6389 6381 4939 4946 6387 6380 6383 6390 4950 6391 6221 6392 6393 
567 568 793 792 592 593 818 817 4784 6224 6225 6217 4955 6395 6396 6388 4946 4953 6394 6387 6390 6397 4957 6398 6228 6399 6400 
568 569 794 793 593 594 819 818 4791 6231 6232 6224 4962 6402 6403 6395 4953 4960 6401 6394 6397 6404 4964 6405 6235 6406 6407 
569 570 795 794 594 595 820 819 4798 6238 6239 6231 4969 6409 6410 6402 4960 4967 6408 6401 6404 6411 4971 6412 6242 6413 6414 
570 571 796 795 595 596 821 820 4805 6245 6246 6238 4976 6416 6417 6409 4967 4974 6415 6408 6411 6418 4978 6419 6249 6420 6421 
571 572 797 796 596 597 822 821 4812 6252 6253 6245 4983 6423 6424 6416 4974 4981 6422 6415 6418 6425 4985 6426 6256 6427 6428 
572 573 798 797 597 598 823 822 4819 6259 6260 6252 4990 6430 6431 6423 4981 4988 6429 6422 6425 6432 4992 6433 6263 6434 6435 
573 574 799 798 598 599 824 823 4826 6266 6267 6259 4997 6437 6438 6430 4988 4995 6436 6429 6432 6439 4999 6440 6270 6441 6442 
575 576 801 800 600 601 826 825 4834 6274 6275 6276 5005 6445 6446 6447 5003 5002 6443 6444 6450 6448 5008 6449 6280 6451 6452 
576 577 802 801 601 602 827 826 4843 6283 6284 6274 5014 6454 6455 6445 5002 5012 6453 6443 6448 6456 5016 6457 6287 6458 6459 
577 578 803 802 602 603 828 827 4850 6290 6291 6283 5021 6461 6462 6454 5012 5019 6460 6453 6456 6463 5023 6464 6294 6465 6466 
578 579 804 803 603 604 829 828 4857 6297 6298 6290 5028 6468 6469 6461 5019 5026 6467 6460 6463 6470 5030 6471 6301 6472 6473 
579 580 805 804 604 605 830 829 4864 6304 6305 6297 5035 6475 6476 6468 5026 5033 6474 6467 6470 6477 5037 6478 6308 6479 6480 
580 581 806 805 605 606 831 830 4871 6311 6312 6304 5042 6482 6483 6475 5033 5040 6481 6474 6477 6484 5044 6485 6315 6486 6487 
581 582 807 806 606 607 832 831 4878 6318 6319 6311 5049 6489 6490 6482 5040 5047 6488 6481 6484 6491 5051 6492 6322 6493 6494 
582 583 808 807 607 608 833 832 4885 6325 6326 6318 5056 6496 6497 6489 5047 5054 6495 6488 6491 6498 5058 6499 6329 6500 6501 
583 584 809 808 608 609 834 833 4892 6332 6333 6325 5063 6503 6504 6496 5054 5061 6502 6495 6498 6505 5065 6506 6336 6507 6508 
584 585 810 809 609 610 835 834 4899 6339 6340 6332 5070 6510 6511 6503 5061 5068 6509 6502 6505 6512 5072 6513 6343 6514 6515 
585 586 811 810 610 611 836 835 4906 6346 6347 6339 5077 6517 6518 6510 5068 5075 6516 6509 6512 6519 5079 6520 6350 6521 6522 
586 587 812 811 611 612 837 836 4913 6353 6354 6346 5084 6524 6525 6517 5075 5082 6523 6516 6519 6526 5086 6527 6357 6528 6529 
587 588 813 812 612 613 838 837 4920 6360 6361 6353 5091 6531 6532 6524 5082 5089 6530 6523 6526 6533 5093 6534 6364 6535 6536 
588 589 814 813 613 614 839 838 4927 6367 6368 6360 5098 6538 6539 6531 5089 5096 6537 6530 6533 6540 5100 6541 6371 6542 6543 
589 590 815 814 614 615 840 839 4934 6374 6375 6367 5105 6545 6546 6538 5096 5103 6544 6537 6540 6547 5107 6548 6378 6549 6550 
590 591 816 815 615 616 841 840 4941 6381 6382 6374 5112 6552 6553 6545 5103 5110 6551 6544 6547 6554 5114 6555 6385 6556 6557 
591 592 817 816 616 617 842 841 4948 6388 6389 6381 5119 6559 6560 6552 5110 5117 6558 6551 6554 6561 5121 6562 6392 6563 6564 
592 593 818 817 617 618 843 842 4955 6395 6396 6388 5126 6566 6567 6559 5117 5124 6565 6558 6561 6568 5128 6569 6399 6570 6571 
593 594 819 818 618 619 844 843 4962 6402 6403 6395 5133 6573 6574 6566 5124 5131 6572 6565 6568 6575 5135 6576 6406 6577 6578 
594 595 820 819 619 620 845 844 4969 6409 6410 6402 5140 6580 6581 6573 5131 5138 6579 6572 6575 6582 5142 6583 6413 6584 6585 
595 596 821 820 620 621 846 845 4976 6416 6417 6409 5147 6587 6588 6580 5138 5145 6586 6579 6582 6589 5149 6590 6420 6591 6592 
596 597 822 821 621 622 847 846 4983 6423 6424 6416 5154 6594 6595 6587 5145 5152 6593 6586 6589 6596 5156 6597 6427 6598 6599 
597 598 823 822 622 623 848 847 4990 6430 6431 6423 5161 6601 6602 6594 5152 5159 6600 6593 6596 6603 5163 6604 6434 6605 6606 
598 599 824 823 623 624 849 848 4997 6437 6438 6430 5168 6608 6609 6601 5159 5166 6607 6600 6603 6610 5170 6611 6441 6612 6613 
600 601 826 825 625 626 851 850 5005 6445 6446 6447 5176 6616 6617 6618 5174 5173 6614 6615 6621 6619 5179 6620 6451 6622 6623 
601 602 827 826 626 627 852 851 5014 6454 6455 6445 5185 6625 6626 6616 5173 5183 6624 6614 6619 6627 5187 6628 6458 6629 6630 
602 603 828 827 627 628 853 852 5021 6461 6462 6454 5192 6632 6633 6625 5183 5190 6631 6624 6627 6634 5194 6635 6465 6636 6637 
603 604 829 828 628 629 854 853 5028 6468 6469 6461 5199 6639 6640 6632 5190 5197 6638 6631 6634 6641 5201 6642 6472 6643 6644 
604 605 830 829 629 630 855 854 5035 6475 6476 6468 5206 6646 6647 6639 5197 5204 6645 6638 6641 6648 5208 6649 6479 6650 6651 
605 606 831 830 630 631 856 855 5042 6482 6483 6475 5213 6653 6654 6646 5204 5211 6652 6645 6648 6655 5215 6656 6486 6657 6658 
606 607 832 831 631 632 857 856 5049 6489 6490 6482 5220 6660 6661 6653 5211 5218 6659 6652 6655 6662 5222 6663 6493 6664 6665 
607 608 833 832 632 633 858 857 5056 6496 6497 6489 5227 6667 6668 6660 5218 5225 6666 6659 6662 6669 5229 6670 6500 6671 6672 
608 609 834 833 633 634 859 858 5063 6503 6504 6496 5234 6674 6675 6667 5225 5232 6673 6666 6669 6676 5236 6677 6507 6678 6679 
609 610 835 834 634 635 860 859 5070 6510 6511 6503 5241 6681 6682 6674 5232 5239 6680 6673 6676 6683 5243 6684 6514 6685 6686 
610 611 836 835 635 636 861 860 5077 6517 6518 6510 5248 6688 6689 6681 5239 5246 6687 6680 6683 6690 5250 6691 6521 6692 6693 
611 612 837 836 636 637 862 861 5084 6524 6525 6517 5255 6695 6696 6688 5246 5253 6694 6687 6690 6697 5257 6698 6528 6699 6700 
612 613 838 837 637 638 863 862 5091 6531 6532 6524 5262 6702 6703 6695 5253 5260 6701 6694 6697 6704 5264 6705 6535 6706 6707 
613 614 839 838 638 639 864 863 5098 6538 6539 6531 5269 6709 6710 6702 5260 5267 6708 6701 6704 6711 5271 6712 6542 6713 6714 
614 615 840 839 639 640 865 864 5105 6545 6546 6538 5276 6716 6717 6709 5267 5274 6715 6708 6711 6718 5278 6719 6549 6720 6721 
615 616 841 840 640 641 866 865 5112 6552 6553 6545 5283 6723 6724 6716 5274 5281 6722 6715 6718 6725 5285 6726 6556 6727 6728 
616 617 842 841 641 642 867 866 5119 6559 6560 6552 5290 6730 6731 6723 5281 5288 6729 6722 6725 6732 5292 6733 6563 6734 6735 
617 618 843 842 642 643 868 867 5126 6566 6567 6559 5297 6737 6738 6730 5288 5295 6736 6729 6732 6739 5299 6740 6570 6741 6742 
618 619 844 843 643 644 869 868 5133 6573 6574 6566 5304 6744 6745 6737 5295 5302 6743 6736 6739 6746 5306 6747 6577 6748 6749 
619 620 845 844 644 645 870 869 5140 6580 6581 6573 5311 6751 6752 6744 5302 5309 6750 6743 6746 6753 5313 6754 6584 6755 6756 
620 621 846 845 645 646 871 870 5147 6587 6588 6580 5318 6758 6759 6751 5309 5316 6757 6750 6753 6760 5320 6761 6591 6762 6763 
621 622 847 846 646 647 872 871 5154 6594 6595 6587 5325 6765 6766 6758 5316 5323 6764 6757 6760 6767 5327 6768 6598 6769 6770 
622 623 848 847 647 648 873 872 5161 6601 6602 6594 5332 6772 6773 6765 5323 5330 6771 6764 6767 6774 5334 6775 6605 6776 6777 
623 624 849 848 648 649 874 873 5168 6608 6609 6601 5339 6779 6780 6772 5330 5337 6778 6771 6774 6781 5341 6782 6612 6783 6784 
625 626 851 850 650 651 876 875 5176 6616 6617 6618 5347 6787 6788 6789 5345 5344 6785 6786 6792 6790 5350 6791 6622 6793 6794 
626 627 852 851 651 652 877 876 5185 6625 6626 6616 5356 6796 6797 6787 5344 5354 6795 6785 6790 6798 5358 6799 6629 6800 6801 
627 628 853 852 652 653 878 877 5192 6632 6633 6625 5363 6803 6804 6796 5354 5361 6802 6795 6798 6805 5365 6806 6636 6807 6808 
628 629 854 853 653 654 879 878 5199 6639 6640 6632 5370 6810 6811 6803 5361 5368 6809 6802 6805 6812 5372 6813 6643 6814 6815 
629 630 855 854 654 655 880 879 5206 6646 6647 6639 5377 6817 6818 6810 5368 5375 6816 6809 6812 6819 5379 6820 6650 6821 6822 
630 631 856 855 655 656 881 880 5213 6653 6654 6646 5384 6824 6825 6817 5375 5382 6823 6816 6819 6826 5386 6827 6657 6828 6829 
631 632 857 856 656 657 882 881 5220 6660 6661 6653 5391 6831 6832 6824 5382 5389 6830 6823 6826 6833 5393 6834 6664 6835 6836 
632 633 858 857 657 658 883 882 5227 6667 6668 6660 5398 6838 6839 6831 5389 5396 6837 6830 6833 6840 5400 6841 6671 6842 6843 
633 634 859 858 658 659 884 883 5234 6674 6675 6667 5405 6845 6846 6838 5396 5403 6844 6837 6840 6847 5407 6848 6678 6849 6850 
634 635 860 859 659 660 885 884 5241 6681 6682 6674 5412 6852 6853 6845 5403 5410 6851 6844 6847 6854 5414 6855 6685 6856 6857 
635 636 861 860 660 661 886 885 5248 6688 6689 6681 5419 6859 6860 6852 5410 5417 6858 6851 6854 6861 5421 6862 6692 6863 6864 
636 637 862 861 661 662 887 886 5255 6695 6696 6688 5426 6866 6867 6859 5417 5424 6865 6858 6861 6868 5428 6869 6699 6870 6871 
637 638 863 862 662 663 888 887 5262 6702 6703 6695 5433 6873 6874 6866 5424 5431 6872 6865 6868 6875 5435 6876 6706 6877 6878 
638 639 864 863 663 664 889 888 5269 6709 6710 6702 5440 6880 6881 6873 5431 5438 6879 6872 6875 6882 5442 6883 6713 6884 6885 
639 640 865 864 664 665 890 889 5276 6716 6717 6709 5447 6887 6888 6880 5438 5445 6886 6879 6882 6889 5449 6890 6720 6891 6892 
640 641 866 865 665 666 891 890 5283 6723 6724 6716 5454 6894 6895 6887 5445 5452 6893 6886 6889 6896 5456 6897 6727 6898 6899 
641 642 867 866 666 667 892 891 5290 6730 6731 6723 5461 6901 6902 6894 5452 5459 6900 6893 6896 6903 5463 6904 6734 6905 6906 
642 643 868 867 667 668 893 892 5297 6737 6738 6730 5468 6908 6909 6901 5459 5466 6907 6900 6903 6910 5470 6911 6741 6912 6913 
643 644 869 868 668 669 894 893 5304 6744 6745 6737 5475 6915 6916 6908 5466 5473 6914 6907 6910 6917 5477 6918 6748 6919 6920 
644 645 870 869 669 670 895 894 5311 6751 6752 6744 5482 6922 6923 6915 5473 5480 6921 6914 6917 6924 5484 6925 6755 6926 6927 
645 646 871 870 670 671 896 895 5318 6758 6759 6751 5489 6929 6930 6922 5480 5487 6928 6921 6924 6931 5491 6932 6762 6933 6934 
646 647 872 871 671 672 897 896 5325 6765 6766 6758 5496 6936 6937 6929 5487 5494 6935 6928 6931 6938 5498 6939 6769 6940 6941 
647 648 873 872 672 673 898 897 5332 6772 6773 6765 5503 6943 6944 6936 5494 5501 6942 6935 6938 6945 5505 6946 6776 6947 6948 
648 649 874 873 673 674 899 898 5339 6779 6780 6772 5510 6950 6951 6943 5501 5508 6949 6942 6945 6952 5512 6953 6783 6954 6955 
675 676 901 900 700 701 926 925 5516 6956 6957 6958 5521 6961 6962 6963 5519 5518 6959 6960 6967 6965 5525 6966 6964 6968 6969 
676 677 902 901 701 702 927 926 5530 6970 6971 6956 5533 6973 6974 6961 5518 5531 6972 6959 6965 6976 5536 6977 6975 6978 6979 
677 678 903 902 702 703 928 927 5540 6980 6981 6970 5543 6983 6984 6973 5531 5541 6982 6972 6976 6986 5546 6987 6985 6988 6989 
678 679 904 903 703 704 929 928 5550 6990 6991 6980 5553 6993 6994 6983 5541 5551 6992 6982 6986 6996 5556 6997 6995 6998 6999 
679 680 905 904 704 705 930 929 5560 7000 7001 6990 5563 7003 7004 6993 5551 5561 7002 6992 6996 7006 5566 7007 7005 7008 7009 
680 681 906 905 705 706 931 930 5570 7010 7011 7000 5573 7013 7014 7003 5561 5571 7012 7002 7006 7016 5576 7017 7015 7018 7019 
681 682 907 906 706 707 932 931 5580 7020 7021 7010 5583 7023 7024 7013 5571 5581 7022 7012 7016 7026 5586 7027 7025 7028 7029 
682 683 908 907 707 708 933 932 5590 7030 7031 7020 5593 7033 7034 7023 5581 5591 7032 7022 7026 7036 5596 7037 7035 7038 7039 
683 684 909 908 708 709 934 933 5600 7040 7041 7030 5603 7043 7044 7033 5591 5601 7042 7032 7036 7046 5606 7047 7045 7048 7049 
684 685 910 909 709 710 935 934 5610 7050 7051 7040 5613 7053 7054 7043 5601 5611 7052 7042 7046 7056 5616 7057 7055 7058 7059 
685 686 911 910 710 711 936 935 5620 7060 7061 7050 5623 7063 7064 7053 5611 5621 7062 7052 7056 7066 5626 7067 7065 7068 7069 
686 687 912 911 711 712 937 936 5630 7070 7071 7060 5633 7073 7074 7063 5621 5631 7072 7062 7066 7076 5636 7077 7075 7078 7079 
687 688 913 912 712 713 938 937 5640 7080 7081 7070 5643 7083 7084 7073 5631 5641 7082 7072 7076 7086 5646 7087 7085 7088 7089 
688 689 914 913 713 714 939 938 5650 7090 7091 7080 5653 7093 7094 7083 5641 5651 7092 7082 7086 7096 5656 7097 7095 7098 7099 
689 690 915 914 714 715 940 939 5660 7100 7101 7090 5663 7103 7104 7093 5651 5661 7102 7092 7096 7106 5666 7107 7105 7108 7109 
690 691 916 915 715 716 941 940 5670 7110 7111 7100 5673 7113 7114 7103 5661 5671 7112 7102 7106 7116 5676 7117 7115 7118 7119 
691 692 917 916 716 717 942 941 5680 7120 7121 7110 5683 7123 7124 7113 5671 5681 7122 7112 7116 7126 5686 7127 7125 7128 7129 
692 693 918 917 717 718 943 942 5690 7130 7131 7120 5693 7133 7134 7123 5681 5691 7132 7122 7126 7136 5696 7137 7135 7138 7139 
693 694 919 918 718 719 944 943 5700 7140 7141 7130 5703 7143 7144 7133 5691 5701 7142 7132 7136 7146 5706 7147 7145 7148 7149 
694 695 920 919 719 720 945 944 5710 7150 7151 7140 5713 7153 7154 7143 5701 5711 7152 7142 7146 7156 5716 7157 7155 7158 7159 
695 696 921 920 720 721 946 945 5720 7160 7161 7150 5723 7163 7164 7153 5711 5721 7162 7152 7156 7166 5726 7167 7165 7168 7169 
696 697 922 921 721 722 947 946 5730 7170 7171 7160 5733 7173 7174 7163 5721 5731 7172 7162 7166 7176 5736 7177 7175 7178 7179 
697 698 923 922 722 723 948 947 5740 7180 7181 7170 5743 7183 7184 7173 5731 5741 7182 7172 7176 7186 5746 7187 7185 7188 7189 
698 699 924 923 723 724 949 948 5750 7190 7191 7180 5753 7193 7194 7183 5741 5751 7192 7182 7186 7196 5756 7197 7195 7198 7199 
700 701 926 925 725 726 951 950 5521 6961 6962 6963 5762 7202 7203 7204 5760 5759 7200 7201 7207 7205 5765 7206 6968 7208 7209 
701 702 927 926 726 727 952 951 5533 6973 6974 6961 5771 7211 7212 7202 5759 5769 7210 7200 7205 7213 5773 7214 6978 7215 7216 
702 703 928 927 727 728 953 952 5543 6983 6984 6973 5778 7218 7219 7211 5769 5776 7217 7210 7213 7220 5780 7221 6988 7222 7223 
703 704 929 928 728 729 954 953 5553 6993 6994 6983 5785 7225 7226 7218 5776 5783 7224 7217 7220 7227 5787 7228 6998 7229 7230 
704 705 930 929 729 730 955 954 5563 7003 7004 6993 5792 7232 7233 7225 5783 5790 7231 7224 7227 7234 5794 7235 7008 7236 7237 
705 706 931 930 730 731 956 955 5573 7013 7014 7003 5799 7239 7240 7232 5790 5797 7238 7231 7234 7241 5801 7242 7018 7243 7244 
706 707 932 931 731 732 957 956 5583 7023 7024 7013 5806 7246 7247 7239 5797 5804 7245 7238 7241 7248 5808 7249 7028 7250 7251 
707 708 933 932 732 733 958 957 5593 7033 7034 7023 5813 7253 7254 7246 5804 5811 7252 7245 7248 7255 5815 7256 7038 7257 7258 
708 709 934 933 733 734 959 958 5603 7043 7044 7033 5820 7260 7261 7253 5811 5818 7259 7252 7255 7262 5822 7263 7048 7264 7265 
709 710 935 934 734 735 960 959 5613 7053 7054 7043 5827 7267 7268 7260 5818 5825 7266 7259 7262 7269 5829 7270 7058 7271 7272 
710 711 936 935 735 736 961 960 5623 7063 7064 7053 5834 7274 7275 7267 5825 5832 7273 7266 7269 7276 5836 7277 7068 7278 7279 
711 712 937 936 736 737 962 961 5633 7073 7074 7063 5841 7281 7282 7274 5832 5839 7280 7273 7276 7283 5843 7284 7078 7285 7286 
712 713 938 937 737 738 963 962 5643 7083 7084 7073 5848 7288 7289 7281 5839 5846 7287 7280 7283 7290 5850 7291 7088 7292 7293 
713 714 939 938 738 739 964 963 5653 7093 7094 7083 5855 7295 7296 7288 5846 5853 7294 7287 7290 7297 5857 7298 7098 7299 7300 
714 715 940 939 739 740 965 964 5663 7103 7104 7093 5862 7302 7303 7295 5853 5860 7301 7294 7297 7304 5864 7305 7108 7306 7307 
715 716 941 940 740 741 966 965 5673 7113 7114 7103 5869 7309 7310 7302 5860 5867 7308 7301 7304 7311 5871 7312 7118 7313 7314 
716 717 942 941 741 742 967 966 5683 7123 7124 7113 5876 7316 7317 7309 5867 5874 7315 7308 7311 7318 5878 7319 7128 7320 7321 
717 718 943 942 742 743 968 967 5693 7133 7134 7123 5883 7323 7324 7316 5874 5881 7322 7315 7318 7325 5885 7326 7138 7327 7328 
718 719 944 943 743 744 969 968 5703 7143 7144 7133 5890 7330 7331 7323 5881 5888 7329 7322 7325 7332 5892 7333 7148 7334 7335 
719 720 945 944 744 745 970 969 5713 7153 7154 7143 5897 7337 7338 7330 5888 5895 7336 7329 7332 7339 5899 7340 7158 7341 7342 
720 721 946 945 745 746 971 970 5723 7163 7164 7153 5904 7344 7345 7337 5895 5902 7343 7336 7339 7346 5906 7347 7168 7348 7349 
721 722 947 946 746 747 972 971 5733 7173 7174 7163 5911 7351 7352 7344 5902 5909 7350 7343 7346 7353 5913 7354 7178 7355 7356 
722 723 948 947 747 748 973 972 5743 7183 7184 7173 5918 7358 7359 7351 5909 5916 7357 7350 7353 7360 5920 7361 7188 7362 7363 
723 724 949 948 748 749 974 973 5753 7193 7194 7183 5925 7365 7366 7358 5916 5923 7364 7357 7360 7367 5927 7368 7198 7369 7370 
725 726 951 950 750 751 976 975 5762 7202 7203 7204 5933 7373 7374 7375 5931 5930 7371 7372 7378 7376 5936 7377 7208 7379 7380 
726 727 952 951 751 752 977 976 5771 7211 7212 7202 5942 7382 7383 7373 5930 5940 7381 7371 7376 7384 5944 7385 7215 7386 7387 
727 728 953 952 752 753 978 977 5778 7218 7219 7211 5949 7389 7390 7382 5940 5947 7388 7381 7384 7391 5951 7392 7222 7393 7394 
728 729 954 953 753 754 979 978 5785 7225 7226 7218 5956 7396 7397 7389 5947 5954 7395 7388 7391 7398 5958 7399 7229 7400 7401 
729 730 955 954 754 755 980 979 5792 7232 7233 7225 5963 7403 7404 7396 5954 5961 7402 7395 7398 7405 5965 7406 7236 7407 7408 
730 731 956 955 755 756 981 980 5799 7239 7240 7232 5970 7410 7411 7403 5961 5968 7409 7402 7405 7412 5972 7413 7243 7414 7415 
731 732 957 956 756 757 982 981 5806 7246 7247 7239 5977 7417 7418 7410 5968 5975 7416 7409 7412 7419 5979 7420 7250 7421 7422 
732 733 958 957 757 758 983 982 5813 7253 7254 7246 5984 7424 7425 7417 5975 5982 7423 7416 7419 7426 5986 7427 7257 7428 7429 
733 734 959 958 758 759 984 983 5820 7260 7261 7253 5991 7431 7432 7424 5982 5989 7430 7423 7426 7433 5993 7434 7264 7435 7436 
734 735 960 959 759 760 985 984 5827 7267 7268 7260 5998 7438 7439 7431 5989 5996 7437 7430 7433 7440 6000 7441 7271 7442 7443 
735 736 961 960 760 761 986 985 5834 7274 7275 7267 6005 7445 7446 7438 5996 6003 7444 7437 7440 7447 6007 7448 7278 7449 7450 
736 737 962 961 761 762 987 986 5841 7281 7282 7274 6012 7452 7453 7445 6003 6010 7451 7444 7447 7454 6014 7455 7285 7456 7457 
737 738 963 962 762 763 988 987 5848 7288 7289 7281 6019 7459 7460 7452 6010 6017 7458 7451 7454 7461 6021 7462 7292 7463 7464 
738 739 964 963 763 764 989 988 5855 7295 7296 7288 6026 7466 7467 7459 6017 6024 7465 7458 7461 7468 6028 7469 7299 7470 7471 
739 740 965 964 764 765 990 989 5862 7302 7303 7295 6033 7473 7474 7466 6024 6031 7472 7465 7468 7475 6035 7476 7306 7477 7478 
740 741 966 965 765 766 991 990 5869 7309 7310 7302 6040 7480 7481 7473 6031 6038 7479 7472 7475 7482 6042 7483 7313 7484 7485 
741 742 967 966 766 767 992 991 5876 7316 7317 7309 6047 7487 7488 7480 6038 6045 7486 7479 7482 7489 6049 7490 7320 7491 7492 
742 743 968 967 767 768 993 992 5883 7323 7324 7316 6054 7494 7495 7487 6045 6052 7493 7486 7489 7496 6056 7497 7327 7498 7499 
743 744 969 968 768 769 994 993 5890 7330 7331 7323 6061 7501 7502 7494 6052 6059 7500 7493 7496 7503 6063 7504 7334 7505 7506 
744 745 970 969 769 770 995 994 5897 7337 7338 7330 6068 7508 7509 7501 6059 6066 7507 7500 7503 7510 6070 7511 7341 7512 7513 
745 746 971 970 770 771 996 995 5904 7344 7345 7337 6075 7515 7516 7508 6066 6073 7514 7507 7510 7517 6077 7518 7348 7519 7520 
746 747 972 971 771 772 997 996 5911 7351 7352 7344 6082 7522 7523 7515 6073 6080 7521 7514 7517 7524 6084 7525 7355 7526 7527 
747 748 973 972 772 773 998 997 5918 7358 7359 7351 6089 7529 7530 7522 6080 6087 7528 7521 7524 7531 6091 7532 7362 7533 7534 
748 749 974 973 773 774 999 998 5925 7365 7366 7358 6096 7536 7537 7529 6087 6094 7535 7528 7531 7538 6098 7539 7369 7540 7541 
750 751 976 975 775 776 1001 1000 5933 7373 7374 7375 6104 7544 7545 7546 6102 6101 7542 7543 7549 7547 6107 7548 7379 7550 7551 
751 752 977 976 776 777 1002 1001 5942 7382 7383 7373 6113 7553 7554 7544 6101 6111 7552 7542 7547 7555 6115 7556 7386 7557 7558 
752 753 978 977 777 778 1003 1002 5949 7389 7390 7382 6120 7560 7561 7553 6111 6118 7559 7552 7555 7562 6122 7563 7393 7564 7565 
753 754 979 978 778 779 1004 1003 5956 7396 7397 7389 6127 7567 7568 7560 6118 6125 7566 7559 7562 7569 6129 7570 7400 7571 7572 
754 755 980 979 779 780 1005 1004 5963 7403 7404 7396 6134 7574 7575 7567 6125 6132 7573 7566 7569 7576 6136 7577 7407 7578 7579 
755 756 981 980 780 781 1006 1005 5970 7410 7411 7403 6141 7581 7582 7574 6132 6139 7580 7573 7576 7583 6143 7584 7414 7585 7586 
756 757 982 981 781 782 1007 1006 5977 7417 7418 7410 6148 7588 7589 7581 6139 6146 7587 7580 7583 7590 6150 7591 7421 7592 7593 
757 758 983 982 782 783 1008 1007 5984 7424 7425 7417 6155 7595 7596 7588 6146 6153 7594 7587 7590 7597 6157 7598 7428 7599 7600 
758 759 984 983 783 784 1009 1008 5991 7431 7432 7424 6162 7602 7603 7595 6153 6160 7601 7594 7597 7604 6164 7605 7435 7606 7607 
759 760 985 984 784 785 1010 1009 5998 7438 7439 7431 6169 7609 7610 7602 6160 6167 7608 7601 7604 7611 6171 7612 7442 7613 7614 
760 761 986 985 785 786 1011 1010 6005 7445 7446 7438 6176 7616 7617 7609 6167 6174 7615 7608 7611 7618 6178 7619 7449 7620 7621 
761 762 987 986 786 787 1012 1011 6012 7452 7453 7445 6183 7623 7624 7616 6174 6181 7622 7615 7618 7625 6185 7626 7456 7627 7628 
762 763 988 987 787 788 1013 1012 6019 7459 7460 7452 6190 7630 7631 7623 6181 6188 7629 7622 7625 7632 6192 7633 7463 7634 7635 
763 764 989 988 788 789 1014 1013 6026 7466 7467 7459 6197 7637 7638 7630 6188 6195 7636 7629 7632 7639 6199 7640 7470 7641 7642 
764 765 990 989 789 790 1015 1014 6033 7473 7474 7466 6204 7644 7645 7637 6195 6202 7643 7636 7639 7646 6206 7647 7477 7648 7649 
765 766 991 990 790 791 1016 1015 6040 7480 7481 7473 6211 7651 7652 7644 6202 6209 7650 7643 7646 7653 6213 7654 7484 7655 7656 
766 767 992 991 791 792 1017 1016 6047 7487 7488 7480 6218 7658 7659 7651 6209 6216 7657 7650 7653 7660 6220 7661 7491 7662 7663 
767 768 993 992 792 793 1018 1017 6054 7494 7495 7487 6225 7665 7666 7658 6216 6223 7664 7657 7660 7667 6227 7668 7498 7669 7670 
768 769 994 993 793 794 1019 1018 6061 7501 7502 7494 6232 7672 7673 7665 6223 6230 7671 7664 7667 7674 6234 7675 7505 7676 7677 
769 770 995 994 794 795 1020 1019 6068 7508 7509 7501 6239 7679 7680 7672 6230 6237 7678 7671 7674 7681 6241 7682 7512 7683 7684 
770 771 996 995 795 796 1021 1020 6075 7515 7516 7508 6246 7686 7687 7679 6237 6244 7685 7678 7681 7688 6248 7689 7519 7690 7691 
771 772 997 996 796 797 1022 1021 6082 7522 7523 7515 6253 7693 7694 7686 6244 6251 7692 7685 7688 7695 6255 7696 7526 7697 7698 
772 773 998 997 797 798 1023 1022 6089 7529 7530 7522 6260 7700 7701 7693 6251 6258 7699 7692 7695 7702 6262 7703 7533 7704 7705 
773 774 999 998 798 799 1024 1023 6096 7536 7537 7529 6267 7707 7708 7700 6258 6265 7706 7699 7702 7709 6269 7710 7540 7711 7712 
775 776 1001 1000 800 801 1026 1025 6104 7544 7545 7546 6275 7715 7716 7717 6273 6272 7713 7714 7720 7718 6278 7719 7550 7721 7722 
776 777 1002 1001 801 802 1027 1026 6113 7553 7554 7544 6284 7724 7725 7715 6272 6282 7723 7713 7718 7726 6286 7727 7557 7728 7729 
777 778 1003 1002 802 803 1028 1027 6120 7560 7561 7553 6291 7731 7732 7724 6282 6289 7730 7723 7726 7733 6293 7734 7564 7735 7736 
778 779 1004 1003 803 804 1029 1028 6127 7567 7568 7560 6298 7738 7739 7731 6289 6296 7737 7730 7733 7740 6300 7741 7571 7742 7743 
779 780 1005 1004 804 805 1030 1029 6134 7574 7575 7567 6305 7745 7746 7738 6296 6303 7744 7737 7740 7747 6307 7748 7578 7749 7750 
780 781 1006 1005 805 806 1031 1030 6141 7581 7582 7574 6312 7752 7753 7745 6303 6310 7751 7744 7747 7754 6314 7755 7585 7756 7757 
781 782 1007 1006 806 807 1032 1031 6148 7588 7589 7581 6319 7759 7760 7752 6310 6317 7758 7751 7754 7761 6321 7762 7592 7763 7764 
782 783 1008 1007 807 808 1033 1032 6155 7595 7596 7588 6326 7766 7767 7759 6317 6324 7765 7758 7761 7768 6328 7769 7599 7770 7771 
783 784 1009 1008 808 809 1034 1033 6162 7602 7603 7595 6333 7773 7774 7766 6324 6331 7772 7765 7768 7775 6335 7776 7606 7777 7778 
784 785 1010 1009 809 810 1035 1034 6169 7609 7610 7602 6340 7780 7781 7773 6331 6338 7779 7772 7775 7782 6342 7783 7613 7784 7785 
785 786 1011 1010 810 811 1036 1035 6176 7616 7617 7609 6347 7787 7788 7780 6338 6345 7786 7779 7782 7789 6349 7790 7620 7791 7792 
786 787 1012 1011 811 812 1037 1036 6183 7623 7624 7616 6354 7794 7795 7787 6345 6352 7793 7786 7789 7796 6356 7797 7627 7798 7799 
787 788 1013 1012 812 813 1038 1037 6190 7630 7631 7623 6361 7801 7802 7794 6352 6359 7800 7793 7796 7803 6363 7804 7634 7805 7806 
788 789 1014 1013 813 814 1039 1038 6197 7637 7638 7630 6368 7808 7809 7801 6359 6366 7807 7800 7803 7810 6370 7811 7641 7812 7813 
789 790 1015 1014 814 815 1040 1039 6204 7644 7645 7637 6375 7815 7816 7808 6366 6373 7814 7807 7810 7817 6377 7818 7648 7819 7820 
790 791 1016 1015 815 816 1041 1040 6211 7651 7652 7644 6382 7822 7823 7815 6373 6380 7821 7814 7817 7824 6384 7825 7655 7826 7827 
791 792 1017 1016 816 817 1042 1041 6218 7658 7659 7651 6389 7829 7830 7822 6380 6387 7828 7821 7824 7831 6391 7832 7662 7833 7834 
792 793 1018 1017 817 818 1043 1042 6225 7665 7666 7658 6396 7836 7837 7829 6387 6394 7835 7828 7831 7838 6398 7839 7669 7840 7841 
793 794 1019 1018 818 819 1044 1043 6232 7672 7673 7665 6403 7843 7844 7836 6394 6401 7842 7835 7838 7845 6405 7846 7676 7847 7848 
794 795 1020 1019 819 820 1045 1044 6239 7679 7680 7672 6410 7850 7851 7843 6401 6408 7849 7842 7845 7852 6412 7853 7683 7854 7855 
795 796 1021 1020 820 821 1046 1045 6246 7686 7687 7679 6417 7857 7858 7850 6408 6415 7856 7849 7852 7859 6419 7860 7690 7861 7862 
796 797 1022 1021 821 822 1047 1046 6253 7693 7694 7686 6424 7864 7865 7857 6415 6422 7863 7856 7859 7866 6426 7867 7697 7868 7869 
797 798 1023 1022 822 823 1048 1047 6260 7700 7701 7693 6431 7871 7872 7864 6422 6429 7870 7863 7866 7873 6433 7874 7704 7875 7876 
798 799 1024 1023 823 824 1049 1048 6267 7707 7708 7700 6438 7878 7879 7871 6429 6436 7877 7870 7873 7880 6440 7881 7711 7882 7883 
800 801 1026 1025 825 826 1051 1050 6275 7715 7716 7717 6446 7886 7887 7888 6444 6443 7884 7885 7891 7889 6449 7890 7721 7892 7893 
801 802 1027 1026 826 827 1052 1051 6284 7724 7725 7715 6455 7895 7896 7886 6443 6453 7894 7884 7889 7897 6457 7898 7728 7899 7900 
802 803 1028 1027 827 828 1053 1052 6291 7731 7732 7724 6462 7902 7903 7895 6453 6460 7901 7894 7897 7904 6464 7905 7735 7906 7907 
803 804 1029 1028 828 829 1054 1053 6298 7738 7739 7731 6469 7909 7910 7902 6460 6467 7908 7901 7904 7911 6471 7912 7742 7913 7914 
804 805 1030 1029 829 830 1055 1054 6305 7745 7746 7738 6476 7916 7917 7909 6467 6474 7915 7908 7911 7918 6478 7919 7749 7920 7921 
805 806 1031 1030 830 831 1056 1055 6312 7752 7753 7745 6483 7923 7924 7916 6474 6481 7922 7915 7918 7925 6485 7926 7756 7927 7928 
806 807 1032 1031 831 832 1057 1056 6319 7759 7760 7752 6490 7930 7931 7923 6481 6488 7929 7922 7925 7932 6492 7933 7763 7934 7935 
807 808 1033 1032 832 833 1058 1057 6326 7766 7767 7759 6497 7937 7938 7930 6488 6495 7936 7929 7932 7939 6499 7940 7770 7941 7942 
808 809 1034 1033 833 834 1059 1058 6333 7773 7774 7766 6504 7944 7945 7937 6495 6502 7943 7936 7939 7946 6506 7947 7777 7948 7949 
809 810 1035 1034 834 835 1060 1059 6340 7780 7781 7773 6511 7951 7952 7944 6502 6509 7950 7943 7946 7953 6513 7954 7784 7955 7956 
810 811 1036 1035 835 836 1061 1060 6347 7787 7788 7780 6518 7958 7959 7951 6509 6516 7957 7950 7953 7960 6520 7961 7791 7962 7963 
811 812 1037 1036 836 837 1062 1061 6354 7794 7795 7787 6525 7965 7966 7958 6516 6523 7964 7957 7960 7967 6527 7968 7798 7969 7970 
812 813 1038 1037 837 838 1063 1062 6361 7801 7802 7794 6532 7972 7973 7965 6523 6530 7971 7964 7967 7974 6534 7975 7805 7976 7977 
813 814 1039 1038 838 839 1064 1063 6368 7808 7809 7801 6539 7979 7980 7972 6530 6537 7978 7971 7974 7981 6541 7982 7812 7983 7984 
814 815 1040 1039 839 840 1065 1064 6375 7815 7816 7808 6546 7986 7987 7979 6537 6544 7985 7978 7981 7988 6548 7989 7819 7990 7991 
815 816 1041 1040 840 841 1066 1065 6382 7822 7823 7815 6553 7993 7994 7986 6544 6551 7992 7985 7988 7995 6555 7996 7826 7997 7998 
816 817 1042 1041 841 842 1067 1066 6389 7829 7830 7822 6560 8000 8001 7993 6551 6558 7999 7992 7995 8002 6562 8003 7833 8004 8005 
817 818 1043 1042 842 843 1068 1067 6396 7836 7837 7829 6567 8007 8008 8000 6558 6565 8006 7999 8002 8009 6569 8010 7840 8011 8012 
818 819 1044 1043 843 844 1069 1068 6403 7843 7844 7836 6574 8014 8015 8007 6565 6572 8013 8006 8009 8016 6576 8017 7847 8018 8019 
819 820 1045 1044 844 845 1070 1069 6410 7850 7851 7843 6581 8021 8022 8014 6572 6579 8020 8013 8016 8023 6583 8024 7854 8025 8026 
820 821 1046 1045 845 846 1071 1070 6417 7857 7858 7850 6588 8028 8029 8021 6579 6586 8027 8020 8023 8030 6590 8031 7861 8032 8033 
821 822 1047 1046 846 847 1072 1071 6424 7864 7865 7857 6595 8035 8036 8028 6586 6593 8034 8027 8030 8037 6597 8038 7868 8039 8040 
822 823 1048 1047 847 848 1073 1072 6431 7871 7872 7864 6602 8042 8043 8035 6593 6600 8041 8034 8037 8044 6604 8045 7875 8046 8047 
823 824 1049 1048 848 849 1074 1073 6438 7878 7879 7871 6609 8049 8050 8042 6600 6607 8048 8041 8044 8051 6611 8052 7882 8053 8054 
825 826 1051 1050 850 851 1076 1075 6446 7886 7887 7888 6617 8057 8058 8059 6615 6614 8055 8056 8062 8060 6620 8061 7892 8063 8064 
826 827 1052 1051 851 852 1077 1076 6455 7895 7896 7886 6626 8066 8067 8057 6614 6624 8065 8055 8060 8068 6628 8069 7899 8070 8071 
827 828 1053 1052 852 853 1078 1077 6462 7902 7903 7895 6633 8073 8074 8066 6624 6631 8072 8065 8068 8075 6635 8076 7906 8077 8078 
828 829 1054 1053 853 854 1079 1078 6469 7909 7910 7902 6640 8080 8081 8073 6631 6638 8079 8072 8075 8082 6642 8083 7913 8084 8085 
829 830 1055 1054 854 855 1080 1079 6476 7916 7917 7909 6647 8087 8088 8080 6638 6645 8086 8079 8082 8089 6649 8090 7920 8091 8092 
830 831 1056 1055 855 856 1081 1080 6483 7923 7924 7916 6654 8094 8095 8087 6645 6652 8093 8086 8089 8096 6656 8097 7927 8098 8099 
831 832 1057 1056 856 857 1082 1081 6490 7930 7931 7923 6661 8101 8102 8094 6652 6659 8100 8093 8096 8103 6663 8104 7934 8105 8106 
832 833 1058 1057 857 858 1083 1082 6497 7937 7938 7930 6668 8108 8109 8101 6659 6666 8107 8100 8103 8110 6670 8111 7941 8112 8113 
833 834 1059 1058 858 859 1084 1083 6504 7944 7945 7937 6675 8115 8116 8108 6666 6673 8114 8107 8110 8117 6677 8118 7948 8119 8120 
834 835 1060 1059 859 860 1085 1084 6511 7951 7952 7944 6682 8122 8123 8115 6673 6680 8121 8114 8117 8124 6684 8125 7955 8126 8127 
835 836 1061 1060 860 861 1086 1085 6518 7958 7959 7951 6689 8129 8130 8122 6680 6687 8128 8121 8124 8131 6691 8132 7962 8133 8134 
836 837 1062 1061 861 862 1087 1086 6525 7965 7966 7958 6696 8136 8137 8129 6687 6694 8135 8128 8131 8138 6698 8139 7969 8140 8141 
837 838 1063 1062 862 863 1088 1087 6532 7972 7973 7965 6703 8143 8144 8136 6694 6701 8142 8135 8138 8145 6705 8146 7976 8147 8148 
838 839 1064 1063 863 864 1089 1088 6539 7979 7980 7972 6710 8150 8151 8143 6701 6708 8149 8142 8145 8152 6712 8153 7983 8154 8155 
839 840 1065 1064 864 865 1090 1089 6546 7986 7987 7979 6717 8157 8158 8150 6708 6715 8156 8149 8152 8159 6719 8160 7990 8161 8162 
840 841 1066 1065 865 866 1091 1090 6553 7993 7994 7986 6724 8164 8165 8157 6715 6722 8163 8156 8159 8166 6726 8167 7997 8168 8169 
841 842 1067 1066 866 867 1092 1091 6560 8000 8001 7993 6731 8171 8172 8164 6722 6729 8170 8163 8166 8173 6733 8174 8004 8175 8176 
842 843 1068 1067 867 868 1093 1092 6567 8007 8008 8000 6738 8178 8179 8171 6729 6736 8177 8170 8173 8180 6740 8181 8011 8182 8183 
843 844 1069 1068 868 869 1094 1093 6574 8014 8015 8007 6745 8185 8186 8178 6736 6743 8184 8177 8180 8187 6747 8188 8018 8189 8190 
844 845 1070 1069 869 870 1095 1094 6581 8021 8022 8014 6752 8192 8193 8185 6743 6750 8191 8184 8187 8194 6754 8195 8025 8196 8197 
845 846 1071 1070 870 871 1096 1095 6588 8028 8029 8021 6759 8199 8200 8192 6750 6757 8198 8191 8194 8201 6761 8202 8032 8203 8204 
846 847 1072 1071 871 872 1097 1096 6595 8035 8036 8028 6766 8206 8207 8199 6757 6764 8205 8198 8201 8208 6768 8209 8039 8210 8211 
847 848 1073 1072 872 873 1098 1097 6602 8042 8043 8035 6773 8213 8214 8206 6764 6771 8212 8205 8208 8215 6775 8216 8046 8217 8218 
848 849 1074 1073 873 874 1099 1098 6609 8049 8050 8042 6780 8220 8221 8213 6771 6778 8219 8212 8215 8222 6782 8223 8053 8224 8225 
850 851 1076 1075 875 876 1101 1100 6617 8057 8058 8059 6788 8228 8229 8230 6786 6785 8226 8227 8233 8231 6791 8232 8063 8234 8235 
851 852 1077 1076 876 877 1102 1101 6626 8066 8067 8057 6797 8237 8238 8228 6785 6795 8236 8226 8231 8239 6799 8240 8070 8241 8242 
852 853 1078 1077 877 878 1103 1102 6633 8073 8074 8066 6804 8244 8245 8237 6795 6802 8243 8236 8239 8246 6806 8247 8077 8248 8249 
853 854 1079 1078 878 879 1104 1103 6640 8080 8081 8073 6811 8251 8252 8244 6802 6809 8250 8243 8246 8253 6813 8254 8084 8255 8256 
854 855 1080 1079 879 880 1105 1104 6647 8087 8088 8080 6818 8258 8259 8251 6809 6816 8257 8250 8253 8260 6820 8261 8091 8262 8263 
855 856 1081 1080 880 881 1106 1105 6654 8094 8095 8087 6825 8265 8266 8258 6816 6823 8264 8257 8260 8267 6827 8268 8098 8269 8270 
856 857 1082 1081 881 882 1107 1106 6661 8101 8102 8094 6832 8272 8273 8265 6823 6830 8271 8264 8267 8274 6834 8275 8105 8276 8277 
857 858 1083 1082 882 883 1108 1107 6668 8108 8109 8101 6839 8279 8280 8272 6830 6837 8278 8271 8274 8281 6841 8282 8112 8283 8284 
858 859 1084 1083 883 884 1109 1108 6675 8115 8116 8108 6846 8286 8287 8279 6837 6844 8285 8278 8281 8288 6848 8289 8119 8290 8291 
859 860 1085 1084 884 885 1110 1109 6682 8122 8123 8115 6853 8293 8294 8286 6844 6851 8292 8285 8288 8295 6855 8296 8126 8297 8298 
860 861 1086 1085 885 886 1111 1110 6689 8129 8130 8122 6860 8300 8301 8293 6851 6858 8299 8292 8295 8302 6862 8303 8133 8304 8305 
861 862 1087 1086 886 887 1112 1111 6696 8136 8137 8129 6867 8307 8308 8300 6858 6865 8306 8299 8302 8309 6869 8310 8140 8311 8312 
862 863 1088 1087 887 888 1113 1112 6703 8143 8144 8136 6874 8314 8315 8307 6865 6872 8313 8306 8309 8316 6876 8317 8147 8318 8319 
863 864 1089 1088 888 889 1114 1113 6710 8150 8151 8143 6881 8321 8322 8314 6872 6879 8320 8313 8316 8323 6883 8324 8154 8325 8326 
864 865 1090 1089 889 890 1115 1114 6717 8157 8158 8150 6888 8328 8329 8321 6879 6886 8327 8320 8323 8330 6890 8331 8161 8332 8333 
865 866 1091 1090 890 891 1116 1115 6724 8164 8165 8157 6895 8335 8336 8328 6886 6893 8334 8327 8330 8337 6897 8338 8168 8339 8340 
866 867 1092 1091 891 892 1117 1116 6731 8171 8172 8164 6902 8342 8343 8335 6893 6900 8341 8334 8337 8344 6904 8345 8175 8346 8347 
867 868 1093 1092 892 893 1118 1117 6738 8178 8179 8171 6909 8349 8350 8342 6900 6907 8348 8341 8344 8351 6911 8352 8182 8353 8354 
868 869 1094 1093 893 894 1119 1118 6745 8185 8186 8178 6916 8356 8357 8349 6907 6914 8355 8348 8351 8358 6918 8359 8189 8360 8361 
869 870 1095 1094 894 895 1120 1119 6752 8192 8193 8185 6923 8363 8364 8356 6914 6921 8362 8355 8358 8365 6925 8366 8196 8367 8368 
870 871 1096 1095 895 896 1121 1120 6759 8199 8200 8192 6930 8370 8371 8363 6921 6928 8369 8362 8365 8372 6932 8373 8203 8374 8375 
871 872 1097 1096 896 897 1122 1121 6766 8206 8207 8199 6937 8377 8378 8370 6928 6935 8376 8369 8372 8379 6939 8380 8210 8381 8382 
872 873 1098 1097 897 898 1123 1122 6773 8213 8214 8206 6944 8384 8385 8377 6935 6942 8383 8376 8379 8386 6946 8387 8217 8388 8389 
873 874 1099 1098 898 899 1124 1123 6780 8220 8221 8213 6951 8391 8392 8384 6942 6949 8390 8383 8386 8393 6953 8394 8224 8395 8396 
900 901 1126 1125 925 926 1151 1150 6957 8397 8398 8399 6962 8402 8403 8404 6960 6959 8400 8401 8408 8406 6966 8407 8405 8409 8410 
901 902 1127 1126 926 927 1152 1151 6971 8411 8412 8397 6974 8414 8415 8402 6959 6972 8413 8400 8406 8417 6977 8418 8416 8419 8420 
902 903 1128 1127 927 928 1153 1152 6981 8421 8422 8411 6984 8424 8425 8414 6972 6982 8423 8413 8417 8427 6987 8428 8426 8429 8430 
903 904 1129 1128 928 929 1154 1153 6991 8431 8432 8421 6994 8434 8435 8424 6982 6992 8433 8423 8427 8437 6997 8438 8436 8439 8440 
904 905 1130 1129 929 930 1155 1154 7001 8441 8442 8431 7004 8444 8445 8434 6992 7002 8443 8433 8437 8447 7007 8448 8446 8449 8450 
905 906 1131 1130 930 931 1156 1155 7011 8451 8452 8441 7014 8454 8455 8444 7002 7012 8453 8443 8447 8457 7017 8458 8456 8459 8460 
906 907 1132 1131 931 932 1157 1156 7021 8461 8462 8451 7024 8464 8465 8454 7012 7022 8463 8453 8457 8467 7027 8468 8466 8469 8470 
907 908 1133 1132 932 933 1158 1157 7031 8471 8472 8461 7034 8474 8475 8464 7022 7032 8473 8463 8467 8477 7037 8478 8476 8479 8480 
908 909 1134 1133 933 934 1159 1158 7041 8481 8482 8471 7044 8484 8485 8474 7032 7042 8483 8473 8477 8487 7047 8488 8486 8489 8490 
909 910 1135 1134 934 935 1160 1159 7051 8491 8492 8481 7054 8494 8495 8484 7042 7052 8493 8483 8487 8497 7057 8498 8496 8499 8500 
910 911 1136 1135 935 936 1161 1160 7061 8501 8502 8491 7064 8504 8505 8494 7052 7062 8503 8493 8497 8507 7067 8508 8506 8509 8510 
911 912 1137 1136 936 937 1162 1161 7071 8511 8512 8501 7074 8514 8515 8504 7062 7072 8513 8503 8507 8517 7077 8518 8516 8519 8520 
912 913 1138 1137 937 938 1163 1162 7081 8521 8522 8511 7084 8524 8525 8514 7072 7082 8523 8513 8517 8527 7087 8528 8526 8529 8530 
913 914 1139 1138 938 939 1164 1163 7091 8531 8532 8521 7094 8534 8535 8524 7082 7092 8533 8523 8527 8537 7097 8538 8536 8539 8540 
914 915 1140 1139 939 940 1165 1164 7101 8541 8542 8531 7104 8544 8545 8534 7092 7102 8543 8533 8537 8547 7107 8548 8546 8549 8550 
915 916 1141 1140 940 941 1166 1165 7111 8551 8552 8541 7114 8554 8555 8544 7102 7112 8553 8543 8547 8557 7117 8558 8556 8559 8560 
916 917 1142 1141 941 942 1167 1166 7121 8561 8562 8551 7124 8564 8565 8554 7112 7122 8563 8553 8557 8567 7127 8568 8566 8569 8570 
917 918 1143 1142 942 943 1168 1167 7131 8571 8572 8561 7134 8574 8575 8564 7122 7132 8573 8563 8567 8577 7137 8578 8576 8579 8580 
918 919 1144 1143 943 944 1169 1168 7141 8581 8582 8571 7144 8584 8585 8574 7132 7142 8583 8573 8577 8587 7147 8588 8586 8589 8590 
919 920 1145 1144 944 945 1170 1169 7151 8591 8592 8581 7154 8594 8595 8584 7142 7152 8593 8583 8587 8597 7157 8598 8596 8599 8600 
920 921 1146 1145 945 946 1171 1170 7161 8601 8602 8591 7164 8604 8605 8594 7152 7162 8603 8593 8597 8607 7167 8608 8606 8609 8610 
921 922 1147 1146 946 947 1172 1171 7171 8611 8612 8601 7174 8614 8615 8604 7162 7172 8613 8603 8607 8617 7177 8618 8616 8619 8620 
922 923 1148 1147 947 948 1173 1172 7181 8621 8622 8611 7184 8624 8625 8614 7172 7182 8623 8613 8617 8627 7187 8628 8626 8629 8630 
923 924 1149 1148 948 949 1174 1173 7191 8631 8632 8621 7194 8634 8635 8624 7182 7192 8633 8623 8627 8637 7197 8638 8636 8639 8640 
925 926 1151 1150 950 951 1176 1175 6962 8402 8403 8404 7203 8643 8644 8645 7201 7200 8641 8642 8648 8646 7206 8647 8409 8649 8650 
926 927 1152 1151 951 952 1177 1176 6974 8414 8415 8402 7212 8652 8653 8643 7200 7210 8651 8641 8646 8654 7214 8655 8419 8656 8657 
927 928 1153 1152 952 953 1178 1177 6984 8424 8425 8414 7219 8659 8660 8652 7210 7217 8658 8651 8654 8661 7221 8662 8429 8663 8664 
928 929 1154 1153 953 954 1179 1178 6994 8434 8435 8424 7226 8666 8667 8659 7217 7224 8665 8658 8661 8668 7228 8669 8439 8670 8671 
929 930 1155 1154 954 955 1180 1179 7004 8444 8445 8434 7233 8673 8674 8666 7224 7231 8672 8665 8668 8675 7235 8676 8449 8677 8678 
930 931 1156 1155 955 956 1181 1180 7014 8454 8455 8444 7240 8680 8681 8673 7231 7238 8679 8672 8675 8682 7242 8683 8459 8684 8685 
931 932 1157 1156 956 957 1182 1181 7024 8464 8465 8454 7247 8687 8688 8680 7238 7245 8686 8679 8682 8689 7249 8690 8469 8691 8692 
932 933 1158 1157 957 958 1183 1182 7034 8474 8475 8464 7254 8694 8695 8687 7245 7252 8693 8686 8689 8696 7256 8697 8479 8698 8699 
933 934 1159 1158 958 959 1184 1183 7044 8484 8485 8474 7261 8701 8702 8694 7252 7259 8700 8693 8696 8703 7263 8704 8489 8705 8706 
934 935 1160 1159 959 960 1185 1184 7054 8494 8495 8484 7268 8708 8709 8701 7259 7266 8707 8700 8703 8710 7270 8711 8499 8712 8713 
935 936 1161 1160 960 961 1186 1185 7064 8504 8505 8494 7275 8715 8716 8708 7266 7273 8714 8707 8710 8717 7277 8718 8509 8719 8720 
936 937 1162 1161 961 962 1187 1186 7074 8514 8515 8504 7282 8722 8723 8715 7273 7280 8721 8714 8717 8724 7284 8725 8519 8726 8727 
937 938 1163 1162 962 963 1188 1187 7084 8524 8525 8514 7289 8729 8730 8722 7280 7287 8728 8721 8724 8731 7291 8732 8529 8733 8734 
938 939 1164 1163 963 964 1189 1188 7094 8534 8535 8524 7296 8736 8737 8729 7287 7294 8735 8728 8731 8738 7298 8739 8539 8740 8741 
939 940 1165 1164 964 965 1190 1189 7104 8544 8545 8534 7303 8743 8744 8736 7294 7301 8742 8735 8738 8745 7305 8746 8549 8747 8748 
940 941 1166 1165 965 966 1191 1190 7114 8554 8555 8544 7310 8750 8751 8743 7301 7308 8749 8742 8745 8752 7312 8753 8559 8754 8755 
941 942 1167 1166 966 967 1192 1191 7124 8564 8565 8554 7317 8757 8758 8750 7308 7315 8756 8749 8752 8759 7319 8760 8569 8761 8762 
942 943 1168 1167 967 968 1193 1192 7134 8574 8575 8564 7324 8764 8765 8757 7315 7322 8763 8756 8759 8766 7326 8767 8579 8768 8769 
943 944 1169 1168 968 969 1194 1193 7144 8584 8585 8574 7331 8771 8772 8764 7322 7329 8770 8763 8766 8773 7333 8774 8589 8775 8776 
944 945 1170 1169 969 970 1195 1194 7154 8594 8595 8584 7338 8778 8779 8771 7329 7336 8777 8770 8773 8780 7340 8781 8599 8782 8783 
945 946 1171 1170 970 971 1196 1195 7164 8604 8605 8594 7345 8785 8786 8778 7336 7343 8784 8777 8780 8787 7347 8788 8609 8789 8790 
946 947 1172 1171 971 972 1197 1196 7174 8614 8615 8604 7352 8792 8793 8785 7343 7350 8791 8784 8787 8794 7354 8795 8619 8796 8797 
947 948 1173 1172 972 973 1198 1197 7184 8624 8625 8614 7359 8799 8800 8792 7350 7357 8798 8791 8794 8801 7361 8802 8629 8803 8804 
948 949 1174 1173 973 974 1199 1198 7194 8634 8635 8624 7366 8806 8807 8799 7357 7364 8805 8798 8801 8808 7368 8809 8639 8810 8811 
950 951 1176 1175 975 976 1201 1200 7203 8643 8644 8645 7374 8814 8815 8816 7372 7371 8812 8813 8819 8817 7377 8818 8649 8820 8821 
951 952 1177 1176 976 977 1202 1201 7212 8652 8653 8643 7383 8823 8824 8814 7371 7381 8822 8812 8817 8825 7385 8826 8656 8827 8828 
952 953 1178 1177 977 978 1203 1202 7219 8659 8660 8652 7390 8830 8831 8823 7381 7388 8829 8822 8825 8832 7392 8833 8663 8834 8835 
953 954 1179 1178 978 979 1204 1203 7226 8666 8667 8659 7397 8837 8838 8830 7388 7395 8836 8829 8832 8839 7399 8840 8670 8841 8842 
954 955 1180 1179 979 980 1205 1204 7233 8673 8674 8666 7404 8844 8845 8837 7395 7402 8843 8836 8839 8846 7406 8847 8677 8848 8849 
955 956 1181 1180 980 981 1206 1205 7240 8680 8681 8673 7411 8851 8852 8844 7402 7409 8850 8843 8846 8853 7413 8854 8684 8855 8856 
956 957 1182 1181 981 982 1207 1206 7247 8687 8688 8680 7418 8858 8859 8851 7409 7416 8857 8850 8853 8860 7420 8861 8691 8862 8863 
957 958 1183 1182 982 983 1208 1207 7254 8694 8695 8687 7425 8865 8866 8858 7416 7423 8864 8857 8860 8867 7427 8868 8698 8869 8870 
958 959 1184 1183 983 984 1209 1208 7261 8701 8702 8694 7432 8872 8873 8865 7423 7430 8871 8864 8867 8874 7434 8875 8705 8876 8877 
959 960 1185 1184 984 985 1210 1209 7268 8708 8709 8701 7439 8879 8880 8872 7430 7437 8878 8871 8874 8881 7441 8882 8712 8883 8884 
960 961 1186 1185 985 986 1211 1210 7275 8715 8716 8708 7446 8886 8887 8879 7437 7444 8885 8878 8881 8888 7448 8889 8719 8890 8891 
961 962 1187 1186 986 987 1212 1211 7282 8722 8723 8715 7453 8893 8894 8886 7444 7451 8892 8885 8888 8895 7455 8896 8726 8897 8898 
962 963 1188 1187 987 988 1213 1212 7289 8729 8730 8722 7460 8900 8901 8893 7451 7458 8899 8892 8895 8902 7462 8903 8733 8904 8905 
963 964 1189 1188 988 989 1214 1213 7296 8736 8737 8729 7467 8907 8908 8900 7458 7465 8906 8899 8902 8909 7469 8910 8740 8911 8912 
964 965 1190 1189 989 990 1215 1214 7303 8743 8744 8736 7474 8914 8915 8907 7465 7472 8913 8906 8909 8916 7476 8917 8747 8918 8919 
965 966 1191 1190 990 991 1216 1215 7310 8750 8751 8743 7481 8921 8922 8914 7472 7479 8920 8913 8916 8923 7483 8924 8754 8925 8926 
966 967 1192 1191 991 992 1217 1216 7317 8757 8758 8750 7488 8928 8929 8921 7479 7486 8927 8920 8923 8930 7490 8931 8761 8932 8933 
967 968 1193 1192 992 993 1218 1217 7324 8764 8765 8757 7495 8935 8936 8928 7486 7493 8934 8927 8930 8937 7497 8938 8768 8939 8940 
968 969 1194 1193 993 994 1219 1218 7331 8771 8772 8764 7502 8942 8943 8935 7493 7500 8941 8934 8937 8944 7504 8945 8775 8946 8947 
969 970 1195 1194 994 995 1220 1219 7338 8778 8779 8771 7509 8949 8950 8942 7500 7507 8948 8941 8944 8951 7511 8952 8782 8953 8954 
970 971 1196 1195 995 996 1221 1220 7345 8785 8786 8778 7516 8956 8957 8949 7507 7514 8955 8948 8951 8958 7518 8959 8789 8960 8961 
971 972 1197 1196 996 997 1222 1221 7352 8792 8793 8785 7523 8963 8964 8956 7514 7521 8962 8955 8958 8965 7525 8966 8796 8967 8968 
972 973 1198 1197 997 998 1223 1222 7359 8799 8800 8792 7530 8970 8971 8963 7521 7528 8969 8962 8965 8972 7532 8973 8803 8974 8975 
973 974 1199 1198 998 999 1224 1223 7366 8806 8807 8799 7537 8977 8978 8970 7528 7535 8976 8969 8972 8979 7539 8980 8810 8981 8982 
975 976 1201 1200 1000 1001 1226 1225 7374 8814 8815 8816 7545 8985 8986 8987 7543 7542 8983 8984 8990 8988 7548 8989 8820 8991 8992 
976 977 1202 1201 1001 1002 1227 1226 7383 8823 8824 8814 7554 8994 8995 8985 7542 7552 8993 8983 8988 8996 7556 8997 8827 8998 8999 
977 978 1203 1202 1002 1003 1228 1227 7390 8830 8831 8823 7561 9001 9002 8994 7552 7559 9000 8993 8996 9003 7563 9004 8834 9005 9006 
978 979 1204 1203 1003 1004 1229 1228 7397 8837 8838 8830 7568 9008 9009 9001 7559 7566 9007 9000 9003 9010 7570 9011 8841 9012 9013 
979 980 1205 1204 1004 1005 1230 1229 7404 8844 8845 8837 7575 9015 9016 9008 7566 7573 9014 9007 9010 9017 7577 9018 8848 9019 9020 
980 981 1206 1205 1005 1006 1231 1230 7411 8851 8852 8844 7582 9022 9023 9015 7573 7580 9021 9014 9017 9024 7584 9025 8855 9026 9027 
981 982 1207 1206 1006 1007 1232 1231 7418 8858 8859 8851 7589 9029 9030 9022 7580 7587 9028 9021 9024 9031 7591 9032 8862 9033 9034 
982 983 1208 1207 1007 1008 1233 1232 7425 8865 8866 8858 7596 9036 9037 9029 7587 7594 9035 9028 9031 9038 7598 9039 8869 9040 9041 
983 984 1209 1208 1008 1009 1234 1233 7432 8872 8873 8865 7603 9043 9044 9036 7594 7601 9042 9035 9038 9045 7605 9046 8876 9047 9048 
984 985 1210 1209 1009 1010 1235 1234 7439 8879 8880 8872 7610 9050 9051 9043 7601 7608 9049 9042 9045 9052 7612 9053 8883 9054 9055 
985 986 1211 1210 1010 1011 1236 1235 7446 8886 8887 8879 7617 9057 9058 9050 7608 7615 9056 9049 9052 9059 7619 9060 8890 9061 9062 
986 987 1212 1211 1011 1012 1237 1236 7453 8893 8894 8886 7624 9064 9065 9057 7615 7622 9063 9056 9059 9066 7626 9067 8897 9068 9069 
987 988 1213 1212 1012 1013 1238 1237 7460 8900 8901 8893 7631 9071 9072 9064 7622 7629 9070 9063 9066 9073 7633 9074 8904 9075 9076 
988 989 1214 1213 1013 1014 1239 1238 7467 8907 8908 8900 7638 9078 9079 9071 7629 7636 9077 9070 9073 9080 7640 9081 8911 9082 9083 
989 990 1215 1214 1014 1015 1240 1239 7474 8914 8915 8907 7645 9085 9086 9078 7636 7643 9084 9077 9080 9087 7647 9088 8918 9089 9090 
990 991 1216 1215 1015 1016 1241 1240 7481 8921 8922 8914 7652 9092 9093 9085 7643 7650 9091 9084 9087 9094 7654 9095 8925 9096 9097 
991 992 1217 1216 1016 1017 1242 1241 7488 8928 8929 8921 7659 9099 9100 9092 7650 7657 9098 9091 9094 9101 7661 9102 8932 9103 9104 
992 993 1218 1217 1017 1018 1243 1242 7495 8935 8936 8928 7666 9106 9107 9099 7657 7664 9105 9098 9101 9108 7668 9109 8939 9110 9111 
993 994 1219 1218 1018 1019 1244 1243 7502 8942 8943 8935 7673 9113 9114 9106 7664 7671 9112 9105 9108 9115 7675 9116 8946 9117 9118 
994 995 1220 1219 1019 1020 1245 1244 7509 8949 8950 8942 7680 9120 9121 9113 7671 7678 9119 9112 9115 9122 7682 9123 8953 9124 9125 
995 996 1221 1220 1020 1021 1246 1245 7516 8956 8957 8949 7687 9127 9128 9120 7678 7685 9126 9119 9122 9129 7689 9130 8960 9131 9132 
996 997 1222 1221 1021 1022 1247 1246 7523 8963 8964 8956 7694 9134 9135 9127 7685 7692 9133 9126 9129 9136 7696 9137 8967 9138 9139 
997 998 1223 1222 1022 1023 1248 1247 7530 8970 8971 8963 7701 9141 9142 9134 7692 7699 9140 9133 9136 9143 7703 9144 8974 9145 9146 
998 999 1224 1223 1023 1024 1249 1248 7537 8977 8978 8970 7708 9148 9149 9141 7699 7706 9147 9140 9143 9150 7710 9151 8981 9152 9153 
1000 1001 1226 1225 1025 1026 1251 1250 7545 8985 8986 8987 7716 9156 9157 9158 7714 7713 9154 9155 9161 9159 7719 9160 8991 9162 9163 
1001 1002 1227 1226 1026 1027 1252 1251 7554 8994 8995 8985 7725 9165 9166 9156 7713 7723 9164 9154 9159 9167 7727 9168 8998 9169 9170 
1002 1003 1228 1227 1027 1028 1253 1252 7561 9001 9002 8994 7732 9172 9173 9165 7723 7730 9171 9164 9167 9174 7734 9175 9005 9176 9177 
1003 1004 1229 1228 1028 1029 1254 1253 7568 9008 9009 9001 7739 9179 9180 9172 7730 7737 9178 9171 9174 9181 7741 9182 9012 9183 9184 
1004 1005 1230 1229 1029 1030 1255 1254 7575 9015 9016 9008 7746 9186 9187 9179 7737 7744 9185 9178 9181 9188 7748 9189 9019 9190 9191 
1005 1006 1231 1230 1030 1031 1256 1255 7582 9022 9023 9015 7753 9193 9194 9186 7744 7751 9192 9185 9188 9195 7755 9196 9026 9197 9198 
1006 1007 1232 1231 1031 1032 1257 1256 7589 9029 9030 9022 7760 9200 9201 9193 7751 7758 9199 9192 9195 9202 7762 9203 9033 9204 9205 
1007 1008 1233 1232 1032 1033 1258 1257 7596 9036 9037 9029 7767 9207 9208 9200 7758 7765 9206 9199 9202 9209 7769 9210 9040 9211 9212 
1008 1009 1234 1233 1033 1034 1259 1258 7603 9043 9044 9036 7774 9214 9215 9207 7765 7772 9213 9206 9209 9216 7776 9217 9047 9218 9219 
1009 1010 1235 1234 1034 1035 1260 1259 7610 9050 9051 9043 7781 9221 9222 9214 7772 7779 9220 9213 9216 9223 7783 9224 9054 9225 9226 
1010 1011 1236 1235 1035 1036 1261 1260 7617 9057 9058 9050 7788 9228 9229 9221 7779 7786 9227 9220 9223 9230 7790 9231 9061 9232 9233 
1011 1012 1237 1236 1036 1037 1262 1261 7624 9064 9065 9057 7795 9235 9236 9228 7786 7793 9234 9227 9230 9237 7797 9238 9068 9239 9240 
1012 1013 1238 1237 1037 1038 1263 1262 7631 9071 9072 9064 7802 9242 9243 9235 7793 7800 9241 9234 9237 9244 7804 9245 9075 9246 9247 
1013 1014 1239 1238 1038 1039 1264 1263 7638 9078 9079 9071 7809 9249 9250 9242 7800 7807 9248 9241 9244 9251 7811 9252 9082 9253 9254 
1014 1015 1240 1239 1039 1040 1265 1264 7645 9085 9086 9078 7816 9256 9257 9249 7807 7814 9255 9248 9251 9258 7818 9259 9089 9260 9261 
1015 1016 1241 1240 1040 1041 1266 1265 7652 9092 9093 9085 7823 9263 9264 9256 7814 7821 9262 9255 9258 9265 7825 9266 9096 9267 9268 
1016 1017 1242 1241 1041 1042 1267 1266 7659 9099 9100 9092 7830 9270 9271 9263 7821 7828 9269 9262 9265 9272 7832 9273 9103 9274 9275 
1017 1018 1243 1242 1042 1043 1268 1267 7666 9106 9107 9099 7837 9277 9278 9270 7828 7835 9276 9269 9272 9279 7839 9280 9110 9281 9282 
1018 1019 1244 1243 1043 1044 1269 1268 7673 9113 9114 9106 7844 9284 9285 9277 7835 7842 9283 9276 9279 9286 7846 9287 9117 9288 9289 
1019 1020 1245 1244 1044 1045 1270 1269 7680 9120 9121 9113 7851 9291 9292 9284 7842 7849 9290 9283 9286 9293 7853 9294 9124 9295 9296 
1020 1021 1246 1245 1045 1046 1271 1270 7687 9127 9128 9120 7858 9298 9299 9291 7849 7856 9297 9290 9293 9300 7860 9301 9131 9302 9303 
1021 1022 1247 1246 1046 1047 1272 1271 7694 9134 9135 9127 7865 9305 9306 9298 7856 7863 9304 9297 9300 9307 7867 9308 9138 9309 9310 
1022 1023 1248 1247 1047 1048 1273 1272 7701 9141 9142 9134 7872 9312 9313 9305 7863 7870 9311 9304 9307 9314 7874 9315 9145 9316 9317 
1023 1024 1249 1248 1048 1049 1274 1273 7708 9148 9149 9141 7879 9319 9320 9312 7870 7877 9318 9311 9314 9321 7881 9322 9152 9323 9324 
1025 1026 1251 1250 1050 1051 1276 1275 7716 9156 9157 9158 7887 9327 9328 9329 7885 7884 9325 9326 9332 9330 7890 9331 9162 9333 9334 
1026 1027 1252 1251 1051 1052 1277 1276 7725 9165 9166 9156 7896 9336 9337 9327 7884 7894 9335 9325 9330 9338 7898 9339 9169 9340 9341 
1027 1028 1253 1252 1052 1053 1278 1277 7732 9172 9173 9165 7903 9343 9344 9336 7894 7901 9342 9335 9338 9345 7905 9346 9176 9347 9348 
1028 1029 1254 1253 1053 1054 1279 1278 7739 9179 9180 9172 7910 9350 9351 9343 7901 7908 9349 9342 9345 9352 7912 9353 9183 9354 9355 
1029 1030 1255 1254 1054 1055 1280 1279 7746 9186 9187 9179 7917 9357 9358 9350 7908 7915 9356 9349 9352 9359 7919 9360 9190 9361 9362 
1030 1031 1256 1255 1055 1056 1281 1280 7753 9193 9194 9186 7924 9364 9365 9357 7915 7922 9363 9356 9359 9366 7926 9367 9197 9368 9369 
1031 1032 1257 1256 1056 1057 1282 1281 7760 9200 9201 9193 7931 9371 9372 9364 7922 7929 9370 9363 9366 9373 7933 9374 9204 9375 9376 
1032 1033 1258 1257 1057 1058 1283 1282 7767 9207 9208 9200 7938 9378 9379 9371 7929 7936 9377 9370 9373 9380 7940 9381 9211 9382 9383 
1033 1034 1259 1258 1058 1059 1284 1283 7774 9214 9215 9207 7945 9385 9386 9378 7936 7943 9384 9377 9380 9387 7947 9388 9218 9389 9390 
1034 1035 1260 1259 1059 1060 1285 1284 7781 9221 9222 9214 7952 9392 9393 9385 7943 7950 9391 9384 9387 9394 7954 9395 9225 9396 9397 
1035 1036 1261 1260 1060 1061 1286 1285 7788 9228 9229 9221 7959 9399 9400 9392 7950 7957 9398 9391 9394 9401 7961 9402 9232 9403 9404 
1036 1037 1262 1261 1061 1062 1287 1286 7795 9235 9236 9228 7966 9406 9407 9399 7957 7964 9405 9398 9401 9408 7968 9409 9239 9410 9411 
1037 1038 1263 1262 1062 1063 1288 1287 7802 9242 9243 9235 7973 9413 9414 9406 7964 7971 9412 9405 9408 9415 7975 9416 9246 9417 9418 
1038 1039 1264 1263 1063 1064 1289 1288 7809 9249 9250 9242 7980 9420 9421 9413 7971 7978 9419 9412 9415 9422 7982 9423 9253 9424 9425 
1039 1040 1265 1264 1064 1065 1290 1289 7816 9256 9257 9249 7987 9427 9428 9420 7978 7985 9426 9419 9422 9429 7989 9430 9260 9431 9432 
1040 1041 1266 1265 1065 1066 1291 1290 7823 9263 9264 9256 7994 9434 9435 9427 7985 7992 9433 9426 9429 9436 7996 9437 9267 9438 9439 
1041 1042 1267 1266 1066 1067 1292 1291 7830 9270 9271 9263 8001 9441 9442 9434 7992 7999 9440 9433 9436 9443 8003 9444 9274 9445 9446 
1042 1043 1268 1267 1067 1068 1293 1292 7837 9277 9278 9270 8008 9448 9449 9441 7999 8006 9447 9440 9443 9450 8010 9451 9281 9452 9453 
1043 1044 1269 1268 1068 1069 1294 1293 7844 9284 9285 9277 8015 9455 9456 9448 8006 8013 9454 9447 9450 9457 8017 9458 9288 9459 9460 
1044 1045 1270 1269 1069 1070 1295 1294 7851 9291 9292 9284 8022 9462 9463 9455 8013 8020 9461 9454 9457 9464 8024 9465 9295 9466 9467 
1045 1046 1271 1270 1070 1071 1296 1295 7858 9298 9299 9291 8029 9469 9470 9462 8020 8027 9468 9461 9464 9471 8031 9472 9302 9473 9474 
1046 1047 1272 1271 1071 1072 1297 1296 7865 9305 9306 9298 8036 9476 9477 9469 8027 8034 9475 9468 9471 9478 8038 9479 9309 9480 9481 
1047 1048 1273 1272 1072 1073 1298 1297 7872 9312 9313 9305 8043 9483 9484 9476 8034 8041 9482 9475 9478 9485 8045 9486 9316 9487 9488 
1048 1049 1274 1273 1073 1074 1299 1298 7879 9319 9320 9312 8050 9490 9491 9483 8041 8048 9489 9482 9485 9492 8052 9493 9323 9494 9495 
1050 1051 1276 1275 1075 1076 1301 1300 7887 9327 9328 9329 8058 9498 9499 9500 8056 8055 9496 9497 9503 9501 8061 9502 9333 9504 9505 
1051 1052 1277 1276 1076 1077 1302 1301 7896 9336 9337 9327 8067 9507 9508 9498 8055 8065 9506 9496 9501 9509 8069 9510 9340 9511 9512 
1052 1053 1278 1277 1077 1078 1303 1302 7903 9343 9344 9336 8074 9514 9515 9507 8065 8072 9513 9506 9509 9516 8076 9517 9347 9518 9519 
1053 1054 1279 1278 1078 1079 1304 1303 7910 9350 9351 9343 8081 9521 9522 9514 8072 8079 9520 9513 9516 9523 8083 9524 9354 9525 9526 
1054 1055 1280 1279 1079 1080 1305 1304 7917 9357 9358 9350 8088 9528 9529 9521 8079 8086 9527 9520 9523 9530 8090 9531 9361 9532 9533 
1055 1056 1281 1280 1080 1081 1306 1305 7924 9364 9365 9357 8095 9535 9536 9528 8086 8093 9534 9527 9530 9537 8097 9538 9368 9539 9540 
1056 1057 1282 1281 1081 1082 1307 1306 7931 9371 9372 9364 8102 9542 9543 9535 8093 8100 9541 9534 9537 9544 8104 9545 9375 9546 9547 
1057 1058 1283 1282 1082 1083 1308 1307 7938 9378 9379 9371 8109 9549 9550 9542 8100 8107 9548 9541 9544 9551 8111 9552 9382 9553 9554 
1058 1059 1284 1283 1083 1084 1309 1308 7945 9385 9386 9378 8116 9556 9557 9549 8107 8114 9555 9548 9551 9558 8118 9559 9389 9560 9561 
1059 1060 1285 1284 1084 1085 1310 1309 7952 9392 9393 9385 8123 9563 9564 9556 8114 8121 9562 9555 9558 9565 8125 9566 9396 9567 9568 
1060 1061 1286 1285 1085 1086 1311 1310 7959 9399 9400 9392 8130 9570 9571 9563 8121 8128 9569 9562 9565 9572 8132 9573 9403 9574 9575 
1061 1062 1287 1286 1086 1087 1312 1311 7966 9406 9407 9399 8137 9577 9578 9570 8128 8135 9576 9569 9572 9579 8139 9580 9410 9581 9582 
1062 1063 1288 1287 1087 1088 1313 1312 7973 9413 9414 9406 8144 9584 9585 9577 8135 8142 9583 9576 9579 9586 8146 9587 9417 9588 9589 
1063 1064 1289 1288 1088 1089 1314 1313 7980 9420 9421 9413 8151 9591 9592 9584 8142 8149 9590 9583 9586 9593 8153 9594 9424 9595 9596 
1064 1065 1290 1289 1089 1090 1315 1314 7987 9427 9428 9420 8158 9598 9599 9591 8149 8156 9597 9590 9593 9600 8160 9601 9431 9602 9603 
1065 1066 1291 1290 1090 1091 1316 1315 7994 9434 9435 9427 8165 9605 9606 9598 8156 8163 9604 9597 9600 9607 8167 9608 9438 9609 9610 
1066 1067 1292 1291 1091 1092 1317 1316 8001 9441 9442 9434 8172 9612 9613 9605 8163 8170 9611 9604 9607 9614 8174 9615 9445 9616 9617 
1067 1068 1293 1292 1092 1093 1318 1317 8008 9448 9449 9441 8179 9619 9620 9612 8170 8177 9618 9611 9614 9621 8181 9622 9452 9623 9624 
1068 1069 1294 1293 1093 1094 1319 1318 8015 9455 9456 9448 8186 9626 9627 9619 8177 8184 9625 9618 9621 9628 8188 9629 9459 9630 9631 
1069 1070 1295 1294 1094 1095 1320 1319 8022 9462 9463 9455 8193 9633 9634 9626 8184 8191 9632 9625 9628 9635 8195 9636 9466 9637 9638 
1070 1071 1296 1295 1095 1096 1321 1320 8029 9469 9470 9462 8200 9640 9641 9633 8191 8198 9639 9632 9635 9642 8202 9643 9473 9644 9645 
1071 1072 1297 1296 1096 1097 1322 1321 8036 9476 9477 9469 8207 9647 9648 9640 8198 8205 9646 9639 9642 9649 8209 9650 9480 9651 9652 
1072 1073 1298 1297 1097 1098 1323 1322 8043 9483 9484 9476 8214 9654 9655 9647 8205 8212 9653 9646 9649 9656 8216 9657 9487 9658 9659 
1073 1074 1299 1298 1098 1099 1324 1323 8050 9490 9491 9483 8221 9661 9662 9654 8212 8219 9660 9653 9656 9663 8223 9664 9494 9665 9666 
1075 1076 1301 1300 1100 1101 1326 1325 8058 9498 9499 9500 8229 9669 9670 9671 8227 8226 9667 9668 9674 9672 8232 9673 9504 9675 9676 
1076 1077 1302 1301 1101 1102 1327 1326 8067 9507 9508 9498 8238 9678 9679 9669 8226 8236 9677 9667 9672 9680 8240 9681 9511 9682 9683 
1077 1078 1303 1302 1102 1103 1328 1327 8074 9514 9515 9507 8245 9685 9686 9678 8236 8243 9684 9677 9680 9687 8247 9688 9518 9689 9690 
1078 1079 1304 1303 1103 1104 1329 1328 8081 9521 9522 9514 8252 9692 9693 9685 8243 8250 9691 9684 9687 9694 8254 9695 9525 9696 9697 
1079 1080 1305 1304 1104 1105 1330 1329 8088 9528 9529 9521 8259 9699 9700 9692 8250 8257 9698 9691 9694 9701 8261 9702 9532 9703 9704 
1080 1081 1306 1305 1105 1106 1331 1330 8095 9535 9536 9528 8266 9706 9707 9699 8257 8264 9705 9698 9701 9708 8268 9709 9539 9710 9711 
1081 1082 1307 1306 1106 1107 1332 1331 8102 9542 9543 9535 8273 9713 9714 9706 8264 8271 9712 9705 9708 9715 8275 9716 9546 9717 9718 
1082 1083 1308 1307 1107 1108 1333 1332 8109 9549 9550 9542 8280 9720 9721 9713 8271 8278 9719 9712 9715 9722 8282 9723 9553 9724 9725 
1083 1084 1309 1308 1108 1109 1334 1333 8116 9556 9557 9549 8287 9727 9728 9720 8278 8285 9726 9719 9722 9729 8289 9730 9560 9731 9732 
1084 1085 1310 1309 1109 1110 1335 1334 8123 9563 9564 9556 8294 9734 9735 9727 8285 8292 9733 9726 9729 9736 8296 9737 9567 9738 9739 
1085 1086 1311 1310 1110 1111 1336 1335 8130 9570 9571 9563 8301 9741 9742 9734 8292 8299 9740 9733 9736 9743 8303 9744 9574 9745 9746 
1086 1087 1312 1311 1111 1112 1337 1336 8137 9577 9578 9570 8308 9748 9749 9741 8299 8306 9747 9740 9743 9750 8310 9751 9581 9752 9753 
1087 1088 1313 1312 1112 1113 1338 1337 8144 9584 9585 9577 8315 9755 9756 9748 8306 8313 9754 9747 9750 9757 8317 9758 9588 9759 9760 
1088 1089 1314 1313 1113 1114 1339 1338 8151 9591 9592 9584 8322 9762 9763 9755 8313 8320 9761 9754 9757 9764 8324 9765 9595 9766 9767 
1089 1090 1315 1314 1114 1115 1340 1339 8158 9598 9599 9591 8329 9769 9770 9762 8320 8327 9768 9761 9764 9771 8331 9772 9602 9773 9774 
1090 1091 1316 1315 1115 1116 1341 1340 8165 9605 9606 9598 8336 9776 9777 9769 8327 8334 9775 9768 9771 9778 8338 9779 9609 9780 9781 
1091 1092 1317 1316 1116 1117 1342 1341 8172 9612 9613 9605 8343 9783 9784 9776 8334 8341 9782 9775 9778 9785 8345 9786 9616 9787 9788 
1092 1093 1318 1317 1117 1118 1343 1342 8179 9619 9620 9612 8350 9790 9791 9783 8341 8348 9789 9782 9785 9792 8352 9793 9623 9794 9795 
1093 1094 1319 1318 1118 1119 1344 1343 8186 9626 9627 9619 8357 9797 9798 9790 8348 8355 9796 9789 9792 9799 8359 9800 9630 9801 9802 
1094 1095 1320 1319 1119 1120 1345 1344 8193 9633 9634 9626 8364 9804 9805 9797 8355 8362 9803 9796 9799 9806 8366 9807 9637 9808 9809 
1095 1096 1321 1320 1120 1121 1346 1345 8200 9640 9641 9633 8371 9811 9812 9804 8362 8369 9810 9803 9806 9813 8373 9814 9644 9815 9816 
1096 1097 1322 1321 1121 1122 1347 1346 8207 9647 9648 9640 8378 9818 9819 9811 8369 8376 9817 9810 9813 9820 8380 9821 9651 9822 9823 
1097 1098 1323 1322 1122 1123 1348 1347 8214 9654 9655 9647 8385 9825 9826 9818 8376 8383 9824 9817 9820 9827 8387 9828 9658 9829 9830 
1098 1099 1324 1323 1123 1124 1349 1348 8221 9661 9662 9654 8392 9832 9833 9825 8383 8390 9831 9824 9827 9834 8394 9835 9665 9836 9837 
1125 1126 1351 1350 1150 1151 1376 1375 8398 9838 9839 9840 8403 9843 9844 9845 8401 8400 9841 9842 9849 9847 8407 9848 9846 9850 9851 
1126 1127 1352 1351 1151 1152 1377 1376 8412 9852 9853 9838 8415 9855 9856 9843 8400 8413 9854 9841 9847 9858 8418 9859 9857 9860 9861 
1127 1128 1353 1352 1152 1153 1378 1377 8422 9862 9863 9852 8425 9865 9866 9855 8413 8423 9864 9854 9858 9868 8428 9869 9867 9870 9871 
1128 1129 1354 1353 1153 1154 1379 1378 8432 9872 9873 9862 8435 9875 9876 9865 8423 8433 9874 9864 9868 9878 8438 9879 9877 9880 9881 
1129 1130 1355 1354 1154 1155 1380 1379 8442 9882 9883 9872 8445 9885 9886 9875 8433 8443 9884 9874 9878 9888 8448 9889 9887 9890 9891 
1130 1131 1356 1355 1155 1156 1381 1380 8452 9892 9893 9882 8455 9895 9896 9885 8443 8453 9894 9884 9888 9898 8458 9899 9897 9900 9901 
1131 1132 1357 1356 1156 1157 1382 1381 8462 9902 9903 9892 8465 9905 9906 9895 8453 8463 9904 9894 9898 9908 8468 9909 9907 9910 9911 
1132 1133 1358 1357 1157 1158 1383 1382 8472 9912 9913 9902 8475 9915 9916 9905 8463 8473 9914 9904 9908 9918 8478 9919 9917 9920 9921 
1133 1134 1359 1358 1158 1159 1384 1383 8482 9922 9923 9912 8485 9925 9926 9915 8473 8483 9924 9914 9918 9928 8488 9929 9927 9930 9931 
1134 1135 1360 1359 1159 1160 1385 1384 8492 9932 9933 9922 8495 9935 9936 9925 8483 8493 9934 9924 9928 9938 8498 9939 9937 9940 9941 
1135 1136 1361 1360 1160 1161 1386 1385 8502 9942 9943 9932 8505 9945 9946 9935 8493 8503 9944 9934 9938 9948 8508 9949 9947 9950 9951 
1136 1137 1362 1361 1161 1162 1387 1386 8512 9952 9953 9942 8515 9955 9956 9945 8503 8513 9954 9944 9948 9958 8518 9959 9957 9960 9961 
1137 1138 1363 1362 1162 1163 1388 1387 8522 9962 9963 9952 8525 9965 9966 9955 8513 8523 9964 9954 9958 9968 8528 9969 9967 9970 9971 
1138 1139 1364 1363 1163 1164 1389 1388 8532 9972 9973 9962 8535 9975 9976 9965 8523 8533 9974 9964 9968 9978 8538 9979 9977 9980 9981 
1139 1140 1365 1364 1164 1165 1390 1389 8542 9982 9983 9972 8545 9985 9986 9975 8533 8543 9984 9974 9978 9988 8548 9989 9987 9990 9991 
1140 1141 1366 1365 1165 1166 1391 1390 8552 9992 9993 9982 8555 9995 9996 9985 8543 8553 9994 9984 9988 9998 8558 9999 9997 10000 10001 
1141 1142 1367 1366 1166 1167 1392 1391 8562 10002 10003 9992 8565 10005 10006 9995 8553 8563 10004 9994 9998 10008 8568 10009 10007 10010 10011 
1142 1143 1368 1367 1167 1168 1393 1392 8572 10012 10013 10002 8575 10015 10016 10005 8563 8573 10014 10004 10008 10018 8578 10019 10017 10020 10021 
1143 1144 1369 1368 1168 1169 1394 1393 8582 10022 10023 10012 8585 10025 10026 10015 8573 8583 10024 10014 10018 10028 8588 10029 10027 10030 10031 
1144 1145 1370 1369 1169 1170 1395 1394 8592 10032 10033 10022 8595 10035 10036 10025 8583 8593 10034 10024 10028 10038 8598 10039 10037 10040 10041 
1145 1146 1371 1370 1170 1171 1396 1395 8602 10042 10043 10032 8605 10045 10046 10035 8593 8603 10044 10034 10038 10048 8608 10049 10047 10050 10051 
1146 1147 1372 1371 1171 1172 1397 1396 8612 10052 10053 10042 8615 10055 10056 10045 8603 8613 10054 10044 10048 10058 8618 10059 10057 10060 10061 
1147 1148 1373 1372 1172 1173 1398 1397 8622 10062 10063 10052 8625 10065 10066 10055 8613 8623 10064 10054 10058 10068 8628 10069 10067 10070 10071 
1148 1149 1374 1373 1173 1174 1399 1398 8632 10072 10073 10062 8635 10075 10076 10065 8623 8633 10074 10064 10068 10078 8638 10079 10077 10080 10081 
1150 1151 1376 1375 1175 1176 1401 1400 8403 9843 9844 9845 8644 10084 10085 10086 8642 8641 10082 10083 10089 10087 8647 10088 9850 10090 10091 
1151 1152 1377 1376 1176 1177 1402 1401 8415 9855 9856 9843 8653 10093 10094 10084 8641 8651 10092 10082 10087 10095 8655 10096 9860 10097 10098 
1152 1153 1378 1377 1177 1178 1403 1402 8425 9865 9866 9855 8660 10100 10101 10093 8651 8658 10099 10092 10095 10102 8662 10103 9870 10104 10105 
1153 1154 1379 1378 1178 1179 1404 1403 8435 9875 9876 9865 8667 10107 10108 10100 8658 8665 10106 10099 10102 10109 8669 10110 9880 10111 10112 
1154 1155 1380 1379 1179 1180 1405 1404 8445 9885 9886 9875 8674 10114 10115 10107 8665 8672 10113 10106 10109 10116 8676 10117 9890 10118 10119 
1155 1156 1381 1380 1180 1181 1406 1405 8455 9895 9896 9885 8681 10121 10122 10114 8672 8679 10120 10113 10116 10123 8683 10124 9900 10125 10126 
1156 1157 1382 1381 1181 1182 1407 1406 8465 9905 9906 9895 8688 10128 10129 10121 8679 8686 10127 10120 10123 10130 8690 10131 9910 10132 10133 
1157 1158 1383 1382 1182 1183 1408 1407 8475 9915 9916 9905 8695 10135 10136 10128 8686 8693 10134 10127 10130 10137 8697 10138 9920 10139 10140 
1158 1159 1384 1383 1183 1184 1409 1408 8485 9925 9926 9915 8702 10142 10143 10135 8693 8700 10141 10134 10137 10144 8704 10145 9930 10146 10147 
1159 1160 1385 1384 1184 1185 1410 1409 8495 9935 9936 9925 8709 10149 10150 10142 8700 8707 10148 10141 10144 10151 8711 10152 9940 10153 10154 
1160 1161 1386 1385 1185 1186 1411 1410 8505 9945 9946 9935 8716 10156 10157 10149 8707 8714 10155 10148 10151 10158 8718 10159 9950 10160 10161 
1161 1162 1387 1386 1186 1187 1412 1411 8515 9955 9956 9945 8723 10163 10164 10156 8714 8721 10162 10155 10158 10165 8725 10166 9960 10167 10168 
1162 1163 1388 1387 1187 1188 1413 1412 8525 9965 9966 9955 8730 10170 10171 10163 8721 8728 10169 10162 10165 10172 8732 10173 9970 10174 10175 
1163 1164 1389 1388 1188 1189 1414 1413 8535 9975 9976 9965 8737 10177 10178 10170 8728 8735 10176 10169 10172 10179 8739 10180 9980 10181 10182 
1164 1165 1390 1389 1189 1190 1415 1414 8545 9985 9986 9975 8744 10184 10185 10177 8735 8742 10183 10176 10179 10186 8746 10187 9990 10188 10189 
1165 1166 1391 1390 1190 1191 1416 1415 8555 9995 9996 9985 8751 10191 10192 10184 8742 8749 10190 10183 10186 10193 8753 10194 10000 10195 10196 
1166 1167 1392 1391 1191 1192 1417 1416 8565 10005 10006 9995 8758 10198 10199 10191 8749 8756 10197 10190 10193 10200 8760 10201 10010 10202 10203 
1167 1168 1393 1392 1192 1193 1418 1417 8575 10015 10016 10005 8765 10205 10206 10198 8756 8763 10204 10197 10200 10207 8767 10208 10020 10209 10210 
1168 1169 1394 1393 1193 1194 1419 1418 8585 10025 10026 10015 8772 10212 10213 10205 8763 8770 10211 10204 10207 10214 8774 10215 10030 10216 10217 
1169 1170 1395 1394 1194 1195 1420 1419 8595 10035 10036 10025 8779 10219 10220 10212 8770 8777 10218 10211 10214 10221 8781 10222 10040 10223 10224 
1170 1171 1396 1395 1195 1196 1421 1420 8605 10045 10046 10035 8786 10226 10227 10219 8777 8784 10225 10218 10221 10228 8788 10229 10050 10230 10231 
1171 1172 1397 1396 1196 1197 1422 1421 8615 10055 10056 10045 8793 10233 10234 10226 8784 8791 10232 10225 10228 10235 8795 10236 10060 10237 10238 
1172 1173 1398 1397 1197 1198 1423 1422 8625 10065 10066 10055 8800 10240 10241 10233 8791 8798 10239 10232 10235 10242 8802 10243 10070 10244 10245 
1173 1174 1399 1398 1198 1199 1424 1423 8635 10075 10076 10065 8807 10247 10248 10240 8798 8805 10246 10239 10242 10249 8809 10250 10080 10251 10252 
1175 1176 1401 1400 1200 1201 1426 1425 8644 10084 10085 10086 8815 10255 10256 10257 8813 8812 10253 10254 10260 10258 8818 10259 10090 10261 10262 
1176 1177 1402 1401 1201 1202 1427 1426 8653 10093 10094 10084 8824 10264 10265 10255 8812 8822 10263 10253 10258 10266 8826 10267 10097 10268 10269 
1177 1178 1403 1402 1202 1203 1428 1427 8660 10100 10101 10093 8831 10271 10272 10264 8822 8829 10270 10263 10266 10273 8833 10274 10104 10275 10276 
1178 1179 1404 1403 1203 1204 1429 1428 8667 10107 10108 10100 8838 10278 10279 10271 8829 8836 10277 10270 10273 10280 8840 10281 10111 10282 10283 
1179 1180 1405 1404 1204 1205 1430 1429 8674 10114 10115 10107 8845 10285 10286 10278 8836 8843 10284 10277 10280 10287 8847 10288 10118 10289 10290 
1180 1181 1406 1405 1205 1206 1431 1430 8681 10121 10122 10114 8852 10292 10293 10285 8843 8850 10291 10284 10287 10294 8854 10295 10125 10296 10297 
1181 1182 1407 1406 1206 1207 1432 1431 8688 10128 10129 10121 8859 10299 10300 10292 8850 8857 10298 10291 10294 10301 8861 10302 10132 10303 10304 
1182 1183 1408 1407 1207 1208 1433 1432 8695 10135 10136 10128 8866 10306 10307 10299 8857 8864 10305 10298 10301 10308 8868 10309 10139 10310 10311 
1183 1184 1409 1408 1208 1209 1434 1433 8702 10142 10143 10135 8873 10313 10314 10306 8864 8871 10312 10305 10308 10315 8875 10316 10146 10317 10318 
1184 1185 1410 1409 1209 1210 1435 1434 8709 10149 10150 10142 8880 10320 10321 10313 8871 8878 10319 10312 10315 10322 8882 10323 10153 10324 10325 
1185 1186 1411 1410 1210 1211 1436 1435 8716 10156 10157 10149 8887 10327 10328 10320 8878 8885 10326 10319 10322 10329 8889 10330 10160 10331 10332 
1186 1187 1412 1411 1211 1212 1437 1436 8723 10163 10164 10156 8894 10334 10335 10327 8885 8892 10333 10326 10329 10336 8896 10337 10167 10338 10339 
1187 1188 1413 1412 1212 1213 1438 1437 8730 10170 10171 10163 8901 10341 10342 10334 8892 8899 10340 10333 10336 10343 8903 10344 10174 10345 10346 
1188 1189 1414 1413 1213 1214 1439 1438 8737 10177 10178 10170 8908 10348 10349 10341 8899 8906 10347 10340 10343 10350 8910 10351 10181 10352 10353 
1189 1190 1415 1414 1214 1215 1440 1439 8744 10184 10185 10177 8915 10355 10356 10348 8906 8913 10354 10347 10350 10357 8917 10358 10188 10359 10360 
1190 1191 1416 1415 1215 1216 1441 1440 8751 10191 10192 10184 8922 10362 10363 10355 8913 8920 10361 10354 10357 10364 8924 10365 10195 10366 10367 
1191 1192 1417 1416 1216 1217 1442 1441 8758 10198 10199 10191 8929 10369 10370 10362 8920 8927 10368 10361 10364 10371 8931 10372 10202 10373 10374 
1192 1193 1418 1417 1217 1218 1443 1442 8765 10205 10206 10198 8936 10376 10377 10369 8927 8934 10375 10368 10371 10378 8938 10379 10209 10380 10381 
1193 1194 1419 1418 1218 1219 1444 1443 8772 10212 10213 10205 8943 10383 10384 10376 8934 8941 10382 10375 10378 10385 8945 10386 10216 10387 10388 
1194 1195 1420 1419 1219 1220 1445 1444 8779 10219 10220 10212 8950 10390 10391 10383 8941 8948 10389 10382 10385 10392 8952 10393 10223 10394 10395 
1195 1196 1421 1420 1220 1221 1446 1445 8786 10226 10227 10219 8957 10397 10398 10390 8948 8955 10396 10389 10392 10399 8959 10400 10230 10401 10402 
1196 1197 1422 1421 1221 1222 1447 1446 8793 10233 10234 10226 8964 10404 10405 10397 8955 8962 10403 10396 10399 10406 8966 10407 10237 10408 10409 
1197 1198 1423 1422 1222 1223 1448 1447 8800 10240 10241 10233 8971 10411 10412 10404 8962 8969 10410 10403 10406 10413 8973 10414 10244 10415 10416 
1198 1199 1424 1423 1223 1224 1449 1448 8807 10247 10248 10240 8978 10418 10419 10411 8969 8976 10417 10410 10413 10420 8980 10421 10251 10422 10423 
1200 1201 1426 1425 1225 1226 1451 1450 8815 10255 10256 10257 8986 10426 10427 10428 8984 8983 10424 10425 10431 10429 8989 10430 10261 10432 10433 
1201 1202 1427 1426 1226 1227 1452 1451 8824 10264 10265 10255 8995 10435 10436 10426 8983 8993 10434 10424 10429 10437 8997 10438 10268 10439 10440 
1202 1203 1428 1427 1227 1228 1453 1452 8831 10271 10272 10264 9002 10442 10443 10435 8993 9000 10441 10434 10437 10444 9004 10445 10275 10446 10447 
1203 1204 1429 1428 1228 1229 1454 1453 8838 10278 10279 10271 9009 10449 10450 10442 9000 9007 10448 10441 10444 10451 9011 10452 10282 10453 10454 
1204 1205 1430 1429 1229 1230 1455 1454 8845 10285 10286 10278 9016 10456 10457 10449 9007 9014 10455 10448 10451 10458 9018 10459 10289 10460 10461 
1205 1206 1431 1430 1230 1231 1456 1455 8852 10292 10293 10285 9023 10463 10464 10456 9014 9021 10462 10455 10458 10465 9025 10466 10296 10467 10468 
1206 1207 1432 1431 1231 1232 1457 1456 8859 10299 10300 10292 9030 10470 10471 10463 9021 9028 10469 10462 10465 10472 9032 10473 10303 10474 10475 
1207 1208 1433 1432 1232 1233 1458 1457 8866 10306 10307 10299 9037 10477 10478 10470 9028 9035 10476 10469 10472 10479 9039 10480 10310 10481 10482 
1208 1209 1434 1433 1233 1234 1459 1458 8873 10313 10314 10306 9044 10484 10485 10477 9035 9042 10483 10476 10479 10486 9046 10487 10317 10488 10489 
1209 1210 1435 1434 1234 1235 1460 1459 8880 10320 10321 10313 9051 10491 10492 10484 9042 9049 10490 10483 10486 10493 9053 10494 10324 10495 10496 
1210 1211 1436 1435 1235 1236 1461 1460 8887 10327 10328 10320 9058 10498 10499 10491 9049 9056 10497 10490 10493 10500 9060 10501 10331 10502 10503 
1211 1212 1437 1436 1236 1237 1462 1461 8894 10334 10335 10327 9065 10505 10506 10498 9056 9063 10504 10497 10500 10507 9067 10508 10338 10509 10510 
1212 1213 1438 1437 1237 1238 1463 1462 8901 10341 10342 10334 9072 10512 10513 10505 9063 9070 10511 10504 10507 10514 9074 10515 10345 10516 10517 
1213 1214 1439 1438 1238 1239 1464 1463 8908 10348 10349 10341 9079 10519 10520 10512 9070 9077 10518 10511 10514 10521 9081 10522 10352 10523 10524 
1214 1215 1440 1439 1239 1240 1465 1464 8915 10355 10356 10348 9086 10526 10527 10519 9077 9084 10525 10518 10521 10528 9088 10529 10359 10530 10531 
1215 1216 1441 1440 1240 1241 1466 1465 8922 10362 10363 10355 9093 10533 10534 10526 9084 9091 10532 10525 10528 10535 9095 10536 10366 10537 10538 
1216 1217 1442 1441 1241 1242 1467 1466 8929 10369 10370 10362 9100 10540 10541 10533 9091 9098 10539 10532 10535 10542 9102 10543 10373 10544 10545 
1217 1218 1443 1442 1242 1243 1468 1467 8936 10376 10377 10369 9107 10547 10548 10540 9098 9105 10546 10539 10542 10549 9109 10550 10380 10551 10552 
1218 1219 1444 1443 1243 1244 1469 1468 8943 10383 10384 10376 9114 10554 10555 10547 9105 9112 10553 10546 10549 10556 9116 10557 10387 10558 10559 
1219 1220 1445 1444 1244 1245 1470 1469 8950 10390 10391 10383 9121 10561 10562 10554 9112 9119 10560 10553 10556 10563 9123 10564 10394 10565 10566 
1220 1221 1446 1445 1245 1246 1471 1470 8957 10397 10398 10390 9128 10568 10569 10561 9119 9126 10567 10560 10563 10570 9130 10571 10401 10572 10573 
1221 1222 1447 1446 1246 1247 1472 1471 8964 10404 10405 10397 9135 10575 10576 10568 9126 9133 10574 10567 10570 10577 9137 10578 10408 10579 10580 
1222 1223 1448 1447 1247 1248 1473 1472 8971 10411 10412 10404 9142 10582 10583 10575 9133 9140 10581 10574 10577 10584 9144 10585 10415 10586 10587 
1223 1224 1449 1448 1248 1249 1474 1473 8978 10418 10419 10411 9149 10589 10590 10582 9140 9147 10588 10581 10584 10591 9151 10592 10422 10593 10594 
1225 1226 1451 1450 1250 1251 1476 1475 8986 10426 10427 10428 9157 10597 10598 10599 9155 9154 10595 10596 10602 10600 9160 10601 10432 10603 10604 
1226 1227 1452 1451 1251 1252 1477 1476 8995 10435 10436 10426 9166 10606 10607 10597 9154 9164 10605 10595 10600 10608 9168 10609 10439 10610 10611 
1227 1228 1453 1452 1252 1253 1478 1477 9002 10442 10443 10435 9173 10613 10614 10606 9164 9171 10612 10605 10608 10615 9175 10616 10446 10617 10618 
1228 1229 1454 1453 1253 1254 1479 1478 9009 10449 10450 10442 9180 10620 10621 10613 9171 9178 10619 10612 10615 10622 9182 10623 10453 10624 10625 
1229 1230 1455 1454 1254 1255 1480 1479 9016 10456 10457 10449 9187 10627 10628 10620 9178 9185 10626 10619 10622 10629 9189 10630 10460 10631 10632 
1230 1231 1456 1455 1255 1256 1481 1480 9023 10463 10464 10456 9194 10634 10635 10627 9185 9192 10633 10626 10629 10636 9196 10637 10467 10638 10639 
1231 1232 1457 1456 1256 1257 1482 1481 9030 10470 10471 10463 9201 10641 10642 10634 9192 9199 10640 10633 10636 10643 9203 10644 10474 10645 10646 
1232 1233 1458 1457 1257 1258 1483 1482 9037 10477 10478 10470 9208 10648 10649 10641 9199 9206 10647 10640 10643 10650 9210 10651 10481 10652 10653 
1233 1234 1459 1458 1258 1259 1484 1483 9044 10484 10485 10477 9215 10655 10656 10648 9206 9213 10654 10647 10650 10657 9217 10658 10488 10659 10660 
1234 1235 1460 1459 1259 1260 1485 1484 9051 10491 10492 10484 9222 10662 10663 10655 9213 9220 10661 10654 10657 10664 9224 10665 10495 10666 10667 
1235 1236 1461 1460 1260 1261 1486 1485 9058 10498 10499 10491 9229 10669 10670 10662 9220 9227 10668 10661 10664 10671 9231 10672 10502 10673 10674 
1236 1237 1462 1461 1261 1262 1487 1486 9065 10505 10506 10498 9236 10676 10677 10669 9227 9234 10675 10668 10671 10678 9238 10679 10509 10680 10681 
1237 1238 1463 1462 1262 1263 1488 1487 9072 10512 10513 10505 9243 10683 10684 10676 9234 9241 10682 10675 10678 10685 9245 10686 10516 10687 10688 
1238 1239 1464 1463 1263 1264 1489 1488 9079 10519 10520 10512 9250 10690 10691 10683 9241 9248 10689 10682 10685 10692 9252 10693 10523 10694 10695 
1239 1240 1465 1464 1264 1265 1490 1489 9086 10526 10527 10519 9257 10697 10698 10690 9248 9255 10696 10689 10692 10699 9259 10700 10530 10701 10702 
1240 1241 1466 1465 1265 1266 1491 1490 9093 10533 10534 10526 9264 10704 10705 10697 9255 9262 10703 10696 10699 10706 9266 10707 10537 10708 10709 
1241 1242 1467 1466 1266 1267 1492 1491 9100 10540 10541 10533 9271 10711 10712 10704 9262 9269 10710 10703 10706 10713 9273 10714 10544 10715 10716 
1242 1243 1468 1467 1267 1268 1493 1492 9107 10547 10548 10540 9278 10718 10719 10711 9269 9276 10717 10710 10713 10720 9280 10721 10551 10722 10723 
1243 1244 1469 1468 1268 1269 1494 1493 9114 10554 10555 10547 9285 10725 10726 10718 9276 9283 10724 10717 10720 10727 9287 10728 10558 10729 10730 
1244 1245 1470 1469 1269 1270 1495 1494 9121 10561 10562 10554 9292 10732 10733 10725 9283 9290 10731 10724 10727 10734 9294 10735 10565 10736 10737 
1245 1246 1471 1470 1270 1271 1496 1495 9128 10568 10569 10561 9299 10739 10740 10732 9290 9297 10738 10731 10734 10741 9301 10742 10572 10743 10744 
1246 1247 1472 1471 1271 1272 1497 1496 9135 10575 10576 10568 9306 10746 10747 10739 9297 9304 10745 10738 10741 10748 9308 10749 10579 10750 10751 
1247 1248 1473 1472 1272 1273 1498 1497 9142 10582 10583 10575 9313 10753 10754 10746 9304 9311 10752 10745 10748 10755 9315 10756 10586 10757 10758 
1248 1249 1474 1473 1273 1274 1499 1498 9149 10589 10590 10582 9320 10760 10761 10753 9311 9318 10759 10752 10755 10762 9322 10763 10593 10764 10765 
1250 1251 1476 1475 1275 1276 1501 1500 9157 10597 10598 10599 9328 10768 10769 10770 9326 9325 10766 10767 10773 10771 9331 10772 10603 10774 10775 
1251 1252 1477 1476 1276 1277 1502 1501 9166 10606 10607 10597 9337 10777 10778 10768 9325 9335 10776 10766 10771 10779 9339 10780 10610 10781 10782 
1252 1253 1478 1477 1277 1278 1503 1502 9173 10613 10614 10606 9344 10784 10785 10777 9335 9342 10783 10776 10779 10786 9346 10787 10617 10788 10789 
1253 1254 1479 1478 1278 1279 1504 1503 9180 10620 10621 10613 9351 10791 10792 10784 9342 9349 10790 10783 10786 10793 9353 10794 10624 10795 10796 
1254 1255 1480 1479 1279 1280 1505 1504 9187 10627 10628 10620 9358 10798 10799 10791 9349 9356 10797 10790 10793 10800 9360 10801 10631 10802 10803 
1255 1256 1481 1480 1280 1281 1506 1505 9194 10634 10635 10627 9365 10805 10806 10798 9356 9363 10804 10797 10800 10807 9367 10808 10638 10809 10810 
1256 1257 1482 1481 1281 1282 1507 1506 9201 10641 10642 10634 9372 10812 10813 10805 9363 9370 10811 10804 10807 10814 9374 10815 10645 10816 10817 
1257 1258 1483 1482 1282 1283 1508 1507 9208 10648 10649 10641 9379 10819 10820 10812 9370 9377 10818 10811 10814 10821 9381 10822 10652 10823 10824 
1258 1259 1484 1483 1283 1284 1509 1508 9215 10655 10656 10648 9386 10826 10827 10819 9377 9384 10825 10818 10821 10828 9388 10829 10659 10830 10831 
1259 1260 1485 1484 1284 1285 1510 1509 9222 10662 10663 10655 9393 10833 10834 10826 9384 9391 10832 10825 10828 10835 9395 10836 10666 10837 10838 
1260 1261 1486 1485 1285 1286 1511 1510 9229 10669 10670 10662 9400 10840 10841 10833 9391 9398 10839 10832 10835 10842 9402 10843 10673 10844 10845 
1261 1262 1487 1486 1286 1287 1512 1511 9236 10676 10677 10669 9407 10847 10848 10840 9398 9405 10846 10839 10842 10849 9409 10850 10680 10851 10852 
1262 1263 1488 1487 1287 1288 1513 1512 9243 10683 10684 10676 9414 10854 10855 10847 9405 9412 10853 10846 10849 10856 9416 10857 10687 10858 10859 
1263 1264 1489 1488 1288 1289 1514 1513 9250 10690 10691 10683 9421 10861 10862 10854 9412 9419 10860 10853 10856 10863 9423 10864 10694 10865 10866 
1264 1265 1490 1489 1289 1290 1515 1514 9257 10697 10698 10690 9428 10868 10869 10861 9419 9426 10867 10860 10863 10870 9430 10871 10701 10872 10873 
1265 1266 1491 1490 1290 1291 1516 1515 9264 10704 10705 10697 9435 10875 10876 10868 9426 9433 10874 10867 10870 10877 9437 10878 10708 10879 10880 
1266 1267 1492 1491 1291 1292 1517 1516 9271 10711 10712 10704 9442 10882 10883 10875 9433 9440 10881 10874 10877 10884 9444 10885 10715 10886 10887 
1267 1268 1493 1492 1292 1293 1518 1517 9278 10718 10719 10711 9449 10889 10890 10882 9440 9447 10888 10881 10884 10891 9451 10892 10722 10893 10894 
1268 1269 1494 1493 1293 1294 1519 1518 9285 10725 10726 10718 9456 10896 10897 10889 9447 9454 10895 10888 10891 10898 9458 10899 10729 10900 10901 
1269 1270 1495 1494 1294 1295 1520 1519 9292 10732 10733 10725 9463 10903 10904 10896 9454 9461 10902 10895 10898 10905 9465 10906 10736 10907 10908 
1270 1271 1496 1495 1295 1296 1521 1520 9299 10739 10740 10732 9470 10910 10911 10903 9461 9468 10909 10902 10905 10912 9472 10913 10743 10914 10915 
1271 1272 1497 1496 1296 1297 1522 1521 9306 10746 10747 10739 9477 10917 10918 10910 9468 9475 10916 10909 10912 10919 9479 10920 10750 10921 10922 
1272 1273 1498 1497 1297 1298 1523 1522 9313 10753 10754 10746 9484 10924 10925 10917 9475 9482 10923 10916 10919 10926 9486 10927 10757 10928 10929 
1273 1274 1499 1498 1298 1299 1524 1523 9320 10760 10761 10753 9491 10931 10932 10924 9482 9489 10930 10923 10926 10933 9493 10934 10764 10935 10936 
1275 1276 1501 1500 1300 1301 1526 1525 9328 10768 10769 10770 9499 10939 10940 10941 9497 9496 10937 10938 10944 10942 9502 10943 10774 10945 10946 
1276 1277 1502 1501 1301 1302 1527 1526 9337 10777 10778 10768 9508 10948 10949 10939 9496 9506 10947 10937 10942 10950 9510 10951 10781 10952 10953 
1277 1278 1503 1502 1302 1303 1528 1527 9344 10784 10785 10777 9515 10955 10956 10948 9506 9513 10954 10947 10950 10957 9517 10958 10788 10959 10960 
1278 1279 1504 1503 1303 1304 1529 1528 9351 10791 10792 10784 9522 10962 10963 10955 9513 9520 10961 10954 10957 10964 9524 10965 10795 10966 10967 
1279 1280 1505 1504 1304 1305 1530 1529 9358 10798 10799 10791 9529 10969 10970 10962 9520 9527 10968 10961 10964 10971 9531 10972 10802 10973 10974 
1280 1281 1506 1505 1305 1306 1531 1530 9365 10805 10806 10798 9536 10976 10977 10969 9527 9534 10975 10968 10971 10978 9538 10979 10809 10980 10981 
1281 1282 1507 1506 1306 1307 1532 1531 9372 10812 10813 10805 9543 10983 10984 10976 9534 9541 10982 10975 10978 10985 9545 10986 10816 10987 10988 
1282 1283 1508 1507 1307 1308 1533 1532 9379 10819 10820 10812 9550 10990 10991 10983 9541 9548 10989 10982 10985 10992 9552 10993 10823 10994 10995 
1283 1284 1509 1508 1308 1309 1534 1533 9386 10826 10827 10819 9557 10997 10998 10990 9548 9555 10996 10989 10992 10999 9559 11000 10830 11001 11002 
1284 1285 1510 1509 1309 1310 1535 1534 9393 10833 10834 10826 9564 11004 11005 10997 9555 9562 11003 10996 10999 11006 9566 11007 10837 11008 11009 
1285 1286 1511 1510 1310 1311 1536 1535 9400 10840 10841 10833 9571 11011 11012 11004 9562 9569 11010 11003 11006 11013 9573 11014 10844 11015 11016 
1286 1287 1512 1511 1311 1312 1537 1536 9407 10847 10848 10840 9578 11018 11019 11011 9569 9576 11017 11010 11013 11020 9580 11021 10851 11022 11023 
1287 1288 1513 1512 1312 1313 1538 1537 9414 10854 10855 10847 9585 11025 11026 11018 9576 9583 11024 11017 11020 11027 9587 11028 10858 11029 11030 
1288 1289 1514 1513 1313 1314 1539 1538 9421 10861 10862 10854 9592 11032 11033 11025 9583 9590 11031 11024 11027 11034 9594 11035 10865 11036 11037 
1289 1290 1515 1514 1314 1315 1540 1539 9428 10868 10869 10861 9599 11039 11040 11032 9590 9597 11038 11031 11034 11041 9601 11042 10872 11043 11044 
1290 1291 1516 1515 1315 1316 1541 1540 9435 10875 10876 10868 9606 11046 11047 11039 9597 9604 11045 11038 11041 11048 9608 11049 10879 11050 11051 
1291 1292 1517 1516 1316 1317 1542 1541 9442 10882 10883 10875 9613 11053 11054 11046 9604 9611 11052 11045 11048 11055 9615 11056 10886 11057 11058 
1292 1293 1518 1517 1317 1318 1543 1542 9449 10889 10890 10882 9620 11060 11061 11053 9611 9618 11059 11052 11055 11062 9622 11063 10893 11064 11065 
1293 1294 1519 1518 1318 1319 1544 1543 9456 10896 10897 10889 9627 11067 11068 11060 9618 9625 11066 11059 11062 11069 9629 11070 10900 11071 11072 
1294 1295 1520 1519 1319 1320 1545 1544 9463 10903 10904 10896 9634 11074 11075 11067 9625 9632 11073 11066 11069 11076 9636 11077 10907 11078 11079 
1295 1296 1521 1520 1320 1321 1546 1545 9470 10910 10911 10903 9641 11081 11082 11074 9632 9639 11080 11073 11076 11083 9643 11084 10914 11085 11086 
1296 1297 1522 1521 1321 1322 1547 1546 9477 10917 10918 10910 9648 11088 11089 11081 9639 9646 11087 11080 11083 11090 9650 11091 10921 11092 11093 
1297 1298 1523 1522 1322 1323 1548 1547 9484 10924 10925 10917 9655 11095 11096 11088 9646 9653 11094 11087 11090 11097 9657 11098 10928 11099 11100 
1298 1299 1524 1523 1323 1324 1549 1548 9491 10931 10932 10924 9662 11102 11103 11095 9653 9660 11101 11094 11097 11104 9664 11105 10935 11106 11107 
1300 1301 1526 1525 1325 1326 1551 1550 9499 10939 10940 10941 9670 11110 11111 11112 9668 9667 11108 11109 11115 11113 9673 11114 10945 11116 11117 
1301 1302 1527 1526 1326 1327 1552 1551 9508 10948 10949 10939 9679 11119 11120 11110 9667 9677 11118 11108 11113 11121 9681 11122 10952 11123 11124 
1302 1303 1528 1527 1327 1328 1553 1552 9515 10955 10956 10948 9686 11126 11127 11119 9677 9684 11125 11118 11121 11128 9688 11129 10959 11130 11131 
1303 1304 1529 1528 1328 1329 1554 1553 9522 10962 10963 10955 9693 11133 11134 11126 9684 9691 11132 11125 11128 11135 9695 11136 10966 11137 11138 
1304 1305 1530 1529 1329 1330 1555 1554 9529 10969 10970 10962 9700 11140 11141 11133 9691 9698 11139 11132 11135 11142 9702 11143 10973 11144 11145 
1305 1306 1531 1530 1330 1331 1556 1555 9536 10976 10977 10969 9707 11147 11148 11140 9698 9705 11146 11139 11142 11149 9709 11150 10980 11151 11152 
1306 1307 1532 1531 1331 1332 1557 1556 9543 10983 10984 10976 9714 11154 11155 11147 9705 9712 11153 11146 11149 11156 9716 11157 10987 11158 11159 
1307 1308 1533 1532 1332 1333 1558 1557 9550 10990 10991 10983 9721 11161 11162 11154 9712 9719 11160 11153 11156 11163 9723 11164 10994 11165 11166 
1308 1309 1534 1533 1333 1334 1559 1558 9557 10997 10998 10990 9728 11168 11169 11161 9719 9726 11167 11160 11163 11170 9730 11171 11001 11172 11173 
1309 1310 1535 1534 1334 1335 1560 1559 9564 11004 11005 10997 9735 11175 11176 11168 9726 9733 11174 11167 11170 11177 9737 11178 11008 11179 11180 
1310 1311 1536 1535 1335 1336 1561 1560 9571 11011 11012 11004 9742 11182 11183 11175 9733 9740 11181 11174 11177 11184 9744 11185 11015 11186 11187 
1311 1312 1537 1536 1336 1337 1562 1561 9578 11018 11019 11011 9749 11189 11190 11182 9740 9747 11188 11181 11184 11191 9751 11192 11022 11193 11194 
1312 1313 1538 1537 1337 1338 1563 1562 9585 11025 11026 11018 9756 11196 11197 11189 9747 9754 11195 11188 11191 11198 9758 11199 11029 11200 11201 
1313 1314 1539 1538 1338 1339 1564 1563 9592 11032 11033 11025 9763 11203 11204 11196 9754 9761 11202 11195 11198 11205 9765 11206 11036 11207 11208 
1314 1315 1540 1539 1339 1340 1565 1564 9599 11039 11040 11032 9770 11210 11211 11203 9761 9768 11209 11202 11205 11212 9772 11213 11043 11214 11215 
1315 1316 1541 1540 1340 1341 1566 1565 9606 11046 11047 11039 9777 11217 11218 11210 9768 9775 11216 11209 11212 11219 9779 11220 11050 11221 11222 
1316 1317 1542 1541 1341 1342 1567 1566 9613 11053 11054 11046 9784 11224 11225 11217 9775 9782 11223 11216 11219 11226 9786 11227 11057 11228 11229 
1317 1318 1543 1542 1342 1343 1568 1567 9620 11060 11061 11053 9791 11231 11232 11224 9782 9789 11230 11223 11226 11233 9793 11234 11064 11235 11236 
1318 1319 1544 1543 1343 1344 1569 1568 9627 11067 11068 11060 9798 11238 11239 11231 9789 9796 11237 11230 11233 11240 9800 11241 11071 11242 11243 
1319 1320 1545 1544 1344 1345 1570 1569 9634 11074 11075 11067 9805 11245 11246 11238 9796 9803 11244 11237 11240 11247 9807 11248 11078 11249 11250 
1320 1321 1546 1545 1345 1346 1571 1570 9641 11081 11082 11074 9812 11252 11253 11245 9803 9810 11251 11244 11247 11254 9814 11255 11085 11256 11257 
1321 1322 1547 1546 1346 1347 1572 1571 9648 11088 11089 11081 9819 11259 11260 11252 9810 9817 11258 11251 11254 11261 9821 11262 11092 11263 11264 
1322 1323 1548 1547 1347 1348 1573 1572 9655 11095 11096 11088 9826 11266 11267 11259 9817 9824 11265 11258 11261 11268 9828 11269 11099 11270 11271 
1323 1324 1549 1548 1348 1349 1574 1573 9662 11102 11103 11095 9833 11273 11274 11266 9824 9831 11272 11265 11268 11275 9835 11276 11106 11277 11278 
1350 1351 1576 1575 1375 1376 1601 1600 9839 11279 11280 11281 9844 11284 11285 11286 9842 9841 11282 11283 11290 11288 9848 11289 11287 11291 11292 
1351 1352 1577 1576 1376 1377 1602 1601 9853 11293 11294 11279 9856 11296 11297 11284 9841 9854 11295 11282 11288 11299 9859 11300 11298 11301 11302 
1352 1353 1578 1577 1377 1378 1603 1602 9863 11303 11304 11293 9866 11306 11307 11296 9854 9864 11305 11295 11299 11309 9869 11310 11308 11311 11312 
1353 1354 1579 1578 1378 1379 1604 1603 9873 11313 11314 11303 9876 11316 11317 11306 9864 9874 11315 11305 11309 11319 9879 11320 11318 11321 11322 
1354 1355 1580 1579 1379 1380 1605 1604 9883 11323 11324 11313 9886 11326 11327 11316 9874 9884 11325 11315 11319 11329 9889 11330 11328 11331 11332 
1355 1356 1581 1580 1380 1381 1606 1605 9893 11333 11334 11323 9896 11336 11337 11326 9884 9894 11335 11325 11329 11339 9899 11340 11338 11341 11342 
1356 1357 1582 1581 1381 1382 1607 1606 9903 11343 11344 11333 9906 11346 11347 11336 9894 9904 11345 11335 11339 11349 9909 11350 11348 11351 11352 
1357 1358 1583 1582 1382 1383 1608 1607 9913 11353 11354 11343 9916 11356 11357 11346 9904 9914 11355 11345 11349 11359 9919 11360 11358 11361 11362 
1358 1359 1584 1583 1383 1384 1609 1608 9923 11363 11364 11353 9926 11366 11367 11356 9914 9924 11365 11355 11359 11369 9929 11370 11368 11371 11372 
1359 1360 1585 1584 1384 1385 1610 1609 9933 11373 11374 11363 9936 11376 11377 11366 9924 9934 11375 11365 11369 11379 9939 11380 11378 11381 11382 
1360 1361 1586 1585 1385 1386 1611 1610 9943 11383 11384 11373 9946 11386 11387 11376 9934 9944 11385 11375 11379 11389 9949 11390 11388 11391 11392 
1361 1362 1587 1586 1386 1387 1612 1611 9953 11393 11394 11383 9956 11396 11397 11386 9944 9954 11395 11385 11389 11399 9959 11400 11398 11401 11402 
1362 1363 1588 1587 1387 1388 1613 1612 9963 11403 11404 11393 9966 11406 11407 11396 9954 9964 11405 11395 11399 11409 9969 11410 11408 11411 11412 
1363 1364 1589 1588 1388 1389 1614 1613 9973 11413 11414 11403 9976 11416 11417 11406 9964 9974 11415 11405 11409 11419 9979 11420 11418 11421 11422 
1364 1365 1590 1589 1389 1390 1615 1614 9983 11423 11424 11413 9986 11426 11427 11416 9974 9984 11425 11415 11419 11429 9989 11430 11428 11431 11432 
1365 1366 1591 1590 1390 1391 1616 1615 9993 11433 11434 11423 9996 11436 11437 11426 9984 9994 11435 11425 11429 11439 9999 11440 11438 11441 11442 
1366 1367 1592 1591 1391 1392 1617 1616 10003 11443 11444 11433 10006 11446 11447 11436 9994 10004 11445 11435 11439 11449 10009 11450 11448 11451 11452 
1367 1368 1593 1592 1392 1393 1618 1617 10013 11453 11454 11443 10016 11456 11457 11446 10004 10014 11455 11445 11449 11459 10019 11460 11458 11461 11462 
1368 1369 1594 1593 1393 1394 1619 1618 10023 11463 11464 11453 10026 11466 11467 11456 10014 10024 11465 11455 11459 11469 10029 11470 11468 11471 11472 
1369 1370 1595 1594 1394 1395 1620 1619 10033 11473 11474 11463 10036 11476 11477 11466 10024 10034 11475 11465 11469 11479 10039 11480 11478 11481 11482 
1370 1371 1596 1595 1395 1396 1621 1620 10043 11483 11484 11473 10046 11486 11487 11476 10034 10044 11485 11475 11479 11489 10049 11490 11488 11491 11492 
1371 1372 1597 1596 1396 1397 1622 1621 10053 11493 11494 11483 10056 11496 11497 11486 10044 10054 11495 11485 11489 11499 10059 11500 11498 11501 11502 
1372 1373 1598 1597 1397 1398 1623 1622 10063 11503 11504 11493 10066 11506 11507 11496 10054 10064 11505 11495 11499 11509 10069 11510 11508 11511 11512 
1373 1374 1599 1598 1398 1399 1624 1623 10073 11513 11514 11503 10076 11516 11517 11506 10064 10074 11515 11505 11509 11519 10079 11520 11518 11521 11522 
1375 1376 1601 1600 1400 1401 1626 1625 9844 11284 11285 11286 10085 11525 11526 11527 10083 10082 11523 11524 11530 11528 10088 11529 11291 11531 11532 
1376 1377 1602 1601 1401 1402 1627 1626 9856 11296 11297 11284 10094 11534 11535 11525 10082 10092 11533 11523 11528 11536 10096 11537 11301 11538 11539 
1377 1378 1603 1602 1402 1403 1628 1627 9866 11306 11307 11296 10101 11541 11542 11534 10092 10099 11540 11533 11536 11543 10103 11544 11311 11545 11546 
1378 1379 1604 1603 1403 1404 1629 1628 9876 11316 11317 11306 10108 11548 11549 11541 10099 10106 11547 11540 11543 11550 10110 11551 11321 11552 11553 
1379 1380 1605 1604 1404 1405 1630 1629 9886 11326 11327 11316 10115 11555 11556 11548 10106 10113 11554 11547 11550 11557 10117 11558 11331 11559 11560 
1380 1381 1606 1605 1405 1406 1631 1630 9896 11336 11337 11326 10122 11562 11563 11555 10113 10120 11561 11554 11557 11564 10124 11565 11341 11566 11567 
1381 1382 1607 1606 1406 1407 1632 1631 9906 11346 11347 11336 10129 11569 11570 11562 10120 10127 11568 11561 11564 11571 10131 11572 11351 11573 11574 
1382 1383 1608 1607 1407 1408 1633 1632 9916 11356 11357 11346 10136 11576 11577 11569 10127 10134 11575 11568 11571 11578 10138 11579 11361 11580 11581 
1383 1384 1609 1608 1408 1409 1634 1633 9926 11366 11367 11356 10143 11583 11584 11576 10134 10141 11582 11575 11578 11585 10145 11586 11371 11587 11588 
1384 1385 1610 1609 1409 1410 1635 1634 9936 11376 11377 11366 10150 11590 11591 11583 10141 10148 11589 11582 11585 11592 10152 11593 11381 11594 11595 
1385 1386 1611 1610 1410 1411 1636 1635 9946 11386 11387 11376 10157 11597 11598 11590 10148 10155 11596 11589 11592 11599 10159 11600 11391 11601 11602 
1386 1387 1612 1611 1411 1412 1637 1636 9956 11396 11397 11386 10164 11604 11605 11597 10155 10162 11603 11596 11599 11606 10166 11607 11401 11608 11609 
1387 1388 1613 1612 1412 1413 1638 1637 9966 11406 11407 11396 10171 11611 11612 11604 10162 10169 11610 11603 11606 11613 10173 11614 11411 11615 11616 
1388 1389 1614 1613 1413 1414 1639 1638 9976 11416 11417 11406 10178 11618 11619 11611 10169 10176 11617 11610 11613 11620 10180 11621 11421 11622 11623 
1389 1390 1615 1614 1414 1415 1640 1639 9986 11426 11427 11416 10185 11625 11626 11618 10176 10183 11624 11617 11620 11627 10187 11628 11431 11629 11630 
1390 1391 1616 1615 1415 1416 1641 1640 9996 11436 11437 11426 10192 11632 11633 11625 10183 10190 11631 11624 11627 11634 10194 11635 11441 11636 11637 
1391 1392 1617 1616 1416 1417 1642 1641 10006 11446 11447 11436 10199 11639 11640 11632 10190 10197 11638 11631 11634 11641 10201 11642 11451 11643 11644 
1392 1393 1618 1617 1417 1418 1643 1642 10016 11456 11457 11446 10206 11646 11647 11639 10197 10204 11645 11638 11641 11648 10208 11649 11461 11650 11651 
1393 1394 1619 1618 1418 1419 1644 1643 10026 11466 11467 11456 10213 11653 11654 11646 10204 10211 11652 11645 11648 11655 10215 11656 11471 11657 11658 
1394 1395 1620 1619 1419 1420 1645 1644 10036 11476 11477 11466 10220 11660 11661 11653 10211 10218 11659 11652 11655 11662 10222 11663 11481 11664 11665 
1395 1396 1621 1620 1420 1421 1646 1645 10046 11486 11487 11476 10227 11667 11668 11660 10218 10225 11666 11659 11662 11669 10229 11670 11491 11671 11672 
1396 1397 1622 1621 1421 1422 1647 1646 10056 11496 11497 11486 10234 11674 11675 11667 10225 10232 11673 11666 11669 11676 10236 11677 11501 11678 11679 
1397 1398 1623 1622 1422 1423 1648 1647 10066 11506 11507 11496 10241 11681 11682 11674 10232 10239 11680 11673 11676 11683 10243 11684 11511 11685 11686 
1398 1399 1624 1623 1423 1424 1649 1648 10076 11516 11517 11506 10248 11688 11689 11681 10239 10246 11687 11680 11683 11690 10250 11691 11521 11692 11693 
1400 1401 1626 1625 1425 1426 1651 1650 10085 11525 11526 11527 10256 11696 11697 11698 10254 10253 11694 11695 11701 11699 10259 11700 11531 11702 11703 
1401 1402 1627 1626 1426 1427 1652 1651 10094 11534 11535 11525 10265 11705 11706 11696 10253 10263 11704 11694 11699 11707 10267 11708 11538 11709 11710 
1402 1403 1628 1627 1427 1428 1653 1652 10101 11541 11542 11534 10272 11712 11713 11705 10263 10270 11711 11704 11707 11714 10274 11715 11545 11716 11717 
1403 1404 1629 1628 1428 1429 1654 1653 10108 11548 11549 11541 10279 11719 11720 11712 10270 10277 11718 11711 11714 11721 10281 11722 11552 11723 11724 
1404 1405 1630 1629 1429 1430 1655 1654 10115 11555 11556 11548 10286 11726 11727 11719 10277 10284 11725 11718 11721 11728 10288 11729 11559 11730 11731 
1405 1406 1631 1630 1430 1431 1656 1655 10122 11562 11563 11555 10293 11733 11734 11726 10284 10291 11732 11725 11728 11735 10295 11736 11566 11737 11738 
1406 1407 1632 1631 1431 1432 1657 1656 10129 11569 11570 11562 10300 11740 11741 11733 10291 10298 11739 11732 11735 11742 10302 11743 11573 11744 11745 
1407 1408 1633 1632 1432 1433 1658 1657 10136 11576 11577 11569 10307 11747 11748 11740 10298 10305 11746 11739 11742 11749 10309 11750 11580 11751 11752 
1408 1409 1634 1633 1433 1434 1659 1658 10143 11583 11584 11576 10314 11754 11755 11747 10305 10312 11753 11746 11749 11756 10316 11757 11587 11758 11759 
1409 1410 1635 1634 1434 1435 1660 1659 10150 11590 11591 11583 10321 11761 11762 11754 10312 10319 11760 11753 11756 11763 10323 11764 11594 11765 11766 
1410 1411 1636 1635 1435 1436 1661 1660 10157 11597 11598 11590 10328 11768 11769 11761 10319 10326 11767 11760 11763 11770 10330 11771 11601 11772 11773 
1411 1412 1637 1636 1436 1437 1662 1661 10164 11604 11605 11597 10335 11775 11776 11768 10326 10333 11774 11767 11770 11777 10337 11778 11608 11779 11780 
1412 1413 1638 1637 1437 1438 1663 1662 10171 11611 11612 11604 10342 11782 11783 11775 10333 10340 11781 11774 11777 11784 10344 11785 11615 11786 11787 
1413 1414 1639 1638 1438 1439 1664 1663 10178 11618 11619 11611 10349 11789 11790 11782 10340 10347 11788 11781 11784 11791 10351 11792 11622 11793 11794 
1414 1415 1640 1639 1439 1440 1665 1664 10185 11625 11626 11618 10356 11796 11797 11789 10347 10354 11795 11788 11791 11798 10358 11799 11629 11800 11801 
1415 1416 1641 1640 1440 1441 1666 1665 10192 11632 11633 11625 10363 11803 11804 11796 10354 10361 11802 11795 11798 11805 10365 11806 11636 11807 11808 
1416 1417 1642 1641 1441 1442 1667 1666 10199 11639 11640 11632 10370 11810 11811 11803 10361 10368 11809 11802 11805 11812 10372 11813 11643 11814 11815 
1417 1418 1643 1642 1442 1443 1668 1667 10206 11646 11647 11639 10377 11817 11818 11810 10368 10375 11816 11809 11812 11819 10379 11820 11650 11821 11822 
1418 1419 1644 1643 1443 1444 1669 1668 10213 11653 11654 11646 10384 11824 11825 11817 10375 10382 11823 11816 11819 11826 10386 11827 11657 11828 11829 
1419 1420 1645 1644 1444 1445 1670 1669 10220 11660 11661 11653 10391 11831 11832 11824 10382 10389 11830 11823 11826 11833 10393 11834 11664 11835 11836 
1420 1421 1646 1645 1445 1446 1671 1670 10227 11667 11668 11660 10398 11838 11839 11831 10389 10396 11837 11830 11833 11840 10400 11841 11671 11842 11843 
1421 1422 1647 1646 1446 1447 1672 1671 10234 11674 11675 11667 10405 11845 11846 11838 10396 10403 11844 11837 11840 11847 10407 11848 11678 11849 11850 
1422 1423 1648 1647 1447 1448 1673 1672 10241 11681 11682 11674 10412 11852 11853 11845 10403 10410 11851 11844 11847 11854 10414 11855 11685 11856 11857 
1423 1424 1649 1648 1448 1449 1674 1673 10248 11688 11689 11681 10419 11859 11860 11852 10410 10417 11858 11851 11854 11861 10421 11862 11692 11863 11864 
1425 1426 1651 1650 1450 1451 1676 1675 10256 11696 11697 11698 10427 11867 11868 11869 10425 10424 11865 11866 11872 11870 10430 11871 11702 11873 11874 
1426 1427 1652 1651 1451 1452 1677 1676 10265 11705 11706 11696 10436 11876 11877 11867 10424 10434 11875 11865 11870 11878 10438 11879 11709 11880 11881 
1427 1428 1653 1652 1452 1453 1678 1677 10272 11712 11713 11705 10443 11883 11884 11876 10434 10441 11882 11875 11878 11885 10445 11886 11716 11887 11888 
1428 1429 1654 1653 1453 1454 1679 1678 10279 11719 11720 11712 10450 11890 11891 11883 10441 10448 11889 11882 11885 11892 10452 11893 11723 11894 11895 
1429 1430 1655 1654 1454 1455 1680 1679 10286 11726 11727 11719 10457 11897 11898 11890 10448 10455 11896 11889 11892 11899 10459 11900 11730 11901 11902 
1430 1431 1656 1655 1455 1456 1681 1680 10293 11733 11734 11726 10464 11904 11905 11897 10455 10462 11903 11896 11899 11906 10466 11907 11737 11908 11909 
1431 1432 1657 1656 1456 1457 1682 1681 10300 11740 11741 11733 10471 11911 11912 11904 10462 10469 11910 11903 11906 11913 10473 11914 11744 11915 11916 
1432 1433 1658 1657 1457 1458 1683 1682 10307 11747 11748 11740 10478 11918 11919 11911 10469 10476 11917 11910 11913 11920 10480 11921 11751 11922 11923 
1433 1434 1659 1658 1458 1459 1684 1683 10314 11754 11755 11747 10485 11925 11926 11918 10476 10483 11924 11917 11920 11927 10487 11928 11758 11929 11930 
1434 1435 1660 1659 1459 1460 1685 1684 10321 11761 11762 11754 10492 11932 11933 11925 10483 10490 11931 11924 11927 11934 10494 11935 11765 11936 11937 
1435 1436 1661 1660 1460 1461 1686 1685 10328 11768 11769 11761 10499 11939 11940 11932 10490 10497 11938 11931 11934 11941 10501 11942 11772 11943 11944 
1436 1437 1662 1661 1461 1462 1687 1686 10335 11775 11776 11768 10506 11946 11947 11939 10497 10504 11945 11938 11941 11948 10508 11949 11779 11950 11951 
1437 1438 1663 1662 1462 1463 1688 1687 10342 11782 11783 11775 10513 11953 11954 11946 10504 10511 11952 11945 11948 11955 10515 11956 11786 11957 11958 
1438 1439 1664 1663 1463 1464 1689 1688 10349 11789 11790 11782 10520 11960 11961 11953 10511 10518 11959 11952 11955 11962 10522 11963 11793 11964 11965 
1439 1440 1665 1664 1464 1465 1690 1689 10356 11796 11797 11789 10527 11967 11968 11960 10518 10525 11966 11959 11962 11969 10529 11970 11800 11971 11972 
1440 1441 1666 1665 1465 1466 1691 1690 10363 11803 11804 11796 10534 11974 11975 11967 10525 10532 11973 11966 11969 11976 10536 11977 11807 11978 11979 
1441 1442 1667 1666 1466 1467 1692 1691 10370 11810 11811 11803 10541 11981 11982 11974 10532 10539 11980 11973 11976 11983 10543 11984 11814 11985 11986 
1442 1443 1668 1667 1467 1468 1693 1692 10377 11817 11818 11810 10548 11988 11989 11981 10539 10546 11987 11980 11983 11990 10550 11991 11821 11992 11993 
1443 1444 1669 1668 1468 1469 1694 1693 10384 11824 11825 11817 10555 11995 11996 11988 10546 10553 11994 11987 11990 11997 10557 11998 11828 11999 12000 
1444 1445 1670 1669 1469 1470 1695 1694 10391 11831 11832 11824 10562 12002 12003 11995 10553 10560 12001 11994 11997 12004 10564 12005 11835 12006 12007 
1445 1446 1671 1670 1470 1471 1696 1695 10398 11838 11839 11831 10569 12009 12010 12002 10560 10567 12008 12001 12004 12011 10571 12012 11842 12013 12014 
1446 1447 1672 1671 1471 1472 1697 1696 10405 11845 11846 11838 10576 12016 12017 12009 10567 10574 12015 12008 12011 12018 10578 12019 11849 12020 12021 
1447 1448 1673 1672 1472 1473 1698 1697 10412 11852 11853 11845 10583 12023 12024 12016 10574 10581 12022 12015 12018 12025 10585 12026 11856 12027 12028 
1448 1449 1674 1673 1473 1474 1699 1698 10419 11859 11860 11852 10590 12030 12031 12023 10581 10588 12029 12022 12025 12032 10592 12033 11863 12034 12035 
1450 1451 1676 1675 1475 1476 1701 1700 10427 11867 11868 11869 10598 12038 12039 12040 10596 10595 12036 12037 12043 12041 10601 12042 11873 12044 12045 
1451 1452 1677 1676 1476 1477 1702 1701 10436 11876 11877 11867 10607 12047 12048 12038 10595 10605 12046 12036 12041 12049 10609 12050 11880 12051 12052 
1452 1453 1678 1677 1477 1478 1703 1702 10443 11883 11884 11876 10614 12054 12055 12047 10605 10612 12053 12046 12049 12056 10616 12057 11887 12058 12059 
1453 1454 1679 1678 1478 1479 1704 1703 10450 11890 11891 11883 10621 12061 12062 12054 10612 10619 12060 12053 12056 12063 10623 12064 11894 12065 12066 
1454 1455 1680 1679 1479 1480 1705 1704 10457 11897 11898 11890 10628 12068 12069 12061 10619 10626 12067 12060 12063 12070 10630 12071 11901 12072 12073 
1455 1456 1681 1680 1480 1481 1706 1705 10464 11904 11905 11897 10635 12075 12076 12068 10626 10633 12074 12067 12070 12077 10637 12078 11908 12079 12080 
1456 1457 1682 1681 1481 1482 1707 1706 10471 11911 11912 11904 10642 12082 12083 12075 10633 10640 12081 12074 12077 12084 10644 12085 11915 12086 12087 
1457 1458 1683 1682 1482 1483 1708 1707 10478 11918 11919 11911 10649 12089 12090 12082 10640 10647 12088 12081 12084 12091 10651 12092 11922 12093 12094 
1458 1459 1684 1683 1483 1484 1709 1708 10485 11925 11926 11918 10656 12096 12097 12089 10647 10654 12095 12088 12091 12098 10658 12099 11929 12100 12101 
1459 1460 1685 1684 1484 1485 1710 1709 10492 11932 11933 11925 10663 12103 12104 12096 10654 10661 12102 12095 12098 12105 10665 12106 11936 12107 12108 
1460 1461 1686 1685 1485 1486 1711 1710 10499 11939 11940 11932 10670 12110 12111 12103 10661 10668 12109 12102 12105 12112 10672 12113 11943 12114 12115 
1461 1462 1687 1686 1486 1487 1712 1711 10506 11946 11947 11939 10677 12117 12118 12110 10668 10675 12116 12109 12112 12119 10679 12120 11950 12121 12122 
1462 1463 1688 1687 1487 1488 1713 1712 10513 11953 11954 11946 10684 12124 12125 12117 10675 10682 12123 12116 12119 12126 10686 12127 11957 12128 12129 
1463 1464 1689 1688 1488 1489 1714 1713 10520 11960 11961 11953 10691 12131 12132 12124 10682 10689 12130 12123 12126 12133 10693 12134 11964 12135 12136 
1464 1465 1690 1689 1489 1490 1715 1714 10527 11967 11968 11960 10698 12138 12139 12131 10689 10696 12137 12130 12133 12140 10700 12141 11971 12142 12143 
1465 1466 1691 1690 1490 1491 1716 1715 10534 11974 11975 11967 10705 12145 12146 12138 10696 10703 12144 12137 12140 12147 10707 12148 11978 12149 12150 
1466 1467 1692 1691 1491 1492 1717 1716 10541 11981 11982 11974 10712 12152 12153 12145 10703 10710 12151 12144 12147 12154 10714 12155 11985 12156 12157 
1467 1468 1693 1692 1492 1493 1718 1717 10548 11988 11989 11981 10719 12159 12160 12152 10710 10717 12158 12151 12154 12161 10721 12162 11992 12163 12164 
1468 1469 1694 1693 1493 1494 1719 1718 10555 11995 11996 11988 10726 12166 12167 12159 10717 10724 12165 12158 12161 12168 10728 12169 11999 12170 12171 
1469 1470 1695 1694 1494 1495 1720 1719 10562 12002 12003 11995 10733 12173 12174 12166 10724 10731 12172 12165 12168 12175 10735 12176 12006 12177 12178 
1470 1471 1696 1695 1495 1496 1721 1720 10569 12009 12010 12002 10740 12180 12181 12173 10731 10738 12179 12172 12175 12182 10742 12183 12013 12184 12185 
1471 1472 1697 1696 1496 1497 1722 1721 10576 12016 12017 12009 10747 12187 12188 12180 10738 10745 12186 12179 12182 12189 10749 12190 12020 12191 12192 
1472 1473 1698 1697 1497 1498 1723 1722 10583 12023 12024 12016 10754 12194 12195 12187 10745 10752 12193 12186 12189 12196 10756 12197 12027 12198 12199 
1473 1474 1699 1698 1498 1499 1724 1723 10590 12030 12031 12023 10761 12201 12202 12194 10752 10759 12200 12193 12196 12203 10763 12204 12034 12205 12206 
1475 1476 1701 1700 1500 1501 1726 1725 10598 12038 12039 12040 10769 12209 12210 12211 10767 10766 12207 12208 12214 12212 10772 12213 12044 12215 12216 
1476 1477 1702 1701 1501 1502 1727 1726 10607 12047 12048 12038 10778 12218 12219 12209 10766 10776 12217 12207 12212 12220 10780 12221 12051 12222 12223 
1477 1478 1703 1702 1502 1503 1728 1727 10614 12054 12055 12047 10785 12225 12226 12218 10776 10783 12224 12217 12220 12227 10787 12228 12058 12229 12230 
1478 1479 1704 1703 1503 1504 1729 1728 10621 12061 12062 12054 10792 12232 12233 12225 10783 10790 12231 12224 12227 12234 10794 12235 12065 12236 12237 
1479 1480 1705 1704 1504 1505 1730 1729 10628 12068 12069 12061 10799 12239 12240 12232 10790 10797 12238 12231 12234 12241 10801 12242 12072 12243 12244 
1480 1481 1706 1705 1505 1506 1731 1730 10635 12075 12076 12068 10806 12246 12247 12239 10797 10804 12245 12238 12241 12248 10808 12249 12079 12250 12251 
1481 1482 1707 1706 1506 1507 1732 1731 10642 12082 12083 12075 10813 12253 12254 12246 10804 10811 12252 12245 12248 12255 10815 12256 12086 12257 12258 
1482 1483 1708 1707 1507 1508 1733 1732 10649 12089 12090 12082 10820 12260 12261 12253 10811 10818 12259 12252 12255 12262 10822 12263 12093 12264 12265 
1483 1484 1709 1708 1508 1509 1734 1733 10656 12096 12097 12089 10827 12267 12268 12260 10818 10825 12266 12259 12262 12269 10829 12270 12100 12271 12272 
1484 1485 1710 1709 1509 1510 1735 1734 10663 12103 12104 12096 10834 12274 12275 12267 10825 10832 12273 12266 12269 12276 10836 12277 12107 12278 12279 
1485 1486 1711 1710 1510 1511 1736 1735 10670 12110 12111 12103 10841 12281 12282 12274 10832 10839 12280 12273 12276 12283 10843 12284 12114 12285 12286 
1486 1487 1712 1711 1511 1512 1737 1736 10677 12117 12118 12110 10848 12288 12289 12281 10839 10846 12287 12280 12283 12290 10850 12291 12121 12292 12293 
1487 1488 1713 1712 1512 1513 1738 1737 10684 12124 12125 12117 10855 12295 12296 12288 10846 10853 12294 12287 12290 12297 10857 12298 12128 12299 12300 
1488 1489 1714 1713 1513 1514 1739 1738 10691 12131 12132 12124 10862 12302 12303 12295 10853 10860 12301 12294 12297 12304 10864 12305 12135 12306 12307 
1489 1490 1715 1714 1514 1515 1740 1739 10698 12138 12139 12131 10869 12309 12310 12302 10860 10867 12308 12301 12304 12311 10871 12312 12142 12313 12314 
1490 1491 1716 1715 1515 1516 1741 1740 10705 12145 12146 12138 10876 12316 12317 12309 10867 10874 12315 12308 12311 12318 10878 12319 12149 12320 12321 
1491 1492 1717 1716 1516 1517 1742 1741 10712 12152 12153 12145 10883 12323 12324 12316 10874 10881 12322 12315 12318 12325 10885 12326 12156 12327 12328 
1492 1493 1718 1717 1517 1518 1743 1742 10719 12159 12160 12152 10890 12330 12331 12323 10881 10888 12329 12322 12325 12332 10892 12333 12163 12334 12335 
1493 1494 1719 1718 1518 1519 1744 1743 10726 12166 12167 12159 10897 12337 12338 12330 10888 10895 12336 12329 12332 12339 10899 12340 12170 12341 12342 
1494 1495 1720 1719 1519 1520 1745 1744 10733 12173 12174 12166 10904 12344 12345 12337 10895 10902 12343 12336 12339 12346 10906 12347 12177 12348 12349 
1495 1496 1721 1720 1520 1521 1746 1745 10740 12180 12181 12173 10911 12351 12352 12344 10902 10909 12350 12343 12346 12353 10913 12354 12184 12355 12356 
1496 1497 1722 1721 1521 1522 1747 1746 10747 12187 12188 12180 10918 12358 12359 12351 10909 10916 12357 12350 12353 12360 10920 12361 12191 12362 12363 
1497 1498 1723 1722 1522 1523 1748 1747 10754 12194 12195 12187 10925 12365 12366 12358 10916 10923 12364 12357 12360 12367 10927 12368 12198 12369 12370 
1498 1499 1724 1723 1523 1524 1749 1748 10761 12201 12202 12194 10932 12372 12373 12365 10923 10930 12371 12364 12367 12374 10934 12375 12205 12376 12377 
1500 1501 1726 1725 1525 1526 1751 1750 10769 12209 12210 12211 10940 12380 12381 12382 10938 10937 12378 12379 12385 12383 10943 12384 12215 12386 12387 
1501 1502 1727 1726 1526 1527 1752 1751 10778 12218 12219 12209 10949 12389 12390 12380 10937 10947 12388 12378 12383 12391 10951 12392 12222 12393 12394 
1502 1503 1728 1727 1527 1528 1753 1752 10785 12225 12226 12218 10956 12396 12397 12389 10947 10954 12395 12388 12391 12398 10958 12399 12229 12400 12401 
1503 1504 1729 1728 1528 1529 1754 1753 10792 12232 12233 12225 10963 12403 12404 12396 10954 10961 12402 12395 12398 12405 10965 12406 12236 12407 12408 
1504 1505 1730 1729 1529 1530 1755 1754 10799 12239 12240 12232 10970 12410 12411 12403 10961 10968 12409 12402 12405 12412 10972 12413 12243 12414 12415 
1505 1506 1731 1730 1530 1531 1756 1755 10806 12246 12247 12239 10977 12417 12418 12410 10968 10975 12416 12409 12412 12419 10979 12420 12250 12421 12422 
1506 1507 1732 1731 1531 1532 1757 1756 10813 12253 12254 12246 10984 12424 12425 12417 10975 10982 12423 12416 12419 12426 10986 12427 12257 12428 12429 
1507 1508 1733 1732 1532 1533 1758 1757 10820 12260 12261 12253 10991 12431 12432 12424 10982 10989 12430 12423 12426 12433 10993 12434 12264 12435 12436 
1508 1509 1734 1733 1533 1534 1759 1758 10827 12267 12268 12260 10998 12438 12439 12431 10989 10996 12437 12430 12433 12440 11000 12441 12271 12442 12443 
1509 1510 1735 1734 1534 1535 1760 1759 10834 12274 12275 12267 11005 12445 12446 12438 10996 11003 12444 12437 12440 12447 11007 12448 12278 12449 12450 
1510 1511 1736 1735 1535 1536 1761 1760 10841 12281 12282 12274 11012 12452 12453 12445 11003 11010 12451 12444 12447 12454 11014 12455 12285 12456 12457 
1511 1512 1737 1736 1536 1537 1762 1761 10848 12288 12289 12281 11019 12459 12460 12452 11010 11017 12458 12451 12454 12461 11021 12462 12292 12463 12464 
1512 1513 1738 1737 1537 1538 1763 1762 10855 12295 12296 12288 11026 12466 12467 12459 11017 11024 12465 12458 12461 12468 11028 12469 12299 12470 12471 
1513 1514 1739 1738 1538 1539 1764 1763 10862 12302 12303 12295 11033 12473 12474 12466 11024 11031 12472 12465 12468 12475 11035 12476 12306 12477 12478 
1514 1515 1740 1739 1539 1540 1765 1764 10869 12309 12310 12302 11040 12480 12481 12473 11031 11038 12479 12472 12475 12482 11042 12483 12313 12484 12485 
1515 1516 1741 1740 1540 1541 1766 1765 10876 12316 12317 12309 11047 12487 12488 12480 11038 11045 12486 12479 12482 12489 11049 12490 12320 12491 12492 
1516 1517 1742 1741 1541 1542 1767 1766 10883 12323 12324 12316 11054 12494 12495 12487 11045 11052 12493 12486 12489 12496 11056 12497 12327 12498 12499 
1517 1518 1743 1742 1542 1543 1768 1767 10890 12330 12331 12323 11061 12501 12502 12494 11052 11059 12500 12493 12496 12503 11063 12504 12334 12505 12506 
1518 1519 1744 1743 1543 1544 1769 1768 10897 12337 12338 12330 11068 12508 12509 12501 11059 11066 12507 12500 12503 12510 11070 12511 12341 12512 12513 
1519 1520 1745 1744 1544 1545 1770 1769 10904 12344 12345 12337 11075 12515 12516 12508 11066 11073 12514 12507 12510 12517 11077 12518 12348 12519 12520 
1520 1521 1746 1745 1545 1546 1771 1770 10911 12351 12352 12344 11082 12522 12523 12515 11073 11080 12521 12514 12517 12524 11084 12525 12355 12526 12527 
1521 1522 1747 1746 1546 1547 1772 1771 10918 12358 12359 12351 11089 12529 12530 12522 11080 11087 12528 12521 12524 12531 11091 12532 12362 12533 12534 
1522 1523 1748 1747 1547 1548 1773 1772 10925 12365 12366 12358 11096 12536 12537 12529 11087 11094 12535 12528 12531 12538 11098 12539 12369 12540 12541 
1523 1524 1749 1748 1548 1549 1774 1773 10932 12372 12373 12365 11103 12543 12544 12536 11094 11101 12542 12535 12538 12545 11105 12546 12376 12547 12548 
1525 1526 1751 1750 1550 1551 1776 1775 10940 12380 12381 12382 11111 12551 12552 12553 11109 11108 12549 12550 12556 12554 11114 12555 12386 12557 12558 
1526 1527 1752 1751 1551 1552 1777 1776 10949 12389 12390 12380 11120 12560 12561 12551 11108 11118 12559 12549 12554 12562 11122 12563 12393 12564 12565 
1527 1528 1753 1752 1552 1553 1778 1777 10956 12396 12397 12389 11127 12567 12568 12560 11118 11125 12566 12559 12562 12569 11129 12570 12400 12571 12572 
1528 1529 1754 1753 1553 1554 1779 1778 10963 12403 12404 12396 11134 12574 12575 12567 11125 11132 12573 12566 12569 12576 11136 12577 12407 12578 12579 
1529 1530 1755 1754 1554 1555 1780 1779 10970 12410 12411 12403 11141 12581 12582 12574 11132 11139 12580 12573 12576 12583 11143 12584 12414 12585 12586 
1530 1531 1756 1755 1555 1556 1781 1780 10977 12417 12418 12410 11148 12588 12589 12581 11139 11146 12587 12580 12583 12590 11150 12591 12421 12592 12593 
1531 1532 1757 1756 1556 1557 1782 1781 10984 12424 12425 12417 11155 12595 12596 12588 11146 11153 12594 12587 12590 12597 11157 12598 12428 12599 12600 
1532 1533 1758 1757 1557 1558 1783 1782 10991 12431 12432 12424 11162 12602 12603 12595 11153 11160 12601 12594 12597 12604 11164 12605 12435 12606 12607 
1533 1534 1759 1758 1558 1559 1784 1783 10998 12438 12439 12431 11169 12609 12610 12602 11160 11167 12608 12601 12604 12611 11171 12612 12442 12613 12614 
1534 1535 1760 1759 1559 1560 1785 1784 11005 12445 12446 12438 11176 12616 12617 12609 11167 11174 12615 12608 12611 12618 11178 12619 12449 12620 12621 
1535 1536 1761 1760 1560 1561 1786 1785 11012 12452 12453 12445 11183 12623 12624 12616 11174 11181 12622 12615 12618 12625 11185 12626 12456 12627 12628 
1536 1537 1762 1761 1561 1562 1787 1786 11019 12459 12460 12452 11190 12630 12631 12623 11181 11188 12629 12622 12625 12632 11192 12633 12463 12634 12635 
1537 1538 1763 1762 1562 1563 1788 1787 11026 12466 12467 12459 11197 12637 12638 12630 11188 11195 12636 12629 12632 12639 11199 12640 12470 12641 12642 
1538 1539 1764 1763 1563 1564 1789 1788 11033 12473 12474 12466 11204 12644 12645 12637 11195 11202 12643 12636 12639 12646 11206 12647 12477 12648 12649 
1539 1540 1765 1764 1564 1565 1790 1789 11040 12480 12481 12473 11211 12651 12652 12644 11202 11209 12650 12643 12646 12653 11213 12654 12484 12655 12656 
1540 1541 1766 1765 1565 1566 1791 1790 11047 12487 12488 12480 11218 12658 12659 12651 11209 11216 12657 12650 12653 12660 11220 12661 12491 12662 12663 
1541 1542 1767 1766 1566 1567 1792 1791 11054 12494 12495 12487 11225 12665 12666 12658 11216 11223 12664 12657 12660 12667 11227 12668 12498 12669 12670 
1542 1543 1768 1767 1567 1568 1793 1792 11061 12501 12502 12494 11232 12672 12673 12665 11223 11230 12671 12664 12667 12674 11234 12675 12505 12676 12677 
1543 1544 1769 1768 1568 1569 1794 1793 11068 12508 12509 12501 11239 12679 12680 12672 11230 11237 12678 12671 12674 12681 11241 12682 12512 12683 12684 
1544 1545 1770 1769 1569 1570 1795 1794 11075 12515 12516 12508 11246 12686 12687 12679 11237 11244 12685 12678 12681 12688 11248 12689 12519 12690 12691 
1545 1546 1771 1770 1570 1571 1796 1795 11082 12522 12523 12515 11253 12693 12694 12686 11244 11251 12692 12685 12688 12695 11255 12696 12526 12697 12698 
1546 1547 1772 1771 1571 1572 1797 1796 11089 12529 12530 12522 11260 12700 12701 12693 11251 11258 12699 12692 12695 12702 11262 12703 12533 12704 12705 
1547 1548 1773 1772 1572 1573 1798 1797 11096 12536 12537 12529 11267 12707 12708 12700 11258 11265 12706 12699 12702 12709 11269 12710 12540 12711 12712 
1548 1549 1774 1773 1573 1574 1799 1798 11103 12543 12544 12536 11274 12714 12715 12707 11265 11272 12713 12706 12709 12716 11276 12717 12547 12718 12719 
1575 1576 1801 1800 1600 1601 1826 1825 11280 12720 12721 12722 11285 12725 12726 12727 11283 11282 12723 12724 12731 12729 11289 12730 12728 12732 12733 
1576 1577 1802 1801 1601 1602 1827 1826 11294 12734 12735 12720 11297 12737 12738 12725 11282 11295 12736 12723 12729 12740 11300 12741 12739 12742 12743 
1577 1578 1803 1802 1602 1603 1828 1827 11304 12744 12745 12734 11307 12747 12748 12737 11295 11305 12746 12736 12740 12750 11310 12751 12749 12752 12753 
1578 1579 1804 1803 1603 1604 1829 1828 11314 12754 12755 12744 11317 12757 12758 12747 11305 11315 12756 12746 12750 12760 11320 12761 12759 12762 12763 
1579 1580 1805 1804 1604 1605 1830 1829 11324 12764 12765 12754 11327 12767 12768 12757 11315 11325 12766 12756 12760 12770 11330 12771 12769 12772 12773 
1580 1581 1806 1805 1605 1606 1831 1830 11334 12774 12775 12764 11337 12777 12778 12767 11325 11335 12776 12766 12770 12780 11340 12781 12779 12782 12783 
1581 1582 1807 1806 1606 1607 1832 1831 11344 12784 12785 12774 11347 12787 12788 12777 11335 11345 12786 12776 12780 12790 11350 12791 12789 12792 12793 
1582 1583 1808 1807 1607 1608 1833 1832 11354 12794 12795 12784 11357 12797 12798 12787 11345 11355 12796 12786 12790 12800 11360 12801 12799 12802 12803 
1583 1584 1809 1808 1608 1609 1834 1833 11364 12804 12805 12794 11367 12807 12808 12797 11355 11365 12806 12796 12800 12810 11370 12811 12809 12812 12813 
1584 1585 1810 1809 1609 1610 1835 1834 11374 12814 12815 12804 11377 12817 12818 12807 11365 11375 12816 12806 12810 12820 11380 12821 12819 12822 12823 
1585 1586 1811 1810 1610 1611 1836 1835 11384 12824 12825 12814 11387 12827 12828 12817 11375 11385 12826 12816 12820 12830 11390 12831 12829 12832 12833 
1586 1587 1812 1811 1611 1612 1837 1836 11394 12834 12835 12824 11397 12837 12838 12827 11385 11395 12836 12826 12830 12840 11400 12841 12839 12842 12843 
1587 1588 1813 1812 1612 1613 1838 1837 11404 12844 12845 12834 11407 12847 12848 12837 11395 11405 12846 12836 12840 12850 11410 12851 12849 12852 12853 
1588 1589 1814 1813 1613 1614 1839 1838 11414 12854 12855 12844 11417 12857 12858 12847 11405 11415 12856 12846 12850 12860 11420 12861 12859 12862 12863 
1589 1590 1815 1814 1614 1615 1840 1839 11424 12864 12865 12854 11427 12867 12868 12857 11415 11425 12866 12856 12860 12870 11430 12871 12869 12872 12873 
1590 1591 1816 1815 1615 1616 1841 1840 11434 12874 12875 12864 11437 12877 12878 12867 11425 11435 12876 12866 12870 12880 11440 12881 12879 12882 12883 
1591 1592 1817 1816 1616 1617 1842 1841 11444 12884 12885 12874 11447 12887 12888 12877 11435 11445 12886 12876 12880 12890 11450 12891 12889 12892 12893 
1592 1593 1818 1817 1617 1618 1843 1842 11454 12894 12895 12884 11457 12897 12898 12887 11445 11455 12896 12886 12890 12900 11460 12901 12899 12902 12903 
1593 1594 1819 1818 1618 1619 1844 1843 11464 12904 12905 12894 11467 12907 12908 12897 11455 11465 12906 12896 12900 12910 11470 12911 12909 12912 12913 
1594 1595 1820 1819 1619 1620 1845 1844 11474 12914 12915 12904 11477 12917 12918 12907 11465 11475 12916 12906 12910 12920 11480 12921 12919 12922 12923 
1595 1596 1821 1820 1620 1621 1846 1845 11484 12924 12925 12914 11487 12927 12928 12917 11475 11485 12926 12916 12920 12930 11490 12931 12929 12932 12933 
1596 1597 1822 1821 1621 1622 1847 1846 11494 12934 12935 12924 11497 12937 12938 12927 11485 11495 12936 12926 12930 12940 11500 12941 12939 12942 12943 
1597 1598 1823 1822 1622 1623 1848 1847 11504 12944 12945 12934 11507 12947 12948 12937 11495 11505 12946 12936 12940 12950 11510 12951 12949 12952 12953 
1598 1599 1824 1823 1623 1624 1849 1848 11514 12954 12955 12944 11517 12957 12958 12947 11505 11515 12956 12946 12950 12960 11520 12961 12959 12962 12963 
1600 1601 1826 1825 1625 1626 1851 1850 11285 12725 12726 12727 11526 12966 12967 12968 11524 11523 12964 12965 12971 12969 11529 12970 12732 12972 12973 
1601 1602 1827 1826 1626 1627 1852 1851 11297 12737 12738 12725 11535 12975 12976 12966 11523 11533 12974 12964 12969 12977 11537 12978 12742 12979 12980 
1602 1603 1828 1827 1627 1628 1853 1852 11307 12747 12748 12737 11542 12982 12983 12975 11533 11540 12981 12974 12977 12984 11544 12985 12752 12986 12987 
1603 1604 1829 1828 1628 1629 1854 1853 11317 12757 12758 12747 11549 12989 12990 12982 11540 11547 12988 12981 12984 12991 11551 12992 12762 12993 12994 
1604 1605 1830 1829 1629 1630 1855 1854 11327 12767 12768 12757 11556 12996 12997 12989 11547 11554 12995 12988 12991 12998 11558 12999 12772 13000 13001 
1605 1606 1831 1830 1630 1631 1856 1855 11337 12777 12778 12767 11563 13003 13004 12996 11554 11561 13002 12995 12998 13005 11565 13006 12782 13007 13008 
1606 1607 1832 1831 1631 1632 1857 1856 11347 12787 12788 12777 11570 13010 13011 13003 11561 11568 13009 13002 13005 13012 11572 13013 12792 13014 13015 
1607 1608 1833 1832 1632 1633 1858 1857 11357 12797 12798 12787 11577 13017 13018 13010 11568 11575 13016 13009 13012 13019 11579 13020 12802 13021 13022 
1608 1609 1834 1833 1633 1634 1859 1858 11367 12807 12808 12797 11584 13024 13025 13017 11575 11582 13023 13016 13019 13026 11586 13027 12812 13028 13029 
1609 1610 1835 1834 1634 1635 1860 1859 11377 12817 12818 12807 11591 13031 13032 13024 11582 11589 13030 13023 13026 13033 11593 13034 12822 13035 13036 
1610 1611 1836 1835 1635 1636 1861 1860 11387 12827 12828 12817 11598 13038 13039 13031 11589 11596 13037 13030 13033 13040 11600 13041 12832 13042 13043 
1611 1612 1837 1836 1636 1637 1862 1861 11397 12837 12838 12827 11605 13045 13046 13038 11596 11603 13044 13037 13040 13047 11607 13048 12842 13049 13050 
1612 1613 1838 1837 1637 1638 1863 1862 11407 12847 12848 12837 11612 13052 13053 13045 11603 11610 13051 13044 13047 13054 11614 13055 12852 13056 13057 
1613 1614 1839 1838 1638 1639 1864 1863 11417 12857 12858 12847 11619 13059 13060 13052 11610 11617 13058 13051 13054 13061 11621 13062 12862 13063 13064 
1614 1615 1840 1839 1639 1640 1865 1864 11427 12867 12868 12857 11626 13066 13067 13059 11617 11624 13065 13058 13061 13068 11628 13069 12872 13070 13071 
1615 1616 1841 1840 1640 1641 1866 1865 11437 12877 12878 12867 11633 13073 13074 13066 11624 11631 13072 13065 13068 13075 11635 13076 12882 13077 13078 
1616 1617 1842 1841 1641 1642 1867 1866 11447 12887 12888 12877 11640 13080 13081 13073 11631 11638 13079 13072 13075 13082 11642 13083 12892 13084 13085 
1617 1618 1843 1842 1642 1643 1868 1867 11457 12897 12898 12887 11647 13087 13088 13080 11638 11645 13086 13079 13082 13089 11649 13090 12902 13091 13092 
1618 1619 1844 1843 1643 1644 1869 1868 11467 12907 12908 12897 11654 13094 13095 13087 11645 11652 13093 13086 13089 13096 11656 13097 12912 13098 13099 
1619 1620 1845 1844 1644 1645 1870 1869 11477 12917 12918 12907 11661 13101 13102 13094 11652 11659 13100 13093 13096 13103 11663 13104 12922 13105 13106 
1620 1621 1846 1845 1645 1646 1871 1870 11487 12927 12928 12917 11668 13108 13109 13101 11659 11666 13107 13100 13103 13110 11670 13111 12932 13112 13113 
1621 1622 1847 1846 1646 1647 1872 1871 11497 12937 12938 12927 11675 13115 13116 13108 11666 11673 13114 13107 13110 13117 11677 13118 12942 13119 13120 
1622 1623 1848 1847 1647 1648 1873 1872 11507 12947 12948 12937 11682 13122 13123 13115 11673 11680 13121 13114 13117 13124 11684 13125 12952 13126 13127 
1623 1624 1849 1848 1648 1649 1874 1873 11517 12957 12958 12947 11689 13129 13130 13122 11680 11687 13128 13121 13124 13131 11691 13132 12962 13133 13134 
1625 1626 1851 1850 1650 1651 1876 1875 11526 12966 12967 12968 11697 13137 13138 13139 11695 11694 13135 13136 13142 13140 11700 13141 12972 13143 13144 
1626 1627 1852 1851 1651 1652 1877 1876 11535 12975 12976 12966 11706 13146 13147 13137 11694 11704 13145 13135 13140 13148 11708 13149 12979 13150 13151 
1627 1628 1853 1852 1652 1653 1878 1877 11542 12982 12983 12975 11713 13153 13154 13146 11704 11711 13152 13145 13148 13155 11715 13156 12986 13157 13158 
1628 1629 1854 1853 1653 1654 1879 1878 11549 12989 12990 12982 11720 13160 13161 13153 11711 11718 13159 13152 13155 13162 11722 13163 12993 13164 13165 
1629 1630 1855 1854 1654 1655 1880 1879 11556 12996 12997 12989 11727 13167 13168 13160 11718 11725 13166 13159 13162 13169 11729 13170 13000 13171 13172 
1630 1631 1856 1855 1655 1656 1881 1880 11563 13003 13004 12996 11734 13174 13175 13167 11725 11732 13173 13166 13169 13176 11736 13177 13007 13178 13179 
1631 1632 1857 1856 1656 1657 1882 1881 11570 13010 13011 13003 11741 13181 13182 13174 11732 11739 13180 13173 13176 13183 11743 13184 13014 13185 13186 
1632 1633 1858 1857 1657 1658 1883 1882 11577 13017 13018 13010 11748 13188 13189 13181 11739 11746 13187 13180 13183 13190 11750 13191 13021 13192 13193 
1633 1634 1859 1858 1658 1659 1884 1883 11584 13024 13025 13017 11755 13195 13196 13188 11746 11753 13194 13187 13190 13197 11757 13198 13028 13199 13200 
1634 1635 1860 1859 1659 1660 1885 1884 11591 13031 13032 13024 11762 13202 13203 13195 11753 11760 13201 13194 13197 13204 11764 13205 13035 13206 13207 
1635 1636 1861 1860 1660 1661 1886 1885 11598 13038 13039 13031 11769 13209 13210 13202 11760 11767 13208 13201 13204 13211 11771 13212 13042 13213 13214 
1636 1637 1862 1861 1661 1662 1887 1886 11605 13045 13046 13038 11776 13216 13217 13209 11767 11774 13215 13208 13211 13218 11778 13219 13049 13220 13221 
1637 1638 1863 1862 1662 1663 1888 1887 11612 13052 13053 13045 11783 13223 13224 13216 11774 11781 13222 13215 13218 13225 11785 13226 13056 13227 13228 
1638 1639 1864 1863 1663 1664 1889 1888 11619 13059 13060 13052 11790 13230 13231 13223 11781 11788 13229 13222 13225 13232 11792 13233 13063 13234 13235 
1639 1640 1865 1864 1664 1665 1890 1889 11626 13066 13067 13059 11797 13237 13238 13230 11788 11795 13236 13229 13232 13239 11799 13240 13070 13241 13242 
1640 1641 1866 1865 1665 1666 1891 1890 11633 13073 13074 13066 11804 13244 13245 13237 11795 11802 13243 13236 13239 13246 11806 13247 13077 13248 13249 
1641 1642 1867 1866 1666 1667 1892 1891 11640 13080 13081 13073 11811 13251 13252 13244 11802 11809 13250 13243 13246 13253 11813 13254 13084 13255 13256 
1642 1643 1868 1867 1667 1668 1893 1892 11647 13087 13088 13080 11818 13258 13259 13251 11809 11816 13257 13250 13253 13260 11820 13261 13091 13262 13263 
1643 1644 1869 1868 1668 1669 1894 1893 11654 13094 13095 13087 11825 13265 13266 13258 11816 11823 13264 13257 13260 13267 11827 13268 13098 13269 13270 
1644 1645 1870 1869 1669 1670 1895 1894 11661 13101 13102 13094 11832 13272 13273 13265 11823 11830 13271 13264 13267 13274 11834 13275 13105 13276 13277 
1645 1646 1871 1870 1670 1671 1896 1895 11668 13108 13109 13101 11839 13279 13280 13272 11830 11837 13278 13271 13274 13281 11841 13282 13112 13283 13284 
1646 1647 1872 1871 1671 1672 1897 1896 11675 13115 13116 13108 11846 13286 13287 13279 11837 11844 13285 13278 13281 13288 11848 13289 13119 13290 13291 
1647 1648 1873 1872 1672 1673 1898 1897 11682 13122 13123 13115 11853 13293 13294 13286 11844 11851 13292 13285 13288 13295 11855 13296 13126 13297 13298 
1648 1649 1874 1873 1673 1674 1899 1898 11689 13129 13130 13122 11860 13300 13301 13293 11851 11858 13299 13292 13295 13302 11862 13303 13133 13304 13305 
1650 1651 1876 1875 1675 1676 1901 1900 11697 13137 13138 13139 11868 13308 13309 13310 11866 11865 13306 13307 13313 13311 11871 13312 13143 13314 13315 
1651 1652 1877 1876 1676 1677 1902 1901 11706 13146 13147 13137 11877 13317 13318 13308 11865 11875 13316 13306 13311 13319 11879 13320 13150 13321 13322 
1652 1653 1878 1877 1677 1678 1903 1902 11713 13153 13154 13146 11884 13324 13325 13317 11875 11882 13323 13316 13319 13326 11886 13327 13157 13328 13329 
1653 1654 1879 1878 1678 1679 1904 1903 11720 13160 13161 13153 11891 13331 13332 13324 11882 11889 13330 13323 13326 13333 11893 13334 13164 13335 13336 
1654 1655 1880 1879 1679 1680 1905 1904 11727 13167 13168 13160 11898 13338 13339 13331 11889 11896 13337 13330 13333 13340 11900 13341 13171 13342 13343 
1655 1656 1881 1880 1680 1681 1906 1905 11734 13174 13175 13167 11905 13345 13346 13338 11896 11903 13344 13337 13340 13347 11907 13348 13178 13349 13350 
1656 1657 1882 1881 1681 1682 1907 1906 11741 13181 13182 13174 11912 13352 13353 13345 11903 11910 13351 13344 13347 13354 11914 13355 13185 13356 13357 
1657 1658 1883 1882 1682 1683 1908 1907 11748 13188 13189 13181 11919 13359 13360 13352 11910 11917 13358 13351 13354 13361 11921 13362 13192 13363 13364 
1658 1659 1884 1883 1683 1684 1909 1908 11755 13195 13196 13188 11926 13366 13367 13359 11917 11924 13365 13358 13361 13368 11928 13369 13199 13370 13371 
1659 1660 1885 1884 1684 1685 1910 1909 11762 13202 13203 13195 11933 13373 13374 13366 11924 11931 13372 13365 13368 13375 11935 13376 13206 13377 13378 
1660 1661 1886 1885 1685 1686 1911 1910 11769 13209 13210 13202 11940 13380 13381 13373 11931 11938 13379 13372 13375 13382 11942 13383 13213 13384 13385 
1661 1662 1887 1886 1686 1687 1912 1911 11776 13216 13217 13209 11947 13387 13388 13380 11938 11945 13386 13379 13382 13389 11949 13390 13220 13391 13392 
1662 1663 1888 1887 1687 1688 1913 1912 11783 13223 13224 13216 11954 13394 13395 13387 11945 11952 13393 13386 13389 13396 11956 13397 13227 13398 13399 
1663 1664 1889 1888 1688 1689 1914 1913 11790 13230 13231 13223 11961 13401 13402 13394 11952 11959 13400 13393 13396 13403 11963 13404 13234 13405 13406 
1664 1665 1890 1889 1689 1690 1915 1914 11797 13237 13238 13230 11968 13408 13409 13401 11959 11966 13407 13400 13403 13410 11970 13411 13241 13412 13413 
1665 1666 1891 1890 1690 1691 1916 1915 11804 13244 13245 13237 11975 13415 13416 13408 11966 11973 13414 13407 13410 13417 11977 13418 13248 13419 13420 
1666 1667 1892 1891 1691 1692 1917 1916 11811 13251 13252 13244 11982 13422 13423 13415 11973 11980 13421 13414 13417 13424 11984 13425 13255 13426 13427 
1667 1668 1893 1892 1692 1693 1918 1917 11818 13258 13259 13251 11989 13429 13430 13422 11980 11987 13428 13421 13424 13431 11991 13432 13262 13433 13434 
1668 1669 1894 1893 1693 1694 1919 1918 11825 13265 13266 13258 11996 13436 13437 13429 11987 11994 13435 13428 13431 13438 11998 13439 13269 13440 13441 
1669 1670 1895 1894 1694 1695 1920 1919 11832 13272 13273 13265 12003 13443 13444 13436 11994 12001 13442 13435 13438 13445 12005 13446 13276 13447 13448 
1670 1671 1896 1895 1695 1696 1921 1920 11839 13279 13280 13272 12010 13450 13451 13443 12001 12008 13449 13442 13445 13452 12012 13453 13283 13454 13455 
1671 1672 1897 1896 1696 1697 1922 1921 11846 13286 13287 13279 12017 13457 13458 13450 12008 12015 13456 13449 13452 13459 12019 13460 13290 13461 13462 
1672 1673 1898 1897 1697 1698 1923 1922 11853 13293 13294 13286 12024 13464 13465 13457 12015 12022 13463 13456 13459 13466 12026 13467 13297 13468 13469 
1673 1674 1899 1898 1698 1699 1924 1923 11860 13300 13301 13293 12031 13471 13472 13464 12022 12029 13470 13463 13466 13473 12033 13474 13304 13475 13476 
1675 1676 1901 1900 1700 1701 1926 1925 11868 13308 13309 13310 12039 13479 13480 13481 12037 12036 13477 13478 13484 13482 12042 13483 13314 13485 13486 
1676 1677 1902 1901 1701 1702 1927 1926 11877 13317 13318 13308 12048 13488 13489 13479 12036 12046 13487 13477 13482 13490 12050 13491 13321 13492 13493 
1677 1678 1903 1902 1702 1703 1928 1927 11884 13324 13325 13317 12055 13495 13496 13488 12046 12053 13494 13487 13490 13497 12057 13498 13328 13499 13500 
1678 1679 1904 1903 1703 1704 1929 1928 11891 13331 13332 13324 12062 13502 13503 13495 12053 12060 13501 13494 13497 13504 12064 13505 13335 13506 13507 
1679 1680 1905 1904 1704 1705 1930 1929 11898 13338 13339 13331 12069 13509 13510 13502 12060 12067 13508 13501 13504 13511 12071 13512 13342 13513 13514 
1680 1681 1906 1905 1705 1706 1931 1930 11905 13345 13346 13338 12076 13516 13517 13509 12067 12074 13515 13508 13511 13518 12078 13519 13349 13520 13521 
1681 1682 1907 1906 1706 1707 1932 1931 11912 13352 13353 13345 12083 13523 13524 13516 12074 12081 13522 13515 13518 13525 12085 13526 13356 13527 13528 
1682 1683 1908 1907 1707 1708 1933 1932 11919 13359 13360 13352 12090 13530 13531 13523 12081 12088 13529 13522 13525 13532 12092 13533 13363 13534 13535 
1683 1684 1909 1908 1708 1709 1934 1933 11926 13366 13367 13359 12097 13537 13538 13530 12088 12095 13536 13529 13532 13539 12099 13540 13370 13541 13542 
1684 1685 1910 1909 1709 1710 1935 1934 11933 13373 13374 13366 12104 13544 13545 13537 12095 12102 13543 13536 13539 13546 12106 13547 13377 13548 13549 
1685 1686 1911 1910 1710 1711 1936 1935 11940 13380 13381 13373 12111 13551 13552 13544 12102 12109 13550 13543 13546 13553 12113 13554 13384 13555 13556 
1686 1687 1912 1911 1711 1712 1937 1936 11947 13387 13388 13380 12118 13558 13559 13551 12109 12116 13557 13550 13553 13560 12120 13561 13391 13562 13563 
1687 1688 1913 1912 1712 1713 1938 1937 11954 13394 13395 13387 12125 13565 13566 13558 12116 12123 13564 13557 13560 13567 12127 13568 13398 13569 13570 
1688 1689 1914 1913 1713 1714 1939 1938 11961 13401 13402 13394 12132 13572 13573 13565 12123 12130 13571 13564 13567 13574 12134 13575 13405 13576 13577 
1689 1690 1915 1914 1714 1715 1940 1939 11968 13408 13409 13401 12139 13579 13580 13572 12130 12137 13578 13571 13574 13581 12141 13582 13412 13583 13584 
1690 1691 1916 1915 1715 1716 1941 1940 11975 13415 13416 13408 12146 13586 13587 13579 12137 12144 13585 13578 13581 13588 12148 13589 13419 13590 13591 
1691 1692 1917 1916 1716 1717 1942 1941 11982 13422 13423 13415 12153 13593 13594 13586 12144 12151 13592 13585 13588 13595 12155 13596 13426 13597 13598 
1692 1693 1918 1917 1717 1718 1943 1942 11989 13429 13430 13422 12160 13600 13601 13593 12151 12158 13599 13592 13595 13602 12162 13603 13433 13604 13605 
1693 1694 1919 1918 1718 1719 1944 1943 11996 13436 13437 13429 12167 13607 13608 13600 12158 12165 13606 13599 13602 13609 12169 13610 13440 13611 13612 
1694 1695 1920 1919 1719 1720 1945 1944 12003 13443 13444 13436 12174 13614 13615 13607 12165 12172 13613 13606 13609 13616 12176 13617 13447 13618 13619 
1695 1696 1921 1920 1720 1721 1946 1945 12010 13450 13451 13443 12181 13621 13622 13614 12172 12179 13620 13613 13616 13623 12183 13624 13454 13625 13626 
1696 1697 1922 1921 1721 1722 1947 1946 12017 13457 13458 13450 12188 13628 13629 13621 12179 12186 13627 13620 13623 13630 12190 13631 13461 13632 13633 
1697 1698 1923 1922 1722 1723 1948 1947 12024 13464 13465 13457 12195 13635 13636 13628 12186 12193 13634 13627 13630 13637 12197 13638 13468 13639 13640 
1698 1699 1924 1923 1723 1724 1949 1948 12031 13471 13472 13464 12202 13642 13643 13635 12193 12200 13641 13634 13637 13644 12204 13645 13475 13646 13647 
1700 1701 1926 1925 1725 1726 1951 1950 12039 13479 13480 13481 12210 13650 13651 13652 12208 12207 13648 13649 13655 13653 12213 13654 13485 13656 13657 
1701 1702 1927 1926 1726 1727 1952 1951 12048 13488 13489 13479 12219 13659 13660 13650 12207 12217 13658 13648 13653 13661 12221 13662 13492 13663 13664 
1702 1703 1928 1927 1727 1728 1953 1952 12055 13495 13496 13488 12226 13666 13667 13659 12217 12224 13665 13658 13661 13668 12228 13669 13499 13670 13671 
1703 1704 1929 1928 1728 1729 1954 1953 12062 13502 13503 13495 12233 13673 13674 13666 12224 12231 13672 13665 13668 13675 12235 13676 13506 13677 13678 
1704 1705 1930 1929 1729 1730 1955 1954 12069 13509 13510 13502 12240 13680 13681 13673 12231 12238 13679 13672 13675 13682 12242 13683 13513 13684 13685 
1705 1706 1931 1930 1730 1731 1956 1955 12076 13516 13517 13509 12247 13687 13688 13680 12238 12245 13686 13679 13682 13689 12249 13690 13520 13691 13692 
1706 1707 1932 1931 1731 1732 1957 1956 12083 13523 13524 13516 12254 13694 13695 13687 12245 12252 13693 13686 13689 13696 12256 13697 13527 13698 13699 
1707 1708 1933 1932 1732 1733 1958 1957 12090 13530 13531 13523 12261 13701 13702 13694 12252 12259 13700 13693 13696 13703 12263 13704 13534 13705 13706 
1708 1709 1934 1933 1733 1734 1959 1958 12097 13537 13538 13530 12268 13708 13709 13701 12259 12266 13707 13700 13703 13710 12270 13711 13541 13712 13713 
1709 1710 1935 1934 1734 1735 1960 1959 12104 13544 13545 13537 12275 13715 13716 13708 12266 12273 13714 13707 13710 13717 12277 13718 13548 13719 13720 
1710 1711 1936 1935 1735 1736 1961 1960 12111 13551 13552 13544 12282 13722 13723 13715 12273 12280 13721 13714 13717 13724 12284 13725 13555 13726 13727 
1711 1712 1937 1936 1736 1737 1962 1961 12118 13558 13559 13551 12289 13729 13730 13722 12280 12287 13728 13721 13724 13731 12291 13732 13562 13733 13734 
1712 1713 1938 1937 1737 1738 1963 1962 12125 13565 13566 13558 12296 13736 13737 13729 12287 12294 13735 13728 13731 13738 12298 13739 13569 13740 13741 
1713 1714 1939 1938 1738 1739 1964 1963 12132 13572 13573 13565 12303 13743 13744 13736 12294 12301 13742 13735 13738 13745 12305 13746 13576 13747 13748 
1714 1715 1940 1939 1739 1740 1965 1964 12139 13579 13580 13572 12310 13750 13751 13743 12301 12308 13749 13742 13745 13752 12312 13753 13583 13754 13755 
1715 1716 1941 1940 1740 1741 1966 1965 12146 13586 13587 13579 12317 13757 13758 13750 12308 12315 13756 13749 13752 13759 12319 13760 13590 13761 13762 
1716 1717 1942 1941 1741 1742 1967 1966 12153 13593 13594 13586 12324 13764 13765 13757 12315 12322 13763 13756 13759 13766 12326 13767 13597 13768 13769 
1717 1718 1943 1942 1742 1743 1968 1967 12160 13600 13601 13593 12331 13771 13772 13764 12322 12329 13770 13763 13766 13773 12333 13774 13604 13775 13776 
1718 1719 1944 1943 1743 1744 1969 1968 12167 13607 13608 13600 12338 13778 13779 13771 12329 12336 13777 13770 13773 13780 12340 13781 13611 13782 13783 
1719 1720 1945 1944 1744 1745 1970 1969 12174 13614 13615 13607 12345 13785 13786 13778 12336 12343 13784 13777 13780 13787 12347 13788 13618 13789 13790 
1720 1721 1946 1945 1745 1746 1971 1970 12181 13621 13622 13614 12352 13792 13793 13785 12343 12350 13791 13784 13787 13794 12354 13795 13625 13796 13797 
1721 1722 1947 1946 1746 1747 1972 1971 12188 13628 13629 13621 12359 13799 13800 13792 12350 12357 13798 13791 13794 13801 12361 13802 13632 13803 13804 
1722 1723 1948 1947 1747 1748 1973 1972 12195 13635 13636 13628 12366 13806 13807 13799 12357 12364 13805 13798 13801 13808 12368 13809 13639 13810 13811 
1723 1724 1949 1948 1748 1749 1974 1973 12202 13642 13643 13635 12373 13813 13814 13806 12364 12371 13812 13805 13808 13815 12375 13816 13646 13817 13818 
1725 1726 1951 1950 1750 1751 1976 1975 12210 13650 13651 13652 12381 13821 13822 13823 12379 12378 13819 13820 13826 13824 12384 13825 13656 13827 13828 
1726 1727 1952 1951 1751 1752 1977 1976 12219 13659 13660 13650 12390 13830 13831 13821 12378 12388 13829 13819 13824 13832 12392 13833 13663 13834 13835 
1727 1728 1953 1952 1752 1753 1978 1977 12226 13666 13667 13659 12397 13837 13838 13830 12388 12395 13836 13829 13832 13839 12399 13840 13670 13841 13842 
1728 1729 1954 1953 1753 1754 1979 1978 12233 13673 13674 13666 12404 13844 13845 13837 12395 12402 13843 13836 13839 13846 12406 13847 13677 13848 13849 
1729 1730 1955 1954 1754 1755 1980 1979 12240 13680 13681 13673 12411 13851 13852 13844 12402 12409 13850 13843 13846 13853 12413 13854 13684 13855 13856 
1730 1731 1956 1955 1755 1756 1981 1980 12247 13687 13688 13680 12418 13858 13859 13851 12409 12416 13857 13850 13853 13860 12420 13861 13691 13862 13863 
1731 1732 1957 1956 1756 1757 1982 1981 12254 13694 13695 13687 12425 13865 13866 13858 12416 12423 13864 13857 13860 13867 12427 13868 13698 13869 13870 
1732 1733 1958 1957 1757 1758 1983 1982 12261 13701 13702 13694 12432 13872 13873 13865 12423 12430 13871 13864 13867 13874 12434 13875 13705 13876 13877 
1733 1734 1959 1958 1758 1759 1984 1983 12268 13708 13709 13701 12439 13879 13880 13872 12430 12437 13878 13871 13874 13881 12441 13882 13712 13883 13884 
1734 1735 1960 1959 1759 1760 1985 1984 12275 13715 13716 13708 12446 13886 13887 13879 12437 12444 13885 13878 13881 13888 12448 13889 13719 13890 13891 
1735 1736 1961 1960 1760 1761 1986 1985 12282 13722 13723 13715 12453 13893 13894 13886 12444 12451 13892 13885 13888 13895 12455 13896 13726 13897 13898 
1736 1737 1962 1961 1761 1762 1987 1986 12289 13729 13730 13722 12460 13900 13901 13893 12451 12458 13899 13892 13895 13902 12462 13903 13733 13904 13905 
1737 1738 1963 1962 1762 1763 1988 1987 12296 13736 13737 13729 12467 13907 13908 13900 12458 12465 13906 13899 13902 13909 12469 13910 13740 13911 13912 
1738 1739 1964 1963 1763 1764 1989 1988 12303 13743 13744 13736 12474 13914 13915 13907 12465 12472 13913 13906 13909 13916 12476 13917 13747 13918 13919 
1739 1740 1965 1964 1764 1765 1990 1989 12310 13750 13751 13743 12481 13921 13922 13914 12472 12479 13920 13913 13916 13923 12483 13924 13754 13925 13926 
1740 1741 1966 1965 1765 1766 1991 1990 12317 13757 13758 13750 12488 13928 13929 13921 12479 12486 13927 13920 13923 13930 12490 13931 13761 13932 13933 
1741 1742 1967 1966 1766 1767 1992 1991 12324 13764 13765 13757 12495 13935 13936 13928 12486 12493 13934 13927 13930 13937 12497 13938 13768 13939 13940 
1742 1743 1968 1967 1767 1768 1993 1992 12331 13771 13772 13764 12502 13942 13943 13935 12493 12500 13941 13934 13937 13944 12504 13945 13775 13946 13947 
1743 1744 1969 1968 1768 1769 1994 1993 12338 13778 13779 13771 12509 13949 13950 13942 12500 12507 13948 13941 13944 13951 12511 13952 13782 13953 13954 
1744 1745 1970 1969 1769 1770 1995 1994 12345 13785 13786 13778 12516 13956 13957 13949 12507 12514 13955 13948 13951 13958 12518 13959 13789 13960 13961 
1745 1746 1971 1970 1770 1771 1996 1995 12352 13792 13793 13785 12523 13963 13964 13956 12514 12521 13962 13955 13958 13965 12525 13966 13796 13967 13968 
1746 1747 1972 1971 1771 1772 1997 1996 12359 13799 13800 13792 12530 13970 13971 13963 12521 12528 13969 13962 13965 13972 12532 13973 13803 13974 13975 
1747 1748 1973 1972 1772 1773 1998 1997 12366 13806 13807 13799 12537 13977 13978 13970 12528 12535 13976 13969 13972 13979 12539 13980 13810 13981 13982 
1748 1749 1974 1973 1773 1774 1999 1998 12373 13813 13814 13806 12544 13984 13985 13977 12535 12542 13983 13976 13979 13986 12546 13987 13817 13988 13989 
1750 1751 1976 1975 1775 1776 2001 2000 12381 13821 13822 13823 12552 13992 13993 13994 12550 12549 13990 13991 13997 13995 12555 13996 13827 13998 13999 
1751 1752 1977 1976 1776 1777 2002 2001 12390 13830 13831 13821 12561 14001 14002 13992 12549 12559 14000 13990 13995 14003 12563 14004 13834 14005 14006 
1752 1753 1978 1977 1777 1778 2003 2002 12397 13837 13838 13830 12568 14008 14009 14001 12559 12566 14007 14000 14003 14010 12570 14011 13841 14012 14013 
1753 1754 1979 1978 1778 1779 2004 2003 12404 13844 13845 13837 12575 14015 14016 14008 12566 12573 14014 14007 14010 14017 12577 14018 13848 14019 14020 
1754 1755 1980 1979 1779 1780 2005 2004 12411 13851 13852 13844 12582 14022 14023 14015 12573 12580 14021 14014 14017 14024 12584 14025 13855 14026 14027 
1755 1756 1981 1980 1780 1781 2006 2005 12418 13858 13859 13851 12589 14029 14030 14022 12580 12587 14028 14021 14024 14031 12591 14032 13862 14033 14034 
1756 1757 1982 1981 1781 1782 2007 2006 12425 13865 13866 13858 12596 14036 14037 14029 12587 12594 14035 14028 14031 14038 12598 14039 13869 14040 14041 
1757 1758 1983 1982 1782 1783 2008 2007 12432 13872 13873 13865 12603 14043 14044 14036 12594 12601 14042 14035 14038 14045 12605 14046 13876 14047 14048 
1758 1759 1984 1983 1783 1784 2009 2008 12439 13879 13880 13872 12610 14050 14051 14043 12601 12608 14049 14042 14045 14052 12612 14053 13883 14054 14055 
1759 1760 1985 1984 1784 1785 2010 2009 12446 13886 13887 13879 12617 14057 14058 14050 12608 12615 14056 14049 14052 14059 12619 14060 13890 14061 14062 
1760 1761 1986 1985 1785 1786 2011 2010 12453 13893 13894 13886 12624 14064 14065 14057 12615 12622 14063 14056 14059 14066 12626 14067 13897 14068 14069 
1761 1762 1987 1986 1786 1787 2012 2011 12460 13900 13901 13893 12631 14071 14072 14064 12622 12629 14070 14063 14066 14073 12633 14074 13904 14075 14076 
1762 1763 1988 1987 1787 1788 2013 2012 12467 13907 13908 13900 12638 14078 14079 14071 12629 12636 14077 14070 14073 14080 12640 14081 13911 14082 14083 
1763 1764 1989 1988 1788 1789 2014 2013 12474 13914 13915 13907 12645 14085 14086 14078 12636 12643 14084 14077 14080 14087 12647 14088 13918 14089 14090 
1764 1765 1990 1989 1789 1790 2015 2014 12481 13921 13922 13914 12652 14092 14093 14085 12643 12650 14091 14084 14087 14094 12654 14095 13925 14096 14097 
1765 1766 1991 1990 1790 1791 2016 2015 12488 13928 13929 13921 12659 14099 14100 14092 12650 12657 14098 14091 14094 14101 12661 14102 13932 14103 14104 
1766 1767 1992 1991 1791 1792 2017 2016 12495 13935 13936 13928 12666 14106 14107 14099 12657 12664 14105 14098 14101 14108 12668 14109 13939 14110 14111 
1767 1768 1993 1992 1792 1793 2018 2017 12502 13942 13943 13935 12673 14113 14114 14106 12664 12671 14112 14105 14108 14115 12675 14116 13946 14117 14118 
1768 1769 1994 1993 1793 1794 2019 2018 12509 13949 13950 13942 12680 14120 14121 14113 12671 12678 14119 14112 14115 14122 12682 14123 13953 14124 14125 
1769 1770 1995 1994 1794 1795 2020 2019 12516 13956 13957 13949 12687 14127 14128 14120 12678 12685 14126 14119 14122 14129 12689 14130 13960 14131 14132 
1770 1771 1996 1995 1795 1796 2021 2020 12523 13963 13964 13956 12694 14134 14135 14127 12685 12692 14133 14126 14129 14136 12696 14137 13967 14138 14139 
1771 1772 1997 1996 1796 1797 2022 2021 12530 13970 13971 13963 12701 14141 14142 14134 12692 12699 14140 14133 14136 14143 12703 14144 13974 14145 14146 
1772 1773 1998 1997 1797 1798 2023 2022 12537 13977 13978 13970 12708 14148 14149 14141 12699 12706 14147 14140 14143 14150 12710 14151 13981 14152 14153 
1773 1774 1999 1998 1798 1799 2024 2023 12544 13984 13985 13977 12715 14155 14156 14148 12706 12713 14154 14147 14150 14157 12717 14158 13988 14159 14160 
CELL_TYPES 1536
29 29 29 29 29 29 29 29 29 29 29 29 29 29 29 29 29 29 29 29 29 29 29 29 29 29 29 29 29 29 29 29 29 29 29 29 29 29 29 29 29 29 29 29 29 29 29 29 29 29 29 29 29 29 29 29 29 29 29 29 29 29 29 29 29 29 29 29 29 29 29 29 29 29 29 29 29 29 29 29 29 29 29 29 29 29 29 29 29 29 29 29 29 29 29 29 29 29 29 29 29 29 29 29 29 29 29 29 29 29 29 29 29 29 29 29 29 29 29 29 29 29 29 29 29 29 29 29 29 29 29 29 29 29 29 29 29 29 29 29 29 29 29 29 29 29 29 29 29 29 29 29 29 29 29 29 29 29 29 29 29 29 29 29 29 29 29 29 29 29 29 29 29 29 29 29 29 29 29 29 29 29 29 29 29 29 29 29 29 29 29 29 29 29 29 29 29 29 29 29 29 29 29 29 29 29 29 29 29 29 29 29 29 29 29 29 29 29 29 29 29 29 29 29 29 29 29 29 29 29 29 29 29 29 29 29 29 29 29 29 29 29 29 29 29 29 29 29 29 29 29 29 29 29 29 29 29 29 29 29 29 29 29 29 29 29 29 29 29 29 29 29 29 29 29 29 29 29 29 29 29 29 29 29 29 29 29 29 29 29 29 29 29 29 29 29 29 29 29 29 29 29 29 29 29 29 29 29 29 29 29 29 29 29 29 29 29 29 29 29 29 29 29 29 29 29 29 29 29 29 29 29 29 29 29 29 29 29 29 29 29 29 29 29 29 29 29 29 29 29 29 29 29 29 29 29 29 29 29 29 29 29 29 29 29 29 29 29 29 29 29 29 29 29 29 29 29 29 29 29 29 29 29 29 29 29 29 29 29 29 29 29 29 29 29 29 29 29 29 29 29 29 29 29 29 29 29 29 29 29 29 29 29 29 29 29 29 29 29 29 29 29 29 29 29 29 29 29 29 29 29 29 29 29 29 29 29 29 29 29 29 29 29 29 29 29 29 29 29 29 29 29 29 29 29 29 29 29 29 29 29 29 29 29 29 29 29 29 29 29 29 29 29 29 29 29 29 29 29 29 29 29 29 29 29 29 29 29 29 29 29 29 29 29 29 29 29 29 29 29 29 29 29 29 29 29 29 29 29 29 29 29 29 29 29 29 29 29 29 29 29 29 29 29 29 29 29 29 29 29 29 29 29 29 29 29 29 29 29 29 29 29 29 29 29 29 29 29 29 29 29 29 29 29 29 29 29 29 29 29 29 29 29 29 29 29 29 29 29 29 29 29 29 29 29 29 29 29 29 29 29 29 29 29 29 29 29 29 29 29 29 29 29 29 29 29 29 29 29 29 29 29 29 29 29 29 29 29 29 29 29 29 29 29 29 29 29 29 29 29 29 29 29 29 29 29 29 29 29 29 29 29 29 29 29 29 29 29 29 29 29 29 29 29 29 29 29 29 29 29 29 29 29 29 29 29 29 29 29 29 29 29 29 29 29 29 29 29 29 29 29 29 29 29 29 29 29 29 29 29 29 29 29 29 29 29 29 29 29 29 29 29 29 29 29 29 29 29 29 29 29 29 29 29 29 29 29 29 29 29 29 29 29 29 29 29 29 29 29 29 29 29 29 29 29 29 29 29 29 29 29 29 29 29 29 29 29 29 29 29 29 29 29 29 29 29 29 29 29 29 29 29 29 29 29 29 29 29 29 29 29 29 29 29 29 29 29 29 29 29 29 29 29 29 29 29 29 29 29 29 29 29 29 29 29 29 29 29 29 29 29 29 29 29 29 29 29 29 29 29 29 29 29 29 29 29 29 29 29 29 29 29 29 29 29 29 29 29 29 29 29 29 29 29 29 29 29 29 29 29 29 29 29 29 29 29 29 29 29 29 29 29 29 29 29 29 29 29 29 29 29 29 29 29 29 29 29 29 29 29 29 29 29 29 29 29 29 29 29 29 29 29 29 29 29 29 29 29 29 29 29 29 29 29 29 29 29 29 29 29 29 29 29 29 29 29 29 29 29 29 29 29 29 29 29 29 29 29 29 29 29 29 29 29 29 29 29 29 29 29 29 29 29 29 29 29 29 29 29 29 29 29 29 29 29 29 29 29 29 29 29 29 29 29 29 29 29 29 29 29 29 29 29 29 29 29 29 29 29 29 29 29 29 29 29 29 29 29 29 29 29 29 29 29 29 29 29 29 29 29 29 29 29 29 29 29 29 29 29 29 29 29 29 29 29 29 29 29 29 29 29 29 29 29 29 29 29 29 29 29 29 29 29 29 29 29 29 29 29 29 29 29 29 29 29 29 29 29 29 29 29 29 29 29 29 29 29 29 29 29 29 29 29 29 29 29 29 29 29 29 29 29 29 29 29 29 29 29 29 29 29 29 29 29 29 29 29 29 29 29 29 29 29 29 29 29 29 29 29 29 29 29 29 29 29 29 29 29 29 29 29 29 29 29 29 29 29 29 29 29 29 29 29 29 29 29 29 29 29 29 29 29 29 29 29 29 29 29 29 29 29 29 29 29 29 29 29 29 29 29 29 29 29 29 29 29 29 29 29 29 29 29 29 29 29 29 29 29 29 29 29 29 29 29 29 29 29 29 29 29 29 29 29 29 29 29 29 29 29 29 29 29 29 29 29 29 29 29 29 29 29 29 29 29 29 29 29 29 29 29 29 29 29 29 29 29 29 29 29 29 29 29 29 29 29 29 29 29 29 29 29 29 29 29 29 29 29 29 29 29 29 29 29 29 29 29 29 29 29 29 29 29 29 29 29 29 29 29 29 29 29 29 29 29 29 29 29 29 29 29 29 29 29 29 29 29 29 29 29 29 29 29 29 29 29 29 29 29 29 29 29 29 29 29 29 29 29 29 29 29 29 29 29 29 29 29 29 29 29 29 29 29 29 29 29 29 29 29 29 29 29 29 29 29 29 29 29 29 29 29 29 29 29 29 29 29 29 29 29 29 29 29 29 29 29 29 29 29 29 29 29 29 29 29 29 29 29 29 29 29 29 29 29 29 29 29 29 29 29 29 29 29 29 29 29 29 29 29 29 29 29 29 29 29 29 29 29 29 29 29 29 29 29 29 29 29 29 29 29 29 29 29 29 29 29 29 29 29 29 29 29 29 29 29 29 29 29 29 29 29 29 29 29 29 29 29 29 29 29 29 29 29 29 29 29 29 29 29 29 29 29 29 29 29 29 29 29 29 29 29 29 29 29 29 29 29 29 29 29 29 29 29 29 29 29 29 29 29 29 29 29 29 29 29 29 29 29 29 29 29 29 29 29 29 29 29 29 29 29 29 29 29 29 29 29 29 29 29 29 29 29 29 29 29 29 29 29 29 29 29 29 29 29 29 29 29 29 29 29 29 29 29 29 29 29 29 29 29 29 29 29 29 29 29 29 29 29 29 29 29 29 29 29 29 29 29 29 29 29 29 29 29 29 29 29 29 

POINT_DATA 14161
SCALARS weights float 1
LOOKUP_TABLE default
0.072338 0.144676 0.144676 0.144676 0.144676 0.144676 0.144676 0.144676 0.144676 0.144676 0.144676 0.144676 0.144676 0.144676 0.144676 0.144676 0.144676 0.144676 0.144676 0.144676 0.144676 0.144676 0.144676 0.144676 0.072338 0.144676 0.289352 0.289352 0.289352 0.289352 0.289352 0.289352 0.289352 0.289352 0.289352 0.289352 0.289352 0.289352 0.289352 0.289352 0.289352 0.289352 0.289352 0.289352 0.289352 0.289352 0.289352 0.289352 0.289352 0.144676 0.144676 0.289352 0.289352 0.289352 0.289352 0.289352 0.289352 0.289352 0.289352 0.289352 0.289352 0.289352 0.289352 0.289352 0.289352 0.289352 0.289352 0.289352 0.289352 0.289352 0.289352 0.289352 0.289352 0.289352 0.144676 0.144676 0.289352 0.289352 0.289352 0.289352 0.289352 0.289352 0.289352 0.289352 0.289352 0.289352 0.289352 0.289352 0.289352 0.289352 0.289352 0.289352 0.289352 0.289352 0.289352 0.289352 0.289352 0.289352 0.289352 0.144676 0.144676 0.289352 0.289352 0.289352 0.289352 0.289352 0.289352 0.289352 0.289352 0.289352 0.289352 0.289352 0.289352 0.289352 0.289352 0.289352 0.289352 0.289352 0.289352 0.289352 0.289352 0.289352 0.289352 0.289352 0.144676 0.144676 0.289352 0.289352 0.289352 0.289352 0.289352 0.289352 0.289352 0.289352 0.289352 0.289352 0.289352 0.289352 0.289352 0.289352 0.289352 0.289352 0.289352 0.289352 0.289352 0.289352 0.289352 0.289352 0.289352 0.144676 0.144676 0.289352 0.289352 0.289352 0.289352 0.289352 0.289352 0.289352 0.289352 0.289352 0.289352 0.289352 0.289352 0.289352 0.289352 0.289352 0.289352 0.289352 0.289352 0.289352 0.289352 0.289352 0.289352 0.289352 0.144676 0.144676 0.289352 0.289352 0.289352 0.289352 0.289352 0.289352 0.289352 0.289352 0.289352 0.289352 0.289352 0.289352 0.289352 0.289352 0.289352 0.289352 0.289352 0.289352 0.289352 0.289352 0.289352 0.289352 0.289352 0.144676 0.072338 0.144676 0.144676 0.144676 0.144676 0.144676 0.144676 0.144676 0.144676 0.144676 0.144676 0.144676 0.144676 0.144676 0.144676 0.144676 0.144676 0.144676 0.144676 0.144676 0.144676 0.144676 0.144676 0.144676 0.072338 0.144676 0.289352 0.289352 0.289352 0.289352 0.289352 0.289352 0.289352 0.289352 0.289352 0.289352 0.289352 0.289352 0.289352 0.289352 0.289352 0.289352 0.289352 0.289352 0.289352 0.289352 0.289352 0.289352 0.289352 0.144676 0.289352 0.578704 0.578704 0.578704 0.578704 0.578704 0.578704 0.578704 0.578704 0.578704 0.578704 0.578704 0.578704 0.578704 0.578704 0.578704 0.578704 0.578704 0.578704 0.578703 0.578704 0.578704 0.578704 0.578704 0.289352 0.289352 0.578704 0.578704 0.578704 0.578704 0.578704 0.578704 0.578704 0.578704 0.578704 0.578704 0.578704 0.578704 0.578704 0.578704 0.578704 0.578704 0.578704 0.578704 0.578703 0.578704 0.578704 0.578704 0.578704 0.289352 0.289352 0.578704 0.578704 0.578704 0.578704 0.578704 0.578704 0.578704 0.578704 0.578704 0.578704 0.578704 0.578704 0.578704 0.578704 0.578704 0.578704 0.578704 0.578704 0.578703 0.578704 0.578704 0.578704 0.578704 0.289352 0.289352 0.578704 0.578704 0.578704 0.578704 0.578704 0.578704 0.578704 0.578704 0.578704 0.578704 0.578704 0.578704 0.578704 0.578704 0.578704 0.578704 0.578704 0.578703 0.578703 0.578704 0.578704 0.578703 0.578704 0.289352 0.289352 0.578704 0.578704 0.578704 0.578704 0.578704 0.578704 0.578704 0.578704 0.578704 0.578704 0.578704 0.578704 0.578704 0.578704 0.578704 0.578704 0.578704 0.578704 0.578703 0.578704 0.578704 0.578704 0.578704 0.289352 0.289352 0.578704 0.578704 0.578704 0.578704 0.578704 0.578704 0.578704 0.578704 0.578704 0.578704 0.578704 0.578704 0.578704 0.578704 0.578704 0.578704 0.578704 0.578704 0.578703 0.578704 0.578704 0.578704 0.578704 0.289352 0.289352 0.578704 0.578704 0.578704 0.578704 0.578704 0.578704 0.578704 0.578704 0.578704 0.578704 0.578704 0.578704 0.578704 0.578704 0.578704 0.578704 0.578704 0.578704 0.578703 0.578704 0.578704 0.578704 0.578704 0.289352 0.144676 0.289352 0.289352 0.289352 0.289352 0.289352 0.289352 0.289352 0.289352 0.289352 0.289352 0.289352 0.289352 0.289352 0.289352 0.289352 0.289352 0.289352 0.289352 0.289352 0.289352 0.289352 0.289352 0.289352 0.144676 0.144676 0.289352 0.289352 0.289352 0.289352 0.289352 0.289352 0.289352 0.289352 0.289352 0.289352 0.289352 0.289352 0.289352 0.289352 0.289352 0.289352 0.289352 0.289352 0.289352 0.289352 0.289352 0.289352 0.289352 0.144676 0.289352 0.578704 0.578704 0.578704 0.578704 0.578704 0.578704 0.578704 0.578704 0.578703 0.578703 0.578703 0.578704 0.578704 0.578703 0.578703 0.578704 0.578703 0.578703 0.578703 0.578703 0.578704 0.578703 0.578703 0.289352 0.289352 0.578704 0.578704 0.578704 0.578704 0.578704 0.578704 0.578704 0.578704 0.578703 0.578703 0.578703 0.578703 0.578704 0.578703 0.578703 0.578704 0.578703 0.578703 0.578703 0.578703 0.578704 0.578703 0.578703 0.289352 0.289352 0.578704 0.578704 0.578703 0.578703 0.578703 0.578704 0.578704 0.578703 0.578703 0.578703 0.578703 0.578704 0.578704 0.578703 0.578703 0.578704 0.578703 0.578703 0.578703 0.578703 0.578703 0.578703 0.578703 0.289352 0.289352 0.578703 0.578704 0.578703 0.578703 0.578703 0.578703 0.578703 0.578703 0.578703 0.578703 0.578703 0.578703 0.578703 0.578703 0.578703 0.578704 0.578703 0.578703 0.578703 0.578703 0.578703 0.578703 0.578703 0.289352 0.289352 0.578704 0.578704 0.578703 0.578703 0.578704 0.578703 0.578703 0.578703 0.578703 0.578703 0.578703 0.578703 0.578704 0.578703 0.578703 0.578704 0.578703 0.578703 0.578703 0.578703 0.578704 0.578703 0.578703 0.289352 0.289352 0.578704 0.578704 0.578704 0.578703 0.578704 0.578704 0.578704 0.578704 0.578703 0.578703 0.578703 0.578704 0.578704 0.578703 0.578703 0.578704 0.578703 0.578703 0.578703 0.578703 0.578704 0.578703 0.578703 0.289352 0.289352 0.578704 0.578704 0.578703 0.578703 0.578704 0.578704 0.578703 0.578703 0.578703 0.578703 0.578703 0.578703 0.578703 0.578703 0.578703 0.578704 0.578703 0.578703 0.578703 0.578703 0.578703 0.578703 0.578703 0.289352 0.144676 0.289352 0.289352 0.289352 0.289352 0.289352 0.289352 0.289352 0.289352 0.289352 0.289352 0.289352 0.289352 0.289352 0.289352 0.289352 0.289352 0.289352 0.289352 0.289351 0.289352 0.289352 0.289352 0.289352 0.144676 0.144676 0.289352 0.289352 0.289352 0.289352 0.289352 0.289352 0.289352 0.289352 0.289352 0.289352 0.289352 0.289352 0.289352 0.289352 0.289352 0.289352 0.289352 0.289352 0.289352 0.289352 0.289352 0.289352 0.289352 0.144676 0.289352 0.578704 0.578704 0.578704 0.578704 0.578704 0.578704 0.578704 0.578704 0.578704 0.578703 0.578704 0.578704 0.578704 0.578703 0.578703 0.578704 0.578704 0.578703 0.578703 0.578703 0.578704 0.578703 0.578704 0.289352 0.289352 0.578704 0.578704 0.578704 0.578704 0.578704 0.578704 0.578704 0.578704 0.578704 0.578703 0.578704 0.578704 0.578704 0.578704 0.578703 0.578704 0.578704 0.578703 0.578703 0.578703 0.578704 0.578703 0.578704 0.289352 0.289352 0.578704 0.578704 0.578704 0.578704 0.578704 0.578704 0.578704 0.578704 0.578703 0.578703 0.578703 0.578704 0.578704 0.578703 0.578703 0.578704 0.578703 0.578703 0.578703 0.578703 0.578704 0.578703 0.578703 0.289352 0.289352 0.578704 0.578704 0.578704 0.578703 0.578704 0.578704 0.578703 0.578703 0.578703 0.578703 0.578703 0.578704 0.578704 0.578703 0.578703 0.578704 0.578703 0.578703 0.578703 0.578703 0.578703 0.578703 0.578703 0.289352 0.289352 0.578704 0.578704 0.578704 0.578703 0.578704 0.578704 0.578704 0.578704 0.578703 0.578703 0.578703 0.578704 0.578704 0.578703 0.578703 0.578704 0.578703 0.578703 0.578703 0.578703 0.578704 0.578703 0.578703 0.289352 0.289352 0.578704 0.578704 0.578704 0.578704 0.578704 0.578704 0.578704 0.578704 0.578704 0.578703 0.578704 0.578704 0.578704 0.578704 0.578703 0.578704 0.578704 0.578703 0.578703 0.578703 0.578704 0.578703 0.578704 0.289352 0.289352 0.578704 0.578704 0.578704 0.578703 0.578704 0.578704 0.578704 0.578704 0.578703 0.578703 0.578703 0.578704 0.578704 0.578703 0.578704 0.578704 0.578703 0.578703 0.578703 0.578703 0.578704 0.578703 0.578703 0.289352 0.144676 0.289352 0.289352 0.289352 0.289352 0.289352 0.289352 0.289352 0.289352 0.289352 0.289352 0.289352 0.289352 0.289352 0.289352 0.289352 0.289352 0.289352 0.289352 0.289352 0.289352 0.289352 0.289352 0.289352 0.144676 0.144676 0.289352 0.289352 0.289352 0.289352 0.289352 0.289352 0.289352 0.289352 0.289352 0.289352 0.289352 0.289352 0.289352 0.289352 0.289352 0.289352 0.289352 0.289352 0.289352 0.289352 0.289352 0.289352 0.289352 0.144676 0.289352 0.578704 0.578704 0.578704 0.578704 0.578704 0.578704 0.578704 0.578704 0.578704 0.578704 0.578704 0.578704 0.578704 0.578704 0.578704 0.578704 0.578704 0.578704 0.578703 0.578704 0.578704 0.578704 0.578704 0.289352 0.289352 0.578704 0.578704 0.578704 0.578704 0.578704 0.578704 0.578704 0.578704 0.578704 0.578704 0.578704 0.578704 0.578704 0.578704 0.578704 0.578704 0.578704 0.578704 0.578703 0.578704 0.578704 0.578704 0.578704 0.289352 0.289352 0.578704 0.578704 0.578704 0.578704 0.578704 0.578704 0.578704 0.578704 0.578704 0.578704 0.578704 0.578704 0.578704 0.578704 0.578704 0.578704 0.578704 0.578704 0.578703 0.578704 0.578704 0.578704 0.578704 0.289352 0.289352 0.578704 0.578704 0.578704 0.578704 0.578704 0.578704 0.578704 0.578704 0.578704 0.578704 0.578704 0.578704 0.578704 0.578704 0.578704 0.578704 0.578704 0.578704 0.578703 0.578704 0.578704 0.578703 0.578704 0.289352 0.289352 0.578704 0.578704 0.578704 0.578704 0.578704 0.578704 0.578704 0.578704 0.578704 0.578704 0.578704 0.578704 0.578704 0.578704 0.578704 0.578704 0.578704 0.578704 0.578703 0.578704 0.578704 0.578704 0.578704 0.289352 0.289352 0.578704 0.578704 0.578704 0.578704 0.578704 0.578704 0.578704 0.578704 0.578704 0.578704 0.578704 0.578704 0.578704 0.578704 0.578704 0.578704 0.578704 0.578704 0.578703 0.578704 0.578704 0.578704 0.578704 0.289352 0.289352 0.578704 0.578704 0.578704 0.578704 0.578704 0.578704 0.578704 0.578704 0.578704 0.578704 0.578704 0.578704 0.578704 0.578704 0.578704 0.578704 0.578704 0.578704 0.578703 0.578704 0.578704 0.578704 0.578704 0.289352 0.144676 0.289352 0.289352 0.289352 0.289352 0.289352 0.289352 0.289352 0.289352 0.289352 0.289352 0.289352 0.289352 0.289352 0.289352 0.289352 0.289352 0.289352 0.289352 0.289352 0.289352 0.289352 0.289352 0.289352 0.144676 0.144676 0.289352 0.289352 0.289352 0.289352 0.289352 0.289352 0.289352 0.289352 0.289352 0.289352 0.289352 0.289352 0.289352 0.289352 0.289352 0.289352 0.289352 0.289352 0.289352 0.289352 0.289352 0.289352 0.289352 0.144676 0.289352 0.578704 0.578704 0.578704 0.578704 0.578704 0.578704 0.578704 0.578704 0.578704 0.578704 0.578704 0.578704 0.578704 0.578704 0.578704 0.578704 0.578704 0.578704 0.578703 0.578704 0.578704 0.578704 0.578704 0.289352 0.289352 0.578704 0.578704 0.578704 0.578704 0.578704 0.578704 0.578704 0.578704 0.578704 0.578704 0.578704 0.578704 0.578704 0.578704 0.578704 0.578704 0.578704 0.578704 0.578703 0.578704 0.578704 0.578704 0.578704 0.289352 0.289352 0.578704 0.578704 0.578704 0.578704 0.578704 0.578704 0.578704 0.578704 0.578704 0.578704 0.578704 0.578704 0.578704 0.578704 0.578704 0.578704 0.578704 0.578704 0.578703 0.578704 0.578704 0.578704 0.578704 0.289352 0.289352 0.578704 0.578704 0.578704 0.578704 0.578704 0.578704 0.578704 0.578704 0.578704 0.578704 0.578704 0.578704 0.578704 0.578704 0.578704 0.578704 0.578704 0.578704 0.578703 0.578704 0.578704 0.578703 0.578704 0.289352 0.289352 0.578704 0.578704 0.578704 0.578704 0.578704 0.578704 0.578704 0.578704 0.578704 0.578704 0.578704 0.578704 0.578704 0.578704 0.578704 0.578704 0.578704 0.578704 0.578703 0.578704 0.578704 0.578704 0.578704 0.289352 0.289352 0.578704 0.578704 0.578704 0.578704 0.578704 0.578704 0.578704 0.578704 0.578704 0.578704 0.578704 0.578704 0.578704 0.578704 0.578704 0.578704 0.578704 0.578704 0.578703 0.578704 0.578704 0.578704 0.578704 0.289352 0.289352 0.578704 0.578704 0.578704 0.578704 0.578704 0.578704 0.578704 0.578704 0.578704 0.578704 0.578704 0.578704 0.578704 0.578704 0.578704 0.578704 0.578704 0.578703 0.578703 0.578704 0.578704 0.578704 0.578704 0.289352 0.144676 0.289352 0.289352 0.289352 0.289352 0.289352 0.289352 0.289352 0.289352 0.289352 0.289352 0.289352 0.289352 0.289352 0.289352 0.289352 0.289352 0.289352 0.289352 0.289352 0.289352 0.289352 0.289352 0.289352 0.144676 0.144676 0.289352 0.289352 0.289352 0.289352 0.289352 0.289352 0.289352 0.289352 0.289352 0.289352 0.289352 0.289352 0.289352 0.289352 0.289352 0.289352 0.289352 0.289352 0.289352 0.289352 0.289352 0.289352 0.289352 0.144676 0.289352 0.578704 0.578704 0.578704 0.578704 0.578704 0.578704 0.578704 0.578704 0.578704 0.578704 0.578704 0.578704 0.578704 0.578704 0.578704 0.578704 0.578704 0.578704 0.578703 0.578704 0.578704 0.578704 0.578704 0.289352 0.289352 0.578704 0.578704 0.578704 0.578704 0.578704 0.578704 0.578704 0.578704 0.578704 0.578704 0.578704 0.578704 0.578704 0.578704 0.578704 0.578704 0.578704 0.578703 0.578703 0.578704 0.578704 0.578703 0.578704 0.289352 0.289352 0.578704 0.578704 0.578704 0.578704 0.578704 0.578704 0.578704 0.578704 0.578704 0.578704 0.578704 0.578704 0.578704 0.578704 0.578704 0.578704 0.578704 0.578703 0.578703 0.578704 0.578704 0.578703 0.578704 0.289352 0.289352 0.578704 0.578704 0.578704 0.578704 0.578704 0.578704 0.578704 0.578704 0.578704 0.578703 0.578704 0.578704 0.578704 0.578704 0.578704 0.578704 0.578704 0.578703 0.578703 0.578703 0.578704 0.578703 0.578704 0.289352 0.289352 0.578704 0.578704 0.578704 0.578704 0.578704 0.578704 0.578704 0.578704 0.578704 0.578703 0.578704 0.578704 0.578704 0.578704 0.578704 0.578704 0.578704 0.578703 0.578703 0.578704 0.578704 0.578703 0.578704 0.289352 0.289352 0.578704 0.578704 0.578704 0.578704 0.578704 0.578704 0.578704 0.578704 0.578704 0.578704 0.578704 0.578704 0.578704 0.578704 0.578704 0.578704 0.578704 0.578704 0.578703 0.578704 0.578704 0.578704 0.578704 0.289352 0.289352 0.578704 0.578704 0.578704 0.578704 0.578704 0.578704 0.578704 0.578704 0.578704 0.578704 0.578704 0.578704 0.578704 0.578704 0.578704 0.578704 0.578704 0.578703 0.578703 0.578704 0.578704 0.578703 0.578704 0.289352 0.144676 0.289352 0.289352 0.289352 0.289352 0.289352 0.289352 0.289352 0.289352 0.289352 0.289352 0.289352 0.289352 0.289352 0.289352 0.289352 0.289352 0.289352 0.289352 0.289352 0.289352 0.289352 0.289352 0.289352 0.144676 0.144676 0.289352 0.289352 0.289352 0.289352 0.289352 0.289352 0.289352 0.289352 0.289352 0.289352 0.289352 0.289352 0.289352 0.289352 0.289352 0.289352 0.289352 0.289352 0.289352 0.289352 0.289352 0.289352 0.289352 0.144676 0.289352 0.578704 0.578704 0.578703 0.578703 0.578703 0.578704 0.578704 0.578703 0.578703 0.578703 0.578703 0.578704 0.578704 0.578703 0.578703 0.578704 0.578703 0.578703 0.578703 0.578703 0.578703 0.578703 0.578703 0.289352 0.289352 0.578704 0.578704 0.578703 0.578703 0.578703 0.578703 0.578703 0.578703 0.578703 0.578703 0.578703 0.578703 0.578703 0.578703 0.578703 0.578703 0.578703 0.578703 0.578703 0.578703 0.578703 0.578703 0.578703 0.289352 0.289352 0.578704 0.578704 0.578703 0.578703 0.578703 0.578703 0.578703 0.578703 0.578703 0.578703 0.578703 0.578703 0.578703 0.578703 0.578703 0.578703 0.578703 0.578703 0.578703 0.578703 0.578703 0.578703 0.578703 0.289352 0.289352 0.578703 0.578704 0.578703 0.578703 0.578703 0.578703 0.578703 0.578703 0.578703 0.578703 0.578703 0.578703 0.578703 0.578703 0.578703 0.578703 0.578703 0.578703 0.578703 0.578703 0.578703 0.578703 0.578703 0.289352 0.289352 0.578703 0.578703 0.578703 0.578703 0.578703 0.578703 0.578703 0.578703 0.578703 0.578703 0.578703 0.578703 0.578703 0.578703 0.578703 0.578703 0.578703 0.578703 0.578703 0.578703 0.578703 0.578703 0.578703 0.289352 0.289352 0.578704 0.578704 0.578703 0.578703 0.578703 0.578703 0.578703 0.578703 0.578703 0.578703 0.578703 0.578703 0.578703 0.578703 0.578703 0.578704 0.578703 0.578703 0.578703 0.578703 0.578704 0.578703 0.578703 0.289352 0.289352 0.578703 0.578703 0.578703 0.578703 0.578703 0.578703 0.578703 0.578703 0.578703 0.578703 0.578703 0.578703 0.578703 0.578703 0.578703 0.578704 0.578703 0.578703 0.578703 0.578703 0.578703 0.578703 0.578703 0.289352 0.144676 0.289352 0.289352 0.289352 0.289352 0.289352 0.289352 0.289352 0.289352 0.289352 0.289352 0.289352 0.289352 0.289352 0.289352 0.289352 0.289352 0.289352 0.289352 0.289351 0.289352 0.289352 0.289352 0.289352 0.144676 0.0723379 0.144676 0.144676 0.144676 0.144676 0.144676 0.144676 0.144676 0.144676 0.144676 0.144676 0.144676 0.144676 0.144676 0.144676 0.144676 0.144676 0.144676 0.144676 0.144676 0.144676 0.144676 0.144676 0.144676 0.0723379 0.144676 0.289352 0.289352 0.289352 0.289352 0.289352 0.289352 0.289352 0.289352 0.289352 0.289352 0.289352 0.289352 0.289352 0.289352 0.289352 0.289352 0.289352 0.289351 0.289351 0.289352 0.289352 0.289352 0.289352 0.144676 0.144676 0.289352 0.289352 0.289352 0.289352 0.289352 0.289352 0.289352 0.289352 0.289352 0.289352 0.289352 0.289352 0.289352 0.289352 0.289352 0.289352 0.289352 0.289351 0.289351 0.289352 0.289352 0.289352 0.289352 0.144676 0.144676 0.289352 0.289352 0.289352 0.289352 0.289352 0.289352 0.289352 0.289352 0.289352 0.289351 0.289352 0.289352 0.289352 0.289352 0.289352 0.289352 0.289352 0.289351 0.289351 0.289352 0.289352 0.289352 0.289352 0.144676 0.144676 0.289352 0.289352 0.289352 0.289352 0.289352 0.289352 0.289352 0.289352 0.289352 0.289351 0.289352 0.289352 0.289352 0.289352 0.289352 0.289352 0.289352 0.289351 0.289351 0.289352 0.289352 0.289352 0.289352 0.144676 0.144676 0.289352 0.289352 0.289352 0.289352 0.289352 0.289352 0.289352 0.289352 0.289352 0.289352 0.289352 0.289352 0.289352 0.289352 0.289352 0.289352 0.289352 0.289351 0.289351 0.289352 0.289352 0.289352 0.289352 0.144676 0.144676 0.289352 0.289352 0.289352 0.289352 0.289352 0.289352 0.289352 0.289352 0.289352 0.289352 0.289352 0.289352 0.289352 0.289352 0.289352 0.289352 0.289352 0.289352 0.289351 0.289352 0.289352 0.289352 0.289352 0.144676 0.144676 0.289352 0.289352 0.289352 0.289352 0.289352 0.289352 0.289352 0.289352 0.289352 0.289352 0.289352 0.289352 0.289352 0.289352 0.289352 0.289352 0.289352 0.289352 0.289351 0.289352 0.289352 0.289351 0.289352 0.144676 0.0723379 0.144676 0.144676 0.144676 0.144676 0.144676 0.144676 0.144676 0.144676 0.144676 0.144676 0.144676 0.144676 0.144676 0.144676 0.144676 0.144676 0.144676 0.144676 0.144676 0.144676 0.144676 0.144676 0.144676 0.0723379 0.072338 0.144676 0.144676 0.072338 0.072338 0.144676 0.289352 0.144676 0.144676 0.289352 0.289352 0.144676 0.072338 0.072338 0.144676 0.144676 0.072338 0.144676 0.072338 0.072338 0.144676 0.144676 0.144676 0.289352 0.144676 0.289352 0.289352 0.072338 0.072338 0.144676 0.144676 0.144676 0.072338 0.072338 0.144676 0.144676 0.144676 0.289352 0.144676 0.289352 0.289352 0.072338 0.072338 0.144676 0.144676 0.144676 0.072338 0.072338 0.144676 0.144676 0.144676 0.289352 0.144676 0.289352 0.289352 0.072338 0.072338 0.144676 0.144676 0.144676 0.072338 0.072338 0.144676 0.144676 0.144676 0.289352 0.144676 0.289352 0.289352 0.072338 0.072338 0.144676 0.144676 0.144676 0.072338 0.072338 0.144676 0.144676 0.144676 0.289352 0.144676 0.289352 0.289352 0.072338 0.072338 0.144676 0.144676 0.144676 0.072338 0.072338 0.144676 0.144676 0.144676 0.289352 0.144676 0.289352 0.289352 0.072338 0.072338 0.144676 0.144676 0.144676 0.072338 0.072338 0.144676 0.144676 0.144676 0.289352 0.144676 0.289352 0.289352 0.072338 0.072338 0.144676 0.144676 0.144676 0.072338 0.072338 0.144676 0.144676 0.144676 0.289352 0.144676 0.289352 0.289352 0.072338 0.072338 0.144676 0.144676 0.144676 0.072338 0.072338 0.144676 0.144676 0.144676 0.289352 0.144676 0.289352 0.289352 0.072338 0.072338 0.144676 0.144676 0.144676 0.072338 0.072338 0.144676 0.144676 0.144676 0.289352 0.144676 0.289352 0.289352 0.072338 0.072338 0.144676 0.144676 0.144676 0.072338 0.072338 0.144676 0.144676 0.144676 0.289352 0.144676 0.289352 0.289352 0.072338 0.072338 0.144676 0.144676 0.144676 0.072338 0.072338 0.144676 0.144676 0.144676 0.289352 0.144676 0.289352 0.289352 0.072338 0.072338 0.144676 0.144676 0.144676 0.072338 0.072338 0.144676 0.144676 0.144676 0.289352 0.144676 0.289352 0.289352 0.072338 0.072338 0.144676 0.144676 0.144676 0.072338 0.0723379 0.144676 0.144676 0.144676 0.289352 0.144676 0.289352 0.289352 0.0723379 0.0723379 0.144676 0.144676 0.144676 0.0723379 0.072338 0.144676 0.144676 0.144676 0.289352 0.144676 0.289352 0.289352 0.072338 0.072338 0.144676 0.144676 0.144676 0.072338 0.072338 0.144676 0.144676 0.144676 0.289352 0.144676 0.289352 0.289352 0.072338 0.072338 0.144676 0.144676 0.144676 0.072338 0.072338 0.144676 0.144676 0.144676 0.289352 0.144676 0.289352 0.289352 0.072338 0.072338 0.144676 0.144676 0.144676 0.072338 0.0723379 0.144676 0.144676 0.144676 0.289352 0.144676 0.289352 0.289352 0.0723379 0.0723379 0.144676 0.144676 0.144676 0.0723379 0.0723379 0.144676 0.144676 0.144676 0.289352 0.144676 0.289352 0.289352 0.0723379 0.0723379 0.144676 0.144676 0.144676 0.0723379 0.072338 0.144676 0.144676 0.144676 0.289352 0.144676 0.289352 0.289352 0.072338 0.072338 0.144676 0.144676 0.144676 0.072338 0.072338 0.144676 0.144676 0.144676 0.289352 0.144676 0.289352 0.289352 0.072338 0.072338 0.144676 0.144676 0.144676 0.072338 0.0723379 0.144676 0.144676 0.144676 0.289352 0.144676 0.289352 0.289352 0.0723379 0.0723379 0.144676 0.144676 0.144676 0.0723379 0.072338 0.072338 0.144676 0.072338 0.144676 0.144676 0.144676 0.289352 0.072338 0.072338 0.072338 0.144676 0.144676 0.072338 0.072338 0.144676 0.289352 0.144676 0.144676 0.289352 0.289352 0.144676 0.072338 0.144676 0.144676 0.072338 0.144676 0.072338 0.144676 0.289352 0.144676 0.289352 0.289352 0.072338 0.144676 0.144676 0.144676 0.072338 0.144676 0.289352 0.144676 0.289352 0.289352 0.072338 0.144676 0.144676 0.144676 0.072338 0.144676 0.289352 0.144676 0.289352 0.289352 0.072338 0.144676 0.144676 0.144676 0.072338 0.144676 0.289352 0.144676 0.289352 0.289352 0.072338 0.144676 0.144676 0.144676 0.072338 0.144676 0.289352 0.144676 0.289352 0.289352 0.072338 0.144676 0.144676 0.144676 0.072338 0.144676 0.289352 0.144676 0.289352 0.289352 0.072338 0.144676 0.144676 0.144676 0.072338 0.144676 0.289352 0.144676 0.289352 0.289352 0.072338 0.144676 0.144676 0.144676 0.072338 0.144676 0.289352 0.144676 0.289352 0.289352 0.072338 0.144676 0.144676 0.144676 0.072338 0.144676 0.289352 0.144676 0.289352 0.289352 0.072338 0.144676 0.144676 0.144676 0.072338 0.144676 0.289352 0.144676 0.289352 0.289352 0.072338 0.144676 0.144676 0.144676 0.072338 0.144676 0.289352 0.144676 0.289352 0.289352 0.072338 0.144676 0.144676 0.144676 0.072338 0.144676 0.289352 0.144676 0.289352 0.289352 0.072338 0.144676 0.144676 0.144676 0.072338 0.144676 0.289352 0.144676 0.289352 0.289352 0.072338 0.144676 0.144676 0.144676 0.072338 0.144676 0.289352 0.144676 0.289352 0.289352 0.0723379 0.144676 0.144676 0.144676 0.0723379 0.144676 0.289352 0.144676 0.289352 0.289352 0.072338 0.144676 0.144676 0.144676 0.072338 0.144676 0.289352 0.144676 0.289352 0.289352 0.072338 0.144676 0.144676 0.144676 0.072338 0.144676 0.289352 0.144676 0.289352 0.289352 0.072338 0.144676 0.144676 0.144676 0.072338 0.144676 0.289352 0.144676 0.289352 0.289352 0.0723379 0.144676 0.144676 0.144676 0.0723379 0.144676 0.289352 0.144676 0.289352 0.289352 0.0723379 0.144676 0.144676 0.144676 0.0723379 0.144676 0.289352 0.144676 0.289352 0.289352 0.072338 0.144676 0.144676 0.144676 0.072338 0.144676 0.289352 0.144676 0.289352 0.289352 0.072338 0.144676 0.144676 0.144676 0.072338 0.144676 0.289352 0.144676 0.289352 0.289352 0.0723379 0.144676 0.144676 0.144676 0.0723379 0.072338 0.144676 0.144676 0.144676 0.289352 0.072338 0.072338 0.144676 0.144676 0.072338 0.072338 0.144676 0.289352 0.144676 0.144676 0.289352 0.289352 0.144676 0.072338 0.144676 0.144676 0.072338 0.144676 0.072338 0.144676 0.289352 0.144676 0.289352 0.289352 0.072338 0.144676 0.144676 0.144676 0.072338 0.144676 0.289352 0.144676 0.289352 0.289352 0.072338 0.144676 0.144676 0.144676 0.072338 0.144676 0.289352 0.144676 0.289352 0.289352 0.072338 0.144676 0.144676 0.144676 0.072338 0.144676 0.289352 0.144676 0.289352 0.289352 0.072338 0.144676 0.144676 0.144676 0.072338 0.144676 0.289352 0.144676 0.289352 0.289352 0.072338 0.144676 0.144676 0.144676 0.072338 0.144676 0.289352 0.144676 0.289352 0.289352 0.072338 0.144676 0.144676 0.144676 0.072338 0.144676 0.289352 0.144676 0.289352 0.289352 0.072338 0.144676 0.144676 0.144676 0.072338 0.144676 0.289352 0.144676 0.289352 0.289352 0.072338 0.144676 0.144676 0.144676 0.072338 0.144676 0.289352 0.144676 0.289352 0.289352 0.072338 0.144676 0.144676 0.144676 0.072338 0.144676 0.289352 0.144676 0.289352 0.289352 0.072338 0.144676 0.144676 0.144676 0.072338 0.144676 0.289352 0.144676 0.289352 0.289352 0.072338 0.144676 0.144676 0.144676 0.072338 0.144676 0.289352 0.144676 0.289352 0.289352 0.072338 0.144676 0.144676 0.144676 0.072338 0.144676 0.289352 0.144676 0.289352 0.289352 0.072338 0.144676 0.144676 0.144676 0.072338 0.144676 0.289352 0.144676 0.289352 0.289352 0.0723379 0.144676 0.144676 0.144676 0.0723379 0.144676 0.289352 0.144676 0.289352 0.289352 0.072338 0.144676 0.144676 0.144676 0.072338 0.144676 0.289352 0.144676 0.289352 0.289352 0.072338 0.144676 0.144676 0.144676 0.072338 0.144676 0.289352 0.144676 0.289352 0.289352 0.072338 0.144676 0.144676 0.144676 0.072338 0.144676 0.289352 0.144676 0.289352 0.289352 0.0723379 0.144676 0.144676 0.144676 0.0723379 0.144676 0.289352 0.144676 0.289352 0.289352 0.0723379 0.144676 0.144676 0.144676 0.0723379 0.144676 0.289352 0.144676 0.289352 0.289352 0.072338 0.144676 0.144676 0.144676 0.072338 0.144676 0.289352 0.144676 0.289352 0.289352 0.072338 0.144676 0.144676 0.144676 0.072338 0.144676 0.289352 0.144676 0.289352 0.289352 0.072338 0.144676 0.144676 0.144676 0.072338 0.072338 0.144676 0.144676 0.144676 0.289352 0.072338 0.072338 0.144676 0.144676 0.072338 0.072338 0.144676 0.289352 0.144676 0.144676 0.289352 0.289352 0.144676 0.072338 0.144676 0.144676 0.072338 0.144676 0.072338 0.144676 0.289352 0.144676 0.289352 0.289352 0.072338 0.144676 0.144676 0.144676 0.072338 0.144676 0.289352 0.144676 0.289352 0.289352 0.072338 0.144676 0.144676 0.144676 0.072338 0.144676 0.289352 0.144676 0.289352 0.289352 0.072338 0.144676 0.144676 0.144676 0.072338 0.144676 0.289352 0.144676 0.289352 0.289352 0.072338 0.144676 0.144676 0.144676 0.072338 0.144676 0.289352 0.144676 0.289352 0.289352 0.072338 0.144676 0.144676 0.144676 0.072338 0.144676 0.289352 0.144676 0.289352 0.289352 0.072338 0.144676 0.144676 0.144676 0.072338 0.144676 0.289352 0.144676 0.289352 0.289352 0.072338 0.144676 0.144676 0.144676 0.072338 0.144676 0.289352 0.144676 0.289352 0.289352 0.072338 0.144676 0.144676 0.144676 0.072338 0.144676 0.289352 0.144676 0.289352 0.289352 0.072338 0.144676 0.144676 0.144676 0.072338 0.144676 0.289352 0.144676 0.289352 0.289352 0.0723379 0.144676 0.144676 0.144676 0.0723379 0.144676 0.289352 0.144676 0.289352 0.289352 0.072338 0.144676 0.144676 0.144676 0.072338 0.144676 0.289352 0.144676 0.289352 0.289352 0.072338 0.144676 0.144676 0.144676 0.072338 0.144676 0.289352 0.144676 0.289352 0.289352 0.072338 0.144676 0.144676 0.144676 0.072338 0.144676 0.289352 0.144676 0.289352 0.289352 0.0723379 0.144676 0.144676 0.144676 0.0723379 0.144676 0.289352 0.144676 0.289352 0.289352 0.072338 0.144676 0.144676 0.144676 0.072338 0.144676 0.289352 0.144676 0.289352 0.289352 0.072338 0.144676 0.144676 0.144676 0.072338 0.144676 0.289352 0.144676 0.289352 0.289352 0.072338 0.144676 0.144676 0.144676 0.072338 0.144676 0.289352 0.144676 0.289352 0.289352 0.0723379 0.144676 0.144676 0.144676 0.0723379 0.144676 0.289352 0.144676 0.289352 0.289352 0.0723379 0.144676 0.144676 0.144676 0.0723379 0.144676 0.289352 0.144676 0.289352 0.289352 0.072338 0.144676 0.144676 0.144676 0.072338 0.144676 0.289352 0.144676 0.289352 0.289352 0.0723379 0.144676 0.144676 0.144676 0.0723379 0.144676 0.289352 0.144676 0.289352 0.289352 0.0723379 0.144676 0.144676 0.144676 0.0723379 0.072338 0.144676 0.144676 0.144676 0.289352 0.072338 0.072338 0.144676 0.144676 0.072338 0.072338 0.144676 0.289352 0.144676 0.144676 0.289352 0.289352 0.144676 0.072338 0.144676 0.144676 0.072338 0.144676 0.072338 0.144676 0.289352 0.144676 0.289352 0.289352 0.072338 0.144676 0.144676 0.144676 0.072338 0.144676 0.289352 0.144676 0.289352 0.289352 0.072338 0.144676 0.144676 0.144676 0.072338 0.144676 0.289352 0.144676 0.289352 0.289352 0.072338 0.144676 0.144676 0.144676 0.072338 0.144676 0.289352 0.144676 0.289352 0.289352 0.072338 0.144676 0.144676 0.144676 0.072338 0.144676 0.289352 0.144676 0.289352 0.289352 0.072338 0.144676 0.144676 0.144676 0.072338 0.144676 0.289352 0.144676 0.289352 0.289352 0.072338 0.144676 0.144676 0.144676 0.072338 0.144676 0.289352 0.144676 0.289352 0.289352 0.072338 0.144676 0.144676 0.144676 0.072338 0.144676 0.289352 0.144676 0.289352 0.289352 0.072338 0.144676 0.144676 0.144676 0.072338 0.144676 0.289352 0.144676 0.289352 0.289352 0.072338 0.144676 0.144676 0.144676 0.072338 0.144676 0.289352 0.144676 0.289352 0.289352 0.0723379 0.144676 0.144676 0.144676 0.0723379 0.144676 0.289352 0.144676 0.289352 0.289352 0.072338 0.144676 0.144676 0.144676 0.072338 0.144676 0.289352 0.144676 0.289352 0.289352 0.072338 0.144676 0.144676 0.144676 0.072338 0.144676 0.289352 0.144676 0.289352 0.289352 0.072338 0.144676 0.144676 0.144676 0.072338 0.144676 0.289352 0.144676 0.289352 0.289352 0.0723379 0.144676 0.144676 0.144676 0.0723379 0.144676 0.289352 0.144676 0.289352 0.289352 0.072338 0.144676 0.144676 0.144676 0.072338 0.144676 0.289352 0.144676 0.289352 0.289352 0.072338 0.144676 0.144676 0.144676 0.072338 0.144676 0.289352 0.144676 0.289352 0.289352 0.072338 0.144676 0.144676 0.144676 0.072338 0.144676 0.289352 0.144676 0.289352 0.289352 0.0723379 0.144676 0.144676 0.144676 0.0723379 0.144676 0.289352 0.144676 0.289352 0.289352 0.0723379 0.144676 0.144676 0.144676 0.0723379 0.144676 0.289352 0.144676 0.289352 0.289352 0.072338 0.144676 0.144676 0.144676 0.072338 0.144676 0.289352 0.144676 0.289352 0.289352 0.072338 0.144676 0.144676 0.144676 0.072338 0.144676 0.289352 0.144676 0.289352 0.289352 0.0723379 0.144676 0.144676 0.144676 0.0723379 0.072338 0.144676 0.144676 0.144676 0.289352 0.072338 0.072338 0.144676 0.144676 0.072338 0.072338 0.144676 0.289352 0.144676 0.144676 0.289352 0.289352 0.144676 0.072338 0.144676 0.144676 0.072338 0.144676 0.072338 0.144676 0.289352 0.144676 0.289352 0.289352 0.072338 0.144676 0.144676 0.144676 0.072338 0.144676 0.289352 0.144676 0.289352 0.289352 0.072338 0.144676 0.144676 0.144676 0.072338 0.144676 0.289352 0.144676 0.289352 0.289352 0.072338 0.144676 0.144676 0.144676 0.072338 0.144676 0.289352 0.144676 0.289352 0.289352 0.072338 0.144676 0.144676 0.144676 0.072338 0.144676 0.289352 0.144676 0.289352 0.289352 0.072338 0.144676 0.144676 0.144676 0.072338 0.144676 0.289352 0.144676 0.289352 0.289352 0.072338 0.144676 0.144676 0.144676 0.072338 0.144676 0.289352 0.144676 0.289352 0.289352 0.072338 0.144676 0.144676 0.144676 0.072338 0.144676 0.289352 0.144676 0.289352 0.289352 0.072338 0.144676 0.144676 0.144676 0.072338 0.144676 0.289352 0.144676 0.289352 0.289352 0.072338 0.144676 0.144676 0.144676 0.072338 0.144676 0.289352 0.144676 0.289352 0.289352 0.072338 0.144676 0.144676 0.144676 0.072338 0.144676 0.289352 0.144676 0.289352 0.289352 0.072338 0.144676 0.144676 0.144676 0.072338 0.144676 0.289352 0.144676 0.289352 0.289352 0.072338 0.144676 0.144676 0.144676 0.072338 0.144676 0.289352 0.144676 0.289352 0.289352 0.072338 0.144676 0.144676 0.144676 0.072338 0.144676 0.289352 0.144676 0.289352 0.289352 0.0723379 0.144676 0.144676 0.144676 0.0723379 0.144676 0.289352 0.144676 0.289352 0.289352 0.072338 0.144676 0.144676 0.144676 0.072338 0.144676 0.289352 0.144676 0.289352 0.289352 0.072338 0.144676 0.144676 0.144676 0.072338 0.144676 0.289352 0.144676 0.289352 0.289352 0.072338 0.144676 0.144676 0.144676 0.072338 0.144676 0.289352 0.144676 0.289352 0.289352 0.0723379 0.144676 0.144676 0.144676 0.0723379 0.144676 0.289352 0.144676 0.289352 0.289352 0.0723379 0.144676 0.144676 0.144676 0.0723379 0.144676 0.289352 0.144676 0.289352 0.289352 0.072338 0.144676 0.144676 0.144676 0.072338 0.144676 0.289352 0.144676 0.289352 0.289352 0.072338 0.144676 0.144676 0.144676 0.072338 0.144676 0.289352 0.144676 0.289352 0.289352 0.072338 0.144676 0.144676 0.144676 0.072338 0.072338 0.144676 0.144676 0.144676 0.289352 0.072338 0.072338 0.144676 0.144676 0.072338 0.072338 0.144676 0.289352 0.144676 0.144676 0.289352 0.289352 0.144676 0.072338 0.144676 0.144676 0.072338 0.144676 0.072338 0.144676 0.289352 0.144676 0.289352 0.289352 0.072338 0.144676 0.144676 0.144676 0.072338 0.144676 0.289352 0.144676 0.289352 0.289352 0.072338 0.144676 0.144676 0.144676 0.072338 0.144676 0.289352 0.144676 0.289352 0.289352 0.072338 0.144676 0.144676 0.144676 0.072338 0.144676 0.289352 0.144676 0.289352 0.289352 0.072338 0.144676 0.144676 0.144676 0.072338 0.144676 0.289352 0.144676 0.289352 0.289352 0.072338 0.144676 0.144676 0.144676 0.072338 0.144676 0.289352 0.144676 0.289352 0.289352 0.072338 0.144676 0.144676 0.144676 0.072338 0.144676 0.289352 0.144676 0.289352 0.289352 0.072338 0.144676 0.144676 0.144676 0.072338 0.144676 0.289352 0.144676 0.289352 0.289352 0.072338 0.144676 0.144676 0.144676 0.072338 0.144676 0.289352 0.144676 0.289352 0.289352 0.072338 0.144676 0.144676 0.144676 0.072338 0.144676 0.289352 0.144676 0.289352 0.289352 0.072338 0.144676 0.144676 0.144676 0.072338 0.144676 0.289352 0.144676 0.289352 0.289352 0.072338 0.144676 0.144676 0.144676 0.072338 0.144676 0.289352 0.144676 0.289352 0.289352 0.072338 0.144676 0.144676 0.144676 0.072338 0.144676 0.289352 0.144676 0.289352 0.289352 0.072338 0.144676 0.144676 0.144676 0.072338 0.144676 0.289352 0.144676 0.289352 0.289352 0.072338 0.144676 0.144676 0.144676 0.072338 0.144676 0.289352 0.144676 0.289352 0.289352 0.072338 0.144676 0.144676 0.144676 0.072338 0.144676 0.289352 0.144676 0.289352 0.289352 0.072338 0.144676 0.144676 0.144676 0.072338 0.144676 0.289352 0.144676 0.289352 0.289352 0.072338 0.144676 0.144676 0.144676 0.072338 0.144676 0.289352 0.144676 0.289352 0.289352 0.0723379 0.144676 0.144676 0.144676 0.0723379 0.144676 0.289352 0.144676 0.289352 0.289352 0.0723379 0.144676 0.144676 0.144676 0.0723379 0.144676 0.289352 0.144676 0.289352 0.289352 0.072338 0.144676 0.144676 0.144676 0.072338 0.144676 0.289352 0.144676 0.289352 0.289352 0.072338 0.144676 0.144676 0.144676 0.072338 0.144676 0.289352 0.144676 0.289352 0.289352 0.0723379 0.144676 0.144676 0.144676 0.0723379 0.072338 0.144676 0.144676 0.144676 0.289352 0.072338 0.072338 0.144676 0.144676 0.072338 0.072338 0.144676 0.289352 0.144676 0.072338 0.144676 0.144676 0.072338 0.072338 0.144676 0.144676 0.072338 0.072338 0.072338 0.144676 0.289352 0.072338 0.144676 0.144676 0.072338 0.144676 0.144676 0.072338 0.072338 0.144676 0.289352 0.072338 0.144676 0.144676 0.072338 0.144676 0.144676 0.072338 0.072338 0.144676 0.289352 0.0723379 0.144676 0.144676 0.0723379 0.144676 0.144676 0.0723379 0.0723379 0.144676 0.289352 0.072338 0.144676 0.144676 0.072338 0.144676 0.144676 0.072338 0.072338 0.144676 0.289352 0.072338 0.144676 0.144676 0.072338 0.144676 0.144676 0.072338 0.072338 0.144676 0.289352 0.072338 0.144676 0.144676 0.072338 0.144676 0.144676 0.072338 0.072338 0.144676 0.289352 0.072338 0.144676 0.144676 0.072338 0.144676 0.144676 0.072338 0.072338 0.144676 0.289352 0.072338 0.144676 0.144676 0.072338 0.144676 0.144676 0.072338 0.072338 0.144676 0.289352 0.0723379 0.144676 0.144676 0.0723379 0.144676 0.144676 0.0723379 0.0723379 0.144676 0.289352 0.0723379 0.144676 0.144676 0.0723379 0.144676 0.144676 0.0723379 0.0723379 0.144676 0.289352 0.072338 0.144676 0.144676 0.072338 0.144676 0.144676 0.072338 0.072338 0.144676 0.289352 0.072338 0.144676 0.144676 0.072338 0.144676 0.144676 0.072338 0.072338 0.144676 0.289352 0.072338 0.144676 0.144676 0.072338 0.144676 0.144676 0.072338 0.072338 0.144676 0.289352 0.0723379 0.144676 0.144676 0.0723379 0.144676 0.144676 0.0723379 0.0723379 0.144676 0.289352 0.072338 0.144676 0.144676 0.072338 0.144676 0.144676 0.072338 0.072338 0.144676 0.289352 0.072338 0.144676 0.144676 0.072338 0.144676 0.144676 0.072338 0.072338 0.144676 0.289352 0.0723379 0.144676 0.144676 0.0723379 0.144676 0.144676 0.0723379 0.0723379 0.144676 0.289352 0.0723379 0.144676 0.144676 0.0723379 0.144676 0.144676 0.0723379 0.0723379 0.144676 0.289352 0.0723379 0.144676 0.144676 0.0723379 0.144676 0.144676 0.0723379 0.0723379 0.144676 0.289352 0.072338 0.144676 0.144676 0.072338 0.144676 0.144676 0.072338 0.072338 0.144676 0.289352 0.0723379 0.144676 0.144676 0.0723379 0.144676 0.144676 0.0723379 0.0723379 0.144676 0.289352 0.0723379 0.144676 0.144676 0.0723379 0.144676 0.144676 0.0723379 0.0723379 0.072338 0.144676 0.072338 0.072338 0.144676 0.072338 0.072338 0.144676 0.072338 0.072338 0.144676 0.144676 0.072338 0.289352 0.144676 0.289352 0.289352 0.144676 0.072338 0.144676 0.144676 0.072338 0.144676 0.072338 0.144676 0.144676 0.289352 0.289352 0.289352 0.072338 0.144676 0.144676 0.144676 0.072338 0.144676 0.144676 0.289352 0.289352 0.289352 0.072338 0.144676 0.144676 0.144676 0.072338 0.144676 0.144676 0.289352 0.289352 0.289352 0.0723379 0.144676 0.144676 0.144676 0.0723379 0.144676 0.144676 0.289352 0.289352 0.289352 0.072338 0.144676 0.144676 0.144676 0.072338 0.144676 0.144676 0.289352 0.289352 0.289352 0.072338 0.144676 0.144676 0.144676 0.072338 0.144676 0.144676 0.289352 0.289352 0.289352 0.072338 0.144676 0.144676 0.144676 0.072338 0.144676 0.144676 0.289352 0.289352 0.289352 0.072338 0.144676 0.144676 0.144676 0.072338 0.144676 0.144676 0.289352 0.289352 0.289352 0.072338 0.144676 0.144676 0.144676 0.072338 0.144676 0.144676 0.289352 0.289352 0.289352 0.0723379 0.144676 0.144676 0.144676 0.0723379 0.144676 0.144676 0.289352 0.289352 0.289352 0.0723379 0.144676 0.144676 0.144676 0.0723379 0.144676 0.144676 0.289352 0.289352 0.289352 0.072338 0.144676 0.144676 0.144676 0.072338 0.144676 0.144676 0.289352 0.289352 0.289352 0.072338 0.144676 0.144676 0.144676 0.072338 0.144676 0.144676 0.289352 0.289352 0.289352 0.072338 0.144676 0.144676 0.144676 0.072338 0.144676 0.144676 0.289352 0.289352 0.289352 0.0723379 0.144676 0.144676 0.144676 0.0723379 0.144676 0.144676 0.289352 0.289352 0.289352 0.072338 0.144676 0.144676 0.144676 0.072338 0.144676 0.144676 0.289352 0.289352 0.289352 0.072338 0.144676 0.144676 0.144676 0.072338 0.144676 0.144676 0.289352 0.289352 0.289352 0.0723379 0.144676 0.144676 0.144676 0.0723379 0.144676 0.144676 0.289352 0.289352 0.289352 0.0723379 0.144676 0.144676 0.144676 0.0723379 0.144676 0.144676 0.289352 0.289352 0.289352 0.0723379 0.144676 0.144676 0.144676 0.0723379 0.144676 0.144676 0.289352 0.289352 0.289352 0.072338 0.144676 0.144676 0.144676 0.072338 0.144676 0.144676 0.289352 0.289352 0.289352 0.0723379 0.144676 0.144676 0.144676 0.0723379 0.144676 0.144676 0.289352 0.289352 0.289352 0.0723379 0.144676 0.144676 0.144676 0.0723379 0.072338 0.144676 0.144676 0.144676 0.289352 0.072338 0.072338 0.144676 0.144676 0.072338 0.289352 0.144676 0.289352 0.289352 0.144676 0.144676 0.144676 0.072338 0.144676 0.072338 0.289352 0.289352 0.289352 0.144676 0.144676 0.144676 0.072338 0.289352 0.289352 0.289352 0.144676 0.144676 0.144676 0.072338 0.289352 0.289352 0.289352 0.144676 0.144676 0.144676 0.0723379 0.289352 0.289352 0.289352 0.144676 0.144676 0.144676 0.072338 0.289352 0.289352 0.289352 0.144676 0.144676 0.144676 0.072338 0.289352 0.289352 0.289352 0.144676 0.144676 0.144676 0.072338 0.289352 0.289352 0.289352 0.144676 0.144676 0.144676 0.0723379 0.289352 0.289352 0.289352 0.144676 0.144676 0.144676 0.072338 0.289352 0.289352 0.289352 0.144676 0.144676 0.144676 0.0723379 0.289352 0.289352 0.289352 0.144676 0.144676 0.144676 0.0723379 0.289352 0.289352 0.289352 0.144676 0.144676 0.144676 0.072338 0.289352 0.289352 0.289352 0.144676 0.144676 0.144676 0.072338 0.289352 0.289352 0.289352 0.144676 0.144676 0.144676 0.072338 0.289352 0.289352 0.289352 0.144676 0.144676 0.144676 0.0723379 0.289352 0.289352 0.289352 0.144676 0.144676 0.144676 0.072338 0.289352 0.289352 0.289352 0.144676 0.144676 0.144676 0.072338 0.289352 0.289352 0.289352 0.144676 0.144676 0.144676 0.0723379 0.289352 0.289352 0.289352 0.144676 0.144676 0.144676 0.0723379 0.289352 0.289352 0.289352 0.144676 0.144676 0.144676 0.0723379 0.289352 0.289352 0.289352 0.144676 0.144676 0.144676 0.072338 0.289352 0.289352 0.289352 0.144676 0.144676 0.144676 0.0723379 0.289352 0.289352 0.289352 0.144676 0.144676 0.144676 0.0723379 0.144676 0.144676 0.289352 0.072338 0.144676 0.144676 0.072338 0.289352 0.144676 0.289352 0.289352 0.144676 0.144676 0.144676 0.072338 0.144676 0.072338 0.289352 0.289352 0.289352 0.144676 0.144676 0.144676 0.072338 0.289352 0.289352 0.289352 0.144676 0.144676 0.144676 0.072338 0.289352 0.289352 0.289352 0.144676 0.144676 0.144676 0.072338 0.289352 0.289352 0.289352 0.144676 0.144676 0.144676 0.072338 0.289352 0.289352 0.289352 0.144676 0.144676 0.144676 0.072338 0.289352 0.289352 0.289352 0.144676 0.144676 0.144676 0.072338 0.289352 0.289352 0.289352 0.144676 0.144676 0.144676 0.072338 0.289352 0.289352 0.289352 0.144676 0.144676 0.144676 0.072338 0.289352 0.289352 0.289352 0.144676 0.144676 0.144676 0.0723379 0.289352 0.289352 0.289352 0.144676 0.144676 0.144676 0.0723379 0.289352 0.289352 0.289352 0.144676 0.144676 0.144676 0.072338 0.289352 0.289352 0.289352 0.144676 0.144676 0.144676 0.072338 0.289352 0.289352 0.289352 0.144676 0.144676 0.144676 0.072338 0.289352 0.289352 0.289352 0.144676 0.144676 0.144676 0.0723379 0.289352 0.289352 0.289352 0.144676 0.144676 0.144676 0.072338 0.289352 0.289352 0.289352 0.144676 0.144676 0.144676 0.072338 0.289352 0.289352 0.289352 0.144676 0.144676 0.144676 0.0723379 0.289352 0.289352 0.289352 0.144676 0.144676 0.144676 0.0723379 0.289352 0.289352 0.289351 0.144676 0.144676 0.144676 0.0723379 0.289352 0.289352 0.289352 0.144676 0.144676 0.144676 0.072338 0.289352 0.289352 0.289352 0.144676 0.144676 0.144676 0.0723379 0.289352 0.289352 0.289352 0.144676 0.144676 0.144676 0.0723379 0.144676 0.144676 0.289352 0.072338 0.144676 0.144676 0.072338 0.289352 0.144676 0.289352 0.289352 0.144676 0.144676 0.144676 0.0723379 0.144676 0.0723379 0.289352 0.289352 0.289352 0.144676 0.144676 0.144676 0.072338 0.289352 0.289352 0.289352 0.144676 0.144676 0.144676 0.072338 0.289352 0.289352 0.289352 0.144676 0.144676 0.144676 0.0723379 0.289352 0.289352 0.289352 0.144676 0.144676 0.144676 0.0723379 0.289352 0.289352 0.289352 0.144676 0.144676 0.144676 0.072338 0.289352 0.289352 0.289352 0.144676 0.144676 0.144676 0.072338 0.289352 0.289352 0.289352 0.144676 0.144676 0.144676 0.0723379 0.289352 0.289352 0.289352 0.144676 0.144676 0.144676 0.0723379 0.289352 0.289352 0.289352 0.144676 0.144676 0.144676 0.0723379 0.289352 0.289352 0.289352 0.144676 0.144676 0.144676 0.0723379 0.289352 0.289352 0.289352 0.144676 0.144676 0.144676 0.072338 0.289352 0.289352 0.289352 0.144676 0.144676 0.144676 0.0723379 0.289352 0.289352 0.289352 0.144676 0.144676 0.144676 0.072338 0.289352 0.289352 0.289352 0.144676 0.144676 0.144676 0.0723379 0.289352 0.289352 0.289352 0.144676 0.144676 0.144676 0.072338 0.289352 0.289352 0.289352 0.144676 0.144676 0.144676 0.072338 0.289352 0.289352 0.289352 0.144676 0.144676 0.144676 0.0723379 0.289352 0.289352 0.289352 0.144676 0.144676 0.144676 0.0723379 0.289352 0.289352 0.289351 0.144676 0.144676 0.144676 0.0723379 0.289352 0.289352 0.289352 0.144676 0.144676 0.144676 0.072338 0.289352 0.289352 0.289352 0.144676 0.144676 0.144676 0.0723379 0.289352 0.289352 0.289352 0.144676 0.144676 0.144676 0.0723379 0.144676 0.144676 0.289352 0.072338 0.144676 0.144676 0.072338 0.289352 0.144676 0.289352 0.289352 0.144676 0.144676 0.144676 0.072338 0.144676 0.072338 0.289352 0.289352 0.289352 0.144676 0.144676 0.144676 0.072338 0.289352 0.289352 0.289352 0.144676 0.144676 0.144676 0.072338 0.289352 0.289352 0.289352 0.144676 0.144676 0.144676 0.0723379 0.289352 0.289352 0.289352 0.144676 0.144676 0.144676 0.0723379 0.289352 0.289352 0.289352 0.144676 0.144676 0.144676 0.072338 0.289352 0.289352 0.289352 0.144676 0.144676 0.144676 0.072338 0.289352 0.289352 0.289352 0.144676 0.144676 0.144676 0.0723379 0.289352 0.289352 0.289352 0.144676 0.144676 0.144676 0.072338 0.289352 0.289352 0.289352 0.144676 0.144676 0.144676 0.0723379 0.289352 0.289352 0.289352 0.144676 0.144676 0.144676 0.0723379 0.289352 0.289352 0.289352 0.144676 0.144676 0.144676 0.072338 0.289352 0.289352 0.289352 0.144676 0.144676 0.144676 0.0723379 0.289352 0.289352 0.289352 0.144676 0.144676 0.144676 0.072338 0.289352 0.289352 0.289352 0.144676 0.144676 0.144676 0.0723379 0.289352 0.289352 0.289352 0.144676 0.144676 0.144676 0.072338 0.289352 0.289352 0.289352 0.144676 0.144676 0.144676 0.072338 0.289352 0.289352 0.289352 0.144676 0.144676 0.144676 0.0723379 0.289352 0.289352 0.289352 0.144676 0.144676 0.144676 0.0723379 0.289352 0.289352 0.289352 0.144676 0.144676 0.144676 0.0723379 0.289352 0.289352 0.289352 0.144676 0.144676 0.144676 0.072338 0.289352 0.289352 0.289352 0.144676 0.144676 0.144676 0.0723379 0.289352 0.289352 0.289352 0.144676 0.144676 0.144676 0.0723379 0.144676 0.144676 0.289352 0.072338 0.144676 0.144676 0.072338 0.289352 0.144676 0.289352 0.289352 0.144676 0.144676 0.144676 0.072338 0.144676 0.072338 0.289352 0.289352 0.289352 0.144676 0.144676 0.144676 0.072338 0.289352 0.289352 0.289352 0.144676 0.144676 0.144676 0.072338 0.289352 0.289352 0.289352 0.144676 0.144676 0.144676 0.072338 0.289352 0.289352 0.289352 0.144676 0.144676 0.144676 0.072338 0.289352 0.289352 0.289352 0.144676 0.144676 0.144676 0.072338 0.289352 0.289352 0.289352 0.144676 0.144676 0.144676 0.072338 0.289352 0.289352 0.289352 0.144676 0.144676 0.144676 0.072338 0.289352 0.289352 0.289352 0.144676 0.144676 0.144676 0.072338 0.289352 0.289352 0.289352 0.144676 0.144676 0.144676 0.0723379 0.289352 0.289352 0.289352 0.144676 0.144676 0.144676 0.0723379 0.289352 0.289352 0.289352 0.144676 0.144676 0.144676 0.072338 0.289352 0.289352 0.289352 0.144676 0.144676 0.144676 0.072338 0.289352 0.289352 0.289352 0.144676 0.144676 0.144676 0.072338 0.289352 0.289352 0.289352 0.144676 0.144676 0.144676 0.0723379 0.289352 0.289352 0.289352 0.144676 0.144676 0.144676 0.072338 0.289352 0.289352 0.289352 0.144676 0.144676 0.144676 0.072338 0.289352 0.289352 0.289352 0.144676 0.144676 0.144676 0.0723379 0.289352 0.289352 0.289352 0.144676 0.144676 0.144676 0.0723379 0.289352 0.289352 0.289352 0.144676 0.144676 0.144676 0.0723379 0.289352 0.289352 0.289352 0.144676 0.144676 0.144676 0.072338 0.289352 0.289352 0.289352 0.144676 0.144676 0.144676 0.0723379 0.289352 0.289352 0.289352 0.144676 0.144676 0.144676 0.0723379 0.144676 0.144676 0.289352 0.072338 0.144676 0.144676 0.072338 0.289352 0.144676 0.289352 0.289352 0.144676 0.144676 0.144676 0.072338 0.144676 0.072338 0.289352 0.289352 0.289352 0.144676 0.144676 0.144676 0.072338 0.289352 0.289352 0.289352 0.144676 0.144676 0.144676 0.072338 0.289352 0.289352 0.289352 0.144676 0.144676 0.144676 0.072338 0.289352 0.289352 0.289352 0.144676 0.144676 0.144676 0.072338 0.289352 0.289352 0.289352 0.144676 0.144676 0.144676 0.072338 0.289352 0.289352 0.289352 0.144676 0.144676 0.144676 0.072338 0.289352 0.289352 0.289352 0.144676 0.144676 0.144676 0.072338 0.289352 0.289352 0.289352 0.144676 0.144676 0.144676 0.072338 0.289352 0.289352 0.289352 0.144676 0.144676 0.144676 0.0723379 0.289352 0.289352 0.289352 0.144676 0.144676 0.144676 0.0723379 0.289352 0.289352 0.289352 0.144676 0.144676 0.144676 0.072338 0.289352 0.289352 0.289352 0.144676 0.144676 0.144676 0.072338 0.289352 0.289352 0.289352 0.144676 0.144676 0.144676 0.072338 0.289352 0.289352 0.289352 0.144676 0.144676 0.144676 0.0723379 0.289352 0.289352 0.289352 0.144676 0.144676 0.144676 0.072338 0.289352 0.289352 0.289352 0.144676 0.144676 0.144676 0.072338 0.289352 0.289352 0.289352 0.144676 0.144676 0.144676 0.072338 0.289352 0.289352 0.289352 0.144676 0.144676 0.144676 0.0723379 0.289352 0.289352 0.289351 0.144676 0.144676 0.144676 0.0723379 0.289352 0.289352 0.289352 0.144676 0.144676 0.144676 0.072338 0.289352 0.289352 0.289352 0.144676 0.144676 0.144676 0.0723379 0.289352 0.289352 0.289352 0.144676 0.144676 0.144676 0.0723379 0.144676 0.144676 0.289352 0.072338 0.144676 0.144676 0.072338 0.289352 0.144676 0.144676 0.144676 0.0723379 0.144676 0.144676 0.0723379 0.0723379 0.0723379 0.289352 0.144676 0.144676 0.144676 0.144676 0.0723379 0.0723379 0.289352 0.144676 0.144676 0.144676 0.144676 0.072338 0.072338 0.289352 0.144676 0.144676 0.144676 0.144676 0.0723379 0.0723379 0.289352 0.144676 0.144676 0.144676 0.144676 0.0723379 0.0723379 0.289352 0.144676 0.144676 0.144676 0.144676 0.0723379 0.0723379 0.289352 0.144676 0.144676 0.144676 0.144676 0.0723379 0.0723379 0.289352 0.144676 0.144676 0.144676 0.144676 0.0723379 0.0723379 0.289352 0.144676 0.144676 0.144676 0.144676 0.0723379 0.0723379 0.289352 0.144676 0.144676 0.144676 0.144676 0.0723379 0.0723379 0.289352 0.144676 0.144676 0.144676 0.144676 0.0723379 0.0723379 0.289352 0.144676 0.144676 0.144676 0.144676 0.0723379 0.0723379 0.289352 0.144676 0.144676 0.144676 0.144676 0.0723379 0.0723379 0.289352 0.144676 0.144676 0.144676 0.144676 0.072338 0.072338 0.289352 0.144676 0.144676 0.144676 0.144676 0.0723379 0.0723379 0.289352 0.144676 0.144676 0.144676 0.144676 0.072338 0.072338 0.289352 0.144676 0.144676 0.144676 0.144676 0.0723379 0.0723379 0.289352 0.144676 0.144676 0.144676 0.144676 0.0723379 0.0723379 0.289351 0.144676 0.144676 0.144676 0.144676 0.0723379 0.0723379 0.289352 0.144676 0.144676 0.144676 0.144676 0.0723379 0.0723379 0.289352 0.144676 0.144676 0.144676 0.144676 0.072338 0.072338 0.289352 0.144676 0.144676 0.144676 0.144676 0.0723379 0.0723379 0.289352 0.144676 0.144676 0.144676 0.144676 0.0723379 0.0723379 0.144676 0.072338 0.144676 0.072338 0.144676 0.072338 0.072338 0.144676 0.144676 0.0723379 0.289352 0.144676 0.289352 0.289352 0.144676 0.0723379 0.144676 0.144676 0.0723379 0.144676 0.0723379 0.144676 0.144676 0.289352 0.289352 0.289352 0.0723379 0.144676 0.144676 0.144676 0.0723379 0.144676 0.144676 0.289352 0.289352 0.289352 0.0723379 0.144676 0.144676 0.144676 0.0723379 0.144676 0.144676 0.289352 0.289352 0.289352 0.0723379 0.144676 0.144676 0.144676 0.0723379 0.144676 0.144676 0.289352 0.289352 0.289352 0.0723379 0.144676 0.144676 0.144676 0.0723379 0.144676 0.144676 0.289352 0.289352 0.289352 0.0723379 0.144676 0.144676 0.144676 0.0723379 0.144676 0.144676 0.289352 0.289352 0.289352 0.0723379 0.144676 0.144676 0.144676 0.0723379 0.144676 0.144676 0.289352 0.289352 0.289352 0.0723379 0.144676 0.144676 0.144676 0.0723379 0.144676 0.144676 0.289352 0.289352 0.289352 0.0723379 0.144676 0.144676 0.144676 0.0723379 0.144676 0.144676 0.289352 0.289352 0.289352 0.0723379 0.144676 0.144676 0.144676 0.0723379 0.144676 0.144676 0.289352 0.289352 0.289352 0.0723379 0.144676 0.144676 0.144676 0.0723379 0.144676 0.144676 0.289352 0.289352 0.289352 0.0723379 0.144676 0.144676 0.144676 0.0723379 0.144676 0.144676 0.289352 0.289352 0.289352 0.0723379 0.144676 0.144676 0.144676 0.0723379 0.144676 0.144676 0.289352 0.289352 0.289352 0.0723379 0.144676 0.144676 0.144676 0.0723379 0.144676 0.144676 0.289352 0.289352 0.289352 0.0723379 0.144676 0.144676 0.144676 0.0723379 0.144676 0.144676 0.289352 0.289352 0.289352 0.0723379 0.144676 0.144676 0.144676 0.0723379 0.144676 0.144676 0.289352 0.289352 0.289352 0.0723379 0.144676 0.144676 0.144676 0.0723379 0.144676 0.144676 0.289352 0.289352 0.289352 0.0723379 0.144676 0.144676 0.144676 0.0723379 0.144676 0.144676 0.289352 0.289352 0.289352 0.0723379 0.144676 0.144676 0.144676 0.0723379 0.144676 0.144676 0.289352 0.289352 0.289352 0.0723379 0.144676 0.144676 0.144676 0.0723379 0.144676 0.144676 0.289352 0.289352 0.289352 0.0723379 0.144676 0.144676 0.144676 0.0723379 0.144676 0.144676 0.289352 0.289352 0.289352 0.0723379 0.144676 0.144676 0.144676 0.0723379 0.144676 0.144676 0.289352 0.289352 0.289352 0.0723379 0.144676 0.144676 0.144676 0.0723379 0.0723379 0.144676 0.144676 0.144676 0.289352 0.0723379 0.0723379 0.144676 0.144676 0.0723379 0.289352 0.144676 0.289352 0.289352 0.144676 0.144676 0.144676 0.0723379 0.144676 0.0723379 0.289352 0.289352 0.289352 0.144676 0.144676 0.144676 0.0723379 0.289352 0.289352 0.289352 0.144676 0.144676 0.144676 0.0723379 0.289352 0.289352 0.289352 0.144676 0.144676 0.144676 0.0723379 0.289352 0.289352 0.289352 0.144676 0.144676 0.144676 0.0723379 0.289352 0.289352 0.289352 0.144676 0.144676 0.144676 0.0723379 0.289352 0.289352 0.289352 0.144676 0.144676 0.144676 0.0723379 0.289352 0.289352 0.289352 0.144676 0.144676 0.144676 0.0723379 0.289352 0.289352 0.289352 0.144676 0.144676 0.144676 0.0723379 0.289352 0.289352 0.289352 0.144676 0.144676 0.144676 0.0723379 0.289352 0.289352 0.289352 0.144676 0.144676 0.144676 0.0723379 0.289352 0.289352 0.289352 0.144676 0.144676 0.144676 0.0723379 0.289352 0.289352 0.289352 0.144676 0.144676 0.144676 0.0723379 0.289352 0.289352 0.289352 0.144676 0.144676 0.144676 0.0723379 0.289352 0.289352 0.289352 0.144676 0.144676 0.144676 0.0723379 0.289352 0.289352 0.289352 0.144676 0.144676 0.144676 0.0723379 0.289352 0.289352 0.289352 0.144676 0.144676 0.144676 0.0723379 0.289352 0.289352 0.289352 0.144676 0.144676 0.144676 0.0723379 0.289352 0.289351 0.289352 0.144676 0.144676 0.144676 0.0723379 0.289352 0.289352 0.289352 0.144676 0.144676 0.144676 0.0723379 0.289352 0.289352 0.289352 0.144676 0.144676 0.144676 0.0723379 0.289352 0.289352 0.289352 0.144676 0.144676 0.144676 0.0723379 0.289352 0.289352 0.289352 0.144676 0.144676 0.144676 0.0723379 0.144676 0.144676 0.289352 0.0723379 0.144676 0.144676 0.0723379 0.289352 0.144676 0.289352 0.289352 0.144676 0.144676 0.144676 0.0723379 0.144676 0.0723379 0.289352 0.289352 0.289352 0.144676 0.144676 0.144676 0.0723379 0.289352 0.289352 0.289352 0.144676 0.144676 0.144676 0.0723379 0.289352 0.289352 0.289352 0.144676 0.144676 0.144676 0.0723379 0.289352 0.289352 0.289352 0.144676 0.144676 0.144676 0.0723379 0.289352 0.289352 0.289352 0.144676 0.144676 0.144676 0.0723379 0.289352 0.289352 0.289352 0.144676 0.144676 0.144676 0.0723379 0.289352 0.289352 0.289352 0.144676 0.144676 0.144676 0.0723379 0.289352 0.289352 0.289352 0.144676 0.144676 0.144676 0.0723379 0.289352 0.289352 0.289352 0.144676 0.144676 0.144676 0.0723379 0.289352 0.289352 0.289352 0.144676 0.144676 0.144676 0.0723379 0.289352 0.289352 0.289352 0.144676 0.144676 0.144676 0.0723379 0.289352 0.289352 0.289352 0.144676 0.144676 0.144676 0.0723379 0.289352 0.289352 0.289352 0.144676 0.144676 0.144676 0.0723379 0.289352 0.289352 0.289352 0.144676 0.144676 0.144676 0.0723379 0.289352 0.289352 0.289352 0.144676 0.144676 0.144676 0.0723379 0.289352 0.289352 0.289352 0.144676 0.144676 0.144676 0.0723379 0.289352 0.289352 0.289352 0.144676 0.144676 0.144676 0.0723379 0.289352 0.289351 0.289352 0.144676 0.144676 0.144676 0.0723379 0.289352 0.289352 0.289352 0.144676 0.144676 0.144676 0.0723379 0.289352 0.289352 0.289352 0.144676 0.144676 0.144676 0.0723379 0.289352 0.289352 0.289352 0.144676 0.144676 0.144676 0.0723379 0.289352 0.289352 0.289352 0.144676 0.144676 0.144676 0.0723379 0.144676 0.144676 0.289352 0.0723379 0.144676 0.144676 0.0723379 0.289352 0.144676 0.289352 0.289352 0.144676 0.144676 0.144676 0.0723379 0.144676 0.0723379 0.289352 0.289352 0.289352 0.144676 0.144676 0.144676 0.0723379 0.289352 0.289352 0.289352 0.144676 0.144676 0.144676 0.0723379 0.289352 0.289352 0.289352 0.144676 0.144676 0.144676 0.0723379 0.289352 0.289352 0.289352 0.144676 0.144676 0.144676 0.0723379 0.289352 0.289352 0.289352 0.144676 0.144676 0.144676 0.0723379 0.289352 0.289352 0.289352 0.144676 0.144676 0.144676 0.0723379 0.289352 0.289352 0.289352 0.144676 0.144676 0.144676 0.0723379 0.289352 0.289352 0.289352 0.144676 0.144676 0.144676 0.0723379 0.289352 0.289352 0.289352 0.144676 0.144676 0.144676 0.0723379 0.289352 0.289352 0.289352 0.144676 0.144676 0.144676 0.0723379 0.289352 0.289352 0.289352 0.144676 0.144676 0.144676 0.0723379 0.289352 0.289352 0.289352 0.144676 0.144676 0.144676 0.0723379 0.289352 0.289352 0.289352 0.144676 0.144676 0.144676 0.0723379 0.289352 0.289352 0.289352 0.144676 0.144676 0.144676 0.0723379 0.289352 0.289352 0.289352 0.144676 0.144676 0.144676 0.0723379 0.289352 0.289352 0.289352 0.144676 0.144676 0.144676 0.0723379 0.289352 0.289351 0.289352 0.144676 0.144676 0.144676 0.0723379 0.289352 0.289351 0.289352 0.144676 0.144676 0.144676 0.0723379 0.289352 0.289352 0.289352 0.144676 0.144676 0.144676 0.0723378 0.289352 0.289352 0.289352 0.144676 0.144676 0.144676 0.0723379 0.289352 0.289352 0.289352 0.144676 0.144676 0.144676 0.0723379 0.289352 0.289352 0.289352 0.144676 0.144676 0.144676 0.0723379 0.144676 0.144676 0.289352 0.0723379 0.144676 0.144676 0.0723379 0.289352 0.144676 0.289352 0.289352 0.144676 0.144676 0.144676 0.0723379 0.144676 0.0723379 0.289352 0.289352 0.289352 0.144676 0.144676 0.144676 0.0723379 0.289352 0.289352 0.289352 0.144676 0.144676 0.144676 0.0723379 0.289352 0.289352 0.289352 0.144676 0.144676 0.144676 0.0723379 0.289352 0.289352 0.289352 0.144676 0.144676 0.144676 0.0723379 0.289352 0.289352 0.289352 0.144676 0.144676 0.144676 0.0723379 0.289352 0.289352 0.289352 0.144676 0.144676 0.144676 0.0723379 0.289352 0.289352 0.289352 0.144676 0.144676 0.144676 0.0723379 0.289352 0.289352 0.289352 0.144676 0.144676 0.144676 0.0723379 0.289352 0.289352 0.289352 0.144676 0.144676 0.144676 0.0723379 0.289352 0.289352 0.289352 0.144676 0.144676 0.144676 0.0723379 0.289352 0.289352 0.289352 0.144676 0.144676 0.144676 0.0723379 0.289352 0.289352 0.289352 0.144676 0.144676 0.144676 0.0723379 0.289352 0.289352 0.289352 0.144676 0.144676 0.144676 0.0723379 0.289352 0.289352 0.289352 0.144676 0.144676 0.144676 0.0723379 0.289352 0.289352 0.289352 0.144676 0.144676 0.144676 0.0723379 0.289352 0.289352 0.289352 0.144676 0.144676 0.144676 0.0723379 0.289352 0.289352 0.289352 0.144676 0.144676 0.144676 0.0723379 0.289352 0.289351 0.289352 0.144676 0.144676 0.144676 0.0723379 0.289352 0.289352 0.289352 0.144676 0.144676 0.144676 0.0723378 0.289352 0.289352 0.289352 0.144676 0.144676 0.144676 0.0723379 0.289352 0.289352 0.289352 0.144676 0.144676 0.144676 0.0723379 0.289352 0.289352 0.289352 0.144676 0.144676 0.144676 0.0723379 0.144676 0.144676 0.289352 0.0723379 0.144676 0.144676 0.0723379 0.289352 0.144676 0.289352 0.289352 0.144676 0.144676 0.144676 0.0723379 0.144676 0.0723379 0.289352 0.289352 0.289352 0.144676 0.144676 0.144676 0.0723379 0.289352 0.289352 0.289352 0.144676 0.144676 0.144676 0.0723379 0.289352 0.289352 0.289352 0.144676 0.144676 0.144676 0.0723379 0.289352 0.289352 0.289352 0.144676 0.144676 0.144676 0.0723379 0.289352 0.289352 0.289352 0.144676 0.144676 0.144676 0.0723379 0.289352 0.289352 0.289352 0.144676 0.144676 0.144676 0.0723379 0.289352 0.289352 0.289352 0.144676 0.144676 0.144676 0.0723379 0.289352 0.289352 0.289352 0.144676 0.144676 0.144676 0.0723379 0.289352 0.289352 0.289352 0.144676 0.144676 0.144676 0.0723379 0.289352 0.289352 0.289352 0.144676 0.144676 0.144676 0.0723379 0.289352 0.289352 0.289352 0.144676 0.144676 0.144676 0.0723379 0.289352 0.289352 0.289352 0.144676 0.144676 0.144676 0.0723379 0.289352 0.289352 0.289352 0.144676 0.144676 0.144676 0.0723379 0.289352 0.289352 0.289352 0.144676 0.144676 0.144676 0.0723379 0.289352 0.289352 0.289352 0.144676 0.144676 0.144676 0.0723379 0.289352 0.289352 0.289352 0.144676 0.144676 0.144676 0.0723379 0.289352 0.289352 0.289352 0.144676 0.144676 0.144676 0.0723379 0.289352 0.289351 0.289352 0.144676 0.144676 0.144676 0.0723379 0.289352 0.289352 0.289352 0.144676 0.144676 0.144676 0.0723379 0.289352 0.289352 0.289352 0.144676 0.144676 0.144676 0.0723379 0.289352 0.289352 0.289352 0.144676 0.144676 0.144676 0.0723379 0.289352 0.289352 0.289352 0.144676 0.144676 0.144676 0.0723379 0.144676 0.144676 0.289352 0.0723379 0.144676 0.144676 0.0723379 0.289352 0.144676 0.289352 0.289352 0.144676 0.144676 0.144676 0.0723379 0.144676 0.0723379 0.289352 0.289352 0.289352 0.144676 0.144676 0.144676 0.0723379 0.289352 0.289352 0.289352 0.144676 0.144676 0.144676 0.0723379 0.289352 0.289352 0.289352 0.144676 0.144676 0.144676 0.0723379 0.289352 0.289352 0.289352 0.144676 0.144676 0.144676 0.0723379 0.289352 0.289352 0.289352 0.144676 0.144676 0.144676 0.0723379 0.289352 0.289352 0.289352 0.144676 0.144676 0.144676 0.0723379 0.289352 0.289352 0.289352 0.144676 0.144676 0.144676 0.0723379 0.289352 0.289352 0.289352 0.144676 0.144676 0.144676 0.0723379 0.289352 0.289352 0.289352 0.144676 0.144676 0.144676 0.0723379 0.289352 0.289352 0.289352 0.144676 0.144676 0.144676 0.0723379 0.289352 0.289352 0.289352 0.144676 0.144676 0.144676 0.0723379 0.289352 0.289352 0.289352 0.144676 0.144676 0.144676 0.0723379 0.289352 0.289352 0.289352 0.144676 0.144676 0.144676 0.0723379 0.289352 0.289352 0.289352 0.144676 0.144676 0.144676 0.0723379 0.289352 0.289352 0.289352 0.144676 0.144676 0.144676 0.0723379 0.289352 0.289352 0.289352 0.144676 0.144676 0.144676 0.0723379 0.289352 0.289352 0.289352 0.144676 0.144676 0.144676 0.0723379 0.289352 0.289351 0.289352 0.144676 0.144676 0.144676 0.0723379 0.289352 0.289352 0.289352 0.144676 0.144676 0.144676 0.0723379 0.289352 0.289352 0.289352 0.144676 0.144676 0.144676 0.0723379 0.289352 0.289352 0.289352 0.144676 0.144676 0.144676 0.0723379 0.289352 0.289352 0.289352 0.144676 0.144676 0.144676 0.0723379 0.144676 0.144676 0.289352 0.0723379 0.144676 0.144676 0.0723379 0.289352 0.144676 0.144676 0.144676 0.0723379 0.144676 0.144676 0.0723379 0.0723379 0.0723379 0.289352 0.144676 0.144676 0.144676 0.144676 0.0723379 0.0723379 0.289352 0.144676 0.144676 0.144676 0.144676 0.0723379 0.0723379 0.289352 0.144676 0.144676 0.144676 0.144676 0.0723379 0.0723379 0.289352 0.144676 0.144676 0.144676 0.144676 0.0723379 0.0723379 0.289352 0.144676 0.144676 0.144676 0.144676 0.0723379 0.0723379 0.289352 0.144676 0.144676 0.144676 0.144676 0.0723379 0.0723379 0.289352 0.144676 0.144676 0.144676 0.144676 0.0723379 0.0723379 0.289352 0.144676 0.144676 0.144676 0.144676 0.0723379 0.0723379 0.289352 0.144676 0.144676 0.144676 0.144676 0.0723379 0.0723379 0.289352 0.144676 0.144676 0.144676 0.144676 0.0723379 0.0723379 0.289352 0.144676 0.144676 0.144676 0.144676 0.0723379 0.0723379 0.289352 0.144676 0.144676 0.144676 0.144676 0.0723379 0.0723379 0.289352 0.144676 0.144676 0.144676 0.144676 0.0723379 0.0723379 0.289352 0.144676 0.144676 0.144676 0.144676 0.0723379 0.0723379 0.289352 0.144676 0.144676 0.144676 0.144676 0.0723379 0.0723379 0.289352 0.144676 0.144676 0.144676 0.144676 0.0723379 0.0723379 0.289352 0.144676 0.144676 0.144676 0.144676 0.0723379 0.0723379 0.289352 0.144676 0.144676 0.144676 0.144676 0.0723379 0.0723379 0.289352 0.144676 0.144676 0.144676 0.144676 0.0723378 0.0723378 0.289352 0.144676 0.144676 0.144676 0.144676 0.0723379 0.0723379 0.289352 0.144676 0.144676 0.144676 0.144676 0.0723379 0.0723379 0.289352 0.144676 0.144676 0.144676 0.144676 0.0723379 0.0723379 0.144676 0.0723379 0.144676 0.0723379 0.144676 0.0723379 0.0723379 0.144676 0.144676 0.072338 0.289352 0.144676 0.289352 0.289352 0.144676 0.072338 0.144676 0.144676 0.072338 0.144676 0.072338 0.144676 0.144676 0.289352 0.289352 0.289352 0.072338 0.144676 0.144676 0.144676 0.072338 0.144676 0.144676 0.289352 0.289352 0.289352 0.072338 0.144676 0.144676 0.144676 0.072338 0.144676 0.144676 0.289352 0.289352 0.289352 0.072338 0.144676 0.144676 0.144676 0.072338 0.144676 0.144676 0.289352 0.289352 0.289352 0.072338 0.144676 0.144676 0.144676 0.072338 0.144676 0.144676 0.289352 0.289352 0.289352 0.072338 0.144676 0.144676 0.144676 0.072338 0.144676 0.144676 0.289352 0.289352 0.289352 0.072338 0.144676 0.144676 0.144676 0.072338 0.144676 0.144676 0.289352 0.289352 0.289352 0.072338 0.144676 0.144676 0.144676 0.072338 0.144676 0.144676 0.289352 0.289352 0.289352 0.072338 0.144676 0.144676 0.144676 0.072338 0.144676 0.144676 0.289352 0.289352 0.289352 0.072338 0.144676 0.144676 0.144676 0.072338 0.144676 0.144676 0.289352 0.289352 0.289352 0.072338 0.144676 0.144676 0.144676 0.072338 0.144676 0.144676 0.289352 0.289352 0.289352 0.072338 0.144676 0.144676 0.144676 0.072338 0.144676 0.144676 0.289352 0.289352 0.289352 0.072338 0.144676 0.144676 0.144676 0.072338 0.144676 0.144676 0.289352 0.289352 0.289352 0.072338 0.144676 0.144676 0.144676 0.072338 0.144676 0.144676 0.289352 0.289352 0.289352 0.072338 0.144676 0.144676 0.144676 0.072338 0.144676 0.144676 0.289352 0.289352 0.289352 0.072338 0.144676 0.144676 0.144676 0.072338 0.144676 0.144676 0.289352 0.289352 0.289352 0.072338 0.144676 0.144676 0.144676 0.072338 0.144676 0.144676 0.289352 0.289352 0.289352 0.072338 0.144676 0.144676 0.144676 0.072338 0.144676 0.144676 0.289352 0.289352 0.289352 0.072338 0.144676 0.144676 0.144676 0.072338 0.144676 0.144676 0.289352 0.289352 0.289352 0.0723379 0.144676 0.144676 0.144676 0.0723379 0.144676 0.144676 0.289352 0.289352 0.289352 0.072338 0.144676 0.144676 0.144676 0.072338 0.144676 0.144676 0.289352 0.289352 0.289352 0.072338 0.144676 0.144676 0.144676 0.072338 0.144676 0.144676 0.289352 0.289352 0.289352 0.072338 0.144676 0.144676 0.144676 0.072338 0.072338 0.144676 0.144676 0.144676 0.289352 0.072338 0.072338 0.144676 0.144676 0.072338 0.289352 0.144676 0.289352 0.289352 0.144676 0.144676 0.144676 0.072338 0.144676 0.072338 0.289352 0.289352 0.289352 0.144676 0.144676 0.144676 0.072338 0.289352 0.289352 0.289352 0.144676 0.144676 0.144676 0.072338 0.289352 0.289352 0.289352 0.144676 0.144676 0.144676 0.072338 0.289352 0.289352 0.289352 0.144676 0.144676 0.144676 0.072338 0.289352 0.289352 0.289352 0.144676 0.144676 0.144676 0.072338 0.289352 0.289352 0.289352 0.144676 0.144676 0.144676 0.072338 0.289352 0.289352 0.289352 0.144676 0.144676 0.144676 0.072338 0.289352 0.289352 0.289352 0.144676 0.144676 0.144676 0.072338 0.289352 0.289352 0.289352 0.144676 0.144676 0.144676 0.072338 0.289352 0.289352 0.289352 0.144676 0.144676 0.144676 0.072338 0.289352 0.289352 0.289352 0.144676 0.144676 0.144676 0.072338 0.289352 0.289352 0.289352 0.144676 0.144676 0.144676 0.072338 0.289352 0.289352 0.289352 0.144676 0.144676 0.144676 0.072338 0.289352 0.289352 0.289352 0.144676 0.144676 0.144676 0.0723379 0.289352 0.289352 0.289352 0.144676 0.144676 0.144676 0.072338 0.289352 0.289352 0.289352 0.144676 0.144676 0.144676 0.072338 0.289352 0.289352 0.289352 0.144676 0.144676 0.144676 0.072338 0.289352 0.289352 0.289352 0.144676 0.144676 0.144676 0.0723379 0.289352 0.289352 0.289352 0.144676 0.144676 0.144676 0.0723379 0.289352 0.289352 0.289352 0.144676 0.144676 0.144676 0.072338 0.289352 0.289352 0.289352 0.144676 0.144676 0.144676 0.072338 0.289352 0.289352 0.289352 0.144676 0.144676 0.144676 0.0723379 0.144676 0.144676 0.289352 0.072338 0.144676 0.144676 0.072338 0.289352 0.144676 0.289352 0.289352 0.144676 0.144676 0.144676 0.072338 0.144676 0.072338 0.289352 0.289352 0.289352 0.144676 0.144676 0.144676 0.072338 0.289352 0.289352 0.289352 0.144676 0.144676 0.144676 0.072338 0.289352 0.289352 0.289352 0.144676 0.144676 0.144676 0.072338 0.289352 0.289352 0.289352 0.144676 0.144676 0.144676 0.072338 0.289352 0.289352 0.289352 0.144676 0.144676 0.144676 0.072338 0.289352 0.289352 0.289352 0.144676 0.144676 0.144676 0.072338 0.289352 0.289352 0.289352 0.144676 0.144676 0.144676 0.072338 0.289352 0.289352 0.289352 0.144676 0.144676 0.144676 0.072338 0.289352 0.289352 0.289352 0.144676 0.144676 0.144676 0.072338 0.289352 0.289352 0.289352 0.144676 0.144676 0.144676 0.072338 0.289352 0.289352 0.289352 0.144676 0.144676 0.144676 0.072338 0.289352 0.289352 0.289352 0.144676 0.144676 0.144676 0.072338 0.289352 0.289352 0.289352 0.144676 0.144676 0.144676 0.072338 0.289352 0.289352 0.289352 0.144676 0.144676 0.144676 0.0723379 0.289352 0.289352 0.289352 0.144676 0.144676 0.144676 0.072338 0.289352 0.289352 0.289352 0.144676 0.144676 0.144676 0.072338 0.289352 0.289352 0.289352 0.144676 0.144676 0.144676 0.072338 0.289352 0.289352 0.289352 0.144676 0.144676 0.144676 0.0723379 0.289352 0.289352 0.289352 0.144676 0.144676 0.144676 0.0723379 0.289352 0.289352 0.289352 0.144676 0.144676 0.144676 0.072338 0.289352 0.289352 0.289352 0.144676 0.144676 0.144676 0.072338 0.289352 0.289352 0.289352 0.144676 0.144676 0.144676 0.0723379 0.144676 0.144676 0.289352 0.072338 0.144676 0.144676 0.072338 0.289352 0.144676 0.289352 0.289352 0.144676 0.144676 0.144676 0.072338 0.144676 0.072338 0.289352 0.289352 0.289352 0.144676 0.144676 0.144676 0.072338 0.289352 0.289352 0.289352 0.144676 0.144676 0.144676 0.072338 0.289352 0.289352 0.289352 0.144676 0.144676 0.144676 0.072338 0.289352 0.289352 0.289352 0.144676 0.144676 0.144676 0.072338 0.289352 0.289352 0.289352 0.144676 0.144676 0.144676 0.072338 0.289352 0.289352 0.289352 0.144676 0.144676 0.144676 0.072338 0.289352 0.289352 0.289352 0.144676 0.144676 0.144676 0.072338 0.289352 0.289352 0.289352 0.144676 0.144676 0.144676 0.072338 0.289352 0.289352 0.289352 0.144676 0.144676 0.144676 0.0723379 0.289352 0.289352 0.289352 0.144676 0.144676 0.144676 0.0723379 0.289352 0.289352 0.289352 0.144676 0.144676 0.144676 0.072338 0.289352 0.289352 0.289352 0.144676 0.144676 0.144676 0.072338 0.289352 0.289352 0.289352 0.144676 0.144676 0.144676 0.072338 0.289352 0.289352 0.289352 0.144676 0.144676 0.144676 0.0723379 0.289352 0.289352 0.289352 0.144676 0.144676 0.144676 0.072338 0.289352 0.289352 0.289352 0.144676 0.144676 0.144676 0.072338 0.289352 0.289352 0.289352 0.144676 0.144676 0.144676 0.072338 0.289352 0.289352 0.289352 0.144676 0.144676 0.144676 0.0723379 0.289352 0.289352 0.289352 0.144676 0.144676 0.144676 0.0723379 0.289352 0.289352 0.289352 0.144676 0.144676 0.144676 0.072338 0.289352 0.289352 0.289352 0.144676 0.144676 0.144676 0.072338 0.289352 0.289352 0.289352 0.144676 0.144676 0.144676 0.0723379 0.144676 0.144676 0.289352 0.072338 0.144676 0.144676 0.072338 0.289352 0.144676 0.289352 0.289352 0.144676 0.144676 0.144676 0.072338 0.144676 0.072338 0.289352 0.289352 0.289352 0.144676 0.144676 0.144676 0.072338 0.289352 0.289352 0.289352 0.144676 0.144676 0.144676 0.072338 0.289352 0.289352 0.289352 0.144676 0.144676 0.144676 0.072338 0.289352 0.289352 0.289352 0.144676 0.144676 0.144676 0.072338 0.289352 0.289352 0.289352 0.144676 0.144676 0.144676 0.072338 0.289352 0.289352 0.289352 0.144676 0.144676 0.144676 0.072338 0.289352 0.289352 0.289352 0.144676 0.144676 0.144676 0.072338 0.289352 0.289352 0.289352 0.144676 0.144676 0.144676 0.072338 0.289352 0.289352 0.289352 0.144676 0.144676 0.144676 0.0723379 0.289352 0.289352 0.289352 0.144676 0.144676 0.144676 0.0723379 0.289352 0.289352 0.289352 0.144676 0.144676 0.144676 0.072338 0.289352 0.289352 0.289352 0.144676 0.144676 0.144676 0.072338 0.289352 0.289352 0.289352 0.144676 0.144676 0.144676 0.072338 0.289352 0.289352 0.289352 0.144676 0.144676 0.144676 0.0723379 0.289352 0.289352 0.289352 0.144676 0.144676 0.144676 0.072338 0.289352 0.289352 0.289352 0.144676 0.144676 0.144676 0.072338 0.289352 0.289352 0.289352 0.144676 0.144676 0.144676 0.0723379 0.289352 0.289352 0.289352 0.144676 0.144676 0.144676 0.0723379 0.289352 0.289352 0.289352 0.144676 0.144676 0.144676 0.0723379 0.289352 0.289352 0.289352 0.144676 0.144676 0.144676 0.072338 0.289352 0.289352 0.289352 0.144676 0.144676 0.144676 0.0723379 0.289352 0.289352 0.289352 0.144676 0.144676 0.144676 0.0723379 0.144676 0.144676 0.289352 0.072338 0.144676 0.144676 0.072338 0.289352 0.144676 0.289352 0.289352 0.144676 0.144676 0.144676 0.072338 0.144676 0.072338 0.289352 0.289352 0.289352 0.144676 0.144676 0.144676 0.072338 0.289352 0.289352 0.289352 0.144676 0.144676 0.144676 0.072338 0.289352 0.289352 0.289352 0.144676 0.144676 0.144676 0.072338 0.289352 0.289352 0.289352 0.144676 0.144676 0.144676 0.072338 0.289352 0.289352 0.289352 0.144676 0.144676 0.144676 0.072338 0.289352 0.289352 0.289352 0.144676 0.144676 0.144676 0.072338 0.289352 0.289352 0.289352 0.144676 0.144676 0.144676 0.072338 0.289352 0.289352 0.289352 0.144676 0.144676 0.144676 0.072338 0.289352 0.289352 0.289352 0.144676 0.144676 0.144676 0.072338 0.289352 0.289352 0.289352 0.144676 0.144676 0.144676 0.072338 0.289352 0.289352 0.289352 0.144676 0.144676 0.144676 0.072338 0.289352 0.289352 0.289352 0.144676 0.144676 0.144676 0.072338 0.289352 0.289352 0.289352 0.144676 0.144676 0.144676 0.072338 0.289352 0.289352 0.289352 0.144676 0.144676 0.144676 0.0723379 0.289352 0.289352 0.289352 0.144676 0.144676 0.144676 0.072338 0.289352 0.289352 0.289352 0.144676 0.144676 0.144676 0.072338 0.289352 0.289352 0.289352 0.144676 0.144676 0.144676 0.072338 0.289352 0.289352 0.289352 0.144676 0.144676 0.144676 0.0723379 0.289352 0.289352 0.289352 0.144676 0.144676 0.144676 0.0723379 0.289352 0.289352 0.289352 0.144676 0.144676 0.144676 0.072338 0.289352 0.289352 0.289352 0.144676 0.144676 0.144676 0.072338 0.289352 0.289352 0.289352 0.144676 0.144676 0.144676 0.0723379 0.144676 0.144676 0.289352 0.072338 0.144676 0.144676 0.072338 0.289352 0.144676 0.289352 0.289352 0.144676 0.144676 0.144676 0.072338 0.144676 0.072338 0.289352 0.289352 0.289352 0.144676 0.144676 0.144676 0.072338 0.289352 0.289352 0.289352 0.144676 0.144676 0.144676 0.072338 0.289352 0.289352 0.289352 0.144676 0.144676 0.144676 0.072338 0.289352 0.289352 0.289352 0.144676 0.144676 0.144676 0.072338 0.289352 0.289352 0.289352 0.144676 0.144676 0.144676 0.072338 0.289352 0.289352 0.289352 0.144676 0.144676 0.144676 0.072338 0.289352 0.289352 0.289352 0.144676 0.144676 0.144676 0.072338 0.289352 0.289352 0.289352 0.144676 0.144676 0.144676 0.072338 0.289352 0.289352 0.289352 0.144676 0.144676 0.144676 0.072338 0.289352 0.289352 0.289352 0.144676 0.144676 0.144676 0.072338 0.289352 0.289352 0.289352 0.144676 0.144676 0.144676 0.072338 0.289352 0.289352 0.289352 0.144676 0.144676 0.144676 0.072338 0.289352 0.289352 0.289352 0.144676 0.144676 0.144676 0.072338 0.289352 0.289352 0.289352 0.144676 0.144676 0.144676 0.0723379 0.289352 0.289352 0.289352 0.144676 0.144676 0.144676 0.072338 0.289352 0.289352 0.289352 0.144676 0.144676 0.144676 0.072338 0.289352 0.289352 0.289352 0.144676 0.144676 0.144676 0.072338 0.289352 0.289352 0.289352 0.144676 0.144676 0.144676 0.0723379 0.289352 0.289352 0.289352 0.144676 0.144676 0.144676 0.0723379 0.289352 0.289352 0.289352 0.144676 0.144676 0.144676 0.072338 0.289352 0.289352 0.289352 0.144676 0.144676 0.144676 0.072338 0.289352 0.289352 0.289352 0.144676 0.144676 0.144676 0.0723379 0.144676 0.144676 0.289352 0.072338 0.144676 0.144676 0.072338 0.289352 0.144676 0.144676 0.144676 0.072338 0.144676 0.144676 0.072338 0.072338 0.072338 0.289352 0.144676 0.144676 0.144676 0.144676 0.072338 0.072338 0.289352 0.144676 0.144676 0.144676 0.144676 0.072338 0.072338 0.289352 0.144676 0.144676 0.144676 0.144676 0.0723379 0.0723379 0.289352 0.144676 0.144676 0.144676 0.144676 0.072338 0.072338 0.289352 0.144676 0.144676 0.144676 0.144676 0.072338 0.072338 0.289352 0.144676 0.144676 0.144676 0.144676 0.072338 0.072338 0.289352 0.144676 0.144676 0.144676 0.144676 0.0723379 0.0723379 0.289352 0.144676 0.144676 0.144676 0.144676 0.072338 0.072338 0.289352 0.144676 0.144676 0.144676 0.144676 0.0723379 0.0723379 0.289352 0.144676 0.144676 0.144676 0.144676 0.0723379 0.0723379 0.289352 0.144676 0.144676 0.144676 0.144676 0.072338 0.072338 0.289352 0.144676 0.144676 0.144676 0.144676 0.072338 0.072338 0.289352 0.144676 0.144676 0.144676 0.144676 0.072338 0.072338 0.289352 0.144676 0.144676 0.144676 0.144676 0.0723379 0.0723379 0.289352 0.144676 0.144676 0.144676 0.144676 0.072338 0.072338 0.289352 0.144676 0.144676 0.144676 0.144676 0.072338 0.072338 0.289352 0.144676 0.144676 0.144676 0.144676 0.0723379 0.0723379 0.289352 0.144676 0.144676 0.144676 0.144676 0.0723379 0.0723379 0.289352 0.144676 0.144676 0.144676 0.144676 0.0723379 0.0723379 0.289352 0.144676 0.144676 0.144676 0.144676 0.072338 0.072338 0.289352 0.144676 0.144676 0.144676 0.144676 0.0723379 0.0723379 0.289352 0.144676 0.144676 0.144676 0.144676 0.0723379 0.0723379 0.144676 0.072338 0.144676 0.072338 0.144676 0.072338 0.072338 0.144676 0.144676 0.072338 0.289352 0.144676 0.289352 0.289352 0.144676 0.072338 0.144676 0.144676 0.072338 0.144676 0.072338 0.144676 0.144676 0.289352 0.289352 0.289352 0.072338 0.144676 0.144676 0.144676 0.072338 0.144676 0.144676 0.289352 0.289352 0.289352 0.072338 0.144676 0.144676 0.144676 0.072338 0.144676 0.144676 0.289352 0.289352 0.289352 0.072338 0.144676 0.144676 0.144676 0.072338 0.144676 0.144676 0.289352 0.289352 0.289352 0.072338 0.144676 0.144676 0.144676 0.072338 0.144676 0.144676 0.289352 0.289352 0.289352 0.072338 0.144676 0.144676 0.144676 0.072338 0.144676 0.144676 0.289352 0.289352 0.289352 0.072338 0.144676 0.144676 0.144676 0.072338 0.144676 0.144676 0.289352 0.289352 0.289352 0.072338 0.144676 0.144676 0.144676 0.072338 0.144676 0.144676 0.289352 0.289352 0.289352 0.072338 0.144676 0.144676 0.144676 0.072338 0.144676 0.144676 0.289352 0.289352 0.289352 0.0723379 0.144676 0.144676 0.144676 0.0723379 0.144676 0.144676 0.289352 0.289352 0.289352 0.0723379 0.144676 0.144676 0.144676 0.0723379 0.144676 0.144676 0.289352 0.289352 0.289352 0.072338 0.144676 0.144676 0.144676 0.072338 0.144676 0.144676 0.289352 0.289352 0.289352 0.072338 0.144676 0.144676 0.144676 0.072338 0.144676 0.144676 0.289352 0.289352 0.289352 0.072338 0.144676 0.144676 0.144676 0.072338 0.144676 0.144676 0.289352 0.289352 0.289352 0.0723379 0.144676 0.144676 0.144676 0.0723379 0.144676 0.144676 0.289352 0.289352 0.289352 0.072338 0.144676 0.144676 0.144676 0.072338 0.144676 0.144676 0.289352 0.289352 0.289352 0.072338 0.144676 0.144676 0.144676 0.072338 0.144676 0.144676 0.289352 0.289352 0.289352 0.072338 0.144676 0.144676 0.144676 0.072338 0.144676 0.144676 0.289352 0.289352 0.289352 0.0723379 0.144676 0.144676 0.144676 0.0723379 0.144676 0.144676 0.289352 0.289352 0.289352 0.0723379 0.144676 0.144676 0.144676 0.0723379 0.144676 0.144676 0.289352 0.289352 0.289352 0.072338 0.144676 0.144676 0.144676 0.072338 0.144676 0.144676 0.289352 0.289352 0.289352 0.0723379 0.144676 0.144676 0.144676 0.0723379 0.144676 0.144676 0.289352 0.289352 0.289352 0.0723379 0.144676 0.144676 0.144676 0.0723379 0.072338 0.144676 0.144676 0.144676 0.289352 0.072338 0.072338 0.144676 0.144676 0.072338 0.289352 0.144676 0.289352 0.289352 0.144676 0.144676 0.144676 0.072338 0.144676 0.072338 0.289352 0.289352 0.289352 0.144676 0.144676 0.144676 0.072338 0.289352 0.289352 0.289352 0.144676 0.144676 0.144676 0.072338 0.289352 0.289352 0.289352 0.144676 0.144676 0.144676 0.072338 0.289352 0.289352 0.289352 0.144676 0.144676 0.144676 0.072338 0.289352 0.289352 0.289352 0.144676 0.144676 0.144676 0.072338 0.289352 0.289352 0.289352 0.144676 0.144676 0.144676 0.072338 0.289352 0.289352 0.289352 0.144676 0.144676 0.144676 0.072338 0.289352 0.289352 0.289352 0.144676 0.144676 0.144676 0.072338 0.289352 0.289352 0.289352 0.144676 0.144676 0.144676 0.0723379 0.289352 0.289352 0.289352 0.144676 0.144676 0.144676 0.0723379 0.289352 0.289352 0.289352 0.144676 0.144676 0.144676 0.072338 0.289352 0.289352 0.289352 0.144676 0.144676 0.144676 0.072338 0.289352 0.289352 0.289352 0.144676 0.144676 0.144676 0.072338 0.289352 0.289352 0.289352 0.144676 0.144676 0.144676 0.0723379 0.289352 0.289352 0.289352 0.144676 0.144676 0.144676 0.072338 0.289352 0.289352 0.289352 0.144676 0.144676 0.144676 0.072338 0.289352 0.289352 0.289352 0.144676 0.144676 0.144676 0.0723379 0.289352 0.289352 0.289352 0.144676 0.144676 0.144676 0.0723379 0.289352 0.289352 0.289352 0.144676 0.144676 0.144676 0.0723379 0.289352 0.289352 0.289352 0.144676 0.144676 0.144676 0.072338 0.289352 0.289352 0.289352 0.144676 0.144676 0.144676 0.0723379 0.289352 0.289352 0.289352 0.144676 0.144676 0.144676 0.0723379 0.144676 0.144676 0.289352 0.072338 0.144676 0.144676 0.072338 0.289352 0.144676 0.289352 0.289352 0.144676 0.144676 0.144676 0.072338 0.144676 0.072338 0.289352 0.289352 0.289352 0.144676 0.144676 0.144676 0.072338 0.289352 0.289352 0.289352 0.144676 0.144676 0.144676 0.072338 0.289352 0.289352 0.289352 0.144676 0.144676 0.144676 0.072338 0.289352 0.289352 0.289352 0.144676 0.144676 0.144676 0.072338 0.289352 0.289352 0.289352 0.144676 0.144676 0.144676 0.072338 0.289352 0.289352 0.289352 0.144676 0.144676 0.144676 0.072338 0.289352 0.289352 0.289352 0.144676 0.144676 0.144676 0.072338 0.289352 0.289352 0.289352 0.144676 0.144676 0.144676 0.072338 0.289352 0.289352 0.289352 0.144676 0.144676 0.144676 0.0723379 0.289352 0.289352 0.289352 0.144676 0.144676 0.144676 0.0723379 0.289352 0.289352 0.289352 0.144676 0.144676 0.144676 0.072338 0.289352 0.289352 0.289352 0.144676 0.144676 0.144676 0.072338 0.289352 0.289352 0.289352 0.144676 0.144676 0.144676 0.072338 0.289352 0.289352 0.289352 0.144676 0.144676 0.144676 0.0723379 0.289352 0.289352 0.289352 0.144676 0.144676 0.144676 0.072338 0.289352 0.289352 0.289352 0.144676 0.144676 0.144676 0.072338 0.289352 0.289352 0.289352 0.144676 0.144676 0.144676 0.0723379 0.289352 0.289352 0.289352 0.144676 0.144676 0.144676 0.0723379 0.289352 0.289352 0.289352 0.144676 0.144676 0.144676 0.0723379 0.289352 0.289352 0.289352 0.144676 0.144676 0.144676 0.072338 0.289352 0.289352 0.289352 0.144676 0.144676 0.144676 0.0723379 0.289352 0.289352 0.289352 0.144676 0.144676 0.144676 0.0723379 0.144676 0.144676 0.289352 0.072338 0.144676 0.144676 0.072338 0.289352 0.144676 0.289352 0.289352 0.144676 0.144676 0.144676 0.072338 0.144676 0.072338 0.289352 0.289352 0.289352 0.144676 0.144676 0.144676 0.072338 0.289352 0.289352 0.289352 0.144676 0.144676 0.144676 0.072338 0.289352 0.289352 0.289352 0.144676 0.144676 0.144676 0.0723379 0.289352 0.289352 0.289352 0.144676 0.144676 0.144676 0.072338 0.289352 0.289352 0.289352 0.144676 0.144676 0.144676 0.072338 0.289352 0.289352 0.289352 0.144676 0.144676 0.144676 0.072338 0.289352 0.289352 0.289352 0.144676 0.144676 0.144676 0.072338 0.289352 0.289352 0.289352 0.144676 0.144676 0.144676 0.072338 0.289352 0.289352 0.289352 0.144676 0.144676 0.144676 0.0723379 0.289352 0.289352 0.289352 0.144676 0.144676 0.144676 0.0723379 0.289352 0.289352 0.289352 0.144676 0.144676 0.144676 0.072338 0.289352 0.289352 0.289352 0.144676 0.144676 0.144676 0.072338 0.289352 0.289352 0.289352 0.144676 0.144676 0.144676 0.072338 0.289352 0.289352 0.289352 0.144676 0.144676 0.144676 0.0723379 0.289352 0.289352 0.289352 0.144676 0.144676 0.144676 0.072338 0.289352 0.289352 0.289352 0.144676 0.144676 0.144676 0.072338 0.289352 0.289352 0.289352 0.144676 0.144676 0.144676 0.0723379 0.289352 0.289352 0.289352 0.144676 0.144676 0.144676 0.0723379 0.289352 0.289352 0.289352 0.144676 0.144676 0.144676 0.0723379 0.289352 0.289352 0.289352 0.144676 0.144676 0.144676 0.072338 0.289352 0.289352 0.289352 0.144676 0.144676 0.144676 0.0723379 0.289352 0.289352 0.289352 0.144676 0.144676 0.144676 0.0723379 0.144676 0.144676 0.289352 0.072338 0.144676 0.144676 0.072338 0.289352 0.144676 0.289352 0.289352 0.144676 0.144676 0.144676 0.072338 0.144676 0.072338 0.289352 0.289352 0.289352 0.144676 0.144676 0.144676 0.072338 0.289352 0.289352 0.289352 0.144676 0.144676 0.144676 0.072338 0.289352 0.289352 0.289352 0.144676 0.144676 0.144676 0.0723379 0.289352 0.289352 0.289352 0.144676 0.144676 0.144676 0.072338 0.289352 0.289352 0.289352 0.144676 0.144676 0.144676 0.072338 0.289352 0.289352 0.289352 0.144676 0.144676 0.144676 0.072338 0.289352 0.289352 0.289352 0.144676 0.144676 0.144676 0.0723379 0.289352 0.289352 0.289352 0.144676 0.144676 0.144676 0.072338 0.289352 0.289352 0.289352 0.144676 0.144676 0.144676 0.0723379 0.289352 0.289352 0.289352 0.144676 0.144676 0.144676 0.0723379 0.289352 0.289352 0.289352 0.144676 0.144676 0.144676 0.072338 0.289352 0.289352 0.289352 0.144676 0.144676 0.144676 0.072338 0.289352 0.289352 0.289352 0.144676 0.144676 0.144676 0.072338 0.289352 0.289352 0.289352 0.144676 0.144676 0.144676 0.0723379 0.289352 0.289352 0.289352 0.144676 0.144676 0.144676 0.072338 0.289352 0.289352 0.289352 0.144676 0.144676 0.144676 0.072338 0.289352 0.289352 0.289352 0.144676 0.144676 0.144676 0.0723379 0.289352 0.289352 0.289352 0.144676 0.144676 0.144676 0.0723379 0.289352 0.289352 0.289352 0.144676 0.144676 0.144676 0.0723379 0.289352 0.289352 0.289352 0.144676 0.144676 0.144676 0.072338 0.289352 0.289352 0.289352 0.144676 0.144676 0.144676 0.0723379 0.289352 0.289352 0.289352 0.144676 0.144676 0.144676 0.0723379 0.144676 0.144676 0.289352 0.072338 0.144676 0.144676 0.072338 0.289352 0.144676 0.289352 0.289352 0.144676 0.144676 0.144676 0.072338 0.144676 0.072338 0.289352 0.289352 0.289352 0.144676 0.144676 0.144676 0.072338 0.289352 0.289352 0.289352 0.144676 0.144676 0.144676 0.072338 0.289352 0.289352 0.289352 0.144676 0.144676 0.144676 0.0723379 0.289352 0.289352 0.289352 0.144676 0.144676 0.144676 0.0723379 0.289352 0.289352 0.289352 0.144676 0.144676 0.144676 0.072338 0.289352 0.289352 0.289352 0.144676 0.144676 0.144676 0.072338 0.289352 0.289352 0.289352 0.144676 0.144676 0.144676 0.072338 0.289352 0.289352 0.289352 0.144676 0.144676 0.144676 0.072338 0.289352 0.289352 0.289352 0.144676 0.144676 0.144676 0.0723379 0.289352 0.289352 0.289352 0.144676 0.144676 0.144676 0.0723379 0.289352 0.289352 0.289352 0.144676 0.144676 0.144676 0.072338 0.289352 0.289352 0.289352 0.144676 0.144676 0.144676 0.072338 0.289352 0.289352 0.289352 0.144676 0.144676 0.144676 0.072338 0.289352 0.289352 0.289352 0.144676 0.144676 0.144676 0.0723379 0.289352 0.289352 0.289352 0.144676 0.144676 0.144676 0.072338 0.289352 0.289352 0.289352 0.144676 0.144676 0.144676 0.072338 0.289352 0.289352 0.289352 0.144676 0.144676 0.144676 0.0723379 0.289352 0.289352 0.289352 0.144676 0.144676 0.144676 0.0723379 0.289352 0.289352 0.289352 0.144676 0.144676 0.144676 0.0723379 0.289352 0.289352 0.289352 0.144676 0.144676 0.144676 0.072338 0.289352 0.289352 0.289352 0.144676 0.144676 0.144676 0.072338 0.289352 0.289352 0.289352 0.144676 0.144676 0.144676 0.0723379 0.144676 0.144676 0.289352 0.072338 0.144676 0.144676 0.072338 0.289352 0.144676 0.289352 0.289352 0.144676 0.144676 0.144676 0.072338 0.144676 0.072338 0.289352 0.289352 0.289352 0.144676 0.144676 0.144676 0.072338 0.289352 0.289352 0.289352 0.144676 0.144676 0.144676 0.072338 0.289352 0.289352 0.289352 0.144676 0.144676 0.144676 0.072338 0.289352 0.289352 0.289352 0.144676 0.144676 0.144676 0.072338 0.289352 0.289352 0.289352 0.144676 0.144676 0.144676 0.072338 0.289352 0.289352 0.289352 0.144676 0.144676 0.144676 0.072338 0.289352 0.289352 0.289352 0.144676 0.144676 0.144676 0.072338 0.289352 0.289352 0.289352 0.144676 0.144676 0.144676 0.072338 0.289352 0.289352 0.289352 0.144676 0.144676 0.144676 0.0723379 0.289352 0.289352 0.289352 0.144676 0.144676 0.144676 0.0723379 0.289352 0.289352 0.289352 0.144676 0.144676 0.144676 0.072338 0.289352 0.289352 0.289352 0.144676 0.144676 0.144676 0.072338 0.289352 0.289352 0.289352 0.144676 0.144676 0.144676 0.072338 0.289352 0.289352 0.289352 0.144676 0.144676 0.144676 0.0723379 0.289352 0.289352 0.289352 0.144676 0.144676 0.144676 0.072338 0.289352 0.289352 0.289352 0.144676 0.144676 0.144676 0.072338 0.289352 0.289352 0.289352 0.144676 0.144676 0.144676 0.0723379 0.289352 0.289352 0.289352 0.144676 0.144676 0.144676 0.0723379 0.289352 0.289352 0.289352 0.144676 0.144676 0.144676 0.0723379 0.289352 0.289352 0.289352 0.144676 0.144676 0.144676 0.072338 0.289352 0.289352 0.289352 0.144676 0.144676 0.144676 0.072338 0.289352 0.289352 0.289352 0.144676 0.144676 0.144676 0.0723379 0.144676 0.144676 0.289352 0.072338 0.144676 0.144676 0.072338 0.289352 0.144676 0.144676 0.144676 0.0723379 0.144676 0.144676 0.0723379 0.0723379 0.0723379 0.289352 0.144676 0.144676 0.144676 0.144676 0.0723379 0.0723379 0.289352 0.144676 0.144676 0.144676 0.144676 0.072338 0.072338 0.289352 0.144676 0.144676 0.144676 0.144676 0.0723379 0.0723379 0.289352 0.144676 0.144676 0.144676 0.144676 0.0723379 0.0723379 0.289352 0.144676 0.144676 0.144676 0.144676 0.0723379 0.0723379 0.289352 0.144676 0.144676 0.144676 0.144676 0.0723379 0.0723379 0.289352 0.144676 0.144676 0.144676 0.144676 0.0723379 0.0723379 0.289352 0.144676 0.144676 0.144676 0.144676 0.0723379 0.0723379 0.289352 0.144676 0.144676 0.144676 0.144676 0.0723379 0.0723379 0.289352 0.144676 0.144676 0.144676 0.144676 0.0723379 0.0723379 0.289352 0.144676 0.144676 0.144676 0.144676 0.072338 0.072338 0.289352 0.144676 0.144676 0.144676 0.144676 0.0723379 0.0723379 0.289352 0.144676 0.144676 0.144676 0.144676 0.072338 0.072338 0.289352 0.144676 0.144676 0.144676 0.144676 0.0723379 0.0723379 0.289352 0.144676 0.144676 0.144676 0.144676 0.072338 0.072338 0.289352 0.144676 0.144676 0.144676 0.144676 0.0723379 0.0723379 0.289352 0.144676 0.144676 0.144676 0.144676 0.0723379 0.0723379 0.289352 0.144676 0.144676 0.144676 0.144676 0.0723379 0.0723379 0.289352 0.144676 0.144676 0.144676 0.144676 0.0723379 0.0723379 0.289352 0.144676 0.144676 0.144676 0.144676 0.072338 0.072338 0.289352 0.144676 0.144676 0.144676 0.144676 0.0723379 0.0723379 0.289352 0.144676 0.144676 0.144676 0.144676 0.0723379 0.0723379 0.144676 0.072338 0.144676 0.072338 0.144676 0.072338 0.072338 0.144676 0.144676 0.072338 0.289352 0.144676 0.289352 0.289352 0.144676 0.072338 0.144676 0.144676 0.072338 0.144676 0.072338 0.144676 0.144676 0.289352 0.289352 0.289352 0.072338 0.144676 0.144676 0.144676 0.072338 0.144676 0.144676 0.289352 0.289352 0.289352 0.072338 0.144676 0.144676 0.144676 0.072338 0.144676 0.144676 0.289352 0.289352 0.289352 0.072338 0.144676 0.144676 0.144676 0.072338 0.144676 0.144676 0.289352 0.289352 0.289352 0.072338 0.144676 0.144676 0.144676 0.072338 0.144676 0.144676 0.289352 0.289352 0.289352 0.072338 0.144676 0.144676 0.144676 0.072338 0.144676 0.144676 0.289352 0.289352 0.289352 0.072338 0.144676 0.144676 0.144676 0.072338 0.144676 0.144676 0.289352 0.289352 0.289352 0.072338 0.144676 0.144676 0.144676 0.072338 0.144676 0.144676 0.289352 0.289352 0.289352 0.072338 0.144676 0.144676 0.144676 0.072338 0.144676 0.144676 0.289352 0.289352 0.289352 0.072338 0.144676 0.144676 0.144676 0.072338 0.144676 0.144676 0.289352 0.289352 0.289352 0.072338 0.144676 0.144676 0.144676 0.072338 0.144676 0.144676 0.289352 0.289352 0.289352 0.072338 0.144676 0.144676 0.144676 0.072338 0.144676 0.144676 0.289352 0.289352 0.289352 0.072338 0.144676 0.144676 0.144676 0.072338 0.144676 0.144676 0.289352 0.289352 0.289352 0.072338 0.144676 0.144676 0.144676 0.072338 0.144676 0.144676 0.289352 0.289352 0.289352 0.0723379 0.144676 0.144676 0.144676 0.0723379 0.144676 0.144676 0.289352 0.289352 0.289352 0.072338 0.144676 0.144676 0.144676 0.072338 0.144676 0.144676 0.289352 0.289352 0.289352 0.072338 0.144676 0.144676 0.144676 0.072338 0.144676 0.144676 0.289352 0.289352 0.289352 0.072338 0.144676 0.144676 0.144676 0.072338 0.144676 0.144676 0.289352 0.289352 0.289352 0.0723379 0.144676 0.144676 0.144676 0.0723379 0.144676 0.144676 0.289352 0.289352 0.289352 0.0723379 0.144676 0.144676 0.144676 0.0723379 0.144676 0.144676 0.289352 0.289352 0.289352 0.072338 0.144676 0.144676 0.144676 0.072338 0.144676 0.144676 0.289352 0.289352 0.289352 0.072338 0.144676 0.144676 0.144676 0.072338 0.144676 0.144676 0.289352 0.289352 0.289352 0.0723379 0.144676 0.144676 0.144676 0.0723379 0.072338 0.144676 0.144676 0.144676 0.289352 0.072338 0.072338 0.144676 0.144676 0.072338 0.289352 0.144676 0.289352 0.289352 0.144676 0.144676 0.144676 0.072338 0.144676 0.072338 0.289352 0.289352 0.289352 0.144676 0.144676 0.144676 0.072338 0.289352 0.289352 0.289352 0.144676 0.144676 0.144676 0.072338 0.289352 0.289352 0.289352 0.144676 0.144676 0.144676 0.072338 0.289352 0.289352 0.289352 0.144676 0.144676 0.144676 0.072338 0.289352 0.289352 0.289352 0.144676 0.144676 0.144676 0.072338 0.289352 0.289352 0.289352 0.144676 0.144676 0.144676 0.072338 0.289352 0.289352 0.289352 0.144676 0.144676 0.144676 0.072338 0.289352 0.289352 0.289352 0.144676 0.144676 0.144676 0.072338 0.289352 0.289352 0.289352 0.144676 0.144676 0.144676 0.0723379 0.289352 0.289352 0.289352 0.144676 0.144676 0.144676 0.072338 0.289352 0.289352 0.289352 0.144676 0.144676 0.144676 0.072338 0.289352 0.289352 0.289352 0.144676 0.144676 0.144676 0.072338 0.289352 0.289352 0.289352 0.144676 0.144676 0.144676 0.072338 0.289352 0.289352 0.289352 0.144676 0.144676 0.144676 0.0723379 0.289352 0.289352 0.289352 0.144676 0.144676 0.144676 0.072338 0.289352 0.289352 0.289352 0.144676 0.144676 0.144676 0.072338 0.289352 0.289352 0.289352 0.144676 0.144676 0.144676 0.0723379 0.289352 0.289352 0.289352 0.144676 0.144676 0.144676 0.0723379 0.289352 0.289352 0.289352 0.144676 0.144676 0.144676 0.0723379 0.289352 0.289352 0.289352 0.144676 0.144676 0.144676 0.072338 0.289352 0.289352 0.289352 0.144676 0.144676 0.144676 0.072338 0.289352 0.289352 0.289352 0.144676 0.144676 0.144676 0.0723379 0.144676 0.144676 0.289352 0.072338 0.144676 0.144676 0.072338 0.289352 0.144676 0.289352 0.289352 0.144676 0.144676 0.144676 0.072338 0.144676 0.072338 0.289352 0.289352 0.289352 0.144676 0.144676 0.144676 0.072338 0.289352 0.289352 0.289352 0.144676 0.144676 0.144676 0.072338 0.289352 0.289352 0.289352 0.144676 0.144676 0.144676 0.072338 0.289352 0.289352 0.289352 0.144676 0.144676 0.144676 0.072338 0.289352 0.289352 0.289352 0.144676 0.144676 0.144676 0.072338 0.289352 0.289352 0.289352 0.144676 0.144676 0.144676 0.072338 0.289352 0.289352 0.289352 0.144676 0.144676 0.144676 0.072338 0.289352 0.289352 0.289352 0.144676 0.144676 0.144676 0.072338 0.289352 0.289352 0.289352 0.144676 0.144676 0.144676 0.072338 0.289352 0.289352 0.289352 0.144676 0.144676 0.144676 0.072338 0.289352 0.289352 0.289352 0.144676 0.144676 0.144676 0.072338 0.289352 0.289352 0.289352 0.144676 0.144676 0.144676 0.072338 0.289352 0.289352 0.289352 0.144676 0.144676 0.144676 0.072338 0.289352 0.289352 0.289352 0.144676 0.144676 0.144676 0.0723379 0.289352 0.289352 0.289352 0.144676 0.144676 0.144676 0.072338 0.289352 0.289352 0.289352 0.144676 0.144676 0.144676 0.072338 0.289352 0.289352 0.289352 0.144676 0.144676 0.144676 0.072338 0.289352 0.289352 0.289352 0.144676 0.144676 0.144676 0.0723379 0.289352 0.289352 0.289352 0.144676 0.144676 0.144676 0.0723379 0.289352 0.289352 0.289352 0.144676 0.144676 0.144676 0.072338 0.289352 0.289352 0.289352 0.144676 0.144676 0.144676 0.072338 0.289352 0.289352 0.289352 0.144676 0.144676 0.144676 0.0723379 0.144676 0.144676 0.289352 0.072338 0.144676 0.144676 0.072338 0.289352 0.144676 0.289352 0.289352 0.144676 0.144676 0.144676 0.072338 0.144676 0.072338 0.289352 0.289352 0.289352 0.144676 0.144676 0.144676 0.072338 0.289352 0.289352 0.289352 0.144676 0.144676 0.144676 0.072338 0.289352 0.289352 0.289352 0.144676 0.144676 0.144676 0.072338 0.289352 0.289352 0.289352 0.144676 0.144676 0.144676 0.072338 0.289352 0.289352 0.289352 0.144676 0.144676 0.144676 0.072338 0.289352 0.289352 0.289352 0.144676 0.144676 0.144676 0.072338 0.289352 0.289352 0.289352 0.144676 0.144676 0.144676 0.072338 0.289352 0.289352 0.289352 0.144676 0.144676 0.144676 0.072338 0.289352 0.289352 0.289352 0.144676 0.144676 0.144676 0.0723379 0.289352 0.289352 0.289352 0.144676 0.144676 0.144676 0.0723379 0.289352 0.289352 0.289352 0.144676 0.144676 0.144676 0.072338 0.289352 0.289352 0.289352 0.144676 0.144676 0.144676 0.072338 0.289352 0.289352 0.289352 0.144676 0.144676 0.144676 0.072338 0.289352 0.289352 0.289352 0.144676 0.144676 0.144676 0.0723379 0.289352 0.289352 0.289352 0.144676 0.144676 0.144676 0.072338 0.289352 0.289352 0.289352 0.144676 0.144676 0.144676 0.072338 0.289352 0.289352 0.289352 0.144676 0.144676 0.144676 0.0723379 0.289352 0.289352 0.289352 0.144676 0.144676 0.144676 0.0723379 0.289352 0.289352 0.289352 0.144676 0.144676 0.144676 0.0723379 0.289352 0.289352 0.289352 0.144676 0.144676 0.144676 0.072338 0.289352 0.289352 0.289352 0.144676 0.144676 0.144676 0.0723379 0.289352 0.289352 0.289352 0.144676 0.144676 0.144676 0.0723379 0.144676 0.144676 0.289352 0.072338 0.144676 0.144676 0.072338 0.289352 0.144676 0.289352 0.289352 0.144676 0.144676 0.144676 0.072338 0.144676 0.072338 0.289352 0.289352 0.289352 0.144676 0.144676 0.144676 0.072338 0.289352 0.289352 0.289352 0.144676 0.144676 0.144676 0.072338 0.289352 0.289352 0.289352 0.144676 0.144676 0.144676 0.072338 0.289352 0.289352 0.289352 0.144676 0.144676 0.144676 0.072338 0.289352 0.289352 0.289352 0.144676 0.144676 0.144676 0.072338 0.289352 0.289352 0.289352 0.144676 0.144676 0.144676 0.072338 0.289352 0.289352 0.289352 0.144676 0.144676 0.144676 0.072338 0.289352 0.289352 0.289352 0.144676 0.144676 0.144676 0.072338 0.289352 0.289352 0.289352 0.144676 0.144676 0.144676 0.0723379 0.289352 0.289352 0.289352 0.144676 0.144676 0.144676 0.0723379 0.289352 0.289352 0.289352 0.144676 0.144676 0.144676 0.072338 0.289352 0.289352 0.289352 0.144676 0.144676 0.144676 0.072338 0.289352 0.289352 0.289352 0.144676 0.144676 0.144676 0.072338 0.289352 0.289352 0.289352 0.144676 0.144676 0.144676 0.0723379 0.289352 0.289352 0.289352 0.144676 0.144676 0.144676 0.072338 0.289352 0.289352 0.289352 0.144676 0.144676 0.144676 0.072338 0.289352 0.289352 0.289352 0.144676 0.144676 0.144676 0.0723379 0.289352 0.289352 0.289352 0.144676 0.144676 0.144676 0.0723379 0.289352 0.289352 0.289352 0.144676 0.144676 0.144676 0.0723379 0.289352 0.289352 0.289352 0.144676 0.144676 0.144676 0.072338 0.289352 0.289352 0.289352 0.144676 0.144676 0.144676 0.0723379 0.289352 0.289352 0.289352 0.144676 0.144676 0.144676 0.0723379 0.144676 0.144676 0.289352 0.072338 0.144676 0.144676 0.072338 0.289352 0.144676 0.289352 0.289352 0.144676 0.144676 0.144676 0.072338 0.144676 0.072338 0.289352 0.289352 0.289352 0.144676 0.144676 0.144676 0.072338 0.289352 0.289352 0.289352 0.144676 0.144676 0.144676 0.072338 0.289352 0.289352 0.289352 0.144676 0.144676 0.144676 0.072338 0.289352 0.289352 0.289352 0.144676 0.144676 0.144676 0.072338 0.289352 0.289352 0.289352 0.144676 0.144676 0.144676 0.072338 0.289352 0.289352 0.289352 0.144676 0.144676 0.144676 0.072338 0.289352 0.289352 0.289352 0.144676 0.144676 0.144676 0.072338 0.289352 0.289352 0.289352 0.144676 0.144676 0.144676 0.072338 0.289352 0.289352 0.289352 0.144676 0.144676 0.144676 0.072338 0.289352 0.289352 0.289352 0.144676 0.144676 0.144676 0.072338 0.289352 0.289352 0.289352 0.144676 0.144676 0.144676 0.072338 0.289352 0.289352 0.289352 0.144676 0.144676 0.144676 0.072338 0.289352 0.289352 0.289352 0.144676 0.144676 0.144676 0.072338 0.289352 0.289352 0.289352 0.144676 0.144676 0.144676 0.0723379 0.289352 0.289352 0.289352 0.144676 0.144676 0.144676 0.072338 0.289352 0.289352 0.289352 0.144676 0.144676 0.144676 0.072338 0.289352 0.289352 0.289352 0.144676 0.144676 0.144676 0.0723379 0.289352 0.289352 0.289352 0.144676 0.144676 0.144676 0.0723379 0.289352 0.289352 0.289352 0.144676 0.144676 0.144676 0.0723379 0.289352 0.289352 0.289352 0.144676 0.144676 0.144676 0.072338 0.289352 0.289352 0.289352 0.144676 0.144676 0.144676 0.072338 0.289352 0.289352 0.289352 0.144676 0.144676 0.144676 0.0723379 0.144676 0.144676 0.289352 0.072338 0.144676 0.144676 0.072338 0.289352 0.144676 0.289352 0.289352 0.144676 0.144676 0.144676 0.072338 0.144676 0.072338 0.289352 0.289352 0.289352 0.144676 0.144676 0.144676 0.072338 0.289352 0.289352 0.289352 0.144676 0.144676 0.144676 0.072338 0.289352 0.289352 0.289352 0.144676 0.144676 0.144676 0.072338 0.289352 0.289352 0.289352 0.144676 0.144676 0.144676 0.072338 0.289352 0.289352 0.289352 0.144676 0.144676 0.144676 0.072338 0.289352 0.289352 0.289352 0.144676 0.144676 0.144676 0.072338 0.289352 0.289352 0.289352 0.144676 0.144676 0.144676 0.072338 0.289352 0.289352 0.289352 0.144676 0.144676 0.144676 0.072338 0.289352 0.289352 0.289352 0.144676 0.144676 0.144676 0.072338 0.289352 0.289352 0.289352 0.144676 0.144676 0.144676 0.072338 0.289352 0.289352 0.289352 0.144676 0.144676 0.144676 0.072338 0.289352 0.289352 0.289352 0.144676 0.144676 0.144676 0.072338 0.289352 0.289352 0.289352 0.144676 0.144676 0.144676 0.072338 0.289352 0.289352 0.289352 0.144676 0.144676 0.144676 0.0723379 0.289352 0.289352 0.289352 0.144676 0.144676 0.144676 0.072338 0.289352 0.289352 0.289352 0.144676 0.144676 0.144676 0.072338 0.289352 0.289352 0.289352 0.144676 0.144676 0.144676 0.072338 0.289352 0.289352 0.289352 0.144676 0.144676 0.144676 0.072338 0.289352 0.289352 0.289352 0.144676 0.144676 0.144676 0.0723379 0.289352 0.289352 0.289352 0.144676 0.144676 0.144676 0.072338 0.289352 0.289352 0.289352 0.144676 0.144676 0.144676 0.072338 0.289352 0.289352 0.289352 0.144676 0.144676 0.144676 0.0723379 0.144676 0.144676 0.289352 0.072338 0.144676 0.144676 0.072338 0.289352 0.144676 0.144676 0.144676 0.072338 0.144676 0.144676 0.072338 0.072338 0.072338 0.289352 0.144676 0.144676 0.144676 0.144676 0.072338 0.072338 0.289352 0.144676 0.144676 0.144676 0.144676 0.072338 0.072338 0.289352 0.144676 0.144676 0.144676 0.144676 0.072338 0.072338 0.289352 0.144676 0.144676 0.144676 0.144676 0.072338 0.072338 0.289352 0.144676 0.144676 0.144676 0.144676 0.072338 0.072338 0.289352 0.144676 0.144676 0.144676 0.144676 0.072338 0.072338 0.289352 0.144676 0.144676 0.144676 0.144676 0.072338 0.072338 0.289352 0.144676 0.144676 0.144676 0.144676 0.072338 0.072338 0.289352 0.144676 0.144676 0.144676 0.144676 0.0723379 0.0723379 0.289352 0.144676 0.144676 0.144676 0.144676 0.0723379 0.0723379 0.289352 0.144676 0.144676 0.144676 0.144676 0.072338 0.072338 0.289352 0.144676 0.144676 0.144676 0.144676 0.072338 0.072338 0.289352 0.144676 0.144676 0.144676 0.144676 0.072338 0.072338 0.289352 0.144676 0.144676 0.144676 0.144676 0.0723379 0.0723379 0.289352 0.144676 0.144676 0.144676 0.144676 0.072338 0.072338 0.289352 0.144676 0.144676 0.144676 0.144676 0.072338 0.072338 0.289352 0.144676 0.144676 0.144676 0.144676 0.0723379 0.0723379 0.289352 0.144676 0.144676 0.144676 0.144676 0.0723379 0.0723379 0.289352 0.144676 0.144676 0.144676 0.144676 0.0723379 0.0723379 0.289352 0.144676 0.144676 0.144676 0.144676 0.072338 0.072338 0.289352 0.144676 0.144676 0.144676 0.144676 0.0723379 0.0723379 0.289352 0.144676 0.144676 0.144676 0.144676 0.0723379 0.0723379 0.144676 0.072338 0.144676 0.072338 0.144676 0.072338 0.072338 0.144676 0.144676 0.072338 0.289352 0.144676 0.289352 0.289352 0.144676 0.072338 0.144676 0.144676 0.072338 0.144676 0.072338 0.144676 0.144676 0.289352 0.289352 0.289352 0.072338 0.144676 0.144676 0.144676 0.072338 0.144676 0.144676 0.289352 0.289352 0.289352 0.072338 0.144676 0.144676 0.144676 0.072338 0.144676 0.144676 0.289352 0.289352 0.289352 0.0723379 0.144676 0.144676 0.144676 0.0723379 0.144676 0.144676 0.289352 0.289352 0.289352 0.0723379 0.144676 0.144676 0.144676 0.0723379 0.144676 0.144676 0.289352 0.289352 0.289352 0.0723379 0.144676 0.144676 0.144676 0.0723379 0.144676 0.144676 0.289352 0.289352 0.289352 0.072338 0.144676 0.144676 0.144676 0.072338 0.144676 0.144676 0.289352 0.289352 0.289352 0.0723379 0.144676 0.144676 0.144676 0.0723379 0.144676 0.144676 0.289352 0.289352 0.289352 0.072338 0.144676 0.144676 0.144676 0.072338 0.144676 0.144676 0.289352 0.289352 0.289352 0.0723379 0.144676 0.144676 0.144676 0.0723379 0.144676 0.144676 0.289352 0.289352 0.289352 0.0723379 0.144676 0.144676 0.144676 0.0723379 0.144676 0.144676 0.289352 0.289352 0.289352 0.072338 0.144676 0.144676 0.144676 0.072338 0.144676 0.144676 0.289352 0.289352 0.289352 0.0723379 0.144676 0.144676 0.144676 0.0723379 0.144676 0.144676 0.289352 0.289352 0.289352 0.072338 0.144676 0.144676 0.144676 0.072338 0.144676 0.144676 0.289352 0.289352 0.289352 0.0723379 0.144676 0.144676 0.144676 0.0723379 0.144676 0.144676 0.289352 0.289352 0.289352 0.072338 0.144676 0.144676 0.144676 0.072338 0.144676 0.144676 0.289352 0.289352 0.289352 0.0723379 0.144676 0.144676 0.144676 0.0723379 0.144676 0.144676 0.289352 0.289352 0.289352 0.0723379 0.144676 0.144676 0.144676 0.0723379 0.144676 0.144676 0.289352 0.289352 0.289352 0.0723379 0.144676 0.144676 0.144676 0.0723379 0.144676 0.144676 0.289352 0.289352 0.289351 0.0723379 0.144676 0.144676 0.144676 0.0723379 0.144676 0.144676 0.289352 0.289352 0.289352 0.072338 0.144676 0.144676 0.144676 0.072338 0.144676 0.144676 0.289352 0.289352 0.289352 0.0723379 0.144676 0.144676 0.144676 0.0723379 0.144676 0.144676 0.289352 0.289352 0.289352 0.0723379 0.144676 0.144676 0.144676 0.0723379 0.072338 0.144676 0.144676 0.144676 0.289352 0.072338 0.072338 0.144676 0.144676 0.072338 0.289352 0.144676 0.289352 0.289352 0.144676 0.144676 0.144676 0.072338 0.144676 0.072338 0.289352 0.289352 0.289352 0.144676 0.144676 0.144676 0.072338 0.289352 0.289352 0.289352 0.144676 0.144676 0.144676 0.072338 0.289352 0.289352 0.289352 0.144676 0.144676 0.144676 0.0723379 0.289352 0.289352 0.289352 0.144676 0.144676 0.144676 0.0723379 0.289352 0.289352 0.289352 0.144676 0.144676 0.144676 0.0723379 0.289352 0.289352 0.289352 0.144676 0.144676 0.144676 0.0723379 0.289352 0.289352 0.289352 0.144676 0.144676 0.144676 0.0723379 0.289352 0.289352 0.289352 0.144676 0.144676 0.144676 0.0723379 0.289352 0.289352 0.289352 0.144676 0.144676 0.144676 0.0723379 0.289352 0.289352 0.289352 0.144676 0.144676 0.144676 0.0723379 0.289352 0.289352 0.289352 0.144676 0.144676 0.144676 0.0723379 0.289352 0.289352 0.289352 0.144676 0.144676 0.144676 0.0723379 0.289352 0.289352 0.289352 0.144676 0.144676 0.144676 0.072338 0.289352 0.289352 0.289352 0.144676 0.144676 0.144676 0.0723379 0.289352 0.289352 0.289352 0.144676 0.144676 0.144676 0.072338 0.289352 0.289352 0.289352 0.144676 0.144676 0.144676 0.0723379 0.289352 0.289352 0.289352 0.144676 0.144676 0.144676 0.0723379 0.289352 0.289352 0.289352 0.144676 0.144676 0.144676 0.0723379 0.289352 0.289352 0.289351 0.144676 0.144676 0.144676 0.0723379 0.289352 0.289352 0.289352 0.144676 0.144676 0.144676 0.072338 0.289352 0.289352 0.289352 0.144676 0.144676 0.144676 0.0723379 0.289352 0.289352 0.289352 0.144676 0.144676 0.144676 0.0723379 0.144676 0.144676 0.289352 0.072338 0.144676 0.144676 0.072338 0.289352 0.144676 0.289352 0.289352 0.144676 0.144676 0.144676 0.072338 0.144676 0.072338 0.289352 0.289352 0.289352 0.144676 0.144676 0.144676 0.072338 0.289352 0.289352 0.289352 0.144676 0.144676 0.144676 0.072338 0.289352 0.289352 0.289352 0.144676 0.144676 0.144676 0.0723379 0.289352 0.289352 0.289352 0.144676 0.144676 0.144676 0.0723379 0.289352 0.289352 0.289352 0.144676 0.144676 0.144676 0.0723379 0.289352 0.289352 0.289352 0.144676 0.144676 0.144676 0.072338 0.289352 0.289352 0.289352 0.144676 0.144676 0.144676 0.0723379 0.289352 0.289352 0.289352 0.144676 0.144676 0.144676 0.0723379 0.289352 0.289352 0.289352 0.144676 0.144676 0.144676 0.0723379 0.289352 0.289352 0.289352 0.144676 0.144676 0.144676 0.0723379 0.289352 0.289352 0.289352 0.144676 0.144676 0.144676 0.0723379 0.289352 0.289352 0.289352 0.144676 0.144676 0.144676 0.0723379 0.289352 0.289352 0.289352 0.144676 0.144676 0.144676 0.072338 0.289352 0.289352 0.289352 0.144676 0.144676 0.144676 0.0723379 0.289352 0.289352 0.289352 0.144676 0.144676 0.144676 0.072338 0.289352 0.289352 0.289352 0.144676 0.144676 0.144676 0.0723379 0.289352 0.289352 0.289352 0.144676 0.144676 0.144676 0.0723379 0.289352 0.289352 0.289352 0.144676 0.144676 0.144676 0.0723379 0.289352 0.289352 0.289351 0.144676 0.144676 0.144676 0.0723379 0.289352 0.289352 0.289352 0.144676 0.144676 0.144676 0.072338 0.289352 0.289352 0.289352 0.144676 0.144676 0.144676 0.0723379 0.289352 0.289352 0.289352 0.144676 0.144676 0.144676 0.0723379 0.144676 0.144676 0.289352 0.072338 0.144676 0.144676 0.072338 0.289352 0.144676 0.289352 0.289352 0.144676 0.144676 0.144676 0.0723379 0.144676 0.0723379 0.289352 0.289352 0.289352 0.144676 0.144676 0.144676 0.0723379 0.289352 0.289352 0.289352 0.144676 0.144676 0.144676 0.072338 0.289352 0.289352 0.289352 0.144676 0.144676 0.144676 0.0723379 0.289352 0.289352 0.289352 0.144676 0.144676 0.144676 0.0723379 0.289352 0.289352 0.289352 0.144676 0.144676 0.144676 0.0723379 0.289352 0.289352 0.289352 0.144676 0.144676 0.144676 0.0723379 0.289352 0.289352 0.289352 0.144676 0.144676 0.144676 0.0723379 0.289352 0.289352 0.289352 0.144676 0.144676 0.144676 0.0723379 0.289352 0.289352 0.289352 0.144676 0.144676 0.144676 0.0723379 0.289352 0.289352 0.289352 0.144676 0.144676 0.144676 0.0723379 0.289352 0.289352 0.289352 0.144676 0.144676 0.144676 0.0723379 0.289352 0.289352 0.289352 0.144676 0.144676 0.144676 0.0723379 0.289352 0.289352 0.289352 0.144676 0.144676 0.144676 0.072338 0.289352 0.289352 0.289352 0.144676 0.144676 0.144676 0.0723379 0.289352 0.289352 0.289352 0.144676 0.144676 0.144676 0.072338 0.289352 0.289352 0.289352 0.144676 0.144676 0.144676 0.0723379 0.289352 0.289352 0.289352 0.144676 0.144676 0.144676 0.0723379 0.289351 0.289352 0.289352 0.144676 0.144676 0.144676 0.0723379 0.289352 0.289352 0.289351 0.144676 0.144676 0.144676 0.0723379 0.289352 0.289352 0.289352 0.144676 0.144676 0.144676 0.072338 0.289352 0.289352 0.289352 0.144676 0.144676 0.144676 0.0723379 0.289352 0.289352 0.289352 0.144676 0.144676 0.144676 0.0723379 0.144676 0.144676 0.289352 0.0723379 0.144676 0.144676 0.0723379 0.289352 0.144676 0.289352 0.289352 0.144676 0.144676 0.144676 0.0723379 0.144676 0.0723379 0.289352 0.289352 0.289352 0.144676 0.144676 0.144676 0.0723379 0.289352 0.289352 0.289352 0.144676 0.144676 0.144676 0.0723379 0.289352 0.289352 0.289352 0.144676 0.144676 0.144676 0.0723379 0.289352 0.289352 0.289352 0.144676 0.144676 0.144676 0.0723379 0.289352 0.289352 0.289352 0.144676 0.144676 0.144676 0.0723379 0.289352 0.289352 0.289352 0.144676 0.144676 0.144676 0.0723379 0.289352 0.289352 0.289352 0.144676 0.144676 0.144676 0.0723379 0.289352 0.289352 0.289352 0.144676 0.144676 0.144676 0.0723379 0.289352 0.289352 0.289352 0.144676 0.144676 0.144676 0.0723379 0.289352 0.289352 0.289352 0.144676 0.144676 0.144676 0.0723379 0.289352 0.289352 0.289352 0.144676 0.144676 0.144676 0.0723379 0.289352 0.289352 0.289352 0.144676 0.144676 0.144676 0.0723379 0.289352 0.289352 0.289352 0.144676 0.144676 0.144676 0.072338 0.289352 0.289352 0.289352 0.144676 0.144676 0.144676 0.0723379 0.289352 0.289352 0.289352 0.144676 0.144676 0.144676 0.072338 0.289352 0.289352 0.289352 0.144676 0.144676 0.144676 0.0723379 0.289352 0.289352 0.289352 0.144676 0.144676 0.144676 0.0723379 0.289351 0.289352 0.289352 0.144676 0.144676 0.144676 0.0723379 0.289352 0.289352 0.289351 0.144676 0.144676 0.144676 0.0723379 0.289352 0.289352 0.289352 0.144676 0.144676 0.144676 0.072338 0.289352 0.289352 0.289352 0.144676 0.144676 0.144676 0.0723379 0.289352 0.289352 0.289352 0.144676 0.144676 0.144676 0.0723379 0.144676 0.144676 0.289352 0.072338 0.144676 0.144676 0.072338 0.289352 0.144676 0.289352 0.289352 0.144676 0.144676 0.144676 0.0723379 0.144676 0.0723379 0.289352 0.289352 0.289352 0.144676 0.144676 0.144676 0.0723379 0.289352 0.289352 0.289352 0.144676 0.144676 0.144676 0.072338 0.289352 0.289352 0.289352 0.144676 0.144676 0.144676 0.0723379 0.289352 0.289352 0.289352 0.144676 0.144676 0.144676 0.0723379 0.289352 0.289352 0.289352 0.144676 0.144676 0.144676 0.0723379 0.289352 0.289352 0.289352 0.144676 0.144676 0.144676 0.072338 0.289352 0.289352 0.289352 0.144676 0.144676 0.144676 0.0723379 0.289352 0.289352 0.289352 0.144676 0.144676 0.144676 0.0723379 0.289352 0.289352 0.289352 0.144676 0.144676 0.144676 0.0723379 0.289352 0.289352 0.289352 0.144676 0.144676 0.144676 0.0723379 0.289352 0.289352 0.289352 0.144676 0.144676 0.144676 0.072338 0.289352 0.289352 0.289352 0.144676 0.144676 0.144676 0.0723379 0.289352 0.289352 0.289352 0.144676 0.144676 0.144676 0.072338 0.289352 0.289352 0.289352 0.144676 0.144676 0.144676 0.0723379 0.289352 0.289352 0.289352 0.144676 0.144676 0.144676 0.072338 0.289352 0.289352 0.289352 0.144676 0.144676 0.144676 0.072338 0.289352 0.289352 0.289352 0.144676 0.144676 0.144676 0.0723379 0.289352 0.289352 0.289352 0.144676 0.144676 0.144676 0.0723379 0.289352 0.289352 0.289351 0.144676 0.144676 0.144676 0.0723379 0.289352 0.289352 0.289352 0.144676 0.144676 0.144676 0.072338 0.289352 0.289352 0.289352 0.144676 0.144676 0.144676 0.0723379 0.289352 0.289352 0.289352 0.144676 0.144676 0.144676 0.0723379 0.144676 0.144676 0.289352 0.072338 0.144676 0.144676 0.072338 0.289352 0.144676 0.289352 0.289352 0.144676 0.144676 0.144676 0.072338 0.144676 0.072338 0.289352 0.289352 0.289352 0.144676 0.144676 0.144676 0.072338 0.289352 0.289352 0.289352 0.144676 0.144676 0.144676 0.072338 0.289352 0.289352 0.289352 0.144676 0.144676 0.144676 0.0723379 0.289352 0.289352 0.289352 0.144676 0.144676 0.144676 0.0723379 0.289352 0.289352 0.289352 0.144676 0.144676 0.144676 0.072338 0.289352 0.289352 0.289352 0.144676 0.144676 0.144676 0.072338 0.289352 0.289352 0.289352 0.144676 0.144676 0.144676 0.0723379 0.289352 0.289352 0.289352 0.144676 0.144676 0.144676 0.072338 0.289352 0.289352 0.289352 0.144676 0.144676 0.144676 0.0723379 0.289352 0.289352 0.289352 0.144676 0.144676 0.144676 0.0723379 0.289352 0.289352 0.289352 0.144676 0.144676 0.144676 0.072338 0.289352 0.289352 0.289352 0.144676 0.144676 0.144676 0.072338 0.289352 0.289352 0.289352 0.144676 0.144676 0.144676 0.072338 0.289352 0.289352 0.289352 0.144676 0.144676 0.144676 0.0723379 0.289352 0.289352 0.289352 0.144676 0.144676 0.144676 0.072338 0.289352 0.289352 0.289352 0.144676 0.144676 0.144676 0.072338 0.289352 0.289352 0.289352 0.144676 0.144676 0.144676 0.0723379 0.289352 0.289352 0.289352 0.144676 0.144676 0.144676 0.0723379 0.289352 0.289352 0.289351 0.144676 0.144676 0.144676 0.0723379 0.289352 0.289352 0.289352 0.144676 0.144676 0.144676 0.072338 0.289352 0.289352 0.289352 0.144676 0.144676 0.144676 0.0723379 0.289352 0.289352 0.289352 0.144676 0.144676 0.144676 0.0723379 0.144676 0.144676 0.289352 0.072338 0.144676 0.144676 0.072338 0.289352 0.144676 0.144676 0.144676 0.0723379 0.144676 0.144676 0.0723379 0.0723379 0.0723379 0.289352 0.144676 0.144676 0.144676 0.144676 0.0723379 0.0723379 0.289352 0.144676 0.144676 0.144676 0.144676 0.0723379 0.0723379 0.289352 0.144676 0.144676 0.144676 0.144676 0.0723379 0.0723379 0.289352 0.144676 0.144676 0.144676 0.144676 0.0723379 0.0723379 0.289352 0.144676 0.144676 0.144676 0.144676 0.0723379 0.0723379 0.289352 0.144676 0.144676 0.144676 0.144676 0.0723379 0.0723379 0.289352 0.144676 0.144676 0.144676 0.144676 0.0723379 0.0723379 0.289352 0.144676 0.144676 0.144676 0.144676 0.0723379 0.0723379 0.289352 0.144676 0.144676 0.144676 0.144676 0.0723379 0.0723379 0.289352 0.144676 0.144676 0.144676 0.144676 0.0723379 0.0723379 0.289352 0.144676 0.144676 0.144676 0.144676 0.0723379 0.0723379 0.289352 0.144676 0.144676 0.144676 0.144676 0.0723379 0.0723379 0.289352 0.144676 0.144676 0.144676 0.144676 0.072338 0.072338 0.289352 0.144676 0.144676 0.144676 0.144676 0.0723379 0.0723379 0.289352 0.144676 0.144676 0.144676 0.144676 0.072338 0.072338 0.289352 0.144676 0.144676 0.144676 0.144676 0.0723379 0.0723379 0.289352 0.144676 0.144676 0.144676 0.144676 0.0723379 0.0723379 0.289351 0.144676 0.144676 0.144676 0.144676 0.0723379 0.0723379 0.289352 0.144676 0.144676 0.144676 0.144676 0.0723379 0.0723379 0.289352 0.144676 0.144676 0.144676 0.144676 0.072338 0.072338 0.289352 0.144676 0.144676 0.144676 0.144676 0.0723379 0.0723379 0.289352 0.144676 0.144676 0.144676 0.144676 0.0723379 0.0723379 0.144676 0.0723379 0.144676 0.0723379 0.144676 0.0723379 0.0723379 0.144676 0.0723379 0.0723379 0.144676 0.0723379 0.289352 0.144676 0.144676 0.0723379 0.144676 0.0723379 0.0723379 0.144676 0.0723379 0.144676 0.0723379 0.144676 0.289352 0.144676 0.0723379 0.144676 0.0723379 0.144676 0.0723379 0.144676 0.0723379 0.144676 0.289352 0.144676 0.0723379 0.144676 0.0723379 0.144676 0.0723379 0.144676 0.0723379 0.144676 0.289352 0.144676 0.0723379 0.144676 0.0723379 0.144676 0.0723379 0.144676 0.0723379 0.144676 0.289352 0.144676 0.0723379 0.144676 0.0723379 0.144676 0.0723379 0.144676 0.0723379 0.144676 0.289352 0.144676 0.0723379 0.144676 0.0723379 0.144676 0.0723379 0.144676 0.0723379 0.144676 0.289352 0.144676 0.0723379 0.144676 0.0723379 0.144676 0.0723379 0.144676 0.0723379 0.144676 0.289352 0.144676 0.0723379 0.144676 0.0723379 0.144676 0.0723379 0.144676 0.0723379 0.144676 0.289352 0.144676 0.0723379 0.144676 0.0723379 0.144676 0.0723379 0.144676 0.0723379 0.144676 0.289352 0.144676 0.0723379 0.144676 0.0723379 0.144676 0.0723379 0.144676 0.0723379 0.144676 0.289352 0.144676 0.0723379 0.144676 0.0723379 0.144676 0.0723379 0.144676 0.0723379 0.144676 0.289352 0.144676 0.0723379 0.144676 0.0723379 0.144676 0.0723379 0.144676 0.0723379 0.144676 0.289352 0.144676 0.0723379 0.144676 0.0723379 0.144676 0.0723379 0.144676 0.0723379 0.144676 0.289352 0.144676 0.0723379 0.144676 0.0723379 0.144676 0.0723379 0.144676 0.0723379 0.144676 0.289352 0.144676 0.0723379 0.144676 0.0723379 0.144676 0.0723379 0.144676 0.0723379 0.144676 0.289352 0.144676 0.0723379 0.144676 0.0723379 0.144676 0.0723379 0.144676 0.0723379 0.144676 0.289352 0.144676 0.0723379 0.144676 0.0723379 0.144676 0.0723379 0.144676 0.0723379 0.144676 0.289351 0.144676 0.0723379 0.144676 0.0723379 0.144676 0.0723379 0.144676 0.0723379 0.144676 0.289351 0.144676 0.0723379 0.144676 0.0723379 0.144676 0.0723379 0.144676 0.0723379 0.144676 0.289352 0.144676 0.0723379 0.144676 0.0723379 0.144676 0.0723379 0.144676 0.0723379 0.144676 0.289352 0.144676 0.0723379 0.144676 0.0723379 0.144676 0.0723379 0.144676 0.0723379 0.144676 0.289352 0.144676 0.0723379 0.144676 0.0723379 0.144676 0.0723379 0.144676 0.0723379 0.144676 0.289352 0.144676 0.0723379 0.144676 0.0723379 0.144676 0.0723379 0.0723379 0.0723379 0.0723379 0.144676 0.144676 0.0723379 0.0723379 0.0723379 0.144676 0.0723379 0.144676 0.0723379 0.289352 0.144676 0.144676 0.144676 0.0723379 0.0723379 0.144676 0.0723379 0.144676 0.289352 0.144676 0.144676 0.0723379 0.144676 0.0723379 0.144676 0.289352 0.144676 0.144676 0.0723379 0.144676 0.0723379 0.144676 0.289352 0.144676 0.144676 0.0723379 0.144676 0.0723379 0.144676 0.289352 0.144676 0.144676 0.0723379 0.144676 0.0723379 0.144676 0.289352 0.144676 0.144676 0.0723379 0.144676 0.0723379 0.144676 0.289352 0.144676 0.144676 0.0723379 0.144676 0.0723379 0.144676 0.289352 0.144676 0.144676 0.0723379 0.144676 0.0723379 0.144676 0.289352 0.144676 0.144676 0.0723379 0.144676 0.0723379 0.144676 0.289352 0.144676 0.144676 0.0723379 0.144676 0.0723379 0.144676 0.289352 0.144676 0.144676 0.0723379 0.144676 0.0723379 0.144676 0.289352 0.144676 0.144676 0.0723379 0.144676 0.0723379 0.144676 0.289352 0.144676 0.144676 0.0723379 0.144676 0.0723379 0.144676 0.289352 0.144676 0.144676 0.0723379 0.144676 0.0723379 0.144676 0.289352 0.144676 0.144676 0.0723379 0.144676 0.0723379 0.144676 0.289352 0.144676 0.144676 0.0723379 0.144676 0.0723379 0.144676 0.289352 0.144676 0.144676 0.0723379 0.144676 0.0723379 0.144676 0.289351 0.144676 0.144676 0.0723379 0.144676 0.0723379 0.144676 0.289351 0.144676 0.144676 0.0723379 0.144676 0.0723379 0.144676 0.289352 0.144676 0.144676 0.0723379 0.144676 0.0723379 0.144676 0.289352 0.144676 0.144676 0.0723379 0.144676 0.0723379 0.144676 0.289352 0.144676 0.144676 0.0723379 0.144676 0.0723379 0.144676 0.289352 0.144676 0.144676 0.0723379 0.144676 0.0723379 0.0723379 0.144676 0.144676 0.0723379 0.0723379 0.144676 0.0723379 0.144676 0.0723379 0.289352 0.144676 0.144676 0.144676 0.0723379 0.0723379 0.144676 0.0723379 0.144676 0.289352 0.144676 0.144676 0.0723379 0.144676 0.0723379 0.144676 0.289352 0.144676 0.144676 0.0723379 0.144676 0.0723379 0.144676 0.289352 0.144676 0.144676 0.0723379 0.144676 0.0723379 0.144676 0.289352 0.144676 0.144676 0.0723379 0.144676 0.0723379 0.144676 0.289352 0.144676 0.144676 0.0723379 0.144676 0.0723379 0.144676 0.289352 0.144676 0.144676 0.0723379 0.144676 0.0723379 0.144676 0.289352 0.144676 0.144676 0.0723379 0.144676 0.0723379 0.144676 0.289352 0.144676 0.144676 0.0723379 0.144676 0.0723379 0.144676 0.289351 0.144676 0.144676 0.0723379 0.144676 0.0723379 0.144676 0.289352 0.144676 0.144676 0.0723379 0.144676 0.0723379 0.144676 0.289352 0.144676 0.144676 0.0723379 0.144676 0.0723379 0.144676 0.289352 0.144676 0.144676 0.0723379 0.144676 0.0723379 0.144676 0.289352 0.144676 0.144676 0.0723379 0.144676 0.0723379 0.144676 0.289352 0.144676 0.144676 0.0723379 0.144676 0.0723379 0.144676 0.289352 0.144676 0.144676 0.0723379 0.144676 0.0723379 0.144676 0.289352 0.144676 0.144676 0.0723379 0.144676 0.0723379 0.144676 0.289351 0.144676 0.144676 0.0723379 0.144676 0.0723379 0.144676 0.289351 0.144676 0.144676 0.0723379 0.144676 0.0723379 0.144676 0.289352 0.144676 0.144676 0.0723379 0.144676 0.0723379 0.144676 0.289352 0.144676 0.144676 0.0723379 0.144676 0.0723379 0.144676 0.289352 0.144676 0.144676 0.0723379 0.144676 0.0723379 0.144676 0.289352 0.144676 0.144676 0.0723379 0.144676 0.0723379 0.0723379 0.144676 0.144676 0.0723379 0.0723379 0.144676 0.0723379 0.144676 0.0723379 0.289352 0.144676 0.144676 0.144676 0.0723379 0.0723379 0.144676 0.0723379 0.144676 0.289352 0.144676 0.144676 0.0723379 0.144676 0.0723379 0.144676 0.289352 0.144676 0.144676 0.0723379 0.144676 0.0723379 0.144676 0.289352 0.144676 0.144676 0.0723379 0.144676 0.0723379 0.144676 0.289352 0.144676 0.144676 0.0723379 0.144676 0.0723379 0.144676 0.289352 0.144676 0.144676 0.0723379 0.144676 0.0723379 0.144676 0.289352 0.144676 0.144676 0.0723379 0.144676 0.0723379 0.144676 0.289352 0.144676 0.144676 0.0723379 0.144676 0.0723379 0.144676 0.289352 0.144676 0.144676 0.0723379 0.144676 0.0723379 0.144676 0.289351 0.144676 0.144676 0.0723379 0.144676 0.0723379 0.144676 0.289352 0.144676 0.144676 0.0723379 0.144676 0.0723379 0.144676 0.289352 0.144676 0.144676 0.0723379 0.144676 0.0723379 0.144676 0.289352 0.144676 0.144676 0.0723379 0.144676 0.0723379 0.144676 0.289352 0.144676 0.144676 0.0723379 0.144676 0.0723379 0.144676 0.289352 0.144676 0.144676 0.0723379 0.144676 0.0723379 0.144676 0.289352 0.144676 0.144676 0.0723379 0.144676 0.0723379 0.144676 0.289352 0.144676 0.144676 0.0723379 0.144676 0.0723379 0.144676 0.289351 0.144676 0.144676 0.0723379 0.144676 0.0723379 0.144676 0.289351 0.144676 0.144676 0.0723379 0.144676 0.0723379 0.144676 0.289352 0.144676 0.144676 0.0723378 0.144676 0.0723378 0.144676 0.289352 0.144676 0.144676 0.0723379 0.144676 0.0723379 0.144676 0.289352 0.144676 0.144676 0.0723379 0.144676 0.0723379 0.144676 0.289352 0.144676 0.144676 0.0723379 0.144676 0.0723379 0.0723379 0.144676 0.144676 0.0723379 0.0723379 0.144676 0.0723379 0.144676 0.0723379 0.289352 0.144676 0.144676 0.144676 0.0723379 0.0723379 0.144676 0.0723379 0.144676 0.289352 0.144676 0.144676 0.0723379 0.144676 0.0723379 0.144676 0.289352 0.144676 0.144676 0.0723379 0.144676 0.0723379 0.144676 0.289352 0.144676 0.144676 0.0723379 0.144676 0.0723379 0.144676 0.289352 0.144676 0.144676 0.0723379 0.144676 0.0723379 0.144676 0.289352 0.144676 0.144676 0.0723379 0.144676 0.0723379 0.144676 0.289352 0.144676 0.144676 0.0723379 0.144676 0.0723379 0.144676 0.289352 0.144676 0.144676 0.0723379 0.144676 0.0723379 0.144676 0.289352 0.144676 0.144676 0.0723379 0.144676 0.0723379 0.144676 0.289352 0.144676 0.144676 0.0723379 0.144676 0.0723379 0.144676 0.289352 0.144676 0.144676 0.0723379 0.144676 0.0723379 0.144676 0.289352 0.144676 0.144676 0.0723379 0.144676 0.0723379 0.144676 0.289352 0.144676 0.144676 0.0723379 0.144676 0.0723379 0.144676 0.289352 0.144676 0.144676 0.0723379 0.144676 0.0723379 0.144676 0.289352 0.144676 0.144676 0.0723379 0.144676 0.0723379 0.144676 0.289352 0.144676 0.144676 0.0723379 0.144676 0.0723379 0.144676 0.289352 0.144676 0.144676 0.0723379 0.144676 0.0723379 0.144676 0.289351 0.144676 0.144676 0.0723379 0.144676 0.0723379 0.144676 0.289351 0.144676 0.144676 0.0723379 0.144676 0.0723379 0.144676 0.289352 0.144676 0.144676 0.0723378 0.144676 0.0723378 0.144676 0.289352 0.144676 0.144676 0.0723379 0.144676 0.0723379 0.144676 0.289352 0.144676 0.144676 0.0723379 0.144676 0.0723379 0.144676 0.289352 0.144676 0.144676 0.0723379 0.144676 0.0723379 0.0723379 0.144676 0.144676 0.0723379 0.0723379 0.144676 0.0723379 0.144676 0.0723379 0.289352 0.144676 0.144676 0.144676 0.0723379 0.0723379 0.144676 0.0723379 0.144676 0.289352 0.144676 0.144676 0.0723379 0.144676 0.0723379 0.144676 0.289352 0.144676 0.144676 0.0723379 0.144676 0.0723379 0.144676 0.289352 0.144676 0.144676 0.0723379 0.144676 0.0723379 0.144676 0.289352 0.144676 0.144676 0.0723379 0.144676 0.0723379 0.144676 0.289352 0.144676 0.144676 0.0723379 0.144676 0.0723379 0.144676 0.289352 0.144676 0.144676 0.0723379 0.144676 0.0723379 0.144676 0.289352 0.144676 0.144676 0.0723379 0.144676 0.0723379 0.144676 0.289352 0.144676 0.144676 0.0723379 0.144676 0.0723379 0.144676 0.289352 0.144676 0.144676 0.0723379 0.144676 0.0723379 0.144676 0.289352 0.144676 0.144676 0.0723379 0.144676 0.0723379 0.144676 0.289352 0.144676 0.144676 0.0723379 0.144676 0.0723379 0.144676 0.289352 0.144676 0.144676 0.0723379 0.144676 0.0723379 0.144676 0.289352 0.144676 0.144676 0.0723379 0.144676 0.0723379 0.144676 0.289352 0.144676 0.144676 0.0723379 0.144676 0.0723379 0.144676 0.289352 0.144676 0.144676 0.0723379 0.144676 0.0723379 0.144676 0.289352 0.144676 0.144676 0.0723379 0.144676 0.0723379 0.144676 0.289352 0.144676 0.144676 0.0723379 0.144676 0.0723379 0.144676 0.289351 0.144676 0.144676 0.0723379 0.144676 0.0723379 0.144676 0.289352 0.144676 0.144676 0.0723379 0.144676 0.0723379 0.144676 0.289352 0.144676 0.144676 0.0723379 0.144676 0.0723379 0.144676 0.289352 0.144676 0.144676 0.0723379 0.144676 0.0723379 0.144676 0.289352 0.144676 0.144676 0.0723379 0.144676 0.0723379 0.0723379 0.144676 0.144676 0.0723379 0.0723379 0.144676 0.0723379 0.144676 0.0723379 0.289352 0.144676 0.144676 0.144676 0.0723379 0.0723379 0.144676 0.0723379 0.144676 0.289352 0.144676 0.144676 0.0723379 0.144676 0.0723379 0.144676 0.289352 0.144676 0.144676 0.0723379 0.144676 0.0723379 0.144676 0.289352 0.144676 0.144676 0.0723379 0.144676 0.0723379 0.144676 0.289352 0.144676 0.144676 0.0723379 0.144676 0.0723379 0.144676 0.289352 0.144676 0.144676 0.0723379 0.144676 0.0723379 0.144676 0.289352 0.144676 0.144676 0.0723379 0.144676 0.0723379 0.144676 0.289352 0.144676 0.144676 0.0723379 0.144676 0.0723379 0.144676 0.289352 0.144676 0.144676 0.0723379 0.144676 0.0723379 0.144676 0.289352 0.144676 0.144676 0.0723379 0.144676 0.0723379 0.144676 0.289352 0.144676 0.144676 0.0723379 0.144676 0.0723379 0.144676 0.289352 0.144676 0.144676 0.0723379 0.144676 0.0723379 0.144676 0.289352 0.144676 0.144676 0.0723379 0.144676 0.0723379 0.144676 0.289352 0.144676 0.144676 0.0723379 0.144676 0.0723379 0.144676 0.289352 0.144676 0.144676 0.0723379 0.144676 0.0723379 0.144676 0.289352 0.144676 0.144676 0.0723379 0.144676 0.0723379 0.144676 0.289352 0.144676 0.144676 0.0723379 0.144676 0.0723379 0.144676 0.289352 0.144676 0.144676 0.0723379 0.144676 0.0723379 0.144676 0.289351 0.144676 0.144676 0.0723379 0.144676 0.0723379 0.144676 0.289352 0.144676 0.144676 0.0723379 0.144676 0.0723379 0.144676 0.289352 0.144676 0.144676 0.0723379 0.144676 0.0723379 0.144676 0.289351 0.144676 0.144676 0.0723379 0.144676 0.0723379 0.144676 0.289352 0.144676 0.144676 0.0723379 0.144676 0.0723379 0.0723379 0.144676 0.144676 0.0723379 0.0723379 0.144676 0.0723379 0.144676 0.0723379 0.144676 0.0723379 0.0723379 0.144676 0.0723379 0.0723379 0.0723379 0.0723379 0.144676 0.144676 0.0723379 0.144676 0.0723379 0.0723379 0.0723379 0.144676 0.144676 0.0723379 0.144676 0.0723379 0.0723379 0.0723379 0.144676 0.144676 0.0723379 0.144676 0.0723379 0.0723379 0.0723379 0.144676 0.144676 0.0723379 0.144676 0.0723379 0.0723379 0.0723379 0.144676 0.144676 0.0723379 0.144676 0.0723379 0.0723379 0.0723379 0.144676 0.144676 0.0723379 0.144676 0.0723379 0.0723379 0.0723379 0.144676 0.144676 0.0723379 0.144676 0.0723379 0.0723379 0.0723379 0.144676 0.144676 0.0723379 0.144676 0.0723379 0.0723379 0.0723379 0.144676 0.144676 0.0723379 0.144676 0.0723379 0.0723379 0.0723379 0.144676 0.144676 0.0723379 0.144676 0.0723379 0.0723379 0.0723379 0.144676 0.144676 0.0723379 0.144676 0.0723379 0.0723379 0.0723379 0.144676 0.144676 0.0723379 0.144676 0.0723379 0.0723379 0.0723379 0.144676 0.144676 0.0723379 0.144676 0.0723379 0.0723379 0.0723379 0.144676 0.144676 0.0723379 0.144676 0.0723379 0.0723379 0.0723379 0.144676 0.144676 0.0723379 0.144676 0.0723379 0.0723379 0.0723379 0.144676 0.144676 0.0723379 0.144676 0.0723379 0.0723379 0.0723379 0.144676 0.144676 0.0723379 0.144676 0.0723379 0.0723379 0.0723379 0.144676 0.144676 0.0723379 0.144676 0.0723379 0.0723379 0.0723379 0.144676 0.144676 0.0723378 0.144676 0.0723378 0.0723378 0.0723378 0.144676 0.144676 0.0723379 0.144676 0.0723379 0.0723379 0.0723379 0.144676 0.144676 0.0723379 0.144676 0.0723379 0.0723379 0.0723379 0.144676 0.144676 0.0723379 0.144676 0.0723379 0.0723379 0.0723379 0.0723379 0.0723379 0.0723379 0.0723379 0.0723379 0.0723379 0.0723379 
VECTORS u float
0 0 0  -0.0214287 -0.00910408 -0.0273408  -0.0386143 -0.0193931 -0.0379398  -0.0563355 -0.035522 -0.0407237  -0.0750295 -0.0584952 -0.0393957  -0.0935037 -0.0856364 -0.0360881  -0.112009 -0.117415 -0.0324961  -0.130084 -0.151859 -0.0285212  -0.147883 -0.189636 -0.0249517  -0.165072 -0.229377 -0.0214932  -0.181847 -0.271649 -0.0184844  -0.197979 -0.315464 -0.0156801  -0.213649 -0.361172 -0.0132463  -0.228702 -0.408048 -0.0110115  -0.243273 -0.456253 -0.00907397  -0.257264 -0.50526 -0.00732374  -0.270768 -0.555099 -0.00582325  -0.283739 -0.605399 -0.00450599  -0.296235 -0.656101 -0.0034138  -0.308259 -0.706964 -0.00250697  -0.319854 -0.757881 -0.00181508  -0.331058 -0.808708 -0.00131023  -0.341926 -0.859338 -0.00100243  -0.352542 -0.909721 -0.000826955  -0.363051 -0.959875 -0.000709653  0 0 0  -0.0115327 -0.0032526 -0.0185168  -0.0235821 -0.0137967 -0.0261148  -0.0359737 -0.0313567 -0.0285562  -0.0493168 -0.0551848 -0.0278404  -0.063317 -0.0839318 -0.0258642  -0.0778185 -0.116737 -0.0233999  -0.092618 -0.152783 -0.0207181  -0.107575 -0.191669 -0.0181698  -0.122474 -0.23287 -0.0157248  -0.137278 -0.276179 -0.0135396  -0.151849 -0.321202 -0.0115206  -0.166201 -0.367779 -0.00974524  -0.180244 -0.415579 -0.0081296  -0.194001 -0.464453 -0.00672078  -0.207406 -0.514112 -0.00545871  -0.220488 -0.56442 -0.00437486  -0.233197 -0.615128 -0.0034318  -0.245566 -0.666121 -0.00264966  -0.257564 -0.717191 -0.00200617  -0.26923 -0.76825 -0.00151169  -0.28055 -0.819137 -0.00114691  -0.291574 -0.86981 -0.000901937  -0.302312 -0.920172 -0.000722408  -0.312869 -0.970296 -0.000513673  0 0 0  -0.00661327 -0.000470698 -0.0117359  -0.0128582 -0.010887 -0.0161611  -0.0203448 -0.0293374 -0.0177834  -0.0289692 -0.0540004 -0.0175502  -0.0385403 -0.0835369 -0.0164258  -0.0490108 -0.117254 -0.0148716  -0.0601888 -0.154269 -0.0132184  -0.0719455 -0.19418 -0.0115714  -0.0840932 -0.236417 -0.010036  -0.0965279 -0.280726 -0.00861514  -0.109115 -0.326694 -0.00733995  -0.121795 -0.374134 -0.00619042  -0.134469 -0.422709 -0.0051738  -0.147103 -0.47226 -0.00427151  -0.15962 -0.522501 -0.00348461  -0.172002 -0.573297 -0.00280273  -0.184188 -0.624403 -0.00222349  -0.196174 -0.675715 -0.00174308  -0.207913 -0.727029 -0.00135636  -0.219417 -0.778275 -0.00106037  -0.230649 -0.829299 -0.000843763  -0.241636 -0.880072 -0.000695348  -0.252355 -0.930486 -0.000567913  -0.262862 -0.980517 -0.000389934  0 0 0  -0.00220028 -2.32458e-05 -0.00550389  -0.00432317 -0.0104353 -0.00763214  -0.0072948 -0.0291817 -0.00837636  -0.0113986 -0.0543375 -0.00824881  -0.0166746 -0.0845101 -0.00770283  -0.0230754 -0.118888 -0.00695038  -0.0305598 -0.156695 -0.00611758  -0.0389796 -0.197405 -0.00531292  -0.0481962 -0.240508 -0.00454831  -0.0580741 -0.285641 -0.00386155  -0.0684695 -0.332432 -0.00324297  -0.0792826 -0.380615 -0.00270236  -0.09039 -0.429885 -0.00222802  -0.10172 -0.48004 -0.00182128  -0.113168 -0.530818 -0.00147235  -0.124686 -0.582063 -0.00118244  -0.136187 -0.63355 -0.000944495  -0.147642 -0.685168 -0.00075829  -0.158982 -0.736727 -0.000618935  -0.170195 -0.788165 -0.000523925  -0.181231 -0.839332 -0.000467658  -0.192094 -0.890208 -0.000442982  -0.202745 -0.940669 -0.000421762  -0.213182 -0.990615 -0.000364304  0 0 0  0.00123344 -0.000885516 0.000550032  0.00306755 -0.0117906 0.000590086  0.00441158 -0.0310292 0.000613689  0.0047344 -0.0566011 0.000638127  0.00376028 -0.0872193 0.000685573  0.00137252 -0.122111 0.000739098  -0.00238842 -0.160485 0.000794172  -0.00745058 -0.201829 0.000834823  -0.0136665 -0.245594 0.000858068  -0.0209081 -0.291406 0.000857711  -0.029012 -0.338855 0.000835896  -0.0378557 -0.387667 0.00079298  -0.0472882 -0.437513 0.000732303  -0.0572098 -0.488188 0.000657201  -0.0674863 -0.539419 0.000570774  -0.0780441 -0.591056 0.000475526  -0.0887666 -0.642866 0.000373363  -0.0996048 -0.694751 0.000266671  -0.110464 -0.74652 0.000157118  -0.121319 -0.798119 4.48227e-05  -0.132095 -0.849401 -6.81877e-05  -0.142791 -0.900354 -0.000180364  -0.153342 -0.950847 -0.000287652  -0.163707 -1.00076 -0.000380278  0 0 0  0.00449549 -0.0030517 0.00644505  0.0102502 -0.0150517 0.00860322  0.0158803 -0.0347844 0.0093981  0.0206209 -0.0607635 0.00932693  0.0238873 -0.0917476 0.00891054  0.0254821 -0.127015 0.00830066  0.0253912 -0.165822 0.00762165  0.023666 -0.207641 0.0069288  0.020436 -0.251919 0.00623834  0.0158385 -0.298255 0.00556898  0.0100437 -0.346224 0.00491858  0.00319862 -0.395529 0.0043  -0.00452745 -0.445832 0.00370717  -0.0130031 -0.496916 0.00315166  -0.0220745 -0.548505 0.0026294  -0.0316343 -0.600443 0.00214767  -0.0415492 -0.652505 0.00170314  -0.0517387 -0.704587 0.00130177  -0.0620928 -0.756508 0.000940204  -0.0725605 -0.808213 0.000619531  -0.0830588 -0.859562 0.000334859  -0.0935633 -0.910544 8.45194e-05  -0.104004 -0.961047 -0.000150561  -0.114323 -1.01099 -0.000422239  0 0 0  0.00840542 -0.00648284 0.0121715  0.0181565 -0.0200731 0.0165403  0.0282611 -0.0405955 0.0180902  0.0374014 -0.0669524 0.0179609  0.0448524 -0.0981935 0.0170563  0.0503402 -0.133746 0.0157954  0.0538357 -0.172854 0.0144204  0.0553594 -0.215042 0.0130068  0.0550534 -0.259694 0.0116284  0.0530368 -0.306436 0.0102893  0.0495119 -0.354784 0.00902152  0.0446216 -0.404463 0.00781834  0.0385766 -0.455093 0.00669575  0.0315132 -0.506474 0.00564873  0.0236261 -0.558306 0.00468743  0.0150323 -0.610448 0.00380945  0.00590253 -0.662663 0.00301874  -0.00366926 -0.71486 0.00231588  -0.013541 -0.766854 0.00170064  -0.0236475 -0.818595 0.00117218  -0.0338798 -0.869948 0.000723243  -0.0442035 -0.920909 0.000344992  -0.0545409 -0.971388 -1.90735e-06  -0.0648537 -1.02139 -0.000375867  0 0 0  0.0118901 -0.0118506 0.0179201  0.0273077 -0.0273193 0.0248765  0.0423777 -0.0484329 0.027092  0.0560876 -0.075018 0.026657  0.0676809 -0.106498 0.0252365  0.0769682 -0.142252 0.023352  0.0839291 -0.181637 0.0212754  0.0886004 -0.224093 0.0191654  0.0910945 -0.269048 0.0170792  0.0915654 -0.316066 0.0150794  0.0901955 -0.364693 0.0131685  0.0871757 -0.414605 0.011378  0.0827067 -0.465446 0.00969875  0.0769755 -0.516986 0.00815189  0.070173 -0.568944 0.00672722  0.0624647 -0.621163 0.00544071  0.054023 -0.673422 0.00428414  0.0449848 -0.725623 0.0032692  0.0355003 -0.777592 0.00238967  0.0256743 -0.829282 0.00165319  0.0156302 -0.880563 0.00104797  0.00543261 -0.931441 0.000567317  -0.00483108 -0.981854 0.000163317  -0.0151486 -1.03192 -0.000263572  0 0 0  0.0208842 -0.0205133 0.0249493  0.0395512 -0.0370284 0.0337821  0.0597081 -0.0582777 0.0361065  0.0777805 -0.0852046 0.0354129  0.0934851 -0.116839 0.0334495  0.106476 -0.152926 0.030912  0.116831 -0.192485 0.0281368  0.124496 -0.235248 0.0253077  0.12969 -0.280348 0.0225229  0.132468 -0.327606 0.0198431  0.133139 -0.376321 0.0172898  0.131807 -0.426376 0.0148932  0.128791 -0.477232 0.0126492  0.124214 -0.528808 0.0105838  0.118363 -0.580705 0.00868154  0.111364 -0.63286 0.00697172  0.103462 -0.684992 0.00543177  0.0947778 -0.737052 0.00409329  0.0855114 -0.788852 0.00293386  0.0757794 -0.840357 0.00198829  0.0657392 -0.891457 0.00122905  0.0554962 -0.942157 0.000681758  0.0451646 -0.992434 0.000274181  0.0347764 -1.04246 -8.66652e-05  0 0 0  -0.0157609 -0.0175403 -0.0179918  -0.0357833 -0.0301616 -0.0277874  -0.0572411 -0.0469085 -0.0308096  -0.0776168 -0.0682413 -0.0303665  -0.0973276 -0.0943889 -0.0281593  -0.116135 -0.124286 -0.025323  -0.134339 -0.157882 -0.0222769  -0.151819 -0.194297 -0.0194041  -0.168773 -0.233478 -0.016723  -0.185091 -0.274818 -0.0143398  -0.200917 -0.318241 -0.0121858  -0.216157 -0.363293 -0.0102909  -0.230917 -0.409866 -0.00859129  -0.245122 -0.457601 -0.00710094  -0.258852 -0.506364 -0.00577819  -0.272054 -0.555871 -0.00463283  -0.284797 -0.60598 -0.00364244  -0.297053 -0.656467 -0.00281417  -0.308887 -0.707196 -0.00213838  -0.320302 -0.757999 -0.00161815  -0.331376 -0.808762 -0.00124753  -0.342154 -0.859372 -0.00101149  -0.352752 -0.909768 -0.000865936  -0.363253 -0.959951 -0.000732899  0 0 0  -0.00712734 -0.00925889 -0.0124428  -0.0214042 -0.0227137 -0.0194063  -0.0366463 -0.0411227 -0.0216837  -0.0518241 -0.0644501 -0.0215532  -0.0669011 -0.0922101 -0.0200795  -0.0818803 -0.123871 -0.0181495  -0.0967566 -0.158866 -0.0160036  -0.111524 -0.196771 -0.0139956  -0.126129 -0.23717 -0.0120729  -0.140563 -0.279747 -0.0103873  -0.154772 -0.324182 -0.0088315  -0.168752 -0.370214 -0.00748444  -0.182458 -0.417576 -0.00625694  -0.195887 -0.466038 -0.00519812  -0.209001 -0.51537 -0.00424719  -0.221804 -0.565369 -0.00343752  -0.234269 -0.615842 -0.00273085  -0.246409 -0.666618 -0.00214911  -0.258211 -0.717537 -0.00167084  -0.269702 -0.768465 -0.00130641  -0.280888 -0.819283 -0.00103903  -0.291814 -0.869902 -0.000859857  -0.30251 -0.920255 -0.000724435  -0.313082 -0.970365 -0.000599504  0 0 0  -0.00394998 -0.00542125 -0.00774837  -0.0116737 -0.0182779 -0.0119896  -0.0209604 -0.0375181 -0.0136653  -0.0309069 -0.062035 -0.0136796  -0.0413201 -0.0910558 -0.0128236  -0.0522073 -0.123954 -0.0115918  -0.0634935 -0.160171 -0.0102414  -0.0751472 -0.199254 -0.00893509  -0.087086 -0.240781 -0.00771606  -0.0992423 -0.284414 -0.00661886  -0.111542 -0.329823 -0.00563443  -0.123921 -0.376735 -0.00476396  -0.136317 -0.424878 -0.00399351  -0.148676 -0.47402 -0.00331855  -0.16095 -0.523932 -0.00272834  -0.173096 -0.574417 -0.00222099  -0.185079 -0.625283 -0.00179017  -0.196872 -0.676368 -0.0014348  -0.208452 -0.727522 -0.00115013  -0.219808 -0.778619 -0.000933647  -0.230935 -0.829553 -0.00077796  -0.241834 -0.880239 -0.000670552  -0.252526 -0.930611 -0.00058341  -0.26305 -0.980604 -0.000491619  0 0 0  -0.00131402 -0.00446728 -0.00380814  -0.00426678 -0.0169548 -0.0058006  -0.00819498 -0.0365406 -0.00657248  -0.0130676 -0.0617658 -0.00657916  -0.0188525 -0.0916122 -0.00615621  -0.0255445 -0.125396 -0.00552249  -0.0330986 -0.162522 -0.00483465  -0.041459 -0.202531 -0.00416875  -0.0505193 -0.244967 -0.0035578  -0.0601948 -0.289483 -0.00301337  -0.0703632 -0.335718 -0.00253606  -0.0809443 -0.383397 -0.00212145  -0.0918237 -0.432225 -0.00176454  -0.102937 -0.481979 -0.001459  -0.114183 -0.532413 -0.00120068  -0.125515 -0.583345 -0.000986218  -0.136849 -0.634574 -0.000812411  -0.148153 -0.685958 -0.000676751  -0.159364 -0.737337 -0.000577211  -0.170468 -0.788612 -0.000510931  -0.181416 -0.839666 -0.00047338  -0.192214 -0.890436 -0.000458002  -0.202833 -0.940829 -0.000445724  -0.213278 -0.990746 -0.000425696  0 0 0  0.000853494 -0.00512001 0.00011003  0.00225148 -0.0179544 0.00012064  0.00320563 -0.0379726 0.000120521  0.0031966 -0.0636994 0.000160933  0.00199002 -0.0941193 0.000237942  -0.00051254 -0.128516 0.000327229  -0.00429285 -0.166317 0.000412941  -0.00928706 -0.207018 0.000479698  -0.0153859 -0.250174 0.000522614  -0.0224667 -0.295388 0.000540853  -0.0304005 -0.342306 0.000534773  -0.0390579 -0.390611 0.000508904  -0.0483172 -0.440021 0.000465631  -0.058061 -0.490281 0.00041008  -0.068185 -0.541165 0.000343442  -0.0785902 -0.59247 0.000270247  -0.0891905 -0.644015 0.000191092  -0.0999086 -0.695645 0.000108242  -0.110679 -0.747225 2.28882e-05  -0.121447 -0.79864 -6.3777e-05  -0.132169 -0.849799 -0.000151515  -0.142807 -0.900626 -0.000237346  -0.153333 -0.951047 -0.000319481  -0.163682 -1.00094 -0.000394106  0 0 0  0.00296757 -0.0070371 0.00391972  0.00865683 -0.0210159 0.00588214  0.0144012 -0.0416288 0.00663888  0.019177 -0.0677888 0.00672686  0.0224664 -0.0985953 0.00647831  0.0240933 -0.133426 0.00605679  0.0240496 -0.171698 0.00557423  0.0223994 -0.212924 0.00507259  0.0192734 -0.256617 0.00457168  0.014798 -0.302383 0.00408053  0.0091399 -0.349823 0.0036025  0.00243402 -0.398631 0.00314331  -0.00515294 -0.448487 0.00270367  -0.0134969 -0.499154 0.00228834  -0.0224465 -0.550378 0.00189829  -0.0318974 -0.601978 0.00153613  -0.0417187 -0.653754 0.0012027  -0.0518293 -0.705573 0.000900388  -0.0621212 -0.757283 0.000628233  -0.0725396 -0.808797 0.000387192  -0.0830026 -0.860008 0.000174165  -0.0934775 -0.910866 -1.46627e-05  -0.103892 -0.961296 -0.000191212  -0.114178 -1.01122 -0.000359535  0 0 0  0.00544354 -0.0104955 0.00749373  0.0156233 -0.0261499 0.0115858  0.0264377 -0.0475421 0.0131326  0.0360174 -0.0740396 0.0132316  0.0437165 -0.105102 0.0126318  0.04937 -0.140215 0.0117246  0.0529657 -0.178828 0.0106982  0.0545887 -0.220429 0.00965416  0.0543708 -0.264531 0.00862217  0.0524632 -0.310697 0.00763178  0.0490379 -0.358535 0.00668383  0.0442655 -0.407701 0.00579178  0.0383197 -0.457888 0.00495136  0.0313648 -0.50883 0.00417304  0.0235602 -0.560291 0.00345194  0.0150518 -0.61207 0.00279689  0.00597763 -0.663989 0.0022037  -0.00353956 -0.715898 0.00167823  -0.0133877 -0.767671 0.00121713  -0.0234706 -0.819204 0.000822544  -0.0337043 -0.870416 0.000487328  -0.0440195 -0.92125 0.000204802  -0.0543528 -0.971673 -5.06639e-05  -0.0646122 -1.02167 -0.000297427  0 0 0  0.00805375 -0.0159323 0.0114636  0.0242502 -0.0338114 0.0175486  0.040488 -0.0556968 0.0197303  0.054836 -0.0823627 0.0197431  0.0668038 -0.113553 0.0187936  0.0763308 -0.148862 0.0174141  0.0834406 -0.18772 0.0158682  0.0882171 -0.229609 0.0142906  0.090807 -0.274001 0.0127336  0.0913649 -0.320462 0.0112408  0.0900885 -0.368562 0.00981593  0.0871561 -0.417966 0.00848043  0.0827761 -0.468343 0.00722671  0.0771216 -0.51944 0.00607181  0.07039 -0.571003 0.00500631  0.0627348 -0.622847 0.00404489  0.0543339 -0.674783 0.00317883  0.0453167 -0.726682 0.00242043  0.0358365 -0.778408 0.00176191  0.0259967 -0.829879 0.00121331  0.0159259 -0.881011 0.000761509  0.0056994 -0.931773 0.000403285  -0.00458407 -0.982142 9.63211e-05  -0.0148773 -1.03221 -0.000181675  0 0 0  0.0165723 -0.0253969 0.0158129  0.0365431 -0.0442759 0.0237237  0.0576196 -0.065849 0.0263  0.0764988 -0.0924806 0.0262805  0.0926455 -0.12378 0.0249707  0.105944 -0.159253 0.0231647  0.116444 -0.198365 0.0210751  0.124262 -0.240477 0.0189943  0.129516 -0.285118 0.0168874  0.132417 -0.331764 0.0149103  0.133138 -0.380044 0.0129825  0.131921 -0.429554 0.0112102  0.128954 -0.480014 0.00951755  0.124475 -0.531121 0.007985  0.11866 -0.582668 0.0065515  0.111729 -0.634433 0.00527823  0.103841 -0.686268 0.00411975  0.0951877 -0.73802 0.00312221  0.085906 -0.789587 0.00225365  0.0761633 -0.840875 0.00154936  0.0660801 -0.891834 0.000983238  0.0558023 -0.942438 0.000567675  0.0454378 -0.99271 0.000242949  0.0350373 -1.04272 -4.23193e-05  0 0 0  -0.0171509 -0.0212423 -0.0110397  -0.0369633 -0.036146 -0.0172346  -0.0576203 -0.0539524 -0.0199492  -0.0785358 -0.0753305 -0.0200511  -0.0986008 -0.100753 -0.0189289  -0.117826 -0.129976 -0.0171268  -0.136149 -0.162663 -0.0151693  -0.153727 -0.198412 -0.0132363  -0.170572 -0.236878 -0.0114505  -0.186812 -0.277712 -0.00983751  -0.202438 -0.320615 -0.00839937  -0.21754 -0.365297 -0.00712526  -0.232088 -0.411489 -0.00599504  -0.24615 -0.458949 -0.00500035  -0.25969 -0.507429 -0.00412405  -0.272768 -0.556732 -0.00336516  -0.285353 -0.606632 -0.00271034  -0.297512 -0.656975 -0.00216627  -0.309229 -0.707559 -0.00171995  -0.320587 -0.758274 -0.00138211  -0.331595 -0.808951 -0.00113487  -0.342361 -0.859531 -0.000977516  -0.352935 -0.909897 -0.000873566  -0.363417 -0.960114 -0.000788569  0 0 0  -0.00699242 -0.0120829 -0.00764549  -0.0208893 -0.0277367 -0.0124367  -0.0365778 -0.047065 -0.0144455  -0.052608 -0.0704752 -0.0146289  -0.068332 -0.0978737 -0.013785  -0.0837748 -0.128934 -0.0124882  -0.0988559 -0.163284 -0.0110465  -0.11367 -0.200559 -0.00964725  -0.128195 -0.240395 -0.00834429  -0.142486 -0.28247 -0.00717854  -0.156512 -0.326473 -0.00613415  -0.170298 -0.372126 -0.00521433  -0.183807 -0.419161 -0.00439787  -0.197047 -0.467336 -0.0036819  -0.209984 -0.516421 -0.00305259  -0.222623 -0.566207 -0.00250852  -0.234939 -0.616499 -0.00204289  -0.246945 -0.667122 -0.00165486  -0.258633 -0.717918 -0.00134182  -0.270028 -0.768748 -0.00110137  -0.281144 -0.819496 -0.000928164  -0.292019 -0.870066 -0.00080955  -0.302697 -0.920401 -0.000723481  -0.313264 -0.970513 -0.000646234  0 0 0  -0.00387942 -0.00788605 -0.00481319  -0.0115616 -0.0226034 -0.00781035  -0.0211824 -0.042722 -0.00918138  -0.0317457 -0.0674507 -0.00936615  -0.042715 -0.0962878 -0.0088644  -0.0539709 -0.12875 -0.00804079  -0.0654461 -0.164466 -0.00711799  -0.0771338 -0.202997 -0.00621068  -0.0890014 -0.244031 -0.00537217  -0.101027 -0.287184 -0.00461805  -0.113156 -0.332188 -0.00394988  -0.125357 -0.378718 -0.00336075  -0.137567 -0.426545 -0.0028441  -0.149753 -0.47539 -0.00239182  -0.161857 -0.52506 -0.0019995  -0.173852 -0.575317 -0.00166214  -0.185692 -0.626004 -0.00137722  -0.197363 -0.676923 -0.00114274  -0.208831 -0.727954 -0.000956297  -0.220101 -0.77894 -0.00081563  -0.231153 -0.829801 -0.00071609  -0.242007 -0.880426 -0.000647664  -0.252667 -0.93078 -0.000593901  -0.263197 -0.980784 -0.000543833  0 0 0  -0.00139245 -0.00652358 -0.00236475  -0.00437637 -0.0207708 -0.00382221  -0.00865355 -0.0412021 -0.00448954  -0.0139449 -0.0667275 -0.00458026  -0.020101 -0.096518 -0.00432491  -0.027045 -0.130008 -0.00390232  -0.03473 -0.166738 -0.00342774  -0.0431043 -0.20628 -0.00296462  -0.0521104 -0.24827 -0.00254071  -0.0616691 -0.29234 -0.00216627  -0.0717045 -0.338183 -0.00184071  -0.0821267 -0.38549 -0.00156093  -0.0928586 -0.434 -0.00132191  -0.103814 -0.483454 -0.0011189  -0.114926 -0.533638 -0.000948429  -0.12612 -0.584337 -0.000807524  -0.137343 -0.635378 -0.000694275  -0.148536 -0.686588 -0.000606894  -0.159663 -0.737834 -0.000543475  -0.170684 -0.788989 -0.000502944  -0.181581 -0.839959 -0.000480771  -0.192331 -0.890659 -0.00047338  -0.202933 -0.941026 -0.000470161  -0.21338 -0.990961 -0.000467181  0 0 0  0.000686511 -0.00693434 -1.56164e-05  0.00180206 -0.0214801 -5.34058e-05  0.00248048 -0.0423159 -7.29561e-05  0.00224453 -0.0683882 -5.19753e-05  0.000854671 -0.0988245 -1.19209e-06  -0.00176251 -0.133016 6.61612e-05  -0.00559103 -0.170494 0.00013113  -0.0105727 -0.21079 0.00018537  -0.0166086 -0.253538 0.000221968  -0.0235975 -0.298334 0.000239134  -0.0314143 -0.344874 0.000238538  -0.0399506 -0.392813 0.000222087  -0.0490812 -0.441904 0.000193238  -0.0587065 -0.491862 0.000154734  -0.0687124 -0.54249 0.0001086  -0.0790156 -0.593553 5.73397e-05  -0.0895185 -0.644903 2.26498e-06  -0.100158 -0.696349 -5.53131e-05  -0.110856 -0.747787 -0.000114679  -0.12157 -0.799072 -0.000174761  -0.132243 -0.85014 -0.000234962  -0.142853 -0.900888 -0.000294209  -0.153357 -0.951279 -0.000350237  -0.16372 -1.00118 -0.000403404  0 0 0  0.00274746 -0.0088281 0.00228095  0.00788125 -0.0244042 0.00361085  0.0134147 -0.0458477 0.0042181  0.0181221 -0.0723638 0.0043422  0.0214018 -0.103217 0.00420523  0.0230506 -0.137881 0.00393653  0.0230366 -0.175867 0.00361991  0.0214427 -0.216722 0.00328779  0.0183811 -0.260033 0.00295556  0.0139952 -0.305399 0.00262904  0.00842583 -0.352472 0.00231135  0.00182545 -0.400918 0.00200474  -0.00566733 -0.450456 0.00171125  -0.013909 -0.500818 0.00143266  -0.0227747 -0.551781 0.00117135  -0.0321383 -0.603132 0.000927687  -0.0418949 -0.654702 0.00070405  -0.0519388 -0.706329 0.00050056  -0.0621886 -0.757888 0.00031805  -0.0725617 -0.809265 0.000156283  -0.0830011 -0.860378 1.35899e-05  -0.0934482 -0.911155 -0.00011313  -0.103858 -0.961553 -0.000229478  -0.114148 -1.0115 -0.000341415  0 0 0  0.00503148 -0.0123808 0.00449765  0.0146587 -0.0295969 0.00724614  0.0252028 -0.0517812 0.00846636  0.0348697 -0.07862 0.00867844  0.0427091 -0.109726 0.00833952  0.0484909 -0.144669 0.00775576  0.0521919 -0.183002 0.00707579  0.0538986 -0.224248 0.00637662  0.053762 -0.267979 0.00568819  0.0519323 -0.313762 0.00502563  0.0485907 -0.361238 0.00439382  0.0438981 -0.41005 0.00379741  0.0380353 -0.459919 0.00323725  0.0311548 -0.510555 0.00271642  0.0234228 -0.56175 0.00223541  0.0149736 -0.613275 0.0017966  0.0059545 -0.664981 0.00140035  -0.00352407 -0.716691 0.00104821  -0.0133376 -0.768305 0.000740647  -0.023401 -0.819695 0.000477195  -0.0336158 -0.870807 0.000254273  -0.0439243 -0.921561 6.54459e-05  -0.05425 -0.971952 -0.000102162  -0.0645278 -1.02196 -0.000261307  0 0 0  0.00790401 -0.0181633 0.00684047  0.0230081 -0.0375148 0.0109986  0.0390461 -0.0601298 0.012776  0.0535787 -0.0870545 0.0129968  0.0657856 -0.118216 0.0124645  0.0755213 -0.153309 0.0115683  0.082773 -0.191863 0.0105458  0.0876609 -0.233395 0.00948954  0.0903351 -0.277421 0.00845313  0.0909758 -0.323505 0.0074544  0.0897707 -0.371252 0.00650775  0.0869161 -0.42031 0.00561535  0.0826024 -0.470372 0.0047828  0.0770189 -0.521167 0.00401103  0.0703421 -0.572462 0.00330305  0.0627441 -0.624055 0.00265992  0.0543802 -0.675774 0.00208437  0.0454009 -0.727475 0.00157726  0.0359387 -0.779038 0.00114059  0.0261195 -0.830371 0.000774264  0.0160522 -0.881401 0.000475407  0.00583649 -0.932091 0.000234842  -0.00445223 -0.982431 3.19481e-05  -0.0147519 -1.03249 -0.000157833  0 0 0  0.0161732 -0.0280085 0.00952339  0.0357352 -0.0483684 0.0147417  0.0561979 -0.0707287 0.016831  0.0751306 -0.0973864 0.0171781  0.0914786 -0.128478 0.0164695  0.104957 -0.163671 0.0153311  0.11562 -0.202409 0.0139811  0.123546 -0.24416 0.0125991  0.128904 -0.288412 0.011218  0.131887 -0.334696 0.00989842  0.132696 -0.382616 0.00863385  0.131557 -0.431795 0.0074513  0.128673 -0.481938 0.00634122  0.124266 -0.532755 0.00531852  0.118526 -0.584034 0.0043788  0.111655 -0.635558 0.00352788  0.103826 -0.687178 0.00276947  0.0952144 -0.738741 0.00210261  0.0859756 -0.790152 0.00153589  0.0762599 -0.841314 0.00106394  0.0662086 -0.892187 0.000693798  0.0559454 -0.942734 0.000406265  0.0455923 -0.992993 0.000187278  0.0352111 -1.04303 -1.34706e-05  0 0 0  -0.0176713 -0.0236219 -0.00516748  -0.0368137 -0.0394048 -0.00837076  -0.0579612 -0.0574876 -0.00981724  -0.078779 -0.079093 -0.0100574  -0.0990743 -0.104362 -0.00961339  -0.118385 -0.133288 -0.00879872  -0.136887 -0.165581 -0.00786746  -0.154484 -0.200941 -0.00692785  -0.171388 -0.239035 -0.00605249  -0.187561 -0.279541 -0.00525689  -0.203168 -0.322158 -0.00454772  -0.218164 -0.366589 -0.00391853  -0.232665 -0.41257 -0.00336218  -0.246616 -0.459837 -0.00287223  -0.260106 -0.508164 -0.00244176  -0.273085 -0.557319 -0.0020684  -0.285631 -0.60711 -0.00174809  -0.297711 -0.657339 -0.00148118  -0.309408 -0.707853 -0.00126433  -0.320714 -0.758485 -0.00109911  -0.331725 -0.809126 -0.000979662  -0.342472 -0.859652 -0.000902653  -0.353071 -0.910018 -0.000852108  -0.363604 -0.960207 -0.000810981  0 0 0  -0.00721677 -0.013505 -0.00363624  -0.021096 -0.0301745 -0.00608039  -0.0368621 -0.0501364 -0.00721848  -0.0529758 -0.0737978 -0.00744367  -0.068975 -0.101128 -0.00710058  -0.0845974 -0.131939 -0.00649917  -0.0998377 -0.165969 -0.00579691  -0.114695 -0.202902 -0.00510919  -0.129231 -0.242416 -0.0044626  -0.143461 -0.284196 -0.00388563  -0.15742 -0.327938 -0.0033685  -0.171106 -0.373361 -0.00291479  -0.184524 -0.420196 -0.00251222  -0.197661 -0.468196 -0.00216031  -0.210509 -0.51713 -0.00185108  -0.223058 -0.566784 -0.00158429  -0.235299 -0.616964 -0.00135684  -0.247234 -0.667492 -0.0011673  -0.258866 -0.71821 -0.00101542  -0.270214 -0.768976 -0.000898957  -0.281295 -0.819676 -0.000816226  -0.29215 -0.870215 -0.000759721  -0.302811 -0.920537 -0.000719547  -0.313382 -0.970666 -0.000684142  0 0 0  -0.00381386 -0.00887017 -0.00231183  -0.0114872 -0.0246591 -0.00387073  -0.0213194 -0.0455084 -0.00465536  -0.0321319 -0.0705056 -0.00482643  -0.0433679 -0.0993205 -0.00462556  -0.0548276 -0.131605 -0.00424159  -0.0664302 -0.167045 -0.003793  -0.0781663 -0.205292 -0.00334656  -0.0900249 -0.246026 -0.00293195  -0.101995 -0.288915 -0.00255954  -0.114048 -0.333664 -0.00223029  -0.126154 -0.379979 -0.00194108  -0.13827 -0.427603 -0.001688  -0.150357 -0.47628 -0.00146711  -0.162373 -0.525793 -0.00127566  -0.174281 -0.575923 -0.00111151  -0.186047 -0.626491 -0.000973344  -0.197647 -0.677318 -0.000859976  -0.209059 -0.728264 -0.000770688  -0.220277 -0.77919 -0.000703931  -0.231295 -0.829997 -0.000657439  -0.24212 -0.880593 -0.000626445  -0.252771 -0.930929 -0.000603914  -0.263294 -0.980952 -0.000584483  0 0 0  -0.00139198 -0.0073837 -0.00115299  -0.00444241 -0.022574 -0.00191855  -0.00887939 -0.0437212 -0.00231028  -0.0143979 -0.0695555 -0.00240636  -0.0207502 -0.0993792 -0.00231111  -0.0278447 -0.132756 -0.00212049  -0.0356104 -0.169266 -0.00189459  -0.0440165 -0.208568 -0.00167179  -0.0529983 -0.250288 -0.00146544  -0.0625108 -0.294114 -0.00128472  -0.0724689 -0.339712 -0.00112748  -0.0828142 -0.386809 -0.000993729  -0.0934544 -0.435115 -0.000879407  -0.104331 -0.484402 -0.000783324  -0.115356 -0.534423 -0.0007025  -0.12648 -0.584993 -0.000636816  -0.137629 -0.635909 -0.000584006  -0.148768 -0.687024 -0.000544071  -0.159837 -0.738179 -0.000515461  -0.170822 -0.78927 -0.000498533  -0.18168 -0.840182 -0.000490904  -0.192411 -0.89085 -0.00048995  -0.202998 -0.941199 -0.000492096  -0.213454 -0.991158 -0.000495553  0 0 0  0.000626206 -0.00766093 -3.86238e-05  0.00159568 -0.0231039 -8.24928e-05  0.00210297 -0.044657 -0.00011611  0.00171804 -0.071046 -0.000124335  0.000213504 -0.101561 -0.000114202  -0.0024758 -0.13568 -9.33409e-05  -0.00634038 -0.172983 -7.06911e-05  -0.0113205 -0.213069 -5.17368e-05  -0.0173292 -0.255575 -4.05312e-05  -0.0242674 -0.30014 -3.83854e-05  -0.0320235 -0.346446 -4.47035e-05  -0.0404882 -0.394178 -5.85318e-05  -0.0495489 -0.443069 -7.79629e-05  -0.0591005 -0.492856 -0.000101686  -0.0690415 -0.54332 -0.000128984  -0.0792804 -0.594249 -0.000158429  -0.08973 -0.64547 -0.000189304  -0.100318 -0.696815 -0.000221133  -0.110976 -0.748158 -0.000253677  -0.121655 -0.799374 -0.000286341  -0.132304 -0.85038 -0.000319362  -0.142893 -0.901093 -0.000350952  -0.153393 -0.951466 -0.000382304  -0.163762 -1.0014 -0.000412464  0 0 0  0.00260834 -0.00955522 0.00104558  0.00755137 -0.0259798 0.00169718  0.012894 -0.0481015 0.0020113  0.0175194 -0.0749457 0.00208342  0.0207723 -0.105888 0.00201643  0.0224155 -0.140502 0.00187755  0.0224223 -0.178337 0.0017122  0.0208529 -0.219004 0.00153899  0.017836 -0.26209 0.00136578  0.013494 -0.307239 0.00119662  0.00798488 -0.354085 0.00103211  0.0014379 -0.402331 0.000874281  -0.00599015 -0.451669 0.000723124  -0.0141795 -0.501861 0.000580549  -0.0229855 -0.552657 0.000446439  -0.0323058 -0.603871 0.000321865  -0.0420129 -0.655308 0.000207186  -0.0520253 -0.706831 0.000103235  -0.0622375 -0.75829 9.89437e-06  -0.0725918 -0.809595 -7.28369e-05  -0.0830061 -0.860642 -0.00014627  -0.0934453 -0.911384 -0.000211239  -0.103846 -0.961761 -0.000271082  -0.114153 -1.01173 -0.000328422  0 0 0  0.00488748 -0.0131619 0.00208712  0.0142122 -0.0312299 0.00345409  0.0245945 -0.0540606 0.00411046  0.034188 -0.0811836 0.00425637  0.0420601 -0.112369 0.00410545  0.0479043 -0.147253 0.00381732  0.0516628 -0.185446 0.00347376  0.0534279 -0.226507 0.00311875  0.0533396 -0.270028 0.00276887  0.0515625 -0.315597 0.0024327  0.0482683 -0.362859 0.00211275  0.0436287 -0.411471 0.00181115  0.0378129 -0.461146 0.00152826  0.0309826 -0.51161 0.00126541  0.0232917 -0.562642 0.00102282  0.0148849 -0.614027 0.000801444  0.00589681 -0.6656 0.000601768  -0.00355005 -0.717202 0.000424147  -0.0133433 -0.768716 0.000269294  -0.0233855 -0.820032 0.000136256  -0.0335891 -0.871079 2.34842e-05  -0.0438857 -0.921795 -7.22408e-05  -0.0542123 -0.972165 -0.000157237  -0.064497 -1.02218 -0.000237942  0 0 0  0.00758784 -0.019167 0.00317776  0.0226031 -0.0393286 0.00524449  0.0384115 -0.0624852 0.00621724  0.0528341 -0.0896476 0.00640655  0.0651019 -0.120848 0.00617707  0.0749213 -0.155864 0.00574219  0.0822608 -0.194266 0.00523126  0.0872166 -0.235611 0.00470245  0.0899543 -0.279428 0.00418019  0.090643 -0.325306 0.00368023  0.0894929 -0.372843 0.00320399  0.0866814 -0.421708 0.00275838  0.0824193 -0.47158 0.00234056  0.0768746 -0.522207 0.00195551  0.0702444 -0.573341 0.00160074  0.0626774 -0.624795 0.00128007  0.0543516 -0.676384 0.000991583  0.0453939 -0.727978 0.00073874  0.0359602 -0.779444 0.000519872  0.0261548 -0.830704 0.000337243  0.0161088 -0.881673 0.000186443  0.00589943 -0.932329 6.49691e-05  -0.00438094 -0.982648 -3.8743e-05  -0.0146914 -1.03273 -0.000135899  0 0 0  0.0167003 -0.0301527 0.00440764  0.0353275 -0.0507452 0.00701082  0.0555923 -0.0732462 0.00818002  0.0743341 -0.100074 0.00843835  0.0906804 -0.131141 0.00815666  0.10424 -0.166198 0.007617  0.114977 -0.20476 0.00695848  0.122981 -0.246303 0.00627148  0.1284 -0.290343 0.00558746  0.131444 -0.336418 0.00492918  0.132307 -0.38413 0.00430191  0.131223 -0.433118 0.00371265  0.128392 -0.483076 0.00316191  0.124037 -0.533729 0.00265348  0.118344 -0.584851 0.00218689  0.11152 -0.63624 0.00176442  0.10373 -0.687734 0.0013876  0.0951579 -0.739195 0.00105703  0.0859511 -0.790515 0.000775337  0.0762691 -0.841612 0.000540733  0.0662429 -0.892433 0.000354648  0.0560086 -0.942958 0.000210524  0.0456762 -0.993209 9.81092e-05  0.0352831 -1.04326 -6.91414e-06  0 0 0  -0.0178662 -0.0238938 -3.62396e-05  -0.0376006 -0.0402274 -9.63211e-05  -0.0580893 -0.0587335 -0.000182986  -0.079012 -0.0803253 -0.000273824  -0.0992168 -0.105591 -0.000358701  -0.118644 -0.134431 -0.000432611  -0.137107 -0.166613 -0.00049603  -0.154785 -0.201858 -0.00054884  -0.171642 -0.239828 -0.000593305  -0.187856 -0.280238 -0.000630021  -0.203405 -0.322751 -0.000661373  -0.218419 -0.36711 -0.000686884  -0.23286 -0.413009 -0.000709295  -0.24682 -0.460226 -0.000727773  -0.260255 -0.508487 -0.000743508  -0.273241 -0.557608 -0.000756383  -0.285739 -0.607346 -0.000767708  -0.297828 -0.657556 -0.000777602  -0.309487 -0.708026 -0.000785708  -0.320806 -0.758651 -0.00079298  -0.331791 -0.809258 -0.000799656  -0.342553 -0.859793 -0.000805736  -0.353135 -0.910137 -0.000812054  -0.363639 -0.960362 -0.000818491  0 0 0  -0.00690948 -0.0139041 -3.37362e-05  -0.0208722 -0.0310047 -8.59499e-05  -0.0367126 -0.0511889 -0.00015676  -0.0530218 -0.0749126 -0.000232458  -0.0690788 -0.102248 -0.000304699  -0.084816 -0.132992 -0.000368476  -0.100092 -0.166933 -0.000423431  -0.115001 -0.203757 -0.000470519  -0.129533 -0.243172 -0.000509977  -0.143769 -0.284852 -0.000543475  -0.157701 -0.328511 -0.000571489  -0.171372 -0.373855 -0.00059545  -0.184757 -0.420625 -0.000615597  -0.197873 -0.468565 -0.000632763  -0.210689 -0.517449 -0.000647068  -0.223217 -0.567057 -0.000658989  -0.235433 -0.6172 -0.000669599  -0.247351 -0.667695 -0.000678897  -0.258964 -0.718386 -0.000686765  -0.270301 -0.769131 -0.000693679  -0.281374 -0.819813 -0.000700116  -0.292222 -0.870341 -0.000706434  -0.302887 -0.920658 -0.000712037  -0.313458 -0.970784 -0.000718594  0 0 0  -0.00381172 -0.0092214 -3.18289e-05  -0.0115177 -0.0253223 -7.65324e-05  -0.021342 -0.0463887 -0.000133395  -0.0322404 -0.0715097 -0.00019455  -0.0435513 -0.100353 -0.000253081  -0.055084 -0.132589 -0.000306368  -0.0667308 -0.167961 -0.000353098  -0.0784933 -0.206114 -0.000393748  -0.0903525 -0.246761 -0.000428319  -0.102314 -0.289558 -0.000458002  -0.114344 -0.334232 -0.000483394  -0.126427 -0.380469 -0.00050509  -0.138511 -0.428033 -0.000523329  -0.150574 -0.476648 -0.000538707  -0.162558 -0.526115 -0.000551939  -0.174443 -0.576196 -0.000563025  -0.186182 -0.626731 -0.000572681  -0.197764 -0.677521 -0.000581264  -0.209156 -0.728445 -0.000588536  -0.220362 -0.779344 -0.000595093  -0.231366 -0.830139 -0.00060153  -0.242187 -0.880719 -0.000607133  -0.252831 -0.931057 -0.000612974  -0.263365 -0.981079 -0.000619054  0 0 0  -0.0014003 -0.00764361 -3.0756e-05  -0.00447288 -0.023174 -6.99759e-05  -0.00895759 -0.0445342 -0.000115037  -0.0145323 -0.0704944 -0.000162244  -0.0209509 -0.100358 -0.000207663  -0.028095 -0.133699 -0.000249982  -0.0358982 -0.170159 -0.000288129  -0.0443151 -0.209375 -0.000322223  -0.0533012 -0.251021 -0.00035131  -0.0627965 -0.294759 -0.00037694  -0.0727403 -0.340287 -0.000398874  -0.0830563 -0.387306 -0.000417709  -0.0936767 -0.435556 -0.000433445  -0.104522 -0.484778 -0.000447154  -0.115528 -0.534755 -0.00045836  -0.126623 -0.585274 -0.000468254  -0.137757 -0.636156 -0.000476718  -0.14887 -0.687232 -0.000484467  -0.15993 -0.738365 -0.000490785  -0.170895 -0.789427 -0.000496745  -0.181749 -0.840327 -0.000502825  -0.192467 -0.890978 -0.000508308  -0.203057 -0.941329 -0.000513434  -0.213511 -0.991286 -0.000519753  0 0 0  0.000599533 -0.00789791 -3.15905e-05  0.00152394 -0.0236674 -6.49691e-05  0.00198168 -0.0454186 -9.97782e-05  0.00154918 -0.0719429 -0.000134587  6.85453e-06 -0.102501 -0.000168204  -0.0027104 -0.136601 -0.000200272  -0.0065884 -0.173863 -0.000229716  -0.0115736 -0.213878 -0.0002563  -0.0175749 -0.256316 -0.000279903  -0.0245022 -0.300801 -0.000300884  -0.0322382 -0.347039 -0.000318646  -0.0406849 -0.394697 -0.000333786  -0.0497212 -0.44353 -0.00034678  -0.0592544 -0.493253 -0.000357747  -0.0691718 -0.543671 -0.000367045  -0.0793937 -0.594548 -0.000375152  -0.0898232 -0.645734 -0.000382066  -0.100399 -0.697039 -0.000388145  -0.111042 -0.748358 -0.000393867  -0.121711 -0.799544 -0.000398874  -0.13235 -0.850537 -0.000404119  -0.142936 -0.901234 -0.000408888  -0.15343 -0.951606 -0.000414014  -0.163805 -1.00154 -0.000419736  0 0 0  0.00258632 -0.00978243 -3.46899e-05  0.00743556 -0.026513 -6.34193e-05  0.012728 -0.0488329 -8.83341e-05  0.0173128 -0.0758044 -0.000111103  0.0205488 -0.106798 -0.000133514  0.0221948 -0.141401 -0.00015533  0.0222015 -0.179203 -0.000176191  0.0206449 -0.219806 -0.000195503  0.0176344 -0.26283 -0.000213027  0.0133108 -0.307902 -0.000228405  0.00781274 -0.354684 -0.000241876  0.00128806 -0.402856 -0.000252962  -0.00612783 -0.452138 -0.000262499  -0.0142941 -0.502266 -0.000270486  -0.0230893 -0.553015 -0.0002774  -0.0323886 -0.604177 -0.000283003  -0.042088 -0.655578 -0.000288129  -0.0520825 -0.707059 -0.000292659  -0.0622911 -0.758493 -0.000296831  -0.0726314 -0.809767 -0.000301123  -0.0830452 -0.860801 -0.000305176  -0.0934746 -0.911524 -0.000309587  -0.10388 -0.961901 -0.000313997  -0.114182 -1.01187 -0.000319719  0 0 0  0.00482737 -0.0134315 -4.05312e-05  0.0140949 -0.0317727 -6.62804e-05  0.0243742 -0.0547795 -8.01086e-05  0.0339604 -0.0820321 -9.03606e-05  0.0418319 -0.113264 -0.000101566  0.0476912 -0.148146 -0.000113368  0.0514712 -0.186302 -0.000125885  0.0532498 -0.227309 -0.000137806  0.0531812 -0.270765 -0.00014925  0.0514153 -0.316264 -0.000159144  0.0481399 -0.363461 -0.00016737  0.043512 -0.412005 -0.000174522  0.0377148 -0.461621 -0.000180125  0.0308956 -0.512026 -0.000184894  0.0232217 -0.563008 -0.000188589  0.0148237 -0.614343 -0.000191808  0.00585008 -0.665878 -0.000194788  -0.00359082 -0.71744 -0.000197411  -0.0133727 -0.768927 -0.000200152  -0.0234118 -0.820213 -0.000202894  -0.0336077 -0.871245 -0.000206113  -0.0439038 -0.921944 -0.000209808  -0.0542262 -0.972314 -0.000213861  -0.0645156 -1.02233 -0.000218511  0 0 0  0.00772022 -0.019565 -4.92334e-05  0.0224424 -0.040003 -6.8903e-05  0.0381345 -0.063263 -7.16448e-05  0.0525718 -0.0905058 -6.87838e-05  0.0648445 -0.121741 -6.9499e-05  0.0746964 -0.156745 -7.236e-05  0.0820607 -0.195107 -7.71284e-05  0.0870422 -0.236395 -8.21352e-05  0.0897954 -0.280149 -8.72612e-05  0.0905046 -0.325959 -9.11951e-05  0.0893651 -0.373432 -9.48906e-05  0.0865725 -0.42223 -9.7394e-05  0.0823197 -0.472045 -9.94205e-05  0.0767936 -0.522614 -0.000100374  0.0701704 -0.5737 -0.000100732  0.0626202 -0.625106 -0.000101089  0.0542989 -0.676657 -0.000101686  0.0453558 -0.728213 -0.000102282  0.0359244 -0.779651 -0.000103235  0.0261316 -0.830884 -0.000104785  0.0160859 -0.881839 -0.000106812  0.00588536 -0.93248 -0.000109553  -0.00439787 -0.982799 -0.00011313  -0.0147035 -1.03288 -0.00011754  0 0 0  0.0163309 -0.0302132 -5.11408e-05  0.0353281 -0.051469 -6.4373e-05  0.0553443 -0.0742001 -5.56707e-05  0.0740708 -0.100994 -4.22001e-05  0.0904088 -0.132048 -3.27826e-05  0.103978 -0.167078 -2.80142e-05  0.114743 -0.20558 -2.52724e-05  0.122766 -0.247065 -2.44379e-05  0.128209 -0.291036 -2.31266e-05  0.131269 -0.337044 -2.26498e-05  0.132152 -0.384691 -2.13385e-05  0.131083 -0.433616 -2.00272e-05  0.128269 -0.483517 -1.77622e-05  0.123929 -0.534115 -1.57356e-05  0.118253 -0.585189 -1.27554e-05  0.111441 -0.636533 -1.04904e-05  0.103667 -0.68799 -8.34465e-06  0.0951049 -0.739416 -7.03335e-06  0.0859118 -0.790711 -6.07967e-06  0.0762382 -0.841783 -6.07967e-06  0.066226 -0.892593 -7.15256e-06  0.0559955 -0.943104 -8.82149e-06  0.0456665 -0.993357 -1.22786e-05  0.0352929 -1.04341 -1.65701e-05  0 0 0  -0.0176826 -0.0236229 0.00510824  -0.0368445 -0.0394214 0.00818574  -0.0580008 -0.0575348 0.00945342  -0.0788198 -0.0791701 0.0095042  -0.0991108 -0.104468 0.00888836  -0.118417 -0.133416 0.00792623  -0.136918 -0.165726 0.00687027  -0.154515 -0.201099 0.00582635  -0.171421 -0.239202 0.00486398  -0.187598 -0.279715 0.00399518  -0.20321 -0.322337 0.00322461  -0.21821 -0.366772 0.00254369  -0.232715 -0.412755 0.00194407  -0.24667 -0.460025 0.00141704  -0.260164 -0.508352 0.000955939  -0.273145 -0.557508 0.000556469  -0.285694 -0.6073 0.000213742  -0.297775 -0.65753 -7.25985e-05  -0.309474 -0.708043 -0.000306249  -0.320781 -0.758675 -0.000486016  -0.331793 -0.809316 -0.000618696  -0.342541 -0.859843 -0.000708342  -0.35314 -0.910209 -0.000770926  -0.363673 -0.960397 -0.00082469  0 0 0  -0.00722153 -0.0135139 0.00357735  -0.0211055 -0.0302015 0.00591719  -0.0368762 -0.0501894 0.00690877  -0.0529914 -0.0738793 0.00697672  -0.0689899 -0.101234 0.00648761  -0.0846123 -0.132065 0.00575888  -0.0998541 -0.166111 0.00494778  -0.114715 -0.203056 0.00416708  -0.129255 -0.242579 0.00344253  -0.143491 -0.284365 0.00279868  -0.157455 -0.328114 0.00222588  -0.171146 -0.37354 0.0017246  -0.184569 -0.420378 0.00128198  -0.197711 -0.46838 0.000895858  -0.210564 -0.517316 0.000558138  -0.223115 -0.566972 0.00026691  -0.23536 -0.617153 1.80006e-05  -0.247297 -0.667681 -0.000189781  -0.258931 -0.7184 -0.000357389  -0.27028 -0.769167 -0.000488162  -0.281363 -0.819867 -0.00058341  -0.292218 -0.870405 -0.000652313  -0.30288 -0.920728 -0.000704288  -0.313452 -0.970857 -0.000752687  0 0 0  -0.0038114 -0.00888847 0.00225115  -0.0114869 -0.0246969 0.00372207  -0.0213187 -0.045568 0.00439  -0.0321321 -0.0705884 0.00443757  -0.0433692 -0.099425 0.00411856  -0.0548315 -0.131728 0.00362825  -0.0664384 -0.167183 0.00308657  -0.0781801 -0.205441 0.00255966  -0.0900449 -0.246185 0.00207615  -0.102021 -0.28908 0.00164425  -0.114081 -0.333835 0.00126493  -0.126192 -0.380154 0.000932336  -0.138314 -0.427782 0.000642538  -0.150406 -0.476462 0.000390768  -0.162426 -0.525977 0.000172973  -0.174338 -0.576108 -1.35899e-05  -0.186107 -0.626678 -0.000171304  -0.197709 -0.677506 -0.000301719  -0.209124 -0.728453 -0.000405669  -0.220344 -0.779379 -0.000486016  -0.231362 -0.830187 -0.000544786  -0.242188 -0.880783 -0.000587463  -0.25284 -0.93112 -0.000621557  -0.263363 -0.981143 -0.000653982  0 0 0  -0.0013899 -0.0074077 0.00109351  -0.00443766 -0.0226198 0.00178123  -0.00887266 -0.0437858 0.00208151  -0.014391 -0.0696391 0.00208306  -0.0207456 -0.0994824 0.0018965  -0.0278441 -0.132876 0.00162113  -0.0356154 -0.1694 0.00131929  -0.0440279 -0.208713 0.0010289  -0.0530165 -0.250442 0.000764132  -0.0625354 -0.294275 0.000532269  -0.0725001 -0.339879 0.000331283  -0.0828518 -0.386981 0.000159979  -0.0934975 -0.435291 1.37091e-05  -0.104379 -0.484581 -0.000109315  -0.115409 -0.534606 -0.000212908  -0.126538 -0.585177 -0.000298858  -0.137689 -0.636094 -0.000368834  -0.148831 -0.687211 -0.000423789  -0.159902 -0.738367 -0.000465631  -0.170888 -0.78946 -0.000494599  -0.181747 -0.840371 -0.00051403  -0.19248 -0.89104 -0.000526071  -0.203066 -0.941389 -0.000535131  -0.213523 -0.991348 -0.000543475  0 0 0  0.000628427 -0.00769067 -2.36034e-05  0.00160044 -0.0231548 -4.74453e-05  0.0021106 -0.0447238 -8.35657e-05  0.00172555 -0.071129 -0.000144601  0.000218809 -0.101662 -0.00022161  -0.00247478 -0.135796 -0.000306249  -0.00634509 -0.173112 -0.000387788  -0.0113315 -0.21321 -0.00045979  -0.0173472 -0.255724 -0.000517845  -0.0242919 -0.300298 -0.000561476  -0.0320544 -0.346609 -0.000590801  -0.0405253 -0.394347 -0.000607729  -0.0495915 -0.443242 -0.000614405  -0.0591489 -0.493032 -0.000612378  -0.0690943 -0.543499 -0.000604033  -0.0793371 -0.594431 -0.000590801  -0.0897901 -0.645654 -0.000573993  -0.100381 -0.697001 -0.000554323  -0.111042 -0.748345 -0.000533223  -0.121722 -0.799562 -0.00051105  -0.132372 -0.850569 -0.0004884  -0.142962 -0.901283 -0.000466585  -0.153461 -0.951656 -0.00044632  -0.163831 -1.00159 -0.000427127  0 0 0  0.00261079 -0.00958788 -0.00111592  0.00755593 -0.0260322 -0.00182593  0.0129009 -0.0481686 -0.00218916  0.0175263 -0.0750275 -0.00230598  0.0207769 -0.105985 -0.00228286  0.0224158 -0.140614 -0.00218737  0.0224171 -0.178462 -0.00206351  0.0208416 -0.219141 -0.00192869  0.0178182 -0.262235 -0.0017904  0.0134698 -0.307392 -0.00165188  0.00795424 -0.354245 -0.00151408  0.00140107 -0.402496 -0.00137877  -0.00603259 -0.451839 -0.00124705  -0.0142273 -0.502035 -0.00112057  -0.0230379 -0.552834 -0.000999808  -0.0323623 -0.604052 -0.000886917  -0.0420728 -0.655491 -0.000782609  -0.0520883 -0.707015 -0.000687718  -0.0623026 -0.758477 -0.000602961  -0.0726588 -0.809783 -0.000528574  -0.0830743 -0.860832 -0.000463963  -0.0935144 -0.911574 -0.000407577  -0.103915 -0.961951 -0.000356793  -0.114223 -1.01192 -0.000309706  0 0 0  0.00489002 -0.013194 -0.00217164  0.0142179 -0.03128 -0.00359094  0.0246046 -0.0541252 -0.00427341  0.0341972 -0.0812634 -0.00443792  0.0420663 -0.112464 -0.00430763  0.0479059 -0.147362 -0.00404358  0.051659 -0.185568 -0.00372446  0.0534183 -0.226639 -0.00339329  0.0533234 -0.270169 -0.00306559  0.05154 -0.315747 -0.00274932  0.0482394 -0.363015 -0.00244617  0.043594 -0.411633 -0.00215864  0.0377721 -0.461314 -0.00188744  0.0309362 -0.511782 -0.00163388  0.0232406 -0.562817 -0.0013994  0.0148296 -0.614206 -0.00118411  0.00583768 -0.665781 -0.000990391  -0.00361228 -0.717385 -0.000817895  -0.0134079 -0.768902 -0.000668645  -0.0234523 -0.820219 -0.000541568  -0.0336576 -0.871268 -0.000435352  -0.0439551 -0.921984 -0.000346661  -0.0542824 -0.972355 -0.000270128  -0.0645669 -1.02237 -0.000198483  0 0 0  0.00759389 -0.0191936 -0.0032872  0.0226158 -0.0393766 -0.00538969  0.0384308 -0.0625478 -0.00636375  0.052851 -0.089726 -0.00654447  0.065114 -0.120942 -0.00631559  0.0749277 -0.155971 -0.00588596  0.0822613 -0.194385 -0.00538492  0.087211 -0.235741 -0.00486493  0.0899423 -0.279568 -0.0043534  0.0906248 -0.325454 -0.00386119  0.0894678 -0.372998 -0.00339282  0.0866498 -0.421869 -0.0029515  0.0823818 -0.471746 -0.00253808  0.0768315 -0.522378 -0.00215447  0.0701962 -0.573516 -0.00180149  0.0626242 -0.624974 -0.00148129  0.0542943 -0.676565 -0.00119388  0.0453331 -0.728162 -0.000942111  0.0358965 -0.77963 -0.000725389  0.026089 -0.830891 -0.000545979  0.016041 -0.881862 -0.00039959  0.00583029 -0.932519 -0.000283837  -0.00445056 -0.982838 -0.000186801  -0.0147614 -1.03292 -9.89437e-05  0 0 0  0.016714 -0.0301678 -0.00452912  0.0353541 -0.0507839 -0.0071547  0.0556288 -0.0733036 -0.0082972  0.0743654 -0.100149 -0.00852251  0.0907041 -0.131231 -0.00822318  0.104256 -0.166302 -0.00767207  0.114987 -0.204876 -0.0070101  0.122984 -0.246432 -0.00631905  0.128397 -0.29048 -0.00563455  0.131433 -0.336564 -0.00497305  0.13229 -0.384283 -0.00434422  0.131199 -0.433278 -0.00375092  0.128361 -0.48324 -0.00319695  0.123999 -0.533899 -0.00268269  0.118301 -0.585024 -0.00221205  0.111471 -0.636418 -0.00178444  0.103677 -0.687914 -0.00140393  0.0951006 -0.739378 -0.00107014  0.0858901 -0.790701 -0.000786304  0.076205 -0.8418 -0.000552416  0.0661776 -0.892622 -0.000367999  0.0559404 -0.943148 -0.000227928  0.0456071 -0.993399 -0.000120759  0.0352123 -1.04346 -2.5034e-05  0 0 0  -0.0171281 -0.021257 0.0110245  -0.03701 -0.0361652 0.0171188  -0.0576838 -0.0540301 0.0195956  -0.0786014 -0.0754892 0.0194896  -0.0986562 -0.100956 0.0181925  -0.117879 -0.13024 0.016241  -0.136197 -0.162948 0.0141655  -0.153783 -0.198733 0.01213  -0.170632 -0.237209 0.0102618  -0.186884 -0.278063 0.00857627  -0.202517 -0.32097 0.00707889  -0.21763 -0.365664 0.00575221  -0.232186 -0.411857 0.00457978  -0.246258 -0.459323 0.00354779  -0.259804 -0.507803 0.00264072  -0.272888 -0.55711 0.00185513  -0.285477 -0.60701 0.00117815  -0.297641 -0.657355 0.000614524  -0.30936 -0.707938 0.000151277  -0.32072 -0.758655 -0.000201344  -0.331729 -0.809331 -0.000462174  -0.342498 -0.859912 -0.000631213  -0.353073 -0.910277 -0.000748158  -0.363555 -0.960495 -0.000845909  0 0 0  -0.00696776 -0.012098 0.00758648  -0.0208747 -0.0277963 0.0122968  -0.0365907 -0.0471803 0.0141358  -0.0526237 -0.0706424 0.0141499  -0.0683479 -0.0981 0.0131576  -0.0837933 -0.129193 0.0117368  -0.0988811 -0.163579 0.0101887  -0.113703 -0.200872 0.00870073  -0.12824 -0.240729 0.00732148  -0.142542 -0.282813 0.006091  -0.156581 -0.326828 0.00499165  -0.170378 -0.372486 0.00402522  -0.183898 -0.419528 0.00316894  -0.197148 -0.467706 0.00241923  -0.210092 -0.516795 0.00176144  -0.222739 -0.566582 0.00119269  -0.23506 -0.616877 0.000705957  -0.247071 -0.6675 0.000299573  -0.258763 -0.718298 -2.96831e-05  -0.270161 -0.769128 -0.000284553  -0.281278 -0.819876 -0.000470638  -0.292155 -0.870447 -0.000601411  -0.302833 -0.920781 -0.000699162  -0.3134 -0.970894 -0.000789881  0 0 0  -0.00386773 -0.00791003 0.00477481  -0.0115473 -0.0226776 0.00767624  -0.0211641 -0.0428424 0.00892746  -0.0317342 -0.0676212 0.00897503  -0.0427046 -0.0965028 0.00835681  -0.0539699 -0.129002 0.00742662  -0.065456 -0.164747 0.0064137  -0.0771567 -0.2033 0.00542605  -0.089038 -0.244351 0.00452018  -0.101077 -0.287516 0.00370669  -0.113219 -0.332532 0.0029887  -0.125432 -0.37907 0.00235605  -0.137653 -0.426904 0.0018028  -0.14985 -0.475753 0.00131941  -0.161963 -0.525428 0.000899911  -0.173966 -0.575688 0.000539541  -0.185812 -0.626377 0.000234962  -0.197489 -0.677298 -1.72853e-05  -0.208961 -0.728331 -0.000218749  -0.220234 -0.779318 -0.000372887  -0.231287 -0.830181 -0.000485659  -0.242143 -0.880806 -0.000565886  -0.252804 -0.93116 -0.000631332  -0.263333 -0.981165 -0.000693917  0 0 0  -0.00138769 -0.00657484 0.00231087  -0.00435983 -0.0208601 0.00368524  -0.00862819 -0.0413318 0.00426209  -0.0139213 -0.0668988 0.00425601  -0.0200832 -0.0967292 0.00390995  -0.0270383 -0.130252 0.00340378  -0.0347364 -0.16701 0.00285447  -0.0431249 -0.206574 0.00232494  -0.0521452 -0.248581 0.00184298  -0.0617179 -0.292665 0.00141776  -0.0717669 -0.33852 0.00104892  -0.0822015 -0.385835 0.000731468  -0.0929455 -0.434352 0.000460148  -0.103911 -0.483813 0.000229836  -0.115033 -0.534002 3.57628e-05  -0.126234 -0.584705 -0.000125289  -0.137464 -0.635749 -0.000256181  -0.148662 -0.686962 -0.000359178  -0.159794 -0.738211 -0.000436187  -0.170818 -0.789367 -0.000489354  -0.181717 -0.840339 -0.000522971  -0.192467 -0.891039 -0.000542283  -0.203071 -0.941407 -0.000556946  -0.213517 -0.991341 -0.000571609  0 0 0  0.000692546 -0.00699404 -4.51803e-05  0.00181651 -0.0215758 -7.66516e-05  0.0025011 -0.0424441 -0.00012815  0.00226557 -0.0685517 -0.000217319  0.000870049 -0.0990247 -0.000334024  -0.00175726 -0.133248 -0.000464082  -0.00559837 -0.170753 -0.000586629  -0.0105937 -0.211071 -0.000693202  -0.0166438 -0.253838 -0.000776291  -0.0236465 -0.298649 -0.000834703  -0.0314769 -0.345201 -0.000869513  -0.0400257 -0.393149 -0.000884175  -0.0491679 -0.442249 -0.000881195  -0.0588036 -0.492214 -0.000865459  -0.0688189 -0.542848 -0.000838637  -0.0791299 -0.593916 -0.000804305  -0.0896399 -0.64527 -0.000763416  -0.100285 -0.696719 -0.000718594  -0.110986 -0.74816 -0.000671029  -0.121704 -0.799448 -0.000621676  -0.13238 -0.850518 -0.000572085  -0.142992 -0.901268 -0.000523567  -0.153495 -0.95166 -0.000477672  -0.163859 -1.00156 -0.000434399  0 0 0  0.00275669 -0.00889784 -0.00235069  0.00789183 -0.024505 -0.00374293  0.0134286 -0.0459771 -0.00440097  0.0181367 -0.072524 -0.00456548  0.0214117 -0.103411 -0.00447118  0.023052 -0.138104 -0.00424457  0.0230265 -0.176116 -0.00396872  0.0214198 -0.216994 -0.00367439  0.0183448 -0.260323 -0.00337648  0.0139457 -0.305705 -0.00308025  0.00836313 -0.352791 -0.00278914  0.00175047 -0.401248 -0.00250518  -0.00575387 -0.450796 -0.00223136  -0.0140058 -0.501165 -0.00196934  -0.0228812 -0.552135 -0.00172186  -0.0322527 -0.603492 -0.00149059  -0.0420165 -0.655067 -0.00127757  -0.0520658 -0.706698 -0.00108314  -0.06232 -0.758261 -0.000910163  -0.0726967 -0.80964 -0.00075686  -0.0831392 -0.860756 -0.000623107  -0.0935867 -0.911535 -0.000505328  -0.103998 -0.961934 -0.000398517  -0.114288 -1.01188 -0.000296712  0 0 0  0.00504068 -0.0124478 -0.00460565  0.0146668 -0.0296943 -0.00739801  0.0252174 -0.0519043 -0.0086391  0.0348866 -0.0787734 -0.00886106  0.0427185 -0.109912 -0.00854206  0.048493 -0.144883 -0.00798035  0.0521826 -0.183243 -0.0073241  0.0538774 -0.22451 -0.00664806  0.053728 -0.268262 -0.00598168  0.051885 -0.314058 -0.00533807  0.0485309 -0.361551 -0.00472343  0.0438259 -0.410373 -0.00414085  0.0379514 -0.460252 -0.00359285  0.0310601 -0.510896 -0.0030818  0.023319 -0.5621 -0.0026089  0.0148613 -0.613631 -0.00217688  0.00583506 -0.665343 -0.00178671  -0.00364971 -0.717057 -0.00144029  -0.0134683 -0.768676 -0.00113881  -0.0235357 -0.820069 -0.000881433  -0.0337534 -0.871184 -0.000665426  -0.0440636 -0.921939 -0.000484347  -0.0543897 -0.972332 -0.000324368  -0.0646691 -1.02233 -0.00017333  0 0 0  0.0079193 -0.0182002 -0.00699341  0.0230327 -0.0375911 -0.0111767  0.0390661 -0.0602472 -0.0129389  0.0536042 -0.0872059 -0.0131361  0.0658042 -0.118395 -0.0126045  0.0755301 -0.153517 -0.011713  0.0827718 -0.192096 -0.010699  0.0876473 -0.233652 -0.00965202  0.0903094 -0.277696 -0.00862432  0.0909363 -0.323798 -0.00763404  0.0897183 -0.371558 -0.00669372  0.0868508 -0.42063 -0.00580633  0.0825249 -0.470701 -0.00497723  0.0769298 -0.521507 -0.00420761  0.0702428 -0.572809 -0.00350118  0.0626357 -0.62441 -0.00285912  0.0542641 -0.676135 -0.00228453  0.0452778 -0.727842 -0.00177896  0.0358098 -0.779409 -0.00134444  0.0259862 -0.830746 -0.000981331  0.0159154 -0.881779 -0.000686884  0.00569701 -0.932471 -0.000452042  -0.00459361 -0.982812 -0.000256062  -0.0148938 -1.03287 -7.49826e-05  0 0 0  0.0162101 -0.0280191 -0.00968456  0.0357561 -0.0484358 -0.0149227  0.0562592 -0.0708422 -0.0169592  0.0751811 -0.0975366 -0.0172623  0.091517 -0.128657 -0.0165339  0.104984 -0.163879 -0.0153869  0.115636 -0.202641 -0.0140296  0.123548 -0.244414 -0.0126457  0.128893 -0.288685 -0.0112609  0.131861 -0.334986 -0.00994086  0.132657 -0.382919 -0.008672  0.131503 -0.432112 -0.00748742  0.128607 -0.482265 -0.00637197  0.124187 -0.533093 -0.00534546  0.118436 -0.58438 -0.00440013  0.111554 -0.635912 -0.00354564  0.103716 -0.687538 -0.0027827  0.0950966 -0.739107 -0.00211275  0.0858514 -0.790522 -0.00154507  0.0761294 -0.841689 -0.00107348  0.0660741 -0.892565 -0.000705481  0.0558076 -0.943113 -0.000422835  0.0454533 -0.993374 -0.000209808  0.0350692 -1.04341 -1.57356e-05  0 0 0  -0.0159339 -0.0173925 0.018157  -0.0358421 -0.0301494 0.0275711  -0.0572879 -0.0470019 0.0304939  -0.0777029 -0.0686555 0.0297412  -0.0973689 -0.0947243 0.0274469  -0.11621 -0.12483 0.0243825  -0.134391 -0.158337 0.0212924  -0.151909 -0.194877 0.0182658  -0.168855 -0.23399 0.0155543  -0.185207 -0.275406 0.0130624  -0.201034 -0.318781 0.0108835  -0.2163 -0.36388 0.00891161  -0.231065 -0.410422 0.00719011  -0.245288 -0.458183 0.00564802  -0.259024 -0.506929 0.00430489  -0.272237 -0.556449 0.00312614  -0.284986 -0.606549 0.00211692  -0.297246 -0.657039 0.00126827  -0.309087 -0.707766 0.000573516  -0.320502 -0.758567 4.19617e-05  -0.33158 -0.809333 -0.000346541  -0.342355 -0.859938 -0.000590205  -0.352957 -0.910336 -0.00075233  -0.363462 -0.960514 -0.000892758  0 0 0  -0.00718356 -0.00921003 0.0124537  -0.0214111 -0.0227632 0.019347  -0.0366269 -0.0413186 0.0213723  -0.051796 -0.0647267 0.0210761  -0.0668913 -0.0925919 0.01947  -0.0818791 -0.124286 0.017397  -0.096786 -0.159341 0.0151709  -0.111563 -0.197257 0.0130517  -0.126199 -0.23769 0.0110741  -0.140644 -0.28027 0.00930464  -0.15488 -0.324726 0.00770879  -0.168872 -0.370758 0.00630033  -0.1826 -0.418133 0.00504327  -0.196038 -0.466594 0.00393927  -0.20917 -0.515933 0.00296664  -0.221979 -0.565932 0.00212336  -0.234456 -0.616409 0.00140095  -0.2466 -0.667184 0.00079453  -0.25841 -0.718105 0.000303864  -0.269903 -0.769033 -7.9751e-05  -0.281092 -0.819853 -0.000357151  -0.292018 -0.870471 -0.000552416  -0.302715 -0.920825 -0.000697017  -0.313287 -0.970934 -0.000839233  0 0 0  -0.00390834 -0.0054733 0.00771809  -0.0116336 -0.0184045 0.0118532  -0.0209061 -0.0377174 0.0133977  -0.0308478 -0.0623106 0.013285  -0.041278 -0.0914053 0.0123067  -0.0521864 -0.124353 0.0109774  -0.0634974 -0.160614 0.00953341  -0.0751747 -0.199722 0.00815487  -0.0871377 -0.241275 0.00686526  -0.0993162 -0.284922 0.00571382  -0.111637 -0.330347 0.00467718  -0.124035 -0.377266 0.00376666  -0.136449 -0.42542 0.00295758  -0.148824 -0.474567 0.00225222  -0.161111 -0.524486 0.001634  -0.173269 -0.574972 0.00110376  -0.185262 -0.625843 0.000652313  -0.197062 -0.676929 0.000279069  -0.208648 -0.728086 -2.13385e-05  -0.220009 -0.779183 -0.00025177  -0.231138 -0.83012 -0.000420928  -0.242039 -0.880806 -0.000541091  -0.25273 -0.931179 -0.0006392  -0.263251 -0.981172 -0.000746608  0 0 0  -0.00130376 -0.00453806 0.00375605  -0.00420809 -0.0170734 0.0056659  -0.00813335 -0.0367292 0.00633752  -0.013007 -0.0620272 0.00625587  -0.0188066 -0.0919354 0.005741  -0.0255208 -0.125772 0.00502598  -0.0330986 -0.162938 0.0042671  -0.0414841 -0.202978 0.00353527  -0.0505687 -0.245439 0.00286794  -0.0602669 -0.289974 0.00227237  -0.070457 -0.336225 0.00175226  -0.0810573 -0.383917 0.00129962  -0.0919555 -0.432756 0.000910282  -0.103084 -0.482518 0.000576496  -0.114345 -0.532959 0.000294328  -0.125688 -0.583897 5.81741e-05  -0.137033 -0.63513 -0.000133872  -0.148345 -0.686518 -0.000285745  -0.159562 -0.737901 -0.000399351  -0.17067 -0.789178 -0.000478864  -0.181623 -0.840235 -0.000528812  -0.192421 -0.891006 -0.000556469  -0.20304 -0.941401 -0.000579953  -0.213484 -0.991317 -0.000612378  0 0 0  0.000863329 -0.00519717 -0.000157595  0.00228447 -0.0180879 -0.000253797  0.00325152 -0.0381593 -0.000323892  0.00324321 -0.0639428 -0.000432134  0.00202405 -0.0944183 -0.000572681  -0.000496209 -0.128864 -0.000722528  -0.00429881 -0.166708 -0.000864029  -0.00931573 -0.207439 -0.000981688  -0.015438 -0.250625 -0.00107098  -0.0225408 -0.295858 -0.00112927  -0.0304955 -0.342796 -0.00115907  -0.0391724 -0.391114 -0.00116396  -0.048449 -0.440538 -0.00114739  -0.0582097 -0.490807 -0.00111425  -0.0683467 -0.541701 -0.00106835  -0.0787644 -0.593011 -0.00101209  -0.0893743 -0.644565 -0.00094831  -0.100101 -0.696199 -0.00087893  -0.110877 -0.747784 -0.000805616  -0.121651 -0.799201 -0.000730038  -0.132375 -0.850365 -0.000654101  -0.143017 -0.901192 -0.000579  -0.153542 -0.951617 -0.00050807  -0.163892 -1.0015 -0.000443459  0 0 0  0.0029795 -0.00713211 -0.0039916  0.00866583 -0.021153 -0.00603235  0.0144372 -0.0418117 -0.00682485  0.0192032 -0.0680224 -0.00695515  0.022486 -0.0988796 -0.00674438  0.0240971 -0.133758 -0.0063622  0.0240354 -0.17207 -0.00592005  0.0223647 -0.21333 -0.00545382  0.0192177 -0.257051 -0.00498748  0.0147215 -0.302839 -0.00452495  0.00904262 -0.3503 -0.00407505  0.00231802 -0.399123 -0.00363696  -0.00528669 -0.448995 -0.00321853  -0.0136461 -0.499673 -0.00281882  -0.0226102 -0.550908 -0.00244427  -0.0320729 -0.602516 -0.00209391  -0.0419047 -0.6543 -0.00177264  -0.0520227 -0.706125 -0.00147986  -0.0623219 -0.757842 -0.00121784  -0.0727453 -0.80936 -0.000985503  -0.0832124 -0.860575 -0.00078249  -0.0936892 -0.911435 -0.000602484  -0.104106 -0.961867 -0.000437021  -0.11439 -1.01179 -0.000273705  0 0 0  0.00543067 -0.0105747 -0.0076158  0.0156461 -0.0262871 -0.0117396  0.0264673 -0.0477156 -0.0133069  0.0360346 -0.0742549 -0.0134217  0.0437273 -0.10537 -0.0128353  0.0493695 -0.140527 -0.011951  0.0529482 -0.179183 -0.010944  0.0545535 -0.220816 -0.0099237  0.0543152 -0.264949 -0.00891054  0.0523883 -0.311137 -0.00794077  0.048943 -0.358999 -0.00700784  0.0441517 -0.40818 -0.00613046  0.0381883 -0.458384 -0.00530195  0.0312176 -0.509338 -0.00453389  0.0233988 -0.560813 -0.00382173  0.0148778 -0.6126 -0.00317335  0.00579333 -0.66453 -0.00258732  -0.00373292 -0.716445 -0.00206745  -0.0135877 -0.768226 -0.00161326  -0.0236764 -0.819762 -0.00122452  -0.0339141 -0.870981 -0.000897169  -0.0442326 -0.921816 -0.000621796  -0.0545666 -0.972242 -0.000377297  -0.0648313 -1.02223 -0.000135779  0 0 0  0.00803588 -0.0161039 -0.0116796  0.0242512 -0.0339388 -0.0178268  0.0405412 -0.0558739 -0.0199043  0.0548495 -0.0825825 -0.0198722  0.0668149 -0.113827 -0.0189424  0.0763336 -0.149175 -0.0175508  0.0834256 -0.188077 -0.0160259  0.0881876 -0.229994 -0.0144429  0.0907558 -0.274419 -0.0129069  0.0912961 -0.3209 -0.0114096  0.0899981 -0.369024 -0.0100017  0.0870485 -0.418444 -0.00866103  0.0826492 -0.468839 -0.00741971  0.0769798 -0.519948 -0.00625944  0.0702322 -0.571523 -0.00520253  0.0625651 -0.623378 -0.0042367  0.0541523 -0.675323 -0.0033766  0.0451262 -0.727231 -0.00261593  0.0356374 -0.778962 -0.0019629  0.0257924 -0.83044 -0.00141561  0.0157161 -0.881575 -0.000971198  0.00548625 -0.932342 -0.000616789  -0.0048008 -0.982711 -0.000320554  -0.0150952 -1.03278 -4.3273e-05  0 0 0  0.0165687 -0.025421 -0.0163513  0.0364974 -0.0442826 -0.0239097  0.05771 -0.0659911 -0.0264603  0.0765407 -0.0927037 -0.0263609  0.0926822 -0.124055 -0.025067  0.105968 -0.159571 -0.023209  0.116454 -0.19872 -0.0211548  0.124252 -0.240864 -0.0190295  0.129486 -0.285532 -0.0169556  0.132366 -0.332201 -0.014941  0.133066 -0.380503 -0.0130378  0.131829 -0.430031 -0.0112358  0.128842 -0.480508 -0.00955904  0.124346 -0.531627 -0.00800359  0.118515 -0.583188 -0.00657892  0.11157 -0.634963 -0.00529003  0.103669 -0.686809 -0.00413513  0.0950043 -0.738567 -0.00312889  0.0857139 -0.790143 -0.00226188  0.0759628 -0.841435 -0.00155711  0.0658741 -0.8924 -0.000993609  0.0555909 -0.943004 -0.000583529  0.0452237 -0.99328 -0.000264168  0.0348153 -1.0433 1.4782e-05  0 0 0  -0.0209776 -0.00937238 0.0273194  -0.0382941 -0.0191377 0.0380552  -0.0563951 -0.0361168 0.0405171  -0.0748632 -0.0585775 0.038655  -0.0935413 -0.0864041 0.0355985  -0.111975 -0.117726 0.0314705  -0.13018 -0.152703 0.0276952  -0.147916 -0.190099 0.0237868  -0.165218 -0.230222 0.0204246  -0.181943 -0.272218 0.0172081  -0.198167 -0.316294 0.0144391  -0.213803 -0.361812 0.0118792  -0.228923 -0.408857 0.00964546  -0.243475 -0.456939 0.00763798  -0.257511 -0.506052 0.00586605  -0.271006 -0.555815 0.00433493  -0.284 -0.606173 0.00298214  -0.296497 -0.656837 0.00188684  -0.308529 -0.707727 0.000934601  -0.320126 -0.75863 0.000256538  -0.331329 -0.809466 -0.000296354  -0.3422 -0.86009 -0.000579596  -0.352815 -0.910483 -0.000808716  -0.363275 -0.960646 -0.000920534  0 0 0  -0.0112465 -0.00325575 0.0185895  -0.023323 -0.0137502 0.0262039  -0.0357554 -0.0315615 0.0281613  -0.0491776 -0.0556493 0.0273032  -0.0631879 -0.084432 0.0252347  -0.0777491 -0.117368 0.0226133  -0.0925812 -0.153412 0.0198858  -0.107591 -0.192358 0.0172069  -0.122518 -0.233561 0.014739  -0.137366 -0.276897 0.0124483  -0.151963 -0.321926 0.0104158  -0.16635 -0.368514 0.00855803  -0.180414 -0.416321 0.00693488  -0.194195 -0.465196 0.00546217  -0.207619 -0.514863 0.00419641  -0.220716 -0.565166 0.00306296  -0.23344 -0.615884 0.00211906  -0.245817 -0.666868 0.00129771  -0.257826 -0.717949 0.000655174  -0.269494 -0.768998 0.000128031  -0.280822 -0.819896 -0.000234365  -0.291843 -0.870558 -0.000508547  -0.302585 -0.920929 -0.000687122  -0.313143 -0.971037 -0.000917673  0 0 0  -0.0063045 -0.000512779 0.0115538  -0.0126969 -0.0109979 0.0161507  -0.0201564 -0.0295839 0.0175569  -0.0288118 -0.0543318 0.0171492  -0.0384382 -0.0840378 0.0158916  -0.0489388 -0.117767 0.01425  -0.0601705 -0.154888 0.0124996  -0.0719589 -0.194792 0.0107915  -0.0841501 -0.237096 0.00918221  -0.0966133 -0.281391 0.00771546  -0.109237 -0.327408 0.00638509  -0.12194 -0.374831 0.00519943  -0.134644 -0.423443 0.00414157  -0.147297 -0.472978 0.00321198  -0.159836 -0.523247 0.0023942  -0.172231 -0.574026 0.00169039  -0.184433 -0.625157 0.00108886  -0.196427 -0.676452 0.000590801  -0.208177 -0.727788 0.000187159  -0.219683 -0.779018 -0.000123262  -0.230922 -0.830062 -0.000353336  -0.241907 -0.880818 -0.000514507  -0.252628 -0.931252 -0.000653267  -0.263133 -0.981264 -0.000844955  0 0 0  -0.00230356 -4.8399e-05 0.00546765  -0.00425079 -0.0105574 0.00747275  -0.00715843 -0.0294354 0.0081141  -0.0112748 -0.054675 0.00791049  -0.0165691 -0.0849599 0.00728583  -0.0230128 -0.119386 0.00645542  -0.0305416 -0.157263 0.00555515  -0.0389981 -0.198 0.00468564  -0.0482579 -0.241146 0.00386596  -0.0581641 -0.286293 0.00312901  -0.0685976 -0.333114 0.00246763  -0.0794321 -0.381301 0.00188899  -0.0905722 -0.430597 0.00138211  -0.101917 -0.480751 0.000946283  -0.113393 -0.53155 0.000572681  -0.124919 -0.582789 0.00026083  -0.136442 -0.634297 4.05312e-06  -0.147899 -0.685904 -0.000199795  -0.159256 -0.737484 -0.000353813  -0.170466 -0.78891 -0.000462532  -0.181515 -0.840096 -0.000531912  -0.192371 -0.890959 -0.000570059  -0.20303 -0.941439 -0.000602484  -0.213455 -0.99137 -0.000677109  0 0 0  0.00126562 -0.000995278 -0.000633001  0.0031378 -0.0119467 -0.000741482  0.00449467 -0.0312314 -0.000831842  0.00482064 -0.0568893 -0.00091815  0.00381929 -0.0876221 -0.00102282  0.00140947 -0.122556 -0.00113583  -0.00238889 -0.161014 -0.00124145  -0.00748092 -0.202382 -0.00133204  -0.0137328 -0.246202 -0.00139761  -0.0210029 -0.292024 -0.00143814  -0.0291394 -0.339515 -0.0014503  -0.0380074 -0.388328 -0.00143886  -0.0474678 -0.438208 -0.00140476  -0.0574071 -0.488878 -0.00135398  -0.0677072 -0.54014 -0.00128746  -0.0782766 -0.591766 -0.00121093  -0.0890172 -0.643606 -0.00112486  -0.0998616 -0.695477 -0.00103235  -0.110734 -0.747273 -0.000935078  -0.121589 -0.798857 -0.000835657  -0.132375 -0.850164 -0.000734568  -0.143069 -0.901099 -0.000633001  -0.153625 -0.951614 -0.000537157  -0.163984 -1.00151 -0.000454664  0 0 0  0.00470869 -0.00309443 -0.00655627  0.0103362 -0.0151988 -0.00875163  0.0159444 -0.0350121 -0.0095768  0.0206801 -0.0610493 -0.00955057  0.023919 -0.0921252 -0.00917625  0.0254973 -0.127439 -0.00860167  0.0253735 -0.166315 -0.00796223  0.0236231 -0.208169 -0.00730205  0.0203583 -0.252495 -0.00664639  0.0157353 -0.298852 -0.0060041  0.00990689 -0.346858 -0.00538278  0.00304055 -0.396174 -0.00478435  -0.00471544 -0.446508 -0.00421405  -0.0132062 -0.497596 -0.00367403  -0.0223039 -0.549212 -0.00316906  -0.0318729 -0.601149 -0.00269914  -0.0418093 -0.653236 -0.00226855  -0.0520012 -0.705313 -0.00187707  -0.062372 -0.757257 -0.00152612  -0.0728374 -0.808954 -0.00121474  -0.083349 -0.860324 -0.000940561  -0.0938473 -0.911295 -0.000698805  -0.104299 -0.961816 -0.000475645  -0.114608 -1.01174 -0.000217199  0 0 0  0.00819716 -0.00656599 -0.0121143  0.018132 -0.0202332 -0.0168679  0.0282344 -0.0407901 -0.0183241  0.0374199 -0.0672057 -0.0181625  0.0448551 -0.0985498 -0.0172493  0.0503333 -0.134139 -0.0160127  0.0538031 -0.173329 -0.0146461  0.0553068 -0.215541 -0.0132639  0.0549691 -0.260254 -0.0118957  0.0529304 -0.307008 -0.0105844  0.0493733 -0.355405 -0.00932622  0.0444635 -0.405087 -0.00814462  0.0383897 -0.455758 -0.00702953  0.0313109 -0.507137 -0.00599957  0.0233999 -0.559005 -0.00504446  0.0147948 -0.611141 -0.004179  0.00564671 -0.663389 -0.00339365  -0.00393105 -0.715577 -0.00269985  -0.0138156 -0.767599 -0.00209069  -0.0239241 -0.819329 -0.00157094  -0.0341661 -0.870707 -0.00112915  -0.0444887 -0.921654 -0.00075984  -0.0548344 -0.972153 -0.000424147  -0.0651388 -1.02214 -5.53131e-05  0 0 0  0.012517 -0.0118058 -0.0181506  0.0273915 -0.027544 -0.025023  0.0423952 -0.048574 -0.0273156  0.0561052 -0.0753084 -0.0267639  0.0676813 -0.106808 -0.0254395  0.0769526 -0.142672 -0.023469  0.0839049 -0.182067 -0.0214703  0.0885414 -0.224607 -0.0192978  0.0910208 -0.269567 -0.0172794  0.0914547 -0.316648 -0.0152299  0.0900669 -0.36528 -0.0133727  0.0870144 -0.415236 -0.0115428  0.0825267 -0.466087 -0.00990367  0.0767703 -0.517656 -0.00832725  0.0699495 -0.569627 -0.00693107  0.0622251 -0.621862 -0.00562382  0.0537665 -0.674139 -0.00448632  0.0447204 -0.726345 -0.00345922  0.0352213 -0.778335 -0.00259328  0.0253949 -0.830023 -0.00185204  0.0153372 -0.881323 -0.00125933  0.00514412 -0.932192 -0.000777721  -0.00513053 -0.982621 -0.000386953  -0.0154378 -1.03267 2.6226e-05  0 0 0  0.0203193 -0.0196153 -0.0253706  0.0393586 -0.0374336 -0.0343826  0.0596671 -0.0584975 -0.0361576  0.0777941 -0.0854961 -0.0355444  0.0935228 -0.117121 -0.0334249  0.106484 -0.153331 -0.0309958  0.116842 -0.192885 -0.0281041  0.124463 -0.23574 -0.0253706  0.129648 -0.280842 -0.0224931  0.132382 -0.328164 -0.019892  0.133037 -0.37689 -0.0172672  0.131667 -0.426987 -0.0149295  0.128634 -0.477862 -0.0126338  0.124026 -0.529461 -0.0106068  0.118158 -0.581383 -0.00867295  0.111138 -0.633547 -0.0069828  0.10322 -0.685709 -0.00542784  0.0945237 -0.737767 -0.00409651  0.085243 -0.789599 -0.00293708  0.0755072 -0.841092 -0.00199032  0.0654538 -0.892222 -0.00124168  0.0552113 -0.942902 -0.000691175  0.0448678 -0.993212 -0.000296354  0.0345011 -1.0432 5.55515e-05  -0.0106587 -0.0076844 -0.0162003  -0.0166371 -0.0150727 -0.0227208  -0.00701494 -0.0114999 -0.0101091  0 0 0  0 0 0  -0.0158925 -0.00597638 -0.0230111  -0.0105542 -0.0130558 -0.0154635  0 0 0  -0.00536563 -0.000789911 -0.0117497  -0.00856677 -0.00677355 -0.0154083  -0.00250307 -0.00422417 -0.00705397  0 0 0  -0.00658735 -0.00916319 -0.0123577  -0.00724339 -0.00299149 -0.0137072  -0.0112733 -0.0102696 -0.0192572  -0.00354184 -0.0066681 -0.00862992  0 0 0  -0.00285921 -0.00297004 -0.00861704  -0.00362586 -0.00518589 -0.0104893  -0.030222 -0.0133419 -0.0342759  -0.0365971 -0.0258612 -0.0333508  -0.0253327 -0.0231596 -0.0240778  -0.0305002 -0.0163951 -0.0320716  -0.0278581 -0.0260995 -0.0236191  -0.0176546 -0.00783179 -0.0229528  -0.0220225 -0.0188429 -0.0230983  -0.0140035 -0.015406 -0.0167521  -0.0267275 -0.0190945 -0.0293487  -0.023322 -0.0104493 -0.0285907  -0.0285592 -0.0219663 -0.0282841  -0.0188888 -0.0190079 -0.0203059  -0.0150262 -0.011896 -0.0200869  -0.0197512 -0.0152134 -0.0248092  -0.0473101 -0.02653 -0.0406098  -0.057019 -0.0420539 -0.0361298  -0.0466128 -0.0380509 -0.0298942  -0.045357 -0.0331642 -0.0346437  -0.0460816 -0.0438569 -0.0263072  -0.0296438 -0.0218088 -0.0278152  -0.0364314 -0.0367635 -0.0252534  -0.0290109 -0.0313203 -0.0210057  -0.0468569 -0.0330999 -0.0356265  -0.0378188 -0.0239606 -0.0338041  -0.0458892 -0.0390837 -0.0307125  -0.0369857 -0.0344543 -0.0255284  -0.0291591 -0.0270087 -0.0246162  -0.0372276 -0.0297927 -0.0299842  -0.0655786 -0.0464295 -0.0405965  -0.0768428 -0.0637238 -0.0351305  -0.067553 -0.0570904 -0.0308768  -0.0612291 -0.0565739 -0.0335894  -0.0639839 -0.0662171 -0.0259198  -0.0425657 -0.0426677 -0.0283655  -0.0509047 -0.0602056 -0.024774  -0.0442549 -0.0521495 -0.0218334  -0.0670078 -0.0521864 -0.0359969  -0.0532486 -0.044315 -0.0341854  -0.0630001 -0.0617078 -0.0300058  -0.0551394 -0.0544624 -0.0263104  -0.0436775 -0.0477889 -0.025225  -0.0544747 -0.049772 -0.0305042  -0.0843646 -0.0715303 -0.0381585  -0.0960131 -0.0902939 -0.0323725  -0.0876081 -0.0808971 -0.0294328  -0.0774517 -0.0846647 -0.0311273  -0.0813607 -0.0932532 -0.0241534  -0.0562676 -0.0691251 -0.0269459  -0.0654814 -0.0883978 -0.0230252  -0.0593683 -0.077803 -0.0209298  -0.0865262 -0.0764348 -0.0340366  -0.0693533 -0.0701825 -0.032299  -0.0798819 -0.0892295 -0.0277843  -0.0727094 -0.0792709 -0.0251209  -0.058144 -0.0737207 -0.024027  -0.0714828 -0.0749472 -0.0288953  -0.102712 -0.101166 -0.0345875  -0.114607 -0.12094 -0.0290631  -0.106837 -0.10897 -0.0268155  -0.093967 -0.116967 -0.0280287  -0.09832 -0.124057 -0.0217159  -0.07054 -0.0999719 -0.0246434  -0.0801964 -0.120537 -0.0208054  -0.0744032 -0.107579 -0.0191664  -0.105346 -0.105138 -0.0308788  -0.0857049 -0.100482 -0.0294602  -0.096568 -0.120644 -0.0250179  -0.0899297 -0.108236 -0.0229406  -0.0728319 -0.103968 -0.0219667  -0.0882373 -0.104503 -0.0263501  -0.121155 -0.134268 -0.0307257  -0.132707 -0.154987 -0.0255396  -0.125357 -0.140769 -0.0238212  -0.110481 -0.152318 -0.0248067  -0.114901 -0.158401 -0.0191866  -0.0852104 -0.134459 -0.0220355  -0.0950027 -0.156028 -0.0183696  -0.0893292 -0.140973 -0.0170927  -0.123741 -0.137547 -0.0274063  -0.102278 -0.134342 -0.0262721  -0.113085 -0.155507 -0.0220616  -0.10665 -0.140886 -0.0204244  -0.0875654 -0.137865 -0.0196022  -0.10487 -0.137703 -0.0234509  -0.139003 -0.170491 -0.0268986  -0.15025 -0.191978 -0.0222615  -0.143166 -0.175811 -0.020839  -0.126941 -0.190649 -0.0216693  -0.131093 -0.195569 -0.0166975  -0.100112 -0.171968 -0.0194029  -0.109809 -0.194363 -0.0160905  -0.104157 -0.177475 -0.0150015  -0.141525 -0.173131 -0.0239652  -0.118754 -0.171243 -0.0230998  -0.129334 -0.19317 -0.0192618  -0.123073 -0.176673 -0.0178941  -0.102413 -0.174829 -0.0172266  -0.121239 -0.174023 -0.0205748  -0.156582 -0.209221 -0.0233511  -0.167285 -0.231482 -0.0191838  -0.160399 -0.213638 -0.0180479  -0.143071 -0.231183 -0.0187678  -0.146924 -0.235388 -0.0144402  -0.11505 -0.212039 -0.0169011  -0.124533 -0.23515 -0.0138935  -0.118846 -0.216673 -0.013023  -0.158847 -0.211416 -0.0207689  -0.135078 -0.210678 -0.0200864  -0.145283 -0.233372 -0.0166322  -0.139052 -0.215216 -0.0155245  -0.117164 -0.214449 -0.0149746  -0.137362 -0.212991 -0.0178584  -0.173508 -0.250309 -0.020083  -0.183757 -0.27322 -0.0164577  -0.177008 -0.253928 -0.0155139  -0.15894 -0.273967 -0.0161076  -0.16236 -0.277344 -0.012368  -0.129912 -0.254326 -0.0145886  -0.139107 -0.27805 -0.0119637  -0.13337 -0.258199 -0.0112196  -0.175577 -0.252085 -0.0178497  -0.151064 -0.252382 -0.0173262  -0.160877 -0.275684 -0.0142814  -0.15471 -0.256126 -0.0133556  -0.13184 -0.256326 -0.0129124  -0.153121 -0.254288 -0.0153818  -0.190004 -0.293333 -0.0171627  -0.199712 -0.316871 -0.0139744  -0.193092 -0.296331 -0.0132431  -0.174362 -0.318422 -0.0137221  -0.177424 -0.321292 -0.010541  -0.144603 -0.298511 -0.0124894  -0.153479 -0.322771 -0.0101695  -0.147693 -0.301741 -0.00959349  -0.19181 -0.29481 -0.0152403  -0.166722 -0.296003 -0.0148149  -0.176099 -0.319902 -0.012144  -0.169937 -0.299116 -0.011417  -0.146305 -0.300184 -0.0110447  -0.168544 -0.297583 -0.0131438  -0.205873 -0.338157 -0.0145183  -0.215114 -0.362203 -0.0117941  -0.208606 -0.340596 -0.0112201  -0.18944 -0.364556 -0.0115716  -0.192084 -0.366827 -0.00889337  -0.159067 -0.34434 -0.0105987  -0.167613 -0.369044 -0.00861406  -0.161793 -0.347006 -0.00814605  -0.207474 -0.339341 -0.012897  -0.181961 -0.341337 -0.0125651  -0.190927 -0.365697 -0.010257  -0.184816 -0.343877 -0.00967848  -0.160574 -0.345709 -0.0093751  -0.18356 -0.342623 -0.0111439  -0.221254 -0.384441 -0.0121777  -0.230003 -0.408946 -0.0098238  -0.223615 -0.386429 -0.0094229  -0.204043 -0.411913 -0.00966132  -0.206356 -0.413805 -0.00744665  -0.173267 -0.391547 -0.00890684  -0.181473 -0.416619 -0.00718975  -0.175636 -0.393736 -0.00685549  -0.222631 -0.385407 -0.0108209  -0.196806 -0.388089 -0.0105444  -0.205348 -0.412873 -0.00855935  -0.199267 -0.390168 -0.00814152  -0.174568 -0.392672 -0.00788164  -0.198194 -0.389135 -0.00935745  -0.23605 -0.432031 -0.0100708  -0.244353 -0.456884 -0.00810099  -0.238083 -0.433607 -0.00782835  -0.218263 -0.460444 -0.00795639  -0.220215 -0.461894 -0.00615442  -0.187166 -0.43991 -0.00739992  -0.195042 -0.465262 -0.00595963  -0.189208 -0.441672 -0.00571525  -0.237242 -0.432781 -0.0089643  -0.211211 -0.436067 -0.00875044  -0.219358 -0.461156 -0.00706828  -0.213344 -0.43772 -0.00677025  -0.188291 -0.440806 -0.00655925  -0.212404 -0.436894 -0.00777197  -0.250336 -0.480639 -0.00822425  -0.258198 -0.505779 -0.00656104  -0.252056 -0.481877 -0.00642204  -0.232007 -0.509785 -0.00645792  -0.233671 -0.510947 -0.0050267  -0.20075 -0.489194 -0.00606728  -0.208291 -0.514754 -0.00485277  -0.202479 -0.490599 -0.00470829  -0.251345 -0.481223 -0.00733364  -0.225193 -0.485013 -0.0071559  -0.232944 -0.510356 -0.00574422  -0.22699 -0.48632 -0.00556862  -0.2017 -0.489907 -0.00538814  -0.226207 -0.485661 -0.00636864  -0.264079 -0.5301 -0.00658095  -0.271522 -0.555433 -0.00523424  -0.265513 -0.531035 -0.00518751  -0.245349 -0.559849 -0.00514543  -0.246711 -0.56069 -0.00403833  -0.21399 -0.539201 -0.00489843  -0.221214 -0.564888 -0.00390816  -0.215442 -0.540285 -0.00382936  -0.264924 -0.530526 -0.00589061  -0.238732 -0.534745 -0.00575995  -0.246112 -0.560243 -0.00459695  -0.240245 -0.535736 -0.00450802  -0.21479 -0.539742 -0.00436568  -0.23958 -0.535229 -0.00513899  -0.27731 -0.580176 -0.00517178  -0.284363 -0.60564 -0.00407672  -0.278487 -0.580862 -0.00411952  -0.258227 -0.610354 -0.00401795  -0.259344 -0.610982 -0.00319374  -0.226888 -0.589725 -0.0038867  -0.233791 -0.615477 -0.0030849  -0.228073 -0.590548 -0.0030694  -0.278007 -0.58048 -0.0046494  -0.25184 -0.58504 -0.00454497  -0.258854 -0.61064 -0.00360596  -0.253073 -0.585778 -0.00359833  -0.227542 -0.590132 -0.00347912  -0.252537 -0.585394 -0.00407279  -0.290047 -0.630706 -0.00395131  -0.296715 -0.656226 -0.00311518  -0.290978 -0.631178 -0.00320888  -0.270705 -0.661191 -0.0030688  -0.271577 -0.661601 -0.00248361  -0.239422 -0.640596 -0.00302696  -0.246029 -0.666347 -0.00240326  -0.240379 -0.641188 -0.00242627  -0.2906 -0.6309 -0.00358117  -0.264515 -0.635735 -0.0035131  -0.271191 -0.661361 -0.00277615  -0.265509 -0.63625 -0.00281763  -0.239948 -0.64088 -0.00272918  -0.265073 -0.635973 -0.00316596  -0.302293 -0.681499 -0.00295424  -0.308627 -0.707022 -0.00232041  -0.303021 -0.681803 -0.0024569  -0.282752 -0.712152 -0.00229406  -0.283422 -0.712422 -0.00190675  -0.251608 -0.69164 -0.0023154  -0.257921 -0.717344 -0.00184476  -0.252345 -0.692058 -0.00189519  -0.302729 -0.681611 -0.00270545  -0.276772 -0.686646 -0.00265443  -0.283122 -0.71225 -0.00209999  -0.27754 -0.68699 -0.00217974  -0.252015 -0.691835 -0.00210738  -0.277206 -0.686797 -0.00241518  -0.314109 -0.732409 -0.00214148  -0.320112 -0.757884 -0.00171614  -0.314638 -0.732584 -0.0018574  -0.294425 -0.763127 -0.00169492  -0.294908 -0.763275 -0.00146317  -0.263434 -0.742721 -0.00174832  -0.269486 -0.768328 -0.00141406  -0.263994 -0.742992 -0.0014745  -0.314424 -0.732457 -0.00199807  -0.28863 -0.737631 -0.00197124  -0.294687 -0.763165 -0.00157678  -0.289205 -0.73784 -0.00166619  -0.263739 -0.74284 -0.00161493  -0.28895 -0.737714 -0.00181699  -0.325488 -0.783293 -0.00154972  -0.331233 -0.808681 -0.00127661  -0.325876 -0.783382 -0.00141394  -0.305722 -0.813971 -0.001261  -0.306065 -0.81406 -0.00114238  -0.274929 -0.793705 -0.00132096  -0.280732 -0.819187 -0.00110149  -0.275324 -0.793884 -0.00115943  -0.325718 -0.783302 -0.00148082  -0.300108 -0.788551 -0.00145733  -0.3059 -0.813979 -0.00120199  -0.300518 -0.788674 -0.00128984  -0.275146 -0.793777 -0.00124347  -0.300334 -0.788593 -0.00137079  -0.33653 -0.834031 -0.00113785  -0.34204 -0.859312 -0.00100827  -0.336791 -0.834079 -0.00111187  -0.316709 -0.864606 -0.000979543  -0.316947 -0.864659 -0.000934482  -0.286092 -0.844494 -0.0010196  -0.291698 -0.869828 -0.000886679  -0.28638 -0.844607 -0.000938296  -0.336675 -0.834027 -0.00112474  -0.311246 -0.8393 -0.00110328  -0.316825 -0.864603 -0.000956059  -0.311533 -0.839374 -0.00102437  -0.286243 -0.844534 -0.000983238  -0.311396 -0.839322 -0.00106227  -0.347246 -0.884543 -0.000912786  -0.352643 -0.909712 -0.000845671  -0.347465 -0.884588 -0.000930548  -0.327415 -0.914963 -0.00079596  -0.327619 -0.915021 -0.000792742  -0.296972 -0.895013 -0.000816107  -0.302417 -0.920195 -0.000733376  -0.29718 -0.895103 -0.000789046  -0.34736 -0.884546 -0.000921845  -0.322081 -0.8898 -0.000881433  -0.327509 -0.914967 -0.000796199  -0.322297 -0.889862 -0.000860929  -0.297083 -0.895044 -0.000806928  -0.322191 -0.88982 -0.000870824  -0.357795 -0.934793 -0.000764847  -0.363149 -0.959898 -0.000712991  -0.358008 -0.934867 -0.000800252  -0.337964 -0.965104 -0.000613928  -0.338166 -0.965174 -0.000659704  -0.307597 -0.945244 -0.000638008  -0.312984 -0.970302 -0.000564456  -0.3078 -0.945321 -0.000661373  -0.357905 -0.934827 -0.000779629  -0.332693 -0.940028 -0.000709414  -0.338071 -0.965124 -0.000636578  -0.3329 -0.940103 -0.000730753  -0.307707 -0.94527 -0.00065434  -0.332799 -0.940065 -0.000718117  0 0 0  -0.0088677 -0.00154346 -0.0148541  -0.00560594 -0.00685887 -0.00993514  0 0 0  -0.0031193 0.00106665 -0.00747788  -0.00447871 -0.00326501 -0.00973976  -0.00140288 -0.00178654 -0.00438869  0 0 0  -0.00407897 0.000358105 -0.00936353  -0.00633497 -0.0045853 -0.0123576  -0.00189632 -0.0027003 -0.00561452  0 0 0  -0.00150739 -0.000720412 -0.00547278  -0.00208043 -0.00155252 -0.00694513  -0.0179455 -0.0120115 -0.0207236  -0.0161508 -0.0201208 -0.0154753  -0.00964105 -0.00467694 -0.014389  -0.0120203 -0.0150276 -0.0142089  -0.00751333 -0.0109812 -0.0102837  -0.0134106 -0.00575022 -0.0183258  -0.0166311 -0.0165116 -0.0182747  -0.0105252 -0.0126716 -0.0131952  -0.00811724 -0.00811677 -0.0124414  -0.011239 -0.00956483 -0.0158354  -0.0278061 -0.0301504 -0.0228515  -0.0283501 -0.0389877 -0.0174993  -0.0164565 -0.0192472 -0.0172632  -0.0206968 -0.0338034 -0.015834  -0.0162133 -0.0271918 -0.0131196  -0.0227572 -0.0201862 -0.0221564  -0.0281076 -0.0349731 -0.0203125  -0.0221488 -0.0288733 -0.0167718  -0.016249 -0.0235886 -0.0153065  -0.0222654 -0.0249757 -0.0196438  -0.0387114 -0.0544153 -0.0224512  -0.0408663 -0.0629955 -0.0174536  -0.0245369 -0.0409345 -0.0178499  -0.0301305 -0.0583339 -0.0156888  -0.0258769 -0.0491789 -0.0137954  -0.0331306 -0.0415599 -0.0228922  -0.0400546 -0.0590492 -0.0200262  -0.0345792 -0.0503811 -0.0176443  -0.0253341 -0.0454314 -0.015916  -0.0340413 -0.0463575 -0.0203749  -0.0504605 -0.0835817 -0.0209855  -0.0536374 -0.0914337 -0.0163513  -0.0336369 -0.068172 -0.0170726  -0.0401755 -0.087565 -0.0146728  -0.0360585 -0.0760199 -0.013328  -0.0444757 -0.0684518 -0.0218529  -0.0523387 -0.0877842 -0.0187092  -0.0472293 -0.0766856 -0.0170015  -0.0350794 -0.0724087 -0.0152568  -0.0461402 -0.0728721 -0.0195057  -0.0629537 -0.116884 -0.0189972  -0.0665803 -0.123772 -0.0147761  -0.0436607 -0.099902 -0.0156817  -0.0508269 -0.120797 -0.013253  -0.0467104 -0.107049 -0.0122347  -0.0566291 -0.0997729 -0.0200434  -0.065042 -0.120543 -0.0169058  -0.060083 -0.107153 -0.0155939  -0.0454189 -0.103724 -0.0139894  -0.0586438 -0.103699 -0.0178608  -0.0759571 -0.153431 -0.0168805  -0.0796913 -0.15941 -0.0130659  -0.0545183 -0.13534 -0.0140526  -0.0620377 -0.157386 -0.0117382  -0.0578018 -0.141666 -0.0109245  -0.0693919 -0.134772 -0.0179601  -0.0780613 -0.156593 -0.0149723  -0.0731177 -0.141199 -0.0139254  -0.0563732 -0.138702 -0.0124985  -0.0715106 -0.138175 -0.0159642  -0.0893431 -0.192863 -0.014792  -0.0929309 -0.197946 -0.0114104  -0.0659938 -0.173874 -0.0123904  -0.0737069 -0.196839 -0.0102495  -0.0692772 -0.179371 -0.00958323  -0.082617 -0.172818 -0.0158415  -0.0913379 -0.195541 -0.0130953  -0.0862945 -0.178342 -0.0122266  -0.0678168 -0.176785 -0.010986  -0.0846756 -0.175731 -0.0140407  -0.102896 -0.234599 -0.0128366  -0.106238 -0.238927 -0.00986457  -0.0779757 -0.214992 -0.0107896  -0.0857275 -0.238706 -0.00887048  -0.0810838 -0.219722 -0.00831783  -0.096099 -0.213447 -0.0138056  -0.104736 -0.236876 -0.0113372  -0.099579 -0.218144 -0.0106188  -0.0796846 -0.21749 -0.00954533  -0.0980213 -0.215923 -0.012212  -0.116551 -0.27843 -0.011037  -0.119565 -0.28206 -0.00847304  -0.0902718 -0.258313 -0.00931394  -0.0979975 -0.282646 -0.00760698  -0.0931388 -0.262344 -0.00715518  -0.10972 -0.25627 -0.0119331  -0.118199 -0.280331 -0.00974321  -0.112898 -0.260243 -0.00915098  -0.0918349 -0.260439 -0.00822461  -0.111465 -0.258357 -0.0105368  -0.130162 -0.323939 -0.00941372  -0.132855 -0.326992 -0.00721955  -0.102803 -0.303484 -0.00796056  -0.110426 -0.328327 -0.00647974  -0.105376 -0.306902 -0.00611746  -0.12336 -0.300973 -0.0102121  -0.131628 -0.325537 -0.00830245  -0.126217 -0.30431 -0.00782669  -0.104201 -0.305284 -0.00702727  -0.124918 -0.302728 -0.00901413  -0.143713 -0.370959 -0.00795233  -0.146064 -0.373483 -0.00611138  -0.115439 -0.350226 -0.00675499  -0.122937 -0.375478 -0.00546777  -0.117723 -0.353097 -0.00518751  -0.136949 -0.347271 -0.00867927  -0.144989 -0.372271 -0.00702131  -0.139467 -0.350055 -0.00664973  -0.116675 -0.351736 -0.00596118  -0.138321 -0.348728 -0.00765753  -0.157099 -0.419155 -0.00665212  -0.159147 -0.421239 -0.00512254  -0.128129 -0.398261 -0.00566566  -0.135463 -0.423833 -0.0045774  -0.130118 -0.400656 -0.00437105  -0.150423 -0.394908 -0.00728977  -0.158209 -0.420239 -0.00587595  -0.152623 -0.397209 -0.00560045  -0.129205 -0.399519 -0.00500822  -0.151616 -0.396115 -0.00644064  -0.170327 -0.468373 -0.00549757  -0.172066 -0.470053 -0.00425684  -0.140786 -0.447355 -0.00471401  -0.147945 -0.47316 -0.00378776  -0.142502 -0.449328 -0.00364494  -0.163735 -0.443644 -0.00607264  -0.171267 -0.469236 -0.00486994  -0.165624 -0.445524 -0.00467706  -0.141713 -0.44839 -0.00417173  -0.164761 -0.444622 -0.00536931  -0.183312 -0.518327 -0.00448406  -0.18479 -0.519675 -0.00349259  -0.15337 -0.497275 -0.00386298  -0.160334 -0.523234 -0.00310206  -0.154824 -0.498882 -0.00301683  -0.176845 -0.493255 -0.00497973  -0.184111 -0.51902 -0.00398028  -0.178454 -0.494767 -0.00386107  -0.154157 -0.498115 -0.00343227  -0.177716 -0.494044 -0.00441825  -0.196073 -0.56888 -0.00360286  -0.197287 -0.569925 -0.00283611  -0.165822 -0.547819 -0.0031364  -0.172586 -0.573858 -0.00250685  -0.167039 -0.549104 -0.00246418  -0.189721 -0.543533 -0.00404167  -0.196727 -0.569404 -0.00321543  -0.191062 -0.544728 -0.00315332  -0.16648 -0.548489 -0.0027951  -0.190449 -0.544148 -0.00359428  -0.208542 -0.619789 -0.00284815  -0.209538 -0.62059 -0.00227046  -0.178112 -0.598791 -0.00249851  -0.184665 -0.624845 -0.0020045  -0.179107 -0.599802 -0.00199986  -0.202339 -0.594285 -0.00321507  -0.209079 -0.620191 -0.0025543  -0.203444 -0.595208 -0.00254154  -0.178651 -0.599316 -0.00224411  -0.202936 -0.594762 -0.00287843  -0.220747 -0.670938 -0.0022186  -0.221523 -0.671525 -0.00180471  -0.1902 -0.650021 -0.00197673  -0.196543 -0.676029 -0.00158596  -0.190998 -0.650796 -0.00160241  -0.214676 -0.645335 -0.00253201  -0.221161 -0.671219 -0.00201035  -0.215558 -0.646028 -0.00202799  -0.190632 -0.650422 -0.00178659  -0.215155 -0.645685 -0.00227892  -0.232634 -0.722129 -0.001706  -0.233239 -0.722555 -0.00142324  -0.202065 -0.70135 -0.0015353  -0.2082 -0.727266 -0.00125206  -0.202686 -0.701933 -0.0012871  -0.226724 -0.696522 -0.00195301  -0.232956 -0.722333 -0.00156212  -0.227414 -0.697028 -0.00160348  -0.202402 -0.701649 -0.00140822  -0.227094 -0.696779 -0.00178051  -0.244242 -0.773278 -0.0013119  -0.244678 -0.77357 -0.00113535  -0.213688 -0.752645 -0.00120258  -0.21962 -0.778427 -0.000995398  -0.214156 -0.753073 -0.00103235  -0.238471 -0.747707 -0.00150812  -0.24447 -0.773404 -0.00122428  -0.238986 -0.748066 -0.00127089  -0.213942 -0.752863 -0.00111639  -0.238749 -0.747881 -0.00139022  -0.255533 -0.82423 -0.00101876  -0.255856 -0.824438 -0.000920296  -0.225056 -0.803791 -0.000939488  -0.230797 -0.829411 -0.000810981  -0.225397 -0.804102 -0.000852227  -0.249921 -0.798769 -0.00115788  -0.2557 -0.824321 -0.000968575  -0.250299 -0.799019 -0.0010196  -0.225241 -0.803948 -0.000894308  -0.25012 -0.798893 -0.00109279  -0.266556 -0.874948 -0.000816584  -0.266777 -0.87509 -0.000775695  -0.236165 -0.854698 -0.000768423  -0.241733 -0.880131 -0.000682235  -0.236409 -0.85492 -0.000717521  -0.261075 -0.849613 -0.000921726  -0.266665 -0.874997 -0.000798583  -0.26134 -0.849789 -0.000843763  -0.236297 -0.854808 -0.000742555  -0.261214 -0.849694 -0.000884891  -0.277291 -0.925338 -0.000651836  -0.277485 -0.925447 -0.000657678  -0.247016 -0.905299 -0.000632763  -0.252444 -0.930526 -0.000577927  -0.2472 -0.905457 -0.00063014  -0.271951 -0.90017 -0.000741243  -0.27739 -0.925376 -0.000657082  -0.272156 -0.900299 -0.000716686  -0.247117 -0.905373 -0.00063169  -0.272055 -0.900232 -0.000734687  -0.28784 -0.975417 -0.000457406  -0.288028 -0.975505 -0.000544071  -0.257625 -0.955537 -0.000502825  -0.262966 -0.980516 -0.000448942  -0.2578 -0.95565 -0.000535131  -0.282575 -0.950405 -0.000577331  -0.287944 -0.975425 -0.000507832  -0.282761 -0.950506 -0.000600576  -0.257725 -0.955578 -0.000521898  -0.282681 -0.950443 -0.000591993  0 0 0  -0.00424947 -0.000102967 -0.00858188  -0.00259336 -0.00471437 -0.00577879  0 0 0  -0.00111432 0.00144359 -0.00354862  -0.00153033 -0.00246429 -0.00470173  -0.000457317 -0.00122672 -0.00218344  0 0 0  -0.00206251 0.00141841 -0.00556636  -0.00298476 -0.00263268 -0.00719476  -0.000887055 -0.00132036 -0.00331378  0 0 0  -0.000515811 -0.000274003 -0.00270188  -0.000981756 -0.000357211 -0.00416505  -0.00845981 -0.0103936 -0.0117404  -0.00779876 -0.0172569 -0.00886405  -0.00318837 -0.00392345 -0.00685632  -0.00424781 -0.0140377 -0.00681901  -0.00266717 -0.00974032 -0.00501442  -0.00629944 -0.0040822 -0.0105674  -0.00797817 -0.0142529 -0.0104153  -0.00498173 -0.0100552 -0.00761271  -0.002744 -0.00725275 -0.00602734  -0.00532015 -0.00739211 -0.00918746  -0.0135853 -0.0289785 -0.0129523  -0.01434 -0.0367041 -0.0100448  -0.00567061 -0.0189084 -0.00814259  -0.00782245 -0.0332529 -0.00754464  -0.00611418 -0.0259534 -0.00632107  -0.010891 -0.0188357 -0.0125297  -0.0140304 -0.0332391 -0.0116018  -0.0109364 -0.0262373 -0.00960457  -0.00590792 -0.0227851 -0.00730693  -0.0108726 -0.0228718 -0.0111793  -0.0199381 -0.0539364 -0.0128114  -0.0216933 -0.0616269 -0.0100505  -0.00920674 -0.0410754 -0.00838494  -0.0123832 -0.0583971 -0.00747371  -0.0105193 -0.0485374 -0.00664222  -0.0166129 -0.0407763 -0.0129927  -0.0209928 -0.0581048 -0.0114979  -0.017925 -0.0485587 -0.0101459  -0.00998217 -0.0451552 -0.00757921  -0.0174045 -0.0450308 -0.0116407  -0.0273458 -0.0838253 -0.0119915  -0.0298065 -0.0910965 -0.00944161  -0.0138938 -0.0688573 -0.0080353  -0.0179256 -0.0883552 -0.0069741  -0.0158436 -0.0761608 -0.00641036  -0.0235077 -0.0683033 -0.0124619  -0.0287715 -0.08774 -0.010763  -0.0256622 -0.07584 -0.00980866  -0.0150266 -0.0728109 -0.00726831  -0.0247816 -0.0723773 -0.0111923  -0.0357847 -0.117883 -0.0108654  -0.0385896 -0.124477 -0.00851393  -0.0197376 -0.101232 -0.00734568  -0.0244625 -0.122361 -0.00625885  -0.022087 -0.108048 -0.00585222  -0.0314345 -0.100377 -0.0114448  -0.0373686 -0.121383 -0.00971091  -0.0341159 -0.107333 -0.00899458  -0.0210703 -0.104882 -0.00662863  -0.0329681 -0.104106 -0.0102489  -0.0451186 -0.155333 -0.00962996  -0.0480287 -0.161182 -0.00751257  -0.0266898 -0.137394 -0.00654256  -0.0319615 -0.159795 -0.0054878  -0.0292148 -0.143565 -0.00518203  -0.0403447 -0.136203 -0.0102472  -0.0467315 -0.158432 -0.00858057  -0.0432286 -0.14244 -0.00801599  -0.0280941 -0.140678 -0.00587571  -0.041963 -0.13952 -0.00914633  -0.0552189 -0.195655 -0.00842106  -0.0580451 -0.200757 -0.00652909  -0.0346624 -0.176717 -0.00571144  -0.0403324 -0.200108 -0.00474238  -0.0371835 -0.182188 -0.00449729  -0.0500777 -0.175157 -0.00901353  -0.0567623 -0.198337 -0.00747228  -0.0529703 -0.180634 -0.00701177  -0.0360436 -0.179613 -0.00510967  -0.0516686 -0.178061 -0.00801373  -0.0659137 -0.238359 -0.00727499  -0.068567 -0.242766 -0.00562477  -0.0434953 -0.218677 -0.00492215  -0.049453 -0.242862 -0.00405109  -0.0459052 -0.223459 -0.00385797  -0.060499 -0.21672 -0.00782859  -0.0673511 -0.240678 -0.00644588  -0.063244 -0.221475 -0.00606406  -0.0448022 -0.221199 -0.00438893  -0.0619963 -0.21923 -0.00694287  -0.0770879 -0.283092 -0.00623274  -0.0794979 -0.286862 -0.00480413  -0.0530623 -0.262839 -0.00419617  -0.0592159 -0.287654 -0.00343275  -0.055287 -0.26698 -0.0032779  -0.0714452 -0.260484 -0.00673735  -0.0783832 -0.285063 -0.00550902  -0.0739875 -0.264569 -0.00520146  -0.0542601 -0.265018 -0.00373399  -0.0728172 -0.262641 -0.00596046  -0.0885955 -0.329496 -0.00528705  -0.0907559 -0.332703 -0.00408077  -0.0632123 -0.308843 -0.00354183  -0.0694855 -0.334161 -0.00288451  -0.0652206 -0.312394 -0.00276887  -0.0828046 -0.30609 -0.0057379  -0.089754 -0.331178 -0.00467741  -0.0850863 -0.309577 -0.00442827  -0.064289 -0.310707 -0.00315022  -0.0840335 -0.307924 -0.00507474  -0.100363 -0.377318 -0.00444961  -0.102251 -0.380015 -0.00343752  -0.073832 -0.356364 -0.0029645  -0.0801731 -0.382066 -0.00240684  -0.0756083 -0.359388 -0.00232172  -0.09445 -0.353238 -0.00485313  -0.10137 -0.378721 -0.00393379  -0.0964792 -0.356187 -0.00374722  -0.0747814 -0.357948 -0.00263858  -0.095536 -0.354792 -0.00428939  -0.112269 -0.426257 -0.00370347  -0.113913 -0.428513 -0.00287879  -0.0848035 -0.405124 -0.00245571  -0.0911577 -0.431114 -0.00199175  -0.086349 -0.407673 -0.00193799  -0.1063 -0.401649 -0.0040555  -0.113146 -0.427436 -0.00328541  -0.108061 -0.404125 -0.0031451  -0.0856283 -0.406456 -0.00219142  -0.107244 -0.402948 -0.00359213  -0.124272 -0.476118 -0.00305426  -0.125663 -0.477973 -0.00238681  -0.096034 -0.454865 -0.00201797  -0.102372 -0.481046 -0.00163603  -0.0973563 -0.456994 -0.00160575  -0.118261 -0.451079 -0.0033654  -0.125011 -0.477076 -0.00271249  -0.119781 -0.453132 -0.00262272  -0.0967387 -0.455976 -0.00180805  -0.119072 -0.452159 -0.00298405  -0.136268 -0.526637 -0.00248504  -0.137445 -0.528153 -0.00196683  -0.107432 -0.505359 -0.00163901  -0.113712 -0.531653 -0.00133324  -0.108545 -0.507115 -0.00132596  -0.130271 -0.501294 -0.00275016  -0.136895 -0.527425 -0.00222194  -0.131549 -0.50298 -0.00216568  -0.108025 -0.506271 -0.0014782  -0.130955 -0.502175 -0.00245106  -0.148239 -0.577664 -0.00200284  -0.149196 -0.578871 -0.0016036  -0.118925 -0.556394 -0.00132215  -0.125131 -0.582722 -0.00108159  -0.119842 -0.557822 -0.00108802  -0.142259 -0.552092 -0.00223172  -0.148746 -0.578279 -0.00179708  -0.143327 -0.553451 -0.00177634  -0.119413 -0.557133 -0.00120258  -0.142828 -0.552805 -0.00199556  -0.160094 -0.628965 -0.00159252  -0.160875 -0.629921 -0.00130498  -0.130442 -0.607782 -0.00105667  -0.136543 -0.634084 -0.000876546  -0.131182 -0.608924 -0.000895858  -0.154178 -0.603276 -0.00177908  -0.160508 -0.629457 -0.00144637  -0.155042 -0.604358 -0.0014441  -0.130836 -0.60837 -0.000973225  -0.154641 -0.603838 -0.00160635  -0.171833 -0.680434 -0.00126135  -0.172433 -0.681162 -0.00105667  -0.141926 -0.659353 -0.000846863  -0.147918 -0.685567 -0.000716209  -0.142507 -0.660249 -0.000739694  -0.165979 -0.654681 -0.00141573  -0.172148 -0.680796 -0.00115466  -0.16667 -0.655521 -0.00117278  -0.142235 -0.659811 -0.000792146  -0.166346 -0.65512 -0.00128734  -0.183381 -0.731873 -0.000995874  -0.183847 -0.732429 -0.000867367  -0.153328 -0.710958 -0.00068295  -0.159188 -0.737043 -0.000597  -0.15377 -0.711647 -0.000624061  -0.177627 -0.706151 -0.00111127  -0.183626 -0.732153 -0.000931025  -0.178155 -0.706793 -0.00095284  -0.153562 -0.711306 -0.000651598  -0.177909 -0.70648 -0.0010283  -0.194756 -0.783218 -0.000801563  -0.195084 -0.783619 -0.000722528  -0.164609 -0.76247 -0.000567913  -0.170344 -0.788383 -0.00051713  -0.164931 -0.762988 -0.000539422  -0.18909 -0.757557 -0.000888348  -0.194925 -0.783408 -0.000759125  -0.189488 -0.758034 -0.000787854  -0.164779 -0.762728 -0.000553727  -0.189299 -0.757804 -0.000832438  -0.205895 -0.834314 -0.000660777  -0.206136 -0.834612 -0.000627398  -0.175736 -0.813783 -0.000491261  -0.181331 -0.839502 -0.000470161  -0.17596 -0.814163 -0.000490189  -0.20035 -0.808788 -0.000715017  -0.206019 -0.834458 -0.000644326  -0.200629 -0.809139 -0.000667572  -0.175853 -0.813968 -0.000489593  -0.200498 -0.808964 -0.000688672  -0.216833 -0.885142 -0.000572085  -0.216989 -0.885342 -0.000560999  -0.186687 -0.864814 -0.000454187  -0.19216 -0.890309 -0.000450611  -0.186834 -0.865085 -0.000462651  -0.211389 -0.859759 -0.000609756  -0.216908 -0.885226 -0.000564933  -0.211587 -0.860008 -0.000590324  -0.186763 -0.864941 -0.000458717  -0.211489 -0.859887 -0.000595331  -0.227517 -0.935579 -0.000491381  -0.227654 -0.935722 -0.000512838  -0.197447 -0.915493 -0.000434875  -0.202793 -0.940739 -0.000434279  -0.197543 -0.915675 -0.000454903  -0.222202 -0.910401 -0.000527382  -0.227586 -0.935637 -0.000505447  -0.222339 -0.910574 -0.000535131  -0.197495 -0.915569 -0.000445366  -0.222272 -0.91048 -0.000530481  -0.237988 -0.985563 -0.000367522  -0.238136 -0.985674 -0.000447273  -0.208 -0.965735 -0.000401258  -0.213233 -0.990639 -0.000396371  -0.208076 -0.965853 -0.00043571  -0.232781 -0.960644 -0.00043869  -0.238065 -0.985579 -0.000412107  -0.232916 -0.960756 -0.000477433  -0.208037 -0.965763 -0.000420451  -0.23285 -0.960682 -0.000455976  0 0 0  -0.000516757 -0.000302136 -0.00245857  -0.000232175 -0.00462359 -0.00184751  0 0 0  0.00042624 0.000886381 0.000352502  0.00100456 -0.00328475 0.000275493  0.000276692 -0.00157547 7.00951e-05  0 0 0  -0.000357967 0.00125796 -0.00157642  -0.000234514 -0.0027324 -0.00219989  -8.72612e-05 -0.00129372 -0.00104368  0 0 0  0.000313953 -0.000709742 0.000163078  -9.75728e-05 -0.000405848 -0.00124145  -0.000544369 -0.0108692 -0.00348997  -0.000935316 -0.0171985 -0.00282359  0.0021534 -0.00524458 0.000503659  0.00260022 -0.0152914 0.000296116  0.00155663 -0.0105864 0.000107527  -0.000486448 -0.00438476 -0.00310075  -0.000739142 -0.0144283 -0.0032388  -0.000500649 -0.00993845 -0.00242734  0.00181857 -0.00825816 0.000260115  -0.000417471 -0.00752929 -0.00281668  -0.00137186 -0.0298576 -0.00380063  -0.00240272 -0.0369679 -0.00318944  0.00384489 -0.0204991 0.000562787  0.00372365 -0.0348722 0.000311971  0.00282288 -0.0271726 0.000114441  -0.000844747 -0.0194626 -0.00372648  -0.00195628 -0.0338004 -0.00356829  -0.00156 -0.0262808 -0.00306058  0.0032652 -0.024218 0.00028801  -0.00123295 -0.0232445 -0.00346446  -0.00324732 -0.055224 -0.0037477  -0.00482252 -0.0624619 -0.00318265  0.00472748 -0.0430789 0.000601292  0.00386995 -0.0604766 0.000353932  0.00334024 -0.0502129 0.000127077  -0.00215462 -0.041829 -0.00384271  -0.00415072 -0.0591767 -0.00352049  -0.00348613 -0.04909 -0.00322175  0.00394109 -0.0470204 0.000317097  -0.00292245 -0.0458272 -0.00359559  -0.00634807 -0.0856301 -0.00347197  -0.0083161 -0.0926144 -0.00293243  0.00442493 -0.0712997 0.00064683  0.0027712 -0.0909546 0.000430584  0.00275028 -0.0783693 0.000194192  -0.00463116 -0.0698438 -0.00365949  -0.00746191 -0.0894123 -0.00323927  -0.00643432 -0.0770018 -0.00308347  0.00348473 -0.0751646 0.000384331  -0.0056597 -0.0737438 -0.00342202  -0.0107518 -0.120289 -0.00307178  -0.0129061 -0.126734 -0.00258112  0.00274843 -0.104154 0.000705481  0.000339389 -0.125531 0.000513315  0.000902236 -0.110851 0.000281811  -0.00838828 -0.102475 -0.00329208  -0.0119464 -0.12373 -0.00285077  -0.0104702 -0.109216 -0.00276554  0.00172478 -0.107773 0.000468493  -0.00955987 -0.106105 -0.00306058  -0.0163624 -0.158397 -0.00263989  -0.0185775 -0.164221 -0.00219679  -0.000334859 -0.140869 0.00076735  -0.00342333 -0.163584 0.00059247  -0.00224459 -0.14701 0.000369787  -0.0134033 -0.138933 -0.0028671  -0.0175734 -0.161494 -0.00242901  -0.0156127 -0.14508 -0.00239384  -0.00138038 -0.14416 0.00055325  -0.0146199 -0.142221 -0.00265074  -0.0231106 -0.199449 -0.0022217  -0.0252535 -0.204604 -0.00183809  -0.00476044 -0.180798 0.000814915  -0.00843632 -0.204565 0.000651479  -0.00664192 -0.18632 0.000450015  -0.0196025 -0.17858 -0.00243425  -0.0242671 -0.202168 -0.00203669  -0.0217894 -0.184074 -0.00201678  -0.0057801 -0.183738 0.000623107  -0.0207949 -0.181499 -0.00223494  -0.030825 -0.242902 -0.00183547  -0.0328419 -0.247421 -0.00151241  -0.0104173 -0.22341 0.000852823  -0.0145841 -0.248004 0.000688076  -0.0122032 -0.2283 0.000502229  -0.0268495 -0.220887 -0.00202668  -0.0319054 -0.245284 -0.0016737  -0.0289421 -0.225722 -0.0016731  -0.0113775 -0.226004 0.000673294  -0.0279747 -0.22345 -0.00185585  -0.0393938 -0.288396 -0.00149608  -0.0412236 -0.292309 -0.00123656  -0.0171639 -0.268247 0.000859737  -0.0217341 -0.293491 0.000699043  -0.0188084 -0.272532 0.000536561  -0.0350106 -0.265407 -0.00166667  -0.0403671 -0.290447 -0.0013665  -0.0369343 -0.269623 -0.00137234  -0.0180432 -0.270515 0.000695705  -0.0360422 -0.267633 -0.00152004  -0.048647 -0.335532 -0.00120246  -0.0502867 -0.338902 -0.00100064  -0.0248544 -0.31492 0.000854373  -0.0297461 -0.340662 0.000686169  -0.0263319 -0.31864 0.000538468  -0.0439376 -0.311764 -0.0013454  -0.0495167 -0.337302 -0.00109792  -0.0456783 -0.315403 -0.00111568  -0.0256419 -0.316885 0.00069654  -0.0448624 -0.313686 -0.00123167  -0.0584869 -0.384047 -0.000955462  -0.0599115 -0.386914 -0.000810742  -0.0333445 -0.363088 0.000815034  -0.0384878 -0.389199 0.000652313  -0.0346431 -0.36629 0.00052619  -0.0535001 -0.359625 -0.00108135  -0.0592389 -0.385542 -0.000881433  -0.0550295 -0.362744 -0.000904202  -0.0340351 -0.364778 0.000670791  -0.0543143 -0.361267 -0.000990868  -0.0687618 -0.433618 -0.000751495  -0.069994 -0.436045 -0.000652194  -0.0424982 -0.41245 0.000769615  -0.0478292 -0.43882 0.000600576  -0.0436168 -0.415181 0.00048697  -0.063571 -0.408702 -0.000850558  -0.0694121 -0.434889 -0.000697613  -0.0649027 -0.411346 -0.000728965  -0.0430921 -0.41389 0.000629663  -0.0642747 -0.410097 -0.00079  -0.0793992 -0.484048 -0.000585675  -0.0804279 -0.486068 -0.000530839  -0.0521891 -0.46274 0.000693917  -0.057654 -0.48927 0.00053525  -0.0531321 -0.465046 0.000441551  -0.0740404 -0.458731 -0.000672817  -0.0799395 -0.485095 -0.000556707  -0.0751667 -0.460955 -0.00059104  -0.0526896 -0.463955 0.000568628  -0.0746384 -0.459899 -0.000629902  -0.0902669 -0.535062 -0.00045681  -0.0911262 -0.536735 -0.000432491  -0.062301 -0.51372 0.000619888  -0.067852 -0.540324 0.000458717  -0.0630789 -0.515646 0.000375509  -0.0848039 -0.50948 -0.000519991  -0.0907189 -0.535935 -0.000440717  -0.0857501 -0.511325 -0.000480056  -0.0627141 -0.514734 0.000499368  -0.085302 -0.510452 -0.000500679  -0.101317 -0.586513 -0.000358582  -0.101999 -0.587866 -0.000365257  -0.0727297 -0.565176 0.000520825  -0.078326 -0.591777 0.000374079  -0.0733548 -0.566764 0.000310302  -0.095773 -0.560736 -0.000413537  -0.101672 -0.587208 -0.000360847  -0.0965395 -0.562251 -0.000398874  -0.0730618 -0.566012 0.000416398  -0.0961792 -0.561528 -0.000404835  -0.112432 -0.638169 -0.00029242  -0.112978 -0.639259 -0.000314951  -0.08338 -0.616921 0.000429511  -0.0889866 -0.643456 0.00028336  -0.0838681 -0.618211 0.000228763  -0.106864 -0.612311 -0.000325561  -0.112718 -0.638734 -0.000300527  -0.10748 -0.613532 -0.000338912  -0.0836395 -0.617599 0.000330687  -0.107187 -0.612954 -0.000333905  -0.12359 -0.689928 -0.000250936  -0.123993 -0.690776 -0.000291944  -0.0941691 -0.668786 0.000316739  -0.0997581 -0.695198 0.000188112  -0.0945361 -0.669817 0.000152469  -0.118009 -0.664036 -0.000278473  -0.123797 -0.690356 -0.00027132  -0.118479 -0.665008 -0.000303984  -0.0943646 -0.669327 0.000235081  -0.118258 -0.664541 -0.000290751  -0.134691 -0.741597 -0.000237346  -0.134995 -0.742259 -0.000281215  -0.105025 -0.720628 0.000216246  -0.110573 -0.746874 9.05991e-05  -0.105289 -0.721438 6.33001e-05  -0.129144 -0.715767 -0.000245452  -0.134848 -0.741936 -0.000256896  -0.129499 -0.716521 -0.000285983  -0.105165 -0.721052 0.000141025  -0.129328 -0.716163 -0.000268221  -0.145736 -0.793122 -0.000243902  -0.145932 -0.793612 -0.000294447  -0.115888 -0.772325 9.71556e-05  -0.121379 -0.798368 -9.29832e-06  -0.116064 -0.772948 -1.78814e-05  -0.140223 -0.767376 -0.00024879  -0.145833 -0.79336 -0.000269771  -0.140468 -0.767954 -0.000288963  -0.115982 -0.77265 3.95775e-05  -0.140352 -0.767673 -0.000269175  -0.156643 -0.844352 -0.000272989  -0.156776 -0.84472 -0.000315547  -0.126709 -0.823776 -7.7486e-06  -0.13213 -0.849593 -0.000109792  -0.126813 -0.824246 -0.000110149  -0.151201 -0.818764 -0.000260353  -0.156708 -0.844535 -0.00029242  -0.151368 -0.819193 -0.000304937  -0.126765 -0.824019 -5.82933e-05  -0.151285 -0.818988 -0.000285864  -0.167431 -0.895271 -0.000313044  -0.167494 -0.895524 -0.000352979  -0.137449 -0.874901 -0.000128388  -0.142791 -0.900468 -0.000208974  -0.137497 -0.875248 -0.000192046  -0.162053 -0.869846 -0.000302792  -0.167456 -0.895382 -0.000334263  -0.162147 -0.870161 -0.000336528  -0.137475 -0.875078 -0.000160575  -0.1621 -0.870003 -0.000320554  -0.178031 -0.94575 -0.000357389  -0.178072 -0.945931 -0.000384331  -0.148077 -0.925633 -0.000231266  -0.153329 -0.950926 -0.000304699  -0.148084 -0.925881 -0.00028193  -0.172749 -0.920557 -0.000341773  -0.178046 -0.945825 -0.000370145  -0.172802 -0.920774 -0.00037086  -0.14808 -0.925755 -0.000256658  -0.172772 -0.920664 -0.000360608  -0.188443 -0.995676 -0.000374436  -0.188462 -0.99583 -0.000410795  -0.158548 -0.975879 -0.000341415  -0.163675 -1.0008 -0.000387311  -0.158532 -0.976061 -0.000353456  -0.183265 -0.970797 -0.000380754  -0.188436 -0.995705 -0.000393271  -0.183288 -0.970951 -0.000400782  -0.158536 -0.975953 -0.000347495  -0.183272 -0.970853 -0.00039196  0 0 0  0.00292979 -0.00182557 0.00352502  0.00193577 -0.0059219 0.00203395  0 0 0  0.0018398 -0.000322282 0.00415301  0.0034851 -0.00529486 0.00510681  0.000988103 -0.00268859 0.00226521  0 0 0  0.0011639 0.000371993 0.00227392  0.0022433 -0.00415099 0.00270951  0.000636451 -0.00202966 0.00117922  0 0 0  0.00111429 -0.00185317 0.00295568  0.000725448 -0.00120008 0.0015682  0.00663945 -0.0131974 0.00462878  0.00540203 -0.0192354 0.00302196  0.0073386 -0.00792605 0.00767982  0.00934151 -0.0184023 0.00721884  0.00570486 -0.0131761 0.00509322  0.00477745 -0.00639391 0.00408947  0.00591168 -0.0166144 0.00378299  0.00359693 -0.0116634 0.00262225  0.00627878 -0.0109569 0.00636554  0.00403109 -0.00938731 0.00330317  0.0101264 -0.0326626 0.00500154  0.00876236 -0.0395229 0.00339174  0.0131311 -0.0240472 0.00906539  0.0150622 -0.038609 0.00796878  0.0116088 -0.0305517 0.00638092  0.00848269 -0.0220408 0.00482464  0.00935695 -0.036482 0.00415158  0.00716621 -0.0285848 0.00324273  0.0122672 -0.0276623 0.0076921  0.00771806 -0.0256946 0.00400579  0.0126444 -0.0584346 0.00500107  0.0111414 -0.0654737 0.00346506  0.0184099 -0.0470999 0.00937593  0.0198523 -0.0646363 0.00799036  0.0169555 -0.0540944 0.00672412  0.0115394 -0.0448423 0.00503206  0.0118196 -0.062293 0.0041939  0.0100979 -0.0518731 0.00345254  0.0176207 -0.0509559 0.0080229  0.0107426 -0.0487298 0.00420618  0.0137848 -0.089242 0.00483012  0.012196 -0.0961021 0.0033766  0.022459 -0.0756863 0.00913393  0.0231284 -0.0954821 0.00766945  0.0210212 -0.082653 0.00663078  0.0134054 -0.0732521 0.00493336  0.0129191 -0.09297 0.00407243  0.0118508 -0.0802486 0.00343525  0.0216935 -0.0794864 0.00785756  0.0125488 -0.0770792 0.0041579  0.013396 -0.124338 0.00454521  0.0117707 -0.130738 0.00321043  0.024895 -0.1089 0.00860918  0.0247437 -0.130461 0.00715923  0.0234929 -0.115541 0.00627732  0.013787 -0.106297 0.00469899  0.0125195 -0.127767 0.00385809  0.0121675 -0.112954 0.00330245  0.0241501 -0.112483 0.00742519  0.0129109 -0.109899 0.00398028  0.0114781 -0.162944 0.00422943  0.00986409 -0.168792 0.00300491  0.0256466 -0.146006 0.00796115  0.0246777 -0.168968 0.00658262  0.0242779 -0.152156 0.00581968  0.01263 -0.143222 0.00439656  0.010613 -0.166064 0.00360119  0.0110039 -0.149364 0.00311315  0.02492 -0.149302 0.00687575  0.0117497 -0.146516 0.003739  0.00808835 -0.204544 0.00389671  0.00655127 -0.209777 0.00278592  0.0247263 -0.186388 0.00727296  0.0229944 -0.210444 0.00598943  0.0234196 -0.191966 0.00532556  0.00996238 -0.183393 0.00406945  0.00727117 -0.207313 0.00333345  0.00837553 -0.188941 0.00289989  0.0240336 -0.189359 0.00628769  0.0091157 -0.186354 0.00347483  0.00337422 -0.248581 0.00355875  0.00193894 -0.253219 0.00255203  0.0222306 -0.229492 0.00658154  0.0198215 -0.254413 0.00539613  0.0210142 -0.234479 0.00482213  0.00589347 -0.226269 0.00373733  0.00261474 -0.251033 0.0030477  0.00440502 -0.23121 0.00267291  0.0215886 -0.23214 0.00569391  0.00509846 -0.228892 0.00319731  -0.00254583 -0.294673 0.00322104  -0.00383365 -0.298729 0.00231564  0.0182995 -0.274852 0.0059011  0.0152897 -0.30043 0.00481868  0.0171961 -0.279258 0.0043267  0.000557423 -0.271384 0.00339592  -0.00322282 -0.296805 0.00276625  -0.000811815 -0.275732 0.00243688  0.0177182 -0.277184 0.00510764  -0.000165105 -0.273691 0.00291312  -0.00948906 -0.342398 0.00288212  -0.0106329 -0.345925 0.00207055  0.0130812 -0.322049 0.00524187  0.0095681 -0.348128 0.00425577  0.0121096 -0.325905 0.00383997  -0.00589347 -0.318337 0.00306189  -0.0100893 -0.344254 0.00247276  -0.00710821 -0.32213 0.00219667  0.0125716 -0.324085 0.00453734  -0.00653648 -0.320341 0.00262618  -0.0173374 -0.391473 0.00254989  -0.0183113 -0.3945 0.00182974  0.00674331 -0.370726 0.00460637  0.00279665 -0.397156 0.00371838  0.00590932 -0.374068 0.00337255  -0.0133075 -0.366775 0.00272143  -0.0178449 -0.393056 0.00219035  -0.0143713 -0.370051 0.00195229  0.00630641 -0.372488 0.00398636  -0.0138646 -0.368509 0.00233734  -0.0259117 -0.441562 0.00222313  -0.0267391 -0.444146 0.00158584  -0.000563264 -0.420566 0.0040015  -0.00485516 -0.447234 0.00320315  -0.00125599 -0.423435 0.00292099  -0.0215365 -0.416392 0.00239658  -0.0263427 -0.442919 0.0019027  -0.0224341 -0.419199 0.00171053  -0.000923753 -0.422075 0.00345993  -0.0220094 -0.417871 0.0020529  -0.0351152 -0.492457 0.00190687  -0.0357804 -0.494627 0.00135291  -0.00868046 -0.47129 0.00342607  -0.0132618 -0.498085 0.00271857  -0.00923812 -0.473728 0.00249481  -0.0304412 -0.466914 0.00206935  -0.0354584 -0.493586 0.0016315  -0.0311909 -0.469291 0.00147057  -0.00897002 -0.47257 0.00295901  -0.0308312 -0.468171 0.0017724  -0.0447851 -0.543879 0.00160277  -0.0453223 -0.545692 0.00112247  -0.0174719 -0.522654 0.00288785  -0.0222685 -0.549492 0.00226271  -0.0179014 -0.5247 0.00208998  -0.0398933 -0.518099 0.00176454  -0.0450625 -0.544827 0.00136149  -0.0404906 -0.520093 0.00123978  -0.0176932 -0.523726 0.00248897  -0.0402062 -0.519147 0.00150275  -0.0548491 -0.595678 0.00131345  -0.0552473 -0.597158 0.000907779  -0.0268019 -0.574442 0.00238431  -0.031772 -0.601239 0.00184143  -0.0271161 -0.576136 0.00171542  -0.049773 -0.569734 0.00146198  -0.0550508 -0.596442 0.00111258  -0.0502434 -0.57138 0.00101566  -0.0269628 -0.575327 0.00204933  -0.0500153 -0.570604 0.00124228  -0.0651634 -0.647625 0.00104213  -0.0654628 -0.648828 0.000699162  -0.0365541 -0.626463 0.00192249  -0.0416372 -0.653161 0.00145268  -0.0367656 -0.627845 0.00136554  -0.0599747 -0.621628 0.00118709  -0.0653155 -0.648251 0.000869632  -0.0603194 -0.622971 0.000804901  -0.03666 -0.627182 0.00164473  -0.0601542 -0.622332 0.000997186  -0.0756822 -0.699619 0.000786781  -0.0758734 -0.700564 0.000509977  -0.0466173 -0.678554 0.00149763  -0.0517857 -0.705092 0.0011009  -0.0467429 -0.67966 0.00104928  -0.070401 -0.673617 0.000917435  -0.0757747 -0.700099 0.000650167  -0.0706487 -0.674691 0.00060451  -0.0466788 -0.679126 0.00127327  -0.0705259 -0.674183 0.000764728  -0.0862839 -0.751472 0.000552654  -0.0864091 -0.752215 0.000328541  -0.0568998 -0.73057 0.00111759  -0.0621068 -0.756913 0.000784039  -0.0569549 -0.731439 0.000760317  -0.0809705 -0.725555 0.000678658  -0.086344 -0.751855 0.000439286  -0.0811248 -0.726402 0.000420332  -0.0569236 -0.731017 0.000939965  -0.0810497 -0.725996 0.000550628  -0.0969498 -0.803132 0.000334263  -0.0969982 -0.80369 0.00016737  -0.0673184 -0.782396 0.00077486  -0.0725498 -0.808505 0.000503063  -0.0673184 -0.783064 0.000505567  -0.0916109 -0.777324 0.0004462  -0.096967 -0.803407 0.000252366  -0.0917003 -0.777975 0.000247955  -0.0673141 -0.782735 0.000639796  -0.0916524 -0.777666 0.000350714  -0.107584 -0.854455 0.000136733  -0.107595 -0.85488 1.35899e-05  -0.0778081 -0.833932 0.000474215  -0.083029 -0.859792 0.000254154  -0.0777659 -0.834436 0.000276804  -0.102267 -0.828825 0.000244379  -0.107584 -0.854668 7.36713e-05  -0.102293 -0.829319 9.19104e-05  -0.0777819 -0.834184 0.000376105  -0.102279 -0.829078 0.000169158  -0.11819 -0.905428 -4.74453e-05  -0.118147 -0.90573 -0.000121117  -0.0883148 -0.885105 0.00020647  -0.0935185 -0.910695 3.45707e-05  -0.0882406 -0.885478 7.82013e-05  -0.112891 -0.879982 4.79221e-05  -0.118159 -0.905565 -8.32081e-05  -0.112879 -0.880345 -5.30481e-05  -0.088273 -0.885287 0.000141382  -0.11288 -0.88017 8.34465e-07  -0.128682 -0.955929 -0.000218511  -0.128622 -0.956155 -0.000253558  -0.0987954 -0.935856 -3.25441e-05  -0.103941 -0.961166 -0.000172019  -0.0986929 -0.936129 -0.000103712  -0.123446 -0.930728 -0.000122309  -0.12864 -0.956029 -0.000237942  -0.123392 -0.930993 -0.000185847  -0.0987363 -0.935981 -6.7234e-05  -0.123414 -0.930855 -0.000153184  -0.139011 -1.00585 -0.000390172  -0.138933 -1.00606 -0.000371099  -0.109195 -0.986113 -0.000271559  -0.114236 -1.01107 -0.000381112  -0.109061 -0.986325 -0.000272274  -0.133879 -0.98098 -0.000299454  -0.138952 -1.00592 -0.000378013  -0.133806 -0.981178 -0.000312686  -0.109109 -0.986195 -0.000269175  -0.133826 -0.981066 -0.000301719  0 0 0  0.00635783 -0.0046258 0.00930953  0.00419945 -0.00855434 0.00575185  0 0 0  0.00346329 -0.00238609 0.00772405  0.00618301 -0.00873417 0.00962782  0.00184337 -0.00466818 0.00428212  0 0 0  0.00264303 -0.00120425 0.00604057  0.00485453 -0.00681531 0.00740516  0.00138491 -0.0034849 0.00331628  0 0 0  0.00201433 -0.00381929 0.00544167  0.00155969 -0.00271815 0.00430882  0.0141576 -0.0173168 0.0124923  0.0120084 -0.0232813 0.00873792  0.0131838 -0.0124427 0.0146681  0.0165937 -0.0235353 0.0140262  0.0102566 -0.0176485 0.00990534  0.0102204 -0.0100013 0.0111641  0.0128529 -0.0207221 0.010581  0.00790538 -0.0151553 0.00753021  0.0112723 -0.0153805 0.0122528  0.00870502 -0.0129299 0.00930262  0.0219181 -0.0373985 0.013713  0.0202645 -0.0442946 0.00988114  0.0232808 -0.0294952 0.0174977  0.0272429 -0.0444358 0.0156019  0.0211056 -0.0361533 0.0126486  0.0181166 -0.0265375 0.0132041  0.0210053 -0.0412567 0.0117699  0.0161973 -0.0330628 0.00944674  0.0220159 -0.0332288 0.015067  0.0170032 -0.0301436 0.0113287  0.0288441 -0.0636135 0.0136462  0.0274026 -0.0706421 0.00996614  0.0330363 -0.0530742 0.0181338  0.0366918 -0.07082 0.0155684  0.0314512 -0.0601917 0.0132744  0.025544 -0.0498369 0.0137471  0.0281008 -0.0674723 0.0117748  0.0240131 -0.0568632 0.0100049  0.0321813 -0.057009 0.0156975  0.0247302 -0.0537254 0.0118426  0.0342013 -0.0947289 0.0129969  0.0329255 -0.101596 0.00956297  0.0413706 -0.0819649 0.0175514  0.044285 -0.101941 0.0148249  0.0401151 -0.0890262 0.0129879  0.0317484 -0.0785868 0.0133469  0.033542 -0.0984661 0.0112563  0.0303892 -0.0855815 0.00980997  0.0407366 -0.0858293 0.0152507  0.0310455 -0.0824106 0.0115556  0.0377484 -0.130149 0.0120673  0.0365793 -0.136582 0.0088917  0.0478504 -0.115449 0.0164407  0.0498602 -0.137212 0.0137384  0.0468067 -0.122182 0.0121999  0.0362046 -0.111941 0.0125376  0.0371491 -0.133602 0.0104568  0.0349904 -0.118616 0.00924361  0.0473266 -0.119096 0.0143006  0.0355777 -0.115554 0.0108659  0.0394658 -0.16912 0.0110332  0.038368 -0.175039 0.0081408  0.0523456 -0.152857 0.0151161  0.0533981 -0.17605 0.0125403  0.0514213 -0.159108 0.0112184  0.0388426 -0.149211 0.0115488  0.038898 -0.172288 0.00956905  0.0377026 -0.155402 0.0085206  0.0518808 -0.156223 0.0131468  0.0382543 -0.152541 0.0100118  0.0393749 -0.211131 0.00997984  0.0383704 -0.216467 0.00736141  0.0548387 -0.193577 0.0137118  0.0549754 -0.217902 0.011314  0.0540174 -0.199279 0.010179  0.0396388 -0.189772 0.0104983  0.0388576 -0.213964 0.008654  0.0385899 -0.195408 0.00774908  0.0544227 -0.196633 0.0119261  0.0390936 -0.192785 0.00910509  0.0376204 -0.255614 0.00893962  0.036705 -0.260379 0.0065974  0.0554372 -0.237059 0.0123193  0.0547101 -0.262263 0.0101116  0.0547019 -0.242186 0.00913513  0.0387043 -0.233079 0.00945389  0.0371482 -0.258145 0.00775659  0.0377362 -0.238133 0.00697494  0.0550646 -0.2398 0.0107106  0.038204 -0.235775 0.00819683  0.0343223 -0.302162 0.0079366  0.0335271 -0.306362 0.00585186  0.0542499 -0.28281 0.0109533  0.0527546 -0.308685 0.00894904  0.0536191 -0.287372 0.00812578  0.0361533 -0.278647 0.00842762  0.0339158 -0.304379 0.00688267  0.0353006 -0.283132 0.00621843  0.0539305 -0.285243 0.00952482  0.0357114 -0.281031 0.00731015  0.029673 -0.350341 0.00697351  0.0289888 -0.354016 0.00514209  0.0514637 -0.330403 0.00965571  0.0492784 -0.356768 0.00784385  0.0509316 -0.33442 0.00715208  0.0321627 -0.326058 0.00744855  0.0293238 -0.352286 0.00605071  0.0314168 -0.329994 0.00549078  0.051196 -0.332542 0.0083921  0.0317806 -0.32815 0.00645673  0.0238121 -0.399844 0.00606465  0.0232613 -0.40302 0.00446284  0.0472289 -0.379456 0.00841236  0.044454 -0.406163 0.00679719  0.0468112 -0.382962 0.00623512  0.0268829 -0.374938 0.0065074  0.0235354 -0.401513 0.00525606  0.0262691 -0.378365 0.00479519  0.0470208 -0.381322 0.00731361  0.0265679 -0.376753 0.00564265  0.0169362 -0.45033 0.00520432  0.0164969 -0.453057 0.00382686  0.0417447 -0.429648 0.00725579  0.0384576 -0.456565 0.00581825  0.0414306 -0.432674 0.0053643  0.0204978 -0.42497 0.00562751  0.0167167 -0.451769 0.00451195  0.0199982 -0.427918 0.00413823  0.0415914 -0.431256 0.00630236  0.020246 -0.426534 0.00487339  0.00917161 -0.501575 0.00440633  0.00885832 -0.503878 0.00322688  0.0351658 -0.480683 0.00616312  0.0314548 -0.507703 0.00490606  0.0349605 -0.48327 0.00455892  0.0131553 -0.475864 0.00479269  0.00902057 -0.502779 0.0038116  0.0127833 -0.47838 0.00351918  0.0350692 -0.482057 0.00535429  0.0129679 -0.477194 0.00415015  0.000702262 -0.553302 0.00366247  0.000483036 -0.555234 0.00267577  0.0276747 -0.532318 0.0051657  0.0236073 -0.559345 0.00406718  0.0275613 -0.534498 0.00380433  0.00502264 -0.527379 0.00402641  0.000598431 -0.554318 0.00316763  0.00475335 -0.529495 0.00294447  0.0276262 -0.533475 0.00448048  0.00489259 -0.5285 0.00347817  -0.00837111 -0.605355 0.00298619  -0.00848579 -0.60694 0.00216424  0.0194132 -0.584328 0.00423753  0.0150616 -0.611286 0.00330043  0.0193878 -0.586143 0.00312054  -0.00376737 -0.579291 0.00330997  -0.00841773 -0.606177 0.0025717  -0.00392962 -0.581051 0.00241196  0.0194103 -0.58529 0.00367486  -0.00384438 -0.580218 0.00285709  -0.0178828 -0.657507 0.0023663  -0.0179315 -0.658799 0.00170529  0.0105374 -0.636527 0.00341034  0.00595713 -0.66335 0.00261021  0.0105796 -0.638011 0.00249147  -0.0130727 -0.631416 0.00266719  -0.0178971 -0.658182 0.00203562  -0.0131567 -0.632852 0.00192761  0.0105698 -0.637313 0.00294852  -0.0131056 -0.632175 0.00229156  -0.0277603 -0.709658 0.00181735  -0.0277345 -0.710677 0.00128829  0.00117064 -0.688751 0.00265503  -0.00358391 -0.715386 0.00199544  0.00127029 -0.689943 0.00193644  -0.0227821 -0.683584 0.00207651  -0.0277338 -0.71018 0.00155044  -0.022789 -0.68474 0.00148833  0.00123167 -0.68938 0.00229347  -0.0227785 -0.68419 0.00177956  -0.0378618 -0.761627 0.00132668  -0.0378022 -0.762428 0.000925422  -0.00856304 -0.74086 0.00200379  -0.013448 -0.767269 0.00145876  -0.00842667 -0.741798 0.00143814  -0.0327816 -0.735659 0.00156248  -0.0378206 -0.762041 0.00112641  -0.0327408 -0.736567 0.00109971  -0.00848341 -0.741354 0.00172007  -0.0327506 -0.736138 0.00132596  -0.048147 -0.81336 0.000903249  -0.0480423 -0.813964 0.000603795  -0.0185635 -0.79274 0.00142395  -0.0235405 -0.818892 0.00099647  -0.0184023 -0.793463 0.00101566  -0.0429857 -0.787521 0.00109923  -0.0480804 -0.81366 0.000751495  -0.0428996 -0.788224 0.000756502  -0.0184729 -0.793119 0.00121844  -0.0429344 -0.787886 0.000925541  -0.0585029 -0.864719 0.000532627  -0.0583889 -0.865181 0.000332236  -0.0287411 -0.844295 0.00094378  -0.0337789 -0.870177 0.000605345  -0.0285711 -0.844844 0.000646591  -0.0533133 -0.839077 0.000708818  -0.0584357 -0.864952 0.000432849  -0.0532064 -0.839608 0.000461936  -0.0286479 -0.844581 0.000794768  -0.0532491 -0.839355 0.000580549  -0.0689192 -0.915698 0.000217438  -0.0687747 -0.916036 9.14335e-05  -0.0390263 -0.895458 0.000524879  -0.0440962 -0.921061 0.000274658  -0.0388525 -0.895873 0.000344038  -0.0637059 -0.890251 0.000361919  -0.0688348 -0.915855 0.000152707  -0.0635753 -0.890653 0.000205874  -0.0389335 -0.895672 0.000432968  -0.0636342 -0.890455 0.000281692  -0.079303 -0.96619 -8.18968e-05  -0.0791492 -0.966464 -0.000122786  -0.0493655 -0.94618 0.000179291  -0.0544307 -0.971517 -2.64645e-05  -0.0491853 -0.946503 7.41482e-05  -0.0741119 -0.940997 6.75917e-05  -0.0792117 -0.966321 -0.000100136  -0.0739672 -0.941298 -1.77622e-05  -0.0492666 -0.946345 0.000127077  -0.0740287 -0.941149 2.07424e-05  -0.0896235 -1.01617 -0.00039947  -0.0894163 -1.01643 -0.000334263  -0.0596979 -0.996435 -0.000178814  -0.0646913 -1.02151 -0.000327468  -0.0594981 -0.996715 -0.000169039  -0.0844831 -0.991251 -0.000241041  -0.0894823 -1.01626 -0.000359774  -0.0842993 -0.991504 -0.000234962  -0.0595839 -0.996571 -0.000170827  -0.0843699 -0.991365 -0.000236988  0 0 0  0.0101454 -0.00886065 0.0148703  0.00678876 -0.0129483 0.00935972  0 0 0  0.00475964 -0.00591588 0.0115087  0.00921762 -0.0142521 0.0144719  0.00271522 -0.00784671 0.00655854  0 0 0  0.004134 -0.00385362 0.00950849  0.00774679 -0.0111721 0.0119252  0.00220375 -0.00612682 0.00531542  0 0 0  0.00290727 -0.0069713 0.00848722  0.00247037 -0.00527596 0.00683761  0.0226389 -0.0234275 0.0205714  0.0195649 -0.0296769 0.0145608  0.0195819 -0.0191395 0.0219853  0.0255239 -0.0312197 0.021208  0.0158889 -0.0247208 0.0151696  0.0163563 -0.0153369 0.0181403  0.0207307 -0.0269798 0.0175574  0.0128045 -0.0207765 0.0124447  0.0169747 -0.0222535 0.018661  0.0139832 -0.0184042 0.0152004  0.0350774 -0.0442771 0.0224847  0.0331411 -0.051337 0.0164171  0.0349394 -0.0371544 0.0263546  0.0413969 -0.052495 0.0233843  0.0325103 -0.0441809 0.0190918  0.0289784 -0.0330336 0.0218343  0.0340134 -0.0481896 0.019448  0.026471 -0.0398335 0.0157535  0.0336334 -0.0410869 0.0227453  0.027486 -0.0368859 0.01884  0.0464559 -0.0707432 0.022295  0.0450824 -0.0779449 0.0164695  0.049484 -0.061082 0.0270013  0.0555115 -0.0790199 0.0231811  0.0479501 -0.068436 0.0198795  0.0409567 -0.056825 0.0225828  0.0457951 -0.0746726 0.0193576  0.0393434 -0.0640455 0.0165851  0.0487345 -0.0651093 0.0234454  0.0401427 -0.0608091 0.0195756  0.055961 -0.102102 0.0211465  0.0549647 -0.109085 0.015703  0.0621685 -0.0901968 0.0260326  0.0673043 -0.110313 0.0219975  0.0611211 -0.0973951 0.0193448  0.051468 -0.0858418 0.0217962  0.0554932 -0.105886 0.0183991  0.0503098 -0.0929677 0.0161679  0.0617008 -0.0941109 0.0226792  0.050909 -0.0897368 0.0189743  0.0633578 -0.137764 0.0195711  0.0625702 -0.144304 0.0145601  0.0726117 -0.123898 0.0243251  0.0766987 -0.145817 0.0203606  0.0718768 -0.130722 0.0181335  0.0599329 -0.119434 0.0203875  0.0629934 -0.141282 0.0170411  0.0590472 -0.126218 0.0151635  0.0723015 -0.127577 0.0212197  0.0595195 -0.123108 0.0177577  0.0686037 -0.177007 0.0178479  0.0679399 -0.183045 0.013271  0.0807338 -0.161546 0.0223269  0.0837327 -0.184907 0.0185525  0.0801825 -0.167874 0.0166565  0.066251 -0.15696 0.0187212  0.0682942 -0.180247 0.0155349  0.0655339 -0.163266 0.01393  0.0805082 -0.164947 0.0194831  0.0659149 -0.160357 0.0163068  0.0717113 -0.219345 0.016081  0.0711578 -0.224803 0.0119616  0.0865403 -0.202539 0.0202209  0.0884454 -0.227056 0.0167089  0.0861135 -0.208317 0.0150831  0.0704215 -0.197823 0.0169654  0.0714542 -0.222259 0.014001  0.069808 -0.203578 0.01262  0.0863729 -0.205634 0.0176435  0.0701334 -0.200915 0.0147755  0.0728279 -0.26415 0.0143529  0.0723567 -0.269057 0.0106661  0.0901033 -0.246304 0.0181174  0.0909908 -0.271703 0.0148914  0.0897751 -0.251516 0.0135107  0.0725141 -0.241453 0.0152169  0.0726107 -0.26677 0.0124905  0.0720031 -0.246644 0.0113128  0.0899811 -0.249092 0.0158081  0.0722739 -0.244233 0.0132487  0.0720645 -0.311051 0.0126817  0.0717001 -0.315387 0.00942779  0.0915676 -0.292347 0.0160724  0.0914992 -0.318419 0.0131469  0.091329 -0.296998 0.0119836  0.0726722 -0.287363 0.0135132  0.071902 -0.313355 0.0110402  0.0722479 -0.291987 0.0100437  0.0914894 -0.294829 0.0140227  0.072477 -0.289838 0.0117661  0.0696399 -0.359545 0.0110967  0.0693605 -0.363367 0.00824201  0.0910916 -0.340212 0.014115  0.0901811 -0.366762 0.0114824  0.0909444 -0.344323 0.010522  0.071054 -0.335105 0.0118877  0.0695208 -0.361579 0.00965583  0.0707325 -0.33919 0.00882995  0.0910589 -0.342405 0.012316  0.0709096 -0.337286 0.0103474  0.0656941 -0.409362 0.00960004  0.0655259 -0.412672 0.0071317  0.0888761 -0.389524 0.0122639  0.0872016 -0.416398 0.00992119  0.0888175 -0.393119 0.00914168  0.0678465 -0.384304 0.0103432  0.0656339 -0.411114 0.00835657  0.0676173 -0.387872 0.00768137  0.0888877 -0.391438 0.0107007  0.0677522 -0.38621 0.00900495  0.0604595 -0.460109 0.00820303  0.0603732 -0.462966 0.00608647  0.0851052 -0.439932 0.0105277  0.0827813 -0.466992 0.00845718  0.0851364 -0.443044 0.00784469  0.0632331 -0.434621 0.00890028  0.0604411 -0.461625 0.00713575  0.0631068 -0.437708 0.00660276  0.0851628 -0.441588 0.00918639  0.0631899 -0.436265 0.00774431  0.0540707 -0.511589 0.00690854  0.0540866 -0.514006 0.00512362  0.0799848 -0.491154 0.00891459  0.0770861 -0.518288 0.00710797  0.0800971 -0.493813 0.00664103  0.0573994 -0.485767 0.00754988  0.0541064 -0.512861 0.00601077  0.0573599 -0.488405 0.00559819  0.0800825 -0.492565 0.00777793  0.0574038 -0.487174 0.00657082  0.0467477 -0.563498 0.00571871  0.0468278 -0.565531 0.00423229  0.073694 -0.542926 0.00742781  0.0703212 -0.570039 0.00586462  0.0738814 -0.545168 0.00552845  0.0505228 -0.537488 0.00631201  0.046815 -0.564572 0.00496984  0.0505724 -0.539716 0.00467062  0.0738301 -0.544114 0.00648034  0.0505706 -0.538671 0.00548744  0.0386057 -0.615697 0.00463974  0.038765 -0.617362 0.00342774  0.0664203 -0.595038 0.00607181  0.0626371 -0.622048 0.00474215  0.0666683 -0.596896 0.00451577  0.04277 -0.589566 0.00517261  0.0387151 -0.616566 0.0040313  0.0428869 -0.591416 0.00382197  0.0665848 -0.596018 0.0052954  0.0428554 -0.590551 0.00449717  0.0298414 -0.667948 0.00366843  0.0300369 -0.669302 0.00269973  0.0583246 -0.647293 0.00484991  0.0542154 -0.674141 0.00373161  0.0586209 -0.648804 0.00359988  0.0343003 -0.64181 0.00415266  0.0299671 -0.668658 0.00318062  0.0344796 -0.643323 0.00305557  0.0585132 -0.648088 0.00422835  0.0344138 -0.642609 0.00360274  0.0205464 -0.720163 0.00281298  0.0207887 -0.721224 0.00206065  0.0495691 -0.699539 0.00376308  0.0451841 -0.726168 0.00284624  0.0498948 -0.700739 0.00278831  0.0252531 -0.694061 0.00323343  0.0206974 -0.720707 0.0024364  0.0254698 -0.695269 0.00237131  0.0497687 -0.700166 0.00327826  0.0253885 -0.694702 0.0028044  0.0108902 -0.772158 0.00206614  0.0111344 -0.772984 0.0015018  0.0402906 -0.751636 0.00281596  0.0356987 -0.778016 0.00207758  0.0406296 -0.752563 0.00207782  0.0157647 -0.74618 0.00243795  0.0110371 -0.772585 0.00178182  0.01601 -0.747125 0.00177276  0.0404954 -0.752117 0.00245118  0.0159094 -0.746674 0.00210571  0.000934362 -0.823887 0.00143564  0.00119257 -0.824501 0.00103199  0.0306234 -0.803477 0.0020076  0.0258603 -0.829576 0.00143623  0.0309556 -0.804173 0.00147593  0.00594449 -0.798053 0.00174356  0.00108814 -0.824191 0.00123477  0.0061934 -0.798773 0.00125754  0.0308182 -0.803831 0.00174487  0.00609207 -0.798432 0.00150406  -0.00918412 -0.875213 0.000905514  -0.00895071 -0.875682 0.00063622  0.0206754 -0.854969 0.00133896  0.0157964 -0.880788 0.000908017  0.0209875 -0.855481 0.000974655  -0.00410175 -0.849589 0.0011704  -0.00904989 -0.875448 0.000769615  -0.00385451 -0.850132 0.000826955  0.0208559 -0.855225 0.00116169  -0.00396228 -0.849867 0.00100017  -0.0194387 -0.926141 0.000472188  -0.0192049 -0.92649 0.000314355  0.0105467 -0.906052 0.000798345  0.00557828 -0.931592 0.000488997  0.0108283 -0.906432 0.000573277  -0.0142977 -0.900721 0.000686169  -0.0193048 -0.926302 0.00039506  -0.0140686 -0.901128 0.000469327  0.0107031 -0.906234 0.000689149  -0.0141673 -0.900931 0.000581861  -0.0297298 -0.976595 8.38041e-05  -0.0295098 -0.976889 2.77758e-05  0.00030756 -0.956695 0.00036335  -0.00469637 -0.981998 0.000131607  0.000564337 -0.956997 0.00024581  -0.0245738 -0.951411 0.000290036  -0.0296023 -0.976735 5.65052e-05  -0.0243495 -0.951734 0.000170588  0.000448704 -0.956838 0.000309825  -0.0244517 -0.951571 0.000232458  -0.04003 -1.02663 -0.000309467  -0.0397849 -1.02692 -0.00023675  -0.00998497 -1.00692 -3.00407e-05  -0.0150056 -1.03204 -0.000207067  -0.00973845 -1.0072 -4.04119e-05  -0.0348859 -1.00165 -0.000100136  -0.0398805 -1.02677 -0.000264525  -0.0346587 -1.00194 -0.0001086  -0.00984287 -1.00705 -2.92063e-05  -0.0347507 -1.0018 -9.89437e-05  0 0 0  0.0152273 -0.0157515 0.0216964  0.0111668 -0.0201473 0.0140831  0 0 0  0.0087944 -0.0133536 0.0155771  0.0164096 -0.0234158 0.0199809  0.00662734 -0.0147293 0.00943804  0 0 0  0.00613329 -0.0087328 0.0134985  0.0120591 -0.0184314 0.017584  0.00351974 -0.0100785 0.00788105  0 0 0  0.0064204 -0.0133569 0.0115635  0.0037899 -0.0092569 0.0101069  0.033018 -0.0319408 0.0293363  0.0293575 -0.0386869 0.0206429  0.0302173 -0.0280875 0.030859  0.0376945 -0.0410714 0.0286739  0.026453 -0.0337778 0.0208079  0.0240304 -0.0236027 0.0266293  0.0309958 -0.0359779 0.0249485  0.0198617 -0.0291632 0.0181441  0.0271758 -0.0317414 0.0259639  0.0212973 -0.0268615 0.0223408  0.0506762 -0.053117 0.0314792  0.048604 -0.0605658 0.0230706  0.0498656 -0.0471707 0.0352634  0.0585403 -0.0626062 0.0312486  0.0472647 -0.0543879 0.0255128  0.0421243 -0.0419586 0.0308309  0.0495374 -0.0573116 0.0272899  0.0392758 -0.0491152 0.0222628  0.0483291 -0.0510607 0.0304666  0.0404666 -0.0458362 0.0266637  0.0665208 -0.0798559 0.0310665  0.0652531 -0.0872177 0.0230411  0.0690157 -0.0711185 0.0359181  0.0772679 -0.0891293 0.0308614  0.06745 -0.0785139 0.0265077  0.0587999 -0.0658523 0.0315104  0.0659713 -0.0838471 0.0270648  0.0572244 -0.0732908 0.0232357  0.0682454 -0.0751595 0.0312886  0.0580739 -0.0699073 0.027408  0.0801355 -0.1114 0.0293392  0.079335 -0.118456 0.0219308  0.0859694 -0.100479 0.0344645  0.0931947 -0.12061 0.0292487  0.0849124 -0.107532 0.0257349  0.0736547 -0.0950634 0.0303109  0.079828 -0.115231 0.025638  0.0726462 -0.102272 0.0225747  0.0855857 -0.104276 0.0301728  0.0732275 -0.0989564 0.0264727  0.0912701 -0.147304 0.0272092  0.0907581 -0.15385 0.0203345  0.100288 -0.134419 0.0321496  0.10635 -0.156314 0.0270487  0.0996677 -0.141025 0.0241194  0.0859875 -0.128865 0.0283079  0.0911101 -0.150825 0.0237846  0.0853637 -0.135663 0.0211563  0.100114 -0.137945 0.0282034  0.0857973 -0.132514 0.0247575  0.0999385 -0.186777 0.0247215  0.0995726 -0.192821 0.0185242  0.111985 -0.172328 0.0294824  0.116762 -0.19568 0.0246329  0.111521 -0.178379 0.022141  0.0959317 -0.166649 0.0259777  0.0998372 -0.190055 0.021623  0.0954983 -0.172923 0.0194314  0.111904 -0.175564 0.0258765  0.0957966 -0.170007 0.0227252  0.106116 -0.229384 0.0223137  0.105883 -0.234833 0.0166826  0.120966 -0.213552 0.0266615  0.12451 -0.238042 0.0221571  0.120698 -0.21908 0.020045  0.103303 -0.207747 0.0235138  0.106087 -0.232308 0.0195085  0.103022 -0.21348 0.0175906  0.120963 -0.216495 0.0234104  0.103273 -0.210814 0.0205715  0.109982 -0.274426 0.0198181  0.109822 -0.279346 0.0148544  0.127396 -0.257551 0.023859  0.129716 -0.282941 0.0197279  0.12718 -0.262505 0.0179393  0.108346 -0.251647 0.0210549  0.109975 -0.277091 0.0173373  0.108147 -0.256809 0.0157505  0.127427 -0.260198 0.0209514  0.108322 -0.254401 0.0184188  0.111622 -0.321569 0.0175283  0.111567 -0.325916 0.0131061  0.131344 -0.303775 0.0211234  0.132566 -0.329824 0.0173818  0.131263 -0.30822 0.0158986  0.111042 -0.297781 0.0186605  0.111678 -0.323897 0.0153259  0.110949 -0.3024 0.0139596  0.131425 -0.306141 0.0185562  0.111095 -0.300249 0.0163257  0.111299 -0.370261 0.0152459  0.11131 -0.374109 0.0114318  0.133058 -0.351813 0.0185146  0.133245 -0.378343 0.0151557  0.13302 -0.355718 0.0139381  0.111708 -0.345757 0.0163699  0.111375 -0.372343 0.013341  0.111683 -0.349834 0.0122472  0.133168 -0.353899 0.0162667  0.11177 -0.34793 0.0143213  0.109141 -0.420258 0.0131907  0.109254 -0.423587 0.00986612  0.13269 -0.401229 0.0160412  0.13198 -0.428068 0.0130554  0.13277 -0.404668 0.0120915  0.110415 -0.39513 0.0142028  0.109279 -0.422037 0.0115355  0.110489 -0.398706 0.0106276  0.132844 -0.403061 0.0141  0.110544 -0.39704 0.0124274  0.105427 -0.471132 0.0111917  0.105602 -0.474014 0.0083946  0.130502 -0.451722 0.0137296  0.128975 -0.47874 0.0110986  0.13063 -0.454678 0.0103521  0.107477 -0.445609 0.0121721  0.105585 -0.472687 0.00979543  0.10762 -0.448698 0.0091089  0.130684 -0.453303 0.0120695  0.107622 -0.447255 0.0106497  0.100291 -0.522706 0.00941348  0.100554 -0.525137 0.00704205  0.126672 -0.50296 0.0115769  0.124452 -0.530035 0.00928676  0.1269 -0.505503 0.00874412  0.10301 -0.496854 0.0102853  0.100501 -0.524001 0.00823247  0.103238 -0.499501 0.0076977  0.126892 -0.504316 0.0101826  0.103208 -0.498267 0.00899994  0.0939945 -0.57466 0.00772452  0.0943029 -0.576703 0.00579286  0.121442 -0.554722 0.00960124  0.118607 -0.581763 0.00762701  0.121711 -0.556846 0.00725436  0.0972855 -0.548649 0.0085485  0.0942172 -0.575758 0.00676024  0.097571 -0.550874 0.00639713  0.121682 -0.555859 0.00844502  0.0974998 -0.549835 0.00747788  0.0866611 -0.626866 0.0062443  0.0870311 -0.62853 0.00466931  0.11499 -0.606763 0.00779641  0.111643 -0.633686 0.00612497  0.11533 -0.608533 0.00590539  0.0904377 -0.600745 0.00696492  0.0869191 -0.627745 0.00545871  0.0907838 -0.602591 0.00521135  0.115254 -0.607706 0.00686228  0.0906863 -0.601728 0.00609255  0.0785208 -0.679087 0.00488114  0.0789087 -0.680428 0.00365674  0.107522 -0.658924 0.00617969  0.103737 -0.68567 0.00478148  0.107887 -0.660343 0.00468326  0.082689 -0.65298 0.00554156  0.0787778 -0.679801 0.00426936  0.0830688 -0.654473 0.00414383  0.107795 -0.659682 0.00543857  0.0829449 -0.653774 0.00484371  0.0696819 -0.731238 0.00371456  0.0700963 -0.732275 0.00277436  0.0992079 -0.71103 0.0047394  0.095063 -0.737547 0.00360596  0.0996065 -0.71216 0.00360906  0.0741761 -0.705177 0.00427592  0.0699522 -0.731775 0.00324416  0.0745816 -0.706361 0.00319648  0.0994864 -0.711628 0.00417638  0.0744419 -0.705802 0.00373685  0.0603423 -0.783146 0.00268853  0.0607386 -0.783934 0.0020107  0.0902159 -0.762971 0.00349808  0.0857782 -0.789228 0.00259626  0.0906115 -0.763823 0.00266993  0.0650723 -0.75722 0.00317943  0.0605924 -0.783555 0.0023489  0.0654795 -0.758126 0.00237417  0.0904839 -0.763422 0.00308335  0.065331 -0.757698 0.00277448  0.0505905 -0.834765 0.00185227  0.0509748 -0.835334 0.00138211  0.0807002 -0.81463 0.00244248  0.0760291 -0.840602 0.00176668  0.0810888 -0.815267 0.00188816  0.055511 -0.808991 0.00224614  0.0508285 -0.835044 0.00161541  0.0559037 -0.809666 0.00167775  0.0809526 -0.814958 0.00216138  0.0557532 -0.809339 0.00196016  0.0405884 -0.885975 0.00116789  0.0409226 -0.886391 0.00087297  0.0707984 -0.865938 0.00159788  0.0659528 -0.891628 0.00110865  0.0711529 -0.866387 0.00124824  0.0456188 -0.860412 0.00148928  0.0407887 -0.886176 0.00101984  0.0459793 -0.860899 0.00111091  0.0710192 -0.866165 0.00141907  0.0458362 -0.860661 0.00129616  0.0303991 -0.93678 0.000651121  0.0307026 -0.937092 0.000483394  0.060643 -0.916837 0.000940919  0.0556762 -0.942266 0.000623703  0.0609624 -0.917178 0.000764251  0.0355136 -0.911421 0.000887871  0.0305727 -0.936916 0.000565648  0.0358312 -0.911782 0.00066328  0.0608311 -0.916995 0.000847697  0.0356967 -0.911594 0.000773787  0.0201416 -0.987136 0.000232339  0.0203989 -0.987414 0.000169754  0.0503414 -0.967319 0.00048089  0.0453188 -0.992562 0.000260234  0.0506213 -0.967598 0.000395894  0.0252802 -0.962002 0.000435948  0.0202835 -0.987273 0.000202656  0.0255568 -0.962289 0.000319004  0.0504963 -0.967457 0.000436664  0.0254333 -0.962144 0.000374198  0.00979042 -1.03721 -0.000149965  0.010077 -1.03749 -0.000112057  0.0399933 -1.01744 0.000102162  0.0349488 -1.04257 -6.83069e-05  0.0402496 -1.01774 0.000108242  0.0149779 -1.01218 3.37362e-05  0.00995517 -1.03731 -0.000125527  0.0152433 -1.01247 2.00272e-05  0.0401356 -1.01758 9.56059e-05  0.0151277 -1.01232 2.94447e-05  -0.0165904 -0.0198108 -0.0142249  -0.00764179 -0.0127303 -0.00615156  0 0 0  -0.0105378 -0.0159943 -0.00937891  0 0 0  -0.00748196 -0.0108289 -0.00994229  -0.00250224 -0.00578 -0.00425673  0 0 0  -0.00710182 -0.011997 -0.00813782  -0.0106589 -0.0146911 -0.0122505  -0.00341789 -0.00803011 -0.00518191  0 0 0  -0.00260429 -0.0050732 -0.00562477  -0.00351913 -0.00742219 -0.00692749  -0.0363934 -0.0336061 -0.0221634  -0.0269025 -0.0282939 -0.0146967  -0.027402 -0.0317112 -0.0150205  -0.0213221 -0.0256229 -0.0158298  -0.0135046 -0.0195295 -0.0104935  -0.0262867 -0.0260876 -0.0190619  -0.0277169 -0.0293103 -0.0191376  -0.0186967 -0.0236224 -0.0126803  -0.0139688 -0.0178035 -0.013443  -0.0188622 -0.0216013 -0.0162694  -0.0574049 -0.050946 -0.0253178  -0.0472007 -0.0444204 -0.0190135  -0.0461912 -0.0502975 -0.0172458  -0.0367174 -0.0444967 -0.0180866  -0.0286366 -0.0368376 -0.0137601  -0.046928 -0.041665 -0.0241723  -0.0461708 -0.0475105 -0.0217153  -0.0367514 -0.0404274 -0.0164726  -0.0289031 -0.034472 -0.0173713  -0.0368623 -0.037859 -0.0209656  -0.0781611 -0.0723569 -0.0251732  -0.0681656 -0.0640924 -0.0202265  -0.064711 -0.0727366 -0.017427  -0.0523487 -0.0678285 -0.0181426  -0.0446338 -0.0582474 -0.0147206  -0.0678594 -0.0611592 -0.0255263  -0.0644862 -0.0699165 -0.0217105  -0.0554989 -0.0610125 -0.0175282  -0.0445257 -0.0556167 -0.0183339  -0.055387 -0.0582082 -0.0219427  -0.098113 -0.0979439 -0.023585  -0.0886793 -0.0874884 -0.0196241  -0.0827691 -0.0992084 -0.0163771  -0.0678051 -0.0953552 -0.0169972  -0.0605004 -0.0836805 -0.0143031  -0.0882855 -0.0846279 -0.0245183  -0.0822451 -0.096563 -0.0202926  -0.0738214 -0.0854639 -0.0169955  -0.0600984 -0.0810787 -0.0176839  -0.0734298 -0.0827459 -0.02113  -0.11718 -0.127489 -0.0212439  -0.108334 -0.114904 -0.018073  -0.100132 -0.129402 -0.0148371  -0.0830333 -0.126653 -0.0153646  -0.0761008 -0.112966 -0.0131766  -0.107755 -0.11229 -0.0224762  -0.0994471 -0.127025 -0.0183223  -0.0915334 -0.113871 -0.0156442  -0.0754424 -0.110561 -0.0162323  -0.0909179 -0.111364 -0.0193518  -0.135436 -0.160486 -0.0187665  -0.127088 -0.145883 -0.0161619  -0.116931 -0.162951 -0.0131183  -0.0980187 -0.16128 -0.0135676  -0.0913512 -0.145706 -0.0117794  -0.126423 -0.143582 -0.0200121  -0.116124 -0.160883 -0.016173  -0.1086 -0.145764 -0.0139802  -0.0905527 -0.143566 -0.0144836  -0.107842 -0.143561 -0.0172588  -0.152967 -0.196563 -0.0163335  -0.145039 -0.180172 -0.014191  -0.13316 -0.199498 -0.0114524  -0.112791 -0.198824 -0.0118424  -0.106298 -0.181576 -0.0103456  -0.144294 -0.178193 -0.0175419  -0.132331 -0.197715 -0.0140996  -0.125114 -0.18088 -0.0122743  -0.105426 -0.179711 -0.0127064  -0.124287 -0.178965 -0.0151216  -0.169839 -0.235299 -0.0141146  -0.162229 -0.217303 -0.0123265  -0.148924 -0.238662 -0.00990307  -0.127343 -0.238913 -0.010228  -0.120961 -0.220163 -0.00898635  -0.161495 -0.215621 -0.0151994  -0.148098 -0.237152 -0.0121775  -0.141096 -0.218758 -0.0106592  -0.120092 -0.218564 -0.011027  -0.140264 -0.217132 -0.0131224  -0.186107 -0.276387 -0.0120932  -0.178773 -0.257009 -0.0106235  -0.164219 -0.280137 -0.00851226  -0.14168 -0.281208 -0.00878882  -0.135371 -0.261167 -0.00775158  -0.178052 -0.255591 -0.0130835  -0.163452 -0.278853 -0.0104496  -0.156628 -0.259134 -0.00918925  -0.134535 -0.259803 -0.00949895  -0.155829 -0.257748 -0.0112902  -0.201806 -0.319495 -0.0103095  -0.194691 -0.2989 -0.00909948  -0.17911 -0.323596 -0.0072695  -0.155783 -0.325408 -0.00748897  -0.149527 -0.304235 -0.00664413  -0.194036 -0.297707 -0.0111759  -0.1784 -0.322519 -0.00890362  -0.171711 -0.301622 -0.00787246  -0.14876 -0.303081 -0.00812674  -0.170973 -0.300461 -0.00965929  -0.216965 -0.364364 -0.00870883  -0.210058 -0.34274 -0.00774384  -0.193578 -0.368775 -0.00617099  -0.169644 -0.371229 -0.00634909  -0.163437 -0.349104 -0.00566435  -0.209458 -0.341744 -0.00949085  -0.192953 -0.367867 -0.00753474  -0.186395 -0.345988 -0.00670433  -0.162742 -0.348131 -0.00690842  -0.185728 -0.345008 -0.00819862  -0.231597 -0.41071 -0.00730503  -0.224874 -0.388196 -0.00654399  -0.207661 -0.41539 -0.00519705  -0.183239 -0.418414 -0.00532675  -0.177084 -0.395473 -0.00479507  -0.224354 -0.387368 -0.00798583  -0.207106 -0.414638 -0.00631797  -0.200665 -0.391904 -0.00566912  -0.176474 -0.394661 -0.00582623  -0.200077 -0.391092 -0.00691223  -0.245719 -0.458305 -0.00605178  -0.239182 -0.435064 -0.00548232  -0.221333 -0.463212 -0.00433993  -0.196555 -0.466716 -0.00443745  -0.190462 -0.443114 -0.00403023  -0.238727 -0.434381 -0.00666308  -0.220862 -0.462586 -0.00524712  -0.214546 -0.439164 -0.0047555  -0.18993 -0.442439 -0.00487137  -0.214036 -0.438487 -0.00576532  -0.259337 -0.506904 -0.00496137  -0.252977 -0.48305 -0.00454879  -0.234617 -0.511994 -0.00358737  -0.209571 -0.515916 -0.00364578  -0.20355 -0.491766 -0.00335705  -0.252597 -0.482492 -0.00548887  -0.234213 -0.511486 -0.00430334  -0.228021 -0.487482 -0.00395119  -0.203099 -0.491212 -0.00403035  -0.227586 -0.486932 -0.00476336  -0.272467 -0.556304 -0.00400198  -0.266286 -0.53198 -0.00373065  -0.247494 -0.561538 -0.00293338  -0.222276 -0.565796 -0.00296986  -0.216341 -0.541231 -0.00277102  -0.265968 -0.53153 -0.00446808  -0.247162 -0.561123 -0.00348556  -0.241104 -0.536681 -0.00324881  -0.21596 -0.540781 -0.00329649  -0.240739 -0.536232 -0.00387883  -0.285118 -0.606295 -0.00318706  -0.279114 -0.581593 -0.00302517  -0.259986 -0.611632 -0.00237405  -0.234659 -0.616173 -0.00238097  -0.228817 -0.59129 -0.00226569  -0.278856 -0.581238 -0.00357819  -0.259709 -0.611304 -0.00278139  -0.253785 -0.586514 -0.00264251  -0.228505 -0.590929 -0.00266385  -0.253485 -0.586158 -0.00312245  -0.297315 -0.656703 -0.00249529  -0.291483 -0.631748 -0.00242484  -0.272085 -0.662109 -0.00190473  -0.246718 -0.666863 -0.00189936  -0.24098 -0.641772 -0.00183916  -0.291276 -0.63147 -0.00282776  -0.271867 -0.661848 -0.00219429  -0.26608 -0.636831 -0.0021286  -0.240725 -0.641486 -0.00212801  -0.265837 -0.636547 -0.002473  -0.309082 -0.707355 -0.00194073  -0.303418 -0.68222 -0.00193048  -0.283826 -0.712796 -0.00152707  -0.258457 -0.717718 -0.00149941  -0.252825 -0.692497 -0.00148809  -0.303255 -0.682009 -0.00220227  -0.283648 -0.712595 -0.00171578  -0.277997 -0.687423 -0.00170541  -0.252624 -0.692274 -0.00168741  -0.277802 -0.687206 -0.00194442  -0.32046 -0.758108 -0.00150788  -0.314947 -0.732898 -0.00153768  -0.295219 -0.763559 -0.00123477  -0.269888 -0.768591 -0.00120211  -0.264365 -0.743328 -0.00121164  -0.314821 -0.732738 -0.00171077  -0.295081 -0.7634 -0.00135016  -0.28956 -0.738173 -0.00137055  -0.264207 -0.743157 -0.00133836  -0.289407 -0.738004 -0.00151861  -0.331495 -0.80883 -0.00120354  -0.326125 -0.783598 -0.00124645  -0.306317 -0.814266 -0.00102723  -0.281035 -0.819376 -0.000977039  -0.275616 -0.794129 -0.00100565  -0.326021 -0.783481 -0.00134134  -0.3062 -0.814144 -0.0010848  -0.3008 -0.788914 -0.00112188  -0.275493 -0.793996 -0.00107837  -0.300677 -0.788787 -0.00120819  -0.342263 -0.859421 -0.00100052  -0.336997 -0.834247 -0.00104642  -0.317157 -0.864825 -0.000886559  -0.291928 -0.869966 -0.00083375  -0.286608 -0.844799 -0.000861526  -0.33691 -0.834157 -0.00109243  -0.317056 -0.864723 -0.00091207  -0.31176 -0.839564 -0.000949383  -0.286507 -0.844695 -0.000895619  -0.311657 -0.839464 -0.000988007  -0.352847 -0.909805 -0.000879526  -0.347661 -0.884717 -0.000920177  -0.327808 -0.915168 -0.000792623  -0.302612 -0.920314 -0.000717402  -0.297377 -0.895257 -0.000763774  -0.347576 -0.884644 -0.000935674  -0.327713 -0.915075 -0.000790596  -0.322501 -0.890016 -0.000837326  -0.297291 -0.895168 -0.000773072  -0.322406 -0.889932 -0.000850558  -0.36335 -0.960015 -0.000758529  -0.358173 -0.934998 -0.000832438  -0.338348 -0.965322 -0.000705004  -0.313169 -0.970422 -0.000624061  -0.307983 -0.945471 -0.000682712  -0.358102 -0.934929 -0.000822544  -0.338263 -0.965234 -0.000683188  -0.333081 -0.940255 -0.000751019  -0.307893 -0.945391 -0.00066936  -0.332994 -0.940174 -0.000742674  -0.00552889 -0.00957774 -0.00611675  0 0 0  -0.00394823 -0.00689635 -0.00620174  -0.00134658 -0.00307545 -0.00265539  0 0 0  -0.0055453 -0.00844224 -0.00795197  -0.00184936 -0.0041585 -0.0033778  0 0 0  -0.00135119 -0.00259836 -0.00346375  -0.00185816 -0.00356911 -0.00443304  -0.0159723 -0.0246696 -0.0100247  -0.011564 -0.0207736 -0.00988162  -0.00739655 -0.0145542 -0.00654101  -0.0160706 -0.0227571 -0.0127077  -0.0103383 -0.0165012 -0.00834846  -0.00743714 -0.0131152 -0.0083282  -0.0104088 -0.0149744 -0.0106894  -0.0285123 -0.044502 -0.0117259  -0.0211035 -0.0404345 -0.0114355  -0.0162161 -0.0320359 -0.00868237  -0.0284406 -0.0421088 -0.0146302  -0.0220983 -0.0340109 -0.0110888  -0.0161896 -0.0299641 -0.0108863  -0.0221319 -0.0318364 -0.0139172  -0.0417203 -0.0686867 -0.0119293  -0.0313741 -0.0650533 -0.0115608  -0.026398 -0.0545357 -0.00938356  -0.0413924 -0.0661656 -0.0147461  -0.035077 -0.0560687 -0.0119575  -0.0261653 -0.0521781 -0.0116159  -0.0348818 -0.0535908 -0.0148379  -0.0550941 -0.0968607 -0.0112687  -0.0421391 -0.0939381 -0.0108865  -0.0371903 -0.0813646 -0.00917542  -0.0545022 -0.0944406 -0.0138696  -0.0484018 -0.0822743 -0.0116643  -0.0367119 -0.0789926 -0.0112959  -0.0479324 -0.0798072 -0.0143867  -0.0684548 -0.12868 -0.0102192  -0.0532199 -0.126592 -0.00985253  -0.0483128 -0.112071 -0.00847757  -0.0676802 -0.126467 -0.0125438  -0.061776 -0.11233 -0.0107659  -0.0476383 -0.109829 -0.0103965  -0.0610854 -0.110021 -0.0132315  -0.0817703 -0.163752 -0.00904644  -0.0646161 -0.162514 -0.00870633  -0.0596787 -0.146208 -0.00758576  -0.0808972 -0.161789 -0.0110934  -0.0751149 -0.145817 -0.00963175  -0.0588821 -0.144168 -0.00928843  -0.0742847 -0.143744 -0.0118194  -0.0950439 -0.201692 -0.0079006  -0.076274 -0.201295 -0.00759113  -0.0712629 -0.18338 -0.00666118  -0.094146 -0.199982 -0.00967753  -0.0884066 -0.182375 -0.00846231  -0.070412 -0.181573 -0.00814521  -0.0875186 -0.180554 -0.0103729  -0.108277 -0.242151 -0.00683653  -0.0881733 -0.24254 -0.00655508  -0.0830427 -0.223206 -0.00578451  -0.107402 -0.240679 -0.0083673  -0.101662 -0.221612 -0.00735283  -0.0821978 -0.221628 -0.00706649  -0.100775 -0.22004 -0.00900483  -0.121459 -0.284789 -0.00588191  -0.100244 -0.285913 -0.00562513  -0.0949944 -0.265341 -0.00498676  -0.120641 -0.283531 -0.00718474  -0.11487 -0.263206 -0.00634396  -0.0941881 -0.26398 -0.00608051  -0.114026 -0.261858 -0.00775862  -0.134571 -0.329307 -0.00503016  -0.112452 -0.331092 -0.00479484  -0.107077 -0.309456 -0.00427568  -0.133826 -0.328241 -0.00613081  -0.128021 -0.306816 -0.00544083  -0.106336 -0.308292 -0.0052017  -0.127243 -0.305673 -0.00663996  -0.147588 -0.375415 -0.00427973  -0.124721 -0.377801 -0.0040642  -0.119248 -0.355259 -0.00364721  -0.146924 -0.374515 -0.00519562  -0.141088 -0.352168 -0.00464201  -0.11858 -0.354272 -0.00442004  -0.140388 -0.3512 -0.00564837  -0.160478 -0.422852 -0.00361609  -0.137019 -0.425763 -0.00341833  -0.131459 -0.402469 -0.00309515  -0.159896 -0.422102 -0.00437045  -0.154046 -0.398968 -0.00393569  -0.130871 -0.401638 -0.00373375  -0.153428 -0.398161 -0.00476837  -0.173211 -0.471374 -0.00303483  -0.149272 -0.474749 -0.00285494  -0.143663 -0.450835 -0.00261068  -0.172711 -0.470749 -0.00364292  -0.16686 -0.446981 -0.00331509  -0.143152 -0.450142 -0.00312781  -0.166325 -0.446308 -0.00399446  -0.185759 -0.520752 -0.00252593  -0.161458 -0.524521 -0.00236237  -0.155813 -0.500119 -0.00218928  -0.185333 -0.520244 -0.00300837  -0.179505 -0.495954 -0.00277054  -0.155378 -0.499547 -0.0026021  -0.179048 -0.495405 -0.0033133  -0.198095 -0.570782 -0.00208747  -0.173512 -0.574887 -0.00194073  -0.167867 -0.550108 -0.00182402  -0.19774 -0.570367 -0.0024575  -0.191949 -0.545687 -0.00229776  -0.167502 -0.549641 -0.00214314  -0.191565 -0.545239 -0.00272226  -0.210197 -0.621269 -0.00171363  -0.185423 -0.625649 -0.00158215  -0.179789 -0.600602 -0.00151348  -0.209906 -0.620941 -0.00199056  -0.204171 -0.595965 -0.00189185  -0.179489 -0.600227 -0.00175548  -0.203854 -0.59561 -0.00221312  -0.222052 -0.672045 -0.00140357  -0.197138 -0.67665 -0.00128818  -0.191546 -0.651425 -0.00125349  -0.221818 -0.671783 -0.00159943  -0.216151 -0.64662 -0.00155067  -0.191304 -0.651128 -0.00142705  -0.215894 -0.646338 -0.0017854  -0.233653 -0.722953 -0.00115418  -0.208664 -0.72773 -0.00105214  -0.203119 -0.702417 -0.00104344  -0.233467 -0.722753 -0.00128734  -0.227879 -0.697477 -0.00127137  -0.202927 -0.702185 -0.00116444  -0.227675 -0.697262 -0.00143349  -0.244999 -0.773864 -0.000964284  -0.219962 -0.778773 -0.000874877  -0.214488 -0.753441 -0.000880003  -0.244854 -0.773705 -0.00104558  -0.239351 -0.748405 -0.00105226  -0.214339 -0.753262 -0.00095582  -0.239192 -0.748238 -0.00115788  -0.256099 -0.82466 -0.000826836  -0.231055 -0.829661 -0.000746846  -0.225649 -0.804376 -0.000760913  -0.255986 -0.824541 -0.00087297  -0.250574 -0.799268 -0.00088954  -0.225536 -0.804239 -0.000806332  -0.250451 -0.799145 -0.000951052  -0.266973 -0.875261 -0.000731945  -0.24192 -0.88032 -0.000659823  -0.2366 -0.855129 -0.000677824  -0.266881 -0.875158 -0.000750542  -0.261557 -0.849978 -0.00077486  -0.236513 -0.855022 -0.00069797  -0.261461 -0.849881 -0.000806451  -0.277649 -0.925598 -0.000658512  -0.2526 -0.930674 -0.000588655  -0.247355 -0.905624 -0.000620127  -0.277569 -0.925511 -0.000657916  -0.272329 -0.90045 -0.000694275  -0.247283 -0.905536 -0.000624895  -0.272249 -0.900372 -0.000702262  -0.288199 -0.975666 -0.000591636  -0.263117 -0.98068 -0.000521541  -0.257936 -0.955813 -0.000566959  -0.288114 -0.975564 -0.000569701  -0.282924 -0.950655 -0.000623465  -0.257871 -0.955726 -0.000552177  -0.282851 -0.950577 -0.000610948  -0.00255869 -0.00693342 -0.00355697  0 0 0  -0.00140658 -0.00570276 -0.00304937  -0.000487175 -0.00222573 -0.00131929  0 0 0  -0.00258829 -0.00603724 -0.00460112  -0.000869986 -0.00246838 -0.00198638  0 0 0  -0.000482917 -0.00187784 -0.00173688  -0.000867736 -0.00207841 -0.00260544  -0.00778203 -0.0213289 -0.0057838  -0.00432827 -0.0191215 -0.00480163  -0.0027111 -0.0128042 -0.00320613  -0.00781195 -0.0195958 -0.00729811  -0.00490382 -0.013353 -0.00483572  -0.00269628 -0.0115824 -0.00406694  -0.00494598 -0.0120194 -0.00615954  -0.014681 -0.0416064 -0.0067929  -0.00846237 -0.0391488 -0.00555098  -0.00638017 -0.0302864 -0.00424218  -0.0145428 -0.0394567 -0.0084331  -0.0110744 -0.0308119 -0.00641286  -0.00625521 -0.0284201 -0.00528753  -0.0110332 -0.0288284 -0.0080092  -0.0225647 -0.0667867 -0.00693047  -0.0135652 -0.0645217 -0.00560844  -0.0111904 -0.0533939 -0.00458765  -0.0222055 -0.064491 -0.00852644  -0.0185259 -0.0536325 -0.00693989  -0.0108953 -0.0512409 -0.00563908  -0.0182759 -0.0513919 -0.00857401  -0.0311275 -0.0961489 -0.00656188  -0.0195636 -0.09433 -0.00527  -0.0169214 -0.0811251 -0.00448215  -0.0305644 -0.0938895 -0.00803506  -0.0267707 -0.0809682 -0.00678992  -0.0164525 -0.0789084 -0.00547707  -0.0263013 -0.0786832 -0.00833583  -0.0402299 -0.129175 -0.00594616  -0.0263923 -0.127934 -0.00473523  -0.0234807 -0.112831 -0.00412691  -0.0395262 -0.127056 -0.00726068  -0.0356131 -0.112218 -0.00626993  -0.0228736 -0.110684 -0.00501621  -0.0349727 -0.110038 -0.00766897  -0.0498258 -0.165433 -0.00525248  -0.0340217 -0.164845 -0.00414908  -0.0307983 -0.147992 -0.00366855  -0.0490471 -0.163515 -0.00640154  -0.0449649 -0.146912 -0.00560176  -0.0301069 -0.145998 -0.00444639  -0.0442187 -0.144905 -0.00683665  -0.059871 -0.204506 -0.0045737  -0.0423812 -0.20458 -0.00357747  -0.0388359 -0.186178 -0.00319469  -0.0590745 -0.202799 -0.00556648  -0.0547907 -0.184625 -0.00490797  -0.0381106 -0.184374 -0.00386059  -0.0540004 -0.18283 -0.00598085  -0.0703288 -0.246041 -0.00394464  -0.0514139 -0.246778 -0.00305653  -0.047534 -0.226989 -0.00274885  -0.0695555 -0.244553 -0.00479054  -0.0650473 -0.224975 -0.0042516  -0.0468155 -0.225388 -0.00331259  -0.0642625 -0.223394 -0.00517154  -0.0811379 -0.289679 -0.00338483  -0.0610155 -0.291036 -0.00259268  -0.0568265 -0.270061 -0.0023489  -0.0804147 -0.288386 -0.00409997  -0.0756882 -0.267602 -0.00365627  -0.0561447 -0.26866 -0.00281858  -0.074942 -0.26623 -0.00443792  -0.0922426 -0.335119 -0.00288904  -0.0711142 -0.337064 -0.00218976  -0.0666336 -0.315056 -0.00199902  -0.0915842 -0.334014 -0.00348425  -0.086653 -0.31218 -0.00312912  -0.0660053 -0.313842 -0.00238609  -0.0859653 -0.310998 -0.00378394  -0.103571 -0.382056 -0.00245762  -0.0815996 -0.384528 -0.00184095  -0.0768729 -0.361666 -0.00169647  -0.102985 -0.381111 -0.00294864  -0.0978775 -0.358402 -0.00266588  -0.0763093 -0.360624 -0.00200963  -0.0972598 -0.357396 -0.00320971  -0.115063 -0.430234 -0.00208032  -0.0924027 -0.433189 -0.00154245  -0.0874602 -0.409606 -0.00143754  -0.11455 -0.429441 -0.00247633  -0.109296 -0.405993 -0.00226212  -0.0869635 -0.408719 -0.00168717  -0.108751 -0.405141 -0.0027051  -0.126649 -0.479398 -0.00175464  -0.103422 -0.48277 -0.00128758  -0.0983139 -0.458618 -0.00121665  -0.126209 -0.47873 -0.00207043  -0.120843 -0.454692 -0.00191128  -0.097885 -0.45787 -0.00141001  -0.120372 -0.45398 -0.00226796  -0.138277 -0.52933 -0.00147343  -0.114599 -0.533074 -0.00107312  -0.109356 -0.508464 -0.00103056  -0.137904 -0.528782 -0.00171649  -0.132457 -0.504269 -0.00160849  -0.108992 -0.507839 -0.0011766  -0.132056 -0.503677 -0.00188732  -0.149885 -0.579818 -0.0012356  -0.125848 -0.583871 -0.000895262  -0.120517 -0.55893 -0.000874758  -0.149576 -0.579366 -0.00141907  -0.144081 -0.554502 -0.00134909  -0.120214 -0.558414 -0.000979781  -0.143746 -0.554019 -0.00156307  -0.161434 -0.630684 -0.00103676  -0.137126 -0.635003 -0.000751853  -0.131732 -0.609821 -0.000748277  -0.161181 -0.630323 -0.00116754  -0.155665 -0.605203 -0.00113118  -0.131484 -0.6094 -0.000820518  -0.15539 -0.604811 -0.00128758  -0.172877 -0.681756 -0.000876307  -0.148363 -0.686285 -0.000640392  -0.142946 -0.660966 -0.000647783  -0.172676 -0.681463 -0.000966311  -0.167165 -0.65619 -0.000951529  -0.142747 -0.660626 -0.000692368  -0.166945 -0.655879 -0.00106263  -0.184191 -0.732894 -0.000751257  -0.159533 -0.737597 -0.000559211  -0.154111 -0.71221 -0.000572324  -0.184033 -0.732667 -0.00080657  -0.178547 -0.707314 -0.000809312  -0.153955 -0.71194 -0.000596881  -0.178373 -0.707068 -0.000881314  -0.195345 -0.783969 -0.000660777  -0.170585 -0.7888 -0.000506282  -0.165189 -0.763425 -0.000520468  -0.195225 -0.783787 -0.000692248  -0.189783 -0.758433 -0.000701547  -0.165071 -0.763211 -0.000529051  -0.18965 -0.758244 -0.000745654  -0.206331 -0.834884 -0.000599146  -0.18151 -0.839814 -0.000476599  -0.176151 -0.814499 -0.000490069  -0.206239 -0.834744 -0.000611424  -0.200855 -0.809441 -0.000626445  -0.176062 -0.814331 -0.000489473  -0.200754 -0.809294 -0.000648022  -0.217138 -0.885549 -0.000559688  -0.192275 -0.890538 -0.000465155  -0.186975 -0.865343 -0.000475764  -0.217067 -0.885431 -0.000561595  -0.211751 -0.860237 -0.000576973  -0.186908 -0.865209 -0.000469089  -0.211676 -0.860125 -0.000585318  -0.227777 -0.935906 -0.000529885  -0.202889 -0.940922 -0.000458002  -0.197651 -0.915882 -0.00047183  -0.227716 -0.935804 -0.000519037  -0.222473 -0.910758 -0.000544786  -0.197598 -0.915771 -0.000463128  -0.222412 -0.910663 -0.000541091  -0.238255 -0.985875 -0.000501752  -0.213329 -0.990841 -0.000448108  -0.208176 -0.966054 -0.0004673  -0.2382 -0.985759 -0.000477552  -0.233028 -0.960935 -0.000514507  -0.208124 -0.965942 -0.000451684  -0.232975 -0.960841 -0.00049758  -0.000329375 -0.00653693 -0.00119269  0 0 0  0.00074774 -0.00621182 2.65837e-05  0.000225127 -0.00246763 -1.07288e-06  0 0 0  -0.000292294 -0.00577989 -0.0015111  -0.000115361 -0.00223935 -0.000656247  0 0 0  0.000235602 -0.00218204 2.37226e-05  -0.000104267 -0.00192961 -0.000850201  -0.00122556 -0.0208318 -0.00192153  0.0019806 -0.0199725 8.10623e-06  0.00125076 -0.0133846 -3.48091e-05  -0.00110912 -0.0192793 -0.00237894  -0.000684634 -0.0128478 -0.00160658  0.00136785 -0.0122585 1.51396e-05  -0.000619665 -0.0116779 -0.00201476  -0.00299001 -0.0414456 -0.00225401  0.00279793 -0.0404009 -1.54972e-06  0.00223133 -0.0311899 -6.87838e-05  -0.00273111 -0.0394752 -0.00274241  -0.00199184 -0.0304374 -0.00212979  0.00248119 -0.0294536 -3.09944e-06  -0.00180393 -0.0286379 -0.00261021  -0.00573671 -0.0672622 -0.00229394  0.00266665 -0.066298 3.1352e-05  0.00249642 -0.054764 -6.79493e-05  -0.00533468 -0.0651231 -0.00276315  -0.00423825 -0.0537716 -0.00230205  0.00286761 -0.0527442 6.55651e-06  -0.00390607 -0.0516973 -0.00278485  -0.00950241 -0.0974049 -0.00214374  0.00135905 -0.0967073 9.81092e-05  0.00170225 -0.083087 -2.95639e-05  -0.00897866 -0.0952602 -0.00256395  -0.00749069 -0.0818233 -0.00223398  0.00216728 -0.0809861 5.99623e-05  -0.00702405 -0.0796777 -0.00268161  -0.0142798 -0.131282 -0.0019052  -0.00120252 -0.13099 0.00018084  -0.0002985 -0.115466 3.23057e-05  -0.0136728 -0.129231 -0.00226092  -0.0117636 -0.113898 -0.00202954  0.000235856 -0.113401 0.000139594  -0.0111957 -0.111804 -0.00241804  -0.0200391 -0.168414 -0.00163901  -0.00501353 -0.168598 0.000260234  -0.00352544 -0.151355 9.90629e-05  -0.019392 -0.166523 -0.00193489  -0.0170364 -0.149454 -0.00177169  -0.00295562 -0.149407 0.00022018  -0.0164072 -0.147495 -0.00209773  -0.0267197 -0.208364 -0.00138378  -0.00999439 -0.209079 0.000324607  -0.00794077 -0.190293 0.000160456  -0.0260682 -0.206654 -0.00161862  -0.0232648 -0.188047 -0.00150776  -0.00736266 -0.188507 0.00029552  -0.0226154 -0.186261 -0.00177288  -0.0342487 -0.250755 -0.00115609  -0.0160624 -0.252001 0.000367403  -0.0134617 -0.231863 0.000205755  -0.0336215 -0.249243 -0.00134242  -0.0303793 -0.229263 -0.00126553  -0.0128999 -0.230258 0.000347376  -0.0297412 -0.227669 -0.00147521  -0.0425287 -0.295213 -0.000962138  -0.0230852 -0.29699 0.000387311  -0.0199883 -0.27568 0.000233173  -0.0419447 -0.293884 -0.00110066  -0.0382961 -0.272733 -0.00105453  -0.0194612 -0.274259 0.000380635  -0.0376936 -0.271328 -0.00121641  -0.0514659 -0.341421 -0.000800967  -0.0309594 -0.343692 0.000385523  -0.0274054 -0.321389 0.000240803  -0.0509366 -0.340272 -0.000904083  -0.0469168 -0.318103 -0.00087738  -0.0269245 -0.320145 0.000387549  -0.0463637 -0.316883 -0.000996828  -0.0609528 -0.389063 -0.000670314  -0.0395428 -0.391802 0.000365138  -0.0355966 -0.368665 0.000232339  -0.0604841 -0.388072 -0.000738978  -0.0561416 -0.365067 -0.000731826  -0.0351688 -0.367588 0.000378251  -0.0556473 -0.364013 -0.00081718  -0.0708958 -0.437876 -0.000565886  -0.048737 -0.441029 0.000329852  -0.0444441 -0.417213 0.000209093  -0.0704886 -0.437035 -0.000610232  -0.0658685 -0.413325 -0.000615001  -0.0440717 -0.41629 0.000347972  -0.0654354 -0.412428 -0.000669837  -0.0811934 -0.487598 -0.000484467  -0.0584084 -0.49113 0.000282764  -0.0538354 -0.466768 0.000175238  -0.0808473 -0.486885 -0.00050509  -0.0760005 -0.462624 -0.000522494  -0.0535183 -0.465985 0.000308514  -0.0756294 -0.461864 -0.000554442  -0.091764 -0.538012 -0.00042212  -0.0684738 -0.541866 0.000226736  -0.0636632 -0.517088 0.000132203  -0.0914739 -0.537421 -0.000427842  -0.0864451 -0.512718 -0.000451088  -0.0633992 -0.51643 0.000254512  -0.0861323 -0.512084 -0.000462651  -0.102519 -0.588906 -0.000377893  -0.0788156 -0.593045 0.000164509  -0.0738291 -0.567958 8.40425e-05  -0.102282 -0.588415 -0.000368834  -0.0971174 -0.563398 -0.000397801  -0.0736144 -0.567412 0.00019753  -0.0968598 -0.562872 -0.000395656  -0.113392 -0.640106 -0.000348568  -0.0893693 -0.644476 9.72748e-05  -0.0842422 -0.619186 3.00407e-05  -0.113202 -0.639709 -0.000332355  -0.10794 -0.614465 -0.000361443  -0.0840722 -0.618737 0.000130177  -0.107732 -0.614037 -0.000347137  -0.124313 -0.691444 -0.000334024  -0.100037 -0.696012 2.69413e-05  -0.0948219 -0.670603 -2.57492e-05  -0.124165 -0.691121 -0.00031054  -0.118844 -0.665755 -0.000339508  -0.0946915 -0.67024 6.36578e-05  -0.118681 -0.665409 -0.000319242  -0.135234 -0.742789 -0.00033164  -0.110775 -0.747506 -4.55379e-05  -0.105498 -0.72206 -8.4877e-05  -0.135122 -0.742535 -0.000307441  -0.129771 -0.717111 -0.000331283  -0.105402 -0.72177 -1.0252e-05  -0.129647 -0.716838 -0.000305891  -0.146106 -0.794017 -0.000341296  -0.121505 -0.798857 -0.000119209  -0.116211 -0.773434 -0.000144362  -0.146023 -0.793812 -0.000316024  -0.140673 -0.768412 -0.000335217  -0.116142 -0.773206 -8.09431e-05  -0.140581 -0.768197 -0.000309944  -0.156898 -0.845038 -0.000360012  -0.132208 -0.849959 -0.000192761  -0.126909 -0.824622 -0.000205159  -0.156838 -0.844878 -0.00033915  -0.151509 -0.819546 -0.000349879  -0.126864 -0.824443 -0.000157356  -0.151443 -0.81938 -0.000325203  -0.167579 -0.895768 -0.000385284  -0.142823 -0.900749 -0.000265718  -0.137555 -0.875539 -0.000264525  -0.167536 -0.895634 -0.000367641  -0.162248 -0.870432 -0.000372171  -0.137527 -0.875397 -0.000228405  -0.162202 -0.8703 -0.00035274  -0.178136 -0.946146 -0.000410438  -0.153343 -0.951147 -0.000334382  -0.148116 -0.926116 -0.000322819  -0.1781 -0.94603 -0.000398278  -0.172868 -0.920991 -0.000398517  -0.148098 -0.925998 -0.000301957  -0.172836 -0.920883 -0.000382662  -0.188542 -0.996061 -0.000434637  -0.163691 -1.00105 -0.000399947  -0.158556 -0.976287 -0.000375986  -0.188493 -0.995929 -0.000423312  -0.183353 -0.97116 -0.000421882  -0.158542 -0.976171 -0.00036478  -0.18332 -0.971053 -0.000410795  0.00170691 -0.00769299 0.00114965  0 0 0  0.00287749 -0.00812548 0.00302422  0.000930876 -0.00355738 0.00128257  0 0 0  0.00179528 -0.00699592 0.00154626  0.000564061 -0.00289428 0.000643611  0 0 0  0.000942774 -0.00326329 0.00172877  0.00058829 -0.00262451 0.00088203  0.00480726 -0.0226657 0.00178885  0.00820163 -0.0229373 0.00469398  0.00516354 -0.0158503 0.00305676  0.00507537 -0.0212015 0.00236487  0.0031822 -0.0143844 0.00152218  0.00536616 -0.0147826 0.00399387  0.00335793 -0.0132923 0.00202942  0.00790468 -0.0437847 0.00207973  0.0138596 -0.0440007 0.00539768  0.0107055 -0.0344409 0.0039891  0.00828108 -0.0419109 0.00270605  0.00642347 -0.0325296 0.00196743  0.0110705 -0.032766 0.00514495  0.0067443 -0.030826 0.00257039  0.0101397 -0.0700868 0.00215721  0.0185917 -0.0703344 0.00551391  0.0159283 -0.0585326 0.00431871  0.010592 -0.0680343 0.00278723  0.00916496 -0.056352 0.00213778  0.0163746 -0.0565662 0.00549901  0.00958019 -0.0543708 0.00276983  0.0110992 -0.100753 0.00211322  0.0218837 -0.101161 0.00532663  0.0199593 -0.0872805 0.0042938  0.0115927 -0.0986726 0.00272799  0.010796 -0.0849041 0.00214684  0.0204355 -0.0852183 0.00544786  0.0112676 -0.0828337 0.00276995  0.010626 -0.135208 0.0020119  0.0235245 -0.135882 0.00498474  0.0224367 -0.120104 0.00407827  0.0111423 -0.133195 0.00259554  0.0110466 -0.117527 0.00206816  0.0229158 -0.11806 0.00516605  0.0115517 -0.115486 0.00266743  0.00871348 -0.172961 0.00188327  0.0234932 -0.173998 0.00458801  0.0232466 -0.156484 0.00378168  0.0092324 -0.171083 0.00243545  0.00985014 -0.153688 0.0019505  0.0237157 -0.15454 0.00479126  0.0103661 -0.151752 0.00251806  0.00543308 -0.213563 0.00174224  0.0218775 -0.215006 0.00417364  0.0224301 -0.195959 0.00345492  0.00593793 -0.211845 0.00225508  0.0072419 -0.192917 0.00181425  0.0228803 -0.19416 0.00438285  0.00775242 -0.191134 0.00234592  0.000885963 -0.25661 0.0015924  0.0187821 -0.258493 0.00375867  0.0200856 -0.238092 0.00312197  0.00136268 -0.255074 0.002069  0.00331461 -0.234792 0.0016681  0.0205086 -0.23646 0.00396645  0.00380242 -0.23318 0.00216246  -0.00479841 -0.301714 0.00143647  0.014361 -0.304029 0.00335145  0.0163438 -0.282477 0.00279224  -0.0043608 -0.300352 0.00187111  -0.00181758 -0.278912 0.00151503  0.0167325 -0.28102 0.0035553  -0.00136352 -0.27748 0.00196958  -0.0114938 -0.348535 0.00127649  0.00874662 -0.351273 0.0029546  0.011348 -0.328739 0.00246942  -0.0111018 -0.347347 0.00167322  -0.00802362 -0.324918 0.00135648  0.0116963 -0.327453 0.00315189  -0.00761271 -0.323659 0.00177217  -0.0190612 -0.396748 0.00111449  0.0021044 -0.399873 0.00257242  0.00524461 -0.376537 0.00215697  -0.0187186 -0.395715 0.00146937  -0.0151718 -0.372471 0.00119531  0.00554943 -0.375414 0.00276279  -0.0148088 -0.371378 0.00157011  -0.0273767 -0.446075 0.000953078  -0.00543618 -0.449562 0.00220621  -0.00181949 -0.425564 0.00185657  -0.0270838 -0.445193 0.00127065  -0.0231286 -0.421277 0.00103343  -0.00155962 -0.424593 0.0023874  -0.0228158 -0.420335 0.00136936  -0.0363095 -0.496253 0.000794888  -0.0137179 -0.500053 0.0018599  -0.00970364 -0.475545 0.00157046  -0.0360658 -0.495499 0.00107205  -0.0317678 -0.471058 0.000873446  -0.00948787 -0.474714 0.00203168  -0.031505 -0.470257 0.00116956  -0.0457494 -0.547058 0.000640988  -0.0226272 -0.55114 0.0015341  -0.0182726 -0.526234 0.0013001  -0.0455508 -0.546428 0.00088346  -0.0409684 -0.521578 0.000717044  -0.0180992 -0.52553 0.00169444  -0.0407524 -0.520902 0.000976682  -0.0555817 -0.598281 0.000494242  -0.0320243 -0.602596 0.00123143  -0.027402 -0.577414 0.00104761  -0.0554254 -0.597753 0.00069952  -0.0506172 -0.572614 0.000566721  -0.0272669 -0.576825 0.00138104  -0.0504454 -0.572053 0.000789165  -0.0657148 -0.649748 0.000354767  -0.041816 -0.654264 0.00095284  -0.0369751 -0.628896 0.000813603  -0.0655951 -0.649319 0.000528574  -0.0606117 -0.623982 0.000423193  -0.0368745 -0.628408 0.00108922  -0.0604792 -0.623519 0.000612497  -0.076055 -0.701297 0.00022471  -0.0518847 -0.705971 0.000700116  -0.0468872 -0.680512 0.0006001  -0.0759676 -0.700945 0.000365853  -0.0708582 -0.675507 0.000288725  -0.0468163 -0.680114 0.000824332  -0.070761 -0.675133 0.000444651  -0.0865316 -0.752801 0.000103593  -0.0621593 -0.757604 0.000472903  -0.057044 -0.73212 0.000406981  -0.0864704 -0.752522 0.000217557  -0.0812757 -0.727051 0.000162959  -0.0569983 -0.731799 0.000583172  -0.0812068 -0.72675 0.000290036  -0.0970728 -0.804142 -7.27177e-06  -0.0725474 -0.809036 0.00027144  -0.0673645 -0.7836 0.000235081  -0.097034 -0.803917 7.84397e-05  -0.0917919 -0.778484 4.72069e-05  -0.0673382 -0.783344 0.000370026  -0.0917478 -0.778248 0.000145555  -0.107632 -0.855237 -0.000108838  -0.0830033 -0.860199 9.38177e-05  -0.0777776 -0.834855 8.28505e-05  -0.10761 -0.85506 -4.60148e-05  -0.102349 -0.829714 -5.9247e-05  -0.0777678 -0.834651 0.000179648  -0.102323 -0.829527 1.46627e-05  -0.118158 -0.906007 -0.000201941  -0.0934572 -0.911006 -6.36578e-05  -0.088227 -0.885807 -5.09024e-05  -0.118148 -0.905859 -0.000163078  -0.112896 -0.880652 -0.000156164  -0.0882289 -0.885643 1.37091e-05  -0.112886 -0.880506 -0.000106573  -0.128618 -0.956401 -0.000288725  -0.103875 -0.961421 -0.000209689  -0.0986617 -0.936399 -0.0001719  -0.128613 -0.956271 -0.000269651  -0.123394 -0.931243 -0.000246406  -0.0986707 -0.93626 -0.000137806  -0.123391 -0.931118 -0.000217319  -0.138932 -1.00632 -0.00037241  -0.114161 -1.01135 -0.000348806  -0.109029 -0.986585 -0.000285387  -0.138932 -1.00618 -0.000372052  -0.133795 -0.981417 -0.000331044  -0.109036 -0.986447 -0.000278831  -0.133797 -0.981297 -0.0003227  0.00386037 -0.0103611 0.00338316  0 0 0  0.00519972 -0.0115935 0.00590122  0.00168927 -0.00560421 0.00250638  0 0 0  0.00400691 -0.00962353 0.00447404  0.00127833 -0.00443727 0.00190187  0 0 0  0.00168812 -0.00530738 0.00335383  0.00131269 -0.00415713 0.00254846  0.0111541 -0.0267 0.00542772  0.0149663 -0.0281226 0.0093503  0.00955456 -0.0204285 0.00608647  0.0115459 -0.0252518 0.00701356  0.00727333 -0.0178544 0.0045712  0.00978395 -0.0192791 0.00789082  0.00753568 -0.0167575 0.00595939  0.0191662 -0.0485112 0.00634551  0.0257557 -0.0499138 0.0107533  0.0199693 -0.0400671 0.00802195  0.0196548 -0.0466681 0.00807559  0.0151889 -0.0369609 0.0059998  0.0204083 -0.0383791 0.0102655  0.0156423 -0.0352781 0.00767541  0.0263197 -0.0752123 0.0065105  0.0353683 -0.0765883 0.0109388  0.030238 -0.0646337 0.00865924  0.026824 -0.0731906 0.00821936  0.0229152 -0.0612853 0.00649393  0.0307589 -0.0626746 0.0109358  0.0234097 -0.0593398 0.0082289  0.0318953 -0.106213 0.00627697  0.0431802 -0.107662 0.0104749  0.0390429 -0.0936491 0.00855267  0.0323709 -0.104157 0.0079056  0.0293321 -0.0901932 0.00642979  0.0395303 -0.0916013 0.0107567  0.0298174 -0.0881481 0.00810671  0.0356251 -0.141037 0.00584924  0.0489056 -0.142672 0.00973499  0.0458656 -0.12673 0.00806665  0.0360688 -0.139036 0.00736237  0.0339998 -0.123165 0.0060786  0.0463032 -0.124706 0.0101267  0.0344558 -0.12114 0.00765336  0.0374836 -0.179212 0.00534904  0.0525548 -0.181122 0.00888193  0.0505998 -0.163426 0.00742209  0.0378937 -0.177337 0.00673568  0.036788 -0.159721 0.0056051  0.0509862 -0.161498 0.00931549  0.0372108 -0.157793 0.00705695  0.0375544 -0.220281 0.00483239  0.0542287 -0.222525 0.00801182  0.0532875 -0.203272 0.00672817  0.037933 -0.218555 0.00609195  0.0377386 -0.1994 0.00509179  0.0536304 -0.201484 0.00844979  0.0381298 -0.197611 0.00641572  0.0359643 -0.263816 0.00432003  0.0540481 -0.266415 0.00715172  0.0540541 -0.245814 0.00603116  0.0363084 -0.262264 0.00545192  0.0369617 -0.241753 0.00457513  0.0543603 -0.244187 0.0075798  0.0373193 -0.240129 0.00577199  0.0328666 -0.309409 0.00382531  0.0521898 -0.312372 0.00632656  0.05305 -0.29062 0.00535488  0.0331744 -0.308022 0.00483608  0.0345984 -0.286367 0.00407076  0.0533187 -0.28916 0.00673771  0.0349207 -0.284912 0.00514221  0.0284164 -0.356698 0.00334978  0.0488031 -0.360005 0.00553668  0.0504436 -0.337294 0.00470638  0.0286846 -0.355481 0.00424123  0.0308049 -0.332849 0.00358498  0.0506759 -0.336 0.00592721  0.0310887 -0.331564 0.00453687  0.0227779 -0.405346 0.00289869  0.0440816 -0.40898 0.00479352  0.046405 -0.385478 0.00409245  0.023006 -0.404281 0.00367975  0.0257405 -0.380859 0.0031215  0.0465991 -0.384344 0.00516224  0.0259844 -0.379733 0.00395775  0.0161041 -0.455062 0.00247192  0.0381738 -0.458985 0.00409317  0.0411067 -0.434854 0.0035131  0.0162916 -0.454148 0.00314605  0.0195655 -0.430074 0.00268209  0.0412647 -0.433869 0.00443769  0.0197684 -0.429101 0.00341058  0.00855041 -0.505579 0.00207305  0.0312672 -0.509764 0.00344419  0.0347152 -0.485137 0.00297296  0.00869918 -0.504794 0.0026499  0.0124332 -0.480224 0.00226915  0.0348364 -0.484293 0.00376523  0.0125965 -0.479389 0.00289452  0.000254989 -0.55667 0.00170231  0.0234944 -0.561072 0.00284302  0.0273902 -0.53608 0.00247097  0.00036788 -0.556011 0.0021863  0.00449157 -0.531053 0.00188386  0.0274786 -0.535363 0.00313711  0.00461733 -0.530348 0.00241518  -0.00864351 -0.608125 0.00136185  0.0150256 -0.612717 0.00229645  0.0192823 -0.587464 0.00201166  -0.00856268 -0.607571 0.00176334  -0.00412154 -0.582351 0.00152826  0.0193396 -0.586863 0.0025655  -0.00402975 -0.58176 0.00197089  -0.018028 -0.659773 0.00105226  0.00597334 -0.664511 0.00180137  0.0105319 -0.6391 0.00159299  -0.0179744 -0.65932 0.00137627  -0.0132773 -0.633922 0.00120294  0.0105636 -0.638603 0.00204182  -0.0132158 -0.633435 0.00156629  -0.027781 -0.711456 0.000775218  -0.00351548 -0.716316 0.00136304  0.00126839 -0.690825 0.00121915  -0.027751 -0.711084 0.00103211  -0.0228593 -0.685607 0.000909567  0.00127769 -0.69042 0.00157714  -0.0228231 -0.685209 0.00119984  -0.0378087 -0.76305 0.000530362  -0.0133536 -0.767994 0.000978351  -0.00839067 -0.742501 0.000888705  -0.0377975 -0.762755 0.000725627  -0.0327611 -0.737258 0.000648499  -0.00839829 -0.742176 0.00116301  -0.0327461 -0.736941 0.000875235  -0.0480187 -0.814446 0.000317454  -0.0234194 -0.819455 0.000649691  -0.0183408 -0.794015 0.000603914  -0.0480223 -0.814207 0.000461459  -0.0428903 -0.788767 0.000419974  -0.018362 -0.793757 0.000809312  -0.0428917 -0.788514 0.000589252  -0.0583429 -0.865564 0.000134349  -0.0336516 -0.870605 0.000370979  -0.0284896 -0.845275 0.000360727  -0.0583568 -0.865376 0.000231624  -0.0531657 -0.840031 0.000222206  -0.0285201 -0.84507 0.000503659  -0.05318 -0.839833 0.000343561  -0.0687137 -0.916339 -2.40803e-05  -0.0439553 -0.9214 0.00013566  -0.0387588 -0.896213 0.00015676  -0.0687356 -0.916179 3.46899e-05  -0.0635209 -0.890986 5.26905e-05  -0.0387974 -0.896048 0.000250578  -0.0635433 -0.890826 0.000130653  -0.0790806 -0.966734 -0.00016737  -0.0542929 -0.971798 -7.54595e-05  -0.0490844 -0.946787 -1.9908e-05  -0.0791047 -0.966594 -0.000146627  -0.0738957 -0.941572 -9.71556e-05  -0.0491242 -0.946647 2.72989e-05  -0.0739248 -0.941438 -5.55515e-05  -0.089366 -1.01671 -0.000304222  -0.0645521 -1.0218 -0.000278234  -0.0593998 -0.996984 -0.000182271  -0.089376 -1.01655 -0.000317097  -0.0842366 -0.991765 -0.000237107  -0.0594413 -0.996849 -0.000175118  -0.0842612 -0.991634 -0.000234604  0.00637445 -0.0149381 0.00560093  0 0 0  0.00803529 -0.0173358 0.00898719  0.00271749 -0.00909591 0.00382316  0 0 0  0.00652802 -0.0141507 0.00737035  0.00207497 -0.00705206 0.00309777  0 0 0  0.0025889 -0.00862396 0.00502539  0.00210136 -0.00680327 0.00410187  0.0185504 -0.0331987 0.00911522  0.0234047 -0.0360321 0.0141619  0.0151128 -0.0275968 0.00931537  0.0190042 -0.0316933 0.0117254  0.012067 -0.023622 0.00762856  0.0151951 -0.0263045 0.0120708  0.0123749 -0.0224372 0.0099287  0.0318163 -0.0556645 0.010612  0.0396929 -0.0582463 0.0162047  0.0311661 -0.0482582 0.0121458  0.032391 -0.0537804 0.0134602  0.0252462 -0.043831 0.0100623  0.0316812 -0.0465084 0.0155443  0.0257604 -0.0421216 0.0128343  0.0439016 -0.0825733 0.0108382  0.0541527 -0.0849859 0.0163425  0.0465951 -0.0730473 0.0130067  0.044462 -0.0805291 0.0136287  0.038085 -0.0685657 0.010832  0.0471791 -0.0710285 0.0164139  0.0386594 -0.0665879 0.013679  0.0539641 -0.113726 0.0103983  0.0662766 -0.116152 0.0156207  0.0599881 -0.102104 0.0127915  0.0544397 -0.111667 0.0130424  0.0492169 -0.0976259 0.0106741  0.0605233 -0.100026 0.0160577  0.0497245 -0.0955706 0.0134056  0.0617452 -0.148758 0.00966072  0.0759201 -0.151326 0.0144843  0.070971 -0.13529 0.0120392  0.0621452 -0.146766 0.012104  0.0581462 -0.130774 0.0100509  0.0714076 -0.13326 0.0150821  0.0585779 -0.128752 0.0126002  0.0672421 -0.187211 0.00880504  0.0831037 -0.190014 0.013203  0.0794523 -0.172175 0.0110679  0.0675817 -0.185348 0.0110345  0.0647783 -0.167576 0.00923967  0.0798181 -0.170257 0.0138593  0.0651426 -0.165655 0.0115794  0.0705588 -0.228612 0.00792921  0.0879405 -0.231698 0.011885  0.0855037 -0.212281 0.0100198  0.0708522 -0.226897 0.00994074  0.0691667 -0.207561 0.00836611  0.0858072 -0.210506 0.0125484  0.069479 -0.205782 0.0104878  0.0718414 -0.272501 0.00706375  0.090572 -0.275889 0.01059  0.0892646 -0.255117 0.00896978  0.0720956 -0.270954 0.00886238  0.0714482 -0.250263 0.00749183  0.0895268 -0.253503 0.0112371  0.0717185 -0.248642 0.00939763  0.0712632 -0.31845 0.00623572  0.0911758 -0.322136 0.0093435  0.0908976 -0.300226 0.00795066  0.0714808 -0.317064 0.00782764  0.071777 -0.295231 0.00664437  0.091117 -0.298774 0.00996435  0.0720093 -0.293778 0.00833941  0.0690007 -0.366074 0.00544536  0.0899347 -0.370043 0.00815916  0.0905923 -0.347188 0.00697625  0.0691832 -0.364854 0.00684202  0.0703351 -0.342065 0.00583386  0.0907788 -0.3459 0.00874627  0.0705321 -0.340774 0.00732803  0.0652423 -0.415027 0.00470364  0.0870467 -0.419251 0.00704467  0.0885369 -0.395632 0.00605655  0.0653894 -0.413956 0.00591421  0.0673009 -0.390392 0.00506818  0.0886862 -0.394498 0.00759673  0.0674621 -0.389261 0.0063709  0.060164 -0.465005 0.0040071  0.0826992 -0.469457 0.00600266  0.0849301 -0.445228 0.00519288  0.0602778 -0.464082 0.00504577  0.0628614 -0.439895 0.00434828  0.0850481 -0.444243 0.00651586  0.0629882 -0.438911 0.00547242  0.0539469 -0.515739 0.00336337  0.0770856 -0.520382 0.00503862  0.0799571 -0.495688 0.00439084  0.0540277 -0.514945 0.00424016  0.0571916 -0.49028 0.00367892  0.0800414 -0.494839 0.00551343  0.0572844 -0.489437 0.00463521  0.046752 -0.566997 0.00276947  0.07038 -0.571799 0.00415242  0.0738068 -0.54676 0.00364995  0.0468043 -0.566329 0.0035001  0.0504661 -0.541305 0.00305927  0.0738624 -0.546038 0.00458622  0.0505286 -0.540587 0.00386214  0.0387433 -0.618574 0.00223076  0.0627582 -0.6235 0.00335002  0.0666471 -0.598227 0.00297463  0.038769 -0.618012 0.00282562  0.0428445 -0.592744 0.0024935  0.0666757 -0.59762 0.00374246  0.0428789 -0.592144 0.00315428  0.0300612 -0.670299 0.00174546  0.0543728 -0.675318 0.00262904  0.0586491 -0.649903 0.00236464  0.0300667 -0.669838 0.00222182  0.0344822 -0.644417 0.00198102  0.0586548 -0.6494 0.0029788  0.0344932 -0.643919 0.00251532  0.0208476 -0.72202 0.00131762  0.045378 -0.727103 0.00199652  0.0499578 -0.701629 0.00182331  0.0208349 -0.721644 0.00168538  0.0255179 -0.696155 0.00152481  0.0499454 -0.701218 0.00230253  0.0255091 -0.695752 0.00194454  0.0112202 -0.773619 0.000945926  0.035902 -0.77874 0.00144875  0.0407226 -0.753275 0.00135076  0.0111949 -0.773319 0.00122297  0.0160837 -0.747831 0.00112474  0.0406957 -0.752943 0.00171053  0.0160599 -0.747506 0.00144565  0.00129414 -0.824994 0.000631452  0.0260754 -0.830131 0.000991821  0.0310655 -0.804732 0.000949621  0.00125861 -0.824752 0.000828028  0.0062933 -0.799327 0.000782013  0.0310278 -0.804467 0.00120914  0.00625777 -0.799071 0.00101638  -0.00883746 -0.876073 0.000369787  0.016 -0.881209 0.000616193  0.0211115 -0.855921 0.000617504  -0.00887895 -0.87588 0.000502706  -0.00374651 -0.850563 0.000494719  0.0210655 -0.855709 0.000792623  -0.00378942 -0.850359 0.000658035  -0.0190864 -0.926803 0.00015378  0.00578237 -0.931928 0.000317574  0.010957 -0.906784 0.000349402  -0.0191336 -0.926639 0.000230789  -0.0139468 -0.90147 0.000257492  0.010906 -0.90661 0.000458121  -0.0139959 -0.901307 0.000360727  -0.0293906 -0.977172 -3.42131e-05  -0.00451159 -0.982284 6.29425e-05  0.000697374 -0.957298 0.000131011  -0.0294371 -0.977025 -2.86102e-06  -0.0242307 -0.952022 5.74589e-05  0.000644207 -0.957146 0.000186086  -0.0242822 -0.951881 0.000111938  -0.0396695 -1.02721 -0.000211835  -0.0148053 -1.03234 -0.000170231  -0.00960827 -1.00748 -6.34193e-05  -0.0397196 -1.02706 -0.000222921  -0.0345364 -1.00222 -0.000125051  -0.00965858 -1.00734 -5.36442e-05  -0.0345886 -1.00208 -0.000117302  0.010798 -0.0225238 0.00827551  0 0 0  0.0160658 -0.0268617 0.0124485  0.00671309 -0.0167915 0.00544357  0 0 0  0.0108338 -0.0215276 0.0110302  0.00347117 -0.0118935 0.00456703  0 0 0  0.00634103 -0.0155795 0.00741017  0.00345424 -0.0110737 0.00605762  0.0284459 -0.0426605 0.0129459  0.0356423 -0.0467292 0.0190701  0.0258457 -0.0379078 0.0126626  0.0290432 -0.0411692 0.01661  0.0193577 -0.0323619 0.0110662  0.0255764 -0.0363081 0.0163651  0.0195676 -0.0310603 0.014375  0.0471416 -0.0651844 0.0148832  0.056808 -0.0686002 0.0214398  0.0460667 -0.058984 0.0160859  0.0477572 -0.0632156 0.0188833  0.0379614 -0.0533721 0.0141894  0.0464537 -0.0569327 0.0206289  0.0385427 -0.0515147 0.0181019  0.0639532 -0.0920171 0.0151237  0.0757605 -0.0952321 0.0216979  0.06598 -0.0834098 0.0171913  0.0645613 -0.0899032 0.0190357  0.055851 -0.0780135 0.0151597  0.0665935 -0.0813088 0.0217751  0.0564592 -0.0759765 0.0191554  0.078274 -0.123143 0.0145093  0.0920321 -0.126389 0.0206954  0.0836561 -0.112362 0.016909  0.0787863 -0.121067 0.0182042  0.0714548 -0.107027 0.0148973  0.0842593 -0.11024 0.021287  0.0720109 -0.104938 0.0187172  0.0898974 -0.158289 0.0134753  0.105451 -0.161703 0.0192399  0.0985782 -0.145579 0.0159431  0.0903245 -0.156308 0.0168846  0.084426 -0.140231 0.0140253  0.0990989 -0.14356 0.0200145  0.08489 -0.138209 0.0175822  0.0988687 -0.196928 0.0122941  0.116034 -0.200597 0.0175163  0.110637 -0.182609 0.0146724  0.0992273 -0.195095 0.0154014  0.094714 -0.177185 0.0128978  0.11109 -0.180733 0.018394  0.0951024 -0.17529 0.0161592  0.105288 -0.238581 0.0110627  0.123912 -0.242511 0.0157938  0.119921 -0.222929 0.0132964  0.105595 -0.2369 0.0138568  0.102392 -0.2174 0.0116799  0.120305 -0.221208 0.016663  0.10272 -0.215653 0.0146308  0.109321 -0.282719 0.00985682  0.12922 -0.28693 0.0140451  0.126534 -0.265987 0.0119071  0.109585 -0.281209 0.0123495  0.107596 -0.260353 0.0104564  0.126874 -0.264438 0.0149169  0.107877 -0.258771 0.0131  0.111146 -0.328921 0.00868821  0.132163 -0.33338 0.0124056  0.130686 -0.311316 0.0105556  0.111372 -0.327569 0.0108851  0.110502 -0.30558 0.0092665  0.130975 -0.309928 0.0132242  0.110742 -0.30416 0.0116104  0.110967 -0.376759 0.00758398  0.132932 -0.381454 0.0108048  0.132548 -0.358462 0.00925958  0.111157 -0.37557 0.0095036  0.111298 -0.352646 0.00812852  0.132804 -0.357241 0.0115975  0.111503 -0.351389 0.0101862  0.108984 -0.425899 0.00653958  0.131755 -0.430785 0.00933516  0.132363 -0.407058 0.00803661  0.10914 -0.424854 0.0081948  0.110193 -0.401178 0.00705361  0.132572 -0.405984 0.0100652  0.110361 -0.400074 0.00883973  0.105405 -0.476009 0.00556886  0.128834 -0.481062 0.00792956  0.130319 -0.456751 0.00688756  0.105527 -0.475111 0.00697935  0.107386 -0.450838 0.00604522  0.130497 -0.455828 0.00862265  0.10752 -0.449881 0.00757682  0.100425 -0.526838 0.0046674  0.124391 -0.532014 0.00665963  0.126653 -0.507268 0.00582206  0.100515 -0.526064 0.00585008  0.103083 -0.501341 0.00510895  0.126788 -0.506472 0.00728786  0.103183 -0.500518 0.00640368  0.0942365 -0.578134 0.00384271  0.118618 -0.583404 0.00546861  0.12155 -0.558339 0.00483799  0.0942968 -0.577486 0.00481641  0.0974743 -0.55243 0.00424516  0.121656 -0.557673 0.00605237  0.0975446 -0.551733 0.00532186  0.087018 -0.629716 0.00309408  0.111716 -0.635041 0.00441349  0.115225 -0.609767 0.00394368  0.0870523 -0.62917 0.00387967  0.0907493 -0.603893 0.00345826  0.115293 -0.609206 0.00493193  0.0907907 -0.603308 0.004336  0.0789423 -0.681396 0.00242496  0.10386 -0.686748 0.00345051  0.107849 -0.661354 0.00313687  0.0789537 -0.680951 0.00304043  0.0830817 -0.655542 0.00274897  0.107895 -0.660901 0.00391829  0.0830991 -0.655061 0.00344777  0.0701644 -0.733051 0.00183809  0.0952256 -0.738401 0.00262451  0.0996122 -0.712965 0.0024246  0.0701575 -0.732684 0.00230634  0.0746355 -0.707227 0.00212073  0.0996258 -0.712593 0.00302601  0.0746319 -0.706834 0.00266027  0.0608361 -0.784546 0.00133395  0.0859652 -0.789872 0.0019033  0.0906639 -0.764459 0.0018059  0.0608134 -0.784257 0.00167274  0.0655656 -0.758813 0.00157452  0.0906632 -0.76417 0.00224817  0.0655448 -0.7585 0.00197613  0.0510905 -0.835816 0.000916362  0.0762346 -0.841098 0.00132132  0.0811715 -0.815759 0.00128746  0.0510545 -0.835577 0.00115097  0.056011 -0.810207 0.00111389  0.081146 -0.815524 0.00159872  0.0559762 -0.809956 0.00139809  0.0410554 -0.886775 0.000579476  0.066164 -0.891998 0.000848174  0.0712678 -0.866777 0.000865936  0.0410092 -0.886584 0.000727415  0.0461068 -0.861325 0.00073719  0.0712326 -0.866595 0.00106883  0.0460606 -0.861126 0.000926614  0.030843 -0.937412 0.000317216  0.0558951 -0.942582 0.000500917  0.0610981 -0.917492 0.000539422  0.0307868 -0.937243 0.000402689  0.0359676 -0.912128 0.000439763  0.0610414 -0.917335 0.00066328  0.0359123 -0.911961 0.000554323  0.0205433 -0.98771 0.000104427  0.0455287 -0.992832 0.000219584  0.0507753 -0.967881 0.000291228  0.0204854 -0.987559 0.000136375  0.0257044 -0.962588 0.000205874  0.0507174 -0.967748 0.00035274  0.0256422 -0.962444 0.000264883  0.0101962 -1.03777 -9.52482e-05  0.035145 -1.04283 -1.80006e-05  0.0404091 -1.01801 9.03606e-05  0.0101502 -1.03759 -0.0001055  0.0153799 -1.01275 4.05312e-06  0.0403354 -1.01787 0.000112414  0.0153193 -1.01261 1.23978e-05  -0.0173446 -0.0226476 -0.00810802  -0.00801181 -0.0143962 -0.00287092  0 0 0  -0.0107682 -0.0181243 -0.00443828  0 0 0  -0.00738747 -0.0128647 -0.00553632  -0.00251516 -0.00636948 -0.00199091  0 0 0  -0.00763466 -0.0136757 -0.00442076  -0.0107427 -0.0171453 -0.00676286  -0.00357217 -0.00906606 -0.00240242  0 0 0  -0.00258526 -0.00609821 -0.00306201  -0.00355514 -0.00869404 -0.00366306  -0.036951 -0.0378786 -0.0126836  -0.0269153 -0.0308281 -0.00704002  -0.0279301 -0.0344211 -0.00727391  -0.0212435 -0.0291603 -0.00918794  -0.0137815 -0.0214062 -0.00503969  -0.0270343 -0.0298117 -0.0105991  -0.0278221 -0.0332128 -0.0110179  -0.0190439 -0.025717 -0.00608802  -0.013891 -0.0206758 -0.00768173  -0.0189449 -0.0248836 -0.00933909  -0.0578264 -0.0559762 -0.0147445  -0.0473278 -0.0480188 -0.00928938  -0.0464046 -0.0535404 -0.00855696  -0.0368432 -0.0488863 -0.0108047  -0.0288999 -0.0397259 -0.00680065  -0.0473454 -0.0463941 -0.0140874  -0.0463429 -0.052196 -0.0128572  -0.0370788 -0.0435649 -0.00809717  -0.0288874 -0.0385087 -0.0102202  -0.0369764 -0.042209 -0.0121665  -0.0787074 -0.0774966 -0.0150077  -0.0684032 -0.0677643 -0.0100503  -0.0651023 -0.0762237 -0.00878143  -0.0528725 -0.0724054 -0.01105  -0.0449158 -0.0614629 -0.00742853  -0.0683311 -0.0662625 -0.0150185  -0.0649729 -0.0747594 -0.0130864  -0.0557834 -0.0643759 -0.00878263  -0.0448405 -0.0601536 -0.0110663  -0.0556824 -0.062998 -0.0131369  -0.0989013 -0.102838 -0.0142565  -0.0890308 -0.0912394 -0.00990224  -0.0833067 -0.10262 -0.00837946  -0.0687565 -0.0997687 -0.0104702  -0.0610108 -0.0870109 -0.00732565  -0.0889257 -0.0896765 -0.0147402  -0.083111 -0.101186 -0.012393  -0.0742765 -0.0889567 -0.00864589  -0.0608392 -0.0856165 -0.0108371  -0.0741147 -0.0875046 -0.0128195  -0.118194 -0.131883 -0.0129702  -0.108837 -0.118363 -0.0092355  -0.100892 -0.13252 -0.00766349  -0.0842997 -0.130663 -0.00952137  -0.0768386 -0.11609 -0.00682223  -0.108671 -0.116936 -0.0136304  -0.100609 -0.131202 -0.0112698  -0.092178 -0.117117 -0.00804889  -0.076571 -0.114786 -0.0100278  -0.0919377 -0.115771 -0.0118715  -0.136606 -0.164331 -0.0115275  -0.127744 -0.149024 -0.00834477  -0.117803 -0.165737 -0.00684166  -0.0994701 -0.164828 -0.00844991  -0.0922622 -0.148566 -0.00615418  -0.127519 -0.147705 -0.0122669  -0.117467 -0.164549 -0.0100019  -0.109424 -0.148729 -0.00726116  -0.0919259 -0.147354 -0.00899541  -0.109112 -0.147484 -0.010639  -0.154203 -0.199853 -0.0100961  -0.145781 -0.182886 -0.00739682  -0.134116 -0.2019 -0.00602424  -0.114304 -0.201895 -0.00739658  -0.107312 -0.184074 -0.00545108  -0.145511 -0.181751 -0.0107914  -0.133744 -0.200871 -0.00875461  -0.126029 -0.183448 -0.00643003  -0.106925 -0.183018 -0.00792098  -0.125673 -0.18237 -0.00937521  -0.171067 -0.238096 -0.00875807  -0.163024 -0.219659 -0.00648522  -0.149868 -0.240738 -0.00526142  -0.12883 -0.241546 -0.00642097  -0.121997 -0.222349 -0.00478041  -0.162732 -0.218657 -0.00941992  -0.149492 -0.239841 -0.00759614  -0.142052 -0.220999 -0.00563574  -0.1216 -0.221413 -0.00690138  -0.141678 -0.220048 -0.0081594  -0.187272 -0.278741 -0.00755632  -0.179551 -0.258992 -0.00564742  -0.165136 -0.281887 -0.00457311  -0.14308 -0.283444 -0.00554097  -0.136382 -0.263024 -0.0041678  -0.179256 -0.258155 -0.00813293  -0.16477 -0.281129 -0.00655103  -0.157556 -0.261023 -0.00490844  -0.135986 -0.262232 -0.00597215  -0.157188 -0.260223 -0.0070622  -0.202875 -0.321475 -0.00647485  -0.195436 -0.300596 -0.00489485  -0.179945 -0.325089 -0.0039593  -0.157063 -0.327299 -0.00476158  -0.150468 -0.305832 -0.00362051  -0.195155 -0.299867 -0.00700521  -0.179607 -0.324435 -0.00562143  -0.172589 -0.303243 -0.00425744  -0.150102 -0.305141 -0.00514174  -0.17224 -0.302549 -0.00606978  -0.217919 -0.366013 -0.0055269  -0.21073 -0.344149 -0.00422609  -0.194339 -0.370016 -0.0034169  -0.170787 -0.372815 -0.00406814  -0.164296 -0.350439 -0.0031358  -0.210472 -0.343549 -0.00598037  -0.194032 -0.36947 -0.0047977  -0.187189 -0.347335 -0.00367987  -0.163956 -0.349865 -0.00440657  -0.186871 -0.346761 -0.00519896  -0.232431 -0.412081 -0.00467718  -0.225476 -0.389391 -0.00363362  -0.208321 -0.416439 -0.00293708  -0.184241 -0.419737 -0.00346196  -0.177843 -0.39661 -0.00270796  -0.225247 -0.388872 -0.00509298  -0.20805 -0.415971 -0.00407076  -0.201374 -0.393049 -0.0031693  -0.177546 -0.396112 -0.00375652  -0.20109 -0.392554 -0.00442016  -0.246432 -0.459431 -0.00394011  -0.239698 -0.436042 -0.00311112  -0.221909 -0.464069 -0.00251544  -0.197418 -0.467808 -0.00292218  -0.191128 -0.444048 -0.00233126  -0.2395 -0.435622 -0.00429142  -0.221674 -0.463684 -0.00342941  -0.21516 -0.440099 -0.00271928  -0.190863 -0.443642 -0.00318491  -0.214913 -0.439697 -0.00374115  -0.259936 -0.507821 -0.00328076  -0.253418 -0.483871 -0.0026511  -0.235098 -0.512708 -0.00214517  -0.210303 -0.516808 -0.00245762  -0.204115 -0.492552 -0.00200093  -0.253251 -0.483509 -0.0036025  -0.234899 -0.512381 -0.00286889  -0.228546 -0.488268 -0.00232363  -0.203895 -0.492201 -0.00268233  -0.228335 -0.487925 -0.00313711  -0.272959 -0.557039 -0.00272071  -0.266649 -0.532635 -0.00224948  -0.2479 -0.562106 -0.00182474  -0.222886 -0.566515 -0.00204659  -0.216821 -0.541862 -0.00171292  -0.266511 -0.53235 -0.0029856  -0.247733 -0.561843 -0.00238037  -0.241543 -0.537307 -0.0019784  -0.21663 -0.541584 -0.00224531  -0.241366 -0.537035 -0.00261629  -0.285516 -0.606876 -0.00222743  -0.27941 -0.582135 -0.00190234  -0.260312 -0.612097 -0.0015502  -0.235158 -0.616744 -0.00170565  -0.22921 -0.591812 -0.0014658  -0.2793 -0.581892 -0.00246596  -0.260175 -0.611875 -0.00196481  -0.254147 -0.587031 -0.00168085  -0.229059 -0.591572 -0.00186872  -0.254001 -0.5868 -0.00216115  -0.297631 -0.657153 -0.00182831  -0.291719 -0.632165 -0.00160861  -0.272354 -0.662467 -0.00132167  -0.24712 -0.667311 -0.00141108  -0.241305 -0.642178 -0.0012573  -0.291631 -0.631981 -0.00201344  -0.272241 -0.662293 -0.00161493  -0.266374 -0.637228 -0.00142968  -0.241175 -0.641994 -0.00155151  -0.266255 -0.637052 -0.00178158  -0.309331 -0.707697 -0.00149095  -0.303604 -0.682559 -0.00136638  -0.284036 -0.713084 -0.00113678  -0.258775 -0.718063 -0.0011847  -0.25308 -0.692828 -0.00108647  -0.303536 -0.682401 -0.00165093  -0.283944 -0.712937 -0.00133526  -0.27823 -0.687745 -0.00122285  -0.252983 -0.692669 -0.00129044  -0.278135 -0.687597 -0.00146401  -0.320661 -0.758365 -0.00124586  -0.315099 -0.733147 -0.00117564  -0.295393 -0.763773 -0.000996113  -0.27014 -0.768856 -0.00100029  -0.264575 -0.743577 -0.000952482  -0.315042 -0.733034 -0.00135481  -0.295318 -0.763659 -0.00111771  -0.289749 -0.73841 -0.00106025  -0.26449 -0.74346 -0.001086  -0.289671 -0.738302 -0.0012182  -0.331665 -0.809021 -0.00105608  -0.32625 -0.7838 -0.00103366  -0.30646 -0.814439 -0.000894785  -0.281236 -0.819578 -0.000879049  -0.275777 -0.794332 -0.000853658  -0.326205 -0.783702 -0.00114214  -0.306393 -0.81434 -0.000965357  -0.300952 -0.789105 -0.000939846  -0.275717 -0.794228 -0.00093329  -0.300889 -0.789013 -0.00103152  -0.342421 -0.859571 -0.000945091  -0.337119 -0.834393 -0.000936508  -0.317286 -0.864957 -0.000827789  -0.292095 -0.870129 -0.000784516  -0.286748 -0.844953 -0.000784755  -0.337071 -0.834324 -0.00099051  -0.317226 -0.864879 -0.00085938  -0.311896 -0.839704 -0.000856996  -0.28669 -0.844876 -0.000827551  -0.311838 -0.839637 -0.000905752  -0.353006 -0.909936 -0.000859737  -0.34778 -0.884847 -0.000874639  -0.327936 -0.915288 -0.000782013  -0.302763 -0.92046 -0.000728488  -0.297492 -0.895395 -0.000738144  -0.347734 -0.884781 -0.000896692  -0.327873 -0.915213 -0.000792503  -0.32262 -0.890137 -0.000802636  -0.297449 -0.89532 -0.000754595  -0.32257 -0.890076 -0.000820994  -0.363527 -0.960151 -0.000809669  -0.358336 -0.935112 -0.000832558  -0.338488 -0.965456 -0.000741243  -0.313322 -0.970579 -0.000665188  -0.308096 -0.945604 -0.000701308  -0.358267 -0.935059 -0.000835657  -0.338427 -0.965382 -0.000725269  -0.333216 -0.940369 -0.000761628  -0.308042 -0.945539 -0.000695586  -0.333154 -0.940313 -0.000756741  -0.00544755 -0.010661 -0.00292146  0 0 0  -0.00386664 -0.00849849 -0.00353146  -0.00132903 -0.00353803 -0.00126112  0 0 0  -0.00542915 -0.0102202 -0.00446117  -0.00181729 -0.00463918 -0.00158978  0 0 0  -0.00132533 -0.00336137 -0.00193763  -0.00182147 -0.00444193 -0.00244999  -0.0158759 -0.0269315 -0.00492871  -0.0114887 -0.0238324 -0.00581408  -0.00729088 -0.0161066 -0.00319397  -0.0159494 -0.0260394 -0.00743163  -0.0102341 -0.018214 -0.00405419  -0.00732981 -0.0154703 -0.00482213  -0.0102558 -0.0175347 -0.00614417  -0.0286353 -0.0474585 -0.00590372  -0.0212839 -0.0443555 -0.00691748  -0.0162293 -0.0345171 -0.00435257  -0.028587 -0.0462548 -0.00880516  -0.0220965 -0.0366824 -0.00552726  -0.0162145 -0.0335302 -0.00650275  -0.0221123 -0.0356188 -0.0082866  -0.0420724 -0.0718752 -0.00610638  -0.031969 -0.0692393 -0.00711262  -0.0266594 -0.0575104 -0.00479972  -0.0419566 -0.0705427 -0.00903964  -0.0352926 -0.0591786 -0.00607777  -0.0265469 -0.0562884 -0.00710559  -0.0352288 -0.057906 -0.00902855  -0.0557348 -0.100004 -0.00583994  -0.043118 -0.0980399 -0.00676978  -0.0377117 -0.0844457 -0.00475788  -0.0554851 -0.0986901 -0.00857949  -0.0489063 -0.0854794 -0.00601256  -0.0375077 -0.0831689 -0.00698912  -0.0487142 -0.0841551 -0.00886369  -0.0693071 -0.131606 -0.00534916  -0.0544835 -0.1304 -0.00616479  -0.0490792 -0.115036 -0.00444567  -0.0689741 -0.130369 -0.00781465  -0.0625291 -0.115381 -0.00561011  -0.0487745 -0.113798 -0.00648665  -0.062241 -0.114108 -0.00821805  -0.0827648 -0.166379 -0.00477719  -0.066039 -0.165944 -0.00547564  -0.0606097 -0.14894 -0.00401866  -0.0823672 -0.165268 -0.00693381  -0.0760534 -0.148608 -0.00506699  -0.0602396 -0.147791 -0.00582373  -0.0756819 -0.147438 -0.00737524  -0.096094 -0.204006 -0.00421393  -0.0777451 -0.204314 -0.00479341  -0.0722815 -0.185824 -0.00356603  -0.0956718 -0.203017 -0.00607705  -0.0894383 -0.184849 -0.00449276  -0.0718709 -0.184794 -0.00513041  -0.0890298 -0.183806 -0.00649953  -0.109322 -0.244155 -0.00368512  -0.0896114 -0.245165 -0.00416231  -0.0840784 -0.225357 -0.00313342  -0.108898 -0.243299 -0.00527227  -0.10272 -0.223777 -0.0039444  -0.0836596 -0.224446 -0.00447059  -0.102294 -0.222862 -0.00566375  -0.12245 -0.286514 -0.00321436  -0.101594 -0.28817 -0.00359499  -0.0959963 -0.267206 -0.00273955  -0.122047 -0.285769 -0.00455809  -0.115892 -0.26507 -0.00344372  -0.0955873 -0.266415 -0.00387084  -0.115481 -0.264279 -0.00490534  -0.135485 -0.330775 -0.00279224  -0.113685 -0.333019 -0.00309396  -0.10801 -0.311064 -0.00238907  -0.13511 -0.330141 -0.00391543  -0.12898 -0.308416 -0.00299752  -0.107629 -0.310378 -0.00333679  -0.12859 -0.307736 -0.00422645  -0.148404 -0.376661 -0.00242376  -0.12582 -0.37943 -0.00265253  -0.120095 -0.356629 -0.00208056  -0.14807 -0.376115 -0.00335622  -0.141954 -0.353524 -0.0026027  -0.119747 -0.356044 -0.00286615  -0.141604 -0.352944 -0.00362766  -0.161199 -0.423898 -0.00209665  -0.137982 -0.427133 -0.00226665  -0.13221 -0.403632 -0.00180995  -0.160901 -0.423441 -0.00285709  -0.154819 -0.400118 -0.00225532  -0.131902 -0.403132 -0.00245309  -0.154502 -0.399625 -0.00309873  -0.173831 -0.472248 -0.00181246  -0.150102 -0.475886 -0.00192893  -0.144318 -0.451811 -0.00157368  -0.173576 -0.471857 -0.00242555  -0.167531 -0.447941 -0.00195014  -0.144047 -0.451391 -0.002092  -0.167259 -0.447527 -0.002635  -0.186289 -0.521474 -0.00156236  -0.162161 -0.525458 -0.00163686  -0.156374 -0.500934 -0.00136781  -0.186068 -0.521152 -0.00204325  -0.180083 -0.496756 -0.00168312  -0.156143 -0.50058 -0.00177729  -0.179846 -0.49641 -0.00222838  -0.198534 -0.571374 -0.00134861  -0.174097 -0.575648 -0.00138533  -0.168341 -0.550779 -0.00119019  -0.198352 -0.571101 -0.00171888  -0.192433 -0.546344 -0.00145149  -0.168144 -0.550486 -0.00150585  -0.192237 -0.546057 -0.00187576  -0.210561 -0.621747 -0.00116587  -0.1859 -0.626259 -0.00117397  -0.18018 -0.601152 -0.00103927  -0.210407 -0.621527 -0.00143826  -0.204576 -0.596503 -0.00125337  -0.180018 -0.600909 -0.00127447  -0.204409 -0.596267 -0.00157344  -0.222343 -0.67243 -0.00101542  -0.197521 -0.677132 -0.000999451  -0.191866 -0.651869 -0.000913739  -0.222221 -0.672244 -0.00120997  -0.216477 -0.647052 -0.00108695  -0.191732 -0.651671 -0.00108206  -0.216344 -0.646859 -0.00131953  -0.233887 -0.723257 -0.000894427  -0.208964 -0.728107 -0.000862122  -0.203374 -0.702773 -0.000812411  -0.233785 -0.723111 -0.00102282  -0.228144 -0.697825 -0.000951529  -0.203267 -0.702612 -0.000925899  -0.228034 -0.697669 -0.00111234  -0.245181 -0.774107 -0.000803828  -0.220195 -0.779064 -0.00075841  -0.21469 -0.753723 -0.000734448  -0.245102 -0.77398 -0.000884891  -0.239558 -0.748679 -0.000845671  -0.214604 -0.753594 -0.000805736  -0.239474 -0.748552 -0.00094974  -0.256249 -0.824853 -0.000738382  -0.231234 -0.829888 -0.000685692  -0.225807 -0.804603 -0.00067842  -0.256181 -0.824754 -0.000781417  -0.250741 -0.799489 -0.000768185  -0.22574 -0.804496 -0.000717878  -0.25067 -0.799387 -0.000830412  -0.267093 -0.875422 -0.000694036  -0.242063 -0.880502 -0.000635266  -0.236728 -0.855312 -0.000640392  -0.267039 -0.875329 -0.000714064  -0.26169 -0.850156 -0.000714064  -0.236672 -0.855224 -0.000657797  -0.261635 -0.85007 -0.000745535  -0.27776 -0.925747 -0.000661254  -0.252725 -0.930839 -0.000598192  -0.247462 -0.905784 -0.000614643  -0.277708 -0.925666 -0.000658989  -0.272446 -0.900607 -0.00067687  -0.247415 -0.905705 -0.000616431  -0.272395 -0.900532 -0.00068748  -0.288298 -0.975829 -0.000633121  -0.263243 -0.98086 -0.000563264  -0.258039 -0.955973 -0.000593662  -0.288252 -0.975733 -0.000612974  -0.283028 -0.950809 -0.000646591  -0.257993 -0.955893 -0.000579715  -0.282986 -0.950734 -0.000635862  -0.00252035 -0.00786656 -0.00172365  0 0 0  -0.00139611 -0.00700286 -0.00173903  -0.000482991 -0.00260544 -0.000633121  0 0 0  -0.00254197 -0.00748441 -0.00261307  -0.000857554 -0.00290498 -0.000944614  0 0 0  -0.000479423 -0.00246602 -0.000958323  -0.000853863 -0.00274095 -0.00144362  -0.00775476 -0.0232444 -0.0028758  -0.00441812 -0.0218372 -0.00286162  -0.00272785 -0.01415 -0.00158501  -0.00779204 -0.0224729 -0.00431228  -0.0048469 -0.0147812 -0.00237417  -0.00271624 -0.013632 -0.00238049  -0.00488897 -0.0142142 -0.00357783  -0.0148453 -0.0442498 -0.00346088  -0.00879768 -0.042693 -0.00340486  -0.0065116 -0.0324965 -0.00215721  -0.0147899 -0.0431719 -0.00513089  -0.0111221 -0.033141 -0.00323164  -0.00645337 -0.0316231 -0.00319397  -0.011121 -0.0322016 -0.00481629  -0.022969 -0.0697262 -0.00359654  -0.0142191 -0.0683807 -0.00350761  -0.0115276 -0.056119 -0.00238919  -0.0228234 -0.0685001 -0.00528026  -0.0188077 -0.056483 -0.00357115  -0.0113904 -0.0549961 -0.00349879  -0.018706 -0.0553141 -0.00526536  -0.0317792 -0.0990902 -0.0034517  -0.0204945 -0.0981898 -0.00333416  -0.0174779 -0.0839935 -0.00237548  -0.0315213 -0.0978607 -0.00502956  -0.0273033 -0.0839434 -0.00354719  -0.017255 -0.0828003 -0.00344288  -0.0270998 -0.0827069 -0.00518858  -0.0410606 -0.131972 -0.00316739  -0.0275217 -0.131599 -0.0030278  -0.0242103 -0.115647 -0.00222278  -0.0407287 -0.130787 -0.00457537  -0.0363665 -0.115109 -0.00331831  -0.0239154 -0.114465 -0.00319099  -0.0360658 -0.113905 -0.00481379  -0.0507665 -0.167983 -0.00283277  -0.0352565 -0.168206 -0.0026741  -0.0316448 -0.150633 -0.00200927  -0.0503846 -0.166906 -0.00406134  -0.0458583 -0.149599 -0.00300145  -0.0313006 -0.14952 -0.0028528  -0.0455023 -0.148472 -0.00431943  -0.0608506 -0.206794 -0.00250113  -0.0436429 -0.207596 -0.00232804  -0.0397366 -0.188584 -0.00178206  -0.060451 -0.205816 -0.00354815  -0.0557628 -0.187051 -0.00266421  -0.0393679 -0.187566 -0.00249958  -0.0553675 -0.186034 -0.0037992  -0.0712944 -0.248046 -0.00219202  -0.0526381 -0.249436 -0.00200975  -0.0484366 -0.229136 -0.00156653  -0.0708975 -0.247193 -0.00307882  -0.0660239 -0.227126 -0.00234234  -0.0480651 -0.228225 -0.00216532  -0.0656289 -0.226218 -0.00330651  -0.0820497 -0.291429 -0.00191748  -0.0621631 -0.293354 -0.00172973  -0.0576924 -0.27195 -0.00137258  -0.081674 -0.290674 -0.00265515  -0.0766349 -0.269481 -0.00205028  -0.0573345 -0.271146 -0.00186622  -0.0762466 -0.268689 -0.00285876  -0.0930796 -0.336619 -0.00167525  -0.0721576 -0.339062 -0.00148666  -0.0674359 -0.3167 -0.00120354  -0.0927328 -0.335975 -0.00228727  -0.087528 -0.313808 -0.00179219  -0.0671035 -0.315997 -0.00160432  -0.0871714 -0.313117 -0.00246418  -0.104318 -0.383344 -0.00146532  -0.0825289 -0.386238 -0.00127864  -0.0775976 -0.363082 -0.00105822  -0.104008 -0.382781 -0.00196159  -0.0986751 -0.359797 -0.00156641  -0.0772966 -0.362475 -0.00137925  -0.0983462 -0.359207 -0.00211716  -0.11572 -0.431319 -0.00128198  -0.093212 -0.434637 -0.00110126  -0.0880992 -0.410817 -0.000934482  -0.115446 -0.430849 -0.00168359  -0.109997 -0.407182 -0.00137007  -0.0878329 -0.410295 -0.00118661  -0.10971 -0.406674 -0.00181663  -0.127213 -0.480315 -0.00112462  -0.104115 -0.483986 -0.000951171  -0.0988675 -0.459643 -0.000829577  -0.126978 -0.479906 -0.00143826  -0.121457 -0.455695 -0.00120032  -0.098636 -0.459199 -0.00102353  -0.121203 -0.455268 -0.00155473  -0.138755 -0.530088 -0.000988841  -0.115182 -0.534082 -0.000825047  -0.109826 -0.509324 -0.000741482  -0.138554 -0.529754 -0.00123239  -0.132976 -0.505109 -0.00105393  -0.109629 -0.508949 -0.000885606  -0.132764 -0.504746 -0.00133038  -0.150281 -0.580448 -0.000874639  -0.126329 -0.584699 -0.000721693  -0.120909 -0.559644 -0.00066793  -0.150114 -0.580159 -0.00105321  -0.144522 -0.555197 -0.000928879  -0.120745 -0.55933 -0.000771165  -0.144338 -0.554899 -0.00113702  -0.161758 -0.631191 -0.000779271  -0.137514 -0.635673 -0.000638604  -0.132052 -0.610409 -0.000608921  -0.16162 -0.630962 -0.000908852  -0.156023 -0.605774 -0.000824332  -0.131917 -0.610147 -0.000677705  -0.155877 -0.605524 -0.000976324  -0.173136 -0.682171 -0.000702977  -0.148669 -0.686822 -0.000574827  -0.143202 -0.661443 -0.000562549  -0.173025 -0.681972 -0.000787735  -0.167459 -0.656653 -0.000738621  -0.143093 -0.661227 -0.000604749  -0.167336 -0.656451 -0.000842929  -0.184394 -0.73322 -0.00064373  -0.159768 -0.738022 -0.000529051  -0.15431 -0.712595 -0.000528455  -0.184305 -0.733067 -0.000698328  -0.178775 -0.707687 -0.000671148  -0.154225 -0.712418 -0.000549555  -0.178682 -0.707519 -0.000738859  -0.195501 -0.784234 -0.000602245  -0.170762 -0.789133 -0.000500441  -0.165342 -0.763732 -0.000505686  -0.195432 -0.784099 -0.000629783  -0.189965 -0.75873 -0.000620842  -0.165275 -0.763587 -0.000512958  -0.189888 -0.758597 -0.000659108  -0.206453 -0.835091 -0.000574589  -0.181642 -0.840075 -0.00048542  -0.176265 -0.814745 -0.000493884  -0.206398 -0.834987 -0.000588059  -0.200991 -0.80968 -0.00058651  -0.176215 -0.814625 -0.000491381  -0.200936 -0.809568 -0.000605345  -0.217234 -0.885727 -0.000558376  -0.192375 -0.89075 -0.000481248  -0.187061 -0.865543 -0.000489831  -0.21719 -0.885628 -0.000557661  -0.211863 -0.860433 -0.00056529  -0.187022 -0.865443 -0.000482798  -0.211814 -0.860342 -0.000569344  -0.227863 -0.936066 -0.00054729  -0.202972 -0.941112 -0.000481009  -0.197719 -0.916057 -0.000491142  -0.227822 -0.935981 -0.000540733  -0.222561 -0.910928 -0.000552535  -0.197687 -0.915968 -0.000481129  -0.222525 -0.910845 -0.000548124  -0.238355 -0.986051 -0.000538826  -0.213419 -0.991055 -0.000482559  -0.208241 -0.966231 -0.000493288  -0.238312 -0.985954 -0.000522375  -0.233122 -0.961104 -0.000542283  -0.208209 -0.966138 -0.000481248  -0.23308 -0.961022 -0.00052917  -0.000363022 -0.00732264 -0.000592709  0 0 0  0.00064756 -0.00738469 -3.32594e-05  0.000207521 -0.00279143 -1.88351e-05  0 0 0  -0.000344224 -0.00700259 -0.000885129  -0.000122081 -0.00258166 -0.000324368  0 0 0  0.000209771 -0.00266173 -1.65701e-05  -0.000122711 -0.00244722 -0.000485301  -0.00136091 -0.0225379 -0.000992298  0.00166625 -0.0224496 -7.67708e-05  0.00112286 -0.0145803 -5.90086e-05  -0.00130758 -0.0218569 -0.0014534  -0.000763476 -0.0140996 -0.000815868  0.0011671 -0.0141038 -5.42402e-05  -0.00072448 -0.0136078 -0.00120604  -0.00329542 -0.0438614 -0.00120103  0.00225255 -0.0436914 -0.000105739  0.00193951 -0.0332097 -0.00010097  -0.00317112 -0.042873 -0.00173616  -0.00220466 -0.0325357 -0.00111628  0.00204811 -0.0324109 -9.53674e-05  -0.0021185 -0.0317009 -0.00162661  -0.00622538 -0.069995 -0.00125337  0.00192875 -0.0699372 -0.000100017  0.00203913 -0.0573131 -0.000122428  -0.00602809 -0.0688553 -0.00178707  -0.00463432 -0.0563967 -0.0012424  0.00221974 -0.05626 -0.000106096  -0.00447625 -0.0553168 -0.00178337  -0.0101475 -0.100196 -0.00120175  0.000475645 -0.100406 -6.80685e-05  0.00111258 -0.0858122 -0.000120521  -0.00988388 -0.0990292 -0.00168443  -0.00806636 -0.0846143 -0.00123632  0.00135106 -0.0846848 -8.60691e-05  -0.00783139 -0.0834599 -0.00174904  -0.0150352 -0.133984 -0.00109887  -0.00218052 -0.134556 -2.30074e-05  -0.000980914 -0.118189 -0.000104308  -0.014725 -0.132841 -0.00151551  -0.0124674 -0.116667 -0.00115407  -0.000702143 -0.117052 -4.62532e-05  -0.0121837 -0.115512 -0.00160611  -0.0208548 -0.170921 -0.000976562  -0.00603133 -0.171923 2.31266e-05  -0.00426316 -0.153946 -8.16584e-05  -0.0205183 -0.169864 -0.00131547  -0.0178332 -0.152072 -0.00103855  -0.00395882 -0.152861 3.57628e-07  -0.0175051 -0.150979 -0.00141799  -0.0275491 -0.210648 -0.00085783  -0.0110065 -0.212101 6.13928e-05  -0.00869387 -0.192689 -6.03199e-05  -0.0272055 -0.209673 -0.00112939  -0.0240905 -0.190453 -0.000916123  -0.00838256 -0.191683 4.31538e-05  -0.023754 -0.189443 -0.00122201  -0.0350549 -0.252783 -0.00075078  -0.0170302 -0.2547 8.72612e-05  -0.0142009 -0.234029 -4.52995e-05  -0.0347193 -0.251922 -0.000956178  -0.0312064 -0.231425 -0.000802398  -0.0138931 -0.233118 7.56979e-05  -0.0308639 -0.230517 -0.00104213  -0.0432841 -0.297004 -0.000660062  -0.0239831 -0.299368 9.82285e-05  -0.0206869 -0.277608 -3.86238e-05  -0.0429691 -0.296233 -0.000815392  -0.0390779 -0.274647 -0.000703454  -0.0203959 -0.276795 9.39369e-05  -0.0387574 -0.27384 -0.000884175  -0.0521549 -0.342972 -0.000585437  -0.0317695 -0.345764 9.58443e-05  -0.028048 -0.323083 -4.06504e-05  -0.0518661 -0.342308 -0.000692844  -0.0476459 -0.319778 -0.000620961  -0.0277795 -0.322366 9.83477e-05  -0.0473424 -0.319072 -0.000753641  -0.0615648 -0.390407 -0.000525951  -0.0402575 -0.393589 8.14199e-05  -0.0361719 -0.370138 -5.09024e-05  -0.0613078 -0.389822 -0.00059998  -0.0567914 -0.366518 -0.000554085  -0.0359311 -0.369513 8.95262e-05  -0.0565243 -0.365902 -0.00064528  -0.0714293 -0.439017 -0.000479102  -0.0493528 -0.442556 5.76973e-05  -0.0449485 -0.418483 -6.77109e-05  -0.0712039 -0.438524 -0.000520825  -0.0664463 -0.414571 -0.000501037  -0.0447363 -0.417943 7.04527e-05  -0.0662048 -0.414043 -0.000560284  -0.0816482 -0.48857 -0.000443339  -0.0589286 -0.492421 2.67029e-05  -0.0542674 -0.467852 -8.95262e-05  -0.0814559 -0.48814 -0.000464678  -0.0764931 -0.463685 -0.000459909  -0.0540853 -0.467389 4.25577e-05  -0.0762905 -0.463232 -0.000492096  -0.092145 -0.538821 -0.000416636  -0.0689027 -0.542947 -9.77516e-06  -0.0640261 -0.518005 -0.000115275  -0.0919824 -0.538466 -0.000417113  -0.0868676 -0.513611 -0.000428915  -0.0638725 -0.517611 8.82149e-06  -0.0866898 -0.51323 -0.000441313  -0.10283 -0.589584 -0.000398517  -0.0791613 -0.593939 -4.99487e-05  -0.0741268 -0.568726 -0.000143528  -0.102697 -0.589276 -0.000388622  -0.0974619 -0.564145 -0.000406623  -0.0740002 -0.568394 -2.96831e-05  -0.0973202 -0.563822 -0.00040257  -0.113642 -0.640656 -0.000387549  -0.0896399 -0.645206 -9.2864e-05  -0.0844811 -0.619821 -0.000173926  -0.113533 -0.64041 -0.000365853  -0.108224 -0.615081 -0.000392318  -0.0843787 -0.619545 -7.15256e-05  -0.108104 -0.614816 -0.000377893  -0.124507 -0.691897 -0.000383735  -0.100242 -0.6966 -0.000137687  -0.0950081 -0.671123 -0.000205159  -0.124422 -0.691684 -0.000359297  -0.119064 -0.66626 -0.000384808  -0.094928 -0.670895 -0.000115275  -0.118974 -0.666038 -0.000362396  -0.135383 -0.743148 -0.000385761  -0.110924 -0.747976 -0.000183821  -0.105639 -0.722483 -0.000237346  -0.135316 -0.742982 -0.000356436  -0.129947 -0.717519 -0.000383973  -0.105577 -0.722295 -0.000160575  -0.129872 -0.71734 -0.00035882  -0.146214 -0.794311 -0.00039351  -0.12161 -0.799227 -0.000230312  -0.116314 -0.773775 -0.000270009  -0.146165 -0.794164 -0.00036788  -0.1408 -0.768742 -0.00038898  -0.116267 -0.773622 -0.000207186  -0.140748 -0.768593 -0.000362396  -0.156978 -0.84527 -0.000406027  -0.132277 -0.850253 -0.000276804  -0.126982 -0.824897 -0.000302911  -0.15694 -0.845156 -0.000381112  -0.151607 -0.819811 -0.000399232  -0.126949 -0.824771 -0.000253677  -0.151563 -0.819692 -0.000375748  -0.167636 -0.895967 -0.000421047  -0.142867 -0.900987 -0.000322104  -0.137605 -0.875765 -0.000335097  -0.167608 -0.89586 -0.000403881  -0.162315 -0.87065 -0.000413418  -0.137582 -0.875659 -0.000299692  -0.162287 -0.870548 -0.000393152  -0.178185 -0.946326 -0.000437379  -0.153376 -0.951363 -0.000366092  -0.148153 -0.926313 -0.000366807  -0.178159 -0.946233 -0.000422359  -0.172925 -0.921181 -0.000429392  -0.148133 -0.926219 -0.000344396  -0.172899 -0.921092 -0.000415325  -0.188589 -0.996274 -0.000453711  -0.163734 -1.00129 -0.00040555  -0.158596 -0.976488 -0.000397086  -0.18856 -0.996159 -0.000445127  -0.1834 -0.971357 -0.000445127  -0.158576 -0.976391 -0.000386596  -0.183379 -0.971263 -0.000433564  0.00161286 -0.0084148 0.000508547  0 0 0  0.00267372 -0.00922769 0.00163543  0.000881769 -0.00385731 0.000574708  0 0 0  0.001646 -0.00811869 0.000807166  0.00053113 -0.00321215 0.000281334  0 0 0  0.000885703 -0.00374866 0.000912786  0.000550427 -0.00309139 0.000452042  0.00452065 -0.024249 0.000813246  0.00767809 -0.0253348 0.00262237  0.00492714 -0.0170121 0.00142312  0.00464511 -0.0236194 0.00127816  0.00299858 -0.015541 0.000685811  0.00500287 -0.0165657 0.00221133  0.00306562 -0.0150855 0.00108159  0.00745258 -0.0460671 0.000953197  0.0131114 -0.0471888 0.00309443  0.0102622 -0.0363926 0.00189149  0.00763735 -0.0451334 0.00150061  0.006046 -0.0344924 0.0008986  0.0104156 -0.0356218 0.00290728  0.00619659 -0.0337167 0.00141561  0.00956857 -0.0726957 0.000985742  0.0177639 -0.0738739 0.00320232  0.015352 -0.0609955 0.00207043  0.00981086 -0.0716097 0.00156188  0.00863764 -0.058843 0.000979424  0.0155747 -0.0599777 0.00318003  0.008858 -0.0578203 0.00154483  0.0104646 -0.10345 0.00095737  0.0210328 -0.104781 0.00310373  0.0193388 -0.0899271 0.0020622  0.0107287 -0.102322 0.00152457  0.0101917 -0.0875831 0.000977516  0.0195908 -0.0888262 0.00316763  0.0104389 -0.086476 0.0015533  0.0099535 -0.137846 0.000897288  0.0226803 -0.1394 0.00290298  0.0218018 -0.12276 0.00195181  0.0102354 -0.136733 0.00144935  0.0103832 -0.120216 0.000930309  0.0220649 -0.121648 0.00301027  0.0106612 -0.119098 0.0014925  0.00803411 -0.175441 0.00082469  0.0226762 -0.177303 0.00266337  0.0226213 -0.159033 0.00179672  0.0083189 -0.174396 0.00134659  0.00917327 -0.156262 0.000862718  0.0228831 -0.157963 0.00278568  0.00945199 -0.155187 0.00140154  0.00476909 -0.215845 0.00074625  0.0211005 -0.218038 0.00241148  0.021829 -0.198335 0.0016259  0.00504756 -0.214874 0.00124168  0.00656271 -0.195308 0.000786424  0.0220814 -0.197334 0.00253797  0.0068472 -0.194308 0.00129712  0.000255942 -0.258659 0.000664115  0.0180609 -0.261223 0.0021596  0.0195185 -0.240259 0.00145221  0.000521541 -0.257791 0.00112355  0.00266683 -0.236966 0.000706077  0.0197576 -0.239344 0.00228548  0.0029341 -0.236053 0.00118446  -0.00537848 -0.30354 0.000580072  0.0137053 -0.306454 0.00191212  0.0158225 -0.284421 0.00128078  -0.00513399 -0.302756 0.00100768  -0.00242889 -0.280855 0.000622511  0.0160427 -0.283598 0.00203514  -0.00217235 -0.280039 0.00106788  -0.0120162 -0.350131 0.000494242  0.00816643 -0.353401 0.00167167  0.0108783 -0.33046 0.00111365  -0.0117946 -0.34945 0.000882387  -0.00857472 -0.326634 0.000537395  0.0110772 -0.329729 0.001791  -0.00834668 -0.325909 0.000946164  -0.0195189 -0.39814 0.000408053  0.00160229 -0.401724 0.00143945  0.0048331 -0.378044 0.000952363  -0.0193244 -0.397537 0.000761747  -0.0156668 -0.373968 0.000451326  0.00500786 -0.377402 0.00155437  -0.0154581 -0.373337 0.000823855  -0.0277698 -0.447267 0.000322819  -0.00585771 -0.451152 0.0012176  -0.00217247 -0.42687 0.000797868  -0.027601 -0.446754 0.000635982  -0.023553 -0.422573 0.000365376  -0.00202155 -0.426311 0.0013274  -0.0233771 -0.422022 0.000699639  -0.0366375 -0.497274 0.000239491  -0.0140635 -0.501407 0.00100684  -0.00999701 -0.476666 0.000651121  -0.0364966 -0.496825 0.000518203  -0.032133 -0.472167 0.000280857  -0.00987089 -0.476184 0.00111067  -0.0319782 -0.471697 0.000578403  -0.0460179 -0.547914 0.000158787  -0.0228997 -0.552279 0.000809431  -0.0185108 -0.527187 0.000512362  -0.0459007 -0.54754 0.000398159  -0.0412651 -0.52252 0.00019896  -0.0184078 -0.526774 0.000906587  -0.0411417 -0.522117 0.000458598  -0.0557939 -0.599001 8.17776e-05  -0.0322325 -0.603544 0.000625014  -0.0275877 -0.578216 0.000383019  -0.0557009 -0.598677 0.000289083  -0.0508617 -0.573405 0.000120163  -0.0275064 -0.577866 0.000715256  -0.0507569 -0.573068 0.000344872  -0.0658784 -0.650336 9.29832e-06  -0.0419655 -0.655042 0.000455976  -0.0371149 -0.629562 0.000263333  -0.0658047 -0.650074 0.000180244  -0.0607977 -0.62464 4.50611e-05  -0.0370529 -0.629269 0.000538826  -0.0607204 -0.624355 0.000234723  -0.0761745 -0.701783 -5.8651e-05  -0.051986 -0.706602 0.000302076  -0.0469856 -0.68106 0.000154138  -0.0761199 -0.701557 8.41618e-05  -0.0710037 -0.676047 -2.49147e-05  -0.0469408 -0.680816 0.000377059  -0.0709405 -0.675814 0.000133276  -0.0866156 -0.753189 -0.000121236  -0.0622194 -0.758109 0.00016439  -0.0571089 -0.732566 5.51939e-05  -0.0865753 -0.753011 -1.06096e-05  -0.0813756 -0.727491 -9.03606e-05  -0.0570781 -0.732364 0.000231385  -0.0813344 -0.727297 3.68357e-05  -0.097127 -0.804461 -0.000179291  -0.0725763 -0.809437 4.19617e-05  -0.0674007 -0.78396 -3.25441e-05  -0.0970998 -0.804304 -9.23872e-05  -0.0918646 -0.77884 -0.000150681  -0.0673819 -0.783794 0.000100851  -0.0918319 -0.778683 -5.05447e-05  -0.107664 -0.85549 -0.00023222  -0.0830064 -0.860519 -6.58035e-05  -0.0777924 -0.835146 -0.000110745  -0.107646 -0.855367 -0.000172257  -0.10239 -0.830003 -0.000206232  -0.0777829 -0.835008 -1.37091e-05  -0.102373 -0.829871 -0.000132322  -0.118173 -0.906225 -0.000280976  -0.0934434 -0.911269 -0.000161767  -0.0882244 -0.886048 -0.000179529  -0.118163 -0.90611 -0.000240564  -0.112924 -0.88089 -0.000256777  -0.0882223 -0.885931 -0.000115275  -0.11291 -0.880783 -0.000205159  -0.128629 -0.956598 -0.000326633  -0.103853 -0.961658 -0.000249743  -0.0986502 -0.936609 -0.000241756  -0.128619 -0.956498 -0.000309348  -0.123404 -0.931451 -0.000304103  -0.0986512 -0.936505 -0.000206351  -0.1234 -0.931352 -0.000274897  -0.138963 -1.00654 -0.000370622  -0.114152 -1.01161 -0.000334859  -0.10902 -0.986796 -0.000299931  -0.13895 -1.00643 -0.000371933  -0.133816 -0.981628 -0.000348687  -0.109018 -0.986689 -0.000292659  -0.133806 -0.981529 -0.000339389  0.00370127 -0.0111108 0.00156915  0 0 0  0.00495797 -0.0128245 0.00323713  0.00166136 -0.00600111 0.00114083  0 0 0  0.00377981 -0.0107859 0.00243211  0.00123225 -0.00474852 0.000861049  0 0 0  0.00162885 -0.00587356 0.00175357  0.00125118 -0.0046646 0.00134635  0.0107144 -0.0282769 0.00257468  0.0143218 -0.0305738 0.0052917  0.00924259 -0.0216559 0.00286973  0.0109269 -0.0276554 0.00396144  0.00696427 -0.0190245 0.00214803  0.00933161 -0.0211427 0.00442135  0.00710897 -0.0185637 0.00331104  0.0185782 -0.0507611 0.00306273  0.0248474 -0.053114 0.00626075  0.0194156 -0.0420508 0.00386095  0.018828 -0.0498488 0.00467861  0.0146568 -0.0389072 0.00287616  0.0196009 -0.0412703 0.00590014  0.0148928 -0.0381331 0.00440872  0.025658 -0.0777724 0.00317228  0.0344489 -0.0801148 0.00644958  0.0295787 -0.0671012 0.00423086  0.0259507 -0.076713 0.00483096  0.0222693 -0.0637433 0.00315249  0.0298236 -0.0660821 0.00642979  0.0225419 -0.0627391 0.00480306  0.0312569 -0.108862 0.00306463  0.0423357 -0.11126 0.00621784  0.0383643 -0.0962755 0.00420558  0.0315278 -0.107761 0.00466597  0.0286748 -0.0928287 0.00313723  0.038644 -0.0951896 0.0063715  0.028955 -0.0917388 0.004776  0.0350182 -0.143637 0.00284958  0.0481548 -0.146167 0.00578344  0.0452493 -0.129363 0.00397098  0.0352787 -0.142541 0.00434625  0.033375 -0.125808 0.00296485  0.0455056 -0.128267 0.00601566  0.0336372 -0.124711 0.00451624  0.0369189 -0.181669 0.00259399  0.0518885 -0.184412 0.00527418  0.0500395 -0.165952 0.00364816  0.0371602 -0.180637 0.00397122  0.0361986 -0.162261 0.00272453  0.0502803 -0.164898 0.00553334  0.0364496 -0.161204 0.00416136  0.0370344 -0.222554 0.00232899  0.0536344 -0.225552 0.00474691  0.0527894 -0.205633 0.00329578  0.0372567 -0.221588 0.00357854  0.0371978 -0.201773 0.00246179  0.0530018 -0.204645 0.00501025  0.0374246 -0.200781 0.00377417  0.0354886 -0.265872 0.00206649  0.0535207 -0.269154 0.00422823  0.0536059 -0.247975 0.00294185  0.0356929 -0.265002 0.00319386  0.0364598 -0.243923 0.00219691  0.0538002 -0.247069 0.00448525  0.0366734 -0.243015 0.00338304  0.0324416 -0.311251 0.00181353  0.0517277 -0.314815 0.00372863  0.0526541 -0.292568 0.00259829  0.0326247 -0.310462 0.00281787  0.0341495 -0.288319 0.00193882  0.0528244 -0.291749 0.00397503  0.0343376 -0.287499 0.00300288  0.0280424 -0.358318 0.00157106  0.0484076 -0.362161 0.00325334  0.0500954 -0.339026 0.0022701  0.0282049 -0.357629 0.00246167  0.030401 -0.334583 0.00169075  0.0502474 -0.338297 0.00348723  0.030574 -0.333856 0.00263548  0.0224595 -0.406767 0.00134146  0.0437523 -0.410861 0.00280404  0.046109 -0.387003 0.00195932  0.0225985 -0.406152 0.00211883  0.0253959 -0.382382 0.00145471  0.0462376 -0.38636 0.00302458  0.0255408 -0.381739 0.00228679  0.0158383 -0.456286 0.00112462  0.0379107 -0.460611 0.00238276  0.0408593 -0.436181 0.00166678  0.0159558 -0.455761 0.00179982  0.0192692 -0.431399 0.00123119  0.0409691 -0.435619 0.00258923  0.0193973 -0.43084 0.00195467  0.00833786 -0.506632 0.000922084  0.0310658 -0.511152 0.00199044  0.0345178 -0.486283 0.00139403  0.00843263 -0.506171 0.00149643  0.0121959 -0.481365 0.0010215  0.0346053 -0.485796 0.00218236  0.0122957 -0.48088 0.00164425  8.96454e-05 -0.557557 0.000733852  0.0233513 -0.562245 0.00162888  0.0272373 -0.537057 0.00114095  0.000165343 -0.557171 0.00121939  0.00429881 -0.532025 0.000826001  0.0273074 -0.53664 0.00180519  0.00438368 -0.531613 0.00135314  -0.00876403 -0.608874 0.000561476  0.0149336 -0.613694 0.00129843  0.0191722 -0.588289 0.000909328  -0.00870752 -0.608538 0.000960469  -0.00426245 -0.583172 0.000645757  0.0192231 -0.587935 0.00145936  -0.0042026 -0.58282 0.001086  -0.0181112 -0.660388 0.000404358  0.00592566 -0.665317 0.00100076  0.0104578 -0.639788 0.000698566  -0.01807 -0.660115 0.00072968  -0.0133829 -0.634605 0.00048089  0.0104947 -0.639491 0.00114489  -0.0133348 -0.634313 0.000839949  -0.0278304 -0.711965 0.00026381  -0.0035274 -0.716969 0.000735521  0.0012269 -0.691393 0.000509977  -0.0278037 -0.711729 0.000518203  -0.0229237 -0.686171 0.000332117  0.00124907 -0.691146 0.000863433  -0.0228963 -0.685926 0.00061965  -0.037833 -0.763459 0.000139832  -0.0133367 -0.768519 0.000504732  -0.00840735 -0.742965 0.00034368  -0.0378163 -0.763272 0.00033617  -0.0328016 -0.737719 0.000199914  -0.00839472 -0.742761 0.000615239  -0.0327806 -0.737519 0.000422239  -0.0480208 -0.814782 3.19481e-05  -0.0233815 -0.819871 0.00030601  -0.0183358 -0.794392 0.000199914  -0.0480146 -0.814618 0.00017333  -0.0429015 -0.789141 8.41618e-05  -0.0183334 -0.794224 0.000400543  -0.0428965 -0.788975 0.000250936  -0.0583301 -0.865833 -6.13928e-05  -0.033597 -0.870939 0.00013864  -0.0284696 -0.845581 7.72476e-05  -0.0583296 -0.865704 3.79086e-05  -0.053164 -0.840335 -1.64509e-05  -0.0284734 -0.845442 0.000218272  -0.0531614 -0.8402 0.000101089  -0.0686879 -0.916571 -0.000141859  -0.043891 -0.921676 -3.69549e-06  -0.0387263 -0.896468 -2.63453e-05  -0.0686941 -0.91645 -8.38041e-05  -0.0634997 -0.891238 -0.000102997  -0.0387368 -0.89635 6.42538e-05  -0.0635083 -0.891122 -2.59876e-05  -0.0790532 -0.966945 -0.000215054  -0.0542252 -0.97205 -0.00012958  -0.0490463 -0.947011 -0.000115871  -0.0790584 -0.96684 -0.000189066  -0.0738719 -0.941794 -0.000179172  -0.049057 -0.946906 -6.78301e-05  -0.0738792 -0.941692 -0.000139594  -0.0893366 -1.01694 -0.000284672  -0.0644956 -1.02207 -0.000245214  -0.0593669 -0.997206 -0.000198007  -0.0893388 -1.01682 -0.000294089  -0.0842056 -0.991989 -0.00025022  -0.0593767 -0.997101 -0.000190616  -0.0842168 -0.991883 -0.000242591  0.00622699 -0.0158252 0.00260079  0 0 0  0.00774938 -0.0188277 0.00494707  0.00255861 -0.0096032 0.00173187  0 0 0  0.00627756 -0.0154699 0.00402296  0.00202312 -0.00760192 0.00141144  0 0 0  0.00251216 -0.00939202 0.0027734  0.00203992 -0.0074507 0.00221622  0.0180458 -0.0348961 0.00434005  0.0227292 -0.0387017 0.00803435  0.014762 -0.029171 0.00437021  0.0183029 -0.0342343 0.00666988  0.0117257 -0.0249615 0.00359654  0.0147441 -0.0284629 0.00677037  0.0118975 -0.0244024 0.00552416  0.0311616 -0.0579712 0.00516152  0.0386805 -0.0615405 0.00944757  0.0306058 -0.0504296 0.00585818  0.0314376 -0.0570251 0.00784957  0.0246451 -0.045867 0.00485146  0.0308004 -0.0495564 0.00892973  0.0249036 -0.0450739 0.00741243  0.0431606 -0.0851429 0.0053345  0.0531394 -0.0885646 0.00968778  0.0458561 -0.0755402 0.00638962  0.0434954 -0.0840786 0.00807834  0.0373451 -0.0710329 0.00530863  0.0461327 -0.074515 0.00967515  0.0376698 -0.0700244 0.00804567  0.0532982 -0.116367 0.00514162  0.0653976 -0.119748 0.00931668  0.0592673 -0.104731 0.00633192  0.0535859 -0.115264 0.00776529  0.0485123 -0.10025 0.00526977  0.0595669 -0.103647 0.00955415  0.0488092 -0.0991713 0.00796652  0.0611587 -0.15133 0.00477958  0.0751816 -0.154791 0.00865531  0.0703266 -0.137891 0.00597525  0.0614153 -0.150251 0.00722122  0.0575138 -0.133395 0.00497389  0.0706006 -0.136813 0.00900745  0.0577871 -0.132309 0.00751054  0.066734 -0.189641 0.00435042  0.0824835 -0.193256 0.00789022  0.0788984 -0.174657 0.0054934  0.0669569 -0.18862 0.00657749  0.0642341 -0.170087 0.00457025  0.0791386 -0.173624 0.00828123  0.0644681 -0.169042 0.00690532  0.0701189 -0.230857 0.0039084  0.0874115 -0.234676 0.00709713  0.0850288 -0.214591 0.00496829  0.0703111 -0.229908 0.00591981  0.0686913 -0.209906 0.00413024  0.0852354 -0.213626 0.00749481  0.0688982 -0.208928 0.00624895  0.0714546 -0.274537 0.00347126  0.0901195 -0.27858 0.00631821  0.0888547 -0.257227 0.00444055  0.0716267 -0.273678 0.00526679  0.0710367 -0.252409 0.00368869  0.0890341 -0.256343 0.00670612  0.0712144 -0.251511 0.00559044  0.0709311 -0.320277 0.0030539  0.0907902 -0.324542 0.0055685  0.0905429 -0.302127 0.00392854  0.0710776 -0.319499 0.00464559  0.0714149 -0.297167 0.00326061  0.0906987 -0.301327 0.00594008  0.0715737 -0.296357 0.00495327  0.0687153 -0.367689 0.00265539  0.0896137 -0.372167 0.00485778  0.0902892 -0.34888 0.00343978  0.0688448 -0.367003 0.00404966  0.0700274 -0.343789 0.00285208  0.0904229 -0.348167 0.00520921  0.0701613 -0.343064 0.00434315  0.0650084 -0.416445 0.00228262  0.0867867 -0.42111 0.0041883  0.0882829 -0.397122 0.00297844  0.0651139 -0.415835 0.00349402  0.0670382 -0.391911 0.00246656  0.0883958 -0.396491 0.00451827  0.0671552 -0.391273 0.00376844  0.0599742 -0.466232 0.00193262  0.0824994 -0.471063 0.00356388  0.0847236 -0.446526 0.00254619  0.0600636 -0.465707 0.00296879  0.0626506 -0.44122 0.00210464  0.0848163 -0.445975 0.0038712  0.0627435 -0.44066 0.00322688  0.0538045 -0.516796 0.00160933  0.0769418 -0.521757 0.00298488  0.0797963 -0.496808 0.00214469  0.0538715 -0.516335 0.0024873  0.0570222 -0.491425 0.00176799  0.0798701 -0.496329 0.00326908  0.0570998 -0.490942 0.00272477  0.046648 -0.567891 0.00131106  0.0702881 -0.57296 0.00245452  0.0736884 -0.547714 0.00177431  0.0467013 -0.567503 0.00203931  0.0503441 -0.542283 0.0014571  0.0737441 -0.547305 0.0027144  0.0503995 -0.541867 0.00225866  0.0386791 -0.619328 0.00104094  0.0627117 -0.624469 0.00197172  0.0665684 -0.599032 0.00143623  0.0387132 -0.618993 0.00163686  0.0427574 -0.593571 0.00117302  0.0666075 -0.598683 0.00220716  0.0428004 -0.59322 0.00183463  0.0300264 -0.670921 0.000797391  0.0543659 -0.676115 0.00154078  0.058604 -0.650572 0.00113142  0.0300505 -0.670646 0.00127029  0.0344341 -0.645108 0.000915527  0.0586286 -0.650281 0.00175071  0.0344584 -0.64481 0.00144875  0.0208423 -0.722535 0.000582576  0.0454028 -0.727749 0.00115991  0.0499437 -0.702181 0.000860453  0.0208516 -0.722298 0.000951052  0.0254948 -0.696726 0.000686646  0.0499551 -0.701937 0.00134385  0.0255101 -0.69648 0.0011071  0.0112338 -0.774034 0.000396013  0.0359523 -0.779259 0.000833511  0.0407324 -0.753723 0.000624537  0.0112367 -0.773844 0.000669837  0.0160887 -0.748298 0.000485659  0.0407338 -0.753522 0.00099051  0.0160899 -0.748093 0.000805736  0.00132751 -0.825335 0.000238299  0.0261452 -0.830544 0.000558019  0.0310979 -0.805097 0.000424027  0.00131965 -0.82517 0.000435948  0.00631332 -0.799707 0.000313878  0.0310888 -0.80493 0.000689387  0.00630999 -0.79954 0.000549436  -0.00879335 -0.876349 0.000106215  0.0160854 -0.881544 0.00033474  0.0211592 -0.856217 0.000257492  -0.00880504 -0.876216 0.000237226  -0.00370669 -0.850874 0.000169039  0.0211439 -0.856079 0.000441074  -0.00372171 -0.850733 0.000332594  -0.0190322 -0.927043 -2.86102e-06  0.00587797 -0.93221 0.000152469  0.0110204 -0.907034 0.000122666  -0.0190501 -0.926919 7.689e-05  -0.013901 -0.90173 4.94719e-05  0.0109973 -0.906915 0.000239015  -0.0139163 -0.901613 0.000155091  -0.0293367 -0.97739 -9.87053e-05  -0.0044117 -0.982542 -1.19209e-07  0.000767469 -0.957519 1.14441e-05  -0.0293534 -0.97728 -6.73532e-05  -0.0241742 -0.952252 -5.1856e-05  0.000743151 -0.957412 7.41482e-05  -0.0241978 -0.952144 3.8147e-06  -0.0396304 -1.02744 -0.000188351  -0.0147147 -1.0326 -0.000146151  -0.00954151 -1.0077 -8.74996e-05  -0.0396452 -1.02732 -0.000200868  -0.0344906 -1.00244 -0.000143766  -0.00956154 -1.0076 -7.42674e-05  -0.0345075 -1.00234 -0.000133634  0.0106887 -0.0239999 0.0038259  0 0 0  0.0162114 -0.0291051 0.00685275  0.00689374 -0.0176113 0.00246513  0 0 0  0.0106941 -0.0233884 0.00582087  0.00340522 -0.012229 0.00206411  0 0 0  0.00656875 -0.0171041 0.00370121  0.00346607 -0.0120834 0.00331235  0.027773 -0.0446215 0.00615752  0.0351731 -0.0498585 0.0106677  0.0260504 -0.039558 0.00593519  0.0283544 -0.0440135 0.00948358  0.0188009 -0.0340441 0.00518656  0.0253766 -0.0391615 0.00922096  0.019127 -0.0335051 0.00807095  0.0464923 -0.0675776 0.00724936  0.0558279 -0.0721567 0.012431  0.0455 -0.0615354 0.00773704  0.0467465 -0.0666105 0.0110114  0.0373301 -0.0557137 0.00684059  0.0456968 -0.060343 0.0118136  0.0376652 -0.054704 0.0104635  0.063153 -0.0946222 0.00745463  0.0746622 -0.0989479 0.0127412  0.0652853 -0.0860327 0.00839746  0.0635068 -0.0935344 0.0112668  0.055076 -0.0805522 0.0074333  0.0655032 -0.0849723 0.0127331  0.0553872 -0.0795314 0.0112557  0.0775387 -0.125771 0.00719428  0.0910169 -0.13001 0.0122875  0.082836 -0.115044 0.00834298  0.0778543 -0.124671 0.0108397  0.0706792 -0.109668 0.00736773  0.0831995 -0.11393 0.0125935  0.0710085 -0.108584 0.0111171  0.0892532 -0.160817 0.00669491  0.104555 -0.165131 0.0114516  0.0978269 -0.148177 0.00790775  0.0895359 -0.159751 0.0100796  0.0837348 -0.14282 0.00696421  0.0981368 -0.147098 0.0119054  0.0840296 -0.141752 0.0104872  0.0983109 -0.199299 0.00610924  0.115259 -0.203758 0.0104597  0.109954 -0.185051 0.00729394  0.0985582 -0.198301 0.00919735  0.0941136 -0.179643 0.00641  0.110259 -0.184038 0.0109694  0.0943745 -0.178626 0.0096488  0.104806 -0.240756 0.00549614  0.123229 -0.245393 0.00942183  0.119322 -0.22518 0.00661516  0.105022 -0.239833 0.0082761  0.101874 -0.219678 0.00580454  0.119574 -0.224236 0.00994444  0.1021 -0.218731 0.00873828  0.108901 -0.284687 0.00489223  0.128625 -0.289514 0.00839698  0.125997 -0.268027 0.00592637  0.109091 -0.283855 0.00737166  0.107145 -0.262428 0.00519311  0.126237 -0.267176 0.00890648  0.107344 -0.261565 0.00782096  0.110781 -0.330681 0.00430965  0.131638 -0.335682 0.00740361  0.130216 -0.313145 0.00525391  0.110949 -0.32993 0.00649607  0.110111 -0.307445 0.00459862  0.130413 -0.312374 0.00789559  0.110283 -0.306667 0.00692916  0.110655 -0.378312 0.00375712  0.132483 -0.383474 0.00646472  0.132128 -0.360081 0.00461006  0.110799 -0.377653 0.00566912  0.110958 -0.354304 0.00402999  0.132317 -0.359403 0.00692618  0.111111 -0.353612 0.0060761  0.108721 -0.427259 0.00323737  0.13137 -0.432547 0.00557387  0.132006 -0.408479 0.00400174  0.108846 -0.426673 0.00488663  0.109906 -0.402635 0.00349355  0.132154 -0.407876 0.00601196  0.110034 -0.402025 0.00527108  0.105192 -0.477184 0.0027523  0.128522 -0.482576 0.00475037  0.130006 -0.457984 0.00343156  0.105295 -0.476681 0.00416076  0.107146 -0.452107 0.0029906  0.130149 -0.457465 0.00515258  0.107256 -0.451575 0.00451577  0.100256 -0.527846 0.00230455  0.124139 -0.533304 0.00398004  0.126402 -0.508326 0.00290191  0.100341 -0.527406 0.00348508  0.102893 -0.502432 0.00252414  0.126506 -0.507872 0.00435686  0.10298 -0.501973 0.00381505  0.0941132 -0.578984 0.00189281  0.118431 -0.584484 0.00328362  0.12134 -0.559234 0.00241435  0.0941774 -0.578616 0.00286901  0.0973262 -0.553358 0.00209391  0.121438 -0.558855 0.00362098  0.0973979 -0.552967 0.00316823  0.0869327 -0.630428 0.00152075  0.111583 -0.635935 0.0026418  0.115071 -0.610518 0.00197005  0.0869818 -0.630111 0.00230718  0.0906465 -0.604673 0.00170207  0.115135 -0.610191 0.00295317  0.0906963 -0.604342 0.00257945  0.0788937 -0.68198 0.00118673  0.103781 -0.687475 0.00208032  0.107729 -0.661972 0.00157034  0.0789256 -0.681722 0.00180805  0.0830126 -0.656189 0.00134873  0.107789 -0.661708 0.00234985  0.08305 -0.655914 0.00204825  0.0701461 -0.733529 0.0008955  0.0951889 -0.738985 0.0015763  0.0995405 -0.713472 0.00121665  0.0701659 -0.733308 0.00136745  0.0746036 -0.707757 0.00103581  0.0995703 -0.713246 0.00181818  0.0746229 -0.707528 0.00157821  0.0608451 -0.784931 0.00064373  0.0859706 -0.790335 0.00115883  0.0906196 -0.764866 0.000910282  0.0608513 -0.784756 0.000992179  0.0655587 -0.759244 0.000764132  0.0906477 -0.76469 0.00135601  0.0655687 -0.759058 0.00116956  0.0511243 -0.836131 0.000436306  0.0762734 -0.841468 0.000799656  0.0811684 -0.816093 0.000652194  0.0511184 -0.835976 0.000677705  0.0560341 -0.810556 0.000534654  0.0811698 -0.815938 0.000968456  0.0560281 -0.810401 0.000825167  0.0411091 -0.887032 0.000267029  0.066236 -0.892302 0.000527859  0.0712869 -0.867044 0.000442743  0.0410941 -0.886909 0.000427246  0.0461483 -0.861609 0.000346661  0.0712879 -0.866927 0.000653744  0.0461357 -0.861483 0.000542879  0.030916 -0.937642 0.000134945  0.0559936 -0.942847 0.000305533  0.0611508 -0.917732 0.000278234  0.0308888 -0.937521 0.000227332  0.0360327 -0.912371 0.000197053  0.0611296 -0.917616 0.000407338  0.0360072 -0.912258 0.000319481  0.0206237 -0.98792 2.5034e-05  0.0456455 -0.993085 0.000147343  0.0508437 -0.968093 0.000151396  0.0205963 -0.987817 6.83069e-05  0.0257795 -0.962806 7.77245e-05  0.0508258 -0.968002 0.000221252  0.0257497 -0.962708 0.000142455  0.0102916 -1.03803 -7.7486e-05  0.0352702 -1.04311 -1.21593e-05  0.0404956 -1.01825 4.58956e-05  0.010258 -1.03787 -8.46386e-05  0.0154679 -1.01298 -2.58684e-05  0.0404587 -1.01813 6.07967e-05  0.0154314 -1.01287 -8.34465e-06  -0.0177327 -0.0239128 -0.00243008  -0.00815481 -0.0143683 -1.75238e-05  0 0 0  -0.010609 -0.0182221 -3.51667e-05  0 0 0  -0.0073587 -0.0137149 -0.00181735  -0.00248438 -0.00666761 -1.65701e-05  0 0 0  -0.00791062 -0.014447 -0.00142276  -0.0108027 -0.0181884 -0.00223982  -0.00344177 -0.00918668 -1.68085e-05  0 0 0  -0.002593 -0.0065249 -0.000972748  -0.00358405 -0.00923881 -0.00122738  -0.0372504 -0.0398994 -0.00419569  -0.0275922 -0.0317639 -6.1512e-05  -0.027518 -0.0354207 -9.04799e-05  -0.0212269 -0.0307527 -0.00306046  -0.0134171 -0.0221452 -5.6982e-05  -0.0273878 -0.0314941 -0.00363624  -0.0278954 -0.035022 -0.00367725  -0.0187836 -0.0267039 -5.90086e-05  -0.0138585 -0.0219432 -0.00250876  -0.019013 -0.0263728 -0.00298631  -0.0580477 -0.058344 -0.00501096  -0.0477546 -0.0489415 -0.000137687  -0.0464116 -0.0547331 -0.000169277  -0.0369079 -0.0508973 -0.00367606  -0.0286827 -0.0405869 -0.000119805  -0.0476061 -0.0486188 -0.00460362  -0.0464504 -0.0543784 -0.00433397  -0.0369194 -0.0445597 -0.000128269  -0.0289084 -0.0403456 -0.00344861  -0.0370574 -0.0442408 -0.0041343  -0.0789191 -0.0799614 -0.00514936  -0.0686094 -0.0690336 -0.000228405  -0.0651146 -0.0774308 -0.000253081  -0.0530698 -0.0745973 -0.00382948  -0.0448941 -0.0625797 -0.000194669  -0.0685328 -0.0686921 -0.00515711  -0.0651624 -0.0770756 -0.00451326  -0.0557933 -0.0656234 -0.000211  -0.0449656 -0.0622883 -0.00381005  -0.0558275 -0.0652712 -0.00447786  -0.0991758 -0.105243 -0.00498807  -0.0892165 -0.0924329 -0.000317216  -0.0834443 -0.103791 -0.000331163  -0.0691059 -0.101936 -0.00370467  -0.0610771 -0.0881188 -0.000269651  -0.0891643 -0.0921169 -0.00508583  -0.0834207 -0.10346 -0.00435436  -0.0743523 -0.0901262 -0.000293016  -0.0611126 -0.0878177 -0.00379765  -0.0743564 -0.0898161 -0.00447536  -0.118559 -0.134107 -0.00461435  -0.10905 -0.119567 -0.000396967  -0.101067 -0.133636 -0.000400543  -0.0847905 -0.132692 -0.00343966  -0.077007 -0.1172 -0.000337601  -0.108988 -0.119255 -0.00483501  -0.101043 -0.133315 -0.00403714  -0.0923429 -0.118294 -0.000366926  -0.0769947 -0.1169 -0.00358546  -0.0923132 -0.117977 -0.00420785  -0.13705 -0.166316 -0.00419211  -0.127987 -0.150083 -0.00046587  -0.118056 -0.166732 -0.000459433  -0.100058 -0.166656 -0.00311172  -0.0925002 -0.149566 -0.000397325  -0.127927 -0.149806 -0.00440013  -0.117994 -0.166444 -0.00365472  -0.109641 -0.149769 -0.00043118  -0.0924711 -0.149286 -0.00327981  -0.109596 -0.149491 -0.00385678  -0.154695 -0.201587 -0.00374174  -0.146052 -0.18387 -0.000523448  -0.134379 -0.202798 -0.000509501  -0.114942 -0.203505 -0.00279558  -0.107597 -0.185 -0.000447869  -0.145983 -0.183608 -0.0039798  -0.134322 -0.202532 -0.00327182  -0.126294 -0.18442 -0.000485539  -0.107543 -0.184738 -0.00295353  -0.126232 -0.18415 -0.00346041  -0.171575 -0.239588 -0.00333261  -0.163306 -0.22049 -0.000571847  -0.150161 -0.241512 -0.000551343  -0.129475 -0.242945 -0.00248468  -0.122304 -0.223147 -0.000491142  -0.163236 -0.220265 -0.00352859  -0.150083 -0.241277 -0.00290895  -0.142333 -0.221823 -0.000531435  -0.122246 -0.222915 -0.00263751  -0.142267 -0.221594 -0.00309181  -0.187768 -0.280018 -0.00294614  -0.179832 -0.259744 -0.000612617  -0.165409 -0.282574 -0.00058651  -0.143702 -0.284647 -0.00221753  -0.13669 -0.263742 -0.000527501  -0.179761 -0.259535 -0.00314569  -0.165344 -0.282359 -0.00258219  -0.157846 -0.261772 -0.000569701  -0.136623 -0.26353 -0.0023483  -0.157773 -0.261555 -0.00274026  -0.20334 -0.322558 -0.00261235  -0.195705 -0.30122 -0.000646353  -0.180217 -0.325672 -0.000616312  -0.157642 -0.328329 -0.00196624  -0.150766 -0.30644 -0.000558257  -0.195637 -0.301042 -0.00277126  -0.180142 -0.325484 -0.00228834  -0.172864 -0.303868 -0.000602245  -0.150704 -0.306253 -0.00208867  -0.172796 -0.303686 -0.00243497  -0.218341 -0.366931 -0.00230467  -0.21098 -0.344712 -0.000674963  -0.194578 -0.370533 -0.000641227  -0.171311 -0.37369 -0.00175643  -0.164571 -0.350983 -0.000584245  -0.210916 -0.344547 -0.00246263  -0.194517 -0.37036 -0.00202966  -0.18745 -0.3479 -0.000629306  -0.164507 -0.350814 -0.00185835  -0.187382 -0.347728 -0.00215435  -0.232803 -0.412854 -0.00204265  -0.225704 -0.389855 -0.000698686  -0.208546 -0.416874 -0.000662208  -0.184705 -0.420478 -0.00155926  -0.178095 -0.397066 -0.000605941  -0.225644 -0.389713 -0.00216687  -0.20848 -0.416722 -0.00179911  -0.201608 -0.393517 -0.000652075  -0.178039 -0.396916 -0.00165486  -0.201547 -0.393372 -0.00191391  -0.246754 -0.460079 -0.00180137  -0.2399 -0.436461 -0.000718832  -0.2221 -0.464456 -0.000679851  -0.197822 -0.468431 -0.00139713  -0.19135 -0.444457 -0.000624537  -0.239847 -0.43633 -0.00192535  -0.222048 -0.464315 -0.00159764  -0.215371 -0.440524 -0.000671387  -0.191296 -0.444321 -0.00147533  -0.215314 -0.440386 -0.00169432  -0.260208 -0.50836 -0.00159895  -0.253596 -0.484212 -0.000735998  -0.235272 -0.513031 -0.000694871  -0.210648 -0.517329 -0.00124347  -0.204315 -0.492891 -0.000640154  -0.253548 -0.4841 -0.00169456  -0.235217 -0.512907 -0.00141895  -0.228731 -0.488617 -0.000687599  -0.204269 -0.49277 -0.00131786  -0.22868 -0.4885 -0.001508  -0.273187 -0.557484 -0.00141382  -0.266803 -0.532945 -0.000749946  -0.248043 -0.562395 -0.000707507  -0.223177 -0.566947 -0.00112212  -0.21699 -0.542168 -0.000653386  -0.266761 -0.532841 -0.00150907  -0.248 -0.562279 -0.00126588  -0.241704 -0.537626 -0.000701427  -0.216947 -0.542058 -0.00117993  -0.241658 -0.537515 -0.00133896  -0.285702 -0.607241 -0.00126433  -0.279544 -0.582384 -0.000762343  -0.260441 -0.612336 -0.000718474  -0.2354 -0.617101 -0.00100744  -0.22936 -0.592063 -0.000664711  -0.279506 -0.582295 -0.00133443  -0.260396 -0.612233 -0.00113308  -0.254286 -0.58729 -0.00071311  -0.229324 -0.591964 -0.00106239  -0.254245 -0.587196 -0.00119913  -0.297783 -0.65745 -0.00113058  -0.291832 -0.632394 -0.000772834  -0.272459 -0.662683 -0.000728011  -0.247319 -0.667603 -0.000923634  -0.241428 -0.642407 -0.000674605  -0.2918 -0.63231 -0.00119948  -0.272423 -0.662585 -0.00102472  -0.266493 -0.637467 -0.000723362  -0.241395 -0.642316 -0.000962734  -0.266456 -0.637376 -0.00107574  -0.309456 -0.707936 -0.00103164  -0.303704 -0.682741 -0.000781655  -0.284132 -0.713262 -0.00073576  -0.258939 -0.718302 -0.000845075  -0.253191 -0.693015 -0.00068295  -0.303674 -0.682668 -0.00107718  -0.284094 -0.713174 -0.000935197  -0.278334 -0.68794 -0.000731945  -0.253163 -0.692932 -0.00088191  -0.2783 -0.687861 -0.000979543  -0.320768 -0.758558 -0.000947595  -0.315183 -0.733318 -0.000789404  -0.295474 -0.763937 -0.000743508  -0.270274 -0.769051 -0.000797391  -0.264666 -0.743752 -0.00069046  -0.315158 -0.733249 -0.000990987  -0.295443 -0.763852 -0.000870109  -0.289838 -0.738593 -0.000739336  -0.264637 -0.743675 -0.000818133  -0.289808 -0.738516 -0.000899553  -0.331763 -0.809179 -0.000896573  -0.326331 -0.783938 -0.000796437  -0.306537 -0.814579 -0.000749826  -0.28135 -0.819741 -0.000752091  -0.275866 -0.794477 -0.000697136  -0.326306 -0.783876 -0.00091958  -0.306503 -0.8145 -0.000820875  -0.301036 -0.789257 -0.000746489  -0.27584 -0.794405 -0.000772595  -0.301006 -0.789188 -0.000845194  -0.342517 -0.859704 -0.00085485  -0.337189 -0.834529 -0.000802875  -0.31736 -0.865092 -0.000755668  -0.292197 -0.870269 -0.000733972  -0.286822 -0.845092 -0.000703216  -0.337168 -0.834468 -0.000876904  -0.317328 -0.865016 -0.000792265  -0.31197 -0.83985 -0.000752687  -0.286796 -0.845026 -0.000740528  -0.311942 -0.839783 -0.000805259  -0.353108 -0.910059 -0.000839233  -0.347855 -0.884966 -0.000809073  -0.328007 -0.915418 -0.000761747  -0.302859 -0.920592 -0.000709295  -0.297572 -0.89552 -0.000709295  -0.347832 -0.884909 -0.000848174  -0.327973 -0.915341 -0.000768781  -0.322701 -0.890271 -0.000758767  -0.297546 -0.895454 -0.000720978  -0.32267 -0.890207 -0.000781894  -0.363642 -0.960278 -0.000808835  -0.358382 -0.935239 -0.000815153  -0.338556 -0.965582 -0.000767946  -0.31342 -0.970718 -0.000702262  -0.308173 -0.945731 -0.000715256  -0.358374 -0.935182 -0.000825286  -0.338533 -0.965515 -0.000754476  -0.333282 -0.940505 -0.000764847  -0.308138 -0.945671 -0.000705719  -0.333256 -0.940441 -0.000764728  -0.0054637 -0.0111072 -3.25441e-05  0 0 0  -0.00384906 -0.00914077 -0.00114906  -0.00132476 -0.00369494 -1.51396e-05  0 0 0  -0.00540121 -0.0109485 -0.00146794  -0.00182195 -0.00487627 -1.56164e-05  0 0 0  -0.00132879 -0.00365496 -0.000620008  -0.00181894 -0.00479156 -0.000778317  -0.0159013 -0.0276036 -8.13007e-05  -0.0114686 -0.0251375 -0.00196719  -0.00732143 -0.0166266 -5.1856e-05  -0.01592 -0.0274644 -0.00249434  -0.0102456 -0.0187856 -5.40018e-05  -0.00729807 -0.0164637 -0.00161958  -0.0102152 -0.0186308 -0.0020349  -0.0286407 -0.0483679 -0.000144362  -0.0213585 -0.0461413 -0.00239623  -0.0162449 -0.0352933 -0.000104189  -0.0286473 -0.0481403 -0.00302041  -0.0221056 -0.0374802 -0.000111341  -0.0162324 -0.0351093 -0.00222504  -0.0221176 -0.0373044 -0.00280857  -0.0421802 -0.0729141 -0.000213027  -0.0322014 -0.071245 -0.00251865  -0.0267169 -0.0584577 -0.000163794  -0.0421706 -0.0726337 -0.00315726  -0.0353615 -0.0601748 -0.000178456  -0.0266969 -0.0582169 -0.00248265  -0.0353608 -0.0599259 -0.0031265  -0.0559048 -0.10106 -0.000278354  -0.0435145 -0.100061 -0.00244796  -0.037861 -0.0854673 -0.000224352  -0.0558653 -0.100776 -0.0030688  -0.0490391 -0.0865292 -0.000246286  -0.0378246 -0.0852045 -0.00249898  -0.0490132 -0.0862656 -0.00313437  -0.0695582 -0.132615 -0.000337005  -0.0550154 -0.132317 -0.00228393  -0.0492982 -0.116046 -0.000280261  -0.069497 -0.132334 -0.00284946  -0.062745 -0.116418 -0.000308394  -0.0492439 -0.11578 -0.00237215  -0.0626976 -0.116148 -0.00296593  -0.0830622 -0.167305 -0.000388145  -0.0666592 -0.167694 -0.0020808  -0.0608922 -0.149887 -0.000330567  -0.0829849 -0.167048 -0.00259221  -0.0763261 -0.14957 -0.000363469  -0.0608235 -0.149631 -0.00218379  -0.0762592 -0.149317 -0.00272286  -0.0964216 -0.204837 -0.000431776  -0.0784051 -0.205876 -0.00187671  -0.072596 -0.18669 -0.00037396  -0.0963358 -0.204596 -0.00232768  -0.0897546 -0.185726 -0.000410438  -0.0725164 -0.186454 -0.00197768  -0.0896767 -0.185489 -0.00245607  -0.109653 -0.244889 -0.00046885  -0.0902711 -0.246537 -0.00168455  -0.0844081 -0.226129 -0.000411749  -0.109564 -0.244676 -0.00208306  -0.103047 -0.224551 -0.00045085  -0.0843251 -0.225913 -0.00177884  -0.102964 -0.22434 -0.00220203  -0.122774 -0.287156 -0.00050056  -0.102225 -0.289363 -0.00151229  -0.0963191 -0.267891 -0.000443697  -0.122687 -0.286961 -0.00185919  -0.116222 -0.265754 -0.000485063  -0.0962353 -0.267697 -0.00159609  -0.116138 -0.265562 -0.001966  -0.135786 -0.331335 -0.000527382  -0.114268 -0.334048 -0.00135899  -0.108318 -0.311662 -0.000471115  -0.135703 -0.331164 -0.00166321  -0.129289 -0.309009 -0.000514388  -0.108239 -0.311488 -0.00143361  -0.129208 -0.308841 -0.00175726  -0.148684 -0.377146 -0.000550032  -0.126347 -0.380311 -0.00122511  -0.120378 -0.357153 -0.000494719  -0.148606 -0.376988 -0.00148678  -0.142245 -0.354043 -0.000539064  -0.120303 -0.356998 -0.00129008  -0.142169 -0.35389 -0.0015707  -0.161447 -0.424318 -0.000569344  -0.138448 -0.427883 -0.00110662  -0.132468 -0.404085 -0.000514507  -0.161375 -0.424181 -0.00133455  -0.155078 -0.400563 -0.000559926  -0.132399 -0.403946 -0.0011642  -0.155009 -0.40043 -0.00140738  -0.174054 -0.47261 -0.000585794  -0.150507 -0.47652 -0.0010041  -0.144545 -0.452205 -0.000531316  -0.173989 -0.472482 -0.00119805  -0.167766 -0.448329 -0.000577688  -0.144482 -0.452082 -0.00105381  -0.167703 -0.448208 -0.0012629  -0.18648 -0.521786 -0.000599384  -0.162507 -0.52599 -0.000914216  -0.156574 -0.501272 -0.000545621  -0.186422 -0.521675 -0.00108171  -0.180286 -0.497086 -0.000592589  -0.156518 -0.501162 -0.000957847  -0.180229 -0.496982 -0.00113678  -0.198702 -0.571642 -0.000611186  -0.174389 -0.576092 -0.000838161  -0.168512 -0.551072 -0.000557661  -0.19865 -0.571536 -0.000978351  -0.192612 -0.546631 -0.000605345  -0.168462 -0.550973 -0.000874758  -0.192562 -0.546535 -0.00102699  -0.210702 -0.621978 -0.0006212  -0.186142 -0.626627 -0.000773311  -0.180329 -0.601402 -0.000568032  -0.210655 -0.621887 -0.000894189  -0.204726 -0.596746 -0.000616193  -0.180285 -0.601313 -0.000804663  -0.204681 -0.596663 -0.00093329  -0.222466 -0.672627 -0.00063014  -0.197719 -0.677434 -0.000721455  -0.191991 -0.652085 -0.000577211  -0.222425 -0.672539 -0.000821114  -0.216609 -0.647263 -0.00062573  -0.191952 -0.652005 -0.000746131  -0.21657 -0.647185 -0.00085485  -0.233989 -0.723429 -0.000637412  -0.209125 -0.728355 -0.000679731  -0.20348 -0.702959 -0.00058496  -0.233952 -0.723353 -0.000766635  -0.228253 -0.698003 -0.000633836  -0.203446 -0.702886 -0.000699639  -0.228218 -0.697936 -0.000791073  -0.245273 -0.774256 -0.000644565  -0.220325 -0.779269 -0.000650406  -0.214779 -0.753886 -0.000591874  -0.245238 -0.774179 -0.000722647  -0.239655 -0.748836 -0.000641108  -0.214748 -0.753819 -0.000663877  -0.239624 -0.748771 -0.000741959  -0.256326 -0.824987 -0.000650883  -0.231341 -0.830059 -0.000629783  -0.225885 -0.804745 -0.000598431  -0.256294 -0.82492 -0.000695109  -0.250822 -0.799624 -0.000647664  -0.225857 -0.804682 -0.000639439  -0.250793 -0.799568 -0.000706315  -0.267167 -0.875545 -0.000656843  -0.242154 -0.880651 -0.000617743  -0.236794 -0.855442 -0.000604391  -0.267137 -0.875474 -0.000673771  -0.261765 -0.85028 -0.000653744  -0.236769 -0.855383 -0.000622869  -0.261739 -0.850224 -0.000682712  -0.277827 -0.925865 -0.000662446  -0.252808 -0.930981 -0.000609159  -0.247524 -0.905906 -0.000610232  -0.277798 -0.925803 -0.000663161  -0.272512 -0.900722 -0.000659466  -0.2475 -0.905849 -0.000613093  -0.272487 -0.900671 -0.00066638  -0.28838 -0.975948 -0.000668883  -0.263328 -0.981011 -0.000603914  -0.2581 -0.956094 -0.000616193  -0.288344 -0.975877 -0.00065136  -0.283102 -0.950925 -0.000665545  -0.258076 -0.956037 -0.000606537  -0.283075 -0.950872 -0.000656247  -0.00252566 -0.00814524 -3.12328e-05  0 0 0  -0.00140063 -0.00753248 -0.000588179  -0.000488501 -0.00271583 -1.51396e-05  0 0 0  -0.00252811 -0.00806579 -0.000872612  -0.000857465 -0.00302687 -1.50204e-05  0 0 0  -0.000482671 -0.00269392 -0.000322342  -0.000851415 -0.0029963 -0.000473619  -0.00779994 -0.0238777 -7.34329e-05  -0.00446504 -0.0229806 -0.000990272  -0.00274467 -0.0145834 -4.97103e-05  -0.00780152 -0.0236921 -0.00146735  -0.00487576 -0.0152674 -5.04255e-05  -0.00273576 -0.0144769 -0.000811338  -0.00487924 -0.0151253 -0.00120413  -0.0149047 -0.0450969 -0.000123739  -0.00894573 -0.0443178 -0.00121307  -0.0065656 -0.0332154 -9.23872e-05  -0.0148975 -0.0448729 -0.00179076  -0.0111735 -0.0338939 -9.77516e-05  -0.00654581 -0.033036 -0.00112593  -0.0111709 -0.0336907 -0.00166011  -0.0231019 -0.0706948 -0.000177503  -0.0145015 -0.0702435 -0.00128841  -0.0116334 -0.0570058 -0.000138521  -0.0230794 -0.0704307 -0.00189161  -0.0189012 -0.0573912 -0.000150323  -0.0116041 -0.0567697 -0.00126648  -0.0188842 -0.057161 -0.00186646  -0.0319739 -0.100097 -0.000229239  -0.0209062 -0.100099 -0.00126588  -0.0176466 -0.0849669 -0.00018537  -0.031928 -0.0998236 -0.00184548  -0.0274686 -0.0849336 -0.000203729  -0.0176042 -0.0847048 -0.0012871  -0.0274338 -0.0846738 -0.00188208  -0.0413193 -0.132935 -0.000277162  -0.0280328 -0.13344 -0.00119078  -0.0244402 -0.116618 -0.000229239  -0.0412552 -0.132663 -0.00173056  -0.0365917 -0.116094 -0.000253439  -0.0243812 -0.11635 -0.00123179  -0.0365373 -0.115836 -0.00179541  -0.0510643 -0.168888 -0.0003196  -0.0358286 -0.169915 -0.00109637  -0.0319176 -0.151559 -0.000269651  -0.0509873 -0.168634 -0.00158024  -0.0461416 -0.15053 -0.000298977  -0.0318471 -0.151301 -0.00114489  -0.0460726 -0.15028 -0.00165784  -0.0611691 -0.207608 -0.000356913  -0.0442386 -0.209145 -0.00100088  -0.0400341 -0.18944 -0.000305772  -0.0610858 -0.207369 -0.00143516  -0.0560691 -0.187907 -0.000338793  -0.0399561 -0.189198 -0.00104773  -0.0559914 -0.187677 -0.00150859  -0.0716136 -0.248781 -0.000389099  -0.053226 -0.250814 -0.000910997  -0.0487412 -0.229912 -0.000337362  -0.0715284 -0.248567 -0.00129211  -0.0663471 -0.227895 -0.000373483  -0.0486603 -0.229689 -0.000955105  -0.0662657 -0.227682 -0.00136304  -0.0823584 -0.292073 -0.000416875  -0.0627214 -0.294567 -0.000832558  -0.0579901 -0.272644 -0.000364661  -0.0822752 -0.291875 -0.00117075  -0.0769458 -0.270166 -0.000403285  -0.0579098 -0.27244 -0.000870347  -0.0768653 -0.269976 -0.00123119  -0.0933667 -0.337191 -0.000440359  -0.0726712 -0.340117 -0.000764012  -0.0677177 -0.317314 -0.000388503  -0.0932878 -0.337016 -0.00105762  -0.0878285 -0.31441 -0.000429034  -0.0676407 -0.31713 -0.000797391  -0.087751 -0.314236 -0.0011133  -0.104582 -0.383837 -0.000460982  -0.0829906 -0.38715 -0.000706434  -0.077857 -0.363623 -0.000408888  -0.104508 -0.383676 -0.000965238  -0.0989466 -0.360326 -0.000450969  -0.0777849 -0.363457 -0.000733972  -0.0988746 -0.360173 -0.00101149  -0.115955 -0.431755 -0.000478029  -0.0936186 -0.435418 -0.000656605  -0.0883343 -0.411289 -0.000425935  -0.115887 -0.431613 -0.000878692  -0.110248 -0.407641 -0.000469565  -0.0882674 -0.41114 -0.000680685  -0.110181 -0.407503 -0.000921488  -0.127422 -0.480687 -0.000492454  -0.104468 -0.484651 -0.000615358  -0.0990763 -0.460055 -0.000440717  -0.127361 -0.480555 -0.000809908  -0.121675 -0.456094 -0.00048542  -0.0990152 -0.459921 -0.000634909  -0.121615 -0.455973 -0.000844717  -0.138937 -0.530415 -0.000504851  -0.115481 -0.534644 -0.000580192  -0.11001 -0.509682 -0.000453115  -0.138881 -0.5303 -0.000745177  -0.133173 -0.505453 -0.000498772  -0.109955 -0.50956 -0.000597239  -0.133119 -0.505342 -0.000777364  -0.150439 -0.580724 -0.000515699  -0.12658 -0.58517 -0.000552416  -0.121069 -0.559954 -0.000463605  -0.150389 -0.580616 -0.000696182  -0.144686 -0.555495 -0.000510335  -0.121019 -0.559844 -0.000565171  -0.144639 -0.555398 -0.000721097  -0.161892 -0.631436 -0.000524759  -0.13772 -0.636065 -0.000530005  -0.13219 -0.610676 -0.000472903  -0.161847 -0.631341 -0.000650048  -0.15617 -0.606029 -0.00052011  -0.132145 -0.610577 -0.000540733  -0.156127 -0.60594 -0.000672936  -0.173251 -0.682376 -0.000532389  -0.148836 -0.687146 -0.00051403  -0.143319 -0.661675 -0.000480652  -0.17321 -0.682285 -0.000618696  -0.167579 -0.656873 -0.000528455  -0.143279 -0.661584 -0.000520945  -0.167542 -0.656795 -0.000635028  -0.184491 -0.733404 -0.000539541  -0.159902 -0.738289 -0.000502586  -0.154411 -0.712795 -0.000487685  -0.184455 -0.733324 -0.000589848  -0.178882 -0.707876 -0.000535965  -0.154374 -0.712713 -0.000507951  -0.178849 -0.707803 -0.000604153  -0.195585 -0.78439 -0.00054574  -0.170868 -0.789354 -0.00049746  -0.165427 -0.763907 -0.000493884  -0.195552 -0.784311 -0.000575066  -0.190051 -0.758895 -0.000542641  -0.165394 -0.76383 -0.000499129  -0.190022 -0.758831 -0.000583172  -0.206525 -0.835236 -0.000552058  -0.181726 -0.840261 -0.000496387  -0.176338 -0.814899 -0.000499845  -0.206494 -0.835166 -0.000561357  -0.20107 -0.809824 -0.00054872  -0.176308 -0.814828 -0.000496745  -0.201043 -0.809762 -0.000568271  -0.217299 -0.885855 -0.000557661  -0.192444 -0.890912 -0.000498772  -0.187126 -0.865683 -0.000505686  -0.217271 -0.885783 -0.000558972  -0.211926 -0.860563 -0.000554562  -0.187098 -0.865615 -0.000497103  -0.211902 -0.860508 -0.000561476  -0.227923 -0.936196 -0.000563145  -0.203034 -0.941266 -0.000502706  -0.197778 -0.916189 -0.000510693  -0.227896 -0.936129 -0.00055337  -0.222624 -0.911051 -0.000560284  -0.197752 -0.916123 -0.000501037  -0.2226 -0.910994 -0.000557065  -0.238407 -0.986185 -0.000569224  -0.213486 -0.991221 -0.000507236  -0.208301 -0.966362 -0.000516534  -0.238389 -0.986112 -0.00055325  -0.233174 -0.961229 -0.000566125  -0.208272 -0.966295 -0.000504613  -0.233155 -0.961173 -0.000554562  -0.000378087 -0.00756779 -3.09944e-05  0 0 0  0.000604793 -0.00784734 -3.71933e-05  0.000199549 -0.00287256 -1.5974e-05  0 0 0  -0.000367947 -0.00749263 -0.000309825  -0.0001279 -0.00268173 -1.50204e-05  0 0 0  0.000196584 -0.00285453 -1.62125e-05  -0.000131391 -0.00265366 -0.000167847  -0.00140938 -0.0231117 -6.73532e-05  0.00153384 -0.0234907 -7.67708e-05  0.00107618 -0.0149855 -4.81606e-05  -0.00139692 -0.0229436 -0.000532031  -0.000790551 -0.0145251 -4.8399e-05  0.00108466 -0.0148567 -5.61476e-05  -0.000775084 -0.0143984 -0.000432849  -0.00339076 -0.0446472 -0.000107169  0.00201023 -0.0452002 -0.000111461  0.00184295 -0.0338871 -8.24928e-05  -0.00336516 -0.0444329 -0.000656247  -0.00227761 -0.0332358 -8.69036e-05  0.00186041 -0.0337107 -9.53674e-05  -0.00225568 -0.0330498 -0.000603199  -0.00637701 -0.070911 -0.000148058  0.00158727 -0.0716938 -0.000132918  0.00189427 -0.0581447 -0.000117183  -0.00633979 -0.0706587 -0.000703812  -0.00475967 -0.057252 -0.000127316  0.00192538 -0.057922 -0.000124216  -0.00473028 -0.0570287 -0.000687361  -0.0103505 -0.101154 -0.000187278  5.79357e-05 -0.102232 -0.000145078  0.000924587 -0.0867353 -0.000151753  -0.0102987 -0.100892 -0.000701308  -0.00824088 -0.085557 -0.000167966  0.00096786 -0.0864933 -0.000140309  -0.00819755 -0.0853116 -0.0007056  -0.0152791 -0.134915 -0.00022459  -0.00264955 -0.136342 -0.000150084  -0.0012027 -0.119117 -0.000184417  -0.0152159 -0.134651 -0.000664592  -0.0126954 -0.117609 -0.000206113  -0.00114858 -0.118868 -0.000148058  -0.0126405 -0.11736 -0.000683665  -0.0211235 -0.171807 -0.000258446  -0.00652599 -0.173605 -0.000153065  -0.00450444 -0.154844 -0.000215411  -0.0210528 -0.171558 -0.000623345  -0.0180864 -0.152978 -0.000241876  -0.00444406 -0.154601 -0.000151753  -0.0180221 -0.152737 -0.000642896  -0.027828 -0.211455 -0.000288725  -0.0115041 -0.213644 -0.000156045  -0.00894535 -0.193528 -0.000243545  -0.0277537 -0.211219 -0.000574589  -0.0243681 -0.191294 -0.000273705  -0.00888133 -0.193299 -0.000154257  -0.0242988 -0.191066 -0.000597239  -0.0353302 -0.25352 -0.000315189  -0.0175117 -0.256091 -0.000162005  -0.0144497 -0.234799 -0.000268579  -0.0352558 -0.253306 -0.000537038  -0.0314797 -0.232193 -0.000302315  -0.014385 -0.234586 -0.000158906  -0.031409 -0.231983 -0.00055325  -0.043548 -0.297657 -0.000338435  -0.0244344 -0.300603 -0.000170469  -0.0209271 -0.278303 -0.000290751  -0.0434757 -0.297458 -0.000499249  -0.0393502 -0.275336 -0.00032711  -0.0208638 -0.278107 -0.000165939  -0.0392809 -0.275143 -0.000516176  -0.0523993 -0.343556 -0.000358343  -0.0321813 -0.346849 -0.00018239  -0.0282719 -0.323703 -0.000310063  -0.0523306 -0.343379 -0.000474572  -0.0478953 -0.320391 -0.000348568  -0.028212 -0.323526 -0.00017643  -0.0478292 -0.320218 -0.000484347  -0.0617881 -0.390915 -0.000375509  -0.0406246 -0.394533 -0.000196576  -0.036377 -0.370688 -0.000326514  -0.0617239 -0.390751 -0.000449657  -0.0570271 -0.367057 -0.000367165  -0.036321 -0.370527 -0.000189185  -0.0569651 -0.3669 -0.000460505  -0.071628 -0.439467 -0.000390053  -0.0496734 -0.443371 -0.000212669  -0.0451317 -0.418966 -0.000340581  -0.0715691 -0.439323 -0.000436425  -0.0666522 -0.415044 -0.000382662  -0.0450804 -0.418821 -0.000204563  -0.0665956 -0.414905 -0.000440717  -0.0818242 -0.488956 -0.000402212  -0.059203 -0.493119 -0.000229836  -0.0544293 -0.468275 -0.000352383  -0.0817708 -0.488822 -0.000421524  -0.0766816 -0.464097 -0.000396252  -0.0543827 -0.468145 -0.000221133  -0.0766302 -0.463971 -0.000427485  -0.0922971 -0.539162 -0.000412583  -0.0691334 -0.54354 -0.000248075  -0.0641663 -0.518373 -0.000362635  -0.0922488 -0.539044 -0.000416279  -0.0870262 -0.513969 -0.000407457  -0.0641246 -0.518256 -0.000239134  -0.0869801 -0.513859 -0.000416636  -0.102962 -0.589873 -0.000421762  -0.0793513 -0.594438 -0.00026679  -0.0742474 -0.569044 -0.000371337  -0.102919 -0.589762 -0.000408649  -0.0976046 -0.564454 -0.000417113  -0.07421 -0.56894 -0.000257254  -0.0975637 -0.564352 -0.000411034  -0.113753 -0.640912 -0.000429273  -0.089793 -0.645624 -0.000285745  -0.0845827 -0.620097 -0.000378847  -0.113714 -0.640815 -0.000409842  -0.108341 -0.615348 -0.000425577  -0.0845499 -0.620003 -0.000276566  -0.108305 -0.61526 -0.000407219  -0.124603 -0.692113 -0.000436425  -0.100363 -0.696947 -0.00030458  -0.0950937 -0.671361 -0.000385284  -0.124567 -0.69202 -0.00040853  -0.119169 -0.666489 -0.000432849  -0.0950644 -0.671276 -0.000295162  -0.119137 -0.666407 -0.000407934  -0.135463 -0.743341 -0.000442028  -0.111018 -0.748263 -0.000323653  -0.105711 -0.722688 -0.000390887  -0.135431 -0.743259 -0.000415325  -0.130029 -0.717718 -0.000439167  -0.105685 -0.722611 -0.000314236  -0.130001 -0.717646 -0.000409961  -0.146283 -0.794474 -0.000448227  -0.121681 -0.799465 -0.000342607  -0.116373 -0.773954 -0.000396132  -0.146254 -0.794394 -0.000419497  -0.140874 -0.768914 -0.000445127  -0.116349 -0.773883 -0.000333071  -0.140849 -0.768846 -0.00041616  -0.157036 -0.845421 -0.000453591  -0.13233 -0.850453 -0.000361681  -0.127032 -0.825054 -0.000401497  -0.157009 -0.845349 -0.000431061  -0.151665 -0.819962 -0.000450611  -0.127011 -0.824989 -0.000352263  -0.151642 -0.819902 -0.000423312  -0.16769 -0.896101 -0.000458598  -0.142909 -0.901162 -0.000379682  -0.137648 -0.875907 -0.000406504  -0.167665 -0.896028 -0.00043869  -0.162371 -0.870786 -0.000455976  -0.137629 -0.875845 -0.000370622  -0.16235 -0.870727 -0.000433922  -0.178234 -0.946461 -0.000464082  -0.153414 -0.95153 -0.00039804  -0.148191 -0.926448 -0.00041151  -0.178209 -0.946394 -0.00045228  -0.17297 -0.92131 -0.00046134  -0.148172 -0.926387 -0.000389338  -0.172951 -0.921254 -0.000443816  -0.18865 -0.996401 -0.000469804  -0.163778 -1.00147 -0.000418901  -0.158633 -0.976621 -0.000416875  -0.188615 -0.996332 -0.000461221  -0.183454 -0.971482 -0.000466704  -0.158616 -0.976562 -0.0004071  -0.183431 -0.971427 -0.000456333  0.00158316 -0.00863737 -3.27826e-05  0 0 0  0.0025966 -0.00967777 0.000495434  0.000881575 -0.00396198 -1.88351e-05  0 0 0  0.00158606 -0.00856876 0.00023222  0.000526093 -0.00329447 -1.71661e-05  0 0 0  0.000865288 -0.00393921 0.000267625  0.000534095 -0.00327677 0.0001266  0.00443897 -0.0247939 -6.36578e-05  0.00746405 -0.0263327 0.000810146  0.00486059 -0.0173886 -4.93526e-05  0.00446948 -0.0246319 0.000370741  0.00294209 -0.0159393 -4.80413e-05  0.00485936 -0.0172938 0.000674844  0.00295097 -0.0158164 0.00031662  0.0073092 -0.0468135 -9.34601e-05  0.0127767 -0.0486419 0.000955462  0.010125 -0.0370377 -7.65324e-05  0.0073474 -0.0466076 0.000425339  0.0059351 -0.0351612 -7.85589e-05  0.0101365 -0.0368717 0.000906825  0.00596035 -0.0349824 0.000404119  0.00938761 -0.0735725 -0.00012219  0.0173625 -0.0755726 0.000981331  0.0151658 -0.0617999 -9.98974e-05  0.00943923 -0.0733307 0.000425816  0.0084815 -0.0596609 -0.000107765  0.0152 -0.0615799 0.000980496  0.00852302 -0.0594463 0.000431657  0.01025 -0.104373 -0.000150204  0.0206058 -0.106557 0.000939012  0.0191211 -0.0908248 -0.000122309  0.0103066 -0.10412 0.000402331  0.00998837 -0.0884894 -0.000136256  0.0191724 -0.0905802 0.000969291  0.0100384 -0.0882526 0.000415444  0.00972646 -0.138755 -0.000177145  0.0222504 -0.141152 0.000858784  0.0215785 -0.123675 -0.000144482  0.00978732 -0.138499 0.000355721  0.0101672 -0.121132 -0.000163794  0.0216342 -0.123422 0.000901222  0.0102235 -0.12089 0.000378966  0.00780052 -0.176313 -0.000202417  0.0222561 -0.178966 0.000765681  0.0223989 -0.159924 -0.00016582  0.00786293 -0.176068 0.000311017  0.00893956 -0.15715 -0.00019002  0.0224568 -0.159676 0.000813603  0.00899774 -0.156912 0.000332594  0.00453711 -0.21665 -0.000225306  0.0206988 -0.219578 0.000670433  0.0216118 -0.199175 -0.000186086  0.00459957 -0.216416 0.000257492  0.00633389 -0.196143 -0.0002141  0.0216696 -0.198938 0.000718236  0.00639343 -0.195918 0.000282526  3.3021e-05 -0.259401 -0.000246048  0.0176847 -0.262621 0.000574589  0.0193119 -0.241035 -0.000204444  9.4533e-05 -0.259186 0.00020957  0.00243711 -0.237734 -0.000235796  0.0193681 -0.240813 0.000622153  0.00249541 -0.237523 0.000232577  -0.00558949 -0.304201 -0.000264049  0.0133603 -0.307706 0.000483394  0.0156269 -0.285127 -0.000221014  -0.0055306 -0.304001 0.000155926  -0.0026418 -0.281551 -0.000255227  0.0156815 -0.284922 0.000528812  -0.00258529 -0.281359 0.000180721  -0.0122092 -0.350727 -0.000279665  0.00785708 -0.354508 0.000393987  0.0106986 -0.331095 -0.000235438  -0.0121536 -0.350547 0.000108361  -0.00877821 -0.327256 -0.000272036  0.0107497 -0.330907 0.000437856  -0.00872505 -0.32708 0.000130892  -0.0196943 -0.398662 -0.000293016  0.00133049 -0.402693 0.000310183  0.00466907 -0.37861 -0.000247717  -0.0196424 -0.398495 5.60284e-05  -0.0158465 -0.374522 -0.00028646  0.00471723 -0.378439 0.000351787  -0.015797 -0.374364 8.01086e-05  -0.0279245 -0.447732 -0.000304341  -0.00609076 -0.451993 0.000229359  -0.00231814 -0.427371 -0.000258088  -0.0278767 -0.447584 1.07288e-05  -0.0237193 -0.42306 -0.000298738  -0.00227392 -0.427215 0.000268936  -0.0236739 -0.422916 3.20673e-05  -0.036774 -0.497675 -0.000313878  -0.0142589 -0.502132 0.000154853  -0.010126 -0.477106 -0.00026679  -0.0367306 -0.497537 -3.85046e-05  -0.0322738 -0.472595 -0.000309348  -0.010085 -0.476965 0.000191808  -0.032233 -0.472467 -1.62125e-05  -0.0461346 -0.548269 -0.000321865  -0.0230598 -0.552897 8.38041e-05  -0.0186219 -0.527572 -0.000274062  -0.0460951 -0.548147 -7.98702e-05  -0.0413927 -0.522892 -0.000317931  -0.0185851 -0.527444 0.000118375  -0.0413556 -0.522776 -6.05583e-05  -0.0558945 -0.599303 -0.000328898  -0.0323601 -0.604067 1.91927e-05  -0.0276837 -0.578551 -0.000280261  -0.055859 -0.599189 -0.000124812  -0.0509653 -0.573728 -0.000325441  -0.0276499 -0.578436 5.11408e-05  -0.0509328 -0.573626 -0.000104547  -0.0659626 -0.650604 -0.000335097  -0.0420644 -0.655482 -4.11272e-05  -0.0371957 -0.629854 -0.000285864  -0.0659306 -0.650504 -0.00016129  -0.0608909 -0.624919 -0.000331998  -0.0371654 -0.629749 -1.20401e-05  -0.0608621 -0.624825 -0.000144362  -0.0762463 -0.702009 -0.000340223  -0.0520599 -0.706968 -9.5129e-05  -0.0470545 -0.681312 -0.000290513  -0.0762169 -0.701914 -0.000200629  -0.0710764 -0.676288 -0.00033772  -0.0470266 -0.681217 -6.84261e-05  -0.0710514 -0.676206 -0.000183105  -0.0866752 -0.753391 -0.00034523  -0.0622725 -0.758413 -0.000143886  -0.0571666 -0.732785 -0.000294924  -0.0866482 -0.753307 -0.000231504  -0.0814419 -0.727699 -0.000342727  -0.0571411 -0.732698 -0.000120521  -0.0814188 -0.727623 -0.000217557  -0.097178 -0.804631 -0.000349641  -0.0726123 -0.80969 -0.000187159  -0.0674496 -0.784151 -0.000298858  -0.0971529 -0.80455 -0.000265598  -0.0919149 -0.779021 -0.000347257  -0.0674257 -0.784071 -0.000165701  -0.0918944 -0.778953 -0.000250578  -0.107707 -0.855648 -0.000354528  -0.0830295 -0.860732 -0.00022614  -0.0778337 -0.835315 -0.00030303  -0.107684 -0.855575 -0.000291705  -0.102437 -0.830161 -0.000352025  -0.0778117 -0.83524 -0.000207424  -0.102418 -0.830097 -0.000280023  -0.118212 -0.906365 -0.000358939  -0.0934579 -0.911455 -0.000260711  -0.0882611 -0.8862 -0.000307322  -0.118191 -0.906292 -0.000321031  -0.11296 -0.881034 -0.000356793  -0.0882406 -0.886129 -0.000243425  -0.112942 -0.880975 -0.000308394  -0.128665 -0.956739 -0.000363946  -0.103865 -0.961835 -0.00029254  -0.0986838 -0.936753 -0.000311732  -0.128644 -0.95667 -0.00034368  -0.123443 -0.931586 -0.000361443  -0.0986636 -0.936684 -0.000277162  -0.123425 -0.931526 -0.000333309  -0.138991 -1.00669 -0.00036943  -0.11417 -1.0118 -0.00032258  -0.109054 -0.986939 -0.00031662  -0.138982 -1.00661 -0.00036931  -0.133845 -0.981762 -0.000366569  -0.109032 -0.986869 -0.000307679  -0.133833 -0.981705 -0.000358105  0.00366928 -0.0113397 -3.74317e-05  0 0 0  0.00486284 -0.0133352 0.00100935  0.00162849 -0.00609559 -2.28882e-05  0 0 0  0.00368747 -0.0112548 0.00075841  0.00122217 -0.00487834 -2.06232e-05  0 0 0  0.00160401 -0.0061112 0.0005759  0.00122496 -0.00487065 0.000416636  0.0106406 -0.028821 -6.46114e-05  0.0140511 -0.0316113 0.00168407  0.00917739 -0.0220712 -5.51939e-05  0.0106804 -0.0286646 0.00124156  0.00692028 -0.0194243 -5.1856e-05  0.00914954 -0.0219217 0.00139165  0.00694218 -0.0193052 0.00103927  0.018402 -0.0514876 -8.44002e-05  0.0244434 -0.0545718 0.00200355  0.0192485 -0.042703 -7.4625e-05  0.018456 -0.0512961 0.00148034  0.0145302 -0.039558 -7.52211e-05  0.0192537 -0.0425406 0.00187731  0.0145766 -0.0393819 0.00138628  0.025458 -0.0786307 -0.000100851  0.033996 -0.0817963 0.00208199  0.0293491 -0.0678848 -8.52346e-05  0.025522 -0.0783988 0.00153005  0.022085 -0.0645323 -9.25064e-05  0.0293868 -0.0676775 0.00206172  0.0221327 -0.0643315 0.00152791  0.0310332 -0.109768 -0.00011754  0.041892 -0.113012 0.00199974  0.0381399 -0.0971549 -9.58443e-05  0.0310943 -0.109522 0.00147009  0.0284622 -0.093711 -0.000109076  0.0381889 -0.0969226 0.00205183  0.0285193 -0.0934792 0.00151122  0.0348034 -0.144534 -0.00013411  0.0477465 -0.147893 0.00185299  0.0450249 -0.130256 -0.000107408  0.0348629 -0.144279 0.00135708  0.0331548 -0.12671 -0.000125766  0.0450779 -0.130017 0.00193131  0.0332109 -0.126471 0.00141978  0.0367143 -0.182532 -0.000150919  0.0515193 -0.186054 0.0016737  0.04984 -0.166826 -0.000119805  0.03677 -0.18229 0.00121939  0.0359922 -0.163141 -0.000142574  0.0498915 -0.166589 0.00176466  0.036046 -0.162906 0.00129116  0.036841 -0.223357 -0.000166297  0.0533018 -0.227076 0.00149083  0.0526034 -0.206459 -0.000131965  0.0368947 -0.223122 0.00108171  0.0369967 -0.202604 -0.000158787  0.0526507 -0.206232 0.00158274  0.0370483 -0.202378 0.00115156  0.0353106 -0.266613 -0.00018084  0.0532221 -0.270543 0.00130975  0.0534397 -0.24874 -0.000143647  0.0353608 -0.266399 0.000940919  0.036278 -0.244692 -0.000173688  0.0534849 -0.248528 0.00139964  0.0363261 -0.244482 0.00101233  0.0322762 -0.311918 -0.000193357  0.0514619 -0.316064 0.00113726  0.0525007 -0.293266 -0.000154257  0.0323244 -0.311715 0.000810742  0.0339756 -0.289019 -0.000187278  0.0525419 -0.293069 0.00122273  0.0340213 -0.288824 0.000875831  0.027894 -0.358921 -0.000204325  0.0481751 -0.363271 0.000972629  0.0499597 -0.339657 -0.000163317  0.0279386 -0.35874 0.000681639  0.030248 -0.335214 -0.00019896  0.0499984 -0.339476 0.00105369  0.0302905 -0.335037 0.000746846  0.0223253 -0.407298 -0.000213742  0.0435529 -0.411837 0.00081861  0.0459863 -0.387566 -0.000171185  0.0223676 -0.407128 0.000564933  0.0252526 -0.382944 -0.000209212  0.0460211 -0.387402 0.000894785  0.0252922 -0.382782 0.000622988  0.015722 -0.45676 -0.000221252  0.0377439 -0.461462 0.000674129  0.0407536 -0.436681 -0.000177622  0.0157602 -0.45661 0.000449896  0.0191486 -0.431897 -0.000217557  0.0407861 -0.436532 0.000745058  0.0191841 -0.431752 0.00050807  0.00823569 -0.507044 -0.00022769  0.0309304 -0.511887 0.000540614  0.0344254 -0.486722 -0.000182748  0.00827122 -0.506903 0.00034821  0.0120852 -0.481802 -0.00022459  0.0344542 -0.486588 0.000606179  0.0121175 -0.48167 0.000398874  3.8147e-06 -0.557921 -0.000233173  0.0232451 -0.562874 0.000417113  0.0271609 -0.537443 -0.000187039  3.56436e-05 -0.557797 0.00024879  0.00420952 -0.532408 -0.000230312  0.0271869 -0.537321 0.000477314  0.00423849 -0.532291 0.000299215  -0.00883794 -0.609185 -0.000237703  0.0148537 -0.614228 0.000305057  0.0191071 -0.588625 -0.000190496  -0.00880826 -0.609069 0.000162959  -0.00434363 -0.583505 -0.000235081  0.0191302 -0.588516 0.000360012  -0.0043174 -0.583397 0.000205755  -0.0181715 -0.660663 -0.000241518  0.00586867 -0.665766 0.00020349  0.0104055 -0.64008 -0.000193357  -0.0181451 -0.660562 7.98702e-05  -0.0134454 -0.634894 -0.000239491  0.0104268 -0.639982 0.000252962  -0.013422 -0.6348 0.000121951  -0.0278821 -0.712199 -0.000245333  -0.00356507 -0.717344 0.000113606  0.00118351 -0.691646 -0.000196099  -0.0278571 -0.712101 1.0252e-05  -0.0229807 -0.686421 -0.000243187  0.00120211 -0.691557 0.000157475  -0.0229599 -0.686333 4.49419e-05  -0.037874 -0.763667 -0.000248551  -0.0133576 -0.768831 3.45707e-05  -0.00844097 -0.743184 -0.000198841  -0.0378518 -0.763581 -5.59092e-05  -0.0328431 -0.737935 -0.000246763  -0.00842357 -0.743103 7.25985e-05  -0.0328248 -0.737858 -2.20537e-05  -0.0480559 -0.814959 -0.000252128  -0.0233889 -0.820131 -3.29018e-05  -0.0183632 -0.794582 -0.000201583  -0.0480349 -0.814876 -0.000108957  -0.0429406 -0.789329 -0.00025022  -0.0183473 -0.794508 -3.57628e-07  -0.0429239 -0.789257 -8.24928e-05  -0.0583587 -0.865997 -0.000255823  -0.0335951 -0.87116 -9.13143e-05  -0.0284901 -0.845749 -0.000204563  -0.0583391 -0.865922 -0.000160098  -0.0531914 -0.8405 -0.000253797  -0.0284755 -0.845681 -6.33001e-05  -0.0531759 -0.840436 -0.000133753  -0.0687151 -0.916716 -0.000259638  -0.0438826 -0.92187 -0.000140429  -0.0387442 -0.89662 -0.000207901  -0.0686963 -0.91664 -0.000199676  -0.0635285 -0.891387 -0.00025785  -0.0387311 -0.896555 -0.000116467  -0.0635138 -0.891324 -0.000179887  -0.0790775 -0.96709 -0.000263929  -0.054215 -0.972233 -0.000185251  -0.0490611 -0.947155 -0.000211835  -0.0790586 -0.96702 -0.00024128  -0.0738931 -0.941934 -0.000261903  -0.0490468 -0.947092 -0.000163794  -0.0738795 -0.941875 -0.000219107  -0.0893734 -1.01708 -0.000269175  -0.064491 -1.02226 -0.0002321  -0.0593796 -0.997349 -0.000216126  -0.0893443 -1.01701 -0.000276208  -0.0842364 -0.992126 -0.000266433  -0.0593684 -0.997286 -0.000206113  -0.0842185 -0.992066 -0.000258803  0.00617503 -0.0161335 -4.45843e-05  0 0 0  0.00764771 -0.0195227 0.00152266  0.00267218 -0.00983626 -2.82526e-05  0 0 0  0.00617936 -0.0160531 0.00127316  0.00201564 -0.00763595 -2.53916e-05  0 0 0  0.00248643 -0.00975686 0.000772238  0.00201457 -0.00773823 0.000668049  0.0179721 -0.0354902 -6.69956e-05  0.0224366 -0.0399137 0.00256026  0.0147402 -0.0295994 -6.13928e-05  0.018022 -0.0353379 0.00210464  0.0116823 -0.0253938 -5.78165e-05  0.0145487 -0.0294208 0.0020963  0.0117119 -0.0252478 0.00176251  0.0309429 -0.0587125 -7.58171e-05  0.0382411 -0.063079 0.00305831  0.0304026 -0.0511148 -7.18832e-05  0.0310125 -0.0585143 0.00252819  0.0244953 -0.0465546 -7.30753e-05  0.030434 -0.0509487 0.00287497  0.0245402 -0.0463908 0.00236249  0.0429447 -0.085997 -7.9751e-05  0.0526397 -0.0902607 0.0031563  0.0456099 -0.0763716 -6.97374e-05  0.0430194 -0.0857625 0.0026139  0.0371449 -0.0718424 -7.7486e-05  0.0456513 -0.0761448 0.00314426  0.0372083 -0.0716339 0.00260735  0.053062 -0.117256 -8.52346e-05  0.0649173 -0.121494 0.0030489  0.0590035 -0.105616 -6.85453e-05  0.0531275 -0.117011 0.00252664  0.0482762 -0.10113 -8.21352e-05  0.059069 -0.105379 0.00312555  0.0483351 -0.100902 0.00258636  0.060945 -0.152215 -9.27448e-05  0.0747546 -0.156494 0.00283182  0.0700874 -0.138787 -7.03335e-05  0.0610045 -0.151966 0.00234103  0.0572935 -0.134285 -8.86917e-05  0.0701448 -0.138543 0.00294793  0.0573512 -0.13405 0.00244021  0.066543 -0.190486 -0.000101209  0.0821122 -0.194869 0.00257409  0.0786856 -0.175523 -7.4625e-05  0.0665954 -0.190248 0.00212514  0.0640306 -0.170952 -9.69172e-05  0.0787405 -0.175285 0.00270641  0.064082 -0.17072 0.00223494  0.0699446 -0.231648 -0.000109553  0.0870875 -0.236168 0.00230849  0.0848411 -0.215407 -7.92742e-05  0.0699927 -0.231419 0.00189829  0.0685122 -0.210722 -0.000105381  0.0848888 -0.215179 0.00244188  0.0685589 -0.210501 0.00201058  0.0713016 -0.275265 -0.000117898  0.0898359 -0.279939 0.0020436  0.0886871 -0.257983 -8.44002e-05  0.0713458 -0.275055 0.00167739  0.0708724 -0.253165 -0.000113726  0.0887315 -0.257769 0.00217509  0.0709151 -0.252956 0.00178623  0.0707896 -0.320936 -0.000124574  0.0905417 -0.325763 0.00179303  0.0903931 -0.302816 -8.90493e-05  0.0708308 -0.320738 0.00146341  0.0712709 -0.297856 -0.000121474  0.0904331 -0.302617 0.00191736  0.07131 -0.297665 0.00156748  0.0685922 -0.368283 -0.000130892  0.0893986 -0.373254 0.00155175  0.0901549 -0.349503 -9.29832e-05  0.0686308 -0.368104 0.00126302  0.0698944 -0.344411 -0.000128031  0.090192 -0.34932 0.00167036  0.069931 -0.344234 0.00136077  0.064896 -0.416972 -0.000135541  0.0866035 -0.422066 0.00132918  0.0881627 -0.39768 -9.60827e-05  0.0649318 -0.416806 0.00107241  0.0669239 -0.392467 -0.000133276  0.0881968 -0.397511 0.00143898  0.0669571 -0.392309 0.00116444  0.0598797 -0.466701 -0.000139594  0.0823475 -0.471898 0.00111794  0.0846179 -0.447022 -9.84669e-05  0.0599129 -0.466553 0.000897288  0.0625467 -0.441713 -0.000137687  0.0846494 -0.446869 0.00122094  0.0625772 -0.441567 0.000982285  0.0537201 -0.517206 -0.000142455  0.0768189 -0.522478 0.000926375  0.0797036 -0.497246 -9.97782e-05  0.0537503 -0.517067 0.000732183  0.0569365 -0.491859 -0.000141144  0.0797328 -0.497105 0.00102031  0.0569639 -0.49173 0.000811219  0.0465798 -0.568253 -0.00014472  0.0701933 -0.573578 0.000747204  0.0736095 -0.5481 -0.000100732  0.0466077 -0.56813 0.000584006  0.0502673 -0.542664 -0.000143528  0.0736356 -0.547973 0.000833869  0.0502926 -0.542545 0.000655532  0.038619 -0.61964 -0.000146508  0.0626411 -0.624993 0.000588179  0.0665002 -0.599369 -0.000101089  0.0386446 -0.619525 0.000445724  0.0426972 -0.593903 -0.000145555  0.0665247 -0.599253 0.000665545  0.0427194 -0.593798 0.000511527  0.0299797 -0.671195 -0.000148058  0.054318 -0.676555 0.000442147  0.0585475 -0.650867 -0.000101566  0.0300035 -0.671093 0.000325322  0.0343804 -0.645395 -0.000147343  0.0585699 -0.650762 0.000511885  0.0344009 -0.645299 0.0003829  0.0208015 -0.722769 -0.000149965  0.0453734 -0.728118 0.000317097  0.0498955 -0.702437 -0.000102043  0.0208232 -0.722673 0.000214934  0.025455 -0.696975 -0.000148892  0.0499165 -0.70234 0.000377178  0.0254729 -0.69689 0.00026679  0.0112033 -0.774242 -0.000151396  0.0359404 -0.779566 0.000205636  0.0406942 -0.753947 -0.000102758  0.0112233 -0.774156 0.000122905  0.016053 -0.748514 -0.000150561  0.0407135 -0.753859 0.000257969  0.0160697 -0.748435 0.000166297  0.00130105 -0.825514 -0.00015378  0.0261471 -0.830803 0.000115633  0.0310647 -0.805293 -0.000103712  0.00131941 -0.825431 4.08888e-05  0.00628853 -0.799895 -0.000152349  0.0310836 -0.805211 0.000158191  0.00630331 -0.799825 7.86781e-05  -0.00881219 -0.876513 -0.000156522  0.0160995 -0.881764 3.73125e-05  0.0211353 -0.856393 -0.000105619  -0.00879478 -0.876438 -2.43187e-05  -0.00372958 -0.85104 -0.000154972  0.0211523 -0.856317 7.30753e-05  -0.00371599 -0.850973 5.84126e-06  -0.0190499 -0.927191 -0.00015986  0.00590014 -0.932406 -2.26498e-05  0.010999 -0.907194 -0.000108123  -0.0190337 -0.927115 -8.28505e-05  -0.0139151 -0.901881 -0.000157833  0.0110157 -0.907121 5.36442e-06  -0.0139029 -0.90182 -5.60284e-05  -0.0293503 -0.977538 -0.000163436  -0.00438571 -0.982729 -7.80821e-05  0.000750542 -0.957672 -0.000111341  -0.0293345 -0.977465 -0.00012958  -0.0241907 -0.952394 -0.000161409  0.000767946 -0.957602 -5.22137e-05  -0.0241792 -0.952332 -0.000107646  -0.0396378 -1.02759 -0.000168324  -0.0146914 -1.0328 -0.000126362  -0.0095551 -1.00785 -0.000115156  -0.0396309 -1.02752 -0.000176668  -0.0344982 -1.00258 -0.000165462  -0.00953603 -1.00779 -0.000101924  -0.0344901 -1.00252 -0.000154853  0.0106827 -0.0242413 -5.20945e-05  0 0 0  0.0162884 -0.0302123 0.00208962  0.00689217 -0.0182674 -3.21865e-05  0 0 0  0.0106261 -0.0242546 0.00196624  0.0034536 -0.012875 -3.06368e-05  0 0 0  0.00663905 -0.0178215 0.00131619  0.00345816 -0.0125753 0.000923753  0.0278746 -0.0454177 -6.85453e-05  0.0349612 -0.0514185 0.00350416  0.0257426 -0.0407014 -6.09159e-05  0.0280825 -0.0453807 0.00297189  0.0190292 -0.0347064 -6.36578e-05  0.0253321 -0.0405371 0.00280964  0.0189639 -0.0346459 0.00246525  0.0462344 -0.0684519 -6.56843e-05  0.05541 -0.0738714 0.00402832  0.0454002 -0.0623143 -6.17504e-05  0.046306 -0.0682173 0.00355756  0.0371979 -0.0564218 -6.93798e-05  0.0453644 -0.0619868 0.00380266  0.0372974 -0.0562029 0.00333929  0.0629132 -0.0955209 -5.66244e-05  0.0741371 -0.100717 0.00419843  0.0649968 -0.0869615 -4.8399e-05  0.0629919 -0.0952561 0.00368059  0.0548481 -0.0814195 -6.06775e-05  0.0650303 -0.0867183 0.00415146  0.0548998 -0.0812001 0.00367308  0.0772778 -0.126677 -5.22137e-05  0.0904745 -0.131778 0.00405514  0.0825757 -0.115961 -3.70741e-05  0.0773473 -0.12642 0.0035634  0.0704243 -0.110565 -5.40018e-05  0.0826516 -0.115702 0.00414264  0.070489 -0.110326 0.00364792  0.0890133 -0.161704 -5.09024e-05  0.104049 -0.166821 0.00379825  0.0975507 -0.149073 -2.96831e-05  0.0890794 -0.161445 0.00331926  0.0834838 -0.143717 -5.10216e-05  0.0976139 -0.148828 0.00393653  0.0835472 -0.143477 0.00345373  0.0980979 -0.200136 -5.20945e-05  0.114804 -0.205338 0.00346553  0.109711 -0.185905 -2.63453e-05  0.0981566 -0.199897 0.0030266  0.0938892 -0.180505 -5.126e-05  0.109777 -0.185673 0.00363421  0.0939463 -0.180273 0.00317824  0.104614 -0.241534 -5.34058e-05  0.122822 -0.246839 0.00312901  0.119094 -0.225969 -2.45571e-05  0.10467 -0.241303 0.00272107  0.101672 -0.220484 -5.26905e-05  0.119146 -0.225748 0.00329781  0.101725 -0.220263 0.00287533  0.10873 -0.285401 -5.56707e-05  0.128262 -0.290824 0.00278223  0.125799 -0.268753 -2.37226e-05  0.108781 -0.285192 0.00241685  0.106966 -0.263173 -5.45979e-05  0.125852 -0.268552 0.00295496  0.107014 -0.262967 0.00256908  0.110627 -0.331326 -5.71012e-05  0.131314 -0.336851 0.00245917  0.13003 -0.313801 -2.28882e-05  0.110675 -0.331128 0.00212657  0.109947 -0.308123 -5.6386e-05  0.130072 -0.313611 0.0026195  0.109992 -0.307932 0.00227106  0.110517 -0.378894 -5.85318e-05  0.132197 -0.38451 0.0021404  0.131969 -0.360672 -2.20537e-05  0.110561 -0.378717 0.00184798  0.110815 -0.354916 -5.80549e-05  0.132012 -0.360503 0.00229919  0.110856 -0.354741 0.00198627  0.108598 -0.427776 -5.88894e-05  0.131119 -0.433455 0.00185263  0.131853 -0.409004 -2.08616e-05  0.108641 -0.427609 0.00159013  0.109774 -0.403182 -5.88894e-05  0.131887 -0.408845 0.00199521  0.109813 -0.403023 0.00171757  0.105083 -0.477644 -5.91278e-05  0.128307 -0.483364 0.00157261  0.129881 -0.45845 -1.90735e-05  0.105122 -0.477496 0.00134563  0.107033 -0.452593 -5.90086e-05  0.129917 -0.458311 0.00171244  0.107068 -0.452449 0.00146651  0.100162 -0.528249 -5.79357e-05  0.123959 -0.533981 0.00132596  0.126282 -0.508735 -1.70469e-05  0.100199 -0.52811 0.00112462  0.10279 -0.502861 -5.85318e-05  0.126309 -0.508603 0.00144792  0.102823 -0.50273 0.00123334  0.0940316 -0.57934 -5.71012e-05  0.118285 -0.585061 0.0010885  0.121246 -0.559594 -1.43051e-05  0.0940647 -0.579217 0.000917077  0.0972415 -0.553736 -5.74589e-05  0.121275 -0.559481 0.00120664  0.0972713 -0.553618 0.00101924  0.0868638 -0.630737 -5.61476e-05  0.111466 -0.636422 0.000884891  0.114983 -0.610829 -1.19209e-05  0.0868959 -0.63062 0.000733852  0.09057 -0.605003 -5.66244e-05  0.115003 -0.610722 0.000985146  0.0905972 -0.604896 0.000823617  0.0788352 -0.682252 -5.53131e-05  0.103693 -0.687881 0.00069201  0.107664 -0.662245 -9.53674e-06  0.0788639 -0.682149 0.000565171  0.0829523 -0.656478 -5.54323e-05  0.107687 -0.662153 0.000787258  0.0829768 -0.656381 0.000647902  0.0700984 -0.733764 -5.49555e-05  0.0951259 -0.739323 0.000533819  0.0994787 -0.713706 -7.86781e-06  0.0701256 -0.733665 0.000422001  0.0745494 -0.708008 -5.49555e-05  0.0994945 -0.713617 0.000610828  0.0745716 -0.707919 0.0004915  0.060807 -0.78514 -5.45979e-05  0.085933 -0.790616 0.000387549  0.0905786 -0.765073 -6.55651e-06  0.0608308 -0.785053 0.000294328  0.0655184 -0.759464 -5.44786e-05  0.0905979 -0.764998 0.000458956  0.0655386 -0.759384 0.000356436  0.0510933 -0.836314 -5.55515e-05  0.076257 -0.841705 0.000276804  0.0811296 -0.81627 -5.96046e-06  0.051115 -0.836227 0.000192285  0.0559981 -0.810749 -5.47171e-05  0.0811424 -0.816195 0.000330091  0.056016 -0.810673 0.00024128  0.0410872 -0.887202 -5.72205e-05  0.0662413 -0.892506 0.000177026  0.0712664 -0.867211 -6.55651e-06  0.0411065 -0.887124 0.000104547  0.0461249 -0.861784 -5.60284e-05  0.0712829 -0.867146 0.000224829  0.0461404 -0.861715 0.000146985  0.0308976 -0.937796 -5.9247e-05  0.0560164 -0.943035 0.000110626  0.0611331 -0.917877 -7.98702e-06  0.0309134 -0.937715 3.98159e-05  0.0360117 -0.912529 -5.79357e-05  0.0611429 -0.91781 0.000142455  0.036026 -0.912461 7.09295e-05  0.0206103 -0.988079 -6.25849e-05  0.045681 -0.99327 4.33922e-05  0.0508382 -0.968244 -1.03712e-05  0.0206277 -0.988004 -1.95503e-05  0.0257666 -0.96296 -6.07967e-05  0.0508561 -0.968187 7.56979e-05  0.0257788 -0.962897 1.01328e-05  0.0102632 -1.03815 -6.7234e-05  0.0353107 -1.04331 -5.48363e-06  0.0404894 -1.01838 -1.41859e-05  0.0102892 -1.03806 -7.1764e-05  0.0154488 -1.01312 -6.46114e-05  0.0404975 -1.01832 2.72989e-05  0.0154638 -1.01306 -4.57764e-05  -0.0177382 -0.0239143 0.00236034  -0.00801277 -0.0143956 0.00284255  0 0 0  -0.0107725 -0.0181262 0.00438225  0 0 0  -0.00735956 -0.01372 0.0017513  -0.00251638 -0.00637506 0.00196195  0 0 0  -0.00791232 -0.0144478 0.00138962  -0.0108055 -0.0181914 0.00217307  -0.00357252 -0.00906757 0.00237286  0 0 0  -0.00259307 -0.0065271 0.000940323  -0.00358409 -0.00924045 0.00119448  -0.0372655 -0.0399081 0.00400531  -0.0269398 -0.0308349 0.00692904  -0.0279473 -0.0344435 0.00710034  -0.0212324 -0.0307663 0.00289094  -0.0137875 -0.0214222 0.00493681  -0.0273984 -0.0314984 0.00351608  -0.027905 -0.0350329 0.00349891  -0.0190573 -0.0257274 0.00598168  -0.0138617 -0.0219526 0.00239837  -0.0190199 -0.0263792 0.00287175  -0.0580677 -0.0583665 0.00464559  -0.0473619 -0.0480489 0.00901914  -0.0464289 -0.0535898 0.00822186  -0.0369156 -0.0509238 0.00336361  -0.0289118 -0.0397638 0.00656593  -0.0476243 -0.0486341 0.00432968  -0.0464634 -0.0544028 0.00399637  -0.0370993 -0.0435993 0.0078454  -0.0289153 -0.040365 0.00321043  -0.0370688 -0.0442582 0.00387883  -0.07894 -0.0799992 0.00460076  -0.068445 -0.0678254 0.0095917  -0.0651293 -0.0763033 0.00827324  -0.0530781 -0.0746369 0.00336397  -0.0449312 -0.0615294 0.0070399  -0.068554 -0.0687224 0.00470006  -0.0651761 -0.0771145 0.0040071  -0.0558103 -0.06444 0.00835955  -0.0449738 -0.0623211 0.00342095  -0.0558411 -0.0653029 0.00405526  -0.0991943 -0.105295 0.00426912  -0.0890696 -0.0913317 0.00926101  -0.0833311 -0.102727 0.00771224  -0.0691139 -0.101988 0.00309467  -0.0610262 -0.0871044 0.00678349  -0.0891841 -0.0921622 0.00444984  -0.0834336 -0.103512 0.0036912  -0.0743021 -0.0890501 0.00805473  -0.0611208 -0.0878638 0.00325787  -0.0743699 -0.0898619 0.00388789  -0.118575 -0.13417 0.00374734  -0.10887 -0.11848 0.00843453  -0.100915 -0.132647 0.00685835  -0.0847984 -0.132754 0.00270176  -0.0768531 -0.116206 0.00614357  -0.109006 -0.119313 0.00403941  -0.101055 -0.133378 0.0032351  -0.0922012 -0.117233 0.00730968  -0.0770026 -0.116957 0.00290966  -0.0923255 -0.118034 0.00347233  -0.137066 -0.166388 0.00319898  -0.127775 -0.14916 0.00740767  -0.117826 -0.16588 0.00591946  -0.100067 -0.166727 0.00226402  -0.0922775 -0.1487 0.00535738  -0.127943 -0.149873 0.00346732  -0.118005 -0.166515 0.00273514  -0.109446 -0.148864 0.00639462  -0.0924792 -0.149352 0.0024848  -0.109607 -0.149558 0.00299323  -0.15471 -0.201665 0.00264311  -0.145811 -0.183037 0.00634551  -0.134141 -0.202055 0.00500345  -0.114952 -0.203581 0.00185418  -0.10733 -0.184222 0.00455379  -0.145998 -0.183683 0.00293195  -0.134335 -0.202609 0.00225222  -0.126052 -0.183598 0.00545621  -0.107552 -0.184811 0.00205731  -0.126244 -0.184224 0.00248861  -0.171592 -0.239671 0.00214577  -0.163055 -0.219821 0.00533867  -0.149896 -0.240903 0.00415778  -0.129488 -0.243026 0.00146484  -0.122019 -0.222508 0.00379801  -0.163252 -0.220345 0.00238407  -0.150098 -0.241359 0.00180614  -0.142078 -0.22116 0.00457144  -0.122257 -0.222994 0.00165522  -0.14228 -0.221673 0.00202858  -0.187787 -0.280104 0.00168562  -0.179586 -0.259163 0.00442088  -0.165169 -0.282059 0.00339961  -0.143717 -0.284732 0.00113046  -0.136409 -0.263191 0.00311315  -0.179778 -0.25962 0.00192046  -0.16536 -0.282445 0.00140893  -0.157587 -0.261191 0.00376832  -0.136636 -0.263613 0.00129354  -0.157789 -0.261639 0.0016005  -0.203361 -0.322647 0.00128961  -0.195474 -0.300772 0.00360119  -0.179983 -0.325266 0.00272727  -0.15766 -0.328416 0.000823021  -0.150501 -0.306005 0.00250494  -0.195656 -0.301129 0.00147831  -0.180161 -0.325572 0.00105631  -0.172624 -0.303418 0.00305307  -0.15072 -0.306339 0.000972509  -0.172813 -0.303772 0.00123048  -0.218364 -0.367022 0.000930309  -0.210773 -0.34433 0.00287628  -0.194382 -0.370196 0.00213492  -0.171331 -0.373779 0.00056541  -0.164334 -0.350616 0.0019685  -0.210938 -0.344636 0.00111306  -0.194539 -0.37045 0.000747442  -0.187229 -0.347514 0.00242174  -0.164527 -0.350902 0.000690341  -0.187402 -0.347817 0.000895619  -0.232828 -0.412946 0.000623941  -0.225524 -0.389575 0.00223637  -0.208368 -0.416622 0.00161326  -0.184728 -0.420569 0.000327945  -0.177886 -0.39679 0.00149691  -0.225668 -0.389805 0.000769496  -0.208504 -0.416814 0.000475049  -0.201419 -0.393231 0.00186551  -0.178061 -0.397007 0.00044322  -0.20157 -0.393463 0.000609756  -0.246781 -0.460172 0.000345707  -0.23975 -0.436228 0.00167382  -0.221961 -0.464254 0.00115597  -0.197847 -0.468523 0.000131726  -0.191176 -0.444231 0.00108325  -0.239873 -0.436423 0.000487685  -0.222073 -0.464407 0.000237942  -0.215209 -0.440284 0.00137699  -0.19132 -0.444412 0.000226617  -0.215338 -0.440478 0.000351548  -0.260237 -0.508454 0.000112295  -0.253474 -0.484059 0.00117958  -0.235154 -0.512895 0.000756264  -0.210675 -0.517422 -5.03063e-05  -0.204168 -0.492737 0.000721335  -0.253576 -0.484194 0.000222921  -0.235245 -0.513 2.96831e-05  -0.2286 -0.488455 0.000948668  -0.204295 -0.492863 3.79086e-05  -0.228707 -0.488594 0.00013268  -0.273216 -0.557579 -9.90629e-05  -0.266708 -0.532824 0.000749707  -0.247959 -0.562295 0.00041008  -0.223206 -0.567041 -0.000196099  -0.216878 -0.542049 0.000407219  -0.26679 -0.532935 9.05991e-06  -0.24803 -0.562373 -0.000148892  -0.2416 -0.537495 0.000576258  -0.216975 -0.542151 -0.000126481  -0.241686 -0.537608 -6.3777e-05  -0.285733 -0.607336 -0.000271082  -0.279471 -0.582325 0.000378489  -0.260373 -0.612286 0.000113845  -0.23543 -0.617196 -0.000331998  -0.229269 -0.592 0.00013721  -0.279536 -0.582389 -0.0001899  -0.260427 -0.612328 -0.000303626  -0.254207 -0.58722 0.000255227  -0.229353 -0.592058 -0.00026679  -0.254274 -0.58729 -0.000227094  -0.297816 -0.657545 -0.000424147  -0.291782 -0.632355 6.38962e-05  -0.272417 -0.662657 -0.000133634  -0.24735 -0.667697 -0.00043416  -0.241367 -0.642367 -9.10759e-05  -0.291831 -0.632405 -0.000345707  -0.272455 -0.66268 -0.000430942  -0.266436 -0.637417 -1.65701e-05  -0.241426 -0.642411 -0.000386238  -0.266487 -0.63747 -0.00037086  -0.309489 -0.708031 -0.000539541  -0.303669 -0.682749 -0.00019598  -0.284101 -0.713274 -0.000334382  -0.258971 -0.718398 -0.000528336  -0.253144 -0.693017 -0.000278711  -0.303706 -0.682763 -0.000485778  -0.284127 -0.713269 -0.000536323  -0.278295 -0.687935 -0.000240445  -0.253194 -0.693027 -0.000483751  -0.278333 -0.687956 -0.000484347  -0.320801 -0.758652 -0.000638485  -0.315165 -0.733337 -0.000402689  -0.29546 -0.763963 -0.00048995  -0.270307 -0.769146 -0.000590324  -0.264641 -0.743767 -0.000427604  -0.315191 -0.733344 -0.000587702  -0.295476 -0.763948 -0.000616312  -0.289815 -0.7386 -0.000418186  -0.26467 -0.74377 -0.00056231  -0.289841 -0.738611 -0.000579238  -0.331796 -0.809274 -0.0007025  -0.326318 -0.783991 -0.000558615  -0.306527 -0.814629 -0.000603914  -0.281384 -0.819836 -0.000647902  -0.275844 -0.794523 -0.000540018  -0.326339 -0.783971 -0.000673175  -0.306537 -0.814595 -0.000678182  -0.301019 -0.789296 -0.000552654  -0.275873 -0.7945 -0.000621319  -0.301039 -0.789283 -0.000647664  -0.342551 -0.8598 -0.000756621  -0.337187 -0.834583 -0.000668168  -0.317355 -0.865148 -0.000683427  -0.292231 -0.870364 -0.000678539  -0.286816 -0.845144 -0.000621319  -0.337201 -0.834563 -0.00072825  -0.317362 -0.865111 -0.00071907  -0.311963 -0.839894 -0.000647902  -0.28683 -0.845121 -0.000665784  -0.311976 -0.839878 -0.000699997  -0.353142 -0.910154 -0.000784516  -0.347848 -0.885038 -0.000742197  -0.328005 -0.915479 -0.000740647  -0.302893 -0.920687 -0.00071466  -0.297561 -0.895585 -0.000679493  -0.347866 -0.885004 -0.000769496  -0.328007 -0.915436 -0.000754476  -0.322689 -0.890328 -0.000714302  -0.29758 -0.89555 -0.000697136  -0.322704 -0.890302 -0.000735521  -0.363677 -0.960374 -0.000827789  -0.358405 -0.935302 -0.000796676  -0.338557 -0.965646 -0.000794649  -0.313455 -0.970813 -0.000734568  -0.308165 -0.945795 -0.000728607  -0.358409 -0.935277 -0.000804663  -0.338568 -0.965611 -0.000781417  -0.333285 -0.940559 -0.000767469  -0.308172 -0.945767 -0.000724554  -0.333291 -0.940536 -0.000764966  -0.00544886 -0.0106761 0.00286245  0 0 0  -0.00384884 -0.00914986 0.001086  -0.00132773 -0.00354564 0.00123131  0 0 0  -0.00540112 -0.010956 0.00140405  -0.00181746 -0.00464602 0.00155962  0 0 0  -0.00132859 -0.00365907 0.000590086  -0.00181866 -0.00479488 0.000747323  -0.0158805 -0.0269631 0.0047729  -0.0114687 -0.0251562 0.00181496  -0.00729021 -0.0161345 0.00309372  -0.0159222 -0.0274808 0.00233388  -0.0102375 -0.0182378 0.00395286  -0.00729802 -0.0164777 0.0015167  -0.0102162 -0.0186428 0.00192833  -0.0286413 -0.0475145 0.00561655  -0.0213589 -0.0461709 0.00212979  -0.0162288 -0.0345646 0.00414824  -0.028651 -0.0481685 0.0027324  -0.0221024 -0.0367253 0.00530946  -0.0162327 -0.0351335 0.00201786  -0.0221207 -0.0373261 0.00258696  -0.0420791 -0.0719574 0.00567985  -0.0322019 -0.0712859 0.00212967  -0.0266586 -0.0575811 0.00447345  -0.0421746 -0.0726739 0.00273144  -0.0352986 -0.0592478 0.00572145  -0.0266973 -0.0582522 0.00215566  -0.0353647 -0.05996 0.00276971  -0.0557417 -0.100108 0.00528026  -0.0435157 -0.100112 0.00194144  -0.0377125 -0.0845392 0.00430858  -0.0558693 -0.100828 0.00251174  -0.0489135 -0.0855731 0.00551772  -0.0378255 -0.0852507 0.00205028  -0.0490173 -0.0863118 0.00264096  -0.0693157 -0.131731 0.00467324  -0.0550178 -0.132378 0.00167096  -0.0490813 -0.11515 0.00388432  -0.0695018 -0.132396 0.00217509  -0.0625363 -0.115497 0.00499082  -0.0492454 -0.115836 0.0018115  -0.0627019 -0.116205 0.0023483  -0.0827765 -0.166519 0.00399971  -0.0666636 -0.167762 0.00137436  -0.0606158 -0.14907 0.00335729  -0.0829912 -0.167117 0.00181592  -0.0760635 -0.148741 0.0043385  -0.0608269 -0.149696 0.00152278  -0.0762646 -0.149383 0.00199544  -0.0961102 -0.204158 0.00335026  -0.0784122 -0.20595 0.00108945  -0.0722925 -0.185968 0.00281835  -0.0963442 -0.204671 0.00146425  -0.0894518 -0.184995 0.00367081  -0.072522 -0.186525 0.00122988  -0.0896839 -0.185561 0.00163484  -0.109344 -0.244315 0.00274765  -0.0902812 -0.246616 0.000828147  -0.0840953 -0.225511 0.00231099  -0.109575 -0.244756 0.0011456  -0.102739 -0.223934 0.00304234  -0.0843337 -0.22599 0.000955701  -0.102974 -0.224418 0.00129998  -0.122478 -0.286682 0.00221384  -0.102238 -0.289445 0.000596404  -0.0960191 -0.267368 0.00185323  -0.122701 -0.287044 0.000858426  -0.115917 -0.265234 0.00247371  -0.0962468 -0.267778 0.000709176  -0.116151 -0.265644 0.000995755  -0.135519 -0.330948 0.00173843  -0.114285 -0.334133 0.000392556  -0.108039 -0.311232 0.0014478  -0.13572 -0.33125 0.000608802  -0.12901 -0.308587 0.00196922  -0.108254 -0.311572 0.000491619  -0.129224 -0.308926 0.000728607  -0.148444 -0.376838 0.00132442  -0.126366 -0.380399 0.000215054  -0.12013 -0.356803 0.00109267  -0.148626 -0.377076 0.000386953  -0.14199 -0.353699 0.00152528  -0.12032 -0.357084 0.000301242  -0.142188 -0.353977 0.000492692  -0.161244 -0.424078 0.000959039  -0.13847 -0.427972 6.02007e-05  -0.132251 -0.403809 0.000782371  -0.161398 -0.424271 0.000196338  -0.15486 -0.400297 0.00113618  -0.13242 -0.404035 0.00013566  -0.155029 -0.400519 0.000287533  -0.173881 -0.472432 0.000641942  -0.150531 -0.476611 -7.33137e-05  -0.144365 -0.451992 0.000512242  -0.174014 -0.472573 2.69413e-05  -0.167578 -0.448123 0.000795364  -0.144505 -0.452172 -8.46386e-06  -0.167726 -0.448298 0.000107408  -0.186343 -0.521659 0.000364304  -0.162534 -0.526082 -0.000189662  -0.156425 -0.501117 0.000277638  -0.186448 -0.521768 -0.000116587  -0.180135 -0.49694 0.000498533  -0.156544 -0.501253 -0.000132799  -0.180255 -0.497074 -4.8399e-05  -0.198592 -0.571561 0.000126719  -0.174417 -0.576184 -0.000288129  -0.168396 -0.550964 7.56979e-05  -0.198679 -0.57163 -0.000243664  -0.192488 -0.546531 0.00024128  -0.16849 -0.551065 -0.000240326  -0.19259 -0.546627 -0.000183702  -0.210622 -0.621934 -7.61747e-05  -0.186172 -0.62672 -0.000372291  -0.180239 -0.601338 -9.60827e-05  -0.210685 -0.621981 -0.000348091  -0.204635 -0.596691 2.11e-05  -0.180314 -0.601406 -0.000331163  -0.204711 -0.596757 -0.000299215  -0.222406 -0.672619 -0.000244379  -0.197751 -0.677528 -0.000441074  -0.191928 -0.652056 -0.000240088  -0.222456 -0.672634 -0.000438809  -0.216538 -0.647241 -0.00016427  -0.191982 -0.652099 -0.000408053  -0.2166 -0.647279 -0.000396609  -0.233952 -0.723446 -0.000380158  -0.209157 -0.72845 -0.000497222  -0.203437 -0.702962 -0.000356913  -0.233984 -0.723448 -0.000508189  -0.228208 -0.698014 -0.000316143  -0.203478 -0.70298 -0.000470042  -0.22825 -0.698031 -0.000476837  -0.245247 -0.774297 -0.000485182  -0.220358 -0.779364 -0.000540018  -0.214756 -0.753913 -0.000448704  -0.245271 -0.774274 -0.000566363  -0.239624 -0.748869 -0.000436306  -0.214781 -0.753914 -0.000519633  -0.239656 -0.748866 -0.000540257  -0.256316 -0.825043 -0.000563025  -0.231374 -0.830154 -0.00057292  -0.225875 -0.804793 -0.000517726  -0.256327 -0.825015 -0.000606179  -0.250808 -0.799679 -0.000527143  -0.225891 -0.804777 -0.000557065  -0.250827 -0.799663 -0.000589252  -0.267161 -0.875613 -0.000619173  -0.242187 -0.880746 -0.000596523  -0.236796 -0.855503 -0.000567794  -0.26717 -0.875569 -0.000639796  -0.261758 -0.850347 -0.000593424  -0.236803 -0.855478 -0.000585437  -0.261773 -0.850319 -0.000624895  -0.277828 -0.925937 -0.000663638  -0.252842 -0.931076 -0.00061655  -0.24753 -0.905975 -0.000604987  -0.277832 -0.925898 -0.00066185  -0.272514 -0.900797 -0.00064218  -0.247534 -0.905944 -0.000606894  -0.272521 -0.900766 -0.00065279  -0.288367 -0.97602 -0.000704646  -0.263363 -0.981107 -0.000634193  -0.258108 -0.956164 -0.000638127  -0.288379 -0.975972 -0.000686288  -0.283097 -0.951 -0.0006845  -0.25811 -0.956132 -0.000625491  -0.28311 -0.950967 -0.000675082  -0.00251887 -0.00788674 0.00166333  0 0 0  -0.0013998 -0.00754473 0.000526786  -0.000482231 -0.00261706 0.000604987  0 0 0  -0.00252726 -0.00807628 0.000810862  -0.000857141 -0.00291371 0.000915647  0 0 0  -0.000482414 -0.00269997 0.000292778  -0.000851087 -0.00300136 0.000443816  -0.00775102 -0.0232866 0.00273275  -0.00446294 -0.0230035 0.000850558  -0.00272416 -0.0141854 0.00148845  -0.00779992 -0.0237131 0.00132155  -0.00484371 -0.0148129 0.00227547  -0.00273418 -0.0144945 0.00071311  -0.00487794 -0.0151411 0.00110376  -0.0148403 -0.0443119 0.00321484  -0.00894281 -0.0443498 0.000983119  -0.00650588 -0.0325516 0.0019747  -0.0148957 -0.0449039 0.001544  -0.0111181 -0.0331926 0.00303841  -0.00654325 -0.0330636 0.000941873  -0.0111692 -0.0337168 0.00146496  -0.0229641 -0.0698092 0.00324237  -0.0144986 -0.0702853 0.000964165  -0.0115204 -0.0561926 0.0021131  -0.0230778 -0.0704721 0.00153697  -0.0188022 -0.0565552 0.00327122  -0.0116011 -0.0568065 0.000989795  -0.0188823 -0.0571972 0.00156581  -0.0317768 -0.099194 0.00299323  -0.0209044 -0.100151 0.000850677  -0.0174719 -0.0840869 0.00200546  -0.0319272 -0.099875 0.00138724  -0.0272996 -0.0840369 0.00313962  -0.0176017 -0.0847512 0.0009166  -0.0274324 -0.0847201 0.00147438  -0.0410615 -0.132093 0.00261343  -0.028033 -0.133499 0.000690699  -0.0242077 -0.115759 0.00176501  -0.0412561 -0.132723 0.00117624  -0.0363651 -0.115222 0.00281143  -0.0243802 -0.116406 0.000773668  -0.0365373 -0.115892 0.00128841  -0.0507727 -0.168119 0.00219405  -0.0358314 -0.169982 0.00052011  -0.0316468 -0.15076 0.0014708  -0.0509906 -0.168702 0.000941157  -0.0458619 -0.149728 0.00240386  -0.0318485 -0.151364 0.000605822  -0.0460747 -0.150344 0.00105989  -0.0608629 -0.206941 0.00178814  -0.0442444 -0.209218 0.000356674  -0.0397448 -0.188723 0.00117207  -0.0610921 -0.207442 0.000721455  -0.0557718 -0.187192 0.00198758  -0.0399603 -0.189267 0.000436902  -0.0559961 -0.187747 0.000831127  -0.0713131 -0.248202 0.00141513  -0.0532351 -0.250891 0.000208378  -0.0484513 -0.229286 0.000893354  -0.0715379 -0.248645 0.00051415  -0.0660394 -0.227278 0.00159657  -0.0486678 -0.229764 0.000280738  -0.0662736 -0.227758 0.000616193  -0.0820749 -0.291593 0.0010854  -0.0627337 -0.294647 7.90358e-05  -0.0577137 -0.272108 0.000644803  -0.0822878 -0.291956 0.000337481  -0.0766567 -0.269641 0.00124502  -0.0579205 -0.272519 0.000141501  -0.0768763 -0.270055 0.000424862  -0.093111 -0.336788 0.000795603  -0.0726869 -0.340201 -3.34978e-05  -0.0674639 -0.316864 0.000428557  -0.0933036 -0.337101 0.000176907  -0.0875562 -0.313974 0.000935435  -0.0676547 -0.317212 2.11e-05  -0.0877652 -0.314319 0.000255466  -0.104356 -0.383518 0.000545025  -0.0830094 -0.387236 -0.000128865  -0.0776322 -0.363252 0.000242591  -0.104527 -0.383763 4.3869e-05  -0.0987096 -0.359969 0.000665903  -0.0778021 -0.363542 -8.30889e-05  -0.0988916 -0.360258 0.000109792  -0.115763 -0.431496 0.000327706  -0.0936402 -0.435506 -0.000210404  -0.0881397 -0.410991 8.4281e-05  -0.115909 -0.431702 -7.66516e-05  -0.110037 -0.407358 0.000432372  -0.0882876 -0.411227 -0.000170588  -0.110201 -0.40759 -1.75238e-05  -0.127262 -0.480496 0.000141025  -0.104492 -0.484741 -0.000278711  -0.0989133 -0.459821 -5.01871e-05  -0.127385 -0.480645 -0.000174642  -0.121503 -0.455874 0.000230789  -0.099038 -0.460009 -0.000246048  -0.121638 -0.456062 -0.000125766  -0.138808 -0.53027 -1.97887e-05  -0.115508 -0.534735 -0.000336647  -0.109877 -0.509505 -0.000163317  -0.138908 -0.530391 -0.000264168  -0.133027 -0.505291 5.74589e-05  -0.10998 -0.509651 -0.000308394  -0.133144 -0.505433 -0.00022018  -0.150338 -0.580632 -0.000155449  -0.126608 -0.585262 -0.000384331  -0.120964 -0.559827 -0.000258088  -0.150418 -0.580708 -0.00033474  -0.144576 -0.555381 -9.05991e-05  -0.121047 -0.559936 -0.000361562  -0.144666 -0.55549 -0.000299215  -0.161818 -0.631378 -0.000269055  -0.13775 -0.636158 -0.000423908  -0.132111 -0.610594 -0.000335813  -0.161877 -0.631434 -0.000398874  -0.156081 -0.60596 -0.000215054  -0.132174 -0.610669 -0.000404477  -0.156156 -0.606033 -0.000367165  -0.173198 -0.682358 -0.000361562  -0.148868 -0.68724 -0.000454903  -0.143264 -0.66163 -0.000398159  -0.173241 -0.682379 -0.000445962  -0.167521 -0.65684 -0.000317812  -0.14331 -0.661677 -0.00044024  -0.167573 -0.656888 -0.000421882  -0.184459 -0.733409 -0.000434399  -0.159934 -0.738383 -0.000478745  -0.154375 -0.712783 -0.0004462  -0.184487 -0.733419 -0.000488877  -0.178839 -0.707875 -0.000400424  -0.154406 -0.712807 -0.000467062  -0.17888 -0.707897 -0.000467896  -0.195567 -0.784424 -0.000489235  -0.170901 -0.789449 -0.000496268  -0.165408 -0.763921 -0.000481367  -0.195585 -0.784406 -0.000516534  -0.190031 -0.758919 -0.000463843  -0.165427 -0.763925 -0.0004884  -0.190055 -0.758926 -0.00050199  -0.20652 -0.835281 -0.000528693  -0.181759 -0.840356 -0.000508904  -0.176332 -0.814934 -0.000505328  -0.206528 -0.835261 -0.000542045  -0.201058 -0.80987 -0.000510573  -0.176342 -0.814922 -0.000502467  -0.201076 -0.809857 -0.00052917  -0.217302 -0.885917 -0.00055635  -0.192478 -0.891007 -0.000517488  -0.187129 -0.865733 -0.000520706  -0.217305 -0.885878 -0.000556111  -0.211931 -0.860623 -0.000543714  -0.187132 -0.86571 -0.000513673  -0.211936 -0.860603 -0.000547886  -0.227931 -0.936256 -0.00057888  -0.203069 -0.941361 -0.000524282  -0.197788 -0.916248 -0.000530362  -0.22793 -0.936224 -0.000572801  -0.222629 -0.911119 -0.000567794  -0.197786 -0.916219 -0.000520468  -0.222635 -0.911089 -0.000563502  -0.238425 -0.986242 -0.000599742  -0.213521 -0.991316 -0.000531912  -0.20831 -0.966421 -0.00053966  -0.238423 -0.986207 -0.00058496  -0.233191 -0.961294 -0.000589728  -0.208307 -0.966391 -0.000528693  -0.233189 -0.961268 -0.000577807  -0.000361063 -0.00734997 0.000532746  0 0 0  0.000605837 -0.00786242 -2.58684e-05  0.00020843 -0.00280869 -1.26362e-05  0 0 0  -0.000367016 -0.00750646 0.000248432  -0.000121247 -0.00259641 0.000295401  0 0 0  0.000197008 -0.00286284 -1.56164e-05  -0.000130989 -0.00266096 0.000137806  -0.00135612 -0.0225868 0.000858545  0.00153577 -0.0235159 -5.32866e-05  0.00112647 -0.014621 -3.6478e-05  -0.00139481 -0.0229678 0.000397444  -0.000760034 -0.014138 0.000720024  0.00108597 -0.0148768 -3.99351e-05  -0.000773609 -0.0144176 0.00033617  -0.00328821 -0.0439274 0.000987291  0.00201362 -0.0452337 -8.82149e-05  0.00194576 -0.0332686 -6.42538e-05  -0.00336185 -0.0444658 0.000442266  -0.00219843 -0.0325935 0.000942707  0.00186324 -0.0337402 -6.96182e-05  -0.00225294 -0.0330786 0.000429273  -0.00621793 -0.0700784 0.000957608  0.00159073 -0.0717353 -0.000136137  0.00204697 -0.0573876 -0.000111818  -0.00633648 -0.0707004 0.000407934  -0.0046266 -0.056471 0.000987887  0.00192904 -0.0579593 -0.000110149  -0.0047268 -0.0570659 0.000432611  -0.0101423 -0.100298 0.000827193  6.02007e-05 -0.102282 -0.000191331  0.00111926 -0.0859039 -0.00018239  -0.0102965 -0.100943 0.000326753  -0.00805968 -0.0847071 0.000900388  0.0009709 -0.0865391 -0.00016284  -0.00819468 -0.0853578 0.000369549  -0.0150341 -0.134101 0.000650167  -0.00264931 -0.1364 -0.000250578  -0.000977576 -0.118297 -0.000264168  -0.0152156 -0.13471 0.000215769  -0.0124641 -0.116777 0.000742078  -0.00114715 -0.118922 -0.000220656  -0.0126392 -0.117415 0.00027144  -0.0208595 -0.171053 0.000460744  -0.0065285 -0.17367 -0.000306368  -0.00426501 -0.154069 -0.000348091  -0.0210553 -0.171624 0.000106931  -0.0178348 -0.152198 0.000555396  -0.00444508 -0.154663 -0.000278592  -0.0180231 -0.1528 0.000159264  -0.0275602 -0.21079 0.000281572  -0.0115097 -0.213714 -0.000356555  -0.00870168 -0.192824 -0.000425339  -0.0277593 -0.21129 -2.38419e-06  -0.0240982 -0.19059 0.00036943  -0.00888538 -0.193366 -0.000332236  -0.0243028 -0.191135 4.97103e-05  -0.0350728 -0.252935 0.000121593  -0.0175207 -0.256166 -0.000397563  -0.0142155 -0.234175 -0.000490546  -0.0352647 -0.253382 -9.31025e-05  -0.0312208 -0.231573 0.00019896  -0.0143923 -0.234658 -0.000377774  -0.0314163 -0.232057 -5.11408e-05  -0.0433086 -0.297163 -1.51396e-05  -0.0244466 -0.300681 -0.000430584  -0.020708 -0.277761 -0.000541329  -0.0434878 -0.297537 -0.000177264  -0.0390991 -0.274803 5.04255e-05  -0.0208744 -0.278184 -0.000415087  -0.0392914 -0.275221 -0.000137806  -0.0521859 -0.343137 -0.000129819  -0.0321966 -0.34693 -0.000454307  -0.0280759 -0.323243 -0.000577688  -0.0523461 -0.343462 -0.000241637  -0.0476736 -0.31994 -7.49826e-05  -0.0282257 -0.323606 -0.000443101  -0.047843 -0.3203 -0.000212669  -0.0616022 -0.390577 -0.000223517  -0.040643 -0.394617 -0.000470877  -0.0362059 -0.370304 -0.000600576  -0.0617425 -0.390836 -0.000300646  -0.0568256 -0.366686 -0.000178933  -0.036338 -0.37061 -0.000463486  -0.0569822 -0.366984 -0.000273585  -0.0714725 -0.439191 -0.000299573  -0.0496949 -0.443458 -0.000480771  -0.0449885 -0.418654 -0.00061202  -0.0715907 -0.43941 -0.000342846  -0.0664866 -0.414743 -0.000263214  -0.0451003 -0.418907 -0.000476122  -0.0666158 -0.414992 -0.000324607  -0.0816965 -0.488748 -0.000360012  -0.059227 -0.493207 -0.00048542  -0.0543131 -0.468027 -0.000614047  -0.0817947 -0.488911 -0.000382543  -0.0765388 -0.463861 -0.00033164  -0.0544053 -0.468232 -0.000483394  -0.0766531 -0.464059 -0.0003649  -0.0921978 -0.539001 -0.000407577  -0.0691596 -0.54363 -0.000485778  -0.0640765 -0.518183 -0.000608802  -0.092275 -0.539134 -0.000408649  -0.086918 -0.51379 -0.000385165  -0.0641499 -0.518345 -0.000485659  -0.0870053 -0.513948 -0.000398278  -0.102887 -0.589766 -0.000444055  -0.0793794 -0.594529 -0.000483394  -0.0741816 -0.568906 -0.000597954  -0.102947 -0.589853 -0.000434399  -0.0975168 -0.564327 -0.000427127  -0.0742371 -0.56903 -0.000484943  -0.0975908 -0.564443 -0.000423193  -0.113702 -0.640841 -0.000470638  -0.0898228 -0.645716 -0.000478387  -0.0845395 -0.620004 -0.000582695  -0.113744 -0.640907 -0.000448585  -0.108283 -0.615265 -0.000458241  -0.0845788 -0.620094 -0.000480771  -0.108334 -0.615352 -0.000443935  -0.12457 -0.692084 -0.000488281  -0.100394 -0.69704 -0.000471592  -0.0950699 -0.671308 -0.000564575  -0.124599 -0.692113 -0.000463843  -0.119126 -0.666445 -0.000480652  -0.0950952 -0.671368 -0.000475168  -0.119167 -0.6665 -0.000457883  -0.135448 -0.743336 -0.000498414  -0.11105 -0.748357 -0.000463724  -0.105704 -0.722669 -0.000543833  -0.135463 -0.743353 -0.000468731  -0.130011 -0.717706 -0.000494242  -0.105716 -0.722704 -0.0004673  -0.130033 -0.71774 -0.000468612  -0.146281 -0.7945 -0.000502348  -0.121715 -0.79956 -0.000455141  -0.11638 -0.773963 -0.000522137  -0.146287 -0.794489 -0.000476599  -0.140866 -0.76893 -0.000501275  -0.116382 -0.773977 -0.000459313  -0.140882 -0.76894 -0.000474095  -0.157046 -0.84546 -0.000500917  -0.132364 -0.850548 -0.00044632  -0.12705 -0.825086 -0.000499606  -0.157043 -0.845444 -0.000475645  -0.151674 -0.82 -0.00050199  -0.127044 -0.825083 -0.000450492  -0.151675 -0.819997 -0.000478029  -0.167705 -0.896157 -0.000496268  -0.142943 -0.901257 -0.000438094  -0.137674 -0.875955 -0.000477314  -0.167699 -0.896124 -0.000478864  -0.162383 -0.87084 -0.000498891  -0.137663 -0.87594 -0.000442028  -0.162384 -0.870822 -0.000478268  -0.178254 -0.946517 -0.000490665  -0.153448 -0.951625 -0.000430465  -0.148221 -0.926504 -0.000455856  -0.178244 -0.946489 -0.000475764  -0.172993 -0.921371 -0.000493288  -0.148206 -0.926482 -0.000433683  -0.172985 -0.921349 -0.000478864  -0.188658 -0.996464 -0.000486135  -0.163812 -1.00157 -0.000420928  -0.158665 -0.976679 -0.000436544  -0.188649 -0.996427 -0.000478268  -0.183469 -0.971548 -0.00048852  -0.15865 -0.976657 -0.000426531  -0.183465 -0.971522 -0.000477314  0.00161503 -0.0084464 -0.00057435  0 0 0  0.00259788 -0.00969404 -0.000565052  0.000882655 -0.00387609 -0.000614524  0 0 0  0.00158723 -0.0085845 -0.000297904  0.000531957 -0.00323057 -0.000316739  0 0 0  0.000865676 -0.00394839 -0.000305653  0.00053452 -0.00328577 -0.00016129  0.00452489 -0.0243008 -0.000941396  0.00746635 -0.0263587 -0.000937223  0.00493062 -0.0170557 -0.00152278  0.00447166 -0.0246576 -0.000498414  0.00300172 -0.0155834 -0.000782013  0.00486107 -0.017315 -0.000773787  0.00295259 -0.0158373 -0.000412822  0.00745955 -0.0461339 -0.00114071  0.0127801 -0.0486754 -0.00113249  0.0102683 -0.0364525 -0.00204623  0.00735083 -0.0466412 -0.000612497  0.00605196 -0.0345525 -0.00105679  0.0101393 -0.0369016 -0.00106013  0.00596321 -0.0350123 -0.000561595  0.00957578 -0.072778 -0.00123024  0.0173659 -0.0756133 -0.00120378  0.0153593 -0.0610694 -0.0022707  0.00944281 -0.0733719 -0.000670195  0.00864518 -0.0589175 -0.00119543  0.0152035 -0.0616168 -0.00118029  0.00852662 -0.0594835 -0.000647426  0.0104694 -0.103549 -0.00125706  0.0206081 -0.106606 -0.00120604  0.0193451 -0.0900172 -0.00230694  0.0103089 -0.104169 -0.0007025  0.0101982 -0.0876739 -0.00124967  0.0191754 -0.090625 -0.00121403  0.0100414 -0.0882979 -0.000687957  0.00995398 -0.13796 -0.00125086  0.0222505 -0.141208 -0.00116944  0.0218045 -0.122865 -0.00223994  0.00978744 -0.138556 -0.000709772  0.010386 -0.120323 -0.00125706  0.0216355 -0.123474 -0.00118995  0.0102248 -0.120943 -0.000706434  0.00802904 -0.175568 -0.00122833  0.0222537 -0.179029 -0.00111806  0.0226189 -0.159152 -0.00212777  0.00786042 -0.176132 -0.000715375  0.00917119 -0.156383 -0.0012418  0.0224558 -0.159735 -0.00114512  0.00899661 -0.156972 -0.000712514  0.00475788 -0.215983 -0.00119555  0.0206932 -0.219646 -0.00106108  0.021821 -0.198466 -0.00199676  0.00459409 -0.216484 -0.000707746  0.0065546 -0.195441 -0.00121331  0.0216656 -0.199004 -0.00109005  0.00638944 -0.195985 -0.000710487  0.000238061 -0.258807 -0.00115454  0.0176759 -0.262693 -0.0010004  0.0195038 -0.2404 -0.00185966  8.55923e-05 -0.25926 -0.00070107  0.00265229 -0.237109 -0.00117636  0.0193609 -0.240884 -0.00103068  0.00248814 -0.237594 -0.000703931  -0.00540292 -0.303695 -0.00110638  0.0133485 -0.307782 -0.000939727  0.0158015 -0.28457 -0.00172102  -0.00554264 -0.304078 -0.000683546  -0.00245011 -0.281006 -0.00113153  0.0156711 -0.284997 -0.000970244  -0.00259578 -0.281435 -0.000690937  -0.0120471 -0.350292 -0.00105178  0.00784183 -0.354588 -0.000877142  0.0108508 -0.330617 -0.0015825  -0.012169 -0.350628 -0.000667214  -0.00860238 -0.326792 -0.00107992  0.0107361 -0.330985 -0.000908136  -0.00873876 -0.327159 -0.000674725  -0.0195559 -0.398307 -0.000992656  0.00131214 -0.402776 -0.000815988  0.00479925 -0.378207 -0.00144613  -0.0196609 -0.398579 -0.000641465  -0.0157008 -0.374133 -0.00102282  0.00470042 -0.37852 -0.000846624  -0.0158141 -0.374446 -0.00065279  -0.0278125 -0.447438 -0.000929832  -0.00611198 -0.452079 -0.000754476  -0.00221217 -0.427038 -0.00131226  -0.0278981 -0.44767 -0.000618815  -0.0235929 -0.422742 -0.000961542  -0.00229371 -0.427299 -0.000784636  -0.0236938 -0.423 -0.000629306  -0.0366856 -0.497449 -0.000865698  -0.0142827 -0.502219 -0.000695705  -0.0100423 -0.476838 -0.00118303  -0.0367545 -0.497625 -0.000588775  -0.0321785 -0.472341 -0.000898123  -0.0101075 -0.477051 -0.000724912  -0.0322556 -0.472554 -0.000602126  -0.0460705 -0.548092 -0.000801444  -0.0230858 -0.552986 -0.000638485  -0.0185609 -0.527363 -0.00105917  -0.0461214 -0.548236 -0.000563622  -0.0413154 -0.522697 -0.000833511  -0.01861 -0.527532 -0.000666142  -0.0413808 -0.522864 -0.000575066  -0.0558505 -0.599182 -0.000738859  -0.0323883 -0.604157 -0.000585318  -0.0276421 -0.578395 -0.000942469  -0.0558869 -0.59928 -0.000532746  -0.0509163 -0.573585 -0.000770092  -0.0276769 -0.578525 -0.000611305  -0.0509599 -0.573716 -0.000546336  -0.0659385 -0.65052 -0.000678301  -0.0420942 -0.655573 -0.000535369  -0.0371733 -0.629744 -0.00083375  -0.0659602 -0.650596 -0.000508547  -0.0608561 -0.624822 -0.000708222  -0.0371943 -0.62984 -0.000559211  -0.0608907 -0.624916 -0.000519514  -0.0762372 -0.701969 -0.0006212  -0.0520911 -0.70706 -0.000490546  -0.0470471 -0.681244 -0.000734091  -0.0762482 -0.702007 -0.00047946  -0.0710652 -0.676231 -0.000649452  -0.0470572 -0.681309 -0.000512362  -0.0710819 -0.676298 -0.000492096  -0.0866809 -0.753376 -0.000568271  -0.0623047 -0.758506 -0.000449657  -0.0571733 -0.732751 -0.000643969  -0.0866807 -0.7534 -0.000458479  -0.0814395 -0.727678 -0.000594139  -0.0571728 -0.732791 -0.00046885  -0.0814505 -0.727716 -0.000467777  -0.0971937 -0.804649 -0.00052011  -0.0726457 -0.809784 -0.000414848  -0.0674667 -0.784148 -0.000564456  -0.0971866 -0.804644 -0.000433803  -0.0919311 -0.779027 -0.000543594  -0.0674586 -0.784165 -0.000431776  -0.0919273 -0.779047 -0.000443935  -0.107732 -0.85568 -0.00047648  -0.0830636 -0.860826 -0.000384212  -0.0778599 -0.835334 -0.000495195  -0.107718 -0.855669 -0.000417113  -0.102457 -0.830192 -0.00049758  -0.0778456 -0.835334 -0.000398517  -0.102452 -0.830191 -0.000424147  -0.118242 -0.906415 -0.000437021  -0.0934925 -0.91155 -0.000358582  -0.0882931 -0.886238 -0.000434756  -0.118225 -0.906386 -0.000397086  -0.112992 -0.88108 -0.000456214  -0.088275 -0.886224 -0.000371099  -0.112976 -0.88107 -0.000405073  -0.128698 -0.956788 -0.000401378  -0.103899 -0.96193 -0.000335336  -0.0987196 -0.936799 -0.000381589  -0.128678 -0.956765 -0.00038445  -0.123473 -0.931641 -0.000418901  -0.0986984 -0.936779 -0.000346184  -0.12346 -0.931621 -0.000389695  -0.139033 -1.00673 -0.000368118  -0.114205 -1.01189 -0.000316024  -0.10909 -0.986986 -0.000332832  -0.139017 -1.00671 -0.00036931  -0.133886 -0.981818 -0.00038445  -0.109066 -0.986964 -0.000325441  -0.133867 -0.9818 -0.00037539  0.00370403 -0.0111437 -0.00164545  0 0 0  0.00486465 -0.0133513 -0.00109136  0.00166234 -0.00602001 -0.00119007  0 0 0  0.00368901 -0.0112713 -0.00083375  0.00123337 -0.0047673 -0.000905037  0 0 0  0.00160459 -0.00612056 -0.00062263  0.00122563 -0.00488007 -0.000458598  0.0107187 -0.0283284 -0.00270784  0.0140547 -0.0316362 -0.0018177  0.00924715 -0.0216986 -0.00298381  0.0106828 -0.0286902 -0.00137174  0.00696717 -0.019068 -0.00225341  0.0091521 -0.0219425 -0.00150299  0.00694396 -0.0193264 -0.00114334  0.0185856 -0.050827 -0.00323343  0.0244483 -0.0546042 -0.00216448  0.0194238 -0.0421074 -0.00401449  0.0184598 -0.0513291 -0.0016495  0.0146632 -0.0389659 -0.0030303  0.0192581 -0.042569 -0.00202763  0.0145798 -0.0394114 -0.0015378  0.0256653 -0.0778531 -0.00337505  0.0340006 -0.0818361 -0.00226319  0.0295885 -0.0671732 -0.00440264  0.0255258 -0.078439 -0.00173187  0.0222769 -0.0638161 -0.00333893  0.0293917 -0.0677134 -0.00223267  0.0221366 -0.064368 -0.0017134  0.0312622 -0.108959 -0.00329936  0.0418952 -0.113059 -0.00220275  0.0383724 -0.0963633 -0.00439727  0.0310969 -0.109571 -0.00170517  0.0286815 -0.0929177 -0.0033561  0.0381932 -0.0969663 -0.00224352  0.0285228 -0.0935234 -0.00172961  0.0350189 -0.143747 -0.00311744  0.0477475 -0.147947 -0.00207973  0.0452533 -0.129465 -0.00418508  0.0348634 -0.144334 -0.00162518  0.033378 -0.125912 -0.00321627  0.04508 -0.130068 -0.00214577  0.0332125 -0.126523 -0.00167143  0.0369142 -0.181792 -0.00289512  0.0515176 -0.186115 -0.00192535  0.0500386 -0.166067 -0.0038867  0.0367677 -0.182352 -0.00152087  0.0361966 -0.162379 -0.00300932  0.0498911 -0.166647 -0.00200379  0.0360451 -0.162964 -0.0015763  0.0370235 -0.222688 -0.00266075  0.053297 -0.227142 -0.00176632  0.0527827 -0.20576 -0.00355875  0.0368894 -0.223189 -0.00141406  0.0371901 -0.201902 -0.00277853  0.0526475 -0.206296 -0.00184643  0.0370445 -0.202442 -0.00146914  0.0354713 -0.266015 -0.00242698  0.0532141 -0.270614 -0.00160778  0.0535929 -0.248112 -0.00322795  0.0353523 -0.26647 -0.00130212  0.0364457 -0.244062 -0.00254369  0.0534787 -0.248597 -0.00168657  0.0363193 -0.244551 -0.00135982  0.032418 -0.311402 -0.00219905  0.0514507 -0.316139 -0.00145471  0.0526347 -0.292714 -0.00290549  0.0323128 -0.311791 -0.00119722  0.034129 -0.288467 -0.0023123  0.0525323 -0.293142 -0.00153077  0.0340111 -0.288898 -0.00125027  0.0280124 -0.358477 -0.00197852  0.0481607 -0.363349 -0.00130701  0.0500697 -0.33918 -0.00259519  0.0279237 -0.358819 -0.00108981  0.0303742 -0.334738 -0.00208771  0.0499856 -0.339553 -0.00137997  0.0302773 -0.335115 -0.00114477  0.0224231 -0.406931 -0.00176752  0.0435354 -0.411918 -0.00116742  0.046077 -0.387163 -0.00230014  0.0223495 -0.40721 -0.000991821  0.0253628 -0.382544 -0.00187194  0.0460052 -0.387482 -0.00123656  0.0252757 -0.382862 -0.00104129  0.0157962 -0.456454 -0.00156605  0.0377235 -0.461545 -0.00103426  0.0408212 -0.436346 -0.00202048  0.0157393 -0.456694 -0.000892162  0.01923 -0.431565 -0.00166535  0.0407672 -0.436615 -0.00109982  0.0191646 -0.431835 -0.000943065  0.00829077 -0.506805 -0.00137627  0.0309075 -0.511973 -0.000910282  0.034474 -0.486452 -0.00175822  0.00824773 -0.506989 -0.000803232  0.0121512 -0.481535 -0.00146985  0.0344325 -0.486673 -0.000971437  0.0120953 -0.481755 -0.000847936  3.75509e-05 -0.557733 -0.00119901  0.0232195 -0.562962 -0.000794291  0.0271884 -0.537231 -0.00151384  9.77516e-06 -0.557886 -0.00071454  0.00424898 -0.532199 -0.00128603  0.0271627 -0.537408 -0.000850916  0.00421381 -0.532378 -0.00075984  -0.00882006 -0.609053 -0.00103569  0.0148261 -0.614318 -0.000688791  0.019119 -0.588466 -0.00128901  -0.00883603 -0.609159 -0.00063777  -0.00431645 -0.58335 -0.00111556  0.0191038 -0.588604 -0.000740528  -0.00434422 -0.583486 -0.000676036  -0.0181711 -0.66057 -0.000886798  0.00583935 -0.665856 -0.000592947  0.0104005 -0.639968 -0.00108445  -0.0181746 -0.660653 -0.000562429  -0.0134411 -0.634786 -0.000959277  0.0103984 -0.640072 -0.000639439  -0.0134509 -0.63489 -0.000600934  -0.0278935 -0.712149 -0.000753522  -0.00359607 -0.717436 -0.000508428  0.00116634 -0.691576 -0.00090158  -0.0278883 -0.712193 -0.000500441  -0.022985 -0.686355 -0.000818372  0.00117207 -0.691648 -0.000549555  -0.0229905 -0.686425 -0.000531435  -0.0378981 -0.763645 -0.000636458  -0.0133903 -0.768924 -0.000434518  -0.00847125 -0.74315 -0.000740528  -0.037884 -0.763674 -0.000440955  -0.0328658 -0.737904 -0.000693083  -0.00845551 -0.743196 -0.000470281  -0.0328567 -0.737951 -0.000471354  -0.0480876 -0.814969 -0.000536084  -0.0234222 -0.820225 -0.000373125  -0.0184014 -0.794578 -0.000602365  -0.0480683 -0.814969 -0.000395179  -0.0429673 -0.789328 -0.000584364  -0.0183804 -0.794601 -0.00040257  -0.0429568 -0.78935 -0.000418067  -0.0583982 -0.866022 -0.000450492  -0.0336289 -0.871254 -0.00032115  -0.0285368 -0.845769 -0.000486016  -0.058373 -0.866016 -0.000351548  -0.0532315 -0.840523 -0.0004915  -0.0285091 -0.845775 -0.000345707  -0.0532095 -0.84053 -0.000374198  -0.0687568 -0.916761 -0.000377536  -0.0439169 -0.921965 -0.000279188  -0.0387952 -0.896657 -0.000389338  -0.0687308 -0.916735 -0.000319719  -0.0635686 -0.891428 -0.000412583  -0.0387654 -0.89665 -0.000299335  -0.0635478 -0.891419 -0.000335813  -0.0791223 -0.967135 -0.000313044  -0.0542495 -0.972328 -0.00024271  -0.0491157 -0.947201 -0.000307322  -0.0790935 -0.967115 -0.000286937  -0.0739412 -0.941983 -0.000344396  -0.0490813 -0.947187 -0.000259757  -0.0739143 -0.94197 -0.000304699  -0.0894065 -1.01713 -0.000252962  -0.0645258 -1.02235 -0.000205278  -0.059437 -0.997395 -0.000233769  -0.0893791 -1.0171 -0.000261545  -0.084275 -0.99218 -0.000282526  -0.0594032 -0.997381 -0.000225782  -0.0842533 -0.992161 -0.000274062  0.00623162 -0.0158551 -0.00269461  0 0 0  0.00765042 -0.0195366 -0.00162458  0.00256115 -0.00961566 -0.00179887  0 0 0  0.00618173 -0.0160689 -0.00136375  0.00202503 -0.00761896 -0.00146937  0 0 0  0.00248706 -0.00976372 -0.00083065  0.00201549 -0.00774711 -0.000720382  0.0180532 -0.0349442 -0.00448108  0.0224439 -0.0399368 -0.00269973  0.0147696 -0.0292121 -0.00450134  0.0180269 -0.0353619 -0.00224042  0.01173 -0.0250032 -0.00371647  0.0145534 -0.0294401 -0.00222194  0.0117153 -0.0252681 -0.00187945  0.0311745 -0.0580342 -0.00531638  0.0382513 -0.0631099 -0.00320244  0.0306235 -0.0504851 -0.00600874  0.0310192 -0.0585459 -0.00268078  0.0246565 -0.0459229 -0.00500202  0.0304433 -0.0509756 -0.00302076  0.0245464 -0.0464185 -0.00250995  0.0431728 -0.0852219 -0.00549459  0.0526486 -0.0903 -0.00329387  0.0458751 -0.0756106 -0.00653112  0.0430259 -0.085802 -0.0027734  0.0373581 -0.0711045 -0.00546539  0.0456611 -0.07618 -0.00328434  0.0372151 -0.0716695 -0.00276291  0.0533066 -0.116461 -0.00531173  0.0649238 -0.12154 -0.00318801  0.059282 -0.104817 -0.00646877  0.0531319 -0.117058 -0.00269699  0.0485231 -0.100338 -0.0054338  0.0590768 -0.105422 -0.00326264  0.0483407 -0.100946 -0.00275064  0.0611621 -0.151437 -0.00496411  0.0747582 -0.156547 -0.00297666  0.0703356 -0.137991 -0.00611556  0.0610066 -0.15202 -0.00252604  0.0575197 -0.133496 -0.00515079  0.0701498 -0.138593 -0.00308883  0.0573545 -0.1341 -0.00261772  0.0667318 -0.18976 -0.00455189  0.0821127 -0.194928 -0.00272858  0.0789019 -0.17477 -0.00564134  0.0665944 -0.190309 -0.00232732  0.0642349 -0.170201 -0.00476313  0.0787426 -0.175342 -0.0028553  0.0640827 -0.170777 -0.00242865  0.0701108 -0.230987 -0.00412655  0.0870851 -0.236233 -0.00247204  0.0850261 -0.214716 -0.00512588  0.0699888 -0.231484 -0.00211716  0.068686 -0.210031 -0.00434017  0.0848877 -0.215242 -0.00260043  0.0685565 -0.210564 -0.00222135  0.0714403 -0.274678 -0.00370574  0.0898303 -0.280009 -0.00221801  0.0888458 -0.257362 -0.00460827  0.071339 -0.275125 -0.00191283  0.0710256 -0.252545 -0.00391507  0.0887276 -0.257837 -0.00234377  0.0709099 -0.253024 -0.00201356  0.0709103 -0.320425 -0.00330186  0.0905329 -0.325837 -0.00197506  0.0905278 -0.302271 -0.00410533  0.0708206 -0.320812 -0.00171232  0.0713973 -0.297312 -0.00350225  0.0904258 -0.302689 -0.00209534  0.0713015 -0.297738 -0.00181019  0.068688 -0.367844 -0.0029161  0.0893863 -0.373331 -0.00174153  0.0902677 -0.349031 -0.00362432  0.0686173 -0.368182 -0.00152457  0.0700035 -0.343941 -0.00310671  0.0901814 -0.349395 -0.00185609  0.0699191 -0.34431 -0.00161648  0.0649747 -0.416606 -0.00255251  0.0865883 -0.422146 -0.00152349  0.0882547 -0.39728 -0.00316942  0.0649153 -0.416886 -0.00134313  0.0670075 -0.39207 -0.00273204  0.0881829 -0.39759 -0.0016309  0.0669421 -0.392388 -0.00143087  0.0599347 -0.466398 -0.00221074  0.0823292 -0.47198 -0.00131643  0.0846891 -0.446689 -0.00274134  0.0598934 -0.466636 -0.00117612  0.0626141 -0.441384 -0.0023787  0.0846326 -0.446951 -0.0014174  0.0625591 -0.441649 -0.00125742  0.0537596 -0.516967 -0.00189292  0.0767977 -0.522563 -0.00112677  0.0797561 -0.496976 -0.00234294  0.0537279 -0.517153 -0.00101662  0.0569799 -0.491594 -0.00204885  0.0797129 -0.497189 -0.00121975  0.0569429 -0.491814 -0.00109327  0.0465982 -0.568066 -0.00159943  0.0701693 -0.573665 -0.000948787  0.0736425 -0.547886 -0.00197411  0.0465831 -0.568217 -0.00087297  0.0502965 -0.542456 -0.00174296  0.0736129 -0.548059 -0.00103486  0.050269 -0.542631 -0.000942469  0.0386248 -0.619506 -0.00133276  0.0626149 -0.625082 -0.000790596  0.0665178 -0.599209 -0.00163734  0.0386174 -0.619614 -0.000738263  0.0427053 -0.593747 -0.00146294  0.0664997 -0.599341 -0.000867486  0.0426935 -0.593886 -0.000802398  0.0299683 -0.671102 -0.00109255  0.0542893 -0.676646 -0.00064528  0.0585487 -0.650752 -0.00133312  0.0299747 -0.671184 -0.00062108  0.0343778 -0.645287 -0.00120914  0.0585425 -0.650852 -0.00071466  0.0343728 -0.645389 -0.000677347  0.0207808 -0.722718 -0.000881314  0.0453434 -0.728209 -0.00052166  0.0498848 -0.702364 -0.00106347  0.0207925 -0.722765 -0.000514269  0.0254347 -0.696908 -0.000983357  0.0498872 -0.702431 -0.000580907  0.0254431 -0.696981 -0.000564337  0.011169 -0.77422 -0.000698209  0.0359082 -0.779658 -0.00041163  0.0406699 -0.753907 -0.000828862  0.0111911 -0.774249 -0.000425696  0.0160255 -0.748483 -0.000786066  0.0406823 -0.753951 -0.000463009  0.0160379 -0.748527 -0.00046742  0.001261 -0.825522 -0.000545263  0.0261142 -0.830896 -0.000324965  0.0310328 -0.805283 -0.000630856  0.00128627 -0.825524 -0.000348091  0.00624776 -0.799893 -0.0006181  0.0310512 -0.805304 -0.000365615  0.00627065 -0.799918 -0.000383377  -0.00886154 -0.876538 -0.000418901  0.0160656 -0.881858 -0.000250578  0.0210924 -0.856405 -0.000468016  -0.00882864 -0.876532 -0.000288486  -0.00377393 -0.851062 -0.000478625  0.0211189 -0.856411 -0.000284195  -0.00374961 -0.851067 -0.000315905  -0.0191016 -0.927233 -0.000315905  0.00586581 -0.932501 -0.000196099  0.010952 -0.907223 -0.000337958  -0.0190682 -0.92721 -0.000236511  -0.0139699 -0.901919 -0.000364661  0.0109816 -0.907216 -0.000221252  -0.013937 -0.901914 -0.000259638  -0.0294068 -0.97758 -0.00022769  -0.00442076 -0.982823 -0.000148058  0.000697851 -0.95771 -0.000233054  -0.0293696 -0.97756 -0.000196815  -0.0242441 -0.952441 -0.000270367  0.000733376 -0.957697 -0.000170112  -0.024214 -0.952427 -0.000215173  -0.0397012 -1.02763 -0.000147104  -0.0147264 -1.03289 -0.000108957  -0.00961161 -1.00789 -0.000142097  -0.0396659 -1.02761 -0.000159383  -0.0345612 -1.00263 -0.000186801  -0.00957131 -1.00788 -0.000128388  -0.0345252 -1.00262 -0.000176191  0.0106944 -0.0240214 -0.00394726  0 0 0  0.0162957 -0.0302184 -0.00219631  0.00689912 -0.0176123 -0.00254297  0 0 0  0.0106297 -0.0242638 -0.00207496  0.00340683 -0.0122334 -0.00213754  0 0 0  0.00664098 -0.017821 -0.00138426  0.00345884 -0.0125787 -0.000988722  0.0277915 -0.0446676 -0.00630677  0.034976 -0.0514378 -0.00363636  0.0260723 -0.0395882 -0.00607073  0.0280933 -0.0454026 -0.00311136  0.0188114 -0.0340822 -0.00532782  0.0253436 -0.0405516 -0.0029335  0.0189715 -0.0346628 -0.00259638  0.0465192 -0.0676383 -0.00738692  0.055429 -0.0738997 -0.0041405  0.0455318 -0.0615831 -0.00787115  0.0463202 -0.0682469 -0.00369036  0.0373546 -0.0557664 -0.00698864  0.0453821 -0.06201 -0.00392842  0.0373106 -0.0562282 -0.00348055  0.0631771 -0.0946994 -0.00756764  0.0741532 -0.100755 -0.00428283  0.0653206 -0.0860999 -0.00849545  0.0630042 -0.095295 -0.0037936  0.0551031 -0.0806208 -0.00755763  0.065049 -0.0867516 -0.00424862  0.0549137 -0.0812344 -0.00379539  0.0775557 -0.125863 -0.0072993  0.0904865 -0.131823 -0.00412071  0.0828629 -0.115127 -0.00841606  0.0773562 -0.126465 -0.00366771  0.0706993 -0.109753 -0.00747573  0.0826651 -0.115744 -0.00421596  0.0704994 -0.110368 -0.00375605  0.0892636 -0.160923 -0.00679529  0.104057 -0.166873 -0.00385392  0.0978467 -0.148276 -0.00796676  0.0890851 -0.161498 -0.00342047  0.083749 -0.142919 -0.00706649  0.0976246 -0.148877 -0.00399601  0.0835546 -0.143526 -0.00355613  0.0983154 -0.199417 -0.00621378  0.114809 -0.205396 -0.00351667  0.109967 -0.185162 -0.00734591  0.0981593 -0.199956 -0.00313032  0.0941207 -0.179756 -0.00651264  0.109784 -0.185728 -0.00368643  0.0939504 -0.180329 -0.00328088  0.104804 -0.240885 -0.00560176  0.122824 -0.246904 -0.00317729  0.119328 -0.225303 -0.0066638  0.104669 -0.241368 -0.00282764  0.101876 -0.219802 -0.0059098  0.11915 -0.22581 -0.0033468  0.101726 -0.220325 -0.00298095  0.108893 -0.284826 -0.00500369  0.12826 -0.290892 -0.00282896  0.125996 -0.26816 -0.00597274  0.108777 -0.28526 -0.00252783  0.107139 -0.262562 -0.00530207  0.125852 -0.268618 -0.00300193  0.107011 -0.263034 -0.00267851  0.110766 -0.330828 -0.00442231  0.131309 -0.336924 -0.00250399  0.130209 -0.313288 -0.00529873  0.110668 -0.331201 -0.00224042  0.110099 -0.307588 -0.00471091  0.130069 -0.313682 -0.00266492  0.109986 -0.308003 -0.00238383  0.110634 -0.378466 -0.00387359  0.132188 -0.384586 -0.00218344  0.132114 -0.360231 -0.00465286  0.11055 -0.378794 -0.00196469  0.110939 -0.354454 -0.00414503  0.132005 -0.360578 -0.00234282  0.110847 -0.354817 -0.00210214  0.108693 -0.427419 -0.0033536  0.131108 -0.433535 -0.00189281  0.131984 -0.408636 -0.00404203  0.108627 -0.427689 -0.00170732  0.109882 -0.402792 -0.00361049  0.131877 -0.408923 -0.00203645  0.109801 -0.403101 -0.00183523  0.105158 -0.477349 -0.00286949  0.128292 -0.483446 -0.00160897  0.129978 -0.458146 -0.00346792  0.105105 -0.477579 -0.00146317  0.107114 -0.452269 -0.00310767  0.129903 -0.458392 -0.00174963  0.107052 -0.45253 -0.00158453  0.100216 -0.528016 -0.00241899  0.12394 -0.534066 -0.00135708  0.126367 -0.508493 -0.00293398  0.100179 -0.528195 -0.00124002  0.102856 -0.5026 -0.00264025  0.126292 -0.508687 -0.00148118  0.102804 -0.502814 -0.00135028  0.0940671 -0.579158 -0.00200629  0.118263 -0.585148 -0.00111425  0.121299 -0.559406 -0.00244141  0.0940419 -0.579305 -0.0010308  0.0972828 -0.55353 -0.00220799  0.121255 -0.559567 -0.00123465  0.0972496 -0.553704 -0.00113416  0.0868816 -0.630606 -0.00163174  0.111442 -0.636511 -0.000905991  0.115025 -0.610695 -0.00199223  0.0868707 -0.630709 -0.000845551  0.0905981 -0.604849 -0.00181413  0.11498 -0.610809 -0.00100815  0.0905733 -0.604983 -0.000936627  0.0788381 -0.68216 -0.00129652  0.103666 -0.687972 -0.00070858  0.107678 -0.662151 -0.00158787  0.0788364 -0.68224 -0.00067544  0.0829592 -0.656369 -0.00145888  0.107662 -0.662243 -0.000805855  0.0829504 -0.656471 -0.000758767  0.0700867 -0.733713 -0.00100386  0.0950975 -0.739415 -0.000547886  0.0994852 -0.713655 -0.00123096  0.070096 -0.733756 -0.000531197  0.0745463 -0.70794 -0.00114489  0.0994673 -0.713708 -0.000626087  0.0745432 -0.70801 -0.000601292  0.0607824 -0.785116 -0.000752449  0.0859022 -0.790709 -0.000399232  0.09056 -0.765051 -0.000922084  0.0607996 -0.785146 -0.000403166  0.0654974 -0.759428 -0.000872612  0.0905683 -0.76509 -0.000471354  0.0655081 -0.759476 -0.000465393  0.051059 -0.836318 -0.000546813  0.0762253 -0.841799 -0.000289083  0.0811052 -0.816279 -0.00066328  0.0510828 -0.83632 -0.000303268  0.05597 -0.810743 -0.000644088  0.081111 -0.816289 -0.000341773  0.055984 -0.810767 -0.000350952  0.0410419 -0.887221 -0.000380397  0.0662081 -0.892601 -0.000190973  0.0712214 -0.867233 -0.000454783  0.0410731 -0.887218 -0.000218272  0.046082 -0.861797 -0.000458241  0.0712507 -0.867241 -0.000237584  0.0461075 -0.861809 -0.000259042  0.0308471 -0.937832 -0.000252962  0.0559824 -0.94313 -0.000128269  0.0610833 -0.917922 -0.000293016  0.0308788 -0.93781 -0.000158191  0.0359647 -0.912561 -0.000312448  0.0611098 -0.917905 -0.000157952  0.0359919 -0.912555 -0.000186801  0.0205538 -0.98811 -0.000149727  0.0456467 -0.993365 -6.77109e-05  0.0507746 -0.968283 -0.000171304  0.0205929 -0.988099 -0.000105262  0.0257101 -0.962996 -0.00019908  0.0508218 -0.968282 -9.63211e-05  0.0257442 -0.962992 -0.000131726  0.010221 -1.03822 -5.60284e-05  0.0352757 -1.0434 -2.75373e-05  0.0404253 -1.01844 -7.35521e-05  0.0102539 -1.03816 -6.2108e-05  0.0153978 -1.01317 -0.000102878  0.040463 -1.01841 -5.53131e-05  0.0154288 -1.01316 -8.34465e-05  -0.0173519 -0.0226502 0.0080651  -0.00762391 -0.0127456 0.00615525  0 0 0  -0.0104882 -0.0160188 0.00933897  0 0 0  -0.00738313 -0.0128764 0.0054841  -0.00248993 -0.00576954 0.00420308  0 0 0  -0.00763642 -0.0136859 0.00440371  -0.010736 -0.0171565 0.00671983  -0.00339632 -0.00805286 0.00512362  0 0 0  -0.00258351 -0.00609884 0.00303495  -0.00355146 -0.00870387 0.00363266  -0.0369908 -0.0379005 0.0125184  -0.0269063 -0.0282765 0.0146747  -0.0273967 -0.0317616 0.0148994  -0.0212499 -0.0291995 0.0090338  -0.0134775 -0.0195643 0.0104136  -0.027052 -0.0298076 0.010512  -0.0278383 -0.0332467 0.0108565  -0.0186572 -0.0236516 0.0126392  -0.0138915 -0.0207037 0.00759077  -0.0189468 -0.0249004 0.00925291  -0.0578848 -0.0560443 0.014384  -0.0472686 -0.0444737 0.0187722  -0.046228 -0.0504032 0.0169222  -0.0368604 -0.0489663 0.0104973  -0.0286383 -0.0369186 0.0135409  -0.0473985 -0.0464341 0.013829  -0.046378 -0.0522721 0.0125263  -0.0367789 -0.0404996 0.016258  -0.028901 -0.0385686 0.00999117  -0.0370045 -0.0422612 0.0119256  -0.078764 -0.0776122 0.0144514  -0.0682249 -0.064209 0.0197632  -0.0647477 -0.0728979 0.016906  -0.0528921 -0.0725296 0.0105803  -0.0446534 -0.0583847 0.0143307  -0.0683891 -0.0663533 0.0145577  -0.0650096 -0.0748808 0.012573  -0.0555352 -0.0611424 0.0171114  -0.0448598 -0.060257 0.0106767  -0.0557202 -0.0630965 0.0127146  -0.0989516 -0.102999 0.0135251  -0.0887446 -0.0876664 0.0189654  -0.0828047 -0.0994275 0.0157002  -0.0687746 -0.0999308 0.0098511  -0.0605114 -0.0838764 0.0137495  -0.0889792 -0.0898149 0.0140914  -0.0831445 -0.101349 0.011719  -0.0738573 -0.0856531 0.0163987  -0.0608579 -0.0857612 0.0102895  -0.0741491 -0.0876477 0.0122235  -0.118238 -0.132075 0.0120922  -0.108383 -0.115138 0.0172539  -0.100166 -0.129663 0.014016  -0.0843187 -0.130855 0.00877762  -0.0761203 -0.113206 0.0124878  -0.108718 -0.117113 0.0128216  -0.10064 -0.131396 0.0104582  -0.0915669 -0.11411 0.0148972  -0.0765895 -0.114965 0.00934434  -0.0919701 -0.115949 0.011127  -0.136649 -0.164551 0.0105262  -0.127141 -0.146155 0.0152097  -0.116969 -0.163245 0.0121913  -0.0994924 -0.165044 0.00759709  -0.0913689 -0.145983 0.010975  -0.127562 -0.14791 0.0113235  -0.117498 -0.164768 0.00907552  -0.108634 -0.146039 0.0131078  -0.0919461 -0.147558 0.00819492  -0.109142 -0.14769 0.00976861  -0.154247 -0.20009 0.00899231  -0.145087 -0.180475 0.0131314  -0.133204 -0.199814 0.0104244  -0.114333 -0.202128 0.00645363  -0.106329 -0.181878 0.00944424  -0.145554 -0.181979 0.00973594  -0.133779 -0.201107 0.00773072  -0.125153 -0.181184 0.0112988  -0.10695 -0.183243 0.00702143  -0.125707 -0.182597 0.00839901  -0.171116 -0.238348 0.00756824  -0.162289 -0.217628 0.0111738  -0.148977 -0.238997 0.00880003  -0.128865 -0.241792 0.00540018  -0.120999 -0.220486 0.00800204  -0.162778 -0.218902 0.00827074  -0.149534 -0.240091 0.0064913  -0.141143 -0.219082 0.00959468  -0.121632 -0.221653 0.00591767  -0.141715 -0.220291 0.00709414  -0.187327 -0.279003 0.00629437  -0.178836 -0.25735 0.0093956  -0.164282 -0.280484 0.00733733  -0.143124 -0.2837 0.00445461  -0.135423 -0.261504 0.00669706  -0.179307 -0.258411 0.00690544  -0.164819 -0.281388 0.00537694  -0.156685 -0.259474 0.00805175  -0.136026 -0.262484 0.00491738  -0.157233 -0.260478 0.00592196  -0.202937 -0.321744 0.00515223  -0.194768 -0.299252 0.00780487  -0.179184 -0.323953 0.00603986  -0.157116 -0.327563 0.00361943  -0.149588 -0.304583 0.00552976  -0.195212 -0.300131 0.00571132  -0.179664 -0.324702 0.00438952  -0.17178 -0.301972 0.00667048  -0.15015 -0.305401 0.00402653  -0.172292 -0.302812 0.00486588  -0.217988 -0.366287 0.00415266  -0.210141 -0.343101 0.00639534  -0.193663 -0.369138 0.00488985  -0.170848 -0.373084 0.00287879  -0.163512 -0.34946 0.00449884  -0.210536 -0.343821 0.00463068  -0.194096 -0.369742 0.0035162  -0.186474 -0.346347 0.00544977  -0.164013 -0.350132 0.00324011  -0.186931 -0.34703 0.00394166  -0.232506 -0.412359 0.00325978  -0.22497 -0.388563 0.00514746  -0.207755 -0.415758 0.00387645  -0.18431 -0.420011 0.00223255  -0.177169 -0.395836 0.00358629  -0.225318 -0.389148 0.0036962  -0.208122 -0.416247 0.00274789  -0.200754 -0.392269 0.00436819  -0.177611 -0.396383 0.00254643  -0.201157 -0.392828 0.0031172  -0.246513 -0.459711 0.00248575  -0.239284 -0.435435 0.00404751  -0.221437 -0.463584 0.00298214  -0.197494 -0.468085 0.00165868  -0.190558 -0.443481 0.00278473  -0.239578 -0.435901 0.00285482  -0.221753 -0.463963 0.00207078  -0.214645 -0.439534 0.00341678  -0.190935 -0.443917 0.00193787  -0.214987 -0.439975 0.00239992  -0.260022 -0.508104 0.00179601  -0.253089 -0.483424 0.00307894  -0.234729 -0.512369 0.00220096  -0.210385 -0.517087 0.00116563  -0.203655 -0.492138 0.00207996  -0.253335 -0.48379 0.00213194  -0.234983 -0.512662 0.00148082  -0.228128 -0.487855 0.00257885  -0.203974 -0.492479 0.00140369  -0.228415 -0.488205 0.00176299  -0.27305 -0.557323 0.00120938  -0.266403 -0.532356 0.00223362  -0.247612 -0.561915 0.0015204  -0.222973 -0.566797 0.00072968  -0.216454 -0.541606 0.00146759  -0.266599 -0.532633 0.00148666  -0.247821 -0.562126 0.000966549  -0.241219 -0.537057 0.00184941  -0.216715 -0.541864 0.000940561  -0.241452 -0.537317 0.00121498  -0.285609 -0.607161 0.000694036  -0.279237 -0.581972 0.00150287  -0.260109 -0.61201 0.000939965  -0.23525 -0.617028 0.00036788  -0.228936 -0.591666 0.000939012  -0.279392 -0.582175 0.000942945  -0.260267 -0.612159 0.000529647  -0.253905 -0.586891 0.00121868  -0.229148 -0.591854 0.000540972  -0.254091 -0.587084 0.000736117  -0.297728 -0.657438 0.000275135  -0.291609 -0.632127 0.000882626  -0.272213 -0.662489 0.000451446  -0.247215 -0.667594 5.47171e-05  -0.241104 -0.642149 0.000492692  -0.291726 -0.632266 0.000469685  -0.272337 -0.662577 0.000160694  -0.266206 -0.63721 0.000684857  -0.241268 -0.642277 0.000204206  -0.266349 -0.637336 0.000336289  -0.309429 -0.707982 -7.84397e-05  -0.303548 -0.6826 0.000369787  -0.283957 -0.713176 5.76973e-05  -0.258873 -0.718348 -0.000187159  -0.252953 -0.692875 0.000124574  -0.303634 -0.682686 8.9407e-05  -0.284042 -0.713221 -0.000134945  -0.278126 -0.687803 0.000243545  -0.253079 -0.692953 -7.39098e-05  -0.278232 -0.687882 1.3113e-06  -0.320761 -0.75865 -0.000338793  -0.315079 -0.733278 -3.8147e-05  -0.295353 -0.76394 -0.000249267  -0.27024 -0.769141 -0.000386357  -0.264497 -0.743708 -0.000167012  -0.315142 -0.733319 -0.000222206  -0.295418 -0.763945 -0.000367284  -0.289692 -0.738553 -0.000106454  -0.264589 -0.743745 -0.000293493  -0.289771 -0.738587 -0.000259876  -0.331767 -0.809307 -0.00054121  -0.32626 -0.783979 -0.000344038  -0.306452 -0.814647 -0.000470161  -0.281337 -0.819864 -0.000519872  -0.27575 -0.794509 -0.000386953  -0.326306 -0.783987 -0.000449061  -0.306495 -0.814626 -0.000532866  -0.300934 -0.789295 -0.000369549  -0.275817 -0.794514 -0.000459671  -0.30099 -0.789299 -0.000460505  -0.342524 -0.859856 -0.00066483  -0.337133 -0.834627 -0.000556111  -0.317293 -0.865205 -0.000622511  -0.292198 -0.870414 -0.000626922  -0.286742 -0.845179 -0.000543118  -0.337174 -0.83461 -0.000613213  -0.317329 -0.865164 -0.000650883  -0.311896 -0.839944 -0.000553846  -0.286791 -0.845162 -0.000577688  -0.31194 -0.839922 -0.00059855  -0.35311 -0.910221 -0.000762105  -0.347798 -0.885098 -0.000694871  -0.327945 -0.915549 -0.000729084  -0.302866 -0.920745 -0.000694752  -0.297514 -0.895637 -0.000652909  -0.347837 -0.885066 -0.000719428  -0.327976 -0.915499 -0.000729322  -0.322638 -0.890396 -0.000678658  -0.297551 -0.895606 -0.000662565  -0.322672 -0.890362 -0.000695348  -0.363631 -0.960437 -0.000825405  -0.358311 -0.935379 -0.000795722  -0.338485 -0.965703 -0.000829339  -0.313424 -0.970866 -0.000771403  -0.30812 -0.945852 -0.000746608  -0.358371 -0.935345 -0.000792861  -0.338531 -0.965668 -0.000809908  -0.333217 -0.940636 -0.000777721  -0.308145 -0.945825 -0.000733852  -0.333257 -0.940598 -0.000771999  -0.00552025 -0.00958902 0.00607562  0 0 0  -0.0038662 -0.00852057 0.00347769  -0.00134193 -0.00307344 0.00264454  0 0 0  -0.00542845 -0.0102343 0.00441051  -0.00184327 -0.00413437 0.0033505  0 0 0  -0.00132481 -0.00336592 0.00191021  -0.00182051 -0.00444102 0.00242138  -0.0159545 -0.0247309 0.00988781  -0.0114848 -0.0238883 0.0056715  -0.00738795 -0.0146062 0.00645733  -0.0159502 -0.0260857 0.00728548  -0.010326 -0.016544 0.00826252  -0.00732817 -0.0155121 0.0047282  -0.0102567 -0.017567 0.00605059  -0.0285068 -0.0446135 0.011452  -0.0212789 -0.0444453 0.00665557  -0.0161965 -0.0321335 0.00849593  -0.0285909 -0.0463391 0.00852156  -0.0220832 -0.0340985 0.0108852  -0.016209 -0.0336017 0.00630462  -0.0221143 -0.0356826 0.00807321  -0.0417215 -0.0688558 0.0114965  -0.0319657 -0.0693651 0.00672293  -0.0263841 -0.0546829 0.00906372  -0.0419633 -0.0706674 0.00861216  -0.0350792 -0.0562109 0.0116042  -0.0265431 -0.0563956 0.00678098  -0.0352349 -0.0580107 0.00867236  -0.0550943 -0.0970778 0.0106993  -0.0431161 -0.0981987 0.00626147  -0.0371789 -0.0815604 0.00872457  -0.0554916 -0.0988501 0.00801611  -0.0484008 -0.0824705 0.0111618  -0.0375047 -0.0833117 0.00653911  -0.0487207 -0.0842983 0.00836527  -0.0684616 -0.128936 0.00953698  -0.0544866 -0.130587 0.00555062  -0.0483073 -0.112307 0.00791657  -0.0689839 -0.130558 0.00713646  -0.0617798 -0.112568 0.0101414  -0.0487747 -0.113971 0.00592494  -0.0622486 -0.114284 0.00759566  -0.081786 -0.164038 0.00826347  -0.0660495 -0.166152 0.00476944  -0.0596833 -0.146477 0.00692546  -0.0823826 -0.165479 0.00615454  -0.0751258 -0.14609 0.00890017  -0.0602464 -0.14799 0.00516248  -0.0756942 -0.147639 0.00664473  -0.095071 -0.202 0.00703537  -0.0777644 -0.204539 0.00400734  -0.0712795 -0.183674 0.00591648  -0.0956947 -0.203246 0.00521302  -0.0884283 -0.182673 0.00763893  -0.0718856 -0.185012 0.00438356  -0.0890484 -0.184027 0.00567639  -0.108317 -0.242476 0.005898  -0.0896401 -0.245404 0.00330758  -0.0830728 -0.223519 0.00496566  -0.108929 -0.243541 0.00433457  -0.101695 -0.22193 0.00645173  -0.0836837 -0.224678 0.00364935  -0.102321 -0.223098 0.00476158  -0.121512 -0.285128 0.00488269  -0.101633 -0.288419 0.00268161  -0.0950381 -0.265668 0.00410485  -0.122087 -0.286021 0.0035584  -0.114916 -0.263538 0.00537527  -0.0956209 -0.266659 0.00298607  -0.115517 -0.264526 0.00393546  -0.134637 -0.329655 0.00397742  -0.113733 -0.333276 0.00213003  -0.107134 -0.309796 0.00333905  -0.13516 -0.330402 0.00286222  -0.12808 -0.30716 0.00441551  -0.107673 -0.310631 0.0023973  -0.128635 -0.307993 0.00319898  -0.147665 -0.375771 0.00318265  -0.125877 -0.379694 0.00164545  -0.119318 -0.355607 0.00266421  -0.148128 -0.376381 0.00225806  -0.141159 -0.35252 0.0035671  -0.119799 -0.356305 0.00188017  -0.141658 -0.353208 0.00255108  -0.160566 -0.423214 0.00248027  -0.138048 -0.427401 0.00122297  -0.131541 -0.402825 0.00207186  -0.160967 -0.423712 0.00172031  -0.154128 -0.399327 0.00281978  -0.131963 -0.403398 0.00142717  -0.154565 -0.399894 0.00198066  -0.17331 -0.471741 0.0018667  -0.150175 -0.476159 0.000854135  -0.143755 -0.451197 0.00155377  -0.17365 -0.472132 0.00125635  -0.166954 -0.447346 0.00216305  -0.144116 -0.451662 0.00103223  -0.167329 -0.4478 0.00148129  -0.185866 -0.521123 0.00132978  -0.162241 -0.525734 0.00053525  -0.155915 -0.500485 0.00110292  -0.186148 -0.52143 0.000846148  -0.179608 -0.496323 0.00158858  -0.156219 -0.500854 0.000688791  -0.179923 -0.496686 0.00104463  -0.198209 -0.571155 0.000867367  -0.174183 -0.575926 0.000261068  -0.167978 -0.550478 0.00071311  -0.198438 -0.571381 0.000498056  -0.19206 -0.546059 0.00108969  -0.168226 -0.550764 0.000392795  -0.19232 -0.546336 0.00066638  -0.210318 -0.621644 0.000472903  -0.185991 -0.62654 3.02792e-05  -0.179907 -0.600974 0.000380874  -0.210498 -0.621809 0.000196934  -0.204289 -0.596339 0.00066185  -0.180107 -0.601188 0.00014019  -0.204497 -0.596548 0.000342011  -0.222178 -0.672422 0.000145197  -0.197616 -0.677413 -0.000161529  -0.19167 -0.6518 0.000102401  -0.222315 -0.672527 -4.8995e-05  -0.216274 -0.646996 0.000301123  -0.191824 -0.651953 -7.06911e-05  -0.216437 -0.647141 6.90222e-05  -0.233783 -0.723331 -0.000119686  -0.209062 -0.72839 -0.000313401  -0.203247 -0.702794 -0.000124097  -0.233883 -0.723395 -0.000251293  -0.228007 -0.697854 5.126e-06  -0.203363 -0.702895 -0.000242591  -0.22813 -0.697952 -0.000154734  -0.245131 -0.774244 -0.000323892  -0.220295 -0.779349 -0.00043118  -0.21462 -0.753819 -0.00030148  -0.245202 -0.774265 -0.000403643  -0.239482 -0.748783 -0.000228882  -0.214702 -0.753878 -0.000376701  -0.239572 -0.748837 -0.000331879  -0.256234 -0.82504 -0.000474215  -0.231335 -0.830173 -0.000516295  -0.225783 -0.804755 -0.000433803  -0.256282 -0.825039 -0.000519633  -0.250708 -0.799647 -0.000404954  -0.225841 -0.80478 -0.000477552  -0.250771 -0.799672 -0.000464797  -0.267109 -0.875641 -0.000581145  -0.242165 -0.880787 -0.000578046  -0.236735 -0.855509 -0.000529289  -0.267141 -0.875615 -0.000598907  -0.261693 -0.850358 -0.00053215  -0.236773 -0.855509 -0.000549793  -0.261737 -0.850356 -0.000561714  -0.277785 -0.925979 -0.000665903  -0.252828 -0.931125 -0.000626802  -0.247492 -0.906004 -0.000599027  -0.277811 -0.925952 -0.000665665  -0.272465 -0.900831 -0.000624418  -0.247517 -0.905991 -0.000602961  -0.272497 -0.900818 -0.000631332  -0.288335 -0.976047 -0.000745535  -0.263346 -0.981146 -0.000674605  -0.258073 -0.956194 -0.000664353  -0.288355 -0.976019 -0.000724435  -0.28306 -0.951035 -0.000706911  -0.258096 -0.956179 -0.000651836  -0.283089 -0.95102 -0.000695109  -0.0025536 -0.00697336 0.00351179  0 0 0  -0.00139302 -0.00704014 0.00168204  -0.000484984 -0.0022535 0.00129795  0 0 0  -0.00253977 -0.00751573 0.00255728  -0.000867151 -0.00248715 0.00197148  0 0 0  -0.000478216 -0.00248453 0.000933409  -0.000852823 -0.00275359 0.00141847  -0.00776109 -0.0214162 0.00564539  -0.00440922 -0.0219065 0.0027262  -0.0027017 -0.0128748 0.00311017  -0.00778286 -0.0225374 0.00417364  -0.004893 -0.0134177 0.00473881  -0.00271061 -0.0136848 0.0022856  -0.00488406 -0.0142635 0.00348043  -0.0146554 -0.041734 0.00655532  -0.00878403 -0.0427898 0.00317729  -0.00635722 -0.0303946 0.00406003  -0.0147779 -0.0432664 0.00488734  -0.0110472 -0.0309193 0.00622749  -0.00644168 -0.0317061 0.0030129  -0.0111095 -0.0322807 0.00462675  -0.0225452 -0.0669592 0.00657821  -0.014206 -0.0685075 0.00318456  -0.0111654 -0.053544 0.00431287  -0.0228138 -0.0686269 0.00492728  -0.0185042 -0.0537825 0.00664592  -0.0113766 -0.0551077 0.00322378  -0.018695 -0.0554242 0.00496733  -0.0311129 -0.0963634 0.00610399  -0.0204852 -0.0983462 0.00291979  -0.0169004 -0.0813169 0.00411129  -0.0315146 -0.098019 0.0045712  -0.0267532 -0.0811631 0.0063827  -0.0172432 -0.0829422 0.0030731  -0.0270913 -0.0828497 0.00478113  -0.0402256 -0.129424 0.0053941  -0.0275194 -0.13178 0.00252903  -0.0234684 -0.11306 0.00367022  -0.0407284 -0.130971 0.00402224  -0.0356029 -0.112451 0.00576532  -0.0239093 -0.114634 0.00273383  -0.0360618 -0.114077 0.00430751  -0.0498335 -0.165711 0.00461638  -0.0352631 -0.168408 0.00209999  -0.030798 -0.148252 0.00313151  -0.0503926 -0.167112 0.00342381  -0.0449667 -0.147177 0.00500643  -0.0313025 -0.149713 0.00231516  -0.0455059 -0.148668 0.00372267  -0.0598921 -0.204805 0.00386465  -0.0436594 -0.207815 0.00168681  -0.0388493 -0.186462 0.00258768  -0.0604683 -0.206038 0.0028367  -0.0548048 -0.184914 0.00423515  -0.0393794 -0.187778 0.00189102  -0.05538 -0.186248 0.003124  -0.0703645 -0.246358 0.00317228  -0.0526649 -0.249668 0.00131023  -0.0475616 -0.227292 0.00207973  -0.0709248 -0.247428 0.00230408  -0.065076 -0.225283 0.00351036  -0.0480869 -0.228451 0.00149405  -0.0656512 -0.226448 0.0025624  -0.081187 -0.290009 0.00255775  -0.0622001 -0.293597 0.000979304  -0.0568686 -0.27038 0.0016253  -0.0817113 -0.29092 0.00182509  -0.0757303 -0.267925 0.00285602  -0.0573665 -0.271384 0.00114024  -0.0762789 -0.26893 0.00205541  -0.0923054 -0.335459 0.00201488  -0.0722045 -0.339313 0.000692606  -0.0666894 -0.315387 0.00122857  -0.0927799 -0.33623 0.00140989  -0.0867093 -0.312515 0.00227785  -0.0671453 -0.316245 0.000831366  -0.0872136 -0.313367 0.00160956  -0.103646 -0.382404 0.00154257  -0.082585 -0.386497 0.000446796  -0.0769421 -0.362008 0.000885367  -0.104064 -0.383041 0.00104368  -0.0979464 -0.358747 0.00177073  -0.0773482 -0.36273 0.000565767  -0.098398 -0.359464 0.00121868  -0.11515 -0.43059 0.00113082  -0.0932766 -0.434901 0.000237346  -0.0875412 -0.409956 0.000591636  -0.115511 -0.431115 0.000731349  -0.109377 -0.406346 0.0013299  -0.0878935 -0.410557 0.000338197  -0.109771 -0.406938 0.000880957  -0.126746 -0.479759 0.000775695  -0.104188 -0.484255 6.00815e-05  -0.0984062 -0.458975 0.000340939  -0.127051 -0.480177 0.000456452  -0.120934 -0.455052 0.00094676  -0.0987049 -0.459466 0.000145555  -0.121272 -0.455537 0.000587106  -0.138383 -0.529697 0.000469327  -0.115261 -0.534355 -8.90493e-05  -0.109459 -0.508826 0.000129461  -0.138634 -0.530028 0.000225782  -0.132559 -0.504633 0.00061667  -0.109706 -0.50922 -1.7643e-05  -0.13284 -0.505019 0.000335693  -0.149999 -0.580188 0.00020957  -0.126415 -0.584975 -0.000212908  -0.120628 -0.559296 -4.82798e-05  -0.1502 -0.580437 2.46763e-05  -0.144191 -0.55487 0.000333667  -0.120827 -0.559604 -0.000153542  -0.144421 -0.555175 0.00011909  -0.161554 -0.631057 -8.22544e-06  -0.137604 -0.635952 -0.000313163  -0.131851 -0.610191 -0.000193834  -0.161711 -0.631242 -0.000138164  -0.155782 -0.605574 9.56059e-05  -0.132005 -0.610424 -0.000265837  -0.155965 -0.605802 -6.1512e-05  -0.173003 -0.682131 -0.000185013  -0.148764 -0.687102 -0.000392318  -0.14307 -0.661339 -0.000310898  -0.173119 -0.682253 -0.000275493  -0.167288 -0.656564 -0.000101686  -0.143186 -0.661507 -0.000355005  -0.167429 -0.656731 -0.00021255  -0.184321 -0.733271 -0.000324488  -0.159866 -0.738304 -0.000451326  -0.15424 -0.712586 -0.000400305  -0.184403 -0.73335 -0.000378728  -0.178675 -0.70769 -0.000259399  -0.154321 -0.7127 -0.000424147  -0.178778 -0.707801 -0.000331759  -0.195478 -0.784348 -0.0004282  -0.170863 -0.789417 -0.000492573  -0.165322 -0.763802 -0.000465393  -0.195532 -0.784383 -0.000460744  -0.189914 -0.758811 -0.000380635  -0.165374 -0.763871 -0.000473499  -0.189987 -0.758881 -0.000424623  -0.206467 -0.835264 -0.000502348  -0.181743 -0.84036 -0.00051856  -0.176286 -0.814878 -0.00050807  -0.206499 -0.835272 -0.000514388  -0.200989 -0.80982 -0.000468731  -0.176316 -0.81491 -0.000507355  -0.201037 -0.809853 -0.000491142  -0.217275 -0.885929 -0.000553131  -0.192478 -0.891036 -0.000534296  -0.187112 -0.865723 -0.000533938  -0.217292 -0.885913 -0.00055635  -0.211887 -0.860618 -0.000530124  -0.187125 -0.865728 -0.000527382  -0.211917 -0.860628 -0.000538945  -0.227915 -0.936287 -0.000594974  -0.203075 -0.941397 -0.000545859  -0.197788 -0.916264 -0.000549078  -0.227925 -0.936267 -0.000585079  -0.22261 -0.911138 -0.000573874  -0.19779 -0.916253 -0.000540018  -0.222627 -0.911131 -0.000571728  -0.238393 -0.986255 -0.000635624  -0.213523 -0.991341 -0.00055635  -0.208314 -0.966435 -0.00056541  -0.238415 -0.98624 -0.000615716  -0.233166 -0.961316 -0.00061655  -0.208312 -0.966424 -0.000551462  -0.233184 -0.961308 -0.000602722  -0.000321642 -0.00659326 0.00113678  0 0 0  0.000651166 -0.00743023 -2.80142e-05  0.000227354 -0.00250408 -3.00407e-05  0 0 0  -0.000340395 -0.00704405 0.000826955  -0.000111412 -0.00227213 0.000631928  0 0 0  0.000210807 -0.00268772 -1.43051e-05  -0.000121422 -0.00247005 0.000458479  -0.00121005 -0.0209251 0.00178945  0.00167486 -0.0225245 -5.31673e-05  0.00126126 -0.0134642 -6.10352e-05  -0.00129865 -0.021929 0.00132096  -0.000673756 -0.0129222 0.00151312  0.00117329 -0.0141634 -4.08888e-05  -0.000717968 -0.0136645 0.00111115  -0.00296772 -0.0415745 0.00203979  0.00226519 -0.0437908 -9.40561e-05  0.00224912 -0.0313034 -9.76324e-05  -0.00315779 -0.0429714 0.00152278  -0.00197211 -0.030549 0.0019567  0.00205895 -0.0324983 -7.03335e-05  -0.00210729 -0.0317864 0.0014534  -0.00571409 -0.0674298 0.00199652  0.00194198 -0.0700609 -0.00016892  0.002518 -0.0549106 -0.000167131  -0.00601435 -0.0689807 0.00149119  -0.00421518 -0.0539195 0.00204611  0.0022333 -0.0563704 -0.000128269  -0.00446203 -0.055428 0.00152862  -0.00948536 -0.0976105 0.00176883  0.000485122 -0.100557 -0.000267386  0.00172108 -0.0832693 -0.000273108  -0.00987375 -0.0991828 0.00130987  -0.00746977 -0.0820101 0.00189626  0.0013628 -0.0848221 -0.000216603  -0.00781894 -0.0835995 0.00141275  -0.0142733 -0.13152 0.00145733  -0.00217813 -0.13473 -0.000375628  -0.00028795 -0.115683 -0.000398874  -0.014722 -0.133019 0.00106752  -0.0117516 -0.114121 0.00161779  -0.000695944 -0.117214 -0.000321269  -0.0121768 -0.115678 0.00119436  -0.0200455 -0.16868 0.00112534  -0.00603771 -0.172118 -0.000480056  -0.00352657 -0.151601 -0.000526428  -0.0205243 -0.170062 0.000800729  -0.017036 -0.149707 0.00128973  -0.00396067 -0.153046 -0.000428915  -0.0175065 -0.151168 0.000935435  -0.0267402 -0.208652 0.000810862  -0.0110229 -0.212312 -0.000571012  -0.00795507 -0.190564 -0.000642538  -0.0272216 -0.209888 0.000554681  -0.0232782 -0.188325 0.000963807  -0.00839394 -0.191886 -0.000527263  -0.023765 -0.189651 0.000676513  -0.0342838 -0.251061 0.000530958  -0.0170568 -0.254925 -0.000643849  -0.0134898 -0.232155 -0.000737548  -0.0347459 -0.252151 0.000328779  -0.0304071 -0.22956 0.000665545  -0.0139148 -0.233336 -0.000609636  -0.0308852 -0.23074 0.00044024  -0.0425776 -0.295533 0.000290751  -0.0240198 -0.299603 -0.000695944  -0.0200307 -0.275988 -0.000808358  -0.0430058 -0.296473 0.000141978  -0.0383382 -0.273046 0.000405431  -0.0204276 -0.277025 -0.000671864  -0.0387892 -0.274074 0.000232935  -0.0515286 -0.341753 9.01222e-05  -0.0318161 -0.346009 -0.000729322  -0.0274614 -0.32171 -0.000854373  -0.0519129 -0.342557 -2.06232e-05  -0.0469725 -0.318429 0.000185609  -0.0278212 -0.322607 -0.00071454  -0.0473841 -0.319316 5.93662e-05  -0.0610279 -0.389404 -7.54595e-05  -0.0403135 -0.393841 -0.000745654  -0.0356659 -0.368997 -0.000879169  -0.0613639 -0.390078 -0.0001477  -0.0562108 -0.365403 2.98023e-06  -0.0359825 -0.369762 -0.000738978  -0.0565759 -0.366154 -8.59499e-05  -0.0709825 -0.438225 -0.000208974  -0.0494175 -0.442815 -0.000748038  -0.0445255 -0.417555 -0.000884295  -0.0712687 -0.438786 -0.0002563  -0.0659492 -0.413671 -0.000145555  -0.0447967 -0.418199 -0.000748158  -0.0662653 -0.414302 -0.000202417  -0.081291 -0.487953 -0.000315905  -0.0590008 -0.492685 -0.000739336  -0.0539275 -0.467117 -0.000874758  -0.0815285 -0.488407 -0.000337124  -0.0760928 -0.462977 -0.000265837  -0.054154 -0.467651 -0.000744462  -0.0763593 -0.463496 -0.000298023  -0.0918708 -0.538373 -0.000399232  -0.0689824 -0.543216 -0.000722051  -0.0637653 -0.517444 -0.000852823  -0.092062 -0.538737 -0.000405908  -0.086547 -0.513076 -0.00036025  -0.0639485 -0.517878 -0.000731349  -0.0867661 -0.513499 -0.000371575  -0.102633 -0.589272 -0.00046289  -0.0792469 -0.594211 -0.00069797  -0.07394 -0.568319 -0.000822306  -0.102782 -0.589551 -0.000452995  -0.0972284 -0.563762 -0.000433564  -0.0740829 -0.568665 -0.000710368  -0.0974028 -0.564095 -0.000430107  -0.113513 -0.640476 -0.000507832  -0.0897303 -0.645482 -0.000669241  -0.0843605 -0.619552 -0.000784159  -0.113624 -0.640687 -0.000491738  -0.108058 -0.614833 -0.000487328  -0.0844667 -0.61982 -0.000684023  -0.108192 -0.615092 -0.00047183  -0.12444 -0.691817 -0.000537038  -0.100337 -0.696879 -0.000636816  -0.0949464 -0.670972 -0.000741482  -0.124517 -0.691964 -0.000512004  -0.118968 -0.666126 -0.000524402  -0.0950205 -0.671172 -0.000653267  -0.119067 -0.666316 -0.000502229  -0.135365 -0.743165 -0.000551701  -0.111022 -0.748257 -0.000602603  -0.105628 -0.722433 -0.000694752  -0.135414 -0.743263 -0.000527382  -0.1299 -0.717485 -0.000545979  -0.105674 -0.722575 -0.000619769  -0.129968 -0.717621 -0.000519037  -0.14624 -0.794395 -0.000554323  -0.12171 -0.79951 -0.00056684  -0.116343 -0.77381 -0.000646591  -0.146265 -0.794447 -0.000527501  -0.140805 -0.768789 -0.000554562  -0.116367 -0.773904 -0.000584364  -0.140847 -0.768876 -0.00052774  -0.157034 -0.845418 -0.000546694  -0.132379 -0.850537 -0.000530481  -0.127045 -0.824999 -0.000596762  -0.157042 -0.845441 -0.000525713  -0.151644 -0.819924 -0.000551224  -0.12705 -0.825054 -0.000548482  -0.151665 -0.819976 -0.000525355  -0.167717 -0.896148 -0.000532269  -0.14297 -0.901272 -0.000495076  -0.137692 -0.875918 -0.000547767  -0.167711 -0.896145 -0.000513315  -0.162385 -0.870812 -0.000540257  -0.137684 -0.875944 -0.000512481  -0.16239 -0.870833 -0.000519156  -0.178273 -0.946527 -0.000517488  -0.153479 -0.951649 -0.000461936  -0.148254 -0.926497 -0.000499606  -0.178262 -0.946519 -0.000505805  -0.173006 -0.921372 -0.000524282  -0.148237 -0.926504 -0.000478029  -0.173002 -0.921378 -0.000507355  -0.188679 -0.996442 -0.000504613  -0.163838 -1.00158 -0.000433207  -0.158695 -0.976667 -0.000456333  -0.188663 -0.996444 -0.000494003  -0.183491 -0.971541 -0.000511646  -0.15868 -0.976677 -0.000446439  -0.183482 -0.971549 -0.000500083  0.00171269 -0.00775701 -0.00121617  0 0 0  0.00267754 -0.00927866 -0.00170612  0.000933357 -0.00360161 -0.00132561  0 0 0  0.00165009 -0.00816703 -0.00087297  0.000565313 -0.00293398 -0.000681758  0 0 0  0.000886887 -0.0037787 -0.000953913  0.000551768 -0.00311947 -0.000488758  0.00481841 -0.0227653 -0.00191879  0.00768489 -0.0254138 -0.00275314  0.0051751 -0.015936 -0.00315642  0.0046528 -0.0236964 -0.00140762  0.00319193 -0.0144668 -0.00161731  0.00500776 -0.0166301 -0.00231087  0.00307143 -0.0151479 -0.00117719  0.00792241 -0.043914 -0.00227022  0.0131218 -0.047288 -0.00327384  0.0107171 -0.0345547 -0.00414848  0.00764936 -0.0452331 -0.00168908  0.00643754 -0.032645 -0.00212836  0.0104241 -0.0357109 -0.00306368  0.00620669 -0.0338053 -0.00157464  0.010157 -0.0702494 -0.00240016  0.0177745 -0.0739963 -0.00342488  0.0159443 -0.0586768 -0.00452185  0.00982273 -0.0717326 -0.00180602  0.00918427 -0.0564973 -0.00235295  0.0155859 -0.0600874 -0.00338137  0.00887054 -0.0579308 -0.00176048  0.0111113 -0.100949 -0.00241089  0.0210398 -0.104927 -0.00336957  0.0199717 -0.0874579 -0.00453854  0.0107367 -0.102471 -0.00182319  0.010811 -0.0850837 -0.00241709  0.0196 -0.0889606 -0.00341201  0.0104492 -0.0866118 -0.00182462  0.0106285 -0.135435 -0.00236213  0.022681 -0.139568 -0.00321186  0.0224429 -0.120313 -0.00436532  0.0102369 -0.136904 -0.00180161  0.0110548 -0.11774 -0.00239217  0.0220692 -0.121806 -0.00329769  0.0106663 -0.119258 -0.00181818  0.00870419 -0.173216 -0.00228322  0.0226684 -0.177491 -0.00301337  0.0232422 -0.156721 -0.00411022  0.00831151 -0.174587 -0.00174856  0.00984704 -0.153929 -0.00232589  0.0228797 -0.158141 -0.00311553  0.00944906 -0.155368 -0.00177908  0.00541055 -0.213839 -0.00218713  0.0210834 -0.218243 -0.00279927  0.0224134 -0.19622 -0.00382257  0.00503075 -0.215081 -0.00168908  0.00722635 -0.193183 -0.00223708  0.022069 -0.197531 -0.00290716  0.0068351 -0.194508 -0.00172234  0.000849843 -0.256906 -0.00207782  0.018034 -0.261441 -0.00258243  0.0200559 -0.238374 -0.00352597  0.000494599 -0.258012 -0.00161183  0.00328517 -0.235079 -0.00213397  0.0197356 -0.239555 -0.00269151  0.00291228 -0.236268 -0.00165296  -0.00484812 -0.302024 -0.00195754  0.0136687 -0.306684 -0.00236511  0.0163007 -0.282776 -0.00322843  -0.00517082 -0.302989 -0.00153196  -0.00186038 -0.279215 -0.00201917  0.0160109 -0.283822 -0.00247347  -0.0022043 -0.280267 -0.00157499  -0.0115567 -0.348858 -0.00182879  0.00812006 -0.353641 -0.00215137  0.0112917 -0.329052 -0.00293398  -0.0118412 -0.349692 -0.00143766  -0.00808001 -0.325235 -0.00189388  0.0110357 -0.329964 -0.00225806  -0.00838852 -0.326147 -0.00148654  -0.0191363 -0.397081 -0.00169384  0.0015465 -0.401972 -0.00194204  0.00517559 -0.376862 -0.00264657  -0.0193803 -0.397787 -0.0013442  -0.0152407 -0.372799 -0.00176203  0.00495672 -0.377646 -0.00204611  -0.0155096 -0.373584 -0.00139344  -0.0274636 -0.446418 -0.00155556  -0.00592208 -0.451407 -0.0017395  -0.00190055 -0.425899 -0.0023669  -0.0276656 -0.447011 -0.00124097  -0.0232097 -0.421615 -0.00162458  -0.00208175 -0.426563 -0.00184011  -0.0234375 -0.422276 -0.00129378  -0.0364068 -0.496602 -0.00141633  -0.0141357 -0.501668 -0.00154495  -0.00979578 -0.475888 -0.00209904  -0.036569 -0.497087 -0.0011425  -0.0318599 -0.471404 -0.00148594  -0.00993931 -0.476442 -0.00164115  -0.0320469 -0.471957 -0.00119388  -0.0458561 -0.547414 -0.00127959  -0.022979 -0.552545 -0.00136125  -0.0183748 -0.526585 -0.00184369  -0.0459802 -0.547808 -0.00103903  -0.0410705 -0.521931 -0.0013473  -0.0184836 -0.527038 -0.00145197  -0.0412178 -0.522382 -0.0010916  -0.0556965 -0.598642 -0.00114703  -0.0323179 -0.603814 -0.00118899  -0.0275129 -0.577772 -0.00160432  -0.0557863 -0.598948 -0.000944495  -0.050728 -0.572973 -0.00121284  -0.0275888 -0.578135 -0.00127339  -0.0508395 -0.573337 -0.000993252  -0.0658364 -0.650114 -0.00102055  -0.0420561 -0.655317 -0.00103045  -0.0370934 -0.629259 -0.00138164  -0.0658953 -0.65035 -0.000847936  -0.06073 -0.624346 -0.00108278  -0.0371406 -0.629541 -0.00110829  -0.0608087 -0.624628 -0.000896454  -0.0761819 -0.701667 -0.000901222  -0.0520806 -0.706879 -0.000885487  -0.0470119 -0.680879 -0.00117815  -0.0762146 -0.701835 -0.000762463  -0.0709825 -0.675875 -0.000959992  -0.0470333 -0.681092 -0.000955939  -0.0710332 -0.67609 -0.000806451  -0.086663 -0.753174 -0.000790954  -0.0623176 -0.758389 -0.000756621  -0.0571737 -0.732491 -0.000994086  -0.0866735 -0.753291 -0.000677943  -0.0814049 -0.727423 -0.000844836  -0.0571744 -0.732643 -0.000819325  -0.0814309 -0.727576 -0.000720263  -0.0972078 -0.804518 -0.000689864  -0.0726769 -0.809719 -0.000642896  -0.0674982 -0.783974 -0.000831127  -0.0972004 -0.804586 -0.000606179  -0.0919249 -0.778859 -0.000739455  -0.067481 -0.784075 -0.000697494  -0.0919313 -0.778965 -0.000643134  -0.107769 -0.855615 -0.000598073  -0.0831091 -0.860803 -0.000543714  -0.0779145 -0.835232 -0.000687599  -0.107748 -0.855651 -0.000535607  -0.102485 -0.830091 -0.000642776  -0.0778844 -0.835291 -0.000591755  -0.102475 -0.830154 -0.000571012  -0.118297 -0.906387 -0.00051415  -0.0935476 -0.911554 -0.000456572  -0.0883656 -0.886187 -0.000562787  -0.118266 -0.906395 -0.000476837  -0.113034 -0.881032 -0.000555515  -0.088326 -0.886216 -0.000498414  -0.113013 -0.881067 -0.000507474  -0.128757 -0.956782 -0.000437975  -0.103958 -0.961944 -0.000378013  -0.0988011 -0.936779 -0.00045085  -0.128723 -0.956784 -0.000418305  -0.123533 -0.931623 -0.000475049  -0.0987556 -0.93679 -0.000416756  -0.123504 -0.931637 -0.000447631  -0.139071 -1.0067 -0.000364304  -0.114257 -1.0119 -0.000302672  -0.109169 -0.986965 -0.000347137  -0.139055 -1.00671 -0.000365734  -0.133934 -0.981798 -0.00040102  -0.109123 -0.986975 -0.000339866  -0.13391 -0.981815 -0.000393271  0.00386688 -0.0104344 -0.00346863  0 0 0  0.00496188 -0.0128761 -0.00332987  0.00169165 -0.00564301 -0.00257337  0 0 0  0.00378503 -0.0108386 -0.00251198  0.00128013 -0.00448322 -0.00195825  0 0 0  0.00162786 -0.00590241 -0.0018065  0.00125251 -0.00469559 -0.00139427  0.0111586 -0.0268024 -0.00556946  0.0143302 -0.0306486 -0.00543475  0.00956902 -0.0205178 -0.00621784  0.0109321 -0.0277335 -0.00409985  0.00728072 -0.0179416 -0.00467467  0.00933869 -0.0212079 -0.00454319  0.00711446 -0.0186305 -0.00341642  0.0191777 -0.0486389 -0.00652802  0.0248604 -0.0532097 -0.00642717  0.0199792 -0.0401773 -0.00819123  0.0188384 -0.0499462 -0.00485325  0.0151949 -0.037073 -0.00616515  0.0196114 -0.0413551 -0.0060606  0.0149002 -0.0382208 -0.0045675  0.0263343 -0.0753695 -0.00671697  0.0344619 -0.0802333 -0.00663173  0.030255 -0.0647718 -0.0088371  0.0259619 -0.0768334 -0.00503528  0.0229308 -0.0614266 -0.00668657  0.0298378 -0.0661882 -0.00660312  0.0225537 -0.0628472 -0.00499165  0.0319045 -0.106403 -0.00651252  0.0423442 -0.111401 -0.00642014  0.0390558 -0.0938193 -0.0087446  0.0315351 -0.107905 -0.00490081  0.0293445 -0.090367 -0.00665045  0.0386549 -0.0953202 -0.00656331  0.0289646 -0.0918713 -0.00499535  0.0356263 -0.141255 -0.00611675  0.0481569 -0.146329 -0.00600886  0.0458718 -0.126931 -0.00827968  0.0352796 -0.142706 -0.00461376  0.0340054 -0.12337 -0.00632977  0.0455111 -0.128419 -0.00622916  0.0336415 -0.124866 -0.0047673  0.0374731 -0.179457 -0.00564778  0.0518823 -0.184594 -0.00552416  0.050596 -0.163654 -0.00765836  0.0371527 -0.180821 -0.00427139  0.0367839 -0.159953 -0.0058881  0.0502782 -0.165071 -0.00577104  0.0364465 -0.161379 -0.00444531  0.0375319 -0.220548 -0.00516176  0.0536193 -0.225749 -0.00502002  0.0532723 -0.203525 -0.00698757  0.0372401 -0.221789 -0.00390911  0.0377221 -0.199656 -0.00540602  0.0529911 -0.204836 -0.00527179  0.0374126 -0.200974 -0.00408983  0.0359281 -0.264102 -0.00467682  0.0534958 -0.269366 -0.00452363  0.0540264 -0.246087 -0.00631356  0.0356666 -0.265218 -0.00355291  0.0369328 -0.24203 -0.00491869  0.0537801 -0.247275 -0.0047698  0.0366521 -0.243224 -0.00372851  0.0328176 -0.30971 -0.00420749  0.0516931 -0.315039 -0.00404322  0.0530092 -0.290911 -0.00565743  0.0325886 -0.310689 -0.00320172  0.0345557 -0.286661 -0.00444078  0.0527947 -0.291968 -0.00428057  0.0343063 -0.287721 -0.00337493  0.0283543 -0.357013 -0.0037533  0.0483637 -0.362396 -0.00358498  0.0503898 -0.337599 -0.00502753  0.0281591 -0.357866 -0.00286746  0.0307496 -0.333158 -0.00397825  0.050208 -0.338527 -0.00381076  0.030533 -0.334088 -0.00303078  0.0227038 -0.405672 -0.00332117  0.043699 -0.411104 -0.00314975  0.0463387 -0.385796 -0.00442863  0.0225435 -0.406398 -0.00254309  0.0256722 -0.381179 -0.00353503  0.0461888 -0.386599 -0.00336373  0.0254904 -0.381981 -0.00270236  0.0160182 -0.455398 -0.00291002  0.0378486 -0.460861 -0.00274038  0.0410281 -0.435182 -0.00386274  0.0158923 -0.456013 -0.00223982  0.0194856 -0.430405 -0.00311267  0.0409112 -0.435867 -0.00294125  0.0193379 -0.43109 -0.00238729  0.00845432 -0.505924 -0.00252473  0.0309958 -0.511409 -0.0023576  0.0346254 -0.485475 -0.00333309  0.00836134 -0.506429 -0.00194955  0.0123421 -0.480564 -0.00271451  0.0345391 -0.48605 -0.002545  0.0122283 -0.481136 -0.00209141  0.00014925 -0.557022 -0.00216484  0.0232741 -0.562508 -0.00200415  0.0272906 -0.536426 -0.0028404  8.69036e-05 -0.557436 -0.00168371  0.00439084 -0.531401 -0.00234127  0.0272336 -0.5369 -0.00217664  0.0043087 -0.531875 -0.00181198  -0.00875735 -0.608483 -0.00183439  0.0148501 -0.613962 -0.00168002  0.0191735 -0.587817 -0.00238788  -0.00879204 -0.608807 -0.00143373  -0.00423157 -0.582706 -0.00199604  0.0191426 -0.588201 -0.00183761  -0.00428426 -0.583087 -0.00155497  -0.0181484 -0.660136 -0.00153303  0.00583673 -0.665589 -0.00138831  0.0104158 -0.639459 -0.00197637  -0.0181599 -0.660388 -0.00121129  -0.0133944 -0.634282 -0.00167954  0.0104084 -0.639761 -0.00152993  -0.013422 -0.634584 -0.00131762  -0.0279081 -0.711824 -0.00126374  -0.00362134 -0.717244 -0.00112855  0.00114584 -0.69119 -0.00160813  -0.0278981 -0.712006 -0.00100708  -0.0229833 -0.685972 -0.00139427  0.00115752 -0.69142 -0.00125372  -0.0229886 -0.6862 -0.00110531  -0.03794 -0.763422 -0.00102615  -0.0134344 -0.768797 -0.00090313  -0.00851941 -0.74287 -0.00128353  -0.0379145 -0.763551 -0.000832558  -0.0328901 -0.737628 -0.00114059  -0.00849056 -0.743038 -0.00101125  -0.0328772 -0.737797 -0.000914931  -0.0481539 -0.814821 -0.000821233  -0.0234816 -0.820152 -0.000710964  -0.0184736 -0.794387 -0.00100458  -0.048115 -0.814899 -0.000677228  -0.0430236 -0.789141 -0.000919819  -0.0184326 -0.794503 -0.000802398  -0.0429959 -0.789255 -0.000751019  -0.0584807 -0.865942 -0.000645876  -0.0336998 -0.871222 -0.000550151  -0.028626 -0.84565 -0.000768185  -0.0584326 -0.865987 -0.000549436  -0.053302 -0.840407 -0.000729799  -0.0285747 -0.845724 -0.000626326  -0.0532632 -0.840482 -0.000608802  -0.0688534 -0.916718 -0.000495791  -0.0439956 -0.92196 -0.000414729  -0.038898 -0.896591 -0.000571012  -0.0687983 -0.916734 -0.000435591  -0.0636599 -0.891364 -0.000568032  -0.0388405 -0.896634 -0.000479221  -0.063612 -0.891406 -0.000489473  -0.0792205 -0.967114 -0.000360489  -0.0543301 -0.972335 -0.00029707  -0.0492244 -0.947166 -0.000402331  -0.0791633 -0.967125 -0.000338793  -0.0740354 -0.941952 -0.000426531  -0.0491617 -0.947191 -0.000354767  -0.0739839 -0.941977 -0.000383973  -0.0895057 -1.01709 -0.000232339  -0.0646017 -1.02235 -0.000190735  -0.0595407 -0.997364 -0.000247359  -0.0894437 -1.0171 -0.000243068  -0.0843763 -0.992146 -0.000295401  -0.0594821 -0.997386 -0.000240445  -0.0843217 -0.992168 -0.000290155  0.00638421 -0.0149978 -0.00572908  0 0 0  0.00775495 -0.018863 -0.00506365  0.002717 -0.00912172 -0.00391996  0 0 0  0.00628373 -0.0155151 -0.00412858  0.00207479 -0.00708055 -0.00318515  0 0 0  0.00251243 -0.0094083 -0.00285542  0.00204126 -0.00747508 -0.00228477  0.018561 -0.0332869 -0.00927687  0.0227457 -0.0387695 -0.00819123  0.015139 -0.0276506 -0.0094775  0.0183137 -0.034305 -0.00682056  0.0120815 -0.0236984 -0.00776768  0.0147524 -0.0285179 -0.00691009  0.0119061 -0.0244629 -0.00564837  0.0318339 -0.0557842 -0.0107826  0.0387053 -0.0616318 -0.00959945  0.0311858 -0.048354 -0.01231  0.0314547 -0.057119 -0.00800979  0.0252573 -0.0439377 -0.0102274  0.0308228 -0.0496375 -0.00908482  0.0249174 -0.0451558 -0.007568  0.043921 -0.0827258 -0.0109982  0.0531633 -0.0886813 -0.00982559  0.0466213 -0.0731826 -0.0131558  0.0435124 -0.0841961 -0.00823915  0.0381077 -0.0687018 -0.0109935  0.0461586 -0.0746191 -0.00981998  0.0376883 -0.0701295 -0.00820422  0.0539762 -0.11391 -0.0105677  0.0654138 -0.119886 -0.00945473  0.0600105 -0.10227 -0.012929  0.0535972 -0.115404 -0.00793457  0.0492328 -0.0977933 -0.0108382  0.0595868 -0.103775 -0.009691  0.0488235 -0.0993007 -0.00813043  0.0617491 -0.148969 -0.00984216  0.0751899 -0.15495 -0.00879812  0.0709842 -0.135485 -0.0121797  0.0614196 -0.150412 -0.00740457  0.0581548 -0.130972 -0.010227  0.0706125 -0.136962 -0.00914741  0.0577949 -0.13246 -0.00768685  0.0672351 -0.18745 -0.009004  0.0824835 -0.193433 -0.00804269  0.0794565 -0.172397 -0.011215  0.0669529 -0.188799 -0.00677752  0.0647771 -0.167801 -0.00943053  0.0791431 -0.173793 -0.00842857  0.0644682 -0.169213 -0.00709701  0.0705401 -0.228872 -0.00814259  0.0874025 -0.23487 -0.00725853  0.0854959 -0.212527 -0.0101764  0.0702982 -0.230104 -0.00613606  0.0691541 -0.20781 -0.00857353  0.0852305 -0.213812 -0.00765181  0.0688896 -0.209117 -0.00645769  0.0718096 -0.272781 -0.00729418  0.090101 -0.278789 -0.00648987  0.0892453 -0.255384 -0.0091356  0.0716043 -0.273888 -0.00549936  0.0714233 -0.250533 -0.00771487  0.0890205 -0.256546 -0.00687277  0.0711967 -0.251715 -0.00581527  0.0712186 -0.318745 -0.00647879  0.0907617 -0.324763 -0.00574768  0.0908642 -0.30051 -0.00812531  0.0710454 -0.319721 -0.00489175  0.071739 -0.295519 -0.00688219  0.0906748 -0.301543 -0.00611567  0.0715462 -0.296574 -0.00519323  0.0689434 -0.366384 -0.00570107  0.0895753 -0.372399 -0.00504458  0.0905467 -0.347488 -0.00715792  0.0688028 -0.367236 -0.00430775  0.0702844 -0.342367 -0.0060842  0.0903896 -0.348393 -0.00539231  0.0701241 -0.343292 -0.00459588  0.0651726 -0.415348 -0.0049684  0.0867386 -0.42135 -0.00437987  0.0884773 -0.395945 -0.00624442  0.0650628 -0.416077 -0.00376177  0.0672375 -0.390708 -0.00532961  0.0883523 -0.396727 -0.00470781  0.0671084 -0.391511 -0.00403225  0.0600821 -0.465337 -0.00428057  0.0824424 -0.471312 -0.00375974  0.0848588 -0.445553 -0.00538492  0.0600036 -0.465956 -0.003245  0.0627859 -0.440221 -0.00461817  0.0847639 -0.44622 -0.00406516  0.0626879 -0.440906 -0.00349915  0.0538542 -0.516079 -0.0036422  0.0768763 -0.522012 -0.00318253  0.0798732 -0.496023 -0.00458586  0.0538033 -0.516592 -0.00276899  0.0571041 -0.490617 -0.00395572  0.0798085 -0.496581 -0.00346589  0.0570354 -0.491195 -0.00300395  0.0466496 -0.567346 -0.00305378  0.0702147 -0.573222 -0.00265396  0.0737126 -0.547104 -0.00384665  0.0466257 -0.567765 -0.00232577  0.0503683 -0.54165 -0.00334144  0.0736744 -0.547564 -0.00291288  0.0503277 -0.542126 -0.00254297  0.0386322 -0.61893 -0.00251865  0.0626314 -0.624735 -0.00217164  0.0665424 -0.598579 -0.00317287  0.0386312 -0.61926 -0.0019269  0.0427377 -0.593097 -0.0027802  0.0665302 -0.598948 -0.00240684  0.0427213 -0.593485 -0.00212336  0.0299432 -0.67066 -0.00203741  0.0542796 -0.676386 -0.00174212  0.0585368 -0.650261 -0.00256336  0.0299625 -0.670917 -0.00156403  0.0343678 -0.644775 -0.00227094  0.0585451 -0.65055 -0.0019511  0.034373 -0.645079 -0.00174081  0.0207231 -0.722387 -0.00161266  0.0453112 -0.728024 -0.00136244  0.0498378 -0.701993 -0.00202346  0.0207589 -0.722573 -0.001248  0.0253966 -0.696519 -0.00181854  0.049866 -0.70221 -0.00154579  0.0254197 -0.696754 -0.00140274  0.0110898 -0.77399 -0.00124526  0.0358562 -0.779537 -0.00103807  0.0405967 -0.753644 -0.00155234  0.0111394 -0.774123 -0.00097084  0.0159562 -0.7482 -0.00142193  0.0406401 -0.753799 -0.001194  0.0159945 -0.74837 -0.00110483  0.00116038 -0.825369 -0.000935912  0.0260458 -0.830826 -0.000765681  0.0309334 -0.805105 -0.00115442  0.00121975 -0.825451 -0.000741959  0.00616097 -0.7997 -0.00108409  0.0309908 -0.80521 -0.000895381  0.00621104 -0.79982 -0.000852942  -0.00897479 -0.87645 -0.000680089  0.0159833 -0.881827 -0.000546932  0.0209765 -0.856297 -0.00082612  -0.00890732 -0.8765 -0.00054872  -0.00388193 -0.850939 -0.000801682  0.0210433 -0.856362 -0.000650883  -0.0038228 -0.851015 -0.000641346  -0.0192266 -0.927182 -0.0004704  0.00577354 -0.932494 -0.000369787  0.0108182 -0.907163 -0.000563025  -0.0191545 -0.927204 -0.000394583  -0.0140858 -0.901848 -0.000570655  0.0108941 -0.907199 -0.000453711  -0.01402 -0.901896 -0.000469685  -0.029532 -0.977552 -0.000289798  -0.00451708 -0.982827 -0.000224352  0.000556707 -0.957678 -0.000351191  -0.0294588 -0.977565 -0.000258088  -0.0243714 -0.952402 -0.000377893  0.000638247 -0.957697 -0.000295281  -0.0243027 -0.952428 -0.000325322  -0.0398116 -1.02759 -0.000120521  -0.0148208 -1.03289 -8.73804e-05  -0.00975013 -1.00786 -0.000164509  -0.0397513 -1.02761 -0.000133276  -0.0346777 -1.0026 -0.000203967  -0.0096674 -1.00788 -0.000154495  -0.0346131 -1.00262 -0.000196338  0.0108 -0.0225266 -0.00843513  0 0 0  0.0162286 -0.0291206 -0.0070045  0.00673834 -0.0167817 -0.00558805  0 0 0  0.0107021 -0.0234149 -0.00595558  0.00346699 -0.0119064 -0.00467265  0 0 0  0.00657258 -0.0171011 -0.00379169  0.0034686 -0.0120931 -0.00340021  0.0284626 -0.0427265 -0.013132  0.0352029 -0.0499204 -0.0108289  0.0258662 -0.0379601 -0.0128098  0.0283748 -0.0440775 -0.00964999  0.0193701 -0.0324016 -0.0112284  0.0253961 -0.0392122 -0.00937402  0.0191378 -0.0335564 -0.00822389  0.047183 -0.0653012 -0.0150421  0.0558788 -0.0722408 -0.0125551  0.0461175 -0.0590582 -0.0162714  0.0467831 -0.0666978 -0.0111578  0.0379935 -0.0534536 -0.0143721  0.0457416 -0.0604109 -0.0119686  0.0376962 -0.0547817 -0.0106244  0.0639907 -0.0921661 -0.0152388  0.0747079 -0.0990604 -0.0128253  0.0660337 -0.0835395 -0.0172961  0.06354 -0.093649 -0.0113802  0.0558916 -0.0781484 -0.0152899  0.0655528 -0.0850734 -0.0128329  0.0554243 -0.0796341 -0.0113827  0.0783007 -0.12332 -0.0146099  0.091049 -0.130146 -0.0123539  0.0837013 -0.112529 -0.0169761  0.0778774 -0.124807 -0.0109439  0.0714886 -0.107193 -0.0150037  0.0832373 -0.114055 -0.0126652  0.0710368 -0.10871 -0.0112251  0.0899146 -0.158496 -0.0135747  0.104577 -0.165288 -0.0115064  0.0986089 -0.145772 -0.0159974  0.0895503 -0.159909 -0.0101789  0.0844458 -0.140423 -0.0141276  0.0981639 -0.147245 -0.0119637  0.0840479 -0.141899 -0.0105895  0.0988746 -0.197158 -0.0123936  0.115272 -0.203934 -0.0105115  0.110661 -0.182831 -0.0147195  0.0985641 -0.198477 -0.00930095  0.0947277 -0.177405 -0.0129994  0.110277 -0.184205 -0.0110205  0.0943851 -0.178793 -0.00975132  0.105282 -0.238835 -0.0111661  0.123232 -0.245586 -0.00946796  0.119928 -0.223172 -0.0133389  0.105018 -0.240026 -0.00838006  0.10239 -0.217643 -0.011784  0.119582 -0.224421 -0.00999177  0.102101 -0.218916 -0.00884318  0.109302 -0.282991 -0.00996292  0.128618 -0.289721 -0.00844347  0.126531 -0.266252 -0.0119479  0.109078 -0.284062 -0.00748193  0.107585 -0.260618 -0.0105634  0.126235 -0.267376 -0.00895154  0.107336 -0.261766 -0.00792921  0.111113 -0.329212 -0.008798  0.13162 -0.335901 -0.00744605  0.130666 -0.311598 -0.0105938  0.110925 -0.33015 -0.00660694  0.110474 -0.305861 -0.00937665  0.130401 -0.312587 -0.0079385  0.110264 -0.30688 -0.00704074  0.110921 -0.377063 -0.00769472  0.132455 -0.383704 -0.00650609  0.132518 -0.35876 -0.0092963  0.110766 -0.377883 -0.00578392  0.11126 -0.352944 -0.00824082  0.132295 -0.359628 -0.00696707  0.111082 -0.353837 -0.00619018  0.108924 -0.426216 -0.00665271  0.131331 -0.432787 -0.00561106  0.132315 -0.407369 -0.00807047  0.108803 -0.426913 -0.00500095  0.110138 -0.401489 -0.00716734  0.132121 -0.40811 -0.00605023  0.109995 -0.40226 -0.00538683  0.105333 -0.476336 -0.00568056  0.128473 -0.482823 -0.00478458  0.13026 -0.457075 -0.00691843  0.105242 -0.476929 -0.00427616  0.107321 -0.451162 -0.00615895  0.130106 -0.457709 -0.00518703  0.107208 -0.451819 -0.0046314  0.10034 -0.527176 -0.00477874  0.124081 -0.533558 -0.00400782  0.126579 -0.507601 -0.00584817  0.100279 -0.527661 -0.00359774  0.103003 -0.501674 -0.00522161  0.126453 -0.508123 -0.00438678  0.102922 -0.502224 -0.00392973  0.0941412 -0.578481 -0.00395179  0.118365 -0.584745 -0.00330734  0.121465 -0.558681 -0.00486052  0.094107 -0.578877 -0.00298095  0.0973853 -0.552773 -0.00435627  0.121376 -0.559113 -0.00364625  0.0973318 -0.553225 -0.00328124  0.0869126 -0.630071 -0.00320196  0.111509 -0.636202 -0.00266016  0.115129 -0.610117 -0.00396109  0.086904 -0.630377 -0.00241649  0.0906479 -0.604244 -0.0035677  0.115064 -0.610455 -0.00297356  0.0906222 -0.604605 -0.00269043  0.0788288 -0.681756 -0.00253117  0.103699 -0.687746 -0.00209558  0.107744 -0.661711 -0.00315094  0.0788414 -0.681993 -0.00191653  0.0829728 -0.6559 -0.00285661  0.107712 -0.661976 -0.00236607  0.0829692 -0.656183 -0.00215745  0.0700436 -0.733417 -0.00194407  0.0951014 -0.73926 -0.00158799  0.099498 -0.713329 -0.00243521  0.0700758 -0.733583 -0.0014745  0.0745177 -0.70759 -0.00222719  0.0994859 -0.713519 -0.00183094  0.0745356 -0.707801 -0.00168622  0.060709 -0.784917 -0.00144005  0.0858777 -0.790614 -0.00116849  0.0905426 -0.764828 -0.00181484  0.0607569 -0.785034 -0.00109982  0.0654416 -0.759182 -0.00168085  0.0905566 -0.764966 -0.00136662  0.0654764 -0.759334 -0.00127697  0.0509579 -0.836191 -0.0010246  0.0761755 -0.84175 -0.000810027  0.0810437 -0.816133 -0.00129557  0.0510199 -0.836258 -0.000787139  0.0558808 -0.810581 -0.0012213  0.0810747 -0.816218 -0.000978231  0.0559316 -0.810681 -0.000933647  0.0409195 -0.887153 -0.000691414  0.0661356 -0.892585 -0.000540018  0.0711348 -0.867153 -0.000876307  0.0409927 -0.887192 -0.000540018  0.0459726 -0.861702 -0.000847101  0.0711889 -0.867209 -0.00066483  0.0460358 -0.861766 -0.000653625  0.0307043 -0.937792 -0.000434279  0.0558906 -0.943132 -0.000321627  0.0609612 -0.917872 -0.000552893  0.0307851 -0.937806 -0.000344992  0.03583 -0.912507 -0.000553846  0.0610278 -0.9179 -0.000421524  0.0359046 -0.912542 -0.000434399  0.0204029 -0.988091 -0.000227571  0.0455413 -0.993371 -0.000169635  0.0506358 -0.968261 -0.000310063  0.0204911 -0.988103 -0.000192165  0.0255647 -0.962968 -0.000325918  0.0507219 -0.968288 -0.000240445  0.0256455 -0.962993 -0.000263095  0.0100551 -1.03815 -3.54052e-05  0.0351636 -1.0434 -1.85966e-05  0.0402687 -1.01839 -0.000114799  0.0101511 -1.03815 -4.76837e-05  0.0152392 -1.01313 -0.000131488  0.040354 -1.01841 -8.67844e-05  0.0153255 -1.01316 -0.000119686  -0.0165878 -0.0197179 0.0142527  -0.00701849 -0.0111682 0.0102897  0 0 0  -0.0104424 -0.0129991 0.0154755  0 0 0  -0.00743633 -0.0108275 0.00987482  -0.00248914 -0.00409795 0.00701118  0 0 0  -0.00708161 -0.0119532 0.00819623  -0.0105532 -0.0146466 0.01222  -0.00346581 -0.00641621 0.00840986  0 0 0  -0.00257883 -0.00503146 0.00551748  -0.00346788 -0.00740854 0.00678062  -0.0364225 -0.0336121 0.0220587  -0.0254853 -0.0228707 0.0240418  -0.0278709 -0.0260974 0.0236406  -0.0212922 -0.025665 0.015743  -0.0140716 -0.0153375 0.0167803  -0.0263006 -0.0259778 0.0191267  -0.0277155 -0.0293111 0.0190946  -0.0188447 -0.0187628 0.0205973  -0.0139208 -0.0178443 0.0133892  -0.0187897 -0.0215675 0.0163372  -0.0574614 -0.0510548 0.024977  -0.0466481 -0.0380823 0.029647  -0.0460729 -0.0440158 0.0259813  -0.0367129 -0.0446348 0.0177791  -0.028999 -0.0314549 0.0208317  -0.0469687 -0.0417248 0.0239507  -0.0461882 -0.0476356 0.0214051  -0.0370053 -0.0345022 0.0253667  -0.028888 -0.0345691 0.017169  -0.0368821 -0.0379361 0.0207734  -0.0782245 -0.0725573 0.0246017  -0.0676077 -0.0572741 0.0303901  -0.0639973 -0.0665444 0.0253655  -0.0523471 -0.0680418 0.0176661  -0.0442347 -0.0524062 0.0214564  -0.0679206 -0.0612902 0.0250648  -0.0645145 -0.0701229 0.0211819  -0.0551056 -0.0546753 0.0259792  -0.0445227 -0.0558045 0.0179471  -0.0554111 -0.058364 0.0215511  -0.0981686 -0.098218 0.022846  -0.087646 -0.0812007 0.0287143  -0.0813733 -0.0936191 0.0234385  -0.0678101 -0.095638 0.0163722  -0.0593464 -0.0781547 0.0203824  -0.0883333 -0.0848448 0.0238445  -0.0822731 -0.0968416 0.0196177  -0.0727421 -0.079575 0.0245847  -0.0601013 -0.0813405 0.0171298  -0.0734538 -0.0829785 0.0205485  -0.117233 -0.127821 0.0203482  -0.106885 -0.109341 0.0259415  -0.0983492 -0.124518 0.0208648  -0.0830438 -0.126983 0.0146143  -0.0744089 -0.107988 0.0184802  -0.107808 -0.112573 0.0216442  -0.0994785 -0.127355 0.0174911  -0.0899097 -0.108623 0.022243  -0.0754527 -0.110877 0.0155412  -0.0909448 -0.111659 0.0186161  -0.135492 -0.160857 0.0177612  -0.125392 -0.141203 0.0228304  -0.114944 -0.158868 0.0182372  -0.098043 -0.16165 0.0127146  -0.0893383 -0.141436 0.0163012  -0.126467 -0.143919 0.019048  -0.116162 -0.161252 0.0152496  -0.1067 -0.141313 0.0195996  -0.0905707 -0.143926 0.0136807  -0.107872 -0.143904 0.0163966  -0.15303 -0.196964 0.0152245  -0.143226 -0.17627 0.0197477  -0.131152 -0.196088 0.0156552  -0.112827 -0.19922 0.0108994  -0.104202 -0.177959 0.0141085  -0.144351 -0.178563 0.0164771  -0.132381 -0.198112 0.0130675  -0.123091 -0.177143 0.0169621  -0.105459 -0.1801 0.0118058  -0.124329 -0.179341 0.0141578  -0.169912 -0.23572 0.0129277  -0.160461 -0.214135 0.0168775  -0.147002 -0.235905 0.0133271  -0.127397 -0.239329 0.00921094  -0.118896 -0.217188 0.0120552  -0.161555 -0.216022 0.014042  -0.148161 -0.23757 0.0110794  -0.139129 -0.215705 0.014498  -0.120138 -0.218976 0.0100465  -0.140317 -0.217535 0.0120667  -0.186193 -0.276825 0.0108329  -0.177098 -0.254434 0.0142717  -0.162455 -0.277892 0.0111877  -0.141748 -0.281639 0.00770617  -0.133454 -0.258721 0.0101764  -0.17813 -0.256009 0.0118558  -0.163529 -0.279286 0.00927401  -0.154772 -0.25664 0.0122538  -0.134598 -0.260231 0.00844705  -0.155897 -0.25817 0.0101632  -0.201904 -0.319943 0.00899196  -0.193191 -0.296862 0.0119421  -0.177537 -0.321835 0.00930822  -0.155869 -0.325851 0.00635159  -0.147784 -0.302284 0.00849426  -0.194123 -0.298143 0.00988054  -0.178491 -0.322964 0.0076791  -0.170047 -0.299641 0.0102439  -0.148837 -0.303522 0.00701654  -0.171055 -0.300897 0.00846457  -0.217076 -0.36482 0.00733864  -0.208729 -0.341129 0.00986671  -0.192213 -0.367388 0.00761163  -0.169743 -0.37168 0.00516427  -0.161914 -0.347549 0.00699055  -0.209561 -0.342189 0.00814474  -0.193058 -0.36832 0.00625432  -0.184921 -0.344417 0.00845134  -0.162836 -0.348581 0.00574577  -0.185825 -0.345454 0.00695264  -0.23172 -0.411172 0.00589275  -0.223748 -0.386979 0.00802553  -0.206501 -0.414363 0.00612581  -0.183353 -0.418872 0.00410223  -0.175764 -0.394292 0.00565946  -0.224468 -0.387822 0.00659025  -0.207224 -0.415098 0.00500154  -0.199407 -0.390712 0.00686097  -0.17658 -0.395118 0.00462139  -0.200188 -0.391546 0.00561655  -0.245853 -0.458771 0.00460196  -0.238236 -0.434157 0.00639319  -0.220373 -0.462462 0.00479841  -0.19668 -0.467179 0.00317824  -0.18936 -0.442228 0.00447822  -0.238854 -0.43484 0.00523114  -0.220992 -0.46305 0.00389075  -0.213484 -0.438274 0.00545132  -0.190051 -0.4429 0.00362825  -0.214159 -0.438947 0.00443304  -0.25948 -0.507374 0.00348091  -0.252217 -0.482437 0.00495446  -0.233841 -0.511512 0.00364149  -0.209707 -0.516382 0.00235736  -0.202636 -0.491163 0.00344074  -0.252733 -0.482958 0.00402045  -0.234352 -0.511954 0.00292015  -0.227156 -0.486877 0.00420976  -0.20323 -0.491678 0.00275648  -0.22772 -0.487397 0.0033946  -0.272617 -0.556775 0.00249469  -0.265687 -0.531593 0.00369263  -0.24689 -0.56126 0.00262809  -0.22242 -0.566265 0.00165653  -0.215618 -0.540847 0.00253165  -0.266113 -0.531997 0.00297379  -0.24731 -0.561593 0.00207388  -0.240412 -0.536297 0.00312161  -0.216101 -0.541249 0.00199485  -0.240882 -0.536699 0.00248373  -0.285274 -0.606768 0.00165689  -0.278668 -0.581427 0.00260103  -0.259532 -0.611551 0.00176132  -0.234811 -0.616644 0.00104582  -0.228252 -0.591116 0.00174952  -0.279009 -0.581708 0.00205743  -0.259863 -0.611777 0.00134933  -0.253258 -0.586342 0.00218189  -0.228654 -0.5914 0.00133932  -0.253635 -0.586629 0.00170052  -0.297476 -0.657177 0.000946403  -0.291167 -0.631742 0.0016706  -0.271769 -0.662172 0.00103319  -0.246876 -0.667336 0.00054574  -0.240571 -0.641753 0.00108373  -0.291434 -0.631942 0.00128841  -0.272027 -0.662321 0.000742316  -0.265695 -0.636815 0.00138199  -0.240881 -0.641959 0.000782728  -0.265994 -0.637019 0.00103211  -0.309246 -0.707829 0.000373363  -0.303215 -0.682371 0.000900269  -0.283621 -0.712993 0.000439048  -0.25862 -0.718192 0.00012958  -0.252537 -0.692627 0.000535727  -0.303418 -0.682483 0.000642896  -0.283812 -0.71307 0.000247955  -0.277736 -0.687557 0.000720859  -0.252784 -0.692748 0.000325322  -0.277964 -0.68768 0.000483036  -0.320626 -0.758582 -7.30753e-05  -0.314837 -0.73315 0.000286222  -0.295109 -0.763846 -1.81198e-05  -0.270055 -0.769066 -0.000182509  -0.264196 -0.743559 9.81092e-05  -0.314986 -0.733212 0.000137329  -0.295248 -0.763875 -0.000133038  -0.289403 -0.738407 0.000193834  -0.264372 -0.743631 -3.93391e-05  -0.289572 -0.738479 4.3273e-05  -0.331664 -0.809305 -0.000392079  -0.326077 -0.78395 -0.000172019  -0.306269 -0.814631 -0.000353813  -0.281203 -0.81985 -0.000420928  -0.275525 -0.794454 -0.000230789  -0.326189 -0.783956 -0.000247836  -0.306368 -0.81462 -0.00041151  -0.300721 -0.789243 -0.000200987  -0.27566 -0.794471 -0.000312805  -0.300844 -0.789263 -0.00028348  -0.342432 -0.859895 -0.000605583  -0.336993 -0.834646 -0.000485539  -0.317151 -0.865229 -0.000571847  -0.292097 -0.870442 -0.000576138  -0.286586 -0.845175 -0.000465393  -0.337079 -0.834631 -0.000507832  -0.317226 -0.865199 -0.000596046  -0.311736 -0.839942 -0.000475764  -0.286676 -0.845171 -0.000508547  -0.311827 -0.839939 -0.00051403  -0.353017 -0.910279 -0.000740767  -0.347668 -0.885155 -0.000679374  -0.327824 -0.915591 -0.000725627  -0.302782 -0.920789 -0.000704646  -0.297382 -0.895673 -0.000625849  -0.347746 -0.885119 -0.000677705  -0.327884 -0.91555 -0.000730753  -0.3225 -0.89043 -0.000653863  -0.297461 -0.895644 -0.000643134  -0.322577 -0.890407 -0.000665307  -0.363524 -0.960489 -0.000873804  -0.358214 -0.935432 -0.000821114  -0.338372 -0.965743 -0.000873208  -0.31334 -0.970898 -0.000811338  -0.308006 -0.945888 -0.000766635  -0.358274 -0.935403 -0.000803947  -0.338434 -0.96571 -0.000849962  -0.333106 -0.94067 -0.00079906  -0.308063 -0.945866 -0.000759602  -0.333165 -0.940649 -0.000786901  -0.00554033 -0.00689326 0.00987566  0 0 0  -0.00391561 -0.00693665 0.00617349  -0.00139159 -0.00179501 0.00439262  0 0 0  -0.00551049 -0.00846966 0.00791574  -0.00188466 -0.00265104 0.00560856  0 0 0  -0.00133259 -0.00260086 0.00345838  -0.00184473 -0.00354967 0.00440967  -0.0160881 -0.0202195 0.0154794  -0.0115335 -0.0208684 0.00975716  -0.00748326 -0.0111023 0.0102367  -0.0160303 -0.0228381 0.0126008  -0.0104123 -0.012789 0.0131565  -0.00740191 -0.0131925 0.00827169  -0.0103583 -0.0150348 0.0106064  -0.0283286 -0.039183 0.0172191  -0.0210613 -0.0405853 0.0111861  -0.0161659 -0.0273235 0.0129143  -0.0284225 -0.0422523 0.0143691  -0.0221474 -0.0290066 0.0166192  -0.0161538 -0.0300856 0.0106995  -0.0221106 -0.0319453 0.0137364  -0.0408189 -0.0632763 0.017018  -0.0313397 -0.0652737 0.0111718  -0.0258181 -0.0494154 0.0134721  -0.0413748 -0.0663881 0.0143085  -0.0345304 -0.0506369 0.0172826  -0.026124 -0.0523663 0.0113002  -0.0348638 -0.0537792 0.0144876  -0.0536157 -0.0918032 0.0157722  -0.0421172 -0.0942164 0.0103779  -0.0360032 -0.0763337 0.0128708  -0.0544909 -0.0947262 0.013298  -0.0471986 -0.0770197 0.0164858  -0.036685 -0.079244 0.010844  -0.0479175 -0.080066 0.0138792  -0.0665709 -0.124182 0.0140826  -0.0532103 -0.126915 0.00923908  -0.0466803 -0.107426 0.0116663  -0.067681 -0.126798 0.0118568  -0.0600672 -0.107551 0.0149634  -0.0476211 -0.110132 0.00983465  -0.0610806 -0.110332 0.0126059  -0.0797081 -0.159874 0.0122805  -0.0646242 -0.162874 0.00800335  -0.0577923 -0.14209 0.0102597  -0.0809121 -0.162158 0.0103109  -0.073123 -0.141645 0.013188  -0.0588826 -0.144512 0.00862801  -0.0742916 -0.144098 0.0110866  -0.0929647 -0.198426 0.0105408  -0.076299 -0.201679 0.00680876  -0.0692938 -0.179828 0.0088377  -0.0941768 -0.200375 0.008811  -0.086321 -0.178819 0.0114015  -0.0704277 -0.181946 0.00740194  -0.087542 -0.180936 0.00954986  -0.106298 -0.239438 0.00892866  -0.088217 -0.242945 0.00570595  -0.0811239 -0.220204 0.00749862  -0.10745 -0.241093 0.00743091  -0.0996271 -0.218645 0.00971937  -0.0822333 -0.222024 0.00624895  -0.100815 -0.220447 0.00810564  -0.119643 -0.282578 0.00747406  -0.100305 -0.286333 0.00471723  -0.0932025 -0.262846 0.00627732  -0.120706 -0.283959 0.00618601  -0.112968 -0.26076 0.00818324  -0.0942398 -0.264394 0.0052017  -0.114083 -0.262279 0.00679123  -0.132956 -0.327528 0.00617135  -0.11253 -0.331525 0.00383735  -0.105461 -0.307418 0.00518298  -0.133908 -0.328681 0.00508082  -0.126307 -0.30484 0.00680566  -0.106406 -0.308719 0.00426722  -0.127316 -0.306109 0.0056175  -0.146181 -0.374023 0.00501597  -0.124815 -0.378242 0.00306308  -0.117828 -0.353625 0.00421023  -0.14702 -0.374962 0.00409985  -0.139577 -0.350595 0.00557685  -0.118665 -0.354709 0.00344038  -0.140477 -0.351644 0.00457501  -0.159284 -0.42179 0.00399184  -0.137128 -0.426213 0.00238085  -0.130242 -0.401192 0.00335097  -0.160007 -0.422557 0.00323749  -0.15275 -0.397756 0.00448906  -0.130973 -0.402084 0.00271297  -0.153532 -0.398613 0.00365508  -0.172216 -0.470607 0.00309038  -0.149394 -0.475204 0.00178564  -0.142642 -0.449872 0.00259459  -0.172833 -0.471209 0.0024761  -0.165768 -0.446076 0.00352681  -0.143267 -0.450595 0.00207448  -0.166442 -0.446766 0.00284386  -0.184955 -0.520234 0.00230062  -0.161592 -0.524982 0.00126612  -0.154979 -0.499431 0.00193334  -0.185468 -0.520708 0.00181448  -0.178611 -0.495324 0.00268269  -0.155506 -0.500004 0.00151789  -0.179177 -0.495868 0.00213349  -0.19746 -0.570485 0.0016166  -0.173655 -0.575351 0.000820994  -0.167207 -0.549658 0.00135922  -0.197883 -0.570833 0.00123835  -0.191232 -0.545288 0.00194585  -0.167639 -0.550103 0.00103533  -0.191704 -0.545705 0.00151503  -0.209723 -0.621154 0.00103319  -0.185573 -0.626116 0.000442266  -0.179286 -0.600358 0.000869274  -0.210058 -0.62141 0.000751495  -0.203622 -0.59577 0.00131345  -0.179636 -0.600692 0.00062418  -0.204002 -0.596078 0.000984192  -0.221713 -0.67209 0.000545621  -0.197296 -0.677118 0.000130415  -0.191185 -0.651356 0.000456572  -0.221975 -0.672254 0.000341415  -0.215746 -0.646592 0.000777364  -0.191458 -0.651596 0.000278473  -0.216049 -0.646808 0.000535846  -0.233436 -0.723122 0.000151753  -0.208826 -0.728201 -0.000120878  -0.20288 -0.702495 0.000120759  -0.23363 -0.723225 1.44243e-05  -0.227607 -0.697593 0.000337958  -0.203087 -0.702655 -2.38419e-06  -0.227835 -0.697734 0.000167847  -0.244879 -0.774138 -0.000154495  -0.220129 -0.779245 -0.000312328  -0.214355 -0.753637 -0.000144601  -0.24502 -0.774179 -0.000242591  -0.239185 -0.748632 -1.21593e-05  -0.214503 -0.753734 -0.000223517  -0.239357 -0.748711 -0.000123739  -0.256059 -0.825006 -0.000379324  -0.231223 -0.830135 -0.000453115  -0.2256 -0.804666 -0.000342488  -0.256155 -0.825015 -0.000427485  -0.2505 -0.799586 -0.000275612  -0.225703 -0.804712 -0.000388145  -0.250618 -0.799619 -0.000343442  -0.266981 -0.87566 -0.000539899  -0.24209 -0.880794 -0.000552058  -0.236613 -0.855487 -0.000485778  -0.26705 -0.875633 -0.000563145  -0.261544 -0.850357 -0.000466347  -0.236681 -0.855496 -0.000507236  -0.26163 -0.850355 -0.000501394  -0.277689 -0.926016 -0.000666499  -0.25277 -0.93115 -0.000635147  -0.247405 -0.906024 -0.000589848  -0.277738 -0.925986 -0.000666142  -0.272358 -0.900867 -0.000603199  -0.247453 -0.90601 -0.000594378  -0.272418 -0.900848 -0.000616789  -0.288227 -0.976075 -0.000798345  -0.263287 -0.981154 -0.000715494  -0.258003 -0.956218 -0.000695348  -0.288283 -0.976039 -0.000769138  -0.282963 -0.951075 -0.000732183  -0.258041 -0.9562 -0.000678301  -0.28302 -0.951052 -0.000719786  -0.00253306 -0.00477189 0.00571251  0 0 0  -0.0013835 -0.00576192 0.00299978  -0.000462126 -0.00126582 0.00215518  0 0 0  -0.00257544 -0.00608599 0.00456226  -0.000874873 -0.00136411 0.00332212  0 0 0  -0.000473369 -0.00191161 0.00171316  -0.000864111 -0.00209853 0.00260723  -0.00770384 -0.0173761 0.0087626  -0.00429676 -0.0192292 0.00466549  -0.00262778 -0.00983548 0.0049237  -0.00776161 -0.0196981 0.00716174  -0.00486848 -0.0101613 0.00745857  -0.00266764 -0.0116599 0.00397372  -0.00490968 -0.0121019 0.00604606  -0.0142749 -0.0368924 0.00980341  -0.00841928 -0.0393039 0.00532198  -0.00605375 -0.026092 0.00613725  -0.0144986 -0.0396092 0.00820088  -0.0108733 -0.0263753 0.00944269  -0.0062179 -0.028552 0.00510347  -0.0109889 -0.0289533 0.00783026  -0.0216276 -0.0618964 0.00970733  -0.013525 -0.0647373 0.00528467  -0.0104542 -0.0487651 0.00636768  -0.0221665 -0.0647085 0.00817752  -0.0178537 -0.0487867 0.0098598  -0.0108512 -0.0514292 0.00536382  -0.0182314 -0.051579 0.00828516  -0.0297642 -0.0914268 0.0089829  -0.0195357 -0.094596 0.00485432  -0.0157905 -0.0764537 0.00603902  -0.0305368 -0.0941621 0.00757766  -0.0256082 -0.0761403 0.00940406  -0.016418 -0.0791511 0.00510561  -0.0262681 -0.0789298 0.00792861  -0.0385674 -0.124865 0.00796282  -0.0263789 -0.128244 0.00423753  -0.0220509 -0.1084 0.00539458  -0.0395142 -0.127372 0.00671041  -0.0340839 -0.107694 0.00849557  -0.0228525 -0.110973 0.00455952  -0.0349526 -0.110333 0.0071671  -0.0480292 -0.161608 0.00687909  -0.0340263 -0.165188 0.00357771  -0.0292038 -0.143963 0.00464797  -0.049052 -0.163866 0.00576687  -0.0432157 -0.142849 0.00742412  -0.0301023 -0.146326 0.00391078  -0.0442147 -0.14524 0.00624275  -0.0580701 -0.201216 0.00582576  -0.0424048 -0.204951 0.00294054  -0.0371954 -0.182621 0.00389528  -0.0590979 -0.203176 0.00486124  -0.052984 -0.181076 0.00634611  -0.0381249 -0.184732 0.00325572  -0.0540146 -0.183195 0.00531125  -0.0686156 -0.243247 0.00485802  -0.0514557 -0.247169 0.00236213  -0.0459434 -0.223919 0.00319457  -0.069598 -0.244951 0.00402093  -0.0632794 -0.221945 0.0053314  -0.0468483 -0.22577 0.00264621  -0.0642954 -0.223782 0.00443387  -0.0795689 -0.287363 0.0039854  -0.0610764 -0.291444 0.00184774  -0.0553474 -0.267462 0.00256193  -0.0804745 -0.2888 0.0032773  -0.0740478 -0.265059 0.00440967  -0.0561963 -0.26906 0.00209832  -0.0749933 -0.266637 0.00364149  -0.0908486 -0.333218 0.00321352  -0.0711915 -0.337485 0.0014019  -0.0653045 -0.312894 0.00200522  -0.0916622 -0.334441 0.00261331  -0.0851674 -0.310085 0.00358808  -0.0660747 -0.314257 0.00161898  -0.0860342 -0.311419 0.00293732  -0.102363 -0.380542 0.00253165  -0.0816938 -0.384961 0.00101483  -0.0757117 -0.359901 0.00151849  -0.103078 -0.381548 0.00203824  -0.0965819 -0.356706 0.00286126  -0.0763954 -0.361051 0.00120199  -0.0973454 -0.357828 0.00231862  -0.114043 -0.429049 0.0019362  -0.0925111 -0.433631 0.000684261  -0.0864725 -0.408199 0.00109851  -0.114659 -0.429887 0.00153017  -0.108181 -0.404656 0.00222433  -0.087065 -0.409157 0.000844359  -0.108852 -0.405582 0.00177753  -0.125809 -0.478517 0.00141668  -0.103544 -0.483219 0.000401497  -0.0974962 -0.457529 0.000737071  -0.12633 -0.479183 0.00109589  -0.119919 -0.45367 0.00166678  -0.0980006 -0.458316 0.000537276  -0.120487 -0.45443 0.00130713  -0.137606 -0.528703 0.000968456  -0.114733 -0.533529 0.000163317  -0.1087 -0.507657 0.000429988  -0.138038 -0.52924 0.000714898  -0.131701 -0.503526 0.00118446  -0.10912 -0.508292 0.000278234  -0.132183 -0.504132 0.000899673  -0.149368 -0.579425 0.000585318  -0.125992 -0.584331 -3.52859e-05  -0.12001 -0.558371 0.000170708  -0.149719 -0.579828 0.000396848  -0.143494 -0.554001 0.000768781  -0.120353 -0.558872 5.9247e-05  -0.143884 -0.554479 0.000550866  -0.161058 -0.63048 0.000264645  -0.137278 -0.635467 -0.000196457  -0.131361 -0.609478 -4.22001e-05  -0.161333 -0.630788 0.000124574  -0.155219 -0.604914 0.000418067  -0.131632 -0.609863 -0.000119567  -0.155537 -0.605275 0.000255704  -0.172623 -0.681723 1.78814e-06  -0.148522 -0.686752 -0.000323296  -0.142695 -0.660807 -0.000214577  -0.172834 -0.681931 -9.19104e-05  -0.166857 -0.65608 0.000125885  -0.142903 -0.661092 -0.000264525  -0.167099 -0.656346 1.19209e-05  -0.184044 -0.732993 -0.000204682  -0.159697 -0.738068 -0.000418782  -0.153965 -0.712209 -0.000346303  -0.184197 -0.733138 -0.000267625  -0.178347 -0.707356 -0.000107527  -0.154117 -0.712409 -0.000374317  -0.178534 -0.707537 -0.000184417  -0.195285 -0.784186 -0.000360966  -0.170753 -0.789273 -0.000484824  -0.165132 -0.763553 -0.000443459  -0.195391 -0.78426 -0.000394106  -0.189687 -0.758598 -0.000289083  -0.165236 -0.763684 -0.000455618  -0.189815 -0.758716 -0.000334501  -0.206341 -0.835181 -0.000471592  -0.18168 -0.840289 -0.000526309  -0.176164 -0.814731 -0.00050652  -0.206409 -0.835218 -0.000488997  -0.200831 -0.809706 -0.000420332  -0.176231 -0.814805 -0.000507474  -0.200923 -0.809767 -0.000444651  -0.217194 -0.885912 -0.000547528  -0.192447 -0.891015 -0.000549316  -0.187041 -0.865654 -0.000545144  -0.217237 -0.885907 -0.000549197  -0.211791 -0.860576 -0.000512719  -0.18708 -0.865685 -0.000540018  -0.211846 -0.860601 -0.000520229  -0.227861 -0.936293 -0.00061059  -0.203061 -0.941398 -0.000567794  -0.197751 -0.916246 -0.000565767  -0.227887 -0.93628 -0.000605226  -0.222544 -0.911144 -0.000577211  -0.19777 -0.916248 -0.000557303  -0.222584 -0.911138 -0.000575423  -0.238344 -0.986242 -0.000686526  -0.2135 -0.991316 -0.000589967  -0.208284 -0.966424 -0.000595808  -0.238373 -0.986233 -0.000658631  -0.233122 -0.961324 -0.000648022  -0.208297 -0.966418 -0.000580549  -0.233147 -0.961316 -0.000631928  -0.000197865 -0.00470093 0.00178838  0 0 0  0.000755489 -0.00628775 -8.45194e-05  0.000282757 -0.00164738 -0.000101209  0 0 0  -0.000279494 -0.00584769 0.00145829  -7.33845e-05 -0.00134984 0.00102699  0 0 0  0.000239447 -0.00222993 -5.47171e-05  -9.97148e-05 -0.00196984 0.000828147  -0.000890762 -0.0173225 0.00270784  0.00200176 -0.020096 -0.000138402  0.00157402 -0.0107088 -0.000211835  -0.00108337 -0.0193942 0.00225246  -0.000456646 -0.0100475 0.00235069  0.00138067 -0.012357 -0.000112772  -0.000597909 -0.0117679 0.00192523  -0.0023495 -0.037154 0.00297248  0.00282767 -0.0405599 -0.000200868  0.00286728 -0.0273174 -0.000282764  -0.00269607 -0.0396323 0.002527  -0.00151083 -0.0264277 0.00288665  0.00250804 -0.0295922 -0.000163078  -0.00177437 -0.0287718 0.00243616  -0.00476912 -0.0627144 0.00287962  0.002698 -0.0665016 -0.000301123  0.00338751 -0.0504255 -0.000367999  -0.00529897 -0.0653324 0.00246286  -0.00343043 -0.0493096 0.00295544  0.0028995 -0.0529223 -0.000243545  -0.0038687 -0.0518806 0.00252545  -0.00827777 -0.092926 0.00255477  0.00138187 -0.0969572 -0.00043273  0.00279337 -0.0786356 -0.000497222  -0.00895077 -0.0955184 0.00218832  -0.00638795 -0.0772817 0.00273454  0.00219566 -0.0812118 -0.000362515  -0.00699127 -0.0799118 0.0023396  -0.0128857 -0.127097 0.00213003  -0.00119328 -0.13128 -0.000577331  0.000927925 -0.111174 -0.000647902  -0.0136607 -0.129531 0.00181222  -0.0104391 -0.109552 0.00234985  0.000252545 -0.113671 -0.000505567  -0.0111755 -0.112084 0.00200546  -0.0185811 -0.164626 0.00168622  -0.00502121 -0.168924 -0.000713468  -0.00223899 -0.14738 -0.000794411  -0.0193971 -0.166858 0.001423  -0.0156041 -0.145464 0.00190997  -0.00295436 -0.149716 -0.000646114  -0.0164033 -0.147814 0.00161529  -0.0252801 -0.205038 0.00126684  -0.0100203 -0.209431 -0.000829458  -0.00665975 -0.186726 -0.000926495  -0.0260922 -0.207016 0.00104702  -0.0218038 -0.184494 0.00147438  -0.00737929 -0.188846 -0.00077486  -0.0226302 -0.18661 0.00123012  -0.0328928 -0.247883 0.000892878  -0.0161061 -0.252376 -0.000918388  -0.0122439 -0.228737 -0.00102913  -0.0336645 -0.249626 0.000720024  -0.0289809 -0.226171 0.00107682  -0.0129347 -0.230622 -0.000876784  -0.0297747 -0.228043 0.000877142  -0.0412961 -0.292791 0.000569224  -0.0231471 -0.297383 -0.000979185  -0.0188718 -0.272993 -0.00110388  -0.0420055 -0.294285 0.000431299  -0.0369954 -0.270095 0.000726581  -0.0195137 -0.274643 -0.000952244  -0.0377455 -0.27172 0.000569344  -0.0503813 -0.339402 0.000296235  -0.0310379 -0.3441 -0.00101292  -0.0264173 -0.31912 -0.00114644  -0.0510151 -0.340687 0.000196457  -0.0457618 -0.315892 0.000428915  -0.0269945 -0.320546 -0.000998378  -0.0464336 -0.317291 0.00030756  -0.0600247 -0.387426 6.90222e-05  -0.0396377 -0.392222 -0.00102353  -0.0347483 -0.366786 -0.00116467  -0.0605781 -0.388499 -4.76837e-06  -0.0551329 -0.36325 0.000178456  -0.0352554 -0.368003 -0.00102115  -0.0557338 -0.364434 9.01222e-05  -0.0701263 -0.43657 -0.000116825  -0.0488459 -0.441461 -0.00101447  -0.0437406 -0.41569 -0.00115728  -0.0705979 -0.437472 -0.000161529  -0.0650254 -0.411863 -2.70605e-05  -0.0441735 -0.416716 -0.00102079  -0.0655373 -0.41286 -8.85725e-05  -0.0805751 -0.486601 -0.000266433  -0.0585308 -0.49157 -0.000990391  -0.0532728 -0.465567 -0.00113297  -0.0809691 -0.48733 -0.000293851  -0.0753058 -0.461484 -0.000195503  -0.0536338 -0.46642 -0.00100446  -0.0757451 -0.462304 -0.000232577  -0.0912886 -0.537277 -0.00038445  -0.0686077 -0.542314 -0.000953913  -0.0632347 -0.516175 -0.00109231  -0.0916083 -0.537872 -0.000391006  -0.0859048 -0.511861 -0.000327945  -0.0635273 -0.516873 -0.000973105  -0.0862607 -0.512532 -0.000347137  -0.102172 -0.588414 -0.000473857  -0.0789599 -0.593499 -0.000908732  -0.0735235 -0.567302 -0.00104177  -0.102425 -0.588871 -0.000470877  -0.0967067 -0.562795 -0.000432134  -0.0737532 -0.567862 -0.000932813  -0.0969989 -0.563326 -0.000435114  -0.113163 -0.639813 -0.00053823  -0.0895216 -0.644935 -0.00085628  -0.0840478 -0.618755 -0.000980258  -0.113354 -0.64017 -0.000522375  -0.107659 -0.614081 -0.000508189  -0.0842203 -0.619193 -0.000882864  -0.10788 -0.614497 -0.000500798  -0.124184 -0.691334 -0.000579357  -0.100196 -0.696475 -0.000799179  -0.0947247 -0.670368 -0.000914693  -0.124324 -0.691586 -0.000560403  -0.118666 -0.665562 -0.000561476  -0.0948472 -0.6707 -0.000828862  -0.118837 -0.665872 -0.000544906  -0.135193 -0.742821 -0.000600219  -0.110939 -0.747974 -0.000738502  -0.105484 -0.721993 -0.000842094  -0.135286 -0.743003 -0.000574946  -0.129693 -0.717079 -0.000591397  -0.105563 -0.722235 -0.0007689  -0.129809 -0.717305 -0.000571489  -0.146134 -0.794177 -0.000602484  -0.121674 -0.799327 -0.000676155  -0.116265 -0.773507 -0.000768661  -0.146191 -0.794284 -0.000579953  -0.140667 -0.768517 -0.000603437  -0.116308 -0.773674 -0.000708103  -0.140748 -0.768667 -0.00058043  -0.156983 -0.845288 -0.000590324  -0.13238 -0.850432 -0.000613093  -0.127019 -0.824808 -0.000691652  -0.157009 -0.845352 -0.00056684  -0.151572 -0.819758 -0.000597  -0.127034 -0.824913 -0.000644326  -0.151613 -0.819853 -0.000576377  -0.167701 -0.896094 -0.00056684  -0.142997 -0.901223 -0.000550985  -0.137706 -0.875813 -0.000616789  -0.167708 -0.89611 -0.000550866  -0.162353 -0.870729 -0.000579357  -0.137699 -0.87587 -0.000582337  -0.162374 -0.870774 -0.00056076  -0.178281 -0.946502 -0.00054431  -0.153517 -0.951623 -0.00049293  -0.148294 -0.926448 -0.000541687  -0.178273 -0.946506 -0.000529528  -0.173009 -0.921343 -0.000553966  -0.148271 -0.926472 -0.000520706  -0.173009 -0.921359 -0.000540972  -0.188666 -0.996402 -0.000530958  -0.163864 -1.00153 -0.000436306  -0.158742 -0.976628 -0.00047648  -0.188664 -0.996405 -0.000516772  -0.183494 -0.971523 -0.000537634  -0.158716 -0.976645 -0.000466466  -0.183492 -0.971529 -0.000524044  0.00192319 -0.00601315 -0.00208688  0 0 0  0.0028725 -0.00820857 -0.00309587  0.00100113 -0.00275266 -0.00230348  0 0 0  0.00180164 -0.0070771 -0.0016129  0.000634231 -0.00209773 -0.00122678  0 0 0  0.000940174 -0.00331628 -0.00176775  0.000591189 -0.0026744 -0.000923634  0.00541002 -0.0193718 -0.00319326  0.00821462 -0.0230556 -0.00483239  0.00570925 -0.0132929 -0.005211  0.00508827 -0.021324 -0.00250542  0.0035795 -0.0117791 -0.00272799  0.0053692 -0.014878 -0.00409865  0.00336352 -0.0133901 -0.00212646  0.00879848 -0.0397072 -0.0035888  0.0138774 -0.0441551 -0.00558341  0.0116395 -0.0306987 -0.00655317  0.00830948 -0.0420684 -0.00289989  0.00719965 -0.0287333 -0.00342298  0.0110867 -0.0329027 -0.00530934  0.00676867 -0.0309646 -0.00273728  0.0111729 -0.0657122 -0.00370955  0.018611 -0.0705315 -0.00573909  0.0169845 -0.0543033 -0.00693655  0.0106162 -0.0682344 -0.00302958  0.0101316 -0.0520818 -0.00366032  0.0163933 -0.0567427 -0.00570524  0.00960678 -0.0545484 -0.00298285  0.012221 -0.0963931 -0.00367308  0.0218974 -0.101401 -0.00559247  0.0210456 -0.0829113 -0.00687802  0.0116106 -0.0989166 -0.00302541  0.011883 -0.0805091 -0.00370204  0.0204525 -0.0854372 -0.00569367  0.0112894 -0.0830555 -0.00303876  0.0117785 -0.131077 -0.00355554  0.0235264 -0.13616 -0.00529146  0.0235046 -0.115849 -0.0065639  0.0111473 -0.133479 -0.00294316  0.0121846 -0.113267 -0.00361967  0.0229243 -0.11832 -0.00545275  0.0115638 -0.11575 -0.00298893  0.00985283 -0.169173 -0.00340044  0.0234807 -0.174309 -0.00493479  0.0242726 -0.15251 -0.00614572  0.00922197 -0.171401 -0.00283337  0.0110034 -0.149724 -0.00348258  0.0237105 -0.154835 -0.00511873  0.0103636 -0.152053 -0.00289106  0.0065192 -0.210191 -0.0032227  0.0218486 -0.215346 -0.00455737  0.0233951 -0.192355 -0.00568891  0.0059104 -0.212191 -0.00269628  0.00835413 -0.189338 -0.00331581  0.02286 -0.194486 -0.00474882  0.00773376 -0.191466 -0.00276577  0.00188458 -0.253662 -0.00303137  0.0187362 -0.258856 -0.00417662  0.0209688 -0.2349 -0.00522125  0.0013175 -0.255443 -0.00255167  0.00436223 -0.231638 -0.00313079  0.020471 -0.236812 -0.00436819  0.00376582 -0.233538 -0.00262511  -0.00390875 -0.299193 -0.00282705  0.0142978 -0.304411 -0.0037992  0.0171295 -0.279704 -0.00475669  -0.0044229 -0.300739 -0.00238812  -0.000876188 -0.276185 -0.00293303  0.0166783 -0.281393 -0.0039891  -0.00141716 -0.277859 -0.00247025  -0.0107296 -0.346408 -0.00261629  0.00866735 -0.351672 -0.00342917  0.0120225 -0.326372 -0.00429893  -0.011181 -0.34775 -0.00222266  -0.00719392 -0.322603 -0.00272405  0.0116247 -0.327843 -0.00361383  -0.00768375 -0.324054 -0.00230551  -0.0184259 -0.394998 -0.00239921  0.00200927 -0.400286 -0.00306952  0.00580239 -0.374553 -0.00385559  -0.0188133 -0.396131 -0.00204456  -0.0144763 -0.370542 -0.00251043  0.00546241 -0.37582 -0.00324965  -0.0148957 -0.371789 -0.00213313  -0.0268725 -0.444659 -0.00218189  -0.0055455 -0.449985 -0.00272369  -0.00138092 -0.423935 -0.00342607  -0.0271937 -0.44562 -0.00187027  -0.022558 -0.419704 -0.00229168  -0.00166225 -0.425011 -0.00289536  -0.0229185 -0.420757 -0.00195658  -0.0359287 -0.49515 -0.00196564  -0.013841 -0.500487 -0.00239325  -0.00938034 -0.474241 -0.00301743  -0.0361881 -0.495936 -0.00168979  -0.0313314 -0.469807 -0.0020752  -0.00960398 -0.475143 -0.00255775  -0.0316211 -0.47069 -0.00177872  -0.0454856 -0.546225 -0.00175548  -0.0227616 -0.551582 -0.00208235  -0.0180582 -0.525225 -0.0026288  -0.0456854 -0.546873 -0.00151944  -0.0406463 -0.52062 -0.00186038  -0.0182283 -0.525968 -0.00223565  -0.0408812 -0.521343 -0.00160325  -0.0554216 -0.597699 -0.00155294  -0.0321695 -0.603046 -0.00179172  -0.0272858 -0.57667 -0.00226688  -0.0555696 -0.598205 -0.00134897  -0.0504117 -0.571916 -0.00165462  -0.0274067 -0.577272 -0.0019356  -0.050585 -0.572502 -0.0014323  -0.0656483 -0.649376 -0.00136113  -0.0419691 -0.65472 -0.00152445  -0.0369468 -0.628387 -0.00193012  -0.0657482 -0.649776 -0.00119269  -0.060499 -0.623515 -0.00145602  -0.037024 -0.628861 -0.00165546  -0.0606282 -0.623973 -0.00126898  -0.0760658 -0.701119 -0.00118017  -0.0520451 -0.706432 -0.00128114  -0.0469332 -0.680209 -0.00162363  -0.0761268 -0.701408 -0.00103962  -0.070837 -0.67524 -0.00127017  -0.0469732 -0.680573 -0.00140095  -0.0709171 -0.675593 -0.00111353  -0.0866094 -0.752775 -0.00101292  -0.0623248 -0.75807 -0.00106347  -0.0571525 -0.731995 -0.0013454  -0.0866356 -0.752988 -0.000903726  -0.0813205 -0.726958 -0.00109494  -0.0571613 -0.732263 -0.0011692  -0.0813694 -0.727214 -0.00096941  -0.0972023 -0.804254 -0.000859022  -0.0727179 -0.809506 -0.000871062  -0.0675218 -0.783625 -0.00109911  -0.097203 -0.804387 -0.000773311  -0.0919018 -0.778535 -0.000935078  -0.0675063 -0.783812 -0.000965238  -0.0919149 -0.778717 -0.000835776  -0.107804 -0.855446 -0.000718951  -0.0831764 -0.860672 -0.000702262  -0.0779743 -0.835001 -0.000880837  -0.107782 -0.855533 -0.000660181  -0.102499 -0.829884 -0.000787258  -0.0779395 -0.835122 -0.000783801  -0.102494 -0.829998 -0.00071454  -0.118358 -0.906299 -0.000590801  -0.0936327 -0.911481 -0.000553608  -0.0884514 -0.886047 -0.000690579  -0.118322 -0.906334 -0.000551462  -0.113088 -0.880912 -0.000654459  -0.0884035 -0.886117 -0.000626922  -0.113059 -0.880981 -0.000603676  -0.128834 -0.956725 -0.000472069  -0.10405 -0.961897 -0.000417948  -0.098906 -0.936699 -0.000519037  -0.128788 -0.956746 -0.000456572  -0.123603 -0.931562 -0.000529885  -0.0988464 -0.936736 -0.000484824  -0.123567 -0.931593 -0.000502348  -0.139147 -1.00662 -0.000356555  -0.114337 -1.01183 -0.000287533  -0.109275 -0.986896 -0.000357866  -0.139109 -1.00665 -0.000361323  -0.134017 -0.981746 -0.000414968  -0.109212 -0.986923 -0.000353575  -0.133973 -0.981772 -0.000408053  0.00416744 -0.00864196 -0.00581777  0 0 0  0.00518532 -0.0116717 -0.00602281  0.00185253 -0.00473368 -0.00436628  0 0 0  0.00401367 -0.00970799 -0.00456309  0.00138397 -0.00355828 -0.00340104  0 0 0  0.0016811 -0.00535047 -0.0034318  0.00131653 -0.00420851 -0.00262213  0.0119851 -0.0234104 -0.00894535  0.0149794 -0.0282435 -0.00950778  0.0102648 -0.0177924 -0.0100963  0.0115394 -0.0253651 -0.00716674  0.00783959 -0.0152718 -0.00759792  0.00977667 -0.0193806 -0.00804031  0.00752656 -0.0168584 -0.0060513  0.0202904 -0.0444716 -0.0100704  0.0257647 -0.0500597 -0.010933  0.0211501 -0.0362828 -0.0128001  0.0196758 -0.0468203 -0.00826538  0.0162221 -0.0332097 -0.00965846  0.0204228 -0.0385085 -0.0104283  0.0156579 -0.035408 -0.0078553  0.0274187 -0.0708674 -0.0101912  0.0353829 -0.076773 -0.0111248  0.0314706 -0.0603831 -0.0134629  0.0268402 -0.0733812 -0.00843191  0.0240315 -0.0570601 -0.0102098  0.0307707 -0.0628382 -0.0111201  0.0234261 -0.0595101 -0.00842774  0.0329406 -0.101872 -0.00980198  0.0431908 -0.10789 -0.0106782  0.0401293 -0.0892664 -0.0131838  0.0323828 -0.104392 -0.00814235  0.0304078 -0.0858317 -0.010043  0.0395448 -0.0918069 -0.0109504  0.029833 -0.0883608 -0.00833154  0.0365797 -0.136906 -0.00916147  0.0489064 -0.142936 -0.00995922  0.0468123 -0.122473 -0.0124122  0.0360698 -0.139307 -0.00763083  0.0349998 -0.118916 -0.00949979  0.0463092 -0.124951 -0.0103396  0.0344627 -0.121393 -0.00790656  0.0383511 -0.175402 -0.00843716  0.052542 -0.181421 -0.00912893  0.0514114 -0.159443 -0.0114524  0.0378802 -0.177642 -0.00703251  0.0376939 -0.155746 -0.00880516  0.050981 -0.16178 -0.00955081  0.0372049 -0.158081 -0.00734043  0.0383345 -0.216865 -0.0076884  0.0542008 -0.22285 -0.00828111  0.0539913 -0.199651 -0.0104332  0.0379043 -0.218887 -0.00642049  0.038565 -0.195789 -0.0080632  0.05361 -0.201796 -0.00870705  0.0381089 -0.19793 -0.0067296  0.0366482 -0.260805 -0.00694942  0.0540038 -0.266766 -0.00744259  0.0546558 -0.242589 -0.00941229  0.0362624 -0.26262 -0.00580585  0.0376892 -0.238543 -0.00731635  0.0543247 -0.244525 -0.00785983  0.037282 -0.240473 -0.00611436  0.0334505 -0.306811 -0.00623012  0.0521289 -0.312741 -0.00663626  0.0535538 -0.287802 -0.00842047  0.0331123 -0.308398 -0.00521672  0.0352353 -0.28357 -0.00658631  0.053266 -0.28952 -0.00703681  0.0348667 -0.285278 -0.00551081  0.0288914 -0.354486 -0.00554037  0.0487262 -0.360393 -0.00586355  0.0508456 -0.334871 -0.00746739  0.0286056 -0.355874 -0.00464177  0.0313293 -0.330452 -0.00588095  0.0506074 -0.336379 -0.00624573  0.031018 -0.331949 -0.00492871  0.023146 -0.403507 -0.00488126  0.0439889 -0.409381 -0.00513399  0.0467064 -0.383434 -0.00656319  0.022912 -0.404688 -0.00410056  0.0261639 -0.378843 -0.0052067  0.0465146 -0.384739 -0.00549483  0.0258979 -0.380133 -0.00436985  0.0163635 -0.453558 -0.00426018  0.0380669 -0.459401 -0.00444603  0.0413073 -0.433161 -0.00570881  0.0161827 -0.454567 -0.0035814  0.0198734 -0.428411 -0.00456572  0.0411651 -0.434278 -0.00478494  0.0196669 -0.429514 -0.00383961  0.00870979 -0.504393 -0.00367558  0.0311466 -0.510189 -0.00380695  0.0348209 -0.483771 -0.0049113  0.00857782 -0.505224 -0.0031004  0.0126436 -0.478888 -0.00396335  0.0347229 -0.484713 -0.00412178  0.0124812 -0.479813 -0.00333893  0.000319481 -0.55576 -0.00313449  0.0233622 -0.561508 -0.00321424  0.0274066 -0.535012 -0.00416982  0.000234008 -0.55645 -0.00264668  0.00459707 -0.530013 -0.00339961  0.0273525 -0.535793 -0.00350463  0.00448942 -0.530782 -0.00287139  -0.00866032 -0.607475 -0.00263536  0.014883 -0.61316 -0.00267482  0.0192198 -0.586668 -0.00349069  -0.00870633 -0.608018 -0.00223529  -0.0040977 -0.581581 -0.00287986  0.0192022 -0.587303 -0.00293899  -0.00416875 -0.582203 -0.00243819  -0.0181174 -0.659342 -0.00218344  0.00582194 -0.664963 -0.00218606  0.0104001 -0.638545 -0.00287211  -0.0181277 -0.659774 -0.00185549  -0.0133371 -0.633389 -0.0024035  0.0104167 -0.63905 -0.00242376  -0.0133643 -0.633885 -0.00204265  -0.0279274 -0.711228 -0.00177705  -0.00367475 -0.716774 -0.00175333  0.00108099 -0.690485 -0.00232017  -0.0279105 -0.711544 -0.00152063  -0.0229776 -0.685286 -0.00197494  0.00112247 -0.690874 -0.00196385  -0.0229797 -0.685665 -0.00168467  -0.0380032 -0.762985 -0.0014199  -0.0135183 -0.768458 -0.00137496  -0.00862336 -0.742347 -0.00183165  -0.0379629 -0.76322 -0.00122046  -0.0329378 -0.737119 -0.00159228  -0.00855994 -0.742635 -0.00155711  -0.0329087 -0.737403 -0.00136745  -0.0482473 -0.814525 -0.00110888  -0.0235891 -0.819922 -0.00105298  -0.0186057 -0.794018 -0.00141191  -0.0481918 -0.814675 -0.000965714  -0.0431018 -0.788783 -0.00125945  -0.0185289 -0.794221 -0.00120783  -0.0430593 -0.78898 -0.00108993  -0.0585995 -0.865747 -0.000843048  -0.0338247 -0.871076 -0.00078094  -0.0287788 -0.845403 -0.00105393  -0.0585306 -0.865847 -0.000742316  -0.0534141 -0.84017 -0.00097084  -0.0286918 -0.845539 -0.000910759  -0.0533516 -0.840304 -0.00085175  -0.0689867 -0.916605 -0.000612736  -0.0441315 -0.921873 -0.00055337  -0.0390639 -0.896437 -0.000755429  -0.0689108 -0.916653 -0.000555396  -0.0637856 -0.891219 -0.000725031  -0.0389717 -0.89652 -0.000663519  -0.0637181 -0.891299 -0.000647306  -0.0793636 -0.967035 -0.000406146  -0.0544693 -0.972273 -0.000350833  -0.0493991 -0.947069 -0.000497103  -0.0792809 -0.967069 -0.000381351  -0.0741804 -0.941865 -0.000508904  -0.0493007 -0.947121 -0.000449777  -0.0741007 -0.941913 -0.000469327  -0.0896275 -1.017 -0.000198841  -0.0647302 -1.02228 -0.000153542  -0.0597155 -0.997281 -0.000255346  -0.0895503 -1.01703 -0.000218391  -0.0845103 -0.992076 -0.000303268  -0.0596178 -0.997323 -0.000252366  -0.0844359 -0.99211 -0.000299573  0.00673476 -0.0130562 -0.00947034  0 0 0  0.00800627 -0.0173765 -0.00920355  0.00269902 -0.00793004 -0.00666118  0 0 0  0.00653833 -0.0142214 -0.00752544  0.00219696 -0.00618511 -0.00545931  0 0 0  0.00257267 -0.00863612 -0.00512803  0.0021075 -0.00683361 -0.00422561  0.0195377 -0.0298117 -0.0148526  0.0234279 -0.0361254 -0.0143845  0.015881 -0.0248852 -0.0154752  0.0189997 -0.0318104 -0.011923  0.0127072 -0.020909 -0.0125867  0.0151906 -0.0263706 -0.012298  0.0123635 -0.0225279 -0.0100782  0.0331736 -0.0515131 -0.0165837  0.0397156 -0.0583926 -0.0163771  0.0325708 -0.0442935 -0.0192785  0.0324188 -0.053928 -0.0136381  0.0265132 -0.0399505 -0.0159861  0.0317089 -0.0466187 -0.0157214  0.0257857 -0.0422453 -0.013021  0.0450891 -0.0781571 -0.0166388  0.0541759 -0.0851635 -0.0164815  0.0479736 -0.0686287 -0.0200299  0.0444787 -0.0807106 -0.0137914  0.0393552 -0.0642338 -0.0167379  0.0472046 -0.0711955 -0.0165663  0.0386789 -0.0667523 -0.0138404  0.0549738 -0.109355 -0.0158726  0.0662943 -0.116373 -0.0157667  0.0611323 -0.0976356 -0.0194885  0.0544518 -0.111891 -0.0132141  0.0503234 -0.0932053 -0.0163332  0.0605409 -0.100228 -0.0161986  0.0497395 -0.0957741 -0.0135701  0.0625692 -0.144613 -0.0147389  0.0759292 -0.151579 -0.014629  0.0718865 -0.131014 -0.0182774  0.0621484 -0.147025 -0.0122851  0.0590516 -0.126507 -0.0153366  0.0714229 -0.133502 -0.0152253  0.0585862 -0.128995 -0.0127763  0.0679221 -0.183399 -0.0134656  0.0830986 -0.190304 -0.0133613  0.080175 -0.168206 -0.0168046  0.0675712 -0.185642 -0.0112333  0.0655262 -0.163598 -0.0141159  0.0798173 -0.170531 -0.0140079  0.0651383 -0.165933 -0.0117692  0.0711243 -0.225185 -0.0121688  0.0879221 -0.232012 -0.0120457  0.086094 -0.208687 -0.0152395  0.0708277 -0.227217 -0.0101523  0.0697825 -0.203947 -0.0128214  0.0857971 -0.210812 -0.0127064  0.0694618 -0.206091 -0.0106936  0.0723015 -0.269474 -0.0108905  0.0905364 -0.276231 -0.0107645  0.0897337 -0.251915 -0.0136745  0.0720543 -0.2713 -0.0090915  0.0719597 -0.247044 -0.0115286  0.0894969 -0.253834 -0.0114031  0.0716847 -0.248976 -0.00961864  0.0716275 -0.315824 -0.00966227  0.0911249 -0.322496 -0.00952029  0.0912714 -0.297425 -0.0121554  0.0714239 -0.31743 -0.00806773  0.0721843 -0.292414 -0.0102739  0.0910749 -0.299129 -0.010139  0.0719602 -0.294135 -0.00857449  0.0692661 -0.363829 -0.00849104  0.0898659 -0.370424 -0.00834632  0.0908643 -0.344772 -0.0106996  0.0691092 -0.365238 -0.00709593  0.0706496 -0.339639 -0.00907171  0.0907167 -0.346272 -0.00892687  0.0704658 -0.341149 -0.00757563  0.0654148 -0.413148 -0.0073874  0.0869625 -0.419647 -0.00723255  0.0887198 -0.393589 -0.00932515  0.0653005 -0.414354 -0.00617552  0.067515 -0.388341 -0.00793421  0.0886103 -0.394889 -0.00778365  0.0673803 -0.389653 -0.00662911  0.0602425 -0.463462 -0.00635362  0.0825992 -0.469867 -0.00619686  0.0850184 -0.443529 -0.00803185  0.0601733 -0.464495 -0.00531697  0.0629863 -0.438194 -0.00686347  0.084954 -0.444647 -0.00670636  0.0628908 -0.439316 -0.00573909  0.053942 -0.514512 -0.00539374  0.0769722 -0.520803 -0.00523233  0.0799638 -0.494314 -0.00683141  0.0539103 -0.515369 -0.00451565  0.0572231 -0.488905 -0.005867  0.079935 -0.495257 -0.00570738  0.0571733 -0.489856 -0.0049088  0.046667 -0.566052 -0.00451136  0.0702531 -0.572232 -0.00434959  0.0737313 -0.545681 -0.0057205  0.046674 -0.566763 -0.00378215  0.0504197 -0.540228 -0.00494421  0.073741 -0.546466 -0.00478113  0.0504041 -0.541016 -0.00414121  0.0385928 -0.617892 -0.00370789  0.0626202 -0.623942 -0.0035466  0.0665052 -0.597421 -0.00470948  0.0386283 -0.618455 -0.00311065  0.0427214 -0.59194 -0.0041014  0.0665433 -0.598059 -0.00393927  0.0427432 -0.592584 -0.00343812  0.0298526 -0.669842 -0.00298774  0.0542252 -0.675768 -0.00282753  0.0584447 -0.649338 -0.00379467  0.0299165 -0.670289 -0.0025115  0.0343015 -0.643856 -0.0033381  0.0585113 -0.649847 -0.00317585  0.0343475 -0.644366 -0.00280273  0.020597 -0.721772 -0.00234902  0.0452218 -0.727561 -0.00219548  0.0497088 -0.701283 -0.00298452  0.0206773 -0.722101 -0.0019778  0.0252831 -0.695811 -0.00265908  0.0497935 -0.701672 -0.00250137  0.0253549 -0.696206 -0.00223577  0.0109341 -0.773539 -0.00179815  0.0357394 -0.779203 -0.00165009  0.0404344 -0.753114 -0.00227606  0.0110304 -0.773782 -0.00152051  0.0158141 -0.747675 -0.00206292  0.0405357 -0.753404 -0.00191057  0.0158985 -0.747966 -0.00174046  0.000987768 -0.825062 -0.0013299  0.0259063 -0.8306 -0.00119698  0.0307539 -0.804731 -0.0016768  0.00108957 -0.825219 -0.00112987  0.00599217 -0.799329 -0.00155437  0.0308619 -0.804933 -0.00141251  0.00609088 -0.799536 -0.00131631  -0.00916123 -0.876247 -0.000944138  0.0158277 -0.881681 -0.000825524  0.0207798 -0.856043 -0.00118077  -0.00905252 -0.876351 -0.000811338  -0.00406194 -0.850692 -0.00112748  0.0208945 -0.856179 -0.000999808  -0.00396085 -0.850828 -0.000962853  -0.019418 -0.927058 -0.000624776  0.0056057 -0.932403 -0.000533104  0.010617 -0.906999 -0.000784159  -0.0193095 -0.927113 -0.000545382  -0.0142791 -0.901693 -0.000777841  0.0107312 -0.907084 -0.00067091  -0.0141706 -0.90178 -0.000671864  -0.0297263 -0.977457 -0.000350952  -0.00468874 -0.982759 -0.000286341  0.000348806 -0.957565 -0.000464439  -0.0296154 -0.977499 -0.000320554  -0.0245647 -0.952301 -0.000485063  0.000466824 -0.957621 -0.000405312  -0.0244596 -0.952355 -0.000430346  -0.040004 -1.02749 -8.34465e-05  -0.0149851 -1.03281 -5.96046e-05  -0.00995564 -1.00777 -0.000184059  -0.0398989 -1.02753 -0.000105023  -0.0348742 -1.00251 -0.000217438  -0.00983667 -1.00782 -0.000173688  -0.0347669 -1.00256 -0.000210762  0.010988 -0.0203596 -0.0141854  0 0 0  0.0160418 -0.0268396 -0.012645  0.00662673 -0.0147521 -0.00956357  0 0 0  0.0108105 -0.0215513 -0.0112127  0.00349046 -0.0101563 -0.00803089  0 0 0  0.00630534 -0.0155551 -0.0075593  0.00344909 -0.0110676 -0.00619054  0.0292866 -0.0387729 -0.021083  0.0356877 -0.0467551 -0.0192631  0.0265172 -0.0338669 -0.020945  0.0290489 -0.0412187 -0.0168616  0.0196167 -0.0292507 -0.018363  0.0256007 -0.0363514 -0.0164921  0.0195267 -0.0310851 -0.0145495  0.0486635 -0.0607297 -0.0232625  0.0568543 -0.0687227 -0.0215796  0.0472732 -0.0545573 -0.0256727  0.047808 -0.0633568 -0.0190541  0.0393138 -0.04925 -0.0225191  0.0464982 -0.0570225 -0.0208102  0.0385956 -0.0516148 -0.0183207  0.0652747 -0.0874397 -0.0231235  0.0758035 -0.09542 -0.0217758  0.0675026 -0.0787113 -0.0266076  0.0645952 -0.0900864 -0.0191453  0.057281 -0.0734904 -0.0233639  0.0666409 -0.0814759 -0.0218832  0.0565012 -0.0761445 -0.0192879  0.079351 -0.118743 -0.0220473  0.0920749 -0.126606 -0.0207639  0.0849525 -0.107783 -0.0257959  0.0788122 -0.121285 -0.0183048  0.0726473 -0.10251 -0.0226784  0.0842984 -0.110442 -0.0213519  0.072037 -0.105138 -0.0188222  0.0907689 -0.154165 -0.0203944  0.105479 -0.161962 -0.0192875  0.0996953 -0.141323 -0.0241566  0.0903416 -0.156564 -0.0169771  0.0854021 -0.135962 -0.0212606  0.0991405 -0.1438 -0.0200622  0.0849162 -0.138448 -0.0176861  0.0995612 -0.19319 -0.0186342  0.116051 -0.200881 -0.0175674  0.11154 -0.178713 -0.0221738  0.0992308 -0.195382 -0.0154991  0.0954816 -0.173247 -0.0195314  0.111107 -0.181003 -0.0184356  0.0951096 -0.17556 -0.0162606  0.105861 -0.235221 -0.0167489  0.123911 -0.242829 -0.0158325  0.120696 -0.219453 -0.0200686  0.105584 -0.237216 -0.0139536  0.103029 -0.213855 -0.0176946  0.120318 -0.221512 -0.0166981  0.10272 -0.215956 -0.0147353  0.109773 -0.279772 -0.014967  0.129204 -0.287266 -0.0140896  0.127162 -0.262903 -0.017965  0.109557 -0.281548 -0.012453  0.108099 -0.257198 -0.0158548  0.126861 -0.264764 -0.0149518  0.107856 -0.259097 -0.0132062  0.111507 -0.326356 -0.013184  0.132127 -0.333742 -0.0124401  0.131222 -0.308648 -0.015919  0.111328 -0.327931 -0.0109891  0.110913 -0.302831 -0.0140684  0.130954 -0.310279 -0.0132552  0.110709 -0.304511 -0.0117202  0.111222 -0.374578 -0.0115454  0.132881 -0.381829 -0.0108424  0.13296 -0.356164 -0.0139606  0.111095 -0.375948 -0.00961125  0.111598 -0.350273 -0.0123554  0.132757 -0.357608 -0.0116286  0.111448 -0.351757 -0.0102971  0.109153 -0.424066 -0.00995398  0.131684 -0.431181 -0.00936496  0.132688 -0.405138 -0.0121095  0.109062 -0.42525 -0.00830305  0.110409 -0.399179 -0.0107391  0.132514 -0.406372 -0.0100927  0.110293 -0.400461 -0.00895226  0.105476 -0.474513 -0.00850713  0.128748 -0.481469 -0.00795949  0.130529 -0.45516 -0.0103713  0.105433 -0.475519 -0.00708795  0.107499 -0.449176 -0.00921834  0.130417 -0.456228 -0.00864911  0.107433 -0.450282 -0.00768888  0.100418 -0.525646 -0.00713539  0.124288 -0.532436 -0.00668144  0.126779 -0.506004 -0.00875747  0.100406 -0.526486 -0.00595772  0.103117 -0.500005 -0.00780821  0.126696 -0.506887 -0.0073086  0.103083 -0.500933 -0.00651515  0.0941467 -0.577225 -0.00590146  0.118502 -0.583834 -0.00548875  0.121575 -0.557356 -0.00726867  0.0941746 -0.577917 -0.00492311  0.0974202 -0.551381 -0.00650454  0.121546 -0.558098 -0.00607121  0.0974283 -0.552159 -0.00543153  0.0868661 -0.629062 -0.00476623  0.111587 -0.635484 -0.00442719  0.115178 -0.609059 -0.00591326  0.0869184 -0.629612 -0.00398552  0.0906296 -0.603119 -0.00531924  0.115172 -0.609644 -0.00494516  0.0906632 -0.603745 -0.00444424  0.0787289 -0.680969 -0.00376165  0.103721 -0.687197 -0.00346255  0.107722 -0.660875 -0.00469208  0.0788093 -0.6814 -0.00314474  0.0828941 -0.655004 -0.00424814  0.10776 -0.661346 -0.00393009  0.0829594 -0.655507 -0.00355387  0.0699096 -0.732824 -0.00287533  0.0950763 -0.738858 -0.00263298  0.0994294 -0.712704 -0.00361323  0.0700047 -0.733142 -0.00241113  0.0744019 -0.706907 -0.00330245  0.0994823 -0.713047 -0.00303388  0.0744834 -0.707288 -0.00276601  0.0605414 -0.784488 -0.00211489  0.0858088 -0.790334 -0.00191128  0.0904241 -0.764371 -0.00267673  0.0606525 -0.784719 -0.00177741  0.0652864 -0.758675 -0.002478  0.0905099 -0.76463 -0.00225604  0.065388 -0.758961 -0.00208127  0.0507724 -0.835896 -0.00148952  0.0760698 -0.841565 -0.00132942  0.080893 -0.815825 -0.00189209  0.0508878 -0.836046 -0.00125921  0.0557048 -0.810225 -0.00178504  0.0809851 -0.81599 -0.00160515  0.0558121 -0.810422 -0.0015049  0.040714 -0.886955 -0.000983238  0.0659947 -0.892469 -0.000859022  0.0709498 -0.866947 -0.00125861  0.0408375 -0.887056 -0.000838161  0.0457737 -0.86146 -0.00121951  0.0710654 -0.867065 -0.00107872  0.0458913 -0.861597 -0.00103581  0.0304909 -0.937661 -0.000601172  0.055721 -0.943056 -0.000516534  0.0607543 -0.917744 -0.000774741  0.0306118 -0.937718 -0.000520229  0.0356214 -0.912349 -0.000778437  0.0608697 -0.917808 -0.000675797  0.0357387 -0.912434 -0.000668287  0.0201824 -0.987983 -0.000291348  0.0453525 -0.993308 -0.000241756  0.0504079 -0.968161 -0.000416756  0.0203083 -0.988035 -0.000259161  0.0253437 -0.962855 -0.000438809  0.0505426 -0.968223 -0.000372052  0.025466 -0.96292 -0.000384688  0.00985956 -1.03807 -8.70228e-06  0.0349667 -1.04331 -8.22544e-06  0.04003 -1.01831 -0.000128388  0.00997233 -1.03807 -2.15769e-05  0.0150268 -1.01304 -0.000151038  0.0401585 -1.01834 -0.000135183  0.0151429 -1.01309 -0.000140786  -0.0160018 -0.014801 0.0231142  -0.0106258 -0.00723408 0.0166085  0 0 0  -0.0157017 -0.00602162 0.0231674  0 0 0  -0.00849137 -0.00666951 0.015619  -0.00544652 -0.000769377 0.0119376  0 0 0  -0.0062554 -0.00869735 0.0127296  -0.0114745 -0.0100637 0.0192902  -0.00686815 -0.00275591 0.0136218  0 0 0  -0.00281914 -0.0027245 0.00869155  -0.00371872 -0.0049305 0.0103328  -0.0364273 -0.0255407 0.0332181  -0.029684 -0.0139152 0.0339196  -0.0297145 -0.0161119 0.0326405  -0.0221094 -0.0188165 0.0230598  -0.0172687 -0.007396 0.0232701  -0.0262841 -0.0196751 0.0291717  -0.0285636 -0.0216919 0.0284441  -0.0227753 -0.0105759 0.0284986  -0.0150621 -0.0119864 0.0202937  -0.0198694 -0.0153162 0.0250828  -0.0570181 -0.0420863 0.0358944  -0.0473379 -0.0268587 0.0401232  -0.0451909 -0.0335827 0.0341694  -0.0363906 -0.0369792 0.0248964  -0.0293678 -0.0217215 0.0277419  -0.0468514 -0.0331753 0.0352802  -0.0458584 -0.0392453 0.0303755  -0.0373726 -0.0240026 0.0337374  -0.0291579 -0.027122 0.0244658  -0.0372478 -0.0297943 0.0298722  -0.0768394 -0.0640997 0.0344398  -0.0656272 -0.0468822 0.039994  -0.0610575 -0.0569125 0.0329897  -0.0508208 -0.0605114 0.0242739  -0.0423983 -0.0429271 0.0279739  -0.0670355 -0.0524905 0.0354805  -0.0629576 -0.0621017 0.0293849  -0.0531117 -0.0446104 0.0338757  -0.0436002 -0.0481107 0.0248396  -0.054414 -0.050059 0.0302167  -0.0960039 -0.0906892 0.0317979  -0.0842505 -0.0721003 0.0373645  -0.0773472 -0.0852765 0.0303557  -0.0654304 -0.0888328 0.0224178  -0.0561315 -0.0695 0.0264096  -0.0864798 -0.0768882 0.0332868  -0.0798458 -0.089665 0.0270591  -0.0691112 -0.0706047 0.0317833  -0.0580978 -0.074146 0.023478  -0.0714428 -0.0753645 0.028399  -0.114647 -0.121471 0.0280628  -0.102817 -0.10178 0.0336347  -0.0938907 -0.117495 0.0271382  -0.0801738 -0.121007 0.0200253  -0.070394 -0.100465 0.0239933  -0.10543 -0.105645 0.029974  -0.0965708 -0.121202 0.0241175  -0.0856661 -0.100976 0.0287917  -0.0727912 -0.104475 0.0212915  -0.0882163 -0.104998 0.0256853  -0.132729 -0.155521 0.0246601  -0.121165 -0.134954 0.0296533  -0.110491 -0.153034 0.0238235  -0.0950164 -0.156573 0.0175474  -0.0851544 -0.135004 0.0212729  -0.123738 -0.138134 0.0263915  -0.113106 -0.156057 0.0211105  -0.102159 -0.134937 0.0254784  -0.0875829 -0.138411 0.018821  -0.104876 -0.138252 0.0226636  -0.150325 -0.192573 0.0210931  -0.139129 -0.171184 0.0257483  -0.126938 -0.191262 0.0206118  -0.109847 -0.194916 0.015126  -0.100071 -0.17257 0.0185497  -0.141625 -0.173734 0.0228496  -0.129387 -0.193784 0.0181913  -0.118793 -0.171851 0.0221844  -0.102439 -0.175416 0.0163474  -0.121274 -0.174605 0.019666  -0.167355 -0.232077 0.0180886  -0.15667 -0.209945 0.0221202  -0.143156 -0.231935 0.017638  -0.124604 -0.235748 0.0129077  -0.115071 -0.212668 0.0159678  -0.158901 -0.212051 0.0195825  -0.145357 -0.233974 0.0155215  -0.135058 -0.21135 0.0190904  -0.117234 -0.215049 0.0140214  -0.13742 -0.213595 0.0168624  -0.183872 -0.273849 0.0151684  -0.173664 -0.25104 0.0188019  -0.159007 -0.274634 0.0149257  -0.139199 -0.278649 0.0108676  -0.129959 -0.254989 0.0135808  -0.175704 -0.252729 0.0165908  -0.160979 -0.276325 0.0130858  -0.151165 -0.253056 0.0162365  -0.131924 -0.256951 0.0118825  -0.153209 -0.254913 0.0142972  -0.19983 -0.317498 0.0127211  -0.190152 -0.294075 0.0158219  -0.174506 -0.319186 0.0124824  -0.1536 -0.323399 0.00905919  -0.144694 -0.299191 0.0114229  -0.191919 -0.295464 0.0139298  -0.176222 -0.320533 0.010915  -0.166788 -0.296717 0.0136683  -0.146421 -0.300812 0.00995994  -0.168653 -0.298216 0.0119941  -0.21527 -0.362852 0.0104125  -0.206063 -0.338907 0.0131409  -0.18957 -0.365259 0.0102935  -0.167752 -0.369671 0.00742078  -0.159188 -0.345041 0.00947189  -0.207633 -0.340003 0.0115328  -0.191072 -0.366352 0.00896764  -0.182116 -0.342049 0.0113468  -0.160707 -0.346354 0.00823116  -0.183695 -0.34327 0.00992918  -0.230163 -0.409592 0.00845385  -0.22145 -0.385191 0.0107548  -0.204234 -0.41268 0.00833917  -0.181637 -0.417263 0.00598693  -0.173417 -0.392259 0.00773716  -0.222785 -0.386069 0.00941777  -0.205513 -0.41352 0.0072422  -0.196941 -0.388826 0.00928545  -0.174725 -0.393317 0.00669765  -0.198347 -0.389784 0.00809407  -0.244541 -0.457543 0.0066514  -0.236271 -0.432788 0.00862312  -0.218443 -0.461168 0.00660563  -0.19522 -0.465906 0.00469518  -0.187344 -0.440634 0.00618386  -0.237428 -0.433451 0.00752258  -0.219539 -0.461817 0.00570917  -0.21141 -0.436803 0.00743699  -0.188465 -0.441462 0.0053308  -0.212578 -0.437552 0.00646114  -0.258389 -0.506434 0.0051055  -0.250568 -0.48139 0.00674129  -0.232233 -0.51055 0.00507474  -0.208488 -0.515407 0.00358129  -0.200946 -0.489926 0.00482011  -0.251534 -0.481887 0.00586319  -0.23314 -0.511011 0.00436211  -0.225382 -0.485762 0.00581336  -0.20189 -0.49056 0.00413013  -0.226394 -0.486317 0.00502181  -0.271734 -0.556096 0.00373411  -0.264323 -0.53086 0.00508118  -0.245566 -0.560587 0.00374007  -0.221421 -0.565542 0.00259018  -0.214211 -0.53994 0.00361466  -0.265131 -0.531199 0.00439239  -0.246319 -0.560907 0.00318646  -0.238964 -0.535494 0.00437617  -0.214994 -0.540403 0.00307417  -0.239783 -0.535892 0.00375724  -0.284575 -0.6063 0.00255871  -0.277568 -0.580926 0.00364447  -0.258478 -0.611114 0.00258946  -0.234011 -0.616136 0.00176215  -0.227118 -0.590469 0.00258112  -0.278222 -0.581142 0.00312972  -0.259072 -0.611299 0.00217581  -0.252067 -0.585795 0.00314021  -0.227755 -0.590789 0.00216603  -0.252748 -0.586053 0.00266409  -0.296943 -0.656891 0.00157809  -0.290305 -0.631466 0.00241375  -0.270948 -0.661937 0.0016222  -0.246255 -0.667006 0.00104594  -0.239672 -0.641343 0.00169301  -0.290821 -0.631573 0.00204158  -0.271415 -0.662024 0.00132728  -0.264769 -0.636492 0.0020771  -0.240173 -0.641543 0.0013907  -0.265296 -0.636638 0.00173235  -0.308853 -0.707684 0.000756264  -0.302566 -0.682247 0.00139332  -0.283016 -0.712908 0.000831366  -0.258156 -0.718005 0.000483751  -0.25186 -0.692391 0.000965595  -0.302959 -0.682271 0.00114894  -0.283355 -0.712911 0.000633717  -0.277024 -0.687402 0.00120354  -0.252244 -0.692494 0.000752687  -0.277433 -0.687457 0.000960827  -0.320348 -0.758548 0.000149727  -0.314375 -0.733168 0.000573158  -0.294683 -0.763877 0.000216484  -0.269722 -0.76899 2.6226e-05  -0.263702 -0.743473 0.000375986  -0.314651 -0.733129 0.000426769  -0.294921 -0.763827 9.77516e-05  -0.288896 -0.738392 0.000496864  -0.263976 -0.743503 0.000240803  -0.289185 -0.738379 0.000344992  -0.331464 -0.809343 -0.000320196  -0.325767 -0.78404 -3.8147e-05  -0.305994 -0.814725 -0.000230551  -0.280973 -0.819851 -0.000289917  -0.275193 -0.794459 -6.27041e-05  -0.325957 -0.78396 -0.000104427  -0.306138 -0.81464 -0.000293255  -0.300373 -0.789309 -2.83718e-05  -0.275382 -0.794437 -0.000143528  -0.300569 -0.789253 -0.00011754  -0.342278 -0.859976 -0.000582457  -0.336795 -0.83479 -0.000455856  -0.316973 -0.865355 -0.000523567  -0.291937 -0.870491 -0.000527143  -0.286368 -0.845247 -0.000381947  -0.336904 -0.834697 -0.000472307  -0.317061 -0.865264 -0.000548124  -0.311518 -0.840061 -0.000399351  -0.286485 -0.845199 -0.000418901  -0.311635 -0.839987 -0.000437975  -0.352877 -0.91037 -0.000778198  -0.347526 -0.885293 -0.000699997  -0.327685 -0.91572 -0.000725031  -0.302657 -0.920857 -0.000685215  -0.297239 -0.895769 -0.000593662  -0.347605 -0.885205 -0.000688076  -0.327747 -0.915628 -0.000720024  -0.322353 -0.890558 -0.000631332  -0.29732 -0.895705 -0.000604868  -0.322429 -0.890481 -0.000642061  -0.363378 -0.96057 -0.000906467  -0.358041 -0.935557 -0.000863791  -0.338223 -0.965851 -0.000930548  -0.313218 -0.970963 -0.000874758  -0.307877 -0.945997 -0.000791788  -0.358128 -0.935492 -0.000841618  -0.338301 -0.965783 -0.000900269  -0.332962 -0.940795 -0.000823259  -0.307946 -0.945933 -0.000773668  -0.333034 -0.940726 -0.000811577  -0.00901455 -0.00154482 0.0148258  0 0 0  -0.00440636 -0.00334032 0.00965023  -0.00300571 0.00104544 0.00736713  0 0 0  -0.00627261 -0.00457366 0.0122879  -0.00415381 0.000328779 0.00959182  0 0 0  -0.00143737 -0.000775188 0.00549841  -0.00207129 -0.00149938 0.0070405  -0.0176635 -0.011986 0.0208461  -0.0117846 -0.0151085 0.0141106  -0.00945741 -0.00453827 0.0143814  -0.0166241 -0.0165636 0.0183918  -0.0133234 -0.00552152 0.0181956  -0.00788315 -0.00815037 0.0123501  -0.0111957 -0.00960742 0.0158112  -0.0275933 -0.0303116 0.022505  -0.0206272 -0.0340224 0.0155525  -0.0162579 -0.0193837 0.0171566  -0.0280608 -0.0351983 0.0199811  -0.0224831 -0.0202778 0.022073  -0.0161171 -0.0238008 0.0151544  -0.0222552 -0.0251547 0.0194809  -0.0385669 -0.0547802 0.0220315  -0.0300446 -0.0586604 0.0152807  -0.0243622 -0.0412645 0.0174885  -0.0399601 -0.0593552 0.0196087  -0.0329505 -0.04187 0.0224724  -0.0252567 -0.0457229 0.0155671  -0.0339694 -0.0466707 0.0199676  -0.0503609 -0.0840881 0.0203989  -0.0401081 -0.087978 0.014138  -0.0335035 -0.0686093 0.0166137  -0.0522817 -0.0882305 0.0181255  -0.0443627 -0.068866 0.0213182  -0.0349954 -0.072785 0.0147943  -0.0460664 -0.0732735 0.0189688  -0.0628887 -0.11743 0.0183256  -0.0507941 -0.121272 0.0126297  -0.0435828 -0.100423 0.0151088  -0.0650044 -0.121006 0.0162258  -0.0565286 -0.100289 0.019398  -0.0453776 -0.104175 0.0134165  -0.0586028 -0.104181 0.0172124  -0.075945 -0.154056 0.016098  -0.0620342 -0.157911 0.0110154  -0.054469 -0.135924 0.0133889  -0.0780708 -0.157147 0.0141888  -0.0693631 -0.135338 0.0172174  -0.0563487 -0.139209 0.0118303  -0.0715014 -0.138705 0.0152137  -0.0893589 -0.193502 0.0139444  -0.0737328 -0.197394 0.00946593  -0.066001 -0.174498 0.0116441  -0.0913666 -0.196088 0.0122383  -0.0826048 -0.17344 0.0150127  -0.067834 -0.177328 0.010237  -0.0847003 -0.176299 0.0132055  -0.102959 -0.235282 0.0119081  -0.0857867 -0.239288 0.00801063  -0.0780102 -0.215651 0.00997972  -0.104805 -0.237479 0.0104051  -0.0961426 -0.214092 0.0129123  -0.0797225 -0.218063 0.00872803  -0.0980744 -0.216512 0.0113065  -0.116638 -0.279118 0.0100584  -0.098079 -0.283246 0.00670171  -0.0903513 -0.258994 0.00843668  -0.118286 -0.280926 0.00875545  -0.109784 -0.256948 0.0109673  -0.0919081 -0.261032 0.00734401  -0.111547 -0.258968 0.00956368  -0.13029 -0.324654 0.00837445  -0.11054 -0.328941 0.00551772  -0.102908 -0.304186 0.00703955  -0.131749 -0.326167 0.00725889  -0.123469 -0.301663 0.009202  -0.104295 -0.305894 0.00609756  -0.125025 -0.303349 0.00799084  -0.143859 -0.371676 0.00687408  -0.123068 -0.376106 0.00447154  -0.11558 -0.350941 0.00577855  -0.145125 -0.372894 0.00593519  -0.13708 -0.347983 0.00761008  -0.116798 -0.352358 0.00498199  -0.138452 -0.349364 0.00658178  -0.157281 -0.41989 0.00552964  -0.135621 -0.424467 0.00353909  -0.128294 -0.398988 0.00466037  -0.158373 -0.420885 0.0047493  -0.150587 -0.395626 0.00619078  -0.129347 -0.400151 0.00399423  -0.151768 -0.396753 0.00532889  -0.17052 -0.469106 0.00434422  -0.148115 -0.473803 0.00272322  -0.140977 -0.448091 0.0036633  -0.171443 -0.469877 0.00371027  -0.163918 -0.444375 0.00492549  -0.141877 -0.449029 0.00311947  -0.164933 -0.445271 0.00421715  -0.183535 -0.519075 0.003299  -0.160527 -0.523881 0.00200725  -0.153581 -0.498018 0.00279355  -0.184308 -0.519675 0.00279164  -0.177053 -0.493989 0.00381279  -0.154337 -0.498761 0.0023551  -0.177904 -0.494693 0.00324011  -0.196302 -0.569623 0.00239253  -0.172786 -0.574511 0.00139117  -0.166052 -0.548569 0.00202966  -0.196932 -0.570055 0.00200057  -0.189945 -0.544277 0.00283599  -0.166675 -0.54914 0.00168824  -0.190652 -0.544805 0.00238514  -0.208794 -0.620543 0.001616  -0.184883 -0.625498 0.000866413  -0.178356 -0.599544 0.00138092  -0.209299 -0.620851 0.00131965  -0.202579 -0.59503 0.00199699  -0.178859 -0.59997 0.00111961  -0.20315 -0.595416 0.00165105  -0.220999 -0.671686 0.000965595  -0.196764 -0.676689 0.000431776  -0.190456 -0.650778 0.000827074  -0.221387 -0.671877 0.000754118  -0.214927 -0.646086 0.00128198  -0.19085 -0.651079 0.000638247  -0.215378 -0.646346 0.00102687  -0.232904 -0.722887 0.00043726  -0.208433 -0.727924 8.08239e-05  -0.202331 -0.70211 0.000380278  -0.233191 -0.722996 0.000291824  -0.226984 -0.697273 0.000695467  -0.202628 -0.702308 0.000247478  -0.227325 -0.697436 0.000515223  -0.244508 -0.774029 2.55108e-05  -0.219851 -0.779091 -0.000189304  -0.213959 -0.753408 1.95503e-05  -0.244707 -0.774065 -6.41346e-05  -0.238738 -0.748463 0.000223875  -0.214172 -0.753525 -6.38962e-05  -0.238984 -0.748545 0.000105381  -0.255812 -0.824991 -0.000279903  -0.231038 -0.830073 -0.000388145  -0.225333 -0.804556 -0.000245333  -0.255942 -0.824986 -0.000330448  -0.250192 -0.799524 -0.000130415  -0.225477 -0.80461 -0.000295401  -0.25036 -0.799553 -0.000202417  -0.266825 -0.875703 -0.000496864  -0.241968 -0.880799 -0.000528812  -0.236443 -0.855465 -0.00044322  -0.266905 -0.875661 -0.000516415  -0.261349 -0.850371 -0.000391006  -0.236533 -0.855473 -0.000464678  -0.261455 -0.85036 -0.000427485  -0.277569 -0.926099 -0.000674486  -0.252684 -0.931191 -0.000644207  -0.247297 -0.906065 -0.000578642  -0.277629 -0.926042 -0.000668526  -0.272224 -0.900927 -0.000574589  -0.247355 -0.906039 -0.000584126  -0.272296 -0.900894 -0.000586271  -0.288109 -0.976169 -0.000886679  -0.263198 -0.981185 -0.000788212  -0.2579 -0.956306 -0.000732183  -0.288173 -0.976092 -0.000837088  -0.282848 -0.951164 -0.000759363  -0.257959 -0.956246 -0.000712395  -0.282915 -0.95111 -0.000744343  -0.00422312 -7.50124e-05 0.00840664  0 0 0  -0.00149502 -0.00251892 0.00464916  -0.00119814 0.00140813 0.00357556  0 0 0  -0.0029477 -0.00268406 0.00705695  -0.00204156 0.00136527 0.0055728  0 0 0  -0.000497896 -0.000342637 0.00268865  -0.000981044 -0.000409603 0.00416946  -0.00826363 -0.0105456 0.0116982  -0.0041073 -0.0141617 0.00668955  -0.00323151 -0.00406715 0.00663996  -0.00788361 -0.0143473 0.010366  -0.00617096 -0.00412562 0.0103786  -0.00265224 -0.00731412 0.00588489  -0.00524077 -0.00744635 0.00900197  -0.0134495 -0.0292639 0.0127034  -0.00774127 -0.0334705 0.00729728  -0.00553879 -0.019063 0.00797606  -0.0139479 -0.0334659 0.0113459  -0.0106962 -0.0189935 0.0123975  -0.0058009 -0.0229786 0.00714588  -0.010787 -0.0230687 0.0110238  -0.0198019 -0.0542813 0.0124545  -0.0123006 -0.0587031 0.00714731  -0.0090856 -0.0413643 0.00808787  -0.0208978 -0.0584249 0.0111501  -0.0164839 -0.0410748 0.0126748  -0.00989744 -0.0454223 0.00729799  -0.0173151 -0.0453085 0.011342  -0.0272438 -0.0842942 0.0115371  -0.0178593 -0.088736 0.00655651  -0.0137736 -0.0692485 0.00764966  -0.0286981 -0.0881369 0.0103045  -0.02338 -0.068713 0.0120537  -0.0149519 -0.0731574 0.00689363  -0.0246929 -0.0727409 0.010788  -0.0357198 -0.118399 0.0103073  -0.0244257 -0.122803 0.00576091  -0.0196472 -0.101703 0.00688934  -0.0373267 -0.121844 0.0091536  -0.0313547 -0.100869 0.0109403  -0.021016 -0.105297 0.00617218  -0.0329135 -0.104538 0.00974798  -0.0451003 -0.155921 0.00900578  -0.0319571 -0.160286 0.00492239  -0.0266542 -0.137931 0.006006  -0.0467229 -0.15894 0.00795102  -0.0403015 -0.136762 0.00965714  -0.0280747 -0.141146 0.00534177  -0.0419354 -0.14001 0.00855517  -0.0552329 -0.196268 0.00771642  -0.040354 -0.200632 0.00411034  -0.0346596 -0.177302 0.00511241  -0.0567862 -0.198878 0.0067668  -0.0500785 -0.175759 0.00834942  -0.0360512 -0.180122 0.00450993  -0.0516793 -0.178586 0.00734973  -0.0659726 -0.239016 0.00651979  -0.0495111 -0.243416 0.0033648  -0.04354 -0.219294 0.00426531  -0.0674064 -0.241247 0.00568414  -0.0605333 -0.217358 0.00710392  -0.0448432 -0.22174 0.00372934  -0.0620342 -0.219788 0.00621367  -0.0771719 -0.283759 0.00541639  -0.0592934 -0.288229 0.00269508  -0.053138 -0.263487 0.0034833  -0.0784657 -0.285649 0.00469017  -0.0715185 -0.261146 0.00595021  -0.0543275 -0.265584 0.00302029  -0.0728885 -0.263218 0.00517201  -0.088721 -0.330195 0.00443268  -0.0695981 -0.334755 0.00210452  -0.0633243 -0.309509 0.00278831  -0.0898647 -0.331784 0.00381565  -0.0829071 -0.306774 0.00490832  -0.0643851 -0.311292 0.00239182  -0.0841289 -0.308523 0.00423956  -0.100507 -0.378017 0.00354767  -0.0803002 -0.382673 0.00158834  -0.073972 -0.357049 0.00216508  -0.101503 -0.379336 0.00302911  -0.0945854 -0.353937 0.00397277  -0.0749015 -0.35855 0.00183773  -0.0956594 -0.355401 0.00340772  -0.112449 -0.426982 0.00277305  -0.0913162 -0.431734 0.00114107  -0.0849719 -0.405821 0.00162745  -0.113303 -0.428065 0.00234842  -0.10646 -0.402362 0.00314569  -0.0857718 -0.407071 0.00135779  -0.107387 -0.403572 0.00267696  -0.124463 -0.476838 0.00208735  -0.102539 -0.481674 0.000756502  -0.096225 -0.455575 0.00115252  -0.125184 -0.477709 0.00174332  -0.118447 -0.451799 0.00241423  -0.0969019 -0.456601 0.000941038  -0.119237 -0.452788 0.00203252  -0.136491 -0.527379 0.00149822  -0.113907 -0.532291 0.00042963  -0.107645 -0.506077 0.00075388  -0.137087 -0.52807 0.00122881  -0.130476 -0.502025 0.00177956  -0.108206 -0.506905 0.000587463  -0.131136 -0.502816 0.00147557  -0.148465 -0.578396 0.000987053  -0.125329 -0.583365 0.000155926  -0.119154 -0.557121 0.000406981  -0.148948 -0.578923 0.00077939  -0.142483 -0.552827 0.00122738  -0.11961 -0.557774 0.000286579  -0.143026 -0.553448 0.00099206  -0.160346 -0.629718 0.000561714  -0.136763 -0.634733 -6.74725e-05  -0.130686 -0.608515 0.000128269  -0.160726 -0.630111 0.000410318  -0.154416 -0.604019 0.000761986  -0.131045 -0.609016 3.98159e-05  -0.15485 -0.604489 0.000585556  -0.172083 -0.681175 0.000208139  -0.148137 -0.686219 -0.000244856  -0.142182 -0.660091 -0.000106335  -0.172372 -0.681449 9.98974e-05  -0.166229 -0.655427 0.000370502  -0.142455 -0.660463 -0.000161648  -0.166567 -0.655771 0.000243902  -0.183652 -0.732633 -6.84261e-05  -0.159425 -0.7377 -0.000378132  -0.153594 -0.711701 -0.000279903  -0.183861 -0.732814 -0.000138044  -0.177887 -0.706901 5.84126e-05  -0.153791 -0.711962 -0.000315189  -0.178137 -0.707139 -2.71797e-05  -0.195021 -0.783965 -0.000282049  -0.170574 -0.789042 -0.00047183  -0.164881 -0.763216 -0.000415802  -0.19516 -0.784066 -0.000324965  -0.189357 -0.758309 -0.000188589  -0.165013 -0.763387 -0.000429869  -0.189535 -0.758461 -0.000241756  -0.206176 -0.83508 -0.000432014  -0.181577 -0.840165 -0.000530958  -0.176013 -0.814533 -0.000498772  -0.206262 -0.835124 -0.000451803  -0.200622 -0.809544 -0.000366926  -0.176092 -0.81463 -0.000504017  -0.200737 -0.809627 -0.00039506  -0.217101 -0.885894 -0.000538349  -0.192396 -0.890973 -0.000563145  -0.186967 -0.865566 -0.000555754  -0.217149 -0.885887 -0.000545025  -0.211662 -0.860515 -0.00049448  -0.187005 -0.865604 -0.000550032  -0.211732 -0.860548 -0.000505447  -0.227801 -0.936349 -0.000626802  -0.20304 -0.941408 -0.00059104  -0.197726 -0.916248 -0.000581741  -0.22783 -0.936307 -0.000616074  -0.222476 -0.911161 -0.000580311  -0.197737 -0.916236 -0.000573158  -0.222515 -0.911147 -0.000578642  -0.238259 -0.986317 -0.000769377  -0.213469 -0.991305 -0.000641823  -0.208279 -0.966491 -0.000632763  -0.238305 -0.986242 -0.0007236  -0.233056 -0.961402 -0.000685692  -0.20828 -0.966431 -0.000612259  -0.233093 -0.961348 -0.000665903  -0.000431448 -0.000387549 0.00239134  0 0 0  0.00102575 -0.00340679 -0.000329971  0.000437938 0.000827432 -0.000393391  0 0 0  -0.000190049 -0.00282294 0.00212574  -0.000317443 0.00120062 0.00155926  0 0 0  0.000315815 -0.000822097 -0.00019598  -8.45939e-05 -0.000503689 0.00123286  -0.000428751 -0.0110235 0.00335956  0.00263873 -0.0153812 -0.000441313  0.00222014 -0.0052847 -0.000622272  -0.000654459 -0.014538 0.00311804  -0.000392377 -0.00449711 0.00298405  0.00185038 -0.00831035 -0.000370026  -0.000341207 -0.00758377 0.00273728  -0.00123453 -0.0300785 0.00357699  0.00379205 -0.0350719 -0.000520468  0.0039219 -0.0206802 -0.00075388  -0.00186923 -0.0340088 0.00334883  -0.000706434 -0.0196425 0.00355434  0.00331563 -0.0244043 -0.000467062  -0.00114718 -0.0234263 0.00328994  -0.00314307 -0.0555384 0.00344086  0.00392771 -0.0607597 -0.000629187  0.00481254 -0.043362 -0.000845909  -0.00407484 -0.0594697 0.00321865  -0.00203735 -0.0421084 0.00356913  0.00400355 -0.0472656 -0.000558615  -0.00283992 -0.0460854 0.00332046  -0.00627822 -0.0860595 0.00308394  0.00281912 -0.0913002 -0.000766516  0.00449663 -0.07167 -0.000954866  -0.0074048 -0.0897801 0.00285745  -0.00454384 -0.0702146 0.00330424  0.00353926 -0.0754808 -0.000690222  -0.00559485 -0.0740749 0.00306678  -0.0107041 -0.120761 0.00262213  0.000362277 -0.12594 -0.00090909  0.00279248 -0.104596 -0.00107336  -0.011913 -0.124152 0.00240135  -0.00832629 -0.102924 0.00287247  0.00175893 -0.108152 -0.000834942  -0.00951248 -0.106503 0.00264096  -0.0163593 -0.158949 0.00212932  -0.00342757 -0.16404 -0.00104165  -0.00031805 -0.141369 -0.00118589  -0.0175728 -0.161971 0.00191879  -0.0133786 -0.139445 0.00238419  -0.00136864 -0.144593 -0.00097537  -0.0146042 -0.14267 0.00216627  -0.0231331 -0.200024 0.0016582  -0.00846601 -0.205061 -0.00115132  -0.00477928 -0.181346 -0.00129008  -0.0242938 -0.202675 0.00146961  -0.01961 -0.179142 0.00189328  -0.00579727 -0.184215 -0.00109887  -0.0208068 -0.181992 0.00169301  -0.0308909 -0.243527 0.00122046  -0.0146455 -0.248531 -0.00123286  -0.0104673 -0.223997 -0.00136709  -0.0319644 -0.245827 0.00105643  -0.0268936 -0.221485 0.00143695  -0.0114208 -0.226515 -0.001194  -0.0280186 -0.223973 0.00126147  -0.0394825 -0.289033 0.000838995  -0.0218171 -0.294044 -0.00128365  -0.0172483 -0.268866 -0.00142455  -0.0404505 -0.291007 0.000704527  -0.0350866 -0.266038 0.00102425  -0.0181149 -0.271054 -0.00126195  -0.0361127 -0.268186 0.00087595  -0.0487759 -0.336205 0.000503302  -0.0298597 -0.341233 -0.00130653  -0.0249681 -0.315566 -0.0014472  -0.0496292 -0.337887 0.000396013  -0.0440459 -0.312417 0.00066781  -0.0257384 -0.317447 -0.001297  -0.0449612 -0.314257 0.000547647  -0.0586336 -0.384723 0.000224829  -0.0386189 -0.389791 -0.00130343  -0.0334885 -0.363755 -0.00145125  -0.0593716 -0.386138 0.000145674  -0.0536368 -0.360301 0.000359774  -0.0341566 -0.365358 -0.00130844  -0.0544362 -0.361859 0.00026679  -0.0689442 -0.434324 -1.28746e-05  -0.0479876 -0.439422 -0.00127888  -0.0426677 -0.413136 -0.00142407  -0.0695699 -0.435503 -6.91414e-05  -0.0637347 -0.409391 0.000104427  -0.0432354 -0.414487 -0.00129223  -0.0644208 -0.410699 3.67165e-05  -0.0795932 -0.484751 -0.000201225  -0.0578252 -0.489887 -0.00123644  -0.0523832 -0.463441 -0.00138497  -0.0801129 -0.485714 -0.000235081  -0.0742276 -0.459436 -0.000109911  -0.0528533 -0.464565 -0.00126004  -0.0748036 -0.460517 -0.00015521  -0.0904914 -0.53579 -0.000357389  -0.068046 -0.540948 -0.00118017  -0.0625155 -0.514434 -0.00132155  -0.0909123 -0.536568 -0.000374556  -0.0850123 -0.510194 -0.000279188  -0.0628953 -0.515355 -0.00120878  -0.0854864 -0.511077 -0.000305176  -0.101545 -0.587234 -0.000472069  -0.0785277 -0.592414 -0.00111365  -0.0729623 -0.565902 -0.00125384  -0.101876 -0.587844 -0.000473499  -0.0959988 -0.561461 -0.000415087  -0.0732585 -0.566642 -0.0011487  -0.0963777 -0.562165 -0.000425816  -0.112687 -0.638913 -0.000560284  -0.0892062 -0.644096 -0.00103855  -0.083627 -0.617656 -0.0011673  -0.112937 -0.639381 -0.000551939  -0.107105 -0.613042 -0.00051403  -0.083849 -0.618237 -0.00107551  -0.107399 -0.613593 -0.000512123  -0.123843 -0.690663 -0.000613451  -0.0999806 -0.695849 -0.000957251  -0.0944288 -0.669529 -0.00108266  -0.124022 -0.691004 -0.000596046  -0.118261 -0.664777 -0.000585794  -0.0945842 -0.669973 -0.000999212  -0.118479 -0.665191 -0.000575066  -0.134965 -0.742354 -0.000644684  -0.11081 -0.747526 -0.000871658  -0.105294 -0.721378 -0.000982523  -0.135084 -0.742593 -0.00062418  -0.129406 -0.716511 -0.000625372  -0.105394 -0.721703 -0.000913382  -0.129559 -0.716813 -0.000608444  -0.146003 -0.793866 -0.000647545  -0.121614 -0.799028 -0.000783682  -0.116165 -0.77308 -0.000889063  -0.14607 -0.794016 -0.000623703  -0.140492 -0.768127 -0.000644207  -0.116217 -0.773306 -0.000828743  -0.140588 -0.768332 -0.000624657  -0.156927 -0.845116 -0.00063467  -0.132375 -0.850252 -0.00069499  -0.12699 -0.824536 -0.000782967  -0.156953 -0.845199 -0.000613451  -0.151476 -0.819516 -0.000636101  -0.127004 -0.824679 -0.000737906  -0.151527 -0.819646 -0.000616074  -0.167703 -0.896023 -0.000602961  -0.143033 -0.901136 -0.00060606  -0.137733 -0.875666 -0.000686407  -0.1677 -0.896044 -0.000582933  -0.16233 -0.870605 -0.000614882  -0.137717 -0.875741 -0.000651121  -0.162344 -0.870668 -0.000597239  -0.178317 -0.94652 -0.000576019  -0.153579 -0.951591 -0.000522375  -0.148363 -0.926403 -0.000581741  -0.178293 -0.946495 -0.000560045  -0.173028 -0.921316 -0.000579596  -0.148324 -0.926422 -0.000561714  -0.173018 -0.921328 -0.000565529  -0.188714 -0.996427 -0.000565052  -0.163917 -1.00147 -0.000451803  -0.158837 -0.976649 -0.000496387  -0.188674 -0.996372 -0.000546932  -0.183543 -0.971561 -0.000562429  -0.158782 -0.976622 -0.000486374  -0.183515 -0.971524 -0.000550747  0.00295302 -0.00190371 -0.00360441  0 0 0  0.00351453 -0.00535142 -0.00519037  0.00198343 -0.0003649 -0.00429368  0 0 0  0.0022459 -0.004237 -0.00275445  0.00118198 0.000320613 -0.00236821  0 0 0  0.0011231 -0.00194049 -0.00301814  0.000730112 -0.00130415 -0.00163007  0.00663742 -0.013341 -0.0048306  0.00927708 -0.0185271 -0.00738955  0.00751239 -0.00806254 -0.00769258  0.00593194 -0.016727 -0.00397635  0.00479789 -0.0064885 -0.00417614  0.00625448 -0.0110268 -0.00643992  0.00402898 -0.00945175 -0.00342131  0.0101768 -0.0328654 -0.00520897  0.0151235 -0.0388147 -0.0081532  0.0131942 -0.0242137 -0.00929785  0.00940919 -0.0366812 -0.00435114  0.00849757 -0.0222127 -0.00504351  0.0122725 -0.0278577 -0.00789905  0.00775778 -0.0258745 -0.00419521  0.0127068 -0.0587218 -0.00525665  0.0198815 -0.064899 -0.00822449  0.0184967 -0.0473504 -0.00957108  0.0118695 -0.0625663 -0.00444603  0.0116034 -0.0450971 -0.00524616  0.0176669 -0.0511923 -0.00822806  0.0107934 -0.0489707 -0.00441146  0.0138336 -0.0896329 -0.0051198  0.0231542 -0.095809 -0.00793624  0.0225008 -0.0760101 -0.00938797  0.0129567 -0.0933084 -0.00436568  0.013461 -0.0735916 -0.00520635  0.0217214 -0.0797834 -0.00810885  0.0125964 -0.077385 -0.00442266  0.0134224 -0.124775 -0.00489116  0.0247514 -0.130843 -0.00746393  0.024923 -0.109294 -0.00889063  0.0125354 -0.128161 -0.00420403  0.0138257 -0.106708 -0.00501466  0.0241671 -0.11284 -0.00770903  0.0129361 -0.110264 -0.00429368  0.0114688 -0.163455 -0.0046165  0.0246605 -0.1694 -0.00692701  0.025645 -0.146466 -0.00828195  0.0106028 -0.166509 -0.0039928  0.0126392 -0.143699 -0.00476098  0.0249158 -0.149711 -0.00719929  0.0117549 -0.146937 -0.00410461  0.00805354 -0.205085 -0.0043292  0.0229571 -0.210914 -0.00636744  0.024695 -0.186897 -0.00763011  0.00723588 -0.207793 -0.00376797  0.00994051 -0.183919 -0.00448012  0.0240061 -0.189812 -0.00664806  0.00909173 -0.186816 -0.0038867  0.00329971 -0.249173 -0.00402737  0.019753 -0.254917 -0.00580955  0.0221705 -0.230046 -0.00697017  0.00255024 -0.25155 -0.00352192  0.00584006 -0.226837 -0.00418472  0.021536 -0.232628 -0.00608802  0.00505006 -0.229392 -0.00364971  -0.00264263 -0.295283 -0.00372553  0.0152029 -0.300961 -0.0052588  0.0182062 -0.275438 -0.00632381  -0.00331116 -0.297344 -0.0032742  0.000472069 -0.271985 -0.00388479  0.01764 -0.277702 -0.00553393  -0.000242472 -0.274216 -0.00340438  -0.00962412 -0.343046 -0.00341654  0.00944984 -0.348682 -0.00472522  0.0129615 -0.322665 -0.00568795  -0.0102048 -0.34482 -0.00301313  -0.00600803 -0.318966 -0.00357723  0.0124689 -0.324629 -0.00498986  -0.00663757 -0.320894 -0.00314736  -0.0174892 -0.392129 -0.00311208  0.00266397 -0.39773 -0.00420809  0.00659323 -0.371365 -0.00508237  -0.0179805 -0.393635 -0.00275612  -0.0134504 -0.367426 -0.00327277  0.00618041 -0.373052 -0.00446582  -0.013991 -0.369079 -0.00289059  -0.0260988 -0.442249 -0.00280738  -0.00501728 -0.447824 -0.00371504  -0.000735998 -0.421225 -0.00449395  -0.0265026 -0.443518 -0.00249314  -0.0217046 -0.417064 -0.00296569  -0.00107133 -0.422657 -0.00395894  -0.0221564 -0.418462 -0.00262785  -0.0353129 -0.493144 -0.00251412  -0.0134337 -0.498688 -0.00324583  -0.00887847 -0.471967 -0.00394297  -0.0356339 -0.494193 -0.00224185  -0.0306329 -0.4676 -0.00266814  -0.00913763 -0.473168 -0.00347877  -0.0309998 -0.468771 -0.00237226  -0.0450132 -0.544594 -0.00222611  -0.0224661 -0.550108 -0.00280666  -0.0176884 -0.523346 -0.00341582  -0.0452578 -0.54545 -0.00199032  -0.040105 -0.518801 -0.00237441  -0.0178782 -0.524337 -0.00302243  -0.0403911 -0.519764 -0.0021174  -0.0550815 -0.59639 -0.00195479  -0.0319738 -0.601865 -0.00239658  -0.027037 -0.575146 -0.00293255  -0.0552567 -0.59707 -0.00175595  -0.0500023 -0.570446 -0.00209713  -0.0271628 -0.575949 -0.002599  -0.0502166 -0.571227 -0.00187707  -0.0654213 -0.648362 -0.00169516  -0.0418603 -0.653797 -0.00202131  -0.0368025 -0.627179 -0.00247765  -0.0655365 -0.648892 -0.00152779  -0.0602186 -0.622353 -0.00182891  -0.0368733 -0.627814 -0.00220466  -0.0603671 -0.622968 -0.00164294  -0.0759387 -0.700348 -0.00145555  -0.0520084 -0.705735 -0.00167894  -0.0468793 -0.679279 -0.00207114  -0.0760016 -0.700743 -0.00131989  -0.0706573 -0.674348 -0.00158119  -0.0469022 -0.679767 -0.00184703  -0.070751 -0.674823 -0.00142717  -0.0865614 -0.752224 -0.00122905  -0.0623477 -0.757564 -0.00137258  -0.0571704 -0.731304 -0.00169516  -0.0865824 -0.752509 -0.00112057  -0.0812361 -0.726296 -0.00134587  -0.0571558 -0.731664 -0.00152111  -0.0812817 -0.726646 -0.0012207  -0.0972209 -0.803874 -0.00102568  -0.0727856 -0.80916 -0.00110054  -0.0675974 -0.783136 -0.001369  -0.0972073 -0.804061 -0.000944138  -0.0918844 -0.77807 -0.00113297  -0.0675528 -0.783389 -0.00123334  -0.0918925 -0.778318 -0.00103521  -0.107871 -0.855218 -0.000835657  -0.0832796 -0.860453 -0.000861883  -0.0780914 -0.834679 -0.00107217  -0.107831 -0.855331 -0.000776291  -0.102545 -0.829578 -0.000933647  -0.0780261 -0.834843 -0.000977039  -0.102522 -0.829739 -0.000860453  -0.118468 -0.906179 -0.000664234  -0.0937622 -0.911359 -0.000650644  -0.0886018 -0.885857 -0.000819921  -0.118406 -0.906227 -0.000629187  -0.113173 -0.880737 -0.000756264  -0.0885198 -0.885949 -0.000754118  -0.113127 -0.88083 -0.000706196  -0.128974 -0.956699 -0.000500202  -0.104199 -0.961833 -0.000456095  -0.0990851 -0.936611 -0.000584364  -0.128894 -0.956698 -0.00048542  -0.12373 -0.931489 -0.000587702  -0.0989876 -0.936647 -0.000552654  -0.123664 -0.931523 -0.000558376  -0.139289 -1.00661 -0.000337601  -0.114479 -1.01174 -0.00025177  -0.109484 -0.986871 -0.000360012  -0.139206 -1.00658 -0.00034833  -0.134163 -0.981741 -0.0004282  -0.10936 -0.986864 -0.000360966  -0.134081 -0.98173 -0.000422239  0.00644808 -0.00462663 -0.0093224  0 0 0  0.00618221 -0.00883746 -0.00971079  0.00341213 -0.00240916 -0.00767374  0 0 0  0.00487924 -0.00687534 -0.00742197  0.00266886 -0.00126928 -0.00614262  0 0 0  0.00194716 -0.00395995 -0.00550723  0.0015773 -0.00281847 -0.00438905  0.0140874 -0.0174927 -0.0127809  0.0164328 -0.0236257 -0.0142539  0.0131447 -0.0124911 -0.0148489  0.0128662 -0.0208631 -0.0108597  0.0102385 -0.0100743 -0.011205  0.011116 -0.0154372 -0.0124047  0.008716 -0.0130033 -0.009372  0.0219577 -0.0376489 -0.0139186  0.0272866 -0.0446185 -0.0157773  0.0232448 -0.0296962 -0.0178075  0.0210554 -0.0414594 -0.0119586  0.0180785 -0.0267105 -0.0134835  0.0219734 -0.033415 -0.0153046  0.0170378 -0.0303571 -0.0115643  0.0288735 -0.0638861 -0.013875  0.0367053 -0.0710724 -0.0157638  0.033029 -0.0533313 -0.0183024  0.0281257 -0.0677294 -0.0120041  0.0255933 -0.0500813 -0.0139387  0.0322006 -0.0572339 -0.0158694  0.0247678 -0.0539544 -0.0120478  0.0342142 -0.0950979 -0.0132396  0.044296 -0.102254 -0.0150225  0.041377 -0.0822945 -0.0177512  0.0335574 -0.0987868 -0.0114961  0.0317635 -0.0789039 -0.0135875  0.0407507 -0.0861111 -0.01545  0.0310639 -0.0827005 -0.011795  0.0377522 -0.13056 -0.0123284  0.0498561 -0.137582 -0.013962  0.0478454 -0.11584 -0.0166478  0.0371482 -0.133975 -0.0107214  0.0362173 -0.11233 -0.0127912  0.0473312 -0.119438 -0.0145099  0.0355873 -0.115904 -0.0111234  0.039438 -0.169602 -0.0113263  0.0533726 -0.176466 -0.0127773  0.0523204 -0.153306 -0.0153356  0.038876 -0.172711 -0.00986409  0.0388291 -0.14966 -0.0118268  0.0518662 -0.156616 -0.0133739  0.0382411 -0.15294 -0.0102956  0.0393279 -0.211647 -0.010293  0.0549313 -0.218359 -0.0115786  0.0547945 -0.194076 -0.0139585  0.0388141 -0.214425 -0.00897384  0.0396038 -0.190273 -0.010807  0.0543901 -0.19707 -0.0121768  0.0390629 -0.193229 -0.00941801  0.0375373 -0.256179 -0.00928545  0.054639 -0.262752 -0.0103908  0.0553629 -0.237599 -0.0125778  0.0370791 -0.258641 -0.00810623  0.0386381 -0.233621 -0.00978446  0.0550066 -0.240273 -0.0109789  0.0381458 -0.236253 -0.00853539  0.0342184 -0.30275 -0.00829911  0.0526643 -0.309204 -0.00925207  0.0541525 -0.283386 -0.0112405  0.033824 -0.3049 -0.00725317  0.0360619 -0.279226 -0.00878882  0.053852 -0.285747 -0.00981593  0.0356324 -0.281542 -0.00767589  0.0295336 -0.350967 -0.00736547  0.0491599 -0.357308 -0.00815964  0.051335 -0.331009 -0.00995111  0.0292063 -0.352833 -0.00644612  0.0320405 -0.326665 -0.00782681  0.0510914 -0.333072 -0.00869799  0.0316739 -0.328684 -0.00684357  0.0236555 -0.400483 -0.00646853  0.044319 -0.406727 -0.0071311  0.0470771 -0.38009 -0.00873423  0.0233979 -0.402079 -0.00566697  0.0267366 -0.375573 -0.00691223  0.0468959 -0.381874 -0.00763869  0.0264413 -0.377313 -0.00605202  0.0167472 -0.451 -0.00563264  0.0382968 -0.457143 -0.00616169  0.0415657 -0.430303 -0.00758147  0.0165563 -0.452354 -0.00494289  0.0203246 -0.425624 -0.00604367  0.0414439 -0.431828 -0.00663781  0.0200953 -0.427108 -0.0052979  0.0089705 -0.502251 -0.00484228  0.0312814 -0.5083 -0.00526333  0.0349663 -0.481359 -0.00651217  0.00884402 -0.503376 -0.00425363  0.0129614 -0.476539 -0.00523138  0.0349035 -0.482645 -0.00570512  0.0128002 -0.477788 -0.0045929  0.000472069 -0.554005 -0.00411868  0.0234113 -0.559953 -0.00443149  0.0274535 -0.53301 -0.00551462  0.000402451 -0.554932 -0.00362468  0.004807 -0.528067 -0.00447154  0.0274423 -0.534078 -0.00483799  0.00470471 -0.529104 -0.00393128  -0.0086062 -0.606059 -0.00344682  0.014858 -0.611908 -0.00367451  0.0191759 -0.585036 -0.00460744  -0.00862455 -0.606798 -0.00303721  -0.00399864 -0.579996 -0.00377488  0.0192115 -0.585905 -0.00404501  -0.00404501 -0.580838 -0.00332475  -0.0181425 -0.658237 -0.0028441  0.00573492 -0.66398 -0.00299048  0.0102847 -0.637249 -0.00377655  -0.0181193 -0.658818 -0.00251317  -0.0133197 -0.632131 -0.0031352  0.0103581 -0.637939 -0.00332236  -0.0133216 -0.632802 -0.00276637  -0.028019 -0.710384 -0.00229812  -0.00380898 -0.716028 -0.00238299  0.000905275 -0.689483 -0.00304103  -0.0279615 -0.710819 -0.00203466  -0.0230405 -0.684312 -0.00256252  0.00100899 -0.690016 -0.00267816  -0.0230026 -0.684829 -0.00226712  -0.0381417 -0.762375 -0.00182199  -0.0136874 -0.767915 -0.00185227  -0.0088377 -0.741604 -0.00238442  -0.0380604 -0.762692 -0.00162077  -0.0330503 -0.736394 -0.00204849  -0.00871396 -0.741999 -0.00210714  -0.0329852 -0.736781 -0.00181842  -0.0484204 -0.814101 -0.00140262  -0.0237794 -0.819548 -0.00139761  -0.0188468 -0.793491 -0.00182486  -0.0483224 -0.814312 -0.00125289  -0.0432615 -0.788266 -0.00160289  -0.0187113 -0.79377 -0.00161719  -0.0431747 -0.78854 -0.00143003  -0.0587938 -0.865481 -0.00104618  -0.034029 -0.870835 -0.00101376  -0.0290294 -0.845055 -0.00134015  -0.0586853 -0.865615 -0.000944614  -0.0535944 -0.839826 -0.00121331  -0.0288906 -0.845239 -0.00119686  -0.0534959 -0.84001 -0.00109029  -0.0692003 -0.916449 -0.000733376  -0.0443442 -0.921727 -0.00069046  -0.039319 -0.896222 -0.0009408  -0.069083 -0.916516 -0.000670433  -0.0639911 -0.891008 -0.000882387  -0.0391819 -0.896333 -0.000846863  -0.0638821 -0.891119 -0.000802755  -0.0795982 -0.966963 -0.00045085  -0.0546889 -0.97218 -0.000402451  -0.0496583 -0.946949 -0.00059104  -0.079468 -0.96699 -0.000430346  -0.0743985 -0.941755 -0.000589609  -0.0495172 -0.94701 -0.00054431  -0.0742815 -0.941812 -0.000547886  -0.0898993 -1.01692 -0.000128031  -0.0649438 -1.02218 -0.000108957  -0.0599999 -0.997202 -0.000257015  -0.0897336 -1.01693 -0.000167608  -0.0847683 -0.992015 -0.000302792  -0.059839 -0.997237 -0.00025773  -0.0846245 -0.992035 -0.000305176  0.0102146 -0.00900215 -0.0148921  0 0 0  0.00929378 -0.0145074 -0.0146954  0.00530091 -0.00562012 -0.0122001  0 0 0  0.00772491 -0.0113237 -0.011915  0.00417423 -0.00377709 -0.0098176  0 0 0  0.00287122 -0.00700891 -0.00864458  0.0024664 -0.00541818 -0.00700665  0.0224908 -0.0235341 -0.0209603  0.02535 -0.0313325 -0.0214932  0.0198885 -0.0193512 -0.0217836  0.0207599 -0.0270924 -0.017942  0.0163351 -0.0154671 -0.018131  0.0169296 -0.0225103 -0.0187457  0.0139757 -0.0185325 -0.0153263  0.0350662 -0.0444195 -0.0226758  0.0414734 -0.0526463 -0.023567  0.0349749 -0.0372823 -0.0266533  0.0340595 -0.0483657 -0.0196085  0.0288512 -0.0332007 -0.0221751  0.033623 -0.0412546 -0.0229969  0.027531 -0.0370446 -0.0190966  0.0464619 -0.0710142 -0.0224714  0.0555198 -0.079254 -0.0233045  0.0495352 -0.0613228 -0.0270817  0.0458047 -0.0749173 -0.0195363  0.040966 -0.0570651 -0.0227094  0.0487623 -0.0653501 -0.0235634  0.0401622 -0.06104 -0.0197072  0.0559588 -0.102452 -0.0213077  0.067306 -0.110626 -0.0221603  0.0621752 -0.090501 -0.0261564  0.055496 -0.106205 -0.0185609  0.0514695 -0.0861517 -0.0219619  0.0616998 -0.0943966 -0.0228164  0.0509183 -0.0900164 -0.0191352  0.0633458 -0.13817 -0.0197461  0.0766988 -0.146172 -0.0204828  0.0725949 -0.124267 -0.024437  0.0629861 -0.141643 -0.0172191  0.0599229 -0.119807 -0.0205431  0.0723023 -0.127937 -0.0213482  0.0595163 -0.123451 -0.0179193  0.0685665 -0.177476 -0.0180252  0.0837054 -0.185322 -0.0187185  0.080723 -0.161975 -0.022445  0.0682653 -0.180668 -0.0157185  0.0662346 -0.157397 -0.0188894  0.0804869 -0.165349 -0.0196157  0.0658978 -0.160751 -0.0164816  0.0716552 -0.219849 -0.0162797  0.0884084 -0.227497 -0.0168462  0.0864869 -0.20301 -0.020344  0.0714098 -0.222706 -0.0142047  0.0703715 -0.198303 -0.017148  0.086339 -0.206082 -0.0177834  0.0700961 -0.201349 -0.0149653  0.0727397 -0.264703 -0.0145588  0.0909212 -0.272189 -0.0150702  0.0900459 -0.246823 -0.0182512  0.0725385 -0.267263 -0.0127039  0.0724491 -0.241981 -0.0154128  0.0899202 -0.249569 -0.0159562  0.0722157 -0.244706 -0.0134528  0.0719563 -0.311626 -0.0129058  0.0914168 -0.318923 -0.0133018  0.0914655 -0.292896 -0.0162144  0.0718122 -0.313865 -0.0112703  0.0725718 -0.287921 -0.0137258  0.0914114 -0.29534 -0.0141795  0.0723953 -0.290338 -0.0119855  0.0694972 -0.36016 -0.0113287  0.0900654 -0.3673 -0.0116718  0.0909793 -0.340798 -0.014266  0.0694025 -0.362123 -0.00989532  0.0709342 -0.3357 -0.0121102  0.090953 -0.342936 -0.0124795  0.0708052 -0.337815 -0.0105782  0.0655353 -0.40999 -0.00984573  0.0870744 -0.416949 -0.0100908  0.0887234 -0.390132 -0.0124238  0.0654989 -0.411669 -0.00860786  0.0676947 -0.384921 -0.0105817  0.0887643 -0.391993 -0.0108721  0.067625 -0.386759 -0.0092485  0.0602682 -0.460769 -0.00845647  0.0826234 -0.467569 -0.00865293  0.0849394 -0.440568 -0.0106933  0.0602806 -0.462207 -0.00739551  0.0630618 -0.435265 -0.00914431  0.0850147 -0.442159 -0.00936222  0.0630417 -0.436836 -0.00799561  0.0538682 -0.512257 -0.00717044  0.0769194 -0.518875 -0.0072875  0.0797868 -0.491807 -0.00908756  0.0539323 -0.513451 -0.00627732  0.0572019 -0.486428 -0.00780821  0.0799189 -0.493155 -0.00795937  0.0572362 -0.487758 -0.00683212  0.0465158 -0.564194 -0.00598741  0.0701277 -0.570645 -0.00606275  0.0734829 -0.5436 -0.00760412  0.0466198 -0.565183 -0.00524354  0.0503078 -0.53817 -0.00657272  0.0736458 -0.544716 -0.0066638  0.0503857 -0.539273 -0.00575352  0.0383692 -0.616396 -0.00491405  0.0624387 -0.622663 -0.00492859  0.0661862 -0.595727 -0.00625491  0.0385101 -0.617182 -0.00430894  0.042536 -0.590261 -0.00544596  0.0663879 -0.596634 -0.00548339  0.0426548 -0.591162 -0.00477099  0.0295801 -0.668672 -0.0039494  0.0539954 -0.67477 -0.00393128  0.0580785 -0.647998 -0.00503445  0.0297456 -0.669291 -0.00346541  0.0340524 -0.642523 -0.00442553  0.0583014 -0.648713 -0.00441742  0.0342004 -0.643236 -0.00387931  0.0202854 -0.720886 -0.00309753  0.0449629 -0.726806 -0.00303912  0.0493081 -0.700257 -0.00395513  0.0204692 -0.721345 -0.00272274  0.0249925 -0.694783 -0.00351906  0.0495474 -0.700802 -0.00347185  0.0251632 -0.695334 -0.00308847  0.0106089 -0.772903 -0.0023582  0.0354598 -0.778663 -0.00228047  0.0400195 -0.752364 -0.00300813  0.0107977 -0.773234 -0.00207663  0.0154939 -0.746915 -0.00272155  0.0402637 -0.75276 -0.00264549  0.0156758 -0.747319 -0.00239134  0.000658512 -0.824627 -0.00173163  0.025624 -0.830229 -0.00163746  0.0303447 -0.804215 -0.00220871  0.000845909 -0.824843 -0.0015316  0.00566697 -0.798795 -0.00204086  0.0305805 -0.804482 -0.00194526  0.00585103 -0.79908 -0.00179839  -0.00947762 -0.875974 -0.00121045  0.0155454 -0.881446 -0.00111914  0.0203888 -0.855714 -0.00154114  -0.00930023 -0.876109 -0.00107646  -0.00438595 -0.85034 -0.00146604  0.0206113 -0.85588 -0.00136495  -0.00420833 -0.850525 -0.001297  -0.0197241 -0.926893 -0.000781059  0.00533199 -0.932254 -0.000701904  0.0102577 -0.906804 -0.00101113  -0.019556 -0.926963 -0.000704527  -0.0145857 -0.901476 -0.000995874  0.0104544 -0.906896 -0.000900269  -0.0144184 -0.901591 -0.000888348  -0.0300269 -0.97736 -0.000402689  -0.0049572 -0.982658 -0.000356674  1.12057e-05 -0.957449 -0.000578403  -0.0298619 -0.977399 -0.00037837  -0.0248654 -0.952172 -0.0006001  0.000194788 -0.957499 -0.000525713  -0.0247064 -0.952236 -0.000543356  -0.0403178 -1.02739 -4.52995e-06  -0.0152512 -1.03271 -1.95503e-05  -0.010278 -1.00767 -0.000193357  -0.0401459 -1.02743 -4.93526e-05  -0.0351768 -1.00241 -0.000226736  -0.0100985 -1.00772 -0.000193357  -0.0350125 -1.00246 -0.000224113  0.0154156 -0.0152405 -0.0219357  0 0 0  0.0165575 -0.0234347 -0.0207074  0.00901799 -0.0126417 -0.0164683  0 0 0  0.0119777 -0.0186121 -0.0175474  0.00614245 -0.00824112 -0.0141032  0 0 0  0.00632197 -0.0128741 -0.0119247  0.00381025 -0.00910509 -0.0104167  0.0326737 -0.0323193 -0.029696  0.037109 -0.0416655 -0.0289476  0.0295854 -0.0284439 -0.0307901  0.0308792 -0.0363326 -0.0254545  0.0239958 -0.0238022 -0.0265763  0.026466 -0.0321997 -0.0258405  0.0210888 -0.0272815 -0.0225322  0.0506333 -0.0532782 -0.0317554  0.0586336 -0.0626436 -0.0313561  0.0497765 -0.0471091 -0.0357766  0.0496061 -0.0574064 -0.0275142  0.0418588 -0.0419819 -0.0312908  0.0483036 -0.0512347 -0.0307589  0.0405138 -0.0460205 -0.0269477  0.0665355 -0.0801399 -0.0311172  0.0772961 -0.0893805 -0.0309532  0.0689981 -0.071283 -0.0360434  0.0659834 -0.0840849 -0.0271287  0.058837 -0.0660787 -0.0316346  0.0682594 -0.0754019 -0.0313644  0.0580873 -0.0701529 -0.0275168  0.0801551 -0.111674 -0.0295169  0.0932276 -0.120891 -0.0293078  0.0860453 -0.100708 -0.0346153  0.0798447 -0.115511 -0.0257802  0.0736536 -0.0953472 -0.030426  0.0856359 -0.104579 -0.0302379  0.0732371 -0.0992559 -0.0265713  0.0912665 -0.14771 -0.0272338  0.106378 -0.156675 -0.0271022  0.100291 -0.134708 -0.032285  0.0911143 -0.151179 -0.0238163  0.0860046 -0.129228 -0.02842  0.100119 -0.13831 -0.0282483  0.0857933 -0.13289 -0.0248544  0.099927 -0.187171 -0.0248806  0.116771 -0.196059 -0.024683  0.112048 -0.172688 -0.0295875  0.0998301 -0.190437 -0.0217538  0.0959128 -0.167052 -0.0260797  0.111928 -0.175976 -0.0259061  0.0957854 -0.17042 -0.0228169  0.106069 -0.229881 -0.0223429  0.124496 -0.238486 -0.022197  0.120934 -0.213949 -0.0267622  0.106054 -0.232746 -0.0195465  0.103281 -0.208211 -0.0236187  0.120933 -0.216944 -0.0234365  0.103237 -0.211275 -0.0206671  0.109919 -0.274913 -0.019969  0.12968 -0.283395 -0.0197704  0.127405 -0.258009 -0.0239401  0.109925 -0.277549 -0.0174658  0.108281 -0.252139 -0.021158  0.127406 -0.260682 -0.0209718  0.10827 -0.254887 -0.0185151  0.111522 -0.322136 -0.0175722  0.132503 -0.33033 -0.0174143  0.131263 -0.304264 -0.0212014  0.111599 -0.324397 -0.0153787  0.110967 -0.298323 -0.0187666  0.131351 -0.30665 -0.0185771  0.111016 -0.300769 -0.0164266  0.111178 -0.370825 -0.0153871  0.13316 -0.378856 -0.0151899  0.133 -0.352349 -0.0185745  0.111277 -0.37286 -0.0134659  0.11159 -0.346319 -0.016474  0.133095 -0.354436 -0.0162828  0.111671 -0.348467 -0.0144222  0.108989 -0.420877 -0.0132501  0.131869 -0.428621 -0.0130818  0.132557 -0.401792 -0.0160983  0.109154 -0.422584 -0.0116026  0.110284 -0.395733 -0.0143106  0.132726 -0.403615 -0.0141172  0.11042 -0.397603 -0.0125325  0.105252 -0.471755 -0.011323  0.128842 -0.479298 -0.0111246  0.130379 -0.452323 -0.0137696  0.105441 -0.47325 -0.00991535  0.107309 -0.446225 -0.0122766  0.130563 -0.453878 -0.0120814  0.10748 -0.447829 -0.0107532  0.100095 -0.523368 -0.00948524  0.124297 -0.530624 -0.00930476  0.126491 -0.503585 -0.0116146  0.100336 -0.524584 -0.00831056  0.102828 -0.497504 -0.0103915  0.126733 -0.504904 -0.010195  0.103045 -0.498861 -0.00910544  0.093774 -0.575332 -0.00784492  0.118434 -0.582356 -0.00764441  0.12126 -0.555374 -0.00962329  0.0940348 -0.576355 -0.00687361  0.0970745 -0.549309 -0.00865149  0.12152 -0.556463 -0.00845242  0.0973208 -0.550437 -0.00758123  0.0864284 -0.627561 -0.00632668  0.111454 -0.634305 -0.00613546  0.114769 -0.60744 -0.00781703  0.0867209 -0.628357 -0.00554562  0.090215 -0.601433 -0.00706959  0.115063 -0.608321 -0.00686955  0.0904899 -0.602347 -0.00619721  0.0782659 -0.679799 -0.00499177  0.103533 -0.686293 -0.00479126  0.107294 -0.65962 -0.00618458  0.0785658 -0.680426 -0.00437641  0.0824447 -0.653676 -0.00564194  0.1076 -0.660309 -0.00544047  0.0827372 -0.654398 -0.00494576  0.0694232 -0.731959 -0.00380659  0.0948479 -0.738188 -0.00361156  0.0989566 -0.711749 -0.00474691  0.06973 -0.73241 -0.00333881  0.0739226 -0.705895 -0.00437999  0.0992701 -0.712264 -0.00418043  0.0742216 -0.70644 -0.0038414  0.0600631 -0.783889 -0.00279546  0.0855494 -0.789871 -0.00260258  0.0899527 -0.763701 -0.00349236  0.0603588 -0.784201 -0.00245404  0.0648043 -0.757945 -0.00327969  0.0902648 -0.764066 -0.00308371  0.0651023 -0.758339 -0.00287724  0.0503156 -0.835505 -0.00195408  0.0757959 -0.841259 -0.00177264  0.0804276 -0.815379 -0.00244403  0.0505898 -0.835694 -0.00171924  0.0552373 -0.809732 -0.00235271  0.0807185 -0.815609 -0.00216579  0.055516 -0.809991 -0.00206709  0.0402958 -0.886737 -0.00127983  0.0657086 -0.892284 -0.00111961  0.0705128 -0.866691 -0.00159049  0.0405407 -0.886836 -0.00113058  0.0453367 -0.861157 -0.00159431  0.0707836 -0.866822 -0.00142336  0.0455933 -0.861314 -0.00140452  0.0301149 -0.937532 -0.000764132  0.0554316 -0.942933 -0.000637531  0.0603564 -0.917603 -0.00094676  0.0303235 -0.937575 -0.0006814  0.035229 -0.912177 -0.00100327  0.0605848 -0.917658 -0.000858784  0.0354476 -0.912256 -0.000889301  0.0198362 -0.987911 -0.000355721  0.0450597 -0.993213 -0.000282049  0.050045 -0.968083 -0.000478029  0.0200255 -0.987935 -0.000325203  0.0249879 -0.962755 -0.00055027  0.0502498 -0.968117 -0.000448465  0.0251808 -0.962801 -0.000493526  0.00952363 -1.03795 1.4782e-05  0.0346739 -1.04319 3.79086e-05  0.0396924 -1.01822 -0.000108719  0.00970054 -1.03797 3.8147e-06  0.0146918 -1.01295 -0.000171185  0.0398676 -1.01824 -0.000113487  0.0148675 -1.01299 -0.000162125  
SCALARS smooth_stress float 1
LOOKUP_TABLE default
173.786 320.762 298.383 305.938 298.216 282.677 269.413 240.685 224.157 217.334 191.396 170.893 164.313 162.927 139.257 129.414 133.422 121.183 109.468 105.673 104.483 93.2057 97.0991 95.9889 43.2889 289.776 544.358 526.199 532.928 504.435 490.055 489.695 458.587 425.462 388.323 345.946 325.249 307.567 292.645 256.173 235.414 237.276 237.087 228.868 222.415 222.461 200.48 195.453 186.133 84.3628 203.553 388.198 407.453 417.769 381.607 391.997 401.677 384.058 379.305 344.003 305.539 300.206 288.716 258.404 250.66 241.347 215.204 215.047 221.576 237.882 232.77 208.101 197.019 177.784 79.7164 144.879 293.325 333.976 350.743 339.017 364.553 362.441 338.838 348.905 332.855 289.846 286.659 292.9 268.485 253.715 251.408 236.71 233.935 217.462 231.781 236.338 197.865 200.377 182.254 76.1379 110.858 264.23 327.264 344.436 338.282 361.407 369.534 342.344 331.507 310.908 285.836 289.849 302.322 289.957 248.846 247.34 259.953 250.277 219.289 206.258 228.729 213.742 202.33 176.988 72.9861 132.798 304.801 370.723 408.599 397.719 389.332 392.223 358.649 350.153 339.537 326.813 310.834 294.758 289.735 255.163 246.277 251.786 232.274 222.167 212.793 223.483 224.729 198.538 164.995 66.2309 190.352 430.56 481.838 491.824 496.696 464.595 446.083 413.16 382.153 378.179 370.021 347.128 299.115 278.709 271.597 249.403 229.778 230.733 238.106 230.658 209.597 186.106 200.792 189.34 74.2651 264.785 604.885 652.835 616.733 602.749 561.383 542.998 499.707 439.891 422.414 389.508 366.812 325.065 298.269 290.383 268.547 242.088 225.023 229.319 235.741 214.91 185.811 202.594 192.25 80.4518 153.689 343.618 368.795 349.036 329.118 304.649 300.652 275.533 247.287 232.706 199.32 181.479 165.824 159.138 145.073 134.143 129.503 111.079 109.377 122.259 121.611 107.73 99.7218 85.5294 36.9269 329.72 645.226 634.877 636.563 607.249 561.479 517.993 462.033 443.803 438.201 380.782 345.714 331.023 302.286 275.922 258.213 238.26 227.319 216.124 210.622 208.329 188.272 179.486 177.714 90.0732 544.131 1090.23 1104.2 1112.59 1067.59 1002.2 948.757 885.809 844.146 790.465 698.57 653.3 629.952 580.184 518.36 480.352 456.069 451.33 453.12 451.435 437.577 388.705 366.902 342.917 160.136 377.609 768.758 828.31 861.265 835.245 814.216 786.366 752.349 740.253 689.433 616.897 585.142 575.38 535.692 491.911 472.348 439.596 420.395 437.525 459.891 440.804 396.005 377.882 350.925 158.642 284.753 604.745 695.853 724.843 705.531 720.009 716.052 661.928 645.383 634.833 574.925 554.661 561.531 519.609 485.391 498.943 478.482 465.587 448.804 438.291 429.495 397.341 389.933 366.37 171.026 237.078 562.044 682.418 710.761 695.719 701.097 727.737 685.065 624.953 591.994 552.335 569.479 580.175 541.332 493.646 501.631 508.966 500.054 479.837 436.867 423.423 409.596 399.694 354.436 158.375 277.145 635.227 763.247 828.703 807.304 762.289 766.624 722.406 680.435 655.941 606.206 596.334 576.995 547.061 511.749 483.72 477.91 468.562 472.851 456.356 434.367 417.896 399.595 357.281 157.348 374.986 869.647 985.138 1000.6 1002.26 920.867 876.422 830.738 771.037 748.599 695.731 648.151 585.606 539.541 534.255 500.309 465.05 469.139 476.721 456.397 407.9 377.146 388.764 376.967 174.227 509.386 1193.09 1312.68 1255.33 1232.6 1133.91 1074.47 1010.64 908.047 858.494 780.419 720.655 646.158 577.654 559.952 541.632 500.275 473.804 465.098 439.16 397.235 365.479 375.415 368.299 176.404 296.022 677.615 745.241 712.28 672.551 620.742 597.387 550.601 497.966 471.506 414.374 376.464 342.451 305.657 279.72 272.147 260.864 242.375 229.666 221.465 218.218 198.401 186.018 174.823 83.5966 302.316 633.821 657.211 643.624 616.312 572.365 510.497 460.728 432.794 412.529 375.123 340.076 326.193 293.384 275.019 261.086 229.385 210.469 214.75 220.49 204.972 199.61 186.419 159.318 76.5092 498.532 1059.96 1127.71 1135.95 1117.31 1056.22 958.503 871.586 808.151 756.031 699.104 645.623 622.788 565.818 508.71 485.912 465.744 443.391 437.999 446.031 407.59 390.781 381.104 323.351 147.4 338.922 744.113 844.787 890.148 919.533 880.057 786.871 734.409 702.441 665.805 623.856 571.725 550.688 528.276 474.909 465.694 469.444 446.159 433.032 426.925 405.46 388.657 375.379 350.48 167.126 266.599 610.325 727.854 752.145 762.716 741.394 696.942 653.178 613.392 608.055 580.107 547.298 533.138 506.803 474.444 485.132 479.552 460.845 455.509 419.383 393.659 410.181 385.427 356.341 181.74 258.409 599.519 696.736 716.202 711.617 688.95 709.299 688.089 611.748 574.039 559.155 573.75 548.213 496.175 477.539 481.873 482.271 480.5 490.346 454.776 393.281 407.852 398.017 351.774 176.867 280.467 651.223 765.618 815.949 818.991 764.865 754.521 736.637 678.689 637.798 593.91 593.817 546.346 496.738 510.381 474.221 456.274 463.229 483.863 474.812 406.732 381.874 385.988 378.339 187.722 338.75 824.592 996.858 1019.75 1003.17 939.628 892.012 836.316 773.094 740.546 660.474 614.059 572.468 541.201 548.001 515.679 488.849 457.821 458.904 444.495 386.027 371.473 376.406 380.364 190.908 485.208 1150.32 1320.9 1294.84 1253.24 1169.92 1081.51 996.168 912.751 859.438 773.293 705.367 647.375 583.604 549.131 549.964 533.099 491.044 479.728 421.678 373.849 365.864 358.841 373.921 193.203 292.408 669.782 746.487 729.154 701.626 651.396 592.795 538.028 492.907 468.402 427.807 392.496 352.085 293.928 267.198 270.897 264.719 263.56 260.068 215.219 192.089 181.106 175.14 190.016 98.6551 304.351 617.399 635.945 646.222 611.989 565.788 524.232 491.667 440.455 387.441 375.998 348.172 318.03 288.912 273.791 264.321 241.372 211.799 200.267 218.851 208.045 204.952 200.379 160.121 70.7906 490.262 1036.51 1123.08 1150.47 1111.84 1055.21 977.957 901.456 825.317 739.159 691.155 643.301 602.049 542.149 488.047 479.16 476.364 445.799 408.01 417.538 389.734 396.842 398.978 335.433 160.239 317.901 752.245 899.927 921.077 917.045 877.043 795.352 752.424 708.262 645.505 593.588 544.509 531.715 501.867 456.717 455.608 472.235 464.051 415.204 406.948 392.785 384.534 388.033 370.303 187.349 256.752 616.398 745.92 773.178 789.188 746.429 685.34 674.099 632.357 576.927 549.362 542.686 523.541 485.692 473.001 477.183 474.509 464.566 427.71 412.036 401.901 402.535 391.639 357.372 177.882 256.501 590.502 690.145 721.236 724.026 709.097 698.51 677.599 632.308 577.94 565.938 574.719 534.159 481.313 457.142 461.427 467.215 464.424 456.891 423.416 382.517 406.494 404.882 351.906 169.839 273.666 651.111 773.951 802.86 793.382 773.948 761.912 726.616 682.205 647.01 619.12 590.47 529.216 495.88 508.149 495.409 480.212 463.885 482.683 456.601 386.103 369.146 374.21 370.913 179.041 333.866 810.113 994.924 1004.97 969.093 947.98 903.443 827.613 773.977 746.059 681.313 638.121 586.921 561.113 571.664 545.514 504.534 463.251 464.12 444.269 407.497 363.11 341.64 368.144 187.267 489.812 1127.32 1318.06 1302.99 1227.56 1176.92 1074.81 973.141 916.648 840.827 754.584 710.471 656.789 597.477 560.103 536.207 512.706 479.898 467.15 437.406 419.788 385.424 353.592 370.673 187.146 297.874 661.085 740.064 735.985 699.82 652.601 578.486 526.01 501.526 446.979 397.385 381.407 340.77 287.992 269.985 261.091 258.435 250.624 249.071 230.096 206.683 194.857 183.485 183.918 89.0612 302.568 621.634 649.294 670.924 628.673 564.657 529.757 488.776 443.058 387.387 378.701 369.54 319.056 278.212 263.182 253.816 224.406 204.619 197.966 215.561 208.397 194.176 190.843 174.188 87.5883 483.639 1053.61 1161.25 1185.83 1114.68 1020.03 954.898 896.881 856.56 763.527 695.137 649.556 583.424 531.485 504.503 479.002 440.313 431.87 403.923 409.394 409.475 394.681 380.178 363.358 191.243 326.551 772.907 925.083 932.019 876.127 823.924 780.364 751.514 718.719 658.477 588.512 534.622 533.535 513.623 475.984 457.976 451.123 448.877 390.39 377.547 386.195 385.731 376.133 380.661 209.161 269.502 630.897 762.002 786.932 763.109 720.901 677.99 647.923 608.028 576.606 532.944 509.259 511.885 488.228 466.854 484.351 485.077 454.474 407.948 390.614 379.497 370.076 357.263 349.524 187.685 240.011 580.87 714.467 737.835 725.246 710.544 674.465 627.599 602.295 588.586 549.395 526.477 513.414 490.351 464.343 470.391 474.696 455.485 445.962 421.983 385.792 383.309 377.849 329.435 154.929 271.835 653.493 786.042 796.051 769.924 773.455 748.18 690.715 652.806 627.26 596.586 576.469 558.326 538.671 517.644 492.671 474.062 442.305 452.864 443.153 404.724 389.532 397.654 368.31 161.437 361.926 840.017 983.653 1000.7 960.683 933.644 875.092 803.947 762.258 702.679 662.614 640.802 594.298 581.108 572.306 544.135 500.549 451.594 441.26 433.653 440.91 389.645 369.27 384.976 182.083 495.994 1104.76 1279.04 1309.49 1232.84 1166.08 1053.18 962.171 920.996 805.143 745.274 720.844 649.712 599.179 577.779 547.066 498.654 458.8 433.77 430.965 425.865 388.575 357.041 360.349 183.277 289.913 627.331 715.834 736.821 689.824 647.695 574.573 525.855 512.062 435.408 390.72 384.687 343.044 294.269 290.964 276.773 247.332 226.875 222.926 225.383 198.267 190.004 178.039 172.28 89.8804 289.295 615.39 658.675 685.226 649.78 579.742 543.544 475.722 421.012 395.011 379.109 360.514 313.489 271.602 255.376 246.105 220.159 207.037 213.138 218.952 207.213 191.631 188.63 180.52 88.0325 476.182 1037.63 1142.2 1181.88 1131.68 1050.91 993.063 881.857 805.61 750.438 710.788 652.174 570.361 537.572 527.019 486.331 438.319 438.462 419.815 415.178 423.561 406.007 383.877 372.187 188.151 339.879 764.934 882.819 896.22 859.165 838.559 798.598 726.904 690.064 663.733 630.355 569.828 541.532 546.5 524.667 493.976 472.19 450.643 394.658 394.062 407.209 413.702 378.559 357.1 196.468 266.185 624.225 743.106 754.572 735.55 714.805 667.663 609.178 599.633 605.619 559.7 512.357 523.046 531.015 494.507 491.361 478.546 431.576 420.174 419.992 396.286 398.673 363.753 346.697 191.921 230.905 562.473 694.565 725.118 714.784 687.091 656.856 612.623 584.644 591.252 549.222 512.751 513.737 510.235 492.039 473.403 450.852 433.519 449.394 431.216 404.394 403.558 375.037 346.22 173.029 265.367 648.871 790.408 807.587 780.321 754.673 740.855 703.744 637.12 605.607 596.009 597.185 570.813 533.717 513.93 476.763 454.298 427.593 425.341 422.106 400.4 404.423 396.857 360.289 170.839 354.064 830.507 988.219 1031.27 979.723 926.257 884.432 816.884 738.567 653.778 636.445 637.378 590.639 564.692 543.278 510.238 486.666 427.943 401.826 418.516 428.211 402.288 390.604 378.525 175.607 494.324 1072.01 1251.56 1327 1231.19 1136.41 1054.04 971.274 898.339 781.111 732.372 710.145 643.046 596.74 577.563 554.451 514.945 459.247 427.916 447.172 423.092 375.787 347.216 346.653 182.407 287.916 609.437 702.995 733.2 675.292 625.154 572.187 533.92 506.415 439.001 403.738 391.39 347.868 306.014 297.66 285.183 256.241 237.735 234.23 241.703 196.311 173.711 158.875 163.461 100.18 301.882 642.728 684.591 676.385 637.946 568.066 528.45 491.628 443.763 414.075 363.856 337.233 307.098 269.321 264.612 250.367 230.333 218.099 199.341 186.728 190.205 180.922 181.982 185.329 86.8228 482.052 1066.89 1168.33 1164.09 1128.51 1044.34 971.607 892.746 827.429 764.805 682.547 635.926 586.492 542.109 520.602 499.071 477.912 452.68 406.82 382.6 386.877 395.237 389.575 373.97 185.719 329.893 761.29 864.47 877.385 871.647 837.019 787.52 732.688 711.77 673.836 625.557 574.629 543.592 541.082 513.507 510.728 515.071 464.986 422.041 435.751 419.929 408.967 392.027 365.633 186.97 251.363 590.916 695.826 735.608 741.901 703.832 664.911 627.582 616.84 600.678 574.933 550.802 536.716 529.099 499.908 488.327 479.295 448.294 456.26 464.606 432.999 409.756 379.16 373.772 193.159 216.787 529.338 678.004 742.089 722.391 676.566 666.652 634.101 593.722 579.562 560.027 563.943 544.528 509.633 494.57 481.441 437.077 432.95 466.446 418.697 420.326 434.184 412.547 404.374 193.799 252.848 626.437 795.453 843.572 812.406 746.203 734.312 712.635 650.513 625.835 613.404 612.448 576.735 531.429 518.036 509.235 465.373 437.936 444.58 408.035 408.617 420.114 398.891 376.726 179.439 352.969 837.208 996.994 1035.17 1003.44 927.683 886.278 818.204 729.626 690.081 662.597 640.257 605.231 567.825 539.572 502.312 478.396 432.75 404.353 408.112 423.122 405.939 349.049 346.792 180.71 500.988 1111.72 1282.61 1324.04 1226.87 1114.06 1070.55 980.985 867.82 798.916 747.227 703.151 645.739 600.188 572.952 539.475 505.684 461.296 416.372 426.957 432.663 372.521 320.118 336.361 180.084 285.72 625.408 718.158 736.282 674.273 599.106 572.476 537.326 483.72 432.68 406.074 386.265 345.234 314.964 299.236 291.259 267.387 251.421 231.851 232.91 207.573 167.618 152.139 158.702 90.0995 315.892 669.813 705.636 651.554 603.772 560.252 512.175 481.536 452.795 417.298 356.924 332.962 321.922 302.071 269.349 238.195 217.266 202.722 185.607 175.814 185.576 174.704 171.143 167.695 76.5598 504.344 1109.31 1204.66 1136.85 1066.9 998.292 918.949 875.317 851.211 776 662.994 618.64 619.68 588.421 514.109 490.33 461.846 425.389 393.078 366.741 369.877 372.51 364.253 350.937 176.839 348.691 765.129 849.31 869.741 851.062 803.163 755.165 744.299 742.726 674.128 603.641 568.786 554.868 534.464 501.15 513.121 510.072 461.812 438.926 424.306 399.514 387.176 381.028 365.216 175.185 259.614 565.861 651.817 715.568 730.767 711.279 675.945 660.771 638.472 592.726 574.218 564.658 541.393 527.966 522.987 507.954 514.874 493.36 476.006 461.056 437.507 405.456 386.266 386.285 183.074 193.16 495.415 652.725 708.354 696.763 691.602 672.928 634.639 605.682 586.896 583.306 574.393 558.871 530.546 510.173 512.376 493.798 478.885 471.31 433.252 450.937 443.038 409.089 409.213 199.866 243.222 596.312 756.922 828.37 808.493 752.089 728.566 703.194 681.841 661.218 633.46 610.097 589.57 541.764 522.748 534.196 483.624 440.108 439.12 419.985 433.712 435.538 401.346 390.663 190.91 362.443 826.964 977.636 1024.15 1000.65 928.907 862.341 805.657 771.94 746.04 684.389 648.638 634.576 601.582 564.8 525.725 471.488 407.771 394.346 409.462 421.069 415.238 364.306 365.195 195.348 515.2 1151.76 1312.35 1301.72 1220.88 1130.44 1051.64 944.076 864.875 822.903 755.872 702.502 667 631.06 579.983 548.113 489.808 432.159 408.532 410.169 426.984 384.267 358.448 379.457 187.049 302.193 665.925 740.444 728.701 674.785 608.174 572.492 517.229 463.256 428.485 398.285 371.118 347.405 320.549 294.355 291.177 257.529 239.824 226.546 215.116 210.984 177.614 184.747 200.024 90.9137 158.706 328.884 345.654 322.693 291.642 279.497 259.827 229.141 214.293 206.626 183.738 169.62 167.805 161.027 132.367 112.151 99.5115 94.507 93.6122 95.786 101.106 91.6449 83.2954 71.2264 31.2469 260.922 548.865 590.654 562.991 513.071 495.973 464.023 424.638 408.683 383.377 340.772 311.059 321.771 316.269 257.549 236.774 211.354 195.951 196.413 190.452 194.346 182.885 167.699 154.662 76.6397 185.162 384.557 418.574 430.981 413.603 399.985 379.049 373.305 369.07 330.679 301.016 287.083 286.964 277.138 259.386 259.308 243.25 221.833 219.274 207.104 195.958 189.962 184.943 168.986 74.671 134.962 285.766 317.038 342.733 354.292 361.842 342.715 338.456 328.682 291.911 280.375 280.344 274.871 271.666 280.965 266.223 265.778 257.54 235.514 224.991 222.697 216.127 209.364 194.833 85.1803 91.5788 236.477 303.382 324.908 333.757 351.421 336.081 317.794 308.315 294.987 296.388 277.323 278.466 277.31 267.701 267.792 266.833 257.671 235.388 223.037 233.143 223.599 197.959 199.203 102.528 121.454 295.567 366.692 403.35 390.459 369.143 368.72 357.324 349.441 339.346 324.081 300.519 290.429 261.849 255.353 267.685 248.549 224.403 216.521 216.254 211.027 210.754 190.937 190.776 103.31 181.362 404.854 486.574 513.555 487.745 458.46 427.173 409.265 408.39 382.992 342.171 330.043 326.631 298.086 282.52 270.256 230.165 195.206 194.39 211.728 205.02 204.618 189.796 187.359 104.483 261.747 572.496 659.27 641.938 596.531 566.228 506.728 460.103 446.451 417.423 367.945 347.598 345.102 321.69 287.356 275.35 238.209 208.946 209.508 218.566 219.812 198.185 196.077 202.2 95.989 162.275 347.922 379.469 358.875 327.607 303.824 280.055 251.017 233.188 216.774 189.86 175.452 172.307 157.913 139.248 136.525 124.129 117.623 115.292 112.61 112.655 98.1267 108.085 115.698 48.1896 173.786 320.762 329.72 173.786 173.786 320.762 645.226 329.72 289.776 544.358 544.131 289.776 173.786 173.786 320.762 329.72 173.786 289.776 173.786 146.975 298.383 315.506 298.383 634.877 254.582 526.199 546.098 146.975 146.975 298.383 315.506 254.582 146.975 151.408 305.938 319.371 305.938 636.563 271.617 532.928 558.103 151.408 151.408 305.938 319.371 271.617 151.408 154.531 298.216 317.191 298.216 607.249 261.311 504.435 554.489 154.531 154.531 298.216 317.191 261.311 154.531 143.685 282.677 290.057 282.677 561.479 243.124 490.055 513.104 143.685 143.685 282.677 290.057 243.124 143.685 138.992 269.413 271.422 269.413 517.993 246.932 489.695 489.093 138.992 138.992 269.413 271.422 246.932 138.992 130.421 240.685 246.572 240.685 462.033 242.764 458.587 459.664 130.421 130.421 240.685 246.572 242.764 130.421 110.264 224.157 215.461 224.157 443.803 215.823 425.462 426.145 110.264 110.264 224.157 215.461 215.823 110.264 113.893 217.334 228.341 217.334 438.201 209.638 388.323 418.002 113.893 113.893 217.334 228.341 209.638 113.893 103.441 191.396 209.86 191.396 380.782 178.684 345.946 372.463 103.441 103.441 191.396 209.86 178.684 103.441 87.9547 170.893 170.922 170.893 345.714 167.261 325.249 326.106 87.9547 87.9547 170.893 170.922 167.261 87.9547 82.9384 164.313 174.792 164.313 331.023 157.988 307.567 327.194 82.9384 82.9384 164.313 174.792 157.988 82.9384 81.3747 162.927 156.232 162.927 302.286 149.579 292.645 302.758 81.3747 81.3747 162.927 156.232 149.579 81.3747 81.5522 139.257 146.054 139.257 275.922 143.066 256.173 277.426 81.5522 81.5522 139.257 146.054 143.066 81.5522 57.7047 129.414 129.867 129.414 258.213 113.107 235.414 240.934 57.7047 57.7047 129.414 129.867 113.107 57.7047 71.7088 133.422 128.345 133.422 238.26 122.307 237.276 239.418 71.7088 71.7088 133.422 128.345 122.307 71.7088 61.7128 121.183 109.914 121.183 227.319 114.969 237.087 216.651 61.7128 61.7128 121.183 109.914 114.969 61.7128 59.4706 109.468 117.405 109.468 216.124 122.118 228.868 234.679 59.4706 59.4706 109.468 117.405 122.118 59.4706 49.9972 105.673 98.7193 105.673 210.622 106.75 222.415 218.441 49.9972 49.9972 105.673 98.7193 106.75 49.9972 55.6763 104.483 111.902 104.483 208.329 115.664 222.461 232.994 55.6763 55.6763 104.483 111.902 115.664 55.6763 48.8066 93.2057 96.4261 93.2057 188.272 106.797 200.48 204.583 48.8066 48.8066 93.2057 96.4261 106.797 48.8066 44.3991 97.0991 91.8458 97.0991 179.486 93.6829 195.453 184.121 44.3991 44.3991 97.0991 91.8458 93.6829 44.3991 52.7 95.9889 87.6406 95.9889 177.714 101.77 186.133 182.781 52.7 52.7 95.9889 87.6406 101.77 52.7 43.2889 43.2889 90.0732 43.2889 90.0732 84.3628 84.3628 160.136 43.2889 43.2889 43.2889 90.0732 84.3628 43.2889 115.989 223.596 445.003 214.411 203.553 388.198 377.609 203.553 115.989 223.596 214.411 115.989 203.553 115.989 227.816 469.324 184.645 407.453 391.149 107.607 227.816 230.592 184.645 107.607 226.99 476.03 222.807 417.769 437.161 120.21 226.99 238.732 222.807 120.21 206.219 460.345 194.962 381.607 424.103 106.78 206.219 237.298 194.962 106.78 207.378 440.718 186.645 391.997 411.141 99.4383 207.378 223.047 186.645 99.4383 220.283 430.764 205.352 401.677 403.075 107.94 220.283 217.671 205.352 107.94 217.901 423.776 196.325 384.058 383.291 112.342 217.901 213.093 196.325 112.342 201.304 400.344 187.733 379.305 369.057 105.559 201.304 210.683 187.733 105.559 170.989 352.264 191.572 344.003 371.196 95.7453 170.989 189.661 191.572 95.7453 154.55 317.787 152.43 305.539 318.237 75.2433 154.55 162.603 152.43 75.2433 154.356 307.586 153.109 300.206 298.66 79.3067 154.356 155.184 153.109 79.3067 143.254 298.928 147.097 288.716 286.482 75.0497 143.254 152.402 147.097 75.0497 129.718 277.898 141.619 258.404 288.898 68.2042 129.718 146.526 141.619 68.2042 116.916 242.439 116.785 250.66 246.794 61.5141 116.916 131.372 116.785 61.5141 106 222.139 133.875 241.347 245.116 55.4018 106 111.067 133.875 55.4018 103.854 217.809 107.472 215.204 227.231 50.5983 103.854 111.072 107.472 50.5983 115.904 224.011 107.732 215.047 212.364 53.2561 115.904 106.737 107.732 53.2561 119.401 236.996 107.315 221.576 208.031 62.6475 119.401 117.274 107.315 62.6475 116.741 240.813 114.261 237.882 229.493 56.7531 116.741 119.722 114.261 56.7531 117.978 229.249 123.621 232.77 230.398 59.9879 117.978 121.091 123.621 59.9879 107.274 200.433 109.149 208.101 210.407 57.9901 107.274 108.157 109.149 57.9901 98.3542 187.416 98.9516 197.019 185.599 49.2837 98.3542 92.2755 98.9516 49.2837 90.1443 165.203 98.0678 177.784 192.283 49.0705 90.1443 95.1401 98.0678 49.0705 41.0738 70.0626 79.7164 79.7164 158.642 41.0738 41.0738 70.0626 79.7164 41.0738 87.5635 164.602 323.755 163.198 144.879 293.325 284.753 144.879 87.5635 164.602 163.198 87.5635 144.879 87.5635 179.636 358.986 148.446 333.976 319.992 77.0387 179.636 160.557 148.446 77.0387 190.779 385.234 185.53 350.743 375.861 102.598 190.779 198.429 185.53 102.598 175.388 374.9 165.213 339.017 348.982 88.1815 175.388 186.806 165.213 88.1815 184.618 373.498 173.804 364.553 356.549 87.2064 184.618 188.094 173.804 87.2064 181.394 355.602 190.75 362.441 363.46 97.4116 181.394 185.404 190.75 97.4116 166.157 328.573 171.692 338.838 352.592 83.9823 166.157 170.198 171.692 83.9823 178.001 339.91 167.146 348.905 309.336 82.1743 178.001 158.374 167.146 82.1743 173.014 337.169 181.758 332.855 336.047 95.8269 173.014 181.535 181.758 95.8269 150.989 299.11 151.097 289.846 298.786 77.187 150.989 155.634 151.097 77.187 145.849 277.556 138.749 286.659 276.139 73.8023 145.849 143.476 138.749 73.8023 145.462 276.451 147.91 292.9 278.521 72.0469 145.462 134.08 147.91 72.0469 128.686 257.794 144.99 268.485 283.009 73.4149 128.686 142.371 144.99 73.4149 133.744 249.472 123.495 253.715 236.599 55.2708 133.744 115.423 123.495 55.2708 135.347 250.208 130.219 251.408 248.792 78.4732 135.347 134.049 130.219 78.4732 111.35 221.786 121.189 236.71 250.151 56.8737 111.35 116.159 121.189 56.8737 99.1434 196.384 115.521 233.935 228.331 54.4759 99.1434 105.627 115.521 54.4759 102.175 200.529 118.415 217.462 237.256 44.6675 102.175 90.7572 118.415 44.6675 121.141 219.078 99.0476 231.781 211.548 57.5078 121.141 109.772 99.0476 57.5078 114.792 211.556 132.734 236.338 226.743 63.633 114.792 109.307 132.734 63.633 100.827 195.573 103.604 197.865 202.752 51.1592 100.827 102.249 103.604 51.1592 98.6652 190.467 94.2611 200.377 194.589 49.6678 98.6652 93.3233 94.2611 49.6678 87.6399 185.722 106.116 182.254 195.344 48.9974 87.6399 97.1432 106.116 48.9974 38.6426 88.5791 76.1379 76.1379 171.026 38.6426 38.6426 88.5791 76.1379 38.6426 57.3159 128.723 280.99 121.555 110.858 264.23 237.078 110.858 57.3159 128.723 121.555 57.3159 110.858 57.3159 154.339 336.867 153.372 327.264 324.967 71.407 154.339 159.435 153.372 71.407 159.964 339.608 173.891 344.436 357.452 82.9324 159.964 177.432 173.891 82.9324 163.629 330.632 170.545 338.282 353.31 77.0317 163.629 162.177 170.545 77.0317 179.935 346.511 167.738 361.407 342.409 86.5971 179.935 168.455 167.738 86.5971 181.047 360.45 193.67 369.534 358.688 93.3381 181.047 178.056 193.67 93.3381 172.681 333.356 175.864 342.344 369.049 87.7093 172.681 182.394 175.864 87.7093 170.903 305.474 166.48 331.507 316.016 84.9719 170.903 150.962 166.48 84.9719 159.841 297.664 165.027 310.908 308.937 85.9315 159.841 154.512 165.027 85.9315 138.857 275.815 145.881 285.836 283.057 73.9098 138.857 143.152 145.881 73.9098 140.809 277.104 139.955 289.849 269.278 64.9467 140.809 132.663 139.955 64.9467 147.438 285.08 149.893 302.322 300.201 75.8627 147.438 144.442 149.893 75.8627 139.8 261.815 152.429 289.957 279.974 71.5751 139.8 140.638 152.429 71.5751 119.971 235.919 137.528 248.846 261.358 68.2244 119.971 121.177 137.528 68.2244 116.062 248.734 111.318 247.34 232.288 51.7462 116.062 114.743 111.318 51.7462 125.36 256.695 136.022 259.953 269.342 64.3154 125.36 133.992 136.022 64.3154 134.792 269.202 123.931 250.277 239.624 61.0448 134.792 122.704 123.931 61.0448 115.287 248.275 126.346 219.289 260.43 73.747 115.287 146.499 126.346 73.747 110.64 219.213 92.9436 206.258 219.407 41.5398 110.64 101.776 92.9436 41.5398 121.545 217.939 113.315 228.729 217.46 69.1006 121.545 117.437 113.315 69.1006 97.038 201.768 115.415 213.742 205.963 52.4447 97.038 100.502 115.415 52.4447 101.712 199.466 98.3274 202.33 203.633 44.5933 101.712 101.265 98.3274 44.5933 94.6139 180.647 104.002 176.988 196.061 57.1185 94.6139 98.2007 104.002 57.1185 37.4954 82.4465 72.9861 72.9861 158.375 37.4954 37.4954 82.4465 72.9861 37.4954 53.5421 135.507 281.054 115.523 132.798 304.801 277.145 132.798 53.5421 135.507 115.523 53.5421 132.798 53.5421 172.924 345.551 172.003 370.723 358.082 81.9651 172.924 165.531 172.003 81.9651 184.472 371.153 198.72 408.599 405.166 90.9591 184.472 180.02 198.72 90.9591 174.654 365.087 209.878 397.719 423.538 93.5131 174.654 191.133 209.878 93.5131 181.472 354.585 187.84 389.332 383.766 81.1404 181.472 173.954 187.84 81.1404 188.486 367.287 201.492 392.223 378.523 100.332 188.486 180.632 201.492 100.332 169.663 351.709 190.731 358.649 388.101 88.1548 169.663 186.655 190.731 88.1548 160.603 319.479 167.917 350.153 334.305 81.5081 160.603 165.054 167.917 81.5081 151.066 294.33 182.235 339.537 346.13 79.0954 151.066 154.425 182.235 79.0954 146.98 276.52 157.301 326.813 309.811 71.9709 146.98 139.905 157.301 71.9709 149.039 292.374 169.512 310.834 296.396 75.0087 149.039 136.615 169.512 75.0087 154.884 295.095 141.322 294.758 299.939 74.0304 154.884 155.759 141.322 74.0304 150.158 279.517 153.436 289.735 277.056 80.8538 150.158 139.336 153.436 80.8538 128.875 257.727 136.3 255.163 270.005 69.3039 128.875 140.181 136.3 69.3039 131.278 252.896 118.863 246.277 241.744 59.5715 131.278 117.546 118.863 59.5715 134.593 252.271 127.414 251.786 241.976 71.7068 134.593 135.35 127.414 71.7068 115.485 230.852 124.372 232.274 235.934 62.8864 115.485 116.921 124.372 62.8864 104.002 231.562 107.902 222.167 232.628 52.5987 104.002 113.931 107.902 52.5987 95.6177 217.654 114.265 212.793 240.222 51.4038 95.6177 117.63 114.265 51.4038 107.184 205.484 98.528 223.483 216.134 44.214 107.184 100.024 98.528 44.214 116.704 207.828 124.955 224.729 218.233 62.97 116.704 105.461 124.955 62.97 100.618 200.228 99.7739 198.538 199.663 53.7341 100.618 102.367 99.7739 53.7341 82.3745 173.789 98.7638 164.995 199.933 46.8838 82.3745 97.8605 98.7638 46.8838 35.4907 75.9284 66.2309 66.2309 157.348 35.4907 35.4907 75.9284 66.2309 35.4907 79.256 169.294 354.173 161.622 190.352 430.56 374.986 190.352 79.256 169.294 161.622 79.256 190.352 79.256 197.799 417.696 240.208 481.838 494.661 90.0375 197.799 192.551 240.208 90.0375 224.126 457.55 241.63 491.824 490.477 107.761 224.126 225.146 241.63 107.761 223.065 442.217 250.194 496.696 510.122 116.365 223.065 232.405 250.194 116.365 207.86 407.703 246.502 464.595 492.141 106.7 207.86 209.812 246.502 106.7 203.737 399.336 218.093 446.083 428.726 101.16 203.737 197.891 218.093 101.16 188.986 370.696 227.99 413.16 447.696 102.577 188.986 201.445 227.99 102.577 189.549 360.956 185.169 382.153 383.042 86.4093 189.549 169.251 185.169 86.4093 188.47 361.611 196.984 378.179 387.995 103.14 188.47 191.705 196.984 103.14 179.833 329.686 181.195 370.021 360.603 85.3305 179.833 169.906 181.195 85.3305 161.795 303.96 188.826 347.128 335.128 94.5029 161.795 159.781 188.826 94.5029 139.874 281.899 158.301 299.115 313.023 67.2919 139.874 144.18 158.301 67.2919 139.578 267.544 140.814 278.709 272.583 72.5819 139.578 137.72 140.814 72.5819 126.288 254.023 137.895 271.597 266.958 66.9957 126.288 129.825 137.895 66.9957 114.999 230.824 133.702 249.403 267.297 59.2919 114.999 124.198 133.702 59.2919 117.193 225.639 115.701 229.778 233.012 55.7073 117.193 106.626 115.701 55.7073 116.789 237.71 114.076 230.733 232.038 61.4853 116.789 119.013 114.076 61.4853 118.165 241.289 116.656 238.106 237.101 55.3035 118.165 118.697 116.656 55.3035 117.176 238.702 121.45 230.658 239.619 62.8615 117.176 122.592 121.45 62.8615 116.299 228.883 109.208 209.597 216.778 54.3141 116.299 116.11 109.208 54.3141 108.025 210.068 100.389 186.106 191.123 61.9847 108.025 112.773 100.389 61.9847 97.9198 199.368 85.7171 200.792 186.023 46.0398 97.9198 97.2956 85.7171 46.0398 82.6202 183.492 115.075 189.34 202.741 51.88 82.6202 102.072 115.075 51.88 30.7402 81.4197 74.2651 74.2651 174.227 30.7402 30.7402 81.4197 74.2651 30.7402 111.096 261.267 515.474 213.364 264.785 604.885 509.386 264.785 111.096 261.267 213.364 111.096 264.785 111.096 284.039 567.442 340.1 652.835 683.703 150.171 284.039 302.11 340.1 150.171 267.698 543.049 312.735 616.733 628.979 133.868 267.698 265.331 312.735 133.868 273.631 560.047 303.998 602.749 626.35 133.829 273.631 277.718 303.998 133.829 256.734 513.164 298.75 561.383 606.248 139.802 256.734 282.329 298.75 139.802 242.346 477.085 262.633 542.998 527.658 116.932 242.346 230.835 262.633 116.932 224.174 460.042 280.366 499.707 546.814 125.414 224.174 246.251 280.366 125.414 192.604 410.081 219.342 439.891 463.828 98.76 192.604 213.791 219.342 98.76 189.708 386.988 220.55 422.414 444.219 93.8442 189.708 196.29 220.55 93.8442 190.188 366.045 201.865 389.508 414.274 95.8642 190.188 190.698 201.865 95.8642 185.333 344.191 187.643 366.812 366.145 94.3233 185.333 175.347 187.643 94.3233 159.241 303.707 179.169 325.065 354.51 91.0095 159.241 168.844 179.169 91.0095 139.131 271.997 145.896 298.269 291.649 68.2317 139.131 134.864 145.896 68.2317 145.309 280.232 152.373 290.383 286.005 70.8995 145.309 137.133 152.373 70.8995 134.404 269.485 138.01 268.547 273.946 74.41 134.404 143.099 138.01 74.41 112.585 239.411 130.537 242.088 267.685 59.994 112.585 126.386 130.537 59.994 113.944 231.429 111.55 225.023 232.589 52.5911 113.944 113.025 111.55 52.5911 119.941 235.432 113.472 229.319 241.214 61.3529 119.941 118.404 113.472 61.3529 113.482 217.695 115.846 235.741 223.884 58.5883 113.482 117.027 115.846 58.5883 93.2983 179.017 119.895 214.91 215.276 54.8941 93.2983 100.667 119.895 54.8941 78.0815 167.078 95.0147 185.811 181.959 38.4043 78.0815 78.3499 95.0147 38.4043 102.873 189.396 90.7965 202.594 183.52 39.6773 102.873 88.7279 90.7965 39.6773 106.72 193.476 111.798 192.25 191.895 63.1952 106.72 100.669 111.798 63.1952 43.5249 92.8072 80.4518 80.4518 176.404 43.5249 43.5249 92.8072 80.4518 43.5249 153.689 343.618 677.615 296.022 153.689 343.618 296.022 153.689 153.689 343.618 296.022 153.689 153.689 153.689 368.795 745.241 189.929 368.795 381.593 189.929 368.795 381.593 189.929 189.929 349.036 712.28 178.866 349.036 363.648 178.866 349.036 363.648 178.866 178.866 329.118 672.551 170.169 329.118 348.632 170.169 329.118 348.632 170.169 170.169 304.649 620.742 158.949 304.649 323.919 158.949 304.649 323.919 158.949 158.949 300.652 597.387 145.7 300.652 296.823 145.7 300.652 296.823 145.7 145.7 275.533 550.601 154.952 275.533 300.564 154.952 275.533 300.564 154.952 154.952 247.287 497.966 120.582 247.287 250.037 120.582 247.287 250.037 120.582 120.582 232.706 471.506 126.705 232.706 247.93 126.705 232.706 247.93 126.705 126.705 199.32 414.374 106 199.32 223.576 106 199.32 223.576 106 106 181.479 376.464 93.3199 181.479 190.798 93.3199 181.479 190.798 93.3199 93.3199 165.824 342.451 88.1596 165.824 185.666 88.1596 165.824 185.666 88.1596 88.1596 159.138 305.657 77.6641 159.138 156.785 77.6641 159.138 156.785 77.6641 77.6641 145.073 279.72 81.4737 145.073 148.872 81.4737 145.073 148.872 81.4737 81.4737 134.143 272.147 63.5996 134.143 130.847 63.5996 134.143 130.847 63.5996 63.5996 129.503 260.864 70.5433 129.503 141.299 70.5433 129.503 141.299 70.5433 70.5433 111.079 242.375 58.9593 111.079 119.565 58.9593 111.079 119.565 58.9593 58.9593 109.377 229.666 52.1195 109.377 122.81 52.1195 109.377 122.81 52.1195 52.1195 122.259 221.465 57.2578 122.259 106.856 57.2578 122.259 106.856 57.2578 57.2578 121.611 218.218 65.001 121.611 114.609 65.001 121.611 114.609 65.001 65.001 107.73 198.401 56.6105 107.73 103.609 56.6105 107.73 103.609 56.6105 56.6105 99.7218 186.018 51.1193 99.7218 94.7922 51.1193 99.7218 94.7922 51.1193 51.1193 85.5294 174.823 48.6025 85.5294 91.2263 48.6025 85.5294 91.2263 48.6025 48.6025 36.9269 83.5966 36.9269 36.9269 83.5966 36.9269 36.9269 83.5966 36.9269 36.9269 324.465 302.316 155.934 633.821 302.316 545.872 498.532 254.356 155.934 324.465 302.316 155.934 254.356 155.934 336.494 331.505 657.211 578.002 561.429 168.531 336.494 331.505 291.516 168.531 330.624 325.707 643.624 579.665 566.281 167.964 330.624 325.707 286.486 167.964 309.032 317.918 616.312 563.159 569.665 162.661 309.032 317.918 293.178 162.661 278.802 298.394 572.365 512.142 547.646 146.372 278.802 298.394 269.981 146.372 248.58 273.97 510.497 459.062 508.57 132.43 248.58 273.97 242.161 132.43 221.348 236.527 460.728 427.222 449.933 116.15 221.348 236.527 216.901 116.15 219.645 224.201 432.794 418.685 421.654 105.197 219.645 224.201 210.321 105.197 220.867 208.593 412.529 402.143 386.497 114.448 220.867 208.593 208.364 114.448 189.387 203.936 375.123 352.624 369.534 106.419 189.387 203.936 193.779 106.419 174.821 171.186 340.076 328.05 329.57 82.9677 174.821 171.186 158.845 82.9677 166.71 168.89 326.193 322.385 316.052 91.8532 166.71 168.89 169.205 91.8532 139.359 157.303 293.384 287.539 306.736 74.8571 139.359 157.303 153.179 74.8571 136.665 136.08 275.019 262.187 259.082 64.502 136.665 136.08 134.36 64.502 128.799 138.939 261.086 244.938 249.628 72.1627 128.799 138.939 127.828 72.1627 104.838 122.148 229.385 218.793 236.284 56.6366 104.838 122.148 117.111 56.6366 106.136 107.238 210.469 214.243 229.46 48.2014 106.136 107.238 101.682 48.2014 106.656 103.231 214.75 224.251 213.931 57.9343 106.656 103.231 112.561 57.9343 104.948 111.518 220.49 229.02 224.067 48.7221 104.948 111.518 111.691 48.7221 103.846 108.972 204.972 215.116 221.963 56.2262 103.846 108.972 117.33 56.2262 95.0663 96.0003 199.61 188.225 185.627 47.6195 95.0663 96.0003 97.7866 47.6195 82.3873 103.61 186.419 171.449 205.154 47.4467 82.3873 103.61 90.4385 47.4467 81.7249 82.8086 159.318 156.783 175.95 34.9406 81.7249 82.8086 81.0102 34.9406 46.7843 76.5092 76.5092 75.7731 147.4 46.7843 46.7843 76.5092 75.7731 46.7843 426.14 196.216 380.56 338.922 174.056 221.407 196.216 98.4213 174.056 98.4213 470.499 420.858 405.191 241.508 229.924 206.504 122.986 492.321 443.496 439.596 249.04 240.574 214.354 118.523 500.999 453.638 450.552 254.126 251.747 229.142 130.518 483.851 422.22 468.98 233.34 249.252 224.496 123.609 448.006 384.69 411.077 210.481 234.6 197.724 109.731 410.859 368.29 375.794 205.875 213.406 186.966 100.75 375.357 360.948 358.615 199.039 197.453 181.324 105.124 343.501 345.43 343.826 181.275 177.904 179.624 93.9154 323.982 311.358 321.979 163.237 165.597 165.807 87.3601 305.547 284.937 301.876 153.229 158.384 145.551 75.8772 296.596 286.664 269.848 155.675 147.163 139.385 77.3523 272.434 277.288 280.84 148.18 149.433 147.279 78.3223 233.691 241.251 247.436 125.523 123.002 130.009 69.8576 224.826 231.001 227.473 116.139 110.69 111.241 55.665 236.359 224.392 238.221 113.955 114.136 119.759 60.474 232.922 205.348 231.224 108.107 122.223 104.632 53.4808 223.249 215.949 214.935 117.595 110.7 100.716 54.6266 225.541 222.009 218.097 124.072 112.549 115.233 62.9685 202.618 208.034 208.828 111.27 112.991 106.777 61.1034 191.17 187.905 196.632 93.1588 89.6263 101.257 50.167 194.685 180.863 192.025 89.0614 101.544 86.6473 42.9918 164.033 173.141 183.354 75.0584 93.1414 94.2154 46.0696 70.8913 78.9254 167.126 28.9888 70.8913 78.9254 28.9888 317.973 142.706 311.42 266.599 139.873 159.153 142.706 75.6347 139.873 75.6347 374.288 361.877 343.726 179.349 175.267 171.547 83.5181 397.827 374.1 384.128 194.455 199.022 190.331 95.8314 418.534 366.515 368.017 199.512 198.805 183.769 98.6241 396.206 355.456 394.7 188.88 219.729 182.746 100.888 338.866 353.611 346.694 174.208 176.477 172.71 87.9926 323.551 323.091 350.248 162.416 162.388 180.901 86.2159 327.084 296.479 302.93 161.908 161.162 142.19 76.2 322.304 301.978 310.462 164.155 165.922 154.289 85.7083 299.874 285.079 297.594 148.121 156.382 147.689 78.4467 266.177 268.002 282.514 131.707 143.492 137.39 69.674 254.092 268.631 264.785 130.989 122.685 130.612 62.0331 255.841 251.124 268.354 129.108 131.407 138.019 68.9563 241.217 231.677 238.45 115.728 124.434 113.104 60.1518 240.868 247.534 235.995 114.862 116.783 118.572 55.5761 233.086 241.772 249.137 110.437 124.084 128.962 59.2855 213.237 231.652 230.415 97.241 109.001 112.81 51.1513 209.783 231.342 230.43 98.3537 104.236 118.841 46.0897 201.384 206.51 225.079 97.9375 105.547 112.5 52.264 202.842 193.157 194.304 96.7637 95.8366 94.0094 45.6735 197.487 199.476 199.354 94.7457 107.005 99.1478 51.0902 180.694 189.556 210.826 91.8013 90.4815 100.328 43.6555 186.447 184.116 174.601 98.0824 90.2123 89.228 48.1458 96.2347 94.8878 181.74 49.9366 96.2347 94.8878 49.9366 292.352 123.892 297.814 258.409 126.22 152.267 123.892 64.2388 126.22 64.2388 353.566 355.155 341.111 182.528 168.46 171.595 88.0284 354.318 366.325 355.626 179.644 185.106 183.56 94.4993 344.183 357.436 360.577 167.003 169.212 182.765 85.1448 345.188 339.689 351.04 166.576 174.971 174.671 81.8582 358.077 358.203 337.909 179.402 170.217 165.018 84.7178 329.628 342.721 371.389 160.675 187.86 193.185 94.6847 286.308 293.446 316.699 134.57 141.768 149.536 65.99 285.751 281.086 295.048 137.823 144.54 143.91 68.5803 280.233 266.499 278.991 136.958 141.211 137.177 69.2423 281.121 279.63 280.164 136.295 139.022 129.322 67.7161 279.046 277.853 293.586 137.642 142.099 150.308 68.5788 250.962 251.375 254.627 122.015 136.947 127.545 69.0631 233.227 244.8 241.548 115.949 114.016 123.829 52.9523 244.264 254.291 235.992 132.673 119.211 120.971 62.9964 246.466 249.013 245.881 131.335 125.052 133.32 69.6763 247.609 249.778 236.391 134.411 121.414 115.693 61.6589 245.726 260.547 244.11 132.988 126.195 134.084 72.7517 217.999 230.609 246.236 108.572 119.531 126.463 60.2364 190.817 194.694 208.539 96.3935 98.4678 104.146 48.3359 212.694 195.853 184.742 104.73 92.349 90.5482 48.0576 204.734 197.364 223.111 97.7544 120.345 105.305 56.6722 169.894 177.448 174.907 86.0334 84.3885 92.0589 41.0822 85.5055 85.3889 176.867 44.9512 85.5055 85.3889 44.9512 307.168 134.517 330.427 280.467 144.347 145.547 134.517 61.9809 144.347 61.9809 343.17 392.525 370.757 172.627 172.651 186.079 83.5663 361.884 420.104 394.861 186.681 170.519 206.445 89.0609 367.434 409.585 421.088 190.433 191.365 213.659 97.62 343.762 372.956 397.903 173.113 176.069 195.926 92.8133 351.222 374.4 366.962 178.801 167.693 177.031 80.3001 358.461 363.757 387.559 182.047 183.529 197.37 98.5006 325.44 330.282 349.078 158.875 174.932 166.388 83.546 288.288 316.404 329.61 143.264 150.508 163.895 75.3294 278.922 279.393 308.188 129.541 137.78 152.509 67.9344 292.629 285.5 285.723 143.335 141.142 126.884 61.6062 269.167 282.236 308.095 140.211 151.487 158.617 81.7288 245.213 257.326 238.251 129.359 117.681 123.62 58.4822 244.312 256.586 258.486 128.851 127.532 133.706 70.8769 237.609 237.443 251.895 121.618 116.781 122.88 57.9745 235.805 226.124 222.326 117.678 120.828 114.562 63.6436 232.892 236.288 233.948 115.367 114.977 111.562 54.0344 244.62 250.683 229.28 127.559 117.915 124.726 61.3328 236.776 243.563 254.582 122.036 126.705 125.957 66.2266 202.464 210.884 220.23 98.3003 110.072 117.606 55.8096 195.158 193.167 186.502 91.1236 92.3925 93.2787 42.4907 193.284 201.057 195.371 99.6096 102.766 99.8887 48.6329 181.88 192.286 190.617 91.4144 90.518 101.169 50.9767 91.3617 91.1172 187.722 40.4377 91.3617 91.1172 40.4377 344.056 145.95 439.087 338.75 184.634 184.88 145.95 82.3664 184.634 82.3664 422.447 503.3 485.842 219.897 198.106 254.453 102.513 454.065 508.775 511.016 233.424 224.342 248.847 117.384 451.557 505.568 508.731 219.151 229.723 259.928 116.039 421.103 456.272 494.439 199.843 221.834 245.64 103.112 403.299 430.338 445.189 195.6 199.269 210.633 96.7307 378.176 417.578 446.823 181.71 204.03 219.706 98.8689 353.249 388.884 389.493 171.407 174.147 197.873 82.8416 349.51 370.42 383.601 173.141 179.102 191.011 88.5655 314.988 325.711 356.945 149.853 170.408 179.409 84.575 301.188 301.024 303.53 142.165 144.58 146.302 65.2777 277.178 286.491 310.53 142.025 156.608 154.722 76.8878 251.525 260.832 261.938 127.967 120.57 131.769 65.1376 266.069 262.658 279.263 127.735 130.954 129.063 62.829 236.612 250.906 268.738 115.825 135.114 133.595 64.906 220.469 235.272 246.941 108.446 101.498 117.311 50.9189 230.337 238.406 241.908 120.921 118.972 117.961 57.5276 239.243 238.615 215.913 123.124 111.366 120.445 63.3935 238.036 225.739 242.99 121.527 127.878 118.17 59.7307 204.268 198.303 201.505 112.584 110.158 107.57 61.7962 186.715 191.04 184.523 102.044 94.1098 90.7336 50.788 192.704 187.972 186.951 101.448 92.6055 100.306 51.2557 196.459 187.627 189.456 100.872 100.099 87.6654 50.1921 96.3604 99.9617 190.908 50.6795 96.3604 99.9617 50.6795 480.536 192.8 588.204 485.208 244.601 254.207 192.8 102.268 244.601 102.268 574.411 659.848 665.11 283.402 287.736 343.603 151.939 565.683 638.596 655.788 275.351 286.675 316.245 131.463 551.613 629.849 639.049 286.416 279.008 322.351 143.889 518.525 572.523 614.191 256.43 272.606 307.498 142.528 488.713 531.474 555.73 234.739 245.919 265.025 113.902 458.14 510.935 525.777 235.868 242.794 266.449 120.837 419.845 468.156 470.391 217.477 215.346 244.486 115.031 391.036 436.079 442.361 197.279 204.499 223.67 102.446 345.486 390.911 417.077 175.858 186.537 212.41 94.8336 312.871 353.842 356.217 158.858 158.949 178.502 81.0242 295.289 321.094 349.15 144.466 153.922 175.34 77.8341 289.676 279.385 298.224 132.866 141.368 145.753 66.6319 281.932 269.569 285.38 134.923 148.309 133.632 66.2338 279.068 273.085 263.751 135.081 133.624 135.937 68.6888 268.38 258.187 286.214 126.826 145.444 137.148 66.392 227.484 248.781 246.885 117.485 122.936 121.039 60.4337 219.66 235.78 244.158 115.49 104.548 127.742 57.0514 206.459 203.419 235.57 104.212 115.113 108.038 58.439 181.759 182.326 186.108 85.719 91.3463 95.3813 45.7734 184.758 179.668 187.741 88.9962 90.413 86.9443 39.9456 183.702 172.821 178.123 86.5239 94.345 92.7235 49.0506 183.905 176.049 180.718 86.7556 89.3567 80.0971 37.4733 94.5479 95.952 193.203 49.2823 94.5479 95.952 49.2823 669.782 292.408 333.997 292.408 142.333 333.997 292.408 142.333 142.333 142.333 746.487 376.446 377.374 376.446 377.374 191.664 191.664 729.154 363.245 369.113 363.245 369.113 184.782 184.782 701.626 343.433 360.041 343.433 360.041 178.463 178.463 651.396 316.093 341.585 316.093 341.585 164.97 164.97 592.795 296.735 309.811 296.735 309.811 151.123 151.123 538.028 275.067 282.984 275.067 282.984 145.612 145.612 492.907 250.679 255.044 250.679 255.044 129.455 129.455 468.402 238.8 237.862 238.8 237.862 121.224 121.224 427.807 215.054 230.54 215.054 230.54 117.576 117.576 392.496 194.984 197.267 194.984 197.267 97.4777 97.4777 352.085 176.628 195.229 176.628 195.229 97.5064 97.5064 293.928 146.52 156.857 146.52 156.857 79.1212 79.1212 267.198 134.646 137.071 134.646 137.071 67.3984 67.3984 270.897 138.004 130.127 138.004 130.127 67.2478 67.2478 264.719 131.361 140.77 131.361 140.77 70.756 70.756 263.56 131.296 123.949 131.296 123.949 60.6053 60.6053 260.068 120.289 139.61 120.289 139.61 70.6906 70.6906 215.219 99.2064 120.457 99.2064 120.457 49.5985 49.5985 192.089 96.6066 94.7618 96.6066 94.7618 49.6079 49.6079 181.106 90.6716 97.3275 90.6716 97.3275 46.9987 46.9987 175.14 86.2967 83.7783 86.2967 83.7783 43.6729 43.6729 190.016 89.2935 91.3614 89.2935 91.3614 42.6238 42.6238 98.6551 46.6697 98.6551 46.6697 98.6551 46.6697 46.6697 309.356 304.351 146.382 617.399 304.351 514.09 490.262 244.176 146.382 309.356 304.351 146.382 244.176 146.382 320.717 313.048 635.945 549.708 546.251 162.974 320.717 313.048 269.913 162.974 313 322.897 646.222 556.281 576.826 157.743 313 322.897 279.795 157.743 307.28 323.325 611.989 554.152 573.641 155.257 307.28 323.325 276.487 155.257 293.563 288.664 565.788 544.075 538.199 152.023 293.563 288.664 277.666 152.023 261.917 277.124 524.232 499.441 517.014 141.54 261.917 277.124 266.409 141.54 239.38 247.107 491.667 444.364 460.943 120.376 239.38 247.107 233.032 120.376 213.149 244.559 440.455 389.466 440.513 119.004 213.149 244.559 211.332 119.004 191.662 195.896 387.441 353.888 384.804 94.1448 191.662 195.896 178.133 94.1448 185.736 191.545 375.998 346.48 354.355 97.5174 185.736 191.545 175.755 97.5174 165.255 184.453 348.172 317.573 336.8 88.2185 165.255 184.453 170.726 88.2185 159.483 163.719 318.03 300.404 306.501 77.0364 159.483 163.719 146.847 77.0364 154.025 154.311 288.912 278.279 295.549 82.4461 154.025 154.311 153.557 82.4461 138.354 134.601 273.791 246.523 246.6 71.5784 138.354 134.601 124.722 71.5784 132.287 139.19 264.321 240.974 241.447 66.7759 132.287 139.19 121.801 66.7759 124.547 125.131 241.372 246.951 237.712 65.511 124.547 125.131 119.173 65.511 104.333 116.241 211.799 229.148 238.652 59.0362 104.333 116.241 127.778 59.0362 108.093 95.5577 200.267 213.747 207.147 45.2972 108.093 95.5577 101.37 45.2972 115.542 104.71 218.851 217.011 200.863 62.796 115.542 104.71 112.377 62.796 101.127 114.142 208.045 192.474 216.675 52.7459 101.127 114.142 104.634 52.7459 104.544 93.9035 204.952 202.556 173.058 48.3808 104.544 93.9035 87.8401 48.3808 104.031 111.049 200.379 209.655 223.784 56.1634 104.031 111.049 114.715 56.1634 77.5929 89.3303 160.121 166.567 175.194 47.868 77.5929 89.3303 94.9398 47.868 29.7248 70.7906 70.7906 71.6274 160.239 29.7248 29.7248 70.7906 71.6274 29.7248 419.115 185.912 363.553 317.901 164.866 204.733 185.912 97.7943 164.866 97.7943 487.132 423.929 434.343 228.99 233.203 198.687 106.939 504.245 446.653 465.584 243.281 253.929 225.242 122.052 499.851 465.895 455.493 246.873 250.316 221.411 121.23 489.425 457.837 461.552 250.512 249.535 244.484 125.643 453.725 402.181 415.491 237.524 239.89 213.353 124.869 409.789 366.119 379.86 204.984 213.835 188.828 112.656 384.862 341.493 372.564 176.317 195.954 177.291 92.3287 351.718 320.375 335.698 162.226 188.908 164.202 83.9887 315.157 312.498 309.807 160.744 162.81 156.173 78.2372 295.129 286.788 283.781 152.318 152.347 156.325 82.5071 284.02 264.024 260.728 140.921 142.782 130.463 69.8106 253.237 250.988 270.987 124.254 141.238 133.561 71.1106 214.256 233.658 230.88 108.169 111.999 117.426 53.1439 214.839 234.693 225.837 108.687 102.258 116.232 55.0247 234.992 245.053 229.771 122.404 112.582 118.461 53.6621 234 240.811 242.464 124.815 122.41 126.592 68.7419 207.743 217.083 221.587 105.654 111.59 114.219 56.0732 198.687 204.915 193.618 101.469 96.1535 102.864 49.5807 181.689 197.426 213.331 91.3473 102.534 102.051 51.888 191.89 200.752 179.454 98.0113 79.1547 95.3745 39.4593 198.599 194.516 205.08 105.624 112.735 105.378 58.552 175.312 177.339 182.953 88.9743 85.8635 89.1383 47.0718 89.4487 88.2007 187.349 41.9026 89.4487 88.2007 41.9026 333.13 131.989 298.905 256.752 126.725 158.82 131.989 67.0717 126.725 67.0717 412.795 365.977 359.645 194.939 201.14 172.18 91.7485 416.832 378.045 386.275 203.372 211.655 193.797 103.19 417.194 396.202 386.903 219.022 205.177 184.248 100.181 387.618 385.938 402.284 207.326 212.017 211.954 118.841 341.626 343.332 344.145 164.657 175.601 173.984 88.4849 342.635 330.088 341.195 161.135 166.025 169.348 76.1724 323.4 316.913 332.904 165.176 176.61 160.74 84.9622 293.787 306.078 299.453 158.149 146.79 156.173 80.2135 278.43 295.028 277.474 151.754 146.997 149.905 77.9355 249.38 279.296 271.888 134.47 131.434 145.124 73.8181 247.695 264.507 270.798 123.103 117.946 134.173 60.6522 248.63 255.68 252.743 126.733 129.749 130.334 62.4508 242.461 242.768 232.949 125.489 118.881 125.346 64.2822 240.769 237.597 240.052 126.006 123.58 117.422 61.2072 237.243 237.78 237.132 122.649 117.189 120.175 64.799 230.051 229.194 237.377 115.996 120.054 117.605 57.8498 207.461 224.167 227.189 111.429 109.997 111.589 58.1459 208.261 212.873 200.521 103.446 97.4643 112.578 53.2833 211.096 200.502 211.515 106.078 110.797 100.295 50.1631 192.644 210.705 190.387 102.741 100.299 100.207 55.9151 189.434 195.872 212.149 88.8925 92.3445 110.499 46.826 194.99 172.225 179.49 88.3646 97.0898 85.3729 42.0665 97.9005 86.8525 177.882 46.2982 97.9005 86.8525 46.2982 283.268 124.763 301.705 256.501 132.189 140.085 124.763 59.6534 132.189 59.6534 333.125 341.581 334.001 171.038 158.505 169.516 80.4313 356.346 349.877 356.144 174.674 174.62 172.065 90.6068 371.994 354.181 365.092 177.18 181.726 177.812 84.067 358.811 349.26 358.934 178.612 190.267 176.369 93.1128 343.714 351.095 350.164 178.674 168.543 172.891 85.4988 331.465 345.368 348.346 168.953 175.17 178.204 93.1755 308.957 318.302 329.253 151.737 156.294 167.164 75.7776 283.14 292.953 303.055 147.929 152.663 151.138 75.9597 270.932 292.656 274.885 143.275 130.477 141.815 71.969 293.306 294.12 291.053 144.826 140.454 150.842 71.3056 275.845 270.36 283.665 141.404 152.852 143.278 73.5204 237.062 244.8 250.494 128.947 122.994 127.082 67.8835 230.54 232.739 230.819 117.278 114.068 117.718 61.0633 236.414 227.582 226.323 111.591 116.472 115.021 56.215 237.266 233.258 235.103 115.131 119.942 112.561 55.376 234.515 230.723 232.112 113.198 117.324 120.697 59.755 220.249 229.798 232.312 112.738 117.191 110.025 53.4431 203.775 224.167 224.578 109.427 103.057 119.773 59.2949 190.805 198.587 198.838 94.4234 100.718 104.394 50.1319 209.891 211.999 183.679 107.964 90.0873 94.1933 44.2915 202.204 200.653 222.815 106.979 119.804 117.806 63.6728 162.382 174.326 182.067 83.8607 82.4003 82.8477 43.3064 79.9814 91.4783 169.839 40.5543 79.9814 91.4783 40.5543 307.234 131.738 320.797 273.666 136.119 161.62 131.738 72.5357 136.119 72.5357 357.02 373.093 377.445 170.543 175.496 184.677 89.0847 364.891 395.845 396.506 175.203 181.524 188.416 81.4585 352.033 409.407 406.355 177.001 183.366 207.429 93.7448 350.287 391.909 387.027 170.649 168.666 201.978 83.2561 354.796 380.121 386.921 172.421 181.62 189.931 87.3926 346.134 372.88 374.991 176.414 173.176 190.189 85.0285 323.351 348.406 351.624 166.565 172.958 182.691 91.386 294.8 321.394 330.581 145.024 150.393 165.715 75.1787 295.006 314.517 316.429 149.382 144.407 155.678 69.8455 281.412 308.317 302.691 149.294 150.599 158.839 79.5362 258.314 264.109 287.779 128.956 130.813 149.478 69.7577 244.251 239.412 241.437 115.854 127.5 114.631 59.1987 226.602 253.795 254.443 115.461 116.751 124.78 56.655 225.012 236.778 253.706 115.991 109.851 129.014 58.8061 229.949 230.15 241.704 118.127 115.161 107.764 57.1849 229.909 226.941 238.508 117.524 114.788 122.386 60.9423 236.642 233.179 225.376 117.06 115.121 104.554 56.5821 219.641 231.249 257.306 114.74 121.521 128.625 60.4783 191.712 195.848 199.295 104.164 98.1202 102.624 54.2619 196.603 188.706 186.808 104.035 93.5916 93.2236 49.9018 202.678 184.931 182.338 93.6741 103.011 95.4826 54.1328 189.524 186.053 191.873 90.4653 99.6668 89.4481 39.5413 89.8576 96.6049 179.041 50.924 89.8576 96.6049 50.924 343.877 141.928 385.505 333.866 154.116 159.176 141.928 63.5837 154.116 63.5837 416.931 493.558 476.247 202.55 201.949 231.389 95.5927 437.97 510.972 518.677 220.641 214.982 262.169 106.957 441.349 497.603 486.294 232.406 222.988 248.803 113.684 423.661 483.356 482.799 221.26 218.361 248.8 118.722 407.116 461.674 465.181 207.7 205.3 234.556 102.539 380.482 418.738 438.262 196.466 201.815 227.118 105.161 358.854 384.21 389.351 181.842 178.666 191.62 91.305 352.21 370.126 384.626 176.37 180.188 192.59 90.5367 324.114 334.764 361.433 165.136 172.021 177.536 85.8329 309.058 313.035 319.879 159.023 152.092 157.228 79.3027 270.902 285.976 318.242 135.153 156.966 155.808 79.7203 251.629 280.369 268.679 123.558 113.937 130.168 55.4327 281.547 285.343 292.434 138.334 137.692 150.2 68.1255 270.397 264.773 279.23 120.787 143.855 135.143 70.2081 250.263 253.577 266.284 112.023 126.543 129.631 50.5787 233.976 219.415 238.25 109.416 123.72 123.946 61.4441 246.041 220.289 225.001 116.119 110.256 95.4685 47.9721 236.96 218.755 239.119 116.509 135.785 124.82 68.1469 194.391 187.724 205.151 91.6839 101.175 93.935 48.3621 172.543 180.433 202.346 84.6716 93.2167 93.7892 43.3218 171.532 188.434 160.763 91.2565 79.3264 86.6441 41.3498 181.389 192.737 180.876 95.5877 92.2059 101.79 49.9067 89.1829 90.9465 187.267 45.6809 89.1829 90.9465 45.6809 466.235 191.938 562.114 489.812 240.607 226.329 191.938 90.5322 240.607 90.5322 577.993 661.05 637.509 291.008 274.298 321.507 135.796 567.002 656.24 680.549 290.331 303.696 339.543 155.212 527.744 623.39 622.438 265.197 263.306 316.697 135.119 524.318 597.398 605.126 262.095 264.438 306.693 130.078 496.327 550.034 571.793 253.974 259.88 290.705 132.017 447.132 485.233 503.02 222.272 236.446 259.329 121.957 415.122 444.595 470.122 202.368 210.685 225.905 100.315 393.849 423.358 446.526 193.756 204.437 218.691 102.053 357.199 382.382 394.301 169.628 189.412 204.667 91.7035 329.064 351.524 360.283 154.012 167.787 177.715 77.925 316.019 326.281 350.188 150.823 161.277 173.81 76.0875 309.485 304.219 306.601 156.811 154.743 152.471 74.7357 290.118 279.562 290.876 147.01 154.742 151.748 82.0749 275.117 276.88 269.226 143.987 135.375 127.814 64.9347 254.271 274.912 266.981 141.554 139.741 149.066 79.052 229.275 242.263 245.725 109.999 114.529 125.846 62.5021 218.079 243.948 234.174 104.17 114.745 116.416 47.4965 207.309 218.259 232.977 102.246 103.334 127.532 56.6735 213.106 191.523 204.429 96.0403 103.976 90.7268 45.5729 190.567 186.196 215.359 95.7617 109.13 100.796 50.4674 170.107 186.021 170.065 97.1777 81.437 85.3998 45.2943 186.755 197.872 183.527 97.149 88.6705 100.621 51.8834 98.0846 97.251 187.146 45.2656 98.0846 97.251 45.2656 661.085 297.874 335.785 297.874 150.075 335.785 297.874 150.075 150.075 150.075 740.064 370.041 363.211 370.041 363.211 185.71 185.71 735.985 365.909 376.853 365.909 376.853 184.331 184.331 699.82 358.193 359.132 358.193 359.132 181.578 181.578 652.601 335.303 340.688 335.303 340.688 176.615 176.615 578.486 296.06 311.912 296.06 311.912 158.688 158.688 526.01 262.961 266.573 262.961 266.573 137.372 137.372 501.526 242.227 259.436 242.227 259.436 125.589 125.589 446.979 229.602 242.089 229.602 242.089 116.638 116.638 397.385 212.754 204.889 212.754 204.889 112.964 112.964 381.407 197.512 192.496 197.512 192.496 99.7898 99.7898 340.77 175.458 188.911 175.458 188.911 97.7223 97.7223 287.992 147.408 151.859 147.408 151.859 77.7354 77.7354 269.985 132.552 136.134 132.552 136.134 69.673 69.673 261.091 132.893 133.851 132.893 133.851 62.8792 62.8792 258.435 133.358 127.24 133.358 127.24 70.0136 70.0136 250.624 132.264 131.196 132.264 131.196 63.3442 63.3442 249.071 139.778 119.428 139.778 119.428 68.9198 68.9198 230.096 116.012 129.643 116.012 129.643 70.8586 70.8586 206.683 95.4828 100.454 95.4828 100.454 45.1539 45.1539 194.857 90.4343 106.229 90.4343 106.229 50.3288 50.3288 183.485 88.843 88.6282 88.843 88.6282 40.1055 40.1055 183.918 100.723 94.8567 100.723 94.8567 48.7376 48.7376 89.0612 51.9854 89.0612 51.9854 89.0612 51.9854 51.9854 308.043 302.568 157.969 621.634 302.568 522.424 483.639 246.086 157.969 308.043 302.568 157.969 246.086 157.969 315.228 319.066 649.294 573.37 569.969 150.074 315.228 319.066 276.338 150.074 333.222 330.228 670.924 594.186 591.28 165.154 333.222 330.228 297.031 165.154 304.709 340.696 628.673 557.688 594.553 168.068 304.709 340.696 297.154 168.068 272.225 287.977 564.657 511.139 520.132 136.641 272.225 287.977 260.534 136.641 262.315 276.68 529.757 478.516 499.897 135.584 262.315 276.68 250.605 135.584 252.287 253.077 488.776 457.091 455.001 126.731 252.287 253.077 227.911 126.731 227.307 235.699 443.058 435.851 441.881 125.556 227.307 235.699 229.181 125.556 195.779 207.358 387.387 385.271 414.679 101.751 195.779 207.358 206.67 101.751 190.262 180.028 378.701 344.675 348.848 94.0276 190.262 180.028 178.601 94.0276 182.917 198.673 369.54 325.728 346.289 96.2344 182.917 198.673 166.074 96.2344 158.547 170.867 319.056 301.646 303.267 86.6825 158.547 170.867 159.654 86.6825 134.887 148.189 278.212 263.87 280.157 71.8648 134.887 148.189 141.992 71.8648 135.437 130.023 263.182 241.525 251.328 63.0227 135.437 130.023 121.878 63.0227 132.034 133.159 253.816 238.186 253.174 72.414 132.034 133.159 119.647 72.414 116.825 120.657 224.406 229.413 225.828 59.6197 116.825 120.657 118.539 59.6197 107.466 103.749 204.619 216.651 214.484 57.2052 107.466 103.749 110.874 57.2052 92.1741 100.87 197.966 194.263 217.386 50.2606 92.1741 100.87 105.777 50.2606 103.309 97.0963 215.561 200.528 186.537 41.9135 103.309 97.0963 88.4862 41.9135 106.918 118.465 208.397 197.26 222.858 61.3956 106.918 118.465 112.041 61.3956 100.408 89.9321 194.176 194.287 186.617 45.5228 100.408 89.9321 85.2182 45.5228 96.3475 104.243 190.843 189.322 208.063 54.8853 96.3475 104.243 109.068 54.8853 82.528 86.5999 174.188 168.866 172.115 41.4623 82.528 86.5999 80.254 41.4623 41.0657 87.5883 87.5883 88.6119 191.243 41.0657 41.0657 87.5883 88.6119 41.0657 431.974 181.071 388.691 326.551 153.035 214.382 181.071 88.1174 153.035 88.1174 511.956 475.998 446.356 258.142 250.903 235.656 126.264 514.909 474.424 478.727 260.964 261.052 240.342 131.877 486.011 451.151 453.292 252.979 253.857 234.083 129.086 455.371 419.206 422.835 238.913 232.154 217.068 123.892 425.141 393.17 401.09 216.201 223.217 202.138 115.021 408.105 386.305 379.274 204.805 201.923 191.032 101.18 413.502 366.768 372.239 208.544 206.182 195.273 103.625 376.141 325.13 346.479 189.492 207.321 171.496 104.919 316.436 281.09 311.997 154.413 168.82 153.634 84.5732 280.017 257.721 276.515 142.811 147.616 127.455 69.84 264.367 267.691 258.107 143.099 132.4 130.265 72.9712 253.273 250.88 275.428 128.982 131.967 137.426 70.1274 241.321 223.059 238.195 106.088 121.305 113.454 58.855 225.187 220.915 237.788 106.152 120.015 109.605 47.2328 215.907 227.182 220.188 112.588 105.172 111.31 58.9197 227.252 223.24 230.935 109.185 110.735 115.872 53.6685 205.957 198.121 217.942 102.089 116.517 107.368 55.5164 193.833 202.033 172.449 97.2185 89.4404 90.7536 46.5727 201.078 195.359 205.098 90.3412 104.393 111.28 50.6458 200.505 183.782 181.097 93.8786 96.6852 84.0797 39.6954 189.334 193.517 204.634 92.975 103.82 99.7018 54.1832 189.169 192.964 171.5 86.3379 85.5146 93.8151 38.7917 103.655 99.1486 209.161 47.5462 103.655 99.1486 47.5462 340.934 145.481 317.493 269.502 130.027 174.309 145.481 64.9178 130.027 64.9178 413.127 379.943 361.395 217.856 195.453 187.465 109.392 417.11 395.133 400.606 213.461 217.675 192.478 108.465 390.116 392.986 386.325 198.172 199.435 202.655 104.996 368.553 360.492 376.784 180.293 190.68 190.331 93.1759 355.223 342.008 344.117 176.969 177.872 170.161 87.1166 343.409 344.012 333.873 181.5 177.351 171.847 89.8524 305.216 315.444 314.05 158.224 166.058 172.164 91.6476 282.336 270.849 293.978 135.638 139.158 143.28 66.5767 272.076 254.334 282.628 126.677 143.177 127.57 69.0613 254.605 263.39 250.316 114.91 128.898 126.764 57.6154 269.168 259.034 258.942 124.592 125.707 136.626 57.2941 260.351 230.012 252.943 121.897 143.461 122.408 67.2982 234.663 230.233 235.285 116.971 116.89 107.604 54.5991 232.789 239.586 231.569 114.763 117.773 122.63 62.3723 235.216 236.729 252.782 114.594 115.016 116.957 52.3904 221.625 235.372 232.295 114.055 120.2 119.773 62.2038 184.433 203.543 222.178 96.0322 101.425 115.6 51.8512 183.714 199.163 185.77 104.815 83.0082 87.9433 44.1809 185.117 201.4 204.844 105.018 100.706 111.219 60.6337 185.226 191.83 174.652 89.9029 84.4116 90.1802 44.3843 186.799 195.767 195.424 100.542 100.814 101.65 45.5186 191.491 185.147 161.839 106.626 85.9851 94.1173 55.0233 105.506 91.0294 187.685 51.6024 105.506 91.0294 51.6024 289.963 124.021 288.797 240.011 124.312 143.183 124.021 65.1095 124.312 65.1095 348.874 348.563 340.859 162.087 165.942 164.485 78.0738 369.822 371.359 373.608 181.672 182.932 184.079 84.013 372.993 369.846 364.227 194.814 186.89 187.281 97.659 352.348 359.837 361.019 180.199 186.103 182.565 97.1547 322.766 347.414 349.525 165.039 166.244 177.272 83.0444 304.514 332.231 324.94 162.512 156.522 170.142 81.9948 302.812 314.006 302.658 157.22 147.992 162.089 80.5169 294.27 284.987 299.636 135.211 154.82 151.917 76.703 260.868 273.282 288.95 127.657 139.45 133.07 58.5084 254.654 280.599 260.445 148.48 121.418 140.212 69.1488 242.718 263.799 266.032 134.442 133.236 140.387 79.3315 227.877 236.512 247.382 108.115 109.482 123.412 55.11 232.191 224.403 242.968 113.262 118.395 113.101 53.0048 251.562 233.845 221.375 124.823 113.796 111.302 60.2572 249.861 233.957 249.016 122.135 137.766 122.542 64.5663 232.848 233.701 225.681 121.317 112.095 111.414 57.5687 223.515 227.092 229.804 107.511 120.753 122.287 63.7484 206.9 199.249 216.158 94.3481 102.762 104.805 43.7623 194.38 183.93 205.825 96.3816 104.139 94.4441 50.5858 184.85 194.495 179.967 101.927 90.2408 89.4856 45.7958 170.464 204.229 203.342 95.2252 94.6097 105.01 56.1313 158.033 177.58 174.506 78.521 75.8538 99.2195 39.094 82.1787 78.3607 154.929 39.4271 82.1787 78.3607 39.4271 290.906 115.99 330.315 271.835 137.547 145.614 115.99 59.2026 137.547 59.2026 365.593 400.858 381.658 186.477 174.917 192.768 86.4111 368.013 407.016 404.384 189.687 190.676 208.09 100.066 352.253 383.975 391.667 175.032 177.337 198.926 89.6216 358.196 382.039 378.257 179.638 174.916 185.05 85.4104 351.699 381.791 395.198 182.375 183.28 196.989 94.2277 323.085 353.735 352.982 169.72 168.418 184.802 88.1473 299.483 333.799 337.733 156.786 154.666 168.933 81.5723 294.316 325.616 315.074 149.775 144.817 164.866 75.2139 288.527 304.603 312.186 145.624 149.499 160.75 74.5616 271.823 282.153 284.4 132.118 139.027 143.853 71.0628 270.696 265.106 292.069 129.357 132.796 138.301 61.0557 262.473 256.468 266.258 128.398 137.9 126.806 68.3017 232.152 254.354 272.413 111.141 124.573 129.662 60.0959 218.829 258.632 245.231 109.021 107.579 124.692 51.0451 224.835 250.062 247.44 111.822 111.25 133.94 57.9761 222.636 236.944 226.622 112.384 113.586 116.122 53.8455 222.447 249.503 215.683 119.581 109.051 120.822 58.5388 215.083 225.352 237.181 104.901 113.396 128.681 61.0427 191.413 190.256 205.972 87.548 101.686 96.671 43.8583 198.459 180.44 198.752 92.5681 89.7261 93.5846 43.6897 207.385 189.28 190.78 109.004 108.733 86.8549 48.8783 171.403 184.86 206.873 99.0592 98.6525 102.425 60.1255 72.7503 82.4356 161.437 38.9337 72.7503 82.4356 38.9337 362.587 155.845 424.608 361.926 179.75 184.701 155.845 78.3445 179.75 78.3445 420.45 501.366 478.091 214.381 206.741 244.858 106.357 428.038 494 505.562 217.329 213.708 256.508 108.025 417.671 471.49 495.141 208.943 214.33 237.491 109.304 415.259 464.624 465.542 202.401 203.341 233.999 99.6392 396.481 441.769 468.102 199.416 211.918 230.625 102.762 367.63 408.875 406.989 184.016 184.564 211.144 96.6545 353.324 389.767 396.957 177.013 183.067 197.731 87.3611 332.944 375.933 365.3 175.84 170.257 192.036 89.6517 308.06 346.549 337.378 158.978 162.687 183.897 86.1886 304.645 325.086 325.236 150.035 145.373 162.652 72.7897 287.63 300.945 315.567 135.749 159.272 162.434 77.2452 276.198 280.745 278.731 128.07 128.358 138.511 58.5038 285.491 286.321 302.377 143.213 147.84 142.234 69.5666 273.842 280.741 269.93 149.61 137.651 144.087 73.6465 249.227 250.957 274.206 138.24 136.191 136.653 75.9639 219.669 243.836 226.344 124.56 113.036 114.303 62.2763 230.417 243.831 225.25 129.922 106.632 129.532 62.2834 228.07 225.514 216.01 120.451 123.785 114.299 67.6384 213.312 219.773 217.643 102.708 104.285 111.216 52.8127 191.074 182.676 223.268 87.8715 109.026 108.557 49.8949 190.269 153.206 166.378 80.2758 82.0476 74.1192 37.9766 196.907 175.407 202.893 85.8011 108.221 79.0863 42.2992 88.6863 96.3209 182.083 43.502 88.6863 96.3209 43.502 477.43 206.08 565.207 495.994 249.204 239.907 206.08 101.406 249.204 101.406 563.203 657.008 608.767 286.985 271.35 316.002 138.501 572.665 646.747 670.271 276.671 291.854 341.006 148.484 543.012 604.174 639.215 262.547 280.811 305.741 128.187 518.385 579.521 593.62 262.223 262.201 298.433 134.36 478.61 524.779 572.46 242.353 256.185 281.087 127.863 436.316 487.908 480.723 224.86 222.426 243.691 114.49 408.934 472.052 481.448 212.754 213.891 244.217 110.37 369.735 417.469 439.548 200.093 195.043 227.835 102.384 354.554 372.202 365.595 187.57 174.691 189.634 97.7083 336.157 358.946 379.68 175.051 179.863 182.568 89.8622 306.668 330.508 341.164 165.196 156.294 176.378 85.189 304.91 293.258 308.548 152.674 150.373 154.13 80.007 286.815 280.541 290.631 143.108 154.537 139.128 72.6673 270.293 259.328 287.148 131.13 132.278 141.413 70.4407 251.322 237.794 259.918 112.716 138.015 117.915 60.6894 231.925 237.636 238.736 119.276 113.307 119.878 52.0271 210.843 223.202 220.064 113.909 118.618 117.757 67.249 205.582 219.147 213.705 105.063 92.2248 105.444 46.6601 227.599 228.265 217.26 117.065 113.357 113.703 58.4029 198.571 199.228 208.606 94.805 114.241 114.562 58.6624 179.002 167.572 179.969 72.9298 84.33 84.6653 36.1426 188.069 172.801 177.072 89.6062 94.6718 82.9063 36.7872 93.397 89.8948 183.277 52.819 93.397 89.8948 52.819 627.331 289.913 325.3 289.913 147.799 325.3 289.913 147.799 147.799 147.799 715.834 370.023 337.417 370.023 337.417 177.501 177.501 736.821 370.076 378.417 370.076 378.417 192.522 192.522 689.824 341.627 358.404 341.627 358.404 177.554 177.554 647.695 317.298 331.42 317.298 331.42 164.073 164.073 574.573 282.426 316.275 282.426 316.275 153.224 153.224 525.855 263.049 258.298 263.049 258.298 129.202 129.202 512.062 259.298 267.557 259.298 267.557 133.847 133.847 435.408 217.377 244.505 217.377 244.505 125.451 125.451 390.72 184.632 190.903 184.632 190.903 91.9255 91.9255 384.687 183.895 199.817 183.895 199.817 92.706 92.706 343.044 165.312 184.87 165.312 184.87 91.189 91.189 294.269 140.584 158.175 140.584 158.175 74.1232 74.1232 290.964 137.433 136.095 137.433 136.095 66.4609 66.4609 276.773 128.198 154.87 128.198 154.87 70.9719 70.9719 247.332 125.077 121.903 125.077 121.903 57.2259 57.2259 226.875 118.36 125.429 118.36 125.429 67.8513 67.8513 222.926 109.293 101.446 109.293 101.446 50.5083 50.5083 225.383 114.084 121.481 114.084 121.481 58.7843 58.7843 198.267 111.2 103.902 111.2 103.902 55.2997 55.2997 190.004 104.423 94.3644 104.423 94.3644 55.9001 55.9001 178.039 94.6418 95.6392 94.6418 95.6392 48.5227 48.5227 172.28 83.1949 82.4 83.1949 82.4 46.1191 46.1191 89.8804 37.0758 89.8804 37.0758 89.8804 37.0758 37.0758 313.592 289.295 144.6 615.39 289.295 531.184 476.182 237.553 144.6 313.592 289.295 144.6 237.553 144.6 334.066 326.096 658.675 587.88 561.448 168.992 334.066 326.096 293.631 168.992 337.702 332.579 685.226 591.647 580.75 165.074 337.702 332.579 294.249 165.074 323.964 352.646 649.78 556.996 601.129 172.628 323.964 352.646 297.398 172.628 292.432 297.134 579.742 508.89 530.555 151.336 292.432 297.134 259.598 151.336 267.442 282.608 543.544 476.381 520.358 141.096 267.442 282.608 249.292 141.096 236.49 260.936 475.722 439.79 472.705 126.346 236.49 260.936 227.09 126.346 215.751 214.786 421.012 420.709 409.153 110.144 215.751 214.786 212.7 110.144 191.608 206.226 395.011 378.256 396.457 105.607 191.608 206.226 208.009 105.607 188.439 188.785 379.109 350.462 353.981 86.0006 188.439 188.785 170.247 86.0006 186.623 190.323 360.514 323.828 356.807 102.438 186.623 190.323 180.215 102.438 160.509 170.19 313.489 281.778 295.367 84.1843 160.509 170.19 143.613 84.1843 143.325 143.299 271.602 267.615 274.993 76.3247 143.325 143.299 138.165 76.3247 127.745 128.303 255.376 262.978 262.579 67.0003 127.745 128.303 129.451 67.0003 121.782 127.072 246.105 240.816 264.441 60.745 121.782 127.072 133.527 60.745 107.581 119.033 220.159 210.899 221.89 61.0368 107.581 119.033 107.289 61.0368 97.1528 101.126 207.037 215.22 216.429 46.5439 97.1528 101.126 103.611 46.5439 105.792 105.911 213.138 209.66 222.032 50.609 105.792 105.911 111.609 50.609 112.252 107.227 218.952 208.867 197.783 55.1828 112.252 107.227 98.0505 55.1828 101.479 111.725 207.213 212.215 217.395 57.0693 101.479 111.725 110.816 57.0693 93.7675 95.4882 191.631 200.394 206.166 44.4094 93.7675 95.4882 101.399 44.4094 94.4958 96.1426 188.63 190.855 199.841 49.3582 94.4958 96.1426 98.9948 49.3582 91.6603 92.4877 180.52 194.492 184.036 45.1377 91.6603 92.4877 91.8605 45.1377 46.5226 88.0325 88.0325 102.631 188.151 46.5226 46.5226 88.0325 102.631 46.5226 422.24 186.888 384.216 339.879 173.516 217.592 186.888 92.9532 173.516 92.9532 483.524 449.085 425.055 253.814 235.353 210.7 124.639 496.654 457.595 457.764 253.945 248.171 238.385 129.175 481.904 424.976 438.456 233.032 248.483 219.21 124.77 471.171 404.718 420.708 216.458 233.421 205.767 108.262 449.518 387.194 417.851 208.94 237.75 198.952 108.196 406.135 365.209 380.747 203.3 211.768 188.242 100.744 384.598 351.95 346.157 204.958 194.366 176.967 102.557 355.427 333.346 343.907 186.648 190.231 174.983 102.402 331.679 307.422 319.825 162.023 165.196 158.363 84.2467 291.66 276.901 310.529 137.205 166.483 149.059 77.7764 256.871 265.844 259.299 121.269 125.177 127.842 59.4291 265.97 262.744 282.233 124.29 131.694 138.002 61.8398 271.644 252.925 264.267 135.233 134.276 124.741 62.4505 240.225 237.061 260.4 119.034 137.368 128.183 72.7823 218.16 223.941 233.576 103.319 102.857 108.878 46.252 231.425 225.637 238.614 118.067 115.303 115.063 57.0668 206.677 192.269 212.029 103.868 116.121 110.574 61.0002 196.226 175.514 182.628 96.6146 90.5558 81.695 42.8677 216.348 190.836 211.434 110.737 105.67 93.8189 53.7469 214.376 201.949 195.775 106.626 110.677 97.0171 56.9898 195.247 182.617 217.927 96.3595 103.699 104.932 49.6366 191.667 187.697 160.632 102.831 91.5483 77.6846 46.7229 100.118 110.012 196.468 56.1086 100.118 110.012 56.1086 342.694 152.991 313.404 266.185 139.474 166.624 152.991 80.563 139.474 80.563 399.296 382.058 358.04 195.271 189.703 173.93 86.0611 399.567 391.799 385.066 203.649 209.593 208.129 109.21 377.261 370.123 369.506 191.944 189.974 183.67 94.4392 367.389 360.409 366.044 188.26 187.287 186.453 97.5045 349.08 335.982 348.761 178.254 180.101 173.956 90.7557 320.769 303.911 318.902 161.909 168.979 162.026 87.4986 305.466 292.584 290.276 146.992 151.79 141.886 74.4103 308.306 305.757 309.357 146.698 153.676 150.698 72.5817 298.676 278.61 296.262 145.399 154.629 155.058 74.1162 278.168 245.869 263.438 139.696 144.046 123.552 71.283 284.661 252.852 248.919 144.575 134.122 122.317 68.4128 280.53 258.216 274.127 138.453 150.539 130.535 76.1626 253.023 236.621 256.888 117.692 129.991 127.681 62.2907 253.751 244.765 237.619 118.027 123.032 108.94 55.4011 254.03 248.348 253.742 120.622 130.719 135.825 62.6257 219.219 219.101 224.805 107.57 123.311 112.523 57.9962 187.981 204.406 206.771 88.4011 95.9081 106.579 49.5738 197.836 191.452 213.403 78.8992 92.0724 97.8268 38.8273 190.861 178.097 206.59 80.0993 105.764 93.6249 40.0719 199.326 178.246 189.696 95.3227 85.0976 84.4723 40.0273 183.312 161.495 208.977 86.2571 114.228 93.7738 55.2954 165.434 164.377 154.776 84.8655 69.0836 67.7216 30.9617 96.3499 96.6554 191.921 53.9038 96.3499 96.6554 53.9038 281.531 113.194 292.073 230.905 115.699 146.78 113.194 58.9115 115.699 58.9115 343.81 365.904 331.569 186.787 168.337 176.374 87.8686 355.005 366.476 362.996 188.149 175.473 189.529 98.9189 358.289 355.4 362.122 178.179 179.532 176.946 89.2306 347.416 350.707 352.662 172.149 178.757 178.454 88.9486 318.583 327.051 334.429 157.727 168.66 172.253 83.2001 288.409 295.367 322.427 142.002 149.923 154.798 74.527 294.167 288.289 290.196 145.592 138.486 140.569 67.4753 297.314 303.599 294.448 159.059 155.681 147.719 78.1166 261.024 276.113 296.804 133.211 141.633 155.88 80.942 234.189 245.878 252.418 106.173 119.392 120.234 52.2692 238.385 249.615 260.333 108.276 114.797 125.645 53.9041 250.484 253.838 253.404 119.762 123.588 123.97 54.3722 241.484 239.94 256.831 118.929 126.896 129.868 65.3903 237.61 236.546 235.208 126.738 114.587 110.073 53.5385 224.517 240.74 238.195 127.726 123.023 126.473 73.1998 212.357 221.783 212.657 111.531 101.494 114.266 54.5264 232.193 218.87 220.861 116.004 110.863 107.517 57.005 222.156 222.734 228.533 112.552 121.33 111.353 58.9995 205.424 201.862 202.683 97.9979 100.826 111.381 53.5529 199.347 188.814 201.712 82.9234 104.598 90.4814 44.445 180.442 173.619 201.847 75.2383 94.7492 98.3326 38.4784 181.263 151.855 173.19 79.5115 85.6926 75.2869 36.7599 95.5708 76.5683 173.029 42.7516 95.5708 76.5683 42.7516 280.942 117.711 323.178 265.367 134.288 145.293 117.711 56.7872 134.288 56.7872 350.755 385.184 383.503 179.116 163.232 188.89 88.5054 370.113 389.036 406.904 178.326 187.524 196.294 90.6106 356.495 385.949 400.683 177.221 182.59 192.741 87.7156 339.675 391.416 379.637 178.558 173.906 193.208 89.5054 338.273 366.389 375.035 169.324 165.769 198.208 89.0526 324.214 336.98 365.819 153.365 172.504 168.18 80.2711 290.477 319.007 337.924 142.697 151.71 168.799 73.0938 293.938 301.644 299.196 144.541 138.767 150.208 69.6028 288.198 291.984 306.411 142.902 155.171 151.436 74.9379 278.563 294.315 289.598 139.705 133.027 140.548 67.9644 275.352 293.22 307.588 141.339 145.536 153.768 71.7405 259.751 282.203 263.226 134.076 129.816 139.452 69.5983 250.555 263.29 270.491 121.011 129.934 142.751 64.4773 235.793 234.039 243.439 109.808 120.621 120.539 56.5342 226.335 224.001 233.324 113.014 115.172 113.5 53.2737 221.162 205.361 220.973 110.252 111.163 110.5 59.7401 217.201 203.361 206.619 102.866 109.998 94.8606 50.512 209.059 217.801 218.722 110.182 107.203 108.5 52.3536 198.97 214.469 203.384 103.865 101.857 109.301 57.8282 204.211 209.093 197.016 105.891 97.1133 105.168 46.0364 194.595 208.374 207.407 98.3812 107.097 103.925 59.8542 164.956 183.45 189.45 72.3437 87.4976 104.449 38.527 77.4587 79.001 170.839 33.8167 77.4587 79.001 33.8167 367.929 147.657 415.409 354.064 182.176 177.886 147.657 77.501 182.176 77.501 439.653 482.287 476.443 206.068 220.272 233.233 100.385 437.474 506.704 511.776 210.709 219.381 249.054 105.684 423.825 489.193 519.498 208.728 218.093 257.65 105.026 414.998 469.02 460.225 212.858 205.732 231.543 103.702 402.581 433.322 466.032 197.065 209.266 237.477 109.156 379.53 395.071 418.4 183.615 193.315 195.845 87.909 346.643 372.491 398.484 176.311 186.214 199.226 95.7056 311.668 326.746 340.083 157.104 160.429 173.264 80.6052 307.811 316.065 313.695 149.081 151.24 153.481 76.4983 318.623 315.716 322.749 154.61 156.571 162.584 72.5831 295.461 293.353 314.629 151.881 162.052 153.132 82.0271 273.966 300.363 276.01 148.127 133.409 140.22 69.854 263.375 285.985 288.682 142.278 140.557 160.143 78.2733 240.97 263.395 254.595 124.232 122.818 125.842 64.0049 227.962 249.592 255.643 110.987 118.152 137.552 60.2267 206.431 207.758 231.023 95.1088 109.81 112.04 50.7602 208.14 197.429 196.92 100.495 96.621 95.718 44.3486 213.047 208.139 204.906 107.619 111.519 101.711 56.1466 201.431 221.138 213.609 110.604 101.528 106.427 51.4728 200.212 206.969 214.601 103.202 99.9028 114.71 59.1314 202.262 216.065 187.686 109.993 100.309 92.2584 44.071 195.333 209.569 202.917 111.106 101.953 123.806 65.9218 93.3804 85.7624 175.607 45.1843 93.3804 85.7624 45.1843 462.578 206.407 539.554 494.324 246.789 237.523 206.407 104.675 246.789 104.675 548.566 622.03 577.691 276.219 256.171 292.765 132.848 593.8 662.739 673.87 295.994 292.396 329.265 143.37 555.898 628.661 653.13 280.465 301.405 333.474 152.624 511.259 586.559 578.059 256.162 254.493 295.187 127.841 481.85 528.404 558.354 236.258 256.766 291.372 128.322 437.354 474.263 495.683 211.457 225.085 237.032 107.936 391.924 448.944 475.591 196.18 212.269 237.231 103.521 342.11 387.674 422.748 169.642 179.654 211.713 92.6592 328.634 373.072 358.363 166.984 162.456 175.961 76.9831 318.755 361.898 374.009 161.106 166.178 197.111 90.0007 295.178 319.204 336.136 141.472 152.577 164.786 71.1053 290.726 305.921 306.91 152.236 142.601 154.418 70.3665 279.903 297.239 289.83 143.707 148.126 151.503 81.8694 269.268 287.738 287.733 139.163 131.777 145.736 61.8376 258.704 260.861 266.717 138.606 137.491 142.003 77.3256 221.512 221.165 248.228 112.649 121.213 118.858 61.28 193.686 210.568 211.02 96.934 100.299 102.307 51.3694 205.469 211.818 216.896 100.519 93.3872 108.261 45.5646 226.78 197.6 230.276 110.533 112.082 103.557 54.9546 202.076 189.347 192.816 103.766 114.699 94.0431 55.5788 188.342 189.469 182.97 106.072 87.3771 95.3039 48.1874 183.192 187.548 164.246 98.4627 100.965 94.1656 57.8847 82.2269 93.3826 182.407 40.578 82.2269 93.3826 40.578 609.437 287.916 302.031 287.916 142.115 302.031 287.916 142.115 142.115 142.115 702.995 345.811 321.52 345.811 321.52 159.916 159.916 733.2 366.745 381.475 366.745 381.475 185.895 185.895 675.292 348.196 351.725 348.196 351.725 180.85 180.85 625.154 330.397 323.566 330.397 323.566 167.347 167.347 572.187 292.147 301.588 292.147 301.588 163.051 163.051 533.92 262.806 270.599 262.806 270.599 129.096 129.096 506.415 252.764 263.322 252.764 263.322 133.71 133.71 439.001 218.032 243.094 218.032 243.094 119.054 119.054 403.738 206.089 195.907 206.089 195.907 98.9779 98.9779 391.39 200.792 207.831 200.792 207.831 107.111 107.111 347.868 177.732 183.559 177.732 183.559 93.6809 93.6809 306.014 153.685 164.309 153.685 164.309 84.0514 84.0514 297.66 153.532 141.704 153.532 141.704 69.6337 69.6337 285.183 148.575 155.956 148.575 155.956 83.898 83.898 256.241 122.255 129.227 122.255 129.227 64.6772 64.6772 237.735 108.515 127.014 108.515 127.014 57.5779 57.5779 234.23 113.634 110.721 113.634 110.721 50.9373 50.9373 241.703 111.299 123.509 111.299 123.509 62.6964 62.6964 196.311 87.0669 118.194 87.0669 118.194 48.6026 48.6026 173.711 85.5808 78.1176 85.5808 78.1176 38.4643 38.4643 158.875 83.3974 95.5934 83.3974 95.5934 47.1165 47.1165 163.461 89.0854 63.2811 89.0854 63.2811 36.2809 36.2809 100.18 52.8046 100.18 52.8046 100.18 52.8046 52.8046 301.799 301.882 144.695 642.728 301.882 506.447 482.052 238.63 144.695 301.799 301.882 144.695 238.63 144.695 324.61 340.846 684.591 554.319 584.842 157.104 324.61 340.846 267.817 157.104 347.524 343.746 676.385 590.232 583.485 167.506 347.524 343.746 286.502 167.506 325.816 332.64 637.946 574.687 580.606 180.018 325.816 332.64 303.731 180.018 287.31 305.307 568.066 542.023 547.908 145.798 287.31 305.307 270.957 145.798 276.103 262.759 528.45 516.681 496.435 141.513 276.103 262.759 271.066 141.513 239.233 265.691 491.628 442.067 475.171 134.59 239.233 265.691 245.615 134.59 205.261 225.937 443.763 384.901 417.575 104.643 205.261 225.937 196.453 104.643 203.404 217.825 414.075 372.182 409.854 100.619 203.404 217.825 188.448 100.619 190.67 196.249 363.856 360.326 354.951 102.785 190.67 196.249 183.734 102.785 173.891 167.607 337.233 328.346 327.596 87.885 173.891 167.607 176.592 87.885 152.98 169.626 307.098 288.583 308.331 86.0062 152.98 169.626 151.754 86.0062 128.277 137.472 269.321 269.957 278.161 66.9741 128.277 137.472 136.829 66.9741 127.63 131.85 264.612 264.041 263.948 61.3028 127.63 131.85 133.128 61.3028 124.323 132.763 250.367 245.514 256.654 66.3273 124.323 132.763 130.913 66.3273 112.578 117.605 230.333 227.42 242.417 57.9961 112.578 117.605 114.601 57.9961 109.884 112.728 218.099 223.242 235.495 54.5821 109.884 112.728 112.819 54.5821 107.346 105.371 199.341 210.155 217.184 55.3021 107.346 105.371 110.423 55.3021 106.7 93.9698 186.728 206.311 189.636 52.0442 106.7 93.9698 99.7322 52.0442 105.734 92.7582 190.205 211.345 192.964 54.6556 105.734 92.7582 106.579 54.6556 97.8633 97.4464 180.922 205.613 193.913 51.0789 97.8633 97.4464 104.766 51.0789 94.1344 83.4761 181.982 193.022 201.324 46.7844 94.1344 83.4761 100.847 46.7844 88.86 98.5061 185.329 177.695 188.251 47.35 88.86 98.5061 92.1754 47.35 41.5099 86.8228 86.8228 85.5196 185.719 41.5099 41.5099 86.8228 85.5196 41.5099 424.167 180.17 380.718 329.893 166.363 204.648 180.17 93.9346 166.363 93.9346 483.736 433.734 431.397 229.71 243.997 214.355 110.714 487.706 438.626 433.073 242.708 239.74 219.379 118.996 490.567 434.189 444.313 248.871 247.966 219.247 123.712 476.277 433.841 427.335 254.713 242.601 214.942 125.159 443.156 411.404 409.684 240.579 233.676 218.899 129.554 401.118 361.695 377.836 202.835 209.481 192.505 111.025 383.666 338.114 354.853 179.64 191.637 169.19 91.8099 350.73 330.386 356.918 168.779 192.029 168.924 87.8296 318.691 322.932 316.918 169.656 158.702 161.462 80.9491 298.693 292.927 308.639 154.455 159.989 161.47 88.7068 279.394 275.688 265.99 135.603 138.705 131.457 65.7479 272.788 283.757 277.601 141.68 140.689 144.231 69.8546 255.989 271.743 263.481 136.411 132.098 139.526 71.8251 248.703 256.915 250.026 121.191 123.891 132.217 64.586 247.579 248.249 260.702 114.842 124.812 124.698 56.605 234.581 225.006 254.369 113.358 122.767 123.551 58.2366 207.48 202.389 210.617 102.809 111.814 101.455 55.121 195.872 218.548 211.424 99.6115 95.6662 100.933 47.6881 196.672 216.373 224.327 105.611 100.205 117.615 51.9234 214.315 211.753 195.602 107.75 96.4668 98.7578 53.6875 207.593 195.942 213.364 98.8876 117.848 112.995 54.0622 188.642 169.403 178.663 88.8351 89.7453 82.9473 44.8254 98.8963 86.4558 186.97 44.0097 98.8963 86.4558 44.0097 337.123 149.723 310.821 251.363 126.711 176.07 149.723 72.4284 126.711 72.4284 380.734 361.047 339.554 204.025 187.401 184.11 103.641 389.679 362.773 356.273 195.918 193.333 176.937 100.383 381.08 365.427 379.335 185.317 196.346 185.836 95.5346 360.742 354.396 362.566 179.128 184.734 179.591 89.7828 344.364 331.681 341.266 170.825 176.009 174.805 89.3455 331.57 305.266 323.646 158.86 168.355 156.876 81.4799 328.104 307.049 303.936 158.474 163.215 148.39 77.3798 323.105 299.863 312.904 161.608 164.889 158.659 81.0945 306.866 281.089 287.774 153.276 158.216 141.204 80.5131 275.936 266.488 287.159 138.472 148.65 139.886 72.7632 264.198 270.194 263.643 140.085 127.286 126.602 65.7089 268.294 272.799 273.073 142.077 136.912 143.592 74.3764 257.518 257.886 256.026 135.332 131.382 129.207 67.7007 262.025 246.596 243.883 135.724 126.135 128.68 67.631 267.491 230.198 244.445 133.408 135.89 117.916 68.0932 230.405 212.474 234.85 111.649 131.602 112.282 65.3146 214.561 215.768 213.444 99.5794 98.8035 100.192 46.3343 239.879 228.541 242.816 118.937 115.758 115.576 53.2452 223.257 218.188 221.79 110.762 124.121 112.965 65.6916 194.652 220.427 211.209 104.003 99.1355 105.224 45.0703 184.434 202.258 198.547 97.0546 95.5163 115.203 58.9326 176.991 182.32 180.613 80.5681 88.9178 87.0546 38.1219 88.0736 95.2653 193.159 42.4461 88.0736 95.2653 42.4461 253.793 101.64 270.401 216.787 115.206 134.751 101.64 54.2825 115.206 54.2825 315.093 328.662 312.552 157.023 152.153 155.195 80.4687 345.928 358.642 365.453 166.855 162.94 173.467 76.5538 360.821 359.384 376.637 180.109 182.989 185.176 90.3014 343.09 336.385 345.754 175.267 177.833 174.208 89.8079 320.547 329.805 330.812 160.856 165.257 162.176 85.4595 296.011 317.256 335.841 146.407 155.29 167.629 75.3962 288.735 296.355 298.26 148.575 140.721 149.627 71.0105 277.572 287.653 295.462 138.255 148.015 146.729 77.5645 268.066 273.109 284.1 127.813 129.558 140.924 60.6908 274.866 266.873 275.927 128.016 138.509 132.184 67.1223 272.518 264.122 288.016 130.109 136.357 134.689 60.8932 260.805 256.397 256.512 130.722 136.161 129.434 69.2157 242.391 252.099 253.121 122.555 124.643 126.963 61.5062 226.302 236.857 241.449 110.872 117.747 125.135 61.0486 211.804 210.112 239.992 96.7905 108.555 111.721 49.823 217.889 211.735 197.085 100.825 103.249 98.3909 46.9675 241.698 230.524 235.865 116.189 114.64 113.344 53.8579 224.727 208.482 230.582 109.604 127.058 117.18 62.3307 209.742 202.532 188.115 107.426 97.6683 91.3017 47.2732 215.104 214.744 232.211 116.424 112.074 111.23 60.1532 194.726 201.417 201.972 105.203 103.031 103.514 56.2708 196.781 194.364 210.575 101.752 91.6951 97.9033 48.9327 105.086 96.4612 193.799 52.8192 105.086 96.4612 52.8192 275.545 115.147 325.692 252.848 131.079 135.649 115.147 60.9234 131.079 60.9234 362.911 405.223 373.589 171.639 160.398 194.613 74.7261 396.161 418.552 421.864 191.787 202.513 210.61 96.913 361.569 394.372 421.708 179.275 193.648 207.942 94.8742 333.476 363.257 390.698 161.117 167.922 186.43 84.4004 346.105 374.466 355.505 168.95 165.555 176.827 76.7167 338.089 366.764 378.807 170.849 180.55 197.639 92.233 304.987 318.113 333.828 147.78 157.539 169.125 78.6161 301.99 303.963 316.685 149.398 147.448 148.988 69.1642 291.96 304.025 309.15 145.296 154.542 154.975 80.2335 289.077 302.87 304.254 138.858 137.418 149.05 65.0621 272.009 277.593 308.193 134.014 151.659 153.82 73.7956 248.828 251.514 268.541 125.675 120.35 123.773 60.218 252.18 250.641 262.888 129.544 128.478 127.741 65.4572 255.139 242.724 255.148 125.985 123.702 122.9 64.0868 225.273 230.297 254.087 113.322 131.437 119.824 61.8983 215.061 222.232 211.285 110.91 93.8363 110.473 51.4234 224.748 221.98 226.651 114.336 121.225 111.759 59.4864 193.97 204.305 217.929 98.8776 103.523 110.221 54.8491 210.585 185.932 190.106 95.1054 90.447 94.0834 44.0285 219.079 195.33 218.51 98.3201 120.138 91.8483 51.0769 217.822 188.483 201.604 96.2138 98.9418 103.481 47.2432 207.593 176.84 197.287 92.6126 118.88 85.0014 48.9706 88.7135 91.8381 179.439 43.642 88.7135 91.8381 43.642 350.892 137.701 415.098 352.969 171.888 190.043 137.701 70.1559 171.888 70.1559 432.542 505.932 484.239 233.584 213.19 243.209 119.887 447.411 524.571 512.755 226.765 219.351 262.722 113.697 450.836 490.531 522.416 215.097 228.06 261.848 113.067 412.727 457.237 481.022 202.14 222.777 228.682 102.03 388.207 451.109 446.661 205.517 189.95 228.555 100.11 374.545 421.812 439.616 195.915 198.257 222.555 105.406 345.526 366.076 378.588 170.332 176.289 199.257 90.5088 323.845 327.033 351.038 154.565 169.237 166.819 79.8235 321.444 320.379 339.043 158.73 154.608 160.214 74.7414 323.37 321.662 323.554 164.013 166.836 160.165 83.9882 304.725 297.286 316.703 143.58 156.534 161.496 80.0245 282.601 264.329 288.528 125.839 148.191 135.79 63.5554 265.856 257.292 279.298 121.097 134.41 128.539 62.2834 254.096 246.844 260.275 116.739 131.446 128.753 58.8132 240.099 237.074 242.037 116.975 122.65 118.091 57.9257 222.875 220.184 236.359 111.322 117.449 118.983 59.0496 219.832 204.396 196.391 107.645 105.426 101.202 52.2724 214.065 210.377 207.962 105.427 114.406 103.195 55.3723 198.032 207.073 200.15 90.8264 99.6593 107.182 50.055 201.035 195.319 222.973 97.0096 98.3728 99.8911 40.7714 181.07 174.539 182.966 92.269 102.662 95.4278 56.2381 169.133 168.956 166.083 84.227 78.4074 79.1109 36.0308 90.7253 89.845 180.71 48.1961 90.7253 89.845 48.1961 486.317 215.268 532.46 500.988 247.534 225.055 215.268 101.732 247.534 101.732 564.453 629.531 610.737 272.348 271.049 284.926 123.322 587.76 664.261 671.873 297.806 293.404 344.605 149.025 552.601 602.529 652.168 275.434 294.356 319.656 148.781 514.956 549.854 574.707 255.097 258.245 282.872 126.653 498.071 525.632 539.356 245.593 256.711 266.981 128.444 443.659 497.012 531.191 225.897 241.36 258.651 117.149 384.1 449.396 449.794 195.744 202.299 238.361 108.749 366.236 393.437 418.027 172.468 181.801 211.035 86.9952 341.153 359.299 380.889 161.65 184.435 182.402 85.4726 316.886 348.247 366.338 157.649 156.717 176.898 76.1772 300.505 323.841 336.813 153.706 160.169 171.349 81.4717 285.224 290.819 308.926 138.49 140.337 152.492 72.2343 273.716 280.324 291.262 136.196 144.888 138.327 66.2561 248.216 266.712 281.689 130.105 128.828 141.997 69.9397 238.297 254.084 257.786 120.098 119.387 124.715 60.165 209.875 238.083 247.898 108.863 118.91 129.37 59.9333 184.521 217.348 213.398 96.7517 90.9649 108.713 48.9292 194.047 235.354 202.974 104.95 93.5563 108.635 47.8225 225.09 225.491 223.983 116.247 100.49 126.718 57.1272 204.904 186.44 208.681 98.3093 124.6 98.773 59.1197 167.979 157.747 163.841 82.2697 80.3037 87.6665 39.1897 177.659 159.105 156.277 84.7289 87.6752 70.0803 43.0801 89.9843 89.0242 180.084 41.6489 89.9843 89.0242 41.6489 625.408 285.72 307.406 285.72 145.802 307.406 285.72 145.802 145.802 145.802 718.158 357.183 339.688 357.183 339.688 161.604 161.604 736.282 366.455 378.47 366.455 378.47 195.58 195.58 674.273 327.095 357.812 327.095 357.812 170.876 170.876 599.106 294.757 316.462 294.757 316.462 156.22 156.22 572.476 280.04 282.645 280.04 282.645 138.537 138.537 537.326 271.114 289.832 271.114 289.832 141.503 141.503 483.72 253.652 247.494 253.652 247.494 129.612 129.612 432.68 220.969 236.226 220.969 236.226 124.04 124.04 406.074 197.65 196.454 197.65 196.454 96.9293 96.9293 386.265 190.598 209.62 190.598 209.62 100.72 100.72 345.234 170.136 176.645 170.136 176.645 89.8778 89.8778 314.964 152.328 168.589 152.328 168.589 80.2578 80.2578 299.236 144.128 146.375 144.128 146.375 72.0707 72.0707 291.259 136.608 152.861 136.608 152.861 72.0578 72.0578 267.387 133.986 138.399 133.986 138.399 64.5497 64.5497 251.421 129.22 128.988 129.22 128.988 69.4364 69.4364 231.851 120.596 122.433 120.596 122.433 59.7837 59.7837 232.91 130.404 109.418 130.404 109.418 60.8128 60.8128 207.573 109.244 123.492 109.244 123.492 69.5912 69.5912 167.618 88.1302 84.0807 88.1302 84.0807 39.6533 39.6533 152.139 75.4771 83.5369 75.4771 83.5369 48.4769 48.4769 158.702 74.3756 68.6022 74.3756 68.6022 27.0002 27.0002 90.0995 47.3753 90.0995 47.3753 90.0995 47.3753 47.3753 340.929 315.892 157.187 669.813 315.892 560.447 504.344 243.422 157.187 340.929 315.892 157.187 243.422 157.187 359.982 353.92 705.636 614.008 604.968 183.742 359.982 353.92 317.025 183.742 328.861 351.715 651.554 573.859 599.694 176.24 328.861 351.715 296.983 176.24 312.13 299.839 603.772 553.826 537.155 152.621 312.13 299.839 276.876 152.621 280.756 303.933 560.252 502.32 529.742 159.509 280.756 303.933 276.951 159.509 252.348 256.319 512.175 454.925 468.551 121.247 252.348 256.319 225.369 121.247 252.396 255.855 481.536 450.679 450.398 131.101 252.396 255.855 229.556 131.101 238.501 225.681 452.795 442.528 424.919 121.295 238.501 225.681 221.122 121.295 210.671 227.114 417.298 392.623 426.292 117.207 210.671 227.114 221.406 117.207 173.186 190.184 356.924 322.221 349.708 93.4646 173.186 190.184 171.217 93.4646 163.342 166.74 332.962 307.58 313.286 79.7219 163.342 166.74 151.004 79.7219 154.117 166.222 321.922 297.909 305.354 83.6199 154.117 166.222 156.577 83.6199 141.044 155.701 302.071 272.152 314.326 70.4974 141.044 155.701 141.332 70.4974 136.982 146.371 269.349 256.561 274.096 70.5468 136.982 146.371 130.82 70.5468 126.044 122.978 238.195 253.556 240.013 66.4354 126.044 122.978 125.74 66.4354 117.755 115.216 217.266 250.493 250.317 59.6086 117.755 115.216 127.816 59.6086 108.215 102.05 202.722 229.438 211.529 58.1463 108.215 102.05 122.677 58.1463 91.9943 100.672 185.607 196.665 213.86 50.0687 91.9943 100.672 106.761 50.0687 80.0283 84.9345 175.814 176.288 179.218 41.9257 80.0283 84.9345 89.9038 41.9257 84.4701 90.8797 185.576 175.531 187.522 38.1026 84.4701 90.8797 86.3846 38.1026 83.0592 94.6965 174.704 189.624 182.355 46.3675 83.0592 94.6965 89.1468 46.3675 87.8477 80.0076 171.143 196.553 190.155 36.6917 87.8477 80.0076 100.477 36.6917 96.4689 91.1356 167.695 196.275 174.098 51.156 96.4689 91.1356 96.0759 51.156 45.3129 76.5598 76.5598 100.199 176.839 45.3129 45.3129 76.5598 100.199 45.3129 439.499 188.451 380.572 348.691 163.53 219.518 188.451 86.2354 163.53 86.2354 499.027 430.736 416.437 254.027 251.048 217.042 133.283 485.296 438.759 432.873 244.998 247.979 213.694 120.744 463.125 437.459 436.868 241.696 237.316 225.066 124.254 438.04 403.178 414.194 221.564 225.809 212.393 117.442 406.774 376.116 388.969 202.578 212.231 190.785 104.122 393.781 370.994 366.196 198.283 194.543 185.331 98.4557 398.416 373.657 378.102 204.026 199.238 185.663 99.8275 358.702 343.449 364.624 181.952 199.178 187.994 104.199 306.07 302.625 309.504 149.035 159.524 155.456 77.7528 285.678 281.702 294.137 144.239 146.546 147.169 71.2819 297.757 267.904 274.649 143.792 139.132 134.534 72.9567 286.35 257.325 280.219 131.108 158.625 133.37 70.8348 244.76 241.764 254.244 119.578 127.725 123.955 60.2733 252.135 253.813 246.906 127.512 117.035 117.809 59.305 244.58 266.821 266.215 132.738 135.101 136.004 68.2074 222.667 239.979 243.856 121.223 109.479 130.818 64.5304 207.472 219.652 217.956 104.671 113.188 109.162 56.6925 190.927 217.202 220.97 96.2601 94.2839 110.491 47.9781 184.301 203.556 203.336 91.0613 96.6426 106.712 48.282 197.805 197.214 196.179 106.565 87.6585 96.8445 42.7793 193.109 196.085 190.997 108.706 110.147 100.369 63.7858 183.242 196.23 190.031 99.8064 82.9624 95.7158 44.9198 100.279 100.514 175.185 54.8866 100.279 100.514 54.8866 325.63 160.24 280.095 259.614 124.652 161.053 160.24 77.2942 124.652 77.2942 350.283 334.779 306.248 176.709 165.39 155.444 83.7592 384.445 372.835 345.569 193.762 184.894 179.336 92.9499 387.937 376.474 369.998 195.762 199.552 193.499 100.812 365.123 349.436 360.769 181.614 188.385 182.975 94.9508 348.391 333.23 350.51 173.538 176.738 166.461 86.6632 350.518 322.315 325.435 172.711 171.654 166.77 86.8752 344.31 309.791 335.336 169.63 178.864 155.546 85.8354 315.426 300.815 303.136 161.498 165.446 154.245 83.7947 297.571 293.843 289.59 153.59 149.98 146.57 77.703 283.108 284.314 284.628 137.464 147.591 147.273 75.8869 257.111 266.522 280.03 124.112 135.517 137.041 61.5769 248.114 256.3 261.363 126.217 121.594 129.481 62.5355 256.39 242.022 266.603 122.186 126.519 126.819 63.6817 260.986 241.731 256.383 126.301 129.871 115.203 58.5043 265.492 249.097 251.571 134.083 131.115 126.528 67.7963 239.145 235.82 263.304 118.756 134.377 122.568 66.2871 231.455 240.492 230.056 114.982 104.768 113.252 52.4693 233.38 236.065 245.95 120.942 126.686 127.24 62.5126 215.213 214.81 215.106 112.495 106.693 108.825 58.4297 189.37 189.329 222.401 90.6489 108.52 105.985 54.0652 187.918 176.902 183.055 87.3796 80.8502 83.3435 36.5837 181.974 191.452 203.211 96.4233 107.068 93.5584 50.7959 74.9055 97.8941 183.074 45.6274 74.9055 97.8941 45.6274 240.232 99.3736 258.937 193.16 101.581 119.042 99.3736 47.3575 101.581 47.3575 301.534 349.342 302.255 158.07 140.858 157.357 71.6844 331.122 383.447 350.47 179.073 160.676 191.986 86.3858 342.83 363.007 357.885 180.712 170.446 191.461 92.6873 346.156 340.181 338.878 167.822 172.383 171.546 88.0247 327.553 336.847 352.724 159.692 173.772 168.636 79.7974 310.253 316.845 320.205 149.605 153.781 168.211 79.8943 294.162 297.367 314.434 140.16 156.472 148.633 69.7103 277.3 291.909 291.248 139.317 137.69 148.734 70.4501 276.647 286.918 295.647 140.253 139.61 143.176 68.8669 281.55 297.07 287.658 146.85 137.036 143.743 71.3865 284.282 280.405 286.734 142.409 144.514 153.327 75.4637 279.852 253.236 272.137 130.083 139.768 127.078 66.9458 266.596 242.471 258.409 119.836 140.084 126.158 63.1371 246.969 244.585 251.764 115.431 126.513 116.314 56.6987 249.383 226.965 260.612 115.013 120.456 128.271 58.7321 254.214 221.215 233.186 117.063 128.927 98.694 56.2811 244.551 235.922 245.699 125.51 125.288 122.521 60.7823 227.677 210.215 225.611 115.123 119.263 113.402 64.7276 222.294 217.795 207.641 102.315 108.413 96.8136 50.395 216.086 219.439 243.296 98.6801 113.881 120.981 51.9203 198.348 211.13 199.743 89.5223 102.205 98.4584 46.7598 204.312 210.01 209.346 95.0291 96.1428 112.672 42.7624 108.169 97.3381 199.866 52.2666 108.169 97.3381 52.2666 255.183 93.7859 300.744 243.222 121.768 139.896 93.7859 54.2232 121.768 54.2232 351.191 390.23 353.09 191.272 161.397 178.976 85.6723 377.232 425.02 403.832 204.374 189.794 211.254 105.6 353.933 418.034 424.538 182.295 187.438 213.766 98.7737 345.447 382.946 383.955 172.359 166.495 204.268 83.5212 345.375 359.845 368.134 177.155 178.952 178.678 88.8382 324.385 345.87 360.431 167.24 166.423 181.167 88.3171 311.521 332.4 342.763 157.207 157.962 164.703 78.9231 309.596 321.872 339.078 152.592 153.558 167.697 78.2835 306.659 309.379 322.141 146.665 156.037 154.175 74.3086 292.843 309.577 311.319 150.22 150.622 155.204 72.356 274.589 299.141 298.777 137.996 142.221 154.373 77.8635 250.693 279.915 290.793 123.153 132.368 144.768 60.1322 243.577 267.395 250.971 122.636 118.325 135.147 63.0208 265.408 266.511 271.777 129.154 125.252 132.248 59.6149 244.416 235.076 262.419 111.952 140.156 134.263 69.5389 224.671 215.704 221.205 104.151 104.26 100.812 42.4129 226.759 222.599 218.902 110.412 120.412 114.892 61.7382 205.575 203.73 220.218 95.0927 106.347 107.708 48.6741 228.643 222.685 199.767 115.479 99.228 96.0229 46.4185 226.953 224.785 233.945 120.759 129.415 126.662 69.0607 210.741 210.408 201.593 121.608 97.5378 98.1227 51.6985 204.901 199.886 199.752 114.981 113.204 112.286 69.9092 91.6973 87.6007 190.91 45.0715 91.6973 87.6007 45.0715 341.129 149.436 422.111 362.443 181.081 160.849 149.436 67.5452 181.081 67.5452 405.731 491.062 464.521 198.957 191.693 241.03 93.3034 451.138 510.599 513.115 220.646 214.038 250.032 105.654 454.56 512.907 511.04 235.739 237.1 260.567 114.992 406.643 470.447 489.612 210.587 217.46 252.34 120.747 383.191 435.168 439.295 182.69 189.183 218.107 89.8397 378.809 396.392 423.047 178.63 194.008 217.061 92.8503 370.32 363.55 382.61 175.193 184.801 179.331 85.7798 351.623 363.048 389.33 169.28 185.519 184.219 89.4137 326.801 342.217 356.71 162.715 166.103 178.829 79.8666 317.254 318.595 327.678 159.358 160.698 163.388 82.8479 314.981 307.945 320.959 161.146 156.556 155.207 76.5098 291.071 303.496 313.616 156.762 158.425 152.738 84.6357 279.172 282.28 287.966 144.76 132.646 150.758 72.1266 268.788 255.469 276.834 137.358 146.525 131.522 72.6331 239.209 241.323 248.891 123.124 122.263 123.947 64.7244 215.436 212.565 222.597 111.553 116.946 117.376 58.3996 212.361 199.956 185.174 112.187 98.4907 95.1893 53.1535 214.41 197.735 209.172 108.638 113.87 104.767 59.0334 205.069 216.049 200.29 107.206 100.539 92.9675 49.6044 208.586 210.62 220.779 104.026 104.53 123.082 57.6014 190.604 174.51 194.459 88.8007 104.056 87.5382 46.4241 185.762 177.836 169.847 84.9058 86.5488 86.9717 42.3766 99.2132 90.8646 195.348 42.5292 99.2132 90.8646 42.5292 485.836 213.007 579.265 515.2 253.454 261.262 213.007 113.536 253.454 113.536 571.906 653.08 636.56 292.105 272.829 325.811 147.727 573.017 659.78 675.789 289.953 299.077 327.268 144.378 546.092 624.346 625.928 277.168 273.94 332.511 145.575 522.264 564.209 594.949 259.86 272.152 291.835 131.593 479.151 544.915 535.489 252.478 250.112 272.375 128.267 426.848 483.973 516.154 217.762 229.039 272.54 124.211 401.619 418.425 427.923 188.357 197.809 211.433 93.5508 394.418 405.479 436.953 193.768 203.81 206.992 94.8057 357.588 387.927 385.95 179.503 190.607 198.488 98.9625 331.384 354.904 369.922 159.237 166.981 189.44 80.5403 319.595 321.897 332.579 146.799 164.403 165.464 78.697 310.511 309.369 334.42 146.734 155.192 156.433 68.1024 285.628 292.627 296.639 137.52 155.319 152.936 78.6315 256.936 272.763 283.344 118.111 130.309 139.692 58.8888 232.279 251.599 264.769 118.199 126.628 133.071 59.2223 192.335 223.213 225.039 101.012 105.652 118.528 58.9765 181.985 199.024 207.12 87.7695 86.6834 104.685 42.0358 195.053 191.603 201.412 89.0968 95.3019 94.339 45.7337 216 207.172 208.757 108.843 99.7511 97.2642 43.3631 206.653 186.082 218.227 106.594 116.249 109.908 65.4802 173.702 162.371 166.04 85.7091 90.4035 76.1741 41.114 179.433 177.257 192.408 92.9305 83.2981 86.1971 44.5951 96.1348 91.0596 187.049 48.3354 96.1348 91.0596 48.3354 665.925 302.193 318.003 302.193 139.918 318.003 302.193 139.918 139.918 139.918 740.444 360.975 363.732 360.975 363.732 178.085 178.085 728.701 369.826 376.713 369.826 376.713 182.89 182.89 674.785 347.178 351.989 347.178 351.989 186.936 186.936 608.174 304.35 322.797 304.35 322.797 160.242 160.242 572.492 292.437 285.377 292.437 285.377 144.108 144.108 517.229 266.211 287.115 266.211 287.115 148.329 148.329 463.256 230.068 230.114 230.068 230.114 117.882 117.882 428.485 211.711 233.142 211.711 233.142 112.186 112.186 398.285 208.425 195.343 208.425 195.343 99.5251 99.5251 371.118 195.667 202.942 195.667 202.942 108.9 108.9 347.405 175.098 168.176 175.098 168.176 86.7669 86.7669 320.549 162.635 179.229 162.635 179.229 88.3311 88.3311 294.355 155.107 141.32 155.107 141.32 74.3042 74.3042 291.177 154.652 153.035 154.652 153.035 80.8029 80.8029 257.529 133.4 138.142 133.4 138.142 73.849 73.849 239.824 122.201 119.387 122.201 119.387 59.5515 59.5515 226.546 111.255 120.436 111.255 120.436 62.6492 62.6492 215.116 102.506 106.11 102.506 106.11 48.6053 48.6053 210.984 98.3285 109.006 98.3285 109.006 53.9011 53.9011 177.614 79.4874 101.978 79.4874 101.978 44.4274 44.4274 184.747 76.662 75.6364 76.662 75.6364 35.06 35.06 200.024 84.3262 109.11 84.3262 109.11 41.602 41.602 90.9137 42.7242 90.9137 42.7242 90.9137 42.7242 42.7242 328.884 158.706 158.706 328.884 158.706 548.865 260.922 260.922 158.706 328.884 158.706 158.706 260.922 158.706 345.654 170.178 345.654 590.654 287.943 170.178 345.654 170.178 287.943 170.178 322.693 175.476 322.693 562.991 302.711 175.476 322.693 175.476 302.711 175.476 291.642 147.218 291.642 513.071 260.28 147.218 291.642 147.218 260.28 147.218 279.497 144.424 279.497 495.973 252.791 144.424 279.497 144.424 252.791 144.424 259.827 135.072 259.827 464.023 243.182 135.072 259.827 135.072 243.182 135.072 229.141 124.754 229.141 424.638 220.841 124.754 229.141 124.754 220.841 124.754 214.293 104.386 214.293 408.683 203.797 104.386 214.293 104.386 203.797 104.386 206.626 109.907 206.626 383.377 204.886 109.907 206.626 109.907 204.886 109.907 183.738 96.7193 183.738 340.772 178.491 96.7193 183.738 96.7193 178.491 96.7193 169.62 87.0182 169.62 311.059 162.282 87.0182 169.62 87.0182 162.282 87.0182 167.805 82.6017 167.805 321.771 148.777 82.6017 167.805 82.6017 148.777 82.6017 161.027 85.2033 161.027 316.269 172.993 85.2033 161.027 85.2033 172.993 85.2033 132.367 75.8238 132.367 257.549 143.276 75.8238 132.367 75.8238 143.276 75.8238 112.151 56.5431 112.151 236.774 114.273 56.5431 112.151 56.5431 114.273 56.5431 99.5115 55.6079 99.5115 211.354 122.501 55.6079 99.5115 55.6079 122.501 55.6079 94.507 43.9036 94.507 195.951 88.8525 43.9036 94.507 43.9036 88.8525 43.9036 93.6122 50.6034 93.6122 196.413 107.099 50.6034 93.6122 50.6034 107.099 50.6034 95.786 43.0088 95.786 190.452 89.3146 43.0088 95.786 43.0088 89.3146 43.0088 101.106 52.7771 101.106 194.346 101.138 52.7771 101.106 52.7771 101.138 52.7771 91.6449 48.329 91.6449 182.885 93.2082 48.329 91.6449 48.329 93.2082 48.329 83.2954 43.3159 83.2954 167.699 89.6771 43.3159 83.2954 43.3159 89.6771 43.3159 71.2264 39.9795 71.2264 154.662 78.0221 39.9795 71.2264 39.9795 78.0221 39.9795 31.2469 31.2469 31.2469 76.6397 76.6397 31.2469 31.2469 31.2469 76.6397 31.2469 219.981 102.216 384.557 185.162 185.162 219.981 102.216 102.216 185.162 102.216 245 418.574 199.395 245 117.765 199.395 117.765 240.298 430.981 219.179 240.298 127.235 219.179 127.235 221.429 413.603 211.802 221.429 113.062 211.802 113.062 216.476 399.985 201.801 216.476 108.367 201.801 108.367 204.196 379.049 198.184 204.196 108.109 198.184 108.109 195.497 373.305 180.865 195.497 96.087 180.865 96.087 194.39 369.07 192.439 194.39 99.4104 192.439 99.4104 176.75 330.679 176.631 176.75 94.9791 176.631 94.9791 157.035 301.016 154.048 157.035 81.7712 154.048 81.7712 141.439 287.083 146.968 141.439 75.2636 146.968 75.2636 153.966 286.964 140.115 153.966 66.1756 140.115 66.1756 155.242 277.138 146.849 155.242 87.7901 146.849 87.7901 125.182 259.386 130.289 125.182 67.4519 130.289 67.4519 124.623 259.308 129.097 124.623 57.7299 129.097 57.7299 111.842 243.25 130.212 111.842 66.8932 130.212 66.8932 101.444 221.833 113.039 101.444 44.9489 113.039 44.9489 102.801 219.274 108.794 102.801 56.4952 108.794 56.4952 94.6664 207.104 110.48 94.6664 46.3058 110.48 46.3058 93.2398 195.958 96.624 93.2398 48.3606 96.624 48.3606 91.2404 189.962 99.3342 91.2404 44.8792 99.3342 44.8792 84.4037 184.943 90.6277 84.4037 46.3612 90.6277 46.3612 83.4355 168.986 94.3149 83.4355 38.0426 94.3149 38.0426 45.3929 74.671 74.671 45.3929 45.3929 74.671 45.3929 164.576 82.9457 285.766 134.962 134.962 164.576 82.9457 82.9457 134.962 82.9457 173.574 317.038 150.804 173.574 81.6304 150.804 81.6304 190.684 342.733 166.234 190.684 91.9437 166.234 91.9437 192.174 354.292 176.499 192.174 98.74 176.499 98.74 183.509 361.842 177.793 183.509 93.4344 177.793 93.4344 174.853 342.715 184.049 174.853 90.0745 184.049 90.0745 177.807 338.456 158.665 177.807 84.7784 158.665 84.7784 174.68 328.682 179.79 174.68 93.0289 179.79 93.0289 153.928 291.911 148.891 153.928 81.6514 148.891 81.6514 143.981 280.375 143.02 143.981 72.2768 143.02 72.2768 145.644 280.344 137.355 145.644 71.7046 137.355 71.7046 132.998 274.871 142.99 132.998 73.9397 142.99 73.9397 121.896 271.666 131.881 121.896 59.0588 131.881 59.0588 134.204 280.965 139.784 134.204 62.8375 139.784 62.8375 134.685 266.223 141.18 134.685 71.3666 141.18 71.3666 131.408 265.778 125.042 131.408 63.3183 125.042 63.3183 120.389 257.54 140.735 120.389 68.0898 140.735 68.0898 116.473 235.514 116.804 116.473 52.299 116.804 52.299 112.437 224.991 118.71 112.437 64.1739 118.71 64.1739 102.718 222.697 106.282 102.718 48.2634 106.282 48.2634 98.7215 216.127 116.415 98.7215 54.455 116.415 54.455 100.539 209.364 99.7115 100.539 44.2665 99.7115 44.2665 85.5504 194.833 109.653 85.5504 56.2723 109.653 56.2723 29.2781 85.1803 85.1803 29.2781 29.2781 85.1803 29.2781 121.19 52.016 236.477 91.5788 91.5788 121.19 52.016 52.016 91.5788 52.016 143.464 303.382 144.898 143.464 69.1736 144.898 69.1736 152.049 324.908 158.484 152.049 74.29 158.484 74.29 162.118 333.757 166.424 162.118 77.7592 166.424 77.7592 178.333 351.421 167.333 178.333 84.3588 167.333 84.3588 167.862 336.081 184.088 167.862 93.9747 184.088 93.9747 160.649 317.794 151.993 160.649 73.8871 151.993 73.8871 154.001 308.315 165.801 154.001 86.7615 165.801 86.7615 137.983 294.987 142.515 137.983 67.24 142.515 67.24 136.393 296.388 152.472 136.393 70.7433 152.472 70.7433 134.7 277.323 143.916 134.7 65.6499 143.916 65.6499 141.873 278.466 133.407 141.873 69.0499 133.407 69.0499 149.769 277.31 145.059 149.769 72.8226 145.059 72.8226 146.761 267.701 132.251 146.761 76.9467 132.251 76.9467 131.538 267.792 135.451 131.538 69.8139 135.451 69.8139 134.369 266.833 132.341 134.369 61.7239 132.341 61.7239 137.151 257.671 134.492 137.151 72.6455 134.492 72.6455 119.041 235.388 123.179 119.041 64.5053 123.179 64.5053 112.554 223.037 112.209 112.554 54.5358 112.209 54.5358 119.979 233.143 110.828 119.979 58.0184 110.828 58.0184 117.405 223.599 122.315 117.405 61.9605 122.315 61.9605 108.825 197.959 101.284 108.825 55.445 101.284 55.445 109.283 199.203 96.6747 109.283 53.3803 96.6747 53.3803 55.9022 102.528 102.528 55.9022 55.9022 102.528 55.9022 115.288 39.5627 295.567 121.454 121.454 115.288 39.5627 39.5627 121.454 39.5627 159.919 366.692 174.114 159.919 75.7248 174.114 75.7248 172.859 403.35 192.578 172.859 84.1938 192.578 84.1938 171.639 390.459 210.773 171.639 88.6647 210.773 88.6647 173.087 369.143 179.687 173.087 82.9738 179.687 82.9738 168.22 368.72 189.456 168.22 90.1136 189.456 90.1136 157.145 357.324 179.264 157.145 78.1061 179.264 78.1061 154.314 349.441 178.06 154.314 79.039 178.06 79.039 157.003 339.346 171.381 157.003 75.2748 171.381 75.2748 159.994 324.081 167.965 159.994 81.7286 167.965 81.7286 142.623 300.519 156.115 142.623 78.2657 156.115 78.2657 136.594 290.429 144.404 136.594 64.3574 144.404 64.3574 127.54 261.849 146.025 127.54 72.2361 146.025 72.2361 120.941 255.353 115.824 120.941 55.3042 115.824 55.3042 136.254 267.685 139.529 136.254 65.6367 139.529 65.6367 132.464 248.549 128.156 132.464 70.6172 128.156 70.6172 120.52 224.403 120.393 120.52 61.8467 120.393 61.8467 116.347 216.521 104.011 116.347 58.6734 104.011 58.6734 110.483 216.254 112.51 110.483 57.6732 112.51 57.6732 113.164 211.027 103.744 113.164 52.8095 103.744 52.8095 106.194 210.754 107.283 106.194 60.3543 107.283 60.3543 89.1337 190.937 103.471 89.1337 45.8393 103.471 45.8393 89.9202 190.776 87.4666 89.9202 43.2944 87.4666 43.2944 46.6258 103.31 103.31 46.6258 46.6258 103.31 46.6258 180.28 81.8908 404.854 181.362 181.362 180.28 81.8908 81.8908 181.362 81.8908 206.773 486.574 223.491 206.773 98.3891 223.491 98.3891 230.492 513.555 263.083 230.492 108.384 263.083 108.384 218.821 487.745 250.473 218.821 122.108 250.473 122.108 196.056 458.46 237.272 196.056 96.7129 237.272 96.7129 200.501 427.173 221.188 200.501 99.3428 221.188 99.3428 200.179 409.265 205.986 200.179 101.158 205.986 101.158 195.127 408.39 203.279 195.127 99.021 203.279 99.021 182.342 382.992 205.11 182.342 96.1057 205.11 96.1057 164.086 342.171 177.881 164.086 86.2367 177.881 86.2367 157.896 330.043 164.29 157.896 77.8496 164.29 77.8496 153.836 326.631 165.753 153.836 80.0467 165.753 80.0467 134.309 298.086 160.878 134.309 73.789 160.878 73.789 134.412 282.52 137.208 134.412 60.5198 137.208 60.5198 131.431 270.256 145.312 131.431 73.8922 145.312 73.8922 116.085 230.165 124.944 116.085 57.5387 124.944 57.5387 103.883 195.206 105.221 103.883 58.5462 105.221 58.5462 100.174 194.39 89.9848 100.174 45.3372 89.9848 45.3372 105.772 211.728 104.405 105.772 54.8369 104.405 54.8369 97.8635 205.02 107.323 97.8635 50.9349 107.323 50.9349 104.56 204.618 97.6975 104.56 46.9287 97.6975 46.9287 101.804 189.796 106.921 101.804 57.6314 106.921 57.6314 100.856 187.359 82.8752 100.856 44.1722 82.8752 44.1722 56.684 104.483 104.483 56.684 56.684 104.483 56.684 224.574 99.4714 572.496 261.747 261.747 224.574 99.4714 99.4714 261.747 99.4714 279.801 659.27 310.749 279.801 125.102 310.749 125.102 283.063 641.938 348.521 283.063 154.699 348.521 154.699 268.924 596.531 293.417 268.924 128.365 293.417 128.365 262.404 566.228 303.114 262.404 140.56 303.114 140.56 226.673 506.728 263.114 226.673 121.845 263.114 121.845 209.086 460.103 243.614 209.086 104.828 243.614 104.828 213.263 446.451 216.49 213.263 104.258 216.49 104.258 200.649 417.423 229.961 200.649 109.005 229.961 109.005 178.085 367.945 187.462 178.085 91.6446 187.462 91.6446 172.146 347.598 180.483 172.146 86.4404 180.483 86.4404 172.795 345.102 167.115 172.795 85.7059 167.115 85.7059 163.777 321.69 177.987 163.777 87.0893 177.987 87.0893 148.108 287.356 143.704 148.108 76.6878 143.704 76.6878 138.825 275.35 143.652 138.825 71.42 143.652 71.42 114.08 238.209 131.698 114.08 67.4053 131.698 67.4053 91.3227 208.946 106.511 91.3227 46.675 106.511 46.675 94.2159 209.508 102.435 94.2159 44.6477 102.435 44.6477 105.956 218.566 107.073 105.956 49.5682 107.073 49.5682 107.157 219.812 111.493 107.157 56.3879 111.493 56.3879 100.058 198.185 108.319 100.058 50.7688 108.319 50.7688 87.9924 196.077 89.8659 87.9924 49.2895 89.8659 49.2895 86.5024 202.2 106.211 86.5024 38.703 106.211 38.703 47.7994 95.989 95.989 47.7994 47.7994 95.989 47.7994 347.922 162.275 347.922 162.275 162.275 347.922 162.275 162.275 162.275 162.275 379.469 379.469 185.647 379.469 185.647 185.647 185.647 358.875 358.875 193.822 358.875 193.822 193.822 193.822 327.607 327.607 165.052 327.607 165.052 165.052 165.052 303.824 303.824 162.555 303.824 162.555 162.555 162.555 280.055 280.055 141.269 280.055 141.269 141.269 141.269 251.017 251.017 138.786 251.017 138.786 138.786 138.786 233.188 233.188 112.232 233.188 112.232 112.232 112.232 216.774 216.774 120.956 216.774 120.956 120.956 120.956 189.86 189.86 95.8178 189.86 95.8178 95.8178 95.8178 175.452 175.452 94.0422 175.452 94.0422 94.0422 94.0422 172.307 172.307 81.4095 172.307 81.4095 81.4095 81.4095 157.913 157.913 90.8976 157.913 90.8976 90.8976 90.8976 139.248 139.248 67.0157 139.248 67.0157 67.0157 67.0157 136.525 136.525 72.2321 136.525 72.2321 72.2321 72.2321 124.129 124.129 64.2927 124.129 64.2927 64.2927 64.2927 117.623 117.623 59.8358 117.623 59.8358 59.8358 59.8358 115.292 115.292 57.7871 115.292 57.7871 57.7871 57.7871 112.61 112.61 57.5048 112.61 57.5048 57.5048 57.5048 112.655 112.655 55.105 112.655 55.105 55.105 55.105 98.1267 98.1267 57.5503 98.1267 57.5503 57.5503 57.5503 108.085 108.085 40.5764 108.085 40.5764 40.5764 40.5764 115.698 115.698 67.5084 115.698 67.5084 67.5084 67.5084 48.1896 48.1896 48.1896 48.1896 48.1896 48.1896 48.1896 
CELL_DATA 1536
SCALARS stress float 1
LOOKUP_TABLE default
173.786 146.975 151.408 154.531 143.685 138.992 130.421 110.264 113.893 103.441 87.9547 82.9384 81.3747 81.5522 57.7047 71.7088 61.7128 59.4706 49.9972 55.6763 48.8066 44.3991 52.7 43.2889 115.989 107.607 120.21 106.78 99.4383 107.94 112.342 105.559 95.7453 75.2433 79.3067 75.0497 68.2042 61.5141 55.4018 50.5983 53.2561 62.6475 56.7531 59.9879 57.9901 49.2837 49.0705 41.0738 87.5635 77.0387 102.598 88.1815 87.2064 97.4116 83.9823 82.1743 95.8269 77.187 73.8023 72.0469 73.4149 55.2708 78.4732 56.8737 54.4759 44.6675 57.5078 63.633 51.1592 49.6678 48.9974 38.6426 57.3159 71.407 82.9324 77.0317 86.5971 93.3381 87.7093 84.9719 85.9315 73.9098 64.9467 75.8627 71.5751 68.2244 51.7462 64.3154 61.0448 73.747 41.5398 69.1006 52.4447 44.5933 57.1185 37.4954 53.5421 81.9651 90.9591 93.5131 81.1404 100.332 88.1548 81.5081 79.0954 71.9709 75.0087 74.0304 80.8538 69.3039 59.5715 71.7068 62.8864 52.5987 51.4038 44.214 62.97 53.7341 46.8838 35.4907 79.256 90.0375 107.761 116.365 106.7 101.16 102.577 86.4093 103.14 85.3305 94.5029 67.2919 72.5819 66.9957 59.2919 55.7073 61.4853 55.3035 62.8615 54.3141 61.9847 46.0398 51.88 30.7402 111.096 150.171 133.868 133.829 139.802 116.932 125.414 98.76 93.8442 95.8642 94.3233 91.0095 68.2317 70.8995 74.41 59.994 52.5911 61.3529 58.5883 54.8941 38.4043 39.6773 63.1952 43.5249 153.689 189.929 178.866 170.169 158.949 145.7 154.952 120.582 126.705 106 93.3199 88.1596 77.6641 81.4737 63.5996 70.5433 58.9593 52.1195 57.2578 65.001 56.6105 51.1193 48.6025 36.9269 155.934 168.531 167.964 162.661 146.372 132.43 116.15 105.197 114.448 106.419 82.9677 91.8532 74.8571 64.502 72.1627 56.6366 48.2014 57.9343 48.7221 56.2262 47.6195 47.4467 34.9406 46.7843 98.4213 122.986 118.523 130.518 123.609 109.731 100.75 105.124 93.9154 87.3601 75.8772 77.3523 78.3223 69.8576 55.665 60.474 53.4808 54.6266 62.9685 61.1034 50.167 42.9918 46.0696 28.9888 75.6347 83.5181 95.8314 98.6241 100.888 87.9926 86.2159 76.2 85.7083 78.4467 69.674 62.0331 68.9563 60.1518 55.5761 59.2855 51.1513 46.0897 52.264 45.6735 51.0902 43.6555 48.1458 49.9366 64.2388 88.0284 94.4993 85.1448 81.8582 84.7178 94.6847 65.99 68.5803 69.2423 67.7161 68.5788 69.0631 52.9523 62.9964 69.6763 61.6589 72.7517 60.2364 48.3359 48.0576 56.6722 41.0822 44.9512 61.9809 83.5663 89.0609 97.62 92.8133 80.3001 98.5006 83.546 75.3294 67.9344 61.6062 81.7288 58.4822 70.8769 57.9745 63.6436 54.0344 61.3328 66.2266 55.8096 42.4907 48.6329 50.9767 40.4377 82.3664 102.513 117.384 116.039 103.112 96.7307 98.8689 82.8416 88.5655 84.575 65.2777 76.8878 65.1376 62.829 64.906 50.9189 57.5276 63.3935 59.7307 61.7962 50.788 51.2557 50.1921 50.6795 102.268 151.939 131.463 143.889 142.528 113.902 120.837 115.031 102.446 94.8336 81.0242 77.8341 66.6319 66.2338 68.6888 66.392 60.4337 57.0514 58.439 45.7734 39.9456 49.0506 37.4733 49.2823 142.333 191.664 184.782 178.463 164.97 151.123 145.612 129.455 121.224 117.576 97.4777 97.5064 79.1212 67.3984 67.2478 70.756 60.6053 70.6906 49.5985 49.6079 46.9987 43.6729 42.6238 46.6697 146.382 162.974 157.743 155.257 152.023 141.54 120.376 119.004 94.1448 97.5174 88.2185 77.0364 82.4461 71.5784 66.7759 65.511 59.0362 45.2972 62.796 52.7459 48.3808 56.1634 47.868 29.7248 97.7943 106.939 122.052 121.23 125.643 124.869 112.656 92.3287 83.9887 78.2372 82.5071 69.8106 71.1106 53.1439 55.0247 53.6621 68.7419 56.0732 49.5807 51.888 39.4593 58.552 47.0718 41.9026 67.0717 91.7485 103.19 100.181 118.841 88.4849 76.1724 84.9622 80.2135 77.9355 73.8181 60.6522 62.4508 64.2822 61.2072 64.799 57.8498 58.1459 53.2833 50.1631 55.9151 46.826 42.0665 46.2982 59.6534 80.4313 90.6068 84.067 93.1128 85.4988 93.1755 75.7776 75.9597 71.969 71.3056 73.5204 67.8835 61.0633 56.215 55.376 59.755 53.4431 59.2949 50.1319 44.2915 63.6728 43.3064 40.5543 72.5357 89.0847 81.4585 93.7448 83.2561 87.3926 85.0285 91.386 75.1787 69.8455 79.5362 69.7577 59.1987 56.655 58.8061 57.1849 60.9423 56.5821 60.4783 54.2619 49.9018 54.1328 39.5413 50.924 63.5837 95.5927 106.957 113.684 118.722 102.539 105.161 91.305 90.5367 85.8329 79.3027 79.7203 55.4327 68.1255 70.2081 50.5787 61.4441 47.9721 68.1469 48.3621 43.3218 41.3498 49.9067 45.6809 90.5322 135.796 155.212 135.119 130.078 132.017 121.957 100.315 102.053 91.7035 77.925 76.0875 74.7357 82.0749 64.9347 79.052 62.5021 47.4965 56.6735 45.5729 50.4674 45.2943 51.8834 45.2656 150.075 185.71 184.331 181.578 176.615 158.688 137.372 125.589 116.638 112.964 99.7898 97.7223 77.7354 69.673 62.8792 70.0136 63.3442 68.9198 70.8586 45.1539 50.3288 40.1055 48.7376 51.9854 157.969 150.074 165.154 168.068 136.641 135.584 126.731 125.556 101.751 94.0276 96.2344 86.6825 71.8648 63.0227 72.414 59.6197 57.2052 50.2606 41.9135 61.3956 45.5228 54.8853 41.4623 41.0657 88.1174 126.264 131.877 129.086 123.892 115.021 101.18 103.625 104.919 84.5732 69.84 72.9712 70.1274 58.855 47.2328 58.9197 53.6685 55.5164 46.5727 50.6458 39.6954 54.1832 38.7917 47.5462 64.9178 109.392 108.465 104.996 93.1759 87.1166 89.8524 91.6476 66.5767 69.0613 57.6154 57.2941 67.2982 54.5991 62.3723 52.3904 62.2038 51.8512 44.1809 60.6337 44.3843 45.5186 55.0233 51.6024 65.1095 78.0738 84.013 97.659 97.1547 83.0444 81.9948 80.5169 76.703 58.5084 69.1488 79.3315 55.11 53.0048 60.2572 64.5663 57.5687 63.7484 43.7623 50.5858 45.7958 56.1313 39.094 39.4271 59.2026 86.4111 100.066 89.6216 85.4104 94.2277 88.1473 81.5723 75.2139 74.5616 71.0628 61.0557 68.3017 60.0959 51.0451 57.9761 53.8455 58.5388 61.0427 43.8583 43.6897 48.8783 60.1255 38.9337 78.3445 106.357 108.025 109.304 99.6392 102.762 96.6545 87.3611 89.6517 86.1886 72.7897 77.2452 58.5038 69.5666 73.6465 75.9639 62.2763 62.2834 67.6384 52.8127 49.8949 37.9766 42.2992 43.502 101.406 138.501 148.484 128.187 134.36 127.863 114.49 110.37 102.384 97.7083 89.8622 85.189 80.007 72.6673 70.4407 60.6894 52.0271 67.249 46.6601 58.4029 58.6624 36.1426 36.7872 52.819 147.799 177.501 192.522 177.554 164.073 153.224 129.202 133.847 125.451 91.9255 92.706 91.189 74.1232 66.4609 70.9719 57.2259 67.8513 50.5083 58.7843 55.2997 55.9001 48.5227 46.1191 37.0758 144.6 168.992 165.074 172.628 151.336 141.096 126.346 110.144 105.607 86.0006 102.438 84.1843 76.3247 67.0003 60.745 61.0368 46.5439 50.609 55.1828 57.0693 44.4094 49.3582 45.1377 46.5226 92.9532 124.639 129.175 124.77 108.262 108.196 100.744 102.557 102.402 84.2467 77.7764 59.4291 61.8398 62.4505 72.7823 46.252 57.0668 61.0002 42.8677 53.7469 56.9898 49.6366 46.7229 56.1086 80.563 86.0611 109.21 94.4392 97.5045 90.7557 87.4986 74.4103 72.5817 74.1162 71.283 68.4128 76.1626 62.2907 55.4011 62.6257 57.9962 49.5738 38.8273 40.0719 40.0273 55.2954 30.9617 53.9038 58.9115 87.8686 98.9189 89.2306 88.9486 83.2001 74.527 67.4753 78.1166 80.942 52.2692 53.9041 54.3722 65.3903 53.5385 73.1998 54.5264 57.005 58.9995 53.5529 44.445 38.4784 36.7599 42.7516 56.7872 88.5054 90.6106 87.7156 89.5054 89.0526 80.2711 73.0938 69.6028 74.9379 67.9644 71.7405 69.5983 64.4773 56.5342 53.2737 59.7401 50.512 52.3536 57.8282 46.0364 59.8542 38.527 33.8167 77.501 100.385 105.684 105.026 103.702 109.156 87.909 95.7056 80.6052 76.4983 72.5831 82.0271 69.854 78.2733 64.0049 60.2267 50.7602 44.3486 56.1466 51.4728 59.1314 44.071 65.9218 45.1843 104.675 132.848 143.37 152.624 127.841 128.322 107.936 103.521 92.6592 76.9831 90.0007 71.1053 70.3665 81.8694 61.8376 77.3256 61.28 51.3694 45.5646 54.9546 55.5788 48.1874 57.8847 40.578 142.115 159.916 185.895 180.85 167.347 163.051 129.096 133.71 119.054 98.9779 107.111 93.6809 84.0514 69.6337 83.898 64.6772 57.5779 50.9373 62.6964 48.6026 38.4643 47.1165 36.2809 52.8046 144.695 157.104 167.506 180.018 145.798 141.513 134.59 104.643 100.619 102.785 87.885 86.0062 66.9741 61.3028 66.3273 57.9961 54.5821 55.3021 52.0442 54.6556 51.0789 46.7844 47.35 41.5099 93.9346 110.714 118.996 123.712 125.159 129.554 111.025 91.8099 87.8296 80.9491 88.7068 65.7479 69.8546 71.8251 64.586 56.605 58.2366 55.121 47.6881 51.9234 53.6875 54.0622 44.8254 44.0097 72.4284 103.641 100.383 95.5346 89.7828 89.3455 81.4799 77.3798 81.0945 80.5131 72.7632 65.7089 74.3764 67.7007 67.631 68.0932 65.3146 46.3343 53.2452 65.6916 45.0703 58.9326 38.1219 42.4461 54.2825 80.4687 76.5538 90.3014 89.8079 85.4595 75.3962 71.0105 77.5645 60.6908 67.1223 60.8932 69.2157 61.5062 61.0486 49.823 46.9675 53.8579 62.3307 47.2732 60.1532 56.2708 48.9327 52.8192 60.9234 74.7261 96.913 94.8742 84.4004 76.7167 92.233 78.6161 69.1642 80.2335 65.0621 73.7956 60.218 65.4572 64.0868 61.8983 51.4234 59.4864 54.8491 44.0285 51.0769 47.2432 48.9706 43.642 70.1559 119.887 113.697 113.067 102.03 100.11 105.406 90.5088 79.8235 74.7414 83.9882 80.0245 63.5554 62.2834 58.8132 57.9257 59.0496 52.2724 55.3723 50.055 40.7714 56.2381 36.0308 48.1961 101.732 123.322 149.025 148.781 126.653 128.444 117.149 108.749 86.9952 85.4726 76.1772 81.4717 72.2343 66.2561 69.9397 60.165 59.9333 48.9292 47.8225 57.1272 59.1197 39.1897 43.0801 41.6489 145.802 161.604 195.58 170.876 156.22 138.537 141.503 129.612 124.04 96.9293 100.72 89.8778 80.2578 72.0707 72.0578 64.5497 69.4364 59.7837 60.8128 69.5912 39.6533 48.4769 27.0002 47.3753 157.187 183.742 176.24 152.621 159.509 121.247 131.101 121.295 117.207 93.4646 79.7219 83.6199 70.4974 70.5468 66.4354 59.6086 58.1463 50.0687 41.9257 38.1026 46.3675 36.6917 51.156 45.3129 86.2354 133.283 120.744 124.254 117.442 104.122 98.4557 99.8275 104.199 77.7528 71.2819 72.9567 70.8348 60.2733 59.305 68.2074 64.5304 56.6925 47.9781 48.282 42.7793 63.7858 44.9198 54.8866 77.2942 83.7592 92.9499 100.812 94.9508 86.6632 86.8752 85.8354 83.7947 77.703 75.8869 61.5769 62.5355 63.6817 58.5043 67.7963 66.2871 52.4693 62.5126 58.4297 54.0652 36.5837 50.7959 45.6274 47.3575 71.6844 86.3858 92.6873 88.0247 79.7974 79.8943 69.7103 70.4501 68.8669 71.3865 75.4637 66.9458 63.1371 56.6987 58.7321 56.2811 60.7823 64.7276 50.395 51.9203 46.7598 42.7624 52.2666 54.2232 85.6723 105.6 98.7737 83.5212 88.8382 88.3171 78.9231 78.2835 74.3086 72.356 77.8635 60.1322 63.0208 59.6149 69.5389 42.4129 61.7382 48.6741 46.4185 69.0607 51.6985 69.9092 45.0715 67.5452 93.3034 105.654 114.992 120.747 89.8397 92.8503 85.7798 89.4137 79.8666 82.8479 76.5098 84.6357 72.1266 72.6331 64.7244 58.3996 53.1535 59.0334 49.6044 57.6014 46.4241 42.3766 42.5292 113.536 147.727 144.378 145.575 131.593 128.267 124.211 93.5508 94.8057 98.9625 80.5403 78.697 68.1024 78.6315 58.8888 59.2223 58.9765 42.0358 45.7337 43.3631 65.4802 41.114 44.5951 48.3354 139.918 178.085 182.89 186.936 160.242 144.108 148.329 117.882 112.186 99.5251 108.9 86.7669 88.3311 74.3042 80.8029 73.849 59.5515 62.6492 48.6053 53.9011 44.4274 35.06 41.602 42.7242 158.706 170.178 175.476 147.218 144.424 135.072 124.754 104.386 109.907 96.7193 87.0182 82.6017 85.2033 75.8238 56.5431 55.6079 43.9036 50.6034 43.0088 52.7771 48.329 43.3159 39.9795 31.2469 102.216 117.765 127.235 113.062 108.367 108.109 96.087 99.4104 94.9791 81.7712 75.2636 66.1756 87.7901 67.4519 57.7299 66.8932 44.9489 56.4952 46.3058 48.3606 44.8792 46.3612 38.0426 45.3929 82.9457 81.6304 91.9437 98.74 93.4344 90.0745 84.7784 93.0289 81.6514 72.2768 71.7046 73.9397 59.0588 62.8375 71.3666 63.3183 68.0898 52.299 64.1739 48.2634 54.455 44.2665 56.2723 29.2781 52.016 69.1736 74.29 77.7592 84.3588 93.9747 73.8871 86.7615 67.24 70.7433 65.6499 69.0499 72.8226 76.9467 69.8139 61.7239 72.6455 64.5053 54.5358 58.0184 61.9605 55.445 53.3803 55.9022 39.5627 75.7248 84.1938 88.6647 82.9738 90.1136 78.1061 79.039 75.2748 81.7286 78.2657 64.3574 72.2361 55.3042 65.6367 70.6172 61.8467 58.6734 57.6732 52.8095 60.3543 45.8393 43.2944 46.6258 81.8908 98.3891 108.384 122.108 96.7129 99.3428 101.158 99.021 96.1057 86.2367 77.8496 80.0467 73.789 60.5198 73.8922 57.5387 58.5462 45.3372 54.8369 50.9349 46.9287 57.6314 44.1722 56.684 99.4714 125.102 154.699 128.365 140.56 121.845 104.828 104.258 109.005 91.6446 86.4404 85.7059 87.0893 76.6878 71.42 67.4053 46.675 44.6477 49.5682 56.3879 50.7688 49.2895 38.703 47.7994 162.275 185.647 193.822 165.052 162.555 141.269 138.786 112.232 120.956 95.8178 94.0422 81.4095 90.8976 67.0157 72.2321 64.2927 59.8358 57.7871 57.5048 55.105 57.5503 40.5764 67.5084 48.1896 
SCALARS volume float 1
LOOKUP_TABLE default
14.4809 14.67 14.6719 14.6733 14.6799 14.689 14.698 14.7066 14.7153 14.7229 14.7306 14.737 14.7434 14.7486 14.7537 14.7578 14.7618 14.7648 14.7676 14.7697 14.7715 14.7726 14.7734 14.7736 14.5981 14.6891 14.6989 14.7013 14.7041 14.7099 14.7161 14.7226 14.729 14.7352 14.7409 14.7461 14.7507 14.755 14.7587 14.762 14.7647 14.7671 14.7691 14.7707 14.7718 14.7727 14.7733 14.7745 14.6767 14.7277 14.7296 14.7313 14.7329 14.736 14.7394 14.7432 14.7471 14.7508 14.7543 14.7575 14.7604 14.7629 14.7652 14.7671 14.7687 14.7701 14.7712 14.772 14.7727 14.7731 14.7736 14.7743 14.7479 14.7587 14.761 14.7606 14.7608 14.7618 14.7628 14.7642 14.7657 14.7671 14.7685 14.7696 14.7706 14.7715 14.7722 14.7727 14.7732 14.7735 14.7737 14.7738 14.7738 14.7738 14.7737 14.7738 14.8145 14.7915 14.7881 14.7884 14.7877 14.7868 14.786 14.7852 14.7844 14.7836 14.7828 14.782 14.7811 14.7803 14.7795 14.7786 14.7779 14.7771 14.7764 14.7757 14.7751 14.7745 14.7739 14.7731 14.8814 14.8196 14.817 14.8153 14.8138 14.8112 14.8085 14.8056 14.8027 14.7997 14.7969 14.7941 14.7915 14.789 14.7866 14.7844 14.7824 14.7806 14.779 14.7775 14.7763 14.7752 14.7741 14.7726 14.9442 14.8528 14.8411 14.8408 14.839 14.8348 14.8302 14.8252 14.8202 14.8153 14.8105 14.8058 14.8014 14.7973 14.7934 14.7899 14.7867 14.7838 14.7813 14.7791 14.7773 14.7757 14.7743 14.7724 15.0562 14.853 14.8644 14.8653 14.862 14.856 14.8494 14.8425 14.8355 14.8287 14.8222 14.8159 14.8099 14.8044 14.7992 14.7945 14.7902 14.7864 14.783 14.7801 14.7777 14.7758 14.7743 14.7731 14.5184 14.6367 14.6484 14.6654 14.6776 14.6904 14.7006 14.7106 14.7187 14.7268 14.7335 14.7401 14.7457 14.751 14.7555 14.7597 14.7631 14.7663 14.7687 14.7708 14.7723 14.7734 14.7738 14.7738 14.6273 14.6563 14.6808 14.6932 14.7021 14.7108 14.7187 14.7258 14.7323 14.7382 14.7435 14.7484 14.7527 14.7566 14.76 14.7631 14.7656 14.7679 14.7695 14.7711 14.772 14.773 14.7734 14.7746 14.6895 14.7048 14.7161 14.7245 14.7292 14.7348 14.7394 14.7441 14.7481 14.7521 14.7554 14.7586 14.7612 14.7639 14.7658 14.7678 14.7691 14.7707 14.7715 14.7725 14.7728 14.7735 14.7736 14.7747 14.7527 14.7521 14.754 14.7561 14.758 14.76 14.7619 14.7638 14.7654 14.7671 14.7684 14.7697 14.7706 14.7716 14.7721 14.7729 14.7731 14.7736 14.7736 14.7739 14.7737 14.7738 14.7735 14.7738 14.8111 14.7963 14.7902 14.7876 14.7865 14.7856 14.7847 14.7841 14.7834 14.7829 14.782 14.7815 14.7806 14.7801 14.7791 14.7786 14.7776 14.7771 14.7762 14.7758 14.775 14.7746 14.7737 14.7732 14.8703 14.8383 14.8236 14.8166 14.8136 14.81 14.8068 14.8038 14.8008 14.7981 14.7953 14.7929 14.7903 14.7881 14.7857 14.7839 14.7818 14.7802 14.7785 14.7773 14.7759 14.775 14.7737 14.7722 14.9269 14.8762 14.8524 14.8433 14.8388 14.8332 14.8278 14.8227 14.8176 14.8129 14.8082 14.8039 14.7996 14.7959 14.7921 14.789 14.7858 14.7832 14.7806 14.7787 14.7768 14.7755 14.7739 14.7723 15.0374 14.8769 14.8751 14.8679 14.8616 14.8547 14.8472 14.8402 14.8331 14.8264 14.8198 14.8138 14.8079 14.8026 14.7975 14.793 14.7888 14.7852 14.7818 14.7791 14.7767 14.7751 14.7736 14.773 14.4926 14.6342 14.6398 14.6584 14.6724 14.6873 14.6989 14.71 14.7187 14.7272 14.7341 14.7409 14.7463 14.7518 14.7561 14.7604 14.7638 14.7669 14.7693 14.7714 14.7728 14.7738 14.7741 14.7739 14.6185 14.6484 14.6735 14.6879 14.6992 14.7096 14.7185 14.7263 14.7331 14.7391 14.7444 14.7493 14.7535 14.7574 14.7606 14.7636 14.766 14.7683 14.7699 14.7714 14.7723 14.7732 14.7735 14.7747 14.6858 14.7013 14.7108 14.7205 14.7269 14.7337 14.7392 14.7444 14.7486 14.7526 14.7559 14.7592 14.7616 14.7642 14.766 14.7681 14.7693 14.7708 14.7716 14.7725 14.7729 14.7735 14.7737 14.7747 14.7505 14.7503 14.7516 14.754 14.7565 14.759 14.7613 14.7636 14.7653 14.7671 14.7684 14.7698 14.7707 14.7717 14.7722 14.773 14.7732 14.7736 14.7737 14.7739 14.7737 14.7738 14.7736 14.7738 14.8122 14.7976 14.7906 14.7873 14.7858 14.7848 14.784 14.7835 14.7828 14.7824 14.7817 14.7812 14.7803 14.7798 14.7789 14.7784 14.7775 14.777 14.7761 14.7757 14.7749 14.7745 14.7737 14.7731 14.8727 14.8415 14.827 14.8182 14.8139 14.8095 14.8061 14.803 14.8 14.7974 14.7946 14.7923 14.7897 14.7876 14.7853 14.7835 14.7815 14.78 14.7783 14.7771 14.7758 14.7749 14.7736 14.7723 14.9316 14.8823 14.8573 14.8458 14.8396 14.833 14.8271 14.8218 14.8166 14.8119 14.8072 14.803 14.7988 14.7952 14.7915 14.7884 14.7852 14.7828 14.7802 14.7784 14.7765 14.7753 14.7737 14.7722 15.0531 14.8829 14.8813 14.8718 14.8636 14.8553 14.8471 14.8396 14.8323 14.8255 14.819 14.8129 14.8072 14.8018 14.7968 14.7923 14.7882 14.7845 14.7813 14.7786 14.7762 14.7747 14.7733 14.7729 14.4829 14.6283 14.635 14.6543 14.6693 14.6852 14.6976 14.7093 14.7184 14.7271 14.7341 14.741 14.7466 14.752 14.7564 14.7607 14.764 14.7672 14.7695 14.7716 14.773 14.774 14.7742 14.774 14.6149 14.6439 14.6697 14.6849 14.6972 14.7083 14.7178 14.726 14.733 14.7392 14.7446 14.7495 14.7537 14.7576 14.7608 14.7638 14.7662 14.7685 14.7701 14.7716 14.7725 14.7733 14.7736 14.7747 14.6835 14.6984 14.7084 14.7186 14.7256 14.733 14.7388 14.7442 14.7486 14.7528 14.7561 14.7593 14.7618 14.7644 14.7662 14.7682 14.7694 14.7709 14.7717 14.7726 14.7729 14.7736 14.7737 14.7747 14.7496 14.7492 14.7506 14.753 14.7558 14.7585 14.761 14.7634 14.7653 14.7672 14.7685 14.7699 14.7707 14.7718 14.7723 14.773 14.7732 14.7737 14.7737 14.7739 14.7738 14.7739 14.7736 14.7738 14.8123 14.7979 14.7907 14.7872 14.7855 14.7845 14.7837 14.7833 14.7827 14.7823 14.7815 14.7811 14.7803 14.7798 14.7788 14.7784 14.7774 14.777 14.7761 14.7757 14.7749 14.7745 14.7737 14.7732 14.8739 14.8433 14.8285 14.8191 14.8142 14.8095 14.8059 14.8028 14.7997 14.7971 14.7944 14.7921 14.7896 14.7875 14.7852 14.7834 14.7814 14.7799 14.7782 14.7771 14.7757 14.7749 14.7735 14.7722 14.9337 14.8853 14.8598 14.8475 14.8404 14.8332 14.8271 14.8216 14.8163 14.8116 14.8069 14.8028 14.7986 14.795 14.7913 14.7882 14.7851 14.7826 14.78 14.7782 14.7763 14.7752 14.7736 14.7722 15.0598 14.8864 14.885 14.8744 14.8652 14.8561 14.8475 14.8397 14.8323 14.8254 14.8189 14.8127 14.8069 14.8016 14.7966 14.7921 14.7879 14.7843 14.781 14.7784 14.776 14.7745 14.7732 14.7729 14.483 14.6286 14.6348 14.6544 14.6692 14.6852 14.6975 14.7093 14.7183 14.7271 14.7341 14.741 14.7465 14.752 14.7564 14.7607 14.764 14.7672 14.7695 14.7716 14.773 14.774 14.7742 14.774 14.6149 14.6439 14.6697 14.6849 14.6972 14.7083 14.7178 14.7259 14.733 14.7392 14.7446 14.7494 14.7536 14.7575 14.7608 14.7638 14.7662 14.7685 14.7701 14.7716 14.7725 14.7733 14.7736 14.7747 14.6835 14.6985 14.7084 14.7187 14.7257 14.733 14.7388 14.7442 14.7486 14.7527 14.756 14.7593 14.7618 14.7644 14.7662 14.7682 14.7694 14.7709 14.7716 14.7726 14.7729 14.7735 14.7737 14.7747 14.7496 14.7492 14.7506 14.753 14.7558 14.7585 14.761 14.7634 14.7653 14.7671 14.7684 14.7698 14.7707 14.7717 14.7723 14.773 14.7732 14.7737 14.7737 14.774 14.7737 14.7739 14.7736 14.7738 14.8122 14.7979 14.7907 14.7872 14.7855 14.7845 14.7837 14.7833 14.7827 14.7823 14.7815 14.7811 14.7803 14.7798 14.7788 14.7783 14.7774 14.777 14.7761 14.7757 14.7749 14.7745 14.7736 14.7731 14.8738 14.8432 14.8284 14.8191 14.8142 14.8095 14.8059 14.8028 14.7997 14.7971 14.7944 14.7921 14.7896 14.7875 14.7852 14.7834 14.7814 14.7799 14.7782 14.7771 14.7757 14.7748 14.7735 14.7723 14.9337 14.8852 14.8598 14.8475 14.8405 14.8332 14.8271 14.8216 14.8163 14.8116 14.8069 14.8028 14.7986 14.795 14.7912 14.7882 14.7851 14.7826 14.78 14.7782 14.7763 14.7752 14.7736 14.7722 15.0599 14.8865 14.8849 14.8744 14.8652 14.8561 14.8475 14.8397 14.8323 14.8254 14.8189 14.8127 14.8069 14.8016 14.7966 14.7921 14.788 14.7843 14.781 14.7783 14.776 14.7745 14.7732 14.7729 14.4936 14.6341 14.6401 14.6583 14.6723 14.6872 14.6988 14.7099 14.7186 14.7271 14.734 14.7408 14.7463 14.7517 14.7561 14.7604 14.7637 14.7669 14.7693 14.7714 14.7728 14.7738 14.7741 14.774 14.6187 14.6487 14.6737 14.6881 14.6993 14.7096 14.7185 14.7263 14.733 14.7391 14.7444 14.7493 14.7534 14.7573 14.7606 14.7636 14.7661 14.7683 14.7699 14.7715 14.7724 14.7732 14.7736 14.7747 14.686 14.7014 14.711 14.7207 14.727 14.7338 14.7392 14.7443 14.7485 14.7526 14.7559 14.7591 14.7616 14.7642 14.766 14.768 14.7693 14.7708 14.7716 14.7725 14.7729 14.7735 14.7736 14.7747 14.7506 14.7504 14.7517 14.754 14.7566 14.7591 14.7613 14.7636 14.7654 14.7671 14.7684 14.7698 14.7707 14.7717 14.7722 14.7729 14.7732 14.7737 14.7737 14.7739 14.7738 14.7738 14.7736 14.7738 14.8122 14.7974 14.7905 14.7872 14.7858 14.7848 14.784 14.7835 14.7829 14.7824 14.7817 14.7812 14.7803 14.7798 14.7789 14.7784 14.7775 14.777 14.7761 14.7757 14.7749 14.7745 14.7736 14.7731 14.8725 14.8411 14.8268 14.8181 14.8139 14.8096 14.8061 14.803 14.8 14.7974 14.7946 14.7923 14.7898 14.7877 14.7853 14.7835 14.7815 14.78 14.7783 14.7771 14.7758 14.7749 14.7736 14.7723 14.9309 14.8817 14.857 14.8457 14.8396 14.833 14.8271 14.8218 14.8166 14.8119 14.8072 14.803 14.7988 14.7952 14.7914 14.7884 14.7852 14.7828 14.7802 14.7783 14.7764 14.7752 14.7737 14.7722 15.0526 14.8821 14.8811 14.8717 14.8636 14.8553 14.8471 14.8396 14.8323 14.8255 14.819 14.8129 14.8071 14.8019 14.7968 14.7923 14.7882 14.7846 14.7813 14.7786 14.7762 14.7747 14.7733 14.7729 14.52 14.6372 14.6478 14.6653 14.6774 14.6902 14.7003 14.7104 14.7185 14.7266 14.7333 14.74 14.7455 14.751 14.7553 14.7597 14.7631 14.7663 14.7687 14.7709 14.7723 14.7734 14.7738 14.7738 14.6273 14.6564 14.6817 14.694 14.7026 14.7113 14.719 14.726 14.7325 14.7384 14.7436 14.7485 14.7527 14.7567 14.76 14.7631 14.7656 14.7679 14.7696 14.7711 14.7721 14.773 14.7734 14.7746 14.6903 14.7056 14.7162 14.7248 14.7293 14.7349 14.7394 14.7441 14.748 14.752 14.7553 14.7586 14.7611 14.7638 14.7657 14.7677 14.769 14.7705 14.7714 14.7724 14.7728 14.7735 14.7736 14.7746 14.7532 14.7524 14.7542 14.7563 14.7581 14.7601 14.7619 14.7638 14.7654 14.7671 14.7683 14.7697 14.7706 14.7716 14.7721 14.7729 14.7731 14.7736 14.7736 14.7739 14.7737 14.7738 14.7735 14.7738 14.8111 14.7962 14.79 14.7875 14.7864 14.7855 14.7847 14.7841 14.7833 14.7828 14.7819 14.7814 14.7805 14.78 14.779 14.7785 14.7776 14.777 14.7761 14.7757 14.7749 14.7746 14.7737 14.7732 14.8696 14.8376 14.8236 14.8165 14.8136 14.81 14.8068 14.8038 14.8008 14.7982 14.7953 14.7929 14.7902 14.7881 14.7857 14.7838 14.7817 14.7802 14.7785 14.7773 14.7759 14.775 14.7737 14.7723 14.9247 14.874 14.8517 14.8428 14.8387 14.833 14.8276 14.8225 14.8174 14.8128 14.808 14.8038 14.7995 14.7958 14.792 14.7889 14.7857 14.7831 14.7806 14.7787 14.7767 14.7755 14.7739 14.7723 15.0353 14.8758 14.8747 14.8675 14.8615 14.8546 14.8471 14.84 14.8329 14.8263 14.8197 14.8137 14.8079 14.8026 14.7974 14.793 14.7887 14.7852 14.7818 14.7791 14.7767 14.775 14.7736 14.7731 14.4828 14.6835 14.6709 14.6746 14.6816 14.6903 14.6989 14.7079 14.7157 14.7239 14.7308 14.7377 14.7434 14.7491 14.7537 14.7582 14.7617 14.7651 14.7676 14.7698 14.7714 14.7727 14.7734 14.7737 14.5986 14.6898 14.6993 14.7008 14.7037 14.7094 14.7157 14.7222 14.7287 14.7348 14.7405 14.7458 14.7505 14.7548 14.7585 14.7618 14.7646 14.7671 14.7689 14.7706 14.7717 14.7727 14.7732 14.7744 14.6778 14.7286 14.7289 14.7317 14.7329 14.7359 14.7393 14.7432 14.7469 14.7508 14.7541 14.7575 14.7602 14.763 14.765 14.7672 14.7686 14.7702 14.7711 14.7721 14.7726 14.7733 14.7735 14.7744 14.7486 14.7599 14.7611 14.7605 14.7608 14.7617 14.7627 14.7643 14.7656 14.7671 14.7683 14.7696 14.7705 14.7715 14.772 14.7727 14.773 14.7735 14.7735 14.7738 14.7737 14.7738 14.7736 14.7737 14.8159 14.7903 14.7885 14.7884 14.7878 14.7869 14.786 14.7852 14.7843 14.7837 14.7826 14.782 14.781 14.7803 14.7793 14.7787 14.7777 14.7772 14.7763 14.7758 14.7751 14.7747 14.7739 14.7733 14.8826 14.8175 14.8169 14.8149 14.8137 14.8112 14.8085 14.8056 14.8026 14.7998 14.7967 14.7941 14.7913 14.789 14.7865 14.7844 14.7823 14.7806 14.7788 14.7776 14.7762 14.7752 14.7739 14.7726 14.9466 14.8486 14.8419 14.8407 14.839 14.8349 14.8302 14.8254 14.8202 14.8154 14.8104 14.8059 14.8013 14.7974 14.7933 14.79 14.7866 14.7839 14.7812 14.7792 14.7772 14.7758 14.7742 14.7726 15.0564 14.8438 14.8632 14.8658 14.8621 14.8564 14.8495 14.8428 14.8356 14.829 14.8222 14.816 14.8099 14.8045 14.7991 14.7945 14.7901 14.7864 14.7829 14.7801 14.7776 14.7758 14.7741 14.7733 
SCALARS volume_diff float 1
LOOKUP_TABLE default
14.479 14.6681 14.6699 14.6713 14.6779 14.687 14.696 14.7047 14.7134 14.721 14.7286 14.735 14.7414 14.7467 14.7518 14.7559 14.7598 14.7629 14.7657 14.7677 14.7696 14.7706 14.7715 14.7716 14.5961 14.6871 14.697 14.6994 14.7022 14.7079 14.7141 14.7206 14.7271 14.7332 14.7389 14.7441 14.7488 14.753 14.7567 14.76 14.7628 14.7652 14.7671 14.7687 14.7699 14.7708 14.7714 14.7725 14.6748 14.7257 14.7276 14.7293 14.7309 14.734 14.7374 14.7413 14.7452 14.7489 14.7524 14.7556 14.7584 14.761 14.7632 14.7651 14.7668 14.7681 14.7693 14.7701 14.7707 14.7712 14.7716 14.7723 14.746 14.7567 14.7591 14.7586 14.7589 14.7598 14.7609 14.7623 14.7638 14.7652 14.7665 14.7676 14.7687 14.7695 14.7702 14.7708 14.7712 14.7715 14.7717 14.7718 14.7719 14.7718 14.7718 14.7718 14.8126 14.7896 14.7862 14.7865 14.7857 14.7848 14.7841 14.7832 14.7825 14.7817 14.7808 14.78 14.7792 14.7783 14.7775 14.7767 14.7759 14.7751 14.7745 14.7738 14.7732 14.7726 14.772 14.7712 14.8795 14.8176 14.815 14.8133 14.8118 14.8093 14.8065 14.8037 14.8007 14.7978 14.7949 14.7922 14.7895 14.787 14.7847 14.7825 14.7805 14.7787 14.777 14.7756 14.7744 14.7733 14.7721 14.7707 14.9422 14.8508 14.8391 14.8389 14.837 14.8328 14.8282 14.8233 14.8183 14.8133 14.8085 14.8039 14.7995 14.7953 14.7915 14.788 14.7847 14.7819 14.7793 14.7771 14.7753 14.7738 14.7724 14.7705 15.0543 14.851 14.8625 14.8633 14.86 14.8541 14.8474 14.8405 14.8336 14.8268 14.8202 14.8139 14.808 14.8024 14.7972 14.7925 14.7883 14.7844 14.7811 14.7782 14.7758 14.7738 14.7723 14.7712 14.5164 14.6348 14.6464 14.6635 14.6756 14.6884 14.6986 14.7086 14.7168 14.7248 14.7316 14.7382 14.7437 14.7491 14.7535 14.7577 14.7612 14.7643 14.7667 14.7689 14.7704 14.7714 14.7718 14.7719 14.6253 14.6543 14.6788 14.6913 14.7002 14.7089 14.7167 14.7238 14.7303 14.7362 14.7416 14.7464 14.7507 14.7547 14.758 14.7611 14.7636 14.7659 14.7676 14.7691 14.7701 14.771 14.7714 14.7726 14.6876 14.7029 14.7141 14.7226 14.7272 14.7329 14.7375 14.7422 14.7462 14.7501 14.7534 14.7567 14.7593 14.7619 14.7638 14.7659 14.7672 14.7687 14.7695 14.7705 14.7709 14.7715 14.7717 14.7727 14.7508 14.7502 14.752 14.7541 14.756 14.758 14.7599 14.7619 14.7635 14.7652 14.7664 14.7678 14.7686 14.7696 14.7702 14.7709 14.7712 14.7716 14.7716 14.7719 14.7718 14.7719 14.7716 14.7718 14.8091 14.7944 14.7882 14.7857 14.7845 14.7836 14.7828 14.7822 14.7814 14.7809 14.7801 14.7796 14.7786 14.7781 14.7771 14.7766 14.7757 14.7752 14.7743 14.7738 14.773 14.7726 14.7718 14.7713 14.8683 14.8363 14.8216 14.8146 14.8116 14.808 14.8048 14.8019 14.7989 14.7962 14.7934 14.791 14.7883 14.7862 14.7838 14.7819 14.7798 14.7782 14.7765 14.7753 14.7739 14.773 14.7717 14.7703 14.9249 14.8742 14.8504 14.8413 14.8369 14.8312 14.8259 14.8207 14.8156 14.811 14.8062 14.802 14.7977 14.794 14.7901 14.787 14.7838 14.7812 14.7787 14.7768 14.7749 14.7736 14.772 14.7703 15.0354 14.8749 14.8731 14.8659 14.8597 14.8527 14.8453 14.8382 14.8311 14.8245 14.8179 14.8118 14.806 14.8007 14.7956 14.7911 14.7868 14.7833 14.7799 14.7772 14.7748 14.7731 14.7716 14.7711 14.4906 14.6323 14.6379 14.6564 14.6704 14.6854 14.6969 14.7081 14.7167 14.7253 14.7321 14.7389 14.7444 14.7499 14.7542 14.7585 14.7618 14.765 14.7673 14.7694 14.7708 14.7718 14.7721 14.772 14.6165 14.6464 14.6716 14.686 14.6972 14.7077 14.7165 14.7243 14.7311 14.7372 14.7425 14.7473 14.7515 14.7554 14.7586 14.7617 14.7641 14.7663 14.768 14.7695 14.7704 14.7713 14.7716 14.7727 14.6839 14.6993 14.7088 14.7186 14.7249 14.7318 14.7372 14.7424 14.7466 14.7507 14.7539 14.7572 14.7597 14.7623 14.7641 14.7661 14.7674 14.7688 14.7696 14.7706 14.771 14.7716 14.7717 14.7727 14.7485 14.7483 14.7496 14.752 14.7545 14.7571 14.7593 14.7616 14.7634 14.7652 14.7665 14.7679 14.7687 14.7698 14.7703 14.771 14.7712 14.7717 14.7717 14.772 14.7718 14.7719 14.7716 14.7719 14.8102 14.7956 14.7886 14.7853 14.7838 14.7828 14.782 14.7816 14.7809 14.7805 14.7797 14.7793 14.7784 14.7779 14.777 14.7765 14.7755 14.7751 14.7742 14.7737 14.7729 14.7726 14.7717 14.7712 14.8708 14.8395 14.825 14.8162 14.812 14.8076 14.8041 14.8011 14.798 14.7955 14.7927 14.7904 14.7878 14.7857 14.7834 14.7816 14.7795 14.778 14.7764 14.7752 14.7738 14.7729 14.7716 14.7703 14.9297 14.8803 14.8554 14.8439 14.8377 14.831 14.8251 14.8198 14.8146 14.81 14.8052 14.8011 14.7969 14.7933 14.7895 14.7865 14.7833 14.7808 14.7783 14.7764 14.7745 14.7733 14.7717 14.7702 15.0511 14.881 14.8794 14.8699 14.8616 14.8534 14.8452 14.8377 14.8304 14.8236 14.8171 14.811 14.8052 14.7999 14.7949 14.7904 14.7862 14.7826 14.7793 14.7766 14.7743 14.7727 14.7713 14.771 14.481 14.6264 14.6331 14.6524 14.6673 14.6833 14.6956 14.7074 14.7164 14.7252 14.7322 14.7391 14.7446 14.7501 14.7544 14.7587 14.7621 14.7652 14.7676 14.7697 14.7711 14.772 14.7723 14.7721 14.613 14.6419 14.6677 14.683 14.6952 14.7064 14.7158 14.724 14.731 14.7372 14.7426 14.7475 14.7517 14.7556 14.7588 14.7619 14.7643 14.7665 14.7681 14.7697 14.7705 14.7714 14.7717 14.7728 14.6816 14.6965 14.7064 14.7167 14.7237 14.731 14.7368 14.7423 14.7466 14.7508 14.7541 14.7574 14.7598 14.7624 14.7642 14.7662 14.7675 14.769 14.7697 14.7707 14.771 14.7716 14.7717 14.7727 14.7477 14.7473 14.7486 14.751 14.7538 14.7566 14.7591 14.7615 14.7633 14.7652 14.7665 14.7679 14.7688 14.7698 14.7703 14.771 14.7713 14.7717 14.7717 14.772 14.7718 14.7719 14.7716 14.7719 14.8103 14.796 14.7888 14.7853 14.7836 14.7825 14.7817 14.7813 14.7807 14.7803 14.7796 14.7792 14.7783 14.7778 14.7769 14.7764 14.7755 14.775 14.7741 14.7737 14.7729 14.7726 14.7717 14.7712 14.8719 14.8413 14.8265 14.8171 14.8122 14.8076 14.8039 14.8008 14.7978 14.7952 14.7925 14.7901 14.7876 14.7856 14.7833 14.7815 14.7794 14.778 14.7763 14.7751 14.7738 14.7729 14.7716 14.7703 14.9318 14.8833 14.8578 14.8455 14.8385 14.8313 14.8251 14.8196 14.8144 14.8097 14.805 14.8008 14.7966 14.793 14.7893 14.7863 14.7831 14.7806 14.7781 14.7763 14.7744 14.7732 14.7717 14.7703 15.0578 14.8844 14.8831 14.8725 14.8633 14.8542 14.8455 14.8377 14.8303 14.8234 14.8169 14.8108 14.805 14.7996 14.7946 14.7901 14.786 14.7823 14.7791 14.7764 14.7741 14.7726 14.7712 14.7709 14.4811 14.6267 14.6329 14.6524 14.6673 14.6833 14.6956 14.7073 14.7164 14.7252 14.7322 14.7391 14.7446 14.7501 14.7544 14.7587 14.762 14.7652 14.7676 14.7697 14.7711 14.772 14.7722 14.7721 14.6129 14.6419 14.6678 14.683 14.6952 14.7064 14.7158 14.724 14.731 14.7372 14.7426 14.7475 14.7517 14.7556 14.7588 14.7619 14.7643 14.7665 14.7681 14.7696 14.7705 14.7714 14.7716 14.7728 14.6816 14.6965 14.7065 14.7167 14.7237 14.731 14.7368 14.7423 14.7466 14.7508 14.7541 14.7573 14.7598 14.7624 14.7642 14.7662 14.7675 14.7689 14.7697 14.7707 14.771 14.7716 14.7717 14.7727 14.7477 14.7473 14.7486 14.751 14.7538 14.7566 14.7591 14.7614 14.7633 14.7652 14.7665 14.7679 14.7687 14.7698 14.7703 14.771 14.7713 14.7717 14.7717 14.772 14.7718 14.7719 14.7716 14.7719 14.8103 14.7959 14.7888 14.7853 14.7836 14.7825 14.7818 14.7813 14.7807 14.7804 14.7796 14.7791 14.7783 14.7778 14.7769 14.7764 14.7755 14.775 14.7742 14.7737 14.7729 14.7726 14.7717 14.7712 14.8719 14.8413 14.8265 14.8171 14.8122 14.8076 14.8039 14.8008 14.7978 14.7952 14.7925 14.7901 14.7876 14.7856 14.7832 14.7815 14.7794 14.778 14.7763 14.7751 14.7738 14.7729 14.7716 14.7703 14.9317 14.8832 14.8578 14.8455 14.8385 14.8313 14.8251 14.8196 14.8143 14.8097 14.805 14.8008 14.7966 14.793 14.7893 14.7862 14.7831 14.7806 14.7781 14.7763 14.7744 14.7732 14.7717 14.7703 15.0579 14.8845 14.883 14.8724 14.8633 14.8541 14.8455 14.8377 14.8303 14.8234 14.8169 14.8107 14.805 14.7996 14.7946 14.7901 14.786 14.7824 14.7791 14.7764 14.7741 14.7726 14.7712 14.7709 14.4916 14.6322 14.6381 14.6564 14.6704 14.6852 14.6968 14.7079 14.7167 14.7252 14.732 14.7388 14.7444 14.7498 14.7542 14.7584 14.7618 14.7649 14.7673 14.7694 14.7709 14.7718 14.7721 14.772 14.6167 14.6468 14.6718 14.6862 14.6973 14.7077 14.7165 14.7243 14.7311 14.7371 14.7425 14.7473 14.7515 14.7554 14.7586 14.7617 14.7641 14.7663 14.7679 14.7695 14.7704 14.7712 14.7716 14.7728 14.684 14.6995 14.7091 14.7187 14.725 14.7318 14.7372 14.7424 14.7466 14.7506 14.7539 14.7572 14.7596 14.7622 14.7641 14.7661 14.7674 14.7688 14.7696 14.7706 14.7709 14.7715 14.7717 14.7727 14.7487 14.7484 14.7497 14.7521 14.7546 14.7571 14.7594 14.7616 14.7634 14.7652 14.7665 14.7679 14.7687 14.7697 14.7702 14.771 14.7712 14.7717 14.7717 14.772 14.7718 14.7719 14.7716 14.7719 14.8102 14.7955 14.7886 14.7853 14.7838 14.7828 14.782 14.7816 14.7809 14.7805 14.7797 14.7792 14.7784 14.7779 14.7769 14.7764 14.7755 14.775 14.7742 14.7738 14.7729 14.7726 14.7717 14.7712 14.8705 14.8391 14.8249 14.8162 14.812 14.8076 14.8042 14.8011 14.7981 14.7955 14.7927 14.7904 14.7878 14.7857 14.7834 14.7816 14.7795 14.7781 14.7764 14.7752 14.7738 14.7729 14.7716 14.7703 14.929 14.8798 14.855 14.8437 14.8377 14.831 14.8251 14.8198 14.8146 14.8099 14.8052 14.8011 14.7969 14.7933 14.7895 14.7864 14.7833 14.7808 14.7783 14.7764 14.7745 14.7733 14.7717 14.7703 15.0506 14.8802 14.8792 14.8697 14.8616 14.8534 14.8452 14.8377 14.8304 14.8236 14.8171 14.811 14.8052 14.7999 14.7949 14.7904 14.7862 14.7826 14.7793 14.7766 14.7743 14.7727 14.7713 14.771 14.518 14.6352 14.6458 14.6633 14.6755 14.6882 14.6983 14.7084 14.7165 14.7247 14.7313 14.7381 14.7436 14.7491 14.7534 14.7577 14.7611 14.7643 14.7667 14.7689 14.7704 14.7715 14.7719 14.7719 14.6254 14.6544 14.6797 14.692 14.7007 14.7093 14.717 14.7241 14.7305 14.7364 14.7417 14.7465 14.7508 14.7548 14.758 14.7612 14.7636 14.7659 14.7676 14.7692 14.7701 14.771 14.7714 14.7727 14.6883 14.7036 14.7143 14.7229 14.7273 14.7329 14.7374 14.7421 14.7461 14.7501 14.7533 14.7566 14.7591 14.7618 14.7637 14.7658 14.7671 14.7686 14.7694 14.7705 14.7708 14.7715 14.7716 14.7727 14.7513 14.7505 14.7522 14.7543 14.7562 14.7582 14.7599 14.7619 14.7635 14.7651 14.7664 14.7677 14.7686 14.7696 14.7701 14.7709 14.7711 14.7716 14.7717 14.7719 14.7718 14.7719 14.7716 14.7719 14.8091 14.7942 14.788 14.7855 14.7844 14.7836 14.7827 14.7822 14.7814 14.7808 14.78 14.7795 14.7786 14.778 14.7771 14.7765 14.7756 14.7751 14.7742 14.7738 14.773 14.7726 14.7717 14.7712 14.8677 14.8356 14.8216 14.8145 14.8117 14.808 14.8048 14.8019 14.7989 14.7962 14.7934 14.7909 14.7883 14.7861 14.7837 14.7819 14.7798 14.7782 14.7765 14.7753 14.774 14.773 14.7717 14.7703 14.9227 14.872 14.8498 14.8408 14.8367 14.8311 14.8257 14.8206 14.8155 14.8108 14.8061 14.8018 14.7975 14.7939 14.7901 14.7869 14.7837 14.7812 14.7786 14.7767 14.7748 14.7735 14.7719 14.7703 15.0333 14.8739 14.8727 14.8655 14.8596 14.8526 14.8452 14.8381 14.831 14.8244 14.8178 14.8117 14.8059 14.8006 14.7955 14.7911 14.7868 14.7832 14.7798 14.7772 14.7747 14.7731 14.7716 14.7711 14.4809 14.6816 14.6689 14.6727 14.6797 14.6883 14.6969 14.7059 14.7138 14.7219 14.7288 14.7357 14.7415 14.7471 14.7518 14.7562 14.7598 14.7631 14.7656 14.7679 14.7695 14.7708 14.7715 14.7717 14.5966 14.6879 14.6973 14.6988 14.7018 14.7075 14.7137 14.7202 14.7267 14.7329 14.7386 14.7439 14.7485 14.7529 14.7565 14.7599 14.7626 14.7651 14.767 14.7687 14.7698 14.7707 14.7713 14.7724 14.6759 14.7266 14.7269 14.7298 14.731 14.734 14.7373 14.7412 14.7449 14.7489 14.7521 14.7556 14.7582 14.761 14.763 14.7652 14.7666 14.7682 14.7691 14.7702 14.7706 14.7713 14.7715 14.7725 14.7466 14.758 14.7591 14.7586 14.7588 14.7597 14.7608 14.7623 14.7636 14.7652 14.7663 14.7676 14.7685 14.7695 14.77 14.7708 14.771 14.7715 14.7716 14.7718 14.7717 14.7718 14.7716 14.7718 14.814 14.7883 14.7865 14.7864 14.7859 14.7849 14.7841 14.7833 14.7824 14.7817 14.7807 14.7801 14.779 14.7784 14.7774 14.7768 14.7758 14.7752 14.7744 14.7739 14.7731 14.7728 14.7719 14.7714 14.8806 14.8156 14.8149 14.8129 14.8118 14.8093 14.8065 14.8037 14.8006 14.7978 14.7948 14.7922 14.7894 14.787 14.7845 14.7825 14.7803 14.7787 14.7769 14.7756 14.7742 14.7733 14.772 14.7707 14.9447 14.8466 14.84 14.8388 14.837 14.833 14.8283 14.8234 14.8182 14.8134 14.8084 14.804 14.7994 14.7954 14.7914 14.7881 14.7847 14.782 14.7792 14.7772 14.7752 14.7739 14.7723 14.7707 15.0545 14.8419 14.8612 14.8638 14.8602 14.8545 14.8475 14.8408 14.8337 14.827 14.8202 14.8141 14.808 14.8025 14.7972 14.7926 14.7882 14.7845 14.781 14.7782 14.7756 14.7739 14.7721 14.7713 
