# vtk DataFile Version 5.1
vtk output
ASCII

DATASET UNSTRUCTURED_GRID
POINTS 14161 float
0 0 1.1
0.125 0 1.1
0.25 0 1.1
0.375 0 1.1
0.5 0 1.1
0.625 0 1.1
0.75 0 1.1
0.875 0 1.1
1 0 1.1
1.125 0 1.1
1.25 0 1.1
1.375 0 1.1
1.5 0 1.1
1.625 0 1.1
1.75 0 1.1
1.875 0 1.1
2 0 1.1
2.125 0 1.1
2.25 0 1.1
2.375 0 1.1
2.5 0 1.1
2.625 0 1.1
2.75 0 1.1
2.875 0 1.1
3 0 1.1
0 0.125 1.1
0.125 0.125 1.1
0.25 0.125 1.1
0.375 0.125 1.1
0.5 0.125 1.1
0.625 0.125 1.1
0.75 0.125 1.1
0.875 0.125 1.1
1 0.125 1.1
1.125 0.125 1.1
1.25 0.125 1.1
1.375 0.125 1.1
1.5 0.125 1.1
1.625 0.125 1.1
1.75 0.125 1.1
1.875 0.125 1.1
2 0.125 1.1
2.125 0.125 1.1
2.25 0.125 1.1
2.375 0.125 1.1
2.5 0.125 1.1
2.625 0.125 1.1
2.75 0.125 1.1
2.875 0.125 1.1
3 0.125 1.1
0 0.25 1.1
0.125 0.25 1.1
0.25 0.25 1.1
0.375 0.25 1.1
0.5 0.25 1.1
0.625 0.25 1.1
0.75 0.25 1.1
0.875 0.25 1.1
1 0.25 1.1
1.125 0.25 1.1
1.25 0.25 1.1
1.375 0.25 1.1
1.5 0.25 1.1
1.625 0.25 1.1
1.75 0.25 1.1
1.875 0.25 1.1
2 0.25 1.1
2.125 0.25 1.1
2.25 0.25 1.1
2.375 0.25 1.1
2.5 0.25 1.1
2.625 0.25 1.1
2.75 0.25 1.1
2.875 0.25 1.1
3 0.25 1.1
0 0.375 1.1
0.125 0.375 1.1
0.25 0.375 1.1
0.375 0.375 1.1
0.5 0.375 1.1
0.625 0.375 1.1
0.75 0.375 1.1
0.875 0.375 1.1
1 0.375 1.1
1.125 0.375 1.1
1.25 0.375 1.1
1.375 0.375 1.1
1.5 0.375 1.1
1.625 0.375 1.1
1.75 0.375 1.1
1.875 0.375 1.1
2 0.375 1.1
2.125 0.375 1.1
2.25 0.375 1.1
2.375 0.375 1.1
2.5 0.375 1.1
2.625 0.375 1.1
2.75 0.375 1.1
2.875 0.375 1.1
3 0.375 1.1
0 0.5 1.1
0.125 0.5 1.1
0.25 0.5 1.1
0.375 0.5 1.1
0.5 0.5 1.1
0.625 0.5 1.1
0.75 0.5 1.1
0.875 0.5 1.1
1 0.5 1.1
1.125 0.5 1.1
1.25 0.5 1.1
1.375 0.5 1.1
1.5 0.5 1.1
1.625 0.5 1.1
1.75 0.5 1.1
1.875 0.5 1.1
2 0.5 1.1
2.125 0.5 1.1
2.25 0.5 1.1
2.375 0.5 1.1
2.5 0.5 1.1
2.625 0.5 1.1
2.75 0.5 1.1
2.875 0.5 1.1
3 0.5 1.1
0 0.625 1.1
0.125 0.625 1.1
0.25 0.625 1.1
0.375 0.625 1.1
0.5 0.625 1.1
0.625 0.625 1.1
0.75 0.625 1.1
0.875 0.625 1.1
1 0.625 1.1
1.125 0.625 1.1
1.25 0.625 1.1
1.375 0.625 1.1
1.5 0.625 1.1
1.625 0.625 1.1
1.75 0.625 1.1
1.875 0.625 1.1
2 0.625 1.1
2.125 0.625 1.1
2.25 0.625 1.1
2.375 0.625 1.1
2.5 0.625 1.1
2.625 0.625 1.1
2.75 0.625 1.1
2.875 0.625 1.1
3 0.625 1.1
0 0.75 1.1
0.125 0.75 1.1
0.25 0.75 1.1
0.375 0.75 1.1
0.5 0.75 1.1
0.625 0.75 1.1
0.75 0.75 1.1
0.875 0.75 1.1
1 0.75 1.1
1.125 0.75 1.1
1.25 0.75 1.1
1.375 0.75 1.1
1.5 0.75 1.1
1.625 0.75 1.1
1.75 0.75 1.1
1.875 0.75 1.1
2 0.75 1.1
2.125 0.75 1.1
2.25 0.75 1.1
2.375 0.75 1.1
2.5 0.75 1.1
2.625 0.75 1.1
2.75 0.75 1.1
2.875 0.75 1.1
3 0.75 1.1
0 0.875 1.1
0.125 0.875 1.1
0.25 0.875 1.1
0.375 0.875 1.1
0.5 0.875 1.1
0.625 0.875 1.1
0.75 0.875 1.1
0.875 0.875 1.1
1 0.875 1.1
1.125 0.875 1.1
1.25 0.875 1.1
1.375 0.875 1.1
1.5 0.875 1.1
1.625 0.875 1.1
1.75 0.875 1.1
1.875 0.875 1.1
2 0.875 1.1
2.125 0.875 1.1
2.25 0.875 1.1
2.375 0.875 1.1
2.5 0.875 1.1
2.625 0.875 1.1
2.75 0.875 1.1
2.875 0.875 1.1
3 0.875 1.1
0 1 1.1
0.125 1 1.1
0.25 1 1.1
0.375 1 1.1
0.5 1 1.1
0.625 1 1.1
0.75 1 1.1
0.875 1 1.1
1 1 1.1
1.125 1 1.1
1.25 1 1.1
1.375 1 1.1
1.5 1 1.1
1.625 1 1.1
1.75 1 1.1
1.875 1 1.1
2 1 1.1
2.125 1 1.1
2.25 1 1.1
2.375 1 1.1
2.5 1 1.1
2.625 1 1.1
2.75 1 1.1
2.875 1 1.1
3 1 1.1
0 0 1.225
0.125 0 1.225
0.25 0 1.225
0.375 0 1.225
0.5 0 1.225
0.625 0 1.225
0.75 0 1.225
0.875 0 1.225
1 0 1.225
1.125 0 1.225
1.25 0 1.225
1.375 0 1.225
1.5 0 1.225
1.625 0 1.225
1.75 0 1.225
1.875 0 1.225
2 0 1.225
2.125 0 1.225
2.25 0 1.225
2.375 0 1.225
2.5 0 1.225
2.625 0 1.225
2.75 0 1.225
2.875 0 1.225
3 0 1.225
0 0.125 1.225
0.125 0.125 1.225
0.25 0.125 1.225
0.375 0.125 1.225
0.5 0.125 1.225
0.625 0.125 1.225
0.75 0.125 1.225
0.875 0.125 1.225
1 0.125 1.225
1.125 0.125 1.225
1.25 0.125 1.225
1.375 0.125 1.225
1.5 0.125 1.225
1.625 0.125 1.225
1.75 0.125 1.225
1.875 0.125 1.225
2 0.125 1.225
2.125 0.125 1.225
2.25 0.125 1.225
2.375 0.125 1.225
2.5 0.125 1.225
2.625 0.125 1.225
2.75 0.125 1.225
2.875 0.125 1.225
3 0.125 1.225
0 0.25 1.225
0.125 0.25 1.225
0.25 0.25 1.225
0.375 0.25 1.225
0.5 0.25 1.225
0.625 0.25 1.225
0.75 0.25 1.225
0.875 0.25 1.225
1 0.25 1.225
1.125 0.25 1.225
1.25 0.25 1.225
1.375 0.25 1.225
1.5 0.25 1.225
1.625 0.25 1.225
1.75 0.25 1.225
1.875 0.25 1.225
2 0.25 1.225
2.125 0.25 1.225
2.25 0.25 1.225
2.375 0.25 1.225
2.5 0.25 1.225
2.625 0.25 1.225
2.75 0.25 1.225
2.875 0.25 1.225
3 0.25 1.225
0 0.375 1.225
0.125 0.375 1.225
0.25 0.375 1.225
0.375 0.375 1.225
0.5 0.375 1.225
0.625 0.375 1.225
0.75 0.375 1.225
0.875 0.375 1.225
1 0.375 1.225
1.125 0.375 1.225
1.25 0.375 1.225
1.375 0.375 1.225
1.5 0.375 1.225
1.625 0.375 1.225
1.75 0.375 1.225
1.875 0.375 1.225
2 0.375 1.225
2.125 0.375 1.225
2.25 0.375 1.225
2.375 0.375 1.225
2.5 0.375 1.225
2.625 0.375 1.225
2.75 0.375 1.225
2.875 0.375 1.225
3 0.375 1.225
0 0.5 1.225
0.125 0.5 1.225
0.25 0.5 1.225
0.375 0.5 1.225
0.5 0.5 1.225
0.625 0.5 1.225
0.75 0.5 1.225
0.875 0.5 1.225
1 0.5 1.225
1.125 0.5 1.225
1.25 0.5 1.225
1.375 0.5 1.225
1.5 0.5 1.225
1.625 0.5 1.225
1.75 0.5 1.225
1.875 0.5 1.225
2 0.5 1.225
2.125 0.5 1.225
2.25 0.5 1.225
2.375 0.5 1.225
2.5 0.5 1.225
2.625 0.5 1.225
2.75 0.5 1.225
2.875 0.5 1.225
3 0.5 1.225
0 0.625 1.225
0.125 0.625 1.225
0.25 0.625 1.225
0.375 0.625 1.225
0.5 0.625 1.225
0.625 0.625 1.225
0.75 0.625 1.225
0.875 0.625 1.225
1 0.625 1.225
1.125 0.625 1.225
1.25 0.625 1.225
1.375 0.625 1.225
1.5 0.625 1.225
1.625 0.625 1.225
1.75 0.625 1.225
1.875 0.625 1.225
2 0.625 1.225
2.125 0.625 1.225
2.25 0.625 1.225
2.375 0.625 1.225
2.5 0.625 1.225
2.625 0.625 1.225
2.75 0.625 1.225
2.875 0.625 1.225
3 0.625 1.225
0 0.75 1.225
0.125 0.75 1.225
0.25 0.75 1.225
0.375 0.75 1.225
0.5 0.75 1.225
0.625 0.75 1.225
0.75 0.75 1.225
0.875 0.75 1.225
1 0.75 1.225
1.125 0.75 1.225
1.25 0.75 1.225
1.375 0.75 1.225
1.5 0.75 1.225
1.625 0.75 1.225
1.75 0.75 1.225
1.875 0.75 1.225
2 0.75 1.225
2.125 0.75 1.225
2.25 0.75 1.225
2.375 0.75 1.225
2.5 0.75 1.225
2.625 0.75 1.225
2.75 0.75 1.225
2.875 0.75 1.225
3 0.75 1.225
0 0.875 1.225
0.125 0.875 1.225
0.25 0.875 1.225
0.375 0.875 1.225
0.5 0.875 1.225
0.625 0.875 1.225
0.75 0.875 1.225
0.875 0.875 1.225
1 0.875 1.225
1.125 0.875 1.225
1.25 0.875 1.225
1.375 0.875 1.225
1.5 0.875 1.225
1.625 0.875 1.225
1.75 0.875 1.225
1.875 0.875 1.225
2 0.875 1.225
2.125 0.875 1.225
2.25 0.875 1.225
2.375 0.875 1.225
2.5 0.875 1.225
2.625 0.875 1.225
2.75 0.875 1.225
2.875 0.875 1.225
3 0.875 1.225
0 1 1.225
0.125 1 1.225
0.25 1 1.225
0.375 1 1.225
0.5 1 1.225
0.625 1 1.225
0.75 1 1.225
0.875 1 1.225
1 1 1.225
1.125 1 1.225
1.25 1 1.225
1.375 1 1.225
1.5 1 1.225
1.625 1 1.225
1.75 1 1.225
1.875 1 1.225
2 1 1.225
2.125 1 1.225
2.25 1 1.225
2.375 1 1.225
2.5 1 1.225
2.625 1 1.225
2.75 1 1.225
2.875 1 1.225
3 1 1.225
0 0 1.35
0.125 0 1.35
0.25 0 1.35
0.375 0 1.35
0.5 0 1.35
0.625 0 1.35
0.75 0 1.35
0.875 0 1.35
1 0 1.35
1.125 0 1.35
1.25 0 1.35
1.375 0 1.35
1.5 0 1.35
1.625 0 1.35
1.75 0 1.35
1.875 0 1.35
2 0 1.35
2.125 0 1.35
2.25 0 1.35
2.375 0 1.35
2.5 0 1.35
2.625 0 1.35
2.75 0 1.35
2.875 0 1.35
3 0 1.35
0 0.125 1.35
0.125 0.125 1.35
0.25 0.125 1.35
0.375 0.125 1.35
0.5 0.125 1.35
0.625 0.125 1.35
0.75 0.125 1.35
0.875 0.125 1.35
1 0.125 1.35
1.125 0.125 1.35
1.25 0.125 1.35
1.375 0.125 1.35
1.5 0.125 1.35
1.625 0.125 1.35
1.75 0.125 1.35
1.875 0.125 1.35
2 0.125 1.35
2.125 0.125 1.35
2.25 0.125 1.35
2.375 0.125 1.35
2.5 0.125 1.35
2.625 0.125 1.35
2.75 0.125 1.35
2.875 0.125 1.35
3 0.125 1.35
0 0.25 1.35
0.125 0.25 1.35
0.25 0.25 1.35
0.375 0.25 1.35
0.5 0.25 1.35
0.625 0.25 1.35
0.75 0.25 1.35
0.875 0.25 1.35
1 0.25 1.35
1.125 0.25 1.35
1.25 0.25 1.35
1.375 0.25 1.35
1.5 0.25 1.35
1.625 0.25 1.35
1.75 0.25 1.35
1.875 0.25 1.35
2 0.25 1.35
2.125 0.25 1.35
2.25 0.25 1.35
2.375 0.25 1.35
2.5 0.25 1.35
2.625 0.25 1.35
2.75 0.25 1.35
2.875 0.25 1.35
3 0.25 1.35
0 0.375 1.35
0.125 0.375 1.35
0.25 0.375 1.35
0.375 0.375 1.35
0.5 0.375 1.35
0.625 0.375 1.35
0.75 0.375 1.35
0.875 0.375 1.35
1 0.375 1.35
1.125 0.375 1.35
1.25 0.375 1.35
1.375 0.375 1.35
1.5 0.375 1.35
1.625 0.375 1.35
1.75 0.375 1.35
1.875 0.375 1.35
2 0.375 1.35
2.125 0.375 1.35
2.25 0.375 1.35
2.375 0.375 1.35
2.5 0.375 1.35
2.625 0.375 1.35
2.75 0.375 1.35
2.875 0.375 1.35
3 0.375 1.35
0 0.5 1.35
0.125 0.5 1.35
0.25 0.5 1.35
0.375 0.5 1.35
0.5 0.5 1.35
0.625 0.5 1.35
0.75 0.5 1.35
0.875 0.5 1.35
1 0.5 1.35
1.125 0.5 1.35
1.25 0.5 1.35
1.375 0.5 1.35
1.5 0.5 1.35
1.625 0.5 1.35
1.75 0.5 1.35
1.875 0.5 1.35
2 0.5 1.35
2.125 0.5 1.35
2.25 0.5 1.35
2.375 0.5 1.35
2.5 0.5 1.35
2.625 0.5 1.35
2.75 0.5 1.35
2.875 0.5 1.35
3 0.5 1.35
0 0.625 1.35
0.125 0.625 1.35
0.25 0.625 1.35
0.375 0.625 1.35
0.5 0.625 1.35
0.625 0.625 1.35
0.75 0.625 1.35
0.875 0.625 1.35
1 0.625 1.35
1.125 0.625 1.35
1.25 0.625 1.35
1.375 0.625 1.35
1.5 0.625 1.35
1.625 0.625 1.35
1.75 0.625 1.35
1.875 0.625 1.35
2 0.625 1.35
2.125 0.625 1.35
2.25 0.625 1.35
2.375 0.625 1.35
2.5 0.625 1.35
2.625 0.625 1.35
2.75 0.625 1.35
2.875 0.625 1.35
3 0.625 1.35
0 0.75 1.35
0.125 0.75 1.35
0.25 0.75 1.35
0.375 0.75 1.35
0.5 0.75 1.35
0.625 0.75 1.35
0.75 0.75 1.35
0.875 0.75 1.35
1 0.75 1.35
1.125 0.75 1.35
1.25 0.75 1.35
1.375 0.75 1.35
1.5 0.75 1.35
1.625 0.75 1.35
1.75 0.75 1.35
1.875 0.75 1.35
2 0.75 1.35
2.125 0.75 1.35
2.25 0.75 1.35
2.375 0.75 1.35
2.5 0.75 1.35
2.625 0.75 1.35
2.75 0.75 1.35
2.875 0.75 1.35
3 0.75 1.35
0 0.875 1.35
0.125 0.875 1.35
0.25 0.875 1.35
0.375 0.875 1.35
0.5 0.875 1.35
0.625 0.875 1.35
0.75 0.875 1.35
0.875 0.875 1.35
1 0.875 1.35
1.125 0.875 1.35
1.25 0.875 1.35
1.375 0.875 1.35
1.5 0.875 1.35
1.625 0.875 1.35
1.75 0.875 1.35
1.875 0.875 1.35
2 0.875 1.35
2.125 0.875 1.35
2.25 0.875 1.35
2.375 0.875 1.35
2.5 0.875 1.35
2.625 0.875 1.35
2.75 0.875 1.35
2.875 0.875 1.35
3 0.875 1.35
0 1 1.35
0.125 1 1.35
0.25 1 1.35
0.375 1 1.35
0.5 1 1.35
0.625 1 1.35
0.75 1 1.35
0.875 1 1.35
1 1 1.35
1.125 1 1.35
1.25 1 1.35
1.375 1 1.35
1.5 1 1.35
1.625 1 1.35
1.75 1 1.35
1.875 1 1.35
2 1 1.35
2.125 1 1.35
2.25 1 1.35
2.375 1 1.35
2.5 1 1.35
2.625 1 1.35
2.75 1 1.35
2.875 1 1.35
3 1 1.35
0 0 1.475
0.125 0 1.475
0.25 0 1.475
0.375 0 1.475
0.5 0 1.475
0.625 0 1.475
0.75 0 1.475
0.875 0 1.475
1 0 1.475
1.125 0 1.475
1.25 0 1.475
1.375 0 1.475
1.5 0 1.475
1.625 0 1.475
1.75 0 1.475
1.875 0 1.475
2 0 1.475
2.125 0 1.475
2.25 0 1.475
2.375 0 1.475
2.5 0 1.475
2.625 0 1.475
2.75 0 1.475
2.875 0 1.475
3 0 1.475
0 0.125 1.475
0.125 0.125 1.475
0.25 0.125 1.475
0.375 0.125 1.475
0.5 0.125 1.475
0.625 0.125 1.475
0.75 0.125 1.475
0.875 0.125 1.475
1 0.125 1.475
1.125 0.125 1.475
1.25 0.125 1.475
1.375 0.125 1.475
1.5 0.125 1.475
1.625 0.125 1.475
1.75 0.125 1.475
1.875 0.125 1.475
2 0.125 1.475
2.125 0.125 1.475
2.25 0.125 1.475
2.375 0.125 1.475
2.5 0.125 1.475
2.625 0.125 1.475
2.75 0.125 1.475
2.875 0.125 1.475
3 0.125 1.475
0 0.25 1.475
0.125 0.25 1.475
0.25 0.25 1.475
0.375 0.25 1.475
0.5 0.25 1.475
0.625 0.25 1.475
0.75 0.25 1.475
0.875 0.25 1.475
1 0.25 1.475
1.125 0.25 1.475
1.25 0.25 1.475
1.375 0.25 1.475
1.5 0.25 1.475
1.625 0.25 1.475
1.75 0.25 1.475
1.875 0.25 1.475
2 0.25 1.475
2.125 0.25 1.475
2.25 0.25 1.475
2.375 0.25 1.475
2.5 0.25 1.475
2.625 0.25 1.475
2.75 0.25 1.475
2.875 0.25 1.475
3 0.25 1.475
0 0.375 1.475
0.125 0.375 1.475
0.25 0.375 1.475
0.375 0.375 1.475
0.5 0.375 1.475
0.625 0.375 1.475
0.75 0.375 1.475
0.875 0.375 1.475
1 0.375 1.475
1.125 0.375 1.475
1.25 0.375 1.475
1.375 0.375 1.475
1.5 0.375 1.475
1.625 0.375 1.475
1.75 0.375 1.475
1.875 0.375 1.475
2 0.375 1.475
2.125 0.375 1.475
2.25 0.375 1.475
2.375 0.375 1.475
2.5 0.375 1.475
2.625 0.375 1.475
2.75 0.375 1.475
2.875 0.375 1.475
3 0.375 1.475
0 0.5 1.475
0.125 0.5 1.475
0.25 0.5 1.475
0.375 0.5 1.475
0.5 0.5 1.475
0.625 0.5 1.475
0.75 0.5 1.475
0.875 0.5 1.475
1 0.5 1.475
1.125 0.5 1.475
1.25 0.5 1.475
1.375 0.5 1.475
1.5 0.5 1.475
1.625 0.5 1.475
1.75 0.5 1.475
1.875 0.5 1.475
2 0.5 1.475
2.125 0.5 1.475
2.25 0.5 1.475
2.375 0.5 1.475
2.5 0.5 1.475
2.625 0.5 1.475
2.75 0.5 1.475
2.875 0.5 1.475
3 0.5 1.475
0 0.625 1.475
0.125 0.625 1.475
0.25 0.625 1.475
0.375 0.625 1.475
0.5 0.625 1.475
0.625 0.625 1.475
0.75 0.625 1.475
0.875 0.625 1.475
1 0.625 1.475
1.125 0.625 1.475
1.25 0.625 1.475
1.375 0.625 1.475
1.5 0.625 1.475
1.625 0.625 1.475
1.75 0.625 1.475
1.875 0.625 1.475
2 0.625 1.475
2.125 0.625 1.475
2.25 0.625 1.475
2.375 0.625 1.475
2.5 0.625 1.475
2.625 0.625 1.475
2.75 0.625 1.475
2.875 0.625 1.475
3 0.625 1.475
0 0.75 1.475
0.125 0.75 1.475
0.25 0.75 1.475
0.375 0.75 1.475
0.5 0.75 1.475
0.625 0.75 1.475
0.75 0.75 1.475
0.875 0.75 1.475
1 0.75 1.475
1.125 0.75 1.475
1.25 0.75 1.475
1.375 0.75 1.475
1.5 0.75 1.475
1.625 0.75 1.475
1.75 0.75 1.475
1.875 0.75 1.475
2 0.75 1.475
2.125 0.75 1.475
2.25 0.75 1.475
2.375 0.75 1.475
2.5 0.75 1.475
2.625 0.75 1.475
2.75 0.75 1.475
2.875 0.75 1.475
3 0.75 1.475
0 0.875 1.475
0.125 0.875 1.475
0.25 0.875 1.475
0.375 0.875 1.475
0.5 0.875 1.475
0.625 0.875 1.475
0.75 0.875 1.475
0.875 0.875 1.475
1 0.875 1.475
1.125 0.875 1.475
1.25 0.875 1.475
1.375 0.875 1.475
1.5 0.875 1.475
1.625 0.875 1.475
1.75 0.875 1.475
1.875 0.875 1.475
2 0.875 1.475
2.125 0.875 1.475
2.25 0.875 1.475
2.375 0.875 1.475
2.5 0.875 1.475
2.625 0.875 1.475
2.75 0.875 1.475
2.875 0.875 1.475
3 0.875 1.475
0 1 1.475
0.125 1 1.475
0.25 1 1.475
0.375 1 1.475
0.5 1 1.475
0.625 1 1.475
0.75 1 1.475
0.875 1 1.475
1 1 1.475
1.125 1 1.475
1.25 1 1.475
1.375 1 1.475
1.5 1 1.475
1.625 1 1.475
1.75 1 1.475
1.875 1 1.475
2 1 1.475
2.125 1 1.475
2.25 1 1.475
2.375 1 1.475
2.5 1 1.475
2.625 1 1.475
2.75 1 1.475
2.875 1 1.475
3 1 1.475
0 0 1.6
0.125 0 1.6
0.25 0 1.6
0.375 0 1.6
0.5 0 1.6
0.625 0 1.6
0.75 0 1.6
0.875 0 1.6
1 0 1.6
1.125 0 1.6
1.25 0 1.6
1.375 0 1.6
1.5 0 1.6
1.625 0 1.6
1.75 0 1.6
1.875 0 1.6
2 0 1.6
2.125 0 1.6
2.25 0 1.6
2.375 0 1.6
2.5 0 1.6
2.625 0 1.6
2.75 0 1.6
2.875 0 1.6
3 0 1.6
0 0.125 1.6
0.125 0.125 1.6
0.25 0.125 1.6
0.375 0.125 1.6
0.5 0.125 1.6
0.625 0.125 1.6
0.75 0.125 1.6
0.875 0.125 1.6
1 0.125 1.6
1.125 0.125 1.6
1.25 0.125 1.6
1.375 0.125 1.6
1.5 0.125 1.6
1.625 0.125 1.6
1.75 0.125 1.6
1.875 0.125 1.6
2 0.125 1.6
2.125 0.125 1.6
2.25 0.125 1.6
2.375 0.125 1.6
2.5 0.125 1.6
2.625 0.125 1.6
2.75 0.125 1.6
2.875 0.125 1.6
3 0.125 1.6
0 0.25 1.6
0.125 0.25 1.6
0.25 0.25 1.6
0.375 0.25 1.6
0.5 0.25 1.6
0.625 0.25 1.6
0.75 0.25 1.6
0.875 0.25 1.6
1 0.25 1.6
1.125 0.25 1.6
1.25 0.25 1.6
1.375 0.25 1.6
1.5 0.25 1.6
1.625 0.25 1.6
1.75 0.25 1.6
1.875 0.25 1.6
2 0.25 1.6
2.125 0.25 1.6
2.25 0.25 1.6
2.375 0.25 1.6
2.5 0.25 1.6
2.625 0.25 1.6
2.75 0.25 1.6
2.875 0.25 1.6
3 0.25 1.6
0 0.375 1.6
0.125 0.375 1.6
0.25 0.375 1.6
0.375 0.375 1.6
0.5 0.375 1.6
0.625 0.375 1.6
0.75 0.375 1.6
0.875 0.375 1.6
1 0.375 1.6
1.125 0.375 1.6
1.25 0.375 1.6
1.375 0.375 1.6
1.5 0.375 1.6
1.625 0.375 1.6
1.75 0.375 1.6
1.875 0.375 1.6
2 0.375 1.6
2.125 0.375 1.6
2.25 0.375 1.6
2.375 0.375 1.6
2.5 0.375 1.6
2.625 0.375 1.6
2.75 0.375 1.6
2.875 0.375 1.6
3 0.375 1.6
0 0.5 1.6
0.125 0.5 1.6
0.25 0.5 1.6
0.375 0.5 1.6
0.5 0.5 1.6
0.625 0.5 1.6
0.75 0.5 1.6
0.875 0.5 1.6
1 0.5 1.6
1.125 0.5 1.6
1.25 0.5 1.6
1.375 0.5 1.6
1.5 0.5 1.6
1.625 0.5 1.6
1.75 0.5 1.6
1.875 0.5 1.6
2 0.5 1.6
2.125 0.5 1.6
2.25 0.5 1.6
2.375 0.5 1.6
2.5 0.5 1.6
2.625 0.5 1.6
2.75 0.5 1.6
2.875 0.5 1.6
3 0.5 1.6
0 0.625 1.6
0.125 0.625 1.6
0.25 0.625 1.6
0.375 0.625 1.6
0.5 0.625 1.6
0.625 0.625 1.6
0.75 0.625 1.6
0.875 0.625 1.6
1 0.625 1.6
1.125 0.625 1.6
1.25 0.625 1.6
1.375 0.625 1.6
1.5 0.625 1.6
1.625 0.625 1.6
1.75 0.625 1.6
1.875 0.625 1.6
2 0.625 1.6
2.125 0.625 1.6
2.25 0.625 1.6
2.375 0.625 1.6
2.5 0.625 1.6
2.625 0.625 1.6
2.75 0.625 1.6
2.875 0.625 1.6
3 0.625 1.6
0 0.75 1.6
0.125 0.75 1.6
0.25 0.75 1.6
0.375 0.75 1.6
0.5 0.75 1.6
0.625 0.75 1.6
0.75 0.75 1.6
0.875 0.75 1.6
1 0.75 1.6
1.125 0.75 1.6
1.25 0.75 1.6
1.375 0.75 1.6
1.5 0.75 1.6
1.625 0.75 1.6
1.75 0.75 1.6
1.875 0.75 1.6
2 0.75 1.6
2.125 0.75 1.6
2.25 0.75 1.6
2.375 0.75 1.6
2.5 0.75 1.6
2.625 0.75 1.6
2.75 0.75 1.6
2.875 0.75 1.6
3 0.75 1.6
0 0.875 1.6
0.125 0.875 1.6
0.25 0.875 1.6
0.375 0.875 1.6
0.5 0.875 1.6
0.625 0.875 1.6
0.75 0.875 1.6
0.875 0.875 1.6
1 0.875 1.6
1.125 0.875 1.6
1.25 0.875 1.6
1.375 0.875 1.6
1.5 0.875 1.6
1.625 0.875 1.6
1.75 0.875 1.6
1.875 0.875 1.6
2 0.875 1.6
2.125 0.875 1.6
2.25 0.875 1.6
2.375 0.875 1.6
2.5 0.875 1.6
2.625 0.875 1.6
2.75 0.875 1.6
2.875 0.875 1.6
3 0.875 1.6
0 1 1.6
0.125 1 1.6
0.25 1 1.6
0.375 1 1.6
0.5 1 1.6
0.625 1 1.6
0.75 1 1.6
0.875 1 1.6
1 1 1.6
1.125 1 1.6
1.25 1 1.6
1.375 1 1.6
1.5 1 1.6
1.625 1 1.6
1.75 1 1.6
1.875 1 1.6
2 1 1.6
2.125 1 1.6
2.25 1 1.6
2.375 1 1.6
2.5 1 1.6
2.625 1 1.6
2.75 1 1.6
2.875 1 1.6
3 1 1.6
0 0 1.725
0.125 0 1.725
0.25 0 1.725
0.375 0 1.725
0.5 0 1.725
0.625 0 1.725
0.75 0 1.725
0.875 0 1.725
1 0 1.725
1.125 0 1.725
1.25 0 1.725
1.375 0 1.725
1.5 0 1.725
1.625 0 1.725
1.75 0 1.725
1.875 0 1.725
2 0 1.725
2.125 0 1.725
2.25 0 1.725
2.375 0 1.725
2.5 0 1.725
2.625 0 1.725
2.75 0 1.725
2.875 0 1.725
3 0 1.725
0 0.125 1.725
0.125 0.125 1.725
0.25 0.125 1.725
0.375 0.125 1.725
0.5 0.125 1.725
0.625 0.125 1.725
0.75 0.125 1.725
0.875 0.125 1.725
1 0.125 1.725
1.125 0.125 1.725
1.25 0.125 1.725
1.375 0.125 1.725
1.5 0.125 1.725
1.625 0.125 1.725
1.75 0.125 1.725
1.875 0.125 1.725
2 0.125 1.725
2.125 0.125 1.725
2.25 0.125 1.725
2.375 0.125 1.725
2.5 0.125 1.725
2.625 0.125 1.725
2.75 0.125 1.725
2.875 0.125 1.725
3 0.125 1.725
0 0.25 1.725
0.125 0.25 1.725
0.25 0.25 1.725
0.375 0.25 1.725
0.5 0.25 1.725
0.625 0.25 1.725
0.75 0.25 1.725
0.875 0.25 1.725
1 0.25 1.725
1.125 0.25 1.725
1.25 0.25 1.725
1.375 0.25 1.725
1.5 0.25 1.725
1.625 0.25 1.725
1.75 0.25 1.725
1.875 0.25 1.725
2 0.25 1.725
2.125 0.25 1.725
2.25 0.25 1.725
2.375 0.25 1.725
2.5 0.25 1.725
2.625 0.25 1.725
2.75 0.25 1.725
2.875 0.25 1.725
3 0.25 1.725
0 0.375 1.725
0.125 0.375 1.725
0.25 0.375 1.725
0.375 0.375 1.725
0.5 0.375 1.725
0.625 0.375 1.725
0.75 0.375 1.725
0.875 0.375 1.725
1 0.375 1.725
1.125 0.375 1.725
1.25 0.375 1.725
1.375 0.375 1.725
1.5 0.375 1.725
1.625 0.375 1.725
1.75 0.375 1.725
1.875 0.375 1.725
2 0.375 1.725
2.125 0.375 1.725
2.25 0.375 1.725
2.375 0.375 1.725
2.5 0.375 1.725
2.625 0.375 1.725
2.75 0.375 1.725
2.875 0.375 1.725
3 0.375 1.725
0 0.5 1.725
0.125 0.5 1.725
0.25 0.5 1.725
0.375 0.5 1.725
0.5 0.5 1.725
0.625 0.5 1.725
0.75 0.5 1.725
0.875 0.5 1.725
1 0.5 1.725
1.125 0.5 1.725
1.25 0.5 1.725
1.375 0.5 1.725
1.5 0.5 1.725
1.625 0.5 1.725
1.75 0.5 1.725
1.875 0.5 1.725
2 0.5 1.725
2.125 0.5 1.725
2.25 0.5 1.725
2.375 0.5 1.725
2.5 0.5 1.725
2.625 0.5 1.725
2.75 0.5 1.725
2.875 0.5 1.725
3 0.5 1.725
0 0.625 1.725
0.125 0.625 1.725
0.25 0.625 1.725
0.375 0.625 1.725
0.5 0.625 1.725
0.625 0.625 1.725
0.75 0.625 1.725
0.875 0.625 1.725
1 0.625 1.725
1.125 0.625 1.725
1.25 0.625 1.725
1.375 0.625 1.725
1.5 0.625 1.725
1.625 0.625 1.725
1.75 0.625 1.725
1.875 0.625 1.725
2 0.625 1.725
2.125 0.625 1.725
2.25 0.625 1.725
2.375 0.625 1.725
2.5 0.625 1.725
2.625 0.625 1.725
2.75 0.625 1.725
2.875 0.625 1.725
3 0.625 1.725
0 0.75 1.725
0.125 0.75 1.725
0.25 0.75 1.725
0.375 0.75 1.725
0.5 0.75 1.725
0.625 0.75 1.725
0.75 0.75 1.725
0.875 0.75 1.725
1 0.75 1.725
1.125 0.75 1.725
1.25 0.75 1.725
1.375 0.75 1.725
1.5 0.75 1.725
1.625 0.75 1.725
1.75 0.75 1.725
1.875 0.75 1.725
2 0.75 1.725
2.125 0.75 1.725
2.25 0.75 1.725
2.375 0.75 1.725
2.5 0.75 1.725
2.625 0.75 1.725
2.75 0.75 1.725
2.875 0.75 1.725
3 0.75 1.725
0 0.875 1.725
0.125 0.875 1.725
0.25 0.875 1.725
0.375 0.875 1.725
0.5 0.875 1.725
0.625 0.875 1.725
0.75 0.875 1.725
0.875 0.875 1.725
1 0.875 1.725
1.125 0.875 1.725
1.25 0.875 1.725
1.375 0.875 1.725
1.5 0.875 1.725
1.625 0.875 1.725
1.75 0.875 1.725
1.875 0.875 1.725
2 0.875 1.725
2.125 0.875 1.725
2.25 0.875 1.725
2.375 0.875 1.725
2.5 0.875 1.725
2.625 0.875 1.725
2.75 0.875 1.725
2.875 0.875 1.725
3 0.875 1.725
0 1 1.725
0.125 1 1.725
0.25 1 1.725
0.375 1 1.725
0.5 1 1.725
0.625 1 1.725
0.75 1 1.725
0.875 1 1.725
1 1 1.725
1.125 1 1.725
1.25 1 1.725
1.375 1 1.725
1.5 1 1.725
1.625 1 1.725
1.75 1 1.725
1.875 1 1.725
2 1 1.725
2.125 1 1.725
2.25 1 1.725
2.375 1 1.725
2.5 1 1.725
2.625 1 1.725
2.75 1 1.725
2.875 1 1.725
3 1 1.725
0 0 1.85
0.125 0 1.85
0.25 0 1.85
0.375 0 1.85
0.5 0 1.85
0.625 0 1.85
0.75 0 1.85
0.875 0 1.85
1 0 1.85
1.125 0 1.85
1.25 0 1.85
1.375 0 1.85
1.5 0 1.85
1.625 0 1.85
1.75 0 1.85
1.875 0 1.85
2 0 1.85
2.125 0 1.85
2.25 0 1.85
2.375 0 1.85
2.5 0 1.85
2.625 0 1.85
2.75 0 1.85
2.875 0 1.85
3 0 1.85
0 0.125 1.85
0.125 0.125 1.85
0.25 0.125 1.85
0.375 0.125 1.85
0.5 0.125 1.85
0.625 0.125 1.85
0.75 0.125 1.85
0.875 0.125 1.85
1 0.125 1.85
1.125 0.125 1.85
1.25 0.125 1.85
1.375 0.125 1.85
1.5 0.125 1.85
1.625 0.125 1.85
1.75 0.125 1.85
1.875 0.125 1.85
2 0.125 1.85
2.125 0.125 1.85
2.25 0.125 1.85
2.375 0.125 1.85
2.5 0.125 1.85
2.625 0.125 1.85
2.75 0.125 1.85
2.875 0.125 1.85
3 0.125 1.85
0 0.25 1.85
0.125 0.25 1.85
0.25 0.25 1.85
0.375 0.25 1.85
0.5 0.25 1.85
0.625 0.25 1.85
0.75 0.25 1.85
0.875 0.25 1.85
1 0.25 1.85
1.125 0.25 1.85
1.25 0.25 1.85
1.375 0.25 1.85
1.5 0.25 1.85
1.625 0.25 1.85
1.75 0.25 1.85
1.875 0.25 1.85
2 0.25 1.85
2.125 0.25 1.85
2.25 0.25 1.85
2.375 0.25 1.85
2.5 0.25 1.85
2.625 0.25 1.85
2.75 0.25 1.85
2.875 0.25 1.85
3 0.25 1.85
0 0.375 1.85
0.125 0.375 1.85
0.25 0.375 1.85
0.375 0.375 1.85
0.5 0.375 1.85
0.625 0.375 1.85
0.75 0.375 1.85
0.875 0.375 1.85
1 0.375 1.85
1.125 0.375 1.85
1.25 0.375 1.85
1.375 0.375 1.85
1.5 0.375 1.85
1.625 0.375 1.85
1.75 0.375 1.85
1.875 0.375 1.85
2 0.375 1.85
2.125 0.375 1.85
2.25 0.375 1.85
2.375 0.375 1.85
2.5 0.375 1.85
2.625 0.375 1.85
2.75 0.375 1.85
2.875 0.375 1.85
3 0.375 1.85
0 0.5 1.85
0.125 0.5 1.85
0.25 0.5 1.85
0.375 0.5 1.85
0.5 0.5 1.85
0.625 0.5 1.85
0.75 0.5 1.85
0.875 0.5 1.85
1 0.5 1.85
1.125 0.5 1.85
1.25 0.5 1.85
1.375 0.5 1.85
1.5 0.5 1.85
1.625 0.5 1.85
1.75 0.5 1.85
1.875 0.5 1.85
2 0.5 1.85
2.125 0.5 1.85
2.25 0.5 1.85
2.375 0.5 1.85
2.5 0.5 1.85
2.625 0.5 1.85
2.75 0.5 1.85
2.875 0.5 1.85
3 0.5 1.85
0 0.625 1.85
0.125 0.625 1.85
0.25 0.625 1.85
0.375 0.625 1.85
0.5 0.625 1.85
0.625 0.625 1.85
0.75 0.625 1.85
0.875 0.625 1.85
1 0.625 1.85
1.125 0.625 1.85
1.25 0.625 1.85
1.375 0.625 1.85
1.5 0.625 1.85
1.625 0.625 1.85
1.75 0.625 1.85
1.875 0.625 1.85
2 0.625 1.85
2.125 0.625 1.85
2.25 0.625 1.85
2.375 0.625 1.85
2.5 0.625 1.85
2.625 0.625 1.85
2.75 0.625 1.85
2.875 0.625 1.85
3 0.625 1.85
0 0.75 1.85
0.125 0.75 1.85
0.25 0.75 1.85
0.375 0.75 1.85
0.5 0.75 1.85
0.625 0.75 1.85
0.75 0.75 1.85
0.875 0.75 1.85
1 0.75 1.85
1.125 0.75 1.85
1.25 0.75 1.85
1.375 0.75 1.85
1.5 0.75 1.85
1.625 0.75 1.85
1.75 0.75 1.85
1.875 0.75 1.85
2 0.75 1.85
2.125 0.75 1.85
2.25 0.75 1.85
2.375 0.75 1.85
2.5 0.75 1.85
2.625 0.75 1.85
2.75 0.75 1.85
2.875 0.75 1.85
3 0.75 1.85
0 0.875 1.85
0.125 0.875 1.85
0.25 0.875 1.85
0.375 0.875 1.85
0.5 0.875 1.85
0.625 0.875 1.85
0.75 0.875 1.85
0.875 0.875 1.85
1 0.875 1.85
1.125 0.875 1.85
1.25 0.875 1.85
1.375 0.875 1.85
1.5 0.875 1.85
1.625 0.875 1.85
1.75 0.875 1.85
1.875 0.875 1.85
2 0.875 1.85
2.125 0.875 1.85
2.25 0.875 1.85
2.375 0.875 1.85
2.5 0.875 1.85
2.625 0.875 1.85
2.75 0.875 1.85
2.875 0.875 1.85
3 0.875 1.85
0 1 1.85
0.125 1 1.85
0.25 1 1.85
0.375 1 1.85
0.5 1 1.85
0.625 1 1.85
0.75 1 1.85
0.875 1 1.85
1 1 1.85
1.125 1 1.85
1.25 1 1.85
1.375 1 1.85
1.5 1 1.85
1.625 1 1.85
1.75 1 1.85
1.875 1 1.85
2 1 1.85
2.125 1 1.85
2.25 1 1.85
2.375 1 1.85
2.5 1 1.85
2.625 1 1.85
2.75 1 1.85
2.875 1 1.85
3 1 1.85
0 0 1.975
0.125 0 1.975
0.25 0 1.975
0.375 0 1.975
0.5 0 1.975
0.625 0 1.975
0.75 0 1.975
0.875 0 1.975
1 0 1.975
1.125 0 1.975
1.25 0 1.975
1.375 0 1.975
1.5 0 1.975
1.625 0 1.975
1.75 0 1.975
1.875 0 1.975
2 0 1.975
2.125 0 1.975
2.25 0 1.975
2.375 0 1.975
2.5 0 1.975
2.625 0 1.975
2.75 0 1.975
2.875 0 1.975
3 0 1.975
0 0.125 1.975
0.125 0.125 1.975
0.25 0.125 1.975
0.375 0.125 1.975
0.5 0.125 1.975
0.625 0.125 1.975
0.75 0.125 1.975
0.875 0.125 1.975
1 0.125 1.975
1.125 0.125 1.975
1.25 0.125 1.975
1.375 0.125 1.975
1.5 0.125 1.975
1.625 0.125 1.975
1.75 0.125 1.975
1.875 0.125 1.975
2 0.125 1.975
2.125 0.125 1.975
2.25 0.125 1.975
2.375 0.125 1.975
2.5 0.125 1.975
2.625 0.125 1.975
2.75 0.125 1.975
2.875 0.125 1.975
3 0.125 1.975
0 0.25 1.975
0.125 0.25 1.975
0.25 0.25 1.975
0.375 0.25 1.975
0.5 0.25 1.975
0.625 0.25 1.975
0.75 0.25 1.975
0.875 0.25 1.975
1 0.25 1.975
1.125 0.25 1.975
1.25 0.25 1.975
1.375 0.25 1.975
1.5 0.25 1.975
1.625 0.25 1.975
1.75 0.25 1.975
1.875 0.25 1.975
2 0.25 1.975
2.125 0.25 1.975
2.25 0.25 1.975
2.375 0.25 1.975
2.5 0.25 1.975
2.625 0.25 1.975
2.75 0.25 1.975
2.875 0.25 1.975
3 0.25 1.975
0 0.375 1.975
0.125 0.375 1.975
0.25 0.375 1.975
0.375 0.375 1.975
0.5 0.375 1.975
0.625 0.375 1.975
0.75 0.375 1.975
0.875 0.375 1.975
1 0.375 1.975
1.125 0.375 1.975
1.25 0.375 1.975
1.375 0.375 1.975
1.5 0.375 1.975
1.625 0.375 1.975
1.75 0.375 1.975
1.875 0.375 1.975
2 0.375 1.975
2.125 0.375 1.975
2.25 0.375 1.975
2.375 0.375 1.975
2.5 0.375 1.975
2.625 0.375 1.975
2.75 0.375 1.975
2.875 0.375 1.975
3 0.375 1.975
0 0.5 1.975
0.125 0.5 1.975
0.25 0.5 1.975
0.375 0.5 1.975
0.5 0.5 1.975
0.625 0.5 1.975
0.75 0.5 1.975
0.875 0.5 1.975
1 0.5 1.975
1.125 0.5 1.975
1.25 0.5 1.975
1.375 0.5 1.975
1.5 0.5 1.975
1.625 0.5 1.975
1.75 0.5 1.975
1.875 0.5 1.975
2 0.5 1.975
2.125 0.5 1.975
2.25 0.5 1.975
2.375 0.5 1.975
2.5 0.5 1.975
2.625 0.5 1.975
2.75 0.5 1.975
2.875 0.5 1.975
3 0.5 1.975
0 0.625 1.975
0.125 0.625 1.975
0.25 0.625 1.975
0.375 0.625 1.975
0.5 0.625 1.975
0.625 0.625 1.975
0.75 0.625 1.975
0.875 0.625 1.975
1 0.625 1.975
1.125 0.625 1.975
1.25 0.625 1.975
1.375 0.625 1.975
1.5 0.625 1.975
1.625 0.625 1.975
1.75 0.625 1.975
1.875 0.625 1.975
2 0.625 1.975
2.125 0.625 1.975
2.25 0.625 1.975
2.375 0.625 1.975
2.5 0.625 1.975
2.625 0.625 1.975
2.75 0.625 1.975
2.875 0.625 1.975
3 0.625 1.975
0 0.75 1.975
0.125 0.75 1.975
0.25 0.75 1.975
0.375 0.75 1.975
0.5 0.75 1.975
0.625 0.75 1.975
0.75 0.75 1.975
0.875 0.75 1.975
1 0.75 1.975
1.125 0.75 1.975
1.25 0.75 1.975
1.375 0.75 1.975
1.5 0.75 1.975
1.625 0.75 1.975
1.75 0.75 1.975
1.875 0.75 1.975
2 0.75 1.975
2.125 0.75 1.975
2.25 0.75 1.975
2.375 0.75 1.975
2.5 0.75 1.975
2.625 0.75 1.975
2.75 0.75 1.975
2.875 0.75 1.975
3 0.75 1.975
0 0.875 1.975
0.125 0.875 1.975
0.25 0.875 1.975
0.375 0.875 1.975
0.5 0.875 1.975
0.625 0.875 1.975
0.75 0.875 1.975
0.875 0.875 1.975
1 0.875 1.975
1.125 0.875 1.975
1.25 0.875 1.975
1.375 0.875 1.975
1.5 0.875 1.975
1.625 0.875 1.975
1.75 0.875 1.975
1.875 0.875 1.975
2 0.875 1.975
2.125 0.875 1.975
2.25 0.875 1.975
2.375 0.875 1.975
2.5 0.875 1.975
2.625 0.875 1.975
2.75 0.875 1.975
2.875 0.875 1.975
3 0.875 1.975
0 1 1.975
0.125 1 1.975
0.25 1 1.975
0.375 1 1.975
0.5 1 1.975
0.625 1 1.975
0.75 1 1.975
0.875 1 1.975
1 1 1.975
1.125 1 1.975
1.25 1 1.975
1.375 1 1.975
1.5 1 1.975
1.625 1 1.975
1.75 1 1.975
1.875 1 1.975
2 1 1.975
2.125 1 1.975
2.25 1 1.975
2.375 1 1.975
2.5 1 1.975
2.625 1 1.975
2.75 1 1.975
2.875 1 1.975
3 1 1.975
0 0 2.1
0.125 0 2.1
0.25 0 2.1
0.375 0 2.1
0.5 0 2.1
0.625 0 2.1
0.75 0 2.1
0.875 0 2.1
1 0 2.1
1.125 0 2.1
1.25 0 2.1
1.375 0 2.1
1.5 0 2.1
1.625 0 2.1
1.75 0 2.1
1.875 0 2.1
2 0 2.1
2.125 0 2.1
2.25 0 2.1
2.375 0 2.1
2.5 0 2.1
2.625 0 2.1
2.75 0 2.1
2.875 0 2.1
3 0 2.1
0 0.125 2.1
0.125 0.125 2.1
0.25 0.125 2.1
0.375 0.125 2.1
0.5 0.125 2.1
0.625 0.125 2.1
0.75 0.125 2.1
0.875 0.125 2.1
1 0.125 2.1
1.125 0.125 2.1
1.25 0.125 2.1
1.375 0.125 2.1
1.5 0.125 2.1
1.625 0.125 2.1
1.75 0.125 2.1
1.875 0.125 2.1
2 0.125 2.1
2.125 0.125 2.1
2.25 0.125 2.1
2.375 0.125 2.1
2.5 0.125 2.1
2.625 0.125 2.1
2.75 0.125 2.1
2.875 0.125 2.1
3 0.125 2.1
0 0.25 2.1
0.125 0.25 2.1
0.25 0.25 2.1
0.375 0.25 2.1
0.5 0.25 2.1
0.625 0.25 2.1
0.75 0.25 2.1
0.875 0.25 2.1
1 0.25 2.1
1.125 0.25 2.1
1.25 0.25 2.1
1.375 0.25 2.1
1.5 0.25 2.1
1.625 0.25 2.1
1.75 0.25 2.1
1.875 0.25 2.1
2 0.25 2.1
2.125 0.25 2.1
2.25 0.25 2.1
2.375 0.25 2.1
2.5 0.25 2.1
2.625 0.25 2.1
2.75 0.25 2.1
2.875 0.25 2.1
3 0.25 2.1
0 0.375 2.1
0.125 0.375 2.1
0.25 0.375 2.1
0.375 0.375 2.1
0.5 0.375 2.1
0.625 0.375 2.1
0.75 0.375 2.1
0.875 0.375 2.1
1 0.375 2.1
1.125 0.375 2.1
1.25 0.375 2.1
1.375 0.375 2.1
1.5 0.375 2.1
1.625 0.375 2.1
1.75 0.375 2.1
1.875 0.375 2.1
2 0.375 2.1
2.125 0.375 2.1
2.25 0.375 2.1
2.375 0.375 2.1
2.5 0.375 2.1
2.625 0.375 2.1
2.75 0.375 2.1
2.875 0.375 2.1
3 0.375 2.1
0 0.5 2.1
0.125 0.5 2.1
0.25 0.5 2.1
0.375 0.5 2.1
0.5 0.5 2.1
0.625 0.5 2.1
0.75 0.5 2.1
0.875 0.5 2.1
1 0.5 2.1
1.125 0.5 2.1
1.25 0.5 2.1
1.375 0.5 2.1
1.5 0.5 2.1
1.625 0.5 2.1
1.75 0.5 2.1
1.875 0.5 2.1
2 0.5 2.1
2.125 0.5 2.1
2.25 0.5 2.1
2.375 0.5 2.1
2.5 0.5 2.1
2.625 0.5 2.1
2.75 0.5 2.1
2.875 0.5 2.1
3 0.5 2.1
0 0.625 2.1
0.125 0.625 2.1
0.25 0.625 2.1
0.375 0.625 2.1
0.5 0.625 2.1
0.625 0.625 2.1
0.75 0.625 2.1
0.875 0.625 2.1
1 0.625 2.1
1.125 0.625 2.1
1.25 0.625 2.1
1.375 0.625 2.1
1.5 0.625 2.1
1.625 0.625 2.1
1.75 0.625 2.1
1.875 0.625 2.1
2 0.625 2.1
2.125 0.625 2.1
2.25 0.625 2.1
2.375 0.625 2.1
2.5 0.625 2.1
2.625 0.625 2.1
2.75 0.625 2.1
2.875 0.625 2.1
3 0.625 2.1
0 0.75 2.1
0.125 0.75 2.1
0.25 0.75 2.1
0.375 0.75 2.1
0.5 0.75 2.1
0.625 0.75 2.1
0.75 0.75 2.1
0.875 0.75 2.1
1 0.75 2.1
1.125 0.75 2.1
1.25 0.75 2.1
1.375 0.75 2.1
1.5 0.75 2.1
1.625 0.75 2.1
1.75 0.75 2.1
1.875 0.75 2.1
2 0.75 2.1
2.125 0.75 2.1
2.25 0.75 2.1
2.375 0.75 2.1
2.5 0.75 2.1
2.625 0.75 2.1
2.75 0.75 2.1
2.875 0.75 2.1
3 0.75 2.1
0 0.875 2.1
0.125 0.875 2.1
0.25 0.875 2.1
0.375 0.875 2.1
0.5 0.875 2.1
0.625 0.875 2.1
0.75 0.875 2.1
0.875 0.875 2.1
1 0.875 2.1
1.125 0.875 2.1
1.25 0.875 2.1
1.375 0.875 2.1
1.5 0.875 2.1
1.625 0.875 2.1
1.75 0.875 2.1
1.875 0.875 2.1
2 0.875 2.1
2.125 0.875 2.1
2.25 0.875 2.1
2.375 0.875 2.1
2.5 0.875 2.1
2.625 0.875 2.1
2.75 0.875 2.1
2.875 0.875 2.1
3 0.875 2.1
0 1 2.1
0.125 1 2.1
0.25 1 2.1
0.375 1 2.1
0.5 1 2.1
0.625 1 2.1
0.75 1 2.1
0.875 1 2.1
1 1 2.1
1.125 1 2.1
1.25 1 2.1
1.375 1 2.1
1.5 1 2.1
1.625 1 2.1
1.75 1 2.1
1.875 1 2.1
2 1 2.1
2.125 1 2.1
2.25 1 2.1
2.375 1 2.1
2.5 1 2.1
2.625 1 2.1
2.75 1 2.1
2.875 1 2.1
3 1 2.1
0.0625 0 1.1
0.125 0 1.1625
0.0625 0 1.225
0 0 1.1625
0 0.0625 1.1
0.125 0.0625 1.1
0.125 0.0625 1.225
0 0.0625 1.225
0.0625 0.125 1.1
0.125 0.125 1.1625
0.0625 0.125 1.225
0 0.125 1.1625
0.0625 0 1.1625
0.0625 0.0625 1.1
0.125 0.0625 1.1625
0.0625 0.0625 1.225
0 0.0625 1.1625
0.0625 0.125 1.1625
0.0625 0.0625 1.1625
0.1875 0 1.1
0.25 0 1.1625
0.1875 0 1.225
0.25 0.0625 1.1
0.25 0.0625 1.225
0.1875 0.125 1.1
0.25 0.125 1.1625
0.1875 0.125 1.225
0.1875 0 1.1625
0.1875 0.0625 1.1
0.25 0.0625 1.1625
0.1875 0.0625 1.225
0.1875 0.125 1.1625
0.1875 0.0625 1.1625
0.3125 0 1.1
0.375 0 1.1625
0.3125 0 1.225
0.375 0.0625 1.1
0.375 0.0625 1.225
0.3125 0.125 1.1
0.375 0.125 1.1625
0.3125 0.125 1.225
0.3125 0 1.1625
0.3125 0.0625 1.1
0.375 0.0625 1.1625
0.3125 0.0625 1.225
0.3125 0.125 1.1625
0.3125 0.0625 1.1625
0.4375 0 1.1
0.5 0 1.1625
0.4375 0 1.225
0.5 0.0625 1.1
0.5 0.0625 1.225
0.4375 0.125 1.1
0.5 0.125 1.1625
0.4375 0.125 1.225
0.4375 0 1.1625
0.4375 0.0625 1.1
0.5 0.0625 1.1625
0.4375 0.0625 1.225
0.4375 0.125 1.1625
0.4375 0.0625 1.1625
0.5625 0 1.1
0.625 0 1.1625
0.5625 0 1.225
0.625 0.0625 1.1
0.625 0.0625 1.225
0.5625 0.125 1.1
0.625 0.125 1.1625
0.5625 0.125 1.225
0.5625 0 1.1625
0.5625 0.0625 1.1
0.625 0.0625 1.1625
0.5625 0.0625 1.225
0.5625 0.125 1.1625
0.5625 0.0625 1.1625
0.6875 0 1.1
0.75 0 1.1625
0.6875 0 1.225
0.75 0.0625 1.1
0.75 0.0625 1.225
0.6875 0.125 1.1
0.75 0.125 1.1625
0.6875 0.125 1.225
0.6875 0 1.1625
0.6875 0.0625 1.1
0.75 0.0625 1.1625
0.6875 0.0625 1.225
0.6875 0.125 1.1625
0.6875 0.0625 1.1625
0.8125 0 1.1
0.875 0 1.1625
0.8125 0 1.225
0.875 0.0625 1.1
0.875 0.0625 1.225
0.8125 0.125 1.1
0.875 0.125 1.1625
0.8125 0.125 1.225
0.8125 0 1.1625
0.8125 0.0625 1.1
0.875 0.0625 1.1625
0.8125 0.0625 1.225
0.8125 0.125 1.1625
0.8125 0.0625 1.1625
0.9375 0 1.1
1 0 1.1625
0.9375 0 1.225
1 0.0625 1.1
1 0.0625 1.225
0.9375 0.125 1.1
1 0.125 1.1625
0.9375 0.125 1.225
0.9375 0 1.1625
0.9375 0.0625 1.1
1 0.0625 1.1625
0.9375 0.0625 1.225
0.9375 0.125 1.1625
0.9375 0.0625 1.1625
1.0625 0 1.1
1.125 0 1.1625
1.0625 0 1.225
1.125 0.0625 1.1
1.125 0.0625 1.225
1.0625 0.125 1.1
1.125 0.125 1.1625
1.0625 0.125 1.225
1.0625 0 1.1625
1.0625 0.0625 1.1
1.125 0.0625 1.1625
1.0625 0.0625 1.225
1.0625 0.125 1.1625
1.0625 0.0625 1.1625
1.1875 0 1.1
1.25 0 1.1625
1.1875 0 1.225
1.25 0.0625 1.1
1.25 0.0625 1.225
1.1875 0.125 1.1
1.25 0.125 1.1625
1.1875 0.125 1.225
1.1875 0 1.1625
1.1875 0.0625 1.1
1.25 0.0625 1.1625
1.1875 0.0625 1.225
1.1875 0.125 1.1625
1.1875 0.0625 1.1625
1.3125 0 1.1
1.375 0 1.1625
1.3125 0 1.225
1.375 0.0625 1.1
1.375 0.0625 1.225
1.3125 0.125 1.1
1.375 0.125 1.1625
1.3125 0.125 1.225
1.3125 0 1.1625
1.3125 0.0625 1.1
1.375 0.0625 1.1625
1.3125 0.0625 1.225
1.3125 0.125 1.1625
1.3125 0.0625 1.1625
1.4375 0 1.1
1.5 0 1.1625
1.4375 0 1.225
1.5 0.0625 1.1
1.5 0.0625 1.225
1.4375 0.125 1.1
1.5 0.125 1.1625
1.4375 0.125 1.225
1.4375 0 1.1625
1.4375 0.0625 1.1
1.5 0.0625 1.1625
1.4375 0.0625 1.225
1.4375 0.125 1.1625
1.4375 0.0625 1.1625
1.5625 0 1.1
1.625 0 1.1625
1.5625 0 1.225
1.625 0.0625 1.1
1.625 0.0625 1.225
1.5625 0.125 1.1
1.625 0.125 1.1625
1.5625 0.125 1.225
1.5625 0 1.1625
1.5625 0.0625 1.1
1.625 0.0625 1.1625
1.5625 0.0625 1.225
1.5625 0.125 1.1625
1.5625 0.0625 1.1625
1.6875 0 1.1
1.75 0 1.1625
1.6875 0 1.225
1.75 0.0625 1.1
1.75 0.0625 1.225
1.6875 0.125 1.1
1.75 0.125 1.1625
1.6875 0.125 1.225
1.6875 0 1.1625
1.6875 0.0625 1.1
1.75 0.0625 1.1625
1.6875 0.0625 1.225
1.6875 0.125 1.1625
1.6875 0.0625 1.1625
1.8125 0 1.1
1.875 0 1.1625
1.8125 0 1.225
1.875 0.0625 1.1
1.875 0.0625 1.225
1.8125 0.125 1.1
1.875 0.125 1.1625
1.8125 0.125 1.225
1.8125 0 1.1625
1.8125 0.0625 1.1
1.875 0.0625 1.1625
1.8125 0.0625 1.225
1.8125 0.125 1.1625
1.8125 0.0625 1.1625
1.9375 0 1.1
2 0 1.1625
1.9375 0 1.225
2 0.0625 1.1
2 0.0625 1.225
1.9375 0.125 1.1
2 0.125 1.1625
1.9375 0.125 1.225
1.9375 0 1.1625
1.9375 0.0625 1.1
2 0.0625 1.1625
1.9375 0.0625 1.225
1.9375 0.125 1.1625
1.9375 0.0625 1.1625
2.0625 0 1.1
2.125 0 1.1625
2.0625 0 1.225
2.125 0.0625 1.1
2.125 0.0625 1.225
2.0625 0.125 1.1
2.125 0.125 1.1625
2.0625 0.125 1.225
2.0625 0 1.1625
2.0625 0.0625 1.1
2.125 0.0625 1.1625
2.0625 0.0625 1.225
2.0625 0.125 1.1625
2.0625 0.0625 1.1625
2.1875 0 1.1
2.25 0 1.1625
2.1875 0 1.225
2.25 0.0625 1.1
2.25 0.0625 1.225
2.1875 0.125 1.1
2.25 0.125 1.1625
2.1875 0.125 1.225
2.1875 0 1.1625
2.1875 0.0625 1.1
2.25 0.0625 1.1625
2.1875 0.0625 1.225
2.1875 0.125 1.1625
2.1875 0.0625 1.1625
2.3125 0 1.1
2.375 0 1.1625
2.3125 0 1.225
2.375 0.0625 1.1
2.375 0.0625 1.225
2.3125 0.125 1.1
2.375 0.125 1.1625
2.3125 0.125 1.225
2.3125 0 1.1625
2.3125 0.0625 1.1
2.375 0.0625 1.1625
2.3125 0.0625 1.225
2.3125 0.125 1.1625
2.3125 0.0625 1.1625
2.4375 0 1.1
2.5 0 1.1625
2.4375 0 1.225
2.5 0.0625 1.1
2.5 0.0625 1.225
2.4375 0.125 1.1
2.5 0.125 1.1625
2.4375 0.125 1.225
2.4375 0 1.1625
2.4375 0.0625 1.1
2.5 0.0625 1.1625
2.4375 0.0625 1.225
2.4375 0.125 1.1625
2.4375 0.0625 1.1625
2.5625 0 1.1
2.625 0 1.1625
2.5625 0 1.225
2.625 0.0625 1.1
2.625 0.0625 1.225
2.5625 0.125 1.1
2.625 0.125 1.1625
2.5625 0.125 1.225
2.5625 0 1.1625
2.5625 0.0625 1.1
2.625 0.0625 1.1625
2.5625 0.0625 1.225
2.5625 0.125 1.1625
2.5625 0.0625 1.1625
2.6875 0 1.1
2.75 0 1.1625
2.6875 0 1.225
2.75 0.0625 1.1
2.75 0.0625 1.225
2.6875 0.125 1.1
2.75 0.125 1.1625
2.6875 0.125 1.225
2.6875 0 1.1625
2.6875 0.0625 1.1
2.75 0.0625 1.1625
2.6875 0.0625 1.225
2.6875 0.125 1.1625
2.6875 0.0625 1.1625
2.8125 0 1.1
2.875 0 1.1625
2.8125 0 1.225
2.875 0.0625 1.1
2.875 0.0625 1.225
2.8125 0.125 1.1
2.875 0.125 1.1625
2.8125 0.125 1.225
2.8125 0 1.1625
2.8125 0.0625 1.1
2.875 0.0625 1.1625
2.8125 0.0625 1.225
2.8125 0.125 1.1625
2.8125 0.0625 1.1625
2.9375 0 1.1
3 0 1.1625
2.9375 0 1.225
3 0.0625 1.1
3 0.0625 1.225
2.9375 0.125 1.1
3 0.125 1.1625
2.9375 0.125 1.225
2.9375 0 1.1625
2.9375 0.0625 1.1
3 0.0625 1.1625
2.9375 0.0625 1.225
2.9375 0.125 1.1625
2.9375 0.0625 1.1625
0 0.1875 1.1
0.125 0.1875 1.1
0.125 0.1875 1.225
0 0.1875 1.225
0.0625 0.25 1.1
0.125 0.25 1.1625
0.0625 0.25 1.225
0 0.25 1.1625
0.0625 0.1875 1.1
0.125 0.1875 1.1625
0.0625 0.1875 1.225
0 0.1875 1.1625
0.0625 0.25 1.1625
0.0625 0.1875 1.1625
0.25 0.1875 1.1
0.25 0.1875 1.225
0.1875 0.25 1.1
0.25 0.25 1.1625
0.1875 0.25 1.225
0.1875 0.1875 1.1
0.25 0.1875 1.1625
0.1875 0.1875 1.225
0.1875 0.25 1.1625
0.1875 0.1875 1.1625
0.375 0.1875 1.1
0.375 0.1875 1.225
0.3125 0.25 1.1
0.375 0.25 1.1625
0.3125 0.25 1.225
0.3125 0.1875 1.1
0.375 0.1875 1.1625
0.3125 0.1875 1.225
0.3125 0.25 1.1625
0.3125 0.1875 1.1625
0.5 0.1875 1.1
0.5 0.1875 1.225
0.4375 0.25 1.1
0.5 0.25 1.1625
0.4375 0.25 1.225
0.4375 0.1875 1.1
0.5 0.1875 1.1625
0.4375 0.1875 1.225
0.4375 0.25 1.1625
0.4375 0.1875 1.1625
0.625 0.1875 1.1
0.625 0.1875 1.225
0.5625 0.25 1.1
0.625 0.25 1.1625
0.5625 0.25 1.225
0.5625 0.1875 1.1
0.625 0.1875 1.1625
0.5625 0.1875 1.225
0.5625 0.25 1.1625
0.5625 0.1875 1.1625
0.75 0.1875 1.1
0.75 0.1875 1.225
0.6875 0.25 1.1
0.75 0.25 1.1625
0.6875 0.25 1.225
0.6875 0.1875 1.1
0.75 0.1875 1.1625
0.6875 0.1875 1.225
0.6875 0.25 1.1625
0.6875 0.1875 1.1625
0.875 0.1875 1.1
0.875 0.1875 1.225
0.8125 0.25 1.1
0.875 0.25 1.1625
0.8125 0.25 1.225
0.8125 0.1875 1.1
0.875 0.1875 1.1625
0.8125 0.1875 1.225
0.8125 0.25 1.1625
0.8125 0.1875 1.1625
1 0.1875 1.1
1 0.1875 1.225
0.9375 0.25 1.1
1 0.25 1.1625
0.9375 0.25 1.225
0.9375 0.1875 1.1
1 0.1875 1.1625
0.9375 0.1875 1.225
0.9375 0.25 1.1625
0.9375 0.1875 1.1625
1.125 0.1875 1.1
1.125 0.1875 1.225
1.0625 0.25 1.1
1.125 0.25 1.1625
1.0625 0.25 1.225
1.0625 0.1875 1.1
1.125 0.1875 1.1625
1.0625 0.1875 1.225
1.0625 0.25 1.1625
1.0625 0.1875 1.1625
1.25 0.1875 1.1
1.25 0.1875 1.225
1.1875 0.25 1.1
1.25 0.25 1.1625
1.1875 0.25 1.225
1.1875 0.1875 1.1
1.25 0.1875 1.1625
1.1875 0.1875 1.225
1.1875 0.25 1.1625
1.1875 0.1875 1.1625
1.375 0.1875 1.1
1.375 0.1875 1.225
1.3125 0.25 1.1
1.375 0.25 1.1625
1.3125 0.25 1.225
1.3125 0.1875 1.1
1.375 0.1875 1.1625
1.3125 0.1875 1.225
1.3125 0.25 1.1625
1.3125 0.1875 1.1625
1.5 0.1875 1.1
1.5 0.1875 1.225
1.4375 0.25 1.1
1.5 0.25 1.1625
1.4375 0.25 1.225
1.4375 0.1875 1.1
1.5 0.1875 1.1625
1.4375 0.1875 1.225
1.4375 0.25 1.1625
1.4375 0.1875 1.1625
1.625 0.1875 1.1
1.625 0.1875 1.225
1.5625 0.25 1.1
1.625 0.25 1.1625
1.5625 0.25 1.225
1.5625 0.1875 1.1
1.625 0.1875 1.1625
1.5625 0.1875 1.225
1.5625 0.25 1.1625
1.5625 0.1875 1.1625
1.75 0.1875 1.1
1.75 0.1875 1.225
1.6875 0.25 1.1
1.75 0.25 1.1625
1.6875 0.25 1.225
1.6875 0.1875 1.1
1.75 0.1875 1.1625
1.6875 0.1875 1.225
1.6875 0.25 1.1625
1.6875 0.1875 1.1625
1.875 0.1875 1.1
1.875 0.1875 1.225
1.8125 0.25 1.1
1.875 0.25 1.1625
1.8125 0.25 1.225
1.8125 0.1875 1.1
1.875 0.1875 1.1625
1.8125 0.1875 1.225
1.8125 0.25 1.1625
1.8125 0.1875 1.1625
2 0.1875 1.1
2 0.1875 1.225
1.9375 0.25 1.1
2 0.25 1.1625
1.9375 0.25 1.225
1.9375 0.1875 1.1
2 0.1875 1.1625
1.9375 0.1875 1.225
1.9375 0.25 1.1625
1.9375 0.1875 1.1625
2.125 0.1875 1.1
2.125 0.1875 1.225
2.0625 0.25 1.1
2.125 0.25 1.1625
2.0625 0.25 1.225
2.0625 0.1875 1.1
2.125 0.1875 1.1625
2.0625 0.1875 1.225
2.0625 0.25 1.1625
2.0625 0.1875 1.1625
2.25 0.1875 1.1
2.25 0.1875 1.225
2.1875 0.25 1.1
2.25 0.25 1.1625
2.1875 0.25 1.225
2.1875 0.1875 1.1
2.25 0.1875 1.1625
2.1875 0.1875 1.225
2.1875 0.25 1.1625
2.1875 0.1875 1.1625
2.375 0.1875 1.1
2.375 0.1875 1.225
2.3125 0.25 1.1
2.375 0.25 1.1625
2.3125 0.25 1.225
2.3125 0.1875 1.1
2.375 0.1875 1.1625
2.3125 0.1875 1.225
2.3125 0.25 1.1625
2.3125 0.1875 1.1625
2.5 0.1875 1.1
2.5 0.1875 1.225
2.4375 0.25 1.1
2.5 0.25 1.1625
2.4375 0.25 1.225
2.4375 0.1875 1.1
2.5 0.1875 1.1625
2.4375 0.1875 1.225
2.4375 0.25 1.1625
2.4375 0.1875 1.1625
2.625 0.1875 1.1
2.625 0.1875 1.225
2.5625 0.25 1.1
2.625 0.25 1.1625
2.5625 0.25 1.225
2.5625 0.1875 1.1
2.625 0.1875 1.1625
2.5625 0.1875 1.225
2.5625 0.25 1.1625
2.5625 0.1875 1.1625
2.75 0.1875 1.1
2.75 0.1875 1.225
2.6875 0.25 1.1
2.75 0.25 1.1625
2.6875 0.25 1.225
2.6875 0.1875 1.1
2.75 0.1875 1.1625
2.6875 0.1875 1.225
2.6875 0.25 1.1625
2.6875 0.1875 1.1625
2.875 0.1875 1.1
2.875 0.1875 1.225
2.8125 0.25 1.1
2.875 0.25 1.1625
2.8125 0.25 1.225
2.8125 0.1875 1.1
2.875 0.1875 1.1625
2.8125 0.1875 1.225
2.8125 0.25 1.1625
2.8125 0.1875 1.1625
3 0.1875 1.1
3 0.1875 1.225
2.9375 0.25 1.1
3 0.25 1.1625
2.9375 0.25 1.225
2.9375 0.1875 1.1
3 0.1875 1.1625
2.9375 0.1875 1.225
2.9375 0.25 1.1625
2.9375 0.1875 1.1625
0 0.3125 1.1
0.125 0.3125 1.1
0.125 0.3125 1.225
0 0.3125 1.225
0.0625 0.375 1.1
0.125 0.375 1.1625
0.0625 0.375 1.225
0 0.375 1.1625
0.0625 0.3125 1.1
0.125 0.3125 1.1625
0.0625 0.3125 1.225
0 0.3125 1.1625
0.0625 0.375 1.1625
0.0625 0.3125 1.1625
0.25 0.3125 1.1
0.25 0.3125 1.225
0.1875 0.375 1.1
0.25 0.375 1.1625
0.1875 0.375 1.225
0.1875 0.3125 1.1
0.25 0.3125 1.1625
0.1875 0.3125 1.225
0.1875 0.375 1.1625
0.1875 0.3125 1.1625
0.375 0.3125 1.1
0.375 0.3125 1.225
0.3125 0.375 1.1
0.375 0.375 1.1625
0.3125 0.375 1.225
0.3125 0.3125 1.1
0.375 0.3125 1.1625
0.3125 0.3125 1.225
0.3125 0.375 1.1625
0.3125 0.3125 1.1625
0.5 0.3125 1.1
0.5 0.3125 1.225
0.4375 0.375 1.1
0.5 0.375 1.1625
0.4375 0.375 1.225
0.4375 0.3125 1.1
0.5 0.3125 1.1625
0.4375 0.3125 1.225
0.4375 0.375 1.1625
0.4375 0.3125 1.1625
0.625 0.3125 1.1
0.625 0.3125 1.225
0.5625 0.375 1.1
0.625 0.375 1.1625
0.5625 0.375 1.225
0.5625 0.3125 1.1
0.625 0.3125 1.1625
0.5625 0.3125 1.225
0.5625 0.375 1.1625
0.5625 0.3125 1.1625
0.75 0.3125 1.1
0.75 0.3125 1.225
0.6875 0.375 1.1
0.75 0.375 1.1625
0.6875 0.375 1.225
0.6875 0.3125 1.1
0.75 0.3125 1.1625
0.6875 0.3125 1.225
0.6875 0.375 1.1625
0.6875 0.3125 1.1625
0.875 0.3125 1.1
0.875 0.3125 1.225
0.8125 0.375 1.1
0.875 0.375 1.1625
0.8125 0.375 1.225
0.8125 0.3125 1.1
0.875 0.3125 1.1625
0.8125 0.3125 1.225
0.8125 0.375 1.1625
0.8125 0.3125 1.1625
1 0.3125 1.1
1 0.3125 1.225
0.9375 0.375 1.1
1 0.375 1.1625
0.9375 0.375 1.225
0.9375 0.3125 1.1
1 0.3125 1.1625
0.9375 0.3125 1.225
0.9375 0.375 1.1625
0.9375 0.3125 1.1625
1.125 0.3125 1.1
1.125 0.3125 1.225
1.0625 0.375 1.1
1.125 0.375 1.1625
1.0625 0.375 1.225
1.0625 0.3125 1.1
1.125 0.3125 1.1625
1.0625 0.3125 1.225
1.0625 0.375 1.1625
1.0625 0.3125 1.1625
1.25 0.3125 1.1
1.25 0.3125 1.225
1.1875 0.375 1.1
1.25 0.375 1.1625
1.1875 0.375 1.225
1.1875 0.3125 1.1
1.25 0.3125 1.1625
1.1875 0.3125 1.225
1.1875 0.375 1.1625
1.1875 0.3125 1.1625
1.375 0.3125 1.1
1.375 0.3125 1.225
1.3125 0.375 1.1
1.375 0.375 1.1625
1.3125 0.375 1.225
1.3125 0.3125 1.1
1.375 0.3125 1.1625
1.3125 0.3125 1.225
1.3125 0.375 1.1625
1.3125 0.3125 1.1625
1.5 0.3125 1.1
1.5 0.3125 1.225
1.4375 0.375 1.1
1.5 0.375 1.1625
1.4375 0.375 1.225
1.4375 0.3125 1.1
1.5 0.3125 1.1625
1.4375 0.3125 1.225
1.4375 0.375 1.1625
1.4375 0.3125 1.1625
1.625 0.3125 1.1
1.625 0.3125 1.225
1.5625 0.375 1.1
1.625 0.375 1.1625
1.5625 0.375 1.225
1.5625 0.3125 1.1
1.625 0.3125 1.1625
1.5625 0.3125 1.225
1.5625 0.375 1.1625
1.5625 0.3125 1.1625
1.75 0.3125 1.1
1.75 0.3125 1.225
1.6875 0.375 1.1
1.75 0.375 1.1625
1.6875 0.375 1.225
1.6875 0.3125 1.1
1.75 0.3125 1.1625
1.6875 0.3125 1.225
1.6875 0.375 1.1625
1.6875 0.3125 1.1625
1.875 0.3125 1.1
1.875 0.3125 1.225
1.8125 0.375 1.1
1.875 0.375 1.1625
1.8125 0.375 1.225
1.8125 0.3125 1.1
1.875 0.3125 1.1625
1.8125 0.3125 1.225
1.8125 0.375 1.1625
1.8125 0.3125 1.1625
2 0.3125 1.1
2 0.3125 1.225
1.9375 0.375 1.1
2 0.375 1.1625
1.9375 0.375 1.225
1.9375 0.3125 1.1
2 0.3125 1.1625
1.9375 0.3125 1.225
1.9375 0.375 1.1625
1.9375 0.3125 1.1625
2.125 0.3125 1.1
2.125 0.3125 1.225
2.0625 0.375 1.1
2.125 0.375 1.1625
2.0625 0.375 1.225
2.0625 0.3125 1.1
2.125 0.3125 1.1625
2.0625 0.3125 1.225
2.0625 0.375 1.1625
2.0625 0.3125 1.1625
2.25 0.3125 1.1
2.25 0.3125 1.225
2.1875 0.375 1.1
2.25 0.375 1.1625
2.1875 0.375 1.225
2.1875 0.3125 1.1
2.25 0.3125 1.1625
2.1875 0.3125 1.225
2.1875 0.375 1.1625
2.1875 0.3125 1.1625
2.375 0.3125 1.1
2.375 0.3125 1.225
2.3125 0.375 1.1
2.375 0.375 1.1625
2.3125 0.375 1.225
2.3125 0.3125 1.1
2.375 0.3125 1.1625
2.3125 0.3125 1.225
2.3125 0.375 1.1625
2.3125 0.3125 1.1625
2.5 0.3125 1.1
2.5 0.3125 1.225
2.4375 0.375 1.1
2.5 0.375 1.1625
2.4375 0.375 1.225
2.4375 0.3125 1.1
2.5 0.3125 1.1625
2.4375 0.3125 1.225
2.4375 0.375 1.1625
2.4375 0.3125 1.1625
2.625 0.3125 1.1
2.625 0.3125 1.225
2.5625 0.375 1.1
2.625 0.375 1.1625
2.5625 0.375 1.225
2.5625 0.3125 1.1
2.625 0.3125 1.1625
2.5625 0.3125 1.225
2.5625 0.375 1.1625
2.5625 0.3125 1.1625
2.75 0.3125 1.1
2.75 0.3125 1.225
2.6875 0.375 1.1
2.75 0.375 1.1625
2.6875 0.375 1.225
2.6875 0.3125 1.1
2.75 0.3125 1.1625
2.6875 0.3125 1.225
2.6875 0.375 1.1625
2.6875 0.3125 1.1625
2.875 0.3125 1.1
2.875 0.3125 1.225
2.8125 0.375 1.1
2.875 0.375 1.1625
2.8125 0.375 1.225
2.8125 0.3125 1.1
2.875 0.3125 1.1625
2.8125 0.3125 1.225
2.8125 0.375 1.1625
2.8125 0.3125 1.1625
3 0.3125 1.1
3 0.3125 1.225
2.9375 0.375 1.1
3 0.375 1.1625
2.9375 0.375 1.225
2.9375 0.3125 1.1
3 0.3125 1.1625
2.9375 0.3125 1.225
2.9375 0.375 1.1625
2.9375 0.3125 1.1625
0 0.4375 1.1
0.125 0.4375 1.1
0.125 0.4375 1.225
0 0.4375 1.225
0.0625 0.5 1.1
0.125 0.5 1.1625
0.0625 0.5 1.225
0 0.5 1.1625
0.0625 0.4375 1.1
0.125 0.4375 1.1625
0.0625 0.4375 1.225
0 0.4375 1.1625
0.0625 0.5 1.1625
0.0625 0.4375 1.1625
0.25 0.4375 1.1
0.25 0.4375 1.225
0.1875 0.5 1.1
0.25 0.5 1.1625
0.1875 0.5 1.225
0.1875 0.4375 1.1
0.25 0.4375 1.1625
0.1875 0.4375 1.225
0.1875 0.5 1.1625
0.1875 0.4375 1.1625
0.375 0.4375 1.1
0.375 0.4375 1.225
0.3125 0.5 1.1
0.375 0.5 1.1625
0.3125 0.5 1.225
0.3125 0.4375 1.1
0.375 0.4375 1.1625
0.3125 0.4375 1.225
0.3125 0.5 1.1625
0.3125 0.4375 1.1625
0.5 0.4375 1.1
0.5 0.4375 1.225
0.4375 0.5 1.1
0.5 0.5 1.1625
0.4375 0.5 1.225
0.4375 0.4375 1.1
0.5 0.4375 1.1625
0.4375 0.4375 1.225
0.4375 0.5 1.1625
0.4375 0.4375 1.1625
0.625 0.4375 1.1
0.625 0.4375 1.225
0.5625 0.5 1.1
0.625 0.5 1.1625
0.5625 0.5 1.225
0.5625 0.4375 1.1
0.625 0.4375 1.1625
0.5625 0.4375 1.225
0.5625 0.5 1.1625
0.5625 0.4375 1.1625
0.75 0.4375 1.1
0.75 0.4375 1.225
0.6875 0.5 1.1
0.75 0.5 1.1625
0.6875 0.5 1.225
0.6875 0.4375 1.1
0.75 0.4375 1.1625
0.6875 0.4375 1.225
0.6875 0.5 1.1625
0.6875 0.4375 1.1625
0.875 0.4375 1.1
0.875 0.4375 1.225
0.8125 0.5 1.1
0.875 0.5 1.1625
0.8125 0.5 1.225
0.8125 0.4375 1.1
0.875 0.4375 1.1625
0.8125 0.4375 1.225
0.8125 0.5 1.1625
0.8125 0.4375 1.1625
1 0.4375 1.1
1 0.4375 1.225
0.9375 0.5 1.1
1 0.5 1.1625
0.9375 0.5 1.225
0.9375 0.4375 1.1
1 0.4375 1.1625
0.9375 0.4375 1.225
0.9375 0.5 1.1625
0.9375 0.4375 1.1625
1.125 0.4375 1.1
1.125 0.4375 1.225
1.0625 0.5 1.1
1.125 0.5 1.1625
1.0625 0.5 1.225
1.0625 0.4375 1.1
1.125 0.4375 1.1625
1.0625 0.4375 1.225
1.0625 0.5 1.1625
1.0625 0.4375 1.1625
1.25 0.4375 1.1
1.25 0.4375 1.225
1.1875 0.5 1.1
1.25 0.5 1.1625
1.1875 0.5 1.225
1.1875 0.4375 1.1
1.25 0.4375 1.1625
1.1875 0.4375 1.225
1.1875 0.5 1.1625
1.1875 0.4375 1.1625
1.375 0.4375 1.1
1.375 0.4375 1.225
1.3125 0.5 1.1
1.375 0.5 1.1625
1.3125 0.5 1.225
1.3125 0.4375 1.1
1.375 0.4375 1.1625
1.3125 0.4375 1.225
1.3125 0.5 1.1625
1.3125 0.4375 1.1625
1.5 0.4375 1.1
1.5 0.4375 1.225
1.4375 0.5 1.1
1.5 0.5 1.1625
1.4375 0.5 1.225
1.4375 0.4375 1.1
1.5 0.4375 1.1625
1.4375 0.4375 1.225
1.4375 0.5 1.1625
1.4375 0.4375 1.1625
1.625 0.4375 1.1
1.625 0.4375 1.225
1.5625 0.5 1.1
1.625 0.5 1.1625
1.5625 0.5 1.225
1.5625 0.4375 1.1
1.625 0.4375 1.1625
1.5625 0.4375 1.225
1.5625 0.5 1.1625
1.5625 0.4375 1.1625
1.75 0.4375 1.1
1.75 0.4375 1.225
1.6875 0.5 1.1
1.75 0.5 1.1625
1.6875 0.5 1.225
1.6875 0.4375 1.1
1.75 0.4375 1.1625
1.6875 0.4375 1.225
1.6875 0.5 1.1625
1.6875 0.4375 1.1625
1.875 0.4375 1.1
1.875 0.4375 1.225
1.8125 0.5 1.1
1.875 0.5 1.1625
1.8125 0.5 1.225
1.8125 0.4375 1.1
1.875 0.4375 1.1625
1.8125 0.4375 1.225
1.8125 0.5 1.1625
1.8125 0.4375 1.1625
2 0.4375 1.1
2 0.4375 1.225
1.9375 0.5 1.1
2 0.5 1.1625
1.9375 0.5 1.225
1.9375 0.4375 1.1
2 0.4375 1.1625
1.9375 0.4375 1.225
1.9375 0.5 1.1625
1.9375 0.4375 1.1625
2.125 0.4375 1.1
2.125 0.4375 1.225
2.0625 0.5 1.1
2.125 0.5 1.1625
2.0625 0.5 1.225
2.0625 0.4375 1.1
2.125 0.4375 1.1625
2.0625 0.4375 1.225
2.0625 0.5 1.1625
2.0625 0.4375 1.1625
2.25 0.4375 1.1
2.25 0.4375 1.225
2.1875 0.5 1.1
2.25 0.5 1.1625
2.1875 0.5 1.225
2.1875 0.4375 1.1
2.25 0.4375 1.1625
2.1875 0.4375 1.225
2.1875 0.5 1.1625
2.1875 0.4375 1.1625
2.375 0.4375 1.1
2.375 0.4375 1.225
2.3125 0.5 1.1
2.375 0.5 1.1625
2.3125 0.5 1.225
2.3125 0.4375 1.1
2.375 0.4375 1.1625
2.3125 0.4375 1.225
2.3125 0.5 1.1625
2.3125 0.4375 1.1625
2.5 0.4375 1.1
2.5 0.4375 1.225
2.4375 0.5 1.1
2.5 0.5 1.1625
2.4375 0.5 1.225
2.4375 0.4375 1.1
2.5 0.4375 1.1625
2.4375 0.4375 1.225
2.4375 0.5 1.1625
2.4375 0.4375 1.1625
2.625 0.4375 1.1
2.625 0.4375 1.225
2.5625 0.5 1.1
2.625 0.5 1.1625
2.5625 0.5 1.225
2.5625 0.4375 1.1
2.625 0.4375 1.1625
2.5625 0.4375 1.225
2.5625 0.5 1.1625
2.5625 0.4375 1.1625
2.75 0.4375 1.1
2.75 0.4375 1.225
2.6875 0.5 1.1
2.75 0.5 1.1625
2.6875 0.5 1.225
2.6875 0.4375 1.1
2.75 0.4375 1.1625
2.6875 0.4375 1.225
2.6875 0.5 1.1625
2.6875 0.4375 1.1625
2.875 0.4375 1.1
2.875 0.4375 1.225
2.8125 0.5 1.1
2.875 0.5 1.1625
2.8125 0.5 1.225
2.8125 0.4375 1.1
2.875 0.4375 1.1625
2.8125 0.4375 1.225
2.8125 0.5 1.1625
2.8125 0.4375 1.1625
3 0.4375 1.1
3 0.4375 1.225
2.9375 0.5 1.1
3 0.5 1.1625
2.9375 0.5 1.225
2.9375 0.4375 1.1
3 0.4375 1.1625
2.9375 0.4375 1.225
2.9375 0.5 1.1625
2.9375 0.4375 1.1625
0 0.5625 1.1
0.125 0.5625 1.1
0.125 0.5625 1.225
0 0.5625 1.225
0.0625 0.625 1.1
0.125 0.625 1.1625
0.0625 0.625 1.225
0 0.625 1.1625
0.0625 0.5625 1.1
0.125 0.5625 1.1625
0.0625 0.5625 1.225
0 0.5625 1.1625
0.0625 0.625 1.1625
0.0625 0.5625 1.1625
0.25 0.5625 1.1
0.25 0.5625 1.225
0.1875 0.625 1.1
0.25 0.625 1.1625
0.1875 0.625 1.225
0.1875 0.5625 1.1
0.25 0.5625 1.1625
0.1875 0.5625 1.225
0.1875 0.625 1.1625
0.1875 0.5625 1.1625
0.375 0.5625 1.1
0.375 0.5625 1.225
0.3125 0.625 1.1
0.375 0.625 1.1625
0.3125 0.625 1.225
0.3125 0.5625 1.1
0.375 0.5625 1.1625
0.3125 0.5625 1.225
0.3125 0.625 1.1625
0.3125 0.5625 1.1625
0.5 0.5625 1.1
0.5 0.5625 1.225
0.4375 0.625 1.1
0.5 0.625 1.1625
0.4375 0.625 1.225
0.4375 0.5625 1.1
0.5 0.5625 1.1625
0.4375 0.5625 1.225
0.4375 0.625 1.1625
0.4375 0.5625 1.1625
0.625 0.5625 1.1
0.625 0.5625 1.225
0.5625 0.625 1.1
0.625 0.625 1.1625
0.5625 0.625 1.225
0.5625 0.5625 1.1
0.625 0.5625 1.1625
0.5625 0.5625 1.225
0.5625 0.625 1.1625
0.5625 0.5625 1.1625
0.75 0.5625 1.1
0.75 0.5625 1.225
0.6875 0.625 1.1
0.75 0.625 1.1625
0.6875 0.625 1.225
0.6875 0.5625 1.1
0.75 0.5625 1.1625
0.6875 0.5625 1.225
0.6875 0.625 1.1625
0.6875 0.5625 1.1625
0.875 0.5625 1.1
0.875 0.5625 1.225
0.8125 0.625 1.1
0.875 0.625 1.1625
0.8125 0.625 1.225
0.8125 0.5625 1.1
0.875 0.5625 1.1625
0.8125 0.5625 1.225
0.8125 0.625 1.1625
0.8125 0.5625 1.1625
1 0.5625 1.1
1 0.5625 1.225
0.9375 0.625 1.1
1 0.625 1.1625
0.9375 0.625 1.225
0.9375 0.5625 1.1
1 0.5625 1.1625
0.9375 0.5625 1.225
0.9375 0.625 1.1625
0.9375 0.5625 1.1625
1.125 0.5625 1.1
1.125 0.5625 1.225
1.0625 0.625 1.1
1.125 0.625 1.1625
1.0625 0.625 1.225
1.0625 0.5625 1.1
1.125 0.5625 1.1625
1.0625 0.5625 1.225
1.0625 0.625 1.1625
1.0625 0.5625 1.1625
1.25 0.5625 1.1
1.25 0.5625 1.225
1.1875 0.625 1.1
1.25 0.625 1.1625
1.1875 0.625 1.225
1.1875 0.5625 1.1
1.25 0.5625 1.1625
1.1875 0.5625 1.225
1.1875 0.625 1.1625
1.1875 0.5625 1.1625
1.375 0.5625 1.1
1.375 0.5625 1.225
1.3125 0.625 1.1
1.375 0.625 1.1625
1.3125 0.625 1.225
1.3125 0.5625 1.1
1.375 0.5625 1.1625
1.3125 0.5625 1.225
1.3125 0.625 1.1625
1.3125 0.5625 1.1625
1.5 0.5625 1.1
1.5 0.5625 1.225
1.4375 0.625 1.1
1.5 0.625 1.1625
1.4375 0.625 1.225
1.4375 0.5625 1.1
1.5 0.5625 1.1625
1.4375 0.5625 1.225
1.4375 0.625 1.1625
1.4375 0.5625 1.1625
1.625 0.5625 1.1
1.625 0.5625 1.225
1.5625 0.625 1.1
1.625 0.625 1.1625
1.5625 0.625 1.225
1.5625 0.5625 1.1
1.625 0.5625 1.1625
1.5625 0.5625 1.225
1.5625 0.625 1.1625
1.5625 0.5625 1.1625
1.75 0.5625 1.1
1.75 0.5625 1.225
1.6875 0.625 1.1
1.75 0.625 1.1625
1.6875 0.625 1.225
1.6875 0.5625 1.1
1.75 0.5625 1.1625
1.6875 0.5625 1.225
1.6875 0.625 1.1625
1.6875 0.5625 1.1625
1.875 0.5625 1.1
1.875 0.5625 1.225
1.8125 0.625 1.1
1.875 0.625 1.1625
1.8125 0.625 1.225
1.8125 0.5625 1.1
1.875 0.5625 1.1625
1.8125 0.5625 1.225
1.8125 0.625 1.1625
1.8125 0.5625 1.1625
2 0.5625 1.1
2 0.5625 1.225
1.9375 0.625 1.1
2 0.625 1.1625
1.9375 0.625 1.225
1.9375 0.5625 1.1
2 0.5625 1.1625
1.9375 0.5625 1.225
1.9375 0.625 1.1625
1.9375 0.5625 1.1625
2.125 0.5625 1.1
2.125 0.5625 1.225
2.0625 0.625 1.1
2.125 0.625 1.1625
2.0625 0.625 1.225
2.0625 0.5625 1.1
2.125 0.5625 1.1625
2.0625 0.5625 1.225
2.0625 0.625 1.1625
2.0625 0.5625 1.1625
2.25 0.5625 1.1
2.25 0.5625 1.225
2.1875 0.625 1.1
2.25 0.625 1.1625
2.1875 0.625 1.225
2.1875 0.5625 1.1
2.25 0.5625 1.1625
2.1875 0.5625 1.225
2.1875 0.625 1.1625
2.1875 0.5625 1.1625
2.375 0.5625 1.1
2.375 0.5625 1.225
2.3125 0.625 1.1
2.375 0.625 1.1625
2.3125 0.625 1.225
2.3125 0.5625 1.1
2.375 0.5625 1.1625
2.3125 0.5625 1.225
2.3125 0.625 1.1625
2.3125 0.5625 1.1625
2.5 0.5625 1.1
2.5 0.5625 1.225
2.4375 0.625 1.1
2.5 0.625 1.1625
2.4375 0.625 1.225
2.4375 0.5625 1.1
2.5 0.5625 1.1625
2.4375 0.5625 1.225
2.4375 0.625 1.1625
2.4375 0.5625 1.1625
2.625 0.5625 1.1
2.625 0.5625 1.225
2.5625 0.625 1.1
2.625 0.625 1.1625
2.5625 0.625 1.225
2.5625 0.5625 1.1
2.625 0.5625 1.1625
2.5625 0.5625 1.225
2.5625 0.625 1.1625
2.5625 0.5625 1.1625
2.75 0.5625 1.1
2.75 0.5625 1.225
2.6875 0.625 1.1
2.75 0.625 1.1625
2.6875 0.625 1.225
2.6875 0.5625 1.1
2.75 0.5625 1.1625
2.6875 0.5625 1.225
2.6875 0.625 1.1625
2.6875 0.5625 1.1625
2.875 0.5625 1.1
2.875 0.5625 1.225
2.8125 0.625 1.1
2.875 0.625 1.1625
2.8125 0.625 1.225
2.8125 0.5625 1.1
2.875 0.5625 1.1625
2.8125 0.5625 1.225
2.8125 0.625 1.1625
2.8125 0.5625 1.1625
3 0.5625 1.1
3 0.5625 1.225
2.9375 0.625 1.1
3 0.625 1.1625
2.9375 0.625 1.225
2.9375 0.5625 1.1
3 0.5625 1.1625
2.9375 0.5625 1.225
2.9375 0.625 1.1625
2.9375 0.5625 1.1625
0 0.6875 1.1
0.125 0.6875 1.1
0.125 0.6875 1.225
0 0.6875 1.225
0.0625 0.75 1.1
0.125 0.75 1.1625
0.0625 0.75 1.225
0 0.75 1.1625
0.0625 0.6875 1.1
0.125 0.6875 1.1625
0.0625 0.6875 1.225
0 0.6875 1.1625
0.0625 0.75 1.1625
0.0625 0.6875 1.1625
0.25 0.6875 1.1
0.25 0.6875 1.225
0.1875 0.75 1.1
0.25 0.75 1.1625
0.1875 0.75 1.225
0.1875 0.6875 1.1
0.25 0.6875 1.1625
0.1875 0.6875 1.225
0.1875 0.75 1.1625
0.1875 0.6875 1.1625
0.375 0.6875 1.1
0.375 0.6875 1.225
0.3125 0.75 1.1
0.375 0.75 1.1625
0.3125 0.75 1.225
0.3125 0.6875 1.1
0.375 0.6875 1.1625
0.3125 0.6875 1.225
0.3125 0.75 1.1625
0.3125 0.6875 1.1625
0.5 0.6875 1.1
0.5 0.6875 1.225
0.4375 0.75 1.1
0.5 0.75 1.1625
0.4375 0.75 1.225
0.4375 0.6875 1.1
0.5 0.6875 1.1625
0.4375 0.6875 1.225
0.4375 0.75 1.1625
0.4375 0.6875 1.1625
0.625 0.6875 1.1
0.625 0.6875 1.225
0.5625 0.75 1.1
0.625 0.75 1.1625
0.5625 0.75 1.225
0.5625 0.6875 1.1
0.625 0.6875 1.1625
0.5625 0.6875 1.225
0.5625 0.75 1.1625
0.5625 0.6875 1.1625
0.75 0.6875 1.1
0.75 0.6875 1.225
0.6875 0.75 1.1
0.75 0.75 1.1625
0.6875 0.75 1.225
0.6875 0.6875 1.1
0.75 0.6875 1.1625
0.6875 0.6875 1.225
0.6875 0.75 1.1625
0.6875 0.6875 1.1625
0.875 0.6875 1.1
0.875 0.6875 1.225
0.8125 0.75 1.1
0.875 0.75 1.1625
0.8125 0.75 1.225
0.8125 0.6875 1.1
0.875 0.6875 1.1625
0.8125 0.6875 1.225
0.8125 0.75 1.1625
0.8125 0.6875 1.1625
1 0.6875 1.1
1 0.6875 1.225
0.9375 0.75 1.1
1 0.75 1.1625
0.9375 0.75 1.225
0.9375 0.6875 1.1
1 0.6875 1.1625
0.9375 0.6875 1.225
0.9375 0.75 1.1625
0.9375 0.6875 1.1625
1.125 0.6875 1.1
1.125 0.6875 1.225
1.0625 0.75 1.1
1.125 0.75 1.1625
1.0625 0.75 1.225
1.0625 0.6875 1.1
1.125 0.6875 1.1625
1.0625 0.6875 1.225
1.0625 0.75 1.1625
1.0625 0.6875 1.1625
1.25 0.6875 1.1
1.25 0.6875 1.225
1.1875 0.75 1.1
1.25 0.75 1.1625
1.1875 0.75 1.225
1.1875 0.6875 1.1
1.25 0.6875 1.1625
1.1875 0.6875 1.225
1.1875 0.75 1.1625
1.1875 0.6875 1.1625
1.375 0.6875 1.1
1.375 0.6875 1.225
1.3125 0.75 1.1
1.375 0.75 1.1625
1.3125 0.75 1.225
1.3125 0.6875 1.1
1.375 0.6875 1.1625
1.3125 0.6875 1.225
1.3125 0.75 1.1625
1.3125 0.6875 1.1625
1.5 0.6875 1.1
1.5 0.6875 1.225
1.4375 0.75 1.1
1.5 0.75 1.1625
1.4375 0.75 1.225
1.4375 0.6875 1.1
1.5 0.6875 1.1625
1.4375 0.6875 1.225
1.4375 0.75 1.1625
1.4375 0.6875 1.1625
1.625 0.6875 1.1
1.625 0.6875 1.225
1.5625 0.75 1.1
1.625 0.75 1.1625
1.5625 0.75 1.225
1.5625 0.6875 1.1
1.625 0.6875 1.1625
1.5625 0.6875 1.225
1.5625 0.75 1.1625
1.5625 0.6875 1.1625
1.75 0.6875 1.1
1.75 0.6875 1.225
1.6875 0.75 1.1
1.75 0.75 1.1625
1.6875 0.75 1.225
1.6875 0.6875 1.1
1.75 0.6875 1.1625
1.6875 0.6875 1.225
1.6875 0.75 1.1625
1.6875 0.6875 1.1625
1.875 0.6875 1.1
1.875 0.6875 1.225
1.8125 0.75 1.1
1.875 0.75 1.1625
1.8125 0.75 1.225
1.8125 0.6875 1.1
1.875 0.6875 1.1625
1.8125 0.6875 1.225
1.8125 0.75 1.1625
1.8125 0.6875 1.1625
2 0.6875 1.1
2 0.6875 1.225
1.9375 0.75 1.1
2 0.75 1.1625
1.9375 0.75 1.225
1.9375 0.6875 1.1
2 0.6875 1.1625
1.9375 0.6875 1.225
1.9375 0.75 1.1625
1.9375 0.6875 1.1625
2.125 0.6875 1.1
2.125 0.6875 1.225
2.0625 0.75 1.1
2.125 0.75 1.1625
2.0625 0.75 1.225
2.0625 0.6875 1.1
2.125 0.6875 1.1625
2.0625 0.6875 1.225
2.0625 0.75 1.1625
2.0625 0.6875 1.1625
2.25 0.6875 1.1
2.25 0.6875 1.225
2.1875 0.75 1.1
2.25 0.75 1.1625
2.1875 0.75 1.225
2.1875 0.6875 1.1
2.25 0.6875 1.1625
2.1875 0.6875 1.225
2.1875 0.75 1.1625
2.1875 0.6875 1.1625
2.375 0.6875 1.1
2.375 0.6875 1.225
2.3125 0.75 1.1
2.375 0.75 1.1625
2.3125 0.75 1.225
2.3125 0.6875 1.1
2.375 0.6875 1.1625
2.3125 0.6875 1.225
2.3125 0.75 1.1625
2.3125 0.6875 1.1625
2.5 0.6875 1.1
2.5 0.6875 1.225
2.4375 0.75 1.1
2.5 0.75 1.1625
2.4375 0.75 1.225
2.4375 0.6875 1.1
2.5 0.6875 1.1625
2.4375 0.6875 1.225
2.4375 0.75 1.1625
2.4375 0.6875 1.1625
2.625 0.6875 1.1
2.625 0.6875 1.225
2.5625 0.75 1.1
2.625 0.75 1.1625
2.5625 0.75 1.225
2.5625 0.6875 1.1
2.625 0.6875 1.1625
2.5625 0.6875 1.225
2.5625 0.75 1.1625
2.5625 0.6875 1.1625
2.75 0.6875 1.1
2.75 0.6875 1.225
2.6875 0.75 1.1
2.75 0.75 1.1625
2.6875 0.75 1.225
2.6875 0.6875 1.1
2.75 0.6875 1.1625
2.6875 0.6875 1.225
2.6875 0.75 1.1625
2.6875 0.6875 1.1625
2.875 0.6875 1.1
2.875 0.6875 1.225
2.8125 0.75 1.1
2.875 0.75 1.1625
2.8125 0.75 1.225
2.8125 0.6875 1.1
2.875 0.6875 1.1625
2.8125 0.6875 1.225
2.8125 0.75 1.1625
2.8125 0.6875 1.1625
3 0.6875 1.1
3 0.6875 1.225
2.9375 0.75 1.1
3 0.75 1.1625
2.9375 0.75 1.225
2.9375 0.6875 1.1
3 0.6875 1.1625
2.9375 0.6875 1.225
2.9375 0.75 1.1625
2.9375 0.6875 1.1625
0 0.8125 1.1
0.125 0.8125 1.1
0.125 0.8125 1.225
0 0.8125 1.225
0.0625 0.875 1.1
0.125 0.875 1.1625
0.0625 0.875 1.225
0 0.875 1.1625
0.0625 0.8125 1.1
0.125 0.8125 1.1625
0.0625 0.8125 1.225
0 0.8125 1.1625
0.0625 0.875 1.1625
0.0625 0.8125 1.1625
0.25 0.8125 1.1
0.25 0.8125 1.225
0.1875 0.875 1.1
0.25 0.875 1.1625
0.1875 0.875 1.225
0.1875 0.8125 1.1
0.25 0.8125 1.1625
0.1875 0.8125 1.225
0.1875 0.875 1.1625
0.1875 0.8125 1.1625
0.375 0.8125 1.1
0.375 0.8125 1.225
0.3125 0.875 1.1
0.375 0.875 1.1625
0.3125 0.875 1.225
0.3125 0.8125 1.1
0.375 0.8125 1.1625
0.3125 0.8125 1.225
0.3125 0.875 1.1625
0.3125 0.8125 1.1625
0.5 0.8125 1.1
0.5 0.8125 1.225
0.4375 0.875 1.1
0.5 0.875 1.1625
0.4375 0.875 1.225
0.4375 0.8125 1.1
0.5 0.8125 1.1625
0.4375 0.8125 1.225
0.4375 0.875 1.1625
0.4375 0.8125 1.1625
0.625 0.8125 1.1
0.625 0.8125 1.225
0.5625 0.875 1.1
0.625 0.875 1.1625
0.5625 0.875 1.225
0.5625 0.8125 1.1
0.625 0.8125 1.1625
0.5625 0.8125 1.225
0.5625 0.875 1.1625
0.5625 0.8125 1.1625
0.75 0.8125 1.1
0.75 0.8125 1.225
0.6875 0.875 1.1
0.75 0.875 1.1625
0.6875 0.875 1.225
0.6875 0.8125 1.1
0.75 0.8125 1.1625
0.6875 0.8125 1.225
0.6875 0.875 1.1625
0.6875 0.8125 1.1625
0.875 0.8125 1.1
0.875 0.8125 1.225
0.8125 0.875 1.1
0.875 0.875 1.1625
0.8125 0.875 1.225
0.8125 0.8125 1.1
0.875 0.8125 1.1625
0.8125 0.8125 1.225
0.8125 0.875 1.1625
0.8125 0.8125 1.1625
1 0.8125 1.1
1 0.8125 1.225
0.9375 0.875 1.1
1 0.875 1.1625
0.9375 0.875 1.225
0.9375 0.8125 1.1
1 0.8125 1.1625
0.9375 0.8125 1.225
0.9375 0.875 1.1625
0.9375 0.8125 1.1625
1.125 0.8125 1.1
1.125 0.8125 1.225
1.0625 0.875 1.1
1.125 0.875 1.1625
1.0625 0.875 1.225
1.0625 0.8125 1.1
1.125 0.8125 1.1625
1.0625 0.8125 1.225
1.0625 0.875 1.1625
1.0625 0.8125 1.1625
1.25 0.8125 1.1
1.25 0.8125 1.225
1.1875 0.875 1.1
1.25 0.875 1.1625
1.1875 0.875 1.225
1.1875 0.8125 1.1
1.25 0.8125 1.1625
1.1875 0.8125 1.225
1.1875 0.875 1.1625
1.1875 0.8125 1.1625
1.375 0.8125 1.1
1.375 0.8125 1.225
1.3125 0.875 1.1
1.375 0.875 1.1625
1.3125 0.875 1.225
1.3125 0.8125 1.1
1.375 0.8125 1.1625
1.3125 0.8125 1.225
1.3125 0.875 1.1625
1.3125 0.8125 1.1625
1.5 0.8125 1.1
1.5 0.8125 1.225
1.4375 0.875 1.1
1.5 0.875 1.1625
1.4375 0.875 1.225
1.4375 0.8125 1.1
1.5 0.8125 1.1625
1.4375 0.8125 1.225
1.4375 0.875 1.1625
1.4375 0.8125 1.1625
1.625 0.8125 1.1
1.625 0.8125 1.225
1.5625 0.875 1.1
1.625 0.875 1.1625
1.5625 0.875 1.225
1.5625 0.8125 1.1
1.625 0.8125 1.1625
1.5625 0.8125 1.225
1.5625 0.875 1.1625
1.5625 0.8125 1.1625
1.75 0.8125 1.1
1.75 0.8125 1.225
1.6875 0.875 1.1
1.75 0.875 1.1625
1.6875 0.875 1.225
1.6875 0.8125 1.1
1.75 0.8125 1.1625
1.6875 0.8125 1.225
1.6875 0.875 1.1625
1.6875 0.8125 1.1625
1.875 0.8125 1.1
1.875 0.8125 1.225
1.8125 0.875 1.1
1.875 0.875 1.1625
1.8125 0.875 1.225
1.8125 0.8125 1.1
1.875 0.8125 1.1625
1.8125 0.8125 1.225
1.8125 0.875 1.1625
1.8125 0.8125 1.1625
2 0.8125 1.1
2 0.8125 1.225
1.9375 0.875 1.1
2 0.875 1.1625
1.9375 0.875 1.225
1.9375 0.8125 1.1
2 0.8125 1.1625
1.9375 0.8125 1.225
1.9375 0.875 1.1625
1.9375 0.8125 1.1625
2.125 0.8125 1.1
2.125 0.8125 1.225
2.0625 0.875 1.1
2.125 0.875 1.1625
2.0625 0.875 1.225
2.0625 0.8125 1.1
2.125 0.8125 1.1625
2.0625 0.8125 1.225
2.0625 0.875 1.1625
2.0625 0.8125 1.1625
2.25 0.8125 1.1
2.25 0.8125 1.225
2.1875 0.875 1.1
2.25 0.875 1.1625
2.1875 0.875 1.225
2.1875 0.8125 1.1
2.25 0.8125 1.1625
2.1875 0.8125 1.225
2.1875 0.875 1.1625
2.1875 0.8125 1.1625
2.375 0.8125 1.1
2.375 0.8125 1.225
2.3125 0.875 1.1
2.375 0.875 1.1625
2.3125 0.875 1.225
2.3125 0.8125 1.1
2.375 0.8125 1.1625
2.3125 0.8125 1.225
2.3125 0.875 1.1625
2.3125 0.8125 1.1625
2.5 0.8125 1.1
2.5 0.8125 1.225
2.4375 0.875 1.1
2.5 0.875 1.1625
2.4375 0.875 1.225
2.4375 0.8125 1.1
2.5 0.8125 1.1625
2.4375 0.8125 1.225
2.4375 0.875 1.1625
2.4375 0.8125 1.1625
2.625 0.8125 1.1
2.625 0.8125 1.225
2.5625 0.875 1.1
2.625 0.875 1.1625
2.5625 0.875 1.225
2.5625 0.8125 1.1
2.625 0.8125 1.1625
2.5625 0.8125 1.225
2.5625 0.875 1.1625
2.5625 0.8125 1.1625
2.75 0.8125 1.1
2.75 0.8125 1.225
2.6875 0.875 1.1
2.75 0.875 1.1625
2.6875 0.875 1.225
2.6875 0.8125 1.1
2.75 0.8125 1.1625
2.6875 0.8125 1.225
2.6875 0.875 1.1625
2.6875 0.8125 1.1625
2.875 0.8125 1.1
2.875 0.8125 1.225
2.8125 0.875 1.1
2.875 0.875 1.1625
2.8125 0.875 1.225
2.8125 0.8125 1.1
2.875 0.8125 1.1625
2.8125 0.8125 1.225
2.8125 0.875 1.1625
2.8125 0.8125 1.1625
3 0.8125 1.1
3 0.8125 1.225
2.9375 0.875 1.1
3 0.875 1.1625
2.9375 0.875 1.225
2.9375 0.8125 1.1
3 0.8125 1.1625
2.9375 0.8125 1.225
2.9375 0.875 1.1625
2.9375 0.8125 1.1625
0 0.9375 1.1
0.125 0.9375 1.1
0.125 0.9375 1.225
0 0.9375 1.225
0.0625 1 1.1
0.125 1 1.1625
0.0625 1 1.225
0 1 1.1625
0.0625 0.9375 1.1
0.125 0.9375 1.1625
0.0625 0.9375 1.225
0 0.9375 1.1625
0.0625 1 1.1625
0.0625 0.9375 1.1625
0.25 0.9375 1.1
0.25 0.9375 1.225
0.1875 1 1.1
0.25 1 1.1625
0.1875 1 1.225
0.1875 0.9375 1.1
0.25 0.9375 1.1625
0.1875 0.9375 1.225
0.1875 1 1.1625
0.1875 0.9375 1.1625
0.375 0.9375 1.1
0.375 0.9375 1.225
0.3125 1 1.1
0.375 1 1.1625
0.3125 1 1.225
0.3125 0.9375 1.1
0.375 0.9375 1.1625
0.3125 0.9375 1.225
0.3125 1 1.1625
0.3125 0.9375 1.1625
0.5 0.9375 1.1
0.5 0.9375 1.225
0.4375 1 1.1
0.5 1 1.1625
0.4375 1 1.225
0.4375 0.9375 1.1
0.5 0.9375 1.1625
0.4375 0.9375 1.225
0.4375 1 1.1625
0.4375 0.9375 1.1625
0.625 0.9375 1.1
0.625 0.9375 1.225
0.5625 1 1.1
0.625 1 1.1625
0.5625 1 1.225
0.5625 0.9375 1.1
0.625 0.9375 1.1625
0.5625 0.9375 1.225
0.5625 1 1.1625
0.5625 0.9375 1.1625
0.75 0.9375 1.1
0.75 0.9375 1.225
0.6875 1 1.1
0.75 1 1.1625
0.6875 1 1.225
0.6875 0.9375 1.1
0.75 0.9375 1.1625
0.6875 0.9375 1.225
0.6875 1 1.1625
0.6875 0.9375 1.1625
0.875 0.9375 1.1
0.875 0.9375 1.225
0.8125 1 1.1
0.875 1 1.1625
0.8125 1 1.225
0.8125 0.9375 1.1
0.875 0.9375 1.1625
0.8125 0.9375 1.225
0.8125 1 1.1625
0.8125 0.9375 1.1625
1 0.9375 1.1
1 0.9375 1.225
0.9375 1 1.1
1 1 1.1625
0.9375 1 1.225
0.9375 0.9375 1.1
1 0.9375 1.1625
0.9375 0.9375 1.225
0.9375 1 1.1625
0.9375 0.9375 1.1625
1.125 0.9375 1.1
1.125 0.9375 1.225
1.0625 1 1.1
1.125 1 1.1625
1.0625 1 1.225
1.0625 0.9375 1.1
1.125 0.9375 1.1625
1.0625 0.9375 1.225
1.0625 1 1.1625
1.0625 0.9375 1.1625
1.25 0.9375 1.1
1.25 0.9375 1.225
1.1875 1 1.1
1.25 1 1.1625
1.1875 1 1.225
1.1875 0.9375 1.1
1.25 0.9375 1.1625
1.1875 0.9375 1.225
1.1875 1 1.1625
1.1875 0.9375 1.1625
1.375 0.9375 1.1
1.375 0.9375 1.225
1.3125 1 1.1
1.375 1 1.1625
1.3125 1 1.225
1.3125 0.9375 1.1
1.375 0.9375 1.1625
1.3125 0.9375 1.225
1.3125 1 1.1625
1.3125 0.9375 1.1625
1.5 0.9375 1.1
1.5 0.9375 1.225
1.4375 1 1.1
1.5 1 1.1625
1.4375 1 1.225
1.4375 0.9375 1.1
1.5 0.9375 1.1625
1.4375 0.9375 1.225
1.4375 1 1.1625
1.4375 0.9375 1.1625
1.625 0.9375 1.1
1.625 0.9375 1.225
1.5625 1 1.1
1.625 1 1.1625
1.5625 1 1.225
1.5625 0.9375 1.1
1.625 0.9375 1.1625
1.5625 0.9375 1.225
1.5625 1 1.1625
1.5625 0.9375 1.1625
1.75 0.9375 1.1
1.75 0.9375 1.225
1.6875 1 1.1
1.75 1 1.1625
1.6875 1 1.225
1.6875 0.9375 1.1
1.75 0.9375 1.1625
1.6875 0.9375 1.225
1.6875 1 1.1625
1.6875 0.9375 1.1625
1.875 0.9375 1.1
1.875 0.9375 1.225
1.8125 1 1.1
1.875 1 1.1625
1.8125 1 1.225
1.8125 0.9375 1.1
1.875 0.9375 1.1625
1.8125 0.9375 1.225
1.8125 1 1.1625
1.8125 0.9375 1.1625
2 0.9375 1.1
2 0.9375 1.225
1.9375 1 1.1
2 1 1.1625
1.9375 1 1.225
1.9375 0.9375 1.1
2 0.9375 1.1625
1.9375 0.9375 1.225
1.9375 1 1.1625
1.9375 0.9375 1.1625
2.125 0.9375 1.1
2.125 0.9375 1.225
2.0625 1 1.1
2.125 1 1.1625
2.0625 1 1.225
2.0625 0.9375 1.1
2.125 0.9375 1.1625
2.0625 0.9375 1.225
2.0625 1 1.1625
2.0625 0.9375 1.1625
2.25 0.9375 1.1
2.25 0.9375 1.225
2.1875 1 1.1
2.25 1 1.1625
2.1875 1 1.225
2.1875 0.9375 1.1
2.25 0.9375 1.1625
2.1875 0.9375 1.225
2.1875 1 1.1625
2.1875 0.9375 1.1625
2.375 0.9375 1.1
2.375 0.9375 1.225
2.3125 1 1.1
2.375 1 1.1625
2.3125 1 1.225
2.3125 0.9375 1.1
2.375 0.9375 1.1625
2.3125 0.9375 1.225
2.3125 1 1.1625
2.3125 0.9375 1.1625
2.5 0.9375 1.1
2.5 0.9375 1.225
2.4375 1 1.1
2.5 1 1.1625
2.4375 1 1.225
2.4375 0.9375 1.1
2.5 0.9375 1.1625
2.4375 0.9375 1.225
2.4375 1 1.1625
2.4375 0.9375 1.1625
2.625 0.9375 1.1
2.625 0.9375 1.225
2.5625 1 1.1
2.625 1 1.1625
2.5625 1 1.225
2.5625 0.9375 1.1
2.625 0.9375 1.1625
2.5625 0.9375 1.225
2.5625 1 1.1625
2.5625 0.9375 1.1625
2.75 0.9375 1.1
2.75 0.9375 1.225
2.6875 1 1.1
2.75 1 1.1625
2.6875 1 1.225
2.6875 0.9375 1.1
2.75 0.9375 1.1625
2.6875 0.9375 1.225
2.6875 1 1.1625
2.6875 0.9375 1.1625
2.875 0.9375 1.1
2.875 0.9375 1.225
2.8125 1 1.1
2.875 1 1.1625
2.8125 1 1.225
2.8125 0.9375 1.1
2.875 0.9375 1.1625
2.8125 0.9375 1.225
2.8125 1 1.1625
2.8125 0.9375 1.1625
3 0.9375 1.1
3 0.9375 1.225
2.9375 1 1.1
3 1 1.1625
2.9375 1 1.225
2.9375 0.9375 1.1
3 0.9375 1.1625
2.9375 0.9375 1.225
2.9375 1 1.1625
2.9375 0.9375 1.1625
0.125 0 1.2875
0.0625 0 1.35
0 0 1.2875
0.125 0.0625 1.35
0 0.0625 1.35
0.125 0.125 1.2875
0.0625 0.125 1.35
0 0.125 1.2875
0.0625 0 1.2875
0.125 0.0625 1.2875
0.0625 0.0625 1.35
0 0.0625 1.2875
0.0625 0.125 1.2875
0.0625 0.0625 1.2875
0.25 0 1.2875
0.1875 0 1.35
0.25 0.0625 1.35
0.25 0.125 1.2875
0.1875 0.125 1.35
0.1875 0 1.2875
0.25 0.0625 1.2875
0.1875 0.0625 1.35
0.1875 0.125 1.2875
0.1875 0.0625 1.2875
0.375 0 1.2875
0.3125 0 1.35
0.375 0.0625 1.35
0.375 0.125 1.2875
0.3125 0.125 1.35
0.3125 0 1.2875
0.375 0.0625 1.2875
0.3125 0.0625 1.35
0.3125 0.125 1.2875
0.3125 0.0625 1.2875
0.5 0 1.2875
0.4375 0 1.35
0.5 0.0625 1.35
0.5 0.125 1.2875
0.4375 0.125 1.35
0.4375 0 1.2875
0.5 0.0625 1.2875
0.4375 0.0625 1.35
0.4375 0.125 1.2875
0.4375 0.0625 1.2875
0.625 0 1.2875
0.5625 0 1.35
0.625 0.0625 1.35
0.625 0.125 1.2875
0.5625 0.125 1.35
0.5625 0 1.2875
0.625 0.0625 1.2875
0.5625 0.0625 1.35
0.5625 0.125 1.2875
0.5625 0.0625 1.2875
0.75 0 1.2875
0.6875 0 1.35
0.75 0.0625 1.35
0.75 0.125 1.2875
0.6875 0.125 1.35
0.6875 0 1.2875
0.75 0.0625 1.2875
0.6875 0.0625 1.35
0.6875 0.125 1.2875
0.6875 0.0625 1.2875
0.875 0 1.2875
0.8125 0 1.35
0.875 0.0625 1.35
0.875 0.125 1.2875
0.8125 0.125 1.35
0.8125 0 1.2875
0.875 0.0625 1.2875
0.8125 0.0625 1.35
0.8125 0.125 1.2875
0.8125 0.0625 1.2875
1 0 1.2875
0.9375 0 1.35
1 0.0625 1.35
1 0.125 1.2875
0.9375 0.125 1.35
0.9375 0 1.2875
1 0.0625 1.2875
0.9375 0.0625 1.35
0.9375 0.125 1.2875
0.9375 0.0625 1.2875
1.125 0 1.2875
1.0625 0 1.35
1.125 0.0625 1.35
1.125 0.125 1.2875
1.0625 0.125 1.35
1.0625 0 1.2875
1.125 0.0625 1.2875
1.0625 0.0625 1.35
1.0625 0.125 1.2875
1.0625 0.0625 1.2875
1.25 0 1.2875
1.1875 0 1.35
1.25 0.0625 1.35
1.25 0.125 1.2875
1.1875 0.125 1.35
1.1875 0 1.2875
1.25 0.0625 1.2875
1.1875 0.0625 1.35
1.1875 0.125 1.2875
1.1875 0.0625 1.2875
1.375 0 1.2875
1.3125 0 1.35
1.375 0.0625 1.35
1.375 0.125 1.2875
1.3125 0.125 1.35
1.3125 0 1.2875
1.375 0.0625 1.2875
1.3125 0.0625 1.35
1.3125 0.125 1.2875
1.3125 0.0625 1.2875
1.5 0 1.2875
1.4375 0 1.35
1.5 0.0625 1.35
1.5 0.125 1.2875
1.4375 0.125 1.35
1.4375 0 1.2875
1.5 0.0625 1.2875
1.4375 0.0625 1.35
1.4375 0.125 1.2875
1.4375 0.0625 1.2875
1.625 0 1.2875
1.5625 0 1.35
1.625 0.0625 1.35
1.625 0.125 1.2875
1.5625 0.125 1.35
1.5625 0 1.2875
1.625 0.0625 1.2875
1.5625 0.0625 1.35
1.5625 0.125 1.2875
1.5625 0.0625 1.2875
1.75 0 1.2875
1.6875 0 1.35
1.75 0.0625 1.35
1.75 0.125 1.2875
1.6875 0.125 1.35
1.6875 0 1.2875
1.75 0.0625 1.2875
1.6875 0.0625 1.35
1.6875 0.125 1.2875
1.6875 0.0625 1.2875
1.875 0 1.2875
1.8125 0 1.35
1.875 0.0625 1.35
1.875 0.125 1.2875
1.8125 0.125 1.35
1.8125 0 1.2875
1.875 0.0625 1.2875
1.8125 0.0625 1.35
1.8125 0.125 1.2875
1.8125 0.0625 1.2875
2 0 1.2875
1.9375 0 1.35
2 0.0625 1.35
2 0.125 1.2875
1.9375 0.125 1.35
1.9375 0 1.2875
2 0.0625 1.2875
1.9375 0.0625 1.35
1.9375 0.125 1.2875
1.9375 0.0625 1.2875
2.125 0 1.2875
2.0625 0 1.35
2.125 0.0625 1.35
2.125 0.125 1.2875
2.0625 0.125 1.35
2.0625 0 1.2875
2.125 0.0625 1.2875
2.0625 0.0625 1.35
2.0625 0.125 1.2875
2.0625 0.0625 1.2875
2.25 0 1.2875
2.1875 0 1.35
2.25 0.0625 1.35
2.25 0.125 1.2875
2.1875 0.125 1.35
2.1875 0 1.2875
2.25 0.0625 1.2875
2.1875 0.0625 1.35
2.1875 0.125 1.2875
2.1875 0.0625 1.2875
2.375 0 1.2875
2.3125 0 1.35
2.375 0.0625 1.35
2.375 0.125 1.2875
2.3125 0.125 1.35
2.3125 0 1.2875
2.375 0.0625 1.2875
2.3125 0.0625 1.35
2.3125 0.125 1.2875
2.3125 0.0625 1.2875
2.5 0 1.2875
2.4375 0 1.35
2.5 0.0625 1.35
2.5 0.125 1.2875
2.4375 0.125 1.35
2.4375 0 1.2875
2.5 0.0625 1.2875
2.4375 0.0625 1.35
2.4375 0.125 1.2875
2.4375 0.0625 1.2875
2.625 0 1.2875
2.5625 0 1.35
2.625 0.0625 1.35
2.625 0.125 1.2875
2.5625 0.125 1.35
2.5625 0 1.2875
2.625 0.0625 1.2875
2.5625 0.0625 1.35
2.5625 0.125 1.2875
2.5625 0.0625 1.2875
2.75 0 1.2875
2.6875 0 1.35
2.75 0.0625 1.35
2.75 0.125 1.2875
2.6875 0.125 1.35
2.6875 0 1.2875
2.75 0.0625 1.2875
2.6875 0.0625 1.35
2.6875 0.125 1.2875
2.6875 0.0625 1.2875
2.875 0 1.2875
2.8125 0 1.35
2.875 0.0625 1.35
2.875 0.125 1.2875
2.8125 0.125 1.35
2.8125 0 1.2875
2.875 0.0625 1.2875
2.8125 0.0625 1.35
2.8125 0.125 1.2875
2.8125 0.0625 1.2875
3 0 1.2875
2.9375 0 1.35
3 0.0625 1.35
3 0.125 1.2875
2.9375 0.125 1.35
2.9375 0 1.2875
3 0.0625 1.2875
2.9375 0.0625 1.35
2.9375 0.125 1.2875
2.9375 0.0625 1.2875
0.125 0.1875 1.35
0 0.1875 1.35
0.125 0.25 1.2875
0.0625 0.25 1.35
0 0.25 1.2875
0.125 0.1875 1.2875
0.0625 0.1875 1.35
0 0.1875 1.2875
0.0625 0.25 1.2875
0.0625 0.1875 1.2875
0.25 0.1875 1.35
0.25 0.25 1.2875
0.1875 0.25 1.35
0.25 0.1875 1.2875
0.1875 0.1875 1.35
0.1875 0.25 1.2875
0.1875 0.1875 1.2875
0.375 0.1875 1.35
0.375 0.25 1.2875
0.3125 0.25 1.35
0.375 0.1875 1.2875
0.3125 0.1875 1.35
0.3125 0.25 1.2875
0.3125 0.1875 1.2875
0.5 0.1875 1.35
0.5 0.25 1.2875
0.4375 0.25 1.35
0.5 0.1875 1.2875
0.4375 0.1875 1.35
0.4375 0.25 1.2875
0.4375 0.1875 1.2875
0.625 0.1875 1.35
0.625 0.25 1.2875
0.5625 0.25 1.35
0.625 0.1875 1.2875
0.5625 0.1875 1.35
0.5625 0.25 1.2875
0.5625 0.1875 1.2875
0.75 0.1875 1.35
0.75 0.25 1.2875
0.6875 0.25 1.35
0.75 0.1875 1.2875
0.6875 0.1875 1.35
0.6875 0.25 1.2875
0.6875 0.1875 1.2875
0.875 0.1875 1.35
0.875 0.25 1.2875
0.8125 0.25 1.35
0.875 0.1875 1.2875
0.8125 0.1875 1.35
0.8125 0.25 1.2875
0.8125 0.1875 1.2875
1 0.1875 1.35
1 0.25 1.2875
0.9375 0.25 1.35
1 0.1875 1.2875
0.9375 0.1875 1.35
0.9375 0.25 1.2875
0.9375 0.1875 1.2875
1.125 0.1875 1.35
1.125 0.25 1.2875
1.0625 0.25 1.35
1.125 0.1875 1.2875
1.0625 0.1875 1.35
1.0625 0.25 1.2875
1.0625 0.1875 1.2875
1.25 0.1875 1.35
1.25 0.25 1.2875
1.1875 0.25 1.35
1.25 0.1875 1.2875
1.1875 0.1875 1.35
1.1875 0.25 1.2875
1.1875 0.1875 1.2875
1.375 0.1875 1.35
1.375 0.25 1.2875
1.3125 0.25 1.35
1.375 0.1875 1.2875
1.3125 0.1875 1.35
1.3125 0.25 1.2875
1.3125 0.1875 1.2875
1.5 0.1875 1.35
1.5 0.25 1.2875
1.4375 0.25 1.35
1.5 0.1875 1.2875
1.4375 0.1875 1.35
1.4375 0.25 1.2875
1.4375 0.1875 1.2875
1.625 0.1875 1.35
1.625 0.25 1.2875
1.5625 0.25 1.35
1.625 0.1875 1.2875
1.5625 0.1875 1.35
1.5625 0.25 1.2875
1.5625 0.1875 1.2875
1.75 0.1875 1.35
1.75 0.25 1.2875
1.6875 0.25 1.35
1.75 0.1875 1.2875
1.6875 0.1875 1.35
1.6875 0.25 1.2875
1.6875 0.1875 1.2875
1.875 0.1875 1.35
1.875 0.25 1.2875
1.8125 0.25 1.35
1.875 0.1875 1.2875
1.8125 0.1875 1.35
1.8125 0.25 1.2875
1.8125 0.1875 1.2875
2 0.1875 1.35
2 0.25 1.2875
1.9375 0.25 1.35
2 0.1875 1.2875
1.9375 0.1875 1.35
1.9375 0.25 1.2875
1.9375 0.1875 1.2875
2.125 0.1875 1.35
2.125 0.25 1.2875
2.0625 0.25 1.35
2.125 0.1875 1.2875
2.0625 0.1875 1.35
2.0625 0.25 1.2875
2.0625 0.1875 1.2875
2.25 0.1875 1.35
2.25 0.25 1.2875
2.1875 0.25 1.35
2.25 0.1875 1.2875
2.1875 0.1875 1.35
2.1875 0.25 1.2875
2.1875 0.1875 1.2875
2.375 0.1875 1.35
2.375 0.25 1.2875
2.3125 0.25 1.35
2.375 0.1875 1.2875
2.3125 0.1875 1.35
2.3125 0.25 1.2875
2.3125 0.1875 1.2875
2.5 0.1875 1.35
2.5 0.25 1.2875
2.4375 0.25 1.35
2.5 0.1875 1.2875
2.4375 0.1875 1.35
2.4375 0.25 1.2875
2.4375 0.1875 1.2875
2.625 0.1875 1.35
2.625 0.25 1.2875
2.5625 0.25 1.35
2.625 0.1875 1.2875
2.5625 0.1875 1.35
2.5625 0.25 1.2875
2.5625 0.1875 1.2875
2.75 0.1875 1.35
2.75 0.25 1.2875
2.6875 0.25 1.35
2.75 0.1875 1.2875
2.6875 0.1875 1.35
2.6875 0.25 1.2875
2.6875 0.1875 1.2875
2.875 0.1875 1.35
2.875 0.25 1.2875
2.8125 0.25 1.35
2.875 0.1875 1.2875
2.8125 0.1875 1.35
2.8125 0.25 1.2875
2.8125 0.1875 1.2875
3 0.1875 1.35
3 0.25 1.2875
2.9375 0.25 1.35
3 0.1875 1.2875
2.9375 0.1875 1.35
2.9375 0.25 1.2875
2.9375 0.1875 1.2875
0.125 0.3125 1.35
0 0.3125 1.35
0.125 0.375 1.2875
0.0625 0.375 1.35
0 0.375 1.2875
0.125 0.3125 1.2875
0.0625 0.3125 1.35
0 0.3125 1.2875
0.0625 0.375 1.2875
0.0625 0.3125 1.2875
0.25 0.3125 1.35
0.25 0.375 1.2875
0.1875 0.375 1.35
0.25 0.3125 1.2875
0.1875 0.3125 1.35
0.1875 0.375 1.2875
0.1875 0.3125 1.2875
0.375 0.3125 1.35
0.375 0.375 1.2875
0.3125 0.375 1.35
0.375 0.3125 1.2875
0.3125 0.3125 1.35
0.3125 0.375 1.2875
0.3125 0.3125 1.2875
0.5 0.3125 1.35
0.5 0.375 1.2875
0.4375 0.375 1.35
0.5 0.3125 1.2875
0.4375 0.3125 1.35
0.4375 0.375 1.2875
0.4375 0.3125 1.2875
0.625 0.3125 1.35
0.625 0.375 1.2875
0.5625 0.375 1.35
0.625 0.3125 1.2875
0.5625 0.3125 1.35
0.5625 0.375 1.2875
0.5625 0.3125 1.2875
0.75 0.3125 1.35
0.75 0.375 1.2875
0.6875 0.375 1.35
0.75 0.3125 1.2875
0.6875 0.3125 1.35
0.6875 0.375 1.2875
0.6875 0.3125 1.2875
0.875 0.3125 1.35
0.875 0.375 1.2875
0.8125 0.375 1.35
0.875 0.3125 1.2875
0.8125 0.3125 1.35
0.8125 0.375 1.2875
0.8125 0.3125 1.2875
1 0.3125 1.35
1 0.375 1.2875
0.9375 0.375 1.35
1 0.3125 1.2875
0.9375 0.3125 1.35
0.9375 0.375 1.2875
0.9375 0.3125 1.2875
1.125 0.3125 1.35
1.125 0.375 1.2875
1.0625 0.375 1.35
1.125 0.3125 1.2875
1.0625 0.3125 1.35
1.0625 0.375 1.2875
1.0625 0.3125 1.2875
1.25 0.3125 1.35
1.25 0.375 1.2875
1.1875 0.375 1.35
1.25 0.3125 1.2875
1.1875 0.3125 1.35
1.1875 0.375 1.2875
1.1875 0.3125 1.2875
1.375 0.3125 1.35
1.375 0.375 1.2875
1.3125 0.375 1.35
1.375 0.3125 1.2875
1.3125 0.3125 1.35
1.3125 0.375 1.2875
1.3125 0.3125 1.2875
1.5 0.3125 1.35
1.5 0.375 1.2875
1.4375 0.375 1.35
1.5 0.3125 1.2875
1.4375 0.3125 1.35
1.4375 0.375 1.2875
1.4375 0.3125 1.2875
1.625 0.3125 1.35
1.625 0.375 1.2875
1.5625 0.375 1.35
1.625 0.3125 1.2875
1.5625 0.3125 1.35
1.5625 0.375 1.2875
1.5625 0.3125 1.2875
1.75 0.3125 1.35
1.75 0.375 1.2875
1.6875 0.375 1.35
1.75 0.3125 1.2875
1.6875 0.3125 1.35
1.6875 0.375 1.2875
1.6875 0.3125 1.2875
1.875 0.3125 1.35
1.875 0.375 1.2875
1.8125 0.375 1.35
1.875 0.3125 1.2875
1.8125 0.3125 1.35
1.8125 0.375 1.2875
1.8125 0.3125 1.2875
2 0.3125 1.35
2 0.375 1.2875
1.9375 0.375 1.35
2 0.3125 1.2875
1.9375 0.3125 1.35
1.9375 0.375 1.2875
1.9375 0.3125 1.2875
2.125 0.3125 1.35
2.125 0.375 1.2875
2.0625 0.375 1.35
2.125 0.3125 1.2875
2.0625 0.3125 1.35
2.0625 0.375 1.2875
2.0625 0.3125 1.2875
2.25 0.3125 1.35
2.25 0.375 1.2875
2.1875 0.375 1.35
2.25 0.3125 1.2875
2.1875 0.3125 1.35
2.1875 0.375 1.2875
2.1875 0.3125 1.2875
2.375 0.3125 1.35
2.375 0.375 1.2875
2.3125 0.375 1.35
2.375 0.3125 1.2875
2.3125 0.3125 1.35
2.3125 0.375 1.2875
2.3125 0.3125 1.2875
2.5 0.3125 1.35
2.5 0.375 1.2875
2.4375 0.375 1.35
2.5 0.3125 1.2875
2.4375 0.3125 1.35
2.4375 0.375 1.2875
2.4375 0.3125 1.2875
2.625 0.3125 1.35
2.625 0.375 1.2875
2.5625 0.375 1.35
2.625 0.3125 1.2875
2.5625 0.3125 1.35
2.5625 0.375 1.2875
2.5625 0.3125 1.2875
2.75 0.3125 1.35
2.75 0.375 1.2875
2.6875 0.375 1.35
2.75 0.3125 1.2875
2.6875 0.3125 1.35
2.6875 0.375 1.2875
2.6875 0.3125 1.2875
2.875 0.3125 1.35
2.875 0.375 1.2875
2.8125 0.375 1.35
2.875 0.3125 1.2875
2.8125 0.3125 1.35
2.8125 0.375 1.2875
2.8125 0.3125 1.2875
3 0.3125 1.35
3 0.375 1.2875
2.9375 0.375 1.35
3 0.3125 1.2875
2.9375 0.3125 1.35
2.9375 0.375 1.2875
2.9375 0.3125 1.2875
0.125 0.4375 1.35
0 0.4375 1.35
0.125 0.5 1.2875
0.0625 0.5 1.35
0 0.5 1.2875
0.125 0.4375 1.2875
0.0625 0.4375 1.35
0 0.4375 1.2875
0.0625 0.5 1.2875
0.0625 0.4375 1.2875
0.25 0.4375 1.35
0.25 0.5 1.2875
0.1875 0.5 1.35
0.25 0.4375 1.2875
0.1875 0.4375 1.35
0.1875 0.5 1.2875
0.1875 0.4375 1.2875
0.375 0.4375 1.35
0.375 0.5 1.2875
0.3125 0.5 1.35
0.375 0.4375 1.2875
0.3125 0.4375 1.35
0.3125 0.5 1.2875
0.3125 0.4375 1.2875
0.5 0.4375 1.35
0.5 0.5 1.2875
0.4375 0.5 1.35
0.5 0.4375 1.2875
0.4375 0.4375 1.35
0.4375 0.5 1.2875
0.4375 0.4375 1.2875
0.625 0.4375 1.35
0.625 0.5 1.2875
0.5625 0.5 1.35
0.625 0.4375 1.2875
0.5625 0.4375 1.35
0.5625 0.5 1.2875
0.5625 0.4375 1.2875
0.75 0.4375 1.35
0.75 0.5 1.2875
0.6875 0.5 1.35
0.75 0.4375 1.2875
0.6875 0.4375 1.35
0.6875 0.5 1.2875
0.6875 0.4375 1.2875
0.875 0.4375 1.35
0.875 0.5 1.2875
0.8125 0.5 1.35
0.875 0.4375 1.2875
0.8125 0.4375 1.35
0.8125 0.5 1.2875
0.8125 0.4375 1.2875
1 0.4375 1.35
1 0.5 1.2875
0.9375 0.5 1.35
1 0.4375 1.2875
0.9375 0.4375 1.35
0.9375 0.5 1.2875
0.9375 0.4375 1.2875
1.125 0.4375 1.35
1.125 0.5 1.2875
1.0625 0.5 1.35
1.125 0.4375 1.2875
1.0625 0.4375 1.35
1.0625 0.5 1.2875
1.0625 0.4375 1.2875
1.25 0.4375 1.35
1.25 0.5 1.2875
1.1875 0.5 1.35
1.25 0.4375 1.2875
1.1875 0.4375 1.35
1.1875 0.5 1.2875
1.1875 0.4375 1.2875
1.375 0.4375 1.35
1.375 0.5 1.2875
1.3125 0.5 1.35
1.375 0.4375 1.2875
1.3125 0.4375 1.35
1.3125 0.5 1.2875
1.3125 0.4375 1.2875
1.5 0.4375 1.35
1.5 0.5 1.2875
1.4375 0.5 1.35
1.5 0.4375 1.2875
1.4375 0.4375 1.35
1.4375 0.5 1.2875
1.4375 0.4375 1.2875
1.625 0.4375 1.35
1.625 0.5 1.2875
1.5625 0.5 1.35
1.625 0.4375 1.2875
1.5625 0.4375 1.35
1.5625 0.5 1.2875
1.5625 0.4375 1.2875
1.75 0.4375 1.35
1.75 0.5 1.2875
1.6875 0.5 1.35
1.75 0.4375 1.2875
1.6875 0.4375 1.35
1.6875 0.5 1.2875
1.6875 0.4375 1.2875
1.875 0.4375 1.35
1.875 0.5 1.2875
1.8125 0.5 1.35
1.875 0.4375 1.2875
1.8125 0.4375 1.35
1.8125 0.5 1.2875
1.8125 0.4375 1.2875
2 0.4375 1.35
2 0.5 1.2875
1.9375 0.5 1.35
2 0.4375 1.2875
1.9375 0.4375 1.35
1.9375 0.5 1.2875
1.9375 0.4375 1.2875
2.125 0.4375 1.35
2.125 0.5 1.2875
2.0625 0.5 1.35
2.125 0.4375 1.2875
2.0625 0.4375 1.35
2.0625 0.5 1.2875
2.0625 0.4375 1.2875
2.25 0.4375 1.35
2.25 0.5 1.2875
2.1875 0.5 1.35
2.25 0.4375 1.2875
2.1875 0.4375 1.35
2.1875 0.5 1.2875
2.1875 0.4375 1.2875
2.375 0.4375 1.35
2.375 0.5 1.2875
2.3125 0.5 1.35
2.375 0.4375 1.2875
2.3125 0.4375 1.35
2.3125 0.5 1.2875
2.3125 0.4375 1.2875
2.5 0.4375 1.35
2.5 0.5 1.2875
2.4375 0.5 1.35
2.5 0.4375 1.2875
2.4375 0.4375 1.35
2.4375 0.5 1.2875
2.4375 0.4375 1.2875
2.625 0.4375 1.35
2.625 0.5 1.2875
2.5625 0.5 1.35
2.625 0.4375 1.2875
2.5625 0.4375 1.35
2.5625 0.5 1.2875
2.5625 0.4375 1.2875
2.75 0.4375 1.35
2.75 0.5 1.2875
2.6875 0.5 1.35
2.75 0.4375 1.2875
2.6875 0.4375 1.35
2.6875 0.5 1.2875
2.6875 0.4375 1.2875
2.875 0.4375 1.35
2.875 0.5 1.2875
2.8125 0.5 1.35
2.875 0.4375 1.2875
2.8125 0.4375 1.35
2.8125 0.5 1.2875
2.8125 0.4375 1.2875
3 0.4375 1.35
3 0.5 1.2875
2.9375 0.5 1.35
3 0.4375 1.2875
2.9375 0.4375 1.35
2.9375 0.5 1.2875
2.9375 0.4375 1.2875
0.125 0.5625 1.35
0 0.5625 1.35
0.125 0.625 1.2875
0.0625 0.625 1.35
0 0.625 1.2875
0.125 0.5625 1.2875
0.0625 0.5625 1.35
0 0.5625 1.2875
0.0625 0.625 1.2875
0.0625 0.5625 1.2875
0.25 0.5625 1.35
0.25 0.625 1.2875
0.1875 0.625 1.35
0.25 0.5625 1.2875
0.1875 0.5625 1.35
0.1875 0.625 1.2875
0.1875 0.5625 1.2875
0.375 0.5625 1.35
0.375 0.625 1.2875
0.3125 0.625 1.35
0.375 0.5625 1.2875
0.3125 0.5625 1.35
0.3125 0.625 1.2875
0.3125 0.5625 1.2875
0.5 0.5625 1.35
0.5 0.625 1.2875
0.4375 0.625 1.35
0.5 0.5625 1.2875
0.4375 0.5625 1.35
0.4375 0.625 1.2875
0.4375 0.5625 1.2875
0.625 0.5625 1.35
0.625 0.625 1.2875
0.5625 0.625 1.35
0.625 0.5625 1.2875
0.5625 0.5625 1.35
0.5625 0.625 1.2875
0.5625 0.5625 1.2875
0.75 0.5625 1.35
0.75 0.625 1.2875
0.6875 0.625 1.35
0.75 0.5625 1.2875
0.6875 0.5625 1.35
0.6875 0.625 1.2875
0.6875 0.5625 1.2875
0.875 0.5625 1.35
0.875 0.625 1.2875
0.8125 0.625 1.35
0.875 0.5625 1.2875
0.8125 0.5625 1.35
0.8125 0.625 1.2875
0.8125 0.5625 1.2875
1 0.5625 1.35
1 0.625 1.2875
0.9375 0.625 1.35
1 0.5625 1.2875
0.9375 0.5625 1.35
0.9375 0.625 1.2875
0.9375 0.5625 1.2875
1.125 0.5625 1.35
1.125 0.625 1.2875
1.0625 0.625 1.35
1.125 0.5625 1.2875
1.0625 0.5625 1.35
1.0625 0.625 1.2875
1.0625 0.5625 1.2875
1.25 0.5625 1.35
1.25 0.625 1.2875
1.1875 0.625 1.35
1.25 0.5625 1.2875
1.1875 0.5625 1.35
1.1875 0.625 1.2875
1.1875 0.5625 1.2875
1.375 0.5625 1.35
1.375 0.625 1.2875
1.3125 0.625 1.35
1.375 0.5625 1.2875
1.3125 0.5625 1.35
1.3125 0.625 1.2875
1.3125 0.5625 1.2875
1.5 0.5625 1.35
1.5 0.625 1.2875
1.4375 0.625 1.35
1.5 0.5625 1.2875
1.4375 0.5625 1.35
1.4375 0.625 1.2875
1.4375 0.5625 1.2875
1.625 0.5625 1.35
1.625 0.625 1.2875
1.5625 0.625 1.35
1.625 0.5625 1.2875
1.5625 0.5625 1.35
1.5625 0.625 1.2875
1.5625 0.5625 1.2875
1.75 0.5625 1.35
1.75 0.625 1.2875
1.6875 0.625 1.35
1.75 0.5625 1.2875
1.6875 0.5625 1.35
1.6875 0.625 1.2875
1.6875 0.5625 1.2875
1.875 0.5625 1.35
1.875 0.625 1.2875
1.8125 0.625 1.35
1.875 0.5625 1.2875
1.8125 0.5625 1.35
1.8125 0.625 1.2875
1.8125 0.5625 1.2875
2 0.5625 1.35
2 0.625 1.2875
1.9375 0.625 1.35
2 0.5625 1.2875
1.9375 0.5625 1.35
1.9375 0.625 1.2875
1.9375 0.5625 1.2875
2.125 0.5625 1.35
2.125 0.625 1.2875
2.0625 0.625 1.35
2.125 0.5625 1.2875
2.0625 0.5625 1.35
2.0625 0.625 1.2875
2.0625 0.5625 1.2875
2.25 0.5625 1.35
2.25 0.625 1.2875
2.1875 0.625 1.35
2.25 0.5625 1.2875
2.1875 0.5625 1.35
2.1875 0.625 1.2875
2.1875 0.5625 1.2875
2.375 0.5625 1.35
2.375 0.625 1.2875
2.3125 0.625 1.35
2.375 0.5625 1.2875
2.3125 0.5625 1.35
2.3125 0.625 1.2875
2.3125 0.5625 1.2875
2.5 0.5625 1.35
2.5 0.625 1.2875
2.4375 0.625 1.35
2.5 0.5625 1.2875
2.4375 0.5625 1.35
2.4375 0.625 1.2875
2.4375 0.5625 1.2875
2.625 0.5625 1.35
2.625 0.625 1.2875
2.5625 0.625 1.35
2.625 0.5625 1.2875
2.5625 0.5625 1.35
2.5625 0.625 1.2875
2.5625 0.5625 1.2875
2.75 0.5625 1.35
2.75 0.625 1.2875
2.6875 0.625 1.35
2.75 0.5625 1.2875
2.6875 0.5625 1.35
2.6875 0.625 1.2875
2.6875 0.5625 1.2875
2.875 0.5625 1.35
2.875 0.625 1.2875
2.8125 0.625 1.35
2.875 0.5625 1.2875
2.8125 0.5625 1.35
2.8125 0.625 1.2875
2.8125 0.5625 1.2875
3 0.5625 1.35
3 0.625 1.2875
2.9375 0.625 1.35
3 0.5625 1.2875
2.9375 0.5625 1.35
2.9375 0.625 1.2875
2.9375 0.5625 1.2875
0.125 0.6875 1.35
0 0.6875 1.35
0.125 0.75 1.2875
0.0625 0.75 1.35
0 0.75 1.2875
0.125 0.6875 1.2875
0.0625 0.6875 1.35
0 0.6875 1.2875
0.0625 0.75 1.2875
0.0625 0.6875 1.2875
0.25 0.6875 1.35
0.25 0.75 1.2875
0.1875 0.75 1.35
0.25 0.6875 1.2875
0.1875 0.6875 1.35
0.1875 0.75 1.2875
0.1875 0.6875 1.2875
0.375 0.6875 1.35
0.375 0.75 1.2875
0.3125 0.75 1.35
0.375 0.6875 1.2875
0.3125 0.6875 1.35
0.3125 0.75 1.2875
0.3125 0.6875 1.2875
0.5 0.6875 1.35
0.5 0.75 1.2875
0.4375 0.75 1.35
0.5 0.6875 1.2875
0.4375 0.6875 1.35
0.4375 0.75 1.2875
0.4375 0.6875 1.2875
0.625 0.6875 1.35
0.625 0.75 1.2875
0.5625 0.75 1.35
0.625 0.6875 1.2875
0.5625 0.6875 1.35
0.5625 0.75 1.2875
0.5625 0.6875 1.2875
0.75 0.6875 1.35
0.75 0.75 1.2875
0.6875 0.75 1.35
0.75 0.6875 1.2875
0.6875 0.6875 1.35
0.6875 0.75 1.2875
0.6875 0.6875 1.2875
0.875 0.6875 1.35
0.875 0.75 1.2875
0.8125 0.75 1.35
0.875 0.6875 1.2875
0.8125 0.6875 1.35
0.8125 0.75 1.2875
0.8125 0.6875 1.2875
1 0.6875 1.35
1 0.75 1.2875
0.9375 0.75 1.35
1 0.6875 1.2875
0.9375 0.6875 1.35
0.9375 0.75 1.2875
0.9375 0.6875 1.2875
1.125 0.6875 1.35
1.125 0.75 1.2875
1.0625 0.75 1.35
1.125 0.6875 1.2875
1.0625 0.6875 1.35
1.0625 0.75 1.2875
1.0625 0.6875 1.2875
1.25 0.6875 1.35
1.25 0.75 1.2875
1.1875 0.75 1.35
1.25 0.6875 1.2875
1.1875 0.6875 1.35
1.1875 0.75 1.2875
1.1875 0.6875 1.2875
1.375 0.6875 1.35
1.375 0.75 1.2875
1.3125 0.75 1.35
1.375 0.6875 1.2875
1.3125 0.6875 1.35
1.3125 0.75 1.2875
1.3125 0.6875 1.2875
1.5 0.6875 1.35
1.5 0.75 1.2875
1.4375 0.75 1.35
1.5 0.6875 1.2875
1.4375 0.6875 1.35
1.4375 0.75 1.2875
1.4375 0.6875 1.2875
1.625 0.6875 1.35
1.625 0.75 1.2875
1.5625 0.75 1.35
1.625 0.6875 1.2875
1.5625 0.6875 1.35
1.5625 0.75 1.2875
1.5625 0.6875 1.2875
1.75 0.6875 1.35
1.75 0.75 1.2875
1.6875 0.75 1.35
1.75 0.6875 1.2875
1.6875 0.6875 1.35
1.6875 0.75 1.2875
1.6875 0.6875 1.2875
1.875 0.6875 1.35
1.875 0.75 1.2875
1.8125 0.75 1.35
1.875 0.6875 1.2875
1.8125 0.6875 1.35
1.8125 0.75 1.2875
1.8125 0.6875 1.2875
2 0.6875 1.35
2 0.75 1.2875
1.9375 0.75 1.35
2 0.6875 1.2875
1.9375 0.6875 1.35
1.9375 0.75 1.2875
1.9375 0.6875 1.2875
2.125 0.6875 1.35
2.125 0.75 1.2875
2.0625 0.75 1.35
2.125 0.6875 1.2875
2.0625 0.6875 1.35
2.0625 0.75 1.2875
2.0625 0.6875 1.2875
2.25 0.6875 1.35
2.25 0.75 1.2875
2.1875 0.75 1.35
2.25 0.6875 1.2875
2.1875 0.6875 1.35
2.1875 0.75 1.2875
2.1875 0.6875 1.2875
2.375 0.6875 1.35
2.375 0.75 1.2875
2.3125 0.75 1.35
2.375 0.6875 1.2875
2.3125 0.6875 1.35
2.3125 0.75 1.2875
2.3125 0.6875 1.2875
2.5 0.6875 1.35
2.5 0.75 1.2875
2.4375 0.75 1.35
2.5 0.6875 1.2875
2.4375 0.6875 1.35
2.4375 0.75 1.2875
2.4375 0.6875 1.2875
2.625 0.6875 1.35
2.625 0.75 1.2875
2.5625 0.75 1.35
2.625 0.6875 1.2875
2.5625 0.6875 1.35
2.5625 0.75 1.2875
2.5625 0.6875 1.2875
2.75 0.6875 1.35
2.75 0.75 1.2875
2.6875 0.75 1.35
2.75 0.6875 1.2875
2.6875 0.6875 1.35
2.6875 0.75 1.2875
2.6875 0.6875 1.2875
2.875 0.6875 1.35
2.875 0.75 1.2875
2.8125 0.75 1.35
2.875 0.6875 1.2875
2.8125 0.6875 1.35
2.8125 0.75 1.2875
2.8125 0.6875 1.2875
3 0.6875 1.35
3 0.75 1.2875
2.9375 0.75 1.35
3 0.6875 1.2875
2.9375 0.6875 1.35
2.9375 0.75 1.2875
2.9375 0.6875 1.2875
0.125 0.8125 1.35
0 0.8125 1.35
0.125 0.875 1.2875
0.0625 0.875 1.35
0 0.875 1.2875
0.125 0.8125 1.2875
0.0625 0.8125 1.35
0 0.8125 1.2875
0.0625 0.875 1.2875
0.0625 0.8125 1.2875
0.25 0.8125 1.35
0.25 0.875 1.2875
0.1875 0.875 1.35
0.25 0.8125 1.2875
0.1875 0.8125 1.35
0.1875 0.875 1.2875
0.1875 0.8125 1.2875
0.375 0.8125 1.35
0.375 0.875 1.2875
0.3125 0.875 1.35
0.375 0.8125 1.2875
0.3125 0.8125 1.35
0.3125 0.875 1.2875
0.3125 0.8125 1.2875
0.5 0.8125 1.35
0.5 0.875 1.2875
0.4375 0.875 1.35
0.5 0.8125 1.2875
0.4375 0.8125 1.35
0.4375 0.875 1.2875
0.4375 0.8125 1.2875
0.625 0.8125 1.35
0.625 0.875 1.2875
0.5625 0.875 1.35
0.625 0.8125 1.2875
0.5625 0.8125 1.35
0.5625 0.875 1.2875
0.5625 0.8125 1.2875
0.75 0.8125 1.35
0.75 0.875 1.2875
0.6875 0.875 1.35
0.75 0.8125 1.2875
0.6875 0.8125 1.35
0.6875 0.875 1.2875
0.6875 0.8125 1.2875
0.875 0.8125 1.35
0.875 0.875 1.2875
0.8125 0.875 1.35
0.875 0.8125 1.2875
0.8125 0.8125 1.35
0.8125 0.875 1.2875
0.8125 0.8125 1.2875
1 0.8125 1.35
1 0.875 1.2875
0.9375 0.875 1.35
1 0.8125 1.2875
0.9375 0.8125 1.35
0.9375 0.875 1.2875
0.9375 0.8125 1.2875
1.125 0.8125 1.35
1.125 0.875 1.2875
1.0625 0.875 1.35
1.125 0.8125 1.2875
1.0625 0.8125 1.35
1.0625 0.875 1.2875
1.0625 0.8125 1.2875
1.25 0.8125 1.35
1.25 0.875 1.2875
1.1875 0.875 1.35
1.25 0.8125 1.2875
1.1875 0.8125 1.35
1.1875 0.875 1.2875
1.1875 0.8125 1.2875
1.375 0.8125 1.35
1.375 0.875 1.2875
1.3125 0.875 1.35
1.375 0.8125 1.2875
1.3125 0.8125 1.35
1.3125 0.875 1.2875
1.3125 0.8125 1.2875
1.5 0.8125 1.35
1.5 0.875 1.2875
1.4375 0.875 1.35
1.5 0.8125 1.2875
1.4375 0.8125 1.35
1.4375 0.875 1.2875
1.4375 0.8125 1.2875
1.625 0.8125 1.35
1.625 0.875 1.2875
1.5625 0.875 1.35
1.625 0.8125 1.2875
1.5625 0.8125 1.35
1.5625 0.875 1.2875
1.5625 0.8125 1.2875
1.75 0.8125 1.35
1.75 0.875 1.2875
1.6875 0.875 1.35
1.75 0.8125 1.2875
1.6875 0.8125 1.35
1.6875 0.875 1.2875
1.6875 0.8125 1.2875
1.875 0.8125 1.35
1.875 0.875 1.2875
1.8125 0.875 1.35
1.875 0.8125 1.2875
1.8125 0.8125 1.35
1.8125 0.875 1.2875
1.8125 0.8125 1.2875
2 0.8125 1.35
2 0.875 1.2875
1.9375 0.875 1.35
2 0.8125 1.2875
1.9375 0.8125 1.35
1.9375 0.875 1.2875
1.9375 0.8125 1.2875
2.125 0.8125 1.35
2.125 0.875 1.2875
2.0625 0.875 1.35
2.125 0.8125 1.2875
2.0625 0.8125 1.35
2.0625 0.875 1.2875
2.0625 0.8125 1.2875
2.25 0.8125 1.35
2.25 0.875 1.2875
2.1875 0.875 1.35
2.25 0.8125 1.2875
2.1875 0.8125 1.35
2.1875 0.875 1.2875
2.1875 0.8125 1.2875
2.375 0.8125 1.35
2.375 0.875 1.2875
2.3125 0.875 1.35
2.375 0.8125 1.2875
2.3125 0.8125 1.35
2.3125 0.875 1.2875
2.3125 0.8125 1.2875
2.5 0.8125 1.35
2.5 0.875 1.2875
2.4375 0.875 1.35
2.5 0.8125 1.2875
2.4375 0.8125 1.35
2.4375 0.875 1.2875
2.4375 0.8125 1.2875
2.625 0.8125 1.35
2.625 0.875 1.2875
2.5625 0.875 1.35
2.625 0.8125 1.2875
2.5625 0.8125 1.35
2.5625 0.875 1.2875
2.5625 0.8125 1.2875
2.75 0.8125 1.35
2.75 0.875 1.2875
2.6875 0.875 1.35
2.75 0.8125 1.2875
2.6875 0.8125 1.35
2.6875 0.875 1.2875
2.6875 0.8125 1.2875
2.875 0.8125 1.35
2.875 0.875 1.2875
2.8125 0.875 1.35
2.875 0.8125 1.2875
2.8125 0.8125 1.35
2.8125 0.875 1.2875
2.8125 0.8125 1.2875
3 0.8125 1.35
3 0.875 1.2875
2.9375 0.875 1.35
3 0.8125 1.2875
2.9375 0.8125 1.35
2.9375 0.875 1.2875
2.9375 0.8125 1.2875
0.125 0.9375 1.35
0 0.9375 1.35
0.125 1 1.2875
0.0625 1 1.35
0 1 1.2875
0.125 0.9375 1.2875
0.0625 0.9375 1.35
0 0.9375 1.2875
0.0625 1 1.2875
0.0625 0.9375 1.2875
0.25 0.9375 1.35
0.25 1 1.2875
0.1875 1 1.35
0.25 0.9375 1.2875
0.1875 0.9375 1.35
0.1875 1 1.2875
0.1875 0.9375 1.2875
0.375 0.9375 1.35
0.375 1 1.2875
0.3125 1 1.35
0.375 0.9375 1.2875
0.3125 0.9375 1.35
0.3125 1 1.2875
0.3125 0.9375 1.2875
0.5 0.9375 1.35
0.5 1 1.2875
0.4375 1 1.35
0.5 0.9375 1.2875
0.4375 0.9375 1.35
0.4375 1 1.2875
0.4375 0.9375 1.2875
0.625 0.9375 1.35
0.625 1 1.2875
0.5625 1 1.35
0.625 0.9375 1.2875
0.5625 0.9375 1.35
0.5625 1 1.2875
0.5625 0.9375 1.2875
0.75 0.9375 1.35
0.75 1 1.2875
0.6875 1 1.35
0.75 0.9375 1.2875
0.6875 0.9375 1.35
0.6875 1 1.2875
0.6875 0.9375 1.2875
0.875 0.9375 1.35
0.875 1 1.2875
0.8125 1 1.35
0.875 0.9375 1.2875
0.8125 0.9375 1.35
0.8125 1 1.2875
0.8125 0.9375 1.2875
1 0.9375 1.35
1 1 1.2875
0.9375 1 1.35
1 0.9375 1.2875
0.9375 0.9375 1.35
0.9375 1 1.2875
0.9375 0.9375 1.2875
1.125 0.9375 1.35
1.125 1 1.2875
1.0625 1 1.35
1.125 0.9375 1.2875
1.0625 0.9375 1.35
1.0625 1 1.2875
1.0625 0.9375 1.2875
1.25 0.9375 1.35
1.25 1 1.2875
1.1875 1 1.35
1.25 0.9375 1.2875
1.1875 0.9375 1.35
1.1875 1 1.2875
1.1875 0.9375 1.2875
1.375 0.9375 1.35
1.375 1 1.2875
1.3125 1 1.35
1.375 0.9375 1.2875
1.3125 0.9375 1.35
1.3125 1 1.2875
1.3125 0.9375 1.2875
1.5 0.9375 1.35
1.5 1 1.2875
1.4375 1 1.35
1.5 0.9375 1.2875
1.4375 0.9375 1.35
1.4375 1 1.2875
1.4375 0.9375 1.2875
1.625 0.9375 1.35
1.625 1 1.2875
1.5625 1 1.35
1.625 0.9375 1.2875
1.5625 0.9375 1.35
1.5625 1 1.2875
1.5625 0.9375 1.2875
1.75 0.9375 1.35
1.75 1 1.2875
1.6875 1 1.35
1.75 0.9375 1.2875
1.6875 0.9375 1.35
1.6875 1 1.2875
1.6875 0.9375 1.2875
1.875 0.9375 1.35
1.875 1 1.2875
1.8125 1 1.35
1.875 0.9375 1.2875
1.8125 0.9375 1.35
1.8125 1 1.2875
1.8125 0.9375 1.2875
2 0.9375 1.35
2 1 1.2875
1.9375 1 1.35
2 0.9375 1.2875
1.9375 0.9375 1.35
1.9375 1 1.2875
1.9375 0.9375 1.2875
2.125 0.9375 1.35
2.125 1 1.2875
2.0625 1 1.35
2.125 0.9375 1.2875
2.0625 0.9375 1.35
2.0625 1 1.2875
2.0625 0.9375 1.2875
2.25 0.9375 1.35
2.25 1 1.2875
2.1875 1 1.35
2.25 0.9375 1.2875
2.1875 0.9375 1.35
2.1875 1 1.2875
2.1875 0.9375 1.2875
2.375 0.9375 1.35
2.375 1 1.2875
2.3125 1 1.35
2.375 0.9375 1.2875
2.3125 0.9375 1.35
2.3125 1 1.2875
2.3125 0.9375 1.2875
2.5 0.9375 1.35
2.5 1 1.2875
2.4375 1 1.35
2.5 0.9375 1.2875
2.4375 0.9375 1.35
2.4375 1 1.2875
2.4375 0.9375 1.2875
2.625 0.9375 1.35
2.625 1 1.2875
2.5625 1 1.35
2.625 0.9375 1.2875
2.5625 0.9375 1.35
2.5625 1 1.2875
2.5625 0.9375 1.2875
2.75 0.9375 1.35
2.75 1 1.2875
2.6875 1 1.35
2.75 0.9375 1.2875
2.6875 0.9375 1.35
2.6875 1 1.2875
2.6875 0.9375 1.2875
2.875 0.9375 1.35
2.875 1 1.2875
2.8125 1 1.35
2.875 0.9375 1.2875
2.8125 0.9375 1.35
2.8125 1 1.2875
2.8125 0.9375 1.2875
3 0.9375 1.35
3 1 1.2875
2.9375 1 1.35
3 0.9375 1.2875
2.9375 0.9375 1.35
2.9375 1 1.2875
2.9375 0.9375 1.2875
0.125 0 1.4125
0.0625 0 1.475
0 0 1.4125
0.125 0.0625 1.475
0 0.0625 1.475
0.125 0.125 1.4125
0.0625 0.125 1.475
0 0.125 1.4125
0.0625 0 1.4125
0.125 0.0625 1.4125
0.0625 0.0625 1.475
0 0.0625 1.4125
0.0625 0.125 1.4125
0.0625 0.0625 1.4125
0.25 0 1.4125
0.1875 0 1.475
0.25 0.0625 1.475
0.25 0.125 1.4125
0.1875 0.125 1.475
0.1875 0 1.4125
0.25 0.0625 1.4125
0.1875 0.0625 1.475
0.1875 0.125 1.4125
0.1875 0.0625 1.4125
0.375 0 1.4125
0.3125 0 1.475
0.375 0.0625 1.475
0.375 0.125 1.4125
0.3125 0.125 1.475
0.3125 0 1.4125
0.375 0.0625 1.4125
0.3125 0.0625 1.475
0.3125 0.125 1.4125
0.3125 0.0625 1.4125
0.5 0 1.4125
0.4375 0 1.475
0.5 0.0625 1.475
0.5 0.125 1.4125
0.4375 0.125 1.475
0.4375 0 1.4125
0.5 0.0625 1.4125
0.4375 0.0625 1.475
0.4375 0.125 1.4125
0.4375 0.0625 1.4125
0.625 0 1.4125
0.5625 0 1.475
0.625 0.0625 1.475
0.625 0.125 1.4125
0.5625 0.125 1.475
0.5625 0 1.4125
0.625 0.0625 1.4125
0.5625 0.0625 1.475
0.5625 0.125 1.4125
0.5625 0.0625 1.4125
0.75 0 1.4125
0.6875 0 1.475
0.75 0.0625 1.475
0.75 0.125 1.4125
0.6875 0.125 1.475
0.6875 0 1.4125
0.75 0.0625 1.4125
0.6875 0.0625 1.475
0.6875 0.125 1.4125
0.6875 0.0625 1.4125
0.875 0 1.4125
0.8125 0 1.475
0.875 0.0625 1.475
0.875 0.125 1.4125
0.8125 0.125 1.475
0.8125 0 1.4125
0.875 0.0625 1.4125
0.8125 0.0625 1.475
0.8125 0.125 1.4125
0.8125 0.0625 1.4125
1 0 1.4125
0.9375 0 1.475
1 0.0625 1.475
1 0.125 1.4125
0.9375 0.125 1.475
0.9375 0 1.4125
1 0.0625 1.4125
0.9375 0.0625 1.475
0.9375 0.125 1.4125
0.9375 0.0625 1.4125
1.125 0 1.4125
1.0625 0 1.475
1.125 0.0625 1.475
1.125 0.125 1.4125
1.0625 0.125 1.475
1.0625 0 1.4125
1.125 0.0625 1.4125
1.0625 0.0625 1.475
1.0625 0.125 1.4125
1.0625 0.0625 1.4125
1.25 0 1.4125
1.1875 0 1.475
1.25 0.0625 1.475
1.25 0.125 1.4125
1.1875 0.125 1.475
1.1875 0 1.4125
1.25 0.0625 1.4125
1.1875 0.0625 1.475
1.1875 0.125 1.4125
1.1875 0.0625 1.4125
1.375 0 1.4125
1.3125 0 1.475
1.375 0.0625 1.475
1.375 0.125 1.4125
1.3125 0.125 1.475
1.3125 0 1.4125
1.375 0.0625 1.4125
1.3125 0.0625 1.475
1.3125 0.125 1.4125
1.3125 0.0625 1.4125
1.5 0 1.4125
1.4375 0 1.475
1.5 0.0625 1.475
1.5 0.125 1.4125
1.4375 0.125 1.475
1.4375 0 1.4125
1.5 0.0625 1.4125
1.4375 0.0625 1.475
1.4375 0.125 1.4125
1.4375 0.0625 1.4125
1.625 0 1.4125
1.5625 0 1.475
1.625 0.0625 1.475
1.625 0.125 1.4125
1.5625 0.125 1.475
1.5625 0 1.4125
1.625 0.0625 1.4125
1.5625 0.0625 1.475
1.5625 0.125 1.4125
1.5625 0.0625 1.4125
1.75 0 1.4125
1.6875 0 1.475
1.75 0.0625 1.475
1.75 0.125 1.4125
1.6875 0.125 1.475
1.6875 0 1.4125
1.75 0.0625 1.4125
1.6875 0.0625 1.475
1.6875 0.125 1.4125
1.6875 0.0625 1.4125
1.875 0 1.4125
1.8125 0 1.475
1.875 0.0625 1.475
1.875 0.125 1.4125
1.8125 0.125 1.475
1.8125 0 1.4125
1.875 0.0625 1.4125
1.8125 0.0625 1.475
1.8125 0.125 1.4125
1.8125 0.0625 1.4125
2 0 1.4125
1.9375 0 1.475
2 0.0625 1.475
2 0.125 1.4125
1.9375 0.125 1.475
1.9375 0 1.4125
2 0.0625 1.4125
1.9375 0.0625 1.475
1.9375 0.125 1.4125
1.9375 0.0625 1.4125
2.125 0 1.4125
2.0625 0 1.475
2.125 0.0625 1.475
2.125 0.125 1.4125
2.0625 0.125 1.475
2.0625 0 1.4125
2.125 0.0625 1.4125
2.0625 0.0625 1.475
2.0625 0.125 1.4125
2.0625 0.0625 1.4125
2.25 0 1.4125
2.1875 0 1.475
2.25 0.0625 1.475
2.25 0.125 1.4125
2.1875 0.125 1.475
2.1875 0 1.4125
2.25 0.0625 1.4125
2.1875 0.0625 1.475
2.1875 0.125 1.4125
2.1875 0.0625 1.4125
2.375 0 1.4125
2.3125 0 1.475
2.375 0.0625 1.475
2.375 0.125 1.4125
2.3125 0.125 1.475
2.3125 0 1.4125
2.375 0.0625 1.4125
2.3125 0.0625 1.475
2.3125 0.125 1.4125
2.3125 0.0625 1.4125
2.5 0 1.4125
2.4375 0 1.475
2.5 0.0625 1.475
2.5 0.125 1.4125
2.4375 0.125 1.475
2.4375 0 1.4125
2.5 0.0625 1.4125
2.4375 0.0625 1.475
2.4375 0.125 1.4125
2.4375 0.0625 1.4125
2.625 0 1.4125
2.5625 0 1.475
2.625 0.0625 1.475
2.625 0.125 1.4125
2.5625 0.125 1.475
2.5625 0 1.4125
2.625 0.0625 1.4125
2.5625 0.0625 1.475
2.5625 0.125 1.4125
2.5625 0.0625 1.4125
2.75 0 1.4125
2.6875 0 1.475
2.75 0.0625 1.475
2.75 0.125 1.4125
2.6875 0.125 1.475
2.6875 0 1.4125
2.75 0.0625 1.4125
2.6875 0.0625 1.475
2.6875 0.125 1.4125
2.6875 0.0625 1.4125
2.875 0 1.4125
2.8125 0 1.475
2.875 0.0625 1.475
2.875 0.125 1.4125
2.8125 0.125 1.475
2.8125 0 1.4125
2.875 0.0625 1.4125
2.8125 0.0625 1.475
2.8125 0.125 1.4125
2.8125 0.0625 1.4125
3 0 1.4125
2.9375 0 1.475
3 0.0625 1.475
3 0.125 1.4125
2.9375 0.125 1.475
2.9375 0 1.4125
3 0.0625 1.4125
2.9375 0.0625 1.475
2.9375 0.125 1.4125
2.9375 0.0625 1.4125
0.125 0.1875 1.475
0 0.1875 1.475
0.125 0.25 1.4125
0.0625 0.25 1.475
0 0.25 1.4125
0.125 0.1875 1.4125
0.0625 0.1875 1.475
0 0.1875 1.4125
0.0625 0.25 1.4125
0.0625 0.1875 1.4125
0.25 0.1875 1.475
0.25 0.25 1.4125
0.1875 0.25 1.475
0.25 0.1875 1.4125
0.1875 0.1875 1.475
0.1875 0.25 1.4125
0.1875 0.1875 1.4125
0.375 0.1875 1.475
0.375 0.25 1.4125
0.3125 0.25 1.475
0.375 0.1875 1.4125
0.3125 0.1875 1.475
0.3125 0.25 1.4125
0.3125 0.1875 1.4125
0.5 0.1875 1.475
0.5 0.25 1.4125
0.4375 0.25 1.475
0.5 0.1875 1.4125
0.4375 0.1875 1.475
0.4375 0.25 1.4125
0.4375 0.1875 1.4125
0.625 0.1875 1.475
0.625 0.25 1.4125
0.5625 0.25 1.475
0.625 0.1875 1.4125
0.5625 0.1875 1.475
0.5625 0.25 1.4125
0.5625 0.1875 1.4125
0.75 0.1875 1.475
0.75 0.25 1.4125
0.6875 0.25 1.475
0.75 0.1875 1.4125
0.6875 0.1875 1.475
0.6875 0.25 1.4125
0.6875 0.1875 1.4125
0.875 0.1875 1.475
0.875 0.25 1.4125
0.8125 0.25 1.475
0.875 0.1875 1.4125
0.8125 0.1875 1.475
0.8125 0.25 1.4125
0.8125 0.1875 1.4125
1 0.1875 1.475
1 0.25 1.4125
0.9375 0.25 1.475
1 0.1875 1.4125
0.9375 0.1875 1.475
0.9375 0.25 1.4125
0.9375 0.1875 1.4125
1.125 0.1875 1.475
1.125 0.25 1.4125
1.0625 0.25 1.475
1.125 0.1875 1.4125
1.0625 0.1875 1.475
1.0625 0.25 1.4125
1.0625 0.1875 1.4125
1.25 0.1875 1.475
1.25 0.25 1.4125
1.1875 0.25 1.475
1.25 0.1875 1.4125
1.1875 0.1875 1.475
1.1875 0.25 1.4125
1.1875 0.1875 1.4125
1.375 0.1875 1.475
1.375 0.25 1.4125
1.3125 0.25 1.475
1.375 0.1875 1.4125
1.3125 0.1875 1.475
1.3125 0.25 1.4125
1.3125 0.1875 1.4125
1.5 0.1875 1.475
1.5 0.25 1.4125
1.4375 0.25 1.475
1.5 0.1875 1.4125
1.4375 0.1875 1.475
1.4375 0.25 1.4125
1.4375 0.1875 1.4125
1.625 0.1875 1.475
1.625 0.25 1.4125
1.5625 0.25 1.475
1.625 0.1875 1.4125
1.5625 0.1875 1.475
1.5625 0.25 1.4125
1.5625 0.1875 1.4125
1.75 0.1875 1.475
1.75 0.25 1.4125
1.6875 0.25 1.475
1.75 0.1875 1.4125
1.6875 0.1875 1.475
1.6875 0.25 1.4125
1.6875 0.1875 1.4125
1.875 0.1875 1.475
1.875 0.25 1.4125
1.8125 0.25 1.475
1.875 0.1875 1.4125
1.8125 0.1875 1.475
1.8125 0.25 1.4125
1.8125 0.1875 1.4125
2 0.1875 1.475
2 0.25 1.4125
1.9375 0.25 1.475
2 0.1875 1.4125
1.9375 0.1875 1.475
1.9375 0.25 1.4125
1.9375 0.1875 1.4125
2.125 0.1875 1.475
2.125 0.25 1.4125
2.0625 0.25 1.475
2.125 0.1875 1.4125
2.0625 0.1875 1.475
2.0625 0.25 1.4125
2.0625 0.1875 1.4125
2.25 0.1875 1.475
2.25 0.25 1.4125
2.1875 0.25 1.475
2.25 0.1875 1.4125
2.1875 0.1875 1.475
2.1875 0.25 1.4125
2.1875 0.1875 1.4125
2.375 0.1875 1.475
2.375 0.25 1.4125
2.3125 0.25 1.475
2.375 0.1875 1.4125
2.3125 0.1875 1.475
2.3125 0.25 1.4125
2.3125 0.1875 1.4125
2.5 0.1875 1.475
2.5 0.25 1.4125
2.4375 0.25 1.475
2.5 0.1875 1.4125
2.4375 0.1875 1.475
2.4375 0.25 1.4125
2.4375 0.1875 1.4125
2.625 0.1875 1.475
2.625 0.25 1.4125
2.5625 0.25 1.475
2.625 0.1875 1.4125
2.5625 0.1875 1.475
2.5625 0.25 1.4125
2.5625 0.1875 1.4125
2.75 0.1875 1.475
2.75 0.25 1.4125
2.6875 0.25 1.475
2.75 0.1875 1.4125
2.6875 0.1875 1.475
2.6875 0.25 1.4125
2.6875 0.1875 1.4125
2.875 0.1875 1.475
2.875 0.25 1.4125
2.8125 0.25 1.475
2.875 0.1875 1.4125
2.8125 0.1875 1.475
2.8125 0.25 1.4125
2.8125 0.1875 1.4125
3 0.1875 1.475
3 0.25 1.4125
2.9375 0.25 1.475
3 0.1875 1.4125
2.9375 0.1875 1.475
2.9375 0.25 1.4125
2.9375 0.1875 1.4125
0.125 0.3125 1.475
0 0.3125 1.475
0.125 0.375 1.4125
0.0625 0.375 1.475
0 0.375 1.4125
0.125 0.3125 1.4125
0.0625 0.3125 1.475
0 0.3125 1.4125
0.0625 0.375 1.4125
0.0625 0.3125 1.4125
0.25 0.3125 1.475
0.25 0.375 1.4125
0.1875 0.375 1.475
0.25 0.3125 1.4125
0.1875 0.3125 1.475
0.1875 0.375 1.4125
0.1875 0.3125 1.4125
0.375 0.3125 1.475
0.375 0.375 1.4125
0.3125 0.375 1.475
0.375 0.3125 1.4125
0.3125 0.3125 1.475
0.3125 0.375 1.4125
0.3125 0.3125 1.4125
0.5 0.3125 1.475
0.5 0.375 1.4125
0.4375 0.375 1.475
0.5 0.3125 1.4125
0.4375 0.3125 1.475
0.4375 0.375 1.4125
0.4375 0.3125 1.4125
0.625 0.3125 1.475
0.625 0.375 1.4125
0.5625 0.375 1.475
0.625 0.3125 1.4125
0.5625 0.3125 1.475
0.5625 0.375 1.4125
0.5625 0.3125 1.4125
0.75 0.3125 1.475
0.75 0.375 1.4125
0.6875 0.375 1.475
0.75 0.3125 1.4125
0.6875 0.3125 1.475
0.6875 0.375 1.4125
0.6875 0.3125 1.4125
0.875 0.3125 1.475
0.875 0.375 1.4125
0.8125 0.375 1.475
0.875 0.3125 1.4125
0.8125 0.3125 1.475
0.8125 0.375 1.4125
0.8125 0.3125 1.4125
1 0.3125 1.475
1 0.375 1.4125
0.9375 0.375 1.475
1 0.3125 1.4125
0.9375 0.3125 1.475
0.9375 0.375 1.4125
0.9375 0.3125 1.4125
1.125 0.3125 1.475
1.125 0.375 1.4125
1.0625 0.375 1.475
1.125 0.3125 1.4125
1.0625 0.3125 1.475
1.0625 0.375 1.4125
1.0625 0.3125 1.4125
1.25 0.3125 1.475
1.25 0.375 1.4125
1.1875 0.375 1.475
1.25 0.3125 1.4125
1.1875 0.3125 1.475
1.1875 0.375 1.4125
1.1875 0.3125 1.4125
1.375 0.3125 1.475
1.375 0.375 1.4125
1.3125 0.375 1.475
1.375 0.3125 1.4125
1.3125 0.3125 1.475
1.3125 0.375 1.4125
1.3125 0.3125 1.4125
1.5 0.3125 1.475
1.5 0.375 1.4125
1.4375 0.375 1.475
1.5 0.3125 1.4125
1.4375 0.3125 1.475
1.4375 0.375 1.4125
1.4375 0.3125 1.4125
1.625 0.3125 1.475
1.625 0.375 1.4125
1.5625 0.375 1.475
1.625 0.3125 1.4125
1.5625 0.3125 1.475
1.5625 0.375 1.4125
1.5625 0.3125 1.4125
1.75 0.3125 1.475
1.75 0.375 1.4125
1.6875 0.375 1.475
1.75 0.3125 1.4125
1.6875 0.3125 1.475
1.6875 0.375 1.4125
1.6875 0.3125 1.4125
1.875 0.3125 1.475
1.875 0.375 1.4125
1.8125 0.375 1.475
1.875 0.3125 1.4125
1.8125 0.3125 1.475
1.8125 0.375 1.4125
1.8125 0.3125 1.4125
2 0.3125 1.475
2 0.375 1.4125
1.9375 0.375 1.475
2 0.3125 1.4125
1.9375 0.3125 1.475
1.9375 0.375 1.4125
1.9375 0.3125 1.4125
2.125 0.3125 1.475
2.125 0.375 1.4125
2.0625 0.375 1.475
2.125 0.3125 1.4125
2.0625 0.3125 1.475
2.0625 0.375 1.4125
2.0625 0.3125 1.4125
2.25 0.3125 1.475
2.25 0.375 1.4125
2.1875 0.375 1.475
2.25 0.3125 1.4125
2.1875 0.3125 1.475
2.1875 0.375 1.4125
2.1875 0.3125 1.4125
2.375 0.3125 1.475
2.375 0.375 1.4125
2.3125 0.375 1.475
2.375 0.3125 1.4125
2.3125 0.3125 1.475
2.3125 0.375 1.4125
2.3125 0.3125 1.4125
2.5 0.3125 1.475
2.5 0.375 1.4125
2.4375 0.375 1.475
2.5 0.3125 1.4125
2.4375 0.3125 1.475
2.4375 0.375 1.4125
2.4375 0.3125 1.4125
2.625 0.3125 1.475
2.625 0.375 1.4125
2.5625 0.375 1.475
2.625 0.3125 1.4125
2.5625 0.3125 1.475
2.5625 0.375 1.4125
2.5625 0.3125 1.4125
2.75 0.3125 1.475
2.75 0.375 1.4125
2.6875 0.375 1.475
2.75 0.3125 1.4125
2.6875 0.3125 1.475
2.6875 0.375 1.4125
2.6875 0.3125 1.4125
2.875 0.3125 1.475
2.875 0.375 1.4125
2.8125 0.375 1.475
2.875 0.3125 1.4125
2.8125 0.3125 1.475
2.8125 0.375 1.4125
2.8125 0.3125 1.4125
3 0.3125 1.475
3 0.375 1.4125
2.9375 0.375 1.475
3 0.3125 1.4125
2.9375 0.3125 1.475
2.9375 0.375 1.4125
2.9375 0.3125 1.4125
0.125 0.4375 1.475
0 0.4375 1.475
0.125 0.5 1.4125
0.0625 0.5 1.475
0 0.5 1.4125
0.125 0.4375 1.4125
0.0625 0.4375 1.475
0 0.4375 1.4125
0.0625 0.5 1.4125
0.0625 0.4375 1.4125
0.25 0.4375 1.475
0.25 0.5 1.4125
0.1875 0.5 1.475
0.25 0.4375 1.4125
0.1875 0.4375 1.475
0.1875 0.5 1.4125
0.1875 0.4375 1.4125
0.375 0.4375 1.475
0.375 0.5 1.4125
0.3125 0.5 1.475
0.375 0.4375 1.4125
0.3125 0.4375 1.475
0.3125 0.5 1.4125
0.3125 0.4375 1.4125
0.5 0.4375 1.475
0.5 0.5 1.4125
0.4375 0.5 1.475
0.5 0.4375 1.4125
0.4375 0.4375 1.475
0.4375 0.5 1.4125
0.4375 0.4375 1.4125
0.625 0.4375 1.475
0.625 0.5 1.4125
0.5625 0.5 1.475
0.625 0.4375 1.4125
0.5625 0.4375 1.475
0.5625 0.5 1.4125
0.5625 0.4375 1.4125
0.75 0.4375 1.475
0.75 0.5 1.4125
0.6875 0.5 1.475
0.75 0.4375 1.4125
0.6875 0.4375 1.475
0.6875 0.5 1.4125
0.6875 0.4375 1.4125
0.875 0.4375 1.475
0.875 0.5 1.4125
0.8125 0.5 1.475
0.875 0.4375 1.4125
0.8125 0.4375 1.475
0.8125 0.5 1.4125
0.8125 0.4375 1.4125
1 0.4375 1.475
1 0.5 1.4125
0.9375 0.5 1.475
1 0.4375 1.4125
0.9375 0.4375 1.475
0.9375 0.5 1.4125
0.9375 0.4375 1.4125
1.125 0.4375 1.475
1.125 0.5 1.4125
1.0625 0.5 1.475
1.125 0.4375 1.4125
1.0625 0.4375 1.475
1.0625 0.5 1.4125
1.0625 0.4375 1.4125
1.25 0.4375 1.475
1.25 0.5 1.4125
1.1875 0.5 1.475
1.25 0.4375 1.4125
1.1875 0.4375 1.475
1.1875 0.5 1.4125
1.1875 0.4375 1.4125
1.375 0.4375 1.475
1.375 0.5 1.4125
1.3125 0.5 1.475
1.375 0.4375 1.4125
1.3125 0.4375 1.475
1.3125 0.5 1.4125
1.3125 0.4375 1.4125
1.5 0.4375 1.475
1.5 0.5 1.4125
1.4375 0.5 1.475
1.5 0.4375 1.4125
1.4375 0.4375 1.475
1.4375 0.5 1.4125
1.4375 0.4375 1.4125
1.625 0.4375 1.475
1.625 0.5 1.4125
1.5625 0.5 1.475
1.625 0.4375 1.4125
1.5625 0.4375 1.475
1.5625 0.5 1.4125
1.5625 0.4375 1.4125
1.75 0.4375 1.475
1.75 0.5 1.4125
1.6875 0.5 1.475
1.75 0.4375 1.4125
1.6875 0.4375 1.475
1.6875 0.5 1.4125
1.6875 0.4375 1.4125
1.875 0.4375 1.475
1.875 0.5 1.4125
1.8125 0.5 1.475
1.875 0.4375 1.4125
1.8125 0.4375 1.475
1.8125 0.5 1.4125
1.8125 0.4375 1.4125
2 0.4375 1.475
2 0.5 1.4125
1.9375 0.5 1.475
2 0.4375 1.4125
1.9375 0.4375 1.475
1.9375 0.5 1.4125
1.9375 0.4375 1.4125
2.125 0.4375 1.475
2.125 0.5 1.4125
2.0625 0.5 1.475
2.125 0.4375 1.4125
2.0625 0.4375 1.475
2.0625 0.5 1.4125
2.0625 0.4375 1.4125
2.25 0.4375 1.475
2.25 0.5 1.4125
2.1875 0.5 1.475
2.25 0.4375 1.4125
2.1875 0.4375 1.475
2.1875 0.5 1.4125
2.1875 0.4375 1.4125
2.375 0.4375 1.475
2.375 0.5 1.4125
2.3125 0.5 1.475
2.375 0.4375 1.4125
2.3125 0.4375 1.475
2.3125 0.5 1.4125
2.3125 0.4375 1.4125
2.5 0.4375 1.475
2.5 0.5 1.4125
2.4375 0.5 1.475
2.5 0.4375 1.4125
2.4375 0.4375 1.475
2.4375 0.5 1.4125
2.4375 0.4375 1.4125
2.625 0.4375 1.475
2.625 0.5 1.4125
2.5625 0.5 1.475
2.625 0.4375 1.4125
2.5625 0.4375 1.475
2.5625 0.5 1.4125
2.5625 0.4375 1.4125
2.75 0.4375 1.475
2.75 0.5 1.4125
2.6875 0.5 1.475
2.75 0.4375 1.4125
2.6875 0.4375 1.475
2.6875 0.5 1.4125
2.6875 0.4375 1.4125
2.875 0.4375 1.475
2.875 0.5 1.4125
2.8125 0.5 1.475
2.875 0.4375 1.4125
2.8125 0.4375 1.475
2.8125 0.5 1.4125
2.8125 0.4375 1.4125
3 0.4375 1.475
3 0.5 1.4125
2.9375 0.5 1.475
3 0.4375 1.4125
2.9375 0.4375 1.475
2.9375 0.5 1.4125
2.9375 0.4375 1.4125
0.125 0.5625 1.475
0 0.5625 1.475
0.125 0.625 1.4125
0.0625 0.625 1.475
0 0.625 1.4125
0.125 0.5625 1.4125
0.0625 0.5625 1.475
0 0.5625 1.4125
0.0625 0.625 1.4125
0.0625 0.5625 1.4125
0.25 0.5625 1.475
0.25 0.625 1.4125
0.1875 0.625 1.475
0.25 0.5625 1.4125
0.1875 0.5625 1.475
0.1875 0.625 1.4125
0.1875 0.5625 1.4125
0.375 0.5625 1.475
0.375 0.625 1.4125
0.3125 0.625 1.475
0.375 0.5625 1.4125
0.3125 0.5625 1.475
0.3125 0.625 1.4125
0.3125 0.5625 1.4125
0.5 0.5625 1.475
0.5 0.625 1.4125
0.4375 0.625 1.475
0.5 0.5625 1.4125
0.4375 0.5625 1.475
0.4375 0.625 1.4125
0.4375 0.5625 1.4125
0.625 0.5625 1.475
0.625 0.625 1.4125
0.5625 0.625 1.475
0.625 0.5625 1.4125
0.5625 0.5625 1.475
0.5625 0.625 1.4125
0.5625 0.5625 1.4125
0.75 0.5625 1.475
0.75 0.625 1.4125
0.6875 0.625 1.475
0.75 0.5625 1.4125
0.6875 0.5625 1.475
0.6875 0.625 1.4125
0.6875 0.5625 1.4125
0.875 0.5625 1.475
0.875 0.625 1.4125
0.8125 0.625 1.475
0.875 0.5625 1.4125
0.8125 0.5625 1.475
0.8125 0.625 1.4125
0.8125 0.5625 1.4125
1 0.5625 1.475
1 0.625 1.4125
0.9375 0.625 1.475
1 0.5625 1.4125
0.9375 0.5625 1.475
0.9375 0.625 1.4125
0.9375 0.5625 1.4125
1.125 0.5625 1.475
1.125 0.625 1.4125
1.0625 0.625 1.475
1.125 0.5625 1.4125
1.0625 0.5625 1.475
1.0625 0.625 1.4125
1.0625 0.5625 1.4125
1.25 0.5625 1.475
1.25 0.625 1.4125
1.1875 0.625 1.475
1.25 0.5625 1.4125
1.1875 0.5625 1.475
1.1875 0.625 1.4125
1.1875 0.5625 1.4125
1.375 0.5625 1.475
1.375 0.625 1.4125
1.3125 0.625 1.475
1.375 0.5625 1.4125
1.3125 0.5625 1.475
1.3125 0.625 1.4125
1.3125 0.5625 1.4125
1.5 0.5625 1.475
1.5 0.625 1.4125
1.4375 0.625 1.475
1.5 0.5625 1.4125
1.4375 0.5625 1.475
1.4375 0.625 1.4125
1.4375 0.5625 1.4125
1.625 0.5625 1.475
1.625 0.625 1.4125
1.5625 0.625 1.475
1.625 0.5625 1.4125
1.5625 0.5625 1.475
1.5625 0.625 1.4125
1.5625 0.5625 1.4125
1.75 0.5625 1.475
1.75 0.625 1.4125
1.6875 0.625 1.475
1.75 0.5625 1.4125
1.6875 0.5625 1.475
1.6875 0.625 1.4125
1.6875 0.5625 1.4125
1.875 0.5625 1.475
1.875 0.625 1.4125
1.8125 0.625 1.475
1.875 0.5625 1.4125
1.8125 0.5625 1.475
1.8125 0.625 1.4125
1.8125 0.5625 1.4125
2 0.5625 1.475
2 0.625 1.4125
1.9375 0.625 1.475
2 0.5625 1.4125
1.9375 0.5625 1.475
1.9375 0.625 1.4125
1.9375 0.5625 1.4125
2.125 0.5625 1.475
2.125 0.625 1.4125
2.0625 0.625 1.475
2.125 0.5625 1.4125
2.0625 0.5625 1.475
2.0625 0.625 1.4125
2.0625 0.5625 1.4125
2.25 0.5625 1.475
2.25 0.625 1.4125
2.1875 0.625 1.475
2.25 0.5625 1.4125
2.1875 0.5625 1.475
2.1875 0.625 1.4125
2.1875 0.5625 1.4125
2.375 0.5625 1.475
2.375 0.625 1.4125
2.3125 0.625 1.475
2.375 0.5625 1.4125
2.3125 0.5625 1.475
2.3125 0.625 1.4125
2.3125 0.5625 1.4125
2.5 0.5625 1.475
2.5 0.625 1.4125
2.4375 0.625 1.475
2.5 0.5625 1.4125
2.4375 0.5625 1.475
2.4375 0.625 1.4125
2.4375 0.5625 1.4125
2.625 0.5625 1.475
2.625 0.625 1.4125
2.5625 0.625 1.475
2.625 0.5625 1.4125
2.5625 0.5625 1.475
2.5625 0.625 1.4125
2.5625 0.5625 1.4125
2.75 0.5625 1.475
2.75 0.625 1.4125
2.6875 0.625 1.475
2.75 0.5625 1.4125
2.6875 0.5625 1.475
2.6875 0.625 1.4125
2.6875 0.5625 1.4125
2.875 0.5625 1.475
2.875 0.625 1.4125
2.8125 0.625 1.475
2.875 0.5625 1.4125
2.8125 0.5625 1.475
2.8125 0.625 1.4125
2.8125 0.5625 1.4125
3 0.5625 1.475
3 0.625 1.4125
2.9375 0.625 1.475
3 0.5625 1.4125
2.9375 0.5625 1.475
2.9375 0.625 1.4125
2.9375 0.5625 1.4125
0.125 0.6875 1.475
0 0.6875 1.475
0.125 0.75 1.4125
0.0625 0.75 1.475
0 0.75 1.4125
0.125 0.6875 1.4125
0.0625 0.6875 1.475
0 0.6875 1.4125
0.0625 0.75 1.4125
0.0625 0.6875 1.4125
0.25 0.6875 1.475
0.25 0.75 1.4125
0.1875 0.75 1.475
0.25 0.6875 1.4125
0.1875 0.6875 1.475
0.1875 0.75 1.4125
0.1875 0.6875 1.4125
0.375 0.6875 1.475
0.375 0.75 1.4125
0.3125 0.75 1.475
0.375 0.6875 1.4125
0.3125 0.6875 1.475
0.3125 0.75 1.4125
0.3125 0.6875 1.4125
0.5 0.6875 1.475
0.5 0.75 1.4125
0.4375 0.75 1.475
0.5 0.6875 1.4125
0.4375 0.6875 1.475
0.4375 0.75 1.4125
0.4375 0.6875 1.4125
0.625 0.6875 1.475
0.625 0.75 1.4125
0.5625 0.75 1.475
0.625 0.6875 1.4125
0.5625 0.6875 1.475
0.5625 0.75 1.4125
0.5625 0.6875 1.4125
0.75 0.6875 1.475
0.75 0.75 1.4125
0.6875 0.75 1.475
0.75 0.6875 1.4125
0.6875 0.6875 1.475
0.6875 0.75 1.4125
0.6875 0.6875 1.4125
0.875 0.6875 1.475
0.875 0.75 1.4125
0.8125 0.75 1.475
0.875 0.6875 1.4125
0.8125 0.6875 1.475
0.8125 0.75 1.4125
0.8125 0.6875 1.4125
1 0.6875 1.475
1 0.75 1.4125
0.9375 0.75 1.475
1 0.6875 1.4125
0.9375 0.6875 1.475
0.9375 0.75 1.4125
0.9375 0.6875 1.4125
1.125 0.6875 1.475
1.125 0.75 1.4125
1.0625 0.75 1.475
1.125 0.6875 1.4125
1.0625 0.6875 1.475
1.0625 0.75 1.4125
1.0625 0.6875 1.4125
1.25 0.6875 1.475
1.25 0.75 1.4125
1.1875 0.75 1.475
1.25 0.6875 1.4125
1.1875 0.6875 1.475
1.1875 0.75 1.4125
1.1875 0.6875 1.4125
1.375 0.6875 1.475
1.375 0.75 1.4125
1.3125 0.75 1.475
1.375 0.6875 1.4125
1.3125 0.6875 1.475
1.3125 0.75 1.4125
1.3125 0.6875 1.4125
1.5 0.6875 1.475
1.5 0.75 1.4125
1.4375 0.75 1.475
1.5 0.6875 1.4125
1.4375 0.6875 1.475
1.4375 0.75 1.4125
1.4375 0.6875 1.4125
1.625 0.6875 1.475
1.625 0.75 1.4125
1.5625 0.75 1.475
1.625 0.6875 1.4125
1.5625 0.6875 1.475
1.5625 0.75 1.4125
1.5625 0.6875 1.4125
1.75 0.6875 1.475
1.75 0.75 1.4125
1.6875 0.75 1.475
1.75 0.6875 1.4125
1.6875 0.6875 1.475
1.6875 0.75 1.4125
1.6875 0.6875 1.4125
1.875 0.6875 1.475
1.875 0.75 1.4125
1.8125 0.75 1.475
1.875 0.6875 1.4125
1.8125 0.6875 1.475
1.8125 0.75 1.4125
1.8125 0.6875 1.4125
2 0.6875 1.475
2 0.75 1.4125
1.9375 0.75 1.475
2 0.6875 1.4125
1.9375 0.6875 1.475
1.9375 0.75 1.4125
1.9375 0.6875 1.4125
2.125 0.6875 1.475
2.125 0.75 1.4125
2.0625 0.75 1.475
2.125 0.6875 1.4125
2.0625 0.6875 1.475
2.0625 0.75 1.4125
2.0625 0.6875 1.4125
2.25 0.6875 1.475
2.25 0.75 1.4125
2.1875 0.75 1.475
2.25 0.6875 1.4125
2.1875 0.6875 1.475
2.1875 0.75 1.4125
2.1875 0.6875 1.4125
2.375 0.6875 1.475
2.375 0.75 1.4125
2.3125 0.75 1.475
2.375 0.6875 1.4125
2.3125 0.6875 1.475
2.3125 0.75 1.4125
2.3125 0.6875 1.4125
2.5 0.6875 1.475
2.5 0.75 1.4125
2.4375 0.75 1.475
2.5 0.6875 1.4125
2.4375 0.6875 1.475
2.4375 0.75 1.4125
2.4375 0.6875 1.4125
2.625 0.6875 1.475
2.625 0.75 1.4125
2.5625 0.75 1.475
2.625 0.6875 1.4125
2.5625 0.6875 1.475
2.5625 0.75 1.4125
2.5625 0.6875 1.4125
2.75 0.6875 1.475
2.75 0.75 1.4125
2.6875 0.75 1.475
2.75 0.6875 1.4125
2.6875 0.6875 1.475
2.6875 0.75 1.4125
2.6875 0.6875 1.4125
2.875 0.6875 1.475
2.875 0.75 1.4125
2.8125 0.75 1.475
2.875 0.6875 1.4125
2.8125 0.6875 1.475
2.8125 0.75 1.4125
2.8125 0.6875 1.4125
3 0.6875 1.475
3 0.75 1.4125
2.9375 0.75 1.475
3 0.6875 1.4125
2.9375 0.6875 1.475
2.9375 0.75 1.4125
2.9375 0.6875 1.4125
0.125 0.8125 1.475
0 0.8125 1.475
0.125 0.875 1.4125
0.0625 0.875 1.475
0 0.875 1.4125
0.125 0.8125 1.4125
0.0625 0.8125 1.475
0 0.8125 1.4125
0.0625 0.875 1.4125
0.0625 0.8125 1.4125
0.25 0.8125 1.475
0.25 0.875 1.4125
0.1875 0.875 1.475
0.25 0.8125 1.4125
0.1875 0.8125 1.475
0.1875 0.875 1.4125
0.1875 0.8125 1.4125
0.375 0.8125 1.475
0.375 0.875 1.4125
0.3125 0.875 1.475
0.375 0.8125 1.4125
0.3125 0.8125 1.475
0.3125 0.875 1.4125
0.3125 0.8125 1.4125
0.5 0.8125 1.475
0.5 0.875 1.4125
0.4375 0.875 1.475
0.5 0.8125 1.4125
0.4375 0.8125 1.475
0.4375 0.875 1.4125
0.4375 0.8125 1.4125
0.625 0.8125 1.475
0.625 0.875 1.4125
0.5625 0.875 1.475
0.625 0.8125 1.4125
0.5625 0.8125 1.475
0.5625 0.875 1.4125
0.5625 0.8125 1.4125
0.75 0.8125 1.475
0.75 0.875 1.4125
0.6875 0.875 1.475
0.75 0.8125 1.4125
0.6875 0.8125 1.475
0.6875 0.875 1.4125
0.6875 0.8125 1.4125
0.875 0.8125 1.475
0.875 0.875 1.4125
0.8125 0.875 1.475
0.875 0.8125 1.4125
0.8125 0.8125 1.475
0.8125 0.875 1.4125
0.8125 0.8125 1.4125
1 0.8125 1.475
1 0.875 1.4125
0.9375 0.875 1.475
1 0.8125 1.4125
0.9375 0.8125 1.475
0.9375 0.875 1.4125
0.9375 0.8125 1.4125
1.125 0.8125 1.475
1.125 0.875 1.4125
1.0625 0.875 1.475
1.125 0.8125 1.4125
1.0625 0.8125 1.475
1.0625 0.875 1.4125
1.0625 0.8125 1.4125
1.25 0.8125 1.475
1.25 0.875 1.4125
1.1875 0.875 1.475
1.25 0.8125 1.4125
1.1875 0.8125 1.475
1.1875 0.875 1.4125
1.1875 0.8125 1.4125
1.375 0.8125 1.475
1.375 0.875 1.4125
1.3125 0.875 1.475
1.375 0.8125 1.4125
1.3125 0.8125 1.475
1.3125 0.875 1.4125
1.3125 0.8125 1.4125
1.5 0.8125 1.475
1.5 0.875 1.4125
1.4375 0.875 1.475
1.5 0.8125 1.4125
1.4375 0.8125 1.475
1.4375 0.875 1.4125
1.4375 0.8125 1.4125
1.625 0.8125 1.475
1.625 0.875 1.4125
1.5625 0.875 1.475
1.625 0.8125 1.4125
1.5625 0.8125 1.475
1.5625 0.875 1.4125
1.5625 0.8125 1.4125
1.75 0.8125 1.475
1.75 0.875 1.4125
1.6875 0.875 1.475
1.75 0.8125 1.4125
1.6875 0.8125 1.475
1.6875 0.875 1.4125
1.6875 0.8125 1.4125
1.875 0.8125 1.475
1.875 0.875 1.4125
1.8125 0.875 1.475
1.875 0.8125 1.4125
1.8125 0.8125 1.475
1.8125 0.875 1.4125
1.8125 0.8125 1.4125
2 0.8125 1.475
2 0.875 1.4125
1.9375 0.875 1.475
2 0.8125 1.4125
1.9375 0.8125 1.475
1.9375 0.875 1.4125
1.9375 0.8125 1.4125
2.125 0.8125 1.475
2.125 0.875 1.4125
2.0625 0.875 1.475
2.125 0.8125 1.4125
2.0625 0.8125 1.475
2.0625 0.875 1.4125
2.0625 0.8125 1.4125
2.25 0.8125 1.475
2.25 0.875 1.4125
2.1875 0.875 1.475
2.25 0.8125 1.4125
2.1875 0.8125 1.475
2.1875 0.875 1.4125
2.1875 0.8125 1.4125
2.375 0.8125 1.475
2.375 0.875 1.4125
2.3125 0.875 1.475
2.375 0.8125 1.4125
2.3125 0.8125 1.475
2.3125 0.875 1.4125
2.3125 0.8125 1.4125
2.5 0.8125 1.475
2.5 0.875 1.4125
2.4375 0.875 1.475
2.5 0.8125 1.4125
2.4375 0.8125 1.475
2.4375 0.875 1.4125
2.4375 0.8125 1.4125
2.625 0.8125 1.475
2.625 0.875 1.4125
2.5625 0.875 1.475
2.625 0.8125 1.4125
2.5625 0.8125 1.475
2.5625 0.875 1.4125
2.5625 0.8125 1.4125
2.75 0.8125 1.475
2.75 0.875 1.4125
2.6875 0.875 1.475
2.75 0.8125 1.4125
2.6875 0.8125 1.475
2.6875 0.875 1.4125
2.6875 0.8125 1.4125
2.875 0.8125 1.475
2.875 0.875 1.4125
2.8125 0.875 1.475
2.875 0.8125 1.4125
2.8125 0.8125 1.475
2.8125 0.875 1.4125
2.8125 0.8125 1.4125
3 0.8125 1.475
3 0.875 1.4125
2.9375 0.875 1.475
3 0.8125 1.4125
2.9375 0.8125 1.475
2.9375 0.875 1.4125
2.9375 0.8125 1.4125
0.125 0.9375 1.475
0 0.9375 1.475
0.125 1 1.4125
0.0625 1 1.475
0 1 1.4125
0.125 0.9375 1.4125
0.0625 0.9375 1.475
0 0.9375 1.4125
0.0625 1 1.4125
0.0625 0.9375 1.4125
0.25 0.9375 1.475
0.25 1 1.4125
0.1875 1 1.475
0.25 0.9375 1.4125
0.1875 0.9375 1.475
0.1875 1 1.4125
0.1875 0.9375 1.4125
0.375 0.9375 1.475
0.375 1 1.4125
0.3125 1 1.475
0.375 0.9375 1.4125
0.3125 0.9375 1.475
0.3125 1 1.4125
0.3125 0.9375 1.4125
0.5 0.9375 1.475
0.5 1 1.4125
0.4375 1 1.475
0.5 0.9375 1.4125
0.4375 0.9375 1.475
0.4375 1 1.4125
0.4375 0.9375 1.4125
0.625 0.9375 1.475
0.625 1 1.4125
0.5625 1 1.475
0.625 0.9375 1.4125
0.5625 0.9375 1.475
0.5625 1 1.4125
0.5625 0.9375 1.4125
0.75 0.9375 1.475
0.75 1 1.4125
0.6875 1 1.475
0.75 0.9375 1.4125
0.6875 0.9375 1.475
0.6875 1 1.4125
0.6875 0.9375 1.4125
0.875 0.9375 1.475
0.875 1 1.4125
0.8125 1 1.475
0.875 0.9375 1.4125
0.8125 0.9375 1.475
0.8125 1 1.4125
0.8125 0.9375 1.4125
1 0.9375 1.475
1 1 1.4125
0.9375 1 1.475
1 0.9375 1.4125
0.9375 0.9375 1.475
0.9375 1 1.4125
0.9375 0.9375 1.4125
1.125 0.9375 1.475
1.125 1 1.4125
1.0625 1 1.475
1.125 0.9375 1.4125
1.0625 0.9375 1.475
1.0625 1 1.4125
1.0625 0.9375 1.4125
1.25 0.9375 1.475
1.25 1 1.4125
1.1875 1 1.475
1.25 0.9375 1.4125
1.1875 0.9375 1.475
1.1875 1 1.4125
1.1875 0.9375 1.4125
1.375 0.9375 1.475
1.375 1 1.4125
1.3125 1 1.475
1.375 0.9375 1.4125
1.3125 0.9375 1.475
1.3125 1 1.4125
1.3125 0.9375 1.4125
1.5 0.9375 1.475
1.5 1 1.4125
1.4375 1 1.475
1.5 0.9375 1.4125
1.4375 0.9375 1.475
1.4375 1 1.4125
1.4375 0.9375 1.4125
1.625 0.9375 1.475
1.625 1 1.4125
1.5625 1 1.475
1.625 0.9375 1.4125
1.5625 0.9375 1.475
1.5625 1 1.4125
1.5625 0.9375 1.4125
1.75 0.9375 1.475
1.75 1 1.4125
1.6875 1 1.475
1.75 0.9375 1.4125
1.6875 0.9375 1.475
1.6875 1 1.4125
1.6875 0.9375 1.4125
1.875 0.9375 1.475
1.875 1 1.4125
1.8125 1 1.475
1.875 0.9375 1.4125
1.8125 0.9375 1.475
1.8125 1 1.4125
1.8125 0.9375 1.4125
2 0.9375 1.475
2 1 1.4125
1.9375 1 1.475
2 0.9375 1.4125
1.9375 0.9375 1.475
1.9375 1 1.4125
1.9375 0.9375 1.4125
2.125 0.9375 1.475
2.125 1 1.4125
2.0625 1 1.475
2.125 0.9375 1.4125
2.0625 0.9375 1.475
2.0625 1 1.4125
2.0625 0.9375 1.4125
2.25 0.9375 1.475
2.25 1 1.4125
2.1875 1 1.475
2.25 0.9375 1.4125
2.1875 0.9375 1.475
2.1875 1 1.4125
2.1875 0.9375 1.4125
2.375 0.9375 1.475
2.375 1 1.4125
2.3125 1 1.475
2.375 0.9375 1.4125
2.3125 0.9375 1.475
2.3125 1 1.4125
2.3125 0.9375 1.4125
2.5 0.9375 1.475
2.5 1 1.4125
2.4375 1 1.475
2.5 0.9375 1.4125
2.4375 0.9375 1.475
2.4375 1 1.4125
2.4375 0.9375 1.4125
2.625 0.9375 1.475
2.625 1 1.4125
2.5625 1 1.475
2.625 0.9375 1.4125
2.5625 0.9375 1.475
2.5625 1 1.4125
2.5625 0.9375 1.4125
2.75 0.9375 1.475
2.75 1 1.4125
2.6875 1 1.475
2.75 0.9375 1.4125
2.6875 0.9375 1.475
2.6875 1 1.4125
2.6875 0.9375 1.4125
2.875 0.9375 1.475
2.875 1 1.4125
2.8125 1 1.475
2.875 0.9375 1.4125
2.8125 0.9375 1.475
2.8125 1 1.4125
2.8125 0.9375 1.4125
3 0.9375 1.475
3 1 1.4125
2.9375 1 1.475
3 0.9375 1.4125
2.9375 0.9375 1.475
2.9375 1 1.4125
2.9375 0.9375 1.4125
0.125 0 1.5375
0.0625 0 1.6
0 0 1.5375
0.125 0.0625 1.6
0 0.0625 1.6
0.125 0.125 1.5375
0.0625 0.125 1.6
0 0.125 1.5375
0.0625 0 1.5375
0.125 0.0625 1.5375
0.0625 0.0625 1.6
0 0.0625 1.5375
0.0625 0.125 1.5375
0.0625 0.0625 1.5375
0.25 0 1.5375
0.1875 0 1.6
0.25 0.0625 1.6
0.25 0.125 1.5375
0.1875 0.125 1.6
0.1875 0 1.5375
0.25 0.0625 1.5375
0.1875 0.0625 1.6
0.1875 0.125 1.5375
0.1875 0.0625 1.5375
0.375 0 1.5375
0.3125 0 1.6
0.375 0.0625 1.6
0.375 0.125 1.5375
0.3125 0.125 1.6
0.3125 0 1.5375
0.375 0.0625 1.5375
0.3125 0.0625 1.6
0.3125 0.125 1.5375
0.3125 0.0625 1.5375
0.5 0 1.5375
0.4375 0 1.6
0.5 0.0625 1.6
0.5 0.125 1.5375
0.4375 0.125 1.6
0.4375 0 1.5375
0.5 0.0625 1.5375
0.4375 0.0625 1.6
0.4375 0.125 1.5375
0.4375 0.0625 1.5375
0.625 0 1.5375
0.5625 0 1.6
0.625 0.0625 1.6
0.625 0.125 1.5375
0.5625 0.125 1.6
0.5625 0 1.5375
0.625 0.0625 1.5375
0.5625 0.0625 1.6
0.5625 0.125 1.5375
0.5625 0.0625 1.5375
0.75 0 1.5375
0.6875 0 1.6
0.75 0.0625 1.6
0.75 0.125 1.5375
0.6875 0.125 1.6
0.6875 0 1.5375
0.75 0.0625 1.5375
0.6875 0.0625 1.6
0.6875 0.125 1.5375
0.6875 0.0625 1.5375
0.875 0 1.5375
0.8125 0 1.6
0.875 0.0625 1.6
0.875 0.125 1.5375
0.8125 0.125 1.6
0.8125 0 1.5375
0.875 0.0625 1.5375
0.8125 0.0625 1.6
0.8125 0.125 1.5375
0.8125 0.0625 1.5375
1 0 1.5375
0.9375 0 1.6
1 0.0625 1.6
1 0.125 1.5375
0.9375 0.125 1.6
0.9375 0 1.5375
1 0.0625 1.5375
0.9375 0.0625 1.6
0.9375 0.125 1.5375
0.9375 0.0625 1.5375
1.125 0 1.5375
1.0625 0 1.6
1.125 0.0625 1.6
1.125 0.125 1.5375
1.0625 0.125 1.6
1.0625 0 1.5375
1.125 0.0625 1.5375
1.0625 0.0625 1.6
1.0625 0.125 1.5375
1.0625 0.0625 1.5375
1.25 0 1.5375
1.1875 0 1.6
1.25 0.0625 1.6
1.25 0.125 1.5375
1.1875 0.125 1.6
1.1875 0 1.5375
1.25 0.0625 1.5375
1.1875 0.0625 1.6
1.1875 0.125 1.5375
1.1875 0.0625 1.5375
1.375 0 1.5375
1.3125 0 1.6
1.375 0.0625 1.6
1.375 0.125 1.5375
1.3125 0.125 1.6
1.3125 0 1.5375
1.375 0.0625 1.5375
1.3125 0.0625 1.6
1.3125 0.125 1.5375
1.3125 0.0625 1.5375
1.5 0 1.5375
1.4375 0 1.6
1.5 0.0625 1.6
1.5 0.125 1.5375
1.4375 0.125 1.6
1.4375 0 1.5375
1.5 0.0625 1.5375
1.4375 0.0625 1.6
1.4375 0.125 1.5375
1.4375 0.0625 1.5375
1.625 0 1.5375
1.5625 0 1.6
1.625 0.0625 1.6
1.625 0.125 1.5375
1.5625 0.125 1.6
1.5625 0 1.5375
1.625 0.0625 1.5375
1.5625 0.0625 1.6
1.5625 0.125 1.5375
1.5625 0.0625 1.5375
1.75 0 1.5375
1.6875 0 1.6
1.75 0.0625 1.6
1.75 0.125 1.5375
1.6875 0.125 1.6
1.6875 0 1.5375
1.75 0.0625 1.5375
1.6875 0.0625 1.6
1.6875 0.125 1.5375
1.6875 0.0625 1.5375
1.875 0 1.5375
1.8125 0 1.6
1.875 0.0625 1.6
1.875 0.125 1.5375
1.8125 0.125 1.6
1.8125 0 1.5375
1.875 0.0625 1.5375
1.8125 0.0625 1.6
1.8125 0.125 1.5375
1.8125 0.0625 1.5375
2 0 1.5375
1.9375 0 1.6
2 0.0625 1.6
2 0.125 1.5375
1.9375 0.125 1.6
1.9375 0 1.5375
2 0.0625 1.5375
1.9375 0.0625 1.6
1.9375 0.125 1.5375
1.9375 0.0625 1.5375
2.125 0 1.5375
2.0625 0 1.6
2.125 0.0625 1.6
2.125 0.125 1.5375
2.0625 0.125 1.6
2.0625 0 1.5375
2.125 0.0625 1.5375
2.0625 0.0625 1.6
2.0625 0.125 1.5375
2.0625 0.0625 1.5375
2.25 0 1.5375
2.1875 0 1.6
2.25 0.0625 1.6
2.25 0.125 1.5375
2.1875 0.125 1.6
2.1875 0 1.5375
2.25 0.0625 1.5375
2.1875 0.0625 1.6
2.1875 0.125 1.5375
2.1875 0.0625 1.5375
2.375 0 1.5375
2.3125 0 1.6
2.375 0.0625 1.6
2.375 0.125 1.5375
2.3125 0.125 1.6
2.3125 0 1.5375
2.375 0.0625 1.5375
2.3125 0.0625 1.6
2.3125 0.125 1.5375
2.3125 0.0625 1.5375
2.5 0 1.5375
2.4375 0 1.6
2.5 0.0625 1.6
2.5 0.125 1.5375
2.4375 0.125 1.6
2.4375 0 1.5375
2.5 0.0625 1.5375
2.4375 0.0625 1.6
2.4375 0.125 1.5375
2.4375 0.0625 1.5375
2.625 0 1.5375
2.5625 0 1.6
2.625 0.0625 1.6
2.625 0.125 1.5375
2.5625 0.125 1.6
2.5625 0 1.5375
2.625 0.0625 1.5375
2.5625 0.0625 1.6
2.5625 0.125 1.5375
2.5625 0.0625 1.5375
2.75 0 1.5375
2.6875 0 1.6
2.75 0.0625 1.6
2.75 0.125 1.5375
2.6875 0.125 1.6
2.6875 0 1.5375
2.75 0.0625 1.5375
2.6875 0.0625 1.6
2.6875 0.125 1.5375
2.6875 0.0625 1.5375
2.875 0 1.5375
2.8125 0 1.6
2.875 0.0625 1.6
2.875 0.125 1.5375
2.8125 0.125 1.6
2.8125 0 1.5375
2.875 0.0625 1.5375
2.8125 0.0625 1.6
2.8125 0.125 1.5375
2.8125 0.0625 1.5375
3 0 1.5375
2.9375 0 1.6
3 0.0625 1.6
3 0.125 1.5375
2.9375 0.125 1.6
2.9375 0 1.5375
3 0.0625 1.5375
2.9375 0.0625 1.6
2.9375 0.125 1.5375
2.9375 0.0625 1.5375
0.125 0.1875 1.6
0 0.1875 1.6
0.125 0.25 1.5375
0.0625 0.25 1.6
0 0.25 1.5375
0.125 0.1875 1.5375
0.0625 0.1875 1.6
0 0.1875 1.5375
0.0625 0.25 1.5375
0.0625 0.1875 1.5375
0.25 0.1875 1.6
0.25 0.25 1.5375
0.1875 0.25 1.6
0.25 0.1875 1.5375
0.1875 0.1875 1.6
0.1875 0.25 1.5375
0.1875 0.1875 1.5375
0.375 0.1875 1.6
0.375 0.25 1.5375
0.3125 0.25 1.6
0.375 0.1875 1.5375
0.3125 0.1875 1.6
0.3125 0.25 1.5375
0.3125 0.1875 1.5375
0.5 0.1875 1.6
0.5 0.25 1.5375
0.4375 0.25 1.6
0.5 0.1875 1.5375
0.4375 0.1875 1.6
0.4375 0.25 1.5375
0.4375 0.1875 1.5375
0.625 0.1875 1.6
0.625 0.25 1.5375
0.5625 0.25 1.6
0.625 0.1875 1.5375
0.5625 0.1875 1.6
0.5625 0.25 1.5375
0.5625 0.1875 1.5375
0.75 0.1875 1.6
0.75 0.25 1.5375
0.6875 0.25 1.6
0.75 0.1875 1.5375
0.6875 0.1875 1.6
0.6875 0.25 1.5375
0.6875 0.1875 1.5375
0.875 0.1875 1.6
0.875 0.25 1.5375
0.8125 0.25 1.6
0.875 0.1875 1.5375
0.8125 0.1875 1.6
0.8125 0.25 1.5375
0.8125 0.1875 1.5375
1 0.1875 1.6
1 0.25 1.5375
0.9375 0.25 1.6
1 0.1875 1.5375
0.9375 0.1875 1.6
0.9375 0.25 1.5375
0.9375 0.1875 1.5375
1.125 0.1875 1.6
1.125 0.25 1.5375
1.0625 0.25 1.6
1.125 0.1875 1.5375
1.0625 0.1875 1.6
1.0625 0.25 1.5375
1.0625 0.1875 1.5375
1.25 0.1875 1.6
1.25 0.25 1.5375
1.1875 0.25 1.6
1.25 0.1875 1.5375
1.1875 0.1875 1.6
1.1875 0.25 1.5375
1.1875 0.1875 1.5375
1.375 0.1875 1.6
1.375 0.25 1.5375
1.3125 0.25 1.6
1.375 0.1875 1.5375
1.3125 0.1875 1.6
1.3125 0.25 1.5375
1.3125 0.1875 1.5375
1.5 0.1875 1.6
1.5 0.25 1.5375
1.4375 0.25 1.6
1.5 0.1875 1.5375
1.4375 0.1875 1.6
1.4375 0.25 1.5375
1.4375 0.1875 1.5375
1.625 0.1875 1.6
1.625 0.25 1.5375
1.5625 0.25 1.6
1.625 0.1875 1.5375
1.5625 0.1875 1.6
1.5625 0.25 1.5375
1.5625 0.1875 1.5375
1.75 0.1875 1.6
1.75 0.25 1.5375
1.6875 0.25 1.6
1.75 0.1875 1.5375
1.6875 0.1875 1.6
1.6875 0.25 1.5375
1.6875 0.1875 1.5375
1.875 0.1875 1.6
1.875 0.25 1.5375
1.8125 0.25 1.6
1.875 0.1875 1.5375
1.8125 0.1875 1.6
1.8125 0.25 1.5375
1.8125 0.1875 1.5375
2 0.1875 1.6
2 0.25 1.5375
1.9375 0.25 1.6
2 0.1875 1.5375
1.9375 0.1875 1.6
1.9375 0.25 1.5375
1.9375 0.1875 1.5375
2.125 0.1875 1.6
2.125 0.25 1.5375
2.0625 0.25 1.6
2.125 0.1875 1.5375
2.0625 0.1875 1.6
2.0625 0.25 1.5375
2.0625 0.1875 1.5375
2.25 0.1875 1.6
2.25 0.25 1.5375
2.1875 0.25 1.6
2.25 0.1875 1.5375
2.1875 0.1875 1.6
2.1875 0.25 1.5375
2.1875 0.1875 1.5375
2.375 0.1875 1.6
2.375 0.25 1.5375
2.3125 0.25 1.6
2.375 0.1875 1.5375
2.3125 0.1875 1.6
2.3125 0.25 1.5375
2.3125 0.1875 1.5375
2.5 0.1875 1.6
2.5 0.25 1.5375
2.4375 0.25 1.6
2.5 0.1875 1.5375
2.4375 0.1875 1.6
2.4375 0.25 1.5375
2.4375 0.1875 1.5375
2.625 0.1875 1.6
2.625 0.25 1.5375
2.5625 0.25 1.6
2.625 0.1875 1.5375
2.5625 0.1875 1.6
2.5625 0.25 1.5375
2.5625 0.1875 1.5375
2.75 0.1875 1.6
2.75 0.25 1.5375
2.6875 0.25 1.6
2.75 0.1875 1.5375
2.6875 0.1875 1.6
2.6875 0.25 1.5375
2.6875 0.1875 1.5375
2.875 0.1875 1.6
2.875 0.25 1.5375
2.8125 0.25 1.6
2.875 0.1875 1.5375
2.8125 0.1875 1.6
2.8125 0.25 1.5375
2.8125 0.1875 1.5375
3 0.1875 1.6
3 0.25 1.5375
2.9375 0.25 1.6
3 0.1875 1.5375
2.9375 0.1875 1.6
2.9375 0.25 1.5375
2.9375 0.1875 1.5375
0.125 0.3125 1.6
0 0.3125 1.6
0.125 0.375 1.5375
0.0625 0.375 1.6
0 0.375 1.5375
0.125 0.3125 1.5375
0.0625 0.3125 1.6
0 0.3125 1.5375
0.0625 0.375 1.5375
0.0625 0.3125 1.5375
0.25 0.3125 1.6
0.25 0.375 1.5375
0.1875 0.375 1.6
0.25 0.3125 1.5375
0.1875 0.3125 1.6
0.1875 0.375 1.5375
0.1875 0.3125 1.5375
0.375 0.3125 1.6
0.375 0.375 1.5375
0.3125 0.375 1.6
0.375 0.3125 1.5375
0.3125 0.3125 1.6
0.3125 0.375 1.5375
0.3125 0.3125 1.5375
0.5 0.3125 1.6
0.5 0.375 1.5375
0.4375 0.375 1.6
0.5 0.3125 1.5375
0.4375 0.3125 1.6
0.4375 0.375 1.5375
0.4375 0.3125 1.5375
0.625 0.3125 1.6
0.625 0.375 1.5375
0.5625 0.375 1.6
0.625 0.3125 1.5375
0.5625 0.3125 1.6
0.5625 0.375 1.5375
0.5625 0.3125 1.5375
0.75 0.3125 1.6
0.75 0.375 1.5375
0.6875 0.375 1.6
0.75 0.3125 1.5375
0.6875 0.3125 1.6
0.6875 0.375 1.5375
0.6875 0.3125 1.5375
0.875 0.3125 1.6
0.875 0.375 1.5375
0.8125 0.375 1.6
0.875 0.3125 1.5375
0.8125 0.3125 1.6
0.8125 0.375 1.5375
0.8125 0.3125 1.5375
1 0.3125 1.6
1 0.375 1.5375
0.9375 0.375 1.6
1 0.3125 1.5375
0.9375 0.3125 1.6
0.9375 0.375 1.5375
0.9375 0.3125 1.5375
1.125 0.3125 1.6
1.125 0.375 1.5375
1.0625 0.375 1.6
1.125 0.3125 1.5375
1.0625 0.3125 1.6
1.0625 0.375 1.5375
1.0625 0.3125 1.5375
1.25 0.3125 1.6
1.25 0.375 1.5375
1.1875 0.375 1.6
1.25 0.3125 1.5375
1.1875 0.3125 1.6
1.1875 0.375 1.5375
1.1875 0.3125 1.5375
1.375 0.3125 1.6
1.375 0.375 1.5375
1.3125 0.375 1.6
1.375 0.3125 1.5375
1.3125 0.3125 1.6
1.3125 0.375 1.5375
1.3125 0.3125 1.5375
1.5 0.3125 1.6
1.5 0.375 1.5375
1.4375 0.375 1.6
1.5 0.3125 1.5375
1.4375 0.3125 1.6
1.4375 0.375 1.5375
1.4375 0.3125 1.5375
1.625 0.3125 1.6
1.625 0.375 1.5375
1.5625 0.375 1.6
1.625 0.3125 1.5375
1.5625 0.3125 1.6
1.5625 0.375 1.5375
1.5625 0.3125 1.5375
1.75 0.3125 1.6
1.75 0.375 1.5375
1.6875 0.375 1.6
1.75 0.3125 1.5375
1.6875 0.3125 1.6
1.6875 0.375 1.5375
1.6875 0.3125 1.5375
1.875 0.3125 1.6
1.875 0.375 1.5375
1.8125 0.375 1.6
1.875 0.3125 1.5375
1.8125 0.3125 1.6
1.8125 0.375 1.5375
1.8125 0.3125 1.5375
2 0.3125 1.6
2 0.375 1.5375
1.9375 0.375 1.6
2 0.3125 1.5375
1.9375 0.3125 1.6
1.9375 0.375 1.5375
1.9375 0.3125 1.5375
2.125 0.3125 1.6
2.125 0.375 1.5375
2.0625 0.375 1.6
2.125 0.3125 1.5375
2.0625 0.3125 1.6
2.0625 0.375 1.5375
2.0625 0.3125 1.5375
2.25 0.3125 1.6
2.25 0.375 1.5375
2.1875 0.375 1.6
2.25 0.3125 1.5375
2.1875 0.3125 1.6
2.1875 0.375 1.5375
2.1875 0.3125 1.5375
2.375 0.3125 1.6
2.375 0.375 1.5375
2.3125 0.375 1.6
2.375 0.3125 1.5375
2.3125 0.3125 1.6
2.3125 0.375 1.5375
2.3125 0.3125 1.5375
2.5 0.3125 1.6
2.5 0.375 1.5375
2.4375 0.375 1.6
2.5 0.3125 1.5375
2.4375 0.3125 1.6
2.4375 0.375 1.5375
2.4375 0.3125 1.5375
2.625 0.3125 1.6
2.625 0.375 1.5375
2.5625 0.375 1.6
2.625 0.3125 1.5375
2.5625 0.3125 1.6
2.5625 0.375 1.5375
2.5625 0.3125 1.5375
2.75 0.3125 1.6
2.75 0.375 1.5375
2.6875 0.375 1.6
2.75 0.3125 1.5375
2.6875 0.3125 1.6
2.6875 0.375 1.5375
2.6875 0.3125 1.5375
2.875 0.3125 1.6
2.875 0.375 1.5375
2.8125 0.375 1.6
2.875 0.3125 1.5375
2.8125 0.3125 1.6
2.8125 0.375 1.5375
2.8125 0.3125 1.5375
3 0.3125 1.6
3 0.375 1.5375
2.9375 0.375 1.6
3 0.3125 1.5375
2.9375 0.3125 1.6
2.9375 0.375 1.5375
2.9375 0.3125 1.5375
0.125 0.4375 1.6
0 0.4375 1.6
0.125 0.5 1.5375
0.0625 0.5 1.6
0 0.5 1.5375
0.125 0.4375 1.5375
0.0625 0.4375 1.6
0 0.4375 1.5375
0.0625 0.5 1.5375
0.0625 0.4375 1.5375
0.25 0.4375 1.6
0.25 0.5 1.5375
0.1875 0.5 1.6
0.25 0.4375 1.5375
0.1875 0.4375 1.6
0.1875 0.5 1.5375
0.1875 0.4375 1.5375
0.375 0.4375 1.6
0.375 0.5 1.5375
0.3125 0.5 1.6
0.375 0.4375 1.5375
0.3125 0.4375 1.6
0.3125 0.5 1.5375
0.3125 0.4375 1.5375
0.5 0.4375 1.6
0.5 0.5 1.5375
0.4375 0.5 1.6
0.5 0.4375 1.5375
0.4375 0.4375 1.6
0.4375 0.5 1.5375
0.4375 0.4375 1.5375
0.625 0.4375 1.6
0.625 0.5 1.5375
0.5625 0.5 1.6
0.625 0.4375 1.5375
0.5625 0.4375 1.6
0.5625 0.5 1.5375
0.5625 0.4375 1.5375
0.75 0.4375 1.6
0.75 0.5 1.5375
0.6875 0.5 1.6
0.75 0.4375 1.5375
0.6875 0.4375 1.6
0.6875 0.5 1.5375
0.6875 0.4375 1.5375
0.875 0.4375 1.6
0.875 0.5 1.5375
0.8125 0.5 1.6
0.875 0.4375 1.5375
0.8125 0.4375 1.6
0.8125 0.5 1.5375
0.8125 0.4375 1.5375
1 0.4375 1.6
1 0.5 1.5375
0.9375 0.5 1.6
1 0.4375 1.5375
0.9375 0.4375 1.6
0.9375 0.5 1.5375
0.9375 0.4375 1.5375
1.125 0.4375 1.6
1.125 0.5 1.5375
1.0625 0.5 1.6
1.125 0.4375 1.5375
1.0625 0.4375 1.6
1.0625 0.5 1.5375
1.0625 0.4375 1.5375
1.25 0.4375 1.6
1.25 0.5 1.5375
1.1875 0.5 1.6
1.25 0.4375 1.5375
1.1875 0.4375 1.6
1.1875 0.5 1.5375
1.1875 0.4375 1.5375
1.375 0.4375 1.6
1.375 0.5 1.5375
1.3125 0.5 1.6
1.375 0.4375 1.5375
1.3125 0.4375 1.6
1.3125 0.5 1.5375
1.3125 0.4375 1.5375
1.5 0.4375 1.6
1.5 0.5 1.5375
1.4375 0.5 1.6
1.5 0.4375 1.5375
1.4375 0.4375 1.6
1.4375 0.5 1.5375
1.4375 0.4375 1.5375
1.625 0.4375 1.6
1.625 0.5 1.5375
1.5625 0.5 1.6
1.625 0.4375 1.5375
1.5625 0.4375 1.6
1.5625 0.5 1.5375
1.5625 0.4375 1.5375
1.75 0.4375 1.6
1.75 0.5 1.5375
1.6875 0.5 1.6
1.75 0.4375 1.5375
1.6875 0.4375 1.6
1.6875 0.5 1.5375
1.6875 0.4375 1.5375
1.875 0.4375 1.6
1.875 0.5 1.5375
1.8125 0.5 1.6
1.875 0.4375 1.5375
1.8125 0.4375 1.6
1.8125 0.5 1.5375
1.8125 0.4375 1.5375
2 0.4375 1.6
2 0.5 1.5375
1.9375 0.5 1.6
2 0.4375 1.5375
1.9375 0.4375 1.6
1.9375 0.5 1.5375
1.9375 0.4375 1.5375
2.125 0.4375 1.6
2.125 0.5 1.5375
2.0625 0.5 1.6
2.125 0.4375 1.5375
2.0625 0.4375 1.6
2.0625 0.5 1.5375
2.0625 0.4375 1.5375
2.25 0.4375 1.6
2.25 0.5 1.5375
2.1875 0.5 1.6
2.25 0.4375 1.5375
2.1875 0.4375 1.6
2.1875 0.5 1.5375
2.1875 0.4375 1.5375
2.375 0.4375 1.6
2.375 0.5 1.5375
2.3125 0.5 1.6
2.375 0.4375 1.5375
2.3125 0.4375 1.6
2.3125 0.5 1.5375
2.3125 0.4375 1.5375
2.5 0.4375 1.6
2.5 0.5 1.5375
2.4375 0.5 1.6
2.5 0.4375 1.5375
2.4375 0.4375 1.6
2.4375 0.5 1.5375
2.4375 0.4375 1.5375
2.625 0.4375 1.6
2.625 0.5 1.5375
2.5625 0.5 1.6
2.625 0.4375 1.5375
2.5625 0.4375 1.6
2.5625 0.5 1.5375
2.5625 0.4375 1.5375
2.75 0.4375 1.6
2.75 0.5 1.5375
2.6875 0.5 1.6
2.75 0.4375 1.5375
2.6875 0.4375 1.6
2.6875 0.5 1.5375
2.6875 0.4375 1.5375
2.875 0.4375 1.6
2.875 0.5 1.5375
2.8125 0.5 1.6
2.875 0.4375 1.5375
2.8125 0.4375 1.6
2.8125 0.5 1.5375
2.8125 0.4375 1.5375
3 0.4375 1.6
3 0.5 1.5375
2.9375 0.5 1.6
3 0.4375 1.5375
2.9375 0.4375 1.6
2.9375 0.5 1.5375
2.9375 0.4375 1.5375
0.125 0.5625 1.6
0 0.5625 1.6
0.125 0.625 1.5375
0.0625 0.625 1.6
0 0.625 1.5375
0.125 0.5625 1.5375
0.0625 0.5625 1.6
0 0.5625 1.5375
0.0625 0.625 1.5375
0.0625 0.5625 1.5375
0.25 0.5625 1.6
0.25 0.625 1.5375
0.1875 0.625 1.6
0.25 0.5625 1.5375
0.1875 0.5625 1.6
0.1875 0.625 1.5375
0.1875 0.5625 1.5375
0.375 0.5625 1.6
0.375 0.625 1.5375
0.3125 0.625 1.6
0.375 0.5625 1.5375
0.3125 0.5625 1.6
0.3125 0.625 1.5375
0.3125 0.5625 1.5375
0.5 0.5625 1.6
0.5 0.625 1.5375
0.4375 0.625 1.6
0.5 0.5625 1.5375
0.4375 0.5625 1.6
0.4375 0.625 1.5375
0.4375 0.5625 1.5375
0.625 0.5625 1.6
0.625 0.625 1.5375
0.5625 0.625 1.6
0.625 0.5625 1.5375
0.5625 0.5625 1.6
0.5625 0.625 1.5375
0.5625 0.5625 1.5375
0.75 0.5625 1.6
0.75 0.625 1.5375
0.6875 0.625 1.6
0.75 0.5625 1.5375
0.6875 0.5625 1.6
0.6875 0.625 1.5375
0.6875 0.5625 1.5375
0.875 0.5625 1.6
0.875 0.625 1.5375
0.8125 0.625 1.6
0.875 0.5625 1.5375
0.8125 0.5625 1.6
0.8125 0.625 1.5375
0.8125 0.5625 1.5375
1 0.5625 1.6
1 0.625 1.5375
0.9375 0.625 1.6
1 0.5625 1.5375
0.9375 0.5625 1.6
0.9375 0.625 1.5375
0.9375 0.5625 1.5375
1.125 0.5625 1.6
1.125 0.625 1.5375
1.0625 0.625 1.6
1.125 0.5625 1.5375
1.0625 0.5625 1.6
1.0625 0.625 1.5375
1.0625 0.5625 1.5375
1.25 0.5625 1.6
1.25 0.625 1.5375
1.1875 0.625 1.6
1.25 0.5625 1.5375
1.1875 0.5625 1.6
1.1875 0.625 1.5375
1.1875 0.5625 1.5375
1.375 0.5625 1.6
1.375 0.625 1.5375
1.3125 0.625 1.6
1.375 0.5625 1.5375
1.3125 0.5625 1.6
1.3125 0.625 1.5375
1.3125 0.5625 1.5375
1.5 0.5625 1.6
1.5 0.625 1.5375
1.4375 0.625 1.6
1.5 0.5625 1.5375
1.4375 0.5625 1.6
1.4375 0.625 1.5375
1.4375 0.5625 1.5375
1.625 0.5625 1.6
1.625 0.625 1.5375
1.5625 0.625 1.6
1.625 0.5625 1.5375
1.5625 0.5625 1.6
1.5625 0.625 1.5375
1.5625 0.5625 1.5375
1.75 0.5625 1.6
1.75 0.625 1.5375
1.6875 0.625 1.6
1.75 0.5625 1.5375
1.6875 0.5625 1.6
1.6875 0.625 1.5375
1.6875 0.5625 1.5375
1.875 0.5625 1.6
1.875 0.625 1.5375
1.8125 0.625 1.6
1.875 0.5625 1.5375
1.8125 0.5625 1.6
1.8125 0.625 1.5375
1.8125 0.5625 1.5375
2 0.5625 1.6
2 0.625 1.5375
1.9375 0.625 1.6
2 0.5625 1.5375
1.9375 0.5625 1.6
1.9375 0.625 1.5375
1.9375 0.5625 1.5375
2.125 0.5625 1.6
2.125 0.625 1.5375
2.0625 0.625 1.6
2.125 0.5625 1.5375
2.0625 0.5625 1.6
2.0625 0.625 1.5375
2.0625 0.5625 1.5375
2.25 0.5625 1.6
2.25 0.625 1.5375
2.1875 0.625 1.6
2.25 0.5625 1.5375
2.1875 0.5625 1.6
2.1875 0.625 1.5375
2.1875 0.5625 1.5375
2.375 0.5625 1.6
2.375 0.625 1.5375
2.3125 0.625 1.6
2.375 0.5625 1.5375
2.3125 0.5625 1.6
2.3125 0.625 1.5375
2.3125 0.5625 1.5375
2.5 0.5625 1.6
2.5 0.625 1.5375
2.4375 0.625 1.6
2.5 0.5625 1.5375
2.4375 0.5625 1.6
2.4375 0.625 1.5375
2.4375 0.5625 1.5375
2.625 0.5625 1.6
2.625 0.625 1.5375
2.5625 0.625 1.6
2.625 0.5625 1.5375
2.5625 0.5625 1.6
2.5625 0.625 1.5375
2.5625 0.5625 1.5375
2.75 0.5625 1.6
2.75 0.625 1.5375
2.6875 0.625 1.6
2.75 0.5625 1.5375
2.6875 0.5625 1.6
2.6875 0.625 1.5375
2.6875 0.5625 1.5375
2.875 0.5625 1.6
2.875 0.625 1.5375
2.8125 0.625 1.6
2.875 0.5625 1.5375
2.8125 0.5625 1.6
2.8125 0.625 1.5375
2.8125 0.5625 1.5375
3 0.5625 1.6
3 0.625 1.5375
2.9375 0.625 1.6
3 0.5625 1.5375
2.9375 0.5625 1.6
2.9375 0.625 1.5375
2.9375 0.5625 1.5375
0.125 0.6875 1.6
0 0.6875 1.6
0.125 0.75 1.5375
0.0625 0.75 1.6
0 0.75 1.5375
0.125 0.6875 1.5375
0.0625 0.6875 1.6
0 0.6875 1.5375
0.0625 0.75 1.5375
0.0625 0.6875 1.5375
0.25 0.6875 1.6
0.25 0.75 1.5375
0.1875 0.75 1.6
0.25 0.6875 1.5375
0.1875 0.6875 1.6
0.1875 0.75 1.5375
0.1875 0.6875 1.5375
0.375 0.6875 1.6
0.375 0.75 1.5375
0.3125 0.75 1.6
0.375 0.6875 1.5375
0.3125 0.6875 1.6
0.3125 0.75 1.5375
0.3125 0.6875 1.5375
0.5 0.6875 1.6
0.5 0.75 1.5375
0.4375 0.75 1.6
0.5 0.6875 1.5375
0.4375 0.6875 1.6
0.4375 0.75 1.5375
0.4375 0.6875 1.5375
0.625 0.6875 1.6
0.625 0.75 1.5375
0.5625 0.75 1.6
0.625 0.6875 1.5375
0.5625 0.6875 1.6
0.5625 0.75 1.5375
0.5625 0.6875 1.5375
0.75 0.6875 1.6
0.75 0.75 1.5375
0.6875 0.75 1.6
0.75 0.6875 1.5375
0.6875 0.6875 1.6
0.6875 0.75 1.5375
0.6875 0.6875 1.5375
0.875 0.6875 1.6
0.875 0.75 1.5375
0.8125 0.75 1.6
0.875 0.6875 1.5375
0.8125 0.6875 1.6
0.8125 0.75 1.5375
0.8125 0.6875 1.5375
1 0.6875 1.6
1 0.75 1.5375
0.9375 0.75 1.6
1 0.6875 1.5375
0.9375 0.6875 1.6
0.9375 0.75 1.5375
0.9375 0.6875 1.5375
1.125 0.6875 1.6
1.125 0.75 1.5375
1.0625 0.75 1.6
1.125 0.6875 1.5375
1.0625 0.6875 1.6
1.0625 0.75 1.5375
1.0625 0.6875 1.5375
1.25 0.6875 1.6
1.25 0.75 1.5375
1.1875 0.75 1.6
1.25 0.6875 1.5375
1.1875 0.6875 1.6
1.1875 0.75 1.5375
1.1875 0.6875 1.5375
1.375 0.6875 1.6
1.375 0.75 1.5375
1.3125 0.75 1.6
1.375 0.6875 1.5375
1.3125 0.6875 1.6
1.3125 0.75 1.5375
1.3125 0.6875 1.5375
1.5 0.6875 1.6
1.5 0.75 1.5375
1.4375 0.75 1.6
1.5 0.6875 1.5375
1.4375 0.6875 1.6
1.4375 0.75 1.5375
1.4375 0.6875 1.5375
1.625 0.6875 1.6
1.625 0.75 1.5375
1.5625 0.75 1.6
1.625 0.6875 1.5375
1.5625 0.6875 1.6
1.5625 0.75 1.5375
1.5625 0.6875 1.5375
1.75 0.6875 1.6
1.75 0.75 1.5375
1.6875 0.75 1.6
1.75 0.6875 1.5375
1.6875 0.6875 1.6
1.6875 0.75 1.5375
1.6875 0.6875 1.5375
1.875 0.6875 1.6
1.875 0.75 1.5375
1.8125 0.75 1.6
1.875 0.6875 1.5375
1.8125 0.6875 1.6
1.8125 0.75 1.5375
1.8125 0.6875 1.5375
2 0.6875 1.6
2 0.75 1.5375
1.9375 0.75 1.6
2 0.6875 1.5375
1.9375 0.6875 1.6
1.9375 0.75 1.5375
1.9375 0.6875 1.5375
2.125 0.6875 1.6
2.125 0.75 1.5375
2.0625 0.75 1.6
2.125 0.6875 1.5375
2.0625 0.6875 1.6
2.0625 0.75 1.5375
2.0625 0.6875 1.5375
2.25 0.6875 1.6
2.25 0.75 1.5375
2.1875 0.75 1.6
2.25 0.6875 1.5375
2.1875 0.6875 1.6
2.1875 0.75 1.5375
2.1875 0.6875 1.5375
2.375 0.6875 1.6
2.375 0.75 1.5375
2.3125 0.75 1.6
2.375 0.6875 1.5375
2.3125 0.6875 1.6
2.3125 0.75 1.5375
2.3125 0.6875 1.5375
2.5 0.6875 1.6
2.5 0.75 1.5375
2.4375 0.75 1.6
2.5 0.6875 1.5375
2.4375 0.6875 1.6
2.4375 0.75 1.5375
2.4375 0.6875 1.5375
2.625 0.6875 1.6
2.625 0.75 1.5375
2.5625 0.75 1.6
2.625 0.6875 1.5375
2.5625 0.6875 1.6
2.5625 0.75 1.5375
2.5625 0.6875 1.5375
2.75 0.6875 1.6
2.75 0.75 1.5375
2.6875 0.75 1.6
2.75 0.6875 1.5375
2.6875 0.6875 1.6
2.6875 0.75 1.5375
2.6875 0.6875 1.5375
2.875 0.6875 1.6
2.875 0.75 1.5375
2.8125 0.75 1.6
2.875 0.6875 1.5375
2.8125 0.6875 1.6
2.8125 0.75 1.5375
2.8125 0.6875 1.5375
3 0.6875 1.6
3 0.75 1.5375
2.9375 0.75 1.6
3 0.6875 1.5375
2.9375 0.6875 1.6
2.9375 0.75 1.5375
2.9375 0.6875 1.5375
0.125 0.8125 1.6
0 0.8125 1.6
0.125 0.875 1.5375
0.0625 0.875 1.6
0 0.875 1.5375
0.125 0.8125 1.5375
0.0625 0.8125 1.6
0 0.8125 1.5375
0.0625 0.875 1.5375
0.0625 0.8125 1.5375
0.25 0.8125 1.6
0.25 0.875 1.5375
0.1875 0.875 1.6
0.25 0.8125 1.5375
0.1875 0.8125 1.6
0.1875 0.875 1.5375
0.1875 0.8125 1.5375
0.375 0.8125 1.6
0.375 0.875 1.5375
0.3125 0.875 1.6
0.375 0.8125 1.5375
0.3125 0.8125 1.6
0.3125 0.875 1.5375
0.3125 0.8125 1.5375
0.5 0.8125 1.6
0.5 0.875 1.5375
0.4375 0.875 1.6
0.5 0.8125 1.5375
0.4375 0.8125 1.6
0.4375 0.875 1.5375
0.4375 0.8125 1.5375
0.625 0.8125 1.6
0.625 0.875 1.5375
0.5625 0.875 1.6
0.625 0.8125 1.5375
0.5625 0.8125 1.6
0.5625 0.875 1.5375
0.5625 0.8125 1.5375
0.75 0.8125 1.6
0.75 0.875 1.5375
0.6875 0.875 1.6
0.75 0.8125 1.5375
0.6875 0.8125 1.6
0.6875 0.875 1.5375
0.6875 0.8125 1.5375
0.875 0.8125 1.6
0.875 0.875 1.5375
0.8125 0.875 1.6
0.875 0.8125 1.5375
0.8125 0.8125 1.6
0.8125 0.875 1.5375
0.8125 0.8125 1.5375
1 0.8125 1.6
1 0.875 1.5375
0.9375 0.875 1.6
1 0.8125 1.5375
0.9375 0.8125 1.6
0.9375 0.875 1.5375
0.9375 0.8125 1.5375
1.125 0.8125 1.6
1.125 0.875 1.5375
1.0625 0.875 1.6
1.125 0.8125 1.5375
1.0625 0.8125 1.6
1.0625 0.875 1.5375
1.0625 0.8125 1.5375
1.25 0.8125 1.6
1.25 0.875 1.5375
1.1875 0.875 1.6
1.25 0.8125 1.5375
1.1875 0.8125 1.6
1.1875 0.875 1.5375
1.1875 0.8125 1.5375
1.375 0.8125 1.6
1.375 0.875 1.5375
1.3125 0.875 1.6
1.375 0.8125 1.5375
1.3125 0.8125 1.6
1.3125 0.875 1.5375
1.3125 0.8125 1.5375
1.5 0.8125 1.6
1.5 0.875 1.5375
1.4375 0.875 1.6
1.5 0.8125 1.5375
1.4375 0.8125 1.6
1.4375 0.875 1.5375
1.4375 0.8125 1.5375
1.625 0.8125 1.6
1.625 0.875 1.5375
1.5625 0.875 1.6
1.625 0.8125 1.5375
1.5625 0.8125 1.6
1.5625 0.875 1.5375
1.5625 0.8125 1.5375
1.75 0.8125 1.6
1.75 0.875 1.5375
1.6875 0.875 1.6
1.75 0.8125 1.5375
1.6875 0.8125 1.6
1.6875 0.875 1.5375
1.6875 0.8125 1.5375
1.875 0.8125 1.6
1.875 0.875 1.5375
1.8125 0.875 1.6
1.875 0.8125 1.5375
1.8125 0.8125 1.6
1.8125 0.875 1.5375
1.8125 0.8125 1.5375
2 0.8125 1.6
2 0.875 1.5375
1.9375 0.875 1.6
2 0.8125 1.5375
1.9375 0.8125 1.6
1.9375 0.875 1.5375
1.9375 0.8125 1.5375
2.125 0.8125 1.6
2.125 0.875 1.5375
2.0625 0.875 1.6
2.125 0.8125 1.5375
2.0625 0.8125 1.6
2.0625 0.875 1.5375
2.0625 0.8125 1.5375
2.25 0.8125 1.6
2.25 0.875 1.5375
2.1875 0.875 1.6
2.25 0.8125 1.5375
2.1875 0.8125 1.6
2.1875 0.875 1.5375
2.1875 0.8125 1.5375
2.375 0.8125 1.6
2.375 0.875 1.5375
2.3125 0.875 1.6
2.375 0.8125 1.5375
2.3125 0.8125 1.6
2.3125 0.875 1.5375
2.3125 0.8125 1.5375
2.5 0.8125 1.6
2.5 0.875 1.5375
2.4375 0.875 1.6
2.5 0.8125 1.5375
2.4375 0.8125 1.6
2.4375 0.875 1.5375
2.4375 0.8125 1.5375
2.625 0.8125 1.6
2.625 0.875 1.5375
2.5625 0.875 1.6
2.625 0.8125 1.5375
2.5625 0.8125 1.6
2.5625 0.875 1.5375
2.5625 0.8125 1.5375
2.75 0.8125 1.6
2.75 0.875 1.5375
2.6875 0.875 1.6
2.75 0.8125 1.5375
2.6875 0.8125 1.6
2.6875 0.875 1.5375
2.6875 0.8125 1.5375
2.875 0.8125 1.6
2.875 0.875 1.5375
2.8125 0.875 1.6
2.875 0.8125 1.5375
2.8125 0.8125 1.6
2.8125 0.875 1.5375
2.8125 0.8125 1.5375
3 0.8125 1.6
3 0.875 1.5375
2.9375 0.875 1.6
3 0.8125 1.5375
2.9375 0.8125 1.6
2.9375 0.875 1.5375
2.9375 0.8125 1.5375
0.125 0.9375 1.6
0 0.9375 1.6
0.125 1 1.5375
0.0625 1 1.6
0 1 1.5375
0.125 0.9375 1.5375
0.0625 0.9375 1.6
0 0.9375 1.5375
0.0625 1 1.5375
0.0625 0.9375 1.5375
0.25 0.9375 1.6
0.25 1 1.5375
0.1875 1 1.6
0.25 0.9375 1.5375
0.1875 0.9375 1.6
0.1875 1 1.5375
0.1875 0.9375 1.5375
0.375 0.9375 1.6
0.375 1 1.5375
0.3125 1 1.6
0.375 0.9375 1.5375
0.3125 0.9375 1.6
0.3125 1 1.5375
0.3125 0.9375 1.5375
0.5 0.9375 1.6
0.5 1 1.5375
0.4375 1 1.6
0.5 0.9375 1.5375
0.4375 0.9375 1.6
0.4375 1 1.5375
0.4375 0.9375 1.5375
0.625 0.9375 1.6
0.625 1 1.5375
0.5625 1 1.6
0.625 0.9375 1.5375
0.5625 0.9375 1.6
0.5625 1 1.5375
0.5625 0.9375 1.5375
0.75 0.9375 1.6
0.75 1 1.5375
0.6875 1 1.6
0.75 0.9375 1.5375
0.6875 0.9375 1.6
0.6875 1 1.5375
0.6875 0.9375 1.5375
0.875 0.9375 1.6
0.875 1 1.5375
0.8125 1 1.6
0.875 0.9375 1.5375
0.8125 0.9375 1.6
0.8125 1 1.5375
0.8125 0.9375 1.5375
1 0.9375 1.6
1 1 1.5375
0.9375 1 1.6
1 0.9375 1.5375
0.9375 0.9375 1.6
0.9375 1 1.5375
0.9375 0.9375 1.5375
1.125 0.9375 1.6
1.125 1 1.5375
1.0625 1 1.6
1.125 0.9375 1.5375
1.0625 0.9375 1.6
1.0625 1 1.5375
1.0625 0.9375 1.5375
1.25 0.9375 1.6
1.25 1 1.5375
1.1875 1 1.6
1.25 0.9375 1.5375
1.1875 0.9375 1.6
1.1875 1 1.5375
1.1875 0.9375 1.5375
1.375 0.9375 1.6
1.375 1 1.5375
1.3125 1 1.6
1.375 0.9375 1.5375
1.3125 0.9375 1.6
1.3125 1 1.5375
1.3125 0.9375 1.5375
1.5 0.9375 1.6
1.5 1 1.5375
1.4375 1 1.6
1.5 0.9375 1.5375
1.4375 0.9375 1.6
1.4375 1 1.5375
1.4375 0.9375 1.5375
1.625 0.9375 1.6
1.625 1 1.5375
1.5625 1 1.6
1.625 0.9375 1.5375
1.5625 0.9375 1.6
1.5625 1 1.5375
1.5625 0.9375 1.5375
1.75 0.9375 1.6
1.75 1 1.5375
1.6875 1 1.6
1.75 0.9375 1.5375
1.6875 0.9375 1.6
1.6875 1 1.5375
1.6875 0.9375 1.5375
1.875 0.9375 1.6
1.875 1 1.5375
1.8125 1 1.6
1.875 0.9375 1.5375
1.8125 0.9375 1.6
1.8125 1 1.5375
1.8125 0.9375 1.5375
2 0.9375 1.6
2 1 1.5375
1.9375 1 1.6
2 0.9375 1.5375
1.9375 0.9375 1.6
1.9375 1 1.5375
1.9375 0.9375 1.5375
2.125 0.9375 1.6
2.125 1 1.5375
2.0625 1 1.6
2.125 0.9375 1.5375
2.0625 0.9375 1.6
2.0625 1 1.5375
2.0625 0.9375 1.5375
2.25 0.9375 1.6
2.25 1 1.5375
2.1875 1 1.6
2.25 0.9375 1.5375
2.1875 0.9375 1.6
2.1875 1 1.5375
2.1875 0.9375 1.5375
2.375 0.9375 1.6
2.375 1 1.5375
2.3125 1 1.6
2.375 0.9375 1.5375
2.3125 0.9375 1.6
2.3125 1 1.5375
2.3125 0.9375 1.5375
2.5 0.9375 1.6
2.5 1 1.5375
2.4375 1 1.6
2.5 0.9375 1.5375
2.4375 0.9375 1.6
2.4375 1 1.5375
2.4375 0.9375 1.5375
2.625 0.9375 1.6
2.625 1 1.5375
2.5625 1 1.6
2.625 0.9375 1.5375
2.5625 0.9375 1.6
2.5625 1 1.5375
2.5625 0.9375 1.5375
2.75 0.9375 1.6
2.75 1 1.5375
2.6875 1 1.6
2.75 0.9375 1.5375
2.6875 0.9375 1.6
2.6875 1 1.5375
2.6875 0.9375 1.5375
2.875 0.9375 1.6
2.875 1 1.5375
2.8125 1 1.6
2.875 0.9375 1.5375
2.8125 0.9375 1.6
2.8125 1 1.5375
2.8125 0.9375 1.5375
3 0.9375 1.6
3 1 1.5375
2.9375 1 1.6
3 0.9375 1.5375
2.9375 0.9375 1.6
2.9375 1 1.5375
2.9375 0.9375 1.5375
0.125 0 1.6625
0.0625 0 1.725
0 0 1.6625
0.125 0.0625 1.725
0 0.0625 1.725
0.125 0.125 1.6625
0.0625 0.125 1.725
0 0.125 1.6625
0.0625 0 1.6625
0.125 0.0625 1.6625
0.0625 0.0625 1.725
0 0.0625 1.6625
0.0625 0.125 1.6625
0.0625 0.0625 1.6625
0.25 0 1.6625
0.1875 0 1.725
0.25 0.0625 1.725
0.25 0.125 1.6625
0.1875 0.125 1.725
0.1875 0 1.6625
0.25 0.0625 1.6625
0.1875 0.0625 1.725
0.1875 0.125 1.6625
0.1875 0.0625 1.6625
0.375 0 1.6625
0.3125 0 1.725
0.375 0.0625 1.725
0.375 0.125 1.6625
0.3125 0.125 1.725
0.3125 0 1.6625
0.375 0.0625 1.6625
0.3125 0.0625 1.725
0.3125 0.125 1.6625
0.3125 0.0625 1.6625
0.5 0 1.6625
0.4375 0 1.725
0.5 0.0625 1.725
0.5 0.125 1.6625
0.4375 0.125 1.725
0.4375 0 1.6625
0.5 0.0625 1.6625
0.4375 0.0625 1.725
0.4375 0.125 1.6625
0.4375 0.0625 1.6625
0.625 0 1.6625
0.5625 0 1.725
0.625 0.0625 1.725
0.625 0.125 1.6625
0.5625 0.125 1.725
0.5625 0 1.6625
0.625 0.0625 1.6625
0.5625 0.0625 1.725
0.5625 0.125 1.6625
0.5625 0.0625 1.6625
0.75 0 1.6625
0.6875 0 1.725
0.75 0.0625 1.725
0.75 0.125 1.6625
0.6875 0.125 1.725
0.6875 0 1.6625
0.75 0.0625 1.6625
0.6875 0.0625 1.725
0.6875 0.125 1.6625
0.6875 0.0625 1.6625
0.875 0 1.6625
0.8125 0 1.725
0.875 0.0625 1.725
0.875 0.125 1.6625
0.8125 0.125 1.725
0.8125 0 1.6625
0.875 0.0625 1.6625
0.8125 0.0625 1.725
0.8125 0.125 1.6625
0.8125 0.0625 1.6625
1 0 1.6625
0.9375 0 1.725
1 0.0625 1.725
1 0.125 1.6625
0.9375 0.125 1.725
0.9375 0 1.6625
1 0.0625 1.6625
0.9375 0.0625 1.725
0.9375 0.125 1.6625
0.9375 0.0625 1.6625
1.125 0 1.6625
1.0625 0 1.725
1.125 0.0625 1.725
1.125 0.125 1.6625
1.0625 0.125 1.725
1.0625 0 1.6625
1.125 0.0625 1.6625
1.0625 0.0625 1.725
1.0625 0.125 1.6625
1.0625 0.0625 1.6625
1.25 0 1.6625
1.1875 0 1.725
1.25 0.0625 1.725
1.25 0.125 1.6625
1.1875 0.125 1.725
1.1875 0 1.6625
1.25 0.0625 1.6625
1.1875 0.0625 1.725
1.1875 0.125 1.6625
1.1875 0.0625 1.6625
1.375 0 1.6625
1.3125 0 1.725
1.375 0.0625 1.725
1.375 0.125 1.6625
1.3125 0.125 1.725
1.3125 0 1.6625
1.375 0.0625 1.6625
1.3125 0.0625 1.725
1.3125 0.125 1.6625
1.3125 0.0625 1.6625
1.5 0 1.6625
1.4375 0 1.725
1.5 0.0625 1.725
1.5 0.125 1.6625
1.4375 0.125 1.725
1.4375 0 1.6625
1.5 0.0625 1.6625
1.4375 0.0625 1.725
1.4375 0.125 1.6625
1.4375 0.0625 1.6625
1.625 0 1.6625
1.5625 0 1.725
1.625 0.0625 1.725
1.625 0.125 1.6625
1.5625 0.125 1.725
1.5625 0 1.6625
1.625 0.0625 1.6625
1.5625 0.0625 1.725
1.5625 0.125 1.6625
1.5625 0.0625 1.6625
1.75 0 1.6625
1.6875 0 1.725
1.75 0.0625 1.725
1.75 0.125 1.6625
1.6875 0.125 1.725
1.6875 0 1.6625
1.75 0.0625 1.6625
1.6875 0.0625 1.725
1.6875 0.125 1.6625
1.6875 0.0625 1.6625
1.875 0 1.6625
1.8125 0 1.725
1.875 0.0625 1.725
1.875 0.125 1.6625
1.8125 0.125 1.725
1.8125 0 1.6625
1.875 0.0625 1.6625
1.8125 0.0625 1.725
1.8125 0.125 1.6625
1.8125 0.0625 1.6625
2 0 1.6625
1.9375 0 1.725
2 0.0625 1.725
2 0.125 1.6625
1.9375 0.125 1.725
1.9375 0 1.6625
2 0.0625 1.6625
1.9375 0.0625 1.725
1.9375 0.125 1.6625
1.9375 0.0625 1.6625
2.125 0 1.6625
2.0625 0 1.725
2.125 0.0625 1.725
2.125 0.125 1.6625
2.0625 0.125 1.725
2.0625 0 1.6625
2.125 0.0625 1.6625
2.0625 0.0625 1.725
2.0625 0.125 1.6625
2.0625 0.0625 1.6625
2.25 0 1.6625
2.1875 0 1.725
2.25 0.0625 1.725
2.25 0.125 1.6625
2.1875 0.125 1.725
2.1875 0 1.6625
2.25 0.0625 1.6625
2.1875 0.0625 1.725
2.1875 0.125 1.6625
2.1875 0.0625 1.6625
2.375 0 1.6625
2.3125 0 1.725
2.375 0.0625 1.725
2.375 0.125 1.6625
2.3125 0.125 1.725
2.3125 0 1.6625
2.375 0.0625 1.6625
2.3125 0.0625 1.725
2.3125 0.125 1.6625
2.3125 0.0625 1.6625
2.5 0 1.6625
2.4375 0 1.725
2.5 0.0625 1.725
2.5 0.125 1.6625
2.4375 0.125 1.725
2.4375 0 1.6625
2.5 0.0625 1.6625
2.4375 0.0625 1.725
2.4375 0.125 1.6625
2.4375 0.0625 1.6625
2.625 0 1.6625
2.5625 0 1.725
2.625 0.0625 1.725
2.625 0.125 1.6625
2.5625 0.125 1.725
2.5625 0 1.6625
2.625 0.0625 1.6625
2.5625 0.0625 1.725
2.5625 0.125 1.6625
2.5625 0.0625 1.6625
2.75 0 1.6625
2.6875 0 1.725
2.75 0.0625 1.725
2.75 0.125 1.6625
2.6875 0.125 1.725
2.6875 0 1.6625
2.75 0.0625 1.6625
2.6875 0.0625 1.725
2.6875 0.125 1.6625
2.6875 0.0625 1.6625
2.875 0 1.6625
2.8125 0 1.725
2.875 0.0625 1.725
2.875 0.125 1.6625
2.8125 0.125 1.725
2.8125 0 1.6625
2.875 0.0625 1.6625
2.8125 0.0625 1.725
2.8125 0.125 1.6625
2.8125 0.0625 1.6625
3 0 1.6625
2.9375 0 1.725
3 0.0625 1.725
3 0.125 1.6625
2.9375 0.125 1.725
2.9375 0 1.6625
3 0.0625 1.6625
2.9375 0.0625 1.725
2.9375 0.125 1.6625
2.9375 0.0625 1.6625
0.125 0.1875 1.725
0 0.1875 1.725
0.125 0.25 1.6625
0.0625 0.25 1.725
0 0.25 1.6625
0.125 0.1875 1.6625
0.0625 0.1875 1.725
0 0.1875 1.6625
0.0625 0.25 1.6625
0.0625 0.1875 1.6625
0.25 0.1875 1.725
0.25 0.25 1.6625
0.1875 0.25 1.725
0.25 0.1875 1.6625
0.1875 0.1875 1.725
0.1875 0.25 1.6625
0.1875 0.1875 1.6625
0.375 0.1875 1.725
0.375 0.25 1.6625
0.3125 0.25 1.725
0.375 0.1875 1.6625
0.3125 0.1875 1.725
0.3125 0.25 1.6625
0.3125 0.1875 1.6625
0.5 0.1875 1.725
0.5 0.25 1.6625
0.4375 0.25 1.725
0.5 0.1875 1.6625
0.4375 0.1875 1.725
0.4375 0.25 1.6625
0.4375 0.1875 1.6625
0.625 0.1875 1.725
0.625 0.25 1.6625
0.5625 0.25 1.725
0.625 0.1875 1.6625
0.5625 0.1875 1.725
0.5625 0.25 1.6625
0.5625 0.1875 1.6625
0.75 0.1875 1.725
0.75 0.25 1.6625
0.6875 0.25 1.725
0.75 0.1875 1.6625
0.6875 0.1875 1.725
0.6875 0.25 1.6625
0.6875 0.1875 1.6625
0.875 0.1875 1.725
0.875 0.25 1.6625
0.8125 0.25 1.725
0.875 0.1875 1.6625
0.8125 0.1875 1.725
0.8125 0.25 1.6625
0.8125 0.1875 1.6625
1 0.1875 1.725
1 0.25 1.6625
0.9375 0.25 1.725
1 0.1875 1.6625
0.9375 0.1875 1.725
0.9375 0.25 1.6625
0.9375 0.1875 1.6625
1.125 0.1875 1.725
1.125 0.25 1.6625
1.0625 0.25 1.725
1.125 0.1875 1.6625
1.0625 0.1875 1.725
1.0625 0.25 1.6625
1.0625 0.1875 1.6625
1.25 0.1875 1.725
1.25 0.25 1.6625
1.1875 0.25 1.725
1.25 0.1875 1.6625
1.1875 0.1875 1.725
1.1875 0.25 1.6625
1.1875 0.1875 1.6625
1.375 0.1875 1.725
1.375 0.25 1.6625
1.3125 0.25 1.725
1.375 0.1875 1.6625
1.3125 0.1875 1.725
1.3125 0.25 1.6625
1.3125 0.1875 1.6625
1.5 0.1875 1.725
1.5 0.25 1.6625
1.4375 0.25 1.725
1.5 0.1875 1.6625
1.4375 0.1875 1.725
1.4375 0.25 1.6625
1.4375 0.1875 1.6625
1.625 0.1875 1.725
1.625 0.25 1.6625
1.5625 0.25 1.725
1.625 0.1875 1.6625
1.5625 0.1875 1.725
1.5625 0.25 1.6625
1.5625 0.1875 1.6625
1.75 0.1875 1.725
1.75 0.25 1.6625
1.6875 0.25 1.725
1.75 0.1875 1.6625
1.6875 0.1875 1.725
1.6875 0.25 1.6625
1.6875 0.1875 1.6625
1.875 0.1875 1.725
1.875 0.25 1.6625
1.8125 0.25 1.725
1.875 0.1875 1.6625
1.8125 0.1875 1.725
1.8125 0.25 1.6625
1.8125 0.1875 1.6625
2 0.1875 1.725
2 0.25 1.6625
1.9375 0.25 1.725
2 0.1875 1.6625
1.9375 0.1875 1.725
1.9375 0.25 1.6625
1.9375 0.1875 1.6625
2.125 0.1875 1.725
2.125 0.25 1.6625
2.0625 0.25 1.725
2.125 0.1875 1.6625
2.0625 0.1875 1.725
2.0625 0.25 1.6625
2.0625 0.1875 1.6625
2.25 0.1875 1.725
2.25 0.25 1.6625
2.1875 0.25 1.725
2.25 0.1875 1.6625
2.1875 0.1875 1.725
2.1875 0.25 1.6625
2.1875 0.1875 1.6625
2.375 0.1875 1.725
2.375 0.25 1.6625
2.3125 0.25 1.725
2.375 0.1875 1.6625
2.3125 0.1875 1.725
2.3125 0.25 1.6625
2.3125 0.1875 1.6625
2.5 0.1875 1.725
2.5 0.25 1.6625
2.4375 0.25 1.725
2.5 0.1875 1.6625
2.4375 0.1875 1.725
2.4375 0.25 1.6625
2.4375 0.1875 1.6625
2.625 0.1875 1.725
2.625 0.25 1.6625
2.5625 0.25 1.725
2.625 0.1875 1.6625
2.5625 0.1875 1.725
2.5625 0.25 1.6625
2.5625 0.1875 1.6625
2.75 0.1875 1.725
2.75 0.25 1.6625
2.6875 0.25 1.725
2.75 0.1875 1.6625
2.6875 0.1875 1.725
2.6875 0.25 1.6625
2.6875 0.1875 1.6625
2.875 0.1875 1.725
2.875 0.25 1.6625
2.8125 0.25 1.725
2.875 0.1875 1.6625
2.8125 0.1875 1.725
2.8125 0.25 1.6625
2.8125 0.1875 1.6625
3 0.1875 1.725
3 0.25 1.6625
2.9375 0.25 1.725
3 0.1875 1.6625
2.9375 0.1875 1.725
2.9375 0.25 1.6625
2.9375 0.1875 1.6625
0.125 0.3125 1.725
0 0.3125 1.725
0.125 0.375 1.6625
0.0625 0.375 1.725
0 0.375 1.6625
0.125 0.3125 1.6625
0.0625 0.3125 1.725
0 0.3125 1.6625
0.0625 0.375 1.6625
0.0625 0.3125 1.6625
0.25 0.3125 1.725
0.25 0.375 1.6625
0.1875 0.375 1.725
0.25 0.3125 1.6625
0.1875 0.3125 1.725
0.1875 0.375 1.6625
0.1875 0.3125 1.6625
0.375 0.3125 1.725
0.375 0.375 1.6625
0.3125 0.375 1.725
0.375 0.3125 1.6625
0.3125 0.3125 1.725
0.3125 0.375 1.6625
0.3125 0.3125 1.6625
0.5 0.3125 1.725
0.5 0.375 1.6625
0.4375 0.375 1.725
0.5 0.3125 1.6625
0.4375 0.3125 1.725
0.4375 0.375 1.6625
0.4375 0.3125 1.6625
0.625 0.3125 1.725
0.625 0.375 1.6625
0.5625 0.375 1.725
0.625 0.3125 1.6625
0.5625 0.3125 1.725
0.5625 0.375 1.6625
0.5625 0.3125 1.6625
0.75 0.3125 1.725
0.75 0.375 1.6625
0.6875 0.375 1.725
0.75 0.3125 1.6625
0.6875 0.3125 1.725
0.6875 0.375 1.6625
0.6875 0.3125 1.6625
0.875 0.3125 1.725
0.875 0.375 1.6625
0.8125 0.375 1.725
0.875 0.3125 1.6625
0.8125 0.3125 1.725
0.8125 0.375 1.6625
0.8125 0.3125 1.6625
1 0.3125 1.725
1 0.375 1.6625
0.9375 0.375 1.725
1 0.3125 1.6625
0.9375 0.3125 1.725
0.9375 0.375 1.6625
0.9375 0.3125 1.6625
1.125 0.3125 1.725
1.125 0.375 1.6625
1.0625 0.375 1.725
1.125 0.3125 1.6625
1.0625 0.3125 1.725
1.0625 0.375 1.6625
1.0625 0.3125 1.6625
1.25 0.3125 1.725
1.25 0.375 1.6625
1.1875 0.375 1.725
1.25 0.3125 1.6625
1.1875 0.3125 1.725
1.1875 0.375 1.6625
1.1875 0.3125 1.6625
1.375 0.3125 1.725
1.375 0.375 1.6625
1.3125 0.375 1.725
1.375 0.3125 1.6625
1.3125 0.3125 1.725
1.3125 0.375 1.6625
1.3125 0.3125 1.6625
1.5 0.3125 1.725
1.5 0.375 1.6625
1.4375 0.375 1.725
1.5 0.3125 1.6625
1.4375 0.3125 1.725
1.4375 0.375 1.6625
1.4375 0.3125 1.6625
1.625 0.3125 1.725
1.625 0.375 1.6625
1.5625 0.375 1.725
1.625 0.3125 1.6625
1.5625 0.3125 1.725
1.5625 0.375 1.6625
1.5625 0.3125 1.6625
1.75 0.3125 1.725
1.75 0.375 1.6625
1.6875 0.375 1.725
1.75 0.3125 1.6625
1.6875 0.3125 1.725
1.6875 0.375 1.6625
1.6875 0.3125 1.6625
1.875 0.3125 1.725
1.875 0.375 1.6625
1.8125 0.375 1.725
1.875 0.3125 1.6625
1.8125 0.3125 1.725
1.8125 0.375 1.6625
1.8125 0.3125 1.6625
2 0.3125 1.725
2 0.375 1.6625
1.9375 0.375 1.725
2 0.3125 1.6625
1.9375 0.3125 1.725
1.9375 0.375 1.6625
1.9375 0.3125 1.6625
2.125 0.3125 1.725
2.125 0.375 1.6625
2.0625 0.375 1.725
2.125 0.3125 1.6625
2.0625 0.3125 1.725
2.0625 0.375 1.6625
2.0625 0.3125 1.6625
2.25 0.3125 1.725
2.25 0.375 1.6625
2.1875 0.375 1.725
2.25 0.3125 1.6625
2.1875 0.3125 1.725
2.1875 0.375 1.6625
2.1875 0.3125 1.6625
2.375 0.3125 1.725
2.375 0.375 1.6625
2.3125 0.375 1.725
2.375 0.3125 1.6625
2.3125 0.3125 1.725
2.3125 0.375 1.6625
2.3125 0.3125 1.6625
2.5 0.3125 1.725
2.5 0.375 1.6625
2.4375 0.375 1.725
2.5 0.3125 1.6625
2.4375 0.3125 1.725
2.4375 0.375 1.6625
2.4375 0.3125 1.6625
2.625 0.3125 1.725
2.625 0.375 1.6625
2.5625 0.375 1.725
2.625 0.3125 1.6625
2.5625 0.3125 1.725
2.5625 0.375 1.6625
2.5625 0.3125 1.6625
2.75 0.3125 1.725
2.75 0.375 1.6625
2.6875 0.375 1.725
2.75 0.3125 1.6625
2.6875 0.3125 1.725
2.6875 0.375 1.6625
2.6875 0.3125 1.6625
2.875 0.3125 1.725
2.875 0.375 1.6625
2.8125 0.375 1.725
2.875 0.3125 1.6625
2.8125 0.3125 1.725
2.8125 0.375 1.6625
2.8125 0.3125 1.6625
3 0.3125 1.725
3 0.375 1.6625
2.9375 0.375 1.725
3 0.3125 1.6625
2.9375 0.3125 1.725
2.9375 0.375 1.6625
2.9375 0.3125 1.6625
0.125 0.4375 1.725
0 0.4375 1.725
0.125 0.5 1.6625
0.0625 0.5 1.725
0 0.5 1.6625
0.125 0.4375 1.6625
0.0625 0.4375 1.725
0 0.4375 1.6625
0.0625 0.5 1.6625
0.0625 0.4375 1.6625
0.25 0.4375 1.725
0.25 0.5 1.6625
0.1875 0.5 1.725
0.25 0.4375 1.6625
0.1875 0.4375 1.725
0.1875 0.5 1.6625
0.1875 0.4375 1.6625
0.375 0.4375 1.725
0.375 0.5 1.6625
0.3125 0.5 1.725
0.375 0.4375 1.6625
0.3125 0.4375 1.725
0.3125 0.5 1.6625
0.3125 0.4375 1.6625
0.5 0.4375 1.725
0.5 0.5 1.6625
0.4375 0.5 1.725
0.5 0.4375 1.6625
0.4375 0.4375 1.725
0.4375 0.5 1.6625
0.4375 0.4375 1.6625
0.625 0.4375 1.725
0.625 0.5 1.6625
0.5625 0.5 1.725
0.625 0.4375 1.6625
0.5625 0.4375 1.725
0.5625 0.5 1.6625
0.5625 0.4375 1.6625
0.75 0.4375 1.725
0.75 0.5 1.6625
0.6875 0.5 1.725
0.75 0.4375 1.6625
0.6875 0.4375 1.725
0.6875 0.5 1.6625
0.6875 0.4375 1.6625
0.875 0.4375 1.725
0.875 0.5 1.6625
0.8125 0.5 1.725
0.875 0.4375 1.6625
0.8125 0.4375 1.725
0.8125 0.5 1.6625
0.8125 0.4375 1.6625
1 0.4375 1.725
1 0.5 1.6625
0.9375 0.5 1.725
1 0.4375 1.6625
0.9375 0.4375 1.725
0.9375 0.5 1.6625
0.9375 0.4375 1.6625
1.125 0.4375 1.725
1.125 0.5 1.6625
1.0625 0.5 1.725
1.125 0.4375 1.6625
1.0625 0.4375 1.725
1.0625 0.5 1.6625
1.0625 0.4375 1.6625
1.25 0.4375 1.725
1.25 0.5 1.6625
1.1875 0.5 1.725
1.25 0.4375 1.6625
1.1875 0.4375 1.725
1.1875 0.5 1.6625
1.1875 0.4375 1.6625
1.375 0.4375 1.725
1.375 0.5 1.6625
1.3125 0.5 1.725
1.375 0.4375 1.6625
1.3125 0.4375 1.725
1.3125 0.5 1.6625
1.3125 0.4375 1.6625
1.5 0.4375 1.725
1.5 0.5 1.6625
1.4375 0.5 1.725
1.5 0.4375 1.6625
1.4375 0.4375 1.725
1.4375 0.5 1.6625
1.4375 0.4375 1.6625
1.625 0.4375 1.725
1.625 0.5 1.6625
1.5625 0.5 1.725
1.625 0.4375 1.6625
1.5625 0.4375 1.725
1.5625 0.5 1.6625
1.5625 0.4375 1.6625
1.75 0.4375 1.725
1.75 0.5 1.6625
1.6875 0.5 1.725
1.75 0.4375 1.6625
1.6875 0.4375 1.725
1.6875 0.5 1.6625
1.6875 0.4375 1.6625
1.875 0.4375 1.725
1.875 0.5 1.6625
1.8125 0.5 1.725
1.875 0.4375 1.6625
1.8125 0.4375 1.725
1.8125 0.5 1.6625
1.8125 0.4375 1.6625
2 0.4375 1.725
2 0.5 1.6625
1.9375 0.5 1.725
2 0.4375 1.6625
1.9375 0.4375 1.725
1.9375 0.5 1.6625
1.9375 0.4375 1.6625
2.125 0.4375 1.725
2.125 0.5 1.6625
2.0625 0.5 1.725
2.125 0.4375 1.6625
2.0625 0.4375 1.725
2.0625 0.5 1.6625
2.0625 0.4375 1.6625
2.25 0.4375 1.725
2.25 0.5 1.6625
2.1875 0.5 1.725
2.25 0.4375 1.6625
2.1875 0.4375 1.725
2.1875 0.5 1.6625
2.1875 0.4375 1.6625
2.375 0.4375 1.725
2.375 0.5 1.6625
2.3125 0.5 1.725
2.375 0.4375 1.6625
2.3125 0.4375 1.725
2.3125 0.5 1.6625
2.3125 0.4375 1.6625
2.5 0.4375 1.725
2.5 0.5 1.6625
2.4375 0.5 1.725
2.5 0.4375 1.6625
2.4375 0.4375 1.725
2.4375 0.5 1.6625
2.4375 0.4375 1.6625
2.625 0.4375 1.725
2.625 0.5 1.6625
2.5625 0.5 1.725
2.625 0.4375 1.6625
2.5625 0.4375 1.725
2.5625 0.5 1.6625
2.5625 0.4375 1.6625
2.75 0.4375 1.725
2.75 0.5 1.6625
2.6875 0.5 1.725
2.75 0.4375 1.6625
2.6875 0.4375 1.725
2.6875 0.5 1.6625
2.6875 0.4375 1.6625
2.875 0.4375 1.725
2.875 0.5 1.6625
2.8125 0.5 1.725
2.875 0.4375 1.6625
2.8125 0.4375 1.725
2.8125 0.5 1.6625
2.8125 0.4375 1.6625
3 0.4375 1.725
3 0.5 1.6625
2.9375 0.5 1.725
3 0.4375 1.6625
2.9375 0.4375 1.725
2.9375 0.5 1.6625
2.9375 0.4375 1.6625
0.125 0.5625 1.725
0 0.5625 1.725
0.125 0.625 1.6625
0.0625 0.625 1.725
0 0.625 1.6625
0.125 0.5625 1.6625
0.0625 0.5625 1.725
0 0.5625 1.6625
0.0625 0.625 1.6625
0.0625 0.5625 1.6625
0.25 0.5625 1.725
0.25 0.625 1.6625
0.1875 0.625 1.725
0.25 0.5625 1.6625
0.1875 0.5625 1.725
0.1875 0.625 1.6625
0.1875 0.5625 1.6625
0.375 0.5625 1.725
0.375 0.625 1.6625
0.3125 0.625 1.725
0.375 0.5625 1.6625
0.3125 0.5625 1.725
0.3125 0.625 1.6625
0.3125 0.5625 1.6625
0.5 0.5625 1.725
0.5 0.625 1.6625
0.4375 0.625 1.725
0.5 0.5625 1.6625
0.4375 0.5625 1.725
0.4375 0.625 1.6625
0.4375 0.5625 1.6625
0.625 0.5625 1.725
0.625 0.625 1.6625
0.5625 0.625 1.725
0.625 0.5625 1.6625
0.5625 0.5625 1.725
0.5625 0.625 1.6625
0.5625 0.5625 1.6625
0.75 0.5625 1.725
0.75 0.625 1.6625
0.6875 0.625 1.725
0.75 0.5625 1.6625
0.6875 0.5625 1.725
0.6875 0.625 1.6625
0.6875 0.5625 1.6625
0.875 0.5625 1.725
0.875 0.625 1.6625
0.8125 0.625 1.725
0.875 0.5625 1.6625
0.8125 0.5625 1.725
0.8125 0.625 1.6625
0.8125 0.5625 1.6625
1 0.5625 1.725
1 0.625 1.6625
0.9375 0.625 1.725
1 0.5625 1.6625
0.9375 0.5625 1.725
0.9375 0.625 1.6625
0.9375 0.5625 1.6625
1.125 0.5625 1.725
1.125 0.625 1.6625
1.0625 0.625 1.725
1.125 0.5625 1.6625
1.0625 0.5625 1.725
1.0625 0.625 1.6625
1.0625 0.5625 1.6625
1.25 0.5625 1.725
1.25 0.625 1.6625
1.1875 0.625 1.725
1.25 0.5625 1.6625
1.1875 0.5625 1.725
1.1875 0.625 1.6625
1.1875 0.5625 1.6625
1.375 0.5625 1.725
1.375 0.625 1.6625
1.3125 0.625 1.725
1.375 0.5625 1.6625
1.3125 0.5625 1.725
1.3125 0.625 1.6625
1.3125 0.5625 1.6625
1.5 0.5625 1.725
1.5 0.625 1.6625
1.4375 0.625 1.725
1.5 0.5625 1.6625
1.4375 0.5625 1.725
1.4375 0.625 1.6625
1.4375 0.5625 1.6625
1.625 0.5625 1.725
1.625 0.625 1.6625
1.5625 0.625 1.725
1.625 0.5625 1.6625
1.5625 0.5625 1.725
1.5625 0.625 1.6625
1.5625 0.5625 1.6625
1.75 0.5625 1.725
1.75 0.625 1.6625
1.6875 0.625 1.725
1.75 0.5625 1.6625
1.6875 0.5625 1.725
1.6875 0.625 1.6625
1.6875 0.5625 1.6625
1.875 0.5625 1.725
1.875 0.625 1.6625
1.8125 0.625 1.725
1.875 0.5625 1.6625
1.8125 0.5625 1.725
1.8125 0.625 1.6625
1.8125 0.5625 1.6625
2 0.5625 1.725
2 0.625 1.6625
1.9375 0.625 1.725
2 0.5625 1.6625
1.9375 0.5625 1.725
1.9375 0.625 1.6625
1.9375 0.5625 1.6625
2.125 0.5625 1.725
2.125 0.625 1.6625
2.0625 0.625 1.725
2.125 0.5625 1.6625
2.0625 0.5625 1.725
2.0625 0.625 1.6625
2.0625 0.5625 1.6625
2.25 0.5625 1.725
2.25 0.625 1.6625
2.1875 0.625 1.725
2.25 0.5625 1.6625
2.1875 0.5625 1.725
2.1875 0.625 1.6625
2.1875 0.5625 1.6625
2.375 0.5625 1.725
2.375 0.625 1.6625
2.3125 0.625 1.725
2.375 0.5625 1.6625
2.3125 0.5625 1.725
2.3125 0.625 1.6625
2.3125 0.5625 1.6625
2.5 0.5625 1.725
2.5 0.625 1.6625
2.4375 0.625 1.725
2.5 0.5625 1.6625
2.4375 0.5625 1.725
2.4375 0.625 1.6625
2.4375 0.5625 1.6625
2.625 0.5625 1.725
2.625 0.625 1.6625
2.5625 0.625 1.725
2.625 0.5625 1.6625
2.5625 0.5625 1.725
2.5625 0.625 1.6625
2.5625 0.5625 1.6625
2.75 0.5625 1.725
2.75 0.625 1.6625
2.6875 0.625 1.725
2.75 0.5625 1.6625
2.6875 0.5625 1.725
2.6875 0.625 1.6625
2.6875 0.5625 1.6625
2.875 0.5625 1.725
2.875 0.625 1.6625
2.8125 0.625 1.725
2.875 0.5625 1.6625
2.8125 0.5625 1.725
2.8125 0.625 1.6625
2.8125 0.5625 1.6625
3 0.5625 1.725
3 0.625 1.6625
2.9375 0.625 1.725
3 0.5625 1.6625
2.9375 0.5625 1.725
2.9375 0.625 1.6625
2.9375 0.5625 1.6625
0.125 0.6875 1.725
0 0.6875 1.725
0.125 0.75 1.6625
0.0625 0.75 1.725
0 0.75 1.6625
0.125 0.6875 1.6625
0.0625 0.6875 1.725
0 0.6875 1.6625
0.0625 0.75 1.6625
0.0625 0.6875 1.6625
0.25 0.6875 1.725
0.25 0.75 1.6625
0.1875 0.75 1.725
0.25 0.6875 1.6625
0.1875 0.6875 1.725
0.1875 0.75 1.6625
0.1875 0.6875 1.6625
0.375 0.6875 1.725
0.375 0.75 1.6625
0.3125 0.75 1.725
0.375 0.6875 1.6625
0.3125 0.6875 1.725
0.3125 0.75 1.6625
0.3125 0.6875 1.6625
0.5 0.6875 1.725
0.5 0.75 1.6625
0.4375 0.75 1.725
0.5 0.6875 1.6625
0.4375 0.6875 1.725
0.4375 0.75 1.6625
0.4375 0.6875 1.6625
0.625 0.6875 1.725
0.625 0.75 1.6625
0.5625 0.75 1.725
0.625 0.6875 1.6625
0.5625 0.6875 1.725
0.5625 0.75 1.6625
0.5625 0.6875 1.6625
0.75 0.6875 1.725
0.75 0.75 1.6625
0.6875 0.75 1.725
0.75 0.6875 1.6625
0.6875 0.6875 1.725
0.6875 0.75 1.6625
0.6875 0.6875 1.6625
0.875 0.6875 1.725
0.875 0.75 1.6625
0.8125 0.75 1.725
0.875 0.6875 1.6625
0.8125 0.6875 1.725
0.8125 0.75 1.6625
0.8125 0.6875 1.6625
1 0.6875 1.725
1 0.75 1.6625
0.9375 0.75 1.725
1 0.6875 1.6625
0.9375 0.6875 1.725
0.9375 0.75 1.6625
0.9375 0.6875 1.6625
1.125 0.6875 1.725
1.125 0.75 1.6625
1.0625 0.75 1.725
1.125 0.6875 1.6625
1.0625 0.6875 1.725
1.0625 0.75 1.6625
1.0625 0.6875 1.6625
1.25 0.6875 1.725
1.25 0.75 1.6625
1.1875 0.75 1.725
1.25 0.6875 1.6625
1.1875 0.6875 1.725
1.1875 0.75 1.6625
1.1875 0.6875 1.6625
1.375 0.6875 1.725
1.375 0.75 1.6625
1.3125 0.75 1.725
1.375 0.6875 1.6625
1.3125 0.6875 1.725
1.3125 0.75 1.6625
1.3125 0.6875 1.6625
1.5 0.6875 1.725
1.5 0.75 1.6625
1.4375 0.75 1.725
1.5 0.6875 1.6625
1.4375 0.6875 1.725
1.4375 0.75 1.6625
1.4375 0.6875 1.6625
1.625 0.6875 1.725
1.625 0.75 1.6625
1.5625 0.75 1.725
1.625 0.6875 1.6625
1.5625 0.6875 1.725
1.5625 0.75 1.6625
1.5625 0.6875 1.6625
1.75 0.6875 1.725
1.75 0.75 1.6625
1.6875 0.75 1.725
1.75 0.6875 1.6625
1.6875 0.6875 1.725
1.6875 0.75 1.6625
1.6875 0.6875 1.6625
1.875 0.6875 1.725
1.875 0.75 1.6625
1.8125 0.75 1.725
1.875 0.6875 1.6625
1.8125 0.6875 1.725
1.8125 0.75 1.6625
1.8125 0.6875 1.6625
2 0.6875 1.725
2 0.75 1.6625
1.9375 0.75 1.725
2 0.6875 1.6625
1.9375 0.6875 1.725
1.9375 0.75 1.6625
1.9375 0.6875 1.6625
2.125 0.6875 1.725
2.125 0.75 1.6625
2.0625 0.75 1.725
2.125 0.6875 1.6625
2.0625 0.6875 1.725
2.0625 0.75 1.6625
2.0625 0.6875 1.6625
2.25 0.6875 1.725
2.25 0.75 1.6625
2.1875 0.75 1.725
2.25 0.6875 1.6625
2.1875 0.6875 1.725
2.1875 0.75 1.6625
2.1875 0.6875 1.6625
2.375 0.6875 1.725
2.375 0.75 1.6625
2.3125 0.75 1.725
2.375 0.6875 1.6625
2.3125 0.6875 1.725
2.3125 0.75 1.6625
2.3125 0.6875 1.6625
2.5 0.6875 1.725
2.5 0.75 1.6625
2.4375 0.75 1.725
2.5 0.6875 1.6625
2.4375 0.6875 1.725
2.4375 0.75 1.6625
2.4375 0.6875 1.6625
2.625 0.6875 1.725
2.625 0.75 1.6625
2.5625 0.75 1.725
2.625 0.6875 1.6625
2.5625 0.6875 1.725
2.5625 0.75 1.6625
2.5625 0.6875 1.6625
2.75 0.6875 1.725
2.75 0.75 1.6625
2.6875 0.75 1.725
2.75 0.6875 1.6625
2.6875 0.6875 1.725
2.6875 0.75 1.6625
2.6875 0.6875 1.6625
2.875 0.6875 1.725
2.875 0.75 1.6625
2.8125 0.75 1.725
2.875 0.6875 1.6625
2.8125 0.6875 1.725
2.8125 0.75 1.6625
2.8125 0.6875 1.6625
3 0.6875 1.725
3 0.75 1.6625
2.9375 0.75 1.725
3 0.6875 1.6625
2.9375 0.6875 1.725
2.9375 0.75 1.6625
2.9375 0.6875 1.6625
0.125 0.8125 1.725
0 0.8125 1.725
0.125 0.875 1.6625
0.0625 0.875 1.725
0 0.875 1.6625
0.125 0.8125 1.6625
0.0625 0.8125 1.725
0 0.8125 1.6625
0.0625 0.875 1.6625
0.0625 0.8125 1.6625
0.25 0.8125 1.725
0.25 0.875 1.6625
0.1875 0.875 1.725
0.25 0.8125 1.6625
0.1875 0.8125 1.725
0.1875 0.875 1.6625
0.1875 0.8125 1.6625
0.375 0.8125 1.725
0.375 0.875 1.6625
0.3125 0.875 1.725
0.375 0.8125 1.6625
0.3125 0.8125 1.725
0.3125 0.875 1.6625
0.3125 0.8125 1.6625
0.5 0.8125 1.725
0.5 0.875 1.6625
0.4375 0.875 1.725
0.5 0.8125 1.6625
0.4375 0.8125 1.725
0.4375 0.875 1.6625
0.4375 0.8125 1.6625
0.625 0.8125 1.725
0.625 0.875 1.6625
0.5625 0.875 1.725
0.625 0.8125 1.6625
0.5625 0.8125 1.725
0.5625 0.875 1.6625
0.5625 0.8125 1.6625
0.75 0.8125 1.725
0.75 0.875 1.6625
0.6875 0.875 1.725
0.75 0.8125 1.6625
0.6875 0.8125 1.725
0.6875 0.875 1.6625
0.6875 0.8125 1.6625
0.875 0.8125 1.725
0.875 0.875 1.6625
0.8125 0.875 1.725
0.875 0.8125 1.6625
0.8125 0.8125 1.725
0.8125 0.875 1.6625
0.8125 0.8125 1.6625
1 0.8125 1.725
1 0.875 1.6625
0.9375 0.875 1.725
1 0.8125 1.6625
0.9375 0.8125 1.725
0.9375 0.875 1.6625
0.9375 0.8125 1.6625
1.125 0.8125 1.725
1.125 0.875 1.6625
1.0625 0.875 1.725
1.125 0.8125 1.6625
1.0625 0.8125 1.725
1.0625 0.875 1.6625
1.0625 0.8125 1.6625
1.25 0.8125 1.725
1.25 0.875 1.6625
1.1875 0.875 1.725
1.25 0.8125 1.6625
1.1875 0.8125 1.725
1.1875 0.875 1.6625
1.1875 0.8125 1.6625
1.375 0.8125 1.725
1.375 0.875 1.6625
1.3125 0.875 1.725
1.375 0.8125 1.6625
1.3125 0.8125 1.725
1.3125 0.875 1.6625
1.3125 0.8125 1.6625
1.5 0.8125 1.725
1.5 0.875 1.6625
1.4375 0.875 1.725
1.5 0.8125 1.6625
1.4375 0.8125 1.725
1.4375 0.875 1.6625
1.4375 0.8125 1.6625
1.625 0.8125 1.725
1.625 0.875 1.6625
1.5625 0.875 1.725
1.625 0.8125 1.6625
1.5625 0.8125 1.725
1.5625 0.875 1.6625
1.5625 0.8125 1.6625
1.75 0.8125 1.725
1.75 0.875 1.6625
1.6875 0.875 1.725
1.75 0.8125 1.6625
1.6875 0.8125 1.725
1.6875 0.875 1.6625
1.6875 0.8125 1.6625
1.875 0.8125 1.725
1.875 0.875 1.6625
1.8125 0.875 1.725
1.875 0.8125 1.6625
1.8125 0.8125 1.725
1.8125 0.875 1.6625
1.8125 0.8125 1.6625
2 0.8125 1.725
2 0.875 1.6625
1.9375 0.875 1.725
2 0.8125 1.6625
1.9375 0.8125 1.725
1.9375 0.875 1.6625
1.9375 0.8125 1.6625
2.125 0.8125 1.725
2.125 0.875 1.6625
2.0625 0.875 1.725
2.125 0.8125 1.6625
2.0625 0.8125 1.725
2.0625 0.875 1.6625
2.0625 0.8125 1.6625
2.25 0.8125 1.725
2.25 0.875 1.6625
2.1875 0.875 1.725
2.25 0.8125 1.6625
2.1875 0.8125 1.725
2.1875 0.875 1.6625
2.1875 0.8125 1.6625
2.375 0.8125 1.725
2.375 0.875 1.6625
2.3125 0.875 1.725
2.375 0.8125 1.6625
2.3125 0.8125 1.725
2.3125 0.875 1.6625
2.3125 0.8125 1.6625
2.5 0.8125 1.725
2.5 0.875 1.6625
2.4375 0.875 1.725
2.5 0.8125 1.6625
2.4375 0.8125 1.725
2.4375 0.875 1.6625
2.4375 0.8125 1.6625
2.625 0.8125 1.725
2.625 0.875 1.6625
2.5625 0.875 1.725
2.625 0.8125 1.6625
2.5625 0.8125 1.725
2.5625 0.875 1.6625
2.5625 0.8125 1.6625
2.75 0.8125 1.725
2.75 0.875 1.6625
2.6875 0.875 1.725
2.75 0.8125 1.6625
2.6875 0.8125 1.725
2.6875 0.875 1.6625
2.6875 0.8125 1.6625
2.875 0.8125 1.725
2.875 0.875 1.6625
2.8125 0.875 1.725
2.875 0.8125 1.6625
2.8125 0.8125 1.725
2.8125 0.875 1.6625
2.8125 0.8125 1.6625
3 0.8125 1.725
3 0.875 1.6625
2.9375 0.875 1.725
3 0.8125 1.6625
2.9375 0.8125 1.725
2.9375 0.875 1.6625
2.9375 0.8125 1.6625
0.125 0.9375 1.725
0 0.9375 1.725
0.125 1 1.6625
0.0625 1 1.725
0 1 1.6625
0.125 0.9375 1.6625
0.0625 0.9375 1.725
0 0.9375 1.6625
0.0625 1 1.6625
0.0625 0.9375 1.6625
0.25 0.9375 1.725
0.25 1 1.6625
0.1875 1 1.725
0.25 0.9375 1.6625
0.1875 0.9375 1.725
0.1875 1 1.6625
0.1875 0.9375 1.6625
0.375 0.9375 1.725
0.375 1 1.6625
0.3125 1 1.725
0.375 0.9375 1.6625
0.3125 0.9375 1.725
0.3125 1 1.6625
0.3125 0.9375 1.6625
0.5 0.9375 1.725
0.5 1 1.6625
0.4375 1 1.725
0.5 0.9375 1.6625
0.4375 0.9375 1.725
0.4375 1 1.6625
0.4375 0.9375 1.6625
0.625 0.9375 1.725
0.625 1 1.6625
0.5625 1 1.725
0.625 0.9375 1.6625
0.5625 0.9375 1.725
0.5625 1 1.6625
0.5625 0.9375 1.6625
0.75 0.9375 1.725
0.75 1 1.6625
0.6875 1 1.725
0.75 0.9375 1.6625
0.6875 0.9375 1.725
0.6875 1 1.6625
0.6875 0.9375 1.6625
0.875 0.9375 1.725
0.875 1 1.6625
0.8125 1 1.725
0.875 0.9375 1.6625
0.8125 0.9375 1.725
0.8125 1 1.6625
0.8125 0.9375 1.6625
1 0.9375 1.725
1 1 1.6625
0.9375 1 1.725
1 0.9375 1.6625
0.9375 0.9375 1.725
0.9375 1 1.6625
0.9375 0.9375 1.6625
1.125 0.9375 1.725
1.125 1 1.6625
1.0625 1 1.725
1.125 0.9375 1.6625
1.0625 0.9375 1.725
1.0625 1 1.6625
1.0625 0.9375 1.6625
1.25 0.9375 1.725
1.25 1 1.6625
1.1875 1 1.725
1.25 0.9375 1.6625
1.1875 0.9375 1.725
1.1875 1 1.6625
1.1875 0.9375 1.6625
1.375 0.9375 1.725
1.375 1 1.6625
1.3125 1 1.725
1.375 0.9375 1.6625
1.3125 0.9375 1.725
1.3125 1 1.6625
1.3125 0.9375 1.6625
1.5 0.9375 1.725
1.5 1 1.6625
1.4375 1 1.725
1.5 0.9375 1.6625
1.4375 0.9375 1.725
1.4375 1 1.6625
1.4375 0.9375 1.6625
1.625 0.9375 1.725
1.625 1 1.6625
1.5625 1 1.725
1.625 0.9375 1.6625
1.5625 0.9375 1.725
1.5625 1 1.6625
1.5625 0.9375 1.6625
1.75 0.9375 1.725
1.75 1 1.6625
1.6875 1 1.725
1.75 0.9375 1.6625
1.6875 0.9375 1.725
1.6875 1 1.6625
1.6875 0.9375 1.6625
1.875 0.9375 1.725
1.875 1 1.6625
1.8125 1 1.725
1.875 0.9375 1.6625
1.8125 0.9375 1.725
1.8125 1 1.6625
1.8125 0.9375 1.6625
2 0.9375 1.725
2 1 1.6625
1.9375 1 1.725
2 0.9375 1.6625
1.9375 0.9375 1.725
1.9375 1 1.6625
1.9375 0.9375 1.6625
2.125 0.9375 1.725
2.125 1 1.6625
2.0625 1 1.725
2.125 0.9375 1.6625
2.0625 0.9375 1.725
2.0625 1 1.6625
2.0625 0.9375 1.6625
2.25 0.9375 1.725
2.25 1 1.6625
2.1875 1 1.725
2.25 0.9375 1.6625
2.1875 0.9375 1.725
2.1875 1 1.6625
2.1875 0.9375 1.6625
2.375 0.9375 1.725
2.375 1 1.6625
2.3125 1 1.725
2.375 0.9375 1.6625
2.3125 0.9375 1.725
2.3125 1 1.6625
2.3125 0.9375 1.6625
2.5 0.9375 1.725
2.5 1 1.6625
2.4375 1 1.725
2.5 0.9375 1.6625
2.4375 0.9375 1.725
2.4375 1 1.6625
2.4375 0.9375 1.6625
2.625 0.9375 1.725
2.625 1 1.6625
2.5625 1 1.725
2.625 0.9375 1.6625
2.5625 0.9375 1.725
2.5625 1 1.6625
2.5625 0.9375 1.6625
2.75 0.9375 1.725
2.75 1 1.6625
2.6875 1 1.725
2.75 0.9375 1.6625
2.6875 0.9375 1.725
2.6875 1 1.6625
2.6875 0.9375 1.6625
2.875 0.9375 1.725
2.875 1 1.6625
2.8125 1 1.725
2.875 0.9375 1.6625
2.8125 0.9375 1.725
2.8125 1 1.6625
2.8125 0.9375 1.6625
3 0.9375 1.725
3 1 1.6625
2.9375 1 1.725
3 0.9375 1.6625
2.9375 0.9375 1.725
2.9375 1 1.6625
2.9375 0.9375 1.6625
0.125 0 1.7875
0.0625 0 1.85
0 0 1.7875
0.125 0.0625 1.85
0 0.0625 1.85
0.125 0.125 1.7875
0.0625 0.125 1.85
0 0.125 1.7875
0.0625 0 1.7875
0.125 0.0625 1.7875
0.0625 0.0625 1.85
0 0.0625 1.7875
0.0625 0.125 1.7875
0.0625 0.0625 1.7875
0.25 0 1.7875
0.1875 0 1.85
0.25 0.0625 1.85
0.25 0.125 1.7875
0.1875 0.125 1.85
0.1875 0 1.7875
0.25 0.0625 1.7875
0.1875 0.0625 1.85
0.1875 0.125 1.7875
0.1875 0.0625 1.7875
0.375 0 1.7875
0.3125 0 1.85
0.375 0.0625 1.85
0.375 0.125 1.7875
0.3125 0.125 1.85
0.3125 0 1.7875
0.375 0.0625 1.7875
0.3125 0.0625 1.85
0.3125 0.125 1.7875
0.3125 0.0625 1.7875
0.5 0 1.7875
0.4375 0 1.85
0.5 0.0625 1.85
0.5 0.125 1.7875
0.4375 0.125 1.85
0.4375 0 1.7875
0.5 0.0625 1.7875
0.4375 0.0625 1.85
0.4375 0.125 1.7875
0.4375 0.0625 1.7875
0.625 0 1.7875
0.5625 0 1.85
0.625 0.0625 1.85
0.625 0.125 1.7875
0.5625 0.125 1.85
0.5625 0 1.7875
0.625 0.0625 1.7875
0.5625 0.0625 1.85
0.5625 0.125 1.7875
0.5625 0.0625 1.7875
0.75 0 1.7875
0.6875 0 1.85
0.75 0.0625 1.85
0.75 0.125 1.7875
0.6875 0.125 1.85
0.6875 0 1.7875
0.75 0.0625 1.7875
0.6875 0.0625 1.85
0.6875 0.125 1.7875
0.6875 0.0625 1.7875
0.875 0 1.7875
0.8125 0 1.85
0.875 0.0625 1.85
0.875 0.125 1.7875
0.8125 0.125 1.85
0.8125 0 1.7875
0.875 0.0625 1.7875
0.8125 0.0625 1.85
0.8125 0.125 1.7875
0.8125 0.0625 1.7875
1 0 1.7875
0.9375 0 1.85
1 0.0625 1.85
1 0.125 1.7875
0.9375 0.125 1.85
0.9375 0 1.7875
1 0.0625 1.7875
0.9375 0.0625 1.85
0.9375 0.125 1.7875
0.9375 0.0625 1.7875
1.125 0 1.7875
1.0625 0 1.85
1.125 0.0625 1.85
1.125 0.125 1.7875
1.0625 0.125 1.85
1.0625 0 1.7875
1.125 0.0625 1.7875
1.0625 0.0625 1.85
1.0625 0.125 1.7875
1.0625 0.0625 1.7875
1.25 0 1.7875
1.1875 0 1.85
1.25 0.0625 1.85
1.25 0.125 1.7875
1.1875 0.125 1.85
1.1875 0 1.7875
1.25 0.0625 1.7875
1.1875 0.0625 1.85
1.1875 0.125 1.7875
1.1875 0.0625 1.7875
1.375 0 1.7875
1.3125 0 1.85
1.375 0.0625 1.85
1.375 0.125 1.7875
1.3125 0.125 1.85
1.3125 0 1.7875
1.375 0.0625 1.7875
1.3125 0.0625 1.85
1.3125 0.125 1.7875
1.3125 0.0625 1.7875
1.5 0 1.7875
1.4375 0 1.85
1.5 0.0625 1.85
1.5 0.125 1.7875
1.4375 0.125 1.85
1.4375 0 1.7875
1.5 0.0625 1.7875
1.4375 0.0625 1.85
1.4375 0.125 1.7875
1.4375 0.0625 1.7875
1.625 0 1.7875
1.5625 0 1.85
1.625 0.0625 1.85
1.625 0.125 1.7875
1.5625 0.125 1.85
1.5625 0 1.7875
1.625 0.0625 1.7875
1.5625 0.0625 1.85
1.5625 0.125 1.7875
1.5625 0.0625 1.7875
1.75 0 1.7875
1.6875 0 1.85
1.75 0.0625 1.85
1.75 0.125 1.7875
1.6875 0.125 1.85
1.6875 0 1.7875
1.75 0.0625 1.7875
1.6875 0.0625 1.85
1.6875 0.125 1.7875
1.6875 0.0625 1.7875
1.875 0 1.7875
1.8125 0 1.85
1.875 0.0625 1.85
1.875 0.125 1.7875
1.8125 0.125 1.85
1.8125 0 1.7875
1.875 0.0625 1.7875
1.8125 0.0625 1.85
1.8125 0.125 1.7875
1.8125 0.0625 1.7875
2 0 1.7875
1.9375 0 1.85
2 0.0625 1.85
2 0.125 1.7875
1.9375 0.125 1.85
1.9375 0 1.7875
2 0.0625 1.7875
1.9375 0.0625 1.85
1.9375 0.125 1.7875
1.9375 0.0625 1.7875
2.125 0 1.7875
2.0625 0 1.85
2.125 0.0625 1.85
2.125 0.125 1.7875
2.0625 0.125 1.85
2.0625 0 1.7875
2.125 0.0625 1.7875
2.0625 0.0625 1.85
2.0625 0.125 1.7875
2.0625 0.0625 1.7875
2.25 0 1.7875
2.1875 0 1.85
2.25 0.0625 1.85
2.25 0.125 1.7875
2.1875 0.125 1.85
2.1875 0 1.7875
2.25 0.0625 1.7875
2.1875 0.0625 1.85
2.1875 0.125 1.7875
2.1875 0.0625 1.7875
2.375 0 1.7875
2.3125 0 1.85
2.375 0.0625 1.85
2.375 0.125 1.7875
2.3125 0.125 1.85
2.3125 0 1.7875
2.375 0.0625 1.7875
2.3125 0.0625 1.85
2.3125 0.125 1.7875
2.3125 0.0625 1.7875
2.5 0 1.7875
2.4375 0 1.85
2.5 0.0625 1.85
2.5 0.125 1.7875
2.4375 0.125 1.85
2.4375 0 1.7875
2.5 0.0625 1.7875
2.4375 0.0625 1.85
2.4375 0.125 1.7875
2.4375 0.0625 1.7875
2.625 0 1.7875
2.5625 0 1.85
2.625 0.0625 1.85
2.625 0.125 1.7875
2.5625 0.125 1.85
2.5625 0 1.7875
2.625 0.0625 1.7875
2.5625 0.0625 1.85
2.5625 0.125 1.7875
2.5625 0.0625 1.7875
2.75 0 1.7875
2.6875 0 1.85
2.75 0.0625 1.85
2.75 0.125 1.7875
2.6875 0.125 1.85
2.6875 0 1.7875
2.75 0.0625 1.7875
2.6875 0.0625 1.85
2.6875 0.125 1.7875
2.6875 0.0625 1.7875
2.875 0 1.7875
2.8125 0 1.85
2.875 0.0625 1.85
2.875 0.125 1.7875
2.8125 0.125 1.85
2.8125 0 1.7875
2.875 0.0625 1.7875
2.8125 0.0625 1.85
2.8125 0.125 1.7875
2.8125 0.0625 1.7875
3 0 1.7875
2.9375 0 1.85
3 0.0625 1.85
3 0.125 1.7875
2.9375 0.125 1.85
2.9375 0 1.7875
3 0.0625 1.7875
2.9375 0.0625 1.85
2.9375 0.125 1.7875
2.9375 0.0625 1.7875
0.125 0.1875 1.85
0 0.1875 1.85
0.125 0.25 1.7875
0.0625 0.25 1.85
0 0.25 1.7875
0.125 0.1875 1.7875
0.0625 0.1875 1.85
0 0.1875 1.7875
0.0625 0.25 1.7875
0.0625 0.1875 1.7875
0.25 0.1875 1.85
0.25 0.25 1.7875
0.1875 0.25 1.85
0.25 0.1875 1.7875
0.1875 0.1875 1.85
0.1875 0.25 1.7875
0.1875 0.1875 1.7875
0.375 0.1875 1.85
0.375 0.25 1.7875
0.3125 0.25 1.85
0.375 0.1875 1.7875
0.3125 0.1875 1.85
0.3125 0.25 1.7875
0.3125 0.1875 1.7875
0.5 0.1875 1.85
0.5 0.25 1.7875
0.4375 0.25 1.85
0.5 0.1875 1.7875
0.4375 0.1875 1.85
0.4375 0.25 1.7875
0.4375 0.1875 1.7875
0.625 0.1875 1.85
0.625 0.25 1.7875
0.5625 0.25 1.85
0.625 0.1875 1.7875
0.5625 0.1875 1.85
0.5625 0.25 1.7875
0.5625 0.1875 1.7875
0.75 0.1875 1.85
0.75 0.25 1.7875
0.6875 0.25 1.85
0.75 0.1875 1.7875
0.6875 0.1875 1.85
0.6875 0.25 1.7875
0.6875 0.1875 1.7875
0.875 0.1875 1.85
0.875 0.25 1.7875
0.8125 0.25 1.85
0.875 0.1875 1.7875
0.8125 0.1875 1.85
0.8125 0.25 1.7875
0.8125 0.1875 1.7875
1 0.1875 1.85
1 0.25 1.7875
0.9375 0.25 1.85
1 0.1875 1.7875
0.9375 0.1875 1.85
0.9375 0.25 1.7875
0.9375 0.1875 1.7875
1.125 0.1875 1.85
1.125 0.25 1.7875
1.0625 0.25 1.85
1.125 0.1875 1.7875
1.0625 0.1875 1.85
1.0625 0.25 1.7875
1.0625 0.1875 1.7875
1.25 0.1875 1.85
1.25 0.25 1.7875
1.1875 0.25 1.85
1.25 0.1875 1.7875
1.1875 0.1875 1.85
1.1875 0.25 1.7875
1.1875 0.1875 1.7875
1.375 0.1875 1.85
1.375 0.25 1.7875
1.3125 0.25 1.85
1.375 0.1875 1.7875
1.3125 0.1875 1.85
1.3125 0.25 1.7875
1.3125 0.1875 1.7875
1.5 0.1875 1.85
1.5 0.25 1.7875
1.4375 0.25 1.85
1.5 0.1875 1.7875
1.4375 0.1875 1.85
1.4375 0.25 1.7875
1.4375 0.1875 1.7875
1.625 0.1875 1.85
1.625 0.25 1.7875
1.5625 0.25 1.85
1.625 0.1875 1.7875
1.5625 0.1875 1.85
1.5625 0.25 1.7875
1.5625 0.1875 1.7875
1.75 0.1875 1.85
1.75 0.25 1.7875
1.6875 0.25 1.85
1.75 0.1875 1.7875
1.6875 0.1875 1.85
1.6875 0.25 1.7875
1.6875 0.1875 1.7875
1.875 0.1875 1.85
1.875 0.25 1.7875
1.8125 0.25 1.85
1.875 0.1875 1.7875
1.8125 0.1875 1.85
1.8125 0.25 1.7875
1.8125 0.1875 1.7875
2 0.1875 1.85
2 0.25 1.7875
1.9375 0.25 1.85
2 0.1875 1.7875
1.9375 0.1875 1.85
1.9375 0.25 1.7875
1.9375 0.1875 1.7875
2.125 0.1875 1.85
2.125 0.25 1.7875
2.0625 0.25 1.85
2.125 0.1875 1.7875
2.0625 0.1875 1.85
2.0625 0.25 1.7875
2.0625 0.1875 1.7875
2.25 0.1875 1.85
2.25 0.25 1.7875
2.1875 0.25 1.85
2.25 0.1875 1.7875
2.1875 0.1875 1.85
2.1875 0.25 1.7875
2.1875 0.1875 1.7875
2.375 0.1875 1.85
2.375 0.25 1.7875
2.3125 0.25 1.85
2.375 0.1875 1.7875
2.3125 0.1875 1.85
2.3125 0.25 1.7875
2.3125 0.1875 1.7875
2.5 0.1875 1.85
2.5 0.25 1.7875
2.4375 0.25 1.85
2.5 0.1875 1.7875
2.4375 0.1875 1.85
2.4375 0.25 1.7875
2.4375 0.1875 1.7875
2.625 0.1875 1.85
2.625 0.25 1.7875
2.5625 0.25 1.85
2.625 0.1875 1.7875
2.5625 0.1875 1.85
2.5625 0.25 1.7875
2.5625 0.1875 1.7875
2.75 0.1875 1.85
2.75 0.25 1.7875
2.6875 0.25 1.85
2.75 0.1875 1.7875
2.6875 0.1875 1.85
2.6875 0.25 1.7875
2.6875 0.1875 1.7875
2.875 0.1875 1.85
2.875 0.25 1.7875
2.8125 0.25 1.85
2.875 0.1875 1.7875
2.8125 0.1875 1.85
2.8125 0.25 1.7875
2.8125 0.1875 1.7875
3 0.1875 1.85
3 0.25 1.7875
2.9375 0.25 1.85
3 0.1875 1.7875
2.9375 0.1875 1.85
2.9375 0.25 1.7875
2.9375 0.1875 1.7875
0.125 0.3125 1.85
0 0.3125 1.85
0.125 0.375 1.7875
0.0625 0.375 1.85
0 0.375 1.7875
0.125 0.3125 1.7875
0.0625 0.3125 1.85
0 0.3125 1.7875
0.0625 0.375 1.7875
0.0625 0.3125 1.7875
0.25 0.3125 1.85
0.25 0.375 1.7875
0.1875 0.375 1.85
0.25 0.3125 1.7875
0.1875 0.3125 1.85
0.1875 0.375 1.7875
0.1875 0.3125 1.7875
0.375 0.3125 1.85
0.375 0.375 1.7875
0.3125 0.375 1.85
0.375 0.3125 1.7875
0.3125 0.3125 1.85
0.3125 0.375 1.7875
0.3125 0.3125 1.7875
0.5 0.3125 1.85
0.5 0.375 1.7875
0.4375 0.375 1.85
0.5 0.3125 1.7875
0.4375 0.3125 1.85
0.4375 0.375 1.7875
0.4375 0.3125 1.7875
0.625 0.3125 1.85
0.625 0.375 1.7875
0.5625 0.375 1.85
0.625 0.3125 1.7875
0.5625 0.3125 1.85
0.5625 0.375 1.7875
0.5625 0.3125 1.7875
0.75 0.3125 1.85
0.75 0.375 1.7875
0.6875 0.375 1.85
0.75 0.3125 1.7875
0.6875 0.3125 1.85
0.6875 0.375 1.7875
0.6875 0.3125 1.7875
0.875 0.3125 1.85
0.875 0.375 1.7875
0.8125 0.375 1.85
0.875 0.3125 1.7875
0.8125 0.3125 1.85
0.8125 0.375 1.7875
0.8125 0.3125 1.7875
1 0.3125 1.85
1 0.375 1.7875
0.9375 0.375 1.85
1 0.3125 1.7875
0.9375 0.3125 1.85
0.9375 0.375 1.7875
0.9375 0.3125 1.7875
1.125 0.3125 1.85
1.125 0.375 1.7875
1.0625 0.375 1.85
1.125 0.3125 1.7875
1.0625 0.3125 1.85
1.0625 0.375 1.7875
1.0625 0.3125 1.7875
1.25 0.3125 1.85
1.25 0.375 1.7875
1.1875 0.375 1.85
1.25 0.3125 1.7875
1.1875 0.3125 1.85
1.1875 0.375 1.7875
1.1875 0.3125 1.7875
1.375 0.3125 1.85
1.375 0.375 1.7875
1.3125 0.375 1.85
1.375 0.3125 1.7875
1.3125 0.3125 1.85
1.3125 0.375 1.7875
1.3125 0.3125 1.7875
1.5 0.3125 1.85
1.5 0.375 1.7875
1.4375 0.375 1.85
1.5 0.3125 1.7875
1.4375 0.3125 1.85
1.4375 0.375 1.7875
1.4375 0.3125 1.7875
1.625 0.3125 1.85
1.625 0.375 1.7875
1.5625 0.375 1.85
1.625 0.3125 1.7875
1.5625 0.3125 1.85
1.5625 0.375 1.7875
1.5625 0.3125 1.7875
1.75 0.3125 1.85
1.75 0.375 1.7875
1.6875 0.375 1.85
1.75 0.3125 1.7875
1.6875 0.3125 1.85
1.6875 0.375 1.7875
1.6875 0.3125 1.7875
1.875 0.3125 1.85
1.875 0.375 1.7875
1.8125 0.375 1.85
1.875 0.3125 1.7875
1.8125 0.3125 1.85
1.8125 0.375 1.7875
1.8125 0.3125 1.7875
2 0.3125 1.85
2 0.375 1.7875
1.9375 0.375 1.85
2 0.3125 1.7875
1.9375 0.3125 1.85
1.9375 0.375 1.7875
1.9375 0.3125 1.7875
2.125 0.3125 1.85
2.125 0.375 1.7875
2.0625 0.375 1.85
2.125 0.3125 1.7875
2.0625 0.3125 1.85
2.0625 0.375 1.7875
2.0625 0.3125 1.7875
2.25 0.3125 1.85
2.25 0.375 1.7875
2.1875 0.375 1.85
2.25 0.3125 1.7875
2.1875 0.3125 1.85
2.1875 0.375 1.7875
2.1875 0.3125 1.7875
2.375 0.3125 1.85
2.375 0.375 1.7875
2.3125 0.375 1.85
2.375 0.3125 1.7875
2.3125 0.3125 1.85
2.3125 0.375 1.7875
2.3125 0.3125 1.7875
2.5 0.3125 1.85
2.5 0.375 1.7875
2.4375 0.375 1.85
2.5 0.3125 1.7875
2.4375 0.3125 1.85
2.4375 0.375 1.7875
2.4375 0.3125 1.7875
2.625 0.3125 1.85
2.625 0.375 1.7875
2.5625 0.375 1.85
2.625 0.3125 1.7875
2.5625 0.3125 1.85
2.5625 0.375 1.7875
2.5625 0.3125 1.7875
2.75 0.3125 1.85
2.75 0.375 1.7875
2.6875 0.375 1.85
2.75 0.3125 1.7875
2.6875 0.3125 1.85
2.6875 0.375 1.7875
2.6875 0.3125 1.7875
2.875 0.3125 1.85
2.875 0.375 1.7875
2.8125 0.375 1.85
2.875 0.3125 1.7875
2.8125 0.3125 1.85
2.8125 0.375 1.7875
2.8125 0.3125 1.7875
3 0.3125 1.85
3 0.375 1.7875
2.9375 0.375 1.85
3 0.3125 1.7875
2.9375 0.3125 1.85
2.9375 0.375 1.7875
2.9375 0.3125 1.7875
0.125 0.4375 1.85
0 0.4375 1.85
0.125 0.5 1.7875
0.0625 0.5 1.85
0 0.5 1.7875
0.125 0.4375 1.7875
0.0625 0.4375 1.85
0 0.4375 1.7875
0.0625 0.5 1.7875
0.0625 0.4375 1.7875
0.25 0.4375 1.85
0.25 0.5 1.7875
0.1875 0.5 1.85
0.25 0.4375 1.7875
0.1875 0.4375 1.85
0.1875 0.5 1.7875
0.1875 0.4375 1.7875
0.375 0.4375 1.85
0.375 0.5 1.7875
0.3125 0.5 1.85
0.375 0.4375 1.7875
0.3125 0.4375 1.85
0.3125 0.5 1.7875
0.3125 0.4375 1.7875
0.5 0.4375 1.85
0.5 0.5 1.7875
0.4375 0.5 1.85
0.5 0.4375 1.7875
0.4375 0.4375 1.85
0.4375 0.5 1.7875
0.4375 0.4375 1.7875
0.625 0.4375 1.85
0.625 0.5 1.7875
0.5625 0.5 1.85
0.625 0.4375 1.7875
0.5625 0.4375 1.85
0.5625 0.5 1.7875
0.5625 0.4375 1.7875
0.75 0.4375 1.85
0.75 0.5 1.7875
0.6875 0.5 1.85
0.75 0.4375 1.7875
0.6875 0.4375 1.85
0.6875 0.5 1.7875
0.6875 0.4375 1.7875
0.875 0.4375 1.85
0.875 0.5 1.7875
0.8125 0.5 1.85
0.875 0.4375 1.7875
0.8125 0.4375 1.85
0.8125 0.5 1.7875
0.8125 0.4375 1.7875
1 0.4375 1.85
1 0.5 1.7875
0.9375 0.5 1.85
1 0.4375 1.7875
0.9375 0.4375 1.85
0.9375 0.5 1.7875
0.9375 0.4375 1.7875
1.125 0.4375 1.85
1.125 0.5 1.7875
1.0625 0.5 1.85
1.125 0.4375 1.7875
1.0625 0.4375 1.85
1.0625 0.5 1.7875
1.0625 0.4375 1.7875
1.25 0.4375 1.85
1.25 0.5 1.7875
1.1875 0.5 1.85
1.25 0.4375 1.7875
1.1875 0.4375 1.85
1.1875 0.5 1.7875
1.1875 0.4375 1.7875
1.375 0.4375 1.85
1.375 0.5 1.7875
1.3125 0.5 1.85
1.375 0.4375 1.7875
1.3125 0.4375 1.85
1.3125 0.5 1.7875
1.3125 0.4375 1.7875
1.5 0.4375 1.85
1.5 0.5 1.7875
1.4375 0.5 1.85
1.5 0.4375 1.7875
1.4375 0.4375 1.85
1.4375 0.5 1.7875
1.4375 0.4375 1.7875
1.625 0.4375 1.85
1.625 0.5 1.7875
1.5625 0.5 1.85
1.625 0.4375 1.7875
1.5625 0.4375 1.85
1.5625 0.5 1.7875
1.5625 0.4375 1.7875
1.75 0.4375 1.85
1.75 0.5 1.7875
1.6875 0.5 1.85
1.75 0.4375 1.7875
1.6875 0.4375 1.85
1.6875 0.5 1.7875
1.6875 0.4375 1.7875
1.875 0.4375 1.85
1.875 0.5 1.7875
1.8125 0.5 1.85
1.875 0.4375 1.7875
1.8125 0.4375 1.85
1.8125 0.5 1.7875
1.8125 0.4375 1.7875
2 0.4375 1.85
2 0.5 1.7875
1.9375 0.5 1.85
2 0.4375 1.7875
1.9375 0.4375 1.85
1.9375 0.5 1.7875
1.9375 0.4375 1.7875
2.125 0.4375 1.85
2.125 0.5 1.7875
2.0625 0.5 1.85
2.125 0.4375 1.7875
2.0625 0.4375 1.85
2.0625 0.5 1.7875
2.0625 0.4375 1.7875
2.25 0.4375 1.85
2.25 0.5 1.7875
2.1875 0.5 1.85
2.25 0.4375 1.7875
2.1875 0.4375 1.85
2.1875 0.5 1.7875
2.1875 0.4375 1.7875
2.375 0.4375 1.85
2.375 0.5 1.7875
2.3125 0.5 1.85
2.375 0.4375 1.7875
2.3125 0.4375 1.85
2.3125 0.5 1.7875
2.3125 0.4375 1.7875
2.5 0.4375 1.85
2.5 0.5 1.7875
2.4375 0.5 1.85
2.5 0.4375 1.7875
2.4375 0.4375 1.85
2.4375 0.5 1.7875
2.4375 0.4375 1.7875
2.625 0.4375 1.85
2.625 0.5 1.7875
2.5625 0.5 1.85
2.625 0.4375 1.7875
2.5625 0.4375 1.85
2.5625 0.5 1.7875
2.5625 0.4375 1.7875
2.75 0.4375 1.85
2.75 0.5 1.7875
2.6875 0.5 1.85
2.75 0.4375 1.7875
2.6875 0.4375 1.85
2.6875 0.5 1.7875
2.6875 0.4375 1.7875
2.875 0.4375 1.85
2.875 0.5 1.7875
2.8125 0.5 1.85
2.875 0.4375 1.7875
2.8125 0.4375 1.85
2.8125 0.5 1.7875
2.8125 0.4375 1.7875
3 0.4375 1.85
3 0.5 1.7875
2.9375 0.5 1.85
3 0.4375 1.7875
2.9375 0.4375 1.85
2.9375 0.5 1.7875
2.9375 0.4375 1.7875
0.125 0.5625 1.85
0 0.5625 1.85
0.125 0.625 1.7875
0.0625 0.625 1.85
0 0.625 1.7875
0.125 0.5625 1.7875
0.0625 0.5625 1.85
0 0.5625 1.7875
0.0625 0.625 1.7875
0.0625 0.5625 1.7875
0.25 0.5625 1.85
0.25 0.625 1.7875
0.1875 0.625 1.85
0.25 0.5625 1.7875
0.1875 0.5625 1.85
0.1875 0.625 1.7875
0.1875 0.5625 1.7875
0.375 0.5625 1.85
0.375 0.625 1.7875
0.3125 0.625 1.85
0.375 0.5625 1.7875
0.3125 0.5625 1.85
0.3125 0.625 1.7875
0.3125 0.5625 1.7875
0.5 0.5625 1.85
0.5 0.625 1.7875
0.4375 0.625 1.85
0.5 0.5625 1.7875
0.4375 0.5625 1.85
0.4375 0.625 1.7875
0.4375 0.5625 1.7875
0.625 0.5625 1.85
0.625 0.625 1.7875
0.5625 0.625 1.85
0.625 0.5625 1.7875
0.5625 0.5625 1.85
0.5625 0.625 1.7875
0.5625 0.5625 1.7875
0.75 0.5625 1.85
0.75 0.625 1.7875
0.6875 0.625 1.85
0.75 0.5625 1.7875
0.6875 0.5625 1.85
0.6875 0.625 1.7875
0.6875 0.5625 1.7875
0.875 0.5625 1.85
0.875 0.625 1.7875
0.8125 0.625 1.85
0.875 0.5625 1.7875
0.8125 0.5625 1.85
0.8125 0.625 1.7875
0.8125 0.5625 1.7875
1 0.5625 1.85
1 0.625 1.7875
0.9375 0.625 1.85
1 0.5625 1.7875
0.9375 0.5625 1.85
0.9375 0.625 1.7875
0.9375 0.5625 1.7875
1.125 0.5625 1.85
1.125 0.625 1.7875
1.0625 0.625 1.85
1.125 0.5625 1.7875
1.0625 0.5625 1.85
1.0625 0.625 1.7875
1.0625 0.5625 1.7875
1.25 0.5625 1.85
1.25 0.625 1.7875
1.1875 0.625 1.85
1.25 0.5625 1.7875
1.1875 0.5625 1.85
1.1875 0.625 1.7875
1.1875 0.5625 1.7875
1.375 0.5625 1.85
1.375 0.625 1.7875
1.3125 0.625 1.85
1.375 0.5625 1.7875
1.3125 0.5625 1.85
1.3125 0.625 1.7875
1.3125 0.5625 1.7875
1.5 0.5625 1.85
1.5 0.625 1.7875
1.4375 0.625 1.85
1.5 0.5625 1.7875
1.4375 0.5625 1.85
1.4375 0.625 1.7875
1.4375 0.5625 1.7875
1.625 0.5625 1.85
1.625 0.625 1.7875
1.5625 0.625 1.85
1.625 0.5625 1.7875
1.5625 0.5625 1.85
1.5625 0.625 1.7875
1.5625 0.5625 1.7875
1.75 0.5625 1.85
1.75 0.625 1.7875
1.6875 0.625 1.85
1.75 0.5625 1.7875
1.6875 0.5625 1.85
1.6875 0.625 1.7875
1.6875 0.5625 1.7875
1.875 0.5625 1.85
1.875 0.625 1.7875
1.8125 0.625 1.85
1.875 0.5625 1.7875
1.8125 0.5625 1.85
1.8125 0.625 1.7875
1.8125 0.5625 1.7875
2 0.5625 1.85
2 0.625 1.7875
1.9375 0.625 1.85
2 0.5625 1.7875
1.9375 0.5625 1.85
1.9375 0.625 1.7875
1.9375 0.5625 1.7875
2.125 0.5625 1.85
2.125 0.625 1.7875
2.0625 0.625 1.85
2.125 0.5625 1.7875
2.0625 0.5625 1.85
2.0625 0.625 1.7875
2.0625 0.5625 1.7875
2.25 0.5625 1.85
2.25 0.625 1.7875
2.1875 0.625 1.85
2.25 0.5625 1.7875
2.1875 0.5625 1.85
2.1875 0.625 1.7875
2.1875 0.5625 1.7875
2.375 0.5625 1.85
2.375 0.625 1.7875
2.3125 0.625 1.85
2.375 0.5625 1.7875
2.3125 0.5625 1.85
2.3125 0.625 1.7875
2.3125 0.5625 1.7875
2.5 0.5625 1.85
2.5 0.625 1.7875
2.4375 0.625 1.85
2.5 0.5625 1.7875
2.4375 0.5625 1.85
2.4375 0.625 1.7875
2.4375 0.5625 1.7875
2.625 0.5625 1.85
2.625 0.625 1.7875
2.5625 0.625 1.85
2.625 0.5625 1.7875
2.5625 0.5625 1.85
2.5625 0.625 1.7875
2.5625 0.5625 1.7875
2.75 0.5625 1.85
2.75 0.625 1.7875
2.6875 0.625 1.85
2.75 0.5625 1.7875
2.6875 0.5625 1.85
2.6875 0.625 1.7875
2.6875 0.5625 1.7875
2.875 0.5625 1.85
2.875 0.625 1.7875
2.8125 0.625 1.85
2.875 0.5625 1.7875
2.8125 0.5625 1.85
2.8125 0.625 1.7875
2.8125 0.5625 1.7875
3 0.5625 1.85
3 0.625 1.7875
2.9375 0.625 1.85
3 0.5625 1.7875
2.9375 0.5625 1.85
2.9375 0.625 1.7875
2.9375 0.5625 1.7875
0.125 0.6875 1.85
0 0.6875 1.85
0.125 0.75 1.7875
0.0625 0.75 1.85
0 0.75 1.7875
0.125 0.6875 1.7875
0.0625 0.6875 1.85
0 0.6875 1.7875
0.0625 0.75 1.7875
0.0625 0.6875 1.7875
0.25 0.6875 1.85
0.25 0.75 1.7875
0.1875 0.75 1.85
0.25 0.6875 1.7875
0.1875 0.6875 1.85
0.1875 0.75 1.7875
0.1875 0.6875 1.7875
0.375 0.6875 1.85
0.375 0.75 1.7875
0.3125 0.75 1.85
0.375 0.6875 1.7875
0.3125 0.6875 1.85
0.3125 0.75 1.7875
0.3125 0.6875 1.7875
0.5 0.6875 1.85
0.5 0.75 1.7875
0.4375 0.75 1.85
0.5 0.6875 1.7875
0.4375 0.6875 1.85
0.4375 0.75 1.7875
0.4375 0.6875 1.7875
0.625 0.6875 1.85
0.625 0.75 1.7875
0.5625 0.75 1.85
0.625 0.6875 1.7875
0.5625 0.6875 1.85
0.5625 0.75 1.7875
0.5625 0.6875 1.7875
0.75 0.6875 1.85
0.75 0.75 1.7875
0.6875 0.75 1.85
0.75 0.6875 1.7875
0.6875 0.6875 1.85
0.6875 0.75 1.7875
0.6875 0.6875 1.7875
0.875 0.6875 1.85
0.875 0.75 1.7875
0.8125 0.75 1.85
0.875 0.6875 1.7875
0.8125 0.6875 1.85
0.8125 0.75 1.7875
0.8125 0.6875 1.7875
1 0.6875 1.85
1 0.75 1.7875
0.9375 0.75 1.85
1 0.6875 1.7875
0.9375 0.6875 1.85
0.9375 0.75 1.7875
0.9375 0.6875 1.7875
1.125 0.6875 1.85
1.125 0.75 1.7875
1.0625 0.75 1.85
1.125 0.6875 1.7875
1.0625 0.6875 1.85
1.0625 0.75 1.7875
1.0625 0.6875 1.7875
1.25 0.6875 1.85
1.25 0.75 1.7875
1.1875 0.75 1.85
1.25 0.6875 1.7875
1.1875 0.6875 1.85
1.1875 0.75 1.7875
1.1875 0.6875 1.7875
1.375 0.6875 1.85
1.375 0.75 1.7875
1.3125 0.75 1.85
1.375 0.6875 1.7875
1.3125 0.6875 1.85
1.3125 0.75 1.7875
1.3125 0.6875 1.7875
1.5 0.6875 1.85
1.5 0.75 1.7875
1.4375 0.75 1.85
1.5 0.6875 1.7875
1.4375 0.6875 1.85
1.4375 0.75 1.7875
1.4375 0.6875 1.7875
1.625 0.6875 1.85
1.625 0.75 1.7875
1.5625 0.75 1.85
1.625 0.6875 1.7875
1.5625 0.6875 1.85
1.5625 0.75 1.7875
1.5625 0.6875 1.7875
1.75 0.6875 1.85
1.75 0.75 1.7875
1.6875 0.75 1.85
1.75 0.6875 1.7875
1.6875 0.6875 1.85
1.6875 0.75 1.7875
1.6875 0.6875 1.7875
1.875 0.6875 1.85
1.875 0.75 1.7875
1.8125 0.75 1.85
1.875 0.6875 1.7875
1.8125 0.6875 1.85
1.8125 0.75 1.7875
1.8125 0.6875 1.7875
2 0.6875 1.85
2 0.75 1.7875
1.9375 0.75 1.85
2 0.6875 1.7875
1.9375 0.6875 1.85
1.9375 0.75 1.7875
1.9375 0.6875 1.7875
2.125 0.6875 1.85
2.125 0.75 1.7875
2.0625 0.75 1.85
2.125 0.6875 1.7875
2.0625 0.6875 1.85
2.0625 0.75 1.7875
2.0625 0.6875 1.7875
2.25 0.6875 1.85
2.25 0.75 1.7875
2.1875 0.75 1.85
2.25 0.6875 1.7875
2.1875 0.6875 1.85
2.1875 0.75 1.7875
2.1875 0.6875 1.7875
2.375 0.6875 1.85
2.375 0.75 1.7875
2.3125 0.75 1.85
2.375 0.6875 1.7875
2.3125 0.6875 1.85
2.3125 0.75 1.7875
2.3125 0.6875 1.7875
2.5 0.6875 1.85
2.5 0.75 1.7875
2.4375 0.75 1.85
2.5 0.6875 1.7875
2.4375 0.6875 1.85
2.4375 0.75 1.7875
2.4375 0.6875 1.7875
2.625 0.6875 1.85
2.625 0.75 1.7875
2.5625 0.75 1.85
2.625 0.6875 1.7875
2.5625 0.6875 1.85
2.5625 0.75 1.7875
2.5625 0.6875 1.7875
2.75 0.6875 1.85
2.75 0.75 1.7875
2.6875 0.75 1.85
2.75 0.6875 1.7875
2.6875 0.6875 1.85
2.6875 0.75 1.7875
2.6875 0.6875 1.7875
2.875 0.6875 1.85
2.875 0.75 1.7875
2.8125 0.75 1.85
2.875 0.6875 1.7875
2.8125 0.6875 1.85
2.8125 0.75 1.7875
2.8125 0.6875 1.7875
3 0.6875 1.85
3 0.75 1.7875
2.9375 0.75 1.85
3 0.6875 1.7875
2.9375 0.6875 1.85
2.9375 0.75 1.7875
2.9375 0.6875 1.7875
0.125 0.8125 1.85
0 0.8125 1.85
0.125 0.875 1.7875
0.0625 0.875 1.85
0 0.875 1.7875
0.125 0.8125 1.7875
0.0625 0.8125 1.85
0 0.8125 1.7875
0.0625 0.875 1.7875
0.0625 0.8125 1.7875
0.25 0.8125 1.85
0.25 0.875 1.7875
0.1875 0.875 1.85
0.25 0.8125 1.7875
0.1875 0.8125 1.85
0.1875 0.875 1.7875
0.1875 0.8125 1.7875
0.375 0.8125 1.85
0.375 0.875 1.7875
0.3125 0.875 1.85
0.375 0.8125 1.7875
0.3125 0.8125 1.85
0.3125 0.875 1.7875
0.3125 0.8125 1.7875
0.5 0.8125 1.85
0.5 0.875 1.7875
0.4375 0.875 1.85
0.5 0.8125 1.7875
0.4375 0.8125 1.85
0.4375 0.875 1.7875
0.4375 0.8125 1.7875
0.625 0.8125 1.85
0.625 0.875 1.7875
0.5625 0.875 1.85
0.625 0.8125 1.7875
0.5625 0.8125 1.85
0.5625 0.875 1.7875
0.5625 0.8125 1.7875
0.75 0.8125 1.85
0.75 0.875 1.7875
0.6875 0.875 1.85
0.75 0.8125 1.7875
0.6875 0.8125 1.85
0.6875 0.875 1.7875
0.6875 0.8125 1.7875
0.875 0.8125 1.85
0.875 0.875 1.7875
0.8125 0.875 1.85
0.875 0.8125 1.7875
0.8125 0.8125 1.85
0.8125 0.875 1.7875
0.8125 0.8125 1.7875
1 0.8125 1.85
1 0.875 1.7875
0.9375 0.875 1.85
1 0.8125 1.7875
0.9375 0.8125 1.85
0.9375 0.875 1.7875
0.9375 0.8125 1.7875
1.125 0.8125 1.85
1.125 0.875 1.7875
1.0625 0.875 1.85
1.125 0.8125 1.7875
1.0625 0.8125 1.85
1.0625 0.875 1.7875
1.0625 0.8125 1.7875
1.25 0.8125 1.85
1.25 0.875 1.7875
1.1875 0.875 1.85
1.25 0.8125 1.7875
1.1875 0.8125 1.85
1.1875 0.875 1.7875
1.1875 0.8125 1.7875
1.375 0.8125 1.85
1.375 0.875 1.7875
1.3125 0.875 1.85
1.375 0.8125 1.7875
1.3125 0.8125 1.85
1.3125 0.875 1.7875
1.3125 0.8125 1.7875
1.5 0.8125 1.85
1.5 0.875 1.7875
1.4375 0.875 1.85
1.5 0.8125 1.7875
1.4375 0.8125 1.85
1.4375 0.875 1.7875
1.4375 0.8125 1.7875
1.625 0.8125 1.85
1.625 0.875 1.7875
1.5625 0.875 1.85
1.625 0.8125 1.7875
1.5625 0.8125 1.85
1.5625 0.875 1.7875
1.5625 0.8125 1.7875
1.75 0.8125 1.85
1.75 0.875 1.7875
1.6875 0.875 1.85
1.75 0.8125 1.7875
1.6875 0.8125 1.85
1.6875 0.875 1.7875
1.6875 0.8125 1.7875
1.875 0.8125 1.85
1.875 0.875 1.7875
1.8125 0.875 1.85
1.875 0.8125 1.7875
1.8125 0.8125 1.85
1.8125 0.875 1.7875
1.8125 0.8125 1.7875
2 0.8125 1.85
2 0.875 1.7875
1.9375 0.875 1.85
2 0.8125 1.7875
1.9375 0.8125 1.85
1.9375 0.875 1.7875
1.9375 0.8125 1.7875
2.125 0.8125 1.85
2.125 0.875 1.7875
2.0625 0.875 1.85
2.125 0.8125 1.7875
2.0625 0.8125 1.85
2.0625 0.875 1.7875
2.0625 0.8125 1.7875
2.25 0.8125 1.85
2.25 0.875 1.7875
2.1875 0.875 1.85
2.25 0.8125 1.7875
2.1875 0.8125 1.85
2.1875 0.875 1.7875
2.1875 0.8125 1.7875
2.375 0.8125 1.85
2.375 0.875 1.7875
2.3125 0.875 1.85
2.375 0.8125 1.7875
2.3125 0.8125 1.85
2.3125 0.875 1.7875
2.3125 0.8125 1.7875
2.5 0.8125 1.85
2.5 0.875 1.7875
2.4375 0.875 1.85
2.5 0.8125 1.7875
2.4375 0.8125 1.85
2.4375 0.875 1.7875
2.4375 0.8125 1.7875
2.625 0.8125 1.85
2.625 0.875 1.7875
2.5625 0.875 1.85
2.625 0.8125 1.7875
2.5625 0.8125 1.85
2.5625 0.875 1.7875
2.5625 0.8125 1.7875
2.75 0.8125 1.85
2.75 0.875 1.7875
2.6875 0.875 1.85
2.75 0.8125 1.7875
2.6875 0.8125 1.85
2.6875 0.875 1.7875
2.6875 0.8125 1.7875
2.875 0.8125 1.85
2.875 0.875 1.7875
2.8125 0.875 1.85
2.875 0.8125 1.7875
2.8125 0.8125 1.85
2.8125 0.875 1.7875
2.8125 0.8125 1.7875
3 0.8125 1.85
3 0.875 1.7875
2.9375 0.875 1.85
3 0.8125 1.7875
2.9375 0.8125 1.85
2.9375 0.875 1.7875
2.9375 0.8125 1.7875
0.125 0.9375 1.85
0 0.9375 1.85
0.125 1 1.7875
0.0625 1 1.85
0 1 1.7875
0.125 0.9375 1.7875
0.0625 0.9375 1.85
0 0.9375 1.7875
0.0625 1 1.7875
0.0625 0.9375 1.7875
0.25 0.9375 1.85
0.25 1 1.7875
0.1875 1 1.85
0.25 0.9375 1.7875
0.1875 0.9375 1.85
0.1875 1 1.7875
0.1875 0.9375 1.7875
0.375 0.9375 1.85
0.375 1 1.7875
0.3125 1 1.85
0.375 0.9375 1.7875
0.3125 0.9375 1.85
0.3125 1 1.7875
0.3125 0.9375 1.7875
0.5 0.9375 1.85
0.5 1 1.7875
0.4375 1 1.85
0.5 0.9375 1.7875
0.4375 0.9375 1.85
0.4375 1 1.7875
0.4375 0.9375 1.7875
0.625 0.9375 1.85
0.625 1 1.7875
0.5625 1 1.85
0.625 0.9375 1.7875
0.5625 0.9375 1.85
0.5625 1 1.7875
0.5625 0.9375 1.7875
0.75 0.9375 1.85
0.75 1 1.7875
0.6875 1 1.85
0.75 0.9375 1.7875
0.6875 0.9375 1.85
0.6875 1 1.7875
0.6875 0.9375 1.7875
0.875 0.9375 1.85
0.875 1 1.7875
0.8125 1 1.85
0.875 0.9375 1.7875
0.8125 0.9375 1.85
0.8125 1 1.7875
0.8125 0.9375 1.7875
1 0.9375 1.85
1 1 1.7875
0.9375 1 1.85
1 0.9375 1.7875
0.9375 0.9375 1.85
0.9375 1 1.7875
0.9375 0.9375 1.7875
1.125 0.9375 1.85
1.125 1 1.7875
1.0625 1 1.85
1.125 0.9375 1.7875
1.0625 0.9375 1.85
1.0625 1 1.7875
1.0625 0.9375 1.7875
1.25 0.9375 1.85
1.25 1 1.7875
1.1875 1 1.85
1.25 0.9375 1.7875
1.1875 0.9375 1.85
1.1875 1 1.7875
1.1875 0.9375 1.7875
1.375 0.9375 1.85
1.375 1 1.7875
1.3125 1 1.85
1.375 0.9375 1.7875
1.3125 0.9375 1.85
1.3125 1 1.7875
1.3125 0.9375 1.7875
1.5 0.9375 1.85
1.5 1 1.7875
1.4375 1 1.85
1.5 0.9375 1.7875
1.4375 0.9375 1.85
1.4375 1 1.7875
1.4375 0.9375 1.7875
1.625 0.9375 1.85
1.625 1 1.7875
1.5625 1 1.85
1.625 0.9375 1.7875
1.5625 0.9375 1.85
1.5625 1 1.7875
1.5625 0.9375 1.7875
1.75 0.9375 1.85
1.75 1 1.7875
1.6875 1 1.85
1.75 0.9375 1.7875
1.6875 0.9375 1.85
1.6875 1 1.7875
1.6875 0.9375 1.7875
1.875 0.9375 1.85
1.875 1 1.7875
1.8125 1 1.85
1.875 0.9375 1.7875
1.8125 0.9375 1.85
1.8125 1 1.7875
1.8125 0.9375 1.7875
2 0.9375 1.85
2 1 1.7875
1.9375 1 1.85
2 0.9375 1.7875
1.9375 0.9375 1.85
1.9375 1 1.7875
1.9375 0.9375 1.7875
2.125 0.9375 1.85
2.125 1 1.7875
2.0625 1 1.85
2.125 0.9375 1.7875
2.0625 0.9375 1.85
2.0625 1 1.7875
2.0625 0.9375 1.7875
2.25 0.9375 1.85
2.25 1 1.7875
2.1875 1 1.85
2.25 0.9375 1.7875
2.1875 0.9375 1.85
2.1875 1 1.7875
2.1875 0.9375 1.7875
2.375 0.9375 1.85
2.375 1 1.7875
2.3125 1 1.85
2.375 0.9375 1.7875
2.3125 0.9375 1.85
2.3125 1 1.7875
2.3125 0.9375 1.7875
2.5 0.9375 1.85
2.5 1 1.7875
2.4375 1 1.85
2.5 0.9375 1.7875
2.4375 0.9375 1.85
2.4375 1 1.7875
2.4375 0.9375 1.7875
2.625 0.9375 1.85
2.625 1 1.7875
2.5625 1 1.85
2.625 0.9375 1.7875
2.5625 0.9375 1.85
2.5625 1 1.7875
2.5625 0.9375 1.7875
2.75 0.9375 1.85
2.75 1 1.7875
2.6875 1 1.85
2.75 0.9375 1.7875
2.6875 0.9375 1.85
2.6875 1 1.7875
2.6875 0.9375 1.7875
2.875 0.9375 1.85
2.875 1 1.7875
2.8125 1 1.85
2.875 0.9375 1.7875
2.8125 0.9375 1.85
2.8125 1 1.7875
2.8125 0.9375 1.7875
3 0.9375 1.85
3 1 1.7875
2.9375 1 1.85
3 0.9375 1.7875
2.9375 0.9375 1.85
2.9375 1 1.7875
2.9375 0.9375 1.7875
0.125 0 1.9125
0.0625 0 1.975
0 0 1.9125
0.125 0.0625 1.975
0 0.0625 1.975
0.125 0.125 1.9125
0.0625 0.125 1.975
0 0.125 1.9125
0.0625 0 1.9125
0.125 0.0625 1.9125
0.0625 0.0625 1.975
0 0.0625 1.9125
0.0625 0.125 1.9125
0.0625 0.0625 1.9125
0.25 0 1.9125
0.1875 0 1.975
0.25 0.0625 1.975
0.25 0.125 1.9125
0.1875 0.125 1.975
0.1875 0 1.9125
0.25 0.0625 1.9125
0.1875 0.0625 1.975
0.1875 0.125 1.9125
0.1875 0.0625 1.9125
0.375 0 1.9125
0.3125 0 1.975
0.375 0.0625 1.975
0.375 0.125 1.9125
0.3125 0.125 1.975
0.3125 0 1.9125
0.375 0.0625 1.9125
0.3125 0.0625 1.975
0.3125 0.125 1.9125
0.3125 0.0625 1.9125
0.5 0 1.9125
0.4375 0 1.975
0.5 0.0625 1.975
0.5 0.125 1.9125
0.4375 0.125 1.975
0.4375 0 1.9125
0.5 0.0625 1.9125
0.4375 0.0625 1.975
0.4375 0.125 1.9125
0.4375 0.0625 1.9125
0.625 0 1.9125
0.5625 0 1.975
0.625 0.0625 1.975
0.625 0.125 1.9125
0.5625 0.125 1.975
0.5625 0 1.9125
0.625 0.0625 1.9125
0.5625 0.0625 1.975
0.5625 0.125 1.9125
0.5625 0.0625 1.9125
0.75 0 1.9125
0.6875 0 1.975
0.75 0.0625 1.975
0.75 0.125 1.9125
0.6875 0.125 1.975
0.6875 0 1.9125
0.75 0.0625 1.9125
0.6875 0.0625 1.975
0.6875 0.125 1.9125
0.6875 0.0625 1.9125
0.875 0 1.9125
0.8125 0 1.975
0.875 0.0625 1.975
0.875 0.125 1.9125
0.8125 0.125 1.975
0.8125 0 1.9125
0.875 0.0625 1.9125
0.8125 0.0625 1.975
0.8125 0.125 1.9125
0.8125 0.0625 1.9125
1 0 1.9125
0.9375 0 1.975
1 0.0625 1.975
1 0.125 1.9125
0.9375 0.125 1.975
0.9375 0 1.9125
1 0.0625 1.9125
0.9375 0.0625 1.975
0.9375 0.125 1.9125
0.9375 0.0625 1.9125
1.125 0 1.9125
1.0625 0 1.975
1.125 0.0625 1.975
1.125 0.125 1.9125
1.0625 0.125 1.975
1.0625 0 1.9125
1.125 0.0625 1.9125
1.0625 0.0625 1.975
1.0625 0.125 1.9125
1.0625 0.0625 1.9125
1.25 0 1.9125
1.1875 0 1.975
1.25 0.0625 1.975
1.25 0.125 1.9125
1.1875 0.125 1.975
1.1875 0 1.9125
1.25 0.0625 1.9125
1.1875 0.0625 1.975
1.1875 0.125 1.9125
1.1875 0.0625 1.9125
1.375 0 1.9125
1.3125 0 1.975
1.375 0.0625 1.975
1.375 0.125 1.9125
1.3125 0.125 1.975
1.3125 0 1.9125
1.375 0.0625 1.9125
1.3125 0.0625 1.975
1.3125 0.125 1.9125
1.3125 0.0625 1.9125
1.5 0 1.9125
1.4375 0 1.975
1.5 0.0625 1.975
1.5 0.125 1.9125
1.4375 0.125 1.975
1.4375 0 1.9125
1.5 0.0625 1.9125
1.4375 0.0625 1.975
1.4375 0.125 1.9125
1.4375 0.0625 1.9125
1.625 0 1.9125
1.5625 0 1.975
1.625 0.0625 1.975
1.625 0.125 1.9125
1.5625 0.125 1.975
1.5625 0 1.9125
1.625 0.0625 1.9125
1.5625 0.0625 1.975
1.5625 0.125 1.9125
1.5625 0.0625 1.9125
1.75 0 1.9125
1.6875 0 1.975
1.75 0.0625 1.975
1.75 0.125 1.9125
1.6875 0.125 1.975
1.6875 0 1.9125
1.75 0.0625 1.9125
1.6875 0.0625 1.975
1.6875 0.125 1.9125
1.6875 0.0625 1.9125
1.875 0 1.9125
1.8125 0 1.975
1.875 0.0625 1.975
1.875 0.125 1.9125
1.8125 0.125 1.975
1.8125 0 1.9125
1.875 0.0625 1.9125
1.8125 0.0625 1.975
1.8125 0.125 1.9125
1.8125 0.0625 1.9125
2 0 1.9125
1.9375 0 1.975
2 0.0625 1.975
2 0.125 1.9125
1.9375 0.125 1.975
1.9375 0 1.9125
2 0.0625 1.9125
1.9375 0.0625 1.975
1.9375 0.125 1.9125
1.9375 0.0625 1.9125
2.125 0 1.9125
2.0625 0 1.975
2.125 0.0625 1.975
2.125 0.125 1.9125
2.0625 0.125 1.975
2.0625 0 1.9125
2.125 0.0625 1.9125
2.0625 0.0625 1.975
2.0625 0.125 1.9125
2.0625 0.0625 1.9125
2.25 0 1.9125
2.1875 0 1.975
2.25 0.0625 1.975
2.25 0.125 1.9125
2.1875 0.125 1.975
2.1875 0 1.9125
2.25 0.0625 1.9125
2.1875 0.0625 1.975
2.1875 0.125 1.9125
2.1875 0.0625 1.9125
2.375 0 1.9125
2.3125 0 1.975
2.375 0.0625 1.975
2.375 0.125 1.9125
2.3125 0.125 1.975
2.3125 0 1.9125
2.375 0.0625 1.9125
2.3125 0.0625 1.975
2.3125 0.125 1.9125
2.3125 0.0625 1.9125
2.5 0 1.9125
2.4375 0 1.975
2.5 0.0625 1.975
2.5 0.125 1.9125
2.4375 0.125 1.975
2.4375 0 1.9125
2.5 0.0625 1.9125
2.4375 0.0625 1.975
2.4375 0.125 1.9125
2.4375 0.0625 1.9125
2.625 0 1.9125
2.5625 0 1.975
2.625 0.0625 1.975
2.625 0.125 1.9125
2.5625 0.125 1.975
2.5625 0 1.9125
2.625 0.0625 1.9125
2.5625 0.0625 1.975
2.5625 0.125 1.9125
2.5625 0.0625 1.9125
2.75 0 1.9125
2.6875 0 1.975
2.75 0.0625 1.975
2.75 0.125 1.9125
2.6875 0.125 1.975
2.6875 0 1.9125
2.75 0.0625 1.9125
2.6875 0.0625 1.975
2.6875 0.125 1.9125
2.6875 0.0625 1.9125
2.875 0 1.9125
2.8125 0 1.975
2.875 0.0625 1.975
2.875 0.125 1.9125
2.8125 0.125 1.975
2.8125 0 1.9125
2.875 0.0625 1.9125
2.8125 0.0625 1.975
2.8125 0.125 1.9125
2.8125 0.0625 1.9125
3 0 1.9125
2.9375 0 1.975
3 0.0625 1.975
3 0.125 1.9125
2.9375 0.125 1.975
2.9375 0 1.9125
3 0.0625 1.9125
2.9375 0.0625 1.975
2.9375 0.125 1.9125
2.9375 0.0625 1.9125
0.125 0.1875 1.975
0 0.1875 1.975
0.125 0.25 1.9125
0.0625 0.25 1.975
0 0.25 1.9125
0.125 0.1875 1.9125
0.0625 0.1875 1.975
0 0.1875 1.9125
0.0625 0.25 1.9125
0.0625 0.1875 1.9125
0.25 0.1875 1.975
0.25 0.25 1.9125
0.1875 0.25 1.975
0.25 0.1875 1.9125
0.1875 0.1875 1.975
0.1875 0.25 1.9125
0.1875 0.1875 1.9125
0.375 0.1875 1.975
0.375 0.25 1.9125
0.3125 0.25 1.975
0.375 0.1875 1.9125
0.3125 0.1875 1.975
0.3125 0.25 1.9125
0.3125 0.1875 1.9125
0.5 0.1875 1.975
0.5 0.25 1.9125
0.4375 0.25 1.975
0.5 0.1875 1.9125
0.4375 0.1875 1.975
0.4375 0.25 1.9125
0.4375 0.1875 1.9125
0.625 0.1875 1.975
0.625 0.25 1.9125
0.5625 0.25 1.975
0.625 0.1875 1.9125
0.5625 0.1875 1.975
0.5625 0.25 1.9125
0.5625 0.1875 1.9125
0.75 0.1875 1.975
0.75 0.25 1.9125
0.6875 0.25 1.975
0.75 0.1875 1.9125
0.6875 0.1875 1.975
0.6875 0.25 1.9125
0.6875 0.1875 1.9125
0.875 0.1875 1.975
0.875 0.25 1.9125
0.8125 0.25 1.975
0.875 0.1875 1.9125
0.8125 0.1875 1.975
0.8125 0.25 1.9125
0.8125 0.1875 1.9125
1 0.1875 1.975
1 0.25 1.9125
0.9375 0.25 1.975
1 0.1875 1.9125
0.9375 0.1875 1.975
0.9375 0.25 1.9125
0.9375 0.1875 1.9125
1.125 0.1875 1.975
1.125 0.25 1.9125
1.0625 0.25 1.975
1.125 0.1875 1.9125
1.0625 0.1875 1.975
1.0625 0.25 1.9125
1.0625 0.1875 1.9125
1.25 0.1875 1.975
1.25 0.25 1.9125
1.1875 0.25 1.975
1.25 0.1875 1.9125
1.1875 0.1875 1.975
1.1875 0.25 1.9125
1.1875 0.1875 1.9125
1.375 0.1875 1.975
1.375 0.25 1.9125
1.3125 0.25 1.975
1.375 0.1875 1.9125
1.3125 0.1875 1.975
1.3125 0.25 1.9125
1.3125 0.1875 1.9125
1.5 0.1875 1.975
1.5 0.25 1.9125
1.4375 0.25 1.975
1.5 0.1875 1.9125
1.4375 0.1875 1.975
1.4375 0.25 1.9125
1.4375 0.1875 1.9125
1.625 0.1875 1.975
1.625 0.25 1.9125
1.5625 0.25 1.975
1.625 0.1875 1.9125
1.5625 0.1875 1.975
1.5625 0.25 1.9125
1.5625 0.1875 1.9125
1.75 0.1875 1.975
1.75 0.25 1.9125
1.6875 0.25 1.975
1.75 0.1875 1.9125
1.6875 0.1875 1.975
1.6875 0.25 1.9125
1.6875 0.1875 1.9125
1.875 0.1875 1.975
1.875 0.25 1.9125
1.8125 0.25 1.975
1.875 0.1875 1.9125
1.8125 0.1875 1.975
1.8125 0.25 1.9125
1.8125 0.1875 1.9125
2 0.1875 1.975
2 0.25 1.9125
1.9375 0.25 1.975
2 0.1875 1.9125
1.9375 0.1875 1.975
1.9375 0.25 1.9125
1.9375 0.1875 1.9125
2.125 0.1875 1.975
2.125 0.25 1.9125
2.0625 0.25 1.975
2.125 0.1875 1.9125
2.0625 0.1875 1.975
2.0625 0.25 1.9125
2.0625 0.1875 1.9125
2.25 0.1875 1.975
2.25 0.25 1.9125
2.1875 0.25 1.975
2.25 0.1875 1.9125
2.1875 0.1875 1.975
2.1875 0.25 1.9125
2.1875 0.1875 1.9125
2.375 0.1875 1.975
2.375 0.25 1.9125
2.3125 0.25 1.975
2.375 0.1875 1.9125
2.3125 0.1875 1.975
2.3125 0.25 1.9125
2.3125 0.1875 1.9125
2.5 0.1875 1.975
2.5 0.25 1.9125
2.4375 0.25 1.975
2.5 0.1875 1.9125
2.4375 0.1875 1.975
2.4375 0.25 1.9125
2.4375 0.1875 1.9125
2.625 0.1875 1.975
2.625 0.25 1.9125
2.5625 0.25 1.975
2.625 0.1875 1.9125
2.5625 0.1875 1.975
2.5625 0.25 1.9125
2.5625 0.1875 1.9125
2.75 0.1875 1.975
2.75 0.25 1.9125
2.6875 0.25 1.975
2.75 0.1875 1.9125
2.6875 0.1875 1.975
2.6875 0.25 1.9125
2.6875 0.1875 1.9125
2.875 0.1875 1.975
2.875 0.25 1.9125
2.8125 0.25 1.975
2.875 0.1875 1.9125
2.8125 0.1875 1.975
2.8125 0.25 1.9125
2.8125 0.1875 1.9125
3 0.1875 1.975
3 0.25 1.9125
2.9375 0.25 1.975
3 0.1875 1.9125
2.9375 0.1875 1.975
2.9375 0.25 1.9125
2.9375 0.1875 1.9125
0.125 0.3125 1.975
0 0.3125 1.975
0.125 0.375 1.9125
0.0625 0.375 1.975
0 0.375 1.9125
0.125 0.3125 1.9125
0.0625 0.3125 1.975
0 0.3125 1.9125
0.0625 0.375 1.9125
0.0625 0.3125 1.9125
0.25 0.3125 1.975
0.25 0.375 1.9125
0.1875 0.375 1.975
0.25 0.3125 1.9125
0.1875 0.3125 1.975
0.1875 0.375 1.9125
0.1875 0.3125 1.9125
0.375 0.3125 1.975
0.375 0.375 1.9125
0.3125 0.375 1.975
0.375 0.3125 1.9125
0.3125 0.3125 1.975
0.3125 0.375 1.9125
0.3125 0.3125 1.9125
0.5 0.3125 1.975
0.5 0.375 1.9125
0.4375 0.375 1.975
0.5 0.3125 1.9125
0.4375 0.3125 1.975
0.4375 0.375 1.9125
0.4375 0.3125 1.9125
0.625 0.3125 1.975
0.625 0.375 1.9125
0.5625 0.375 1.975
0.625 0.3125 1.9125
0.5625 0.3125 1.975
0.5625 0.375 1.9125
0.5625 0.3125 1.9125
0.75 0.3125 1.975
0.75 0.375 1.9125
0.6875 0.375 1.975
0.75 0.3125 1.9125
0.6875 0.3125 1.975
0.6875 0.375 1.9125
0.6875 0.3125 1.9125
0.875 0.3125 1.975
0.875 0.375 1.9125
0.8125 0.375 1.975
0.875 0.3125 1.9125
0.8125 0.3125 1.975
0.8125 0.375 1.9125
0.8125 0.3125 1.9125
1 0.3125 1.975
1 0.375 1.9125
0.9375 0.375 1.975
1 0.3125 1.9125
0.9375 0.3125 1.975
0.9375 0.375 1.9125
0.9375 0.3125 1.9125
1.125 0.3125 1.975
1.125 0.375 1.9125
1.0625 0.375 1.975
1.125 0.3125 1.9125
1.0625 0.3125 1.975
1.0625 0.375 1.9125
1.0625 0.3125 1.9125
1.25 0.3125 1.975
1.25 0.375 1.9125
1.1875 0.375 1.975
1.25 0.3125 1.9125
1.1875 0.3125 1.975
1.1875 0.375 1.9125
1.1875 0.3125 1.9125
1.375 0.3125 1.975
1.375 0.375 1.9125
1.3125 0.375 1.975
1.375 0.3125 1.9125
1.3125 0.3125 1.975
1.3125 0.375 1.9125
1.3125 0.3125 1.9125
1.5 0.3125 1.975
1.5 0.375 1.9125
1.4375 0.375 1.975
1.5 0.3125 1.9125
1.4375 0.3125 1.975
1.4375 0.375 1.9125
1.4375 0.3125 1.9125
1.625 0.3125 1.975
1.625 0.375 1.9125
1.5625 0.375 1.975
1.625 0.3125 1.9125
1.5625 0.3125 1.975
1.5625 0.375 1.9125
1.5625 0.3125 1.9125
1.75 0.3125 1.975
1.75 0.375 1.9125
1.6875 0.375 1.975
1.75 0.3125 1.9125
1.6875 0.3125 1.975
1.6875 0.375 1.9125
1.6875 0.3125 1.9125
1.875 0.3125 1.975
1.875 0.375 1.9125
1.8125 0.375 1.975
1.875 0.3125 1.9125
1.8125 0.3125 1.975
1.8125 0.375 1.9125
1.8125 0.3125 1.9125
2 0.3125 1.975
2 0.375 1.9125
1.9375 0.375 1.975
2 0.3125 1.9125
1.9375 0.3125 1.975
1.9375 0.375 1.9125
1.9375 0.3125 1.9125
2.125 0.3125 1.975
2.125 0.375 1.9125
2.0625 0.375 1.975
2.125 0.3125 1.9125
2.0625 0.3125 1.975
2.0625 0.375 1.9125
2.0625 0.3125 1.9125
2.25 0.3125 1.975
2.25 0.375 1.9125
2.1875 0.375 1.975
2.25 0.3125 1.9125
2.1875 0.3125 1.975
2.1875 0.375 1.9125
2.1875 0.3125 1.9125
2.375 0.3125 1.975
2.375 0.375 1.9125
2.3125 0.375 1.975
2.375 0.3125 1.9125
2.3125 0.3125 1.975
2.3125 0.375 1.9125
2.3125 0.3125 1.9125
2.5 0.3125 1.975
2.5 0.375 1.9125
2.4375 0.375 1.975
2.5 0.3125 1.9125
2.4375 0.3125 1.975
2.4375 0.375 1.9125
2.4375 0.3125 1.9125
2.625 0.3125 1.975
2.625 0.375 1.9125
2.5625 0.375 1.975
2.625 0.3125 1.9125
2.5625 0.3125 1.975
2.5625 0.375 1.9125
2.5625 0.3125 1.9125
2.75 0.3125 1.975
2.75 0.375 1.9125
2.6875 0.375 1.975
2.75 0.3125 1.9125
2.6875 0.3125 1.975
2.6875 0.375 1.9125
2.6875 0.3125 1.9125
2.875 0.3125 1.975
2.875 0.375 1.9125
2.8125 0.375 1.975
2.875 0.3125 1.9125
2.8125 0.3125 1.975
2.8125 0.375 1.9125
2.8125 0.3125 1.9125
3 0.3125 1.975
3 0.375 1.9125
2.9375 0.375 1.975
3 0.3125 1.9125
2.9375 0.3125 1.975
2.9375 0.375 1.9125
2.9375 0.3125 1.9125
0.125 0.4375 1.975
0 0.4375 1.975
0.125 0.5 1.9125
0.0625 0.5 1.975
0 0.5 1.9125
0.125 0.4375 1.9125
0.0625 0.4375 1.975
0 0.4375 1.9125
0.0625 0.5 1.9125
0.0625 0.4375 1.9125
0.25 0.4375 1.975
0.25 0.5 1.9125
0.1875 0.5 1.975
0.25 0.4375 1.9125
0.1875 0.4375 1.975
0.1875 0.5 1.9125
0.1875 0.4375 1.9125
0.375 0.4375 1.975
0.375 0.5 1.9125
0.3125 0.5 1.975
0.375 0.4375 1.9125
0.3125 0.4375 1.975
0.3125 0.5 1.9125
0.3125 0.4375 1.9125
0.5 0.4375 1.975
0.5 0.5 1.9125
0.4375 0.5 1.975
0.5 0.4375 1.9125
0.4375 0.4375 1.975
0.4375 0.5 1.9125
0.4375 0.4375 1.9125
0.625 0.4375 1.975
0.625 0.5 1.9125
0.5625 0.5 1.975
0.625 0.4375 1.9125
0.5625 0.4375 1.975
0.5625 0.5 1.9125
0.5625 0.4375 1.9125
0.75 0.4375 1.975
0.75 0.5 1.9125
0.6875 0.5 1.975
0.75 0.4375 1.9125
0.6875 0.4375 1.975
0.6875 0.5 1.9125
0.6875 0.4375 1.9125
0.875 0.4375 1.975
0.875 0.5 1.9125
0.8125 0.5 1.975
0.875 0.4375 1.9125
0.8125 0.4375 1.975
0.8125 0.5 1.9125
0.8125 0.4375 1.9125
1 0.4375 1.975
1 0.5 1.9125
0.9375 0.5 1.975
1 0.4375 1.9125
0.9375 0.4375 1.975
0.9375 0.5 1.9125
0.9375 0.4375 1.9125
1.125 0.4375 1.975
1.125 0.5 1.9125
1.0625 0.5 1.975
1.125 0.4375 1.9125
1.0625 0.4375 1.975
1.0625 0.5 1.9125
1.0625 0.4375 1.9125
1.25 0.4375 1.975
1.25 0.5 1.9125
1.1875 0.5 1.975
1.25 0.4375 1.9125
1.1875 0.4375 1.975
1.1875 0.5 1.9125
1.1875 0.4375 1.9125
1.375 0.4375 1.975
1.375 0.5 1.9125
1.3125 0.5 1.975
1.375 0.4375 1.9125
1.3125 0.4375 1.975
1.3125 0.5 1.9125
1.3125 0.4375 1.9125
1.5 0.4375 1.975
1.5 0.5 1.9125
1.4375 0.5 1.975
1.5 0.4375 1.9125
1.4375 0.4375 1.975
1.4375 0.5 1.9125
1.4375 0.4375 1.9125
1.625 0.4375 1.975
1.625 0.5 1.9125
1.5625 0.5 1.975
1.625 0.4375 1.9125
1.5625 0.4375 1.975
1.5625 0.5 1.9125
1.5625 0.4375 1.9125
1.75 0.4375 1.975
1.75 0.5 1.9125
1.6875 0.5 1.975
1.75 0.4375 1.9125
1.6875 0.4375 1.975
1.6875 0.5 1.9125
1.6875 0.4375 1.9125
1.875 0.4375 1.975
1.875 0.5 1.9125
1.8125 0.5 1.975
1.875 0.4375 1.9125
1.8125 0.4375 1.975
1.8125 0.5 1.9125
1.8125 0.4375 1.9125
2 0.4375 1.975
2 0.5 1.9125
1.9375 0.5 1.975
2 0.4375 1.9125
1.9375 0.4375 1.975
1.9375 0.5 1.9125
1.9375 0.4375 1.9125
2.125 0.4375 1.975
2.125 0.5 1.9125
2.0625 0.5 1.975
2.125 0.4375 1.9125
2.0625 0.4375 1.975
2.0625 0.5 1.9125
2.0625 0.4375 1.9125
2.25 0.4375 1.975
2.25 0.5 1.9125
2.1875 0.5 1.975
2.25 0.4375 1.9125
2.1875 0.4375 1.975
2.1875 0.5 1.9125
2.1875 0.4375 1.9125
2.375 0.4375 1.975
2.375 0.5 1.9125
2.3125 0.5 1.975
2.375 0.4375 1.9125
2.3125 0.4375 1.975
2.3125 0.5 1.9125
2.3125 0.4375 1.9125
2.5 0.4375 1.975
2.5 0.5 1.9125
2.4375 0.5 1.975
2.5 0.4375 1.9125
2.4375 0.4375 1.975
2.4375 0.5 1.9125
2.4375 0.4375 1.9125
2.625 0.4375 1.975
2.625 0.5 1.9125
2.5625 0.5 1.975
2.625 0.4375 1.9125
2.5625 0.4375 1.975
2.5625 0.5 1.9125
2.5625 0.4375 1.9125
2.75 0.4375 1.975
2.75 0.5 1.9125
2.6875 0.5 1.975
2.75 0.4375 1.9125
2.6875 0.4375 1.975
2.6875 0.5 1.9125
2.6875 0.4375 1.9125
2.875 0.4375 1.975
2.875 0.5 1.9125
2.8125 0.5 1.975
2.875 0.4375 1.9125
2.8125 0.4375 1.975
2.8125 0.5 1.9125
2.8125 0.4375 1.9125
3 0.4375 1.975
3 0.5 1.9125
2.9375 0.5 1.975
3 0.4375 1.9125
2.9375 0.4375 1.975
2.9375 0.5 1.9125
2.9375 0.4375 1.9125
0.125 0.5625 1.975
0 0.5625 1.975
0.125 0.625 1.9125
0.0625 0.625 1.975
0 0.625 1.9125
0.125 0.5625 1.9125
0.0625 0.5625 1.975
0 0.5625 1.9125
0.0625 0.625 1.9125
0.0625 0.5625 1.9125
0.25 0.5625 1.975
0.25 0.625 1.9125
0.1875 0.625 1.975
0.25 0.5625 1.9125
0.1875 0.5625 1.975
0.1875 0.625 1.9125
0.1875 0.5625 1.9125
0.375 0.5625 1.975
0.375 0.625 1.9125
0.3125 0.625 1.975
0.375 0.5625 1.9125
0.3125 0.5625 1.975
0.3125 0.625 1.9125
0.3125 0.5625 1.9125
0.5 0.5625 1.975
0.5 0.625 1.9125
0.4375 0.625 1.975
0.5 0.5625 1.9125
0.4375 0.5625 1.975
0.4375 0.625 1.9125
0.4375 0.5625 1.9125
0.625 0.5625 1.975
0.625 0.625 1.9125
0.5625 0.625 1.975
0.625 0.5625 1.9125
0.5625 0.5625 1.975
0.5625 0.625 1.9125
0.5625 0.5625 1.9125
0.75 0.5625 1.975
0.75 0.625 1.9125
0.6875 0.625 1.975
0.75 0.5625 1.9125
0.6875 0.5625 1.975
0.6875 0.625 1.9125
0.6875 0.5625 1.9125
0.875 0.5625 1.975
0.875 0.625 1.9125
0.8125 0.625 1.975
0.875 0.5625 1.9125
0.8125 0.5625 1.975
0.8125 0.625 1.9125
0.8125 0.5625 1.9125
1 0.5625 1.975
1 0.625 1.9125
0.9375 0.625 1.975
1 0.5625 1.9125
0.9375 0.5625 1.975
0.9375 0.625 1.9125
0.9375 0.5625 1.9125
1.125 0.5625 1.975
1.125 0.625 1.9125
1.0625 0.625 1.975
1.125 0.5625 1.9125
1.0625 0.5625 1.975
1.0625 0.625 1.9125
1.0625 0.5625 1.9125
1.25 0.5625 1.975
1.25 0.625 1.9125
1.1875 0.625 1.975
1.25 0.5625 1.9125
1.1875 0.5625 1.975
1.1875 0.625 1.9125
1.1875 0.5625 1.9125
1.375 0.5625 1.975
1.375 0.625 1.9125
1.3125 0.625 1.975
1.375 0.5625 1.9125
1.3125 0.5625 1.975
1.3125 0.625 1.9125
1.3125 0.5625 1.9125
1.5 0.5625 1.975
1.5 0.625 1.9125
1.4375 0.625 1.975
1.5 0.5625 1.9125
1.4375 0.5625 1.975
1.4375 0.625 1.9125
1.4375 0.5625 1.9125
1.625 0.5625 1.975
1.625 0.625 1.9125
1.5625 0.625 1.975
1.625 0.5625 1.9125
1.5625 0.5625 1.975
1.5625 0.625 1.9125
1.5625 0.5625 1.9125
1.75 0.5625 1.975
1.75 0.625 1.9125
1.6875 0.625 1.975
1.75 0.5625 1.9125
1.6875 0.5625 1.975
1.6875 0.625 1.9125
1.6875 0.5625 1.9125
1.875 0.5625 1.975
1.875 0.625 1.9125
1.8125 0.625 1.975
1.875 0.5625 1.9125
1.8125 0.5625 1.975
1.8125 0.625 1.9125
1.8125 0.5625 1.9125
2 0.5625 1.975
2 0.625 1.9125
1.9375 0.625 1.975
2 0.5625 1.9125
1.9375 0.5625 1.975
1.9375 0.625 1.9125
1.9375 0.5625 1.9125
2.125 0.5625 1.975
2.125 0.625 1.9125
2.0625 0.625 1.975
2.125 0.5625 1.9125
2.0625 0.5625 1.975
2.0625 0.625 1.9125
2.0625 0.5625 1.9125
2.25 0.5625 1.975
2.25 0.625 1.9125
2.1875 0.625 1.975
2.25 0.5625 1.9125
2.1875 0.5625 1.975
2.1875 0.625 1.9125
2.1875 0.5625 1.9125
2.375 0.5625 1.975
2.375 0.625 1.9125
2.3125 0.625 1.975
2.375 0.5625 1.9125
2.3125 0.5625 1.975
2.3125 0.625 1.9125
2.3125 0.5625 1.9125
2.5 0.5625 1.975
2.5 0.625 1.9125
2.4375 0.625 1.975
2.5 0.5625 1.9125
2.4375 0.5625 1.975
2.4375 0.625 1.9125
2.4375 0.5625 1.9125
2.625 0.5625 1.975
2.625 0.625 1.9125
2.5625 0.625 1.975
2.625 0.5625 1.9125
2.5625 0.5625 1.975
2.5625 0.625 1.9125
2.5625 0.5625 1.9125
2.75 0.5625 1.975
2.75 0.625 1.9125
2.6875 0.625 1.975
2.75 0.5625 1.9125
2.6875 0.5625 1.975
2.6875 0.625 1.9125
2.6875 0.5625 1.9125
2.875 0.5625 1.975
2.875 0.625 1.9125
2.8125 0.625 1.975
2.875 0.5625 1.9125
2.8125 0.5625 1.975
2.8125 0.625 1.9125
2.8125 0.5625 1.9125
3 0.5625 1.975
3 0.625 1.9125
2.9375 0.625 1.975
3 0.5625 1.9125
2.9375 0.5625 1.975
2.9375 0.625 1.9125
2.9375 0.5625 1.9125
0.125 0.6875 1.975
0 0.6875 1.975
0.125 0.75 1.9125
0.0625 0.75 1.975
0 0.75 1.9125
0.125 0.6875 1.9125
0.0625 0.6875 1.975
0 0.6875 1.9125
0.0625 0.75 1.9125
0.0625 0.6875 1.9125
0.25 0.6875 1.975
0.25 0.75 1.9125
0.1875 0.75 1.975
0.25 0.6875 1.9125
0.1875 0.6875 1.975
0.1875 0.75 1.9125
0.1875 0.6875 1.9125
0.375 0.6875 1.975
0.375 0.75 1.9125
0.3125 0.75 1.975
0.375 0.6875 1.9125
0.3125 0.6875 1.975
0.3125 0.75 1.9125
0.3125 0.6875 1.9125
0.5 0.6875 1.975
0.5 0.75 1.9125
0.4375 0.75 1.975
0.5 0.6875 1.9125
0.4375 0.6875 1.975
0.4375 0.75 1.9125
0.4375 0.6875 1.9125
0.625 0.6875 1.975
0.625 0.75 1.9125
0.5625 0.75 1.975
0.625 0.6875 1.9125
0.5625 0.6875 1.975
0.5625 0.75 1.9125
0.5625 0.6875 1.9125
0.75 0.6875 1.975
0.75 0.75 1.9125
0.6875 0.75 1.975
0.75 0.6875 1.9125
0.6875 0.6875 1.975
0.6875 0.75 1.9125
0.6875 0.6875 1.9125
0.875 0.6875 1.975
0.875 0.75 1.9125
0.8125 0.75 1.975
0.875 0.6875 1.9125
0.8125 0.6875 1.975
0.8125 0.75 1.9125
0.8125 0.6875 1.9125
1 0.6875 1.975
1 0.75 1.9125
0.9375 0.75 1.975
1 0.6875 1.9125
0.9375 0.6875 1.975
0.9375 0.75 1.9125
0.9375 0.6875 1.9125
1.125 0.6875 1.975
1.125 0.75 1.9125
1.0625 0.75 1.975
1.125 0.6875 1.9125
1.0625 0.6875 1.975
1.0625 0.75 1.9125
1.0625 0.6875 1.9125
1.25 0.6875 1.975
1.25 0.75 1.9125
1.1875 0.75 1.975
1.25 0.6875 1.9125
1.1875 0.6875 1.975
1.1875 0.75 1.9125
1.1875 0.6875 1.9125
1.375 0.6875 1.975
1.375 0.75 1.9125
1.3125 0.75 1.975
1.375 0.6875 1.9125
1.3125 0.6875 1.975
1.3125 0.75 1.9125
1.3125 0.6875 1.9125
1.5 0.6875 1.975
1.5 0.75 1.9125
1.4375 0.75 1.975
1.5 0.6875 1.9125
1.4375 0.6875 1.975
1.4375 0.75 1.9125
1.4375 0.6875 1.9125
1.625 0.6875 1.975
1.625 0.75 1.9125
1.5625 0.75 1.975
1.625 0.6875 1.9125
1.5625 0.6875 1.975
1.5625 0.75 1.9125
1.5625 0.6875 1.9125
1.75 0.6875 1.975
1.75 0.75 1.9125
1.6875 0.75 1.975
1.75 0.6875 1.9125
1.6875 0.6875 1.975
1.6875 0.75 1.9125
1.6875 0.6875 1.9125
1.875 0.6875 1.975
1.875 0.75 1.9125
1.8125 0.75 1.975
1.875 0.6875 1.9125
1.8125 0.6875 1.975
1.8125 0.75 1.9125
1.8125 0.6875 1.9125
2 0.6875 1.975
2 0.75 1.9125
1.9375 0.75 1.975
2 0.6875 1.9125
1.9375 0.6875 1.975
1.9375 0.75 1.9125
1.9375 0.6875 1.9125
2.125 0.6875 1.975
2.125 0.75 1.9125
2.0625 0.75 1.975
2.125 0.6875 1.9125
2.0625 0.6875 1.975
2.0625 0.75 1.9125
2.0625 0.6875 1.9125
2.25 0.6875 1.975
2.25 0.75 1.9125
2.1875 0.75 1.975
2.25 0.6875 1.9125
2.1875 0.6875 1.975
2.1875 0.75 1.9125
2.1875 0.6875 1.9125
2.375 0.6875 1.975
2.375 0.75 1.9125
2.3125 0.75 1.975
2.375 0.6875 1.9125
2.3125 0.6875 1.975
2.3125 0.75 1.9125
2.3125 0.6875 1.9125
2.5 0.6875 1.975
2.5 0.75 1.9125
2.4375 0.75 1.975
2.5 0.6875 1.9125
2.4375 0.6875 1.975
2.4375 0.75 1.9125
2.4375 0.6875 1.9125
2.625 0.6875 1.975
2.625 0.75 1.9125
2.5625 0.75 1.975
2.625 0.6875 1.9125
2.5625 0.6875 1.975
2.5625 0.75 1.9125
2.5625 0.6875 1.9125
2.75 0.6875 1.975
2.75 0.75 1.9125
2.6875 0.75 1.975
2.75 0.6875 1.9125
2.6875 0.6875 1.975
2.6875 0.75 1.9125
2.6875 0.6875 1.9125
2.875 0.6875 1.975
2.875 0.75 1.9125
2.8125 0.75 1.975
2.875 0.6875 1.9125
2.8125 0.6875 1.975
2.8125 0.75 1.9125
2.8125 0.6875 1.9125
3 0.6875 1.975
3 0.75 1.9125
2.9375 0.75 1.975
3 0.6875 1.9125
2.9375 0.6875 1.975
2.9375 0.75 1.9125
2.9375 0.6875 1.9125
0.125 0.8125 1.975
0 0.8125 1.975
0.125 0.875 1.9125
0.0625 0.875 1.975
0 0.875 1.9125
0.125 0.8125 1.9125
0.0625 0.8125 1.975
0 0.8125 1.9125
0.0625 0.875 1.9125
0.0625 0.8125 1.9125
0.25 0.8125 1.975
0.25 0.875 1.9125
0.1875 0.875 1.975
0.25 0.8125 1.9125
0.1875 0.8125 1.975
0.1875 0.875 1.9125
0.1875 0.8125 1.9125
0.375 0.8125 1.975
0.375 0.875 1.9125
0.3125 0.875 1.975
0.375 0.8125 1.9125
0.3125 0.8125 1.975
0.3125 0.875 1.9125
0.3125 0.8125 1.9125
0.5 0.8125 1.975
0.5 0.875 1.9125
0.4375 0.875 1.975
0.5 0.8125 1.9125
0.4375 0.8125 1.975
0.4375 0.875 1.9125
0.4375 0.8125 1.9125
0.625 0.8125 1.975
0.625 0.875 1.9125
0.5625 0.875 1.975
0.625 0.8125 1.9125
0.5625 0.8125 1.975
0.5625 0.875 1.9125
0.5625 0.8125 1.9125
0.75 0.8125 1.975
0.75 0.875 1.9125
0.6875 0.875 1.975
0.75 0.8125 1.9125
0.6875 0.8125 1.975
0.6875 0.875 1.9125
0.6875 0.8125 1.9125
0.875 0.8125 1.975
0.875 0.875 1.9125
0.8125 0.875 1.975
0.875 0.8125 1.9125
0.8125 0.8125 1.975
0.8125 0.875 1.9125
0.8125 0.8125 1.9125
1 0.8125 1.975
1 0.875 1.9125
0.9375 0.875 1.975
1 0.8125 1.9125
0.9375 0.8125 1.975
0.9375 0.875 1.9125
0.9375 0.8125 1.9125
1.125 0.8125 1.975
1.125 0.875 1.9125
1.0625 0.875 1.975
1.125 0.8125 1.9125
1.0625 0.8125 1.975
1.0625 0.875 1.9125
1.0625 0.8125 1.9125
1.25 0.8125 1.975
1.25 0.875 1.9125
1.1875 0.875 1.975
1.25 0.8125 1.9125
1.1875 0.8125 1.975
1.1875 0.875 1.9125
1.1875 0.8125 1.9125
1.375 0.8125 1.975
1.375 0.875 1.9125
1.3125 0.875 1.975
1.375 0.8125 1.9125
1.3125 0.8125 1.975
1.3125 0.875 1.9125
1.3125 0.8125 1.9125
1.5 0.8125 1.975
1.5 0.875 1.9125
1.4375 0.875 1.975
1.5 0.8125 1.9125
1.4375 0.8125 1.975
1.4375 0.875 1.9125
1.4375 0.8125 1.9125
1.625 0.8125 1.975
1.625 0.875 1.9125
1.5625 0.875 1.975
1.625 0.8125 1.9125
1.5625 0.8125 1.975
1.5625 0.875 1.9125
1.5625 0.8125 1.9125
1.75 0.8125 1.975
1.75 0.875 1.9125
1.6875 0.875 1.975
1.75 0.8125 1.9125
1.6875 0.8125 1.975
1.6875 0.875 1.9125
1.6875 0.8125 1.9125
1.875 0.8125 1.975
1.875 0.875 1.9125
1.8125 0.875 1.975
1.875 0.8125 1.9125
1.8125 0.8125 1.975
1.8125 0.875 1.9125
1.8125 0.8125 1.9125
2 0.8125 1.975
2 0.875 1.9125
1.9375 0.875 1.975
2 0.8125 1.9125
1.9375 0.8125 1.975
1.9375 0.875 1.9125
1.9375 0.8125 1.9125
2.125 0.8125 1.975
2.125 0.875 1.9125
2.0625 0.875 1.975
2.125 0.8125 1.9125
2.0625 0.8125 1.975
2.0625 0.875 1.9125
2.0625 0.8125 1.9125
2.25 0.8125 1.975
2.25 0.875 1.9125
2.1875 0.875 1.975
2.25 0.8125 1.9125
2.1875 0.8125 1.975
2.1875 0.875 1.9125
2.1875 0.8125 1.9125
2.375 0.8125 1.975
2.375 0.875 1.9125
2.3125 0.875 1.975
2.375 0.8125 1.9125
2.3125 0.8125 1.975
2.3125 0.875 1.9125
2.3125 0.8125 1.9125
2.5 0.8125 1.975
2.5 0.875 1.9125
2.4375 0.875 1.975
2.5 0.8125 1.9125
2.4375 0.8125 1.975
2.4375 0.875 1.9125
2.4375 0.8125 1.9125
2.625 0.8125 1.975
2.625 0.875 1.9125
2.5625 0.875 1.975
2.625 0.8125 1.9125
2.5625 0.8125 1.975
2.5625 0.875 1.9125
2.5625 0.8125 1.9125
2.75 0.8125 1.975
2.75 0.875 1.9125
2.6875 0.875 1.975
2.75 0.8125 1.9125
2.6875 0.8125 1.975
2.6875 0.875 1.9125
2.6875 0.8125 1.9125
2.875 0.8125 1.975
2.875 0.875 1.9125
2.8125 0.875 1.975
2.875 0.8125 1.9125
2.8125 0.8125 1.975
2.8125 0.875 1.9125
2.8125 0.8125 1.9125
3 0.8125 1.975
3 0.875 1.9125
2.9375 0.875 1.975
3 0.8125 1.9125
2.9375 0.8125 1.975
2.9375 0.875 1.9125
2.9375 0.8125 1.9125
0.125 0.9375 1.975
0 0.9375 1.975
0.125 1 1.9125
0.0625 1 1.975
0 1 1.9125
0.125 0.9375 1.9125
0.0625 0.9375 1.975
0 0.9375 1.9125
0.0625 1 1.9125
0.0625 0.9375 1.9125
0.25 0.9375 1.975
0.25 1 1.9125
0.1875 1 1.975
0.25 0.9375 1.9125
0.1875 0.9375 1.975
0.1875 1 1.9125
0.1875 0.9375 1.9125
0.375 0.9375 1.975
0.375 1 1.9125
0.3125 1 1.975
0.375 0.9375 1.9125
0.3125 0.9375 1.975
0.3125 1 1.9125
0.3125 0.9375 1.9125
0.5 0.9375 1.975
0.5 1 1.9125
0.4375 1 1.975
0.5 0.9375 1.9125
0.4375 0.9375 1.975
0.4375 1 1.9125
0.4375 0.9375 1.9125
0.625 0.9375 1.975
0.625 1 1.9125
0.5625 1 1.975
0.625 0.9375 1.9125
0.5625 0.9375 1.975
0.5625 1 1.9125
0.5625 0.9375 1.9125
0.75 0.9375 1.975
0.75 1 1.9125
0.6875 1 1.975
0.75 0.9375 1.9125
0.6875 0.9375 1.975
0.6875 1 1.9125
0.6875 0.9375 1.9125
0.875 0.9375 1.975
0.875 1 1.9125
0.8125 1 1.975
0.875 0.9375 1.9125
0.8125 0.9375 1.975
0.8125 1 1.9125
0.8125 0.9375 1.9125
1 0.9375 1.975
1 1 1.9125
0.9375 1 1.975
1 0.9375 1.9125
0.9375 0.9375 1.975
0.9375 1 1.9125
0.9375 0.9375 1.9125
1.125 0.9375 1.975
1.125 1 1.9125
1.0625 1 1.975
1.125 0.9375 1.9125
1.0625 0.9375 1.975
1.0625 1 1.9125
1.0625 0.9375 1.9125
1.25 0.9375 1.975
1.25 1 1.9125
1.1875 1 1.975
1.25 0.9375 1.9125
1.1875 0.9375 1.975
1.1875 1 1.9125
1.1875 0.9375 1.9125
1.375 0.9375 1.975
1.375 1 1.9125
1.3125 1 1.975
1.375 0.9375 1.9125
1.3125 0.9375 1.975
1.3125 1 1.9125
1.3125 0.9375 1.9125
1.5 0.9375 1.975
1.5 1 1.9125
1.4375 1 1.975
1.5 0.9375 1.9125
1.4375 0.9375 1.975
1.4375 1 1.9125
1.4375 0.9375 1.9125
1.625 0.9375 1.975
1.625 1 1.9125
1.5625 1 1.975
1.625 0.9375 1.9125
1.5625 0.9375 1.975
1.5625 1 1.9125
1.5625 0.9375 1.9125
1.75 0.9375 1.975
1.75 1 1.9125
1.6875 1 1.975
1.75 0.9375 1.9125
1.6875 0.9375 1.975
1.6875 1 1.9125
1.6875 0.9375 1.9125
1.875 0.9375 1.975
1.875 1 1.9125
1.8125 1 1.975
1.875 0.9375 1.9125
1.8125 0.9375 1.975
1.8125 1 1.9125
1.8125 0.9375 1.9125
2 0.9375 1.975
2 1 1.9125
1.9375 1 1.975
2 0.9375 1.9125
1.9375 0.9375 1.975
1.9375 1 1.9125
1.9375 0.9375 1.9125
2.125 0.9375 1.975
2.125 1 1.9125
2.0625 1 1.975
2.125 0.9375 1.9125
2.0625 0.9375 1.975
2.0625 1 1.9125
2.0625 0.9375 1.9125
2.25 0.9375 1.975
2.25 1 1.9125
2.1875 1 1.975
2.25 0.9375 1.9125
2.1875 0.9375 1.975
2.1875 1 1.9125
2.1875 0.9375 1.9125
2.375 0.9375 1.975
2.375 1 1.9125
2.3125 1 1.975
2.375 0.9375 1.9125
2.3125 0.9375 1.975
2.3125 1 1.9125
2.3125 0.9375 1.9125
2.5 0.9375 1.975
2.5 1 1.9125
2.4375 1 1.975
2.5 0.9375 1.9125
2.4375 0.9375 1.975
2.4375 1 1.9125
2.4375 0.9375 1.9125
2.625 0.9375 1.975
2.625 1 1.9125
2.5625 1 1.975
2.625 0.9375 1.9125
2.5625 0.9375 1.975
2.5625 1 1.9125
2.5625 0.9375 1.9125
2.75 0.9375 1.975
2.75 1 1.9125
2.6875 1 1.975
2.75 0.9375 1.9125
2.6875 0.9375 1.975
2.6875 1 1.9125
2.6875 0.9375 1.9125
2.875 0.9375 1.975
2.875 1 1.9125
2.8125 1 1.975
2.875 0.9375 1.9125
2.8125 0.9375 1.975
2.8125 1 1.9125
2.8125 0.9375 1.9125
3 0.9375 1.975
3 1 1.9125
2.9375 1 1.975
3 0.9375 1.9125
2.9375 0.9375 1.975
2.9375 1 1.9125
2.9375 0.9375 1.9125
0.125 0 2.0375
0.0625 0 2.1
0 0 2.0375
0.125 0.0625 2.1
0 0.0625 2.1
0.125 0.125 2.0375
0.0625 0.125 2.1
0 0.125 2.0375
0.0625 0 2.0375
0.125 0.0625 2.0375
0.0625 0.0625 2.1
0 0.0625 2.0375
0.0625 0.125 2.0375
0.0625 0.0625 2.0375
0.25 0 2.0375
0.1875 0 2.1
0.25 0.0625 2.1
0.25 0.125 2.0375
0.1875 0.125 2.1
0.1875 0 2.0375
0.25 0.0625 2.0375
0.1875 0.0625 2.1
0.1875 0.125 2.0375
0.1875 0.0625 2.0375
0.375 0 2.0375
0.3125 0 2.1
0.375 0.0625 2.1
0.375 0.125 2.0375
0.3125 0.125 2.1
0.3125 0 2.0375
0.375 0.0625 2.0375
0.3125 0.0625 2.1
0.3125 0.125 2.0375
0.3125 0.0625 2.0375
0.5 0 2.0375
0.4375 0 2.1
0.5 0.0625 2.1
0.5 0.125 2.0375
0.4375 0.125 2.1
0.4375 0 2.0375
0.5 0.0625 2.0375
0.4375 0.0625 2.1
0.4375 0.125 2.0375
0.4375 0.0625 2.0375
0.625 0 2.0375
0.5625 0 2.1
0.625 0.0625 2.1
0.625 0.125 2.0375
0.5625 0.125 2.1
0.5625 0 2.0375
0.625 0.0625 2.0375
0.5625 0.0625 2.1
0.5625 0.125 2.0375
0.5625 0.0625 2.0375
0.75 0 2.0375
0.6875 0 2.1
0.75 0.0625 2.1
0.75 0.125 2.0375
0.6875 0.125 2.1
0.6875 0 2.0375
0.75 0.0625 2.0375
0.6875 0.0625 2.1
0.6875 0.125 2.0375
0.6875 0.0625 2.0375
0.875 0 2.0375
0.8125 0 2.1
0.875 0.0625 2.1
0.875 0.125 2.0375
0.8125 0.125 2.1
0.8125 0 2.0375
0.875 0.0625 2.0375
0.8125 0.0625 2.1
0.8125 0.125 2.0375
0.8125 0.0625 2.0375
1 0 2.0375
0.9375 0 2.1
1 0.0625 2.1
1 0.125 2.0375
0.9375 0.125 2.1
0.9375 0 2.0375
1 0.0625 2.0375
0.9375 0.0625 2.1
0.9375 0.125 2.0375
0.9375 0.0625 2.0375
1.125 0 2.0375
1.0625 0 2.1
1.125 0.0625 2.1
1.125 0.125 2.0375
1.0625 0.125 2.1
1.0625 0 2.0375
1.125 0.0625 2.0375
1.0625 0.0625 2.1
1.0625 0.125 2.0375
1.0625 0.0625 2.0375
1.25 0 2.0375
1.1875 0 2.1
1.25 0.0625 2.1
1.25 0.125 2.0375
1.1875 0.125 2.1
1.1875 0 2.0375
1.25 0.0625 2.0375
1.1875 0.0625 2.1
1.1875 0.125 2.0375
1.1875 0.0625 2.0375
1.375 0 2.0375
1.3125 0 2.1
1.375 0.0625 2.1
1.375 0.125 2.0375
1.3125 0.125 2.1
1.3125 0 2.0375
1.375 0.0625 2.0375
1.3125 0.0625 2.1
1.3125 0.125 2.0375
1.3125 0.0625 2.0375
1.5 0 2.0375
1.4375 0 2.1
1.5 0.0625 2.1
1.5 0.125 2.0375
1.4375 0.125 2.1
1.4375 0 2.0375
1.5 0.0625 2.0375
1.4375 0.0625 2.1
1.4375 0.125 2.0375
1.4375 0.0625 2.0375
1.625 0 2.0375
1.5625 0 2.1
1.625 0.0625 2.1
1.625 0.125 2.0375
1.5625 0.125 2.1
1.5625 0 2.0375
1.625 0.0625 2.0375
1.5625 0.0625 2.1
1.5625 0.125 2.0375
1.5625 0.0625 2.0375
1.75 0 2.0375
1.6875 0 2.1
1.75 0.0625 2.1
1.75 0.125 2.0375
1.6875 0.125 2.1
1.6875 0 2.0375
1.75 0.0625 2.0375
1.6875 0.0625 2.1
1.6875 0.125 2.0375
1.6875 0.0625 2.0375
1.875 0 2.0375
1.8125 0 2.1
1.875 0.0625 2.1
1.875 0.125 2.0375
1.8125 0.125 2.1
1.8125 0 2.0375
1.875 0.0625 2.0375
1.8125 0.0625 2.1
1.8125 0.125 2.0375
1.8125 0.0625 2.0375
2 0 2.0375
1.9375 0 2.1
2 0.0625 2.1
2 0.125 2.0375
1.9375 0.125 2.1
1.9375 0 2.0375
2 0.0625 2.0375
1.9375 0.0625 2.1
1.9375 0.125 2.0375
1.9375 0.0625 2.0375
2.125 0 2.0375
2.0625 0 2.1
2.125 0.0625 2.1
2.125 0.125 2.0375
2.0625 0.125 2.1
2.0625 0 2.0375
2.125 0.0625 2.0375
2.0625 0.0625 2.1
2.0625 0.125 2.0375
2.0625 0.0625 2.0375
2.25 0 2.0375
2.1875 0 2.1
2.25 0.0625 2.1
2.25 0.125 2.0375
2.1875 0.125 2.1
2.1875 0 2.0375
2.25 0.0625 2.0375
2.1875 0.0625 2.1
2.1875 0.125 2.0375
2.1875 0.0625 2.0375
2.375 0 2.0375
2.3125 0 2.1
2.375 0.0625 2.1
2.375 0.125 2.0375
2.3125 0.125 2.1
2.3125 0 2.0375
2.375 0.0625 2.0375
2.3125 0.0625 2.1
2.3125 0.125 2.0375
2.3125 0.0625 2.0375
2.5 0 2.0375
2.4375 0 2.1
2.5 0.0625 2.1
2.5 0.125 2.0375
2.4375 0.125 2.1
2.4375 0 2.0375
2.5 0.0625 2.0375
2.4375 0.0625 2.1
2.4375 0.125 2.0375
2.4375 0.0625 2.0375
2.625 0 2.0375
2.5625 0 2.1
2.625 0.0625 2.1
2.625 0.125 2.0375
2.5625 0.125 2.1
2.5625 0 2.0375
2.625 0.0625 2.0375
2.5625 0.0625 2.1
2.5625 0.125 2.0375
2.5625 0.0625 2.0375
2.75 0 2.0375
2.6875 0 2.1
2.75 0.0625 2.1
2.75 0.125 2.0375
2.6875 0.125 2.1
2.6875 0 2.0375
2.75 0.0625 2.0375
2.6875 0.0625 2.1
2.6875 0.125 2.0375
2.6875 0.0625 2.0375
2.875 0 2.0375
2.8125 0 2.1
2.875 0.0625 2.1
2.875 0.125 2.0375
2.8125 0.125 2.1
2.8125 0 2.0375
2.875 0.0625 2.0375
2.8125 0.0625 2.1
2.8125 0.125 2.0375
2.8125 0.0625 2.0375
3 0 2.0375
2.9375 0 2.1
3 0.0625 2.1
3 0.125 2.0375
2.9375 0.125 2.1
2.9375 0 2.0375
3 0.0625 2.0375
2.9375 0.0625 2.1
2.9375 0.125 2.0375
2.9375 0.0625 2.0375
0.125 0.1875 2.1
0 0.1875 2.1
0.125 0.25 2.0375
0.0625 0.25 2.1
0 0.25 2.0375
0.125 0.1875 2.0375
0.0625 0.1875 2.1
0 0.1875 2.0375
0.0625 0.25 2.0375
0.0625 0.1875 2.0375
0.25 0.1875 2.1
0.25 0.25 2.0375
0.1875 0.25 2.1
0.25 0.1875 2.0375
0.1875 0.1875 2.1
0.1875 0.25 2.0375
0.1875 0.1875 2.0375
0.375 0.1875 2.1
0.375 0.25 2.0375
0.3125 0.25 2.1
0.375 0.1875 2.0375
0.3125 0.1875 2.1
0.3125 0.25 2.0375
0.3125 0.1875 2.0375
0.5 0.1875 2.1
0.5 0.25 2.0375
0.4375 0.25 2.1
0.5 0.1875 2.0375
0.4375 0.1875 2.1
0.4375 0.25 2.0375
0.4375 0.1875 2.0375
0.625 0.1875 2.1
0.625 0.25 2.0375
0.5625 0.25 2.1
0.625 0.1875 2.0375
0.5625 0.1875 2.1
0.5625 0.25 2.0375
0.5625 0.1875 2.0375
0.75 0.1875 2.1
0.75 0.25 2.0375
0.6875 0.25 2.1
0.75 0.1875 2.0375
0.6875 0.1875 2.1
0.6875 0.25 2.0375
0.6875 0.1875 2.0375
0.875 0.1875 2.1
0.875 0.25 2.0375
0.8125 0.25 2.1
0.875 0.1875 2.0375
0.8125 0.1875 2.1
0.8125 0.25 2.0375
0.8125 0.1875 2.0375
1 0.1875 2.1
1 0.25 2.0375
0.9375 0.25 2.1
1 0.1875 2.0375
0.9375 0.1875 2.1
0.9375 0.25 2.0375
0.9375 0.1875 2.0375
1.125 0.1875 2.1
1.125 0.25 2.0375
1.0625 0.25 2.1
1.125 0.1875 2.0375
1.0625 0.1875 2.1
1.0625 0.25 2.0375
1.0625 0.1875 2.0375
1.25 0.1875 2.1
1.25 0.25 2.0375
1.1875 0.25 2.1
1.25 0.1875 2.0375
1.1875 0.1875 2.1
1.1875 0.25 2.0375
1.1875 0.1875 2.0375
1.375 0.1875 2.1
1.375 0.25 2.0375
1.3125 0.25 2.1
1.375 0.1875 2.0375
1.3125 0.1875 2.1
1.3125 0.25 2.0375
1.3125 0.1875 2.0375
1.5 0.1875 2.1
1.5 0.25 2.0375
1.4375 0.25 2.1
1.5 0.1875 2.0375
1.4375 0.1875 2.1
1.4375 0.25 2.0375
1.4375 0.1875 2.0375
1.625 0.1875 2.1
1.625 0.25 2.0375
1.5625 0.25 2.1
1.625 0.1875 2.0375
1.5625 0.1875 2.1
1.5625 0.25 2.0375
1.5625 0.1875 2.0375
1.75 0.1875 2.1
1.75 0.25 2.0375
1.6875 0.25 2.1
1.75 0.1875 2.0375
1.6875 0.1875 2.1
1.6875 0.25 2.0375
1.6875 0.1875 2.0375
1.875 0.1875 2.1
1.875 0.25 2.0375
1.8125 0.25 2.1
1.875 0.1875 2.0375
1.8125 0.1875 2.1
1.8125 0.25 2.0375
1.8125 0.1875 2.0375
2 0.1875 2.1
2 0.25 2.0375
1.9375 0.25 2.1
2 0.1875 2.0375
1.9375 0.1875 2.1
1.9375 0.25 2.0375
1.9375 0.1875 2.0375
2.125 0.1875 2.1
2.125 0.25 2.0375
2.0625 0.25 2.1
2.125 0.1875 2.0375
2.0625 0.1875 2.1
2.0625 0.25 2.0375
2.0625 0.1875 2.0375
2.25 0.1875 2.1
2.25 0.25 2.0375
2.1875 0.25 2.1
2.25 0.1875 2.0375
2.1875 0.1875 2.1
2.1875 0.25 2.0375
2.1875 0.1875 2.0375
2.375 0.1875 2.1
2.375 0.25 2.0375
2.3125 0.25 2.1
2.375 0.1875 2.0375
2.3125 0.1875 2.1
2.3125 0.25 2.0375
2.3125 0.1875 2.0375
2.5 0.1875 2.1
2.5 0.25 2.0375
2.4375 0.25 2.1
2.5 0.1875 2.0375
2.4375 0.1875 2.1
2.4375 0.25 2.0375
2.4375 0.1875 2.0375
2.625 0.1875 2.1
2.625 0.25 2.0375
2.5625 0.25 2.1
2.625 0.1875 2.0375
2.5625 0.1875 2.1
2.5625 0.25 2.0375
2.5625 0.1875 2.0375
2.75 0.1875 2.1
2.75 0.25 2.0375
2.6875 0.25 2.1
2.75 0.1875 2.0375
2.6875 0.1875 2.1
2.6875 0.25 2.0375
2.6875 0.1875 2.0375
2.875 0.1875 2.1
2.875 0.25 2.0375
2.8125 0.25 2.1
2.875 0.1875 2.0375
2.8125 0.1875 2.1
2.8125 0.25 2.0375
2.8125 0.1875 2.0375
3 0.1875 2.1
3 0.25 2.0375
2.9375 0.25 2.1
3 0.1875 2.0375
2.9375 0.1875 2.1
2.9375 0.25 2.0375
2.9375 0.1875 2.0375
0.125 0.3125 2.1
0 0.3125 2.1
0.125 0.375 2.0375
0.0625 0.375 2.1
0 0.375 2.0375
0.125 0.3125 2.0375
0.0625 0.3125 2.1
0 0.3125 2.0375
0.0625 0.375 2.0375
0.0625 0.3125 2.0375
0.25 0.3125 2.1
0.25 0.375 2.0375
0.1875 0.375 2.1
0.25 0.3125 2.0375
0.1875 0.3125 2.1
0.1875 0.375 2.0375
0.1875 0.3125 2.0375
0.375 0.3125 2.1
0.375 0.375 2.0375
0.3125 0.375 2.1
0.375 0.3125 2.0375
0.3125 0.3125 2.1
0.3125 0.375 2.0375
0.3125 0.3125 2.0375
0.5 0.3125 2.1
0.5 0.375 2.0375
0.4375 0.375 2.1
0.5 0.3125 2.0375
0.4375 0.3125 2.1
0.4375 0.375 2.0375
0.4375 0.3125 2.0375
0.625 0.3125 2.1
0.625 0.375 2.0375
0.5625 0.375 2.1
0.625 0.3125 2.0375
0.5625 0.3125 2.1
0.5625 0.375 2.0375
0.5625 0.3125 2.0375
0.75 0.3125 2.1
0.75 0.375 2.0375
0.6875 0.375 2.1
0.75 0.3125 2.0375
0.6875 0.3125 2.1
0.6875 0.375 2.0375
0.6875 0.3125 2.0375
0.875 0.3125 2.1
0.875 0.375 2.0375
0.8125 0.375 2.1
0.875 0.3125 2.0375
0.8125 0.3125 2.1
0.8125 0.375 2.0375
0.8125 0.3125 2.0375
1 0.3125 2.1
1 0.375 2.0375
0.9375 0.375 2.1
1 0.3125 2.0375
0.9375 0.3125 2.1
0.9375 0.375 2.0375
0.9375 0.3125 2.0375
1.125 0.3125 2.1
1.125 0.375 2.0375
1.0625 0.375 2.1
1.125 0.3125 2.0375
1.0625 0.3125 2.1
1.0625 0.375 2.0375
1.0625 0.3125 2.0375
1.25 0.3125 2.1
1.25 0.375 2.0375
1.1875 0.375 2.1
1.25 0.3125 2.0375
1.1875 0.3125 2.1
1.1875 0.375 2.0375
1.1875 0.3125 2.0375
1.375 0.3125 2.1
1.375 0.375 2.0375
1.3125 0.375 2.1
1.375 0.3125 2.0375
1.3125 0.3125 2.1
1.3125 0.375 2.0375
1.3125 0.3125 2.0375
1.5 0.3125 2.1
1.5 0.375 2.0375
1.4375 0.375 2.1
1.5 0.3125 2.0375
1.4375 0.3125 2.1
1.4375 0.375 2.0375
1.4375 0.3125 2.0375
1.625 0.3125 2.1
1.625 0.375 2.0375
1.5625 0.375 2.1
1.625 0.3125 2.0375
1.5625 0.3125 2.1
1.5625 0.375 2.0375
1.5625 0.3125 2.0375
1.75 0.3125 2.1
1.75 0.375 2.0375
1.6875 0.375 2.1
1.75 0.3125 2.0375
1.6875 0.3125 2.1
1.6875 0.375 2.0375
1.6875 0.3125 2.0375
1.875 0.3125 2.1
1.875 0.375 2.0375
1.8125 0.375 2.1
1.875 0.3125 2.0375
1.8125 0.3125 2.1
1.8125 0.375 2.0375
1.8125 0.3125 2.0375
2 0.3125 2.1
2 0.375 2.0375
1.9375 0.375 2.1
2 0.3125 2.0375
1.9375 0.3125 2.1
1.9375 0.375 2.0375
1.9375 0.3125 2.0375
2.125 0.3125 2.1
2.125 0.375 2.0375
2.0625 0.375 2.1
2.125 0.3125 2.0375
2.0625 0.3125 2.1
2.0625 0.375 2.0375
2.0625 0.3125 2.0375
2.25 0.3125 2.1
2.25 0.375 2.0375
2.1875 0.375 2.1
2.25 0.3125 2.0375
2.1875 0.3125 2.1
2.1875 0.375 2.0375
2.1875 0.3125 2.0375
2.375 0.3125 2.1
2.375 0.375 2.0375
2.3125 0.375 2.1
2.375 0.3125 2.0375
2.3125 0.3125 2.1
2.3125 0.375 2.0375
2.3125 0.3125 2.0375
2.5 0.3125 2.1
2.5 0.375 2.0375
2.4375 0.375 2.1
2.5 0.3125 2.0375
2.4375 0.3125 2.1
2.4375 0.375 2.0375
2.4375 0.3125 2.0375
2.625 0.3125 2.1
2.625 0.375 2.0375
2.5625 0.375 2.1
2.625 0.3125 2.0375
2.5625 0.3125 2.1
2.5625 0.375 2.0375
2.5625 0.3125 2.0375
2.75 0.3125 2.1
2.75 0.375 2.0375
2.6875 0.375 2.1
2.75 0.3125 2.0375
2.6875 0.3125 2.1
2.6875 0.375 2.0375
2.6875 0.3125 2.0375
2.875 0.3125 2.1
2.875 0.375 2.0375
2.8125 0.375 2.1
2.875 0.3125 2.0375
2.8125 0.3125 2.1
2.8125 0.375 2.0375
2.8125 0.3125 2.0375
3 0.3125 2.1
3 0.375 2.0375
2.9375 0.375 2.1
3 0.3125 2.0375
2.9375 0.3125 2.1
2.9375 0.375 2.0375
2.9375 0.3125 2.0375
0.125 0.4375 2.1
0 0.4375 2.1
0.125 0.5 2.0375
0.0625 0.5 2.1
0 0.5 2.0375
0.125 0.4375 2.0375
0.0625 0.4375 2.1
0 0.4375 2.0375
0.0625 0.5 2.0375
0.0625 0.4375 2.0375
0.25 0.4375 2.1
0.25 0.5 2.0375
0.1875 0.5 2.1
0.25 0.4375 2.0375
0.1875 0.4375 2.1
0.1875 0.5 2.0375
0.1875 0.4375 2.0375
0.375 0.4375 2.1
0.375 0.5 2.0375
0.3125 0.5 2.1
0.375 0.4375 2.0375
0.3125 0.4375 2.1
0.3125 0.5 2.0375
0.3125 0.4375 2.0375
0.5 0.4375 2.1
0.5 0.5 2.0375
0.4375 0.5 2.1
0.5 0.4375 2.0375
0.4375 0.4375 2.1
0.4375 0.5 2.0375
0.4375 0.4375 2.0375
0.625 0.4375 2.1
0.625 0.5 2.0375
0.5625 0.5 2.1
0.625 0.4375 2.0375
0.5625 0.4375 2.1
0.5625 0.5 2.0375
0.5625 0.4375 2.0375
0.75 0.4375 2.1
0.75 0.5 2.0375
0.6875 0.5 2.1
0.75 0.4375 2.0375
0.6875 0.4375 2.1
0.6875 0.5 2.0375
0.6875 0.4375 2.0375
0.875 0.4375 2.1
0.875 0.5 2.0375
0.8125 0.5 2.1
0.875 0.4375 2.0375
0.8125 0.4375 2.1
0.8125 0.5 2.0375
0.8125 0.4375 2.0375
1 0.4375 2.1
1 0.5 2.0375
0.9375 0.5 2.1
1 0.4375 2.0375
0.9375 0.4375 2.1
0.9375 0.5 2.0375
0.9375 0.4375 2.0375
1.125 0.4375 2.1
1.125 0.5 2.0375
1.0625 0.5 2.1
1.125 0.4375 2.0375
1.0625 0.4375 2.1
1.0625 0.5 2.0375
1.0625 0.4375 2.0375
1.25 0.4375 2.1
1.25 0.5 2.0375
1.1875 0.5 2.1
1.25 0.4375 2.0375
1.1875 0.4375 2.1
1.1875 0.5 2.0375
1.1875 0.4375 2.0375
1.375 0.4375 2.1
1.375 0.5 2.0375
1.3125 0.5 2.1
1.375 0.4375 2.0375
1.3125 0.4375 2.1
1.3125 0.5 2.0375
1.3125 0.4375 2.0375
1.5 0.4375 2.1
1.5 0.5 2.0375
1.4375 0.5 2.1
1.5 0.4375 2.0375
1.4375 0.4375 2.1
1.4375 0.5 2.0375
1.4375 0.4375 2.0375
1.625 0.4375 2.1
1.625 0.5 2.0375
1.5625 0.5 2.1
1.625 0.4375 2.0375
1.5625 0.4375 2.1
1.5625 0.5 2.0375
1.5625 0.4375 2.0375
1.75 0.4375 2.1
1.75 0.5 2.0375
1.6875 0.5 2.1
1.75 0.4375 2.0375
1.6875 0.4375 2.1
1.6875 0.5 2.0375
1.6875 0.4375 2.0375
1.875 0.4375 2.1
1.875 0.5 2.0375
1.8125 0.5 2.1
1.875 0.4375 2.0375
1.8125 0.4375 2.1
1.8125 0.5 2.0375
1.8125 0.4375 2.0375
2 0.4375 2.1
2 0.5 2.0375
1.9375 0.5 2.1
2 0.4375 2.0375
1.9375 0.4375 2.1
1.9375 0.5 2.0375
1.9375 0.4375 2.0375
2.125 0.4375 2.1
2.125 0.5 2.0375
2.0625 0.5 2.1
2.125 0.4375 2.0375
2.0625 0.4375 2.1
2.0625 0.5 2.0375
2.0625 0.4375 2.0375
2.25 0.4375 2.1
2.25 0.5 2.0375
2.1875 0.5 2.1
2.25 0.4375 2.0375
2.1875 0.4375 2.1
2.1875 0.5 2.0375
2.1875 0.4375 2.0375
2.375 0.4375 2.1
2.375 0.5 2.0375
2.3125 0.5 2.1
2.375 0.4375 2.0375
2.3125 0.4375 2.1
2.3125 0.5 2.0375
2.3125 0.4375 2.0375
2.5 0.4375 2.1
2.5 0.5 2.0375
2.4375 0.5 2.1
2.5 0.4375 2.0375
2.4375 0.4375 2.1
2.4375 0.5 2.0375
2.4375 0.4375 2.0375
2.625 0.4375 2.1
2.625 0.5 2.0375
2.5625 0.5 2.1
2.625 0.4375 2.0375
2.5625 0.4375 2.1
2.5625 0.5 2.0375
2.5625 0.4375 2.0375
2.75 0.4375 2.1
2.75 0.5 2.0375
2.6875 0.5 2.1
2.75 0.4375 2.0375
2.6875 0.4375 2.1
2.6875 0.5 2.0375
2.6875 0.4375 2.0375
2.875 0.4375 2.1
2.875 0.5 2.0375
2.8125 0.5 2.1
2.875 0.4375 2.0375
2.8125 0.4375 2.1
2.8125 0.5 2.0375
2.8125 0.4375 2.0375
3 0.4375 2.1
3 0.5 2.0375
2.9375 0.5 2.1
3 0.4375 2.0375
2.9375 0.4375 2.1
2.9375 0.5 2.0375
2.9375 0.4375 2.0375
0.125 0.5625 2.1
0 0.5625 2.1
0.125 0.625 2.0375
0.0625 0.625 2.1
0 0.625 2.0375
0.125 0.5625 2.0375
0.0625 0.5625 2.1
0 0.5625 2.0375
0.0625 0.625 2.0375
0.0625 0.5625 2.0375
0.25 0.5625 2.1
0.25 0.625 2.0375
0.1875 0.625 2.1
0.25 0.5625 2.0375
0.1875 0.5625 2.1
0.1875 0.625 2.0375
0.1875 0.5625 2.0375
0.375 0.5625 2.1
0.375 0.625 2.0375
0.3125 0.625 2.1
0.375 0.5625 2.0375
0.3125 0.5625 2.1
0.3125 0.625 2.0375
0.3125 0.5625 2.0375
0.5 0.5625 2.1
0.5 0.625 2.0375
0.4375 0.625 2.1
0.5 0.5625 2.0375
0.4375 0.5625 2.1
0.4375 0.625 2.0375
0.4375 0.5625 2.0375
0.625 0.5625 2.1
0.625 0.625 2.0375
0.5625 0.625 2.1
0.625 0.5625 2.0375
0.5625 0.5625 2.1
0.5625 0.625 2.0375
0.5625 0.5625 2.0375
0.75 0.5625 2.1
0.75 0.625 2.0375
0.6875 0.625 2.1
0.75 0.5625 2.0375
0.6875 0.5625 2.1
0.6875 0.625 2.0375
0.6875 0.5625 2.0375
0.875 0.5625 2.1
0.875 0.625 2.0375
0.8125 0.625 2.1
0.875 0.5625 2.0375
0.8125 0.5625 2.1
0.8125 0.625 2.0375
0.8125 0.5625 2.0375
1 0.5625 2.1
1 0.625 2.0375
0.9375 0.625 2.1
1 0.5625 2.0375
0.9375 0.5625 2.1
0.9375 0.625 2.0375
0.9375 0.5625 2.0375
1.125 0.5625 2.1
1.125 0.625 2.0375
1.0625 0.625 2.1
1.125 0.5625 2.0375
1.0625 0.5625 2.1
1.0625 0.625 2.0375
1.0625 0.5625 2.0375
1.25 0.5625 2.1
1.25 0.625 2.0375
1.1875 0.625 2.1
1.25 0.5625 2.0375
1.1875 0.5625 2.1
1.1875 0.625 2.0375
1.1875 0.5625 2.0375
1.375 0.5625 2.1
1.375 0.625 2.0375
1.3125 0.625 2.1
1.375 0.5625 2.0375
1.3125 0.5625 2.1
1.3125 0.625 2.0375
1.3125 0.5625 2.0375
1.5 0.5625 2.1
1.5 0.625 2.0375
1.4375 0.625 2.1
1.5 0.5625 2.0375
1.4375 0.5625 2.1
1.4375 0.625 2.0375
1.4375 0.5625 2.0375
1.625 0.5625 2.1
1.625 0.625 2.0375
1.5625 0.625 2.1
1.625 0.5625 2.0375
1.5625 0.5625 2.1
1.5625 0.625 2.0375
1.5625 0.5625 2.0375
1.75 0.5625 2.1
1.75 0.625 2.0375
1.6875 0.625 2.1
1.75 0.5625 2.0375
1.6875 0.5625 2.1
1.6875 0.625 2.0375
1.6875 0.5625 2.0375
1.875 0.5625 2.1
1.875 0.625 2.0375
1.8125 0.625 2.1
1.875 0.5625 2.0375
1.8125 0.5625 2.1
1.8125 0.625 2.0375
1.8125 0.5625 2.0375
2 0.5625 2.1
2 0.625 2.0375
1.9375 0.625 2.1
2 0.5625 2.0375
1.9375 0.5625 2.1
1.9375 0.625 2.0375
1.9375 0.5625 2.0375
2.125 0.5625 2.1
2.125 0.625 2.0375
2.0625 0.625 2.1
2.125 0.5625 2.0375
2.0625 0.5625 2.1
2.0625 0.625 2.0375
2.0625 0.5625 2.0375
2.25 0.5625 2.1
2.25 0.625 2.0375
2.1875 0.625 2.1
2.25 0.5625 2.0375
2.1875 0.5625 2.1
2.1875 0.625 2.0375
2.1875 0.5625 2.0375
2.375 0.5625 2.1
2.375 0.625 2.0375
2.3125 0.625 2.1
2.375 0.5625 2.0375
2.3125 0.5625 2.1
2.3125 0.625 2.0375
2.3125 0.5625 2.0375
2.5 0.5625 2.1
2.5 0.625 2.0375
2.4375 0.625 2.1
2.5 0.5625 2.0375
2.4375 0.5625 2.1
2.4375 0.625 2.0375
2.4375 0.5625 2.0375
2.625 0.5625 2.1
2.625 0.625 2.0375
2.5625 0.625 2.1
2.625 0.5625 2.0375
2.5625 0.5625 2.1
2.5625 0.625 2.0375
2.5625 0.5625 2.0375
2.75 0.5625 2.1
2.75 0.625 2.0375
2.6875 0.625 2.1
2.75 0.5625 2.0375
2.6875 0.5625 2.1
2.6875 0.625 2.0375
2.6875 0.5625 2.0375
2.875 0.5625 2.1
2.875 0.625 2.0375
2.8125 0.625 2.1
2.875 0.5625 2.0375
2.8125 0.5625 2.1
2.8125 0.625 2.0375
2.8125 0.5625 2.0375
3 0.5625 2.1
3 0.625 2.0375
2.9375 0.625 2.1
3 0.5625 2.0375
2.9375 0.5625 2.1
2.9375 0.625 2.0375
2.9375 0.5625 2.0375
0.125 0.6875 2.1
0 0.6875 2.1
0.125 0.75 2.0375
0.0625 0.75 2.1
0 0.75 2.0375
0.125 0.6875 2.0375
0.0625 0.6875 2.1
0 0.6875 2.0375
0.0625 0.75 2.0375
0.0625 0.6875 2.0375
0.25 0.6875 2.1
0.25 0.75 2.0375
0.1875 0.75 2.1
0.25 0.6875 2.0375
0.1875 0.6875 2.1
0.1875 0.75 2.0375
0.1875 0.6875 2.0375
0.375 0.6875 2.1
0.375 0.75 2.0375
0.3125 0.75 2.1
0.375 0.6875 2.0375
0.3125 0.6875 2.1
0.3125 0.75 2.0375
0.3125 0.6875 2.0375
0.5 0.6875 2.1
0.5 0.75 2.0375
0.4375 0.75 2.1
0.5 0.6875 2.0375
0.4375 0.6875 2.1
0.4375 0.75 2.0375
0.4375 0.6875 2.0375
0.625 0.6875 2.1
0.625 0.75 2.0375
0.5625 0.75 2.1
0.625 0.6875 2.0375
0.5625 0.6875 2.1
0.5625 0.75 2.0375
0.5625 0.6875 2.0375
0.75 0.6875 2.1
0.75 0.75 2.0375
0.6875 0.75 2.1
0.75 0.6875 2.0375
0.6875 0.6875 2.1
0.6875 0.75 2.0375
0.6875 0.6875 2.0375
0.875 0.6875 2.1
0.875 0.75 2.0375
0.8125 0.75 2.1
0.875 0.6875 2.0375
0.8125 0.6875 2.1
0.8125 0.75 2.0375
0.8125 0.6875 2.0375
1 0.6875 2.1
1 0.75 2.0375
0.9375 0.75 2.1
1 0.6875 2.0375
0.9375 0.6875 2.1
0.9375 0.75 2.0375
0.9375 0.6875 2.0375
1.125 0.6875 2.1
1.125 0.75 2.0375
1.0625 0.75 2.1
1.125 0.6875 2.0375
1.0625 0.6875 2.1
1.0625 0.75 2.0375
1.0625 0.6875 2.0375
1.25 0.6875 2.1
1.25 0.75 2.0375
1.1875 0.75 2.1
1.25 0.6875 2.0375
1.1875 0.6875 2.1
1.1875 0.75 2.0375
1.1875 0.6875 2.0375
1.375 0.6875 2.1
1.375 0.75 2.0375
1.3125 0.75 2.1
1.375 0.6875 2.0375
1.3125 0.6875 2.1
1.3125 0.75 2.0375
1.3125 0.6875 2.0375
1.5 0.6875 2.1
1.5 0.75 2.0375
1.4375 0.75 2.1
1.5 0.6875 2.0375
1.4375 0.6875 2.1
1.4375 0.75 2.0375
1.4375 0.6875 2.0375
1.625 0.6875 2.1
1.625 0.75 2.0375
1.5625 0.75 2.1
1.625 0.6875 2.0375
1.5625 0.6875 2.1
1.5625 0.75 2.0375
1.5625 0.6875 2.0375
1.75 0.6875 2.1
1.75 0.75 2.0375
1.6875 0.75 2.1
1.75 0.6875 2.0375
1.6875 0.6875 2.1
1.6875 0.75 2.0375
1.6875 0.6875 2.0375
1.875 0.6875 2.1
1.875 0.75 2.0375
1.8125 0.75 2.1
1.875 0.6875 2.0375
1.8125 0.6875 2.1
1.8125 0.75 2.0375
1.8125 0.6875 2.0375
2 0.6875 2.1
2 0.75 2.0375
1.9375 0.75 2.1
2 0.6875 2.0375
1.9375 0.6875 2.1
1.9375 0.75 2.0375
1.9375 0.6875 2.0375
2.125 0.6875 2.1
2.125 0.75 2.0375
2.0625 0.75 2.1
2.125 0.6875 2.0375
2.0625 0.6875 2.1
2.0625 0.75 2.0375
2.0625 0.6875 2.0375
2.25 0.6875 2.1
2.25 0.75 2.0375
2.1875 0.75 2.1
2.25 0.6875 2.0375
2.1875 0.6875 2.1
2.1875 0.75 2.0375
2.1875 0.6875 2.0375
2.375 0.6875 2.1
2.375 0.75 2.0375
2.3125 0.75 2.1
2.375 0.6875 2.0375
2.3125 0.6875 2.1
2.3125 0.75 2.0375
2.3125 0.6875 2.0375
2.5 0.6875 2.1
2.5 0.75 2.0375
2.4375 0.75 2.1
2.5 0.6875 2.0375
2.4375 0.6875 2.1
2.4375 0.75 2.0375
2.4375 0.6875 2.0375
2.625 0.6875 2.1
2.625 0.75 2.0375
2.5625 0.75 2.1
2.625 0.6875 2.0375
2.5625 0.6875 2.1
2.5625 0.75 2.0375
2.5625 0.6875 2.0375
2.75 0.6875 2.1
2.75 0.75 2.0375
2.6875 0.75 2.1
2.75 0.6875 2.0375
2.6875 0.6875 2.1
2.6875 0.75 2.0375
2.6875 0.6875 2.0375
2.875 0.6875 2.1
2.875 0.75 2.0375
2.8125 0.75 2.1
2.875 0.6875 2.0375
2.8125 0.6875 2.1
2.8125 0.75 2.0375
2.8125 0.6875 2.0375
3 0.6875 2.1
3 0.75 2.0375
2.9375 0.75 2.1
3 0.6875 2.0375
2.9375 0.6875 2.1
2.9375 0.75 2.0375
2.9375 0.6875 2.0375
0.125 0.8125 2.1
0 0.8125 2.1
0.125 0.875 2.0375
0.0625 0.875 2.1
0 0.875 2.0375
0.125 0.8125 2.0375
0.0625 0.8125 2.1
0 0.8125 2.0375
0.0625 0.875 2.0375
0.0625 0.8125 2.0375
0.25 0.8125 2.1
0.25 0.875 2.0375
0.1875 0.875 2.1
0.25 0.8125 2.0375
0.1875 0.8125 2.1
0.1875 0.875 2.0375
0.1875 0.8125 2.0375
0.375 0.8125 2.1
0.375 0.875 2.0375
0.3125 0.875 2.1
0.375 0.8125 2.0375
0.3125 0.8125 2.1
0.3125 0.875 2.0375
0.3125 0.8125 2.0375
0.5 0.8125 2.1
0.5 0.875 2.0375
0.4375 0.875 2.1
0.5 0.8125 2.0375
0.4375 0.8125 2.1
0.4375 0.875 2.0375
0.4375 0.8125 2.0375
0.625 0.8125 2.1
0.625 0.875 2.0375
0.5625 0.875 2.1
0.625 0.8125 2.0375
0.5625 0.8125 2.1
0.5625 0.875 2.0375
0.5625 0.8125 2.0375
0.75 0.8125 2.1
0.75 0.875 2.0375
0.6875 0.875 2.1
0.75 0.8125 2.0375
0.6875 0.8125 2.1
0.6875 0.875 2.0375
0.6875 0.8125 2.0375
0.875 0.8125 2.1
0.875 0.875 2.0375
0.8125 0.875 2.1
0.875 0.8125 2.0375
0.8125 0.8125 2.1
0.8125 0.875 2.0375
0.8125 0.8125 2.0375
1 0.8125 2.1
1 0.875 2.0375
0.9375 0.875 2.1
1 0.8125 2.0375
0.9375 0.8125 2.1
0.9375 0.875 2.0375
0.9375 0.8125 2.0375
1.125 0.8125 2.1
1.125 0.875 2.0375
1.0625 0.875 2.1
1.125 0.8125 2.0375
1.0625 0.8125 2.1
1.0625 0.875 2.0375
1.0625 0.8125 2.0375
1.25 0.8125 2.1
1.25 0.875 2.0375
1.1875 0.875 2.1
1.25 0.8125 2.0375
1.1875 0.8125 2.1
1.1875 0.875 2.0375
1.1875 0.8125 2.0375
1.375 0.8125 2.1
1.375 0.875 2.0375
1.3125 0.875 2.1
1.375 0.8125 2.0375
1.3125 0.8125 2.1
1.3125 0.875 2.0375
1.3125 0.8125 2.0375
1.5 0.8125 2.1
1.5 0.875 2.0375
1.4375 0.875 2.1
1.5 0.8125 2.0375
1.4375 0.8125 2.1
1.4375 0.875 2.0375
1.4375 0.8125 2.0375
1.625 0.8125 2.1
1.625 0.875 2.0375
1.5625 0.875 2.1
1.625 0.8125 2.0375
1.5625 0.8125 2.1
1.5625 0.875 2.0375
1.5625 0.8125 2.0375
1.75 0.8125 2.1
1.75 0.875 2.0375
1.6875 0.875 2.1
1.75 0.8125 2.0375
1.6875 0.8125 2.1
1.6875 0.875 2.0375
1.6875 0.8125 2.0375
1.875 0.8125 2.1
1.875 0.875 2.0375
1.8125 0.875 2.1
1.875 0.8125 2.0375
1.8125 0.8125 2.1
1.8125 0.875 2.0375
1.8125 0.8125 2.0375
2 0.8125 2.1
2 0.875 2.0375
1.9375 0.875 2.1
2 0.8125 2.0375
1.9375 0.8125 2.1
1.9375 0.875 2.0375
1.9375 0.8125 2.0375
2.125 0.8125 2.1
2.125 0.875 2.0375
2.0625 0.875 2.1
2.125 0.8125 2.0375
2.0625 0.8125 2.1
2.0625 0.875 2.0375
2.0625 0.8125 2.0375
2.25 0.8125 2.1
2.25 0.875 2.0375
2.1875 0.875 2.1
2.25 0.8125 2.0375
2.1875 0.8125 2.1
2.1875 0.875 2.0375
2.1875 0.8125 2.0375
2.375 0.8125 2.1
2.375 0.875 2.0375
2.3125 0.875 2.1
2.375 0.8125 2.0375
2.3125 0.8125 2.1
2.3125 0.875 2.0375
2.3125 0.8125 2.0375
2.5 0.8125 2.1
2.5 0.875 2.0375
2.4375 0.875 2.1
2.5 0.8125 2.0375
2.4375 0.8125 2.1
2.4375 0.875 2.0375
2.4375 0.8125 2.0375
2.625 0.8125 2.1
2.625 0.875 2.0375
2.5625 0.875 2.1
2.625 0.8125 2.0375
2.5625 0.8125 2.1
2.5625 0.875 2.0375
2.5625 0.8125 2.0375
2.75 0.8125 2.1
2.75 0.875 2.0375
2.6875 0.875 2.1
2.75 0.8125 2.0375
2.6875 0.8125 2.1
2.6875 0.875 2.0375
2.6875 0.8125 2.0375
2.875 0.8125 2.1
2.875 0.875 2.0375
2.8125 0.875 2.1
2.875 0.8125 2.0375
2.8125 0.8125 2.1
2.8125 0.875 2.0375
2.8125 0.8125 2.0375
3 0.8125 2.1
3 0.875 2.0375
2.9375 0.875 2.1
3 0.8125 2.0375
2.9375 0.8125 2.1
2.9375 0.875 2.0375
2.9375 0.8125 2.0375
0.125 0.9375 2.1
0 0.9375 2.1
0.125 1 2.0375
0.0625 1 2.1
0 1 2.0375
0.125 0.9375 2.0375
0.0625 0.9375 2.1
0 0.9375 2.0375
0.0625 1 2.0375
0.0625 0.9375 2.0375
0.25 0.9375 2.1
0.25 1 2.0375
0.1875 1 2.1
0.25 0.9375 2.0375
0.1875 0.9375 2.1
0.1875 1 2.0375
0.1875 0.9375 2.0375
0.375 0.9375 2.1
0.375 1 2.0375
0.3125 1 2.1
0.375 0.9375 2.0375
0.3125 0.9375 2.1
0.3125 1 2.0375
0.3125 0.9375 2.0375
0.5 0.9375 2.1
0.5 1 2.0375
0.4375 1 2.1
0.5 0.9375 2.0375
0.4375 0.9375 2.1
0.4375 1 2.0375
0.4375 0.9375 2.0375
0.625 0.9375 2.1
0.625 1 2.0375
0.5625 1 2.1
0.625 0.9375 2.0375
0.5625 0.9375 2.1
0.5625 1 2.0375
0.5625 0.9375 2.0375
0.75 0.9375 2.1
0.75 1 2.0375
0.6875 1 2.1
0.75 0.9375 2.0375
0.6875 0.9375 2.1
0.6875 1 2.0375
0.6875 0.9375 2.0375
0.875 0.9375 2.1
0.875 1 2.0375
0.8125 1 2.1
0.875 0.9375 2.0375
0.8125 0.9375 2.1
0.8125 1 2.0375
0.8125 0.9375 2.0375
1 0.9375 2.1
1 1 2.0375
0.9375 1 2.1
1 0.9375 2.0375
0.9375 0.9375 2.1
0.9375 1 2.0375
0.9375 0.9375 2.0375
1.125 0.9375 2.1
1.125 1 2.0375
1.0625 1 2.1
1.125 0.9375 2.0375
1.0625 0.9375 2.1
1.0625 1 2.0375
1.0625 0.9375 2.0375
1.25 0.9375 2.1
1.25 1 2.0375
1.1875 1 2.1
1.25 0.9375 2.0375
1.1875 0.9375 2.1
1.1875 1 2.0375
1.1875 0.9375 2.0375
1.375 0.9375 2.1
1.375 1 2.0375
1.3125 1 2.1
1.375 0.9375 2.0375
1.3125 0.9375 2.1
1.3125 1 2.0375
1.3125 0.9375 2.0375
1.5 0.9375 2.1
1.5 1 2.0375
1.4375 1 2.1
1.5 0.9375 2.0375
1.4375 0.9375 2.1
1.4375 1 2.0375
1.4375 0.9375 2.0375
1.625 0.9375 2.1
1.625 1 2.0375
1.5625 1 2.1
1.625 0.9375 2.0375
1.5625 0.9375 2.1
1.5625 1 2.0375
1.5625 0.9375 2.0375
1.75 0.9375 2.1
1.75 1 2.0375
1.6875 1 2.1
1.75 0.9375 2.0375
1.6875 0.9375 2.1
1.6875 1 2.0375
1.6875 0.9375 2.0375
1.875 0.9375 2.1
1.875 1 2.0375
1.8125 1 2.1
1.875 0.9375 2.0375
1.8125 0.9375 2.1
1.8125 1 2.0375
1.8125 0.9375 2.0375
2 0.9375 2.1
2 1 2.0375
1.9375 1 2.1
2 0.9375 2.0375
1.9375 0.9375 2.1
1.9375 1 2.0375
1.9375 0.9375 2.0375
2.125 0.9375 2.1
2.125 1 2.0375
2.0625 1 2.1
2.125 0.9375 2.0375
2.0625 0.9375 2.1
2.0625 1 2.0375
2.0625 0.9375 2.0375
2.25 0.9375 2.1
2.25 1 2.0375
2.1875 1 2.1
2.25 0.9375 2.0375
2.1875 0.9375 2.1
2.1875 1 2.0375
2.1875 0.9375 2.0375
2.375 0.9375 2.1
2.375 1 2.0375
2.3125 1 2.1
2.375 0.9375 2.0375
2.3125 0.9375 2.1
2.3125 1 2.0375
2.3125 0.9375 2.0375
2.5 0.9375 2.1
2.5 1 2.0375
2.4375 1 2.1
2.5 0.9375 2.0375
2.4375 0.9375 2.1
2.4375 1 2.0375
2.4375 0.9375 2.0375
2.625 0.9375 2.1
2.625 1 2.0375
2.5625 1 2.1
2.625 0.9375 2.0375
2.5625 0.9375 2.1
2.5625 1 2.0375
2.5625 0.9375 2.0375
2.75 0.9375 2.1
2.75 1 2.0375
2.6875 1 2.1
2.75 0.9375 2.0375
2.6875 0.9375 2.1
2.6875 1 2.0375
2.6875 0.9375 2.0375
2.875 0.9375 2.1
2.875 1 2.0375
2.8125 1 2.1
2.875 0.9375 2.0375
2.8125 0.9375 2.1
2.8125 1 2.0375
2.8125 0.9375 2.0375
3 0.9375 2.1
3 1 2.0375
2.9375 1 2.1
3 0.9375 2.0375
2.9375 0.9375 2.1
2.9375 1 2.0375
2.9375 0.9375 2.0375

CELLS 1537 41472
OFFSETS vtktypeint64
0 27 54 81 108 135 162 189 216 243 270 297 324 351 378 405 432 459 486 513 540 567 594 621 648 675 702 729 756 783 810 837 864 891 918 945 972 999 1026 1053 1080 1107 1134 1161 1188 1215 1242 1269 1296 1323 1350 1377 1404 1431 1458 1485 1512 1539 1566 1593 1620 1647 1674 1701 1728 1755 1782 1809 1836 1863 1890 1917 1944 1971 1998 2025 2052 2079 2106 2133 2160 2187 2214 2241 2268 2295 2322 2349 2376 2403 2430 2457 2484 2511 2538 2565 2592 2619 2646 2673 2700 2727 2754 2781 2808 2835 2862 2889 2916 2943 2970 2997 3024 3051 3078 3105 3132 3159 3186 3213 3240 3267 3294 3321 3348 3375 3402 3429 3456 3483 3510 3537 3564 3591 3618 3645 3672 3699 3726 3753 3780 3807 3834 3861 3888 3915 3942 3969 3996 4023 4050 4077 4104 4131 4158 4185 4212 4239 4266 4293 4320 4347 4374 4401 4428 4455 4482 4509 4536 4563 4590 4617 4644 4671 4698 4725 4752 4779 4806 4833 4860 4887 4914 4941 4968 4995 5022 5049 5076 5103 5130 5157 5184 5211 5238 5265 5292 5319 5346 5373 5400 5427 5454 5481 5508 5535 5562 5589 5616 5643 5670 5697 5724 5751 5778 5805 5832 5859 5886 5913 5940 5967 5994 6021 6048 6075 6102 6129 6156 6183 6210 6237 6264 6291 6318 6345 6372 6399 6426 6453 6480 6507 6534 6561 6588 6615 6642 6669 6696 6723 6750 6777 6804 6831 6858 6885 6912 6939 6966 6993 7020 7047 7074 7101 7128 7155 7182 7209 7236 7263 7290 7317 7344 7371 7398 7425 7452 7479 7506 7533 7560 7587 7614 7641 7668 7695 7722 7749 7776 7803 7830 7857 7884 7911 7938 7965 7992 8019 8046 8073 8100 8127 8154 8181 8208 8235 8262 8289 8316 8343 8370 8397 8424 8451 8478 8505 8532 8559 8586 8613 8640 8667 8694 8721 8748 8775 8802 8829 8856 8883 8910 8937 8964 8991 9018 9045 9072 9099 9126 9153 9180 9207 9234 9261 9288 9315 9342 9369 9396 9423 9450 9477 9504 9531 9558 9585 9612 9639 9666 9693 9720 9747 9774 9801 9828 9855 9882 9909 9936 9963 9990 10017 10044 10071 10098 10125 10152 10179 10206 10233 10260 10287 10314 10341 10368 10395 10422 10449 10476 10503 10530 10557 10584 10611 10638 10665 10692 10719 10746 10773 10800 10827 10854 10881 10908 10935 10962 10989 11016 11043 11070 11097 11124 11151 11178 11205 11232 11259 11286 11313 11340 11367 11394 11421 11448 11475 11502 11529 11556 11583 11610 11637 11664 11691 11718 11745 11772 11799 11826 11853 11880 11907 11934 11961 11988 12015 12042 12069 12096 12123 12150 12177 12204 12231 12258 12285 12312 12339 12366 12393 12420 12447 12474 12501 12528 12555 12582 12609 12636 12663 12690 12717 12744 12771 12798 12825 12852 12879 12906 12933 12960 12987 13014 13041 13068 13095 13122 13149 13176 13203 13230 13257 13284 13311 13338 13365 13392 13419 13446 13473 13500 13527 13554 13581 13608 13635 13662 13689 13716 13743 13770 13797 13824 13851 13878 13905 13932 13959 13986 14013 14040 14067 14094 14121 14148 14175 14202 14229 14256 14283 14310 14337 14364 14391 14418 14445 14472 14499 14526 14553 14580 14607 14634 14661 14688 14715 14742 14769 14796 14823 14850 14877 14904 14931 14958 14985 15012 15039 15066 15093 15120 15147 15174 15201 15228 15255 15282 15309 15336 15363 15390 15417 15444 15471 15498 15525 15552 15579 15606 15633 15660 15687 15714 15741 15768 15795 15822 15849 15876 15903 15930 15957 15984 16011 16038 16065 16092 16119 16146 16173 16200 16227 16254 16281 16308 16335 16362 16389 16416 16443 16470 16497 16524 16551 16578 16605 16632 16659 16686 16713 16740 16767 16794 16821 16848 16875 16902 16929 16956 16983 17010 17037 17064 17091 17118 17145 17172 17199 17226 17253 17280 17307 17334 17361 17388 17415 17442 17469 17496 17523 17550 17577 17604 17631 17658 17685 17712 17739 17766 17793 17820 17847 17874 17901 17928 17955 17982 18009 18036 18063 18090 18117 18144 18171 18198 18225 18252 18279 18306 18333 18360 18387 18414 18441 18468 18495 18522 18549 18576 18603 18630 18657 18684 18711 18738 18765 18792 18819 18846 18873 18900 18927 18954 18981 19008 19035 19062 19089 19116 19143 19170 19197 19224 19251 19278 19305 19332 19359 19386 19413 19440 19467 19494 19521 19548 19575 19602 19629 19656 19683 19710 19737 19764 19791 19818 19845 19872 19899 19926 19953 19980 20007 20034 20061 20088 20115 20142 20169 20196 20223 20250 20277 20304 20331 20358 20385 20412 20439 20466 20493 20520 20547 20574 20601 20628 20655 20682 20709 20736 20763 20790 20817 20844 20871 20898 20925 20952 20979 21006 21033 21060 21087 21114 21141 21168 21195 21222 21249 21276 21303 21330 21357 21384 21411 21438 21465 21492 21519 21546 21573 21600 21627 21654 21681 21708 21735 21762 21789 21816 21843 21870 21897 21924 21951 21978 22005 22032 22059 22086 22113 22140 22167 22194 22221 22248 22275 22302 22329 22356 22383 22410 22437 22464 22491 22518 22545 22572 22599 22626 22653 22680 22707 22734 22761 22788 22815 22842 22869 22896 22923 22950 22977 23004 23031 23058 23085 23112 23139 23166 23193 23220 23247 23274 23301 23328 23355 23382 23409 23436 23463 23490 23517 23544 23571 23598 23625 23652 23679 23706 23733 23760 23787 23814 23841 23868 23895 23922 23949 23976 24003 24030 24057 24084 24111 24138 24165 24192 24219 24246 24273 24300 24327 24354 24381 24408 24435 24462 24489 24516 24543 24570 24597 24624 24651 24678 24705 24732 24759 24786 24813 24840 24867 24894 24921 24948 24975 25002 25029 25056 25083 25110 25137 25164 25191 25218 25245 25272 25299 25326 25353 25380 25407 25434 25461 25488 25515 25542 25569 25596 25623 25650 25677 25704 25731 25758 25785 25812 25839 25866 25893 25920 25947 25974 26001 26028 26055 26082 26109 26136 26163 26190 26217 26244 26271 26298 26325 26352 26379 26406 26433 26460 26487 26514 26541 26568 26595 26622 26649 26676 26703 26730 26757 26784 26811 26838 26865 26892 26919 26946 26973 27000 27027 27054 27081 27108 27135 27162 27189 27216 27243 27270 27297 27324 27351 27378 27405 27432 27459 27486 27513 27540 27567 27594 27621 27648 27675 27702 27729 27756 27783 27810 27837 27864 27891 27918 27945 27972 27999 28026 28053 28080 28107 28134 28161 28188 28215 28242 28269 28296 28323 28350 28377 28404 28431 28458 28485 28512 28539 28566 28593 28620 28647 28674 28701 28728 28755 28782 28809 28836 28863 28890 28917 28944 28971 28998 29025 29052 29079 29106 29133 29160 29187 29214 29241 29268 29295 29322 29349 29376 29403 29430 29457 29484 29511 29538 29565 29592 29619 29646 29673 29700 29727 29754 29781 29808 29835 29862 29889 29916 29943 29970 29997 30024 30051 30078 30105 30132 30159 30186 30213 30240 30267 30294 30321 30348 30375 30402 30429 30456 30483 30510 30537 30564 30591 30618 30645 30672 30699 30726 30753 30780 30807 30834 30861 30888 30915 30942 30969 30996 31023 31050 31077 31104 31131 31158 31185 31212 31239 31266 31293 31320 31347 31374 31401 31428 31455 31482 31509 31536 31563 31590 31617 31644 31671 31698 31725 31752 31779 31806 31833 31860 31887 31914 31941 31968 31995 32022 32049 32076 32103 32130 32157 32184 32211 32238 32265 32292 32319 32346 32373 32400 32427 32454 32481 32508 32535 32562 32589 32616 32643 32670 32697 32724 32751 32778 32805 32832 32859 32886 32913 32940 32967 32994 33021 33048 33075 33102 33129 33156 33183 33210 33237 33264 33291 33318 33345 33372 33399 33426 33453 33480 33507 33534 33561 33588 33615 33642 33669 33696 33723 33750 33777 33804 33831 33858 33885 33912 33939 33966 33993 34020 34047 34074 34101 34128 34155 34182 34209 34236 34263 34290 34317 34344 34371 34398 34425 34452 34479 34506 34533 34560 34587 34614 34641 34668 34695 34722 34749 34776 34803 34830 34857 34884 34911 34938 34965 34992 35019 35046 35073 35100 35127 35154 35181 35208 35235 35262 35289 35316 35343 35370 35397 35424 35451 35478 35505 35532 35559 35586 35613 35640 35667 35694 35721 35748 35775 35802 35829 35856 35883 35910 35937 35964 35991 36018 36045 36072 36099 36126 36153 36180 36207 36234 36261 36288 36315 36342 36369 36396 36423 36450 36477 36504 36531 36558 36585 36612 36639 36666 36693 36720 36747 36774 36801 36828 36855 36882 36909 36936 36963 36990 37017 37044 37071 37098 37125 37152 37179 37206 37233 37260 37287 37314 37341 37368 37395 37422 37449 37476 37503 37530 37557 37584 37611 37638 37665 37692 37719 37746 37773 37800 37827 37854 37881 37908 37935 37962 37989 38016 38043 38070 38097 38124 38151 38178 38205 38232 38259 38286 38313 38340 38367 38394 38421 38448 38475 38502 38529 38556 38583 38610 38637 38664 38691 38718 38745 38772 38799 38826 38853 38880 38907 38934 38961 38988 39015 39042 39069 39096 39123 39150 39177 39204 39231 39258 39285 39312 39339 39366 39393 39420 39447 39474 39501 39528 39555 39582 39609 39636 39663 39690 39717 39744 39771 39798 39825 39852 39879 39906 39933 39960 39987 40014 40041 40068 40095 40122 40149 40176 40203 40230 40257 40284 40311 40338 40365 40392 40419 40446 40473 40500 40527 40554 40581 40608 40635 40662 40689 40716 40743 40770 40797 40824 40851 40878 40905 40932 40959 40986 41013 41040 41067 41094 41121 41148 41175 41202 41229 41256 41283 41310 41337 41364 41391 41418 41445 41472 
CONNECTIVITY vtktypeint64
0 1 226 225 25 26 251 250 2025 2026 2027 2028 2033 2034 2035 2036 2029 2030 2031 2032 2041 2039 2038 2040 2037 2042 2043 
1 2 227 226 26 27 252 251 2044 2045 2046 2026 2049 2050 2051 2034 2030 2047 2048 2031 2039 2054 2053 2055 2052 2056 2057 
2 3 228 227 27 28 253 252 2058 2059 2060 2045 2063 2064 2065 2050 2047 2061 2062 2048 2054 2068 2067 2069 2066 2070 2071 
3 4 229 228 28 29 254 253 2072 2073 2074 2059 2077 2078 2079 2064 2061 2075 2076 2062 2068 2082 2081 2083 2080 2084 2085 
4 5 230 229 29 30 255 254 2086 2087 2088 2073 2091 2092 2093 2078 2075 2089 2090 2076 2082 2096 2095 2097 2094 2098 2099 
5 6 231 230 30 31 256 255 2100 2101 2102 2087 2105 2106 2107 2092 2089 2103 2104 2090 2096 2110 2109 2111 2108 2112 2113 
6 7 232 231 31 32 257 256 2114 2115 2116 2101 2119 2120 2121 2106 2103 2117 2118 2104 2110 2124 2123 2125 2122 2126 2127 
7 8 233 232 32 33 258 257 2128 2129 2130 2115 2133 2134 2135 2120 2117 2131 2132 2118 2124 2138 2137 2139 2136 2140 2141 
8 9 234 233 33 34 259 258 2142 2143 2144 2129 2147 2148 2149 2134 2131 2145 2146 2132 2138 2152 2151 2153 2150 2154 2155 
9 10 235 234 34 35 260 259 2156 2157 2158 2143 2161 2162 2163 2148 2145 2159 2160 2146 2152 2166 2165 2167 2164 2168 2169 
10 11 236 235 35 36 261 260 2170 2171 2172 2157 2175 2176 2177 2162 2159 2173 2174 2160 2166 2180 2179 2181 2178 2182 2183 
11 12 237 236 36 37 262 261 2184 2185 2186 2171 2189 2190 2191 2176 2173 2187 2188 2174 2180 2194 2193 2195 2192 2196 2197 
12 13 238 237 37 38 263 262 2198 2199 2200 2185 2203 2204 2205 2190 2187 2201 2202 2188 2194 2208 2207 2209 2206 2210 2211 
13 14 239 238 38 39 264 263 2212 2213 2214 2199 2217 2218 2219 2204 2201 2215 2216 2202 2208 2222 2221 2223 2220 2224 2225 
14 15 240 239 39 40 265 264 2226 2227 2228 2213 2231 2232 2233 2218 2215 2229 2230 2216 2222 2236 2235 2237 2234 2238 2239 
15 16 241 240 40 41 266 265 2240 2241 2242 2227 2245 2246 2247 2232 2229 2243 2244 2230 2236 2250 2249 2251 2248 2252 2253 
16 17 242 241 41 42 267 266 2254 2255 2256 2241 2259 2260 2261 2246 2243 2257 2258 2244 2250 2264 2263 2265 2262 2266 2267 
17 18 243 242 42 43 268 267 2268 2269 2270 2255 2273 2274 2275 2260 2257 2271 2272 2258 2264 2278 2277 2279 2276 2280 2281 
18 19 244 243 43 44 269 268 2282 2283 2284 2269 2287 2288 2289 2274 2271 2285 2286 2272 2278 2292 2291 2293 2290 2294 2295 
19 20 245 244 44 45 270 269 2296 2297 2298 2283 2301 2302 2303 2288 2285 2299 2300 2286 2292 2306 2305 2307 2304 2308 2309 
20 21 246 245 45 46 271 270 2310 2311 2312 2297 2315 2316 2317 2302 2299 2313 2314 2300 2306 2320 2319 2321 2318 2322 2323 
21 22 247 246 46 47 272 271 2324 2325 2326 2311 2329 2330 2331 2316 2313 2327 2328 2314 2320 2334 2333 2335 2332 2336 2337 
22 23 248 247 47 48 273 272 2338 2339 2340 2325 2343 2344 2345 2330 2327 2341 2342 2328 2334 2348 2347 2349 2346 2350 2351 
23 24 249 248 48 49 274 273 2352 2353 2354 2339 2357 2358 2359 2344 2341 2355 2356 2342 2348 2362 2361 2363 2360 2364 2365 
25 26 251 250 50 51 276 275 2033 2034 2035 2036 2370 2371 2372 2373 2366 2367 2368 2369 2377 2375 2374 2376 2042 2378 2379 
26 27 252 251 51 52 277 276 2049 2050 2051 2034 2382 2383 2384 2371 2367 2380 2381 2368 2375 2386 2385 2387 2056 2388 2389 
27 28 253 252 52 53 278 277 2063 2064 2065 2050 2392 2393 2394 2383 2380 2390 2391 2381 2386 2396 2395 2397 2070 2398 2399 
28 29 254 253 53 54 279 278 2077 2078 2079 2064 2402 2403 2404 2393 2390 2400 2401 2391 2396 2406 2405 2407 2084 2408 2409 
29 30 255 254 54 55 280 279 2091 2092 2093 2078 2412 2413 2414 2403 2400 2410 2411 2401 2406 2416 2415 2417 2098 2418 2419 
30 31 256 255 55 56 281 280 2105 2106 2107 2092 2422 2423 2424 2413 2410 2420 2421 2411 2416 2426 2425 2427 2112 2428 2429 
31 32 257 256 56 57 282 281 2119 2120 2121 2106 2432 2433 2434 2423 2420 2430 2431 2421 2426 2436 2435 2437 2126 2438 2439 
32 33 258 257 57 58 283 282 2133 2134 2135 2120 2442 2443 2444 2433 2430 2440 2441 2431 2436 2446 2445 2447 2140 2448 2449 
33 34 259 258 58 59 284 283 2147 2148 2149 2134 2452 2453 2454 2443 2440 2450 2451 2441 2446 2456 2455 2457 2154 2458 2459 
34 35 260 259 59 60 285 284 2161 2162 2163 2148 2462 2463 2464 2453 2450 2460 2461 2451 2456 2466 2465 2467 2168 2468 2469 
35 36 261 260 60 61 286 285 2175 2176 2177 2162 2472 2473 2474 2463 2460 2470 2471 2461 2466 2476 2475 2477 2182 2478 2479 
36 37 262 261 61 62 287 286 2189 2190 2191 2176 2482 2483 2484 2473 2470 2480 2481 2471 2476 2486 2485 2487 2196 2488 2489 
37 38 263 262 62 63 288 287 2203 2204 2205 2190 2492 2493 2494 2483 2480 2490 2491 2481 2486 2496 2495 2497 2210 2498 2499 
38 39 264 263 63 64 289 288 2217 2218 2219 2204 2502 2503 2504 2493 2490 2500 2501 2491 2496 2506 2505 2507 2224 2508 2509 
39 40 265 264 64 65 290 289 2231 2232 2233 2218 2512 2513 2514 2503 2500 2510 2511 2501 2506 2516 2515 2517 2238 2518 2519 
40 41 266 265 65 66 291 290 2245 2246 2247 2232 2522 2523 2524 2513 2510 2520 2521 2511 2516 2526 2525 2527 2252 2528 2529 
41 42 267 266 66 67 292 291 2259 2260 2261 2246 2532 2533 2534 2523 2520 2530 2531 2521 2526 2536 2535 2537 2266 2538 2539 
42 43 268 267 67 68 293 292 2273 2274 2275 2260 2542 2543 2544 2533 2530 2540 2541 2531 2536 2546 2545 2547 2280 2548 2549 
43 44 269 268 68 69 294 293 2287 2288 2289 2274 2552 2553 2554 2543 2540 2550 2551 2541 2546 2556 2555 2557 2294 2558 2559 
44 45 270 269 69 70 295 294 2301 2302 2303 2288 2562 2563 2564 2553 2550 2560 2561 2551 2556 2566 2565 2567 2308 2568 2569 
45 46 271 270 70 71 296 295 2315 2316 2317 2302 2572 2573 2574 2563 2560 2570 2571 2561 2566 2576 2575 2577 2322 2578 2579 
46 47 272 271 71 72 297 296 2329 2330 2331 2316 2582 2583 2584 2573 2570 2580 2581 2571 2576 2586 2585 2587 2336 2588 2589 
47 48 273 272 72 73 298 297 2343 2344 2345 2330 2592 2593 2594 2583 2580 2590 2591 2581 2586 2596 2595 2597 2350 2598 2599 
48 49 274 273 73 74 299 298 2357 2358 2359 2344 2602 2603 2604 2593 2590 2600 2601 2591 2596 2606 2605 2607 2364 2608 2609 
50 51 276 275 75 76 301 300 2370 2371 2372 2373 2614 2615 2616 2617 2610 2611 2612 2613 2621 2619 2618 2620 2378 2622 2623 
51 52 277 276 76 77 302 301 2382 2383 2384 2371 2626 2627 2628 2615 2611 2624 2625 2612 2619 2630 2629 2631 2388 2632 2633 
52 53 278 277 77 78 303 302 2392 2393 2394 2383 2636 2637 2638 2627 2624 2634 2635 2625 2630 2640 2639 2641 2398 2642 2643 
53 54 279 278 78 79 304 303 2402 2403 2404 2393 2646 2647 2648 2637 2634 2644 2645 2635 2640 2650 2649 2651 2408 2652 2653 
54 55 280 279 79 80 305 304 2412 2413 2414 2403 2656 2657 2658 2647 2644 2654 2655 2645 2650 2660 2659 2661 2418 2662 2663 
55 56 281 280 80 81 306 305 2422 2423 2424 2413 2666 2667 2668 2657 2654 2664 2665 2655 2660 2670 2669 2671 2428 2672 2673 
56 57 282 281 81 82 307 306 2432 2433 2434 2423 2676 2677 2678 2667 2664 2674 2675 2665 2670 2680 2679 2681 2438 2682 2683 
57 58 283 282 82 83 308 307 2442 2443 2444 2433 2686 2687 2688 2677 2674 2684 2685 2675 2680 2690 2689 2691 2448 2692 2693 
58 59 284 283 83 84 309 308 2452 2453 2454 2443 2696 2697 2698 2687 2684 2694 2695 2685 2690 2700 2699 2701 2458 2702 2703 
59 60 285 284 84 85 310 309 2462 2463 2464 2453 2706 2707 2708 2697 2694 2704 2705 2695 2700 2710 2709 2711 2468 2712 2713 
60 61 286 285 85 86 311 310 2472 2473 2474 2463 2716 2717 2718 2707 2704 2714 2715 2705 2710 2720 2719 2721 2478 2722 2723 
61 62 287 286 86 87 312 311 2482 2483 2484 2473 2726 2727 2728 2717 2714 2724 2725 2715 2720 2730 2729 2731 2488 2732 2733 
62 63 288 287 87 88 313 312 2492 2493 2494 2483 2736 2737 2738 2727 2724 2734 2735 2725 2730 2740 2739 2741 2498 2742 2743 
63 64 289 288 88 89 314 313 2502 2503 2504 2493 2746 2747 2748 2737 2734 2744 2745 2735 2740 2750 2749 2751 2508 2752 2753 
64 65 290 289 89 90 315 314 2512 2513 2514 2503 2756 2757 2758 2747 2744 2754 2755 2745 2750 2760 2759 2761 2518 2762 2763 
65 66 291 290 90 91 316 315 2522 2523 2524 2513 2766 2767 2768 2757 2754 2764 2765 2755 2760 2770 2769 2771 2528 2772 2773 
66 67 292 291 91 92 317 316 2532 2533 2534 2523 2776 2777 2778 2767 2764 2774 2775 2765 2770 2780 2779 2781 2538 2782 2783 
67 68 293 292 92 93 318 317 2542 2543 2544 2533 2786 2787 2788 2777 2774 2784 2785 2775 2780 2790 2789 2791 2548 2792 2793 
68 69 294 293 93 94 319 318 2552 2553 2554 2543 2796 2797 2798 2787 2784 2794 2795 2785 2790 2800 2799 2801 2558 2802 2803 
69 70 295 294 94 95 320 319 2562 2563 2564 2553 2806 2807 2808 2797 2794 2804 2805 2795 2800 2810 2809 2811 2568 2812 2813 
70 71 296 295 95 96 321 320 2572 2573 2574 2563 2816 2817 2818 2807 2804 2814 2815 2805 2810 2820 2819 2821 2578 2822 2823 
71 72 297 296 96 97 322 321 2582 2583 2584 2573 2826 2827 2828 2817 2814 2824 2825 2815 2820 2830 2829 2831 2588 2832 2833 
72 73 298 297 97 98 323 322 2592 2593 2594 2583 2836 2837 2838 2827 2824 2834 2835 2825 2830 2840 2839 2841 2598 2842 2843 
73 74 299 298 98 99 324 323 2602 2603 2604 2593 2846 2847 2848 2837 2834 2844 2845 2835 2840 2850 2849 2851 2608 2852 2853 
75 76 301 300 100 101 326 325 2614 2615 2616 2617 2858 2859 2860 2861 2854 2855 2856 2857 2865 2863 2862 2864 2622 2866 2867 
76 77 302 301 101 102 327 326 2626 2627 2628 2615 2870 2871 2872 2859 2855 2868 2869 2856 2863 2874 2873 2875 2632 2876 2877 
77 78 303 302 102 103 328 327 2636 2637 2638 2627 2880 2881 2882 2871 2868 2878 2879 2869 2874 2884 2883 2885 2642 2886 2887 
78 79 304 303 103 104 329 328 2646 2647 2648 2637 2890 2891 2892 2881 2878 2888 2889 2879 2884 2894 2893 2895 2652 2896 2897 
79 80 305 304 104 105 330 329 2656 2657 2658 2647 2900 2901 2902 2891 2888 2898 2899 2889 2894 2904 2903 2905 2662 2906 2907 
80 81 306 305 105 106 331 330 2666 2667 2668 2657 2910 2911 2912 2901 2898 2908 2909 2899 2904 2914 2913 2915 2672 2916 2917 
81 82 307 306 106 107 332 331 2676 2677 2678 2667 2920 2921 2922 2911 2908 2918 2919 2909 2914 2924 2923 2925 2682 2926 2927 
82 83 308 307 107 108 333 332 2686 2687 2688 2677 2930 2931 2932 2921 2918 2928 2929 2919 2924 2934 2933 2935 2692 2936 2937 
83 84 309 308 108 109 334 333 2696 2697 2698 2687 2940 2941 2942 2931 2928 2938 2939 2929 2934 2944 2943 2945 2702 2946 2947 
84 85 310 309 109 110 335 334 2706 2707 2708 2697 2950 2951 2952 2941 2938 2948 2949 2939 2944 2954 2953 2955 2712 2956 2957 
85 86 311 310 110 111 336 335 2716 2717 2718 2707 2960 2961 2962 2951 2948 2958 2959 2949 2954 2964 2963 2965 2722 2966 2967 
86 87 312 311 111 112 337 336 2726 2727 2728 2717 2970 2971 2972 2961 2958 2968 2969 2959 2964 2974 2973 2975 2732 2976 2977 
87 88 313 312 112 113 338 337 2736 2737 2738 2727 2980 2981 2982 2971 2968 2978 2979 2969 2974 2984 2983 2985 2742 2986 2987 
88 89 314 313 113 114 339 338 2746 2747 2748 2737 2990 2991 2992 2981 2978 2988 2989 2979 2984 2994 2993 2995 2752 2996 2997 
89 90 315 314 114 115 340 339 2756 2757 2758 2747 3000 3001 3002 2991 2988 2998 2999 2989 2994 3004 3003 3005 2762 3006 3007 
90 91 316 315 115 116 341 340 2766 2767 2768 2757 3010 3011 3012 3001 2998 3008 3009 2999 3004 3014 3013 3015 2772 3016 3017 
91 92 317 316 116 117 342 341 2776 2777 2778 2767 3020 3021 3022 3011 3008 3018 3019 3009 3014 3024 3023 3025 2782 3026 3027 
92 93 318 317 117 118 343 342 2786 2787 2788 2777 3030 3031 3032 3021 3018 3028 3029 3019 3024 3034 3033 3035 2792 3036 3037 
93 94 319 318 118 119 344 343 2796 2797 2798 2787 3040 3041 3042 3031 3028 3038 3039 3029 3034 3044 3043 3045 2802 3046 3047 
94 95 320 319 119 120 345 344 2806 2807 2808 2797 3050 3051 3052 3041 3038 3048 3049 3039 3044 3054 3053 3055 2812 3056 3057 
95 96 321 320 120 121 346 345 2816 2817 2818 2807 3060 3061 3062 3051 3048 3058 3059 3049 3054 3064 3063 3065 2822 3066 3067 
96 97 322 321 121 122 347 346 2826 2827 2828 2817 3070 3071 3072 3061 3058 3068 3069 3059 3064 3074 3073 3075 2832 3076 3077 
97 98 323 322 122 123 348 347 2836 2837 2838 2827 3080 3081 3082 3071 3068 3078 3079 3069 3074 3084 3083 3085 2842 3086 3087 
98 99 324 323 123 124 349 348 2846 2847 2848 2837 3090 3091 3092 3081 3078 3088 3089 3079 3084 3094 3093 3095 2852 3096 3097 
100 101 326 325 125 126 351 350 2858 2859 2860 2861 3102 3103 3104 3105 3098 3099 3100 3101 3109 3107 3106 3108 2866 3110 3111 
101 102 327 326 126 127 352 351 2870 2871 2872 2859 3114 3115 3116 3103 3099 3112 3113 3100 3107 3118 3117 3119 2876 3120 3121 
102 103 328 327 127 128 353 352 2880 2881 2882 2871 3124 3125 3126 3115 3112 3122 3123 3113 3118 3128 3127 3129 2886 3130 3131 
103 104 329 328 128 129 354 353 2890 2891 2892 2881 3134 3135 3136 3125 3122 3132 3133 3123 3128 3138 3137 3139 2896 3140 3141 
104 105 330 329 129 130 355 354 2900 2901 2902 2891 3144 3145 3146 3135 3132 3142 3143 3133 3138 3148 3147 3149 2906 3150 3151 
105 106 331 330 130 131 356 355 2910 2911 2912 2901 3154 3155 3156 3145 3142 3152 3153 3143 3148 3158 3157 3159 2916 3160 3161 
106 107 332 331 131 132 357 356 2920 2921 2922 2911 3164 3165 3166 3155 3152 3162 3163 3153 3158 3168 3167 3169 2926 3170 3171 
107 108 333 332 132 133 358 357 2930 2931 2932 2921 3174 3175 3176 3165 3162 3172 3173 3163 3168 3178 3177 3179 2936 3180 3181 
108 109 334 333 133 134 359 358 2940 2941 2942 2931 3184 3185 3186 3175 3172 3182 3183 3173 3178 3188 3187 3189 2946 3190 3191 
109 110 335 334 134 135 360 359 2950 2951 2952 2941 3194 3195 3196 3185 3182 3192 3193 3183 3188 3198 3197 3199 2956 3200 3201 
110 111 336 335 135 136 361 360 2960 2961 2962 2951 3204 3205 3206 3195 3192 3202 3203 3193 3198 3208 3207 3209 2966 3210 3211 
111 112 337 336 136 137 362 361 2970 2971 2972 2961 3214 3215 3216 3205 3202 3212 3213 3203 3208 3218 3217 3219 2976 3220 3221 
112 113 338 337 137 138 363 362 2980 2981 2982 2971 3224 3225 3226 3215 3212 3222 3223 3213 3218 3228 3227 3229 2986 3230 3231 
113 114 339 338 138 139 364 363 2990 2991 2992 2981 3234 3235 3236 3225 3222 3232 3233 3223 3228 3238 3237 3239 2996 3240 3241 
114 115 340 339 139 140 365 364 3000 3001 3002 2991 3244 3245 3246 3235 3232 3242 3243 3233 3238 3248 3247 3249 3006 3250 3251 
115 116 341 340 140 141 366 365 3010 3011 3012 3001 3254 3255 3256 3245 3242 3252 3253 3243 3248 3258 3257 3259 3016 3260 3261 
116 117 342 341 141 142 367 366 3020 3021 3022 3011 3264 3265 3266 3255 3252 3262 3263 3253 3258 3268 3267 3269 3026 3270 3271 
117 118 343 342 142 143 368 367 3030 3031 3032 3021 3274 3275 3276 3265 3262 3272 3273 3263 3268 3278 3277 3279 3036 3280 3281 
118 119 344 343 143 144 369 368 3040 3041 3042 3031 3284 3285 3286 3275 3272 3282 3283 3273 3278 3288 3287 3289 3046 3290 3291 
119 120 345 344 144 145 370 369 3050 3051 3052 3041 3294 3295 3296 3285 3282 3292 3293 3283 3288 3298 3297 3299 3056 3300 3301 
120 121 346 345 145 146 371 370 3060 3061 3062 3051 3304 3305 3306 3295 3292 3302 3303 3293 3298 3308 3307 3309 3066 3310 3311 
121 122 347 346 146 147 372 371 3070 3071 3072 3061 3314 3315 3316 3305 3302 3312 3313 3303 3308 3318 3317 3319 3076 3320 3321 
122 123 348 347 147 148 373 372 3080 3081 3082 3071 3324 3325 3326 3315 3312 3322 3323 3313 3318 3328 3327 3329 3086 3330 3331 
123 124 349 348 148 149 374 373 3090 3091 3092 3081 3334 3335 3336 3325 3322 3332 3333 3323 3328 3338 3337 3339 3096 3340 3341 
125 126 351 350 150 151 376 375 3102 3103 3104 3105 3346 3347 3348 3349 3342 3343 3344 3345 3353 3351 3350 3352 3110 3354 3355 
126 127 352 351 151 152 377 376 3114 3115 3116 3103 3358 3359 3360 3347 3343 3356 3357 3344 3351 3362 3361 3363 3120 3364 3365 
127 128 353 352 152 153 378 377 3124 3125 3126 3115 3368 3369 3370 3359 3356 3366 3367 3357 3362 3372 3371 3373 3130 3374 3375 
128 129 354 353 153 154 379 378 3134 3135 3136 3125 3378 3379 3380 3369 3366 3376 3377 3367 3372 3382 3381 3383 3140 3384 3385 
129 130 355 354 154 155 380 379 3144 3145 3146 3135 3388 3389 3390 3379 3376 3386 3387 3377 3382 3392 3391 3393 3150 3394 3395 
130 131 356 355 155 156 381 380 3154 3155 3156 3145 3398 3399 3400 3389 3386 3396 3397 3387 3392 3402 3401 3403 3160 3404 3405 
131 132 357 356 156 157 382 381 3164 3165 3166 3155 3408 3409 3410 3399 3396 3406 3407 3397 3402 3412 3411 3413 3170 3414 3415 
132 133 358 357 157 158 383 382 3174 3175 3176 3165 3418 3419 3420 3409 3406 3416 3417 3407 3412 3422 3421 3423 3180 3424 3425 
133 134 359 358 158 159 384 383 3184 3185 3186 3175 3428 3429 3430 3419 3416 3426 3427 3417 3422 3432 3431 3433 3190 3434 3435 
134 135 360 359 159 160 385 384 3194 3195 3196 3185 3438 3439 3440 3429 3426 3436 3437 3427 3432 3442 3441 3443 3200 3444 3445 
135 136 361 360 160 161 386 385 3204 3205 3206 3195 3448 3449 3450 3439 3436 3446 3447 3437 3442 3452 3451 3453 3210 3454 3455 
136 137 362 361 161 162 387 386 3214 3215 3216 3205 3458 3459 3460 3449 3446 3456 3457 3447 3452 3462 3461 3463 3220 3464 3465 
137 138 363 362 162 163 388 387 3224 3225 3226 3215 3468 3469 3470 3459 3456 3466 3467 3457 3462 3472 3471 3473 3230 3474 3475 
138 139 364 363 163 164 389 388 3234 3235 3236 3225 3478 3479 3480 3469 3466 3476 3477 3467 3472 3482 3481 3483 3240 3484 3485 
139 140 365 364 164 165 390 389 3244 3245 3246 3235 3488 3489 3490 3479 3476 3486 3487 3477 3482 3492 3491 3493 3250 3494 3495 
140 141 366 365 165 166 391 390 3254 3255 3256 3245 3498 3499 3500 3489 3486 3496 3497 3487 3492 3502 3501 3503 3260 3504 3505 
141 142 367 366 166 167 392 391 3264 3265 3266 3255 3508 3509 3510 3499 3496 3506 3507 3497 3502 3512 3511 3513 3270 3514 3515 
142 143 368 367 167 168 393 392 3274 3275 3276 3265 3518 3519 3520 3509 3506 3516 3517 3507 3512 3522 3521 3523 3280 3524 3525 
143 144 369 368 168 169 394 393 3284 3285 3286 3275 3528 3529 3530 3519 3516 3526 3527 3517 3522 3532 3531 3533 3290 3534 3535 
144 145 370 369 169 170 395 394 3294 3295 3296 3285 3538 3539 3540 3529 3526 3536 3537 3527 3532 3542 3541 3543 3300 3544 3545 
145 146 371 370 170 171 396 395 3304 3305 3306 3295 3548 3549 3550 3539 3536 3546 3547 3537 3542 3552 3551 3553 3310 3554 3555 
146 147 372 371 171 172 397 396 3314 3315 3316 3305 3558 3559 3560 3549 3546 3556 3557 3547 3552 3562 3561 3563 3320 3564 3565 
147 148 373 372 172 173 398 397 3324 3325 3326 3315 3568 3569 3570 3559 3556 3566 3567 3557 3562 3572 3571 3573 3330 3574 3575 
148 149 374 373 173 174 399 398 3334 3335 3336 3325 3578 3579 3580 3569 3566 3576 3577 3567 3572 3582 3581 3583 3340 3584 3585 
150 151 376 375 175 176 401 400 3346 3347 3348 3349 3590 3591 3592 3593 3586 3587 3588 3589 3597 3595 3594 3596 3354 3598 3599 
151 152 377 376 176 177 402 401 3358 3359 3360 3347 3602 3603 3604 3591 3587 3600 3601 3588 3595 3606 3605 3607 3364 3608 3609 
152 153 378 377 177 178 403 402 3368 3369 3370 3359 3612 3613 3614 3603 3600 3610 3611 3601 3606 3616 3615 3617 3374 3618 3619 
153 154 379 378 178 179 404 403 3378 3379 3380 3369 3622 3623 3624 3613 3610 3620 3621 3611 3616 3626 3625 3627 3384 3628 3629 
154 155 380 379 179 180 405 404 3388 3389 3390 3379 3632 3633 3634 3623 3620 3630 3631 3621 3626 3636 3635 3637 3394 3638 3639 
155 156 381 380 180 181 406 405 3398 3399 3400 3389 3642 3643 3644 3633 3630 3640 3641 3631 3636 3646 3645 3647 3404 3648 3649 
156 157 382 381 181 182 407 406 3408 3409 3410 3399 3652 3653 3654 3643 3640 3650 3651 3641 3646 3656 3655 3657 3414 3658 3659 
157 158 383 382 182 183 408 407 3418 3419 3420 3409 3662 3663 3664 3653 3650 3660 3661 3651 3656 3666 3665 3667 3424 3668 3669 
158 159 384 383 183 184 409 408 3428 3429 3430 3419 3672 3673 3674 3663 3660 3670 3671 3661 3666 3676 3675 3677 3434 3678 3679 
159 160 385 384 184 185 410 409 3438 3439 3440 3429 3682 3683 3684 3673 3670 3680 3681 3671 3676 3686 3685 3687 3444 3688 3689 
160 161 386 385 185 186 411 410 3448 3449 3450 3439 3692 3693 3694 3683 3680 3690 3691 3681 3686 3696 3695 3697 3454 3698 3699 
161 162 387 386 186 187 412 411 3458 3459 3460 3449 3702 3703 3704 3693 3690 3700 3701 3691 3696 3706 3705 3707 3464 3708 3709 
162 163 388 387 187 188 413 412 3468 3469 3470 3459 3712 3713 3714 3703 3700 3710 3711 3701 3706 3716 3715 3717 3474 3718 3719 
163 164 389 388 188 189 414 413 3478 3479 3480 3469 3722 3723 3724 3713 3710 3720 3721 3711 3716 3726 3725 3727 3484 3728 3729 
164 165 390 389 189 190 415 414 3488 3489 3490 3479 3732 3733 3734 3723 3720 3730 3731 3721 3726 3736 3735 3737 3494 3738 3739 
165 166 391 390 190 191 416 415 3498 3499 3500 3489 3742 3743 3744 3733 3730 3740 3741 3731 3736 3746 3745 3747 3504 3748 3749 
166 167 392 391 191 192 417 416 3508 3509 3510 3499 3752 3753 3754 3743 3740 3750 3751 3741 3746 3756 3755 3757 3514 3758 3759 
167 168 393 392 192 193 418 417 3518 3519 3520 3509 3762 3763 3764 3753 3750 3760 3761 3751 3756 3766 3765 3767 3524 3768 3769 
168 169 394 393 193 194 419 418 3528 3529 3530 3519 3772 3773 3774 3763 3760 3770 3771 3761 3766 3776 3775 3777 3534 3778 3779 
169 170 395 394 194 195 420 419 3538 3539 3540 3529 3782 3783 3784 3773 3770 3780 3781 3771 3776 3786 3785 3787 3544 3788 3789 
170 171 396 395 195 196 421 420 3548 3549 3550 3539 3792 3793 3794 3783 3780 3790 3791 3781 3786 3796 3795 3797 3554 3798 3799 
171 172 397 396 196 197 422 421 3558 3559 3560 3549 3802 3803 3804 3793 3790 3800 3801 3791 3796 3806 3805 3807 3564 3808 3809 
172 173 398 397 197 198 423 422 3568 3569 3570 3559 3812 3813 3814 3803 3800 3810 3811 3801 3806 3816 3815 3817 3574 3818 3819 
173 174 399 398 198 199 424 423 3578 3579 3580 3569 3822 3823 3824 3813 3810 3820 3821 3811 3816 3826 3825 3827 3584 3828 3829 
175 176 401 400 200 201 426 425 3590 3591 3592 3593 3834 3835 3836 3837 3830 3831 3832 3833 3841 3839 3838 3840 3598 3842 3843 
176 177 402 401 201 202 427 426 3602 3603 3604 3591 3846 3847 3848 3835 3831 3844 3845 3832 3839 3850 3849 3851 3608 3852 3853 
177 178 403 402 202 203 428 427 3612 3613 3614 3603 3856 3857 3858 3847 3844 3854 3855 3845 3850 3860 3859 3861 3618 3862 3863 
178 179 404 403 203 204 429 428 3622 3623 3624 3613 3866 3867 3868 3857 3854 3864 3865 3855 3860 3870 3869 3871 3628 3872 3873 
179 180 405 404 204 205 430 429 3632 3633 3634 3623 3876 3877 3878 3867 3864 3874 3875 3865 3870 3880 3879 3881 3638 3882 3883 
180 181 406 405 205 206 431 430 3642 3643 3644 3633 3886 3887 3888 3877 3874 3884 3885 3875 3880 3890 3889 3891 3648 3892 3893 
181 182 407 406 206 207 432 431 3652 3653 3654 3643 3896 3897 3898 3887 3884 3894 3895 3885 3890 3900 3899 3901 3658 3902 3903 
182 183 408 407 207 208 433 432 3662 3663 3664 3653 3906 3907 3908 3897 3894 3904 3905 3895 3900 3910 3909 3911 3668 3912 3913 
183 184 409 408 208 209 434 433 3672 3673 3674 3663 3916 3917 3918 3907 3904 3914 3915 3905 3910 3920 3919 3921 3678 3922 3923 
184 185 410 409 209 210 435 434 3682 3683 3684 3673 3926 3927 3928 3917 3914 3924 3925 3915 3920 3930 3929 3931 3688 3932 3933 
185 186 411 410 210 211 436 435 3692 3693 3694 3683 3936 3937 3938 3927 3924 3934 3935 3925 3930 3940 3939 3941 3698 3942 3943 
186 187 412 411 211 212 437 436 3702 3703 3704 3693 3946 3947 3948 3937 3934 3944 3945 3935 3940 3950 3949 3951 3708 3952 3953 
187 188 413 412 212 213 438 437 3712 3713 3714 3703 3956 3957 3958 3947 3944 3954 3955 3945 3950 3960 3959 3961 3718 3962 3963 
188 189 414 413 213 214 439 438 3722 3723 3724 3713 3966 3967 3968 3957 3954 3964 3965 3955 3960 3970 3969 3971 3728 3972 3973 
189 190 415 414 214 215 440 439 3732 3733 3734 3723 3976 3977 3978 3967 3964 3974 3975 3965 3970 3980 3979 3981 3738 3982 3983 
190 191 416 415 215 216 441 440 3742 3743 3744 3733 3986 3987 3988 3977 3974 3984 3985 3975 3980 3990 3989 3991 3748 3992 3993 
191 192 417 416 216 217 442 441 3752 3753 3754 3743 3996 3997 3998 3987 3984 3994 3995 3985 3990 4000 3999 4001 3758 4002 4003 
192 193 418 417 217 218 443 442 3762 3763 3764 3753 4006 4007 4008 3997 3994 4004 4005 3995 4000 4010 4009 4011 3768 4012 4013 
193 194 419 418 218 219 444 443 3772 3773 3774 3763 4016 4017 4018 4007 4004 4014 4015 4005 4010 4020 4019 4021 3778 4022 4023 
194 195 420 419 219 220 445 444 3782 3783 3784 3773 4026 4027 4028 4017 4014 4024 4025 4015 4020 4030 4029 4031 3788 4032 4033 
195 196 421 420 220 221 446 445 3792 3793 3794 3783 4036 4037 4038 4027 4024 4034 4035 4025 4030 4040 4039 4041 3798 4042 4043 
196 197 422 421 221 222 447 446 3802 3803 3804 3793 4046 4047 4048 4037 4034 4044 4045 4035 4040 4050 4049 4051 3808 4052 4053 
197 198 423 422 222 223 448 447 3812 3813 3814 3803 4056 4057 4058 4047 4044 4054 4055 4045 4050 4060 4059 4061 3818 4062 4063 
198 199 424 423 223 224 449 448 3822 3823 3824 3813 4066 4067 4068 4057 4054 4064 4065 4055 4060 4070 4069 4071 3828 4072 4073 
225 226 451 450 250 251 476 475 2027 4074 4075 4076 2035 4079 4080 4081 2032 2031 4077 4078 4085 4083 2040 4084 4082 4086 4087 
226 227 452 451 251 252 477 476 2046 4088 4089 4074 2051 4091 4092 4079 2031 2048 4090 4077 4083 4094 2055 4095 4093 4096 4097 
227 228 453 452 252 253 478 477 2060 4098 4099 4088 2065 4101 4102 4091 2048 2062 4100 4090 4094 4104 2069 4105 4103 4106 4107 
228 229 454 453 253 254 479 478 2074 4108 4109 4098 2079 4111 4112 4101 2062 2076 4110 4100 4104 4114 2083 4115 4113 4116 4117 
229 230 455 454 254 255 480 479 2088 4118 4119 4108 2093 4121 4122 4111 2076 2090 4120 4110 4114 4124 2097 4125 4123 4126 4127 
230 231 456 455 255 256 481 480 2102 4128 4129 4118 2107 4131 4132 4121 2090 2104 4130 4120 4124 4134 2111 4135 4133 4136 4137 
231 232 457 456 256 257 482 481 2116 4138 4139 4128 2121 4141 4142 4131 2104 2118 4140 4130 4134 4144 2125 4145 4143 4146 4147 
232 233 458 457 257 258 483 482 2130 4148 4149 4138 2135 4151 4152 4141 2118 2132 4150 4140 4144 4154 2139 4155 4153 4156 4157 
233 234 459 458 258 259 484 483 2144 4158 4159 4148 2149 4161 4162 4151 2132 2146 4160 4150 4154 4164 2153 4165 4163 4166 4167 
234 235 460 459 259 260 485 484 2158 4168 4169 4158 2163 4171 4172 4161 2146 2160 4170 4160 4164 4174 2167 4175 4173 4176 4177 
235 236 461 460 260 261 486 485 2172 4178 4179 4168 2177 4181 4182 4171 2160 2174 4180 4170 4174 4184 2181 4185 4183 4186 4187 
236 237 462 461 261 262 487 486 2186 4188 4189 4178 2191 4191 4192 4181 2174 2188 4190 4180 4184 4194 2195 4195 4193 4196 4197 
237 238 463 462 262 263 488 487 2200 4198 4199 4188 2205 4201 4202 4191 2188 2202 4200 4190 4194 4204 2209 4205 4203 4206 4207 
238 239 464 463 263 264 489 488 2214 4208 4209 4198 2219 4211 4212 4201 2202 2216 4210 4200 4204 4214 2223 4215 4213 4216 4217 
239 240 465 464 264 265 490 489 2228 4218 4219 4208 2233 4221 4222 4211 2216 2230 4220 4210 4214 4224 2237 4225 4223 4226 4227 
240 241 466 465 265 266 491 490 2242 4228 4229 4218 2247 4231 4232 4221 2230 2244 4230 4220 4224 4234 2251 4235 4233 4236 4237 
241 242 467 466 266 267 492 491 2256 4238 4239 4228 2261 4241 4242 4231 2244 2258 4240 4230 4234 4244 2265 4245 4243 4246 4247 
242 243 468 467 267 268 493 492 2270 4248 4249 4238 2275 4251 4252 4241 2258 2272 4250 4240 4244 4254 2279 4255 4253 4256 4257 
243 244 469 468 268 269 494 493 2284 4258 4259 4248 2289 4261 4262 4251 2272 2286 4260 4250 4254 4264 2293 4265 4263 4266 4267 
244 245 470 469 269 270 495 494 2298 4268 4269 4258 2303 4271 4272 4261 2286 2300 4270 4260 4264 4274 2307 4275 4273 4276 4277 
245 246 471 470 270 271 496 495 2312 4278 4279 4268 2317 4281 4282 4271 2300 2314 4280 4270 4274 4284 2321 4285 4283 4286 4287 
246 247 472 471 271 272 497 496 2326 4288 4289 4278 2331 4291 4292 4281 2314 2328 4290 4280 4284 4294 2335 4295 4293 4296 4297 
247 248 473 472 272 273 498 497 2340 4298 4299 4288 2345 4301 4302 4291 2328 2342 4300 4290 4294 4304 2349 4305 4303 4306 4307 
248 249 474 473 273 274 499 498 2354 4308 4309 4298 2359 4311 4312 4301 2342 2356 4310 4300 4304 4314 2363 4315 4313 4316 4317 
250 251 476 475 275 276 501 500 2035 4079 4080 4081 2372 4320 4321 4322 2369 2368 4318 4319 4325 4323 2376 4324 4086 4326 4327 
251 252 477 476 276 277 502 501 2051 4091 4092 4079 2384 4329 4330 4320 2368 2381 4328 4318 4323 4331 2387 4332 4096 4333 4334 
252 253 478 477 277 278 503 502 2065 4101 4102 4091 2394 4336 4337 4329 2381 2391 4335 4328 4331 4338 2397 4339 4106 4340 4341 
253 254 479 478 278 279 504 503 2079 4111 4112 4101 2404 4343 4344 4336 2391 2401 4342 4335 4338 4345 2407 4346 4116 4347 4348 
254 255 480 479 279 280 505 504 2093 4121 4122 4111 2414 4350 4351 4343 2401 2411 4349 4342 4345 4352 2417 4353 4126 4354 4355 
255 256 481 480 280 281 506 505 2107 4131 4132 4121 2424 4357 4358 4350 2411 2421 4356 4349 4352 4359 2427 4360 4136 4361 4362 
256 257 482 481 281 282 507 506 2121 4141 4142 4131 2434 4364 4365 4357 2421 2431 4363 4356 4359 4366 2437 4367 4146 4368 4369 
257 258 483 482 282 283 508 507 2135 4151 4152 4141 2444 4371 4372 4364 2431 2441 4370 4363 4366 4373 2447 4374 4156 4375 4376 
258 259 484 483 283 284 509 508 2149 4161 4162 4151 2454 4378 4379 4371 2441 2451 4377 4370 4373 4380 2457 4381 4166 4382 4383 
259 260 485 484 284 285 510 509 2163 4171 4172 4161 2464 4385 4386 4378 2451 2461 4384 4377 4380 4387 2467 4388 4176 4389 4390 
260 261 486 485 285 286 511 510 2177 4181 4182 4171 2474 4392 4393 4385 2461 2471 4391 4384 4387 4394 2477 4395 4186 4396 4397 
261 262 487 486 286 287 512 511 2191 4191 4192 4181 2484 4399 4400 4392 2471 2481 4398 4391 4394 4401 2487 4402 4196 4403 4404 
262 263 488 487 287 288 513 512 2205 4201 4202 4191 2494 4406 4407 4399 2481 2491 4405 4398 4401 4408 2497 4409 4206 4410 4411 
263 264 489 488 288 289 514 513 2219 4211 4212 4201 2504 4413 4414 4406 2491 2501 4412 4405 4408 4415 2507 4416 4216 4417 4418 
264 265 490 489 289 290 515 514 2233 4221 4222 4211 2514 4420 4421 4413 2501 2511 4419 4412 4415 4422 2517 4423 4226 4424 4425 
265 266 491 490 290 291 516 515 2247 4231 4232 4221 2524 4427 4428 4420 2511 2521 4426 4419 4422 4429 2527 4430 4236 4431 4432 
266 267 492 491 291 292 517 516 2261 4241 4242 4231 2534 4434 4435 4427 2521 2531 4433 4426 4429 4436 2537 4437 4246 4438 4439 
267 268 493 492 292 293 518 517 2275 4251 4252 4241 2544 4441 4442 4434 2531 2541 4440 4433 4436 4443 2547 4444 4256 4445 4446 
268 269 494 493 293 294 519 518 2289 4261 4262 4251 2554 4448 4449 4441 2541 2551 4447 4440 4443 4450 2557 4451 4266 4452 4453 
269 270 495 494 294 295 520 519 2303 4271 4272 4261 2564 4455 4456 4448 2551 2561 4454 4447 4450 4457 2567 4458 4276 4459 4460 
270 271 496 495 295 296 521 520 2317 4281 4282 4271 2574 4462 4463 4455 2561 2571 4461 4454 4457 4464 2577 4465 4286 4466 4467 
271 272 497 496 296 297 522 521 2331 4291 4292 4281 2584 4469 4470 4462 2571 2581 4468 4461 4464 4471 2587 4472 4296 4473 4474 
272 273 498 497 297 298 523 522 2345 4301 4302 4291 2594 4476 4477 4469 2581 2591 4475 4468 4471 4478 2597 4479 4306 4480 4481 
273 274 499 498 298 299 524 523 2359 4311 4312 4301 2604 4483 4484 4476 2591 2601 4482 4475 4478 4485 2607 4486 4316 4487 4488 
275 276 501 500 300 301 526 525 2372 4320 4321 4322 2616 4491 4492 4493 2613 2612 4489 4490 4496 4494 2620 4495 4326 4497 4498 
276 277 502 501 301 302 527 526 2384 4329 4330 4320 2628 4500 4501 4491 2612 2625 4499 4489 4494 4502 2631 4503 4333 4504 4505 
277 278 503 502 302 303 528 527 2394 4336 4337 4329 2638 4507 4508 4500 2625 2635 4506 4499 4502 4509 2641 4510 4340 4511 4512 
278 279 504 503 303 304 529 528 2404 4343 4344 4336 2648 4514 4515 4507 2635 2645 4513 4506 4509 4516 2651 4517 4347 4518 4519 
279 280 505 504 304 305 530 529 2414 4350 4351 4343 2658 4521 4522 4514 2645 2655 4520 4513 4516 4523 2661 4524 4354 4525 4526 
280 281 506 505 305 306 531 530 2424 4357 4358 4350 2668 4528 4529 4521 2655 2665 4527 4520 4523 4530 2671 4531 4361 4532 4533 
281 282 507 506 306 307 532 531 2434 4364 4365 4357 2678 4535 4536 4528 2665 2675 4534 4527 4530 4537 2681 4538 4368 4539 4540 
282 283 508 507 307 308 533 532 2444 4371 4372 4364 2688 4542 4543 4535 2675 2685 4541 4534 4537 4544 2691 4545 4375 4546 4547 
283 284 509 508 308 309 534 533 2454 4378 4379 4371 2698 4549 4550 4542 2685 2695 4548 4541 4544 4551 2701 4552 4382 4553 4554 
284 285 510 509 309 310 535 534 2464 4385 4386 4378 2708 4556 4557 4549 2695 2705 4555 4548 4551 4558 2711 4559 4389 4560 4561 
285 286 511 510 310 311 536 535 2474 4392 4393 4385 2718 4563 4564 4556 2705 2715 4562 4555 4558 4565 2721 4566 4396 4567 4568 
286 287 512 511 311 312 537 536 2484 4399 4400 4392 2728 4570 4571 4563 2715 2725 4569 4562 4565 4572 2731 4573 4403 4574 4575 
287 288 513 512 312 313 538 537 2494 4406 4407 4399 2738 4577 4578 4570 2725 2735 4576 4569 4572 4579 2741 4580 4410 4581 4582 
288 289 514 513 313 314 539 538 2504 4413 4414 4406 2748 4584 4585 4577 2735 2745 4583 4576 4579 4586 2751 4587 4417 4588 4589 
289 290 515 514 314 315 540 539 2514 4420 4421 4413 2758 4591 4592 4584 2745 2755 4590 4583 4586 4593 2761 4594 4424 4595 4596 
290 291 516 515 315 316 541 540 2524 4427 4428 4420 2768 4598 4599 4591 2755 2765 4597 4590 4593 4600 2771 4601 4431 4602 4603 
291 292 517 516 316 317 542 541 2534 4434 4435 4427 2778 4605 4606 4598 2765 2775 4604 4597 4600 4607 2781 4608 4438 4609 4610 
292 293 518 517 317 318 543 542 2544 4441 4442 4434 2788 4612 4613 4605 2775 2785 4611 4604 4607 4614 2791 4615 4445 4616 4617 
293 294 519 518 318 319 544 543 2554 4448 4449 4441 2798 4619 4620 4612 2785 2795 4618 4611 4614 4621 2801 4622 4452 4623 4624 
294 295 520 519 319 320 545 544 2564 4455 4456 4448 2808 4626 4627 4619 2795 2805 4625 4618 4621 4628 2811 4629 4459 4630 4631 
295 296 521 520 320 321 546 545 2574 4462 4463 4455 2818 4633 4634 4626 2805 2815 4632 4625 4628 4635 2821 4636 4466 4637 4638 
296 297 522 521 321 322 547 546 2584 4469 4470 4462 2828 4640 4641 4633 2815 2825 4639 4632 4635 4642 2831 4643 4473 4644 4645 
297 298 523 522 322 323 548 547 2594 4476 4477 4469 2838 4647 4648 4640 2825 2835 4646 4639 4642 4649 2841 4650 4480 4651 4652 
298 299 524 523 323 324 549 548 2604 4483 4484 4476 2848 4654 4655 4647 2835 2845 4653 4646 4649 4656 2851 4657 4487 4658 4659 
300 301 526 525 325 326 551 550 2616 4491 4492 4493 2860 4662 4663 4664 2857 2856 4660 4661 4667 4665 2864 4666 4497 4668 4669 
301 302 527 526 326 327 552 551 2628 4500 4501 4491 2872 4671 4672 4662 2856 2869 4670 4660 4665 4673 2875 4674 4504 4675 4676 
302 303 528 527 327 328 553 552 2638 4507 4508 4500 2882 4678 4679 4671 2869 2879 4677 4670 4673 4680 2885 4681 4511 4682 4683 
303 304 529 528 328 329 554 553 2648 4514 4515 4507 2892 4685 4686 4678 2879 2889 4684 4677 4680 4687 2895 4688 4518 4689 4690 
304 305 530 529 329 330 555 554 2658 4521 4522 4514 2902 4692 4693 4685 2889 2899 4691 4684 4687 4694 2905 4695 4525 4696 4697 
305 306 531 530 330 331 556 555 2668 4528 4529 4521 2912 4699 4700 4692 2899 2909 4698 4691 4694 4701 2915 4702 4532 4703 4704 
306 307 532 531 331 332 557 556 2678 4535 4536 4528 2922 4706 4707 4699 2909 2919 4705 4698 4701 4708 2925 4709 4539 4710 4711 
307 308 533 532 332 333 558 557 2688 4542 4543 4535 2932 4713 4714 4706 2919 2929 4712 4705 4708 4715 2935 4716 4546 4717 4718 
308 309 534 533 333 334 559 558 2698 4549 4550 4542 2942 4720 4721 4713 2929 2939 4719 4712 4715 4722 2945 4723 4553 4724 4725 
309 310 535 534 334 335 560 559 2708 4556 4557 4549 2952 4727 4728 4720 2939 2949 4726 4719 4722 4729 2955 4730 4560 4731 4732 
310 311 536 535 335 336 561 560 2718 4563 4564 4556 2962 4734 4735 4727 2949 2959 4733 4726 4729 4736 2965 4737 4567 4738 4739 
311 312 537 536 336 337 562 561 2728 4570 4571 4563 2972 4741 4742 4734 2959 2969 4740 4733 4736 4743 2975 4744 4574 4745 4746 
312 313 538 537 337 338 563 562 2738 4577 4578 4570 2982 4748 4749 4741 2969 2979 4747 4740 4743 4750 2985 4751 4581 4752 4753 
313 314 539 538 338 339 564 563 2748 4584 4585 4577 2992 4755 4756 4748 2979 2989 4754 4747 4750 4757 2995 4758 4588 4759 4760 
314 315 540 539 339 340 565 564 2758 4591 4592 4584 3002 4762 4763 4755 2989 2999 4761 4754 4757 4764 3005 4765 4595 4766 4767 
315 316 541 540 340 341 566 565 2768 4598 4599 4591 3012 4769 4770 4762 2999 3009 4768 4761 4764 4771 3015 4772 4602 4773 4774 
316 317 542 541 341 342 567 566 2778 4605 4606 4598 3022 4776 4777 4769 3009 3019 4775 4768 4771 4778 3025 4779 4609 4780 4781 
317 318 543 542 342 343 568 567 2788 4612 4613 4605 3032 4783 4784 4776 3019 3029 4782 4775 4778 4785 3035 4786 4616 4787 4788 
318 319 544 543 343 344 569 568 2798 4619 4620 4612 3042 4790 4791 4783 3029 3039 4789 4782 4785 4792 3045 4793 4623 4794 4795 
319 320 545 544 344 345 570 569 2808 4626 4627 4619 3052 4797 4798 4790 3039 3049 4796 4789 4792 4799 3055 4800 4630 4801 4802 
320 321 546 545 345 346 571 570 2818 4633 4634 4626 3062 4804 4805 4797 3049 3059 4803 4796 4799 4806 3065 4807 4637 4808 4809 
321 322 547 546 346 347 572 571 2828 4640 4641 4633 3072 4811 4812 4804 3059 3069 4810 4803 4806 4813 3075 4814 4644 4815 4816 
322 323 548 547 347 348 573 572 2838 4647 4648 4640 3082 4818 4819 4811 3069 3079 4817 4810 4813 4820 3085 4821 4651 4822 4823 
323 324 549 548 348 349 574 573 2848 4654 4655 4647 3092 4825 4826 4818 3079 3089 4824 4817 4820 4827 3095 4828 4658 4829 4830 
325 326 551 550 350 351 576 575 2860 4662 4663 4664 3104 4833 4834 4835 3101 3100 4831 4832 4838 4836 3108 4837 4668 4839 4840 
326 327 552 551 351 352 577 576 2872 4671 4672 4662 3116 4842 4843 4833 3100 3113 4841 4831 4836 4844 3119 4845 4675 4846 4847 
327 328 553 552 352 353 578 577 2882 4678 4679 4671 3126 4849 4850 4842 3113 3123 4848 4841 4844 4851 3129 4852 4682 4853 4854 
328 329 554 553 353 354 579 578 2892 4685 4686 4678 3136 4856 4857 4849 3123 3133 4855 4848 4851 4858 3139 4859 4689 4860 4861 
329 330 555 554 354 355 580 579 2902 4692 4693 4685 3146 4863 4864 4856 3133 3143 4862 4855 4858 4865 3149 4866 4696 4867 4868 
330 331 556 555 355 356 581 580 2912 4699 4700 4692 3156 4870 4871 4863 3143 3153 4869 4862 4865 4872 3159 4873 4703 4874 4875 
331 332 557 556 356 357 582 581 2922 4706 4707 4699 3166 4877 4878 4870 3153 3163 4876 4869 4872 4879 3169 4880 4710 4881 4882 
332 333 558 557 357 358 583 582 2932 4713 4714 4706 3176 4884 4885 4877 3163 3173 4883 4876 4879 4886 3179 4887 4717 4888 4889 
333 334 559 558 358 359 584 583 2942 4720 4721 4713 3186 4891 4892 4884 3173 3183 4890 4883 4886 4893 3189 4894 4724 4895 4896 
334 335 560 559 359 360 585 584 2952 4727 4728 4720 3196 4898 4899 4891 3183 3193 4897 4890 4893 4900 3199 4901 4731 4902 4903 
335 336 561 560 360 361 586 585 2962 4734 4735 4727 3206 4905 4906 4898 3193 3203 4904 4897 4900 4907 3209 4908 4738 4909 4910 
336 337 562 561 361 362 587 586 2972 4741 4742 4734 3216 4912 4913 4905 3203 3213 4911 4904 4907 4914 3219 4915 4745 4916 4917 
337 338 563 562 362 363 588 587 2982 4748 4749 4741 3226 4919 4920 4912 3213 3223 4918 4911 4914 4921 3229 4922 4752 4923 4924 
338 339 564 563 363 364 589 588 2992 4755 4756 4748 3236 4926 4927 4919 3223 3233 4925 4918 4921 4928 3239 4929 4759 4930 4931 
339 340 565 564 364 365 590 589 3002 4762 4763 4755 3246 4933 4934 4926 3233 3243 4932 4925 4928 4935 3249 4936 4766 4937 4938 
340 341 566 565 365 366 591 590 3012 4769 4770 4762 3256 4940 4941 4933 3243 3253 4939 4932 4935 4942 3259 4943 4773 4944 4945 
341 342 567 566 366 367 592 591 3022 4776 4777 4769 3266 4947 4948 4940 3253 3263 4946 4939 4942 4949 3269 4950 4780 4951 4952 
342 343 568 567 367 368 593 592 3032 4783 4784 4776 3276 4954 4955 4947 3263 3273 4953 4946 4949 4956 3279 4957 4787 4958 4959 
343 344 569 568 368 369 594 593 3042 4790 4791 4783 3286 4961 4962 4954 3273 3283 4960 4953 4956 4963 3289 4964 4794 4965 4966 
344 345 570 569 369 370 595 594 3052 4797 4798 4790 3296 4968 4969 4961 3283 3293 4967 4960 4963 4970 3299 4971 4801 4972 4973 
345 346 571 570 370 371 596 595 3062 4804 4805 4797 3306 4975 4976 4968 3293 3303 4974 4967 4970 4977 3309 4978 4808 4979 4980 
346 347 572 571 371 372 597 596 3072 4811 4812 4804 3316 4982 4983 4975 3303 3313 4981 4974 4977 4984 3319 4985 4815 4986 4987 
347 348 573 572 372 373 598 597 3082 4818 4819 4811 3326 4989 4990 4982 3313 3323 4988 4981 4984 4991 3329 4992 4822 4993 4994 
348 349 574 573 373 374 599 598 3092 4825 4826 4818 3336 4996 4997 4989 3323 3333 4995 4988 4991 4998 3339 4999 4829 5000 5001 
350 351 576 575 375 376 601 600 3104 4833 4834 4835 3348 5004 5005 5006 3345 3344 5002 5003 5009 5007 3352 5008 4839 5010 5011 
351 352 577 576 376 377 602 601 3116 4842 4843 4833 3360 5013 5014 5004 3344 3357 5012 5002 5007 5015 3363 5016 4846 5017 5018 
352 353 578 577 377 378 603 602 3126 4849 4850 4842 3370 5020 5021 5013 3357 3367 5019 5012 5015 5022 3373 5023 4853 5024 5025 
353 354 579 578 378 379 604 603 3136 4856 4857 4849 3380 5027 5028 5020 3367 3377 5026 5019 5022 5029 3383 5030 4860 5031 5032 
354 355 580 579 379 380 605 604 3146 4863 4864 4856 3390 5034 5035 5027 3377 3387 5033 5026 5029 5036 3393 5037 4867 5038 5039 
355 356 581 580 380 381 606 605 3156 4870 4871 4863 3400 5041 5042 5034 3387 3397 5040 5033 5036 5043 3403 5044 4874 5045 5046 
356 357 582 581 381 382 607 606 3166 4877 4878 4870 3410 5048 5049 5041 3397 3407 5047 5040 5043 5050 3413 5051 4881 5052 5053 
357 358 583 582 382 383 608 607 3176 4884 4885 4877 3420 5055 5056 5048 3407 3417 5054 5047 5050 5057 3423 5058 4888 5059 5060 
358 359 584 583 383 384 609 608 3186 4891 4892 4884 3430 5062 5063 5055 3417 3427 5061 5054 5057 5064 3433 5065 4895 5066 5067 
359 360 585 584 384 385 610 609 3196 4898 4899 4891 3440 5069 5070 5062 3427 3437 5068 5061 5064 5071 3443 5072 4902 5073 5074 
360 361 586 585 385 386 611 610 3206 4905 4906 4898 3450 5076 5077 5069 3437 3447 5075 5068 5071 5078 3453 5079 4909 5080 5081 
361 362 587 586 386 387 612 611 3216 4912 4913 4905 3460 5083 5084 5076 3447 3457 5082 5075 5078 5085 3463 5086 4916 5087 5088 
362 363 588 587 387 388 613 612 3226 4919 4920 4912 3470 5090 5091 5083 3457 3467 5089 5082 5085 5092 3473 5093 4923 5094 5095 
363 364 589 588 388 389 614 613 3236 4926 4927 4919 3480 5097 5098 5090 3467 3477 5096 5089 5092 5099 3483 5100 4930 5101 5102 
364 365 590 589 389 390 615 614 3246 4933 4934 4926 3490 5104 5105 5097 3477 3487 5103 5096 5099 5106 3493 5107 4937 5108 5109 
365 366 591 590 390 391 616 615 3256 4940 4941 4933 3500 5111 5112 5104 3487 3497 5110 5103 5106 5113 3503 5114 4944 5115 5116 
366 367 592 591 391 392 617 616 3266 4947 4948 4940 3510 5118 5119 5111 3497 3507 5117 5110 5113 5120 3513 5121 4951 5122 5123 
367 368 593 592 392 393 618 617 3276 4954 4955 4947 3520 5125 5126 5118 3507 3517 5124 5117 5120 5127 3523 5128 4958 5129 5130 
368 369 594 593 393 394 619 618 3286 4961 4962 4954 3530 5132 5133 5125 3517 3527 5131 5124 5127 5134 3533 5135 4965 5136 5137 
369 370 595 594 394 395 620 619 3296 4968 4969 4961 3540 5139 5140 5132 3527 3537 5138 5131 5134 5141 3543 5142 4972 5143 5144 
370 371 596 595 395 396 621 620 3306 4975 4976 4968 3550 5146 5147 5139 3537 3547 5145 5138 5141 5148 3553 5149 4979 5150 5151 
371 372 597 596 396 397 622 621 3316 4982 4983 4975 3560 5153 5154 5146 3547 3557 5152 5145 5148 5155 3563 5156 4986 5157 5158 
372 373 598 597 397 398 623 622 3326 4989 4990 4982 3570 5160 5161 5153 3557 3567 5159 5152 5155 5162 3573 5163 4993 5164 5165 
373 374 599 598 398 399 624 623 3336 4996 4997 4989 3580 5167 5168 5160 3567 3577 5166 5159 5162 5169 3583 5170 5000 5171 5172 
375 376 601 600 400 401 626 625 3348 5004 5005 5006 3592 5175 5176 5177 3589 3588 5173 5174 5180 5178 3596 5179 5010 5181 5182 
376 377 602 601 401 402 627 626 3360 5013 5014 5004 3604 5184 5185 5175 3588 3601 5183 5173 5178 5186 3607 5187 5017 5188 5189 
377 378 603 602 402 403 628 627 3370 5020 5021 5013 3614 5191 5192 5184 3601 3611 5190 5183 5186 5193 3617 5194 5024 5195 5196 
378 379 604 603 403 404 629 628 3380 5027 5028 5020 3624 5198 5199 5191 3611 3621 5197 5190 5193 5200 3627 5201 5031 5202 5203 
379 380 605 604 404 405 630 629 3390 5034 5035 5027 3634 5205 5206 5198 3621 3631 5204 5197 5200 5207 3637 5208 5038 5209 5210 
380 381 606 605 405 406 631 630 3400 5041 5042 5034 3644 5212 5213 5205 3631 3641 5211 5204 5207 5214 3647 5215 5045 5216 5217 
381 382 607 606 406 407 632 631 3410 5048 5049 5041 3654 5219 5220 5212 3641 3651 5218 5211 5214 5221 3657 5222 5052 5223 5224 
382 383 608 607 407 408 633 632 3420 5055 5056 5048 3664 5226 5227 5219 3651 3661 5225 5218 5221 5228 3667 5229 5059 5230 5231 
383 384 609 608 408 409 634 633 3430 5062 5063 5055 3674 5233 5234 5226 3661 3671 5232 5225 5228 5235 3677 5236 5066 5237 5238 
384 385 610 609 409 410 635 634 3440 5069 5070 5062 3684 5240 5241 5233 3671 3681 5239 5232 5235 5242 3687 5243 5073 5244 5245 
385 386 611 610 410 411 636 635 3450 5076 5077 5069 3694 5247 5248 5240 3681 3691 5246 5239 5242 5249 3697 5250 5080 5251 5252 
386 387 612 611 411 412 637 636 3460 5083 5084 5076 3704 5254 5255 5247 3691 3701 5253 5246 5249 5256 3707 5257 5087 5258 5259 
387 388 613 612 412 413 638 637 3470 5090 5091 5083 3714 5261 5262 5254 3701 3711 5260 5253 5256 5263 3717 5264 5094 5265 5266 
388 389 614 613 413 414 639 638 3480 5097 5098 5090 3724 5268 5269 5261 3711 3721 5267 5260 5263 5270 3727 5271 5101 5272 5273 
389 390 615 614 414 415 640 639 3490 5104 5105 5097 3734 5275 5276 5268 3721 3731 5274 5267 5270 5277 3737 5278 5108 5279 5280 
390 391 616 615 415 416 641 640 3500 5111 5112 5104 3744 5282 5283 5275 3731 3741 5281 5274 5277 5284 3747 5285 5115 5286 5287 
391 392 617 616 416 417 642 641 3510 5118 5119 5111 3754 5289 5290 5282 3741 3751 5288 5281 5284 5291 3757 5292 5122 5293 5294 
392 393 618 617 417 418 643 642 3520 5125 5126 5118 3764 5296 5297 5289 3751 3761 5295 5288 5291 5298 3767 5299 5129 5300 5301 
393 394 619 618 418 419 644 643 3530 5132 5133 5125 3774 5303 5304 5296 3761 3771 5302 5295 5298 5305 3777 5306 5136 5307 5308 
394 395 620 619 419 420 645 644 3540 5139 5140 5132 3784 5310 5311 5303 3771 3781 5309 5302 5305 5312 3787 5313 5143 5314 5315 
395 396 621 620 420 421 646 645 3550 5146 5147 5139 3794 5317 5318 5310 3781 3791 5316 5309 5312 5319 3797 5320 5150 5321 5322 
396 397 622 621 421 422 647 646 3560 5153 5154 5146 3804 5324 5325 5317 3791 3801 5323 5316 5319 5326 3807 5327 5157 5328 5329 
397 398 623 622 422 423 648 647 3570 5160 5161 5153 3814 5331 5332 5324 3801 3811 5330 5323 5326 5333 3817 5334 5164 5335 5336 
398 399 624 623 423 424 649 648 3580 5167 5168 5160 3824 5338 5339 5331 3811 3821 5337 5330 5333 5340 3827 5341 5171 5342 5343 
400 401 626 625 425 426 651 650 3592 5175 5176 5177 3836 5346 5347 5348 3833 3832 5344 5345 5351 5349 3840 5350 5181 5352 5353 
401 402 627 626 426 427 652 651 3604 5184 5185 5175 3848 5355 5356 5346 3832 3845 5354 5344 5349 5357 3851 5358 5188 5359 5360 
402 403 628 627 427 428 653 652 3614 5191 5192 5184 3858 5362 5363 5355 3845 3855 5361 5354 5357 5364 3861 5365 5195 5366 5367 
403 404 629 628 428 429 654 653 3624 5198 5199 5191 3868 5369 5370 5362 3855 3865 5368 5361 5364 5371 3871 5372 5202 5373 5374 
404 405 630 629 429 430 655 654 3634 5205 5206 5198 3878 5376 5377 5369 3865 3875 5375 5368 5371 5378 3881 5379 5209 5380 5381 
405 406 631 630 430 431 656 655 3644 5212 5213 5205 3888 5383 5384 5376 3875 3885 5382 5375 5378 5385 3891 5386 5216 5387 5388 
406 407 632 631 431 432 657 656 3654 5219 5220 5212 3898 5390 5391 5383 3885 3895 5389 5382 5385 5392 3901 5393 5223 5394 5395 
407 408 633 632 432 433 658 657 3664 5226 5227 5219 3908 5397 5398 5390 3895 3905 5396 5389 5392 5399 3911 5400 5230 5401 5402 
408 409 634 633 433 434 659 658 3674 5233 5234 5226 3918 5404 5405 5397 3905 3915 5403 5396 5399 5406 3921 5407 5237 5408 5409 
409 410 635 634 434 435 660 659 3684 5240 5241 5233 3928 5411 5412 5404 3915 3925 5410 5403 5406 5413 3931 5414 5244 5415 5416 
410 411 636 635 435 436 661 660 3694 5247 5248 5240 3938 5418 5419 5411 3925 3935 5417 5410 5413 5420 3941 5421 5251 5422 5423 
411 412 637 636 436 437 662 661 3704 5254 5255 5247 3948 5425 5426 5418 3935 3945 5424 5417 5420 5427 3951 5428 5258 5429 5430 
412 413 638 637 437 438 663 662 3714 5261 5262 5254 3958 5432 5433 5425 3945 3955 5431 5424 5427 5434 3961 5435 5265 5436 5437 
413 414 639 638 438 439 664 663 3724 5268 5269 5261 3968 5439 5440 5432 3955 3965 5438 5431 5434 5441 3971 5442 5272 5443 5444 
414 415 640 639 439 440 665 664 3734 5275 5276 5268 3978 5446 5447 5439 3965 3975 5445 5438 5441 5448 3981 5449 5279 5450 5451 
415 416 641 640 440 441 666 665 3744 5282 5283 5275 3988 5453 5454 5446 3975 3985 5452 5445 5448 5455 3991 5456 5286 5457 5458 
416 417 642 641 441 442 667 666 3754 5289 5290 5282 3998 5460 5461 5453 3985 3995 5459 5452 5455 5462 4001 5463 5293 5464 5465 
417 418 643 642 442 443 668 667 3764 5296 5297 5289 4008 5467 5468 5460 3995 4005 5466 5459 5462 5469 4011 5470 5300 5471 5472 
418 419 644 643 443 444 669 668 3774 5303 5304 5296 4018 5474 5475 5467 4005 4015 5473 5466 5469 5476 4021 5477 5307 5478 5479 
419 420 645 644 444 445 670 669 3784 5310 5311 5303 4028 5481 5482 5474 4015 4025 5480 5473 5476 5483 4031 5484 5314 5485 5486 
420 421 646 645 445 446 671 670 3794 5317 5318 5310 4038 5488 5489 5481 4025 4035 5487 5480 5483 5490 4041 5491 5321 5492 5493 
421 422 647 646 446 447 672 671 3804 5324 5325 5317 4048 5495 5496 5488 4035 4045 5494 5487 5490 5497 4051 5498 5328 5499 5500 
422 423 648 647 447 448 673 672 3814 5331 5332 5324 4058 5502 5503 5495 4045 4055 5501 5494 5497 5504 4061 5505 5335 5506 5507 
423 424 649 648 448 449 674 673 3824 5338 5339 5331 4068 5509 5510 5502 4055 4065 5508 5501 5504 5511 4071 5512 5342 5513 5514 
450 451 676 675 475 476 701 700 4075 5515 5516 5517 4080 5520 5521 5522 4078 4077 5518 5519 5526 5524 4084 5525 5523 5527 5528 
451 452 677 676 476 477 702 701 4089 5529 5530 5515 4092 5532 5533 5520 4077 4090 5531 5518 5524 5535 4095 5536 5534 5537 5538 
452 453 678 677 477 478 703 702 4099 5539 5540 5529 4102 5542 5543 5532 4090 4100 5541 5531 5535 5545 4105 5546 5544 5547 5548 
453 454 679 678 478 479 704 703 4109 5549 5550 5539 4112 5552 5553 5542 4100 4110 5551 5541 5545 5555 4115 5556 5554 5557 5558 
454 455 680 679 479 480 705 704 4119 5559 5560 5549 4122 5562 5563 5552 4110 4120 5561 5551 5555 5565 4125 5566 5564 5567 5568 
455 456 681 680 480 481 706 705 4129 5569 5570 5559 4132 5572 5573 5562 4120 4130 5571 5561 5565 5575 4135 5576 5574 5577 5578 
456 457 682 681 481 482 707 706 4139 5579 5580 5569 4142 5582 5583 5572 4130 4140 5581 5571 5575 5585 4145 5586 5584 5587 5588 
457 458 683 682 482 483 708 707 4149 5589 5590 5579 4152 5592 5593 5582 4140 4150 5591 5581 5585 5595 4155 5596 5594 5597 5598 
458 459 684 683 483 484 709 708 4159 5599 5600 5589 4162 5602 5603 5592 4150 4160 5601 5591 5595 5605 4165 5606 5604 5607 5608 
459 460 685 684 484 485 710 709 4169 5609 5610 5599 4172 5612 5613 5602 4160 4170 5611 5601 5605 5615 4175 5616 5614 5617 5618 
460 461 686 685 485 486 711 710 4179 5619 5620 5609 4182 5622 5623 5612 4170 4180 5621 5611 5615 5625 4185 5626 5624 5627 5628 
461 462 687 686 486 487 712 711 4189 5629 5630 5619 4192 5632 5633 5622 4180 4190 5631 5621 5625 5635 4195 5636 5634 5637 5638 
462 463 688 687 487 488 713 712 4199 5639 5640 5629 4202 5642 5643 5632 4190 4200 5641 5631 5635 5645 4205 5646 5644 5647 5648 
463 464 689 688 488 489 714 713 4209 5649 5650 5639 4212 5652 5653 5642 4200 4210 5651 5641 5645 5655 4215 5656 5654 5657 5658 
464 465 690 689 489 490 715 714 4219 5659 5660 5649 4222 5662 5663 5652 4210 4220 5661 5651 5655 5665 4225 5666 5664 5667 5668 
465 466 691 690 490 491 716 715 4229 5669 5670 5659 4232 5672 5673 5662 4220 4230 5671 5661 5665 5675 4235 5676 5674 5677 5678 
466 467 692 691 491 492 717 716 4239 5679 5680 5669 4242 5682 5683 5672 4230 4240 5681 5671 5675 5685 4245 5686 5684 5687 5688 
467 468 693 692 492 493 718 717 4249 5689 5690 5679 4252 5692 5693 5682 4240 4250 5691 5681 5685 5695 4255 5696 5694 5697 5698 
468 469 694 693 493 494 719 718 4259 5699 5700 5689 4262 5702 5703 5692 4250 4260 5701 5691 5695 5705 4265 5706 5704 5707 5708 
469 470 695 694 494 495 720 719 4269 5709 5710 5699 4272 5712 5713 5702 4260 4270 5711 5701 5705 5715 4275 5716 5714 5717 5718 
470 471 696 695 495 496 721 720 4279 5719 5720 5709 4282 5722 5723 5712 4270 4280 5721 5711 5715 5725 4285 5726 5724 5727 5728 
471 472 697 696 496 497 722 721 4289 5729 5730 5719 4292 5732 5733 5722 4280 4290 5731 5721 5725 5735 4295 5736 5734 5737 5738 
472 473 698 697 497 498 723 722 4299 5739 5740 5729 4302 5742 5743 5732 4290 4300 5741 5731 5735 5745 4305 5746 5744 5747 5748 
473 474 699 698 498 499 724 723 4309 5749 5750 5739 4312 5752 5753 5742 4300 4310 5751 5741 5745 5755 4315 5756 5754 5757 5758 
475 476 701 700 500 501 726 725 4080 5520 5521 5522 4321 5761 5762 5763 4319 4318 5759 5760 5766 5764 4324 5765 5527 5767 5768 
476 477 702 701 501 502 727 726 4092 5532 5533 5520 4330 5770 5771 5761 4318 4328 5769 5759 5764 5772 4332 5773 5537 5774 5775 
477 478 703 702 502 503 728 727 4102 5542 5543 5532 4337 5777 5778 5770 4328 4335 5776 5769 5772 5779 4339 5780 5547 5781 5782 
478 479 704 703 503 504 729 728 4112 5552 5553 5542 4344 5784 5785 5777 4335 4342 5783 5776 5779 5786 4346 5787 5557 5788 5789 
479 480 705 704 504 505 730 729 4122 5562 5563 5552 4351 5791 5792 5784 4342 4349 5790 5783 5786 5793 4353 5794 5567 5795 5796 
480 481 706 705 505 506 731 730 4132 5572 5573 5562 4358 5798 5799 5791 4349 4356 5797 5790 5793 5800 4360 5801 5577 5802 5803 
481 482 707 706 506 507 732 731 4142 5582 5583 5572 4365 5805 5806 5798 4356 4363 5804 5797 5800 5807 4367 5808 5587 5809 5810 
482 483 708 707 507 508 733 732 4152 5592 5593 5582 4372 5812 5813 5805 4363 4370 5811 5804 5807 5814 4374 5815 5597 5816 5817 
483 484 709 708 508 509 734 733 4162 5602 5603 5592 4379 5819 5820 5812 4370 4377 5818 5811 5814 5821 4381 5822 5607 5823 5824 
484 485 710 709 509 510 735 734 4172 5612 5613 5602 4386 5826 5827 5819 4377 4384 5825 5818 5821 5828 4388 5829 5617 5830 5831 
485 486 711 710 510 511 736 735 4182 5622 5623 5612 4393 5833 5834 5826 4384 4391 5832 5825 5828 5835 4395 5836 5627 5837 5838 
486 487 712 711 511 512 737 736 4192 5632 5633 5622 4400 5840 5841 5833 4391 4398 5839 5832 5835 5842 4402 5843 5637 5844 5845 
487 488 713 712 512 513 738 737 4202 5642 5643 5632 4407 5847 5848 5840 4398 4405 5846 5839 5842 5849 4409 5850 5647 5851 5852 
488 489 714 713 513 514 739 738 4212 5652 5653 5642 4414 5854 5855 5847 4405 4412 5853 5846 5849 5856 4416 5857 5657 5858 5859 
489 490 715 714 514 515 740 739 4222 5662 5663 5652 4421 5861 5862 5854 4412 4419 5860 5853 5856 5863 4423 5864 5667 5865 5866 
490 491 716 715 515 516 741 740 4232 5672 5673 5662 4428 5868 5869 5861 4419 4426 5867 5860 5863 5870 4430 5871 5677 5872 5873 
491 492 717 716 516 517 742 741 4242 5682 5683 5672 4435 5875 5876 5868 4426 4433 5874 5867 5870 5877 4437 5878 5687 5879 5880 
492 493 718 717 517 518 743 742 4252 5692 5693 5682 4442 5882 5883 5875 4433 4440 5881 5874 5877 5884 4444 5885 5697 5886 5887 
493 494 719 718 518 519 744 743 4262 5702 5703 5692 4449 5889 5890 5882 4440 4447 5888 5881 5884 5891 4451 5892 5707 5893 5894 
494 495 720 719 519 520 745 744 4272 5712 5713 5702 4456 5896 5897 5889 4447 4454 5895 5888 5891 5898 4458 5899 5717 5900 5901 
495 496 721 720 520 521 746 745 4282 5722 5723 5712 4463 5903 5904 5896 4454 4461 5902 5895 5898 5905 4465 5906 5727 5907 5908 
496 497 722 721 521 522 747 746 4292 5732 5733 5722 4470 5910 5911 5903 4461 4468 5909 5902 5905 5912 4472 5913 5737 5914 5915 
497 498 723 722 522 523 748 747 4302 5742 5743 5732 4477 5917 5918 5910 4468 4475 5916 5909 5912 5919 4479 5920 5747 5921 5922 
498 499 724 723 523 524 749 748 4312 5752 5753 5742 4484 5924 5925 5917 4475 4482 5923 5916 5919 5926 4486 5927 5757 5928 5929 
500 501 726 725 525 526 751 750 4321 5761 5762 5763 4492 5932 5933 5934 4490 4489 5930 5931 5937 5935 4495 5936 5767 5938 5939 
501 502 727 726 526 527 752 751 4330 5770 5771 5761 4501 5941 5942 5932 4489 4499 5940 5930 5935 5943 4503 5944 5774 5945 5946 
502 503 728 727 527 528 753 752 4337 5777 5778 5770 4508 5948 5949 5941 4499 4506 5947 5940 5943 5950 4510 5951 5781 5952 5953 
503 504 729 728 528 529 754 753 4344 5784 5785 5777 4515 5955 5956 5948 4506 4513 5954 5947 5950 5957 4517 5958 5788 5959 5960 
504 505 730 729 529 530 755 754 4351 5791 5792 5784 4522 5962 5963 5955 4513 4520 5961 5954 5957 5964 4524 5965 5795 5966 5967 
505 506 731 730 530 531 756 755 4358 5798 5799 5791 4529 5969 5970 5962 4520 4527 5968 5961 5964 5971 4531 5972 5802 5973 5974 
506 507 732 731 531 532 757 756 4365 5805 5806 5798 4536 5976 5977 5969 4527 4534 5975 5968 5971 5978 4538 5979 5809 5980 5981 
507 508 733 732 532 533 758 757 4372 5812 5813 5805 4543 5983 5984 5976 4534 4541 5982 5975 5978 5985 4545 5986 5816 5987 5988 
508 509 734 733 533 534 759 758 4379 5819 5820 5812 4550 5990 5991 5983 4541 4548 5989 5982 5985 5992 4552 5993 5823 5994 5995 
509 510 735 734 534 535 760 759 4386 5826 5827 5819 4557 5997 5998 5990 4548 4555 5996 5989 5992 5999 4559 6000 5830 6001 6002 
510 511 736 735 535 536 761 760 4393 5833 5834 5826 4564 6004 6005 5997 4555 4562 6003 5996 5999 6006 4566 6007 5837 6008 6009 
511 512 737 736 536 537 762 761 4400 5840 5841 5833 4571 6011 6012 6004 4562 4569 6010 6003 6006 6013 4573 6014 5844 6015 6016 
512 513 738 737 537 538 763 762 4407 5847 5848 5840 4578 6018 6019 6011 4569 4576 6017 6010 6013 6020 4580 6021 5851 6022 6023 
513 514 739 738 538 539 764 763 4414 5854 5855 5847 4585 6025 6026 6018 4576 4583 6024 6017 6020 6027 4587 6028 5858 6029 6030 
514 515 740 739 539 540 765 764 4421 5861 5862 5854 4592 6032 6033 6025 4583 4590 6031 6024 6027 6034 4594 6035 5865 6036 6037 
515 516 741 740 540 541 766 765 4428 5868 5869 5861 4599 6039 6040 6032 4590 4597 6038 6031 6034 6041 4601 6042 5872 6043 6044 
516 517 742 741 541 542 767 766 4435 5875 5876 5868 4606 6046 6047 6039 4597 4604 6045 6038 6041 6048 4608 6049 5879 6050 6051 
517 518 743 742 542 543 768 767 4442 5882 5883 5875 4613 6053 6054 6046 4604 4611 6052 6045 6048 6055 4615 6056 5886 6057 6058 
518 519 744 743 543 544 769 768 4449 5889 5890 5882 4620 6060 6061 6053 4611 4618 6059 6052 6055 6062 4622 6063 5893 6064 6065 
519 520 745 744 544 545 770 769 4456 5896 5897 5889 4627 6067 6068 6060 4618 4625 6066 6059 6062 6069 4629 6070 5900 6071 6072 
520 521 746 745 545 546 771 770 4463 5903 5904 5896 4634 6074 6075 6067 4625 4632 6073 6066 6069 6076 4636 6077 5907 6078 6079 
521 522 747 746 546 547 772 771 4470 5910 5911 5903 4641 6081 6082 6074 4632 4639 6080 6073 6076 6083 4643 6084 5914 6085 6086 
522 523 748 747 547 548 773 772 4477 5917 5918 5910 4648 6088 6089 6081 4639 4646 6087 6080 6083 6090 4650 6091 5921 6092 6093 
523 524 749 748 548 549 774 773 4484 5924 5925 5917 4655 6095 6096 6088 4646 4653 6094 6087 6090 6097 4657 6098 5928 6099 6100 
525 526 751 750 550 551 776 775 4492 5932 5933 5934 4663 6103 6104 6105 4661 4660 6101 6102 6108 6106 4666 6107 5938 6109 6110 
526 527 752 751 551 552 777 776 4501 5941 5942 5932 4672 6112 6113 6103 4660 4670 6111 6101 6106 6114 4674 6115 5945 6116 6117 
527 528 753 752 552 553 778 777 4508 5948 5949 5941 4679 6119 6120 6112 4670 4677 6118 6111 6114 6121 4681 6122 5952 6123 6124 
528 529 754 753 553 554 779 778 4515 5955 5956 5948 4686 6126 6127 6119 4677 4684 6125 6118 6121 6128 4688 6129 5959 6130 6131 
529 530 755 754 554 555 780 779 4522 5962 5963 5955 4693 6133 6134 6126 4684 4691 6132 6125 6128 6135 4695 6136 5966 6137 6138 
530 531 756 755 555 556 781 780 4529 5969 5970 5962 4700 6140 6141 6133 4691 4698 6139 6132 6135 6142 4702 6143 5973 6144 6145 
531 532 757 756 556 557 782 781 4536 5976 5977 5969 4707 6147 6148 6140 4698 4705 6146 6139 6142 6149 4709 6150 5980 6151 6152 
532 533 758 757 557 558 783 782 4543 5983 5984 5976 4714 6154 6155 6147 4705 4712 6153 6146 6149 6156 4716 6157 5987 6158 6159 
533 534 759 758 558 559 784 783 4550 5990 5991 5983 4721 6161 6162 6154 4712 4719 6160 6153 6156 6163 4723 6164 5994 6165 6166 
534 535 760 759 559 560 785 784 4557 5997 5998 5990 4728 6168 6169 6161 4719 4726 6167 6160 6163 6170 4730 6171 6001 6172 6173 
535 536 761 760 560 561 786 785 4564 6004 6005 5997 4735 6175 6176 6168 4726 4733 6174 6167 6170 6177 4737 6178 6008 6179 6180 
536 537 762 761 561 562 787 786 4571 6011 6012 6004 4742 6182 6183 6175 4733 4740 6181 6174 6177 6184 4744 6185 6015 6186 6187 
537 538 763 762 562 563 788 787 4578 6018 6019 6011 4749 6189 6190 6182 4740 4747 6188 6181 6184 6191 4751 6192 6022 6193 6194 
538 539 764 763 563 564 789 788 4585 6025 6026 6018 4756 6196 6197 6189 4747 4754 6195 6188 6191 6198 4758 6199 6029 6200 6201 
539 540 765 764 564 565 790 789 4592 6032 6033 6025 4763 6203 6204 6196 4754 4761 6202 6195 6198 6205 4765 6206 6036 6207 6208 
540 541 766 765 565 566 791 790 4599 6039 6040 6032 4770 6210 6211 6203 4761 4768 6209 6202 6205 6212 4772 6213 6043 6214 6215 
541 542 767 766 566 567 792 791 4606 6046 6047 6039 4777 6217 6218 6210 4768 4775 6216 6209 6212 6219 4779 6220 6050 6221 6222 
542 543 768 767 567 568 793 792 4613 6053 6054 6046 4784 6224 6225 6217 4775 4782 6223 6216 6219 6226 4786 6227 6057 6228 6229 
543 544 769 768 568 569 794 793 4620 6060 6061 6053 4791 6231 6232 6224 4782 4789 6230 6223 6226 6233 4793 6234 6064 6235 6236 
544 545 770 769 569 570 795 794 4627 6067 6068 6060 4798 6238 6239 6231 4789 4796 6237 6230 6233 6240 4800 6241 6071 6242 6243 
545 546 771 770 570 571 796 795 4634 6074 6075 6067 4805 6245 6246 6238 4796 4803 6244 6237 6240 6247 4807 6248 6078 6249 6250 
546 547 772 771 571 572 797 796 4641 6081 6082 6074 4812 6252 6253 6245 4803 4810 6251 6244 6247 6254 4814 6255 6085 6256 6257 
547 548 773 772 572 573 798 797 4648 6088 6089 6081 4819 6259 6260 6252 4810 4817 6258 6251 6254 6261 4821 6262 6092 6263 6264 
548 549 774 773 573 574 799 798 4655 6095 6096 6088 4826 6266 6267 6259 4817 4824 6265 6258 6261 6268 4828 6269 6099 6270 6271 
550 551 776 775 575 576 801 800 4663 6103 6104 6105 4834 6274 6275 6276 4832 4831 6272 6273 6279 6277 4837 6278 6109 6280 6281 
551 552 777 776 576 577 802 801 4672 6112 6113 6103 4843 6283 6284 6274 4831 4841 6282 6272 6277 6285 4845 6286 6116 6287 6288 
552 553 778 777 577 578 803 802 4679 6119 6120 6112 4850 6290 6291 6283 4841 4848 6289 6282 6285 6292 4852 6293 6123 6294 6295 
553 554 779 778 578 579 804 803 4686 6126 6127 6119 4857 6297 6298 6290 4848 4855 6296 6289 6292 6299 4859 6300 6130 6301 6302 
554 555 780 779 579 580 805 804 4693 6133 6134 6126 4864 6304 6305 6297 4855 4862 6303 6296 6299 6306 4866 6307 6137 6308 6309 
555 556 781 780 580 581 806 805 4700 6140 6141 6133 4871 6311 6312 6304 4862 4869 6310 6303 6306 6313 4873 6314 6144 6315 6316 
556 557 782 781 581 582 807 806 4707 6147 6148 6140 4878 6318 6319 6311 4869 4876 6317 6310 6313 6320 4880 6321 6151 6322 6323 
557 558 783 782 582 583 808 807 4714 6154 6155 6147 4885 6325 6326 6318 4876 4883 6324 6317 6320 6327 4887 6328 6158 6329 6330 
558 559 784 783 583 584 809 808 4721 6161 6162 6154 4892 6332 6333 6325 4883 4890 6331 6324 6327 6334 4894 6335 6165 6336 6337 
559 560 785 784 584 585 810 809 4728 6168 6169 6161 4899 6339 6340 6332 4890 4897 6338 6331 6334 6341 4901 6342 6172 6343 6344 
560 561 786 785 585 586 811 810 4735 6175 6176 6168 4906 6346 6347 6339 4897 4904 6345 6338 6341 6348 4908 6349 6179 6350 6351 
561 562 787 786 586 587 812 811 4742 6182 6183 6175 4913 6353 6354 6346 4904 4911 6352 6345 6348 6355 4915 6356 6186 6357 6358 
562 563 788 787 587 588 813 812 4749 6189 6190 6182 4920 6360 6361 6353 4911 4918 6359 6352 6355 6362 4922 6363 6193 6364 6365 
563 564 789 788 588 589 814 813 4756 6196 6197 6189 4927 6367 6368 6360 4918 4925 6366 6359 6362 6369 4929 6370 6200 6371 6372 
564 565 790 789 589 590 815 814 4763 6203 6204 6196 4934 6374 6375 6367 4925 4932 6373 6366 6369 6376 4936 6377 6207 6378 6379 
565 566 791 790 590 591 816 815 4770 6210 6211 6203 4941 6381 6382 6374 4932 4939 6380 6373 6376 6383 4943 6384 6214 6385 6386 
566 567 792 791 591 592 817 816 4777 6217 6218 6210 4948 6388 6389 6381 4939 4946 6387 6380 6383 6390 4950 6391 6221 6392 6393 
567 568 793 792 592 593 818 817 4784 6224 6225 6217 4955 6395 6396 6388 4946 4953 6394 6387 6390 6397 4957 6398 6228 6399 6400 
568 569 794 793 593 594 819 818 4791 6231 6232 6224 4962 6402 6403 6395 4953 4960 6401 6394 6397 6404 4964 6405 6235 6406 6407 
569 570 795 794 594 595 820 819 4798 6238 6239 6231 4969 6409 6410 6402 4960 4967 6408 6401 6404 6411 4971 6412 6242 6413 6414 
570 571 796 795 595 596 821 820 4805 6245 6246 6238 4976 6416 6417 6409 4967 4974 6415 6408 6411 6418 4978 6419 6249 6420 6421 
571 572 797 796 596 597 822 821 4812 6252 6253 6245 4983 6423 6424 6416 4974 4981 6422 6415 6418 6425 4985 6426 6256 6427 6428 
572 573 798 797 597 598 823 822 4819 6259 6260 6252 4990 6430 6431 6423 4981 4988 6429 6422 6425 6432 4992 6433 6263 6434 6435 
573 574 799 798 598 599 824 823 4826 6266 6267 6259 4997 6437 6438 6430 4988 4995 6436 6429 6432 6439 4999 6440 6270 6441 6442 
575 576 801 800 600 601 826 825 4834 6274 6275 6276 5005 6445 6446 6447 5003 5002 6443 6444 6450 6448 5008 6449 6280 6451 6452 
576 577 802 801 601 602 827 826 4843 6283 6284 6274 5014 6454 6455 6445 5002 5012 6453 6443 6448 6456 5016 6457 6287 6458 6459 
577 578 803 802 602 603 828 827 4850 6290 6291 6283 5021 6461 6462 6454 5012 5019 6460 6453 6456 6463 5023 6464 6294 6465 6466 
578 579 804 803 603 604 829 828 4857 6297 6298 6290 5028 6468 6469 6461 5019 5026 6467 6460 6463 6470 5030 6471 6301 6472 6473 
579 580 805 804 604 605 830 829 4864 6304 6305 6297 5035 6475 6476 6468 5026 5033 6474 6467 6470 6477 5037 6478 6308 6479 6480 
580 581 806 805 605 606 831 830 4871 6311 6312 6304 5042 6482 6483 6475 5033 5040 6481 6474 6477 6484 5044 6485 6315 6486 6487 
581 582 807 806 606 607 832 831 4878 6318 6319 6311 5049 6489 6490 6482 5040 5047 6488 6481 6484 6491 5051 6492 6322 6493 6494 
582 583 808 807 607 608 833 832 4885 6325 6326 6318 5056 6496 6497 6489 5047 5054 6495 6488 6491 6498 5058 6499 6329 6500 6501 
583 584 809 808 608 609 834 833 4892 6332 6333 6325 5063 6503 6504 6496 5054 5061 6502 6495 6498 6505 5065 6506 6336 6507 6508 
584 585 810 809 609 610 835 834 4899 6339 6340 6332 5070 6510 6511 6503 5061 5068 6509 6502 6505 6512 5072 6513 6343 6514 6515 
585 586 811 810 610 611 836 835 4906 6346 6347 6339 5077 6517 6518 6510 5068 5075 6516 6509 6512 6519 5079 6520 6350 6521 6522 
586 587 812 811 611 612 837 836 4913 6353 6354 6346 5084 6524 6525 6517 5075 5082 6523 6516 6519 6526 5086 6527 6357 6528 6529 
587 588 813 812 612 613 838 837 4920 6360 6361 6353 5091 6531 6532 6524 5082 5089 6530 6523 6526 6533 5093 6534 6364 6535 6536 
588 589 814 813 613 614 839 838 4927 6367 6368 6360 5098 6538 6539 6531 5089 5096 6537 6530 6533 6540 5100 6541 6371 6542 6543 
589 590 815 814 614 615 840 839 4934 6374 6375 6367 5105 6545 6546 6538 5096 5103 6544 6537 6540 6547 5107 6548 6378 6549 6550 
590 591 816 815 615 616 841 840 4941 6381 6382 6374 5112 6552 6553 6545 5103 5110 6551 6544 6547 6554 5114 6555 6385 6556 6557 
591 592 817 816 616 617 842 841 4948 6388 6389 6381 5119 6559 6560 6552 5110 5117 6558 6551 6554 6561 5121 6562 6392 6563 6564 
592 593 818 817 617 618 843 842 4955 6395 6396 6388 5126 6566 6567 6559 5117 5124 6565 6558 6561 6568 5128 6569 6399 6570 6571 
593 594 819 818 618 619 844 843 4962 6402 6403 6395 5133 6573 6574 6566 5124 5131 6572 6565 6568 6575 5135 6576 6406 6577 6578 
594 595 820 819 619 620 845 844 4969 6409 6410 6402 5140 6580 6581 6573 5131 5138 6579 6572 6575 6582 5142 6583 6413 6584 6585 
595 596 821 820 620 621 846 845 4976 6416 6417 6409 5147 6587 6588 6580 5138 5145 6586 6579 6582 6589 5149 6590 6420 6591 6592 
596 597 822 821 621 622 847 846 4983 6423 6424 6416 5154 6594 6595 6587 5145 5152 6593 6586 6589 6596 5156 6597 6427 6598 6599 
597 598 823 822 622 623 848 847 4990 6430 6431 6423 5161 6601 6602 6594 5152 5159 6600 6593 6596 6603 5163 6604 6434 6605 6606 
598 599 824 823 623 624 849 848 4997 6437 6438 6430 5168 6608 6609 6601 5159 5166 6607 6600 6603 6610 5170 6611 6441 6612 6613 
600 601 826 825 625 626 851 850 5005 6445 6446 6447 5176 6616 6617 6618 5174 5173 6614 6615 6621 6619 5179 6620 6451 6622 6623 
601 602 827 826 626 627 852 851 5014 6454 6455 6445 5185 6625 6626 6616 5173 5183 6624 6614 6619 6627 5187 6628 6458 6629 6630 
602 603 828 827 627 628 853 852 5021 6461 6462 6454 5192 6632 6633 6625 5183 5190 6631 6624 6627 6634 5194 6635 6465 6636 6637 
603 604 829 828 628 629 854 853 5028 6468 6469 6461 5199 6639 6640 6632 5190 5197 6638 6631 6634 6641 5201 6642 6472 6643 6644 
604 605 830 829 629 630 855 854 5035 6475 6476 6468 5206 6646 6647 6639 5197 5204 6645 6638 6641 6648 5208 6649 6479 6650 6651 
605 606 831 830 630 631 856 855 5042 6482 6483 6475 5213 6653 6654 6646 5204 5211 6652 6645 6648 6655 5215 6656 6486 6657 6658 
606 607 832 831 631 632 857 856 5049 6489 6490 6482 5220 6660 6661 6653 5211 5218 6659 6652 6655 6662 5222 6663 6493 6664 6665 
607 608 833 832 632 633 858 857 5056 6496 6497 6489 5227 6667 6668 6660 5218 5225 6666 6659 6662 6669 5229 6670 6500 6671 6672 
608 609 834 833 633 634 859 858 5063 6503 6504 6496 5234 6674 6675 6667 5225 5232 6673 6666 6669 6676 5236 6677 6507 6678 6679 
609 610 835 834 634 635 860 859 5070 6510 6511 6503 5241 6681 6682 6674 5232 5239 6680 6673 6676 6683 5243 6684 6514 6685 6686 
610 611 836 835 635 636 861 860 5077 6517 6518 6510 5248 6688 6689 6681 5239 5246 6687 6680 6683 6690 5250 6691 6521 6692 6693 
611 612 837 836 636 637 862 861 5084 6524 6525 6517 5255 6695 6696 6688 5246 5253 6694 6687 6690 6697 5257 6698 6528 6699 6700 
612 613 838 837 637 638 863 862 5091 6531 6532 6524 5262 6702 6703 6695 5253 5260 6701 6694 6697 6704 5264 6705 6535 6706 6707 
613 614 839 838 638 639 864 863 5098 6538 6539 6531 5269 6709 6710 6702 5260 5267 6708 6701 6704 6711 5271 6712 6542 6713 6714 
614 615 840 839 639 640 865 864 5105 6545 6546 6538 5276 6716 6717 6709 5267 5274 6715 6708 6711 6718 5278 6719 6549 6720 6721 
615 616 841 840 640 641 866 865 5112 6552 6553 6545 5283 6723 6724 6716 5274 5281 6722 6715 6718 6725 5285 6726 6556 6727 6728 
616 617 842 841 641 642 867 866 5119 6559 6560 6552 5290 6730 6731 6723 5281 5288 6729 6722 6725 6732 5292 6733 6563 6734 6735 
617 618 843 842 642 643 868 867 5126 6566 6567 6559 5297 6737 6738 6730 5288 5295 6736 6729 6732 6739 5299 6740 6570 6741 6742 
618 619 844 843 643 644 869 868 5133 6573 6574 6566 5304 6744 6745 6737 5295 5302 6743 6736 6739 6746 5306 6747 6577 6748 6749 
619 620 845 844 644 645 870 869 5140 6580 6581 6573 5311 6751 6752 6744 5302 5309 6750 6743 6746 6753 5313 6754 6584 6755 6756 
620 621 846 845 645 646 871 870 5147 6587 6588 6580 5318 6758 6759 6751 5309 5316 6757 6750 6753 6760 5320 6761 6591 6762 6763 
621 622 847 846 646 647 872 871 5154 6594 6595 6587 5325 6765 6766 6758 5316 5323 6764 6757 6760 6767 5327 6768 6598 6769 6770 
622 623 848 847 647 648 873 872 5161 6601 6602 6594 5332 6772 6773 6765 5323 5330 6771 6764 6767 6774 5334 6775 6605 6776 6777 
623 624 849 848 648 649 874 873 5168 6608 6609 6601 5339 6779 6780 6772 5330 5337 6778 6771 6774 6781 5341 6782 6612 6783 6784 
625 626 851 850 650 651 876 875 5176 6616 6617 6618 5347 6787 6788 6789 5345 5344 6785 6786 6792 6790 5350 6791 6622 6793 6794 
626 627 852 851 651 652 877 876 5185 6625 6626 6616 5356 6796 6797 6787 5344 5354 6795 6785 6790 6798 5358 6799 6629 6800 6801 
627 628 853 852 652 653 878 877 5192 6632 6633 6625 5363 6803 6804 6796 5354 5361 6802 6795 6798 6805 5365 6806 6636 6807 6808 
628 629 854 853 653 654 879 878 5199 6639 6640 6632 5370 6810 6811 6803 5361 5368 6809 6802 6805 6812 5372 6813 6643 6814 6815 
629 630 855 854 654 655 880 879 5206 6646 6647 6639 5377 6817 6818 6810 5368 5375 6816 6809 6812 6819 5379 6820 6650 6821 6822 
630 631 856 855 655 656 881 880 5213 6653 6654 6646 5384 6824 6825 6817 5375 5382 6823 6816 6819 6826 5386 6827 6657 6828 6829 
631 632 857 856 656 657 882 881 5220 6660 6661 6653 5391 6831 6832 6824 5382 5389 6830 6823 6826 6833 5393 6834 6664 6835 6836 
632 633 858 857 657 658 883 882 5227 6667 6668 6660 5398 6838 6839 6831 5389 5396 6837 6830 6833 6840 5400 6841 6671 6842 6843 
633 634 859 858 658 659 884 883 5234 6674 6675 6667 5405 6845 6846 6838 5396 5403 6844 6837 6840 6847 5407 6848 6678 6849 6850 
634 635 860 859 659 660 885 884 5241 6681 6682 6674 5412 6852 6853 6845 5403 5410 6851 6844 6847 6854 5414 6855 6685 6856 6857 
635 636 861 860 660 661 886 885 5248 6688 6689 6681 5419 6859 6860 6852 5410 5417 6858 6851 6854 6861 5421 6862 6692 6863 6864 
636 637 862 861 661 662 887 886 5255 6695 6696 6688 5426 6866 6867 6859 5417 5424 6865 6858 6861 6868 5428 6869 6699 6870 6871 
637 638 863 862 662 663 888 887 5262 6702 6703 6695 5433 6873 6874 6866 5424 5431 6872 6865 6868 6875 5435 6876 6706 6877 6878 
638 639 864 863 663 664 889 888 5269 6709 6710 6702 5440 6880 6881 6873 5431 5438 6879 6872 6875 6882 5442 6883 6713 6884 6885 
639 640 865 864 664 665 890 889 5276 6716 6717 6709 5447 6887 6888 6880 5438 5445 6886 6879 6882 6889 5449 6890 6720 6891 6892 
640 641 866 865 665 666 891 890 5283 6723 6724 6716 5454 6894 6895 6887 5445 5452 6893 6886 6889 6896 5456 6897 6727 6898 6899 
641 642 867 866 666 667 892 891 5290 6730 6731 6723 5461 6901 6902 6894 5452 5459 6900 6893 6896 6903 5463 6904 6734 6905 6906 
642 643 868 867 667 668 893 892 5297 6737 6738 6730 5468 6908 6909 6901 5459 5466 6907 6900 6903 6910 5470 6911 6741 6912 6913 
643 644 869 868 668 669 894 893 5304 6744 6745 6737 5475 6915 6916 6908 5466 5473 6914 6907 6910 6917 5477 6918 6748 6919 6920 
644 645 870 869 669 670 895 894 5311 6751 6752 6744 5482 6922 6923 6915 5473 5480 6921 6914 6917 6924 5484 6925 6755 6926 6927 
645 646 871 870 670 671 896 895 5318 6758 6759 6751 5489 6929 6930 6922 5480 5487 6928 6921 6924 6931 5491 6932 6762 6933 6934 
646 647 872 871 671 672 897 896 5325 6765 6766 6758 5496 6936 6937 6929 5487 5494 6935 6928 6931 6938 5498 6939 6769 6940 6941 
647 648 873 872 672 673 898 897 5332 6772 6773 6765 5503 6943 6944 6936 5494 5501 6942 6935 6938 6945 5505 6946 6776 6947 6948 
648 649 874 873 673 674 899 898 5339 6779 6780 6772 5510 6950 6951 6943 5501 5508 6949 6942 6945 6952 5512 6953 6783 6954 6955 
675 676 901 900 700 701 926 925 5516 6956 6957 6958 5521 6961 6962 6963 5519 5518 6959 6960 6967 6965 5525 6966 6964 6968 6969 
676 677 902 901 701 702 927 926 5530 6970 6971 6956 5533 6973 6974 6961 5518 5531 6972 6959 6965 6976 5536 6977 6975 6978 6979 
677 678 903 902 702 703 928 927 5540 6980 6981 6970 5543 6983 6984 6973 5531 5541 6982 6972 6976 6986 5546 6987 6985 6988 6989 
678 679 904 903 703 704 929 928 5550 6990 6991 6980 5553 6993 6994 6983 5541 5551 6992 6982 6986 6996 5556 6997 6995 6998 6999 
679 680 905 904 704 705 930 929 5560 7000 7001 6990 5563 7003 7004 6993 5551 5561 7002 6992 6996 7006 5566 7007 7005 7008 7009 
680 681 906 905 705 706 931 930 5570 7010 7011 7000 5573 7013 7014 7003 5561 5571 7012 7002 7006 7016 5576 7017 7015 7018 7019 
681 682 907 906 706 707 932 931 5580 7020 7021 7010 5583 7023 7024 7013 5571 5581 7022 7012 7016 7026 5586 7027 7025 7028 7029 
682 683 908 907 707 708 933 932 5590 7030 7031 7020 5593 7033 7034 7023 5581 5591 7032 7022 7026 7036 5596 7037 7035 7038 7039 
683 684 909 908 708 709 934 933 5600 7040 7041 7030 5603 7043 7044 7033 5591 5601 7042 7032 7036 7046 5606 7047 7045 7048 7049 
684 685 910 909 709 710 935 934 5610 7050 7051 7040 5613 7053 7054 7043 5601 5611 7052 7042 7046 7056 5616 7057 7055 7058 7059 
685 686 911 910 710 711 936 935 5620 7060 7061 7050 5623 7063 7064 7053 5611 5621 7062 7052 7056 7066 5626 7067 7065 7068 7069 
686 687 912 911 711 712 937 936 5630 7070 7071 7060 5633 7073 7074 7063 5621 5631 7072 7062 7066 7076 5636 7077 7075 7078 7079 
687 688 913 912 712 713 938 937 5640 7080 7081 7070 5643 7083 7084 7073 5631 5641 7082 7072 7076 7086 5646 7087 7085 7088 7089 
688 689 914 913 713 714 939 938 5650 7090 7091 7080 5653 7093 7094 7083 5641 5651 7092 7082 7086 7096 5656 7097 7095 7098 7099 
689 690 915 914 714 715 940 939 5660 7100 7101 7090 5663 7103 7104 7093 5651 5661 7102 7092 7096 7106 5666 7107 7105 7108 7109 
690 691 916 915 715 716 941 940 5670 7110 7111 7100 5673 7113 7114 7103 5661 5671 7112 7102 7106 7116 5676 7117 7115 7118 7119 
691 692 917 916 716 717 942 941 5680 7120 7121 7110 5683 7123 7124 7113 5671 5681 7122 7112 7116 7126 5686 7127 7125 7128 7129 
692 693 918 917 717 718 943 942 5690 7130 7131 7120 5693 7133 7134 7123 5681 5691 7132 7122 7126 7136 5696 7137 7135 7138 7139 
693 694 919 918 718 719 944 943 5700 7140 7141 7130 5703 7143 7144 7133 5691 5701 7142 7132 7136 7146 5706 7147 7145 7148 7149 
694 695 920 919 719 720 945 944 5710 7150 7151 7140 5713 7153 7154 7143 5701 5711 7152 7142 7146 7156 5716 7157 7155 7158 7159 
695 696 921 920 720 721 946 945 5720 7160 7161 7150 5723 7163 7164 7153 5711 5721 7162 7152 7156 7166 5726 7167 7165 7168 7169 
696 697 922 921 721 722 947 946 5730 7170 7171 7160 5733 7173 7174 7163 5721 5731 7172 7162 7166 7176 5736 7177 7175 7178 7179 
697 698 923 922 722 723 948 947 5740 7180 7181 7170 5743 7183 7184 7173 5731 5741 7182 7172 7176 7186 5746 7187 7185 7188 7189 
698 699 924 923 723 724 949 948 5750 7190 7191 7180 5753 7193 7194 7183 5741 5751 7192 7182 7186 7196 5756 7197 7195 7198 7199 
700 701 926 925 725 726 951 950 5521 6961 6962 6963 5762 7202 7203 7204 5760 5759 7200 7201 7207 7205 5765 7206 6968 7208 7209 
701 702 927 926 726 727 952 951 5533 6973 6974 6961 5771 7211 7212 7202 5759 5769 7210 7200 7205 7213 5773 7214 6978 7215 7216 
702 703 928 927 727 728 953 952 5543 6983 6984 6973 5778 7218 7219 7211 5769 5776 7217 7210 7213 7220 5780 7221 6988 7222 7223 
703 704 929 928 728 729 954 953 5553 6993 6994 6983 5785 7225 7226 7218 5776 5783 7224 7217 7220 7227 5787 7228 6998 7229 7230 
704 705 930 929 729 730 955 954 5563 7003 7004 6993 5792 7232 7233 7225 5783 5790 7231 7224 7227 7234 5794 7235 7008 7236 7237 
705 706 931 930 730 731 956 955 5573 7013 7014 7003 5799 7239 7240 7232 5790 5797 7238 7231 7234 7241 5801 7242 7018 7243 7244 
706 707 932 931 731 732 957 956 5583 7023 7024 7013 5806 7246 7247 7239 5797 5804 7245 7238 7241 7248 5808 7249 7028 7250 7251 
707 708 933 932 732 733 958 957 5593 7033 7034 7023 5813 7253 7254 7246 5804 5811 7252 7245 7248 7255 5815 7256 7038 7257 7258 
708 709 934 933 733 734 959 958 5603 7043 7044 7033 5820 7260 7261 7253 5811 5818 7259 7252 7255 7262 5822 7263 7048 7264 7265 
709 710 935 934 734 735 960 959 5613 7053 7054 7043 5827 7267 7268 7260 5818 5825 7266 7259 7262 7269 5829 7270 7058 7271 7272 
710 711 936 935 735 736 961 960 5623 7063 7064 7053 5834 7274 7275 7267 5825 5832 7273 7266 7269 7276 5836 7277 7068 7278 7279 
711 712 937 936 736 737 962 961 5633 7073 7074 7063 5841 7281 7282 7274 5832 5839 7280 7273 7276 7283 5843 7284 7078 7285 7286 
712 713 938 937 737 738 963 962 5643 7083 7084 7073 5848 7288 7289 7281 5839 5846 7287 7280 7283 7290 5850 7291 7088 7292 7293 
713 714 939 938 738 739 964 963 5653 7093 7094 7083 5855 7295 7296 7288 5846 5853 7294 7287 7290 7297 5857 7298 7098 7299 7300 
714 715 940 939 739 740 965 964 5663 7103 7104 7093 5862 7302 7303 7295 5853 5860 7301 7294 7297 7304 5864 7305 7108 7306 7307 
715 716 941 940 740 741 966 965 5673 7113 7114 7103 5869 7309 7310 7302 5860 5867 7308 7301 7304 7311 5871 7312 7118 7313 7314 
716 717 942 941 741 742 967 966 5683 7123 7124 7113 5876 7316 7317 7309 5867 5874 7315 7308 7311 7318 5878 7319 7128 7320 7321 
717 718 943 942 742 743 968 967 5693 7133 7134 7123 5883 7323 7324 7316 5874 5881 7322 7315 7318 7325 5885 7326 7138 7327 7328 
718 719 944 943 743 744 969 968 5703 7143 7144 7133 5890 7330 7331 7323 5881 5888 7329 7322 7325 7332 5892 7333 7148 7334 7335 
719 720 945 944 744 745 970 969 5713 7153 7154 7143 5897 7337 7338 7330 5888 5895 7336 7329 7332 7339 5899 7340 7158 7341 7342 
720 721 946 945 745 746 971 970 5723 7163 7164 7153 5904 7344 7345 7337 5895 5902 7343 7336 7339 7346 5906 7347 7168 7348 7349 
721 722 947 946 746 747 972 971 5733 7173 7174 7163 5911 7351 7352 7344 5902 5909 7350 7343 7346 7353 5913 7354 7178 7355 7356 
722 723 948 947 747 748 973 972 5743 7183 7184 7173 5918 7358 7359 7351 5909 5916 7357 7350 7353 7360 5920 7361 7188 7362 7363 
723 724 949 948 748 749 974 973 5753 7193 7194 7183 5925 7365 7366 7358 5916 5923 7364 7357 7360 7367 5927 7368 7198 7369 7370 
725 726 951 950 750 751 976 975 5762 7202 7203 7204 5933 7373 7374 7375 5931 5930 7371 7372 7378 7376 5936 7377 7208 7379 7380 
726 727 952 951 751 752 977 976 5771 7211 7212 7202 5942 7382 7383 7373 5930 5940 7381 7371 7376 7384 5944 7385 7215 7386 7387 
727 728 953 952 752 753 978 977 5778 7218 7219 7211 5949 7389 7390 7382 5940 5947 7388 7381 7384 7391 5951 7392 7222 7393 7394 
728 729 954 953 753 754 979 978 5785 7225 7226 7218 5956 7396 7397 7389 5947 5954 7395 7388 7391 7398 5958 7399 7229 7400 7401 
729 730 955 954 754 755 980 979 5792 7232 7233 7225 5963 7403 7404 7396 5954 5961 7402 7395 7398 7405 5965 7406 7236 7407 7408 
730 731 956 955 755 756 981 980 5799 7239 7240 7232 5970 7410 7411 7403 5961 5968 7409 7402 7405 7412 5972 7413 7243 7414 7415 
731 732 957 956 756 757 982 981 5806 7246 7247 7239 5977 7417 7418 7410 5968 5975 7416 7409 7412 7419 5979 7420 7250 7421 7422 
732 733 958 957 757 758 983 982 5813 7253 7254 7246 5984 7424 7425 7417 5975 5982 7423 7416 7419 7426 5986 7427 7257 7428 7429 
733 734 959 958 758 759 984 983 5820 7260 7261 7253 5991 7431 7432 7424 5982 5989 7430 7423 7426 7433 5993 7434 7264 7435 7436 
734 735 960 959 759 760 985 984 5827 7267 7268 7260 5998 7438 7439 7431 5989 5996 7437 7430 7433 7440 6000 7441 7271 7442 7443 
735 736 961 960 760 761 986 985 5834 7274 7275 7267 6005 7445 7446 7438 5996 6003 7444 7437 7440 7447 6007 7448 7278 7449 7450 
736 737 962 961 761 762 987 986 5841 7281 7282 7274 6012 7452 7453 7445 6003 6010 7451 7444 7447 7454 6014 7455 7285 7456 7457 
737 738 963 962 762 763 988 987 5848 7288 7289 7281 6019 7459 7460 7452 6010 6017 7458 7451 7454 7461 6021 7462 7292 7463 7464 
738 739 964 963 763 764 989 988 5855 7295 7296 7288 6026 7466 7467 7459 6017 6024 7465 7458 7461 7468 6028 7469 7299 7470 7471 
739 740 965 964 764 765 990 989 5862 7302 7303 7295 6033 7473 7474 7466 6024 6031 7472 7465 7468 7475 6035 7476 7306 7477 7478 
740 741 966 965 765 766 991 990 5869 7309 7310 7302 6040 7480 7481 7473 6031 6038 7479 7472 7475 7482 6042 7483 7313 7484 7485 
741 742 967 966 766 767 992 991 5876 7316 7317 7309 6047 7487 7488 7480 6038 6045 7486 7479 7482 7489 6049 7490 7320 7491 7492 
742 743 968 967 767 768 993 992 5883 7323 7324 7316 6054 7494 7495 7487 6045 6052 7493 7486 7489 7496 6056 7497 7327 7498 7499 
743 744 969 968 768 769 994 993 5890 7330 7331 7323 6061 7501 7502 7494 6052 6059 7500 7493 7496 7503 6063 7504 7334 7505 7506 
744 745 970 969 769 770 995 994 5897 7337 7338 7330 6068 7508 7509 7501 6059 6066 7507 7500 7503 7510 6070 7511 7341 7512 7513 
745 746 971 970 770 771 996 995 5904 7344 7345 7337 6075 7515 7516 7508 6066 6073 7514 7507 7510 7517 6077 7518 7348 7519 7520 
746 747 972 971 771 772 997 996 5911 7351 7352 7344 6082 7522 7523 7515 6073 6080 7521 7514 7517 7524 6084 7525 7355 7526 7527 
747 748 973 972 772 773 998 997 5918 7358 7359 7351 6089 7529 7530 7522 6080 6087 7528 7521 7524 7531 6091 7532 7362 7533 7534 
748 749 974 973 773 774 999 998 5925 7365 7366 7358 6096 7536 7537 7529 6087 6094 7535 7528 7531 7538 6098 7539 7369 7540 7541 
750 751 976 975 775 776 1001 1000 5933 7373 7374 7375 6104 7544 7545 7546 6102 6101 7542 7543 7549 7547 6107 7548 7379 7550 7551 
751 752 977 976 776 777 1002 1001 5942 7382 7383 7373 6113 7553 7554 7544 6101 6111 7552 7542 7547 7555 6115 7556 7386 7557 7558 
752 753 978 977 777 778 1003 1002 5949 7389 7390 7382 6120 7560 7561 7553 6111 6118 7559 7552 7555 7562 6122 7563 7393 7564 7565 
753 754 979 978 778 779 1004 1003 5956 7396 7397 7389 6127 7567 7568 7560 6118 6125 7566 7559 7562 7569 6129 7570 7400 7571 7572 
754 755 980 979 779 780 1005 1004 5963 7403 7404 7396 6134 7574 7575 7567 6125 6132 7573 7566 7569 7576 6136 7577 7407 7578 7579 
755 756 981 980 780 781 1006 1005 5970 7410 7411 7403 6141 7581 7582 7574 6132 6139 7580 7573 7576 7583 6143 7584 7414 7585 7586 
756 757 982 981 781 782 1007 1006 5977 7417 7418 7410 6148 7588 7589 7581 6139 6146 7587 7580 7583 7590 6150 7591 7421 7592 7593 
757 758 983 982 782 783 1008 1007 5984 7424 7425 7417 6155 7595 7596 7588 6146 6153 7594 7587 7590 7597 6157 7598 7428 7599 7600 
758 759 984 983 783 784 1009 1008 5991 7431 7432 7424 6162 7602 7603 7595 6153 6160 7601 7594 7597 7604 6164 7605 7435 7606 7607 
759 760 985 984 784 785 1010 1009 5998 7438 7439 7431 6169 7609 7610 7602 6160 6167 7608 7601 7604 7611 6171 7612 7442 7613 7614 
760 761 986 985 785 786 1011 1010 6005 7445 7446 7438 6176 7616 7617 7609 6167 6174 7615 7608 7611 7618 6178 7619 7449 7620 7621 
761 762 987 986 786 787 1012 1011 6012 7452 7453 7445 6183 7623 7624 7616 6174 6181 7622 7615 7618 7625 6185 7626 7456 7627 7628 
762 763 988 987 787 788 1013 1012 6019 7459 7460 7452 6190 7630 7631 7623 6181 6188 7629 7622 7625 7632 6192 7633 7463 7634 7635 
763 764 989 988 788 789 1014 1013 6026 7466 7467 7459 6197 7637 7638 7630 6188 6195 7636 7629 7632 7639 6199 7640 7470 7641 7642 
764 765 990 989 789 790 1015 1014 6033 7473 7474 7466 6204 7644 7645 7637 6195 6202 7643 7636 7639 7646 6206 7647 7477 7648 7649 
765 766 991 990 790 791 1016 1015 6040 7480 7481 7473 6211 7651 7652 7644 6202 6209 7650 7643 7646 7653 6213 7654 7484 7655 7656 
766 767 992 991 791 792 1017 1016 6047 7487 7488 7480 6218 7658 7659 7651 6209 6216 7657 7650 7653 7660 6220 7661 7491 7662 7663 
767 768 993 992 792 793 1018 1017 6054 7494 7495 7487 6225 7665 7666 7658 6216 6223 7664 7657 7660 7667 6227 7668 7498 7669 7670 
768 769 994 993 793 794 1019 1018 6061 7501 7502 7494 6232 7672 7673 7665 6223 6230 7671 7664 7667 7674 6234 7675 7505 7676 7677 
769 770 995 994 794 795 1020 1019 6068 7508 7509 7501 6239 7679 7680 7672 6230 6237 7678 7671 7674 7681 6241 7682 7512 7683 7684 
770 771 996 995 795 796 1021 1020 6075 7515 7516 7508 6246 7686 7687 7679 6237 6244 7685 7678 7681 7688 6248 7689 7519 7690 7691 
771 772 997 996 796 797 1022 1021 6082 7522 7523 7515 6253 7693 7694 7686 6244 6251 7692 7685 7688 7695 6255 7696 7526 7697 7698 
772 773 998 997 797 798 1023 1022 6089 7529 7530 7522 6260 7700 7701 7693 6251 6258 7699 7692 7695 7702 6262 7703 7533 7704 7705 
773 774 999 998 798 799 1024 1023 6096 7536 7537 7529 6267 7707 7708 7700 6258 6265 7706 7699 7702 7709 6269 7710 7540 7711 7712 
775 776 1001 1000 800 801 1026 1025 6104 7544 7545 7546 6275 7715 7716 7717 6273 6272 7713 7714 7720 7718 6278 7719 7550 7721 7722 
776 777 1002 1001 801 802 1027 1026 6113 7553 7554 7544 6284 7724 7725 7715 6272 6282 7723 7713 7718 7726 6286 7727 7557 7728 7729 
777 778 1003 1002 802 803 1028 1027 6120 7560 7561 7553 6291 7731 7732 7724 6282 6289 7730 7723 7726 7733 6293 7734 7564 7735 7736 
778 779 1004 1003 803 804 1029 1028 6127 7567 7568 7560 6298 7738 7739 7731 6289 6296 7737 7730 7733 7740 6300 7741 7571 7742 7743 
779 780 1005 1004 804 805 1030 1029 6134 7574 7575 7567 6305 7745 7746 7738 6296 6303 7744 7737 7740 7747 6307 7748 7578 7749 7750 
780 781 1006 1005 805 806 1031 1030 6141 7581 7582 7574 6312 7752 7753 7745 6303 6310 7751 7744 7747 7754 6314 7755 7585 7756 7757 
781 782 1007 1006 806 807 1032 1031 6148 7588 7589 7581 6319 7759 7760 7752 6310 6317 7758 7751 7754 7761 6321 7762 7592 7763 7764 
782 783 1008 1007 807 808 1033 1032 6155 7595 7596 7588 6326 7766 7767 7759 6317 6324 7765 7758 7761 7768 6328 7769 7599 7770 7771 
783 784 1009 1008 808 809 1034 1033 6162 7602 7603 7595 6333 7773 7774 7766 6324 6331 7772 7765 7768 7775 6335 7776 7606 7777 7778 
784 785 1010 1009 809 810 1035 1034 6169 7609 7610 7602 6340 7780 7781 7773 6331 6338 7779 7772 7775 7782 6342 7783 7613 7784 7785 
785 786 1011 1010 810 811 1036 1035 6176 7616 7617 7609 6347 7787 7788 7780 6338 6345 7786 7779 7782 7789 6349 7790 7620 7791 7792 
786 787 1012 1011 811 812 1037 1036 6183 7623 7624 7616 6354 7794 7795 7787 6345 6352 7793 7786 7789 7796 6356 7797 7627 7798 7799 
787 788 1013 1012 812 813 1038 1037 6190 7630 7631 7623 6361 7801 7802 7794 6352 6359 7800 7793 7796 7803 6363 7804 7634 7805 7806 
788 789 1014 1013 813 814 1039 1038 6197 7637 7638 7630 6368 7808 7809 7801 6359 6366 7807 7800 7803 7810 6370 7811 7641 7812 7813 
789 790 1015 1014 814 815 1040 1039 6204 7644 7645 7637 6375 7815 7816 7808 6366 6373 7814 7807 7810 7817 6377 7818 7648 7819 7820 
790 791 1016 1015 815 816 1041 1040 6211 7651 7652 7644 6382 7822 7823 7815 6373 6380 7821 7814 7817 7824 6384 7825 7655 7826 7827 
791 792 1017 1016 816 817 1042 1041 6218 7658 7659 7651 6389 7829 7830 7822 6380 6387 7828 7821 7824 7831 6391 7832 7662 7833 7834 
792 793 1018 1017 817 818 1043 1042 6225 7665 7666 7658 6396 7836 7837 7829 6387 6394 7835 7828 7831 7838 6398 7839 7669 7840 7841 
793 794 1019 1018 818 819 1044 1043 6232 7672 7673 7665 6403 7843 7844 7836 6394 6401 7842 7835 7838 7845 6405 7846 7676 7847 7848 
794 795 1020 1019 819 820 1045 1044 6239 7679 7680 7672 6410 7850 7851 7843 6401 6408 7849 7842 7845 7852 6412 7853 7683 7854 7855 
795 796 1021 1020 820 821 1046 1045 6246 7686 7687 7679 6417 7857 7858 7850 6408 6415 7856 7849 7852 7859 6419 7860 7690 7861 7862 
796 797 1022 1021 821 822 1047 1046 6253 7693 7694 7686 6424 7864 7865 7857 6415 6422 7863 7856 7859 7866 6426 7867 7697 7868 7869 
797 798 1023 1022 822 823 1048 1047 6260 7700 7701 7693 6431 7871 7872 7864 6422 6429 7870 7863 7866 7873 6433 7874 7704 7875 7876 
798 799 1024 1023 823 824 1049 1048 6267 7707 7708 7700 6438 7878 7879 7871 6429 6436 7877 7870 7873 7880 6440 7881 7711 7882 7883 
800 801 1026 1025 825 826 1051 1050 6275 7715 7716 7717 6446 7886 7887 7888 6444 6443 7884 7885 7891 7889 6449 7890 7721 7892 7893 
801 802 1027 1026 826 827 1052 1051 6284 7724 7725 7715 6455 7895 7896 7886 6443 6453 7894 7884 7889 7897 6457 7898 7728 7899 7900 
802 803 1028 1027 827 828 1053 1052 6291 7731 7732 7724 6462 7902 7903 7895 6453 6460 7901 7894 7897 7904 6464 7905 7735 7906 7907 
803 804 1029 1028 828 829 1054 1053 6298 7738 7739 7731 6469 7909 7910 7902 6460 6467 7908 7901 7904 7911 6471 7912 7742 7913 7914 
804 805 1030 1029 829 830 1055 1054 6305 7745 7746 7738 6476 7916 7917 7909 6467 6474 7915 7908 7911 7918 6478 7919 7749 7920 7921 
805 806 1031 1030 830 831 1056 1055 6312 7752 7753 7745 6483 7923 7924 7916 6474 6481 7922 7915 7918 7925 6485 7926 7756 7927 7928 
806 807 1032 1031 831 832 1057 1056 6319 7759 7760 7752 6490 7930 7931 7923 6481 6488 7929 7922 7925 7932 6492 7933 7763 7934 7935 
807 808 1033 1032 832 833 1058 1057 6326 7766 7767 7759 6497 7937 7938 7930 6488 6495 7936 7929 7932 7939 6499 7940 7770 7941 7942 
808 809 1034 1033 833 834 1059 1058 6333 7773 7774 7766 6504 7944 7945 7937 6495 6502 7943 7936 7939 7946 6506 7947 7777 7948 7949 
809 810 1035 1034 834 835 1060 1059 6340 7780 7781 7773 6511 7951 7952 7944 6502 6509 7950 7943 7946 7953 6513 7954 7784 7955 7956 
810 811 1036 1035 835 836 1061 1060 6347 7787 7788 7780 6518 7958 7959 7951 6509 6516 7957 7950 7953 7960 6520 7961 7791 7962 7963 
811 812 1037 1036 836 837 1062 1061 6354 7794 7795 7787 6525 7965 7966 7958 6516 6523 7964 7957 7960 7967 6527 7968 7798 7969 7970 
812 813 1038 1037 837 838 1063 1062 6361 7801 7802 7794 6532 7972 7973 7965 6523 6530 7971 7964 7967 7974 6534 7975 7805 7976 7977 
813 814 1039 1038 838 839 1064 1063 6368 7808 7809 7801 6539 7979 7980 7972 6530 6537 7978 7971 7974 7981 6541 7982 7812 7983 7984 
814 815 1040 1039 839 840 1065 1064 6375 7815 7816 7808 6546 7986 7987 7979 6537 6544 7985 7978 7981 7988 6548 7989 7819 7990 7991 
815 816 1041 1040 840 841 1066 1065 6382 7822 7823 7815 6553 7993 7994 7986 6544 6551 7992 7985 7988 7995 6555 7996 7826 7997 7998 
816 817 1042 1041 841 842 1067 1066 6389 7829 7830 7822 6560 8000 8001 7993 6551 6558 7999 7992 7995 8002 6562 8003 7833 8004 8005 
817 818 1043 1042 842 843 1068 1067 6396 7836 7837 7829 6567 8007 8008 8000 6558 6565 8006 7999 8002 8009 6569 8010 7840 8011 8012 
818 819 1044 1043 843 844 1069 1068 6403 7843 7844 7836 6574 8014 8015 8007 6565 6572 8013 8006 8009 8016 6576 8017 7847 8018 8019 
819 820 1045 1044 844 845 1070 1069 6410 7850 7851 7843 6581 8021 8022 8014 6572 6579 8020 8013 8016 8023 6583 8024 7854 8025 8026 
820 821 1046 1045 845 846 1071 1070 6417 7857 7858 7850 6588 8028 8029 8021 6579 6586 8027 8020 8023 8030 6590 8031 7861 8032 8033 
821 822 1047 1046 846 847 1072 1071 6424 7864 7865 7857 6595 8035 8036 8028 6586 6593 8034 8027 8030 8037 6597 8038 7868 8039 8040 
822 823 1048 1047 847 848 1073 1072 6431 7871 7872 7864 6602 8042 8043 8035 6593 6600 8041 8034 8037 8044 6604 8045 7875 8046 8047 
823 824 1049 1048 848 849 1074 1073 6438 7878 7879 7871 6609 8049 8050 8042 6600 6607 8048 8041 8044 8051 6611 8052 7882 8053 8054 
825 826 1051 1050 850 851 1076 1075 6446 7886 7887 7888 6617 8057 8058 8059 6615 6614 8055 8056 8062 8060 6620 8061 7892 8063 8064 
826 827 1052 1051 851 852 1077 1076 6455 7895 7896 7886 6626 8066 8067 8057 6614 6624 8065 8055 8060 8068 6628 8069 7899 8070 8071 
827 828 1053 1052 852 853 1078 1077 6462 7902 7903 7895 6633 8073 8074 8066 6624 6631 8072 8065 8068 8075 6635 8076 7906 8077 8078 
828 829 1054 1053 853 854 1079 1078 6469 7909 7910 7902 6640 8080 8081 8073 6631 6638 8079 8072 8075 8082 6642 8083 7913 8084 8085 
829 830 1055 1054 854 855 1080 1079 6476 7916 7917 7909 6647 8087 8088 8080 6638 6645 8086 8079 8082 8089 6649 8090 7920 8091 8092 
830 831 1056 1055 855 856 1081 1080 6483 7923 7924 7916 6654 8094 8095 8087 6645 6652 8093 8086 8089 8096 6656 8097 7927 8098 8099 
831 832 1057 1056 856 857 1082 1081 6490 7930 7931 7923 6661 8101 8102 8094 6652 6659 8100 8093 8096 8103 6663 8104 7934 8105 8106 
832 833 1058 1057 857 858 1083 1082 6497 7937 7938 7930 6668 8108 8109 8101 6659 6666 8107 8100 8103 8110 6670 8111 7941 8112 8113 
833 834 1059 1058 858 859 1084 1083 6504 7944 7945 7937 6675 8115 8116 8108 6666 6673 8114 8107 8110 8117 6677 8118 7948 8119 8120 
834 835 1060 1059 859 860 1085 1084 6511 7951 7952 7944 6682 8122 8123 8115 6673 6680 8121 8114 8117 8124 6684 8125 7955 8126 8127 
835 836 1061 1060 860 861 1086 1085 6518 7958 7959 7951 6689 8129 8130 8122 6680 6687 8128 8121 8124 8131 6691 8132 7962 8133 8134 
836 837 1062 1061 861 862 1087 1086 6525 7965 7966 7958 6696 8136 8137 8129 6687 6694 8135 8128 8131 8138 6698 8139 7969 8140 8141 
837 838 1063 1062 862 863 1088 1087 6532 7972 7973 7965 6703 8143 8144 8136 6694 6701 8142 8135 8138 8145 6705 8146 7976 8147 8148 
838 839 1064 1063 863 864 1089 1088 6539 7979 7980 7972 6710 8150 8151 8143 6701 6708 8149 8142 8145 8152 6712 8153 7983 8154 8155 
839 840 1065 1064 864 865 1090 1089 6546 7986 7987 7979 6717 8157 8158 8150 6708 6715 8156 8149 8152 8159 6719 8160 7990 8161 8162 
840 841 1066 1065 865 866 1091 1090 6553 7993 7994 7986 6724 8164 8165 8157 6715 6722 8163 8156 8159 8166 6726 8167 7997 8168 8169 
841 842 1067 1066 866 867 1092 1091 6560 8000 8001 7993 6731 8171 8172 8164 6722 6729 8170 8163 8166 8173 6733 8174 8004 8175 8176 
842 843 1068 1067 867 868 1093 1092 6567 8007 8008 8000 6738 8178 8179 8171 6729 6736 8177 8170 8173 8180 6740 8181 8011 8182 8183 
843 844 1069 1068 868 869 1094 1093 6574 8014 8015 8007 6745 8185 8186 8178 6736 6743 8184 8177 8180 8187 6747 8188 8018 8189 8190 
844 845 1070 1069 869 870 1095 1094 6581 8021 8022 8014 6752 8192 8193 8185 6743 6750 8191 8184 8187 8194 6754 8195 8025 8196 8197 
845 846 1071 1070 870 871 1096 1095 6588 8028 8029 8021 6759 8199 8200 8192 6750 6757 8198 8191 8194 8201 6761 8202 8032 8203 8204 
846 847 1072 1071 871 872 1097 1096 6595 8035 8036 8028 6766 8206 8207 8199 6757 6764 8205 8198 8201 8208 6768 8209 8039 8210 8211 
847 848 1073 1072 872 873 1098 1097 6602 8042 8043 8035 6773 8213 8214 8206 6764 6771 8212 8205 8208 8215 6775 8216 8046 8217 8218 
848 849 1074 1073 873 874 1099 1098 6609 8049 8050 8042 6780 8220 8221 8213 6771 6778 8219 8212 8215 8222 6782 8223 8053 8224 8225 
850 851 1076 1075 875 876 1101 1100 6617 8057 8058 8059 6788 8228 8229 8230 6786 6785 8226 8227 8233 8231 6791 8232 8063 8234 8235 
851 852 1077 1076 876 877 1102 1101 6626 8066 8067 8057 6797 8237 8238 8228 6785 6795 8236 8226 8231 8239 6799 8240 8070 8241 8242 
852 853 1078 1077 877 878 1103 1102 6633 8073 8074 8066 6804 8244 8245 8237 6795 6802 8243 8236 8239 8246 6806 8247 8077 8248 8249 
853 854 1079 1078 878 879 1104 1103 6640 8080 8081 8073 6811 8251 8252 8244 6802 6809 8250 8243 8246 8253 6813 8254 8084 8255 8256 
854 855 1080 1079 879 880 1105 1104 6647 8087 8088 8080 6818 8258 8259 8251 6809 6816 8257 8250 8253 8260 6820 8261 8091 8262 8263 
855 856 1081 1080 880 881 1106 1105 6654 8094 8095 8087 6825 8265 8266 8258 6816 6823 8264 8257 8260 8267 6827 8268 8098 8269 8270 
856 857 1082 1081 881 882 1107 1106 6661 8101 8102 8094 6832 8272 8273 8265 6823 6830 8271 8264 8267 8274 6834 8275 8105 8276 8277 
857 858 1083 1082 882 883 1108 1107 6668 8108 8109 8101 6839 8279 8280 8272 6830 6837 8278 8271 8274 8281 6841 8282 8112 8283 8284 
858 859 1084 1083 883 884 1109 1108 6675 8115 8116 8108 6846 8286 8287 8279 6837 6844 8285 8278 8281 8288 6848 8289 8119 8290 8291 
859 860 1085 1084 884 885 1110 1109 6682 8122 8123 8115 6853 8293 8294 8286 6844 6851 8292 8285 8288 8295 6855 8296 8126 8297 8298 
860 861 1086 1085 885 886 1111 1110 6689 8129 8130 8122 6860 8300 8301 8293 6851 6858 8299 8292 8295 8302 6862 8303 8133 8304 8305 
861 862 1087 1086 886 887 1112 1111 6696 8136 8137 8129 6867 8307 8308 8300 6858 6865 8306 8299 8302 8309 6869 8310 8140 8311 8312 
862 863 1088 1087 887 888 1113 1112 6703 8143 8144 8136 6874 8314 8315 8307 6865 6872 8313 8306 8309 8316 6876 8317 8147 8318 8319 
863 864 1089 1088 888 889 1114 1113 6710 8150 8151 8143 6881 8321 8322 8314 6872 6879 8320 8313 8316 8323 6883 8324 8154 8325 8326 
864 865 1090 1089 889 890 1115 1114 6717 8157 8158 8150 6888 8328 8329 8321 6879 6886 8327 8320 8323 8330 6890 8331 8161 8332 8333 
865 866 1091 1090 890 891 1116 1115 6724 8164 8165 8157 6895 8335 8336 8328 6886 6893 8334 8327 8330 8337 6897 8338 8168 8339 8340 
866 867 1092 1091 891 892 1117 1116 6731 8171 8172 8164 6902 8342 8343 8335 6893 6900 8341 8334 8337 8344 6904 8345 8175 8346 8347 
867 868 1093 1092 892 893 1118 1117 6738 8178 8179 8171 6909 8349 8350 8342 6900 6907 8348 8341 8344 8351 6911 8352 8182 8353 8354 
868 869 1094 1093 893 894 1119 1118 6745 8185 8186 8178 6916 8356 8357 8349 6907 6914 8355 8348 8351 8358 6918 8359 8189 8360 8361 
869 870 1095 1094 894 895 1120 1119 6752 8192 8193 8185 6923 8363 8364 8356 6914 6921 8362 8355 8358 8365 6925 8366 8196 8367 8368 
870 871 1096 1095 895 896 1121 1120 6759 8199 8200 8192 6930 8370 8371 8363 6921 6928 8369 8362 8365 8372 6932 8373 8203 8374 8375 
871 872 1097 1096 896 897 1122 1121 6766 8206 8207 8199 6937 8377 8378 8370 6928 6935 8376 8369 8372 8379 6939 8380 8210 8381 8382 
872 873 1098 1097 897 898 1123 1122 6773 8213 8214 8206 6944 8384 8385 8377 6935 6942 8383 8376 8379 8386 6946 8387 8217 8388 8389 
873 874 1099 1098 898 899 1124 1123 6780 8220 8221 8213 6951 8391 8392 8384 6942 6949 8390 8383 8386 8393 6953 8394 8224 8395 8396 
900 901 1126 1125 925 926 1151 1150 6957 8397 8398 8399 6962 8402 8403 8404 6960 6959 8400 8401 8408 8406 6966 8407 8405 8409 8410 
901 902 1127 1126 926 927 1152 1151 6971 8411 8412 8397 6974 8414 8415 8402 6959 6972 8413 8400 8406 8417 6977 8418 8416 8419 8420 
902 903 1128 1127 927 928 1153 1152 6981 8421 8422 8411 6984 8424 8425 8414 6972 6982 8423 8413 8417 8427 6987 8428 8426 8429 8430 
903 904 1129 1128 928 929 1154 1153 6991 8431 8432 8421 6994 8434 8435 8424 6982 6992 8433 8423 8427 8437 6997 8438 8436 8439 8440 
904 905 1130 1129 929 930 1155 1154 7001 8441 8442 8431 7004 8444 8445 8434 6992 7002 8443 8433 8437 8447 7007 8448 8446 8449 8450 
905 906 1131 1130 930 931 1156 1155 7011 8451 8452 8441 7014 8454 8455 8444 7002 7012 8453 8443 8447 8457 7017 8458 8456 8459 8460 
906 907 1132 1131 931 932 1157 1156 7021 8461 8462 8451 7024 8464 8465 8454 7012 7022 8463 8453 8457 8467 7027 8468 8466 8469 8470 
907 908 1133 1132 932 933 1158 1157 7031 8471 8472 8461 7034 8474 8475 8464 7022 7032 8473 8463 8467 8477 7037 8478 8476 8479 8480 
908 909 1134 1133 933 934 1159 1158 7041 8481 8482 8471 7044 8484 8485 8474 7032 7042 8483 8473 8477 8487 7047 8488 8486 8489 8490 
909 910 1135 1134 934 935 1160 1159 7051 8491 8492 8481 7054 8494 8495 8484 7042 7052 8493 8483 8487 8497 7057 8498 8496 8499 8500 
910 911 1136 1135 935 936 1161 1160 7061 8501 8502 8491 7064 8504 8505 8494 7052 7062 8503 8493 8497 8507 7067 8508 8506 8509 8510 
911 912 1137 1136 936 937 1162 1161 7071 8511 8512 8501 7074 8514 8515 8504 7062 7072 8513 8503 8507 8517 7077 8518 8516 8519 8520 
912 913 1138 1137 937 938 1163 1162 7081 8521 8522 8511 7084 8524 8525 8514 7072 7082 8523 8513 8517 8527 7087 8528 8526 8529 8530 
913 914 1139 1138 938 939 1164 1163 7091 8531 8532 8521 7094 8534 8535 8524 7082 7092 8533 8523 8527 8537 7097 8538 8536 8539 8540 
914 915 1140 1139 939 940 1165 1164 7101 8541 8542 8531 7104 8544 8545 8534 7092 7102 8543 8533 8537 8547 7107 8548 8546 8549 8550 
915 916 1141 1140 940 941 1166 1165 7111 8551 8552 8541 7114 8554 8555 8544 7102 7112 8553 8543 8547 8557 7117 8558 8556 8559 8560 
916 917 1142 1141 941 942 1167 1166 7121 8561 8562 8551 7124 8564 8565 8554 7112 7122 8563 8553 8557 8567 7127 8568 8566 8569 8570 
917 918 1143 1142 942 943 1168 1167 7131 8571 8572 8561 7134 8574 8575 8564 7122 7132 8573 8563 8567 8577 7137 8578 8576 8579 8580 
918 919 1144 1143 943 944 1169 1168 7141 8581 8582 8571 7144 8584 8585 8574 7132 7142 8583 8573 8577 8587 7147 8588 8586 8589 8590 
919 920 1145 1144 944 945 1170 1169 7151 8591 8592 8581 7154 8594 8595 8584 7142 7152 8593 8583 8587 8597 7157 8598 8596 8599 8600 
920 921 1146 1145 945 946 1171 1170 7161 8601 8602 8591 7164 8604 8605 8594 7152 7162 8603 8593 8597 8607 7167 8608 8606 8609 8610 
921 922 1147 1146 946 947 1172 1171 7171 8611 8612 8601 7174 8614 8615 8604 7162 7172 8613 8603 8607 8617 7177 8618 8616 8619 8620 
922 923 1148 1147 947 948 1173 1172 7181 8621 8622 8611 7184 8624 8625 8614 7172 7182 8623 8613 8617 8627 7187 8628 8626 8629 8630 
923 924 1149 1148 948 949 1174 1173 7191 8631 8632 8621 7194 8634 8635 8624 7182 7192 8633 8623 8627 8637 7197 8638 8636 8639 8640 
925 926 1151 1150 950 951 1176 1175 6962 8402 8403 8404 7203 8643 8644 8645 7201 7200 8641 8642 8648 8646 7206 8647 8409 8649 8650 
926 927 1152 1151 951 952 1177 1176 6974 8414 8415 8402 7212 8652 8653 8643 7200 7210 8651 8641 8646 8654 7214 8655 8419 8656 8657 
927 928 1153 1152 952 953 1178 1177 6984 8424 8425 8414 7219 8659 8660 8652 7210 7217 8658 8651 8654 8661 7221 8662 8429 8663 8664 
928 929 1154 1153 953 954 1179 1178 6994 8434 8435 8424 7226 8666 8667 8659 7217 7224 8665 8658 8661 8668 7228 8669 8439 8670 8671 
929 930 1155 1154 954 955 1180 1179 7004 8444 8445 8434 7233 8673 8674 8666 7224 7231 8672 8665 8668 8675 7235 8676 8449 8677 8678 
930 931 1156 1155 955 956 1181 1180 7014 8454 8455 8444 7240 8680 8681 8673 7231 7238 8679 8672 8675 8682 7242 8683 8459 8684 8685 
931 932 1157 1156 956 957 1182 1181 7024 8464 8465 8454 7247 8687 8688 8680 7238 7245 8686 8679 8682 8689 7249 8690 8469 8691 8692 
932 933 1158 1157 957 958 1183 1182 7034 8474 8475 8464 7254 8694 8695 8687 7245 7252 8693 8686 8689 8696 7256 8697 8479 8698 8699 
933 934 1159 1158 958 959 1184 1183 7044 8484 8485 8474 7261 8701 8702 8694 7252 7259 8700 8693 8696 8703 7263 8704 8489 8705 8706 
934 935 1160 1159 959 960 1185 1184 7054 8494 8495 8484 7268 8708 8709 8701 7259 7266 8707 8700 8703 8710 7270 8711 8499 8712 8713 
935 936 1161 1160 960 961 1186 1185 7064 8504 8505 8494 7275 8715 8716 8708 7266 7273 8714 8707 8710 8717 7277 8718 8509 8719 8720 
936 937 1162 1161 961 962 1187 1186 7074 8514 8515 8504 7282 8722 8723 8715 7273 7280 8721 8714 8717 8724 7284 8725 8519 8726 8727 
937 938 1163 1162 962 963 1188 1187 7084 8524 8525 8514 7289 8729 8730 8722 7280 7287 8728 8721 8724 8731 7291 8732 8529 8733 8734 
938 939 1164 1163 963 964 1189 1188 7094 8534 8535 8524 7296 8736 8737 8729 7287 7294 8735 8728 8731 8738 7298 8739 8539 8740 8741 
939 940 1165 1164 964 965 1190 1189 7104 8544 8545 8534 7303 8743 8744 8736 7294 7301 8742 8735 8738 8745 7305 8746 8549 8747 8748 
940 941 1166 1165 965 966 1191 1190 7114 8554 8555 8544 7310 8750 8751 8743 7301 7308 8749 8742 8745 8752 7312 8753 8559 8754 8755 
941 942 1167 1166 966 967 1192 1191 7124 8564 8565 8554 7317 8757 8758 8750 7308 7315 8756 8749 8752 8759 7319 8760 8569 8761 8762 
942 943 1168 1167 967 968 1193 1192 7134 8574 8575 8564 7324 8764 8765 8757 7315 7322 8763 8756 8759 8766 7326 8767 8579 8768 8769 
943 944 1169 1168 968 969 1194 1193 7144 8584 8585 8574 7331 8771 8772 8764 7322 7329 8770 8763 8766 8773 7333 8774 8589 8775 8776 
944 945 1170 1169 969 970 1195 1194 7154 8594 8595 8584 7338 8778 8779 8771 7329 7336 8777 8770 8773 8780 7340 8781 8599 8782 8783 
945 946 1171 1170 970 971 1196 1195 7164 8604 8605 8594 7345 8785 8786 8778 7336 7343 8784 8777 8780 8787 7347 8788 8609 8789 8790 
946 947 1172 1171 971 972 1197 1196 7174 8614 8615 8604 7352 8792 8793 8785 7343 7350 8791 8784 8787 8794 7354 8795 8619 8796 8797 
947 948 1173 1172 972 973 1198 1197 7184 8624 8625 8614 7359 8799 8800 8792 7350 7357 8798 8791 8794 8801 7361 8802 8629 8803 8804 
948 949 1174 1173 973 974 1199 1198 7194 8634 8635 8624 7366 8806 8807 8799 7357 7364 8805 8798 8801 8808 7368 8809 8639 8810 8811 
950 951 1176 1175 975 976 1201 1200 7203 8643 8644 8645 7374 8814 8815 8816 7372 7371 8812 8813 8819 8817 7377 8818 8649 8820 8821 
951 952 1177 1176 976 977 1202 1201 7212 8652 8653 8643 7383 8823 8824 8814 7371 7381 8822 8812 8817 8825 7385 8826 8656 8827 8828 
952 953 1178 1177 977 978 1203 1202 7219 8659 8660 8652 7390 8830 8831 8823 7381 7388 8829 8822 8825 8832 7392 8833 8663 8834 8835 
953 954 1179 1178 978 979 1204 1203 7226 8666 8667 8659 7397 8837 8838 8830 7388 7395 8836 8829 8832 8839 7399 8840 8670 8841 8842 
954 955 1180 1179 979 980 1205 1204 7233 8673 8674 8666 7404 8844 8845 8837 7395 7402 8843 8836 8839 8846 7406 8847 8677 8848 8849 
955 956 1181 1180 980 981 1206 1205 7240 8680 8681 8673 7411 8851 8852 8844 7402 7409 8850 8843 8846 8853 7413 8854 8684 8855 8856 
956 957 1182 1181 981 982 1207 1206 7247 8687 8688 8680 7418 8858 8859 8851 7409 7416 8857 8850 8853 8860 7420 8861 8691 8862 8863 
957 958 1183 1182 982 983 1208 1207 7254 8694 8695 8687 7425 8865 8866 8858 7416 7423 8864 8857 8860 8867 7427 8868 8698 8869 8870 
958 959 1184 1183 983 984 1209 1208 7261 8701 8702 8694 7432 8872 8873 8865 7423 7430 8871 8864 8867 8874 7434 8875 8705 8876 8877 
959 960 1185 1184 984 985 1210 1209 7268 8708 8709 8701 7439 8879 8880 8872 7430 7437 8878 8871 8874 8881 7441 8882 8712 8883 8884 
960 961 1186 1185 985 986 1211 1210 7275 8715 8716 8708 7446 8886 8887 8879 7437 7444 8885 8878 8881 8888 7448 8889 8719 8890 8891 
961 962 1187 1186 986 987 1212 1211 7282 8722 8723 8715 7453 8893 8894 8886 7444 7451 8892 8885 8888 8895 7455 8896 8726 8897 8898 
962 963 1188 1187 987 988 1213 1212 7289 8729 8730 8722 7460 8900 8901 8893 7451 7458 8899 8892 8895 8902 7462 8903 8733 8904 8905 
963 964 1189 1188 988 989 1214 1213 7296 8736 8737 8729 7467 8907 8908 8900 7458 7465 8906 8899 8902 8909 7469 8910 8740 8911 8912 
964 965 1190 1189 989 990 1215 1214 7303 8743 8744 8736 7474 8914 8915 8907 7465 7472 8913 8906 8909 8916 7476 8917 8747 8918 8919 
965 966 1191 1190 990 991 1216 1215 7310 8750 8751 8743 7481 8921 8922 8914 7472 7479 8920 8913 8916 8923 7483 8924 8754 8925 8926 
966 967 1192 1191 991 992 1217 1216 7317 8757 8758 8750 7488 8928 8929 8921 7479 7486 8927 8920 8923 8930 7490 8931 8761 8932 8933 
967 968 1193 1192 992 993 1218 1217 7324 8764 8765 8757 7495 8935 8936 8928 7486 7493 8934 8927 8930 8937 7497 8938 8768 8939 8940 
968 969 1194 1193 993 994 1219 1218 7331 8771 8772 8764 7502 8942 8943 8935 7493 7500 8941 8934 8937 8944 7504 8945 8775 8946 8947 
969 970 1195 1194 994 995 1220 1219 7338 8778 8779 8771 7509 8949 8950 8942 7500 7507 8948 8941 8944 8951 7511 8952 8782 8953 8954 
970 971 1196 1195 995 996 1221 1220 7345 8785 8786 8778 7516 8956 8957 8949 7507 7514 8955 8948 8951 8958 7518 8959 8789 8960 8961 
971 972 1197 1196 996 997 1222 1221 7352 8792 8793 8785 7523 8963 8964 8956 7514 7521 8962 8955 8958 8965 7525 8966 8796 8967 8968 
972 973 1198 1197 997 998 1223 1222 7359 8799 8800 8792 7530 8970 8971 8963 7521 7528 8969 8962 8965 8972 7532 8973 8803 8974 8975 
973 974 1199 1198 998 999 1224 1223 7366 8806 8807 8799 7537 8977 8978 8970 7528 7535 8976 8969 8972 8979 7539 8980 8810 8981 8982 
975 976 1201 1200 1000 1001 1226 1225 7374 8814 8815 8816 7545 8985 8986 8987 7543 7542 8983 8984 8990 8988 7548 8989 8820 8991 8992 
976 977 1202 1201 1001 1002 1227 1226 7383 8823 8824 8814 7554 8994 8995 8985 7542 7552 8993 8983 8988 8996 7556 8997 8827 8998 8999 
977 978 1203 1202 1002 1003 1228 1227 7390 8830 8831 8823 7561 9001 9002 8994 7552 7559 9000 8993 8996 9003 7563 9004 8834 9005 9006 
978 979 1204 1203 1003 1004 1229 1228 7397 8837 8838 8830 7568 9008 9009 9001 7559 7566 9007 9000 9003 9010 7570 9011 8841 9012 9013 
979 980 1205 1204 1004 1005 1230 1229 7404 8844 8845 8837 7575 9015 9016 9008 7566 7573 9014 9007 9010 9017 7577 9018 8848 9019 9020 
980 981 1206 1205 1005 1006 1231 1230 7411 8851 8852 8844 7582 9022 9023 9015 7573 7580 9021 9014 9017 9024 7584 9025 8855 9026 9027 
981 982 1207 1206 1006 1007 1232 1231 7418 8858 8859 8851 7589 9029 9030 9022 7580 7587 9028 9021 9024 9031 7591 9032 8862 9033 9034 
982 983 1208 1207 1007 1008 1233 1232 7425 8865 8866 8858 7596 9036 9037 9029 7587 7594 9035 9028 9031 9038 7598 9039 8869 9040 9041 
983 984 1209 1208 1008 1009 1234 1233 7432 8872 8873 8865 7603 9043 9044 9036 7594 7601 9042 9035 9038 9045 7605 9046 8876 9047 9048 
984 985 1210 1209 1009 1010 1235 1234 7439 8879 8880 8872 7610 9050 9051 9043 7601 7608 9049 9042 9045 9052 7612 9053 8883 9054 9055 
985 986 1211 1210 1010 1011 1236 1235 7446 8886 8887 8879 7617 9057 9058 9050 7608 7615 9056 9049 9052 9059 7619 9060 8890 9061 9062 
986 987 1212 1211 1011 1012 1237 1236 7453 8893 8894 8886 7624 9064 9065 9057 7615 7622 9063 9056 9059 9066 7626 9067 8897 9068 9069 
987 988 1213 1212 1012 1013 1238 1237 7460 8900 8901 8893 7631 9071 9072 9064 7622 7629 9070 9063 9066 9073 7633 9074 8904 9075 9076 
988 989 1214 1213 1013 1014 1239 1238 7467 8907 8908 8900 7638 9078 9079 9071 7629 7636 9077 9070 9073 9080 7640 9081 8911 9082 9083 
989 990 1215 1214 1014 1015 1240 1239 7474 8914 8915 8907 7645 9085 9086 9078 7636 7643 9084 9077 9080 9087 7647 9088 8918 9089 9090 
990 991 1216 1215 1015 1016 1241 1240 7481 8921 8922 8914 7652 9092 9093 9085 7643 7650 9091 9084 9087 9094 7654 9095 8925 9096 9097 
991 992 1217 1216 1016 1017 1242 1241 7488 8928 8929 8921 7659 9099 9100 9092 7650 7657 9098 9091 9094 9101 7661 9102 8932 9103 9104 
992 993 1218 1217 1017 1018 1243 1242 7495 8935 8936 8928 7666 9106 9107 9099 7657 7664 9105 9098 9101 9108 7668 9109 8939 9110 9111 
993 994 1219 1218 1018 1019 1244 1243 7502 8942 8943 8935 7673 9113 9114 9106 7664 7671 9112 9105 9108 9115 7675 9116 8946 9117 9118 
994 995 1220 1219 1019 1020 1245 1244 7509 8949 8950 8942 7680 9120 9121 9113 7671 7678 9119 9112 9115 9122 7682 9123 8953 9124 9125 
995 996 1221 1220 1020 1021 1246 1245 7516 8956 8957 8949 7687 9127 9128 9120 7678 7685 9126 9119 9122 9129 7689 9130 8960 9131 9132 
996 997 1222 1221 1021 1022 1247 1246 7523 8963 8964 8956 7694 9134 9135 9127 7685 7692 9133 9126 9129 9136 7696 9137 8967 9138 9139 
997 998 1223 1222 1022 1023 1248 1247 7530 8970 8971 8963 7701 9141 9142 9134 7692 7699 9140 9133 9136 9143 7703 9144 8974 9145 9146 
998 999 1224 1223 1023 1024 1249 1248 7537 8977 8978 8970 7708 9148 9149 9141 7699 7706 9147 9140 9143 9150 7710 9151 8981 9152 9153 
1000 1001 1226 1225 1025 1026 1251 1250 7545 8985 8986 8987 7716 9156 9157 9158 7714 7713 9154 9155 9161 9159 7719 9160 8991 9162 9163 
1001 1002 1227 1226 1026 1027 1252 1251 7554 8994 8995 8985 7725 9165 9166 9156 7713 7723 9164 9154 9159 9167 7727 9168 8998 9169 9170 
1002 1003 1228 1227 1027 1028 1253 1252 7561 9001 9002 8994 7732 9172 9173 9165 7723 7730 9171 9164 9167 9174 7734 9175 9005 9176 9177 
1003 1004 1229 1228 1028 1029 1254 1253 7568 9008 9009 9001 7739 9179 9180 9172 7730 7737 9178 9171 9174 9181 7741 9182 9012 9183 9184 
1004 1005 1230 1229 1029 1030 1255 1254 7575 9015 9016 9008 7746 9186 9187 9179 7737 7744 9185 9178 9181 9188 7748 9189 9019 9190 9191 
1005 1006 1231 1230 1030 1031 1256 1255 7582 9022 9023 9015 7753 9193 9194 9186 7744 7751 9192 9185 9188 9195 7755 9196 9026 9197 9198 
1006 1007 1232 1231 1031 1032 1257 1256 7589 9029 9030 9022 7760 9200 9201 9193 7751 7758 9199 9192 9195 9202 7762 9203 9033 9204 9205 
1007 1008 1233 1232 1032 1033 1258 1257 7596 9036 9037 9029 7767 9207 9208 9200 7758 7765 9206 9199 9202 9209 7769 9210 9040 9211 9212 
1008 1009 1234 1233 1033 1034 1259 1258 7603 9043 9044 9036 7774 9214 9215 9207 7765 7772 9213 9206 9209 9216 7776 9217 9047 9218 9219 
1009 1010 1235 1234 1034 1035 1260 1259 7610 9050 9051 9043 7781 9221 9222 9214 7772 7779 9220 9213 9216 9223 7783 9224 9054 9225 9226 
1010 1011 1236 1235 1035 1036 1261 1260 7617 9057 9058 9050 7788 9228 9229 9221 7779 7786 9227 9220 9223 9230 7790 9231 9061 9232 9233 
1011 1012 1237 1236 1036 1037 1262 1261 7624 9064 9065 9057 7795 9235 9236 9228 7786 7793 9234 9227 9230 9237 7797 9238 9068 9239 9240 
1012 1013 1238 1237 1037 1038 1263 1262 7631 9071 9072 9064 7802 9242 9243 9235 7793 7800 9241 9234 9237 9244 7804 9245 9075 9246 9247 
1013 1014 1239 1238 1038 1039 1264 1263 7638 9078 9079 9071 7809 9249 9250 9242 7800 7807 9248 9241 9244 9251 7811 9252 9082 9253 9254 
1014 1015 1240 1239 1039 1040 1265 1264 7645 9085 9086 9078 7816 9256 9257 9249 7807 7814 9255 9248 9251 9258 7818 9259 9089 9260 9261 
1015 1016 1241 1240 1040 1041 1266 1265 7652 9092 9093 9085 7823 9263 9264 9256 7814 7821 9262 9255 9258 9265 7825 9266 9096 9267 9268 
1016 1017 1242 1241 1041 1042 1267 1266 7659 9099 9100 9092 7830 9270 9271 9263 7821 7828 9269 9262 9265 9272 7832 9273 9103 9274 9275 
1017 1018 1243 1242 1042 1043 1268 1267 7666 9106 9107 9099 7837 9277 9278 9270 7828 7835 9276 9269 9272 9279 7839 9280 9110 9281 9282 
1018 1019 1244 1243 1043 1044 1269 1268 7673 9113 9114 9106 7844 9284 9285 9277 7835 7842 9283 9276 9279 9286 7846 9287 9117 9288 9289 
1019 1020 1245 1244 1044 1045 1270 1269 7680 9120 9121 9113 7851 9291 9292 9284 7842 7849 9290 9283 9286 9293 7853 9294 9124 9295 9296 
1020 1021 1246 1245 1045 1046 1271 1270 7687 9127 9128 9120 7858 9298 9299 9291 7849 7856 9297 9290 9293 9300 7860 9301 9131 9302 9303 
1021 1022 1247 1246 1046 1047 1272 1271 7694 9134 9135 9127 7865 9305 9306 9298 7856 7863 9304 9297 9300 9307 7867 9308 9138 9309 9310 
1022 1023 1248 1247 1047 1048 1273 1272 7701 9141 9142 9134 7872 9312 9313 9305 7863 7870 9311 9304 9307 9314 7874 9315 9145 9316 9317 
1023 1024 1249 1248 1048 1049 1274 1273 7708 9148 9149 9141 7879 9319 9320 9312 7870 7877 9318 9311 9314 9321 7881 9322 9152 9323 9324 
1025 1026 1251 1250 1050 1051 1276 1275 7716 9156 9157 9158 7887 9327 9328 9329 7885 7884 9325 9326 9332 9330 7890 9331 9162 9333 9334 
1026 1027 1252 1251 1051 1052 1277 1276 7725 9165 9166 9156 7896 9336 9337 9327 7884 7894 9335 9325 9330 9338 7898 9339 9169 9340 9341 
1027 1028 1253 1252 1052 1053 1278 1277 7732 9172 9173 9165 7903 9343 9344 9336 7894 7901 9342 9335 9338 9345 7905 9346 9176 9347 9348 
1028 1029 1254 1253 1053 1054 1279 1278 7739 9179 9180 9172 7910 9350 9351 9343 7901 7908 9349 9342 9345 9352 7912 9353 9183 9354 9355 
1029 1030 1255 1254 1054 1055 1280 1279 7746 9186 9187 9179 7917 9357 9358 9350 7908 7915 9356 9349 9352 9359 7919 9360 9190 9361 9362 
1030 1031 1256 1255 1055 1056 1281 1280 7753 9193 9194 9186 7924 9364 9365 9357 7915 7922 9363 9356 9359 9366 7926 9367 9197 9368 9369 
1031 1032 1257 1256 1056 1057 1282 1281 7760 9200 9201 9193 7931 9371 9372 9364 7922 7929 9370 9363 9366 9373 7933 9374 9204 9375 9376 
1032 1033 1258 1257 1057 1058 1283 1282 7767 9207 9208 9200 7938 9378 9379 9371 7929 7936 9377 9370 9373 9380 7940 9381 9211 9382 9383 
1033 1034 1259 1258 1058 1059 1284 1283 7774 9214 9215 9207 7945 9385 9386 9378 7936 7943 9384 9377 9380 9387 7947 9388 9218 9389 9390 
1034 1035 1260 1259 1059 1060 1285 1284 7781 9221 9222 9214 7952 9392 9393 9385 7943 7950 9391 9384 9387 9394 7954 9395 9225 9396 9397 
1035 1036 1261 1260 1060 1061 1286 1285 7788 9228 9229 9221 7959 9399 9400 9392 7950 7957 9398 9391 9394 9401 7961 9402 9232 9403 9404 
1036 1037 1262 1261 1061 1062 1287 1286 7795 9235 9236 9228 7966 9406 9407 9399 7957 7964 9405 9398 9401 9408 7968 9409 9239 9410 9411 
1037 1038 1263 1262 1062 1063 1288 1287 7802 9242 9243 9235 7973 9413 9414 9406 7964 7971 9412 9405 9408 9415 7975 9416 9246 9417 9418 
1038 1039 1264 1263 1063 1064 1289 1288 7809 9249 9250 9242 7980 9420 9421 9413 7971 7978 9419 9412 9415 9422 7982 9423 9253 9424 9425 
1039 1040 1265 1264 1064 1065 1290 1289 7816 9256 9257 9249 7987 9427 9428 9420 7978 7985 9426 9419 9422 9429 7989 9430 9260 9431 9432 
1040 1041 1266 1265 1065 1066 1291 1290 7823 9263 9264 9256 7994 9434 9435 9427 7985 7992 9433 9426 9429 9436 7996 9437 9267 9438 9439 
1041 1042 1267 1266 1066 1067 1292 1291 7830 9270 9271 9263 8001 9441 9442 9434 7992 7999 9440 9433 9436 9443 8003 9444 9274 9445 9446 
1042 1043 1268 1267 1067 1068 1293 1292 7837 9277 9278 9270 8008 9448 9449 9441 7999 8006 9447 9440 9443 9450 8010 9451 9281 9452 9453 
1043 1044 1269 1268 1068 1069 1294 1293 7844 9284 9285 9277 8015 9455 9456 9448 8006 8013 9454 9447 9450 9457 8017 9458 9288 9459 9460 
1044 1045 1270 1269 1069 1070 1295 1294 7851 9291 9292 9284 8022 9462 9463 9455 8013 8020 9461 9454 9457 9464 8024 9465 9295 9466 9467 
1045 1046 1271 1270 1070 1071 1296 1295 7858 9298 9299 9291 8029 9469 9470 9462 8020 8027 9468 9461 9464 9471 8031 9472 9302 9473 9474 
1046 1047 1272 1271 1071 1072 1297 1296 7865 9305 9306 9298 8036 9476 9477 9469 8027 8034 9475 9468 9471 9478 8038 9479 9309 9480 9481 
1047 1048 1273 1272 1072 1073 1298 1297 7872 9312 9313 9305 8043 9483 9484 9476 8034 8041 9482 9475 9478 9485 8045 9486 9316 9487 9488 
1048 1049 1274 1273 1073 1074 1299 1298 7879 9319 9320 9312 8050 9490 9491 9483 8041 8048 9489 9482 9485 9492 8052 9493 9323 9494 9495 
1050 1051 1276 1275 1075 1076 1301 1300 7887 9327 9328 9329 8058 9498 9499 9500 8056 8055 9496 9497 9503 9501 8061 9502 9333 9504 9505 
1051 1052 1277 1276 1076 1077 1302 1301 7896 9336 9337 9327 8067 9507 9508 9498 8055 8065 9506 9496 9501 9509 8069 9510 9340 9511 9512 
1052 1053 1278 1277 1077 1078 1303 1302 7903 9343 9344 9336 8074 9514 9515 9507 8065 8072 9513 9506 9509 9516 8076 9517 9347 9518 9519 
1053 1054 1279 1278 1078 1079 1304 1303 7910 9350 9351 9343 8081 9521 9522 9514 8072 8079 9520 9513 9516 9523 8083 9524 9354 9525 9526 
1054 1055 1280 1279 1079 1080 1305 1304 7917 9357 9358 9350 8088 9528 9529 9521 8079 8086 9527 9520 9523 9530 8090 9531 9361 9532 9533 
1055 1056 1281 1280 1080 1081 1306 1305 7924 9364 9365 9357 8095 9535 9536 9528 8086 8093 9534 9527 9530 9537 8097 9538 9368 9539 9540 
1056 1057 1282 1281 1081 1082 1307 1306 7931 9371 9372 9364 8102 9542 9543 9535 8093 8100 9541 9534 9537 9544 8104 9545 9375 9546 9547 
1057 1058 1283 1282 1082 1083 1308 1307 7938 9378 9379 9371 8109 9549 9550 9542 8100 8107 9548 9541 9544 9551 8111 9552 9382 9553 9554 
1058 1059 1284 1283 1083 1084 1309 1308 7945 9385 9386 9378 8116 9556 9557 9549 8107 8114 9555 9548 9551 9558 8118 9559 9389 9560 9561 
1059 1060 1285 1284 1084 1085 1310 1309 7952 9392 9393 9385 8123 9563 9564 9556 8114 8121 9562 9555 9558 9565 8125 9566 9396 9567 9568 
1060 1061 1286 1285 1085 1086 1311 1310 7959 9399 9400 9392 8130 9570 9571 9563 8121 8128 9569 9562 9565 9572 8132 9573 9403 9574 9575 
1061 1062 1287 1286 1086 1087 1312 1311 7966 9406 9407 9399 8137 9577 9578 9570 8128 8135 9576 9569 9572 9579 8139 9580 9410 9581 9582 
1062 1063 1288 1287 1087 1088 1313 1312 7973 9413 9414 9406 8144 9584 9585 9577 8135 8142 9583 9576 9579 9586 8146 9587 9417 9588 9589 
1063 1064 1289 1288 1088 1089 1314 1313 7980 9420 9421 9413 8151 9591 9592 9584 8142 8149 9590 9583 9586 9593 8153 9594 9424 9595 9596 
1064 1065 1290 1289 1089 1090 1315 1314 7987 9427 9428 9420 8158 9598 9599 9591 8149 8156 9597 9590 9593 9600 8160 9601 9431 9602 9603 
1065 1066 1291 1290 1090 1091 1316 1315 7994 9434 9435 9427 8165 9605 9606 9598 8156 8163 9604 9597 9600 9607 8167 9608 9438 9609 9610 
1066 1067 1292 1291 1091 1092 1317 1316 8001 9441 9442 9434 8172 9612 9613 9605 8163 8170 9611 9604 9607 9614 8174 9615 9445 9616 9617 
1067 1068 1293 1292 1092 1093 1318 1317 8008 9448 9449 9441 8179 9619 9620 9612 8170 8177 9618 9611 9614 9621 8181 9622 9452 9623 9624 
1068 1069 1294 1293 1093 1094 1319 1318 8015 9455 9456 9448 8186 9626 9627 9619 8177 8184 9625 9618 9621 9628 8188 9629 9459 9630 9631 
1069 1070 1295 1294 1094 1095 1320 1319 8022 9462 9463 9455 8193 9633 9634 9626 8184 8191 9632 9625 9628 9635 8195 9636 9466 9637 9638 
1070 1071 1296 1295 1095 1096 1321 1320 8029 9469 9470 9462 8200 9640 9641 9633 8191 8198 9639 9632 9635 9642 8202 9643 9473 9644 9645 
1071 1072 1297 1296 1096 1097 1322 1321 8036 9476 9477 9469 8207 9647 9648 9640 8198 8205 9646 9639 9642 9649 8209 9650 9480 9651 9652 
1072 1073 1298 1297 1097 1098 1323 1322 8043 9483 9484 9476 8214 9654 9655 9647 8205 8212 9653 9646 9649 9656 8216 9657 9487 9658 9659 
1073 1074 1299 1298 1098 1099 1324 1323 8050 9490 9491 9483 8221 9661 9662 9654 8212 8219 9660 9653 9656 9663 8223 9664 9494 9665 9666 
1075 1076 1301 1300 1100 1101 1326 1325 8058 9498 9499 9500 8229 9669 9670 9671 8227 8226 9667 9668 9674 9672 8232 9673 9504 9675 9676 
1076 1077 1302 1301 1101 1102 1327 1326 8067 9507 9508 9498 8238 9678 9679 9669 8226 8236 9677 9667 9672 9680 8240 9681 9511 9682 9683 
1077 1078 1303 1302 1102 1103 1328 1327 8074 9514 9515 9507 8245 9685 9686 9678 8236 8243 9684 9677 9680 9687 8247 9688 9518 9689 9690 
1078 1079 1304 1303 1103 1104 1329 1328 8081 9521 9522 9514 8252 9692 9693 9685 8243 8250 9691 9684 9687 9694 8254 9695 9525 9696 9697 
1079 1080 1305 1304 1104 1105 1330 1329 8088 9528 9529 9521 8259 9699 9700 9692 8250 8257 9698 9691 9694 9701 8261 9702 9532 9703 9704 
1080 1081 1306 1305 1105 1106 1331 1330 8095 9535 9536 9528 8266 9706 9707 9699 8257 8264 9705 9698 9701 9708 8268 9709 9539 9710 9711 
1081 1082 1307 1306 1106 1107 1332 1331 8102 9542 9543 9535 8273 9713 9714 9706 8264 8271 9712 9705 9708 9715 8275 9716 9546 9717 9718 
1082 1083 1308 1307 1107 1108 1333 1332 8109 9549 9550 9542 8280 9720 9721 9713 8271 8278 9719 9712 9715 9722 8282 9723 9553 9724 9725 
1083 1084 1309 1308 1108 1109 1334 1333 8116 9556 9557 9549 8287 9727 9728 9720 8278 8285 9726 9719 9722 9729 8289 9730 9560 9731 9732 
1084 1085 1310 1309 1109 1110 1335 1334 8123 9563 9564 9556 8294 9734 9735 9727 8285 8292 9733 9726 9729 9736 8296 9737 9567 9738 9739 
1085 1086 1311 1310 1110 1111 1336 1335 8130 9570 9571 9563 8301 9741 9742 9734 8292 8299 9740 9733 9736 9743 8303 9744 9574 9745 9746 
1086 1087 1312 1311 1111 1112 1337 1336 8137 9577 9578 9570 8308 9748 9749 9741 8299 8306 9747 9740 9743 9750 8310 9751 9581 9752 9753 
1087 1088 1313 1312 1112 1113 1338 1337 8144 9584 9585 9577 8315 9755 9756 9748 8306 8313 9754 9747 9750 9757 8317 9758 9588 9759 9760 
1088 1089 1314 1313 1113 1114 1339 1338 8151 9591 9592 9584 8322 9762 9763 9755 8313 8320 9761 9754 9757 9764 8324 9765 9595 9766 9767 
1089 1090 1315 1314 1114 1115 1340 1339 8158 9598 9599 9591 8329 9769 9770 9762 8320 8327 9768 9761 9764 9771 8331 9772 9602 9773 9774 
1090 1091 1316 1315 1115 1116 1341 1340 8165 9605 9606 9598 8336 9776 9777 9769 8327 8334 9775 9768 9771 9778 8338 9779 9609 9780 9781 
1091 1092 1317 1316 1116 1117 1342 1341 8172 9612 9613 9605 8343 9783 9784 9776 8334 8341 9782 9775 9778 9785 8345 9786 9616 9787 9788 
1092 1093 1318 1317 1117 1118 1343 1342 8179 9619 9620 9612 8350 9790 9791 9783 8341 8348 9789 9782 9785 9792 8352 9793 9623 9794 9795 
1093 1094 1319 1318 1118 1119 1344 1343 8186 9626 9627 9619 8357 9797 9798 9790 8348 8355 9796 9789 9792 9799 8359 9800 9630 9801 9802 
1094 1095 1320 1319 1119 1120 1345 1344 8193 9633 9634 9626 8364 9804 9805 9797 8355 8362 9803 9796 9799 9806 8366 9807 9637 9808 9809 
1095 1096 1321 1320 1120 1121 1346 1345 8200 9640 9641 9633 8371 9811 9812 9804 8362 8369 9810 9803 9806 9813 8373 9814 9644 9815 9816 
1096 1097 1322 1321 1121 1122 1347 1346 8207 9647 9648 9640 8378 9818 9819 9811 8369 8376 9817 9810 9813 9820 8380 9821 9651 9822 9823 
1097 1098 1323 1322 1122 1123 1348 1347 8214 9654 9655 9647 8385 9825 9826 9818 8376 8383 9824 9817 9820 9827 8387 9828 9658 9829 9830 
1098 1099 1324 1323 1123 1124 1349 1348 8221 9661 9662 9654 8392 9832 9833 9825 8383 8390 9831 9824 9827 9834 8394 9835 9665 9836 9837 
1125 1126 1351 1350 1150 1151 1376 1375 8398 9838 9839 9840 8403 9843 9844 9845 8401 8400 9841 9842 9849 9847 8407 9848 9846 9850 9851 
1126 1127 1352 1351 1151 1152 1377 1376 8412 9852 9853 9838 8415 9855 9856 9843 8400 8413 9854 9841 9847 9858 8418 9859 9857 9860 9861 
1127 1128 1353 1352 1152 1153 1378 1377 8422 9862 9863 9852 8425 9865 9866 9855 8413 8423 9864 9854 9858 9868 8428 9869 9867 9870 9871 
1128 1129 1354 1353 1153 1154 1379 1378 8432 9872 9873 9862 8435 9875 9876 9865 8423 8433 9874 9864 9868 9878 8438 9879 9877 9880 9881 
1129 1130 1355 1354 1154 1155 1380 1379 8442 9882 9883 9872 8445 9885 9886 9875 8433 8443 9884 9874 9878 9888 8448 9889 9887 9890 9891 
1130 1131 1356 1355 1155 1156 1381 1380 8452 9892 9893 9882 8455 9895 9896 9885 8443 8453 9894 9884 9888 9898 8458 9899 9897 9900 9901 
1131 1132 1357 1356 1156 1157 1382 1381 8462 9902 9903 9892 8465 9905 9906 9895 8453 8463 9904 9894 9898 9908 8468 9909 9907 9910 9911 
1132 1133 1358 1357 1157 1158 1383 1382 8472 9912 9913 9902 8475 9915 9916 9905 8463 8473 9914 9904 9908 9918 8478 9919 9917 9920 9921 
1133 1134 1359 1358 1158 1159 1384 1383 8482 9922 9923 9912 8485 9925 9926 9915 8473 8483 9924 9914 9918 9928 8488 9929 9927 9930 9931 
1134 1135 1360 1359 1159 1160 1385 1384 8492 9932 9933 9922 8495 9935 9936 9925 8483 8493 9934 9924 9928 9938 8498 9939 9937 9940 9941 
1135 1136 1361 1360 1160 1161 1386 1385 8502 9942 9943 9932 8505 9945 9946 9935 8493 8503 9944 9934 9938 9948 8508 9949 9947 9950 9951 
1136 1137 1362 1361 1161 1162 1387 1386 8512 9952 9953 9942 8515 9955 9956 9945 8503 8513 9954 9944 9948 9958 8518 9959 9957 9960 9961 
1137 1138 1363 1362 1162 1163 1388 1387 8522 9962 9963 9952 8525 9965 9966 9955 8513 8523 9964 9954 9958 9968 8528 9969 9967 9970 9971 
1138 1139 1364 1363 1163 1164 1389 1388 8532 9972 9973 9962 8535 9975 9976 9965 8523 8533 9974 9964 9968 9978 8538 9979 9977 9980 9981 
1139 1140 1365 1364 1164 1165 1390 1389 8542 9982 9983 9972 8545 9985 9986 9975 8533 8543 9984 9974 9978 9988 8548 9989 9987 9990 9991 
1140 1141 1366 1365 1165 1166 1391 1390 8552 9992 9993 9982 8555 9995 9996 9985 8543 8553 9994 9984 9988 9998 8558 9999 9997 10000 10001 
1141 1142 1367 1366 1166 1167 1392 1391 8562 10002 10003 9992 8565 10005 10006 9995 8553 8563 10004 9994 9998 10008 8568 10009 10007 10010 10011 
1142 1143 1368 1367 1167 1168 1393 1392 8572 10012 10013 10002 8575 10015 10016 10005 8563 8573 10014 10004 10008 10018 8578 10019 10017 10020 10021 
1143 1144 1369 1368 1168 1169 1394 1393 8582 10022 10023 10012 8585 10025 10026 10015 8573 8583 10024 10014 10018 10028 8588 10029 10027 10030 10031 
1144 1145 1370 1369 1169 1170 1395 1394 8592 10032 10033 10022 8595 10035 10036 10025 8583 8593 10034 10024 10028 10038 8598 10039 10037 10040 10041 
1145 1146 1371 1370 1170 1171 1396 1395 8602 10042 10043 10032 8605 10045 10046 10035 8593 8603 10044 10034 10038 10048 8608 10049 10047 10050 10051 
1146 1147 1372 1371 1171 1172 1397 1396 8612 10052 10053 10042 8615 10055 10056 10045 8603 8613 10054 10044 10048 10058 8618 10059 10057 10060 10061 
1147 1148 1373 1372 1172 1173 1398 1397 8622 10062 10063 10052 8625 10065 10066 10055 8613 8623 10064 10054 10058 10068 8628 10069 10067 10070 10071 
1148 1149 1374 1373 1173 1174 1399 1398 8632 10072 10073 10062 8635 10075 10076 10065 8623 8633 10074 10064 10068 10078 8638 10079 10077 10080 10081 
1150 1151 1376 1375 1175 1176 1401 1400 8403 9843 9844 9845 8644 10084 10085 10086 8642 8641 10082 10083 10089 10087 8647 10088 9850 10090 10091 
1151 1152 1377 1376 1176 1177 1402 1401 8415 9855 9856 9843 8653 10093 10094 10084 8641 8651 10092 10082 10087 10095 8655 10096 9860 10097 10098 
1152 1153 1378 1377 1177 1178 1403 1402 8425 9865 9866 9855 8660 10100 10101 10093 8651 8658 10099 10092 10095 10102 8662 10103 9870 10104 10105 
1153 1154 1379 1378 1178 1179 1404 1403 8435 9875 9876 9865 8667 10107 10108 10100 8658 8665 10106 10099 10102 10109 8669 10110 9880 10111 10112 
1154 1155 1380 1379 1179 1180 1405 1404 8445 9885 9886 9875 8674 10114 10115 10107 8665 8672 10113 10106 10109 10116 8676 10117 9890 10118 10119 
1155 1156 1381 1380 1180 1181 1406 1405 8455 9895 9896 9885 8681 10121 10122 10114 8672 8679 10120 10113 10116 10123 8683 10124 9900 10125 10126 
1156 1157 1382 1381 1181 1182 1407 1406 8465 9905 9906 9895 8688 10128 10129 10121 8679 8686 10127 10120 10123 10130 8690 10131 9910 10132 10133 
1157 1158 1383 1382 1182 1183 1408 1407 8475 9915 9916 9905 8695 10135 10136 10128 8686 8693 10134 10127 10130 10137 8697 10138 9920 10139 10140 
1158 1159 1384 1383 1183 1184 1409 1408 8485 9925 9926 9915 8702 10142 10143 10135 8693 8700 10141 10134 10137 10144 8704 10145 9930 10146 10147 
1159 1160 1385 1384 1184 1185 1410 1409 8495 9935 9936 9925 8709 10149 10150 10142 8700 8707 10148 10141 10144 10151 8711 10152 9940 10153 10154 
1160 1161 1386 1385 1185 1186 1411 1410 8505 9945 9946 9935 8716 10156 10157 10149 8707 8714 10155 10148 10151 10158 8718 10159 9950 10160 10161 
1161 1162 1387 1386 1186 1187 1412 1411 8515 9955 9956 9945 8723 10163 10164 10156 8714 8721 10162 10155 10158 10165 8725 10166 9960 10167 10168 
1162 1163 1388 1387 1187 1188 1413 1412 8525 9965 9966 9955 8730 10170 10171 10163 8721 8728 10169 10162 10165 10172 8732 10173 9970 10174 10175 
1163 1164 1389 1388 1188 1189 1414 1413 8535 9975 9976 9965 8737 10177 10178 10170 8728 8735 10176 10169 10172 10179 8739 10180 9980 10181 10182 
1164 1165 1390 1389 1189 1190 1415 1414 8545 9985 9986 9975 8744 10184 10185 10177 8735 8742 10183 10176 10179 10186 8746 10187 9990 10188 10189 
1165 1166 1391 1390 1190 1191 1416 1415 8555 9995 9996 9985 8751 10191 10192 10184 8742 8749 10190 10183 10186 10193 8753 10194 10000 10195 10196 
1166 1167 1392 1391 1191 1192 1417 1416 8565 10005 10006 9995 8758 10198 10199 10191 8749 8756 10197 10190 10193 10200 8760 10201 10010 10202 10203 
1167 1168 1393 1392 1192 1193 1418 1417 8575 10015 10016 10005 8765 10205 10206 10198 8756 8763 10204 10197 10200 10207 8767 10208 10020 10209 10210 
1168 1169 1394 1393 1193 1194 1419 1418 8585 10025 10026 10015 8772 10212 10213 10205 8763 8770 10211 10204 10207 10214 8774 10215 10030 10216 10217 
1169 1170 1395 1394 1194 1195 1420 1419 8595 10035 10036 10025 8779 10219 10220 10212 8770 8777 10218 10211 10214 10221 8781 10222 10040 10223 10224 
1170 1171 1396 1395 1195 1196 1421 1420 8605 10045 10046 10035 8786 10226 10227 10219 8777 8784 10225 10218 10221 10228 8788 10229 10050 10230 10231 
1171 1172 1397 1396 1196 1197 1422 1421 8615 10055 10056 10045 8793 10233 10234 10226 8784 8791 10232 10225 10228 10235 8795 10236 10060 10237 10238 
1172 1173 1398 1397 1197 1198 1423 1422 8625 10065 10066 10055 8800 10240 10241 10233 8791 8798 10239 10232 10235 10242 8802 10243 10070 10244 10245 
1173 1174 1399 1398 1198 1199 1424 1423 8635 10075 10076 10065 8807 10247 10248 10240 8798 8805 10246 10239 10242 10249 8809 10250 10080 10251 10252 
1175 1176 1401 1400 1200 1201 1426 1425 8644 10084 10085 10086 8815 10255 10256 10257 8813 8812 10253 10254 10260 10258 8818 10259 10090 10261 10262 
1176 1177 1402 1401 1201 1202 1427 1426 8653 10093 10094 10084 8824 10264 10265 10255 8812 8822 10263 10253 10258 10266 8826 10267 10097 10268 10269 
1177 1178 1403 1402 1202 1203 1428 1427 8660 10100 10101 10093 8831 10271 10272 10264 8822 8829 10270 10263 10266 10273 8833 10274 10104 10275 10276 
1178 1179 1404 1403 1203 1204 1429 1428 8667 10107 10108 10100 8838 10278 10279 10271 8829 8836 10277 10270 10273 10280 8840 10281 10111 10282 10283 
1179 1180 1405 1404 1204 1205 1430 1429 8674 10114 10115 10107 8845 10285 10286 10278 8836 8843 10284 10277 10280 10287 8847 10288 10118 10289 10290 
1180 1181 1406 1405 1205 1206 1431 1430 8681 10121 10122 10114 8852 10292 10293 10285 8843 8850 10291 10284 10287 10294 8854 10295 10125 10296 10297 
1181 1182 1407 1406 1206 1207 1432 1431 8688 10128 10129 10121 8859 10299 10300 10292 8850 8857 10298 10291 10294 10301 8861 10302 10132 10303 10304 
1182 1183 1408 1407 1207 1208 1433 1432 8695 10135 10136 10128 8866 10306 10307 10299 8857 8864 10305 10298 10301 10308 8868 10309 10139 10310 10311 
1183 1184 1409 1408 1208 1209 1434 1433 8702 10142 10143 10135 8873 10313 10314 10306 8864 8871 10312 10305 10308 10315 8875 10316 10146 10317 10318 
1184 1185 1410 1409 1209 1210 1435 1434 8709 10149 10150 10142 8880 10320 10321 10313 8871 8878 10319 10312 10315 10322 8882 10323 10153 10324 10325 
1185 1186 1411 1410 1210 1211 1436 1435 8716 10156 10157 10149 8887 10327 10328 10320 8878 8885 10326 10319 10322 10329 8889 10330 10160 10331 10332 
1186 1187 1412 1411 1211 1212 1437 1436 8723 10163 10164 10156 8894 10334 10335 10327 8885 8892 10333 10326 10329 10336 8896 10337 10167 10338 10339 
1187 1188 1413 1412 1212 1213 1438 1437 8730 10170 10171 10163 8901 10341 10342 10334 8892 8899 10340 10333 10336 10343 8903 10344 10174 10345 10346 
1188 1189 1414 1413 1213 1214 1439 1438 8737 10177 10178 10170 8908 10348 10349 10341 8899 8906 10347 10340 10343 10350 8910 10351 10181 10352 10353 
1189 1190 1415 1414 1214 1215 1440 1439 8744 10184 10185 10177 8915 10355 10356 10348 8906 8913 10354 10347 10350 10357 8917 10358 10188 10359 10360 
1190 1191 1416 1415 1215 1216 1441 1440 8751 10191 10192 10184 8922 10362 10363 10355 8913 8920 10361 10354 10357 10364 8924 10365 10195 10366 10367 
1191 1192 1417 1416 1216 1217 1442 1441 8758 10198 10199 10191 8929 10369 10370 10362 8920 8927 10368 10361 10364 10371 8931 10372 10202 10373 10374 
1192 1193 1418 1417 1217 1218 1443 1442 8765 10205 10206 10198 8936 10376 10377 10369 8927 8934 10375 10368 10371 10378 8938 10379 10209 10380 10381 
1193 1194 1419 1418 1218 1219 1444 1443 8772 10212 10213 10205 8943 10383 10384 10376 8934 8941 10382 10375 10378 10385 8945 10386 10216 10387 10388 
1194 1195 1420 1419 1219 1220 1445 1444 8779 10219 10220 10212 8950 10390 10391 10383 8941 8948 10389 10382 10385 10392 8952 10393 10223 10394 10395 
1195 1196 1421 1420 1220 1221 1446 1445 8786 10226 10227 10219 8957 10397 10398 10390 8948 8955 10396 10389 10392 10399 8959 10400 10230 10401 10402 
1196 1197 1422 1421 1221 1222 1447 1446 8793 10233 10234 10226 8964 10404 10405 10397 8955 8962 10403 10396 10399 10406 8966 10407 10237 10408 10409 
1197 1198 1423 1422 1222 1223 1448 1447 8800 10240 10241 10233 8971 10411 10412 10404 8962 8969 10410 10403 10406 10413 8973 10414 10244 10415 10416 
1198 1199 1424 1423 1223 1224 1449 1448 8807 10247 10248 10240 8978 10418 10419 10411 8969 8976 10417 10410 10413 10420 8980 10421 10251 10422 10423 
1200 1201 1426 1425 1225 1226 1451 1450 8815 10255 10256 10257 8986 10426 10427 10428 8984 8983 10424 10425 10431 10429 8989 10430 10261 10432 10433 
1201 1202 1427 1426 1226 1227 1452 1451 8824 10264 10265 10255 8995 10435 10436 10426 8983 8993 10434 10424 10429 10437 8997 10438 10268 10439 10440 
1202 1203 1428 1427 1227 1228 1453 1452 8831 10271 10272 10264 9002 10442 10443 10435 8993 9000 10441 10434 10437 10444 9004 10445 10275 10446 10447 
1203 1204 1429 1428 1228 1229 1454 1453 8838 10278 10279 10271 9009 10449 10450 10442 9000 9007 10448 10441 10444 10451 9011 10452 10282 10453 10454 
1204 1205 1430 1429 1229 1230 1455 1454 8845 10285 10286 10278 9016 10456 10457 10449 9007 9014 10455 10448 10451 10458 9018 10459 10289 10460 10461 
1205 1206 1431 1430 1230 1231 1456 1455 8852 10292 10293 10285 9023 10463 10464 10456 9014 9021 10462 10455 10458 10465 9025 10466 10296 10467 10468 
1206 1207 1432 1431 1231 1232 1457 1456 8859 10299 10300 10292 9030 10470 10471 10463 9021 9028 10469 10462 10465 10472 9032 10473 10303 10474 10475 
1207 1208 1433 1432 1232 1233 1458 1457 8866 10306 10307 10299 9037 10477 10478 10470 9028 9035 10476 10469 10472 10479 9039 10480 10310 10481 10482 
1208 1209 1434 1433 1233 1234 1459 1458 8873 10313 10314 10306 9044 10484 10485 10477 9035 9042 10483 10476 10479 10486 9046 10487 10317 10488 10489 
1209 1210 1435 1434 1234 1235 1460 1459 8880 10320 10321 10313 9051 10491 10492 10484 9042 9049 10490 10483 10486 10493 9053 10494 10324 10495 10496 
1210 1211 1436 1435 1235 1236 1461 1460 8887 10327 10328 10320 9058 10498 10499 10491 9049 9056 10497 10490 10493 10500 9060 10501 10331 10502 10503 
1211 1212 1437 1436 1236 1237 1462 1461 8894 10334 10335 10327 9065 10505 10506 10498 9056 9063 10504 10497 10500 10507 9067 10508 10338 10509 10510 
1212 1213 1438 1437 1237 1238 1463 1462 8901 10341 10342 10334 9072 10512 10513 10505 9063 9070 10511 10504 10507 10514 9074 10515 10345 10516 10517 
1213 1214 1439 1438 1238 1239 1464 1463 8908 10348 10349 10341 9079 10519 10520 10512 9070 9077 10518 10511 10514 10521 9081 10522 10352 10523 10524 
1214 1215 1440 1439 1239 1240 1465 1464 8915 10355 10356 10348 9086 10526 10527 10519 9077 9084 10525 10518 10521 10528 9088 10529 10359 10530 10531 
1215 1216 1441 1440 1240 1241 1466 1465 8922 10362 10363 10355 9093 10533 10534 10526 9084 9091 10532 10525 10528 10535 9095 10536 10366 10537 10538 
1216 1217 1442 1441 1241 1242 1467 1466 8929 10369 10370 10362 9100 10540 10541 10533 9091 9098 10539 10532 10535 10542 9102 10543 10373 10544 10545 
1217 1218 1443 1442 1242 1243 1468 1467 8936 10376 10377 10369 9107 10547 10548 10540 9098 9105 10546 10539 10542 10549 9109 10550 10380 10551 10552 
1218 1219 1444 1443 1243 1244 1469 1468 8943 10383 10384 10376 9114 10554 10555 10547 9105 9112 10553 10546 10549 10556 9116 10557 10387 10558 10559 
1219 1220 1445 1444 1244 1245 1470 1469 8950 10390 10391 10383 9121 10561 10562 10554 9112 9119 10560 10553 10556 10563 9123 10564 10394 10565 10566 
1220 1221 1446 1445 1245 1246 1471 1470 8957 10397 10398 10390 9128 10568 10569 10561 9119 9126 10567 10560 10563 10570 9130 10571 10401 10572 10573 
1221 1222 1447 1446 1246 1247 1472 1471 8964 10404 10405 10397 9135 10575 10576 10568 9126 9133 10574 10567 10570 10577 9137 10578 10408 10579 10580 
1222 1223 1448 1447 1247 1248 1473 1472 8971 10411 10412 10404 9142 10582 10583 10575 9133 9140 10581 10574 10577 10584 9144 10585 10415 10586 10587 
1223 1224 1449 1448 1248 1249 1474 1473 8978 10418 10419 10411 9149 10589 10590 10582 9140 9147 10588 10581 10584 10591 9151 10592 10422 10593 10594 
1225 1226 1451 1450 1250 1251 1476 1475 8986 10426 10427 10428 9157 10597 10598 10599 9155 9154 10595 10596 10602 10600 9160 10601 10432 10603 10604 
1226 1227 1452 1451 1251 1252 1477 1476 8995 10435 10436 10426 9166 10606 10607 10597 9154 9164 10605 10595 10600 10608 9168 10609 10439 10610 10611 
1227 1228 1453 1452 1252 1253 1478 1477 9002 10442 10443 10435 9173 10613 10614 10606 9164 9171 10612 10605 10608 10615 9175 10616 10446 10617 10618 
1228 1229 1454 1453 1253 1254 1479 1478 9009 10449 10450 10442 9180 10620 10621 10613 9171 9178 10619 10612 10615 10622 9182 10623 10453 10624 10625 
1229 1230 1455 1454 1254 1255 1480 1479 9016 10456 10457 10449 9187 10627 10628 10620 9178 9185 10626 10619 10622 10629 9189 10630 10460 10631 10632 
1230 1231 1456 1455 1255 1256 1481 1480 9023 10463 10464 10456 9194 10634 10635 10627 9185 9192 10633 10626 10629 10636 9196 10637 10467 10638 10639 
1231 1232 1457 1456 1256 1257 1482 1481 9030 10470 10471 10463 9201 10641 10642 10634 9192 9199 10640 10633 10636 10643 9203 10644 10474 10645 10646 
1232 1233 1458 1457 1257 1258 1483 1482 9037 10477 10478 10470 9208 10648 10649 10641 9199 9206 10647 10640 10643 10650 9210 10651 10481 10652 10653 
1233 1234 1459 1458 1258 1259 1484 1483 9044 10484 10485 10477 9215 10655 10656 10648 9206 9213 10654 10647 10650 10657 9217 10658 10488 10659 10660 
1234 1235 1460 1459 1259 1260 1485 1484 9051 10491 10492 10484 9222 10662 10663 10655 9213 9220 10661 10654 10657 10664 9224 10665 10495 10666 10667 
1235 1236 1461 1460 1260 1261 1486 1485 9058 10498 10499 10491 9229 10669 10670 10662 9220 9227 10668 10661 10664 10671 9231 10672 10502 10673 10674 
1236 1237 1462 1461 1261 1262 1487 1486 9065 10505 10506 10498 9236 10676 10677 10669 9227 9234 10675 10668 10671 10678 9238 10679 10509 10680 10681 
1237 1238 1463 1462 1262 1263 1488 1487 9072 10512 10513 10505 9243 10683 10684 10676 9234 9241 10682 10675 10678 10685 9245 10686 10516 10687 10688 
1238 1239 1464 1463 1263 1264 1489 1488 9079 10519 10520 10512 9250 10690 10691 10683 9241 9248 10689 10682 10685 10692 9252 10693 10523 10694 10695 
1239 1240 1465 1464 1264 1265 1490 1489 9086 10526 10527 10519 9257 10697 10698 10690 9248 9255 10696 10689 10692 10699 9259 10700 10530 10701 10702 
1240 1241 1466 1465 1265 1266 1491 1490 9093 10533 10534 10526 9264 10704 10705 10697 9255 9262 10703 10696 10699 10706 9266 10707 10537 10708 10709 
1241 1242 1467 1466 1266 1267 1492 1491 9100 10540 10541 10533 9271 10711 10712 10704 9262 9269 10710 10703 10706 10713 9273 10714 10544 10715 10716 
1242 1243 1468 1467 1267 1268 1493 1492 9107 10547 10548 10540 9278 10718 10719 10711 9269 9276 10717 10710 10713 10720 9280 10721 10551 10722 10723 
1243 1244 1469 1468 1268 1269 1494 1493 9114 10554 10555 10547 9285 10725 10726 10718 9276 9283 10724 10717 10720 10727 9287 10728 10558 10729 10730 
1244 1245 1470 1469 1269 1270 1495 1494 9121 10561 10562 10554 9292 10732 10733 10725 9283 9290 10731 10724 10727 10734 9294 10735 10565 10736 10737 
1245 1246 1471 1470 1270 1271 1496 1495 9128 10568 10569 10561 9299 10739 10740 10732 9290 9297 10738 10731 10734 10741 9301 10742 10572 10743 10744 
1246 1247 1472 1471 1271 1272 1497 1496 9135 10575 10576 10568 9306 10746 10747 10739 9297 9304 10745 10738 10741 10748 9308 10749 10579 10750 10751 
1247 1248 1473 1472 1272 1273 1498 1497 9142 10582 10583 10575 9313 10753 10754 10746 9304 9311 10752 10745 10748 10755 9315 10756 10586 10757 10758 
1248 1249 1474 1473 1273 1274 1499 1498 9149 10589 10590 10582 9320 10760 10761 10753 9311 9318 10759 10752 10755 10762 9322 10763 10593 10764 10765 
1250 1251 1476 1475 1275 1276 1501 1500 9157 10597 10598 10599 9328 10768 10769 10770 9326 9325 10766 10767 10773 10771 9331 10772 10603 10774 10775 
1251 1252 1477 1476 1276 1277 1502 1501 9166 10606 10607 10597 9337 10777 10778 10768 9325 9335 10776 10766 10771 10779 9339 10780 10610 10781 10782 
1252 1253 1478 1477 1277 1278 1503 1502 9173 10613 10614 10606 9344 10784 10785 10777 9335 9342 10783 10776 10779 10786 9346 10787 10617 10788 10789 
1253 1254 1479 1478 1278 1279 1504 1503 9180 10620 10621 10613 9351 10791 10792 10784 9342 9349 10790 10783 10786 10793 9353 10794 10624 10795 10796 
1254 1255 1480 1479 1279 1280 1505 1504 9187 10627 10628 10620 9358 10798 10799 10791 9349 9356 10797 10790 10793 10800 9360 10801 10631 10802 10803 
1255 1256 1481 1480 1280 1281 1506 1505 9194 10634 10635 10627 9365 10805 10806 10798 9356 9363 10804 10797 10800 10807 9367 10808 10638 10809 10810 
1256 1257 1482 1481 1281 1282 1507 1506 9201 10641 10642 10634 9372 10812 10813 10805 9363 9370 10811 10804 10807 10814 9374 10815 10645 10816 10817 
1257 1258 1483 1482 1282 1283 1508 1507 9208 10648 10649 10641 9379 10819 10820 10812 9370 9377 10818 10811 10814 10821 9381 10822 10652 10823 10824 
1258 1259 1484 1483 1283 1284 1509 1508 9215 10655 10656 10648 9386 10826 10827 10819 9377 9384 10825 10818 10821 10828 9388 10829 10659 10830 10831 
1259 1260 1485 1484 1284 1285 1510 1509 9222 10662 10663 10655 9393 10833 10834 10826 9384 9391 10832 10825 10828 10835 9395 10836 10666 10837 10838 
1260 1261 1486 1485 1285 1286 1511 1510 9229 10669 10670 10662 9400 10840 10841 10833 9391 9398 10839 10832 10835 10842 9402 10843 10673 10844 10845 
1261 1262 1487 1486 1286 1287 1512 1511 9236 10676 10677 10669 9407 10847 10848 10840 9398 9405 10846 10839 10842 10849 9409 10850 10680 10851 10852 
1262 1263 1488 1487 1287 1288 1513 1512 9243 10683 10684 10676 9414 10854 10855 10847 9405 9412 10853 10846 10849 10856 9416 10857 10687 10858 10859 
1263 1264 1489 1488 1288 1289 1514 1513 9250 10690 10691 10683 9421 10861 10862 10854 9412 9419 10860 10853 10856 10863 9423 10864 10694 10865 10866 
1264 1265 1490 1489 1289 1290 1515 1514 9257 10697 10698 10690 9428 10868 10869 10861 9419 9426 10867 10860 10863 10870 9430 10871 10701 10872 10873 
1265 1266 1491 1490 1290 1291 1516 1515 9264 10704 10705 10697 9435 10875 10876 10868 9426 9433 10874 10867 10870 10877 9437 10878 10708 10879 10880 
1266 1267 1492 1491 1291 1292 1517 1516 9271 10711 10712 10704 9442 10882 10883 10875 9433 9440 10881 10874 10877 10884 9444 10885 10715 10886 10887 
1267 1268 1493 1492 1292 1293 1518 1517 9278 10718 10719 10711 9449 10889 10890 10882 9440 9447 10888 10881 10884 10891 9451 10892 10722 10893 10894 
1268 1269 1494 1493 1293 1294 1519 1518 9285 10725 10726 10718 9456 10896 10897 10889 9447 9454 10895 10888 10891 10898 9458 10899 10729 10900 10901 
1269 1270 1495 1494 1294 1295 1520 1519 9292 10732 10733 10725 9463 10903 10904 10896 9454 9461 10902 10895 10898 10905 9465 10906 10736 10907 10908 
1270 1271 1496 1495 1295 1296 1521 1520 9299 10739 10740 10732 9470 10910 10911 10903 9461 9468 10909 10902 10905 10912 9472 10913 10743 10914 10915 
1271 1272 1497 1496 1296 1297 1522 1521 9306 10746 10747 10739 9477 10917 10918 10910 9468 9475 10916 10909 10912 10919 9479 10920 10750 10921 10922 
1272 1273 1498 1497 1297 1298 1523 1522 9313 10753 10754 10746 9484 10924 10925 10917 9475 9482 10923 10916 10919 10926 9486 10927 10757 10928 10929 
1273 1274 1499 1498 1298 1299 1524 1523 9320 10760 10761 10753 9491 10931 10932 10924 9482 9489 10930 10923 10926 10933 9493 10934 10764 10935 10936 
1275 1276 1501 1500 1300 1301 1526 1525 9328 10768 10769 10770 9499 10939 10940 10941 9497 9496 10937 10938 10944 10942 9502 10943 10774 10945 10946 
1276 1277 1502 1501 1301 1302 1527 1526 9337 10777 10778 10768 9508 10948 10949 10939 9496 9506 10947 10937 10942 10950 9510 10951 10781 10952 10953 
1277 1278 1503 1502 1302 1303 1528 1527 9344 10784 10785 10777 9515 10955 10956 10948 9506 9513 10954 10947 10950 10957 9517 10958 10788 10959 10960 
1278 1279 1504 1503 1303 1304 1529 1528 9351 10791 10792 10784 9522 10962 10963 10955 9513 9520 10961 10954 10957 10964 9524 10965 10795 10966 10967 
1279 1280 1505 1504 1304 1305 1530 1529 9358 10798 10799 10791 9529 10969 10970 10962 9520 9527 10968 10961 10964 10971 9531 10972 10802 10973 10974 
1280 1281 1506 1505 1305 1306 1531 1530 9365 10805 10806 10798 9536 10976 10977 10969 9527 9534 10975 10968 10971 10978 9538 10979 10809 10980 10981 
1281 1282 1507 1506 1306 1307 1532 1531 9372 10812 10813 10805 9543 10983 10984 10976 9534 9541 10982 10975 10978 10985 9545 10986 10816 10987 10988 
1282 1283 1508 1507 1307 1308 1533 1532 9379 10819 10820 10812 9550 10990 10991 10983 9541 9548 10989 10982 10985 10992 9552 10993 10823 10994 10995 
1283 1284 1509 1508 1308 1309 1534 1533 9386 10826 10827 10819 9557 10997 10998 10990 9548 9555 10996 10989 10992 10999 9559 11000 10830 11001 11002 
1284 1285 1510 1509 1309 1310 1535 1534 9393 10833 10834 10826 9564 11004 11005 10997 9555 9562 11003 10996 10999 11006 9566 11007 10837 11008 11009 
1285 1286 1511 1510 1310 1311 1536 1535 9400 10840 10841 10833 9571 11011 11012 11004 9562 9569 11010 11003 11006 11013 9573 11014 10844 11015 11016 
1286 1287 1512 1511 1311 1312 1537 1536 9407 10847 10848 10840 9578 11018 11019 11011 9569 9576 11017 11010 11013 11020 9580 11021 10851 11022 11023 
1287 1288 1513 1512 1312 1313 1538 1537 9414 10854 10855 10847 9585 11025 11026 11018 9576 9583 11024 11017 11020 11027 9587 11028 10858 11029 11030 
1288 1289 1514 1513 1313 1314 1539 1538 9421 10861 10862 10854 9592 11032 11033 11025 9583 9590 11031 11024 11027 11034 9594 11035 10865 11036 11037 
1289 1290 1515 1514 1314 1315 1540 1539 9428 10868 10869 10861 9599 11039 11040 11032 9590 9597 11038 11031 11034 11041 9601 11042 10872 11043 11044 
1290 1291 1516 1515 1315 1316 1541 1540 9435 10875 10876 10868 9606 11046 11047 11039 9597 9604 11045 11038 11041 11048 9608 11049 10879 11050 11051 
1291 1292 1517 1516 1316 1317 1542 1541 9442 10882 10883 10875 9613 11053 11054 11046 9604 9611 11052 11045 11048 11055 9615 11056 10886 11057 11058 
1292 1293 1518 1517 1317 1318 1543 1542 9449 10889 10890 10882 9620 11060 11061 11053 9611 9618 11059 11052 11055 11062 9622 11063 10893 11064 11065 
1293 1294 1519 1518 1318 1319 1544 1543 9456 10896 10897 10889 9627 11067 11068 11060 9618 9625 11066 11059 11062 11069 9629 11070 10900 11071 11072 
1294 1295 1520 1519 1319 1320 1545 1544 9463 10903 10904 10896 9634 11074 11075 11067 9625 9632 11073 11066 11069 11076 9636 11077 10907 11078 11079 
1295 1296 1521 1520 1320 1321 1546 1545 9470 10910 10911 10903 9641 11081 11082 11074 9632 9639 11080 11073 11076 11083 9643 11084 10914 11085 11086 
1296 1297 1522 1521 1321 1322 1547 1546 9477 10917 10918 10910 9648 11088 11089 11081 9639 9646 11087 11080 11083 11090 9650 11091 10921 11092 11093 
1297 1298 1523 1522 1322 1323 1548 1547 9484 10924 10925 10917 9655 11095 11096 11088 9646 9653 11094 11087 11090 11097 9657 11098 10928 11099 11100 
1298 1299 1524 1523 1323 1324 1549 1548 9491 10931 10932 10924 9662 11102 11103 11095 9653 9660 11101 11094 11097 11104 9664 11105 10935 11106 11107 
1300 1301 1526 1525 1325 1326 1551 1550 9499 10939 10940 10941 9670 11110 11111 11112 9668 9667 11108 11109 11115 11113 9673 11114 10945 11116 11117 
1301 1302 1527 1526 1326 1327 1552 1551 9508 10948 10949 10939 9679 11119 11120 11110 9667 9677 11118 11108 11113 11121 9681 11122 10952 11123 11124 
1302 1303 1528 1527 1327 1328 1553 1552 9515 10955 10956 10948 9686 11126 11127 11119 9677 9684 11125 11118 11121 11128 9688 11129 10959 11130 11131 
1303 1304 1529 1528 1328 1329 1554 1553 9522 10962 10963 10955 9693 11133 11134 11126 9684 9691 11132 11125 11128 11135 9695 11136 10966 11137 11138 
1304 1305 1530 1529 1329 1330 1555 1554 9529 10969 10970 10962 9700 11140 11141 11133 9691 9698 11139 11132 11135 11142 9702 11143 10973 11144 11145 
1305 1306 1531 1530 1330 1331 1556 1555 9536 10976 10977 10969 9707 11147 11148 11140 9698 9705 11146 11139 11142 11149 9709 11150 10980 11151 11152 
1306 1307 1532 1531 1331 1332 1557 1556 9543 10983 10984 10976 9714 11154 11155 11147 9705 9712 11153 11146 11149 11156 9716 11157 10987 11158 11159 
1307 1308 1533 1532 1332 1333 1558 1557 9550 10990 10991 10983 9721 11161 11162 11154 9712 9719 11160 11153 11156 11163 9723 11164 10994 11165 11166 
1308 1309 1534 1533 1333 1334 1559 1558 9557 10997 10998 10990 9728 11168 11169 11161 9719 9726 11167 11160 11163 11170 9730 11171 11001 11172 11173 
1309 1310 1535 1534 1334 1335 1560 1559 9564 11004 11005 10997 9735 11175 11176 11168 9726 9733 11174 11167 11170 11177 9737 11178 11008 11179 11180 
1310 1311 1536 1535 1335 1336 1561 1560 9571 11011 11012 11004 9742 11182 11183 11175 9733 9740 11181 11174 11177 11184 9744 11185 11015 11186 11187 
1311 1312 1537 1536 1336 1337 1562 1561 9578 11018 11019 11011 9749 11189 11190 11182 9740 9747 11188 11181 11184 11191 9751 11192 11022 11193 11194 
1312 1313 1538 1537 1337 1338 1563 1562 9585 11025 11026 11018 9756 11196 11197 11189 9747 9754 11195 11188 11191 11198 9758 11199 11029 11200 11201 
1313 1314 1539 1538 1338 1339 1564 1563 9592 11032 11033 11025 9763 11203 11204 11196 9754 9761 11202 11195 11198 11205 9765 11206 11036 11207 11208 
1314 1315 1540 1539 1339 1340 1565 1564 9599 11039 11040 11032 9770 11210 11211 11203 9761 9768 11209 11202 11205 11212 9772 11213 11043 11214 11215 
1315 1316 1541 1540 1340 1341 1566 1565 9606 11046 11047 11039 9777 11217 11218 11210 9768 9775 11216 11209 11212 11219 9779 11220 11050 11221 11222 
1316 1317 1542 1541 1341 1342 1567 1566 9613 11053 11054 11046 9784 11224 11225 11217 9775 9782 11223 11216 11219 11226 9786 11227 11057 11228 11229 
1317 1318 1543 1542 1342 1343 1568 1567 9620 11060 11061 11053 9791 11231 11232 11224 9782 9789 11230 11223 11226 11233 9793 11234 11064 11235 11236 
1318 1319 1544 1543 1343 1344 1569 1568 9627 11067 11068 11060 9798 11238 11239 11231 9789 9796 11237 11230 11233 11240 9800 11241 11071 11242 11243 
1319 1320 1545 1544 1344 1345 1570 1569 9634 11074 11075 11067 9805 11245 11246 11238 9796 9803 11244 11237 11240 11247 9807 11248 11078 11249 11250 
1320 1321 1546 1545 1345 1346 1571 1570 9641 11081 11082 11074 9812 11252 11253 11245 9803 9810 11251 11244 11247 11254 9814 11255 11085 11256 11257 
1321 1322 1547 1546 1346 1347 1572 1571 9648 11088 11089 11081 9819 11259 11260 11252 9810 9817 11258 11251 11254 11261 9821 11262 11092 11263 11264 
1322 1323 1548 1547 1347 1348 1573 1572 9655 11095 11096 11088 9826 11266 11267 11259 9817 9824 11265 11258 11261 11268 9828 11269 11099 11270 11271 
1323 1324 1549 1548 1348 1349 1574 1573 9662 11102 11103 11095 9833 11273 11274 11266 9824 9831 11272 11265 11268 11275 9835 11276 11106 11277 11278 
1350 1351 1576 1575 1375 1376 1601 1600 9839 11279 11280 11281 9844 11284 11285 11286 9842 9841 11282 11283 11290 11288 9848 11289 11287 11291 11292 
1351 1352 1577 1576 1376 1377 1602 1601 9853 11293 11294 11279 9856 11296 11297 11284 9841 9854 11295 11282 11288 11299 9859 11300 11298 11301 11302 
1352 1353 1578 1577 1377 1378 1603 1602 9863 11303 11304 11293 9866 11306 11307 11296 9854 9864 11305 11295 11299 11309 9869 11310 11308 11311 11312 
1353 1354 1579 1578 1378 1379 1604 1603 9873 11313 11314 11303 9876 11316 11317 11306 9864 9874 11315 11305 11309 11319 9879 11320 11318 11321 11322 
1354 1355 1580 1579 1379 1380 1605 1604 9883 11323 11324 11313 9886 11326 11327 11316 9874 9884 11325 11315 11319 11329 9889 11330 11328 11331 11332 
1355 1356 1581 1580 1380 1381 1606 1605 9893 11333 11334 11323 9896 11336 11337 11326 9884 9894 11335 11325 11329 11339 9899 11340 11338 11341 11342 
1356 1357 1582 1581 1381 1382 1607 1606 9903 11343 11344 11333 9906 11346 11347 11336 9894 9904 11345 11335 11339 11349 9909 11350 11348 11351 11352 
1357 1358 1583 1582 1382 1383 1608 1607 9913 11353 11354 11343 9916 11356 11357 11346 9904 9914 11355 11345 11349 11359 9919 11360 11358 11361 11362 
1358 1359 1584 1583 1383 1384 1609 1608 9923 11363 11364 11353 9926 11366 11367 11356 9914 9924 11365 11355 11359 11369 9929 11370 11368 11371 11372 
1359 1360 1585 1584 1384 1385 1610 1609 9933 11373 11374 11363 9936 11376 11377 11366 9924 9934 11375 11365 11369 11379 9939 11380 11378 11381 11382 
1360 1361 1586 1585 1385 1386 1611 1610 9943 11383 11384 11373 9946 11386 11387 11376 9934 9944 11385 11375 11379 11389 9949 11390 11388 11391 11392 
1361 1362 1587 1586 1386 1387 1612 1611 9953 11393 11394 11383 9956 11396 11397 11386 9944 9954 11395 11385 11389 11399 9959 11400 11398 11401 11402 
1362 1363 1588 1587 1387 1388 1613 1612 9963 11403 11404 11393 9966 11406 11407 11396 9954 9964 11405 11395 11399 11409 9969 11410 11408 11411 11412 
1363 1364 1589 1588 1388 1389 1614 1613 9973 11413 11414 11403 9976 11416 11417 11406 9964 9974 11415 11405 11409 11419 9979 11420 11418 11421 11422 
1364 1365 1590 1589 1389 1390 1615 1614 9983 11423 11424 11413 9986 11426 11427 11416 9974 9984 11425 11415 11419 11429 9989 11430 11428 11431 11432 
1365 1366 1591 1590 1390 1391 1616 1615 9993 11433 11434 11423 9996 11436 11437 11426 9984 9994 11435 11425 11429 11439 9999 11440 11438 11441 11442 
1366 1367 1592 1591 1391 1392 1617 1616 10003 11443 11444 11433 10006 11446 11447 11436 9994 10004 11445 11435 11439 11449 10009 11450 11448 11451 11452 
1367 1368 1593 1592 1392 1393 1618 1617 10013 11453 11454 11443 10016 11456 11457 11446 10004 10014 11455 11445 11449 11459 10019 11460 11458 11461 11462 
1368 1369 1594 1593 1393 1394 1619 1618 10023 11463 11464 11453 10026 11466 11467 11456 10014 10024 11465 11455 11459 11469 10029 11470 11468 11471 11472 
1369 1370 1595 1594 1394 1395 1620 1619 10033 11473 11474 11463 10036 11476 11477 11466 10024 10034 11475 11465 11469 11479 10039 11480 11478 11481 11482 
1370 1371 1596 1595 1395 1396 1621 1620 10043 11483 11484 11473 10046 11486 11487 11476 10034 10044 11485 11475 11479 11489 10049 11490 11488 11491 11492 
1371 1372 1597 1596 1396 1397 1622 1621 10053 11493 11494 11483 10056 11496 11497 11486 10044 10054 11495 11485 11489 11499 10059 11500 11498 11501 11502 
1372 1373 1598 1597 1397 1398 1623 1622 10063 11503 11504 11493 10066 11506 11507 11496 10054 10064 11505 11495 11499 11509 10069 11510 11508 11511 11512 
1373 1374 1599 1598 1398 1399 1624 1623 10073 11513 11514 11503 10076 11516 11517 11506 10064 10074 11515 11505 11509 11519 10079 11520 11518 11521 11522 
1375 1376 1601 1600 1400 1401 1626 1625 9844 11284 11285 11286 10085 11525 11526 11527 10083 10082 11523 11524 11530 11528 10088 11529 11291 11531 11532 
1376 1377 1602 1601 1401 1402 1627 1626 9856 11296 11297 11284 10094 11534 11535 11525 10082 10092 11533 11523 11528 11536 10096 11537 11301 11538 11539 
1377 1378 1603 1602 1402 1403 1628 1627 9866 11306 11307 11296 10101 11541 11542 11534 10092 10099 11540 11533 11536 11543 10103 11544 11311 11545 11546 
1378 1379 1604 1603 1403 1404 1629 1628 9876 11316 11317 11306 10108 11548 11549 11541 10099 10106 11547 11540 11543 11550 10110 11551 11321 11552 11553 
1379 1380 1605 1604 1404 1405 1630 1629 9886 11326 11327 11316 10115 11555 11556 11548 10106 10113 11554 11547 11550 11557 10117 11558 11331 11559 11560 
1380 1381 1606 1605 1405 1406 1631 1630 9896 11336 11337 11326 10122 11562 11563 11555 10113 10120 11561 11554 11557 11564 10124 11565 11341 11566 11567 
1381 1382 1607 1606 1406 1407 1632 1631 9906 11346 11347 11336 10129 11569 11570 11562 10120 10127 11568 11561 11564 11571 10131 11572 11351 11573 11574 
1382 1383 1608 1607 1407 1408 1633 1632 9916 11356 11357 11346 10136 11576 11577 11569 10127 10134 11575 11568 11571 11578 10138 11579 11361 11580 11581 
1383 1384 1609 1608 1408 1409 1634 1633 9926 11366 11367 11356 10143 11583 11584 11576 10134 10141 11582 11575 11578 11585 10145 11586 11371 11587 11588 
1384 1385 1610 1609 1409 1410 1635 1634 9936 11376 11377 11366 10150 11590 11591 11583 10141 10148 11589 11582 11585 11592 10152 11593 11381 11594 11595 
1385 1386 1611 1610 1410 1411 1636 1635 9946 11386 11387 11376 10157 11597 11598 11590 10148 10155 11596 11589 11592 11599 10159 11600 11391 11601 11602 
1386 1387 1612 1611 1411 1412 1637 1636 9956 11396 11397 11386 10164 11604 11605 11597 10155 10162 11603 11596 11599 11606 10166 11607 11401 11608 11609 
1387 1388 1613 1612 1412 1413 1638 1637 9966 11406 11407 11396 10171 11611 11612 11604 10162 10169 11610 11603 11606 11613 10173 11614 11411 11615 11616 
1388 1389 1614 1613 1413 1414 1639 1638 9976 11416 11417 11406 10178 11618 11619 11611 10169 10176 11617 11610 11613 11620 10180 11621 11421 11622 11623 
1389 1390 1615 1614 1414 1415 1640 1639 9986 11426 11427 11416 10185 11625 11626 11618 10176 10183 11624 11617 11620 11627 10187 11628 11431 11629 11630 
1390 1391 1616 1615 1415 1416 1641 1640 9996 11436 11437 11426 10192 11632 11633 11625 10183 10190 11631 11624 11627 11634 10194 11635 11441 11636 11637 
1391 1392 1617 1616 1416 1417 1642 1641 10006 11446 11447 11436 10199 11639 11640 11632 10190 10197 11638 11631 11634 11641 10201 11642 11451 11643 11644 
1392 1393 1618 1617 1417 1418 1643 1642 10016 11456 11457 11446 10206 11646 11647 11639 10197 10204 11645 11638 11641 11648 10208 11649 11461 11650 11651 
1393 1394 1619 1618 1418 1419 1644 1643 10026 11466 11467 11456 10213 11653 11654 11646 10204 10211 11652 11645 11648 11655 10215 11656 11471 11657 11658 
1394 1395 1620 1619 1419 1420 1645 1644 10036 11476 11477 11466 10220 11660 11661 11653 10211 10218 11659 11652 11655 11662 10222 11663 11481 11664 11665 
1395 1396 1621 1620 1420 1421 1646 1645 10046 11486 11487 11476 10227 11667 11668 11660 10218 10225 11666 11659 11662 11669 10229 11670 11491 11671 11672 
1396 1397 1622 1621 1421 1422 1647 1646 10056 11496 11497 11486 10234 11674 11675 11667 10225 10232 11673 11666 11669 11676 10236 11677 11501 11678 11679 
1397 1398 1623 1622 1422 1423 1648 1647 10066 11506 11507 11496 10241 11681 11682 11674 10232 10239 11680 11673 11676 11683 10243 11684 11511 11685 11686 
1398 1399 1624 1623 1423 1424 1649 1648 10076 11516 11517 11506 10248 11688 11689 11681 10239 10246 11687 11680 11683 11690 10250 11691 11521 11692 11693 
1400 1401 1626 1625 1425 1426 1651 1650 10085 11525 11526 11527 10256 11696 11697 11698 10254 10253 11694 11695 11701 11699 10259 11700 11531 11702 11703 
1401 1402 1627 1626 1426 1427 1652 1651 10094 11534 11535 11525 10265 11705 11706 11696 10253 10263 11704 11694 11699 11707 10267 11708 11538 11709 11710 
1402 1403 1628 1627 1427 1428 1653 1652 10101 11541 11542 11534 10272 11712 11713 11705 10263 10270 11711 11704 11707 11714 10274 11715 11545 11716 11717 
1403 1404 1629 1628 1428 1429 1654 1653 10108 11548 11549 11541 10279 11719 11720 11712 10270 10277 11718 11711 11714 11721 10281 11722 11552 11723 11724 
1404 1405 1630 1629 1429 1430 1655 1654 10115 11555 11556 11548 10286 11726 11727 11719 10277 10284 11725 11718 11721 11728 10288 11729 11559 11730 11731 
1405 1406 1631 1630 1430 1431 1656 1655 10122 11562 11563 11555 10293 11733 11734 11726 10284 10291 11732 11725 11728 11735 10295 11736 11566 11737 11738 
1406 1407 1632 1631 1431 1432 1657 1656 10129 11569 11570 11562 10300 11740 11741 11733 10291 10298 11739 11732 11735 11742 10302 11743 11573 11744 11745 
1407 1408 1633 1632 1432 1433 1658 1657 10136 11576 11577 11569 10307 11747 11748 11740 10298 10305 11746 11739 11742 11749 10309 11750 11580 11751 11752 
1408 1409 1634 1633 1433 1434 1659 1658 10143 11583 11584 11576 10314 11754 11755 11747 10305 10312 11753 11746 11749 11756 10316 11757 11587 11758 11759 
1409 1410 1635 1634 1434 1435 1660 1659 10150 11590 11591 11583 10321 11761 11762 11754 10312 10319 11760 11753 11756 11763 10323 11764 11594 11765 11766 
1410 1411 1636 1635 1435 1436 1661 1660 10157 11597 11598 11590 10328 11768 11769 11761 10319 10326 11767 11760 11763 11770 10330 11771 11601 11772 11773 
1411 1412 1637 1636 1436 1437 1662 1661 10164 11604 11605 11597 10335 11775 11776 11768 10326 10333 11774 11767 11770 11777 10337 11778 11608 11779 11780 
1412 1413 1638 1637 1437 1438 1663 1662 10171 11611 11612 11604 10342 11782 11783 11775 10333 10340 11781 11774 11777 11784 10344 11785 11615 11786 11787 
1413 1414 1639 1638 1438 1439 1664 1663 10178 11618 11619 11611 10349 11789 11790 11782 10340 10347 11788 11781 11784 11791 10351 11792 11622 11793 11794 
1414 1415 1640 1639 1439 1440 1665 1664 10185 11625 11626 11618 10356 11796 11797 11789 10347 10354 11795 11788 11791 11798 10358 11799 11629 11800 11801 
1415 1416 1641 1640 1440 1441 1666 1665 10192 11632 11633 11625 10363 11803 11804 11796 10354 10361 11802 11795 11798 11805 10365 11806 11636 11807 11808 
1416 1417 1642 1641 1441 1442 1667 1666 10199 11639 11640 11632 10370 11810 11811 11803 10361 10368 11809 11802 11805 11812 10372 11813 11643 11814 11815 
1417 1418 1643 1642 1442 1443 1668 1667 10206 11646 11647 11639 10377 11817 11818 11810 10368 10375 11816 11809 11812 11819 10379 11820 11650 11821 11822 
1418 1419 1644 1643 1443 1444 1669 1668 10213 11653 11654 11646 10384 11824 11825 11817 10375 10382 11823 11816 11819 11826 10386 11827 11657 11828 11829 
1419 1420 1645 1644 1444 1445 1670 1669 10220 11660 11661 11653 10391 11831 11832 11824 10382 10389 11830 11823 11826 11833 10393 11834 11664 11835 11836 
1420 1421 1646 1645 1445 1446 1671 1670 10227 11667 11668 11660 10398 11838 11839 11831 10389 10396 11837 11830 11833 11840 10400 11841 11671 11842 11843 
1421 1422 1647 1646 1446 1447 1672 1671 10234 11674 11675 11667 10405 11845 11846 11838 10396 10403 11844 11837 11840 11847 10407 11848 11678 11849 11850 
1422 1423 1648 1647 1447 1448 1673 1672 10241 11681 11682 11674 10412 11852 11853 11845 10403 10410 11851 11844 11847 11854 10414 11855 11685 11856 11857 
1423 1424 1649 1648 1448 1449 1674 1673 10248 11688 11689 11681 10419 11859 11860 11852 10410 10417 11858 11851 11854 11861 10421 11862 11692 11863 11864 
1425 1426 1651 1650 1450 1451 1676 1675 10256 11696 11697 11698 10427 11867 11868 11869 10425 10424 11865 11866 11872 11870 10430 11871 11702 11873 11874 
1426 1427 1652 1651 1451 1452 1677 1676 10265 11705 11706 11696 10436 11876 11877 11867 10424 10434 11875 11865 11870 11878 10438 11879 11709 11880 11881 
1427 1428 1653 1652 1452 1453 1678 1677 10272 11712 11713 11705 10443 11883 11884 11876 10434 10441 11882 11875 11878 11885 10445 11886 11716 11887 11888 
1428 1429 1654 1653 1453 1454 1679 1678 10279 11719 11720 11712 10450 11890 11891 11883 10441 10448 11889 11882 11885 11892 10452 11893 11723 11894 11895 
1429 1430 1655 1654 1454 1455 1680 1679 10286 11726 11727 11719 10457 11897 11898 11890 10448 10455 11896 11889 11892 11899 10459 11900 11730 11901 11902 
1430 1431 1656 1655 1455 1456 1681 1680 10293 11733 11734 11726 10464 11904 11905 11897 10455 10462 11903 11896 11899 11906 10466 11907 11737 11908 11909 
1431 1432 1657 1656 1456 1457 1682 1681 10300 11740 11741 11733 10471 11911 11912 11904 10462 10469 11910 11903 11906 11913 10473 11914 11744 11915 11916 
1432 1433 1658 1657 1457 1458 1683 1682 10307 11747 11748 11740 10478 11918 11919 11911 10469 10476 11917 11910 11913 11920 10480 11921 11751 11922 11923 
1433 1434 1659 1658 1458 1459 1684 1683 10314 11754 11755 11747 10485 11925 11926 11918 10476 10483 11924 11917 11920 11927 10487 11928 11758 11929 11930 
1434 1435 1660 1659 1459 1460 1685 1684 10321 11761 11762 11754 10492 11932 11933 11925 10483 10490 11931 11924 11927 11934 10494 11935 11765 11936 11937 
1435 1436 1661 1660 1460 1461 1686 1685 10328 11768 11769 11761 10499 11939 11940 11932 10490 10497 11938 11931 11934 11941 10501 11942 11772 11943 11944 
1436 1437 1662 1661 1461 1462 1687 1686 10335 11775 11776 11768 10506 11946 11947 11939 10497 10504 11945 11938 11941 11948 10508 11949 11779 11950 11951 
1437 1438 1663 1662 1462 1463 1688 1687 10342 11782 11783 11775 10513 11953 11954 11946 10504 10511 11952 11945 11948 11955 10515 11956 11786 11957 11958 
1438 1439 1664 1663 1463 1464 1689 1688 10349 11789 11790 11782 10520 11960 11961 11953 10511 10518 11959 11952 11955 11962 10522 11963 11793 11964 11965 
1439 1440 1665 1664 1464 1465 1690 1689 10356 11796 11797 11789 10527 11967 11968 11960 10518 10525 11966 11959 11962 11969 10529 11970 11800 11971 11972 
1440 1441 1666 1665 1465 1466 1691 1690 10363 11803 11804 11796 10534 11974 11975 11967 10525 10532 11973 11966 11969 11976 10536 11977 11807 11978 11979 
1441 1442 1667 1666 1466 1467 1692 1691 10370 11810 11811 11803 10541 11981 11982 11974 10532 10539 11980 11973 11976 11983 10543 11984 11814 11985 11986 
1442 1443 1668 1667 1467 1468 1693 1692 10377 11817 11818 11810 10548 11988 11989 11981 10539 10546 11987 11980 11983 11990 10550 11991 11821 11992 11993 
1443 1444 1669 1668 1468 1469 1694 1693 10384 11824 11825 11817 10555 11995 11996 11988 10546 10553 11994 11987 11990 11997 10557 11998 11828 11999 12000 
1444 1445 1670 1669 1469 1470 1695 1694 10391 11831 11832 11824 10562 12002 12003 11995 10553 10560 12001 11994 11997 12004 10564 12005 11835 12006 12007 
1445 1446 1671 1670 1470 1471 1696 1695 10398 11838 11839 11831 10569 12009 12010 12002 10560 10567 12008 12001 12004 12011 10571 12012 11842 12013 12014 
1446 1447 1672 1671 1471 1472 1697 1696 10405 11845 11846 11838 10576 12016 12017 12009 10567 10574 12015 12008 12011 12018 10578 12019 11849 12020 12021 
1447 1448 1673 1672 1472 1473 1698 1697 10412 11852 11853 11845 10583 12023 12024 12016 10574 10581 12022 12015 12018 12025 10585 12026 11856 12027 12028 
1448 1449 1674 1673 1473 1474 1699 1698 10419 11859 11860 11852 10590 12030 12031 12023 10581 10588 12029 12022 12025 12032 10592 12033 11863 12034 12035 
1450 1451 1676 1675 1475 1476 1701 1700 10427 11867 11868 11869 10598 12038 12039 12040 10596 10595 12036 12037 12043 12041 10601 12042 11873 12044 12045 
1451 1452 1677 1676 1476 1477 1702 1701 10436 11876 11877 11867 10607 12047 12048 12038 10595 10605 12046 12036 12041 12049 10609 12050 11880 12051 12052 
1452 1453 1678 1677 1477 1478 1703 1702 10443 11883 11884 11876 10614 12054 12055 12047 10605 10612 12053 12046 12049 12056 10616 12057 11887 12058 12059 
1453 1454 1679 1678 1478 1479 1704 1703 10450 11890 11891 11883 10621 12061 12062 12054 10612 10619 12060 12053 12056 12063 10623 12064 11894 12065 12066 
1454 1455 1680 1679 1479 1480 1705 1704 10457 11897 11898 11890 10628 12068 12069 12061 10619 10626 12067 12060 12063 12070 10630 12071 11901 12072 12073 
1455 1456 1681 1680 1480 1481 1706 1705 10464 11904 11905 11897 10635 12075 12076 12068 10626 10633 12074 12067 12070 12077 10637 12078 11908 12079 12080 
1456 1457 1682 1681 1481 1482 1707 1706 10471 11911 11912 11904 10642 12082 12083 12075 10633 10640 12081 12074 12077 12084 10644 12085 11915 12086 12087 
1457 1458 1683 1682 1482 1483 1708 1707 10478 11918 11919 11911 10649 12089 12090 12082 10640 10647 12088 12081 12084 12091 10651 12092 11922 12093 12094 
1458 1459 1684 1683 1483 1484 1709 1708 10485 11925 11926 11918 10656 12096 12097 12089 10647 10654 12095 12088 12091 12098 10658 12099 11929 12100 12101 
1459 1460 1685 1684 1484 1485 1710 1709 10492 11932 11933 11925 10663 12103 12104 12096 10654 10661 12102 12095 12098 12105 10665 12106 11936 12107 12108 
1460 1461 1686 1685 1485 1486 1711 1710 10499 11939 11940 11932 10670 12110 12111 12103 10661 10668 12109 12102 12105 12112 10672 12113 11943 12114 12115 
1461 1462 1687 1686 1486 1487 1712 1711 10506 11946 11947 11939 10677 12117 12118 12110 10668 10675 12116 12109 12112 12119 10679 12120 11950 12121 12122 
1462 1463 1688 1687 1487 1488 1713 1712 10513 11953 11954 11946 10684 12124 12125 12117 10675 10682 12123 12116 12119 12126 10686 12127 11957 12128 12129 
1463 1464 1689 1688 1488 1489 1714 1713 10520 11960 11961 11953 10691 12131 12132 12124 10682 10689 12130 12123 12126 12133 10693 12134 11964 12135 12136 
1464 1465 1690 1689 1489 1490 1715 1714 10527 11967 11968 11960 10698 12138 12139 12131 10689 10696 12137 12130 12133 12140 10700 12141 11971 12142 12143 
1465 1466 1691 1690 1490 1491 1716 1715 10534 11974 11975 11967 10705 12145 12146 12138 10696 10703 12144 12137 12140 12147 10707 12148 11978 12149 12150 
1466 1467 1692 1691 1491 1492 1717 1716 10541 11981 11982 11974 10712 12152 12153 12145 10703 10710 12151 12144 12147 12154 10714 12155 11985 12156 12157 
1467 1468 1693 1692 1492 1493 1718 1717 10548 11988 11989 11981 10719 12159 12160 12152 10710 10717 12158 12151 12154 12161 10721 12162 11992 12163 12164 
1468 1469 1694 1693 1493 1494 1719 1718 10555 11995 11996 11988 10726 12166 12167 12159 10717 10724 12165 12158 12161 12168 10728 12169 11999 12170 12171 
1469 1470 1695 1694 1494 1495 1720 1719 10562 12002 12003 11995 10733 12173 12174 12166 10724 10731 12172 12165 12168 12175 10735 12176 12006 12177 12178 
1470 1471 1696 1695 1495 1496 1721 1720 10569 12009 12010 12002 10740 12180 12181 12173 10731 10738 12179 12172 12175 12182 10742 12183 12013 12184 12185 
1471 1472 1697 1696 1496 1497 1722 1721 10576 12016 12017 12009 10747 12187 12188 12180 10738 10745 12186 12179 12182 12189 10749 12190 12020 12191 12192 
1472 1473 1698 1697 1497 1498 1723 1722 10583 12023 12024 12016 10754 12194 12195 12187 10745 10752 12193 12186 12189 12196 10756 12197 12027 12198 12199 
1473 1474 1699 1698 1498 1499 1724 1723 10590 12030 12031 12023 10761 12201 12202 12194 10752 10759 12200 12193 12196 12203 10763 12204 12034 12205 12206 
1475 1476 1701 1700 1500 1501 1726 1725 10598 12038 12039 12040 10769 12209 12210 12211 10767 10766 12207 12208 12214 12212 10772 12213 12044 12215 12216 
1476 1477 1702 1701 1501 1502 1727 1726 10607 12047 12048 12038 10778 12218 12219 12209 10766 10776 12217 12207 12212 12220 10780 12221 12051 12222 12223 
1477 1478 1703 1702 1502 1503 1728 1727 10614 12054 12055 12047 10785 12225 12226 12218 10776 10783 12224 12217 12220 12227 10787 12228 12058 12229 12230 
1478 1479 1704 1703 1503 1504 1729 1728 10621 12061 12062 12054 10792 12232 12233 12225 10783 10790 12231 12224 12227 12234 10794 12235 12065 12236 12237 
1479 1480 1705 1704 1504 1505 1730 1729 10628 12068 12069 12061 10799 12239 12240 12232 10790 10797 12238 12231 12234 12241 10801 12242 12072 12243 12244 
1480 1481 1706 1705 1505 1506 1731 1730 10635 12075 12076 12068 10806 12246 12247 12239 10797 10804 12245 12238 12241 12248 10808 12249 12079 12250 12251 
1481 1482 1707 1706 1506 1507 1732 1731 10642 12082 12083 12075 10813 12253 12254 12246 10804 10811 12252 12245 12248 12255 10815 12256 12086 12257 12258 
1482 1483 1708 1707 1507 1508 1733 1732 10649 12089 12090 12082 10820 12260 12261 12253 10811 10818 12259 12252 12255 12262 10822 12263 12093 12264 12265 
1483 1484 1709 1708 1508 1509 1734 1733 10656 12096 12097 12089 10827 12267 12268 12260 10818 10825 12266 12259 12262 12269 10829 12270 12100 12271 12272 
1484 1485 1710 1709 1509 1510 1735 1734 10663 12103 12104 12096 10834 12274 12275 12267 10825 10832 12273 12266 12269 12276 10836 12277 12107 12278 12279 
1485 1486 1711 1710 1510 1511 1736 1735 10670 12110 12111 12103 10841 12281 12282 12274 10832 10839 12280 12273 12276 12283 10843 12284 12114 12285 12286 
1486 1487 1712 1711 1511 1512 1737 1736 10677 12117 12118 12110 10848 12288 12289 12281 10839 10846 12287 12280 12283 12290 10850 12291 12121 12292 12293 
1487 1488 1713 1712 1512 1513 1738 1737 10684 12124 12125 12117 10855 12295 12296 12288 10846 10853 12294 12287 12290 12297 10857 12298 12128 12299 12300 
1488 1489 1714 1713 1513 1514 1739 1738 10691 12131 12132 12124 10862 12302 12303 12295 10853 10860 12301 12294 12297 12304 10864 12305 12135 12306 12307 
1489 1490 1715 1714 1514 1515 1740 1739 10698 12138 12139 12131 10869 12309 12310 12302 10860 10867 12308 12301 12304 12311 10871 12312 12142 12313 12314 
1490 1491 1716 1715 1515 1516 1741 1740 10705 12145 12146 12138 10876 12316 12317 12309 10867 10874 12315 12308 12311 12318 10878 12319 12149 12320 12321 
1491 1492 1717 1716 1516 1517 1742 1741 10712 12152 12153 12145 10883 12323 12324 12316 10874 10881 12322 12315 12318 12325 10885 12326 12156 12327 12328 
1492 1493 1718 1717 1517 1518 1743 1742 10719 12159 12160 12152 10890 12330 12331 12323 10881 10888 12329 12322 12325 12332 10892 12333 12163 12334 12335 
1493 1494 1719 1718 1518 1519 1744 1743 10726 12166 12167 12159 10897 12337 12338 12330 10888 10895 12336 12329 12332 12339 10899 12340 12170 12341 12342 
1494 1495 1720 1719 1519 1520 1745 1744 10733 12173 12174 12166 10904 12344 12345 12337 10895 10902 12343 12336 12339 12346 10906 12347 12177 12348 12349 
1495 1496 1721 1720 1520 1521 1746 1745 10740 12180 12181 12173 10911 12351 12352 12344 10902 10909 12350 12343 12346 12353 10913 12354 12184 12355 12356 
1496 1497 1722 1721 1521 1522 1747 1746 10747 12187 12188 12180 10918 12358 12359 12351 10909 10916 12357 12350 12353 12360 10920 12361 12191 12362 12363 
1497 1498 1723 1722 1522 1523 1748 1747 10754 12194 12195 12187 10925 12365 12366 12358 10916 10923 12364 12357 12360 12367 10927 12368 12198 12369 12370 
1498 1499 1724 1723 1523 1524 1749 1748 10761 12201 12202 12194 10932 12372 12373 12365 10923 10930 12371 12364 12367 12374 10934 12375 12205 12376 12377 
1500 1501 1726 1725 1525 1526 1751 1750 10769 12209 12210 12211 10940 12380 12381 12382 10938 10937 12378 12379 12385 12383 10943 12384 12215 12386 12387 
1501 1502 1727 1726 1526 1527 1752 1751 10778 12218 12219 12209 10949 12389 12390 12380 10937 10947 12388 12378 12383 12391 10951 12392 12222 12393 12394 
1502 1503 1728 1727 1527 1528 1753 1752 10785 12225 12226 12218 10956 12396 12397 12389 10947 10954 12395 12388 12391 12398 10958 12399 12229 12400 12401 
1503 1504 1729 1728 1528 1529 1754 1753 10792 12232 12233 12225 10963 12403 12404 12396 10954 10961 12402 12395 12398 12405 10965 12406 12236 12407 12408 
1504 1505 1730 1729 1529 1530 1755 1754 10799 12239 12240 12232 10970 12410 12411 12403 10961 10968 12409 12402 12405 12412 10972 12413 12243 12414 12415 
1505 1506 1731 1730 1530 1531 1756 1755 10806 12246 12247 12239 10977 12417 12418 12410 10968 10975 12416 12409 12412 12419 10979 12420 12250 12421 12422 
1506 1507 1732 1731 1531 1532 1757 1756 10813 12253 12254 12246 10984 12424 12425 12417 10975 10982 12423 12416 12419 12426 10986 12427 12257 12428 12429 
1507 1508 1733 1732 1532 1533 1758 1757 10820 12260 12261 12253 10991 12431 12432 12424 10982 10989 12430 12423 12426 12433 10993 12434 12264 12435 12436 
1508 1509 1734 1733 1533 1534 1759 1758 10827 12267 12268 12260 10998 12438 12439 12431 10989 10996 12437 12430 12433 12440 11000 12441 12271 12442 12443 
1509 1510 1735 1734 1534 1535 1760 1759 10834 12274 12275 12267 11005 12445 12446 12438 10996 11003 12444 12437 12440 12447 11007 12448 12278 12449 12450 
1510 1511 1736 1735 1535 1536 1761 1760 10841 12281 12282 12274 11012 12452 12453 12445 11003 11010 12451 12444 12447 12454 11014 12455 12285 12456 12457 
1511 1512 1737 1736 1536 1537 1762 1761 10848 12288 12289 12281 11019 12459 12460 12452 11010 11017 12458 12451 12454 12461 11021 12462 12292 12463 12464 
1512 1513 1738 1737 1537 1538 1763 1762 10855 12295 12296 12288 11026 12466 12467 12459 11017 11024 12465 12458 12461 12468 11028 12469 12299 12470 12471 
1513 1514 1739 1738 1538 1539 1764 1763 10862 12302 12303 12295 11033 12473 12474 12466 11024 11031 12472 12465 12468 12475 11035 12476 12306 12477 12478 
1514 1515 1740 1739 1539 1540 1765 1764 10869 12309 12310 12302 11040 12480 12481 12473 11031 11038 12479 12472 12475 12482 11042 12483 12313 12484 12485 
1515 1516 1741 1740 1540 1541 1766 1765 10876 12316 12317 12309 11047 12487 12488 12480 11038 11045 12486 12479 12482 12489 11049 12490 12320 12491 12492 
1516 1517 1742 1741 1541 1542 1767 1766 10883 12323 12324 12316 11054 12494 12495 12487 11045 11052 12493 12486 12489 12496 11056 12497 12327 12498 12499 
1517 1518 1743 1742 1542 1543 1768 1767 10890 12330 12331 12323 11061 12501 12502 12494 11052 11059 12500 12493 12496 12503 11063 12504 12334 12505 12506 
1518 1519 1744 1743 1543 1544 1769 1768 10897 12337 12338 12330 11068 12508 12509 12501 11059 11066 12507 12500 12503 12510 11070 12511 12341 12512 12513 
1519 1520 1745 1744 1544 1545 1770 1769 10904 12344 12345 12337 11075 12515 12516 12508 11066 11073 12514 12507 12510 12517 11077 12518 12348 12519 12520 
1520 1521 1746 1745 1545 1546 1771 1770 10911 12351 12352 12344 11082 12522 12523 12515 11073 11080 12521 12514 12517 12524 11084 12525 12355 12526 12527 
1521 1522 1747 1746 1546 1547 1772 1771 10918 12358 12359 12351 11089 12529 12530 12522 11080 11087 12528 12521 12524 12531 11091 12532 12362 12533 12534 
1522 1523 1748 1747 1547 1548 1773 1772 10925 12365 12366 12358 11096 12536 12537 12529 11087 11094 12535 12528 12531 12538 11098 12539 12369 12540 12541 
1523 1524 1749 1748 1548 1549 1774 1773 10932 12372 12373 12365 11103 12543 12544 12536 11094 11101 12542 12535 12538 12545 11105 12546 12376 12547 12548 
1525 1526 1751 1750 1550 1551 1776 1775 10940 12380 12381 12382 11111 12551 12552 12553 11109 11108 12549 12550 12556 12554 11114 12555 12386 12557 12558 
1526 1527 1752 1751 1551 1552 1777 1776 10949 12389 12390 12380 11120 12560 12561 12551 11108 11118 12559 12549 12554 12562 11122 12563 12393 12564 12565 
1527 1528 1753 1752 1552 1553 1778 1777 10956 12396 12397 12389 11127 12567 12568 12560 11118 11125 12566 12559 12562 12569 11129 12570 12400 12571 12572 
1528 1529 1754 1753 1553 1554 1779 1778 10963 12403 12404 12396 11134 12574 12575 12567 11125 11132 12573 12566 12569 12576 11136 12577 12407 12578 12579 
1529 1530 1755 1754 1554 1555 1780 1779 10970 12410 12411 12403 11141 12581 12582 12574 11132 11139 12580 12573 12576 12583 11143 12584 12414 12585 12586 
1530 1531 1756 1755 1555 1556 1781 1780 10977 12417 12418 12410 11148 12588 12589 12581 11139 11146 12587 12580 12583 12590 11150 12591 12421 12592 12593 
1531 1532 1757 1756 1556 1557 1782 1781 10984 12424 12425 12417 11155 12595 12596 12588 11146 11153 12594 12587 12590 12597 11157 12598 12428 12599 12600 
1532 1533 1758 1757 1557 1558 1783 1782 10991 12431 12432 12424 11162 12602 12603 12595 11153 11160 12601 12594 12597 12604 11164 12605 12435 12606 12607 
1533 1534 1759 1758 1558 1559 1784 1783 10998 12438 12439 12431 11169 12609 12610 12602 11160 11167 12608 12601 12604 12611 11171 12612 12442 12613 12614 
1534 1535 1760 1759 1559 1560 1785 1784 11005 12445 12446 12438 11176 12616 12617 12609 11167 11174 12615 12608 12611 12618 11178 12619 12449 12620 12621 
1535 1536 1761 1760 1560 1561 1786 1785 11012 12452 12453 12445 11183 12623 12624 12616 11174 11181 12622 12615 12618 12625 11185 12626 12456 12627 12628 
1536 1537 1762 1761 1561 1562 1787 1786 11019 12459 12460 12452 11190 12630 12631 12623 11181 11188 12629 12622 12625 12632 11192 12633 12463 12634 12635 
1537 1538 1763 1762 1562 1563 1788 1787 11026 12466 12467 12459 11197 12637 12638 12630 11188 11195 12636 12629 12632 12639 11199 12640 12470 12641 12642 
1538 1539 1764 1763 1563 1564 1789 1788 11033 12473 12474 12466 11204 12644 12645 12637 11195 11202 12643 12636 12639 12646 11206 12647 12477 12648 12649 
1539 1540 1765 1764 1564 1565 1790 1789 11040 12480 12481 12473 11211 12651 12652 12644 11202 11209 12650 12643 12646 12653 11213 12654 12484 12655 12656 
1540 1541 1766 1765 1565 1566 1791 1790 11047 12487 12488 12480 11218 12658 12659 12651 11209 11216 12657 12650 12653 12660 11220 12661 12491 12662 12663 
1541 1542 1767 1766 1566 1567 1792 1791 11054 12494 12495 12487 11225 12665 12666 12658 11216 11223 12664 12657 12660 12667 11227 12668 12498 12669 12670 
1542 1543 1768 1767 1567 1568 1793 1792 11061 12501 12502 12494 11232 12672 12673 12665 11223 11230 12671 12664 12667 12674 11234 12675 12505 12676 12677 
1543 1544 1769 1768 1568 1569 1794 1793 11068 12508 12509 12501 11239 12679 12680 12672 11230 11237 12678 12671 12674 12681 11241 12682 12512 12683 12684 
1544 1545 1770 1769 1569 1570 1795 1794 11075 12515 12516 12508 11246 12686 12687 12679 11237 11244 12685 12678 12681 12688 11248 12689 12519 12690 12691 
1545 1546 1771 1770 1570 1571 1796 1795 11082 12522 12523 12515 11253 12693 12694 12686 11244 11251 12692 12685 12688 12695 11255 12696 12526 12697 12698 
1546 1547 1772 1771 1571 1572 1797 1796 11089 12529 12530 12522 11260 12700 12701 12693 11251 11258 12699 12692 12695 12702 11262 12703 12533 12704 12705 
1547 1548 1773 1772 1572 1573 1798 1797 11096 12536 12537 12529 11267 12707 12708 12700 11258 11265 12706 12699 12702 12709 11269 12710 12540 12711 12712 
1548 1549 1774 1773 1573 1574 1799 1798 11103 12543 12544 12536 11274 12714 12715 12707 11265 11272 12713 12706 12709 12716 11276 12717 12547 12718 12719 
1575 1576 1801 1800 1600 1601 1826 1825 11280 12720 12721 12722 11285 12725 12726 12727 11283 11282 12723 12724 12731 12729 11289 12730 12728 12732 12733 
1576 1577 1802 1801 1601 1602 1827 1826 11294 12734 12735 12720 11297 12737 12738 12725 11282 11295 12736 12723 12729 12740 11300 12741 12739 12742 12743 
1577 1578 1803 1802 1602 1603 1828 1827 11304 12744 12745 12734 11307 12747 12748 12737 11295 11305 12746 12736 12740 12750 11310 12751 12749 12752 12753 
1578 1579 1804 1803 1603 1604 1829 1828 11314 12754 12755 12744 11317 12757 12758 12747 11305 11315 12756 12746 12750 12760 11320 12761 12759 12762 12763 
1579 1580 1805 1804 1604 1605 1830 1829 11324 12764 12765 12754 11327 12767 12768 12757 11315 11325 12766 12756 12760 12770 11330 12771 12769 12772 12773 
1580 1581 1806 1805 1605 1606 1831 1830 11334 12774 12775 12764 11337 12777 12778 12767 11325 11335 12776 12766 12770 12780 11340 12781 12779 12782 12783 
1581 1582 1807 1806 1606 1607 1832 1831 11344 12784 12785 12774 11347 12787 12788 12777 11335 11345 12786 12776 12780 12790 11350 12791 12789 12792 12793 
1582 1583 1808 1807 1607 1608 1833 1832 11354 12794 12795 12784 11357 12797 12798 12787 11345 11355 12796 12786 12790 12800 11360 12801 12799 12802 12803 
1583 1584 1809 1808 1608 1609 1834 1833 11364 12804 12805 12794 11367 12807 12808 12797 11355 11365 12806 12796 12800 12810 11370 12811 12809 12812 12813 
1584 1585 1810 1809 1609 1610 1835 1834 11374 12814 12815 12804 11377 12817 12818 12807 11365 11375 12816 12806 12810 12820 11380 12821 12819 12822 12823 
1585 1586 1811 1810 1610 1611 1836 1835 11384 12824 12825 12814 11387 12827 12828 12817 11375 11385 12826 12816 12820 12830 11390 12831 12829 12832 12833 
1586 1587 1812 1811 1611 1612 1837 1836 11394 12834 12835 12824 11397 12837 12838 12827 11385 11395 12836 12826 12830 12840 11400 12841 12839 12842 12843 
1587 1588 1813 1812 1612 1613 1838 1837 11404 12844 12845 12834 11407 12847 12848 12837 11395 11405 12846 12836 12840 12850 11410 12851 12849 12852 12853 
1588 1589 1814 1813 1613 1614 1839 1838 11414 12854 12855 12844 11417 12857 12858 12847 11405 11415 12856 12846 12850 12860 11420 12861 12859 12862 12863 
1589 1590 1815 1814 1614 1615 1840 1839 11424 12864 12865 12854 11427 12867 12868 12857 11415 11425 12866 12856 12860 12870 11430 12871 12869 12872 12873 
1590 1591 1816 1815 1615 1616 1841 1840 11434 12874 12875 12864 11437 12877 12878 12867 11425 11435 12876 12866 12870 12880 11440 12881 12879 12882 12883 
1591 1592 1817 1816 1616 1617 1842 1841 11444 12884 12885 12874 11447 12887 12888 12877 11435 11445 12886 12876 12880 12890 11450 12891 12889 12892 12893 
1592 1593 1818 1817 1617 1618 1843 1842 11454 12894 12895 12884 11457 12897 12898 12887 11445 11455 12896 12886 12890 12900 11460 12901 12899 12902 12903 
1593 1594 1819 1818 1618 1619 1844 1843 11464 12904 12905 12894 11467 12907 12908 12897 11455 11465 12906 12896 12900 12910 11470 12911 12909 12912 12913 
1594 1595 1820 1819 1619 1620 1845 1844 11474 12914 12915 12904 11477 12917 12918 12907 11465 11475 12916 12906 12910 12920 11480 12921 12919 12922 12923 
1595 1596 1821 1820 1620 1621 1846 1845 11484 12924 12925 12914 11487 12927 12928 12917 11475 11485 12926 12916 12920 12930 11490 12931 12929 12932 12933 
1596 1597 1822 1821 1621 1622 1847 1846 11494 12934 12935 12924 11497 12937 12938 12927 11485 11495 12936 12926 12930 12940 11500 12941 12939 12942 12943 
1597 1598 1823 1822 1622 1623 1848 1847 11504 12944 12945 12934 11507 12947 12948 12937 11495 11505 12946 12936 12940 12950 11510 12951 12949 12952 12953 
1598 1599 1824 1823 1623 1624 1849 1848 11514 12954 12955 12944 11517 12957 12958 12947 11505 11515 12956 12946 12950 12960 11520 12961 12959 12962 12963 
1600 1601 1826 1825 1625 1626 1851 1850 11285 12725 12726 12727 11526 12966 12967 12968 11524 11523 12964 12965 12971 12969 11529 12970 12732 12972 12973 
1601 1602 1827 1826 1626 1627 1852 1851 11297 12737 12738 12725 11535 12975 12976 12966 11523 11533 12974 12964 12969 12977 11537 12978 12742 12979 12980 
1602 1603 1828 1827 1627 1628 1853 1852 11307 12747 12748 12737 11542 12982 12983 12975 11533 11540 12981 12974 12977 12984 11544 12985 12752 12986 12987 
1603 1604 1829 1828 1628 1629 1854 1853 11317 12757 12758 12747 11549 12989 12990 12982 11540 11547 12988 12981 12984 12991 11551 12992 12762 12993 12994 
1604 1605 1830 1829 1629 1630 1855 1854 11327 12767 12768 12757 11556 12996 12997 12989 11547 11554 12995 12988 12991 12998 11558 12999 12772 13000 13001 
1605 1606 1831 1830 1630 1631 1856 1855 11337 12777 12778 12767 11563 13003 13004 12996 11554 11561 13002 12995 12998 13005 11565 13006 12782 13007 13008 
1606 1607 1832 1831 1631 1632 1857 1856 11347 12787 12788 12777 11570 13010 13011 13003 11561 11568 13009 13002 13005 13012 11572 13013 12792 13014 13015 
1607 1608 1833 1832 1632 1633 1858 1857 11357 12797 12798 12787 11577 13017 13018 13010 11568 11575 13016 13009 13012 13019 11579 13020 12802 13021 13022 
1608 1609 1834 1833 1633 1634 1859 1858 11367 12807 12808 12797 11584 13024 13025 13017 11575 11582 13023 13016 13019 13026 11586 13027 12812 13028 13029 
1609 1610 1835 1834 1634 1635 1860 1859 11377 12817 12818 12807 11591 13031 13032 13024 11582 11589 13030 13023 13026 13033 11593 13034 12822 13035 13036 
1610 1611 1836 1835 1635 1636 1861 1860 11387 12827 12828 12817 11598 13038 13039 13031 11589 11596 13037 13030 13033 13040 11600 13041 12832 13042 13043 
1611 1612 1837 1836 1636 1637 1862 1861 11397 12837 12838 12827 11605 13045 13046 13038 11596 11603 13044 13037 13040 13047 11607 13048 12842 13049 13050 
1612 1613 1838 1837 1637 1638 1863 1862 11407 12847 12848 12837 11612 13052 13053 13045 11603 11610 13051 13044 13047 13054 11614 13055 12852 13056 13057 
1613 1614 1839 1838 1638 1639 1864 1863 11417 12857 12858 12847 11619 13059 13060 13052 11610 11617 13058 13051 13054 13061 11621 13062 12862 13063 13064 
1614 1615 1840 1839 1639 1640 1865 1864 11427 12867 12868 12857 11626 13066 13067 13059 11617 11624 13065 13058 13061 13068 11628 13069 12872 13070 13071 
1615 1616 1841 1840 1640 1641 1866 1865 11437 12877 12878 12867 11633 13073 13074 13066 11624 11631 13072 13065 13068 13075 11635 13076 12882 13077 13078 
1616 1617 1842 1841 1641 1642 1867 1866 11447 12887 12888 12877 11640 13080 13081 13073 11631 11638 13079 13072 13075 13082 11642 13083 12892 13084 13085 
1617 1618 1843 1842 1642 1643 1868 1867 11457 12897 12898 12887 11647 13087 13088 13080 11638 11645 13086 13079 13082 13089 11649 13090 12902 13091 13092 
1618 1619 1844 1843 1643 1644 1869 1868 11467 12907 12908 12897 11654 13094 13095 13087 11645 11652 13093 13086 13089 13096 11656 13097 12912 13098 13099 
1619 1620 1845 1844 1644 1645 1870 1869 11477 12917 12918 12907 11661 13101 13102 13094 11652 11659 13100 13093 13096 13103 11663 13104 12922 13105 13106 
1620 1621 1846 1845 1645 1646 1871 1870 11487 12927 12928 12917 11668 13108 13109 13101 11659 11666 13107 13100 13103 13110 11670 13111 12932 13112 13113 
1621 1622 1847 1846 1646 1647 1872 1871 11497 12937 12938 12927 11675 13115 13116 13108 11666 11673 13114 13107 13110 13117 11677 13118 12942 13119 13120 
1622 1623 1848 1847 1647 1648 1873 1872 11507 12947 12948 12937 11682 13122 13123 13115 11673 11680 13121 13114 13117 13124 11684 13125 12952 13126 13127 
1623 1624 1849 1848 1648 1649 1874 1873 11517 12957 12958 12947 11689 13129 13130 13122 11680 11687 13128 13121 13124 13131 11691 13132 12962 13133 13134 
1625 1626 1851 1850 1650 1651 1876 1875 11526 12966 12967 12968 11697 13137 13138 13139 11695 11694 13135 13136 13142 13140 11700 13141 12972 13143 13144 
1626 1627 1852 1851 1651 1652 1877 1876 11535 12975 12976 12966 11706 13146 13147 13137 11694 11704 13145 13135 13140 13148 11708 13149 12979 13150 13151 
1627 1628 1853 1852 1652 1653 1878 1877 11542 12982 12983 12975 11713 13153 13154 13146 11704 11711 13152 13145 13148 13155 11715 13156 12986 13157 13158 
1628 1629 1854 1853 1653 1654 1879 1878 11549 12989 12990 12982 11720 13160 13161 13153 11711 11718 13159 13152 13155 13162 11722 13163 12993 13164 13165 
1629 1630 1855 1854 1654 1655 1880 1879 11556 12996 12997 12989 11727 13167 13168 13160 11718 11725 13166 13159 13162 13169 11729 13170 13000 13171 13172 
1630 1631 1856 1855 1655 1656 1881 1880 11563 13003 13004 12996 11734 13174 13175 13167 11725 11732 13173 13166 13169 13176 11736 13177 13007 13178 13179 
1631 1632 1857 1856 1656 1657 1882 1881 11570 13010 13011 13003 11741 13181 13182 13174 11732 11739 13180 13173 13176 13183 11743 13184 13014 13185 13186 
1632 1633 1858 1857 1657 1658 1883 1882 11577 13017 13018 13010 11748 13188 13189 13181 11739 11746 13187 13180 13183 13190 11750 13191 13021 13192 13193 
1633 1634 1859 1858 1658 1659 1884 1883 11584 13024 13025 13017 11755 13195 13196 13188 11746 11753 13194 13187 13190 13197 11757 13198 13028 13199 13200 
1634 1635 1860 1859 1659 1660 1885 1884 11591 13031 13032 13024 11762 13202 13203 13195 11753 11760 13201 13194 13197 13204 11764 13205 13035 13206 13207 
1635 1636 1861 1860 1660 1661 1886 1885 11598 13038 13039 13031 11769 13209 13210 13202 11760 11767 13208 13201 13204 13211 11771 13212 13042 13213 13214 
1636 1637 1862 1861 1661 1662 1887 1886 11605 13045 13046 13038 11776 13216 13217 13209 11767 11774 13215 13208 13211 13218 11778 13219 13049 13220 13221 
1637 1638 1863 1862 1662 1663 1888 1887 11612 13052 13053 13045 11783 13223 13224 13216 11774 11781 13222 13215 13218 13225 11785 13226 13056 13227 13228 
1638 1639 1864 1863 1663 1664 1889 1888 11619 13059 13060 13052 11790 13230 13231 13223 11781 11788 13229 13222 13225 13232 11792 13233 13063 13234 13235 
1639 1640 1865 1864 1664 1665 1890 1889 11626 13066 13067 13059 11797 13237 13238 13230 11788 11795 13236 13229 13232 13239 11799 13240 13070 13241 13242 
1640 1641 1866 1865 1665 1666 1891 1890 11633 13073 13074 13066 11804 13244 13245 13237 11795 11802 13243 13236 13239 13246 11806 13247 13077 13248 13249 
1641 1642 1867 1866 1666 1667 1892 1891 11640 13080 13081 13073 11811 13251 13252 13244 11802 11809 13250 13243 13246 13253 11813 13254 13084 13255 13256 
1642 1643 1868 1867 1667 1668 1893 1892 11647 13087 13088 13080 11818 13258 13259 13251 11809 11816 13257 13250 13253 13260 11820 13261 13091 13262 13263 
1643 1644 1869 1868 1668 1669 1894 1893 11654 13094 13095 13087 11825 13265 13266 13258 11816 11823 13264 13257 13260 13267 11827 13268 13098 13269 13270 
1644 1645 1870 1869 1669 1670 1895 1894 11661 13101 13102 13094 11832 13272 13273 13265 11823 11830 13271 13264 13267 13274 11834 13275 13105 13276 13277 
1645 1646 1871 1870 1670 1671 1896 1895 11668 13108 13109 13101 11839 13279 13280 13272 11830 11837 13278 13271 13274 13281 11841 13282 13112 13283 13284 
1646 1647 1872 1871 1671 1672 1897 1896 11675 13115 13116 13108 11846 13286 13287 13279 11837 11844 13285 13278 13281 13288 11848 13289 13119 13290 13291 
1647 1648 1873 1872 1672 1673 1898 1897 11682 13122 13123 13115 11853 13293 13294 13286 11844 11851 13292 13285 13288 13295 11855 13296 13126 13297 13298 
1648 1649 1874 1873 1673 1674 1899 1898 11689 13129 13130 13122 11860 13300 13301 13293 11851 11858 13299 13292 13295 13302 11862 13303 13133 13304 13305 
1650 1651 1876 1875 1675 1676 1901 1900 11697 13137 13138 13139 11868 13308 13309 13310 11866 11865 13306 13307 13313 13311 11871 13312 13143 13314 13315 
1651 1652 1877 1876 1676 1677 1902 1901 11706 13146 13147 13137 11877 13317 13318 13308 11865 11875 13316 13306 13311 13319 11879 13320 13150 13321 13322 
1652 1653 1878 1877 1677 1678 1903 1902 11713 13153 13154 13146 11884 13324 13325 13317 11875 11882 13323 13316 13319 13326 11886 13327 13157 13328 13329 
1653 1654 1879 1878 1678 1679 1904 1903 11720 13160 13161 13153 11891 13331 13332 13324 11882 11889 13330 13323 13326 13333 11893 13334 13164 13335 13336 
1654 1655 1880 1879 1679 1680 1905 1904 11727 13167 13168 13160 11898 13338 13339 13331 11889 11896 13337 13330 13333 13340 11900 13341 13171 13342 13343 
1655 1656 1881 1880 1680 1681 1906 1905 11734 13174 13175 13167 11905 13345 13346 13338 11896 11903 13344 13337 13340 13347 11907 13348 13178 13349 13350 
1656 1657 1882 1881 1681 1682 1907 1906 11741 13181 13182 13174 11912 13352 13353 13345 11903 11910 13351 13344 13347 13354 11914 13355 13185 13356 13357 
1657 1658 1883 1882 1682 1683 1908 1907 11748 13188 13189 13181 11919 13359 13360 13352 11910 11917 13358 13351 13354 13361 11921 13362 13192 13363 13364 
1658 1659 1884 1883 1683 1684 1909 1908 11755 13195 13196 13188 11926 13366 13367 13359 11917 11924 13365 13358 13361 13368 11928 13369 13199 13370 13371 
1659 1660 1885 1884 1684 1685 1910 1909 11762 13202 13203 13195 11933 13373 13374 13366 11924 11931 13372 13365 13368 13375 11935 13376 13206 13377 13378 
1660 1661 1886 1885 1685 1686 1911 1910 11769 13209 13210 13202 11940 13380 13381 13373 11931 11938 13379 13372 13375 13382 11942 13383 13213 13384 13385 
1661 1662 1887 1886 1686 1687 1912 1911 11776 13216 13217 13209 11947 13387 13388 13380 11938 11945 13386 13379 13382 13389 11949 13390 13220 13391 13392 
1662 1663 1888 1887 1687 1688 1913 1912 11783 13223 13224 13216 11954 13394 13395 13387 11945 11952 13393 13386 13389 13396 11956 13397 13227 13398 13399 
1663 1664 1889 1888 1688 1689 1914 1913 11790 13230 13231 13223 11961 13401 13402 13394 11952 11959 13400 13393 13396 13403 11963 13404 13234 13405 13406 
1664 1665 1890 1889 1689 1690 1915 1914 11797 13237 13238 13230 11968 13408 13409 13401 11959 11966 13407 13400 13403 13410 11970 13411 13241 13412 13413 
1665 1666 1891 1890 1690 1691 1916 1915 11804 13244 13245 13237 11975 13415 13416 13408 11966 11973 13414 13407 13410 13417 11977 13418 13248 13419 13420 
1666 1667 1892 1891 1691 1692 1917 1916 11811 13251 13252 13244 11982 13422 13423 13415 11973 11980 13421 13414 13417 13424 11984 13425 13255 13426 13427 
1667 1668 1893 1892 1692 1693 1918 1917 11818 13258 13259 13251 11989 13429 13430 13422 11980 11987 13428 13421 13424 13431 11991 13432 13262 13433 13434 
1668 1669 1894 1893 1693 1694 1919 1918 11825 13265 13266 13258 11996 13436 13437 13429 11987 11994 13435 13428 13431 13438 11998 13439 13269 13440 13441 
1669 1670 1895 1894 1694 1695 1920 1919 11832 13272 13273 13265 12003 13443 13444 13436 11994 12001 13442 13435 13438 13445 12005 13446 13276 13447 13448 
1670 1671 1896 1895 1695 1696 1921 1920 11839 13279 13280 13272 12010 13450 13451 13443 12001 12008 13449 13442 13445 13452 12012 13453 13283 13454 13455 
1671 1672 1897 1896 1696 1697 1922 1921 11846 13286 13287 13279 12017 13457 13458 13450 12008 12015 13456 13449 13452 13459 12019 13460 13290 13461 13462 
1672 1673 1898 1897 1697 1698 1923 1922 11853 13293 13294 13286 12024 13464 13465 13457 12015 12022 13463 13456 13459 13466 12026 13467 13297 13468 13469 
1673 1674 1899 1898 1698 1699 1924 1923 11860 13300 13301 13293 12031 13471 13472 13464 12022 12029 13470 13463 13466 13473 12033 13474 13304 13475 13476 
1675 1676 1901 1900 1700 1701 1926 1925 11868 13308 13309 13310 12039 13479 13480 13481 12037 12036 13477 13478 13484 13482 12042 13483 13314 13485 13486 
1676 1677 1902 1901 1701 1702 1927 1926 11877 13317 13318 13308 12048 13488 13489 13479 12036 12046 13487 13477 13482 13490 12050 13491 13321 13492 13493 
1677 1678 1903 1902 1702 1703 1928 1927 11884 13324 13325 13317 12055 13495 13496 13488 12046 12053 13494 13487 13490 13497 12057 13498 13328 13499 13500 
1678 1679 1904 1903 1703 1704 1929 1928 11891 13331 13332 13324 12062 13502 13503 13495 12053 12060 13501 13494 13497 13504 12064 13505 13335 13506 13507 
1679 1680 1905 1904 1704 1705 1930 1929 11898 13338 13339 13331 12069 13509 13510 13502 12060 12067 13508 13501 13504 13511 12071 13512 13342 13513 13514 
1680 1681 1906 1905 1705 1706 1931 1930 11905 13345 13346 13338 12076 13516 13517 13509 12067 12074 13515 13508 13511 13518 12078 13519 13349 13520 13521 
1681 1682 1907 1906 1706 1707 1932 1931 11912 13352 13353 13345 12083 13523 13524 13516 12074 12081 13522 13515 13518 13525 12085 13526 13356 13527 13528 
1682 1683 1908 1907 1707 1708 1933 1932 11919 13359 13360 13352 12090 13530 13531 13523 12081 12088 13529 13522 13525 13532 12092 13533 13363 13534 13535 
1683 1684 1909 1908 1708 1709 1934 1933 11926 13366 13367 13359 12097 13537 13538 13530 12088 12095 13536 13529 13532 13539 12099 13540 13370 13541 13542 
1684 1685 1910 1909 1709 1710 1935 1934 11933 13373 13374 13366 12104 13544 13545 13537 12095 12102 13543 13536 13539 13546 12106 13547 13377 13548 13549 
1685 1686 1911 1910 1710 1711 1936 1935 11940 13380 13381 13373 12111 13551 13552 13544 12102 12109 13550 13543 13546 13553 12113 13554 13384 13555 13556 
1686 1687 1912 1911 1711 1712 1937 1936 11947 13387 13388 13380 12118 13558 13559 13551 12109 12116 13557 13550 13553 13560 12120 13561 13391 13562 13563 
1687 1688 1913 1912 1712 1713 1938 1937 11954 13394 13395 13387 12125 13565 13566 13558 12116 12123 13564 13557 13560 13567 12127 13568 13398 13569 13570 
1688 1689 1914 1913 1713 1714 1939 1938 11961 13401 13402 13394 12132 13572 13573 13565 12123 12130 13571 13564 13567 13574 12134 13575 13405 13576 13577 
1689 1690 1915 1914 1714 1715 1940 1939 11968 13408 13409 13401 12139 13579 13580 13572 12130 12137 13578 13571 13574 13581 12141 13582 13412 13583 13584 
1690 1691 1916 1915 1715 1716 1941 1940 11975 13415 13416 13408 12146 13586 13587 13579 12137 12144 13585 13578 13581 13588 12148 13589 13419 13590 13591 
1691 1692 1917 1916 1716 1717 1942 1941 11982 13422 13423 13415 12153 13593 13594 13586 12144 12151 13592 13585 13588 13595 12155 13596 13426 13597 13598 
1692 1693 1918 1917 1717 1718 1943 1942 11989 13429 13430 13422 12160 13600 13601 13593 12151 12158 13599 13592 13595 13602 12162 13603 13433 13604 13605 
1693 1694 1919 1918 1718 1719 1944 1943 11996 13436 13437 13429 12167 13607 13608 13600 12158 12165 13606 13599 13602 13609 12169 13610 13440 13611 13612 
1694 1695 1920 1919 1719 1720 1945 1944 12003 13443 13444 13436 12174 13614 13615 13607 12165 12172 13613 13606 13609 13616 12176 13617 13447 13618 13619 
1695 1696 1921 1920 1720 1721 1946 1945 12010 13450 13451 13443 12181 13621 13622 13614 12172 12179 13620 13613 13616 13623 12183 13624 13454 13625 13626 
1696 1697 1922 1921 1721 1722 1947 1946 12017 13457 13458 13450 12188 13628 13629 13621 12179 12186 13627 13620 13623 13630 12190 13631 13461 13632 13633 
1697 1698 1923 1922 1722 1723 1948 1947 12024 13464 13465 13457 12195 13635 13636 13628 12186 12193 13634 13627 13630 13637 12197 13638 13468 13639 13640 
1698 1699 1924 1923 1723 1724 1949 1948 12031 13471 13472 13464 12202 13642 13643 13635 12193 12200 13641 13634 13637 13644 12204 13645 13475 13646 13647 
1700 1701 1926 1925 1725 1726 1951 1950 12039 13479 13480 13481 12210 13650 13651 13652 12208 12207 13648 13649 13655 13653 12213 13654 13485 13656 13657 
1701 1702 1927 1926 1726 1727 1952 1951 12048 13488 13489 13479 12219 13659 13660 13650 12207 12217 13658 13648 13653 13661 12221 13662 13492 13663 13664 
1702 1703 1928 1927 1727 1728 1953 1952 12055 13495 13496 13488 12226 13666 13667 13659 12217 12224 13665 13658 13661 13668 12228 13669 13499 13670 13671 
1703 1704 1929 1928 1728 1729 1954 1953 12062 13502 13503 13495 12233 13673 13674 13666 12224 12231 13672 13665 13668 13675 12235 13676 13506 13677 13678 
1704 1705 1930 1929 1729 1730 1955 1954 12069 13509 13510 13502 12240 13680 13681 13673 12231 12238 13679 13672 13675 13682 12242 13683 13513 13684 13685 
1705 1706 1931 1930 1730 1731 1956 1955 12076 13516 13517 13509 12247 13687 13688 13680 12238 12245 13686 13679 13682 13689 12249 13690 13520 13691 13692 
1706 1707 1932 1931 1731 1732 1957 1956 12083 13523 13524 13516 12254 13694 13695 13687 12245 12252 13693 13686 13689 13696 12256 13697 13527 13698 13699 
1707 1708 1933 1932 1732 1733 1958 1957 12090 13530 13531 13523 12261 13701 13702 13694 12252 12259 13700 13693 13696 13703 12263 13704 13534 13705 13706 
1708 1709 1934 1933 1733 1734 1959 1958 12097 13537 13538 13530 12268 13708 13709 13701 12259 12266 13707 13700 13703 13710 12270 13711 13541 13712 13713 
1709 1710 1935 1934 1734 1735 1960 1959 12104 13544 13545 13537 12275 13715 13716 13708 12266 12273 13714 13707 13710 13717 12277 13718 13548 13719 13720 
1710 1711 1936 1935 1735 1736 1961 1960 12111 13551 13552 13544 12282 13722 13723 13715 12273 12280 13721 13714 13717 13724 12284 13725 13555 13726 13727 
1711 1712 1937 1936 1736 1737 1962 1961 12118 13558 13559 13551 12289 13729 13730 13722 12280 12287 13728 13721 13724 13731 12291 13732 13562 13733 13734 
1712 1713 1938 1937 1737 1738 1963 1962 12125 13565 13566 13558 12296 13736 13737 13729 12287 12294 13735 13728 13731 13738 12298 13739 13569 13740 13741 
1713 1714 1939 1938 1738 1739 1964 1963 12132 13572 13573 13565 12303 13743 13744 13736 12294 12301 13742 13735 13738 13745 12305 13746 13576 13747 13748 
1714 1715 1940 1939 1739 1740 1965 1964 12139 13579 13580 13572 12310 13750 13751 13743 12301 12308 13749 13742 13745 13752 12312 13753 13583 13754 13755 
1715 1716 1941 1940 1740 1741 1966 1965 12146 13586 13587 13579 12317 13757 13758 13750 12308 12315 13756 13749 13752 13759 12319 13760 13590 13761 13762 
1716 1717 1942 1941 1741 1742 1967 1966 12153 13593 13594 13586 12324 13764 13765 13757 12315 12322 13763 13756 13759 13766 12326 13767 13597 13768 13769 
1717 1718 1943 1942 1742 1743 1968 1967 12160 13600 13601 13593 12331 13771 13772 13764 12322 12329 13770 13763 13766 13773 12333 13774 13604 13775 13776 
1718 1719 1944 1943 1743 1744 1969 1968 12167 13607 13608 13600 12338 13778 13779 13771 12329 12336 13777 13770 13773 13780 12340 13781 13611 13782 13783 
1719 1720 1945 1944 1744 1745 1970 1969 12174 13614 13615 13607 12345 13785 13786 13778 12336 12343 13784 13777 13780 13787 12347 13788 13618 13789 13790 
1720 1721 1946 1945 1745 1746 1971 1970 12181 13621 13622 13614 12352 13792 13793 13785 12343 12350 13791 13784 13787 13794 12354 13795 13625 13796 13797 
1721 1722 1947 1946 1746 1747 1972 1971 12188 13628 13629 13621 12359 13799 13800 13792 12350 12357 13798 13791 13794 13801 12361 13802 13632 13803 13804 
1722 1723 1948 1947 1747 1748 1973 1972 12195 13635 13636 13628 12366 13806 13807 13799 12357 12364 13805 13798 13801 13808 12368 13809 13639 13810 13811 
1723 1724 1949 1948 1748 1749 1974 1973 12202 13642 13643 13635 12373 13813 13814 13806 12364 12371 13812 13805 13808 13815 12375 13816 13646 13817 13818 
1725 1726 1951 1950 1750 1751 1976 1975 12210 13650 13651 13652 12381 13821 13822 13823 12379 12378 13819 13820 13826 13824 12384 13825 13656 13827 13828 
1726 1727 1952 1951 1751 1752 1977 1976 12219 13659 13660 13650 12390 13830 13831 13821 12378 12388 13829 13819 13824 13832 12392 13833 13663 13834 13835 
1727 1728 1953 1952 1752 1753 1978 1977 12226 13666 13667 13659 12397 13837 13838 13830 12388 12395 13836 13829 13832 13839 12399 13840 13670 13841 13842 
1728 1729 1954 1953 1753 1754 1979 1978 12233 13673 13674 13666 12404 13844 13845 13837 12395 12402 13843 13836 13839 13846 12406 13847 13677 13848 13849 
1729 1730 1955 1954 1754 1755 1980 1979 12240 13680 13681 13673 12411 13851 13852 13844 12402 12409 13850 13843 13846 13853 12413 13854 13684 13855 13856 
1730 1731 1956 1955 1755 1756 1981 1980 12247 13687 13688 13680 12418 13858 13859 13851 12409 12416 13857 13850 13853 13860 12420 13861 13691 13862 13863 
1731 1732 1957 1956 1756 1757 1982 1981 12254 13694 13695 13687 12425 13865 13866 13858 12416 12423 13864 13857 13860 13867 12427 13868 13698 13869 13870 
1732 1733 1958 1957 1757 1758 1983 1982 12261 13701 13702 13694 12432 13872 13873 13865 12423 12430 13871 13864 13867 13874 12434 13875 13705 13876 13877 
1733 1734 1959 1958 1758 1759 1984 1983 12268 13708 13709 13701 12439 13879 13880 13872 12430 12437 13878 13871 13874 13881 12441 13882 13712 13883 13884 
1734 1735 1960 1959 1759 1760 1985 1984 12275 13715 13716 13708 12446 13886 13887 13879 12437 12444 13885 13878 13881 13888 12448 13889 13719 13890 13891 
1735 1736 1961 1960 1760 1761 1986 1985 12282 13722 13723 13715 12453 13893 13894 13886 12444 12451 13892 13885 13888 13895 12455 13896 13726 13897 13898 
1736 1737 1962 1961 1761 1762 1987 1986 12289 13729 13730 13722 12460 13900 13901 13893 12451 12458 13899 13892 13895 13902 12462 13903 13733 13904 13905 
1737 1738 1963 1962 1762 1763 1988 1987 12296 13736 13737 13729 12467 13907 13908 13900 12458 12465 13906 13899 13902 13909 12469 13910 13740 13911 13912 
1738 1739 1964 1963 1763 1764 1989 1988 12303 13743 13744 13736 12474 13914 13915 13907 12465 12472 13913 13906 13909 13916 12476 13917 13747 13918 13919 
1739 1740 1965 1964 1764 1765 1990 1989 12310 13750 13751 13743 12481 13921 13922 13914 12472 12479 13920 13913 13916 13923 12483 13924 13754 13925 13926 
1740 1741 1966 1965 1765 1766 1991 1990 12317 13757 13758 13750 12488 13928 13929 13921 12479 12486 13927 13920 13923 13930 12490 13931 13761 13932 13933 
1741 1742 1967 1966 1766 1767 1992 1991 12324 13764 13765 13757 12495 13935 13936 13928 12486 12493 13934 13927 13930 13937 12497 13938 13768 13939 13940 
1742 1743 1968 1967 1767 1768 1993 1992 12331 13771 13772 13764 12502 13942 13943 13935 12493 12500 13941 13934 13937 13944 12504 13945 13775 13946 13947 
1743 1744 1969 1968 1768 1769 1994 1993 12338 13778 13779 13771 12509 13949 13950 13942 12500 12507 13948 13941 13944 13951 12511 13952 13782 13953 13954 
1744 1745 1970 1969 1769 1770 1995 1994 12345 13785 13786 13778 12516 13956 13957 13949 12507 12514 13955 13948 13951 13958 12518 13959 13789 13960 13961 
1745 1746 1971 1970 1770 1771 1996 1995 12352 13792 13793 13785 12523 13963 13964 13956 12514 12521 13962 13955 13958 13965 12525 13966 13796 13967 13968 
1746 1747 1972 1971 1771 1772 1997 1996 12359 13799 13800 13792 12530 13970 13971 13963 12521 12528 13969 13962 13965 13972 12532 13973 13803 13974 13975 
1747 1748 1973 1972 1772 1773 1998 1997 12366 13806 13807 13799 12537 13977 13978 13970 12528 12535 13976 13969 13972 13979 12539 13980 13810 13981 13982 
1748 1749 1974 1973 1773 1774 1999 1998 12373 13813 13814 13806 12544 13984 13985 13977 12535 12542 13983 13976 13979 13986 12546 13987 13817 13988 13989 
1750 1751 1976 1975 1775 1776 2001 2000 12381 13821 13822 13823 12552 13992 13993 13994 12550 12549 13990 13991 13997 13995 12555 13996 13827 13998 13999 
1751 1752 1977 1976 1776 1777 2002 2001 12390 13830 13831 13821 12561 14001 14002 13992 12549 12559 14000 13990 13995 14003 12563 14004 13834 14005 14006 
1752 1753 1978 1977 1777 1778 2003 2002 12397 13837 13838 13830 12568 14008 14009 14001 12559 12566 14007 14000 14003 14010 12570 14011 13841 14012 14013 
1753 1754 1979 1978 1778 1779 2004 2003 12404 13844 13845 13837 12575 14015 14016 14008 12566 12573 14014 14007 14010 14017 12577 14018 13848 14019 14020 
1754 1755 1980 1979 1779 1780 2005 2004 12411 13851 13852 13844 12582 14022 14023 14015 12573 12580 14021 14014 14017 14024 12584 14025 13855 14026 14027 
1755 1756 1981 1980 1780 1781 2006 2005 12418 13858 13859 13851 12589 14029 14030 14022 12580 12587 14028 14021 14024 14031 12591 14032 13862 14033 14034 
1756 1757 1982 1981 1781 1782 2007 2006 12425 13865 13866 13858 12596 14036 14037 14029 12587 12594 14035 14028 14031 14038 12598 14039 13869 14040 14041 
1757 1758 1983 1982 1782 1783 2008 2007 12432 13872 13873 13865 12603 14043 14044 14036 12594 12601 14042 14035 14038 14045 12605 14046 13876 14047 14048 
1758 1759 1984 1983 1783 1784 2009 2008 12439 13879 13880 13872 12610 14050 14051 14043 12601 12608 14049 14042 14045 14052 12612 14053 13883 14054 14055 
1759 1760 1985 1984 1784 1785 2010 2009 12446 13886 13887 13879 12617 14057 14058 14050 12608 12615 14056 14049 14052 14059 12619 14060 13890 14061 14062 
1760 1761 1986 1985 1785 1786 2011 2010 12453 13893 13894 13886 12624 14064 14065 14057 12615 12622 14063 14056 14059 14066 12626 14067 13897 14068 14069 
1761 1762 1987 1986 1786 1787 2012 2011 12460 13900 13901 13893 12631 14071 14072 14064 12622 12629 14070 14063 14066 14073 12633 14074 13904 14075 14076 
1762 1763 1988 1987 1787 1788 2013 2012 12467 13907 13908 13900 12638 14078 14079 14071 12629 12636 14077 14070 14073 14080 12640 14081 13911 14082 14083 
1763 1764 1989 1988 1788 1789 2014 2013 12474 13914 13915 13907 12645 14085 14086 14078 12636 12643 14084 14077 14080 14087 12647 14088 13918 14089 14090 
1764 1765 1990 1989 1789 1790 2015 2014 12481 13921 13922 13914 12652 14092 14093 14085 12643 12650 14091 14084 14087 14094 12654 14095 13925 14096 14097 
1765 1766 1991 1990 1790 1791 2016 2015 12488 13928 13929 13921 12659 14099 14100 14092 12650 12657 14098 14091 14094 14101 12661 14102 13932 14103 14104 
1766 1767 1992 1991 1791 1792 2017 2016 12495 13935 13936 13928 12666 14106 14107 14099 12657 12664 14105 14098 14101 14108 12668 14109 13939 14110 14111 
1767 1768 1993 1992 1792 1793 2018 2017 12502 13942 13943 13935 12673 14113 14114 14106 12664 12671 14112 14105 14108 14115 12675 14116 13946 14117 14118 
1768 1769 1994 1993 1793 1794 2019 2018 12509 13949 13950 13942 12680 14120 14121 14113 12671 12678 14119 14112 14115 14122 12682 14123 13953 14124 14125 
1769 1770 1995 1994 1794 1795 2020 2019 12516 13956 13957 13949 12687 14127 14128 14120 12678 12685 14126 14119 14122 14129 12689 14130 13960 14131 14132 
1770 1771 1996 1995 1795 1796 2021 2020 12523 13963 13964 13956 12694 14134 14135 14127 12685 12692 14133 14126 14129 14136 12696 14137 13967 14138 14139 
1771 1772 1997 1996 1796 1797 2022 2021 12530 13970 13971 13963 12701 14141 14142 14134 12692 12699 14140 14133 14136 14143 12703 14144 13974 14145 14146 
1772 1773 1998 1997 1797 1798 2023 2022 12537 13977 13978 13970 12708 14148 14149 14141 12699 12706 14147 14140 14143 14150 12710 14151 13981 14152 14153 
1773 1774 1999 1998 1798 1799 2024 2023 12544 13984 13985 13977 12715 14155 14156 14148 12706 12713 14154 14147 14150 14157 12717 14158 13988 14159 14160 
CELL_TYPES 1536
29 29 29 29 29 29 29 29 29 29 29 29 29 29 29 29 29 29 29 29 29 29 29 29 29 29 29 29 29 29 29 29 29 29 29 29 29 29 29 29 29 29 29 29 29 29 29 29 29 29 29 29 29 29 29 29 29 29 29 29 29 29 29 29 29 29 29 29 29 29 29 29 29 29 29 29 29 29 29 29 29 29 29 29 29 29 29 29 29 29 29 29 29 29 29 29 29 29 29 29 29 29 29 29 29 29 29 29 29 29 29 29 29 29 29 29 29 29 29 29 29 29 29 29 29 29 29 29 29 29 29 29 29 29 29 29 29 29 29 29 29 29 29 29 29 29 29 29 29 29 29 29 29 29 29 29 29 29 29 29 29 29 29 29 29 29 29 29 29 29 29 29 29 29 29 29 29 29 29 29 29 29 29 29 29 29 29 29 29 29 29 29 29 29 29 29 29 29 29 29 29 29 29 29 29 29 29 29 29 29 29 29 29 29 29 29 29 29 29 29 29 29 29 29 29 29 29 29 29 29 29 29 29 29 29 29 29 29 29 29 29 29 29 29 29 29 29 29 29 29 29 29 29 29 29 29 29 29 29 29 29 29 29 29 29 29 29 29 29 29 29 29 29 29 29 29 29 29 29 29 29 29 29 29 29 29 29 29 29 29 29 29 29 29 29 29 29 29 29 29 29 29 29 29 29 29 29 29 29 29 29 29 29 29 29 29 29 29 29 29 29 29 29 29 29 29 29 29 29 29 29 29 29 29 29 29 29 29 29 29 29 29 29 29 29 29 29 29 29 29 29 29 29 29 29 29 29 29 29 29 29 29 29 29 29 29 29 29 29 29 29 29 29 29 29 29 29 29 29 29 29 29 29 29 29 29 29 29 29 29 29 29 29 29 29 29 29 29 29 29 29 29 29 29 29 29 29 29 29 29 29 29 29 29 29 29 29 29 29 29 29 29 29 29 29 29 29 29 29 29 29 29 29 29 29 29 29 29 29 29 29 29 29 29 29 29 29 29 29 29 29 29 29 29 29 29 29 29 29 29 29 29 29 29 29 29 29 29 29 29 29 29 29 29 29 29 29 29 29 29 29 29 29 29 29 29 29 29 29 29 29 29 29 29 29 29 29 29 29 29 29 29 29 29 29 29 29 29 29 29 29 29 29 29 29 29 29 29 29 29 29 29 29 29 29 29 29 29 29 29 29 29 29 29 29 29 29 29 29 29 29 29 29 29 29 29 29 29 29 29 29 29 29 29 29 29 29 29 29 29 29 29 29 29 29 29 29 29 29 29 29 29 29 29 29 29 29 29 29 29 29 29 29 29 29 29 29 29 29 29 29 29 29 29 29 29 29 29 29 29 29 29 29 29 29 29 29 29 29 29 29 29 29 29 29 29 29 29 29 29 29 29 29 29 29 29 29 29 29 29 29 29 29 29 29 29 29 29 29 29 29 29 29 29 29 29 29 29 29 29 29 29 29 29 29 29 29 29 29 29 29 29 29 29 29 29 29 29 29 29 29 29 29 29 29 29 29 29 29 29 29 29 29 29 29 29 29 29 29 29 29 29 29 29 29 29 29 29 29 29 29 29 29 29 29 29 29 29 29 29 29 29 29 29 29 29 29 29 29 29 29 29 29 29 29 29 29 29 29 29 29 29 29 29 29 29 29 29 29 29 29 29 29 29 29 29 29 29 29 29 29 29 29 29 29 29 29 29 29 29 29 29 29 29 29 29 29 29 29 29 29 29 29 29 29 29 29 29 29 29 29 29 29 29 29 29 29 29 29 29 29 29 29 29 29 29 29 29 29 29 29 29 29 29 29 29 29 29 29 29 29 29 29 29 29 29 29 29 29 29 29 29 29 29 29 29 29 29 29 29 29 29 29 29 29 29 29 29 29 29 29 29 29 29 29 29 29 29 29 29 29 29 29 29 29 29 29 29 29 29 29 29 29 29 29 29 29 29 29 29 29 29 29 29 29 29 29 29 29 29 29 29 29 29 29 29 29 29 29 29 29 29 29 29 29 29 29 29 29 29 29 29 29 29 29 29 29 29 29 29 29 29 29 29 29 29 29 29 29 29 29 29 29 29 29 29 29 29 29 29 29 29 29 29 29 29 29 29 29 29 29 29 29 29 29 29 29 29 29 29 29 29 29 29 29 29 29 29 29 29 29 29 29 29 29 29 29 29 29 29 29 29 29 29 29 29 29 29 29 29 29 29 29 29 29 29 29 29 29 29 29 29 29 29 29 29 29 29 29 29 29 29 29 29 29 29 29 29 29 29 29 29 29 29 29 29 29 29 29 29 29 29 29 29 29 29 29 29 29 29 29 29 29 29 29 29 29 29 29 29 29 29 29 29 29 29 29 29 29 29 29 29 29 29 29 29 29 29 29 29 29 29 29 29 29 29 29 29 29 29 29 29 29 29 29 29 29 29 29 29 29 29 29 29 29 29 29 29 29 29 29 29 29 29 29 29 29 29 29 29 29 29 29 29 29 29 29 29 29 29 29 29 29 29 29 29 29 29 29 29 29 29 29 29 29 29 29 29 29 29 29 29 29 29 29 29 29 29 29 29 29 29 29 29 29 29 29 29 29 29 29 29 29 29 29 29 29 29 29 29 29 29 29 29 29 29 29 29 29 29 29 29 29 29 29 29 29 29 29 29 29 29 29 29 29 29 29 29 29 29 29 29 29 29 29 29 29 29 29 29 29 29 29 29 29 29 29 29 29 29 29 29 29 29 29 29 29 29 29 29 29 29 29 29 29 29 29 29 29 29 29 29 29 29 29 29 29 29 29 29 29 29 29 29 29 29 29 29 29 29 29 29 29 29 29 29 29 29 29 29 29 29 29 29 29 29 29 29 29 29 29 29 29 29 29 29 29 29 29 29 29 29 29 29 29 29 29 29 29 29 29 29 29 29 29 29 29 29 29 29 29 29 29 29 29 29 29 29 29 29 29 29 29 29 29 29 29 29 29 29 29 29 29 29 29 29 29 29 29 29 29 29 29 29 29 29 29 29 29 29 29 29 29 29 29 29 29 29 29 29 29 29 29 29 29 29 29 29 29 29 29 29 29 29 29 29 29 29 29 29 29 29 29 29 29 29 29 29 29 29 29 29 29 29 29 29 29 29 29 29 29 29 29 29 29 29 29 29 29 29 29 29 29 29 29 29 29 29 29 29 29 29 29 29 29 29 29 29 29 29 29 29 29 29 29 29 29 29 29 29 29 29 29 29 29 29 29 29 29 29 29 29 29 29 29 29 29 29 29 29 29 29 29 29 29 29 29 29 29 29 29 29 29 29 29 29 29 29 29 29 29 29 29 29 29 29 29 29 29 29 29 29 29 29 29 29 29 29 29 29 29 29 29 29 29 29 29 29 29 29 29 29 29 29 29 29 29 29 29 29 29 29 29 29 29 29 29 29 29 29 29 29 29 29 29 29 29 29 29 29 29 29 29 29 29 29 

POINT_DATA 14161
SCALARS weights float 1
LOOKUP_TABLE default
0.072338 0.144676 0.144676 0.144676 0.144676 0.144676 0.144676 0.144676 0.144676 0.144676 0.144676 0.144676 0.144676 0.144676 0.144676 0.144676 0.144676 0.144676 0.144676 0.144676 0.144676 0.144676 0.144676 0.144676 0.072338 0.144676 0.289352 0.289352 0.289352 0.289352 0.289352 0.289352 0.289352 0.289352 0.289352 0.289352 0.289352 0.289352 0.289352 0.289352 0.289352 0.289352 0.289352 0.289352 0.289352 0.289352 0.289352 0.289352 0.289352 0.144676 0.144676 0.289352 0.289352 0.289352 0.289352 0.289352 0.289352 0.289352 0.289352 0.289352 0.289352 0.289352 0.289352 0.289352 0.289352 0.289352 0.289352 0.289352 0.289352 0.289352 0.289352 0.289352 0.289352 0.289352 0.144676 0.144676 0.289352 0.289352 0.289352 0.289352 0.289352 0.289352 0.289352 0.289352 0.289352 0.289352 0.289352 0.289352 0.289352 0.289352 0.289352 0.289352 0.289352 0.289352 0.289352 0.289352 0.289352 0.289352 0.289352 0.144676 0.144676 0.289352 0.289352 0.289352 0.289352 0.289352 0.289352 0.289352 0.289352 0.289352 0.289352 0.289352 0.289352 0.289352 0.289352 0.289352 0.289352 0.289352 0.289352 0.289352 0.289352 0.289352 0.289352 0.289352 0.144676 0.144676 0.289352 0.289352 0.289352 0.289352 0.289352 0.289352 0.289352 0.289352 0.289352 0.289352 0.289352 0.289352 0.289352 0.289352 0.289352 0.289352 0.289352 0.289352 0.289352 0.289352 0.289352 0.289352 0.289352 0.144676 0.144676 0.289352 0.289352 0.289352 0.289352 0.289352 0.289352 0.289352 0.289352 0.289352 0.289352 0.289352 0.289352 0.289352 0.289352 0.289352 0.289352 0.289352 0.289352 0.289352 0.289352 0.289352 0.289352 0.289352 0.144676 0.144676 0.289352 0.289352 0.289352 0.289352 0.289352 0.289352 0.289352 0.289352 0.289352 0.289352 0.289352 0.289352 0.289352 0.289352 0.289352 0.289352 0.289352 0.289352 0.289352 0.289352 0.289352 0.289352 0.289352 0.144676 0.072338 0.144676 0.144676 0.144676 0.144676 0.144676 0.144676 0.144676 0.144676 0.144676 0.144676 0.144676 0.144676 0.144676 0.144676 0.144676 0.144676 0.144676 0.144676 0.144676 0.144676 0.144676 0.144676 0.144676 0.072338 0.144676 0.289352 0.289352 0.289352 0.289352 0.289352 0.289352 0.289352 0.289352 0.289352 0.289352 0.289352 0.289352 0.289352 0.289352 0.289352 0.289352 0.289352 0.289352 0.289352 0.289352 0.289352 0.289352 0.289352 0.144676 0.289352 0.578704 0.578704 0.578704 0.578704 0.578704 0.578704 0.578704 0.578704 0.578704 0.578704 0.578704 0.578704 0.578704 0.578704 0.578704 0.578704 0.578704 0.578704 0.578703 0.578704 0.578704 0.578704 0.578704 0.289352 0.289352 0.578704 0.578704 0.578704 0.578704 0.578704 0.578704 0.578704 0.578704 0.578704 0.578704 0.578704 0.578704 0.578704 0.578704 0.578704 0.578704 0.578704 0.578704 0.578703 0.578704 0.578704 0.578704 0.578704 0.289352 0.289352 0.578704 0.578704 0.578704 0.578704 0.578704 0.578704 0.578704 0.578704 0.578704 0.578704 0.578704 0.578704 0.578704 0.578704 0.578704 0.578704 0.578704 0.578704 0.578703 0.578704 0.578704 0.578704 0.578704 0.289352 0.289352 0.578704 0.578704 0.578704 0.578704 0.578704 0.578704 0.578704 0.578704 0.578704 0.578704 0.578704 0.578704 0.578704 0.578704 0.578704 0.578704 0.578704 0.578703 0.578703 0.578704 0.578704 0.578703 0.578704 0.289352 0.289352 0.578704 0.578704 0.578704 0.578704 0.578704 0.578704 0.578704 0.578704 0.578704 0.578704 0.578704 0.578704 0.578704 0.578704 0.578704 0.578704 0.578704 0.578704 0.578703 0.578704 0.578704 0.578704 0.578704 0.289352 0.289352 0.578704 0.578704 0.578704 0.578704 0.578704 0.578704 0.578704 0.578704 0.578704 0.578704 0.578704 0.578704 0.578704 0.578704 0.578704 0.578704 0.578704 0.578704 0.578703 0.578704 0.578704 0.578704 0.578704 0.289352 0.289352 0.578704 0.578704 0.578704 0.578704 0.578704 0.578704 0.578704 0.578704 0.578704 0.578704 0.578704 0.578704 0.578704 0.578704 0.578704 0.578704 0.578704 0.578704 0.578703 0.578704 0.578704 0.578704 0.578704 0.289352 0.144676 0.289352 0.289352 0.289352 0.289352 0.289352 0.289352 0.289352 0.289352 0.289352 0.289352 0.289352 0.289352 0.289352 0.289352 0.289352 0.289352 0.289352 0.289352 0.289352 0.289352 0.289352 0.289352 0.289352 0.144676 0.144676 0.289352 0.289352 0.289352 0.289352 0.289352 0.289352 0.289352 0.289352 0.289352 0.289352 0.289352 0.289352 0.289352 0.289352 0.289352 0.289352 0.289352 0.289352 0.289352 0.289352 0.289352 0.289352 0.289352 0.144676 0.289352 0.578704 0.578704 0.578704 0.578704 0.578704 0.578704 0.578704 0.578704 0.578703 0.578703 0.578703 0.578704 0.578704 0.578703 0.578703 0.578704 0.578703 0.578703 0.578703 0.578703 0.578704 0.578703 0.578703 0.289352 0.289352 0.578704 0.578704 0.578704 0.578704 0.578704 0.578704 0.578704 0.578704 0.578703 0.578703 0.578703 0.578703 0.578704 0.578703 0.578703 0.578704 0.578703 0.578703 0.578703 0.578703 0.578704 0.578703 0.578703 0.289352 0.289352 0.578704 0.578704 0.578703 0.578703 0.578703 0.578704 0.578704 0.578703 0.578703 0.578703 0.578703 0.578704 0.578704 0.578703 0.578703 0.578704 0.578703 0.578703 0.578703 0.578703 0.578703 0.578703 0.578703 0.289352 0.289352 0.578703 0.578704 0.578703 0.578703 0.578703 0.578703 0.578703 0.578703 0.578703 0.578703 0.578703 0.578703 0.578703 0.578703 0.578703 0.578704 0.578703 0.578703 0.578703 0.578703 0.578703 0.578703 0.578703 0.289352 0.289352 0.578704 0.578704 0.578703 0.578703 0.578704 0.578703 0.578703 0.578703 0.578703 0.578703 0.578703 0.578703 0.578704 0.578703 0.578703 0.578704 0.578703 0.578703 0.578703 0.578703 0.578704 0.578703 0.578703 0.289352 0.289352 0.578704 0.578704 0.578704 0.578703 0.578704 0.578704 0.578704 0.578704 0.578703 0.578703 0.578703 0.578704 0.578704 0.578703 0.578703 0.578704 0.578703 0.578703 0.578703 0.578703 0.578704 0.578703 0.578703 0.289352 0.289352 0.578704 0.578704 0.578703 0.578703 0.578704 0.578704 0.578703 0.578703 0.578703 0.578703 0.578703 0.578703 0.578703 0.578703 0.578703 0.578704 0.578703 0.578703 0.578703 0.578703 0.578703 0.578703 0.578703 0.289352 0.144676 0.289352 0.289352 0.289352 0.289352 0.289352 0.289352 0.289352 0.289352 0.289352 0.289352 0.289352 0.289352 0.289352 0.289352 0.289352 0.289352 0.289352 0.289352 0.289351 0.289352 0.289352 0.289352 0.289352 0.144676 0.144676 0.289352 0.289352 0.289352 0.289352 0.289352 0.289352 0.289352 0.289352 0.289352 0.289352 0.289352 0.289352 0.289352 0.289352 0.289352 0.289352 0.289352 0.289352 0.289352 0.289352 0.289352 0.289352 0.289352 0.144676 0.289352 0.578704 0.578704 0.578704 0.578704 0.578704 0.578704 0.578704 0.578704 0.578704 0.578703 0.578704 0.578704 0.578704 0.578703 0.578703 0.578704 0.578704 0.578703 0.578703 0.578703 0.578704 0.578703 0.578704 0.289352 0.289352 0.578704 0.578704 0.578704 0.578704 0.578704 0.578704 0.578704 0.578704 0.578704 0.578703 0.578704 0.578704 0.578704 0.578704 0.578703 0.578704 0.578704 0.578703 0.578703 0.578703 0.578704 0.578703 0.578704 0.289352 0.289352 0.578704 0.578704 0.578704 0.578704 0.578704 0.578704 0.578704 0.578704 0.578703 0.578703 0.578703 0.578704 0.578704 0.578703 0.578703 0.578704 0.578703 0.578703 0.578703 0.578703 0.578704 0.578703 0.578703 0.289352 0.289352 0.578704 0.578704 0.578704 0.578703 0.578704 0.578704 0.578703 0.578703 0.578703 0.578703 0.578703 0.578704 0.578704 0.578703 0.578703 0.578704 0.578703 0.578703 0.578703 0.578703 0.578703 0.578703 0.578703 0.289352 0.289352 0.578704 0.578704 0.578704 0.578703 0.578704 0.578704 0.578704 0.578704 0.578703 0.578703 0.578703 0.578704 0.578704 0.578703 0.578703 0.578704 0.578703 0.578703 0.578703 0.578703 0.578704 0.578703 0.578703 0.289352 0.289352 0.578704 0.578704 0.578704 0.578704 0.578704 0.578704 0.578704 0.578704 0.578704 0.578703 0.578704 0.578704 0.578704 0.578704 0.578703 0.578704 0.578704 0.578703 0.578703 0.578703 0.578704 0.578703 0.578704 0.289352 0.289352 0.578704 0.578704 0.578704 0.578703 0.578704 0.578704 0.578704 0.578704 0.578703 0.578703 0.578703 0.578704 0.578704 0.578703 0.578704 0.578704 0.578703 0.578703 0.578703 0.578703 0.578704 0.578703 0.578703 0.289352 0.144676 0.289352 0.289352 0.289352 0.289352 0.289352 0.289352 0.289352 0.289352 0.289352 0.289352 0.289352 0.289352 0.289352 0.289352 0.289352 0.289352 0.289352 0.289352 0.289352 0.289352 0.289352 0.289352 0.289352 0.144676 0.144676 0.289352 0.289352 0.289352 0.289352 0.289352 0.289352 0.289352 0.289352 0.289352 0.289352 0.289352 0.289352 0.289352 0.289352 0.289352 0.289352 0.289352 0.289352 0.289352 0.289352 0.289352 0.289352 0.289352 0.144676 0.289352 0.578704 0.578704 0.578704 0.578704 0.578704 0.578704 0.578704 0.578704 0.578704 0.578704 0.578704 0.578704 0.578704 0.578704 0.578704 0.578704 0.578704 0.578704 0.578703 0.578704 0.578704 0.578704 0.578704 0.289352 0.289352 0.578704 0.578704 0.578704 0.578704 0.578704 0.578704 0.578704 0.578704 0.578704 0.578704 0.578704 0.578704 0.578704 0.578704 0.578704 0.578704 0.578704 0.578704 0.578703 0.578704 0.578704 0.578704 0.578704 0.289352 0.289352 0.578704 0.578704 0.578704 0.578704 0.578704 0.578704 0.578704 0.578704 0.578704 0.578704 0.578704 0.578704 0.578704 0.578704 0.578704 0.578704 0.578704 0.578704 0.578703 0.578704 0.578704 0.578704 0.578704 0.289352 0.289352 0.578704 0.578704 0.578704 0.578704 0.578704 0.578704 0.578704 0.578704 0.578704 0.578704 0.578704 0.578704 0.578704 0.578704 0.578704 0.578704 0.578704 0.578704 0.578703 0.578704 0.578704 0.578703 0.578704 0.289352 0.289352 0.578704 0.578704 0.578704 0.578704 0.578704 0.578704 0.578704 0.578704 0.578704 0.578704 0.578704 0.578704 0.578704 0.578704 0.578704 0.578704 0.578704 0.578704 0.578703 0.578704 0.578704 0.578704 0.578704 0.289352 0.289352 0.578704 0.578704 0.578704 0.578704 0.578704 0.578704 0.578704 0.578704 0.578704 0.578704 0.578704 0.578704 0.578704 0.578704 0.578704 0.578704 0.578704 0.578704 0.578703 0.578704 0.578704 0.578704 0.578704 0.289352 0.289352 0.578704 0.578704 0.578704 0.578704 0.578704 0.578704 0.578704 0.578704 0.578704 0.578704 0.578704 0.578704 0.578704 0.578704 0.578704 0.578704 0.578704 0.578704 0.578703 0.578704 0.578704 0.578704 0.578704 0.289352 0.144676 0.289352 0.289352 0.289352 0.289352 0.289352 0.289352 0.289352 0.289352 0.289352 0.289352 0.289352 0.289352 0.289352 0.289352 0.289352 0.289352 0.289352 0.289352 0.289352 0.289352 0.289352 0.289352 0.289352 0.144676 0.144676 0.289352 0.289352 0.289352 0.289352 0.289352 0.289352 0.289352 0.289352 0.289352 0.289352 0.289352 0.289352 0.289352 0.289352 0.289352 0.289352 0.289352 0.289352 0.289352 0.289352 0.289352 0.289352 0.289352 0.144676 0.289352 0.578704 0.578704 0.578704 0.578704 0.578704 0.578704 0.578704 0.578704 0.578704 0.578704 0.578704 0.578704 0.578704 0.578704 0.578704 0.578704 0.578704 0.578704 0.578703 0.578704 0.578704 0.578704 0.578704 0.289352 0.289352 0.578704 0.578704 0.578704 0.578704 0.578704 0.578704 0.578704 0.578704 0.578704 0.578704 0.578704 0.578704 0.578704 0.578704 0.578704 0.578704 0.578704 0.578704 0.578703 0.578704 0.578704 0.578704 0.578704 0.289352 0.289352 0.578704 0.578704 0.578704 0.578704 0.578704 0.578704 0.578704 0.578704 0.578704 0.578704 0.578704 0.578704 0.578704 0.578704 0.578704 0.578704 0.578704 0.578704 0.578703 0.578704 0.578704 0.578704 0.578704 0.289352 0.289352 0.578704 0.578704 0.578704 0.578704 0.578704 0.578704 0.578704 0.578704 0.578704 0.578704 0.578704 0.578704 0.578704 0.578704 0.578704 0.578704 0.578704 0.578704 0.578703 0.578704 0.578704 0.578703 0.578704 0.289352 0.289352 0.578704 0.578704 0.578704 0.578704 0.578704 0.578704 0.578704 0.578704 0.578704 0.578704 0.578704 0.578704 0.578704 0.578704 0.578704 0.578704 0.578704 0.578704 0.578703 0.578704 0.578704 0.578704 0.578704 0.289352 0.289352 0.578704 0.578704 0.578704 0.578704 0.578704 0.578704 0.578704 0.578704 0.578704 0.578704 0.578704 0.578704 0.578704 0.578704 0.578704 0.578704 0.578704 0.578704 0.578703 0.578704 0.578704 0.578704 0.578704 0.289352 0.289352 0.578704 0.578704 0.578704 0.578704 0.578704 0.578704 0.578704 0.578704 0.578704 0.578704 0.578704 0.578704 0.578704 0.578704 0.578704 0.578704 0.578704 0.578703 0.578703 0.578704 0.578704 0.578704 0.578704 0.289352 0.144676 0.289352 0.289352 0.289352 0.289352 0.289352 0.289352 0.289352 0.289352 0.289352 0.289352 0.289352 0.289352 0.289352 0.289352 0.289352 0.289352 0.289352 0.289352 0.289352 0.289352 0.289352 0.289352 0.289352 0.144676 0.144676 0.289352 0.289352 0.289352 0.289352 0.289352 0.289352 0.289352 0.289352 0.289352 0.289352 0.289352 0.289352 0.289352 0.289352 0.289352 0.289352 0.289352 0.289352 0.289352 0.289352 0.289352 0.289352 0.289352 0.144676 0.289352 0.578704 0.578704 0.578704 0.578704 0.578704 0.578704 0.578704 0.578704 0.578704 0.578704 0.578704 0.578704 0.578704 0.578704 0.578704 0.578704 0.578704 0.578704 0.578703 0.578704 0.578704 0.578704 0.578704 0.289352 0.289352 0.578704 0.578704 0.578704 0.578704 0.578704 0.578704 0.578704 0.578704 0.578704 0.578704 0.578704 0.578704 0.578704 0.578704 0.578704 0.578704 0.578704 0.578703 0.578703 0.578704 0.578704 0.578703 0.578704 0.289352 0.289352 0.578704 0.578704 0.578704 0.578704 0.578704 0.578704 0.578704 0.578704 0.578704 0.578704 0.578704 0.578704 0.578704 0.578704 0.578704 0.578704 0.578704 0.578703 0.578703 0.578704 0.578704 0.578703 0.578704 0.289352 0.289352 0.578704 0.578704 0.578704 0.578704 0.578704 0.578704 0.578704 0.578704 0.578704 0.578703 0.578704 0.578704 0.578704 0.578704 0.578704 0.578704 0.578704 0.578703 0.578703 0.578703 0.578704 0.578703 0.578704 0.289352 0.289352 0.578704 0.578704 0.578704 0.578704 0.578704 0.578704 0.578704 0.578704 0.578704 0.578703 0.578704 0.578704 0.578704 0.578704 0.578704 0.578704 0.578704 0.578703 0.578703 0.578704 0.578704 0.578703 0.578704 0.289352 0.289352 0.578704 0.578704 0.578704 0.578704 0.578704 0.578704 0.578704 0.578704 0.578704 0.578704 0.578704 0.578704 0.578704 0.578704 0.578704 0.578704 0.578704 0.578704 0.578703 0.578704 0.578704 0.578704 0.578704 0.289352 0.289352 0.578704 0.578704 0.578704 0.578704 0.578704 0.578704 0.578704 0.578704 0.578704 0.578704 0.578704 0.578704 0.578704 0.578704 0.578704 0.578704 0.578704 0.578703 0.578703 0.578704 0.578704 0.578703 0.578704 0.289352 0.144676 0.289352 0.289352 0.289352 0.289352 0.289352 0.289352 0.289352 0.289352 0.289352 0.289352 0.289352 0.289352 0.289352 0.289352 0.289352 0.289352 0.289352 0.289352 0.289352 0.289352 0.289352 0.289352 0.289352 0.144676 0.144676 0.289352 0.289352 0.289352 0.289352 0.289352 0.289352 0.289352 0.289352 0.289352 0.289352 0.289352 0.289352 0.289352 0.289352 0.289352 0.289352 0.289352 0.289352 0.289352 0.289352 0.289352 0.289352 0.289352 0.144676 0.289352 0.578704 0.578704 0.578703 0.578703 0.578703 0.578704 0.578704 0.578703 0.578703 0.578703 0.578703 0.578704 0.578704 0.578703 0.578703 0.578704 0.578703 0.578703 0.578703 0.578703 0.578703 0.578703 0.578703 0.289352 0.289352 0.578704 0.578704 0.578703 0.578703 0.578703 0.578703 0.578703 0.578703 0.578703 0.578703 0.578703 0.578703 0.578703 0.578703 0.578703 0.578703 0.578703 0.578703 0.578703 0.578703 0.578703 0.578703 0.578703 0.289352 0.289352 0.578704 0.578704 0.578703 0.578703 0.578703 0.578703 0.578703 0.578703 0.578703 0.578703 0.578703 0.578703 0.578703 0.578703 0.578703 0.578703 0.578703 0.578703 0.578703 0.578703 0.578703 0.578703 0.578703 0.289352 0.289352 0.578703 0.578704 0.578703 0.578703 0.578703 0.578703 0.578703 0.578703 0.578703 0.578703 0.578703 0.578703 0.578703 0.578703 0.578703 0.578703 0.578703 0.578703 0.578703 0.578703 0.578703 0.578703 0.578703 0.289352 0.289352 0.578703 0.578703 0.578703 0.578703 0.578703 0.578703 0.578703 0.578703 0.578703 0.578703 0.578703 0.578703 0.578703 0.578703 0.578703 0.578703 0.578703 0.578703 0.578703 0.578703 0.578703 0.578703 0.578703 0.289352 0.289352 0.578704 0.578704 0.578703 0.578703 0.578703 0.578703 0.578703 0.578703 0.578703 0.578703 0.578703 0.578703 0.578703 0.578703 0.578703 0.578704 0.578703 0.578703 0.578703 0.578703 0.578704 0.578703 0.578703 0.289352 0.289352 0.578703 0.578703 0.578703 0.578703 0.578703 0.578703 0.578703 0.578703 0.578703 0.578703 0.578703 0.578703 0.578703 0.578703 0.578703 0.578704 0.578703 0.578703 0.578703 0.578703 0.578703 0.578703 0.578703 0.289352 0.144676 0.289352 0.289352 0.289352 0.289352 0.289352 0.289352 0.289352 0.289352 0.289352 0.289352 0.289352 0.289352 0.289352 0.289352 0.289352 0.289352 0.289352 0.289352 0.289351 0.289352 0.289352 0.289352 0.289352 0.144676 0.0723379 0.144676 0.144676 0.144676 0.144676 0.144676 0.144676 0.144676 0.144676 0.144676 0.144676 0.144676 0.144676 0.144676 0.144676 0.144676 0.144676 0.144676 0.144676 0.144676 0.144676 0.144676 0.144676 0.144676 0.0723379 0.144676 0.289352 0.289352 0.289352 0.289352 0.289352 0.289352 0.289352 0.289352 0.289352 0.289352 0.289352 0.289352 0.289352 0.289352 0.289352 0.289352 0.289352 0.289351 0.289351 0.289352 0.289352 0.289352 0.289352 0.144676 0.144676 0.289352 0.289352 0.289352 0.289352 0.289352 0.289352 0.289352 0.289352 0.289352 0.289352 0.289352 0.289352 0.289352 0.289352 0.289352 0.289352 0.289352 0.289351 0.289351 0.289352 0.289352 0.289352 0.289352 0.144676 0.144676 0.289352 0.289352 0.289352 0.289352 0.289352 0.289352 0.289352 0.289352 0.289352 0.289351 0.289352 0.289352 0.289352 0.289352 0.289352 0.289352 0.289352 0.289351 0.289351 0.289352 0.289352 0.289352 0.289352 0.144676 0.144676 0.289352 0.289352 0.289352 0.289352 0.289352 0.289352 0.289352 0.289352 0.289352 0.289351 0.289352 0.289352 0.289352 0.289352 0.289352 0.289352 0.289352 0.289351 0.289351 0.289352 0.289352 0.289352 0.289352 0.144676 0.144676 0.289352 0.289352 0.289352 0.289352 0.289352 0.289352 0.289352 0.289352 0.289352 0.289352 0.289352 0.289352 0.289352 0.289352 0.289352 0.289352 0.289352 0.289351 0.289351 0.289352 0.289352 0.289352 0.289352 0.144676 0.144676 0.289352 0.289352 0.289352 0.289352 0.289352 0.289352 0.289352 0.289352 0.289352 0.289352 0.289352 0.289352 0.289352 0.289352 0.289352 0.289352 0.289352 0.289352 0.289351 0.289352 0.289352 0.289352 0.289352 0.144676 0.144676 0.289352 0.289352 0.289352 0.289352 0.289352 0.289352 0.289352 0.289352 0.289352 0.289352 0.289352 0.289352 0.289352 0.289352 0.289352 0.289352 0.289352 0.289352 0.289351 0.289352 0.289352 0.289351 0.289352 0.144676 0.0723379 0.144676 0.144676 0.144676 0.144676 0.144676 0.144676 0.144676 0.144676 0.144676 0.144676 0.144676 0.144676 0.144676 0.144676 0.144676 0.144676 0.144676 0.144676 0.144676 0.144676 0.144676 0.144676 0.144676 0.0723379 0.072338 0.144676 0.144676 0.072338 0.072338 0.144676 0.289352 0.144676 0.144676 0.289352 0.289352 0.144676 0.072338 0.072338 0.144676 0.144676 0.072338 0.144676 0.072338 0.072338 0.144676 0.144676 0.144676 0.289352 0.144676 0.289352 0.289352 0.072338 0.072338 0.144676 0.144676 0.144676 0.072338 0.072338 0.144676 0.144676 0.144676 0.289352 0.144676 0.289352 0.289352 0.072338 0.072338 0.144676 0.144676 0.144676 0.072338 0.072338 0.144676 0.144676 0.144676 0.289352 0.144676 0.289352 0.289352 0.072338 0.072338 0.144676 0.144676 0.144676 0.072338 0.072338 0.144676 0.144676 0.144676 0.289352 0.144676 0.289352 0.289352 0.072338 0.072338 0.144676 0.144676 0.144676 0.072338 0.072338 0.144676 0.144676 0.144676 0.289352 0.144676 0.289352 0.289352 0.072338 0.072338 0.144676 0.144676 0.144676 0.072338 0.072338 0.144676 0.144676 0.144676 0.289352 0.144676 0.289352 0.289352 0.072338 0.072338 0.144676 0.144676 0.144676 0.072338 0.072338 0.144676 0.144676 0.144676 0.289352 0.144676 0.289352 0.289352 0.072338 0.072338 0.144676 0.144676 0.144676 0.072338 0.072338 0.144676 0.144676 0.144676 0.289352 0.144676 0.289352 0.289352 0.072338 0.072338 0.144676 0.144676 0.144676 0.072338 0.072338 0.144676 0.144676 0.144676 0.289352 0.144676 0.289352 0.289352 0.072338 0.072338 0.144676 0.144676 0.144676 0.072338 0.072338 0.144676 0.144676 0.144676 0.289352 0.144676 0.289352 0.289352 0.072338 0.072338 0.144676 0.144676 0.144676 0.072338 0.072338 0.144676 0.144676 0.144676 0.289352 0.144676 0.289352 0.289352 0.072338 0.072338 0.144676 0.144676 0.144676 0.072338 0.072338 0.144676 0.144676 0.144676 0.289352 0.144676 0.289352 0.289352 0.072338 0.072338 0.144676 0.144676 0.144676 0.072338 0.072338 0.144676 0.144676 0.144676 0.289352 0.144676 0.289352 0.289352 0.072338 0.072338 0.144676 0.144676 0.144676 0.072338 0.0723379 0.144676 0.144676 0.144676 0.289352 0.144676 0.289352 0.289352 0.0723379 0.0723379 0.144676 0.144676 0.144676 0.0723379 0.072338 0.144676 0.144676 0.144676 0.289352 0.144676 0.289352 0.289352 0.072338 0.072338 0.144676 0.144676 0.144676 0.072338 0.072338 0.144676 0.144676 0.144676 0.289352 0.144676 0.289352 0.289352 0.072338 0.072338 0.144676 0.144676 0.144676 0.072338 0.072338 0.144676 0.144676 0.144676 0.289352 0.144676 0.289352 0.289352 0.072338 0.072338 0.144676 0.144676 0.144676 0.072338 0.0723379 0.144676 0.144676 0.144676 0.289352 0.144676 0.289352 0.289352 0.0723379 0.0723379 0.144676 0.144676 0.144676 0.0723379 0.0723379 0.144676 0.144676 0.144676 0.289352 0.144676 0.289352 0.289352 0.0723379 0.0723379 0.144676 0.144676 0.144676 0.0723379 0.072338 0.144676 0.144676 0.144676 0.289352 0.144676 0.289352 0.289352 0.072338 0.072338 0.144676 0.144676 0.144676 0.072338 0.072338 0.144676 0.144676 0.144676 0.289352 0.144676 0.289352 0.289352 0.072338 0.072338 0.144676 0.144676 0.144676 0.072338 0.0723379 0.144676 0.144676 0.144676 0.289352 0.144676 0.289352 0.289352 0.0723379 0.0723379 0.144676 0.144676 0.144676 0.0723379 0.072338 0.072338 0.144676 0.072338 0.144676 0.144676 0.144676 0.289352 0.072338 0.072338 0.072338 0.144676 0.144676 0.072338 0.072338 0.144676 0.289352 0.144676 0.144676 0.289352 0.289352 0.144676 0.072338 0.144676 0.144676 0.072338 0.144676 0.072338 0.144676 0.289352 0.144676 0.289352 0.289352 0.072338 0.144676 0.144676 0.144676 0.072338 0.144676 0.289352 0.144676 0.289352 0.289352 0.072338 0.144676 0.144676 0.144676 0.072338 0.144676 0.289352 0.144676 0.289352 0.289352 0.072338 0.144676 0.144676 0.144676 0.072338 0.144676 0.289352 0.144676 0.289352 0.289352 0.072338 0.144676 0.144676 0.144676 0.072338 0.144676 0.289352 0.144676 0.289352 0.289352 0.072338 0.144676 0.144676 0.144676 0.072338 0.144676 0.289352 0.144676 0.289352 0.289352 0.072338 0.144676 0.144676 0.144676 0.072338 0.144676 0.289352 0.144676 0.289352 0.289352 0.072338 0.144676 0.144676 0.144676 0.072338 0.144676 0.289352 0.144676 0.289352 0.289352 0.072338 0.144676 0.144676 0.144676 0.072338 0.144676 0.289352 0.144676 0.289352 0.289352 0.072338 0.144676 0.144676 0.144676 0.072338 0.144676 0.289352 0.144676 0.289352 0.289352 0.072338 0.144676 0.144676 0.144676 0.072338 0.144676 0.289352 0.144676 0.289352 0.289352 0.072338 0.144676 0.144676 0.144676 0.072338 0.144676 0.289352 0.144676 0.289352 0.289352 0.072338 0.144676 0.144676 0.144676 0.072338 0.144676 0.289352 0.144676 0.289352 0.289352 0.072338 0.144676 0.144676 0.144676 0.072338 0.144676 0.289352 0.144676 0.289352 0.289352 0.0723379 0.144676 0.144676 0.144676 0.0723379 0.144676 0.289352 0.144676 0.289352 0.289352 0.072338 0.144676 0.144676 0.144676 0.072338 0.144676 0.289352 0.144676 0.289352 0.289352 0.072338 0.144676 0.144676 0.144676 0.072338 0.144676 0.289352 0.144676 0.289352 0.289352 0.072338 0.144676 0.144676 0.144676 0.072338 0.144676 0.289352 0.144676 0.289352 0.289352 0.0723379 0.144676 0.144676 0.144676 0.0723379 0.144676 0.289352 0.144676 0.289352 0.289352 0.0723379 0.144676 0.144676 0.144676 0.0723379 0.144676 0.289352 0.144676 0.289352 0.289352 0.072338 0.144676 0.144676 0.144676 0.072338 0.144676 0.289352 0.144676 0.289352 0.289352 0.072338 0.144676 0.144676 0.144676 0.072338 0.144676 0.289352 0.144676 0.289352 0.289352 0.0723379 0.144676 0.144676 0.144676 0.0723379 0.072338 0.144676 0.144676 0.144676 0.289352 0.072338 0.072338 0.144676 0.144676 0.072338 0.072338 0.144676 0.289352 0.144676 0.144676 0.289352 0.289352 0.144676 0.072338 0.144676 0.144676 0.072338 0.144676 0.072338 0.144676 0.289352 0.144676 0.289352 0.289352 0.072338 0.144676 0.144676 0.144676 0.072338 0.144676 0.289352 0.144676 0.289352 0.289352 0.072338 0.144676 0.144676 0.144676 0.072338 0.144676 0.289352 0.144676 0.289352 0.289352 0.072338 0.144676 0.144676 0.144676 0.072338 0.144676 0.289352 0.144676 0.289352 0.289352 0.072338 0.144676 0.144676 0.144676 0.072338 0.144676 0.289352 0.144676 0.289352 0.289352 0.072338 0.144676 0.144676 0.144676 0.072338 0.144676 0.289352 0.144676 0.289352 0.289352 0.072338 0.144676 0.144676 0.144676 0.072338 0.144676 0.289352 0.144676 0.289352 0.289352 0.072338 0.144676 0.144676 0.144676 0.072338 0.144676 0.289352 0.144676 0.289352 0.289352 0.072338 0.144676 0.144676 0.144676 0.072338 0.144676 0.289352 0.144676 0.289352 0.289352 0.072338 0.144676 0.144676 0.144676 0.072338 0.144676 0.289352 0.144676 0.289352 0.289352 0.072338 0.144676 0.144676 0.144676 0.072338 0.144676 0.289352 0.144676 0.289352 0.289352 0.072338 0.144676 0.144676 0.144676 0.072338 0.144676 0.289352 0.144676 0.289352 0.289352 0.072338 0.144676 0.144676 0.144676 0.072338 0.144676 0.289352 0.144676 0.289352 0.289352 0.072338 0.144676 0.144676 0.144676 0.072338 0.144676 0.289352 0.144676 0.289352 0.289352 0.0723379 0.144676 0.144676 0.144676 0.0723379 0.144676 0.289352 0.144676 0.289352 0.289352 0.072338 0.144676 0.144676 0.144676 0.072338 0.144676 0.289352 0.144676 0.289352 0.289352 0.072338 0.144676 0.144676 0.144676 0.072338 0.144676 0.289352 0.144676 0.289352 0.289352 0.072338 0.144676 0.144676 0.144676 0.072338 0.144676 0.289352 0.144676 0.289352 0.289352 0.0723379 0.144676 0.144676 0.144676 0.0723379 0.144676 0.289352 0.144676 0.289352 0.289352 0.0723379 0.144676 0.144676 0.144676 0.0723379 0.144676 0.289352 0.144676 0.289352 0.289352 0.072338 0.144676 0.144676 0.144676 0.072338 0.144676 0.289352 0.144676 0.289352 0.289352 0.072338 0.144676 0.144676 0.144676 0.072338 0.144676 0.289352 0.144676 0.289352 0.289352 0.072338 0.144676 0.144676 0.144676 0.072338 0.072338 0.144676 0.144676 0.144676 0.289352 0.072338 0.072338 0.144676 0.144676 0.072338 0.072338 0.144676 0.289352 0.144676 0.144676 0.289352 0.289352 0.144676 0.072338 0.144676 0.144676 0.072338 0.144676 0.072338 0.144676 0.289352 0.144676 0.289352 0.289352 0.072338 0.144676 0.144676 0.144676 0.072338 0.144676 0.289352 0.144676 0.289352 0.289352 0.072338 0.144676 0.144676 0.144676 0.072338 0.144676 0.289352 0.144676 0.289352 0.289352 0.072338 0.144676 0.144676 0.144676 0.072338 0.144676 0.289352 0.144676 0.289352 0.289352 0.072338 0.144676 0.144676 0.144676 0.072338 0.144676 0.289352 0.144676 0.289352 0.289352 0.072338 0.144676 0.144676 0.144676 0.072338 0.144676 0.289352 0.144676 0.289352 0.289352 0.072338 0.144676 0.144676 0.144676 0.072338 0.144676 0.289352 0.144676 0.289352 0.289352 0.072338 0.144676 0.144676 0.144676 0.072338 0.144676 0.289352 0.144676 0.289352 0.289352 0.072338 0.144676 0.144676 0.144676 0.072338 0.144676 0.289352 0.144676 0.289352 0.289352 0.072338 0.144676 0.144676 0.144676 0.072338 0.144676 0.289352 0.144676 0.289352 0.289352 0.0723379 0.144676 0.144676 0.144676 0.0723379 0.144676 0.289352 0.144676 0.289352 0.289352 0.072338 0.144676 0.144676 0.144676 0.072338 0.144676 0.289352 0.144676 0.289352 0.289352 0.072338 0.144676 0.144676 0.144676 0.072338 0.144676 0.289352 0.144676 0.289352 0.289352 0.072338 0.144676 0.144676 0.144676 0.072338 0.144676 0.289352 0.144676 0.289352 0.289352 0.0723379 0.144676 0.144676 0.144676 0.0723379 0.144676 0.289352 0.144676 0.289352 0.289352 0.072338 0.144676 0.144676 0.144676 0.072338 0.144676 0.289352 0.144676 0.289352 0.289352 0.072338 0.144676 0.144676 0.144676 0.072338 0.144676 0.289352 0.144676 0.289352 0.289352 0.072338 0.144676 0.144676 0.144676 0.072338 0.144676 0.289352 0.144676 0.289352 0.289352 0.0723379 0.144676 0.144676 0.144676 0.0723379 0.144676 0.289352 0.144676 0.289352 0.289352 0.0723379 0.144676 0.144676 0.144676 0.0723379 0.144676 0.289352 0.144676 0.289352 0.289352 0.072338 0.144676 0.144676 0.144676 0.072338 0.144676 0.289352 0.144676 0.289352 0.289352 0.0723379 0.144676 0.144676 0.144676 0.0723379 0.144676 0.289352 0.144676 0.289352 0.289352 0.0723379 0.144676 0.144676 0.144676 0.0723379 0.072338 0.144676 0.144676 0.144676 0.289352 0.072338 0.072338 0.144676 0.144676 0.072338 0.072338 0.144676 0.289352 0.144676 0.144676 0.289352 0.289352 0.144676 0.072338 0.144676 0.144676 0.072338 0.144676 0.072338 0.144676 0.289352 0.144676 0.289352 0.289352 0.072338 0.144676 0.144676 0.144676 0.072338 0.144676 0.289352 0.144676 0.289352 0.289352 0.072338 0.144676 0.144676 0.144676 0.072338 0.144676 0.289352 0.144676 0.289352 0.289352 0.072338 0.144676 0.144676 0.144676 0.072338 0.144676 0.289352 0.144676 0.289352 0.289352 0.072338 0.144676 0.144676 0.144676 0.072338 0.144676 0.289352 0.144676 0.289352 0.289352 0.072338 0.144676 0.144676 0.144676 0.072338 0.144676 0.289352 0.144676 0.289352 0.289352 0.072338 0.144676 0.144676 0.144676 0.072338 0.144676 0.289352 0.144676 0.289352 0.289352 0.072338 0.144676 0.144676 0.144676 0.072338 0.144676 0.289352 0.144676 0.289352 0.289352 0.072338 0.144676 0.144676 0.144676 0.072338 0.144676 0.289352 0.144676 0.289352 0.289352 0.072338 0.144676 0.144676 0.144676 0.072338 0.144676 0.289352 0.144676 0.289352 0.289352 0.0723379 0.144676 0.144676 0.144676 0.0723379 0.144676 0.289352 0.144676 0.289352 0.289352 0.072338 0.144676 0.144676 0.144676 0.072338 0.144676 0.289352 0.144676 0.289352 0.289352 0.072338 0.144676 0.144676 0.144676 0.072338 0.144676 0.289352 0.144676 0.289352 0.289352 0.072338 0.144676 0.144676 0.144676 0.072338 0.144676 0.289352 0.144676 0.289352 0.289352 0.0723379 0.144676 0.144676 0.144676 0.0723379 0.144676 0.289352 0.144676 0.289352 0.289352 0.072338 0.144676 0.144676 0.144676 0.072338 0.144676 0.289352 0.144676 0.289352 0.289352 0.072338 0.144676 0.144676 0.144676 0.072338 0.144676 0.289352 0.144676 0.289352 0.289352 0.072338 0.144676 0.144676 0.144676 0.072338 0.144676 0.289352 0.144676 0.289352 0.289352 0.0723379 0.144676 0.144676 0.144676 0.0723379 0.144676 0.289352 0.144676 0.289352 0.289352 0.0723379 0.144676 0.144676 0.144676 0.0723379 0.144676 0.289352 0.144676 0.289352 0.289352 0.072338 0.144676 0.144676 0.144676 0.072338 0.144676 0.289352 0.144676 0.289352 0.289352 0.072338 0.144676 0.144676 0.144676 0.072338 0.144676 0.289352 0.144676 0.289352 0.289352 0.0723379 0.144676 0.144676 0.144676 0.0723379 0.072338 0.144676 0.144676 0.144676 0.289352 0.072338 0.072338 0.144676 0.144676 0.072338 0.072338 0.144676 0.289352 0.144676 0.144676 0.289352 0.289352 0.144676 0.072338 0.144676 0.144676 0.072338 0.144676 0.072338 0.144676 0.289352 0.144676 0.289352 0.289352 0.072338 0.144676 0.144676 0.144676 0.072338 0.144676 0.289352 0.144676 0.289352 0.289352 0.072338 0.144676 0.144676 0.144676 0.072338 0.144676 0.289352 0.144676 0.289352 0.289352 0.072338 0.144676 0.144676 0.144676 0.072338 0.144676 0.289352 0.144676 0.289352 0.289352 0.072338 0.144676 0.144676 0.144676 0.072338 0.144676 0.289352 0.144676 0.289352 0.289352 0.072338 0.144676 0.144676 0.144676 0.072338 0.144676 0.289352 0.144676 0.289352 0.289352 0.072338 0.144676 0.144676 0.144676 0.072338 0.144676 0.289352 0.144676 0.289352 0.289352 0.072338 0.144676 0.144676 0.144676 0.072338 0.144676 0.289352 0.144676 0.289352 0.289352 0.072338 0.144676 0.144676 0.144676 0.072338 0.144676 0.289352 0.144676 0.289352 0.289352 0.072338 0.144676 0.144676 0.144676 0.072338 0.144676 0.289352 0.144676 0.289352 0.289352 0.072338 0.144676 0.144676 0.144676 0.072338 0.144676 0.289352 0.144676 0.289352 0.289352 0.072338 0.144676 0.144676 0.144676 0.072338 0.144676 0.289352 0.144676 0.289352 0.289352 0.072338 0.144676 0.144676 0.144676 0.072338 0.144676 0.289352 0.144676 0.289352 0.289352 0.072338 0.144676 0.144676 0.144676 0.072338 0.144676 0.289352 0.144676 0.289352 0.289352 0.0723379 0.144676 0.144676 0.144676 0.0723379 0.144676 0.289352 0.144676 0.289352 0.289352 0.072338 0.144676 0.144676 0.144676 0.072338 0.144676 0.289352 0.144676 0.289352 0.289352 0.072338 0.144676 0.144676 0.144676 0.072338 0.144676 0.289352 0.144676 0.289352 0.289352 0.072338 0.144676 0.144676 0.144676 0.072338 0.144676 0.289352 0.144676 0.289352 0.289352 0.0723379 0.144676 0.144676 0.144676 0.0723379 0.144676 0.289352 0.144676 0.289352 0.289352 0.0723379 0.144676 0.144676 0.144676 0.0723379 0.144676 0.289352 0.144676 0.289352 0.289352 0.072338 0.144676 0.144676 0.144676 0.072338 0.144676 0.289352 0.144676 0.289352 0.289352 0.072338 0.144676 0.144676 0.144676 0.072338 0.144676 0.289352 0.144676 0.289352 0.289352 0.072338 0.144676 0.144676 0.144676 0.072338 0.072338 0.144676 0.144676 0.144676 0.289352 0.072338 0.072338 0.144676 0.144676 0.072338 0.072338 0.144676 0.289352 0.144676 0.144676 0.289352 0.289352 0.144676 0.072338 0.144676 0.144676 0.072338 0.144676 0.072338 0.144676 0.289352 0.144676 0.289352 0.289352 0.072338 0.144676 0.144676 0.144676 0.072338 0.144676 0.289352 0.144676 0.289352 0.289352 0.072338 0.144676 0.144676 0.144676 0.072338 0.144676 0.289352 0.144676 0.289352 0.289352 0.072338 0.144676 0.144676 0.144676 0.072338 0.144676 0.289352 0.144676 0.289352 0.289352 0.072338 0.144676 0.144676 0.144676 0.072338 0.144676 0.289352 0.144676 0.289352 0.289352 0.072338 0.144676 0.144676 0.144676 0.072338 0.144676 0.289352 0.144676 0.289352 0.289352 0.072338 0.144676 0.144676 0.144676 0.072338 0.144676 0.289352 0.144676 0.289352 0.289352 0.072338 0.144676 0.144676 0.144676 0.072338 0.144676 0.289352 0.144676 0.289352 0.289352 0.072338 0.144676 0.144676 0.144676 0.072338 0.144676 0.289352 0.144676 0.289352 0.289352 0.072338 0.144676 0.144676 0.144676 0.072338 0.144676 0.289352 0.144676 0.289352 0.289352 0.072338 0.144676 0.144676 0.144676 0.072338 0.144676 0.289352 0.144676 0.289352 0.289352 0.072338 0.144676 0.144676 0.144676 0.072338 0.144676 0.289352 0.144676 0.289352 0.289352 0.072338 0.144676 0.144676 0.144676 0.072338 0.144676 0.289352 0.144676 0.289352 0.289352 0.072338 0.144676 0.144676 0.144676 0.072338 0.144676 0.289352 0.144676 0.289352 0.289352 0.072338 0.144676 0.144676 0.144676 0.072338 0.144676 0.289352 0.144676 0.289352 0.289352 0.072338 0.144676 0.144676 0.144676 0.072338 0.144676 0.289352 0.144676 0.289352 0.289352 0.072338 0.144676 0.144676 0.144676 0.072338 0.144676 0.289352 0.144676 0.289352 0.289352 0.072338 0.144676 0.144676 0.144676 0.072338 0.144676 0.289352 0.144676 0.289352 0.289352 0.0723379 0.144676 0.144676 0.144676 0.0723379 0.144676 0.289352 0.144676 0.289352 0.289352 0.0723379 0.144676 0.144676 0.144676 0.0723379 0.144676 0.289352 0.144676 0.289352 0.289352 0.072338 0.144676 0.144676 0.144676 0.072338 0.144676 0.289352 0.144676 0.289352 0.289352 0.072338 0.144676 0.144676 0.144676 0.072338 0.144676 0.289352 0.144676 0.289352 0.289352 0.0723379 0.144676 0.144676 0.144676 0.0723379 0.072338 0.144676 0.144676 0.144676 0.289352 0.072338 0.072338 0.144676 0.144676 0.072338 0.072338 0.144676 0.289352 0.144676 0.072338 0.144676 0.144676 0.072338 0.072338 0.144676 0.144676 0.072338 0.072338 0.072338 0.144676 0.289352 0.072338 0.144676 0.144676 0.072338 0.144676 0.144676 0.072338 0.072338 0.144676 0.289352 0.072338 0.144676 0.144676 0.072338 0.144676 0.144676 0.072338 0.072338 0.144676 0.289352 0.0723379 0.144676 0.144676 0.0723379 0.144676 0.144676 0.0723379 0.0723379 0.144676 0.289352 0.072338 0.144676 0.144676 0.072338 0.144676 0.144676 0.072338 0.072338 0.144676 0.289352 0.072338 0.144676 0.144676 0.072338 0.144676 0.144676 0.072338 0.072338 0.144676 0.289352 0.072338 0.144676 0.144676 0.072338 0.144676 0.144676 0.072338 0.072338 0.144676 0.289352 0.072338 0.144676 0.144676 0.072338 0.144676 0.144676 0.072338 0.072338 0.144676 0.289352 0.072338 0.144676 0.144676 0.072338 0.144676 0.144676 0.072338 0.072338 0.144676 0.289352 0.0723379 0.144676 0.144676 0.0723379 0.144676 0.144676 0.0723379 0.0723379 0.144676 0.289352 0.0723379 0.144676 0.144676 0.0723379 0.144676 0.144676 0.0723379 0.0723379 0.144676 0.289352 0.072338 0.144676 0.144676 0.072338 0.144676 0.144676 0.072338 0.072338 0.144676 0.289352 0.072338 0.144676 0.144676 0.072338 0.144676 0.144676 0.072338 0.072338 0.144676 0.289352 0.072338 0.144676 0.144676 0.072338 0.144676 0.144676 0.072338 0.072338 0.144676 0.289352 0.0723379 0.144676 0.144676 0.0723379 0.144676 0.144676 0.0723379 0.0723379 0.144676 0.289352 0.072338 0.144676 0.144676 0.072338 0.144676 0.144676 0.072338 0.072338 0.144676 0.289352 0.072338 0.144676 0.144676 0.072338 0.144676 0.144676 0.072338 0.072338 0.144676 0.289352 0.0723379 0.144676 0.144676 0.0723379 0.144676 0.144676 0.0723379 0.0723379 0.144676 0.289352 0.0723379 0.144676 0.144676 0.0723379 0.144676 0.144676 0.0723379 0.0723379 0.144676 0.289352 0.0723379 0.144676 0.144676 0.0723379 0.144676 0.144676 0.0723379 0.0723379 0.144676 0.289352 0.072338 0.144676 0.144676 0.072338 0.144676 0.144676 0.072338 0.072338 0.144676 0.289352 0.0723379 0.144676 0.144676 0.0723379 0.144676 0.144676 0.0723379 0.0723379 0.144676 0.289352 0.0723379 0.144676 0.144676 0.0723379 0.144676 0.144676 0.0723379 0.0723379 0.072338 0.144676 0.072338 0.072338 0.144676 0.072338 0.072338 0.144676 0.072338 0.072338 0.144676 0.144676 0.072338 0.289352 0.144676 0.289352 0.289352 0.144676 0.072338 0.144676 0.144676 0.072338 0.144676 0.072338 0.144676 0.144676 0.289352 0.289352 0.289352 0.072338 0.144676 0.144676 0.144676 0.072338 0.144676 0.144676 0.289352 0.289352 0.289352 0.072338 0.144676 0.144676 0.144676 0.072338 0.144676 0.144676 0.289352 0.289352 0.289352 0.0723379 0.144676 0.144676 0.144676 0.0723379 0.144676 0.144676 0.289352 0.289352 0.289352 0.072338 0.144676 0.144676 0.144676 0.072338 0.144676 0.144676 0.289352 0.289352 0.289352 0.072338 0.144676 0.144676 0.144676 0.072338 0.144676 0.144676 0.289352 0.289352 0.289352 0.072338 0.144676 0.144676 0.144676 0.072338 0.144676 0.144676 0.289352 0.289352 0.289352 0.072338 0.144676 0.144676 0.144676 0.072338 0.144676 0.144676 0.289352 0.289352 0.289352 0.072338 0.144676 0.144676 0.144676 0.072338 0.144676 0.144676 0.289352 0.289352 0.289352 0.0723379 0.144676 0.144676 0.144676 0.0723379 0.144676 0.144676 0.289352 0.289352 0.289352 0.0723379 0.144676 0.144676 0.144676 0.0723379 0.144676 0.144676 0.289352 0.289352 0.289352 0.072338 0.144676 0.144676 0.144676 0.072338 0.144676 0.144676 0.289352 0.289352 0.289352 0.072338 0.144676 0.144676 0.144676 0.072338 0.144676 0.144676 0.289352 0.289352 0.289352 0.072338 0.144676 0.144676 0.144676 0.072338 0.144676 0.144676 0.289352 0.289352 0.289352 0.0723379 0.144676 0.144676 0.144676 0.0723379 0.144676 0.144676 0.289352 0.289352 0.289352 0.072338 0.144676 0.144676 0.144676 0.072338 0.144676 0.144676 0.289352 0.289352 0.289352 0.072338 0.144676 0.144676 0.144676 0.072338 0.144676 0.144676 0.289352 0.289352 0.289352 0.0723379 0.144676 0.144676 0.144676 0.0723379 0.144676 0.144676 0.289352 0.289352 0.289352 0.0723379 0.144676 0.144676 0.144676 0.0723379 0.144676 0.144676 0.289352 0.289352 0.289352 0.0723379 0.144676 0.144676 0.144676 0.0723379 0.144676 0.144676 0.289352 0.289352 0.289352 0.072338 0.144676 0.144676 0.144676 0.072338 0.144676 0.144676 0.289352 0.289352 0.289352 0.0723379 0.144676 0.144676 0.144676 0.0723379 0.144676 0.144676 0.289352 0.289352 0.289352 0.0723379 0.144676 0.144676 0.144676 0.0723379 0.072338 0.144676 0.144676 0.144676 0.289352 0.072338 0.072338 0.144676 0.144676 0.072338 0.289352 0.144676 0.289352 0.289352 0.144676 0.144676 0.144676 0.072338 0.144676 0.072338 0.289352 0.289352 0.289352 0.144676 0.144676 0.144676 0.072338 0.289352 0.289352 0.289352 0.144676 0.144676 0.144676 0.072338 0.289352 0.289352 0.289352 0.144676 0.144676 0.144676 0.0723379 0.289352 0.289352 0.289352 0.144676 0.144676 0.144676 0.072338 0.289352 0.289352 0.289352 0.144676 0.144676 0.144676 0.072338 0.289352 0.289352 0.289352 0.144676 0.144676 0.144676 0.072338 0.289352 0.289352 0.289352 0.144676 0.144676 0.144676 0.0723379 0.289352 0.289352 0.289352 0.144676 0.144676 0.144676 0.072338 0.289352 0.289352 0.289352 0.144676 0.144676 0.144676 0.0723379 0.289352 0.289352 0.289352 0.144676 0.144676 0.144676 0.0723379 0.289352 0.289352 0.289352 0.144676 0.144676 0.144676 0.072338 0.289352 0.289352 0.289352 0.144676 0.144676 0.144676 0.072338 0.289352 0.289352 0.289352 0.144676 0.144676 0.144676 0.072338 0.289352 0.289352 0.289352 0.144676 0.144676 0.144676 0.0723379 0.289352 0.289352 0.289352 0.144676 0.144676 0.144676 0.072338 0.289352 0.289352 0.289352 0.144676 0.144676 0.144676 0.072338 0.289352 0.289352 0.289352 0.144676 0.144676 0.144676 0.0723379 0.289352 0.289352 0.289352 0.144676 0.144676 0.144676 0.0723379 0.289352 0.289352 0.289352 0.144676 0.144676 0.144676 0.0723379 0.289352 0.289352 0.289352 0.144676 0.144676 0.144676 0.072338 0.289352 0.289352 0.289352 0.144676 0.144676 0.144676 0.0723379 0.289352 0.289352 0.289352 0.144676 0.144676 0.144676 0.0723379 0.144676 0.144676 0.289352 0.072338 0.144676 0.144676 0.072338 0.289352 0.144676 0.289352 0.289352 0.144676 0.144676 0.144676 0.072338 0.144676 0.072338 0.289352 0.289352 0.289352 0.144676 0.144676 0.144676 0.072338 0.289352 0.289352 0.289352 0.144676 0.144676 0.144676 0.072338 0.289352 0.289352 0.289352 0.144676 0.144676 0.144676 0.072338 0.289352 0.289352 0.289352 0.144676 0.144676 0.144676 0.072338 0.289352 0.289352 0.289352 0.144676 0.144676 0.144676 0.072338 0.289352 0.289352 0.289352 0.144676 0.144676 0.144676 0.072338 0.289352 0.289352 0.289352 0.144676 0.144676 0.144676 0.072338 0.289352 0.289352 0.289352 0.144676 0.144676 0.144676 0.072338 0.289352 0.289352 0.289352 0.144676 0.144676 0.144676 0.0723379 0.289352 0.289352 0.289352 0.144676 0.144676 0.144676 0.0723379 0.289352 0.289352 0.289352 0.144676 0.144676 0.144676 0.072338 0.289352 0.289352 0.289352 0.144676 0.144676 0.144676 0.072338 0.289352 0.289352 0.289352 0.144676 0.144676 0.144676 0.072338 0.289352 0.289352 0.289352 0.144676 0.144676 0.144676 0.0723379 0.289352 0.289352 0.289352 0.144676 0.144676 0.144676 0.072338 0.289352 0.289352 0.289352 0.144676 0.144676 0.144676 0.072338 0.289352 0.289352 0.289352 0.144676 0.144676 0.144676 0.0723379 0.289352 0.289352 0.289352 0.144676 0.144676 0.144676 0.0723379 0.289352 0.289352 0.289351 0.144676 0.144676 0.144676 0.0723379 0.289352 0.289352 0.289352 0.144676 0.144676 0.144676 0.072338 0.289352 0.289352 0.289352 0.144676 0.144676 0.144676 0.0723379 0.289352 0.289352 0.289352 0.144676 0.144676 0.144676 0.0723379 0.144676 0.144676 0.289352 0.072338 0.144676 0.144676 0.072338 0.289352 0.144676 0.289352 0.289352 0.144676 0.144676 0.144676 0.0723379 0.144676 0.0723379 0.289352 0.289352 0.289352 0.144676 0.144676 0.144676 0.072338 0.289352 0.289352 0.289352 0.144676 0.144676 0.144676 0.072338 0.289352 0.289352 0.289352 0.144676 0.144676 0.144676 0.0723379 0.289352 0.289352 0.289352 0.144676 0.144676 0.144676 0.0723379 0.289352 0.289352 0.289352 0.144676 0.144676 0.144676 0.072338 0.289352 0.289352 0.289352 0.144676 0.144676 0.144676 0.072338 0.289352 0.289352 0.289352 0.144676 0.144676 0.144676 0.0723379 0.289352 0.289352 0.289352 0.144676 0.144676 0.144676 0.0723379 0.289352 0.289352 0.289352 0.144676 0.144676 0.144676 0.0723379 0.289352 0.289352 0.289352 0.144676 0.144676 0.144676 0.0723379 0.289352 0.289352 0.289352 0.144676 0.144676 0.144676 0.072338 0.289352 0.289352 0.289352 0.144676 0.144676 0.144676 0.0723379 0.289352 0.289352 0.289352 0.144676 0.144676 0.144676 0.072338 0.289352 0.289352 0.289352 0.144676 0.144676 0.144676 0.0723379 0.289352 0.289352 0.289352 0.144676 0.144676 0.144676 0.072338 0.289352 0.289352 0.289352 0.144676 0.144676 0.144676 0.072338 0.289352 0.289352 0.289352 0.144676 0.144676 0.144676 0.0723379 0.289352 0.289352 0.289352 0.144676 0.144676 0.144676 0.0723379 0.289352 0.289352 0.289351 0.144676 0.144676 0.144676 0.0723379 0.289352 0.289352 0.289352 0.144676 0.144676 0.144676 0.072338 0.289352 0.289352 0.289352 0.144676 0.144676 0.144676 0.0723379 0.289352 0.289352 0.289352 0.144676 0.144676 0.144676 0.0723379 0.144676 0.144676 0.289352 0.072338 0.144676 0.144676 0.072338 0.289352 0.144676 0.289352 0.289352 0.144676 0.144676 0.144676 0.072338 0.144676 0.072338 0.289352 0.289352 0.289352 0.144676 0.144676 0.144676 0.072338 0.289352 0.289352 0.289352 0.144676 0.144676 0.144676 0.072338 0.289352 0.289352 0.289352 0.144676 0.144676 0.144676 0.0723379 0.289352 0.289352 0.289352 0.144676 0.144676 0.144676 0.0723379 0.289352 0.289352 0.289352 0.144676 0.144676 0.144676 0.072338 0.289352 0.289352 0.289352 0.144676 0.144676 0.144676 0.072338 0.289352 0.289352 0.289352 0.144676 0.144676 0.144676 0.0723379 0.289352 0.289352 0.289352 0.144676 0.144676 0.144676 0.072338 0.289352 0.289352 0.289352 0.144676 0.144676 0.144676 0.0723379 0.289352 0.289352 0.289352 0.144676 0.144676 0.144676 0.0723379 0.289352 0.289352 0.289352 0.144676 0.144676 0.144676 0.072338 0.289352 0.289352 0.289352 0.144676 0.144676 0.144676 0.0723379 0.289352 0.289352 0.289352 0.144676 0.144676 0.144676 0.072338 0.289352 0.289352 0.289352 0.144676 0.144676 0.144676 0.0723379 0.289352 0.289352 0.289352 0.144676 0.144676 0.144676 0.072338 0.289352 0.289352 0.289352 0.144676 0.144676 0.144676 0.072338 0.289352 0.289352 0.289352 0.144676 0.144676 0.144676 0.0723379 0.289352 0.289352 0.289352 0.144676 0.144676 0.144676 0.0723379 0.289352 0.289352 0.289352 0.144676 0.144676 0.144676 0.0723379 0.289352 0.289352 0.289352 0.144676 0.144676 0.144676 0.072338 0.289352 0.289352 0.289352 0.144676 0.144676 0.144676 0.0723379 0.289352 0.289352 0.289352 0.144676 0.144676 0.144676 0.0723379 0.144676 0.144676 0.289352 0.072338 0.144676 0.144676 0.072338 0.289352 0.144676 0.289352 0.289352 0.144676 0.144676 0.144676 0.072338 0.144676 0.072338 0.289352 0.289352 0.289352 0.144676 0.144676 0.144676 0.072338 0.289352 0.289352 0.289352 0.144676 0.144676 0.144676 0.072338 0.289352 0.289352 0.289352 0.144676 0.144676 0.144676 0.072338 0.289352 0.289352 0.289352 0.144676 0.144676 0.144676 0.072338 0.289352 0.289352 0.289352 0.144676 0.144676 0.144676 0.072338 0.289352 0.289352 0.289352 0.144676 0.144676 0.144676 0.072338 0.289352 0.289352 0.289352 0.144676 0.144676 0.144676 0.072338 0.289352 0.289352 0.289352 0.144676 0.144676 0.144676 0.072338 0.289352 0.289352 0.289352 0.144676 0.144676 0.144676 0.0723379 0.289352 0.289352 0.289352 0.144676 0.144676 0.144676 0.0723379 0.289352 0.289352 0.289352 0.144676 0.144676 0.144676 0.072338 0.289352 0.289352 0.289352 0.144676 0.144676 0.144676 0.072338 0.289352 0.289352 0.289352 0.144676 0.144676 0.144676 0.072338 0.289352 0.289352 0.289352 0.144676 0.144676 0.144676 0.0723379 0.289352 0.289352 0.289352 0.144676 0.144676 0.144676 0.072338 0.289352 0.289352 0.289352 0.144676 0.144676 0.144676 0.072338 0.289352 0.289352 0.289352 0.144676 0.144676 0.144676 0.0723379 0.289352 0.289352 0.289352 0.144676 0.144676 0.144676 0.0723379 0.289352 0.289352 0.289352 0.144676 0.144676 0.144676 0.0723379 0.289352 0.289352 0.289352 0.144676 0.144676 0.144676 0.072338 0.289352 0.289352 0.289352 0.144676 0.144676 0.144676 0.0723379 0.289352 0.289352 0.289352 0.144676 0.144676 0.144676 0.0723379 0.144676 0.144676 0.289352 0.072338 0.144676 0.144676 0.072338 0.289352 0.144676 0.289352 0.289352 0.144676 0.144676 0.144676 0.072338 0.144676 0.072338 0.289352 0.289352 0.289352 0.144676 0.144676 0.144676 0.072338 0.289352 0.289352 0.289352 0.144676 0.144676 0.144676 0.072338 0.289352 0.289352 0.289352 0.144676 0.144676 0.144676 0.072338 0.289352 0.289352 0.289352 0.144676 0.144676 0.144676 0.072338 0.289352 0.289352 0.289352 0.144676 0.144676 0.144676 0.072338 0.289352 0.289352 0.289352 0.144676 0.144676 0.144676 0.072338 0.289352 0.289352 0.289352 0.144676 0.144676 0.144676 0.072338 0.289352 0.289352 0.289352 0.144676 0.144676 0.144676 0.072338 0.289352 0.289352 0.289352 0.144676 0.144676 0.144676 0.0723379 0.289352 0.289352 0.289352 0.144676 0.144676 0.144676 0.0723379 0.289352 0.289352 0.289352 0.144676 0.144676 0.144676 0.072338 0.289352 0.289352 0.289352 0.144676 0.144676 0.144676 0.072338 0.289352 0.289352 0.289352 0.144676 0.144676 0.144676 0.072338 0.289352 0.289352 0.289352 0.144676 0.144676 0.144676 0.0723379 0.289352 0.289352 0.289352 0.144676 0.144676 0.144676 0.072338 0.289352 0.289352 0.289352 0.144676 0.144676 0.144676 0.072338 0.289352 0.289352 0.289352 0.144676 0.144676 0.144676 0.072338 0.289352 0.289352 0.289352 0.144676 0.144676 0.144676 0.0723379 0.289352 0.289352 0.289351 0.144676 0.144676 0.144676 0.0723379 0.289352 0.289352 0.289352 0.144676 0.144676 0.144676 0.072338 0.289352 0.289352 0.289352 0.144676 0.144676 0.144676 0.0723379 0.289352 0.289352 0.289352 0.144676 0.144676 0.144676 0.0723379 0.144676 0.144676 0.289352 0.072338 0.144676 0.144676 0.072338 0.289352 0.144676 0.144676 0.144676 0.0723379 0.144676 0.144676 0.0723379 0.0723379 0.0723379 0.289352 0.144676 0.144676 0.144676 0.144676 0.0723379 0.0723379 0.289352 0.144676 0.144676 0.144676 0.144676 0.072338 0.072338 0.289352 0.144676 0.144676 0.144676 0.144676 0.0723379 0.0723379 0.289352 0.144676 0.144676 0.144676 0.144676 0.0723379 0.0723379 0.289352 0.144676 0.144676 0.144676 0.144676 0.0723379 0.0723379 0.289352 0.144676 0.144676 0.144676 0.144676 0.0723379 0.0723379 0.289352 0.144676 0.144676 0.144676 0.144676 0.0723379 0.0723379 0.289352 0.144676 0.144676 0.144676 0.144676 0.0723379 0.0723379 0.289352 0.144676 0.144676 0.144676 0.144676 0.0723379 0.0723379 0.289352 0.144676 0.144676 0.144676 0.144676 0.0723379 0.0723379 0.289352 0.144676 0.144676 0.144676 0.144676 0.0723379 0.0723379 0.289352 0.144676 0.144676 0.144676 0.144676 0.0723379 0.0723379 0.289352 0.144676 0.144676 0.144676 0.144676 0.072338 0.072338 0.289352 0.144676 0.144676 0.144676 0.144676 0.0723379 0.0723379 0.289352 0.144676 0.144676 0.144676 0.144676 0.072338 0.072338 0.289352 0.144676 0.144676 0.144676 0.144676 0.0723379 0.0723379 0.289352 0.144676 0.144676 0.144676 0.144676 0.0723379 0.0723379 0.289351 0.144676 0.144676 0.144676 0.144676 0.0723379 0.0723379 0.289352 0.144676 0.144676 0.144676 0.144676 0.0723379 0.0723379 0.289352 0.144676 0.144676 0.144676 0.144676 0.072338 0.072338 0.289352 0.144676 0.144676 0.144676 0.144676 0.0723379 0.0723379 0.289352 0.144676 0.144676 0.144676 0.144676 0.0723379 0.0723379 0.144676 0.072338 0.144676 0.072338 0.144676 0.072338 0.072338 0.144676 0.144676 0.0723379 0.289352 0.144676 0.289352 0.289352 0.144676 0.0723379 0.144676 0.144676 0.0723379 0.144676 0.0723379 0.144676 0.144676 0.289352 0.289352 0.289352 0.0723379 0.144676 0.144676 0.144676 0.0723379 0.144676 0.144676 0.289352 0.289352 0.289352 0.0723379 0.144676 0.144676 0.144676 0.0723379 0.144676 0.144676 0.289352 0.289352 0.289352 0.0723379 0.144676 0.144676 0.144676 0.0723379 0.144676 0.144676 0.289352 0.289352 0.289352 0.0723379 0.144676 0.144676 0.144676 0.0723379 0.144676 0.144676 0.289352 0.289352 0.289352 0.0723379 0.144676 0.144676 0.144676 0.0723379 0.144676 0.144676 0.289352 0.289352 0.289352 0.0723379 0.144676 0.144676 0.144676 0.0723379 0.144676 0.144676 0.289352 0.289352 0.289352 0.0723379 0.144676 0.144676 0.144676 0.0723379 0.144676 0.144676 0.289352 0.289352 0.289352 0.0723379 0.144676 0.144676 0.144676 0.0723379 0.144676 0.144676 0.289352 0.289352 0.289352 0.0723379 0.144676 0.144676 0.144676 0.0723379 0.144676 0.144676 0.289352 0.289352 0.289352 0.0723379 0.144676 0.144676 0.144676 0.0723379 0.144676 0.144676 0.289352 0.289352 0.289352 0.0723379 0.144676 0.144676 0.144676 0.0723379 0.144676 0.144676 0.289352 0.289352 0.289352 0.0723379 0.144676 0.144676 0.144676 0.0723379 0.144676 0.144676 0.289352 0.289352 0.289352 0.0723379 0.144676 0.144676 0.144676 0.0723379 0.144676 0.144676 0.289352 0.289352 0.289352 0.0723379 0.144676 0.144676 0.144676 0.0723379 0.144676 0.144676 0.289352 0.289352 0.289352 0.0723379 0.144676 0.144676 0.144676 0.0723379 0.144676 0.144676 0.289352 0.289352 0.289352 0.0723379 0.144676 0.144676 0.144676 0.0723379 0.144676 0.144676 0.289352 0.289352 0.289352 0.0723379 0.144676 0.144676 0.144676 0.0723379 0.144676 0.144676 0.289352 0.289352 0.289352 0.0723379 0.144676 0.144676 0.144676 0.0723379 0.144676 0.144676 0.289352 0.289352 0.289352 0.0723379 0.144676 0.144676 0.144676 0.0723379 0.144676 0.144676 0.289352 0.289352 0.289352 0.0723379 0.144676 0.144676 0.144676 0.0723379 0.144676 0.144676 0.289352 0.289352 0.289352 0.0723379 0.144676 0.144676 0.144676 0.0723379 0.144676 0.144676 0.289352 0.289352 0.289352 0.0723379 0.144676 0.144676 0.144676 0.0723379 0.0723379 0.144676 0.144676 0.144676 0.289352 0.0723379 0.0723379 0.144676 0.144676 0.0723379 0.289352 0.144676 0.289352 0.289352 0.144676 0.144676 0.144676 0.0723379 0.144676 0.0723379 0.289352 0.289352 0.289352 0.144676 0.144676 0.144676 0.0723379 0.289352 0.289352 0.289352 0.144676 0.144676 0.144676 0.0723379 0.289352 0.289352 0.289352 0.144676 0.144676 0.144676 0.0723379 0.289352 0.289352 0.289352 0.144676 0.144676 0.144676 0.0723379 0.289352 0.289352 0.289352 0.144676 0.144676 0.144676 0.0723379 0.289352 0.289352 0.289352 0.144676 0.144676 0.144676 0.0723379 0.289352 0.289352 0.289352 0.144676 0.144676 0.144676 0.0723379 0.289352 0.289352 0.289352 0.144676 0.144676 0.144676 0.0723379 0.289352 0.289352 0.289352 0.144676 0.144676 0.144676 0.0723379 0.289352 0.289352 0.289352 0.144676 0.144676 0.144676 0.0723379 0.289352 0.289352 0.289352 0.144676 0.144676 0.144676 0.0723379 0.289352 0.289352 0.289352 0.144676 0.144676 0.144676 0.0723379 0.289352 0.289352 0.289352 0.144676 0.144676 0.144676 0.0723379 0.289352 0.289352 0.289352 0.144676 0.144676 0.144676 0.0723379 0.289352 0.289352 0.289352 0.144676 0.144676 0.144676 0.0723379 0.289352 0.289352 0.289352 0.144676 0.144676 0.144676 0.0723379 0.289352 0.289352 0.289352 0.144676 0.144676 0.144676 0.0723379 0.289352 0.289351 0.289352 0.144676 0.144676 0.144676 0.0723379 0.289352 0.289352 0.289352 0.144676 0.144676 0.144676 0.0723379 0.289352 0.289352 0.289352 0.144676 0.144676 0.144676 0.0723379 0.289352 0.289352 0.289352 0.144676 0.144676 0.144676 0.0723379 0.289352 0.289352 0.289352 0.144676 0.144676 0.144676 0.0723379 0.144676 0.144676 0.289352 0.0723379 0.144676 0.144676 0.0723379 0.289352 0.144676 0.289352 0.289352 0.144676 0.144676 0.144676 0.0723379 0.144676 0.0723379 0.289352 0.289352 0.289352 0.144676 0.144676 0.144676 0.0723379 0.289352 0.289352 0.289352 0.144676 0.144676 0.144676 0.0723379 0.289352 0.289352 0.289352 0.144676 0.144676 0.144676 0.0723379 0.289352 0.289352 0.289352 0.144676 0.144676 0.144676 0.0723379 0.289352 0.289352 0.289352 0.144676 0.144676 0.144676 0.0723379 0.289352 0.289352 0.289352 0.144676 0.144676 0.144676 0.0723379 0.289352 0.289352 0.289352 0.144676 0.144676 0.144676 0.0723379 0.289352 0.289352 0.289352 0.144676 0.144676 0.144676 0.0723379 0.289352 0.289352 0.289352 0.144676 0.144676 0.144676 0.0723379 0.289352 0.289352 0.289352 0.144676 0.144676 0.144676 0.0723379 0.289352 0.289352 0.289352 0.144676 0.144676 0.144676 0.0723379 0.289352 0.289352 0.289352 0.144676 0.144676 0.144676 0.0723379 0.289352 0.289352 0.289352 0.144676 0.144676 0.144676 0.0723379 0.289352 0.289352 0.289352 0.144676 0.144676 0.144676 0.0723379 0.289352 0.289352 0.289352 0.144676 0.144676 0.144676 0.0723379 0.289352 0.289352 0.289352 0.144676 0.144676 0.144676 0.0723379 0.289352 0.289352 0.289352 0.144676 0.144676 0.144676 0.0723379 0.289352 0.289351 0.289352 0.144676 0.144676 0.144676 0.0723379 0.289352 0.289352 0.289352 0.144676 0.144676 0.144676 0.0723379 0.289352 0.289352 0.289352 0.144676 0.144676 0.144676 0.0723379 0.289352 0.289352 0.289352 0.144676 0.144676 0.144676 0.0723379 0.289352 0.289352 0.289352 0.144676 0.144676 0.144676 0.0723379 0.144676 0.144676 0.289352 0.0723379 0.144676 0.144676 0.0723379 0.289352 0.144676 0.289352 0.289352 0.144676 0.144676 0.144676 0.0723379 0.144676 0.0723379 0.289352 0.289352 0.289352 0.144676 0.144676 0.144676 0.0723379 0.289352 0.289352 0.289352 0.144676 0.144676 0.144676 0.0723379 0.289352 0.289352 0.289352 0.144676 0.144676 0.144676 0.0723379 0.289352 0.289352 0.289352 0.144676 0.144676 0.144676 0.0723379 0.289352 0.289352 0.289352 0.144676 0.144676 0.144676 0.0723379 0.289352 0.289352 0.289352 0.144676 0.144676 0.144676 0.0723379 0.289352 0.289352 0.289352 0.144676 0.144676 0.144676 0.0723379 0.289352 0.289352 0.289352 0.144676 0.144676 0.144676 0.0723379 0.289352 0.289352 0.289352 0.144676 0.144676 0.144676 0.0723379 0.289352 0.289352 0.289352 0.144676 0.144676 0.144676 0.0723379 0.289352 0.289352 0.289352 0.144676 0.144676 0.144676 0.0723379 0.289352 0.289352 0.289352 0.144676 0.144676 0.144676 0.0723379 0.289352 0.289352 0.289352 0.144676 0.144676 0.144676 0.0723379 0.289352 0.289352 0.289352 0.144676 0.144676 0.144676 0.0723379 0.289352 0.289352 0.289352 0.144676 0.144676 0.144676 0.0723379 0.289352 0.289352 0.289352 0.144676 0.144676 0.144676 0.0723379 0.289352 0.289351 0.289352 0.144676 0.144676 0.144676 0.0723379 0.289352 0.289351 0.289352 0.144676 0.144676 0.144676 0.0723379 0.289352 0.289352 0.289352 0.144676 0.144676 0.144676 0.0723378 0.289352 0.289352 0.289352 0.144676 0.144676 0.144676 0.0723379 0.289352 0.289352 0.289352 0.144676 0.144676 0.144676 0.0723379 0.289352 0.289352 0.289352 0.144676 0.144676 0.144676 0.0723379 0.144676 0.144676 0.289352 0.0723379 0.144676 0.144676 0.0723379 0.289352 0.144676 0.289352 0.289352 0.144676 0.144676 0.144676 0.0723379 0.144676 0.0723379 0.289352 0.289352 0.289352 0.144676 0.144676 0.144676 0.0723379 0.289352 0.289352 0.289352 0.144676 0.144676 0.144676 0.0723379 0.289352 0.289352 0.289352 0.144676 0.144676 0.144676 0.0723379 0.289352 0.289352 0.289352 0.144676 0.144676 0.144676 0.0723379 0.289352 0.289352 0.289352 0.144676 0.144676 0.144676 0.0723379 0.289352 0.289352 0.289352 0.144676 0.144676 0.144676 0.0723379 0.289352 0.289352 0.289352 0.144676 0.144676 0.144676 0.0723379 0.289352 0.289352 0.289352 0.144676 0.144676 0.144676 0.0723379 0.289352 0.289352 0.289352 0.144676 0.144676 0.144676 0.0723379 0.289352 0.289352 0.289352 0.144676 0.144676 0.144676 0.0723379 0.289352 0.289352 0.289352 0.144676 0.144676 0.144676 0.0723379 0.289352 0.289352 0.289352 0.144676 0.144676 0.144676 0.0723379 0.289352 0.289352 0.289352 0.144676 0.144676 0.144676 0.0723379 0.289352 0.289352 0.289352 0.144676 0.144676 0.144676 0.0723379 0.289352 0.289352 0.289352 0.144676 0.144676 0.144676 0.0723379 0.289352 0.289352 0.289352 0.144676 0.144676 0.144676 0.0723379 0.289352 0.289352 0.289352 0.144676 0.144676 0.144676 0.0723379 0.289352 0.289351 0.289352 0.144676 0.144676 0.144676 0.0723379 0.289352 0.289352 0.289352 0.144676 0.144676 0.144676 0.0723378 0.289352 0.289352 0.289352 0.144676 0.144676 0.144676 0.0723379 0.289352 0.289352 0.289352 0.144676 0.144676 0.144676 0.0723379 0.289352 0.289352 0.289352 0.144676 0.144676 0.144676 0.0723379 0.144676 0.144676 0.289352 0.0723379 0.144676 0.144676 0.0723379 0.289352 0.144676 0.289352 0.289352 0.144676 0.144676 0.144676 0.0723379 0.144676 0.0723379 0.289352 0.289352 0.289352 0.144676 0.144676 0.144676 0.0723379 0.289352 0.289352 0.289352 0.144676 0.144676 0.144676 0.0723379 0.289352 0.289352 0.289352 0.144676 0.144676 0.144676 0.0723379 0.289352 0.289352 0.289352 0.144676 0.144676 0.144676 0.0723379 0.289352 0.289352 0.289352 0.144676 0.144676 0.144676 0.0723379 0.289352 0.289352 0.289352 0.144676 0.144676 0.144676 0.0723379 0.289352 0.289352 0.289352 0.144676 0.144676 0.144676 0.0723379 0.289352 0.289352 0.289352 0.144676 0.144676 0.144676 0.0723379 0.289352 0.289352 0.289352 0.144676 0.144676 0.144676 0.0723379 0.289352 0.289352 0.289352 0.144676 0.144676 0.144676 0.0723379 0.289352 0.289352 0.289352 0.144676 0.144676 0.144676 0.0723379 0.289352 0.289352 0.289352 0.144676 0.144676 0.144676 0.0723379 0.289352 0.289352 0.289352 0.144676 0.144676 0.144676 0.0723379 0.289352 0.289352 0.289352 0.144676 0.144676 0.144676 0.0723379 0.289352 0.289352 0.289352 0.144676 0.144676 0.144676 0.0723379 0.289352 0.289352 0.289352 0.144676 0.144676 0.144676 0.0723379 0.289352 0.289352 0.289352 0.144676 0.144676 0.144676 0.0723379 0.289352 0.289351 0.289352 0.144676 0.144676 0.144676 0.0723379 0.289352 0.289352 0.289352 0.144676 0.144676 0.144676 0.0723379 0.289352 0.289352 0.289352 0.144676 0.144676 0.144676 0.0723379 0.289352 0.289352 0.289352 0.144676 0.144676 0.144676 0.0723379 0.289352 0.289352 0.289352 0.144676 0.144676 0.144676 0.0723379 0.144676 0.144676 0.289352 0.0723379 0.144676 0.144676 0.0723379 0.289352 0.144676 0.289352 0.289352 0.144676 0.144676 0.144676 0.0723379 0.144676 0.0723379 0.289352 0.289352 0.289352 0.144676 0.144676 0.144676 0.0723379 0.289352 0.289352 0.289352 0.144676 0.144676 0.144676 0.0723379 0.289352 0.289352 0.289352 0.144676 0.144676 0.144676 0.0723379 0.289352 0.289352 0.289352 0.144676 0.144676 0.144676 0.0723379 0.289352 0.289352 0.289352 0.144676 0.144676 0.144676 0.0723379 0.289352 0.289352 0.289352 0.144676 0.144676 0.144676 0.0723379 0.289352 0.289352 0.289352 0.144676 0.144676 0.144676 0.0723379 0.289352 0.289352 0.289352 0.144676 0.144676 0.144676 0.0723379 0.289352 0.289352 0.289352 0.144676 0.144676 0.144676 0.0723379 0.289352 0.289352 0.289352 0.144676 0.144676 0.144676 0.0723379 0.289352 0.289352 0.289352 0.144676 0.144676 0.144676 0.0723379 0.289352 0.289352 0.289352 0.144676 0.144676 0.144676 0.0723379 0.289352 0.289352 0.289352 0.144676 0.144676 0.144676 0.0723379 0.289352 0.289352 0.289352 0.144676 0.144676 0.144676 0.0723379 0.289352 0.289352 0.289352 0.144676 0.144676 0.144676 0.0723379 0.289352 0.289352 0.289352 0.144676 0.144676 0.144676 0.0723379 0.289352 0.289352 0.289352 0.144676 0.144676 0.144676 0.0723379 0.289352 0.289351 0.289352 0.144676 0.144676 0.144676 0.0723379 0.289352 0.289352 0.289352 0.144676 0.144676 0.144676 0.0723379 0.289352 0.289352 0.289352 0.144676 0.144676 0.144676 0.0723379 0.289352 0.289352 0.289352 0.144676 0.144676 0.144676 0.0723379 0.289352 0.289352 0.289352 0.144676 0.144676 0.144676 0.0723379 0.144676 0.144676 0.289352 0.0723379 0.144676 0.144676 0.0723379 0.289352 0.144676 0.144676 0.144676 0.0723379 0.144676 0.144676 0.0723379 0.0723379 0.0723379 0.289352 0.144676 0.144676 0.144676 0.144676 0.0723379 0.0723379 0.289352 0.144676 0.144676 0.144676 0.144676 0.0723379 0.0723379 0.289352 0.144676 0.144676 0.144676 0.144676 0.0723379 0.0723379 0.289352 0.144676 0.144676 0.144676 0.144676 0.0723379 0.0723379 0.289352 0.144676 0.144676 0.144676 0.144676 0.0723379 0.0723379 0.289352 0.144676 0.144676 0.144676 0.144676 0.0723379 0.0723379 0.289352 0.144676 0.144676 0.144676 0.144676 0.0723379 0.0723379 0.289352 0.144676 0.144676 0.144676 0.144676 0.0723379 0.0723379 0.289352 0.144676 0.144676 0.144676 0.144676 0.0723379 0.0723379 0.289352 0.144676 0.144676 0.144676 0.144676 0.0723379 0.0723379 0.289352 0.144676 0.144676 0.144676 0.144676 0.0723379 0.0723379 0.289352 0.144676 0.144676 0.144676 0.144676 0.0723379 0.0723379 0.289352 0.144676 0.144676 0.144676 0.144676 0.0723379 0.0723379 0.289352 0.144676 0.144676 0.144676 0.144676 0.0723379 0.0723379 0.289352 0.144676 0.144676 0.144676 0.144676 0.0723379 0.0723379 0.289352 0.144676 0.144676 0.144676 0.144676 0.0723379 0.0723379 0.289352 0.144676 0.144676 0.144676 0.144676 0.0723379 0.0723379 0.289352 0.144676 0.144676 0.144676 0.144676 0.0723379 0.0723379 0.289352 0.144676 0.144676 0.144676 0.144676 0.0723378 0.0723378 0.289352 0.144676 0.144676 0.144676 0.144676 0.0723379 0.0723379 0.289352 0.144676 0.144676 0.144676 0.144676 0.0723379 0.0723379 0.289352 0.144676 0.144676 0.144676 0.144676 0.0723379 0.0723379 0.144676 0.0723379 0.144676 0.0723379 0.144676 0.0723379 0.0723379 0.144676 0.144676 0.072338 0.289352 0.144676 0.289352 0.289352 0.144676 0.072338 0.144676 0.144676 0.072338 0.144676 0.072338 0.144676 0.144676 0.289352 0.289352 0.289352 0.072338 0.144676 0.144676 0.144676 0.072338 0.144676 0.144676 0.289352 0.289352 0.289352 0.072338 0.144676 0.144676 0.144676 0.072338 0.144676 0.144676 0.289352 0.289352 0.289352 0.072338 0.144676 0.144676 0.144676 0.072338 0.144676 0.144676 0.289352 0.289352 0.289352 0.072338 0.144676 0.144676 0.144676 0.072338 0.144676 0.144676 0.289352 0.289352 0.289352 0.072338 0.144676 0.144676 0.144676 0.072338 0.144676 0.144676 0.289352 0.289352 0.289352 0.072338 0.144676 0.144676 0.144676 0.072338 0.144676 0.144676 0.289352 0.289352 0.289352 0.072338 0.144676 0.144676 0.144676 0.072338 0.144676 0.144676 0.289352 0.289352 0.289352 0.072338 0.144676 0.144676 0.144676 0.072338 0.144676 0.144676 0.289352 0.289352 0.289352 0.072338 0.144676 0.144676 0.144676 0.072338 0.144676 0.144676 0.289352 0.289352 0.289352 0.072338 0.144676 0.144676 0.144676 0.072338 0.144676 0.144676 0.289352 0.289352 0.289352 0.072338 0.144676 0.144676 0.144676 0.072338 0.144676 0.144676 0.289352 0.289352 0.289352 0.072338 0.144676 0.144676 0.144676 0.072338 0.144676 0.144676 0.289352 0.289352 0.289352 0.072338 0.144676 0.144676 0.144676 0.072338 0.144676 0.144676 0.289352 0.289352 0.289352 0.072338 0.144676 0.144676 0.144676 0.072338 0.144676 0.144676 0.289352 0.289352 0.289352 0.072338 0.144676 0.144676 0.144676 0.072338 0.144676 0.144676 0.289352 0.289352 0.289352 0.072338 0.144676 0.144676 0.144676 0.072338 0.144676 0.144676 0.289352 0.289352 0.289352 0.072338 0.144676 0.144676 0.144676 0.072338 0.144676 0.144676 0.289352 0.289352 0.289352 0.072338 0.144676 0.144676 0.144676 0.072338 0.144676 0.144676 0.289352 0.289352 0.289352 0.0723379 0.144676 0.144676 0.144676 0.0723379 0.144676 0.144676 0.289352 0.289352 0.289352 0.072338 0.144676 0.144676 0.144676 0.072338 0.144676 0.144676 0.289352 0.289352 0.289352 0.072338 0.144676 0.144676 0.144676 0.072338 0.144676 0.144676 0.289352 0.289352 0.289352 0.072338 0.144676 0.144676 0.144676 0.072338 0.072338 0.144676 0.144676 0.144676 0.289352 0.072338 0.072338 0.144676 0.144676 0.072338 0.289352 0.144676 0.289352 0.289352 0.144676 0.144676 0.144676 0.072338 0.144676 0.072338 0.289352 0.289352 0.289352 0.144676 0.144676 0.144676 0.072338 0.289352 0.289352 0.289352 0.144676 0.144676 0.144676 0.072338 0.289352 0.289352 0.289352 0.144676 0.144676 0.144676 0.072338 0.289352 0.289352 0.289352 0.144676 0.144676 0.144676 0.072338 0.289352 0.289352 0.289352 0.144676 0.144676 0.144676 0.072338 0.289352 0.289352 0.289352 0.144676 0.144676 0.144676 0.072338 0.289352 0.289352 0.289352 0.144676 0.144676 0.144676 0.072338 0.289352 0.289352 0.289352 0.144676 0.144676 0.144676 0.072338 0.289352 0.289352 0.289352 0.144676 0.144676 0.144676 0.072338 0.289352 0.289352 0.289352 0.144676 0.144676 0.144676 0.072338 0.289352 0.289352 0.289352 0.144676 0.144676 0.144676 0.072338 0.289352 0.289352 0.289352 0.144676 0.144676 0.144676 0.072338 0.289352 0.289352 0.289352 0.144676 0.144676 0.144676 0.072338 0.289352 0.289352 0.289352 0.144676 0.144676 0.144676 0.0723379 0.289352 0.289352 0.289352 0.144676 0.144676 0.144676 0.072338 0.289352 0.289352 0.289352 0.144676 0.144676 0.144676 0.072338 0.289352 0.289352 0.289352 0.144676 0.144676 0.144676 0.072338 0.289352 0.289352 0.289352 0.144676 0.144676 0.144676 0.0723379 0.289352 0.289352 0.289352 0.144676 0.144676 0.144676 0.0723379 0.289352 0.289352 0.289352 0.144676 0.144676 0.144676 0.072338 0.289352 0.289352 0.289352 0.144676 0.144676 0.144676 0.072338 0.289352 0.289352 0.289352 0.144676 0.144676 0.144676 0.0723379 0.144676 0.144676 0.289352 0.072338 0.144676 0.144676 0.072338 0.289352 0.144676 0.289352 0.289352 0.144676 0.144676 0.144676 0.072338 0.144676 0.072338 0.289352 0.289352 0.289352 0.144676 0.144676 0.144676 0.072338 0.289352 0.289352 0.289352 0.144676 0.144676 0.144676 0.072338 0.289352 0.289352 0.289352 0.144676 0.144676 0.144676 0.072338 0.289352 0.289352 0.289352 0.144676 0.144676 0.144676 0.072338 0.289352 0.289352 0.289352 0.144676 0.144676 0.144676 0.072338 0.289352 0.289352 0.289352 0.144676 0.144676 0.144676 0.072338 0.289352 0.289352 0.289352 0.144676 0.144676 0.144676 0.072338 0.289352 0.289352 0.289352 0.144676 0.144676 0.144676 0.072338 0.289352 0.289352 0.289352 0.144676 0.144676 0.144676 0.072338 0.289352 0.289352 0.289352 0.144676 0.144676 0.144676 0.072338 0.289352 0.289352 0.289352 0.144676 0.144676 0.144676 0.072338 0.289352 0.289352 0.289352 0.144676 0.144676 0.144676 0.072338 0.289352 0.289352 0.289352 0.144676 0.144676 0.144676 0.072338 0.289352 0.289352 0.289352 0.144676 0.144676 0.144676 0.0723379 0.289352 0.289352 0.289352 0.144676 0.144676 0.144676 0.072338 0.289352 0.289352 0.289352 0.144676 0.144676 0.144676 0.072338 0.289352 0.289352 0.289352 0.144676 0.144676 0.144676 0.072338 0.289352 0.289352 0.289352 0.144676 0.144676 0.144676 0.0723379 0.289352 0.289352 0.289352 0.144676 0.144676 0.144676 0.0723379 0.289352 0.289352 0.289352 0.144676 0.144676 0.144676 0.072338 0.289352 0.289352 0.289352 0.144676 0.144676 0.144676 0.072338 0.289352 0.289352 0.289352 0.144676 0.144676 0.144676 0.0723379 0.144676 0.144676 0.289352 0.072338 0.144676 0.144676 0.072338 0.289352 0.144676 0.289352 0.289352 0.144676 0.144676 0.144676 0.072338 0.144676 0.072338 0.289352 0.289352 0.289352 0.144676 0.144676 0.144676 0.072338 0.289352 0.289352 0.289352 0.144676 0.144676 0.144676 0.072338 0.289352 0.289352 0.289352 0.144676 0.144676 0.144676 0.072338 0.289352 0.289352 0.289352 0.144676 0.144676 0.144676 0.072338 0.289352 0.289352 0.289352 0.144676 0.144676 0.144676 0.072338 0.289352 0.289352 0.289352 0.144676 0.144676 0.144676 0.072338 0.289352 0.289352 0.289352 0.144676 0.144676 0.144676 0.072338 0.289352 0.289352 0.289352 0.144676 0.144676 0.144676 0.072338 0.289352 0.289352 0.289352 0.144676 0.144676 0.144676 0.0723379 0.289352 0.289352 0.289352 0.144676 0.144676 0.144676 0.0723379 0.289352 0.289352 0.289352 0.144676 0.144676 0.144676 0.072338 0.289352 0.289352 0.289352 0.144676 0.144676 0.144676 0.072338 0.289352 0.289352 0.289352 0.144676 0.144676 0.144676 0.072338 0.289352 0.289352 0.289352 0.144676 0.144676 0.144676 0.0723379 0.289352 0.289352 0.289352 0.144676 0.144676 0.144676 0.072338 0.289352 0.289352 0.289352 0.144676 0.144676 0.144676 0.072338 0.289352 0.289352 0.289352 0.144676 0.144676 0.144676 0.072338 0.289352 0.289352 0.289352 0.144676 0.144676 0.144676 0.0723379 0.289352 0.289352 0.289352 0.144676 0.144676 0.144676 0.0723379 0.289352 0.289352 0.289352 0.144676 0.144676 0.144676 0.072338 0.289352 0.289352 0.289352 0.144676 0.144676 0.144676 0.072338 0.289352 0.289352 0.289352 0.144676 0.144676 0.144676 0.0723379 0.144676 0.144676 0.289352 0.072338 0.144676 0.144676 0.072338 0.289352 0.144676 0.289352 0.289352 0.144676 0.144676 0.144676 0.072338 0.144676 0.072338 0.289352 0.289352 0.289352 0.144676 0.144676 0.144676 0.072338 0.289352 0.289352 0.289352 0.144676 0.144676 0.144676 0.072338 0.289352 0.289352 0.289352 0.144676 0.144676 0.144676 0.072338 0.289352 0.289352 0.289352 0.144676 0.144676 0.144676 0.072338 0.289352 0.289352 0.289352 0.144676 0.144676 0.144676 0.072338 0.289352 0.289352 0.289352 0.144676 0.144676 0.144676 0.072338 0.289352 0.289352 0.289352 0.144676 0.144676 0.144676 0.072338 0.289352 0.289352 0.289352 0.144676 0.144676 0.144676 0.072338 0.289352 0.289352 0.289352 0.144676 0.144676 0.144676 0.0723379 0.289352 0.289352 0.289352 0.144676 0.144676 0.144676 0.0723379 0.289352 0.289352 0.289352 0.144676 0.144676 0.144676 0.072338 0.289352 0.289352 0.289352 0.144676 0.144676 0.144676 0.072338 0.289352 0.289352 0.289352 0.144676 0.144676 0.144676 0.072338 0.289352 0.289352 0.289352 0.144676 0.144676 0.144676 0.0723379 0.289352 0.289352 0.289352 0.144676 0.144676 0.144676 0.072338 0.289352 0.289352 0.289352 0.144676 0.144676 0.144676 0.072338 0.289352 0.289352 0.289352 0.144676 0.144676 0.144676 0.0723379 0.289352 0.289352 0.289352 0.144676 0.144676 0.144676 0.0723379 0.289352 0.289352 0.289352 0.144676 0.144676 0.144676 0.0723379 0.289352 0.289352 0.289352 0.144676 0.144676 0.144676 0.072338 0.289352 0.289352 0.289352 0.144676 0.144676 0.144676 0.0723379 0.289352 0.289352 0.289352 0.144676 0.144676 0.144676 0.0723379 0.144676 0.144676 0.289352 0.072338 0.144676 0.144676 0.072338 0.289352 0.144676 0.289352 0.289352 0.144676 0.144676 0.144676 0.072338 0.144676 0.072338 0.289352 0.289352 0.289352 0.144676 0.144676 0.144676 0.072338 0.289352 0.289352 0.289352 0.144676 0.144676 0.144676 0.072338 0.289352 0.289352 0.289352 0.144676 0.144676 0.144676 0.072338 0.289352 0.289352 0.289352 0.144676 0.144676 0.144676 0.072338 0.289352 0.289352 0.289352 0.144676 0.144676 0.144676 0.072338 0.289352 0.289352 0.289352 0.144676 0.144676 0.144676 0.072338 0.289352 0.289352 0.289352 0.144676 0.144676 0.144676 0.072338 0.289352 0.289352 0.289352 0.144676 0.144676 0.144676 0.072338 0.289352 0.289352 0.289352 0.144676 0.144676 0.144676 0.072338 0.289352 0.289352 0.289352 0.144676 0.144676 0.144676 0.072338 0.289352 0.289352 0.289352 0.144676 0.144676 0.144676 0.072338 0.289352 0.289352 0.289352 0.144676 0.144676 0.144676 0.072338 0.289352 0.289352 0.289352 0.144676 0.144676 0.144676 0.072338 0.289352 0.289352 0.289352 0.144676 0.144676 0.144676 0.0723379 0.289352 0.289352 0.289352 0.144676 0.144676 0.144676 0.072338 0.289352 0.289352 0.289352 0.144676 0.144676 0.144676 0.072338 0.289352 0.289352 0.289352 0.144676 0.144676 0.144676 0.072338 0.289352 0.289352 0.289352 0.144676 0.144676 0.144676 0.0723379 0.289352 0.289352 0.289352 0.144676 0.144676 0.144676 0.0723379 0.289352 0.289352 0.289352 0.144676 0.144676 0.144676 0.072338 0.289352 0.289352 0.289352 0.144676 0.144676 0.144676 0.072338 0.289352 0.289352 0.289352 0.144676 0.144676 0.144676 0.0723379 0.144676 0.144676 0.289352 0.072338 0.144676 0.144676 0.072338 0.289352 0.144676 0.289352 0.289352 0.144676 0.144676 0.144676 0.072338 0.144676 0.072338 0.289352 0.289352 0.289352 0.144676 0.144676 0.144676 0.072338 0.289352 0.289352 0.289352 0.144676 0.144676 0.144676 0.072338 0.289352 0.289352 0.289352 0.144676 0.144676 0.144676 0.072338 0.289352 0.289352 0.289352 0.144676 0.144676 0.144676 0.072338 0.289352 0.289352 0.289352 0.144676 0.144676 0.144676 0.072338 0.289352 0.289352 0.289352 0.144676 0.144676 0.144676 0.072338 0.289352 0.289352 0.289352 0.144676 0.144676 0.144676 0.072338 0.289352 0.289352 0.289352 0.144676 0.144676 0.144676 0.072338 0.289352 0.289352 0.289352 0.144676 0.144676 0.144676 0.072338 0.289352 0.289352 0.289352 0.144676 0.144676 0.144676 0.072338 0.289352 0.289352 0.289352 0.144676 0.144676 0.144676 0.072338 0.289352 0.289352 0.289352 0.144676 0.144676 0.144676 0.072338 0.289352 0.289352 0.289352 0.144676 0.144676 0.144676 0.072338 0.289352 0.289352 0.289352 0.144676 0.144676 0.144676 0.0723379 0.289352 0.289352 0.289352 0.144676 0.144676 0.144676 0.072338 0.289352 0.289352 0.289352 0.144676 0.144676 0.144676 0.072338 0.289352 0.289352 0.289352 0.144676 0.144676 0.144676 0.072338 0.289352 0.289352 0.289352 0.144676 0.144676 0.144676 0.0723379 0.289352 0.289352 0.289352 0.144676 0.144676 0.144676 0.0723379 0.289352 0.289352 0.289352 0.144676 0.144676 0.144676 0.072338 0.289352 0.289352 0.289352 0.144676 0.144676 0.144676 0.072338 0.289352 0.289352 0.289352 0.144676 0.144676 0.144676 0.0723379 0.144676 0.144676 0.289352 0.072338 0.144676 0.144676 0.072338 0.289352 0.144676 0.144676 0.144676 0.072338 0.144676 0.144676 0.072338 0.072338 0.072338 0.289352 0.144676 0.144676 0.144676 0.144676 0.072338 0.072338 0.289352 0.144676 0.144676 0.144676 0.144676 0.072338 0.072338 0.289352 0.144676 0.144676 0.144676 0.144676 0.0723379 0.0723379 0.289352 0.144676 0.144676 0.144676 0.144676 0.072338 0.072338 0.289352 0.144676 0.144676 0.144676 0.144676 0.072338 0.072338 0.289352 0.144676 0.144676 0.144676 0.144676 0.072338 0.072338 0.289352 0.144676 0.144676 0.144676 0.144676 0.0723379 0.0723379 0.289352 0.144676 0.144676 0.144676 0.144676 0.072338 0.072338 0.289352 0.144676 0.144676 0.144676 0.144676 0.0723379 0.0723379 0.289352 0.144676 0.144676 0.144676 0.144676 0.0723379 0.0723379 0.289352 0.144676 0.144676 0.144676 0.144676 0.072338 0.072338 0.289352 0.144676 0.144676 0.144676 0.144676 0.072338 0.072338 0.289352 0.144676 0.144676 0.144676 0.144676 0.072338 0.072338 0.289352 0.144676 0.144676 0.144676 0.144676 0.0723379 0.0723379 0.289352 0.144676 0.144676 0.144676 0.144676 0.072338 0.072338 0.289352 0.144676 0.144676 0.144676 0.144676 0.072338 0.072338 0.289352 0.144676 0.144676 0.144676 0.144676 0.0723379 0.0723379 0.289352 0.144676 0.144676 0.144676 0.144676 0.0723379 0.0723379 0.289352 0.144676 0.144676 0.144676 0.144676 0.0723379 0.0723379 0.289352 0.144676 0.144676 0.144676 0.144676 0.072338 0.072338 0.289352 0.144676 0.144676 0.144676 0.144676 0.0723379 0.0723379 0.289352 0.144676 0.144676 0.144676 0.144676 0.0723379 0.0723379 0.144676 0.072338 0.144676 0.072338 0.144676 0.072338 0.072338 0.144676 0.144676 0.072338 0.289352 0.144676 0.289352 0.289352 0.144676 0.072338 0.144676 0.144676 0.072338 0.144676 0.072338 0.144676 0.144676 0.289352 0.289352 0.289352 0.072338 0.144676 0.144676 0.144676 0.072338 0.144676 0.144676 0.289352 0.289352 0.289352 0.072338 0.144676 0.144676 0.144676 0.072338 0.144676 0.144676 0.289352 0.289352 0.289352 0.072338 0.144676 0.144676 0.144676 0.072338 0.144676 0.144676 0.289352 0.289352 0.289352 0.072338 0.144676 0.144676 0.144676 0.072338 0.144676 0.144676 0.289352 0.289352 0.289352 0.072338 0.144676 0.144676 0.144676 0.072338 0.144676 0.144676 0.289352 0.289352 0.289352 0.072338 0.144676 0.144676 0.144676 0.072338 0.144676 0.144676 0.289352 0.289352 0.289352 0.072338 0.144676 0.144676 0.144676 0.072338 0.144676 0.144676 0.289352 0.289352 0.289352 0.072338 0.144676 0.144676 0.144676 0.072338 0.144676 0.144676 0.289352 0.289352 0.289352 0.0723379 0.144676 0.144676 0.144676 0.0723379 0.144676 0.144676 0.289352 0.289352 0.289352 0.0723379 0.144676 0.144676 0.144676 0.0723379 0.144676 0.144676 0.289352 0.289352 0.289352 0.072338 0.144676 0.144676 0.144676 0.072338 0.144676 0.144676 0.289352 0.289352 0.289352 0.072338 0.144676 0.144676 0.144676 0.072338 0.144676 0.144676 0.289352 0.289352 0.289352 0.072338 0.144676 0.144676 0.144676 0.072338 0.144676 0.144676 0.289352 0.289352 0.289352 0.0723379 0.144676 0.144676 0.144676 0.0723379 0.144676 0.144676 0.289352 0.289352 0.289352 0.072338 0.144676 0.144676 0.144676 0.072338 0.144676 0.144676 0.289352 0.289352 0.289352 0.072338 0.144676 0.144676 0.144676 0.072338 0.144676 0.144676 0.289352 0.289352 0.289352 0.072338 0.144676 0.144676 0.144676 0.072338 0.144676 0.144676 0.289352 0.289352 0.289352 0.0723379 0.144676 0.144676 0.144676 0.0723379 0.144676 0.144676 0.289352 0.289352 0.289352 0.0723379 0.144676 0.144676 0.144676 0.0723379 0.144676 0.144676 0.289352 0.289352 0.289352 0.072338 0.144676 0.144676 0.144676 0.072338 0.144676 0.144676 0.289352 0.289352 0.289352 0.0723379 0.144676 0.144676 0.144676 0.0723379 0.144676 0.144676 0.289352 0.289352 0.289352 0.0723379 0.144676 0.144676 0.144676 0.0723379 0.072338 0.144676 0.144676 0.144676 0.289352 0.072338 0.072338 0.144676 0.144676 0.072338 0.289352 0.144676 0.289352 0.289352 0.144676 0.144676 0.144676 0.072338 0.144676 0.072338 0.289352 0.289352 0.289352 0.144676 0.144676 0.144676 0.072338 0.289352 0.289352 0.289352 0.144676 0.144676 0.144676 0.072338 0.289352 0.289352 0.289352 0.144676 0.144676 0.144676 0.072338 0.289352 0.289352 0.289352 0.144676 0.144676 0.144676 0.072338 0.289352 0.289352 0.289352 0.144676 0.144676 0.144676 0.072338 0.289352 0.289352 0.289352 0.144676 0.144676 0.144676 0.072338 0.289352 0.289352 0.289352 0.144676 0.144676 0.144676 0.072338 0.289352 0.289352 0.289352 0.144676 0.144676 0.144676 0.072338 0.289352 0.289352 0.289352 0.144676 0.144676 0.144676 0.0723379 0.289352 0.289352 0.289352 0.144676 0.144676 0.144676 0.0723379 0.289352 0.289352 0.289352 0.144676 0.144676 0.144676 0.072338 0.289352 0.289352 0.289352 0.144676 0.144676 0.144676 0.072338 0.289352 0.289352 0.289352 0.144676 0.144676 0.144676 0.072338 0.289352 0.289352 0.289352 0.144676 0.144676 0.144676 0.0723379 0.289352 0.289352 0.289352 0.144676 0.144676 0.144676 0.072338 0.289352 0.289352 0.289352 0.144676 0.144676 0.144676 0.072338 0.289352 0.289352 0.289352 0.144676 0.144676 0.144676 0.0723379 0.289352 0.289352 0.289352 0.144676 0.144676 0.144676 0.0723379 0.289352 0.289352 0.289352 0.144676 0.144676 0.144676 0.0723379 0.289352 0.289352 0.289352 0.144676 0.144676 0.144676 0.072338 0.289352 0.289352 0.289352 0.144676 0.144676 0.144676 0.0723379 0.289352 0.289352 0.289352 0.144676 0.144676 0.144676 0.0723379 0.144676 0.144676 0.289352 0.072338 0.144676 0.144676 0.072338 0.289352 0.144676 0.289352 0.289352 0.144676 0.144676 0.144676 0.072338 0.144676 0.072338 0.289352 0.289352 0.289352 0.144676 0.144676 0.144676 0.072338 0.289352 0.289352 0.289352 0.144676 0.144676 0.144676 0.072338 0.289352 0.289352 0.289352 0.144676 0.144676 0.144676 0.072338 0.289352 0.289352 0.289352 0.144676 0.144676 0.144676 0.072338 0.289352 0.289352 0.289352 0.144676 0.144676 0.144676 0.072338 0.289352 0.289352 0.289352 0.144676 0.144676 0.144676 0.072338 0.289352 0.289352 0.289352 0.144676 0.144676 0.144676 0.072338 0.289352 0.289352 0.289352 0.144676 0.144676 0.144676 0.072338 0.289352 0.289352 0.289352 0.144676 0.144676 0.144676 0.0723379 0.289352 0.289352 0.289352 0.144676 0.144676 0.144676 0.0723379 0.289352 0.289352 0.289352 0.144676 0.144676 0.144676 0.072338 0.289352 0.289352 0.289352 0.144676 0.144676 0.144676 0.072338 0.289352 0.289352 0.289352 0.144676 0.144676 0.144676 0.072338 0.289352 0.289352 0.289352 0.144676 0.144676 0.144676 0.0723379 0.289352 0.289352 0.289352 0.144676 0.144676 0.144676 0.072338 0.289352 0.289352 0.289352 0.144676 0.144676 0.144676 0.072338 0.289352 0.289352 0.289352 0.144676 0.144676 0.144676 0.0723379 0.289352 0.289352 0.289352 0.144676 0.144676 0.144676 0.0723379 0.289352 0.289352 0.289352 0.144676 0.144676 0.144676 0.0723379 0.289352 0.289352 0.289352 0.144676 0.144676 0.144676 0.072338 0.289352 0.289352 0.289352 0.144676 0.144676 0.144676 0.0723379 0.289352 0.289352 0.289352 0.144676 0.144676 0.144676 0.0723379 0.144676 0.144676 0.289352 0.072338 0.144676 0.144676 0.072338 0.289352 0.144676 0.289352 0.289352 0.144676 0.144676 0.144676 0.072338 0.144676 0.072338 0.289352 0.289352 0.289352 0.144676 0.144676 0.144676 0.072338 0.289352 0.289352 0.289352 0.144676 0.144676 0.144676 0.072338 0.289352 0.289352 0.289352 0.144676 0.144676 0.144676 0.0723379 0.289352 0.289352 0.289352 0.144676 0.144676 0.144676 0.072338 0.289352 0.289352 0.289352 0.144676 0.144676 0.144676 0.072338 0.289352 0.289352 0.289352 0.144676 0.144676 0.144676 0.072338 0.289352 0.289352 0.289352 0.144676 0.144676 0.144676 0.072338 0.289352 0.289352 0.289352 0.144676 0.144676 0.144676 0.072338 0.289352 0.289352 0.289352 0.144676 0.144676 0.144676 0.0723379 0.289352 0.289352 0.289352 0.144676 0.144676 0.144676 0.0723379 0.289352 0.289352 0.289352 0.144676 0.144676 0.144676 0.072338 0.289352 0.289352 0.289352 0.144676 0.144676 0.144676 0.072338 0.289352 0.289352 0.289352 0.144676 0.144676 0.144676 0.072338 0.289352 0.289352 0.289352 0.144676 0.144676 0.144676 0.0723379 0.289352 0.289352 0.289352 0.144676 0.144676 0.144676 0.072338 0.289352 0.289352 0.289352 0.144676 0.144676 0.144676 0.072338 0.289352 0.289352 0.289352 0.144676 0.144676 0.144676 0.0723379 0.289352 0.289352 0.289352 0.144676 0.144676 0.144676 0.0723379 0.289352 0.289352 0.289352 0.144676 0.144676 0.144676 0.0723379 0.289352 0.289352 0.289352 0.144676 0.144676 0.144676 0.072338 0.289352 0.289352 0.289352 0.144676 0.144676 0.144676 0.0723379 0.289352 0.289352 0.289352 0.144676 0.144676 0.144676 0.0723379 0.144676 0.144676 0.289352 0.072338 0.144676 0.144676 0.072338 0.289352 0.144676 0.289352 0.289352 0.144676 0.144676 0.144676 0.072338 0.144676 0.072338 0.289352 0.289352 0.289352 0.144676 0.144676 0.144676 0.072338 0.289352 0.289352 0.289352 0.144676 0.144676 0.144676 0.072338 0.289352 0.289352 0.289352 0.144676 0.144676 0.144676 0.0723379 0.289352 0.289352 0.289352 0.144676 0.144676 0.144676 0.072338 0.289352 0.289352 0.289352 0.144676 0.144676 0.144676 0.072338 0.289352 0.289352 0.289352 0.144676 0.144676 0.144676 0.072338 0.289352 0.289352 0.289352 0.144676 0.144676 0.144676 0.0723379 0.289352 0.289352 0.289352 0.144676 0.144676 0.144676 0.072338 0.289352 0.289352 0.289352 0.144676 0.144676 0.144676 0.0723379 0.289352 0.289352 0.289352 0.144676 0.144676 0.144676 0.0723379 0.289352 0.289352 0.289352 0.144676 0.144676 0.144676 0.072338 0.289352 0.289352 0.289352 0.144676 0.144676 0.144676 0.072338 0.289352 0.289352 0.289352 0.144676 0.144676 0.144676 0.072338 0.289352 0.289352 0.289352 0.144676 0.144676 0.144676 0.0723379 0.289352 0.289352 0.289352 0.144676 0.144676 0.144676 0.072338 0.289352 0.289352 0.289352 0.144676 0.144676 0.144676 0.072338 0.289352 0.289352 0.289352 0.144676 0.144676 0.144676 0.0723379 0.289352 0.289352 0.289352 0.144676 0.144676 0.144676 0.0723379 0.289352 0.289352 0.289352 0.144676 0.144676 0.144676 0.0723379 0.289352 0.289352 0.289352 0.144676 0.144676 0.144676 0.072338 0.289352 0.289352 0.289352 0.144676 0.144676 0.144676 0.0723379 0.289352 0.289352 0.289352 0.144676 0.144676 0.144676 0.0723379 0.144676 0.144676 0.289352 0.072338 0.144676 0.144676 0.072338 0.289352 0.144676 0.289352 0.289352 0.144676 0.144676 0.144676 0.072338 0.144676 0.072338 0.289352 0.289352 0.289352 0.144676 0.144676 0.144676 0.072338 0.289352 0.289352 0.289352 0.144676 0.144676 0.144676 0.072338 0.289352 0.289352 0.289352 0.144676 0.144676 0.144676 0.0723379 0.289352 0.289352 0.289352 0.144676 0.144676 0.144676 0.0723379 0.289352 0.289352 0.289352 0.144676 0.144676 0.144676 0.072338 0.289352 0.289352 0.289352 0.144676 0.144676 0.144676 0.072338 0.289352 0.289352 0.289352 0.144676 0.144676 0.144676 0.072338 0.289352 0.289352 0.289352 0.144676 0.144676 0.144676 0.072338 0.289352 0.289352 0.289352 0.144676 0.144676 0.144676 0.0723379 0.289352 0.289352 0.289352 0.144676 0.144676 0.144676 0.0723379 0.289352 0.289352 0.289352 0.144676 0.144676 0.144676 0.072338 0.289352 0.289352 0.289352 0.144676 0.144676 0.144676 0.072338 0.289352 0.289352 0.289352 0.144676 0.144676 0.144676 0.072338 0.289352 0.289352 0.289352 0.144676 0.144676 0.144676 0.0723379 0.289352 0.289352 0.289352 0.144676 0.144676 0.144676 0.072338 0.289352 0.289352 0.289352 0.144676 0.144676 0.144676 0.072338 0.289352 0.289352 0.289352 0.144676 0.144676 0.144676 0.0723379 0.289352 0.289352 0.289352 0.144676 0.144676 0.144676 0.0723379 0.289352 0.289352 0.289352 0.144676 0.144676 0.144676 0.0723379 0.289352 0.289352 0.289352 0.144676 0.144676 0.144676 0.072338 0.289352 0.289352 0.289352 0.144676 0.144676 0.144676 0.072338 0.289352 0.289352 0.289352 0.144676 0.144676 0.144676 0.0723379 0.144676 0.144676 0.289352 0.072338 0.144676 0.144676 0.072338 0.289352 0.144676 0.289352 0.289352 0.144676 0.144676 0.144676 0.072338 0.144676 0.072338 0.289352 0.289352 0.289352 0.144676 0.144676 0.144676 0.072338 0.289352 0.289352 0.289352 0.144676 0.144676 0.144676 0.072338 0.289352 0.289352 0.289352 0.144676 0.144676 0.144676 0.072338 0.289352 0.289352 0.289352 0.144676 0.144676 0.144676 0.072338 0.289352 0.289352 0.289352 0.144676 0.144676 0.144676 0.072338 0.289352 0.289352 0.289352 0.144676 0.144676 0.144676 0.072338 0.289352 0.289352 0.289352 0.144676 0.144676 0.144676 0.072338 0.289352 0.289352 0.289352 0.144676 0.144676 0.144676 0.072338 0.289352 0.289352 0.289352 0.144676 0.144676 0.144676 0.0723379 0.289352 0.289352 0.289352 0.144676 0.144676 0.144676 0.0723379 0.289352 0.289352 0.289352 0.144676 0.144676 0.144676 0.072338 0.289352 0.289352 0.289352 0.144676 0.144676 0.144676 0.072338 0.289352 0.289352 0.289352 0.144676 0.144676 0.144676 0.072338 0.289352 0.289352 0.289352 0.144676 0.144676 0.144676 0.0723379 0.289352 0.289352 0.289352 0.144676 0.144676 0.144676 0.072338 0.289352 0.289352 0.289352 0.144676 0.144676 0.144676 0.072338 0.289352 0.289352 0.289352 0.144676 0.144676 0.144676 0.0723379 0.289352 0.289352 0.289352 0.144676 0.144676 0.144676 0.0723379 0.289352 0.289352 0.289352 0.144676 0.144676 0.144676 0.0723379 0.289352 0.289352 0.289352 0.144676 0.144676 0.144676 0.072338 0.289352 0.289352 0.289352 0.144676 0.144676 0.144676 0.072338 0.289352 0.289352 0.289352 0.144676 0.144676 0.144676 0.0723379 0.144676 0.144676 0.289352 0.072338 0.144676 0.144676 0.072338 0.289352 0.144676 0.144676 0.144676 0.0723379 0.144676 0.144676 0.0723379 0.0723379 0.0723379 0.289352 0.144676 0.144676 0.144676 0.144676 0.0723379 0.0723379 0.289352 0.144676 0.144676 0.144676 0.144676 0.072338 0.072338 0.289352 0.144676 0.144676 0.144676 0.144676 0.0723379 0.0723379 0.289352 0.144676 0.144676 0.144676 0.144676 0.0723379 0.0723379 0.289352 0.144676 0.144676 0.144676 0.144676 0.0723379 0.0723379 0.289352 0.144676 0.144676 0.144676 0.144676 0.0723379 0.0723379 0.289352 0.144676 0.144676 0.144676 0.144676 0.0723379 0.0723379 0.289352 0.144676 0.144676 0.144676 0.144676 0.0723379 0.0723379 0.289352 0.144676 0.144676 0.144676 0.144676 0.0723379 0.0723379 0.289352 0.144676 0.144676 0.144676 0.144676 0.0723379 0.0723379 0.289352 0.144676 0.144676 0.144676 0.144676 0.072338 0.072338 0.289352 0.144676 0.144676 0.144676 0.144676 0.0723379 0.0723379 0.289352 0.144676 0.144676 0.144676 0.144676 0.072338 0.072338 0.289352 0.144676 0.144676 0.144676 0.144676 0.0723379 0.0723379 0.289352 0.144676 0.144676 0.144676 0.144676 0.072338 0.072338 0.289352 0.144676 0.144676 0.144676 0.144676 0.0723379 0.0723379 0.289352 0.144676 0.144676 0.144676 0.144676 0.0723379 0.0723379 0.289352 0.144676 0.144676 0.144676 0.144676 0.0723379 0.0723379 0.289352 0.144676 0.144676 0.144676 0.144676 0.0723379 0.0723379 0.289352 0.144676 0.144676 0.144676 0.144676 0.072338 0.072338 0.289352 0.144676 0.144676 0.144676 0.144676 0.0723379 0.0723379 0.289352 0.144676 0.144676 0.144676 0.144676 0.0723379 0.0723379 0.144676 0.072338 0.144676 0.072338 0.144676 0.072338 0.072338 0.144676 0.144676 0.072338 0.289352 0.144676 0.289352 0.289352 0.144676 0.072338 0.144676 0.144676 0.072338 0.144676 0.072338 0.144676 0.144676 0.289352 0.289352 0.289352 0.072338 0.144676 0.144676 0.144676 0.072338 0.144676 0.144676 0.289352 0.289352 0.289352 0.072338 0.144676 0.144676 0.144676 0.072338 0.144676 0.144676 0.289352 0.289352 0.289352 0.072338 0.144676 0.144676 0.144676 0.072338 0.144676 0.144676 0.289352 0.289352 0.289352 0.072338 0.144676 0.144676 0.144676 0.072338 0.144676 0.144676 0.289352 0.289352 0.289352 0.072338 0.144676 0.144676 0.144676 0.072338 0.144676 0.144676 0.289352 0.289352 0.289352 0.072338 0.144676 0.144676 0.144676 0.072338 0.144676 0.144676 0.289352 0.289352 0.289352 0.072338 0.144676 0.144676 0.144676 0.072338 0.144676 0.144676 0.289352 0.289352 0.289352 0.072338 0.144676 0.144676 0.144676 0.072338 0.144676 0.144676 0.289352 0.289352 0.289352 0.072338 0.144676 0.144676 0.144676 0.072338 0.144676 0.144676 0.289352 0.289352 0.289352 0.072338 0.144676 0.144676 0.144676 0.072338 0.144676 0.144676 0.289352 0.289352 0.289352 0.072338 0.144676 0.144676 0.144676 0.072338 0.144676 0.144676 0.289352 0.289352 0.289352 0.072338 0.144676 0.144676 0.144676 0.072338 0.144676 0.144676 0.289352 0.289352 0.289352 0.072338 0.144676 0.144676 0.144676 0.072338 0.144676 0.144676 0.289352 0.289352 0.289352 0.0723379 0.144676 0.144676 0.144676 0.0723379 0.144676 0.144676 0.289352 0.289352 0.289352 0.072338 0.144676 0.144676 0.144676 0.072338 0.144676 0.144676 0.289352 0.289352 0.289352 0.072338 0.144676 0.144676 0.144676 0.072338 0.144676 0.144676 0.289352 0.289352 0.289352 0.072338 0.144676 0.144676 0.144676 0.072338 0.144676 0.144676 0.289352 0.289352 0.289352 0.0723379 0.144676 0.144676 0.144676 0.0723379 0.144676 0.144676 0.289352 0.289352 0.289352 0.0723379 0.144676 0.144676 0.144676 0.0723379 0.144676 0.144676 0.289352 0.289352 0.289352 0.072338 0.144676 0.144676 0.144676 0.072338 0.144676 0.144676 0.289352 0.289352 0.289352 0.072338 0.144676 0.144676 0.144676 0.072338 0.144676 0.144676 0.289352 0.289352 0.289352 0.0723379 0.144676 0.144676 0.144676 0.0723379 0.072338 0.144676 0.144676 0.144676 0.289352 0.072338 0.072338 0.144676 0.144676 0.072338 0.289352 0.144676 0.289352 0.289352 0.144676 0.144676 0.144676 0.072338 0.144676 0.072338 0.289352 0.289352 0.289352 0.144676 0.144676 0.144676 0.072338 0.289352 0.289352 0.289352 0.144676 0.144676 0.144676 0.072338 0.289352 0.289352 0.289352 0.144676 0.144676 0.144676 0.072338 0.289352 0.289352 0.289352 0.144676 0.144676 0.144676 0.072338 0.289352 0.289352 0.289352 0.144676 0.144676 0.144676 0.072338 0.289352 0.289352 0.289352 0.144676 0.144676 0.144676 0.072338 0.289352 0.289352 0.289352 0.144676 0.144676 0.144676 0.072338 0.289352 0.289352 0.289352 0.144676 0.144676 0.144676 0.072338 0.289352 0.289352 0.289352 0.144676 0.144676 0.144676 0.0723379 0.289352 0.289352 0.289352 0.144676 0.144676 0.144676 0.072338 0.289352 0.289352 0.289352 0.144676 0.144676 0.144676 0.072338 0.289352 0.289352 0.289352 0.144676 0.144676 0.144676 0.072338 0.289352 0.289352 0.289352 0.144676 0.144676 0.144676 0.072338 0.289352 0.289352 0.289352 0.144676 0.144676 0.144676 0.0723379 0.289352 0.289352 0.289352 0.144676 0.144676 0.144676 0.072338 0.289352 0.289352 0.289352 0.144676 0.144676 0.144676 0.072338 0.289352 0.289352 0.289352 0.144676 0.144676 0.144676 0.0723379 0.289352 0.289352 0.289352 0.144676 0.144676 0.144676 0.0723379 0.289352 0.289352 0.289352 0.144676 0.144676 0.144676 0.0723379 0.289352 0.289352 0.289352 0.144676 0.144676 0.144676 0.072338 0.289352 0.289352 0.289352 0.144676 0.144676 0.144676 0.072338 0.289352 0.289352 0.289352 0.144676 0.144676 0.144676 0.0723379 0.144676 0.144676 0.289352 0.072338 0.144676 0.144676 0.072338 0.289352 0.144676 0.289352 0.289352 0.144676 0.144676 0.144676 0.072338 0.144676 0.072338 0.289352 0.289352 0.289352 0.144676 0.144676 0.144676 0.072338 0.289352 0.289352 0.289352 0.144676 0.144676 0.144676 0.072338 0.289352 0.289352 0.289352 0.144676 0.144676 0.144676 0.072338 0.289352 0.289352 0.289352 0.144676 0.144676 0.144676 0.072338 0.289352 0.289352 0.289352 0.144676 0.144676 0.144676 0.072338 0.289352 0.289352 0.289352 0.144676 0.144676 0.144676 0.072338 0.289352 0.289352 0.289352 0.144676 0.144676 0.144676 0.072338 0.289352 0.289352 0.289352 0.144676 0.144676 0.144676 0.072338 0.289352 0.289352 0.289352 0.144676 0.144676 0.144676 0.072338 0.289352 0.289352 0.289352 0.144676 0.144676 0.144676 0.072338 0.289352 0.289352 0.289352 0.144676 0.144676 0.144676 0.072338 0.289352 0.289352 0.289352 0.144676 0.144676 0.144676 0.072338 0.289352 0.289352 0.289352 0.144676 0.144676 0.144676 0.072338 0.289352 0.289352 0.289352 0.144676 0.144676 0.144676 0.0723379 0.289352 0.289352 0.289352 0.144676 0.144676 0.144676 0.072338 0.289352 0.289352 0.289352 0.144676 0.144676 0.144676 0.072338 0.289352 0.289352 0.289352 0.144676 0.144676 0.144676 0.072338 0.289352 0.289352 0.289352 0.144676 0.144676 0.144676 0.0723379 0.289352 0.289352 0.289352 0.144676 0.144676 0.144676 0.0723379 0.289352 0.289352 0.289352 0.144676 0.144676 0.144676 0.072338 0.289352 0.289352 0.289352 0.144676 0.144676 0.144676 0.072338 0.289352 0.289352 0.289352 0.144676 0.144676 0.144676 0.0723379 0.144676 0.144676 0.289352 0.072338 0.144676 0.144676 0.072338 0.289352 0.144676 0.289352 0.289352 0.144676 0.144676 0.144676 0.072338 0.144676 0.072338 0.289352 0.289352 0.289352 0.144676 0.144676 0.144676 0.072338 0.289352 0.289352 0.289352 0.144676 0.144676 0.144676 0.072338 0.289352 0.289352 0.289352 0.144676 0.144676 0.144676 0.072338 0.289352 0.289352 0.289352 0.144676 0.144676 0.144676 0.072338 0.289352 0.289352 0.289352 0.144676 0.144676 0.144676 0.072338 0.289352 0.289352 0.289352 0.144676 0.144676 0.144676 0.072338 0.289352 0.289352 0.289352 0.144676 0.144676 0.144676 0.072338 0.289352 0.289352 0.289352 0.144676 0.144676 0.144676 0.072338 0.289352 0.289352 0.289352 0.144676 0.144676 0.144676 0.0723379 0.289352 0.289352 0.289352 0.144676 0.144676 0.144676 0.0723379 0.289352 0.289352 0.289352 0.144676 0.144676 0.144676 0.072338 0.289352 0.289352 0.289352 0.144676 0.144676 0.144676 0.072338 0.289352 0.289352 0.289352 0.144676 0.144676 0.144676 0.072338 0.289352 0.289352 0.289352 0.144676 0.144676 0.144676 0.0723379 0.289352 0.289352 0.289352 0.144676 0.144676 0.144676 0.072338 0.289352 0.289352 0.289352 0.144676 0.144676 0.144676 0.072338 0.289352 0.289352 0.289352 0.144676 0.144676 0.144676 0.0723379 0.289352 0.289352 0.289352 0.144676 0.144676 0.144676 0.0723379 0.289352 0.289352 0.289352 0.144676 0.144676 0.144676 0.0723379 0.289352 0.289352 0.289352 0.144676 0.144676 0.144676 0.072338 0.289352 0.289352 0.289352 0.144676 0.144676 0.144676 0.0723379 0.289352 0.289352 0.289352 0.144676 0.144676 0.144676 0.0723379 0.144676 0.144676 0.289352 0.072338 0.144676 0.144676 0.072338 0.289352 0.144676 0.289352 0.289352 0.144676 0.144676 0.144676 0.072338 0.144676 0.072338 0.289352 0.289352 0.289352 0.144676 0.144676 0.144676 0.072338 0.289352 0.289352 0.289352 0.144676 0.144676 0.144676 0.072338 0.289352 0.289352 0.289352 0.144676 0.144676 0.144676 0.072338 0.289352 0.289352 0.289352 0.144676 0.144676 0.144676 0.072338 0.289352 0.289352 0.289352 0.144676 0.144676 0.144676 0.072338 0.289352 0.289352 0.289352 0.144676 0.144676 0.144676 0.072338 0.289352 0.289352 0.289352 0.144676 0.144676 0.144676 0.072338 0.289352 0.289352 0.289352 0.144676 0.144676 0.144676 0.072338 0.289352 0.289352 0.289352 0.144676 0.144676 0.144676 0.0723379 0.289352 0.289352 0.289352 0.144676 0.144676 0.144676 0.0723379 0.289352 0.289352 0.289352 0.144676 0.144676 0.144676 0.072338 0.289352 0.289352 0.289352 0.144676 0.144676 0.144676 0.072338 0.289352 0.289352 0.289352 0.144676 0.144676 0.144676 0.072338 0.289352 0.289352 0.289352 0.144676 0.144676 0.144676 0.0723379 0.289352 0.289352 0.289352 0.144676 0.144676 0.144676 0.072338 0.289352 0.289352 0.289352 0.144676 0.144676 0.144676 0.072338 0.289352 0.289352 0.289352 0.144676 0.144676 0.144676 0.0723379 0.289352 0.289352 0.289352 0.144676 0.144676 0.144676 0.0723379 0.289352 0.289352 0.289352 0.144676 0.144676 0.144676 0.0723379 0.289352 0.289352 0.289352 0.144676 0.144676 0.144676 0.072338 0.289352 0.289352 0.289352 0.144676 0.144676 0.144676 0.0723379 0.289352 0.289352 0.289352 0.144676 0.144676 0.144676 0.0723379 0.144676 0.144676 0.289352 0.072338 0.144676 0.144676 0.072338 0.289352 0.144676 0.289352 0.289352 0.144676 0.144676 0.144676 0.072338 0.144676 0.072338 0.289352 0.289352 0.289352 0.144676 0.144676 0.144676 0.072338 0.289352 0.289352 0.289352 0.144676 0.144676 0.144676 0.072338 0.289352 0.289352 0.289352 0.144676 0.144676 0.144676 0.072338 0.289352 0.289352 0.289352 0.144676 0.144676 0.144676 0.072338 0.289352 0.289352 0.289352 0.144676 0.144676 0.144676 0.072338 0.289352 0.289352 0.289352 0.144676 0.144676 0.144676 0.072338 0.289352 0.289352 0.289352 0.144676 0.144676 0.144676 0.072338 0.289352 0.289352 0.289352 0.144676 0.144676 0.144676 0.072338 0.289352 0.289352 0.289352 0.144676 0.144676 0.144676 0.072338 0.289352 0.289352 0.289352 0.144676 0.144676 0.144676 0.072338 0.289352 0.289352 0.289352 0.144676 0.144676 0.144676 0.072338 0.289352 0.289352 0.289352 0.144676 0.144676 0.144676 0.072338 0.289352 0.289352 0.289352 0.144676 0.144676 0.144676 0.072338 0.289352 0.289352 0.289352 0.144676 0.144676 0.144676 0.0723379 0.289352 0.289352 0.289352 0.144676 0.144676 0.144676 0.072338 0.289352 0.289352 0.289352 0.144676 0.144676 0.144676 0.072338 0.289352 0.289352 0.289352 0.144676 0.144676 0.144676 0.0723379 0.289352 0.289352 0.289352 0.144676 0.144676 0.144676 0.0723379 0.289352 0.289352 0.289352 0.144676 0.144676 0.144676 0.0723379 0.289352 0.289352 0.289352 0.144676 0.144676 0.144676 0.072338 0.289352 0.289352 0.289352 0.144676 0.144676 0.144676 0.072338 0.289352 0.289352 0.289352 0.144676 0.144676 0.144676 0.0723379 0.144676 0.144676 0.289352 0.072338 0.144676 0.144676 0.072338 0.289352 0.144676 0.289352 0.289352 0.144676 0.144676 0.144676 0.072338 0.144676 0.072338 0.289352 0.289352 0.289352 0.144676 0.144676 0.144676 0.072338 0.289352 0.289352 0.289352 0.144676 0.144676 0.144676 0.072338 0.289352 0.289352 0.289352 0.144676 0.144676 0.144676 0.072338 0.289352 0.289352 0.289352 0.144676 0.144676 0.144676 0.072338 0.289352 0.289352 0.289352 0.144676 0.144676 0.144676 0.072338 0.289352 0.289352 0.289352 0.144676 0.144676 0.144676 0.072338 0.289352 0.289352 0.289352 0.144676 0.144676 0.144676 0.072338 0.289352 0.289352 0.289352 0.144676 0.144676 0.144676 0.072338 0.289352 0.289352 0.289352 0.144676 0.144676 0.144676 0.072338 0.289352 0.289352 0.289352 0.144676 0.144676 0.144676 0.072338 0.289352 0.289352 0.289352 0.144676 0.144676 0.144676 0.072338 0.289352 0.289352 0.289352 0.144676 0.144676 0.144676 0.072338 0.289352 0.289352 0.289352 0.144676 0.144676 0.144676 0.072338 0.289352 0.289352 0.289352 0.144676 0.144676 0.144676 0.0723379 0.289352 0.289352 0.289352 0.144676 0.144676 0.144676 0.072338 0.289352 0.289352 0.289352 0.144676 0.144676 0.144676 0.072338 0.289352 0.289352 0.289352 0.144676 0.144676 0.144676 0.072338 0.289352 0.289352 0.289352 0.144676 0.144676 0.144676 0.072338 0.289352 0.289352 0.289352 0.144676 0.144676 0.144676 0.0723379 0.289352 0.289352 0.289352 0.144676 0.144676 0.144676 0.072338 0.289352 0.289352 0.289352 0.144676 0.144676 0.144676 0.072338 0.289352 0.289352 0.289352 0.144676 0.144676 0.144676 0.0723379 0.144676 0.144676 0.289352 0.072338 0.144676 0.144676 0.072338 0.289352 0.144676 0.144676 0.144676 0.072338 0.144676 0.144676 0.072338 0.072338 0.072338 0.289352 0.144676 0.144676 0.144676 0.144676 0.072338 0.072338 0.289352 0.144676 0.144676 0.144676 0.144676 0.072338 0.072338 0.289352 0.144676 0.144676 0.144676 0.144676 0.072338 0.072338 0.289352 0.144676 0.144676 0.144676 0.144676 0.072338 0.072338 0.289352 0.144676 0.144676 0.144676 0.144676 0.072338 0.072338 0.289352 0.144676 0.144676 0.144676 0.144676 0.072338 0.072338 0.289352 0.144676 0.144676 0.144676 0.144676 0.072338 0.072338 0.289352 0.144676 0.144676 0.144676 0.144676 0.072338 0.072338 0.289352 0.144676 0.144676 0.144676 0.144676 0.0723379 0.0723379 0.289352 0.144676 0.144676 0.144676 0.144676 0.0723379 0.0723379 0.289352 0.144676 0.144676 0.144676 0.144676 0.072338 0.072338 0.289352 0.144676 0.144676 0.144676 0.144676 0.072338 0.072338 0.289352 0.144676 0.144676 0.144676 0.144676 0.072338 0.072338 0.289352 0.144676 0.144676 0.144676 0.144676 0.0723379 0.0723379 0.289352 0.144676 0.144676 0.144676 0.144676 0.072338 0.072338 0.289352 0.144676 0.144676 0.144676 0.144676 0.072338 0.072338 0.289352 0.144676 0.144676 0.144676 0.144676 0.0723379 0.0723379 0.289352 0.144676 0.144676 0.144676 0.144676 0.0723379 0.0723379 0.289352 0.144676 0.144676 0.144676 0.144676 0.0723379 0.0723379 0.289352 0.144676 0.144676 0.144676 0.144676 0.072338 0.072338 0.289352 0.144676 0.144676 0.144676 0.144676 0.0723379 0.0723379 0.289352 0.144676 0.144676 0.144676 0.144676 0.0723379 0.0723379 0.144676 0.072338 0.144676 0.072338 0.144676 0.072338 0.072338 0.144676 0.144676 0.072338 0.289352 0.144676 0.289352 0.289352 0.144676 0.072338 0.144676 0.144676 0.072338 0.144676 0.072338 0.144676 0.144676 0.289352 0.289352 0.289352 0.072338 0.144676 0.144676 0.144676 0.072338 0.144676 0.144676 0.289352 0.289352 0.289352 0.072338 0.144676 0.144676 0.144676 0.072338 0.144676 0.144676 0.289352 0.289352 0.289352 0.0723379 0.144676 0.144676 0.144676 0.0723379 0.144676 0.144676 0.289352 0.289352 0.289352 0.0723379 0.144676 0.144676 0.144676 0.0723379 0.144676 0.144676 0.289352 0.289352 0.289352 0.0723379 0.144676 0.144676 0.144676 0.0723379 0.144676 0.144676 0.289352 0.289352 0.289352 0.072338 0.144676 0.144676 0.144676 0.072338 0.144676 0.144676 0.289352 0.289352 0.289352 0.0723379 0.144676 0.144676 0.144676 0.0723379 0.144676 0.144676 0.289352 0.289352 0.289352 0.072338 0.144676 0.144676 0.144676 0.072338 0.144676 0.144676 0.289352 0.289352 0.289352 0.0723379 0.144676 0.144676 0.144676 0.0723379 0.144676 0.144676 0.289352 0.289352 0.289352 0.0723379 0.144676 0.144676 0.144676 0.0723379 0.144676 0.144676 0.289352 0.289352 0.289352 0.072338 0.144676 0.144676 0.144676 0.072338 0.144676 0.144676 0.289352 0.289352 0.289352 0.0723379 0.144676 0.144676 0.144676 0.0723379 0.144676 0.144676 0.289352 0.289352 0.289352 0.072338 0.144676 0.144676 0.144676 0.072338 0.144676 0.144676 0.289352 0.289352 0.289352 0.0723379 0.144676 0.144676 0.144676 0.0723379 0.144676 0.144676 0.289352 0.289352 0.289352 0.072338 0.144676 0.144676 0.144676 0.072338 0.144676 0.144676 0.289352 0.289352 0.289352 0.0723379 0.144676 0.144676 0.144676 0.0723379 0.144676 0.144676 0.289352 0.289352 0.289352 0.0723379 0.144676 0.144676 0.144676 0.0723379 0.144676 0.144676 0.289352 0.289352 0.289352 0.0723379 0.144676 0.144676 0.144676 0.0723379 0.144676 0.144676 0.289352 0.289352 0.289351 0.0723379 0.144676 0.144676 0.144676 0.0723379 0.144676 0.144676 0.289352 0.289352 0.289352 0.072338 0.144676 0.144676 0.144676 0.072338 0.144676 0.144676 0.289352 0.289352 0.289352 0.0723379 0.144676 0.144676 0.144676 0.0723379 0.144676 0.144676 0.289352 0.289352 0.289352 0.0723379 0.144676 0.144676 0.144676 0.0723379 0.072338 0.144676 0.144676 0.144676 0.289352 0.072338 0.072338 0.144676 0.144676 0.072338 0.289352 0.144676 0.289352 0.289352 0.144676 0.144676 0.144676 0.072338 0.144676 0.072338 0.289352 0.289352 0.289352 0.144676 0.144676 0.144676 0.072338 0.289352 0.289352 0.289352 0.144676 0.144676 0.144676 0.072338 0.289352 0.289352 0.289352 0.144676 0.144676 0.144676 0.0723379 0.289352 0.289352 0.289352 0.144676 0.144676 0.144676 0.0723379 0.289352 0.289352 0.289352 0.144676 0.144676 0.144676 0.0723379 0.289352 0.289352 0.289352 0.144676 0.144676 0.144676 0.0723379 0.289352 0.289352 0.289352 0.144676 0.144676 0.144676 0.0723379 0.289352 0.289352 0.289352 0.144676 0.144676 0.144676 0.0723379 0.289352 0.289352 0.289352 0.144676 0.144676 0.144676 0.0723379 0.289352 0.289352 0.289352 0.144676 0.144676 0.144676 0.0723379 0.289352 0.289352 0.289352 0.144676 0.144676 0.144676 0.0723379 0.289352 0.289352 0.289352 0.144676 0.144676 0.144676 0.0723379 0.289352 0.289352 0.289352 0.144676 0.144676 0.144676 0.072338 0.289352 0.289352 0.289352 0.144676 0.144676 0.144676 0.0723379 0.289352 0.289352 0.289352 0.144676 0.144676 0.144676 0.072338 0.289352 0.289352 0.289352 0.144676 0.144676 0.144676 0.0723379 0.289352 0.289352 0.289352 0.144676 0.144676 0.144676 0.0723379 0.289352 0.289352 0.289352 0.144676 0.144676 0.144676 0.0723379 0.289352 0.289352 0.289351 0.144676 0.144676 0.144676 0.0723379 0.289352 0.289352 0.289352 0.144676 0.144676 0.144676 0.072338 0.289352 0.289352 0.289352 0.144676 0.144676 0.144676 0.0723379 0.289352 0.289352 0.289352 0.144676 0.144676 0.144676 0.0723379 0.144676 0.144676 0.289352 0.072338 0.144676 0.144676 0.072338 0.289352 0.144676 0.289352 0.289352 0.144676 0.144676 0.144676 0.072338 0.144676 0.072338 0.289352 0.289352 0.289352 0.144676 0.144676 0.144676 0.072338 0.289352 0.289352 0.289352 0.144676 0.144676 0.144676 0.072338 0.289352 0.289352 0.289352 0.144676 0.144676 0.144676 0.0723379 0.289352 0.289352 0.289352 0.144676 0.144676 0.144676 0.0723379 0.289352 0.289352 0.289352 0.144676 0.144676 0.144676 0.0723379 0.289352 0.289352 0.289352 0.144676 0.144676 0.144676 0.072338 0.289352 0.289352 0.289352 0.144676 0.144676 0.144676 0.0723379 0.289352 0.289352 0.289352 0.144676 0.144676 0.144676 0.0723379 0.289352 0.289352 0.289352 0.144676 0.144676 0.144676 0.0723379 0.289352 0.289352 0.289352 0.144676 0.144676 0.144676 0.0723379 0.289352 0.289352 0.289352 0.144676 0.144676 0.144676 0.0723379 0.289352 0.289352 0.289352 0.144676 0.144676 0.144676 0.0723379 0.289352 0.289352 0.289352 0.144676 0.144676 0.144676 0.072338 0.289352 0.289352 0.289352 0.144676 0.144676 0.144676 0.0723379 0.289352 0.289352 0.289352 0.144676 0.144676 0.144676 0.072338 0.289352 0.289352 0.289352 0.144676 0.144676 0.144676 0.0723379 0.289352 0.289352 0.289352 0.144676 0.144676 0.144676 0.0723379 0.289352 0.289352 0.289352 0.144676 0.144676 0.144676 0.0723379 0.289352 0.289352 0.289351 0.144676 0.144676 0.144676 0.0723379 0.289352 0.289352 0.289352 0.144676 0.144676 0.144676 0.072338 0.289352 0.289352 0.289352 0.144676 0.144676 0.144676 0.0723379 0.289352 0.289352 0.289352 0.144676 0.144676 0.144676 0.0723379 0.144676 0.144676 0.289352 0.072338 0.144676 0.144676 0.072338 0.289352 0.144676 0.289352 0.289352 0.144676 0.144676 0.144676 0.0723379 0.144676 0.0723379 0.289352 0.289352 0.289352 0.144676 0.144676 0.144676 0.0723379 0.289352 0.289352 0.289352 0.144676 0.144676 0.144676 0.072338 0.289352 0.289352 0.289352 0.144676 0.144676 0.144676 0.0723379 0.289352 0.289352 0.289352 0.144676 0.144676 0.144676 0.0723379 0.289352 0.289352 0.289352 0.144676 0.144676 0.144676 0.0723379 0.289352 0.289352 0.289352 0.144676 0.144676 0.144676 0.0723379 0.289352 0.289352 0.289352 0.144676 0.144676 0.144676 0.0723379 0.289352 0.289352 0.289352 0.144676 0.144676 0.144676 0.0723379 0.289352 0.289352 0.289352 0.144676 0.144676 0.144676 0.0723379 0.289352 0.289352 0.289352 0.144676 0.144676 0.144676 0.0723379 0.289352 0.289352 0.289352 0.144676 0.144676 0.144676 0.0723379 0.289352 0.289352 0.289352 0.144676 0.144676 0.144676 0.0723379 0.289352 0.289352 0.289352 0.144676 0.144676 0.144676 0.072338 0.289352 0.289352 0.289352 0.144676 0.144676 0.144676 0.0723379 0.289352 0.289352 0.289352 0.144676 0.144676 0.144676 0.072338 0.289352 0.289352 0.289352 0.144676 0.144676 0.144676 0.0723379 0.289352 0.289352 0.289352 0.144676 0.144676 0.144676 0.0723379 0.289351 0.289352 0.289352 0.144676 0.144676 0.144676 0.0723379 0.289352 0.289352 0.289351 0.144676 0.144676 0.144676 0.0723379 0.289352 0.289352 0.289352 0.144676 0.144676 0.144676 0.072338 0.289352 0.289352 0.289352 0.144676 0.144676 0.144676 0.0723379 0.289352 0.289352 0.289352 0.144676 0.144676 0.144676 0.0723379 0.144676 0.144676 0.289352 0.0723379 0.144676 0.144676 0.0723379 0.289352 0.144676 0.289352 0.289352 0.144676 0.144676 0.144676 0.0723379 0.144676 0.0723379 0.289352 0.289352 0.289352 0.144676 0.144676 0.144676 0.0723379 0.289352 0.289352 0.289352 0.144676 0.144676 0.144676 0.0723379 0.289352 0.289352 0.289352 0.144676 0.144676 0.144676 0.0723379 0.289352 0.289352 0.289352 0.144676 0.144676 0.144676 0.0723379 0.289352 0.289352 0.289352 0.144676 0.144676 0.144676 0.0723379 0.289352 0.289352 0.289352 0.144676 0.144676 0.144676 0.0723379 0.289352 0.289352 0.289352 0.144676 0.144676 0.144676 0.0723379 0.289352 0.289352 0.289352 0.144676 0.144676 0.144676 0.0723379 0.289352 0.289352 0.289352 0.144676 0.144676 0.144676 0.0723379 0.289352 0.289352 0.289352 0.144676 0.144676 0.144676 0.0723379 0.289352 0.289352 0.289352 0.144676 0.144676 0.144676 0.0723379 0.289352 0.289352 0.289352 0.144676 0.144676 0.144676 0.0723379 0.289352 0.289352 0.289352 0.144676 0.144676 0.144676 0.072338 0.289352 0.289352 0.289352 0.144676 0.144676 0.144676 0.0723379 0.289352 0.289352 0.289352 0.144676 0.144676 0.144676 0.072338 0.289352 0.289352 0.289352 0.144676 0.144676 0.144676 0.0723379 0.289352 0.289352 0.289352 0.144676 0.144676 0.144676 0.0723379 0.289351 0.289352 0.289352 0.144676 0.144676 0.144676 0.0723379 0.289352 0.289352 0.289351 0.144676 0.144676 0.144676 0.0723379 0.289352 0.289352 0.289352 0.144676 0.144676 0.144676 0.072338 0.289352 0.289352 0.289352 0.144676 0.144676 0.144676 0.0723379 0.289352 0.289352 0.289352 0.144676 0.144676 0.144676 0.0723379 0.144676 0.144676 0.289352 0.072338 0.144676 0.144676 0.072338 0.289352 0.144676 0.289352 0.289352 0.144676 0.144676 0.144676 0.0723379 0.144676 0.0723379 0.289352 0.289352 0.289352 0.144676 0.144676 0.144676 0.0723379 0.289352 0.289352 0.289352 0.144676 0.144676 0.144676 0.072338 0.289352 0.289352 0.289352 0.144676 0.144676 0.144676 0.0723379 0.289352 0.289352 0.289352 0.144676 0.144676 0.144676 0.0723379 0.289352 0.289352 0.289352 0.144676 0.144676 0.144676 0.0723379 0.289352 0.289352 0.289352 0.144676 0.144676 0.144676 0.072338 0.289352 0.289352 0.289352 0.144676 0.144676 0.144676 0.0723379 0.289352 0.289352 0.289352 0.144676 0.144676 0.144676 0.0723379 0.289352 0.289352 0.289352 0.144676 0.144676 0.144676 0.0723379 0.289352 0.289352 0.289352 0.144676 0.144676 0.144676 0.0723379 0.289352 0.289352 0.289352 0.144676 0.144676 0.144676 0.072338 0.289352 0.289352 0.289352 0.144676 0.144676 0.144676 0.0723379 0.289352 0.289352 0.289352 0.144676 0.144676 0.144676 0.072338 0.289352 0.289352 0.289352 0.144676 0.144676 0.144676 0.0723379 0.289352 0.289352 0.289352 0.144676 0.144676 0.144676 0.072338 0.289352 0.289352 0.289352 0.144676 0.144676 0.144676 0.072338 0.289352 0.289352 0.289352 0.144676 0.144676 0.144676 0.0723379 0.289352 0.289352 0.289352 0.144676 0.144676 0.144676 0.0723379 0.289352 0.289352 0.289351 0.144676 0.144676 0.144676 0.0723379 0.289352 0.289352 0.289352 0.144676 0.144676 0.144676 0.072338 0.289352 0.289352 0.289352 0.144676 0.144676 0.144676 0.0723379 0.289352 0.289352 0.289352 0.144676 0.144676 0.144676 0.0723379 0.144676 0.144676 0.289352 0.072338 0.144676 0.144676 0.072338 0.289352 0.144676 0.289352 0.289352 0.144676 0.144676 0.144676 0.072338 0.144676 0.072338 0.289352 0.289352 0.289352 0.144676 0.144676 0.144676 0.072338 0.289352 0.289352 0.289352 0.144676 0.144676 0.144676 0.072338 0.289352 0.289352 0.289352 0.144676 0.144676 0.144676 0.0723379 0.289352 0.289352 0.289352 0.144676 0.144676 0.144676 0.0723379 0.289352 0.289352 0.289352 0.144676 0.144676 0.144676 0.072338 0.289352 0.289352 0.289352 0.144676 0.144676 0.144676 0.072338 0.289352 0.289352 0.289352 0.144676 0.144676 0.144676 0.0723379 0.289352 0.289352 0.289352 0.144676 0.144676 0.144676 0.072338 0.289352 0.289352 0.289352 0.144676 0.144676 0.144676 0.0723379 0.289352 0.289352 0.289352 0.144676 0.144676 0.144676 0.0723379 0.289352 0.289352 0.289352 0.144676 0.144676 0.144676 0.072338 0.289352 0.289352 0.289352 0.144676 0.144676 0.144676 0.072338 0.289352 0.289352 0.289352 0.144676 0.144676 0.144676 0.072338 0.289352 0.289352 0.289352 0.144676 0.144676 0.144676 0.0723379 0.289352 0.289352 0.289352 0.144676 0.144676 0.144676 0.072338 0.289352 0.289352 0.289352 0.144676 0.144676 0.144676 0.072338 0.289352 0.289352 0.289352 0.144676 0.144676 0.144676 0.0723379 0.289352 0.289352 0.289352 0.144676 0.144676 0.144676 0.0723379 0.289352 0.289352 0.289351 0.144676 0.144676 0.144676 0.0723379 0.289352 0.289352 0.289352 0.144676 0.144676 0.144676 0.072338 0.289352 0.289352 0.289352 0.144676 0.144676 0.144676 0.0723379 0.289352 0.289352 0.289352 0.144676 0.144676 0.144676 0.0723379 0.144676 0.144676 0.289352 0.072338 0.144676 0.144676 0.072338 0.289352 0.144676 0.144676 0.144676 0.0723379 0.144676 0.144676 0.0723379 0.0723379 0.0723379 0.289352 0.144676 0.144676 0.144676 0.144676 0.0723379 0.0723379 0.289352 0.144676 0.144676 0.144676 0.144676 0.0723379 0.0723379 0.289352 0.144676 0.144676 0.144676 0.144676 0.0723379 0.0723379 0.289352 0.144676 0.144676 0.144676 0.144676 0.0723379 0.0723379 0.289352 0.144676 0.144676 0.144676 0.144676 0.0723379 0.0723379 0.289352 0.144676 0.144676 0.144676 0.144676 0.0723379 0.0723379 0.289352 0.144676 0.144676 0.144676 0.144676 0.0723379 0.0723379 0.289352 0.144676 0.144676 0.144676 0.144676 0.0723379 0.0723379 0.289352 0.144676 0.144676 0.144676 0.144676 0.0723379 0.0723379 0.289352 0.144676 0.144676 0.144676 0.144676 0.0723379 0.0723379 0.289352 0.144676 0.144676 0.144676 0.144676 0.0723379 0.0723379 0.289352 0.144676 0.144676 0.144676 0.144676 0.0723379 0.0723379 0.289352 0.144676 0.144676 0.144676 0.144676 0.072338 0.072338 0.289352 0.144676 0.144676 0.144676 0.144676 0.0723379 0.0723379 0.289352 0.144676 0.144676 0.144676 0.144676 0.072338 0.072338 0.289352 0.144676 0.144676 0.144676 0.144676 0.0723379 0.0723379 0.289352 0.144676 0.144676 0.144676 0.144676 0.0723379 0.0723379 0.289351 0.144676 0.144676 0.144676 0.144676 0.0723379 0.0723379 0.289352 0.144676 0.144676 0.144676 0.144676 0.0723379 0.0723379 0.289352 0.144676 0.144676 0.144676 0.144676 0.072338 0.072338 0.289352 0.144676 0.144676 0.144676 0.144676 0.0723379 0.0723379 0.289352 0.144676 0.144676 0.144676 0.144676 0.0723379 0.0723379 0.144676 0.0723379 0.144676 0.0723379 0.144676 0.0723379 0.0723379 0.144676 0.0723379 0.0723379 0.144676 0.0723379 0.289352 0.144676 0.144676 0.0723379 0.144676 0.0723379 0.0723379 0.144676 0.0723379 0.144676 0.0723379 0.144676 0.289352 0.144676 0.0723379 0.144676 0.0723379 0.144676 0.0723379 0.144676 0.0723379 0.144676 0.289352 0.144676 0.0723379 0.144676 0.0723379 0.144676 0.0723379 0.144676 0.0723379 0.144676 0.289352 0.144676 0.0723379 0.144676 0.0723379 0.144676 0.0723379 0.144676 0.0723379 0.144676 0.289352 0.144676 0.0723379 0.144676 0.0723379 0.144676 0.0723379 0.144676 0.0723379 0.144676 0.289352 0.144676 0.0723379 0.144676 0.0723379 0.144676 0.0723379 0.144676 0.0723379 0.144676 0.289352 0.144676 0.0723379 0.144676 0.0723379 0.144676 0.0723379 0.144676 0.0723379 0.144676 0.289352 0.144676 0.0723379 0.144676 0.0723379 0.144676 0.0723379 0.144676 0.0723379 0.144676 0.289352 0.144676 0.0723379 0.144676 0.0723379 0.144676 0.0723379 0.144676 0.0723379 0.144676 0.289352 0.144676 0.0723379 0.144676 0.0723379 0.144676 0.0723379 0.144676 0.0723379 0.144676 0.289352 0.144676 0.0723379 0.144676 0.0723379 0.144676 0.0723379 0.144676 0.0723379 0.144676 0.289352 0.144676 0.0723379 0.144676 0.0723379 0.144676 0.0723379 0.144676 0.0723379 0.144676 0.289352 0.144676 0.0723379 0.144676 0.0723379 0.144676 0.0723379 0.144676 0.0723379 0.144676 0.289352 0.144676 0.0723379 0.144676 0.0723379 0.144676 0.0723379 0.144676 0.0723379 0.144676 0.289352 0.144676 0.0723379 0.144676 0.0723379 0.144676 0.0723379 0.144676 0.0723379 0.144676 0.289352 0.144676 0.0723379 0.144676 0.0723379 0.144676 0.0723379 0.144676 0.0723379 0.144676 0.289352 0.144676 0.0723379 0.144676 0.0723379 0.144676 0.0723379 0.144676 0.0723379 0.144676 0.289351 0.144676 0.0723379 0.144676 0.0723379 0.144676 0.0723379 0.144676 0.0723379 0.144676 0.289351 0.144676 0.0723379 0.144676 0.0723379 0.144676 0.0723379 0.144676 0.0723379 0.144676 0.289352 0.144676 0.0723379 0.144676 0.0723379 0.144676 0.0723379 0.144676 0.0723379 0.144676 0.289352 0.144676 0.0723379 0.144676 0.0723379 0.144676 0.0723379 0.144676 0.0723379 0.144676 0.289352 0.144676 0.0723379 0.144676 0.0723379 0.144676 0.0723379 0.144676 0.0723379 0.144676 0.289352 0.144676 0.0723379 0.144676 0.0723379 0.144676 0.0723379 0.0723379 0.0723379 0.0723379 0.144676 0.144676 0.0723379 0.0723379 0.0723379 0.144676 0.0723379 0.144676 0.0723379 0.289352 0.144676 0.144676 0.144676 0.0723379 0.0723379 0.144676 0.0723379 0.144676 0.289352 0.144676 0.144676 0.0723379 0.144676 0.0723379 0.144676 0.289352 0.144676 0.144676 0.0723379 0.144676 0.0723379 0.144676 0.289352 0.144676 0.144676 0.0723379 0.144676 0.0723379 0.144676 0.289352 0.144676 0.144676 0.0723379 0.144676 0.0723379 0.144676 0.289352 0.144676 0.144676 0.0723379 0.144676 0.0723379 0.144676 0.289352 0.144676 0.144676 0.0723379 0.144676 0.0723379 0.144676 0.289352 0.144676 0.144676 0.0723379 0.144676 0.0723379 0.144676 0.289352 0.144676 0.144676 0.0723379 0.144676 0.0723379 0.144676 0.289352 0.144676 0.144676 0.0723379 0.144676 0.0723379 0.144676 0.289352 0.144676 0.144676 0.0723379 0.144676 0.0723379 0.144676 0.289352 0.144676 0.144676 0.0723379 0.144676 0.0723379 0.144676 0.289352 0.144676 0.144676 0.0723379 0.144676 0.0723379 0.144676 0.289352 0.144676 0.144676 0.0723379 0.144676 0.0723379 0.144676 0.289352 0.144676 0.144676 0.0723379 0.144676 0.0723379 0.144676 0.289352 0.144676 0.144676 0.0723379 0.144676 0.0723379 0.144676 0.289352 0.144676 0.144676 0.0723379 0.144676 0.0723379 0.144676 0.289351 0.144676 0.144676 0.0723379 0.144676 0.0723379 0.144676 0.289351 0.144676 0.144676 0.0723379 0.144676 0.0723379 0.144676 0.289352 0.144676 0.144676 0.0723379 0.144676 0.0723379 0.144676 0.289352 0.144676 0.144676 0.0723379 0.144676 0.0723379 0.144676 0.289352 0.144676 0.144676 0.0723379 0.144676 0.0723379 0.144676 0.289352 0.144676 0.144676 0.0723379 0.144676 0.0723379 0.0723379 0.144676 0.144676 0.0723379 0.0723379 0.144676 0.0723379 0.144676 0.0723379 0.289352 0.144676 0.144676 0.144676 0.0723379 0.0723379 0.144676 0.0723379 0.144676 0.289352 0.144676 0.144676 0.0723379 0.144676 0.0723379 0.144676 0.289352 0.144676 0.144676 0.0723379 0.144676 0.0723379 0.144676 0.289352 0.144676 0.144676 0.0723379 0.144676 0.0723379 0.144676 0.289352 0.144676 0.144676 0.0723379 0.144676 0.0723379 0.144676 0.289352 0.144676 0.144676 0.0723379 0.144676 0.0723379 0.144676 0.289352 0.144676 0.144676 0.0723379 0.144676 0.0723379 0.144676 0.289352 0.144676 0.144676 0.0723379 0.144676 0.0723379 0.144676 0.289352 0.144676 0.144676 0.0723379 0.144676 0.0723379 0.144676 0.289351 0.144676 0.144676 0.0723379 0.144676 0.0723379 0.144676 0.289352 0.144676 0.144676 0.0723379 0.144676 0.0723379 0.144676 0.289352 0.144676 0.144676 0.0723379 0.144676 0.0723379 0.144676 0.289352 0.144676 0.144676 0.0723379 0.144676 0.0723379 0.144676 0.289352 0.144676 0.144676 0.0723379 0.144676 0.0723379 0.144676 0.289352 0.144676 0.144676 0.0723379 0.144676 0.0723379 0.144676 0.289352 0.144676 0.144676 0.0723379 0.144676 0.0723379 0.144676 0.289352 0.144676 0.144676 0.0723379 0.144676 0.0723379 0.144676 0.289351 0.144676 0.144676 0.0723379 0.144676 0.0723379 0.144676 0.289351 0.144676 0.144676 0.0723379 0.144676 0.0723379 0.144676 0.289352 0.144676 0.144676 0.0723379 0.144676 0.0723379 0.144676 0.289352 0.144676 0.144676 0.0723379 0.144676 0.0723379 0.144676 0.289352 0.144676 0.144676 0.0723379 0.144676 0.0723379 0.144676 0.289352 0.144676 0.144676 0.0723379 0.144676 0.0723379 0.0723379 0.144676 0.144676 0.0723379 0.0723379 0.144676 0.0723379 0.144676 0.0723379 0.289352 0.144676 0.144676 0.144676 0.0723379 0.0723379 0.144676 0.0723379 0.144676 0.289352 0.144676 0.144676 0.0723379 0.144676 0.0723379 0.144676 0.289352 0.144676 0.144676 0.0723379 0.144676 0.0723379 0.144676 0.289352 0.144676 0.144676 0.0723379 0.144676 0.0723379 0.144676 0.289352 0.144676 0.144676 0.0723379 0.144676 0.0723379 0.144676 0.289352 0.144676 0.144676 0.0723379 0.144676 0.0723379 0.144676 0.289352 0.144676 0.144676 0.0723379 0.144676 0.0723379 0.144676 0.289352 0.144676 0.144676 0.0723379 0.144676 0.0723379 0.144676 0.289352 0.144676 0.144676 0.0723379 0.144676 0.0723379 0.144676 0.289351 0.144676 0.144676 0.0723379 0.144676 0.0723379 0.144676 0.289352 0.144676 0.144676 0.0723379 0.144676 0.0723379 0.144676 0.289352 0.144676 0.144676 0.0723379 0.144676 0.0723379 0.144676 0.289352 0.144676 0.144676 0.0723379 0.144676 0.0723379 0.144676 0.289352 0.144676 0.144676 0.0723379 0.144676 0.0723379 0.144676 0.289352 0.144676 0.144676 0.0723379 0.144676 0.0723379 0.144676 0.289352 0.144676 0.144676 0.0723379 0.144676 0.0723379 0.144676 0.289352 0.144676 0.144676 0.0723379 0.144676 0.0723379 0.144676 0.289351 0.144676 0.144676 0.0723379 0.144676 0.0723379 0.144676 0.289351 0.144676 0.144676 0.0723379 0.144676 0.0723379 0.144676 0.289352 0.144676 0.144676 0.0723378 0.144676 0.0723378 0.144676 0.289352 0.144676 0.144676 0.0723379 0.144676 0.0723379 0.144676 0.289352 0.144676 0.144676 0.0723379 0.144676 0.0723379 0.144676 0.289352 0.144676 0.144676 0.0723379 0.144676 0.0723379 0.0723379 0.144676 0.144676 0.0723379 0.0723379 0.144676 0.0723379 0.144676 0.0723379 0.289352 0.144676 0.144676 0.144676 0.0723379 0.0723379 0.144676 0.0723379 0.144676 0.289352 0.144676 0.144676 0.0723379 0.144676 0.0723379 0.144676 0.289352 0.144676 0.144676 0.0723379 0.144676 0.0723379 0.144676 0.289352 0.144676 0.144676 0.0723379 0.144676 0.0723379 0.144676 0.289352 0.144676 0.144676 0.0723379 0.144676 0.0723379 0.144676 0.289352 0.144676 0.144676 0.0723379 0.144676 0.0723379 0.144676 0.289352 0.144676 0.144676 0.0723379 0.144676 0.0723379 0.144676 0.289352 0.144676 0.144676 0.0723379 0.144676 0.0723379 0.144676 0.289352 0.144676 0.144676 0.0723379 0.144676 0.0723379 0.144676 0.289352 0.144676 0.144676 0.0723379 0.144676 0.0723379 0.144676 0.289352 0.144676 0.144676 0.0723379 0.144676 0.0723379 0.144676 0.289352 0.144676 0.144676 0.0723379 0.144676 0.0723379 0.144676 0.289352 0.144676 0.144676 0.0723379 0.144676 0.0723379 0.144676 0.289352 0.144676 0.144676 0.0723379 0.144676 0.0723379 0.144676 0.289352 0.144676 0.144676 0.0723379 0.144676 0.0723379 0.144676 0.289352 0.144676 0.144676 0.0723379 0.144676 0.0723379 0.144676 0.289352 0.144676 0.144676 0.0723379 0.144676 0.0723379 0.144676 0.289351 0.144676 0.144676 0.0723379 0.144676 0.0723379 0.144676 0.289351 0.144676 0.144676 0.0723379 0.144676 0.0723379 0.144676 0.289352 0.144676 0.144676 0.0723378 0.144676 0.0723378 0.144676 0.289352 0.144676 0.144676 0.0723379 0.144676 0.0723379 0.144676 0.289352 0.144676 0.144676 0.0723379 0.144676 0.0723379 0.144676 0.289352 0.144676 0.144676 0.0723379 0.144676 0.0723379 0.0723379 0.144676 0.144676 0.0723379 0.0723379 0.144676 0.0723379 0.144676 0.0723379 0.289352 0.144676 0.144676 0.144676 0.0723379 0.0723379 0.144676 0.0723379 0.144676 0.289352 0.144676 0.144676 0.0723379 0.144676 0.0723379 0.144676 0.289352 0.144676 0.144676 0.0723379 0.144676 0.0723379 0.144676 0.289352 0.144676 0.144676 0.0723379 0.144676 0.0723379 0.144676 0.289352 0.144676 0.144676 0.0723379 0.144676 0.0723379 0.144676 0.289352 0.144676 0.144676 0.0723379 0.144676 0.0723379 0.144676 0.289352 0.144676 0.144676 0.0723379 0.144676 0.0723379 0.144676 0.289352 0.144676 0.144676 0.0723379 0.144676 0.0723379 0.144676 0.289352 0.144676 0.144676 0.0723379 0.144676 0.0723379 0.144676 0.289352 0.144676 0.144676 0.0723379 0.144676 0.0723379 0.144676 0.289352 0.144676 0.144676 0.0723379 0.144676 0.0723379 0.144676 0.289352 0.144676 0.144676 0.0723379 0.144676 0.0723379 0.144676 0.289352 0.144676 0.144676 0.0723379 0.144676 0.0723379 0.144676 0.289352 0.144676 0.144676 0.0723379 0.144676 0.0723379 0.144676 0.289352 0.144676 0.144676 0.0723379 0.144676 0.0723379 0.144676 0.289352 0.144676 0.144676 0.0723379 0.144676 0.0723379 0.144676 0.289352 0.144676 0.144676 0.0723379 0.144676 0.0723379 0.144676 0.289352 0.144676 0.144676 0.0723379 0.144676 0.0723379 0.144676 0.289351 0.144676 0.144676 0.0723379 0.144676 0.0723379 0.144676 0.289352 0.144676 0.144676 0.0723379 0.144676 0.0723379 0.144676 0.289352 0.144676 0.144676 0.0723379 0.144676 0.0723379 0.144676 0.289352 0.144676 0.144676 0.0723379 0.144676 0.0723379 0.144676 0.289352 0.144676 0.144676 0.0723379 0.144676 0.0723379 0.0723379 0.144676 0.144676 0.0723379 0.0723379 0.144676 0.0723379 0.144676 0.0723379 0.289352 0.144676 0.144676 0.144676 0.0723379 0.0723379 0.144676 0.0723379 0.144676 0.289352 0.144676 0.144676 0.0723379 0.144676 0.0723379 0.144676 0.289352 0.144676 0.144676 0.0723379 0.144676 0.0723379 0.144676 0.289352 0.144676 0.144676 0.0723379 0.144676 0.0723379 0.144676 0.289352 0.144676 0.144676 0.0723379 0.144676 0.0723379 0.144676 0.289352 0.144676 0.144676 0.0723379 0.144676 0.0723379 0.144676 0.289352 0.144676 0.144676 0.0723379 0.144676 0.0723379 0.144676 0.289352 0.144676 0.144676 0.0723379 0.144676 0.0723379 0.144676 0.289352 0.144676 0.144676 0.0723379 0.144676 0.0723379 0.144676 0.289352 0.144676 0.144676 0.0723379 0.144676 0.0723379 0.144676 0.289352 0.144676 0.144676 0.0723379 0.144676 0.0723379 0.144676 0.289352 0.144676 0.144676 0.0723379 0.144676 0.0723379 0.144676 0.289352 0.144676 0.144676 0.0723379 0.144676 0.0723379 0.144676 0.289352 0.144676 0.144676 0.0723379 0.144676 0.0723379 0.144676 0.289352 0.144676 0.144676 0.0723379 0.144676 0.0723379 0.144676 0.289352 0.144676 0.144676 0.0723379 0.144676 0.0723379 0.144676 0.289352 0.144676 0.144676 0.0723379 0.144676 0.0723379 0.144676 0.289352 0.144676 0.144676 0.0723379 0.144676 0.0723379 0.144676 0.289351 0.144676 0.144676 0.0723379 0.144676 0.0723379 0.144676 0.289352 0.144676 0.144676 0.0723379 0.144676 0.0723379 0.144676 0.289352 0.144676 0.144676 0.0723379 0.144676 0.0723379 0.144676 0.289351 0.144676 0.144676 0.0723379 0.144676 0.0723379 0.144676 0.289352 0.144676 0.144676 0.0723379 0.144676 0.0723379 0.0723379 0.144676 0.144676 0.0723379 0.0723379 0.144676 0.0723379 0.144676 0.0723379 0.144676 0.0723379 0.0723379 0.144676 0.0723379 0.0723379 0.0723379 0.0723379 0.144676 0.144676 0.0723379 0.144676 0.0723379 0.0723379 0.0723379 0.144676 0.144676 0.0723379 0.144676 0.0723379 0.0723379 0.0723379 0.144676 0.144676 0.0723379 0.144676 0.0723379 0.0723379 0.0723379 0.144676 0.144676 0.0723379 0.144676 0.0723379 0.0723379 0.0723379 0.144676 0.144676 0.0723379 0.144676 0.0723379 0.0723379 0.0723379 0.144676 0.144676 0.0723379 0.144676 0.0723379 0.0723379 0.0723379 0.144676 0.144676 0.0723379 0.144676 0.0723379 0.0723379 0.0723379 0.144676 0.144676 0.0723379 0.144676 0.0723379 0.0723379 0.0723379 0.144676 0.144676 0.0723379 0.144676 0.0723379 0.0723379 0.0723379 0.144676 0.144676 0.0723379 0.144676 0.0723379 0.0723379 0.0723379 0.144676 0.144676 0.0723379 0.144676 0.0723379 0.0723379 0.0723379 0.144676 0.144676 0.0723379 0.144676 0.0723379 0.0723379 0.0723379 0.144676 0.144676 0.0723379 0.144676 0.0723379 0.0723379 0.0723379 0.144676 0.144676 0.0723379 0.144676 0.0723379 0.0723379 0.0723379 0.144676 0.144676 0.0723379 0.144676 0.0723379 0.0723379 0.0723379 0.144676 0.144676 0.0723379 0.144676 0.0723379 0.0723379 0.0723379 0.144676 0.144676 0.0723379 0.144676 0.0723379 0.0723379 0.0723379 0.144676 0.144676 0.0723379 0.144676 0.0723379 0.0723379 0.0723379 0.144676 0.144676 0.0723378 0.144676 0.0723378 0.0723378 0.0723378 0.144676 0.144676 0.0723379 0.144676 0.0723379 0.0723379 0.0723379 0.144676 0.144676 0.0723379 0.144676 0.0723379 0.0723379 0.0723379 0.144676 0.144676 0.0723379 0.144676 0.0723379 0.0723379 0.0723379 0.0723379 0.0723379 0.0723379 0.0723379 0.0723379 0.0723379 0.0723379 
VECTORS u float
0 0 0  -0.0051669 -0.00344534 -0.00584853  -0.00940995 -0.00639571 -0.00793695  -0.0136135 -0.0104698 -0.00854766  -0.0178178 -0.0159608 -0.00829887  -0.0218085 -0.0224576 -0.00768816  -0.0255606 -0.0299967 -0.00698245  -0.0290464 -0.0382615 -0.00621402  -0.0322604 -0.0473097 -0.00548565  -0.0351982 -0.0568955 -0.004776  -0.0378692 -0.0670682 -0.00412846  -0.0402792 -0.0776351 -0.00351822  -0.0424446 -0.0886234 -0.00296664  -0.0443771 -0.0998846 -0.00245559  -0.046095 -0.111424 -0.00199831  -0.0476125 -0.123132 -0.00158095  -0.0489492 -0.134996 -0.00121427  -0.0501211 -0.146941 -0.000889421  -0.0511456 -0.158943 -0.000611901  -0.0520401 -0.170954 -0.000376463  -0.052825 -0.182947 -0.000187874  -0.0535181 -0.194893 -4.43459e-05  -0.0541394 -0.206772 5.62668e-05  -0.0547132 -0.218575 0.000121117  -0.0552709 -0.230318 0.000169277  0 0 0  -0.00291786 -0.00166631 -0.00428891  -0.00606325 -0.00463752 -0.005777  -0.00915903 -0.00887328 -0.0062449  -0.0122345 -0.0144448 -0.00610375  -0.015223 -0.0211409 -0.00569201  -0.0180785 -0.0288038 -0.00518525  -0.0207779 -0.0372796 -0.00462961  -0.0233052 -0.0464692 -0.00409234  -0.0256485 -0.0562557 -0.00356746  -0.0278093 -0.0665669 -0.00308597  -0.0297878 -0.0773082 -0.00263095  -0.0315932 -0.08842 -0.00222051  -0.0332314 -0.0998237 -0.00183856  -0.0347146 -0.111467 -0.00149798  -0.0360519 -0.123284 -0.00118637  -0.0372568 -0.135231 -0.000913024  -0.0383387 -0.147254 -0.000670314  -0.0393114 -0.159318 -0.000463963  -0.040185 -0.17138 -0.000287414  -0.0409753 -0.183414 -0.000145912  -0.0416913 -0.195389 -3.43323e-05  -0.0423465 -0.207291 4.8995e-05  -0.0429509 -0.219106 0.000116467  -0.0435216 -0.230851 0.000184894  0 0 0  -0.00178676 -0.000712439 -0.002828  -0.00361128 -0.00341883 -0.00374281  -0.00557876 -0.0077534 -0.00405741  -0.00759947 -0.0134317 -0.00398719  -0.00960153 -0.0202386 -0.00373149  -0.0115532 -0.0280177 -0.0033952  -0.0134322 -0.0366183 -0.00303614  -0.0152237 -0.045931 -0.0026772  -0.0169182 -0.0558449 -0.00233519  -0.0185106 -0.0662748 -0.00201273  -0.0199991 -0.0771336 -0.00171518  -0.021386 -0.0883509 -0.00144064  -0.0226727 -0.0998543 -0.00119066  -0.0238646 -0.111584 -0.000963688  -0.0249659 -0.123482 -0.00075984  -0.0259825 -0.135497 -0.000577569  -0.0269208 -0.14758 -0.000417948  -0.027787 -0.159693 -0.00028038  -0.0285873 -0.171798 -0.000164151  -0.0293298 -0.183866 -6.84261e-05  -0.0300174 -0.195871 7.86781e-06  -0.0306578 -0.207796 6.90222e-05  -0.031255 -0.219628 0.000124812  -0.0318229 -0.231354 0.000188828  0 0 0  -0.000769064 -0.000286937 -0.0013864  -0.00160569 -0.00282532 -0.0018419  -0.00252867 -0.00713784 -0.00199234  -0.00352037 -0.0128724 -0.00195336  -0.0045473 -0.0197525 -0.00182426  -0.00558442 -0.0276098 -0.00165534  -0.00662553 -0.0362955 -0.00147128  -0.00765795 -0.045693 -0.00129044  -0.00867379 -0.0556942 -0.00111544  -0.00966692 -0.0662081 -0.00095284  -0.0106318 -0.0771483 -0.000801563  -0.0115663 -0.0884416 -0.0006634  -0.0124674 -0.100016 -0.000537038  -0.0133343 -0.11181 -0.000423312  -0.0141659 -0.123764 -0.000320554  -0.0149626 -0.135829 -0.000229359  -0.0157244 -0.147955 -0.00014925  -0.0164528 -0.160105 -8.08239e-05  -0.017148 -0.172241 -2.18153e-05  -0.0178137 -0.184336 2.6226e-05  -0.0184488 -0.196362 6.58035e-05  -0.0190558 -0.208307 9.77516e-05  -0.0196357 -0.220148 0.000128746  -0.0201945 -0.231856 0.000167966  0 0 0  7.25687e-05 -0.000205606 4.35114e-05  0.000175595 -0.00270554 4.45843e-05  0.000253886 -0.00704291 4.673e-05  0.000277281 -0.0128016 5.28097e-05  0.000230312 -0.019716 6.13928e-05  0.000108778 -0.0276132 7.12872e-05  -8.57115e-05 -0.0363424 8.17776e-05  -0.000348806 -0.0457864 9.14335e-05  -0.000673413 -0.0558368 9.95398e-05  -0.0010525 -0.0663991 0.00010705  -0.0014782 -0.0773876 0.000112772  -0.00194395 -0.0887257 0.000117421  -0.00244224 -0.100342 0.000120521  -0.002967 -0.112174 0.000122905  -0.00351202 -0.124162 0.000124693  -0.00407159 -0.136257 0.000126362  -0.00464106 -0.148408 0.000126958  -0.00521541 -0.160579 0.000127554  -0.0057919 -0.172733 0.000127912  -0.00636721 -0.184841 0.000128031  -0.00693774 -0.19688 0.000128388  -0.00750303 -0.208833 0.000128388  -0.00806117 -0.22068 0.000129461  -0.00860763 -0.232378 0.000131011  0 0 0  0.000904471 -0.000449359 0.00146568  0.00194603 -0.00307715 0.00191867  0.00302529 -0.00744349 0.00207305  0.00406194 -0.0132161 0.00204742  0.00499135 -0.0201345 0.00193906  0.00578266 -0.0280356 0.00179267  0.006432 -0.0367722 0.00163174  0.00693727 -0.0462272 0.00147104  0.00730336 -0.0562901 0.00131476  0.00753891 -0.0668673 0.00116694  0.00765336 -0.0778701 0.0010283  0.007658 -0.0892228 0.000898957  0.00756431 -0.100851 0.00077951  0.00738358 -0.112696 0.000670433  0.0071274 -0.124693 0.000571489  0.00680661 -0.136796 0.000483036  0.00643158 -0.148953 0.000404358  0.0060122 -0.161129 0.000336409  0.00555754 -0.173284 0.000278831  0.00507331 -0.185393 0.000230432  0.00456834 -0.19743 0.000190973  0.00404549 -0.209381 0.000159502  0.00351 -0.221225 0.000129819  0.00297499 -0.232932 9.52482e-05  0 0 0  0.00189359 -0.00103217 0.00287855  0.00391585 -0.00391424 0.00378442  0.00604028 -0.00836104 0.00409627  0.00809723 -0.0141174 0.00404584  0.00999248 -0.0210064 0.0038178  0.0116881 -0.0288776 0.00351381  0.0131693 -0.0375868 0.0031836  0.0144303 -0.0470189 0.00285161  0.0154749 -0.0570598 0.00253129  0.0163119 -0.0676183 0.00222778  0.0169542 -0.0786032 0.00194335  0.0174161 -0.0899394 0.0016793  0.0177138 -0.101552 0.00143611  0.0178648 -0.113381 0.0012145  0.0178847 -0.125364 0.0010134  0.0177901 -0.137451 0.000833988  0.0175972 -0.149595 0.00067544  0.0173206 -0.161757 0.000538111  0.0169752 -0.173899 0.00042212  0.0165718 -0.185994 0.000326157  0.0161231 -0.198017 0.000249624  0.0156374 -0.209953 0.000189066  0.0151212 -0.221789 0.000134349  0.014591 -0.233513 7.39098e-05  0 0 0  0.00288676 -0.00214493 0.00431597  0.0062657 -0.0053457 0.00573814  0.00953922 -0.00978136 0.00618994  0.0126346 -0.0154735 0.0060842  0.0154981 -0.0223135 0.00572455  0.0180845 -0.0301208 0.00526166  0.0203794 -0.0387806 0.00475299  0.0223749 -0.0481529 0.00424922  0.0240728 -0.0581446 0.00375736  0.0254856 -0.0686478 0.00329626  0.0266277 -0.0795855 0.00286055  0.0275195 -0.0908719 0.00246024  0.028181 -0.102441 0.00208902  0.028635 -0.114226 0.00175214  0.0289023 -0.126169 0.00144517  0.0290058 -0.138219 0.0011729  0.0289664 -0.150327 0.000931501  0.0288045 -0.162456 0.0007236  0.0285404 -0.174568 0.000547647  0.0281918 -0.186636 0.000404954  0.027777 -0.198633 0.000293136  0.0273108 -0.210547 0.00020957  0.0268047 -0.222365 0.00014329  0.0262742 -0.234108 7.53403e-05  0 0 0  0.00519288 -0.00406063 0.00579619  0.0094299 -0.00731719 0.00781512  0.0138093 -0.0116522 0.00838971  0.0179839 -0.0173222 0.00818312  0.0218351 -0.0240633 0.0076685  0.0253071 -0.0318165 0.00701356  0.0283952 -0.0403674 0.00632298  0.0310888 -0.0496708 0.00563121  0.0334026 -0.0595547 0.00496995  0.0353442 -0.0699848 0.00434268  0.0369428 -0.0808239 0.00375915  0.0382152 -0.0920382 0.00321591  0.0391945 -0.103521 0.00271857  0.0399019 -0.115237 0.00226188  0.0403703 -0.127106 0.00184953  0.0406225 -0.139094 0.00148129  0.0406876 -0.15114 0.00115669  0.0405896 -0.163215 0.000875831  0.0403571 -0.175279 0.000639558  0.0400133 -0.187302 0.000450015  0.0395818 -0.199264 0.000304818  0.0390882 -0.211146 0.000203967  0.0385547 -0.222943 0.000139356  0.0380127 -0.234689 8.74996e-05  0 0 0  -0.0039658 -0.00501156 -0.0037185  -0.00867502 -0.00834013 -0.00572205  -0.0135019 -0.012559 -0.00635707  -0.0180115 -0.0178541 -0.00627255  -0.0221964 -0.0242188 -0.0058589  -0.0260381 -0.0314983 -0.00531757  -0.0295604 -0.0396244 -0.00473475  -0.0327702 -0.0484513 -0.00416577  -0.0356891 -0.0579188 -0.00362384  -0.0383258 -0.0679119 -0.00312233  -0.0407017 -0.0783773 -0.00265861  -0.0428274 -0.0892222 -0.00223529  -0.0447235 -0.100396 -0.00184906  -0.0464027 -0.111822 -0.00149953  -0.0478852 -0.123455 -0.0011847  -0.049186 -0.135234 -0.000905037  -0.050324 -0.147117 -0.000660062  -0.0513155 -0.159058 -0.000448942  -0.0521796 -0.171024 -0.000272036  -0.0529358 -0.182979 -0.000129938  -0.0536034 -0.1949 -2.20537e-05  -0.0542078 -0.206767 5.48363e-05  -0.0547743 -0.218572 0.000109315  -0.0553346 -0.230328 0.000158429  0 0 0  -0.0018691 -0.00282284 -0.00274038  -0.00543198 -0.0063114 -0.00420952  -0.00903815 -0.0107486 -0.00466692  -0.012428 -0.0162906 -0.00462472  -0.0155939 -0.0228575 -0.00432515  -0.0185402 -0.030355 -0.00393438  -0.021273 -0.0386619 -0.00350058  -0.0237982 -0.0476824 -0.00308454  -0.0261219 -0.0573142 -0.00267816  -0.0282519 -0.0674774 -0.00231016  -0.0301958 -0.0780867 -0.00196195  -0.0319641 -0.0890745 -0.00165009  -0.0335661 -0.100368 -0.00136018  -0.035013 -0.11191 -0.00110233  -0.0363156 -0.123638 -0.000866771  -0.0374858 -0.135504 -0.000659823  -0.0385351 -0.147459 -0.00047648  -0.0394762 -0.159462 -0.000320196  -0.0403209 -0.171476 -0.000187635  -0.0410829 -0.18347 -8.02279e-05  -0.0417755 -0.195419 3.33786e-06  -0.0424128 -0.207303 6.67572e-05  -0.043009 -0.219112 0.000118256  -0.0435836 -0.230857 0.000166893  0 0 0  -0.00110248 -0.00169674 -0.00178444  -0.00317685 -0.0049143 -0.00272  -0.00548235 -0.00945352 -0.00305545  -0.00773367 -0.0151474 -0.00303459  -0.00987202 -0.0218764 -0.00284183  -0.0118958 -0.0295255 -0.00257885  -0.0138022 -0.0379794 -0.00229335  -0.0155953 -0.0471399 -0.00201368  -0.0172752 -0.0569065 -0.00174642  -0.0188454 -0.0671965 -0.00149953  -0.0203077 -0.0779251 -0.00127077  -0.0216664 -0.0890223 -0.00106251  -0.0229253 -0.100417 -0.000871778  -0.0240891 -0.112048 -0.000700116  -0.0251633 -0.123856 -0.000545025  -0.026154 -0.135791 -0.000407696  -0.0270674 -0.147805 -0.000286579  -0.0279102 -0.159859 -0.000182629  -0.0286884 -0.171914 -9.42945e-05  -0.0294101 -0.183942 -2.24113e-05  -0.030081 -0.195916 3.5882e-05  -0.0307097 -0.20782 8.2016e-05  -0.0313041 -0.219637 0.000123501  -0.0318789 -0.23136 0.000164509  0 0 0  -0.000477448 -0.00121909 -0.000895858  -0.00142954 -0.00422436 -0.00134552  -0.00251219 -0.00874951 -0.00150406  -0.00362524 -0.0145209 -0.00149369  -0.00472522 -0.0213466 -0.00139606  -0.00580466 -0.0290934 -0.00125933  -0.00686091 -0.0376452 -0.00111198  -0.00789362 -0.0468996 -0.000967264  -0.00890028 -0.0567594 -0.000830173  -0.0098784 -0.0671375 -0.000703216  -0.0108261 -0.0779507 -0.00058651  -0.0117419 -0.0891258 -0.000480175  -0.0126245 -0.100592 -0.000383258  -0.0134729 -0.112287 -0.000296235  -0.0142866 -0.124153 -0.000217795  -0.0150663 -0.136139 -0.000148177  -0.0158117 -0.148196 -8.70228e-05  -0.0165253 -0.160286 -3.40939e-05  -0.0172076 -0.172371 1.07288e-05  -0.0178604 -0.184424 4.76837e-05  -0.0184855 -0.196418 7.79629e-05  -0.0190859 -0.208336 0.000102878  -0.0196643 -0.220159 0.000126958  -0.0202274 -0.231862 0.000151038  0 0 0  5.02765e-05 -0.0011268 1.32322e-05  0.000131398 -0.00408223 1.56164e-05  0.000187933 -0.00861678 1.84774e-05  0.000192344 -0.014422 2.58684e-05  0.000132859 -0.0212933 3.69549e-05  5.24521e-06 -0.0290886 4.93526e-05  -0.000190079 -0.037691 6.1512e-05  -0.000449777 -0.046997 7.28369e-05  -0.000768423 -0.0569087 8.23736e-05  -0.0011394 -0.0673377 9.07183e-05  -0.00155604 -0.0781999 9.76324e-05  -0.00201201 -0.0894209 0.000102878  -0.00250101 -0.100929 0.000107408  -0.00301647 -0.112662 0.000110865  -0.00355279 -0.124562 0.000113964  -0.00410485 -0.136576 0.00011611  -0.00466657 -0.148659 0.000118136  -0.00523543 -0.160769 0.000119686  -0.00580668 -0.172871 0.000121117  -0.00637746 -0.184936 0.000122428  -0.00694466 -0.196941 0.000123978  -0.0075078 -0.208866 0.000125647  -0.00806379 -0.220692 0.000127554  -0.00861025 -0.232387 0.000129938  0 0 0  0.000575081 -0.00135869 0.000917315  0.00168756 -0.00445038 0.00136745  0.00287837 -0.0090304 0.00153077  0.00399566 -0.0148472 0.00153625  0.00497156 -0.0217189 0.00146246  0.00579178 -0.0295175 0.00135279  0.0064553 -0.0381271 0.00123191  0.00696766 -0.0474446 0.00111067  0.00733769 -0.0573695 0.000993967  0.00757527 -0.0678132 0.000884414  0.00769114 -0.0786899 0.000781894  0.00769687 -0.0899245 0.000686526  0.00760341 -0.101445 0.000598788  0.00742304 -0.113189 0.00051856  0.00716674 -0.125098 0.000445962  0.00684476 -0.137119 0.000381112  0.00646806 -0.149206 0.000323772  0.00604606 -0.16132 0.000274181  0.00558782 -0.173423 0.000231862  0.00510073 -0.185489 0.000197768  0.0045917 -0.197492 0.000170112  0.00406671 -0.209415 0.000148177  0.00353312 -0.22124 0.000128508  0.00300288 -0.232943 0.000108957  0 0 0  0.00119375 -0.00197458 0.00178885  0.00341445 -0.00535351 0.00271368  0.0058119 -0.0100061 0.00304759  0.00805092 -0.0157942 0.00304651  0.0100512 -0.0226224 0.00288439  0.0118058 -0.0303815 0.00265467  0.0133144 -0.0389584 0.00240171  0.0145862 -0.0482484 0.0021503  0.0156322 -0.0581499 0.00190759  0.0164658 -0.0685724 0.00168014  0.0171024 -0.0794297 0.00146687  0.0175573 -0.0906461 0.00127065  0.0178478 -0.102149 0.00108945  0.0179904 -0.113877 0.000924945  0.0180017 -0.125768 0.000775695  0.0178971 -0.137774 0.000642776  0.017694 -0.149846 0.000525236  0.0174065 -0.161944 0.000424027  0.0170493 -0.174033 0.000338197  0.0166349 -0.186085 0.000268579  0.0161753 -0.198075 0.000213146  0.0156813 -0.209986 0.000169635  0.0151644 -0.221806 0.000132203  0.0146418 -0.233529 9.56059e-05  0 0 0  0.00191492 -0.00314915 0.00272918  0.00561234 -0.00693142 0.00410151  0.00927979 -0.0115494 0.0045886  0.0126291 -0.0172442 0.00457323  0.0156335 -0.0239823 0.00432372  0.0182998 -0.0316628 0.00397313  0.0206313 -0.0401703 0.00358832  0.0226386 -0.0493971 0.00320387  0.0243354 -0.0592399 0.00283301  0.0257398 -0.0696071 0.00248456  0.0268704 -0.0804119 0.00215876  0.0277486 -0.0915787 0.00185788  0.028396 -0.103035 0.00158131  0.0288348 -0.114717 0.0013293  0.0290866 -0.126566 0.00110066  0.0291734 -0.138532 0.000897288  0.0291159 -0.150566 0.000717759  0.0289359 -0.162631 0.000563383  0.0286527 -0.174689 0.000433207  0.0282853 -0.186713 0.000328064  0.0278521 -0.198678 0.000246763  0.0273709 -0.210572 0.000185966  0.0268586 -0.222381 0.000138164  0.0263319 -0.234124 9.42945e-05  0 0 0  0.00411589 -0.00541097 0.00364923  0.00877222 -0.00917745 0.00556183  0.0135288 -0.013583 0.00616336  0.0179676 -0.0191363 0.00613093  0.0219758 -0.0257487 0.00577915  0.025537 -0.0333186 0.00530541  0.0286639 -0.0417286 0.00477815  0.0313739 -0.0508587 0.00426185  0.0336839 -0.0606129 0.003757  0.0356199 -0.0708917 0.00328958  0.0372033 -0.0816151 0.00284696  0.0384637 -0.0927013 0.00244319  0.0394256 -0.104082 0.00206745  0.0401186 -0.115692 0.00172865  0.040568 -0.127475 0.00141895  0.0408027 -0.139378 0.00114477  0.040848 -0.151353 0.000902295  0.0407314 -0.163365 0.000694156  0.040478 -0.175375 0.00051868  0.0401134 -0.187358 0.000378489  0.0396628 -0.199288 0.000273108  0.0391538 -0.211156 0.000198007  0.0386121 -0.222952 0.000146627  0.0380681 -0.234703 0.000100613  0 0 0  -0.0041244 -0.00574346 -0.00224304  -0.00871323 -0.00952515 -0.00353074  -0.0133835 -0.0139144 -0.00408387  -0.0179663 -0.0192077 -0.00411165  -0.0222376 -0.0254632 -0.00388944  -0.0261562 -0.0326289 -0.00354207  -0.029723 -0.04062 -0.0031575  -0.0329593 -0.0493292 -0.00277388  -0.0358832 -0.0586776 -0.00240839  -0.0385187 -0.0685692 -0.00206947  -0.0408822 -0.0789366 -0.00175655  -0.0429956 -0.0896955 -0.00147164  -0.0448744 -0.100789 -0.00121152  -0.0465392 -0.112144 -0.00097692  -0.0480043 -0.123713 -0.000765324  -0.0492899 -0.135435 -0.000577688  -0.0504124 -0.147269 -0.000412822  -0.0513911 -0.159167 -0.000271559  -0.0522432 -0.171098 -0.00015223  -0.0529909 -0.183025 -5.74589e-05  -0.0536532 -0.194928 1.66893e-05  -0.0542557 -0.206782 7.05719e-05  -0.0548222 -0.218584 0.000110388  -0.0553823 -0.230345 0.000145674  0 0 0  -0.00177068 -0.00335027 -0.00165296  -0.00519681 -0.00727873 -0.00263834  -0.00886178 -0.0119216 -0.00304961  -0.0124016 -0.017502 -0.00307441  -0.0156828 -0.0240232 -0.00290012  -0.0187137 -0.0314311 -0.00263631  -0.0214918 -0.0396326 -0.00234497  -0.0240391 -0.0485438 -0.002056  -0.0263649 -0.0580695 -0.00178111  -0.0284878 -0.0681327 -0.00152671  -0.0304166 -0.0786493 -0.00129235  -0.032168 -0.0895517 -0.00107872  -0.0337505 -0.100767 -0.000884175  -0.0351787 -0.112239 -0.000707984  -0.0364616 -0.123904 -0.000549793  -0.0376135 -0.135714 -0.000409365  -0.0386443 -0.147619 -0.000285745  -0.0395691 -0.159581 -0.00017941  -0.0403986 -0.171559 -9.01222e-05  -0.0411482 -0.183526 -1.70469e-05  -0.0418308 -0.195453 4.00543e-05  -0.0424609 -0.207324 8.4281e-05  -0.0430546 -0.219126 0.000119925  -0.0436263 -0.230874 0.000153899  0 0 0  -0.00104321 -0.0021725 -0.00107849  -0.00303584 -0.00576654 -0.00172508  -0.00537118 -0.0105028 -0.00200152  -0.00772563 -0.0162709 -0.0020237  -0.00996077 -0.0229874 -0.00190806  -0.0120512 -0.0305726 -0.0017314  -0.0139963 -0.0389405 -0.0015353  -0.0158058 -0.0480015 -0.00134134  -0.0174878 -0.0576695 -0.00115705  -0.0190502 -0.0678616 -0.000986934  -0.0204997 -0.0785 -0.000830054  -0.0218426 -0.0895114 -0.000687361  -0.0230845 -0.100828 -0.000557542  -0.0242316 -0.112388 -0.00044024  -0.0252891 -0.124133 -0.00033462  -0.0262637 -0.136011 -0.000241041  -0.0271614 -0.147976 -0.000158429  -0.0279894 -0.159987 -8.67844e-05  -0.0287542 -0.172007 -2.68221e-05  -0.0294645 -0.184005 2.2769e-05  -0.0301268 -0.195957 6.25849e-05  -0.0307491 -0.207845 9.52482e-05  -0.0313392 -0.219655 0.000123858  -0.0319147 -0.231381 0.000151157  0 0 0  -0.000459589 -0.00163525 -0.000537395  -0.00136118 -0.0050033 -0.000854731  -0.00247431 -0.00972557 -0.000988722  -0.00364438 -0.0155853 -0.000997901  -0.00479907 -0.022416 -0.000936627  -0.00591773 -0.0301189 -0.000843287  -0.00699657 -0.0385958 -0.000740409  -0.00803846 -0.0477615 -0.000638723  -0.009045 -0.0575266 -0.000542879  -0.0100175 -0.0678114 -0.000453949  -0.0109556 -0.0785344 -0.000373006  -0.0118601 -0.0896256 -0.000298977  -0.0127305 -0.101014 -0.0002321  -0.0135667 -0.112638 -0.000171542  -0.0143687 -0.12444 -0.000117183  -0.0151371 -0.136369 -6.8903e-05  -0.0158722 -0.148375 -2.6226e-05  -0.0165758 -0.160422 1.07288e-05  -0.0172489 -0.17247 4.22001e-05  -0.0178945 -0.184493 6.83069e-05  -0.0185134 -0.196463 9.0003e-05  -0.0191095 -0.208365 0.000108361  -0.0196855 -0.220179 0.000125408  -0.0202496 -0.231888 0.00014174  0 0 0  3.99202e-05 -0.00151867 3.21865e-06  0.000105888 -0.00483483 4.64916e-06  0.000148416 -0.00956163 7.98702e-06  0.000140965 -0.0154599 1.51396e-05  7.15852e-05 -0.0223447 2.51532e-05  -6.25849e-05 -0.030103 3.63588e-05  -0.000260949 -0.0386381 4.74453e-05  -0.000520229 -0.0478587 5.81741e-05  -0.000835776 -0.05768 6.75917e-05  -0.00120211 -0.0680164 7.54595e-05  -0.0016129 -0.0787906 8.2612e-05  -0.00206268 -0.0899272 8.88109e-05  -0.00254512 -0.101358 9.38177e-05  -0.00305402 -0.11302 9.83477e-05  -0.00358427 -0.124856 0.000102043  -0.00413048 -0.136812 0.0001055  -0.00468755 -0.148844 0.000108719  -0.00525188 -0.16091 0.000111699  -0.00581884 -0.172975 0.000114322  -0.00638676 -0.18501 0.000116706  -0.00695205 -0.19699 0.000119567  -0.00751305 -0.208897 0.000122428  -0.00806856 -0.220714 0.000126004  -0.00861526 -0.232415 0.000128984  0 0 0  0.000538811 -0.00176376 0.000541329  0.0015687 -0.00521088 0.000858188  0.00276241 -0.00998664 0.000998497  0.00391084 -0.015894 0.00102174  0.00492102 -0.0227763 0.000981569  0.00576735 -0.0305368 0.000911713  0.00644761 -0.0390772 0.000833273  0.00697041 -0.0483101 0.000753522  0.00734639 -0.0581436 0.00067699  0.00758755 -0.0684959 0.000605106  0.00770617 -0.0792838 0.000538468  0.0077132 -0.0904352 0.000476599  0.00762177 -0.101878 0.000420213  0.00744212 -0.113551 0.000368595  0.00718653 -0.125394 0.000322104  0.00686431 -0.137358 0.00028038  0.00648737 -0.149394 0.000244141  0.00606418 -0.161463 0.000212908  0.00560498 -0.173529 0.000186682  0.00511622 -0.185564 0.000165582  0.00460577 -0.197542 0.000149369  0.0040803 -0.209448 0.000136852  0.00354552 -0.221263 0.000126362  0.0030148 -0.232972 0.000116467  0 0 0  0.00110734 -0.00241858 0.00106966  0.00322348 -0.00616825 0.00170875  0.00562274 -0.0110131 0.00198829  0.00793678 -0.0168791 0.00202656  0.0100108 -0.0237065 0.00193536  0.0118188 -0.0314147 0.00178695  0.0133609 -0.0399157 0.00161898  0.0146509 -0.0491161 0.00145042  0.0157056 -0.0589246 0.00128829  0.0165422 -0.069254 0.0011369  0.0171785 -0.080023 0.000995874  0.0176315 -0.0911555 0.000866413  0.0179191 -0.102581 0.000747085  0.0180581 -0.114237 0.000638723  0.0180651 -0.126064 0.000540853  0.017956 -0.138011 0.000453949  0.0177474 -0.150031 0.000377417  0.0174544 -0.162085 0.000311613  0.0170915 -0.174136 0.0002563  0.0166714 -0.186157 0.000212073  0.0162077 -0.198123 0.000177145  0.0157104 -0.210018 0.000150561  0.0151906 -0.221829 0.000128388  0.0146675 -0.233555 0.000107646  0 0 0  0.00187036 -0.00368577 0.00161898  0.00535101 -0.00785023 0.00257874  0.00904247 -0.0126511 0.00299323  0.0124925 -0.0183954 0.00303602  0.0155928 -0.0251043 0.00289571  0.0183281 -0.0327139 0.00266671  0.0207021 -0.0411319 0.00241137  0.0227326 -0.050263 0.00215316  0.0244406 -0.0600083 0.0019058  0.025848 -0.0702821 0.00167286  0.0269777 -0.0809972 0.0014571  0.0278521 -0.0920811 0.00125742  0.0284946 -0.103459 0.00107479  0.0289272 -0.115071 0.000908136  0.0291728 -0.126855 0.000757933  0.0292521 -0.138763 0.000623941  0.0291877 -0.150746 0.000506282  0.0289996 -0.162767 0.000405073  0.0287085 -0.174786 0.000320315  0.0283337 -0.186781 0.000252843  0.0278952 -0.198723 0.000200748  0.0274098 -0.210602 0.000162363  0.026895 -0.222403 0.000132322  0.0263662 -0.234148 0.000105262  0 0 0  0.00404753 -0.00608772 0.00218916  0.00861764 -0.0102317 0.00344777  0.013309 -0.0148395 0.0039587  0.0178043 -0.0203751 0.00402808  0.0218859 -0.0269163 0.00383723  0.0255108 -0.0343923 0.00353944  0.028682 -0.0426933 0.00319695  0.0314186 -0.0517212 0.00285327  0.0337433 -0.0613705 0.00252056  0.0356861 -0.071556 0.00220859  0.0372721 -0.0821863 0.00191712  0.038532 -0.0931914 0.0016489  0.0394918 -0.104493 0.00140202  0.0401821 -0.116034 0.00117731  0.040628 -0.12775 0.000974178  0.040858 -0.139597 0.00079298  0.040899 -0.15152 0.000634909  0.0407791 -0.163489 0.000497937  0.0405214 -0.175461 0.000384331  0.0401533 -0.187416 0.000292778  0.0397015 -0.199325 0.000225186  0.039192 -0.211182 0.00017643  0.0386527 -0.222973 0.000142217  0.0381074 -0.234726 0.000112057  0 0 0  -0.00421879 -0.00620893 -0.00104451  -0.00864439 -0.0101346 -0.0016824  -0.0133455 -0.0146212 -0.00197136  -0.0179127 -0.0199463 -0.00201404  -0.0222142 -0.0261758 -0.00191736  -0.0261618 -0.0332913 -0.00175023  -0.0297608 -0.041213 -0.00155854  -0.0330142 -0.0498573 -0.00136423  -0.0359514 -0.0591372 -0.0011785  -0.0385878 -0.0689696 -0.00100565  -0.0409527 -0.0792773 -0.000846028  -0.0430605 -0.0899871 -0.000700593  -0.0449361 -0.10103 -0.000568151  -0.0465928 -0.112345 -0.000447869  -0.0480529 -0.123874 -0.000339985  -0.0493315 -0.135563 -0.000243306  -0.0504494 -0.147366 -0.000158787  -0.0514226 -0.159241 -8.58307e-05  -0.0522726 -0.171149 -2.47955e-05  -0.0530176 -0.183061 2.57492e-05  -0.0536802 -0.194949 6.49691e-05  -0.0542846 -0.206797 9.48906e-05  -0.0548542 -0.218594 0.000117779  -0.0554197 -0.230357 0.000138998  0 0 0  -0.00181077 -0.00363893 -0.0007689  -0.00517806 -0.00776663 -0.00126052  -0.00882089 -0.0125408 -0.00148332  -0.0123669 -0.0181753 -0.00151539  -0.0156965 -0.0246926 -0.00143588  -0.0187664 -0.03206 -0.00130498  -0.0215777 -0.0402091 -0.00115669  -0.0241408 -0.0490583 -0.00100815  -0.0264759 -0.0585251 -0.000866532  -0.0285975 -0.0685284 -0.000735283  -0.0305237 -0.0789915 -0.000614643  -0.0322669 -0.0898421 -0.000504494  -0.0338418 -0.101013 -0.000404358  -0.0352597 -0.112441 -0.000313282  -0.0365343 -0.124069 -0.000231862  -0.0376767 -0.135845 -0.000158787  -0.0386999 -0.147721 -9.4533e-05  -0.0396163 -0.159657 -3.89814e-05  -0.0404398 -0.171615 8.22544e-06  -0.0411839 -0.183564 4.69685e-05  -0.0418622 -0.195478 7.83205e-05  -0.0424905 -0.207341 0.000102878  -0.0430822 -0.21914 0.000123501  -0.0436563 -0.23089 0.000142932  0 0 0  -0.00101561 -0.0023699 -0.000505924  -0.0029747 -0.00617748 -0.000827909  -0.00532353 -0.0110679 -0.000977516  -0.00770721 -0.0168986 -0.000998139  -0.00998539 -0.0236242 -0.000944376  -0.0121128 -0.0311836 -0.00085485  -0.0140837 -0.0395067 -0.000753522  -0.0159073 -0.0485141 -0.000652194  -0.0175945 -0.0581254 -0.000556111  -0.0191561 -0.0682616 -0.000466943  -0.0206009 -0.0788462 -0.000385165  -0.0219364 -0.0898075 -0.00031054  -0.0231701 -0.101078 -0.000242352  -0.0243081 -0.112596 -0.000180483  -0.025357 -0.124302 -0.00012517  -0.0263232 -0.136147 -7.53403e-05  -0.0272129 -0.148082 -3.12328e-05  -0.0280335 -0.160067 6.79493e-06  -0.0287917 -0.172065 3.92199e-05  -0.029496 -0.184046 6.67572e-05  -0.0301538 -0.195984 8.9407e-05  -0.0307734 -0.207863 0.000108123  -0.0313623 -0.21967 0.000124693  -0.0319362 -0.231399 0.000140309  0 0 0  -0.000444986 -0.00181249 -0.000251889  -0.00133505 -0.00537294 -0.000409603  -0.00245288 -0.010248 -0.000481367  -0.00364786 -0.0161791 -0.000489354  -0.00482994 -0.0230308 -0.000459075  -0.00597119 -0.0307168 -0.000410438  -0.00706553 -0.0391569 -0.000355482  -0.00811535 -0.0482739 -0.000301123  -0.00912392 -0.0579855 -0.000249267  -0.0100946 -0.0682157 -0.000201344  -0.0110288 -0.0788863 -0.000157356  -0.0119276 -0.0899273 -0.000117421  -0.0127919 -0.101269 -8.09431e-05  -0.0136212 -0.112851 -4.76837e-05  -0.0144166 -0.124614 -1.77622e-05  -0.0151787 -0.136509 9.53674e-06  -0.0159078 -0.148485 3.31402e-05  -0.0166059 -0.160506 5.43594e-05  -0.0172741 -0.172533 7.28369e-05  -0.0179155 -0.184537 8.86917e-05  -0.0185316 -0.196493 0.000102162  -0.0191255 -0.208385 0.000113964  -0.0197005 -0.220196 0.000124574  -0.0202641 -0.231908 0.000134945  0 0 0  3.6031e-05 -0.0016804 8.34465e-07  9.35793e-05 -0.00518736 2.98023e-06  0.000127375 -0.0100662 7.15256e-06  0.000111878 -0.0160384 1.33514e-05  3.61204e-05 -0.0229481 2.12193e-05  -0.00010258 -0.0306946 2.99215e-05  -0.000303328 -0.039196 3.88622e-05  -0.000562787 -0.0483715 4.74453e-05  -0.000877023 -0.0581403 5.53131e-05  -0.00124121 -0.0684241 6.23465e-05  -0.0016489 -0.0791457 6.90222e-05  -0.00209498 -0.0902328 7.51019e-05  -0.00257349 -0.101617 8.07047e-05  -0.00307882 -0.113237 8.58307e-05  -0.00360525 -0.125033 9.05991e-05  -0.00414824 -0.136956 9.52482e-05  -0.00470209 -0.148957 9.97782e-05  -0.00526404 -0.160997 0.000103474  -0.00582838 -0.173039 0.000107408  -0.00639439 -0.185056 0.00011158  -0.00695848 -0.197021 0.000115633  -0.00751853 -0.208918 0.000119805  -0.00807381 -0.220732 0.000123978  -0.00862098 -0.232438 0.000128269  0 0 0  0.000515088 -0.00193536 0.000252366  0.00151899 -0.00557113 0.000412941  0.00269875 -0.010497 0.000492215  0.00385571 -0.0164763 0.000512719  0.00488043 -0.0233819 0.000498891  0.0057404 -0.0311292 0.000468135  0.00643146 -0.0396361 0.000432014  0.00696146 -0.0488226 0.000395179  0.00734234 -0.0586049 0.000359416  0.00758672 -0.0689043 0.000326276  0.00770736 -0.0796403 0.000295877  0.00771606 -0.090742 0.000267982  0.0076257 -0.102139 0.000242472  0.00744724 -0.113769 0.000219584  0.00719202 -0.125574 0.00019908  0.00687075 -0.137503 0.000181317  0.00649333 -0.149508 0.00016582  0.00607038 -0.161551 0.000152588  0.00561047 -0.173594 0.000142455  0.00512171 -0.18561 0.000134826  0.00461102 -0.197574 0.000129342  0.00408506 -0.20947 0.000126004  0.00355029 -0.221282 0.000123858  0.0030179 -0.232995 0.000121593  0 0 0  0.00107583 -0.00261742 0.000499725  0.00314039 -0.00656056 0.000821471  0.0055317 -0.0115519 0.000977159  0.00785816 -0.017483 0.00101125  0.0099628 -0.0243246 0.000975251  0.0117992 -0.0320135 0.00090611  0.0133625 -0.0404761 0.000825286  0.0146664 -0.0496281 0.000743508  0.0157291 -0.0593842 0.00066483  0.0165696 -0.0696605 0.000591397  0.0172075 -0.0803773 0.000523806  0.0176609 -0.0914605 0.000461698  0.017948 -0.10284 0.000404954  0.0180857 -0.114453 0.000353456  0.0180912 -0.126242 0.000307798  0.0179803 -0.138155 0.00026691  0.0177701 -0.150144 0.000231504  0.0174744 -0.162171 0.000201106  0.0171094 -0.1742 0.000176311  0.0166874 -0.186202 0.000157118  0.0162225 -0.198154 0.000142455  0.0157242 -0.210039 0.000132442  0.015204 -0.221847 0.000124097  0.0146792 -0.233576 0.000117421  0 0 0  0.00180294 -0.00394768 0.000753403  0.00526825 -0.00830752 0.00123465  0.00893712 -0.0132343 0.00146365  0.0123947 -0.0190327 0.00150907  0.01553 -0.0257413 0.00145161  0.0182998 -0.0333218 0.00134408  0.0207008 -0.0416948 0.00121963  0.0227492 -0.0507727 0.00109351  0.0244676 -0.0604638 0.000972033  0.0258802 -0.0706828 0.000858426  0.0270121 -0.0813462 0.000752926  0.0278866 -0.0923804 0.000656128  0.0285287 -0.103713 0.000567555  0.0289599 -0.115282 0.000487328  0.0292035 -0.127029 0.000415087  0.0292809 -0.138903 0.00035131  0.0292144 -0.150855 0.000295639  0.0290232 -0.162849 0.000247717  0.0287304 -0.174848 0.000208259  0.0283539 -0.186824 0.000177383  0.0279145 -0.198753 0.000154495  0.0274289 -0.210622 0.000137925  0.0269136 -0.222421 0.000125885  0.0263851 -0.234167 0.00011456  0 0 0  0.00422426 -0.00658327 0.00101995  0.00859201 -0.0108342 0.00164139  0.0132241 -0.015485 0.00192451  0.0176946 -0.0210634 0.00198507  0.0217931 -0.0275834 0.00191033  0.0254454 -0.0350142 0.00177252  0.0286423 -0.0432611 0.00160778  0.0313976 -0.0522295 0.00144017  0.0337356 -0.0618212 0.00127721  0.0356858 -0.0719492 0.00112414  0.0372771 -0.0825274 0.000981927  0.0385391 -0.0934823 0.000851035  0.0395013 -0.104739 0.000730991  0.0401918 -0.116237 0.000622034  0.0406386 -0.127916 0.000523925  0.040869 -0.139728 0.000436783  0.0409105 -0.151622 0.000360489  0.0407901 -0.163564 0.000295281  0.0405331 -0.175516 0.000241518  0.0401664 -0.187452 0.000198603  0.0397167 -0.19935 0.000167608  0.0392103 -0.211198 0.000145912  0.0386736 -0.222987 0.000131488  0.0381341 -0.234746 0.000118613  0 0 0  -0.00423699 -0.00628029 1.60933e-05  -0.0087512 -0.0103323 2.69413e-05  -0.0133426 -0.0148562 3.27826e-05  -0.0179068 -0.0201838 3.69549e-05  -0.0222039 -0.0264082 4.07696e-05  -0.0261662 -0.0335058 4.48227e-05  -0.0297701 -0.0414087 4.93526e-05  -0.0330337 -0.0500298 5.45979e-05  -0.0359721 -0.0592887 5.93662e-05  -0.0386134 -0.0690996 6.46114e-05  -0.040976 -0.0793894 6.96182e-05  -0.0430851 -0.0900806 7.51019e-05  -0.0449569 -0.10111 7.9751e-05  -0.0466138 -0.112409 8.47578e-05  -0.0480708 -0.123926 8.9407e-05  -0.049349 -0.135603 9.47714e-05  -0.0504637 -0.147397 9.90629e-05  -0.0514369 -0.159262 0.000103951  -0.0522847 -0.171165 0.000108838  -0.0530303 -0.18307 0.000113606  -0.0536926 -0.194955 0.00011909  -0.0542965 -0.2068 0.000124335  -0.0548673 -0.218597 0.000129461  -0.0554318 -0.230362 0.000135183  0 0 0  -0.00173296 -0.00370973 1.22786e-05  -0.00512575 -0.00792576 2.20537e-05  -0.00877541 -0.0127408 2.80142e-05  -0.0123484 -0.01839 3.24249e-05  -0.0156886 -0.0249078 3.65973e-05  -0.0187772 -0.032266 4.11272e-05  -0.0215974 -0.0403978 4.57764e-05  -0.0241702 -0.0492286 5.06639e-05  -0.0265071 -0.0586749 5.60284e-05  -0.0286319 -0.0686594 6.13928e-05  -0.030556 -0.0791039 6.6638e-05  -0.0322989 -0.0899383 7.18832e-05  -0.0338705 -0.101093 7.70092e-05  -0.035287 -0.112507 8.18968e-05  -0.0365582 -0.124122 8.66652e-05  -0.037699 -0.135888 9.20296e-05  -0.0387189 -0.147754 9.70364e-05  -0.039634 -0.159681 0.000101924  -0.0404553 -0.171632 0.000106812  -0.0411978 -0.183576 0.000111938  -0.0418756 -0.195486 0.000117183  -0.0425036 -0.207346 0.000122547  -0.0430963 -0.219143 0.000127435  -0.043669 -0.230894 0.000133514  0 0 0  -0.00100778 -0.00243719 8.10623e-06  -0.00296433 -0.00630862 1.60933e-05  -0.0053024 -0.0112393 2.20537e-05  -0.00769883 -0.0170972 2.68221e-05  -0.00998968 -0.0238293 3.14713e-05  -0.0121298 -0.0313823 3.62396e-05  -0.0141101 -0.0396922 4.13656e-05  -0.0159395 -0.0486827 4.66108e-05  -0.0176293 -0.0582757 5.1856e-05  -0.0191913 -0.0683936 5.74589e-05  -0.0206348 -0.0789603 6.27041e-05  -0.0219688 -0.0899052 6.83069e-05  -0.0231999 -0.10116 7.35521e-05  -0.0243355 -0.112663 7.90358e-05  -0.0253814 -0.124358 8.41618e-05  -0.0263449 -0.136191 8.92878e-05  -0.0272322 -0.148117 9.4533e-05  -0.0280504 -0.160093 9.9659e-05  -0.0288069 -0.172084 0.000104666  -0.0295105 -0.184059 0.000110149  -0.0301666 -0.195993 0.000115395  -0.0307851 -0.207869 0.000120521  -0.0313735 -0.219674 0.000125885  -0.0319479 -0.231404 0.000131726  0 0 0  -0.000442721 -0.00186229 4.64916e-06  -0.00132827 -0.00549191 1.0252e-05  -0.00244817 -0.0104087 1.56164e-05  -0.0036484 -0.0163688 2.09808e-05  -0.00483906 -0.0232281 2.61068e-05  -0.00598854 -0.0309113 3.14713e-05  -0.00708836 -0.0393399 3.68357e-05  -0.00814146 -0.0484418 4.24385e-05  -0.00915122 -0.0581362 4.80413e-05  -0.0101221 -0.068349 5.3525e-05  -0.0110551 -0.0790017 5.91278e-05  -0.0119526 -0.0900266 6.48499e-05  -0.0128148 -0.101352 7.02143e-05  -0.0136422 -0.112921 7.60555e-05  -0.0144352 -0.124671 8.13007e-05  -0.0151955 -0.136554 8.69036e-05  -0.0159228 -0.148521 9.21488e-05  -0.016619 -0.160533 9.75132e-05  -0.0172861 -0.172552 0.000102639  -0.0179262 -0.184551 0.000108242  -0.0185416 -0.196502 0.000113487  -0.0191345 -0.208391 0.000118732  -0.0197093 -0.2202 0.000123978  -0.0202734 -0.231914 0.000129819  0 0 0  3.42578e-05 -0.00172794 1.3113e-06  8.89003e-05 -0.00530148 4.88758e-06  0.000119627 -0.010222 9.65595e-06  0.000101149 -0.0162231 1.51396e-05  2.27094e-05 -0.0231424 2.06232e-05  -0.000117779 -0.0308863 2.64645e-05  -0.0003196 -0.0393781 3.23057e-05  -0.000579715 -0.0485387 3.83854e-05  -0.000893593 -0.0582917 4.41074e-05  -0.00125718 -0.0685576 4.99487e-05  -0.00166404 -0.0792623 5.57899e-05  -0.00210917 -0.0903329 6.13928e-05  -0.00258648 -0.101702 6.74725e-05  -0.00309038 -0.113307 7.30753e-05  -0.00361586 -0.125092 7.87973e-05  -0.00415778 -0.137002 8.4281e-05  -0.00471091 -0.148993 9.0003e-05  -0.0052712 -0.161024 9.52482e-05  -0.00583577 -0.173059 0.000100374  -0.00640082 -0.18507 0.000105977  -0.00696421 -0.197031 0.000111461  -0.00752425 -0.208925 0.000116944  -0.00807905 -0.220737 0.000122309  -0.0086267 -0.232444 0.000127792  0 0 0  0.000510842 -0.00198454 -2.02656e-06  0.00150305 -0.00568706 -2.38419e-07  0.00267905 -0.0106534 4.17233e-06  0.00383472 -0.0166616 9.41753e-06  0.0048629 -0.0235756 1.57356e-05  0.00572729 -0.031321 2.19345e-05  0.00642174 -0.0398174 2.81334e-05  0.00695407 -0.0489901 3.44515e-05  0.00733662 -0.0587557 4.06504e-05  0.00758195 -0.0690382 4.673e-05  0.0077033 -0.0797568 5.26905e-05  0.00771272 -0.0908427 5.8651e-05  0.0076226 -0.102224 6.47306e-05  0.0074445 -0.11384 7.08103e-05  0.00718963 -0.125632 7.66516e-05  0.00686812 -0.13755 8.23736e-05  0.00649166 -0.149545 8.79765e-05  0.00606871 -0.161579 9.31025e-05  0.00560856 -0.173614 9.83477e-05  0.00511956 -0.185625 0.000103951  0.00460911 -0.197583 0.000109553  0.00408268 -0.209477 0.000115037  0.00354791 -0.221287 0.00012064  0.00301647 -0.233002 0.000126123  0 0 0  0.00106362 -0.00267518 -5.24521e-06  0.00311959 -0.00668782 -5.24521e-06  0.00549564 -0.0117165 -1.54972e-06  0.00782859 -0.0176728 4.64916e-06  0.00994009 -0.0245219 1.13249e-05  0.0117859 -0.032207 1.78814e-05  0.0133562 -0.0406585 2.44379e-05  0.014665 -0.0497957 3.09944e-05  0.0157306 -0.0595345 3.73125e-05  0.016573 -0.0697938 4.35114e-05  0.0172116 -0.0804933 5.00679e-05  0.0176649 -0.0915605 5.61476e-05  0.0179516 -0.102925 6.23465e-05  0.0180893 -0.114524 6.85453e-05  0.0180947 -0.1263 7.43866e-05  0.0179837 -0.138202 8.02279e-05  0.0177727 -0.150181 8.58307e-05  0.0174768 -0.162199 9.13143e-05  0.0171108 -0.174221 9.65595e-05  0.0166888 -0.186217 0.000102282  0.016223 -0.198164 0.000107884  0.0157244 -0.210046 0.000113487  0.0152042 -0.221853 0.000119328  0.0146804 -0.233583 0.000124454  0 0 0  0.00182986 -0.00402713 -8.9407e-06  0.00524428 -0.00846344 -1.0252e-05  0.0088923 -0.013419 -6.31809e-06  0.012356 -0.0192335 4.76837e-07  0.0155003 -0.0259452 7.51019e-06  0.0182817 -0.0335189 1.43051e-05  0.0206916 -0.0418777 2.08616e-05  0.0227461 -0.0509403 2.77758e-05  0.0244688 -0.0606124 3.44515e-05  0.0258834 -0.0708149 4.06504e-05  0.0270166 -0.0814604 4.70877e-05  0.0278918 -0.0924792 5.3525e-05  0.0285336 -0.103796 5.96046e-05  0.0289643 -0.115353 6.60419e-05  0.0292076 -0.127086 7.20024e-05  0.0292842 -0.138949 7.82013e-05  0.0292172 -0.150891 8.40425e-05  0.029026 -0.162876 8.95262e-05  0.0287325 -0.174867 9.50098e-05  0.0283561 -0.186838 0.000100613  0.0279167 -0.198762 0.000106096  0.027431 -0.210629 0.000112057  0.026916 -0.222426 0.00011766  0.026387 -0.234174 0.000123143  0 0 0  0.00412668 -0.00660408 -1.21593e-05  0.00859183 -0.0109941 -1.44243e-05  0.0131861 -0.0157139 -1.0252e-05  0.0176542 -0.0212839 -3.33786e-06  0.0217538 -0.0277988 4.05312e-06  0.0254143 -0.0352181 1.10865e-05  0.0286188 -0.0434468 1.77622e-05  0.0313809 -0.0523976 2.46763e-05  0.0337232 -0.0619693 3.14713e-05  0.035677 -0.0720799 3.75509e-05  0.0372696 -0.0826399 4.42266e-05  0.0385336 -0.0935788 5.09024e-05  0.0394958 -0.104819 5.73397e-05  0.0401876 -0.116305 6.38962e-05  0.0406346 -0.12797 7.02143e-05  0.0408661 -0.139772 7.59363e-05  0.0409071 -0.151655 8.23736e-05  0.040787 -0.163589 8.7738e-05  0.0405314 -0.175533 9.33409e-05  0.0401649 -0.187466 9.90629e-05  0.0397165 -0.199358 0.000104547  0.0392115 -0.211205 0.000110626  0.0386772 -0.222993 0.000116229  0.0381355 -0.234751 0.000121474  0 0 0  -0.00421766 -0.00620466 0.00108039  -0.00864752 -0.0101276 0.00174081  -0.0133516 -0.0146141 0.00204003  -0.0179199 -0.0199397 0.00208938  -0.0222214 -0.0261699 0.00199986  -0.0261694 -0.033285 0.00184071  -0.0297688 -0.0412072 0.00165844  -0.0330226 -0.0498511 0.00147378  -0.0359606 -0.0591308 0.00129831  -0.0385981 -0.0689633 0.00113547  -0.0409633 -0.079271 0.000986338  -0.0430713 -0.0899807 0.000850677  -0.0449464 -0.101024 0.000727534  -0.0466036 -0.11234 0.000617385  -0.0480641 -0.123868 0.000519037  -0.0493428 -0.135558 0.000432968  -0.0504606 -0.147361 0.000358224  -0.0514336 -0.159235 0.000294328  -0.0522835 -0.171144 0.000242233  -0.0530283 -0.183056 0.000202179  -0.0536909 -0.194945 0.000173211  -0.0542953 -0.206793 0.000154138  -0.0548646 -0.21859 0.000141859  -0.0554302 -0.230353 0.00013113  0 0 0  -0.00181153 -0.00363725 0.000795603  -0.00518072 -0.00776252 0.00130773  -0.00882599 -0.0125357 0.00154161  -0.0123731 -0.0181699 0.00158119  -0.0157034 -0.0246869 0.00151002  -0.0187738 -0.0320545 0.00138795  -0.0215855 -0.0402033 0.0012486  -0.0241495 -0.0490523 0.00111043  -0.026485 -0.0585191 0.000978947  -0.0286071 -0.0685221 0.000858426  -0.0305334 -0.0789854 0.000748158  -0.0322769 -0.0898361 0.000648379  -0.0338521 -0.101007 0.000558257  -0.0352706 -0.112435 0.000477433  -0.0365449 -0.124063 0.000405788  -0.0376875 -0.135839 0.000342727  -0.0387106 -0.147716 0.000288725  -0.0396271 -0.159651 0.00024271  -0.0404501 -0.17161 0.000205636  -0.041194 -0.183559 0.000176787  -0.041873 -0.195474 0.000156522  -0.042501 -0.207336 0.000142217  -0.0430925 -0.219136 0.000132322  -0.0436664 -0.230885 0.000123143  0 0 0  -0.00101554 -0.00236911 0.000522852  -0.00297676 -0.00617519 0.000861764  -0.00532743 -0.011064 0.00102282  -0.00771239 -0.0168935 0.00105286  -0.00999171 -0.0236188 0.0010078  -0.01212 -0.0311779 0.000927925  -0.0140915 -0.0395007 0.000836372  -0.0159158 -0.0485079 0.000745535  -0.0176035 -0.0581192 0.000660181  -0.0191655 -0.0682553 0.000582099  -0.0206103 -0.07884 0.000511169  -0.0219463 -0.0898016 0.000446916  -0.0231802 -0.101072 0.000389695  -0.0243186 -0.112589 0.000338554  -0.0253673 -0.124297 0.000293374  -0.0263332 -0.136142 0.000254273  -0.0272229 -0.148077 0.000220656  -0.0280437 -0.160062 0.000192761  -0.0288022 -0.17206 0.000170588  -0.0295069 -0.184041 0.000153303  -0.0301645 -0.19598 0.000141501  -0.0307834 -0.207858 0.000133276  -0.0313725 -0.219665 0.000127316  -0.0319469 -0.231394 0.000121951  0 0 0  -0.000445403 -0.00181174 0.000261903  -0.00133675 -0.00537112 0.00043118  -0.00245616 -0.0102445 0.000513554  -0.00365251 -0.016174 0.000531793  -0.0048359 -0.023025 0.000511765  -0.00597811 -0.0307106 0.00047338  -0.0070731 -0.0391506 0.000429392  -0.0081237 -0.0482674 0.00038588  -0.00913262 -0.0579792 0.000345469  -0.0101039 -0.0682094 0.000308752  -0.0110383 -0.07888 0.000276089  -0.0119376 -0.0899212 0.00024724  -0.0128019 -0.101263 0.000221848  -0.0136315 -0.112845 0.000199676  -0.0144271 -0.124608 0.000180483  -0.0151888 -0.136503 0.00016439  -0.0159183 -0.14848 0.000150919  -0.0166161 -0.160501 0.000140429  -0.0172846 -0.172527 0.000132918  -0.0179262 -0.184533 0.000127912  -0.0185425 -0.196489 0.000125051  -0.019136 -0.20838 0.00012362  -0.019711 -0.220191 0.000123501  -0.0202746 -0.231903 0.000123858  0 0 0  3.56138e-05 -0.00168008 2.14577e-06  9.20594e-05 -0.0051856 7.39098e-06  0.000124514 -0.0100622 1.28746e-05  0.000107706 -0.0160327 1.72853e-05  3.06964e-05 -0.0229416 2.06232e-05  -0.000109196 -0.0306879 2.32458e-05  -0.000310898 -0.0391889 2.61068e-05  -0.000571132 -0.0483645 2.92063e-05  -0.000885963 -0.0581337 3.31402e-05  -0.00125039 -0.0684175 3.76701e-05  -0.00165832 -0.0791393 4.27961e-05  -0.002105 -0.0902266 4.81606e-05  -0.00258362 -0.101611 5.44786e-05  -0.00308883 -0.113231 6.06775e-05  -0.0036155 -0.125028 6.74725e-05  -0.00415874 -0.13695 7.36713e-05  -0.00471258 -0.148952 8.05855e-05  -0.00527406 -0.160992 8.70228e-05  -0.00583887 -0.173034 9.35793e-05  -0.00640512 -0.185051 0.000100613  -0.00696898 -0.197017 0.000107408  -0.00752926 -0.208914 0.000114202  -0.00808406 -0.220727 0.000120401  -0.00863147 -0.232433 0.000126839  0 0 0  0.00051488 -0.00193501 -0.000256181  0.00151747 -0.0055691 -0.000413418  0.00269619 -0.0104924 -0.00048399  0.00385177 -0.0164701 -0.000493407  0.00487506 -0.0233747 -0.0004673  0.00573385 -0.0311217 -0.000424147  0.00642389 -0.0396286 -0.000375271  0.00695312 -0.0488154 -0.000325799  0.00733376 -0.0585979 -0.000277877  0.00757742 -0.0688975 -0.000233173  0.0076977 -0.0796338 -0.000190496  0.0077064 -0.0907356 -0.000150204  0.00761569 -0.102132 -0.000112772  0.00743675 -0.113763 -7.82013e-05  0.00718153 -0.125568 -4.6134e-05  0.00686002 -0.137497 -1.68085e-05  0.00648332 -0.149503 9.89437e-06  0.00606036 -0.161546 3.3617e-05  0.00560069 -0.173589 5.48363e-05  0.00511098 -0.185605 7.35521e-05  0.00460029 -0.197569 8.97646e-05  0.00407434 -0.209465 0.000104308  0.0035398 -0.221277 0.00011766  0.00300813 -0.23299 0.000130296  0 0 0  0.00107521 -0.0026167 -0.00051105  0.00313902 -0.00655735 -0.000832915  0.00552964 -0.0115461 -0.000980139  0.00785452 -0.0174759 -0.00100148  0.00995743 -0.0243167 -0.000951886  0.0117925 -0.0320056 -0.00086987  0.013355 -0.0404685 -0.000775814  0.0146582 -0.0496207 -0.000681162  0.0157204 -0.0593768 -0.000589967  0.0165608 -0.0696535 -0.000504136  0.0171978 -0.0803705 -0.000423789  0.0176507 -0.0914543 -0.000349283  0.0179377 -0.102834 -0.00028038  0.0180755 -0.114447 -0.000216484  0.0180806 -0.126236 -0.000159025  0.0179703 -0.138149 -0.000106573  0.0177598 -0.150139 -5.96046e-05  0.0174642 -0.162166 -1.8239e-05  0.0170989 -0.174195 1.70469e-05  0.0166764 -0.186198 4.80413e-05  0.0162115 -0.198149 7.31945e-05  0.0157135 -0.210035 9.48906e-05  0.0151935 -0.221843 0.000114202  0.0146692 -0.233572 0.000132322  0 0 0  0.0018032 -0.00394529 -0.000773191  0.00526744 -0.00830251 -0.00125718  0.00893563 -0.0132272 -0.00147629  0.012391 -0.0190246 -0.0015074  0.0155245 -0.0257328 -0.00143588  0.018293 -0.0333138 -0.00131452  0.0206931 -0.041687 -0.00117695  0.0227406 -0.0507651 -0.00103748  0.0244586 -0.0604565 -0.00090313  0.0258709 -0.0706756 -0.000776887  0.0270026 -0.0813395 -0.000658512  0.0278771 -0.092374 -0.000548959  0.0285187 -0.103707 -0.000448108  0.0289496 -0.115277 -0.000355005  0.0291932 -0.127023 -0.000270844  0.0292704 -0.138897 -0.000194907  0.0292039 -0.15085 -0.000127554  0.0290132 -0.162844 -6.84261e-05  0.0287199 -0.174842 -1.80006e-05  0.0283432 -0.186819 2.40803e-05  0.0279036 -0.198748 5.84126e-05  0.0274184 -0.210617 8.60691e-05  0.0269034 -0.222416 0.000109673  0.0263746 -0.234163 0.000132322  0 0 0  0.00422347 -0.00657612 -0.00104761  0.00859103 -0.0108258 -0.00167227  0.0132229 -0.015476 -0.0019455  0.0176916 -0.0210549 -0.00199056  0.0217877 -0.027575 -0.00190175  0.0254384 -0.0350065 -0.00174928  0.0286347 -0.0432533 -0.00157213  0.0313889 -0.0522222 -0.0013907  0.0337265 -0.0618141 -0.00121486  0.0356766 -0.0719426 -0.00104892  0.0372678 -0.082521 -0.000893116  0.0385294 -0.0934759 -0.000748992  0.0394913 -0.104733 -0.00061655  0.0401815 -0.116231 -0.000494599  0.0406283 -0.12791 -0.000384688  0.0408592 -0.139722 -0.000284672  0.0409009 -0.151616 -0.000196457  0.0407801 -0.163558 -0.000119567  0.0405221 -0.17551 -5.47171e-05  0.0401559 -0.187447 -1.07288e-06  0.039706 -0.199345 4.17233e-05  0.0391996 -0.211194 7.47442e-05  0.0386634 -0.222983 0.000100851  0.0381238 -0.234743 0.000124812  0 0 0  -0.00411628 -0.0057332 0.0022943  -0.0087202 -0.00950569 0.00360656  -0.0133964 -0.0138953 0.00415778  -0.0179795 -0.0191937 0.00418901  -0.0222509 -0.0254481 0.0039742  -0.0261708 -0.0326162 0.00363445  -0.0297388 -0.0406055 0.00325978  -0.0329766 -0.0493159 0.00288534  -0.0359015 -0.0586631 0.00253034  -0.0385382 -0.0685557 0.00220096  -0.0409023 -0.0789222 0.00189817  -0.0430164 -0.0896822 0.00162256  -0.0448953 -0.100776 0.00137222  -0.0465602 -0.112132 0.00114703  -0.0480256 -0.123701 0.00094533  -0.0493119 -0.135423 0.000767231  -0.0504339 -0.147258 0.000611663  -0.0514126 -0.159157 0.000479579  -0.0522645 -0.171088 0.000370264  -0.0530119 -0.183016 0.000285029  -0.0536745 -0.194918 0.000221133  -0.0542765 -0.206773 0.000178337  -0.0548432 -0.218575 0.000148535  -0.0554028 -0.230336 0.000122547  0 0 0  -0.00176638 -0.00334362 0.00167906  -0.0051996 -0.00726818 0.00269413  -0.00887099 -0.0119096 0.00311244  -0.0124137 -0.0174898 0.00314164  -0.015696 -0.024012 0.00297511  -0.0187284 -0.0314189 0.00271988  -0.0215078 -0.0396209 0.00243807  -0.0240563 -0.0485312 0.00215864  -0.0263828 -0.0580573 0.00189447  -0.0285069 -0.0681197 0.00165009  -0.0304366 -0.078637 0.00142622  -0.0321887 -0.0895392 0.00122273  -0.033771 -0.100756 0.00103819  -0.0351995 -0.112227 0.000872016  -0.0364825 -0.123892 0.000723958  -0.037635 -0.135703 0.000593424  -0.038666 -0.147608 0.000479698  -0.0395901 -0.15957 0.000383258  -0.0404193 -0.171549 0.000303626  -0.0411689 -0.183516 0.000240922  -0.041851 -0.195443 0.000194192  -0.0424817 -0.207315 0.000160813  -0.0430753 -0.219118 0.000135303  -0.0436461 -0.230865 0.000111818  0 0 0  -0.00104211 -0.00216703 0.00109971  -0.00303896 -0.00575954 0.00176322  -0.00537854 -0.0104931 0.002051  -0.00773671 -0.0162597 0.00207996  -0.00997305 -0.0229757 0.00197244  -0.0120653 -0.0305602 0.00180483  -0.0140122 -0.0389279 0.00161862  -0.0158228 -0.0479884 0.00143456  -0.017506 -0.0576566 0.00126147  -0.0190694 -0.0678487 0.00110173  -0.0205193 -0.0784873 0.000955939  -0.0218627 -0.089499 0.000823736  -0.023105 -0.100816 0.000704885  -0.0242522 -0.112376 0.000598073  -0.0253096 -0.124121 0.000503182  -0.0262846 -0.136 0.000419617  -0.0271819 -0.147966 0.000347614  -0.0280099 -0.159976 0.000286222  -0.028775 -0.171996 0.000236392  -0.029485 -0.183995 0.000197172  -0.0301468 -0.195948 0.000167966  -0.0307693 -0.207836 0.000146031  -0.0313597 -0.219645 0.000127912  -0.0319347 -0.231372 0.000111103  0 0 0  -0.000460885 -0.00163347 0.00054884  -0.00136411 -0.0049974 0.000878096  -0.00248042 -0.00971648 0.00102293  -0.00365388 -0.0155738 0.00104105  -0.00481069 -0.0224034 0.000989556  -0.00593168 -0.0301056 0.000906348  -0.00701219 -0.0385823 0.00081408  -0.00805551 -0.0477478 0.0007236  -0.00906277 -0.0575132 0.000638723  -0.0100361 -0.0677981 0.000561118  -0.010975 -0.0785214 0.000491381  -0.0118798 -0.0896129 0.000428796  -0.0127506 -0.101001 0.000373244  -0.013587 -0.112626 0.000323534  -0.014389 -0.124428 0.000280142  -0.0151577 -0.136357 0.000242233  -0.015893 -0.148365 0.000210524  -0.0165963 -0.160412 0.000184178  -0.0172694 -0.17246 0.000163436  -0.0179155 -0.184484 0.0001477  -0.0185344 -0.196454 0.00013721  -0.0191307 -0.208356 0.000128865  -0.019707 -0.22017 0.000122786  -0.0202708 -0.231878 0.000117183  0 0 0  3.88324e-05 -0.00151747 9.53674e-07  0.00010249 -0.00482929 7.27177e-06  0.000142395 -0.00955227 1.28746e-05  0.000132442 -0.0154474 1.5974e-05  6.01411e-05 -0.0223308 1.69277e-05  -7.61747e-05 -0.0300885 1.72853e-05  -0.000276446 -0.0386237 1.7643e-05  -0.000537038 -0.0478446 1.84774e-05  -0.000853539 -0.057666 2.09808e-05  -0.0012207 -0.0680029 2.44379e-05  -0.00163221 -0.0787776 2.90871e-05  -0.00208247 -0.0899143 3.50475e-05  -0.00256515 -0.101346 4.12464e-05  -0.00307441 -0.113008 4.8399e-05  -0.00360465 -0.124844 5.54323e-05  -0.00415087 -0.136801 6.34193e-05  -0.00470805 -0.148833 7.09295e-05  -0.00527215 -0.1609 7.87973e-05  -0.00583959 -0.172965 8.67844e-05  -0.00640798 -0.185 9.5129e-05  -0.00697279 -0.196981 0.000103354  -0.0075345 -0.208888 0.000111222  -0.00809002 -0.220705 0.000118732  -0.00863695 -0.232405 0.000126481  0 0 0  0.000538096 -0.00176418 -0.000543952  0.0015654 -0.00520557 -0.000857949  0.00275639 -0.00997663 -0.000990152  0.00390232 -0.0158806 -0.00100148  0.00490963 -0.0227614 -0.000949144  0.0057534 -0.0305217 -0.000867248  0.006432 -0.0390622 -0.000775814  0.00695336 -0.0482952 -0.000683904  0.00732839 -0.0581291 -0.00059557  0.00756872 -0.0684821 -0.000512004  0.00768697 -0.0792706 -0.000433087  0.00769377 -0.0904223 -0.000359178  0.00760162 -0.101865 -0.000290871  0.00742173 -0.113539 -0.000227094  0.00716579 -0.125382 -0.000168681  0.00684381 -0.137347 -0.000116348  0.00646687 -0.149383 -6.8903e-05  0.00604391 -0.161453 -2.65837e-05  0.00558424 -0.173519 1.01328e-05  0.00509524 -0.185554 4.22001e-05  0.00458503 -0.197532 6.96182e-05  0.00405908 -0.209439 9.33409e-05  0.00352454 -0.221254 0.000114679  0.00299358 -0.232963 0.000136256  0 0 0  0.00110701 -0.00241917 -0.00108385  0.00321949 -0.00616288 -0.00172126  0.00561672 -0.0110015 -0.00199246  0.00792855 -0.016864 -0.00201631  0.00999898 -0.0236906 -0.00191152  0.0118047 -0.031399 -0.00175011  0.0133449 -0.0399005 -0.00156903  0.0146339 -0.0491011 -0.00138772  0.0156877 -0.0589101 -0.00121343  0.0165238 -0.0692404 -0.00104952  0.0171592 -0.08001 -0.000895739  0.0176119 -0.0911428 -0.00075376  0.0178988 -0.102569 -0.000622511  0.0180376 -0.114225 -0.000501871  0.0180444 -0.126052 -0.000392318  0.0179355 -0.138 -0.000293732  0.0177269 -0.15002 -0.000205755  0.0174339 -0.162074 -0.000129342  0.0170703 -0.174126 -6.29425e-05  0.01665 -0.186147 -7.39098e-06  0.0161862 -0.198113 3.82662e-05  0.0156891 -0.210008 7.61747e-05  0.0151696 -0.221821 0.000109673  0.0146468 -0.233547 0.00014174  0 0 0  0.00187005 -0.00368005 -0.0016458  0.00534862 -0.00783795 -0.00260782  0.00903606 -0.0126354 -0.00300848  0.0124837 -0.0183786 -0.00303304  0.0155804 -0.0250869 -0.00287867  0.0183136 -0.0326976 -0.00263655  0.0206861 -0.0411159 -0.00236821  0.0227154 -0.0502477 -0.00209725  0.0244228 -0.0599934 -0.00183702  0.0258294 -0.0702683 -0.00159144  0.0269585 -0.0809837 -0.0013628  0.0278323 -0.0920684 -0.00115001  0.0284745 -0.103446 -0.000955224  0.0289069 -0.115059 -0.000776052  0.0291522 -0.126843 -0.000613689  0.0292315 -0.138752 -0.000467896  0.0291672 -0.150735 -0.000338554  0.0289786 -0.162756 -0.000225902  0.0286877 -0.174776 -0.000130296  0.0283129 -0.186772 -5.1856e-05  0.027874 -0.198713 1.14441e-05  0.027389 -0.210592 6.13928e-05  0.0268741 -0.222394 0.000102997  0.0263448 -0.234139 0.000141859  0 0 0  0.00404824 -0.00606668 -0.00223184  0.00861081 -0.0102139 -0.00348127  0.0133036 -0.0148201 -0.00397933  0.0177957 -0.0203583 -0.00403011  0.0218734 -0.0268996 -0.00382543  0.0254961 -0.0343763 -0.00351405  0.0286659 -0.0426778 -0.00315952  0.0314012 -0.0517062 -0.00280285  0.0337257 -0.0613563 -0.00245714  0.0356677 -0.0715421 -0.00213182  0.0372533 -0.0821732 -0.00182736  0.0385128 -0.0931783 -0.00154626  0.0394721 -0.104481 -0.00128663  0.0401617 -0.116022 -0.00104964  0.0406073 -0.127739 -0.000834346  0.0408385 -0.139586 -0.000641227  0.0408792 -0.15151 -0.000470877  0.0407577 -0.163479 -0.000321746  0.0405009 -0.17545 -0.000197768  0.0401325 -0.187407 -9.5129e-05  0.03968 -0.199316 -1.58548e-05  0.0391707 -0.211172 4.44651e-05  0.0386317 -0.222964 9.01222e-05  0.0380864 -0.234718 0.000131845  0 0 0  -0.00398319 -0.00495341 0.00382555  -0.00868286 -0.00829159 0.0058006  -0.0135216 -0.0125281 0.00643539  -0.0180301 -0.0178559 0.00634122  -0.0222149 -0.0242005 0.0059526  -0.0260599 -0.0314946 0.00540602  -0.0295841 -0.0396045 0.00484431  -0.0327966 -0.0484419 0.00427485  -0.0357167 -0.0578981 0.0037514  -0.0383556 -0.0678993 0.00325227  -0.0407319 -0.0783572 0.00280392  -0.0428585 -0.0892081 0.0023849  -0.0447547 -0.100377 0.00201166  -0.046434 -0.111808 0.00166869  -0.0479169 -0.123438 0.00136626  -0.0492178 -0.135219 0.00109398  -0.0503552 -0.147101 0.000859022  -0.0513465 -0.159044 0.000656366  -0.0522108 -0.171009 0.000489235  -0.0529668 -0.182966 0.000357032  -0.0536349 -0.194887 0.000259638  -0.0542381 -0.206754 0.000193477  -0.054805 -0.218559 0.000149012  -0.0553648 -0.230316 0.000109434  0 0 0  -0.00188052 -0.00279314 0.00278771  -0.00544365 -0.00628012 0.00428712  -0.00905329 -0.0107293 0.0047369  -0.0124438 -0.0162716 0.00469434  -0.0156131 -0.0228436 0.00440645  -0.0185617 -0.0303353 0.00402021  -0.0212973 -0.0386459 0.00359976  -0.023824 -0.0476616 0.00318897  -0.0261499 -0.0572968 0.00279653  -0.0282804 -0.0674566 0.00243461  -0.0302259 -0.078069 0.00209951  -0.0319943 -0.0890548 0.00179482  -0.033597 -0.100351 0.00151658  -0.0350437 -0.111891 0.00126731  -0.0363472 -0.123621 0.0010426  -0.0375171 -0.135487 0.000844359  -0.0385666 -0.147443 0.000671268  -0.0395072 -0.159446 0.000523686  -0.0403521 -0.171461 0.000401855  -0.0411139 -0.183456 0.00030458  -0.0418065 -0.195405 0.000231266  -0.0424438 -0.20729 0.000178337  -0.0430396 -0.219099 0.000137806  -0.0436137 -0.230844 9.799e-05  0 0 0  -0.00110013 -0.00168644 0.00180709  -0.00318068 -0.00490151 0.00276339  -0.00549498 -0.00943513 0.00310731  -0.00774845 -0.0151276 0.00309265  -0.00989044 -0.0218577 0.00290644  -0.0119173 -0.0295054 0.00265324  -0.0138261 -0.0379603 0.00237703  -0.015621 -0.0471191 0.00210774  -0.0173029 -0.0568864 0.00185108  -0.018874 -0.0671758 0.00161481  -0.0203371 -0.0779057 0.00139678  -0.0216963 -0.0890029 0.00119901  -0.0229554 -0.100398 0.00101912  -0.0241195 -0.112029 0.000858188  -0.0251942 -0.123838 0.000713706  -0.026185 -0.135774 0.000586748  -0.0270982 -0.14779 0.000475526  -0.0279405 -0.159843 0.000381827  -0.0287194 -0.171899 0.000303984  -0.0294409 -0.183928 0.000242472  -0.030112 -0.195902 0.000195146  -0.0307405 -0.207806 0.000159383  -0.0313346 -0.219624 0.000128627  -0.0319095 -0.231346 9.7394e-05  0 0 0  -0.000480533 -0.00121266 0.000909925  -0.00143315 -0.00420916 0.00137508  -0.00252339 -0.00873098 0.0015415  -0.00363964 -0.0145006 0.00153959  -0.00474334 -0.0213255 0.00145054  -0.00582582 -0.0290721 0.00132358  -0.00688463 -0.0376235 0.00118721  -0.00791931 -0.0468784 0.00105298  -0.00892735 -0.0567383 0.00092721  -0.00990689 -0.0671171 0.000811219  -0.0108553 -0.0779305 0.000705719  -0.0117717 -0.0891064 0.000610352  -0.0126545 -0.100573 0.000524879  -0.0135032 -0.112269 0.000448585  -0.014317 -0.124135 0.000381231  -0.0150967 -0.136122 0.000322223  -0.0158427 -0.14818 0.000271559  -0.0165563 -0.16027 0.000229478  -0.0172386 -0.172356 0.000195503  -0.0178919 -0.18441 0.000169277  -0.0185168 -0.196404 0.000149488  -0.0191171 -0.208323 0.000134826  -0.0196958 -0.220146 0.000121474  -0.0202596 -0.231848 0.000108004  0 0 0  4.78029e-05 -0.00112143 -5.48363e-06  0.00012517 -0.00406915 0  0.000177801 -0.00859821 5.84126e-06  0.000177979 -0.0144003 7.62939e-06  0.000115037 -0.021271 7.03335e-06  -1.60336e-05 -0.029066 5.84126e-06  -0.000213981 -0.0376687 4.64916e-06  -0.000475585 -0.0469751 5.126e-06  -0.000795722 -0.0568877 6.79493e-06  -0.00116777 -0.0673169 1.0252e-05  -0.00158525 -0.0781802 1.50204e-05  -0.00204217 -0.0894012 2.09808e-05  -0.00253105 -0.10091 2.81334e-05  -0.00304711 -0.112644 3.57628e-05  -0.00358331 -0.124544 4.42266e-05  -0.00413549 -0.13656 5.30481e-05  -0.00469732 -0.148643 6.18696e-05  -0.00526595 -0.160753 7.11679e-05  -0.00583744 -0.172856 8.03471e-05  -0.00640869 -0.184922 9.02414e-05  -0.00697637 -0.196927 9.95398e-05  -0.00753951 -0.208852 0.00010848  -0.00809574 -0.220678 0.00011766  -0.00864196 -0.232373 0.000126123  0 0 0  0.000573874 -0.00135642 -0.000915289  0.00167897 -0.00443858 -0.0013653  0.00286925 -0.00901216 -0.00151944  0.00398082 -0.0148252 -0.00151372  0.00495273 -0.0216959 -0.00142801  0.00577009 -0.0294946 -0.00130582  0.00643092 -0.0381046 -0.00117338  0.00694156 -0.0474225 -0.00103998  0.00731015 -0.0573481 -0.000911951  0.00754678 -0.0677928 -0.000790119  0.00766194 -0.0786702 -0.000675678  0.00766695 -0.0899057 -0.000568032  0.00757313 -0.101427 -0.000468969  0.00739253 -0.113172 -0.000376821  0.00713611 -0.12508 -0.000292897  0.00681424 -0.137103 -0.000216365  0.00643754 -0.14919 -0.000148058  0.0060153 -0.161305 -8.76188e-05  0.00555706 -0.173408 -3.49283e-05  0.00506949 -0.185475 1.07288e-05  0.00456071 -0.197478 4.93526e-05  0.00403547 -0.209402 8.24928e-05  0.00350094 -0.221227 0.000112891  0.00297046 -0.23293 0.000144243  0 0 0  0.00118653 -0.00197345 -0.00179422  0.00340429 -0.00534308 -0.00272024  0.00580183 -0.0099864 -0.00305009  0.00803423 -0.0157696 -0.00303483  0.0100312 -0.0225987 -0.00285876  0.0117832 -0.0303577 -0.00261641  0.0132895 -0.0389361 -0.00235045  0.0145599 -0.0482265 -0.00208676  0.0156047 -0.0581289 -0.00183153  0.0164373 -0.068552 -0.00159144  0.0170729 -0.0794107 -0.00136614  0.0175273 -0.0906274 -0.00115728  0.0178176 -0.102131 -0.000964284  0.0179597 -0.113859 -0.000787616  0.017971 -0.125752 -0.000626445  0.0178668 -0.137757 -0.000481844  0.0176632 -0.14983 -0.000352979  0.0173755 -0.161929 -0.000240803  0.0170181 -0.174018 -0.000144362  0.0166037 -0.18607 -6.33001e-05  0.0161438 -0.198061 2.98023e-06  0.0156493 -0.209973 5.75781e-05  0.015132 -0.221793 0.000105977  0.0146089 -0.233516 0.000154734  0 0 0  0.00190237 -0.00316328 -0.00276017  0.00559467 -0.00692481 -0.00414836  0.00927314 -0.0115283 -0.00460529  0.0126095 -0.0172215 -0.00456381  0.0156118 -0.0239598 -0.0043062  0.0182764 -0.0316417 -0.00393939  0.0206059 -0.0401493 -0.00354517  0.0226119 -0.0493776 -0.00314534  0.024308 -0.05922 -0.00276458  0.0257113 -0.0695888 -0.00240099  0.0268412 -0.080394 -0.00206435  0.0277188 -0.0915617 -0.00174928  0.0283659 -0.103017 -0.00146163  0.0288041 -0.114701 -0.00119638  0.029056 -0.12655 -0.000956655  0.0291424 -0.138517 -0.000740647  0.0290854 -0.150551 -0.000549793  0.0289052 -0.162616 -0.000383735  0.0286217 -0.174674 -0.000242829  0.0282538 -0.186699 -0.000126243  0.0278213 -0.198665 -3.3617e-05  0.0273395 -0.210558 3.83854e-05  0.0268261 -0.222368 9.7394e-05  0.026299 -0.234111 0.000153661  0 0 0  0.00412235 -0.00539958 -0.0037477  0.00873643 -0.00914901 -0.00558507  0.0135135 -0.0135583 -0.00618279  0.0179473 -0.0191161 -0.00612628  0.0219533 -0.0257316 -0.00576723  0.0255126 -0.0333009 -0.00527322  0.0286388 -0.0417113 -0.00474215  0.0313474 -0.0508418 -0.00420642  0.0336564 -0.0605959 -0.00369585  0.0355914 -0.0708751 -0.00320923  0.0371747 -0.0815992 -0.00275922  0.0384341 -0.0926853 -0.00233781  0.0393952 -0.104067 -0.00195265  0.0400878 -0.115677 -0.00159907  0.0405372 -0.12746 -0.00127959  0.0407717 -0.139363 -0.000990987  0.040817 -0.151339 -0.000737548  0.0407007 -0.163351 -0.000516772  0.0404475 -0.175361 -0.000331163  0.0400822 -0.187344 -0.000179648  0.0396318 -0.199275 -6.27041e-05  0.0391219 -0.211142 2.38419e-05  0.0385797 -0.222939 8.58307e-05  0.0380356 -0.234691 0.000144243  0 0 0  -0.00510164 -0.00346378 0.0059185  -0.00938575 -0.00631147 0.00807595  -0.0136446 -0.0104891 0.00864387  -0.0178321 -0.0158923 0.00836468  -0.0218376 -0.0224597 0.00781941  -0.025593 -0.0299254 0.00706863  -0.0290828 -0.0382562 0.00635123  -0.0322983 -0.0472454 0.00559545  -0.0352389 -0.0568852 0.00492263  -0.0379099 -0.067013 0.00425982  -0.0403216 -0.0776203 0.00367689  -0.0424864 -0.0885774 0.00311661  -0.0444198 -0.0998672 0.00262833  -0.0461376 -0.111387 0.00216746  -0.0476559 -0.123112 0.00176978  -0.0489922 -0.134967 0.00140285  -0.0501633 -0.146921 0.00109267  -0.0511875 -0.158919 0.000818253  -0.0520821 -0.170935 0.000595808  -0.0528667 -0.182926 0.000414848  -0.0535593 -0.194874 0.000284195  -0.0541804 -0.206752 0.000192404  -0.0547523 -0.218557 0.000138283  -0.0553095 -0.230304 9.58443e-05  0 0 0  -0.00287301 -0.00164262 0.00434351  -0.00604907 -0.00457228 0.00590086  -0.00915527 -0.00882934 0.00631905  -0.0122545 -0.0144179 0.00616693  -0.0152465 -0.0211074 0.00577474  -0.018106 -0.0287729 0.00526881  -0.0208081 -0.0372459 0.00472975  -0.0233382 -0.0464377 0.00419569  -0.0256829 -0.056223 0.00368738  -0.0278463 -0.0665357 0.00320983  -0.0298245 -0.0772776 0.00276995  -0.0316317 -0.0883914 0.00236416  -0.0332695 -0.0997954 0.00199628  -0.0347542 -0.111441 0.00166249  -0.0360919 -0.123259 0.00136352  -0.037297 -0.135207 0.00109744  -0.038378 -0.147232 0.000866175  -0.0393515 -0.159297 0.000666857  -0.0402255 -0.17136 0.000503302  -0.0410159 -0.183395 0.000369787  -0.0417321 -0.19537 0.000269413  -0.0423868 -0.207273 0.00019598  -0.0429912 -0.219088 0.000139952  -0.0435579 -0.230834 7.62939e-05  0 0 0  -0.00174835 -0.000687316 0.00283551  -0.00361355 -0.00338025 0.00382161  -0.00558156 -0.00771107 0.00412798  -0.0076164 -0.0133964 0.00405049  -0.00962681 -0.0202085 0.00379705  -0.0115823 -0.0279836 0.00347114  -0.0134646 -0.0365877 0.00311995  -0.0152587 -0.0458987 0.00277257  -0.016955 -0.0558151 0.00243974  -0.018549 -0.0662446 0.00212979  -0.0200381 -0.0771051 0.00184178  -0.0214251 -0.0883228 0.00157785  -0.0227127 -0.0998278 0.00133824  -0.0239047 -0.111559 0.00112247  -0.0250061 -0.123458 0.000928402  -0.0260234 -0.135474 0.000756741  -0.0269606 -0.147559 0.000607252  -0.027828 -0.159672 0.000480413  -0.0286286 -0.171779 0.000374317  -0.0293703 -0.183847 0.00028944  -0.0300584 -0.195853 0.000223398  -0.0306988 -0.207778 0.00017333  -0.0312967 -0.219611 0.000127554  -0.0318642 -0.231337 7.39098e-05  0 0 0  -0.000810869 -0.000266492 0.00141191  -0.00162661 -0.00279129 0.00187635  -0.00254324 -0.00710317 0.00203323  -0.00354135 -0.0128397 0.00200081  -0.00457078 -0.0197219 0.00188184  -0.0056138 -0.0275786 0.00172162  -0.0066579 -0.0362647 0.00154877  -0.00769275 -0.0456628 0.00137782  -0.00871122 -0.0556644 0.00121474  -0.00970542 -0.0661796 0.00106215  -0.010671 -0.0771209 0.000922203  -0.0116065 -0.0884154 0.000794888  -0.0125078 -0.0999901 0.000679731  -0.0133747 -0.111785 0.000576973  -0.0142063 -0.12374 0.000484467  -0.0150037 -0.135806 0.000404358  -0.0157654 -0.147934 0.000335217  -0.0164938 -0.160085 0.000276566  -0.01719 -0.172221 0.00022912  -0.0178549 -0.184317 0.000190973  -0.0184903 -0.196344 0.000163078  -0.0190973 -0.208289 0.00014019  -0.0196776 -0.220132 0.000119925  -0.0202363 -0.231839 9.20296e-05  0 0 0  6.5282e-05 -0.000196308 -2.98023e-05  0.000163108 -0.00268337 -2.3365e-05  0.000236899 -0.00700518 -1.78814e-05  0.000255585 -0.0127662 -1.52588e-05  0.00020349 -0.0196849 -1.43051e-05  7.80821e-05 -0.0275805 -1.38283e-05  -0.000119507 -0.0363126 -1.3113e-05  -0.000384688 -0.0457564 -1.14441e-05  -0.000711083 -0.0558082 -8.58307e-06  -0.0010916 -0.0663714 -4.76837e-06  -0.00151801 -0.0773615 9.53674e-07  -0.00198448 -0.0886998 7.86781e-06  -0.00248313 -0.100318 1.57356e-05  -0.00300825 -0.11215 2.43187e-05  -0.00355303 -0.12414 3.38554e-05  -0.00411308 -0.136234 4.36306e-05  -0.00468206 -0.148388 5.34058e-05  -0.00525689 -0.160559 6.41346e-05  -0.00583339 -0.172713 7.43866e-05  -0.00640845 -0.184822 8.4877e-05  -0.00697994 -0.196862 9.60827e-05  -0.00754547 -0.208815 0.000105858  -0.00810361 -0.220662 0.000116587  -0.00864935 -0.232361 0.000124931  0 0 0  0.000933856 -0.000433862 -0.00146055  0.00194329 -0.00305068 -0.00190902  0.00300777 -0.00741035 -0.00205564  0.00403994 -0.013183 -0.00201869  0.00496215 -0.020103 -0.00190139  0.00575125 -0.0280041 -0.00174236  0.00639766 -0.036742 -0.0015707  0.00690079 -0.0461977 -0.00139832  0.00726557 -0.0562614 -0.00123072  0.00749969 -0.0668403 -0.00107145  0.00761366 -0.0778437 -0.000920534  0.00761724 -0.0891976 -0.00077939  0.00752318 -0.100827 -0.000648737  0.0073427 -0.112672 -0.00052762  0.00708616 -0.124671 -0.000417948  0.00676537 -0.136774 -0.000317097  0.00639009 -0.148932 -0.000227928  0.00597095 -0.161109 -0.000149012  0.00551581 -0.173264 -8.05855e-05  0.0050323 -0.185375 -2.12193e-05  0.0045259 -0.197412 2.86102e-05  0.00400329 -0.209363 7.20024e-05  0.00346684 -0.221208 0.000111818  0.00293159 -0.232914 0.000158787  0 0 0  0.00183597 -0.00101882 -0.00284624  0.00389138 -0.0038982 -0.00381517  0.00600746 -0.00832486 -0.00410557  0.00806808 -0.0140828 -0.00403118  0.00996125 -0.0209757 -0.00378728  0.0116548 -0.0288466 -0.00347042  0.0131341 -0.037558 -0.00312781  0.0143933 -0.0469896 -0.00278497  0.0154368 -0.0570328 -0.00245166  0.0162724 -0.0675923 -0.00213671  0.0169139 -0.0785781 -0.00183964  0.0173749 -0.0899147 -0.00156426  0.0176728 -0.101529 -0.00130892  0.0178233 -0.113358 -0.00107598  0.017843 -0.125342 -0.000863552  0.0177486 -0.137431 -0.00067234  0.0175557 -0.149575 -0.00050211  0.0172791 -0.161737 -0.000354052  0.0169332 -0.17388 -0.000226736  0.0165305 -0.185975 -0.000120401  0.0160806 -0.197999 -3.21865e-05  0.015594 -0.209936 3.93391e-05  0.0150774 -0.221771 0.000104904  0.0145473 -0.233496 0.000176907  0 0 0  0.00300382 -0.00207442 -0.0043509  0.00626633 -0.00533795 -0.00575781  0.00950274 -0.00973266 -0.00621486  0.0126051 -0.0154482 -0.00606823  0.0154652 -0.0222716 -0.00571609  0.0180502 -0.0300977 -0.00522304  0.020345 -0.0387426 -0.00471663  0.0223377 -0.0481292 -0.00418735  0.0240356 -0.0581105 -0.00369382  0.0254464 -0.0686252 -0.00320959  0.0265884 -0.0795553 -0.00277042  0.0274788 -0.0908504 -0.00234938  0.0281403 -0.102415 -0.0019722  0.0285937 -0.114205 -0.00161767  0.0288615 -0.126146 -0.00130343  0.0289643 -0.138199 -0.00101471  0.0289254 -0.150307 -0.000764132  0.0287635 -0.162437 -0.000542402  0.0284991 -0.174549 -0.000357628  0.0281506 -0.186618 -0.000202417  0.0277348 -0.198615 -8.01086e-05  0.0272675 -0.210529 1.64509e-05  0.0267606 -0.222347 9.29832e-05  0.0262294 -0.234089 0.000172138  0 0 0  0.00503381 -0.00384486 -0.00584817  0.00936234 -0.00731736 -0.00794363  0.0137547 -0.0116392 -0.00837803  0.0179456 -0.0172938 -0.00818753  0.0218019 -0.0240195 -0.00762486  0.025273 -0.0317874 -0.00699043  0.0283614 -0.0403267 -0.00626183  0.031052 -0.0496418 -0.00558305  0.0333654 -0.0595191 -0.00488853  0.035305 -0.0699576 -0.00426769  0.0369034 -0.0807914 -0.00365782  0.0381743 -0.0920144 -0.0031147  0.0391537 -0.103494 -0.0025928  0.0398614 -0.115214 -0.0021348  0.0403286 -0.127083 -0.00170422  0.04058 -0.139074 -0.00132895  0.0406458 -0.15112 -0.000987768  0.0405495 -0.163197 -0.000699282  0.0403161 -0.17526 -0.000449896  0.0399718 -0.187284 -0.00025177  0.0395391 -0.199247 -9.36985e-05  0.0390444 -0.211129 1.74046e-05  0.0385115 -0.222927 9.41753e-05  0.0379679 -0.234667 0.000154972  -0.00242926 -0.00240761 -0.00373447  -0.00417127 -0.00448938 -0.00473464  -0.00170724 -0.00321226 -0.00211906  0 0 0  0 0 0  -0.00381598 -0.00249568 -0.00516546  -0.00264981 -0.00382822 -0.00328422  0 0 0  -0.00127979 -0.000697643 -0.00277746  -0.00222145 -0.00233835 -0.00347924  -0.000644494 -0.00135888 -0.00156116  0 0 0  -0.00166485 -0.00273849 -0.00269556  -0.00164247 -0.00128103 -0.0031445  -0.00288463 -0.0032608 -0.00416946  -0.00088118 -0.00200202 -0.00184572  0 0 0  -0.000743862 -0.00111666 -0.00196874  -0.000933073 -0.00171419 -0.00229907  -0.00732775 -0.00477122 -0.00724518  -0.00888377 -0.00754282 -0.00688672  -0.00627032 -0.00651299 -0.00497568  -0.00758222 -0.00547979 -0.00692523  -0.00688241 -0.0072669 -0.00498486  -0.00451104 -0.0030173 -0.00515294  -0.00564328 -0.00557374 -0.00504851  -0.00360279 -0.00444736 -0.00364697  -0.00659651 -0.00576406 -0.0061146  -0.00575478 -0.00386173 -0.00623906  -0.00712419 -0.00649903 -0.0060097  -0.00472747 -0.00542774 -0.00429344  -0.0038905 -0.00379445 -0.00443625  -0.00499843 -0.00472612 -0.00530481  -0.0114863 -0.00824781 -0.00849855  -0.0135589 -0.0116535 -0.00748575  -0.0111141 -0.0103289 -0.00616908  -0.0112438 -0.00961255 -0.00741601  -0.0111062 -0.0116015 -0.00551963  -0.00760528 -0.00657187 -0.00611186  -0.00910172 -0.00989863 -0.00547493  -0.0072625 -0.00838915 -0.0045296  -0.0112433 -0.00941686 -0.00737536  -0.00941494 -0.00736746 -0.00726819  -0.0111935 -0.0107052 -0.00649548  -0.0090189 -0.00930887 -0.00536978  -0.00738811 -0.0075701 -0.00535905  -0.00918204 -0.0084401 -0.00635815  -0.0157253 -0.01306 -0.00852799  -0.0179825 -0.016971 -0.00731325  -0.0157948 -0.0150707 -0.00637114  -0.0148756 -0.0151348 -0.00721383  -0.0150862 -0.0170208 -0.00545073  -0.0107051 -0.0114949 -0.00621474  -0.0123749 -0.015431 -0.00537825  -0.0107594 -0.0133653 -0.00468802  -0.0158091 -0.0141517 -0.00747752  -0.0130741 -0.0122193 -0.00734365  -0.0150351 -0.016136 -0.00636089  -0.013138 -0.0141698 -0.00552738  -0.0107628 -0.0125131 -0.00547218  -0.0131446 -0.0132737 -0.00646675  -0.0198504 -0.0190704 -0.0080651  -0.0220828 -0.0233952 -0.00679564  -0.0201489 -0.0209115 -0.00609779  -0.0183585 -0.0217467 -0.00671983  -0.0187618 -0.0234937 -0.00509965  -0.0137428 -0.0176593 -0.00591648  -0.0154585 -0.022056 -0.0050149  -0.014039 -0.0194371 -0.00449646  -0.0200754 -0.0200501 -0.00710523  -0.0166412 -0.0183103 -0.00697076  -0.0186256 -0.0226756 -0.0059247  -0.0169562 -0.0201304 -0.00529373  -0.0139375 -0.0186115 -0.0052191  -0.0168629 -0.0192797 -0.00615346  -0.023708 -0.0261117 -0.00738776  -0.0258763 -0.0307768 -0.00616741  -0.0241557 -0.0277444 -0.00560403  -0.0216617 -0.0293468 -0.00610936  -0.0221629 -0.0308859 -0.00463164  -0.0166703 -0.0248556 -0.00544441  -0.0183573 -0.0296226 -0.00456679  -0.0170926 -0.0264829 -0.0041393  -0.0240127 -0.0269704 -0.00651312  -0.0200312 -0.0254357 -0.00640655  -0.0219739 -0.0301515 -0.00538623  -0.0204993 -0.0270755 -0.00487041  -0.0169327 -0.0257241 -0.00480044  -0.0203275 -0.0263041 -0.00565541  -0.0273427 -0.0340245 -0.00663924  -0.0293751 -0.0389767 -0.00548732  -0.0278402 -0.0354605 -0.00503314  -0.0247597 -0.0377315 -0.00545621  -0.0252948 -0.0391099 -0.0041275  -0.0194476 -0.0329406 -0.00490665  -0.021069 -0.0380091 -0.00406587  -0.019933 -0.0343992 -0.003721  -0.027666 -0.0347762 -0.00584912  -0.0232408 -0.0334415 -0.00576854  -0.0250846 -0.0384574 -0.00479853  -0.0237591 -0.034898 -0.00437772  -0.0197347 -0.0337154 -0.00431919  -0.0235608 -0.0342096 -0.00508499  -0.0306816 -0.0426967 -0.0058825  -0.0325788 -0.047895 -0.00483656  -0.0312005 -0.0439475 -0.00445271  -0.0276394 -0.0468511 -0.00481606  -0.028171 -0.0480373 -0.00363159  -0.0220651 -0.0417855 -0.00435698  -0.0235897 -0.0471037 -0.00359178  -0.0225595 -0.0430752 -0.00329328  -0.03101 -0.0433484 -0.00517726  -0.0262255 -0.0422073 -0.00512064  -0.0279554 -0.0474657 -0.00423276  -0.0267665 -0.0434844 -0.00387406  -0.0223545 -0.0424692 -0.00382853  -0.0265482 -0.0428793 -0.00450647  -0.0337671 -0.0520201 -0.00515902  -0.0355016 -0.0574265 -0.00420797  -0.0342665 -0.0531049 -0.00389504  -0.0302891 -0.0565482 -0.00420201  -0.0307987 -0.057593 -0.00315976  -0.0244986 -0.051284 -0.00382483  -0.0259193 -0.0568089 -0.00312185  -0.0249846 -0.0524124 -0.00288033  -0.0340775 -0.0525847 -0.00453424  -0.028995 -0.0516243 -0.00449359  -0.0305895 -0.057094 -0.00368392  -0.0295129 -0.052737 -0.00338984  -0.0247766 -0.0518812 -0.00335479  -0.0293028 -0.0522087 -0.00394821  -0.0365622 -0.0619122 -0.004475  -0.0381483 -0.0674947 -0.00363266  -0.0370392 -0.0628441 -0.00337207  -0.0327154 -0.0667911 -0.00363088  -0.033191 -0.0676742 -0.00272155  -0.0267522 -0.0613423 -0.00332129  -0.0280603 -0.0670375 -0.00269961  -0.027209 -0.0623201 -0.00249267  -0.0368562 -0.0623955 -0.00392914  -0.0315282 -0.0616053 -0.0039022  -0.0329931 -0.0672441 -0.00318158  -0.0320247 -0.0625647 -0.00293398  -0.0270138 -0.0618588 -0.00290835  -0.0318183 -0.0621081 -0.00342333  -0.0391074 -0.0722869 -0.00384367  -0.040537 -0.0780142 -0.00309396  -0.0395458 -0.0730823 -0.00288904  -0.0349189 -0.0774534 -0.00309932  -0.0353576 -0.0782166 -0.00231707  -0.0288193 -0.0718767 -0.00285351  -0.0300187 -0.0777097 -0.00229537  -0.0292459 -0.0727157 -0.00213385  -0.0393764 -0.072699 -0.00337064  -0.0338457 -0.0720644 -0.00335193  -0.0351747 -0.0778476 -0.00270963  -0.0342997 -0.0728856 -0.00251365  -0.0290606 -0.0723193 -0.00249457  -0.0341117 -0.0724941 -0.0029366  -0.0413878 -0.0830751 -0.00325871  -0.0426769 -0.0889198 -0.00260639  -0.0417923 -0.0837451 -0.0024451  -0.0369143 -0.0885046 -0.00261283  -0.0373132 -0.0891353 -0.00194705  -0.0307115 -0.0828112 -0.00242102  -0.0318023 -0.0887525 -0.00193644  -0.0310996 -0.083523 -0.00180423  -0.0416353 -0.0834205 -0.0028553  -0.0359406 -0.0829304 -0.00284469  -0.0371457 -0.0888231 -0.0022831  -0.0363616 -0.0836239 -0.00212598  -0.0309322 -0.0831858 -0.0021131  -0.0361849 -0.0832922 -0.00248849  -0.0434391 -0.0942043 -0.0027256  -0.0445877 -0.100138 -0.00215662  -0.0438029 -0.0947616 -0.00203979  -0.0387089 -0.0998427 -0.00216699  -0.0390691 -0.100373 -0.00160944  -0.032431 -0.0940761 -0.00202513  -0.0334204 -0.100099 -0.00159848  -0.0327845 -0.0946717 -0.00150287  -0.0436616 -0.0944909 -0.0023855  -0.0378364 -0.094131 -0.00237966  -0.038918 -0.100111 -0.00188887  -0.0382135 -0.0947098 -0.001773  -0.0326304 -0.0943889 -0.00176442  -0.0380564 -0.094432 -0.00207841  -0.0452589 -0.105614 -0.00223815  -0.0462817 -0.111614 -0.00175297  -0.0455873 -0.106068 -0.0016712  -0.0403194 -0.111435 -0.00176382  -0.0406404 -0.111859 -0.00130367  -0.0339913 -0.105606 -0.00166428  -0.0348827 -0.111685 -0.00130081  -0.0343069 -0.106097 -0.00122941  -0.0454592 -0.105846 -0.00195682  -0.039535 -0.105604 -0.00195646  -0.0405053 -0.111643 -0.00153553  -0.0398769 -0.106078 -0.00145125  -0.0341704 -0.105863 -0.0014472  -0.0397333 -0.105849 -0.00170553  -0.0468775 -0.117241 -0.00179935  -0.047779 -0.123284 -0.00138617  -0.0471671 -0.117604 -0.00133872  -0.0417562 -0.123202 -0.00139987  -0.0420399 -0.123542 -0.0010289  -0.0353992 -0.117342 -0.00133872  -0.036201 -0.123456 -0.00102603  -0.0356807 -0.117738 -0.000982285  -0.0470554 -0.117425 -0.0015707  -0.0410585 -0.117289 -0.00157392  -0.0419207 -0.123368 -0.00121439  -0.0413593 -0.117669 -0.00116169  -0.0355587 -0.117549 -0.00116062  -0.0412338 -0.117484 -0.00136888  -0.0483004 -0.129035 -0.001405  -0.0490931 -0.1351 -0.00106287  -0.0485554 -0.129315 -0.00104129  -0.043036 -0.135109 -0.00107706  -0.0432827 -0.135366 -0.000784397  -0.0366699 -0.12923 -0.00104666  -0.0373856 -0.135358 -0.00078702  -0.0369152 -0.129541 -0.000761151  -0.0484565 -0.129175 -0.00122452  -0.0424136 -0.129132 -0.00123107  -0.0431787 -0.135228 -0.000931263  -0.0426795 -0.129428 -0.000901818  -0.0368093 -0.129391 -0.000903964  -0.0425678 -0.129283 -0.00106704  -0.0495539 -0.140943 -0.00105786  -0.0502446 -0.147013 -0.000777125  -0.049773 -0.141151 -0.000778556  -0.0441718 -0.147095 -0.000792861  -0.0443828 -0.147287 -0.00056994  -0.0378108 -0.14122 -0.000788808  -0.0384493 -0.147345 -0.000573039  -0.0380237 -0.141457 -0.000565886  -0.0496891 -0.141045 -0.000919223  -0.0436206 -0.141083 -0.000928402  -0.0442939 -0.147181 -0.000681281  -0.0438483 -0.141306 -0.000672936  -0.0379314 -0.141342 -0.000677347  -0.0437534 -0.141195 -0.000800848  -0.0506487 -0.152922 -0.000754714  -0.0512486 -0.158982 -0.000532746  -0.0508351 -0.153068 -0.000550151  -0.0451789 -0.159129 -0.000548482  -0.0453568 -0.15926 -0.00038588  -0.0388367 -0.153268 -0.000564218  -0.0394034 -0.159376 -0.000392556  -0.0390165 -0.153441 -0.000396252  -0.0507627 -0.152991 -0.000653028  -0.0446892 -0.153098 -0.00066483  -0.0452812 -0.159181 -0.000467062  -0.044884 -0.153257 -0.000473499  -0.0389392 -0.153356 -0.000480175  -0.0448024 -0.153176 -0.000569224  -0.0516067 -0.164931 -0.000496984  -0.0521247 -0.170968 -0.000326395  -0.0517612 -0.165026 -0.000355959  -0.0460727 -0.171166 -0.000342607  -0.0462184 -0.17125 -0.000230908  -0.039758 -0.165335 -0.000373006  -0.0402613 -0.171413 -0.000237226  -0.0399086 -0.165454 -0.000251532  -0.0517023 -0.164974 -0.000427008  -0.0456378 -0.165137 -0.000440478  -0.0461559 -0.171195 -0.000286579  -0.045799 -0.165243 -0.000304103  -0.0398433 -0.165394 -0.000312448  -0.0457315 -0.165187 -0.000372052  -0.0524437 -0.176937 -0.000284195  -0.0528908 -0.182942 -0.00016129  -0.0525687 -0.176989 -0.000196338  -0.0468686 -0.18318 -0.000176787  -0.046984 -0.183226 -0.000105858  -0.0405891 -0.177386 -0.0002141  -0.0410347 -0.183425 -0.000113487  -0.0407104 -0.177461 -0.000131607  -0.0525196 -0.176957 -0.000240564  -0.0464807 -0.177166 -0.000254631  -0.0469337 -0.183187 -0.000140905  -0.0466111 -0.17723 -0.000164032  -0.0406575 -0.177422 -0.000172973  -0.0465555 -0.177194 -0.000208855  -0.05318 -0.188909 -0.000118017  -0.0535674 -0.194874 -3.56436e-05  -0.0532777 -0.18893 -7.11679e-05  -0.0475826 -0.195141 -4.8995e-05  -0.0476718 -0.195161 -9.65595e-06  -0.0413404 -0.189394 -8.80957e-05  -0.0417371 -0.195387 -1.56164e-05  -0.0414355 -0.189436 -3.62396e-05  -0.0532396 -0.188913 -9.5129e-05  -0.0472341 -0.189156 -0.000108719  -0.0476317 -0.195135 -2.93255e-05  -0.0473354 -0.189187 -5.38826e-05  -0.041394 -0.189412 -6.24657e-05  -0.0472915 -0.189167 -8.08239e-05  -0.0538347 -0.200824 4.41074e-06  -0.0541756 -0.206749 5.28097e-05  -0.053911 -0.200827 2.07424e-05  -0.0482306 -0.207031 4.37498e-05  -0.0482998 -0.207036 6.09159e-05  -0.0420244 -0.201334 9.05991e-06  -0.0423813 -0.207279 5.74589e-05  -0.0420983 -0.201354 3.68357e-05  -0.0538781 -0.200818 1.16825e-05  -0.0479128 -0.201083 9.53674e-07  -0.0482666 -0.207017 5.24521e-05  -0.0479915 -0.201094 2.89679e-05  -0.0420656 -0.201341 2.25306e-05  -0.0479555 -0.201084 1.5378e-05  -0.0544293 -0.212665 8.45194e-05  -0.0547438 -0.218554 0.000112414  -0.0544922 -0.212662 8.46386e-05  -0.0488288 -0.218838 0.000110745  -0.0488877 -0.218841 0.000113964  -0.0426528 -0.213193 8.21352e-05  -0.0429819 -0.219092 0.000116467  -0.0427134 -0.213201 9.27448e-05  -0.0544631 -0.212658 8.36849e-05  -0.0485334 -0.212932 7.89165e-05  -0.0488579 -0.218826 0.000112295  -0.0485964 -0.212935 8.90493e-05  -0.042686 -0.213194 8.67844e-05  -0.0485663 -0.212929 8.40425e-05  -0.0549905 -0.224433 0.00013876  -0.0552986 -0.230306 0.000163555  -0.0550525 -0.224439 0.000133038  -0.0493951 -0.230584 0.000175357  -0.049454 -0.230593 0.000164151  -0.0432377 -0.224969 0.00014627  -0.0435565 -0.230837 0.000174284  -0.0432959 -0.224975 0.000141621  -0.0550208 -0.224433 0.00013566  -0.0491133 -0.224703 0.000141978  -0.0494249 -0.230576 0.000169516  -0.0491707 -0.224709 0.000138283  -0.0432703 -0.22497 0.000143409  -0.0491433 -0.224704 0.00014019  0 0 0  -0.00227837 -0.00110538 -0.00351906  -0.00148807 -0.00215301 -0.00225055  0 0 0  -0.00079092 -7.38204e-05 -0.00181806  -0.00127392 -0.0012676 -0.00228298  -0.000383768 -0.000652343 -0.00101304  0 0 0  -0.000995982 -0.000332445 -0.00224781  -0.00170234 -0.00170486 -0.00285292  -0.000498246 -0.000932142 -0.00127852  0 0 0  -0.000425249 -0.000448197 -0.0012964  -0.000557784 -0.000719547 -0.00162458  -0.00476111 -0.00394158 -0.0047214  -0.00420479 -0.00552273 -0.00344288  -0.00268371 -0.00184064 -0.00337076  -0.0033336 -0.00425319 -0.00325716  -0.00207736 -0.00312123 -0.00234759  -0.00352041 -0.00231764 -0.00423038  -0.00440608 -0.00481428 -0.00411129  -0.00277314 -0.00367054 -0.00295925  -0.00228098 -0.0025588 -0.00287521  -0.00301187 -0.00307332 -0.0036031  -0.00728765 -0.0082543 -0.00512695  -0.007162 -0.0100272 -0.00384951  -0.00458071 -0.00538805 -0.00395381  -0.00552607 -0.00867666 -0.00357759  -0.00432622 -0.00701834 -0.0029496  -0.00602385 -0.00590199 -0.00499475  -0.00722376 -0.00921759 -0.00451183  -0.00568664 -0.00761986 -0.00370789  -0.00442639 -0.00629131 -0.00347519  -0.00581709 -0.00685504 -0.00438476  -0.00983188 -0.0138791 -0.00502431  -0.00998005 -0.015655 -0.0038172  -0.00658989 -0.0104225 -0.00405574  -0.00769138 -0.0143545 -0.00352132  -0.00662157 -0.0121505 -0.00306988  -0.00856018 -0.0108986 -0.00512147  -0.00994381 -0.0148345 -0.00443268  -0.00858948 -0.0126919 -0.00386798  -0.00661871 -0.0113711 -0.00357962  -0.00860116 -0.0118789 -0.00451195  -0.0123227 -0.0206365 -0.00470078  -0.0126427 -0.0223103 -0.00357842  -0.00860524 -0.0166889 -0.00387311  -0.00976908 -0.0211111 -0.00329328  -0.0088163 -0.0183752 -0.00295234  -0.0110856 -0.0171181 -0.00488341  -0.0125223 -0.0215295 -0.0041455  -0.0113334 -0.0188485 -0.00371575  -0.0087418 -0.0176055 -0.00342131  -0.0112492 -0.0180538 -0.00431132  -0.0147272 -0.0283613 -0.00427997  -0.0151309 -0.0298912 -0.00325  -0.0105847 -0.0240007 -0.00356877  -0.0117547 -0.0288135 -0.00298977  -0.0108981 -0.0255783 -0.00271618  -0.013537 -0.0243773 -0.00449812  -0.0149672 -0.029173 -0.00376773  -0.0139065 -0.0259812 -0.00341964  -0.0107729 -0.024851 -0.00314677  -0.0137621 -0.025239 -0.00396466  -0.0170194 -0.0369056 -0.00382698  -0.0174553 -0.0382771 -0.00289416  -0.0125023 -0.0322066 -0.00321698  -0.0136441 -0.037333 -0.00266552  -0.0128629 -0.033643 -0.00243783  -0.0158874 -0.0325276 -0.00405598  -0.0172707 -0.037629 -0.00336051  -0.0163133 -0.0339778 -0.00307274  -0.0127121 -0.0329767 -0.00282872  -0.0161366 -0.0333031 -0.00356698  -0.0191826 -0.0461608 -0.00337923  -0.0196191 -0.047374 -0.00254488  -0.0143389 -0.0411773 -0.00285542  -0.0154327 -0.0465615 -0.00234485  -0.0147119 -0.0424626 -0.0021534  -0.0181174 -0.0414407 -0.00360262  -0.01943 -0.0467984 -0.00296152  -0.0185559 -0.0427315 -0.00271738  -0.0145507 -0.0418638 -0.00250423  -0.0183686 -0.0421292 -0.00316083  -0.0212065 -0.056017 -0.00294876  -0.021626 -0.0570776 -0.00221121  -0.0160829 -0.0508026 -0.00250399  -0.0171171 -0.0563961 -0.00203979  -0.0164486 -0.0519372 -0.00187898  -0.0202113 -0.0510081 -0.00316215  -0.0214415 -0.0565715 -0.00257838  -0.0206413 -0.0521429 -0.00237489  -0.0162884 -0.051407 -0.00219047  -0.0204539 -0.0516121 -0.00276828  -0.023088 -0.0663915 -0.00254726  -0.023481 -0.0673094 -0.00190258  -0.0177264 -0.0609853 -0.00217164  -0.0186956 -0.0667499 -0.001755  -0.0180728 -0.0619758 -0.0016216  -0.0221642 -0.0611338 -0.00274575  -0.0233067 -0.0668694 -0.00222349  -0.022571 -0.062121 -0.0020535  -0.0179191 -0.061512 -0.00189519  -0.0223922 -0.0616582 -0.00239885  -0.0248271 -0.0771964 -0.00217307  -0.0251895 -0.0779822 -0.00161636  -0.0192668 -0.0716393 -0.00186145  -0.0201691 -0.0775394 -0.0014919  -0.0195888 -0.0724945 -0.00138366  -0.0239744 -0.0717328 -0.0023576  -0.025028 -0.077603 -0.00189292  -0.0243527 -0.0725827 -0.00175595  -0.0194457 -0.0720932 -0.00162113  -0.0241848 -0.0721836 -0.00205576  -0.0264283 -0.0883642 -0.00183117  -0.0267581 -0.0890288 -0.00135577  -0.020704 -0.0826862 -0.00157559  -0.0215397 -0.0886919 -0.00125051  -0.0209984 -0.0834165 -0.00116503  -0.0256438 -0.0827279 -0.00199962  -0.0266105 -0.0887059 -0.00159204  -0.0259895 -0.0834514 -0.00148273  -0.0208666 -0.0830732 -0.00136888  -0.025836 -0.0831109 -0.0017401  -0.0278965 -0.0998216 -0.00151646  -0.0281937 -0.100376 -0.00111699  -0.0220406 -0.0940547 -0.00131321  -0.0228111 -0.100137 -0.00103045  -0.0223069 -0.0946703 -0.000965357  -0.0271778 -0.0940485 -0.0016712  -0.0280603 -0.100104 -0.00131524  -0.0274912 -0.0946563 -0.0012331  -0.0221876 -0.0943803 -0.00113821  -0.0273514 -0.0943696 -0.00145113  -0.0292394 -0.111511 -0.00123322  -0.0295043 -0.111965 -0.000902057  -0.023279 -0.105679 -0.00107491  -0.0239873 -0.111814 -0.000831246  -0.0235175 -0.10619 -0.000784397  -0.0285819 -0.105629 -0.00137258  -0.0293854 -0.11174 -0.00106645  -0.0288627 -0.106132 -0.00100648  -0.0234104 -0.105949 -0.00092864  -0.0287379 -0.105894 -0.00118864  -0.0304644 -0.123371 -0.000976324  -0.0306978 -0.123736 -0.000707626  -0.024425 -0.1175 -0.000859618  -0.0250742 -0.123664 -0.000651836  -0.0246359 -0.117917 -0.000620961  -0.0298654 -0.117411 -0.00110209  -0.0305929 -0.123552 -0.000840783  -0.0301143 -0.117819 -0.000801802  -0.0245417 -0.117719 -0.000739455  -0.0300031 -0.117625 -0.000951171  -0.0315802 -0.135354 -0.000749588  -0.031783 -0.135639 -0.000535846  -0.0254835 -0.129462 -0.000666738  -0.0260766 -0.135636 -0.000492454  -0.0256675 -0.129795 -0.000475049  -0.0310341 -0.129339 -0.000860453  -0.0316917 -0.135492 -0.000641823  -0.0312521 -0.129662 -0.000618935  -0.0255853 -0.129636 -0.000570178  -0.0311552 -0.129507 -0.000738978  -0.0325954 -0.14741 -0.000548482  -0.032769 -0.147625 -0.000383854  -0.0264599 -0.141516 -0.00049603  -0.0270009 -0.147683 -0.000352263  -0.0266187 -0.141775 -0.000345707  -0.0320988 -0.141363 -0.000646472  -0.0326903 -0.147511 -0.000465274  -0.0322871 -0.141612 -0.000457168  -0.0265481 -0.141651 -0.000420332  -0.0322027 -0.141492 -0.000551224  -0.03352 -0.159499 -0.000377417  -0.0336657 -0.159655 -0.000253916  -0.0273609 -0.153619 -0.000347495  -0.027854 -0.159764 -0.000231385  -0.0274959 -0.153814 -0.000233173  -0.0330667 -0.15344 -0.000460386  -0.0335991 -0.159568 -0.00031507  -0.0332265 -0.153625 -0.000316262  -0.0274355 -0.15372 -0.000289917  -0.0331554 -0.153535 -0.000387907  -0.0343623 -0.171584 -0.000230432  -0.0344822 -0.171691 -0.000143647  -0.028194 -0.165733 -0.000220537  -0.0286424 -0.171843 -0.000129342  -0.0283055 -0.165872 -0.000136971  -0.0339499 -0.165532 -0.000301361  -0.0344272 -0.171627 -0.000186563  -0.0340824 -0.165662 -0.000196218  -0.0282557 -0.165804 -0.000178456  -0.0340226 -0.165598 -0.000248432  -0.0351329 -0.183636 -0.00011313  -0.0352285 -0.183703 -5.4121e-05  -0.0289643 -0.177822 -0.000114679  -0.0293729 -0.183889 -4.56572e-05  -0.0290549 -0.177918 -5.6982e-05  -0.0347545 -0.177604 -0.000169516  -0.0351841 -0.183658 -8.32081e-05  -0.034862 -0.17769 -9.64403e-05  -0.0290143 -0.17787 -8.55923e-05  -0.0348136 -0.177646 -0.00013268  -0.0358391 -0.195627 -1.71661e-05  -0.0359144 -0.195665 1.71661e-05  -0.0296783 -0.189862 -2.87294e-05  -0.0300512 -0.195878 2.16961e-05  -0.0297499 -0.189922 7.7486e-06  -0.0354929 -0.189627 -6.29425e-05  -0.0358789 -0.195633 1.19209e-07  -0.0355775 -0.189679 -1.64509e-05  -0.0297182 -0.189891 -1.03712e-05  -0.0355387 -0.189652 -3.95775e-05  -0.0364902 -0.207541 5.50747e-05  -0.0365505 -0.207559 7.27177e-05  -0.0303416 -0.201829 3.93391e-05  -0.0306852 -0.207792 7.53403e-05  -0.0303986 -0.201862 5.98431e-05  -0.0361698 -0.201582 2.02656e-05  -0.0365214 -0.207536 6.3777e-05  -0.036237 -0.201609 4.63724e-05  -0.0303736 -0.201844 4.97103e-05  -0.0362058 -0.201593 3.32594e-05  -0.0370939 -0.219364 0.000119328  -0.0371485 -0.219372 0.000120282  -0.0309603 -0.213708 9.53674e-05  -0.0312817 -0.219615 0.000123382  -0.0310094 -0.213724 0.00010252  -0.0367966 -0.213451 8.65459e-05  -0.0371222 -0.219355 0.000119448  -0.0368526 -0.213464 9.67979e-05  -0.0309875 -0.213714 9.85861e-05  -0.0368261 -0.213455 9.14335e-05  -0.0376656 -0.231101 0.000186801  -0.0377247 -0.231107 0.000166297  -0.0315406 -0.22549 0.000151753  -0.0318568 -0.231337 0.000174522  -0.0315907 -0.225495 0.000143409  -0.0373802 -0.225231 0.000149727  -0.0376987 -0.23109 0.000174999  -0.037436 -0.225237 0.000143647  -0.0315697 -0.225488 0.000147223  -0.0374117 -0.225231 0.00014627  0 0 0  -0.00123878 -0.000451922 -0.0020957  -0.000780351 -0.0013997 -0.00134254  0 0 0  -0.00034637 0.000187755 -0.00090313  -0.000564188 -0.000804961 -0.00113845  -0.000163261 -0.00037232 -0.000514746  0 0 0  -0.000555806 9.68874e-05 -0.00136888  -0.000911653 -0.000981778 -0.00170922  -0.000264116 -0.000470072 -0.00077188  0 0 0  -0.000186481 -0.000183433 -0.000657201  -0.000299886 -0.000282556 -0.000992656  -0.00257054 -0.00305164 -0.00277293  -0.00226291 -0.00448722 -0.00203228  -0.00117719 -0.00126982 -0.00166571  -0.0014987 -0.00359643 -0.00160825  -0.000926435 -0.00250039 -0.00116885  -0.0018979 -0.0014995 -0.00250995  -0.002379 -0.00385788 -0.00242126  -0.00147662 -0.00274062 -0.00175834  -0.00100528 -0.00198627 -0.00142813  -0.0016159 -0.00220555 -0.00214612  -0.00400189 -0.00737169 -0.00301671  -0.00394565 -0.00902349 -0.00227416  -0.00205657 -0.0047681 -0.00194192  -0.0025236 -0.00802317 -0.00175798  -0.00196388 -0.00629929 -0.001454  -0.00327438 -0.00501439 -0.00292861  -0.00397846 -0.00828078 -0.00266099  -0.00309417 -0.00658172 -0.00218737  -0.00200179 -0.00562277 -0.00171053  -0.00316972 -0.00588056 -0.00257874  -0.00551143 -0.0130895 -0.00296307  -0.00562117 -0.0147656 -0.0022583  -0.00301772 -0.0098381 -0.00198555  -0.00358987 -0.0137677 -0.00173032  -0.00306869 -0.0114814 -0.00151241  -0.00475213 -0.0100687 -0.00301194  -0.00558957 -0.0139983 -0.0026201  -0.00478828 -0.0117464 -0.00228751  -0.00305504 -0.0107451 -0.00175881  -0.00478733 -0.0109925 -0.00266087  -0.00702363 -0.019938 -0.00277376  -0.00724548 -0.0215497 -0.0021168  -0.00403184 -0.0161684 -0.00189745  -0.00465488 -0.0206073 -0.00161529  -0.00417674 -0.0177967 -0.00145233  -0.00626838 -0.016372 -0.00287986  -0.00715947 -0.0208029 -0.00245082  -0.00644171 -0.0180242 -0.00219941  -0.00412309 -0.0170575 -0.00168049  -0.00638008 -0.0172718 -0.00254786  -0.00851917 -0.0277605 -0.0025233  -0.00879842 -0.0292538 -0.001917  -0.00506437 -0.0235559 -0.00174296  -0.00571203 -0.0283961 -0.00145984  -0.0052672 -0.0250977 -0.00133026  -0.00777364 -0.0237261 -0.00265253  -0.00868213 -0.0285534 -0.00222254  -0.00803006 -0.0252825 -0.00202084  -0.00518459 -0.0243891 -0.00154018  -0.00792688 -0.0245664 -0.00234056  -0.00998044 -0.0364093 -0.00225234  -0.0102828 -0.0377631 -0.00170183  -0.00610483 -0.031842 -0.0015645  -0.00675845 -0.0370055 -0.00129282  -0.0063349 -0.0332602 -0.00118625  -0.0092544 -0.0319773 -0.00238883  -0.0101517 -0.0371242 -0.00197756  -0.00954878 -0.0334027 -0.00181043  -0.00623691 -0.0326037 -0.00137699  -0.00942397 -0.0327421 -0.0021013  -0.0113945 -0.0457686 -0.0019834  -0.0116982 -0.0469756 -0.00148952  -0.00714284 -0.0408971 -0.00138032  -0.00778866 -0.0463229 -0.00112903  -0.00737959 -0.0421756 -0.00103915  -0.0106933 -0.0409953 -0.00211668  -0.0115633 -0.0464017 -0.00173593  -0.0109984 -0.0422758 -0.00159466  -0.00727582 -0.0415804 -0.00121033  -0.0108649 -0.0416793 -0.00185585  -0.0127522 -0.0557316 -0.00172544  -0.0130446 -0.0567944 -0.00128818  -0.00816751 -0.0506085 -0.00120199  -0.00879812 -0.0562474 -0.000972629  -0.00839949 -0.0517441 -0.000897884  -0.0120801 -0.0506685 -0.00185275  -0.0129128 -0.0562871 -0.00150597  -0.0123792 -0.0518027 -0.00138736  -0.00829613 -0.0512135 -0.00105  -0.012246 -0.0512725 -0.00161946  -0.0140476 -0.0662072 -0.00148356  -0.0143213 -0.0671328 -0.00110114  -0.0091728 -0.0608768 -0.00103283  -0.00978231 -0.0666872 -0.000827432  -0.00939226 -0.0618736 -0.000765681  -0.0134068 -0.0608987 -0.00160265  -0.014197 -0.066688 -0.00129104  -0.0136907 -0.0618918 -0.00119293  -0.00929356 -0.0614066 -0.000898838  -0.013563 -0.0614265 -0.00139678  -0.0152775 -0.0771117 -0.00125933  -0.0155296 -0.0779085 -0.000929117  -0.0101517 -0.071614 -0.000875711  -0.0107374 -0.0775601 -0.00069356  -0.010355 -0.0724789 -0.000643969  -0.0146703 -0.0715986 -0.0013696  -0.0154145 -0.0775239 -0.00109315  -0.0149332 -0.0724585 -0.00101316  -0.0102636 -0.0720728 -0.000759482  -0.014814 -0.0720546 -0.0011903  -0.016441 -0.0883701 -0.00105381  -0.0166698 -0.0890483 -0.000771761  -0.0111023 -0.0827399 -0.000731468  -0.0116616 -0.0887895 -0.00057137  -0.0112871 -0.0834821 -0.000532269  -0.0158665 -0.082689 -0.00115478  -0.0165647 -0.0887184 -0.000911474  -0.0161073 -0.0834253 -0.000848651  -0.0112034 -0.083133 -0.000631332  -0.0159976 -0.0830789 -0.00100064  -0.0175383 -0.0999128 -0.000865698  -0.0177436 -0.100482 -0.000628114  -0.0120199 -0.094182 -0.000599027  -0.0125525 -0.100306 -0.00045979  -0.0121862 -0.0948107 -0.000430822  -0.016997 -0.094098 -0.000957727  -0.0176492 -0.100204 -0.000745893  -0.0172137 -0.0947203 -0.00069809  -0.0121109 -0.0945144 -0.000514507  -0.017115 -0.0944269 -0.000826836  -0.0185707 -0.111678 -0.000695705  -0.0187531 -0.112149 -0.000498891  -0.0129043 -0.105874 -0.000479102  -0.0134091 -0.112047 -0.000359535  -0.0130519 -0.106399 -0.000338793  -0.0180614 -0.105759 -0.000778913  -0.0186691 -0.111916 -0.000596166  -0.0182552 -0.106278 -0.000561833  -0.0129849 -0.106151 -0.000408649  -0.018167 -0.106033 -0.000669479  -0.0195404 -0.123607 -0.000542521  -0.0197002 -0.123989 -0.000382543  -0.0137534 -0.117755 -0.00037086  -0.0142313 -0.123955 -0.000268817  -0.0138829 -0.118187 -0.0002563  -0.0190625 -0.117613 -0.000617266  -0.0196265 -0.123797 -0.000461698  -0.0192332 -0.118038 -0.000439167  -0.0138245 -0.117982 -0.000313163  -0.0191551 -0.117837 -0.000527382  -0.0204499 -0.135649 -0.000406265  -0.020588 -0.135952 -0.000279307  -0.0145679 -0.12977 -0.000274181  -0.0150186 -0.135977 -0.000188708  -0.0146796 -0.130118 -0.000182271  -0.0200016 -0.129605 -0.000472665  -0.0205243 -0.135797 -0.000342011  -0.0201504 -0.129946 -0.000329375  -0.0146291 -0.129953 -0.000227928  -0.0200825 -0.129784 -0.000400305  -0.0213029 -0.147756 -0.000286341  -0.0214205 -0.14799 -0.000188231  -0.0153468 -0.141872 -0.000188589  -0.0157716 -0.148067 -0.000118136  -0.0154417 -0.142145 -0.000116825  -0.0208824 -0.141685 -0.000344872  -0.0213659 -0.147868 -0.00023675  -0.0210099 -0.141952 -0.00023222  -0.0153992 -0.142015 -0.000152469  -0.0209517 -0.141824 -0.00028789  -0.0221031 -0.159889 -0.000183344  -0.0222013 -0.160063 -0.000109911  -0.0160916 -0.154014 -0.000114202  -0.0164914 -0.160185 -5.75781e-05  -0.016171 -0.154224 -5.98431e-05  -0.0217083 -0.15381 -0.000233173  -0.022155 -0.159969 -0.000146031  -0.021816 -0.154012 -0.000147581  -0.0161352 -0.154123 -8.69036e-05  -0.0217667 -0.153915 -0.0001899  -0.0228546 -0.172011 -9.59635e-05  -0.0229347 -0.172135 -4.31538e-05  -0.0168033 -0.166161 -5.05447e-05  -0.01718 -0.172294 -5.72205e-06  -0.0168688 -0.166315 -1.10865e-05  -0.0224833 -0.165941 -0.000138283  -0.0228965 -0.172064 -6.91414e-05  -0.0225725 -0.166089 -7.51019e-05  -0.0168395 -0.166241 -3.0756e-05  -0.0225313 -0.166017 -0.000106215  -0.02356 -0.184094 -2.37226e-05  -0.0236244 -0.184177 1.13249e-05  -0.0174837 -0.178279 2.74181e-06  -0.0178387 -0.184366 3.68357e-05  -0.0175364 -0.178388 2.98023e-05  -0.0232115 -0.178047 -5.84126e-05  -0.0235937 -0.184125 -5.60284e-06  -0.0232835 -0.178149 -1.45435e-05  -0.0175128 -0.178335 1.64509e-05  -0.0232503 -0.178099 -3.61204e-05  -0.0242233 -0.196111 3.46899e-05  -0.0242748 -0.196162 5.60284e-05  -0.0181336 -0.190343 4.64916e-05  -0.0184681 -0.196376 7.1764e-05  -0.0181749 -0.190414 6.35386e-05  -0.0238957 -0.190099 6.91414e-06  -0.02425 -0.196125 4.56572e-05  -0.0239532 -0.190166 3.48091e-05  -0.0181568 -0.190378 5.50747e-05  -0.0239265 -0.190132 2.11e-05  -0.0248487 -0.208047 8.23736e-05  -0.0248907 -0.208074 9.2268e-05  -0.0187542 -0.202331 8.18968e-05  -0.0190713 -0.208305 0.000100136  -0.0187869 -0.202372 9.09567e-05  -0.0245399 -0.202078 5.93662e-05  -0.0248702 -0.208048 8.74996e-05  -0.024586 -0.202116 7.48634e-05  -0.0187728 -0.20235 8.64267e-05  -0.024564 -0.202095 6.73532e-05  -0.0254388 -0.219884 0.000126481  -0.0254781 -0.219894 0.000125289  -0.0193474 -0.214227 0.000112295  -0.0196512 -0.220137 0.000127554  -0.019376 -0.214245 0.000114679  -0.025147 -0.213967 0.000103354  -0.0254593 -0.219875 0.000125527  -0.0251863 -0.213984 0.0001086  -0.0193636 -0.214233 0.000113249  -0.0251679 -0.213972 0.000106096  -0.0260029 -0.2316 0.000178337  -0.0260475 -0.231606 0.000159025  -0.0199165 -0.22601 0.00014472  -0.0202131 -0.231836 0.000157833  -0.0199451 -0.226012 0.000138521  -0.0257218 -0.22575 0.000149488  -0.0260279 -0.231585 0.000167727  -0.0257626 -0.225753 0.000142217  -0.0199337 -0.226004 0.000141382  -0.0257447 -0.225745 0.000145674  0 0 0  -0.000350535 -0.000202715 -0.000671864  -0.000214733 -0.00112849 -0.000441909  0 0 0  2.59504e-05 0.000226259 2.88486e-05  5.87553e-05 -0.000730306 2.5034e-05  1.66595e-05 -0.000317335 8.70228e-06  0 0 0  -0.00016126 0.000229508 -0.000434995  -0.000247382 -0.000730902 -0.000556588  -7.24904e-05 -0.000319093 -0.000253439  0 0 0  1.85966e-05 -0.000136554 1.57356e-05  -8.34577e-05 -0.000138402 -0.000319958  -0.000700027 -0.00270155 -0.000896811  -0.000634208 -0.00408649 -0.000663996  0.000124261 -0.00119105 4.05312e-05  0.000150293 -0.00347975 2.64645e-05  9.11653e-05 -0.00237781 1.43051e-05  -0.000519484 -0.0011797 -0.000802875  -0.000658661 -0.00347883 -0.000789642  -0.00040774 -0.00238314 -0.000575304  0.0001055 -0.00187188 2.47955e-05  -0.000441104 -0.00187281 -0.000693202  -0.00112399 -0.00702456 -0.000965595  -0.00114512 -0.00861099 -0.000740886  0.000220478 -0.0046595 4.26769e-05  0.000216067 -0.00790754 2.93255e-05  0.000165045 -0.00615898 1.62125e-05  -0.000905395 -0.00465226 -0.000942707  -0.00113806 -0.00790092 -0.000861049  -0.000882089 -0.00616089 -0.000713348  0.000188768 -0.00550184 2.64645e-05  -0.000891119 -0.00549781 -0.000836849  -0.00160718 -0.0127723 -0.000945568  -0.00169703 -0.0144029 -0.000732303  0.000273943 -0.00974825 4.81606e-05  0.00022918 -0.013681 3.65973e-05  0.000197977 -0.0113635 2.11e-05  -0.00135735 -0.00973067 -0.000965834  -0.0016624 -0.0136609 -0.000844002  -0.00141695 -0.0113541 -0.000743151  0.000230402 -0.0106449 3.18289e-05  -0.00139549 -0.01063 -0.000861168  -0.00214082 -0.0196734 -0.000880122  -0.00227773 -0.0212567 -0.000678539  0.000263393 -0.0161109 5.59092e-05  0.000175774 -0.0205624 4.73261e-05  0.000171483 -0.0177202 3.11136e-05  -0.00186741 -0.0160806 -0.000919223  -0.00222105 -0.0205264 -0.000782371  -0.00198406 -0.0176955 -0.000709414  0.000211298 -0.0169936 4.13656e-05  -0.00193751 -0.0169649 -0.000819325  -0.00272143 -0.0275559 -0.000790715  -0.00288165 -0.0290337 -0.00060451  0.00017935 -0.0235357 6.60419e-05  5.14984e-05 -0.0283952 5.91278e-05  7.82013e-05 -0.0250681 4.29153e-05  -0.00242513 -0.0234912 -0.000837564  -0.00281215 -0.0283427 -0.000699282  -0.00257617 -0.025026 -0.000642657  0.000122786 -0.0243668 5.30481e-05  -0.00251275 -0.0243225 -0.000743032  -0.00333893 -0.0362679 -0.000694394  -0.00350821 -0.0376162 -0.000524879  2.08616e-05 -0.0318654 7.65324e-05  -0.000142992 -0.0370518 7.08103e-05  -8.35657e-05 -0.0332799 5.54323e-05  -0.00302511 -0.0318038 -0.000743151  -0.00343281 -0.0369807 -0.000610232  -0.00319189 -0.0332189 -0.000564933  -3.70741e-05 -0.0326265 6.49691e-05  -0.00311893 -0.0325647 -0.000655532  -0.00398719 -0.0456938 -0.000599623  -0.00415516 -0.0469017 -0.000447154  -0.000208616 -0.0409663 8.65459e-05  -0.000403583 -0.0464185 8.14199e-05  -0.000311434 -0.0422465 6.71148e-05  -0.00365901 -0.0408866 -0.000646353  -0.00407887 -0.0463279 -0.000523686  -0.00382853 -0.0421654 -0.000485539  -0.000265241 -0.0416513 7.62939e-05  -0.00375289 -0.0415704 -0.000566721  -0.00465822 -0.0557239 -0.000507951  -0.00481868 -0.0567923 -0.00037384  -0.000503063 -0.050726 9.54866e-05  -0.000724554 -0.0563931 9.07183e-05  -0.000601411 -0.0518669 7.76052e-05  -0.00431955 -0.0506268 -0.000553012  -0.00474489 -0.056282 -0.000440598  -0.00448465 -0.0517649 -0.000409842  -0.000556827 -0.0513341 8.61883e-05  -0.00440967 -0.0512331 -0.000481725  -0.00534523 -0.0662666 -0.000423551  -0.00549424 -0.0672006 -0.000306368  -0.000855923 -0.0610436 0.000103474  -0.00109887 -0.0668833 9.85861e-05  -0.00094676 -0.062048 8.65459e-05  -0.00499916 -0.0609244 -0.000464916  -0.00542521 -0.0667518 -0.00036478  -0.00515413 -0.061925 -0.000339389  -0.000905275 -0.0615776 9.47714e-05  -0.00508344 -0.0614561 -0.000401974  -0.00604177 -0.077235 -0.000344634  -0.00617754 -0.0780427 -0.000244737  -0.00125885 -0.0718294 0.00011003  -0.00151968 -0.0778041 0.000105143  -0.00134122 -0.0727035 9.42945e-05  -0.00569201 -0.0716899 -0.000383258  -0.00611424 -0.0776527 -0.000294328  -0.00583458 -0.0725599 -0.000274777  -0.00130379 -0.0722931 0.000102043  -0.00576878 -0.0721513 -0.000328779  -0.00674284 -0.0885547 -0.000274062  -0.00686467 -0.0892445 -0.000188828  -0.00170565 -0.0830018 0.000115156  -0.00198019 -0.0890794 0.00011003  -0.00177836 -0.0837542 0.000100374  -0.00639093 -0.0828433 -0.000308633  -0.00680745 -0.0889091 -0.000231147  -0.00651979 -0.083591 -0.000216126  -0.00174522 -0.0834003 0.000107765  -0.00646043 -0.0832391 -0.000262141  -0.00744379 -0.100153 -0.000209093  -0.00755143 -0.100735 -0.000138521  -0.00218844 -0.0944873 0.00011909  -0.00247347 -0.100638 0.000113845  -0.00225163 -0.095127 0.000105262  -0.0070926 -0.0943107 -0.000240564  -0.00750053 -0.100451 -0.00017345  -0.00720751 -0.0949455 -0.000163078  -0.0022229 -0.0948255 0.000112176  -0.00715411 -0.0946463 -0.000201583  -0.00814056 -0.11197 -0.000151515  -0.00823462 -0.112453 -9.32217e-05  -0.00270069 -0.106219 0.000121951  -0.00299323 -0.112417 0.000116825  -0.00275481 -0.106755 0.000109196  -0.00779176 -0.106026 -0.000179529  -0.00819027 -0.112214 -0.00012219  -0.00789249 -0.106557 -0.000115156  -0.00273013 -0.106502 0.000115633  -0.007846 -0.106306 -0.000147104  -0.00883031 -0.123944 -9.89437e-05  -0.00891125 -0.124339 -5.25713e-05  -0.00323653 -0.118136 0.000123978  -0.00353384 -0.124358 0.000119328  -0.00328135 -0.118579 0.000112295  -0.00848579 -0.117928 -0.000124454  -0.00887275 -0.124141 -7.52211e-05  -0.00857341 -0.118366 -7.22408e-05  -0.00326121 -0.118369 0.000118136  -0.0085324 -0.118159 -9.81092e-05  -0.00950956 -0.136026 -5.30481e-05  -0.00957775 -0.136342 -1.66893e-05  -0.00378942 -0.130183 0.000125527  -0.00408888 -0.13641 0.000121117  -0.00382602 -0.130542 0.000114799  -0.00917029 -0.129962 -7.53403e-05  -0.00954521 -0.136181 -3.45707e-05  -0.00924456 -0.130316 -3.40939e-05  -0.00380969 -0.130372 0.000120163  -0.00921023 -0.130148 -5.44786e-05  -0.0101762 -0.148167 -1.22786e-05  -0.0102327 -0.148414 1.50204e-05  -0.004354 -0.142312 0.0001266  -0.00465441 -0.148525 0.000122428  -0.00438333 -0.142596 0.000117064  -0.00984359 -0.14208 -3.20673e-05  -0.0102053 -0.148286 1.78814e-06  -0.00990605 -0.142359 -3.57628e-07  -0.00437069 -0.142461 0.00012207  -0.00987673 -0.142226 -1.60933e-05  -0.0108285 -0.16033 2.19345e-05  -0.0108747 -0.160516 4.20809e-05  -0.00492668 -0.154478 0.000127196  -0.00522566 -0.160663 0.000123501  -0.00494909 -0.154697 0.000118852  -0.0105028 -0.154236 5.72205e-06  -0.0108521 -0.160416 3.23057e-05  -0.0105541 -0.154451 2.92063e-05  -0.00493908 -0.154592 0.000123024  -0.0105305 -0.154348 1.75238e-05  -0.0114658 -0.172476 5.19753e-05  -0.0115025 -0.172611 6.53267e-05  -0.0055027 -0.166644 0.000127435  -0.00579929 -0.172789 0.000124335  -0.00551963 -0.166807 0.000120401  -0.011148 -0.166395 3.73125e-05  -0.0114841 -0.172535 5.88894e-05  -0.0111895 -0.166554 5.4121e-05  -0.00551224 -0.166728 0.000123858  -0.0111699 -0.166477 4.57764e-05  -0.0120869 -0.18458 7.56979e-05  -0.0121152 -0.184672 8.46386e-05  -0.00607848 -0.178778 0.000127792  -0.00637221 -0.184875 0.000124931  -0.00609088 -0.178894 0.000121832  -0.0117769 -0.178523 6.42538e-05  -0.0121009 -0.184616 8.02279e-05  -0.0118093 -0.178636 7.54595e-05  -0.00608563 -0.178837 0.000124931  -0.0117943 -0.17858 6.98566e-05  -0.0126903 -0.196614 9.60827e-05  -0.0127125 -0.196673 0.000100493  -0.00665188 -0.190855 0.000128031  -0.00694108 -0.196896 0.000125885  -0.00666022 -0.190932 0.000123024  -0.0123899 -0.190594 8.64267e-05  -0.012701 -0.196633 9.85861e-05  -0.0124149 -0.190669 9.29832e-05  -0.00665712 -0.190893 0.000125647  -0.012403 -0.190631 8.96454e-05  -0.0132766 -0.208564 0.000112414  -0.0132942 -0.208596 0.000114322  -0.00721979 -0.202853 0.000128269  -0.00750518 -0.208833 0.000126839  -0.00722504 -0.202899 0.000124812  -0.0129845 -0.202589 0.000104427  -0.0132852 -0.208567 0.000113249  -0.0130043 -0.202633 0.000107408  -0.00722384 -0.202875 0.000126481  -0.0129948 -0.20261 0.000105858  -0.0138469 -0.220409 0.000128984  -0.0138624 -0.22042 0.000127316  -0.00778222 -0.214755 0.000128746  -0.00806236 -0.220667 0.000128269  -0.00778556 -0.214777 0.000126481  -0.0135627 -0.214489 0.000120163  -0.0138538 -0.2204 0.000128031  -0.0135791 -0.214509 0.00012064  -0.00778461 -0.214763 0.000127673  -0.0135713 -0.214496 0.000120282  -0.0144005 -0.23211 0.000148177  -0.0144174 -0.232117 0.000141144  -0.00833535 -0.226537 0.00012958  -0.00860834 -0.23236 0.000130296  -0.00833702 -0.226543 0.000128746  -0.0141239 -0.226271 0.000137329  -0.0144083 -0.232095 0.000144243  -0.0141399 -0.226275 0.000133991  -0.00833678 -0.226534 0.000129223  -0.0141325 -0.226267 0.000135422  0 0 0  0.000491977 -0.000283957 0.000756383  0.000314087 -0.00119919 0.000467181  0 0 0  0.000390902 9.34005e-05 0.000956893  0.000678614 -0.00095731 0.0011822  0.000195153 -0.000450134 0.000529766  0 0 0  0.000210889 0.00018239 0.000492215  0.000364721 -0.000807106 0.000605226  0.00010477 -0.000358582 0.000270724  0 0 0  0.000221804 -0.000267208 0.000686526  0.000120588 -0.000180721 0.000351429  0.0010483 -0.00282836 0.000982881  0.000894278 -0.00419992 0.000692606  0.00141729 -0.00148779 0.00173557  0.00179479 -0.00383627 0.00164986  0.00110561 -0.00269055 0.00119007  0.000766069 -0.00128847 0.000882149  0.000957966 -0.00359899 0.000840068  0.000588477 -0.00247848 0.000602484  0.00121163 -0.00218874 0.00146782  0.000650883 -0.00197411 0.000740528  0.0016273 -0.00717747 0.00105727  0.00151759 -0.00875193 0.000775337  0.00248665 -0.00504881 0.00201523  0.00294599 -0.0083161 0.00180471  0.00228721 -0.00655496 0.00147641  0.00134265 -0.00479329 0.00102663  0.00156811 -0.00804776 0.000917435  0.0012092 -0.00628877 0.000743151  0.00237164 -0.00589103 0.0017513  0.00126657 -0.0056327 0.000887632  0.00215656 -0.0129443 0.00104928  0.00207698 -0.0145662 0.000782013  0.00355369 -0.0101629 0.00206947  0.0040347 -0.0141028 0.00179291  0.00345287 -0.0117851 0.00154543  0.00190088 -0.0098933 0.00106108  0.00211716 -0.0138286 0.000915408  0.00180838 -0.0115062 0.000784397  0.00350401 -0.0110595 0.00181139  0.00185335 -0.0107873 0.000923395  0.00259572 -0.0198644 0.00100219  0.00253761 -0.0214428 0.000750661  0.00454384 -0.0165307 0.00199914  0.00498819 -0.0209851 0.00170159  0.00450289 -0.0181454 0.00150597  0.00238913 -0.0162618 0.00103021  0.00256807 -0.0207153 0.000875711  0.00232148 -0.0178699 0.000769496  0.00452971 -0.0174134 0.00175369  0.00235581 -0.0171431 0.000900269  0.00293213 -0.0277683 0.00093317  0.00288481 -0.0292453 0.000701666  0.00540489 -0.0239585 0.00186789  0.00579381 -0.0288216 0.00157237  0.00540227 -0.0254949 0.00140977  0.00277787 -0.0236921 0.00096941  0.00290972 -0.028555 0.000816822  0.0027256 -0.0252244 0.000727534  0.00540996 -0.02479 0.00163949  0.00275302 -0.0245226 0.000848055  0.00315958 -0.0365055 0.000857949  0.00311989 -0.0378565 0.000647068  0.00612611 -0.0322921 0.00171256  0.00644881 -0.037486 0.00143111  0.00614351 -0.0337124 0.00129294  0.00306004 -0.0320283 0.000896215  0.00314069 -0.0372201 0.000751734  0.00301695 -0.0334444 0.000674963  0.00614011 -0.0330561 0.00150239  0.00303888 -0.0327902 0.000784993  0.00328171 -0.0459597 0.000782013  0.0032469 -0.047173 0.000591993  0.00670296 -0.0414019 0.00155079  0.0069567 -0.0468634 0.00128996  0.00673068 -0.0426886 0.00117123  0.00323415 -0.0411379 0.000820041  0.00326526 -0.0465969 0.000686407  0.00319678 -0.0424208 0.000619531  0.0067209 -0.0420904 0.0013603  0.00321609 -0.0418243 0.000718951  0.00330329 -0.0560204 0.000707984  0.00327361 -0.0570961 0.000538468  0.00713766 -0.051173 0.00139201  0.00732434 -0.0568516 0.00115359  0.00717056 -0.0523214 0.00105202  0.00330555 -0.0509079 0.00074482  0.00328946 -0.0565828 0.000622511  0.00327337 -0.0520524 0.000564933  0.00715756 -0.0517856 0.00122118  0.00328946 -0.051518 0.000654221  0.00323236 -0.0665946 0.00063765  0.00320768 -0.0675368 0.000487566  0.00743783 -0.0615044 0.00124002  0.00756073 -0.0673557 0.00102496  0.00747335 -0.0625166 0.000938773  0.00327969 -0.0612366 0.00067246  0.00322104 -0.0670846 0.00056231  0.00325227 -0.062245 0.000512719  0.00745857 -0.0620431 0.00108862  0.00326645 -0.0617728 0.000591993  0.00307739 -0.0775943 0.000570774  0.00305784 -0.0784106 0.000439882  0.00761163 -0.0723046 0.00109649  0.00767541 -0.0782915 0.000904322  0.00764883 -0.0731867 0.000832438  0.00316572 -0.0720337 0.000603914  0.00306869 -0.0780168 0.000504851  0.00314367 -0.0729122 0.000463367  0.00763249 -0.072773 0.000963807  0.00315499 -0.0724999 0.000533104  0.00284743 -0.0889436 0.000508785  0.00283313 -0.0896423 0.000394821  0.00766993 -0.0834917 0.000962734  0.0076803 -0.0895803 0.000792146  0.00770831 -0.0842515 0.000733614  0.00297213 -0.0832175 0.000539541  0.00284159 -0.0893029 0.000451803  0.00295484 -0.083974 0.000416994  0.00769103 -0.0838947 0.000847578  0.00296402 -0.0836184 0.00047791  0.00255191 -0.10057 0.000450253  0.00254285 -0.10116 0.000353217  0.00762367 -0.0949909 0.000838518  0.00758672 -0.101152 0.000688672  0.00766289 -0.0956376 0.000642061  0.00270855 -0.0947136 0.000479221  0.00254893 -0.100872 0.000401378  0.00269687 -0.0953574 0.000373721  0.00764525 -0.0953333 0.000739694  0.00270307 -0.0950541 0.000426173  0.00219989 -0.112411 0.000397563  0.00219536 -0.112903 0.000314951  0.00748515 -0.106735 0.000724196  0.00740612 -0.112942 0.000594139  0.00752485 -0.107278 0.000558019  0.00238347 -0.106455 0.000423551  0.00219917 -0.11266 0.000356197  0.00237632 -0.106995 0.000333786  0.00750673 -0.107022 0.000640869  0.00238061 -0.10674 0.00037837  0.00179994 -0.124407 0.000348449  0.00179958 -0.12481 0.000280142  0.00726521 -0.118663 0.000620008  0.00714946 -0.124893 0.000508428  0.00730491 -0.119111 0.000481725  0.00200653 -0.118381 0.000372767  0.00180137 -0.124609 0.000314116  0.00200415 -0.118827 0.000297189  0.00728655 -0.118899 0.000550747  0.00200593 -0.118616 0.000334859  0.00136042 -0.136508 0.000305295  0.00136328 -0.136831 0.000248909  0.00697529 -0.130719 0.000526071  0.00682807 -0.136952 0.000431895  0.00701439 -0.131082 0.000412703  0.00158572 -0.130435 0.000326753  0.00136375 -0.136667 0.000277281  0.00158679 -0.130797 0.000264168  0.00699639 -0.13091 0.000469089  0.00158715 -0.130625 0.000295281  0.000889063 -0.148665 0.000266075  0.000894785 -0.148918 0.000221133  0.00662589 -0.142855 0.000442624  0.00645208 -0.149072 0.000363708  0.0066638 -0.143142 0.000351548  0.00112939 -0.14257 0.000285506  0.000893831 -0.148787 0.000243425  0.00113392 -0.142856 0.000234604  0.00664639 -0.143005 0.000396967  0.00113249 -0.14272 0.000259995  0.000392675 -0.16084 0.000232577  0.000399828 -0.161032 0.000197053  0.00622821 -0.155025 0.00036943  0.00603151 -0.161214 0.000304818  0.00626373 -0.155247 0.000298023  0.000644922 -0.154741 0.000249028  0.000398397 -0.160929 0.000214934  0.000651121 -0.154962 0.000208735  0.00624704 -0.155141 0.000333548  0.000648737 -0.154856 0.000228763  -0.000122547 -0.172997 0.00020349  -0.000114202 -0.173137 0.000177145  0.00578976 -0.167195 0.000306249  0.00557423 -0.173342 0.000255108  0.00582218 -0.167359 0.000252247  0.00013876 -0.166911 0.000217557  -0.000116348 -0.173058 0.000190258  0.000146389 -0.167075 0.000186801  0.00580716 -0.16728 0.000279069  0.00014329 -0.166996 0.000202179  -0.000650883 -0.185108 0.000179768  -0.000642538 -0.185204 0.000160456  0.00531983 -0.17933 0.00025332  0.00508857 -0.185428 0.000213742  0.00534868 -0.179447 0.000214219  -0.000384092 -0.179047 0.000191331  -0.000644922 -0.185146 0.000170231  -0.000375986 -0.179164 0.000168443  0.00533509 -0.17939 0.000233889  -0.000379086 -0.179107 0.000179768  -0.00118852 -0.197147 0.000159979  -0.00118017 -0.197209 0.000147223  0.0048244 -0.191406 0.000209928  0.00458121 -0.197447 0.000180483  0.00484991 -0.191484 0.000183105  -0.000917673 -0.191125 0.000169516  -0.00118303 -0.197168 0.000153422  -0.000909328 -0.191204 0.000153542  0.00483751 -0.191445 0.000196338  -0.000912905 -0.191164 0.000161409  -0.00173283 -0.2091 0.000144601  -0.00172353 -0.209135 0.000137091  0.00431013 -0.203402 0.000174999  0.00405741 -0.209382 0.00015378  0.00433278 -0.203449 0.000158787  -0.00145912 -0.203124 0.000152111  -0.00172687 -0.209105 0.000140786  -0.00145078 -0.203171 0.000142097  0.00432086 -0.203425 0.000166774  -0.00145411 -0.203146 0.000147104  -0.00227904 -0.220947 0.000129461  -0.00226855 -0.22096 0.000128031  0.00377989 -0.215302 0.000145078  0.00352359 -0.221215 0.000128984  0.00380206 -0.215325 0.000138402  -0.00200462 -0.215026 0.00013721  -0.00227165 -0.220939 0.000128746  -0.00199509 -0.215049 0.000132322  0.00379133 -0.215311 0.000141859  -0.00199914 -0.215035 0.000134826  -0.00281882 -0.232648 0.00011313  -0.00280643 -0.232657 0.000118971  0.00324225 -0.227086 0.000114799  0.00299168 -0.232915 0.000102997  0.00326729 -0.227094 0.000118852  -0.00254965 -0.226809 0.000122428  -0.00281 -0.232634 0.000116587  -0.0025382 -0.226815 0.000123501  0.00325632 -0.227084 0.000117302  -0.00254226 -0.226806 0.000123143  0 0 0  0.00136419 -0.000693917 0.00216269  0.000874698 -0.00160813 0.00135732  0 0 0  0.000813484 -0.000260293 0.00185287  0.00137474 -0.00156146 0.00229812  0.000412241 -0.00080663 0.00102377  0 0 0  0.000593103 -4.42863e-05 0.00141621  0.00102167 -0.00120693 0.00174224  0.000293486 -0.000584364 0.000784039  0 0 0  0.000455618 -0.000611842 0.00131226  0.000334308 -0.000406981 0.00101674  0.00289854 -0.00342691 0.00283563  0.00251094 -0.00482315 0.0020417  0.00288919 -0.00226086 0.00341237  0.0036042 -0.0047214 0.00326371  0.00224401 -0.00349313 0.00234091  0.00212517 -0.00182152 0.00256634  0.0026643 -0.00421345 0.00244856  0.00164919 -0.0030238 0.0017699  0.00246663 -0.00295752 0.00288427  0.00181463 -0.00250906 0.00217187  0.00448382 -0.00782913 0.00308132  0.00429717 -0.00944227 0.00228763  0.00497723 -0.0059461 0.00398409  0.00591412 -0.00925642 0.00358558  0.00461936 -0.00751662 0.00294268  0.00369084 -0.00543332 0.00298655  0.00438777 -0.00871873 0.00269258  0.003405 -0.00696152 0.00219762  0.00476697 -0.00682139 0.00347936  0.00352836 -0.00628006 0.00260615  0.00603437 -0.0136051 0.00304353  0.00596952 -0.0152529 0.00228846  0.00708798 -0.0110714 0.0041002  0.00808704 -0.0150207 0.00355017  0.00696108 -0.0127501 0.00307059  0.00527212 -0.0105556 0.00308216  0.00601476 -0.0145003 0.00266969  0.00515366 -0.0121996 0.00230849  0.00702688 -0.0119947 0.00359595  0.0052202 -0.0114628 0.00269997  0.00744528 -0.0205119 0.00287819  0.00746399 -0.0221085 0.00217342  0.00906932 -0.0174147 0.00394356  0.0100409 -0.0218688 0.00335348  0.0090816 -0.0190701 0.00297856  0.0067603 -0.0169157 0.00297046  0.0074684 -0.0213701 0.00252748  0.0067423 -0.0185464 0.00224197  0.00909257 -0.0183164 0.00346482  0.00676447 -0.0178054 0.00260949  0.00869024 -0.0284019 0.00265348  0.00875336 -0.0298924 0.00200307  0.0108667 -0.0248127 0.00367057  0.0117651 -0.029673 0.00308359  0.0109608 -0.0263776 0.00277436  0.00808984 -0.0243323 0.00276959  0.00873512 -0.0291946 0.00232804  0.0081346 -0.0258799 0.00209236  0.0109317 -0.0256582 0.00322354  0.00812554 -0.0251694 0.00243139  0.0097571 -0.037129 0.00240803  0.00984216 -0.0384907 0.00181675  0.0124572 -0.033119 0.00335002  0.0132577 -0.0383085 0.00279152  0.012591 -0.0345591 0.00252998  0.00924718 -0.0326563 0.00253177  0.00981069 -0.0378492 0.00211155  0.00932294 -0.0340844 0.00191128  0.0125406 -0.0338931 0.00293922  0.00929689 -0.0334242 0.00222075  0.0106421 -0.0465758 0.00216186  0.0107365 -0.0477988 0.00163019  0.0138275 -0.0422043 0.00301707  0.014522 -0.0476618 0.00249922  0.0139801 -0.0435055 0.00227594  0.0102226 -0.0417578 0.00228453  0.0106989 -0.0472187 0.00189459  0.0103137 -0.0430505 0.00172329  0.0139178 -0.042901 0.0026449  0.0102779 -0.0424497 0.0020026  0.0113499 -0.0566325 0.00192368  0.0114468 -0.0577167 0.0014509  0.0149803 -0.0519533 0.0026902  0.0155656 -0.0576274 0.00221765  0.0151374 -0.053113 0.00202811  0.0110188 -0.051522 0.00204194  0.011407 -0.0572003 0.00168586  0.0111146 -0.0526753 0.00153959  0.0150712 -0.0525727 0.00235736  0.0110751 -0.0521374 0.00178921  0.0118886 -0.0672039 0.00169826  0.0119848 -0.068154 0.00128222  0.0159192 -0.0622647 0.00237775  0.0163999 -0.068112 0.00195241  0.0160754 -0.063286 0.00179279  0.0116405 -0.0618476 0.00180984  0.0119445 -0.0676987 0.00148869  0.0117377 -0.0628639 0.0013653  0.0160081 -0.0628091 0.0020833  0.0116963 -0.0623885 0.00158608  0.0122694 -0.0782019 0.00148666  0.0123633 -0.0790254 0.00112462  0.0166578 -0.0730463 0.00208366  0.0170383 -0.0790285 0.00170374  0.016809 -0.0739359 0.00157225  0.0120989 -0.0726426 0.00159121  0.0123235 -0.0786291 0.00130463  0.0121938 -0.0735282 0.00120223  0.0167429 -0.0735198 0.00182629  0.0121534 -0.073113 0.00139523  0.0125051 -0.0895498 0.00129056  0.0125959 -0.0902547 0.000978827  0.0172076 -0.0842162 0.00180948  0.0174961 -0.0903001 0.00147367  0.0173527 -0.0849822 0.00136721  0.0124053 -0.0838249 0.00138736  0.0125574 -0.0899131 0.00113356  0.012498 -0.0845878 0.00105047  0.0172888 -0.0846232 0.00158679  0.0124578 -0.0842296 0.0012176  0.0126097 -0.101175 0.00110948  0.0126971 -0.101771 0.000844717  0.0175858 -0.0956993 0.00155604  0.0177896 -0.101855 0.00126183  0.0177232 -0.0963504 0.00117874  0.0125741 -0.0953197 0.00119877  0.0126599 -0.10148 0.000976324  0.0126629 -0.0959687 0.000910401  0.0176626 -0.0960446 0.00136614  0.0126244 -0.0956634 0.00105345  0.0125973 -0.113014 0.000944138  0.0126806 -0.11351 0.000722289  0.0178077 -0.107428 0.00132346  0.0179355 -0.113629 0.00106883  0.0179377 -0.107973 0.00100565  0.0126183 -0.107059 0.00102532  0.0126448 -0.113265 0.000832438  0.0127038 -0.107604 0.000782013  0.0178801 -0.107717 0.00116348  0.0126661 -0.107347 0.000902772  0.0124815 -0.125008 0.000794291  0.0125602 -0.125413 0.000611424  0.0178913 -0.11934 0.0011121  0.0179502 -0.125563 0.000893831  0.0180128 -0.11979 0.000848651  0.0125521 -0.118983 0.000867844  0.0125265 -0.125211 0.000702381  0.0126332 -0.119432 0.000665665  0.0179584 -0.119578 0.000979543  0.012598 -0.11922 0.00076592  0.0122764 -0.137106 0.0006603  0.0123498 -0.13743 0.000512719  0.0178518 -0.131382 0.000921726  0.0178504 -0.137607 0.000737786  0.017964 -0.131744 0.000707388  0.0123904 -0.131035 0.000725865  0.0123184 -0.137265 0.000586033  0.0124664 -0.131398 0.00056076  0.0179137 -0.131573 0.000813961  0.0124331 -0.131226 0.000642538  0.0119948 -0.149259 0.000541925  0.0120623 -0.149512 0.000425458  0.0177059 -0.143503 0.00075233  0.0176516 -0.149712 0.000599742  0.0178084 -0.143788 0.000582099  0.0121455 -0.143166 0.000599623  0.0120335 -0.149381 0.000483513  0.0122159 -0.143453 0.000467777  0.0177624 -0.143652 0.000666738  0.0121849 -0.143316 0.000532985  0.0116491 -0.161429 0.000439286  0.0117099 -0.16162 0.000349998  0.0174696 -0.15566 0.00060463  0.0173688 -0.161839 0.000480771  0.0175614 -0.155878 0.000472903  0.0118306 -0.155332 0.000489354  0.0116844 -0.161518 0.000394344  0.0118949 -0.155552 0.000386357  0.01752 -0.155774 0.000538349  0.0118661 -0.155447 0.000437379  0.0112512 -0.17358 0.000352383  0.0113044 -0.173718 0.000286341  0.0171568 -0.167816 0.00047791  0.0170162 -0.173953 0.000379801  0.0172372 -0.167975 0.000379324  0.0114577 -0.167497 0.000394225  0.011282 -0.173641 0.000319242  0.0115144 -0.16766 0.000316858  0.0172005 -0.167898 0.000428319  0.0114894 -0.167581 0.000355124  0.0108109 -0.185684 0.000280261  0.0108557 -0.185779 0.000234008  0.0167811 -0.179938 0.000371933  0.0166068 -0.186025 0.000297308  0.0168495 -0.180049 0.000301838  0.0110373 -0.179628 0.000314832  0.0108366 -0.185721 0.000256896  0.0110862 -0.179742 0.000258923  0.0168183 -0.179994 0.000336647  0.0110641 -0.179686 0.000286341  0.010335 -0.197716 0.000221848  0.0103736 -0.197777 0.000192404  0.0163536 -0.191999 0.000286222  0.0161519 -0.198031 0.000231266  0.0164113 -0.192073 0.000239491  0.0105779 -0.191698 0.000249863  0.0103571 -0.197735 0.000207067  0.0106192 -0.191774 0.000212193  0.0163846 -0.192036 0.000262856  0.0106008 -0.191736 0.00023067  0.00983191 -0.209661 0.00017488  0.00986624 -0.209695 0.000159264  0.0158861 -0.203981 0.000218153  0.0156615 -0.209954 0.000179172  0.015934 -0.204025 0.000190377  0.0100877 -0.203688 0.000197649  0.00985098 -0.209665 0.000166893  0.0101235 -0.203735 0.000175238  0.0159104 -0.204002 0.000204086  0.010107 -0.20371 0.000186205  0.00930715 -0.221501 0.000131607  0.00934148 -0.221518 0.000129819  0.0153832 -0.215868 0.000162601  0.0151453 -0.22178 0.000133514  0.0154264 -0.215892 0.0001508  0.00957298 -0.215583 0.000154257  0.00932741 -0.221497 0.000131011  0.00960636 -0.215607 0.000144601  0.0154061 -0.215878 0.000156879  0.0095911 -0.215592 0.00014925  0.00877476 -0.233216 8.2612e-05  0.00881505 -0.23323 0.000101328  0.0148573 -0.227651 0.000107646  0.014622 -0.233502 8.63075e-05  0.0149031 -0.227664 0.000114322  0.00904131 -0.227366 0.000109911  0.00880051 -0.233206 9.31025e-05  0.00907826 -0.227377 0.000115514  0.0148826 -0.227654 0.00011158  0.00906301 -0.227366 0.000112772  0 0 0  0.00234793 -0.00150007 0.00356174  0.00154492 -0.00247675 0.00224149  0 0 0  0.00121775 -0.000998378 0.0028019  0.00218557 -0.00271666 0.00348866  0.000657767 -0.00150412 0.00155926  0 0 0  0.000998117 -0.00055939 0.0022974  0.00177318 -0.00205249 0.00286973  0.000510909 -0.00110823 0.00128102  0 0 0  0.000709593 -0.00128204 0.00202966  0.000575982 -0.000908971 0.00165474  0.00503424 -0.00455862 0.00472677  0.00441241 -0.00605458 0.00340378  0.0045853 -0.00363684 0.00514424  0.00586697 -0.00627309 0.00493133  0.00371718 -0.00500011 0.00357234  0.00368802 -0.00283229 0.0042367  0.00464901 -0.00539458 0.00408435  0.00290307 -0.0041337 0.00293982  0.00396493 -0.00439298 0.00439119  0.00316544 -0.00356358 0.00358582  0.00771347 -0.00901264 0.00512779  0.00745445 -0.0107055 0.00381446  0.00792226 -0.00739384 0.00604475  0.00940448 -0.0107435 0.0054009  0.00747678 -0.00910872 0.00444448  0.00638601 -0.0065968 0.00499356  0.00757891 -0.0099346 0.00448644  0.00594985 -0.00822878 0.00366735  0.00767186 -0.00834113 0.00526524  0.00613263 -0.0075109 0.00435472  0.0102884 -0.014736 0.00505495  0.0102484 -0.0164557 0.0038029  0.0111138 -0.0124618 0.00618052  0.01266 -0.0164217 0.00533485  0.0109981 -0.0142465 0.00462103  0.00901955 -0.0117077 0.00513458  0.0102933 -0.0156628 0.00443482  0.00888529 -0.0134337 0.00384283  0.01107 -0.013434 0.00541389  0.00896788 -0.0126531 0.00449836  0.0126636 -0.0216019 0.00476825  0.012762 -0.023244 0.0036  0.0140995 -0.0187503 0.00592768  0.0156 -0.0231954 0.00502789  0.0141741 -0.0204734 0.0044682  0.0115039 -0.018027 0.00492871  0.0127397 -0.0224782 0.00418651  0.0115435 -0.0197146 0.00371969  0.0141693 -0.019681 0.00520408  0.0115497 -0.0189435 0.00433028  0.0148063 -0.0294458 0.00438368  0.014975 -0.0309686 0.00331008  0.016828 -0.0260931 0.00550342  0.0182254 -0.0309373 0.00461841  0.01701 -0.027697 0.00415695  0.0137671 -0.0253996 0.00458169  0.0149166 -0.0302553 0.003847  0.0139053 -0.0269855 0.00346196  0.0169518 -0.0269545 0.00483489  0.013862 -0.0262545 0.00402355  0.0166965 -0.0381322 0.0039674  0.0168989 -0.0395147 0.00299215  0.0192688 -0.0343434 0.0050112  0.0205354 -0.0395093 0.00417042  0.0195075 -0.0358052 0.00378394  0.0157835 -0.0336807 0.00417662  0.0168207 -0.0388623 0.00347853  0.0159736 -0.0351346 0.00315332  0.0194197 -0.0351257 0.00440037  0.0159029 -0.0344613 0.00366497  0.0183278 -0.0475401 0.00354886  0.0185418 -0.0487778 0.00267458  0.021416 -0.0433738 0.00450182  0.0225338 -0.0488067 0.00372577  0.0216756 -0.0446859 0.00339651  0.0175459 -0.0427418 0.00375664  0.0184554 -0.0481921 0.00311005  0.0177552 -0.0440522 0.00283301  0.0215731 -0.0440744 0.00395119  0.0176712 -0.0434434 0.00329375  0.0197034 -0.0575588 0.00314474  0.0199174 -0.0586537 0.00236845  0.02326 -0.0530677 0.00400221  0.0242285 -0.0587143 0.00329399  0.0235255 -0.0542323 0.00301766  0.0190476 -0.0524676 0.00334454  0.0198289 -0.0581326 0.00275481  0.019263 -0.0536335 0.00251985  0.0234183 -0.0536885 0.00351119  0.0191743 -0.0530905 0.00293076  0.0208324 -0.0680954 0.00276232  0.0210404 -0.0690531 0.00208104  0.0248156 -0.0633264 0.0035255  0.0256354 -0.0691469 0.00288951  0.0250741 -0.0643487 0.00265741  0.0202993 -0.0627567 0.00295079  0.0209532 -0.0685957 0.00241995  0.0205101 -0.0637823 0.00222278  0.0249671 -0.0638705 0.00309241  0.0204211 -0.0633037 0.00258529  0.021729 -0.0790595 0.00240338  0.0219281 -0.079888 0.0018121  0.0260891 -0.074056 0.00307631  0.0267694 -0.0800107 0.00250852  0.0263391 -0.0749443 0.00232005  0.0213094 -0.0735169 0.00258005  0.021844 -0.0794896 0.00210619  0.0215135 -0.0744092 0.00194418  0.0262352 -0.0745282 0.00269878  0.021427 -0.0739921 0.00226068  0.0224104 -0.0903756 0.00207162  0.0225991 -0.0910837 0.00156391  0.0271052 -0.0851771 0.00265837  0.0276533 -0.0912346 0.00215828  0.0273409 -0.0859399 0.00200629  0.0220966 -0.0846665 0.0022347  0.022519 -0.0907415 0.00181651  0.0222902 -0.0854339 0.00168574  0.0272415 -0.0855818 0.00233293  0.0222073 -0.0850744 0.00195897  0.0228946 -0.10197 0.00176489  0.0230722 -0.102567 0.0013355  0.0278779 -0.0966125 0.00227213  0.0283058 -0.102741 0.00183439  0.0281008 -0.0972592 0.00171757  0.0226769 -0.0961298 0.00191557  0.0229968 -0.102276 0.00154912  0.0228603 -0.0967815 0.00144732  0.0280071 -0.0969551 0.00199533  0.0227816 -0.0964757 0.00168037  0.0232015 -0.11378 0.00148642  0.0233673 -0.114275 0.0011276  0.0284342 -0.108297 0.00191844  0.028751 -0.114472 0.0015403  0.0286413 -0.108836 0.00145304  0.0230702 -0.10784 0.00162292  0.0232965 -0.114032 0.00130618  0.0232416 -0.108385 0.00122917  0.0285531 -0.108582 0.00168622  0.0231676 -0.108128 0.00142503  0.0233496 -0.125746 0.0012325  0.0235029 -0.126149 0.000939131  0.0287908 -0.120167 0.00159633  0.0290087 -0.126364 0.00127232  0.0289838 -0.120609 0.00121272  0.023295 -0.119735 0.00135684  0.0234375 -0.125948 0.00108504  0.0234547 -0.120183 0.00103092  0.0289018 -0.1204 0.00140488  0.0233861 -0.119971 0.00119305  0.0233586 -0.137818 0.00100744  0.0234985 -0.138137 0.000771284  0.0289748 -0.132169 0.00130677  0.029103 -0.138369 0.00103462  0.0291504 -0.132522 0.00099659  0.0233715 -0.13176 0.00111759  0.0234389 -0.137975 0.000888944  0.0235178 -0.13212 0.000853062  0.0290751 -0.132354 0.00115192  0.0234545 -0.131949 0.000984669  0.0232468 -0.149947 0.000807047  0.0233727 -0.150193 0.000623226  0.0290034 -0.144253 0.0010494  0.0290527 -0.150437 0.000823975  0.0291626 -0.144527 0.00080502  0.0233181 -0.143866 0.000904799  0.0233192 -0.150065 0.000714779  0.0234509 -0.144147 0.000694752  0.0290945 -0.144396 0.000927448  0.0233934 -0.144013 0.000799179  0.0230324 -0.162095 0.000635862  0.0231431 -0.162277 0.000495791  0.0289011 -0.156376 0.000824571  0.0288806 -0.162531 0.000643134  0.0290413 -0.156582 0.00063765  0.0231526 -0.156008 0.000718951  0.0230963 -0.162178 0.00056541  0.0232708 -0.156222 0.000556946  0.028981 -0.156482 0.000731349  0.0232196 -0.156119 0.000637531  0.022732 -0.174223 0.000489116  0.0228271 -0.174352 0.000388145  0.0286849 -0.1685 0.000632405  0.0286045 -0.174615 0.00048995  0.0288072 -0.168647 0.000495434  0.0228937 -0.168151 0.000559807  0.0227866 -0.174279 0.000438213  0.0229964 -0.168305 0.000439405  0.0287545 -0.168575 0.000563979  0.0229516 -0.16823 0.000499249  0.022361 -0.186307 0.000370741  0.0224404 -0.186392 0.000300765  0.0283775 -0.180593 0.000473619  0.028245 -0.186658 0.000366807  0.0284796 -0.180691 0.000378132  0.0225556 -0.18026 0.000427365  0.0224066 -0.186338 0.000335574  0.0226429 -0.180366 0.000342131  0.0284343 -0.180642 0.000426054  0.0226047 -0.180313 0.00038445  0.0219336 -0.198319 0.000275493  0.0219982 -0.198372 0.000231981  0.027993 -0.192628 0.000346541  0.0278192 -0.198639 0.000270009  0.0280771 -0.192688 0.000285029  0.022155 -0.19231 0.000321031  0.02197 -0.198333 0.000253439  0.0222266 -0.192378 0.000264168  0.0280395 -0.192657 0.000315905  0.0221946 -0.192343 0.00029242  0.0214605 -0.210244 0.000203133  0.0215142 -0.210274 0.000179648  0.0275512 -0.204585 0.000249863  0.0273435 -0.210541 0.000198007  0.0276184 -0.204619 0.000214458  0.0217028 -0.20428 0.000237703  0.0214903 -0.210246 0.00019145  0.0217609 -0.204321 0.000204086  0.0275865 -0.2046 0.000232339  0.0217352 -0.204299 0.000220895  0.0209513 -0.222072 0.000139356  0.0210016 -0.22209 0.00013566  0.0270627 -0.216451 0.000176311  0.0268338 -0.222357 0.000140905  0.0271192 -0.216471 0.000161648  0.0212114 -0.216158 0.000171542  0.0209799 -0.222068 0.000137925  0.0212619 -0.216181 0.000156879  0.0270922 -0.216458 0.000169516  0.0212386 -0.216167 0.00016439  0.0204225 -0.233807 7.42674e-05  0.0204775 -0.233823 9.35793e-05  0.0265422 -0.228227 0.00011301  0.026305 -0.234098 8.64267e-05  0.0265963 -0.228243 0.000116944  0.0206881 -0.227938 0.00011003  0.0204558 -0.233801 8.54731e-05  0.02074 -0.227954 0.000114441  0.026571 -0.228233 0.000115514  0.0207179 -0.227943 0.000112653  0 0 0  0.00374787 -0.00301367 0.00510705  0.00271504 -0.00414503 0.00325024  0 0 0  0.002319 -0.00278378 0.00364959  0.0040675 -0.00491285 0.00464892  0.00171082 -0.00326633 0.00213313  0 0 0  0.00156463 -0.00163639 0.00317943  0.00293657 -0.00368166 0.00410938  0.000882372 -0.00208032 0.00181663  0 0 0  0.00160855 -0.00284052 0.00265539  0.000943102 -0.00182742 0.00234282  0.00772956 -0.00627893 0.00677705  0.00692719 -0.00799519 0.00482452  0.00734147 -0.00554931 0.00715041  0.00896242 -0.00837803 0.00670457  0.00642338 -0.00708634 0.00482583  0.00576864 -0.00459534 0.00618505  0.00727308 -0.0072884 0.00581491  0.00476432 -0.00602388 0.00423265  0.00658876 -0.00652182 0.0060215  0.00509855 -0.00541842 0.00520873  0.0115665 -0.0106572 0.00725985  0.0112756 -0.0125114 0.00538754  0.0116368 -0.00937057 0.00821245  0.0136464 -0.0127485 0.00730145  0.0111676 -0.0112485 0.00599289  0.00968963 -0.00833613 0.00712252  0.0114172 -0.0116842 0.00634408  0.0091545 -0.0101408 0.00520372  0.0113244 -0.0103937 0.00713193  0.0093779 -0.00930953 0.00620341  0.0151864 -0.0163305 0.00713599  0.0151802 -0.0181364 0.00535929  0.0159303 -0.0143318 0.00834441  0.0180249 -0.0182867 0.0071727  0.0158078 -0.0161991 0.00620866  0.0133953 -0.0133372 0.00725901  0.0152249 -0.0172975 0.00626075  0.0132735 -0.0151758 0.00541818  0.0158906 -0.0153512 0.00730324  0.0133684 -0.0143327 0.00635922  0.0185317 -0.0231276 0.00669396  0.018693 -0.0248134 0.00506127  0.0199589 -0.0205582 0.00794566  0.0219621 -0.0249593 0.00673997  0.020025 -0.0222971 0.00598764  0.0169039 -0.0195914 0.00694263  0.0186592 -0.0240266 0.00588644  0.0169905 -0.0213376 0.00523126  0.0200485 -0.021484 0.00699067  0.0169879 -0.0205252 0.0061034  0.0215612 -0.0309063 0.00615609  0.0218074 -0.0324432 0.00465047  0.0236151 -0.0278242 0.00734711  0.0254792 -0.0326017 0.00616884  0.023816 -0.0294034 0.00555801  0.020082 -0.0268986 0.00643742  0.0217317 -0.0317196 0.00541091  0.0202962 -0.028505 0.00486231  0.0237719 -0.0286601 0.00647366  0.0202412 -0.0277538 0.00566196  0.0242553 -0.0395199 0.00554383  0.0245416 -0.0409037 0.00419378  0.0269027 -0.0359918 0.00666761  0.0285831 -0.0410848 0.00555992  0.0271513 -0.0374097 0.00504947  0.0229568 -0.0351123 0.0058533  0.0244409 -0.0402535 0.00487304  0.023225 -0.0365658 0.00442207  0.0270845 -0.0367383 0.00587595  0.0231317 -0.0358821 0.00514722  0.0266055 -0.0488586 0.0049603  0.0269032 -0.0500876 0.00374317  0.0297888 -0.0449318 0.00597453  0.0312811 -0.0502864 0.00495231  0.0300739 -0.0461928 0.00452328  0.025469 -0.0441017 0.00525355  0.026795 -0.0495048 0.00435591  0.025766 -0.0454006 0.00396562  0.0299815 -0.0455956 0.00526369  0.0256624 -0.0447901 0.00461674  0.0286177 -0.0588045 0.0043714  0.0289139 -0.0598883 0.003304  0.0322952 -0.0545367 0.00529611  0.0335886 -0.0601082 0.00436997  0.0325756 -0.0556486 0.00401044  0.0276582 -0.0537567 0.00466347  0.0288014 -0.0593756 0.00383997  0.0279546 -0.0549057 0.00351906  0.0324844 -0.0551198 0.00466526  0.0278409 -0.054363 0.0040971  0.0303023 -0.069273 0.00383747  0.030588 -0.0702164 0.00289536  0.0344172 -0.0647034 0.00465345  0.0355241 -0.0704503 0.0038203  0.0347006 -0.0656756 0.00352323  0.0294968 -0.0639739 0.00410342  0.0304796 -0.0697653 0.00336897  0.0297903 -0.0649807 0.00309527  0.0346013 -0.0652141 0.00409865  0.0296808 -0.0645062 0.00360382  0.0316796 -0.0801684 0.00331783  0.0319527 -0.0809833 0.00250959  0.0361874 -0.0753468 0.00404692  0.0371112 -0.0812327 0.0033077  0.036453 -0.076188 0.00306737  0.0310318 -0.0746655 0.00357401  0.0318464 -0.0805939 0.00291514  0.0313103 -0.0755387 0.00269747  0.0363613 -0.0757868 0.00356555  0.0312006 -0.075125 0.00313962  0.0327696 -0.091421 0.00285304  0.0330263 -0.092114 0.0021565  0.0376173 -0.086381 0.00348532  0.0383753 -0.0923733 0.00283265  0.0378751 -0.0871013 0.00264347  0.0322573 -0.0857477 0.00308371  0.0329274 -0.0917788 0.00250649  0.0325236 -0.0864964 0.00232863  0.0377822 -0.0867586 0.00307178  0.0324216 -0.0861424 0.00270891  0.0335976 -0.102953 0.00241137  0.0338384 -0.103536 0.00182879  0.0387421 -0.0977367 0.0029645  0.0393426 -0.103805 0.00239646  0.0389796 -0.0983444 0.00225341  0.033218 -0.097148 0.00262868  0.033744 -0.103253 0.00212097  0.033466 -0.0977814 0.00198817  0.0388955 -0.0980532 0.00261462  0.0333673 -0.0974799 0.00231075  0.034186 -0.114706 0.00201952  0.0344094 -0.115186 0.00153315  0.0395806 -0.109343 0.00248885  0.0400405 -0.115461 0.00199795  0.039806 -0.109847 0.00189567  0.0339195 -0.108797 0.0022136  0.0343225 -0.114949 0.00177741  0.0341524 -0.109324 0.00167692  0.0397236 -0.109606 0.00219715  0.0340618 -0.109074 0.00194693  0.0345615 -0.126618 0.00165594  0.0347673 -0.127004 0.00126255  0.0401659 -0.121142 0.00205374  0.040496 -0.127286 0.00163698  0.040372 -0.121551 0.00157082  0.0344009 -0.120636 0.00183403  0.0346864 -0.126811 0.0014596  0.0346152 -0.121066 0.00139344  0.0402976 -0.121353 0.00181592  0.0345299 -0.12086 0.00161505  0.0347474 -0.138639 0.00133765  0.0349336 -0.138942 0.00102365  0.0405225 -0.133075 0.00166512  0.0407374 -0.139226 0.001315  0.0407124 -0.133398 0.0012784  0.0346768 -0.132607 0.00149429  0.0348613 -0.138786 0.00118113  0.0348732 -0.132949 0.00113916  0.0406419 -0.133242 0.00147462  0.0347964 -0.132785 0.0013175  0.0347686 -0.15072 0.00105214  0.0349352 -0.150949 0.000811338  0.0406783 -0.145096 0.0013175  0.0407898 -0.151235 0.00103104  0.0408483 -0.145344 0.00101972  0.0347788 -0.144663 0.00119078  0.0348697 -0.150829 0.000931978  0.034955 -0.144927 0.000913382  0.040786 -0.145222 0.00117064  0.0348849 -0.144799 0.0010525  0.034647 -0.162825 0.000808835  0.0347927 -0.16299 0.000629902  0.0406587 -0.157161 0.00101602  0.0406797 -0.163275 0.000786543  0.0408103 -0.157342 0.000793815  0.034725 -0.156761 0.000927806  0.0347359 -0.162898 0.000719309  0.0348811 -0.156956 0.000717163  0.0407534 -0.157252 0.000906587  0.0348191 -0.15686 0.000822425  0.0344069 -0.174915 0.000602603  0.0345314 -0.175026 0.00047648  0.0404902 -0.169234 0.000757098  0.0404332 -0.17531 0.000580907  0.0406215 -0.169357 0.000601768  0.0345416 -0.168862 0.000701189  0.0344818 -0.174959 0.000539303  0.0346768 -0.168998 0.000549197  0.0405722 -0.169293 0.000680327  0.0346224 -0.168929 0.000625014  0.0340695 -0.186963 0.000435948  0.0341721 -0.187031 0.000354171  0.0401995 -0.18128 0.000544906  0.0400748 -0.187311 0.00041616  0.040309 -0.181356 0.000443935  0.0342507 -0.180934 0.000515938  0.0341311 -0.186984 0.000394821  0.0343637 -0.181022 0.00041163  0.0402668 -0.181315 0.000495076  0.0343175 -0.180976 0.000463367  0.0336556 -0.198944 0.000308394  0.0337377 -0.198981 0.000259638  0.039808 -0.193275 0.000377417  0.0396309 -0.199256 0.000290394  0.0398989 -0.193315 0.000320911  0.0338717 -0.192951 0.000368357  0.0337038 -0.198948 0.000283957  0.0339639 -0.193002 0.000303388  0.0398624 -0.19329 0.00034976  0.0339255 -0.192973 0.000335336  0.0331845 -0.210843 0.000214696  0.0332499 -0.210862 0.000192404  0.0393438 -0.205199 0.000255108  0.0391247 -0.21113 0.000203252  0.0394158 -0.205216 0.000231266  0.0334275 -0.204892 0.000258684  0.033221 -0.210837 0.000203609  0.0335 -0.204919 0.000223279  0.0393836 -0.205201 0.000243902  0.0334685 -0.204901 0.000240684  0.0326738 -0.222651 0.000147581  0.0327284 -0.222665 0.000142097  0.0388253 -0.217038 0.000174403  0.0385857 -0.22293 0.000144839  0.0388863 -0.217047 0.000169992  0.0329344 -0.216746 0.000180483  0.0327039 -0.222645 0.000145197  0.0329931 -0.216761 0.000165582  0.0388577 -0.217038 0.000173092  0.0329657 -0.21675 0.000172853  0.0321381 -0.234397 8.53539e-05  0.0321934 -0.234412 9.71556e-05  0.0382843 -0.228801 0.000118971  0.0380373 -0.234675 9.4533e-05  0.0383403 -0.228816 0.000124335  0.032409 -0.228516 0.000117183  0.0321684 -0.23439 9.17912e-05  0.0324631 -0.228531 0.000119209  0.0383117 -0.228804 0.000121474  0.0324376 -0.22852 0.000118256  -0.00397427 -0.00542917 -0.00291705  -0.00179227 -0.00347561 -0.00126338  0 0 0  -0.00259928 -0.0043864 -0.00195861  0 0 0  -0.00188108 -0.00310831 -0.00216365  -0.000624895 -0.00164907 -0.000921845  0 0 0  -0.00167448 -0.00330606 -0.00167274  -0.00264083 -0.00412252 -0.00257206  -0.000851143 -0.0022495 -0.00108564  0 0 0  -0.000643767 -0.00151712 -0.00123203  -0.000868052 -0.00214389 -0.00146294  -0.00863127 -0.00900051 -0.00456655  -0.00640012 -0.00754027 -0.00300598  -0.00663897 -0.00834539 -0.00311148  -0.0053139 -0.00685361 -0.00339687  -0.00339377 -0.00523511 -0.00223541  -0.00628643 -0.00710204 -0.00393152  -0.00676356 -0.00786092 -0.00400937  -0.00456862 -0.00632896 -0.00263011  -0.00350673 -0.00490569 -0.00289738  -0.00464419 -0.00592739 -0.00340462  -0.0134104 -0.0133271 -0.00520337  -0.0110398 -0.0115688 -0.00389779  -0.010955 -0.0128612 -0.00357533  -0.00894457 -0.0114038 -0.00385821  -0.00703299 -0.00946561 -0.00290918  -0.0110428 -0.0110228 -0.00498986  -0.0110266 -0.0123107 -0.00453329  -0.00881329 -0.0104701 -0.00341582  -0.00712892 -0.00900074 -0.00370955  -0.00890318 -0.00995919 -0.00437963  -0.0179881 -0.0186089 -0.00518501  -0.0157071 -0.0164211 -0.00414515  -0.0150409 -0.0182982 -0.00360572  -0.0124203 -0.0169548 -0.00385201  -0.010665 -0.0145748 -0.00309682  -0.0157349 -0.0158443 -0.00524986  -0.0150759 -0.0177296 -0.00452936  -0.0130298 -0.0154499 -0.00362873  -0.0107071 -0.0140506 -0.00389647  -0.0130862 -0.0148945 -0.00457501  -0.0222309 -0.0248994 -0.0048784  -0.0201449 -0.0221951 -0.00402689  -0.0188384 -0.0246945 -0.00339901  -0.0156572 -0.023492 -0.00361991  -0.0140722 -0.0206308 -0.00300479  -0.020157 -0.0216298 -0.00506043  -0.0188205 -0.0241522 -0.00425196  -0.0169792 -0.0213651 -0.00352061  -0.0140689 -0.0201024 -0.00375783  -0.0169852 -0.0208196 -0.00441325  -0.0261183 -0.0321151 -0.00443268  -0.0242417 -0.0289236 -0.00372589  -0.0223183 -0.0319884 -0.00309515  -0.0186507 -0.0309345 -0.00328946  -0.0172302 -0.0276061 -0.00277495  -0.024218 -0.0283993 -0.00466704  -0.0222661 -0.0314869 -0.00386798  -0.0206167 -0.0282235 -0.00325394  -0.0171832 -0.0271055 -0.0034641  -0.0205801 -0.0277114 -0.00406802  -0.0296648 -0.0401586 -0.00395095  -0.0279806 -0.0365123 -0.00335348  -0.0255002 -0.0400898 -0.00275409  -0.021408 -0.0391827 -0.00292778  -0.020132 -0.0354215 -0.00249279  -0.0279338 -0.0360394 -0.00419474  -0.025424 -0.0396396 -0.00344276  -0.0239449 -0.0359307 -0.00292552  -0.020058 -0.0349625 -0.00311244  -0.0238792 -0.0354662 -0.0036571  -0.0328881 -0.0489225 -0.00347185  -0.0313817 -0.0448764 -0.00296509  -0.0283974 -0.0489068 -0.0024184  -0.0239433 -0.0481401 -0.00257194  -0.0227931 -0.04399 -0.00220001  -0.031316 -0.0444569 -0.00371063  -0.0283099 -0.048505 -0.00302744  -0.0269829 -0.0444035 -0.00258458  -0.0227023 -0.0435777 -0.00275064  -0.0269 -0.0439881 -0.00323308  -0.0358081 -0.0583198 -0.00301933  -0.0344571 -0.0539145 -0.00258923  -0.0310313 -0.058348 -0.00209665  -0.0262667 -0.0577141 -0.00223207  -0.0252274 -0.0532182 -0.001917  -0.0343853 -0.053547 -0.00324249  -0.0309389 -0.0579963 -0.00262856  -0.0297451 -0.0535413 -0.00225461  -0.0251307 -0.0528539 -0.00240147  -0.029655 -0.0531765 -0.00282514  -0.0384424 -0.0682593 -0.00259709  -0.0372361 -0.0635463 -0.00223625  -0.0334156 -0.0683308 -0.00180018  -0.0283909 -0.0678203 -0.00191855  -0.0274502 -0.0630235 -0.00165212  -0.0371602 -0.0632269 -0.00280464  -0.0333252 -0.0680231 -0.00226176  -0.0322528 -0.0632652 -0.00194514  -0.0273527 -0.0627048 -0.00207424  -0.0321614 -0.0629466 -0.00244117  -0.04081 -0.0786676 -0.00220966  -0.0397309 -0.0736835 -0.00190997  -0.0355703 -0.0787759 -0.0015254  -0.0303259 -0.0783797 -0.00162828  -0.0294741 -0.0733221 -0.0014075  -0.0396588 -0.0734089 -0.00239921  -0.035484 -0.0785114 -0.00192094  -0.0345194 -0.0734868 -0.00165963  -0.0293813 -0.0730466 -0.00177193  -0.0344316 -0.0732127 -0.00208795  -0.0429281 -0.0894672 -0.0018543  -0.0419688 -0.084257 -0.00161123  -0.0375085 -0.089611 -0.00127625  -0.0320837 -0.0893194 -0.00136399  -0.0313129 -0.0840412 -0.00118339  -0.0418997 -0.0840228 -0.00202823  -0.0374286 -0.0893839 -0.00161183  -0.0365647 -0.0841373 -0.00139797  -0.031226 -0.0838051 -0.00149453  -0.036482 -0.0839025 -0.00176263  -0.0448139 -0.100594 -0.00153184  -0.0439612 -0.0951898 -0.00133896  -0.0392469 -0.100768 -0.00104833  -0.0336744 -0.100571 -0.00112247  -0.0329783 -0.0951078 -0.000979185  -0.0438989 -0.0949931 -0.00168896  -0.0391737 -0.100577 -0.00132835  -0.0384004 -0.09514 -0.00115931  -0.032899 -0.0949085 -0.00124145  -0.0383248 -0.0949426 -0.00146675  -0.0464841 -0.111983 -0.00123906  -0.0457323 -0.106423 -0.00109124  -0.0407987 -0.112185 -0.000842452  -0.0351099 -0.112073 -0.000904679  -0.0344822 -0.106459 -0.000794053  -0.0456752 -0.106259 -0.00138152  -0.0407336 -0.112024 -0.00107336  -0.0400443 -0.106436 -0.000942707  -0.0344105 -0.106293 -0.00101185  -0.0399759 -0.106271 -0.0011971  -0.0479568 -0.123579 -0.000976324  -0.0472938 -0.117891 -0.000868201  -0.0421804 -0.123803 -0.000657439  -0.0364014 -0.123767 -0.000708342  -0.0358361 -0.118034 -0.000626683  -0.0472443 -0.117758 -0.00110328  -0.0421222 -0.123672 -0.00084269  -0.0415088 -0.117959 -0.000747323  -0.0357729 -0.117898 -0.000804543  -0.041448 -0.117825 -0.000954747  -0.049248 -0.135327 -0.000742674  -0.0486679 -0.129543 -0.000668526  -0.0434043 -0.135572 -0.00049293  -0.0375602 -0.135602 -0.000534177  -0.0370522 -0.129778 -0.000477433  -0.0486243 -0.129437 -0.000855327  -0.0433542 -0.135465 -0.000638723  -0.0428103 -0.12966 -0.000572562  -0.0369965 -0.129668 -0.000619054  -0.0427566 -0.129552 -0.00073719  -0.0503767 -0.147182 -0.000537634  -0.0498691 -0.141326 -0.000492215  -0.044488 -0.147443 -0.000348449  -0.0385988 -0.14753 -0.000381112  -0.0381417 -0.141641 -0.00034523  -0.0498316 -0.141243 -0.000635743  -0.0444441 -0.147359 -0.000458837  -0.0439615 -0.141485 -0.000418186  -0.0380936 -0.141555 -0.000455379  -0.0439157 -0.1414 -0.000545621  -0.0513604 -0.159101 -0.000361562  -0.0509176 -0.153198 -0.000338793  -0.0454454 -0.159375 -0.000224233  -0.03953 -0.159509 -0.000249386  -0.0391178 -0.153579 -0.000230193  -0.0508854 -0.153136 -0.000445247  -0.045408 -0.159309 -0.000305176  -0.0449805 -0.153392 -0.000283837  -0.039077 -0.153514 -0.000312924  -0.0449407 -0.153327 -0.000378609  -0.0522175 -0.171047 -0.000213742  -0.0518303 -0.165116 -0.000208855  -0.0462935 -0.17133 -0.000120044  -0.0403659 -0.171504 -0.000138521  -0.0399935 -0.165553 -0.000132203  -0.0518031 -0.165072 -0.000283122  -0.0462613 -0.17128 -0.000175476  -0.0458808 -0.165339 -0.000169873  -0.0399587 -0.165505 -0.000191569  -0.0458472 -0.165292 -0.000237107  -0.0529675 -0.182987 -9.56059e-05  -0.0526283 -0.177049 -0.000101566  -0.0470476 -0.183278 -3.56436e-05  -0.0411205 -0.183483 -4.8399e-05  -0.0407815 -0.17753 -5.10216e-05  -0.0526044 -0.177019 -0.000150204  -0.04702 -0.18324 -7.14064e-05  -0.04668 -0.177294 -7.55787e-05  -0.0407522 -0.177496 -9.11951e-05  -0.0466511 -0.177261 -0.000119805  -0.0536318 -0.194898 -4.29153e-06  -0.0533299 -0.188967 -1.72853e-05  -0.0477269 -0.195193 2.95639e-05  -0.041806 -0.195421 2.18153e-05  -0.0414953 -0.189479 1.35899e-05  -0.053309 -0.188947 -4.54187e-05  -0.0477021 -0.195165 9.77516e-06  -0.0473943 -0.189228 -8.34465e-07  -0.0414708 -0.189456 -1.10865e-05  -0.0473692 -0.189206 -2.75373e-05  -0.0542338 -0.206758 6.09159e-05  -0.0539589 -0.200847 4.63724e-05  -0.0483499 -0.207055 7.89165e-05  -0.042439 -0.207297 7.55787e-05  -0.0421495 -0.20138 6.40154e-05  -0.0539391 -0.200834 3.21865e-05  -0.0483263 -0.207033 6.92606e-05  -0.0480433 -0.201118 5.60284e-05  -0.0421283 -0.201365 5.06639e-05  -0.0480199 -0.201104 4.22001e-05  -0.0548005 -0.218561 0.000108838  -0.0545402 -0.212676 9.19104e-05  -0.0489347 -0.218855 0.000116587  -0.0430329 -0.219103 0.000119209  -0.0427601 -0.213218 0.000102997  -0.0545197 -0.212667 8.7142e-05  -0.0489118 -0.218836 0.000115275  -0.0486448 -0.212951 9.83477e-05  -0.0427399 -0.213208 9.799e-05  -0.0486226 -0.212941 9.35793e-05  -0.0553555 -0.23032 0.00015223  -0.0550997 -0.224451 0.000127912  -0.0495012 -0.230608 0.000152349  -0.043606 -0.230848 0.000160217  -0.0433402 -0.22499 0.000136971  -0.0550785 -0.224442 0.000130415  -0.0494776 -0.230588 0.000158191  -0.0492175 -0.224723 0.000133991  -0.0433199 -0.224981 0.000139356  -0.0491955 -0.224714 0.000136018  -0.00141723 -0.00266565 -0.00135446  0 0 0  -0.00106839 -0.00196423 -0.00140631  -0.000360027 -0.000901178 -0.000600696  0 0 0  -0.00143713 -0.00243746 -0.00177813  -0.000472628 -0.00121111 -0.000752449  0 0 0  -0.000361092 -0.000809893 -0.000789881  -0.000476573 -0.00110212 -0.000995755  -0.00403944 -0.00641252 -0.00217593  -0.00307746 -0.00538966 -0.00221014  -0.00196555 -0.00381143 -0.001454  -0.00411385 -0.00602521 -0.00279176  -0.00263827 -0.00440329 -0.00183022  -0.00200237 -0.00352414 -0.00187588  -0.00268826 -0.00410435 -0.00236762  -0.00702882 -0.0111285 -0.00252044  -0.00541809 -0.0100302 -0.00252676  -0.00418654 -0.00798665 -0.0019021  -0.00708562 -0.0106385 -0.00318134  -0.00552455 -0.00863749 -0.00239587  -0.00423619 -0.00756982 -0.00241721  -0.00559422 -0.00820066 -0.00304234  -0.00996938 -0.0168188 -0.00254619  -0.00772753 -0.015761 -0.0025332  -0.00655913 -0.0132488 -0.00203466  -0.0099836 -0.0162942 -0.00318599  -0.00851685 -0.0138414 -0.00256109  -0.00658318 -0.012764 -0.0025537  -0.00855339 -0.0133374 -0.0032171  -0.0127365 -0.0234469 -0.00240135  -0.00992793 -0.022478 -0.00237966  -0.00886017 -0.0194988 -0.00197709  -0.0127041 -0.0229304 -0.00299621  -0.0113776 -0.0200062 -0.00248754  -0.00884497 -0.0189998 -0.00246966  -0.0113665 -0.0194928 -0.00310731  -0.0153016 -0.0309509 -0.00218141  -0.0119885 -0.0300898 -0.00215948  -0.0110239 -0.0266604 -0.00182426  -0.0152355 -0.0304656 -0.00272059  -0.0140437 -0.0270829 -0.00229633  -0.0109749 -0.0261768 -0.00227499  -0.0139931 -0.0265907 -0.002864  -0.0176696 -0.0392425 -0.0019381  -0.0139163 -0.0384942 -0.00191748  -0.0130405 -0.034648 -0.00163448  -0.0175827 -0.038798 -0.00242019  -0.0165091 -0.0349916 -0.00206053  -0.0129688 -0.0341969 -0.00203991  -0.0164314 -0.0345363 -0.00257146  -0.0198523 -0.0482342 -0.00169671  -0.0157173 -0.0475988 -0.00167966  -0.0149167 -0.0433735 -0.00143766  -0.0197553 -0.0478354 -0.00212312  -0.0187825 -0.0436444 -0.00181603  -0.0148319 -0.0429632 -0.00179815  -0.01869 -0.043233 -0.00227022  -0.0218614 -0.0578366 -0.00146759  -0.0173975 -0.0573101 -0.00145292  -0.0166614 -0.0527486 -0.00124776  -0.021762 -0.0574829 -0.00184131  -0.0208771 -0.0529519 -0.00158  -0.0165722 -0.0523821 -0.00156522  -0.0207788 -0.0525862 -0.00197983  -0.0237083 -0.0679686 -0.00125551  -0.0189626 -0.067546 -0.00124383  -0.0182825 -0.0626888 -0.00107038  -0.0236115 -0.0676591 -0.00158  -0.0228033 -0.0628295 -0.00135946  -0.0181938 -0.062366 -0.00134706  -0.0227059 -0.0625085 -0.00170803  -0.0254028 -0.0785507 -0.00106049  -0.0204171 -0.0782246 -0.00105071  -0.0197875 -0.0731135 -0.000906944  -0.0253115 -0.0782819 -0.00133908  -0.0245733 -0.0731958 -0.00115573  -0.0197033 -0.0728326 -0.00114584  -0.0244795 -0.0729172 -0.00145686  -0.0269543 -0.0895112 -0.000882626  -0.0217664 -0.0892748 -0.000875115  -0.0211831 -0.0839473 -0.000757217  -0.0268699 -0.0892809 -0.00111914  -0.0261947 -0.083976 -0.00096941  -0.0211042 -0.083706 -0.000961423  -0.0261077 -0.0837371 -0.00122654  -0.0283715 -0.100781 -0.000720501  -0.0230156 -0.100626 -0.000714421  -0.0224748 -0.0951196 -0.000620723  -0.0282947 -0.100586 -0.000918865  -0.0276781 -0.0950992 -0.000799298  -0.0224032 -0.0949148 -0.000793099  -0.0275983 -0.0948969 -0.0010165  -0.0296631 -0.112299 -0.000574112  -0.0241697 -0.112218 -0.000570178  -0.0236685 -0.106565 -0.000497222  -0.0295945 -0.112136 -0.000737786  -0.0290312 -0.106501 -0.000645518  -0.0236038 -0.106394 -0.00064075  -0.0289596 -0.106332 -0.000826001  -0.0308383 -0.124007 -0.000442505  -0.0252346 -0.123991 -0.000439644  -0.0247699 -0.118224 -0.000386  -0.0307772 -0.123872 -0.000574946  -0.030264 -0.118121 -0.00050652  -0.024713 -0.118083 -0.000503302  -0.0301996 -0.117982 -0.000654101  -0.0319057 -0.135854 -0.00032568  -0.0262159 -0.135895 -0.000324249  -0.0257852 -0.130042 -0.00028646  -0.0318524 -0.135744 -0.000430226  -0.0313836 -0.129904 -0.000382304  -0.025735 -0.129928 -0.000380397  -0.0313276 -0.129792 -0.000500441  -0.0328746 -0.147791 -0.000222683  -0.0271204 -0.147882 -0.000222206  -0.0267205 -0.14197 -0.000198126  -0.0328283 -0.147703 -0.00030303  -0.0324008 -0.141801 -0.000272393  -0.0266774 -0.141879 -0.000271678  -0.032352 -0.141713 -0.000364542  -0.0337548 -0.159778 -0.000133991  -0.0279546 -0.159912 -0.000134706  -0.0275822 -0.153962 -0.000121236  -0.0337155 -0.159709 -0.000193238  -0.0333238 -0.153768 -0.000176668  -0.0275455 -0.153893 -0.000176907  -0.0332825 -0.153701 -0.000246167  -0.0345566 -0.171778 -5.90086e-05  -0.0287256 -0.171948 -6.03199e-05  -0.0283778 -0.165981 -5.55515e-05  -0.0345235 -0.171726 -0.000101209  -0.0341637 -0.165766 -9.47714e-05  -0.0283475 -0.165929 -9.60827e-05  -0.0341284 -0.165716 -0.000145197  -0.0352898 -0.183762 2.02656e-06  -0.0294402 -0.18396 2.38419e-07  -0.0291145 -0.177994 -8.34465e-07  -0.0352621 -0.183722 -2.563e-05  -0.0349298 -0.177762 -2.69413e-05  -0.029089 -0.177957 -2.87294e-05  -0.0349007 -0.177726 -6.13928e-05  -0.0359662 -0.195702 5.07832e-05  -0.0301061 -0.195922 4.92334e-05  -0.0297997 -0.189972 4.39882e-05  -0.0359421 -0.195672 3.40939e-05  -0.0356336 -0.189726 2.77758e-05  -0.029779 -0.189946 2.58684e-05  -0.0356085 -0.189702 5.84126e-06  -0.0365951 -0.207582 8.9407e-05  -0.0307305 -0.207817 8.86917e-05  -0.0304406 -0.201894 7.98702e-05  -0.0365744 -0.207558 8.13007e-05  -0.0362849 -0.201638 7.11679e-05  -0.0304229 -0.201877 6.98566e-05  -0.0362635 -0.201622 5.88894e-05  -0.0371888 -0.219388 0.000122547  -0.0313227 -0.219629 0.000123739  -0.0310462 -0.213744 0.00011003  -0.0371697 -0.219368 0.000121236  -0.0368946 -0.213482 0.000106215  -0.0310299 -0.213732 0.000106335  -0.0368755 -0.213471 0.000101686  -0.0377638 -0.231126 0.000153303  -0.031898 -0.231354 0.00015676  -0.031625 -0.225513 0.000137448  -0.0377452 -0.231103 0.000159264  -0.0374753 -0.225253 0.000138044  -0.0316103 -0.225502 0.00014019  -0.0374579 -0.225242 0.000140667  -0.000733592 -0.00183734 -0.00080502  0 0 0  -0.000473261 -0.00145167 -0.000703692  -0.000158533 -0.000575572 -0.000300765  0 0 0  -0.000755161 -0.00164765 -0.00105405  -0.000248551 -0.000695378 -0.000451207  0 0 0  -0.000159591 -0.000502497 -0.000401258  -0.000251841 -0.000618547 -0.000598073  -0.00215892 -0.00529835 -0.00128758  -0.00138621 -0.00465134 -0.00109386  -0.000871956 -0.00311795 -0.000722289  -0.00220609 -0.00494176 -0.00164938  -0.00138795 -0.00338981 -0.00108588  -0.000891268 -0.00286868 -0.000931859  -0.00142412 -0.00312042 -0.00140321  -0.00387362 -0.0100306 -0.00149274  -0.00249082 -0.00928313 -0.00124669  -0.00190413 -0.00719586 -0.000940323  -0.00390655 -0.00958064 -0.00188243  -0.00299874 -0.00751176 -0.00141764  -0.00192422 -0.00681096 -0.00119424  -0.00304258 -0.00710797 -0.00179756  -0.0056304 -0.0158544 -0.00150847  -0.00363645 -0.0151002 -0.00124824  -0.00305894 -0.0125114 -0.00100434  -0.00563145 -0.0153629 -0.00188673  -0.00475574 -0.0128055 -0.00151706  -0.00306219 -0.012057 -0.00126016  -0.00477293 -0.0123372 -0.00190461  -0.00732732 -0.0226371 -0.00142086  -0.00476903 -0.0219262 -0.00116909  -0.00422502 -0.0188703 -0.000972629  -0.00729561 -0.0221424 -0.00177264  -0.0064888 -0.0191196 -0.00147331  -0.0042057 -0.0183932 -0.0012157  -0.00647247 -0.018632 -0.00184  -0.00893426 -0.0302891 -0.00128591  -0.00587022 -0.0296457 -0.00105345  -0.00536305 -0.0261494 -0.000892043  -0.00887853 -0.029815 -0.00160468  -0.00814211 -0.026348 -0.00135672  -0.00532359 -0.0256792 -0.00111389  -0.00809717 -0.0258718 -0.00169265  -0.0104495 -0.0387183 -0.00113678  -0.00693893 -0.0381556 -0.000927925  -0.0064612 -0.0342505 -0.000792265  -0.010379 -0.0382787 -0.00142133  -0.00970238 -0.0343997 -0.00121224  -0.00640845 -0.033806 -0.000991464  -0.00963879 -0.0339521 -0.00151432  -0.0118781 -0.0478379 -0.000989079  -0.00797588 -0.0473589 -0.000803828  -0.00752139 -0.0430828 -0.000689149  -0.0118006 -0.0474384 -0.00124073  -0.0111737 -0.0431849 -0.00106227  -0.00746125 -0.0426743 -0.000865459  -0.0110992 -0.0427756 -0.00133049  -0.0132253 -0.0575597 -0.000849247  -0.00898206 -0.0571669 -0.000687003  -0.00854528 -0.0525588 -0.000589848  -0.0131465 -0.0572035 -0.00106931  -0.0125606 -0.0526163 -0.000918031  -0.00848269 -0.052191 -0.000744581  -0.0124829 -0.0522489 -0.00115395  -0.0144955 -0.067803 -0.000719905  -0.00995648 -0.067492 -0.000578642  -0.0095346 -0.0625937 -0.00049758  -0.0144192 -0.0674888 -0.000910878  -0.0138689 -0.0626089 -0.000783205  -0.00947309 -0.062268 -0.000632048  -0.0137916 -0.0622845 -0.000988841  -0.0156925 -0.0784882 -0.000601053  -0.0108988 -0.0782567 -0.000479698  -0.0104897 -0.0731071 -0.000412703  -0.0156207 -0.0782148 -0.000764966  -0.0151021 -0.0730826 -0.000659108  -0.0104316 -0.0728224 -0.000528455  -0.0150287 -0.0727996 -0.000836492  -0.0168194 -0.0895435 -0.000493288  -0.0118082 -0.0893842 -0.000389338  -0.0114111 -0.0840231 -0.000334978  -0.0167531 -0.0893076 -0.000632405  -0.0162636 -0.0839617 -0.000545859  -0.0113575 -0.0837774 -0.000433683  -0.0161951 -0.083718 -0.000697374  -0.0178783 -0.100899 -0.000394583  -0.0126839 -0.100808 -0.000307322  -0.0122988 -0.0952708 -0.000264645  -0.0178185 -0.100699 -0.000510931  -0.017356 -0.0951756 -0.000442624  -0.0122501 -0.0950614 -0.000347495  -0.0172939 -0.0949682 -0.000570297  -0.0188726 -0.112495 -0.000305891  -0.013525 -0.112464 -0.000233769  -0.0131518 -0.106785 -0.000200987  -0.0188195 -0.112326 -0.000402212  -0.0183822 -0.106659 -0.000349045  -0.0131085 -0.106609 -0.000269651  -0.0183266 -0.106485 -0.00045526  -0.0198056 -0.124271 -0.000226259  -0.0143325 -0.124295 -0.000167251  -0.0139709 -0.118504 -0.000143528  -0.0197585 -0.124131 -0.000303984  -0.0193456 -0.118351 -0.000265002  -0.0139331 -0.118359 -0.000199676  -0.0192964 -0.118208 -0.000351906  -0.0206796 -0.136177 -0.00015533  -0.0151055 -0.136248 -0.00010848  -0.0147558 -0.130376 -9.25064e-05  -0.0206387 -0.136062 -0.00021708  -0.0202488 -0.130199 -0.000189662  -0.0147232 -0.130257 -0.000137091  -0.0202054 -0.130082 -0.00025928  -0.0214989 -0.148165 -9.29832e-05  -0.0158455 -0.148279 -5.6386e-05  -0.0155075 -0.142349 -4.68493e-05  -0.0214636 -0.148073 -0.000140071  -0.021095 -0.142151 -0.000123024  -0.0154796 -0.142255 -8.17776e-05  -0.0210578 -0.142059 -0.000177383  -0.0222673 -0.160196 -3.8743e-05  -0.0165532 -0.160344 -1.15633e-05  -0.0162265 -0.154381 -7.03335e-06  -0.0222373 -0.160123 -7.39098e-05  -0.0218883 -0.154165 -6.46114e-05  -0.0162032 -0.154308 -3.31402e-05  -0.0218563 -0.154094 -0.000105858  -0.0229893 -0.172231 7.15256e-06  -0.0172303 -0.17241 2.67029e-05  -0.0169146 -0.166432 2.69413e-05  -0.022964 -0.172175 -1.75238e-05  -0.0226326 -0.166203 -1.46627e-05  -0.0168953 -0.166377 8.22544e-06  -0.0226061 -0.166149 -4.47035e-05  -0.0236692 -0.184243 4.50611e-05  -0.017879 -0.184445 5.80549e-05  -0.0175738 -0.178471 5.60284e-05  -0.0236483 -0.1842 2.82526e-05  -0.0233328 -0.17823 2.70605e-05  -0.0175579 -0.178431 4.30346e-05  -0.0233109 -0.178191 6.4373e-06  -0.0243118 -0.196206 7.62939e-05  -0.018501 -0.196427 8.40425e-05  -0.0182056 -0.190471 7.98702e-05  -0.0242944 -0.196173 6.63996e-05  -0.0239937 -0.19022 6.13928e-05  -0.0181932 -0.190443 7.1764e-05  -0.0239758 -0.190193 4.81606e-05  -0.0249221 -0.208101 0.000101805  -0.0190985 -0.208335 0.000105858  -0.0188124 -0.202409 9.9659e-05  -0.0249071 -0.208075 9.70364e-05  -0.0246198 -0.20215 8.95262e-05  -0.0188026 -0.20239 9.52482e-05  -0.0246041 -0.202132 8.22544e-05  -0.0255067 -0.219913 0.00012517  -0.0196757 -0.220153 0.000126123  -0.0193982 -0.214268 0.000117183  -0.0254929 -0.219891 0.000125289  -0.0252161 -0.214005 0.000113726  -0.0193894 -0.214255 0.000115871  -0.0252028 -0.213993 0.000111103  -0.026077 -0.231629 0.000146985  -0.0202389 -0.231859 0.000145912  -0.0199666 -0.226033 0.000133634  -0.0260625 -0.231605 0.000152349  -0.0257912 -0.225772 0.000136137  -0.0199578 -0.22602 0.000136018  -0.0257781 -0.22576 0.000138879  -0.000205263 -0.00152773 -0.000267506  0 0 0  4.36902e-05 -0.00134897 7.03335e-06  1.32471e-05 -0.000509351 2.5034e-06  0 0 0  -0.000208616 -0.00135761 -0.000349045  -6.94208e-05 -0.000515848 -0.000149369  0 0 0  1.3873e-05 -0.000443041 4.76837e-06  -7.03186e-05 -0.000447512 -0.000198364  -0.000615254 -0.00484565 -0.00042367  0.000115842 -0.00449863 8.70228e-06  7.30604e-05 -0.00297493 3.93391e-06  -0.000624463 -0.00451094 -0.000541449  -0.000390306 -0.00298789 -0.000358343  7.98553e-05 -0.00273031 7.7486e-06  -0.00039807 -0.00274047 -0.000462651  -0.00114584 -0.00956607 -0.0004884  0.000165492 -0.00913334 1.19209e-05  0.000132263 -0.00702742 5.96046e-06  -0.00114483 -0.00913665 -0.000615001  -0.000870556 -0.00704047 -0.000465393  0.000145644 -0.00665256 9.53674e-06  -0.000874877 -0.00665939 -0.000589013  -0.00173283 -0.015449 -0.00048995  0.000163376 -0.0149864 1.91927e-05  0.000152349 -0.0123656 1.14441e-05  -0.0017176 -0.0149758 -0.000612974  -0.00143462 -0.0123665 -0.000495076  0.000171781 -0.0119217 1.49012e-05  -0.00142694 -0.0119182 -0.000620842  -0.00234503 -0.0223138 -0.000454664  9.87649e-05 -0.0218617 3.00407e-05  0.000114739 -0.018771 2.00272e-05  -0.002316 -0.0218324 -0.000568628  -0.00203645 -0.0187547 -0.000475287  0.000139356 -0.0183038 2.41995e-05  -0.00201398 -0.0182833 -0.000594258  -0.00297213 -0.0300515 -0.000402808  -3.24845e-05 -0.0296349 4.19617e-05  1.3113e-05 -0.026105 3.0756e-05  -0.00293267 -0.0295853 -0.00050509  -0.00265646 -0.0260682 -0.000429988  4.15444e-05 -0.0256414 3.57628e-05  -0.00262225 -0.025602 -0.00053823  -0.00361168 -0.0385642 -0.000345826  -0.000229359 -0.0381981 5.38826e-05  -0.000153124 -0.0342629 4.22001e-05  -0.00356621 -0.038128 -0.000436664  -0.00328988 -0.0342044 -0.000374556  -0.000122845 -0.0338221 4.79221e-05  -0.00324708 -0.0337622 -0.000471115  -0.00426322 -0.0477632 -0.000289917  -0.000488818 -0.0474566 6.52075e-05  -0.000382483 -0.043152 5.31673e-05  -0.00421518 -0.0473644 -0.000369072  -0.00393534 -0.0430712 -0.000317574  -0.000351548 -0.0427446 5.96046e-05  -0.00388891 -0.0426634 -0.00040257  -0.00492525 -0.0575617 -0.000237226  -0.000805497 -0.0573172 7.47442e-05  -0.000670552 -0.0526836 6.30617e-05  -0.00487745 -0.0572039 -0.000306249  -0.00459218 -0.0525804 -0.000262976  -0.000640154 -0.0523152 6.99759e-05  -0.00454462 -0.0522124 -0.000337005  -0.00559545 -0.0678769 -0.000188947  -0.00117373 -0.0676952 8.30889e-05  -0.00101209 -0.0627724 7.18832e-05  -0.00554991 -0.0675603 -0.000247836  -0.00525844 -0.0626476 -0.000212669  -0.000983477 -0.0624451 7.90358e-05  -0.00521266 -0.0623207 -0.000276327  -0.00627136 -0.07863 -0.000144958  -0.00158727 -0.0785084 9.02414e-05  -0.00140119 -0.0733373 7.95126e-05  -0.00622892 -0.0783535 -0.000195026  -0.00593221 -0.0731912 -0.000166416  -0.00137508 -0.0730504 8.67844e-05  -0.00588846 -0.0729052 -0.000220656  -0.00694954 -0.0897479 -0.000105023  -0.00203967 -0.089683 9.59635e-05  -0.00183225 -0.0843017 8.59499e-05  -0.00691092 -0.0895087 -0.000146747  -0.00660932 -0.0841357 -0.000124574  -0.00180876 -0.0840533 9.31025e-05  -0.00656974 -0.0838884 -0.00017035  -0.00762725 -0.101161 -6.92606e-05  -0.00252497 -0.101148 0.000100732  -0.00229919 -0.0955938 9.15527e-05  -0.00759256 -0.100957 -0.000103831  -0.00728762 -0.0954094 -8.66652e-05  -0.00227845 -0.0953816 9.83477e-05  -0.00725174 -0.0951984 -0.000124812  -0.0083009 -0.112808 -3.67165e-05  -0.00303686 -0.112843 0.000104666  -0.00279546 -0.107148 9.62019e-05  -0.00827062 -0.112635 -6.46114e-05  -0.00796354 -0.106947 -5.25713e-05  -0.0027777 -0.106969 0.000102758  -0.00793231 -0.106769 -8.38041e-05  -0.00896835 -0.124629 -7.62939e-06  -0.00356996 -0.124707 0.000108004  -0.00331557 -0.118903 0.000100374  -0.00894189 -0.124486 -3.00407e-05  -0.00863481 -0.118688 -2.18153e-05  -0.00330114 -0.118755 0.000106454  -0.00860679 -0.118541 -4.68493e-05  -0.00962639 -0.136575 1.81198e-05  -0.00411844 -0.13669 0.000110865  -0.00385451 -0.130805 0.000103831  -0.00960386 -0.136457 1.07288e-06  -0.00929761 -0.130577 5.48363e-06  -0.00384235 -0.130685 0.000109434  -0.00927413 -0.130458 -1.41859e-05  -0.0102737 -0.148596 4.11272e-05  -0.00467777 -0.148744 0.000113606  -0.00440669 -0.142805 0.000107288  -0.0102544 -0.148502 2.80142e-05  -0.00995064 -0.142566 3.00407e-05  -0.00439715 -0.142709 0.000112176  -0.00993037 -0.142471 1.50204e-05  -0.0109084 -0.160655 6.07967e-05  -0.00524378 -0.16083 0.000115752  -0.00496745 -0.154859 0.000110269  -0.0108922 -0.16058 5.1856e-05  -0.0105915 -0.154611 5.14984e-05  -0.00495982 -0.154784 0.000114679  -0.0105751 -0.154537 4.05312e-05  -0.0115299 -0.172714 7.82013e-05  -0.00581288 -0.172912 0.000118017  -0.0055337 -0.166928 0.00011313  -0.0115166 -0.172655 7.16448e-05  -0.0112197 -0.166674 6.98566e-05  -0.00552821 -0.166871 0.000116825  -0.0112057 -0.166618 6.2108e-05  -0.0121372 -0.184744 9.26256e-05  -0.00638199 -0.184961 0.000119686  -0.00610161 -0.178982 0.000115871  -0.0121262 -0.184699 8.88109e-05  -0.0118341 -0.178722 8.55923e-05  -0.00609732 -0.17894 0.000118852  -0.0118232 -0.178681 8.07047e-05  -0.0127301 -0.196721 0.000105023  -0.00694823 -0.196951 0.000121713  -0.00666833 -0.190992 0.000118375  -0.0127211 -0.196687 0.000102639  -0.0124345 -0.190728 9.89437e-05  -0.00666547 -0.190963 0.000120759  -0.0124252 -0.190699 9.60827e-05  -0.0133095 -0.208626 0.000115752  -0.00751019 -0.208867 0.000124335  -0.00723124 -0.202938 0.000121355  -0.0133018 -0.208599 0.000115156  -0.0130205 -0.202671 0.000110388  -0.00723004 -0.202918 0.000123143  -0.0130131 -0.202651 0.000108838  -0.0138755 -0.220441 0.000125885  -0.00806594 -0.220687 0.000126719  -0.00779033 -0.214802 0.000124454  -0.0138683 -0.220418 0.000126481  -0.013593 -0.214533 0.000120878  -0.00778866 -0.214788 0.000125527  -0.0135863 -0.214519 0.000120878  -0.0144312 -0.232145 0.00013566  -0.00861287 -0.232385 0.000129461  -0.00834179 -0.226565 0.000127435  -0.0144231 -0.232119 0.000138283  -0.0141528 -0.226297 0.000130773  -0.00834036 -0.226552 0.000128031  -0.0141468 -0.226284 0.000132322  0.000284955 -0.00159186 0.000273943  0 0 0  0.000559464 -0.00158525 0.000713229  0.000184692 -0.000648379 0.000303984  0 0 0  0.000296265 -0.00142461 0.000362158  9.55313e-05 -0.000551343 0.000153661  0 0 0  0.000186615 -0.000577331 0.000407696  9.88171e-05 -0.000485241 0.000207067  0.000825167 -0.00495034 0.000431776  0.001614 -0.00486696 0.00110424  0.00101623 -0.00329101 0.000726104  0.000856489 -0.00461924 0.000557065  0.000535682 -0.00307506 0.000365496  0.00104778 -0.00304848 0.000942111  0.000557899 -0.00283104 0.000477076  0.00143978 -0.0096975 0.000503659  0.00281283 -0.00955349 0.00126231  0.00216299 -0.00743169 0.000946164  0.00147372 -0.00927234 0.000637054  0.00113282 -0.00715917 0.000476003  0.00220922 -0.00705528 0.00120592  0.00116548 -0.00678235 0.000606179  0.00200927 -0.015604 0.000519156  0.00394827 -0.0154171 0.00127888  0.00335169 -0.0127962 0.00102079  0.00204098 -0.0151346 0.000649571  0.00173491 -0.0125098 0.000516534  0.00339362 -0.0123505 0.00128222  0.00176781 -0.0120656 0.000649333  0.00248158 -0.022494 0.000504017  0.00494605 -0.0222923 0.00122249  0.00443614 -0.019204 0.00100684  0.00250816 -0.0220155 0.000626922  0.00225985 -0.018922 0.00051415  0.00446647 -0.0187341 0.00125694  0.00228822 -0.018454 0.000641108  0.00283885 -0.0302603 0.000474691  0.00578088 -0.0300667 0.00113261  0.00536609 -0.0265377 0.000948787  0.00286126 -0.0297955 0.000587821  0.00267524 -0.0262621 0.000490546  0.00538391 -0.026072 0.00117981  0.00269932 -0.0257983 0.000608563  0.00308114 -0.0388041 0.000440717  0.00645345 -0.0386375 0.00103283  0.00612849 -0.0346994 0.000873208  0.00310016 -0.0383682 0.000543833  0.00297481 -0.0344282 0.000458002  0.00613707 -0.0342569 0.00108337  0.00299478 -0.033987 0.000566125  0.00321376 -0.0480364 0.000406265  0.00697112 -0.0479062 0.000932217  0.00672877 -0.0435975 0.000793576  0.00323033 -0.0476369 0.000498652  0.00316119 -0.0433275 0.000423431  0.00673109 -0.0431886 0.000982404  0.00317866 -0.0429196 0.000521183  0.00324488 -0.0578688 0.00037241  0.00734437 -0.057781 0.000835538  0.00717676 -0.0531414 0.000715017  0.00325942 -0.0575096 0.000455379  0.00324237 -0.0528706 0.000389099  0.00717533 -0.0527717 0.00088346  0.00325704 -0.0525014 0.000476718  0.00318313 -0.0682178 0.000340819  0.00758386 -0.0681729 0.00074482  0.00748396 -0.0632446 0.000640869  0.00319564 -0.0678992 0.000413775  0.00322592 -0.0629715 0.000356197  0.00748026 -0.0629157 0.000789642  0.0032388 -0.0626432 0.00043416  0.00303745 -0.0790031 0.000310898  0.0077008 -0.0790014 0.000660181  0.00766253 -0.0738243 0.000571609  0.00304806 -0.0787243 0.00037539  0.0031209 -0.0735483 0.000325441  0.00765693 -0.0735357 0.000701904  0.00313187 -0.0732603 0.000394225  0.0028168 -0.0901512 0.000283003  0.00770748 -0.0901891 0.000581503  0.00772393 -0.084803 0.000507474  0.00282586 -0.0899095 0.000338554  0.00293684 -0.084524 0.000296593  0.00771749 -0.0845529 0.000620246  0.00294602 -0.0842745 0.000356555  0.00253034 -0.101592 0.000257373  0.00761485 -0.101668 0.000509501  0.00768018 -0.0961083 0.000448227  0.00253761 -0.101385 0.000305414  0.00268233 -0.0958266 0.000269771  0.00767303 -0.0958944 0.000544906  0.00268948 -0.0956133 0.000321507  0.00218678 -0.113263 0.00023365  0.00743508 -0.113372 0.000443578  0.00754333 -0.107674 0.000394106  0.00219202 -0.113088 0.000273943  0.00236619 -0.10739 0.000245333  0.00753534 -0.107493 0.000475883  0.00237155 -0.10721 0.00028944  0.00179386 -0.125105 0.000212431  0.00717854 -0.125245 0.000383973  0.00732446 -0.119439 0.000344992  0.00179803 -0.12496 0.000246406  0.00199687 -0.119153 0.000222683  0.00731564 -0.119289 0.000413179  0.00200081 -0.119004 0.000259757  0.00136089 -0.137068 0.000193357  0.00685668 -0.137234 0.000330806  0.00703394 -0.131349 0.000301003  0.00136352 -0.136948 0.000220776  0.00158298 -0.131062 0.000202656  0.00702524 -0.131226 0.000356555  0.0015856 -0.130941 0.000233293  0.00089407 -0.149105 0.000176907  0.00647974 -0.149294 0.000283837  0.00668335 -0.143354 0.000261903  0.000895977 -0.149008 0.00019908  0.00113225 -0.143068 0.000184774  0.00667453 -0.143256 0.000306606  0.00113344 -0.14297 0.000209451  0.000401258 -0.161174 0.000162482  0.00605726 -0.161382 0.000243545  0.00628233 -0.155411 0.000228167  0.000402212 -0.161097 0.000179648  0.000651598 -0.155125 0.000169396  0.00627375 -0.155335 0.000262856  0.000652075 -0.155049 0.000188947  -0.000111818 -0.173242 0.000151157  0.00559807 -0.173466 0.000209451  0.00583982 -0.167483 0.000199437  -0.000111341 -0.173182 0.000164151  0.000148296 -0.167198 0.000156522  0.00583196 -0.167425 0.000225663  0.00014782 -0.16714 0.000171542  -0.000639439 -0.185278 0.000141859  0.00510955 -0.185514 0.000181675  0.00536513 -0.179536 0.000176072  -0.000639439 -0.185232 0.0001508  -0.000372887 -0.179253 0.000146031  0.00535727 -0.179494 0.000194907  -0.000373602 -0.179211 0.000157118  -0.00117683 -0.197259 0.000134945  0.00460029 -0.197504 0.00015974  0.00486469 -0.191546 0.000157237  -0.00117707 -0.197224 0.000141263  -0.000906229 -0.191265 0.000138044  0.0048573 -0.191516 0.000170112  -0.000907421 -0.191235 0.000145674  -0.00171947 -0.209166 0.000130296  0.00407529 -0.209416 0.000142813  0.00434613 -0.20349 0.00014317  -0.00172019 -0.209139 0.000133514  -0.00144696 -0.203211 0.000132203  0.00433922 -0.203469 0.000150919  -0.00144768 -0.20319 0.000137091  -0.00226426 -0.220983 0.000126243  0.00354052 -0.221236 0.000127435  0.00381494 -0.215352 0.000131726  -0.00226474 -0.22096 0.000127077  -0.0019908 -0.215075 0.000127912  0.00380874 -0.215337 0.000134945  -0.00199246 -0.21506 0.000130177  -0.00280356 -0.232686 0.000122428  0.00300908 -0.232941 0.000113368  0.00327945 -0.227117 0.000121593  -0.00280356 -0.23266 0.00012064  -0.00253415 -0.226839 0.000124454  0.00327349 -0.227103 0.000120401  -0.00253534 -0.226825 0.000123978  0.000807181 -0.00202841 0.000804424  0 0 0  0.00114028 -0.00222379 0.00140536  0.000379235 -0.00102782 0.000597835  0 0 0  0.00083752 -0.00184542 0.00105953  0.000271544 -0.000801444 0.000451803  0 0 0  0.000378795 -0.000952184 0.000798583  0.000277773 -0.000730097 0.000604033  0.00235873 -0.00560582 0.00128341  0.00327978 -0.00580752 0.00219584  0.00209318 -0.00414962 0.00144076  0.00242698 -0.00526202 0.00164974  0.00152574 -0.00364673 0.00108314  0.00214019 -0.00387287 0.00186563  0.00157644 -0.00338727 0.00140584  0.00414684 -0.0104186 0.00149381  0.00570199 -0.010559 0.00251257  0.00441825 -0.00844508 0.00188577  0.00421414 -0.00998247 0.00188673  0.00324598 -0.00786102 0.0014149  0.00449017 -0.008044 0.00240159  0.00331724 -0.00747108 0.00179839  0.00587368 -0.0163147 0.00152409  0.007985 -0.0163864 0.00253773  0.00680587 -0.0138065 0.00202858  0.00592196 -0.0158361 0.00190663  0.00502935 -0.0132287 0.00152457  0.00686955 -0.0133406 0.00254762  0.00508699 -0.0127745 0.00191593  0.00741923 -0.0231771 0.00145876  0.010035 -0.0232101 0.00241184  0.00900722 -0.0201612 0.00199163  0.0074445 -0.0226916 0.00181723  0.00667292 -0.0196186 0.00149965  0.00904292 -0.0196774 0.00248682  0.00670832 -0.0191422 0.00187159  0.00874913 -0.030918 0.00134957  0.011819 -0.0309388 0.00222313  0.0109493 -0.0274396 0.00186563  0.00875646 -0.0304488 0.00167751  0.00811231 -0.0269313 0.0014075  0.0109596 -0.0269659 0.00232232  0.00812703 -0.026462 0.0017513  0.0098632 -0.0394442 0.00122607  0.013346 -0.0394721 0.00201178  0.0126231 -0.0355559 0.00170445  0.00985855 -0.0390059 0.00152194  0.00933319 -0.0350762 0.00128877  0.0126143 -0.0351095 0.00211906  0.00933337 -0.0346317 0.00160098  0.0107721 -0.0486659 0.00110197  0.014627 -0.0487117 0.00180137  0.0140371 -0.0444183 0.0015347  0.0107605 -0.048265 0.0013665  0.0103432 -0.0439618 0.00116384  0.0140163 -0.0440081 0.00190651  0.0103338 -0.0435519 0.00144422  0.0114899 -0.0584916 0.000982761  0.0156772 -0.058561 0.0015986  0.0152075 -0.0539337 0.00136876  0.0114746 -0.0581318 0.00121677  0.0111549 -0.0534964 0.00104153  0.0151802 -0.053564 0.00169909  0.0111405 -0.0531262 0.00129092  0.0120313 -0.068837 0.000871181  0.016512 -0.0689319 0.00140905  0.0161508 -0.0640134 0.001212  0.0120142 -0.0685177 0.0010767  0.0117828 -0.0635924 0.000926018  0.0161207 -0.0636851 0.00150263  0.0117654 -0.0632633 0.00114572  0.0124109 -0.0796196 0.000767231  0.017148 -0.0797402 0.00123167  0.0168855 -0.0745724 0.00106537  0.0123929 -0.0793402 0.000945687  0.0122412 -0.0741661 0.000818253  0.016854 -0.0742844 0.00131893  0.012223 -0.0738773 0.00101018  0.0126435 -0.0907655 0.000671625  0.0176017 -0.0909104 0.00106847  0.017428 -0.0855321 0.000930071  0.0126253 -0.0905231 0.000825167  0.0125457 -0.0851395 0.000718474  0.0173967 -0.0852829 0.00114882  0.0125265 -0.0848892 0.000884414  0.0127436 -0.102203 0.000583887  0.0178901 -0.102371 0.000918269  0.017796 -0.0968196 0.000805497  0.0127257 -0.101996 0.000713944  0.0127102 -0.0964397 0.000626802  0.0177658 -0.0966066 0.00099194  0.0126914 -0.0962257 0.000768423  0.0127256 -0.113871 0.000504136  0.0180305 -0.114059 0.000781775  0.0180073 -0.108368 0.000691652  0.0127081 -0.113696 0.000612974  0.0127497 -0.108 0.000542998  0.0179781 -0.108188 0.000848651  0.0127307 -0.10782 0.000662327  0.012603 -0.125709 0.000432014  0.018039 -0.125914 0.000658154  0.0180783 -0.120116 0.000588894  0.0125866 -0.125564 0.000521421  0.0126773 -0.11976 0.000467181  0.0180502 -0.119967 0.000718594  0.0126599 -0.11961 0.000566244  0.0123904 -0.137668 0.000367761  0.0179322 -0.137888 0.000548124  0.0180252 -0.132009 0.000496268  0.0123746 -0.137548 0.000440001  0.0125084 -0.131665 0.000398874  0.0179991 -0.131888 0.000601768  0.0124911 -0.131542 0.000479698  0.0120997 -0.149699 0.000311494  0.0177259 -0.149931 0.000450969  0.0178647 -0.143998 0.000414491  0.0120854 -0.149602 0.000367999  0.012255 -0.143664 0.000338554  0.0178406 -0.143901 0.000498056  0.0122392 -0.143567 0.000402927  0.0117438 -0.161762 0.000262856  0.0174351 -0.162005 0.000367522  0.017612 -0.15604 0.000343323  0.0117311 -0.161685 0.000306249  0.0119305 -0.155716 0.000286102  0.0175903 -0.155964 0.000407934  0.0119154 -0.15564 0.000336051  0.0113347 -0.173823 0.000222564  0.0170739 -0.174073 0.000297189  0.0172822 -0.168096 0.000283003  0.011323 -0.173763 0.000254154  0.0115464 -0.167782 0.000241637  0.0172629 -0.168039 0.000330925  0.0115335 -0.167725 0.000279069  0.0108826 -0.185852 0.000189662  0.0166559 -0.186108 0.000240207  0.0168889 -0.180136 0.000233293  0.0108724 -0.185806 0.000211596  0.0111148 -0.179831 0.00020504  0.0168715 -0.180094 0.000267386  0.0111024 -0.179788 0.000231862  0.010397 -0.197826 0.000163794  0.0161941 -0.198085 0.000195026  0.0164459 -0.192132 0.000193596  0.0103879 -0.197791 0.000177979  0.0106444 -0.191835 0.000175834  0.0164301 -0.192103 0.000216365  0.0106339 -0.191805 0.000193834  0.00988722 -0.209727 0.000144124  0.0156984 -0.209987 0.000160336  0.015964 -0.204064 0.000163317  0.00987887 -0.209699 0.000151515  0.0101457 -0.203774 0.000153542  0.0159495 -0.204044 0.000176787  0.0101361 -0.203754 0.00016439  0.00936127 -0.221541 0.000127435  0.0151799 -0.221802 0.000130534  0.0154538 -0.215918 0.000139356  0.00935388 -0.221518 0.000128508  0.00962687 -0.215633 0.000135303  0.0154417 -0.215904 0.000144958  0.00961828 -0.215618 0.000139952  0.00883389 -0.233258 0.00011158  0.0146563 -0.233526 0.000102401  0.0149286 -0.227687 0.000118256  0.00882721 -0.233231 0.00010705  0.00909758 -0.227401 0.000119448  0.0149169 -0.227674 0.000116467  0.00908899 -0.227387 0.00011766  0.00145207 -0.00295311 0.00133455  0 0 0  0.00188957 -0.00346261 0.00212896  0.000652172 -0.00179774 0.000899673  0 0 0  0.00148709 -0.00275338 0.00175691  0.000480272 -0.00133723 0.000740767  0 0 0  0.00062491 -0.00168055 0.00119352  0.000487022 -0.00126559 0.000986814  0.00419891 -0.00691164 0.00214183  0.00541762 -0.00747657 0.00331664  0.00353451 -0.00570989 0.00218749  0.00429094 -0.00653642 0.0027504  0.00273444 -0.00482142 0.00180364  0.0035461 -0.00539237 0.00284028  0.00280072 -0.00452894 0.00234509  0.00724289 -0.0117564 0.00248909  0.00914016 -0.012169 0.00378561  0.00721678 -0.0101265 0.00284564  0.00733498 -0.0112898 0.00314438  0.00572404 -0.00920159 0.00236094  0.00730395 -0.00969023 0.0036329  0.00582004 -0.00878197 0.00300133  0.0101279 -0.0175716 0.00253105  0.0125552 -0.0178758 0.00380504  0.0108106 -0.0153854 0.00304604  0.0101908 -0.017069 0.00316727  0.00871825 -0.0145295 0.00253654  0.0108867 -0.0148879 0.00383258  0.00879693 -0.0140483 0.00318861  0.0127243 -0.0243461 0.00241423  0.0156215 -0.0245936 0.00361311  0.0140882 -0.0216162 0.00298131  0.0127504 -0.0238465 0.00300992  0.0114664 -0.0208304 0.00248575  0.0141333 -0.0211111 0.00372779  0.0115083 -0.0203361 0.00310457  0.0150007 -0.0320106 0.002226  0.0183263 -0.0322303 0.0033226  0.0170078 -0.0287858 0.00278711  0.0149992 -0.0315344 0.0027703  0.0139031 -0.0280604 0.0023253  0.0170179 -0.0283008 0.00347531  0.0139136 -0.0275809 0.00289643  0.0169635 -0.0404748 0.00201416  0.020681 -0.0406876 0.00300229  0.0195599 -0.0368119 0.00254118  0.0169435 -0.0400345 0.00250518  0.0160213 -0.0361366 0.00212133  0.0195469 -0.0363615 0.00316513  0.0160086 -0.0356875 0.00263965  0.0186278 -0.0496452 0.00180101  0.0226997 -0.0498592 0.00268006  0.02176 -0.0455985 0.00228238  0.0185975 -0.0492444 0.00223875  0.0178324 -0.0449656 0.00190687  0.0217308 -0.0451885 0.00284123  0.017806 -0.0445549 0.00237155  0.020013 -0.0594262 0.00159645  0.0244023 -0.0596486 0.00237072  0.0236263 -0.0550482 0.00202858  0.0199775 -0.0590682 0.00198317  0.0193551 -0.0544527 0.00169718  0.0235897 -0.0546811 0.00252426  0.0193207 -0.0540834 0.00210941  0.0211389 -0.069732 0.00140476  0.0258069 -0.0699628 0.00207961  0.0251814 -0.0650686 0.00178838  0.0211015 -0.0694149 0.00174296  0.0206079 -0.0645069 0.00149882  0.0251403 -0.0647439 0.00222349  0.0205705 -0.0641796 0.00186133  0.0220257 -0.0804781 0.00122619  0.0269368 -0.080719 0.0018084  0.0264474 -0.0755732 0.00156367  0.021988 -0.080201 0.00151932  0.0216119 -0.0750428 0.00131357  0.0264052 -0.0752892 0.00194216  0.0215734 -0.0747559 0.00162911  0.0226932 -0.09159 0.00106168  0.0278118 -0.091839 0.00155783  0.0274465 -0.0864818 0.00135565  0.0226568 -0.09135 0.00131261  0.0223864 -0.0859808 0.00114214  0.0274045 -0.0862365 0.00168109  0.0223486 -0.0857329 0.00141394  0.0231619 -0.102996 0.000910878  0.0284562 -0.103252 0.00132811  0.0282021 -0.0977212 0.00116444  0.0231271 -0.102791 0.00112307  0.0229524 -0.097248 0.00098455  0.0281619 -0.0975118 0.00144088  0.0229156 -0.0970359 0.00121593  0.0234517 -0.114633 0.000773787  0.0288908 -0.114895 0.00111878  0.0287367 -0.109224 0.000989914  0.0234187 -0.114459 0.000950336  0.0233289 -0.108777 0.000840545  0.0286983 -0.109048 0.00122118  0.0232941 -0.108598 0.00103474  0.0235815 -0.126441 0.000649929  0.0291387 -0.126709 0.000929236  0.0290734 -0.120929 0.000831366  0.0235507 -0.126297 0.000794291  0.0235364 -0.120507 0.000710249  0.0290369 -0.120783 0.00102174  0.0235038 -0.120358 0.000870347  0.0235708 -0.138372 0.000539541  0.0292208 -0.138642 0.000760436  0.029233 -0.132781 0.000689149  0.0235426 -0.138254 0.000654936  0.0235935 -0.132382 0.000593185  0.0291991 -0.132662 0.000842452  0.0235633 -0.132262 0.000722885  0.0234382 -0.150376 0.000442624  0.0291595 -0.150648 0.000611782  0.0292382 -0.144732 0.000563383  0.0234127 -0.150281 0.000532508  0.02352 -0.144355 0.000489354  0.029207 -0.144638 0.000683665  0.0234919 -0.144259 0.000591636  0.0232015 -0.162415 0.000359416  0.0289738 -0.162688 0.00048399  0.029109 -0.156738 0.000453949  0.0231791 -0.16234 0.000427008  0.0233328 -0.156381 0.000399351  0.0290809 -0.156665 0.000545263  0.0233078 -0.156307 0.000477791  0.0228784 -0.174453 0.000289798  0.028686 -0.174725 0.000376701  0.028867 -0.168762 0.000361085  0.0228586 -0.174395 0.000338674  0.023051 -0.168424 0.000322938  0.028842 -0.168708 0.000427723  0.0230289 -0.168368 0.000380754  0.0224853 -0.186462 0.00023365  0.0283141 -0.186733 0.000290513  0.0285316 -0.180773 0.000285029  0.0224679 -0.186418 0.000266671  0.0226908 -0.180451 0.000260234  0.0285096 -0.180734 0.000331163  0.0226712 -0.18041 0.000300884  0.022037 -0.198418 0.000190139  0.0278776 -0.198686 0.000223637  0.0281231 -0.192744 0.000225425  0.0220215 -0.198384 0.000210881  0.0222683 -0.192436 0.000210524  0.0281029 -0.192716 0.00025475  0.0222509 -0.192407 0.000236988  0.0215487 -0.210305 0.000157118  0.0273936 -0.210571 0.000174403  0.0276587 -0.204655 0.000180483  0.0215347 -0.210278 0.000167847  0.0217979 -0.204358 0.000172615  0.0276401 -0.204637 0.000197053  0.0217826 -0.204339 0.000188112  0.0210335 -0.222112 0.000130653  0.0268788 -0.222377 0.000135541  0.0271564 -0.216496 0.000147104  0.0210207 -0.222089 0.000133038  0.0212948 -0.216206 0.00014329  0.0271394 -0.216482 0.000154018  0.0212805 -0.216192 0.000149965  0.0205076 -0.233848 0.000105858  0.026351 -0.234118 9.97782e-05  0.0266318 -0.228265 0.000118971  0.0204959 -0.233823 9.98974e-05  0.020771 -0.227976 0.000118017  0.0266156 -0.228253 0.000117779  0.0207579 -0.227963 0.000116348  0.00262938 -0.00474352 0.00191569  0 0 0  0.00395814 -0.00579381 0.00287545  0.00171851 -0.00371277 0.00124192  0 0 0  0.00263517 -0.00448161 0.00254643  0.000865839 -0.00248021 0.00105464  0 0 0  0.00161584 -0.00342131 0.00167656  0.000858516 -0.00228477 0.00139928  0.00674057 -0.00898713 0.00302744  0.00855353 -0.0098353 0.00446212  0.00633073 -0.00808209 0.00294089  0.00685793 -0.00860566 0.00388598  0.00464258 -0.00681585 0.0025754  0.00622067 -0.00769508 0.00380993  0.00468691 -0.00647801 0.00335109  0.0110371 -0.0136818 0.00349092  0.0133848 -0.0142977 0.00503802  0.01096 -0.0124252 0.00378633  0.0111397 -0.0131794 0.00442398  0.00891221 -0.0112222 0.00332618  0.0109985 -0.0119104 0.00485504  0.00902018 -0.0107514 0.00423896  0.0150347 -0.0193292 0.00353932  0.0178795 -0.0198196 0.00507641  0.0156036 -0.0174537 0.00404215  0.0151101 -0.018796 0.00444388  0.0130846 -0.0163658 0.00355327  0.0156836 -0.0169169 0.00511277  0.0131732 -0.0158507 0.00448072  0.0186364 -0.0259587 0.0033741  0.0219367 -0.0263855 0.00480831  0.0199021 -0.0235063 0.00395608  0.0186747 -0.0254415 0.00421894  0.0168886 -0.0225109 0.00347602  0.0199662 -0.0229738 0.00496864  0.016944 -0.0219937 0.00435412  0.0218201 -0.0335049 0.00310826  0.025535 -0.0338974 0.00442517  0.0237561 -0.0305273 0.0036993  0.0218298 -0.03302 0.00387859  0.020281 -0.0296099 0.00324893  0.0237927 -0.0300286 0.00462806  0.0203025 -0.0291184 0.00405765  0.0245978 -0.0418681 0.00280952  0.0286876 -0.0422462 0.00398922  0.0271532 -0.0384299 0.00337195  0.0245866 -0.0414256 0.0035032  0.0232598 -0.0375779 0.0029614  0.0271663 -0.0379735 0.00421083  0.0232574 -0.0371246 0.00369358  0.0269853 -0.0509517 0.00250745  0.0314096 -0.0513178 0.00356007  0.030104 -0.0471074 0.00302613  0.0269624 -0.0505522 0.00312412  0.0258398 -0.0463135 0.00265801  0.0301008 -0.0466967 0.00377452  0.0258206 -0.0459034 0.00331306  0.0290074 -0.0606528 0.00221682  0.0337286 -0.0610144 0.00313985  0.0326315 -0.0564585 0.0026859  0.0289775 -0.060298 0.00276101  0.0280416 -0.0557183 0.00236046  0.0326184 -0.0560936 0.00334811  0.0280139 -0.055352 0.00294042  0.0306869 -0.0708866 0.00194359  0.0356654 -0.0712405 0.00275099  0.0347619 -0.0663868 0.00236332  0.0306542 -0.0705732 0.00241804  0.0298896 -0.0656963 0.00207818  0.034743 -0.0660657 0.0029428  0.0298563 -0.0653732 0.00258708  0.0320506 -0.0815632 0.00168931  0.037251 -0.0819134 0.00238287  0.0365231 -0.0768051 0.00206101  0.0320166 -0.0812905 0.00209951  0.0314077 -0.076162 0.00181413  0.0365008 -0.0765259 0.00256395  0.0313735 -0.0758799 0.00225604  0.0331223 -0.0926113 0.00145459  0.0385089 -0.0929538 0.00204754  0.0379421 -0.0876317 0.00178087  0.0330895 -0.0923753 0.00180435  0.0326225 -0.0870332 0.00156951  0.037919 -0.0873913 0.00221193  0.0325876 -0.0867899 0.00194907  0.0339293 -0.103955 0.00123954  0.0394702 -0.104292 0.00173557  0.0390486 -0.098794 0.00152326  0.0338974 -0.103754 0.0015341  0.0335587 -0.098238 0.0013448  0.0390252 -0.0985895 0.00188828  0.0335252 -0.0980304 0.00166631  0.0344958 -0.115535 0.00104356  0.0401593 -0.115863 0.00145447  0.0398697 -0.110223 0.00128746  0.0344656 -0.115365 0.00128746  0.0342424 -0.109707 0.00113904  0.0398469 -0.110051 0.00159144  0.0342096 -0.109533 0.00140786  0.0348473 -0.127288 0.000866532  0.0406076 -0.127609 0.00119758  0.0404347 -0.121859 0.00107336  0.0348188 -0.127147 0.00106454  0.034698 -0.121381 0.000952601  0.0404121 -0.121718 0.00132227  0.034668 -0.121237 0.0011729  0.0350077 -0.139168 0.000708938  0.0408385 -0.13948 0.000970602  0.0407691 -0.133646 0.000881195  0.0349815 -0.139053 0.000865817  0.0349509 -0.133203 0.000785112  0.0407484 -0.133532 0.00108016  0.0349221 -0.133087 0.000962019  0.0350022 -0.151124 0.000570178  0.0408819 -0.151428 0.000769854  0.0409017 -0.145536 0.000711322  0.0349782 -0.151032 0.000690818  0.0350254 -0.145127 0.000636935  0.0408819 -0.145447 0.000865817  0.0349994 -0.145035 0.00077498  0.034853 -0.163121 0.000451446  0.0407612 -0.163415 0.000597477  0.0408592 -0.157487 0.000563383  0.0348318 -0.163049 0.000540495  0.0349452 -0.157108 0.000508189  0.0408404 -0.157419 0.000679374  0.0349212 -0.157037 0.000612497  0.034585 -0.175119 0.000351906  0.0405059 -0.175405 0.000453353  0.0406668 -0.169461 0.000437975  0.0345654 -0.175064 0.000414252  0.0347338 -0.16911 0.000398993  0.0406492 -0.169411 0.000520706  0.0347126 -0.169057 0.000473976  0.0342195 -0.187096 0.000272632  0.0401378 -0.187372 0.00033772  0.0403504 -0.181428 0.000335455  0.0342021 -0.187054 0.00031352  0.0344141 -0.181101 0.000309467  0.0403342 -0.181393 0.000390649  0.0343945 -0.181062 0.000360489  0.0337811 -0.199023 0.000211954  0.0396869 -0.199291 0.000250697  0.0399375 -0.193363 0.000255942  0.0337641 -0.19899 0.000236154  0.0340092 -0.193055 0.000239968  0.039921 -0.193338 0.000289679  0.0339913 -0.193028 0.000271797  0.0332901 -0.210891 0.000168681  0.0391767 -0.211153 0.000189185  0.0394535 -0.205247 0.000197887  0.0332735 -0.210865 0.000180721  0.0335414 -0.204954 0.000188351  0.0394371 -0.20523 0.00021565  0.033524 -0.204935 0.000205994  0.032768 -0.222687 0.000136375  0.0386355 -0.222946 0.000145197  0.0389256 -0.21707 0.000157833  0.0327516 -0.222664 0.000138998  0.0330329 -0.216786 0.000151396  0.0389085 -0.217057 0.000164628  0.0330157 -0.216772 0.000158548  0.0322309 -0.234435 0.000106812  0.0380862 -0.234693 0.000106692  0.0383801 -0.228836 0.000127435  0.0322139 -0.234409 0.000102282  0.0325012 -0.228553 0.000121593  0.0383613 -0.228823 0.000126243  0.0324838 -0.22854 0.000120401  -0.00408987 -0.00598981 -0.00163758  -0.00185451 -0.00382214 -0.000581264  0 0 0  -0.00262494 -0.00479452 -0.000910521  0 0 0  -0.00183525 -0.00349868 -0.00119305  -0.000626944 -0.00177386 -0.000421047  0 0 0  -0.00176585 -0.00365954 -0.000905871  -0.00263456 -0.00459068 -0.00141013  -0.000873446 -0.00247223 -0.000494242  0 0 0  -0.000634164 -0.00171395 -0.00065577  -0.000874504 -0.0023937 -0.000761628  -0.0086398 -0.00984978 -0.00258195  -0.00640525 -0.00802534 -0.00141668  -0.00668949 -0.0088853 -0.00147963  -0.00520855 -0.00755432 -0.00193048  -0.00342233 -0.00560489 -0.00105226  -0.00636318 -0.00784064 -0.00215566  -0.0066949 -0.00863391 -0.00226426  -0.0046186 -0.00672825 -0.00124109  -0.00343247 -0.00546616 -0.00162601  -0.00460644 -0.00656777 -0.00192225  -0.0133452 -0.0143172 -0.00300455  -0.010987 -0.0122773 -0.00186682  -0.0109009 -0.0135153 -0.00173438  -0.00884205 -0.0122809 -0.00225401  -0.00700513 -0.0100459 -0.00140274  -0.010997 -0.0119575 -0.00285995  -0.0109279 -0.0132404 -0.00264323  -0.00879014 -0.0110968 -0.0016427  -0.00701338 -0.00980286 -0.00213981  -0.00880903 -0.0108223 -0.00250149  -0.0179339 -0.0196234 -0.00305521  -0.0156554 -0.0171455 -0.00201654  -0.0150062 -0.0190007 -0.00177014  -0.0123816 -0.0178827 -0.00229466  -0.0106157 -0.0152281 -0.00151885  -0.0156688 -0.0168504 -0.00306273  -0.0150255 -0.0186983 -0.00268245  -0.0129828 -0.0161297 -0.00177431  -0.010633 -0.0149634 -0.00230241  -0.0130049 -0.0158503 -0.00269544  -0.0222246 -0.025865 -0.00290096  -0.0201042 -0.0229296 -0.00197875  -0.0188336 -0.0253832 -0.00168002  -0.0156949 -0.0244015 -0.00216937  -0.0140631 -0.0213097 -0.00148559  -0.0201229 -0.0226236 -0.00299776  -0.0188398 -0.0250869 -0.00254011  -0.0169567 -0.0220682 -0.00173676  -0.0140681 -0.0210277 -0.0022459  -0.0169703 -0.0217761 -0.00262702  -0.0261632 -0.0330013 -0.00264657  -0.024232 -0.02961 -0.0018394  -0.0223563 -0.0326312 -0.00153017  -0.0187493 -0.0317831 -0.00197363  -0.0172638 -0.0282571 -0.00137448  -0.024239 -0.0293266 -0.00278091  -0.0223451 -0.0323525 -0.00231409  -0.0206334 -0.0288897 -0.00160992  -0.0172542 -0.0279871 -0.0020771  -0.0206307 -0.0286133 -0.00243437  -0.0297479 -0.0409502 -0.00235903  -0.0280042 -0.0371417 -0.00165617  -0.0255669 -0.0406734 -0.00135911  -0.0215468 -0.0399539 -0.00175321  -0.0202035 -0.0360267 -0.00123203  -0.0279995 -0.0368789 -0.00250661  -0.0255436 -0.0404187 -0.00205886  -0.023999 -0.0365469 -0.00144589  -0.020179 -0.0357736 -0.00186503  -0.0239815 -0.0362892 -0.00218785  -0.0329949 -0.0496219 -0.00207031  -0.0314281 -0.0454351 -0.00146115  -0.0284851 -0.049426 -0.00118732  -0.0241032 -0.0488279 -0.0015341  -0.0228882 -0.0445353 -0.00108182  -0.031413 -0.0452021 -0.00221419  -0.0284522 -0.0491974 -0.00180423  -0.027061 -0.0449539 -0.0012728  -0.022854 -0.0443072 -0.00164294  -0.0270326 -0.0447235 -0.00193119  -0.0359253 -0.058929 -0.00179422  -0.0345203 -0.0544084 -0.00127029  -0.031126 -0.0588045 -0.00102317  -0.0264335 -0.0583192 -0.00132501  -0.0253353 -0.0537043 -0.000936389  -0.0344986 -0.0542007 -0.00193179  -0.0310894 -0.0586019 -0.00156128  -0.0298377 -0.0540308 -0.00110412  -0.0252953 -0.0534999 -0.00142813  -0.029803 -0.0538248 -0.00168085  -0.0385617 -0.0687868 -0.00153816  -0.0373045 -0.0639737 -0.00109053  -0.0335137 -0.068727 -0.000870824  -0.0285554 -0.0683468 -0.00113201  -0.0275611 -0.0634484 -0.000799775  -0.0372794 -0.0637944 -0.00166416  -0.0334754 -0.0685492 -0.0013361  -0.0323495 -0.0636905 -0.000945449  -0.0275195 -0.0632698 -0.00122678  -0.0323124 -0.0635114 -0.00144684  -0.040925 -0.0791183 -0.00130177  -0.0398021 -0.074054 -0.000924349  -0.035664 -0.0791168 -0.000730634  -0.0304821 -0.0788325 -0.000953794  -0.0295832 -0.0736916 -0.000673771  -0.0397766 -0.0738972 -0.00141871  -0.035627 -0.078962 -0.00112867  -0.0346162 -0.0738567 -0.000799298  -0.029542 -0.0735355 -0.00104117  -0.034579 -0.0737001 -0.00123012  -0.0430354 -0.0898494 -0.00108624  -0.0420362 -0.0845706 -0.00077188  -0.0375973 -0.0899005 -0.000602722  -0.0322287 -0.0897043 -0.000792027  -0.0314159 -0.0843567 -0.000558257  -0.042011 -0.0844382 -0.00119221  -0.0375619 -0.0897671 -0.000939488  -0.0366558 -0.0844515 -0.000665069  -0.031377 -0.0842234 -0.000871062  -0.0366201 -0.0843184 -0.00103247  -0.0449119 -0.100913 -0.000890017  -0.0440252 -0.0954559 -0.000632882  -0.0393274 -0.101011 -0.000486255  -0.0338061 -0.100894 -0.000644207  -0.0330738 -0.0953758 -0.000453353  -0.0440018 -0.0953426 -0.000987291  -0.0392951 -0.100897 -0.000767589  -0.0384854 -0.0954073 -0.000542879  -0.0330374 -0.0952619 -0.000716329  -0.0384524 -0.0952933 -0.000851512  -0.0465719 -0.112245 -0.000712514  -0.0457894 -0.106642 -0.000506639  -0.0408719 -0.112385 -0.000380635  -0.035228 -0.11234 -0.000510931  -0.0345683 -0.106682 -0.000357866  -0.0457679 -0.106549 -0.000799417  -0.0408425 -0.112289 -0.000611544  -0.0401208 -0.106657 -0.000431895  -0.0345356 -0.106587 -0.0005759  -0.040091 -0.106562 -0.000687838  -0.0480338 -0.12379 -0.000552535  -0.0473452 -0.118071 -0.000392556  -0.0422444 -0.123966 -0.000285745  -0.0365057 -0.123983 -0.000390768  -0.0359131 -0.118217 -0.00027144  -0.0473267 -0.117994 -0.000631571  -0.0422184 -0.123886 -0.00047183  -0.0415777 -0.118141 -0.00033164  -0.035884 -0.118139 -0.000448942  -0.0415505 -0.118063 -0.00053978  -0.0493152 -0.135494 -0.000410795  -0.0487127 -0.129686 -0.000290394  -0.0434616 -0.135701 -0.000200987  -0.0376519 -0.135774 -0.000284433  -0.0371199 -0.129925 -0.000194192  -0.048696 -0.129625 -0.000480175  -0.0434381 -0.135634 -0.000347137  -0.0428706 -0.129805 -0.000241756  -0.0370944 -0.129862 -0.000335693  -0.0428467 -0.129742 -0.000407696  -0.0504346 -0.147309 -0.000286102  -0.0499086 -0.141438 -0.000199914  -0.0445371 -0.147542 -0.000126362  -0.0386779 -0.147662 -0.0001899  -0.0382016 -0.141757 -0.000125766  -0.0498941 -0.141389 -0.000347376  -0.0445166 -0.147488 -0.000237703  -0.0440149 -0.141599 -0.000162125  -0.0381789 -0.141707 -0.000235438  -0.0439937 -0.141549 -0.000290513  -0.05141 -0.159194 -0.000178814  -0.0509517 -0.153281 -0.000121117  -0.0454884 -0.159449 -6.19888e-05  -0.0395975 -0.159608 -0.000109196  -0.0391693 -0.153668 -6.56843e-05  -0.0509391 -0.153245 -0.000230908  -0.0454702 -0.159405 -0.00014317  -0.0450261 -0.153478 -9.26256e-05  -0.03915 -0.153629 -0.00014782  -0.0450079 -0.15344 -0.000188828  -0.0522606 -0.171111 -8.89301e-05  -0.0518603 -0.165178 -5.38826e-05  -0.0463302 -0.171383 -7.51019e-06  -0.0404232 -0.171575 -4.08888e-05  -0.0400376 -0.165619 -1.41859e-05  -0.0518496 -0.16515 -0.000132799  -0.0463145 -0.171348 -6.4373e-05  -0.0459206 -0.165403 -3.33786e-05  -0.0400207 -0.16559 -7.30753e-05  -0.0459046 -0.165374 -0.000102043  -0.0530064 -0.18303 -1.64509e-05  -0.0526555 -0.177091 2.14577e-06  -0.0470808 -0.183314 3.68357e-05  -0.0411692 -0.183531 1.4782e-05  -0.0408196 -0.177576 2.86102e-05  -0.052645 -0.177072 -5.10216e-05  -0.0470665 -0.183286 3.57628e-07  -0.0467148 -0.177339 1.60933e-05  -0.0408051 -0.177555 -1.13249e-05  -0.0467007 -0.177318 -3.03984e-05  -0.0536692 -0.194924 4.06504e-05  -0.0533564 -0.188994 4.66108e-05  -0.0477579 -0.195216 7.21216e-05  -0.0418489 -0.195452 5.91278e-05  -0.0415292 -0.189511 6.34193e-05  -0.0533469 -0.188981 1.32322e-05  -0.047744 -0.195194 5.03063e-05  -0.0474262 -0.189258 5.59092e-05  -0.0415163 -0.189496 3.86238e-05  -0.0474131 -0.189243 2.68221e-05  -0.0542717 -0.206775 8.24928e-05  -0.053987 -0.200864 8.11815e-05  -0.0483794 -0.20707 9.94205e-05  -0.0424778 -0.207317 9.36985e-05  -0.0421798 -0.201401 9.13143e-05  -0.0539763 -0.200855 6.23465e-05  -0.0483658 -0.207051 8.90493e-05  -0.0480738 -0.201138 8.70228e-05  -0.0421689 -0.201391 7.7486e-05  -0.0480607 -0.201128 7.10487e-05  -0.0548406 -0.218574 0.000113845  -0.05457 -0.212687 0.00010705  -0.0489655 -0.218867 0.000121117  -0.0430696 -0.219118 0.000121713  -0.0427885 -0.213232 0.000113368  -0.0545585 -0.212681 9.84669e-05  -0.0489511 -0.21885 0.000118136  -0.0486746 -0.212964 0.000111103  -0.0427771 -0.213225 0.000108123  -0.0486619 -0.212956 0.00010407  -0.055398 -0.230335 0.000141501  -0.0551345 -0.224463 0.000127912  -0.0495322 -0.230623 0.000142097  -0.0436425 -0.230866 0.000148058  -0.0433681 -0.225004 0.000133038  -0.0551193 -0.224455 0.000126481  -0.0495174 -0.230605 0.000146866  -0.0492487 -0.224736 0.000131607  -0.0433564 -0.224996 0.000134945  -0.0492351 -0.224729 0.000132442  -0.00138895 -0.00288516 -0.000632524  0 0 0  -0.00102788 -0.00227886 -0.000783205  -0.000352874 -0.000990286 -0.000277281  0 0 0  -0.00138833 -0.00278232 -0.000975966  -0.000463411 -0.00130481 -0.000345826  0 0 0  -0.000351012 -0.000956863 -0.000432968  -0.000464123 -0.0012684 -0.000541091  -0.00397097 -0.00686213 -0.00104177  -0.00298825 -0.00599806 -0.00126708  -0.00191483 -0.00412165 -0.000691056  -0.00400765 -0.00667374 -0.00159454  -0.0025869 -0.00474353 -0.00086689  -0.00193125 -0.00399195 -0.00105941  -0.00260428 -0.0046072 -0.00133395  -0.00697127 -0.0117226 -0.00122988  -0.00534084 -0.0108236 -0.00148451  -0.00412855 -0.00848496 -0.000922322  -0.00699371 -0.0114709 -0.00186884  -0.00545588 -0.00917043 -0.00115943  -0.00414515 -0.00828655 -0.00140524  -0.00548598 -0.00895566 -0.00176847  -0.00993696 -0.0174685 -0.00125635  -0.00771156 -0.0166265 -0.00151074  -0.00652379 -0.0138557 -0.0010004  -0.009956 -0.0171895 -0.00190187  -0.00846502 -0.0144701 -0.00125778  -0.00653371 -0.0136056 -0.00151634  -0.00849026 -0.0142124 -0.00190687  -0.0127554 -0.0240994 -0.00118959  -0.00997692 -0.0233452 -0.00142848  -0.00886256 -0.0201373 -0.000977874  -0.01275 -0.0238179 -0.0017978  -0.0113712 -0.0206629 -0.0012306  -0.00886244 -0.0198735 -0.00147915  -0.0113765 -0.0203909 -0.00186098  -0.0153614 -0.0315705 -0.00107932  -0.0120891 -0.030915 -0.00129557  -0.0110686 -0.0272882 -0.000902295  -0.0153399 -0.0313018 -0.00163352  -0.0140839 -0.0277213 -0.00113738  -0.0110519 -0.0270268 -0.00136602  -0.014071 -0.0274555 -0.00171995  -0.0177594 -0.0398134 -0.000954509  -0.0140499 -0.0392555 -0.00114655  -0.0131165 -0.0352387 -0.000804782  -0.0177245 -0.039564 -0.00144863  -0.0165856 -0.0355882 -0.00101745  -0.013088 -0.0349919 -0.00122213  -0.0165569 -0.0353386 -0.00154197  -0.0199584 -0.0487476 -0.000829577  -0.0158673 -0.0482851 -0.000998259  -0.0150127 -0.0439139 -0.000702381  -0.0199163 -0.0485219 -0.00126517  -0.0188819 -0.0441867 -0.000891328  -0.0149756 -0.0436876 -0.00107193  -0.0188436 -0.0439594 -0.00135612  -0.0219741 -0.0582919 -0.000710726  -0.0175519 -0.0579194 -0.000857711  -0.0167665 -0.0532333 -0.000603318  -0.0219285 -0.0580899 -0.00109029  -0.0209875 -0.0534363 -0.000769138  -0.0167254 -0.0530297 -0.000926852  -0.0209439 -0.0532325 -0.00117612  -0.0238206 -0.0683664 -0.000600815  -0.0191133 -0.068079 -0.000727534  -0.0183895 -0.0631168 -0.000510573  -0.0237749 -0.0681886 -0.000929117  -0.0229166 -0.0632554 -0.000654578  -0.0183471 -0.0629368 -0.00079143  -0.0228717 -0.0630759 -0.00100827  -0.0255101 -0.0788947 -0.000499606  -0.0205598 -0.0786858 -0.000607848  -0.0198913 -0.0734866 -0.0004251  -0.0254662 -0.0787389 -0.000780463  -0.0246835 -0.0735662 -0.000548959  -0.0198505 -0.0733291 -0.000666499  -0.024639 -0.0734096 -0.000853062  -0.0270544 -0.0898044 -0.000407338  -0.0218986 -0.0896682 -0.000499129  -0.0212808 -0.0842681 -0.00034678  -0.0270132 -0.08967 -0.000645161  -0.0262989 -0.0842937 -0.00045228  -0.0212419 -0.0841325 -0.000552177  -0.026257 -0.0841592 -0.000711441  -0.0284628 -0.101028 -0.000323296  -0.0231354 -0.100958 -0.000399947  -0.0225645 -0.0953923 -0.000275493  -0.0284249 -0.100913 -0.000521898  -0.027774 -0.0953689 -0.000364184  -0.0225292 -0.0952766 -0.000448227  -0.0277351 -0.0952542 -0.00058198  -0.0297452 -0.112504 -0.000247121  -0.0242767 -0.112493 -0.000310183  -0.0237496 -0.106794 -0.000210762  -0.0297112 -0.112407 -0.000410676  -0.0291179 -0.106726 -0.000284195  -0.0237172 -0.106697 -0.000353813  -0.0290831 -0.10663 -0.000465035  -0.0309111 -0.124174 -0.000178576  -0.0253292 -0.124215 -0.000229597  -0.024842 -0.118413 -0.000152111  -0.0308807 -0.124092 -0.000310302  -0.0303414 -0.118306 -0.000211716  -0.0248139 -0.118332 -0.000268817  -0.0303096 -0.118226 -0.000359178  -0.0319694 -0.135987 -0.00011766  -0.0262988 -0.136074 -0.000157833  -0.0258487 -0.130195 -9.9659e-05  -0.0319426 -0.135919 -0.00022161  -0.0314519 -0.130054 -0.000147104  -0.0258236 -0.130129 -0.000192761  -0.0314244 -0.129989 -0.000264764  -0.0329301 -0.147895 -6.33001e-05  -0.0271914 -0.148022 -9.4533e-05  -0.0267758 -0.14209 -5.29289e-05  -0.0329063 -0.147839 -0.000142813  -0.0324605 -0.141919 -8.95262e-05  -0.0267541 -0.142038 -0.000125289  -0.0324359 -0.141868 -0.00018096  -0.0338027 -0.159857 -1.64509e-05  -0.0280149 -0.160017 -3.96967e-05  -0.0276299 -0.154055 -1.16825e-05  -0.0337818 -0.159812 -7.49826e-05  -0.0333755 -0.153859 -3.88622e-05  -0.027611 -0.154014 -6.61612e-05  -0.0333545 -0.153819 -0.000107884  -0.0345972 -0.171836 2.36034e-05  -0.0287762 -0.172024 6.67572e-06  -0.0284185 -0.166051 2.37226e-05  -0.034579 -0.171799 -1.75238e-05  -0.0342078 -0.165834 4.41074e-06  -0.0284026 -0.16602 -1.54972e-05  -0.0341892 -0.165804 -4.50611e-05  -0.0353251 -0.183802 5.65052e-05  -0.0294826 -0.184013 4.50611e-05  -0.0291488 -0.178043 5.36442e-05  -0.0353093 -0.183773 2.92063e-05  -0.0349674 -0.17781 4.1008e-05  -0.0291352 -0.178021 2.68221e-05  -0.0349517 -0.177788 7.03335e-06  -0.0359964 -0.195729 8.34465e-05  -0.0301421 -0.195957 7.64132e-05  -0.029829 -0.190006 7.85589e-05  -0.0359826 -0.195706 6.73532e-05  -0.0356662 -0.189759 7.08103e-05  -0.0298178 -0.18999 6.16312e-05  -0.0356522 -0.189743 4.93526e-05  -0.0366225 -0.207599 0.000105381  -0.0307624 -0.207839 0.000102162  -0.0304661 -0.201916 9.90629e-05  -0.0366104 -0.20758 9.72748e-05  -0.0363135 -0.20166 9.5129e-05  -0.0304568 -0.201905 8.96454e-05  -0.0363014 -0.201649 8.30889e-05  -0.0372148 -0.219402 0.000124216  -0.0313516 -0.219647 0.000124335  -0.0310695 -0.21376 0.000116706  -0.0372028 -0.219384 0.000123382  -0.0369213 -0.213497 0.000115156  -0.0310602 -0.213751 0.000113487  -0.0369101 -0.213489 0.000110507  -0.0377896 -0.231142 0.000141978  -0.0319264 -0.231375 0.000145435  -0.0316474 -0.225528 0.00013268  -0.0377779 -0.231123 0.000147462  -0.0375009 -0.225267 0.000133395  -0.0316384 -0.22552 0.000135183  -0.0374904 -0.225259 0.000135541  -0.000711478 -0.00202698 -0.000378013  0 0 0  -0.000450559 -0.00172144 -0.000388384  -0.000153508 -0.000652522 -0.00013864  0 0 0  -0.000722311 -0.00193825 -0.000583529  -0.000241935 -0.000781 -0.000208139  0 0 0  -0.0001534 -0.000622988 -0.000214934  -0.000243146 -0.000749737 -0.000323772  -0.00210974 -0.00568566 -0.000617981  -0.0013434 -0.00520694 -0.000627398  -0.000849128 -0.00339559 -0.000342727  -0.00213417 -0.00551981 -0.000945807  -0.00134847 -0.00367829 -0.000515819  -0.000855163 -0.00328845 -0.000527143  -0.00136745 -0.0035615 -0.000792265  -0.00383478 -0.0105715 -0.000728607  -0.00246161 -0.0100211 -0.000733137  -0.00187716 -0.0076519 -0.000455022  -0.0038521 -0.010342 -0.00110769  -0.00295019 -0.00798342 -0.000687003  -0.00188419 -0.00747162 -0.000693679  -0.00297272 -0.00779274 -0.00104809  -0.0056197 -0.0164637 -0.000743389  -0.00364617 -0.0159203 -0.000743985  -0.00304863 -0.0130807 -0.000491619  -0.00562724 -0.0162025 -0.00112665  -0.00472817 -0.0133915 -0.0007447  -0.00305134 -0.012847 -0.000747561  -0.00474152 -0.0131498 -0.00112987  -0.00735515 -0.0232616 -0.000701308  -0.00481808 -0.0227624 -0.000698924  -0.00424266 -0.0194808 -0.000477672  -0.00734526 -0.0229923 -0.00106323  -0.00649774 -0.0197427 -0.0007267  -0.00423586 -0.0192284 -0.000725985  -0.00649631 -0.0194842 -0.00110185  -0.00899273 -0.030893 -0.000632286  -0.00595009 -0.0304535 -0.000628352  -0.00540596 -0.0267594 -0.000436187  -0.00896996 -0.0306307 -0.000961185  -0.00818628 -0.0269659 -0.000668645  -0.00538945 -0.0265055 -0.000665665  -0.00816965 -0.0267086 -0.00101495  -0.0105293 -0.0392817 -0.000554085  -0.00703794 -0.0389093 -0.000549197  -0.00652337 -0.0348318 -0.000383377  -0.0104972 -0.0390359 -0.000847459  -0.00977272 -0.0349851 -0.000593424  -0.00649929 -0.0345892 -0.000589371  -0.00974542 -0.0347406 -0.000905037  -0.0119692 -0.0483502 -0.00047636  -0.00808412 -0.048045 -0.000470877  -0.007595 -0.0436203 -0.000328064  -0.011932 -0.0481248 -0.000733972  -0.0112604 -0.0437236 -0.000514746  -0.00756603 -0.0433953 -0.000509739  -0.0112254 -0.043498 -0.000790238  -0.0133201 -0.0580172 -0.000402451  -0.00909173 -0.0577797 -0.000396609  -0.00862384 -0.0530445 -0.000274897  -0.0132809 -0.0578148 -0.000626802  -0.0126542 -0.0531013 -0.000438571  -0.00859237 -0.0528407 -0.000433207  -0.0126168 -0.0528976 -0.000679493  -0.0145891 -0.0682053 -0.000334144  -0.0100628 -0.0680313 -0.000327945  -0.00961304 -0.0630252 -0.000225067  -0.0145502 -0.0680254 -0.000527382  -0.0139637 -0.0630385 -0.000367522  -0.00958157 -0.0628439 -0.0003618  -0.013925 -0.0628579 -0.000576258  -0.0157814 -0.0788375 -0.000271201  -0.0109988 -0.0787248 -0.000265241  -0.010565 -0.0734848 -0.000179172  -0.0157443 -0.0786798 -0.000436664  -0.0151935 -0.0734579 -0.000301838  -0.0105351 -0.0733257 -0.000296116  -0.0151563 -0.0732997 -0.000481009  -0.0169017 -0.0898425 -0.000213861  -0.0118998 -0.0897856 -0.000208259  -0.0114814 -0.0843493 -0.000137091  -0.0168669 -0.0897054 -0.000353575  -0.0163496 -0.0842851 -0.000241756  -0.0114535 -0.0842116 -0.000236273  -0.016314 -0.0841486 -0.000394106  -0.0179533 -0.101152 -0.000161648  -0.0127666 -0.101147 -0.000156403  -0.0123631 -0.0955488 -9.87053e-05  -0.0179214 -0.101035 -0.000278234  -0.0174346 -0.0954509 -0.000187039  -0.0123373 -0.0954311 -0.000181675  -0.0174024 -0.0953342 -0.000314951  -0.0189399 -0.112705 -0.000114202  -0.0135986 -0.112746 -0.000109315  -0.0132098 -0.107018 -6.3777e-05  -0.0189112 -0.112605 -0.000209808  -0.0184536 -0.10689 -0.00013721  -0.0131866 -0.106919 -0.000132322  -0.018424 -0.106792 -0.000243187  -0.0198648 -0.124443 -7.14064e-05  -0.0143968 -0.124526 -6.71148e-05  -0.0140219 -0.118698 -3.21865e-05  -0.0198394 -0.124359 -0.000148892  -0.0194087 -0.118542 -9.21488e-05  -0.0140018 -0.118615 -8.7738e-05  -0.0193826 -0.118461 -0.000178456  -0.0207312 -0.136315 -3.34978e-05  -0.0151612 -0.136434 -2.95639e-05  -0.0148005 -0.130533 -3.93391e-06  -0.020709 -0.136245 -9.40561e-05  -0.0203044 -0.130353 -5.16176e-05  -0.014783 -0.130465 -4.80413e-05  -0.0202811 -0.130287 -0.000120521  -0.0215433 -0.148273 5.96046e-07  -0.015893 -0.148424 3.8147e-06  -0.0155461 -0.142474 2.15769e-05  -0.021524 -0.148216 -4.6134e-05  -0.0211425 -0.142274 -1.56164e-05  -0.0155311 -0.14242 -1.23978e-05  -0.0211229 -0.142221 -6.92606e-05  -0.0223053 -0.160278 3.00407e-05  -0.016593 -0.160455 3.27826e-05  -0.0162592 -0.154477 4.42266e-05  -0.0222883 -0.160231 -4.05312e-06  -0.0219293 -0.15426 1.60933e-05  -0.0162466 -0.154435 1.88351e-05  -0.0219121 -0.154219 -2.41995e-05  -0.0230212 -0.172292 5.57899e-05  -0.0172637 -0.172492 5.76973e-05  -0.0169423 -0.166505 6.3777e-05  -0.0230064 -0.172254 3.15905e-05  -0.0226674 -0.166273 4.35114e-05  -0.0169318 -0.166473 4.55379e-05  -0.0226526 -0.166242 1.45435e-05  -0.0236962 -0.184286 7.72476e-05  -0.0179064 -0.184503 7.85589e-05  -0.017597 -0.178524 8.11815e-05  -0.0236833 -0.184256 6.13928e-05  -0.0233622 -0.17828 6.7234e-05  -0.0175881 -0.1785 6.87838e-05  -0.0233495 -0.178257 4.72069e-05  -0.0243354 -0.196234 9.54866e-05  -0.0185239 -0.196466 9.64403e-05  -0.0182252 -0.190507 9.56059e-05  -0.0243239 -0.19621 8.58307e-05  -0.0240188 -0.190255 8.70228e-05  -0.018218 -0.19049 8.79765e-05  -0.0240078 -0.190238 7.42674e-05  -0.0249429 -0.20812 0.000110984  -0.0191181 -0.20836 0.000111461  -0.0188293 -0.202433 0.000107884  -0.0249331 -0.208099 0.000106454  -0.024642 -0.202173 0.000103474  -0.0188239 -0.202421 0.000103951  -0.0246317 -0.202162 9.65595e-05  -0.0255263 -0.219929 0.000124812  -0.0196936 -0.220173 0.000125408  -0.0194137 -0.214285 0.000119328  -0.0255167 -0.21991 0.000124812  -0.0252359 -0.214022 0.000118017  -0.0194077 -0.214276 0.000118375  -0.0252275 -0.214013 0.000115752  -0.0260956 -0.231649 0.000138164  -0.0202572 -0.231883 0.000138402  -0.0199816 -0.226051 0.000129938  -0.0260866 -0.231628 0.000142574  -0.0258102 -0.225789 0.000131726  -0.0199759 -0.226041 0.000131845  -0.0258017 -0.225779 0.000133634  -0.000199765 -0.00169578 -0.000125408  0 0 0  3.73423e-05 -0.00160614 1.66893e-06  1.20848e-05 -0.000580311 4.76837e-07  0 0 0  -0.000200942 -0.00161809 -0.000193596  -6.69844e-05 -0.000588149 -6.92606e-05  0 0 0  1.21966e-05 -0.000550419 9.53674e-07  -6.897e-05 -0.000558525 -0.000107408  -0.000606671 -0.00520444 -0.000202894  9.7692e-05 -0.0050306 3.45707e-06  6.51628e-05 -0.00323382 1.90735e-06  -0.000610635 -0.0050503 -0.000310898  -0.000383064 -0.00325152 -0.000169992  6.77854e-05 -0.00312942 2.38419e-06  -0.000384495 -0.0031462 -0.000261307  -0.00114566 -0.0100763 -0.00023663  0.000135571 -0.00984606 7.15256e-06  0.000115544 -0.00746307 4.64916e-06  -0.0011453 -0.00985762 -0.000362158  -0.00086394 -0.00748152 -0.000224233  0.000121593 -0.00728944 4.64916e-06  -0.000866383 -0.0073044 -0.000343561  -0.00174829 -0.0160331 -0.000237465  0.000123382 -0.0157858 1.39475e-05  0.000126898 -0.0129162 9.89437e-06  -0.00174236 -0.0157818 -0.000364542  -0.00144139 -0.0129227 -0.000240088  0.000136554 -0.0126891 1.01328e-05  -0.00143901 -0.0126933 -0.000367641  -0.00237823 -0.0229214 -0.00021863  5.07832e-05 -0.0226831 2.28882e-05  8.21352e-05 -0.0193677 1.71661e-05  -0.00236452 -0.022659 -0.000337481  -0.00206125 -0.0193558 -0.000229716  9.50694e-05 -0.0191212 1.80006e-05  -0.00205117 -0.0191068 -0.000353575  -0.00301886 -0.0306457 -0.00019002  -8.60095e-05 -0.0304342 3.27826e-05  -2.47359e-05 -0.0267068 2.55108e-05  -0.00299948 -0.0303876 -0.000297666  -0.00269663 -0.0266726 -0.00020504  -9.65595e-06 -0.0264562 2.75373e-05  -0.00268078 -0.0264208 -0.000318766  -0.00366753 -0.0391234 -0.00015831  -0.000285506 -0.0389485 4.27961e-05  -0.000194669 -0.0348402 3.43323e-05  -0.00364423 -0.0388794 -0.000252724  -0.00334209 -0.034783 -0.000174284  -0.00017792 -0.0345993 3.77893e-05  -0.00332046 -0.0345414 -0.000275612  -0.00432324 -0.0482758 -0.000126958  -0.000545025 -0.0481429 5.26905e-05  -0.00042516 -0.0436887 4.31538e-05  -0.00429785 -0.0480506 -0.000209212  -0.00399363 -0.043608 -0.000142336  -0.000408053 -0.0434641 4.79221e-05  -0.00396997 -0.0433832 -0.000230908  -0.00498593 -0.0580216 -9.69172e-05  -0.000859737 -0.0579328 6.13928e-05  -0.000712752 -0.0531708 5.126e-05  -0.00495982 -0.0578184 -0.000167251  -0.00465322 -0.053067 -0.00011158  -0.000695586 -0.0529664 5.6982e-05  -0.00462759 -0.0528628 -0.000188112  -0.00565422 -0.0682833 -6.9499e-05  -0.00122452 -0.0682387 6.91414e-05  -0.00105238 -0.063207 5.88894e-05  -0.00562906 -0.068102 -0.0001297  -0.00531816 -0.0630807 -8.28505e-05  -0.00103605 -0.0630244 6.52075e-05  -0.00529373 -0.0628985 -0.000148296  -0.00632644 -0.0789839 -4.42266e-05  -0.00163352 -0.0789817 7.59363e-05  -0.00143886 -0.073719 6.59227e-05  -0.00630271 -0.0788247 -9.4533e-05  -0.00598943 -0.073571 -5.66244e-05  -0.00142372 -0.0735583 7.25985e-05  -0.00596511 -0.073411 -0.000111938  -0.00699997 -0.090052 -2.13385e-05  -0.00208116 -0.0900899 8.21352e-05  -0.00186646 -0.084632 7.20024e-05  -0.00697803 -0.0899132 -6.33001e-05  -0.00666189 -0.0844642 -3.24249e-05  -0.00185275 -0.0844927 7.89165e-05  -0.00664032 -0.0843255 -7.87973e-05  -0.00767243 -0.101419 -3.57628e-07  -0.00256133 -0.101493 8.74996e-05  -0.00232959 -0.0958761 7.79629e-05  -0.00765252 -0.1013 -3.45707e-05  -0.00733566 -0.0956898 -1.03712e-05  -0.00231743 -0.0957567 8.47578e-05  -0.00731528 -0.0955712 -4.87566e-05  -0.00834084 -0.113023 1.89543e-05  -0.00306809 -0.113131 9.2268e-05  -0.00282228 -0.107385 8.33273e-05  -0.00832331 -0.112921 -8.9407e-06  -0.00800598 -0.107183 9.53674e-06  -0.00281143 -0.107285 8.97646e-05  -0.00798857 -0.107083 -2.16961e-05  -0.00900304 -0.124806 3.62396e-05  -0.00359607 -0.124943 9.65595e-05  -0.00333846 -0.1191 8.82149e-05  -0.00898767 -0.12472 1.45435e-05  -0.00867224 -0.118883 2.80142e-05  -0.00332963 -0.119016 9.44138e-05  -0.00865602 -0.1188 2.98023e-06  -0.00965667 -0.136717 5.19753e-05  -0.00414038 -0.13688 0.000100613  -0.00387394 -0.130966 9.27448e-05  -0.00964296 -0.136645 3.49283e-05  -0.0093298 -0.130736 4.43459e-05  -0.0038662 -0.130897 9.83477e-05  -0.00931644 -0.130668 2.47955e-05  -0.0102994 -0.148708 6.63996e-05  -0.00469589 -0.148894 0.000104547  -0.0044229 -0.142933 9.72748e-05  -0.0102878 -0.14865 5.4121e-05  -0.00997877 -0.142693 5.96046e-05  -0.00441694 -0.142878 0.000102401  -0.00996661 -0.142638 4.47035e-05  -0.0109301 -0.160741 7.89165e-05  -0.00525832 -0.160945 0.000107646  -0.00498104 -0.154959 0.000101447  -0.0109198 -0.160693 6.98566e-05  -0.0106149 -0.15471 7.27177e-05  -0.00497627 -0.154915 0.000105858  -0.0106053 -0.154667 6.19888e-05  -0.0115476 -0.172777 8.98838e-05  -0.00582409 -0.172996 0.000111222  -0.00554466 -0.167004 0.000105619  -0.011539 -0.172739 8.44002e-05  -0.0112395 -0.166748 8.45194e-05  -0.00554061 -0.166971 0.000109315  -0.0112307 -0.166715 7.71284e-05  -0.012152 -0.184789 9.97782e-05  -0.00639081 -0.185021 0.000114322  -0.00611019 -0.179036 0.000109553  -0.0121446 -0.184758 9.60827e-05  -0.0118499 -0.178775 9.52482e-05  -0.00610733 -0.179012 0.000112772  -0.0118434 -0.178751 9.03606e-05  -0.0127428 -0.196751 0.000108838  -0.00695515 -0.196992 0.000117898  -0.00667548 -0.19103 0.000113606  -0.0127363 -0.196726 0.000107169  -0.0124483 -0.190765 0.000104547  -0.00667334 -0.191013 0.00011611  -0.0124419 -0.190748 0.000101566  -0.01332 -0.208646 0.000116587  -0.00751567 -0.208894 0.000121355  -0.00723743 -0.202964 0.00011754  -0.0133145 -0.208625 0.00011611  -0.0130317 -0.202696 0.00011301  -0.007236 -0.202951 0.000119448  -0.013027 -0.202684 0.000111699  -0.0138855 -0.220459 0.000124335  -0.00807071 -0.220708 0.000125289  -0.00779557 -0.21482 0.000121951  -0.0138798 -0.220439 0.000125289  -0.0136032 -0.214551 0.00012064  -0.00779366 -0.214811 0.000123262  -0.0135982 -0.214542 0.00012064  -0.0144417 -0.232167 0.000131965  -0.00861788 -0.232413 0.000128746  -0.00834703 -0.226585 0.000126123  -0.0144353 -0.232145 0.000133514  -0.0141628 -0.226316 0.00012815  -0.00834537 -0.226574 0.000126958  -0.0141582 -0.226306 0.000129223  0.000271156 -0.00175768 0.000126958  0 0 0  0.000524312 -0.00184649 0.00039053  0.000176765 -0.000720501 0.000138521  0 0 0  0.000275835 -0.00168067 0.000196576  9.03159e-05 -0.000622869 6.98566e-05  0 0 0  0.000176907 -0.000693202 0.000217199  9.36091e-05 -0.000593841 0.000109196  0.000791609 -0.00530386 0.00020802  0.00153583 -0.00540894 0.000629663  0.000977635 -0.00356108 0.000344396  0.000806481 -0.00515181 0.000316024  0.000512317 -0.00333458 0.00017333  0.000988677 -0.00345707 0.000528812  0.000520393 -0.00323099 0.000265002  0.00139713 -0.0102017 0.000249982  0.00272411 -0.0102751 0.000742555  0.00210297 -0.00787669 0.00046134  0.00141487 -0.00998539 0.000375032  0.0010924 -0.00759441 0.000233054  0.00212142 -0.00770056 0.00069797  0.00110888 -0.00741976 0.000351667  0.00196612 -0.0161822 0.000263333  0.0038774 -0.0162222 0.000766635  0.00329039 -0.0133529 0.000508428  0.00198555 -0.0159335 0.000390649  0.00169054 -0.0130593 0.000259519  0.00331229 -0.0131242 0.000762582  0.00170961 -0.0128328 0.000386477  0.00244349 -0.0230972 0.000260234  0.00489795 -0.0231174 0.000740647  0.00438803 -0.0198039 0.000508904  0.0024603 -0.0228366 0.000381827  0.00221914 -0.0195177 0.000263214  0.00440705 -0.019556 0.000757456  0.00223637 -0.0192711 0.000388145  0.00280565 -0.0308515 0.000249028  0.00575238 -0.0308682 0.000690818  0.00533247 -0.0271403 0.000484586  0.00282079 -0.0305948 0.000361919  0.00263929 -0.026863 0.000255466  0.00534642 -0.0268897 0.000717163  0.00265533 -0.0266128 0.000372767  0.00305229 -0.0393623 0.000235438  0.00643915 -0.0393893 0.000633359  0.00610733 -0.0352768 0.000450373  0.00306559 -0.0391187 0.000337839  0.00294411 -0.035005 0.000242472  0.00611639 -0.035036 0.000662327  0.0029574 -0.0347642 0.000350118  0.00318861 -0.0485492 0.000221014  0.00696611 -0.0485938 0.000574946  0.00671679 -0.0441338 0.000413418  0.00320029 -0.048324 0.000313878  0.00313413 -0.0438639 0.000228405  0.00672203 -0.0439095 0.000604033  0.00314641 -0.0436395 0.000325918  0.00322258 -0.05833 0.000207305  0.00734484 -0.0583981 0.000518799  0.00717032 -0.0536285 0.00037694  0.00323331 -0.0581263 0.000289559  0.00321889 -0.0533579 0.000214219  0.00717342 -0.0534244 0.000546336  0.00322902 -0.0531535 0.0003016  0.00316358 -0.0686262 0.000194311  0.00758791 -0.0687182 0.000466347  0.00748169 -0.0636793 0.000342607  0.00317311 -0.068444 0.000267625  0.00320482 -0.0634063 0.000200748  0.00748277 -0.0634969 0.000491977  0.00321448 -0.0632237 0.000278473  0.00302052 -0.0793595 0.000182271  0.00770748 -0.0794767 0.000417471  0.00766277 -0.0742065 0.000310898  0.00302899 -0.0791991 0.000246406  0.00310302 -0.0739306 0.000188351  0.00766253 -0.0740458 0.000441432  0.00311112 -0.0737696 0.000256777  0.00280249 -0.0904578 0.000171304  0.00771594 -0.090598 0.000372529  0.00772619 -0.0851341 0.000281453  0.00281 -0.0903179 0.000227332  0.00292099 -0.0848551 0.000176787  0.007725 -0.0849946 0.000394583  0.00292861 -0.0847155 0.00023663  0.00251842 -0.101852 0.000161529  0.00762463 -0.102015 0.00033164  0.00768363 -0.0963915 0.000254989  0.00252497 -0.101732 0.000209212  0.00266945 -0.0961097 0.000166416  0.00768209 -0.0962719 0.000351548  0.00267518 -0.09599 0.000218034  0.00217712 -0.11348 0.000152588  0.00744605 -0.113662 0.000294328  0.00754786 -0.107913 0.000230789  0.00218248 -0.113378 0.000193238  0.00235522 -0.107629 0.000156999  0.00754595 -0.107811 0.000312567  0.00236058 -0.107527 0.000201106  0.00178671 -0.125284 0.000145078  0.00719023 -0.125484 0.00026083  0.0073297 -0.119637 0.000209093  0.001791 -0.125198 0.000178456  0.00198865 -0.119352 0.000148773  0.00732708 -0.119553 0.000277042  0.00199258 -0.119267 0.000185728  0.00135493 -0.137213 0.000138044  0.0068686 -0.137426 0.000230908  0.00704026 -0.13151 0.00019002  0.00135899 -0.13714 0.00016582  0.0015763 -0.131224 0.000141382  0.00703728 -0.131441 0.000245571  0.00157988 -0.131155 0.0001719  0.000890255 -0.149218 0.000132561  0.00649142 -0.149445 0.000205159  0.00668955 -0.143483 0.000173211  0.000893116 -0.149159 0.000154614  0.00112748 -0.143196 0.000135422  0.00668645 -0.143427 0.000217557  0.00112987 -0.143141 0.000159979  0.000398397 -0.161262 0.00012815  0.00606847 -0.161498 0.000182986  0.00628877 -0.155511 0.000159144  0.00040102 -0.161213 0.000145435  0.00064826 -0.155226 0.000130415  0.00628543 -0.155468 0.000193596  0.000650167 -0.155182 0.000149846  -0.000113487 -0.173307 0.000125051  0.00560904 -0.173551 0.000164866  0.00584579 -0.167558 0.000147104  -0.000111103 -0.173268 0.000137925  0.000146151 -0.167274 0.000126481  0.00584316 -0.167525 0.000173211  0.000147104 -0.16724 0.000141501  -0.000640154 -0.185325 0.000123024  0.00512004 -0.185575 0.000150323  0.00537062 -0.179591 0.000138283  -0.000638485 -0.185293 0.000132561  -0.000374317 -0.179308 0.000124216  0.00536799 -0.179567 0.000157118  -0.000372887 -0.179284 0.000135064  -0.00117707 -0.197291 0.000122428  0.00460935 -0.197545 0.000139713  0.00486994 -0.191584 0.000131965  -0.0011754 -0.197266 0.000128508  -0.000906467 -0.191303 0.000122786  0.00486708 -0.191566 0.000144601  -0.000905991 -0.191285 0.000130296  -0.00171995 -0.209188 0.000122786  0.00408387 -0.209444 0.000131726  0.00435138 -0.203516 0.000127435  -0.00171828 -0.209167 0.000126481  -0.00144744 -0.203237 0.000122786  0.00434804 -0.203503 0.000135303  -0.00144625 -0.203224 0.000127435  -0.00226474 -0.221001 0.000123858  0.0035491 -0.221258 0.000125527  0.00381947 -0.215371 0.000124931  -0.00226259 -0.220981 0.000125051  -0.00199103 -0.215093 0.000123143  0.00381732 -0.215361 0.000128388  -0.00199032 -0.215084 0.000125408  -0.00280428 -0.232709 0.000124812  0.00301671 -0.232969 0.000119686  0.00328374 -0.227137 0.000122786  -0.00280237 -0.232688 0.000124097  -0.00253463 -0.226858 0.000124454  0.00328183 -0.227126 0.000122309  -0.00253367 -0.226848 0.000124454  0.000778556 -0.00221086 0.000375867  0 0 0  0.00108862 -0.00252384 0.00077045  0.000372194 -0.00112718 0.000272751  0 0 0  0.00079295 -0.00212419 0.000580192  0.000263013 -0.000880778 0.000206113  0 0 0  0.000366434 -0.00109226 0.000420928  0.000265725 -0.000854552 0.000320792  0.00228575 -0.00597942 0.000616789  0.00315827 -0.00639075 0.00125432  0.00203133 -0.00444698 0.000684023  0.0023205 -0.00581986 0.000941753  0.00147206 -0.00392526 0.000514507  0.00204764 -0.00432146 0.00104892  0.00149718 -0.00381249 0.000788331  0.0040651 -0.010941 0.000734806  0.00556383 -0.0113177 0.00147808  0.0043253 -0.00891852 0.000917792  0.00410068 -0.0107188 0.00111008  0.00316411 -0.00831586 0.000689149  0.00435233 -0.00873047 0.00139427  0.00320071 -0.00813258 0.0010463  0.00580329 -0.016906 0.000762224  0.00788581 -0.0172205 0.00151753  0.00671795 -0.014388 0.00100601  0.00583643 -0.0166527 0.0011425  0.00494975 -0.0137959 0.000757098  0.00674731 -0.0141483 0.00151503  0.00498468 -0.0135621 0.00113797  0.00737482 -0.0237878 0.00073719  0.0099842 -0.0240536 0.0014565  0.00894237 -0.0207775 0.000999093  0.0073958 -0.0235245 0.00109863  0.00661528 -0.0202255 0.000753999  0.00896841 -0.020523 0.00149572  0.00664151 -0.0199739 0.001127  0.00872642 -0.031513 0.000687003  0.0118091 -0.0317502 0.00134802  0.0109165 -0.0280516 0.000943065  0.0087387 -0.0312546 0.00101924  0.00807923 -0.0275376 0.000714064  0.0109307 -0.0277971 0.0014056  0.00809485 -0.0272853 0.00106132  0.00985765 -0.0400037 0.000628471  0.0133643 -0.0402278 0.00122356  0.0126149 -0.0361373 0.000866175  0.00986236 -0.0397598 0.000928402  0.00931972 -0.0356552 0.000658393  0.0126202 -0.035895 0.00128663  0.00932759 -0.0354137 0.000974417  0.0107775 -0.0491785 0.000568986  0.0146623 -0.0493999 0.00109804  0.0140468 -0.0449553 0.000784159  0.0107777 -0.0489533 0.000836015  0.0103439 -0.0444981 0.000598669  0.0140442 -0.0447308 0.00116038  0.0103452 -0.0442738 0.00088191  0.0115018 -0.0589526 0.000511885  0.0157213 -0.0591769 0.000977516  0.0152277 -0.0544199 0.000703335  0.0114993 -0.0587489 0.000747919  0.0111636 -0.053983 0.000540137  0.0152208 -0.0542163 0.00103676  0.011162 -0.0537791 0.000791192  0.0120467 -0.069245 0.000458717  0.0165602 -0.0694758 0.000864983  0.0161769 -0.0644462 0.000627398  0.0120424 -0.0690629 0.000664949  0.011797 -0.0640264 0.000484943  0.0161673 -0.0642645 0.000920057  0.0117922 -0.0638441 0.000705719  0.0124279 -0.0799756 0.000409484  0.0171973 -0.0802138 0.000760317  0.0169139 -0.0749527 0.000556707  0.012423 -0.0798154 0.000588655  0.0122575 -0.0745475 0.000433564  0.016903 -0.0747927 0.000811338  0.0122524 -0.0743871 0.000625849  0.0126612 -0.0910718 0.000364542  0.0176504 -0.0913177 0.000664234  0.0174574 -0.0858616 0.000491858  0.012656 -0.0909319 0.000517964  0.0125633 -0.0854699 0.000386596  0.0174457 -0.0857227 0.000711083  0.012557 -0.0853305 0.000552416  0.0127615 -0.102464 0.000323415  0.0179372 -0.102716 0.000576377  0.0178252 -0.0971013 0.000432491  0.0127562 -0.102343 0.000453949  0.0127279 -0.0967224 0.00034368  0.0178138 -0.0969824 0.000619054  0.012722 -0.0966029 0.000485063  0.0127434 -0.114089 0.000286698  0.0180756 -0.114347 0.000496387  0.0180355 -0.108605 0.00037837  0.0127379 -0.113986 0.000395298  0.0127677 -0.108239 0.00030458  0.0180242 -0.108505 0.000535011  0.012761 -0.108137 0.000423551  0.0126207 -0.125889 0.000253439  0.0180814 -0.126152 0.000424504  0.0181051 -0.120313 0.000329852  0.0126152 -0.125802 0.000342846  0.0126948 -0.119958 0.000269771  0.0180942 -0.120229 0.000459194  0.0126891 -0.119874 0.000368357  0.0124068 -0.137812 0.000223994  0.0179718 -0.138079 0.00036037  0.0180506 -0.13217 0.00028646  0.0124018 -0.13774 0.000295639  0.0125256 -0.131826 0.000238299  0.0180402 -0.132101 0.000391364  0.0125191 -0.131757 0.000318289  0.0121152 -0.149813 0.000198722  0.0177619 -0.150081 0.000304699  0.0178881 -0.144126 0.000248432  0.0121105 -0.149753 0.000255108  0.0122707 -0.143793 0.000211  0.0178785 -0.144071 0.000331402  0.0122654 -0.143738 0.00027442  0.0117579 -0.16185 0.000176907  0.0174675 -0.162119 0.0002563  0.0176337 -0.156139 0.000215411  0.011754 -0.161801 0.000219703  0.0119452 -0.155817 0.000187516  0.0176246 -0.156096 0.000279188  0.0119395 -0.155773 0.000236511  0.0113475 -0.173888 0.000159502  0.017103 -0.174157 0.000216603  0.0173008 -0.168171 0.000187874  0.011344 -0.173849 0.000191092  0.0115595 -0.167858 0.000167727  0.0172935 -0.168138 0.000235319  0.0115554 -0.167825 0.000204444  0.0108941 -0.185898 0.000146031  0.0166819 -0.186167 0.000184417  0.016906 -0.18019 0.000165939  0.0108912 -0.185867 0.000167727  0.011127 -0.179886 0.000152349  0.0168989 -0.180166 0.000199437  0.0111225 -0.179861 0.000178456  0.0104077 -0.197858 0.000135899  0.0162168 -0.198125 0.000160098  0.0164609 -0.19217 0.000149131  0.0104048 -0.197832 0.000149965  0.0106552 -0.191873 0.000140786  0.0164542 -0.192152 0.000171423  0.0106518 -0.191855 0.000158072  0.00989699 -0.209749 0.000129104  0.0157192 -0.210014 0.00014174  0.0159786 -0.20409 0.000136971  0.00989437 -0.209727 0.000136614  0.0101559 -0.2038 0.000132322  0.0159714 -0.204077 0.000150084  0.0101523 -0.203788 0.000142574  0.00937033 -0.22156 0.000123739  0.0151992 -0.221824 0.000126481  0.0154674 -0.215937 0.000127912  0.00936794 -0.22154 0.000125766  0.00963616 -0.215652 0.000126362  0.0154614 -0.215927 0.000133753  0.00963283 -0.215642 0.000130773  0.00884223 -0.23328 0.000118971  0.0146747 -0.233551 0.00011301  0.0149412 -0.227706 0.00012064  0.0088408 -0.233258 0.000115514  0.0091064 -0.227419 0.000121474  0.0149355 -0.227696 0.000119448  0.00910306 -0.227409 0.000120521  0.00141531 -0.00318122 0.000622034  0 0 0  0.00182223 -0.00383663 0.00116932  0.000625379 -0.00193697 0.000411391  0 0 0  0.00142799 -0.00308132 0.00096035  0.000467993 -0.00146991 0.000338793  0 0 0  0.000608884 -0.00187689 0.000650883  0.000472479 -0.00142771 0.000528336  0.00410119 -0.00732845 0.00102663  0.00527605 -0.00814152 0.00188589  0.00345837 -0.00610703 0.00103092  0.00414845 -0.00715613 0.00157082  0.00266166 -0.00515264 0.000854135  0.00344065 -0.00592864 0.00158978  0.00269398 -0.00501066 0.00130773  0.00713688 -0.0123143 0.00122058  0.00897339 -0.0129866 0.00221848  0.00711673 -0.0106637 0.00137842  0.00718161 -0.0120769 0.00184762  0.00561655 -0.0096975 0.00114655  0.00714049 -0.0104479 0.00209606  0.00566411 -0.00949931 0.00174439  0.0100334 -0.0181901 0.00126076  0.0124314 -0.0187564 0.00227034  0.0107016 -0.0160023 0.00150537  0.010079 -0.0179253 0.00189531  0.00861084 -0.0151256 0.00125527  0.010736 -0.0157502 0.00227106  0.00865895 -0.0148807 0.00189161  0.0126694 -0.0249732 0.00121355  0.0155587 -0.0254629 0.00217426  0.0140073 -0.0222578 0.00148988  0.012696 -0.0247026 0.00181484  0.0113921 -0.0214577 0.00124443  0.0140397 -0.0219938 0.00223505  0.0114257 -0.0211987 0.00186563  0.0149792 -0.0326136 0.00112486  0.0183144 -0.0330544 0.00200713  0.0169625 -0.0294108 0.00140142  0.0149925 -0.0323524 0.00167727  0.0138652 -0.0286781 0.0011723  0.0169826 -0.029152 0.00209558  0.0138848 -0.0284214 0.00175011  0.0169674 -0.0410364 0.00102198  0.0207048 -0.0414454 0.00181699  0.0195464 -0.0373985 0.00128305  0.0169697 -0.0407916 0.00151956  0.0160139 -0.0367201 0.00107443  0.0195544 -0.0371549 0.00191343  0.0160202 -0.0364769 0.00159931  0.018648 -0.0501562 0.000917792  0.0227451 -0.0505449 0.00162482  0.0217686 -0.0461356 0.00115633  0.0186433 -0.049932 0.00136054  0.0178453 -0.0455024 0.000970006  0.0217671 -0.0459116 0.00172043  0.0178434 -0.045278 0.00143957  0.0200424 -0.0598842 0.000817657  0.0244592 -0.0602583 0.00143981  0.023649 -0.0555309 0.00103199  0.0200337 -0.0596817 0.00120771  0.0193807 -0.0549371 0.000867248  0.0236417 -0.0553295 0.00153112  0.0193726 -0.0547339 0.00128293  0.021173 -0.070136 0.000724435  0.0258693 -0.0704998 0.0012666  0.0252117 -0.0654967 0.000914216  0.021162 -0.0699561 0.00106514  0.0206401 -0.0649375 0.00077045  0.0252008 -0.0653175 0.00135183  0.0206295 -0.0647566 0.00113511  0.0220612 -0.0808303 0.00063777  0.0270003 -0.081185 0.00110555  0.0264812 -0.0759477 0.000804663  0.0220495 -0.0806717 0.000932217  0.0216472 -0.0754203 0.000680327  0.0264683 -0.0757908 0.00118458  0.0216348 -0.0752613 0.000997186  0.0227289 -0.0918927 0.000558496  0.0278745 -0.0922394 0.000957251  0.0274812 -0.0868057 0.000703454  0.022717 -0.0917547 0.000810385  0.0224222 -0.0863078 0.000597477  0.027468 -0.0866694 0.00102985  0.0224098 -0.0861697 0.000869989  0.0231967 -0.103253 0.000486016  0.0285163 -0.103591 0.00082159  0.0282365 -0.0979972 0.000610948  0.0231851 -0.103133 0.000698447  0.0229877 -0.0975271 0.000521421  0.0282232 -0.0978812 0.000887871  0.0229748 -0.097409 0.000753045  0.0234849 -0.114847 0.000420451  0.0289481 -0.115178 0.00069809  0.0287703 -0.109456 0.000526547  0.0234735 -0.114746 0.000597119  0.023363 -0.109012 0.000452399  0.0287572 -0.109358 0.00075829  0.0233507 -0.108912 0.000646472  0.0236127 -0.126618 0.000361323  0.0291923 -0.12694 0.000586867  0.0291048 -0.121121 0.000450253  0.0236025 -0.126532 0.000505686  0.0235685 -0.120701 0.000390172  0.0290923 -0.121039 0.000640869  0.0235571 -0.120618 0.000550151  0.0236001 -0.138514 0.00030899  0.0292704 -0.138828 0.000487804  0.029263 -0.132937 0.000382185  0.0235906 -0.138442 0.000424385  0.0236238 -0.132541 0.000334501  0.0292507 -0.13287 0.000535965  0.0236131 -0.132473 0.000463724  0.0234649 -0.150488 0.000263453  0.0292046 -0.150794 0.000401378  0.0292654 -0.144855 0.000322223  0.0234563 -0.150429 0.000352979  0.0235479 -0.144481 0.000285506  0.0292544 -0.144802 0.000442982  0.0235376 -0.144427 0.000387311  0.0232258 -0.1625 0.000224352  0.0290148 -0.162798 0.000326753  0.0291345 -0.156833 0.000270486  0.0232179 -0.162453 0.000292063  0.0233583 -0.156479 0.000243306  0.029124 -0.156792 0.000362396  0.023349 -0.156437 0.000321269  0.0228999 -0.174516 0.000192642  0.0287223 -0.174806 0.000264883  0.0288897 -0.168833 0.000226855  0.022893 -0.174478 0.000241041  0.0230739 -0.168497 0.000207663  0.0288804 -0.168802 0.000294209  0.0230656 -0.168465 0.000265241  0.0225043 -0.186507 0.00016737  0.0283465 -0.186789 0.00021553  0.0285525 -0.180824 0.000191808  0.0224984 -0.186476 0.00020051  0.022711 -0.180504 0.000179172  0.0285437 -0.180801 0.000238776  0.0227036 -0.18048 0.000219584  0.0220544 -0.198449 0.000148654  0.0279071 -0.198725 0.000178218  0.0281422 -0.192779 0.000164747  0.0220494 -0.198424 0.000169396  0.0222864 -0.192473 0.000157356  0.0281339 -0.192763 0.000195503  0.0222797 -0.192455 0.000183821  0.0215657 -0.210326 0.000135064  0.0274215 -0.210597 0.0001508  0.027678 -0.20468 0.000145316  0.0215602 -0.210305 0.00014627  0.0218148 -0.204384 0.000141501  0.027669 -0.204668 0.000163436  0.0218093 -0.204371 0.000157118  0.0210495 -0.22213 0.000124812  0.0269063 -0.222398 0.00012958  0.0271754 -0.216514 0.000131607  0.0210443 -0.22211 0.000127673  0.0213115 -0.216225 0.0001297  0.0271671 -0.216505 0.000139594  0.0213048 -0.216215 0.000136495  0.0205233 -0.233868 0.000115275  0.0263772 -0.234141 0.000110388  0.0266504 -0.228282 0.000120163  0.0205183 -0.233847 0.000110745  0.020787 -0.227994 0.000120163  0.0266423 -0.228274 0.000119686  0.020781 -0.227984 0.000119328  0.00262064 -0.00510025 0.000892043  0 0 0  0.00401974 -0.00633901 0.00156856  0.00181577 -0.00394696 0.000567794  0 0 0  0.00260925 -0.00493973 0.00135696  0.00085362 -0.00260359 0.000481367  0 0 0  0.00168259 -0.00378585 0.000866771  0.000861354 -0.00253731 0.000762463  0.00661626 -0.00950205 0.00144279  0.00849426 -0.0106293 0.00250375  0.00640324 -0.00852215 0.00138175  0.00672805 -0.00932783 0.0022186  0.00454521 -0.00725812 0.001212  0.00622232 -0.00840372 0.00213885  0.0046033 -0.00709289 0.00187492  0.0109352 -0.0142908 0.00170326  0.0132394 -0.0152113 0.00292563  0.0108926 -0.0130736 0.00181866  0.0109767 -0.0140388 0.00258374  0.00880745 -0.0118136 0.00160563  0.0108844 -0.0127798 0.00277722  0.00886512 -0.0115588 0.00245357  0.0149226 -0.0199878 0.00175261  0.0177355 -0.0207654 0.00299585  0.0155027 -0.018123 0.00197732  0.014976 -0.0197068 0.00264156  0.0129675 -0.0170069 0.00174797  0.0155304 -0.017854 0.00299728  0.0130182 -0.0167474 0.0026418  0.0185597 -0.0266081 0.00168562  0.0218323 -0.0272917 0.00287044  0.0197975 -0.0241879 0.00195956  0.0185956 -0.026328 0.00252879  0.0167932 -0.0231703 0.00172997  0.0198408 -0.0239042 0.00295246  0.0168366 -0.0228986 0.00260091  0.0217755 -0.0341181 0.00156105  0.0254736 -0.0347403 0.00265479  0.0236772 -0.0311711 0.00184667  0.0218006 -0.0338523 0.00233543  0.0202204 -0.0302433 0.00162792  0.0237103 -0.0309055 0.00277221  0.02025 -0.0299814 0.00243843  0.0245825 -0.0424329 0.00141609  0.0286617 -0.0430089 0.00240278  0.0271012 -0.0390269 0.00169158  0.0245938 -0.042186 0.0021137  0.0232308 -0.0381687 0.00149  0.0271242 -0.0387775 0.00253177  0.0232478 -0.0379227 0.00222647  0.0269874 -0.05146 0.00126839  0.0314075 -0.0520016 0.00214744  0.0300745 -0.0476441 0.00152397  0.0269927 -0.0512366 0.00188863  0.025834 -0.0468504 0.00134218  0.0300881 -0.0474206 0.00227618  0.0258409 -0.0466266 0.00200081  0.0290227 -0.0611061 0.00112569  0.0337415 -0.0616174 0.00189948  0.0326182 -0.0569389 0.00135791  0.0290211 -0.0609051 0.00167167  0.0280511 -0.0561996 0.00119627  0.0326247 -0.0567372 0.00202262  0.0280516 -0.0559979 0.00177884  0.0307075 -0.0712833 0.000992179  0.0356867 -0.0717689 0.00166678  0.0347584 -0.0668073 0.0011996  0.0307044 -0.0711061 0.0014683  0.0299077 -0.066121 0.00105798  0.034761 -0.0666313 0.00178242  0.029904 -0.0659431 0.00156844  0.0320755 -0.0819085 0.000867844  0.0372771 -0.0823691 0.00144994  0.0365257 -0.0771731 0.0010519  0.0320691 -0.0817523 0.001279  0.0314305 -0.0765331 0.000928879  0.0365249 -0.0770175 0.00155711  0.031425 -0.0763769 0.00137162  0.0331472 -0.0929063 0.00075376  0.0385365 -0.0933442 0.00125027  0.037948 -0.087946 0.00091517  0.0331417 -0.0927712 0.00110447  0.0326474 -0.0873528 0.000809789  0.0379463 -0.087814 0.00134897  0.0326402 -0.0872183 0.00118971  0.0339556 -0.104205 0.000649095  0.0394988 -0.10462 0.00106704  0.039057 -0.0990623 0.000789762  0.0339485 -0.104088 0.000944734  0.0335841 -0.0985104 0.000700355  0.0390534 -0.0989482 0.00115716  0.0335768 -0.098395 0.0010227  0.0345204 -0.115742 0.000554442  0.0401882 -0.116136 0.000900149  0.0398797 -0.110445 0.000674963  0.0345144 -0.115643 0.000799179  0.0342677 -0.109935 0.000600696  0.0398759 -0.110351 0.000982165  0.0342597 -0.109838 0.000869989  0.0348719 -0.127458 0.000469208  0.0406355 -0.12783 0.000749588  0.0404452 -0.122043 0.000571609  0.0348649 -0.127375 0.000668287  0.0347222 -0.121569 0.000510812  0.0404404 -0.121964 0.000823379  0.0347154 -0.121489 0.000731826  0.0350301 -0.139303 0.00039351  0.0408649 -0.139656 0.000615478  0.0407801 -0.133792 0.000478864  0.0350244 -0.139235 0.000551581  0.0349745 -0.133355 0.000430226  0.0407757 -0.13373 0.0006814  0.0349668 -0.13329 0.000607729  0.0350235 -0.15123 0.00032711  0.0409076 -0.151563 0.000498295  0.0409131 -0.145652 0.000396967  0.0350177 -0.151173 0.000449061  0.0350473 -0.145247 0.000359178  0.0409079 -0.145602 0.000555158  0.0350406 -0.145195 0.000498295  0.0348725 -0.1632 0.000270724  0.040786 -0.163516 0.000397086  0.0408702 -0.157573 0.000326395  0.034868 -0.163155 0.000361562  0.0349655 -0.1572 0.000297785  0.0408657 -0.157536 0.0004462  0.0349588 -0.15716 0.000403285  0.0346036 -0.175178 0.000224113  0.0405295 -0.175476 0.00031364  0.0406785 -0.169525 0.00026679  0.0345984 -0.175141 0.000288606  0.0347526 -0.169178 0.000246286  0.0406733 -0.169496 0.000353694  0.0347471 -0.169147 0.000322938  0.0342379 -0.187136 0.000187397  0.0401614 -0.187421 0.000246525  0.0403626 -0.181472 0.00021863  0.0342324 -0.187107 0.00023067  0.0344324 -0.181148 0.000204682  0.0403578 -0.181452 0.000278711  0.034426 -0.181126 0.000257492  0.0337994 -0.199051 0.000160098  0.0397117 -0.199323 0.000197172  0.0399516 -0.193392 0.000181556  0.0337934 -0.199027 0.00018692  0.0340273 -0.193088 0.000172734  0.0399451 -0.193378 0.000220299  0.0340211 -0.193072 0.000206709  0.0333099 -0.210909 0.000141382  0.0392044 -0.211175 0.000161886  0.0394707 -0.205266 0.000155687  0.0333025 -0.210889 0.000155568  0.0335603 -0.204976 0.000149727  0.039463 -0.205256 0.000178337  0.0335531 -0.204964 0.000169516  0.0327883 -0.222703 0.000127673  0.0386662 -0.222965 0.000137925  0.0389454 -0.217084 0.000138044  0.0327814 -0.222684 0.00013268  0.0330529 -0.216802 0.000133991  0.0389378 -0.217076 0.00014925  0.0330451 -0.216793 0.000143051  0.0322526 -0.234455 0.000115275  0.0381198 -0.234715 0.000116229  0.0384042 -0.228852 0.000125408  0.0322435 -0.234431 0.000110984  0.0325227 -0.228569 0.000121713  0.0383935 -0.228842 0.000127316  0.0325139 -0.22856 0.000121951  -0.00414775 -0.00625323 -0.000488162  -0.00187463 -0.00382382 8.22544e-06  0 0 0  -0.00259747 -0.00482854 1.45435e-05  0 0 0  -0.00182016 -0.00366995 -0.000369072  -0.000614263 -0.00182678 5.96046e-06  0 0 0  -0.00180888 -0.00382715 -0.000278234  -0.0026373 -0.00480383 -0.00044179  -0.000854034 -0.00248662 7.39098e-06  0 0 0  -0.00063229 -0.00180119 -0.000202894  -0.000878256 -0.00250916 -0.000247717  -0.00866055 -0.010248 -0.000818014  -0.00648248 -0.00823259 2.25306e-05  -0.00659518 -0.00907301 2.5034e-05  -0.00517376 -0.00786861 -0.000614166  -0.00333545 -0.0057509 1.77622e-05  -0.00640653 -0.00818192 -0.000715733  -0.00667728 -0.00898894 -0.000727415  -0.00454699 -0.00693468 2.08616e-05  -0.00340682 -0.00571677 -0.000506759  -0.00460033 -0.00686229 -0.000592709  -0.0133264 -0.01478 -0.000965118  -0.0110332 -0.0124619 3.06368e-05  -0.0108794 -0.0137366 3.08752e-05  -0.00880077 -0.0126808 -0.000727057  -0.00694987 -0.0102095 2.55108e-05  -0.0109967 -0.0123959 -0.000905037  -0.0108926 -0.0136698 -0.00084424  -0.00874975 -0.0112834 2.8491e-05  -0.00697404 -0.0101669 -0.000685573  -0.00878006 -0.0112217 -0.000810027  -0.0179018 -0.0201037 -0.00098455  -0.0156487 -0.017388 3.51667e-05  -0.0149805 -0.0192268 3.51667e-05  -0.012354 -0.0183206 -0.000739098  -0.0105896 -0.015439 3.03984e-05  -0.0156392 -0.017325 -0.000988722  -0.0149939 -0.0191556 -0.000866175  -0.0129552 -0.01636 3.31402e-05  -0.0105958 -0.0153887 -0.000743389  -0.0129689 -0.0162982 -0.000865936  -0.0222026 -0.026334 -0.0009377  -0.0200948 -0.0231603 3.88622e-05  -0.0188264 -0.0256063 3.91006e-05  -0.0156934 -0.0248395 -0.000700712  -0.0140473 -0.0215237 3.45707e-05  -0.0200941 -0.0230999 -0.000966549  -0.018829 -0.025539 -0.000819921  -0.0169407 -0.02229 3.70741e-05  -0.0140527 -0.0214698 -0.000725746  -0.0169473 -0.0222337 -0.000849724  -0.0261611 -0.0334376 -0.000852823  -0.0242291 -0.029837 4.27961e-05  -0.0223594 -0.032842 4.33922e-05  -0.0187755 -0.0321991 -0.000632405  -0.0172666 -0.0284696 3.89814e-05  -0.0242267 -0.0297802 -0.0008986  -0.0223596 -0.0327774 -0.000743985  -0.0206318 -0.0291092 4.12464e-05  -0.017267 -0.0284167 -0.000668764  -0.0206329 -0.0290537 -0.000784278  -0.029765 -0.0413452 -0.000755548  -0.0280111 -0.0373456 4.72069e-05  -0.0255834 -0.0408657 4.79221e-05  -0.0215939 -0.0403359 -0.000556469  -0.0202184 -0.0362231 4.33922e-05  -0.0280076 -0.0372945 -0.000803709  -0.0255789 -0.0408063 -0.000656128  -0.024009 -0.036746 4.56572e-05  -0.0202165 -0.0361735 -0.000595331  -0.0240069 -0.0366961 -0.000701189  -0.0330257 -0.0499725 -0.00065577  -0.0314434 -0.0456216 5.19753e-05  -0.0285071 -0.049598 5.28097e-05  -0.0241635 -0.0491706 -0.000479341  -0.0229135 -0.0447157 4.81606e-05  -0.0314376 -0.0455747 -0.0007056  -0.0285013 -0.0495433 -0.000567913  -0.0270811 -0.0451374 5.04255e-05  -0.0229087 -0.04467 -0.000517726  -0.0270756 -0.0450905 -0.000611544  -0.0359645 -0.059236 -0.000560522  -0.0345409 -0.0545697 5.6982e-05  -0.0311542 -0.0589556 5.79357e-05  -0.0265 -0.0586224 -0.000405788  -0.0253656 -0.0538632 5.32866e-05  -0.0345343 -0.0545291 -0.000606418  -0.0311459 -0.0589065 -0.000483036  -0.029863 -0.05419 5.54323e-05  -0.0253593 -0.0538228 -0.000442266  -0.0298566 -0.0541498 -0.000525117  -0.038604 -0.0690531 -0.000471234  -0.0373284 -0.0641171 6.2108e-05  -0.0335419 -0.0688586 6.30617e-05  -0.0286231 -0.0686112 -0.000337005  -0.0275944 -0.0635895 5.8651e-05  -0.0373205 -0.0640807 -0.000514984  -0.033534 -0.068814 -0.000404239  -0.0323783 -0.0638326 6.06775e-05  -0.0275872 -0.0635534 -0.000371099  -0.0323704 -0.0637959 -0.000442505  -0.0409676 -0.0793466 -0.00038898  -0.0398265 -0.0741749 6.7234e-05  -0.0356935 -0.0792295 6.81877e-05  -0.0305479 -0.0790607 -0.000274181  -0.0296162 -0.0738123 6.38962e-05  -0.0398194 -0.0741439 -0.000428081  -0.0356847 -0.0791899 -0.000331402  -0.0346451 -0.0739766 6.58035e-05  -0.0296091 -0.0737813 -0.000305295  -0.0346375 -0.073946 -0.000367165  -0.0430762 -0.0900429 -0.000313401  -0.0420605 -0.084676 7.236e-05  -0.0376242 -0.0899965 7.34329e-05  -0.0322906 -0.0898987 -0.000216246  -0.0314484 -0.0844612 6.90222e-05  -0.0420529 -0.0846487 -0.000350118  -0.0376164 -0.0899607 -0.000264883  -0.0366845 -0.0845562 7.09295e-05  -0.0314411 -0.0844342 -0.000244975  -0.0366765 -0.0845289 -0.00029707  -0.0449494 -0.101075 -0.000244856  -0.0440477 -0.0955424 7.72476e-05  -0.0393538 -0.101091 7.82013e-05  -0.0338634 -0.101058 -0.000163913  -0.0331037 -0.095463 7.41482e-05  -0.0440412 -0.0955198 -0.000277281  -0.0393454 -0.10106 -0.000203967  -0.0385121 -0.0954935 7.60555e-05  -0.033097 -0.0954403 -0.0001899  -0.0385048 -0.095471 -0.000233769  -0.0466058 -0.112379 -0.000182509  -0.0458105 -0.106715 8.21352e-05  -0.040895 -0.112451 8.30889e-05  -0.0352796 -0.112475 -0.000115633  -0.0345966 -0.106756 7.90358e-05  -0.0458038 -0.106696 -0.00021255  -0.040888 -0.112423 -0.000148892  -0.040146 -0.10673 8.08239e-05  -0.0345901 -0.106736 -0.000139594  -0.0401387 -0.10671 -0.000175595  -0.0480644 -0.123898 -0.000126004  -0.0473646 -0.11813 8.69036e-05  -0.0422664 -0.12402 8.82149e-05  -0.0365518 -0.124094 -7.25985e-05  -0.0359383 -0.118277 8.41618e-05  -0.047359 -0.118114 -0.000152349  -0.0422591 -0.123995 -9.87053e-05  -0.0415999 -0.1182 8.58307e-05  -0.0359329 -0.118261 -9.38177e-05  -0.0415934 -0.118184 -0.000123143  -0.0493425 -0.135579 -7.53403e-05  -0.0487305 -0.129734 9.20296e-05  -0.0434805 -0.135743 9.32217e-05  -0.0376927 -0.135861 -3.33786e-05  -0.0371431 -0.129974 8.92878e-05  -0.0487251 -0.129721 -9.93013e-05  -0.0434743 -0.135721 -5.40018e-05  -0.0428911 -0.129853 9.08375e-05  -0.0371379 -0.129961 -5.25713e-05  -0.0428849 -0.12984 -7.54595e-05  -0.0504584 -0.147374 -3.03984e-05  -0.0499241 -0.141474 9.69172e-05  -0.0445547 -0.147575 9.82285e-05  -0.0387137 -0.14773 9.53674e-07  -0.0382218 -0.141795 9.42945e-05  -0.0499196 -0.141464 -5.11408e-05  -0.0445483 -0.147555 -1.40667e-05  -0.0440331 -0.141635 9.57251e-05  -0.0382171 -0.141784 -1.58548e-05  -0.0440278 -0.141625 -3.34978e-05  -0.0514312 -0.159242 8.34465e-06  -0.050966 -0.153309 0.000101805  -0.0455039 -0.159473 0.000102997  -0.0396287 -0.15966 3.15905e-05  -0.0391877 -0.153697 9.91821e-05  -0.0509615 -0.153301 -9.77516e-06  -0.0454977 -0.159455 2.03848e-05  -0.0450428 -0.153506 0.000100613  -0.0391834 -0.153688 1.65701e-05  -0.0450375 -0.153498 3.8147e-06  -0.0522799 -0.171146 4.13656e-05  -0.0518737 -0.165197 0.000106335  -0.046345 -0.1714 0.000107884  -0.0404503 -0.171612 5.76973e-05  -0.0400538 -0.16564 0.000104427  -0.0518694 -0.165191 2.64645e-05  -0.046339 -0.171384 5.00679e-05  -0.0459352 -0.165422 0.000105381  -0.04005 -0.165633 4.49419e-05  -0.0459306 -0.165416 3.57628e-05  -0.053025 -0.183053 6.87838e-05  -0.0526683 -0.177105 0.000111461  -0.0470943 -0.183326 0.000112772  -0.0411932 -0.183557 7.95126e-05  -0.0408342 -0.17759 0.000109434  -0.0526638 -0.1771 5.66244e-05  -0.0470891 -0.183311 7.45058e-05  -0.0467288 -0.177352 0.000110507  -0.0408304 -0.177586 6.8903e-05  -0.0467241 -0.177348 6.33001e-05  -0.053688 -0.194939 9.13143e-05  -0.0533688 -0.189002 0.000116348  -0.047771 -0.195223 0.000118136  -0.0418711 -0.195469 9.77516e-05  -0.0415425 -0.18952 0.00011456  -0.0533655 -0.188999 8.15392e-05  -0.0477653 -0.19521 9.53674e-05  -0.0474396 -0.189267 0.000115633  -0.0415392 -0.189517 8.89301e-05  -0.047435 -0.189263 8.54731e-05  -0.0542922 -0.206784 0.000109076  -0.0539994 -0.200869 0.000121832  -0.0483932 -0.207075 0.000123739  -0.0424986 -0.207329 0.000112772  -0.0421932 -0.201407 0.000119805  -0.0539961 -0.200866 0.000101566  -0.0483871 -0.207062 0.000111103  -0.0480866 -0.201143 0.000120878  -0.0421903 -0.201404 0.000105381  -0.0480816 -0.20114 0.000103712  -0.054863 -0.218581 0.000122905  -0.0545828 -0.212691 0.000126958  -0.048979 -0.218871 0.000128627  -0.0430901 -0.219127 0.000125527  -0.0428019 -0.213237 0.000125289  -0.0545797 -0.212689 0.000116706  -0.0489726 -0.218858 0.00012517  -0.0486884 -0.212968 0.000126123  -0.0427978 -0.213234 0.00011909  -0.0486832 -0.212966 0.000118494  -0.0554233 -0.230345 0.000137448  -0.0551469 -0.224466 0.000132203  -0.0495472 -0.230627 0.00013411  -0.0436635 -0.230877 0.00013864  -0.0433819 -0.225007 0.000130415  -0.0551431 -0.224463 0.000130534  -0.0495403 -0.230616 0.000138402  -0.0492628 -0.224738 0.000131488  -0.0433767 -0.225005 0.000131726  -0.0492573 -0.224737 0.000131249  -0.001383 -0.00296678 1.01328e-05  0 0 0  -0.00101367 -0.00240578 -0.000243187  -0.000349063 -0.00102217 3.93391e-06  0 0 0  -0.00137208 -0.00292683 -0.000309467  -0.000461381 -0.00135225 5.126e-06  0 0 0  -0.000347912 -0.00101502 -0.000132084  -0.000460286 -0.00133809 -0.00016439  -0.00396119 -0.00699629 1.89543e-05  -0.00295471 -0.0062587 -0.00040257  -0.00190936 -0.00422193 1.23978e-05  -0.00397104 -0.00695693 -0.000507474  -0.00257815 -0.00485478 1.51396e-05  -0.00190581 -0.00418842 -0.000337839  -0.00257646 -0.00482427 -0.000419974  -0.00694719 -0.0119019 2.51532e-05  -0.00530693 -0.0111828 -0.000477076  -0.00410956 -0.00863814 1.90735e-05  -0.00695413 -0.0118483 -0.000599504  -0.00543857 -0.00932907 2.25306e-05  -0.00410885 -0.00860225 -0.000449061  -0.00544524 -0.00929159 -0.000564814  -0.0099293 -0.0176733 2.99215e-05  -0.0076963 -0.0170344 -0.000486255  -0.00650755 -0.0140419 2.44379e-05  -0.00993395 -0.0176114 -0.000611544  -0.0084517 -0.0146669 2.77758e-05  -0.00650758 -0.0139951 -0.00048697  -0.00845718 -0.0146181 -0.000614166  -0.0127563 -0.0243083 3.40939e-05  -0.00998765 -0.0237629 -0.000457168  -0.00886083 -0.0203409 2.90871e-05  -0.0127557 -0.0242448 -0.000578523  -0.0113667 -0.0208718 3.20673e-05  -0.00885981 -0.0202902 -0.000474811  -0.011368 -0.0208193 -0.000599265  -0.0153769 -0.0317722 3.86238e-05  -0.0121242 -0.0313179 -0.000410438  -0.0110791 -0.0274909 3.38554e-05  -0.0153725 -0.0317106 -0.000520945  -0.0140929 -0.0279284 3.65973e-05  -0.0110755 -0.0274396 -0.000434995  -0.0140907 -0.0278759 -0.000551343  -0.0177847 -0.04 4.35114e-05  -0.0141029 -0.0396306 -0.000357032  -0.0131388 -0.0354313 3.8743e-05  -0.0177771 -0.039942 -0.000456452  -0.0166063 -0.0357829 4.12464e-05  -0.0131332 -0.0353823 -0.000383973  -0.0166005 -0.0357332 -0.000489235  -0.0199905 -0.0489166 4.86374e-05  -0.0159307 -0.0486255 -0.000303507  -0.0150422 -0.0440913 4.3869e-05  -0.019981 -0.0488631 -0.000391006  -0.0189111 -0.0443652 4.62532e-05  -0.0150346 -0.044046 -0.000330091  -0.0189033 -0.0443195 -0.000423312  -0.0220094 -0.0584417 5.37634e-05  -0.0176197 -0.0582228 -0.000252604  -0.0168002 -0.0533928 4.92334e-05  -0.0219985 -0.0583928 -0.000329137  -0.0210215 -0.0535957 5.13792e-05  -0.0167918 -0.0533518 -0.000277638  -0.0210119 -0.0535546 -0.000359654  -0.0238565 -0.0684977 5.93662e-05  -0.0191815 -0.0683453 -0.00020504  -0.0184245 -0.0632577 5.45979e-05  -0.0238457 -0.0684537 -0.000270963  -0.0229524 -0.0633962 5.68628e-05  -0.0184155 -0.0632215 -0.000228405  -0.0229425 -0.0633598 -0.000299215  -0.0255451 -0.0790076 6.47306e-05  -0.0206252 -0.0789165 -0.00016129  -0.019926 -0.0736093 5.99623e-05  -0.0255346 -0.078968 -0.000217557  -0.024719 -0.0736881 6.22272e-05  -0.0199176 -0.0735775 -0.000182867  -0.0247089 -0.0736564 -0.000243783  -0.0270876 -0.0899011 6.99759e-05  -0.0219597 -0.0898656 -0.000121236  -0.0213138 -0.0843738 6.56843e-05  -0.0270772 -0.0898656 -0.0001688  -0.0263327 -0.0843988 6.74725e-05  -0.0213053 -0.0843463 -0.000140786  -0.0263234 -0.0843712 -0.000192523  -0.0284936 -0.101109 7.49826e-05  -0.0231915 -0.101124 -8.44002e-05  -0.0225955 -0.0954818 7.08103e-05  -0.0284837 -0.101078 -0.000124216  -0.0278059 -0.0954575 7.25985e-05  -0.0225878 -0.0954582 -0.00010252  -0.0277966 -0.0954341 -0.000146031  -0.0297735 -0.112571 8.02279e-05  -0.0243273 -0.112631 -5.09024e-05  -0.0237781 -0.106869 7.60555e-05  -0.0297644 -0.112543 -8.34465e-05  -0.0291475 -0.1068 7.77245e-05  -0.0237706 -0.106849 -6.74725e-05  -0.0291393 -0.10678 -0.000103354  -0.0309365 -0.124229 8.55923e-05  -0.0253742 -0.124329 -2.03848e-05  -0.0248679 -0.118474 8.14199e-05  -0.0309279 -0.124204 -4.66108e-05  -0.0303681 -0.118367 8.30889e-05  -0.0248616 -0.118458 -3.54052e-05  -0.0303597 -0.11835 -6.4373e-05  -0.0319923 -0.136031 9.05991e-05  -0.0263381 -0.136165 6.79493e-06  -0.0258719 -0.130244 8.67844e-05  -0.0319844 -0.136008 -1.32322e-05  -0.031476 -0.130103 8.82149e-05  -0.0258659 -0.130231 -6.4373e-06  -0.0314689 -0.130089 -2.95639e-05  -0.0329502 -0.147928 9.56059e-05  -0.027226 -0.148093 3.14713e-05  -0.0267963 -0.142129 9.19104e-05  -0.032943 -0.147909 1.62125e-05  -0.0324819 -0.141958 9.32217e-05  -0.0267911 -0.142118 1.95503e-05  -0.0324752 -0.141947 1.78814e-06  -0.0338202 -0.159882 0.000100613  -0.0280445 -0.160071 5.30481e-05  -0.027648 -0.154085 9.70364e-05  -0.0338137 -0.159864 4.22001e-05  -0.0333941 -0.153888 9.84669e-05  -0.027643 -0.154076 4.26769e-05  -0.0333886 -0.15388 2.99215e-05  -0.0346131 -0.171854 0.000105858  -0.0288019 -0.172064 7.21216e-05  -0.0284345 -0.166073 0.000102043  -0.0346069 -0.171838 6.46114e-05  -0.0342245 -0.165855 0.000103354  -0.0284302 -0.166066 6.28233e-05  -0.034219 -0.165849 5.37634e-05  -0.0353394 -0.183814 0.000111103  -0.029505 -0.18404 8.85725e-05  -0.0291636 -0.178059 0.000107408  -0.0353334 -0.1838 8.40425e-05  -0.0349827 -0.177825 0.0001086  -0.0291593 -0.178054 8.04663e-05  -0.0349777 -0.17782 7.47442e-05  -0.0360098 -0.195737 0.000116229  -0.0301619 -0.195976 0.00010252  -0.0298421 -0.190017 0.000112772  -0.0360041 -0.195723 9.97782e-05  -0.0356798 -0.189769 0.000113964  -0.0298388 -0.190013 9.58443e-05  -0.0356748 -0.189765 9.2268e-05  -0.0366352 -0.207605 0.000121593  -0.0307803 -0.207852 0.000114441  -0.0304782 -0.201923 0.000117898  -0.0366299 -0.207592 0.000113606  -0.0363266 -0.201666 0.000119209  -0.0304754 -0.20192 0.00010848  -0.0363216 -0.201663 0.00010705  -0.0372272 -0.219406 0.000126719  -0.0313685 -0.219657 0.00012517  -0.031081 -0.213764 0.000123024  -0.0372217 -0.219394 0.000125527  -0.0369337 -0.213502 0.000124216  -0.0310776 -0.213762 0.000119925  -0.0369289 -0.213499 0.000119567  -0.037802 -0.231148 0.000132203  -0.0319431 -0.231387 0.000136018  -0.0316589 -0.225533 0.000128508  -0.0377965 -0.231134 0.000137329  -0.0375133 -0.225272 0.0001297  -0.0316551 -0.22553 0.000130534  -0.037509 -0.225269 0.000131369  -0.000708088 -0.00207967 6.4373e-06  0 0 0  -0.000442937 -0.00182787 -0.000122309  -0.00015324 -0.000673443 2.02656e-06  0 0 0  -0.00071013 -0.00205353 -0.000183463  -0.000240587 -0.000804871 3.09944e-06  0 0 0  -0.000151463 -0.000668317 -6.74725e-05  -0.000239842 -0.000800043 -0.000100732  -0.00210507 -0.00581005 1.29938e-05  -0.00132765 -0.00544062 -0.000198126  -0.000844285 -0.00347921 7.39098e-06  -0.00210828 -0.00576511 -0.000299811  -0.00134495 -0.00377223 9.89437e-06  -0.00084278 -0.00345954 -0.000165582  -0.00134733 -0.0037432 -0.000250459  -0.00382411 -0.0107373 1.87159e-05  -0.00244883 -0.0103543 -0.00023222  -0.00187078 -0.00779408 1.28746e-05  -0.00382778 -0.0106864 -0.000353694  -0.00294191 -0.00813246 1.62125e-05  -0.00186852 -0.00776049 -0.000220656  -0.00294548 -0.00809303 -0.000333071  -0.0056183 -0.0166574 2.38419e-05  -0.00364694 -0.0163071 -0.000234127  -0.00304589 -0.0132571 1.83582e-05  -0.00561965 -0.0165986 -0.000359297  -0.00472227 -0.0135718 2.15769e-05  -0.00304443 -0.0132127 -0.000236511  -0.00472412 -0.0135261 -0.000361681  -0.00736213 -0.0234628 2.88486e-05  -0.00483614 -0.0231654 -0.00021708  -0.00424719 -0.0196764 2.34842e-05  -0.00735992 -0.0234019 -0.000336528  -0.00650012 -0.0199416 2.64645e-05  -0.00424516 -0.0196271 -0.000227809  -0.00649977 -0.019891 -0.000350475  -0.00901037 -0.0310895 3.38554e-05  -0.00598329 -0.0308476 -0.000190139  -0.00541937 -0.0269567 2.86102e-05  -0.00900507 -0.0310288 -0.000299811  -0.00819898 -0.0271657 3.1352e-05  -0.00541556 -0.0269065 -0.000204325  -0.0081951 -0.0271149 -0.0003196  -0.0105546 -0.0394661 3.89814e-05  -0.00708181 -0.0392802 -0.00015986  -0.00654376 -0.0350213 3.40939e-05  -0.0105468 -0.0394088 -0.000257969  -0.00979471 -0.0351762 3.67165e-05  -0.00653845 -0.0349731 -0.000175118  -0.00978863 -0.0351273 -0.000279188  -0.0119991 -0.0485187 4.44651e-05  -0.00813401 -0.0483847 -0.0001297  -0.00761974 -0.0437963 3.94583e-05  -0.0119899 -0.0484647 -0.000216365  -0.011288 -0.0439004 4.19617e-05  -0.00761336 -0.0437514 -0.00014472  -0.0112799 -0.0438551 -0.000236988  -0.0133519 -0.0581678 4.98295e-05  -0.00914359 -0.0580843 -0.000100851  -0.00865066 -0.0532039 4.50611e-05  -0.0133423 -0.0581188 -0.00017643  -0.0126855 -0.0532609 4.73261e-05  -0.00864387 -0.0531631 -0.000115156  -0.0126768 -0.0532198 -0.000196099  -0.0146211 -0.0683381 5.54323e-05  -0.010114 -0.0683003 -7.4029e-05  -0.00964057 -0.0631672 5.06639e-05  -0.0146111 -0.0682931 -0.000139594  -0.0139956 -0.0631803 5.26905e-05  -0.00963342 -0.0631307 -8.73804e-05  -0.0139865 -0.0631437 -0.000157714  -0.0158124 -0.0789523 6.10352e-05  -0.0110476 -0.0789587 -4.92334e-05  -0.0105919 -0.0736091 5.6386e-05  -0.0158027 -0.0789123 -0.000105023  -0.0152253 -0.0735817 5.82933e-05  -0.0105852 -0.073577 -6.13928e-05  -0.0152162 -0.0735496 -0.00012207  -0.0169308 -0.089941 6.65188e-05  -0.0119452 -0.0899864 -2.63453e-05  -0.0115072 -0.0844567 6.18696e-05  -0.0169215 -0.0899047 -7.36713e-05  -0.0163795 -0.084392 6.40154e-05  -0.0115006 -0.0844288 -3.76701e-05  -0.0163707 -0.0843642 -8.90493e-05  -0.0179803 -0.101235 7.1764e-05  -0.0128078 -0.101317 -5.24521e-06  -0.012387 -0.0956402 6.75917e-05  -0.0179715 -0.101203 -4.45843e-05  -0.0174628 -0.0955415 6.93798e-05  -0.0123807 -0.0956163 -1.56164e-05  -0.0174549 -0.0955176 -5.90086e-05  -0.0189644 -0.112774 7.73668e-05  -0.0136356 -0.112888 1.41859e-05  -0.0132316 -0.107095 7.31945e-05  -0.0189563 -0.112745 -1.84774e-05  -0.0184792 -0.106966 7.47442e-05  -0.0132258 -0.107075 4.64916e-06  -0.0184716 -0.106945 -3.12328e-05  -0.0198869 -0.1245 8.29697e-05  -0.0144295 -0.124643 3.19481e-05  -0.0140418 -0.118761 7.86781e-05  -0.0198792 -0.124474 6.07967e-06  -0.0194322 -0.118604 8.01086e-05  -0.0140368 -0.118744 2.3365e-05  -0.019425 -0.118588 -6.07967e-06  -0.0207509 -0.13636 8.78572e-05  -0.0151898 -0.136527 4.82798e-05  -0.0148183 -0.130584 8.40425e-05  -0.020744 -0.136337 2.72989e-05  -0.0203251 -0.130404 8.55923e-05  -0.0148138 -0.13057 4.00543e-05  -0.0203184 -0.13039 1.69277e-05  -0.0215609 -0.148309 9.32217e-05  -0.0159178 -0.148498 6.27041e-05  -0.0155618 -0.142514 8.9407e-05  -0.0215542 -0.148288 4.72069e-05  -0.0211613 -0.142314 9.09567e-05  -0.0155578 -0.142503 5.55515e-05  -0.0211556 -0.142303 3.75509e-05  -0.0223207 -0.160305 9.84669e-05  -0.0166144 -0.160511 7.59363e-05  -0.0162735 -0.154508 9.47714e-05  -0.0223145 -0.160286 6.44922e-05  -0.0219457 -0.154291 9.60827e-05  -0.0162697 -0.154499 6.96182e-05  -0.0219402 -0.154282 5.60284e-05  -0.023035 -0.172311 0.000103831  -0.0172818 -0.172533 8.78572e-05  -0.0169547 -0.166528 9.98974e-05  -0.0230293 -0.172295 7.99894e-05  -0.022682 -0.166296 0.000101089  -0.0169516 -0.166521 8.18968e-05  -0.0226772 -0.166289 7.22408e-05  -0.0237086 -0.184299 0.000109076  -0.0179224 -0.184532 9.84669e-05  -0.0176082 -0.17854 0.000105381  -0.0237031 -0.184284 9.34601e-05  -0.0233757 -0.178297 0.000106573  -0.0176051 -0.178535 9.34601e-05  -0.0233707 -0.178292 8.67844e-05  -0.0243464 -0.196243 0.000114202  -0.0185375 -0.196486 0.000107884  -0.0182354 -0.190518 0.000110865  -0.0243411 -0.196229 0.000105143  -0.0240304 -0.190266 0.000111938  -0.0182328 -0.190514 0.000103235  -0.0240264 -0.190261 9.94205e-05  -0.0249536 -0.208126 0.000119805  -0.0191309 -0.208374 0.000116348  -0.0188389 -0.20244 0.000115991  -0.0249488 -0.208112 0.000115514  -0.0246527 -0.202181 0.000117421  -0.0188367 -0.202437 0.000112176  -0.024648 -0.202178 0.000110388  -0.0255363 -0.219933 0.000125051  -0.0197055 -0.220184 0.000124454  -0.0194225 -0.21429 0.000121117  -0.0255315 -0.219921 0.00012517  -0.0252464 -0.214027 0.000122428  -0.0194199 -0.214288 0.000120282  -0.0252426 -0.214024 0.000120163  -0.0261061 -0.231654 0.000130177  -0.0202694 -0.231898 0.000132322  -0.0199902 -0.226056 0.000126839  -0.0261009 -0.231641 0.00013423  -0.0258203 -0.225794 0.000127792  -0.0199876 -0.226053 0.000128508  -0.0258162 -0.225791 0.00012958  -0.000199974 -0.00174335 3.09944e-06  0 0 0  3.46303e-05 -0.0017052 1.19209e-06  1.15111e-05 -0.000596851 2.38419e-07  0 0 0  -0.000198334 -0.00171933 -6.04391e-05  -6.76103e-05 -0.000607282 1.3113e-06  0 0 0  1.13472e-05 -0.000591218 3.57628e-07  -6.84448e-05 -0.000600457 -3.3617e-05  -0.000606179 -0.00531927 7.62939e-06  8.97944e-05 -0.00525355 3.57628e-06  6.21825e-05 -0.0033164 2.86102e-06  -0.000606447 -0.00527683 -9.72748e-05  -0.000381991 -0.0033358 5.36442e-06  6.26594e-05 -0.00329039 2.26498e-06  -0.000380427 -0.00331014 -8.21352e-05  -0.00114667 -0.0102341 1.28746e-05  0.000121593 -0.0101677 8.22544e-06  0.000109494 -0.00760189 7.15256e-06  -0.00114554 -0.0101832 -0.000111461  -0.000864714 -0.0076229 1.0252e-05  0.000110507 -0.00756702 5.72205e-06  -0.000863492 -0.00758561 -0.000106692  -0.00175422 -0.0162194 1.8239e-05  0.000103831 -0.0161624 1.39475e-05  0.000117779 -0.0130881 1.22786e-05  -0.00175226 -0.0161619 -0.000109673  -0.00144497 -0.0130968 1.54972e-05  0.000119746 -0.0130438 1.0848e-05  -0.00144371 -0.0130519 -0.000112414  -0.00238937 -0.0231168 2.3365e-05  2.66433e-05 -0.0230784 2.06232e-05  7.02739e-05 -0.0195589 1.78814e-05  -0.00238556 -0.023057 -9.82285e-05  -0.00206947 -0.0195489 2.08616e-05  7.30157e-05 -0.0195111 1.71661e-05  -0.00206667 -0.0194999 -0.000104666  -0.00303519 -0.0308386 2.88486e-05  -0.000113249 -0.0308238 2.80142e-05  -3.91006e-05 -0.0269003 2.3365e-05  -0.00302988 -0.0307789 -8.05855e-05  -0.00271094 -0.0268677 2.6226e-05  -3.54052e-05 -0.0268512 2.43187e-05  -0.00270689 -0.026818 -8.97646e-05  -0.00368714 -0.0393058 3.45707e-05  -0.000314534 -0.0393173 3.54052e-05  -0.000210345 -0.0350275 2.93255e-05  -0.00368083 -0.0392491 -6.22272e-05  -0.00335985 -0.0349712 3.18289e-05  -0.000206232 -0.03498 3.15905e-05  -0.00335431 -0.0349233 -7.15256e-05  -0.00434482 -0.0484433 4.04119e-05  -0.00057447 -0.0484823 4.27961e-05  -0.00044167 -0.0438634 3.51667e-05  -0.00433785 -0.04839 -4.3273e-05  -0.00401461 -0.0437833 3.75509e-05  -0.000437379 -0.0438189 3.89814e-05  -0.00400853 -0.0437385 -5.26905e-05  -0.0050081 -0.0581725 4.6134e-05  -0.000888586 -0.0582385 4.97103e-05  -0.000729322 -0.05333 4.12464e-05  -0.00500071 -0.0581236 -2.57492e-05  -0.00467503 -0.0532263 4.33922e-05  -0.000724792 -0.0532894 4.6134e-05  -0.00466835 -0.0531855 -3.42131e-05  -0.00567591 -0.0684168 5.19753e-05  -0.00125206 -0.0685094 5.6386e-05  -0.00106871 -0.063349 4.70877e-05  -0.00566864 -0.068372 -8.58307e-06  -0.00534058 -0.0632227 4.88758e-05  -0.00106418 -0.0633127 5.29289e-05  -0.00533414 -0.0631862 -1.70469e-05  -0.0063473 -0.0791002 5.76973e-05  -0.00165892 -0.079218 6.24657e-05  -0.00145411 -0.0738437 5.29289e-05  -0.00634027 -0.0790599 6.55651e-06  -0.00601053 -0.0736957 5.49555e-05  -0.0014503 -0.0738117 5.93662e-05  -0.00600386 -0.0736635 -8.34465e-07  -0.00701964 -0.0901518 6.31809e-05  -0.00210428 -0.090293 6.83069e-05  -0.001881 -0.0847401 5.87702e-05  -0.00701261 -0.0901153 2.11e-05  -0.0066824 -0.084572 6.03199e-05  -0.00187707 -0.0847123 6.53267e-05  -0.00667644 -0.084544 1.39475e-05  -0.00769043 -0.101503 6.8903e-05  -0.00258207 -0.101666 7.41482e-05  -0.00234294 -0.0959682 6.46114e-05  -0.00768375 -0.101471 3.43323e-05  -0.00735438 -0.0957816 6.62804e-05  -0.00233924 -0.0959443 7.11679e-05  -0.0073483 -0.0957577 2.80142e-05  -0.00835752 -0.113093 7.4625e-05  -0.00308633 -0.113275 7.96318e-05  -0.0028342 -0.107463 7.04527e-05  -0.00835121 -0.113064 4.70877e-05  -0.00802338 -0.10726 7.18832e-05  -0.00283086 -0.107443 7.689e-05  -0.00801814 -0.107239 4.07696e-05  -0.00901806 -0.124863 8.02279e-05  -0.00361204 -0.125062 8.4877e-05  -0.00334954 -0.119164 7.60555e-05  -0.00901222 -0.124838 5.81741e-05  -0.00868797 -0.118947 7.76052e-05  -0.0033468 -0.119147 8.21352e-05  -0.00868225 -0.11893 5.28097e-05  -0.00966954 -0.136763 8.57115e-05  -0.00415385 -0.136976 8.96454e-05  -0.00388396 -0.131018 8.15392e-05  -0.0096643 -0.13674 6.90222e-05  -0.00934398 -0.130788 8.28505e-05  -0.0038811 -0.131004 8.7142e-05  -0.00933945 -0.130774 6.3777e-05  -0.0103106 -0.148744 9.10759e-05  -0.0047071 -0.148969 9.48906e-05  -0.00443172 -0.142974 8.7142e-05  -0.0103059 -0.148724 7.85589e-05  -0.00999069 -0.142734 8.84533e-05  -0.00442934 -0.142963 9.21488e-05  -0.00998616 -0.142722 7.41482e-05  -0.0109406 -0.160768 9.63211e-05  -0.0052681 -0.161002 9.93013e-05  -0.00498867 -0.15499 9.26256e-05  -0.0109353 -0.160749 8.78572e-05  -0.0106258 -0.154741 9.38177e-05  -0.00498676 -0.154981 9.71556e-05  -0.0106223 -0.154732 8.33273e-05  -0.0115571 -0.172797 0.000101805  -0.00583243 -0.173039 0.00010407  -0.00555182 -0.167027 9.799e-05  -0.0115523 -0.17278 9.58443e-05  -0.0112493 -0.166771 9.90629e-05  -0.00554967 -0.16702 0.000101686  -0.011245 -0.166764 9.17912e-05  -0.0121605 -0.184803 0.000107408  -0.00639796 -0.185051 0.0001086  -0.00611687 -0.179053 0.000103235  -0.012156 -0.184788 0.000103831  -0.0118592 -0.178792 0.000104547  -0.00611496 -0.179048 0.000106454  -0.0118558 -0.178787 0.000100017  -0.0127506 -0.196761 0.000112414  -0.00696135 -0.197013 0.000113606  -0.00668144 -0.191042 0.000108719  -0.0127461 -0.196747 0.000110626  -0.0124562 -0.190777 0.000109792  -0.00668001 -0.191038 0.000111222  -0.0124526 -0.190773 0.000107288  -0.0133276 -0.208653 0.000117898  -0.00752115 -0.208908 0.000118494  -0.00724292 -0.202971 0.000114083  -0.0133235 -0.208639 0.000117421  -0.0130398 -0.202704 0.000115395  -0.00724173 -0.202968 0.000115871  -0.0130363 -0.2027 0.000114202  -0.0138927 -0.220464 0.000123143  -0.00807619 -0.22072 0.000123501  -0.00780106 -0.214826 0.000119567  -0.0138886 -0.220451 0.00012362  -0.0136106 -0.214557 0.000120759  -0.00779915 -0.214823 0.000120759  -0.0136073 -0.214554 0.000120759  -0.0144486 -0.232173 0.000128627  -0.00862384 -0.232428 0.00012815  -0.00835228 -0.22659 0.000124931  -0.0144444 -0.23216 0.000130773  -0.0141702 -0.226321 0.000126123  -0.00835109 -0.226588 0.000125527  -0.0141671 -0.226318 0.000127077  0.00026831 -0.00180399 -2.38419e-07  0 0 0  0.000511304 -0.00194973 0.000123024  0.000175849 -0.000742793 -1.66893e-06  0 0 0  0.000267789 -0.00178039 6.22272e-05  9.0085e-05 -0.000641227 -4.76837e-07  0 0 0  0.000173323 -0.00073725 6.65188e-05  9.14931e-05 -0.000634968 3.37362e-05  0.000782818 -0.00541735 2.14577e-06  0.00150436 -0.00563639 0.000204563  0.000967681 -0.00364232 -1.66893e-06  0.000786364 -0.00537521 0.000104547  0.000505731 -0.00341779 8.34465e-07  0.000965983 -0.00362349 0.000169039  0.000506014 -0.00339246 8.64267e-05  0.00138319 -0.0103574 6.79493e-06  0.00268337 -0.0106001 0.000247121  0.00208479 -0.00801498 1.66893e-06  0.00138715 -0.0103068 0.000127673  0.00108162 -0.00773412 4.52995e-06  0.00208396 -0.00798225 0.000230908  0.00108409 -0.00769734 0.000117898  0.00195128 -0.0163666 1.22786e-05  0.0038389 -0.0166008 0.00026083  0.00326946 -0.013525 6.79493e-06  0.00195652 -0.0163094 0.000137448  0.00167626 -0.0132316 9.65595e-06  0.00327146 -0.0134816 0.000257015  0.00168058 -0.0131872 0.00013423  0.00242823 -0.0232907 1.81198e-05  0.00486779 -0.0235139 0.000257373  0.00436866 -0.0199955 1.2517e-05  0.00243324 -0.0232314 0.000139356  0.0022037 -0.0197089 1.5378e-05  0.0043723 -0.0199473 0.000260949  0.00220811 -0.0196604 0.000138879  0.00279176 -0.031043 2.41995e-05  0.00573117 -0.031258 0.000245094  0.00531727 -0.0273344 1.87159e-05  0.00279677 -0.0309838 0.000136495  0.00262511 -0.0270565 2.12193e-05  0.00532073 -0.027285 0.000251889  0.00262982 -0.0270072 0.000138164  0.00303954 -0.0395437 3.02792e-05  0.0064249 -0.0397581 0.000230074  0.00609612 -0.0354645 2.51532e-05  0.00304425 -0.0394873 0.000133157  0.00293046 -0.0351922 2.71797e-05  0.00609893 -0.0354167 0.000237823  0.00293469 -0.0351446 0.000134706  0.00317669 -0.0487166 3.63588e-05  0.00695682 -0.0489333 0.000215054  0.0067082 -0.044309 3.1352e-05  0.00318146 -0.0486634 0.000128746  0.00312191 -0.0440388 3.34978e-05  0.00671053 -0.0442643 0.000222445  0.00312638 -0.0439941 0.000130773  0.00321186 -0.0584811 4.23193e-05  0.00733912 -0.0587038 0.000200152  0.00716412 -0.0537881 3.76701e-05  0.00321651 -0.058432 0.000125051  0.00320745 -0.0535173 3.94583e-05  0.00716603 -0.0537474 0.000207424  0.00321126 -0.0534765 0.000126839  0.00315344 -0.06876 4.8399e-05  0.00758445 -0.0689894 0.000186682  0.00747645 -0.0638219 4.36306e-05  0.00315809 -0.0687152 0.000121236  0.00319457 -0.0635487 4.55379e-05  0.00747836 -0.0637854 0.000193119  0.00319862 -0.0635122 0.000123024  0.00301135 -0.0794762 5.42402e-05  0.00770545 -0.0797135 0.000174284  0.00765848 -0.0743318 4.97103e-05  0.00301552 -0.0794359 0.000118375  0.00309324 -0.0740557 5.14984e-05  0.00765979 -0.0742996 0.000180244  0.00309682 -0.0740235 0.000119805  0.00279379 -0.0905584 6.00815e-05  0.00771499 -0.0908022 0.000163436  0.00772238 -0.0852429 5.55515e-05  0.0027982 -0.0905218 0.000115752  0.00291228 -0.0849636 5.72205e-05  0.00772357 -0.0852149 0.000168443  0.00291586 -0.0849356 0.000116825  0.00251067 -0.101937 6.61612e-05  0.00762463 -0.102188 0.000153661  0.00768054 -0.0964845 6.18696e-05  0.00251484 -0.101905 0.000114202  0.00266111 -0.0962024 6.33001e-05  0.00768161 -0.0964603 0.00015831  0.00266433 -0.0961782 0.000114679  0.00217009 -0.113551 7.20024e-05  0.00744653 -0.113807 0.000145078  0.00754511 -0.107991 6.77109e-05  0.0021739 -0.113522 0.000112295  0.00234807 -0.107706 6.92606e-05  0.00754619 -0.10797 0.000149131  0.00235116 -0.107686 0.00011301  0.00178015 -0.125342 7.78437e-05  0.00719142 -0.125603 0.000137806  0.00732732 -0.119702 7.35521e-05  0.00178397 -0.125317 0.000111699  0.00198174 -0.119416 7.49826e-05  0.00732803 -0.119685 0.000141263  0.00198472 -0.119399 0.000111699  0.00134945 -0.13726 8.33273e-05  0.00687027 -0.137523 0.000131607  0.00703776 -0.131563 7.93934e-05  0.00135303 -0.137236 0.000110745  0.00157034 -0.131276 8.05855e-05  0.00703859 -0.131549 0.000134587  0.00157344 -0.131262 0.000110984  0.000885248 -0.149255 8.89301e-05  0.00649357 -0.149521 0.000126839  0.00668764 -0.143525 8.49962e-05  0.000888824 -0.149235 0.000110984  0.001122 -0.143238 8.61883e-05  0.00668836 -0.143513 0.000129104  0.00112462 -0.143226 0.000110626  0.000393867 -0.16129 9.44138e-05  0.00607061 -0.161556 0.000122905  0.00628686 -0.155544 9.04799e-05  0.000397444 -0.161271 0.000111341  0.000643492 -0.155258 9.19104e-05  0.00628757 -0.155535 0.000124812  0.000646114 -0.155249 0.000110984  -0.000117779 -0.173327 9.9659e-05  0.00561047 -0.173595 0.000120521  0.00584412 -0.167583 9.58443e-05  -0.000114202 -0.173311 0.000112534  0.000141621 -0.167298 9.70364e-05  0.00584483 -0.167576 0.000121355  0.000143766 -0.167291 0.000111699  -0.000644207 -0.185339 0.000105143  0.00512123 -0.185606 0.000119328  0.00536823 -0.179609 0.000101566  -0.000640869 -0.185324 0.000114202  -0.000378132 -0.179326 0.000102639  0.00536942 -0.179603 0.000119925  -0.000375748 -0.17932 0.000113249  -0.00118089 -0.197301 0.000110388  0.00461102 -0.197567 0.000119448  0.00486779 -0.191596 0.000106812  -0.00117755 -0.197287 0.000116706  -0.000910282 -0.191315 0.000107884  0.00486851 -0.191592 0.000119328  -0.000908375 -0.191311 0.000115156  -0.00172353 -0.209195 0.000115991  0.00408506 -0.209459 0.00012064  0.00434923 -0.203524 0.000112295  -0.00172043 -0.209182 0.000119328  -0.00145078 -0.203245 0.000113487  0.00434971 -0.203521 0.000119805  -0.00144815 -0.203242 0.000118017  -0.00226855 -0.221006 0.000121713  0.00355005 -0.221271 0.000122428  0.00381756 -0.215377 0.000118017  -0.00226521 -0.220994 0.000122786  -0.00199485 -0.215099 0.000118971  0.00381827 -0.215374 0.000121355  -0.0019927 -0.215097 0.000120997  -0.00280809 -0.232716 0.000126839  0.00301695 -0.232984 0.000124097  0.00328207 -0.227142 0.000123382  -0.00280523 -0.232703 0.000126004  -0.00253844 -0.226864 0.000124335  0.00328231 -0.22714 0.000123143  -0.0025363 -0.226861 0.000124335  0.00077121 -0.00226259 -3.69549e-06  0 0 0  0.00106919 -0.00264698 0.000245094  0.000365846 -0.00114763 -3.57628e-06  0 0 0  0.000775531 -0.00223541 0.00018394  0.00026039 -0.000907183 -2.38419e-06  0 0 0  0.000361271 -0.00114989 0.000136852  0.000260748 -0.000903547 0.000100851  0.00227299 -0.00609946 -2.74181e-06  0.00310922 -0.00664014 0.000403881  0.00201818 -0.00454396 -5.96046e-06  0.00227928 -0.00605631 0.000304103  0.0014624 -0.00401539 -3.45707e-06  0.00201243 -0.00450927 0.000335932  0.00146736 -0.00398725 0.000252843  0.0040397 -0.0111006 1.19209e-06  0.00550187 -0.0116607 0.000485063  0.00429654 -0.00906837 -3.93391e-06  0.00404844 -0.0110509 0.000366211  0.00314444 -0.00846004 -9.53674e-07  0.00429419 -0.00903201 0.000452876  0.00315186 -0.00842214 0.0003407  0.00578076 -0.0170934 7.03335e-06  0.00783098 -0.0176117 0.000507593  0.00668392 -0.0145659 1.43051e-06  0.00578934 -0.0170365 0.000383854  0.00492609 -0.0139698 4.17233e-06  0.00668707 -0.0145208 0.00050199  0.00493327 -0.0139257 0.000380158  0.00735521 -0.0239831 1.33514e-05  0.00994629 -0.0244576 0.000493169  0.0089168 -0.020973 7.86781e-06  0.00736195 -0.0239239 0.000375271  0.00659376 -0.0204182 1.0252e-05  0.00892115 -0.0209244 0.000503182  0.00660068 -0.0203694 0.000381827  0.0087139 -0.0317057 1.9908e-05  0.0117893 -0.032144 0.000462532  0.0108983 -0.028248 1.45435e-05  0.00871903 -0.0316461 0.000353932  0.00806326 -0.0277327 1.68085e-05  0.0109022 -0.0281983 0.000479102  0.00806832 -0.0276831 0.000365734  0.0098502 -0.0401857 2.63453e-05  0.0133588 -0.0405977 0.00042522  0.0126057 -0.036326 2.12193e-05  0.00985372 -0.0401291 0.000327587  0.00931013 -0.0358435 2.3365e-05  0.0126081 -0.0362781 0.000444174  0.00931388 -0.0357953 0.000341177  0.0107738 -0.0493461 3.27826e-05  0.0146667 -0.0497387 0.000387669  0.0140432 -0.0451306 2.77758e-05  0.0107766 -0.0492926 0.000301242  0.0103383 -0.0446736 2.96831e-05  0.0140441 -0.045086 0.000406384  0.0103408 -0.0446288 0.000314355  0.0115005 -0.0591033 3.91006e-05  0.0157316 -0.0594816 0.000351429  0.0152279 -0.054579 3.40939e-05  0.0115029 -0.0590544 0.000275493  0.0111616 -0.0541427 3.60012e-05  0.0152285 -0.0545383 0.000369072  0.0111636 -0.0541017 0.000288248  0.0120466 -0.0693786 4.51803e-05  0.0165735 -0.0697452 0.000317693  0.0161796 -0.0645882 4.05312e-05  0.0120487 -0.0693336 0.000252366  0.011796 -0.0641689 4.22001e-05  0.0161792 -0.0645518 0.000334144  0.0117973 -0.0641322 0.000263572  0.0124288 -0.0800923 5.13792e-05  0.0172118 -0.080449 0.000286937  0.0169178 -0.0750772 4.673e-05  0.0124305 -0.0800517 0.000230432  0.0122581 -0.0746728 4.82798e-05  0.0169171 -0.0750451 0.000301838  0.0122595 -0.0746404 0.000241041  0.0126622 -0.0911726 5.74589e-05  0.0176654 -0.0915204 0.000258803  0.0174614 -0.0859696 5.30481e-05  0.0126641 -0.0911356 0.000211239  0.0125641 -0.0855786 5.44786e-05  0.0174607 -0.0859416 0.000272632  0.0125649 -0.0855504 0.000220537  0.0127627 -0.102549 6.34193e-05  0.0179522 -0.102888 0.00023365  0.0178293 -0.0971937 5.91278e-05  0.0127646 -0.102516 0.000193357  0.0127292 -0.0968154 6.06775e-05  0.0178288 -0.0971696 0.00024581  0.0127304 -0.096791 0.000202179  0.0127444 -0.11416 6.9499e-05  0.0180899 -0.114491 0.000210881  0.0180393 -0.108683 6.52075e-05  0.0127463 -0.114131 0.000178218  0.0127685 -0.108317 6.6638e-05  0.0180387 -0.108663 0.000221848  0.0127693 -0.108296 0.00018549  0.0126215 -0.125947 7.54595e-05  0.018095 -0.12627 0.000191092  0.0181088 -0.120377 7.14064e-05  0.0126235 -0.125921 0.00016439  0.0126961 -0.120023 7.25985e-05  0.0181082 -0.12036 0.000200629  0.0126976 -0.120005 0.000171185  0.0124075 -0.13786 8.11815e-05  0.0179844 -0.138174 0.00017333  0.0180538 -0.132222 7.72476e-05  0.0124097 -0.137836 0.000152946  0.012526 -0.131878 7.85589e-05  0.0180532 -0.132208 0.000181913  0.0125272 -0.131864 0.000158429  0.0121157 -0.149849 8.69036e-05  0.0177736 -0.150156 0.000158668  0.0178912 -0.144168 8.29697e-05  0.0121179 -0.149829 0.000142694  0.0122716 -0.143835 8.41618e-05  0.0178907 -0.144156 0.000165701  0.0122731 -0.143823 0.000147581  0.0117583 -0.161878 9.21488e-05  0.017478 -0.162177 0.000146031  0.0176361 -0.156171 8.85725e-05  0.0117607 -0.161859 0.000134826  0.0119457 -0.155849 8.96454e-05  0.0176356 -0.156162 0.000151992  0.0119467 -0.155839 0.000138521  0.0113471 -0.173908 9.76324e-05  0.017112 -0.1742 0.000136256  0.0173032 -0.168195 9.39369e-05  0.0113497 -0.173892 0.000128388  0.01156 -0.167882 9.50098e-05  0.017303 -0.168188 0.000140786  0.0115616 -0.167875 0.000131249  0.0108933 -0.185913 0.000103235  0.0166898 -0.186198 0.000129461  0.0169075 -0.180208 9.94205e-05  0.0108962 -0.185898 0.000124812  0.0111263 -0.179903 0.000100493  0.0169072 -0.180202 0.00013268  0.0111277 -0.179898 0.000126362  0.0104072 -0.197868 0.000108838  0.0162241 -0.198146 0.000124931  0.0164618 -0.192182 0.000105143  0.0104096 -0.197854 0.000122428  0.0106549 -0.191885 0.000106215  0.0164618 -0.192178 0.000127196  0.0106568 -0.191881 0.000123501  0.00989604 -0.209756 0.00011456  0.0157261 -0.210029 0.000123024  0.0159788 -0.204098 0.000110626  0.00989842 -0.209742 0.000121951  0.0101552 -0.203809 0.000111699  0.0159783 -0.204095 0.000123858  0.0101566 -0.203805 0.000121951  0.00936985 -0.221565 0.000120044  0.0152059 -0.221836 0.000121832  0.0154679 -0.215943 0.000116467  0.009372 -0.221552 0.000121832  0.00963545 -0.215658 0.000117421  0.0154684 -0.21594 0.00012219  0.00963688 -0.215655 0.000121951  0.00884175 -0.233286 0.00012517  0.0146809 -0.233566 0.000120997  0.0149424 -0.227711 0.000121951  0.00884414 -0.233273 0.00012207  0.00910592 -0.227425 0.000122786  0.0149419 -0.227709 0.000121474  0.00910664 -0.227422 0.00012207  0.00140822 -0.00324482 -7.15256e-06  0 0 0  0.00180145 -0.0040043 0.000363946  0.000642292 -0.00197536 -5.60284e-06  0 0 0  0.00140664 -0.00322229 0.000305533  0.000466496 -0.00147969 -4.52995e-06  0 0 0  0.000604115 -0.00196308 0.000189662  0.000466816 -0.00149739 0.000163555  0.00408837 -0.00746983 -7.98702e-06  0.00522372 -0.00843978 0.000607848  0.00345895 -0.00620198 -1.04904e-05  0.00409573 -0.00742549 0.000502944  0.00265451 -0.00525367 -8.10623e-06  0.00340334 -0.0061658 0.000500679  0.00265627 -0.00521767 0.000421882  0.00710192 -0.0124881 -3.93391e-06  0.00890192 -0.0133629 0.00072515  0.00708303 -0.0108279 -8.9407e-06  0.00711328 -0.0124347 0.000604868  0.00559211 -0.00985861 -6.4373e-06  0.00707775 -0.0107899 0.000680685  0.00560096 -0.00981796 0.000564575  0.0100051 -0.0183853 2.5034e-06  0.0123624 -0.019168 0.000753284  0.0106612 -0.0161967 -2.98023e-06  0.0100166 -0.0183256 0.000629663  0.00858098 -0.0153119 -8.34465e-07  0.0106626 -0.016148 0.000748158  0.00859118 -0.0152648 0.000625849  0.0126445 -0.0251733 9.29832e-06  0.0155085 -0.0258794 0.00072968  0.0139726 -0.0224617 4.05312e-06  0.0126526 -0.0251122 0.000611663  0.0113638 -0.0216575 6.07967e-06  0.0139787 -0.022411 0.000746489  0.0113719 -0.0216076 0.000624299  0.0149644 -0.0328088 1.60933e-05  0.0182862 -0.0334542 0.000679493  0.0169392 -0.0296121 1.10865e-05  0.0149702 -0.0327489 0.000570774  0.013846 -0.0288769 1.28746e-05  0.0169435 -0.0295619 0.000706315  0.0138523 -0.0288267 0.000592828  0.0169608 -0.041219 2.2769e-05  0.0206948 -0.0418171 0.000620842  0.0195332 -0.0375891 1.78814e-05  0.0169643 -0.0411621 0.00052309  0.0160033 -0.0369098 1.95503e-05  0.0195359 -0.0375415 0.000650764  0.0160071 -0.0368615 0.000547409  0.0186472 -0.0503237 2.94447e-05  0.0227476 -0.0508827 0.000560999  0.0217631 -0.0463108 2.44379e-05  0.0186492 -0.0502704 0.000474095  0.0178419 -0.0456778 2.63453e-05  0.021764 -0.0462667 0.000590563  0.0178443 -0.0456331 0.000498533  0.0200452 -0.0600337 3.57628e-05  0.0244694 -0.0605604 0.000503302  0.0236485 -0.0556892 3.11136e-05  0.0200465 -0.059985 0.000427246  0.0193819 -0.0550959 3.27826e-05  0.0236486 -0.0556495 0.000531673  0.0193826 -0.055055 0.000450253  0.0211773 -0.0702689 4.23193e-05  0.0258834 -0.0707661 0.000449777  0.0252141 -0.065637 3.74317e-05  0.0211785 -0.0702242 0.000383496  0.0206438 -0.0650787 3.89814e-05  0.0252132 -0.0656014 0.000475764  0.0206444 -0.0650424 0.000404835  0.0220666 -0.0809456 4.85182e-05  0.0270166 -0.0814168 0.000400066  0.0264852 -0.0760708 4.37498e-05  0.0220674 -0.0809053 0.000343442  0.0216521 -0.0755442 4.54187e-05  0.0264838 -0.0760396 0.000424147  0.0216521 -0.0755121 0.000362992  0.0227346 -0.0919924 5.48363e-05  0.0278912 -0.0924387 0.000354886  0.0274861 -0.0869122 5.03063e-05  0.0227354 -0.0919559 0.000306845  0.0224279 -0.0864151 5.17368e-05  0.0274847 -0.0868847 0.000376701  0.0224279 -0.0863871 0.000324607  0.0232023 -0.103337 6.09159e-05  0.0285332 -0.10376 0.000313401  0.0282418 -0.0980882 5.65052e-05  0.0232031 -0.103304 0.000273585  0.0229934 -0.0976189 5.79357e-05  0.0282401 -0.0980648 0.000333667  0.0229932 -0.0975947 0.000289559  0.0234901 -0.114918 6.73532e-05  0.0289642 -0.115319 0.000276685  0.0287749 -0.109533 6.28233e-05  0.0234907 -0.114889 0.000243902  0.0233684 -0.109089 6.42538e-05  0.0287737 -0.109513 0.000294447  0.0233684 -0.109069 0.000258327  0.0236175 -0.126675 7.30753e-05  0.0292076 -0.127056 0.000243425  0.0291097 -0.121184 6.90222e-05  0.0236185 -0.126649 0.000217319  0.0235735 -0.120765 7.03335e-05  0.0291079 -0.121167 0.000259519  0.0235736 -0.120748 0.000230193  0.0236042 -0.138561 7.90358e-05  0.0292847 -0.138921 0.000214577  0.0292667 -0.132988 7.51019e-05  0.0236056 -0.138537 0.000194192  0.0236281 -0.132593 7.62939e-05  0.0292655 -0.132975 0.000228524  0.0236287 -0.132579 0.000205278  0.0234687 -0.150524 8.46386e-05  0.0292177 -0.150867 0.000189543  0.029269 -0.144896 8.10623e-05  0.0234702 -0.150503 0.000174165  0.0235517 -0.144522 8.21352e-05  0.029268 -0.144885 0.000201344  0.0235522 -0.144511 0.000183702  0.0232286 -0.162528 9.04799e-05  0.029027 -0.162854 0.000168562  0.0291371 -0.156865 8.66652e-05  0.0232306 -0.16251 0.000157475  0.0233617 -0.156511 8.7738e-05  0.0291364 -0.156856 0.000178456  0.0233626 -0.156502 0.000165343  0.0229023 -0.174536 9.58443e-05  0.0287335 -0.174847 0.000151515  0.0288923 -0.168857 9.2268e-05  0.0229042 -0.174519 0.000144362  0.0230765 -0.168521 9.32217e-05  0.028892 -0.16885 0.000159264  0.0230772 -0.168514 0.000150323  0.0225062 -0.186522 0.000101566  0.028357 -0.186819 0.000139236  0.0285544 -0.180841 9.78708e-05  0.0225081 -0.186506 0.000134468  0.0227129 -0.180521 9.88245e-05  0.0285544 -0.180836 0.00014472  0.0227141 -0.180515 0.000138879  0.0220566 -0.198458 0.000107169  0.0279171 -0.198745 0.000130177  0.0281448 -0.192791 0.000103474  0.0220582 -0.198444 0.00012815  0.0222886 -0.192485 0.000104427  0.0281441 -0.192787 0.000133991  0.022289 -0.19248 0.000130773  0.0215671 -0.210333 0.000112891  0.0274317 -0.210611 0.00012517  0.0276802 -0.204688 0.000109076  0.021569 -0.21032 0.000123978  0.0218167 -0.204392 0.000110149  0.027679 -0.204685 0.000127196  0.0218182 -0.204388 0.000125766  0.0210512 -0.222135 0.000118732  0.026917 -0.222409 0.000121832  0.0271776 -0.21652 0.000114679  0.0210531 -0.222122 0.00012207  0.021313 -0.216231 0.000115871  0.0271773 -0.216517 0.000123024  0.0213137 -0.216228 0.000122786  0.0205247 -0.233875 0.000123858  0.0263879 -0.234155 0.000118971  0.0266531 -0.228288 0.000120521  0.0205269 -0.233861 0.000119686  0.0207887 -0.228 0.000121474  0.0266531 -0.228286 0.000120282  0.0207896 -0.227997 0.000120759  0.00261869 -0.00516015 -1.06096e-05  0 0 0  0.0040613 -0.00659513 0.000502825  0.00178248 -0.00405002 -7.62939e-06  0 0 0  0.00260434 -0.00514668 0.000457048  0.000865676 -0.00270945 -6.4373e-06  0 0 0  0.00171427 -0.00394934 0.000289798  0.000862896 -0.00264966 0.00022161  0.00665027 -0.00967151 -1.26362e-05  0.00848195 -0.01101 0.00081563  0.00636742 -0.00875437 -1.45435e-05  0.00668791 -0.00966507 0.000699282  0.00459729 -0.00739115 -1.22786e-05  0.0062418 -0.00873548 0.000665188  0.00458252 -0.00737363 0.000584483  0.0108928 -0.0144965 -8.34465e-06  0.0131804 -0.0156405 0.000948906  0.0108759 -0.0132616 -1.32322e-05  0.0109074 -0.0144386 0.000840902  0.00878757 -0.0119839 -1.09673e-05  0.0108446 -0.0131903 0.000894308  0.0088076 -0.0119314 0.000785112  0.0148892 -0.0201977 -1.43051e-06  0.0176601 -0.0212104 0.000988722  0.0154603 -0.0183515 -7.15256e-06  0.0149026 -0.0201333 0.000871897  0.0129327 -0.0172148 -4.88758e-06  0.0154608 -0.018294 0.000978351  0.0129437 -0.0171627 0.000868201  0.0185267 -0.0268174 5.72205e-06  0.0217632 -0.0277287 0.000955701  0.0197577 -0.024406 2.38419e-07  0.0185369 -0.0267534 0.000844479  0.0167589 -0.0233799 2.14577e-06  0.0197658 -0.0243473 0.000976801  0.0167691 -0.0233265 0.000864148  0.0217534 -0.0343184 1.27554e-05  0.0254201 -0.035151 0.000891328  0.0236419 -0.0313841 7.27177e-06  0.0217622 -0.0342568 0.000786662  0.0201929 -0.0304492 9.29832e-06  0.0236488 -0.03133 0.000925183  0.0202014 -0.0303974 0.000818133  0.0245672 -0.0426171 1.93119e-05  0.0286248 -0.0433853 0.000812888  0.0270745 -0.0392216 1.43051e-05  0.0245734 -0.0425595 0.000717878  0.0232126 -0.0383612 1.62125e-05  0.027079 -0.0391714 0.000852466  0.0232189 -0.0383122 0.000753045  0.0269803 -0.0516281 2.6226e-05  0.0313834 -0.0523399 0.000732899  0.0300549 -0.0478231 2.13385e-05  0.0269854 -0.0515743 0.000647545  0.0258233 -0.0470271 2.30074e-05  0.0300582 -0.0477778 0.000771999  0.0258276 -0.0469823 0.000682712  0.0290186 -0.0612547 3.26633e-05  0.0337269 -0.061917 0.000654578  0.032604 -0.0570967 2.7895e-05  0.0290222 -0.0612059 0.000579238  0.0280459 -0.0563577 2.95639e-05  0.0326059 -0.0570558 0.000692725  0.0280491 -0.056317 0.000612974  0.030707 -0.071415 3.92199e-05  0.0356777 -0.0720314 0.000581622  0.0347482 -0.0669482 3.43323e-05  0.0307103 -0.0713705 0.000515819  0.0299058 -0.0662615 3.61204e-05  0.0347494 -0.0669119 0.000616431  0.0299078 -0.0662253 0.000547051  0.0320754 -0.082022 4.57764e-05  0.037272 -0.0825964 0.000513673  0.0365179 -0.077294 4.11272e-05  0.0320778 -0.081982 0.000456929  0.0314306 -0.0766556 4.25577e-05  0.036518 -0.077262 0.000546336  0.0314326 -0.0766236 0.000485659  0.033149 -0.0930045 5.22137e-05  0.0385339 -0.0935386 0.000451446  0.0379424 -0.088052 4.74453e-05  0.033152 -0.0929683 0.000403285  0.0326484 -0.087459 4.8995e-05  0.0379425 -0.0880246 0.00048089  0.0326498 -0.0874313 0.000429392  0.0339568 -0.104287 5.85318e-05  0.039498 -0.104784 0.000394702  0.0390519 -0.0991506 5.40018e-05  0.033959 -0.104255 0.000353932  0.0335858 -0.0986004 5.54323e-05  0.0390518 -0.0991269 0.000421762  0.0335873 -0.0985764 0.000377774  0.0345225 -0.115812 6.48499e-05  0.040188 -0.116272 0.000343561  0.0398751 -0.110521 6.04391e-05  0.0345249 -0.115782 0.000309825  0.0342693 -0.110011 6.17504e-05  0.0398753 -0.110501 0.000367284  0.0342703 -0.109991 0.000331283  0.034873 -0.127514 7.09295e-05  0.0406364 -0.127941 0.000297546  0.0404413 -0.122104 6.6638e-05  0.0348753 -0.127488 0.000270247  0.0347242 -0.121632 6.80685e-05  0.0404408 -0.122087 0.000319123  0.0347258 -0.121615 0.000289321  0.0350318 -0.139349 7.70092e-05  0.0408669 -0.139745 0.000256896  0.0407772 -0.133843 7.27177e-05  0.0350344 -0.139326 0.000235438  0.0349759 -0.133406 7.41482e-05  0.0407771 -0.133829 0.000275493  0.034977 -0.133392 0.000252008  0.0350246 -0.151265 8.29697e-05  0.0409098 -0.151631 0.000221848  0.0409102 -0.145691 7.89165e-05  0.035027 -0.151244 0.000205159  0.0350485 -0.145288 8.01086e-05  0.04091 -0.14568 0.000237942  0.0350504 -0.145276 0.000219584  0.0348737 -0.163227 8.84533e-05  0.0407884 -0.163567 0.000192046  0.0408673 -0.157604 8.46386e-05  0.0348766 -0.163208 0.000179887  0.0349667 -0.157231 8.58307e-05  0.0408676 -0.157595 0.000205278  0.0349679 -0.157222 0.000191808  0.0346045 -0.175197 9.44138e-05  0.0405328 -0.175513 0.000168085  0.0406761 -0.169547 9.02414e-05  0.0346069 -0.17518 0.000159502  0.0347538 -0.169201 9.16719e-05  0.0406756 -0.16954 0.000178576  0.0347555 -0.169193 0.000169039  0.0342391 -0.18715 9.95398e-05  0.0401669 -0.187447 0.000149727  0.0403614 -0.181488 9.59635e-05  0.0342412 -0.187135 0.000143647  0.0344336 -0.181166 9.71556e-05  0.0403621 -0.181483 0.000157237  0.0344346 -0.18116 0.000150919  0.0338011 -0.19906 0.0001055  0.0397189 -0.199341 0.000136733  0.0399511 -0.193403 0.000101566  0.033803 -0.199046 0.000133038  0.0340285 -0.193099 0.00010252  0.0399513 -0.193399 0.00014174  0.0340302 -0.193095 0.000137687  0.0333116 -0.210917 0.000111341  0.0392137 -0.211187 0.000129223  0.0394714 -0.205274 0.000107646  0.033313 -0.210903 0.000126481  0.0335619 -0.204984 0.000108719  0.0394714 -0.20527 0.000131726  0.0335631 -0.20498 0.000129223  0.0327914 -0.222709 0.000116825  0.0386779 -0.222976 0.000124335  0.0389478 -0.21709 0.000113249  0.0327928 -0.222696 0.000122309  0.0330553 -0.216808 0.000114083  0.0389481 -0.217088 0.000125527  0.0330563 -0.216805 0.000124097  0.0322556 -0.23446 0.000122309  0.0381346 -0.234728 0.000120163  0.0384068 -0.228857 0.00011909  0.0322561 -0.234445 0.000119328  0.0325258 -0.228575 0.000119805  0.0384071 -0.228854 0.000122309  0.032526 -0.228572 0.000120759  -0.00414752 -0.00625117 0.000521183  -0.00185301 -0.00382032 0.000599504  0 0 0  -0.00262514 -0.00479129 0.000942469  0 0 0  -0.00182033 -0.00366925 0.000393987  -0.000626937 -0.00177348 0.000433922  0 0 0  -0.00180853 -0.00382638 0.000295401  -0.00263745 -0.00480258 0.000471592  -0.00087326 -0.00247132 0.000509262  0 0 0  -0.00063226 -0.00180093 0.000215173  -0.000878111 -0.00250886 0.00026238  -0.00866199 -0.0102445 0.000873208  -0.00640617 -0.00801922 0.00146627  -0.00669248 -0.00887976 0.00153291  -0.00517514 -0.00786668 0.000658989  -0.0034239 -0.00560187 0.00109065  -0.00640699 -0.00817892 0.000761986  -0.00667892 -0.00898632 0.000778437  -0.00462015 -0.00672381 0.00128591  -0.00340755 -0.00571547 0.000543237  -0.00460121 -0.00686027 0.000635028  -0.0133293 -0.0147764 0.00103164  -0.0109917 -0.0122696 0.00193119  -0.0109067 -0.0135091 0.00179815  -0.00880331 -0.0126782 0.000783682  -0.00700906 -0.0100408 0.00145614  -0.010999 -0.0123922 0.000966907  -0.0108955 -0.0136667 0.000906587  -0.00879464 -0.0110907 0.00170231  -0.00697607 -0.0101645 0.00073719  -0.00878236 -0.0112187 0.000867605  -0.0179052 -0.0201002 0.00105882  -0.0156622 -0.0171382 0.00208831  -0.0150128 -0.0189948 0.00184119  -0.012357 -0.0183179 0.000804067  -0.0106216 -0.0152225 0.00158107  -0.0156426 -0.0173214 0.00105929  -0.0149972 -0.0191525 0.000936747  -0.0129893 -0.0161233 0.00184178  -0.0105987 -0.0153859 0.000804543  -0.0129721 -0.0162951 0.000932455  -0.0222061 -0.0263308 0.00101924  -0.0201111 -0.0229231 0.00205719  -0.0188406 -0.0253773 0.00175881  -0.0156968 -0.0248365 0.000774026  -0.0140697 -0.021304 0.00155544  -0.0200976 -0.0230965 0.00104463  -0.0188325 -0.025536 0.000898361  -0.0169635 -0.0220624 0.0018115  -0.014056 -0.021467 0.000795126  -0.0169507 -0.0222306 0.000923991  -0.0261647 -0.0334343 0.000942945  -0.0242391 -0.0296036 0.00192571  -0.0223636 -0.0326251 0.00161743  -0.018779 -0.0321962 0.000714779  -0.0172709 -0.0282511 0.0014528  -0.0242303 -0.0297769 0.00098443  -0.0223632 -0.0327744 0.000830889  -0.0206405 -0.0288837 0.00169277  -0.0172705 -0.0284138 0.000746965  -0.0206365 -0.0290507 0.000866652  -0.0297688 -0.0413419 0.000854731  -0.0280118 -0.0371352 0.00175154  -0.0255747 -0.0406675 0.00145555  -0.0215978 -0.0403328 0.000647902  -0.020211 -0.0360209 0.00131941  -0.0280113 -0.0372912 0.0008986  -0.0255828 -0.0408033 0.00075233  -0.0240066 -0.0365408 0.00153768  -0.0202202 -0.0361705 0.000682354  -0.0240105 -0.036693 0.000792503  -0.0330298 -0.0499693 0.000764847  -0.0314362 -0.0454285 0.00156569  -0.0284935 -0.0494198 0.00129366  -0.0241677 -0.0491675 0.000580788  -0.0228964 -0.0445292 0.00117886  -0.0314417 -0.0455714 0.000809789  -0.0285056 -0.0495401 0.00067389  -0.027069 -0.0449478 0.00137401  -0.0229129 -0.0446669 0.000614405  -0.0270797 -0.0450874 0.000712276  -0.0359689 -0.0592327 0.000679612  -0.034529 -0.0544019 0.00138485  -0.0311351 -0.0587983 0.00113976  -0.0265048 -0.0586193 0.000517726  -0.0253443 -0.053698 0.00104356  -0.0345385 -0.0545257 0.000720382  -0.0311505 -0.0589032 0.000599146  -0.0298465 -0.0540246 0.00121534  -0.0253638 -0.0538196 0.000549078  -0.029861 -0.0541465 0.000636101  -0.0386088 -0.0690496 0.000600696  -0.0373141 -0.0639672 0.00121522  -0.0335233 -0.0687208 0.000997424  -0.0286281 -0.068608 0.00045979  -0.0275705 -0.0634421 0.000917435  -0.0373253 -0.0640773 0.000639439  -0.0335389 -0.0688107 0.00053072  -0.0323589 -0.0636841 0.00106704  -0.0275919 -0.0635502 0.00048852  -0.0323752 -0.0637926 0.00056386  -0.0409728 -0.0793433 0.000528455  -0.0398121 -0.0740474 0.00105917  -0.035674 -0.0791104 0.000867486  -0.0305531 -0.0790576 0.000407457  -0.029593 -0.0736853 0.000801921  -0.0398244 -0.0741405 0.000562668  -0.0356898 -0.0791867 0.000468016  -0.0346261 -0.0738504 0.000931025  -0.0296141 -0.0737781 0.000433207  -0.0346423 -0.0739427 0.000498772  -0.0430814 -0.0900395 0.000463486  -0.0420465 -0.084564 0.0009166  -0.0376076 -0.0898942 0.000749588  -0.0322956 -0.0898955 0.000359774  -0.0314257 -0.0843505 0.000696898  -0.0420582 -0.0846454 0.000494957  -0.0376216 -0.0899574 0.000411749  -0.0366662 -0.0844452 0.000806928  -0.0314462 -0.084431 0.000383258  -0.0366818 -0.0845256 0.00043869  -0.0449548 -0.101072 0.000404239  -0.0440354 -0.0954493 0.000787735  -0.0393376 -0.101005 0.000642896  -0.0338683 -0.101055 0.000317454  -0.0330838 -0.0953696 0.000601888  -0.0440464 -0.0955165 0.000432134  -0.0393505 -0.101056 0.000360727  -0.0384958 -0.0954011 0.00069499  -0.033102 -0.0954372 0.000338197  -0.03851 -0.0954678 0.000385642  -0.0466112 -0.112376 0.000351429  -0.0457997 -0.106636 0.000671029  -0.0408823 -0.112379 0.000547051  -0.0352849 -0.112472 0.000279069  -0.0345788 -0.106676 0.000516534  -0.0458093 -0.106693 0.00037694  -0.0408932 -0.11242 0.000315309  -0.0401312 -0.10665 0.000593662  -0.0345951 -0.106733 0.000297904  -0.040144 -0.106707 0.000337124  -0.0480697 -0.123895 0.000304937  -0.0473557 -0.118065 0.000566721  -0.0422552 -0.12396 0.000462055  -0.0365572 -0.124091 0.000246167  -0.0359237 -0.118211 0.000440359  -0.0473644 -0.118111 0.000326395  -0.0422643 -0.123992 0.000275135  -0.0415883 -0.118136 0.000503421  -0.0359381 -0.118258 0.000262499  -0.0415988 -0.118181 0.000294685  -0.0493476 -0.135576 0.000264406  -0.0487237 -0.12968 0.000474453  -0.0434723 -0.135695 0.000387549  -0.037698 -0.135858 0.000216961  -0.0371306 -0.129919 0.000373244  -0.0487304 -0.129718 0.00028348  -0.0434794 -0.135718 0.000240684  -0.0428814 -0.129799 0.000423431  -0.0371433 -0.129957 0.000231504  -0.0428902 -0.129837 0.000256896  -0.0504637 -0.147372 0.000229239  -0.0499194 -0.141432 0.000393629  -0.0445478 -0.147537 0.00032258  -0.0387189 -0.147728 0.000192523  -0.0382121 -0.141752 0.000314593  -0.0499246 -0.141461 0.000244975  -0.0445538 -0.147552 0.000210524  -0.0440257 -0.141594 0.000353694  -0.0382223 -0.141781 0.000204682  -0.0440328 -0.141622 0.000224829  -0.0514364 -0.159239 0.000199914  -0.0509624 -0.153276 0.000324488  -0.0454991 -0.159444 0.000267982  -0.039634 -0.159657 0.000172138  -0.0391798 -0.153663 0.000264645  -0.050967 -0.153298 0.000213385  -0.0455029 -0.159452 0.000185728  -0.0450368 -0.153472 0.000293851  -0.0391886 -0.153686 0.000182152  -0.0450428 -0.153495 0.000197172  -0.0522852 -0.171143 0.00017643  -0.0518711 -0.165172 0.000266671  -0.0463409 -0.171378 0.000223517  -0.0404556 -0.17161 0.000156403  -0.0400486 -0.165614 0.000223041  -0.0518749 -0.165188 0.000186443  -0.0463443 -0.171382 0.000165939  -0.0459313 -0.165398 0.000244141  -0.0400553 -0.165631 0.000163913  -0.0459359 -0.165413 0.00017488  -0.0530303 -0.18305 0.000158429  -0.0526662 -0.177086 0.000220656  -0.0470917 -0.183309 0.000188947  -0.0411985 -0.183554 0.000144243  -0.0408299 -0.177571 0.000190258  -0.0526693 -0.177097 0.000166297  -0.0470943 -0.183308 0.000151396  -0.0467255 -0.177334 0.000204802  -0.0408359 -0.177583 0.000149965  -0.0467293 -0.177345 0.000157595  -0.0536933 -0.194936 0.000146985  -0.0533669 -0.188989 0.000185966  -0.0477684 -0.195211 0.00016427  -0.0418763 -0.195466 0.000136852  -0.0415394 -0.189506 0.00016582  -0.053371 -0.188996 0.000151157  -0.0477707 -0.195207 0.000141263  -0.047437 -0.189253 0.000175118  -0.0415444 -0.189514 0.000140429  -0.0474403 -0.189261 0.000145555  -0.0542974 -0.206782 0.000139952  -0.0539978 -0.200859 0.000162482  -0.0483906 -0.207066 0.000147462  -0.0425038 -0.207326 0.000132442  -0.0421906 -0.201396 0.000148654  -0.0540013 -0.200864 0.000142097  -0.0483925 -0.207059 0.000136018  -0.0480845 -0.201133 0.000154853  -0.0421956 -0.201402 0.000134587  -0.0480871 -0.201138 0.000137925  -0.0548685 -0.218579 0.000136375  -0.0545807 -0.212682 0.000147104  -0.0489762 -0.218863 0.000136256  -0.0430954 -0.219125 0.000129938  -0.0427992 -0.213228 0.00013721  -0.0545855 -0.212686 0.000137448  -0.0489783 -0.218856 0.000132442  -0.0486853 -0.212959 0.000141263  -0.042803 -0.213232 0.000131369  -0.0486887 -0.212963 0.000133753  -0.055429 -0.230343 0.000133038  -0.055145 -0.224458 0.000136256  -0.0495429 -0.230618 0.000125647  -0.0436683 -0.230875 0.000128031  -0.0433784 -0.224999 0.000127673  -0.0551488 -0.224461 0.000133991  -0.0495455 -0.230613 0.000129938  -0.0492594 -0.224732 0.000131011  -0.0433822 -0.225003 0.000129223  -0.0492628 -0.224735 0.000131369  -0.0013893 -0.00288403 0.000654101  0 0 0  -0.00101397 -0.00240543 0.000259519  -0.000352781 -0.000989541 0.000285268  0 0 0  -0.00137226 -0.00292642 0.00033021  -0.000463422 -0.00130449 0.000355959  0 0 0  -0.000347991 -0.00101472 0.000140071  -0.000460248 -0.0013379 0.000174522  -0.00397326 -0.00685905 0.00108206  -0.00295572 -0.00625761 0.000434995  -0.0019158 -0.00412025 0.000716925  -0.00397223 -0.00695547 0.000546098  -0.00258814 -0.00474188 0.000898719  -0.00190645 -0.00418772 0.000362873  -0.00257702 -0.00482337 0.000450492  -0.00697565 -0.0117178 0.0012815  -0.00530887 -0.0111807 0.000521183  -0.00413147 -0.00848146 0.000962377  -0.00695646 -0.0118461 0.000650287  -0.00545937 -0.00916642 0.00120616  -0.00411034 -0.00860062 0.000487804  -0.00544706 -0.00928961 0.000610113  -0.00994265 -0.0174632 0.00131667  -0.00769898 -0.0170318 0.000540018  -0.00652829 -0.0138508 0.00105047  -0.00993681 -0.0176088 0.000671506  -0.00847003 -0.0144652 0.00131416  -0.00650987 -0.0139928 0.000536203  -0.00845984 -0.0146156 0.000669837  -0.012762 -0.0240937 0.00125837  -0.00999087 -0.0237601 0.00052011  -0.00886852 -0.0201319 0.00103676  -0.012759 -0.0242421 0.000646949  -0.0113774 -0.0206574 0.00129509  -0.00886279 -0.0202875 0.000533104  -0.011371 -0.0208165 0.0006634  -0.0153686 -0.0315648 0.00115705  -0.0121278 -0.031315 0.000482917  -0.0110754 -0.0272823 0.000970364  -0.0153761 -0.0317077 0.00059855  -0.0140907 -0.0277156 0.00121057  -0.0110788 -0.0274367 0.000502944  -0.0140941 -0.0278731 0.000624299  -0.0177673 -0.0398075 0.00104165  -0.0141068 -0.0396275 0.000439525  -0.0131239 -0.0352326 0.000882745  -0.017781 -0.0399389 0.000543594  -0.0165932 -0.0355824 0.00110006  -0.0131369 -0.0353793 0.000461698  -0.0166043 -0.0357303 0.000571609  -0.019967 -0.0487413 0.00092721  -0.0159349 -0.0486223 0.000396609  -0.0150208 -0.0439076 0.000790477  -0.0199853 -0.04886 0.000488639  -0.0188901 -0.0441806 0.000984073  -0.0150387 -0.0440429 0.000418067  -0.0189073 -0.0443164 0.000515819  -0.0219831 -0.0582859 0.000818849  -0.0176243 -0.0582196 0.000356317  -0.0167753 -0.0532269 0.000701904  -0.0220033 -0.0583897 0.000437021  -0.0209963 -0.0534301 0.000872016  -0.0167961 -0.0533486 0.000376225  -0.0210164 -0.0535515 0.000462294  -0.0238302 -0.0683601 0.000719547  -0.0191861 -0.0683421 0.000319958  -0.0183988 -0.0631103 0.000620246  -0.0238504 -0.0684504 0.000389814  -0.0229259 -0.0632491 0.000768185  -0.0184201 -0.0632183 0.000337958  -0.0229474 -0.0633566 0.000412822  -0.02552 -0.0788885 0.000629067  -0.0206301 -0.0789133 0.000287056  -0.0199008 -0.0734801 0.000545621  -0.0255395 -0.0789649 0.000347137  -0.0246931 -0.0735599 0.000673294  -0.0199223 -0.0735743 0.000303149  -0.0247138 -0.0736532 0.000367999  -0.0270643 -0.0897983 0.000547051  -0.0219644 -0.0898625 0.000257492  -0.0212904 -0.084262 0.000478029  -0.0270823 -0.0898625 0.000308633  -0.0263085 -0.0842877 0.000586987  -0.0213102 -0.0843433 0.000272155  -0.0263286 -0.0843682 0.000327349  -0.028473 -0.101022 0.000473499  -0.0231965 -0.101121 0.000231385  -0.0225744 -0.0953862 0.000417471  -0.0284888 -0.101075 0.000274301  -0.0277839 -0.0953628 0.000509501  -0.0225927 -0.0954552 0.00024426  -0.0278016 -0.095431 0.000291109  -0.0297557 -0.112498 0.000407815  -0.0243324 -0.112628 0.000208735  -0.0237598 -0.106788 0.00036335  -0.0297697 -0.11254 0.000243902  -0.0291282 -0.10672 0.000439644  -0.0237757 -0.106846 0.000219822  -0.0291444 -0.106777 0.000258565  -0.0309216 -0.124169 0.000349641  -0.0253795 -0.124326 0.000188589  -0.0248524 -0.118407 0.000315189  -0.0309333 -0.124201 0.000217676  -0.0303519 -0.1183 0.000377774  -0.0248669 -0.118455 0.000198483  -0.030365 -0.118347 0.000230432  -0.03198 -0.135981 0.000298619  -0.0263433 -0.136162 0.000171542  -0.025859 -0.130189 0.000273108  -0.0319898 -0.136005 0.000194669  -0.0314626 -0.130048 0.000323296  -0.025871 -0.130228 0.000180125  -0.0314742 -0.130086 0.000205636  -0.0329404 -0.14789 0.00025475  -0.027231 -0.14809 0.000157356  -0.0267859 -0.142085 0.00023663  -0.032948 -0.147906 0.000175118  -0.0324709 -0.141914 0.000275731  -0.0267963 -0.142115 0.00016439  -0.0324802 -0.141944 0.000184417  -0.0338128 -0.159851 0.000217915  -0.0280499 -0.160068 0.000146151  -0.0276401 -0.15405 0.000205994  -0.0338187 -0.159861 0.000159264  -0.0333858 -0.153854 0.000235438  -0.0276482 -0.154073 0.000151634  -0.0333939 -0.153877 0.000166774  -0.0346076 -0.171831 0.000188231  -0.0288072 -0.172061 0.000137329  -0.0284288 -0.166045 0.00018084  -0.0346122 -0.171835 0.000147223  -0.0342181 -0.165829 0.000202298  -0.0284357 -0.166063 0.000141501  -0.034224 -0.165846 0.000152826  -0.0353355 -0.183797 0.000165582  -0.0295105 -0.184038 0.000131726  -0.0291598 -0.178038 0.00016129  -0.0353386 -0.183797 0.000138283  -0.0349779 -0.177805 0.000176072  -0.0291648 -0.178051 0.000134468  -0.0349829 -0.177817 0.000142336  -0.0360067 -0.195725 0.000149131  -0.0301671 -0.195973 0.000128388  -0.0298398 -0.190001 0.000146985  -0.0360093 -0.195721 0.000132918  -0.0356765 -0.189754 0.000156641  -0.029844 -0.19001 0.000129938  -0.0356801 -0.189763 0.000135303  -0.036633 -0.207595 0.000137806  -0.0307853 -0.207849 0.000126839  -0.0304766 -0.201912 0.000136971  -0.0366352 -0.207589 0.0001297  -0.036324 -0.201655 0.00014317  -0.0304806 -0.201918 0.000127673  -0.0363269 -0.201661 0.00013113  -0.0372255 -0.219398 0.000129461  -0.0313742 -0.219655 0.000126481  -0.0310798 -0.213755 0.000130057  -0.0372269 -0.219391 0.000128269  -0.0369318 -0.213492 0.000133395  -0.0310829 -0.21376 0.000126481  -0.0369341 -0.213497 0.000128746  -0.0378003 -0.231137 0.000121951  -0.0319488 -0.231385 0.0001266  -0.0316584 -0.225523 0.000124574  -0.0378017 -0.231132 0.000127196  -0.0375116 -0.225263 0.000125647  -0.031661 -0.225528 0.000126719  -0.0375144 -0.225267 0.000127673  -0.000712022 -0.00202584 0.000391364  0 0 0  -0.000443138 -0.00182754 0.000131726  -0.000153676 -0.000651985 0.000143528  0 0 0  -0.000710331 -0.00205311 0.000196338  -0.000242118 -0.000780255 0.000214219  0 0 0  -0.000151508 -0.000668049 7.1764e-05  -0.000239912 -0.000799686 0.000106692  -0.00211148 -0.00568354 0.000645161  -0.00132848 -0.00543979 0.00021863  -0.000849962 -0.00339422 0.000358343  -0.00210923 -0.00576416 0.000326157  -0.00134945 -0.00367698 0.000536323  -0.000843272 -0.00345901 0.00018084  -0.00134788 -0.00374264 0.000270367  -0.00383812 -0.0105678 0.000767112  -0.00245047 -0.0103525 0.000263691  -0.00187981 -0.00764909 0.000481844  -0.00382957 -0.0106845 0.000391483  -0.00295281 -0.00798044 0.000720382  -0.00186974 -0.00775915 0.000246882  -0.00294682 -0.00809166 0.000365496  -0.00562453 -0.0164585 0.000791669  -0.00364932 -0.0163046 0.000276089  -0.00305253 -0.0130759 0.000529051  -0.00562212 -0.0165961 0.000407338  -0.00473228 -0.0133868 0.000788331  -0.00304645 -0.0132104 0.000273466  -0.00472632 -0.0135238 0.000404835  -0.00736117 -0.0232561 0.000759244  -0.00483912 -0.0231624 0.000269413  -0.00424784 -0.0194752 0.000524998  -0.00736308 -0.023399 0.000394344  -0.00650316 -0.0197373 0.000779986  -0.00424784 -0.0196243 0.000274897  -0.00650257 -0.0198883 0.000403285  -0.00899971 -0.0308869 0.000700116  -0.00598675 -0.0308444 0.000252724  -0.0054124 -0.0267533 0.000493884  -0.00900865 -0.0310257 0.000367641  -0.00819278 -0.02696 0.000731349  -0.00541884 -0.0269033 0.000261903  -0.00819844 -0.0271119 0.000382066  -0.010537 -0.0392753 0.000632405  -0.00708556 -0.039277 0.000233293  -0.00653076 -0.0348253 0.000451684  -0.0105507 -0.0394056 0.00033617  -0.00978011 -0.0349789 0.000666618  -0.00654197 -0.0349697 0.000243425  -0.00979233 -0.0351242 0.000352383  -0.0119776 -0.0483437 0.000565171  -0.00813812 -0.0483814 0.000214338  -0.00760299 -0.0436136 0.000407577  -0.0119941 -0.0484615 0.000305414  -0.0112684 -0.0437171 0.00059855  -0.00761735 -0.043748 0.000223875  -0.0112841 -0.0438519 0.000320792  -0.0133291 -0.0580107 0.00050211  -0.009148 -0.058081 0.000196815  -0.00863218 -0.0530379 0.000365376  -0.0133466 -0.0581156 0.000276089  -0.0126629 -0.0530948 0.000533223  -0.00864804 -0.0531598 0.000205517  -0.0126811 -0.0532165 0.000290513  -0.0145984 -0.0681988 0.000445008  -0.0101187 -0.0682971 0.000181198  -0.0096221 -0.0630186 0.000326633  -0.0146159 -0.0682899 0.00025034  -0.0139729 -0.0630321 0.000472903  -0.00963783 -0.0631273 0.000188828  -0.013991 -0.0631404 0.000263095  -0.0157911 -0.078831 0.000393271  -0.0110524 -0.0789555 0.000167608  -0.0105745 -0.0734783 0.000292063  -0.0158077 -0.0789091 0.000227094  -0.0152029 -0.0734515 0.000418425  -0.01059 -0.0735738 0.000174284  -0.0152211 -0.0735464 0.000238538  -0.0169117 -0.0898363 0.000346899  -0.0119501 -0.0899833 0.000155807  -0.0114913 -0.084343 0.000261307  -0.0169264 -0.0899016 0.000206947  -0.0163593 -0.0842789 0.00036931  -0.0115055 -0.0844256 0.000161648  -0.0163757 -0.084361 0.000216722  -0.0179635 -0.101146 0.000305653  -0.012813 -0.101314 0.000145793  -0.012373 -0.0955425 0.000234127  -0.0179765 -0.1012 0.000188589  -0.0174446 -0.0954447 0.00032568  -0.0123857 -0.0956132 0.0001508  -0.0174598 -0.0955145 0.000197649  -0.0189502 -0.112699 0.000269175  -0.0136408 -0.112885 0.000137687  -0.01322 -0.107012 0.000210524  -0.0189614 -0.112742 0.00017333  -0.018464 -0.106884 0.000286698  -0.0132309 -0.107072 0.000141859  -0.0184767 -0.106942 0.000180721  -0.0198749 -0.124437 0.000236988  -0.0144348 -0.12464 0.000130534  -0.0140321 -0.118692 0.000189781  -0.0198845 -0.124471 0.00015974  -0.0194191 -0.118536 0.000252366  -0.014042 -0.118741 0.00013411  -0.0194303 -0.118585 0.000166297  -0.0207415 -0.136309 0.00020957  -0.015195 -0.136525 0.000125289  -0.014811 -0.130527 0.000172138  -0.0207491 -0.136334 0.000148773  -0.0203145 -0.130347 0.000222683  -0.0148188 -0.130567 0.000128031  -0.0203235 -0.130387 0.000154018  -0.0215538 -0.148268 0.000186205  -0.015923 -0.148495 0.000121236  -0.0155561 -0.142468 0.000157475  -0.0215595 -0.148286 0.000139594  -0.021153 -0.142268 0.000197291  -0.015563 -0.1425 0.000123382  -0.0211608 -0.1423 0.000144005  -0.0223157 -0.160273 0.000166655  -0.0166197 -0.160508 0.000118613  -0.0162694 -0.154472 0.000145435  -0.0223198 -0.160283 0.000132561  -0.0219398 -0.154255 0.000175834  -0.0162749 -0.154497 0.000120044  -0.0219455 -0.154279 0.000135899  -0.0230319 -0.172286 0.000151634  -0.0172873 -0.17253 0.00011754  -0.0169528 -0.166499 0.000136375  -0.0230346 -0.172292 0.000127554  -0.0226779 -0.166268 0.000158668  -0.0169568 -0.166518 0.000118136  -0.0226824 -0.166286 0.000129819  -0.0237069 -0.184281 0.000140786  -0.0179276 -0.184529 0.000117898  -0.0176075 -0.178519 0.000130057  -0.0237086 -0.184282 0.000124931  -0.0233734 -0.178275 0.000145674  -0.0176103 -0.178532 0.000117779  -0.023376 -0.178289 0.000126004  -0.0243459 -0.196229 0.000133276  -0.018543 -0.196483 0.000118971  -0.0182359 -0.190502 0.000126243  -0.0243468 -0.196227 0.000123739  -0.0240293 -0.19025 0.000136733  -0.0182383 -0.190512 0.000118613  -0.0240319 -0.190259 0.000124335  -0.0249538 -0.208115 0.000128388  -0.019136 -0.208372 0.000121236  -0.0188403 -0.202428 0.000124216  -0.0249543 -0.20811 0.000124216  -0.0246527 -0.202169 0.000130653  -0.0188422 -0.202435 0.000120163  -0.0246537 -0.202175 0.000123858  -0.0255373 -0.219924 0.000125289  -0.0197113 -0.220182 0.00012362  -0.0194244 -0.21428 0.000123739  -0.0255368 -0.219918 0.000124931  -0.0252466 -0.214017 0.000126719  -0.0194252 -0.214286 0.000122547  -0.0252481 -0.214022 0.000124454  -0.0261064 -0.231644 0.000122786  -0.0202746 -0.231895 0.000126719  -0.0199919 -0.226046 0.00012362  -0.0261064 -0.231639 0.0001266  -0.025821 -0.225784 0.000123858  -0.0199933 -0.226051 0.000125289  -0.0258214 -0.225789 0.000125885  -0.000200219 -0.00169525 0.000131965  0 0 0  3.43621e-05 -0.00170505 1.54972e-06  1.19209e-05 -0.000580519 5.96046e-07  0 0 0  -0.000198595 -0.00171903 6.6638e-05  -6.70515e-05 -0.000588149 7.21216e-05  0 0 0  1.12504e-05 -0.000591159 3.57628e-07  -6.85379e-05 -0.000600398 3.61204e-05  -0.00060831 -0.00520259 0.00021863  8.89897e-05 -0.00525272 5.96046e-06  6.43134e-05 -0.00323245 4.41074e-06  -0.000607207 -0.00527599 0.000112653  -0.000383914 -0.00325021 0.00018096  6.21825e-05 -0.00328979 3.69549e-06  -0.000380918 -0.00330964 9.26256e-05  -0.00114873 -0.0100725 0.000262499  0.000120163 -0.0101656 1.12057e-05  0.000113428 -0.00746009 1.01328e-05  -0.00114703 -0.0101812 0.00013721  -0.000866205 -0.0074788 0.000245094  0.000109464 -0.00756556 8.82149e-06  -0.000864625 -0.00758427 0.000127196  -0.00175273 -0.0160275 0.000273824  0.000101805 -0.0161596 1.60933e-05  0.000123411 -0.0129112 1.51396e-05  -0.00175455 -0.0161592 0.000145912  -0.00144511 -0.0129178 0.00027132  0.000117958 -0.0130413 1.39475e-05  -0.00144562 -0.0130495 0.00014329  -0.00238389 -0.0229151 0.000265479  2.40803e-05 -0.0230751 2.0504e-05  7.73668e-05 -0.0193615 1.89543e-05  -0.00238836 -0.0230538 0.000144958  -0.00206631 -0.0193499 0.00027132  7.08103e-05 -0.0195079 1.87159e-05  -0.00206923 -0.0194969 0.000146151  -0.00302565 -0.030639 0.000247836  -0.000116587 -0.0308203 2.47955e-05  -3.08752e-05 -0.0266998 2.18153e-05  -0.00303334 -0.0307755 0.000138402  -0.00270283 -0.0266662 0.000257492  -3.8445e-05 -0.0268477 2.2769e-05  -0.00270998 -0.0268147 0.000142097  -0.00367498 -0.0391165 0.000227451  -0.000318289 -0.0393138 2.92063e-05  -0.000201821 -0.034833 2.45571e-05  -0.00368464 -0.0392456 0.000131607  -0.00334913 -0.0347763 0.000237703  -0.000209808 -0.0349764 2.70605e-05  -0.00335795 -0.0349198 0.000135064  -0.00433159 -0.0482689 0.000207424  -0.000578582 -0.0484786 3.38554e-05  -0.000433087 -0.0436815 2.75373e-05  -0.00434202 -0.0483866 0.000123978  -0.0040015 -0.0436012 0.000217199  -0.000441313 -0.0438153 3.15905e-05  -0.00401258 -0.0437351 0.000127435  -0.00499475 -0.0580149 0.000189185  -0.000892997 -0.058235 3.8743e-05  -0.000721216 -0.0531638 3.12328e-05  -0.00500512 -0.0581202 0.000117898  -0.00466192 -0.0530602 0.000198126  -0.000729084 -0.0532859 3.62396e-05  -0.00467265 -0.0531822 0.000120878  -0.00566351 -0.0682767 0.000173092  -0.00125647 -0.068506 4.37498e-05  -0.00106144 -0.0632001 3.55244e-05  -0.00567329 -0.0683686 0.000112295  -0.00532722 -0.063074 0.000180721  -0.00106871 -0.0633093 4.13656e-05  -0.00533867 -0.0631828 0.000114799  -0.00633574 -0.0789775 0.000159383  -0.0016638 -0.0792147 4.93526e-05  -0.00144827 -0.0737124 4.02927e-05  -0.00634491 -0.0790567 0.000108719  -0.00599873 -0.0735646 0.000166059  -0.00145483 -0.0738083 4.673e-05  -0.00600851 -0.0736602 0.000110507  -0.00700986 -0.0900457 0.00014782  -0.00210929 -0.0902899 5.47171e-05  -0.00187612 -0.0846256 4.55379e-05  -0.00701773 -0.0901121 0.000105262  -0.00667155 -0.084458 0.000153303  -0.00188196 -0.084709 5.20945e-05  -0.0066812 -0.0845408 0.000106812  -0.00768268 -0.101413 0.000138164  -0.00258708 -0.101663 6.09159e-05  -0.00233972 -0.09587 5.14984e-05  -0.007689 -0.101468 0.000103831  -0.00734591 -0.0956837 0.000142694  -0.00234437 -0.0959412 5.80549e-05  -0.00735343 -0.0957546 0.000104308  -0.00835121 -0.113017 0.000130415  -0.00309122 -0.113272 6.67572e-05  -0.00283229 -0.107379 5.76973e-05  -0.00835645 -0.113061 0.000102282  -0.00801623 -0.107177 0.00013411  -0.00283599 -0.10744 6.41346e-05  -0.00802338 -0.107236 0.000102878  -0.00901341 -0.1248 0.000123858  -0.00361729 -0.125059 7.30753e-05  -0.00334871 -0.119094 6.40154e-05  -0.00901723 -0.124835 0.000102282  -0.00868273 -0.118877 0.000126839  -0.00335193 -0.119144 7.00951e-05  -0.00868738 -0.118927 0.000102043  -0.00966668 -0.136711 0.000119209  -0.00415897 -0.136973 7.86781e-05  -0.00388408 -0.13096 7.04527e-05  -0.00966942 -0.136737 0.000102162  -0.00933993 -0.130731 0.000121355  -0.00388622 -0.131001 7.60555e-05  -0.00934446 -0.130771 0.000101924  -0.0103097 -0.148703 0.000115871  -0.00471234 -0.148966 8.51154e-05  -0.00443339 -0.142928 7.71284e-05  -0.0103111 -0.148721 0.000103474  -0.00998878 -0.142687 0.000117302  -0.00443459 -0.14296 8.21352e-05  -0.00999141 -0.14272 0.000102639  -0.0109406 -0.160735 0.000113964  -0.0052731 -0.161 9.10759e-05  -0.00499105 -0.154953 8.39233e-05  -0.0109406 -0.160747 0.000105023  -0.0106254 -0.154704 0.00011456  -0.00499177 -0.154979 8.83341e-05  -0.0106275 -0.154729 0.00010407  -0.0115583 -0.172771 0.000113487  -0.0058372 -0.173036 9.69172e-05  -0.00555491 -0.166998 9.04799e-05  -0.0115576 -0.172778 0.000107646  -0.01125 -0.166743 0.000113368  -0.00555468 -0.167018 9.42945e-05  -0.0112503 -0.166762 0.000106096  -0.0121624 -0.184784 0.000114441  -0.00640273 -0.185049 0.000103354  -0.00612092 -0.179031 9.72748e-05  -0.0121613 -0.184785 0.000110626  -0.0118606 -0.17877 0.000113726  -0.00611973 -0.179046 0.000100255  -0.0118611 -0.178784 0.000109076  -0.0127532 -0.196747 0.000116348  -0.00696635 -0.197011 0.000109196  -0.00668597 -0.191025 0.00010407  -0.0127518 -0.196744 0.00011456  -0.0124588 -0.19076 0.000115156  -0.00668478 -0.191035 0.000106454  -0.0124578 -0.19077 0.000112414  -0.0133309 -0.208642 0.00011909  -0.00752664 -0.208906 0.000115514  -0.00724792 -0.202959 0.000110984  -0.013329 -0.208637 0.000118256  -0.0130427 -0.202691 0.00011766  -0.00724697 -0.202966 0.000112653  -0.013042 -0.202698 0.000116348  -0.0138965 -0.220454 0.000121951  -0.00808215 -0.220718 0.000121236  -0.0078063 -0.214816 0.00011754  -0.0138941 -0.220448 0.000122786  -0.0136139 -0.214546 0.00012064  -0.00780463 -0.214821 0.000118613  -0.0136127 -0.214551 0.000120521  -0.014452 -0.232162 0.000125408  -0.00862932 -0.232426 0.000127554  -0.00835776 -0.22658 0.000123739  -0.0144496 -0.232158 0.000126958  -0.0141735 -0.226311 0.000123501  -0.00835633 -0.226585 0.000124454  -0.0141726 -0.226316 0.000124693  0.000270709 -0.00175738 -0.000127435  0 0 0  0.000511155 -0.00194961 -0.000127196  0.000176668 -0.000720859 -0.000141859  0 0 0  0.000267625 -0.00178015 -6.28233e-05  9.01073e-05 -0.000623226 -7.10487e-05  0 0 0  0.000173219 -0.000737369 -6.96182e-05  9.14335e-05 -0.000635028 -3.49283e-05  0.000790209 -0.00530189 -0.00020349  0.00150365 -0.00563538 -0.000205159  0.000976771 -0.00355971 -0.000347018  0.000785619 -0.00537431 -0.000100017  0.000511453 -0.00333333 -0.000171661  0.000965565 -0.00362277 -0.0001719  0.000505596 -0.00339186 -8.49962e-05  0.00139436 -0.0101974 -0.000235915  0.00268206 -0.0105978 -0.000239134  0.00210103 -0.00787324 -0.000457883  0.00138578 -0.0103047 -0.000113845  0.00109035 -0.00759131 -0.000223994  0.00208294 -0.00798047 -0.000227571  0.00108308 -0.00769573 -0.000109076  0.00196201 -0.0161763 -0.000238538  0.00383699 -0.0165976 -0.000241756  0.00328714 -0.0133472 -0.000494599  0.00195444 -0.0163064 -0.000112653  0.00168702 -0.0130541 -0.000240088  0.00326991 -0.0134787 -0.000243306  0.00167888 -0.0131846 -0.000115037  0.00243813 -0.0230902 -0.000223637  0.00486511 -0.0235102 -0.000226021  0.00438339 -0.019797 -0.000483394  0.00243068 -0.0232279 -0.000102997  0.00221455 -0.0195111 -0.000232577  0.00436997 -0.0199438 -0.000235677  0.00220573 -0.0196571 -0.000108361  0.00279897 -0.0308442 -0.000200629  0.00572783 -0.0312543 -0.000201464  0.00532651 -0.0271327 -0.000446796  0.00279343 -0.0309802 -8.80957e-05  0.00263327 -0.0268558 -0.000212789  0.00531775 -0.0272812 -0.0002141  0.00262684 -0.0270036 -9.57251e-05  0.00304478 -0.0393549 -0.000174761  0.00642115 -0.0397543 -0.000173807  0.00610024 -0.0352693 -0.000399828  0.00304049 -0.0394836 -7.24792e-05  0.00293696 -0.0349978 -0.000187874  0.00609541 -0.035413 -0.000187397  0.00293118 -0.0351409 -8.03471e-05  0.00318015 -0.0485418 -0.000148177  0.00695276 -0.0489295 -0.000145793  0.0067088 -0.0441263 -0.000350356  0.0031774 -0.0486596 -5.59092e-05  0.00312608 -0.0438566 -0.000161529  0.00670648 -0.0442605 -0.000159621  0.00312245 -0.0439904 -6.40154e-05  0.00321388 -0.0583228 -0.000122547  0.00733459 -0.0587003 -0.000118613  0.00716197 -0.0536212 -0.00030148  0.00321209 -0.0584285 -4.02927e-05  0.00321031 -0.0533507 -0.000135422  0.00716174 -0.0537436 -0.000131965  0.00320697 -0.0534729 -4.79221e-05  0.00315428 -0.0686194 -9.7394e-05  0.0075798 -0.068986 -9.33409e-05  0.00747275 -0.0636722 -0.000255227  0.00315344 -0.0687118 -2.44379e-05  0.00319588 -0.0633995 -0.000109911  0.00747371 -0.0637818 -0.000105858  0.00319409 -0.0635088 -3.21865e-05  0.00301087 -0.0793529 -7.36713e-05  0.00770068 -0.0797102 -6.90222e-05  0.00765324 -0.0741997 -0.00021112  0.00301075 -0.0794325 -1.00136e-05  0.00309372 -0.073924 -8.54731e-05  0.00765502 -0.0742961 -8.07047e-05  0.00309217 -0.07402 -1.69277e-05  0.00279272 -0.0904515 -5.10216e-05  0.00770998 -0.0907989 -4.57764e-05  0.00771642 -0.0851278 -0.000169992  0.00279331 -0.0905185 4.64916e-06  0.00291133 -0.0848487 -6.24657e-05  0.0077188 -0.0852115 -5.72205e-05  0.00291109 -0.0849323 -2.6226e-06  0.00250828 -0.101846 -2.93255e-05  0.00761962 -0.102185 -2.40803e-05  0.00767386 -0.0963853 -0.000131249  0.00250971 -0.101902 1.8239e-05  0.00265944 -0.0961036 -4.00543e-05  0.00767672 -0.0964571 -3.45707e-05  0.0026592 -0.0961751 1.15633e-05  0.00216687 -0.113474 -8.58307e-06  0.0074414 -0.113804 -3.8147e-06  0.0075376 -0.107907 -9.5129e-05  0.00216877 -0.113519 3.18289e-05  0.00234509 -0.107623 -1.89543e-05  0.00754106 -0.107967 -1.37091e-05  0.00234616 -0.107683 2.51532e-05  0.00177622 -0.125279 1.04904e-05  0.00718617 -0.1256 1.54972e-05  0.00731933 -0.119631 -6.17504e-05  0.00177896 -0.125314 4.39882e-05  0.00197828 -0.119346 1.07288e-06  0.00732267 -0.119682 6.07967e-06  0.00197959 -0.119396 3.8147e-05  0.00134468 -0.137207 2.83718e-05  0.00686526 -0.13752 3.25441e-05  0.00702977 -0.131504 -3.11136e-05  0.00134802 -0.137234 5.59092e-05  0.00156593 -0.131218 1.96695e-05  0.00703335 -0.131546 2.43187e-05  0.00156844 -0.131259 5.01871e-05  0.000880003 -0.149213 4.54187e-05  0.00648832 -0.149518 4.88758e-05  0.0066793 -0.143477 -2.98023e-06  0.000883341 -0.149232 6.69956e-05  0.00111723 -0.143191 3.70741e-05  0.00668335 -0.14351 4.11272e-05  0.00111961 -0.143224 6.16312e-05  0.000388145 -0.161257 6.03199e-05  0.00606537 -0.161554 6.31809e-05  0.00627851 -0.155506 2.21729e-05  0.000392437 -0.161269 7.76052e-05  0.00063777 -0.15522 5.29289e-05  0.00628233 -0.155532 5.6386e-05  0.000640869 -0.155246 7.24792e-05  -0.000123978 -0.173302 7.43866e-05  0.00560522 -0.173592 7.66516e-05  0.00583577 -0.167553 4.45843e-05  -0.000119448 -0.173308 8.69036e-05  0.000135899 -0.167269 6.74725e-05  0.00583959 -0.167573 7.03335e-05  0.00013876 -0.167288 8.22544e-05  -0.000650883 -0.18532 8.70228e-05  0.00511622 -0.185603 8.86917e-05  0.00536013 -0.179586 6.47306e-05  -0.000646114 -0.185321 9.60827e-05  -0.000384808 -0.179303 8.08239e-05  0.00536442 -0.179601 8.30889e-05  -0.000380993 -0.179318 9.17912e-05  -0.00118804 -0.197286 9.85861e-05  0.00460553 -0.197564 9.9659e-05  0.00485945 -0.191579 8.18968e-05  -0.00118303 -0.197284 0.000104308  -0.000917196 -0.191298 9.29832e-05  0.00486326 -0.191589 9.44138e-05  -0.00091362 -0.191308 0.000100374  -0.00173068 -0.209183 0.000109315  0.00407934 -0.209457 0.000109911  0.00434041 -0.203511 9.75132e-05  -0.00172591 -0.209179 0.000112891  -0.00145817 -0.203232 0.00010407  0.00434399 -0.203518 0.000105023  -0.00145364 -0.203239 0.000108719  -0.00227523 -0.220996 0.000119448  0.00354481 -0.221268 0.000119209  0.00380898 -0.215366 0.000111341  -0.00227022 -0.220991 0.000120401  -0.00200152 -0.215089 0.000114202  0.00381279 -0.215371 0.000114679  -0.00199795 -0.215094 0.000116706  -0.00281453 -0.232705 0.000128984  0.00301218 -0.232983 0.000128388  0.00327325 -0.227132 0.000124335  -0.00281048 -0.232701 0.000127912  -0.00254512 -0.226854 0.000123978  0.0032773 -0.227137 0.000123858  -0.00254154 -0.226859 0.000124097  0.000778213 -0.0022105 -0.000383139  0 0 0  0.00106898 -0.00264668 -0.000256062  0.000371888 -0.00112754 -0.000280499  0 0 0  0.000775442 -0.00223529 -0.000191331  0.000262864 -0.000881195 -0.000211596  0 0 0  0.000361145 -0.00114983 -0.000144124  0.000260741 -0.000903726 -0.000105977  0.00228426 -0.00597703 -0.000622749  0.00310862 -0.00663847 -0.000414848  0.00203028 -0.00444514 -0.000696301  0.00227854 -0.006055 -0.000309587  0.00147115 -0.00392377 -0.000521421  0.00201197 -0.00450838 -0.000347853  0.00146694 -0.0039866 -0.000259876  0.0040625 -0.010936 -0.000732183  0.00550082 -0.011658 -0.0004884  0.00432369 -0.00891399 -0.000926018  0.00404727 -0.0110484 -0.000363588  0.00316221 -0.00831217 -0.000691652  0.00429344 -0.00902975 -0.000460744  0.00315094 -0.00842017 -0.000343084  0.00579929 -0.0168993 -0.000748158  0.00782925 -0.0176082 -0.000498533  0.00671518 -0.0143813 -0.00100303  0.00578743 -0.0170331 -0.000369787  0.00494635 -0.0137897 -0.000748873  0.00668573 -0.0145174 -0.00049901  0.00493169 -0.0139227 -0.000372052  0.0073697 -0.0237802 -0.000710011  0.00994372 -0.0244536 -0.000470638  0.0089379 -0.0207697 -0.000983  0.00735933 -0.0239201 -0.000348449  0.00661081 -0.0202182 -0.000733495  0.008919 -0.0209205 -0.000487208  0.00659841 -0.0203658 -0.000361323  0.00871992 -0.0315052 -0.000647068  0.011786 -0.0321398 -0.000426769  0.0109104 -0.0280434 -0.000913143  0.00871575 -0.0316421 -0.000313878  0.00807321 -0.0275298 -0.000680327  0.0108991 -0.0281942 -0.000449777  0.00806534 -0.0276791 -0.000332355  0.00985008 -0.0399961 -0.000575542  0.0133551 -0.0405938 -0.000376344  0.0126079 -0.0361294 -0.000823379  0.00985003 -0.0401251 -0.000274777  0.00931275 -0.0356475 -0.000611782  0.0126046 -0.0362741 -0.000401616  0.00931036 -0.0357915 -0.000294685  0.0107692 -0.0491711 -0.000503302  0.0146625 -0.049735 -0.000325441  0.0140389 -0.0449477 -0.00072825  0.0107725 -0.0492888 -0.000235558  0.010336 -0.0444908 -0.000539303  0.0140403 -0.0450821 -0.000350595  0.0103368 -0.044625 -0.000255227  0.011493 -0.0589452 -0.000433683  0.0157272 -0.059478 -0.000276804  0.015219 -0.0544125 -0.000634909  0.0114983 -0.0590507 -0.000197411  0.0111552 -0.0539758 -0.000468016  0.0152242 -0.0545346 -0.000300646  0.0111592 -0.054098 -0.000216365  0.0120374 -0.0692379 -0.000368357  0.0165689 -0.0697418 -0.000230551  0.0161681 -0.0644391 -0.000546217  0.012044 -0.06933 -0.000161886  0.0117878 -0.0640192 -0.000400662  0.0161748 -0.0645481 -0.000253081  0.0117927 -0.0641286 -0.00017941  0.0124184 -0.0799689 -0.000306845  0.0172071 -0.0804457 -0.000187159  0.0169046 -0.0749456 -0.000463247  0.0124258 -0.0800484 -0.000127673  0.012248 -0.0745407 -0.000337243  0.0169125 -0.0750416 -0.000208497  0.0122547 -0.0746369 -0.000144601  0.0126514 -0.0910655 -0.000249624  0.0176605 -0.0915172 -0.000146866  0.0174476 -0.085855 -0.000385642  0.0126593 -0.0911323 -9.63211e-05  0.0125536 -0.0854635 -0.000277877  0.0174558 -0.0859382 -0.000166416  0.0125601 -0.085547 -0.000111699  0.0127516 -0.102458 -0.000196576  0.0179472 -0.102885 -0.000109196  0.0178152 -0.097095 -0.000313997  0.0127596 -0.102513 -6.63996e-05  0.012718 -0.0967161 -0.000222564  0.0178238 -0.0971662 -0.000127435  0.0127255 -0.0967877 -8.10623e-05  0.0127331 -0.114083 -0.000147343  0.0180849 -0.114488 -7.42674e-05  0.0180252 -0.108599 -0.000247717  0.0127412 -0.114128 -3.89814e-05  0.0127575 -0.108232 -0.000171423  0.0180337 -0.10866 -9.13143e-05  0.0127643 -0.108293 -5.24521e-05  0.0126101 -0.125883 -0.000102401  0.01809 -0.126267 -4.23193e-05  0.0180947 -0.120307 -0.00018692  0.0126182 -0.125918 -1.32322e-05  0.0126846 -0.119952 -0.000124454  0.018103 -0.120357 -5.76973e-05  0.0126925 -0.120002 -2.59876e-05  0.0123966 -0.137807 -6.17504e-05  0.0179794 -0.138172 -1.33514e-05  0.0180403 -0.132164 -0.000131965  0.0124047 -0.137833 9.65595e-06  0.0125152 -0.13182 -8.17776e-05  0.0180483 -0.132205 -2.74181e-05  0.0125221 -0.131861 -1.54972e-06  0.0121047 -0.149807 -2.52724e-05  0.0177684 -0.150153 1.28746e-05  0.0178778 -0.144121 -8.22544e-05  0.0121131 -0.149826 3.11136e-05  0.0122604 -0.143788 -4.29153e-05  0.0178857 -0.144154 3.57628e-07  0.0122681 -0.143821 2.0504e-05  0.0117474 -0.161844 7.39098e-06  0.0174725 -0.162174 3.62396e-05  0.0176232 -0.156134 -3.8147e-05  0.0117557 -0.161856 4.97103e-05  0.011935 -0.155811 -8.34465e-06  0.0176303 -0.15616 2.51532e-05  0.0119417 -0.155837 4.05312e-05  0.0113368 -0.173882 3.60012e-05  0.0171068 -0.174197 5.67436e-05  0.0172906 -0.168166 1.19209e-07  0.0113447 -0.173889 6.69956e-05  0.0115492 -0.167853 2.20537e-05  0.0172977 -0.168185 4.69685e-05  0.0115566 -0.167872 5.85318e-05  0.0108833 -0.185893 6.05583e-05  0.0166845 -0.186195 7.49826e-05  0.0168951 -0.180185 3.31402e-05  0.0108907 -0.185895 8.18968e-05  0.0111163 -0.179881 4.87566e-05  0.0169022 -0.180199 6.61612e-05  0.0111225 -0.179895 7.45058e-05  0.010397 -0.197853 8.11815e-05  0.0162189 -0.198144 9.04799e-05  0.0164502 -0.192165 6.10352e-05  0.0104041 -0.197851 9.5129e-05  0.0106447 -0.191868 7.14064e-05  0.0164566 -0.192175 8.32081e-05  0.0106511 -0.191879 8.86917e-05  0.00988626 -0.209744 9.98974e-05  0.0157206 -0.210027 0.000104189  0.0159678 -0.204085 8.46386e-05  0.00989318 -0.20974 0.00010705  0.0101449 -0.203796 9.09567e-05  0.0159731 -0.204092 9.77516e-05  0.0101514 -0.203803 0.000101328  0.00935984 -0.221555 0.000116229  0.0152009 -0.221834 0.000116348  0.0154567 -0.215933 0.000104904  0.00936723 -0.22155 0.000118136  0.00962543 -0.215648 0.000108004  0.0154631 -0.215938 0.000110745  0.00963163 -0.215653 0.000112534  0.00883198 -0.233275 0.000131845  0.0146759 -0.233563 0.000128508  0.014931 -0.227701 0.00012362  0.00883937 -0.233271 0.000128388  0.00909615 -0.227415 0.000124097  0.0149372 -0.227707 0.000122666  0.00910211 -0.22742 0.000123382  0.00141501 -0.00317979 -0.000637293  0 0 0  0.00180143 -0.00400299 -0.000382543  0.000625521 -0.00193566 -0.000424385  0 0 0  0.00140657 -0.00322157 -0.000320196  0.000467852 -0.00146973 -0.000349164  0 0 0  0.000603989 -0.00196242 -0.000201225  0.000466824 -0.00149715 -0.000172973  0.0040997 -0.0073244 -0.00104392  0.00522345 -0.00843716 -0.000629187  0.00345802 -0.00610358 -0.00105309  0.00409526 -0.0074234 -0.000519276  0.00266059 -0.0051502 -0.000871181  0.00340314 -0.00616401 -0.000522017  0.00265589 -0.00521636 -0.000438333  0.00713506 -0.0123079 -0.00122905  0.00890127 -0.0133593 -0.000737906  0.00711587 -0.0106574 -0.00139713  0.00711235 -0.0124315 -0.000612974  0.00561523 -0.00969225 -0.00116038  0.00707743 -0.0107867 -0.000698686  0.0056003 -0.00981522 -0.000577688  0.0100299 -0.0181824 -0.00125563  0.0123609 -0.0191638 -0.00075233  0.0106992 -0.0159946 -0.0015111  0.0100148 -0.0183216 -0.000624418  0.00860804 -0.0151185 -0.00125682  0.0106616 -0.0161442 -0.000754118  0.00858989 -0.0152612 -0.000627637  0.0126641 -0.0249649 -0.00119424  0.0155059 -0.0258752 -0.00071466  0.0140029 -0.0222495 -0.00148118  0.0126501 -0.0251081 -0.000592709  0.0113877 -0.0214496 -0.00123215  0.0139766 -0.0224068 -0.000738263  0.0113698 -0.0216035 -0.000612378  0.0149723 -0.0326055 -0.00109231  0.0182827 -0.03345 -0.000650764  0.0169562 -0.0294025 -0.00137877  0.014967 -0.0327446 -0.000538349  0.0138591 -0.0286699 -0.00114608  0.0169404 -0.0295576 -0.000684142  0.0138493 -0.0288225 -0.000567079  0.0169597 -0.0410287 -0.000976086  0.0206908 -0.0418131 -0.000578761  0.0195391 -0.0373905 -0.00124681  0.0169604 -0.0411582 -0.000477195  0.0160066 -0.0367122 -0.00103509  0.0195323 -0.0375375 -0.000614882  0.0160035 -0.0368575 -0.000508308  0.0186399 -0.0501485 -0.000858903  0.0227433 -0.0508788 -0.000505328  0.0217603 -0.0461279 -0.00110686  0.018645 -0.0502664 -0.000414968  0.0178374 -0.0454949 -0.000917435  0.0217598 -0.0462626 -0.000541568  0.0178403 -0.0456291 -0.000446081  0.0200337 -0.0598767 -0.000746131  0.024465 -0.0605567 -0.000434756  0.0236402 -0.0555234 -0.00096941  0.0200422 -0.0599813 -0.000355482  0.0193722 -0.0549296 -0.000801802  0.0236442 -0.0556456 -0.000469446  0.0193783 -0.0550513 -0.000384927  0.0211637 -0.0701289 -0.000640035  0.0258789 -0.0707624 -0.000368476  0.0252026 -0.0654895 -0.000838995  0.0211738 -0.0702205 -0.000299096  0.0206313 -0.0649304 -0.000692487  0.0252087 -0.0655977 -0.000400782  0.0206399 -0.0650386 -0.000326991  0.0220516 -0.0808234 -0.000540733  0.0270116 -0.0814133 -0.000305772  0.0264715 -0.0759407 -0.000716686  0.0220625 -0.0809018 -0.000246286  0.0216377 -0.0754133 -0.00058949  0.0264791 -0.076036 -0.000336528  0.0216473 -0.0755086 -0.000272155  0.0227191 -0.0918862 -0.000448942  0.0278865 -0.0924355 -0.000248075  0.0274718 -0.0867991 -0.000602722  0.0227305 -0.0919526 -0.000197053  0.0224127 -0.0863011 -0.000494123  0.0274798 -0.0868814 -0.000276089  0.022423 -0.0863836 -0.000221252  0.0231867 -0.103246 -0.000363946  0.0285283 -0.103757 -0.000194311  0.0282267 -0.097991 -0.000497222  0.0231981 -0.103301 -0.000151515  0.0229779 -0.0975209 -0.00040555  0.0282353 -0.0980617 -0.000220299  0.0229882 -0.0975915 -0.000173926  0.0234748 -0.114841 -0.000285983  0.0289593 -0.115316 -0.000144839  0.0287602 -0.10945 -0.000400424  0.0234857 -0.114885 -0.000109196  0.0233529 -0.109006 -0.00032413  0.0287688 -0.109509 -0.000168562  0.0233634 -0.109066 -0.000129938  0.0236026 -0.126612 -0.000214934  0.0292026 -0.127053 -9.95398e-05  0.0290947 -0.121115 -0.000311852  0.0236135 -0.126647 -7.09295e-05  0.0235586 -0.120696 -0.000249624  0.029103 -0.121164 -0.000121236  0.0235687 -0.120745 -8.96454e-05  0.0235898 -0.138508 -0.000150919  0.0292795 -0.138918 -5.85318e-05  0.0292525 -0.132931 -0.000231981  0.0236003 -0.138534 -3.57628e-05  0.0236135 -0.132535 -0.000182033  0.0292603 -0.132972 -7.82013e-05  0.0236236 -0.132576 -5.29289e-05  0.0234544 -0.150482 -9.38177e-05  0.0292125 -0.150864 -2.16961e-05  0.0292552 -0.14485 -0.000159979  0.0234649 -0.1505 -4.64916e-06  0.0235376 -0.144476 -0.000121474  0.0292628 -0.144882 -3.93391e-05  0.0235469 -0.144508 -1.96695e-05  0.0232153 -0.162495 -4.37498e-05  0.0290213 -0.162851 1.0252e-05  0.029124 -0.156828 -9.69172e-05  0.0232251 -0.162507 2.36034e-05  0.0233479 -0.156474 -6.79493e-05  0.0291312 -0.156853 -4.88758e-06  0.0233569 -0.156499 1.00136e-05  0.0228891 -0.174511 -7.15256e-07  0.0287278 -0.174844 3.86238e-05  0.0288792 -0.168828 -4.20809e-05  0.0228989 -0.174517 4.75645e-05  0.0230634 -0.168492 -2.14577e-05  0.0288866 -0.168848 2.52724e-05  0.023072 -0.168511 3.5882e-05  0.0224938 -0.186502 3.55244e-05  0.0283513 -0.186816 6.18696e-05  0.028542 -0.180819 4.05312e-06  0.0225029 -0.186503 6.86646e-05  0.0227003 -0.180499 1.8239e-05  0.0285487 -0.180833 5.10216e-05  0.0227087 -0.180513 5.85318e-05  0.0220447 -0.198444 6.53267e-05  0.0279121 -0.198742 8.23736e-05  0.0281312 -0.192774 4.23193e-05  0.0220532 -0.198442 8.63075e-05  0.0222762 -0.192468 5.126e-05  0.0281386 -0.192784 7.30753e-05  0.022284 -0.192478 7.79629e-05  0.0215549 -0.210321 9.04799e-05  0.0274267 -0.210609 9.88245e-05  0.0276673 -0.204675 7.31945e-05  0.0215638 -0.210317 0.000101805  0.0218046 -0.204379 7.86781e-05  0.027674 -0.204682 9.13143e-05  0.0218129 -0.204386 9.42945e-05  0.0210392 -0.222126 0.000112295  0.0269115 -0.222407 0.000113487  0.0271645 -0.216509 9.84669e-05  0.0210481 -0.22212 0.000115395  0.021301 -0.21622 0.000101566  0.0271723 -0.216515 0.000106692  0.0213087 -0.216226 0.000108719  0.0205133 -0.233864 0.00013268  0.0263824 -0.234153 0.000127792  0.0266397 -0.228278 0.000120997  0.0205219 -0.233859 0.000128508  0.0207767 -0.22799 0.000122666  0.0266478 -0.228284 0.000120759  0.0207849 -0.227995 0.000121951  0.00262022 -0.00509578 -0.000916123  0 0 0  0.00406119 -0.0065915 -0.000527859  0.00181488 -0.0039413 -0.00058639  0 0 0  0.00260426 -0.0051443 -0.000479102  0.000853427 -0.00260043 -0.000496864  0 0 0  0.00171401 -0.00394642 -0.000305891  0.0008628 -0.00264817 -0.000235319  0.00661588 -0.00949544 -0.00146997  0.00848183 -0.0110056 -0.000845551  0.00640287 -0.00851482 -0.00141263  0.00668788 -0.00966156 -0.000724912  0.00454469 -0.00725323 -0.00123942  0.00624172 -0.0087316 -0.000694394  0.00458257 -0.00737083 -0.000609994  0.0109337 -0.0142826 -0.00172031  0.0131799 -0.0156359 -0.000969887  0.0108913 -0.0130647 -0.00184608  0.0109069 -0.0144345 -0.000857592  0.00880677 -0.0118061 -0.00162888  0.0108445 -0.0131857 -0.000920892  0.00880739 -0.0119275 -0.000807643  0.0149194 -0.0199793 -0.00175476  0.0176585 -0.021206 -0.000995278  0.0155007 -0.0181143 -0.00199044  0.0149011 -0.020129 -0.000874519  0.0129652 -0.0169987 -0.00175774  0.01546 -0.0182894 -0.000992179  0.0129426 -0.0171584 -0.000878096  0.0185543 -0.0265993 -0.00167358  0.0217606 -0.0277243 -0.000947952  0.0197929 -0.0241793 -0.00195777  0.0185342 -0.026749 -0.000832915  0.0167888 -0.0231618 -0.00172472  0.0197636 -0.0243428 -0.000975966  0.016767 -0.0233221 -0.000859618  0.0217686 -0.0341101 -0.00153482  0.0254167 -0.0351471 -0.000869393  0.023671 -0.031163 -0.0018307  0.0217587 -0.0342528 -0.000760913  0.0202142 -0.0302351 -0.00160861  0.0236459 -0.0313259 -0.000910044  0.0201982 -0.0303931 -0.000799537  0.0245745 -0.042425 -0.00137699  0.0286208 -0.0433812 -0.000777721  0.0270935 -0.039019 -0.00166225  0.0245695 -0.0425555 -0.000678778  0.0232232 -0.0381609 -0.00145733  0.0270754 -0.0391675 -0.000823379  0.0232152 -0.0383082 -0.000720739  0.026979 -0.0514525 -0.00121534  0.0313792 -0.052336 -0.000683784  0.0300664 -0.0476366 -0.00148106  0.026981 -0.0515706 -0.000594854  0.0258259 -0.0468428 -0.00129604  0.0300542 -0.0477739 -0.000729322  0.0258235 -0.0469784 -0.000636816  0.0290138 -0.0610986 -0.00106013  0.0337223 -0.0619133 -0.00059247  0.0326089 -0.0569317 -0.00130153  0.0290176 -0.0612021 -0.000513792  0.0280422 -0.0561922 -0.00113702  0.0326014 -0.0570521 -0.000636816  0.0280446 -0.0563133 -0.000553966  0.0306982 -0.0712763 -0.000913262  0.0356733 -0.072028 -0.000506163  0.0347492 -0.0668003 -0.00113022  0.0307057 -0.0713669 -0.000437379  0.0298988 -0.0661138 -0.000985622  0.0347449 -0.0669085 -0.000547528  0.0299032 -0.0662217 -0.00047493  0.0320659 -0.0819018 -0.00077641  0.0372674 -0.0825929 -0.000424981  0.0365161 -0.0771661 -0.000969291  0.0320731 -0.0819785 -0.000365257  0.0314212 -0.0765263 -0.000843644  0.0365136 -0.0772588 -0.000464082  0.0314279 -0.0766201 -0.000400662  0.0331374 -0.0928999 -0.000649214  0.038529 -0.0935354 -0.000349879  0.0379387 -0.0879398 -0.000819445  0.0331469 -0.092965 -0.0002985  0.0326378 -0.0873464 -0.00071156  0.0379379 -0.0880213 -0.000385523  0.0326447 -0.087428 -0.000331521  0.0339454 -0.104199 -0.000532389  0.0394926 -0.10478 -0.000280261  0.0390469 -0.0990563 -0.000681162  0.033954 -0.104252 -0.000236869  0.0335742 -0.0985043 -0.000589609  0.0390468 -0.099124 -0.00031352  0.0335823 -0.0985734 -0.000267267  0.0345104 -0.115736 -0.000424862  0.0401829 -0.116269 -0.000216246  0.0398693 -0.110439 -0.000554085  0.0345197 -0.115779 -0.000180125  0.0342577 -0.109929 -0.000477433  0.0398701 -0.110498 -0.000246286  0.0342652 -0.109988 -0.000207901  0.0348616 -0.127452 -0.000327468  0.0406314 -0.127938 -0.000158072  0.0404348 -0.122037 -0.000437975  0.0348703 -0.127485 -0.00012815  0.0347122 -0.121563 -0.000374913  0.0404358 -0.122084 -0.000185609  0.0347207 -0.121612 -0.000153542  0.0350196 -0.139298 -0.000239372  0.0408616 -0.139742 -0.000105143  0.0407697 -0.133786 -0.000332713  0.0350292 -0.139323 -8.10623e-05  0.0349641 -0.13335 -0.00028193  0.0407721 -0.133826 -0.00012958  0.034972 -0.133389 -0.000103951  0.0350137 -0.151224 -0.000161409  0.0409045 -0.151628 -5.82933e-05  0.0409033 -0.145647 -0.000238776  0.0350218 -0.151241 -3.92199e-05  0.035037 -0.145242 -0.000199199  0.0409048 -0.145677 -7.98702e-05  0.0350451 -0.145273 -5.94854e-05  0.034862 -0.163194 -9.35793e-05  0.0407832 -0.163564 -1.71661e-05  0.0408602 -0.157568 -0.000156403  0.0348711 -0.163206 -2.6226e-06  0.0349555 -0.157194 -0.000126123  0.0408626 -0.157592 -3.56436e-05  0.0349627 -0.157219 -2.02656e-05  0.0345929 -0.175172 -3.57628e-05  0.0405273 -0.17551 1.85966e-05  0.0406675 -0.16952 -8.54731e-05  0.0346017 -0.175177 2.92063e-05  0.0347421 -0.169172 -6.31809e-05  0.0406706 -0.169537 2.26498e-06  0.03475 -0.169191 1.40667e-05  0.0342269 -0.18713 1.21593e-05  0.0401611 -0.187444 4.78029e-05  0.0403521 -0.181467 -2.63453e-05  0.0342357 -0.187132 5.57899e-05  0.0344217 -0.181143 -1.03712e-05  0.0403564 -0.18148 3.49283e-05  0.0344293 -0.181157 4.3273e-05  0.0337884 -0.199046 5.06639e-05  0.0397134 -0.199338 7.236e-05  0.0399408 -0.193387 2.15769e-05  0.0337973 -0.199043 7.80821e-05  0.0340164 -0.193083 3.25441e-05  0.0399458 -0.193396 6.17504e-05  0.0340245 -0.193092 6.73532e-05  0.0332992 -0.210904 8.13007e-05  0.0392087 -0.211185 9.17912e-05  0.0394599 -0.205261 5.96046e-05  0.0333078 -0.210901 9.62019e-05  0.0335495 -0.204971 6.69956e-05  0.0394659 -0.205268 8.35657e-05  0.0335579 -0.204978 8.7738e-05  0.0327775 -0.222699 0.000106335  0.0386732 -0.222973 0.000107884  0.0389347 -0.217079 8.85725e-05  0.0327876 -0.222693 0.000111461  0.0330424 -0.216797 9.40561e-05  0.0389433 -0.217085 0.000100851  0.033051 -0.216803 0.000103951  0.0322421 -0.234451 0.0001297  0.0381296 -0.234726 0.000123024  0.0383935 -0.228849 0.000112653  0.0322504 -0.234443 0.000125647  0.0325122 -0.228565 0.000118017  0.0384018 -0.228852 0.000115871  0.0325203 -0.22857 0.000118732  -0.00408757 -0.0059825 0.00167882  -0.00178697 -0.00347289 0.0012902  0 0 0  -0.00259071 -0.00438122 0.00199616  0 0 0  -0.00183439 -0.00349525 0.00122082  -0.000622533 -0.00164189 0.000928402  0 0 0  -0.00176379 -0.00365815 0.000926495  -0.00263195 -0.00458699 0.00144494  -0.000846934 -0.00225007 0.00109398  0 0 0  -0.000633586 -0.00171142 0.000668406  -0.000873141 -0.0023935 0.000775695  -0.00864449 -0.00983728 0.00264692  -0.00639795 -0.00751783 0.0030787  -0.0066421 -0.00833099 0.00318015  -0.00521179 -0.0075471 0.0019809  -0.00339217 -0.00522704 0.00228143  -0.00636327 -0.00782754 0.00221217  -0.00669874 -0.00862468 0.00232267  -0.00456414 -0.0063179 0.0026927  -0.00343317 -0.00546157 0.00166786  -0.00460619 -0.00656014 0.00197279  -0.0133545 -0.0143049 0.00307596  -0.0110523 -0.0115503 0.00397193  -0.0109662 -0.0128465 0.0036459  -0.00884953 -0.0122721 0.00231457  -0.00703996 -0.00945329 0.00297022  -0.0110049 -0.0119446 0.00292885  -0.0109366 -0.0132301 0.00270987  -0.0088228 -0.0104547 0.00348628  -0.00701907 -0.00979475 0.00219619  -0.00881603 -0.010812 0.00256515  -0.0179442 -0.0196129 0.00313151  -0.0157198 -0.0164042 0.0042206  -0.0150534 -0.0182853 0.00367904  -0.012391 -0.0178741 0.00236154  -0.0106766 -0.0145626 0.00316286  -0.0156789 -0.0168389 0.00313628  -0.0150355 -0.0186889 0.00275457  -0.0130416 -0.0154356 0.00370133  -0.0106416 -0.0149548 0.00236607  -0.0130145 -0.0158405 0.0027647  -0.022235 -0.0258551 0.00298417  -0.0201585 -0.0221803 0.00410724  -0.018852 -0.0246819 0.00348055  -0.0157049 -0.0243929 0.00224388  -0.0140845 -0.020619 0.00307608  -0.0201332 -0.0226134 0.00307703  -0.0188501 -0.0250777 0.00261962  -0.0169922 -0.021352 0.00359821  -0.014078 -0.0210192 0.00231624  -0.0169804 -0.0217669 0.00270259  -0.0261742 -0.0329915 0.00273836  -0.0242553 -0.0289094 0.00381434  -0.0223331 -0.0319761 0.00318384  -0.0187603 -0.0317742 0.00205731  -0.0172446 -0.0275941 0.0028547  -0.0242497 -0.0293167 0.00286829  -0.0223563 -0.0323434 0.00240207  -0.0206308 -0.0282108 0.00333953  -0.0172647 -0.0279785 0.00215602  -0.0206415 -0.0286041 0.00251794  -0.0297599 -0.0409403 0.00246012  -0.0279959 -0.0364979 0.00345075  -0.0255165 -0.0400771 0.00285316  -0.0215587 -0.0399448 0.00184572  -0.0201471 -0.0354092 0.00258148  -0.0280108 -0.0368688 0.00260282  -0.0255556 -0.0404094 0.00215614  -0.0239601 -0.0359176 0.00301981  -0.0201904 -0.0357646 0.00195301  -0.0239929 -0.0362798 0.00228047  -0.0330077 -0.049612 0.00218081  -0.0313979 -0.0448622 0.00307202  -0.0284147 -0.0488941 0.00252593  -0.024116 -0.0488185 0.00163686  -0.0228099 -0.0439775 0.00229836  -0.0314254 -0.0451918 0.00231969  -0.0284651 -0.0491879 0.00191104  -0.0269996 -0.0443904 0.00268841  -0.0228665 -0.0442981 0.00174057  -0.027045 -0.0447139 0.00203335  -0.0359391 -0.0589188 0.00191498  -0.0344751 -0.0539002 0.00270593  -0.0310495 -0.0583348 0.00221527  -0.0264472 -0.0583098 0.0014379  -0.025245 -0.0532055 0.00202537  -0.0345118 -0.0541905 0.00204742  -0.0311031 -0.0585922 0.00167847  -0.0297627 -0.0535279 0.00236797  -0.0253084 -0.0534905 0.00153589  -0.0298164 -0.053815 0.00179279  -0.0385764 -0.0687767 0.00166869  -0.0372548 -0.063532 0.00236273  -0.0334349 -0.0683179 0.00192797  -0.0285696 -0.0683373 0.00125527  -0.0274689 -0.0630108 0.00177073  -0.0372936 -0.0637842 0.00178969  -0.0334899 -0.0685395 0.00146317  -0.0322716 -0.0632519 0.00206876  -0.0275333 -0.0632605 0.00134492  -0.0323266 -0.0635016 0.00156903  -0.0409403 -0.0791082 0.00144255  -0.0397509 -0.0736695 0.0020467  -0.0355905 -0.0787629 0.00166392  -0.0304967 -0.0788232 0.00108767  -0.0294937 -0.0733095 0.00153637  -0.0397915 -0.073887 0.00155449  -0.0356421 -0.0789524 0.00126612  -0.0345395 -0.0734736 0.00179315  -0.0295564 -0.0735261 0.00116968  -0.0345938 -0.0736904 0.00136244  -0.0430508 -0.0898394 0.00123668  -0.0419892 -0.084243 0.0017575  -0.0375288 -0.0895984 0.00142384  -0.0322434 -0.0896951 0.000936031  -0.0313332 -0.0840288 0.00132263  -0.0420265 -0.084428 0.00133753  -0.0375772 -0.0897575 0.00108683  -0.0365851 -0.0841243 0.00154114  -0.0313919 -0.0842141 0.00100994  -0.0366354 -0.0843088 0.00117469  -0.0449271 -0.100903 0.00105011  -0.043982 -0.0951768 0.00149477  -0.0392677 -0.100756 0.00120604  -0.0338215 -0.100885 0.000798345  -0.0329987 -0.0950954 0.00112844  -0.0440172 -0.0953328 0.0011425  -0.0393105 -0.100888 0.000924706  -0.0384209 -0.0951274 0.00131226  -0.0330523 -0.0952527 0.000865221  -0.0384676 -0.0952839 0.00100374  -0.0465872 -0.112236 0.00088203  -0.045753 -0.10641 0.0012567  -0.0408195 -0.112173 0.00101006  -0.0352436 -0.112331 0.000675082  -0.0345031 -0.106447 0.000953317  -0.0457834 -0.106539 0.000964403  -0.0408583 -0.11228 0.000778556  -0.0400651 -0.106423 0.00110543  -0.0345511 -0.106578 0.000734806  -0.0401064 -0.106553 0.000849962  -0.0480498 -0.123781 0.000732183  -0.0473151 -0.117879 0.00104332  -0.0422016 -0.123792 0.000834823  -0.0365214 -0.123975 0.000564694  -0.0358568 -0.118022 0.00079608  -0.0473425 -0.117984 0.000806332  -0.0422344 -0.123877 0.000648618  -0.0415298 -0.117947 0.000919938  -0.0358998 -0.11813 0.000618219  -0.0415664 -0.118054 0.000711799  -0.0493318 -0.135485 0.0006001  -0.0486896 -0.129531 0.0008533  -0.0434262 -0.135561 0.000679731  -0.0376678 -0.135765 0.000468373  -0.0370735 -0.129766 0.000656843  -0.0487125 -0.129616 0.000664711  -0.0434544 -0.135626 0.0005337  -0.0428318 -0.129648 0.000754952  -0.0371102 -0.129853 0.000514865  -0.0428628 -0.129734 0.000589609  -0.0504508 -0.147301 0.000485182  -0.0498908 -0.141315 0.000686407  -0.0445096 -0.147432 0.000545144  -0.0386939 -0.147654 0.000384212  -0.0381632 -0.14163 0.000534415  -0.0499105 -0.14138 0.000541449  -0.0445328 -0.14748 0.000434279  -0.0439835 -0.141473 0.000609994  -0.0381949 -0.141698 0.000424385  -0.0440099 -0.141541 0.000482082  -0.0514262 -0.159186 0.00038743  -0.0509391 -0.153187 0.00054276  -0.0454664 -0.159364 0.000430465  -0.0396132 -0.1596 0.000313282  -0.0391395 -0.153569 0.000429153  -0.0509553 -0.153236 0.000434756  -0.045486 -0.159397 0.000349402  -0.0450017 -0.153381 0.00048542  -0.0391657 -0.153621 0.000346899  -0.0450239 -0.153431 0.000390172  -0.0522764 -0.171104 0.000306726  -0.0518517 -0.165106 0.000422001  -0.0463145 -0.17132 0.00033617  -0.0404391 -0.171568 0.00025475  -0.0400145 -0.165543 0.000341058  -0.0518656 -0.165142 0.000345945  -0.0463305 -0.171341 0.000280261  -0.0459018 -0.165329 0.000380874  -0.0400367 -0.165582 0.00028193  -0.0459206 -0.165366 0.000312924  -0.0530221 -0.183022 0.000244141  -0.0526495 -0.17704 0.000324249  -0.0470688 -0.183268 0.000261664  -0.0411849 -0.183524 0.000209093  -0.0408022 -0.17752 0.000270128  -0.0526609 -0.177064 0.000273824  -0.0470822 -0.183279 0.000225544  -0.0467012 -0.177284 0.000296474  -0.0408208 -0.177547 0.000230074  -0.0467165 -0.17731 0.000251293  -0.0536847 -0.194917 0.000198007  -0.0533509 -0.188958 0.000250101  -0.0477481 -0.195183 0.000206947  -0.0418646 -0.195445 0.000175714  -0.0415161 -0.18947 0.000215769  -0.0533626 -0.188973 0.000219703  -0.04776 -0.195187 0.000186205  -0.0474155 -0.189219 0.0002321  -0.041532 -0.189489 0.000190973  -0.0474291 -0.189236 0.000204206  -0.0542877 -0.206768 0.000166893  -0.0539804 -0.200838 0.00019753  -0.0483711 -0.207046 0.000168443  -0.0424933 -0.20731 0.000151992  -0.0421705 -0.201371 0.000176191  -0.0539923 -0.200848 0.000181437  -0.0483818 -0.207044 0.000158191  -0.0480647 -0.201109 0.000185966  -0.0421846 -0.201384 0.000162601  -0.0480764 -0.20112 0.000170946  -0.0548563 -0.218567 0.000145674  -0.0545611 -0.212667 0.000162363  -0.0489557 -0.218846 0.000140905  -0.0430849 -0.219112 0.000133991  -0.0427809 -0.213209 0.0001477  -0.0545745 -0.212674 0.000155687  -0.0489666 -0.218843 0.000139236  -0.0486658 -0.212942 0.000153899  -0.0427926 -0.213218 0.000142574  -0.0486779 -0.212949 0.000148177  -0.0554142 -0.230329 0.000127554  -0.0551205 -0.224442 0.000136137  -0.0495214 -0.230599 0.000115037  -0.0436583 -0.230859 0.000118017  -0.0433605 -0.224981 0.000123739  -0.0551353 -0.224449 0.000137806  -0.0495327 -0.230598 0.000120878  -0.049238 -0.224714 0.000128388  -0.0433719 -0.224989 0.000126004  -0.0492504 -0.224722 0.000130057  -0.00141672 -0.00265765 0.00137985  0 0 0  -0.00102839 -0.00227624 0.000801325  -0.000359628 -0.00089556 0.000611782  0 0 0  -0.00138847 -0.00277878 0.000999093  -0.00047183 -0.00120126 0.00076282  0 0 0  -0.000351068 -0.00095439 0.000441074  -0.000463899 -0.00126512 0.000550985  -0.0040414 -0.00640394 0.00222337  -0.00299111 -0.00599386 0.00130272  -0.00196689 -0.00380591 0.00148463  -0.0040106 -0.00666818 0.00163805  -0.00263894 -0.00439632 0.00186718  -0.00193286 -0.00398935 0.00108683  -0.00260574 -0.00460358 0.00136793  -0.00703701 -0.0111175 0.00257874  -0.00534651 -0.0108169 0.0015316  -0.00419137 -0.00797845 0.001948  -0.00700033 -0.0114632 0.00192297  -0.00552911 -0.0086275 0.00244951  -0.00414938 -0.00828086 0.00144768  -0.00549072 -0.0089487 0.0018177  -0.00998127 -0.0168076 0.00260818  -0.00771961 -0.0166185 0.00156629  -0.00656879 -0.0132383 0.00208855  -0.00996488 -0.0171813 0.00196314  -0.00852776 -0.0138303 0.00262117  -0.00654078 -0.0135981 0.00156796  -0.00849834 -0.0142044 0.00196457  -0.0127494 -0.0234355 0.00247097  -0.00998634 -0.0233367 0.0014925  -0.00887191 -0.0194875 0.00203741  -0.0127597 -0.0238093 0.0018667  -0.0113899 -0.0199949 0.00255311  -0.0088712 -0.0198651 0.00153875  -0.0113859 -0.0203824 0.00192595  -0.0153162 -0.030939 0.00225985  -0.0120996 -0.0309058 0.00136888  -0.0110373 -0.0266485 0.00189328  -0.0153507 -0.0312928 0.00171173  -0.0140575 -0.0270711 0.00237072  -0.011062 -0.027018 0.00143445  -0.0140812 -0.0274468 0.0017935  -0.0176855 -0.0392303 0.00202608  -0.0140616 -0.0392461 0.00122976  -0.0130555 -0.0346356 0.00171292  -0.0177363 -0.0395549 0.00153637  -0.0165243 -0.0349795 0.00214398  -0.0130993 -0.0349827 0.00130022  -0.0165682 -0.0353296 0.00162482  -0.0198694 -0.0482216 0.00179482  -0.0158799 -0.0482754 0.00109184  -0.0149333 -0.0433609 0.00152636  -0.019929 -0.0485125 0.00136316  -0.018799 -0.043632 0.00190938  -0.0149878 -0.0436781 0.00116026  -0.0188559 -0.0439501 0.00144899  -0.0218797 -0.0578241 0.0015763  -0.0175654 -0.0579098 0.000961781  -0.0166789 -0.0527358 0.00134695  -0.0219421 -0.0580805 0.00119877  -0.0208948 -0.0529393 0.00168383  -0.0167385 -0.0530202 0.00102568  -0.020957 -0.0532231 0.00127935  -0.0237273 -0.067956 0.00137484  -0.0191276 -0.0680695 0.000842571  -0.0183014 -0.062676 0.00118029  -0.023789 -0.0681791 0.00104821  -0.022822 -0.0628169 0.00147355  -0.0183611 -0.0629272 0.000901222  -0.0228857 -0.0630665 0.001122  -0.0254226 -0.0785384 0.0011903  -0.0205743 -0.0786762 0.000733972  -0.0198067 -0.0731008 0.00102758  -0.0254809 -0.0787295 0.000910044  -0.0245925 -0.0731831 0.00128043  -0.019865 -0.0733195 0.000787139  -0.0246534 -0.0734001 0.000977397  -0.0269747 -0.089499 0.00102246  -0.0219133 -0.0896589 0.000635505  -0.0212028 -0.0839349 0.000888467  -0.0270282 -0.0896608 0.000785232  -0.0262147 -0.0839637 0.00110447  -0.0212567 -0.0841232 0.000683427  -0.0262719 -0.08415 0.000846148  -0.0283918 -0.100769 0.000871181  -0.0231506 -0.100949 0.00054729  -0.0224949 -0.0951074 0.000762939  -0.0284401 -0.100904 0.00067234  -0.0276984 -0.0950871 0.000944972  -0.0225443 -0.0952674 0.000590205  -0.0277503 -0.0952451 0.000727415  -0.0296837 -0.112287 0.000735283  -0.0242921 -0.112484 0.000468135  -0.023689 -0.106553 0.000650167  -0.0297267 -0.112398 0.000571609  -0.0290518 -0.106489 0.000801325  -0.0237325 -0.106688 0.000506759  -0.0290986 -0.106621 0.000620604  -0.0308592 -0.123996 0.000613689  -0.0253447 -0.124207 0.00039804  -0.0247905 -0.118213 0.000549197  -0.0308963 -0.124083 0.000481606  -0.0302848 -0.118109 0.000672579  -0.0248293 -0.118323 0.000432014  -0.0303252 -0.118218 0.000524998  -0.0319266 -0.135842 0.000506878  -0.0263141 -0.136066 0.000336528  -0.0258058 -0.130031 0.000460029  -0.0319583 -0.135911 0.000402689  -0.0314046 -0.129893 0.000558734  -0.0258391 -0.130121 0.00036633  -0.0314401 -0.12998 0.000440955  -0.0328953 -0.14778 0.000414014  -0.0272074 -0.148014 0.000283957  -0.0267413 -0.141959 0.000382185  -0.032922 -0.147831 0.000334263  -0.0324218 -0.14179 0.000458837  -0.0267699 -0.14203 0.00030911  -0.0324516 -0.14186 0.000367165  -0.0337758 -0.159768 0.000335693  -0.0280306 -0.16001 0.000239015  -0.0276027 -0.153952 0.000315428  -0.0337975 -0.159804 0.000276804  -0.0333447 -0.153758 0.000373125  -0.027627 -0.154006 0.000260472  -0.0333703 -0.153811 0.000304222  -0.0345774 -0.171769 0.000270844  -0.0287917 -0.172017 0.000203252  -0.0283985 -0.165971 0.000259995  -0.0345953 -0.171792 0.000229239  -0.0341847 -0.165756 0.0003016  -0.0284183 -0.166012 0.00022018  -0.0342052 -0.165796 0.000251889  -0.035311 -0.183752 0.000219941  -0.0294983 -0.184005 0.000174999  -0.0291352 -0.177984 0.00021565  -0.0353251 -0.183766 0.000192642  -0.0349507 -0.177752 0.000243902  -0.029151 -0.178013 0.000188351  -0.0349679 -0.17778 0.000210047  -0.0359864 -0.195693 0.000181675  -0.0301578 -0.19595 0.000154614  -0.0298204 -0.189963 0.000181556  -0.0359983 -0.195698 0.000165462  -0.0356543 -0.189717 0.000199556  -0.0298336 -0.189983 0.000164151  -0.0356679 -0.189736 0.000178099  -0.0366156 -0.207572 0.000153899  -0.0307779 -0.207832 0.000139594  -0.0304608 -0.201885 0.000156403  -0.0366256 -0.207573 0.000145912  -0.0363052 -0.201629 0.000166774  -0.0304723 -0.201898 0.000146389  -0.0363166 -0.201642 0.000154972  -0.0372093 -0.219379 0.000131607  -0.0313678 -0.21964 0.000127673  -0.0310664 -0.213735 0.000136852  -0.0372181 -0.219377 0.000130534  -0.0369151 -0.213473 0.000142336  -0.031076 -0.213744 0.000133395  -0.0369251 -0.213482 0.000138044  -0.0377843 -0.231117 0.000110388  -0.0319424 -0.231368 0.000116825  -0.031646 -0.225504 0.000119686  -0.0377932 -0.231116 0.000116587  -0.0374956 -0.225244 0.000120997  -0.0316546 -0.225513 0.00012219  -0.0375059 -0.225252 0.000123501  -0.000734329 -0.00183454 0.00082159  0 0 0  -0.000451282 -0.00172022 0.000399113  -0.000159021 -0.000575304 0.000307202  0 0 0  -0.000723124 -0.00193664 0.000597835  -0.00024851 -0.00069353 0.000460267  0 0 0  -0.000153657 -0.000622451 0.000220537  -0.000243329 -0.000748396 0.000330687  -0.0021608 -0.00529274 0.00131786  -0.0013458 -0.00520363 0.000649929  -0.000874043 -0.00311422 0.000739455  -0.00213638 -0.00551629 0.000974536  -0.0013895 -0.00338581 0.00110757  -0.000856653 -0.00328603 0.000543594  -0.0013689 -0.00355923 0.000813127  -0.00387979 -0.0100219 0.00153565  -0.00246635 -0.0100151 0.000766277  -0.00190842 -0.0071882 0.000969768  -0.00385705 -0.0103358 0.00114775  -0.00300211 -0.00750428 0.00145459  -0.00188774 -0.00746685 0.000721693  -0.00297618 -0.00778779 0.00108278  -0.00564075 -0.0158434 0.0015589  -0.00365317 -0.0159122 0.000786901  -0.00306699 -0.0125012 0.00104344  -0.00563478 -0.0161946 0.001176  -0.0047645 -0.0127952 0.00156379  -0.00305724 -0.0128397 0.000785708  -0.00474793 -0.0131426 0.00117457  -0.00733954 -0.0226252 0.00147986  -0.00482684 -0.0227534 0.000751972  -0.00423563 -0.0188582 0.00102091  -0.00735426 -0.0229836 0.00112152  -0.00650007 -0.019108 0.00152767  -0.00424379 -0.0192197 0.000773907  -0.00650465 -0.0194757 0.00115561  -0.0089485 -0.0302766 0.00135458  -0.00596029 -0.0304436 0.000691533  -0.00537598 -0.0261365 0.000950217  -0.00898051 -0.0306213 0.00102949  -0.00815535 -0.0263357 0.00142038  -0.00539905 -0.0264961 0.0007236  -0.00817943 -0.0266996 0.00107801  -0.0104652 -0.0387055 0.00121546  -0.00704944 -0.0388993 0.000623107  -0.00647599 -0.0342372 0.00086081  -0.0105088 -0.0390263 0.000925899  -0.0097174 -0.0343869 0.00128579  -0.0065102 -0.0345793 0.000657797  -0.00975657 -0.034731 0.000978231  -0.0118951 -0.0478246 0.00107837  -0.00809675 -0.048035 0.000555754  -0.00753766 -0.0430693 0.000768781  -0.0119445 -0.0481149 0.00082314  -0.0111899 -0.043172 0.00114644  -0.00757807 -0.0433853 0.000589371  -0.0112376 -0.0434883 0.000874043  -0.0132433 -0.0575467 0.000949264  -0.00910509 -0.0577696 0.000492811  -0.0085628 -0.0525453 0.000680566  -0.0132943 -0.057805 0.000726938  -0.0125782 -0.0526031 0.0010128  -0.00860548 -0.0528307 0.000523806  -0.0126297 -0.0528879 0.000774145  -0.0145146 -0.0677902 0.000831246  -0.0100768 -0.0680216 0.000435472  -0.00955284 -0.0625804 0.000599384  -0.0145644 -0.0680156 0.000638485  -0.0138873 -0.0625959 0.000889063  -0.00959527 -0.062834 0.000463605  -0.0139388 -0.0628481 0.000681758  -0.0157121 -0.0784755 0.000723481  -0.0110132 -0.0787151 0.000384212  -0.0105088 -0.0730941 0.000525713  -0.0157588 -0.0786703 0.000558853  -0.0151215 -0.0730698 0.000776052  -0.0105492 -0.073316 0.000409365  -0.0151707 -0.0732901 0.000597715  -0.016839 -0.0895312 0.000626445  -0.0119146 -0.0897763 0.000338197  -0.0114306 -0.0840105 0.000459552  -0.0168817 -0.0896961 0.000486732  -0.0162832 -0.0839491 0.000673652  -0.0114681 -0.0842022 0.000360727  -0.0163287 -0.0841392 0.000521779  -0.0178986 -0.100888 0.000538945  -0.0127816 -0.101138 0.000297666  -0.0123185 -0.0952584 0.000400305  -0.0179366 -0.101026 0.000422597  -0.0173759 -0.0951634 0.000581503  -0.0123522 -0.0954219 0.000317335  -0.0174174 -0.095325 0.000453591  -0.018893 -0.112483 0.000461102  -0.0136137 -0.112737 0.000261664  -0.0131721 -0.106773 0.000347733  -0.0189265 -0.112596 0.000365019  -0.0184027 -0.106647 0.000498772  -0.0132017 -0.10691 0.000279069  -0.0184393 -0.106783 0.000392675  -0.0198261 -0.12426 0.000391841  -0.0144122 -0.124518 0.000230312  -0.0139911 -0.118493 0.000301361  -0.0198548 -0.124351 0.000314474  -0.0193663 -0.11834 0.000425577  -0.0140171 -0.118607 0.000245571  -0.019398 -0.118452 0.000338793  -0.0207003 -0.136166 0.00033164  -0.0151764 -0.136426 0.000203133  -0.0147765 -0.130364 0.000260711  -0.0207245 -0.136237 0.000270247  -0.0202693 -0.130187 0.000360727  -0.0147983 -0.130457 0.000216365  -0.0202965 -0.130278 0.000291467  -0.0215197 -0.148155 0.000279427  -0.0159085 -0.148416 0.000180602  -0.0155282 -0.142338 0.00022614  -0.0215394 -0.148208 0.000232697  -0.0211155 -0.142141 0.00030458  -0.0155463 -0.142412 0.000191569  -0.0211387 -0.142212 0.000250816  -0.0222878 -0.160186 0.000235915  -0.0166087 -0.160447 0.000162125  -0.016247 -0.15437 0.000196815  -0.0223036 -0.160223 0.000201106  -0.0219085 -0.154155 0.000256538  -0.0162623 -0.154427 0.000171065  -0.0219274 -0.154211 0.000216007  -0.0230098 -0.172221 0.000200748  -0.0172791 -0.172484 0.000148177  -0.0169353 -0.166422 0.00017345  -0.0230222 -0.172247 0.000176191  -0.0226531 -0.166192 0.000217319  -0.0169473 -0.166465 0.000154853  -0.0226681 -0.166234 0.000187755  -0.02369 -0.184234 0.000173211  -0.0179222 -0.184496 0.000137687  -0.0175946 -0.178462 0.00015533  -0.0236993 -0.184248 0.00015676  -0.0233538 -0.17822 0.000185966  -0.0176036 -0.178493 0.000142574  -0.0233653 -0.17825 0.000165582  -0.024333 -0.196196 0.000152826  -0.0185397 -0.196459 0.00013113  -0.0182269 -0.190461 0.000141859  -0.0243399 -0.196203 0.00014317  -0.0240147 -0.19021 0.000162363  -0.0182338 -0.190483 0.00013411  -0.0240238 -0.190231 0.000149369  -0.0249434 -0.208092 0.000137806  -0.0191345 -0.208353 0.000126362  -0.0188336 -0.202399 0.00013268  -0.0249493 -0.208092 0.00013268  -0.0246408 -0.202141 0.000144839  -0.0188398 -0.202414 0.000128508  -0.0246477 -0.202155 0.000137687  -0.0255277 -0.219904 0.000125289  -0.0197098 -0.220166 0.000123262  -0.0194197 -0.214259 0.000126004  -0.0255325 -0.219903 0.000125408  -0.0252371 -0.213996 0.000131249  -0.019424 -0.214269 0.000124812  -0.0252435 -0.214006 0.000128984  -0.0260978 -0.23162 0.000113606  -0.0202732 -0.231876 0.00012064  -0.0199878 -0.226024 0.000119925  -0.0261023 -0.231621 0.000118375  -0.0258119 -0.225763 0.000119448  -0.0199919 -0.226034 0.000121832  -0.0258174 -0.225772 0.000121713  -0.000206083 -0.00152642 0.000276089  0 0 0  3.66122e-05 -0.0016056 1.78814e-06  1.28746e-05 -0.000510037 -8.34465e-07  0 0 0  -0.000201657 -0.00161716 0.000200868  -6.94282e-05 -0.000516146 0.000153542  0 0 0  1.1906e-05 -0.000550687 3.57628e-07  -6.92308e-05 -0.000558436 0.000110745  -0.000618428 -0.00484034 0.000441909  9.53674e-05 -0.00502726 7.62939e-06  7.08699e-05 -0.00297171 3.8147e-06  -0.000613004 -0.00504693 0.000327587  -0.000392258 -0.00298423 0.000370979  6.62953e-05 -0.00312713 4.52995e-06  -0.00038588 -0.00314385 0.00027287  -0.00115216 -0.00955698 0.000516415  0.00013122 -0.00983989 1.33514e-05  0.000127584 -0.00702015 1.04904e-05  -0.00114992 -0.00985155 0.000388861  -0.000875205 -0.00703329 0.0004884  0.000118196 -0.00728473 1.07288e-05  -0.00086987 -0.00729963 0.000365138  -0.0017418 -0.0154373 0.000527143  0.000117004 -0.0157769 1.71661e-05  0.000144899 -0.0123546 1.49012e-05  -0.00174892 -0.0157734 0.000401378  -0.00144237 -0.012356 0.000527382  0.00013119 -0.0126811 1.56164e-05  -0.00144467 -0.0126857 0.000399232  -0.00235665 -0.0223007 0.000502229  4.24385e-05 -0.0226729 1.93119e-05  0.000104725 -0.0187575 1.66893e-05  -0.00237298 -0.0226493 0.000384688  -0.00204664 -0.018742 0.000517607  8.76784e-05 -0.0191115 1.84774e-05  -0.00205868 -0.0190976 0.000395417  -0.00298572 -0.030038 0.000461221  -9.59635e-05 -0.0304236 2.07424e-05  5.96046e-07 -0.0260911 1.72853e-05  -0.00300956 -0.0303774 0.00035584  -0.00266904 -0.0260548 0.000482917  -1.87755e-05 -0.0264459 2.01464e-05  -0.00269014 -0.0264108 0.000371337  -0.00362712 -0.0385504 0.000415564  -0.00029701 -0.0389378 2.20537e-05  -0.000167847 -0.0342486 1.74046e-05  -0.00365555 -0.0388691 0.000322104  -0.0033043 -0.0341906 0.000438452  -0.000188768 -0.0345887 2.14577e-05  -0.00333118 -0.0345311 0.00033915  -0.00427997 -0.0477494 0.000370979  -0.000557482 -0.0481322 2.43187e-05  -0.000398755 -0.0431377 1.80006e-05  -0.00431037 -0.0480402 0.000290036  -0.00395149 -0.0430572 0.000392795  -0.000420034 -0.0434534 2.31266e-05  -0.00398189 -0.0433728 0.000305891  -0.00494313 -0.0575481 0.000329733  -0.00087297 -0.0579225 2.71797e-05  -0.000687957 -0.0526695 1.96695e-05  -0.00497305 -0.0578082 0.000259519  -0.00460947 -0.0525667 0.00034976  -0.000708461 -0.052956 2.563e-05  -0.00464058 -0.0528526 0.000274658  -0.00561416 -0.0678638 0.000293016  -0.00123835 -0.0682286 3.1352e-05  -0.00103033 -0.0627589 2.2769e-05  -0.00564289 -0.068092 0.000233412  -0.00527668 -0.0626341 0.000310779  -0.00104964 -0.0630142 2.92063e-05  -0.0053072 -0.0628884 0.000246286  -0.00629067 -0.0786172 0.000260472  -0.00164795 -0.078972 3.61204e-05  -0.00142026 -0.0733242 2.68221e-05  -0.0063169 -0.078815 0.000209808  -0.00595105 -0.0731781 0.000276208  -0.0014379 -0.0735485 3.3617e-05  -0.0059793 -0.0734013 0.000221372  -0.00696945 -0.0897354 0.000231981  -0.00209606 -0.0900803 4.1604e-05  -0.0018518 -0.0842888 3.20673e-05  -0.00699294 -0.0899037 0.000190139  -0.00662887 -0.0841229 0.00024581  -0.00186729 -0.0844831 3.88622e-05  -0.00665486 -0.0843159 0.000199795  -0.0076474 -0.101149 0.000207305  -0.00257647 -0.101484 4.78029e-05  -0.0023191 -0.0955814 3.80278e-05  -0.00766766 -0.10129 0.000172496  -0.00730777 -0.095397 0.000219345  -0.00233245 -0.0957474 4.47035e-05  -0.00733042 -0.0955619 0.000181198  -0.0083214 -0.112796 0.000186086  -0.00308335 -0.113122 5.43594e-05  -0.00281572 -0.107136 4.47035e-05  -0.00833857 -0.112912 0.00015831  -0.00798392 -0.106935 0.000196218  -0.00282657 -0.107276 5.11408e-05  -0.00800383 -0.107074 0.000165224  -0.00898874 -0.124618 0.000168204  -0.00361156 -0.124935 6.13928e-05  -0.00333607 -0.118891 5.19753e-05  -0.00900304 -0.124712 0.000145912  -0.00865519 -0.118676 0.000176787  -0.00334513 -0.119008 5.80549e-05  -0.00867128 -0.118791 0.000151873  -0.00964713 -0.136564 0.000153065  -0.00415564 -0.136872 6.84261e-05  -0.00387514 -0.130794 5.94854e-05  -0.00965822 -0.136637 0.000136256  -0.00931811 -0.130566 0.000160336  -0.00388169 -0.130889 6.50883e-05  -0.00933182 -0.13066 0.000140905  -0.0102942 -0.148586 0.000141144  -0.00471115 -0.148886 7.56979e-05  -0.00442719 -0.142794 6.73532e-05  -0.0103028 -0.148642 0.000128269  -0.00997114 -0.142556 0.000146747  -0.0044322 -0.14287 7.22408e-05  -0.00998163 -0.14263 0.000132203  -0.0109293 -0.160645 0.000132084  -0.00527358 -0.160937 8.28505e-05  -0.00498796 -0.154848 7.51019e-05  -0.0109353 -0.160685 0.000123024  -0.0106122 -0.154601 0.000136137  -0.00499153 -0.154907 7.93934e-05  -0.0106208 -0.154659 0.000125408  -0.0115507 -0.172704 0.000125408  -0.00583982 -0.172989 9.03606e-05  -0.00555444 -0.166918 8.29697e-05  -0.0115545 -0.172731 0.000119209  -0.0112405 -0.166664 0.000128388  -0.00555634 -0.166963 8.66652e-05  -0.0112462 -0.166708 0.000120997  -0.0121579 -0.184734 0.000121593  -0.00640631 -0.185013 9.77516e-05  -0.00612283 -0.178972 9.11951e-05  -0.0121601 -0.184751 0.000118017  -0.0118549 -0.178712 0.000123382  -0.00612283 -0.179004 9.41753e-05  -0.0118589 -0.178744 0.000118613  -0.0127511 -0.196711 0.000120401  -0.00697088 -0.196985 0.0001055  -0.00668955 -0.190983 9.93013e-05  -0.0127521 -0.196719 0.000118136  -0.0124552 -0.190718 0.000120878  -0.00668883 -0.191005 0.000101805  -0.0124574 -0.190741 0.000118136  -0.0133305 -0.208617 0.000120163  -0.0075314 -0.208887 0.000112772  -0.00725269 -0.202929 0.000107527  -0.0133305 -0.208618 0.000119686  -0.0130415 -0.202662 0.000120282  -0.00725174 -0.202944 0.000109196  -0.0130429 -0.202677 0.000118971  -0.0138967 -0.220432 0.000120759  -0.00808668 -0.220701 0.000119686  -0.00781178 -0.214792 0.000115156  -0.013896 -0.220432 0.000121355  -0.0136139 -0.214524 0.000120401  -0.00780964 -0.214804 0.000116229  -0.0136144 -0.214535 0.00012064  -0.0144525 -0.232135 0.000121832  -0.00863433 -0.232406 0.000126719  -0.00836325 -0.226556 0.000122905  -0.0144517 -0.232138 0.000123978  -0.0141742 -0.226288 0.000121236  -0.00836134 -0.226567 0.000123262  -0.0141747 -0.226299 0.000122428  0.000283822 -0.00159168 -0.000273347  0 0 0  0.000523657 -0.00184625 -0.000393867  0.000184402 -0.000649929 -0.000307202  0 0 0  0.00027518 -0.0016802 -0.000196576  9.48906e-05 -0.000552416 -0.000154495  0 0 0  0.000176564 -0.000693917 -0.000220418  9.33856e-05 -0.000594318 -0.000110388  0.00082162 -0.0049454 -0.000425935  0.00153348 -0.0054056 -0.000629663  0.00101443 -0.00328833 -0.000727296  0.000804156 -0.00514847 -0.000311017  0.000533581 -0.00307208 -0.000362277  0.000987127 -0.00345504 -0.00053072  0.000518948 -0.00322878 -0.000262856  0.00143394 -0.00968808 -0.000488758  0.00271997 -0.0102681 -0.000733852  0.00215816 -0.00742394 -0.000941873  0.00141069 -0.00997883 -0.000360608  0.00112817 -0.00715208 -0.00046587  0.00211808 -0.00769544 -0.000694275  0.00110567 -0.00741488 -0.00034225  0.00200069 -0.0155914 -0.00049305  0.00387126 -0.0162125 -0.000746846  0.00334463 -0.0127844 -0.00100625  0.00197929 -0.0159241 -0.000365376  0.00172794 -0.0124983 -0.000495911  0.00330716 -0.0131156 -0.000748634  0.00170439 -0.0128247 -0.000366569  0.00247008 -0.0224798 -0.000466347  0.00488973 -0.0231065 -0.000708461  0.00442594 -0.0191897 -0.000980139  0.00245202 -0.0228259 -0.000344634  0.00224972 -0.018908 -0.000482321  0.00439978 -0.0195455 -0.000731349  0.00222909 -0.0192609 -0.00035727  0.00282514 -0.0302457 -0.000425458  0.00574243 -0.030857 -0.000646114  0.00535321 -0.0265228 -0.000910044  0.00281078 -0.0305837 -0.000313282  0.00266278 -0.0262476 -0.000446916  0.00533718 -0.0268785 -0.000678897  0.00264609 -0.026602 -0.000329733  0.00306553 -0.0387896 -0.000379324  0.00642765 -0.0393782 -0.000576138  0.00611353 -0.0346845 -0.000821948  0.00305414 -0.0391078 -0.000276923  0.00296015 -0.0344137 -0.000402689  0.00610566 -0.0350248 -0.000611544  0.00294662 -0.0347533 -0.000295401  0.00319672 -0.048022 -0.000332832  0.00695348 -0.0485829 -0.000505209  0.00671226 -0.0435826 -0.00072968  0.00318789 -0.0483131 -0.000240803  0.00314498 -0.043313 -0.000356078  0.00670981 -0.0438983 -0.000540376  0.00313443 -0.0436285 -0.000258923  0.003227 -0.0578548 -0.000287294  0.00733173 -0.0583874 -0.000437021  0.00715911 -0.0531269 -0.000639319  0.00322008 -0.0581157 -0.000204682  0.00322485 -0.0528564 -0.000309944  0.00716043 -0.0534136 -0.000470757  0.00321615 -0.0531428 -0.000222683  0.00316417 -0.0682043 -0.000243545  0.00757408 -0.0687079 -0.000372648  0.00746548 -0.0632307 -0.000553131  0.00315928 -0.0684339 -0.000170708  0.00320745 -0.0629578 -0.000265121  0.00746942 -0.0634863 -0.000404358  0.00320089 -0.0632133 -0.000187516  0.00301802 -0.0789902 -0.000201702  0.00769329 -0.0794669 -0.000311971  0.00764346 -0.073811 -0.000471711  0.00301456 -0.0791893 -0.000137568  0.00310194 -0.0735351 -0.000222445  0.00764835 -0.0740356 -0.000341535  0.00309706 -0.0737597 -0.000153899  0.00279701 -0.0901384 -0.000162244  0.00770116 -0.0905886 -0.000254869  0.00770462 -0.0847902 -0.000395536  0.00279522 -0.0903084 -0.000106692  0.00291717 -0.0845111 -0.000181794  0.00771058 -0.084985 -0.000282884  0.00291395 -0.0847058 -0.00012219  0.00250983 -0.101579 -0.000124693  0.00760972 -0.102005 -0.000201821  0.00766027 -0.0960959 -0.000324249  0.00250971 -0.101723 -7.689e-05  0.00266218 -0.0958142 -0.000143051  0.00766718 -0.0962625 -0.000227928  0.00266027 -0.0959806 -9.16719e-05  0.00216627 -0.113251 -8.95262e-05  0.00743067 -0.113653 -0.000152588  0.00752282 -0.107662 -0.000258207  0.00216711 -0.113368 -4.92334e-05  0.00234556 -0.107378 -0.000106812  0.00753057 -0.107802 -0.000176787  0.0023452 -0.107518 -6.28233e-05  0.0017736 -0.125094 -5.67436e-05  0.00717473 -0.125475 -0.000107646  0.00730383 -0.119427 -0.00019753  0.00177574 -0.125189 -2.28882e-05  0.00197649 -0.119142 -7.28369e-05  0.0073117 -0.119544 -0.00012958  0.00197709 -0.119258 -3.5882e-05  0.00134015 -0.137057 -2.64645e-05  0.00685358 -0.137418 -6.65188e-05  0.00701356 -0.131337 -0.000142097  0.00134349 -0.137132 9.53674e-07  0.00156248 -0.131051 -4.13656e-05  0.00702178 -0.131433 -8.65459e-05  0.0015645 -0.131146 -1.0848e-05  0.000873566 -0.149094 1.19209e-06  0.0064764 -0.149437 -2.95639e-05  0.00666285 -0.143343 -9.16719e-05  0.000877857 -0.149151 2.34842e-05  0.00111151 -0.143057 -1.22786e-05  0.00667119 -0.143419 -4.73261e-05  0.00111437 -0.143133 1.23978e-05  0.000380516 -0.161164 2.61068e-05  0.00605321 -0.16149 3.57628e-06  0.00626183 -0.155401 -4.68493e-05  0.000385761 -0.161206 4.31538e-05  0.000631094 -0.155115 1.39475e-05  0.00627017 -0.15546 -1.22786e-05  0.000634909 -0.155174 3.34978e-05  -0.000132561 -0.173232 4.86374e-05  0.0055933 -0.173544 3.27826e-05  0.00581932 -0.167473 -7.27177e-06  -0.000126839 -0.17326 6.16312e-05  0.000127554 -0.167188 3.76701e-05  0.00582743 -0.167517 1.85966e-05  0.000131845 -0.167233 5.25713e-05  -0.000660181 -0.185269 6.86646e-05  0.0051043 -0.185567 5.81741e-05  0.00534391 -0.179526 2.70605e-05  -0.000654221 -0.185286 7.77245e-05  -0.000393629 -0.179243 5.88894e-05  0.00535226 -0.179559 4.60148e-05  -0.000388622 -0.179276 6.99759e-05  -0.00119758 -0.19725 8.66652e-05  0.00459361 -0.197538 7.99894e-05  0.00484395 -0.191536 5.67436e-05  -0.00119138 -0.197259 9.2864e-05  -0.000926733 -0.191255 7.78437e-05  0.0048511 -0.191559 6.93798e-05  -0.000921726 -0.191278 8.54731e-05  -0.00174069 -0.209157 0.000102282  0.00406766 -0.209437 9.89437e-05  0.00432515 -0.20348 8.21352e-05  -0.00173426 -0.20916 0.000105739  -0.00146794 -0.203202 9.46522e-05  0.00433207 -0.203496 8.98838e-05  -0.00146198 -0.203217 9.94205e-05  -0.00228572 -0.220974 0.000117064  0.00353289 -0.221251 0.000116229  0.00379372 -0.215342 0.000104308  -0.0022788 -0.220974 0.000118256  -0.00201201 -0.215065 0.000109792  0.00380111 -0.215354 0.000107884  -0.00200653 -0.215077 0.000111938  -0.00282478 -0.232677 0.000131845  0.00300097 -0.232962 0.000133157  0.00325871 -0.227108 0.000125647  -0.00281858 -0.232681 0.000130057  -0.00255561 -0.226829 0.000124454  0.00326586 -0.22712 0.000124812  -0.00254965 -0.226841 0.000124097  0.000806183 -0.00202948 -0.000812054  0 0 0  0.00108773 -0.00252384 -0.000782967  0.000378817 -0.00102919 -0.000607491  0 0 0  0.000792503 -0.00212431 -0.000587583  0.000270963 -0.000803471 -0.000458479  0 0 0  0.000365585 -0.00109285 -0.000428915  0.000265375 -0.000855386 -0.000326872  0.00235432 -0.00560111 -0.00128865  0.00315586 -0.00638652 -0.00126672  0.00209205 -0.00414813 -0.00145459  0.00231794 -0.00581634 -0.000947952  0.00152366 -0.00364482 -0.00108814  0.00204615 -0.00431919 -0.00106192  0.00149582 -0.00381064 -0.000794768  0.0041402 -0.0104083 -0.00149202  0.0055601 -0.0113092 -0.00148153  0.00441295 -0.00843656 -0.00189602  0.00409648 -0.0107111 -0.00110757  0.0032399 -0.00785309 -0.0014174  0.00434914 -0.00872409 -0.00140345  0.00319719 -0.00812703 -0.00104892  0.00586504 -0.0163006 -0.00150931  0.00787991 -0.0172096 -0.00150764  0.00679898 -0.0137929 -0.00202572  0.00583035 -0.0166425 -0.00112808  0.0050222 -0.0132162 -0.00151646  0.00674263 -0.0141382 -0.00151181  0.00497961 -0.0135528 -0.00112987  0.00740755 -0.0231619 -0.00143063  0.00997585 -0.0240418 -0.00143278  0.00899661 -0.0201454 -0.00197411  0.0073874 -0.0235132 -0.0010711  0.00666285 -0.0196036 -0.00147784  0.00896126 -0.0205116 -0.00147891  0.00663429 -0.019963 -0.00110602  0.00873524 -0.0309026 -0.00130868  0.0117989 -0.0317384 -0.0013113  0.0109363 -0.0274239 -0.00183487  0.00872868 -0.0312432 -0.000978827  0.00809944 -0.0269159 -0.00137293  0.0109214 -0.0277852 -0.00137532  0.00808561 -0.0272738 -0.00102746  0.00984752 -0.0394294 -0.00117242  0.0133528 -0.0402164 -0.00117385  0.012608 -0.0355403 -0.00166059  0.00985086 -0.0397484 -0.000874996  0.00931841 -0.035061 -0.00124121  0.0126091 -0.0358834 -0.00124335  0.00931674 -0.0354022 -0.000927448  0.0107553 -0.0486513 -0.00103557  0.0146496 -0.0493886 -0.00103545  0.0140206 -0.0444033 -0.0014782  0.0107652 -0.0489421 -0.000769854  0.0103268 -0.0439467 -0.00110376  0.0140321 -0.0447195 -0.00110424  0.0103332 -0.0442625 -0.000822306  0.011472 -0.0584775 -0.000904083  0.0157081 -0.0591662 -0.000902534  0.0151899 -0.0539192 -0.00129962  0.0114861 -0.0587381 -0.000669599  0.0111376 -0.0534818 -0.000969052  0.0152078 -0.0542053 -0.000967979  0.011149 -0.0537682 -0.000718951  0.0120127 -0.0688235 -0.000780225  0.0165466 -0.0694653 -0.000777245  0.016133 -0.0639995 -0.0011301  0.0120286 -0.0690525 -0.00057447  0.0117645 -0.0635784 -0.00084126  0.0161538 -0.0642541 -0.000838637  0.0117786 -0.0638335 -0.0006212  0.0123917 -0.0796069 -0.000664115  0.0171831 -0.0802038 -0.000660419  0.0168667 -0.0745592 -0.000971437  0.0124085 -0.0798055 -0.000485897  0.0122224 -0.0741529 -0.000721216  0.0168891 -0.0747827 -0.00071764  0.0122383 -0.0743769 -0.000529408  0.0126235 -0.0907528 -0.00055635  0.0176357 -0.0913081 -0.000551939  0.0174084 -0.0855194 -0.000823617  0.0126412 -0.0909222 -0.000402927  0.012526 -0.0851267 -0.000609398  0.0174311 -0.0857131 -0.000604749  0.0125425 -0.0853209 -0.000443697  0.0127233 -0.102191 -0.000456452  0.0179224 -0.102707 -0.000451446  0.017776 -0.0968072 -0.000686765  0.0127411 -0.102334 -0.000326753  0.0126901 -0.0964273 -0.000505447  0.017799 -0.0969729 -0.00050056  0.0127071 -0.0965934 -0.000363946  0.0127052 -0.113859 -0.00036478  0.0180603 -0.114338 -0.000359416  0.0179868 -0.108356 -0.00056088  0.0127225 -0.113977 -0.000255942  0.0127292 -0.107988 -0.000409484  0.0180089 -0.108496 -0.000404239  0.0127456 -0.108128 -0.000290394  0.0125825 -0.125698 -0.000281096  0.018066 -0.126143 -0.000275731  0.0180577 -0.120105 -0.000445843  0.0125997 -0.125793 -0.000191927  0.0126569 -0.119748 -0.000321865  0.0180788 -0.12022 -0.000316262  0.0126737 -0.119865 -0.000223041  0.0123696 -0.137657 -0.000205398  0.0179563 -0.13807 -0.000200033  0.0180044 -0.131998 -0.000341654  0.0123861 -0.137732 -0.000133514  0.0124876 -0.131653 -0.000242114  0.0180247 -0.132093 -0.00023663  0.0125035 -0.131748 -0.000161767  0.012079 -0.149688 -0.000137568  0.0177464 -0.150073 -0.00013268  0.017844 -0.143988 -0.000248313  0.012095 -0.149745 -8.14199e-05  0.0122342 -0.143654 -0.000170469  0.017863 -0.144063 -0.000165224  0.0122499 -0.14373 -0.000106454  0.011723 -0.161752 -7.83205e-05  0.017452 -0.162111 -7.35521e-05  0.0175915 -0.156029 -0.000166059  0.0117383 -0.161793 -3.52859e-05  0.0119097 -0.155706 -0.00010705  0.0176089 -0.156088 -0.000101805  0.0119238 -0.155765 -5.73397e-05  0.0113137 -0.173813 -2.68221e-05  0.0170872 -0.17415 -2.2769e-05  0.0172613 -0.168086 -9.46522e-05  0.0113282 -0.173841 4.52995e-06  0.0115256 -0.167772 -5.16176e-05  0.0172777 -0.168131 -4.70877e-05  0.0115397 -0.167817 -1.45435e-05  0.0108616 -0.185843 1.68085e-05  0.0166657 -0.18616 2.00272e-05  0.0168676 -0.180126 -3.37362e-05  0.0108752 -0.185859 3.89814e-05  0.0110936 -0.179821 -3.8147e-06  0.0168829 -0.180158 0  0.0111065 -0.179853 2.26498e-05  0.010376 -0.197816 5.37634e-05  0.016201 -0.198118 5.57899e-05  0.0164244 -0.192122 1.65701e-05  0.0103891 -0.197825 6.75917e-05  0.0106232 -0.191825 3.61204e-05  0.0164382 -0.192145 3.88622e-05  0.0106361 -0.191848 5.38826e-05  0.009866 -0.209718 8.47578e-05  0.0157034 -0.210007 8.55923e-05  0.0159428 -0.204055 5.81741e-05  0.00987816 -0.20972 9.2268e-05  0.0101244 -0.203765 6.99759e-05  0.0159557 -0.20407 7.15256e-05  0.0101361 -0.20378 8.05855e-05  0.00934052 -0.221532 0.000112772  0.0151837 -0.221817 0.000111938  0.0154328 -0.215909 9.34601e-05  0.00935268 -0.221533 0.000113964  0.00960588 -0.215624 9.88245e-05  0.0154457 -0.215921 9.90629e-05  0.00961709 -0.215635 0.000103593  0.00881314 -0.233249 0.000139832  0.0146594 -0.233544 0.000136614  0.0149083 -0.227678 0.000126004  0.00882483 -0.233251 0.00013566  0.0090766 -0.227392 0.000126481  0.0149202 -0.227689 0.000124693  0.00908756 -0.227403 0.000125051  0.00145081 -0.00295293 -0.00135469  0 0 0  0.00182167 -0.00383353 -0.00119042  0.000651248 -0.0017972 -0.000918627  0 0 0  0.00142726 -0.00307995 -0.000977159  0.000479043 -0.00133765 -0.000754952  0 0 0  0.000608161 -0.0018751 -0.000666499  0.000471994 -0.00142765 -0.000540376  0.00419435 -0.00690448 -0.00216317  0.00527453 -0.00813347 -0.00191069  0.00353396 -0.00570059 -0.00221586  0.0041461 -0.00715035 -0.00159001  0.00273241 -0.00481731 -0.00182331  0.00343944 -0.00592297 -0.00161362  0.00269245 -0.00500715 -0.00132525  0.00723678 -0.0117434 -0.00249982  0.00897017 -0.0129754 -0.0022316  0.00721231 -0.0101117 -0.00286806  0.0071781 -0.0120673 -0.00185645  0.00571814 -0.00919145 -0.00237811  0.00713807 -0.0104381 -0.00211585  0.00566116 -0.00949138 -0.00175941  0.0101194 -0.0175556 -0.0025245  0.0124258 -0.0187441 -0.00226796  0.0108035 -0.0153688 -0.00305164  0.0100732 -0.0179136 -0.00188971  0.00871164 -0.0145143 -0.0025382  0.0107316 -0.0157382 -0.00227666  0.00865456 -0.0148696 -0.00189304  0.0127122 -0.02433 -0.0023936  0.01555 -0.0254501 -0.00215745  0.0140771 -0.0215992 -0.00297046  0.0126874 -0.0246902 -0.00179482  0.0114558 -0.0208139 -0.00247216  0.0140324 -0.0219812 -0.00222552  0.0114185 -0.0211868 -0.00185275  0.0149865 -0.0319946 -0.00219214  0.0183039 -0.0330423 -0.00197709  0.0169941 -0.0287688 -0.00276303  0.0149822 -0.0323404 -0.00164413  0.01389 -0.0280441 -0.00229812  0.0169728 -0.0291395 -0.00207233  0.0138752 -0.0284092 -0.00172341  0.0169475 -0.0404598 -0.00196731  0.0206931 -0.0414336 -0.00177383  0.0195445 -0.0367957 -0.00250411  0.016958 -0.0407799 -0.00147307  0.0160061 -0.0361208 -0.00208104  0.0195432 -0.0371431 -0.00187683  0.0160092 -0.0364651 -0.00155962  0.0186106 -0.0496302 -0.00174129  0.0227325 -0.0505337 -0.0015682  0.0217432 -0.0455831 -0.00223231  0.0186306 -0.0499207 -0.00130129  0.0178156 -0.0449504 -0.00185382  0.0217549 -0.0459 -0.00167072  0.0178311 -0.0452665 -0.00138676  0.0199951 -0.0594122 -0.00152421  0.0244462 -0.0602475 -0.00137067  0.0236089 -0.0550334 -0.00196576  0.0200206 -0.0596708 -0.00113595  0.0193375 -0.0544381 -0.0016315  0.0236288 -0.0553184 -0.0014683  0.0193598 -0.054723 -0.00121748  0.0211202 -0.0697185 -0.00131953  0.0258554 -0.0704896 -0.0011847  0.0251632 -0.0650547 -0.00171256  0.0211481 -0.0699457 -0.000980377  0.0205897 -0.0644931 -0.00142026  0.0251874 -0.0653069 -0.00127625  0.0206159 -0.0647461 -0.00105691  0.0220063 -0.0804653 -0.00112855  0.026986 -0.081175 -0.00101101  0.0264285 -0.0755597 -0.00147533  0.0220352 -0.0806616 -0.000834823  0.021593 -0.0750295 -0.00122237  0.0264542 -0.0757806 -0.00109637  0.0216206 -0.0752512 -0.000906229  0.0226734 -0.0915776 -0.000951648  0.0278598 -0.09223 -0.000849843  0.027427 -0.0864689 -0.00125468  0.0227025 -0.091745 -0.000700474  0.0223668 -0.0859681 -0.00103855  0.0274534 -0.0866598 -0.000928879  0.0223953 -0.0861601 -0.000766516  0.0231419 -0.102983 -0.000788569  0.0285016 -0.103582 -0.000701785  0.0281821 -0.0977086 -0.00105071  0.0231702 -0.103124 -0.000576138  0.0229324 -0.0972356 -0.00086844  0.0282085 -0.0978717 -0.000774026  0.0229602 -0.0973996 -0.000637054  0.0234313 -0.114621 -0.000638962  0.0289329 -0.115169 -0.000565767  0.0287164 -0.109212 -0.000863671  0.0234584 -0.114737 -0.000462532  0.0233088 -0.108765 -0.000712156  0.0287422 -0.109349 -0.000632286  0.0233357 -0.108903 -0.000518084  0.0235611 -0.12643 -0.000503182  0.029177 -0.126932 -0.000442386  0.0290529 -0.120917 -0.000692964  0.023587 -0.126523 -0.000358939  0.0235161 -0.120495 -0.000569463  0.0290769 -0.121031 -0.000502586  0.0235418 -0.12061 -0.000409484  0.0235503 -0.138361 -0.000381231  0.0292547 -0.13882 -0.000331521  0.0292122 -0.13277 -0.000538707  0.0235751 -0.138434 -0.000266194  0.0235729 -0.132371 -0.000440478  0.0292351 -0.132862 -0.000385404  0.0235977 -0.132464 -0.000311255  0.0234175 -0.150365 -0.000272751  0.0291891 -0.150786 -0.000233412  0.0292172 -0.144721 -0.000401139  0.0234408 -0.150421 -0.000183105  0.0234993 -0.144344 -0.000325203  0.0292387 -0.144794 -0.000280857  0.0235221 -0.144419 -0.000223398  0.0231807 -0.162405 -0.000178456  0.0289991 -0.16279 -0.000147462  0.0290883 -0.156728 -0.000280142  0.0232027 -0.162445 -0.000110984  0.0233121 -0.156371 -0.000223994  0.0291083 -0.156784 -0.000188828  0.0233338 -0.156429 -0.000146031  0.0228574 -0.174443 -9.7394e-05  0.0287066 -0.174798 -7.43866e-05  0.028846 -0.168752 -0.000176072  0.0228775 -0.17447 -4.8995e-05  0.0230303 -0.168414 -0.000136256  0.0288646 -0.168795 -0.000109434  0.0230501 -0.168457 -7.87973e-05  0.022464 -0.186453 -3.03984e-05  0.0283306 -0.186782 -1.41859e-05  0.0285108 -0.180763 -8.89301e-05  0.0224826 -0.186469 2.38419e-06  0.0226696 -0.180441 -6.23465e-05  0.028528 -0.180794 -4.27961e-05  0.0226879 -0.180472 -2.20537e-05  0.0220158 -0.198408 2.41995e-05  0.0278914 -0.198717 3.44515e-05  0.0281019 -0.192734 -1.80006e-05  0.0220335 -0.198416 4.48227e-05  0.0222471 -0.192426 -1.54972e-06  0.0281181 -0.192755 1.16825e-05  0.022264 -0.192448 2.47955e-05  0.0215275 -0.210296 6.86646e-05  0.027406 -0.21059 7.36713e-05  0.027638 -0.204646 3.8147e-05  0.0215442 -0.210298 7.93934e-05  0.0217767 -0.204349 4.75645e-05  0.0276532 -0.204661 5.51939e-05  0.0217931 -0.204364 6.30617e-05  0.0210121 -0.222104 0.000106573  0.0268905 -0.222391 0.000106096  0.0271354 -0.216487 8.29697e-05  0.0210285 -0.222104 0.000109315  0.0212739 -0.216197 8.79765e-05  0.0271516 -0.216498 9.03606e-05  0.0212889 -0.216208 9.46522e-05  0.0204861 -0.23384 0.000143051  0.0263612 -0.234135 0.000136614  0.0266104 -0.228256 0.000122547  0.020503 -0.233841 0.000137448  0.0207498 -0.227968 0.000124812  0.0266266 -0.228267 0.000121474  0.0207655 -0.227978 0.000123501  0.00262582 -0.00472939 -0.00195134  0 0 0  0.00401862 -0.00632614 -0.00160384  0.00171967 -0.00369668 -0.00127661  0 0 0  0.00260839 -0.00493288 -0.00138497  0.000863239 -0.00247365 -0.00107884  0 0 0  0.0016808 -0.00377601 -0.000889301  0.0008609 -0.00253302 -0.000781298  0.00673404 -0.0089711 -0.00306082  0.00849226 -0.010616 -0.00253618  0.00632705 -0.00806475 -0.0029757  0.00672594 -0.0093168 -0.00224888  0.00463878 -0.00680166 -0.00260723  0.00622086 -0.00839335 -0.00217235  0.00460163 -0.00708485 -0.00190449  0.0110317 -0.0136634 -0.00351048  0.0132366 -0.0151972 -0.00294709  0.0109551 -0.0124044 -0.00381696  0.0109737 -0.0140258 -0.00260162  0.00890619 -0.0112026 -0.00335431  0.0108819 -0.0127654 -0.00280631  0.00886273 -0.0115466 -0.00247848  0.0150257 -0.0193119 -0.00353873  0.0177301 -0.0207527 -0.00300002  0.0155961 -0.0174354 -0.00405324  0.0149704 -0.019694 -0.00264239  0.0130777 -0.0163483 -0.00356185  0.0155265 -0.0178409 -0.00300932  0.0130142 -0.0167347 -0.0026511  0.0186238 -0.0259414 -0.00335836  0.021824 -0.0272794 -0.00286043  0.0198913 -0.0234903 -0.00395  0.0185869 -0.0263152 -0.0025152  0.016878 -0.0224939 -0.00346768  0.0198337 -0.0238917 -0.00294888  0.0168294 -0.0228858 -0.00259447  0.0218053 -0.0334883 -0.00308013  0.025463 -0.0347286 -0.00263095  0.0237422 -0.0305111 -0.00367963  0.02179 -0.0338403 -0.00230789  0.0202668 -0.0295929 -0.00322747  0.0237007 -0.0308934 -0.00275457  0.0202401 -0.0299689 -0.00241828  0.0245816 -0.0418521 -0.00276828  0.0286497 -0.0429978 -0.0023663  0.0271378 -0.0384145 -0.00333965  0.0245818 -0.0421743 -0.00207376  0.0232447 -0.0375618 -0.00292695  0.0271128 -0.0387661 -0.00250149  0.0232365 -0.0379109 -0.00219309  0.026968 -0.0509365 -0.00245345  0.0313947 -0.0519908 -0.00209677  0.030087 -0.0470923 -0.00298083  0.0269799 -0.0512254 -0.00183499  0.0258227 -0.0462978 -0.0026108  0.0300756 -0.0474095 -0.00223243  0.0258284 -0.046615 -0.0019542  0.0289897 -0.0606382 -0.00215006  0.0337285 -0.0616068 -0.00183654  0.0326145 -0.0564442 -0.00262821  0.0290077 -0.0608942 -0.00160587  0.0280246 -0.0557035 -0.00230038  0.0326117 -0.0567264 -0.00196552  0.0280386 -0.0559868 -0.00171936  0.0306684 -0.0708727 -0.00186384  0.035673 -0.071759 -0.00159049  0.0347439 -0.0663731 -0.00229228  0.0306906 -0.0710958 -0.00138891  0.0298712 -0.0656822 -0.00200522  0.0347474 -0.0666209 -0.00171256  0.0298903 -0.0659325 -0.00149584  0.0320317 -0.0815498 -0.00159681  0.0372629 -0.0823596 -0.00136065  0.0365043 -0.076792 -0.00197709  0.0320549 -0.0817423 -0.00118709  0.0313891 -0.0761485 -0.0017283  0.0365107 -0.0770077 -0.0014739  0.0314111 -0.0763668 -0.00128627  0.0331028 -0.0925986 -0.00134945  0.0385221 -0.093335 -0.00114787  0.037923 -0.0876192 -0.00168419  0.0331273 -0.0927618 -0.000999451  0.0326031 -0.0870202 -0.00147092  0.037932 -0.0878046 -0.00125289  0.0326258 -0.0872087 -0.00109148  0.0339098 -0.103942 -0.00112164  0.0394843 -0.104611 -0.000952005  0.0390289 -0.0987817 -0.00141346  0.0339336 -0.104079 -0.000827312  0.0335392 -0.0982254 -0.00123322  0.0390389 -0.0989392 -0.00104797  0.0335623 -0.0983857 -0.000911593  0.0344757 -0.115523 -0.000913501  0.0401729 -0.116127 -0.000772476  0.0398499 -0.110211 -0.00116527  0.0344993 -0.115634 -0.00066936  0.0342224 -0.109695 -0.00101531  0.0398608 -0.110343 -0.000860929  0.0342447 -0.109829 -0.000746608  0.0348271 -0.127276 -0.000724077  0.0406204 -0.127822 -0.000609994  0.0404146 -0.121847 -0.000939369  0.0348496 -0.127366 -0.00052619  0.034678 -0.121369 -0.000816584  0.0404253 -0.121955 -0.000689507  0.0347003 -0.12148 -0.000595927  0.0349872 -0.139157 -0.000554323  0.0408499 -0.139648 -0.000463367  0.040749 -0.133635 -0.000734806  0.0350091 -0.139227 -0.000397086  0.0349305 -0.133192 -0.000636697  0.0407605 -0.133721 -0.000534773  0.0349516 -0.133282 -0.000459552  0.0349815 -0.151114 -0.000404  0.0408924 -0.151556 -0.000334501  0.0408819 -0.145526 -0.000552773  0.0350022 -0.151165 -0.00028336  0.0350051 -0.145117 -0.000476837  0.0408928 -0.145594 -0.000396967  0.0350251 -0.145187 -0.000338316  0.0348322 -0.163111 -0.000273466  0.0407703 -0.163508 -0.000221252  0.0408382 -0.157477 -0.000393033  0.034852 -0.163147 -0.000183821  0.0349243 -0.157098 -0.000336051  0.0408502 -0.157528 -0.000276327  0.0349433 -0.157152 -0.000231385  0.034564 -0.175109 -0.000162959  0.040514 -0.175469 -0.000126839  0.0406458 -0.169452 -0.000256419  0.0345826 -0.175133 -9.98974e-05  0.034713 -0.1691 -0.00021553  0.040657 -0.169489 -0.0001719  0.0347311 -0.16914 -0.000139713  0.0341985 -0.187086 -7.25985e-05  0.0401459 -0.187414 -4.88758e-05  0.0403297 -0.181419 -0.000142813  0.0342164 -0.1871 -3.0756e-05  0.0343928 -0.181091 -0.000115037  0.0403423 -0.181445 -8.61883e-05  0.03441 -0.181119 -6.31809e-05  0.0337598 -0.199014 -9.53674e-07  0.0396957 -0.199317 1.18017e-05  0.0399168 -0.193353 -5.19753e-05  0.0337775 -0.19902 2.41995e-05  0.033988 -0.193045 -3.40939e-05  0.0399294 -0.193371 -1.66893e-05  0.0340049 -0.193065 -1.3113e-06  0.0332689 -0.210882 5.38826e-05  0.0391886 -0.211168 5.93662e-05  0.0394323 -0.205237 1.74046e-05  0.033287 -0.210883 6.68764e-05  0.0335202 -0.204944 2.86102e-05  0.0394473 -0.205249 3.70741e-05  0.0335374 -0.204957 4.72069e-05  0.0327468 -0.222678 9.78708e-05  0.0386505 -0.222959 9.46522e-05  0.0389047 -0.217061 6.87838e-05  0.0327656 -0.222678 0.000101566  0.0330117 -0.216777 7.70092e-05  0.0389218 -0.21707 7.7486e-05  0.0330296 -0.216786 8.51154e-05  0.0322099 -0.234427 0.000139236  0.0381043 -0.234709 0.000127316  0.0383592 -0.228827 0.000110745  0.0322278 -0.234425 0.000134587  0.0324802 -0.228544 0.000118375  0.038378 -0.228836 0.000110745  0.0324981 -0.228554 0.000117898  -0.00397542 -0.0053936 0.00298595  -0.00170466 -0.00314268 0.00218081  0 0 0  -0.00263472 -0.00378963 0.00334013  0 0 0  -0.00187728 -0.00309264 0.0021919  -0.000644781 -0.00132379 0.00157213  0 0 0  -0.00166932 -0.00329208 0.0017134  -0.00262566 -0.00409782 0.00261545  -0.000871014 -0.00194258 0.00182629  0 0 0  -0.000640281 -0.00149943 0.00122857  -0.000861112 -0.00213302 0.00145471  -0.00864016 -0.00896689 0.00464904  -0.00628908 -0.00643151 0.00505793  -0.00689355 -0.00722498 0.00508857  -0.00531769 -0.00683254 0.00346529  -0.0036222 -0.0044076 0.00372338  -0.00629254 -0.00705614 0.00402379  -0.00677389 -0.00783064 0.00409472  -0.00472642 -0.00535345 0.0044297  -0.00350536 -0.00489135 0.00295067  -0.00463895 -0.00589658 0.00349367  -0.0134263 -0.0133032 0.00527906  -0.0111315 -0.0102869 0.00625062  -0.0111208 -0.0115794 0.00559676  -0.00895628 -0.0113863 0.00392616  -0.00727639 -0.00836632 0.00460863  -0.0110555 -0.0109955 0.00506973  -0.0110396 -0.0122895 0.00460863  -0.00903568 -0.00927026 0.0054543  -0.00713697 -0.00898216 0.00377727  -0.00891688 -0.00993569 0.00445557  -0.0180039 -0.018593 0.00526285  -0.0158161 -0.0150473 0.00644755  -0.0151027 -0.0170106 0.00552118  -0.0124345 -0.0169389 0.00392175  -0.0107761 -0.0133497 0.00475883  -0.0157512 -0.015822 0.00532722  -0.0150911 -0.0177132 0.00460315  -0.0131492 -0.0141497 0.00561404  -0.01072 -0.0140359 0.00396514  -0.0131007 -0.0148759 0.0046531  -0.0222469 -0.0248824 0.00496507  -0.0201632 -0.0208912 0.00617659  -0.018781 -0.0234783 0.00518322  -0.0156736 -0.0234771 0.00369775  -0.0140556 -0.0194227 0.00457084  -0.0201713 -0.0216103 0.00514138  -0.018837 -0.0241361 0.0043366  -0.0169772 -0.0201118 0.0053829  -0.014084 -0.0200889 0.00383055  -0.0170005 -0.0208025 0.00449502  -0.0261364 -0.0320994 0.0045265  -0.0241787 -0.0277223 0.00569236  -0.0221849 -0.0308723 0.00471878  -0.0186688 -0.0309187 0.00337481  -0.0171147 -0.0264669 0.00422239  -0.0242358 -0.0283801 0.00475669  -0.0222846 -0.0314707 0.00395679  -0.0205158 -0.0270557 0.00496638  -0.0172006 -0.0270914 0.00354505  -0.0205978 -0.0276943 0.00415719  -0.0296845 -0.0401407 0.00405538  -0.0278599 -0.0354381 0.00513101  -0.0253196 -0.0390922 0.00422883  -0.021428 -0.0391668 0.00302315  -0.019955 -0.0343825 0.00381327  -0.0279519 -0.0360204 0.00429308  -0.0254441 -0.0396225 0.00354493  -0.0237852 -0.0348772 0.00448143  -0.020077 -0.0349478 0.00320244  -0.0238982 -0.035449 0.00375462  -0.0329097 -0.0489056 0.00358486  -0.0312275 -0.0439233 0.00456059  -0.0281972 -0.0480206 0.0037384  -0.0239648 -0.0481235 0.00267625  -0.0225863 -0.0430571 0.0033946  -0.0313371 -0.0444373 0.00381887  -0.0283315 -0.048488 0.00313532  -0.0267885 -0.0434626 0.00398636  -0.0227233 -0.0435625 0.00284994  -0.0269211 -0.0439705 0.00333977  -0.0358311 -0.0583017 0.00314283  -0.0342914 -0.0530815 0.0040127  -0.0308272 -0.0575741 0.00328028  -0.0262897 -0.0576978 0.00234759  -0.0250106 -0.0523942 0.00299168  -0.0344069 -0.0535279 0.00336027  -0.0309618 -0.057979 0.00274956  -0.0295423 -0.0527153 0.00351048  -0.0251528 -0.0528383 0.00251079  -0.0296769 -0.0531589 0.00294101  -0.0384668 -0.0682423 0.00272977  -0.0370696 -0.0628204 0.00349987  -0.0332203 -0.0676566 0.00284898  -0.0284148 -0.0678039 0.00204325  -0.0272385 -0.0623012 0.00261366  -0.0371842 -0.0632078 0.00293255  -0.0333495 -0.0680062 0.00238991  -0.0320511 -0.0625428 0.00306416  -0.0273764 -0.0626891 0.00219381  -0.0321852 -0.0629289 0.00256717  -0.0408355 -0.0786502 0.00235248  -0.0395743 -0.0730597 0.00302637  -0.0353884 -0.0781979 0.00245667  -0.0303507 -0.0783635 0.0017637  -0.0292745 -0.072697 0.00226498  -0.0396833 -0.0733906 0.00253654  -0.035509 -0.0784944 0.00206089  -0.0343314 -0.0728643 0.00265217  -0.0294056 -0.0730308 0.00190163  -0.034456 -0.0731954 0.00222313  -0.0429542 -0.0894509 0.00200617  -0.0418242 -0.0837227 0.00259173  -0.0373441 -0.0891177 0.00209415  -0.0321089 -0.0893034 0.00150883  -0.0311309 -0.0835043 0.00194466  -0.0419255 -0.0840047 0.00217533  -0.0374544 -0.0893677 0.00175977  -0.0363907 -0.0836032 0.00227392  -0.0312512 -0.0837897 0.00163424  -0.0365076 -0.0838856 0.00190747  -0.04484 -0.100578 0.00169337  -0.0438331 -0.0947406 0.00219595  -0.0391008 -0.100355 0.00176764  -0.0337001 -0.100556 0.0012778  -0.0328146 -0.0946537 0.00165331  -0.0439248 -0.0949759 0.00184512  -0.0391998 -0.100561 0.00148714  -0.0382458 -0.0946898 0.0019294  -0.0329244 -0.0948934 0.00139117  -0.0383506 -0.0949264 0.00162065  -0.0465107 -0.111968 0.00141001  -0.0456196 -0.106048 0.0018369  -0.0406716 -0.111841 0.00147069  -0.0351356 -0.112057 0.00106955  -0.0343384 -0.106079 0.00138927  -0.0457015 -0.106243 0.00154746  -0.0407599 -0.112009 0.00124085  -0.0399071 -0.106059 0.00161695  -0.0344363 -0.106278 0.00117135  -0.0400022 -0.106255 0.00136089  -0.0479836 -0.123564 0.00115705  -0.0471979 -0.117585 0.00151408  -0.0420718 -0.123525 0.00120676  -0.0364275 -0.123752 0.00088346  -0.0357116 -0.117721 0.00115252  -0.0472708 -0.117742 0.00127888  -0.0421488 -0.123657 0.00102091  -0.0413916 -0.117651 0.00133646  -0.0357988 -0.117883 0.000974178  -0.0414742 -0.117809 0.00112796  -0.049275 -0.135313 0.000932336  -0.0485883 -0.129297 0.00122607  -0.0433143 -0.13535 0.00097096  -0.0375868 -0.135587 0.000718713  -0.036947 -0.129524 0.000940919  -0.0486511 -0.129422 0.00104034  -0.043381 -0.135451 0.000825763  -0.0427105 -0.129411 0.001086  -0.0370228 -0.129654 0.000798821  -0.0427834 -0.129537 0.000920177  -0.0504038 -0.147169 0.000736713  -0.0498044 -0.141135 0.00097239  -0.0444148 -0.147271 0.000766516  -0.0386255 -0.147516 0.000575542  -0.0380552 -0.141441 0.000755429  -0.0498586 -0.141229 0.000829935  -0.044471 -0.147345 0.00065589  -0.0438805 -0.141289 0.000865698  -0.0381203 -0.141541 0.000644684  -0.0439425 -0.141386 0.000737667  -0.0513868 -0.159088 0.000570059  -0.0508668 -0.153052 0.000753164  -0.0453882 -0.159245 0.000591159  -0.0395563 -0.159496 0.000453234  -0.0390484 -0.153425 0.000594735  -0.0509124 -0.153122 0.000648737  -0.0454347 -0.159296 0.000511289  -0.0449152 -0.153241 0.000675559  -0.0391035 -0.153501 0.000511765  -0.0449677 -0.153314 0.000580192  -0.0522437 -0.171034 0.000431657  -0.0517921 -0.16501 0.000568628  -0.0462496 -0.171236 0.00044632  -0.0403919 -0.171492 0.00035274  -0.0399396 -0.165439 0.000459909  -0.0518293 -0.165059 0.000495911  -0.0462875 -0.171268 0.000391603  -0.0458307 -0.165228 0.000515103  -0.0399847 -0.165493 0.000400305  -0.0458736 -0.165279 0.000447869  -0.0529943 -0.182975 0.000323176  -0.0525999 -0.176975 0.000418663  -0.0470157 -0.183212 0.000331521  -0.0411463 -0.183471 0.000272393  -0.0407414 -0.177447 0.000350237  -0.0526311 -0.177006 0.000372648  -0.0470464 -0.183228 0.000297189  -0.0466423 -0.177215 0.000385165  -0.0407782 -0.177484 0.000310183  -0.0466774 -0.177249 0.000340819  -0.0536582 -0.194886 0.000242472  -0.0533092 -0.188916 0.000303507  -0.047703 -0.195147 0.00024569  -0.0418322 -0.195409 0.000213146  -0.041467 -0.189422 0.000265241  -0.0533354 -0.188935 0.000278115  -0.0477283 -0.195153 0.000226855  -0.0473671 -0.189174 0.000285029  -0.0414965 -0.189445 0.000240326  -0.0473957 -0.189195 0.000258565  -0.0542603 -0.206747 0.000188231  -0.0539422 -0.200813 0.000222564  -0.0483305 -0.207023 0.000186086  -0.0424647 -0.207286 0.000169635  -0.0421293 -0.20134 0.000202656  -0.0539656 -0.200823 0.000211477  -0.0483525 -0.207021 0.00017786  -0.0480223 -0.201081 0.000213265  -0.0421543 -0.201354 0.000189543  -0.0480461 -0.201093 0.000199795  -0.0548265 -0.21855 0.000150442  -0.0545232 -0.212649 0.000169158  -0.0489185 -0.218828 0.00014329  -0.0430584 -0.219092 0.000136852  -0.0427446 -0.213188 0.000157475  -0.0545459 -0.212655 0.000166893  -0.0489376 -0.218825 0.000142097  -0.0486269 -0.212922 0.000163317  -0.0427654 -0.213197 0.000152707  -0.0486486 -0.212929 0.000158548  -0.0553811 -0.230309 0.000116467  -0.055083 -0.224426 0.000129819  -0.0494843 -0.23058 0.000101924  -0.0436316 -0.230837 0.000105858  -0.0433264 -0.224962 0.000118494  -0.0551038 -0.224431 0.000133038  -0.0495026 -0.230577 0.000108838  -0.0492015 -0.224696 0.000122905  -0.0433455 -0.224969 0.000121117  -0.049221 -0.224703 0.000125766  -0.00147955 -0.00213656 0.00227463  0 0 0  -0.00106394 -0.00195682 0.00143063  -0.000385899 -0.000643715 0.00103056  0 0 0  -0.00143369 -0.00242773 0.00180507  -0.000498161 -0.000912458 0.00129747  0 0 0  -0.000358351 -0.000802189 0.000802755  -0.000475541 -0.00108892 0.00100839  -0.00420178 -0.00550453 0.00352764  -0.0030809 -0.00538057 0.0022521  -0.00207567 -0.0031151 0.00239182  -0.0041149 -0.00601277 0.00284863  -0.00275564 -0.00366151 0.0030092  -0.00200033 -0.00351743 0.00191438  -0.00268377 -0.00409445 0.00240731  -0.00717789 -0.010009 0.00391376  -0.00542635 -0.0100163 0.00257981  -0.00433639 -0.00699753 0.00299823  -0.00709736 -0.0106234 0.00324476  -0.0057013 -0.00759925 0.0037806  -0.00424233 -0.00755779 0.00246477  -0.00560287 -0.00818658 0.00310385  -0.00999525 -0.0156359 0.00388134  -0.00774029 -0.0157457 0.00259054  -0.00663477 -0.012131 0.0031271  -0.0099974 -0.0162793 0.00324905  -0.00860342 -0.0126746 0.00393033  -0.00659364 -0.0127494 0.00260985  -0.00856626 -0.0133229 0.00327933  -0.0126624 -0.0222945 0.00364852  -0.00994372 -0.0224628 0.00244498  -0.00883275 -0.018356 0.00301325  -0.0127202 -0.0229162 0.00306642  -0.0113509 -0.018832 0.00378203  -0.00885952 -0.0189849 0.00253046  -0.0113814 -0.0194788 0.00317335  -0.0151528 -0.0298714 0.00332797  -0.0120063 -0.0300736 0.00223351  -0.0109185 -0.0255588 0.00278473  -0.0152537 -0.0304502 0.00279915  -0.0139277 -0.0259641 0.00349462  -0.0109916 -0.0261614 0.00234413  -0.0140105 -0.0265761 0.00293899  -0.0174797 -0.0382599 0.00298274  -0.0139361 -0.038478 0.00200152  -0.0128854 -0.0336231 0.00251627  -0.0176025 -0.0387828 0.00250876  -0.0163361 -0.0339601 0.00315654  -0.0129877 -0.0341811 0.00211871  -0.0164502 -0.0345214 0.00265527  -0.019645 -0.0473534 0.00264275  -0.0157385 -0.0475821 0.0017736  -0.0147371 -0.0424424 0.00224161  -0.0197769 -0.0478192 0.00222135  -0.0185816 -0.0427132 0.00281131  -0.0148525 -0.0429471 0.00188696  -0.018711 -0.0432176 0.00236392  -0.0216535 -0.0570593 0.00232005  -0.0174202 -0.0572939 0.00155795  -0.0164752 -0.0519168 0.0019778  -0.0217848 -0.0574671 0.00195026  -0.0206678 -0.0521242 0.00247896  -0.0165942 -0.0523658 0.00166428  -0.0208009 -0.0525705 0.0020839  -0.0235096 -0.067289 0.00202143  -0.018986 -0.0675295 0.00135934  -0.0181011 -0.0619557 0.00173116  -0.0236354 -0.067643 0.00169909  -0.0225993 -0.0621022 0.00216782  -0.0182168 -0.0623498 0.00145698  -0.0227293 -0.0624927 0.00182223  -0.0252191 -0.077964 0.00174654  -0.0204414 -0.0782087 0.00117707  -0.0196178 -0.0724748 0.00150394  -0.0253361 -0.0782663 0.00146902  -0.0243813 -0.0725639 0.00188112  -0.0197273 -0.0728166 0.00126648  -0.0245037 -0.0729015 0.00158167  -0.0267884 -0.0890095 0.00149512  -0.0217915 -0.089259 0.00101173  -0.0210284 -0.0833972 0.00129604  -0.026895 -0.0892654 0.00125909  -0.0260199 -0.0834328 0.00161791  -0.021129 -0.0836902 0.00109267  -0.0261327 -0.0837216 0.00136161  -0.0282242 -0.100358 0.00126767  -0.0230409 -0.100611 0.000862241  -0.0223371 -0.0946515 0.0011071  -0.0283201 -0.10057 0.00106978  -0.0275214 -0.0946382 0.00137877  -0.0224284 -0.0948993 0.000935197  -0.0276235 -0.0948817 0.00116205  -0.0295347 -0.111947 0.00106251  -0.0241951 -0.112203 0.00072825  -0.0235479 -0.106172 0.000936747  -0.0296202 -0.112121 0.000898719  -0.0288936 -0.106114 0.00116241  -0.0236291 -0.106379 0.000793576  -0.0289853 -0.106317 0.000981927  -0.0307287 -0.123719 0.00087893  -0.0252603 -0.123977 0.000608325  -0.0246665 -0.117899 0.000784039  -0.0308032 -0.123857 0.00074625  -0.0301449 -0.117801 0.000968218  -0.0247387 -0.118069 0.000666618  -0.0302253 -0.117967 0.000820279  -0.0318141 -0.135622 0.000716448  -0.0262419 -0.135881 0.000503182  -0.0256985 -0.129777 0.00064826  -0.0318784 -0.13573 0.000611305  -0.0312834 -0.129645 0.000795245  -0.025761 -0.129914 0.000554085  -0.0313536 -0.129778 0.000676751  -0.0328007 -0.14761 0.000575066  -0.0271463 -0.147869 0.00041163  -0.02665 -0.141759 0.000529408  -0.0328546 -0.147689 0.000494242  -0.0323181 -0.141596 0.000643373  -0.0267036 -0.141866 0.000455618  -0.032378 -0.141699 0.000550747  -0.0336969 -0.15964 0.000454664  -0.0279803 -0.159899 0.000334144  -0.0275264 -0.153798 0.000426769  -0.0337415 -0.159697 0.00039494  -0.0332582 -0.15361 0.000512481  -0.0275712 -0.15388 0.000370979  -0.0333087 -0.153688 0.000442386  -0.0345132 -0.171676 0.000355363  -0.0287511 -0.171935 0.000270486  -0.0283363 -0.165857 0.000341296  -0.0345492 -0.171713 0.000312805  -0.0341132 -0.165647 0.000402451  -0.028373 -0.165917 0.000300407  -0.0341542 -0.165704 0.000351667  -0.0352595 -0.183689 0.000275612  -0.0294659 -0.183948 0.00022006  -0.0290856 -0.177903 0.000271797  -0.0352881 -0.18371 0.000247478  -0.0348933 -0.177675 0.000313282  -0.0291147 -0.177944 0.000243545  -0.0349267 -0.177714 0.000278234  -0.0359454 -0.195651 0.000215173  -0.0301318 -0.19591 0.000181675  -0.0297811 -0.189907 0.000217319  -0.0359681 -0.195661 0.000198364  -0.0356083 -0.189665 0.000243425  -0.0298045 -0.189934 0.000199318  -0.0356345 -0.18969 0.000221252  -0.0365815 -0.207545 0.000169873  -0.0307562 -0.207805 0.000153184  -0.0304296 -0.201849 0.000176191  -0.0366001 -0.207547 0.000161767  -0.036268 -0.201595 0.000191092  -0.0304484 -0.201865 0.000166297  -0.0362892 -0.20161 0.000178695  -0.0371792 -0.219359 0.000133514  -0.0313485 -0.219618 0.000128508  -0.0310397 -0.21371 0.000144005  -0.037195 -0.219356 0.000132561  -0.0368831 -0.21345 0.000151515  -0.0310557 -0.213721 0.000140429  -0.036901 -0.213459 0.000146747  -0.0377548 -0.231093 9.63211e-05  -0.0319233 -0.231342 0.000105143  -0.0316212 -0.225482 0.00011313  -0.0377705 -0.231092 0.000104189  -0.0374665 -0.225223 0.000115275  -0.0316358 -0.22549 0.000116706  -0.0374832 -0.225231 0.000118136  -0.000772916 -0.00139087 0.00135636  0 0 0  -0.000471719 -0.00144777 0.000717163  -0.000166766 -0.000371367 0.000521779  0 0 0  -0.000755154 -0.00164193 0.00107241  -0.000263631 -0.000469059 0.000787616  0 0 0  -0.000158712 -0.000501424 0.000408053  -0.000252217 -0.000615031 0.000610948  -0.00225833 -0.00447214 0.00207818  -0.00138967 -0.00464258 0.00112009  -0.000928178 -0.00249004 0.00119174  -0.00220555 -0.00493237 0.00168288  -0.00146213 -0.002731 0.00177479  -0.000891268 -0.00286108 0.00095129  -0.0014219 -0.00311425 0.00142348  -0.00395712 -0.00900441 0.00232136  -0.00249869 -0.00926968 0.00128317  -0.00197187 -0.00628027 0.00148845  -0.0039151 -0.00956672 0.00192833  -0.00310263 -0.00656289 0.00223589  -0.00193015 -0.00679973 0.00122571  -0.00304779 -0.00709578 0.00183821  -0.00563559 -0.0147455 0.00231218  -0.00364819 -0.0150845 0.00129294  -0.00308141 -0.0114618 0.00155497  -0.00564378 -0.0153472 0.00193846  -0.00480056 -0.0117263 0.00233853  -0.00307196 -0.0120426 0.00130081  -0.0047833 -0.0123225 0.00195348  -0.00726461 -0.0215291 0.00217688  -0.00478405 -0.0219097 0.00122297  -0.00419319 -0.0177758 0.00150228  -0.00731105 -0.0221265 0.00183201  -0.00645858 -0.018004 0.00225556  -0.00421906 -0.0183771 0.00126469  -0.00648659 -0.0186163 0.00189495  -0.00882018 -0.029233 0.00198579  -0.00588775 -0.0296285 0.00111723  -0.00528711 -0.0250765 0.00138938  -0.00889629 -0.0297984 0.00167358  -0.00805068 -0.025262 0.0020858  -0.00533992 -0.0256626 0.00117266  -0.00811386 -0.0258556 0.00175691  -0.0103068 -0.037742 0.00178099  -0.00695848 -0.0381384 0.00100231  -0.00635749 -0.0332387 0.00125575  -0.0103987 -0.038262 0.00150037  -0.00957125 -0.0333816 0.00188434  -0.00642699 -0.0337889 0.00106025  -0.0096575 -0.0339355 0.00158787  -0.0117239 -0.0469545 0.00157893  -0.00799721 -0.0473416 0.000889421  -0.00740439 -0.042154 0.00111938  -0.0118219 -0.0474214 0.00133038  -0.0110238 -0.0422547 0.0016793  -0.00748181 -0.042657 0.00094533  -0.0111198 -0.0427587 0.00141478  -0.0130718 -0.0567735 0.00138867  -0.00900471 -0.0571498 0.000783563  -0.00842607 -0.0517228 0.00098896  -0.0131692 -0.0571868 0.00116956  -0.0124052 -0.0517818 0.00148249  -0.00850463 -0.0521738 0.000835538  -0.0125048 -0.052232 0.00124872  -0.0143498 -0.0671122 0.0012126  -0.00997996 -0.0674752 0.000686526  -0.00942016 -0.0618528 0.000867963  -0.0144428 -0.0674721 0.00102246  -0.013719 -0.0618711 0.00129902  -0.00949621 -0.062251 0.000734091  -0.0138148 -0.0622677 0.0010947  -0.0155588 -0.0778886 0.00105143  -0.010923 -0.0782402 0.000598669  -0.0103841 -0.0724588 0.000757217  -0.015645 -0.0781987 0.000887394  -0.0149617 -0.0724384 0.00113022  -0.0104555 -0.0728059 0.000641704  -0.0150527 -0.0727832 0.000953317  -0.0166998 -0.0890289 0.000904679  -0.0118327 -0.0893682 0.000519514  -0.0113167 -0.0834623 0.000656843  -0.0167779 -0.0892917 0.000765681  -0.0161371 -0.0834055 0.000976562  -0.011382 -0.0837613 0.000558138  -0.0162197 -0.083702 0.000824928  -0.0177737 -0.100463 0.000772595  -0.0127091 -0.100793 0.000449061  -0.0122164 -0.0947917 0.000566483  -0.0178436 -0.100684 0.000655413  -0.0172436 -0.0947013 0.000837326  -0.012275 -0.0950458 0.000483394  -0.017319 -0.0949526 0.000709295  -0.0187833 -0.11213 0.000653863  -0.0135505 -0.112449 0.000386119  -0.0130821 -0.10638 0.000485659  -0.0188448 -0.112311 0.000557303  -0.0182856 -0.106259 0.000711799  -0.0131339 -0.106593 0.000416398  -0.0183519 -0.10647 0.000604987  -0.0197308 -0.123971 0.000548124  -0.014358 -0.12428 0.000330687  -0.0139135 -0.118169 0.000413656  -0.0197841 -0.124117 0.000469565  -0.0192635 -0.11802 0.000599742  -0.0139586 -0.118344 0.00035727  -0.0193218 -0.118193 0.000512362  -0.0206188 -0.135935 0.000455379  -0.0151311 -0.136234 0.000282288  -0.0147102 -0.130101 0.000350595  -0.0206643 -0.136048 0.000393271  -0.0201812 -0.129928 0.000500441  -0.0147487 -0.130243 0.000305533  -0.020231 -0.130068 0.000430226  -0.0214515 -0.147974 0.000374794  -0.0158713 -0.148266 0.00024116  -0.0154727 -0.142129 0.000295877  -0.0214891 -0.14806 0.000326633  -0.0210404 -0.141935 0.000413895  -0.0155053 -0.142241 0.000260711  -0.0210834 -0.142045 0.00035882  -0.0222325 -0.160048 0.000307083  -0.0165792 -0.160331 0.000206828  -0.0162022 -0.154208 0.000249743  -0.0222628 -0.16011 0.00027144  -0.0218472 -0.153997 0.000339508  -0.0162289 -0.154295 0.00022316  -0.0218821 -0.154081 0.000297666  -0.0229654 -0.17212 0.000251174  -0.0172563 -0.172398 0.000179648  -0.0169001 -0.1663 0.000211358  -0.0229897 -0.172163 0.000225663  -0.0226033 -0.166074 0.000277877  -0.0169213 -0.166365 0.000192165  -0.0226319 -0.166136 0.00024724  -0.0236552 -0.184162 0.000206947  -0.017905 -0.184433 0.000158548  -0.0175674 -0.178373 0.000181317  -0.0236742 -0.184188 0.00019002  -0.0233145 -0.178135 0.000228047  -0.0175838 -0.178419 0.000168324  -0.0233366 -0.178179 0.000206709  -0.0243058 -0.196148 0.000172973  -0.018527 -0.196416 0.000143409  -0.0182066 -0.1904 0.000158429  -0.0243201 -0.196161 0.000162959  -0.023984 -0.190151 0.000189066  -0.0182192 -0.190431 0.000150204  -0.0240016 -0.190181 0.000175357  -0.0249219 -0.20806 0.000147223  -0.0191247 -0.208324 0.000132084  -0.0188184 -0.202358 0.000141501  -0.0249329 -0.208064 0.000142694  -0.0246172 -0.202102 0.00015974  -0.0188286 -0.202378 0.00013721  -0.0246301 -0.202121 0.000152111  -0.0255094 -0.219881 0.000124931  -0.0197017 -0.220142 0.000122428  -0.0194075 -0.214232 0.000128269  -0.0255187 -0.21988 0.000125051  -0.0252173 -0.21397 0.000136375  -0.0194154 -0.214244 0.000127196  -0.0252285 -0.213981 0.000133753  -0.0260787 -0.231592 0.000101328  -0.0202653 -0.231847 0.000113368  -0.0199771 -0.225999 0.000115037  -0.0260885 -0.231593 0.0001086  -0.0257943 -0.22574 0.000113487  -0.0199842 -0.226009 0.00011754  -0.0258038 -0.225749 0.000116467  -0.000213355 -0.00112352 0.000451565  0 0 0  4.20958e-05 -0.00134745 -1.19209e-06  1.5527e-05 -0.000320613 -5.126e-06  0 0 0  -0.00020925 -0.00135508 0.000358939  -7.21626e-05 -0.000320166 0.000260711  0 0 0  1.3411e-05 -0.000443965 -2.38419e-06  -7.06688e-05 -0.000447392 0.000203609  -0.000638559 -0.00407219 0.000691533  0.000111133 -0.00449175 5.00679e-06  8.66503e-05 -0.00237092 -3.21865e-06  -0.000628203 -0.00450289 0.000563025  -0.000407487 -0.00237444 0.000594139  7.68006e-05 -0.00272533 1.66893e-06  -0.000399336 -0.00273439 0.000477195  -0.00115606 -0.00859204 0.000771761  0.000157446 -0.00912029 1.07288e-05  0.000156879 -0.00614086 3.45707e-06  -0.00115329 -0.00912333 0.000644445  -0.000890642 -0.00614315 0.000742078  0.000139415 -0.00664225 8.34465e-06  -0.000881553 -0.00664839 0.000614047  -0.00171113 -0.014382 0.000771642  0.000152051 -0.0149697 1.3113e-05  0.000185549 -0.011343 7.27177e-06  -0.00172913 -0.0149596 0.000651121  -0.00142917 -0.0113341 0.000777006  0.000162154 -0.0119063 1.23978e-05  -0.00143683 -0.0119033 0.000653863  -0.00229597 -0.021235 0.000727057  8.41618e-05 -0.0218437 1.32322e-05  0.00015527 -0.0176971 7.39098e-06  -0.00233042 -0.0218152 0.000616789  -0.00200045 -0.0176737 0.000752211  0.000126362 -0.018286 1.34706e-05  -0.00202698 -0.0182663 0.000636697  -0.00290275 -0.0290119 0.000663519  -4.97699e-05 -0.0296167 1.2517e-05  5.85318e-05 -0.0250452 6.31809e-06  -0.00294995 -0.0295677 0.000563622  -0.00259572 -0.025004 0.000696421  2.55108e-05 -0.0256233 1.27554e-05  -0.00263816 -0.0255846 0.000591397  -0.00353205 -0.0375946 0.000594974  -0.000248849 -0.03818 1.20401e-05  -0.000106156 -0.0332574 5.00679e-06  -0.00358564 -0.0381103 0.000506639  -0.00321448 -0.0331971 0.000629544  -0.000141263 -0.0338039 1.20401e-05  -0.0032655 -0.0337445 0.000535131  -0.00418115 -0.0468802 0.000528574  -0.000510156 -0.0474385 1.2517e-05  -0.000336528 -0.0422244 4.76837e-06  -0.0042364 -0.0473468 0.000450253  -0.00385338 -0.0421437 0.000561833  -0.000371933 -0.0427266 1.20401e-05  -0.00390929 -0.0426458 0.000478029  -0.0048461 -0.0567713 0.000466466  -0.000828028 -0.0572997 1.43051e-05  -0.000628233 -0.0518454 5.60284e-06  -0.00489998 -0.0571867 0.000398755  -0.00451124 -0.0517436 0.000497222  -0.000662208 -0.0522976 1.29938e-05  -0.00456655 -0.052195 0.000423789  -0.00552273 -0.0671799 0.000410438  -0.00119722 -0.0676782 1.77622e-05  -0.000974774 -0.062027 8.22544e-06  -0.00557351 -0.0675434 0.000351667  -0.00518191 -0.0619043 0.000437975  -0.00100636 -0.062428 1.57356e-05  -0.00523579 -0.0623037 0.000374556  -0.00620699 -0.0780227 0.00036037  -0.00161147 -0.0784919 2.25306e-05  -0.00137019 -0.0726832 1.2517e-05  -0.00625324 -0.0783371 0.000310659  -0.00586367 -0.0725397 0.000384927  -0.00139904 -0.0730338 1.97887e-05  -0.00591254 -0.0728886 0.000330567  -0.00689483 -0.0892251 0.000315785  -0.00206447 -0.0896671 2.81334e-05  -0.00180817 -0.0837345 1.80006e-05  -0.00693572 -0.0894927 0.000273705  -0.00654936 -0.0835714 0.00033772  -0.00183332 -0.0840372 2.49147e-05  -0.0065943 -0.0838722 0.000291586  -0.00758219 -0.100717 0.000276566  -0.00255036 -0.101133 3.49283e-05  -0.00228202 -0.0951081 2.44379e-05  -0.00761759 -0.100942 0.000241995  -0.00723791 -0.0949266 0.000295997  -0.00230348 -0.0953661 3.1352e-05  -0.00727665 -0.0951828 0.000257373  -0.00826526 -0.112435 0.000242472  -0.00306225 -0.112828 4.20809e-05  -0.00278544 -0.106737 3.18289e-05  -0.00829601 -0.11262 0.000213981  -0.00792313 -0.106539 0.000259042  -0.00280309 -0.106954 3.8147e-05  -0.00795746 -0.106754 0.000227332  -0.00894177 -0.124321 0.000212908  -0.00359535 -0.124692 5.01871e-05  -0.00331211 -0.118561 4.00543e-05  -0.0089674 -0.124471 0.000190616  -0.00860393 -0.118348 0.000227332  -0.00332654 -0.11874 4.60148e-05  -0.0086323 -0.118526 0.000201702  -0.00960839 -0.136325 0.000187874  -0.00414395 -0.136676 5.84126e-05  -0.00385666 -0.130525 4.85182e-05  -0.00962925 -0.136443 0.00017035  -0.0092752 -0.130299 0.000200033  -0.00386798 -0.130671 5.4121e-05  -0.00929952 -0.130443 0.000179887  -0.0102637 -0.148398 0.000167489  -0.00470352 -0.148731 6.65188e-05  -0.00441432 -0.14258 5.74589e-05  -0.0102801 -0.148489 0.000154376  -0.00993681 -0.142343 0.000177145  -0.00442243 -0.142695 6.24657e-05  -0.00995588 -0.142457 0.000161648  -0.010906 -0.160501 0.000150561  -0.00526977 -0.160817 7.51019e-05  -0.00497985 -0.154681 6.63996e-05  -0.0109181 -0.160567 0.000141144  -0.0105851 -0.154436 0.000158548  -0.00498581 -0.154771 7.06911e-05  -0.010601 -0.154524 0.000146985  -0.0115342 -0.172596 0.000138164  -0.00583911 -0.172899 8.39233e-05  -0.00555062 -0.166792 7.56979e-05  -0.0115426 -0.172643 0.000132084  -0.0112209 -0.166539 0.000144124  -0.00555396 -0.166859 7.92742e-05  -0.0112317 -0.166605 0.000135899  -0.0121467 -0.184658 0.0001297  -0.00640798 -0.184948 9.27448e-05  -0.00612211 -0.178879 8.49962e-05  -0.0121522 -0.184687 0.000125527  -0.0118408 -0.178621 0.000133634  -0.00612354 -0.178928 8.82149e-05  -0.0118492 -0.178668 0.000128269  -0.0127444 -0.196659 0.000124574  -0.00697446 -0.19694 0.000101686  -0.00669193 -0.190918 9.46522e-05  -0.0127473 -0.196675 0.000122905  -0.0124469 -0.190655 0.000126958  -0.00669169 -0.190951 9.71556e-05  -0.0124514 -0.190687 0.00012362  -0.0133262 -0.208582 0.000121713  -0.00753641 -0.208855 0.000110149  -0.00725698 -0.202885 0.00010407  -0.0133278 -0.208588 0.000120878  -0.013036 -0.202619 0.000123024  -0.00725627 -0.202906 0.000105858  -0.0130391 -0.20264 0.000121474  -0.0138941 -0.220407 0.000119328  -0.00809264 -0.220675 0.000118375  -0.00781727 -0.214763 0.00011301  -0.013895 -0.220407 0.000120163  -0.0136108 -0.214496 0.000120521  -0.00781512 -0.214776 0.000114202  -0.0136127 -0.214508 0.000120282  -0.0144491 -0.232104 0.000115871  -0.0086391 -0.232374 0.000126362  -0.00836897 -0.226529 0.000121355  -0.0144498 -0.232107 0.000119209  -0.0141716 -0.226262 0.000117898  -0.00836706 -0.22654 0.00012219  -0.0141735 -0.226272 0.000119448  0.000308022 -0.00119591 -0.000461459  0 0 0  0.000554979 -0.00158429 -0.00071466  0.000196561 -0.000452459 -0.00052917  0 0 0  0.000293955 -0.00142354 -0.00036037  0.000102766 -0.000361264 -0.000270605  0 0 0  0.000184856 -0.000579238 -0.000408888  9.80794e-05 -0.000486374 -0.000207663  0.000885457 -0.00418711 -0.000689745  0.00160843 -0.00485957 -0.00110304  0.00109905 -0.00268322 -0.00118971  0.000850946 -0.00461203 -0.000551581  0.000579044 -0.00247085 -0.000597954  0.00104235 -0.003043 -0.000942469  0.000553221 -0.00282586 -0.000473022  0.00150779 -0.00873333 -0.000757694  0.00280446 -0.00953984 -0.00125277  0.00227904 -0.00653785 -0.00147092  0.00146645 -0.00925905 -0.000621319  0.00120139 -0.00627202 -0.000732899  0.00220245 -0.00704461 -0.00120115  0.00115973 -0.00677174 -0.000595808  0.00206178 -0.0145446 -0.000753999  0.00393659 -0.0153995 -0.00125754  0.00344044 -0.0117646 -0.00152969  0.00202948 -0.0151175 -0.000622511  0.00179553 -0.0114858 -0.000760198  0.00338367 -0.0123345 -0.00126708  0.00175831 -0.01205 -0.000627518  0.00251913 -0.0214201 -0.000711203  0.00493115 -0.0222736 -0.00118887  0.00448585 -0.0181223 -0.0014776  0.00249338 -0.0219971 -0.000588655  0.00230491 -0.0178469 -0.000735283  0.00445318 -0.0187157 -0.00122964  0.00227499 -0.0184359 -0.000608325  0.00286305 -0.0292225 -0.000650883  0.00576311 -0.0300478 -0.00108671  0.0053817 -0.0254718 -0.00136924  0.0028438 -0.0297769 -0.000537634  0.00270545 -0.0252013 -0.000682116  0.0053677 -0.0260532 -0.00114036  0.00268316 -0.0257798 -0.000564456  0.00309557 -0.0378339 -0.000584722  0.00643349 -0.0386189 -0.000974655  0.0061202 -0.0336897 -0.00124025  0.00308043 -0.0383497 -0.000481963  0.002994 -0.0334218 -0.000618219  0.00611812 -0.0342382 -0.00103164  0.00297606 -0.0339684 -0.000510335  0.00322104 -0.0471511 -0.000517726  0.00694978 -0.0478879 -0.000861764  0.00670516 -0.0426663 -0.00110662  0.00320911 -0.0476187 -0.000424981  0.00317168 -0.0423986 -0.000551462  0.00671041 -0.0431701 -0.000918388  0.00315803 -0.0429013 -0.000453591  0.00324607 -0.057075 -0.000452638  0.0073216 -0.0577632 -0.000753522  0.00714374 -0.0522999 -0.00097549  0.00323689 -0.057492 -0.000369906  0.00324667 -0.0520307 -0.000485182  0.00715327 -0.0527537 -0.000807524  0.0032351 -0.0524837 -0.000397444  0.00317907 -0.0675164 -0.000389934  0.00756025 -0.0681557 -0.000650644  0.00744522 -0.0624955 -0.000850439  0.00317228 -0.0678821 -0.000316501  0.00322425 -0.062224 -0.000421405  0.00745726 -0.0628983 -0.000701547  0.00321579 -0.0626258 -0.000343084  0.00302851 -0.0783908 -0.00033021  0.0076766 -0.078985 -0.000553846  0.00761974 -0.0731667 -0.000732183  0.00302386 -0.078708 -0.000266075  0.00311482 -0.0728922 -0.000360012  0.00763297 -0.073519 -0.000601768  0.00310802 -0.0732436 -0.000291109  0.00280321 -0.0896232 -0.000273705  0.00768244 -0.0901732 -0.000463367  0.00767851 -0.0842322 -0.0006212  0.00280106 -0.0898935 -0.000217676  0.00292528 -0.0839546 -0.000301957  0.00769281 -0.0845369 -0.00050807  0.00292146 -0.0842584 -0.000241756  0.00251222 -0.101142 -0.000220537  0.00758934 -0.101652 -0.000379205  0.00763249 -0.0956188 -0.000517726  0.00251222 -0.10137 -0.000172615  0.00266671 -0.0953386 -0.000246763  0.00764775 -0.0958788 -0.000420928  0.00266433 -0.0955977 -0.000194907  0.00216484 -0.112885 -0.000170827  0.00740933 -0.113357 -0.000301361  0.00749397 -0.10726 -0.00042212  0.00216651 -0.113073 -0.000129819  0.00234592 -0.106977 -0.000195265  0.00750983 -0.107478 -0.000339985  0.00234604 -0.107195 -0.000151157  0.00176871 -0.124792 -0.000124335  0.0071528 -0.125231 -0.000230432  0.00727427 -0.119093 -0.000334024  0.00177228 -0.124945 -9.07183e-05  0.00197339 -0.118809 -0.000147104  0.00728989 -0.119274 -0.000265598  0.00197518 -0.118989 -0.000109911  0.00133276 -0.136814 -8.2016e-05  0.00683093 -0.13722 -0.000165939  0.00698388 -0.131065 -0.000253916  0.00133777 -0.136935 -5.38826e-05  0.00155604 -0.13078 -0.000102878  0.00699961 -0.131212 -0.000197768  0.00155985 -0.130927 -7.21216e-05  0.000863791 -0.148902 -4.35114e-05  0.00645399 -0.149281 -0.000108004  0.00663328 -0.143126 -0.000181317  0.000870228 -0.148995 -2.12193e-05  0.00110316 -0.14284 -6.22272e-05  0.00664878 -0.143243 -0.000136375  0.00110769 -0.142957 -3.71933e-05  0.00036931 -0.161017 -8.70228e-06  0.00603127 -0.16137 -5.68628e-05  0.00623298 -0.155231 -0.000117302  0.000376701 -0.161085 8.82149e-06  0.000620365 -0.154946 -2.58684e-05  0.00624824 -0.155322 -8.18968e-05  0.000626326 -0.155037 -5.84126e-06  -0.000145197 -0.173122 2.26498e-05  0.00557208 -0.173453 -1.16825e-05  0.00579119 -0.167344 -6.04391e-05  -0.000136852 -0.17317 3.56436e-05  0.000115633 -0.16706 7.39098e-06  0.00580597 -0.167412 -3.37362e-05  0.000122309 -0.167128 2.24113e-05  -0.000673532 -0.18519 5.00679e-05  0.0050838 -0.185502 2.68221e-05  0.00531745 -0.179433 -1.12057e-05  -0.000664949 -0.18522 5.97239e-05  -0.000406981 -0.17915 3.65973e-05  0.00533152 -0.179482 7.98702e-06  -0.000399113 -0.179199 4.76837e-05  -0.00121164 -0.197196 7.41482e-05  0.00457406 -0.197492 6.00815e-05  0.00481868 -0.19147 3.06368e-05  -0.00120306 -0.197213 8.03471e-05  -0.000940561 -0.191189 6.24657e-05  0.00483131 -0.191504 4.3869e-05  -0.00093317 -0.191223 7.00951e-05  -0.00175524 -0.209121 9.54866e-05  0.00404859 -0.209405 8.82149e-05  0.00430131 -0.203436 6.62804e-05  -0.00174665 -0.209128 9.90629e-05  -0.00148249 -0.203157 8.52346e-05  0.00431299 -0.203457 7.42674e-05  -0.0014739 -0.203179 9.0003e-05  -0.00230026 -0.220947 0.000115275  0.00351429 -0.221225 0.000114083  0.00377011 -0.215312 9.75132e-05  -0.00229144 -0.220948 0.000116229  -0.0020268 -0.215035 0.0001055  0.00378203 -0.215326 0.00010097  -0.00201917 -0.215048 0.000107646  -0.00283837 -0.232644 0.00013566  0.00298285 -0.23293 0.00014019  0.00323558 -0.22708 0.000128269  -0.00283003 -0.232648 0.000133634  -0.00256991 -0.226802 0.000125408  0.00324702 -0.227092 0.000126839  -0.00256205 -0.226814 0.000124812  0.000862807 -0.00160605 -0.00135469  0 0 0  0.0011334 -0.00222486 -0.00141847  0.000412494 -0.000810742 -0.00103176  0 0 0  0.000835359 -0.00184518 -0.00106549  0.000291333 -0.000588894 -0.00079143  0 0 0  0.000375897 -0.000953674 -0.000808001  0.000277288 -0.000732005 -0.000612497  0.00249428 -0.00481182 -0.00205564  0.00327384 -0.0058018 -0.00220668  0.00223383 -0.00349349 -0.00235999  0.00241765 -0.00525445 -0.00165474  0.0016268 -0.00301892 -0.00176191  0.00213262 -0.00387079 -0.001881  0.00156897 -0.00338393 -0.00140631  0.00428668 -0.00942343 -0.002285  0.00569189 -0.0105435 -0.00251687  0.00461084 -0.00749761 -0.00294685  0.00420648 -0.00996798 -0.00188529  0.00339615 -0.00694513 -0.00220501  0.00448224 -0.00803268 -0.0024091  0.00331014 -0.00745934 -0.00180197  0.00595349 -0.0152299 -0.0022738  0.00797236 -0.0163666 -0.0025264  0.00694665 -0.0127271 -0.00306761  0.00591004 -0.0158175 -0.00189149  0.00513995 -0.0121776 -0.00229955  0.00685835 -0.0133222 -0.00254536  0.00507694 -0.0127574 -0.00190783  0.00744516 -0.0220849 -0.00214374  0.0100194 -0.0231903 -0.00238717  0.00906283 -0.0190458 -0.00295961  0.00742936 -0.0226724 -0.00178826  0.00672501 -0.018523 -0.00221944  0.00902885 -0.0196574 -0.00246859  0.00669479 -0.019123 -0.00184953  0.00873101 -0.0298693 -0.00196087  0.0118008 -0.0309189 -0.00218511  0.0109393 -0.0263541 -0.00274217  0.00873858 -0.0304295 -0.00163591  0.0081141 -0.0258567 -0.0020566  0.0109426 -0.0269461 -0.00229084  0.00811046 -0.0264426 -0.00171638  0.00981736 -0.0384684 -0.00176203  0.0133257 -0.0394531 -0.00196111  0.012567 -0.0345362 -0.00248456  0.00983846 -0.0389872 -0.0014677  0.00929928 -0.0340617 -0.00186265  0.0125949 -0.0350901 -0.00207448  0.0093143 -0.0346126 -0.00155318  0.0107101 -0.0477772 -0.00156307  0.0146054 -0.048693 -0.00173819  0.0139545 -0.0434834 -0.00221825  0.010739 -0.0482466 -0.00129974  0.0102883 -0.0430282 -0.00166237  0.0139952 -0.0439893 -0.00184953  0.010313 -0.0435332 -0.0013839  0.0114192 -0.0576955 -0.00137174  0.0156547 -0.0585432 -0.0015229  0.0151104 -0.0530916 -0.00195813  0.011452 -0.0581141 -0.00113785  0.0110875 -0.0526538 -0.00146651  0.0151582 -0.053546 -0.00162959  0.0111183 -0.0531082 -0.0012182  0.0119563 -0.0681336 -0.00119054  0.0164887 -0.0689148 -0.00132048  0.0160475 -0.0632653 -0.00170994  0.0119907 -0.0685005 -0.000985503  0.0117097 -0.062843 -0.00128007  0.0160977 -0.0636677 -0.0014205  0.0117422 -0.0632458 -0.00106096  0.0123339 -0.0790058 -0.00102103  0.0171237 -0.079724 -0.00113106  0.0167799 -0.073916 -0.001477  0.0123686 -0.079324 -0.000842333  0.0121648 -0.0735081 -0.00110459  0.0168301 -0.0742679 -0.0012244  0.012199 -0.0738606 -0.000913024  0.0125659 -0.090236 -0.000863075  0.0175768 -0.0908945 -0.000955343  0.0173229 -0.0849631 -0.00126016  0.0126004 -0.0905073 -0.000709653  0.0124686 -0.0845686 -0.000940919  0.0173721 -0.085267 -0.00104189  0.012502 -0.0848732 -0.000775218  0.0126663 -0.101752 -0.000717282  0.0178648 -0.102355 -0.000793219  0.0176928 -0.0963319 -0.00105941  0.0127004 -0.101981 -0.00058651  0.0126325 -0.0959502 -0.000788927  0.0177406 -0.096591 -0.00087297  0.0126662 -0.0962101 -0.000647187  0.0126499 -0.113492 -0.000583053  0.0180051 -0.114044 -0.000644445  0.017907 -0.107955 -0.0008744  0.0126827 -0.113681 -0.000473738  0.0126733 -0.107586 -0.000648737  0.0179527 -0.108173 -0.000717759  0.0127053 -0.107805 -0.000529051  0.0125295 -0.125396 -0.000460386  0.0180134 -0.1259 -0.000509024  0.0179818 -0.119772 -0.000705361  0.0125607 -0.125549 -0.000370145  0.0126023 -0.119415 -0.000520349  0.0180248 -0.119952 -0.000575423  0.0126343 -0.119596 -0.000421047  0.0123191 -0.137413 -0.000350356  0.0179064 -0.137874 -0.00038743  0.0179334 -0.131728 -0.000552416  0.0123489 -0.137534 -0.000277519  0.012436 -0.131381 -0.000404119  0.0179735 -0.131874 -0.000446796  0.0124654 -0.131528 -0.000323057  0.0120313 -0.149496 -0.000252128  0.0177002 -0.149918 -0.000279188  0.0177777 -0.143772 -0.00041604  0.0120595 -0.149589 -0.000194311  0.0121849 -0.143437 -0.000299454  0.0178149 -0.143888 -0.000331879  0.0122132 -0.143553 -0.000234962  0.0116792 -0.161605 -0.000165462  0.0174091 -0.161992 -0.000184655  0.0175304 -0.155862 -0.000295401  0.0117052 -0.161672 -0.000121713  0.0118642 -0.155537 -0.000207424  0.0175645 -0.155952 -0.000230432  0.0118897 -0.155627 -0.000157118  0.0112734 -0.173703 -9.08375e-05  0.0170481 -0.17406 -0.000103235  0.017206 -0.16796 -0.000190973  0.011297 -0.173751 -5.82933e-05  0.0114832 -0.167645 -0.000126719  0.0172367 -0.168027 -0.000142455  0.0115075 -0.167712 -8.90493e-05  0.0108247 -0.185764 -2.77758e-05  0.0166299 -0.186096 -3.50475e-05  0.0168185 -0.180034 -0.00010252  0.0108464 -0.185794 -5.24521e-06  0.0110555 -0.179728 -5.81741e-05  0.0168457 -0.180082 -6.78301e-05  0.0110765 -0.179776 -3.09944e-05  0.0103424 -0.197763 2.51532e-05  0.0161676 -0.198073 2.09808e-05  0.0163801 -0.192059 -2.90871e-05  0.0103617 -0.197779 3.98159e-05  0.0105879 -0.19176 -1.19209e-07  0.0164037 -0.192091 -6.07967e-06  0.010608 -0.191793 1.80006e-05  0.00983405 -0.209681 6.96182e-05  0.0156717 -0.209975 6.7234e-05  0.015902 -0.204011 3.12328e-05  0.00985241 -0.209688 7.71284e-05  0.010092 -0.203721 4.8399e-05  0.015923 -0.204032 4.48227e-05  0.0101097 -0.203742 5.88894e-05  0.00930929 -0.221505 0.000109673  0.0151532 -0.221791 0.000108123  0.0153942 -0.215879 8.18968e-05  0.00932765 -0.221506 0.00011158  0.00957394 -0.215593 8.92878e-05  0.0154147 -0.215892 8.7738e-05  0.00959158 -0.215607 9.39369e-05  0.00878286 -0.233217 0.000151038  0.0146301 -0.233515 0.000147939  0.0148704 -0.227651 0.000130177  0.00880098 -0.23322 0.00014472  0.00904632 -0.227364 0.000130177  0.0148904 -0.227663 0.000127912  0.00906301 -0.227375 0.000127912  0.00152422 -0.00248402 -0.00224793  0 0 0  0.00187579 -0.00345939 -0.00216579  0.000656046 -0.00151283 -0.00157344  0 0 0  0.00148313 -0.00275487 -0.00177896  0.000506163 -0.00111216 -0.00129819  0 0 0  0.000618927 -0.00167859 -0.001212  0.000486329 -0.00126606 -0.00100493  0.00438988 -0.00604492 -0.00345135  0.0054099 -0.00746506 -0.00335681  0.00369784 -0.00500822 -0.00362873  0.00427961 -0.00653023 -0.00277829  0.00286824 -0.0041362 -0.00295532  0.00353333 -0.00538439 -0.00288105  0.00278941 -0.00452614 -0.00236523  0.00744453 -0.0106856 -0.00382507  0.00913087 -0.0121493 -0.00380337  0.00747076 -0.00908828 -0.004475  0.00732768 -0.0112727 -0.00315714  0.00594169 -0.00820893 -0.00369847  0.0072962 -0.00967246 -0.00365937  0.00581345 -0.00876868 -0.00302351  0.0102296 -0.0164307 -0.00379527  0.0125415 -0.0178538 -0.00379944  0.0109826 -0.0142218 -0.00462425  0.010178 -0.0170482 -0.00316  0.00886947 -0.01341 -0.00384212  0.0108758 -0.0148674 -0.00383794  0.00878641 -0.0140287 -0.00319016  0.0127412 -0.0232211 -0.00357759  0.0156047 -0.024573 -0.00359595  0.0141529 -0.0204502 -0.00445557  0.0127343 -0.0238262 -0.00298882  0.0115244 -0.0196905 -0.00370383  0.0141172 -0.0210903 -0.00371623  0.0114936 -0.0203156 -0.00309002  0.0149518 -0.0309454 -0.00327432  0.0183076 -0.0322093 -0.00329137  0.0169876 -0.0276751 -0.00413179  0.0149808 -0.0315142 -0.00273597  0.0138832 -0.0269625 -0.00343323  0.0170007 -0.0282808 -0.00345099  0.0138964 -0.0275609 -0.00286901  0.0168737 -0.0394933 -0.00294399  0.0206605 -0.0406685 -0.00295949  0.0194827 -0.0357839 -0.00374591  0.016923 -0.0400155 -0.00245786  0.0159493 -0.0351123 -0.00311124  0.0195267 -0.0363421 -0.00312793  0.0159889 -0.0356681 -0.00259876  0.0185151 -0.0487566 -0.00261366  0.022678 -0.0498402 -0.00262296  0.0216497 -0.0446653 -0.0033462  0.0185758 -0.0492257 -0.00217879  0.017729 -0.0440308 -0.00277865  0.0217101 -0.04517 -0.0027914  0.0177849 -0.0445364 -0.00231814  0.0198896 -0.0586337 -0.00229537  0.0243795 -0.059631 -0.00230217  0.0234981 -0.0542125 -0.00295448  0.0199549 -0.0590504 -0.00191069  0.0192361 -0.0536129 -0.00245333  0.023567 -0.0546632 -0.00246155  0.0192984 -0.0540655 -0.00204372  0.0210116 -0.0690333 -0.00199485  0.0257834 -0.0699455 -0.00199699  0.0250462 -0.0643294 -0.00258172  0.0210779 -0.0693978 -0.00165761  0.0204817 -0.0637623 -0.00214326  0.0251175 -0.0647268 -0.00214791  0.0205475 -0.0641626 -0.00178266  0.0218985 -0.0798696 -0.00171399  0.0269123 -0.0807028 -0.00171423  0.02631 -0.0749263 -0.00223088  0.0219637 -0.080185 -0.00142145  0.0214844 -0.0743901 -0.00185215  0.0263809 -0.0752729 -0.0018537  0.0215493 -0.0747395 -0.00153792  0.0225687 -0.0910655 -0.00145328  0.0277871 -0.0918229 -0.00145006  0.0273116 -0.0859219 -0.00190532  0.0226319 -0.0913342 -0.00120246  0.0222603 -0.0854154 -0.00158143  0.0273802 -0.0862208 -0.00158024  0.0223241 -0.0857171 -0.00131035  0.0230416 -0.102549 -0.00121284  0.0284311 -0.103237 -0.00120854  0.0280707 -0.0972417 -0.00160348  0.0231018 -0.102775 -0.00100076  0.0228299 -0.0967634 -0.00133073  0.0281367 -0.0974965 -0.00132728  0.0228904 -0.0970205 -0.00109971  0.0233364 -0.114258 -0.000992775  0.0288655 -0.11488 -0.000986338  0.0286109 -0.108819 -0.00132704  0.023393 -0.114444 -0.000815511  0.0232109 -0.108368 -0.00110054  0.0286732 -0.109033 -0.00109541  0.0232687 -0.108584 -0.000906348  0.023472 -0.126132 -0.000792623  0.0291131 -0.126695 -0.000784993  0.0289528 -0.120592 -0.00107419  0.0235252 -0.126283 -0.000647664  0.0234239 -0.120166 -0.000890136  0.0290112 -0.120768 -0.000883341  0.023478 -0.120344 -0.000729799  0.023468 -0.138122 -0.000612736  0.0291953 -0.138629 -0.000603914  0.0291198 -0.132507 -0.000846386  0.0235171 -0.13824 -0.000496507  0.0234871 -0.132104 -0.000700235  0.0291736 -0.132649 -0.000692248  0.0235378 -0.132248 -0.000570297  0.0233421 -0.150178 -0.000453472  0.0291336 -0.150636 -0.000443816  0.0291317 -0.144512 -0.000642538  0.0233872 -0.150268 -0.000362635  0.0234203 -0.144132 -0.000530481  0.0291812 -0.144625 -0.00052166  0.0234663 -0.144246 -0.000427723  0.0231123 -0.162262 -0.000314236  0.0289481 -0.162675 -0.000304341  0.0290108 -0.156567 -0.000463843  0.0231531 -0.162327 -0.00024569  0.0232401 -0.156206 -0.000381231  0.0290551 -0.156653 -0.000371575  0.0232823 -0.156294 -0.000302315  0.0227962 -0.174338 -0.000196099  0.0286601 -0.174713 -0.000185728  0.0287762 -0.168632 -0.000310302  0.0228324 -0.174382 -0.00014627  0.0229654 -0.16829 -0.000252724  0.028816 -0.168695 -0.00024271  0.0230026 -0.168355 -0.000194311  0.0224094 -0.186378 -9.75132e-05  0.0282881 -0.186721 -8.86917e-05  0.0284488 -0.180676 -0.000181913  0.0224416 -0.186406 -6.35386e-05  0.0226119 -0.180352 -0.000144124  0.0284836 -0.180721 -0.000135064  0.022645 -0.180398 -0.000102997  0.0219669 -0.198357 -1.80006e-05  0.0278511 -0.198674 -1.07288e-05  0.0280461 -0.192674 -7.77245e-05  0.0219955 -0.198372 3.69549e-06  0.0221956 -0.192364 -5.55515e-05  0.0280769 -0.192704 -4.74453e-05  0.0222247 -0.192395 -2.83718e-05  0.0214822 -0.210261 4.673e-05  0.0273671 -0.210559 5.01871e-05  0.0275874 -0.204605 4.17233e-06  0.0215082 -0.210266 5.78165e-05  0.0217299 -0.204307 1.60933e-05  0.0276136 -0.204625 2.14577e-05  0.0217564 -0.204327 3.18289e-05  0.0209692 -0.222076 0.000101209  0.0268524 -0.222365 0.000100493  0.027087 -0.216457 6.84261e-05  0.0209942 -0.222078 0.00010407  0.0212295 -0.216167 7.43866e-05  0.0271127 -0.216471 7.58171e-05  0.0212538 -0.216181 8.11815e-05  0.0204446 -0.23381 0.000155687  0.026324 -0.234107 0.00014782  0.0265639 -0.22823 0.000124931  0.0204694 -0.233812 0.000148892  0.0207078 -0.22794 0.000128388  0.0265889 -0.228242 0.00012362  0.0207314 -0.227952 0.000126362  0.00267071 -0.00416285 -0.00328326  0 0 0  0.00393973 -0.00576746 -0.00293052  0.00172057 -0.00324988 -0.00217795  0 0 0  0.00262365 -0.00446939 -0.00259113  0.000870414 -0.00208282 -0.00185442  0 0 0  0.00160308 -0.00340039 -0.00171411  0.000854395 -0.002276 -0.00143194  0.00688395 -0.00798535 -0.00491619  0.00854534 -0.00980341 -0.00449622  0.0064209 -0.00705439 -0.0048784  0.00684384 -0.00858229 -0.00393283  0.00469516 -0.00601512 -0.00427985  0.00620981 -0.0076732 -0.00384915  0.00466782 -0.00646073 -0.00338614  0.011264 -0.0124882 -0.00541115  0.0133711 -0.0142726 -0.00505662  0.0111358 -0.0112403 -0.0060091  0.0111327 -0.0131564 -0.00444496  0.00913775 -0.0101244 -0.00524938  0.0109855 -0.0118849 -0.00487912  0.00901404 -0.0107279 -0.00427437  0.0151593 -0.0181149 -0.00534582  0.0178646 -0.0198008 -0.00507367  0.0157875 -0.0161769 -0.00621319  0.0150959 -0.0187755 -0.00443983  0.0132613 -0.0151514 -0.00542176  0.0156706 -0.0168961 -0.00512195  0.0131629 -0.0158294 -0.00448799  0.0186702 -0.0247955 -0.00504637  0.0219197 -0.0263658 -0.00479472  0.0200046 -0.0222778 -0.00597489  0.0186575 -0.0254208 -0.00420201  0.0169637 -0.0213155 -0.00521886  0.0199493 -0.0229545 -0.00495923  0.0169271 -0.021973 -0.00434387  0.0217834 -0.0324242 -0.00461113  0.025516 -0.0338796 -0.00439572  0.0237915 -0.0293841 -0.00553226  0.0218108 -0.0330003 -0.00384796  0.020278 -0.0284843 -0.00483871  0.0237758 -0.0300094 -0.00460553  0.0202853 -0.0290982 -0.00403523  0.0245155 -0.0408866 -0.00415421  0.028667 -0.0422274 -0.00395072  0.0271275 -0.0373911 -0.0050118  0.0245659 -0.0414064 -0.00346124  0.0231953 -0.0365448 -0.00438583  0.0271454 -0.0379548 -0.00417626  0.0232365 -0.037105 -0.00365853  0.0268764 -0.0500694 -0.00368106  0.0313882 -0.0513011 -0.00350654  0.0300473 -0.046174 -0.00447416  0.0269407 -0.0505341 -0.00306869  0.0257438 -0.0453807 -0.00391757  0.0300807 -0.0466786 -0.00372756  0.0258002 -0.0458845 -0.00326562  0.0288854 -0.0598717 -0.0032388  0.0337062 -0.0609969 -0.00307608  0.0325495 -0.0556302 -0.00394869  0.0289549 -0.0602804 -0.00269365  0.0279233 -0.054886 -0.00345802  0.0325956 -0.0560762 -0.00328863  0.0279911 -0.0553339 -0.00288022  0.0305594 -0.0701993 -0.00280952  0.0356423 -0.071225 -0.00267172  0.0346721 -0.0656578 -0.00344968  0.0306308 -0.0705567 -0.0023371  0.0297654 -0.0649621 -0.00302148  0.034721 -0.066049 -0.00287056  0.029834 -0.065356 -0.00251389  0.0319225 -0.0809675 -0.0024184  0.0372269 -0.0818973 -0.00229299  0.0364248 -0.0761707 -0.00298083  0.0319926 -0.0812744 -0.00200665  0.0312784 -0.0755206 -0.00261116  0.0364765 -0.0765098 -0.00247884  0.0313493 -0.0758635 -0.00217009  0.0329967 -0.0920978 -0.00204706  0.0384843 -0.0929391 -0.00194311  0.0378456 -0.0870843 -0.002545  0.0330648 -0.0923598 -0.00169826  0.0324963 -0.0864791 -0.00222957  0.0378954 -0.087376 -0.0021143  0.0325636 -0.0867742 -0.00185037  0.0338078 -0.10352 -0.00171196  0.0394452 -0.104277 -0.00162005  0.0389502 -0.0983281 -0.00214183  0.0338725 -0.103739 -0.00141597  0.0334339 -0.0977641 -0.00187624  0.039 -0.0985745 -0.00177765  0.0335001 -0.098015 -0.00155497  0.0343788 -0.11517 -0.00139999  0.0401344 -0.115849 -0.00132537  0.0397753 -0.109831 -0.00177228  0.0344402 -0.11535 -0.00115681  0.0341235 -0.109308 -0.0015527  0.0398222 -0.110037 -0.00146854  0.0341848 -0.109518 -0.00128412  0.0347362 -0.126989 -0.00112092  0.0405821 -0.127595 -0.00105762  0.040342 -0.121535 -0.00143552  0.0347931 -0.127133 -0.000921965  0.034583 -0.121049 -0.00125718  0.0403868 -0.121704 -0.00118744  0.0346421 -0.121222 -0.001037  0.0349026 -0.138927 -0.000867486  0.0408132 -0.139468 -0.000817657  0.0406812 -0.133383 -0.00113142  0.034956 -0.13904 -0.000710845  0.0348431 -0.132934 -0.000990748  0.040723 -0.133519 -0.00093329  0.0348969 -0.133073 -0.000813723  0.0349038 -0.150935 -0.000645399  0.0408559 -0.151415 -0.000605106  0.040817 -0.145329 -0.000860333  0.0349524 -0.151019 -0.000524163  0.0349233 -0.144912 -0.000752807  0.0408564 -0.145434 -0.00070703  0.0349736 -0.145022 -0.000614882  0.0347617 -0.162975 -0.000451326  0.0407357 -0.163403 -0.00042057  0.0407789 -0.157327 -0.000623107  0.0348058 -0.163036 -0.000362515  0.0348506 -0.156941 -0.000544548  0.0408144 -0.157406 -0.000508428  0.0348952 -0.157024 -0.000440359  0.0345004 -0.175012 -0.000287652  0.0404801 -0.175392 -0.000265598  0.040591 -0.169343 -0.000419855  0.0345397 -0.175052 -0.000225186  0.0346456 -0.168984 -0.000365615  0.0406234 -0.169399 -0.000338793  0.0346868 -0.169044 -0.000290751  0.0341413 -0.187017 -0.00015378  0.0401123 -0.187361 -0.000139117  0.0402782 -0.181342 -0.000251412  0.0341756 -0.187042 -0.000113368  0.0343328 -0.181008 -0.000216603  0.0403087 -0.181381 -0.000197887  0.0343683 -0.18105 -0.000166059  0.0337067 -0.198968 -4.85182e-05  0.0396605 -0.199279 -4.08888e-05  0.0398681 -0.193301 -0.000116944  0.0337381 -0.198979 -2.47955e-05  0.0339327 -0.192988 -9.75132e-05  0.0398953 -0.193326 -8.53539e-05  0.0339651 -0.193016 -6.61612e-05  0.0332184 -0.210848 3.08752e-05  0.0391507 -0.211141 3.25441e-05  0.0393844 -0.205202 -1.58548e-05  0.0332472 -0.210853 4.20809e-05  0.0334687 -0.204905 -5.48363e-06  0.0394108 -0.205218 -2.38419e-07  0.033498 -0.204923 1.10865e-05  0.0326965 -0.222652 9.20296e-05  0.0386093 -0.222935 8.73804e-05  0.0388546 -0.217033 5.67436e-05  0.0327249 -0.222653 9.48906e-05  0.0329614 -0.216748 6.30617e-05  0.0388818 -0.217045 6.19888e-05  0.0329893 -0.21676 6.97374e-05  0.0321612 -0.234399 0.000149846  0.0380602 -0.234682 0.000137925  0.0383074 -0.228803 0.000113726  0.0321872 -0.234398 0.000144362  0.0324311 -0.228518 0.000120759  0.0383351 -0.228812 0.000111938  0.0324574 -0.228529 0.000119328  -0.00403481 -0.00442045 0.00487018  -0.00243686 -0.0023215 0.00383854  0 0 0  -0.0037856 -0.00247584 0.00524163  0 0 0  -0.00220394 -0.00230194 0.00355625  -0.00129541 -0.000675753 0.00283384  0 0 0  -0.00159775 -0.00262733 0.00278306  -0.0029138 -0.00321262 0.00424123  -0.00158575 -0.00121777 0.0031364  0 0 0  -0.000732627 -0.00105638 0.00200081  -0.000946425 -0.00165121 0.00229144  -0.00886361 -0.00743339 0.0069983  -0.00727317 -0.00484048 0.00725865  -0.00746025 -0.00539042 0.00714374  -0.00566815 -0.00552253 0.0051465  -0.00447159 -0.00290305 0.00528383  -0.00649191 -0.00584986 0.00616121  -0.0071307 -0.00639819 0.00614762  -0.00565115 -0.0038563 0.00629377  -0.00389539 -0.00378563 0.00454736  -0.00501323 -0.00472971 0.00543618  -0.0135818 -0.0116027 0.00758362  -0.0115117 -0.00823221 0.00854659  -0.0112391 -0.00959798 0.00748563  -0.00911888 -0.00987037 0.00554538  -0.00759086 -0.00648676 0.0062294  -0.0112593 -0.00937333 0.00744605  -0.0112073 -0.0106721 0.00657487  -0.00936231 -0.00730191 0.00737953  -0.00740132 -0.00752918 0.00545311  -0.00919768 -0.00838372 0.00645876  -0.0179957 -0.0169526 0.0073781  -0.0157554 -0.0130525 0.00858593  -0.0148906 -0.0150948 0.00728345  -0.0123906 -0.0154045 0.00544429  -0.0107208 -0.0114544 0.00628448  -0.0158278 -0.0141357 0.00754929  -0.0150521 -0.0161201 0.00642371  -0.0130854 -0.0121894 0.00743651  -0.0107783 -0.0124928 0.00554061  -0.0131581 -0.0132533 0.00655937  -0.0221027 -0.0233686 0.00691295  -0.0198638 -0.01905 0.00813961  -0.0183801 -0.0217255 0.00680137  -0.01548 -0.0220322 0.00509858  -0.0137666 -0.0176177 0.00599742  -0.0200847 -0.0200338 0.00718307  -0.0186462 -0.0226523 0.00600958  -0.0166504 -0.0182723 0.00706506  -0.0139573 -0.0185922 0.00529504  -0.0168815 -0.0192599 0.00624871  -0.0259022 -0.0307529 0.0062511  -0.0237471 -0.0260855 0.00747037  -0.0216888 -0.0293022 0.00619459  -0.0183827 -0.0295937 0.00464869  -0.016692 -0.0248137 0.00553465  -0.0240439 -0.0269507 0.00660086  -0.0219989 -0.0301319 0.00546837  -0.0200642 -0.0253954 0.00650787  -0.0169552 -0.025703 0.00488591  -0.0203509 -0.0262817 0.00575662  -0.0294023 -0.0389485 0.00561547  -0.0273714 -0.0339967 0.00672936  -0.024791 -0.0377073 0.00555611  -0.0210972 -0.0379836 0.00416708  -0.0194787 -0.0328979 0.00500536  -0.0276862 -0.0347559 0.00594568  -0.0251125 -0.0384322 0.00490093  -0.0232608 -0.0334019 0.0058763  -0.0197629 -0.0336931 0.0044136  -0.0235868 -0.0341861 0.00519371  -0.0326106 -0.0478686 0.00494289  -0.0307242 -0.0426682 0.00598383  -0.027672 -0.0468073 0.00492191  -0.0236203 -0.0470745 0.00369287  -0.0220937 -0.0417444 0.0044651  -0.0310455 -0.0433269 0.00528359  -0.0279856 -0.0474431 0.00433612  -0.0262644 -0.0421679 0.00523543  -0.0223832 -0.0424461 0.00393248  -0.0265778 -0.0428549 0.00462246  -0.0355337 -0.0573983 0.00434899  -0.0338029 -0.0519902 0.00526929  -0.0303251 -0.0565232 0.00432158  -0.0259516 -0.0567832 0.00324202  -0.0245336 -0.0512434 0.00394177  -0.0341051 -0.0525622 0.00465059  -0.0306218 -0.0570682 0.00380564  -0.029022 -0.0515859 0.00461745  -0.024809 -0.0518573 0.00346828  -0.0293337 -0.0521837 0.0040729  -0.0381835 -0.0674685 0.00376081  -0.0366064 -0.0618833 0.00459719  -0.0327514 -0.0667509 0.00375748  -0.0280942 -0.0670096 0.00282168  -0.0267862 -0.0613042 0.00344777  -0.036894 -0.062373 0.0040555  -0.0330267 -0.0672209 0.00330639  -0.0315694 -0.0615684 0.00403404  -0.0270464 -0.0618352 0.00303125  -0.0318516 -0.0620834 0.00355625  -0.0405719 -0.0779875 0.00324845  -0.0391468 -0.072257 0.00397539  -0.0349578 -0.0774285 0.0032382  -0.0300534 -0.0776852 0.00243378  -0.0288569 -0.0718398 0.00298858  -0.0394082 -0.0726757 0.00350714  -0.0352098 -0.0778228 0.00285006  -0.0338776 -0.0720289 0.00349307  -0.0290955 -0.0722955 0.00262737  -0.0341457 -0.0724692 0.00307798  -0.0427134 -0.088895 0.00275445  -0.0414332 -0.0830477 0.00340056  -0.0369526 -0.0884698 0.00275946  -0.0318376 -0.0887273 0.00207877  -0.0307482 -0.0827775 0.00256491  -0.041674 -0.0833984 0.00300074  -0.037181 -0.0888009 0.00242853  -0.0359826 -0.0828972 0.00299335  -0.030967 -0.0831631 0.00225472  -0.0362203 -0.0832686 0.0026381  -0.044624 -0.100114 0.0023253  -0.0434796 -0.0941761 0.00287795  -0.0387486 -0.0998184 0.00232482  -0.033456 -0.100076 0.00175548  -0.03247 -0.0940436 0.00217843  -0.0436953 -0.0944685 0.00254107  -0.0389539 -0.100088 0.00204778  -0.0378715 -0.0940991 0.00253773  -0.0326662 -0.0943664 0.00191593  -0.0380917 -0.0944085 0.00223684  -0.0463189 -0.111591 0.00192022  -0.0453039 -0.105588 0.00239968  -0.0403591 -0.111405 0.00193024  -0.0349185 -0.111662 0.00146413  -0.0340297 -0.105576 0.00182652  -0.0454983 -0.105825 0.00212121  -0.0405414 -0.111622 0.00170112  -0.0395772 -0.105575 0.0021224  -0.034206 -0.105841 0.00160789  -0.0397695 -0.105827 0.00187206  -0.0478156 -0.123262 0.00157118  -0.0469191 -0.117215 0.00197196  -0.0417966 -0.123179 0.0015769  -0.0362369 -0.123435 0.00120234  -0.0354395 -0.117314 0.00151062  -0.0470903 -0.117404 0.00174546  -0.0419569 -0.123347 0.00139236  -0.0410961 -0.117261 0.00174952  -0.0355948 -0.117528 0.00133157  -0.0412697 -0.117463 0.00154471  -0.0491306 -0.13508 0.00124979  -0.0483445 -0.129011 0.00158691  -0.0430757 -0.135083 0.00126243  -0.0374217 -0.135337 0.000970364  -0.0367093 -0.129204 0.00122714  -0.0484954 -0.129155 0.00140834  -0.0432148 -0.135209 0.00111675  -0.0424552 -0.129106 0.00141525  -0.0368452 -0.129371 0.00108385  -0.0426042 -0.129263 0.0012517  -0.0502808 -0.146994 0.000977993  -0.0495956 -0.140919 0.00124907  -0.0442119 -0.147074 0.00098896  -0.0384851 -0.147326 0.000767946  -0.0378509 -0.141196 0.000978708  -0.0497246 -0.141026 0.00111246  -0.0443299 -0.147162 0.000878096  -0.043659 -0.141058 0.00112152  -0.0379677 -0.141323 0.000867128  -0.0437891 -0.141175 0.000993967  -0.0512853 -0.158964 0.000738859  -0.0506911 -0.1529 0.000956297  -0.0452187 -0.159107 0.000753164  -0.0394399 -0.159357 0.000594616  -0.0388763 -0.153246 0.000763655  -0.0508006 -0.152973 0.000855684  -0.0453169 -0.159164 0.000671864  -0.0447297 -0.153075 0.000866652  -0.0389752 -0.153337 0.000679016  -0.0448384 -0.153158 0.000771284  -0.052161 -0.170952 0.000543833  -0.0516477 -0.16491 0.000708103  -0.0461133 -0.171147 0.000557899  -0.0402973 -0.171395 0.000451803  -0.0397985 -0.165314 0.000581503  -0.0517373 -0.164956 0.0006392  -0.0461922 -0.171177 0.000501871  -0.0456774 -0.165116 0.000651836  -0.0398796 -0.165376 0.000520706  -0.0457673 -0.16517 0.000583172  -0.052927 -0.182925 0.000387669  -0.0524867 -0.176917 0.000505447  -0.0469098 -0.183161 0.000401497  -0.0410712 -0.183408 0.000337124  -0.0406301 -0.177367 0.00043273  -0.0525565 -0.17694 0.000462532  -0.0469701 -0.183171 0.000365973  -0.0465219 -0.177146 0.000475883  -0.0406938 -0.177405 0.000391483  -0.046592 -0.177177 0.000429869  -0.0536034 -0.194858 0.000273228  -0.0532205 -0.188889 0.000349998  -0.0476234 -0.195122 0.000285387  -0.0417731 -0.19537 0.000250101  -0.0413809 -0.189374 0.000316381  -0.0532749 -0.188896 0.000327826  -0.0476675 -0.195119 0.00026536  -0.0472746 -0.189136 0.000339746  -0.04143 -0.189395 0.000290871  -0.0473275 -0.18915 0.000311852  -0.0542121 -0.206733 0.000194788  -0.0538764 -0.200804 0.000238895  -0.0482712 -0.207013 0.000202656  -0.042417 -0.207263 0.000187397  -0.0420649 -0.201316 0.000230074  -0.0539148 -0.200802 0.000231743  -0.0483024 -0.207002 0.000194311  -0.0479541 -0.201064 0.000240803  -0.0421016 -0.201325 0.000216722  -0.0479915 -0.201068 0.000226498  -0.0547793 -0.218538 0.000144958  -0.0544686 -0.212647 0.000167608  -0.0488677 -0.218821 0.000144482  -0.0430167 -0.219077 0.00013876  -0.0426931 -0.213175 0.00016737  -0.0544984 -0.212643 0.000169754  -0.0488925 -0.21881 0.00014472  -0.0485735 -0.212914 0.000172615  -0.0427213 -0.213179 0.00016284  -0.0486019 -0.212914 0.000168085  -0.0553341 -0.230294 0.000102758  -0.0550292 -0.224415 0.000122309  -0.0494339 -0.230568 8.63075e-05  -0.0435894 -0.23082 8.82149e-05  -0.0432763 -0.224952 0.000112295  -0.0550563 -0.224417 0.000126839  -0.049459 -0.230562 9.46522e-05  -0.0491512 -0.224685 0.000118732  -0.0433047 -0.224954 0.00011611  -0.0491772 -0.224688 0.000120401  -0.00232671 -0.00107367 0.0035553  0 0 0  -0.00126509 -0.00125219 0.00230002  -0.000782136 -6.94394e-05 0.0018177  0 0 0  -0.00169405 -0.00167933 0.00287771  -0.00101739 -0.000327095 0.00232196  0 0 0  -0.000413228 -0.00044927 0.00131917  -0.000556227 -0.000698864 0.00166535  -0.00473224 -0.00388141 0.00484276  -0.00330459 -0.00421919 0.00331712  -0.00267495 -0.00178224 0.00342894  -0.00441851 -0.00477967 0.0042243  -0.00353387 -0.00223581 0.00427365  -0.00224942 -0.00252922 0.00291324  -0.00301172 -0.00305018 0.00365973  -0.00728717 -0.00820169 0.00519276  -0.00554225 -0.0086491 0.00363064  -0.00457817 -0.00534292 0.00403929  -0.0072417 -0.00918791 0.00457263  -0.00600135 -0.00584622 0.00509953  -0.00442502 -0.00627063 0.00354266  -0.00583529 -0.00682752 0.00446486  -0.00985119 -0.0138462 0.00509334  -0.00770894 -0.0143288 0.00358009  -0.00660074 -0.0103882 0.00411391  -0.00995973 -0.0148073 0.00449944  -0.00857198 -0.0108617 0.00518084  -0.00663447 -0.0113458 0.00363541  -0.00861773 -0.0118563 0.00456977  -0.0123485 -0.0206046 0.00477362  -0.00979143 -0.0210864 0.0033567  -0.00862741 -0.0166576 0.00393748  -0.0125443 -0.0215068 0.00421619  -0.0111086 -0.0170836 0.00495195  -0.00876164 -0.017581 0.00348306  -0.0112683 -0.0180316 0.00437665  -0.0147567 -0.0283272 0.00436211  -0.0117808 -0.0287879 0.0030632  -0.0106121 -0.0239691 0.0036397  -0.0149921 -0.0291448 0.00384784  -0.0135638 -0.0243421 0.00457406  -0.010798 -0.0248266 0.00321579  -0.0137861 -0.0252163 0.00403833  -0.0170515 -0.0368726 0.00391817  -0.0136722 -0.0373079 0.00274777  -0.0125332 -0.0321746 0.00329685  -0.0172989 -0.0376053 0.00345039  -0.0159193 -0.0324917 0.00414085  -0.0127386 -0.0329519 0.00290704  -0.0161629 -0.0332798 0.00364971  -0.0192171 -0.0461279 0.00348043  -0.0154632 -0.0465358 0.00243831  -0.0143726 -0.0411453 0.00294518  -0.0194602 -0.0467705 0.00306082  -0.01815 -0.0414054 0.00369763  -0.0145808 -0.0418389 0.00259256  -0.0183983 -0.0421054 0.00325394  -0.0212431 -0.0559848 0.00305986  -0.0171492 -0.056371 0.00214314  -0.0161189 -0.0507711 0.00260425  -0.0214738 -0.0565473 0.00268793  -0.0202475 -0.0509733 0.00326729  -0.0163193 -0.051382 0.0022893  -0.020485 -0.0515879 0.00287151  -0.0231258 -0.06636 0.00266862  -0.0187289 -0.0667252 0.00186992  -0.017764 -0.060955 0.0022819  -0.0233401 -0.0668427 0.00234342  -0.0222008 -0.0611006 0.00286102  -0.0179522 -0.0614876 0.00200462  -0.0224255 -0.0616343 0.00251269  -0.024866 -0.0771664 0.00230479  -0.0202034 -0.0775155 0.00161719  -0.0193055 -0.0716096 0.00198293  -0.0250624 -0.0775796 0.0020237  -0.0240128 -0.0717004 0.00248384  -0.019479 -0.0720692 0.00174165  -0.0242186 -0.0721599 0.00218058  -0.0264677 -0.0883355 0.00197196  -0.0215746 -0.0886688 0.0013864  -0.0207434 -0.0826581 0.00170732  -0.0266455 -0.0886814 0.00173187  -0.0256823 -0.0826977 0.00213528  -0.0209016 -0.0830501 0.00149989  -0.0258712 -0.0830881 0.00187492  -0.0279366 -0.0997941 0.00166798  -0.0228465 -0.100115 0.0011766  -0.0220803 -0.0940276 0.00145555  -0.0280958 -0.100082 0.00146627  -0.0272177 -0.0940194 0.00181723  -0.0222225 -0.0943578 0.00127959  -0.0273865 -0.0943473 0.00159621  -0.0292797 -0.111485 0.00139451  -0.0240229 -0.111793 0.000988722  -0.0233195 -0.105653 0.00122762  -0.0294211 -0.111717 0.00122738  -0.0286218 -0.105602 0.0015285  -0.023446 -0.105927 0.00108099  -0.0287738 -0.105872 0.00134397  -0.0305046 -0.123347 0.00114799  -0.0251098 -0.123643 0.000819683  -0.0244654 -0.117475 0.00102258  -0.0306288 -0.123531 0.00101233  -0.0299058 -0.117385 0.00126863  -0.0245774 -0.117698 0.000902414  -0.0300386 -0.117604 0.00111723  -0.0316204 -0.135331 0.000930548  -0.0261122 -0.135617 0.000670671  -0.0255235 -0.129438 0.000840187  -0.0317277 -0.135472 0.000822544  -0.0310742 -0.129314 0.00103688  -0.0256209 -0.129616 0.000743389  -0.0311912 -0.129487 0.000915051  -0.0326359 -0.147387 0.000740051  -0.0270364 -0.147664 0.000540495  -0.0265005 -0.141494 0.000679493  -0.0327268 -0.147492 0.000656605  -0.0321393 -0.14134 0.000833035  -0.0265837 -0.141632 0.000603914  -0.0322387 -0.141473 0.00073719  -0.0335605 -0.159479 0.000577688  -0.02789 -0.159746 0.000430584  -0.0274017 -0.153599 0.00054121  -0.0336354 -0.15955 0.000515461  -0.0331075 -0.153419 0.000656366  -0.0274713 -0.153702 0.000483274  -0.0331919 -0.153517 0.000583649  -0.0344033 -0.171564 0.000442505  -0.0286784 -0.171825 0.000338793  -0.028235 -0.165713 0.000424862  -0.0344634 -0.17161 0.000398397  -0.0339904 -0.165512 0.000507593  -0.0282917 -0.165786 0.0003829  -0.0340586 -0.16558 0.000454426  -0.0351739 -0.183617 0.000334024  -0.0294089 -0.183872 0.000265598  -0.0290055 -0.177803 0.000329256  -0.0352201 -0.183641 0.000304461  -0.0347958 -0.177585 0.000386  -0.0290501 -0.177853 0.000300407  -0.0348499 -0.177629 0.000349283  -0.0358801 -0.195608 0.000249624  -0.0300872 -0.195862 0.000209093  -0.0297194 -0.189843 0.000254154  -0.0359149 -0.195617 0.00023222  -0.0355337 -0.189609 0.000290155  -0.0297542 -0.189874 0.000235796  -0.0355744 -0.189635 0.000266552  -0.0365307 -0.207523 0.00018692  -0.0307209 -0.207776 0.000165939  -0.0303822 -0.201811 0.000196457  -0.0365572 -0.207521 0.000178337  -0.0362105 -0.201564 0.000217199  -0.0304091 -0.201828 0.000186443  -0.0362418 -0.201577 0.000204086  -0.0371344 -0.219347 0.000133991  -0.031317 -0.2196 0.000128508  -0.0310016 -0.213691 0.000151157  -0.0371575 -0.21934 0.00013423  -0.0368371 -0.213434 0.000161409  -0.0310233 -0.213698 0.00014782  -0.0368617 -0.213439 0.000156641  -0.0377054 -0.231084 7.41482e-05  -0.0318913 -0.231321 8.74996e-05  -0.0315812 -0.225473 0.000105143  -0.0377324 -0.231074 8.63075e-05  -0.03742 -0.225214 0.00010848  -0.0316048 -0.225473 0.000109673  -0.0374463 -0.225215 0.000112295  -0.00125669 -0.000424653 0.0021019  0 0 0  -0.000570685 -0.000791162 0.00115514  -0.000371099 0.000193745 0.00092864  0 0 0  -0.000914119 -0.000966609 0.00171447  -0.000563558 9.83179e-05 0.00139308  0 0 0  -0.000188056 -0.000185251 0.000669956  -0.000303123 -0.000283182 0.00101018  -0.00256382 -0.00301611 0.00284457  -0.00149237 -0.0035722 0.0016427  -0.00121537 -0.00125122 0.00167322  -0.00238425 -0.0038296 0.00248456  -0.0019031 -0.00146496 0.00252843  -0.00100474 -0.00196096 0.00144529  -0.00161649 -0.00217906 0.00216317  -0.00401637 -0.00733867 0.00306916  -0.00253922 -0.00799784 0.00179577  -0.00206852 -0.00473005 0.00198913  -0.00399432 -0.00825551 0.00270891  -0.00327528 -0.0049749 0.00299501  -0.0020074 -0.00560313 0.00175309  -0.00318202 -0.00586137 0.00263405  -0.00553116 -0.0130556 0.00302029  -0.00360727 -0.0137412 0.00177693  -0.00303885 -0.00980258 0.00202894  -0.00560606 -0.0139724 0.00267577  -0.00477067 -0.0100334 0.00306368  -0.00307187 -0.0107192 0.00180221  -0.00480312 -0.0109664 0.00271249  -0.0070489 -0.0199076 0.00283694  -0.00467622 -0.0205813 0.00167036  -0.00405335 -0.0161357 0.00194907  -0.00718087 -0.0207774 0.00251174  -0.0062896 -0.0163397 0.00293922  -0.00414228 -0.0170315 0.00173163  -0.0063991 -0.0172467 0.00260544  -0.00854903 -0.0277289 0.00259352  -0.00573742 -0.0283698 0.00152421  -0.00509101 -0.0235238 0.00180459  -0.00870705 -0.0285278 0.00229144  -0.00780189 -0.0236948 0.00271916  -0.00520808 -0.0243633 0.0016005  -0.00795031 -0.0245413 0.00240612  -0.0100129 -0.0363786 0.00233364  -0.00678653 -0.0369797 0.00136852  -0.00613594 -0.0318112 0.00163531  -0.0101796 -0.0370984 0.00205755  -0.00928521 -0.0319466 0.00246406  -0.00626373 -0.0325777 0.0014472  -0.00945032 -0.0327167 0.00217557  -0.0114298 -0.045738 0.00207376  -0.00781912 -0.0462971 0.00121498  -0.00717634 -0.040867 0.00146222  -0.0115936 -0.0463762 0.00182533  -0.0107275 -0.0409645 0.00220275  -0.00730515 -0.0415547 0.00129151  -0.0108941 -0.0416539 0.00194073  -0.0127894 -0.0557017 0.00182748  -0.00883043 -0.0562223 0.00107002  -0.00820398 -0.0505789 0.00129437  -0.0129448 -0.0562616 0.00160718  -0.0121162 -0.0506385 0.00194907  -0.0083276 -0.0511881 0.00114155  -0.0122772 -0.0512473 0.00171494  -0.0140858 -0.0661783 0.0015955  -0.00981557 -0.0666627 0.000935316  -0.00921047 -0.0608481 0.00113606  -0.0142304 -0.0666636 0.00140238  -0.0134447 -0.0608694 0.00170946  -0.00932634 -0.0613819 0.00100183  -0.0135958 -0.0614018 0.00150323  -0.0153168 -0.0770836 0.00138307  -0.0107718 -0.0775366 0.000812769  -0.0101911 -0.0715862 0.000990152  -0.0154486 -0.0775 0.00121593  -0.0147086 -0.0715701 0.00148726  -0.0102974 -0.0720489 0.000873327  -0.0148478 -0.0720306 0.00130749  -0.0164808 -0.0883435 0.00118732  -0.0116965 -0.0887666 0.000701427  -0.011142 -0.0827132 0.0008564  -0.0165997 -0.0886955 0.00104451  -0.0159062 -0.082662 0.00128341  -0.011238 -0.0831099 0.000756264  -0.0160323 -0.0830557 0.00112867  -0.0175787 -0.0998871 0.00101066  -0.0125879 -0.100284 0.000601292  -0.0120606 -0.094156 0.000735044  -0.0176843 -0.100181 0.000890732  -0.0170368 -0.0940718 0.0010972  -0.0121462 -0.094492 0.000650406  -0.0171502 -0.0944044 0.000966072  -0.0186113 -0.111653 0.000850439  -0.0134447 -0.112026 0.000511646  -0.0129451 -0.105848 0.000626087  -0.0187045 -0.111894 0.000751257  -0.0181019 -0.105734 0.000929117  -0.0130204 -0.106129 0.000555515  -0.0182023 -0.106011 0.000819445  -0.0195811 -0.123583 0.00070858  -0.0142668 -0.123935 0.000432253  -0.0137942 -0.117731 0.000528574  -0.019662 -0.123776 0.000627756  -0.0191027 -0.117589 0.000778198  -0.0138602 -0.117961 0.000470877  -0.0191907 -0.117816 0.000688076  -0.0204908 -0.135626 0.000582457  -0.015054 -0.135957 0.000362396  -0.014608 -0.129747 0.000442743  -0.0205598 -0.135777 0.000518322  -0.0200422 -0.129582 0.00064373  -0.0146645 -0.129933 0.00039649  -0.0201179 -0.129763 0.000571489  -0.0213437 -0.147735 0.000473738  -0.0158074 -0.148049 0.000302553  -0.0153875 -0.141849 0.00036788  -0.0214016 -0.147849 0.000423908  -0.0209229 -0.141663 0.000526428  -0.0154347 -0.141996 0.000331879  -0.0209875 -0.141805 0.000469685  -0.0221441 -0.159869 0.000380278  -0.0165277 -0.160167 0.000252485  -0.0161326 -0.153993 0.000303984  -0.0221913 -0.159951 0.000343084  -0.0217493 -0.153789 0.000425577  -0.0161715 -0.154105 0.000276804  -0.0218027 -0.153896 0.000382185  -0.0228953 -0.171991 0.000303984  -0.0172164 -0.172277 0.000211716  -0.0168445 -0.166141 0.000251055  -0.0229325 -0.172047 0.000277519  -0.0225241 -0.165921 0.000340939  -0.0168757 -0.166223 0.000231266  -0.0225675 -0.166 0.00030899  -0.0236011 -0.184075 0.000241995  -0.017875 -0.184349 0.000179529  -0.0175254 -0.17826 0.000208378  -0.0236297 -0.184108 0.000224352  -0.0232525 -0.178027 0.000271797  -0.017549 -0.178317 0.000194788  -0.0232861 -0.178082 0.000249624  -0.0242648 -0.196093 0.000194311  -0.0185049 -0.19636 0.000155926  -0.0181751 -0.190324 0.000175476  -0.0242863 -0.196109 0.000183821  -0.023937 -0.190081 0.000217199  -0.0181932 -0.190362 0.000166893  -0.0239627 -0.190115 0.000202894  -0.0248899 -0.208029 0.000156879  -0.0191078 -0.208289 0.000137329  -0.0187955 -0.202313 0.000150442  -0.0249062 -0.208032 0.000152111  -0.0245812 -0.20206 0.000175238  -0.0188098 -0.202334 0.000146151  -0.0246 -0.202079 0.00016737  -0.02548 -0.219867 0.000123739  -0.0196877 -0.220122 0.00012064  -0.0193892 -0.214209 0.000130653  -0.0254951 -0.219861 0.000124693  -0.0251877 -0.213949 0.000141382  -0.0194001 -0.214218 0.0001297  -0.0252039 -0.213957 0.000138998  -0.0260448 -0.231582 8.17776e-05  -0.0202498 -0.231821 0.000100851  -0.0199585 -0.225992 0.000108719  -0.0260634 -0.231569 9.2268e-05  -0.0257628 -0.225732 0.000106335  -0.0199704 -0.225989 0.000112295  -0.0257804 -0.225731 0.000110149  -0.000358261 -0.000188172 0.000688791  0 0 0  5.49406e-05 -0.000725657 -1.52588e-05  2.27764e-05 0.000229001 -2.0504e-05  0 0 0  -0.000250198 -0.000721574 0.000566959  -0.000165094 0.000234365 0.00045228  0 0 0  1.70842e-05 -0.00014466 -1.0252e-05  -8.50111e-05 -0.000144154 0.000330925  -0.000707865 -0.00267565 0.000929832  0.000141114 -0.00345123 -9.29832e-06  0.000114545 -0.00116137 -2.38419e-05  -0.000664413 -0.00345317 0.000820398  -0.000529528 -0.00115812 0.000822783  9.88692e-05 -0.00184667 -1.09673e-05  -0.000444368 -0.00184771 0.000715494  -0.00113684 -0.00698721 0.00100088  0.000203103 -0.00788021 -3.33786e-06  0.000205517 -0.00462714 -1.88351e-05  -0.00115034 -0.00787377 0.000893593  -0.000913709 -0.00461942 0.000978947  0.000177443 -0.00548175 -4.76837e-06  -0.000899941 -0.00547588 0.000868559  -0.00162852 -0.0127385 0.000988245  0.00021106 -0.0136541 -1.90735e-06  0.000254691 -0.00971565 -1.52588e-05  -0.00167969 -0.0136343 0.00088501  -0.00137502 -0.00969586 0.00100279  0.000214785 -0.0106181 -1.19209e-06  -0.00141072 -0.0106037 0.0008955  -0.00216782 -0.0196427 0.000930548  0.00015384 -0.0205345 -2.38419e-06  0.000238836 -0.0160793 -1.4782e-05  -0.00224274 -0.0204997 0.000831842  -0.00189161 -0.0160479 0.000964642  0.000191271 -0.0169663 -1.66893e-06  -0.00195712 -0.0169382 0.000862837  -0.00275177 -0.0275236 0.00085187  2.58088e-05 -0.0283684 -3.57628e-06  0.000150383 -0.0235049 -1.43051e-05  -0.00283742 -0.028316 0.000759363  -0.00245363 -0.0234594 0.000892878  9.86457e-05 -0.0243398 -2.6226e-06  -0.00253636 -0.0242961 0.000797033  -0.00337237 -0.0362378 0.000766039  -0.000171363 -0.0370252 -4.05312e-06  -1.13249e-05 -0.0318345 -1.43051e-05  -0.00346106 -0.0369545 0.000680923  -0.00305736 -0.0317728 0.000809431  -6.41942e-05 -0.0325998 -3.8147e-06  -0.00314569 -0.0325383 0.000720978  -0.00402272 -0.0456633 0.000682831  -0.00043422 -0.0463929 -3.33786e-06  -0.000243306 -0.0409361 -1.3113e-05  -0.00410938 -0.0463021 0.000605822  -0.00369334 -0.0408565 0.000724077  -0.000294924 -0.0416252 -3.57628e-06  -0.00378239 -0.0415445 0.00064373  -0.00469553 -0.0556948 0.000601768  -0.00075686 -0.0563678 -1.43051e-06  -0.000540018 -0.0506965 -1.07288e-05  -0.00477707 -0.056257 0.000533819  -0.00435603 -0.0505973 0.000641346  -0.000588298 -0.0513087 -2.38419e-06  -0.00444102 -0.0512077 0.000569582  -0.00538385 -0.0662385 0.000528574  -0.00113261 -0.0668591 2.38419e-06  -0.000894427 -0.0610149 -7.39098e-06  -0.00545859 -0.0667274 0.000469208  -0.00503683 -0.0608957 0.000564098  -0.000938416 -0.0615528 4.76837e-07  -0.00511646 -0.0614313 0.000500917  -0.00608158 -0.077208 0.00046134  -0.00155425 -0.0777806 7.62939e-06  -0.00129843 -0.0718018 -2.38419e-06  -0.00614858 -0.0776292 0.000410318  -0.00573099 -0.0716625 0.000494003  -0.00133801 -0.0722693 5.24521e-06  -0.00580251 -0.0721274 0.000439167  -0.00678325 -0.0885283 0.000401735  -0.00201535 -0.0890569 1.40667e-05  -0.00174582 -0.0829752 3.8147e-06  -0.00684261 -0.0888864 0.000358343  -0.00643075 -0.0828167 0.000430822  -0.00178015 -0.0833773 1.09673e-05  -0.00649536 -0.083216 0.000384092  -0.00748479 -0.100128 0.000347614  -0.00250924 -0.100616 2.14577e-05  -0.00222909 -0.094462 1.12057e-05  -0.00753629 -0.100429 0.000311613  -0.00713336 -0.0942852 0.000374079  -0.00225842 -0.0948034 1.7643e-05  -0.00718951 -0.094624 0.00033474  -0.00818157 -0.111945 0.000300884  -0.00302911 -0.112396 2.95639e-05  -0.00274193 -0.106194 1.95503e-05  -0.00822592 -0.112193 0.000271559  -0.00783265 -0.106001 0.000323296  -0.00276601 -0.106481 2.57492e-05  -0.00788188 -0.106285 0.000290871  -0.00887096 -0.123921 0.000259161  -0.00356948 -0.124338 3.83854e-05  -0.00327766 -0.118112 2.86102e-05  -0.00890839 -0.124121 0.000235796  -0.0085268 -0.117904 0.000279427  -0.00329709 -0.118349 3.43323e-05  -0.00856781 -0.118138 0.000253201  -0.00955021 -0.136004 0.000224352  -0.00412488 -0.136391 4.79221e-05  -0.00383031 -0.130161 3.79086e-05  -0.00958097 -0.136161 0.000205994  -0.00921082 -0.12994 0.000241518  -0.00384545 -0.130352 4.31538e-05  -0.00924599 -0.130128 0.000220537  -0.010217 -0.148146 0.00019455  -0.00469017 -0.148506 5.6982e-05  -0.00439525 -0.14229 4.76837e-05  -0.0102415 -0.148267 0.000180721  -0.0098846 -0.142058 0.000209093  -0.00440669 -0.142442 5.26905e-05  -0.00991249 -0.142207 0.000192881  -0.0108697 -0.16031 0.000170946  -0.0052619 -0.160646 6.7234e-05  -0.00496793 -0.154457 5.81741e-05  -0.0108883 -0.160398 0.000160694  -0.0105441 -0.154216 0.000182152  -0.00497532 -0.154574 6.22272e-05  -0.0105667 -0.15433 0.000170469  -0.011507 -0.172456 0.000151634  -0.00583577 -0.172772 7.70092e-05  -0.00554442 -0.166624 6.91414e-05  -0.0115206 -0.172518 0.00014472  -0.0111895 -0.166375 0.000160933  -0.00554872 -0.166711 7.24792e-05  -0.0112062 -0.166459 0.000152349  -0.0121284 -0.18456 0.000138521  -0.00640869 -0.184858 8.72612e-05  -0.00612044 -0.178759 7.9155e-05  -0.0121372 -0.184599 0.000133991  -0.0118182 -0.178503 0.00014472  -0.00612211 -0.17882 8.22544e-05  -0.0118308 -0.178563 0.000138998  -0.0127323 -0.196596 0.000128984  -0.00697803 -0.19688 9.72748e-05  -0.00669336 -0.190836 9.01222e-05  -0.012738 -0.196617 0.0001266  -0.0124316 -0.190576 0.000133753  -0.00669384 -0.190877 9.25064e-05  -0.0124393 -0.190615 0.000130415  -0.0133188 -0.208546 0.000123262  -0.00754189 -0.208818 0.000106812  -0.00726175 -0.202835 0.000100374  -0.0133219 -0.208552 0.000122547  -0.0130267 -0.202571 0.000125885  -0.00726104 -0.202859 0.000102282  -0.0130317 -0.202594 0.000124454  -0.0138888 -0.220392 0.000117302  -0.00809908 -0.220652 0.000116348  -0.00782371 -0.214738 0.000110865  -0.0138907 -0.220385 0.000118494  -0.0136046 -0.214472 0.00012064  -0.00782132 -0.214748 0.000112057  -0.013608 -0.214481 0.00012064  -0.0144427 -0.232093 0.00010848  -0.0086453 -0.232345 0.000125408  -0.00837755 -0.22652 0.000120401  -0.0144446 -0.23208 0.000112534  -0.0141659 -0.226254 0.000113964  -0.00837374 -0.226519 0.000121117  -0.0141692 -0.226252 0.00011611  0.000486702 -0.00027144 -0.000746012  0 0 0  0.000678524 -0.000945389 -0.00117755  0.000410303 9.66787e-05 -0.000963688  0 0 0  0.000360116 -0.000798702 -0.000594616  0.000208803 0.000186622 -0.000493288  0 0 0  0.000221372 -0.00027287 -0.000687361  0.000119723 -0.000187814 -0.000351667  0.0010303 -0.00280529 -0.000974894  0.00176936 -0.00381577 -0.00164795  0.001436 -0.00147271 -0.00170708  0.000946522 -0.00357515 -0.000835657  0.000756294 -0.00126845 -0.000866652  0.00119753 -0.00216705 -0.00145531  0.00064151 -0.00195098 -0.000734091  0.00160694 -0.00714129 -0.00103498  0.00293565 -0.00829196 -0.00179029  0.00247115 -0.00501657 -0.00201344  0.00155446 -0.00802112 -0.000897169  0.00132161 -0.00476289 -0.00101471  0.00235483 -0.0058741 -0.00174928  0.00125387 -0.00561196 -0.00087595  0.00213361 -0.0129107 -0.00101781  0.00401521 -0.0140751 -0.00176907  0.0035376 -0.0101282 -0.00204659  0.00209898 -0.0138015 -0.000886202  0.00188011 -0.00985891 -0.00103259  0.0034894 -0.0110333 -0.00179243  0.00183767 -0.0107611 -0.000896454  0.00256902 -0.0198333 -0.000959158  0.00496507 -0.0209575 -0.00166631  0.00451702 -0.016497 -0.00196767  0.00254565 -0.0206876 -0.000834703  0.00236428 -0.0162289 -0.000993013  0.00450808 -0.0173858 -0.001724  0.00233549 -0.0171155 -0.000864267  0.00290096 -0.0277362 -0.000880241  0.00576723 -0.0287945 -0.00152445  0.00537455 -0.0239263 -0.00182462  0.00288373 -0.0285279 -0.000765085  0.00274867 -0.0236602 -0.000921488  0.00538498 -0.0247629 -0.0015974  0.00272864 -0.0244955 -0.000801325  0.00312614 -0.0364757 -0.000793219  0.00641972 -0.0374596 -0.0013721  0.00609303 -0.0322615 -0.00165749  0.00311202 -0.0371937 -0.000688076  0.0030278 -0.0319973 -0.000837564  0.00611216 -0.0330293 -0.00144863  0.00301147 -0.0327634 -0.000727177  0.00324547 -0.04593 -0.000706434  0.00692546 -0.0468378 -0.0012188  0.00666732 -0.041372 -0.00148439  0.00323439 -0.0465713 -0.000611544  0.00319928 -0.041108 -0.000750065  0.00669056 -0.0420645 -0.00129485  0.00318629 -0.0417983 -0.000650167  0.00326538 -0.055992 -0.000620365  0.00729156 -0.0568267 -0.00107098  0.0071007 -0.0511443 -0.00131416  0.00325692 -0.0565578 -0.000535965  0.0032686 -0.0508789 -0.000663519  0.00712574 -0.0517605 -0.00114417  0.00325775 -0.0514926 -0.000573635  0.00319302 -0.066567 -0.000539064  0.00752676 -0.0673318 -0.000930548  0.00739908 -0.0614768 -0.00115037  0.0031873 -0.0670605 -0.000464201  0.00324118 -0.0612086 -0.000580072  0.00742507 -0.0620188 -0.000999689  0.00323319 -0.0617482 -0.000500202  0.00303733 -0.0775679 -0.000460625  0.00764084 -0.0782685 -0.000797987  0.00757182 -0.0722781 -0.000995159  0.00303411 -0.0779937 -0.000394821  0.00312626 -0.0720069 -0.000499725  0.0075984 -0.0727498 -0.000863075  0.00312066 -0.0724763 -0.000429392  0.00280666 -0.0889181 -0.000386715  0.00764501 -0.0895582 -0.000673532  0.00762904 -0.0834662 -0.000849009  0.00280643 -0.0892805 -0.000329971  0.00293183 -0.0831915 -0.000423431  0.0076561 -0.0838723 -0.000734568  0.00292933 -0.0835955 -0.000362396  0.00251067 -0.100545 -0.000316858  0.00755095 -0.101131 -0.000558853  0.00758266 -0.0949661 -0.000713587  0.00251329 -0.10085 -0.000268221  0.00266767 -0.0946888 -0.000351906  0.00760984 -0.0953116 -0.00061512  0.00266755 -0.0950322 -0.000298977  0.0021584 -0.112387 -0.000252724  0.00737 -0.112921 -0.00045228  0.00744367 -0.106711 -0.000587225  0.00216317 -0.112639 -0.000211716  0.0023421 -0.106431 -0.000284672  0.00747085 -0.107001 -0.000504255  0.00234485 -0.106719 -0.000239849  0.00175869 -0.124385 -0.000192642  0.00711346 -0.124873 -0.000355482  0.00722384 -0.11864 -0.000472307  0.00176549 -0.124589 -0.00015831  0.00196517 -0.118357 -0.000222445  0.00725043 -0.118879 -0.000402927  0.00196993 -0.118595 -0.000184536  0.00131941 -0.136486 -0.000138044  0.00679231 -0.136932 -0.000267029  0.0069344 -0.130697 -0.000366926  0.00132799 -0.136648 -0.000109911  0.00154424 -0.130413 -0.000165462  0.00696063 -0.130891 -0.000310183  0.00155163 -0.130606 -0.000133991  0.000848055 -0.148644 -8.82149e-05  0.00641632 -0.149054 -0.000188589  0.00658512 -0.142834 -0.000272036  0.00085783 -0.148769 -6.55651e-05  0.00108862 -0.142549 -0.000112772  0.00661039 -0.142986 -0.000226498  0.00109649 -0.142701 -8.74996e-05  0.000351429 -0.16082 -4.3869e-05  0.00599527 -0.161196 -0.000118732  0.00618672 -0.155005 -0.000188112  0.000362158 -0.160912 -2.6226e-05  0.000603676 -0.15472 -6.60419e-05  0.00621128 -0.155123 -0.000152588  0.000612974 -0.154838 -4.60148e-05  -0.000163794 -0.172977 -3.57628e-06  0.00553823 -0.173325 -5.79357e-05  0.00574851 -0.167175 -0.000114202  -0.000152826 -0.173041 9.77516e-06  9.72748e-05 -0.166891 -2.3365e-05  0.00577092 -0.167263 -8.72612e-05  0.000106812 -0.166978 -7.86781e-06  -0.000692606 -0.185089 3.12328e-05  0.00505233 -0.185411 -5.72205e-06  0.00527835 -0.179311 -5.05447e-05  -0.0006814 -0.185129 4.07696e-05  -0.000425577 -0.179028 1.35899e-05  0.00529885 -0.179373 -3.0756e-05  -0.000415325 -0.17909 2.52724e-05  -0.00123072 -0.19713 6.1512e-05  0.0045445 -0.197431 3.88622e-05  0.00478268 -0.191388 4.76837e-06  -0.00121999 -0.197152 6.79493e-05  -0.000959396 -0.191107 4.64916e-05  0.00480103 -0.191429 1.78814e-05  -0.000949621 -0.191148 5.45979e-05  -0.00177503 -0.209083 8.86917e-05  0.00402021 -0.209366 7.72476e-05  0.00426817 -0.203384 5.07832e-05  -0.00176382 -0.209089 9.2268e-05  -0.0015018 -0.203106 7.48634e-05  0.00428391 -0.203409 5.8651e-05  -0.00149083 -0.20313 8.01086e-05  -0.00232148 -0.22093 0.000113964  0.00348568 -0.2212 0.000112057  0.00373745 -0.215284 9.13143e-05  -0.00230885 -0.220924 0.000114679  -0.00204682 -0.215009 0.000100851  0.0037539 -0.215296 9.44138e-05  -0.00203657 -0.215019 0.000103235  -0.00286198 -0.23263 0.000142097  0.00295401 -0.2329 0.000150204  0.0031991 -0.227068 0.000132561  -0.00284743 -0.232618 0.000138521  -0.00259233 -0.226792 0.0001266  0.00321865 -0.227069 0.000130177  -0.00257945 -0.226791 0.000125885  0.00136358 -0.000674903 -0.00213695  0 0 0  0.00135837 -0.00155914 -0.00229001  0.000796795 -0.000250041 -0.00182915  0 0 0  0.001017 -0.00119734 -0.00172424  0.000592023 -4.61936e-05 -0.00141907  0 0 0  0.000438094 -0.000626206 -0.00131321  0.000334673 -0.000415802 -0.00101995  0.00286621 -0.00340414 -0.00286126  0.00355008 -0.00469685 -0.00328517  0.00285827 -0.00223333 -0.00341558  0.00265115 -0.00419337 -0.00247407  0.0021084 -0.0017972 -0.00254536  0.00241728 -0.00293577 -0.00288844  0.00180286 -0.00248766 -0.0021596  0.00446481 -0.00779933 -0.00307608  0.00589854 -0.0092296 -0.00358701  0.00494537 -0.00591713 -0.00401998  0.00437608 -0.00869435 -0.00268745  0.00366274 -0.0054034 -0.00300241  0.004738 -0.00680393 -0.00350142  0.00351742 -0.00626576 -0.00261617  0.00600863 -0.0135707 -0.00302577  0.00806487 -0.0149925 -0.00353813  0.0070571 -0.0110387 -0.00409198  0.00599414 -0.0144723 -0.00265384  0.00525126 -0.0105215 -0.00306702  0.00700682 -0.0119674 -0.00358868  0.00520355 -0.0114354 -0.00268912  0.00741535 -0.0204808 -0.00284624  0.0100164 -0.0218414 -0.0033257  0.00903928 -0.0173833 -0.00392222  0.00744426 -0.0213425 -0.00249648  0.00673115 -0.0168824 -0.00294566  0.0090692 -0.0182889 -0.00344467  0.00674188 -0.0177778 -0.00258613  0.00865787 -0.0283707 -0.00260782  0.0117377 -0.0296471 -0.00304389  0.0108344 -0.0247822 -0.00363469  0.00870764 -0.0291679 -0.00228405  0.00805908 -0.0243009 -0.00273085  0.0109059 -0.0256318 -0.00318933  0.00809979 -0.0251424 -0.0023942  0.00972199 -0.0370992 -0.00235128  0.0132278 -0.0382831 -0.00273895  0.0124227 -0.0330895 -0.00330114  0.009781 -0.037823 -0.00205588  0.00921309 -0.0326262 -0.00248075  0.0125115 -0.0338675 -0.00289178  0.00926816 -0.0333978 -0.00217104  0.0106052 -0.046547 -0.0020926  0.0144905 -0.0476373 -0.00243473  0.0137914 -0.0421752 -0.00295639  0.0106676 -0.0471935 -0.00182652  0.0101869 -0.0417283 -0.00222206  0.0138873 -0.042876 -0.00258589  0.0102474 -0.0424239 -0.00194097  0.0113115 -0.0566043 -0.00184321  0.0155329 -0.0576034 -0.00214052  0.0149424 -0.0519255 -0.00261784  0.0113742 -0.0571755 -0.00160623  0.0109808 -0.0514938 -0.00196719  0.0150387 -0.0525486 -0.00228596  0.011043 -0.0521126 -0.00171542  0.0118492 -0.0671771 -0.00160503  0.016366 -0.068089 -0.001863  0.0158805 -0.0622377 -0.00229311  0.0119106 -0.0676752 -0.00139642  0.0116019 -0.0618204 -0.00172329  0.0159749 -0.0627858 -0.00199962  0.011663 -0.0623646 -0.00150013  0.012229 -0.0781762 -0.00138235  0.0170037 -0.0790063 -0.00160217  0.0166178 -0.0730207 -0.00198674  0.0122889 -0.0786063 -0.00120068  0.012059 -0.0726166 -0.00149274  0.0167085 -0.0734974 -0.00172997  0.0121189 -0.0730901 -0.00129724  0.012464 -0.0895252 -0.0011735  0.0174607 -0.090279 -0.00135994  0.0171667 -0.0841916 -0.00170112  0.0125222 -0.0898913 -0.00101709  0.0123651 -0.0838 -0.00127697  0.0172538 -0.0846017 -0.00147891  0.0124228 -0.0842076 -0.00110769  0.0125684 -0.101151 -0.000981808  0.0177537 -0.101834 -0.0011363  0.0175445 -0.0956756 -0.00143576  0.0126241 -0.101459 -0.00084877  0.0125327 -0.0952955 -0.00107646  0.0176269 -0.0960239 -0.00124621  0.0125889 -0.0956421 -0.00093174  0.0125556 -0.112991 -0.000803947  0.0178994 -0.113609 -0.00093174  0.0177662 -0.107405 -0.00119114  0.0126089 -0.113245 -0.000692606  0.0125772 -0.107036 -0.000891685  0.0178441 -0.107696 -0.00103164  0.0126303 -0.107327 -0.000769377  0.01244 -0.124986 -0.000643492  0.0179144 -0.125544 -0.000745296  0.0178498 -0.119318 -0.000968218  0.0124905 -0.125192 -0.000551462  0.0125108 -0.11896 -0.000722408  0.0179223 -0.119558 -0.000835896  0.012562 -0.1192 -0.000620604  0.0122349 -0.137084 -0.000497341  0.0178144 -0.137588 -0.000577211  0.0178101 -0.131361 -0.000766277  0.0122826 -0.137246 -0.000423193  0.0123491 -0.131013 -0.000569105  0.0178777 -0.131554 -0.000658512  0.0123971 -0.131207 -0.000485897  0.0119536 -0.149239 -0.000368595  0.0176156 -0.149694 -0.000427961  0.0176649 -0.143483 -0.000585794  0.0119977 -0.149363 -0.000309944  0.0121043 -0.143145 -0.000431538  0.0177267 -0.143634 -0.000500441  0.0121491 -0.143298 -0.000365019  0.0116079 -0.16141 -0.000254393  0.0173326 -0.161822 -0.000297785  0.0174279 -0.155641 -0.000426769  0.0116484 -0.1615 -0.000209332  0.0117893 -0.155313 -0.000310183  0.0174837 -0.155756 -0.000360489  0.0118301 -0.155429 -0.000258446  0.01121 -0.173561 -0.000156641  0.0169802 -0.173936 -0.000186205  0.0171156 -0.167797 -0.000289202  0.0112457 -0.173624 -0.000123739  0.011416 -0.167478 -0.000204086  0.0171647 -0.167881 -0.000239849  0.0114534 -0.167564 -0.000164986  0.0107689 -0.185665 -7.34329e-05  0.0165703 -0.186009 -9.2268e-05  0.0167389 -0.179919 -0.000172377  0.0108004 -0.185705 -5.03063e-05  0.0109956 -0.179609 -0.000114202  0.0167818 -0.179978 -0.000137091  0.0110278 -0.179669 -8.58307e-05  0.010293 -0.197698 -4.29153e-06  0.0161152 -0.198015 -1.50204e-05  0.0163119 -0.191982 -7.51019e-05  0.0103202 -0.197719 1.07288e-05  0.0105355 -0.19168 -3.74317e-05  0.0163481 -0.19202 -5.19753e-05  0.0105643 -0.19172 -1.85966e-05  0.00978923 -0.209643 5.43594e-05  0.0156238 -0.209938 4.81606e-05  0.0158432 -0.203963 4.29153e-06  0.00981402 -0.20965 6.22272e-05  0.0100451 -0.20367 2.59876e-05  0.0158732 -0.203986 1.78814e-05  0.0100701 -0.203694 3.74317e-05  0.00926399 -0.221484 0.000108242  0.0151072 -0.221765 0.000104189  0.0153401 -0.215851 7.08103e-05  0.0092895 -0.221481 0.00010848  0.00953007 -0.215566 8.01086e-05  0.0153687 -0.215862 7.62939e-05  0.00955391 -0.215577 8.46386e-05  0.0087316 -0.233198 0.000169754  0.0145836 -0.233487 0.000163555  0.0148132 -0.227633 0.000136375  0.00876212 -0.23319 0.00015974  0.00899816 -0.227349 0.000135422  0.0148439 -0.227638 0.000133038  0.00902462 -0.227351 0.000132561  0.00234956 -0.0014742 -0.00354338  0 0 0  0.00219885 -0.00272697 -0.00351787  0.00130799 -0.000909328 -0.00291634  0 0 0  0.00175728 -0.00205499 -0.00284839  0.00100321 -0.000519216 -0.00233889  0 0 0  0.000703201 -0.00127035 -0.00205612  0.000572547 -0.000918746 -0.00167227  0.00498131 -0.00454056 -0.00478745  0.00580442 -0.00626403 -0.00498223  0.00464955 -0.00362653 -0.00509095  0.00463298 -0.00537616 -0.0041461  0.00366375 -0.0028199 -0.00421715  0.00393486 -0.00440371 -0.00440025  0.00314505 -0.00355411 -0.00359392  0.00768092 -0.00896794 -0.00513721  0.00939083 -0.0107112 -0.00541711  0.00789285 -0.00736237 -0.00608706  0.00756487 -0.00990629 -0.00449276  0.0063372 -0.00656933 -0.00503731  0.00764036 -0.00832814 -0.00530815  0.00611988 -0.00748825 -0.00438857  0.0102583 -0.0147072 -0.00504398  0.0126341 -0.0163929 -0.00532126  0.0110853 -0.0124286 -0.0061686  0.010269 -0.015635 -0.004426  0.00898942 -0.0116739 -0.00512552  0.0110499 -0.0134098 -0.00540924  0.00894785 -0.0126271 -0.00449228  0.0126319 -0.0215695 -0.00474191  0.0155728 -0.0231701 -0.00501299  0.0140695 -0.0187188 -0.00590754  0.0127136 -0.0224532 -0.00416136  0.011474 -0.0179954 -0.00490928  0.0141416 -0.0196576 -0.00518799  0.0115244 -0.0189168 -0.00431204  0.0147727 -0.0294183 -0.00434494  0.0181965 -0.0309121 -0.00458097  0.0167915 -0.0260627 -0.00547075  0.0148882 -0.0302298 -0.00380945  0.0137324 -0.025369 -0.0045476  0.0169241 -0.0269333 -0.0048058  0.0138348 -0.0262298 -0.00399184  0.0166612 -0.0381023 -0.00391603  0.0205052 -0.0394856 -0.00412989  0.0192376 -0.0343141 -0.00496626  0.0167905 -0.038839 -0.00342822  0.015751 -0.0336514 -0.00413013  0.0193894 -0.0351053 -0.00435853  0.0158734 -0.0344375 -0.00362039  0.0182906 -0.0475129 -0.00348592  0.0225017 -0.0487826 -0.00366473  0.0213773 -0.043344 -0.00444555  0.0184238 -0.048168 -0.00304794  0.017508 -0.0427128 -0.00369859  0.021542 -0.0440537 -0.00389767  0.0176404 -0.04342 -0.00323725  0.0196651 -0.0575311 -0.00306892  0.0241961 -0.0586919 -0.00322771  0.0232253 -0.0530398 -0.00393438  0.0197961 -0.0581104 -0.00267982  0.0190114 -0.0524399 -0.00327492  0.0233854 -0.0536686 -0.00344539  0.019142 -0.053068 -0.00286245  0.0207926 -0.0680702 -0.0026741  0.0256009 -0.0691245 -0.00280356  0.024775 -0.0632984 -0.00344467  0.0209194 -0.0685732 -0.00233269  0.0202591 -0.0627296 -0.00286865  0.0249337 -0.0638505 -0.00301385  0.020388 -0.0632816 -0.00250411  0.0216888 -0.0790339 -0.0023036  0.0267351 -0.07999 -0.0024159  0.0260519 -0.0740297 -0.00298381  0.0218093 -0.0794689 -0.00200677  0.0212705 -0.0734913 -0.00248551  0.0262002 -0.074509 -0.00260758  0.0213926 -0.0739709 -0.00216699  0.0223688 -0.0903523 -0.00195956  0.0276176 -0.0912138 -0.00204849  0.0270636 -0.0851516 -0.00255394  0.0224837 -0.0907207 -0.00170469  0.022055 -0.0846416 -0.00212836  0.0272065 -0.0855628 -0.00222993  0.0221725 -0.0850538 -0.00185347  0.0228533 -0.101946 -0.00164127  0.0282704 -0.102722 -0.00171614  0.0278386 -0.0965889 -0.00215578  0.0229611 -0.102256 -0.00142574  0.0226364 -0.0961068 -0.00179744  0.027971 -0.0969367 -0.00187969  0.0227458 -0.0964557 -0.00156283  0.0231595 -0.113758 -0.00135016  0.0287149 -0.114452 -0.00140643  0.0283917 -0.108273 -0.00179005  0.0232606 -0.114012 -0.0011704  0.0230284 -0.107817 -0.00149322  0.0285174 -0.108563 -0.00155878  0.023132 -0.108109 -0.0012958  0.0233082 -0.125725 -0.00108576  0.0289732 -0.126346 -0.00112963  0.0287508 -0.120145 -0.0014565  0.0234015 -0.125929 -0.000937939  0.0232537 -0.119713 -0.00121522  0.0288655 -0.120382 -0.00126529  0.0233499 -0.119952 -0.00105166  0.0233173 -0.137798 -0.000847816  0.0290666 -0.138351 -0.000877619  0.028933 -0.132147 -0.00115466  0.0234029 -0.137957 -0.000729561  0.0233299 -0.131739 -0.000964403  0.0290393 -0.132337 -0.00100064  0.0234188 -0.131931 -0.000831366  0.0232058 -0.149927 -0.000637054  0.029017 -0.15042 -0.000656843  0.0289626 -0.144233 -0.000886202  0.0232835 -0.150047 -0.000544548  0.0232768 -0.143846 -0.000740051  0.0290582 -0.144379 -0.00076437  0.0233572 -0.143995 -0.00063467  0.0229914 -0.162076 -0.000453711  0.0288444 -0.162514 -0.000463486  0.0288599 -0.156356 -0.000650167  0.0230606 -0.162161 -0.000383377  0.0231116 -0.155989 -0.000542879  0.0289452 -0.156466 -0.000556946  0.0231838 -0.156102 -0.00046134  0.0226908 -0.174205 -0.000296831  0.0285687 -0.174598 -0.000300407  0.0286441 -0.168481 -0.000447035  0.0227509 -0.174262 -0.00024581  0.0228524 -0.168132 -0.000373125  0.028718 -0.168558 -0.000378609  0.0229156 -0.168213 -0.000312567  0.0223196 -0.186288 -0.000166655  0.0282087 -0.186642 -0.000164986  0.0283356 -0.180574 -0.000276804  0.0223706 -0.186322 -0.000131607  0.0225143 -0.180242 -0.000229836  0.0283983 -0.180625 -0.000229359  0.0225689 -0.180297 -0.000186682  0.0218911 -0.198301 -6.10352e-05  0.0277824 -0.198624 -5.74589e-05  0.0279512 -0.19261 -0.000138998  0.0219333 -0.198317 -3.91006e-05  0.0221131 -0.192292 -0.000112057  0.028003 -0.19264 -0.00010848  0.0221581 -0.192327 -8.36849e-05  0.0214174 -0.210227 2.40803e-05  0.0273061 -0.210526 2.67029e-05  0.0275085 -0.204567 -3.05176e-05  0.0214529 -0.210231 3.55244e-05  0.0216601 -0.204263 -1.74046e-05  0.0275495 -0.204584 -1.33514e-05  0.0216982 -0.204283 -4.76837e-07  0.0209079 -0.222055 9.799e-05  0.0267956 -0.222341 9.44138e-05  0.027019 -0.216434 5.4121e-05  0.0209417 -0.222052 9.91821e-05  0.0211682 -0.216141 6.00815e-05  0.0270543 -0.216443 6.07967e-05  0.0212004 -0.216151 6.7234e-05  0.0203786 -0.233789 0.000176191  0.0262682 -0.234082 0.000161171  0.0264981 -0.228209 0.000129223  0.020417 -0.233786 0.000164986  0.0206451 -0.227921 0.000132561  0.0265334 -0.228218 0.0001266  0.0206795 -0.227928 0.000130177  0.00376959 -0.00287378 -0.00514531  0 0 0  0.00405693 -0.00486422 -0.00475264  0.00231191 -0.00260681 -0.00380611  0 0 0  0.00290924 -0.00367194 -0.00411415  0.00157128 -0.00151557 -0.00330997  0 0 0  0.00157224 -0.0027082 -0.00275397  0.000942573 -0.00177032 -0.00241208  0.00761995 -0.00629711 -0.00685191  0.00880498 -0.00847614 -0.00676155  0.00722438 -0.00553381 -0.0071733  0.00722453 -0.00732261 -0.00592184  0.00573415 -0.00456059 -0.0061872  0.00641409 -0.00656033 -0.00603104  0.00504322 -0.00545132 -0.00525904  0.0115136 -0.0106183 -0.00729585  0.0136175 -0.0127076 -0.00730562  0.01156 -0.00931758 -0.00830793  0.0113961 -0.0116449 -0.00636959  0.00958666 -0.00829411 -0.00720549  0.0112718 -0.0103893 -0.00718164  0.00935143 -0.00930464 -0.00625491  0.0151543 -0.016303 -0.00711179  0.0179967 -0.0182604 -0.00716877  0.0158843 -0.0142848 -0.00835538  0.0151969 -0.01727 -0.00624061  0.0133646 -0.0133023 -0.00725985  0.0158583 -0.01533 -0.00730228  0.0133425 -0.0143105 -0.00635648  0.0184999 -0.0230798 -0.00668812  0.0219346 -0.0249295 -0.00671721  0.0199301 -0.0205048 -0.00795102  0.0186315 -0.0239939 -0.00587487  0.0168683 -0.0195545 -0.0069313  0.0200237 -0.021464 -0.00697756  0.0169599 -0.0205061 -0.00608826  0.0215262 -0.0308813 -0.00610781  0.0254504 -0.0325781 -0.00613904  0.0235785 -0.0277731 -0.00733876  0.0217021 -0.031696 -0.00536442  0.0200512 -0.0268637 -0.00641394  0.0237403 -0.028641 -0.00644779  0.0202117 -0.0277365 -0.00563598  0.02422 -0.0394764 -0.00551224  0.0285534 -0.0410562 -0.00551701  0.0268741 -0.0359432 -0.00664616  0.0244113 -0.0402232 -0.00483632  0.022919 -0.0350776 -0.00581837  0.0270568 -0.0367202 -0.00583816  0.0231019 -0.0358658 -0.00510907  0.0265671 -0.0488335 -0.00489092  0.0312492 -0.0502639 -0.00489879  0.0297502 -0.0448854 -0.00593901  0.0267628 -0.049482 -0.0042882  0.0254346 -0.0440681 -0.00520539  0.0299476 -0.0455763 -0.00521421  0.0256305 -0.0447724 -0.00456667  0.0285792 -0.0587664 -0.00431275  0.0335566 -0.0600817 -0.00430346  0.0322626 -0.0544931 -0.00524783  0.0287694 -0.059348 -0.00377727  0.0276179 -0.0537239 -0.00460386  0.0324537 -0.0551016 -0.0046041  0.0278084 -0.0543463 -0.00403476  0.0302615 -0.0692485 -0.00374603  0.0354898 -0.0704289 -0.0037415  0.034376 -0.0646627 -0.0045898  0.0304455 -0.0697439 -0.00327873  0.0294591 -0.0639428 -0.00402999  0.0345657 -0.065195 -0.00402474  0.029647 -0.0644884 -0.00352883  0.0316389 -0.0801347 -0.00323176  0.0370773 -0.081209 -0.00321674  0.0361514 -0.0753089 -0.00397062  0.0318124 -0.0805693 -0.00282574  0.0309899 -0.0746355 -0.00348902  0.0363277 -0.0757687 -0.00347948  0.0311662 -0.0751083 -0.00305247  0.0327272 -0.0913985 -0.00273991  0.0383399 -0.0923535 -0.00272894  0.0375751 -0.0863466 -0.00339437  0.032892 -0.0917588 -0.00239396  0.032217 -0.08572 -0.002985  0.0377455 -0.0867401 -0.00297308  0.0323863 -0.0861249 -0.00260925  0.033556 -0.102925 -0.00229764  0.0393077 -0.103784 -0.00227928  0.0387036 -0.0977052 -0.00285983  0.0337089 -0.103231 -0.00200534  0.033175 -0.0971217 -0.0025177  0.0388608 -0.0980361 -0.00250316  0.0333319 -0.0974634 -0.00219822  0.0341436 -0.114684 -0.00188422  0.040004 -0.115442 -0.00186944  0.039538 -0.109314 -0.00237012  0.0342865 -0.11493 -0.00164223  0.0338783 -0.108772 -0.00208926  0.0396867 -0.109588 -0.00207353  0.0340258 -0.109057 -0.00182199  0.0345197 -0.126593 -0.00151634  0.0404607 -0.127267 -0.00149655  0.0401264 -0.121114 -0.00192356  0.0346507 -0.126791 -0.00131869  0.0343584 -0.120612 -0.00169873  0.0402617 -0.121336 -0.00168109  0.034494 -0.120843 -0.00147843  0.0347049 -0.138619 -0.00118017  0.0407007 -0.139208 -0.00116205  0.0404793 -0.13305 -0.00152063  0.0348248 -0.138769 -0.00102377  0.0346351 -0.132585 -0.00134563  0.0406053 -0.133225 -0.00132751  0.0347599 -0.132768 -0.00116849  0.0347264 -0.150699 -0.000887394  0.0407538 -0.151218 -0.000866175  0.0406373 -0.145073 -0.00116134  0.0348337 -0.150811 -0.000766039  0.0347362 -0.144643 -0.00103068  0.0407495 -0.145206 -0.00101161  0.0348485 -0.144783 -0.000891685  0.034605 -0.162806 -0.000629902  0.0406435 -0.163258 -0.000610113  0.040617 -0.15714 -0.000846386  0.0346999 -0.162881 -0.000540257  0.0346835 -0.156741 -0.000755548  0.0407171 -0.157235 -0.000735283  0.0347831 -0.156844 -0.000649691  0.0343654 -0.174896 -0.000413656  0.0403972 -0.175293 -0.000393152  0.0404499 -0.169213 -0.000576258  0.034446 -0.174942 -0.000350475  0.0344999 -0.168842 -0.000518084  0.0405359 -0.169277 -0.000498533  0.0345869 -0.168913 -0.000441313  0.0340273 -0.186945 -0.000235319  0.0400383 -0.187295 -0.000217676  0.0401571 -0.18126 -0.000351906  0.0340948 -0.186968 -0.000194311  0.0342088 -0.180915 -0.000320911  0.04023 -0.181298 -0.000302076  0.0342815 -0.180959 -0.000268221  0.0336132 -0.198927 -9.60827e-05  0.0395939 -0.19924 -8.05855e-05  0.0397666 -0.193256 -0.000173092  0.0336668 -0.198932 -7.22408e-05  0.0338292 -0.192933 -0.000162125  0.0398257 -0.193274 -0.000145435  0.0338893 -0.192957 -0.000129223  0.0331416 -0.210826 8.58307e-06  0.0390878 -0.211115 1.83582e-05  0.0393004 -0.20518 -3.95775e-05  0.0331838 -0.210822 1.97887e-05  0.0333846 -0.204875 -4.07696e-05  0.0393467 -0.205185 -2.83718e-05  0.0334313 -0.204885 -2.26498e-05  0.03263 -0.222634 8.74996e-05  0.038548 -0.222914 8.72612e-05  0.0387828 -0.21702 5.26905e-05  0.032666 -0.222629 8.9407e-05  0.0328908 -0.216728 4.8399e-05  0.0388207 -0.217022 5.38826e-05  0.0329285 -0.216734 5.60284e-05  0.0320954 -0.234376 0.000161171  0.0379992 -0.234657 0.000148296  0.0382402 -0.228782 0.000119448  0.03213 -0.234374 0.000155687  0.0323658 -0.228498 0.00012207  0.0382736 -0.228788 0.000116587  0.0323997 -0.228505 0.000121593  
SCALARS smooth_stress float 1
LOOKUP_TABLE default
58.648 119.393 131.787 122.408 103.825 114.578 110.031 100.141 100.101 95.3833 94.2821 83.7657 101.581 107.171 83.085 77.1559 84.6157 80.7496 67.8237 72.1763 64.0624 66.7947 82.1763 75.3001 32.9986 109.683 222.918 241.921 234.988 212.359 226.604 213.959 200.546 202.426 187.489 185.667 173.646 192.452 199.004 153.783 143.801 155.657 154.697 163.117 163.801 136.114 133.885 146.979 147.16 74.4235 102.096 203.25 206.673 212.593 204.007 209.023 208.467 204.541 209.826 187.965 165.146 179.505 185.277 184.447 173.785 158.067 159.721 163.705 193.987 172.36 137.803 151.978 145.521 141.702 76.8269 101.341 203.321 196.099 196.067 185.158 191.426 206.564 205.739 214.828 193.222 171.365 194.461 176.42 163.331 194.425 188.059 175.529 173.929 188.584 157.838 149.763 166.612 144.975 146.775 75.7283 93.762 185.969 180.225 190.224 188.531 197.165 195.11 179.617 199.14 188.601 196.208 207.112 175.443 159.99 167.368 164.493 156.005 174.939 178.08 154.304 159.651 155.665 156.891 170.569 82.2344 86.3741 177.093 183.025 192.277 194.729 198.073 187.211 184.867 190.661 176.81 197 205.307 192.089 172.183 163.443 151.615 142.561 173.48 171.744 164.01 165.888 158.123 174.917 180.126 84.3248 94.6689 212.634 224.436 205.215 210.696 208.638 199.093 203.441 192.197 196.921 215.219 205.43 192.759 178.319 170.482 169.13 172.321 172.122 163.535 164.1 167.26 168.417 172.113 174.141 83.7254 118.592 239.24 225.708 217.306 228.03 231.601 224.42 193.687 196.784 220.648 216.896 194.278 182.499 177.911 164.82 176.116 177.552 177.561 175.725 155.149 166.783 163.32 148.536 155.137 75.6109 66.8156 121.326 103.632 110.198 113.218 118.301 119.452 97.0992 103.434 109.3 100.071 91.8799 88.3987 82.5036 81.7506 90.7444 78.6359 88.1524 95.7457 77.8586 89.7719 79.0844 58.7057 67.4861 34.3021 120.876 249.531 256.094 242.01 225.964 235.327 232.843 215.889 214.15 197.224 185.931 194.53 211.824 195.792 171.223 174.071 156.744 147.879 152.399 153.82 147.858 152.658 165.492 151.512 68.8448 225.913 458.678 468.949 459.148 434.414 439.085 430.193 416.321 414.807 387.561 382.853 378.036 385.159 372.709 322.331 322.662 322.322 307.541 321.977 327.224 293.473 286.939 301.095 303.799 156.22 197.483 407.952 412.752 423.582 410.923 413.597 405.439 393.478 420.84 397.522 366.855 355.473 345.636 365.779 350.22 323.554 341.022 336.716 364.557 343.834 285.323 310.883 312.818 307.363 165.864 187.765 388.317 390.515 408.177 383.127 374.088 406.803 399.839 418.122 389.795 339.161 347.452 339.326 346.261 372.092 354.49 337.475 345.645 365.936 323.333 313.403 348.444 319.776 307.325 159.664 175.728 346.574 358.817 390.256 373.363 370.849 392.472 379.118 376.706 366.536 367.137 380.824 366.431 342.903 351.579 346.642 326.139 351.505 339.081 315.914 335.901 331.852 315.689 315.454 159.386 154.98 325.956 367.936 389.651 376.103 393.411 396.177 377.82 368.025 363.891 378.834 386.529 381.537 346.987 345.659 340.139 334.087 350.928 322.295 307.186 326.448 348.791 352.256 323.716 150.669 168.664 388.873 435.522 420.808 408.931 408.139 420.694 410.126 389.96 414.269 406.89 370.407 376.577 344.832 320.554 350.738 354.63 335.143 327.622 311.557 317.093 342.294 349.96 339.512 159.598 213.549 462.406 470.076 467.236 460.142 441.677 443.762 404.753 402.379 434.408 414.215 379.35 396.282 366.086 323.394 348.238 335.63 342.416 371.889 335.876 323.631 321.953 318.169 333.802 165.08 119.456 242.429 234.291 247.555 234.606 220.347 225.487 200.122 201.677 200.105 188.25 190.134 201.838 182.737 169.899 170.523 150.979 175.287 198.439 168.496 170.779 168.44 147.336 154.801 77.9388 128.339 273.665 269.044 256.281 254.479 240.099 240.452 227.849 206.258 184.718 175.687 199.764 192.763 164.214 172.326 187.481 170.617 165.84 166.717 162.615 172.235 163.25 161.332 161.22 76.7479 222.309 478.713 473.634 473.077 481.851 441.88 435.699 426.493 407.99 372.663 363.365 385.934 364.693 337.93 339.524 352.178 344.345 345.28 341.521 328.593 318.986 299.188 297.191 308.557 159.378 172.9 389.339 411.252 427.268 424.291 407.938 389.898 377.899 411.63 393.381 382.208 361.731 339.432 361.801 357.134 337.81 355.242 368.839 357.708 334.537 316.57 337.432 322.755 304.083 161.04 155.808 357.603 411.733 421.568 381.159 367.441 382.597 385.776 413.286 397.852 365.834 349.638 347.214 353.057 361.156 345.168 337.877 362.244 364.282 352.741 358.519 385.813 347.077 308.257 160.617 169.072 351.152 385.9 408.833 382.296 368.601 392.176 412.199 405.449 368.765 339.951 357.234 369.89 334.115 352.58 355.073 330.016 346.236 341.895 355.291 366.716 350.222 315.569 309.766 165.979 159.705 343.713 395.788 413.095 390.855 410.515 419.552 392.363 377.563 370.526 357.871 362.092 367.215 340.882 359.252 367.129 362.068 350.553 304.765 284.372 324.329 354.607 335.633 309.735 144.984 157.585 369.943 433.241 426.807 401.52 410.868 429.654 400.958 395.06 415.493 377.346 333.579 350.102 345.605 341.435 355.239 341.129 323.986 313.047 287.344 305.925 336.226 327.771 308.77 141.004 205.008 457.501 491.658 484.146 454.952 425.565 421.181 421.155 421.413 397.71 368.907 353.068 357.372 345.396 375.342 372.994 307.505 311.215 349.698 339.299 318.509 329.303 320.123 322.919 168.602 114.934 253.432 273.377 272.697 246.231 217.895 206.849 206.881 201.854 176.392 180.787 198.423 184.309 171.53 211.798 201.865 154.792 164.391 180.899 165.218 158.898 181.781 172.597 165.63 88.8094 132.191 280.722 289.343 260.148 246.506 234.771 235.763 236.293 218.443 207.418 187.335 180.355 168.634 172.406 178.342 192.433 207.566 187.138 161.409 156.141 152.79 136.349 141.754 156.073 80.1725 221.179 492.554 520.426 491.379 475.867 444.817 445.107 445.716 412.335 373.972 361.898 363.864 336.122 335.334 362.425 383.691 377.615 362.814 349.524 329.232 297.33 266.444 278.673 308.355 159.672 169.428 388.905 445.846 447.933 427.151 412.368 407.473 405.92 390.833 354.75 353.516 365.272 353.07 338.992 375.64 396.187 361.237 371.695 360.168 312.562 301.842 307.258 293.306 287.375 149.708 153.423 356.847 432.709 416.157 386.838 386.076 383.349 402.174 407.243 398.859 373.548 375.517 370.57 334.028 366.052 392.936 361.513 371.556 367.646 328.091 331.561 353.478 314.381 289.371 156.259 170.054 365.544 404.567 410.322 391.175 366.364 361.099 398.158 422.963 397.806 356.289 358.702 353.57 323.148 348.901 350.532 333.995 343.907 360.303 363.759 343.588 326.735 305.863 324.488 177.097 183.988 372.924 394.992 431.907 409.817 370.279 366.6 383.595 394.265 374.437 357.233 341.127 336.244 333.617 358.285 338.953 322.083 342.56 326.953 315.018 316.937 299.902 293.459 316.176 159.641 189.238 396.114 423.794 438.614 416.124 394.179 396.546 396.363 388.951 377.441 367.255 316.425 316.286 348.163 367.074 339.165 305.326 321.064 318.234 310.372 306.506 300.607 297.84 299.133 144.468 228.844 464.545 489.842 499.914 460.134 424.343 411.396 414.516 408.038 363.693 363.712 349.51 304.595 326.626 386.688 380.307 340.877 315.792 315.651 317.745 308.174 320.678 311.817 317.513 165.412 126.522 255.585 274.419 282.341 251.699 217.834 205.572 209.267 200.691 173.546 191.997 209.264 155.971 146.895 203.493 217.57 193.963 168.918 159.66 147.251 149.276 169.553 159.568 164.346 89.5399 127.66 263.409 275.367 256.945 236.084 226.489 228.284 229.35 234.495 228.86 210.546 196.587 166.131 176.043 191.069 202.861 194.45 162.64 158.669 157.677 139.965 122.981 127.745 132.236 65.6154 234.27 488.139 519.143 482.803 442.1 446.839 464.725 460.079 425.975 400.572 391.901 363.275 319.314 331.279 374.37 405.364 372.495 324.959 335.083 327.437 273.044 251.618 276.115 295.171 148.999 195.395 407.622 457.813 452.65 424.582 428.526 440.426 431.036 378.356 344.846 354.079 356.462 344.631 333.201 362.583 405.865 353.51 321.683 343.484 328.68 283.653 270.982 286.597 291.586 148.03 162.22 356.065 417.061 423.548 428.137 399.839 387.421 405.537 372.55 370.947 363.839 370.615 366.669 332.307 345.414 375.687 325.224 301.751 335.491 328.669 288.686 286.855 292.449 286.024 152.684 171.238 372.041 416.145 402.566 387.715 350.514 333.222 364.042 362.421 382.352 357.34 346.528 378.723 357.95 339.036 326.136 312.868 309.082 324.849 354.779 309.122 277.866 295.736 312.229 167.67 200.956 401.435 411.84 424.384 389.356 334.444 337.519 373.638 368.831 363.233 354.991 332.323 370.454 380.923 355.49 322.51 308.096 341.022 333.005 341.266 320.083 267.873 271.564 306.147 167.013 194.968 404.775 441.06 472.124 434.567 395.86 402.061 403.697 376.633 366.258 366.424 315.408 337.537 372.479 360.067 321.091 295.954 336.26 344.027 340.748 331.923 295.956 269.486 291.841 161.792 210.759 453.409 499.757 518.741 488.529 453.515 425.451 392.636 388.181 386.423 380.101 349.184 357.08 385.365 367.402 341.312 342.758 334.403 329.883 334.87 340.803 316.409 284.432 302.489 153.62 118.944 251.199 257.417 265.191 265.175 233.247 211.123 203.766 203.631 198.858 202.443 200.412 186.495 190.2 189.921 188.92 191.79 172.47 162.434 150.359 157.953 154.97 144.996 161.939 79.2087 117.336 248.382 251.826 248.283 242.335 227.806 223.579 213.179 217.399 214.672 209.27 212.835 189.074 171.08 181.672 198.356 183.223 159.489 154.499 146.321 146.756 134.173 131.353 138.682 64.9358 236.757 483.567 486.418 479.842 465.722 449.258 454.154 426.98 414.616 409.867 381.843 359.615 346.904 345.906 359.397 389.786 358.557 319.641 319.915 300.793 294.894 299.587 296.885 298.385 147.165 195.348 403.614 428.213 436.867 451.53 449.735 435.977 405.239 378.105 361.18 351.949 352.188 347.169 345.975 346.87 363.937 343.213 308.348 330.623 360.514 320.83 306.406 312.072 296.812 148.916 164.324 348.739 392.712 411.304 432.436 418.845 387.994 381.098 357.756 346.885 369.256 405.429 365.88 318.544 333.659 335.465 318.712 296.392 330.032 381.97 316.352 290.389 314.662 290.21 141.496 176.702 384.387 434.919 410.933 378.967 371.672 363.672 354.551 333.692 345.882 353.55 370.36 381.505 336.153 320.817 323.35 314.383 324.625 333.43 358.326 314.013 291.182 315.883 308.101 157.987 192.344 407.013 449.013 426.247 379.807 371.001 381.977 370.829 336.034 338.668 340.423 345.047 386.505 378.099 333.362 322.4 331.184 359.111 336.801 336.622 338.23 309.266 291.424 299.547 166.748 183.964 393.904 457.31 470.469 417.465 401.117 408.967 396.409 373.661 362.307 342.869 345.444 368.68 365.129 336.941 308.308 318.242 344.599 335.691 333.507 363.645 349.613 279.867 276.207 159.71 180.804 438.108 514.909 504.538 478.789 460.505 421.933 403.587 411.441 398.117 368.613 364.826 391.897 380.318 369.013 335.215 301.706 312.934 331.007 342.76 368.425 351.735 295.692 300.061 158.473 100.878 247.141 270.784 255.38 266.456 249.28 213.864 213.116 216.99 209.496 202.497 194.09 204.758 204.531 209.133 188.916 151.096 151.017 163.511 163.477 172.659 169.602 159.488 168.402 82.3336 124.729 252.198 242.595 252.715 258.544 232.971 224.767 207.449 199.368 208.321 205.272 212.049 204.278 177.544 167.663 176.241 185.685 174.664 164.735 156.562 158.056 154.018 145.7 155.64 78.9812 247.703 487.928 478.267 498.861 493.264 442.784 434.495 402.585 384.799 411.14 411.133 391.197 374.653 353.428 338.242 357.83 362.632 344.12 323.832 315.165 325.041 321.682 306.989 306.084 151.754 202.87 412.756 421.788 436.048 454.373 448.888 428.738 390.101 377.204 380.231 370.375 369.233 354.577 344.291 348.079 348.603 348.293 337.923 325.782 343.71 336.185 331.384 318.729 295.789 151.965 181.342 372.741 381.776 385.551 399.291 416.379 420.273 394.373 380.088 353.914 353.466 393.275 360.935 335.1 349.504 331.027 344.063 353.406 333.577 351.175 338.58 339.568 319.418 270.897 135.094 171.544 388.991 423.872 390.79 345.628 350.298 392.874 376.83 354.099 352.431 367.604 374.122 339.576 314.109 319.464 329.539 340.242 355.997 341.673 343.849 343.672 320.156 293.333 290.336 153.868 173.931 392.172 432.335 413.913 362.842 349.102 380.24 366.778 337.476 345.78 339.721 332.909 331.568 315.779 323.607 339.902 340.6 331.548 328.115 342.705 344.408 308.625 279.154 309.782 174.998 204.169 408.725 433.705 443.973 398.862 376.523 380.963 383.002 376.071 355.35 330.941 354.688 363.832 348.759 345.647 341.586 353.619 341.951 329.399 340.465 353.601 346.607 322.985 301.371 149.205 209.689 457.234 499.458 481.841 439.804 426.292 414.108 418.039 419.863 385.043 373.677 384.69 373.53 351.325 351.637 343.84 330.142 354.931 358.193 332.993 343.746 347.843 334.8 317.537 152.96 109.352 247.406 269.877 256.639 237.795 225.877 221.775 224.395 215.484 199.543 203.805 191.979 178.422 170.927 182.136 176.63 149.598 173.47 182.126 157.453 160.261 165.552 159.615 161.162 80.7874 131.132 247.124 242.468 272.146 274.01 237.271 220.223 200.72 188.83 205.072 203.721 201.976 191.165 177.947 190.257 194.114 174.438 160.405 163.575 158.98 151.906 164.229 165.8 154.778 77.2363 240.453 459.565 469.856 515.574 499.85 446.052 438.909 409.151 376.791 417.954 422.764 395.497 373.095 352.273 353.177 350.663 331.306 324.465 316.589 317.675 306.965 306.506 325.451 304.127 144.294 214.866 421.866 428.979 437.738 424.414 422.669 417.303 399.373 384.635 401.663 392.497 367.554 356.437 348.673 346.165 320.48 313.629 345.739 338.177 308.102 308.296 327.379 343.945 305.108 137 189.453 386.843 385.591 370.422 381.503 399.168 403.641 396.979 377.465 362.481 372.044 369.091 351.03 360.214 343.579 308.369 324.5 359.38 340.975 309.919 319.174 346.881 325.344 278.324 133.776 155.811 354.458 381.559 365.87 358.762 351.249 393.142 412.277 371.538 359.643 371.44 364.703 359.506 349.263 309.194 304.141 330.275 325.857 304.244 327.552 351.954 308.239 262.098 289.917 163.647 169.786 382.045 394.12 383.298 366.286 331.613 356.234 396.775 382.012 364.959 345.534 340.244 355.666 351.4 348.998 347.075 326.013 287.408 300.016 335.956 344.012 289.756 271.129 328.535 179.257 209.864 435.728 426.423 411.624 392.431 360.73 363.689 393.61 405.408 367.85 351.477 365.271 365.212 382.456 384.195 360.11 339.441 316.146 328.463 354.541 345.466 316.106 309.79 306.619 148.933 241.793 487.456 475.515 461.993 426.642 399.346 423.281 437.906 437.092 393.406 369.532 380.93 364.515 369.277 356.559 337.647 340.092 374.221 369.537 333.532 348.519 336.334 300.645 289.647 147.972 129.812 256.731 245.651 243.909 224.664 204.261 227.708 234.83 222.948 204.572 190.739 186.258 171.986 174.824 172.501 164.91 164.128 197.327 192.658 147.907 161.047 163.523 140.936 144.21 78.4838 62.1601 117.095 120.938 134.236 135.883 121.039 108.875 101.293 98.5993 107.104 100.47 97.5297 95.9439 92.2536 107.352 115.234 86.6042 71.0174 73.9371 66.2326 64.9928 80.3656 87.4461 76.6483 36.8463 110.336 216.666 232.683 256.213 246.278 221.105 219.486 208.466 197.36 217.49 197.292 182.961 190.168 184.581 191.411 187.629 154.67 145.405 144.452 139.928 139.478 153.103 174.831 157.694 72.7968 103.863 209.369 218.265 217.561 206.764 203.994 198.663 200.433 197.397 208.691 193.009 173.556 178.396 175.679 177.313 153.814 142.336 170.347 172.565 145.725 142.08 160.15 188.54 163.498 63.6264 94.2532 191.017 194.857 179.325 190.158 203.091 184.932 188.665 179.833 182.086 199.506 189.5 175.569 175.253 164.885 151.32 159.507 181.642 182.656 152.889 144.942 160.344 170.243 153.278 67.0712 72.6782 152.81 173.72 184.966 198.098 193.556 197.002 211.415 183.79 177.718 187.314 189.592 197.379 185.303 152.042 149.423 165.661 159.639 150.56 157.328 166.294 154.099 138.005 155.06 88.3665 80.1318 173.524 183.073 187.433 194.23 174.171 176.467 211.374 205.805 185.607 172.442 180.316 198.626 200.336 184.512 167.411 160.042 143.403 148.436 162.431 170.917 158.488 147 162.185 84.9966 100.339 218.541 210.608 193.396 189.306 172.275 178.124 205.412 218.018 187.844 178.56 188.443 182.526 195.418 191.133 171.275 154.616 142.632 160.003 177.32 174.001 161.414 145.102 145.348 76.9822 120.941 245.131 233.761 231.647 214.391 188.897 215.212 235.243 232.709 199.799 176.492 193.396 186.809 182.311 176.452 167.146 160.349 167.253 174.585 167.601 178.908 173.825 138.432 142.939 86.1454 66.6214 128.523 120.842 124.459 115.007 96.4009 113.431 125.195 117.902 103.625 86.3784 97.0524 96.9281 93.8267 89.4206 83.7607 85.3513 94.0663 93.0629 76.2426 86.8768 89.7311 71.4128 75.5416 45.1885 58.648 119.393 120.876 58.648 58.648 119.393 249.531 120.876 109.683 222.918 225.913 109.683 58.648 58.648 119.393 120.876 58.648 109.683 58.648 60.7455 131.787 128.655 131.787 256.094 113.235 241.921 232.766 60.7455 60.7455 131.787 128.655 113.235 60.7455 71.0417 122.408 127.439 122.408 242.01 128.686 234.988 236.183 71.0417 71.0417 122.408 127.439 128.686 71.0417 51.3667 103.825 114.571 103.825 225.964 106.302 212.359 222.965 51.3667 51.3667 103.825 114.571 106.302 51.3667 52.4579 114.578 111.393 114.578 235.327 106.057 226.604 211.449 52.4579 52.4579 114.578 111.393 106.057 52.4579 62.1196 110.031 123.934 110.031 232.843 120.547 213.959 227.636 62.1196 62.1196 110.031 123.934 120.547 62.1196 47.9109 100.141 108.908 100.141 215.889 93.4119 200.546 202.557 47.9109 47.9109 100.141 108.908 93.4119 47.9109 52.2298 100.101 106.981 100.101 214.15 107.134 202.426 213.764 52.2298 52.2298 100.101 106.981 107.134 52.2298 47.871 95.3833 107.17 95.3833 197.224 95.2919 187.489 201.043 47.871 47.871 95.3833 107.17 95.2919 47.871 47.5122 94.2821 90.0541 94.2821 185.931 92.1973 185.667 186.519 47.5122 47.5122 94.2821 90.0541 92.1973 47.5122 46.7699 83.7657 95.8771 83.7657 194.53 93.4695 173.646 196.334 46.7699 46.7699 83.7657 95.8771 93.4695 46.7699 36.9958 101.581 98.6527 101.581 211.824 80.1765 192.452 181.702 36.9958 36.9958 101.581 98.6527 80.1765 36.9958 64.5856 107.171 113.171 107.171 195.792 112.276 199.004 203.457 64.5856 64.5856 107.171 113.171 112.276 64.5856 42.5851 83.085 82.6213 83.085 171.223 86.7285 153.783 169.252 42.5851 42.5851 83.085 82.6213 86.7285 42.5851 40.4999 77.1559 88.6021 77.1559 174.071 67.0543 143.801 153.078 40.4999 40.4999 77.1559 88.6021 67.0543 40.4999 36.6561 84.6157 85.4694 84.6157 156.744 76.7471 155.657 169.584 36.6561 36.6561 84.6157 85.4694 76.7471 36.6561 47.9597 80.7496 71.275 80.7496 147.879 78.9101 154.697 152.738 47.9597 47.9597 80.7496 71.275 78.9101 47.9597 32.7899 67.8237 76.6044 67.8237 152.399 75.787 163.117 154.803 32.7899 32.7899 67.8237 76.6044 75.787 32.7899 35.0338 72.1763 75.7942 72.1763 153.82 87.3302 163.801 167.174 35.0338 35.0338 72.1763 75.7942 87.3302 35.0338 37.1425 64.0624 78.0253 64.0624 147.858 76.4713 136.114 160.05 37.1425 37.1425 64.0624 78.0253 76.4713 37.1425 26.9199 66.7947 69.8332 66.7947 152.658 59.6426 133.885 133.423 26.9199 26.9199 66.7947 69.8332 59.6426 26.9199 39.8748 82.1763 82.8248 82.1763 165.492 74.2421 146.979 153.516 39.8748 39.8748 82.1763 82.8248 74.2421 39.8748 42.3015 75.3001 82.6672 75.3001 151.512 72.737 147.16 147.579 42.3015 42.3015 75.3001 82.6672 72.737 42.3015 32.9986 32.9986 68.8448 32.9986 68.8448 74.4235 74.4235 156.22 32.9986 32.9986 32.9986 68.8448 74.4235 32.9986 51.0353 103.525 209.147 105.036 102.096 203.25 197.483 102.096 51.0353 103.525 105.036 51.0353 102.096 51.0353 110.134 212.855 101.154 206.673 210.469 52.4897 110.134 104.111 101.154 52.4897 112.58 217.138 105.519 212.593 202.283 57.6441 112.58 108.744 105.519 57.6441 108.534 208.45 107.074 204.007 221.299 54.9356 108.534 108.394 107.074 54.9356 112.026 203.758 96.9332 209.023 189.624 53.5989 112.026 100.057 96.9332 53.5989 103.928 197.35 112.09 208.467 223.974 58.4272 103.928 103.701 112.09 58.4272 100.405 200.433 96.3775 204.541 181.466 45.5009 100.405 93.6489 96.3775 45.5009 102.325 200.657 108.163 209.826 212.012 54.904 102.325 106.784 108.163 54.904 92.1059 190.338 101.663 187.965 208.828 47.4208 92.1059 93.873 101.663 47.4208 91.3847 196.921 86.3029 165.146 188.694 44.6851 91.3847 96.4645 86.3029 44.6851 89.8803 183.507 78.8434 179.505 178.161 46.6996 89.8803 100.457 78.8434 46.6996 90.8708 173.336 100.661 185.277 177.311 43.1807 90.8708 83.0497 100.661 43.1807 91.8335 176.917 84.6157 184.447 168.325 47.6901 91.8335 90.286 84.6157 47.6901 70.6978 151.107 99.8318 173.785 197.454 44.1434 70.6978 86.6309 99.8318 44.1434 66.6454 148.591 73.953 158.067 152.766 26.5544 66.6454 64.4764 73.953 26.5544 71.0415 165.577 84.1142 159.721 170.789 40.091 71.0415 84.1143 84.1142 40.091 73.9475 159.662 75.6064 163.705 170.233 30.9504 73.9475 81.4632 75.6064 30.9504 95.2935 169.579 88.0985 193.987 166.483 42.9971 95.2935 78.1985 88.0985 42.9971 91.6252 173.405 105.888 172.36 198.074 52.2964 91.6252 91.3802 105.888 52.2964 72.0515 145.615 66.4715 137.803 145.759 39.3288 72.0515 82.0246 66.4715 39.3288 67.09 134.281 71.3316 151.978 139.564 32.7227 67.09 63.59 71.3316 32.7227 64.8028 135.603 80.6461 145.521 171.32 34.3673 64.8028 70.6909 80.6461 34.3673 71.8604 152.287 64.8752 141.702 141.499 30.4355 71.8604 64.9121 64.8752 30.4355 41.4249 87.3748 76.8269 76.8269 165.864 41.4249 41.4249 87.3748 76.8269 41.4249 51.0608 99.725 198.804 92.4465 101.341 203.321 187.765 101.341 51.0608 99.725 92.4465 51.0608 101.341 51.0608 96.539 199.897 101.98 196.099 200.552 48.6641 96.539 106.358 101.98 48.6641 100.013 206.444 94.1196 196.067 189.963 47.8748 100.013 93.5388 94.1196 47.8748 95.4726 202.473 101.947 185.158 218.214 52.1383 95.4726 112.905 101.947 52.1383 96.9968 209.84 83.2109 191.426 164.913 43.3344 96.9968 89.5671 83.2109 43.3344 104.539 208.09 108.215 206.564 209.175 53.6624 104.539 120.273 108.215 53.6624 104.136 193.045 98.348 205.739 197.628 50.8766 104.136 87.8167 98.348 50.8766 107.501 220.183 107.391 214.828 202.211 53.2591 107.501 105.228 107.391 53.2591 95.8596 207.184 107.437 193.222 215.911 54.2417 95.8596 114.955 107.437 54.2417 73.7617 169.934 85.7844 171.365 173.883 41.6178 73.7617 92.229 85.7844 41.6178 89.6245 171.966 85.5802 194.461 165.278 32.1438 89.6245 77.7046 85.5802 32.1438 94.4062 172.301 108.881 176.42 182.175 57.4807 94.4062 94.2615 108.881 57.4807 92.614 188.863 67.5389 163.331 157.152 36.9256 92.614 78.0393 67.5389 36.9256 103.087 199.113 95.7922 194.425 189.109 55.6884 103.087 110.823 95.7922 55.6884 91.4218 174.964 98.6324 188.059 182.983 47.3987 91.4218 88.2892 98.6324 47.3987 88.6791 175.445 89.4261 175.529 171.507 44.0232 88.6791 86.6745 89.4261 44.0232 89.7573 177.054 86.1029 173.929 165.968 44.6559 89.7573 88.77 86.1029 44.6559 98.6932 194.978 87.8265 188.584 179.678 45.1014 98.6932 88.2842 87.8265 45.1014 80.7345 170.429 100.758 157.838 186.259 53.5918 80.7345 106.694 100.758 53.5918 65.7517 139.709 57.0802 149.763 137.074 27.1427 65.7517 63.7348 57.0802 27.1427 84.8877 176.602 92.6827 166.612 176.329 38.609 84.8877 75.9737 92.6827 38.609 80.7184 177.215 73.9291 144.975 172.115 46.2788 80.7184 100.629 73.9291 46.2788 69.8417 155.076 71.0463 146.775 147.661 34.4397 69.8417 76.5865 71.0463 34.4397 35.402 78.4894 75.7283 75.7283 159.664 35.402 35.402 78.4894 75.7283 35.402 50.2803 103.596 189.513 95.3189 93.762 185.969 175.728 93.762 50.2803 103.596 95.3189 50.2803 93.762 50.2803 99.5605 190.618 92.2074 180.225 170.846 53.3158 99.5605 94.1942 92.2074 53.3158 96.054 201.733 88.0172 190.224 187.971 46.2447 96.054 96.4242 88.0172 46.2447 89.6857 180.654 102.207 188.531 202.286 49.8092 89.6857 105.309 102.207 49.8092 94.4295 164.248 86.3243 197.165 171.078 39.8765 94.4295 75.3456 86.3243 39.8765 102.024 198.714 110.84 195.11 199.772 54.553 102.024 88.9021 110.84 54.553 101.603 206.794 84.2695 179.617 192.7 47.4714 101.603 109.812 84.2695 47.4714 107.327 197.939 95.3479 199.14 186.418 54.1316 107.327 96.9823 95.3479 54.1316 97.3622 182.611 103.792 188.601 190.288 53.1956 97.3622 100.956 103.792 53.1956 97.603 169.228 84.8082 196.208 176.248 44.1666 97.603 81.6543 84.8082 44.1666 104.836 175.486 111.399 207.112 190.889 53.4364 104.836 87.5733 111.399 53.4364 82.0134 167.026 95.7127 175.443 189.936 51.4 82.0134 87.9131 95.7127 51.4 70.7171 157.399 79.7306 159.99 176.495 30.6133 70.7171 79.1125 79.7306 30.6133 91.3376 172.98 80.259 167.368 166.408 40.1038 91.3376 78.2862 80.259 40.1038 96.6367 179.526 87.1089 164.493 185.171 51.2338 96.6367 94.6935 87.1089 51.2338 86.8499 162.03 77.3845 156.005 161.472 45.4029 86.8499 84.8328 77.3845 45.4029 84.172 168.591 78.6207 174.939 164.667 41.447 84.172 77.1976 78.6207 41.447 89.8908 170.958 96.318 178.08 186.838 42.7251 89.8908 91.3936 96.318 42.7251 77.1033 152.904 81.762 154.304 152.243 47.1658 77.1033 79.5647 81.762 47.1658 84.0112 173.695 72.5416 159.651 163.671 29.9375 84.0112 73.3394 72.5416 29.9375 81.7241 171.842 87.1095 155.665 172.231 54.0737 81.7241 100.355 87.1095 54.0737 64.257 142.561 68.5559 156.891 159.621 27.6504 64.257 71.4862 68.5559 27.6504 76.9328 152.249 88.3348 170.569 156.068 36.6066 76.9328 71.0746 88.3348 36.6066 40.3262 81.1742 82.2344 82.2344 159.386 40.3262 40.3262 81.1742 82.2344 40.3262 43.4817 82.3733 157.061 80.4087 86.3741 177.093 154.98 86.3741 43.4817 82.3733 80.4087 43.4817 86.3741 43.4817 80.6641 168.199 90.7193 183.025 170.977 38.8916 80.6641 76.6523 90.7193 38.8916 94.1703 188.523 92.3054 192.277 196.959 41.7724 94.1703 91.5464 92.3054 41.7724 98.8456 192.709 99.9719 194.729 192.692 52.3978 98.8456 96.977 99.9719 52.3978 102.735 206.602 94.7572 198.073 183.411 46.4478 102.735 95.7321 94.7572 46.4478 93.0854 193.758 103.316 187.211 210 56.2873 93.0854 110.87 103.316 56.2873 78.0144 172.324 83.8947 184.867 186.177 36.7981 78.0144 82.8888 83.8947 36.7981 91.8131 178.767 100.972 190.661 191.642 41.2163 91.8131 89.4355 100.972 41.2163 91.2384 183.926 89.6884 176.81 176.383 50.5968 91.2384 89.332 89.6884 50.5968 98.6046 197.909 87.122 197 187.508 40.6417 98.6046 94.5936 87.122 40.6417 102.276 205.338 109.877 205.307 191.326 57.963 102.276 103.315 109.877 57.963 93.4299 199.405 95.43 192.089 195.203 44.3126 93.4299 102.023 95.43 44.3126 89.2724 185.505 96.6592 172.183 186.334 49.1173 89.2724 97.3825 96.6592 49.1173 76.0303 178.599 75.5243 163.443 160.653 40.1552 76.0303 88.122 75.5243 40.1552 67.8567 167.116 87.9189 151.615 185.006 35.8752 67.8567 90.4773 87.9189 35.8752 69.1553 164.108 63.6961 142.561 155.133 31.9815 69.1553 76.6387 63.6961 31.9815 90.7667 182.914 78.8648 173.48 178.954 37.1737 90.7667 87.4694 78.8648 37.1737 88.1891 168.123 94.6153 171.744 171.974 53.593 88.1891 95.4441 94.6153 53.593 77.2003 163.01 77.1292 164.01 150.321 34.5962 77.2003 72.6787 77.1292 34.5962 75.6398 162.206 86.8806 165.888 156.866 42.6041 75.6398 90.3311 86.8806 42.6041 73.9413 160.01 79.0077 158.123 169.582 33.0357 73.9413 71.8752 79.0077 33.0357 92.6337 173.129 79.1155 174.917 179.209 40.9055 92.6337 88.1352 79.1155 40.9055 93.6363 163.206 95.8011 180.126 173.047 51.7282 93.6363 84.9935 95.8011 51.7282 41.9081 78.2122 84.3248 84.3248 150.669 41.9081 41.9081 78.2122 84.3248 41.9081 42.8924 94.7201 168.895 74.571 94.6689 212.634 168.664 94.6689 42.8924 94.7201 74.571 42.8924 94.6689 42.8924 102.361 199.737 117.965 224.436 220.208 51.8277 102.361 94.3243 117.965 51.8277 98.1071 201.127 106.471 205.215 215.313 50.533 98.1071 105.412 106.471 50.533 95.8835 183.394 98.7434 210.696 205.495 47.5741 95.8835 95.7148 98.7434 47.5741 95.338 186.809 111.952 208.638 203.436 48.3094 95.338 87.6791 111.952 48.3094 94.1251 202.419 96.6856 199.093 204.703 47.0286 94.1251 99.1302 96.6856 47.0286 106.853 205.495 102.408 203.441 215.991 47.0966 106.853 103.289 102.408 47.0966 98.8477 189.258 101.033 192.197 194.135 59.7561 98.8477 102.207 101.033 59.7561 85.572 179.966 91.1644 196.921 195.825 39.0916 85.572 87.051 91.1644 39.0916 98.3949 180.925 105.756 215.219 218.444 46.4804 98.3949 92.9146 105.756 46.4804 103.032 181.191 109.463 205.43 188.446 51.9145 103.032 88.0104 109.463 51.9145 98.6593 182.132 95.9665 192.759 181.961 51.1173 98.6593 93.1807 95.9665 51.1173 82.911 161.483 96.7927 178.319 194.616 47.5419 82.911 88.9516 96.7927 47.5419 87.4128 167.059 81.526 170.482 150.216 35.3691 87.4128 72.5311 81.526 35.3691 83.7583 173.023 88.9562 169.13 170.339 52.0437 83.7583 94.5283 88.9562 52.0437 73.4056 169.979 80.1736 172.321 180.399 31.7146 73.4056 78.4945 80.1736 31.7146 82.7133 168.015 92.1478 172.122 174.231 41.691 82.7133 91.4847 92.1478 41.691 83.5553 154.172 79.9743 163.535 160.912 41.0223 83.5553 76.5299 79.9743 41.0223 86.8095 144.177 83.5603 164.1 166.711 42.533 86.8095 77.6422 83.5603 42.533 90.2485 164.242 80.5397 167.26 144.846 44.2765 90.2485 66.5345 80.5397 44.2765 84.1819 188.781 86.7199 168.417 172.247 45.9719 84.1819 97.7073 86.7199 45.9719 82.2829 179.127 81.6973 172.113 170.047 38.2099 82.2829 91.0735 81.6973 38.2099 86.4895 160.51 90.4154 174.141 179.913 44.0729 86.4895 88.0535 90.4154 44.0729 42.4166 72.4569 83.7254 83.7254 159.598 42.4166 42.4166 72.4569 83.7254 42.4166 51.7765 117.914 219.977 94.0933 118.592 239.24 213.549 118.592 51.7765 117.914 94.0933 51.7765 118.592 51.7765 122.076 235.785 120.648 225.708 248.857 66.1372 122.076 125.884 120.648 66.1372 107.108 219.681 105.06 217.306 221.219 55.9385 107.108 109.901 105.06 55.9385 114.812 225.537 112.246 228.03 246.016 51.1693 114.812 109.78 112.246 51.1693 113.3 221.33 115.784 231.601 214.126 63.6428 113.3 115.757 115.784 63.6428 104.968 218.275 115.816 224.42 227.551 49.657 104.968 105.573 115.816 49.657 96.5881 204.63 108.604 193.687 216.211 55.3113 96.5881 112.702 108.604 55.3113 93.3496 200.702 85.0833 196.784 188.541 41.2768 93.3496 91.9278 85.0833 41.2768 111.349 234.303 111.7 220.648 213.838 52.0728 111.349 108.774 111.7 52.0728 116.825 225.965 108.948 216.896 220.57 59.2758 116.825 125.529 108.948 59.2758 102.398 189.216 107.948 194.278 193.645 57.5487 102.398 100.436 107.948 57.5487 94.1 194.445 86.3302 182.499 185.704 44.8492 94.1 88.7803 86.3302 44.8492 95.4077 183.349 96.1685 177.911 210.578 49.2508 95.4077 105.664 96.1685 49.2508 83.0694 153.495 81.7428 164.82 155.508 46.1569 83.0694 77.6844 81.7428 46.1569 85.3715 177.715 83.0771 176.116 167.886 36.9124 85.3715 75.8106 83.0771 36.9124 98.9158 184.651 93.0388 177.552 180.352 48.4591 98.9158 101.904 93.0388 48.4591 89.4087 167.128 84.5129 177.561 155.279 50.4567 89.4087 82.7468 84.5129 50.4567 79.9794 173.45 93.0483 175.725 187.137 38.952 79.9794 84.3817 93.0483 38.952 77.2905 167.38 82.6768 155.149 184.751 41.0274 77.2905 89.0685 82.6768 41.0274 77.0111 152.852 72.4723 166.783 151.125 36.2631 77.0111 78.3114 72.4723 36.2631 84.2353 153.513 94.3107 163.32 172.506 40.748 84.2353 74.5402 94.3107 40.748 89.8298 170.833 69.0091 148.536 149.447 43.4873 89.8298 78.9731 69.0091 43.4873 87.6513 179.001 79.5265 155.137 168.722 46.3425 87.6513 91.8597 79.5265 46.3425 41.3088 87.1416 75.6109 75.6109 165.08 41.3088 41.3088 87.1416 75.6109 41.3088 66.8156 121.326 242.429 119.456 66.8156 121.326 119.456 66.8156 66.8156 121.326 119.456 66.8156 66.8156 66.8156 103.632 234.291 54.5108 103.632 122.973 54.5108 103.632 122.973 54.5108 54.5108 110.198 247.555 49.1216 110.198 111.319 49.1216 110.198 111.319 49.1216 49.1216 113.218 234.606 61.0766 113.218 136.236 61.0766 113.218 136.236 61.0766 61.0766 118.301 220.347 52.1415 118.301 98.3695 52.1415 118.301 98.3695 52.1415 52.1415 119.452 225.487 66.1595 119.452 121.978 66.1595 119.452 121.978 66.1595 66.1595 97.0992 200.122 53.2927 97.0992 103.509 53.2927 97.0992 103.509 53.2927 53.2927 103.434 201.677 43.8065 103.434 96.6132 43.8065 103.434 96.6132 43.8065 43.8065 109.3 200.105 59.6276 109.3 105.064 59.6276 109.3 105.064 59.6276 59.6276 100.071 188.25 49.6723 100.071 95.0408 49.6723 100.071 95.0408 49.6723 49.6723 91.8799 190.134 50.3988 91.8799 93.2097 50.3988 91.8799 93.2097 50.3988 50.3988 88.3987 201.838 41.481 88.3987 96.9241 41.481 88.3987 96.9241 41.481 41.481 82.5036 182.737 46.9177 82.5036 104.913 46.9177 82.5036 104.913 46.9177 46.9177 81.7506 169.899 35.5859 81.7506 77.8235 35.5859 81.7506 77.8235 35.5859 35.5859 90.7444 170.523 46.1647 90.7444 92.0757 46.1647 90.7444 92.0757 46.1647 46.1647 78.6359 150.979 44.5798 78.6359 78.4475 44.5798 78.6359 78.4475 44.5798 44.5798 88.1524 175.287 34.0561 88.1524 72.5319 34.0561 88.1524 72.5319 34.0561 34.0561 95.7457 198.439 54.0963 95.7457 102.756 54.0963 95.7457 102.756 54.0963 54.0963 77.8586 168.496 41.6494 77.8586 95.683 41.6494 77.8586 95.683 41.6494 41.6494 89.7719 170.779 36.2092 89.7719 72.8135 36.2092 89.7719 72.8135 36.2092 36.2092 79.0844 168.44 53.5627 79.0844 97.9658 53.5627 79.0844 97.9658 53.5627 53.5627 58.7057 147.336 25.5217 58.7057 70.474 25.5217 58.7057 70.474 25.5217 25.5217 67.4861 154.801 33.184 67.4861 76.8618 33.184 67.4861 76.8618 33.184 33.184 34.3021 77.9388 34.3021 34.3021 77.9388 34.3021 34.3021 77.9388 34.3021 34.3021 130.138 128.339 62.2285 273.665 128.339 235.76 222.309 116.229 62.2285 130.138 128.339 62.2285 116.229 62.2285 124.306 145.326 269.044 227.028 256.404 67.9092 124.306 145.326 119.531 67.9092 119.602 123.718 256.281 224.16 217.23 56.3971 119.602 123.718 107.497 56.3971 122.139 132.563 254.479 222.055 255.846 63.2046 122.139 132.563 116.663 63.2046 120.75 121.916 240.099 212.481 226.005 58.9347 120.75 121.916 105.392 58.9347 122.812 118.183 240.452 216.234 215.875 61.8149 122.812 118.183 107.089 61.8149 115.748 122.269 227.849 215.776 219.824 60.9973 115.748 122.269 109.145 60.9973 114.049 105.58 206.258 212.381 206.669 54.7508 114.049 105.58 106.631 54.7508 101.84 100.678 184.718 200.072 201.321 59.2985 101.84 100.678 105.751 59.2985 91.6491 84.0402 175.687 197.186 171.342 42.5419 91.6491 84.0402 94.3213 42.5419 110.764 91.6464 199.764 204.39 192.023 49.1072 110.764 91.6464 102.864 49.1072 110.242 108.118 192.763 192.707 193.911 61.6569 110.242 108.118 101.526 61.6569 88.6215 84.6448 164.214 173.705 170.782 48.5853 88.6215 84.6448 91.1812 48.5853 88.1384 79.5694 172.326 168.548 167.148 40.0362 88.1384 79.5694 82.5237 40.0362 96.9155 92.7564 187.481 178.861 172.375 48.1022 96.9155 92.7564 86.0242 48.1022 72.1286 94.7248 170.617 166.665 179.803 48.8133 72.1286 94.7248 92.8365 48.8133 67.1298 75.8921 165.84 152.844 164.543 23.3153 67.1298 75.8921 73.828 23.3153 84.5749 89.9479 166.717 158.86 180.737 43.8145 84.5749 89.9479 79.0159 43.8145 81.6432 76.7694 162.615 163.423 160.784 40.7604 81.6432 76.7694 79.8442 40.7604 83.7961 85.8454 172.235 157.359 167.809 40.8828 83.7961 85.8454 83.5786 40.8828 85.8633 86.3892 163.25 153.054 151.176 42.9133 85.8633 86.3892 73.7807 42.9133 83.3157 76.8605 161.332 154.116 148.011 42.95 83.3157 76.8605 79.2735 42.95 76.212 84.4716 161.22 156.639 149.179 40.3658 76.212 84.4716 74.8424 40.3658 35.8462 76.7479 76.7479 81.7961 159.378 35.8462 35.8462 76.7479 81.7961 35.8462 205.048 93.9703 204.702 172.9 95.3864 105.622 93.9703 54.0007 95.3864 54.0007 204.59 206.079 216.439 102.722 111.078 109.315 51.6215 216.796 210.989 194.813 104.558 93.5123 96.7641 51.1001 227.372 206.916 232.455 99.9156 123.283 114.225 53.458 201.781 204.575 191.836 91.7315 104.089 92.6903 46.4576 195.247 196.972 216.102 93.4218 97.6917 111.884 45.2738 198.644 188.937 173.796 100.028 97.5552 85.088 48.1479 201.732 211.014 204.103 98.332 101.089 103.849 51.8798 187.945 209.556 207.528 98.2316 100.643 107.166 46.4522 187.678 201.709 185.854 105.537 87.3016 102.391 51.7794 186.17 175.968 196.354 93.6263 100.377 99.3181 53.7573 171.93 160.359 165.377 82.4648 85.7929 76.6498 39.869 173.716 181.332 174.055 85.0834 86.1372 83.7096 42.5959 167.198 176.435 187.747 80.4095 87.579 97.6224 42.4875 164.697 165.487 169.388 81.9452 79.619 78.8126 37.922 173.728 181.301 168.422 94.536 85.0777 86.6746 44.0232 179.44 173.011 186.82 85.7141 88.6507 94.6268 50.5127 174.804 170.57 182.02 74.2852 90.7895 78.3842 35.2014 165.978 171.474 175.688 81.7796 84.0142 92.186 39.0838 146.751 147.52 158.849 73.5632 81.9639 79.2879 42.6958 135.938 158.906 157.721 67.1909 64.7871 68.2321 30.8674 135.859 167.297 179.711 70.8002 71.1509 90.6735 36.3236 147.338 165.661 143.043 80.4265 64.7077 76.6234 34.4766 82.6299 89.0374 161.04 45.9499 82.6299 89.0374 45.9499 184.291 78.9297 184.996 155.808 86.4243 99.0793 78.9297 41.3857 86.4243 41.3857 206.662 194.415 201.795 103.358 105.361 98.5721 57.6936 210.473 212.11 209.938 106.431 101.301 95.8434 45.664 196.919 197.968 211.63 107 109.172 116.267 60.7672 206.158 182.661 169.529 112.843 87.747 81.7018 46.2327 194.652 200.24 197.912 103.55 118.411 100.959 66.6104 179.255 194.1 184.685 88.9092 76.241 99.2802 36.9401 209.899 203.294 201.091 112.682 103.014 94.8198 51.9691 205.437 196.573 212.195 111.325 106.885 108.474 60.7133 194.529 167.797 185.657 96.172 98.5521 88.0989 50.6112 175.561 152.992 180.177 82.3416 95.977 79.6977 45.5608 167.502 162.907 169.461 77.8945 79.5842 73.2939 36.7808 188.085 182.93 177.753 96.2486 87.9176 89.6129 41.1137 189.936 177.668 175.303 96.0255 100.168 93.3173 55.1349 173.113 166.432 185.852 83.542 89.7687 84.3503 40.8906 181.513 161.946 159.315 86.7654 83.3444 82.0813 42.6514 189.399 171.716 178.562 87.2969 98.1688 79.8647 44.1141 182.904 177.352 183.683 96.285 91.2303 91.8514 43.1828 168.559 165.495 180.599 89.6943 91.674 85.5011 53.1022 169.819 163.64 172.142 73.9569 76.8851 79.994 36.5921 201.494 181.832 186.377 91.7147 92.9334 83.6465 37.3647 186.896 174.8 199.436 96.4968 108.56 98.1857 54.3499 156.745 160.55 147.641 85.2343 78.3356 76.6148 42.1469 78.4098 83.9353 160.617 43.0874 78.4098 83.9353 43.0874 173.313 76.8784 160.605 169.072 81.9656 85.917 76.8784 45.0386 81.9656 45.0386 205.072 178.593 182.08 91.0579 96.4342 78.6391 40.8784 211.096 200.032 203.82 105.679 108.638 99.9534 50.1795 184.24 184.832 205.014 90.9684 102.458 100.079 55.4993 161.284 173.685 177.282 69.8182 81.782 84.7534 35.4691 187.945 197.362 191.319 96.6892 79.5019 88.9313 34.3491 206.521 199.501 200.857 105.191 108.444 108.431 62.3401 203.387 177.566 211.342 90.6116 98.0771 91.0699 42.8507 192.415 177.936 194.107 85.2486 105.31 86.496 47.7609 171.304 170.929 174.659 71.6246 87.1049 91.4396 37.4877 174.076 173.712 165.292 70.6499 84.1996 79.4893 34.1369 179.712 190.987 191.942 85.0123 89.8767 94.223 36.5131 164.971 182.914 177.947 86.6816 89.8355 96.7645 48.4992 171.219 184.211 156.167 81.6422 75.1359 86.1493 38.1824 172.054 182.149 196.413 82.8896 96.0835 98.0619 43.4597 156.364 170.133 158.66 75.1806 75.971 84.0871 39.4299 172.845 176.566 171.356 84.4192 80.3929 86.0464 35.7507 181.377 161.001 174.88 81.0675 92.4524 90.5197 48.6686 184.182 161.61 167.015 75.8008 88.9251 70.4814 32.3989 188.701 176.25 188.276 89.6836 95.257 91.1289 43.4019 184.32 176.187 178.441 90.1175 93.4436 85.1212 46.2817 160.181 158.799 171.782 78.3037 90.8759 91.0654 43.8358 151.512 144.885 143.787 75.3159 69.305 67.7333 34.468 82.2068 77.152 165.979 40.8479 82.2068 77.152 40.8479 177.839 92.1933 148.863 159.705 68.6055 74.6877 92.1933 36.927 68.6055 36.927 180.828 184.911 184.009 87.5347 85.646 80.2573 37.7607 197.738 197.373 211.78 94.3532 95.182 104.654 49.774 198.056 181.374 201.316 93.8635 102.556 92.7199 44.5792 207.317 195.338 189.539 103.867 95.5 88.6539 49.2843 204.231 208.967 220.976 100.673 111.817 106.684 54.5822 205.679 192.953 198.577 94.3099 92.414 102.283 46.0907 202.061 177.365 193.786 86.9544 113.265 90.6699 48.2192 176.35 187.081 183.777 92.6871 88.7966 86.6946 38.7352 168.646 181.834 186.749 99.3043 87.5538 100.386 53.9519 183.158 181.222 171.123 103.062 81.0922 81.4483 45.3524 190.177 189.448 190.969 105.975 102.066 99.7734 57.71 169.143 174.804 176.246 96.2321 88.1119 89.6749 48.2653 181.361 182.216 164.636 102.569 81.0314 85.1289 47.9668 183.019 188.524 194.616 99.2593 100.33 97.0867 54.6021 173.652 191.526 172.513 94.9529 82.6893 91.4371 44.6572 173.391 177.448 189.555 92.1468 90.9631 100.089 50.2957 160.518 150.55 160.998 79.9336 82.4276 77.3587 41.8511 171.109 143.177 143.767 85.8095 78.0899 73.1917 38.0825 178.016 160.56 140.605 86.5664 93.0188 69.9849 47.727 165.903 190.668 183.725 86.0691 84.997 90.5748 38.8394 155.388 177.339 170.882 80.4949 80.9057 100.093 47.2296 158.254 143.59 164.751 69.5694 74.482 77.2459 33.2653 83.772 66.3443 144.984 36.3041 83.772 66.3443 36.3041 165.874 67.5113 176.239 157.585 73.9953 74.1752 67.5113 31.6786 73.9953 31.6786 214.96 211.085 212.358 97.3761 98.3626 102.244 42.4966 215.358 215.593 220.883 103.02 116.598 108.842 54.8795 192.799 198.235 205.924 87.5104 98.76 106.751 48.1407 203.198 199.501 195.596 91.4713 94.0392 91.4835 39.3696 215.321 221.601 215.273 108.294 109.159 108.018 52.1016 186.684 206.685 214.381 98.6428 106.163 113.583 56.192 175.502 197.762 186.577 90.4101 80.5215 93.1017 42.4507 194.175 217.348 208.484 94.3936 94.9805 104.661 47.9594 189.225 191.67 207.009 82.5301 99.1948 112.687 46.4342 178.934 164.977 170.337 78.1593 90.0303 78.983 36.0959 177.038 183.818 163.243 83.473 88.9039 85.9945 42.0634 171.739 166.513 186.859 78.5717 88.1342 97.8233 41.4096 177.891 150.072 158.746 79.6466 83.6045 68.6895 37.1621 184.11 181.608 182.689 89.2645 94.2862 81.3826 42.4845 188.416 182.309 172.55 96.5736 89.8237 100.225 46.7799 177.162 163.021 168.579 85.3012 98.5921 82.0837 49.7936 144.247 164.088 155.407 70.6168 78.5699 80.9373 35.5076 113.263 147.457 157.64 57.3672 65.6772 83.1504 35.1092 146.314 149.834 129.704 73.9933 47.5858 64.3062 22.2579 188.704 173.877 176.221 104.599 98.7278 85.5276 51.7354 180.245 177.847 160.005 96.8442 89.9762 88.3494 52.8636 151.481 165.371 167.766 74.0209 90.2692 89.4979 43.9806 61.2117 75.873 141.004 30.0402 61.2117 75.873 30.0402 204.069 90.0739 223.166 205.008 94.9572 102.064 90.0739 42.3168 94.9572 42.3168 218.28 244.368 252.493 113.709 113.995 128.209 59.747 211.449 249.93 239.165 112.573 104.285 116.159 53.9622 208.72 232.112 244.981 110.725 107.164 133.77 58.6107 207.67 210.076 209.97 108.03 101.556 98.3419 52.1139 214.333 219.342 215.595 113.307 106.114 111.734 55.9159 214.274 211.065 205.586 108.042 108.219 107.607 57.3912 219.558 205.595 215.569 107.352 106.055 103.458 50.651 221.318 213.759 205.844 122.954 113.503 102.137 56.7013 188.12 197.32 191.866 109.14 107.814 111.622 66.2531 154.645 185.072 177.042 86.8182 80.3062 85.6979 42.887 173.064 213.784 176.027 100.345 74.3389 99.3743 43.9311 173.866 188.175 181.346 87.9412 98.7248 114.41 56.4137 163.544 158.574 164.05 70.4256 75.1416 73.7651 31.5275 171.129 172.122 211.292 92.3433 88.4026 84.8091 38.8981 152.714 158.079 161.702 85.7352 82.7268 87.3129 53.4452 146.824 164.855 145.803 77.7197 69.9868 70.7658 32.29 168.8 196.164 165.411 93.4708 76.8368 94.0889 45.4297 174.081 180.727 184.287 90.0894 91.963 102.075 48.0411 159.611 156.848 155.012 75.8405 82.1182 78.6526 42.0483 147.522 158.633 163.497 69.278 77.4933 78.1953 33.7922 147.526 169.633 165.806 81.0031 70.0285 80.438 35.4858 157.29 178.665 154.317 91.35 77.497 89.1951 45.5173 79.7926 89.4695 168.602 45.8328 79.7926 89.4695 45.8328 253.432 114.934 121.102 114.934 52.6404 121.102 114.934 52.6404 52.6404 52.6404 273.377 130.659 138.497 130.659 138.497 68.4619 68.4619 272.697 137.357 134.88 137.357 134.88 62.197 62.197 246.231 121.388 137.817 121.388 137.817 75.1596 75.1596 217.895 102.046 108.414 102.046 108.414 46.228 46.228 206.849 106.035 109.481 106.035 109.481 55.8183 55.8183 206.881 103.023 97.3677 103.023 97.3677 50.2163 50.2163 201.854 98.2429 109.514 98.2429 109.514 52.8067 52.8067 176.392 90.8047 92.3408 90.8047 92.3408 45.4362 45.4362 180.787 88.1794 84.0513 88.1794 84.0513 45.3685 45.3685 198.423 98.254 96.7353 98.254 96.7353 42.8108 42.8108 184.309 113.439 101.688 113.439 101.688 55.4431 55.4431 171.53 100.233 82.6211 100.233 82.6211 57.9958 57.9958 211.798 88.1486 88.9088 88.1486 88.9088 42.2376 42.2376 201.865 79.7788 122.889 79.7788 122.889 45.911 45.911 154.792 72.3435 78.9756 72.3435 78.9756 33.8677 33.8677 164.391 87.1351 75.8163 87.1351 75.8163 38.4758 38.4758 180.899 102.693 88.5747 102.693 88.5747 48.6593 48.6593 165.218 90.6379 92.324 90.6379 92.324 54.0335 54.0335 158.898 81.0074 72.8942 81.0074 72.8942 36.6043 36.6043 181.781 89.3553 86.0036 89.3553 86.0036 44.4031 44.4031 172.597 88.6301 95.7772 88.6301 95.7772 44.9522 44.9522 165.63 87.3145 76.8202 87.3145 76.8202 43.6778 43.6778 88.8094 43.6367 88.8094 43.6367 88.8094 43.6367 43.6367 143.527 132.191 66.1105 280.722 132.191 242.953 221.179 106.08 66.1105 143.527 132.191 66.1105 106.08 66.1105 144.738 148.531 289.343 246.606 271.375 77.4166 144.738 148.531 136.873 77.4166 136.68 140.812 260.148 248.917 249.05 67.3211 136.68 140.812 109.733 67.3211 132.34 119.335 246.506 259.797 242.328 69.3585 132.34 119.335 139.184 69.3585 119.349 127.17 234.771 229.399 233.539 62.9812 119.349 127.17 120.613 62.9812 117.64 107.601 235.763 219.465 211.279 56.3681 117.64 107.601 108.786 56.3681 112.101 128.162 236.293 210.717 233.829 61.2716 112.101 128.162 110.679 61.2716 92.209 108.131 218.443 195.609 211.888 50.8293 92.209 108.131 100.038 50.8293 82.878 110.312 207.418 172.591 200.448 41.3797 82.878 110.312 95.5705 41.3797 84.0376 97.1067 187.335 166.179 173.524 41.4983 84.0376 97.1067 77.0205 41.4983 89.0002 90.2279 180.355 181.544 188.374 42.5392 89.0002 90.2279 89.1588 42.5392 82.5204 90.1272 168.634 171.986 175.491 46.461 82.5204 90.1272 92.3849 46.461 75.5927 78.5072 172.406 164.226 160.631 36.0595 75.5927 78.5072 79.6008 36.0595 84.1874 93.8992 178.342 170.976 174.703 39.5332 84.1874 93.8992 84.6247 39.5332 90.5656 84.4427 192.433 173.317 187.721 44.6541 90.5656 84.4427 86.3511 44.6541 98.4883 107.99 207.566 177.681 195.969 45.9115 98.4883 107.99 86.966 45.9115 98.7102 99.5763 187.138 192.436 181.646 52.5768 98.7102 99.5763 90.7148 52.5768 82.1423 87.5617 161.409 182.661 181.168 46.1334 82.1423 87.5617 101.721 46.1334 80.9715 73.847 156.141 165.17 168.355 36.0089 80.9715 73.847 80.9393 36.0089 88.4385 82.2944 152.79 161.626 160.876 44.9626 88.4385 82.2944 84.2306 44.9626 77.3865 70.4958 136.349 146.134 136.454 43.4759 77.3865 70.4958 77.3956 43.4759 78.0164 65.8535 141.754 143.075 129.99 33.9106 78.0164 65.8535 68.7379 33.9106 85.0075 75.9004 156.073 151.919 148.683 44.1058 85.0075 75.9004 74.3369 44.1058 40.9017 80.1725 80.1725 77.5817 159.672 40.9017 40.9017 80.1725 77.5817 40.9017 211.833 88.9878 184.637 169.428 77.5136 99.4258 88.9878 39.9695 77.5136 39.9695 231.083 205.172 219.476 101.868 122.845 107.123 59.4562 231.231 216.279 226.37 112.238 108.238 98.049 42.4122 229.361 217.376 221.563 127.457 122.993 118.23 69.8254 210.046 203.364 205.588 110.049 106.368 99.1458 57.6314 209.344 192.926 206.781 101.825 103.678 104.218 52.4178 209.423 188.962 200.692 98.6163 105.667 88.7081 49.4072 193.893 200.616 205.228 103.4 103.757 100.254 49.209 166.553 183.825 185.605 89.713 90.136 100.362 54.1908 174.563 180.499 169.145 82.1418 76.4175 83.463 35.5221 183.509 185.763 184.371 92.5435 98.1457 97.0358 46.6196 167.487 179.073 180.902 89.4653 85.3637 88.7274 45.9239 162.928 180.469 172.169 88.6328 82.1237 90.3452 43.5413 184.083 180.699 166.824 86.7885 80.8043 90.1242 45.0915 191.258 172.323 208.816 82.7515 103.279 90.5751 41.697 170.049 173.94 187.371 79.1925 87.9795 81.7475 41.0545 175.676 195.828 173.867 93.7261 82.0697 92.1928 38.138 188.115 187.138 197.828 100.518 93.6066 103.636 55.5881 173.09 163.063 162.34 84.1985 94.5084 83.5022 44.9304 144.54 169.049 150.222 73.1878 78.582 79.5611 39.2681 130.095 178.526 151.62 68.7471 65.9582 89.4884 33.9197 136.919 155.458 155.638 65.0584 64.1365 89.0379 34.8274 152.282 138.422 137.667 66.9111 72.7826 66.4198 30.2311 79.4998 72.0023 149.708 36.68 79.4998 72.0023 36.68 177.072 80.4403 172.607 153.423 69.3839 85.2113 80.4403 37.544 69.3839 37.544 214.763 217.318 203.425 103.304 96.6316 103.223 47.6673 216.702 209.458 229.284 104.041 118.132 114.095 55.6368 197.79 183.191 186.873 89.9191 98.5704 95.3634 48.4047 202.322 184.78 199.965 93.3145 99.2194 87.8272 41.5143 198.129 182.357 186.111 91.101 103.103 96.9529 51.8002 196.497 191.676 197.237 90.3458 95.0256 85.4043 39.3009 196.94 209.992 204.936 97.2162 101.472 106.271 51.0449 188.197 201.278 202.306 94.1122 95.469 103.72 46.1713 178.953 198.037 196.553 98.3571 92.7277 97.558 47.9409 181.763 196.646 176.995 93.2196 86.2249 100.479 50.4162 185.583 184.307 198.522 89.6073 95.5379 96.1671 42.8034 176.065 170.126 172.048 91.8366 90.0452 88.1401 46.8039 191.557 183.488 161.98 93.9108 86.0193 81.9862 45.0327 204.929 178.736 204.072 89.5711 105.537 101.502 48.8781 191.188 175.931 188.864 94.7478 99.3913 77.2341 40.693 196.018 190.528 172.649 102.102 91.7968 98.697 54.0548 172.053 186.929 198.907 86.6193 104.222 91.8313 48.0475 139.472 187.246 168.739 78.8648 67.8318 95.098 38.5718 157.301 194.879 159.352 95.8617 71.6398 92.1481 40.293 177.163 203.981 172.209 109.779 85.6616 102.731 55.5687 156.387 172.276 181.269 90.3993 91.5018 101.251 54.2106 135.093 147.707 133.112 71.5111 64.8848 71.0258 36.1888 70.2082 76.6812 156.259 35.3223 70.2082 76.6812 35.3223 179.776 72.9825 190.547 170.054 87.1062 87.3956 72.9825 31.8398 87.1062 31.8398 217.946 207.307 195.49 114.014 106.793 103.441 55.5557 199.455 208.801 209.076 105.417 111.153 103.866 58.4582 189.048 197.464 201.245 93.2715 88.3024 104.935 46.9587 183.754 194.916 189.93 91.4656 100.745 92.5286 46.3128 185.22 194.814 176.434 91.2562 83.0082 102.387 45.1528 205.677 212.699 184.665 101.33 102.212 92.4267 46.1035 210.302 227.883 213.493 112.776 103.465 120.272 55.2264 210.663 190.83 209.47 107.166 106.837 107.611 57.5492 194.595 169.022 188.335 99.6799 103.825 83.219 49.6171 193.754 183.522 167.954 103.426 90.77 85.8026 50.0628 184.987 178.902 190.748 94.6999 102.984 97.7192 53.3637 157.963 151.201 162.821 78.2897 82.0029 81.1829 41.3363 174.495 168.369 160.326 89.5772 75.9605 70.0181 36.9535 188.007 172.924 188.575 89.1648 98.5346 98.3511 52.6237 170.325 159.883 161.957 81.1833 89.4729 74.5733 36.5411 175.537 169.67 172.038 88.426 80.8519 85.3096 44.6422 195.593 180.894 171.868 100.31 94.6854 84.3603 43.7838 188.619 193.68 188.434 108.381 100.907 96.5336 56.5262 174.26 190.466 175.325 99.017 87.7119 97.1469 51.8551 176.315 174.036 168.263 94.202 86.5478 93.3194 47.1619 157.994 156.77 158.472 81.8771 89.7671 80.7162 47.0401 154.278 164.881 147.391 76.1959 68.2269 76.0537 34.837 86.0508 88.8268 177.097 41.3588 86.0508 88.8268 41.3588 185.769 97.0715 194.85 183.988 91.0991 103.152 97.0715 55.2664 91.0991 55.2664 186.621 210.877 188.936 93.2934 88.6973 103.751 47.8853 210.867 215.722 206.056 103.384 97.9239 107.126 45.408 202.127 209.481 225.851 104.192 112.943 108.596 57.9763 182.61 215.177 183.966 103.45 89.1846 100.885 46.2157 175.879 210.586 186.313 103.558 93.4253 114.292 57.2346 192.481 199.41 180.287 111.369 82.4534 96.2939 46.3233 212.661 200.199 203.309 115.107 110.028 103.116 65.0456 187.143 183.445 190.956 83.6632 102.633 97.0824 50.0614 161.694 176.037 183.481 69.3417 84.5099 86.3624 33.6018 164.948 180.87 173.752 80.0954 77.1838 89.6742 35.7399 168.583 177.767 167.375 84.2022 87.7641 91.196 44.3555 165.184 166.078 168.869 72.9112 80.8186 86.5712 39.8466 174.406 177.036 164.748 78.792 84.3659 79.507 33.0646 162.524 178.605 193.537 83.7596 90.04 97.5291 45.7274 163.671 170.542 145.416 78.6995 72.4843 81.076 38.0322 168.369 173.105 176.668 81.2439 91.1863 89.4658 40.6674 164.71 154.214 165.892 80.584 77.1831 83.6389 40.5765 175.14 141.195 161.06 85.2992 87.5268 70.5753 40.0074 169.328 163.77 153.958 91.4493 87.6133 70.6197 45.2918 150.42 163.939 162.979 79.8336 81.715 93.1499 46.1575 147.869 158.294 136.924 74.8927 68.7048 70.7887 33.6761 170.21 166.145 156.535 88.6846 79.1641 87.5053 41.2167 91.046 78.6394 159.641 47.468 91.046 78.6394 47.468 187.155 86.9161 193.704 189.238 83.5899 91.6987 86.9161 35.8327 83.5899 35.8327 208.37 222.155 206.876 117.584 100.239 110.114 55.866 221.04 211.214 216.918 112.337 108.132 112.041 61.718 207.69 203.285 221.696 105.289 112.908 99.1727 50.6193 187.67 211.367 194.428 111.727 94.7817 104.112 54.6696 190.721 208.053 199.75 107.028 92.8879 107.255 57.0571 191.114 194.273 196.796 88.0415 97.8335 100.798 49.9706 181.604 197.298 199.568 85.0919 93.2807 93.4749 38.0708 187.294 198.145 189.383 99.7817 88.3234 103.823 47.0211 195.539 185.675 188.058 106.695 98.9707 94.3217 52.7606 176.179 168.602 179.197 100.775 96.5684 91.3536 53.9343 167.662 166.284 137.229 93.565 79.611 77.2483 46.8405 168.433 179.092 179.057 93.1669 88.0507 89.0356 46.7245 183.879 191.363 169.106 98.2441 80.3818 90.0565 46.4424 176.428 173.632 197.968 94.8455 103.497 101.306 51.8017 158.413 158.821 141.197 91.8423 72.9314 72.3254 43.0438 174.19 160.965 164.129 91.8608 85.4813 86.4952 48.7985 162.243 148.959 156.935 73.6303 88.7092 74.4694 43.0623 139.878 139.888 161.299 55.8958 73.5336 74.4898 30.5679 147.608 156.091 149.073 72.3203 66.3443 65.3978 25.3279 149.483 162.349 157.433 84.105 81.2639 90.6935 46.9924 145.59 149.924 143.174 83.4012 68.2187 71.6553 37.1126 145.966 143.4 154.665 77.4601 77.3711 78.2683 46.2886 68.595 65.1313 144.468 31.1715 68.595 65.1313 31.1715 208.96 102.322 234.335 228.844 110.051 102.005 102.322 47.7572 110.051 47.7572 215.423 247.29 235.7 104.571 106.637 124.284 54.2482 217.574 234.217 254.142 98.8764 108.786 123.006 50.323 208.434 222.84 245.772 97.9959 108.787 111.211 48.5534 206.509 215.489 214.361 99.6405 99.6467 111.629 49.4425 205.824 201.84 209.981 101.026 106.862 103.861 50.198 205.249 210.09 201.415 106.232 98.9621 97.9789 50.8276 207.347 215.818 213.101 112.206 106.287 112.111 55.404 190.147 183.951 194.937 98.3632 101.06 103.707 56.8021 171.716 171.588 168.756 78.9803 89.087 80.2439 41.5611 140.246 167.996 194.956 67.827 82.6286 91.3437 37.4192 148.624 143.589 154.554 72.7189 57.6176 76.6523 30.4078 179.731 157.222 150.041 85.9252 91.0068 66.9364 42.3111 183.195 216.768 176.585 93.1186 88.7242 90.2853 43.6141 162.737 200.872 210.103 78.7861 94.471 126.483 49.5045 146.914 149.427 170.205 66.9783 68.2661 74.3895 29.2816 146.873 146.36 170.672 69.1038 78.6475 75.0373 37.6968 155.991 153.535 145.12 75.3289 68.2258 71.3225 31.4071 170.494 158.572 170.531 83.9917 87.7652 82.2122 43.9218 158.898 161.661 147.213 83.771 82.7287 76.3598 40.0699 151.125 170.669 160.961 78.2438 76.1691 85.3016 43.7011 152.25 150.49 159.717 66.5224 74.9557 85.3677 34.5427 153.167 144.255 152.1 65.9396 77.2942 65.1221 31.9797 75.8726 79.1326 165.412 33.9599 75.8726 79.1326 33.9599 255.585 126.522 132.329 126.522 62.2938 132.329 126.522 62.2938 62.2938 62.2938 274.419 142.718 129.063 142.718 129.063 70.0356 70.0356 282.341 135.34 145.356 135.34 145.356 72.6827 72.6827 251.699 124.844 136.985 124.844 136.985 62.6577 62.6577 217.834 115.849 114.715 115.849 114.715 62.1861 62.1861 205.572 100.814 103.119 100.814 103.119 53.6626 53.6626 209.267 103.858 102.453 103.858 102.453 47.1514 47.1514 200.691 103.611 106.814 103.611 106.814 56.7068 56.7068 173.546 85.5874 93.8766 85.5874 93.8766 46.9046 46.9046 191.997 92.6073 79.6691 92.6073 79.6691 38.6828 38.6828 209.264 100.169 112.328 100.169 112.328 53.9245 53.9245 155.971 70.8698 96.9362 70.8698 96.9362 46.2445 46.2445 146.895 71.2965 59.0343 71.2965 59.0343 24.6253 24.6253 203.493 123.649 87.861 123.649 87.861 46.6712 46.6712 217.57 122.086 115.632 122.086 115.632 76.9781 76.9781 193.963 82.4484 101.939 82.4484 101.939 45.1079 45.1079 168.918 77.2559 92.0246 77.2559 92.0246 37.3405 37.3405 159.66 78.2058 76.8938 78.2058 76.8938 39.9154 39.9154 147.251 74.5803 82.7662 74.5803 82.7662 38.2904 38.2904 149.276 77.8904 64.4847 77.8904 64.4847 36.2899 36.2899 169.553 92.4255 84.7917 92.4255 84.7917 41.6005 41.6005 159.568 83.9673 84.7616 83.9673 84.7616 50.825 50.825 164.346 78.3151 74.8059 78.3151 74.8059 33.1424 33.1424 89.5399 45.1727 89.5399 45.1727 89.5399 45.1727 45.1727 137.194 127.66 66.0805 263.409 127.66 249.601 234.27 115.099 66.0805 137.194 127.66 66.0805 115.099 66.0805 144.605 135.749 275.367 273.82 253.869 71.1139 144.605 135.749 134.503 71.1139 123.468 139.618 256.945 242.461 265.275 73.4913 123.468 139.618 139.317 73.4913 114.166 117.327 236.084 216.07 217.528 49.9768 114.166 117.327 103.144 49.9768 115.422 118.757 226.489 215.419 224.572 64.189 115.422 118.757 112.926 64.189 118.123 107.732 228.284 225.642 222.266 51.2329 118.123 107.732 102.493 51.2329 124.192 120.551 229.35 234.999 242.458 66.8905 124.192 120.551 123.15 66.8905 126.234 108.799 234.495 216.727 217.621 57.3016 126.234 108.799 111.849 57.3016 124.54 125.697 228.86 201.381 208.354 68.932 124.54 125.697 104.877 68.932 103.297 103.164 210.546 195.718 192.218 55.6084 103.297 103.164 96.5038 55.6084 91.3549 107.382 196.587 182.321 199.683 47.6886 91.3549 107.382 99.2147 47.6886 86.114 89.2055 166.131 164.136 163.592 43.6662 86.114 89.2055 83.106 43.6662 96.8137 76.9258 176.043 171.109 155.721 42.4478 96.8137 76.9258 81.0301 42.4478 94.1545 99.1174 191.069 191.449 175.558 54.3659 94.1545 99.1174 90.0787 54.3659 101.867 91.9514 202.861 210.374 198.813 39.7886 101.867 91.9514 101.37 39.7886 109.078 110.91 194.45 199.935 206.552 62.0783 109.078 110.91 109.003 62.0783 88.4278 83.5403 162.64 170.378 165.943 46.9995 88.4278 83.5403 90.9312 46.9995 79.2663 79.0998 158.669 166.863 159.016 41.4283 79.2663 79.0998 79.4469 41.4283 75.1698 79.5693 157.677 164.062 176.068 37.838 75.1698 79.5693 87.416 37.838 64.3517 78.1074 139.965 135.704 151.369 37.3318 64.3517 78.1074 76.6457 37.3318 58.9629 61.8574 122.981 120.311 121.675 27.0199 58.9629 61.8574 59.0584 27.0199 63.7376 61.124 127.745 135.598 129.943 31.943 63.7376 61.124 61.2521 31.943 71.0653 66.6209 132.236 156.437 146.172 31.7946 71.0653 66.6209 74.3461 31.7946 39.2707 65.6154 65.6154 82.0906 148.999 39.2707 39.2707 65.6154 82.0906 39.2707 224.73 106.61 204.268 195.395 91.9145 112.407 106.61 49.0183 91.9145 49.0183 243.777 240.674 212.227 129.214 118.12 112.353 63.3886 225.857 231.654 245.586 118.993 125.657 128.321 65.8258 206.016 209.775 207.064 101.904 100.201 103.333 53.1675 220.35 209.005 217.518 99.9967 105.816 106.442 48.7369 236.441 214.547 211.008 107.519 114.534 102.563 51.2598 230.729 216.958 229.418 110.807 121.907 111.984 56.2593 191.479 190.217 201.618 90.4929 108.822 104.974 54.5478 171.712 170.925 176.738 76.8405 82.6573 85.2428 35.9451 181.355 173.017 168.108 92.4214 89.0543 85.6821 40.8954 166.688 179.509 185.971 90.9658 92.3009 87.3349 51.5261 153.182 173.998 170.491 78.0221 74.3866 92.1742 39.4397 155.236 158.523 174.14 74.2951 78.7957 81.8237 38.5823 183.302 194.94 159.061 97.2944 76.4405 76.6994 35.7128 202.503 223.864 203.522 108.507 106.861 118.241 61.5816 178.044 187.297 202.342 90.8567 95.6415 105.623 46.925 162.319 175.866 151.168 81.9503 82.403 81.6737 43.9317 176.414 173.031 170.516 87.5966 79.9159 94.1926 38.0186 169.76 149.499 172.968 88.8919 96.4983 78.8379 49.578 133.08 132.792 155.712 71.3524 73.2617 70.6608 39.3139 128.636 128.732 127.942 61.3476 59.8179 62.1314 32.0385 148.37 137.848 143.041 71.8607 68.8186 66.6004 29.3092 162.935 148.953 143.556 85.3713 79.5513 71.2475 42.5515 83.3837 77.7057 148.03 42.8198 83.3837 77.7057 42.8198 182.892 88.7852 184.241 162.22 84.0389 91.8606 88.7852 42.8962 84.0389 42.8962 214.036 215.391 193.844 111.459 94.1073 100.202 48.9643 226.792 206.699 223.217 112.661 119.929 115.189 62.495 218.566 203.647 200.332 107.871 106.863 91.5094 50.1657 208.176 201.296 227.806 109.008 111.703 112.138 57.7051 203.985 200.991 172.034 107.028 96.4739 89.1584 51.3029 200.307 210.498 215.388 106.151 107.511 111.833 55.7247 186.877 197.251 190.149 99.7243 92.796 98.665 50.4266 173.134 197.581 182.401 94.0845 94.0806 98.5859 49.2977 172.724 175.511 188.547 80.5956 79.0536 98.9951 44.7868 189.775 178.871 175.292 88.5432 93.67 76.516 35.8088 191.449 186.263 195.323 95.9758 96.1046 102.355 52.7344 177.965 163.902 171.345 84.228 95.3444 83.908 43.2413 179.282 182.564 160.961 97.6459 82.6205 79.9937 40.9866 203.362 214.2 184.452 115.358 96.6612 102.57 56.6593 175.466 185.582 191.235 96.4403 106.701 111.63 58.6983 159.365 181.027 133.989 93.9161 68.7648 73.9517 37.7421 167.069 180.717 167.762 85.434 90.5997 107.076 56.174 158.92 140.845 167.729 60.6068 76.4697 73.6411 29.26 150.574 136.682 160.94 61.4397 82.4499 67.2037 31.3468 142.346 149.497 127.746 67.3841 68.1237 69.4788 30.0929 138.227 142.104 159.109 65.9873 74.222 80.0183 37.2913 128.651 141.664 133.34 63.5819 64.0048 62.0858 28.696 64.6463 79.5779 152.684 34.8859 64.6463 79.5779 34.8859 173.172 73.4353 174.997 171.238 82.9478 92.38 73.4353 41.1426 82.9478 41.1426 203.025 197.26 200.803 103.932 99.7368 92.0494 51.2374 196.756 201.52 215.342 94.0381 103.288 105.21 52.6943 209.572 193.712 187.224 95.7764 93.4686 96.3103 41.3437 191.663 171.448 200.491 92.2881 116.103 97.4015 54.4327 183.436 166.285 150.023 93.9639 75.5598 74.0461 37.8555 205.23 185.459 183.199 104.347 107.877 92.2385 56.1084 185.673 195.08 180.843 97.5265 97.3534 93.2206 48.2383 197.813 206.976 181.579 103.497 88.32 101.86 49.2882 191.115 187.268 200.773 94.9156 109.493 105.116 54.2083 180.841 175.18 156.567 90.3276 81.6219 82.1512 40.7072 175.22 174.668 189.961 90.287 99.2189 93.0289 49.6203 154.342 171.947 188.762 79.6737 76.001 81.6386 40.6666 166.132 180.532 169.189 84.9179 78.341 90.3083 39.007 172.325 177.607 169.847 98.8426 87.7909 90.2235 45.9108 149.758 174.112 156.289 89.1414 84.5339 87.3839 52.9318 142.387 174.237 156.579 87.1112 65.2244 86.7286 36.2096 168.422 179.409 152.503 95.2827 77.1626 87.5082 50.9016 169.75 170.079 172.346 80.2379 91.2593 91.9005 44.3811 138.112 153.122 182.433 75.2427 78.4904 78.1784 35.8568 144.509 152.699 126.689 82.1129 59.6221 74.9434 39.3859 154.222 149.093 151.177 76.1169 84.8869 77.7558 42.727 157.372 159.607 144.559 78.0818 69.335 71.3372 33.3898 88.0375 88.2701 167.67 44.692 88.0375 88.2701 44.692 198.869 97.8026 178.073 200.956 92.8885 82.6172 97.8026 41.8052 92.8885 41.8052 213.12 184.114 200.479 93.3279 101.066 85.1846 40.812 205.81 216.185 211.361 107.482 112.054 98.9297 52.5159 178.144 200.337 213.024 97.9354 93.7555 117.256 54.9665 158.851 155.102 176.333 79.1595 84.3883 83.0809 42.9688 149.786 156.014 158.111 72.3208 74.463 72.0215 36.1907 158.812 184.185 179.407 81.1124 75.3227 83.993 36.1301 176.748 194.066 194.231 97.5539 83.4893 100.192 44.9823 184.539 190.992 174.6 103.48 93.2587 93.8739 52.5716 166.225 181.196 188.632 92.352 91.2799 97.1182 50.9081 165.687 160.257 166.358 84.8525 74.9451 84.0779 41.4439 203.503 158.477 165.965 84.3805 90.7423 76.1791 43.4086 203.608 167.539 204.49 92.2732 112.761 82.2981 40.9719 172.904 181.249 176.433 95.614 90.8478 85.2407 51.3013 153.812 160.348 179.057 78.7647 82.0562 96.0079 44.3126 163.11 151.541 143.453 84.9711 71.7554 64.3397 34.4521 166.695 169.455 164.643 87.1256 91.3543 87.2018 50.519 156.428 172.739 176.379 84.126 75.3407 82.2534 36.6066 185.03 173.823 156.626 89.8409 81.0869 90.4851 47.5194 171.01 153.167 184.64 77.879 103.943 83.338 42.3215 133.357 135.964 135.443 70.5862 67.067 69.829 35.5575 141.514 135.165 132.429 72.9762 66.2899 66.1348 35.0288 154.856 150.032 139.134 81.5255 75.224 69.0299 37.9474 79.6321 81.0016 167.013 43.5781 79.6321 81.0016 43.5781 202.566 103.153 202.41 194.968 105.649 95.456 103.153 51.0833 105.649 51.0833 198.719 201.639 209.807 90.7865 99.4127 96.7617 44.3726 218.575 227.4 231.252 108.703 99.3065 104.877 46.4139 211.213 212.839 240.872 102.401 119.268 122.523 62.2891 175.593 182.811 193.695 75.9429 91.9445 90.3163 40.1121 187.733 188.492 202.165 83.6936 83.6483 92.4951 35.8308 214.826 202.09 199.896 103.073 104.085 95.9974 47.8628 192.083 191.653 203.801 96.5122 110.741 106.093 55.2099 178.694 179.296 172.832 87.5124 81.3416 85.5602 41.3023 188.766 181.579 193.426 88.8441 97.3525 93.736 46.2101 166.636 147.824 172.998 75.4045 91.4134 87.8434 42.634 166.952 150.002 142.41 74.0967 75.2224 59.9803 32.7705 177.315 169.071 195.127 75.2656 91.7293 90.0219 41.3262 182.586 175.711 177.353 85.6347 85.5853 79.0495 33.9394 168.698 165.534 182.715 81.5829 97.001 96.6618 51.6953 144.987 146.506 138.376 66.5704 71.6973 68.872 29.8876 174.327 160.099 157.578 82.3297 73.2892 77.6336 36.6828 176.578 169.275 178.682 88.6125 101.038 82.4655 45.6468 156.237 170.484 165.344 83.9821 75.5396 86.809 42.9657 149.074 150.415 175.404 75.2879 80.6971 83.6752 41.0164 134.516 138.259 156.52 65.3775 68.3765 66.7395 34.2715 130.05 147.916 139.436 62.1886 66.1396 71.519 31.106 151.291 155.733 130.049 68.5061 63.9103 76.397 31.0825 87.3804 79.3362 161.792 37.4235 87.3804 79.3362 37.4235 202.21 91.8151 230.21 210.759 118.793 106.954 91.8151 54.5652 118.793 54.5652 242.34 242.553 242.649 110.852 110.395 111.417 52.389 253.549 265.697 257.108 118.697 131.946 131.136 58.4631 223.354 237.294 261.633 110.438 121.603 134.561 60.234 220.268 208.853 226.896 106.868 101.751 102.733 50.2042 214.328 209.556 226.619 104.799 118.517 106.121 56.6643 188.87 204.426 198.832 99.0176 95.8109 103.436 48.1345 184.55 192.22 193.804 95.1409 93.0596 100.99 50.8831 187.564 179.742 194.376 91.7838 91.4902 91.2298 44.2579 177.658 192.125 192.046 92.7353 96.074 88.5122 47.5259 148.772 181.514 188.055 72.4191 81.5842 103.613 45.2094 170.585 161.006 161.129 75.9054 67.1876 77.9015 27.2098 195.165 169.405 195.951 93.8057 103.398 83.1047 48.6957 177.481 169.92 189.413 90.0765 91.7673 86.2999 45.1101 152.392 179.435 177.989 83.9509 85.7137 83.62 44.9664 150.967 191.45 163.324 79.9353 66.6786 95.8155 38.9845 161.933 169.432 179.434 77.7695 84.2889 95.6348 40.9508 167.449 162.116 154.969 80.662 77.6444 73.7971 36.8187 184.511 159.173 174.914 86.5021 89.8046 88.3191 43.8433 182.85 146.513 159.956 75.1268 94.7066 70.8536 42.6588 161.44 150.009 180.847 72.881 88.1431 75.6592 32.468 139.436 161.328 135.563 85.7275 73.2967 74.3496 40.413 140.551 173.258 148.869 87.2272 66.139 86.9781 45.3145 74.4117 86.2799 153.62 41.9127 74.4117 86.2799 41.9127 251.199 118.944 123.256 118.944 64.2281 123.256 118.944 64.2281 64.2281 64.2281 257.417 131.701 132.255 131.701 132.255 59.0275 59.0275 265.191 147 125.162 147 125.162 72.6731 72.6731 265.175 126.856 140.03 126.856 140.03 74.3271 74.3271 233.247 101.985 125.145 101.985 125.145 52.5285 52.5285 211.123 104.758 108.102 104.758 108.102 49.4564 49.4564 203.766 105.408 103.021 105.408 103.021 55.3011 55.3011 203.631 97.0791 100.745 97.0791 100.745 50.1072 50.1072 198.858 87.9583 102.886 87.9583 102.886 46.972 46.972 202.443 99.3896 95.9723 99.3896 95.9723 40.9863 40.9863 200.412 109.095 106.471 109.095 106.471 58.4033 58.4033 186.495 85.1008 93.9415 85.1008 93.9415 50.6918 50.6918 190.2 75.5988 92.5536 75.5988 92.5536 34.409 34.409 189.921 79.8434 97.6461 79.8434 97.6461 41.1898 41.1898 188.92 95.4845 92.2749 95.4845 92.2749 38.6535 38.6535 191.79 111.515 96.6453 111.515 96.6453 56.831 56.831 172.47 91.6625 95.145 91.6625 95.145 54.6841 54.6841 162.434 81.4542 77.3247 81.4542 77.3247 36.9784 36.9784 150.359 72.6705 85.1094 72.6705 85.1094 44.4757 44.4757 157.953 71.386 65.2499 71.386 65.2499 28.1948 28.1948 154.97 77.1278 92.7034 77.1278 92.7034 43.1912 43.1912 144.996 75.6002 62.2662 75.6002 62.2662 33.9366 33.9366 161.939 86.0308 82.7301 86.0308 82.7301 41.6636 41.6636 79.2087 44.3672 79.2087 44.3672 79.2087 44.3672 44.3672 126.214 117.336 61.5796 248.382 117.336 238.537 236.757 119.171 61.5796 126.214 117.336 61.5796 119.171 61.5796 130.762 131.046 251.826 245.324 246.81 64.6348 130.762 131.046 119.366 64.6348 133.477 120.78 248.283 240.341 239.608 66.1269 133.477 120.78 125.958 66.1269 121.918 127.502 242.335 226.03 240.234 67.3506 121.918 127.502 114.384 67.3506 111.067 114.833 227.806 231.42 225.488 54.5678 111.067 114.833 111.646 54.5678 110.16 112.972 223.579 239.082 223.769 56.4995 110.16 112.972 119.774 56.4995 105.158 110.607 213.179 225.08 230.385 53.6606 105.158 110.607 119.308 53.6606 108.262 102.572 217.399 209.248 196.595 51.497 108.262 102.572 105.771 51.497 104.32 114.826 214.672 199.191 218.021 56.7647 104.32 114.826 103.477 56.7647 107.249 99.8459 209.27 196.182 191.847 47.5551 107.249 99.8459 95.714 47.5551 105.233 109.424 212.835 180.954 189.997 59.6934 105.233 109.424 100.468 59.6934 80.0173 103.412 189.074 155.177 169.619 45.5392 80.0173 103.412 80.4861 45.5392 79.2295 85.6623 171.08 160.171 177.285 34.478 79.2295 85.6623 74.6914 34.478 96.9143 85.4177 181.672 182.921 168.621 44.7515 96.9143 85.4177 85.4792 44.7515 100.995 96.2539 198.356 194.991 190.776 52.1628 100.995 96.2539 97.4423 52.1628 85.3725 102.102 183.223 172.56 199.01 48.8318 85.3725 102.102 97.5482 48.8318 74.2122 81.121 159.489 154.581 159.547 36.5407 74.2122 81.121 75.012 36.5407 79.4028 78.3681 154.499 168.22 160.094 37.6715 79.4028 78.3681 79.5688 37.6715 82.5069 76.1311 146.321 163.375 159.821 41.7313 82.5069 76.1311 88.6516 41.7313 75.6131 70.1901 146.756 137.34 140.972 40.7756 75.6131 70.1901 74.7233 40.7756 64.0185 76.5657 134.173 131.307 153.922 34.8375 64.0185 76.5657 62.6169 34.8375 64.0074 57.6075 131.353 140.517 145.665 29.1811 64.0074 57.6075 68.6905 29.1811 61.1709 73.7458 138.682 138.735 151.22 34.8263 61.1709 73.7458 71.826 34.8263 26.3446 64.9358 64.9358 66.9085 147.165 26.3446 26.3446 64.9358 66.9085 26.3446 235.184 119.421 203.355 195.348 103.48 112.323 119.421 57.5915 103.48 57.5915 234.591 217.139 208.266 114.562 115.764 99.8743 54.7313 231.56 220.996 219.947 106.864 118.827 117.265 59.8308 223.387 214.807 216.92 104.112 112.732 103.731 47.0332 221.452 219.522 234.61 120.353 110.655 111.076 57.0787 230.575 225.879 215.125 128.922 110.797 108.445 63.2743 213.801 214.078 220.852 119.922 119.778 117.434 65.6478 197.217 188.139 184.387 100.986 94.0229 96.6437 54.2743 195.195 173.921 193.718 94.8711 103.194 91.4951 46.7122 172.573 181.062 167.462 88.9338 92.0006 82.4257 48.1589 146.78 176.953 184.487 75.7218 80.5727 98.6361 40.7749 157.83 170.633 167.701 75.1602 66.2073 78.317 34.9469 174.827 174.678 179.469 80.941 91.6228 92.3164 40.2133 177.726 167.643 166.506 86.0072 83.2037 82.3616 40.7277 191.43 182 180.363 93.996 94.5222 85.2815 45.2795 175.333 166.213 183.574 87.1878 96.9076 96.719 48.7165 160.151 145.817 159.639 80.3686 78.4255 69.4941 38.4713 165.416 170.453 148.709 88.8176 81.7259 76.3229 41.8973 154.472 179.181 181.915 80.8681 83.69 94.1301 46.9203 148.139 150.861 178.6 61.7272 70.782 85.0508 33.9478 165.414 142.25 142.23 67.2888 77.3566 65.8102 27.7794 165.532 148.749 164.176 76.5092 88.0574 76.4401 39.5094 159.704 142.633 147.896 77.5636 77.4745 72.3086 36.9997 82.2292 70.3243 148.916 40.5639 82.2292 70.3243 40.5639 168.429 75.9275 171.824 164.324 78.1815 91.0319 75.9275 45.8889 78.1815 45.8889 193.621 201.67 184.415 102.577 92.5016 93.6425 45.143 205.308 216.85 208.296 114.132 101.12 108.027 57.4339 228.143 224.49 203.007 110.695 104.188 108.822 56.6976 228.283 198.543 229.429 99.1685 123.955 115.668 53.9975 205.402 186.43 189.417 96.9573 104.328 82.8754 45.171 191.438 195.039 198.577 94.1557 101.074 103.555 51.7863 180.888 175.299 182.521 87.1523 90.3639 91.4844 42.3694 165.985 173.366 175.235 79.0498 90.524 83.8148 44.783 179.376 188.327 171.65 92.128 75.4615 89.5515 34.2668 205.408 191.745 197.606 101.231 103.915 98.7759 57.8612 189.339 180.406 207.823 95.4732 101.493 92.9687 43.3701 171.149 168.405 158.058 93.737 87.8458 87.4374 52.1031 169.144 162.85 160.486 81.6358 83.3027 80.9678 41.6339 172.507 161.487 173.173 88.0045 85.841 81.8821 40.002 167.88 139.642 162.292 79.0253 86.6664 79.6047 48.0025 148.197 120.724 156.42 65.4484 81.2139 60.0376 31.0228 165.208 154.775 139.972 81.6354 66.9827 60.6867 34.4256 206.043 187.824 190.059 98.3128 98.2249 94.0879 47.2098 172.691 152.004 191.911 89.1339 107.818 93.7366 51.1031 140.992 137.358 124.441 74.9615 64.8736 58.267 38.0308 146.54 150.345 165.948 72.2395 76.1184 79.0906 36.9307 137.108 144.36 148.714 65.0692 70.4216 71.254 35.3088 66.6868 73.1059 141.496 29.7604 66.6868 73.1059 29.7604 180.31 88.3964 197.044 176.702 88.2901 80.7921 88.3964 32.2926 88.2901 32.2926 199.09 218.885 207.685 99.0928 91.9138 108.754 48.4995 205.996 201.045 227.234 102.718 107.177 110.132 50.5934 204.293 194.004 183.699 113.795 98.8194 90.9138 52.1248 190.563 179.067 195.268 99.3747 105.474 103.09 61.6703 182.592 166.937 176.404 89.4726 85.0891 75.9767 37.7043 189.66 178.583 187.268 100.883 97.5031 90.9608 51.7682 176.868 167.341 167.283 88.1469 92.1566 87.6221 49.1151 180.9 175.375 166.409 94.3165 84.7112 79.7189 39.0318 189.88 170.072 179.472 96.1993 96.1885 95.6564 55.2846 200.021 171.348 174.078 90.5132 93.6914 74.4158 40.9147 176.541 204.055 196.282 84.9329 106.329 96.9322 49.5985 147.395 186.003 185.223 74.6683 70.2117 107.123 35.3344 164.516 158.504 150.93 81.214 77.1836 78.8804 39.3339 162.958 148.529 169.887 73.4822 87.3322 79.6237 41.8801 150.831 138.755 153.463 60.6169 75.6257 68.9054 31.6021 148.195 134.845 160.92 55.2758 75.2057 69.8501 29.0148 164.824 145.441 163.704 73.1391 72.9897 64.9951 26.261 175.928 184.701 169.726 89.5117 91.8345 80.4456 46.8781 143.661 156.001 188.6 62.8697 84.0933 104.255 42.6335 149.397 125.167 125.413 62.396 59.5676 51.7457 20.2362 168.122 146.643 165.769 78.105 89.8291 73.421 42.1599 153.102 152.621 150.114 79.2907 78.2927 73.2218 35.9452 74.8091 79.3995 157.987 43.3455 74.8091 79.3995 43.3455 204.077 88.3057 223.361 192.344 108.067 116.252 88.3057 55.9974 108.067 55.9974 235.828 227.725 214.67 119.793 115.771 115.294 60.2542 204.937 208.199 234.344 98.3273 120.057 112.431 59.5383 174.674 189.02 191.903 80.2084 84.8796 95.768 38.7889 181.109 179.342 187.904 79.6918 89.7946 93.2519 41.4195 181.079 181.504 183.097 77.4649 91.3144 86.0899 38.2723 164.891 189.453 198.88 77.6995 89.7649 95.4144 39.1925 156.824 174.765 171.95 79.1941 75.126 94.0384 38.507 164.982 172.241 164.084 81.0589 81.6981 80.7264 40.6871 163.67 173.795 174.584 73.8729 83.284 91.5142 40.3718 170.339 172.066 165.839 80.8348 80.3863 82.2805 33.5011 204.964 211.977 179.208 119.122 89.9524 89.7855 47.3336 188.757 213.384 207.297 111.335 115.011 122.192 71.7887 156.301 174.242 170.802 77.2901 73.7462 91.1923 39.5465 160.392 162.162 162.56 75.0469 82.5548 83.0492 37.7436 163.552 156.555 159.841 78.1386 77.8372 79.113 37.3033 176.429 171.567 171.344 79.5694 85.7146 77.4417 40.8353 168.606 160.267 187.767 72.3016 90.7144 94.1254 38.7341 182.398 167.443 149.034 95.1888 77.8913 66.1414 33.5674 170.352 166.917 187.588 93.1309 104.507 101.302 61.6214 141.785 131.909 150.641 62.7707 65.8452 65.6145 31.5095 147.761 136.399 158.625 68.5377 75.9402 66.2947 31.2611 154.999 156.115 132.799 73.3306 71.8212 70.1044 37.2766 83.1777 86.0109 166.748 36.054 83.1777 86.0109 36.054 202.937 104.038 202.365 183.964 89.3196 107.11 104.038 52.0697 89.3196 52.0697 213.185 239.421 209.939 107.933 98.8986 113.046 55.04 221.31 244.724 247.371 109.872 114.287 126.375 52.8927 205.132 221.728 223.098 108.811 107.023 118.348 56.979 189.892 213.049 194.367 99.6499 98.109 103.379 51.8324 200.898 213.568 206.75 104.039 91.783 109.67 47.8175 205.938 201.606 202.217 111.753 109.115 103.898 56.2219 179.21 184.98 194.192 95.5707 96.8236 97.708 55.5314 173.686 186.962 179.469 91.1817 82.3861 87.2716 40.0393 176.753 184.845 182.838 99.9217 91.2999 99.6904 51.1424 174.709 167.584 160.031 91.2312 85.4528 85.1542 48.7793 181.541 187.535 185.413 92.8549 89.2558 82.4296 42.4519 189.341 203.408 183.267 102.049 92.2857 105.105 50.4031 177.061 184.356 181.862 96.9515 97.0558 98.3031 51.6458 162.008 155.557 155.079 87.1154 80.0048 86.0529 45.3057 167.633 149.448 153.229 78.4161 82.0036 69.5039 41.8097 182.682 176.161 165.013 91.9976 85.6291 79.9445 36.6064 168.195 174.752 179.585 87.9651 97.0526 96.2169 55.3912 154.225 170.264 156.106 72.2545 71.1428 78.5352 32.5739 167.878 181.509 177.401 73.7856 83.0819 91.7284 39.6806 167.481 157.697 186.244 69.1385 84.7963 89.7801 34.105 143.663 121.569 163.369 67.8613 82.6844 67.9172 35.0335 144.548 136.108 116.497 82.7847 60.9783 53.6522 32.8277 83.5701 82.4559 159.71 49.9569 83.5701 82.4559 49.9569 190.967 79.9261 223.199 180.804 91.9662 95.2555 79.9261 37.2499 91.9662 37.2499 244.125 257.204 257.304 131.488 111.041 131.233 58.0056 249.159 253.043 257.605 134.852 133.084 125.972 73.4827 212.333 251.235 246.934 112.916 116.075 127.072 61.3694 211.225 244.662 231.855 113.399 96.258 124.164 51.5467 208.069 215.894 228.65 109.529 114.967 120.498 61.8524 190.471 188.21 193.284 89.8529 93.1022 95.3963 47.6764 194.451 195.961 210.303 89.4089 97.3684 92.8141 42.1766 188.62 206.681 201.138 95.7804 97.0828 103.146 47.2323 166.116 187.976 196.979 84.9229 91.5376 103.534 48.548 170.736 167.67 171.634 76.3526 74.5783 84.4422 36.3749 187.139 196.074 193.192 94.6797 96.1575 83.2275 39.9778 175.787 215.96 198.705 101.359 90.9815 112.846 54.7019 159.88 197.482 181.613 87.4045 84.8057 103.114 46.6572 146.299 161.877 187.401 68.4414 75.0743 94.3686 40.7473 150.609 151.307 147.815 71.0322 71.2252 67.5084 27.6941 161.917 164.971 153.891 84.1637 79.3843 83.7991 43.3381 167.496 167.767 159.042 86.787 82.5326 81.1719 40.8257 179.283 175.698 171.965 98.0091 84.9636 86.5949 45.9613 195.767 194.29 170.795 107.723 94.3189 89.1029 52.0478 182.133 166.401 197.63 88.5588 101.448 105.187 55.6751 136.204 123.104 154.105 53.7082 80.685 61.2132 32.8837 131.659 129.231 141.587 53.3235 55.5191 61.891 20.8245 76.1398 67.3404 158.473 32.499 76.1398 67.3404 32.499 247.141 100.878 127.944 100.878 54.7162 127.944 100.878 54.7162 54.7162 54.7162 270.784 125.716 146.264 125.716 146.264 73.2274 73.2274 255.38 118.191 124.521 118.191 124.521 52.4888 52.4888 266.456 138.319 130.859 138.319 130.859 65.7024 65.7024 249.28 131.263 135.597 131.263 135.597 72.6169 72.6169 213.864 106.366 113.683 106.366 113.683 58.6457 58.6457 213.116 98.3575 100.182 98.3575 100.182 47.7199 47.7199 216.99 106.552 112.935 106.552 112.935 50.6376 50.6376 209.496 110.9 104.055 110.9 104.055 55.9142 55.9142 202.497 103.053 105.441 103.053 105.441 54.986 54.986 194.09 91.3171 97.0559 91.3171 97.0559 48.0673 48.0673 204.758 101.394 97.0346 101.394 97.0346 43.2497 43.2497 204.531 114.601 107.724 114.601 107.724 58.1445 58.1445 209.133 110.078 96.8069 110.078 96.8069 56.4563 56.4563 188.916 93.4356 112.326 93.4356 112.326 53.6213 53.6213 151.096 80.2752 76.5894 80.2752 76.5894 39.8143 39.8143 151.017 80.8072 74.5069 80.8072 74.5069 40.461 40.461 163.511 80.9799 76.5097 80.9799 76.5097 40.3462 40.3462 163.477 77.6888 87.001 77.6888 87.001 40.6336 40.6336 172.659 86.5673 76.4762 86.5673 76.4762 37.0551 37.0551 169.602 77.8418 96.1824 77.8418 96.1824 49.5122 49.5122 159.488 69.3961 73.4198 69.3961 73.4198 28.3296 28.3296 168.402 75.908 86.0682 75.908 86.0682 41.0665 41.0665 82.3336 34.8415 82.3336 34.8415 82.3336 34.8415 34.8415 122.168 124.729 55.7568 252.198 124.729 245.03 247.703 117.586 55.7568 122.168 124.729 55.7568 117.586 55.7568 121.065 127.469 242.595 241.094 240.226 66.4112 121.065 127.469 127.444 66.4112 114.805 115.126 252.715 239.501 238.041 54.6534 114.805 115.126 113.65 54.6534 120.417 137.589 258.544 239.692 260.82 60.1517 120.417 137.589 125.851 60.1517 116.738 120.955 232.971 217.837 232.444 60.2655 116.738 120.955 113.842 60.2655 113.419 112.016 224.767 215.072 210.339 56.4728 113.419 112.016 103.996 56.4728 108.022 112.751 207.449 201.9 224.156 56.9463 108.022 112.751 111.077 56.9463 109.137 94.6977 199.368 205.368 178.429 51.0754 109.137 94.6977 90.824 51.0754 110.353 104.67 208.321 210.676 206.37 58.0617 110.353 104.67 114.544 58.0617 102.021 103.651 205.272 185.661 204.769 52.2908 102.021 103.651 96.1325 52.2908 107.603 101.621 212.049 178.661 206.364 49.7305 107.603 101.621 89.5283 49.7305 109.057 110.428 204.278 191.726 184.833 57.8723 109.057 110.428 89.1327 57.8723 91.8505 93.85 177.544 185.736 189.82 51.1843 91.8505 93.85 102.594 51.1843 84.7573 83.6943 167.663 176.476 163.608 40.6662 84.7573 83.6943 83.1422 40.6662 97.3618 83.9686 176.241 194.796 174.633 44.0911 97.3618 83.9686 93.3338 44.0911 97.851 92.2725 185.685 185.996 183.196 53.2707 97.851 92.2725 101.462 53.2707 85.277 93.4121 174.664 165.06 179.436 44.5803 85.277 93.4121 84.5345 44.5803 75.0964 81.2522 164.735 151.695 164.684 40.6966 75.0964 81.2522 80.5252 40.6966 63.8143 83.4825 156.562 137.418 159.148 34.3998 63.8143 83.4825 71.1694 34.3998 71.1427 73.0791 158.056 157.554 156.017 29.4145 71.1427 73.0791 66.2487 29.4145 70.1546 84.9771 154.018 168.28 169.023 41.7282 70.1546 84.9771 91.3054 41.7282 67.346 69.0409 145.7 156.369 152.659 28.4264 67.346 69.0409 76.9744 28.4264 77.5107 76.6593 155.64 159.651 154.33 38.9195 77.5107 76.6593 79.3943 38.9195 38.5912 78.9812 78.9812 80.2565 151.754 38.5912 38.5912 78.9812 80.2565 38.5912 235.731 122.974 200.259 202.87 91.8676 122.862 122.974 61.829 91.8676 61.829 235.672 211.074 209.886 120.029 112.757 108.391 61.0327 246.146 215.872 211.902 124.696 122.915 102.683 58.9967 234.72 236.723 224.146 119.275 123.231 113.189 65.6989 209.813 230.213 230.226 101.099 111.489 123.534 53.5761 209.729 210.097 218.662 101.653 98.3234 106.679 47.5228 195.137 191.161 210.076 93.8788 111.405 103.418 54.1302 185.432 189.966 180.024 96.2306 83.7312 87.7432 39.7486 202.819 187.259 197.18 100.324 101.7 102.223 56.482 205.861 170.887 183.052 83.6395 101.118 85.0363 43.8417 179.148 175.235 187.323 71.0582 104.743 85.8511 39.7978 170.375 176.536 181.91 82.6699 74.4053 89.3835 31.2604 175.884 171.297 172.668 93.8855 95.9696 87.1522 51.4095 170.579 179.227 171.624 91.7186 79.914 84.1448 42.476 181.589 181.937 176.456 97.4338 90.6647 95.0817 49.2427 176.947 177 172.147 88.1453 90.9238 86.855 48.1911 169.455 162.531 176.146 79.7828 86.0237 90.1453 39.9542 159.097 160.17 161.777 76.5983 83.4318 72.3857 39.8286 158.604 181.334 164.006 73.6039 75.6653 87.7848 36.7697 166.984 169.969 179.705 86.4114 82.9383 93.5487 36.8342 167.664 164.156 156.48 98.1252 84.046 76.42 49.5772 161.289 163.323 174.904 89.0227 83.6183 87.7357 48.548 150.444 154.179 143.824 82.14 77.6708 75.5875 40.4747 72.7727 78.5917 151.965 41.6653 72.7727 78.5917 41.6653 177.025 79.8965 176.915 181.342 86.1423 77.3972 79.8965 30.0386 86.1423 30.0386 186.116 191.042 191.399 91.0446 97.1288 90.773 47.3587 189.903 194.454 190.376 91.1762 88.9872 100.269 43.6859 219.652 207.946 195.175 117.448 100.915 94.1849 47.4903 239.075 220.302 204.116 129.114 118.737 113.761 69.9576 219.009 201.564 212.263 108.444 120.338 106.541 59.1566 194.964 186.059 208.01 97.2821 98.6708 95.0224 49.2875 191.772 182.457 186.363 93.7357 96.2932 91.0361 47.9946 177.413 173.519 193.725 86.9357 95.4791 91.4204 45.7411 164.513 180.929 160.189 87.2479 81.9335 82.0985 41.1946 190.084 213.684 193.277 104.176 82.58 98.8301 46.0533 184.202 185.474 199.998 93.8658 107.504 114.854 58.1231 168.408 150.139 160.937 77.4116 76.6979 70.6201 35.7428 177.501 170.81 174.163 87.5079 91.7098 79.5186 41.6688 167.014 173.979 175.341 84.5029 85.7908 91.2911 45.839 171.346 179.069 155.686 88.855 81.2235 82.6875 38.6639 168.467 175.668 188.376 82.7481 90.1222 96.382 50.1911 166.685 175.257 165.03 83.5722 78.345 79.2858 32.5571 185.107 194.146 168.547 107.73 88.3403 95.9715 51.0151 169.201 164.348 182.629 83.5574 96.7664 98.1743 56.7146 163.72 153.031 155.951 66.0305 72.4341 66.1742 26.8428 157.439 164.317 183.616 74.3005 91.286 86.857 39.1877 145.346 145.85 135.802 72.0392 66.1534 77.4603 35.1128 79.1922 68.39 135.094 36.9264 79.1922 68.39 36.9264 195.716 101.445 187.343 171.544 88.412 99.5181 101.445 56.1037 88.412 56.1037 195.66 216.033 217.447 99.9976 94.2706 98.9312 43.4143 195.648 209.887 206.425 103.278 101.389 117.102 56.5832 179.639 184.964 184.365 90.4979 94.2593 92.7853 46.6946 177.304 192.605 161.263 91.188 85.3793 92.1784 43.8033 201.264 196.734 189.035 93.1196 91.9247 100.427 47.3847 199.409 175.968 203.839 88.7764 109.339 96.3073 45.7349 188.316 166.351 172.991 88.7208 90.0698 79.6605 43.0415 176.501 170.506 181.108 86.5832 98.2457 86.6904 45.6793 188.952 183.478 171.323 93.6807 78.2555 83.8161 40.9039 203.191 199.012 196.281 109.508 110.697 99.662 52.7768 176.733 177.449 177.842 91.6082 92.4939 99.3496 56.7308 166.692 150.149 161.735 72.7271 84.2391 78.0997 34.8773 172.003 162.313 152.375 83.3018 82.4532 72.0495 37.8497 164.013 174.821 167.09 89.4756 89.5501 90.2632 45.452 172.717 175.628 162.449 90.2145 74.4629 84.5575 44.0236 184.939 189.779 177.792 92.9197 98.254 91.0702 46.1909 166.891 187.989 178.205 91.6851 86.6849 98.709 46.7287 166.069 173.625 163.468 86.4161 80.2064 89.2802 44.9564 169.379 158.012 180.381 80.7911 85.8622 84.3448 41.4597 175.848 166.015 163.291 87.0006 83.5172 73.667 39.3314 161.979 169.24 156.864 90.0168 92.3303 92.3483 47.6692 125.551 155.479 136.469 73.8111 69.6487 76.8921 42.3475 55.9023 78.5873 153.868 31.4636 55.9023 78.5873 31.4636 193.275 70.0991 183.652 173.931 84.2767 87.8251 70.0991 32.3083 84.2767 32.3083 228.212 221.288 218.241 116.036 123.176 99.3754 55.5168 195.142 218.048 214.094 106.609 105.036 121.913 60.5187 165.989 190.787 199.819 94.4658 90.1057 96.135 46.0907 172.994 191.659 163.023 101.417 75.8834 94.6517 48.3751 191.61 200.473 186.079 103.615 97.1107 97.0075 53.0421 177.421 181.376 194.161 87.1914 94.4996 103.465 50.5724 165.784 161.269 172.617 77.63 82.9213 77.9111 36.619 175.93 166.428 164.859 83.9232 82.8623 83.3579 41.011 178.652 166.628 180.921 89.7973 93.0675 83.0697 42.9121 170.932 172.981 158.801 89.504 85.5841 83.5587 46.8852 162.843 174.528 174.108 85.8412 85.3477 89.4227 42.6188 147.417 164.715 157.459 77.4222 77.4956 85.105 43.2224 147.461 159.12 158.319 79.011 69.9216 79.6098 34.1998 165.526 160.238 165.287 85.3451 77.5396 79.5104 44.8112 167.525 174.63 174.614 85.4132 87.9863 80.7278 40.5339 171.058 187.544 165.986 96.8596 79.5383 93.902 44.8793 174.781 176.534 165.563 96.3041 91.5197 93.6416 51.9803 177.78 169.179 162.552 87.2089 83.2618 82.8926 44.3238 174.292 171.313 180.153 77.2208 94.5184 86.2864 42.8851 144.308 177.357 164.255 79.0147 79.7739 85.0269 34.3357 131.354 155.025 144.369 79.2237 64.5341 92.3299 44.6791 164.785 143.432 134.784 81.6683 66.8199 62.6951 34.5446 97.9655 80.7369 174.998 47.1237 97.9655 80.7369 47.1237 198.897 103.832 191.538 204.169 94.6445 95.827 103.832 51.9684 94.6445 51.9684 204.123 217.889 204.556 105.253 95.065 96.8938 43.8586 218.771 225.745 229.149 111.438 109.058 120.995 61.394 196.853 195.737 214.824 96.3209 109.713 104.749 50.0443 176.108 188.068 184.038 90.242 87.1396 90.9879 46.2766 188.63 195.399 192.485 96.8584 88.9683 97.0802 43.9654 189.357 194.803 188.478 94.1851 99.6618 98.3188 52.893 171.692 188.681 194.523 83.639 89.6954 96.4839 41.2921 169.85 175.344 181.548 82.5044 81.9968 92.1974 42.3468 161.07 158.024 173.802 76.831 87.853 83.1471 40.1575 161.977 177.861 157.14 83.4774 73.2166 74.8769 36.6734 168.724 181.146 197.549 88.6865 88.7606 102.984 46.8039 168.361 161.721 166.283 87.2926 79.9637 78.1622 41.8826 176.145 152.585 182.475 80.1091 88.3976 83.5585 45.41 174.376 152.751 163.171 74.893 87.7477 69.0261 34.6992 173.075 168.794 178.415 89.2166 86.628 83.7249 40.1939 160.491 168.437 175.204 90.684 86.4473 85.0689 49.0227 153.333 160.939 166.747 80.2302 74.0432 83.3683 41.6613 164.925 163.243 162.653 81.9701 79.2901 77.5711 38.5688 170.116 182.136 177.812 94.0926 85.6346 85.6724 43.4013 164.317 191.916 175.789 98.3421 84.4816 96.4638 50.6913 147.8 158.297 170.818 75.8013 79.8351 95.4521 47.6508 144.997 140.099 152.166 61.7637 67.9645 62.8451 28.1505 77.0322 77.254 149.205 33.6132 77.0322 77.254 33.6132 209.828 100.337 214.909 209.689 88.8374 95.7114 100.337 42.6761 88.8374 42.6761 229.582 257.705 247.544 112.637 109.491 126.072 53.0353 225.202 251.495 251.914 114.306 120.091 131.633 59.6014 202.009 227.553 229.926 99.4164 105.111 119.862 54.7051 200.415 215.843 209.878 97.8261 96.8987 107.692 44.7113 192.333 206.039 216.415 98.5406 103.517 108.152 53.1147 193.644 215.377 197.693 100.618 88.8166 97.8875 45.4259 204.379 215.481 220.346 105.042 104.828 117.489 55.1918 185.5 191.436 199.518 92.8401 99.5513 97.9914 49.8505 169.872 180.637 185.526 81.193 85.9487 93.445 42.9896 192.711 197.157 188.151 94.3831 83.9232 87.1921 38.2035 195.107 195.823 196.539 92.4593 108.788 109.965 56.1797 180.397 164.358 176.99 74.4281 86.3195 85.8588 36.2796 169.501 171.531 174.335 72.4755 94.0779 78.499 38.1485 167.21 173.338 177.303 77.858 75.4236 93.032 34.327 180.544 150.398 166.537 79.5772 91.7866 80.3062 43.5311 181.461 147.963 163.605 77.7531 88.7569 70.0921 36.0462 176.066 163.24 191.326 80.7092 92.7036 77.8704 41.707 175.54 167.062 166.866 81.2734 83.3625 85.3696 39.0023 183.485 174.135 166.126 88.0436 92.1775 81.6922 42.2711 182.291 185.334 177.62 93.5738 91.3072 92.4426 45.7725 175.185 172.588 170.224 82.4959 90.9834 92.8916 47.8013 156.374 170.829 164.577 78.3354 84.2019 79.6963 34.6946 72.1724 91.1329 152.96 43.6408 72.1724 91.1329 43.6408 247.406 109.352 119.198 109.352 46.1613 119.198 109.352 46.1613 46.1613 46.1613 269.877 145.068 138.053 145.068 138.053 73.0362 73.0362 256.639 137.188 131.823 137.188 131.823 72.0318 72.0318 237.795 128.137 124.816 128.137 124.816 65.1566 65.1566 225.877 118.017 112.979 118.017 112.979 62.9802 62.9802 221.775 107.498 112.898 107.498 112.898 55.0368 55.0368 224.395 114.759 108.877 114.759 108.877 52.4616 52.4616 215.484 110.438 115.518 110.438 115.518 62.2973 62.2973 199.543 98.5963 99.9664 98.5963 99.9664 48.1409 48.1409 203.805 99.444 99.5768 99.444 99.5768 50.4554 50.4554 191.979 102.773 104.228 102.773 104.228 48.9886 48.9886 178.422 103.364 87.7515 103.364 87.7515 53.7848 53.7848 170.927 89.9297 90.6706 89.9297 90.6706 49.5792 49.5792 182.136 99.0555 80.2567 99.0555 80.2567 40.3505 40.3505 176.63 95.4802 101.879 95.4802 101.879 58.705 58.705 149.598 70.8211 74.7506 70.8211 74.7506 36.7752 36.7752 173.47 70.2094 74.8477 70.2094 74.8477 34.046 34.046 182.126 82.5308 98.6225 82.5308 98.6225 36.1635 36.1635 157.453 85.7884 83.504 85.7884 83.504 46.3673 46.3673 160.261 86.0912 73.9486 86.0912 73.9486 39.4211 39.4211 165.552 91.7604 86.3123 91.7604 86.3123 46.6701 46.6701 159.615 90.0919 79.2401 90.0919 79.2401 45.0903 45.0903 161.162 92.4938 80.375 92.4938 80.375 45.0016 45.0016 80.7874 47.4921 80.7874 47.4921 80.7874 47.4921 47.4921 130.03 131.132 68.9722 247.124 131.132 242.899 240.453 130.117 68.9722 130.03 131.132 68.9722 130.117 68.9722 121.53 115.992 242.468 237.173 219.112 61.0575 121.53 115.992 112.782 61.0575 137.91 126.476 272.146 259.36 250.744 60.4727 137.91 126.476 124.391 60.4727 138.127 145.67 274.01 253.572 264.83 77.4375 138.127 145.67 134.969 77.4375 116.232 128.34 237.271 224.946 235.02 60.6895 116.232 128.34 118.603 60.6895 111.348 108.932 220.223 219.423 211.031 55.543 111.348 108.932 106.344 55.543 99.4269 111.291 200.72 200.685 227.878 55.8045 99.4269 111.291 113.08 55.8045 90.2305 89.4289 188.83 179.432 181.273 43.6224 90.2305 89.4289 87.605 43.6224 97.9684 99.4009 205.072 200.463 195.519 46.6081 97.9684 99.4009 91.8265 46.6081 103.251 105.672 203.721 225.473 222.435 51.3603 103.251 105.672 108.637 51.3603 104.446 98.0499 201.976 212.536 200.329 51.8906 104.446 98.0499 116.836 51.8906 95.2214 103.926 191.165 182.927 195.168 52.5557 95.2214 103.926 95.7006 52.5557 85.6939 87.2392 177.947 167.692 177.927 42.6658 85.6939 87.2392 87.2259 42.6658 82.9055 90.7082 190.257 161.766 174.346 43.0281 82.9055 90.7082 80.4661 43.0281 78.8792 99.5491 194.114 163.034 178.831 39.8774 78.8792 99.5491 81.2995 39.8774 87.8336 94.5645 174.438 176.636 171.833 39.0018 87.8336 94.5645 81.7345 39.0018 89.3874 79.8732 160.405 179.06 159.473 48.8318 89.3874 79.8732 94.9012 48.8318 89.6383 80.5315 163.575 172.137 164.992 40.5556 89.6383 80.5315 84.1588 40.5556 92.7473 83.044 158.98 177.747 151.597 49.0827 92.7473 83.044 87.9784 49.0827 86.9135 75.9359 151.906 167.486 166.078 43.6646 86.9135 75.9359 89.7687 43.6646 83.8634 75.9704 164.229 153.403 140.887 43.2489 83.8634 75.9704 77.7177 43.2489 78.3542 88.2586 165.8 150.621 165.619 40.6145 78.3542 88.2586 75.6849 40.6145 78.1297 77.5418 154.778 146.433 159.833 37.7398 78.1297 77.5418 74.9359 37.7398 40.39 77.2363 77.2363 71.4974 144.294 40.39 40.39 77.2363 71.4974 40.39 212.44 109.321 212.497 214.866 111.003 112.869 109.321 61.1446 111.003 61.1446 227.388 210.714 207 115.643 103.119 101.495 51.7244 243.428 220.177 221.979 121.45 124.268 109.22 63.9183 225.84 217.65 215.759 115.445 119.16 110.957 57.5319 208.78 218.675 208.656 108.714 106.68 106.693 57.9132 218.686 218.64 214.013 108.076 102.1 111.982 50.8005 208.43 198.94 203.29 101.258 116.587 106.658 57.2752 187.961 187.238 196.083 89.2011 91.8438 92.2813 43.9826 212.881 192.972 188.552 102.495 96.1177 94.9564 45.2184 219.043 199.487 213.111 122.222 116.764 98.0155 57.2765 193.521 193.998 179.386 108.09 102.279 101.472 64.9452 181.93 178.041 188.168 87.7051 91.242 92.5261 43.1449 174.325 172.994 168.269 81.9982 90.6875 85.5153 44.5602 162.92 168.853 180.404 78.8601 83.6379 87.479 37.438 156.55 166.666 165.761 84.1548 79.2817 81.3738 41.4221 156.868 171.293 154.719 88.8021 77.2682 85.2923 42.7327 164.061 175.392 158.91 89.6726 79.6 86.0005 46.0695 153.014 165.612 186.829 82.4988 84.4605 89.3911 43.6032 158.695 162.377 151.348 84.9998 68.5532 76.2208 38.8956 155.058 166.216 156.754 80.5729 90.1419 86.156 46.1041 142.277 167.229 151.542 69.5392 64.9166 80.0601 34.4688 159.651 155.405 175.836 72.2665 77.3601 87.1687 35.0704 149.349 141.61 168.109 68.3035 82.2909 68.2367 37.1961 67.0579 73.3732 137 31.1074 67.0579 73.3732 31.1074 209.426 105.545 195.826 189.453 95.1994 99.628 105.545 49.8579 95.1994 49.8579 201.592 190.734 197.39 95.0714 103.881 100.626 49.7701 194.31 191.097 188.201 98.7263 97.7112 90.1073 45.3013 198.574 191.345 182.222 102.204 96.5987 100.99 53.425 213.888 196.077 199.281 109.961 101.975 90.3555 48.7794 198.617 218.709 199.887 110.565 111.913 105.721 61.1815 190.943 208.314 203.754 97.6819 86.7039 112.987 49.3832 196.673 197.631 193.226 98.0367 104.239 95.3269 48.2987 188.781 180.395 184.239 90.4769 92.4343 102.304 49.738 173.454 172.537 178.243 77.2656 96.347 78.0905 40.7389 174.033 179.591 193.801 85.9079 77.1069 94.4466 36.5267 174.507 175.461 175.29 90.3363 96.9259 85.1443 49.3812 174.348 184.961 175.74 90.9961 77.5816 90.3169 40.9551 183.246 178.694 184.474 89.9927 96.7661 94.6444 50.041 163.93 157.049 159.105 82.5114 86.4796 84.0498 39.9517 156.761 164.993 149.264 82.4907 77.4505 72.999 42.5596 181.678 177.738 175.236 85.719 79.3101 91.9942 39.9311 185.163 158.319 184.145 83.113 102.368 85.744 45.7879 149.407 157.03 156.83 77.377 82.7946 72.5752 37.3251 153.238 174.231 153.088 85.6431 66.6122 84.4544 40.0519 185.102 186.536 166.085 97.6895 86.6258 89.7771 45.5913 184.294 155.101 180.795 83.1389 98.4764 96.7593 52.0983 155.76 125.046 144.549 73.3064 85.8178 58.3418 31.0406 69.9417 66.7044 133.776 42.2658 69.9417 66.7044 42.2658 177.417 83.9075 201.648 155.811 83.1324 96.1978 83.9075 45.3415 83.1324 45.3415 183.999 207.839 198.648 95.6623 93.5094 118.516 50.8563 176.113 180.903 182.911 92.3707 90.4893 89.3234 44.806 182.929 160.664 182.958 89.1408 85.6233 91.5797 47.5647 185.28 157.693 175.803 86.116 97.3059 69.0843 41.5761 205.024 196.14 175.445 108.144 87.9738 88.6086 44.54 206.037 200.862 217.697 110.632 117.05 107.531 63.6042 180.791 187.748 194.58 99.5947 88.987 93.3305 47.0283 173.7 181.925 176.958 89.918 91.8044 94.4176 52.5664 198.59 184.126 182.685 95.2715 81.8956 87.507 37.3516 195.059 175.111 188.755 93.683 116.694 96.6188 57.9199 176.523 162.127 175.948 85.1249 78.3644 78.4921 35.7631 185.866 163.96 183.558 93.9652 98.1581 83.6349 49.3618 160.333 157.152 165.705 88.7015 87.7082 80.3253 44.6034 144.439 154.718 143.489 74.5374 72.6249 76.8264 44.098 167.739 164.614 160.652 82.5024 71.8139 77.8917 30.4393 177.702 166.218 169.623 92.0192 95.9254 86.7221 52.0631 155.812 153.684 156.235 75.2062 81.7763 79.4955 39.9561 160.512 170.224 148.009 79.6526 74.0358 74.188 35.25 165.936 185.66 179.543 88.5884 86.4762 96.0358 44.4025 161.779 154.14 172.411 88.8469 79.4597 89.6241 44.1859 141.05 124.093 135.828 71.9622 82.3191 64.5162 44.6611 122.565 134.857 126.27 51.7398 58.7308 59.5765 27.3012 63.8339 75.2805 163.647 24.4387 63.8339 75.2805 24.4387 177.042 71.9031 208.52 169.786 89.6546 105.45 71.9031 37.7908 89.6546 37.7908 197.56 211.047 212.258 112.177 105.138 118.866 67.6593 189.757 195.865 181.862 88.5325 92.4219 92.1814 44.5175 175.832 172.055 201.436 71.5232 97.3351 103.684 44.015 165.969 157.443 164.849 71.5768 78.4974 68.3712 27.5082 188.119 179.768 166.764 87.9958 87.4715 89.0715 44.0686 206.24 185.402 189.47 90.2295 100.647 90.6961 43.9272 190.747 176.207 207.305 88.1535 105.593 94.7055 46.3023 185.943 179.352 174.707 92.0066 85.1534 81.5012 41.8512 172.85 173.093 190.252 88.8543 100.789 97.8508 50.1554 169.645 159.928 155.283 81.4278 72.0607 75.242 38.6989 182.983 157.04 184.961 77.0021 97.5839 84.6857 42.729 163.397 151.064 170.705 69.995 85.3996 72.3542 34.2732 148.861 164.486 180.695 68.4503 77.9972 78.7095 35.7218 159.702 179.663 168.303 80.1808 70.8636 85.777 32.7284 162.535 165.97 178.772 82.1114 88.8383 93.8865 47.4524 148.155 144.005 147.241 74.1984 73.6971 72.0837 34.659 148.432 151.58 140.167 78.4773 74.4582 71.9212 39.5394 167.04 173.526 159.849 90.5712 73.9734 79.6592 38.938 186.018 173.095 176.107 97.0715 93.0665 93.8666 51.6333 146.46 131.268 167.905 65.2933 92.9518 79.2285 45.4382 121.048 124.129 121.851 52.1304 53.5086 52.0393 19.8551 167.352 166.35 149.278 83.1171 67.5394 72.0893 32.2753 99.813 94.2607 179.257 50.8418 99.813 94.2607 50.8418 205.003 97.8833 217.186 209.864 109.524 103.07 97.8833 51.8638 109.524 51.8638 196.56 215.815 225.864 98.8703 107.12 107.662 51.2064 193.541 218.228 200.559 107.333 89.4399 108.153 47.6639 190.453 203.125 211.065 100.532 104.101 110.075 59.669 165.645 188.455 181.366 85.8659 86.3519 93.0504 40.863 168.116 185.564 179.364 91.7717 79.2927 95.4048 45.0028 190.535 188.199 184.325 95.1721 88.8231 90.1596 46.7689 191.265 187.39 209.286 88.0532 101.712 98.0391 48.4032 179.016 180.005 196.123 87.3454 89.5535 89.3508 39.65 172.685 172.917 171.727 84.2386 89.4627 90.6546 47.6954 170.599 176.828 179.75 78.4998 83.2218 82.2628 36.5431 172.683 182.686 185.521 80.0378 87.3775 94.565 41.9567 188.003 187.038 179.691 81.0687 85.3052 88.1209 38.0811 200.137 193.062 202.765 96.0362 102.698 98.917 42.9876 187.373 188.835 181.43 99.4827 97.4395 94.1452 53.0485 163.477 184.825 178.68 83.8588 89.9334 94.6897 46.4341 139.252 173.514 160.761 69.8065 73.5437 90.1354 37.4247 151.585 168.46 155.385 73.1031 65.7086 83.3785 32.3818 168.916 177.221 173.078 82.9546 85.8761 85.0814 40.7213 157.994 171.465 181.464 76.0237 83.0404 92.1397 42.2334 143.295 154.691 164.002 65.9745 74.9531 79.325 33.7903 150.081 164.688 152.103 71.9983 68.3423 75.3664 32.1842 161.183 161.272 157.687 83.233 81.7387 89.3213 39.814 79.4443 71.9505 148.933 43.419 79.4443 71.9505 43.419 230.725 111.98 242.325 241.793 120.852 114.116 111.98 57.6607 120.852 57.6607 229.864 241.754 245.663 116.945 118.744 121.473 56.4555 218.083 230.346 229.852 110.895 111.12 120.281 60.4896 201.978 212.251 232.14 102.593 106.964 110.065 50.4055 195.085 210.449 194.502 102.589 95.0141 102.186 52.1874 195.573 208.069 204.844 93.7927 100.071 108.263 50.4019 203.076 202.662 218.436 93.0267 95.5016 99.8059 43.3908 214.143 204.383 219.47 99.3367 107.574 102.857 49.6359 188.833 193.607 217.622 92.6599 106.569 101.526 49.7008 178.793 193.039 175.784 88.6788 82.2643 92.0806 42.9591 194.671 187.534 193.748 98.328 96.5283 100.959 45.7197 192.529 177.706 187.182 102.648 98.1431 86.575 52.6082 194.453 186.967 177.333 105.969 94.3859 91.1313 50.0399 184.057 180.106 191.944 97.026 100.067 95.8356 55.9294 172.737 170.502 164.614 89.3522 83.9902 84.2708 41.0966 175.964 179.743 173.033 100.966 88.7468 86.2309 48.2556 176.894 206.968 167.059 103.707 87.217 93.5124 52.7107 176.879 194.952 207.161 95.3568 89.6768 113.456 50.9966 185.625 165.931 162.376 94.2665 87.2018 81.4968 44.3602 187.472 169.611 171.156 95.4411 98.4231 84.4339 49.9064 172.81 162.509 177.363 88.7169 89.0493 85.1769 45.5347 159.709 162.213 158.971 92.6894 83.7611 77.332 43.1821 145.436 146.708 141.674 78.0388 75.9479 84.8806 49.5073 69.4885 61.8269 147.972 28.5316 69.4885 61.8269 28.5316 256.731 129.812 128.208 129.812 63.1911 128.208 129.812 63.1911 63.1911 63.1911 245.651 124.809 126.918 124.809 126.918 65.0173 65.0173 243.909 119.451 118.733 119.451 118.733 59.7913 59.7913 224.664 109.658 125.177 109.658 125.177 59.6593 59.6593 204.261 107.86 99.4875 107.86 99.4875 49.9986 49.9986 227.708 114.276 104.773 114.276 104.773 57.8612 57.8612 234.83 109.636 122.935 109.636 122.935 56.4151 56.4151 222.948 105.046 111.896 105.046 111.896 53.2206 53.2206 204.572 100.947 111.053 100.947 111.053 51.8255 51.8255 190.739 104.361 93.5194 104.361 93.5194 49.1214 49.1214 186.258 89.2059 97.2196 89.2059 97.2196 55.2392 55.2392 171.986 75.0581 89.0387 75.0581 89.0387 33.9667 33.9667 174.824 80.9976 82.9476 80.9976 82.9476 41.0914 41.0914 172.501 83.0804 91.8768 83.0804 91.8768 39.9062 39.9062 164.91 81.1496 80.6243 81.1496 80.6243 43.1742 43.1742 164.128 78.7771 84.286 78.7771 84.286 37.9754 37.9754 197.327 103.261 79.8424 103.261 79.8424 40.8017 40.8017 192.658 99.5956 117.485 99.5956 117.485 62.459 62.459 147.907 71.6642 75.1739 71.6642 75.1739 37.1367 37.1367 161.047 74.1697 72.7329 74.1697 72.7329 34.5275 34.5275 163.523 73.792 88.3137 73.792 88.3137 39.6422 39.6422 140.936 69.5232 75.2095 69.5232 75.2095 34.1498 34.1498 144.21 68.6687 65.7266 68.6687 65.7266 35.3734 35.3734 78.4838 33.2953 78.4838 33.2953 78.4838 33.2953 33.2953 117.095 62.1601 62.1601 117.095 62.1601 216.666 110.336 110.336 62.1601 117.095 62.1601 62.1601 110.336 62.1601 120.938 54.9346 120.938 232.683 106.33 54.9346 120.938 54.9346 106.33 54.9346 134.236 66.0034 134.236 256.213 126.353 66.0034 134.236 66.0034 126.353 66.0034 135.883 68.2324 135.883 246.278 129.86 68.2324 135.883 68.2324 129.86 68.2324 121.039 67.6505 121.039 221.105 116.418 67.6505 121.039 67.6505 116.418 67.6505 108.875 53.3885 108.875 219.486 104.688 53.3885 108.875 53.3885 104.688 53.3885 101.293 55.4869 101.293 208.466 114.798 55.4869 101.293 55.4869 114.798 55.4869 98.5993 45.8066 98.5993 197.36 93.6677 45.8066 98.5993 45.8066 93.6677 45.8066 107.104 52.7928 107.104 217.49 103.692 52.7928 107.104 52.7928 103.692 52.7928 100.47 54.3112 100.47 197.292 113.798 54.3112 100.47 54.3112 113.798 54.3112 97.5297 46.1593 97.5297 182.961 83.4932 46.1593 97.5297 46.1593 83.4932 46.1593 95.9439 51.3705 95.9439 190.168 99.4675 51.3705 95.9439 51.3705 99.4675 51.3705 92.2536 44.5735 92.2536 184.581 90.7008 44.5735 92.2536 44.5735 90.7008 44.5735 107.352 47.6801 107.352 191.411 93.8801 47.6801 107.352 47.6801 93.8801 47.6801 115.234 59.6716 115.234 187.629 97.5312 59.6716 115.234 59.6716 97.5312 59.6716 86.6042 55.5627 86.6042 154.67 90.0981 55.5627 86.6042 55.5627 90.0981 55.5627 71.0174 31.0415 71.0174 145.405 64.572 31.0415 71.0174 31.0415 64.572 31.0415 73.9371 39.9759 73.9371 144.452 80.8332 39.9759 73.9371 39.9759 80.8332 39.9759 66.2326 33.9613 66.2326 139.928 63.6189 33.9613 66.2326 33.9613 63.6189 33.9613 64.9928 32.2713 64.9928 139.478 76.309 32.2713 64.9928 32.2713 76.309 32.2713 80.3656 32.7215 80.3656 153.103 63.1693 32.7215 80.3656 32.7215 63.1693 32.7215 87.4461 47.6441 87.4461 174.831 89.9338 47.6441 87.4461 47.6441 89.9338 47.6441 76.6483 39.802 76.6483 157.694 84.8968 39.802 76.6483 39.802 84.8968 39.802 36.8463 36.8463 36.8463 72.7968 72.7968 36.8463 36.8463 36.8463 72.7968 36.8463 99.5711 48.176 209.369 103.863 103.863 99.5711 48.176 48.176 103.863 48.176 111.745 218.265 105.506 111.745 51.3951 105.506 51.3951 121.978 217.561 112.76 121.978 60.3497 112.76 60.3497 110.395 206.764 104.802 110.395 61.6279 104.802 61.6279 100.066 203.994 101.963 100.066 48.7671 101.963 48.7671 110.611 198.663 102.031 110.611 51.2993 102.031 51.2993 107.172 200.433 96.632 107.172 59.3113 96.632 59.3113 98.7604 197.397 103.801 98.7604 47.8611 103.801 47.8611 110.387 208.691 93.5956 110.387 50.8993 93.5956 50.8993 96.8211 193.009 115.095 96.8211 59.4872 115.095 59.4872 85.431 173.556 77.9141 85.431 37.3339 77.9141 37.3339 94.2244 178.396 95.6418 94.2244 48.0971 95.6418 48.0971 92.3273 175.679 82.7538 92.3273 46.1273 82.7538 46.1273 84.0595 177.313 92.9251 84.0595 46.1999 92.9251 46.1999 72.3951 153.814 84.3875 72.3951 37.8596 84.3875 37.8596 68.066 142.336 69.4263 68.066 34.5355 69.4263 34.5355 74.3879 170.347 72.9095 74.3879 33.5305 72.9095 33.5305 70.515 172.565 97.4378 70.515 40.8574 97.4378 40.8574 73.6953 145.725 75.1271 73.6953 29.6576 75.1271 29.6576 74.4855 142.08 70.5981 74.4855 44.0377 70.5981 44.0377 72.7375 160.15 71.4823 72.7375 30.4478 71.4823 30.4478 87.3844 188.54 88.6678 87.3844 42.2897 88.6678 42.2897 81.0453 163.498 99.872 81.0453 45.0948 99.872 45.0948 35.9505 63.6264 63.6264 35.9505 35.9505 63.6264 35.9505 109.798 55.6872 191.017 94.2532 94.2532 109.798 55.6872 55.6872 94.2532 55.6872 106.52 194.857 96.7637 106.52 54.1106 96.7637 54.1106 95.5836 179.325 98.0932 95.5836 52.4099 98.0932 52.4099 96.3694 190.158 81.2322 96.3694 43.1737 81.2322 43.1737 103.927 203.091 108.926 103.927 53.1957 108.926 53.1957 88.0524 184.932 94.1655 88.0524 50.7317 94.1655 50.7317 93.2608 188.665 90.7662 93.2608 37.3206 90.7662 37.3206 98.6364 179.833 97.8989 98.6364 55.9402 97.8989 55.9402 98.3044 182.086 81.9343 98.3044 42.6963 81.9343 42.6963 96.1883 199.506 100.152 96.1883 55.6081 100.152 55.6081 88.1249 189.5 99.3544 88.1249 40.5802 99.3544 40.5802 84.1712 175.569 90.146 84.1712 47.5447 90.146 47.5447 83.3516 175.253 85.4228 83.3516 36.6264 85.4228 36.6264 93.2531 164.885 89.83 93.2531 46.7252 89.83 46.7252 81.4187 151.32 75.0548 81.4187 46.5279 75.0548 46.5279 74.2698 159.507 76.2654 74.2698 34.8908 76.2654 34.8908 95.9595 181.642 83.2413 95.9595 39.379 83.2413 39.379 102.05 182.656 98.4007 102.05 56.5805 98.4007 56.5805 72.0299 152.889 84.2553 72.0299 45.4695 84.2553 45.4695 67.5949 144.942 68.634 67.5949 26.5604 68.634 26.5604 87.4126 160.344 76.3083 87.4126 41.0345 76.3083 41.0345 101.155 170.243 84.0361 101.155 46.3781 84.0361 46.3781 82.4532 153.278 86.2068 82.4532 54.7772 86.2068 54.7772 27.6759 67.0712 67.0712 27.6759 27.6759 67.0712 27.6759 81.219 38.566 152.81 72.6782 72.6782 81.219 38.566 38.566 72.6782 38.566 88.3364 173.72 80.1322 88.3364 42.6531 80.1322 42.6531 83.7419 184.966 93.5878 83.7419 45.6833 93.5878 45.6833 93.7884 198.098 91.3786 93.7884 38.0585 91.3786 38.0585 99.1637 193.556 106.719 99.1637 55.7299 106.719 55.7299 96.8793 197.002 86.8367 96.8793 43.4338 86.8367 43.4338 95.4042 211.415 110.166 95.4042 53.4455 110.166 53.4455 81.1967 183.79 101.25 81.1967 41.9587 101.25 41.9587 83.7821 177.718 82.5402 83.7821 39.238 82.5402 39.238 103.318 187.314 95.1778 103.318 44.544 95.1778 44.544 101.376 189.592 92.1361 101.376 58.7742 92.1361 58.7742 91.3976 197.379 97.4562 91.3976 42.6013 97.4562 42.6013 91.9011 185.303 99.9227 91.9011 48.7963 99.9227 48.7963 71.6317 152.042 85.3801 71.6317 43.1048 85.3801 43.1048 69.9015 149.423 66.6621 69.9015 28.5269 66.6621 28.5269 85.2369 165.661 82.7606 85.2369 41.3746 82.7606 41.3746 85.6825 159.639 82.9004 85.6825 43.8623 82.9004 43.8623 80.606 150.56 76.739 80.606 41.8202 76.739 41.8202 80.8594 157.328 73.8212 80.8594 38.7858 73.8212 38.7858 77.3474 166.294 83.5069 77.3474 42.0736 83.5069 42.0736 72.9318 154.099 82.7874 72.9318 35.2738 82.7874 35.2738 69.0876 138.005 71.3116 69.0876 37.658 71.3116 37.658 70.8248 155.06 66.6936 70.8248 31.4296 66.6936 31.4296 39.3953 88.3665 88.3665 39.3953 39.3953 88.3665 39.3953 71.5913 34.1122 173.524 80.1318 80.1318 71.5913 34.1122 34.1122 80.1318 34.1122 85.3836 183.073 93.3925 85.3836 37.4791 93.3925 37.4791 101.225 187.433 89.6805 101.225 47.9045 89.6805 47.9045 104.309 194.23 97.7524 104.309 53.3201 97.7524 53.3201 94.392 174.171 96.4781 94.392 50.9891 96.4781 50.9891 100.123 176.467 77.6927 100.123 43.4028 77.6927 43.4028 116.011 211.374 98.7743 116.011 56.72 98.7743 56.72 102.593 205.805 112.599 102.593 59.2909 112.599 59.2909 93.9359 185.607 93.2057 93.9359 43.3022 93.2057 43.3022 83.9956 172.442 92.401 83.9956 50.6338 92.401 50.6338 88.2168 180.316 80.0406 88.2168 33.3619 80.0406 33.3619 105.981 198.626 100.276 105.981 54.8549 100.276 54.8549 93.4017 200.336 98.3505 93.4017 51.1264 98.3505 51.1264 80.4105 184.512 101.985 80.4105 42.2753 101.985 42.2753 79.5212 167.411 82.5261 79.5212 38.1352 82.5261 38.1352 80.4241 160.042 84.8852 80.4241 41.386 84.8852 41.386 73.9569 143.403 75.1572 73.9569 39.0381 75.1572 39.0381 69.9543 148.436 68.2456 69.9543 34.9188 68.2456 34.9188 76.4687 162.431 80.1903 76.4687 35.0354 80.1903 35.0354 88.9468 170.917 82.2403 88.9468 41.4332 82.2403 41.4332 81.1671 158.488 88.6764 81.1671 47.5136 88.6764 47.5136 68.9176 147 69.8117 68.9176 33.6536 69.8117 33.6536 84.2353 162.185 77.1888 84.2353 35.2641 77.1888 35.2641 48.9712 84.9966 84.9966 48.9712 48.9712 84.9966 48.9712 101.933 46.0196 218.541 100.339 100.339 101.933 46.0196 46.0196 100.339 46.0196 97.6894 210.608 118.202 97.6894 55.9134 118.202 55.9134 86.2084 193.396 92.406 86.2084 41.776 92.406 41.776 89.9213 189.306 100.99 89.9213 44.4324 100.99 44.4324 79.7787 172.275 88.3157 79.7787 45.4889 88.3157 45.4889 76.3441 178.124 83.9592 76.3441 34.2898 83.9592 34.2898 95.3627 205.412 94.1651 95.3627 42.0543 94.1651 42.0543 103.212 218.018 111.246 103.212 53.3084 111.246 53.3084 91.6708 187.844 106.772 91.6708 49.9035 106.772 49.9035 88.446 178.56 81.0724 88.446 41.7673 81.0724 41.7673 92.0994 188.443 97.4873 92.0994 46.6787 97.4873 46.6787 92.6449 182.526 90.9556 92.6449 45.4207 90.9556 45.4207 106.934 195.418 91.5701 106.934 47.2241 91.5701 47.2241 104.101 191.133 103.848 104.101 59.7101 103.848 59.7101 87.8902 171.275 87.2845 87.8902 44.3909 87.2845 44.3909 79.6183 154.616 83.9905 79.6183 43.4992 83.9905 43.4992 69.4458 142.632 70.6253 69.4458 36.119 70.6253 36.119 78.4816 160.003 72.0069 78.4816 33.3268 72.0069 33.3268 85.9619 177.32 87.9964 85.9619 45.1548 87.9964 45.1548 81.9699 174.001 89.3238 81.9699 40.8071 89.3238 40.8071 77.3209 161.414 84.6775 77.3209 41.1628 84.6775 41.1628 78.0828 145.102 76.737 78.0828 36.1581 76.737 36.1581 77.95 145.348 68.3654 77.95 41.9247 68.3654 41.9247 36.0253 76.9822 76.9822 36.0253 36.0253 76.9822 36.0253 116.608 54.3198 245.131 120.941 120.941 116.608 54.3198 54.3198 120.941 54.3198 112.919 233.761 124.19 112.919 62.2887 124.19 62.2887 107.188 231.647 109.571 107.188 50.63 109.571 50.63 99.3849 214.391 122.076 99.3849 56.5581 122.076 56.5581 92.4961 188.897 92.3157 92.4961 42.8268 92.3157 42.8268 101.78 215.212 96.5813 101.78 49.6693 96.5813 49.6693 110.049 235.243 118.63 110.049 52.1108 118.63 52.1108 114.806 232.709 116.613 114.806 57.9381 116.613 57.9381 96.1735 199.799 116.096 96.1735 56.8683 116.096 56.8683 90.1137 176.492 83.7031 90.1137 39.3051 83.7031 39.3051 96.3434 193.396 92.789 96.3434 50.8086 92.789 50.8086 89.8809 186.809 100.607 89.8809 45.5349 100.607 45.5349 88.4839 182.311 86.2022 88.4839 44.346 86.2022 44.346 87.0315 176.452 96.1085 87.0315 44.1379 96.1085 44.1379 83.3849 167.146 80.3436 83.3849 42.8936 80.3436 42.8936 74.9975 160.349 86.8019 74.9975 40.4913 86.8019 40.4913 73.1864 167.253 73.547 73.1864 34.5063 73.547 34.5063 81.5217 174.585 93.7057 81.5217 38.6801 93.7057 38.6801 91.3583 167.601 80.8788 91.3583 42.8416 80.8788 42.8416 92.0313 178.908 86.7221 92.0313 48.5167 86.7221 48.5167 84.0936 173.825 92.1861 84.0936 43.5146 92.1861 43.5146 67.0196 138.432 81.6386 67.0196 40.5789 81.6386 40.5789 67.3976 142.939 56.7938 67.3976 26.4407 56.7938 26.4407 40.9569 86.1454 86.1454 40.9569 40.9569 86.1454 40.9569 128.523 66.6214 128.523 66.6214 66.6214 128.523 66.6214 66.6214 66.6214 66.6214 120.842 120.842 61.9011 120.842 61.9011 61.9011 61.9011 124.459 124.459 58.9413 124.459 58.9413 58.9413 58.9413 115.007 115.007 65.5176 115.007 65.5176 65.5176 65.5176 96.4009 96.4009 49.4889 96.4009 49.4889 49.4889 49.4889 113.431 113.431 46.912 113.431 46.912 46.912 46.912 125.195 125.195 66.5194 125.195 66.5194 66.5194 66.5194 117.902 117.902 58.6751 117.902 58.6751 58.6751 58.6751 103.625 103.625 59.2272 103.625 59.2272 59.2272 59.2272 86.3784 86.3784 44.398 86.3784 44.398 44.398 44.398 97.0524 97.0524 41.9804 97.0524 41.9804 41.9804 41.9804 96.9281 96.9281 55.072 96.9281 55.072 55.072 55.072 93.8267 93.8267 41.8562 93.8267 41.8562 41.8562 41.8562 89.4206 89.4206 51.9706 89.4206 51.9706 51.9706 51.9706 83.7607 83.7607 37.4501 83.7607 37.4501 37.4501 37.4501 85.3513 85.3513 46.3106 85.3513 46.3106 46.3106 46.3106 94.0663 94.0663 39.0407 94.0663 39.0407 39.0407 39.0407 93.0629 93.0629 55.0256 93.0629 55.0256 55.0256 55.0256 76.2426 76.2426 38.0372 76.2426 38.0372 38.0372 38.0372 86.8768 86.8768 38.2053 86.8768 38.2053 38.2053 38.2053 89.7311 89.7311 48.6714 89.7311 48.6714 48.6714 48.6714 71.4128 71.4128 41.0597 71.4128 41.0597 41.0597 41.0597 75.5416 75.5416 30.3532 75.5416 30.3532 30.3532 30.3532 45.1885 45.1885 45.1885 45.1885 45.1885 45.1885 45.1885 
CELL_DATA 1536
SCALARS stress float 1
LOOKUP_TABLE default
58.648 60.7455 71.0417 51.3667 52.4579 62.1196 47.9109 52.2298 47.871 47.5122 46.7699 36.9958 64.5856 42.5851 40.4999 36.6561 47.9597 32.7899 35.0338 37.1425 26.9199 39.8748 42.3015 32.9986 51.0353 52.4897 57.6441 54.9356 53.5989 58.4272 45.5009 54.904 47.4208 44.6851 46.6996 43.1807 47.6901 44.1434 26.5544 40.091 30.9504 42.9971 52.2964 39.3288 32.7227 34.3673 30.4355 41.4249 51.0608 48.6641 47.8748 52.1383 43.3344 53.6624 50.8766 53.2591 54.2417 41.6178 32.1438 57.4807 36.9256 55.6884 47.3987 44.0232 44.6559 45.1014 53.5918 27.1427 38.609 46.2788 34.4397 35.402 50.2803 53.3158 46.2447 49.8092 39.8765 54.553 47.4714 54.1316 53.1956 44.1666 53.4364 51.4 30.6133 40.1038 51.2338 45.4029 41.447 42.7251 47.1658 29.9375 54.0737 27.6504 36.6066 40.3262 43.4817 38.8916 41.7724 52.3978 46.4478 56.2873 36.7981 41.2163 50.5968 40.6417 57.963 44.3126 49.1173 40.1552 35.8752 31.9815 37.1737 53.593 34.5962 42.6041 33.0357 40.9055 51.7282 41.9081 42.8924 51.8277 50.533 47.5741 48.3094 47.0286 47.0966 59.7561 39.0916 46.4804 51.9145 51.1173 47.5419 35.3691 52.0437 31.7146 41.691 41.0223 42.533 44.2765 45.9719 38.2099 44.0729 42.4166 51.7765 66.1372 55.9385 51.1693 63.6428 49.657 55.3113 41.2768 52.0728 59.2758 57.5487 44.8492 49.2508 46.1569 36.9124 48.4591 50.4567 38.952 41.0274 36.2631 40.748 43.4873 46.3425 41.3088 66.8156 54.5108 49.1216 61.0766 52.1415 66.1595 53.2927 43.8065 59.6276 49.6723 50.3988 41.481 46.9177 35.5859 46.1647 44.5798 34.0561 54.0963 41.6494 36.2092 53.5627 25.5217 33.184 34.3021 62.2285 67.9092 56.3971 63.2046 58.9347 61.8149 60.9973 54.7508 59.2985 42.5419 49.1072 61.6569 48.5853 40.0362 48.1022 48.8133 23.3153 43.8145 40.7604 40.8828 42.9133 42.95 40.3658 35.8462 54.0007 51.6215 51.1001 53.458 46.4576 45.2738 48.1479 51.8798 46.4522 51.7794 53.7573 39.869 42.5959 42.4875 37.922 44.0232 50.5127 35.2014 39.0838 42.6958 30.8674 36.3236 34.4766 45.9499 41.3857 57.6936 45.664 60.7672 46.2327 66.6104 36.9401 51.9691 60.7133 50.6112 45.5608 36.7808 41.1137 55.1349 40.8906 42.6514 44.1141 43.1828 53.1022 36.5921 37.3647 54.3499 42.1469 43.0874 45.0386 40.8784 50.1795 55.4993 35.4691 34.3491 62.3401 42.8507 47.7609 37.4877 34.1369 36.5131 48.4992 38.1824 43.4597 39.4299 35.7507 48.6686 32.3989 43.4019 46.2817 43.8358 34.468 40.8479 36.927 37.7607 49.774 44.5792 49.2843 54.5822 46.0907 48.2192 38.7352 53.9519 45.3524 57.71 48.2653 47.9668 54.6021 44.6572 50.2957 41.8511 38.0825 47.727 38.8394 47.2296 33.2653 36.3041 31.6786 42.4966 54.8795 48.1407 39.3696 52.1016 56.192 42.4507 47.9594 46.4342 36.0959 42.0634 41.4096 37.1621 42.4845 46.7799 49.7936 35.5076 35.1092 22.2579 51.7354 52.8636 43.9806 30.0402 42.3168 59.747 53.9622 58.6107 52.1139 55.9159 57.3912 50.651 56.7013 66.2531 42.887 43.9311 56.4137 31.5275 38.8981 53.4452 32.29 45.4297 48.0411 42.0483 33.7922 35.4858 45.5173 45.8328 52.6404 68.4619 62.197 75.1596 46.228 55.8183 50.2163 52.8067 45.4362 45.3685 42.8108 55.4431 57.9958 42.2376 45.911 33.8677 38.4758 48.6593 54.0335 36.6043 44.4031 44.9522 43.6778 43.6367 66.1105 77.4166 67.3211 69.3585 62.9812 56.3681 61.2716 50.8293 41.3797 41.4983 42.5392 46.461 36.0595 39.5332 44.6541 45.9115 52.5768 46.1334 36.0089 44.9626 43.4759 33.9106 44.1058 40.9017 39.9695 59.4562 42.4122 69.8254 57.6314 52.4178 49.4072 49.209 54.1908 35.5221 46.6196 45.9239 43.5413 45.0915 41.697 41.0545 38.138 55.5881 44.9304 39.2681 33.9197 34.8274 30.2311 36.68 37.544 47.6673 55.6368 48.4047 41.5143 51.8002 39.3009 51.0449 46.1713 47.9409 50.4162 42.8034 46.8039 45.0327 48.8781 40.693 54.0548 48.0475 38.5718 40.293 55.5687 54.2106 36.1888 35.3223 31.8398 55.5557 58.4582 46.9587 46.3128 45.1528 46.1035 55.2264 57.5492 49.6171 50.0628 53.3637 41.3363 36.9535 52.6237 36.5411 44.6422 43.7838 56.5262 51.8551 47.1619 47.0401 34.837 41.3588 55.2664 47.8853 45.408 57.9763 46.2157 57.2346 46.3233 65.0456 50.0614 33.6018 35.7399 44.3555 39.8466 33.0646 45.7274 38.0322 40.6674 40.5765 40.0074 45.2918 46.1575 33.6761 41.2167 47.468 35.8327 55.866 61.718 50.6193 54.6696 57.0571 49.9706 38.0708 47.0211 52.7606 53.9343 46.8405 46.7245 46.4424 51.8017 43.0438 48.7985 43.0623 30.5679 25.3279 46.9924 37.1126 46.2886 31.1715 47.7572 54.2482 50.323 48.5534 49.4425 50.198 50.8276 55.404 56.8021 41.5611 37.4192 30.4078 42.3111 43.6141 49.5045 29.2816 37.6968 31.4071 43.9218 40.0699 43.7011 34.5427 31.9797 33.9599 62.2938 70.0356 72.6827 62.6577 62.1861 53.6626 47.1514 56.7068 46.9046 38.6828 53.9245 46.2445 24.6253 46.6712 76.9781 45.1079 37.3405 39.9154 38.2904 36.2899 41.6005 50.825 33.1424 45.1727 66.0805 71.1139 73.4913 49.9768 64.189 51.2329 66.8905 57.3016 68.932 55.6084 47.6886 43.6662 42.4478 54.3659 39.7886 62.0783 46.9995 41.4283 37.838 37.3318 27.0199 31.943 31.7946 39.2707 49.0183 63.3886 65.8258 53.1675 48.7369 51.2598 56.2593 54.5478 35.9451 40.8954 51.5261 39.4397 38.5823 35.7128 61.5816 46.925 43.9317 38.0186 49.578 39.3139 32.0385 29.3092 42.5515 42.8198 42.8962 48.9643 62.495 50.1657 57.7051 51.3029 55.7247 50.4266 49.2977 44.7868 35.8088 52.7344 43.2413 40.9866 56.6593 58.6983 37.7421 56.174 29.26 31.3468 30.0929 37.2913 28.696 34.8859 41.1426 51.2374 52.6943 41.3437 54.4327 37.8555 56.1084 48.2383 49.2882 54.2083 40.7072 49.6203 40.6666 39.007 45.9108 52.9318 36.2096 50.9016 44.3811 35.8568 39.3859 42.727 33.3898 44.692 41.8052 40.812 52.5159 54.9665 42.9688 36.1907 36.1301 44.9823 52.5716 50.9081 41.4439 43.4086 40.9719 51.3013 44.3126 34.4521 50.519 36.6066 47.5194 42.3215 35.5575 35.0288 37.9474 43.5781 51.0833 44.3726 46.4139 62.2891 40.1121 35.8308 47.8628 55.2099 41.3023 46.2101 42.634 32.7705 41.3262 33.9394 51.6953 29.8876 36.6828 45.6468 42.9657 41.0164 34.2715 31.106 31.0825 37.4235 54.5652 52.389 58.4631 60.234 50.2042 56.6643 48.1345 50.8831 44.2579 47.5259 45.2094 27.2098 48.6957 45.1101 44.9664 38.9845 40.9508 36.8187 43.8433 42.6588 32.468 40.413 45.3145 41.9127 64.2281 59.0275 72.6731 74.3271 52.5285 49.4564 55.3011 50.1072 46.972 40.9863 58.4033 50.6918 34.409 41.1898 38.6535 56.831 54.6841 36.9784 44.4757 28.1948 43.1912 33.9366 41.6636 44.3672 61.5796 64.6348 66.1269 67.3506 54.5678 56.4995 53.6606 51.497 56.7647 47.5551 59.6934 45.5392 34.478 44.7515 52.1628 48.8318 36.5407 37.6715 41.7313 40.7756 34.8375 29.1811 34.8263 26.3446 57.5915 54.7313 59.8308 47.0332 57.0787 63.2743 65.6478 54.2743 46.7122 48.1589 40.7749 34.9469 40.2133 40.7277 45.2795 48.7165 38.4713 41.8973 46.9203 33.9478 27.7794 39.5094 36.9997 40.5639 45.8889 45.143 57.4339 56.6976 53.9975 45.171 51.7863 42.3694 44.783 34.2668 57.8612 43.3701 52.1031 41.6339 40.002 48.0025 31.0228 34.4256 47.2098 51.1031 38.0308 36.9307 35.3088 29.7604 32.2926 48.4995 50.5934 52.1248 61.6703 37.7043 51.7682 49.1151 39.0318 55.2846 40.9147 49.5985 35.3344 39.3339 41.8801 31.6021 29.0148 26.261 46.8781 42.6335 20.2362 42.1599 35.9452 43.3455 55.9974 60.2542 59.5383 38.7889 41.4195 38.2723 39.1925 38.507 40.6871 40.3718 33.5011 47.3336 71.7887 39.5465 37.7436 37.3033 40.8353 38.7341 33.5674 61.6214 31.5095 31.2611 37.2766 36.054 52.0697 55.04 52.8927 56.979 51.8324 47.8175 56.2219 55.5314 40.0393 51.1424 48.7793 42.4519 50.4031 51.6458 45.3057 41.8097 36.6064 55.3912 32.5739 39.6806 34.105 35.0335 32.8277 49.9569 37.2499 58.0056 73.4827 61.3694 51.5467 61.8524 47.6764 42.1766 47.2323 48.548 36.3749 39.9778 54.7019 46.6572 40.7473 27.6941 43.3381 40.8257 45.9613 52.0478 55.6751 32.8837 20.8245 32.499 54.7162 73.2274 52.4888 65.7024 72.6169 58.6457 47.7199 50.6376 55.9142 54.986 48.0673 43.2497 58.1445 56.4563 53.6213 39.8143 40.461 40.3462 40.6336 37.0551 49.5122 28.3296 41.0665 34.8415 55.7568 66.4112 54.6534 60.1517 60.2655 56.4728 56.9463 51.0754 58.0617 52.2908 49.7305 57.8723 51.1843 40.6662 44.0911 53.2707 44.5803 40.6966 34.3998 29.4145 41.7282 28.4264 38.9195 38.5912 61.829 61.0327 58.9967 65.6989 53.5761 47.5228 54.1302 39.7486 56.482 43.8417 39.7978 31.2604 51.4095 42.476 49.2427 48.1911 39.9542 39.8286 36.7697 36.8342 49.5772 48.548 40.4747 41.6653 30.0386 47.3587 43.6859 47.4903 69.9576 59.1566 49.2875 47.9946 45.7411 41.1946 46.0533 58.1231 35.7428 41.6688 45.839 38.6639 50.1911 32.5571 51.0151 56.7146 26.8428 39.1877 35.1128 36.9264 56.1037 43.4143 56.5832 46.6946 43.8033 47.3847 45.7349 43.0415 45.6793 40.9039 52.7768 56.7308 34.8773 37.8497 45.452 44.0236 46.1909 46.7287 44.9564 41.4597 39.3314 47.6692 42.3475 31.4636 32.3083 55.5168 60.5187 46.0907 48.3751 53.0421 50.5724 36.619 41.011 42.9121 46.8852 42.6188 43.2224 34.1998 44.8112 40.5339 44.8793 51.9803 44.3238 42.8851 34.3357 44.6791 34.5446 47.1237 51.9684 43.8586 61.394 50.0443 46.2766 43.9654 52.893 41.2921 42.3468 40.1575 36.6734 46.8039 41.8826 45.41 34.6992 40.1939 49.0227 41.6613 38.5688 43.4013 50.6913 47.6508 28.1505 33.6132 42.6761 53.0353 59.6014 54.7051 44.7113 53.1147 45.4259 55.1918 49.8505 42.9896 38.2035 56.1797 36.2796 38.1485 34.327 43.5311 36.0462 41.707 39.0023 42.2711 45.7725 47.8013 34.6946 43.6408 46.1613 73.0362 72.0318 65.1566 62.9802 55.0368 52.4616 62.2973 48.1409 50.4554 48.9886 53.7848 49.5792 40.3505 58.705 36.7752 34.046 36.1635 46.3673 39.4211 46.6701 45.0903 45.0016 47.4921 68.9722 61.0575 60.4727 77.4375 60.6895 55.543 55.8045 43.6224 46.6081 51.3603 51.8906 52.5557 42.6658 43.0281 39.8774 39.0018 48.8318 40.5556 49.0827 43.6646 43.2489 40.6145 37.7398 40.39 61.1446 51.7244 63.9183 57.5319 57.9132 50.8005 57.2752 43.9826 45.2184 57.2765 64.9452 43.1449 44.5602 37.438 41.4221 42.7327 46.0695 43.6032 38.8956 46.1041 34.4688 35.0704 37.1961 31.1074 49.8579 49.7701 45.3013 53.425 48.7794 61.1815 49.3832 48.2987 49.738 40.7389 36.5267 49.3812 40.9551 50.041 39.9517 42.5596 39.9311 45.7879 37.3251 40.0519 45.5913 52.0983 31.0406 42.2658 45.3415 50.8563 44.806 47.5647 41.5761 44.54 63.6042 47.0283 52.5664 37.3516 57.9199 35.7631 49.3618 44.6034 44.098 30.4393 52.0631 39.9561 35.25 44.4025 44.1859 44.6611 27.3012 24.4387 37.7908 67.6593 44.5175 44.015 27.5082 44.0686 43.9272 46.3023 41.8512 50.1554 38.6989 42.729 34.2732 35.7218 32.7284 47.4524 34.659 39.5394 38.938 51.6333 45.4382 19.8551 32.2753 50.8418 51.8638 51.2064 47.6639 59.669 40.863 45.0028 46.7689 48.4032 39.65 47.6954 36.5431 41.9567 38.0811 42.9876 53.0485 46.4341 37.4247 32.3818 40.7213 42.2334 33.7903 32.1842 39.814 43.419 57.6607 56.4555 60.4896 50.4055 52.1874 50.4019 43.3908 49.6359 49.7008 42.9591 45.7197 52.6082 50.0399 55.9294 41.0966 48.2556 52.7107 50.9966 44.3602 49.9064 45.5347 43.1821 49.5073 28.5316 63.1911 65.0173 59.7913 59.6593 49.9986 57.8612 56.4151 53.2206 51.8255 49.1214 55.2392 33.9667 41.0914 39.9062 43.1742 37.9754 40.8017 62.459 37.1367 34.5275 39.6422 34.1498 35.3734 33.2953 62.1601 54.9346 66.0034 68.2324 67.6505 53.3885 55.4869 45.8066 52.7928 54.3112 46.1593 51.3705 44.5735 47.6801 59.6716 55.5627 31.0415 39.9759 33.9613 32.2713 32.7215 47.6441 39.802 36.8463 48.176 51.3951 60.3497 61.6279 48.7671 51.2993 59.3113 47.8611 50.8993 59.4872 37.3339 48.0971 46.1273 46.1999 37.8596 34.5355 33.5305 40.8574 29.6576 44.0377 30.4478 42.2897 45.0948 35.9505 55.6872 54.1106 52.4099 43.1737 53.1957 50.7317 37.3206 55.9402 42.6963 55.6081 40.5802 47.5447 36.6264 46.7252 46.5279 34.8908 39.379 56.5805 45.4695 26.5604 41.0345 46.3781 54.7772 27.6759 38.566 42.6531 45.6833 38.0585 55.7299 43.4338 53.4455 41.9587 39.238 44.544 58.7742 42.6013 48.7963 43.1048 28.5269 41.3746 43.8623 41.8202 38.7858 42.0736 35.2738 37.658 31.4296 39.3953 34.1122 37.4791 47.9045 53.3201 50.9891 43.4028 56.72 59.2909 43.3022 50.6338 33.3619 54.8549 51.1264 42.2753 38.1352 41.386 39.0381 34.9188 35.0354 41.4332 47.5136 33.6536 35.2641 48.9712 46.0196 55.9134 41.776 44.4324 45.4889 34.2898 42.0543 53.3084 49.9035 41.7673 46.6787 45.4207 47.2241 59.7101 44.3909 43.4992 36.119 33.3268 45.1548 40.8071 41.1628 36.1581 41.9247 36.0253 54.3198 62.2887 50.63 56.5581 42.8268 49.6693 52.1108 57.9381 56.8683 39.3051 50.8086 45.5349 44.346 44.1379 42.8936 40.4913 34.5063 38.6801 42.8416 48.5167 43.5146 40.5789 26.4407 40.9569 66.6214 61.9011 58.9413 65.5176 49.4889 46.912 66.5194 58.6751 59.2272 44.398 41.9804 55.072 41.8562 51.9706 37.4501 46.3106 39.0407 55.0256 38.0372 38.2053 48.6714 41.0597 30.3532 45.1885 
SCALARS volume float 1
LOOKUP_TABLE default
14.7036 14.7508 14.7504 14.7504 14.7518 14.7536 14.7554 14.7573 14.7592 14.7609 14.7626 14.7641 14.7656 14.7669 14.7681 14.7691 14.7701 14.7709 14.7716 14.7722 14.7727 14.773 14.7732 14.7733 14.731 14.7542 14.7566 14.7573 14.7579 14.759 14.7603 14.7616 14.7629 14.7642 14.7654 14.7665 14.7676 14.7686 14.7694 14.7702 14.7709 14.7715 14.772 14.7724 14.7728 14.773 14.7732 14.7735 14.7489 14.7624 14.7632 14.7637 14.7641 14.7647 14.7654 14.7662 14.767 14.7678 14.7685 14.7692 14.7699 14.7704 14.771 14.7714 14.7718 14.7722 14.7725 14.7727 14.773 14.7731 14.7733 14.7735 14.7657 14.7695 14.7701 14.7701 14.7703 14.7705 14.7707 14.771 14.7712 14.7715 14.7717 14.772 14.7722 14.7724 14.7726 14.7727 14.7728 14.773 14.7731 14.7731 14.7732 14.7733 14.7733 14.7734 14.7817 14.7772 14.7766 14.7765 14.7763 14.7761 14.7759 14.7757 14.7754 14.7752 14.775 14.7748 14.7746 14.7744 14.7742 14.7741 14.7739 14.7738 14.7737 14.7736 14.7735 14.7734 14.7733 14.7732 14.7984 14.7842 14.7833 14.7827 14.7824 14.7818 14.7811 14.7804 14.7796 14.7789 14.7782 14.7776 14.7769 14.7764 14.7758 14.7754 14.775 14.7746 14.7742 14.774 14.7738 14.7735 14.7734 14.7731 14.8144 14.7925 14.7895 14.789 14.7884 14.7874 14.7862 14.785 14.7837 14.7825 14.7813 14.7803 14.7792 14.7783 14.7774 14.7766 14.7759 14.7753 14.7747 14.7743 14.774 14.7737 14.7734 14.7731 14.843 14.7938 14.7958 14.7954 14.7943 14.7927 14.791 14.7892 14.7875 14.7858 14.7841 14.7827 14.7813 14.78 14.7788 14.7777 14.7768 14.7759 14.7752 14.7745 14.7741 14.7737 14.7734 14.7733 14.7103 14.7426 14.746 14.7489 14.7512 14.7536 14.7557 14.7578 14.7596 14.7614 14.763 14.7646 14.766 14.7672 14.7684 14.7695 14.7704 14.7712 14.7718 14.7724 14.7729 14.7732 14.7733 14.7733 14.7366 14.7457 14.7526 14.7554 14.7572 14.7589 14.7605 14.7619 14.7633 14.7646 14.7658 14.7669 14.7679 14.7688 14.7697 14.7704 14.7711 14.7716 14.7721 14.7725 14.7729 14.7731 14.7733 14.7736 14.7515 14.7569 14.7602 14.7624 14.7634 14.7645 14.7654 14.7663 14.7672 14.768 14.7687 14.7694 14.77 14.7706 14.7711 14.7716 14.7719 14.7723 14.7726 14.7728 14.773 14.7732 14.7733 14.7736 14.7665 14.7679 14.7688 14.7695 14.7699 14.7703 14.7706 14.7709 14.7712 14.7715 14.7718 14.772 14.7722 14.7724 14.7726 14.7727 14.7729 14.773 14.7731 14.7732 14.7732 14.7733 14.7733 14.7734 14.7809 14.7788 14.7775 14.7768 14.7764 14.7761 14.7758 14.7756 14.7754 14.7751 14.7749 14.7747 14.7745 14.7743 14.7742 14.774 14.7739 14.7738 14.7737 14.7735 14.7735 14.7734 14.7733 14.7732 14.7956 14.7895 14.7858 14.7838 14.7828 14.7818 14.781 14.7802 14.7794 14.7787 14.778 14.7774 14.7768 14.7762 14.7757 14.7752 14.7749 14.7745 14.7742 14.7739 14.7737 14.7735 14.7733 14.773 14.8103 14.7998 14.7932 14.7904 14.7889 14.7874 14.786 14.7846 14.7833 14.7821 14.781 14.7799 14.7789 14.778 14.7772 14.7764 14.7758 14.7752 14.7746 14.7742 14.7739 14.7736 14.7733 14.773 14.8378 14.8006 14.799 14.7967 14.7947 14.7927 14.7908 14.7888 14.7871 14.7853 14.7838 14.7822 14.7809 14.7796 14.7784 14.7774 14.7765 14.7756 14.7749 14.7743 14.7739 14.7735 14.7733 14.7732 14.7051 14.7416 14.7441 14.7476 14.7503 14.7531 14.7555 14.7577 14.7597 14.7615 14.7632 14.7647 14.7661 14.7674 14.7685 14.7696 14.7705 14.7713 14.772 14.7725 14.773 14.7733 14.7734 14.7734 14.7346 14.7438 14.7507 14.7542 14.7565 14.7586 14.7604 14.762 14.7634 14.7647 14.7659 14.767 14.768 14.7689 14.7697 14.7705 14.7712 14.7717 14.7722 14.7726 14.7729 14.7731 14.7733 14.7736 14.7506 14.7558 14.7589 14.7614 14.7629 14.7643 14.7654 14.7664 14.7673 14.7681 14.7688 14.7695 14.7701 14.7706 14.7711 14.7716 14.772 14.7723 14.7726 14.7728 14.773 14.7732 14.7733 14.7736 14.766 14.7674 14.7684 14.7691 14.7697 14.7701 14.7705 14.7709 14.7712 14.7715 14.7718 14.772 14.7722 14.7724 14.7726 14.7728 14.7729 14.773 14.7731 14.7732 14.7732 14.7732 14.7733 14.7734 14.7812 14.7791 14.7778 14.777 14.7765 14.7761 14.7758 14.7755 14.7753 14.7751 14.7749 14.7747 14.7745 14.7743 14.7741 14.774 14.7739 14.7737 14.7736 14.7735 14.7735 14.7734 14.7733 14.7732 14.7964 14.7904 14.787 14.7845 14.7832 14.782 14.781 14.7801 14.7793 14.7786 14.7779 14.7773 14.7767 14.7761 14.7757 14.7752 14.7748 14.7744 14.7741 14.7738 14.7736 14.7735 14.7733 14.773 14.8118 14.8014 14.7948 14.7913 14.7895 14.7876 14.786 14.7845 14.7832 14.782 14.7809 14.7798 14.7788 14.7779 14.777 14.7763 14.7757 14.7751 14.7745 14.7741 14.7738 14.7735 14.7733 14.773 14.8418 14.8019 14.8007 14.7978 14.7954 14.7929 14.7908 14.7888 14.7869 14.7852 14.7836 14.7821 14.7807 14.7794 14.7783 14.7772 14.7763 14.7755 14.7748 14.7742 14.7737 14.7734 14.7732 14.7732 14.7032 14.7404 14.7432 14.7468 14.7498 14.7528 14.7554 14.7577 14.7597 14.7616 14.7632 14.7648 14.7662 14.7675 14.7686 14.7697 14.7706 14.7714 14.772 14.7726 14.773 14.7733 14.7734 14.7734 14.7339 14.7428 14.7499 14.7536 14.7561 14.7584 14.7603 14.7619 14.7634 14.7647 14.7659 14.767 14.7681 14.769 14.7698 14.7705 14.7712 14.7718 14.7722 14.7726 14.773 14.7732 14.7733 14.7736 14.7501 14.7552 14.7584 14.761 14.7626 14.7641 14.7653 14.7664 14.7673 14.7681 14.7688 14.7695 14.7701 14.7707 14.7712 14.7716 14.772 14.7723 14.7726 14.7729 14.7731 14.7732 14.7733 14.7736 14.7659 14.7672 14.7681 14.7689 14.7696 14.7701 14.7705 14.7709 14.7712 14.7715 14.7718 14.772 14.7722 14.7725 14.7726 14.7728 14.7729 14.773 14.7731 14.7732 14.7733 14.7733 14.7733 14.7734 14.7813 14.7793 14.778 14.7771 14.7765 14.7761 14.7758 14.7755 14.7753 14.7751 14.7749 14.7747 14.7745 14.7743 14.7741 14.774 14.7739 14.7737 14.7737 14.7735 14.7735 14.7734 14.7733 14.7732 14.7968 14.7909 14.7874 14.7849 14.7834 14.782 14.781 14.7801 14.7793 14.7785 14.7779 14.7772 14.7767 14.7761 14.7756 14.7752 14.7748 14.7744 14.7741 14.7739 14.7737 14.7735 14.7733 14.773 14.8124 14.8023 14.7955 14.7919 14.7898 14.7877 14.7861 14.7846 14.7832 14.7819 14.7808 14.7797 14.7788 14.7779 14.7771 14.7763 14.7756 14.775 14.7745 14.7741 14.7738 14.7735 14.7733 14.773 14.8435 14.8027 14.8016 14.7985 14.7959 14.7932 14.791 14.7888 14.7869 14.7852 14.7836 14.782 14.7807 14.7794 14.7783 14.7772 14.7763 14.7754 14.7747 14.7741 14.7737 14.7734 14.7732 14.7732 14.7032 14.7405 14.7431 14.7468 14.7498 14.7528 14.7553 14.7577 14.7597 14.7616 14.7632 14.7648 14.7662 14.7675 14.7686 14.7697 14.7706 14.7714 14.772 14.7726 14.7731 14.7733 14.7734 14.7734 14.7339 14.7428 14.7499 14.7536 14.7561 14.7584 14.7603 14.7619 14.7634 14.7647 14.7659 14.767 14.7681 14.769 14.7698 14.7705 14.7712 14.7717 14.7723 14.7726 14.7729 14.7732 14.7733 14.7736 14.7501 14.7552 14.7584 14.761 14.7626 14.7641 14.7653 14.7663 14.7673 14.7681 14.7688 14.7695 14.7701 14.7707 14.7711 14.7716 14.772 14.7723 14.7726 14.7729 14.7731 14.7732 14.7733 14.7736 14.7659 14.7671 14.7681 14.7689 14.7696 14.7701 14.7705 14.7709 14.7712 14.7715 14.7718 14.772 14.7722 14.7725 14.7726 14.7728 14.7729 14.773 14.7731 14.7732 14.7732 14.7733 14.7733 14.7734 14.7813 14.7792 14.778 14.7771 14.7765 14.7761 14.7758 14.7755 14.7753 14.7751 14.7749 14.7747 14.7745 14.7743 14.7741 14.774 14.7739 14.7737 14.7736 14.7735 14.7735 14.7734 14.7733 14.7732 14.7967 14.7909 14.7874 14.7849 14.7834 14.782 14.781 14.7801 14.7793 14.7785 14.7779 14.7773 14.7766 14.7761 14.7756 14.7752 14.7748 14.7744 14.7741 14.7739 14.7737 14.7734 14.7733 14.773 14.8123 14.8022 14.7955 14.7919 14.7898 14.7877 14.7861 14.7845 14.7832 14.7819 14.7808 14.7798 14.7788 14.7779 14.7771 14.7763 14.7756 14.775 14.7745 14.7741 14.7738 14.7735 14.7733 14.773 14.8435 14.8027 14.8016 14.7985 14.7959 14.7932 14.791 14.7888 14.787 14.7852 14.7836 14.782 14.7807 14.7794 14.7783 14.7772 14.7763 14.7754 14.7748 14.7741 14.7737 14.7734 14.7732 14.7732 14.7053 14.7416 14.7441 14.7476 14.7504 14.7531 14.7555 14.7577 14.7597 14.7615 14.7632 14.7647 14.7661 14.7674 14.7686 14.7696 14.7705 14.7713 14.772 14.7725 14.773 14.7732 14.7734 14.7734 14.7346 14.7438 14.7507 14.7542 14.7565 14.7586 14.7604 14.762 14.7634 14.7647 14.7659 14.767 14.768 14.7689 14.7697 14.7705 14.7712 14.7717 14.7722 14.7726 14.7729 14.7731 14.7733 14.7736 14.7506 14.7558 14.7589 14.7614 14.7629 14.7643 14.7654 14.7664 14.7672 14.768 14.7688 14.7695 14.7701 14.7706 14.7711 14.7716 14.772 14.7723 14.7726 14.7728 14.7731 14.7732 14.7733 14.7736 14.766 14.7674 14.7683 14.7691 14.7696 14.7701 14.7705 14.7709 14.7712 14.7715 14.7718 14.772 14.7722 14.7724 14.7726 14.7728 14.7729 14.773 14.7731 14.7732 14.7732 14.7733 14.7733 14.7734 14.7811 14.7791 14.7778 14.777 14.7765 14.7761 14.7758 14.7755 14.7753 14.7751 14.7749 14.7747 14.7745 14.7743 14.7741 14.774 14.7739 14.7737 14.7736 14.7735 14.7735 14.7734 14.7733 14.7732 14.7963 14.7903 14.7869 14.7845 14.7832 14.7819 14.781 14.7801 14.7793 14.7786 14.7779 14.7773 14.7767 14.7762 14.7756 14.7752 14.7748 14.7744 14.7741 14.7738 14.7737 14.7735 14.7733 14.773 14.8116 14.8013 14.7947 14.7913 14.7894 14.7876 14.786 14.7845 14.7832 14.782 14.7809 14.7798 14.7788 14.7779 14.7771 14.7763 14.7757 14.7751 14.7745 14.7741 14.7738 14.7735 14.7733 14.773 14.8416 14.8017 14.8007 14.7978 14.7954 14.793 14.7908 14.7888 14.7869 14.7852 14.7836 14.7821 14.7808 14.7794 14.7783 14.7772 14.7763 14.7755 14.7748 14.7742 14.7737 14.7734 14.7732 14.7732 14.7106 14.7427 14.7458 14.7489 14.7512 14.7535 14.7557 14.7578 14.7596 14.7614 14.763 14.7646 14.7659 14.7673 14.7684 14.7695 14.7704 14.7711 14.7718 14.7724 14.7729 14.7732 14.7733 14.7734 14.7364 14.7457 14.7526 14.7555 14.7572 14.7589 14.7605 14.762 14.7633 14.7646 14.7658 14.7669 14.7679 14.7688 14.7696 14.7704 14.7711 14.7716 14.7721 14.7725 14.7729 14.7731 14.7733 14.7736 14.7515 14.7569 14.7602 14.7623 14.7634 14.7645 14.7654 14.7663 14.7671 14.768 14.7687 14.7694 14.77 14.7706 14.7711 14.7715 14.7719 14.7723 14.7725 14.7728 14.773 14.7732 14.7733 14.7736 14.7665 14.7678 14.7688 14.7695 14.7699 14.7702 14.7706 14.7709 14.7712 14.7715 14.7718 14.772 14.7722 14.7724 14.7726 14.7728 14.7729 14.773 14.7731 14.7732 14.7732 14.7733 14.7733 14.7734 14.7807 14.7786 14.7774 14.7767 14.7764 14.7761 14.7758 14.7756 14.7753 14.7751 14.7749 14.7747 14.7745 14.7743 14.7742 14.774 14.7739 14.7738 14.7736 14.7736 14.7735 14.7734 14.7733 14.7732 14.7954 14.7892 14.7858 14.7837 14.7828 14.7818 14.781 14.7801 14.7794 14.7787 14.778 14.7774 14.7768 14.7762 14.7757 14.7753 14.7748 14.7745 14.7742 14.7739 14.7737 14.7735 14.7733 14.773 14.8098 14.7992 14.793 14.7902 14.7889 14.7873 14.7859 14.7846 14.7833 14.7821 14.781 14.7799 14.7789 14.778 14.7772 14.7764 14.7757 14.7752 14.7746 14.7742 14.7739 14.7736 14.7734 14.773 14.8373 14.8002 14.799 14.7966 14.7947 14.7927 14.7907 14.7888 14.7871 14.7853 14.7838 14.7823 14.7809 14.7796 14.7785 14.7774 14.7765 14.7756 14.7749 14.7743 14.7738 14.7735 14.7733 14.7733 14.704 14.7527 14.7502 14.7506 14.752 14.7537 14.7556 14.7574 14.7593 14.761 14.7627 14.7642 14.7656 14.7669 14.7681 14.7692 14.7701 14.7709 14.7716 14.7722 14.7727 14.773 14.7732 14.7733 14.7308 14.7542 14.7567 14.7572 14.7578 14.7589 14.7602 14.7615 14.7629 14.7641 14.7654 14.7665 14.7676 14.7685 14.7694 14.7702 14.7709 14.7715 14.772 14.7724 14.7728 14.773 14.7732 14.7735 14.7486 14.7625 14.763 14.7637 14.764 14.7647 14.7654 14.7662 14.767 14.7677 14.7685 14.7692 14.7698 14.7704 14.7709 14.7714 14.7718 14.7722 14.7725 14.7727 14.7729 14.7731 14.7733 14.7735 14.7654 14.7696 14.77 14.7701 14.7702 14.7704 14.7706 14.7709 14.7712 14.7714 14.7717 14.772 14.7722 14.7724 14.7725 14.7727 14.7728 14.773 14.773 14.7731 14.7732 14.7732 14.7733 14.7734 14.7818 14.7768 14.7765 14.7764 14.7763 14.7761 14.7759 14.7757 14.7754 14.7752 14.775 14.7748 14.7746 14.7744 14.7742 14.774 14.7739 14.7738 14.7737 14.7736 14.7735 14.7734 14.7733 14.7733 14.7983 14.7837 14.7833 14.7826 14.7823 14.7817 14.7811 14.7804 14.7796 14.7789 14.7782 14.7775 14.7769 14.7764 14.7758 14.7754 14.7749 14.7745 14.7742 14.774 14.7737 14.7735 14.7733 14.7731 14.8148 14.7914 14.7895 14.7889 14.7884 14.7874 14.7862 14.7849 14.7837 14.7825 14.7813 14.7802 14.7792 14.7783 14.7774 14.7766 14.7759 14.7753 14.7748 14.7743 14.7739 14.7736 14.7734 14.7731 14.843 14.7915 14.7955 14.7955 14.7944 14.7927 14.791 14.7892 14.7875 14.7858 14.7842 14.7826 14.7813 14.78 14.7788 14.7777 14.7767 14.7759 14.7752 14.7745 14.7741 14.7737 14.7734 14.7733 
SCALARS volume_diff float 1
LOOKUP_TABLE default
14.7017 14.7489 14.7484 14.7485 14.7498 14.7516 14.7535 14.7554 14.7572 14.759 14.7607 14.7622 14.7636 14.7649 14.7661 14.7672 14.7681 14.7689 14.7696 14.7702 14.7707 14.7711 14.7713 14.7713 14.729 14.7523 14.7547 14.7554 14.756 14.7571 14.7583 14.7596 14.761 14.7622 14.7635 14.7646 14.7657 14.7666 14.7675 14.7683 14.769 14.7695 14.77 14.7705 14.7708 14.7711 14.7713 14.7716 14.7469 14.7604 14.7613 14.7618 14.7622 14.7628 14.7635 14.7643 14.7651 14.7658 14.7666 14.7672 14.7679 14.7685 14.769 14.7695 14.7699 14.7702 14.7705 14.7708 14.771 14.7711 14.7713 14.7716 14.7637 14.7676 14.7682 14.7682 14.7683 14.7685 14.7687 14.769 14.7693 14.7695 14.7698 14.77 14.7702 14.7704 14.7706 14.7708 14.7709 14.771 14.7711 14.7712 14.7713 14.7713 14.7713 14.7714 14.7798 14.7752 14.7746 14.7745 14.7744 14.7742 14.7739 14.7737 14.7735 14.7733 14.773 14.7728 14.7726 14.7724 14.7723 14.7721 14.772 14.7719 14.7717 14.7716 14.7716 14.7715 14.7714 14.7713 14.7964 14.7822 14.7814 14.7808 14.7804 14.7798 14.7792 14.7784 14.7777 14.777 14.7763 14.7756 14.775 14.7744 14.7739 14.7734 14.773 14.7726 14.7723 14.772 14.7718 14.7716 14.7714 14.7711 14.8124 14.7906 14.7875 14.787 14.7864 14.7854 14.7842 14.783 14.7818 14.7805 14.7794 14.7783 14.7772 14.7763 14.7754 14.7747 14.774 14.7733 14.7728 14.7724 14.772 14.7717 14.7714 14.7711 14.8411 14.7918 14.7938 14.7935 14.7923 14.7907 14.789 14.7872 14.7855 14.7838 14.7822 14.7807 14.7793 14.778 14.7768 14.7758 14.7748 14.7739 14.7732 14.7726 14.7721 14.7717 14.7715 14.7713 14.7083 14.7406 14.7441 14.7469 14.7493 14.7516 14.7538 14.7558 14.7577 14.7594 14.7611 14.7626 14.764 14.7653 14.7664 14.7675 14.7684 14.7692 14.7699 14.7704 14.7709 14.7712 14.7714 14.7714 14.7346 14.7437 14.7506 14.7535 14.7553 14.7569 14.7585 14.76 14.7614 14.7626 14.7638 14.7649 14.7659 14.7668 14.7677 14.7684 14.7691 14.7697 14.7702 14.7706 14.7709 14.7711 14.7713 14.7716 14.7496 14.7549 14.7583 14.7604 14.7614 14.7626 14.7635 14.7644 14.7652 14.766 14.7667 14.7674 14.768 14.7686 14.7691 14.7696 14.77 14.7703 14.7706 14.7709 14.7711 14.7712 14.7714 14.7716 14.7646 14.7659 14.7669 14.7675 14.768 14.7683 14.7687 14.769 14.7693 14.7696 14.7698 14.7701 14.7703 14.7705 14.7706 14.7708 14.7709 14.7711 14.7711 14.7712 14.7713 14.7713 14.7713 14.7714 14.7789 14.7768 14.7756 14.7749 14.7745 14.7742 14.7739 14.7736 14.7734 14.7732 14.773 14.7728 14.7726 14.7724 14.7722 14.7721 14.772 14.7718 14.7717 14.7716 14.7715 14.7715 14.7714 14.7712 14.7937 14.7875 14.7839 14.7818 14.7809 14.7799 14.779 14.7782 14.7775 14.7767 14.7761 14.7754 14.7748 14.7743 14.7738 14.7733 14.7729 14.7725 14.7722 14.772 14.7717 14.7715 14.7714 14.7711 14.8084 14.7978 14.7912 14.7884 14.787 14.7854 14.784 14.7826 14.7814 14.7802 14.779 14.778 14.777 14.7761 14.7752 14.7745 14.7738 14.7732 14.7727 14.7723 14.7719 14.7716 14.7714 14.7711 14.8359 14.7986 14.7971 14.7947 14.7928 14.7907 14.7888 14.7869 14.7851 14.7834 14.7818 14.7803 14.779 14.7777 14.7765 14.7755 14.7745 14.7737 14.773 14.7724 14.7719 14.7716 14.7713 14.7713 14.7031 14.7396 14.7421 14.7456 14.7484 14.7511 14.7536 14.7558 14.7578 14.7596 14.7612 14.7628 14.7642 14.7655 14.7666 14.7676 14.7686 14.7693 14.77 14.7706 14.771 14.7713 14.7714 14.7714 14.7326 14.7418 14.7488 14.7522 14.7546 14.7566 14.7584 14.76 14.7614 14.7627 14.7639 14.765 14.766 14.767 14.7678 14.7685 14.7692 14.7698 14.7703 14.7706 14.771 14.7712 14.7714 14.7716 14.7486 14.7539 14.757 14.7595 14.7609 14.7623 14.7634 14.7644 14.7653 14.7661 14.7668 14.7675 14.7681 14.7687 14.7692 14.7696 14.77 14.7704 14.7707 14.7709 14.7711 14.7712 14.7714 14.7716 14.7641 14.7654 14.7664 14.7672 14.7677 14.7682 14.7686 14.7689 14.7693 14.7696 14.7698 14.7701 14.7703 14.7705 14.7706 14.7708 14.7709 14.771 14.7711 14.7712 14.7713 14.7713 14.7714 14.7714 14.7792 14.7772 14.7759 14.775 14.7745 14.7742 14.7739 14.7736 14.7733 14.7731 14.7729 14.7727 14.7725 14.7724 14.7722 14.7721 14.7719 14.7718 14.7717 14.7716 14.7715 14.7714 14.7713 14.7712 14.7945 14.7885 14.785 14.7826 14.7812 14.78 14.779 14.7781 14.7774 14.7766 14.7759 14.7753 14.7747 14.7742 14.7737 14.7732 14.7728 14.7725 14.7722 14.7719 14.7717 14.7715 14.7713 14.7711 14.8098 14.7995 14.7929 14.7894 14.7875 14.7856 14.784 14.7826 14.7813 14.78 14.7789 14.7778 14.7769 14.776 14.7751 14.7744 14.7737 14.7731 14.7726 14.7722 14.7719 14.7716 14.7713 14.7711 14.8398 14.7999 14.7988 14.7959 14.7934 14.791 14.7889 14.7868 14.785 14.7832 14.7817 14.7801 14.7788 14.7775 14.7763 14.7753 14.7744 14.7736 14.7728 14.7722 14.7718 14.7714 14.7712 14.7712 14.7012 14.7384 14.7412 14.7448 14.7479 14.7508 14.7534 14.7557 14.7577 14.7596 14.7613 14.7628 14.7642 14.7655 14.7666 14.7677 14.7686 14.7694 14.7701 14.7706 14.7711 14.7714 14.7715 14.7715 14.7319 14.7408 14.748 14.7516 14.7542 14.7564 14.7583 14.76 14.7615 14.7628 14.764 14.7651 14.7661 14.767 14.7678 14.7686 14.7692 14.7698 14.7703 14.7706 14.771 14.7712 14.7714 14.7716 14.7482 14.7532 14.7564 14.7591 14.7607 14.7622 14.7634 14.7644 14.7653 14.7661 14.7669 14.7675 14.7682 14.7687 14.7692 14.7697 14.77 14.7704 14.7707 14.7709 14.7711 14.7712 14.7714 14.7716 14.7639 14.7652 14.7662 14.767 14.7676 14.7681 14.7685 14.7689 14.7693 14.7696 14.7699 14.7701 14.7703 14.7705 14.7707 14.7708 14.771 14.771 14.7711 14.7712 14.7713 14.7713 14.7713 14.7714 14.7793 14.7773 14.776 14.7751 14.7746 14.7742 14.7738 14.7736 14.7733 14.7731 14.7729 14.7727 14.7725 14.7724 14.7722 14.772 14.7719 14.7718 14.7717 14.7716 14.7715 14.7714 14.7713 14.7713 14.7948 14.789 14.7855 14.7829 14.7814 14.7801 14.779 14.7781 14.7773 14.7766 14.7759 14.7753 14.7747 14.7742 14.7737 14.7732 14.7728 14.7725 14.7722 14.7719 14.7717 14.7715 14.7713 14.7711 14.8104 14.8003 14.7935 14.79 14.7878 14.7858 14.7841 14.7826 14.7812 14.78 14.7789 14.7778 14.7768 14.7759 14.7751 14.7743 14.7737 14.7731 14.7726 14.7721 14.7718 14.7716 14.7713 14.7711 14.8416 14.8008 14.7996 14.7965 14.7939 14.7913 14.789 14.7869 14.785 14.7832 14.7816 14.7801 14.7787 14.7774 14.7763 14.7752 14.7743 14.7735 14.7728 14.7722 14.7717 14.7714 14.7712 14.7713 14.7013 14.7385 14.7412 14.7448 14.7479 14.7508 14.7534 14.7557 14.7577 14.7596 14.7613 14.7628 14.7642 14.7655 14.7666 14.7677 14.7686 14.7694 14.7701 14.7706 14.7711 14.7714 14.7715 14.7714 14.7319 14.7408 14.748 14.7516 14.7542 14.7564 14.7583 14.76 14.7614 14.7628 14.764 14.7651 14.7661 14.767 14.7678 14.7686 14.7693 14.7698 14.7703 14.7707 14.771 14.7712 14.7714 14.7716 14.7482 14.7532 14.7564 14.7591 14.7607 14.7622 14.7634 14.7644 14.7653 14.7661 14.7669 14.7675 14.7682 14.7687 14.7692 14.7697 14.7701 14.7704 14.7707 14.7709 14.7711 14.7712 14.7714 14.7716 14.7639 14.7652 14.7662 14.767 14.7676 14.7681 14.7686 14.7689 14.7693 14.7696 14.7699 14.7701 14.7703 14.7705 14.7707 14.7708 14.7709 14.771 14.7712 14.7712 14.7713 14.7713 14.7713 14.7715 14.7793 14.7773 14.776 14.7751 14.7746 14.7741 14.7738 14.7736 14.7733 14.7731 14.7729 14.7727 14.7725 14.7724 14.7722 14.7721 14.7719 14.7718 14.7717 14.7716 14.7715 14.7714 14.7714 14.7713 14.7948 14.789 14.7854 14.7829 14.7814 14.7801 14.779 14.7781 14.7773 14.7766 14.7759 14.7753 14.7747 14.7742 14.7737 14.7732 14.7728 14.7725 14.7722 14.7719 14.7717 14.7715 14.7713 14.7711 14.8104 14.8003 14.7935 14.7899 14.7878 14.7858 14.7841 14.7826 14.7813 14.78 14.7788 14.7778 14.7768 14.7759 14.7751 14.7743 14.7737 14.7731 14.7726 14.7722 14.7719 14.7716 14.7713 14.7711 14.8416 14.8008 14.7996 14.7966 14.7939 14.7913 14.789 14.7869 14.785 14.7832 14.7816 14.7801 14.7787 14.7774 14.7763 14.7752 14.7743 14.7735 14.7728 14.7722 14.7718 14.7714 14.7712 14.7712 14.7034 14.7396 14.7422 14.7456 14.7484 14.7511 14.7536 14.7558 14.7578 14.7596 14.7612 14.7628 14.7642 14.7655 14.7666 14.7676 14.7685 14.7693 14.77 14.7706 14.771 14.7713 14.7714 14.7714 14.7327 14.7418 14.7488 14.7523 14.7546 14.7567 14.7584 14.76 14.7615 14.7628 14.764 14.7651 14.7661 14.767 14.7678 14.7685 14.7692 14.7698 14.7703 14.7706 14.771 14.7712 14.7714 14.7717 14.7486 14.7538 14.757 14.7595 14.7609 14.7623 14.7634 14.7644 14.7653 14.7661 14.7668 14.7675 14.7681 14.7687 14.7692 14.7696 14.77 14.7704 14.7707 14.7709 14.7711 14.7712 14.7714 14.7716 14.7641 14.7654 14.7664 14.7671 14.7677 14.7682 14.7686 14.7689 14.7693 14.7696 14.7698 14.7701 14.7703 14.7705 14.7706 14.7708 14.7709 14.771 14.7711 14.7712 14.7713 14.7713 14.7714 14.7715 14.7792 14.7771 14.7758 14.775 14.7745 14.7741 14.7739 14.7736 14.7734 14.7731 14.7729 14.7727 14.7726 14.7724 14.7722 14.7721 14.7719 14.7718 14.7717 14.7716 14.7715 14.7714 14.7714 14.7712 14.7943 14.7883 14.785 14.7825 14.7812 14.78 14.779 14.7781 14.7774 14.7766 14.776 14.7753 14.7747 14.7742 14.7737 14.7733 14.7728 14.7725 14.7722 14.7719 14.7717 14.7715 14.7714 14.7711 14.8096 14.7993 14.7928 14.7894 14.7875 14.7856 14.784 14.7826 14.7813 14.78 14.7789 14.7778 14.7769 14.776 14.7751 14.7744 14.7737 14.7731 14.7726 14.7722 14.7719 14.7716 14.7714 14.7711 14.8396 14.7997 14.7987 14.7958 14.7935 14.791 14.7889 14.7868 14.785 14.7832 14.7817 14.7801 14.7788 14.7775 14.7764 14.7753 14.7744 14.7735 14.7728 14.7722 14.7718 14.7715 14.7712 14.7713 14.7087 14.7407 14.7439 14.7469 14.7492 14.7516 14.7537 14.7558 14.7577 14.7594 14.7611 14.7626 14.764 14.7653 14.7664 14.7675 14.7684 14.7692 14.7699 14.7704 14.7709 14.7712 14.7714 14.7714 14.7345 14.7437 14.7507 14.7536 14.7553 14.757 14.7585 14.76 14.7614 14.7626 14.7638 14.7649 14.7659 14.7669 14.7677 14.7684 14.7691 14.7697 14.7702 14.7706 14.7709 14.7711 14.7713 14.7716 14.7495 14.7549 14.7582 14.7604 14.7614 14.7625 14.7635 14.7644 14.7652 14.766 14.7667 14.7674 14.768 14.7686 14.7691 14.7696 14.77 14.7703 14.7706 14.7708 14.7711 14.7712 14.7714 14.7716 14.7645 14.7659 14.7669 14.7675 14.7679 14.7683 14.7686 14.7689 14.7693 14.7695 14.7698 14.77 14.7703 14.7705 14.7706 14.7708 14.7709 14.771 14.7711 14.7712 14.7713 14.7713 14.7713 14.7714 14.7788 14.7766 14.7755 14.7748 14.7744 14.7741 14.7739 14.7736 14.7734 14.7732 14.7729 14.7728 14.7726 14.7724 14.7722 14.7721 14.7719 14.7718 14.7717 14.7716 14.7715 14.7715 14.7713 14.7713 14.7934 14.7873 14.7838 14.7818 14.7808 14.7799 14.779 14.7782 14.7775 14.7767 14.776 14.7754 14.7748 14.7743 14.7738 14.7733 14.7729 14.7725 14.7722 14.772 14.7717 14.7715 14.7713 14.7711 14.8078 14.7973 14.7911 14.7883 14.7869 14.7854 14.784 14.7826 14.7814 14.7801 14.779 14.778 14.777 14.7761 14.7752 14.7745 14.7738 14.7732 14.7727 14.7722 14.7719 14.7716 14.7714 14.7711 14.8353 14.7982 14.797 14.7947 14.7928 14.7907 14.7888 14.7868 14.7851 14.7834 14.7818 14.7803 14.779 14.7777 14.7765 14.7755 14.7745 14.7737 14.773 14.7723 14.7719 14.7715 14.7713 14.7713 14.702 14.7508 14.7483 14.7486 14.75 14.7518 14.7536 14.7555 14.7573 14.7591 14.7607 14.7623 14.7637 14.765 14.7662 14.7672 14.7681 14.7689 14.7696 14.7702 14.7707 14.771 14.7713 14.7714 14.7288 14.7523 14.7547 14.7552 14.7558 14.757 14.7582 14.7596 14.7609 14.7622 14.7634 14.7646 14.7656 14.7666 14.7674 14.7682 14.7689 14.7695 14.77 14.7704 14.7708 14.7711 14.7712 14.7716 14.7466 14.7605 14.761 14.7618 14.7621 14.7627 14.7635 14.7642 14.765 14.7658 14.7665 14.7672 14.7679 14.7685 14.769 14.7695 14.7699 14.7702 14.7705 14.7708 14.771 14.7712 14.7713 14.7715 14.7634 14.7677 14.7681 14.7681 14.7682 14.7685 14.7687 14.7689 14.7692 14.7695 14.7697 14.77 14.7702 14.7704 14.7706 14.7707 14.7709 14.771 14.7711 14.7712 14.7712 14.7713 14.7713 14.7714 14.7798 14.7749 14.7746 14.7745 14.7743 14.7741 14.7739 14.7737 14.7735 14.7732 14.773 14.7728 14.7726 14.7724 14.7722 14.7721 14.7719 14.7718 14.7717 14.7716 14.7716 14.7715 14.7714 14.7713 14.7964 14.7818 14.7813 14.7807 14.7804 14.7798 14.7791 14.7784 14.7777 14.7769 14.7762 14.7756 14.775 14.7744 14.7738 14.7734 14.773 14.7726 14.7723 14.772 14.7718 14.7716 14.7714 14.7712 14.8128 14.7895 14.7875 14.787 14.7865 14.7854 14.7842 14.783 14.7818 14.7805 14.7794 14.7783 14.7773 14.7763 14.7754 14.7747 14.774 14.7733 14.7728 14.7724 14.772 14.7717 14.7715 14.7711 14.841 14.7895 14.7936 14.7936 14.7924 14.7908 14.789 14.7872 14.7855 14.7838 14.7822 14.7807 14.7793 14.778 14.7768 14.7758 14.7748 14.7739 14.7732 14.7726 14.7721 14.7717 14.7714 14.7713 
