# vtk DataFile Version 5.1
vtk output
ASCII

DATASET UNSTRUCTURED_GRID
POINTS 14161 float
0 0 2.2
0.125 0 2.2
0.25 0 2.2
0.375 0 2.2
0.5 0 2.2
0.625 0 2.2
0.75 0 2.2
0.875 0 2.2
1 0 2.2
1.125 0 2.2
1.25 0 2.2
1.375 0 2.2
1.5 0 2.2
1.625 0 2.2
1.75 0 2.2
1.875 0 2.2
2 0 2.2
2.125 0 2.2
2.25 0 2.2
2.375 0 2.2
2.5 0 2.2
2.625 0 2.2
2.75 0 2.2
2.875 0 2.2
3 0 2.2
0 0.125 2.2
0.125 0.125 2.2
0.25 0.125 2.2
0.375 0.125 2.2
0.5 0.125 2.2
0.625 0.125 2.2
0.75 0.125 2.2
0.875 0.125 2.2
1 0.125 2.2
1.125 0.125 2.2
1.25 0.125 2.2
1.375 0.125 2.2
1.5 0.125 2.2
1.625 0.125 2.2
1.75 0.125 2.2
1.875 0.125 2.2
2 0.125 2.2
2.125 0.125 2.2
2.25 0.125 2.2
2.375 0.125 2.2
2.5 0.125 2.2
2.625 0.125 2.2
2.75 0.125 2.2
2.875 0.125 2.2
3 0.125 2.2
0 0.25 2.2
0.125 0.25 2.2
0.25 0.25 2.2
0.375 0.25 2.2
0.5 0.25 2.2
0.625 0.25 2.2
0.75 0.25 2.2
0.875 0.25 2.2
1 0.25 2.2
1.125 0.25 2.2
1.25 0.25 2.2
1.375 0.25 2.2
1.5 0.25 2.2
1.625 0.25 2.2
1.75 0.25 2.2
1.875 0.25 2.2
2 0.25 2.2
2.125 0.25 2.2
2.25 0.25 2.2
2.375 0.25 2.2
2.5 0.25 2.2
2.625 0.25 2.2
2.75 0.25 2.2
2.875 0.25 2.2
3 0.25 2.2
0 0.375 2.2
0.125 0.375 2.2
0.25 0.375 2.2
0.375 0.375 2.2
0.5 0.375 2.2
0.625 0.375 2.2
0.75 0.375 2.2
0.875 0.375 2.2
1 0.375 2.2
1.125 0.375 2.2
1.25 0.375 2.2
1.375 0.375 2.2
1.5 0.375 2.2
1.625 0.375 2.2
1.75 0.375 2.2
1.875 0.375 2.2
2 0.375 2.2
2.125 0.375 2.2
2.25 0.375 2.2
2.375 0.375 2.2
2.5 0.375 2.2
2.625 0.375 2.2
2.75 0.375 2.2
2.875 0.375 2.2
3 0.375 2.2
0 0.5 2.2
0.125 0.5 2.2
0.25 0.5 2.2
0.375 0.5 2.2
0.5 0.5 2.2
0.625 0.5 2.2
0.75 0.5 2.2
0.875 0.5 2.2
1 0.5 2.2
1.125 0.5 2.2
1.25 0.5 2.2
1.375 0.5 2.2
1.5 0.5 2.2
1.625 0.5 2.2
1.75 0.5 2.2
1.875 0.5 2.2
2 0.5 2.2
2.125 0.5 2.2
2.25 0.5 2.2
2.375 0.5 2.2
2.5 0.5 2.2
2.625 0.5 2.2
2.75 0.5 2.2
2.875 0.5 2.2
3 0.5 2.2
0 0.625 2.2
0.125 0.625 2.2
0.25 0.625 2.2
0.375 0.625 2.2
0.5 0.625 2.2
0.625 0.625 2.2
0.75 0.625 2.2
0.875 0.625 2.2
1 0.625 2.2
1.125 0.625 2.2
1.25 0.625 2.2
1.375 0.625 2.2
1.5 0.625 2.2
1.625 0.625 2.2
1.75 0.625 2.2
1.875 0.625 2.2
2 0.625 2.2
2.125 0.625 2.2
2.25 0.625 2.2
2.375 0.625 2.2
2.5 0.625 2.2
2.625 0.625 2.2
2.75 0.625 2.2
2.875 0.625 2.2
3 0.625 2.2
0 0.75 2.2
0.125 0.75 2.2
0.25 0.75 2.2
0.375 0.75 2.2
0.5 0.75 2.2
0.625 0.75 2.2
0.75 0.75 2.2
0.875 0.75 2.2
1 0.75 2.2
1.125 0.75 2.2
1.25 0.75 2.2
1.375 0.75 2.2
1.5 0.75 2.2
1.625 0.75 2.2
1.75 0.75 2.2
1.875 0.75 2.2
2 0.75 2.2
2.125 0.75 2.2
2.25 0.75 2.2
2.375 0.75 2.2
2.5 0.75 2.2
2.625 0.75 2.2
2.75 0.75 2.2
2.875 0.75 2.2
3 0.75 2.2
0 0.875 2.2
0.125 0.875 2.2
0.25 0.875 2.2
0.375 0.875 2.2
0.5 0.875 2.2
0.625 0.875 2.2
0.75 0.875 2.2
0.875 0.875 2.2
1 0.875 2.2
1.125 0.875 2.2
1.25 0.875 2.2
1.375 0.875 2.2
1.5 0.875 2.2
1.625 0.875 2.2
1.75 0.875 2.2
1.875 0.875 2.2
2 0.875 2.2
2.125 0.875 2.2
2.25 0.875 2.2
2.375 0.875 2.2
2.5 0.875 2.2
2.625 0.875 2.2
2.75 0.875 2.2
2.875 0.875 2.2
3 0.875 2.2
0 1 2.2
0.125 1 2.2
0.25 1 2.2
0.375 1 2.2
0.5 1 2.2
0.625 1 2.2
0.75 1 2.2
0.875 1 2.2
1 1 2.2
1.125 1 2.2
1.25 1 2.2
1.375 1 2.2
1.5 1 2.2
1.625 1 2.2
1.75 1 2.2
1.875 1 2.2
2 1 2.2
2.125 1 2.2
2.25 1 2.2
2.375 1 2.2
2.5 1 2.2
2.625 1 2.2
2.75 1 2.2
2.875 1 2.2
3 1 2.2
0 0 2.325
0.125 0 2.325
0.25 0 2.325
0.375 0 2.325
0.5 0 2.325
0.625 0 2.325
0.75 0 2.325
0.875 0 2.325
1 0 2.325
1.125 0 2.325
1.25 0 2.325
1.375 0 2.325
1.5 0 2.325
1.625 0 2.325
1.75 0 2.325
1.875 0 2.325
2 0 2.325
2.125 0 2.325
2.25 0 2.325
2.375 0 2.325
2.5 0 2.325
2.625 0 2.325
2.75 0 2.325
2.875 0 2.325
3 0 2.325
0 0.125 2.325
0.125 0.125 2.325
0.25 0.125 2.325
0.375 0.125 2.325
0.5 0.125 2.325
0.625 0.125 2.325
0.75 0.125 2.325
0.875 0.125 2.325
1 0.125 2.325
1.125 0.125 2.325
1.25 0.125 2.325
1.375 0.125 2.325
1.5 0.125 2.325
1.625 0.125 2.325
1.75 0.125 2.325
1.875 0.125 2.325
2 0.125 2.325
2.125 0.125 2.325
2.25 0.125 2.325
2.375 0.125 2.325
2.5 0.125 2.325
2.625 0.125 2.325
2.75 0.125 2.325
2.875 0.125 2.325
3 0.125 2.325
0 0.25 2.325
0.125 0.25 2.325
0.25 0.25 2.325
0.375 0.25 2.325
0.5 0.25 2.325
0.625 0.25 2.325
0.75 0.25 2.325
0.875 0.25 2.325
1 0.25 2.325
1.125 0.25 2.325
1.25 0.25 2.325
1.375 0.25 2.325
1.5 0.25 2.325
1.625 0.25 2.325
1.75 0.25 2.325
1.875 0.25 2.325
2 0.25 2.325
2.125 0.25 2.325
2.25 0.25 2.325
2.375 0.25 2.325
2.5 0.25 2.325
2.625 0.25 2.325
2.75 0.25 2.325
2.875 0.25 2.325
3 0.25 2.325
0 0.375 2.325
0.125 0.375 2.325
0.25 0.375 2.325
0.375 0.375 2.325
0.5 0.375 2.325
0.625 0.375 2.325
0.75 0.375 2.325
0.875 0.375 2.325
1 0.375 2.325
1.125 0.375 2.325
1.25 0.375 2.325
1.375 0.375 2.325
1.5 0.375 2.325
1.625 0.375 2.325
1.75 0.375 2.325
1.875 0.375 2.325
2 0.375 2.325
2.125 0.375 2.325
2.25 0.375 2.325
2.375 0.375 2.325
2.5 0.375 2.325
2.625 0.375 2.325
2.75 0.375 2.325
2.875 0.375 2.325
3 0.375 2.325
0 0.5 2.325
0.125 0.5 2.325
0.25 0.5 2.325
0.375 0.5 2.325
0.5 0.5 2.325
0.625 0.5 2.325
0.75 0.5 2.325
0.875 0.5 2.325
1 0.5 2.325
1.125 0.5 2.325
1.25 0.5 2.325
1.375 0.5 2.325
1.5 0.5 2.325
1.625 0.5 2.325
1.75 0.5 2.325
1.875 0.5 2.325
2 0.5 2.325
2.125 0.5 2.325
2.25 0.5 2.325
2.375 0.5 2.325
2.5 0.5 2.325
2.625 0.5 2.325
2.75 0.5 2.325
2.875 0.5 2.325
3 0.5 2.325
0 0.625 2.325
0.125 0.625 2.325
0.25 0.625 2.325
0.375 0.625 2.325
0.5 0.625 2.325
0.625 0.625 2.325
0.75 0.625 2.325
0.875 0.625 2.325
1 0.625 2.325
1.125 0.625 2.325
1.25 0.625 2.325
1.375 0.625 2.325
1.5 0.625 2.325
1.625 0.625 2.325
1.75 0.625 2.325
1.875 0.625 2.325
2 0.625 2.325
2.125 0.625 2.325
2.25 0.625 2.325
2.375 0.625 2.325
2.5 0.625 2.325
2.625 0.625 2.325
2.75 0.625 2.325
2.875 0.625 2.325
3 0.625 2.325
0 0.75 2.325
0.125 0.75 2.325
0.25 0.75 2.325
0.375 0.75 2.325
0.5 0.75 2.325
0.625 0.75 2.325
0.75 0.75 2.325
0.875 0.75 2.325
1 0.75 2.325
1.125 0.75 2.325
1.25 0.75 2.325
1.375 0.75 2.325
1.5 0.75 2.325
1.625 0.75 2.325
1.75 0.75 2.325
1.875 0.75 2.325
2 0.75 2.325
2.125 0.75 2.325
2.25 0.75 2.325
2.375 0.75 2.325
2.5 0.75 2.325
2.625 0.75 2.325
2.75 0.75 2.325
2.875 0.75 2.325
3 0.75 2.325
0 0.875 2.325
0.125 0.875 2.325
0.25 0.875 2.325
0.375 0.875 2.325
0.5 0.875 2.325
0.625 0.875 2.325
0.75 0.875 2.325
0.875 0.875 2.325
1 0.875 2.325
1.125 0.875 2.325
1.25 0.875 2.325
1.375 0.875 2.325
1.5 0.875 2.325
1.625 0.875 2.325
1.75 0.875 2.325
1.875 0.875 2.325
2 0.875 2.325
2.125 0.875 2.325
2.25 0.875 2.325
2.375 0.875 2.325
2.5 0.875 2.325
2.625 0.875 2.325
2.75 0.875 2.325
2.875 0.875 2.325
3 0.875 2.325
0 1 2.325
0.125 1 2.325
0.25 1 2.325
0.375 1 2.325
0.5 1 2.325
0.625 1 2.325
0.75 1 2.325
0.875 1 2.325
1 1 2.325
1.125 1 2.325
1.25 1 2.325
1.375 1 2.325
1.5 1 2.325
1.625 1 2.325
1.75 1 2.325
1.875 1 2.325
2 1 2.325
2.125 1 2.325
2.25 1 2.325
2.375 1 2.325
2.5 1 2.325
2.625 1 2.325
2.75 1 2.325
2.875 1 2.325
3 1 2.325
0 0 2.45
0.125 0 2.45
0.25 0 2.45
0.375 0 2.45
0.5 0 2.45
0.625 0 2.45
0.75 0 2.45
0.875 0 2.45
1 0 2.45
1.125 0 2.45
1.25 0 2.45
1.375 0 2.45
1.5 0 2.45
1.625 0 2.45
1.75 0 2.45
1.875 0 2.45
2 0 2.45
2.125 0 2.45
2.25 0 2.45
2.375 0 2.45
2.5 0 2.45
2.625 0 2.45
2.75 0 2.45
2.875 0 2.45
3 0 2.45
0 0.125 2.45
0.125 0.125 2.45
0.25 0.125 2.45
0.375 0.125 2.45
0.5 0.125 2.45
0.625 0.125 2.45
0.75 0.125 2.45
0.875 0.125 2.45
1 0.125 2.45
1.125 0.125 2.45
1.25 0.125 2.45
1.375 0.125 2.45
1.5 0.125 2.45
1.625 0.125 2.45
1.75 0.125 2.45
1.875 0.125 2.45
2 0.125 2.45
2.125 0.125 2.45
2.25 0.125 2.45
2.375 0.125 2.45
2.5 0.125 2.45
2.625 0.125 2.45
2.75 0.125 2.45
2.875 0.125 2.45
3 0.125 2.45
0 0.25 2.45
0.125 0.25 2.45
0.25 0.25 2.45
0.375 0.25 2.45
0.5 0.25 2.45
0.625 0.25 2.45
0.75 0.25 2.45
0.875 0.25 2.45
1 0.25 2.45
1.125 0.25 2.45
1.25 0.25 2.45
1.375 0.25 2.45
1.5 0.25 2.45
1.625 0.25 2.45
1.75 0.25 2.45
1.875 0.25 2.45
2 0.25 2.45
2.125 0.25 2.45
2.25 0.25 2.45
2.375 0.25 2.45
2.5 0.25 2.45
2.625 0.25 2.45
2.75 0.25 2.45
2.875 0.25 2.45
3 0.25 2.45
0 0.375 2.45
0.125 0.375 2.45
0.25 0.375 2.45
0.375 0.375 2.45
0.5 0.375 2.45
0.625 0.375 2.45
0.75 0.375 2.45
0.875 0.375 2.45
1 0.375 2.45
1.125 0.375 2.45
1.25 0.375 2.45
1.375 0.375 2.45
1.5 0.375 2.45
1.625 0.375 2.45
1.75 0.375 2.45
1.875 0.375 2.45
2 0.375 2.45
2.125 0.375 2.45
2.25 0.375 2.45
2.375 0.375 2.45
2.5 0.375 2.45
2.625 0.375 2.45
2.75 0.375 2.45
2.875 0.375 2.45
3 0.375 2.45
0 0.5 2.45
0.125 0.5 2.45
0.25 0.5 2.45
0.375 0.5 2.45
0.5 0.5 2.45
0.625 0.5 2.45
0.75 0.5 2.45
0.875 0.5 2.45
1 0.5 2.45
1.125 0.5 2.45
1.25 0.5 2.45
1.375 0.5 2.45
1.5 0.5 2.45
1.625 0.5 2.45
1.75 0.5 2.45
1.875 0.5 2.45
2 0.5 2.45
2.125 0.5 2.45
2.25 0.5 2.45
2.375 0.5 2.45
2.5 0.5 2.45
2.625 0.5 2.45
2.75 0.5 2.45
2.875 0.5 2.45
3 0.5 2.45
0 0.625 2.45
0.125 0.625 2.45
0.25 0.625 2.45
0.375 0.625 2.45
0.5 0.625 2.45
0.625 0.625 2.45
0.75 0.625 2.45
0.875 0.625 2.45
1 0.625 2.45
1.125 0.625 2.45
1.25 0.625 2.45
1.375 0.625 2.45
1.5 0.625 2.45
1.625 0.625 2.45
1.75 0.625 2.45
1.875 0.625 2.45
2 0.625 2.45
2.125 0.625 2.45
2.25 0.625 2.45
2.375 0.625 2.45
2.5 0.625 2.45
2.625 0.625 2.45
2.75 0.625 2.45
2.875 0.625 2.45
3 0.625 2.45
0 0.75 2.45
0.125 0.75 2.45
0.25 0.75 2.45
0.375 0.75 2.45
0.5 0.75 2.45
0.625 0.75 2.45
0.75 0.75 2.45
0.875 0.75 2.45
1 0.75 2.45
1.125 0.75 2.45
1.25 0.75 2.45
1.375 0.75 2.45
1.5 0.75 2.45
1.625 0.75 2.45
1.75 0.75 2.45
1.875 0.75 2.45
2 0.75 2.45
2.125 0.75 2.45
2.25 0.75 2.45
2.375 0.75 2.45
2.5 0.75 2.45
2.625 0.75 2.45
2.75 0.75 2.45
2.875 0.75 2.45
3 0.75 2.45
0 0.875 2.45
0.125 0.875 2.45
0.25 0.875 2.45
0.375 0.875 2.45
0.5 0.875 2.45
0.625 0.875 2.45
0.75 0.875 2.45
0.875 0.875 2.45
1 0.875 2.45
1.125 0.875 2.45
1.25 0.875 2.45
1.375 0.875 2.45
1.5 0.875 2.45
1.625 0.875 2.45
1.75 0.875 2.45
1.875 0.875 2.45
2 0.875 2.45
2.125 0.875 2.45
2.25 0.875 2.45
2.375 0.875 2.45
2.5 0.875 2.45
2.625 0.875 2.45
2.75 0.875 2.45
2.875 0.875 2.45
3 0.875 2.45
0 1 2.45
0.125 1 2.45
0.25 1 2.45
0.375 1 2.45
0.5 1 2.45
0.625 1 2.45
0.75 1 2.45
0.875 1 2.45
1 1 2.45
1.125 1 2.45
1.25 1 2.45
1.375 1 2.45
1.5 1 2.45
1.625 1 2.45
1.75 1 2.45
1.875 1 2.45
2 1 2.45
2.125 1 2.45
2.25 1 2.45
2.375 1 2.45
2.5 1 2.45
2.625 1 2.45
2.75 1 2.45
2.875 1 2.45
3 1 2.45
0 0 2.575
0.125 0 2.575
0.25 0 2.575
0.375 0 2.575
0.5 0 2.575
0.625 0 2.575
0.75 0 2.575
0.875 0 2.575
1 0 2.575
1.125 0 2.575
1.25 0 2.575
1.375 0 2.575
1.5 0 2.575
1.625 0 2.575
1.75 0 2.575
1.875 0 2.575
2 0 2.575
2.125 0 2.575
2.25 0 2.575
2.375 0 2.575
2.5 0 2.575
2.625 0 2.575
2.75 0 2.575
2.875 0 2.575
3 0 2.575
0 0.125 2.575
0.125 0.125 2.575
0.25 0.125 2.575
0.375 0.125 2.575
0.5 0.125 2.575
0.625 0.125 2.575
0.75 0.125 2.575
0.875 0.125 2.575
1 0.125 2.575
1.125 0.125 2.575
1.25 0.125 2.575
1.375 0.125 2.575
1.5 0.125 2.575
1.625 0.125 2.575
1.75 0.125 2.575
1.875 0.125 2.575
2 0.125 2.575
2.125 0.125 2.575
2.25 0.125 2.575
2.375 0.125 2.575
2.5 0.125 2.575
2.625 0.125 2.575
2.75 0.125 2.575
2.875 0.125 2.575
3 0.125 2.575
0 0.25 2.575
0.125 0.25 2.575
0.25 0.25 2.575
0.375 0.25 2.575
0.5 0.25 2.575
0.625 0.25 2.575
0.75 0.25 2.575
0.875 0.25 2.575
1 0.25 2.575
1.125 0.25 2.575
1.25 0.25 2.575
1.375 0.25 2.575
1.5 0.25 2.575
1.625 0.25 2.575
1.75 0.25 2.575
1.875 0.25 2.575
2 0.25 2.575
2.125 0.25 2.575
2.25 0.25 2.575
2.375 0.25 2.575
2.5 0.25 2.575
2.625 0.25 2.575
2.75 0.25 2.575
2.875 0.25 2.575
3 0.25 2.575
0 0.375 2.575
0.125 0.375 2.575
0.25 0.375 2.575
0.375 0.375 2.575
0.5 0.375 2.575
0.625 0.375 2.575
0.75 0.375 2.575
0.875 0.375 2.575
1 0.375 2.575
1.125 0.375 2.575
1.25 0.375 2.575
1.375 0.375 2.575
1.5 0.375 2.575
1.625 0.375 2.575
1.75 0.375 2.575
1.875 0.375 2.575
2 0.375 2.575
2.125 0.375 2.575
2.25 0.375 2.575
2.375 0.375 2.575
2.5 0.375 2.575
2.625 0.375 2.575
2.75 0.375 2.575
2.875 0.375 2.575
3 0.375 2.575
0 0.5 2.575
0.125 0.5 2.575
0.25 0.5 2.575
0.375 0.5 2.575
0.5 0.5 2.575
0.625 0.5 2.575
0.75 0.5 2.575
0.875 0.5 2.575
1 0.5 2.575
1.125 0.5 2.575
1.25 0.5 2.575
1.375 0.5 2.575
1.5 0.5 2.575
1.625 0.5 2.575
1.75 0.5 2.575
1.875 0.5 2.575
2 0.5 2.575
2.125 0.5 2.575
2.25 0.5 2.575
2.375 0.5 2.575
2.5 0.5 2.575
2.625 0.5 2.575
2.75 0.5 2.575
2.875 0.5 2.575
3 0.5 2.575
0 0.625 2.575
0.125 0.625 2.575
0.25 0.625 2.575
0.375 0.625 2.575
0.5 0.625 2.575
0.625 0.625 2.575
0.75 0.625 2.575
0.875 0.625 2.575
1 0.625 2.575
1.125 0.625 2.575
1.25 0.625 2.575
1.375 0.625 2.575
1.5 0.625 2.575
1.625 0.625 2.575
1.75 0.625 2.575
1.875 0.625 2.575
2 0.625 2.575
2.125 0.625 2.575
2.25 0.625 2.575
2.375 0.625 2.575
2.5 0.625 2.575
2.625 0.625 2.575
2.75 0.625 2.575
2.875 0.625 2.575
3 0.625 2.575
0 0.75 2.575
0.125 0.75 2.575
0.25 0.75 2.575
0.375 0.75 2.575
0.5 0.75 2.575
0.625 0.75 2.575
0.75 0.75 2.575
0.875 0.75 2.575
1 0.75 2.575
1.125 0.75 2.575
1.25 0.75 2.575
1.375 0.75 2.575
1.5 0.75 2.575
1.625 0.75 2.575
1.75 0.75 2.575
1.875 0.75 2.575
2 0.75 2.575
2.125 0.75 2.575
2.25 0.75 2.575
2.375 0.75 2.575
2.5 0.75 2.575
2.625 0.75 2.575
2.75 0.75 2.575
2.875 0.75 2.575
3 0.75 2.575
0 0.875 2.575
0.125 0.875 2.575
0.25 0.875 2.575
0.375 0.875 2.575
0.5 0.875 2.575
0.625 0.875 2.575
0.75 0.875 2.575
0.875 0.875 2.575
1 0.875 2.575
1.125 0.875 2.575
1.25 0.875 2.575
1.375 0.875 2.575
1.5 0.875 2.575
1.625 0.875 2.575
1.75 0.875 2.575
1.875 0.875 2.575
2 0.875 2.575
2.125 0.875 2.575
2.25 0.875 2.575
2.375 0.875 2.575
2.5 0.875 2.575
2.625 0.875 2.575
2.75 0.875 2.575
2.875 0.875 2.575
3 0.875 2.575
0 1 2.575
0.125 1 2.575
0.25 1 2.575
0.375 1 2.575
0.5 1 2.575
0.625 1 2.575
0.75 1 2.575
0.875 1 2.575
1 1 2.575
1.125 1 2.575
1.25 1 2.575
1.375 1 2.575
1.5 1 2.575
1.625 1 2.575
1.75 1 2.575
1.875 1 2.575
2 1 2.575
2.125 1 2.575
2.25 1 2.575
2.375 1 2.575
2.5 1 2.575
2.625 1 2.575
2.75 1 2.575
2.875 1 2.575
3 1 2.575
0 0 2.7
0.125 0 2.7
0.25 0 2.7
0.375 0 2.7
0.5 0 2.7
0.625 0 2.7
0.75 0 2.7
0.875 0 2.7
1 0 2.7
1.125 0 2.7
1.25 0 2.7
1.375 0 2.7
1.5 0 2.7
1.625 0 2.7
1.75 0 2.7
1.875 0 2.7
2 0 2.7
2.125 0 2.7
2.25 0 2.7
2.375 0 2.7
2.5 0 2.7
2.625 0 2.7
2.75 0 2.7
2.875 0 2.7
3 0 2.7
0 0.125 2.7
0.125 0.125 2.7
0.25 0.125 2.7
0.375 0.125 2.7
0.5 0.125 2.7
0.625 0.125 2.7
0.75 0.125 2.7
0.875 0.125 2.7
1 0.125 2.7
1.125 0.125 2.7
1.25 0.125 2.7
1.375 0.125 2.7
1.5 0.125 2.7
1.625 0.125 2.7
1.75 0.125 2.7
1.875 0.125 2.7
2 0.125 2.7
2.125 0.125 2.7
2.25 0.125 2.7
2.375 0.125 2.7
2.5 0.125 2.7
2.625 0.125 2.7
2.75 0.125 2.7
2.875 0.125 2.7
3 0.125 2.7
0 0.25 2.7
0.125 0.25 2.7
0.25 0.25 2.7
0.375 0.25 2.7
0.5 0.25 2.7
0.625 0.25 2.7
0.75 0.25 2.7
0.875 0.25 2.7
1 0.25 2.7
1.125 0.25 2.7
1.25 0.25 2.7
1.375 0.25 2.7
1.5 0.25 2.7
1.625 0.25 2.7
1.75 0.25 2.7
1.875 0.25 2.7
2 0.25 2.7
2.125 0.25 2.7
2.25 0.25 2.7
2.375 0.25 2.7
2.5 0.25 2.7
2.625 0.25 2.7
2.75 0.25 2.7
2.875 0.25 2.7
3 0.25 2.7
0 0.375 2.7
0.125 0.375 2.7
0.25 0.375 2.7
0.375 0.375 2.7
0.5 0.375 2.7
0.625 0.375 2.7
0.75 0.375 2.7
0.875 0.375 2.7
1 0.375 2.7
1.125 0.375 2.7
1.25 0.375 2.7
1.375 0.375 2.7
1.5 0.375 2.7
1.625 0.375 2.7
1.75 0.375 2.7
1.875 0.375 2.7
2 0.375 2.7
2.125 0.375 2.7
2.25 0.375 2.7
2.375 0.375 2.7
2.5 0.375 2.7
2.625 0.375 2.7
2.75 0.375 2.7
2.875 0.375 2.7
3 0.375 2.7
0 0.5 2.7
0.125 0.5 2.7
0.25 0.5 2.7
0.375 0.5 2.7
0.5 0.5 2.7
0.625 0.5 2.7
0.75 0.5 2.7
0.875 0.5 2.7
1 0.5 2.7
1.125 0.5 2.7
1.25 0.5 2.7
1.375 0.5 2.7
1.5 0.5 2.7
1.625 0.5 2.7
1.75 0.5 2.7
1.875 0.5 2.7
2 0.5 2.7
2.125 0.5 2.7
2.25 0.5 2.7
2.375 0.5 2.7
2.5 0.5 2.7
2.625 0.5 2.7
2.75 0.5 2.7
2.875 0.5 2.7
3 0.5 2.7
0 0.625 2.7
0.125 0.625 2.7
0.25 0.625 2.7
0.375 0.625 2.7
0.5 0.625 2.7
0.625 0.625 2.7
0.75 0.625 2.7
0.875 0.625 2.7
1 0.625 2.7
1.125 0.625 2.7
1.25 0.625 2.7
1.375 0.625 2.7
1.5 0.625 2.7
1.625 0.625 2.7
1.75 0.625 2.7
1.875 0.625 2.7
2 0.625 2.7
2.125 0.625 2.7
2.25 0.625 2.7
2.375 0.625 2.7
2.5 0.625 2.7
2.625 0.625 2.7
2.75 0.625 2.7
2.875 0.625 2.7
3 0.625 2.7
0 0.75 2.7
0.125 0.75 2.7
0.25 0.75 2.7
0.375 0.75 2.7
0.5 0.75 2.7
0.625 0.75 2.7
0.75 0.75 2.7
0.875 0.75 2.7
1 0.75 2.7
1.125 0.75 2.7
1.25 0.75 2.7
1.375 0.75 2.7
1.5 0.75 2.7
1.625 0.75 2.7
1.75 0.75 2.7
1.875 0.75 2.7
2 0.75 2.7
2.125 0.75 2.7
2.25 0.75 2.7
2.375 0.75 2.7
2.5 0.75 2.7
2.625 0.75 2.7
2.75 0.75 2.7
2.875 0.75 2.7
3 0.75 2.7
0 0.875 2.7
0.125 0.875 2.7
0.25 0.875 2.7
0.375 0.875 2.7
0.5 0.875 2.7
0.625 0.875 2.7
0.75 0.875 2.7
0.875 0.875 2.7
1 0.875 2.7
1.125 0.875 2.7
1.25 0.875 2.7
1.375 0.875 2.7
1.5 0.875 2.7
1.625 0.875 2.7
1.75 0.875 2.7
1.875 0.875 2.7
2 0.875 2.7
2.125 0.875 2.7
2.25 0.875 2.7
2.375 0.875 2.7
2.5 0.875 2.7
2.625 0.875 2.7
2.75 0.875 2.7
2.875 0.875 2.7
3 0.875 2.7
0 1 2.7
0.125 1 2.7
0.25 1 2.7
0.375 1 2.7
0.5 1 2.7
0.625 1 2.7
0.75 1 2.7
0.875 1 2.7
1 1 2.7
1.125 1 2.7
1.25 1 2.7
1.375 1 2.7
1.5 1 2.7
1.625 1 2.7
1.75 1 2.7
1.875 1 2.7
2 1 2.7
2.125 1 2.7
2.25 1 2.7
2.375 1 2.7
2.5 1 2.7
2.625 1 2.7
2.75 1 2.7
2.875 1 2.7
3 1 2.7
0 0 2.825
0.125 0 2.825
0.25 0 2.825
0.375 0 2.825
0.5 0 2.825
0.625 0 2.825
0.75 0 2.825
0.875 0 2.825
1 0 2.825
1.125 0 2.825
1.25 0 2.825
1.375 0 2.825
1.5 0 2.825
1.625 0 2.825
1.75 0 2.825
1.875 0 2.825
2 0 2.825
2.125 0 2.825
2.25 0 2.825
2.375 0 2.825
2.5 0 2.825
2.625 0 2.825
2.75 0 2.825
2.875 0 2.825
3 0 2.825
0 0.125 2.825
0.125 0.125 2.825
0.25 0.125 2.825
0.375 0.125 2.825
0.5 0.125 2.825
0.625 0.125 2.825
0.75 0.125 2.825
0.875 0.125 2.825
1 0.125 2.825
1.125 0.125 2.825
1.25 0.125 2.825
1.375 0.125 2.825
1.5 0.125 2.825
1.625 0.125 2.825
1.75 0.125 2.825
1.875 0.125 2.825
2 0.125 2.825
2.125 0.125 2.825
2.25 0.125 2.825
2.375 0.125 2.825
2.5 0.125 2.825
2.625 0.125 2.825
2.75 0.125 2.825
2.875 0.125 2.825
3 0.125 2.825
0 0.25 2.825
0.125 0.25 2.825
0.25 0.25 2.825
0.375 0.25 2.825
0.5 0.25 2.825
0.625 0.25 2.825
0.75 0.25 2.825
0.875 0.25 2.825
1 0.25 2.825
1.125 0.25 2.825
1.25 0.25 2.825
1.375 0.25 2.825
1.5 0.25 2.825
1.625 0.25 2.825
1.75 0.25 2.825
1.875 0.25 2.825
2 0.25 2.825
2.125 0.25 2.825
2.25 0.25 2.825
2.375 0.25 2.825
2.5 0.25 2.825
2.625 0.25 2.825
2.75 0.25 2.825
2.875 0.25 2.825
3 0.25 2.825
0 0.375 2.825
0.125 0.375 2.825
0.25 0.375 2.825
0.375 0.375 2.825
0.5 0.375 2.825
0.625 0.375 2.825
0.75 0.375 2.825
0.875 0.375 2.825
1 0.375 2.825
1.125 0.375 2.825
1.25 0.375 2.825
1.375 0.375 2.825
1.5 0.375 2.825
1.625 0.375 2.825
1.75 0.375 2.825
1.875 0.375 2.825
2 0.375 2.825
2.125 0.375 2.825
2.25 0.375 2.825
2.375 0.375 2.825
2.5 0.375 2.825
2.625 0.375 2.825
2.75 0.375 2.825
2.875 0.375 2.825
3 0.375 2.825
0 0.5 2.825
0.125 0.5 2.825
0.25 0.5 2.825
0.375 0.5 2.825
0.5 0.5 2.825
0.625 0.5 2.825
0.75 0.5 2.825
0.875 0.5 2.825
1 0.5 2.825
1.125 0.5 2.825
1.25 0.5 2.825
1.375 0.5 2.825
1.5 0.5 2.825
1.625 0.5 2.825
1.75 0.5 2.825
1.875 0.5 2.825
2 0.5 2.825
2.125 0.5 2.825
2.25 0.5 2.825
2.375 0.5 2.825
2.5 0.5 2.825
2.625 0.5 2.825
2.75 0.5 2.825
2.875 0.5 2.825
3 0.5 2.825
0 0.625 2.825
0.125 0.625 2.825
0.25 0.625 2.825
0.375 0.625 2.825
0.5 0.625 2.825
0.625 0.625 2.825
0.75 0.625 2.825
0.875 0.625 2.825
1 0.625 2.825
1.125 0.625 2.825
1.25 0.625 2.825
1.375 0.625 2.825
1.5 0.625 2.825
1.625 0.625 2.825
1.75 0.625 2.825
1.875 0.625 2.825
2 0.625 2.825
2.125 0.625 2.825
2.25 0.625 2.825
2.375 0.625 2.825
2.5 0.625 2.825
2.625 0.625 2.825
2.75 0.625 2.825
2.875 0.625 2.825
3 0.625 2.825
0 0.75 2.825
0.125 0.75 2.825
0.25 0.75 2.825
0.375 0.75 2.825
0.5 0.75 2.825
0.625 0.75 2.825
0.75 0.75 2.825
0.875 0.75 2.825
1 0.75 2.825
1.125 0.75 2.825
1.25 0.75 2.825
1.375 0.75 2.825
1.5 0.75 2.825
1.625 0.75 2.825
1.75 0.75 2.825
1.875 0.75 2.825
2 0.75 2.825
2.125 0.75 2.825
2.25 0.75 2.825
2.375 0.75 2.825
2.5 0.75 2.825
2.625 0.75 2.825
2.75 0.75 2.825
2.875 0.75 2.825
3 0.75 2.825
0 0.875 2.825
0.125 0.875 2.825
0.25 0.875 2.825
0.375 0.875 2.825
0.5 0.875 2.825
0.625 0.875 2.825
0.75 0.875 2.825
0.875 0.875 2.825
1 0.875 2.825
1.125 0.875 2.825
1.25 0.875 2.825
1.375 0.875 2.825
1.5 0.875 2.825
1.625 0.875 2.825
1.75 0.875 2.825
1.875 0.875 2.825
2 0.875 2.825
2.125 0.875 2.825
2.25 0.875 2.825
2.375 0.875 2.825
2.5 0.875 2.825
2.625 0.875 2.825
2.75 0.875 2.825
2.875 0.875 2.825
3 0.875 2.825
0 1 2.825
0.125 1 2.825
0.25 1 2.825
0.375 1 2.825
0.5 1 2.825
0.625 1 2.825
0.75 1 2.825
0.875 1 2.825
1 1 2.825
1.125 1 2.825
1.25 1 2.825
1.375 1 2.825
1.5 1 2.825
1.625 1 2.825
1.75 1 2.825
1.875 1 2.825
2 1 2.825
2.125 1 2.825
2.25 1 2.825
2.375 1 2.825
2.5 1 2.825
2.625 1 2.825
2.75 1 2.825
2.875 1 2.825
3 1 2.825
0 0 2.95
0.125 0 2.95
0.25 0 2.95
0.375 0 2.95
0.5 0 2.95
0.625 0 2.95
0.75 0 2.95
0.875 0 2.95
1 0 2.95
1.125 0 2.95
1.25 0 2.95
1.375 0 2.95
1.5 0 2.95
1.625 0 2.95
1.75 0 2.95
1.875 0 2.95
2 0 2.95
2.125 0 2.95
2.25 0 2.95
2.375 0 2.95
2.5 0 2.95
2.625 0 2.95
2.75 0 2.95
2.875 0 2.95
3 0 2.95
0 0.125 2.95
0.125 0.125 2.95
0.25 0.125 2.95
0.375 0.125 2.95
0.5 0.125 2.95
0.625 0.125 2.95
0.75 0.125 2.95
0.875 0.125 2.95
1 0.125 2.95
1.125 0.125 2.95
1.25 0.125 2.95
1.375 0.125 2.95
1.5 0.125 2.95
1.625 0.125 2.95
1.75 0.125 2.95
1.875 0.125 2.95
2 0.125 2.95
2.125 0.125 2.95
2.25 0.125 2.95
2.375 0.125 2.95
2.5 0.125 2.95
2.625 0.125 2.95
2.75 0.125 2.95
2.875 0.125 2.95
3 0.125 2.95
0 0.25 2.95
0.125 0.25 2.95
0.25 0.25 2.95
0.375 0.25 2.95
0.5 0.25 2.95
0.625 0.25 2.95
0.75 0.25 2.95
0.875 0.25 2.95
1 0.25 2.95
1.125 0.25 2.95
1.25 0.25 2.95
1.375 0.25 2.95
1.5 0.25 2.95
1.625 0.25 2.95
1.75 0.25 2.95
1.875 0.25 2.95
2 0.25 2.95
2.125 0.25 2.95
2.25 0.25 2.95
2.375 0.25 2.95
2.5 0.25 2.95
2.625 0.25 2.95
2.75 0.25 2.95
2.875 0.25 2.95
3 0.25 2.95
0 0.375 2.95
0.125 0.375 2.95
0.25 0.375 2.95
0.375 0.375 2.95
0.5 0.375 2.95
0.625 0.375 2.95
0.75 0.375 2.95
0.875 0.375 2.95
1 0.375 2.95
1.125 0.375 2.95
1.25 0.375 2.95
1.375 0.375 2.95
1.5 0.375 2.95
1.625 0.375 2.95
1.75 0.375 2.95
1.875 0.375 2.95
2 0.375 2.95
2.125 0.375 2.95
2.25 0.375 2.95
2.375 0.375 2.95
2.5 0.375 2.95
2.625 0.375 2.95
2.75 0.375 2.95
2.875 0.375 2.95
3 0.375 2.95
0 0.5 2.95
0.125 0.5 2.95
0.25 0.5 2.95
0.375 0.5 2.95
0.5 0.5 2.95
0.625 0.5 2.95
0.75 0.5 2.95
0.875 0.5 2.95
1 0.5 2.95
1.125 0.5 2.95
1.25 0.5 2.95
1.375 0.5 2.95
1.5 0.5 2.95
1.625 0.5 2.95
1.75 0.5 2.95
1.875 0.5 2.95
2 0.5 2.95
2.125 0.5 2.95
2.25 0.5 2.95
2.375 0.5 2.95
2.5 0.5 2.95
2.625 0.5 2.95
2.75 0.5 2.95
2.875 0.5 2.95
3 0.5 2.95
0 0.625 2.95
0.125 0.625 2.95
0.25 0.625 2.95
0.375 0.625 2.95
0.5 0.625 2.95
0.625 0.625 2.95
0.75 0.625 2.95
0.875 0.625 2.95
1 0.625 2.95
1.125 0.625 2.95
1.25 0.625 2.95
1.375 0.625 2.95
1.5 0.625 2.95
1.625 0.625 2.95
1.75 0.625 2.95
1.875 0.625 2.95
2 0.625 2.95
2.125 0.625 2.95
2.25 0.625 2.95
2.375 0.625 2.95
2.5 0.625 2.95
2.625 0.625 2.95
2.75 0.625 2.95
2.875 0.625 2.95
3 0.625 2.95
0 0.75 2.95
0.125 0.75 2.95
0.25 0.75 2.95
0.375 0.75 2.95
0.5 0.75 2.95
0.625 0.75 2.95
0.75 0.75 2.95
0.875 0.75 2.95
1 0.75 2.95
1.125 0.75 2.95
1.25 0.75 2.95
1.375 0.75 2.95
1.5 0.75 2.95
1.625 0.75 2.95
1.75 0.75 2.95
1.875 0.75 2.95
2 0.75 2.95
2.125 0.75 2.95
2.25 0.75 2.95
2.375 0.75 2.95
2.5 0.75 2.95
2.625 0.75 2.95
2.75 0.75 2.95
2.875 0.75 2.95
3 0.75 2.95
0 0.875 2.95
0.125 0.875 2.95
0.25 0.875 2.95
0.375 0.875 2.95
0.5 0.875 2.95
0.625 0.875 2.95
0.75 0.875 2.95
0.875 0.875 2.95
1 0.875 2.95
1.125 0.875 2.95
1.25 0.875 2.95
1.375 0.875 2.95
1.5 0.875 2.95
1.625 0.875 2.95
1.75 0.875 2.95
1.875 0.875 2.95
2 0.875 2.95
2.125 0.875 2.95
2.25 0.875 2.95
2.375 0.875 2.95
2.5 0.875 2.95
2.625 0.875 2.95
2.75 0.875 2.95
2.875 0.875 2.95
3 0.875 2.95
0 1 2.95
0.125 1 2.95
0.25 1 2.95
0.375 1 2.95
0.5 1 2.95
0.625 1 2.95
0.75 1 2.95
0.875 1 2.95
1 1 2.95
1.125 1 2.95
1.25 1 2.95
1.375 1 2.95
1.5 1 2.95
1.625 1 2.95
1.75 1 2.95
1.875 1 2.95
2 1 2.95
2.125 1 2.95
2.25 1 2.95
2.375 1 2.95
2.5 1 2.95
2.625 1 2.95
2.75 1 2.95
2.875 1 2.95
3 1 2.95
0 0 3.075
0.125 0 3.075
0.25 0 3.075
0.375 0 3.075
0.5 0 3.075
0.625 0 3.075
0.75 0 3.075
0.875 0 3.075
1 0 3.075
1.125 0 3.075
1.25 0 3.075
1.375 0 3.075
1.5 0 3.075
1.625 0 3.075
1.75 0 3.075
1.875 0 3.075
2 0 3.075
2.125 0 3.075
2.25 0 3.075
2.375 0 3.075
2.5 0 3.075
2.625 0 3.075
2.75 0 3.075
2.875 0 3.075
3 0 3.075
0 0.125 3.075
0.125 0.125 3.075
0.25 0.125 3.075
0.375 0.125 3.075
0.5 0.125 3.075
0.625 0.125 3.075
0.75 0.125 3.075
0.875 0.125 3.075
1 0.125 3.075
1.125 0.125 3.075
1.25 0.125 3.075
1.375 0.125 3.075
1.5 0.125 3.075
1.625 0.125 3.075
1.75 0.125 3.075
1.875 0.125 3.075
2 0.125 3.075
2.125 0.125 3.075
2.25 0.125 3.075
2.375 0.125 3.075
2.5 0.125 3.075
2.625 0.125 3.075
2.75 0.125 3.075
2.875 0.125 3.075
3 0.125 3.075
0 0.25 3.075
0.125 0.25 3.075
0.25 0.25 3.075
0.375 0.25 3.075
0.5 0.25 3.075
0.625 0.25 3.075
0.75 0.25 3.075
0.875 0.25 3.075
1 0.25 3.075
1.125 0.25 3.075
1.25 0.25 3.075
1.375 0.25 3.075
1.5 0.25 3.075
1.625 0.25 3.075
1.75 0.25 3.075
1.875 0.25 3.075
2 0.25 3.075
2.125 0.25 3.075
2.25 0.25 3.075
2.375 0.25 3.075
2.5 0.25 3.075
2.625 0.25 3.075
2.75 0.25 3.075
2.875 0.25 3.075
3 0.25 3.075
0 0.375 3.075
0.125 0.375 3.075
0.25 0.375 3.075
0.375 0.375 3.075
0.5 0.375 3.075
0.625 0.375 3.075
0.75 0.375 3.075
0.875 0.375 3.075
1 0.375 3.075
1.125 0.375 3.075
1.25 0.375 3.075
1.375 0.375 3.075
1.5 0.375 3.075
1.625 0.375 3.075
1.75 0.375 3.075
1.875 0.375 3.075
2 0.375 3.075
2.125 0.375 3.075
2.25 0.375 3.075
2.375 0.375 3.075
2.5 0.375 3.075
2.625 0.375 3.075
2.75 0.375 3.075
2.875 0.375 3.075
3 0.375 3.075
0 0.5 3.075
0.125 0.5 3.075
0.25 0.5 3.075
0.375 0.5 3.075
0.5 0.5 3.075
0.625 0.5 3.075
0.75 0.5 3.075
0.875 0.5 3.075
1 0.5 3.075
1.125 0.5 3.075
1.25 0.5 3.075
1.375 0.5 3.075
1.5 0.5 3.075
1.625 0.5 3.075
1.75 0.5 3.075
1.875 0.5 3.075
2 0.5 3.075
2.125 0.5 3.075
2.25 0.5 3.075
2.375 0.5 3.075
2.5 0.5 3.075
2.625 0.5 3.075
2.75 0.5 3.075
2.875 0.5 3.075
3 0.5 3.075
0 0.625 3.075
0.125 0.625 3.075
0.25 0.625 3.075
0.375 0.625 3.075
0.5 0.625 3.075
0.625 0.625 3.075
0.75 0.625 3.075
0.875 0.625 3.075
1 0.625 3.075
1.125 0.625 3.075
1.25 0.625 3.075
1.375 0.625 3.075
1.5 0.625 3.075
1.625 0.625 3.075
1.75 0.625 3.075
1.875 0.625 3.075
2 0.625 3.075
2.125 0.625 3.075
2.25 0.625 3.075
2.375 0.625 3.075
2.5 0.625 3.075
2.625 0.625 3.075
2.75 0.625 3.075
2.875 0.625 3.075
3 0.625 3.075
0 0.75 3.075
0.125 0.75 3.075
0.25 0.75 3.075
0.375 0.75 3.075
0.5 0.75 3.075
0.625 0.75 3.075
0.75 0.75 3.075
0.875 0.75 3.075
1 0.75 3.075
1.125 0.75 3.075
1.25 0.75 3.075
1.375 0.75 3.075
1.5 0.75 3.075
1.625 0.75 3.075
1.75 0.75 3.075
1.875 0.75 3.075
2 0.75 3.075
2.125 0.75 3.075
2.25 0.75 3.075
2.375 0.75 3.075
2.5 0.75 3.075
2.625 0.75 3.075
2.75 0.75 3.075
2.875 0.75 3.075
3 0.75 3.075
0 0.875 3.075
0.125 0.875 3.075
0.25 0.875 3.075
0.375 0.875 3.075
0.5 0.875 3.075
0.625 0.875 3.075
0.75 0.875 3.075
0.875 0.875 3.075
1 0.875 3.075
1.125 0.875 3.075
1.25 0.875 3.075
1.375 0.875 3.075
1.5 0.875 3.075
1.625 0.875 3.075
1.75 0.875 3.075
1.875 0.875 3.075
2 0.875 3.075
2.125 0.875 3.075
2.25 0.875 3.075
2.375 0.875 3.075
2.5 0.875 3.075
2.625 0.875 3.075
2.75 0.875 3.075
2.875 0.875 3.075
3 0.875 3.075
0 1 3.075
0.125 1 3.075
0.25 1 3.075
0.375 1 3.075
0.5 1 3.075
0.625 1 3.075
0.75 1 3.075
0.875 1 3.075
1 1 3.075
1.125 1 3.075
1.25 1 3.075
1.375 1 3.075
1.5 1 3.075
1.625 1 3.075
1.75 1 3.075
1.875 1 3.075
2 1 3.075
2.125 1 3.075
2.25 1 3.075
2.375 1 3.075
2.5 1 3.075
2.625 1 3.075
2.75 1 3.075
2.875 1 3.075
3 1 3.075
0 0 3.2
0.125 0 3.2
0.25 0 3.2
0.375 0 3.2
0.5 0 3.2
0.625 0 3.2
0.75 0 3.2
0.875 0 3.2
1 0 3.2
1.125 0 3.2
1.25 0 3.2
1.375 0 3.2
1.5 0 3.2
1.625 0 3.2
1.75 0 3.2
1.875 0 3.2
2 0 3.2
2.125 0 3.2
2.25 0 3.2
2.375 0 3.2
2.5 0 3.2
2.625 0 3.2
2.75 0 3.2
2.875 0 3.2
3 0 3.2
0 0.125 3.2
0.125 0.125 3.2
0.25 0.125 3.2
0.375 0.125 3.2
0.5 0.125 3.2
0.625 0.125 3.2
0.75 0.125 3.2
0.875 0.125 3.2
1 0.125 3.2
1.125 0.125 3.2
1.25 0.125 3.2
1.375 0.125 3.2
1.5 0.125 3.2
1.625 0.125 3.2
1.75 0.125 3.2
1.875 0.125 3.2
2 0.125 3.2
2.125 0.125 3.2
2.25 0.125 3.2
2.375 0.125 3.2
2.5 0.125 3.2
2.625 0.125 3.2
2.75 0.125 3.2
2.875 0.125 3.2
3 0.125 3.2
0 0.25 3.2
0.125 0.25 3.2
0.25 0.25 3.2
0.375 0.25 3.2
0.5 0.25 3.2
0.625 0.25 3.2
0.75 0.25 3.2
0.875 0.25 3.2
1 0.25 3.2
1.125 0.25 3.2
1.25 0.25 3.2
1.375 0.25 3.2
1.5 0.25 3.2
1.625 0.25 3.2
1.75 0.25 3.2
1.875 0.25 3.2
2 0.25 3.2
2.125 0.25 3.2
2.25 0.25 3.2
2.375 0.25 3.2
2.5 0.25 3.2
2.625 0.25 3.2
2.75 0.25 3.2
2.875 0.25 3.2
3 0.25 3.2
0 0.375 3.2
0.125 0.375 3.2
0.25 0.375 3.2
0.375 0.375 3.2
0.5 0.375 3.2
0.625 0.375 3.2
0.75 0.375 3.2
0.875 0.375 3.2
1 0.375 3.2
1.125 0.375 3.2
1.25 0.375 3.2
1.375 0.375 3.2
1.5 0.375 3.2
1.625 0.375 3.2
1.75 0.375 3.2
1.875 0.375 3.2
2 0.375 3.2
2.125 0.375 3.2
2.25 0.375 3.2
2.375 0.375 3.2
2.5 0.375 3.2
2.625 0.375 3.2
2.75 0.375 3.2
2.875 0.375 3.2
3 0.375 3.2
0 0.5 3.2
0.125 0.5 3.2
0.25 0.5 3.2
0.375 0.5 3.2
0.5 0.5 3.2
0.625 0.5 3.2
0.75 0.5 3.2
0.875 0.5 3.2
1 0.5 3.2
1.125 0.5 3.2
1.25 0.5 3.2
1.375 0.5 3.2
1.5 0.5 3.2
1.625 0.5 3.2
1.75 0.5 3.2
1.875 0.5 3.2
2 0.5 3.2
2.125 0.5 3.2
2.25 0.5 3.2
2.375 0.5 3.2
2.5 0.5 3.2
2.625 0.5 3.2
2.75 0.5 3.2
2.875 0.5 3.2
3 0.5 3.2
0 0.625 3.2
0.125 0.625 3.2
0.25 0.625 3.2
0.375 0.625 3.2
0.5 0.625 3.2
0.625 0.625 3.2
0.75 0.625 3.2
0.875 0.625 3.2
1 0.625 3.2
1.125 0.625 3.2
1.25 0.625 3.2
1.375 0.625 3.2
1.5 0.625 3.2
1.625 0.625 3.2
1.75 0.625 3.2
1.875 0.625 3.2
2 0.625 3.2
2.125 0.625 3.2
2.25 0.625 3.2
2.375 0.625 3.2
2.5 0.625 3.2
2.625 0.625 3.2
2.75 0.625 3.2
2.875 0.625 3.2
3 0.625 3.2
0 0.75 3.2
0.125 0.75 3.2
0.25 0.75 3.2
0.375 0.75 3.2
0.5 0.75 3.2
0.625 0.75 3.2
0.75 0.75 3.2
0.875 0.75 3.2
1 0.75 3.2
1.125 0.75 3.2
1.25 0.75 3.2
1.375 0.75 3.2
1.5 0.75 3.2
1.625 0.75 3.2
1.75 0.75 3.2
1.875 0.75 3.2
2 0.75 3.2
2.125 0.75 3.2
2.25 0.75 3.2
2.375 0.75 3.2
2.5 0.75 3.2
2.625 0.75 3.2
2.75 0.75 3.2
2.875 0.75 3.2
3 0.75 3.2
0 0.875 3.2
0.125 0.875 3.2
0.25 0.875 3.2
0.375 0.875 3.2
0.5 0.875 3.2
0.625 0.875 3.2
0.75 0.875 3.2
0.875 0.875 3.2
1 0.875 3.2
1.125 0.875 3.2
1.25 0.875 3.2
1.375 0.875 3.2
1.5 0.875 3.2
1.625 0.875 3.2
1.75 0.875 3.2
1.875 0.875 3.2
2 0.875 3.2
2.125 0.875 3.2
2.25 0.875 3.2
2.375 0.875 3.2
2.5 0.875 3.2
2.625 0.875 3.2
2.75 0.875 3.2
2.875 0.875 3.2
3 0.875 3.2
0 1 3.2
0.125 1 3.2
0.25 1 3.2
0.375 1 3.2
0.5 1 3.2
0.625 1 3.2
0.75 1 3.2
0.875 1 3.2
1 1 3.2
1.125 1 3.2
1.25 1 3.2
1.375 1 3.2
1.5 1 3.2
1.625 1 3.2
1.75 1 3.2
1.875 1 3.2
2 1 3.2
2.125 1 3.2
2.25 1 3.2
2.375 1 3.2
2.5 1 3.2
2.625 1 3.2
2.75 1 3.2
2.875 1 3.2
3 1 3.2
0.0625 0 2.2
0.125 0 2.2625
0.0625 0 2.325
0 0 2.2625
0 0.0625 2.2
0.125 0.0625 2.2
0.125 0.0625 2.325
0 0.0625 2.325
0.0625 0.125 2.2
0.125 0.125 2.2625
0.0625 0.125 2.325
0 0.125 2.2625
0.0625 0 2.2625
0.0625 0.0625 2.2
0.125 0.0625 2.2625
0.0625 0.0625 2.325
0 0.0625 2.2625
0.0625 0.125 2.2625
0.0625 0.0625 2.2625
0.1875 0 2.2
0.25 0 2.2625
0.1875 0 2.325
0.25 0.0625 2.2
0.25 0.0625 2.325
0.1875 0.125 2.2
0.25 0.125 2.2625
0.1875 0.125 2.325
0.1875 0 2.2625
0.1875 0.0625 2.2
0.25 0.0625 2.2625
0.1875 0.0625 2.325
0.1875 0.125 2.2625
0.1875 0.0625 2.2625
0.3125 0 2.2
0.375 0 2.2625
0.3125 0 2.325
0.375 0.0625 2.2
0.375 0.0625 2.325
0.3125 0.125 2.2
0.375 0.125 2.2625
0.3125 0.125 2.325
0.3125 0 2.2625
0.3125 0.0625 2.2
0.375 0.0625 2.2625
0.3125 0.0625 2.325
0.3125 0.125 2.2625
0.3125 0.0625 2.2625
0.4375 0 2.2
0.5 0 2.2625
0.4375 0 2.325
0.5 0.0625 2.2
0.5 0.0625 2.325
0.4375 0.125 2.2
0.5 0.125 2.2625
0.4375 0.125 2.325
0.4375 0 2.2625
0.4375 0.0625 2.2
0.5 0.0625 2.2625
0.4375 0.0625 2.325
0.4375 0.125 2.2625
0.4375 0.0625 2.2625
0.5625 0 2.2
0.625 0 2.2625
0.5625 0 2.325
0.625 0.0625 2.2
0.625 0.0625 2.325
0.5625 0.125 2.2
0.625 0.125 2.2625
0.5625 0.125 2.325
0.5625 0 2.2625
0.5625 0.0625 2.2
0.625 0.0625 2.2625
0.5625 0.0625 2.325
0.5625 0.125 2.2625
0.5625 0.0625 2.2625
0.6875 0 2.2
0.75 0 2.2625
0.6875 0 2.325
0.75 0.0625 2.2
0.75 0.0625 2.325
0.6875 0.125 2.2
0.75 0.125 2.2625
0.6875 0.125 2.325
0.6875 0 2.2625
0.6875 0.0625 2.2
0.75 0.0625 2.2625
0.6875 0.0625 2.325
0.6875 0.125 2.2625
0.6875 0.0625 2.2625
0.8125 0 2.2
0.875 0 2.2625
0.8125 0 2.325
0.875 0.0625 2.2
0.875 0.0625 2.325
0.8125 0.125 2.2
0.875 0.125 2.2625
0.8125 0.125 2.325
0.8125 0 2.2625
0.8125 0.0625 2.2
0.875 0.0625 2.2625
0.8125 0.0625 2.325
0.8125 0.125 2.2625
0.8125 0.0625 2.2625
0.9375 0 2.2
1 0 2.2625
0.9375 0 2.325
1 0.0625 2.2
1 0.0625 2.325
0.9375 0.125 2.2
1 0.125 2.2625
0.9375 0.125 2.325
0.9375 0 2.2625
0.9375 0.0625 2.2
1 0.0625 2.2625
0.9375 0.0625 2.325
0.9375 0.125 2.2625
0.9375 0.0625 2.2625
1.0625 0 2.2
1.125 0 2.2625
1.0625 0 2.325
1.125 0.0625 2.2
1.125 0.0625 2.325
1.0625 0.125 2.2
1.125 0.125 2.2625
1.0625 0.125 2.325
1.0625 0 2.2625
1.0625 0.0625 2.2
1.125 0.0625 2.2625
1.0625 0.0625 2.325
1.0625 0.125 2.2625
1.0625 0.0625 2.2625
1.1875 0 2.2
1.25 0 2.2625
1.1875 0 2.325
1.25 0.0625 2.2
1.25 0.0625 2.325
1.1875 0.125 2.2
1.25 0.125 2.2625
1.1875 0.125 2.325
1.1875 0 2.2625
1.1875 0.0625 2.2
1.25 0.0625 2.2625
1.1875 0.0625 2.325
1.1875 0.125 2.2625
1.1875 0.0625 2.2625
1.3125 0 2.2
1.375 0 2.2625
1.3125 0 2.325
1.375 0.0625 2.2
1.375 0.0625 2.325
1.3125 0.125 2.2
1.375 0.125 2.2625
1.3125 0.125 2.325
1.3125 0 2.2625
1.3125 0.0625 2.2
1.375 0.0625 2.2625
1.3125 0.0625 2.325
1.3125 0.125 2.2625
1.3125 0.0625 2.2625
1.4375 0 2.2
1.5 0 2.2625
1.4375 0 2.325
1.5 0.0625 2.2
1.5 0.0625 2.325
1.4375 0.125 2.2
1.5 0.125 2.2625
1.4375 0.125 2.325
1.4375 0 2.2625
1.4375 0.0625 2.2
1.5 0.0625 2.2625
1.4375 0.0625 2.325
1.4375 0.125 2.2625
1.4375 0.0625 2.2625
1.5625 0 2.2
1.625 0 2.2625
1.5625 0 2.325
1.625 0.0625 2.2
1.625 0.0625 2.325
1.5625 0.125 2.2
1.625 0.125 2.2625
1.5625 0.125 2.325
1.5625 0 2.2625
1.5625 0.0625 2.2
1.625 0.0625 2.2625
1.5625 0.0625 2.325
1.5625 0.125 2.2625
1.5625 0.0625 2.2625
1.6875 0 2.2
1.75 0 2.2625
1.6875 0 2.325
1.75 0.0625 2.2
1.75 0.0625 2.325
1.6875 0.125 2.2
1.75 0.125 2.2625
1.6875 0.125 2.325
1.6875 0 2.2625
1.6875 0.0625 2.2
1.75 0.0625 2.2625
1.6875 0.0625 2.325
1.6875 0.125 2.2625
1.6875 0.0625 2.2625
1.8125 0 2.2
1.875 0 2.2625
1.8125 0 2.325
1.875 0.0625 2.2
1.875 0.0625 2.325
1.8125 0.125 2.2
1.875 0.125 2.2625
1.8125 0.125 2.325
1.8125 0 2.2625
1.8125 0.0625 2.2
1.875 0.0625 2.2625
1.8125 0.0625 2.325
1.8125 0.125 2.2625
1.8125 0.0625 2.2625
1.9375 0 2.2
2 0 2.2625
1.9375 0 2.325
2 0.0625 2.2
2 0.0625 2.325
1.9375 0.125 2.2
2 0.125 2.2625
1.9375 0.125 2.325
1.9375 0 2.2625
1.9375 0.0625 2.2
2 0.0625 2.2625
1.9375 0.0625 2.325
1.9375 0.125 2.2625
1.9375 0.0625 2.2625
2.0625 0 2.2
2.125 0 2.2625
2.0625 0 2.325
2.125 0.0625 2.2
2.125 0.0625 2.325
2.0625 0.125 2.2
2.125 0.125 2.2625
2.0625 0.125 2.325
2.0625 0 2.2625
2.0625 0.0625 2.2
2.125 0.0625 2.2625
2.0625 0.0625 2.325
2.0625 0.125 2.2625
2.0625 0.0625 2.2625
2.1875 0 2.2
2.25 0 2.2625
2.1875 0 2.325
2.25 0.0625 2.2
2.25 0.0625 2.325
2.1875 0.125 2.2
2.25 0.125 2.2625
2.1875 0.125 2.325
2.1875 0 2.2625
2.1875 0.0625 2.2
2.25 0.0625 2.2625
2.1875 0.0625 2.325
2.1875 0.125 2.2625
2.1875 0.0625 2.2625
2.3125 0 2.2
2.375 0 2.2625
2.3125 0 2.325
2.375 0.0625 2.2
2.375 0.0625 2.325
2.3125 0.125 2.2
2.375 0.125 2.2625
2.3125 0.125 2.325
2.3125 0 2.2625
2.3125 0.0625 2.2
2.375 0.0625 2.2625
2.3125 0.0625 2.325
2.3125 0.125 2.2625
2.3125 0.0625 2.2625
2.4375 0 2.2
2.5 0 2.2625
2.4375 0 2.325
2.5 0.0625 2.2
2.5 0.0625 2.325
2.4375 0.125 2.2
2.5 0.125 2.2625
2.4375 0.125 2.325
2.4375 0 2.2625
2.4375 0.0625 2.2
2.5 0.0625 2.2625
2.4375 0.0625 2.325
2.4375 0.125 2.2625
2.4375 0.0625 2.2625
2.5625 0 2.2
2.625 0 2.2625
2.5625 0 2.325
2.625 0.0625 2.2
2.625 0.0625 2.325
2.5625 0.125 2.2
2.625 0.125 2.2625
2.5625 0.125 2.325
2.5625 0 2.2625
2.5625 0.0625 2.2
2.625 0.0625 2.2625
2.5625 0.0625 2.325
2.5625 0.125 2.2625
2.5625 0.0625 2.2625
2.6875 0 2.2
2.75 0 2.2625
2.6875 0 2.325
2.75 0.0625 2.2
2.75 0.0625 2.325
2.6875 0.125 2.2
2.75 0.125 2.2625
2.6875 0.125 2.325
2.6875 0 2.2625
2.6875 0.0625 2.2
2.75 0.0625 2.2625
2.6875 0.0625 2.325
2.6875 0.125 2.2625
2.6875 0.0625 2.2625
2.8125 0 2.2
2.875 0 2.2625
2.8125 0 2.325
2.875 0.0625 2.2
2.875 0.0625 2.325
2.8125 0.125 2.2
2.875 0.125 2.2625
2.8125 0.125 2.325
2.8125 0 2.2625
2.8125 0.0625 2.2
2.875 0.0625 2.2625
2.8125 0.0625 2.325
2.8125 0.125 2.2625
2.8125 0.0625 2.2625
2.9375 0 2.2
3 0 2.2625
2.9375 0 2.325
3 0.0625 2.2
3 0.0625 2.325
2.9375 0.125 2.2
3 0.125 2.2625
2.9375 0.125 2.325
2.9375 0 2.2625
2.9375 0.0625 2.2
3 0.0625 2.2625
2.9375 0.0625 2.325
2.9375 0.125 2.2625
2.9375 0.0625 2.2625
0 0.1875 2.2
0.125 0.1875 2.2
0.125 0.1875 2.325
0 0.1875 2.325
0.0625 0.25 2.2
0.125 0.25 2.2625
0.0625 0.25 2.325
0 0.25 2.2625
0.0625 0.1875 2.2
0.125 0.1875 2.2625
0.0625 0.1875 2.325
0 0.1875 2.2625
0.0625 0.25 2.2625
0.0625 0.1875 2.2625
0.25 0.1875 2.2
0.25 0.1875 2.325
0.1875 0.25 2.2
0.25 0.25 2.2625
0.1875 0.25 2.325
0.1875 0.1875 2.2
0.25 0.1875 2.2625
0.1875 0.1875 2.325
0.1875 0.25 2.2625
0.1875 0.1875 2.2625
0.375 0.1875 2.2
0.375 0.1875 2.325
0.3125 0.25 2.2
0.375 0.25 2.2625
0.3125 0.25 2.325
0.3125 0.1875 2.2
0.375 0.1875 2.2625
0.3125 0.1875 2.325
0.3125 0.25 2.2625
0.3125 0.1875 2.2625
0.5 0.1875 2.2
0.5 0.1875 2.325
0.4375 0.25 2.2
0.5 0.25 2.2625
0.4375 0.25 2.325
0.4375 0.1875 2.2
0.5 0.1875 2.2625
0.4375 0.1875 2.325
0.4375 0.25 2.2625
0.4375 0.1875 2.2625
0.625 0.1875 2.2
0.625 0.1875 2.325
0.5625 0.25 2.2
0.625 0.25 2.2625
0.5625 0.25 2.325
0.5625 0.1875 2.2
0.625 0.1875 2.2625
0.5625 0.1875 2.325
0.5625 0.25 2.2625
0.5625 0.1875 2.2625
0.75 0.1875 2.2
0.75 0.1875 2.325
0.6875 0.25 2.2
0.75 0.25 2.2625
0.6875 0.25 2.325
0.6875 0.1875 2.2
0.75 0.1875 2.2625
0.6875 0.1875 2.325
0.6875 0.25 2.2625
0.6875 0.1875 2.2625
0.875 0.1875 2.2
0.875 0.1875 2.325
0.8125 0.25 2.2
0.875 0.25 2.2625
0.8125 0.25 2.325
0.8125 0.1875 2.2
0.875 0.1875 2.2625
0.8125 0.1875 2.325
0.8125 0.25 2.2625
0.8125 0.1875 2.2625
1 0.1875 2.2
1 0.1875 2.325
0.9375 0.25 2.2
1 0.25 2.2625
0.9375 0.25 2.325
0.9375 0.1875 2.2
1 0.1875 2.2625
0.9375 0.1875 2.325
0.9375 0.25 2.2625
0.9375 0.1875 2.2625
1.125 0.1875 2.2
1.125 0.1875 2.325
1.0625 0.25 2.2
1.125 0.25 2.2625
1.0625 0.25 2.325
1.0625 0.1875 2.2
1.125 0.1875 2.2625
1.0625 0.1875 2.325
1.0625 0.25 2.2625
1.0625 0.1875 2.2625
1.25 0.1875 2.2
1.25 0.1875 2.325
1.1875 0.25 2.2
1.25 0.25 2.2625
1.1875 0.25 2.325
1.1875 0.1875 2.2
1.25 0.1875 2.2625
1.1875 0.1875 2.325
1.1875 0.25 2.2625
1.1875 0.1875 2.2625
1.375 0.1875 2.2
1.375 0.1875 2.325
1.3125 0.25 2.2
1.375 0.25 2.2625
1.3125 0.25 2.325
1.3125 0.1875 2.2
1.375 0.1875 2.2625
1.3125 0.1875 2.325
1.3125 0.25 2.2625
1.3125 0.1875 2.2625
1.5 0.1875 2.2
1.5 0.1875 2.325
1.4375 0.25 2.2
1.5 0.25 2.2625
1.4375 0.25 2.325
1.4375 0.1875 2.2
1.5 0.1875 2.2625
1.4375 0.1875 2.325
1.4375 0.25 2.2625
1.4375 0.1875 2.2625
1.625 0.1875 2.2
1.625 0.1875 2.325
1.5625 0.25 2.2
1.625 0.25 2.2625
1.5625 0.25 2.325
1.5625 0.1875 2.2
1.625 0.1875 2.2625
1.5625 0.1875 2.325
1.5625 0.25 2.2625
1.5625 0.1875 2.2625
1.75 0.1875 2.2
1.75 0.1875 2.325
1.6875 0.25 2.2
1.75 0.25 2.2625
1.6875 0.25 2.325
1.6875 0.1875 2.2
1.75 0.1875 2.2625
1.6875 0.1875 2.325
1.6875 0.25 2.2625
1.6875 0.1875 2.2625
1.875 0.1875 2.2
1.875 0.1875 2.325
1.8125 0.25 2.2
1.875 0.25 2.2625
1.8125 0.25 2.325
1.8125 0.1875 2.2
1.875 0.1875 2.2625
1.8125 0.1875 2.325
1.8125 0.25 2.2625
1.8125 0.1875 2.2625
2 0.1875 2.2
2 0.1875 2.325
1.9375 0.25 2.2
2 0.25 2.2625
1.9375 0.25 2.325
1.9375 0.1875 2.2
2 0.1875 2.2625
1.9375 0.1875 2.325
1.9375 0.25 2.2625
1.9375 0.1875 2.2625
2.125 0.1875 2.2
2.125 0.1875 2.325
2.0625 0.25 2.2
2.125 0.25 2.2625
2.0625 0.25 2.325
2.0625 0.1875 2.2
2.125 0.1875 2.2625
2.0625 0.1875 2.325
2.0625 0.25 2.2625
2.0625 0.1875 2.2625
2.25 0.1875 2.2
2.25 0.1875 2.325
2.1875 0.25 2.2
2.25 0.25 2.2625
2.1875 0.25 2.325
2.1875 0.1875 2.2
2.25 0.1875 2.2625
2.1875 0.1875 2.325
2.1875 0.25 2.2625
2.1875 0.1875 2.2625
2.375 0.1875 2.2
2.375 0.1875 2.325
2.3125 0.25 2.2
2.375 0.25 2.2625
2.3125 0.25 2.325
2.3125 0.1875 2.2
2.375 0.1875 2.2625
2.3125 0.1875 2.325
2.3125 0.25 2.2625
2.3125 0.1875 2.2625
2.5 0.1875 2.2
2.5 0.1875 2.325
2.4375 0.25 2.2
2.5 0.25 2.2625
2.4375 0.25 2.325
2.4375 0.1875 2.2
2.5 0.1875 2.2625
2.4375 0.1875 2.325
2.4375 0.25 2.2625
2.4375 0.1875 2.2625
2.625 0.1875 2.2
2.625 0.1875 2.325
2.5625 0.25 2.2
2.625 0.25 2.2625
2.5625 0.25 2.325
2.5625 0.1875 2.2
2.625 0.1875 2.2625
2.5625 0.1875 2.325
2.5625 0.25 2.2625
2.5625 0.1875 2.2625
2.75 0.1875 2.2
2.75 0.1875 2.325
2.6875 0.25 2.2
2.75 0.25 2.2625
2.6875 0.25 2.325
2.6875 0.1875 2.2
2.75 0.1875 2.2625
2.6875 0.1875 2.325
2.6875 0.25 2.2625
2.6875 0.1875 2.2625
2.875 0.1875 2.2
2.875 0.1875 2.325
2.8125 0.25 2.2
2.875 0.25 2.2625
2.8125 0.25 2.325
2.8125 0.1875 2.2
2.875 0.1875 2.2625
2.8125 0.1875 2.325
2.8125 0.25 2.2625
2.8125 0.1875 2.2625
3 0.1875 2.2
3 0.1875 2.325
2.9375 0.25 2.2
3 0.25 2.2625
2.9375 0.25 2.325
2.9375 0.1875 2.2
3 0.1875 2.2625
2.9375 0.1875 2.325
2.9375 0.25 2.2625
2.9375 0.1875 2.2625
0 0.3125 2.2
0.125 0.3125 2.2
0.125 0.3125 2.325
0 0.3125 2.325
0.0625 0.375 2.2
0.125 0.375 2.2625
0.0625 0.375 2.325
0 0.375 2.2625
0.0625 0.3125 2.2
0.125 0.3125 2.2625
0.0625 0.3125 2.325
0 0.3125 2.2625
0.0625 0.375 2.2625
0.0625 0.3125 2.2625
0.25 0.3125 2.2
0.25 0.3125 2.325
0.1875 0.375 2.2
0.25 0.375 2.2625
0.1875 0.375 2.325
0.1875 0.3125 2.2
0.25 0.3125 2.2625
0.1875 0.3125 2.325
0.1875 0.375 2.2625
0.1875 0.3125 2.2625
0.375 0.3125 2.2
0.375 0.3125 2.325
0.3125 0.375 2.2
0.375 0.375 2.2625
0.3125 0.375 2.325
0.3125 0.3125 2.2
0.375 0.3125 2.2625
0.3125 0.3125 2.325
0.3125 0.375 2.2625
0.3125 0.3125 2.2625
0.5 0.3125 2.2
0.5 0.3125 2.325
0.4375 0.375 2.2
0.5 0.375 2.2625
0.4375 0.375 2.325
0.4375 0.3125 2.2
0.5 0.3125 2.2625
0.4375 0.3125 2.325
0.4375 0.375 2.2625
0.4375 0.3125 2.2625
0.625 0.3125 2.2
0.625 0.3125 2.325
0.5625 0.375 2.2
0.625 0.375 2.2625
0.5625 0.375 2.325
0.5625 0.3125 2.2
0.625 0.3125 2.2625
0.5625 0.3125 2.325
0.5625 0.375 2.2625
0.5625 0.3125 2.2625
0.75 0.3125 2.2
0.75 0.3125 2.325
0.6875 0.375 2.2
0.75 0.375 2.2625
0.6875 0.375 2.325
0.6875 0.3125 2.2
0.75 0.3125 2.2625
0.6875 0.3125 2.325
0.6875 0.375 2.2625
0.6875 0.3125 2.2625
0.875 0.3125 2.2
0.875 0.3125 2.325
0.8125 0.375 2.2
0.875 0.375 2.2625
0.8125 0.375 2.325
0.8125 0.3125 2.2
0.875 0.3125 2.2625
0.8125 0.3125 2.325
0.8125 0.375 2.2625
0.8125 0.3125 2.2625
1 0.3125 2.2
1 0.3125 2.325
0.9375 0.375 2.2
1 0.375 2.2625
0.9375 0.375 2.325
0.9375 0.3125 2.2
1 0.3125 2.2625
0.9375 0.3125 2.325
0.9375 0.375 2.2625
0.9375 0.3125 2.2625
1.125 0.3125 2.2
1.125 0.3125 2.325
1.0625 0.375 2.2
1.125 0.375 2.2625
1.0625 0.375 2.325
1.0625 0.3125 2.2
1.125 0.3125 2.2625
1.0625 0.3125 2.325
1.0625 0.375 2.2625
1.0625 0.3125 2.2625
1.25 0.3125 2.2
1.25 0.3125 2.325
1.1875 0.375 2.2
1.25 0.375 2.2625
1.1875 0.375 2.325
1.1875 0.3125 2.2
1.25 0.3125 2.2625
1.1875 0.3125 2.325
1.1875 0.375 2.2625
1.1875 0.3125 2.2625
1.375 0.3125 2.2
1.375 0.3125 2.325
1.3125 0.375 2.2
1.375 0.375 2.2625
1.3125 0.375 2.325
1.3125 0.3125 2.2
1.375 0.3125 2.2625
1.3125 0.3125 2.325
1.3125 0.375 2.2625
1.3125 0.3125 2.2625
1.5 0.3125 2.2
1.5 0.3125 2.325
1.4375 0.375 2.2
1.5 0.375 2.2625
1.4375 0.375 2.325
1.4375 0.3125 2.2
1.5 0.3125 2.2625
1.4375 0.3125 2.325
1.4375 0.375 2.2625
1.4375 0.3125 2.2625
1.625 0.3125 2.2
1.625 0.3125 2.325
1.5625 0.375 2.2
1.625 0.375 2.2625
1.5625 0.375 2.325
1.5625 0.3125 2.2
1.625 0.3125 2.2625
1.5625 0.3125 2.325
1.5625 0.375 2.2625
1.5625 0.3125 2.2625
1.75 0.3125 2.2
1.75 0.3125 2.325
1.6875 0.375 2.2
1.75 0.375 2.2625
1.6875 0.375 2.325
1.6875 0.3125 2.2
1.75 0.3125 2.2625
1.6875 0.3125 2.325
1.6875 0.375 2.2625
1.6875 0.3125 2.2625
1.875 0.3125 2.2
1.875 0.3125 2.325
1.8125 0.375 2.2
1.875 0.375 2.2625
1.8125 0.375 2.325
1.8125 0.3125 2.2
1.875 0.3125 2.2625
1.8125 0.3125 2.325
1.8125 0.375 2.2625
1.8125 0.3125 2.2625
2 0.3125 2.2
2 0.3125 2.325
1.9375 0.375 2.2
2 0.375 2.2625
1.9375 0.375 2.325
1.9375 0.3125 2.2
2 0.3125 2.2625
1.9375 0.3125 2.325
1.9375 0.375 2.2625
1.9375 0.3125 2.2625
2.125 0.3125 2.2
2.125 0.3125 2.325
2.0625 0.375 2.2
2.125 0.375 2.2625
2.0625 0.375 2.325
2.0625 0.3125 2.2
2.125 0.3125 2.2625
2.0625 0.3125 2.325
2.0625 0.375 2.2625
2.0625 0.3125 2.2625
2.25 0.3125 2.2
2.25 0.3125 2.325
2.1875 0.375 2.2
2.25 0.375 2.2625
2.1875 0.375 2.325
2.1875 0.3125 2.2
2.25 0.3125 2.2625
2.1875 0.3125 2.325
2.1875 0.375 2.2625
2.1875 0.3125 2.2625
2.375 0.3125 2.2
2.375 0.3125 2.325
2.3125 0.375 2.2
2.375 0.375 2.2625
2.3125 0.375 2.325
2.3125 0.3125 2.2
2.375 0.3125 2.2625
2.3125 0.3125 2.325
2.3125 0.375 2.2625
2.3125 0.3125 2.2625
2.5 0.3125 2.2
2.5 0.3125 2.325
2.4375 0.375 2.2
2.5 0.375 2.2625
2.4375 0.375 2.325
2.4375 0.3125 2.2
2.5 0.3125 2.2625
2.4375 0.3125 2.325
2.4375 0.375 2.2625
2.4375 0.3125 2.2625
2.625 0.3125 2.2
2.625 0.3125 2.325
2.5625 0.375 2.2
2.625 0.375 2.2625
2.5625 0.375 2.325
2.5625 0.3125 2.2
2.625 0.3125 2.2625
2.5625 0.3125 2.325
2.5625 0.375 2.2625
2.5625 0.3125 2.2625
2.75 0.3125 2.2
2.75 0.3125 2.325
2.6875 0.375 2.2
2.75 0.375 2.2625
2.6875 0.375 2.325
2.6875 0.3125 2.2
2.75 0.3125 2.2625
2.6875 0.3125 2.325
2.6875 0.375 2.2625
2.6875 0.3125 2.2625
2.875 0.3125 2.2
2.875 0.3125 2.325
2.8125 0.375 2.2
2.875 0.375 2.2625
2.8125 0.375 2.325
2.8125 0.3125 2.2
2.875 0.3125 2.2625
2.8125 0.3125 2.325
2.8125 0.375 2.2625
2.8125 0.3125 2.2625
3 0.3125 2.2
3 0.3125 2.325
2.9375 0.375 2.2
3 0.375 2.2625
2.9375 0.375 2.325
2.9375 0.3125 2.2
3 0.3125 2.2625
2.9375 0.3125 2.325
2.9375 0.375 2.2625
2.9375 0.3125 2.2625
0 0.4375 2.2
0.125 0.4375 2.2
0.125 0.4375 2.325
0 0.4375 2.325
0.0625 0.5 2.2
0.125 0.5 2.2625
0.0625 0.5 2.325
0 0.5 2.2625
0.0625 0.4375 2.2
0.125 0.4375 2.2625
0.0625 0.4375 2.325
0 0.4375 2.2625
0.0625 0.5 2.2625
0.0625 0.4375 2.2625
0.25 0.4375 2.2
0.25 0.4375 2.325
0.1875 0.5 2.2
0.25 0.5 2.2625
0.1875 0.5 2.325
0.1875 0.4375 2.2
0.25 0.4375 2.2625
0.1875 0.4375 2.325
0.1875 0.5 2.2625
0.1875 0.4375 2.2625
0.375 0.4375 2.2
0.375 0.4375 2.325
0.3125 0.5 2.2
0.375 0.5 2.2625
0.3125 0.5 2.325
0.3125 0.4375 2.2
0.375 0.4375 2.2625
0.3125 0.4375 2.325
0.3125 0.5 2.2625
0.3125 0.4375 2.2625
0.5 0.4375 2.2
0.5 0.4375 2.325
0.4375 0.5 2.2
0.5 0.5 2.2625
0.4375 0.5 2.325
0.4375 0.4375 2.2
0.5 0.4375 2.2625
0.4375 0.4375 2.325
0.4375 0.5 2.2625
0.4375 0.4375 2.2625
0.625 0.4375 2.2
0.625 0.4375 2.325
0.5625 0.5 2.2
0.625 0.5 2.2625
0.5625 0.5 2.325
0.5625 0.4375 2.2
0.625 0.4375 2.2625
0.5625 0.4375 2.325
0.5625 0.5 2.2625
0.5625 0.4375 2.2625
0.75 0.4375 2.2
0.75 0.4375 2.325
0.6875 0.5 2.2
0.75 0.5 2.2625
0.6875 0.5 2.325
0.6875 0.4375 2.2
0.75 0.4375 2.2625
0.6875 0.4375 2.325
0.6875 0.5 2.2625
0.6875 0.4375 2.2625
0.875 0.4375 2.2
0.875 0.4375 2.325
0.8125 0.5 2.2
0.875 0.5 2.2625
0.8125 0.5 2.325
0.8125 0.4375 2.2
0.875 0.4375 2.2625
0.8125 0.4375 2.325
0.8125 0.5 2.2625
0.8125 0.4375 2.2625
1 0.4375 2.2
1 0.4375 2.325
0.9375 0.5 2.2
1 0.5 2.2625
0.9375 0.5 2.325
0.9375 0.4375 2.2
1 0.4375 2.2625
0.9375 0.4375 2.325
0.9375 0.5 2.2625
0.9375 0.4375 2.2625
1.125 0.4375 2.2
1.125 0.4375 2.325
1.0625 0.5 2.2
1.125 0.5 2.2625
1.0625 0.5 2.325
1.0625 0.4375 2.2
1.125 0.4375 2.2625
1.0625 0.4375 2.325
1.0625 0.5 2.2625
1.0625 0.4375 2.2625
1.25 0.4375 2.2
1.25 0.4375 2.325
1.1875 0.5 2.2
1.25 0.5 2.2625
1.1875 0.5 2.325
1.1875 0.4375 2.2
1.25 0.4375 2.2625
1.1875 0.4375 2.325
1.1875 0.5 2.2625
1.1875 0.4375 2.2625
1.375 0.4375 2.2
1.375 0.4375 2.325
1.3125 0.5 2.2
1.375 0.5 2.2625
1.3125 0.5 2.325
1.3125 0.4375 2.2
1.375 0.4375 2.2625
1.3125 0.4375 2.325
1.3125 0.5 2.2625
1.3125 0.4375 2.2625
1.5 0.4375 2.2
1.5 0.4375 2.325
1.4375 0.5 2.2
1.5 0.5 2.2625
1.4375 0.5 2.325
1.4375 0.4375 2.2
1.5 0.4375 2.2625
1.4375 0.4375 2.325
1.4375 0.5 2.2625
1.4375 0.4375 2.2625
1.625 0.4375 2.2
1.625 0.4375 2.325
1.5625 0.5 2.2
1.625 0.5 2.2625
1.5625 0.5 2.325
1.5625 0.4375 2.2
1.625 0.4375 2.2625
1.5625 0.4375 2.325
1.5625 0.5 2.2625
1.5625 0.4375 2.2625
1.75 0.4375 2.2
1.75 0.4375 2.325
1.6875 0.5 2.2
1.75 0.5 2.2625
1.6875 0.5 2.325
1.6875 0.4375 2.2
1.75 0.4375 2.2625
1.6875 0.4375 2.325
1.6875 0.5 2.2625
1.6875 0.4375 2.2625
1.875 0.4375 2.2
1.875 0.4375 2.325
1.8125 0.5 2.2
1.875 0.5 2.2625
1.8125 0.5 2.325
1.8125 0.4375 2.2
1.875 0.4375 2.2625
1.8125 0.4375 2.325
1.8125 0.5 2.2625
1.8125 0.4375 2.2625
2 0.4375 2.2
2 0.4375 2.325
1.9375 0.5 2.2
2 0.5 2.2625
1.9375 0.5 2.325
1.9375 0.4375 2.2
2 0.4375 2.2625
1.9375 0.4375 2.325
1.9375 0.5 2.2625
1.9375 0.4375 2.2625
2.125 0.4375 2.2
2.125 0.4375 2.325
2.0625 0.5 2.2
2.125 0.5 2.2625
2.0625 0.5 2.325
2.0625 0.4375 2.2
2.125 0.4375 2.2625
2.0625 0.4375 2.325
2.0625 0.5 2.2625
2.0625 0.4375 2.2625
2.25 0.4375 2.2
2.25 0.4375 2.325
2.1875 0.5 2.2
2.25 0.5 2.2625
2.1875 0.5 2.325
2.1875 0.4375 2.2
2.25 0.4375 2.2625
2.1875 0.4375 2.325
2.1875 0.5 2.2625
2.1875 0.4375 2.2625
2.375 0.4375 2.2
2.375 0.4375 2.325
2.3125 0.5 2.2
2.375 0.5 2.2625
2.3125 0.5 2.325
2.3125 0.4375 2.2
2.375 0.4375 2.2625
2.3125 0.4375 2.325
2.3125 0.5 2.2625
2.3125 0.4375 2.2625
2.5 0.4375 2.2
2.5 0.4375 2.325
2.4375 0.5 2.2
2.5 0.5 2.2625
2.4375 0.5 2.325
2.4375 0.4375 2.2
2.5 0.4375 2.2625
2.4375 0.4375 2.325
2.4375 0.5 2.2625
2.4375 0.4375 2.2625
2.625 0.4375 2.2
2.625 0.4375 2.325
2.5625 0.5 2.2
2.625 0.5 2.2625
2.5625 0.5 2.325
2.5625 0.4375 2.2
2.625 0.4375 2.2625
2.5625 0.4375 2.325
2.5625 0.5 2.2625
2.5625 0.4375 2.2625
2.75 0.4375 2.2
2.75 0.4375 2.325
2.6875 0.5 2.2
2.75 0.5 2.2625
2.6875 0.5 2.325
2.6875 0.4375 2.2
2.75 0.4375 2.2625
2.6875 0.4375 2.325
2.6875 0.5 2.2625
2.6875 0.4375 2.2625
2.875 0.4375 2.2
2.875 0.4375 2.325
2.8125 0.5 2.2
2.875 0.5 2.2625
2.8125 0.5 2.325
2.8125 0.4375 2.2
2.875 0.4375 2.2625
2.8125 0.4375 2.325
2.8125 0.5 2.2625
2.8125 0.4375 2.2625
3 0.4375 2.2
3 0.4375 2.325
2.9375 0.5 2.2
3 0.5 2.2625
2.9375 0.5 2.325
2.9375 0.4375 2.2
3 0.4375 2.2625
2.9375 0.4375 2.325
2.9375 0.5 2.2625
2.9375 0.4375 2.2625
0 0.5625 2.2
0.125 0.5625 2.2
0.125 0.5625 2.325
0 0.5625 2.325
0.0625 0.625 2.2
0.125 0.625 2.2625
0.0625 0.625 2.325
0 0.625 2.2625
0.0625 0.5625 2.2
0.125 0.5625 2.2625
0.0625 0.5625 2.325
0 0.5625 2.2625
0.0625 0.625 2.2625
0.0625 0.5625 2.2625
0.25 0.5625 2.2
0.25 0.5625 2.325
0.1875 0.625 2.2
0.25 0.625 2.2625
0.1875 0.625 2.325
0.1875 0.5625 2.2
0.25 0.5625 2.2625
0.1875 0.5625 2.325
0.1875 0.625 2.2625
0.1875 0.5625 2.2625
0.375 0.5625 2.2
0.375 0.5625 2.325
0.3125 0.625 2.2
0.375 0.625 2.2625
0.3125 0.625 2.325
0.3125 0.5625 2.2
0.375 0.5625 2.2625
0.3125 0.5625 2.325
0.3125 0.625 2.2625
0.3125 0.5625 2.2625
0.5 0.5625 2.2
0.5 0.5625 2.325
0.4375 0.625 2.2
0.5 0.625 2.2625
0.4375 0.625 2.325
0.4375 0.5625 2.2
0.5 0.5625 2.2625
0.4375 0.5625 2.325
0.4375 0.625 2.2625
0.4375 0.5625 2.2625
0.625 0.5625 2.2
0.625 0.5625 2.325
0.5625 0.625 2.2
0.625 0.625 2.2625
0.5625 0.625 2.325
0.5625 0.5625 2.2
0.625 0.5625 2.2625
0.5625 0.5625 2.325
0.5625 0.625 2.2625
0.5625 0.5625 2.2625
0.75 0.5625 2.2
0.75 0.5625 2.325
0.6875 0.625 2.2
0.75 0.625 2.2625
0.6875 0.625 2.325
0.6875 0.5625 2.2
0.75 0.5625 2.2625
0.6875 0.5625 2.325
0.6875 0.625 2.2625
0.6875 0.5625 2.2625
0.875 0.5625 2.2
0.875 0.5625 2.325
0.8125 0.625 2.2
0.875 0.625 2.2625
0.8125 0.625 2.325
0.8125 0.5625 2.2
0.875 0.5625 2.2625
0.8125 0.5625 2.325
0.8125 0.625 2.2625
0.8125 0.5625 2.2625
1 0.5625 2.2
1 0.5625 2.325
0.9375 0.625 2.2
1 0.625 2.2625
0.9375 0.625 2.325
0.9375 0.5625 2.2
1 0.5625 2.2625
0.9375 0.5625 2.325
0.9375 0.625 2.2625
0.9375 0.5625 2.2625
1.125 0.5625 2.2
1.125 0.5625 2.325
1.0625 0.625 2.2
1.125 0.625 2.2625
1.0625 0.625 2.325
1.0625 0.5625 2.2
1.125 0.5625 2.2625
1.0625 0.5625 2.325
1.0625 0.625 2.2625
1.0625 0.5625 2.2625
1.25 0.5625 2.2
1.25 0.5625 2.325
1.1875 0.625 2.2
1.25 0.625 2.2625
1.1875 0.625 2.325
1.1875 0.5625 2.2
1.25 0.5625 2.2625
1.1875 0.5625 2.325
1.1875 0.625 2.2625
1.1875 0.5625 2.2625
1.375 0.5625 2.2
1.375 0.5625 2.325
1.3125 0.625 2.2
1.375 0.625 2.2625
1.3125 0.625 2.325
1.3125 0.5625 2.2
1.375 0.5625 2.2625
1.3125 0.5625 2.325
1.3125 0.625 2.2625
1.3125 0.5625 2.2625
1.5 0.5625 2.2
1.5 0.5625 2.325
1.4375 0.625 2.2
1.5 0.625 2.2625
1.4375 0.625 2.325
1.4375 0.5625 2.2
1.5 0.5625 2.2625
1.4375 0.5625 2.325
1.4375 0.625 2.2625
1.4375 0.5625 2.2625
1.625 0.5625 2.2
1.625 0.5625 2.325
1.5625 0.625 2.2
1.625 0.625 2.2625
1.5625 0.625 2.325
1.5625 0.5625 2.2
1.625 0.5625 2.2625
1.5625 0.5625 2.325
1.5625 0.625 2.2625
1.5625 0.5625 2.2625
1.75 0.5625 2.2
1.75 0.5625 2.325
1.6875 0.625 2.2
1.75 0.625 2.2625
1.6875 0.625 2.325
1.6875 0.5625 2.2
1.75 0.5625 2.2625
1.6875 0.5625 2.325
1.6875 0.625 2.2625
1.6875 0.5625 2.2625
1.875 0.5625 2.2
1.875 0.5625 2.325
1.8125 0.625 2.2
1.875 0.625 2.2625
1.8125 0.625 2.325
1.8125 0.5625 2.2
1.875 0.5625 2.2625
1.8125 0.5625 2.325
1.8125 0.625 2.2625
1.8125 0.5625 2.2625
2 0.5625 2.2
2 0.5625 2.325
1.9375 0.625 2.2
2 0.625 2.2625
1.9375 0.625 2.325
1.9375 0.5625 2.2
2 0.5625 2.2625
1.9375 0.5625 2.325
1.9375 0.625 2.2625
1.9375 0.5625 2.2625
2.125 0.5625 2.2
2.125 0.5625 2.325
2.0625 0.625 2.2
2.125 0.625 2.2625
2.0625 0.625 2.325
2.0625 0.5625 2.2
2.125 0.5625 2.2625
2.0625 0.5625 2.325
2.0625 0.625 2.2625
2.0625 0.5625 2.2625
2.25 0.5625 2.2
2.25 0.5625 2.325
2.1875 0.625 2.2
2.25 0.625 2.2625
2.1875 0.625 2.325
2.1875 0.5625 2.2
2.25 0.5625 2.2625
2.1875 0.5625 2.325
2.1875 0.625 2.2625
2.1875 0.5625 2.2625
2.375 0.5625 2.2
2.375 0.5625 2.325
2.3125 0.625 2.2
2.375 0.625 2.2625
2.3125 0.625 2.325
2.3125 0.5625 2.2
2.375 0.5625 2.2625
2.3125 0.5625 2.325
2.3125 0.625 2.2625
2.3125 0.5625 2.2625
2.5 0.5625 2.2
2.5 0.5625 2.325
2.4375 0.625 2.2
2.5 0.625 2.2625
2.4375 0.625 2.325
2.4375 0.5625 2.2
2.5 0.5625 2.2625
2.4375 0.5625 2.325
2.4375 0.625 2.2625
2.4375 0.5625 2.2625
2.625 0.5625 2.2
2.625 0.5625 2.325
2.5625 0.625 2.2
2.625 0.625 2.2625
2.5625 0.625 2.325
2.5625 0.5625 2.2
2.625 0.5625 2.2625
2.5625 0.5625 2.325
2.5625 0.625 2.2625
2.5625 0.5625 2.2625
2.75 0.5625 2.2
2.75 0.5625 2.325
2.6875 0.625 2.2
2.75 0.625 2.2625
2.6875 0.625 2.325
2.6875 0.5625 2.2
2.75 0.5625 2.2625
2.6875 0.5625 2.325
2.6875 0.625 2.2625
2.6875 0.5625 2.2625
2.875 0.5625 2.2
2.875 0.5625 2.325
2.8125 0.625 2.2
2.875 0.625 2.2625
2.8125 0.625 2.325
2.8125 0.5625 2.2
2.875 0.5625 2.2625
2.8125 0.5625 2.325
2.8125 0.625 2.2625
2.8125 0.5625 2.2625
3 0.5625 2.2
3 0.5625 2.325
2.9375 0.625 2.2
3 0.625 2.2625
2.9375 0.625 2.325
2.9375 0.5625 2.2
3 0.5625 2.2625
2.9375 0.5625 2.325
2.9375 0.625 2.2625
2.9375 0.5625 2.2625
0 0.6875 2.2
0.125 0.6875 2.2
0.125 0.6875 2.325
0 0.6875 2.325
0.0625 0.75 2.2
0.125 0.75 2.2625
0.0625 0.75 2.325
0 0.75 2.2625
0.0625 0.6875 2.2
0.125 0.6875 2.2625
0.0625 0.6875 2.325
0 0.6875 2.2625
0.0625 0.75 2.2625
0.0625 0.6875 2.2625
0.25 0.6875 2.2
0.25 0.6875 2.325
0.1875 0.75 2.2
0.25 0.75 2.2625
0.1875 0.75 2.325
0.1875 0.6875 2.2
0.25 0.6875 2.2625
0.1875 0.6875 2.325
0.1875 0.75 2.2625
0.1875 0.6875 2.2625
0.375 0.6875 2.2
0.375 0.6875 2.325
0.3125 0.75 2.2
0.375 0.75 2.2625
0.3125 0.75 2.325
0.3125 0.6875 2.2
0.375 0.6875 2.2625
0.3125 0.6875 2.325
0.3125 0.75 2.2625
0.3125 0.6875 2.2625
0.5 0.6875 2.2
0.5 0.6875 2.325
0.4375 0.75 2.2
0.5 0.75 2.2625
0.4375 0.75 2.325
0.4375 0.6875 2.2
0.5 0.6875 2.2625
0.4375 0.6875 2.325
0.4375 0.75 2.2625
0.4375 0.6875 2.2625
0.625 0.6875 2.2
0.625 0.6875 2.325
0.5625 0.75 2.2
0.625 0.75 2.2625
0.5625 0.75 2.325
0.5625 0.6875 2.2
0.625 0.6875 2.2625
0.5625 0.6875 2.325
0.5625 0.75 2.2625
0.5625 0.6875 2.2625
0.75 0.6875 2.2
0.75 0.6875 2.325
0.6875 0.75 2.2
0.75 0.75 2.2625
0.6875 0.75 2.325
0.6875 0.6875 2.2
0.75 0.6875 2.2625
0.6875 0.6875 2.325
0.6875 0.75 2.2625
0.6875 0.6875 2.2625
0.875 0.6875 2.2
0.875 0.6875 2.325
0.8125 0.75 2.2
0.875 0.75 2.2625
0.8125 0.75 2.325
0.8125 0.6875 2.2
0.875 0.6875 2.2625
0.8125 0.6875 2.325
0.8125 0.75 2.2625
0.8125 0.6875 2.2625
1 0.6875 2.2
1 0.6875 2.325
0.9375 0.75 2.2
1 0.75 2.2625
0.9375 0.75 2.325
0.9375 0.6875 2.2
1 0.6875 2.2625
0.9375 0.6875 2.325
0.9375 0.75 2.2625
0.9375 0.6875 2.2625
1.125 0.6875 2.2
1.125 0.6875 2.325
1.0625 0.75 2.2
1.125 0.75 2.2625
1.0625 0.75 2.325
1.0625 0.6875 2.2
1.125 0.6875 2.2625
1.0625 0.6875 2.325
1.0625 0.75 2.2625
1.0625 0.6875 2.2625
1.25 0.6875 2.2
1.25 0.6875 2.325
1.1875 0.75 2.2
1.25 0.75 2.2625
1.1875 0.75 2.325
1.1875 0.6875 2.2
1.25 0.6875 2.2625
1.1875 0.6875 2.325
1.1875 0.75 2.2625
1.1875 0.6875 2.2625
1.375 0.6875 2.2
1.375 0.6875 2.325
1.3125 0.75 2.2
1.375 0.75 2.2625
1.3125 0.75 2.325
1.3125 0.6875 2.2
1.375 0.6875 2.2625
1.3125 0.6875 2.325
1.3125 0.75 2.2625
1.3125 0.6875 2.2625
1.5 0.6875 2.2
1.5 0.6875 2.325
1.4375 0.75 2.2
1.5 0.75 2.2625
1.4375 0.75 2.325
1.4375 0.6875 2.2
1.5 0.6875 2.2625
1.4375 0.6875 2.325
1.4375 0.75 2.2625
1.4375 0.6875 2.2625
1.625 0.6875 2.2
1.625 0.6875 2.325
1.5625 0.75 2.2
1.625 0.75 2.2625
1.5625 0.75 2.325
1.5625 0.6875 2.2
1.625 0.6875 2.2625
1.5625 0.6875 2.325
1.5625 0.75 2.2625
1.5625 0.6875 2.2625
1.75 0.6875 2.2
1.75 0.6875 2.325
1.6875 0.75 2.2
1.75 0.75 2.2625
1.6875 0.75 2.325
1.6875 0.6875 2.2
1.75 0.6875 2.2625
1.6875 0.6875 2.325
1.6875 0.75 2.2625
1.6875 0.6875 2.2625
1.875 0.6875 2.2
1.875 0.6875 2.325
1.8125 0.75 2.2
1.875 0.75 2.2625
1.8125 0.75 2.325
1.8125 0.6875 2.2
1.875 0.6875 2.2625
1.8125 0.6875 2.325
1.8125 0.75 2.2625
1.8125 0.6875 2.2625
2 0.6875 2.2
2 0.6875 2.325
1.9375 0.75 2.2
2 0.75 2.2625
1.9375 0.75 2.325
1.9375 0.6875 2.2
2 0.6875 2.2625
1.9375 0.6875 2.325
1.9375 0.75 2.2625
1.9375 0.6875 2.2625
2.125 0.6875 2.2
2.125 0.6875 2.325
2.0625 0.75 2.2
2.125 0.75 2.2625
2.0625 0.75 2.325
2.0625 0.6875 2.2
2.125 0.6875 2.2625
2.0625 0.6875 2.325
2.0625 0.75 2.2625
2.0625 0.6875 2.2625
2.25 0.6875 2.2
2.25 0.6875 2.325
2.1875 0.75 2.2
2.25 0.75 2.2625
2.1875 0.75 2.325
2.1875 0.6875 2.2
2.25 0.6875 2.2625
2.1875 0.6875 2.325
2.1875 0.75 2.2625
2.1875 0.6875 2.2625
2.375 0.6875 2.2
2.375 0.6875 2.325
2.3125 0.75 2.2
2.375 0.75 2.2625
2.3125 0.75 2.325
2.3125 0.6875 2.2
2.375 0.6875 2.2625
2.3125 0.6875 2.325
2.3125 0.75 2.2625
2.3125 0.6875 2.2625
2.5 0.6875 2.2
2.5 0.6875 2.325
2.4375 0.75 2.2
2.5 0.75 2.2625
2.4375 0.75 2.325
2.4375 0.6875 2.2
2.5 0.6875 2.2625
2.4375 0.6875 2.325
2.4375 0.75 2.2625
2.4375 0.6875 2.2625
2.625 0.6875 2.2
2.625 0.6875 2.325
2.5625 0.75 2.2
2.625 0.75 2.2625
2.5625 0.75 2.325
2.5625 0.6875 2.2
2.625 0.6875 2.2625
2.5625 0.6875 2.325
2.5625 0.75 2.2625
2.5625 0.6875 2.2625
2.75 0.6875 2.2
2.75 0.6875 2.325
2.6875 0.75 2.2
2.75 0.75 2.2625
2.6875 0.75 2.325
2.6875 0.6875 2.2
2.75 0.6875 2.2625
2.6875 0.6875 2.325
2.6875 0.75 2.2625
2.6875 0.6875 2.2625
2.875 0.6875 2.2
2.875 0.6875 2.325
2.8125 0.75 2.2
2.875 0.75 2.2625
2.8125 0.75 2.325
2.8125 0.6875 2.2
2.875 0.6875 2.2625
2.8125 0.6875 2.325
2.8125 0.75 2.2625
2.8125 0.6875 2.2625
3 0.6875 2.2
3 0.6875 2.325
2.9375 0.75 2.2
3 0.75 2.2625
2.9375 0.75 2.325
2.9375 0.6875 2.2
3 0.6875 2.2625
2.9375 0.6875 2.325
2.9375 0.75 2.2625
2.9375 0.6875 2.2625
0 0.8125 2.2
0.125 0.8125 2.2
0.125 0.8125 2.325
0 0.8125 2.325
0.0625 0.875 2.2
0.125 0.875 2.2625
0.0625 0.875 2.325
0 0.875 2.2625
0.0625 0.8125 2.2
0.125 0.8125 2.2625
0.0625 0.8125 2.325
0 0.8125 2.2625
0.0625 0.875 2.2625
0.0625 0.8125 2.2625
0.25 0.8125 2.2
0.25 0.8125 2.325
0.1875 0.875 2.2
0.25 0.875 2.2625
0.1875 0.875 2.325
0.1875 0.8125 2.2
0.25 0.8125 2.2625
0.1875 0.8125 2.325
0.1875 0.875 2.2625
0.1875 0.8125 2.2625
0.375 0.8125 2.2
0.375 0.8125 2.325
0.3125 0.875 2.2
0.375 0.875 2.2625
0.3125 0.875 2.325
0.3125 0.8125 2.2
0.375 0.8125 2.2625
0.3125 0.8125 2.325
0.3125 0.875 2.2625
0.3125 0.8125 2.2625
0.5 0.8125 2.2
0.5 0.8125 2.325
0.4375 0.875 2.2
0.5 0.875 2.2625
0.4375 0.875 2.325
0.4375 0.8125 2.2
0.5 0.8125 2.2625
0.4375 0.8125 2.325
0.4375 0.875 2.2625
0.4375 0.8125 2.2625
0.625 0.8125 2.2
0.625 0.8125 2.325
0.5625 0.875 2.2
0.625 0.875 2.2625
0.5625 0.875 2.325
0.5625 0.8125 2.2
0.625 0.8125 2.2625
0.5625 0.8125 2.325
0.5625 0.875 2.2625
0.5625 0.8125 2.2625
0.75 0.8125 2.2
0.75 0.8125 2.325
0.6875 0.875 2.2
0.75 0.875 2.2625
0.6875 0.875 2.325
0.6875 0.8125 2.2
0.75 0.8125 2.2625
0.6875 0.8125 2.325
0.6875 0.875 2.2625
0.6875 0.8125 2.2625
0.875 0.8125 2.2
0.875 0.8125 2.325
0.8125 0.875 2.2
0.875 0.875 2.2625
0.8125 0.875 2.325
0.8125 0.8125 2.2
0.875 0.8125 2.2625
0.8125 0.8125 2.325
0.8125 0.875 2.2625
0.8125 0.8125 2.2625
1 0.8125 2.2
1 0.8125 2.325
0.9375 0.875 2.2
1 0.875 2.2625
0.9375 0.875 2.325
0.9375 0.8125 2.2
1 0.8125 2.2625
0.9375 0.8125 2.325
0.9375 0.875 2.2625
0.9375 0.8125 2.2625
1.125 0.8125 2.2
1.125 0.8125 2.325
1.0625 0.875 2.2
1.125 0.875 2.2625
1.0625 0.875 2.325
1.0625 0.8125 2.2
1.125 0.8125 2.2625
1.0625 0.8125 2.325
1.0625 0.875 2.2625
1.0625 0.8125 2.2625
1.25 0.8125 2.2
1.25 0.8125 2.325
1.1875 0.875 2.2
1.25 0.875 2.2625
1.1875 0.875 2.325
1.1875 0.8125 2.2
1.25 0.8125 2.2625
1.1875 0.8125 2.325
1.1875 0.875 2.2625
1.1875 0.8125 2.2625
1.375 0.8125 2.2
1.375 0.8125 2.325
1.3125 0.875 2.2
1.375 0.875 2.2625
1.3125 0.875 2.325
1.3125 0.8125 2.2
1.375 0.8125 2.2625
1.3125 0.8125 2.325
1.3125 0.875 2.2625
1.3125 0.8125 2.2625
1.5 0.8125 2.2
1.5 0.8125 2.325
1.4375 0.875 2.2
1.5 0.875 2.2625
1.4375 0.875 2.325
1.4375 0.8125 2.2
1.5 0.8125 2.2625
1.4375 0.8125 2.325
1.4375 0.875 2.2625
1.4375 0.8125 2.2625
1.625 0.8125 2.2
1.625 0.8125 2.325
1.5625 0.875 2.2
1.625 0.875 2.2625
1.5625 0.875 2.325
1.5625 0.8125 2.2
1.625 0.8125 2.2625
1.5625 0.8125 2.325
1.5625 0.875 2.2625
1.5625 0.8125 2.2625
1.75 0.8125 2.2
1.75 0.8125 2.325
1.6875 0.875 2.2
1.75 0.875 2.2625
1.6875 0.875 2.325
1.6875 0.8125 2.2
1.75 0.8125 2.2625
1.6875 0.8125 2.325
1.6875 0.875 2.2625
1.6875 0.8125 2.2625
1.875 0.8125 2.2
1.875 0.8125 2.325
1.8125 0.875 2.2
1.875 0.875 2.2625
1.8125 0.875 2.325
1.8125 0.8125 2.2
1.875 0.8125 2.2625
1.8125 0.8125 2.325
1.8125 0.875 2.2625
1.8125 0.8125 2.2625
2 0.8125 2.2
2 0.8125 2.325
1.9375 0.875 2.2
2 0.875 2.2625
1.9375 0.875 2.325
1.9375 0.8125 2.2
2 0.8125 2.2625
1.9375 0.8125 2.325
1.9375 0.875 2.2625
1.9375 0.8125 2.2625
2.125 0.8125 2.2
2.125 0.8125 2.325
2.0625 0.875 2.2
2.125 0.875 2.2625
2.0625 0.875 2.325
2.0625 0.8125 2.2
2.125 0.8125 2.2625
2.0625 0.8125 2.325
2.0625 0.875 2.2625
2.0625 0.8125 2.2625
2.25 0.8125 2.2
2.25 0.8125 2.325
2.1875 0.875 2.2
2.25 0.875 2.2625
2.1875 0.875 2.325
2.1875 0.8125 2.2
2.25 0.8125 2.2625
2.1875 0.8125 2.325
2.1875 0.875 2.2625
2.1875 0.8125 2.2625
2.375 0.8125 2.2
2.375 0.8125 2.325
2.3125 0.875 2.2
2.375 0.875 2.2625
2.3125 0.875 2.325
2.3125 0.8125 2.2
2.375 0.8125 2.2625
2.3125 0.8125 2.325
2.3125 0.875 2.2625
2.3125 0.8125 2.2625
2.5 0.8125 2.2
2.5 0.8125 2.325
2.4375 0.875 2.2
2.5 0.875 2.2625
2.4375 0.875 2.325
2.4375 0.8125 2.2
2.5 0.8125 2.2625
2.4375 0.8125 2.325
2.4375 0.875 2.2625
2.4375 0.8125 2.2625
2.625 0.8125 2.2
2.625 0.8125 2.325
2.5625 0.875 2.2
2.625 0.875 2.2625
2.5625 0.875 2.325
2.5625 0.8125 2.2
2.625 0.8125 2.2625
2.5625 0.8125 2.325
2.5625 0.875 2.2625
2.5625 0.8125 2.2625
2.75 0.8125 2.2
2.75 0.8125 2.325
2.6875 0.875 2.2
2.75 0.875 2.2625
2.6875 0.875 2.325
2.6875 0.8125 2.2
2.75 0.8125 2.2625
2.6875 0.8125 2.325
2.6875 0.875 2.2625
2.6875 0.8125 2.2625
2.875 0.8125 2.2
2.875 0.8125 2.325
2.8125 0.875 2.2
2.875 0.875 2.2625
2.8125 0.875 2.325
2.8125 0.8125 2.2
2.875 0.8125 2.2625
2.8125 0.8125 2.325
2.8125 0.875 2.2625
2.8125 0.8125 2.2625
3 0.8125 2.2
3 0.8125 2.325
2.9375 0.875 2.2
3 0.875 2.2625
2.9375 0.875 2.325
2.9375 0.8125 2.2
3 0.8125 2.2625
2.9375 0.8125 2.325
2.9375 0.875 2.2625
2.9375 0.8125 2.2625
0 0.9375 2.2
0.125 0.9375 2.2
0.125 0.9375 2.325
0 0.9375 2.325
0.0625 1 2.2
0.125 1 2.2625
0.0625 1 2.325
0 1 2.2625
0.0625 0.9375 2.2
0.125 0.9375 2.2625
0.0625 0.9375 2.325
0 0.9375 2.2625
0.0625 1 2.2625
0.0625 0.9375 2.2625
0.25 0.9375 2.2
0.25 0.9375 2.325
0.1875 1 2.2
0.25 1 2.2625
0.1875 1 2.325
0.1875 0.9375 2.2
0.25 0.9375 2.2625
0.1875 0.9375 2.325
0.1875 1 2.2625
0.1875 0.9375 2.2625
0.375 0.9375 2.2
0.375 0.9375 2.325
0.3125 1 2.2
0.375 1 2.2625
0.3125 1 2.325
0.3125 0.9375 2.2
0.375 0.9375 2.2625
0.3125 0.9375 2.325
0.3125 1 2.2625
0.3125 0.9375 2.2625
0.5 0.9375 2.2
0.5 0.9375 2.325
0.4375 1 2.2
0.5 1 2.2625
0.4375 1 2.325
0.4375 0.9375 2.2
0.5 0.9375 2.2625
0.4375 0.9375 2.325
0.4375 1 2.2625
0.4375 0.9375 2.2625
0.625 0.9375 2.2
0.625 0.9375 2.325
0.5625 1 2.2
0.625 1 2.2625
0.5625 1 2.325
0.5625 0.9375 2.2
0.625 0.9375 2.2625
0.5625 0.9375 2.325
0.5625 1 2.2625
0.5625 0.9375 2.2625
0.75 0.9375 2.2
0.75 0.9375 2.325
0.6875 1 2.2
0.75 1 2.2625
0.6875 1 2.325
0.6875 0.9375 2.2
0.75 0.9375 2.2625
0.6875 0.9375 2.325
0.6875 1 2.2625
0.6875 0.9375 2.2625
0.875 0.9375 2.2
0.875 0.9375 2.325
0.8125 1 2.2
0.875 1 2.2625
0.8125 1 2.325
0.8125 0.9375 2.2
0.875 0.9375 2.2625
0.8125 0.9375 2.325
0.8125 1 2.2625
0.8125 0.9375 2.2625
1 0.9375 2.2
1 0.9375 2.325
0.9375 1 2.2
1 1 2.2625
0.9375 1 2.325
0.9375 0.9375 2.2
1 0.9375 2.2625
0.9375 0.9375 2.325
0.9375 1 2.2625
0.9375 0.9375 2.2625
1.125 0.9375 2.2
1.125 0.9375 2.325
1.0625 1 2.2
1.125 1 2.2625
1.0625 1 2.325
1.0625 0.9375 2.2
1.125 0.9375 2.2625
1.0625 0.9375 2.325
1.0625 1 2.2625
1.0625 0.9375 2.2625
1.25 0.9375 2.2
1.25 0.9375 2.325
1.1875 1 2.2
1.25 1 2.2625
1.1875 1 2.325
1.1875 0.9375 2.2
1.25 0.9375 2.2625
1.1875 0.9375 2.325
1.1875 1 2.2625
1.1875 0.9375 2.2625
1.375 0.9375 2.2
1.375 0.9375 2.325
1.3125 1 2.2
1.375 1 2.2625
1.3125 1 2.325
1.3125 0.9375 2.2
1.375 0.9375 2.2625
1.3125 0.9375 2.325
1.3125 1 2.2625
1.3125 0.9375 2.2625
1.5 0.9375 2.2
1.5 0.9375 2.325
1.4375 1 2.2
1.5 1 2.2625
1.4375 1 2.325
1.4375 0.9375 2.2
1.5 0.9375 2.2625
1.4375 0.9375 2.325
1.4375 1 2.2625
1.4375 0.9375 2.2625
1.625 0.9375 2.2
1.625 0.9375 2.325
1.5625 1 2.2
1.625 1 2.2625
1.5625 1 2.325
1.5625 0.9375 2.2
1.625 0.9375 2.2625
1.5625 0.9375 2.325
1.5625 1 2.2625
1.5625 0.9375 2.2625
1.75 0.9375 2.2
1.75 0.9375 2.325
1.6875 1 2.2
1.75 1 2.2625
1.6875 1 2.325
1.6875 0.9375 2.2
1.75 0.9375 2.2625
1.6875 0.9375 2.325
1.6875 1 2.2625
1.6875 0.9375 2.2625
1.875 0.9375 2.2
1.875 0.9375 2.325
1.8125 1 2.2
1.875 1 2.2625
1.8125 1 2.325
1.8125 0.9375 2.2
1.875 0.9375 2.2625
1.8125 0.9375 2.325
1.8125 1 2.2625
1.8125 0.9375 2.2625
2 0.9375 2.2
2 0.9375 2.325
1.9375 1 2.2
2 1 2.2625
1.9375 1 2.325
1.9375 0.9375 2.2
2 0.9375 2.2625
1.9375 0.9375 2.325
1.9375 1 2.2625
1.9375 0.9375 2.2625
2.125 0.9375 2.2
2.125 0.9375 2.325
2.0625 1 2.2
2.125 1 2.2625
2.0625 1 2.325
2.0625 0.9375 2.2
2.125 0.9375 2.2625
2.0625 0.9375 2.325
2.0625 1 2.2625
2.0625 0.9375 2.2625
2.25 0.9375 2.2
2.25 0.9375 2.325
2.1875 1 2.2
2.25 1 2.2625
2.1875 1 2.325
2.1875 0.9375 2.2
2.25 0.9375 2.2625
2.1875 0.9375 2.325
2.1875 1 2.2625
2.1875 0.9375 2.2625
2.375 0.9375 2.2
2.375 0.9375 2.325
2.3125 1 2.2
2.375 1 2.2625
2.3125 1 2.325
2.3125 0.9375 2.2
2.375 0.9375 2.2625
2.3125 0.9375 2.325
2.3125 1 2.2625
2.3125 0.9375 2.2625
2.5 0.9375 2.2
2.5 0.9375 2.325
2.4375 1 2.2
2.5 1 2.2625
2.4375 1 2.325
2.4375 0.9375 2.2
2.5 0.9375 2.2625
2.4375 0.9375 2.325
2.4375 1 2.2625
2.4375 0.9375 2.2625
2.625 0.9375 2.2
2.625 0.9375 2.325
2.5625 1 2.2
2.625 1 2.2625
2.5625 1 2.325
2.5625 0.9375 2.2
2.625 0.9375 2.2625
2.5625 0.9375 2.325
2.5625 1 2.2625
2.5625 0.9375 2.2625
2.75 0.9375 2.2
2.75 0.9375 2.325
2.6875 1 2.2
2.75 1 2.2625
2.6875 1 2.325
2.6875 0.9375 2.2
2.75 0.9375 2.2625
2.6875 0.9375 2.325
2.6875 1 2.2625
2.6875 0.9375 2.2625
2.875 0.9375 2.2
2.875 0.9375 2.325
2.8125 1 2.2
2.875 1 2.2625
2.8125 1 2.325
2.8125 0.9375 2.2
2.875 0.9375 2.2625
2.8125 0.9375 2.325
2.8125 1 2.2625
2.8125 0.9375 2.2625
3 0.9375 2.2
3 0.9375 2.325
2.9375 1 2.2
3 1 2.2625
2.9375 1 2.325
2.9375 0.9375 2.2
3 0.9375 2.2625
2.9375 0.9375 2.325
2.9375 1 2.2625
2.9375 0.9375 2.2625
0.125 0 2.3875
0.0625 0 2.45
0 0 2.3875
0.125 0.0625 2.45
0 0.0625 2.45
0.125 0.125 2.3875
0.0625 0.125 2.45
0 0.125 2.3875
0.0625 0 2.3875
0.125 0.0625 2.3875
0.0625 0.0625 2.45
0 0.0625 2.3875
0.0625 0.125 2.3875
0.0625 0.0625 2.3875
0.25 0 2.3875
0.1875 0 2.45
0.25 0.0625 2.45
0.25 0.125 2.3875
0.1875 0.125 2.45
0.1875 0 2.3875
0.25 0.0625 2.3875
0.1875 0.0625 2.45
0.1875 0.125 2.3875
0.1875 0.0625 2.3875
0.375 0 2.3875
0.3125 0 2.45
0.375 0.0625 2.45
0.375 0.125 2.3875
0.3125 0.125 2.45
0.3125 0 2.3875
0.375 0.0625 2.3875
0.3125 0.0625 2.45
0.3125 0.125 2.3875
0.3125 0.0625 2.3875
0.5 0 2.3875
0.4375 0 2.45
0.5 0.0625 2.45
0.5 0.125 2.3875
0.4375 0.125 2.45
0.4375 0 2.3875
0.5 0.0625 2.3875
0.4375 0.0625 2.45
0.4375 0.125 2.3875
0.4375 0.0625 2.3875
0.625 0 2.3875
0.5625 0 2.45
0.625 0.0625 2.45
0.625 0.125 2.3875
0.5625 0.125 2.45
0.5625 0 2.3875
0.625 0.0625 2.3875
0.5625 0.0625 2.45
0.5625 0.125 2.3875
0.5625 0.0625 2.3875
0.75 0 2.3875
0.6875 0 2.45
0.75 0.0625 2.45
0.75 0.125 2.3875
0.6875 0.125 2.45
0.6875 0 2.3875
0.75 0.0625 2.3875
0.6875 0.0625 2.45
0.6875 0.125 2.3875
0.6875 0.0625 2.3875
0.875 0 2.3875
0.8125 0 2.45
0.875 0.0625 2.45
0.875 0.125 2.3875
0.8125 0.125 2.45
0.8125 0 2.3875
0.875 0.0625 2.3875
0.8125 0.0625 2.45
0.8125 0.125 2.3875
0.8125 0.0625 2.3875
1 0 2.3875
0.9375 0 2.45
1 0.0625 2.45
1 0.125 2.3875
0.9375 0.125 2.45
0.9375 0 2.3875
1 0.0625 2.3875
0.9375 0.0625 2.45
0.9375 0.125 2.3875
0.9375 0.0625 2.3875
1.125 0 2.3875
1.0625 0 2.45
1.125 0.0625 2.45
1.125 0.125 2.3875
1.0625 0.125 2.45
1.0625 0 2.3875
1.125 0.0625 2.3875
1.0625 0.0625 2.45
1.0625 0.125 2.3875
1.0625 0.0625 2.3875
1.25 0 2.3875
1.1875 0 2.45
1.25 0.0625 2.45
1.25 0.125 2.3875
1.1875 0.125 2.45
1.1875 0 2.3875
1.25 0.0625 2.3875
1.1875 0.0625 2.45
1.1875 0.125 2.3875
1.1875 0.0625 2.3875
1.375 0 2.3875
1.3125 0 2.45
1.375 0.0625 2.45
1.375 0.125 2.3875
1.3125 0.125 2.45
1.3125 0 2.3875
1.375 0.0625 2.3875
1.3125 0.0625 2.45
1.3125 0.125 2.3875
1.3125 0.0625 2.3875
1.5 0 2.3875
1.4375 0 2.45
1.5 0.0625 2.45
1.5 0.125 2.3875
1.4375 0.125 2.45
1.4375 0 2.3875
1.5 0.0625 2.3875
1.4375 0.0625 2.45
1.4375 0.125 2.3875
1.4375 0.0625 2.3875
1.625 0 2.3875
1.5625 0 2.45
1.625 0.0625 2.45
1.625 0.125 2.3875
1.5625 0.125 2.45
1.5625 0 2.3875
1.625 0.0625 2.3875
1.5625 0.0625 2.45
1.5625 0.125 2.3875
1.5625 0.0625 2.3875
1.75 0 2.3875
1.6875 0 2.45
1.75 0.0625 2.45
1.75 0.125 2.3875
1.6875 0.125 2.45
1.6875 0 2.3875
1.75 0.0625 2.3875
1.6875 0.0625 2.45
1.6875 0.125 2.3875
1.6875 0.0625 2.3875
1.875 0 2.3875
1.8125 0 2.45
1.875 0.0625 2.45
1.875 0.125 2.3875
1.8125 0.125 2.45
1.8125 0 2.3875
1.875 0.0625 2.3875
1.8125 0.0625 2.45
1.8125 0.125 2.3875
1.8125 0.0625 2.3875
2 0 2.3875
1.9375 0 2.45
2 0.0625 2.45
2 0.125 2.3875
1.9375 0.125 2.45
1.9375 0 2.3875
2 0.0625 2.3875
1.9375 0.0625 2.45
1.9375 0.125 2.3875
1.9375 0.0625 2.3875
2.125 0 2.3875
2.0625 0 2.45
2.125 0.0625 2.45
2.125 0.125 2.3875
2.0625 0.125 2.45
2.0625 0 2.3875
2.125 0.0625 2.3875
2.0625 0.0625 2.45
2.0625 0.125 2.3875
2.0625 0.0625 2.3875
2.25 0 2.3875
2.1875 0 2.45
2.25 0.0625 2.45
2.25 0.125 2.3875
2.1875 0.125 2.45
2.1875 0 2.3875
2.25 0.0625 2.3875
2.1875 0.0625 2.45
2.1875 0.125 2.3875
2.1875 0.0625 2.3875
2.375 0 2.3875
2.3125 0 2.45
2.375 0.0625 2.45
2.375 0.125 2.3875
2.3125 0.125 2.45
2.3125 0 2.3875
2.375 0.0625 2.3875
2.3125 0.0625 2.45
2.3125 0.125 2.3875
2.3125 0.0625 2.3875
2.5 0 2.3875
2.4375 0 2.45
2.5 0.0625 2.45
2.5 0.125 2.3875
2.4375 0.125 2.45
2.4375 0 2.3875
2.5 0.0625 2.3875
2.4375 0.0625 2.45
2.4375 0.125 2.3875
2.4375 0.0625 2.3875
2.625 0 2.3875
2.5625 0 2.45
2.625 0.0625 2.45
2.625 0.125 2.3875
2.5625 0.125 2.45
2.5625 0 2.3875
2.625 0.0625 2.3875
2.5625 0.0625 2.45
2.5625 0.125 2.3875
2.5625 0.0625 2.3875
2.75 0 2.3875
2.6875 0 2.45
2.75 0.0625 2.45
2.75 0.125 2.3875
2.6875 0.125 2.45
2.6875 0 2.3875
2.75 0.0625 2.3875
2.6875 0.0625 2.45
2.6875 0.125 2.3875
2.6875 0.0625 2.3875
2.875 0 2.3875
2.8125 0 2.45
2.875 0.0625 2.45
2.875 0.125 2.3875
2.8125 0.125 2.45
2.8125 0 2.3875
2.875 0.0625 2.3875
2.8125 0.0625 2.45
2.8125 0.125 2.3875
2.8125 0.0625 2.3875
3 0 2.3875
2.9375 0 2.45
3 0.0625 2.45
3 0.125 2.3875
2.9375 0.125 2.45
2.9375 0 2.3875
3 0.0625 2.3875
2.9375 0.0625 2.45
2.9375 0.125 2.3875
2.9375 0.0625 2.3875
0.125 0.1875 2.45
0 0.1875 2.45
0.125 0.25 2.3875
0.0625 0.25 2.45
0 0.25 2.3875
0.125 0.1875 2.3875
0.0625 0.1875 2.45
0 0.1875 2.3875
0.0625 0.25 2.3875
0.0625 0.1875 2.3875
0.25 0.1875 2.45
0.25 0.25 2.3875
0.1875 0.25 2.45
0.25 0.1875 2.3875
0.1875 0.1875 2.45
0.1875 0.25 2.3875
0.1875 0.1875 2.3875
0.375 0.1875 2.45
0.375 0.25 2.3875
0.3125 0.25 2.45
0.375 0.1875 2.3875
0.3125 0.1875 2.45
0.3125 0.25 2.3875
0.3125 0.1875 2.3875
0.5 0.1875 2.45
0.5 0.25 2.3875
0.4375 0.25 2.45
0.5 0.1875 2.3875
0.4375 0.1875 2.45
0.4375 0.25 2.3875
0.4375 0.1875 2.3875
0.625 0.1875 2.45
0.625 0.25 2.3875
0.5625 0.25 2.45
0.625 0.1875 2.3875
0.5625 0.1875 2.45
0.5625 0.25 2.3875
0.5625 0.1875 2.3875
0.75 0.1875 2.45
0.75 0.25 2.3875
0.6875 0.25 2.45
0.75 0.1875 2.3875
0.6875 0.1875 2.45
0.6875 0.25 2.3875
0.6875 0.1875 2.3875
0.875 0.1875 2.45
0.875 0.25 2.3875
0.8125 0.25 2.45
0.875 0.1875 2.3875
0.8125 0.1875 2.45
0.8125 0.25 2.3875
0.8125 0.1875 2.3875
1 0.1875 2.45
1 0.25 2.3875
0.9375 0.25 2.45
1 0.1875 2.3875
0.9375 0.1875 2.45
0.9375 0.25 2.3875
0.9375 0.1875 2.3875
1.125 0.1875 2.45
1.125 0.25 2.3875
1.0625 0.25 2.45
1.125 0.1875 2.3875
1.0625 0.1875 2.45
1.0625 0.25 2.3875
1.0625 0.1875 2.3875
1.25 0.1875 2.45
1.25 0.25 2.3875
1.1875 0.25 2.45
1.25 0.1875 2.3875
1.1875 0.1875 2.45
1.1875 0.25 2.3875
1.1875 0.1875 2.3875
1.375 0.1875 2.45
1.375 0.25 2.3875
1.3125 0.25 2.45
1.375 0.1875 2.3875
1.3125 0.1875 2.45
1.3125 0.25 2.3875
1.3125 0.1875 2.3875
1.5 0.1875 2.45
1.5 0.25 2.3875
1.4375 0.25 2.45
1.5 0.1875 2.3875
1.4375 0.1875 2.45
1.4375 0.25 2.3875
1.4375 0.1875 2.3875
1.625 0.1875 2.45
1.625 0.25 2.3875
1.5625 0.25 2.45
1.625 0.1875 2.3875
1.5625 0.1875 2.45
1.5625 0.25 2.3875
1.5625 0.1875 2.3875
1.75 0.1875 2.45
1.75 0.25 2.3875
1.6875 0.25 2.45
1.75 0.1875 2.3875
1.6875 0.1875 2.45
1.6875 0.25 2.3875
1.6875 0.1875 2.3875
1.875 0.1875 2.45
1.875 0.25 2.3875
1.8125 0.25 2.45
1.875 0.1875 2.3875
1.8125 0.1875 2.45
1.8125 0.25 2.3875
1.8125 0.1875 2.3875
2 0.1875 2.45
2 0.25 2.3875
1.9375 0.25 2.45
2 0.1875 2.3875
1.9375 0.1875 2.45
1.9375 0.25 2.3875
1.9375 0.1875 2.3875
2.125 0.1875 2.45
2.125 0.25 2.3875
2.0625 0.25 2.45
2.125 0.1875 2.3875
2.0625 0.1875 2.45
2.0625 0.25 2.3875
2.0625 0.1875 2.3875
2.25 0.1875 2.45
2.25 0.25 2.3875
2.1875 0.25 2.45
2.25 0.1875 2.3875
2.1875 0.1875 2.45
2.1875 0.25 2.3875
2.1875 0.1875 2.3875
2.375 0.1875 2.45
2.375 0.25 2.3875
2.3125 0.25 2.45
2.375 0.1875 2.3875
2.3125 0.1875 2.45
2.3125 0.25 2.3875
2.3125 0.1875 2.3875
2.5 0.1875 2.45
2.5 0.25 2.3875
2.4375 0.25 2.45
2.5 0.1875 2.3875
2.4375 0.1875 2.45
2.4375 0.25 2.3875
2.4375 0.1875 2.3875
2.625 0.1875 2.45
2.625 0.25 2.3875
2.5625 0.25 2.45
2.625 0.1875 2.3875
2.5625 0.1875 2.45
2.5625 0.25 2.3875
2.5625 0.1875 2.3875
2.75 0.1875 2.45
2.75 0.25 2.3875
2.6875 0.25 2.45
2.75 0.1875 2.3875
2.6875 0.1875 2.45
2.6875 0.25 2.3875
2.6875 0.1875 2.3875
2.875 0.1875 2.45
2.875 0.25 2.3875
2.8125 0.25 2.45
2.875 0.1875 2.3875
2.8125 0.1875 2.45
2.8125 0.25 2.3875
2.8125 0.1875 2.3875
3 0.1875 2.45
3 0.25 2.3875
2.9375 0.25 2.45
3 0.1875 2.3875
2.9375 0.1875 2.45
2.9375 0.25 2.3875
2.9375 0.1875 2.3875
0.125 0.3125 2.45
0 0.3125 2.45
0.125 0.375 2.3875
0.0625 0.375 2.45
0 0.375 2.3875
0.125 0.3125 2.3875
0.0625 0.3125 2.45
0 0.3125 2.3875
0.0625 0.375 2.3875
0.0625 0.3125 2.3875
0.25 0.3125 2.45
0.25 0.375 2.3875
0.1875 0.375 2.45
0.25 0.3125 2.3875
0.1875 0.3125 2.45
0.1875 0.375 2.3875
0.1875 0.3125 2.3875
0.375 0.3125 2.45
0.375 0.375 2.3875
0.3125 0.375 2.45
0.375 0.3125 2.3875
0.3125 0.3125 2.45
0.3125 0.375 2.3875
0.3125 0.3125 2.3875
0.5 0.3125 2.45
0.5 0.375 2.3875
0.4375 0.375 2.45
0.5 0.3125 2.3875
0.4375 0.3125 2.45
0.4375 0.375 2.3875
0.4375 0.3125 2.3875
0.625 0.3125 2.45
0.625 0.375 2.3875
0.5625 0.375 2.45
0.625 0.3125 2.3875
0.5625 0.3125 2.45
0.5625 0.375 2.3875
0.5625 0.3125 2.3875
0.75 0.3125 2.45
0.75 0.375 2.3875
0.6875 0.375 2.45
0.75 0.3125 2.3875
0.6875 0.3125 2.45
0.6875 0.375 2.3875
0.6875 0.3125 2.3875
0.875 0.3125 2.45
0.875 0.375 2.3875
0.8125 0.375 2.45
0.875 0.3125 2.3875
0.8125 0.3125 2.45
0.8125 0.375 2.3875
0.8125 0.3125 2.3875
1 0.3125 2.45
1 0.375 2.3875
0.9375 0.375 2.45
1 0.3125 2.3875
0.9375 0.3125 2.45
0.9375 0.375 2.3875
0.9375 0.3125 2.3875
1.125 0.3125 2.45
1.125 0.375 2.3875
1.0625 0.375 2.45
1.125 0.3125 2.3875
1.0625 0.3125 2.45
1.0625 0.375 2.3875
1.0625 0.3125 2.3875
1.25 0.3125 2.45
1.25 0.375 2.3875
1.1875 0.375 2.45
1.25 0.3125 2.3875
1.1875 0.3125 2.45
1.1875 0.375 2.3875
1.1875 0.3125 2.3875
1.375 0.3125 2.45
1.375 0.375 2.3875
1.3125 0.375 2.45
1.375 0.3125 2.3875
1.3125 0.3125 2.45
1.3125 0.375 2.3875
1.3125 0.3125 2.3875
1.5 0.3125 2.45
1.5 0.375 2.3875
1.4375 0.375 2.45
1.5 0.3125 2.3875
1.4375 0.3125 2.45
1.4375 0.375 2.3875
1.4375 0.3125 2.3875
1.625 0.3125 2.45
1.625 0.375 2.3875
1.5625 0.375 2.45
1.625 0.3125 2.3875
1.5625 0.3125 2.45
1.5625 0.375 2.3875
1.5625 0.3125 2.3875
1.75 0.3125 2.45
1.75 0.375 2.3875
1.6875 0.375 2.45
1.75 0.3125 2.3875
1.6875 0.3125 2.45
1.6875 0.375 2.3875
1.6875 0.3125 2.3875
1.875 0.3125 2.45
1.875 0.375 2.3875
1.8125 0.375 2.45
1.875 0.3125 2.3875
1.8125 0.3125 2.45
1.8125 0.375 2.3875
1.8125 0.3125 2.3875
2 0.3125 2.45
2 0.375 2.3875
1.9375 0.375 2.45
2 0.3125 2.3875
1.9375 0.3125 2.45
1.9375 0.375 2.3875
1.9375 0.3125 2.3875
2.125 0.3125 2.45
2.125 0.375 2.3875
2.0625 0.375 2.45
2.125 0.3125 2.3875
2.0625 0.3125 2.45
2.0625 0.375 2.3875
2.0625 0.3125 2.3875
2.25 0.3125 2.45
2.25 0.375 2.3875
2.1875 0.375 2.45
2.25 0.3125 2.3875
2.1875 0.3125 2.45
2.1875 0.375 2.3875
2.1875 0.3125 2.3875
2.375 0.3125 2.45
2.375 0.375 2.3875
2.3125 0.375 2.45
2.375 0.3125 2.3875
2.3125 0.3125 2.45
2.3125 0.375 2.3875
2.3125 0.3125 2.3875
2.5 0.3125 2.45
2.5 0.375 2.3875
2.4375 0.375 2.45
2.5 0.3125 2.3875
2.4375 0.3125 2.45
2.4375 0.375 2.3875
2.4375 0.3125 2.3875
2.625 0.3125 2.45
2.625 0.375 2.3875
2.5625 0.375 2.45
2.625 0.3125 2.3875
2.5625 0.3125 2.45
2.5625 0.375 2.3875
2.5625 0.3125 2.3875
2.75 0.3125 2.45
2.75 0.375 2.3875
2.6875 0.375 2.45
2.75 0.3125 2.3875
2.6875 0.3125 2.45
2.6875 0.375 2.3875
2.6875 0.3125 2.3875
2.875 0.3125 2.45
2.875 0.375 2.3875
2.8125 0.375 2.45
2.875 0.3125 2.3875
2.8125 0.3125 2.45
2.8125 0.375 2.3875
2.8125 0.3125 2.3875
3 0.3125 2.45
3 0.375 2.3875
2.9375 0.375 2.45
3 0.3125 2.3875
2.9375 0.3125 2.45
2.9375 0.375 2.3875
2.9375 0.3125 2.3875
0.125 0.4375 2.45
0 0.4375 2.45
0.125 0.5 2.3875
0.0625 0.5 2.45
0 0.5 2.3875
0.125 0.4375 2.3875
0.0625 0.4375 2.45
0 0.4375 2.3875
0.0625 0.5 2.3875
0.0625 0.4375 2.3875
0.25 0.4375 2.45
0.25 0.5 2.3875
0.1875 0.5 2.45
0.25 0.4375 2.3875
0.1875 0.4375 2.45
0.1875 0.5 2.3875
0.1875 0.4375 2.3875
0.375 0.4375 2.45
0.375 0.5 2.3875
0.3125 0.5 2.45
0.375 0.4375 2.3875
0.3125 0.4375 2.45
0.3125 0.5 2.3875
0.3125 0.4375 2.3875
0.5 0.4375 2.45
0.5 0.5 2.3875
0.4375 0.5 2.45
0.5 0.4375 2.3875
0.4375 0.4375 2.45
0.4375 0.5 2.3875
0.4375 0.4375 2.3875
0.625 0.4375 2.45
0.625 0.5 2.3875
0.5625 0.5 2.45
0.625 0.4375 2.3875
0.5625 0.4375 2.45
0.5625 0.5 2.3875
0.5625 0.4375 2.3875
0.75 0.4375 2.45
0.75 0.5 2.3875
0.6875 0.5 2.45
0.75 0.4375 2.3875
0.6875 0.4375 2.45
0.6875 0.5 2.3875
0.6875 0.4375 2.3875
0.875 0.4375 2.45
0.875 0.5 2.3875
0.8125 0.5 2.45
0.875 0.4375 2.3875
0.8125 0.4375 2.45
0.8125 0.5 2.3875
0.8125 0.4375 2.3875
1 0.4375 2.45
1 0.5 2.3875
0.9375 0.5 2.45
1 0.4375 2.3875
0.9375 0.4375 2.45
0.9375 0.5 2.3875
0.9375 0.4375 2.3875
1.125 0.4375 2.45
1.125 0.5 2.3875
1.0625 0.5 2.45
1.125 0.4375 2.3875
1.0625 0.4375 2.45
1.0625 0.5 2.3875
1.0625 0.4375 2.3875
1.25 0.4375 2.45
1.25 0.5 2.3875
1.1875 0.5 2.45
1.25 0.4375 2.3875
1.1875 0.4375 2.45
1.1875 0.5 2.3875
1.1875 0.4375 2.3875
1.375 0.4375 2.45
1.375 0.5 2.3875
1.3125 0.5 2.45
1.375 0.4375 2.3875
1.3125 0.4375 2.45
1.3125 0.5 2.3875
1.3125 0.4375 2.3875
1.5 0.4375 2.45
1.5 0.5 2.3875
1.4375 0.5 2.45
1.5 0.4375 2.3875
1.4375 0.4375 2.45
1.4375 0.5 2.3875
1.4375 0.4375 2.3875
1.625 0.4375 2.45
1.625 0.5 2.3875
1.5625 0.5 2.45
1.625 0.4375 2.3875
1.5625 0.4375 2.45
1.5625 0.5 2.3875
1.5625 0.4375 2.3875
1.75 0.4375 2.45
1.75 0.5 2.3875
1.6875 0.5 2.45
1.75 0.4375 2.3875
1.6875 0.4375 2.45
1.6875 0.5 2.3875
1.6875 0.4375 2.3875
1.875 0.4375 2.45
1.875 0.5 2.3875
1.8125 0.5 2.45
1.875 0.4375 2.3875
1.8125 0.4375 2.45
1.8125 0.5 2.3875
1.8125 0.4375 2.3875
2 0.4375 2.45
2 0.5 2.3875
1.9375 0.5 2.45
2 0.4375 2.3875
1.9375 0.4375 2.45
1.9375 0.5 2.3875
1.9375 0.4375 2.3875
2.125 0.4375 2.45
2.125 0.5 2.3875
2.0625 0.5 2.45
2.125 0.4375 2.3875
2.0625 0.4375 2.45
2.0625 0.5 2.3875
2.0625 0.4375 2.3875
2.25 0.4375 2.45
2.25 0.5 2.3875
2.1875 0.5 2.45
2.25 0.4375 2.3875
2.1875 0.4375 2.45
2.1875 0.5 2.3875
2.1875 0.4375 2.3875
2.375 0.4375 2.45
2.375 0.5 2.3875
2.3125 0.5 2.45
2.375 0.4375 2.3875
2.3125 0.4375 2.45
2.3125 0.5 2.3875
2.3125 0.4375 2.3875
2.5 0.4375 2.45
2.5 0.5 2.3875
2.4375 0.5 2.45
2.5 0.4375 2.3875
2.4375 0.4375 2.45
2.4375 0.5 2.3875
2.4375 0.4375 2.3875
2.625 0.4375 2.45
2.625 0.5 2.3875
2.5625 0.5 2.45
2.625 0.4375 2.3875
2.5625 0.4375 2.45
2.5625 0.5 2.3875
2.5625 0.4375 2.3875
2.75 0.4375 2.45
2.75 0.5 2.3875
2.6875 0.5 2.45
2.75 0.4375 2.3875
2.6875 0.4375 2.45
2.6875 0.5 2.3875
2.6875 0.4375 2.3875
2.875 0.4375 2.45
2.875 0.5 2.3875
2.8125 0.5 2.45
2.875 0.4375 2.3875
2.8125 0.4375 2.45
2.8125 0.5 2.3875
2.8125 0.4375 2.3875
3 0.4375 2.45
3 0.5 2.3875
2.9375 0.5 2.45
3 0.4375 2.3875
2.9375 0.4375 2.45
2.9375 0.5 2.3875
2.9375 0.4375 2.3875
0.125 0.5625 2.45
0 0.5625 2.45
0.125 0.625 2.3875
0.0625 0.625 2.45
0 0.625 2.3875
0.125 0.5625 2.3875
0.0625 0.5625 2.45
0 0.5625 2.3875
0.0625 0.625 2.3875
0.0625 0.5625 2.3875
0.25 0.5625 2.45
0.25 0.625 2.3875
0.1875 0.625 2.45
0.25 0.5625 2.3875
0.1875 0.5625 2.45
0.1875 0.625 2.3875
0.1875 0.5625 2.3875
0.375 0.5625 2.45
0.375 0.625 2.3875
0.3125 0.625 2.45
0.375 0.5625 2.3875
0.3125 0.5625 2.45
0.3125 0.625 2.3875
0.3125 0.5625 2.3875
0.5 0.5625 2.45
0.5 0.625 2.3875
0.4375 0.625 2.45
0.5 0.5625 2.3875
0.4375 0.5625 2.45
0.4375 0.625 2.3875
0.4375 0.5625 2.3875
0.625 0.5625 2.45
0.625 0.625 2.3875
0.5625 0.625 2.45
0.625 0.5625 2.3875
0.5625 0.5625 2.45
0.5625 0.625 2.3875
0.5625 0.5625 2.3875
0.75 0.5625 2.45
0.75 0.625 2.3875
0.6875 0.625 2.45
0.75 0.5625 2.3875
0.6875 0.5625 2.45
0.6875 0.625 2.3875
0.6875 0.5625 2.3875
0.875 0.5625 2.45
0.875 0.625 2.3875
0.8125 0.625 2.45
0.875 0.5625 2.3875
0.8125 0.5625 2.45
0.8125 0.625 2.3875
0.8125 0.5625 2.3875
1 0.5625 2.45
1 0.625 2.3875
0.9375 0.625 2.45
1 0.5625 2.3875
0.9375 0.5625 2.45
0.9375 0.625 2.3875
0.9375 0.5625 2.3875
1.125 0.5625 2.45
1.125 0.625 2.3875
1.0625 0.625 2.45
1.125 0.5625 2.3875
1.0625 0.5625 2.45
1.0625 0.625 2.3875
1.0625 0.5625 2.3875
1.25 0.5625 2.45
1.25 0.625 2.3875
1.1875 0.625 2.45
1.25 0.5625 2.3875
1.1875 0.5625 2.45
1.1875 0.625 2.3875
1.1875 0.5625 2.3875
1.375 0.5625 2.45
1.375 0.625 2.3875
1.3125 0.625 2.45
1.375 0.5625 2.3875
1.3125 0.5625 2.45
1.3125 0.625 2.3875
1.3125 0.5625 2.3875
1.5 0.5625 2.45
1.5 0.625 2.3875
1.4375 0.625 2.45
1.5 0.5625 2.3875
1.4375 0.5625 2.45
1.4375 0.625 2.3875
1.4375 0.5625 2.3875
1.625 0.5625 2.45
1.625 0.625 2.3875
1.5625 0.625 2.45
1.625 0.5625 2.3875
1.5625 0.5625 2.45
1.5625 0.625 2.3875
1.5625 0.5625 2.3875
1.75 0.5625 2.45
1.75 0.625 2.3875
1.6875 0.625 2.45
1.75 0.5625 2.3875
1.6875 0.5625 2.45
1.6875 0.625 2.3875
1.6875 0.5625 2.3875
1.875 0.5625 2.45
1.875 0.625 2.3875
1.8125 0.625 2.45
1.875 0.5625 2.3875
1.8125 0.5625 2.45
1.8125 0.625 2.3875
1.8125 0.5625 2.3875
2 0.5625 2.45
2 0.625 2.3875
1.9375 0.625 2.45
2 0.5625 2.3875
1.9375 0.5625 2.45
1.9375 0.625 2.3875
1.9375 0.5625 2.3875
2.125 0.5625 2.45
2.125 0.625 2.3875
2.0625 0.625 2.45
2.125 0.5625 2.3875
2.0625 0.5625 2.45
2.0625 0.625 2.3875
2.0625 0.5625 2.3875
2.25 0.5625 2.45
2.25 0.625 2.3875
2.1875 0.625 2.45
2.25 0.5625 2.3875
2.1875 0.5625 2.45
2.1875 0.625 2.3875
2.1875 0.5625 2.3875
2.375 0.5625 2.45
2.375 0.625 2.3875
2.3125 0.625 2.45
2.375 0.5625 2.3875
2.3125 0.5625 2.45
2.3125 0.625 2.3875
2.3125 0.5625 2.3875
2.5 0.5625 2.45
2.5 0.625 2.3875
2.4375 0.625 2.45
2.5 0.5625 2.3875
2.4375 0.5625 2.45
2.4375 0.625 2.3875
2.4375 0.5625 2.3875
2.625 0.5625 2.45
2.625 0.625 2.3875
2.5625 0.625 2.45
2.625 0.5625 2.3875
2.5625 0.5625 2.45
2.5625 0.625 2.3875
2.5625 0.5625 2.3875
2.75 0.5625 2.45
2.75 0.625 2.3875
2.6875 0.625 2.45
2.75 0.5625 2.3875
2.6875 0.5625 2.45
2.6875 0.625 2.3875
2.6875 0.5625 2.3875
2.875 0.5625 2.45
2.875 0.625 2.3875
2.8125 0.625 2.45
2.875 0.5625 2.3875
2.8125 0.5625 2.45
2.8125 0.625 2.3875
2.8125 0.5625 2.3875
3 0.5625 2.45
3 0.625 2.3875
2.9375 0.625 2.45
3 0.5625 2.3875
2.9375 0.5625 2.45
2.9375 0.625 2.3875
2.9375 0.5625 2.3875
0.125 0.6875 2.45
0 0.6875 2.45
0.125 0.75 2.3875
0.0625 0.75 2.45
0 0.75 2.3875
0.125 0.6875 2.3875
0.0625 0.6875 2.45
0 0.6875 2.3875
0.0625 0.75 2.3875
0.0625 0.6875 2.3875
0.25 0.6875 2.45
0.25 0.75 2.3875
0.1875 0.75 2.45
0.25 0.6875 2.3875
0.1875 0.6875 2.45
0.1875 0.75 2.3875
0.1875 0.6875 2.3875
0.375 0.6875 2.45
0.375 0.75 2.3875
0.3125 0.75 2.45
0.375 0.6875 2.3875
0.3125 0.6875 2.45
0.3125 0.75 2.3875
0.3125 0.6875 2.3875
0.5 0.6875 2.45
0.5 0.75 2.3875
0.4375 0.75 2.45
0.5 0.6875 2.3875
0.4375 0.6875 2.45
0.4375 0.75 2.3875
0.4375 0.6875 2.3875
0.625 0.6875 2.45
0.625 0.75 2.3875
0.5625 0.75 2.45
0.625 0.6875 2.3875
0.5625 0.6875 2.45
0.5625 0.75 2.3875
0.5625 0.6875 2.3875
0.75 0.6875 2.45
0.75 0.75 2.3875
0.6875 0.75 2.45
0.75 0.6875 2.3875
0.6875 0.6875 2.45
0.6875 0.75 2.3875
0.6875 0.6875 2.3875
0.875 0.6875 2.45
0.875 0.75 2.3875
0.8125 0.75 2.45
0.875 0.6875 2.3875
0.8125 0.6875 2.45
0.8125 0.75 2.3875
0.8125 0.6875 2.3875
1 0.6875 2.45
1 0.75 2.3875
0.9375 0.75 2.45
1 0.6875 2.3875
0.9375 0.6875 2.45
0.9375 0.75 2.3875
0.9375 0.6875 2.3875
1.125 0.6875 2.45
1.125 0.75 2.3875
1.0625 0.75 2.45
1.125 0.6875 2.3875
1.0625 0.6875 2.45
1.0625 0.75 2.3875
1.0625 0.6875 2.3875
1.25 0.6875 2.45
1.25 0.75 2.3875
1.1875 0.75 2.45
1.25 0.6875 2.3875
1.1875 0.6875 2.45
1.1875 0.75 2.3875
1.1875 0.6875 2.3875
1.375 0.6875 2.45
1.375 0.75 2.3875
1.3125 0.75 2.45
1.375 0.6875 2.3875
1.3125 0.6875 2.45
1.3125 0.75 2.3875
1.3125 0.6875 2.3875
1.5 0.6875 2.45
1.5 0.75 2.3875
1.4375 0.75 2.45
1.5 0.6875 2.3875
1.4375 0.6875 2.45
1.4375 0.75 2.3875
1.4375 0.6875 2.3875
1.625 0.6875 2.45
1.625 0.75 2.3875
1.5625 0.75 2.45
1.625 0.6875 2.3875
1.5625 0.6875 2.45
1.5625 0.75 2.3875
1.5625 0.6875 2.3875
1.75 0.6875 2.45
1.75 0.75 2.3875
1.6875 0.75 2.45
1.75 0.6875 2.3875
1.6875 0.6875 2.45
1.6875 0.75 2.3875
1.6875 0.6875 2.3875
1.875 0.6875 2.45
1.875 0.75 2.3875
1.8125 0.75 2.45
1.875 0.6875 2.3875
1.8125 0.6875 2.45
1.8125 0.75 2.3875
1.8125 0.6875 2.3875
2 0.6875 2.45
2 0.75 2.3875
1.9375 0.75 2.45
2 0.6875 2.3875
1.9375 0.6875 2.45
1.9375 0.75 2.3875
1.9375 0.6875 2.3875
2.125 0.6875 2.45
2.125 0.75 2.3875
2.0625 0.75 2.45
2.125 0.6875 2.3875
2.0625 0.6875 2.45
2.0625 0.75 2.3875
2.0625 0.6875 2.3875
2.25 0.6875 2.45
2.25 0.75 2.3875
2.1875 0.75 2.45
2.25 0.6875 2.3875
2.1875 0.6875 2.45
2.1875 0.75 2.3875
2.1875 0.6875 2.3875
2.375 0.6875 2.45
2.375 0.75 2.3875
2.3125 0.75 2.45
2.375 0.6875 2.3875
2.3125 0.6875 2.45
2.3125 0.75 2.3875
2.3125 0.6875 2.3875
2.5 0.6875 2.45
2.5 0.75 2.3875
2.4375 0.75 2.45
2.5 0.6875 2.3875
2.4375 0.6875 2.45
2.4375 0.75 2.3875
2.4375 0.6875 2.3875
2.625 0.6875 2.45
2.625 0.75 2.3875
2.5625 0.75 2.45
2.625 0.6875 2.3875
2.5625 0.6875 2.45
2.5625 0.75 2.3875
2.5625 0.6875 2.3875
2.75 0.6875 2.45
2.75 0.75 2.3875
2.6875 0.75 2.45
2.75 0.6875 2.3875
2.6875 0.6875 2.45
2.6875 0.75 2.3875
2.6875 0.6875 2.3875
2.875 0.6875 2.45
2.875 0.75 2.3875
2.8125 0.75 2.45
2.875 0.6875 2.3875
2.8125 0.6875 2.45
2.8125 0.75 2.3875
2.8125 0.6875 2.3875
3 0.6875 2.45
3 0.75 2.3875
2.9375 0.75 2.45
3 0.6875 2.3875
2.9375 0.6875 2.45
2.9375 0.75 2.3875
2.9375 0.6875 2.3875
0.125 0.8125 2.45
0 0.8125 2.45
0.125 0.875 2.3875
0.0625 0.875 2.45
0 0.875 2.3875
0.125 0.8125 2.3875
0.0625 0.8125 2.45
0 0.8125 2.3875
0.0625 0.875 2.3875
0.0625 0.8125 2.3875
0.25 0.8125 2.45
0.25 0.875 2.3875
0.1875 0.875 2.45
0.25 0.8125 2.3875
0.1875 0.8125 2.45
0.1875 0.875 2.3875
0.1875 0.8125 2.3875
0.375 0.8125 2.45
0.375 0.875 2.3875
0.3125 0.875 2.45
0.375 0.8125 2.3875
0.3125 0.8125 2.45
0.3125 0.875 2.3875
0.3125 0.8125 2.3875
0.5 0.8125 2.45
0.5 0.875 2.3875
0.4375 0.875 2.45
0.5 0.8125 2.3875
0.4375 0.8125 2.45
0.4375 0.875 2.3875
0.4375 0.8125 2.3875
0.625 0.8125 2.45
0.625 0.875 2.3875
0.5625 0.875 2.45
0.625 0.8125 2.3875
0.5625 0.8125 2.45
0.5625 0.875 2.3875
0.5625 0.8125 2.3875
0.75 0.8125 2.45
0.75 0.875 2.3875
0.6875 0.875 2.45
0.75 0.8125 2.3875
0.6875 0.8125 2.45
0.6875 0.875 2.3875
0.6875 0.8125 2.3875
0.875 0.8125 2.45
0.875 0.875 2.3875
0.8125 0.875 2.45
0.875 0.8125 2.3875
0.8125 0.8125 2.45
0.8125 0.875 2.3875
0.8125 0.8125 2.3875
1 0.8125 2.45
1 0.875 2.3875
0.9375 0.875 2.45
1 0.8125 2.3875
0.9375 0.8125 2.45
0.9375 0.875 2.3875
0.9375 0.8125 2.3875
1.125 0.8125 2.45
1.125 0.875 2.3875
1.0625 0.875 2.45
1.125 0.8125 2.3875
1.0625 0.8125 2.45
1.0625 0.875 2.3875
1.0625 0.8125 2.3875
1.25 0.8125 2.45
1.25 0.875 2.3875
1.1875 0.875 2.45
1.25 0.8125 2.3875
1.1875 0.8125 2.45
1.1875 0.875 2.3875
1.1875 0.8125 2.3875
1.375 0.8125 2.45
1.375 0.875 2.3875
1.3125 0.875 2.45
1.375 0.8125 2.3875
1.3125 0.8125 2.45
1.3125 0.875 2.3875
1.3125 0.8125 2.3875
1.5 0.8125 2.45
1.5 0.875 2.3875
1.4375 0.875 2.45
1.5 0.8125 2.3875
1.4375 0.8125 2.45
1.4375 0.875 2.3875
1.4375 0.8125 2.3875
1.625 0.8125 2.45
1.625 0.875 2.3875
1.5625 0.875 2.45
1.625 0.8125 2.3875
1.5625 0.8125 2.45
1.5625 0.875 2.3875
1.5625 0.8125 2.3875
1.75 0.8125 2.45
1.75 0.875 2.3875
1.6875 0.875 2.45
1.75 0.8125 2.3875
1.6875 0.8125 2.45
1.6875 0.875 2.3875
1.6875 0.8125 2.3875
1.875 0.8125 2.45
1.875 0.875 2.3875
1.8125 0.875 2.45
1.875 0.8125 2.3875
1.8125 0.8125 2.45
1.8125 0.875 2.3875
1.8125 0.8125 2.3875
2 0.8125 2.45
2 0.875 2.3875
1.9375 0.875 2.45
2 0.8125 2.3875
1.9375 0.8125 2.45
1.9375 0.875 2.3875
1.9375 0.8125 2.3875
2.125 0.8125 2.45
2.125 0.875 2.3875
2.0625 0.875 2.45
2.125 0.8125 2.3875
2.0625 0.8125 2.45
2.0625 0.875 2.3875
2.0625 0.8125 2.3875
2.25 0.8125 2.45
2.25 0.875 2.3875
2.1875 0.875 2.45
2.25 0.8125 2.3875
2.1875 0.8125 2.45
2.1875 0.875 2.3875
2.1875 0.8125 2.3875
2.375 0.8125 2.45
2.375 0.875 2.3875
2.3125 0.875 2.45
2.375 0.8125 2.3875
2.3125 0.8125 2.45
2.3125 0.875 2.3875
2.3125 0.8125 2.3875
2.5 0.8125 2.45
2.5 0.875 2.3875
2.4375 0.875 2.45
2.5 0.8125 2.3875
2.4375 0.8125 2.45
2.4375 0.875 2.3875
2.4375 0.8125 2.3875
2.625 0.8125 2.45
2.625 0.875 2.3875
2.5625 0.875 2.45
2.625 0.8125 2.3875
2.5625 0.8125 2.45
2.5625 0.875 2.3875
2.5625 0.8125 2.3875
2.75 0.8125 2.45
2.75 0.875 2.3875
2.6875 0.875 2.45
2.75 0.8125 2.3875
2.6875 0.8125 2.45
2.6875 0.875 2.3875
2.6875 0.8125 2.3875
2.875 0.8125 2.45
2.875 0.875 2.3875
2.8125 0.875 2.45
2.875 0.8125 2.3875
2.8125 0.8125 2.45
2.8125 0.875 2.3875
2.8125 0.8125 2.3875
3 0.8125 2.45
3 0.875 2.3875
2.9375 0.875 2.45
3 0.8125 2.3875
2.9375 0.8125 2.45
2.9375 0.875 2.3875
2.9375 0.8125 2.3875
0.125 0.9375 2.45
0 0.9375 2.45
0.125 1 2.3875
0.0625 1 2.45
0 1 2.3875
0.125 0.9375 2.3875
0.0625 0.9375 2.45
0 0.9375 2.3875
0.0625 1 2.3875
0.0625 0.9375 2.3875
0.25 0.9375 2.45
0.25 1 2.3875
0.1875 1 2.45
0.25 0.9375 2.3875
0.1875 0.9375 2.45
0.1875 1 2.3875
0.1875 0.9375 2.3875
0.375 0.9375 2.45
0.375 1 2.3875
0.3125 1 2.45
0.375 0.9375 2.3875
0.3125 0.9375 2.45
0.3125 1 2.3875
0.3125 0.9375 2.3875
0.5 0.9375 2.45
0.5 1 2.3875
0.4375 1 2.45
0.5 0.9375 2.3875
0.4375 0.9375 2.45
0.4375 1 2.3875
0.4375 0.9375 2.3875
0.625 0.9375 2.45
0.625 1 2.3875
0.5625 1 2.45
0.625 0.9375 2.3875
0.5625 0.9375 2.45
0.5625 1 2.3875
0.5625 0.9375 2.3875
0.75 0.9375 2.45
0.75 1 2.3875
0.6875 1 2.45
0.75 0.9375 2.3875
0.6875 0.9375 2.45
0.6875 1 2.3875
0.6875 0.9375 2.3875
0.875 0.9375 2.45
0.875 1 2.3875
0.8125 1 2.45
0.875 0.9375 2.3875
0.8125 0.9375 2.45
0.8125 1 2.3875
0.8125 0.9375 2.3875
1 0.9375 2.45
1 1 2.3875
0.9375 1 2.45
1 0.9375 2.3875
0.9375 0.9375 2.45
0.9375 1 2.3875
0.9375 0.9375 2.3875
1.125 0.9375 2.45
1.125 1 2.3875
1.0625 1 2.45
1.125 0.9375 2.3875
1.0625 0.9375 2.45
1.0625 1 2.3875
1.0625 0.9375 2.3875
1.25 0.9375 2.45
1.25 1 2.3875
1.1875 1 2.45
1.25 0.9375 2.3875
1.1875 0.9375 2.45
1.1875 1 2.3875
1.1875 0.9375 2.3875
1.375 0.9375 2.45
1.375 1 2.3875
1.3125 1 2.45
1.375 0.9375 2.3875
1.3125 0.9375 2.45
1.3125 1 2.3875
1.3125 0.9375 2.3875
1.5 0.9375 2.45
1.5 1 2.3875
1.4375 1 2.45
1.5 0.9375 2.3875
1.4375 0.9375 2.45
1.4375 1 2.3875
1.4375 0.9375 2.3875
1.625 0.9375 2.45
1.625 1 2.3875
1.5625 1 2.45
1.625 0.9375 2.3875
1.5625 0.9375 2.45
1.5625 1 2.3875
1.5625 0.9375 2.3875
1.75 0.9375 2.45
1.75 1 2.3875
1.6875 1 2.45
1.75 0.9375 2.3875
1.6875 0.9375 2.45
1.6875 1 2.3875
1.6875 0.9375 2.3875
1.875 0.9375 2.45
1.875 1 2.3875
1.8125 1 2.45
1.875 0.9375 2.3875
1.8125 0.9375 2.45
1.8125 1 2.3875
1.8125 0.9375 2.3875
2 0.9375 2.45
2 1 2.3875
1.9375 1 2.45
2 0.9375 2.3875
1.9375 0.9375 2.45
1.9375 1 2.3875
1.9375 0.9375 2.3875
2.125 0.9375 2.45
2.125 1 2.3875
2.0625 1 2.45
2.125 0.9375 2.3875
2.0625 0.9375 2.45
2.0625 1 2.3875
2.0625 0.9375 2.3875
2.25 0.9375 2.45
2.25 1 2.3875
2.1875 1 2.45
2.25 0.9375 2.3875
2.1875 0.9375 2.45
2.1875 1 2.3875
2.1875 0.9375 2.3875
2.375 0.9375 2.45
2.375 1 2.3875
2.3125 1 2.45
2.375 0.9375 2.3875
2.3125 0.9375 2.45
2.3125 1 2.3875
2.3125 0.9375 2.3875
2.5 0.9375 2.45
2.5 1 2.3875
2.4375 1 2.45
2.5 0.9375 2.3875
2.4375 0.9375 2.45
2.4375 1 2.3875
2.4375 0.9375 2.3875
2.625 0.9375 2.45
2.625 1 2.3875
2.5625 1 2.45
2.625 0.9375 2.3875
2.5625 0.9375 2.45
2.5625 1 2.3875
2.5625 0.9375 2.3875
2.75 0.9375 2.45
2.75 1 2.3875
2.6875 1 2.45
2.75 0.9375 2.3875
2.6875 0.9375 2.45
2.6875 1 2.3875
2.6875 0.9375 2.3875
2.875 0.9375 2.45
2.875 1 2.3875
2.8125 1 2.45
2.875 0.9375 2.3875
2.8125 0.9375 2.45
2.8125 1 2.3875
2.8125 0.9375 2.3875
3 0.9375 2.45
3 1 2.3875
2.9375 1 2.45
3 0.9375 2.3875
2.9375 0.9375 2.45
2.9375 1 2.3875
2.9375 0.9375 2.3875
0.125 0 2.5125
0.0625 0 2.575
0 0 2.5125
0.125 0.0625 2.575
0 0.0625 2.575
0.125 0.125 2.5125
0.0625 0.125 2.575
0 0.125 2.5125
0.0625 0 2.5125
0.125 0.0625 2.5125
0.0625 0.0625 2.575
0 0.0625 2.5125
0.0625 0.125 2.5125
0.0625 0.0625 2.5125
0.25 0 2.5125
0.1875 0 2.575
0.25 0.0625 2.575
0.25 0.125 2.5125
0.1875 0.125 2.575
0.1875 0 2.5125
0.25 0.0625 2.5125
0.1875 0.0625 2.575
0.1875 0.125 2.5125
0.1875 0.0625 2.5125
0.375 0 2.5125
0.3125 0 2.575
0.375 0.0625 2.575
0.375 0.125 2.5125
0.3125 0.125 2.575
0.3125 0 2.5125
0.375 0.0625 2.5125
0.3125 0.0625 2.575
0.3125 0.125 2.5125
0.3125 0.0625 2.5125
0.5 0 2.5125
0.4375 0 2.575
0.5 0.0625 2.575
0.5 0.125 2.5125
0.4375 0.125 2.575
0.4375 0 2.5125
0.5 0.0625 2.5125
0.4375 0.0625 2.575
0.4375 0.125 2.5125
0.4375 0.0625 2.5125
0.625 0 2.5125
0.5625 0 2.575
0.625 0.0625 2.575
0.625 0.125 2.5125
0.5625 0.125 2.575
0.5625 0 2.5125
0.625 0.0625 2.5125
0.5625 0.0625 2.575
0.5625 0.125 2.5125
0.5625 0.0625 2.5125
0.75 0 2.5125
0.6875 0 2.575
0.75 0.0625 2.575
0.75 0.125 2.5125
0.6875 0.125 2.575
0.6875 0 2.5125
0.75 0.0625 2.5125
0.6875 0.0625 2.575
0.6875 0.125 2.5125
0.6875 0.0625 2.5125
0.875 0 2.5125
0.8125 0 2.575
0.875 0.0625 2.575
0.875 0.125 2.5125
0.8125 0.125 2.575
0.8125 0 2.5125
0.875 0.0625 2.5125
0.8125 0.0625 2.575
0.8125 0.125 2.5125
0.8125 0.0625 2.5125
1 0 2.5125
0.9375 0 2.575
1 0.0625 2.575
1 0.125 2.5125
0.9375 0.125 2.575
0.9375 0 2.5125
1 0.0625 2.5125
0.9375 0.0625 2.575
0.9375 0.125 2.5125
0.9375 0.0625 2.5125
1.125 0 2.5125
1.0625 0 2.575
1.125 0.0625 2.575
1.125 0.125 2.5125
1.0625 0.125 2.575
1.0625 0 2.5125
1.125 0.0625 2.5125
1.0625 0.0625 2.575
1.0625 0.125 2.5125
1.0625 0.0625 2.5125
1.25 0 2.5125
1.1875 0 2.575
1.25 0.0625 2.575
1.25 0.125 2.5125
1.1875 0.125 2.575
1.1875 0 2.5125
1.25 0.0625 2.5125
1.1875 0.0625 2.575
1.1875 0.125 2.5125
1.1875 0.0625 2.5125
1.375 0 2.5125
1.3125 0 2.575
1.375 0.0625 2.575
1.375 0.125 2.5125
1.3125 0.125 2.575
1.3125 0 2.5125
1.375 0.0625 2.5125
1.3125 0.0625 2.575
1.3125 0.125 2.5125
1.3125 0.0625 2.5125
1.5 0 2.5125
1.4375 0 2.575
1.5 0.0625 2.575
1.5 0.125 2.5125
1.4375 0.125 2.575
1.4375 0 2.5125
1.5 0.0625 2.5125
1.4375 0.0625 2.575
1.4375 0.125 2.5125
1.4375 0.0625 2.5125
1.625 0 2.5125
1.5625 0 2.575
1.625 0.0625 2.575
1.625 0.125 2.5125
1.5625 0.125 2.575
1.5625 0 2.5125
1.625 0.0625 2.5125
1.5625 0.0625 2.575
1.5625 0.125 2.5125
1.5625 0.0625 2.5125
1.75 0 2.5125
1.6875 0 2.575
1.75 0.0625 2.575
1.75 0.125 2.5125
1.6875 0.125 2.575
1.6875 0 2.5125
1.75 0.0625 2.5125
1.6875 0.0625 2.575
1.6875 0.125 2.5125
1.6875 0.0625 2.5125
1.875 0 2.5125
1.8125 0 2.575
1.875 0.0625 2.575
1.875 0.125 2.5125
1.8125 0.125 2.575
1.8125 0 2.5125
1.875 0.0625 2.5125
1.8125 0.0625 2.575
1.8125 0.125 2.5125
1.8125 0.0625 2.5125
2 0 2.5125
1.9375 0 2.575
2 0.0625 2.575
2 0.125 2.5125
1.9375 0.125 2.575
1.9375 0 2.5125
2 0.0625 2.5125
1.9375 0.0625 2.575
1.9375 0.125 2.5125
1.9375 0.0625 2.5125
2.125 0 2.5125
2.0625 0 2.575
2.125 0.0625 2.575
2.125 0.125 2.5125
2.0625 0.125 2.575
2.0625 0 2.5125
2.125 0.0625 2.5125
2.0625 0.0625 2.575
2.0625 0.125 2.5125
2.0625 0.0625 2.5125
2.25 0 2.5125
2.1875 0 2.575
2.25 0.0625 2.575
2.25 0.125 2.5125
2.1875 0.125 2.575
2.1875 0 2.5125
2.25 0.0625 2.5125
2.1875 0.0625 2.575
2.1875 0.125 2.5125
2.1875 0.0625 2.5125
2.375 0 2.5125
2.3125 0 2.575
2.375 0.0625 2.575
2.375 0.125 2.5125
2.3125 0.125 2.575
2.3125 0 2.5125
2.375 0.0625 2.5125
2.3125 0.0625 2.575
2.3125 0.125 2.5125
2.3125 0.0625 2.5125
2.5 0 2.5125
2.4375 0 2.575
2.5 0.0625 2.575
2.5 0.125 2.5125
2.4375 0.125 2.575
2.4375 0 2.5125
2.5 0.0625 2.5125
2.4375 0.0625 2.575
2.4375 0.125 2.5125
2.4375 0.0625 2.5125
2.625 0 2.5125
2.5625 0 2.575
2.625 0.0625 2.575
2.625 0.125 2.5125
2.5625 0.125 2.575
2.5625 0 2.5125
2.625 0.0625 2.5125
2.5625 0.0625 2.575
2.5625 0.125 2.5125
2.5625 0.0625 2.5125
2.75 0 2.5125
2.6875 0 2.575
2.75 0.0625 2.575
2.75 0.125 2.5125
2.6875 0.125 2.575
2.6875 0 2.5125
2.75 0.0625 2.5125
2.6875 0.0625 2.575
2.6875 0.125 2.5125
2.6875 0.0625 2.5125
2.875 0 2.5125
2.8125 0 2.575
2.875 0.0625 2.575
2.875 0.125 2.5125
2.8125 0.125 2.575
2.8125 0 2.5125
2.875 0.0625 2.5125
2.8125 0.0625 2.575
2.8125 0.125 2.5125
2.8125 0.0625 2.5125
3 0 2.5125
2.9375 0 2.575
3 0.0625 2.575
3 0.125 2.5125
2.9375 0.125 2.575
2.9375 0 2.5125
3 0.0625 2.5125
2.9375 0.0625 2.575
2.9375 0.125 2.5125
2.9375 0.0625 2.5125
0.125 0.1875 2.575
0 0.1875 2.575
0.125 0.25 2.5125
0.0625 0.25 2.575
0 0.25 2.5125
0.125 0.1875 2.5125
0.0625 0.1875 2.575
0 0.1875 2.5125
0.0625 0.25 2.5125
0.0625 0.1875 2.5125
0.25 0.1875 2.575
0.25 0.25 2.5125
0.1875 0.25 2.575
0.25 0.1875 2.5125
0.1875 0.1875 2.575
0.1875 0.25 2.5125
0.1875 0.1875 2.5125
0.375 0.1875 2.575
0.375 0.25 2.5125
0.3125 0.25 2.575
0.375 0.1875 2.5125
0.3125 0.1875 2.575
0.3125 0.25 2.5125
0.3125 0.1875 2.5125
0.5 0.1875 2.575
0.5 0.25 2.5125
0.4375 0.25 2.575
0.5 0.1875 2.5125
0.4375 0.1875 2.575
0.4375 0.25 2.5125
0.4375 0.1875 2.5125
0.625 0.1875 2.575
0.625 0.25 2.5125
0.5625 0.25 2.575
0.625 0.1875 2.5125
0.5625 0.1875 2.575
0.5625 0.25 2.5125
0.5625 0.1875 2.5125
0.75 0.1875 2.575
0.75 0.25 2.5125
0.6875 0.25 2.575
0.75 0.1875 2.5125
0.6875 0.1875 2.575
0.6875 0.25 2.5125
0.6875 0.1875 2.5125
0.875 0.1875 2.575
0.875 0.25 2.5125
0.8125 0.25 2.575
0.875 0.1875 2.5125
0.8125 0.1875 2.575
0.8125 0.25 2.5125
0.8125 0.1875 2.5125
1 0.1875 2.575
1 0.25 2.5125
0.9375 0.25 2.575
1 0.1875 2.5125
0.9375 0.1875 2.575
0.9375 0.25 2.5125
0.9375 0.1875 2.5125
1.125 0.1875 2.575
1.125 0.25 2.5125
1.0625 0.25 2.575
1.125 0.1875 2.5125
1.0625 0.1875 2.575
1.0625 0.25 2.5125
1.0625 0.1875 2.5125
1.25 0.1875 2.575
1.25 0.25 2.5125
1.1875 0.25 2.575
1.25 0.1875 2.5125
1.1875 0.1875 2.575
1.1875 0.25 2.5125
1.1875 0.1875 2.5125
1.375 0.1875 2.575
1.375 0.25 2.5125
1.3125 0.25 2.575
1.375 0.1875 2.5125
1.3125 0.1875 2.575
1.3125 0.25 2.5125
1.3125 0.1875 2.5125
1.5 0.1875 2.575
1.5 0.25 2.5125
1.4375 0.25 2.575
1.5 0.1875 2.5125
1.4375 0.1875 2.575
1.4375 0.25 2.5125
1.4375 0.1875 2.5125
1.625 0.1875 2.575
1.625 0.25 2.5125
1.5625 0.25 2.575
1.625 0.1875 2.5125
1.5625 0.1875 2.575
1.5625 0.25 2.5125
1.5625 0.1875 2.5125
1.75 0.1875 2.575
1.75 0.25 2.5125
1.6875 0.25 2.575
1.75 0.1875 2.5125
1.6875 0.1875 2.575
1.6875 0.25 2.5125
1.6875 0.1875 2.5125
1.875 0.1875 2.575
1.875 0.25 2.5125
1.8125 0.25 2.575
1.875 0.1875 2.5125
1.8125 0.1875 2.575
1.8125 0.25 2.5125
1.8125 0.1875 2.5125
2 0.1875 2.575
2 0.25 2.5125
1.9375 0.25 2.575
2 0.1875 2.5125
1.9375 0.1875 2.575
1.9375 0.25 2.5125
1.9375 0.1875 2.5125
2.125 0.1875 2.575
2.125 0.25 2.5125
2.0625 0.25 2.575
2.125 0.1875 2.5125
2.0625 0.1875 2.575
2.0625 0.25 2.5125
2.0625 0.1875 2.5125
2.25 0.1875 2.575
2.25 0.25 2.5125
2.1875 0.25 2.575
2.25 0.1875 2.5125
2.1875 0.1875 2.575
2.1875 0.25 2.5125
2.1875 0.1875 2.5125
2.375 0.1875 2.575
2.375 0.25 2.5125
2.3125 0.25 2.575
2.375 0.1875 2.5125
2.3125 0.1875 2.575
2.3125 0.25 2.5125
2.3125 0.1875 2.5125
2.5 0.1875 2.575
2.5 0.25 2.5125
2.4375 0.25 2.575
2.5 0.1875 2.5125
2.4375 0.1875 2.575
2.4375 0.25 2.5125
2.4375 0.1875 2.5125
2.625 0.1875 2.575
2.625 0.25 2.5125
2.5625 0.25 2.575
2.625 0.1875 2.5125
2.5625 0.1875 2.575
2.5625 0.25 2.5125
2.5625 0.1875 2.5125
2.75 0.1875 2.575
2.75 0.25 2.5125
2.6875 0.25 2.575
2.75 0.1875 2.5125
2.6875 0.1875 2.575
2.6875 0.25 2.5125
2.6875 0.1875 2.5125
2.875 0.1875 2.575
2.875 0.25 2.5125
2.8125 0.25 2.575
2.875 0.1875 2.5125
2.8125 0.1875 2.575
2.8125 0.25 2.5125
2.8125 0.1875 2.5125
3 0.1875 2.575
3 0.25 2.5125
2.9375 0.25 2.575
3 0.1875 2.5125
2.9375 0.1875 2.575
2.9375 0.25 2.5125
2.9375 0.1875 2.5125
0.125 0.3125 2.575
0 0.3125 2.575
0.125 0.375 2.5125
0.0625 0.375 2.575
0 0.375 2.5125
0.125 0.3125 2.5125
0.0625 0.3125 2.575
0 0.3125 2.5125
0.0625 0.375 2.5125
0.0625 0.3125 2.5125
0.25 0.3125 2.575
0.25 0.375 2.5125
0.1875 0.375 2.575
0.25 0.3125 2.5125
0.1875 0.3125 2.575
0.1875 0.375 2.5125
0.1875 0.3125 2.5125
0.375 0.3125 2.575
0.375 0.375 2.5125
0.3125 0.375 2.575
0.375 0.3125 2.5125
0.3125 0.3125 2.575
0.3125 0.375 2.5125
0.3125 0.3125 2.5125
0.5 0.3125 2.575
0.5 0.375 2.5125
0.4375 0.375 2.575
0.5 0.3125 2.5125
0.4375 0.3125 2.575
0.4375 0.375 2.5125
0.4375 0.3125 2.5125
0.625 0.3125 2.575
0.625 0.375 2.5125
0.5625 0.375 2.575
0.625 0.3125 2.5125
0.5625 0.3125 2.575
0.5625 0.375 2.5125
0.5625 0.3125 2.5125
0.75 0.3125 2.575
0.75 0.375 2.5125
0.6875 0.375 2.575
0.75 0.3125 2.5125
0.6875 0.3125 2.575
0.6875 0.375 2.5125
0.6875 0.3125 2.5125
0.875 0.3125 2.575
0.875 0.375 2.5125
0.8125 0.375 2.575
0.875 0.3125 2.5125
0.8125 0.3125 2.575
0.8125 0.375 2.5125
0.8125 0.3125 2.5125
1 0.3125 2.575
1 0.375 2.5125
0.9375 0.375 2.575
1 0.3125 2.5125
0.9375 0.3125 2.575
0.9375 0.375 2.5125
0.9375 0.3125 2.5125
1.125 0.3125 2.575
1.125 0.375 2.5125
1.0625 0.375 2.575
1.125 0.3125 2.5125
1.0625 0.3125 2.575
1.0625 0.375 2.5125
1.0625 0.3125 2.5125
1.25 0.3125 2.575
1.25 0.375 2.5125
1.1875 0.375 2.575
1.25 0.3125 2.5125
1.1875 0.3125 2.575
1.1875 0.375 2.5125
1.1875 0.3125 2.5125
1.375 0.3125 2.575
1.375 0.375 2.5125
1.3125 0.375 2.575
1.375 0.3125 2.5125
1.3125 0.3125 2.575
1.3125 0.375 2.5125
1.3125 0.3125 2.5125
1.5 0.3125 2.575
1.5 0.375 2.5125
1.4375 0.375 2.575
1.5 0.3125 2.5125
1.4375 0.3125 2.575
1.4375 0.375 2.5125
1.4375 0.3125 2.5125
1.625 0.3125 2.575
1.625 0.375 2.5125
1.5625 0.375 2.575
1.625 0.3125 2.5125
1.5625 0.3125 2.575
1.5625 0.375 2.5125
1.5625 0.3125 2.5125
1.75 0.3125 2.575
1.75 0.375 2.5125
1.6875 0.375 2.575
1.75 0.3125 2.5125
1.6875 0.3125 2.575
1.6875 0.375 2.5125
1.6875 0.3125 2.5125
1.875 0.3125 2.575
1.875 0.375 2.5125
1.8125 0.375 2.575
1.875 0.3125 2.5125
1.8125 0.3125 2.575
1.8125 0.375 2.5125
1.8125 0.3125 2.5125
2 0.3125 2.575
2 0.375 2.5125
1.9375 0.375 2.575
2 0.3125 2.5125
1.9375 0.3125 2.575
1.9375 0.375 2.5125
1.9375 0.3125 2.5125
2.125 0.3125 2.575
2.125 0.375 2.5125
2.0625 0.375 2.575
2.125 0.3125 2.5125
2.0625 0.3125 2.575
2.0625 0.375 2.5125
2.0625 0.3125 2.5125
2.25 0.3125 2.575
2.25 0.375 2.5125
2.1875 0.375 2.575
2.25 0.3125 2.5125
2.1875 0.3125 2.575
2.1875 0.375 2.5125
2.1875 0.3125 2.5125
2.375 0.3125 2.575
2.375 0.375 2.5125
2.3125 0.375 2.575
2.375 0.3125 2.5125
2.3125 0.3125 2.575
2.3125 0.375 2.5125
2.3125 0.3125 2.5125
2.5 0.3125 2.575
2.5 0.375 2.5125
2.4375 0.375 2.575
2.5 0.3125 2.5125
2.4375 0.3125 2.575
2.4375 0.375 2.5125
2.4375 0.3125 2.5125
2.625 0.3125 2.575
2.625 0.375 2.5125
2.5625 0.375 2.575
2.625 0.3125 2.5125
2.5625 0.3125 2.575
2.5625 0.375 2.5125
2.5625 0.3125 2.5125
2.75 0.3125 2.575
2.75 0.375 2.5125
2.6875 0.375 2.575
2.75 0.3125 2.5125
2.6875 0.3125 2.575
2.6875 0.375 2.5125
2.6875 0.3125 2.5125
2.875 0.3125 2.575
2.875 0.375 2.5125
2.8125 0.375 2.575
2.875 0.3125 2.5125
2.8125 0.3125 2.575
2.8125 0.375 2.5125
2.8125 0.3125 2.5125
3 0.3125 2.575
3 0.375 2.5125
2.9375 0.375 2.575
3 0.3125 2.5125
2.9375 0.3125 2.575
2.9375 0.375 2.5125
2.9375 0.3125 2.5125
0.125 0.4375 2.575
0 0.4375 2.575
0.125 0.5 2.5125
0.0625 0.5 2.575
0 0.5 2.5125
0.125 0.4375 2.5125
0.0625 0.4375 2.575
0 0.4375 2.5125
0.0625 0.5 2.5125
0.0625 0.4375 2.5125
0.25 0.4375 2.575
0.25 0.5 2.5125
0.1875 0.5 2.575
0.25 0.4375 2.5125
0.1875 0.4375 2.575
0.1875 0.5 2.5125
0.1875 0.4375 2.5125
0.375 0.4375 2.575
0.375 0.5 2.5125
0.3125 0.5 2.575
0.375 0.4375 2.5125
0.3125 0.4375 2.575
0.3125 0.5 2.5125
0.3125 0.4375 2.5125
0.5 0.4375 2.575
0.5 0.5 2.5125
0.4375 0.5 2.575
0.5 0.4375 2.5125
0.4375 0.4375 2.575
0.4375 0.5 2.5125
0.4375 0.4375 2.5125
0.625 0.4375 2.575
0.625 0.5 2.5125
0.5625 0.5 2.575
0.625 0.4375 2.5125
0.5625 0.4375 2.575
0.5625 0.5 2.5125
0.5625 0.4375 2.5125
0.75 0.4375 2.575
0.75 0.5 2.5125
0.6875 0.5 2.575
0.75 0.4375 2.5125
0.6875 0.4375 2.575
0.6875 0.5 2.5125
0.6875 0.4375 2.5125
0.875 0.4375 2.575
0.875 0.5 2.5125
0.8125 0.5 2.575
0.875 0.4375 2.5125
0.8125 0.4375 2.575
0.8125 0.5 2.5125
0.8125 0.4375 2.5125
1 0.4375 2.575
1 0.5 2.5125
0.9375 0.5 2.575
1 0.4375 2.5125
0.9375 0.4375 2.575
0.9375 0.5 2.5125
0.9375 0.4375 2.5125
1.125 0.4375 2.575
1.125 0.5 2.5125
1.0625 0.5 2.575
1.125 0.4375 2.5125
1.0625 0.4375 2.575
1.0625 0.5 2.5125
1.0625 0.4375 2.5125
1.25 0.4375 2.575
1.25 0.5 2.5125
1.1875 0.5 2.575
1.25 0.4375 2.5125
1.1875 0.4375 2.575
1.1875 0.5 2.5125
1.1875 0.4375 2.5125
1.375 0.4375 2.575
1.375 0.5 2.5125
1.3125 0.5 2.575
1.375 0.4375 2.5125
1.3125 0.4375 2.575
1.3125 0.5 2.5125
1.3125 0.4375 2.5125
1.5 0.4375 2.575
1.5 0.5 2.5125
1.4375 0.5 2.575
1.5 0.4375 2.5125
1.4375 0.4375 2.575
1.4375 0.5 2.5125
1.4375 0.4375 2.5125
1.625 0.4375 2.575
1.625 0.5 2.5125
1.5625 0.5 2.575
1.625 0.4375 2.5125
1.5625 0.4375 2.575
1.5625 0.5 2.5125
1.5625 0.4375 2.5125
1.75 0.4375 2.575
1.75 0.5 2.5125
1.6875 0.5 2.575
1.75 0.4375 2.5125
1.6875 0.4375 2.575
1.6875 0.5 2.5125
1.6875 0.4375 2.5125
1.875 0.4375 2.575
1.875 0.5 2.5125
1.8125 0.5 2.575
1.875 0.4375 2.5125
1.8125 0.4375 2.575
1.8125 0.5 2.5125
1.8125 0.4375 2.5125
2 0.4375 2.575
2 0.5 2.5125
1.9375 0.5 2.575
2 0.4375 2.5125
1.9375 0.4375 2.575
1.9375 0.5 2.5125
1.9375 0.4375 2.5125
2.125 0.4375 2.575
2.125 0.5 2.5125
2.0625 0.5 2.575
2.125 0.4375 2.5125
2.0625 0.4375 2.575
2.0625 0.5 2.5125
2.0625 0.4375 2.5125
2.25 0.4375 2.575
2.25 0.5 2.5125
2.1875 0.5 2.575
2.25 0.4375 2.5125
2.1875 0.4375 2.575
2.1875 0.5 2.5125
2.1875 0.4375 2.5125
2.375 0.4375 2.575
2.375 0.5 2.5125
2.3125 0.5 2.575
2.375 0.4375 2.5125
2.3125 0.4375 2.575
2.3125 0.5 2.5125
2.3125 0.4375 2.5125
2.5 0.4375 2.575
2.5 0.5 2.5125
2.4375 0.5 2.575
2.5 0.4375 2.5125
2.4375 0.4375 2.575
2.4375 0.5 2.5125
2.4375 0.4375 2.5125
2.625 0.4375 2.575
2.625 0.5 2.5125
2.5625 0.5 2.575
2.625 0.4375 2.5125
2.5625 0.4375 2.575
2.5625 0.5 2.5125
2.5625 0.4375 2.5125
2.75 0.4375 2.575
2.75 0.5 2.5125
2.6875 0.5 2.575
2.75 0.4375 2.5125
2.6875 0.4375 2.575
2.6875 0.5 2.5125
2.6875 0.4375 2.5125
2.875 0.4375 2.575
2.875 0.5 2.5125
2.8125 0.5 2.575
2.875 0.4375 2.5125
2.8125 0.4375 2.575
2.8125 0.5 2.5125
2.8125 0.4375 2.5125
3 0.4375 2.575
3 0.5 2.5125
2.9375 0.5 2.575
3 0.4375 2.5125
2.9375 0.4375 2.575
2.9375 0.5 2.5125
2.9375 0.4375 2.5125
0.125 0.5625 2.575
0 0.5625 2.575
0.125 0.625 2.5125
0.0625 0.625 2.575
0 0.625 2.5125
0.125 0.5625 2.5125
0.0625 0.5625 2.575
0 0.5625 2.5125
0.0625 0.625 2.5125
0.0625 0.5625 2.5125
0.25 0.5625 2.575
0.25 0.625 2.5125
0.1875 0.625 2.575
0.25 0.5625 2.5125
0.1875 0.5625 2.575
0.1875 0.625 2.5125
0.1875 0.5625 2.5125
0.375 0.5625 2.575
0.375 0.625 2.5125
0.3125 0.625 2.575
0.375 0.5625 2.5125
0.3125 0.5625 2.575
0.3125 0.625 2.5125
0.3125 0.5625 2.5125
0.5 0.5625 2.575
0.5 0.625 2.5125
0.4375 0.625 2.575
0.5 0.5625 2.5125
0.4375 0.5625 2.575
0.4375 0.625 2.5125
0.4375 0.5625 2.5125
0.625 0.5625 2.575
0.625 0.625 2.5125
0.5625 0.625 2.575
0.625 0.5625 2.5125
0.5625 0.5625 2.575
0.5625 0.625 2.5125
0.5625 0.5625 2.5125
0.75 0.5625 2.575
0.75 0.625 2.5125
0.6875 0.625 2.575
0.75 0.5625 2.5125
0.6875 0.5625 2.575
0.6875 0.625 2.5125
0.6875 0.5625 2.5125
0.875 0.5625 2.575
0.875 0.625 2.5125
0.8125 0.625 2.575
0.875 0.5625 2.5125
0.8125 0.5625 2.575
0.8125 0.625 2.5125
0.8125 0.5625 2.5125
1 0.5625 2.575
1 0.625 2.5125
0.9375 0.625 2.575
1 0.5625 2.5125
0.9375 0.5625 2.575
0.9375 0.625 2.5125
0.9375 0.5625 2.5125
1.125 0.5625 2.575
1.125 0.625 2.5125
1.0625 0.625 2.575
1.125 0.5625 2.5125
1.0625 0.5625 2.575
1.0625 0.625 2.5125
1.0625 0.5625 2.5125
1.25 0.5625 2.575
1.25 0.625 2.5125
1.1875 0.625 2.575
1.25 0.5625 2.5125
1.1875 0.5625 2.575
1.1875 0.625 2.5125
1.1875 0.5625 2.5125
1.375 0.5625 2.575
1.375 0.625 2.5125
1.3125 0.625 2.575
1.375 0.5625 2.5125
1.3125 0.5625 2.575
1.3125 0.625 2.5125
1.3125 0.5625 2.5125
1.5 0.5625 2.575
1.5 0.625 2.5125
1.4375 0.625 2.575
1.5 0.5625 2.5125
1.4375 0.5625 2.575
1.4375 0.625 2.5125
1.4375 0.5625 2.5125
1.625 0.5625 2.575
1.625 0.625 2.5125
1.5625 0.625 2.575
1.625 0.5625 2.5125
1.5625 0.5625 2.575
1.5625 0.625 2.5125
1.5625 0.5625 2.5125
1.75 0.5625 2.575
1.75 0.625 2.5125
1.6875 0.625 2.575
1.75 0.5625 2.5125
1.6875 0.5625 2.575
1.6875 0.625 2.5125
1.6875 0.5625 2.5125
1.875 0.5625 2.575
1.875 0.625 2.5125
1.8125 0.625 2.575
1.875 0.5625 2.5125
1.8125 0.5625 2.575
1.8125 0.625 2.5125
1.8125 0.5625 2.5125
2 0.5625 2.575
2 0.625 2.5125
1.9375 0.625 2.575
2 0.5625 2.5125
1.9375 0.5625 2.575
1.9375 0.625 2.5125
1.9375 0.5625 2.5125
2.125 0.5625 2.575
2.125 0.625 2.5125
2.0625 0.625 2.575
2.125 0.5625 2.5125
2.0625 0.5625 2.575
2.0625 0.625 2.5125
2.0625 0.5625 2.5125
2.25 0.5625 2.575
2.25 0.625 2.5125
2.1875 0.625 2.575
2.25 0.5625 2.5125
2.1875 0.5625 2.575
2.1875 0.625 2.5125
2.1875 0.5625 2.5125
2.375 0.5625 2.575
2.375 0.625 2.5125
2.3125 0.625 2.575
2.375 0.5625 2.5125
2.3125 0.5625 2.575
2.3125 0.625 2.5125
2.3125 0.5625 2.5125
2.5 0.5625 2.575
2.5 0.625 2.5125
2.4375 0.625 2.575
2.5 0.5625 2.5125
2.4375 0.5625 2.575
2.4375 0.625 2.5125
2.4375 0.5625 2.5125
2.625 0.5625 2.575
2.625 0.625 2.5125
2.5625 0.625 2.575
2.625 0.5625 2.5125
2.5625 0.5625 2.575
2.5625 0.625 2.5125
2.5625 0.5625 2.5125
2.75 0.5625 2.575
2.75 0.625 2.5125
2.6875 0.625 2.575
2.75 0.5625 2.5125
2.6875 0.5625 2.575
2.6875 0.625 2.5125
2.6875 0.5625 2.5125
2.875 0.5625 2.575
2.875 0.625 2.5125
2.8125 0.625 2.575
2.875 0.5625 2.5125
2.8125 0.5625 2.575
2.8125 0.625 2.5125
2.8125 0.5625 2.5125
3 0.5625 2.575
3 0.625 2.5125
2.9375 0.625 2.575
3 0.5625 2.5125
2.9375 0.5625 2.575
2.9375 0.625 2.5125
2.9375 0.5625 2.5125
0.125 0.6875 2.575
0 0.6875 2.575
0.125 0.75 2.5125
0.0625 0.75 2.575
0 0.75 2.5125
0.125 0.6875 2.5125
0.0625 0.6875 2.575
0 0.6875 2.5125
0.0625 0.75 2.5125
0.0625 0.6875 2.5125
0.25 0.6875 2.575
0.25 0.75 2.5125
0.1875 0.75 2.575
0.25 0.6875 2.5125
0.1875 0.6875 2.575
0.1875 0.75 2.5125
0.1875 0.6875 2.5125
0.375 0.6875 2.575
0.375 0.75 2.5125
0.3125 0.75 2.575
0.375 0.6875 2.5125
0.3125 0.6875 2.575
0.3125 0.75 2.5125
0.3125 0.6875 2.5125
0.5 0.6875 2.575
0.5 0.75 2.5125
0.4375 0.75 2.575
0.5 0.6875 2.5125
0.4375 0.6875 2.575
0.4375 0.75 2.5125
0.4375 0.6875 2.5125
0.625 0.6875 2.575
0.625 0.75 2.5125
0.5625 0.75 2.575
0.625 0.6875 2.5125
0.5625 0.6875 2.575
0.5625 0.75 2.5125
0.5625 0.6875 2.5125
0.75 0.6875 2.575
0.75 0.75 2.5125
0.6875 0.75 2.575
0.75 0.6875 2.5125
0.6875 0.6875 2.575
0.6875 0.75 2.5125
0.6875 0.6875 2.5125
0.875 0.6875 2.575
0.875 0.75 2.5125
0.8125 0.75 2.575
0.875 0.6875 2.5125
0.8125 0.6875 2.575
0.8125 0.75 2.5125
0.8125 0.6875 2.5125
1 0.6875 2.575
1 0.75 2.5125
0.9375 0.75 2.575
1 0.6875 2.5125
0.9375 0.6875 2.575
0.9375 0.75 2.5125
0.9375 0.6875 2.5125
1.125 0.6875 2.575
1.125 0.75 2.5125
1.0625 0.75 2.575
1.125 0.6875 2.5125
1.0625 0.6875 2.575
1.0625 0.75 2.5125
1.0625 0.6875 2.5125
1.25 0.6875 2.575
1.25 0.75 2.5125
1.1875 0.75 2.575
1.25 0.6875 2.5125
1.1875 0.6875 2.575
1.1875 0.75 2.5125
1.1875 0.6875 2.5125
1.375 0.6875 2.575
1.375 0.75 2.5125
1.3125 0.75 2.575
1.375 0.6875 2.5125
1.3125 0.6875 2.575
1.3125 0.75 2.5125
1.3125 0.6875 2.5125
1.5 0.6875 2.575
1.5 0.75 2.5125
1.4375 0.75 2.575
1.5 0.6875 2.5125
1.4375 0.6875 2.575
1.4375 0.75 2.5125
1.4375 0.6875 2.5125
1.625 0.6875 2.575
1.625 0.75 2.5125
1.5625 0.75 2.575
1.625 0.6875 2.5125
1.5625 0.6875 2.575
1.5625 0.75 2.5125
1.5625 0.6875 2.5125
1.75 0.6875 2.575
1.75 0.75 2.5125
1.6875 0.75 2.575
1.75 0.6875 2.5125
1.6875 0.6875 2.575
1.6875 0.75 2.5125
1.6875 0.6875 2.5125
1.875 0.6875 2.575
1.875 0.75 2.5125
1.8125 0.75 2.575
1.875 0.6875 2.5125
1.8125 0.6875 2.575
1.8125 0.75 2.5125
1.8125 0.6875 2.5125
2 0.6875 2.575
2 0.75 2.5125
1.9375 0.75 2.575
2 0.6875 2.5125
1.9375 0.6875 2.575
1.9375 0.75 2.5125
1.9375 0.6875 2.5125
2.125 0.6875 2.575
2.125 0.75 2.5125
2.0625 0.75 2.575
2.125 0.6875 2.5125
2.0625 0.6875 2.575
2.0625 0.75 2.5125
2.0625 0.6875 2.5125
2.25 0.6875 2.575
2.25 0.75 2.5125
2.1875 0.75 2.575
2.25 0.6875 2.5125
2.1875 0.6875 2.575
2.1875 0.75 2.5125
2.1875 0.6875 2.5125
2.375 0.6875 2.575
2.375 0.75 2.5125
2.3125 0.75 2.575
2.375 0.6875 2.5125
2.3125 0.6875 2.575
2.3125 0.75 2.5125
2.3125 0.6875 2.5125
2.5 0.6875 2.575
2.5 0.75 2.5125
2.4375 0.75 2.575
2.5 0.6875 2.5125
2.4375 0.6875 2.575
2.4375 0.75 2.5125
2.4375 0.6875 2.5125
2.625 0.6875 2.575
2.625 0.75 2.5125
2.5625 0.75 2.575
2.625 0.6875 2.5125
2.5625 0.6875 2.575
2.5625 0.75 2.5125
2.5625 0.6875 2.5125
2.75 0.6875 2.575
2.75 0.75 2.5125
2.6875 0.75 2.575
2.75 0.6875 2.5125
2.6875 0.6875 2.575
2.6875 0.75 2.5125
2.6875 0.6875 2.5125
2.875 0.6875 2.575
2.875 0.75 2.5125
2.8125 0.75 2.575
2.875 0.6875 2.5125
2.8125 0.6875 2.575
2.8125 0.75 2.5125
2.8125 0.6875 2.5125
3 0.6875 2.575
3 0.75 2.5125
2.9375 0.75 2.575
3 0.6875 2.5125
2.9375 0.6875 2.575
2.9375 0.75 2.5125
2.9375 0.6875 2.5125
0.125 0.8125 2.575
0 0.8125 2.575
0.125 0.875 2.5125
0.0625 0.875 2.575
0 0.875 2.5125
0.125 0.8125 2.5125
0.0625 0.8125 2.575
0 0.8125 2.5125
0.0625 0.875 2.5125
0.0625 0.8125 2.5125
0.25 0.8125 2.575
0.25 0.875 2.5125
0.1875 0.875 2.575
0.25 0.8125 2.5125
0.1875 0.8125 2.575
0.1875 0.875 2.5125
0.1875 0.8125 2.5125
0.375 0.8125 2.575
0.375 0.875 2.5125
0.3125 0.875 2.575
0.375 0.8125 2.5125
0.3125 0.8125 2.575
0.3125 0.875 2.5125
0.3125 0.8125 2.5125
0.5 0.8125 2.575
0.5 0.875 2.5125
0.4375 0.875 2.575
0.5 0.8125 2.5125
0.4375 0.8125 2.575
0.4375 0.875 2.5125
0.4375 0.8125 2.5125
0.625 0.8125 2.575
0.625 0.875 2.5125
0.5625 0.875 2.575
0.625 0.8125 2.5125
0.5625 0.8125 2.575
0.5625 0.875 2.5125
0.5625 0.8125 2.5125
0.75 0.8125 2.575
0.75 0.875 2.5125
0.6875 0.875 2.575
0.75 0.8125 2.5125
0.6875 0.8125 2.575
0.6875 0.875 2.5125
0.6875 0.8125 2.5125
0.875 0.8125 2.575
0.875 0.875 2.5125
0.8125 0.875 2.575
0.875 0.8125 2.5125
0.8125 0.8125 2.575
0.8125 0.875 2.5125
0.8125 0.8125 2.5125
1 0.8125 2.575
1 0.875 2.5125
0.9375 0.875 2.575
1 0.8125 2.5125
0.9375 0.8125 2.575
0.9375 0.875 2.5125
0.9375 0.8125 2.5125
1.125 0.8125 2.575
1.125 0.875 2.5125
1.0625 0.875 2.575
1.125 0.8125 2.5125
1.0625 0.8125 2.575
1.0625 0.875 2.5125
1.0625 0.8125 2.5125
1.25 0.8125 2.575
1.25 0.875 2.5125
1.1875 0.875 2.575
1.25 0.8125 2.5125
1.1875 0.8125 2.575
1.1875 0.875 2.5125
1.1875 0.8125 2.5125
1.375 0.8125 2.575
1.375 0.875 2.5125
1.3125 0.875 2.575
1.375 0.8125 2.5125
1.3125 0.8125 2.575
1.3125 0.875 2.5125
1.3125 0.8125 2.5125
1.5 0.8125 2.575
1.5 0.875 2.5125
1.4375 0.875 2.575
1.5 0.8125 2.5125
1.4375 0.8125 2.575
1.4375 0.875 2.5125
1.4375 0.8125 2.5125
1.625 0.8125 2.575
1.625 0.875 2.5125
1.5625 0.875 2.575
1.625 0.8125 2.5125
1.5625 0.8125 2.575
1.5625 0.875 2.5125
1.5625 0.8125 2.5125
1.75 0.8125 2.575
1.75 0.875 2.5125
1.6875 0.875 2.575
1.75 0.8125 2.5125
1.6875 0.8125 2.575
1.6875 0.875 2.5125
1.6875 0.8125 2.5125
1.875 0.8125 2.575
1.875 0.875 2.5125
1.8125 0.875 2.575
1.875 0.8125 2.5125
1.8125 0.8125 2.575
1.8125 0.875 2.5125
1.8125 0.8125 2.5125
2 0.8125 2.575
2 0.875 2.5125
1.9375 0.875 2.575
2 0.8125 2.5125
1.9375 0.8125 2.575
1.9375 0.875 2.5125
1.9375 0.8125 2.5125
2.125 0.8125 2.575
2.125 0.875 2.5125
2.0625 0.875 2.575
2.125 0.8125 2.5125
2.0625 0.8125 2.575
2.0625 0.875 2.5125
2.0625 0.8125 2.5125
2.25 0.8125 2.575
2.25 0.875 2.5125
2.1875 0.875 2.575
2.25 0.8125 2.5125
2.1875 0.8125 2.575
2.1875 0.875 2.5125
2.1875 0.8125 2.5125
2.375 0.8125 2.575
2.375 0.875 2.5125
2.3125 0.875 2.575
2.375 0.8125 2.5125
2.3125 0.8125 2.575
2.3125 0.875 2.5125
2.3125 0.8125 2.5125
2.5 0.8125 2.575
2.5 0.875 2.5125
2.4375 0.875 2.575
2.5 0.8125 2.5125
2.4375 0.8125 2.575
2.4375 0.875 2.5125
2.4375 0.8125 2.5125
2.625 0.8125 2.575
2.625 0.875 2.5125
2.5625 0.875 2.575
2.625 0.8125 2.5125
2.5625 0.8125 2.575
2.5625 0.875 2.5125
2.5625 0.8125 2.5125
2.75 0.8125 2.575
2.75 0.875 2.5125
2.6875 0.875 2.575
2.75 0.8125 2.5125
2.6875 0.8125 2.575
2.6875 0.875 2.5125
2.6875 0.8125 2.5125
2.875 0.8125 2.575
2.875 0.875 2.5125
2.8125 0.875 2.575
2.875 0.8125 2.5125
2.8125 0.8125 2.575
2.8125 0.875 2.5125
2.8125 0.8125 2.5125
3 0.8125 2.575
3 0.875 2.5125
2.9375 0.875 2.575
3 0.8125 2.5125
2.9375 0.8125 2.575
2.9375 0.875 2.5125
2.9375 0.8125 2.5125
0.125 0.9375 2.575
0 0.9375 2.575
0.125 1 2.5125
0.0625 1 2.575
0 1 2.5125
0.125 0.9375 2.5125
0.0625 0.9375 2.575
0 0.9375 2.5125
0.0625 1 2.5125
0.0625 0.9375 2.5125
0.25 0.9375 2.575
0.25 1 2.5125
0.1875 1 2.575
0.25 0.9375 2.5125
0.1875 0.9375 2.575
0.1875 1 2.5125
0.1875 0.9375 2.5125
0.375 0.9375 2.575
0.375 1 2.5125
0.3125 1 2.575
0.375 0.9375 2.5125
0.3125 0.9375 2.575
0.3125 1 2.5125
0.3125 0.9375 2.5125
0.5 0.9375 2.575
0.5 1 2.5125
0.4375 1 2.575
0.5 0.9375 2.5125
0.4375 0.9375 2.575
0.4375 1 2.5125
0.4375 0.9375 2.5125
0.625 0.9375 2.575
0.625 1 2.5125
0.5625 1 2.575
0.625 0.9375 2.5125
0.5625 0.9375 2.575
0.5625 1 2.5125
0.5625 0.9375 2.5125
0.75 0.9375 2.575
0.75 1 2.5125
0.6875 1 2.575
0.75 0.9375 2.5125
0.6875 0.9375 2.575
0.6875 1 2.5125
0.6875 0.9375 2.5125
0.875 0.9375 2.575
0.875 1 2.5125
0.8125 1 2.575
0.875 0.9375 2.5125
0.8125 0.9375 2.575
0.8125 1 2.5125
0.8125 0.9375 2.5125
1 0.9375 2.575
1 1 2.5125
0.9375 1 2.575
1 0.9375 2.5125
0.9375 0.9375 2.575
0.9375 1 2.5125
0.9375 0.9375 2.5125
1.125 0.9375 2.575
1.125 1 2.5125
1.0625 1 2.575
1.125 0.9375 2.5125
1.0625 0.9375 2.575
1.0625 1 2.5125
1.0625 0.9375 2.5125
1.25 0.9375 2.575
1.25 1 2.5125
1.1875 1 2.575
1.25 0.9375 2.5125
1.1875 0.9375 2.575
1.1875 1 2.5125
1.1875 0.9375 2.5125
1.375 0.9375 2.575
1.375 1 2.5125
1.3125 1 2.575
1.375 0.9375 2.5125
1.3125 0.9375 2.575
1.3125 1 2.5125
1.3125 0.9375 2.5125
1.5 0.9375 2.575
1.5 1 2.5125
1.4375 1 2.575
1.5 0.9375 2.5125
1.4375 0.9375 2.575
1.4375 1 2.5125
1.4375 0.9375 2.5125
1.625 0.9375 2.575
1.625 1 2.5125
1.5625 1 2.575
1.625 0.9375 2.5125
1.5625 0.9375 2.575
1.5625 1 2.5125
1.5625 0.9375 2.5125
1.75 0.9375 2.575
1.75 1 2.5125
1.6875 1 2.575
1.75 0.9375 2.5125
1.6875 0.9375 2.575
1.6875 1 2.5125
1.6875 0.9375 2.5125
1.875 0.9375 2.575
1.875 1 2.5125
1.8125 1 2.575
1.875 0.9375 2.5125
1.8125 0.9375 2.575
1.8125 1 2.5125
1.8125 0.9375 2.5125
2 0.9375 2.575
2 1 2.5125
1.9375 1 2.575
2 0.9375 2.5125
1.9375 0.9375 2.575
1.9375 1 2.5125
1.9375 0.9375 2.5125
2.125 0.9375 2.575
2.125 1 2.5125
2.0625 1 2.575
2.125 0.9375 2.5125
2.0625 0.9375 2.575
2.0625 1 2.5125
2.0625 0.9375 2.5125
2.25 0.9375 2.575
2.25 1 2.5125
2.1875 1 2.575
2.25 0.9375 2.5125
2.1875 0.9375 2.575
2.1875 1 2.5125
2.1875 0.9375 2.5125
2.375 0.9375 2.575
2.375 1 2.5125
2.3125 1 2.575
2.375 0.9375 2.5125
2.3125 0.9375 2.575
2.3125 1 2.5125
2.3125 0.9375 2.5125
2.5 0.9375 2.575
2.5 1 2.5125
2.4375 1 2.575
2.5 0.9375 2.5125
2.4375 0.9375 2.575
2.4375 1 2.5125
2.4375 0.9375 2.5125
2.625 0.9375 2.575
2.625 1 2.5125
2.5625 1 2.575
2.625 0.9375 2.5125
2.5625 0.9375 2.575
2.5625 1 2.5125
2.5625 0.9375 2.5125
2.75 0.9375 2.575
2.75 1 2.5125
2.6875 1 2.575
2.75 0.9375 2.5125
2.6875 0.9375 2.575
2.6875 1 2.5125
2.6875 0.9375 2.5125
2.875 0.9375 2.575
2.875 1 2.5125
2.8125 1 2.575
2.875 0.9375 2.5125
2.8125 0.9375 2.575
2.8125 1 2.5125
2.8125 0.9375 2.5125
3 0.9375 2.575
3 1 2.5125
2.9375 1 2.575
3 0.9375 2.5125
2.9375 0.9375 2.575
2.9375 1 2.5125
2.9375 0.9375 2.5125
0.125 0 2.6375
0.0625 0 2.7
0 0 2.6375
0.125 0.0625 2.7
0 0.0625 2.7
0.125 0.125 2.6375
0.0625 0.125 2.7
0 0.125 2.6375
0.0625 0 2.6375
0.125 0.0625 2.6375
0.0625 0.0625 2.7
0 0.0625 2.6375
0.0625 0.125 2.6375
0.0625 0.0625 2.6375
0.25 0 2.6375
0.1875 0 2.7
0.25 0.0625 2.7
0.25 0.125 2.6375
0.1875 0.125 2.7
0.1875 0 2.6375
0.25 0.0625 2.6375
0.1875 0.0625 2.7
0.1875 0.125 2.6375
0.1875 0.0625 2.6375
0.375 0 2.6375
0.3125 0 2.7
0.375 0.0625 2.7
0.375 0.125 2.6375
0.3125 0.125 2.7
0.3125 0 2.6375
0.375 0.0625 2.6375
0.3125 0.0625 2.7
0.3125 0.125 2.6375
0.3125 0.0625 2.6375
0.5 0 2.6375
0.4375 0 2.7
0.5 0.0625 2.7
0.5 0.125 2.6375
0.4375 0.125 2.7
0.4375 0 2.6375
0.5 0.0625 2.6375
0.4375 0.0625 2.7
0.4375 0.125 2.6375
0.4375 0.0625 2.6375
0.625 0 2.6375
0.5625 0 2.7
0.625 0.0625 2.7
0.625 0.125 2.6375
0.5625 0.125 2.7
0.5625 0 2.6375
0.625 0.0625 2.6375
0.5625 0.0625 2.7
0.5625 0.125 2.6375
0.5625 0.0625 2.6375
0.75 0 2.6375
0.6875 0 2.7
0.75 0.0625 2.7
0.75 0.125 2.6375
0.6875 0.125 2.7
0.6875 0 2.6375
0.75 0.0625 2.6375
0.6875 0.0625 2.7
0.6875 0.125 2.6375
0.6875 0.0625 2.6375
0.875 0 2.6375
0.8125 0 2.7
0.875 0.0625 2.7
0.875 0.125 2.6375
0.8125 0.125 2.7
0.8125 0 2.6375
0.875 0.0625 2.6375
0.8125 0.0625 2.7
0.8125 0.125 2.6375
0.8125 0.0625 2.6375
1 0 2.6375
0.9375 0 2.7
1 0.0625 2.7
1 0.125 2.6375
0.9375 0.125 2.7
0.9375 0 2.6375
1 0.0625 2.6375
0.9375 0.0625 2.7
0.9375 0.125 2.6375
0.9375 0.0625 2.6375
1.125 0 2.6375
1.0625 0 2.7
1.125 0.0625 2.7
1.125 0.125 2.6375
1.0625 0.125 2.7
1.0625 0 2.6375
1.125 0.0625 2.6375
1.0625 0.0625 2.7
1.0625 0.125 2.6375
1.0625 0.0625 2.6375
1.25 0 2.6375
1.1875 0 2.7
1.25 0.0625 2.7
1.25 0.125 2.6375
1.1875 0.125 2.7
1.1875 0 2.6375
1.25 0.0625 2.6375
1.1875 0.0625 2.7
1.1875 0.125 2.6375
1.1875 0.0625 2.6375
1.375 0 2.6375
1.3125 0 2.7
1.375 0.0625 2.7
1.375 0.125 2.6375
1.3125 0.125 2.7
1.3125 0 2.6375
1.375 0.0625 2.6375
1.3125 0.0625 2.7
1.3125 0.125 2.6375
1.3125 0.0625 2.6375
1.5 0 2.6375
1.4375 0 2.7
1.5 0.0625 2.7
1.5 0.125 2.6375
1.4375 0.125 2.7
1.4375 0 2.6375
1.5 0.0625 2.6375
1.4375 0.0625 2.7
1.4375 0.125 2.6375
1.4375 0.0625 2.6375
1.625 0 2.6375
1.5625 0 2.7
1.625 0.0625 2.7
1.625 0.125 2.6375
1.5625 0.125 2.7
1.5625 0 2.6375
1.625 0.0625 2.6375
1.5625 0.0625 2.7
1.5625 0.125 2.6375
1.5625 0.0625 2.6375
1.75 0 2.6375
1.6875 0 2.7
1.75 0.0625 2.7
1.75 0.125 2.6375
1.6875 0.125 2.7
1.6875 0 2.6375
1.75 0.0625 2.6375
1.6875 0.0625 2.7
1.6875 0.125 2.6375
1.6875 0.0625 2.6375
1.875 0 2.6375
1.8125 0 2.7
1.875 0.0625 2.7
1.875 0.125 2.6375
1.8125 0.125 2.7
1.8125 0 2.6375
1.875 0.0625 2.6375
1.8125 0.0625 2.7
1.8125 0.125 2.6375
1.8125 0.0625 2.6375
2 0 2.6375
1.9375 0 2.7
2 0.0625 2.7
2 0.125 2.6375
1.9375 0.125 2.7
1.9375 0 2.6375
2 0.0625 2.6375
1.9375 0.0625 2.7
1.9375 0.125 2.6375
1.9375 0.0625 2.6375
2.125 0 2.6375
2.0625 0 2.7
2.125 0.0625 2.7
2.125 0.125 2.6375
2.0625 0.125 2.7
2.0625 0 2.6375
2.125 0.0625 2.6375
2.0625 0.0625 2.7
2.0625 0.125 2.6375
2.0625 0.0625 2.6375
2.25 0 2.6375
2.1875 0 2.7
2.25 0.0625 2.7
2.25 0.125 2.6375
2.1875 0.125 2.7
2.1875 0 2.6375
2.25 0.0625 2.6375
2.1875 0.0625 2.7
2.1875 0.125 2.6375
2.1875 0.0625 2.6375
2.375 0 2.6375
2.3125 0 2.7
2.375 0.0625 2.7
2.375 0.125 2.6375
2.3125 0.125 2.7
2.3125 0 2.6375
2.375 0.0625 2.6375
2.3125 0.0625 2.7
2.3125 0.125 2.6375
2.3125 0.0625 2.6375
2.5 0 2.6375
2.4375 0 2.7
2.5 0.0625 2.7
2.5 0.125 2.6375
2.4375 0.125 2.7
2.4375 0 2.6375
2.5 0.0625 2.6375
2.4375 0.0625 2.7
2.4375 0.125 2.6375
2.4375 0.0625 2.6375
2.625 0 2.6375
2.5625 0 2.7
2.625 0.0625 2.7
2.625 0.125 2.6375
2.5625 0.125 2.7
2.5625 0 2.6375
2.625 0.0625 2.6375
2.5625 0.0625 2.7
2.5625 0.125 2.6375
2.5625 0.0625 2.6375
2.75 0 2.6375
2.6875 0 2.7
2.75 0.0625 2.7
2.75 0.125 2.6375
2.6875 0.125 2.7
2.6875 0 2.6375
2.75 0.0625 2.6375
2.6875 0.0625 2.7
2.6875 0.125 2.6375
2.6875 0.0625 2.6375
2.875 0 2.6375
2.8125 0 2.7
2.875 0.0625 2.7
2.875 0.125 2.6375
2.8125 0.125 2.7
2.8125 0 2.6375
2.875 0.0625 2.6375
2.8125 0.0625 2.7
2.8125 0.125 2.6375
2.8125 0.0625 2.6375
3 0 2.6375
2.9375 0 2.7
3 0.0625 2.7
3 0.125 2.6375
2.9375 0.125 2.7
2.9375 0 2.6375
3 0.0625 2.6375
2.9375 0.0625 2.7
2.9375 0.125 2.6375
2.9375 0.0625 2.6375
0.125 0.1875 2.7
0 0.1875 2.7
0.125 0.25 2.6375
0.0625 0.25 2.7
0 0.25 2.6375
0.125 0.1875 2.6375
0.0625 0.1875 2.7
0 0.1875 2.6375
0.0625 0.25 2.6375
0.0625 0.1875 2.6375
0.25 0.1875 2.7
0.25 0.25 2.6375
0.1875 0.25 2.7
0.25 0.1875 2.6375
0.1875 0.1875 2.7
0.1875 0.25 2.6375
0.1875 0.1875 2.6375
0.375 0.1875 2.7
0.375 0.25 2.6375
0.3125 0.25 2.7
0.375 0.1875 2.6375
0.3125 0.1875 2.7
0.3125 0.25 2.6375
0.3125 0.1875 2.6375
0.5 0.1875 2.7
0.5 0.25 2.6375
0.4375 0.25 2.7
0.5 0.1875 2.6375
0.4375 0.1875 2.7
0.4375 0.25 2.6375
0.4375 0.1875 2.6375
0.625 0.1875 2.7
0.625 0.25 2.6375
0.5625 0.25 2.7
0.625 0.1875 2.6375
0.5625 0.1875 2.7
0.5625 0.25 2.6375
0.5625 0.1875 2.6375
0.75 0.1875 2.7
0.75 0.25 2.6375
0.6875 0.25 2.7
0.75 0.1875 2.6375
0.6875 0.1875 2.7
0.6875 0.25 2.6375
0.6875 0.1875 2.6375
0.875 0.1875 2.7
0.875 0.25 2.6375
0.8125 0.25 2.7
0.875 0.1875 2.6375
0.8125 0.1875 2.7
0.8125 0.25 2.6375
0.8125 0.1875 2.6375
1 0.1875 2.7
1 0.25 2.6375
0.9375 0.25 2.7
1 0.1875 2.6375
0.9375 0.1875 2.7
0.9375 0.25 2.6375
0.9375 0.1875 2.6375
1.125 0.1875 2.7
1.125 0.25 2.6375
1.0625 0.25 2.7
1.125 0.1875 2.6375
1.0625 0.1875 2.7
1.0625 0.25 2.6375
1.0625 0.1875 2.6375
1.25 0.1875 2.7
1.25 0.25 2.6375
1.1875 0.25 2.7
1.25 0.1875 2.6375
1.1875 0.1875 2.7
1.1875 0.25 2.6375
1.1875 0.1875 2.6375
1.375 0.1875 2.7
1.375 0.25 2.6375
1.3125 0.25 2.7
1.375 0.1875 2.6375
1.3125 0.1875 2.7
1.3125 0.25 2.6375
1.3125 0.1875 2.6375
1.5 0.1875 2.7
1.5 0.25 2.6375
1.4375 0.25 2.7
1.5 0.1875 2.6375
1.4375 0.1875 2.7
1.4375 0.25 2.6375
1.4375 0.1875 2.6375
1.625 0.1875 2.7
1.625 0.25 2.6375
1.5625 0.25 2.7
1.625 0.1875 2.6375
1.5625 0.1875 2.7
1.5625 0.25 2.6375
1.5625 0.1875 2.6375
1.75 0.1875 2.7
1.75 0.25 2.6375
1.6875 0.25 2.7
1.75 0.1875 2.6375
1.6875 0.1875 2.7
1.6875 0.25 2.6375
1.6875 0.1875 2.6375
1.875 0.1875 2.7
1.875 0.25 2.6375
1.8125 0.25 2.7
1.875 0.1875 2.6375
1.8125 0.1875 2.7
1.8125 0.25 2.6375
1.8125 0.1875 2.6375
2 0.1875 2.7
2 0.25 2.6375
1.9375 0.25 2.7
2 0.1875 2.6375
1.9375 0.1875 2.7
1.9375 0.25 2.6375
1.9375 0.1875 2.6375
2.125 0.1875 2.7
2.125 0.25 2.6375
2.0625 0.25 2.7
2.125 0.1875 2.6375
2.0625 0.1875 2.7
2.0625 0.25 2.6375
2.0625 0.1875 2.6375
2.25 0.1875 2.7
2.25 0.25 2.6375
2.1875 0.25 2.7
2.25 0.1875 2.6375
2.1875 0.1875 2.7
2.1875 0.25 2.6375
2.1875 0.1875 2.6375
2.375 0.1875 2.7
2.375 0.25 2.6375
2.3125 0.25 2.7
2.375 0.1875 2.6375
2.3125 0.1875 2.7
2.3125 0.25 2.6375
2.3125 0.1875 2.6375
2.5 0.1875 2.7
2.5 0.25 2.6375
2.4375 0.25 2.7
2.5 0.1875 2.6375
2.4375 0.1875 2.7
2.4375 0.25 2.6375
2.4375 0.1875 2.6375
2.625 0.1875 2.7
2.625 0.25 2.6375
2.5625 0.25 2.7
2.625 0.1875 2.6375
2.5625 0.1875 2.7
2.5625 0.25 2.6375
2.5625 0.1875 2.6375
2.75 0.1875 2.7
2.75 0.25 2.6375
2.6875 0.25 2.7
2.75 0.1875 2.6375
2.6875 0.1875 2.7
2.6875 0.25 2.6375
2.6875 0.1875 2.6375
2.875 0.1875 2.7
2.875 0.25 2.6375
2.8125 0.25 2.7
2.875 0.1875 2.6375
2.8125 0.1875 2.7
2.8125 0.25 2.6375
2.8125 0.1875 2.6375
3 0.1875 2.7
3 0.25 2.6375
2.9375 0.25 2.7
3 0.1875 2.6375
2.9375 0.1875 2.7
2.9375 0.25 2.6375
2.9375 0.1875 2.6375
0.125 0.3125 2.7
0 0.3125 2.7
0.125 0.375 2.6375
0.0625 0.375 2.7
0 0.375 2.6375
0.125 0.3125 2.6375
0.0625 0.3125 2.7
0 0.3125 2.6375
0.0625 0.375 2.6375
0.0625 0.3125 2.6375
0.25 0.3125 2.7
0.25 0.375 2.6375
0.1875 0.375 2.7
0.25 0.3125 2.6375
0.1875 0.3125 2.7
0.1875 0.375 2.6375
0.1875 0.3125 2.6375
0.375 0.3125 2.7
0.375 0.375 2.6375
0.3125 0.375 2.7
0.375 0.3125 2.6375
0.3125 0.3125 2.7
0.3125 0.375 2.6375
0.3125 0.3125 2.6375
0.5 0.3125 2.7
0.5 0.375 2.6375
0.4375 0.375 2.7
0.5 0.3125 2.6375
0.4375 0.3125 2.7
0.4375 0.375 2.6375
0.4375 0.3125 2.6375
0.625 0.3125 2.7
0.625 0.375 2.6375
0.5625 0.375 2.7
0.625 0.3125 2.6375
0.5625 0.3125 2.7
0.5625 0.375 2.6375
0.5625 0.3125 2.6375
0.75 0.3125 2.7
0.75 0.375 2.6375
0.6875 0.375 2.7
0.75 0.3125 2.6375
0.6875 0.3125 2.7
0.6875 0.375 2.6375
0.6875 0.3125 2.6375
0.875 0.3125 2.7
0.875 0.375 2.6375
0.8125 0.375 2.7
0.875 0.3125 2.6375
0.8125 0.3125 2.7
0.8125 0.375 2.6375
0.8125 0.3125 2.6375
1 0.3125 2.7
1 0.375 2.6375
0.9375 0.375 2.7
1 0.3125 2.6375
0.9375 0.3125 2.7
0.9375 0.375 2.6375
0.9375 0.3125 2.6375
1.125 0.3125 2.7
1.125 0.375 2.6375
1.0625 0.375 2.7
1.125 0.3125 2.6375
1.0625 0.3125 2.7
1.0625 0.375 2.6375
1.0625 0.3125 2.6375
1.25 0.3125 2.7
1.25 0.375 2.6375
1.1875 0.375 2.7
1.25 0.3125 2.6375
1.1875 0.3125 2.7
1.1875 0.375 2.6375
1.1875 0.3125 2.6375
1.375 0.3125 2.7
1.375 0.375 2.6375
1.3125 0.375 2.7
1.375 0.3125 2.6375
1.3125 0.3125 2.7
1.3125 0.375 2.6375
1.3125 0.3125 2.6375
1.5 0.3125 2.7
1.5 0.375 2.6375
1.4375 0.375 2.7
1.5 0.3125 2.6375
1.4375 0.3125 2.7
1.4375 0.375 2.6375
1.4375 0.3125 2.6375
1.625 0.3125 2.7
1.625 0.375 2.6375
1.5625 0.375 2.7
1.625 0.3125 2.6375
1.5625 0.3125 2.7
1.5625 0.375 2.6375
1.5625 0.3125 2.6375
1.75 0.3125 2.7
1.75 0.375 2.6375
1.6875 0.375 2.7
1.75 0.3125 2.6375
1.6875 0.3125 2.7
1.6875 0.375 2.6375
1.6875 0.3125 2.6375
1.875 0.3125 2.7
1.875 0.375 2.6375
1.8125 0.375 2.7
1.875 0.3125 2.6375
1.8125 0.3125 2.7
1.8125 0.375 2.6375
1.8125 0.3125 2.6375
2 0.3125 2.7
2 0.375 2.6375
1.9375 0.375 2.7
2 0.3125 2.6375
1.9375 0.3125 2.7
1.9375 0.375 2.6375
1.9375 0.3125 2.6375
2.125 0.3125 2.7
2.125 0.375 2.6375
2.0625 0.375 2.7
2.125 0.3125 2.6375
2.0625 0.3125 2.7
2.0625 0.375 2.6375
2.0625 0.3125 2.6375
2.25 0.3125 2.7
2.25 0.375 2.6375
2.1875 0.375 2.7
2.25 0.3125 2.6375
2.1875 0.3125 2.7
2.1875 0.375 2.6375
2.1875 0.3125 2.6375
2.375 0.3125 2.7
2.375 0.375 2.6375
2.3125 0.375 2.7
2.375 0.3125 2.6375
2.3125 0.3125 2.7
2.3125 0.375 2.6375
2.3125 0.3125 2.6375
2.5 0.3125 2.7
2.5 0.375 2.6375
2.4375 0.375 2.7
2.5 0.3125 2.6375
2.4375 0.3125 2.7
2.4375 0.375 2.6375
2.4375 0.3125 2.6375
2.625 0.3125 2.7
2.625 0.375 2.6375
2.5625 0.375 2.7
2.625 0.3125 2.6375
2.5625 0.3125 2.7
2.5625 0.375 2.6375
2.5625 0.3125 2.6375
2.75 0.3125 2.7
2.75 0.375 2.6375
2.6875 0.375 2.7
2.75 0.3125 2.6375
2.6875 0.3125 2.7
2.6875 0.375 2.6375
2.6875 0.3125 2.6375
2.875 0.3125 2.7
2.875 0.375 2.6375
2.8125 0.375 2.7
2.875 0.3125 2.6375
2.8125 0.3125 2.7
2.8125 0.375 2.6375
2.8125 0.3125 2.6375
3 0.3125 2.7
3 0.375 2.6375
2.9375 0.375 2.7
3 0.3125 2.6375
2.9375 0.3125 2.7
2.9375 0.375 2.6375
2.9375 0.3125 2.6375
0.125 0.4375 2.7
0 0.4375 2.7
0.125 0.5 2.6375
0.0625 0.5 2.7
0 0.5 2.6375
0.125 0.4375 2.6375
0.0625 0.4375 2.7
0 0.4375 2.6375
0.0625 0.5 2.6375
0.0625 0.4375 2.6375
0.25 0.4375 2.7
0.25 0.5 2.6375
0.1875 0.5 2.7
0.25 0.4375 2.6375
0.1875 0.4375 2.7
0.1875 0.5 2.6375
0.1875 0.4375 2.6375
0.375 0.4375 2.7
0.375 0.5 2.6375
0.3125 0.5 2.7
0.375 0.4375 2.6375
0.3125 0.4375 2.7
0.3125 0.5 2.6375
0.3125 0.4375 2.6375
0.5 0.4375 2.7
0.5 0.5 2.6375
0.4375 0.5 2.7
0.5 0.4375 2.6375
0.4375 0.4375 2.7
0.4375 0.5 2.6375
0.4375 0.4375 2.6375
0.625 0.4375 2.7
0.625 0.5 2.6375
0.5625 0.5 2.7
0.625 0.4375 2.6375
0.5625 0.4375 2.7
0.5625 0.5 2.6375
0.5625 0.4375 2.6375
0.75 0.4375 2.7
0.75 0.5 2.6375
0.6875 0.5 2.7
0.75 0.4375 2.6375
0.6875 0.4375 2.7
0.6875 0.5 2.6375
0.6875 0.4375 2.6375
0.875 0.4375 2.7
0.875 0.5 2.6375
0.8125 0.5 2.7
0.875 0.4375 2.6375
0.8125 0.4375 2.7
0.8125 0.5 2.6375
0.8125 0.4375 2.6375
1 0.4375 2.7
1 0.5 2.6375
0.9375 0.5 2.7
1 0.4375 2.6375
0.9375 0.4375 2.7
0.9375 0.5 2.6375
0.9375 0.4375 2.6375
1.125 0.4375 2.7
1.125 0.5 2.6375
1.0625 0.5 2.7
1.125 0.4375 2.6375
1.0625 0.4375 2.7
1.0625 0.5 2.6375
1.0625 0.4375 2.6375
1.25 0.4375 2.7
1.25 0.5 2.6375
1.1875 0.5 2.7
1.25 0.4375 2.6375
1.1875 0.4375 2.7
1.1875 0.5 2.6375
1.1875 0.4375 2.6375
1.375 0.4375 2.7
1.375 0.5 2.6375
1.3125 0.5 2.7
1.375 0.4375 2.6375
1.3125 0.4375 2.7
1.3125 0.5 2.6375
1.3125 0.4375 2.6375
1.5 0.4375 2.7
1.5 0.5 2.6375
1.4375 0.5 2.7
1.5 0.4375 2.6375
1.4375 0.4375 2.7
1.4375 0.5 2.6375
1.4375 0.4375 2.6375
1.625 0.4375 2.7
1.625 0.5 2.6375
1.5625 0.5 2.7
1.625 0.4375 2.6375
1.5625 0.4375 2.7
1.5625 0.5 2.6375
1.5625 0.4375 2.6375
1.75 0.4375 2.7
1.75 0.5 2.6375
1.6875 0.5 2.7
1.75 0.4375 2.6375
1.6875 0.4375 2.7
1.6875 0.5 2.6375
1.6875 0.4375 2.6375
1.875 0.4375 2.7
1.875 0.5 2.6375
1.8125 0.5 2.7
1.875 0.4375 2.6375
1.8125 0.4375 2.7
1.8125 0.5 2.6375
1.8125 0.4375 2.6375
2 0.4375 2.7
2 0.5 2.6375
1.9375 0.5 2.7
2 0.4375 2.6375
1.9375 0.4375 2.7
1.9375 0.5 2.6375
1.9375 0.4375 2.6375
2.125 0.4375 2.7
2.125 0.5 2.6375
2.0625 0.5 2.7
2.125 0.4375 2.6375
2.0625 0.4375 2.7
2.0625 0.5 2.6375
2.0625 0.4375 2.6375
2.25 0.4375 2.7
2.25 0.5 2.6375
2.1875 0.5 2.7
2.25 0.4375 2.6375
2.1875 0.4375 2.7
2.1875 0.5 2.6375
2.1875 0.4375 2.6375
2.375 0.4375 2.7
2.375 0.5 2.6375
2.3125 0.5 2.7
2.375 0.4375 2.6375
2.3125 0.4375 2.7
2.3125 0.5 2.6375
2.3125 0.4375 2.6375
2.5 0.4375 2.7
2.5 0.5 2.6375
2.4375 0.5 2.7
2.5 0.4375 2.6375
2.4375 0.4375 2.7
2.4375 0.5 2.6375
2.4375 0.4375 2.6375
2.625 0.4375 2.7
2.625 0.5 2.6375
2.5625 0.5 2.7
2.625 0.4375 2.6375
2.5625 0.4375 2.7
2.5625 0.5 2.6375
2.5625 0.4375 2.6375
2.75 0.4375 2.7
2.75 0.5 2.6375
2.6875 0.5 2.7
2.75 0.4375 2.6375
2.6875 0.4375 2.7
2.6875 0.5 2.6375
2.6875 0.4375 2.6375
2.875 0.4375 2.7
2.875 0.5 2.6375
2.8125 0.5 2.7
2.875 0.4375 2.6375
2.8125 0.4375 2.7
2.8125 0.5 2.6375
2.8125 0.4375 2.6375
3 0.4375 2.7
3 0.5 2.6375
2.9375 0.5 2.7
3 0.4375 2.6375
2.9375 0.4375 2.7
2.9375 0.5 2.6375
2.9375 0.4375 2.6375
0.125 0.5625 2.7
0 0.5625 2.7
0.125 0.625 2.6375
0.0625 0.625 2.7
0 0.625 2.6375
0.125 0.5625 2.6375
0.0625 0.5625 2.7
0 0.5625 2.6375
0.0625 0.625 2.6375
0.0625 0.5625 2.6375
0.25 0.5625 2.7
0.25 0.625 2.6375
0.1875 0.625 2.7
0.25 0.5625 2.6375
0.1875 0.5625 2.7
0.1875 0.625 2.6375
0.1875 0.5625 2.6375
0.375 0.5625 2.7
0.375 0.625 2.6375
0.3125 0.625 2.7
0.375 0.5625 2.6375
0.3125 0.5625 2.7
0.3125 0.625 2.6375
0.3125 0.5625 2.6375
0.5 0.5625 2.7
0.5 0.625 2.6375
0.4375 0.625 2.7
0.5 0.5625 2.6375
0.4375 0.5625 2.7
0.4375 0.625 2.6375
0.4375 0.5625 2.6375
0.625 0.5625 2.7
0.625 0.625 2.6375
0.5625 0.625 2.7
0.625 0.5625 2.6375
0.5625 0.5625 2.7
0.5625 0.625 2.6375
0.5625 0.5625 2.6375
0.75 0.5625 2.7
0.75 0.625 2.6375
0.6875 0.625 2.7
0.75 0.5625 2.6375
0.6875 0.5625 2.7
0.6875 0.625 2.6375
0.6875 0.5625 2.6375
0.875 0.5625 2.7
0.875 0.625 2.6375
0.8125 0.625 2.7
0.875 0.5625 2.6375
0.8125 0.5625 2.7
0.8125 0.625 2.6375
0.8125 0.5625 2.6375
1 0.5625 2.7
1 0.625 2.6375
0.9375 0.625 2.7
1 0.5625 2.6375
0.9375 0.5625 2.7
0.9375 0.625 2.6375
0.9375 0.5625 2.6375
1.125 0.5625 2.7
1.125 0.625 2.6375
1.0625 0.625 2.7
1.125 0.5625 2.6375
1.0625 0.5625 2.7
1.0625 0.625 2.6375
1.0625 0.5625 2.6375
1.25 0.5625 2.7
1.25 0.625 2.6375
1.1875 0.625 2.7
1.25 0.5625 2.6375
1.1875 0.5625 2.7
1.1875 0.625 2.6375
1.1875 0.5625 2.6375
1.375 0.5625 2.7
1.375 0.625 2.6375
1.3125 0.625 2.7
1.375 0.5625 2.6375
1.3125 0.5625 2.7
1.3125 0.625 2.6375
1.3125 0.5625 2.6375
1.5 0.5625 2.7
1.5 0.625 2.6375
1.4375 0.625 2.7
1.5 0.5625 2.6375
1.4375 0.5625 2.7
1.4375 0.625 2.6375
1.4375 0.5625 2.6375
1.625 0.5625 2.7
1.625 0.625 2.6375
1.5625 0.625 2.7
1.625 0.5625 2.6375
1.5625 0.5625 2.7
1.5625 0.625 2.6375
1.5625 0.5625 2.6375
1.75 0.5625 2.7
1.75 0.625 2.6375
1.6875 0.625 2.7
1.75 0.5625 2.6375
1.6875 0.5625 2.7
1.6875 0.625 2.6375
1.6875 0.5625 2.6375
1.875 0.5625 2.7
1.875 0.625 2.6375
1.8125 0.625 2.7
1.875 0.5625 2.6375
1.8125 0.5625 2.7
1.8125 0.625 2.6375
1.8125 0.5625 2.6375
2 0.5625 2.7
2 0.625 2.6375
1.9375 0.625 2.7
2 0.5625 2.6375
1.9375 0.5625 2.7
1.9375 0.625 2.6375
1.9375 0.5625 2.6375
2.125 0.5625 2.7
2.125 0.625 2.6375
2.0625 0.625 2.7
2.125 0.5625 2.6375
2.0625 0.5625 2.7
2.0625 0.625 2.6375
2.0625 0.5625 2.6375
2.25 0.5625 2.7
2.25 0.625 2.6375
2.1875 0.625 2.7
2.25 0.5625 2.6375
2.1875 0.5625 2.7
2.1875 0.625 2.6375
2.1875 0.5625 2.6375
2.375 0.5625 2.7
2.375 0.625 2.6375
2.3125 0.625 2.7
2.375 0.5625 2.6375
2.3125 0.5625 2.7
2.3125 0.625 2.6375
2.3125 0.5625 2.6375
2.5 0.5625 2.7
2.5 0.625 2.6375
2.4375 0.625 2.7
2.5 0.5625 2.6375
2.4375 0.5625 2.7
2.4375 0.625 2.6375
2.4375 0.5625 2.6375
2.625 0.5625 2.7
2.625 0.625 2.6375
2.5625 0.625 2.7
2.625 0.5625 2.6375
2.5625 0.5625 2.7
2.5625 0.625 2.6375
2.5625 0.5625 2.6375
2.75 0.5625 2.7
2.75 0.625 2.6375
2.6875 0.625 2.7
2.75 0.5625 2.6375
2.6875 0.5625 2.7
2.6875 0.625 2.6375
2.6875 0.5625 2.6375
2.875 0.5625 2.7
2.875 0.625 2.6375
2.8125 0.625 2.7
2.875 0.5625 2.6375
2.8125 0.5625 2.7
2.8125 0.625 2.6375
2.8125 0.5625 2.6375
3 0.5625 2.7
3 0.625 2.6375
2.9375 0.625 2.7
3 0.5625 2.6375
2.9375 0.5625 2.7
2.9375 0.625 2.6375
2.9375 0.5625 2.6375
0.125 0.6875 2.7
0 0.6875 2.7
0.125 0.75 2.6375
0.0625 0.75 2.7
0 0.75 2.6375
0.125 0.6875 2.6375
0.0625 0.6875 2.7
0 0.6875 2.6375
0.0625 0.75 2.6375
0.0625 0.6875 2.6375
0.25 0.6875 2.7
0.25 0.75 2.6375
0.1875 0.75 2.7
0.25 0.6875 2.6375
0.1875 0.6875 2.7
0.1875 0.75 2.6375
0.1875 0.6875 2.6375
0.375 0.6875 2.7
0.375 0.75 2.6375
0.3125 0.75 2.7
0.375 0.6875 2.6375
0.3125 0.6875 2.7
0.3125 0.75 2.6375
0.3125 0.6875 2.6375
0.5 0.6875 2.7
0.5 0.75 2.6375
0.4375 0.75 2.7
0.5 0.6875 2.6375
0.4375 0.6875 2.7
0.4375 0.75 2.6375
0.4375 0.6875 2.6375
0.625 0.6875 2.7
0.625 0.75 2.6375
0.5625 0.75 2.7
0.625 0.6875 2.6375
0.5625 0.6875 2.7
0.5625 0.75 2.6375
0.5625 0.6875 2.6375
0.75 0.6875 2.7
0.75 0.75 2.6375
0.6875 0.75 2.7
0.75 0.6875 2.6375
0.6875 0.6875 2.7
0.6875 0.75 2.6375
0.6875 0.6875 2.6375
0.875 0.6875 2.7
0.875 0.75 2.6375
0.8125 0.75 2.7
0.875 0.6875 2.6375
0.8125 0.6875 2.7
0.8125 0.75 2.6375
0.8125 0.6875 2.6375
1 0.6875 2.7
1 0.75 2.6375
0.9375 0.75 2.7
1 0.6875 2.6375
0.9375 0.6875 2.7
0.9375 0.75 2.6375
0.9375 0.6875 2.6375
1.125 0.6875 2.7
1.125 0.75 2.6375
1.0625 0.75 2.7
1.125 0.6875 2.6375
1.0625 0.6875 2.7
1.0625 0.75 2.6375
1.0625 0.6875 2.6375
1.25 0.6875 2.7
1.25 0.75 2.6375
1.1875 0.75 2.7
1.25 0.6875 2.6375
1.1875 0.6875 2.7
1.1875 0.75 2.6375
1.1875 0.6875 2.6375
1.375 0.6875 2.7
1.375 0.75 2.6375
1.3125 0.75 2.7
1.375 0.6875 2.6375
1.3125 0.6875 2.7
1.3125 0.75 2.6375
1.3125 0.6875 2.6375
1.5 0.6875 2.7
1.5 0.75 2.6375
1.4375 0.75 2.7
1.5 0.6875 2.6375
1.4375 0.6875 2.7
1.4375 0.75 2.6375
1.4375 0.6875 2.6375
1.625 0.6875 2.7
1.625 0.75 2.6375
1.5625 0.75 2.7
1.625 0.6875 2.6375
1.5625 0.6875 2.7
1.5625 0.75 2.6375
1.5625 0.6875 2.6375
1.75 0.6875 2.7
1.75 0.75 2.6375
1.6875 0.75 2.7
1.75 0.6875 2.6375
1.6875 0.6875 2.7
1.6875 0.75 2.6375
1.6875 0.6875 2.6375
1.875 0.6875 2.7
1.875 0.75 2.6375
1.8125 0.75 2.7
1.875 0.6875 2.6375
1.8125 0.6875 2.7
1.8125 0.75 2.6375
1.8125 0.6875 2.6375
2 0.6875 2.7
2 0.75 2.6375
1.9375 0.75 2.7
2 0.6875 2.6375
1.9375 0.6875 2.7
1.9375 0.75 2.6375
1.9375 0.6875 2.6375
2.125 0.6875 2.7
2.125 0.75 2.6375
2.0625 0.75 2.7
2.125 0.6875 2.6375
2.0625 0.6875 2.7
2.0625 0.75 2.6375
2.0625 0.6875 2.6375
2.25 0.6875 2.7
2.25 0.75 2.6375
2.1875 0.75 2.7
2.25 0.6875 2.6375
2.1875 0.6875 2.7
2.1875 0.75 2.6375
2.1875 0.6875 2.6375
2.375 0.6875 2.7
2.375 0.75 2.6375
2.3125 0.75 2.7
2.375 0.6875 2.6375
2.3125 0.6875 2.7
2.3125 0.75 2.6375
2.3125 0.6875 2.6375
2.5 0.6875 2.7
2.5 0.75 2.6375
2.4375 0.75 2.7
2.5 0.6875 2.6375
2.4375 0.6875 2.7
2.4375 0.75 2.6375
2.4375 0.6875 2.6375
2.625 0.6875 2.7
2.625 0.75 2.6375
2.5625 0.75 2.7
2.625 0.6875 2.6375
2.5625 0.6875 2.7
2.5625 0.75 2.6375
2.5625 0.6875 2.6375
2.75 0.6875 2.7
2.75 0.75 2.6375
2.6875 0.75 2.7
2.75 0.6875 2.6375
2.6875 0.6875 2.7
2.6875 0.75 2.6375
2.6875 0.6875 2.6375
2.875 0.6875 2.7
2.875 0.75 2.6375
2.8125 0.75 2.7
2.875 0.6875 2.6375
2.8125 0.6875 2.7
2.8125 0.75 2.6375
2.8125 0.6875 2.6375
3 0.6875 2.7
3 0.75 2.6375
2.9375 0.75 2.7
3 0.6875 2.6375
2.9375 0.6875 2.7
2.9375 0.75 2.6375
2.9375 0.6875 2.6375
0.125 0.8125 2.7
0 0.8125 2.7
0.125 0.875 2.6375
0.0625 0.875 2.7
0 0.875 2.6375
0.125 0.8125 2.6375
0.0625 0.8125 2.7
0 0.8125 2.6375
0.0625 0.875 2.6375
0.0625 0.8125 2.6375
0.25 0.8125 2.7
0.25 0.875 2.6375
0.1875 0.875 2.7
0.25 0.8125 2.6375
0.1875 0.8125 2.7
0.1875 0.875 2.6375
0.1875 0.8125 2.6375
0.375 0.8125 2.7
0.375 0.875 2.6375
0.3125 0.875 2.7
0.375 0.8125 2.6375
0.3125 0.8125 2.7
0.3125 0.875 2.6375
0.3125 0.8125 2.6375
0.5 0.8125 2.7
0.5 0.875 2.6375
0.4375 0.875 2.7
0.5 0.8125 2.6375
0.4375 0.8125 2.7
0.4375 0.875 2.6375
0.4375 0.8125 2.6375
0.625 0.8125 2.7
0.625 0.875 2.6375
0.5625 0.875 2.7
0.625 0.8125 2.6375
0.5625 0.8125 2.7
0.5625 0.875 2.6375
0.5625 0.8125 2.6375
0.75 0.8125 2.7
0.75 0.875 2.6375
0.6875 0.875 2.7
0.75 0.8125 2.6375
0.6875 0.8125 2.7
0.6875 0.875 2.6375
0.6875 0.8125 2.6375
0.875 0.8125 2.7
0.875 0.875 2.6375
0.8125 0.875 2.7
0.875 0.8125 2.6375
0.8125 0.8125 2.7
0.8125 0.875 2.6375
0.8125 0.8125 2.6375
1 0.8125 2.7
1 0.875 2.6375
0.9375 0.875 2.7
1 0.8125 2.6375
0.9375 0.8125 2.7
0.9375 0.875 2.6375
0.9375 0.8125 2.6375
1.125 0.8125 2.7
1.125 0.875 2.6375
1.0625 0.875 2.7
1.125 0.8125 2.6375
1.0625 0.8125 2.7
1.0625 0.875 2.6375
1.0625 0.8125 2.6375
1.25 0.8125 2.7
1.25 0.875 2.6375
1.1875 0.875 2.7
1.25 0.8125 2.6375
1.1875 0.8125 2.7
1.1875 0.875 2.6375
1.1875 0.8125 2.6375
1.375 0.8125 2.7
1.375 0.875 2.6375
1.3125 0.875 2.7
1.375 0.8125 2.6375
1.3125 0.8125 2.7
1.3125 0.875 2.6375
1.3125 0.8125 2.6375
1.5 0.8125 2.7
1.5 0.875 2.6375
1.4375 0.875 2.7
1.5 0.8125 2.6375
1.4375 0.8125 2.7
1.4375 0.875 2.6375
1.4375 0.8125 2.6375
1.625 0.8125 2.7
1.625 0.875 2.6375
1.5625 0.875 2.7
1.625 0.8125 2.6375
1.5625 0.8125 2.7
1.5625 0.875 2.6375
1.5625 0.8125 2.6375
1.75 0.8125 2.7
1.75 0.875 2.6375
1.6875 0.875 2.7
1.75 0.8125 2.6375
1.6875 0.8125 2.7
1.6875 0.875 2.6375
1.6875 0.8125 2.6375
1.875 0.8125 2.7
1.875 0.875 2.6375
1.8125 0.875 2.7
1.875 0.8125 2.6375
1.8125 0.8125 2.7
1.8125 0.875 2.6375
1.8125 0.8125 2.6375
2 0.8125 2.7
2 0.875 2.6375
1.9375 0.875 2.7
2 0.8125 2.6375
1.9375 0.8125 2.7
1.9375 0.875 2.6375
1.9375 0.8125 2.6375
2.125 0.8125 2.7
2.125 0.875 2.6375
2.0625 0.875 2.7
2.125 0.8125 2.6375
2.0625 0.8125 2.7
2.0625 0.875 2.6375
2.0625 0.8125 2.6375
2.25 0.8125 2.7
2.25 0.875 2.6375
2.1875 0.875 2.7
2.25 0.8125 2.6375
2.1875 0.8125 2.7
2.1875 0.875 2.6375
2.1875 0.8125 2.6375
2.375 0.8125 2.7
2.375 0.875 2.6375
2.3125 0.875 2.7
2.375 0.8125 2.6375
2.3125 0.8125 2.7
2.3125 0.875 2.6375
2.3125 0.8125 2.6375
2.5 0.8125 2.7
2.5 0.875 2.6375
2.4375 0.875 2.7
2.5 0.8125 2.6375
2.4375 0.8125 2.7
2.4375 0.875 2.6375
2.4375 0.8125 2.6375
2.625 0.8125 2.7
2.625 0.875 2.6375
2.5625 0.875 2.7
2.625 0.8125 2.6375
2.5625 0.8125 2.7
2.5625 0.875 2.6375
2.5625 0.8125 2.6375
2.75 0.8125 2.7
2.75 0.875 2.6375
2.6875 0.875 2.7
2.75 0.8125 2.6375
2.6875 0.8125 2.7
2.6875 0.875 2.6375
2.6875 0.8125 2.6375
2.875 0.8125 2.7
2.875 0.875 2.6375
2.8125 0.875 2.7
2.875 0.8125 2.6375
2.8125 0.8125 2.7
2.8125 0.875 2.6375
2.8125 0.8125 2.6375
3 0.8125 2.7
3 0.875 2.6375
2.9375 0.875 2.7
3 0.8125 2.6375
2.9375 0.8125 2.7
2.9375 0.875 2.6375
2.9375 0.8125 2.6375
0.125 0.9375 2.7
0 0.9375 2.7
0.125 1 2.6375
0.0625 1 2.7
0 1 2.6375
0.125 0.9375 2.6375
0.0625 0.9375 2.7
0 0.9375 2.6375
0.0625 1 2.6375
0.0625 0.9375 2.6375
0.25 0.9375 2.7
0.25 1 2.6375
0.1875 1 2.7
0.25 0.9375 2.6375
0.1875 0.9375 2.7
0.1875 1 2.6375
0.1875 0.9375 2.6375
0.375 0.9375 2.7
0.375 1 2.6375
0.3125 1 2.7
0.375 0.9375 2.6375
0.3125 0.9375 2.7
0.3125 1 2.6375
0.3125 0.9375 2.6375
0.5 0.9375 2.7
0.5 1 2.6375
0.4375 1 2.7
0.5 0.9375 2.6375
0.4375 0.9375 2.7
0.4375 1 2.6375
0.4375 0.9375 2.6375
0.625 0.9375 2.7
0.625 1 2.6375
0.5625 1 2.7
0.625 0.9375 2.6375
0.5625 0.9375 2.7
0.5625 1 2.6375
0.5625 0.9375 2.6375
0.75 0.9375 2.7
0.75 1 2.6375
0.6875 1 2.7
0.75 0.9375 2.6375
0.6875 0.9375 2.7
0.6875 1 2.6375
0.6875 0.9375 2.6375
0.875 0.9375 2.7
0.875 1 2.6375
0.8125 1 2.7
0.875 0.9375 2.6375
0.8125 0.9375 2.7
0.8125 1 2.6375
0.8125 0.9375 2.6375
1 0.9375 2.7
1 1 2.6375
0.9375 1 2.7
1 0.9375 2.6375
0.9375 0.9375 2.7
0.9375 1 2.6375
0.9375 0.9375 2.6375
1.125 0.9375 2.7
1.125 1 2.6375
1.0625 1 2.7
1.125 0.9375 2.6375
1.0625 0.9375 2.7
1.0625 1 2.6375
1.0625 0.9375 2.6375
1.25 0.9375 2.7
1.25 1 2.6375
1.1875 1 2.7
1.25 0.9375 2.6375
1.1875 0.9375 2.7
1.1875 1 2.6375
1.1875 0.9375 2.6375
1.375 0.9375 2.7
1.375 1 2.6375
1.3125 1 2.7
1.375 0.9375 2.6375
1.3125 0.9375 2.7
1.3125 1 2.6375
1.3125 0.9375 2.6375
1.5 0.9375 2.7
1.5 1 2.6375
1.4375 1 2.7
1.5 0.9375 2.6375
1.4375 0.9375 2.7
1.4375 1 2.6375
1.4375 0.9375 2.6375
1.625 0.9375 2.7
1.625 1 2.6375
1.5625 1 2.7
1.625 0.9375 2.6375
1.5625 0.9375 2.7
1.5625 1 2.6375
1.5625 0.9375 2.6375
1.75 0.9375 2.7
1.75 1 2.6375
1.6875 1 2.7
1.75 0.9375 2.6375
1.6875 0.9375 2.7
1.6875 1 2.6375
1.6875 0.9375 2.6375
1.875 0.9375 2.7
1.875 1 2.6375
1.8125 1 2.7
1.875 0.9375 2.6375
1.8125 0.9375 2.7
1.8125 1 2.6375
1.8125 0.9375 2.6375
2 0.9375 2.7
2 1 2.6375
1.9375 1 2.7
2 0.9375 2.6375
1.9375 0.9375 2.7
1.9375 1 2.6375
1.9375 0.9375 2.6375
2.125 0.9375 2.7
2.125 1 2.6375
2.0625 1 2.7
2.125 0.9375 2.6375
2.0625 0.9375 2.7
2.0625 1 2.6375
2.0625 0.9375 2.6375
2.25 0.9375 2.7
2.25 1 2.6375
2.1875 1 2.7
2.25 0.9375 2.6375
2.1875 0.9375 2.7
2.1875 1 2.6375
2.1875 0.9375 2.6375
2.375 0.9375 2.7
2.375 1 2.6375
2.3125 1 2.7
2.375 0.9375 2.6375
2.3125 0.9375 2.7
2.3125 1 2.6375
2.3125 0.9375 2.6375
2.5 0.9375 2.7
2.5 1 2.6375
2.4375 1 2.7
2.5 0.9375 2.6375
2.4375 0.9375 2.7
2.4375 1 2.6375
2.4375 0.9375 2.6375
2.625 0.9375 2.7
2.625 1 2.6375
2.5625 1 2.7
2.625 0.9375 2.6375
2.5625 0.9375 2.7
2.5625 1 2.6375
2.5625 0.9375 2.6375
2.75 0.9375 2.7
2.75 1 2.6375
2.6875 1 2.7
2.75 0.9375 2.6375
2.6875 0.9375 2.7
2.6875 1 2.6375
2.6875 0.9375 2.6375
2.875 0.9375 2.7
2.875 1 2.6375
2.8125 1 2.7
2.875 0.9375 2.6375
2.8125 0.9375 2.7
2.8125 1 2.6375
2.8125 0.9375 2.6375
3 0.9375 2.7
3 1 2.6375
2.9375 1 2.7
3 0.9375 2.6375
2.9375 0.9375 2.7
2.9375 1 2.6375
2.9375 0.9375 2.6375
0.125 0 2.7625
0.0625 0 2.825
0 0 2.7625
0.125 0.0625 2.825
0 0.0625 2.825
0.125 0.125 2.7625
0.0625 0.125 2.825
0 0.125 2.7625
0.0625 0 2.7625
0.125 0.0625 2.7625
0.0625 0.0625 2.825
0 0.0625 2.7625
0.0625 0.125 2.7625
0.0625 0.0625 2.7625
0.25 0 2.7625
0.1875 0 2.825
0.25 0.0625 2.825
0.25 0.125 2.7625
0.1875 0.125 2.825
0.1875 0 2.7625
0.25 0.0625 2.7625
0.1875 0.0625 2.825
0.1875 0.125 2.7625
0.1875 0.0625 2.7625
0.375 0 2.7625
0.3125 0 2.825
0.375 0.0625 2.825
0.375 0.125 2.7625
0.3125 0.125 2.825
0.3125 0 2.7625
0.375 0.0625 2.7625
0.3125 0.0625 2.825
0.3125 0.125 2.7625
0.3125 0.0625 2.7625
0.5 0 2.7625
0.4375 0 2.825
0.5 0.0625 2.825
0.5 0.125 2.7625
0.4375 0.125 2.825
0.4375 0 2.7625
0.5 0.0625 2.7625
0.4375 0.0625 2.825
0.4375 0.125 2.7625
0.4375 0.0625 2.7625
0.625 0 2.7625
0.5625 0 2.825
0.625 0.0625 2.825
0.625 0.125 2.7625
0.5625 0.125 2.825
0.5625 0 2.7625
0.625 0.0625 2.7625
0.5625 0.0625 2.825
0.5625 0.125 2.7625
0.5625 0.0625 2.7625
0.75 0 2.7625
0.6875 0 2.825
0.75 0.0625 2.825
0.75 0.125 2.7625
0.6875 0.125 2.825
0.6875 0 2.7625
0.75 0.0625 2.7625
0.6875 0.0625 2.825
0.6875 0.125 2.7625
0.6875 0.0625 2.7625
0.875 0 2.7625
0.8125 0 2.825
0.875 0.0625 2.825
0.875 0.125 2.7625
0.8125 0.125 2.825
0.8125 0 2.7625
0.875 0.0625 2.7625
0.8125 0.0625 2.825
0.8125 0.125 2.7625
0.8125 0.0625 2.7625
1 0 2.7625
0.9375 0 2.825
1 0.0625 2.825
1 0.125 2.7625
0.9375 0.125 2.825
0.9375 0 2.7625
1 0.0625 2.7625
0.9375 0.0625 2.825
0.9375 0.125 2.7625
0.9375 0.0625 2.7625
1.125 0 2.7625
1.0625 0 2.825
1.125 0.0625 2.825
1.125 0.125 2.7625
1.0625 0.125 2.825
1.0625 0 2.7625
1.125 0.0625 2.7625
1.0625 0.0625 2.825
1.0625 0.125 2.7625
1.0625 0.0625 2.7625
1.25 0 2.7625
1.1875 0 2.825
1.25 0.0625 2.825
1.25 0.125 2.7625
1.1875 0.125 2.825
1.1875 0 2.7625
1.25 0.0625 2.7625
1.1875 0.0625 2.825
1.1875 0.125 2.7625
1.1875 0.0625 2.7625
1.375 0 2.7625
1.3125 0 2.825
1.375 0.0625 2.825
1.375 0.125 2.7625
1.3125 0.125 2.825
1.3125 0 2.7625
1.375 0.0625 2.7625
1.3125 0.0625 2.825
1.3125 0.125 2.7625
1.3125 0.0625 2.7625
1.5 0 2.7625
1.4375 0 2.825
1.5 0.0625 2.825
1.5 0.125 2.7625
1.4375 0.125 2.825
1.4375 0 2.7625
1.5 0.0625 2.7625
1.4375 0.0625 2.825
1.4375 0.125 2.7625
1.4375 0.0625 2.7625
1.625 0 2.7625
1.5625 0 2.825
1.625 0.0625 2.825
1.625 0.125 2.7625
1.5625 0.125 2.825
1.5625 0 2.7625
1.625 0.0625 2.7625
1.5625 0.0625 2.825
1.5625 0.125 2.7625
1.5625 0.0625 2.7625
1.75 0 2.7625
1.6875 0 2.825
1.75 0.0625 2.825
1.75 0.125 2.7625
1.6875 0.125 2.825
1.6875 0 2.7625
1.75 0.0625 2.7625
1.6875 0.0625 2.825
1.6875 0.125 2.7625
1.6875 0.0625 2.7625
1.875 0 2.7625
1.8125 0 2.825
1.875 0.0625 2.825
1.875 0.125 2.7625
1.8125 0.125 2.825
1.8125 0 2.7625
1.875 0.0625 2.7625
1.8125 0.0625 2.825
1.8125 0.125 2.7625
1.8125 0.0625 2.7625
2 0 2.7625
1.9375 0 2.825
2 0.0625 2.825
2 0.125 2.7625
1.9375 0.125 2.825
1.9375 0 2.7625
2 0.0625 2.7625
1.9375 0.0625 2.825
1.9375 0.125 2.7625
1.9375 0.0625 2.7625
2.125 0 2.7625
2.0625 0 2.825
2.125 0.0625 2.825
2.125 0.125 2.7625
2.0625 0.125 2.825
2.0625 0 2.7625
2.125 0.0625 2.7625
2.0625 0.0625 2.825
2.0625 0.125 2.7625
2.0625 0.0625 2.7625
2.25 0 2.7625
2.1875 0 2.825
2.25 0.0625 2.825
2.25 0.125 2.7625
2.1875 0.125 2.825
2.1875 0 2.7625
2.25 0.0625 2.7625
2.1875 0.0625 2.825
2.1875 0.125 2.7625
2.1875 0.0625 2.7625
2.375 0 2.7625
2.3125 0 2.825
2.375 0.0625 2.825
2.375 0.125 2.7625
2.3125 0.125 2.825
2.3125 0 2.7625
2.375 0.0625 2.7625
2.3125 0.0625 2.825
2.3125 0.125 2.7625
2.3125 0.0625 2.7625
2.5 0 2.7625
2.4375 0 2.825
2.5 0.0625 2.825
2.5 0.125 2.7625
2.4375 0.125 2.825
2.4375 0 2.7625
2.5 0.0625 2.7625
2.4375 0.0625 2.825
2.4375 0.125 2.7625
2.4375 0.0625 2.7625
2.625 0 2.7625
2.5625 0 2.825
2.625 0.0625 2.825
2.625 0.125 2.7625
2.5625 0.125 2.825
2.5625 0 2.7625
2.625 0.0625 2.7625
2.5625 0.0625 2.825
2.5625 0.125 2.7625
2.5625 0.0625 2.7625
2.75 0 2.7625
2.6875 0 2.825
2.75 0.0625 2.825
2.75 0.125 2.7625
2.6875 0.125 2.825
2.6875 0 2.7625
2.75 0.0625 2.7625
2.6875 0.0625 2.825
2.6875 0.125 2.7625
2.6875 0.0625 2.7625
2.875 0 2.7625
2.8125 0 2.825
2.875 0.0625 2.825
2.875 0.125 2.7625
2.8125 0.125 2.825
2.8125 0 2.7625
2.875 0.0625 2.7625
2.8125 0.0625 2.825
2.8125 0.125 2.7625
2.8125 0.0625 2.7625
3 0 2.7625
2.9375 0 2.825
3 0.0625 2.825
3 0.125 2.7625
2.9375 0.125 2.825
2.9375 0 2.7625
3 0.0625 2.7625
2.9375 0.0625 2.825
2.9375 0.125 2.7625
2.9375 0.0625 2.7625
0.125 0.1875 2.825
0 0.1875 2.825
0.125 0.25 2.7625
0.0625 0.25 2.825
0 0.25 2.7625
0.125 0.1875 2.7625
0.0625 0.1875 2.825
0 0.1875 2.7625
0.0625 0.25 2.7625
0.0625 0.1875 2.7625
0.25 0.1875 2.825
0.25 0.25 2.7625
0.1875 0.25 2.825
0.25 0.1875 2.7625
0.1875 0.1875 2.825
0.1875 0.25 2.7625
0.1875 0.1875 2.7625
0.375 0.1875 2.825
0.375 0.25 2.7625
0.3125 0.25 2.825
0.375 0.1875 2.7625
0.3125 0.1875 2.825
0.3125 0.25 2.7625
0.3125 0.1875 2.7625
0.5 0.1875 2.825
0.5 0.25 2.7625
0.4375 0.25 2.825
0.5 0.1875 2.7625
0.4375 0.1875 2.825
0.4375 0.25 2.7625
0.4375 0.1875 2.7625
0.625 0.1875 2.825
0.625 0.25 2.7625
0.5625 0.25 2.825
0.625 0.1875 2.7625
0.5625 0.1875 2.825
0.5625 0.25 2.7625
0.5625 0.1875 2.7625
0.75 0.1875 2.825
0.75 0.25 2.7625
0.6875 0.25 2.825
0.75 0.1875 2.7625
0.6875 0.1875 2.825
0.6875 0.25 2.7625
0.6875 0.1875 2.7625
0.875 0.1875 2.825
0.875 0.25 2.7625
0.8125 0.25 2.825
0.875 0.1875 2.7625
0.8125 0.1875 2.825
0.8125 0.25 2.7625
0.8125 0.1875 2.7625
1 0.1875 2.825
1 0.25 2.7625
0.9375 0.25 2.825
1 0.1875 2.7625
0.9375 0.1875 2.825
0.9375 0.25 2.7625
0.9375 0.1875 2.7625
1.125 0.1875 2.825
1.125 0.25 2.7625
1.0625 0.25 2.825
1.125 0.1875 2.7625
1.0625 0.1875 2.825
1.0625 0.25 2.7625
1.0625 0.1875 2.7625
1.25 0.1875 2.825
1.25 0.25 2.7625
1.1875 0.25 2.825
1.25 0.1875 2.7625
1.1875 0.1875 2.825
1.1875 0.25 2.7625
1.1875 0.1875 2.7625
1.375 0.1875 2.825
1.375 0.25 2.7625
1.3125 0.25 2.825
1.375 0.1875 2.7625
1.3125 0.1875 2.825
1.3125 0.25 2.7625
1.3125 0.1875 2.7625
1.5 0.1875 2.825
1.5 0.25 2.7625
1.4375 0.25 2.825
1.5 0.1875 2.7625
1.4375 0.1875 2.825
1.4375 0.25 2.7625
1.4375 0.1875 2.7625
1.625 0.1875 2.825
1.625 0.25 2.7625
1.5625 0.25 2.825
1.625 0.1875 2.7625
1.5625 0.1875 2.825
1.5625 0.25 2.7625
1.5625 0.1875 2.7625
1.75 0.1875 2.825
1.75 0.25 2.7625
1.6875 0.25 2.825
1.75 0.1875 2.7625
1.6875 0.1875 2.825
1.6875 0.25 2.7625
1.6875 0.1875 2.7625
1.875 0.1875 2.825
1.875 0.25 2.7625
1.8125 0.25 2.825
1.875 0.1875 2.7625
1.8125 0.1875 2.825
1.8125 0.25 2.7625
1.8125 0.1875 2.7625
2 0.1875 2.825
2 0.25 2.7625
1.9375 0.25 2.825
2 0.1875 2.7625
1.9375 0.1875 2.825
1.9375 0.25 2.7625
1.9375 0.1875 2.7625
2.125 0.1875 2.825
2.125 0.25 2.7625
2.0625 0.25 2.825
2.125 0.1875 2.7625
2.0625 0.1875 2.825
2.0625 0.25 2.7625
2.0625 0.1875 2.7625
2.25 0.1875 2.825
2.25 0.25 2.7625
2.1875 0.25 2.825
2.25 0.1875 2.7625
2.1875 0.1875 2.825
2.1875 0.25 2.7625
2.1875 0.1875 2.7625
2.375 0.1875 2.825
2.375 0.25 2.7625
2.3125 0.25 2.825
2.375 0.1875 2.7625
2.3125 0.1875 2.825
2.3125 0.25 2.7625
2.3125 0.1875 2.7625
2.5 0.1875 2.825
2.5 0.25 2.7625
2.4375 0.25 2.825
2.5 0.1875 2.7625
2.4375 0.1875 2.825
2.4375 0.25 2.7625
2.4375 0.1875 2.7625
2.625 0.1875 2.825
2.625 0.25 2.7625
2.5625 0.25 2.825
2.625 0.1875 2.7625
2.5625 0.1875 2.825
2.5625 0.25 2.7625
2.5625 0.1875 2.7625
2.75 0.1875 2.825
2.75 0.25 2.7625
2.6875 0.25 2.825
2.75 0.1875 2.7625
2.6875 0.1875 2.825
2.6875 0.25 2.7625
2.6875 0.1875 2.7625
2.875 0.1875 2.825
2.875 0.25 2.7625
2.8125 0.25 2.825
2.875 0.1875 2.7625
2.8125 0.1875 2.825
2.8125 0.25 2.7625
2.8125 0.1875 2.7625
3 0.1875 2.825
3 0.25 2.7625
2.9375 0.25 2.825
3 0.1875 2.7625
2.9375 0.1875 2.825
2.9375 0.25 2.7625
2.9375 0.1875 2.7625
0.125 0.3125 2.825
0 0.3125 2.825
0.125 0.375 2.7625
0.0625 0.375 2.825
0 0.375 2.7625
0.125 0.3125 2.7625
0.0625 0.3125 2.825
0 0.3125 2.7625
0.0625 0.375 2.7625
0.0625 0.3125 2.7625
0.25 0.3125 2.825
0.25 0.375 2.7625
0.1875 0.375 2.825
0.25 0.3125 2.7625
0.1875 0.3125 2.825
0.1875 0.375 2.7625
0.1875 0.3125 2.7625
0.375 0.3125 2.825
0.375 0.375 2.7625
0.3125 0.375 2.825
0.375 0.3125 2.7625
0.3125 0.3125 2.825
0.3125 0.375 2.7625
0.3125 0.3125 2.7625
0.5 0.3125 2.825
0.5 0.375 2.7625
0.4375 0.375 2.825
0.5 0.3125 2.7625
0.4375 0.3125 2.825
0.4375 0.375 2.7625
0.4375 0.3125 2.7625
0.625 0.3125 2.825
0.625 0.375 2.7625
0.5625 0.375 2.825
0.625 0.3125 2.7625
0.5625 0.3125 2.825
0.5625 0.375 2.7625
0.5625 0.3125 2.7625
0.75 0.3125 2.825
0.75 0.375 2.7625
0.6875 0.375 2.825
0.75 0.3125 2.7625
0.6875 0.3125 2.825
0.6875 0.375 2.7625
0.6875 0.3125 2.7625
0.875 0.3125 2.825
0.875 0.375 2.7625
0.8125 0.375 2.825
0.875 0.3125 2.7625
0.8125 0.3125 2.825
0.8125 0.375 2.7625
0.8125 0.3125 2.7625
1 0.3125 2.825
1 0.375 2.7625
0.9375 0.375 2.825
1 0.3125 2.7625
0.9375 0.3125 2.825
0.9375 0.375 2.7625
0.9375 0.3125 2.7625
1.125 0.3125 2.825
1.125 0.375 2.7625
1.0625 0.375 2.825
1.125 0.3125 2.7625
1.0625 0.3125 2.825
1.0625 0.375 2.7625
1.0625 0.3125 2.7625
1.25 0.3125 2.825
1.25 0.375 2.7625
1.1875 0.375 2.825
1.25 0.3125 2.7625
1.1875 0.3125 2.825
1.1875 0.375 2.7625
1.1875 0.3125 2.7625
1.375 0.3125 2.825
1.375 0.375 2.7625
1.3125 0.375 2.825
1.375 0.3125 2.7625
1.3125 0.3125 2.825
1.3125 0.375 2.7625
1.3125 0.3125 2.7625
1.5 0.3125 2.825
1.5 0.375 2.7625
1.4375 0.375 2.825
1.5 0.3125 2.7625
1.4375 0.3125 2.825
1.4375 0.375 2.7625
1.4375 0.3125 2.7625
1.625 0.3125 2.825
1.625 0.375 2.7625
1.5625 0.375 2.825
1.625 0.3125 2.7625
1.5625 0.3125 2.825
1.5625 0.375 2.7625
1.5625 0.3125 2.7625
1.75 0.3125 2.825
1.75 0.375 2.7625
1.6875 0.375 2.825
1.75 0.3125 2.7625
1.6875 0.3125 2.825
1.6875 0.375 2.7625
1.6875 0.3125 2.7625
1.875 0.3125 2.825
1.875 0.375 2.7625
1.8125 0.375 2.825
1.875 0.3125 2.7625
1.8125 0.3125 2.825
1.8125 0.375 2.7625
1.8125 0.3125 2.7625
2 0.3125 2.825
2 0.375 2.7625
1.9375 0.375 2.825
2 0.3125 2.7625
1.9375 0.3125 2.825
1.9375 0.375 2.7625
1.9375 0.3125 2.7625
2.125 0.3125 2.825
2.125 0.375 2.7625
2.0625 0.375 2.825
2.125 0.3125 2.7625
2.0625 0.3125 2.825
2.0625 0.375 2.7625
2.0625 0.3125 2.7625
2.25 0.3125 2.825
2.25 0.375 2.7625
2.1875 0.375 2.825
2.25 0.3125 2.7625
2.1875 0.3125 2.825
2.1875 0.375 2.7625
2.1875 0.3125 2.7625
2.375 0.3125 2.825
2.375 0.375 2.7625
2.3125 0.375 2.825
2.375 0.3125 2.7625
2.3125 0.3125 2.825
2.3125 0.375 2.7625
2.3125 0.3125 2.7625
2.5 0.3125 2.825
2.5 0.375 2.7625
2.4375 0.375 2.825
2.5 0.3125 2.7625
2.4375 0.3125 2.825
2.4375 0.375 2.7625
2.4375 0.3125 2.7625
2.625 0.3125 2.825
2.625 0.375 2.7625
2.5625 0.375 2.825
2.625 0.3125 2.7625
2.5625 0.3125 2.825
2.5625 0.375 2.7625
2.5625 0.3125 2.7625
2.75 0.3125 2.825
2.75 0.375 2.7625
2.6875 0.375 2.825
2.75 0.3125 2.7625
2.6875 0.3125 2.825
2.6875 0.375 2.7625
2.6875 0.3125 2.7625
2.875 0.3125 2.825
2.875 0.375 2.7625
2.8125 0.375 2.825
2.875 0.3125 2.7625
2.8125 0.3125 2.825
2.8125 0.375 2.7625
2.8125 0.3125 2.7625
3 0.3125 2.825
3 0.375 2.7625
2.9375 0.375 2.825
3 0.3125 2.7625
2.9375 0.3125 2.825
2.9375 0.375 2.7625
2.9375 0.3125 2.7625
0.125 0.4375 2.825
0 0.4375 2.825
0.125 0.5 2.7625
0.0625 0.5 2.825
0 0.5 2.7625
0.125 0.4375 2.7625
0.0625 0.4375 2.825
0 0.4375 2.7625
0.0625 0.5 2.7625
0.0625 0.4375 2.7625
0.25 0.4375 2.825
0.25 0.5 2.7625
0.1875 0.5 2.825
0.25 0.4375 2.7625
0.1875 0.4375 2.825
0.1875 0.5 2.7625
0.1875 0.4375 2.7625
0.375 0.4375 2.825
0.375 0.5 2.7625
0.3125 0.5 2.825
0.375 0.4375 2.7625
0.3125 0.4375 2.825
0.3125 0.5 2.7625
0.3125 0.4375 2.7625
0.5 0.4375 2.825
0.5 0.5 2.7625
0.4375 0.5 2.825
0.5 0.4375 2.7625
0.4375 0.4375 2.825
0.4375 0.5 2.7625
0.4375 0.4375 2.7625
0.625 0.4375 2.825
0.625 0.5 2.7625
0.5625 0.5 2.825
0.625 0.4375 2.7625
0.5625 0.4375 2.825
0.5625 0.5 2.7625
0.5625 0.4375 2.7625
0.75 0.4375 2.825
0.75 0.5 2.7625
0.6875 0.5 2.825
0.75 0.4375 2.7625
0.6875 0.4375 2.825
0.6875 0.5 2.7625
0.6875 0.4375 2.7625
0.875 0.4375 2.825
0.875 0.5 2.7625
0.8125 0.5 2.825
0.875 0.4375 2.7625
0.8125 0.4375 2.825
0.8125 0.5 2.7625
0.8125 0.4375 2.7625
1 0.4375 2.825
1 0.5 2.7625
0.9375 0.5 2.825
1 0.4375 2.7625
0.9375 0.4375 2.825
0.9375 0.5 2.7625
0.9375 0.4375 2.7625
1.125 0.4375 2.825
1.125 0.5 2.7625
1.0625 0.5 2.825
1.125 0.4375 2.7625
1.0625 0.4375 2.825
1.0625 0.5 2.7625
1.0625 0.4375 2.7625
1.25 0.4375 2.825
1.25 0.5 2.7625
1.1875 0.5 2.825
1.25 0.4375 2.7625
1.1875 0.4375 2.825
1.1875 0.5 2.7625
1.1875 0.4375 2.7625
1.375 0.4375 2.825
1.375 0.5 2.7625
1.3125 0.5 2.825
1.375 0.4375 2.7625
1.3125 0.4375 2.825
1.3125 0.5 2.7625
1.3125 0.4375 2.7625
1.5 0.4375 2.825
1.5 0.5 2.7625
1.4375 0.5 2.825
1.5 0.4375 2.7625
1.4375 0.4375 2.825
1.4375 0.5 2.7625
1.4375 0.4375 2.7625
1.625 0.4375 2.825
1.625 0.5 2.7625
1.5625 0.5 2.825
1.625 0.4375 2.7625
1.5625 0.4375 2.825
1.5625 0.5 2.7625
1.5625 0.4375 2.7625
1.75 0.4375 2.825
1.75 0.5 2.7625
1.6875 0.5 2.825
1.75 0.4375 2.7625
1.6875 0.4375 2.825
1.6875 0.5 2.7625
1.6875 0.4375 2.7625
1.875 0.4375 2.825
1.875 0.5 2.7625
1.8125 0.5 2.825
1.875 0.4375 2.7625
1.8125 0.4375 2.825
1.8125 0.5 2.7625
1.8125 0.4375 2.7625
2 0.4375 2.825
2 0.5 2.7625
1.9375 0.5 2.825
2 0.4375 2.7625
1.9375 0.4375 2.825
1.9375 0.5 2.7625
1.9375 0.4375 2.7625
2.125 0.4375 2.825
2.125 0.5 2.7625
2.0625 0.5 2.825
2.125 0.4375 2.7625
2.0625 0.4375 2.825
2.0625 0.5 2.7625
2.0625 0.4375 2.7625
2.25 0.4375 2.825
2.25 0.5 2.7625
2.1875 0.5 2.825
2.25 0.4375 2.7625
2.1875 0.4375 2.825
2.1875 0.5 2.7625
2.1875 0.4375 2.7625
2.375 0.4375 2.825
2.375 0.5 2.7625
2.3125 0.5 2.825
2.375 0.4375 2.7625
2.3125 0.4375 2.825
2.3125 0.5 2.7625
2.3125 0.4375 2.7625
2.5 0.4375 2.825
2.5 0.5 2.7625
2.4375 0.5 2.825
2.5 0.4375 2.7625
2.4375 0.4375 2.825
2.4375 0.5 2.7625
2.4375 0.4375 2.7625
2.625 0.4375 2.825
2.625 0.5 2.7625
2.5625 0.5 2.825
2.625 0.4375 2.7625
2.5625 0.4375 2.825
2.5625 0.5 2.7625
2.5625 0.4375 2.7625
2.75 0.4375 2.825
2.75 0.5 2.7625
2.6875 0.5 2.825
2.75 0.4375 2.7625
2.6875 0.4375 2.825
2.6875 0.5 2.7625
2.6875 0.4375 2.7625
2.875 0.4375 2.825
2.875 0.5 2.7625
2.8125 0.5 2.825
2.875 0.4375 2.7625
2.8125 0.4375 2.825
2.8125 0.5 2.7625
2.8125 0.4375 2.7625
3 0.4375 2.825
3 0.5 2.7625
2.9375 0.5 2.825
3 0.4375 2.7625
2.9375 0.4375 2.825
2.9375 0.5 2.7625
2.9375 0.4375 2.7625
0.125 0.5625 2.825
0 0.5625 2.825
0.125 0.625 2.7625
0.0625 0.625 2.825
0 0.625 2.7625
0.125 0.5625 2.7625
0.0625 0.5625 2.825
0 0.5625 2.7625
0.0625 0.625 2.7625
0.0625 0.5625 2.7625
0.25 0.5625 2.825
0.25 0.625 2.7625
0.1875 0.625 2.825
0.25 0.5625 2.7625
0.1875 0.5625 2.825
0.1875 0.625 2.7625
0.1875 0.5625 2.7625
0.375 0.5625 2.825
0.375 0.625 2.7625
0.3125 0.625 2.825
0.375 0.5625 2.7625
0.3125 0.5625 2.825
0.3125 0.625 2.7625
0.3125 0.5625 2.7625
0.5 0.5625 2.825
0.5 0.625 2.7625
0.4375 0.625 2.825
0.5 0.5625 2.7625
0.4375 0.5625 2.825
0.4375 0.625 2.7625
0.4375 0.5625 2.7625
0.625 0.5625 2.825
0.625 0.625 2.7625
0.5625 0.625 2.825
0.625 0.5625 2.7625
0.5625 0.5625 2.825
0.5625 0.625 2.7625
0.5625 0.5625 2.7625
0.75 0.5625 2.825
0.75 0.625 2.7625
0.6875 0.625 2.825
0.75 0.5625 2.7625
0.6875 0.5625 2.825
0.6875 0.625 2.7625
0.6875 0.5625 2.7625
0.875 0.5625 2.825
0.875 0.625 2.7625
0.8125 0.625 2.825
0.875 0.5625 2.7625
0.8125 0.5625 2.825
0.8125 0.625 2.7625
0.8125 0.5625 2.7625
1 0.5625 2.825
1 0.625 2.7625
0.9375 0.625 2.825
1 0.5625 2.7625
0.9375 0.5625 2.825
0.9375 0.625 2.7625
0.9375 0.5625 2.7625
1.125 0.5625 2.825
1.125 0.625 2.7625
1.0625 0.625 2.825
1.125 0.5625 2.7625
1.0625 0.5625 2.825
1.0625 0.625 2.7625
1.0625 0.5625 2.7625
1.25 0.5625 2.825
1.25 0.625 2.7625
1.1875 0.625 2.825
1.25 0.5625 2.7625
1.1875 0.5625 2.825
1.1875 0.625 2.7625
1.1875 0.5625 2.7625
1.375 0.5625 2.825
1.375 0.625 2.7625
1.3125 0.625 2.825
1.375 0.5625 2.7625
1.3125 0.5625 2.825
1.3125 0.625 2.7625
1.3125 0.5625 2.7625
1.5 0.5625 2.825
1.5 0.625 2.7625
1.4375 0.625 2.825
1.5 0.5625 2.7625
1.4375 0.5625 2.825
1.4375 0.625 2.7625
1.4375 0.5625 2.7625
1.625 0.5625 2.825
1.625 0.625 2.7625
1.5625 0.625 2.825
1.625 0.5625 2.7625
1.5625 0.5625 2.825
1.5625 0.625 2.7625
1.5625 0.5625 2.7625
1.75 0.5625 2.825
1.75 0.625 2.7625
1.6875 0.625 2.825
1.75 0.5625 2.7625
1.6875 0.5625 2.825
1.6875 0.625 2.7625
1.6875 0.5625 2.7625
1.875 0.5625 2.825
1.875 0.625 2.7625
1.8125 0.625 2.825
1.875 0.5625 2.7625
1.8125 0.5625 2.825
1.8125 0.625 2.7625
1.8125 0.5625 2.7625
2 0.5625 2.825
2 0.625 2.7625
1.9375 0.625 2.825
2 0.5625 2.7625
1.9375 0.5625 2.825
1.9375 0.625 2.7625
1.9375 0.5625 2.7625
2.125 0.5625 2.825
2.125 0.625 2.7625
2.0625 0.625 2.825
2.125 0.5625 2.7625
2.0625 0.5625 2.825
2.0625 0.625 2.7625
2.0625 0.5625 2.7625
2.25 0.5625 2.825
2.25 0.625 2.7625
2.1875 0.625 2.825
2.25 0.5625 2.7625
2.1875 0.5625 2.825
2.1875 0.625 2.7625
2.1875 0.5625 2.7625
2.375 0.5625 2.825
2.375 0.625 2.7625
2.3125 0.625 2.825
2.375 0.5625 2.7625
2.3125 0.5625 2.825
2.3125 0.625 2.7625
2.3125 0.5625 2.7625
2.5 0.5625 2.825
2.5 0.625 2.7625
2.4375 0.625 2.825
2.5 0.5625 2.7625
2.4375 0.5625 2.825
2.4375 0.625 2.7625
2.4375 0.5625 2.7625
2.625 0.5625 2.825
2.625 0.625 2.7625
2.5625 0.625 2.825
2.625 0.5625 2.7625
2.5625 0.5625 2.825
2.5625 0.625 2.7625
2.5625 0.5625 2.7625
2.75 0.5625 2.825
2.75 0.625 2.7625
2.6875 0.625 2.825
2.75 0.5625 2.7625
2.6875 0.5625 2.825
2.6875 0.625 2.7625
2.6875 0.5625 2.7625
2.875 0.5625 2.825
2.875 0.625 2.7625
2.8125 0.625 2.825
2.875 0.5625 2.7625
2.8125 0.5625 2.825
2.8125 0.625 2.7625
2.8125 0.5625 2.7625
3 0.5625 2.825
3 0.625 2.7625
2.9375 0.625 2.825
3 0.5625 2.7625
2.9375 0.5625 2.825
2.9375 0.625 2.7625
2.9375 0.5625 2.7625
0.125 0.6875 2.825
0 0.6875 2.825
0.125 0.75 2.7625
0.0625 0.75 2.825
0 0.75 2.7625
0.125 0.6875 2.7625
0.0625 0.6875 2.825
0 0.6875 2.7625
0.0625 0.75 2.7625
0.0625 0.6875 2.7625
0.25 0.6875 2.825
0.25 0.75 2.7625
0.1875 0.75 2.825
0.25 0.6875 2.7625
0.1875 0.6875 2.825
0.1875 0.75 2.7625
0.1875 0.6875 2.7625
0.375 0.6875 2.825
0.375 0.75 2.7625
0.3125 0.75 2.825
0.375 0.6875 2.7625
0.3125 0.6875 2.825
0.3125 0.75 2.7625
0.3125 0.6875 2.7625
0.5 0.6875 2.825
0.5 0.75 2.7625
0.4375 0.75 2.825
0.5 0.6875 2.7625
0.4375 0.6875 2.825
0.4375 0.75 2.7625
0.4375 0.6875 2.7625
0.625 0.6875 2.825
0.625 0.75 2.7625
0.5625 0.75 2.825
0.625 0.6875 2.7625
0.5625 0.6875 2.825
0.5625 0.75 2.7625
0.5625 0.6875 2.7625
0.75 0.6875 2.825
0.75 0.75 2.7625
0.6875 0.75 2.825
0.75 0.6875 2.7625
0.6875 0.6875 2.825
0.6875 0.75 2.7625
0.6875 0.6875 2.7625
0.875 0.6875 2.825
0.875 0.75 2.7625
0.8125 0.75 2.825
0.875 0.6875 2.7625
0.8125 0.6875 2.825
0.8125 0.75 2.7625
0.8125 0.6875 2.7625
1 0.6875 2.825
1 0.75 2.7625
0.9375 0.75 2.825
1 0.6875 2.7625
0.9375 0.6875 2.825
0.9375 0.75 2.7625
0.9375 0.6875 2.7625
1.125 0.6875 2.825
1.125 0.75 2.7625
1.0625 0.75 2.825
1.125 0.6875 2.7625
1.0625 0.6875 2.825
1.0625 0.75 2.7625
1.0625 0.6875 2.7625
1.25 0.6875 2.825
1.25 0.75 2.7625
1.1875 0.75 2.825
1.25 0.6875 2.7625
1.1875 0.6875 2.825
1.1875 0.75 2.7625
1.1875 0.6875 2.7625
1.375 0.6875 2.825
1.375 0.75 2.7625
1.3125 0.75 2.825
1.375 0.6875 2.7625
1.3125 0.6875 2.825
1.3125 0.75 2.7625
1.3125 0.6875 2.7625
1.5 0.6875 2.825
1.5 0.75 2.7625
1.4375 0.75 2.825
1.5 0.6875 2.7625
1.4375 0.6875 2.825
1.4375 0.75 2.7625
1.4375 0.6875 2.7625
1.625 0.6875 2.825
1.625 0.75 2.7625
1.5625 0.75 2.825
1.625 0.6875 2.7625
1.5625 0.6875 2.825
1.5625 0.75 2.7625
1.5625 0.6875 2.7625
1.75 0.6875 2.825
1.75 0.75 2.7625
1.6875 0.75 2.825
1.75 0.6875 2.7625
1.6875 0.6875 2.825
1.6875 0.75 2.7625
1.6875 0.6875 2.7625
1.875 0.6875 2.825
1.875 0.75 2.7625
1.8125 0.75 2.825
1.875 0.6875 2.7625
1.8125 0.6875 2.825
1.8125 0.75 2.7625
1.8125 0.6875 2.7625
2 0.6875 2.825
2 0.75 2.7625
1.9375 0.75 2.825
2 0.6875 2.7625
1.9375 0.6875 2.825
1.9375 0.75 2.7625
1.9375 0.6875 2.7625
2.125 0.6875 2.825
2.125 0.75 2.7625
2.0625 0.75 2.825
2.125 0.6875 2.7625
2.0625 0.6875 2.825
2.0625 0.75 2.7625
2.0625 0.6875 2.7625
2.25 0.6875 2.825
2.25 0.75 2.7625
2.1875 0.75 2.825
2.25 0.6875 2.7625
2.1875 0.6875 2.825
2.1875 0.75 2.7625
2.1875 0.6875 2.7625
2.375 0.6875 2.825
2.375 0.75 2.7625
2.3125 0.75 2.825
2.375 0.6875 2.7625
2.3125 0.6875 2.825
2.3125 0.75 2.7625
2.3125 0.6875 2.7625
2.5 0.6875 2.825
2.5 0.75 2.7625
2.4375 0.75 2.825
2.5 0.6875 2.7625
2.4375 0.6875 2.825
2.4375 0.75 2.7625
2.4375 0.6875 2.7625
2.625 0.6875 2.825
2.625 0.75 2.7625
2.5625 0.75 2.825
2.625 0.6875 2.7625
2.5625 0.6875 2.825
2.5625 0.75 2.7625
2.5625 0.6875 2.7625
2.75 0.6875 2.825
2.75 0.75 2.7625
2.6875 0.75 2.825
2.75 0.6875 2.7625
2.6875 0.6875 2.825
2.6875 0.75 2.7625
2.6875 0.6875 2.7625
2.875 0.6875 2.825
2.875 0.75 2.7625
2.8125 0.75 2.825
2.875 0.6875 2.7625
2.8125 0.6875 2.825
2.8125 0.75 2.7625
2.8125 0.6875 2.7625
3 0.6875 2.825
3 0.75 2.7625
2.9375 0.75 2.825
3 0.6875 2.7625
2.9375 0.6875 2.825
2.9375 0.75 2.7625
2.9375 0.6875 2.7625
0.125 0.8125 2.825
0 0.8125 2.825
0.125 0.875 2.7625
0.0625 0.875 2.825
0 0.875 2.7625
0.125 0.8125 2.7625
0.0625 0.8125 2.825
0 0.8125 2.7625
0.0625 0.875 2.7625
0.0625 0.8125 2.7625
0.25 0.8125 2.825
0.25 0.875 2.7625
0.1875 0.875 2.825
0.25 0.8125 2.7625
0.1875 0.8125 2.825
0.1875 0.875 2.7625
0.1875 0.8125 2.7625
0.375 0.8125 2.825
0.375 0.875 2.7625
0.3125 0.875 2.825
0.375 0.8125 2.7625
0.3125 0.8125 2.825
0.3125 0.875 2.7625
0.3125 0.8125 2.7625
0.5 0.8125 2.825
0.5 0.875 2.7625
0.4375 0.875 2.825
0.5 0.8125 2.7625
0.4375 0.8125 2.825
0.4375 0.875 2.7625
0.4375 0.8125 2.7625
0.625 0.8125 2.825
0.625 0.875 2.7625
0.5625 0.875 2.825
0.625 0.8125 2.7625
0.5625 0.8125 2.825
0.5625 0.875 2.7625
0.5625 0.8125 2.7625
0.75 0.8125 2.825
0.75 0.875 2.7625
0.6875 0.875 2.825
0.75 0.8125 2.7625
0.6875 0.8125 2.825
0.6875 0.875 2.7625
0.6875 0.8125 2.7625
0.875 0.8125 2.825
0.875 0.875 2.7625
0.8125 0.875 2.825
0.875 0.8125 2.7625
0.8125 0.8125 2.825
0.8125 0.875 2.7625
0.8125 0.8125 2.7625
1 0.8125 2.825
1 0.875 2.7625
0.9375 0.875 2.825
1 0.8125 2.7625
0.9375 0.8125 2.825
0.9375 0.875 2.7625
0.9375 0.8125 2.7625
1.125 0.8125 2.825
1.125 0.875 2.7625
1.0625 0.875 2.825
1.125 0.8125 2.7625
1.0625 0.8125 2.825
1.0625 0.875 2.7625
1.0625 0.8125 2.7625
1.25 0.8125 2.825
1.25 0.875 2.7625
1.1875 0.875 2.825
1.25 0.8125 2.7625
1.1875 0.8125 2.825
1.1875 0.875 2.7625
1.1875 0.8125 2.7625
1.375 0.8125 2.825
1.375 0.875 2.7625
1.3125 0.875 2.825
1.375 0.8125 2.7625
1.3125 0.8125 2.825
1.3125 0.875 2.7625
1.3125 0.8125 2.7625
1.5 0.8125 2.825
1.5 0.875 2.7625
1.4375 0.875 2.825
1.5 0.8125 2.7625
1.4375 0.8125 2.825
1.4375 0.875 2.7625
1.4375 0.8125 2.7625
1.625 0.8125 2.825
1.625 0.875 2.7625
1.5625 0.875 2.825
1.625 0.8125 2.7625
1.5625 0.8125 2.825
1.5625 0.875 2.7625
1.5625 0.8125 2.7625
1.75 0.8125 2.825
1.75 0.875 2.7625
1.6875 0.875 2.825
1.75 0.8125 2.7625
1.6875 0.8125 2.825
1.6875 0.875 2.7625
1.6875 0.8125 2.7625
1.875 0.8125 2.825
1.875 0.875 2.7625
1.8125 0.875 2.825
1.875 0.8125 2.7625
1.8125 0.8125 2.825
1.8125 0.875 2.7625
1.8125 0.8125 2.7625
2 0.8125 2.825
2 0.875 2.7625
1.9375 0.875 2.825
2 0.8125 2.7625
1.9375 0.8125 2.825
1.9375 0.875 2.7625
1.9375 0.8125 2.7625
2.125 0.8125 2.825
2.125 0.875 2.7625
2.0625 0.875 2.825
2.125 0.8125 2.7625
2.0625 0.8125 2.825
2.0625 0.875 2.7625
2.0625 0.8125 2.7625
2.25 0.8125 2.825
2.25 0.875 2.7625
2.1875 0.875 2.825
2.25 0.8125 2.7625
2.1875 0.8125 2.825
2.1875 0.875 2.7625
2.1875 0.8125 2.7625
2.375 0.8125 2.825
2.375 0.875 2.7625
2.3125 0.875 2.825
2.375 0.8125 2.7625
2.3125 0.8125 2.825
2.3125 0.875 2.7625
2.3125 0.8125 2.7625
2.5 0.8125 2.825
2.5 0.875 2.7625
2.4375 0.875 2.825
2.5 0.8125 2.7625
2.4375 0.8125 2.825
2.4375 0.875 2.7625
2.4375 0.8125 2.7625
2.625 0.8125 2.825
2.625 0.875 2.7625
2.5625 0.875 2.825
2.625 0.8125 2.7625
2.5625 0.8125 2.825
2.5625 0.875 2.7625
2.5625 0.8125 2.7625
2.75 0.8125 2.825
2.75 0.875 2.7625
2.6875 0.875 2.825
2.75 0.8125 2.7625
2.6875 0.8125 2.825
2.6875 0.875 2.7625
2.6875 0.8125 2.7625
2.875 0.8125 2.825
2.875 0.875 2.7625
2.8125 0.875 2.825
2.875 0.8125 2.7625
2.8125 0.8125 2.825
2.8125 0.875 2.7625
2.8125 0.8125 2.7625
3 0.8125 2.825
3 0.875 2.7625
2.9375 0.875 2.825
3 0.8125 2.7625
2.9375 0.8125 2.825
2.9375 0.875 2.7625
2.9375 0.8125 2.7625
0.125 0.9375 2.825
0 0.9375 2.825
0.125 1 2.7625
0.0625 1 2.825
0 1 2.7625
0.125 0.9375 2.7625
0.0625 0.9375 2.825
0 0.9375 2.7625
0.0625 1 2.7625
0.0625 0.9375 2.7625
0.25 0.9375 2.825
0.25 1 2.7625
0.1875 1 2.825
0.25 0.9375 2.7625
0.1875 0.9375 2.825
0.1875 1 2.7625
0.1875 0.9375 2.7625
0.375 0.9375 2.825
0.375 1 2.7625
0.3125 1 2.825
0.375 0.9375 2.7625
0.3125 0.9375 2.825
0.3125 1 2.7625
0.3125 0.9375 2.7625
0.5 0.9375 2.825
0.5 1 2.7625
0.4375 1 2.825
0.5 0.9375 2.7625
0.4375 0.9375 2.825
0.4375 1 2.7625
0.4375 0.9375 2.7625
0.625 0.9375 2.825
0.625 1 2.7625
0.5625 1 2.825
0.625 0.9375 2.7625
0.5625 0.9375 2.825
0.5625 1 2.7625
0.5625 0.9375 2.7625
0.75 0.9375 2.825
0.75 1 2.7625
0.6875 1 2.825
0.75 0.9375 2.7625
0.6875 0.9375 2.825
0.6875 1 2.7625
0.6875 0.9375 2.7625
0.875 0.9375 2.825
0.875 1 2.7625
0.8125 1 2.825
0.875 0.9375 2.7625
0.8125 0.9375 2.825
0.8125 1 2.7625
0.8125 0.9375 2.7625
1 0.9375 2.825
1 1 2.7625
0.9375 1 2.825
1 0.9375 2.7625
0.9375 0.9375 2.825
0.9375 1 2.7625
0.9375 0.9375 2.7625
1.125 0.9375 2.825
1.125 1 2.7625
1.0625 1 2.825
1.125 0.9375 2.7625
1.0625 0.9375 2.825
1.0625 1 2.7625
1.0625 0.9375 2.7625
1.25 0.9375 2.825
1.25 1 2.7625
1.1875 1 2.825
1.25 0.9375 2.7625
1.1875 0.9375 2.825
1.1875 1 2.7625
1.1875 0.9375 2.7625
1.375 0.9375 2.825
1.375 1 2.7625
1.3125 1 2.825
1.375 0.9375 2.7625
1.3125 0.9375 2.825
1.3125 1 2.7625
1.3125 0.9375 2.7625
1.5 0.9375 2.825
1.5 1 2.7625
1.4375 1 2.825
1.5 0.9375 2.7625
1.4375 0.9375 2.825
1.4375 1 2.7625
1.4375 0.9375 2.7625
1.625 0.9375 2.825
1.625 1 2.7625
1.5625 1 2.825
1.625 0.9375 2.7625
1.5625 0.9375 2.825
1.5625 1 2.7625
1.5625 0.9375 2.7625
1.75 0.9375 2.825
1.75 1 2.7625
1.6875 1 2.825
1.75 0.9375 2.7625
1.6875 0.9375 2.825
1.6875 1 2.7625
1.6875 0.9375 2.7625
1.875 0.9375 2.825
1.875 1 2.7625
1.8125 1 2.825
1.875 0.9375 2.7625
1.8125 0.9375 2.825
1.8125 1 2.7625
1.8125 0.9375 2.7625
2 0.9375 2.825
2 1 2.7625
1.9375 1 2.825
2 0.9375 2.7625
1.9375 0.9375 2.825
1.9375 1 2.7625
1.9375 0.9375 2.7625
2.125 0.9375 2.825
2.125 1 2.7625
2.0625 1 2.825
2.125 0.9375 2.7625
2.0625 0.9375 2.825
2.0625 1 2.7625
2.0625 0.9375 2.7625
2.25 0.9375 2.825
2.25 1 2.7625
2.1875 1 2.825
2.25 0.9375 2.7625
2.1875 0.9375 2.825
2.1875 1 2.7625
2.1875 0.9375 2.7625
2.375 0.9375 2.825
2.375 1 2.7625
2.3125 1 2.825
2.375 0.9375 2.7625
2.3125 0.9375 2.825
2.3125 1 2.7625
2.3125 0.9375 2.7625
2.5 0.9375 2.825
2.5 1 2.7625
2.4375 1 2.825
2.5 0.9375 2.7625
2.4375 0.9375 2.825
2.4375 1 2.7625
2.4375 0.9375 2.7625
2.625 0.9375 2.825
2.625 1 2.7625
2.5625 1 2.825
2.625 0.9375 2.7625
2.5625 0.9375 2.825
2.5625 1 2.7625
2.5625 0.9375 2.7625
2.75 0.9375 2.825
2.75 1 2.7625
2.6875 1 2.825
2.75 0.9375 2.7625
2.6875 0.9375 2.825
2.6875 1 2.7625
2.6875 0.9375 2.7625
2.875 0.9375 2.825
2.875 1 2.7625
2.8125 1 2.825
2.875 0.9375 2.7625
2.8125 0.9375 2.825
2.8125 1 2.7625
2.8125 0.9375 2.7625
3 0.9375 2.825
3 1 2.7625
2.9375 1 2.825
3 0.9375 2.7625
2.9375 0.9375 2.825
2.9375 1 2.7625
2.9375 0.9375 2.7625
0.125 0 2.8875
0.0625 0 2.95
0 0 2.8875
0.125 0.0625 2.95
0 0.0625 2.95
0.125 0.125 2.8875
0.0625 0.125 2.95
0 0.125 2.8875
0.0625 0 2.8875
0.125 0.0625 2.8875
0.0625 0.0625 2.95
0 0.0625 2.8875
0.0625 0.125 2.8875
0.0625 0.0625 2.8875
0.25 0 2.8875
0.1875 0 2.95
0.25 0.0625 2.95
0.25 0.125 2.8875
0.1875 0.125 2.95
0.1875 0 2.8875
0.25 0.0625 2.8875
0.1875 0.0625 2.95
0.1875 0.125 2.8875
0.1875 0.0625 2.8875
0.375 0 2.8875
0.3125 0 2.95
0.375 0.0625 2.95
0.375 0.125 2.8875
0.3125 0.125 2.95
0.3125 0 2.8875
0.375 0.0625 2.8875
0.3125 0.0625 2.95
0.3125 0.125 2.8875
0.3125 0.0625 2.8875
0.5 0 2.8875
0.4375 0 2.95
0.5 0.0625 2.95
0.5 0.125 2.8875
0.4375 0.125 2.95
0.4375 0 2.8875
0.5 0.0625 2.8875
0.4375 0.0625 2.95
0.4375 0.125 2.8875
0.4375 0.0625 2.8875
0.625 0 2.8875
0.5625 0 2.95
0.625 0.0625 2.95
0.625 0.125 2.8875
0.5625 0.125 2.95
0.5625 0 2.8875
0.625 0.0625 2.8875
0.5625 0.0625 2.95
0.5625 0.125 2.8875
0.5625 0.0625 2.8875
0.75 0 2.8875
0.6875 0 2.95
0.75 0.0625 2.95
0.75 0.125 2.8875
0.6875 0.125 2.95
0.6875 0 2.8875
0.75 0.0625 2.8875
0.6875 0.0625 2.95
0.6875 0.125 2.8875
0.6875 0.0625 2.8875
0.875 0 2.8875
0.8125 0 2.95
0.875 0.0625 2.95
0.875 0.125 2.8875
0.8125 0.125 2.95
0.8125 0 2.8875
0.875 0.0625 2.8875
0.8125 0.0625 2.95
0.8125 0.125 2.8875
0.8125 0.0625 2.8875
1 0 2.8875
0.9375 0 2.95
1 0.0625 2.95
1 0.125 2.8875
0.9375 0.125 2.95
0.9375 0 2.8875
1 0.0625 2.8875
0.9375 0.0625 2.95
0.9375 0.125 2.8875
0.9375 0.0625 2.8875
1.125 0 2.8875
1.0625 0 2.95
1.125 0.0625 2.95
1.125 0.125 2.8875
1.0625 0.125 2.95
1.0625 0 2.8875
1.125 0.0625 2.8875
1.0625 0.0625 2.95
1.0625 0.125 2.8875
1.0625 0.0625 2.8875
1.25 0 2.8875
1.1875 0 2.95
1.25 0.0625 2.95
1.25 0.125 2.8875
1.1875 0.125 2.95
1.1875 0 2.8875
1.25 0.0625 2.8875
1.1875 0.0625 2.95
1.1875 0.125 2.8875
1.1875 0.0625 2.8875
1.375 0 2.8875
1.3125 0 2.95
1.375 0.0625 2.95
1.375 0.125 2.8875
1.3125 0.125 2.95
1.3125 0 2.8875
1.375 0.0625 2.8875
1.3125 0.0625 2.95
1.3125 0.125 2.8875
1.3125 0.0625 2.8875
1.5 0 2.8875
1.4375 0 2.95
1.5 0.0625 2.95
1.5 0.125 2.8875
1.4375 0.125 2.95
1.4375 0 2.8875
1.5 0.0625 2.8875
1.4375 0.0625 2.95
1.4375 0.125 2.8875
1.4375 0.0625 2.8875
1.625 0 2.8875
1.5625 0 2.95
1.625 0.0625 2.95
1.625 0.125 2.8875
1.5625 0.125 2.95
1.5625 0 2.8875
1.625 0.0625 2.8875
1.5625 0.0625 2.95
1.5625 0.125 2.8875
1.5625 0.0625 2.8875
1.75 0 2.8875
1.6875 0 2.95
1.75 0.0625 2.95
1.75 0.125 2.8875
1.6875 0.125 2.95
1.6875 0 2.8875
1.75 0.0625 2.8875
1.6875 0.0625 2.95
1.6875 0.125 2.8875
1.6875 0.0625 2.8875
1.875 0 2.8875
1.8125 0 2.95
1.875 0.0625 2.95
1.875 0.125 2.8875
1.8125 0.125 2.95
1.8125 0 2.8875
1.875 0.0625 2.8875
1.8125 0.0625 2.95
1.8125 0.125 2.8875
1.8125 0.0625 2.8875
2 0 2.8875
1.9375 0 2.95
2 0.0625 2.95
2 0.125 2.8875
1.9375 0.125 2.95
1.9375 0 2.8875
2 0.0625 2.8875
1.9375 0.0625 2.95
1.9375 0.125 2.8875
1.9375 0.0625 2.8875
2.125 0 2.8875
2.0625 0 2.95
2.125 0.0625 2.95
2.125 0.125 2.8875
2.0625 0.125 2.95
2.0625 0 2.8875
2.125 0.0625 2.8875
2.0625 0.0625 2.95
2.0625 0.125 2.8875
2.0625 0.0625 2.8875
2.25 0 2.8875
2.1875 0 2.95
2.25 0.0625 2.95
2.25 0.125 2.8875
2.1875 0.125 2.95
2.1875 0 2.8875
2.25 0.0625 2.8875
2.1875 0.0625 2.95
2.1875 0.125 2.8875
2.1875 0.0625 2.8875
2.375 0 2.8875
2.3125 0 2.95
2.375 0.0625 2.95
2.375 0.125 2.8875
2.3125 0.125 2.95
2.3125 0 2.8875
2.375 0.0625 2.8875
2.3125 0.0625 2.95
2.3125 0.125 2.8875
2.3125 0.0625 2.8875
2.5 0 2.8875
2.4375 0 2.95
2.5 0.0625 2.95
2.5 0.125 2.8875
2.4375 0.125 2.95
2.4375 0 2.8875
2.5 0.0625 2.8875
2.4375 0.0625 2.95
2.4375 0.125 2.8875
2.4375 0.0625 2.8875
2.625 0 2.8875
2.5625 0 2.95
2.625 0.0625 2.95
2.625 0.125 2.8875
2.5625 0.125 2.95
2.5625 0 2.8875
2.625 0.0625 2.8875
2.5625 0.0625 2.95
2.5625 0.125 2.8875
2.5625 0.0625 2.8875
2.75 0 2.8875
2.6875 0 2.95
2.75 0.0625 2.95
2.75 0.125 2.8875
2.6875 0.125 2.95
2.6875 0 2.8875
2.75 0.0625 2.8875
2.6875 0.0625 2.95
2.6875 0.125 2.8875
2.6875 0.0625 2.8875
2.875 0 2.8875
2.8125 0 2.95
2.875 0.0625 2.95
2.875 0.125 2.8875
2.8125 0.125 2.95
2.8125 0 2.8875
2.875 0.0625 2.8875
2.8125 0.0625 2.95
2.8125 0.125 2.8875
2.8125 0.0625 2.8875
3 0 2.8875
2.9375 0 2.95
3 0.0625 2.95
3 0.125 2.8875
2.9375 0.125 2.95
2.9375 0 2.8875
3 0.0625 2.8875
2.9375 0.0625 2.95
2.9375 0.125 2.8875
2.9375 0.0625 2.8875
0.125 0.1875 2.95
0 0.1875 2.95
0.125 0.25 2.8875
0.0625 0.25 2.95
0 0.25 2.8875
0.125 0.1875 2.8875
0.0625 0.1875 2.95
0 0.1875 2.8875
0.0625 0.25 2.8875
0.0625 0.1875 2.8875
0.25 0.1875 2.95
0.25 0.25 2.8875
0.1875 0.25 2.95
0.25 0.1875 2.8875
0.1875 0.1875 2.95
0.1875 0.25 2.8875
0.1875 0.1875 2.8875
0.375 0.1875 2.95
0.375 0.25 2.8875
0.3125 0.25 2.95
0.375 0.1875 2.8875
0.3125 0.1875 2.95
0.3125 0.25 2.8875
0.3125 0.1875 2.8875
0.5 0.1875 2.95
0.5 0.25 2.8875
0.4375 0.25 2.95
0.5 0.1875 2.8875
0.4375 0.1875 2.95
0.4375 0.25 2.8875
0.4375 0.1875 2.8875
0.625 0.1875 2.95
0.625 0.25 2.8875
0.5625 0.25 2.95
0.625 0.1875 2.8875
0.5625 0.1875 2.95
0.5625 0.25 2.8875
0.5625 0.1875 2.8875
0.75 0.1875 2.95
0.75 0.25 2.8875
0.6875 0.25 2.95
0.75 0.1875 2.8875
0.6875 0.1875 2.95
0.6875 0.25 2.8875
0.6875 0.1875 2.8875
0.875 0.1875 2.95
0.875 0.25 2.8875
0.8125 0.25 2.95
0.875 0.1875 2.8875
0.8125 0.1875 2.95
0.8125 0.25 2.8875
0.8125 0.1875 2.8875
1 0.1875 2.95
1 0.25 2.8875
0.9375 0.25 2.95
1 0.1875 2.8875
0.9375 0.1875 2.95
0.9375 0.25 2.8875
0.9375 0.1875 2.8875
1.125 0.1875 2.95
1.125 0.25 2.8875
1.0625 0.25 2.95
1.125 0.1875 2.8875
1.0625 0.1875 2.95
1.0625 0.25 2.8875
1.0625 0.1875 2.8875
1.25 0.1875 2.95
1.25 0.25 2.8875
1.1875 0.25 2.95
1.25 0.1875 2.8875
1.1875 0.1875 2.95
1.1875 0.25 2.8875
1.1875 0.1875 2.8875
1.375 0.1875 2.95
1.375 0.25 2.8875
1.3125 0.25 2.95
1.375 0.1875 2.8875
1.3125 0.1875 2.95
1.3125 0.25 2.8875
1.3125 0.1875 2.8875
1.5 0.1875 2.95
1.5 0.25 2.8875
1.4375 0.25 2.95
1.5 0.1875 2.8875
1.4375 0.1875 2.95
1.4375 0.25 2.8875
1.4375 0.1875 2.8875
1.625 0.1875 2.95
1.625 0.25 2.8875
1.5625 0.25 2.95
1.625 0.1875 2.8875
1.5625 0.1875 2.95
1.5625 0.25 2.8875
1.5625 0.1875 2.8875
1.75 0.1875 2.95
1.75 0.25 2.8875
1.6875 0.25 2.95
1.75 0.1875 2.8875
1.6875 0.1875 2.95
1.6875 0.25 2.8875
1.6875 0.1875 2.8875
1.875 0.1875 2.95
1.875 0.25 2.8875
1.8125 0.25 2.95
1.875 0.1875 2.8875
1.8125 0.1875 2.95
1.8125 0.25 2.8875
1.8125 0.1875 2.8875
2 0.1875 2.95
2 0.25 2.8875
1.9375 0.25 2.95
2 0.1875 2.8875
1.9375 0.1875 2.95
1.9375 0.25 2.8875
1.9375 0.1875 2.8875
2.125 0.1875 2.95
2.125 0.25 2.8875
2.0625 0.25 2.95
2.125 0.1875 2.8875
2.0625 0.1875 2.95
2.0625 0.25 2.8875
2.0625 0.1875 2.8875
2.25 0.1875 2.95
2.25 0.25 2.8875
2.1875 0.25 2.95
2.25 0.1875 2.8875
2.1875 0.1875 2.95
2.1875 0.25 2.8875
2.1875 0.1875 2.8875
2.375 0.1875 2.95
2.375 0.25 2.8875
2.3125 0.25 2.95
2.375 0.1875 2.8875
2.3125 0.1875 2.95
2.3125 0.25 2.8875
2.3125 0.1875 2.8875
2.5 0.1875 2.95
2.5 0.25 2.8875
2.4375 0.25 2.95
2.5 0.1875 2.8875
2.4375 0.1875 2.95
2.4375 0.25 2.8875
2.4375 0.1875 2.8875
2.625 0.1875 2.95
2.625 0.25 2.8875
2.5625 0.25 2.95
2.625 0.1875 2.8875
2.5625 0.1875 2.95
2.5625 0.25 2.8875
2.5625 0.1875 2.8875
2.75 0.1875 2.95
2.75 0.25 2.8875
2.6875 0.25 2.95
2.75 0.1875 2.8875
2.6875 0.1875 2.95
2.6875 0.25 2.8875
2.6875 0.1875 2.8875
2.875 0.1875 2.95
2.875 0.25 2.8875
2.8125 0.25 2.95
2.875 0.1875 2.8875
2.8125 0.1875 2.95
2.8125 0.25 2.8875
2.8125 0.1875 2.8875
3 0.1875 2.95
3 0.25 2.8875
2.9375 0.25 2.95
3 0.1875 2.8875
2.9375 0.1875 2.95
2.9375 0.25 2.8875
2.9375 0.1875 2.8875
0.125 0.3125 2.95
0 0.3125 2.95
0.125 0.375 2.8875
0.0625 0.375 2.95
0 0.375 2.8875
0.125 0.3125 2.8875
0.0625 0.3125 2.95
0 0.3125 2.8875
0.0625 0.375 2.8875
0.0625 0.3125 2.8875
0.25 0.3125 2.95
0.25 0.375 2.8875
0.1875 0.375 2.95
0.25 0.3125 2.8875
0.1875 0.3125 2.95
0.1875 0.375 2.8875
0.1875 0.3125 2.8875
0.375 0.3125 2.95
0.375 0.375 2.8875
0.3125 0.375 2.95
0.375 0.3125 2.8875
0.3125 0.3125 2.95
0.3125 0.375 2.8875
0.3125 0.3125 2.8875
0.5 0.3125 2.95
0.5 0.375 2.8875
0.4375 0.375 2.95
0.5 0.3125 2.8875
0.4375 0.3125 2.95
0.4375 0.375 2.8875
0.4375 0.3125 2.8875
0.625 0.3125 2.95
0.625 0.375 2.8875
0.5625 0.375 2.95
0.625 0.3125 2.8875
0.5625 0.3125 2.95
0.5625 0.375 2.8875
0.5625 0.3125 2.8875
0.75 0.3125 2.95
0.75 0.375 2.8875
0.6875 0.375 2.95
0.75 0.3125 2.8875
0.6875 0.3125 2.95
0.6875 0.375 2.8875
0.6875 0.3125 2.8875
0.875 0.3125 2.95
0.875 0.375 2.8875
0.8125 0.375 2.95
0.875 0.3125 2.8875
0.8125 0.3125 2.95
0.8125 0.375 2.8875
0.8125 0.3125 2.8875
1 0.3125 2.95
1 0.375 2.8875
0.9375 0.375 2.95
1 0.3125 2.8875
0.9375 0.3125 2.95
0.9375 0.375 2.8875
0.9375 0.3125 2.8875
1.125 0.3125 2.95
1.125 0.375 2.8875
1.0625 0.375 2.95
1.125 0.3125 2.8875
1.0625 0.3125 2.95
1.0625 0.375 2.8875
1.0625 0.3125 2.8875
1.25 0.3125 2.95
1.25 0.375 2.8875
1.1875 0.375 2.95
1.25 0.3125 2.8875
1.1875 0.3125 2.95
1.1875 0.375 2.8875
1.1875 0.3125 2.8875
1.375 0.3125 2.95
1.375 0.375 2.8875
1.3125 0.375 2.95
1.375 0.3125 2.8875
1.3125 0.3125 2.95
1.3125 0.375 2.8875
1.3125 0.3125 2.8875
1.5 0.3125 2.95
1.5 0.375 2.8875
1.4375 0.375 2.95
1.5 0.3125 2.8875
1.4375 0.3125 2.95
1.4375 0.375 2.8875
1.4375 0.3125 2.8875
1.625 0.3125 2.95
1.625 0.375 2.8875
1.5625 0.375 2.95
1.625 0.3125 2.8875
1.5625 0.3125 2.95
1.5625 0.375 2.8875
1.5625 0.3125 2.8875
1.75 0.3125 2.95
1.75 0.375 2.8875
1.6875 0.375 2.95
1.75 0.3125 2.8875
1.6875 0.3125 2.95
1.6875 0.375 2.8875
1.6875 0.3125 2.8875
1.875 0.3125 2.95
1.875 0.375 2.8875
1.8125 0.375 2.95
1.875 0.3125 2.8875
1.8125 0.3125 2.95
1.8125 0.375 2.8875
1.8125 0.3125 2.8875
2 0.3125 2.95
2 0.375 2.8875
1.9375 0.375 2.95
2 0.3125 2.8875
1.9375 0.3125 2.95
1.9375 0.375 2.8875
1.9375 0.3125 2.8875
2.125 0.3125 2.95
2.125 0.375 2.8875
2.0625 0.375 2.95
2.125 0.3125 2.8875
2.0625 0.3125 2.95
2.0625 0.375 2.8875
2.0625 0.3125 2.8875
2.25 0.3125 2.95
2.25 0.375 2.8875
2.1875 0.375 2.95
2.25 0.3125 2.8875
2.1875 0.3125 2.95
2.1875 0.375 2.8875
2.1875 0.3125 2.8875
2.375 0.3125 2.95
2.375 0.375 2.8875
2.3125 0.375 2.95
2.375 0.3125 2.8875
2.3125 0.3125 2.95
2.3125 0.375 2.8875
2.3125 0.3125 2.8875
2.5 0.3125 2.95
2.5 0.375 2.8875
2.4375 0.375 2.95
2.5 0.3125 2.8875
2.4375 0.3125 2.95
2.4375 0.375 2.8875
2.4375 0.3125 2.8875
2.625 0.3125 2.95
2.625 0.375 2.8875
2.5625 0.375 2.95
2.625 0.3125 2.8875
2.5625 0.3125 2.95
2.5625 0.375 2.8875
2.5625 0.3125 2.8875
2.75 0.3125 2.95
2.75 0.375 2.8875
2.6875 0.375 2.95
2.75 0.3125 2.8875
2.6875 0.3125 2.95
2.6875 0.375 2.8875
2.6875 0.3125 2.8875
2.875 0.3125 2.95
2.875 0.375 2.8875
2.8125 0.375 2.95
2.875 0.3125 2.8875
2.8125 0.3125 2.95
2.8125 0.375 2.8875
2.8125 0.3125 2.8875
3 0.3125 2.95
3 0.375 2.8875
2.9375 0.375 2.95
3 0.3125 2.8875
2.9375 0.3125 2.95
2.9375 0.375 2.8875
2.9375 0.3125 2.8875
0.125 0.4375 2.95
0 0.4375 2.95
0.125 0.5 2.8875
0.0625 0.5 2.95
0 0.5 2.8875
0.125 0.4375 2.8875
0.0625 0.4375 2.95
0 0.4375 2.8875
0.0625 0.5 2.8875
0.0625 0.4375 2.8875
0.25 0.4375 2.95
0.25 0.5 2.8875
0.1875 0.5 2.95
0.25 0.4375 2.8875
0.1875 0.4375 2.95
0.1875 0.5 2.8875
0.1875 0.4375 2.8875
0.375 0.4375 2.95
0.375 0.5 2.8875
0.3125 0.5 2.95
0.375 0.4375 2.8875
0.3125 0.4375 2.95
0.3125 0.5 2.8875
0.3125 0.4375 2.8875
0.5 0.4375 2.95
0.5 0.5 2.8875
0.4375 0.5 2.95
0.5 0.4375 2.8875
0.4375 0.4375 2.95
0.4375 0.5 2.8875
0.4375 0.4375 2.8875
0.625 0.4375 2.95
0.625 0.5 2.8875
0.5625 0.5 2.95
0.625 0.4375 2.8875
0.5625 0.4375 2.95
0.5625 0.5 2.8875
0.5625 0.4375 2.8875
0.75 0.4375 2.95
0.75 0.5 2.8875
0.6875 0.5 2.95
0.75 0.4375 2.8875
0.6875 0.4375 2.95
0.6875 0.5 2.8875
0.6875 0.4375 2.8875
0.875 0.4375 2.95
0.875 0.5 2.8875
0.8125 0.5 2.95
0.875 0.4375 2.8875
0.8125 0.4375 2.95
0.8125 0.5 2.8875
0.8125 0.4375 2.8875
1 0.4375 2.95
1 0.5 2.8875
0.9375 0.5 2.95
1 0.4375 2.8875
0.9375 0.4375 2.95
0.9375 0.5 2.8875
0.9375 0.4375 2.8875
1.125 0.4375 2.95
1.125 0.5 2.8875
1.0625 0.5 2.95
1.125 0.4375 2.8875
1.0625 0.4375 2.95
1.0625 0.5 2.8875
1.0625 0.4375 2.8875
1.25 0.4375 2.95
1.25 0.5 2.8875
1.1875 0.5 2.95
1.25 0.4375 2.8875
1.1875 0.4375 2.95
1.1875 0.5 2.8875
1.1875 0.4375 2.8875
1.375 0.4375 2.95
1.375 0.5 2.8875
1.3125 0.5 2.95
1.375 0.4375 2.8875
1.3125 0.4375 2.95
1.3125 0.5 2.8875
1.3125 0.4375 2.8875
1.5 0.4375 2.95
1.5 0.5 2.8875
1.4375 0.5 2.95
1.5 0.4375 2.8875
1.4375 0.4375 2.95
1.4375 0.5 2.8875
1.4375 0.4375 2.8875
1.625 0.4375 2.95
1.625 0.5 2.8875
1.5625 0.5 2.95
1.625 0.4375 2.8875
1.5625 0.4375 2.95
1.5625 0.5 2.8875
1.5625 0.4375 2.8875
1.75 0.4375 2.95
1.75 0.5 2.8875
1.6875 0.5 2.95
1.75 0.4375 2.8875
1.6875 0.4375 2.95
1.6875 0.5 2.8875
1.6875 0.4375 2.8875
1.875 0.4375 2.95
1.875 0.5 2.8875
1.8125 0.5 2.95
1.875 0.4375 2.8875
1.8125 0.4375 2.95
1.8125 0.5 2.8875
1.8125 0.4375 2.8875
2 0.4375 2.95
2 0.5 2.8875
1.9375 0.5 2.95
2 0.4375 2.8875
1.9375 0.4375 2.95
1.9375 0.5 2.8875
1.9375 0.4375 2.8875
2.125 0.4375 2.95
2.125 0.5 2.8875
2.0625 0.5 2.95
2.125 0.4375 2.8875
2.0625 0.4375 2.95
2.0625 0.5 2.8875
2.0625 0.4375 2.8875
2.25 0.4375 2.95
2.25 0.5 2.8875
2.1875 0.5 2.95
2.25 0.4375 2.8875
2.1875 0.4375 2.95
2.1875 0.5 2.8875
2.1875 0.4375 2.8875
2.375 0.4375 2.95
2.375 0.5 2.8875
2.3125 0.5 2.95
2.375 0.4375 2.8875
2.3125 0.4375 2.95
2.3125 0.5 2.8875
2.3125 0.4375 2.8875
2.5 0.4375 2.95
2.5 0.5 2.8875
2.4375 0.5 2.95
2.5 0.4375 2.8875
2.4375 0.4375 2.95
2.4375 0.5 2.8875
2.4375 0.4375 2.8875
2.625 0.4375 2.95
2.625 0.5 2.8875
2.5625 0.5 2.95
2.625 0.4375 2.8875
2.5625 0.4375 2.95
2.5625 0.5 2.8875
2.5625 0.4375 2.8875
2.75 0.4375 2.95
2.75 0.5 2.8875
2.6875 0.5 2.95
2.75 0.4375 2.8875
2.6875 0.4375 2.95
2.6875 0.5 2.8875
2.6875 0.4375 2.8875
2.875 0.4375 2.95
2.875 0.5 2.8875
2.8125 0.5 2.95
2.875 0.4375 2.8875
2.8125 0.4375 2.95
2.8125 0.5 2.8875
2.8125 0.4375 2.8875
3 0.4375 2.95
3 0.5 2.8875
2.9375 0.5 2.95
3 0.4375 2.8875
2.9375 0.4375 2.95
2.9375 0.5 2.8875
2.9375 0.4375 2.8875
0.125 0.5625 2.95
0 0.5625 2.95
0.125 0.625 2.8875
0.0625 0.625 2.95
0 0.625 2.8875
0.125 0.5625 2.8875
0.0625 0.5625 2.95
0 0.5625 2.8875
0.0625 0.625 2.8875
0.0625 0.5625 2.8875
0.25 0.5625 2.95
0.25 0.625 2.8875
0.1875 0.625 2.95
0.25 0.5625 2.8875
0.1875 0.5625 2.95
0.1875 0.625 2.8875
0.1875 0.5625 2.8875
0.375 0.5625 2.95
0.375 0.625 2.8875
0.3125 0.625 2.95
0.375 0.5625 2.8875
0.3125 0.5625 2.95
0.3125 0.625 2.8875
0.3125 0.5625 2.8875
0.5 0.5625 2.95
0.5 0.625 2.8875
0.4375 0.625 2.95
0.5 0.5625 2.8875
0.4375 0.5625 2.95
0.4375 0.625 2.8875
0.4375 0.5625 2.8875
0.625 0.5625 2.95
0.625 0.625 2.8875
0.5625 0.625 2.95
0.625 0.5625 2.8875
0.5625 0.5625 2.95
0.5625 0.625 2.8875
0.5625 0.5625 2.8875
0.75 0.5625 2.95
0.75 0.625 2.8875
0.6875 0.625 2.95
0.75 0.5625 2.8875
0.6875 0.5625 2.95
0.6875 0.625 2.8875
0.6875 0.5625 2.8875
0.875 0.5625 2.95
0.875 0.625 2.8875
0.8125 0.625 2.95
0.875 0.5625 2.8875
0.8125 0.5625 2.95
0.8125 0.625 2.8875
0.8125 0.5625 2.8875
1 0.5625 2.95
1 0.625 2.8875
0.9375 0.625 2.95
1 0.5625 2.8875
0.9375 0.5625 2.95
0.9375 0.625 2.8875
0.9375 0.5625 2.8875
1.125 0.5625 2.95
1.125 0.625 2.8875
1.0625 0.625 2.95
1.125 0.5625 2.8875
1.0625 0.5625 2.95
1.0625 0.625 2.8875
1.0625 0.5625 2.8875
1.25 0.5625 2.95
1.25 0.625 2.8875
1.1875 0.625 2.95
1.25 0.5625 2.8875
1.1875 0.5625 2.95
1.1875 0.625 2.8875
1.1875 0.5625 2.8875
1.375 0.5625 2.95
1.375 0.625 2.8875
1.3125 0.625 2.95
1.375 0.5625 2.8875
1.3125 0.5625 2.95
1.3125 0.625 2.8875
1.3125 0.5625 2.8875
1.5 0.5625 2.95
1.5 0.625 2.8875
1.4375 0.625 2.95
1.5 0.5625 2.8875
1.4375 0.5625 2.95
1.4375 0.625 2.8875
1.4375 0.5625 2.8875
1.625 0.5625 2.95
1.625 0.625 2.8875
1.5625 0.625 2.95
1.625 0.5625 2.8875
1.5625 0.5625 2.95
1.5625 0.625 2.8875
1.5625 0.5625 2.8875
1.75 0.5625 2.95
1.75 0.625 2.8875
1.6875 0.625 2.95
1.75 0.5625 2.8875
1.6875 0.5625 2.95
1.6875 0.625 2.8875
1.6875 0.5625 2.8875
1.875 0.5625 2.95
1.875 0.625 2.8875
1.8125 0.625 2.95
1.875 0.5625 2.8875
1.8125 0.5625 2.95
1.8125 0.625 2.8875
1.8125 0.5625 2.8875
2 0.5625 2.95
2 0.625 2.8875
1.9375 0.625 2.95
2 0.5625 2.8875
1.9375 0.5625 2.95
1.9375 0.625 2.8875
1.9375 0.5625 2.8875
2.125 0.5625 2.95
2.125 0.625 2.8875
2.0625 0.625 2.95
2.125 0.5625 2.8875
2.0625 0.5625 2.95
2.0625 0.625 2.8875
2.0625 0.5625 2.8875
2.25 0.5625 2.95
2.25 0.625 2.8875
2.1875 0.625 2.95
2.25 0.5625 2.8875
2.1875 0.5625 2.95
2.1875 0.625 2.8875
2.1875 0.5625 2.8875
2.375 0.5625 2.95
2.375 0.625 2.8875
2.3125 0.625 2.95
2.375 0.5625 2.8875
2.3125 0.5625 2.95
2.3125 0.625 2.8875
2.3125 0.5625 2.8875
2.5 0.5625 2.95
2.5 0.625 2.8875
2.4375 0.625 2.95
2.5 0.5625 2.8875
2.4375 0.5625 2.95
2.4375 0.625 2.8875
2.4375 0.5625 2.8875
2.625 0.5625 2.95
2.625 0.625 2.8875
2.5625 0.625 2.95
2.625 0.5625 2.8875
2.5625 0.5625 2.95
2.5625 0.625 2.8875
2.5625 0.5625 2.8875
2.75 0.5625 2.95
2.75 0.625 2.8875
2.6875 0.625 2.95
2.75 0.5625 2.8875
2.6875 0.5625 2.95
2.6875 0.625 2.8875
2.6875 0.5625 2.8875
2.875 0.5625 2.95
2.875 0.625 2.8875
2.8125 0.625 2.95
2.875 0.5625 2.8875
2.8125 0.5625 2.95
2.8125 0.625 2.8875
2.8125 0.5625 2.8875
3 0.5625 2.95
3 0.625 2.8875
2.9375 0.625 2.95
3 0.5625 2.8875
2.9375 0.5625 2.95
2.9375 0.625 2.8875
2.9375 0.5625 2.8875
0.125 0.6875 2.95
0 0.6875 2.95
0.125 0.75 2.8875
0.0625 0.75 2.95
0 0.75 2.8875
0.125 0.6875 2.8875
0.0625 0.6875 2.95
0 0.6875 2.8875
0.0625 0.75 2.8875
0.0625 0.6875 2.8875
0.25 0.6875 2.95
0.25 0.75 2.8875
0.1875 0.75 2.95
0.25 0.6875 2.8875
0.1875 0.6875 2.95
0.1875 0.75 2.8875
0.1875 0.6875 2.8875
0.375 0.6875 2.95
0.375 0.75 2.8875
0.3125 0.75 2.95
0.375 0.6875 2.8875
0.3125 0.6875 2.95
0.3125 0.75 2.8875
0.3125 0.6875 2.8875
0.5 0.6875 2.95
0.5 0.75 2.8875
0.4375 0.75 2.95
0.5 0.6875 2.8875
0.4375 0.6875 2.95
0.4375 0.75 2.8875
0.4375 0.6875 2.8875
0.625 0.6875 2.95
0.625 0.75 2.8875
0.5625 0.75 2.95
0.625 0.6875 2.8875
0.5625 0.6875 2.95
0.5625 0.75 2.8875
0.5625 0.6875 2.8875
0.75 0.6875 2.95
0.75 0.75 2.8875
0.6875 0.75 2.95
0.75 0.6875 2.8875
0.6875 0.6875 2.95
0.6875 0.75 2.8875
0.6875 0.6875 2.8875
0.875 0.6875 2.95
0.875 0.75 2.8875
0.8125 0.75 2.95
0.875 0.6875 2.8875
0.8125 0.6875 2.95
0.8125 0.75 2.8875
0.8125 0.6875 2.8875
1 0.6875 2.95
1 0.75 2.8875
0.9375 0.75 2.95
1 0.6875 2.8875
0.9375 0.6875 2.95
0.9375 0.75 2.8875
0.9375 0.6875 2.8875
1.125 0.6875 2.95
1.125 0.75 2.8875
1.0625 0.75 2.95
1.125 0.6875 2.8875
1.0625 0.6875 2.95
1.0625 0.75 2.8875
1.0625 0.6875 2.8875
1.25 0.6875 2.95
1.25 0.75 2.8875
1.1875 0.75 2.95
1.25 0.6875 2.8875
1.1875 0.6875 2.95
1.1875 0.75 2.8875
1.1875 0.6875 2.8875
1.375 0.6875 2.95
1.375 0.75 2.8875
1.3125 0.75 2.95
1.375 0.6875 2.8875
1.3125 0.6875 2.95
1.3125 0.75 2.8875
1.3125 0.6875 2.8875
1.5 0.6875 2.95
1.5 0.75 2.8875
1.4375 0.75 2.95
1.5 0.6875 2.8875
1.4375 0.6875 2.95
1.4375 0.75 2.8875
1.4375 0.6875 2.8875
1.625 0.6875 2.95
1.625 0.75 2.8875
1.5625 0.75 2.95
1.625 0.6875 2.8875
1.5625 0.6875 2.95
1.5625 0.75 2.8875
1.5625 0.6875 2.8875
1.75 0.6875 2.95
1.75 0.75 2.8875
1.6875 0.75 2.95
1.75 0.6875 2.8875
1.6875 0.6875 2.95
1.6875 0.75 2.8875
1.6875 0.6875 2.8875
1.875 0.6875 2.95
1.875 0.75 2.8875
1.8125 0.75 2.95
1.875 0.6875 2.8875
1.8125 0.6875 2.95
1.8125 0.75 2.8875
1.8125 0.6875 2.8875
2 0.6875 2.95
2 0.75 2.8875
1.9375 0.75 2.95
2 0.6875 2.8875
1.9375 0.6875 2.95
1.9375 0.75 2.8875
1.9375 0.6875 2.8875
2.125 0.6875 2.95
2.125 0.75 2.8875
2.0625 0.75 2.95
2.125 0.6875 2.8875
2.0625 0.6875 2.95
2.0625 0.75 2.8875
2.0625 0.6875 2.8875
2.25 0.6875 2.95
2.25 0.75 2.8875
2.1875 0.75 2.95
2.25 0.6875 2.8875
2.1875 0.6875 2.95
2.1875 0.75 2.8875
2.1875 0.6875 2.8875
2.375 0.6875 2.95
2.375 0.75 2.8875
2.3125 0.75 2.95
2.375 0.6875 2.8875
2.3125 0.6875 2.95
2.3125 0.75 2.8875
2.3125 0.6875 2.8875
2.5 0.6875 2.95
2.5 0.75 2.8875
2.4375 0.75 2.95
2.5 0.6875 2.8875
2.4375 0.6875 2.95
2.4375 0.75 2.8875
2.4375 0.6875 2.8875
2.625 0.6875 2.95
2.625 0.75 2.8875
2.5625 0.75 2.95
2.625 0.6875 2.8875
2.5625 0.6875 2.95
2.5625 0.75 2.8875
2.5625 0.6875 2.8875
2.75 0.6875 2.95
2.75 0.75 2.8875
2.6875 0.75 2.95
2.75 0.6875 2.8875
2.6875 0.6875 2.95
2.6875 0.75 2.8875
2.6875 0.6875 2.8875
2.875 0.6875 2.95
2.875 0.75 2.8875
2.8125 0.75 2.95
2.875 0.6875 2.8875
2.8125 0.6875 2.95
2.8125 0.75 2.8875
2.8125 0.6875 2.8875
3 0.6875 2.95
3 0.75 2.8875
2.9375 0.75 2.95
3 0.6875 2.8875
2.9375 0.6875 2.95
2.9375 0.75 2.8875
2.9375 0.6875 2.8875
0.125 0.8125 2.95
0 0.8125 2.95
0.125 0.875 2.8875
0.0625 0.875 2.95
0 0.875 2.8875
0.125 0.8125 2.8875
0.0625 0.8125 2.95
0 0.8125 2.8875
0.0625 0.875 2.8875
0.0625 0.8125 2.8875
0.25 0.8125 2.95
0.25 0.875 2.8875
0.1875 0.875 2.95
0.25 0.8125 2.8875
0.1875 0.8125 2.95
0.1875 0.875 2.8875
0.1875 0.8125 2.8875
0.375 0.8125 2.95
0.375 0.875 2.8875
0.3125 0.875 2.95
0.375 0.8125 2.8875
0.3125 0.8125 2.95
0.3125 0.875 2.8875
0.3125 0.8125 2.8875
0.5 0.8125 2.95
0.5 0.875 2.8875
0.4375 0.875 2.95
0.5 0.8125 2.8875
0.4375 0.8125 2.95
0.4375 0.875 2.8875
0.4375 0.8125 2.8875
0.625 0.8125 2.95
0.625 0.875 2.8875
0.5625 0.875 2.95
0.625 0.8125 2.8875
0.5625 0.8125 2.95
0.5625 0.875 2.8875
0.5625 0.8125 2.8875
0.75 0.8125 2.95
0.75 0.875 2.8875
0.6875 0.875 2.95
0.75 0.8125 2.8875
0.6875 0.8125 2.95
0.6875 0.875 2.8875
0.6875 0.8125 2.8875
0.875 0.8125 2.95
0.875 0.875 2.8875
0.8125 0.875 2.95
0.875 0.8125 2.8875
0.8125 0.8125 2.95
0.8125 0.875 2.8875
0.8125 0.8125 2.8875
1 0.8125 2.95
1 0.875 2.8875
0.9375 0.875 2.95
1 0.8125 2.8875
0.9375 0.8125 2.95
0.9375 0.875 2.8875
0.9375 0.8125 2.8875
1.125 0.8125 2.95
1.125 0.875 2.8875
1.0625 0.875 2.95
1.125 0.8125 2.8875
1.0625 0.8125 2.95
1.0625 0.875 2.8875
1.0625 0.8125 2.8875
1.25 0.8125 2.95
1.25 0.875 2.8875
1.1875 0.875 2.95
1.25 0.8125 2.8875
1.1875 0.8125 2.95
1.1875 0.875 2.8875
1.1875 0.8125 2.8875
1.375 0.8125 2.95
1.375 0.875 2.8875
1.3125 0.875 2.95
1.375 0.8125 2.8875
1.3125 0.8125 2.95
1.3125 0.875 2.8875
1.3125 0.8125 2.8875
1.5 0.8125 2.95
1.5 0.875 2.8875
1.4375 0.875 2.95
1.5 0.8125 2.8875
1.4375 0.8125 2.95
1.4375 0.875 2.8875
1.4375 0.8125 2.8875
1.625 0.8125 2.95
1.625 0.875 2.8875
1.5625 0.875 2.95
1.625 0.8125 2.8875
1.5625 0.8125 2.95
1.5625 0.875 2.8875
1.5625 0.8125 2.8875
1.75 0.8125 2.95
1.75 0.875 2.8875
1.6875 0.875 2.95
1.75 0.8125 2.8875
1.6875 0.8125 2.95
1.6875 0.875 2.8875
1.6875 0.8125 2.8875
1.875 0.8125 2.95
1.875 0.875 2.8875
1.8125 0.875 2.95
1.875 0.8125 2.8875
1.8125 0.8125 2.95
1.8125 0.875 2.8875
1.8125 0.8125 2.8875
2 0.8125 2.95
2 0.875 2.8875
1.9375 0.875 2.95
2 0.8125 2.8875
1.9375 0.8125 2.95
1.9375 0.875 2.8875
1.9375 0.8125 2.8875
2.125 0.8125 2.95
2.125 0.875 2.8875
2.0625 0.875 2.95
2.125 0.8125 2.8875
2.0625 0.8125 2.95
2.0625 0.875 2.8875
2.0625 0.8125 2.8875
2.25 0.8125 2.95
2.25 0.875 2.8875
2.1875 0.875 2.95
2.25 0.8125 2.8875
2.1875 0.8125 2.95
2.1875 0.875 2.8875
2.1875 0.8125 2.8875
2.375 0.8125 2.95
2.375 0.875 2.8875
2.3125 0.875 2.95
2.375 0.8125 2.8875
2.3125 0.8125 2.95
2.3125 0.875 2.8875
2.3125 0.8125 2.8875
2.5 0.8125 2.95
2.5 0.875 2.8875
2.4375 0.875 2.95
2.5 0.8125 2.8875
2.4375 0.8125 2.95
2.4375 0.875 2.8875
2.4375 0.8125 2.8875
2.625 0.8125 2.95
2.625 0.875 2.8875
2.5625 0.875 2.95
2.625 0.8125 2.8875
2.5625 0.8125 2.95
2.5625 0.875 2.8875
2.5625 0.8125 2.8875
2.75 0.8125 2.95
2.75 0.875 2.8875
2.6875 0.875 2.95
2.75 0.8125 2.8875
2.6875 0.8125 2.95
2.6875 0.875 2.8875
2.6875 0.8125 2.8875
2.875 0.8125 2.95
2.875 0.875 2.8875
2.8125 0.875 2.95
2.875 0.8125 2.8875
2.8125 0.8125 2.95
2.8125 0.875 2.8875
2.8125 0.8125 2.8875
3 0.8125 2.95
3 0.875 2.8875
2.9375 0.875 2.95
3 0.8125 2.8875
2.9375 0.8125 2.95
2.9375 0.875 2.8875
2.9375 0.8125 2.8875
0.125 0.9375 2.95
0 0.9375 2.95
0.125 1 2.8875
0.0625 1 2.95
0 1 2.8875
0.125 0.9375 2.8875
0.0625 0.9375 2.95
0 0.9375 2.8875
0.0625 1 2.8875
0.0625 0.9375 2.8875
0.25 0.9375 2.95
0.25 1 2.8875
0.1875 1 2.95
0.25 0.9375 2.8875
0.1875 0.9375 2.95
0.1875 1 2.8875
0.1875 0.9375 2.8875
0.375 0.9375 2.95
0.375 1 2.8875
0.3125 1 2.95
0.375 0.9375 2.8875
0.3125 0.9375 2.95
0.3125 1 2.8875
0.3125 0.9375 2.8875
0.5 0.9375 2.95
0.5 1 2.8875
0.4375 1 2.95
0.5 0.9375 2.8875
0.4375 0.9375 2.95
0.4375 1 2.8875
0.4375 0.9375 2.8875
0.625 0.9375 2.95
0.625 1 2.8875
0.5625 1 2.95
0.625 0.9375 2.8875
0.5625 0.9375 2.95
0.5625 1 2.8875
0.5625 0.9375 2.8875
0.75 0.9375 2.95
0.75 1 2.8875
0.6875 1 2.95
0.75 0.9375 2.8875
0.6875 0.9375 2.95
0.6875 1 2.8875
0.6875 0.9375 2.8875
0.875 0.9375 2.95
0.875 1 2.8875
0.8125 1 2.95
0.875 0.9375 2.8875
0.8125 0.9375 2.95
0.8125 1 2.8875
0.8125 0.9375 2.8875
1 0.9375 2.95
1 1 2.8875
0.9375 1 2.95
1 0.9375 2.8875
0.9375 0.9375 2.95
0.9375 1 2.8875
0.9375 0.9375 2.8875
1.125 0.9375 2.95
1.125 1 2.8875
1.0625 1 2.95
1.125 0.9375 2.8875
1.0625 0.9375 2.95
1.0625 1 2.8875
1.0625 0.9375 2.8875
1.25 0.9375 2.95
1.25 1 2.8875
1.1875 1 2.95
1.25 0.9375 2.8875
1.1875 0.9375 2.95
1.1875 1 2.8875
1.1875 0.9375 2.8875
1.375 0.9375 2.95
1.375 1 2.8875
1.3125 1 2.95
1.375 0.9375 2.8875
1.3125 0.9375 2.95
1.3125 1 2.8875
1.3125 0.9375 2.8875
1.5 0.9375 2.95
1.5 1 2.8875
1.4375 1 2.95
1.5 0.9375 2.8875
1.4375 0.9375 2.95
1.4375 1 2.8875
1.4375 0.9375 2.8875
1.625 0.9375 2.95
1.625 1 2.8875
1.5625 1 2.95
1.625 0.9375 2.8875
1.5625 0.9375 2.95
1.5625 1 2.8875
1.5625 0.9375 2.8875
1.75 0.9375 2.95
1.75 1 2.8875
1.6875 1 2.95
1.75 0.9375 2.8875
1.6875 0.9375 2.95
1.6875 1 2.8875
1.6875 0.9375 2.8875
1.875 0.9375 2.95
1.875 1 2.8875
1.8125 1 2.95
1.875 0.9375 2.8875
1.8125 0.9375 2.95
1.8125 1 2.8875
1.8125 0.9375 2.8875
2 0.9375 2.95
2 1 2.8875
1.9375 1 2.95
2 0.9375 2.8875
1.9375 0.9375 2.95
1.9375 1 2.8875
1.9375 0.9375 2.8875
2.125 0.9375 2.95
2.125 1 2.8875
2.0625 1 2.95
2.125 0.9375 2.8875
2.0625 0.9375 2.95
2.0625 1 2.8875
2.0625 0.9375 2.8875
2.25 0.9375 2.95
2.25 1 2.8875
2.1875 1 2.95
2.25 0.9375 2.8875
2.1875 0.9375 2.95
2.1875 1 2.8875
2.1875 0.9375 2.8875
2.375 0.9375 2.95
2.375 1 2.8875
2.3125 1 2.95
2.375 0.9375 2.8875
2.3125 0.9375 2.95
2.3125 1 2.8875
2.3125 0.9375 2.8875
2.5 0.9375 2.95
2.5 1 2.8875
2.4375 1 2.95
2.5 0.9375 2.8875
2.4375 0.9375 2.95
2.4375 1 2.8875
2.4375 0.9375 2.8875
2.625 0.9375 2.95
2.625 1 2.8875
2.5625 1 2.95
2.625 0.9375 2.8875
2.5625 0.9375 2.95
2.5625 1 2.8875
2.5625 0.9375 2.8875
2.75 0.9375 2.95
2.75 1 2.8875
2.6875 1 2.95
2.75 0.9375 2.8875
2.6875 0.9375 2.95
2.6875 1 2.8875
2.6875 0.9375 2.8875
2.875 0.9375 2.95
2.875 1 2.8875
2.8125 1 2.95
2.875 0.9375 2.8875
2.8125 0.9375 2.95
2.8125 1 2.8875
2.8125 0.9375 2.8875
3 0.9375 2.95
3 1 2.8875
2.9375 1 2.95
3 0.9375 2.8875
2.9375 0.9375 2.95
2.9375 1 2.8875
2.9375 0.9375 2.8875
0.125 0 3.0125
0.0625 0 3.075
0 0 3.0125
0.125 0.0625 3.075
0 0.0625 3.075
0.125 0.125 3.0125
0.0625 0.125 3.075
0 0.125 3.0125
0.0625 0 3.0125
0.125 0.0625 3.0125
0.0625 0.0625 3.075
0 0.0625 3.0125
0.0625 0.125 3.0125
0.0625 0.0625 3.0125
0.25 0 3.0125
0.1875 0 3.075
0.25 0.0625 3.075
0.25 0.125 3.0125
0.1875 0.125 3.075
0.1875 0 3.0125
0.25 0.0625 3.0125
0.1875 0.0625 3.075
0.1875 0.125 3.0125
0.1875 0.0625 3.0125
0.375 0 3.0125
0.3125 0 3.075
0.375 0.0625 3.075
0.375 0.125 3.0125
0.3125 0.125 3.075
0.3125 0 3.0125
0.375 0.0625 3.0125
0.3125 0.0625 3.075
0.3125 0.125 3.0125
0.3125 0.0625 3.0125
0.5 0 3.0125
0.4375 0 3.075
0.5 0.0625 3.075
0.5 0.125 3.0125
0.4375 0.125 3.075
0.4375 0 3.0125
0.5 0.0625 3.0125
0.4375 0.0625 3.075
0.4375 0.125 3.0125
0.4375 0.0625 3.0125
0.625 0 3.0125
0.5625 0 3.075
0.625 0.0625 3.075
0.625 0.125 3.0125
0.5625 0.125 3.075
0.5625 0 3.0125
0.625 0.0625 3.0125
0.5625 0.0625 3.075
0.5625 0.125 3.0125
0.5625 0.0625 3.0125
0.75 0 3.0125
0.6875 0 3.075
0.75 0.0625 3.075
0.75 0.125 3.0125
0.6875 0.125 3.075
0.6875 0 3.0125
0.75 0.0625 3.0125
0.6875 0.0625 3.075
0.6875 0.125 3.0125
0.6875 0.0625 3.0125
0.875 0 3.0125
0.8125 0 3.075
0.875 0.0625 3.075
0.875 0.125 3.0125
0.8125 0.125 3.075
0.8125 0 3.0125
0.875 0.0625 3.0125
0.8125 0.0625 3.075
0.8125 0.125 3.0125
0.8125 0.0625 3.0125
1 0 3.0125
0.9375 0 3.075
1 0.0625 3.075
1 0.125 3.0125
0.9375 0.125 3.075
0.9375 0 3.0125
1 0.0625 3.0125
0.9375 0.0625 3.075
0.9375 0.125 3.0125
0.9375 0.0625 3.0125
1.125 0 3.0125
1.0625 0 3.075
1.125 0.0625 3.075
1.125 0.125 3.0125
1.0625 0.125 3.075
1.0625 0 3.0125
1.125 0.0625 3.0125
1.0625 0.0625 3.075
1.0625 0.125 3.0125
1.0625 0.0625 3.0125
1.25 0 3.0125
1.1875 0 3.075
1.25 0.0625 3.075
1.25 0.125 3.0125
1.1875 0.125 3.075
1.1875 0 3.0125
1.25 0.0625 3.0125
1.1875 0.0625 3.075
1.1875 0.125 3.0125
1.1875 0.0625 3.0125
1.375 0 3.0125
1.3125 0 3.075
1.375 0.0625 3.075
1.375 0.125 3.0125
1.3125 0.125 3.075
1.3125 0 3.0125
1.375 0.0625 3.0125
1.3125 0.0625 3.075
1.3125 0.125 3.0125
1.3125 0.0625 3.0125
1.5 0 3.0125
1.4375 0 3.075
1.5 0.0625 3.075
1.5 0.125 3.0125
1.4375 0.125 3.075
1.4375 0 3.0125
1.5 0.0625 3.0125
1.4375 0.0625 3.075
1.4375 0.125 3.0125
1.4375 0.0625 3.0125
1.625 0 3.0125
1.5625 0 3.075
1.625 0.0625 3.075
1.625 0.125 3.0125
1.5625 0.125 3.075
1.5625 0 3.0125
1.625 0.0625 3.0125
1.5625 0.0625 3.075
1.5625 0.125 3.0125
1.5625 0.0625 3.0125
1.75 0 3.0125
1.6875 0 3.075
1.75 0.0625 3.075
1.75 0.125 3.0125
1.6875 0.125 3.075
1.6875 0 3.0125
1.75 0.0625 3.0125
1.6875 0.0625 3.075
1.6875 0.125 3.0125
1.6875 0.0625 3.0125
1.875 0 3.0125
1.8125 0 3.075
1.875 0.0625 3.075
1.875 0.125 3.0125
1.8125 0.125 3.075
1.8125 0 3.0125
1.875 0.0625 3.0125
1.8125 0.0625 3.075
1.8125 0.125 3.0125
1.8125 0.0625 3.0125
2 0 3.0125
1.9375 0 3.075
2 0.0625 3.075
2 0.125 3.0125
1.9375 0.125 3.075
1.9375 0 3.0125
2 0.0625 3.0125
1.9375 0.0625 3.075
1.9375 0.125 3.0125
1.9375 0.0625 3.0125
2.125 0 3.0125
2.0625 0 3.075
2.125 0.0625 3.075
2.125 0.125 3.0125
2.0625 0.125 3.075
2.0625 0 3.0125
2.125 0.0625 3.0125
2.0625 0.0625 3.075
2.0625 0.125 3.0125
2.0625 0.0625 3.0125
2.25 0 3.0125
2.1875 0 3.075
2.25 0.0625 3.075
2.25 0.125 3.0125
2.1875 0.125 3.075
2.1875 0 3.0125
2.25 0.0625 3.0125
2.1875 0.0625 3.075
2.1875 0.125 3.0125
2.1875 0.0625 3.0125
2.375 0 3.0125
2.3125 0 3.075
2.375 0.0625 3.075
2.375 0.125 3.0125
2.3125 0.125 3.075
2.3125 0 3.0125
2.375 0.0625 3.0125
2.3125 0.0625 3.075
2.3125 0.125 3.0125
2.3125 0.0625 3.0125
2.5 0 3.0125
2.4375 0 3.075
2.5 0.0625 3.075
2.5 0.125 3.0125
2.4375 0.125 3.075
2.4375 0 3.0125
2.5 0.0625 3.0125
2.4375 0.0625 3.075
2.4375 0.125 3.0125
2.4375 0.0625 3.0125
2.625 0 3.0125
2.5625 0 3.075
2.625 0.0625 3.075
2.625 0.125 3.0125
2.5625 0.125 3.075
2.5625 0 3.0125
2.625 0.0625 3.0125
2.5625 0.0625 3.075
2.5625 0.125 3.0125
2.5625 0.0625 3.0125
2.75 0 3.0125
2.6875 0 3.075
2.75 0.0625 3.075
2.75 0.125 3.0125
2.6875 0.125 3.075
2.6875 0 3.0125
2.75 0.0625 3.0125
2.6875 0.0625 3.075
2.6875 0.125 3.0125
2.6875 0.0625 3.0125
2.875 0 3.0125
2.8125 0 3.075
2.875 0.0625 3.075
2.875 0.125 3.0125
2.8125 0.125 3.075
2.8125 0 3.0125
2.875 0.0625 3.0125
2.8125 0.0625 3.075
2.8125 0.125 3.0125
2.8125 0.0625 3.0125
3 0 3.0125
2.9375 0 3.075
3 0.0625 3.075
3 0.125 3.0125
2.9375 0.125 3.075
2.9375 0 3.0125
3 0.0625 3.0125
2.9375 0.0625 3.075
2.9375 0.125 3.0125
2.9375 0.0625 3.0125
0.125 0.1875 3.075
0 0.1875 3.075
0.125 0.25 3.0125
0.0625 0.25 3.075
0 0.25 3.0125
0.125 0.1875 3.0125
0.0625 0.1875 3.075
0 0.1875 3.0125
0.0625 0.25 3.0125
0.0625 0.1875 3.0125
0.25 0.1875 3.075
0.25 0.25 3.0125
0.1875 0.25 3.075
0.25 0.1875 3.0125
0.1875 0.1875 3.075
0.1875 0.25 3.0125
0.1875 0.1875 3.0125
0.375 0.1875 3.075
0.375 0.25 3.0125
0.3125 0.25 3.075
0.375 0.1875 3.0125
0.3125 0.1875 3.075
0.3125 0.25 3.0125
0.3125 0.1875 3.0125
0.5 0.1875 3.075
0.5 0.25 3.0125
0.4375 0.25 3.075
0.5 0.1875 3.0125
0.4375 0.1875 3.075
0.4375 0.25 3.0125
0.4375 0.1875 3.0125
0.625 0.1875 3.075
0.625 0.25 3.0125
0.5625 0.25 3.075
0.625 0.1875 3.0125
0.5625 0.1875 3.075
0.5625 0.25 3.0125
0.5625 0.1875 3.0125
0.75 0.1875 3.075
0.75 0.25 3.0125
0.6875 0.25 3.075
0.75 0.1875 3.0125
0.6875 0.1875 3.075
0.6875 0.25 3.0125
0.6875 0.1875 3.0125
0.875 0.1875 3.075
0.875 0.25 3.0125
0.8125 0.25 3.075
0.875 0.1875 3.0125
0.8125 0.1875 3.075
0.8125 0.25 3.0125
0.8125 0.1875 3.0125
1 0.1875 3.075
1 0.25 3.0125
0.9375 0.25 3.075
1 0.1875 3.0125
0.9375 0.1875 3.075
0.9375 0.25 3.0125
0.9375 0.1875 3.0125
1.125 0.1875 3.075
1.125 0.25 3.0125
1.0625 0.25 3.075
1.125 0.1875 3.0125
1.0625 0.1875 3.075
1.0625 0.25 3.0125
1.0625 0.1875 3.0125
1.25 0.1875 3.075
1.25 0.25 3.0125
1.1875 0.25 3.075
1.25 0.1875 3.0125
1.1875 0.1875 3.075
1.1875 0.25 3.0125
1.1875 0.1875 3.0125
1.375 0.1875 3.075
1.375 0.25 3.0125
1.3125 0.25 3.075
1.375 0.1875 3.0125
1.3125 0.1875 3.075
1.3125 0.25 3.0125
1.3125 0.1875 3.0125
1.5 0.1875 3.075
1.5 0.25 3.0125
1.4375 0.25 3.075
1.5 0.1875 3.0125
1.4375 0.1875 3.075
1.4375 0.25 3.0125
1.4375 0.1875 3.0125
1.625 0.1875 3.075
1.625 0.25 3.0125
1.5625 0.25 3.075
1.625 0.1875 3.0125
1.5625 0.1875 3.075
1.5625 0.25 3.0125
1.5625 0.1875 3.0125
1.75 0.1875 3.075
1.75 0.25 3.0125
1.6875 0.25 3.075
1.75 0.1875 3.0125
1.6875 0.1875 3.075
1.6875 0.25 3.0125
1.6875 0.1875 3.0125
1.875 0.1875 3.075
1.875 0.25 3.0125
1.8125 0.25 3.075
1.875 0.1875 3.0125
1.8125 0.1875 3.075
1.8125 0.25 3.0125
1.8125 0.1875 3.0125
2 0.1875 3.075
2 0.25 3.0125
1.9375 0.25 3.075
2 0.1875 3.0125
1.9375 0.1875 3.075
1.9375 0.25 3.0125
1.9375 0.1875 3.0125
2.125 0.1875 3.075
2.125 0.25 3.0125
2.0625 0.25 3.075
2.125 0.1875 3.0125
2.0625 0.1875 3.075
2.0625 0.25 3.0125
2.0625 0.1875 3.0125
2.25 0.1875 3.075
2.25 0.25 3.0125
2.1875 0.25 3.075
2.25 0.1875 3.0125
2.1875 0.1875 3.075
2.1875 0.25 3.0125
2.1875 0.1875 3.0125
2.375 0.1875 3.075
2.375 0.25 3.0125
2.3125 0.25 3.075
2.375 0.1875 3.0125
2.3125 0.1875 3.075
2.3125 0.25 3.0125
2.3125 0.1875 3.0125
2.5 0.1875 3.075
2.5 0.25 3.0125
2.4375 0.25 3.075
2.5 0.1875 3.0125
2.4375 0.1875 3.075
2.4375 0.25 3.0125
2.4375 0.1875 3.0125
2.625 0.1875 3.075
2.625 0.25 3.0125
2.5625 0.25 3.075
2.625 0.1875 3.0125
2.5625 0.1875 3.075
2.5625 0.25 3.0125
2.5625 0.1875 3.0125
2.75 0.1875 3.075
2.75 0.25 3.0125
2.6875 0.25 3.075
2.75 0.1875 3.0125
2.6875 0.1875 3.075
2.6875 0.25 3.0125
2.6875 0.1875 3.0125
2.875 0.1875 3.075
2.875 0.25 3.0125
2.8125 0.25 3.075
2.875 0.1875 3.0125
2.8125 0.1875 3.075
2.8125 0.25 3.0125
2.8125 0.1875 3.0125
3 0.1875 3.075
3 0.25 3.0125
2.9375 0.25 3.075
3 0.1875 3.0125
2.9375 0.1875 3.075
2.9375 0.25 3.0125
2.9375 0.1875 3.0125
0.125 0.3125 3.075
0 0.3125 3.075
0.125 0.375 3.0125
0.0625 0.375 3.075
0 0.375 3.0125
0.125 0.3125 3.0125
0.0625 0.3125 3.075
0 0.3125 3.0125
0.0625 0.375 3.0125
0.0625 0.3125 3.0125
0.25 0.3125 3.075
0.25 0.375 3.0125
0.1875 0.375 3.075
0.25 0.3125 3.0125
0.1875 0.3125 3.075
0.1875 0.375 3.0125
0.1875 0.3125 3.0125
0.375 0.3125 3.075
0.375 0.375 3.0125
0.3125 0.375 3.075
0.375 0.3125 3.0125
0.3125 0.3125 3.075
0.3125 0.375 3.0125
0.3125 0.3125 3.0125
0.5 0.3125 3.075
0.5 0.375 3.0125
0.4375 0.375 3.075
0.5 0.3125 3.0125
0.4375 0.3125 3.075
0.4375 0.375 3.0125
0.4375 0.3125 3.0125
0.625 0.3125 3.075
0.625 0.375 3.0125
0.5625 0.375 3.075
0.625 0.3125 3.0125
0.5625 0.3125 3.075
0.5625 0.375 3.0125
0.5625 0.3125 3.0125
0.75 0.3125 3.075
0.75 0.375 3.0125
0.6875 0.375 3.075
0.75 0.3125 3.0125
0.6875 0.3125 3.075
0.6875 0.375 3.0125
0.6875 0.3125 3.0125
0.875 0.3125 3.075
0.875 0.375 3.0125
0.8125 0.375 3.075
0.875 0.3125 3.0125
0.8125 0.3125 3.075
0.8125 0.375 3.0125
0.8125 0.3125 3.0125
1 0.3125 3.075
1 0.375 3.0125
0.9375 0.375 3.075
1 0.3125 3.0125
0.9375 0.3125 3.075
0.9375 0.375 3.0125
0.9375 0.3125 3.0125
1.125 0.3125 3.075
1.125 0.375 3.0125
1.0625 0.375 3.075
1.125 0.3125 3.0125
1.0625 0.3125 3.075
1.0625 0.375 3.0125
1.0625 0.3125 3.0125
1.25 0.3125 3.075
1.25 0.375 3.0125
1.1875 0.375 3.075
1.25 0.3125 3.0125
1.1875 0.3125 3.075
1.1875 0.375 3.0125
1.1875 0.3125 3.0125
1.375 0.3125 3.075
1.375 0.375 3.0125
1.3125 0.375 3.075
1.375 0.3125 3.0125
1.3125 0.3125 3.075
1.3125 0.375 3.0125
1.3125 0.3125 3.0125
1.5 0.3125 3.075
1.5 0.375 3.0125
1.4375 0.375 3.075
1.5 0.3125 3.0125
1.4375 0.3125 3.075
1.4375 0.375 3.0125
1.4375 0.3125 3.0125
1.625 0.3125 3.075
1.625 0.375 3.0125
1.5625 0.375 3.075
1.625 0.3125 3.0125
1.5625 0.3125 3.075
1.5625 0.375 3.0125
1.5625 0.3125 3.0125
1.75 0.3125 3.075
1.75 0.375 3.0125
1.6875 0.375 3.075
1.75 0.3125 3.0125
1.6875 0.3125 3.075
1.6875 0.375 3.0125
1.6875 0.3125 3.0125
1.875 0.3125 3.075
1.875 0.375 3.0125
1.8125 0.375 3.075
1.875 0.3125 3.0125
1.8125 0.3125 3.075
1.8125 0.375 3.0125
1.8125 0.3125 3.0125
2 0.3125 3.075
2 0.375 3.0125
1.9375 0.375 3.075
2 0.3125 3.0125
1.9375 0.3125 3.075
1.9375 0.375 3.0125
1.9375 0.3125 3.0125
2.125 0.3125 3.075
2.125 0.375 3.0125
2.0625 0.375 3.075
2.125 0.3125 3.0125
2.0625 0.3125 3.075
2.0625 0.375 3.0125
2.0625 0.3125 3.0125
2.25 0.3125 3.075
2.25 0.375 3.0125
2.1875 0.375 3.075
2.25 0.3125 3.0125
2.1875 0.3125 3.075
2.1875 0.375 3.0125
2.1875 0.3125 3.0125
2.375 0.3125 3.075
2.375 0.375 3.0125
2.3125 0.375 3.075
2.375 0.3125 3.0125
2.3125 0.3125 3.075
2.3125 0.375 3.0125
2.3125 0.3125 3.0125
2.5 0.3125 3.075
2.5 0.375 3.0125
2.4375 0.375 3.075
2.5 0.3125 3.0125
2.4375 0.3125 3.075
2.4375 0.375 3.0125
2.4375 0.3125 3.0125
2.625 0.3125 3.075
2.625 0.375 3.0125
2.5625 0.375 3.075
2.625 0.3125 3.0125
2.5625 0.3125 3.075
2.5625 0.375 3.0125
2.5625 0.3125 3.0125
2.75 0.3125 3.075
2.75 0.375 3.0125
2.6875 0.375 3.075
2.75 0.3125 3.0125
2.6875 0.3125 3.075
2.6875 0.375 3.0125
2.6875 0.3125 3.0125
2.875 0.3125 3.075
2.875 0.375 3.0125
2.8125 0.375 3.075
2.875 0.3125 3.0125
2.8125 0.3125 3.075
2.8125 0.375 3.0125
2.8125 0.3125 3.0125
3 0.3125 3.075
3 0.375 3.0125
2.9375 0.375 3.075
3 0.3125 3.0125
2.9375 0.3125 3.075
2.9375 0.375 3.0125
2.9375 0.3125 3.0125
0.125 0.4375 3.075
0 0.4375 3.075
0.125 0.5 3.0125
0.0625 0.5 3.075
0 0.5 3.0125
0.125 0.4375 3.0125
0.0625 0.4375 3.075
0 0.4375 3.0125
0.0625 0.5 3.0125
0.0625 0.4375 3.0125
0.25 0.4375 3.075
0.25 0.5 3.0125
0.1875 0.5 3.075
0.25 0.4375 3.0125
0.1875 0.4375 3.075
0.1875 0.5 3.0125
0.1875 0.4375 3.0125
0.375 0.4375 3.075
0.375 0.5 3.0125
0.3125 0.5 3.075
0.375 0.4375 3.0125
0.3125 0.4375 3.075
0.3125 0.5 3.0125
0.3125 0.4375 3.0125
0.5 0.4375 3.075
0.5 0.5 3.0125
0.4375 0.5 3.075
0.5 0.4375 3.0125
0.4375 0.4375 3.075
0.4375 0.5 3.0125
0.4375 0.4375 3.0125
0.625 0.4375 3.075
0.625 0.5 3.0125
0.5625 0.5 3.075
0.625 0.4375 3.0125
0.5625 0.4375 3.075
0.5625 0.5 3.0125
0.5625 0.4375 3.0125
0.75 0.4375 3.075
0.75 0.5 3.0125
0.6875 0.5 3.075
0.75 0.4375 3.0125
0.6875 0.4375 3.075
0.6875 0.5 3.0125
0.6875 0.4375 3.0125
0.875 0.4375 3.075
0.875 0.5 3.0125
0.8125 0.5 3.075
0.875 0.4375 3.0125
0.8125 0.4375 3.075
0.8125 0.5 3.0125
0.8125 0.4375 3.0125
1 0.4375 3.075
1 0.5 3.0125
0.9375 0.5 3.075
1 0.4375 3.0125
0.9375 0.4375 3.075
0.9375 0.5 3.0125
0.9375 0.4375 3.0125
1.125 0.4375 3.075
1.125 0.5 3.0125
1.0625 0.5 3.075
1.125 0.4375 3.0125
1.0625 0.4375 3.075
1.0625 0.5 3.0125
1.0625 0.4375 3.0125
1.25 0.4375 3.075
1.25 0.5 3.0125
1.1875 0.5 3.075
1.25 0.4375 3.0125
1.1875 0.4375 3.075
1.1875 0.5 3.0125
1.1875 0.4375 3.0125
1.375 0.4375 3.075
1.375 0.5 3.0125
1.3125 0.5 3.075
1.375 0.4375 3.0125
1.3125 0.4375 3.075
1.3125 0.5 3.0125
1.3125 0.4375 3.0125
1.5 0.4375 3.075
1.5 0.5 3.0125
1.4375 0.5 3.075
1.5 0.4375 3.0125
1.4375 0.4375 3.075
1.4375 0.5 3.0125
1.4375 0.4375 3.0125
1.625 0.4375 3.075
1.625 0.5 3.0125
1.5625 0.5 3.075
1.625 0.4375 3.0125
1.5625 0.4375 3.075
1.5625 0.5 3.0125
1.5625 0.4375 3.0125
1.75 0.4375 3.075
1.75 0.5 3.0125
1.6875 0.5 3.075
1.75 0.4375 3.0125
1.6875 0.4375 3.075
1.6875 0.5 3.0125
1.6875 0.4375 3.0125
1.875 0.4375 3.075
1.875 0.5 3.0125
1.8125 0.5 3.075
1.875 0.4375 3.0125
1.8125 0.4375 3.075
1.8125 0.5 3.0125
1.8125 0.4375 3.0125
2 0.4375 3.075
2 0.5 3.0125
1.9375 0.5 3.075
2 0.4375 3.0125
1.9375 0.4375 3.075
1.9375 0.5 3.0125
1.9375 0.4375 3.0125
2.125 0.4375 3.075
2.125 0.5 3.0125
2.0625 0.5 3.075
2.125 0.4375 3.0125
2.0625 0.4375 3.075
2.0625 0.5 3.0125
2.0625 0.4375 3.0125
2.25 0.4375 3.075
2.25 0.5 3.0125
2.1875 0.5 3.075
2.25 0.4375 3.0125
2.1875 0.4375 3.075
2.1875 0.5 3.0125
2.1875 0.4375 3.0125
2.375 0.4375 3.075
2.375 0.5 3.0125
2.3125 0.5 3.075
2.375 0.4375 3.0125
2.3125 0.4375 3.075
2.3125 0.5 3.0125
2.3125 0.4375 3.0125
2.5 0.4375 3.075
2.5 0.5 3.0125
2.4375 0.5 3.075
2.5 0.4375 3.0125
2.4375 0.4375 3.075
2.4375 0.5 3.0125
2.4375 0.4375 3.0125
2.625 0.4375 3.075
2.625 0.5 3.0125
2.5625 0.5 3.075
2.625 0.4375 3.0125
2.5625 0.4375 3.075
2.5625 0.5 3.0125
2.5625 0.4375 3.0125
2.75 0.4375 3.075
2.75 0.5 3.0125
2.6875 0.5 3.075
2.75 0.4375 3.0125
2.6875 0.4375 3.075
2.6875 0.5 3.0125
2.6875 0.4375 3.0125
2.875 0.4375 3.075
2.875 0.5 3.0125
2.8125 0.5 3.075
2.875 0.4375 3.0125
2.8125 0.4375 3.075
2.8125 0.5 3.0125
2.8125 0.4375 3.0125
3 0.4375 3.075
3 0.5 3.0125
2.9375 0.5 3.075
3 0.4375 3.0125
2.9375 0.4375 3.075
2.9375 0.5 3.0125
2.9375 0.4375 3.0125
0.125 0.5625 3.075
0 0.5625 3.075
0.125 0.625 3.0125
0.0625 0.625 3.075
0 0.625 3.0125
0.125 0.5625 3.0125
0.0625 0.5625 3.075
0 0.5625 3.0125
0.0625 0.625 3.0125
0.0625 0.5625 3.0125
0.25 0.5625 3.075
0.25 0.625 3.0125
0.1875 0.625 3.075
0.25 0.5625 3.0125
0.1875 0.5625 3.075
0.1875 0.625 3.0125
0.1875 0.5625 3.0125
0.375 0.5625 3.075
0.375 0.625 3.0125
0.3125 0.625 3.075
0.375 0.5625 3.0125
0.3125 0.5625 3.075
0.3125 0.625 3.0125
0.3125 0.5625 3.0125
0.5 0.5625 3.075
0.5 0.625 3.0125
0.4375 0.625 3.075
0.5 0.5625 3.0125
0.4375 0.5625 3.075
0.4375 0.625 3.0125
0.4375 0.5625 3.0125
0.625 0.5625 3.075
0.625 0.625 3.0125
0.5625 0.625 3.075
0.625 0.5625 3.0125
0.5625 0.5625 3.075
0.5625 0.625 3.0125
0.5625 0.5625 3.0125
0.75 0.5625 3.075
0.75 0.625 3.0125
0.6875 0.625 3.075
0.75 0.5625 3.0125
0.6875 0.5625 3.075
0.6875 0.625 3.0125
0.6875 0.5625 3.0125
0.875 0.5625 3.075
0.875 0.625 3.0125
0.8125 0.625 3.075
0.875 0.5625 3.0125
0.8125 0.5625 3.075
0.8125 0.625 3.0125
0.8125 0.5625 3.0125
1 0.5625 3.075
1 0.625 3.0125
0.9375 0.625 3.075
1 0.5625 3.0125
0.9375 0.5625 3.075
0.9375 0.625 3.0125
0.9375 0.5625 3.0125
1.125 0.5625 3.075
1.125 0.625 3.0125
1.0625 0.625 3.075
1.125 0.5625 3.0125
1.0625 0.5625 3.075
1.0625 0.625 3.0125
1.0625 0.5625 3.0125
1.25 0.5625 3.075
1.25 0.625 3.0125
1.1875 0.625 3.075
1.25 0.5625 3.0125
1.1875 0.5625 3.075
1.1875 0.625 3.0125
1.1875 0.5625 3.0125
1.375 0.5625 3.075
1.375 0.625 3.0125
1.3125 0.625 3.075
1.375 0.5625 3.0125
1.3125 0.5625 3.075
1.3125 0.625 3.0125
1.3125 0.5625 3.0125
1.5 0.5625 3.075
1.5 0.625 3.0125
1.4375 0.625 3.075
1.5 0.5625 3.0125
1.4375 0.5625 3.075
1.4375 0.625 3.0125
1.4375 0.5625 3.0125
1.625 0.5625 3.075
1.625 0.625 3.0125
1.5625 0.625 3.075
1.625 0.5625 3.0125
1.5625 0.5625 3.075
1.5625 0.625 3.0125
1.5625 0.5625 3.0125
1.75 0.5625 3.075
1.75 0.625 3.0125
1.6875 0.625 3.075
1.75 0.5625 3.0125
1.6875 0.5625 3.075
1.6875 0.625 3.0125
1.6875 0.5625 3.0125
1.875 0.5625 3.075
1.875 0.625 3.0125
1.8125 0.625 3.075
1.875 0.5625 3.0125
1.8125 0.5625 3.075
1.8125 0.625 3.0125
1.8125 0.5625 3.0125
2 0.5625 3.075
2 0.625 3.0125
1.9375 0.625 3.075
2 0.5625 3.0125
1.9375 0.5625 3.075
1.9375 0.625 3.0125
1.9375 0.5625 3.0125
2.125 0.5625 3.075
2.125 0.625 3.0125
2.0625 0.625 3.075
2.125 0.5625 3.0125
2.0625 0.5625 3.075
2.0625 0.625 3.0125
2.0625 0.5625 3.0125
2.25 0.5625 3.075
2.25 0.625 3.0125
2.1875 0.625 3.075
2.25 0.5625 3.0125
2.1875 0.5625 3.075
2.1875 0.625 3.0125
2.1875 0.5625 3.0125
2.375 0.5625 3.075
2.375 0.625 3.0125
2.3125 0.625 3.075
2.375 0.5625 3.0125
2.3125 0.5625 3.075
2.3125 0.625 3.0125
2.3125 0.5625 3.0125
2.5 0.5625 3.075
2.5 0.625 3.0125
2.4375 0.625 3.075
2.5 0.5625 3.0125
2.4375 0.5625 3.075
2.4375 0.625 3.0125
2.4375 0.5625 3.0125
2.625 0.5625 3.075
2.625 0.625 3.0125
2.5625 0.625 3.075
2.625 0.5625 3.0125
2.5625 0.5625 3.075
2.5625 0.625 3.0125
2.5625 0.5625 3.0125
2.75 0.5625 3.075
2.75 0.625 3.0125
2.6875 0.625 3.075
2.75 0.5625 3.0125
2.6875 0.5625 3.075
2.6875 0.625 3.0125
2.6875 0.5625 3.0125
2.875 0.5625 3.075
2.875 0.625 3.0125
2.8125 0.625 3.075
2.875 0.5625 3.0125
2.8125 0.5625 3.075
2.8125 0.625 3.0125
2.8125 0.5625 3.0125
3 0.5625 3.075
3 0.625 3.0125
2.9375 0.625 3.075
3 0.5625 3.0125
2.9375 0.5625 3.075
2.9375 0.625 3.0125
2.9375 0.5625 3.0125
0.125 0.6875 3.075
0 0.6875 3.075
0.125 0.75 3.0125
0.0625 0.75 3.075
0 0.75 3.0125
0.125 0.6875 3.0125
0.0625 0.6875 3.075
0 0.6875 3.0125
0.0625 0.75 3.0125
0.0625 0.6875 3.0125
0.25 0.6875 3.075
0.25 0.75 3.0125
0.1875 0.75 3.075
0.25 0.6875 3.0125
0.1875 0.6875 3.075
0.1875 0.75 3.0125
0.1875 0.6875 3.0125
0.375 0.6875 3.075
0.375 0.75 3.0125
0.3125 0.75 3.075
0.375 0.6875 3.0125
0.3125 0.6875 3.075
0.3125 0.75 3.0125
0.3125 0.6875 3.0125
0.5 0.6875 3.075
0.5 0.75 3.0125
0.4375 0.75 3.075
0.5 0.6875 3.0125
0.4375 0.6875 3.075
0.4375 0.75 3.0125
0.4375 0.6875 3.0125
0.625 0.6875 3.075
0.625 0.75 3.0125
0.5625 0.75 3.075
0.625 0.6875 3.0125
0.5625 0.6875 3.075
0.5625 0.75 3.0125
0.5625 0.6875 3.0125
0.75 0.6875 3.075
0.75 0.75 3.0125
0.6875 0.75 3.075
0.75 0.6875 3.0125
0.6875 0.6875 3.075
0.6875 0.75 3.0125
0.6875 0.6875 3.0125
0.875 0.6875 3.075
0.875 0.75 3.0125
0.8125 0.75 3.075
0.875 0.6875 3.0125
0.8125 0.6875 3.075
0.8125 0.75 3.0125
0.8125 0.6875 3.0125
1 0.6875 3.075
1 0.75 3.0125
0.9375 0.75 3.075
1 0.6875 3.0125
0.9375 0.6875 3.075
0.9375 0.75 3.0125
0.9375 0.6875 3.0125
1.125 0.6875 3.075
1.125 0.75 3.0125
1.0625 0.75 3.075
1.125 0.6875 3.0125
1.0625 0.6875 3.075
1.0625 0.75 3.0125
1.0625 0.6875 3.0125
1.25 0.6875 3.075
1.25 0.75 3.0125
1.1875 0.75 3.075
1.25 0.6875 3.0125
1.1875 0.6875 3.075
1.1875 0.75 3.0125
1.1875 0.6875 3.0125
1.375 0.6875 3.075
1.375 0.75 3.0125
1.3125 0.75 3.075
1.375 0.6875 3.0125
1.3125 0.6875 3.075
1.3125 0.75 3.0125
1.3125 0.6875 3.0125
1.5 0.6875 3.075
1.5 0.75 3.0125
1.4375 0.75 3.075
1.5 0.6875 3.0125
1.4375 0.6875 3.075
1.4375 0.75 3.0125
1.4375 0.6875 3.0125
1.625 0.6875 3.075
1.625 0.75 3.0125
1.5625 0.75 3.075
1.625 0.6875 3.0125
1.5625 0.6875 3.075
1.5625 0.75 3.0125
1.5625 0.6875 3.0125
1.75 0.6875 3.075
1.75 0.75 3.0125
1.6875 0.75 3.075
1.75 0.6875 3.0125
1.6875 0.6875 3.075
1.6875 0.75 3.0125
1.6875 0.6875 3.0125
1.875 0.6875 3.075
1.875 0.75 3.0125
1.8125 0.75 3.075
1.875 0.6875 3.0125
1.8125 0.6875 3.075
1.8125 0.75 3.0125
1.8125 0.6875 3.0125
2 0.6875 3.075
2 0.75 3.0125
1.9375 0.75 3.075
2 0.6875 3.0125
1.9375 0.6875 3.075
1.9375 0.75 3.0125
1.9375 0.6875 3.0125
2.125 0.6875 3.075
2.125 0.75 3.0125
2.0625 0.75 3.075
2.125 0.6875 3.0125
2.0625 0.6875 3.075
2.0625 0.75 3.0125
2.0625 0.6875 3.0125
2.25 0.6875 3.075
2.25 0.75 3.0125
2.1875 0.75 3.075
2.25 0.6875 3.0125
2.1875 0.6875 3.075
2.1875 0.75 3.0125
2.1875 0.6875 3.0125
2.375 0.6875 3.075
2.375 0.75 3.0125
2.3125 0.75 3.075
2.375 0.6875 3.0125
2.3125 0.6875 3.075
2.3125 0.75 3.0125
2.3125 0.6875 3.0125
2.5 0.6875 3.075
2.5 0.75 3.0125
2.4375 0.75 3.075
2.5 0.6875 3.0125
2.4375 0.6875 3.075
2.4375 0.75 3.0125
2.4375 0.6875 3.0125
2.625 0.6875 3.075
2.625 0.75 3.0125
2.5625 0.75 3.075
2.625 0.6875 3.0125
2.5625 0.6875 3.075
2.5625 0.75 3.0125
2.5625 0.6875 3.0125
2.75 0.6875 3.075
2.75 0.75 3.0125
2.6875 0.75 3.075
2.75 0.6875 3.0125
2.6875 0.6875 3.075
2.6875 0.75 3.0125
2.6875 0.6875 3.0125
2.875 0.6875 3.075
2.875 0.75 3.0125
2.8125 0.75 3.075
2.875 0.6875 3.0125
2.8125 0.6875 3.075
2.8125 0.75 3.0125
2.8125 0.6875 3.0125
3 0.6875 3.075
3 0.75 3.0125
2.9375 0.75 3.075
3 0.6875 3.0125
2.9375 0.6875 3.075
2.9375 0.75 3.0125
2.9375 0.6875 3.0125
0.125 0.8125 3.075
0 0.8125 3.075
0.125 0.875 3.0125
0.0625 0.875 3.075
0 0.875 3.0125
0.125 0.8125 3.0125
0.0625 0.8125 3.075
0 0.8125 3.0125
0.0625 0.875 3.0125
0.0625 0.8125 3.0125
0.25 0.8125 3.075
0.25 0.875 3.0125
0.1875 0.875 3.075
0.25 0.8125 3.0125
0.1875 0.8125 3.075
0.1875 0.875 3.0125
0.1875 0.8125 3.0125
0.375 0.8125 3.075
0.375 0.875 3.0125
0.3125 0.875 3.075
0.375 0.8125 3.0125
0.3125 0.8125 3.075
0.3125 0.875 3.0125
0.3125 0.8125 3.0125
0.5 0.8125 3.075
0.5 0.875 3.0125
0.4375 0.875 3.075
0.5 0.8125 3.0125
0.4375 0.8125 3.075
0.4375 0.875 3.0125
0.4375 0.8125 3.0125
0.625 0.8125 3.075
0.625 0.875 3.0125
0.5625 0.875 3.075
0.625 0.8125 3.0125
0.5625 0.8125 3.075
0.5625 0.875 3.0125
0.5625 0.8125 3.0125
0.75 0.8125 3.075
0.75 0.875 3.0125
0.6875 0.875 3.075
0.75 0.8125 3.0125
0.6875 0.8125 3.075
0.6875 0.875 3.0125
0.6875 0.8125 3.0125
0.875 0.8125 3.075
0.875 0.875 3.0125
0.8125 0.875 3.075
0.875 0.8125 3.0125
0.8125 0.8125 3.075
0.8125 0.875 3.0125
0.8125 0.8125 3.0125
1 0.8125 3.075
1 0.875 3.0125
0.9375 0.875 3.075
1 0.8125 3.0125
0.9375 0.8125 3.075
0.9375 0.875 3.0125
0.9375 0.8125 3.0125
1.125 0.8125 3.075
1.125 0.875 3.0125
1.0625 0.875 3.075
1.125 0.8125 3.0125
1.0625 0.8125 3.075
1.0625 0.875 3.0125
1.0625 0.8125 3.0125
1.25 0.8125 3.075
1.25 0.875 3.0125
1.1875 0.875 3.075
1.25 0.8125 3.0125
1.1875 0.8125 3.075
1.1875 0.875 3.0125
1.1875 0.8125 3.0125
1.375 0.8125 3.075
1.375 0.875 3.0125
1.3125 0.875 3.075
1.375 0.8125 3.0125
1.3125 0.8125 3.075
1.3125 0.875 3.0125
1.3125 0.8125 3.0125
1.5 0.8125 3.075
1.5 0.875 3.0125
1.4375 0.875 3.075
1.5 0.8125 3.0125
1.4375 0.8125 3.075
1.4375 0.875 3.0125
1.4375 0.8125 3.0125
1.625 0.8125 3.075
1.625 0.875 3.0125
1.5625 0.875 3.075
1.625 0.8125 3.0125
1.5625 0.8125 3.075
1.5625 0.875 3.0125
1.5625 0.8125 3.0125
1.75 0.8125 3.075
1.75 0.875 3.0125
1.6875 0.875 3.075
1.75 0.8125 3.0125
1.6875 0.8125 3.075
1.6875 0.875 3.0125
1.6875 0.8125 3.0125
1.875 0.8125 3.075
1.875 0.875 3.0125
1.8125 0.875 3.075
1.875 0.8125 3.0125
1.8125 0.8125 3.075
1.8125 0.875 3.0125
1.8125 0.8125 3.0125
2 0.8125 3.075
2 0.875 3.0125
1.9375 0.875 3.075
2 0.8125 3.0125
1.9375 0.8125 3.075
1.9375 0.875 3.0125
1.9375 0.8125 3.0125
2.125 0.8125 3.075
2.125 0.875 3.0125
2.0625 0.875 3.075
2.125 0.8125 3.0125
2.0625 0.8125 3.075
2.0625 0.875 3.0125
2.0625 0.8125 3.0125
2.25 0.8125 3.075
2.25 0.875 3.0125
2.1875 0.875 3.075
2.25 0.8125 3.0125
2.1875 0.8125 3.075
2.1875 0.875 3.0125
2.1875 0.8125 3.0125
2.375 0.8125 3.075
2.375 0.875 3.0125
2.3125 0.875 3.075
2.375 0.8125 3.0125
2.3125 0.8125 3.075
2.3125 0.875 3.0125
2.3125 0.8125 3.0125
2.5 0.8125 3.075
2.5 0.875 3.0125
2.4375 0.875 3.075
2.5 0.8125 3.0125
2.4375 0.8125 3.075
2.4375 0.875 3.0125
2.4375 0.8125 3.0125
2.625 0.8125 3.075
2.625 0.875 3.0125
2.5625 0.875 3.075
2.625 0.8125 3.0125
2.5625 0.8125 3.075
2.5625 0.875 3.0125
2.5625 0.8125 3.0125
2.75 0.8125 3.075
2.75 0.875 3.0125
2.6875 0.875 3.075
2.75 0.8125 3.0125
2.6875 0.8125 3.075
2.6875 0.875 3.0125
2.6875 0.8125 3.0125
2.875 0.8125 3.075
2.875 0.875 3.0125
2.8125 0.875 3.075
2.875 0.8125 3.0125
2.8125 0.8125 3.075
2.8125 0.875 3.0125
2.8125 0.8125 3.0125
3 0.8125 3.075
3 0.875 3.0125
2.9375 0.875 3.075
3 0.8125 3.0125
2.9375 0.8125 3.075
2.9375 0.875 3.0125
2.9375 0.8125 3.0125
0.125 0.9375 3.075
0 0.9375 3.075
0.125 1 3.0125
0.0625 1 3.075
0 1 3.0125
0.125 0.9375 3.0125
0.0625 0.9375 3.075
0 0.9375 3.0125
0.0625 1 3.0125
0.0625 0.9375 3.0125
0.25 0.9375 3.075
0.25 1 3.0125
0.1875 1 3.075
0.25 0.9375 3.0125
0.1875 0.9375 3.075
0.1875 1 3.0125
0.1875 0.9375 3.0125
0.375 0.9375 3.075
0.375 1 3.0125
0.3125 1 3.075
0.375 0.9375 3.0125
0.3125 0.9375 3.075
0.3125 1 3.0125
0.3125 0.9375 3.0125
0.5 0.9375 3.075
0.5 1 3.0125
0.4375 1 3.075
0.5 0.9375 3.0125
0.4375 0.9375 3.075
0.4375 1 3.0125
0.4375 0.9375 3.0125
0.625 0.9375 3.075
0.625 1 3.0125
0.5625 1 3.075
0.625 0.9375 3.0125
0.5625 0.9375 3.075
0.5625 1 3.0125
0.5625 0.9375 3.0125
0.75 0.9375 3.075
0.75 1 3.0125
0.6875 1 3.075
0.75 0.9375 3.0125
0.6875 0.9375 3.075
0.6875 1 3.0125
0.6875 0.9375 3.0125
0.875 0.9375 3.075
0.875 1 3.0125
0.8125 1 3.075
0.875 0.9375 3.0125
0.8125 0.9375 3.075
0.8125 1 3.0125
0.8125 0.9375 3.0125
1 0.9375 3.075
1 1 3.0125
0.9375 1 3.075
1 0.9375 3.0125
0.9375 0.9375 3.075
0.9375 1 3.0125
0.9375 0.9375 3.0125
1.125 0.9375 3.075
1.125 1 3.0125
1.0625 1 3.075
1.125 0.9375 3.0125
1.0625 0.9375 3.075
1.0625 1 3.0125
1.0625 0.9375 3.0125
1.25 0.9375 3.075
1.25 1 3.0125
1.1875 1 3.075
1.25 0.9375 3.0125
1.1875 0.9375 3.075
1.1875 1 3.0125
1.1875 0.9375 3.0125
1.375 0.9375 3.075
1.375 1 3.0125
1.3125 1 3.075
1.375 0.9375 3.0125
1.3125 0.9375 3.075
1.3125 1 3.0125
1.3125 0.9375 3.0125
1.5 0.9375 3.075
1.5 1 3.0125
1.4375 1 3.075
1.5 0.9375 3.0125
1.4375 0.9375 3.075
1.4375 1 3.0125
1.4375 0.9375 3.0125
1.625 0.9375 3.075
1.625 1 3.0125
1.5625 1 3.075
1.625 0.9375 3.0125
1.5625 0.9375 3.075
1.5625 1 3.0125
1.5625 0.9375 3.0125
1.75 0.9375 3.075
1.75 1 3.0125
1.6875 1 3.075
1.75 0.9375 3.0125
1.6875 0.9375 3.075
1.6875 1 3.0125
1.6875 0.9375 3.0125
1.875 0.9375 3.075
1.875 1 3.0125
1.8125 1 3.075
1.875 0.9375 3.0125
1.8125 0.9375 3.075
1.8125 1 3.0125
1.8125 0.9375 3.0125
2 0.9375 3.075
2 1 3.0125
1.9375 1 3.075
2 0.9375 3.0125
1.9375 0.9375 3.075
1.9375 1 3.0125
1.9375 0.9375 3.0125
2.125 0.9375 3.075
2.125 1 3.0125
2.0625 1 3.075
2.125 0.9375 3.0125
2.0625 0.9375 3.075
2.0625 1 3.0125
2.0625 0.9375 3.0125
2.25 0.9375 3.075
2.25 1 3.0125
2.1875 1 3.075
2.25 0.9375 3.0125
2.1875 0.9375 3.075
2.1875 1 3.0125
2.1875 0.9375 3.0125
2.375 0.9375 3.075
2.375 1 3.0125
2.3125 1 3.075
2.375 0.9375 3.0125
2.3125 0.9375 3.075
2.3125 1 3.0125
2.3125 0.9375 3.0125
2.5 0.9375 3.075
2.5 1 3.0125
2.4375 1 3.075
2.5 0.9375 3.0125
2.4375 0.9375 3.075
2.4375 1 3.0125
2.4375 0.9375 3.0125
2.625 0.9375 3.075
2.625 1 3.0125
2.5625 1 3.075
2.625 0.9375 3.0125
2.5625 0.9375 3.075
2.5625 1 3.0125
2.5625 0.9375 3.0125
2.75 0.9375 3.075
2.75 1 3.0125
2.6875 1 3.075
2.75 0.9375 3.0125
2.6875 0.9375 3.075
2.6875 1 3.0125
2.6875 0.9375 3.0125
2.875 0.9375 3.075
2.875 1 3.0125
2.8125 1 3.075
2.875 0.9375 3.0125
2.8125 0.9375 3.075
2.8125 1 3.0125
2.8125 0.9375 3.0125
3 0.9375 3.075
3 1 3.0125
2.9375 1 3.075
3 0.9375 3.0125
2.9375 0.9375 3.075
2.9375 1 3.0125
2.9375 0.9375 3.0125
0.125 0 3.1375
0.0625 0 3.2
0 0 3.1375
0.125 0.0625 3.2
0 0.0625 3.2
0.125 0.125 3.1375
0.0625 0.125 3.2
0 0.125 3.1375
0.0625 0 3.1375
0.125 0.0625 3.1375
0.0625 0.0625 3.2
0 0.0625 3.1375
0.0625 0.125 3.1375
0.0625 0.0625 3.1375
0.25 0 3.1375
0.1875 0 3.2
0.25 0.0625 3.2
0.25 0.125 3.1375
0.1875 0.125 3.2
0.1875 0 3.1375
0.25 0.0625 3.1375
0.1875 0.0625 3.2
0.1875 0.125 3.1375
0.1875 0.0625 3.1375
0.375 0 3.1375
0.3125 0 3.2
0.375 0.0625 3.2
0.375 0.125 3.1375
0.3125 0.125 3.2
0.3125 0 3.1375
0.375 0.0625 3.1375
0.3125 0.0625 3.2
0.3125 0.125 3.1375
0.3125 0.0625 3.1375
0.5 0 3.1375
0.4375 0 3.2
0.5 0.0625 3.2
0.5 0.125 3.1375
0.4375 0.125 3.2
0.4375 0 3.1375
0.5 0.0625 3.1375
0.4375 0.0625 3.2
0.4375 0.125 3.1375
0.4375 0.0625 3.1375
0.625 0 3.1375
0.5625 0 3.2
0.625 0.0625 3.2
0.625 0.125 3.1375
0.5625 0.125 3.2
0.5625 0 3.1375
0.625 0.0625 3.1375
0.5625 0.0625 3.2
0.5625 0.125 3.1375
0.5625 0.0625 3.1375
0.75 0 3.1375
0.6875 0 3.2
0.75 0.0625 3.2
0.75 0.125 3.1375
0.6875 0.125 3.2
0.6875 0 3.1375
0.75 0.0625 3.1375
0.6875 0.0625 3.2
0.6875 0.125 3.1375
0.6875 0.0625 3.1375
0.875 0 3.1375
0.8125 0 3.2
0.875 0.0625 3.2
0.875 0.125 3.1375
0.8125 0.125 3.2
0.8125 0 3.1375
0.875 0.0625 3.1375
0.8125 0.0625 3.2
0.8125 0.125 3.1375
0.8125 0.0625 3.1375
1 0 3.1375
0.9375 0 3.2
1 0.0625 3.2
1 0.125 3.1375
0.9375 0.125 3.2
0.9375 0 3.1375
1 0.0625 3.1375
0.9375 0.0625 3.2
0.9375 0.125 3.1375
0.9375 0.0625 3.1375
1.125 0 3.1375
1.0625 0 3.2
1.125 0.0625 3.2
1.125 0.125 3.1375
1.0625 0.125 3.2
1.0625 0 3.1375
1.125 0.0625 3.1375
1.0625 0.0625 3.2
1.0625 0.125 3.1375
1.0625 0.0625 3.1375
1.25 0 3.1375
1.1875 0 3.2
1.25 0.0625 3.2
1.25 0.125 3.1375
1.1875 0.125 3.2
1.1875 0 3.1375
1.25 0.0625 3.1375
1.1875 0.0625 3.2
1.1875 0.125 3.1375
1.1875 0.0625 3.1375
1.375 0 3.1375
1.3125 0 3.2
1.375 0.0625 3.2
1.375 0.125 3.1375
1.3125 0.125 3.2
1.3125 0 3.1375
1.375 0.0625 3.1375
1.3125 0.0625 3.2
1.3125 0.125 3.1375
1.3125 0.0625 3.1375
1.5 0 3.1375
1.4375 0 3.2
1.5 0.0625 3.2
1.5 0.125 3.1375
1.4375 0.125 3.2
1.4375 0 3.1375
1.5 0.0625 3.1375
1.4375 0.0625 3.2
1.4375 0.125 3.1375
1.4375 0.0625 3.1375
1.625 0 3.1375
1.5625 0 3.2
1.625 0.0625 3.2
1.625 0.125 3.1375
1.5625 0.125 3.2
1.5625 0 3.1375
1.625 0.0625 3.1375
1.5625 0.0625 3.2
1.5625 0.125 3.1375
1.5625 0.0625 3.1375
1.75 0 3.1375
1.6875 0 3.2
1.75 0.0625 3.2
1.75 0.125 3.1375
1.6875 0.125 3.2
1.6875 0 3.1375
1.75 0.0625 3.1375
1.6875 0.0625 3.2
1.6875 0.125 3.1375
1.6875 0.0625 3.1375
1.875 0 3.1375
1.8125 0 3.2
1.875 0.0625 3.2
1.875 0.125 3.1375
1.8125 0.125 3.2
1.8125 0 3.1375
1.875 0.0625 3.1375
1.8125 0.0625 3.2
1.8125 0.125 3.1375
1.8125 0.0625 3.1375
2 0 3.1375
1.9375 0 3.2
2 0.0625 3.2
2 0.125 3.1375
1.9375 0.125 3.2
1.9375 0 3.1375
2 0.0625 3.1375
1.9375 0.0625 3.2
1.9375 0.125 3.1375
1.9375 0.0625 3.1375
2.125 0 3.1375
2.0625 0 3.2
2.125 0.0625 3.2
2.125 0.125 3.1375
2.0625 0.125 3.2
2.0625 0 3.1375
2.125 0.0625 3.1375
2.0625 0.0625 3.2
2.0625 0.125 3.1375
2.0625 0.0625 3.1375
2.25 0 3.1375
2.1875 0 3.2
2.25 0.0625 3.2
2.25 0.125 3.1375
2.1875 0.125 3.2
2.1875 0 3.1375
2.25 0.0625 3.1375
2.1875 0.0625 3.2
2.1875 0.125 3.1375
2.1875 0.0625 3.1375
2.375 0 3.1375
2.3125 0 3.2
2.375 0.0625 3.2
2.375 0.125 3.1375
2.3125 0.125 3.2
2.3125 0 3.1375
2.375 0.0625 3.1375
2.3125 0.0625 3.2
2.3125 0.125 3.1375
2.3125 0.0625 3.1375
2.5 0 3.1375
2.4375 0 3.2
2.5 0.0625 3.2
2.5 0.125 3.1375
2.4375 0.125 3.2
2.4375 0 3.1375
2.5 0.0625 3.1375
2.4375 0.0625 3.2
2.4375 0.125 3.1375
2.4375 0.0625 3.1375
2.625 0 3.1375
2.5625 0 3.2
2.625 0.0625 3.2
2.625 0.125 3.1375
2.5625 0.125 3.2
2.5625 0 3.1375
2.625 0.0625 3.1375
2.5625 0.0625 3.2
2.5625 0.125 3.1375
2.5625 0.0625 3.1375
2.75 0 3.1375
2.6875 0 3.2
2.75 0.0625 3.2
2.75 0.125 3.1375
2.6875 0.125 3.2
2.6875 0 3.1375
2.75 0.0625 3.1375
2.6875 0.0625 3.2
2.6875 0.125 3.1375
2.6875 0.0625 3.1375
2.875 0 3.1375
2.8125 0 3.2
2.875 0.0625 3.2
2.875 0.125 3.1375
2.8125 0.125 3.2
2.8125 0 3.1375
2.875 0.0625 3.1375
2.8125 0.0625 3.2
2.8125 0.125 3.1375
2.8125 0.0625 3.1375
3 0 3.1375
2.9375 0 3.2
3 0.0625 3.2
3 0.125 3.1375
2.9375 0.125 3.2
2.9375 0 3.1375
3 0.0625 3.1375
2.9375 0.0625 3.2
2.9375 0.125 3.1375
2.9375 0.0625 3.1375
0.125 0.1875 3.2
0 0.1875 3.2
0.125 0.25 3.1375
0.0625 0.25 3.2
0 0.25 3.1375
0.125 0.1875 3.1375
0.0625 0.1875 3.2
0 0.1875 3.1375
0.0625 0.25 3.1375
0.0625 0.1875 3.1375
0.25 0.1875 3.2
0.25 0.25 3.1375
0.1875 0.25 3.2
0.25 0.1875 3.1375
0.1875 0.1875 3.2
0.1875 0.25 3.1375
0.1875 0.1875 3.1375
0.375 0.1875 3.2
0.375 0.25 3.1375
0.3125 0.25 3.2
0.375 0.1875 3.1375
0.3125 0.1875 3.2
0.3125 0.25 3.1375
0.3125 0.1875 3.1375
0.5 0.1875 3.2
0.5 0.25 3.1375
0.4375 0.25 3.2
0.5 0.1875 3.1375
0.4375 0.1875 3.2
0.4375 0.25 3.1375
0.4375 0.1875 3.1375
0.625 0.1875 3.2
0.625 0.25 3.1375
0.5625 0.25 3.2
0.625 0.1875 3.1375
0.5625 0.1875 3.2
0.5625 0.25 3.1375
0.5625 0.1875 3.1375
0.75 0.1875 3.2
0.75 0.25 3.1375
0.6875 0.25 3.2
0.75 0.1875 3.1375
0.6875 0.1875 3.2
0.6875 0.25 3.1375
0.6875 0.1875 3.1375
0.875 0.1875 3.2
0.875 0.25 3.1375
0.8125 0.25 3.2
0.875 0.1875 3.1375
0.8125 0.1875 3.2
0.8125 0.25 3.1375
0.8125 0.1875 3.1375
1 0.1875 3.2
1 0.25 3.1375
0.9375 0.25 3.2
1 0.1875 3.1375
0.9375 0.1875 3.2
0.9375 0.25 3.1375
0.9375 0.1875 3.1375
1.125 0.1875 3.2
1.125 0.25 3.1375
1.0625 0.25 3.2
1.125 0.1875 3.1375
1.0625 0.1875 3.2
1.0625 0.25 3.1375
1.0625 0.1875 3.1375
1.25 0.1875 3.2
1.25 0.25 3.1375
1.1875 0.25 3.2
1.25 0.1875 3.1375
1.1875 0.1875 3.2
1.1875 0.25 3.1375
1.1875 0.1875 3.1375
1.375 0.1875 3.2
1.375 0.25 3.1375
1.3125 0.25 3.2
1.375 0.1875 3.1375
1.3125 0.1875 3.2
1.3125 0.25 3.1375
1.3125 0.1875 3.1375
1.5 0.1875 3.2
1.5 0.25 3.1375
1.4375 0.25 3.2
1.5 0.1875 3.1375
1.4375 0.1875 3.2
1.4375 0.25 3.1375
1.4375 0.1875 3.1375
1.625 0.1875 3.2
1.625 0.25 3.1375
1.5625 0.25 3.2
1.625 0.1875 3.1375
1.5625 0.1875 3.2
1.5625 0.25 3.1375
1.5625 0.1875 3.1375
1.75 0.1875 3.2
1.75 0.25 3.1375
1.6875 0.25 3.2
1.75 0.1875 3.1375
1.6875 0.1875 3.2
1.6875 0.25 3.1375
1.6875 0.1875 3.1375
1.875 0.1875 3.2
1.875 0.25 3.1375
1.8125 0.25 3.2
1.875 0.1875 3.1375
1.8125 0.1875 3.2
1.8125 0.25 3.1375
1.8125 0.1875 3.1375
2 0.1875 3.2
2 0.25 3.1375
1.9375 0.25 3.2
2 0.1875 3.1375
1.9375 0.1875 3.2
1.9375 0.25 3.1375
1.9375 0.1875 3.1375
2.125 0.1875 3.2
2.125 0.25 3.1375
2.0625 0.25 3.2
2.125 0.1875 3.1375
2.0625 0.1875 3.2
2.0625 0.25 3.1375
2.0625 0.1875 3.1375
2.25 0.1875 3.2
2.25 0.25 3.1375
2.1875 0.25 3.2
2.25 0.1875 3.1375
2.1875 0.1875 3.2
2.1875 0.25 3.1375
2.1875 0.1875 3.1375
2.375 0.1875 3.2
2.375 0.25 3.1375
2.3125 0.25 3.2
2.375 0.1875 3.1375
2.3125 0.1875 3.2
2.3125 0.25 3.1375
2.3125 0.1875 3.1375
2.5 0.1875 3.2
2.5 0.25 3.1375
2.4375 0.25 3.2
2.5 0.1875 3.1375
2.4375 0.1875 3.2
2.4375 0.25 3.1375
2.4375 0.1875 3.1375
2.625 0.1875 3.2
2.625 0.25 3.1375
2.5625 0.25 3.2
2.625 0.1875 3.1375
2.5625 0.1875 3.2
2.5625 0.25 3.1375
2.5625 0.1875 3.1375
2.75 0.1875 3.2
2.75 0.25 3.1375
2.6875 0.25 3.2
2.75 0.1875 3.1375
2.6875 0.1875 3.2
2.6875 0.25 3.1375
2.6875 0.1875 3.1375
2.875 0.1875 3.2
2.875 0.25 3.1375
2.8125 0.25 3.2
2.875 0.1875 3.1375
2.8125 0.1875 3.2
2.8125 0.25 3.1375
2.8125 0.1875 3.1375
3 0.1875 3.2
3 0.25 3.1375
2.9375 0.25 3.2
3 0.1875 3.1375
2.9375 0.1875 3.2
2.9375 0.25 3.1375
2.9375 0.1875 3.1375
0.125 0.3125 3.2
0 0.3125 3.2
0.125 0.375 3.1375
0.0625 0.375 3.2
0 0.375 3.1375
0.125 0.3125 3.1375
0.0625 0.3125 3.2
0 0.3125 3.1375
0.0625 0.375 3.1375
0.0625 0.3125 3.1375
0.25 0.3125 3.2
0.25 0.375 3.1375
0.1875 0.375 3.2
0.25 0.3125 3.1375
0.1875 0.3125 3.2
0.1875 0.375 3.1375
0.1875 0.3125 3.1375
0.375 0.3125 3.2
0.375 0.375 3.1375
0.3125 0.375 3.2
0.375 0.3125 3.1375
0.3125 0.3125 3.2
0.3125 0.375 3.1375
0.3125 0.3125 3.1375
0.5 0.3125 3.2
0.5 0.375 3.1375
0.4375 0.375 3.2
0.5 0.3125 3.1375
0.4375 0.3125 3.2
0.4375 0.375 3.1375
0.4375 0.3125 3.1375
0.625 0.3125 3.2
0.625 0.375 3.1375
0.5625 0.375 3.2
0.625 0.3125 3.1375
0.5625 0.3125 3.2
0.5625 0.375 3.1375
0.5625 0.3125 3.1375
0.75 0.3125 3.2
0.75 0.375 3.1375
0.6875 0.375 3.2
0.75 0.3125 3.1375
0.6875 0.3125 3.2
0.6875 0.375 3.1375
0.6875 0.3125 3.1375
0.875 0.3125 3.2
0.875 0.375 3.1375
0.8125 0.375 3.2
0.875 0.3125 3.1375
0.8125 0.3125 3.2
0.8125 0.375 3.1375
0.8125 0.3125 3.1375
1 0.3125 3.2
1 0.375 3.1375
0.9375 0.375 3.2
1 0.3125 3.1375
0.9375 0.3125 3.2
0.9375 0.375 3.1375
0.9375 0.3125 3.1375
1.125 0.3125 3.2
1.125 0.375 3.1375
1.0625 0.375 3.2
1.125 0.3125 3.1375
1.0625 0.3125 3.2
1.0625 0.375 3.1375
1.0625 0.3125 3.1375
1.25 0.3125 3.2
1.25 0.375 3.1375
1.1875 0.375 3.2
1.25 0.3125 3.1375
1.1875 0.3125 3.2
1.1875 0.375 3.1375
1.1875 0.3125 3.1375
1.375 0.3125 3.2
1.375 0.375 3.1375
1.3125 0.375 3.2
1.375 0.3125 3.1375
1.3125 0.3125 3.2
1.3125 0.375 3.1375
1.3125 0.3125 3.1375
1.5 0.3125 3.2
1.5 0.375 3.1375
1.4375 0.375 3.2
1.5 0.3125 3.1375
1.4375 0.3125 3.2
1.4375 0.375 3.1375
1.4375 0.3125 3.1375
1.625 0.3125 3.2
1.625 0.375 3.1375
1.5625 0.375 3.2
1.625 0.3125 3.1375
1.5625 0.3125 3.2
1.5625 0.375 3.1375
1.5625 0.3125 3.1375
1.75 0.3125 3.2
1.75 0.375 3.1375
1.6875 0.375 3.2
1.75 0.3125 3.1375
1.6875 0.3125 3.2
1.6875 0.375 3.1375
1.6875 0.3125 3.1375
1.875 0.3125 3.2
1.875 0.375 3.1375
1.8125 0.375 3.2
1.875 0.3125 3.1375
1.8125 0.3125 3.2
1.8125 0.375 3.1375
1.8125 0.3125 3.1375
2 0.3125 3.2
2 0.375 3.1375
1.9375 0.375 3.2
2 0.3125 3.1375
1.9375 0.3125 3.2
1.9375 0.375 3.1375
1.9375 0.3125 3.1375
2.125 0.3125 3.2
2.125 0.375 3.1375
2.0625 0.375 3.2
2.125 0.3125 3.1375
2.0625 0.3125 3.2
2.0625 0.375 3.1375
2.0625 0.3125 3.1375
2.25 0.3125 3.2
2.25 0.375 3.1375
2.1875 0.375 3.2
2.25 0.3125 3.1375
2.1875 0.3125 3.2
2.1875 0.375 3.1375
2.1875 0.3125 3.1375
2.375 0.3125 3.2
2.375 0.375 3.1375
2.3125 0.375 3.2
2.375 0.3125 3.1375
2.3125 0.3125 3.2
2.3125 0.375 3.1375
2.3125 0.3125 3.1375
2.5 0.3125 3.2
2.5 0.375 3.1375
2.4375 0.375 3.2
2.5 0.3125 3.1375
2.4375 0.3125 3.2
2.4375 0.375 3.1375
2.4375 0.3125 3.1375
2.625 0.3125 3.2
2.625 0.375 3.1375
2.5625 0.375 3.2
2.625 0.3125 3.1375
2.5625 0.3125 3.2
2.5625 0.375 3.1375
2.5625 0.3125 3.1375
2.75 0.3125 3.2
2.75 0.375 3.1375
2.6875 0.375 3.2
2.75 0.3125 3.1375
2.6875 0.3125 3.2
2.6875 0.375 3.1375
2.6875 0.3125 3.1375
2.875 0.3125 3.2
2.875 0.375 3.1375
2.8125 0.375 3.2
2.875 0.3125 3.1375
2.8125 0.3125 3.2
2.8125 0.375 3.1375
2.8125 0.3125 3.1375
3 0.3125 3.2
3 0.375 3.1375
2.9375 0.375 3.2
3 0.3125 3.1375
2.9375 0.3125 3.2
2.9375 0.375 3.1375
2.9375 0.3125 3.1375
0.125 0.4375 3.2
0 0.4375 3.2
0.125 0.5 3.1375
0.0625 0.5 3.2
0 0.5 3.1375
0.125 0.4375 3.1375
0.0625 0.4375 3.2
0 0.4375 3.1375
0.0625 0.5 3.1375
0.0625 0.4375 3.1375
0.25 0.4375 3.2
0.25 0.5 3.1375
0.1875 0.5 3.2
0.25 0.4375 3.1375
0.1875 0.4375 3.2
0.1875 0.5 3.1375
0.1875 0.4375 3.1375
0.375 0.4375 3.2
0.375 0.5 3.1375
0.3125 0.5 3.2
0.375 0.4375 3.1375
0.3125 0.4375 3.2
0.3125 0.5 3.1375
0.3125 0.4375 3.1375
0.5 0.4375 3.2
0.5 0.5 3.1375
0.4375 0.5 3.2
0.5 0.4375 3.1375
0.4375 0.4375 3.2
0.4375 0.5 3.1375
0.4375 0.4375 3.1375
0.625 0.4375 3.2
0.625 0.5 3.1375
0.5625 0.5 3.2
0.625 0.4375 3.1375
0.5625 0.4375 3.2
0.5625 0.5 3.1375
0.5625 0.4375 3.1375
0.75 0.4375 3.2
0.75 0.5 3.1375
0.6875 0.5 3.2
0.75 0.4375 3.1375
0.6875 0.4375 3.2
0.6875 0.5 3.1375
0.6875 0.4375 3.1375
0.875 0.4375 3.2
0.875 0.5 3.1375
0.8125 0.5 3.2
0.875 0.4375 3.1375
0.8125 0.4375 3.2
0.8125 0.5 3.1375
0.8125 0.4375 3.1375
1 0.4375 3.2
1 0.5 3.1375
0.9375 0.5 3.2
1 0.4375 3.1375
0.9375 0.4375 3.2
0.9375 0.5 3.1375
0.9375 0.4375 3.1375
1.125 0.4375 3.2
1.125 0.5 3.1375
1.0625 0.5 3.2
1.125 0.4375 3.1375
1.0625 0.4375 3.2
1.0625 0.5 3.1375
1.0625 0.4375 3.1375
1.25 0.4375 3.2
1.25 0.5 3.1375
1.1875 0.5 3.2
1.25 0.4375 3.1375
1.1875 0.4375 3.2
1.1875 0.5 3.1375
1.1875 0.4375 3.1375
1.375 0.4375 3.2
1.375 0.5 3.1375
1.3125 0.5 3.2
1.375 0.4375 3.1375
1.3125 0.4375 3.2
1.3125 0.5 3.1375
1.3125 0.4375 3.1375
1.5 0.4375 3.2
1.5 0.5 3.1375
1.4375 0.5 3.2
1.5 0.4375 3.1375
1.4375 0.4375 3.2
1.4375 0.5 3.1375
1.4375 0.4375 3.1375
1.625 0.4375 3.2
1.625 0.5 3.1375
1.5625 0.5 3.2
1.625 0.4375 3.1375
1.5625 0.4375 3.2
1.5625 0.5 3.1375
1.5625 0.4375 3.1375
1.75 0.4375 3.2
1.75 0.5 3.1375
1.6875 0.5 3.2
1.75 0.4375 3.1375
1.6875 0.4375 3.2
1.6875 0.5 3.1375
1.6875 0.4375 3.1375
1.875 0.4375 3.2
1.875 0.5 3.1375
1.8125 0.5 3.2
1.875 0.4375 3.1375
1.8125 0.4375 3.2
1.8125 0.5 3.1375
1.8125 0.4375 3.1375
2 0.4375 3.2
2 0.5 3.1375
1.9375 0.5 3.2
2 0.4375 3.1375
1.9375 0.4375 3.2
1.9375 0.5 3.1375
1.9375 0.4375 3.1375
2.125 0.4375 3.2
2.125 0.5 3.1375
2.0625 0.5 3.2
2.125 0.4375 3.1375
2.0625 0.4375 3.2
2.0625 0.5 3.1375
2.0625 0.4375 3.1375
2.25 0.4375 3.2
2.25 0.5 3.1375
2.1875 0.5 3.2
2.25 0.4375 3.1375
2.1875 0.4375 3.2
2.1875 0.5 3.1375
2.1875 0.4375 3.1375
2.375 0.4375 3.2
2.375 0.5 3.1375
2.3125 0.5 3.2
2.375 0.4375 3.1375
2.3125 0.4375 3.2
2.3125 0.5 3.1375
2.3125 0.4375 3.1375
2.5 0.4375 3.2
2.5 0.5 3.1375
2.4375 0.5 3.2
2.5 0.4375 3.1375
2.4375 0.4375 3.2
2.4375 0.5 3.1375
2.4375 0.4375 3.1375
2.625 0.4375 3.2
2.625 0.5 3.1375
2.5625 0.5 3.2
2.625 0.4375 3.1375
2.5625 0.4375 3.2
2.5625 0.5 3.1375
2.5625 0.4375 3.1375
2.75 0.4375 3.2
2.75 0.5 3.1375
2.6875 0.5 3.2
2.75 0.4375 3.1375
2.6875 0.4375 3.2
2.6875 0.5 3.1375
2.6875 0.4375 3.1375
2.875 0.4375 3.2
2.875 0.5 3.1375
2.8125 0.5 3.2
2.875 0.4375 3.1375
2.8125 0.4375 3.2
2.8125 0.5 3.1375
2.8125 0.4375 3.1375
3 0.4375 3.2
3 0.5 3.1375
2.9375 0.5 3.2
3 0.4375 3.1375
2.9375 0.4375 3.2
2.9375 0.5 3.1375
2.9375 0.4375 3.1375
0.125 0.5625 3.2
0 0.5625 3.2
0.125 0.625 3.1375
0.0625 0.625 3.2
0 0.625 3.1375
0.125 0.5625 3.1375
0.0625 0.5625 3.2
0 0.5625 3.1375
0.0625 0.625 3.1375
0.0625 0.5625 3.1375
0.25 0.5625 3.2
0.25 0.625 3.1375
0.1875 0.625 3.2
0.25 0.5625 3.1375
0.1875 0.5625 3.2
0.1875 0.625 3.1375
0.1875 0.5625 3.1375
0.375 0.5625 3.2
0.375 0.625 3.1375
0.3125 0.625 3.2
0.375 0.5625 3.1375
0.3125 0.5625 3.2
0.3125 0.625 3.1375
0.3125 0.5625 3.1375
0.5 0.5625 3.2
0.5 0.625 3.1375
0.4375 0.625 3.2
0.5 0.5625 3.1375
0.4375 0.5625 3.2
0.4375 0.625 3.1375
0.4375 0.5625 3.1375
0.625 0.5625 3.2
0.625 0.625 3.1375
0.5625 0.625 3.2
0.625 0.5625 3.1375
0.5625 0.5625 3.2
0.5625 0.625 3.1375
0.5625 0.5625 3.1375
0.75 0.5625 3.2
0.75 0.625 3.1375
0.6875 0.625 3.2
0.75 0.5625 3.1375
0.6875 0.5625 3.2
0.6875 0.625 3.1375
0.6875 0.5625 3.1375
0.875 0.5625 3.2
0.875 0.625 3.1375
0.8125 0.625 3.2
0.875 0.5625 3.1375
0.8125 0.5625 3.2
0.8125 0.625 3.1375
0.8125 0.5625 3.1375
1 0.5625 3.2
1 0.625 3.1375
0.9375 0.625 3.2
1 0.5625 3.1375
0.9375 0.5625 3.2
0.9375 0.625 3.1375
0.9375 0.5625 3.1375
1.125 0.5625 3.2
1.125 0.625 3.1375
1.0625 0.625 3.2
1.125 0.5625 3.1375
1.0625 0.5625 3.2
1.0625 0.625 3.1375
1.0625 0.5625 3.1375
1.25 0.5625 3.2
1.25 0.625 3.1375
1.1875 0.625 3.2
1.25 0.5625 3.1375
1.1875 0.5625 3.2
1.1875 0.625 3.1375
1.1875 0.5625 3.1375
1.375 0.5625 3.2
1.375 0.625 3.1375
1.3125 0.625 3.2
1.375 0.5625 3.1375
1.3125 0.5625 3.2
1.3125 0.625 3.1375
1.3125 0.5625 3.1375
1.5 0.5625 3.2
1.5 0.625 3.1375
1.4375 0.625 3.2
1.5 0.5625 3.1375
1.4375 0.5625 3.2
1.4375 0.625 3.1375
1.4375 0.5625 3.1375
1.625 0.5625 3.2
1.625 0.625 3.1375
1.5625 0.625 3.2
1.625 0.5625 3.1375
1.5625 0.5625 3.2
1.5625 0.625 3.1375
1.5625 0.5625 3.1375
1.75 0.5625 3.2
1.75 0.625 3.1375
1.6875 0.625 3.2
1.75 0.5625 3.1375
1.6875 0.5625 3.2
1.6875 0.625 3.1375
1.6875 0.5625 3.1375
1.875 0.5625 3.2
1.875 0.625 3.1375
1.8125 0.625 3.2
1.875 0.5625 3.1375
1.8125 0.5625 3.2
1.8125 0.625 3.1375
1.8125 0.5625 3.1375
2 0.5625 3.2
2 0.625 3.1375
1.9375 0.625 3.2
2 0.5625 3.1375
1.9375 0.5625 3.2
1.9375 0.625 3.1375
1.9375 0.5625 3.1375
2.125 0.5625 3.2
2.125 0.625 3.1375
2.0625 0.625 3.2
2.125 0.5625 3.1375
2.0625 0.5625 3.2
2.0625 0.625 3.1375
2.0625 0.5625 3.1375
2.25 0.5625 3.2
2.25 0.625 3.1375
2.1875 0.625 3.2
2.25 0.5625 3.1375
2.1875 0.5625 3.2
2.1875 0.625 3.1375
2.1875 0.5625 3.1375
2.375 0.5625 3.2
2.375 0.625 3.1375
2.3125 0.625 3.2
2.375 0.5625 3.1375
2.3125 0.5625 3.2
2.3125 0.625 3.1375
2.3125 0.5625 3.1375
2.5 0.5625 3.2
2.5 0.625 3.1375
2.4375 0.625 3.2
2.5 0.5625 3.1375
2.4375 0.5625 3.2
2.4375 0.625 3.1375
2.4375 0.5625 3.1375
2.625 0.5625 3.2
2.625 0.625 3.1375
2.5625 0.625 3.2
2.625 0.5625 3.1375
2.5625 0.5625 3.2
2.5625 0.625 3.1375
2.5625 0.5625 3.1375
2.75 0.5625 3.2
2.75 0.625 3.1375
2.6875 0.625 3.2
2.75 0.5625 3.1375
2.6875 0.5625 3.2
2.6875 0.625 3.1375
2.6875 0.5625 3.1375
2.875 0.5625 3.2
2.875 0.625 3.1375
2.8125 0.625 3.2
2.875 0.5625 3.1375
2.8125 0.5625 3.2
2.8125 0.625 3.1375
2.8125 0.5625 3.1375
3 0.5625 3.2
3 0.625 3.1375
2.9375 0.625 3.2
3 0.5625 3.1375
2.9375 0.5625 3.2
2.9375 0.625 3.1375
2.9375 0.5625 3.1375
0.125 0.6875 3.2
0 0.6875 3.2
0.125 0.75 3.1375
0.0625 0.75 3.2
0 0.75 3.1375
0.125 0.6875 3.1375
0.0625 0.6875 3.2
0 0.6875 3.1375
0.0625 0.75 3.1375
0.0625 0.6875 3.1375
0.25 0.6875 3.2
0.25 0.75 3.1375
0.1875 0.75 3.2
0.25 0.6875 3.1375
0.1875 0.6875 3.2
0.1875 0.75 3.1375
0.1875 0.6875 3.1375
0.375 0.6875 3.2
0.375 0.75 3.1375
0.3125 0.75 3.2
0.375 0.6875 3.1375
0.3125 0.6875 3.2
0.3125 0.75 3.1375
0.3125 0.6875 3.1375
0.5 0.6875 3.2
0.5 0.75 3.1375
0.4375 0.75 3.2
0.5 0.6875 3.1375
0.4375 0.6875 3.2
0.4375 0.75 3.1375
0.4375 0.6875 3.1375
0.625 0.6875 3.2
0.625 0.75 3.1375
0.5625 0.75 3.2
0.625 0.6875 3.1375
0.5625 0.6875 3.2
0.5625 0.75 3.1375
0.5625 0.6875 3.1375
0.75 0.6875 3.2
0.75 0.75 3.1375
0.6875 0.75 3.2
0.75 0.6875 3.1375
0.6875 0.6875 3.2
0.6875 0.75 3.1375
0.6875 0.6875 3.1375
0.875 0.6875 3.2
0.875 0.75 3.1375
0.8125 0.75 3.2
0.875 0.6875 3.1375
0.8125 0.6875 3.2
0.8125 0.75 3.1375
0.8125 0.6875 3.1375
1 0.6875 3.2
1 0.75 3.1375
0.9375 0.75 3.2
1 0.6875 3.1375
0.9375 0.6875 3.2
0.9375 0.75 3.1375
0.9375 0.6875 3.1375
1.125 0.6875 3.2
1.125 0.75 3.1375
1.0625 0.75 3.2
1.125 0.6875 3.1375
1.0625 0.6875 3.2
1.0625 0.75 3.1375
1.0625 0.6875 3.1375
1.25 0.6875 3.2
1.25 0.75 3.1375
1.1875 0.75 3.2
1.25 0.6875 3.1375
1.1875 0.6875 3.2
1.1875 0.75 3.1375
1.1875 0.6875 3.1375
1.375 0.6875 3.2
1.375 0.75 3.1375
1.3125 0.75 3.2
1.375 0.6875 3.1375
1.3125 0.6875 3.2
1.3125 0.75 3.1375
1.3125 0.6875 3.1375
1.5 0.6875 3.2
1.5 0.75 3.1375
1.4375 0.75 3.2
1.5 0.6875 3.1375
1.4375 0.6875 3.2
1.4375 0.75 3.1375
1.4375 0.6875 3.1375
1.625 0.6875 3.2
1.625 0.75 3.1375
1.5625 0.75 3.2
1.625 0.6875 3.1375
1.5625 0.6875 3.2
1.5625 0.75 3.1375
1.5625 0.6875 3.1375
1.75 0.6875 3.2
1.75 0.75 3.1375
1.6875 0.75 3.2
1.75 0.6875 3.1375
1.6875 0.6875 3.2
1.6875 0.75 3.1375
1.6875 0.6875 3.1375
1.875 0.6875 3.2
1.875 0.75 3.1375
1.8125 0.75 3.2
1.875 0.6875 3.1375
1.8125 0.6875 3.2
1.8125 0.75 3.1375
1.8125 0.6875 3.1375
2 0.6875 3.2
2 0.75 3.1375
1.9375 0.75 3.2
2 0.6875 3.1375
1.9375 0.6875 3.2
1.9375 0.75 3.1375
1.9375 0.6875 3.1375
2.125 0.6875 3.2
2.125 0.75 3.1375
2.0625 0.75 3.2
2.125 0.6875 3.1375
2.0625 0.6875 3.2
2.0625 0.75 3.1375
2.0625 0.6875 3.1375
2.25 0.6875 3.2
2.25 0.75 3.1375
2.1875 0.75 3.2
2.25 0.6875 3.1375
2.1875 0.6875 3.2
2.1875 0.75 3.1375
2.1875 0.6875 3.1375
2.375 0.6875 3.2
2.375 0.75 3.1375
2.3125 0.75 3.2
2.375 0.6875 3.1375
2.3125 0.6875 3.2
2.3125 0.75 3.1375
2.3125 0.6875 3.1375
2.5 0.6875 3.2
2.5 0.75 3.1375
2.4375 0.75 3.2
2.5 0.6875 3.1375
2.4375 0.6875 3.2
2.4375 0.75 3.1375
2.4375 0.6875 3.1375
2.625 0.6875 3.2
2.625 0.75 3.1375
2.5625 0.75 3.2
2.625 0.6875 3.1375
2.5625 0.6875 3.2
2.5625 0.75 3.1375
2.5625 0.6875 3.1375
2.75 0.6875 3.2
2.75 0.75 3.1375
2.6875 0.75 3.2
2.75 0.6875 3.1375
2.6875 0.6875 3.2
2.6875 0.75 3.1375
2.6875 0.6875 3.1375
2.875 0.6875 3.2
2.875 0.75 3.1375
2.8125 0.75 3.2
2.875 0.6875 3.1375
2.8125 0.6875 3.2
2.8125 0.75 3.1375
2.8125 0.6875 3.1375
3 0.6875 3.2
3 0.75 3.1375
2.9375 0.75 3.2
3 0.6875 3.1375
2.9375 0.6875 3.2
2.9375 0.75 3.1375
2.9375 0.6875 3.1375
0.125 0.8125 3.2
0 0.8125 3.2
0.125 0.875 3.1375
0.0625 0.875 3.2
0 0.875 3.1375
0.125 0.8125 3.1375
0.0625 0.8125 3.2
0 0.8125 3.1375
0.0625 0.875 3.1375
0.0625 0.8125 3.1375
0.25 0.8125 3.2
0.25 0.875 3.1375
0.1875 0.875 3.2
0.25 0.8125 3.1375
0.1875 0.8125 3.2
0.1875 0.875 3.1375
0.1875 0.8125 3.1375
0.375 0.8125 3.2
0.375 0.875 3.1375
0.3125 0.875 3.2
0.375 0.8125 3.1375
0.3125 0.8125 3.2
0.3125 0.875 3.1375
0.3125 0.8125 3.1375
0.5 0.8125 3.2
0.5 0.875 3.1375
0.4375 0.875 3.2
0.5 0.8125 3.1375
0.4375 0.8125 3.2
0.4375 0.875 3.1375
0.4375 0.8125 3.1375
0.625 0.8125 3.2
0.625 0.875 3.1375
0.5625 0.875 3.2
0.625 0.8125 3.1375
0.5625 0.8125 3.2
0.5625 0.875 3.1375
0.5625 0.8125 3.1375
0.75 0.8125 3.2
0.75 0.875 3.1375
0.6875 0.875 3.2
0.75 0.8125 3.1375
0.6875 0.8125 3.2
0.6875 0.875 3.1375
0.6875 0.8125 3.1375
0.875 0.8125 3.2
0.875 0.875 3.1375
0.8125 0.875 3.2
0.875 0.8125 3.1375
0.8125 0.8125 3.2
0.8125 0.875 3.1375
0.8125 0.8125 3.1375
1 0.8125 3.2
1 0.875 3.1375
0.9375 0.875 3.2
1 0.8125 3.1375
0.9375 0.8125 3.2
0.9375 0.875 3.1375
0.9375 0.8125 3.1375
1.125 0.8125 3.2
1.125 0.875 3.1375
1.0625 0.875 3.2
1.125 0.8125 3.1375
1.0625 0.8125 3.2
1.0625 0.875 3.1375
1.0625 0.8125 3.1375
1.25 0.8125 3.2
1.25 0.875 3.1375
1.1875 0.875 3.2
1.25 0.8125 3.1375
1.1875 0.8125 3.2
1.1875 0.875 3.1375
1.1875 0.8125 3.1375
1.375 0.8125 3.2
1.375 0.875 3.1375
1.3125 0.875 3.2
1.375 0.8125 3.1375
1.3125 0.8125 3.2
1.3125 0.875 3.1375
1.3125 0.8125 3.1375
1.5 0.8125 3.2
1.5 0.875 3.1375
1.4375 0.875 3.2
1.5 0.8125 3.1375
1.4375 0.8125 3.2
1.4375 0.875 3.1375
1.4375 0.8125 3.1375
1.625 0.8125 3.2
1.625 0.875 3.1375
1.5625 0.875 3.2
1.625 0.8125 3.1375
1.5625 0.8125 3.2
1.5625 0.875 3.1375
1.5625 0.8125 3.1375
1.75 0.8125 3.2
1.75 0.875 3.1375
1.6875 0.875 3.2
1.75 0.8125 3.1375
1.6875 0.8125 3.2
1.6875 0.875 3.1375
1.6875 0.8125 3.1375
1.875 0.8125 3.2
1.875 0.875 3.1375
1.8125 0.875 3.2
1.875 0.8125 3.1375
1.8125 0.8125 3.2
1.8125 0.875 3.1375
1.8125 0.8125 3.1375
2 0.8125 3.2
2 0.875 3.1375
1.9375 0.875 3.2
2 0.8125 3.1375
1.9375 0.8125 3.2
1.9375 0.875 3.1375
1.9375 0.8125 3.1375
2.125 0.8125 3.2
2.125 0.875 3.1375
2.0625 0.875 3.2
2.125 0.8125 3.1375
2.0625 0.8125 3.2
2.0625 0.875 3.1375
2.0625 0.8125 3.1375
2.25 0.8125 3.2
2.25 0.875 3.1375
2.1875 0.875 3.2
2.25 0.8125 3.1375
2.1875 0.8125 3.2
2.1875 0.875 3.1375
2.1875 0.8125 3.1375
2.375 0.8125 3.2
2.375 0.875 3.1375
2.3125 0.875 3.2
2.375 0.8125 3.1375
2.3125 0.8125 3.2
2.3125 0.875 3.1375
2.3125 0.8125 3.1375
2.5 0.8125 3.2
2.5 0.875 3.1375
2.4375 0.875 3.2
2.5 0.8125 3.1375
2.4375 0.8125 3.2
2.4375 0.875 3.1375
2.4375 0.8125 3.1375
2.625 0.8125 3.2
2.625 0.875 3.1375
2.5625 0.875 3.2
2.625 0.8125 3.1375
2.5625 0.8125 3.2
2.5625 0.875 3.1375
2.5625 0.8125 3.1375
2.75 0.8125 3.2
2.75 0.875 3.1375
2.6875 0.875 3.2
2.75 0.8125 3.1375
2.6875 0.8125 3.2
2.6875 0.875 3.1375
2.6875 0.8125 3.1375
2.875 0.8125 3.2
2.875 0.875 3.1375
2.8125 0.875 3.2
2.875 0.8125 3.1375
2.8125 0.8125 3.2
2.8125 0.875 3.1375
2.8125 0.8125 3.1375
3 0.8125 3.2
3 0.875 3.1375
2.9375 0.875 3.2
3 0.8125 3.1375
2.9375 0.8125 3.2
2.9375 0.875 3.1375
2.9375 0.8125 3.1375
0.125 0.9375 3.2
0 0.9375 3.2
0.125 1 3.1375
0.0625 1 3.2
0 1 3.1375
0.125 0.9375 3.1375
0.0625 0.9375 3.2
0 0.9375 3.1375
0.0625 1 3.1375
0.0625 0.9375 3.1375
0.25 0.9375 3.2
0.25 1 3.1375
0.1875 1 3.2
0.25 0.9375 3.1375
0.1875 0.9375 3.2
0.1875 1 3.1375
0.1875 0.9375 3.1375
0.375 0.9375 3.2
0.375 1 3.1375
0.3125 1 3.2
0.375 0.9375 3.1375
0.3125 0.9375 3.2
0.3125 1 3.1375
0.3125 0.9375 3.1375
0.5 0.9375 3.2
0.5 1 3.1375
0.4375 1 3.2
0.5 0.9375 3.1375
0.4375 0.9375 3.2
0.4375 1 3.1375
0.4375 0.9375 3.1375
0.625 0.9375 3.2
0.625 1 3.1375
0.5625 1 3.2
0.625 0.9375 3.1375
0.5625 0.9375 3.2
0.5625 1 3.1375
0.5625 0.9375 3.1375
0.75 0.9375 3.2
0.75 1 3.1375
0.6875 1 3.2
0.75 0.9375 3.1375
0.6875 0.9375 3.2
0.6875 1 3.1375
0.6875 0.9375 3.1375
0.875 0.9375 3.2
0.875 1 3.1375
0.8125 1 3.2
0.875 0.9375 3.1375
0.8125 0.9375 3.2
0.8125 1 3.1375
0.8125 0.9375 3.1375
1 0.9375 3.2
1 1 3.1375
0.9375 1 3.2
1 0.9375 3.1375
0.9375 0.9375 3.2
0.9375 1 3.1375
0.9375 0.9375 3.1375
1.125 0.9375 3.2
1.125 1 3.1375
1.0625 1 3.2
1.125 0.9375 3.1375
1.0625 0.9375 3.2
1.0625 1 3.1375
1.0625 0.9375 3.1375
1.25 0.9375 3.2
1.25 1 3.1375
1.1875 1 3.2
1.25 0.9375 3.1375
1.1875 0.9375 3.2
1.1875 1 3.1375
1.1875 0.9375 3.1375
1.375 0.9375 3.2
1.375 1 3.1375
1.3125 1 3.2
1.375 0.9375 3.1375
1.3125 0.9375 3.2
1.3125 1 3.1375
1.3125 0.9375 3.1375
1.5 0.9375 3.2
1.5 1 3.1375
1.4375 1 3.2
1.5 0.9375 3.1375
1.4375 0.9375 3.2
1.4375 1 3.1375
1.4375 0.9375 3.1375
1.625 0.9375 3.2
1.625 1 3.1375
1.5625 1 3.2
1.625 0.9375 3.1375
1.5625 0.9375 3.2
1.5625 1 3.1375
1.5625 0.9375 3.1375
1.75 0.9375 3.2
1.75 1 3.1375
1.6875 1 3.2
1.75 0.9375 3.1375
1.6875 0.9375 3.2
1.6875 1 3.1375
1.6875 0.9375 3.1375
1.875 0.9375 3.2
1.875 1 3.1375
1.8125 1 3.2
1.875 0.9375 3.1375
1.8125 0.9375 3.2
1.8125 1 3.1375
1.8125 0.9375 3.1375
2 0.9375 3.2
2 1 3.1375
1.9375 1 3.2
2 0.9375 3.1375
1.9375 0.9375 3.2
1.9375 1 3.1375
1.9375 0.9375 3.1375
2.125 0.9375 3.2
2.125 1 3.1375
2.0625 1 3.2
2.125 0.9375 3.1375
2.0625 0.9375 3.2
2.0625 1 3.1375
2.0625 0.9375 3.1375
2.25 0.9375 3.2
2.25 1 3.1375
2.1875 1 3.2
2.25 0.9375 3.1375
2.1875 0.9375 3.2
2.1875 1 3.1375
2.1875 0.9375 3.1375
2.375 0.9375 3.2
2.375 1 3.1375
2.3125 1 3.2
2.375 0.9375 3.1375
2.3125 0.9375 3.2
2.3125 1 3.1375
2.3125 0.9375 3.1375
2.5 0.9375 3.2
2.5 1 3.1375
2.4375 1 3.2
2.5 0.9375 3.1375
2.4375 0.9375 3.2
2.4375 1 3.1375
2.4375 0.9375 3.1375
2.625 0.9375 3.2
2.625 1 3.1375
2.5625 1 3.2
2.625 0.9375 3.1375
2.5625 0.9375 3.2
2.5625 1 3.1375
2.5625 0.9375 3.1375
2.75 0.9375 3.2
2.75 1 3.1375
2.6875 1 3.2
2.75 0.9375 3.1375
2.6875 0.9375 3.2
2.6875 1 3.1375
2.6875 0.9375 3.1375
2.875 0.9375 3.2
2.875 1 3.1375
2.8125 1 3.2
2.875 0.9375 3.1375
2.8125 0.9375 3.2
2.8125 1 3.1375
2.8125 0.9375 3.1375
3 0.9375 3.2
3 1 3.1375
2.9375 1 3.2
3 0.9375 3.1375
2.9375 0.9375 3.2
2.9375 1 3.1375
2.9375 0.9375 3.1375

CELLS 1537 41472
OFFSETS vtktypeint64
0 27 54 81 108 135 162 189 216 243 270 297 324 351 378 405 432 459 486 513 540 567 594 621 648 675 702 729 756 783 810 837 864 891 918 945 972 999 1026 1053 1080 1107 1134 1161 1188 1215 1242 1269 1296 1323 1350 1377 1404 1431 1458 1485 1512 1539 1566 1593 1620 1647 1674 1701 1728 1755 1782 1809 1836 1863 1890 1917 1944 1971 1998 2025 2052 2079 2106 2133 2160 2187 2214 2241 2268 2295 2322 2349 2376 2403 2430 2457 2484 2511 2538 2565 2592 2619 2646 2673 2700 2727 2754 2781 2808 2835 2862 2889 2916 2943 2970 2997 3024 3051 3078 3105 3132 3159 3186 3213 3240 3267 3294 3321 3348 3375 3402 3429 3456 3483 3510 3537 3564 3591 3618 3645 3672 3699 3726 3753 3780 3807 3834 3861 3888 3915 3942 3969 3996 4023 4050 4077 4104 4131 4158 4185 4212 4239 4266 4293 4320 4347 4374 4401 4428 4455 4482 4509 4536 4563 4590 4617 4644 4671 4698 4725 4752 4779 4806 4833 4860 4887 4914 4941 4968 4995 5022 5049 5076 5103 5130 5157 5184 5211 5238 5265 5292 5319 5346 5373 5400 5427 5454 5481 5508 5535 5562 5589 5616 5643 5670 5697 5724 5751 5778 5805 5832 5859 5886 5913 5940 5967 5994 6021 6048 6075 6102 6129 6156 6183 6210 6237 6264 6291 6318 6345 6372 6399 6426 6453 6480 6507 6534 6561 6588 6615 6642 6669 6696 6723 6750 6777 6804 6831 6858 6885 6912 6939 6966 6993 7020 7047 7074 7101 7128 7155 7182 7209 7236 7263 7290 7317 7344 7371 7398 7425 7452 7479 7506 7533 7560 7587 7614 7641 7668 7695 7722 7749 7776 7803 7830 7857 7884 7911 7938 7965 7992 8019 8046 8073 8100 8127 8154 8181 8208 8235 8262 8289 8316 8343 8370 8397 8424 8451 8478 8505 8532 8559 8586 8613 8640 8667 8694 8721 8748 8775 8802 8829 8856 8883 8910 8937 8964 8991 9018 9045 9072 9099 9126 9153 9180 9207 9234 9261 9288 9315 9342 9369 9396 9423 9450 9477 9504 9531 9558 9585 9612 9639 9666 9693 9720 9747 9774 9801 9828 9855 9882 9909 9936 9963 9990 10017 10044 10071 10098 10125 10152 10179 10206 10233 10260 10287 10314 10341 10368 10395 10422 10449 10476 10503 10530 10557 10584 10611 10638 10665 10692 10719 10746 10773 10800 10827 10854 10881 10908 10935 10962 10989 11016 11043 11070 11097 11124 11151 11178 11205 11232 11259 11286 11313 11340 11367 11394 11421 11448 11475 11502 11529 11556 11583 11610 11637 11664 11691 11718 11745 11772 11799 11826 11853 11880 11907 11934 11961 11988 12015 12042 12069 12096 12123 12150 12177 12204 12231 12258 12285 12312 12339 12366 12393 12420 12447 12474 12501 12528 12555 12582 12609 12636 12663 12690 12717 12744 12771 12798 12825 12852 12879 12906 12933 12960 12987 13014 13041 13068 13095 13122 13149 13176 13203 13230 13257 13284 13311 13338 13365 13392 13419 13446 13473 13500 13527 13554 13581 13608 13635 13662 13689 13716 13743 13770 13797 13824 13851 13878 13905 13932 13959 13986 14013 14040 14067 14094 14121 14148 14175 14202 14229 14256 14283 14310 14337 14364 14391 14418 14445 14472 14499 14526 14553 14580 14607 14634 14661 14688 14715 14742 14769 14796 14823 14850 14877 14904 14931 14958 14985 15012 15039 15066 15093 15120 15147 15174 15201 15228 15255 15282 15309 15336 15363 15390 15417 15444 15471 15498 15525 15552 15579 15606 15633 15660 15687 15714 15741 15768 15795 15822 15849 15876 15903 15930 15957 15984 16011 16038 16065 16092 16119 16146 16173 16200 16227 16254 16281 16308 16335 16362 16389 16416 16443 16470 16497 16524 16551 16578 16605 16632 16659 16686 16713 16740 16767 16794 16821 16848 16875 16902 16929 16956 16983 17010 17037 17064 17091 17118 17145 17172 17199 17226 17253 17280 17307 17334 17361 17388 17415 17442 17469 17496 17523 17550 17577 17604 17631 17658 17685 17712 17739 17766 17793 17820 17847 17874 17901 17928 17955 17982 18009 18036 18063 18090 18117 18144 18171 18198 18225 18252 18279 18306 18333 18360 18387 18414 18441 18468 18495 18522 18549 18576 18603 18630 18657 18684 18711 18738 18765 18792 18819 18846 18873 18900 18927 18954 18981 19008 19035 19062 19089 19116 19143 19170 19197 19224 19251 19278 19305 19332 19359 19386 19413 19440 19467 19494 19521 19548 19575 19602 19629 19656 19683 19710 19737 19764 19791 19818 19845 19872 19899 19926 19953 19980 20007 20034 20061 20088 20115 20142 20169 20196 20223 20250 20277 20304 20331 20358 20385 20412 20439 20466 20493 20520 20547 20574 20601 20628 20655 20682 20709 20736 20763 20790 20817 20844 20871 20898 20925 20952 20979 21006 21033 21060 21087 21114 21141 21168 21195 21222 21249 21276 21303 21330 21357 21384 21411 21438 21465 21492 21519 21546 21573 21600 21627 21654 21681 21708 21735 21762 21789 21816 21843 21870 21897 21924 21951 21978 22005 22032 22059 22086 22113 22140 22167 22194 22221 22248 22275 22302 22329 22356 22383 22410 22437 22464 22491 22518 22545 22572 22599 22626 22653 22680 22707 22734 22761 22788 22815 22842 22869 22896 22923 22950 22977 23004 23031 23058 23085 23112 23139 23166 23193 23220 23247 23274 23301 23328 23355 23382 23409 23436 23463 23490 23517 23544 23571 23598 23625 23652 23679 23706 23733 23760 23787 23814 23841 23868 23895 23922 23949 23976 24003 24030 24057 24084 24111 24138 24165 24192 24219 24246 24273 24300 24327 24354 24381 24408 24435 24462 24489 24516 24543 24570 24597 24624 24651 24678 24705 24732 24759 24786 24813 24840 24867 24894 24921 24948 24975 25002 25029 25056 25083 25110 25137 25164 25191 25218 25245 25272 25299 25326 25353 25380 25407 25434 25461 25488 25515 25542 25569 25596 25623 25650 25677 25704 25731 25758 25785 25812 25839 25866 25893 25920 25947 25974 26001 26028 26055 26082 26109 26136 26163 26190 26217 26244 26271 26298 26325 26352 26379 26406 26433 26460 26487 26514 26541 26568 26595 26622 26649 26676 26703 26730 26757 26784 26811 26838 26865 26892 26919 26946 26973 27000 27027 27054 27081 27108 27135 27162 27189 27216 27243 27270 27297 27324 27351 27378 27405 27432 27459 27486 27513 27540 27567 27594 27621 27648 27675 27702 27729 27756 27783 27810 27837 27864 27891 27918 27945 27972 27999 28026 28053 28080 28107 28134 28161 28188 28215 28242 28269 28296 28323 28350 28377 28404 28431 28458 28485 28512 28539 28566 28593 28620 28647 28674 28701 28728 28755 28782 28809 28836 28863 28890 28917 28944 28971 28998 29025 29052 29079 29106 29133 29160 29187 29214 29241 29268 29295 29322 29349 29376 29403 29430 29457 29484 29511 29538 29565 29592 29619 29646 29673 29700 29727 29754 29781 29808 29835 29862 29889 29916 29943 29970 29997 30024 30051 30078 30105 30132 30159 30186 30213 30240 30267 30294 30321 30348 30375 30402 30429 30456 30483 30510 30537 30564 30591 30618 30645 30672 30699 30726 30753 30780 30807 30834 30861 30888 30915 30942 30969 30996 31023 31050 31077 31104 31131 31158 31185 31212 31239 31266 31293 31320 31347 31374 31401 31428 31455 31482 31509 31536 31563 31590 31617 31644 31671 31698 31725 31752 31779 31806 31833 31860 31887 31914 31941 31968 31995 32022 32049 32076 32103 32130 32157 32184 32211 32238 32265 32292 32319 32346 32373 32400 32427 32454 32481 32508 32535 32562 32589 32616 32643 32670 32697 32724 32751 32778 32805 32832 32859 32886 32913 32940 32967 32994 33021 33048 33075 33102 33129 33156 33183 33210 33237 33264 33291 33318 33345 33372 33399 33426 33453 33480 33507 33534 33561 33588 33615 33642 33669 33696 33723 33750 33777 33804 33831 33858 33885 33912 33939 33966 33993 34020 34047 34074 34101 34128 34155 34182 34209 34236 34263 34290 34317 34344 34371 34398 34425 34452 34479 34506 34533 34560 34587 34614 34641 34668 34695 34722 34749 34776 34803 34830 34857 34884 34911 34938 34965 34992 35019 35046 35073 35100 35127 35154 35181 35208 35235 35262 35289 35316 35343 35370 35397 35424 35451 35478 35505 35532 35559 35586 35613 35640 35667 35694 35721 35748 35775 35802 35829 35856 35883 35910 35937 35964 35991 36018 36045 36072 36099 36126 36153 36180 36207 36234 36261 36288 36315 36342 36369 36396 36423 36450 36477 36504 36531 36558 36585 36612 36639 36666 36693 36720 36747 36774 36801 36828 36855 36882 36909 36936 36963 36990 37017 37044 37071 37098 37125 37152 37179 37206 37233 37260 37287 37314 37341 37368 37395 37422 37449 37476 37503 37530 37557 37584 37611 37638 37665 37692 37719 37746 37773 37800 37827 37854 37881 37908 37935 37962 37989 38016 38043 38070 38097 38124 38151 38178 38205 38232 38259 38286 38313 38340 38367 38394 38421 38448 38475 38502 38529 38556 38583 38610 38637 38664 38691 38718 38745 38772 38799 38826 38853 38880 38907 38934 38961 38988 39015 39042 39069 39096 39123 39150 39177 39204 39231 39258 39285 39312 39339 39366 39393 39420 39447 39474 39501 39528 39555 39582 39609 39636 39663 39690 39717 39744 39771 39798 39825 39852 39879 39906 39933 39960 39987 40014 40041 40068 40095 40122 40149 40176 40203 40230 40257 40284 40311 40338 40365 40392 40419 40446 40473 40500 40527 40554 40581 40608 40635 40662 40689 40716 40743 40770 40797 40824 40851 40878 40905 40932 40959 40986 41013 41040 41067 41094 41121 41148 41175 41202 41229 41256 41283 41310 41337 41364 41391 41418 41445 41472 
CONNECTIVITY vtktypeint64
0 1 226 225 25 26 251 250 2025 2026 2027 2028 2033 2034 2035 2036 2029 2030 2031 2032 2041 2039 2038 2040 2037 2042 2043 
1 2 227 226 26 27 252 251 2044 2045 2046 2026 2049 2050 2051 2034 2030 2047 2048 2031 2039 2054 2053 2055 2052 2056 2057 
2 3 228 227 27 28 253 252 2058 2059 2060 2045 2063 2064 2065 2050 2047 2061 2062 2048 2054 2068 2067 2069 2066 2070 2071 
3 4 229 228 28 29 254 253 2072 2073 2074 2059 2077 2078 2079 2064 2061 2075 2076 2062 2068 2082 2081 2083 2080 2084 2085 
4 5 230 229 29 30 255 254 2086 2087 2088 2073 2091 2092 2093 2078 2075 2089 2090 2076 2082 2096 2095 2097 2094 2098 2099 
5 6 231 230 30 31 256 255 2100 2101 2102 2087 2105 2106 2107 2092 2089 2103 2104 2090 2096 2110 2109 2111 2108 2112 2113 
6 7 232 231 31 32 257 256 2114 2115 2116 2101 2119 2120 2121 2106 2103 2117 2118 2104 2110 2124 2123 2125 2122 2126 2127 
7 8 233 232 32 33 258 257 2128 2129 2130 2115 2133 2134 2135 2120 2117 2131 2132 2118 2124 2138 2137 2139 2136 2140 2141 
8 9 234 233 33 34 259 258 2142 2143 2144 2129 2147 2148 2149 2134 2131 2145 2146 2132 2138 2152 2151 2153 2150 2154 2155 
9 10 235 234 34 35 260 259 2156 2157 2158 2143 2161 2162 2163 2148 2145 2159 2160 2146 2152 2166 2165 2167 2164 2168 2169 
10 11 236 235 35 36 261 260 2170 2171 2172 2157 2175 2176 2177 2162 2159 2173 2174 2160 2166 2180 2179 2181 2178 2182 2183 
11 12 237 236 36 37 262 261 2184 2185 2186 2171 2189 2190 2191 2176 2173 2187 2188 2174 2180 2194 2193 2195 2192 2196 2197 
12 13 238 237 37 38 263 262 2198 2199 2200 2185 2203 2204 2205 2190 2187 2201 2202 2188 2194 2208 2207 2209 2206 2210 2211 
13 14 239 238 38 39 264 263 2212 2213 2214 2199 2217 2218 2219 2204 2201 2215 2216 2202 2208 2222 2221 2223 2220 2224 2225 
14 15 240 239 39 40 265 264 2226 2227 2228 2213 2231 2232 2233 2218 2215 2229 2230 2216 2222 2236 2235 2237 2234 2238 2239 
15 16 241 240 40 41 266 265 2240 2241 2242 2227 2245 2246 2247 2232 2229 2243 2244 2230 2236 2250 2249 2251 2248 2252 2253 
16 17 242 241 41 42 267 266 2254 2255 2256 2241 2259 2260 2261 2246 2243 2257 2258 2244 2250 2264 2263 2265 2262 2266 2267 
17 18 243 242 42 43 268 267 2268 2269 2270 2255 2273 2274 2275 2260 2257 2271 2272 2258 2264 2278 2277 2279 2276 2280 2281 
18 19 244 243 43 44 269 268 2282 2283 2284 2269 2287 2288 2289 2274 2271 2285 2286 2272 2278 2292 2291 2293 2290 2294 2295 
19 20 245 244 44 45 270 269 2296 2297 2298 2283 2301 2302 2303 2288 2285 2299 2300 2286 2292 2306 2305 2307 2304 2308 2309 
20 21 246 245 45 46 271 270 2310 2311 2312 2297 2315 2316 2317 2302 2299 2313 2314 2300 2306 2320 2319 2321 2318 2322 2323 
21 22 247 246 46 47 272 271 2324 2325 2326 2311 2329 2330 2331 2316 2313 2327 2328 2314 2320 2334 2333 2335 2332 2336 2337 
22 23 248 247 47 48 273 272 2338 2339 2340 2325 2343 2344 2345 2330 2327 2341 2342 2328 2334 2348 2347 2349 2346 2350 2351 
23 24 249 248 48 49 274 273 2352 2353 2354 2339 2357 2358 2359 2344 2341 2355 2356 2342 2348 2362 2361 2363 2360 2364 2365 
25 26 251 250 50 51 276 275 2033 2034 2035 2036 2370 2371 2372 2373 2366 2367 2368 2369 2377 2375 2374 2376 2042 2378 2379 
26 27 252 251 51 52 277 276 2049 2050 2051 2034 2382 2383 2384 2371 2367 2380 2381 2368 2375 2386 2385 2387 2056 2388 2389 
27 28 253 252 52 53 278 277 2063 2064 2065 2050 2392 2393 2394 2383 2380 2390 2391 2381 2386 2396 2395 2397 2070 2398 2399 
28 29 254 253 53 54 279 278 2077 2078 2079 2064 2402 2403 2404 2393 2390 2400 2401 2391 2396 2406 2405 2407 2084 2408 2409 
29 30 255 254 54 55 280 279 2091 2092 2093 2078 2412 2413 2414 2403 2400 2410 2411 2401 2406 2416 2415 2417 2098 2418 2419 
30 31 256 255 55 56 281 280 2105 2106 2107 2092 2422 2423 2424 2413 2410 2420 2421 2411 2416 2426 2425 2427 2112 2428 2429 
31 32 257 256 56 57 282 281 2119 2120 2121 2106 2432 2433 2434 2423 2420 2430 2431 2421 2426 2436 2435 2437 2126 2438 2439 
32 33 258 257 57 58 283 282 2133 2134 2135 2120 2442 2443 2444 2433 2430 2440 2441 2431 2436 2446 2445 2447 2140 2448 2449 
33 34 259 258 58 59 284 283 2147 2148 2149 2134 2452 2453 2454 2443 2440 2450 2451 2441 2446 2456 2455 2457 2154 2458 2459 
34 35 260 259 59 60 285 284 2161 2162 2163 2148 2462 2463 2464 2453 2450 2460 2461 2451 2456 2466 2465 2467 2168 2468 2469 
35 36 261 260 60 61 286 285 2175 2176 2177 2162 2472 2473 2474 2463 2460 2470 2471 2461 2466 2476 2475 2477 2182 2478 2479 
36 37 262 261 61 62 287 286 2189 2190 2191 2176 2482 2483 2484 2473 2470 2480 2481 2471 2476 2486 2485 2487 2196 2488 2489 
37 38 263 262 62 63 288 287 2203 2204 2205 2190 2492 2493 2494 2483 2480 2490 2491 2481 2486 2496 2495 2497 2210 2498 2499 
38 39 264 263 63 64 289 288 2217 2218 2219 2204 2502 2503 2504 2493 2490 2500 2501 2491 2496 2506 2505 2507 2224 2508 2509 
39 40 265 264 64 65 290 289 2231 2232 2233 2218 2512 2513 2514 2503 2500 2510 2511 2501 2506 2516 2515 2517 2238 2518 2519 
40 41 266 265 65 66 291 290 2245 2246 2247 2232 2522 2523 2524 2513 2510 2520 2521 2511 2516 2526 2525 2527 2252 2528 2529 
41 42 267 266 66 67 292 291 2259 2260 2261 2246 2532 2533 2534 2523 2520 2530 2531 2521 2526 2536 2535 2537 2266 2538 2539 
42 43 268 267 67 68 293 292 2273 2274 2275 2260 2542 2543 2544 2533 2530 2540 2541 2531 2536 2546 2545 2547 2280 2548 2549 
43 44 269 268 68 69 294 293 2287 2288 2289 2274 2552 2553 2554 2543 2540 2550 2551 2541 2546 2556 2555 2557 2294 2558 2559 
44 45 270 269 69 70 295 294 2301 2302 2303 2288 2562 2563 2564 2553 2550 2560 2561 2551 2556 2566 2565 2567 2308 2568 2569 
45 46 271 270 70 71 296 295 2315 2316 2317 2302 2572 2573 2574 2563 2560 2570 2571 2561 2566 2576 2575 2577 2322 2578 2579 
46 47 272 271 71 72 297 296 2329 2330 2331 2316 2582 2583 2584 2573 2570 2580 2581 2571 2576 2586 2585 2587 2336 2588 2589 
47 48 273 272 72 73 298 297 2343 2344 2345 2330 2592 2593 2594 2583 2580 2590 2591 2581 2586 2596 2595 2597 2350 2598 2599 
48 49 274 273 73 74 299 298 2357 2358 2359 2344 2602 2603 2604 2593 2590 2600 2601 2591 2596 2606 2605 2607 2364 2608 2609 
50 51 276 275 75 76 301 300 2370 2371 2372 2373 2614 2615 2616 2617 2610 2611 2612 2613 2621 2619 2618 2620 2378 2622 2623 
51 52 277 276 76 77 302 301 2382 2383 2384 2371 2626 2627 2628 2615 2611 2624 2625 2612 2619 2630 2629 2631 2388 2632 2633 
52 53 278 277 77 78 303 302 2392 2393 2394 2383 2636 2637 2638 2627 2624 2634 2635 2625 2630 2640 2639 2641 2398 2642 2643 
53 54 279 278 78 79 304 303 2402 2403 2404 2393 2646 2647 2648 2637 2634 2644 2645 2635 2640 2650 2649 2651 2408 2652 2653 
54 55 280 279 79 80 305 304 2412 2413 2414 2403 2656 2657 2658 2647 2644 2654 2655 2645 2650 2660 2659 2661 2418 2662 2663 
55 56 281 280 80 81 306 305 2422 2423 2424 2413 2666 2667 2668 2657 2654 2664 2665 2655 2660 2670 2669 2671 2428 2672 2673 
56 57 282 281 81 82 307 306 2432 2433 2434 2423 2676 2677 2678 2667 2664 2674 2675 2665 2670 2680 2679 2681 2438 2682 2683 
57 58 283 282 82 83 308 307 2442 2443 2444 2433 2686 2687 2688 2677 2674 2684 2685 2675 2680 2690 2689 2691 2448 2692 2693 
58 59 284 283 83 84 309 308 2452 2453 2454 2443 2696 2697 2698 2687 2684 2694 2695 2685 2690 2700 2699 2701 2458 2702 2703 
59 60 285 284 84 85 310 309 2462 2463 2464 2453 2706 2707 2708 2697 2694 2704 2705 2695 2700 2710 2709 2711 2468 2712 2713 
60 61 286 285 85 86 311 310 2472 2473 2474 2463 2716 2717 2718 2707 2704 2714 2715 2705 2710 2720 2719 2721 2478 2722 2723 
61 62 287 286 86 87 312 311 2482 2483 2484 2473 2726 2727 2728 2717 2714 2724 2725 2715 2720 2730 2729 2731 2488 2732 2733 
62 63 288 287 87 88 313 312 2492 2493 2494 2483 2736 2737 2738 2727 2724 2734 2735 2725 2730 2740 2739 2741 2498 2742 2743 
63 64 289 288 88 89 314 313 2502 2503 2504 2493 2746 2747 2748 2737 2734 2744 2745 2735 2740 2750 2749 2751 2508 2752 2753 
64 65 290 289 89 90 315 314 2512 2513 2514 2503 2756 2757 2758 2747 2744 2754 2755 2745 2750 2760 2759 2761 2518 2762 2763 
65 66 291 290 90 91 316 315 2522 2523 2524 2513 2766 2767 2768 2757 2754 2764 2765 2755 2760 2770 2769 2771 2528 2772 2773 
66 67 292 291 91 92 317 316 2532 2533 2534 2523 2776 2777 2778 2767 2764 2774 2775 2765 2770 2780 2779 2781 2538 2782 2783 
67 68 293 292 92 93 318 317 2542 2543 2544 2533 2786 2787 2788 2777 2774 2784 2785 2775 2780 2790 2789 2791 2548 2792 2793 
68 69 294 293 93 94 319 318 2552 2553 2554 2543 2796 2797 2798 2787 2784 2794 2795 2785 2790 2800 2799 2801 2558 2802 2803 
69 70 295 294 94 95 320 319 2562 2563 2564 2553 2806 2807 2808 2797 2794 2804 2805 2795 2800 2810 2809 2811 2568 2812 2813 
70 71 296 295 95 96 321 320 2572 2573 2574 2563 2816 2817 2818 2807 2804 2814 2815 2805 2810 2820 2819 2821 2578 2822 2823 
71 72 297 296 96 97 322 321 2582 2583 2584 2573 2826 2827 2828 2817 2814 2824 2825 2815 2820 2830 2829 2831 2588 2832 2833 
72 73 298 297 97 98 323 322 2592 2593 2594 2583 2836 2837 2838 2827 2824 2834 2835 2825 2830 2840 2839 2841 2598 2842 2843 
73 74 299 298 98 99 324 323 2602 2603 2604 2593 2846 2847 2848 2837 2834 2844 2845 2835 2840 2850 2849 2851 2608 2852 2853 
75 76 301 300 100 101 326 325 2614 2615 2616 2617 2858 2859 2860 2861 2854 2855 2856 2857 2865 2863 2862 2864 2622 2866 2867 
76 77 302 301 101 102 327 326 2626 2627 2628 2615 2870 2871 2872 2859 2855 2868 2869 2856 2863 2874 2873 2875 2632 2876 2877 
77 78 303 302 102 103 328 327 2636 2637 2638 2627 2880 2881 2882 2871 2868 2878 2879 2869 2874 2884 2883 2885 2642 2886 2887 
78 79 304 303 103 104 329 328 2646 2647 2648 2637 2890 2891 2892 2881 2878 2888 2889 2879 2884 2894 2893 2895 2652 2896 2897 
79 80 305 304 104 105 330 329 2656 2657 2658 2647 2900 2901 2902 2891 2888 2898 2899 2889 2894 2904 2903 2905 2662 2906 2907 
80 81 306 305 105 106 331 330 2666 2667 2668 2657 2910 2911 2912 2901 2898 2908 2909 2899 2904 2914 2913 2915 2672 2916 2917 
81 82 307 306 106 107 332 331 2676 2677 2678 2667 2920 2921 2922 2911 2908 2918 2919 2909 2914 2924 2923 2925 2682 2926 2927 
82 83 308 307 107 108 333 332 2686 2687 2688 2677 2930 2931 2932 2921 2918 2928 2929 2919 2924 2934 2933 2935 2692 2936 2937 
83 84 309 308 108 109 334 333 2696 2697 2698 2687 2940 2941 2942 2931 2928 2938 2939 2929 2934 2944 2943 2945 2702 2946 2947 
84 85 310 309 109 110 335 334 2706 2707 2708 2697 2950 2951 2952 2941 2938 2948 2949 2939 2944 2954 2953 2955 2712 2956 2957 
85 86 311 310 110 111 336 335 2716 2717 2718 2707 2960 2961 2962 2951 2948 2958 2959 2949 2954 2964 2963 2965 2722 2966 2967 
86 87 312 311 111 112 337 336 2726 2727 2728 2717 2970 2971 2972 2961 2958 2968 2969 2959 2964 2974 2973 2975 2732 2976 2977 
87 88 313 312 112 113 338 337 2736 2737 2738 2727 2980 2981 2982 2971 2968 2978 2979 2969 2974 2984 2983 2985 2742 2986 2987 
88 89 314 313 113 114 339 338 2746 2747 2748 2737 2990 2991 2992 2981 2978 2988 2989 2979 2984 2994 2993 2995 2752 2996 2997 
89 90 315 314 114 115 340 339 2756 2757 2758 2747 3000 3001 3002 2991 2988 2998 2999 2989 2994 3004 3003 3005 2762 3006 3007 
90 91 316 315 115 116 341 340 2766 2767 2768 2757 3010 3011 3012 3001 2998 3008 3009 2999 3004 3014 3013 3015 2772 3016 3017 
91 92 317 316 116 117 342 341 2776 2777 2778 2767 3020 3021 3022 3011 3008 3018 3019 3009 3014 3024 3023 3025 2782 3026 3027 
92 93 318 317 117 118 343 342 2786 2787 2788 2777 3030 3031 3032 3021 3018 3028 3029 3019 3024 3034 3033 3035 2792 3036 3037 
93 94 319 318 118 119 344 343 2796 2797 2798 2787 3040 3041 3042 3031 3028 3038 3039 3029 3034 3044 3043 3045 2802 3046 3047 
94 95 320 319 119 120 345 344 2806 2807 2808 2797 3050 3051 3052 3041 3038 3048 3049 3039 3044 3054 3053 3055 2812 3056 3057 
95 96 321 320 120 121 346 345 2816 2817 2818 2807 3060 3061 3062 3051 3048 3058 3059 3049 3054 3064 3063 3065 2822 3066 3067 
96 97 322 321 121 122 347 346 2826 2827 2828 2817 3070 3071 3072 3061 3058 3068 3069 3059 3064 3074 3073 3075 2832 3076 3077 
97 98 323 322 122 123 348 347 2836 2837 2838 2827 3080 3081 3082 3071 3068 3078 3079 3069 3074 3084 3083 3085 2842 3086 3087 
98 99 324 323 123 124 349 348 2846 2847 2848 2837 3090 3091 3092 3081 3078 3088 3089 3079 3084 3094 3093 3095 2852 3096 3097 
100 101 326 325 125 126 351 350 2858 2859 2860 2861 3102 3103 3104 3105 3098 3099 3100 3101 3109 3107 3106 3108 2866 3110 3111 
101 102 327 326 126 127 352 351 2870 2871 2872 2859 3114 3115 3116 3103 3099 3112 3113 3100 3107 3118 3117 3119 2876 3120 3121 
102 103 328 327 127 128 353 352 2880 2881 2882 2871 3124 3125 3126 3115 3112 3122 3123 3113 3118 3128 3127 3129 2886 3130 3131 
103 104 329 328 128 129 354 353 2890 2891 2892 2881 3134 3135 3136 3125 3122 3132 3133 3123 3128 3138 3137 3139 2896 3140 3141 
104 105 330 329 129 130 355 354 2900 2901 2902 2891 3144 3145 3146 3135 3132 3142 3143 3133 3138 3148 3147 3149 2906 3150 3151 
105 106 331 330 130 131 356 355 2910 2911 2912 2901 3154 3155 3156 3145 3142 3152 3153 3143 3148 3158 3157 3159 2916 3160 3161 
106 107 332 331 131 132 357 356 2920 2921 2922 2911 3164 3165 3166 3155 3152 3162 3163 3153 3158 3168 3167 3169 2926 3170 3171 
107 108 333 332 132 133 358 357 2930 2931 2932 2921 3174 3175 3176 3165 3162 3172 3173 3163 3168 3178 3177 3179 2936 3180 3181 
108 109 334 333 133 134 359 358 2940 2941 2942 2931 3184 3185 3186 3175 3172 3182 3183 3173 3178 3188 3187 3189 2946 3190 3191 
109 110 335 334 134 135 360 359 2950 2951 2952 2941 3194 3195 3196 3185 3182 3192 3193 3183 3188 3198 3197 3199 2956 3200 3201 
110 111 336 335 135 136 361 360 2960 2961 2962 2951 3204 3205 3206 3195 3192 3202 3203 3193 3198 3208 3207 3209 2966 3210 3211 
111 112 337 336 136 137 362 361 2970 2971 2972 2961 3214 3215 3216 3205 3202 3212 3213 3203 3208 3218 3217 3219 2976 3220 3221 
112 113 338 337 137 138 363 362 2980 2981 2982 2971 3224 3225 3226 3215 3212 3222 3223 3213 3218 3228 3227 3229 2986 3230 3231 
113 114 339 338 138 139 364 363 2990 2991 2992 2981 3234 3235 3236 3225 3222 3232 3233 3223 3228 3238 3237 3239 2996 3240 3241 
114 115 340 339 139 140 365 364 3000 3001 3002 2991 3244 3245 3246 3235 3232 3242 3243 3233 3238 3248 3247 3249 3006 3250 3251 
115 116 341 340 140 141 366 365 3010 3011 3012 3001 3254 3255 3256 3245 3242 3252 3253 3243 3248 3258 3257 3259 3016 3260 3261 
116 117 342 341 141 142 367 366 3020 3021 3022 3011 3264 3265 3266 3255 3252 3262 3263 3253 3258 3268 3267 3269 3026 3270 3271 
117 118 343 342 142 143 368 367 3030 3031 3032 3021 3274 3275 3276 3265 3262 3272 3273 3263 3268 3278 3277 3279 3036 3280 3281 
118 119 344 343 143 144 369 368 3040 3041 3042 3031 3284 3285 3286 3275 3272 3282 3283 3273 3278 3288 3287 3289 3046 3290 3291 
119 120 345 344 144 145 370 369 3050 3051 3052 3041 3294 3295 3296 3285 3282 3292 3293 3283 3288 3298 3297 3299 3056 3300 3301 
120 121 346 345 145 146 371 370 3060 3061 3062 3051 3304 3305 3306 3295 3292 3302 3303 3293 3298 3308 3307 3309 3066 3310 3311 
121 122 347 346 146 147 372 371 3070 3071 3072 3061 3314 3315 3316 3305 3302 3312 3313 3303 3308 3318 3317 3319 3076 3320 3321 
122 123 348 347 147 148 373 372 3080 3081 3082 3071 3324 3325 3326 3315 3312 3322 3323 3313 3318 3328 3327 3329 3086 3330 3331 
123 124 349 348 148 149 374 373 3090 3091 3092 3081 3334 3335 3336 3325 3322 3332 3333 3323 3328 3338 3337 3339 3096 3340 3341 
125 126 351 350 150 151 376 375 3102 3103 3104 3105 3346 3347 3348 3349 3342 3343 3344 3345 3353 3351 3350 3352 3110 3354 3355 
126 127 352 351 151 152 377 376 3114 3115 3116 3103 3358 3359 3360 3347 3343 3356 3357 3344 3351 3362 3361 3363 3120 3364 3365 
127 128 353 352 152 153 378 377 3124 3125 3126 3115 3368 3369 3370 3359 3356 3366 3367 3357 3362 3372 3371 3373 3130 3374 3375 
128 129 354 353 153 154 379 378 3134 3135 3136 3125 3378 3379 3380 3369 3366 3376 3377 3367 3372 3382 3381 3383 3140 3384 3385 
129 130 355 354 154 155 380 379 3144 3145 3146 3135 3388 3389 3390 3379 3376 3386 3387 3377 3382 3392 3391 3393 3150 3394 3395 
130 131 356 355 155 156 381 380 3154 3155 3156 3145 3398 3399 3400 3389 3386 3396 3397 3387 3392 3402 3401 3403 3160 3404 3405 
131 132 357 356 156 157 382 381 3164 3165 3166 3155 3408 3409 3410 3399 3396 3406 3407 3397 3402 3412 3411 3413 3170 3414 3415 
132 133 358 357 157 158 383 382 3174 3175 3176 3165 3418 3419 3420 3409 3406 3416 3417 3407 3412 3422 3421 3423 3180 3424 3425 
133 134 359 358 158 159 384 383 3184 3185 3186 3175 3428 3429 3430 3419 3416 3426 3427 3417 3422 3432 3431 3433 3190 3434 3435 
134 135 360 359 159 160 385 384 3194 3195 3196 3185 3438 3439 3440 3429 3426 3436 3437 3427 3432 3442 3441 3443 3200 3444 3445 
135 136 361 360 160 161 386 385 3204 3205 3206 3195 3448 3449 3450 3439 3436 3446 3447 3437 3442 3452 3451 3453 3210 3454 3455 
136 137 362 361 161 162 387 386 3214 3215 3216 3205 3458 3459 3460 3449 3446 3456 3457 3447 3452 3462 3461 3463 3220 3464 3465 
137 138 363 362 162 163 388 387 3224 3225 3226 3215 3468 3469 3470 3459 3456 3466 3467 3457 3462 3472 3471 3473 3230 3474 3475 
138 139 364 363 163 164 389 388 3234 3235 3236 3225 3478 3479 3480 3469 3466 3476 3477 3467 3472 3482 3481 3483 3240 3484 3485 
139 140 365 364 164 165 390 389 3244 3245 3246 3235 3488 3489 3490 3479 3476 3486 3487 3477 3482 3492 3491 3493 3250 3494 3495 
140 141 366 365 165 166 391 390 3254 3255 3256 3245 3498 3499 3500 3489 3486 3496 3497 3487 3492 3502 3501 3503 3260 3504 3505 
141 142 367 366 166 167 392 391 3264 3265 3266 3255 3508 3509 3510 3499 3496 3506 3507 3497 3502 3512 3511 3513 3270 3514 3515 
142 143 368 367 167 168 393 392 3274 3275 3276 3265 3518 3519 3520 3509 3506 3516 3517 3507 3512 3522 3521 3523 3280 3524 3525 
143 144 369 368 168 169 394 393 3284 3285 3286 3275 3528 3529 3530 3519 3516 3526 3527 3517 3522 3532 3531 3533 3290 3534 3535 
144 145 370 369 169 170 395 394 3294 3295 3296 3285 3538 3539 3540 3529 3526 3536 3537 3527 3532 3542 3541 3543 3300 3544 3545 
145 146 371 370 170 171 396 395 3304 3305 3306 3295 3548 3549 3550 3539 3536 3546 3547 3537 3542 3552 3551 3553 3310 3554 3555 
146 147 372 371 171 172 397 396 3314 3315 3316 3305 3558 3559 3560 3549 3546 3556 3557 3547 3552 3562 3561 3563 3320 3564 3565 
147 148 373 372 172 173 398 397 3324 3325 3326 3315 3568 3569 3570 3559 3556 3566 3567 3557 3562 3572 3571 3573 3330 3574 3575 
148 149 374 373 173 174 399 398 3334 3335 3336 3325 3578 3579 3580 3569 3566 3576 3577 3567 3572 3582 3581 3583 3340 3584 3585 
150 151 376 375 175 176 401 400 3346 3347 3348 3349 3590 3591 3592 3593 3586 3587 3588 3589 3597 3595 3594 3596 3354 3598 3599 
151 152 377 376 176 177 402 401 3358 3359 3360 3347 3602 3603 3604 3591 3587 3600 3601 3588 3595 3606 3605 3607 3364 3608 3609 
152 153 378 377 177 178 403 402 3368 3369 3370 3359 3612 3613 3614 3603 3600 3610 3611 3601 3606 3616 3615 3617 3374 3618 3619 
153 154 379 378 178 179 404 403 3378 3379 3380 3369 3622 3623 3624 3613 3610 3620 3621 3611 3616 3626 3625 3627 3384 3628 3629 
154 155 380 379 179 180 405 404 3388 3389 3390 3379 3632 3633 3634 3623 3620 3630 3631 3621 3626 3636 3635 3637 3394 3638 3639 
155 156 381 380 180 181 406 405 3398 3399 3400 3389 3642 3643 3644 3633 3630 3640 3641 3631 3636 3646 3645 3647 3404 3648 3649 
156 157 382 381 181 182 407 406 3408 3409 3410 3399 3652 3653 3654 3643 3640 3650 3651 3641 3646 3656 3655 3657 3414 3658 3659 
157 158 383 382 182 183 408 407 3418 3419 3420 3409 3662 3663 3664 3653 3650 3660 3661 3651 3656 3666 3665 3667 3424 3668 3669 
158 159 384 383 183 184 409 408 3428 3429 3430 3419 3672 3673 3674 3663 3660 3670 3671 3661 3666 3676 3675 3677 3434 3678 3679 
159 160 385 384 184 185 410 409 3438 3439 3440 3429 3682 3683 3684 3673 3670 3680 3681 3671 3676 3686 3685 3687 3444 3688 3689 
160 161 386 385 185 186 411 410 3448 3449 3450 3439 3692 3693 3694 3683 3680 3690 3691 3681 3686 3696 3695 3697 3454 3698 3699 
161 162 387 386 186 187 412 411 3458 3459 3460 3449 3702 3703 3704 3693 3690 3700 3701 3691 3696 3706 3705 3707 3464 3708 3709 
162 163 388 387 187 188 413 412 3468 3469 3470 3459 3712 3713 3714 3703 3700 3710 3711 3701 3706 3716 3715 3717 3474 3718 3719 
163 164 389 388 188 189 414 413 3478 3479 3480 3469 3722 3723 3724 3713 3710 3720 3721 3711 3716 3726 3725 3727 3484 3728 3729 
164 165 390 389 189 190 415 414 3488 3489 3490 3479 3732 3733 3734 3723 3720 3730 3731 3721 3726 3736 3735 3737 3494 3738 3739 
165 166 391 390 190 191 416 415 3498 3499 3500 3489 3742 3743 3744 3733 3730 3740 3741 3731 3736 3746 3745 3747 3504 3748 3749 
166 167 392 391 191 192 417 416 3508 3509 3510 3499 3752 3753 3754 3743 3740 3750 3751 3741 3746 3756 3755 3757 3514 3758 3759 
167 168 393 392 192 193 418 417 3518 3519 3520 3509 3762 3763 3764 3753 3750 3760 3761 3751 3756 3766 3765 3767 3524 3768 3769 
168 169 394 393 193 194 419 418 3528 3529 3530 3519 3772 3773 3774 3763 3760 3770 3771 3761 3766 3776 3775 3777 3534 3778 3779 
169 170 395 394 194 195 420 419 3538 3539 3540 3529 3782 3783 3784 3773 3770 3780 3781 3771 3776 3786 3785 3787 3544 3788 3789 
170 171 396 395 195 196 421 420 3548 3549 3550 3539 3792 3793 3794 3783 3780 3790 3791 3781 3786 3796 3795 3797 3554 3798 3799 
171 172 397 396 196 197 422 421 3558 3559 3560 3549 3802 3803 3804 3793 3790 3800 3801 3791 3796 3806 3805 3807 3564 3808 3809 
172 173 398 397 197 198 423 422 3568 3569 3570 3559 3812 3813 3814 3803 3800 3810 3811 3801 3806 3816 3815 3817 3574 3818 3819 
173 174 399 398 198 199 424 423 3578 3579 3580 3569 3822 3823 3824 3813 3810 3820 3821 3811 3816 3826 3825 3827 3584 3828 3829 
175 176 401 400 200 201 426 425 3590 3591 3592 3593 3834 3835 3836 3837 3830 3831 3832 3833 3841 3839 3838 3840 3598 3842 3843 
176 177 402 401 201 202 427 426 3602 3603 3604 3591 3846 3847 3848 3835 3831 3844 3845 3832 3839 3850 3849 3851 3608 3852 3853 
177 178 403 402 202 203 428 427 3612 3613 3614 3603 3856 3857 3858 3847 3844 3854 3855 3845 3850 3860 3859 3861 3618 3862 3863 
178 179 404 403 203 204 429 428 3622 3623 3624 3613 3866 3867 3868 3857 3854 3864 3865 3855 3860 3870 3869 3871 3628 3872 3873 
179 180 405 404 204 205 430 429 3632 3633 3634 3623 3876 3877 3878 3867 3864 3874 3875 3865 3870 3880 3879 3881 3638 3882 3883 
180 181 406 405 205 206 431 430 3642 3643 3644 3633 3886 3887 3888 3877 3874 3884 3885 3875 3880 3890 3889 3891 3648 3892 3893 
181 182 407 406 206 207 432 431 3652 3653 3654 3643 3896 3897 3898 3887 3884 3894 3895 3885 3890 3900 3899 3901 3658 3902 3903 
182 183 408 407 207 208 433 432 3662 3663 3664 3653 3906 3907 3908 3897 3894 3904 3905 3895 3900 3910 3909 3911 3668 3912 3913 
183 184 409 408 208 209 434 433 3672 3673 3674 3663 3916 3917 3918 3907 3904 3914 3915 3905 3910 3920 3919 3921 3678 3922 3923 
184 185 410 409 209 210 435 434 3682 3683 3684 3673 3926 3927 3928 3917 3914 3924 3925 3915 3920 3930 3929 3931 3688 3932 3933 
185 186 411 410 210 211 436 435 3692 3693 3694 3683 3936 3937 3938 3927 3924 3934 3935 3925 3930 3940 3939 3941 3698 3942 3943 
186 187 412 411 211 212 437 436 3702 3703 3704 3693 3946 3947 3948 3937 3934 3944 3945 3935 3940 3950 3949 3951 3708 3952 3953 
187 188 413 412 212 213 438 437 3712 3713 3714 3703 3956 3957 3958 3947 3944 3954 3955 3945 3950 3960 3959 3961 3718 3962 3963 
188 189 414 413 213 214 439 438 3722 3723 3724 3713 3966 3967 3968 3957 3954 3964 3965 3955 3960 3970 3969 3971 3728 3972 3973 
189 190 415 414 214 215 440 439 3732 3733 3734 3723 3976 3977 3978 3967 3964 3974 3975 3965 3970 3980 3979 3981 3738 3982 3983 
190 191 416 415 215 216 441 440 3742 3743 3744 3733 3986 3987 3988 3977 3974 3984 3985 3975 3980 3990 3989 3991 3748 3992 3993 
191 192 417 416 216 217 442 441 3752 3753 3754 3743 3996 3997 3998 3987 3984 3994 3995 3985 3990 4000 3999 4001 3758 4002 4003 
192 193 418 417 217 218 443 442 3762 3763 3764 3753 4006 4007 4008 3997 3994 4004 4005 3995 4000 4010 4009 4011 3768 4012 4013 
193 194 419 418 218 219 444 443 3772 3773 3774 3763 4016 4017 4018 4007 4004 4014 4015 4005 4010 4020 4019 4021 3778 4022 4023 
194 195 420 419 219 220 445 444 3782 3783 3784 3773 4026 4027 4028 4017 4014 4024 4025 4015 4020 4030 4029 4031 3788 4032 4033 
195 196 421 420 220 221 446 445 3792 3793 3794 3783 4036 4037 4038 4027 4024 4034 4035 4025 4030 4040 4039 4041 3798 4042 4043 
196 197 422 421 221 222 447 446 3802 3803 3804 3793 4046 4047 4048 4037 4034 4044 4045 4035 4040 4050 4049 4051 3808 4052 4053 
197 198 423 422 222 223 448 447 3812 3813 3814 3803 4056 4057 4058 4047 4044 4054 4055 4045 4050 4060 4059 4061 3818 4062 4063 
198 199 424 423 223 224 449 448 3822 3823 3824 3813 4066 4067 4068 4057 4054 4064 4065 4055 4060 4070 4069 4071 3828 4072 4073 
225 226 451 450 250 251 476 475 2027 4074 4075 4076 2035 4079 4080 4081 2032 2031 4077 4078 4085 4083 2040 4084 4082 4086 4087 
226 227 452 451 251 252 477 476 2046 4088 4089 4074 2051 4091 4092 4079 2031 2048 4090 4077 4083 4094 2055 4095 4093 4096 4097 
227 228 453 452 252 253 478 477 2060 4098 4099 4088 2065 4101 4102 4091 2048 2062 4100 4090 4094 4104 2069 4105 4103 4106 4107 
228 229 454 453 253 254 479 478 2074 4108 4109 4098 2079 4111 4112 4101 2062 2076 4110 4100 4104 4114 2083 4115 4113 4116 4117 
229 230 455 454 254 255 480 479 2088 4118 4119 4108 2093 4121 4122 4111 2076 2090 4120 4110 4114 4124 2097 4125 4123 4126 4127 
230 231 456 455 255 256 481 480 2102 4128 4129 4118 2107 4131 4132 4121 2090 2104 4130 4120 4124 4134 2111 4135 4133 4136 4137 
231 232 457 456 256 257 482 481 2116 4138 4139 4128 2121 4141 4142 4131 2104 2118 4140 4130 4134 4144 2125 4145 4143 4146 4147 
232 233 458 457 257 258 483 482 2130 4148 4149 4138 2135 4151 4152 4141 2118 2132 4150 4140 4144 4154 2139 4155 4153 4156 4157 
233 234 459 458 258 259 484 483 2144 4158 4159 4148 2149 4161 4162 4151 2132 2146 4160 4150 4154 4164 2153 4165 4163 4166 4167 
234 235 460 459 259 260 485 484 2158 4168 4169 4158 2163 4171 4172 4161 2146 2160 4170 4160 4164 4174 2167 4175 4173 4176 4177 
235 236 461 460 260 261 486 485 2172 4178 4179 4168 2177 4181 4182 4171 2160 2174 4180 4170 4174 4184 2181 4185 4183 4186 4187 
236 237 462 461 261 262 487 486 2186 4188 4189 4178 2191 4191 4192 4181 2174 2188 4190 4180 4184 4194 2195 4195 4193 4196 4197 
237 238 463 462 262 263 488 487 2200 4198 4199 4188 2205 4201 4202 4191 2188 2202 4200 4190 4194 4204 2209 4205 4203 4206 4207 
238 239 464 463 263 264 489 488 2214 4208 4209 4198 2219 4211 4212 4201 2202 2216 4210 4200 4204 4214 2223 4215 4213 4216 4217 
239 240 465 464 264 265 490 489 2228 4218 4219 4208 2233 4221 4222 4211 2216 2230 4220 4210 4214 4224 2237 4225 4223 4226 4227 
240 241 466 465 265 266 491 490 2242 4228 4229 4218 2247 4231 4232 4221 2230 2244 4230 4220 4224 4234 2251 4235 4233 4236 4237 
241 242 467 466 266 267 492 491 2256 4238 4239 4228 2261 4241 4242 4231 2244 2258 4240 4230 4234 4244 2265 4245 4243 4246 4247 
242 243 468 467 267 268 493 492 2270 4248 4249 4238 2275 4251 4252 4241 2258 2272 4250 4240 4244 4254 2279 4255 4253 4256 4257 
243 244 469 468 268 269 494 493 2284 4258 4259 4248 2289 4261 4262 4251 2272 2286 4260 4250 4254 4264 2293 4265 4263 4266 4267 
244 245 470 469 269 270 495 494 2298 4268 4269 4258 2303 4271 4272 4261 2286 2300 4270 4260 4264 4274 2307 4275 4273 4276 4277 
245 246 471 470 270 271 496 495 2312 4278 4279 4268 2317 4281 4282 4271 2300 2314 4280 4270 4274 4284 2321 4285 4283 4286 4287 
246 247 472 471 271 272 497 496 2326 4288 4289 4278 2331 4291 4292 4281 2314 2328 4290 4280 4284 4294 2335 4295 4293 4296 4297 
247 248 473 472 272 273 498 497 2340 4298 4299 4288 2345 4301 4302 4291 2328 2342 4300 4290 4294 4304 2349 4305 4303 4306 4307 
248 249 474 473 273 274 499 498 2354 4308 4309 4298 2359 4311 4312 4301 2342 2356 4310 4300 4304 4314 2363 4315 4313 4316 4317 
250 251 476 475 275 276 501 500 2035 4079 4080 4081 2372 4320 4321 4322 2369 2368 4318 4319 4325 4323 2376 4324 4086 4326 4327 
251 252 477 476 276 277 502 501 2051 4091 4092 4079 2384 4329 4330 4320 2368 2381 4328 4318 4323 4331 2387 4332 4096 4333 4334 
252 253 478 477 277 278 503 502 2065 4101 4102 4091 2394 4336 4337 4329 2381 2391 4335 4328 4331 4338 2397 4339 4106 4340 4341 
253 254 479 478 278 279 504 503 2079 4111 4112 4101 2404 4343 4344 4336 2391 2401 4342 4335 4338 4345 2407 4346 4116 4347 4348 
254 255 480 479 279 280 505 504 2093 4121 4122 4111 2414 4350 4351 4343 2401 2411 4349 4342 4345 4352 2417 4353 4126 4354 4355 
255 256 481 480 280 281 506 505 2107 4131 4132 4121 2424 4357 4358 4350 2411 2421 4356 4349 4352 4359 2427 4360 4136 4361 4362 
256 257 482 481 281 282 507 506 2121 4141 4142 4131 2434 4364 4365 4357 2421 2431 4363 4356 4359 4366 2437 4367 4146 4368 4369 
257 258 483 482 282 283 508 507 2135 4151 4152 4141 2444 4371 4372 4364 2431 2441 4370 4363 4366 4373 2447 4374 4156 4375 4376 
258 259 484 483 283 284 509 508 2149 4161 4162 4151 2454 4378 4379 4371 2441 2451 4377 4370 4373 4380 2457 4381 4166 4382 4383 
259 260 485 484 284 285 510 509 2163 4171 4172 4161 2464 4385 4386 4378 2451 2461 4384 4377 4380 4387 2467 4388 4176 4389 4390 
260 261 486 485 285 286 511 510 2177 4181 4182 4171 2474 4392 4393 4385 2461 2471 4391 4384 4387 4394 2477 4395 4186 4396 4397 
261 262 487 486 286 287 512 511 2191 4191 4192 4181 2484 4399 4400 4392 2471 2481 4398 4391 4394 4401 2487 4402 4196 4403 4404 
262 263 488 487 287 288 513 512 2205 4201 4202 4191 2494 4406 4407 4399 2481 2491 4405 4398 4401 4408 2497 4409 4206 4410 4411 
263 264 489 488 288 289 514 513 2219 4211 4212 4201 2504 4413 4414 4406 2491 2501 4412 4405 4408 4415 2507 4416 4216 4417 4418 
264 265 490 489 289 290 515 514 2233 4221 4222 4211 2514 4420 4421 4413 2501 2511 4419 4412 4415 4422 2517 4423 4226 4424 4425 
265 266 491 490 290 291 516 515 2247 4231 4232 4221 2524 4427 4428 4420 2511 2521 4426 4419 4422 4429 2527 4430 4236 4431 4432 
266 267 492 491 291 292 517 516 2261 4241 4242 4231 2534 4434 4435 4427 2521 2531 4433 4426 4429 4436 2537 4437 4246 4438 4439 
267 268 493 492 292 293 518 517 2275 4251 4252 4241 2544 4441 4442 4434 2531 2541 4440 4433 4436 4443 2547 4444 4256 4445 4446 
268 269 494 493 293 294 519 518 2289 4261 4262 4251 2554 4448 4449 4441 2541 2551 4447 4440 4443 4450 2557 4451 4266 4452 4453 
269 270 495 494 294 295 520 519 2303 4271 4272 4261 2564 4455 4456 4448 2551 2561 4454 4447 4450 4457 2567 4458 4276 4459 4460 
270 271 496 495 295 296 521 520 2317 4281 4282 4271 2574 4462 4463 4455 2561 2571 4461 4454 4457 4464 2577 4465 4286 4466 4467 
271 272 497 496 296 297 522 521 2331 4291 4292 4281 2584 4469 4470 4462 2571 2581 4468 4461 4464 4471 2587 4472 4296 4473 4474 
272 273 498 497 297 298 523 522 2345 4301 4302 4291 2594 4476 4477 4469 2581 2591 4475 4468 4471 4478 2597 4479 4306 4480 4481 
273 274 499 498 298 299 524 523 2359 4311 4312 4301 2604 4483 4484 4476 2591 2601 4482 4475 4478 4485 2607 4486 4316 4487 4488 
275 276 501 500 300 301 526 525 2372 4320 4321 4322 2616 4491 4492 4493 2613 2612 4489 4490 4496 4494 2620 4495 4326 4497 4498 
276 277 502 501 301 302 527 526 2384 4329 4330 4320 2628 4500 4501 4491 2612 2625 4499 4489 4494 4502 2631 4503 4333 4504 4505 
277 278 503 502 302 303 528 527 2394 4336 4337 4329 2638 4507 4508 4500 2625 2635 4506 4499 4502 4509 2641 4510 4340 4511 4512 
278 279 504 503 303 304 529 528 2404 4343 4344 4336 2648 4514 4515 4507 2635 2645 4513 4506 4509 4516 2651 4517 4347 4518 4519 
279 280 505 504 304 305 530 529 2414 4350 4351 4343 2658 4521 4522 4514 2645 2655 4520 4513 4516 4523 2661 4524 4354 4525 4526 
280 281 506 505 305 306 531 530 2424 4357 4358 4350 2668 4528 4529 4521 2655 2665 4527 4520 4523 4530 2671 4531 4361 4532 4533 
281 282 507 506 306 307 532 531 2434 4364 4365 4357 2678 4535 4536 4528 2665 2675 4534 4527 4530 4537 2681 4538 4368 4539 4540 
282 283 508 507 307 308 533 532 2444 4371 4372 4364 2688 4542 4543 4535 2675 2685 4541 4534 4537 4544 2691 4545 4375 4546 4547 
283 284 509 508 308 309 534 533 2454 4378 4379 4371 2698 4549 4550 4542 2685 2695 4548 4541 4544 4551 2701 4552 4382 4553 4554 
284 285 510 509 309 310 535 534 2464 4385 4386 4378 2708 4556 4557 4549 2695 2705 4555 4548 4551 4558 2711 4559 4389 4560 4561 
285 286 511 510 310 311 536 535 2474 4392 4393 4385 2718 4563 4564 4556 2705 2715 4562 4555 4558 4565 2721 4566 4396 4567 4568 
286 287 512 511 311 312 537 536 2484 4399 4400 4392 2728 4570 4571 4563 2715 2725 4569 4562 4565 4572 2731 4573 4403 4574 4575 
287 288 513 512 312 313 538 537 2494 4406 4407 4399 2738 4577 4578 4570 2725 2735 4576 4569 4572 4579 2741 4580 4410 4581 4582 
288 289 514 513 313 314 539 538 2504 4413 4414 4406 2748 4584 4585 4577 2735 2745 4583 4576 4579 4586 2751 4587 4417 4588 4589 
289 290 515 514 314 315 540 539 2514 4420 4421 4413 2758 4591 4592 4584 2745 2755 4590 4583 4586 4593 2761 4594 4424 4595 4596 
290 291 516 515 315 316 541 540 2524 4427 4428 4420 2768 4598 4599 4591 2755 2765 4597 4590 4593 4600 2771 4601 4431 4602 4603 
291 292 517 516 316 317 542 541 2534 4434 4435 4427 2778 4605 4606 4598 2765 2775 4604 4597 4600 4607 2781 4608 4438 4609 4610 
292 293 518 517 317 318 543 542 2544 4441 4442 4434 2788 4612 4613 4605 2775 2785 4611 4604 4607 4614 2791 4615 4445 4616 4617 
293 294 519 518 318 319 544 543 2554 4448 4449 4441 2798 4619 4620 4612 2785 2795 4618 4611 4614 4621 2801 4622 4452 4623 4624 
294 295 520 519 319 320 545 544 2564 4455 4456 4448 2808 4626 4627 4619 2795 2805 4625 4618 4621 4628 2811 4629 4459 4630 4631 
295 296 521 520 320 321 546 545 2574 4462 4463 4455 2818 4633 4634 4626 2805 2815 4632 4625 4628 4635 2821 4636 4466 4637 4638 
296 297 522 521 321 322 547 546 2584 4469 4470 4462 2828 4640 4641 4633 2815 2825 4639 4632 4635 4642 2831 4643 4473 4644 4645 
297 298 523 522 322 323 548 547 2594 4476 4477 4469 2838 4647 4648 4640 2825 2835 4646 4639 4642 4649 2841 4650 4480 4651 4652 
298 299 524 523 323 324 549 548 2604 4483 4484 4476 2848 4654 4655 4647 2835 2845 4653 4646 4649 4656 2851 4657 4487 4658 4659 
300 301 526 525 325 326 551 550 2616 4491 4492 4493 2860 4662 4663 4664 2857 2856 4660 4661 4667 4665 2864 4666 4497 4668 4669 
301 302 527 526 326 327 552 551 2628 4500 4501 4491 2872 4671 4672 4662 2856 2869 4670 4660 4665 4673 2875 4674 4504 4675 4676 
302 303 528 527 327 328 553 552 2638 4507 4508 4500 2882 4678 4679 4671 2869 2879 4677 4670 4673 4680 2885 4681 4511 4682 4683 
303 304 529 528 328 329 554 553 2648 4514 4515 4507 2892 4685 4686 4678 2879 2889 4684 4677 4680 4687 2895 4688 4518 4689 4690 
304 305 530 529 329 330 555 554 2658 4521 4522 4514 2902 4692 4693 4685 2889 2899 4691 4684 4687 4694 2905 4695 4525 4696 4697 
305 306 531 530 330 331 556 555 2668 4528 4529 4521 2912 4699 4700 4692 2899 2909 4698 4691 4694 4701 2915 4702 4532 4703 4704 
306 307 532 531 331 332 557 556 2678 4535 4536 4528 2922 4706 4707 4699 2909 2919 4705 4698 4701 4708 2925 4709 4539 4710 4711 
307 308 533 532 332 333 558 557 2688 4542 4543 4535 2932 4713 4714 4706 2919 2929 4712 4705 4708 4715 2935 4716 4546 4717 4718 
308 309 534 533 333 334 559 558 2698 4549 4550 4542 2942 4720 4721 4713 2929 2939 4719 4712 4715 4722 2945 4723 4553 4724 4725 
309 310 535 534 334 335 560 559 2708 4556 4557 4549 2952 4727 4728 4720 2939 2949 4726 4719 4722 4729 2955 4730 4560 4731 4732 
310 311 536 535 335 336 561 560 2718 4563 4564 4556 2962 4734 4735 4727 2949 2959 4733 4726 4729 4736 2965 4737 4567 4738 4739 
311 312 537 536 336 337 562 561 2728 4570 4571 4563 2972 4741 4742 4734 2959 2969 4740 4733 4736 4743 2975 4744 4574 4745 4746 
312 313 538 537 337 338 563 562 2738 4577 4578 4570 2982 4748 4749 4741 2969 2979 4747 4740 4743 4750 2985 4751 4581 4752 4753 
313 314 539 538 338 339 564 563 2748 4584 4585 4577 2992 4755 4756 4748 2979 2989 4754 4747 4750 4757 2995 4758 4588 4759 4760 
314 315 540 539 339 340 565 564 2758 4591 4592 4584 3002 4762 4763 4755 2989 2999 4761 4754 4757 4764 3005 4765 4595 4766 4767 
315 316 541 540 340 341 566 565 2768 4598 4599 4591 3012 4769 4770 4762 2999 3009 4768 4761 4764 4771 3015 4772 4602 4773 4774 
316 317 542 541 341 342 567 566 2778 4605 4606 4598 3022 4776 4777 4769 3009 3019 4775 4768 4771 4778 3025 4779 4609 4780 4781 
317 318 543 542 342 343 568 567 2788 4612 4613 4605 3032 4783 4784 4776 3019 3029 4782 4775 4778 4785 3035 4786 4616 4787 4788 
318 319 544 543 343 344 569 568 2798 4619 4620 4612 3042 4790 4791 4783 3029 3039 4789 4782 4785 4792 3045 4793 4623 4794 4795 
319 320 545 544 344 345 570 569 2808 4626 4627 4619 3052 4797 4798 4790 3039 3049 4796 4789 4792 4799 3055 4800 4630 4801 4802 
320 321 546 545 345 346 571 570 2818 4633 4634 4626 3062 4804 4805 4797 3049 3059 4803 4796 4799 4806 3065 4807 4637 4808 4809 
321 322 547 546 346 347 572 571 2828 4640 4641 4633 3072 4811 4812 4804 3059 3069 4810 4803 4806 4813 3075 4814 4644 4815 4816 
322 323 548 547 347 348 573 572 2838 4647 4648 4640 3082 4818 4819 4811 3069 3079 4817 4810 4813 4820 3085 4821 4651 4822 4823 
323 324 549 548 348 349 574 573 2848 4654 4655 4647 3092 4825 4826 4818 3079 3089 4824 4817 4820 4827 3095 4828 4658 4829 4830 
325 326 551 550 350 351 576 575 2860 4662 4663 4664 3104 4833 4834 4835 3101 3100 4831 4832 4838 4836 3108 4837 4668 4839 4840 
326 327 552 551 351 352 577 576 2872 4671 4672 4662 3116 4842 4843 4833 3100 3113 4841 4831 4836 4844 3119 4845 4675 4846 4847 
327 328 553 552 352 353 578 577 2882 4678 4679 4671 3126 4849 4850 4842 3113 3123 4848 4841 4844 4851 3129 4852 4682 4853 4854 
328 329 554 553 353 354 579 578 2892 4685 4686 4678 3136 4856 4857 4849 3123 3133 4855 4848 4851 4858 3139 4859 4689 4860 4861 
329 330 555 554 354 355 580 579 2902 4692 4693 4685 3146 4863 4864 4856 3133 3143 4862 4855 4858 4865 3149 4866 4696 4867 4868 
330 331 556 555 355 356 581 580 2912 4699 4700 4692 3156 4870 4871 4863 3143 3153 4869 4862 4865 4872 3159 4873 4703 4874 4875 
331 332 557 556 356 357 582 581 2922 4706 4707 4699 3166 4877 4878 4870 3153 3163 4876 4869 4872 4879 3169 4880 4710 4881 4882 
332 333 558 557 357 358 583 582 2932 4713 4714 4706 3176 4884 4885 4877 3163 3173 4883 4876 4879 4886 3179 4887 4717 4888 4889 
333 334 559 558 358 359 584 583 2942 4720 4721 4713 3186 4891 4892 4884 3173 3183 4890 4883 4886 4893 3189 4894 4724 4895 4896 
334 335 560 559 359 360 585 584 2952 4727 4728 4720 3196 4898 4899 4891 3183 3193 4897 4890 4893 4900 3199 4901 4731 4902 4903 
335 336 561 560 360 361 586 585 2962 4734 4735 4727 3206 4905 4906 4898 3193 3203 4904 4897 4900 4907 3209 4908 4738 4909 4910 
336 337 562 561 361 362 587 586 2972 4741 4742 4734 3216 4912 4913 4905 3203 3213 4911 4904 4907 4914 3219 4915 4745 4916 4917 
337 338 563 562 362 363 588 587 2982 4748 4749 4741 3226 4919 4920 4912 3213 3223 4918 4911 4914 4921 3229 4922 4752 4923 4924 
338 339 564 563 363 364 589 588 2992 4755 4756 4748 3236 4926 4927 4919 3223 3233 4925 4918 4921 4928 3239 4929 4759 4930 4931 
339 340 565 564 364 365 590 589 3002 4762 4763 4755 3246 4933 4934 4926 3233 3243 4932 4925 4928 4935 3249 4936 4766 4937 4938 
340 341 566 565 365 366 591 590 3012 4769 4770 4762 3256 4940 4941 4933 3243 3253 4939 4932 4935 4942 3259 4943 4773 4944 4945 
341 342 567 566 366 367 592 591 3022 4776 4777 4769 3266 4947 4948 4940 3253 3263 4946 4939 4942 4949 3269 4950 4780 4951 4952 
342 343 568 567 367 368 593 592 3032 4783 4784 4776 3276 4954 4955 4947 3263 3273 4953 4946 4949 4956 3279 4957 4787 4958 4959 
343 344 569 568 368 369 594 593 3042 4790 4791 4783 3286 4961 4962 4954 3273 3283 4960 4953 4956 4963 3289 4964 4794 4965 4966 
344 345 570 569 369 370 595 594 3052 4797 4798 4790 3296 4968 4969 4961 3283 3293 4967 4960 4963 4970 3299 4971 4801 4972 4973 
345 346 571 570 370 371 596 595 3062 4804 4805 4797 3306 4975 4976 4968 3293 3303 4974 4967 4970 4977 3309 4978 4808 4979 4980 
346 347 572 571 371 372 597 596 3072 4811 4812 4804 3316 4982 4983 4975 3303 3313 4981 4974 4977 4984 3319 4985 4815 4986 4987 
347 348 573 572 372 373 598 597 3082 4818 4819 4811 3326 4989 4990 4982 3313 3323 4988 4981 4984 4991 3329 4992 4822 4993 4994 
348 349 574 573 373 374 599 598 3092 4825 4826 4818 3336 4996 4997 4989 3323 3333 4995 4988 4991 4998 3339 4999 4829 5000 5001 
350 351 576 575 375 376 601 600 3104 4833 4834 4835 3348 5004 5005 5006 3345 3344 5002 5003 5009 5007 3352 5008 4839 5010 5011 
351 352 577 576 376 377 602 601 3116 4842 4843 4833 3360 5013 5014 5004 3344 3357 5012 5002 5007 5015 3363 5016 4846 5017 5018 
352 353 578 577 377 378 603 602 3126 4849 4850 4842 3370 5020 5021 5013 3357 3367 5019 5012 5015 5022 3373 5023 4853 5024 5025 
353 354 579 578 378 379 604 603 3136 4856 4857 4849 3380 5027 5028 5020 3367 3377 5026 5019 5022 5029 3383 5030 4860 5031 5032 
354 355 580 579 379 380 605 604 3146 4863 4864 4856 3390 5034 5035 5027 3377 3387 5033 5026 5029 5036 3393 5037 4867 5038 5039 
355 356 581 580 380 381 606 605 3156 4870 4871 4863 3400 5041 5042 5034 3387 3397 5040 5033 5036 5043 3403 5044 4874 5045 5046 
356 357 582 581 381 382 607 606 3166 4877 4878 4870 3410 5048 5049 5041 3397 3407 5047 5040 5043 5050 3413 5051 4881 5052 5053 
357 358 583 582 382 383 608 607 3176 4884 4885 4877 3420 5055 5056 5048 3407 3417 5054 5047 5050 5057 3423 5058 4888 5059 5060 
358 359 584 583 383 384 609 608 3186 4891 4892 4884 3430 5062 5063 5055 3417 3427 5061 5054 5057 5064 3433 5065 4895 5066 5067 
359 360 585 584 384 385 610 609 3196 4898 4899 4891 3440 5069 5070 5062 3427 3437 5068 5061 5064 5071 3443 5072 4902 5073 5074 
360 361 586 585 385 386 611 610 3206 4905 4906 4898 3450 5076 5077 5069 3437 3447 5075 5068 5071 5078 3453 5079 4909 5080 5081 
361 362 587 586 386 387 612 611 3216 4912 4913 4905 3460 5083 5084 5076 3447 3457 5082 5075 5078 5085 3463 5086 4916 5087 5088 
362 363 588 587 387 388 613 612 3226 4919 4920 4912 3470 5090 5091 5083 3457 3467 5089 5082 5085 5092 3473 5093 4923 5094 5095 
363 364 589 588 388 389 614 613 3236 4926 4927 4919 3480 5097 5098 5090 3467 3477 5096 5089 5092 5099 3483 5100 4930 5101 5102 
364 365 590 589 389 390 615 614 3246 4933 4934 4926 3490 5104 5105 5097 3477 3487 5103 5096 5099 5106 3493 5107 4937 5108 5109 
365 366 591 590 390 391 616 615 3256 4940 4941 4933 3500 5111 5112 5104 3487 3497 5110 5103 5106 5113 3503 5114 4944 5115 5116 
366 367 592 591 391 392 617 616 3266 4947 4948 4940 3510 5118 5119 5111 3497 3507 5117 5110 5113 5120 3513 5121 4951 5122 5123 
367 368 593 592 392 393 618 617 3276 4954 4955 4947 3520 5125 5126 5118 3507 3517 5124 5117 5120 5127 3523 5128 4958 5129 5130 
368 369 594 593 393 394 619 618 3286 4961 4962 4954 3530 5132 5133 5125 3517 3527 5131 5124 5127 5134 3533 5135 4965 5136 5137 
369 370 595 594 394 395 620 619 3296 4968 4969 4961 3540 5139 5140 5132 3527 3537 5138 5131 5134 5141 3543 5142 4972 5143 5144 
370 371 596 595 395 396 621 620 3306 4975 4976 4968 3550 5146 5147 5139 3537 3547 5145 5138 5141 5148 3553 5149 4979 5150 5151 
371 372 597 596 396 397 622 621 3316 4982 4983 4975 3560 5153 5154 5146 3547 3557 5152 5145 5148 5155 3563 5156 4986 5157 5158 
372 373 598 597 397 398 623 622 3326 4989 4990 4982 3570 5160 5161 5153 3557 3567 5159 5152 5155 5162 3573 5163 4993 5164 5165 
373 374 599 598 398 399 624 623 3336 4996 4997 4989 3580 5167 5168 5160 3567 3577 5166 5159 5162 5169 3583 5170 5000 5171 5172 
375 376 601 600 400 401 626 625 3348 5004 5005 5006 3592 5175 5176 5177 3589 3588 5173 5174 5180 5178 3596 5179 5010 5181 5182 
376 377 602 601 401 402 627 626 3360 5013 5014 5004 3604 5184 5185 5175 3588 3601 5183 5173 5178 5186 3607 5187 5017 5188 5189 
377 378 603 602 402 403 628 627 3370 5020 5021 5013 3614 5191 5192 5184 3601 3611 5190 5183 5186 5193 3617 5194 5024 5195 5196 
378 379 604 603 403 404 629 628 3380 5027 5028 5020 3624 5198 5199 5191 3611 3621 5197 5190 5193 5200 3627 5201 5031 5202 5203 
379 380 605 604 404 405 630 629 3390 5034 5035 5027 3634 5205 5206 5198 3621 3631 5204 5197 5200 5207 3637 5208 5038 5209 5210 
380 381 606 605 405 406 631 630 3400 5041 5042 5034 3644 5212 5213 5205 3631 3641 5211 5204 5207 5214 3647 5215 5045 5216 5217 
381 382 607 606 406 407 632 631 3410 5048 5049 5041 3654 5219 5220 5212 3641 3651 5218 5211 5214 5221 3657 5222 5052 5223 5224 
382 383 608 607 407 408 633 632 3420 5055 5056 5048 3664 5226 5227 5219 3651 3661 5225 5218 5221 5228 3667 5229 5059 5230 5231 
383 384 609 608 408 409 634 633 3430 5062 5063 5055 3674 5233 5234 5226 3661 3671 5232 5225 5228 5235 3677 5236 5066 5237 5238 
384 385 610 609 409 410 635 634 3440 5069 5070 5062 3684 5240 5241 5233 3671 3681 5239 5232 5235 5242 3687 5243 5073 5244 5245 
385 386 611 610 410 411 636 635 3450 5076 5077 5069 3694 5247 5248 5240 3681 3691 5246 5239 5242 5249 3697 5250 5080 5251 5252 
386 387 612 611 411 412 637 636 3460 5083 5084 5076 3704 5254 5255 5247 3691 3701 5253 5246 5249 5256 3707 5257 5087 5258 5259 
387 388 613 612 412 413 638 637 3470 5090 5091 5083 3714 5261 5262 5254 3701 3711 5260 5253 5256 5263 3717 5264 5094 5265 5266 
388 389 614 613 413 414 639 638 3480 5097 5098 5090 3724 5268 5269 5261 3711 3721 5267 5260 5263 5270 3727 5271 5101 5272 5273 
389 390 615 614 414 415 640 639 3490 5104 5105 5097 3734 5275 5276 5268 3721 3731 5274 5267 5270 5277 3737 5278 5108 5279 5280 
390 391 616 615 415 416 641 640 3500 5111 5112 5104 3744 5282 5283 5275 3731 3741 5281 5274 5277 5284 3747 5285 5115 5286 5287 
391 392 617 616 416 417 642 641 3510 5118 5119 5111 3754 5289 5290 5282 3741 3751 5288 5281 5284 5291 3757 5292 5122 5293 5294 
392 393 618 617 417 418 643 642 3520 5125 5126 5118 3764 5296 5297 5289 3751 3761 5295 5288 5291 5298 3767 5299 5129 5300 5301 
393 394 619 618 418 419 644 643 3530 5132 5133 5125 3774 5303 5304 5296 3761 3771 5302 5295 5298 5305 3777 5306 5136 5307 5308 
394 395 620 619 419 420 645 644 3540 5139 5140 5132 3784 5310 5311 5303 3771 3781 5309 5302 5305 5312 3787 5313 5143 5314 5315 
395 396 621 620 420 421 646 645 3550 5146 5147 5139 3794 5317 5318 5310 3781 3791 5316 5309 5312 5319 3797 5320 5150 5321 5322 
396 397 622 621 421 422 647 646 3560 5153 5154 5146 3804 5324 5325 5317 3791 3801 5323 5316 5319 5326 3807 5327 5157 5328 5329 
397 398 623 622 422 423 648 647 3570 5160 5161 5153 3814 5331 5332 5324 3801 3811 5330 5323 5326 5333 3817 5334 5164 5335 5336 
398 399 624 623 423 424 649 648 3580 5167 5168 5160 3824 5338 5339 5331 3811 3821 5337 5330 5333 5340 3827 5341 5171 5342 5343 
400 401 626 625 425 426 651 650 3592 5175 5176 5177 3836 5346 5347 5348 3833 3832 5344 5345 5351 5349 3840 5350 5181 5352 5353 
401 402 627 626 426 427 652 651 3604 5184 5185 5175 3848 5355 5356 5346 3832 3845 5354 5344 5349 5357 3851 5358 5188 5359 5360 
402 403 628 627 427 428 653 652 3614 5191 5192 5184 3858 5362 5363 5355 3845 3855 5361 5354 5357 5364 3861 5365 5195 5366 5367 
403 404 629 628 428 429 654 653 3624 5198 5199 5191 3868 5369 5370 5362 3855 3865 5368 5361 5364 5371 3871 5372 5202 5373 5374 
404 405 630 629 429 430 655 654 3634 5205 5206 5198 3878 5376 5377 5369 3865 3875 5375 5368 5371 5378 3881 5379 5209 5380 5381 
405 406 631 630 430 431 656 655 3644 5212 5213 5205 3888 5383 5384 5376 3875 3885 5382 5375 5378 5385 3891 5386 5216 5387 5388 
406 407 632 631 431 432 657 656 3654 5219 5220 5212 3898 5390 5391 5383 3885 3895 5389 5382 5385 5392 3901 5393 5223 5394 5395 
407 408 633 632 432 433 658 657 3664 5226 5227 5219 3908 5397 5398 5390 3895 3905 5396 5389 5392 5399 3911 5400 5230 5401 5402 
408 409 634 633 433 434 659 658 3674 5233 5234 5226 3918 5404 5405 5397 3905 3915 5403 5396 5399 5406 3921 5407 5237 5408 5409 
409 410 635 634 434 435 660 659 3684 5240 5241 5233 3928 5411 5412 5404 3915 3925 5410 5403 5406 5413 3931 5414 5244 5415 5416 
410 411 636 635 435 436 661 660 3694 5247 5248 5240 3938 5418 5419 5411 3925 3935 5417 5410 5413 5420 3941 5421 5251 5422 5423 
411 412 637 636 436 437 662 661 3704 5254 5255 5247 3948 5425 5426 5418 3935 3945 5424 5417 5420 5427 3951 5428 5258 5429 5430 
412 413 638 637 437 438 663 662 3714 5261 5262 5254 3958 5432 5433 5425 3945 3955 5431 5424 5427 5434 3961 5435 5265 5436 5437 
413 414 639 638 438 439 664 663 3724 5268 5269 5261 3968 5439 5440 5432 3955 3965 5438 5431 5434 5441 3971 5442 5272 5443 5444 
414 415 640 639 439 440 665 664 3734 5275 5276 5268 3978 5446 5447 5439 3965 3975 5445 5438 5441 5448 3981 5449 5279 5450 5451 
415 416 641 640 440 441 666 665 3744 5282 5283 5275 3988 5453 5454 5446 3975 3985 5452 5445 5448 5455 3991 5456 5286 5457 5458 
416 417 642 641 441 442 667 666 3754 5289 5290 5282 3998 5460 5461 5453 3985 3995 5459 5452 5455 5462 4001 5463 5293 5464 5465 
417 418 643 642 442 443 668 667 3764 5296 5297 5289 4008 5467 5468 5460 3995 4005 5466 5459 5462 5469 4011 5470 5300 5471 5472 
418 419 644 643 443 444 669 668 3774 5303 5304 5296 4018 5474 5475 5467 4005 4015 5473 5466 5469 5476 4021 5477 5307 5478 5479 
419 420 645 644 444 445 670 669 3784 5310 5311 5303 4028 5481 5482 5474 4015 4025 5480 5473 5476 5483 4031 5484 5314 5485 5486 
420 421 646 645 445 446 671 670 3794 5317 5318 5310 4038 5488 5489 5481 4025 4035 5487 5480 5483 5490 4041 5491 5321 5492 5493 
421 422 647 646 446 447 672 671 3804 5324 5325 5317 4048 5495 5496 5488 4035 4045 5494 5487 5490 5497 4051 5498 5328 5499 5500 
422 423 648 647 447 448 673 672 3814 5331 5332 5324 4058 5502 5503 5495 4045 4055 5501 5494 5497 5504 4061 5505 5335 5506 5507 
423 424 649 648 448 449 674 673 3824 5338 5339 5331 4068 5509 5510 5502 4055 4065 5508 5501 5504 5511 4071 5512 5342 5513 5514 
450 451 676 675 475 476 701 700 4075 5515 5516 5517 4080 5520 5521 5522 4078 4077 5518 5519 5526 5524 4084 5525 5523 5527 5528 
451 452 677 676 476 477 702 701 4089 5529 5530 5515 4092 5532 5533 5520 4077 4090 5531 5518 5524 5535 4095 5536 5534 5537 5538 
452 453 678 677 477 478 703 702 4099 5539 5540 5529 4102 5542 5543 5532 4090 4100 5541 5531 5535 5545 4105 5546 5544 5547 5548 
453 454 679 678 478 479 704 703 4109 5549 5550 5539 4112 5552 5553 5542 4100 4110 5551 5541 5545 5555 4115 5556 5554 5557 5558 
454 455 680 679 479 480 705 704 4119 5559 5560 5549 4122 5562 5563 5552 4110 4120 5561 5551 5555 5565 4125 5566 5564 5567 5568 
455 456 681 680 480 481 706 705 4129 5569 5570 5559 4132 5572 5573 5562 4120 4130 5571 5561 5565 5575 4135 5576 5574 5577 5578 
456 457 682 681 481 482 707 706 4139 5579 5580 5569 4142 5582 5583 5572 4130 4140 5581 5571 5575 5585 4145 5586 5584 5587 5588 
457 458 683 682 482 483 708 707 4149 5589 5590 5579 4152 5592 5593 5582 4140 4150 5591 5581 5585 5595 4155 5596 5594 5597 5598 
458 459 684 683 483 484 709 708 4159 5599 5600 5589 4162 5602 5603 5592 4150 4160 5601 5591 5595 5605 4165 5606 5604 5607 5608 
459 460 685 684 484 485 710 709 4169 5609 5610 5599 4172 5612 5613 5602 4160 4170 5611 5601 5605 5615 4175 5616 5614 5617 5618 
460 461 686 685 485 486 711 710 4179 5619 5620 5609 4182 5622 5623 5612 4170 4180 5621 5611 5615 5625 4185 5626 5624 5627 5628 
461 462 687 686 486 487 712 711 4189 5629 5630 5619 4192 5632 5633 5622 4180 4190 5631 5621 5625 5635 4195 5636 5634 5637 5638 
462 463 688 687 487 488 713 712 4199 5639 5640 5629 4202 5642 5643 5632 4190 4200 5641 5631 5635 5645 4205 5646 5644 5647 5648 
463 464 689 688 488 489 714 713 4209 5649 5650 5639 4212 5652 5653 5642 4200 4210 5651 5641 5645 5655 4215 5656 5654 5657 5658 
464 465 690 689 489 490 715 714 4219 5659 5660 5649 4222 5662 5663 5652 4210 4220 5661 5651 5655 5665 4225 5666 5664 5667 5668 
465 466 691 690 490 491 716 715 4229 5669 5670 5659 4232 5672 5673 5662 4220 4230 5671 5661 5665 5675 4235 5676 5674 5677 5678 
466 467 692 691 491 492 717 716 4239 5679 5680 5669 4242 5682 5683 5672 4230 4240 5681 5671 5675 5685 4245 5686 5684 5687 5688 
467 468 693 692 492 493 718 717 4249 5689 5690 5679 4252 5692 5693 5682 4240 4250 5691 5681 5685 5695 4255 5696 5694 5697 5698 
468 469 694 693 493 494 719 718 4259 5699 5700 5689 4262 5702 5703 5692 4250 4260 5701 5691 5695 5705 4265 5706 5704 5707 5708 
469 470 695 694 494 495 720 719 4269 5709 5710 5699 4272 5712 5713 5702 4260 4270 5711 5701 5705 5715 4275 5716 5714 5717 5718 
470 471 696 695 495 496 721 720 4279 5719 5720 5709 4282 5722 5723 5712 4270 4280 5721 5711 5715 5725 4285 5726 5724 5727 5728 
471 472 697 696 496 497 722 721 4289 5729 5730 5719 4292 5732 5733 5722 4280 4290 5731 5721 5725 5735 4295 5736 5734 5737 5738 
472 473 698 697 497 498 723 722 4299 5739 5740 5729 4302 5742 5743 5732 4290 4300 5741 5731 5735 5745 4305 5746 5744 5747 5748 
473 474 699 698 498 499 724 723 4309 5749 5750 5739 4312 5752 5753 5742 4300 4310 5751 5741 5745 5755 4315 5756 5754 5757 5758 
475 476 701 700 500 501 726 725 4080 5520 5521 5522 4321 5761 5762 5763 4319 4318 5759 5760 5766 5764 4324 5765 5527 5767 5768 
476 477 702 701 501 502 727 726 4092 5532 5533 5520 4330 5770 5771 5761 4318 4328 5769 5759 5764 5772 4332 5773 5537 5774 5775 
477 478 703 702 502 503 728 727 4102 5542 5543 5532 4337 5777 5778 5770 4328 4335 5776 5769 5772 5779 4339 5780 5547 5781 5782 
478 479 704 703 503 504 729 728 4112 5552 5553 5542 4344 5784 5785 5777 4335 4342 5783 5776 5779 5786 4346 5787 5557 5788 5789 
479 480 705 704 504 505 730 729 4122 5562 5563 5552 4351 5791 5792 5784 4342 4349 5790 5783 5786 5793 4353 5794 5567 5795 5796 
480 481 706 705 505 506 731 730 4132 5572 5573 5562 4358 5798 5799 5791 4349 4356 5797 5790 5793 5800 4360 5801 5577 5802 5803 
481 482 707 706 506 507 732 731 4142 5582 5583 5572 4365 5805 5806 5798 4356 4363 5804 5797 5800 5807 4367 5808 5587 5809 5810 
482 483 708 707 507 508 733 732 4152 5592 5593 5582 4372 5812 5813 5805 4363 4370 5811 5804 5807 5814 4374 5815 5597 5816 5817 
483 484 709 708 508 509 734 733 4162 5602 5603 5592 4379 5819 5820 5812 4370 4377 5818 5811 5814 5821 4381 5822 5607 5823 5824 
484 485 710 709 509 510 735 734 4172 5612 5613 5602 4386 5826 5827 5819 4377 4384 5825 5818 5821 5828 4388 5829 5617 5830 5831 
485 486 711 710 510 511 736 735 4182 5622 5623 5612 4393 5833 5834 5826 4384 4391 5832 5825 5828 5835 4395 5836 5627 5837 5838 
486 487 712 711 511 512 737 736 4192 5632 5633 5622 4400 5840 5841 5833 4391 4398 5839 5832 5835 5842 4402 5843 5637 5844 5845 
487 488 713 712 512 513 738 737 4202 5642 5643 5632 4407 5847 5848 5840 4398 4405 5846 5839 5842 5849 4409 5850 5647 5851 5852 
488 489 714 713 513 514 739 738 4212 5652 5653 5642 4414 5854 5855 5847 4405 4412 5853 5846 5849 5856 4416 5857 5657 5858 5859 
489 490 715 714 514 515 740 739 4222 5662 5663 5652 4421 5861 5862 5854 4412 4419 5860 5853 5856 5863 4423 5864 5667 5865 5866 
490 491 716 715 515 516 741 740 4232 5672 5673 5662 4428 5868 5869 5861 4419 4426 5867 5860 5863 5870 4430 5871 5677 5872 5873 
491 492 717 716 516 517 742 741 4242 5682 5683 5672 4435 5875 5876 5868 4426 4433 5874 5867 5870 5877 4437 5878 5687 5879 5880 
492 493 718 717 517 518 743 742 4252 5692 5693 5682 4442 5882 5883 5875 4433 4440 5881 5874 5877 5884 4444 5885 5697 5886 5887 
493 494 719 718 518 519 744 743 4262 5702 5703 5692 4449 5889 5890 5882 4440 4447 5888 5881 5884 5891 4451 5892 5707 5893 5894 
494 495 720 719 519 520 745 744 4272 5712 5713 5702 4456 5896 5897 5889 4447 4454 5895 5888 5891 5898 4458 5899 5717 5900 5901 
495 496 721 720 520 521 746 745 4282 5722 5723 5712 4463 5903 5904 5896 4454 4461 5902 5895 5898 5905 4465 5906 5727 5907 5908 
496 497 722 721 521 522 747 746 4292 5732 5733 5722 4470 5910 5911 5903 4461 4468 5909 5902 5905 5912 4472 5913 5737 5914 5915 
497 498 723 722 522 523 748 747 4302 5742 5743 5732 4477 5917 5918 5910 4468 4475 5916 5909 5912 5919 4479 5920 5747 5921 5922 
498 499 724 723 523 524 749 748 4312 5752 5753 5742 4484 5924 5925 5917 4475 4482 5923 5916 5919 5926 4486 5927 5757 5928 5929 
500 501 726 725 525 526 751 750 4321 5761 5762 5763 4492 5932 5933 5934 4490 4489 5930 5931 5937 5935 4495 5936 5767 5938 5939 
501 502 727 726 526 527 752 751 4330 5770 5771 5761 4501 5941 5942 5932 4489 4499 5940 5930 5935 5943 4503 5944 5774 5945 5946 
502 503 728 727 527 528 753 752 4337 5777 5778 5770 4508 5948 5949 5941 4499 4506 5947 5940 5943 5950 4510 5951 5781 5952 5953 
503 504 729 728 528 529 754 753 4344 5784 5785 5777 4515 5955 5956 5948 4506 4513 5954 5947 5950 5957 4517 5958 5788 5959 5960 
504 505 730 729 529 530 755 754 4351 5791 5792 5784 4522 5962 5963 5955 4513 4520 5961 5954 5957 5964 4524 5965 5795 5966 5967 
505 506 731 730 530 531 756 755 4358 5798 5799 5791 4529 5969 5970 5962 4520 4527 5968 5961 5964 5971 4531 5972 5802 5973 5974 
506 507 732 731 531 532 757 756 4365 5805 5806 5798 4536 5976 5977 5969 4527 4534 5975 5968 5971 5978 4538 5979 5809 5980 5981 
507 508 733 732 532 533 758 757 4372 5812 5813 5805 4543 5983 5984 5976 4534 4541 5982 5975 5978 5985 4545 5986 5816 5987 5988 
508 509 734 733 533 534 759 758 4379 5819 5820 5812 4550 5990 5991 5983 4541 4548 5989 5982 5985 5992 4552 5993 5823 5994 5995 
509 510 735 734 534 535 760 759 4386 5826 5827 5819 4557 5997 5998 5990 4548 4555 5996 5989 5992 5999 4559 6000 5830 6001 6002 
510 511 736 735 535 536 761 760 4393 5833 5834 5826 4564 6004 6005 5997 4555 4562 6003 5996 5999 6006 4566 6007 5837 6008 6009 
511 512 737 736 536 537 762 761 4400 5840 5841 5833 4571 6011 6012 6004 4562 4569 6010 6003 6006 6013 4573 6014 5844 6015 6016 
512 513 738 737 537 538 763 762 4407 5847 5848 5840 4578 6018 6019 6011 4569 4576 6017 6010 6013 6020 4580 6021 5851 6022 6023 
513 514 739 738 538 539 764 763 4414 5854 5855 5847 4585 6025 6026 6018 4576 4583 6024 6017 6020 6027 4587 6028 5858 6029 6030 
514 515 740 739 539 540 765 764 4421 5861 5862 5854 4592 6032 6033 6025 4583 4590 6031 6024 6027 6034 4594 6035 5865 6036 6037 
515 516 741 740 540 541 766 765 4428 5868 5869 5861 4599 6039 6040 6032 4590 4597 6038 6031 6034 6041 4601 6042 5872 6043 6044 
516 517 742 741 541 542 767 766 4435 5875 5876 5868 4606 6046 6047 6039 4597 4604 6045 6038 6041 6048 4608 6049 5879 6050 6051 
517 518 743 742 542 543 768 767 4442 5882 5883 5875 4613 6053 6054 6046 4604 4611 6052 6045 6048 6055 4615 6056 5886 6057 6058 
518 519 744 743 543 544 769 768 4449 5889 5890 5882 4620 6060 6061 6053 4611 4618 6059 6052 6055 6062 4622 6063 5893 6064 6065 
519 520 745 744 544 545 770 769 4456 5896 5897 5889 4627 6067 6068 6060 4618 4625 6066 6059 6062 6069 4629 6070 5900 6071 6072 
520 521 746 745 545 546 771 770 4463 5903 5904 5896 4634 6074 6075 6067 4625 4632 6073 6066 6069 6076 4636 6077 5907 6078 6079 
521 522 747 746 546 547 772 771 4470 5910 5911 5903 4641 6081 6082 6074 4632 4639 6080 6073 6076 6083 4643 6084 5914 6085 6086 
522 523 748 747 547 548 773 772 4477 5917 5918 5910 4648 6088 6089 6081 4639 4646 6087 6080 6083 6090 4650 6091 5921 6092 6093 
523 524 749 748 548 549 774 773 4484 5924 5925 5917 4655 6095 6096 6088 4646 4653 6094 6087 6090 6097 4657 6098 5928 6099 6100 
525 526 751 750 550 551 776 775 4492 5932 5933 5934 4663 6103 6104 6105 4661 4660 6101 6102 6108 6106 4666 6107 5938 6109 6110 
526 527 752 751 551 552 777 776 4501 5941 5942 5932 4672 6112 6113 6103 4660 4670 6111 6101 6106 6114 4674 6115 5945 6116 6117 
527 528 753 752 552 553 778 777 4508 5948 5949 5941 4679 6119 6120 6112 4670 4677 6118 6111 6114 6121 4681 6122 5952 6123 6124 
528 529 754 753 553 554 779 778 4515 5955 5956 5948 4686 6126 6127 6119 4677 4684 6125 6118 6121 6128 4688 6129 5959 6130 6131 
529 530 755 754 554 555 780 779 4522 5962 5963 5955 4693 6133 6134 6126 4684 4691 6132 6125 6128 6135 4695 6136 5966 6137 6138 
530 531 756 755 555 556 781 780 4529 5969 5970 5962 4700 6140 6141 6133 4691 4698 6139 6132 6135 6142 4702 6143 5973 6144 6145 
531 532 757 756 556 557 782 781 4536 5976 5977 5969 4707 6147 6148 6140 4698 4705 6146 6139 6142 6149 4709 6150 5980 6151 6152 
532 533 758 757 557 558 783 782 4543 5983 5984 5976 4714 6154 6155 6147 4705 4712 6153 6146 6149 6156 4716 6157 5987 6158 6159 
533 534 759 758 558 559 784 783 4550 5990 5991 5983 4721 6161 6162 6154 4712 4719 6160 6153 6156 6163 4723 6164 5994 6165 6166 
534 535 760 759 559 560 785 784 4557 5997 5998 5990 4728 6168 6169 6161 4719 4726 6167 6160 6163 6170 4730 6171 6001 6172 6173 
535 536 761 760 560 561 786 785 4564 6004 6005 5997 4735 6175 6176 6168 4726 4733 6174 6167 6170 6177 4737 6178 6008 6179 6180 
536 537 762 761 561 562 787 786 4571 6011 6012 6004 4742 6182 6183 6175 4733 4740 6181 6174 6177 6184 4744 6185 6015 6186 6187 
537 538 763 762 562 563 788 787 4578 6018 6019 6011 4749 6189 6190 6182 4740 4747 6188 6181 6184 6191 4751 6192 6022 6193 6194 
538 539 764 763 563 564 789 788 4585 6025 6026 6018 4756 6196 6197 6189 4747 4754 6195 6188 6191 6198 4758 6199 6029 6200 6201 
539 540 765 764 564 565 790 789 4592 6032 6033 6025 4763 6203 6204 6196 4754 4761 6202 6195 6198 6205 4765 6206 6036 6207 6208 
540 541 766 765 565 566 791 790 4599 6039 6040 6032 4770 6210 6211 6203 4761 4768 6209 6202 6205 6212 4772 6213 6043 6214 6215 
541 542 767 766 566 567 792 791 4606 6046 6047 6039 4777 6217 6218 6210 4768 4775 6216 6209 6212 6219 4779 6220 6050 6221 6222 
542 543 768 767 567 568 793 792 4613 6053 6054 6046 4784 6224 6225 6217 4775 4782 6223 6216 6219 6226 4786 6227 6057 6228 6229 
543 544 769 768 568 569 794 793 4620 6060 6061 6053 4791 6231 6232 6224 4782 4789 6230 6223 6226 6233 4793 6234 6064 6235 6236 
544 545 770 769 569 570 795 794 4627 6067 6068 6060 4798 6238 6239 6231 4789 4796 6237 6230 6233 6240 4800 6241 6071 6242 6243 
545 546 771 770 570 571 796 795 4634 6074 6075 6067 4805 6245 6246 6238 4796 4803 6244 6237 6240 6247 4807 6248 6078 6249 6250 
546 547 772 771 571 572 797 796 4641 6081 6082 6074 4812 6252 6253 6245 4803 4810 6251 6244 6247 6254 4814 6255 6085 6256 6257 
547 548 773 772 572 573 798 797 4648 6088 6089 6081 4819 6259 6260 6252 4810 4817 6258 6251 6254 6261 4821 6262 6092 6263 6264 
548 549 774 773 573 574 799 798 4655 6095 6096 6088 4826 6266 6267 6259 4817 4824 6265 6258 6261 6268 4828 6269 6099 6270 6271 
550 551 776 775 575 576 801 800 4663 6103 6104 6105 4834 6274 6275 6276 4832 4831 6272 6273 6279 6277 4837 6278 6109 6280 6281 
551 552 777 776 576 577 802 801 4672 6112 6113 6103 4843 6283 6284 6274 4831 4841 6282 6272 6277 6285 4845 6286 6116 6287 6288 
552 553 778 777 577 578 803 802 4679 6119 6120 6112 4850 6290 6291 6283 4841 4848 6289 6282 6285 6292 4852 6293 6123 6294 6295 
553 554 779 778 578 579 804 803 4686 6126 6127 6119 4857 6297 6298 6290 4848 4855 6296 6289 6292 6299 4859 6300 6130 6301 6302 
554 555 780 779 579 580 805 804 4693 6133 6134 6126 4864 6304 6305 6297 4855 4862 6303 6296 6299 6306 4866 6307 6137 6308 6309 
555 556 781 780 580 581 806 805 4700 6140 6141 6133 4871 6311 6312 6304 4862 4869 6310 6303 6306 6313 4873 6314 6144 6315 6316 
556 557 782 781 581 582 807 806 4707 6147 6148 6140 4878 6318 6319 6311 4869 4876 6317 6310 6313 6320 4880 6321 6151 6322 6323 
557 558 783 782 582 583 808 807 4714 6154 6155 6147 4885 6325 6326 6318 4876 4883 6324 6317 6320 6327 4887 6328 6158 6329 6330 
558 559 784 783 583 584 809 808 4721 6161 6162 6154 4892 6332 6333 6325 4883 4890 6331 6324 6327 6334 4894 6335 6165 6336 6337 
559 560 785 784 584 585 810 809 4728 6168 6169 6161 4899 6339 6340 6332 4890 4897 6338 6331 6334 6341 4901 6342 6172 6343 6344 
560 561 786 785 585 586 811 810 4735 6175 6176 6168 4906 6346 6347 6339 4897 4904 6345 6338 6341 6348 4908 6349 6179 6350 6351 
561 562 787 786 586 587 812 811 4742 6182 6183 6175 4913 6353 6354 6346 4904 4911 6352 6345 6348 6355 4915 6356 6186 6357 6358 
562 563 788 787 587 588 813 812 4749 6189 6190 6182 4920 6360 6361 6353 4911 4918 6359 6352 6355 6362 4922 6363 6193 6364 6365 
563 564 789 788 588 589 814 813 4756 6196 6197 6189 4927 6367 6368 6360 4918 4925 6366 6359 6362 6369 4929 6370 6200 6371 6372 
564 565 790 789 589 590 815 814 4763 6203 6204 6196 4934 6374 6375 6367 4925 4932 6373 6366 6369 6376 4936 6377 6207 6378 6379 
565 566 791 790 590 591 816 815 4770 6210 6211 6203 4941 6381 6382 6374 4932 4939 6380 6373 6376 6383 4943 6384 6214 6385 6386 
566 567 792 791 591 592 817 816 4777 6217 6218 6210 4948 6388 6389 6381 4939 4946 6387 6380 6383 6390 4950 6391 6221 6392 6393 
567 568 793 792 592 593 818 817 4784 6224 6225 6217 4955 6395 6396 6388 4946 4953 6394 6387 6390 6397 4957 6398 6228 6399 6400 
568 569 794 793 593 594 819 818 4791 6231 6232 6224 4962 6402 6403 6395 4953 4960 6401 6394 6397 6404 4964 6405 6235 6406 6407 
569 570 795 794 594 595 820 819 4798 6238 6239 6231 4969 6409 6410 6402 4960 4967 6408 6401 6404 6411 4971 6412 6242 6413 6414 
570 571 796 795 595 596 821 820 4805 6245 6246 6238 4976 6416 6417 6409 4967 4974 6415 6408 6411 6418 4978 6419 6249 6420 6421 
571 572 797 796 596 597 822 821 4812 6252 6253 6245 4983 6423 6424 6416 4974 4981 6422 6415 6418 6425 4985 6426 6256 6427 6428 
572 573 798 797 597 598 823 822 4819 6259 6260 6252 4990 6430 6431 6423 4981 4988 6429 6422 6425 6432 4992 6433 6263 6434 6435 
573 574 799 798 598 599 824 823 4826 6266 6267 6259 4997 6437 6438 6430 4988 4995 6436 6429 6432 6439 4999 6440 6270 6441 6442 
575 576 801 800 600 601 826 825 4834 6274 6275 6276 5005 6445 6446 6447 5003 5002 6443 6444 6450 6448 5008 6449 6280 6451 6452 
576 577 802 801 601 602 827 826 4843 6283 6284 6274 5014 6454 6455 6445 5002 5012 6453 6443 6448 6456 5016 6457 6287 6458 6459 
577 578 803 802 602 603 828 827 4850 6290 6291 6283 5021 6461 6462 6454 5012 5019 6460 6453 6456 6463 5023 6464 6294 6465 6466 
578 579 804 803 603 604 829 828 4857 6297 6298 6290 5028 6468 6469 6461 5019 5026 6467 6460 6463 6470 5030 6471 6301 6472 6473 
579 580 805 804 604 605 830 829 4864 6304 6305 6297 5035 6475 6476 6468 5026 5033 6474 6467 6470 6477 5037 6478 6308 6479 6480 
580 581 806 805 605 606 831 830 4871 6311 6312 6304 5042 6482 6483 6475 5033 5040 6481 6474 6477 6484 5044 6485 6315 6486 6487 
581 582 807 806 606 607 832 831 4878 6318 6319 6311 5049 6489 6490 6482 5040 5047 6488 6481 6484 6491 5051 6492 6322 6493 6494 
582 583 808 807 607 608 833 832 4885 6325 6326 6318 5056 6496 6497 6489 5047 5054 6495 6488 6491 6498 5058 6499 6329 6500 6501 
583 584 809 808 608 609 834 833 4892 6332 6333 6325 5063 6503 6504 6496 5054 5061 6502 6495 6498 6505 5065 6506 6336 6507 6508 
584 585 810 809 609 610 835 834 4899 6339 6340 6332 5070 6510 6511 6503 5061 5068 6509 6502 6505 6512 5072 6513 6343 6514 6515 
585 586 811 810 610 611 836 835 4906 6346 6347 6339 5077 6517 6518 6510 5068 5075 6516 6509 6512 6519 5079 6520 6350 6521 6522 
586 587 812 811 611 612 837 836 4913 6353 6354 6346 5084 6524 6525 6517 5075 5082 6523 6516 6519 6526 5086 6527 6357 6528 6529 
587 588 813 812 612 613 838 837 4920 6360 6361 6353 5091 6531 6532 6524 5082 5089 6530 6523 6526 6533 5093 6534 6364 6535 6536 
588 589 814 813 613 614 839 838 4927 6367 6368 6360 5098 6538 6539 6531 5089 5096 6537 6530 6533 6540 5100 6541 6371 6542 6543 
589 590 815 814 614 615 840 839 4934 6374 6375 6367 5105 6545 6546 6538 5096 5103 6544 6537 6540 6547 5107 6548 6378 6549 6550 
590 591 816 815 615 616 841 840 4941 6381 6382 6374 5112 6552 6553 6545 5103 5110 6551 6544 6547 6554 5114 6555 6385 6556 6557 
591 592 817 816 616 617 842 841 4948 6388 6389 6381 5119 6559 6560 6552 5110 5117 6558 6551 6554 6561 5121 6562 6392 6563 6564 
592 593 818 817 617 618 843 842 4955 6395 6396 6388 5126 6566 6567 6559 5117 5124 6565 6558 6561 6568 5128 6569 6399 6570 6571 
593 594 819 818 618 619 844 843 4962 6402 6403 6395 5133 6573 6574 6566 5124 5131 6572 6565 6568 6575 5135 6576 6406 6577 6578 
594 595 820 819 619 620 845 844 4969 6409 6410 6402 5140 6580 6581 6573 5131 5138 6579 6572 6575 6582 5142 6583 6413 6584 6585 
595 596 821 820 620 621 846 845 4976 6416 6417 6409 5147 6587 6588 6580 5138 5145 6586 6579 6582 6589 5149 6590 6420 6591 6592 
596 597 822 821 621 622 847 846 4983 6423 6424 6416 5154 6594 6595 6587 5145 5152 6593 6586 6589 6596 5156 6597 6427 6598 6599 
597 598 823 822 622 623 848 847 4990 6430 6431 6423 5161 6601 6602 6594 5152 5159 6600 6593 6596 6603 5163 6604 6434 6605 6606 
598 599 824 823 623 624 849 848 4997 6437 6438 6430 5168 6608 6609 6601 5159 5166 6607 6600 6603 6610 5170 6611 6441 6612 6613 
600 601 826 825 625 626 851 850 5005 6445 6446 6447 5176 6616 6617 6618 5174 5173 6614 6615 6621 6619 5179 6620 6451 6622 6623 
601 602 827 826 626 627 852 851 5014 6454 6455 6445 5185 6625 6626 6616 5173 5183 6624 6614 6619 6627 5187 6628 6458 6629 6630 
602 603 828 827 627 628 853 852 5021 6461 6462 6454 5192 6632 6633 6625 5183 5190 6631 6624 6627 6634 5194 6635 6465 6636 6637 
603 604 829 828 628 629 854 853 5028 6468 6469 6461 5199 6639 6640 6632 5190 5197 6638 6631 6634 6641 5201 6642 6472 6643 6644 
604 605 830 829 629 630 855 854 5035 6475 6476 6468 5206 6646 6647 6639 5197 5204 6645 6638 6641 6648 5208 6649 6479 6650 6651 
605 606 831 830 630 631 856 855 5042 6482 6483 6475 5213 6653 6654 6646 5204 5211 6652 6645 6648 6655 5215 6656 6486 6657 6658 
606 607 832 831 631 632 857 856 5049 6489 6490 6482 5220 6660 6661 6653 5211 5218 6659 6652 6655 6662 5222 6663 6493 6664 6665 
607 608 833 832 632 633 858 857 5056 6496 6497 6489 5227 6667 6668 6660 5218 5225 6666 6659 6662 6669 5229 6670 6500 6671 6672 
608 609 834 833 633 634 859 858 5063 6503 6504 6496 5234 6674 6675 6667 5225 5232 6673 6666 6669 6676 5236 6677 6507 6678 6679 
609 610 835 834 634 635 860 859 5070 6510 6511 6503 5241 6681 6682 6674 5232 5239 6680 6673 6676 6683 5243 6684 6514 6685 6686 
610 611 836 835 635 636 861 860 5077 6517 6518 6510 5248 6688 6689 6681 5239 5246 6687 6680 6683 6690 5250 6691 6521 6692 6693 
611 612 837 836 636 637 862 861 5084 6524 6525 6517 5255 6695 6696 6688 5246 5253 6694 6687 6690 6697 5257 6698 6528 6699 6700 
612 613 838 837 637 638 863 862 5091 6531 6532 6524 5262 6702 6703 6695 5253 5260 6701 6694 6697 6704 5264 6705 6535 6706 6707 
613 614 839 838 638 639 864 863 5098 6538 6539 6531 5269 6709 6710 6702 5260 5267 6708 6701 6704 6711 5271 6712 6542 6713 6714 
614 615 840 839 639 640 865 864 5105 6545 6546 6538 5276 6716 6717 6709 5267 5274 6715 6708 6711 6718 5278 6719 6549 6720 6721 
615 616 841 840 640 641 866 865 5112 6552 6553 6545 5283 6723 6724 6716 5274 5281 6722 6715 6718 6725 5285 6726 6556 6727 6728 
616 617 842 841 641 642 867 866 5119 6559 6560 6552 5290 6730 6731 6723 5281 5288 6729 6722 6725 6732 5292 6733 6563 6734 6735 
617 618 843 842 642 643 868 867 5126 6566 6567 6559 5297 6737 6738 6730 5288 5295 6736 6729 6732 6739 5299 6740 6570 6741 6742 
618 619 844 843 643 644 869 868 5133 6573 6574 6566 5304 6744 6745 6737 5295 5302 6743 6736 6739 6746 5306 6747 6577 6748 6749 
619 620 845 844 644 645 870 869 5140 6580 6581 6573 5311 6751 6752 6744 5302 5309 6750 6743 6746 6753 5313 6754 6584 6755 6756 
620 621 846 845 645 646 871 870 5147 6587 6588 6580 5318 6758 6759 6751 5309 5316 6757 6750 6753 6760 5320 6761 6591 6762 6763 
621 622 847 846 646 647 872 871 5154 6594 6595 6587 5325 6765 6766 6758 5316 5323 6764 6757 6760 6767 5327 6768 6598 6769 6770 
622 623 848 847 647 648 873 872 5161 6601 6602 6594 5332 6772 6773 6765 5323 5330 6771 6764 6767 6774 5334 6775 6605 6776 6777 
623 624 849 848 648 649 874 873 5168 6608 6609 6601 5339 6779 6780 6772 5330 5337 6778 6771 6774 6781 5341 6782 6612 6783 6784 
625 626 851 850 650 651 876 875 5176 6616 6617 6618 5347 6787 6788 6789 5345 5344 6785 6786 6792 6790 5350 6791 6622 6793 6794 
626 627 852 851 651 652 877 876 5185 6625 6626 6616 5356 6796 6797 6787 5344 5354 6795 6785 6790 6798 5358 6799 6629 6800 6801 
627 628 853 852 652 653 878 877 5192 6632 6633 6625 5363 6803 6804 6796 5354 5361 6802 6795 6798 6805 5365 6806 6636 6807 6808 
628 629 854 853 653 654 879 878 5199 6639 6640 6632 5370 6810 6811 6803 5361 5368 6809 6802 6805 6812 5372 6813 6643 6814 6815 
629 630 855 854 654 655 880 879 5206 6646 6647 6639 5377 6817 6818 6810 5368 5375 6816 6809 6812 6819 5379 6820 6650 6821 6822 
630 631 856 855 655 656 881 880 5213 6653 6654 6646 5384 6824 6825 6817 5375 5382 6823 6816 6819 6826 5386 6827 6657 6828 6829 
631 632 857 856 656 657 882 881 5220 6660 6661 6653 5391 6831 6832 6824 5382 5389 6830 6823 6826 6833 5393 6834 6664 6835 6836 
632 633 858 857 657 658 883 882 5227 6667 6668 6660 5398 6838 6839 6831 5389 5396 6837 6830 6833 6840 5400 6841 6671 6842 6843 
633 634 859 858 658 659 884 883 5234 6674 6675 6667 5405 6845 6846 6838 5396 5403 6844 6837 6840 6847 5407 6848 6678 6849 6850 
634 635 860 859 659 660 885 884 5241 6681 6682 6674 5412 6852 6853 6845 5403 5410 6851 6844 6847 6854 5414 6855 6685 6856 6857 
635 636 861 860 660 661 886 885 5248 6688 6689 6681 5419 6859 6860 6852 5410 5417 6858 6851 6854 6861 5421 6862 6692 6863 6864 
636 637 862 861 661 662 887 886 5255 6695 6696 6688 5426 6866 6867 6859 5417 5424 6865 6858 6861 6868 5428 6869 6699 6870 6871 
637 638 863 862 662 663 888 887 5262 6702 6703 6695 5433 6873 6874 6866 5424 5431 6872 6865 6868 6875 5435 6876 6706 6877 6878 
638 639 864 863 663 664 889 888 5269 6709 6710 6702 5440 6880 6881 6873 5431 5438 6879 6872 6875 6882 5442 6883 6713 6884 6885 
639 640 865 864 664 665 890 889 5276 6716 6717 6709 5447 6887 6888 6880 5438 5445 6886 6879 6882 6889 5449 6890 6720 6891 6892 
640 641 866 865 665 666 891 890 5283 6723 6724 6716 5454 6894 6895 6887 5445 5452 6893 6886 6889 6896 5456 6897 6727 6898 6899 
641 642 867 866 666 667 892 891 5290 6730 6731 6723 5461 6901 6902 6894 5452 5459 6900 6893 6896 6903 5463 6904 6734 6905 6906 
642 643 868 867 667 668 893 892 5297 6737 6738 6730 5468 6908 6909 6901 5459 5466 6907 6900 6903 6910 5470 6911 6741 6912 6913 
643 644 869 868 668 669 894 893 5304 6744 6745 6737 5475 6915 6916 6908 5466 5473 6914 6907 6910 6917 5477 6918 6748 6919 6920 
644 645 870 869 669 670 895 894 5311 6751 6752 6744 5482 6922 6923 6915 5473 5480 6921 6914 6917 6924 5484 6925 6755 6926 6927 
645 646 871 870 670 671 896 895 5318 6758 6759 6751 5489 6929 6930 6922 5480 5487 6928 6921 6924 6931 5491 6932 6762 6933 6934 
646 647 872 871 671 672 897 896 5325 6765 6766 6758 5496 6936 6937 6929 5487 5494 6935 6928 6931 6938 5498 6939 6769 6940 6941 
647 648 873 872 672 673 898 897 5332 6772 6773 6765 5503 6943 6944 6936 5494 5501 6942 6935 6938 6945 5505 6946 6776 6947 6948 
648 649 874 873 673 674 899 898 5339 6779 6780 6772 5510 6950 6951 6943 5501 5508 6949 6942 6945 6952 5512 6953 6783 6954 6955 
675 676 901 900 700 701 926 925 5516 6956 6957 6958 5521 6961 6962 6963 5519 5518 6959 6960 6967 6965 5525 6966 6964 6968 6969 
676 677 902 901 701 702 927 926 5530 6970 6971 6956 5533 6973 6974 6961 5518 5531 6972 6959 6965 6976 5536 6977 6975 6978 6979 
677 678 903 902 702 703 928 927 5540 6980 6981 6970 5543 6983 6984 6973 5531 5541 6982 6972 6976 6986 5546 6987 6985 6988 6989 
678 679 904 903 703 704 929 928 5550 6990 6991 6980 5553 6993 6994 6983 5541 5551 6992 6982 6986 6996 5556 6997 6995 6998 6999 
679 680 905 904 704 705 930 929 5560 7000 7001 6990 5563 7003 7004 6993 5551 5561 7002 6992 6996 7006 5566 7007 7005 7008 7009 
680 681 906 905 705 706 931 930 5570 7010 7011 7000 5573 7013 7014 7003 5561 5571 7012 7002 7006 7016 5576 7017 7015 7018 7019 
681 682 907 906 706 707 932 931 5580 7020 7021 7010 5583 7023 7024 7013 5571 5581 7022 7012 7016 7026 5586 7027 7025 7028 7029 
682 683 908 907 707 708 933 932 5590 7030 7031 7020 5593 7033 7034 7023 5581 5591 7032 7022 7026 7036 5596 7037 7035 7038 7039 
683 684 909 908 708 709 934 933 5600 7040 7041 7030 5603 7043 7044 7033 5591 5601 7042 7032 7036 7046 5606 7047 7045 7048 7049 
684 685 910 909 709 710 935 934 5610 7050 7051 7040 5613 7053 7054 7043 5601 5611 7052 7042 7046 7056 5616 7057 7055 7058 7059 
685 686 911 910 710 711 936 935 5620 7060 7061 7050 5623 7063 7064 7053 5611 5621 7062 7052 7056 7066 5626 7067 7065 7068 7069 
686 687 912 911 711 712 937 936 5630 7070 7071 7060 5633 7073 7074 7063 5621 5631 7072 7062 7066 7076 5636 7077 7075 7078 7079 
687 688 913 912 712 713 938 937 5640 7080 7081 7070 5643 7083 7084 7073 5631 5641 7082 7072 7076 7086 5646 7087 7085 7088 7089 
688 689 914 913 713 714 939 938 5650 7090 7091 7080 5653 7093 7094 7083 5641 5651 7092 7082 7086 7096 5656 7097 7095 7098 7099 
689 690 915 914 714 715 940 939 5660 7100 7101 7090 5663 7103 7104 7093 5651 5661 7102 7092 7096 7106 5666 7107 7105 7108 7109 
690 691 916 915 715 716 941 940 5670 7110 7111 7100 5673 7113 7114 7103 5661 5671 7112 7102 7106 7116 5676 7117 7115 7118 7119 
691 692 917 916 716 717 942 941 5680 7120 7121 7110 5683 7123 7124 7113 5671 5681 7122 7112 7116 7126 5686 7127 7125 7128 7129 
692 693 918 917 717 718 943 942 5690 7130 7131 7120 5693 7133 7134 7123 5681 5691 7132 7122 7126 7136 5696 7137 7135 7138 7139 
693 694 919 918 718 719 944 943 5700 7140 7141 7130 5703 7143 7144 7133 5691 5701 7142 7132 7136 7146 5706 7147 7145 7148 7149 
694 695 920 919 719 720 945 944 5710 7150 7151 7140 5713 7153 7154 7143 5701 5711 7152 7142 7146 7156 5716 7157 7155 7158 7159 
695 696 921 920 720 721 946 945 5720 7160 7161 7150 5723 7163 7164 7153 5711 5721 7162 7152 7156 7166 5726 7167 7165 7168 7169 
696 697 922 921 721 722 947 946 5730 7170 7171 7160 5733 7173 7174 7163 5721 5731 7172 7162 7166 7176 5736 7177 7175 7178 7179 
697 698 923 922 722 723 948 947 5740 7180 7181 7170 5743 7183 7184 7173 5731 5741 7182 7172 7176 7186 5746 7187 7185 7188 7189 
698 699 924 923 723 724 949 948 5750 7190 7191 7180 5753 7193 7194 7183 5741 5751 7192 7182 7186 7196 5756 7197 7195 7198 7199 
700 701 926 925 725 726 951 950 5521 6961 6962 6963 5762 7202 7203 7204 5760 5759 7200 7201 7207 7205 5765 7206 6968 7208 7209 
701 702 927 926 726 727 952 951 5533 6973 6974 6961 5771 7211 7212 7202 5759 5769 7210 7200 7205 7213 5773 7214 6978 7215 7216 
702 703 928 927 727 728 953 952 5543 6983 6984 6973 5778 7218 7219 7211 5769 5776 7217 7210 7213 7220 5780 7221 6988 7222 7223 
703 704 929 928 728 729 954 953 5553 6993 6994 6983 5785 7225 7226 7218 5776 5783 7224 7217 7220 7227 5787 7228 6998 7229 7230 
704 705 930 929 729 730 955 954 5563 7003 7004 6993 5792 7232 7233 7225 5783 5790 7231 7224 7227 7234 5794 7235 7008 7236 7237 
705 706 931 930 730 731 956 955 5573 7013 7014 7003 5799 7239 7240 7232 5790 5797 7238 7231 7234 7241 5801 7242 7018 7243 7244 
706 707 932 931 731 732 957 956 5583 7023 7024 7013 5806 7246 7247 7239 5797 5804 7245 7238 7241 7248 5808 7249 7028 7250 7251 
707 708 933 932 732 733 958 957 5593 7033 7034 7023 5813 7253 7254 7246 5804 5811 7252 7245 7248 7255 5815 7256 7038 7257 7258 
708 709 934 933 733 734 959 958 5603 7043 7044 7033 5820 7260 7261 7253 5811 5818 7259 7252 7255 7262 5822 7263 7048 7264 7265 
709 710 935 934 734 735 960 959 5613 7053 7054 7043 5827 7267 7268 7260 5818 5825 7266 7259 7262 7269 5829 7270 7058 7271 7272 
710 711 936 935 735 736 961 960 5623 7063 7064 7053 5834 7274 7275 7267 5825 5832 7273 7266 7269 7276 5836 7277 7068 7278 7279 
711 712 937 936 736 737 962 961 5633 7073 7074 7063 5841 7281 7282 7274 5832 5839 7280 7273 7276 7283 5843 7284 7078 7285 7286 
712 713 938 937 737 738 963 962 5643 7083 7084 7073 5848 7288 7289 7281 5839 5846 7287 7280 7283 7290 5850 7291 7088 7292 7293 
713 714 939 938 738 739 964 963 5653 7093 7094 7083 5855 7295 7296 7288 5846 5853 7294 7287 7290 7297 5857 7298 7098 7299 7300 
714 715 940 939 739 740 965 964 5663 7103 7104 7093 5862 7302 7303 7295 5853 5860 7301 7294 7297 7304 5864 7305 7108 7306 7307 
715 716 941 940 740 741 966 965 5673 7113 7114 7103 5869 7309 7310 7302 5860 5867 7308 7301 7304 7311 5871 7312 7118 7313 7314 
716 717 942 941 741 742 967 966 5683 7123 7124 7113 5876 7316 7317 7309 5867 5874 7315 7308 7311 7318 5878 7319 7128 7320 7321 
717 718 943 942 742 743 968 967 5693 7133 7134 7123 5883 7323 7324 7316 5874 5881 7322 7315 7318 7325 5885 7326 7138 7327 7328 
718 719 944 943 743 744 969 968 5703 7143 7144 7133 5890 7330 7331 7323 5881 5888 7329 7322 7325 7332 5892 7333 7148 7334 7335 
719 720 945 944 744 745 970 969 5713 7153 7154 7143 5897 7337 7338 7330 5888 5895 7336 7329 7332 7339 5899 7340 7158 7341 7342 
720 721 946 945 745 746 971 970 5723 7163 7164 7153 5904 7344 7345 7337 5895 5902 7343 7336 7339 7346 5906 7347 7168 7348 7349 
721 722 947 946 746 747 972 971 5733 7173 7174 7163 5911 7351 7352 7344 5902 5909 7350 7343 7346 7353 5913 7354 7178 7355 7356 
722 723 948 947 747 748 973 972 5743 7183 7184 7173 5918 7358 7359 7351 5909 5916 7357 7350 7353 7360 5920 7361 7188 7362 7363 
723 724 949 948 748 749 974 973 5753 7193 7194 7183 5925 7365 7366 7358 5916 5923 7364 7357 7360 7367 5927 7368 7198 7369 7370 
725 726 951 950 750 751 976 975 5762 7202 7203 7204 5933 7373 7374 7375 5931 5930 7371 7372 7378 7376 5936 7377 7208 7379 7380 
726 727 952 951 751 752 977 976 5771 7211 7212 7202 5942 7382 7383 7373 5930 5940 7381 7371 7376 7384 5944 7385 7215 7386 7387 
727 728 953 952 752 753 978 977 5778 7218 7219 7211 5949 7389 7390 7382 5940 5947 7388 7381 7384 7391 5951 7392 7222 7393 7394 
728 729 954 953 753 754 979 978 5785 7225 7226 7218 5956 7396 7397 7389 5947 5954 7395 7388 7391 7398 5958 7399 7229 7400 7401 
729 730 955 954 754 755 980 979 5792 7232 7233 7225 5963 7403 7404 7396 5954 5961 7402 7395 7398 7405 5965 7406 7236 7407 7408 
730 731 956 955 755 756 981 980 5799 7239 7240 7232 5970 7410 7411 7403 5961 5968 7409 7402 7405 7412 5972 7413 7243 7414 7415 
731 732 957 956 756 757 982 981 5806 7246 7247 7239 5977 7417 7418 7410 5968 5975 7416 7409 7412 7419 5979 7420 7250 7421 7422 
732 733 958 957 757 758 983 982 5813 7253 7254 7246 5984 7424 7425 7417 5975 5982 7423 7416 7419 7426 5986 7427 7257 7428 7429 
733 734 959 958 758 759 984 983 5820 7260 7261 7253 5991 7431 7432 7424 5982 5989 7430 7423 7426 7433 5993 7434 7264 7435 7436 
734 735 960 959 759 760 985 984 5827 7267 7268 7260 5998 7438 7439 7431 5989 5996 7437 7430 7433 7440 6000 7441 7271 7442 7443 
735 736 961 960 760 761 986 985 5834 7274 7275 7267 6005 7445 7446 7438 5996 6003 7444 7437 7440 7447 6007 7448 7278 7449 7450 
736 737 962 961 761 762 987 986 5841 7281 7282 7274 6012 7452 7453 7445 6003 6010 7451 7444 7447 7454 6014 7455 7285 7456 7457 
737 738 963 962 762 763 988 987 5848 7288 7289 7281 6019 7459 7460 7452 6010 6017 7458 7451 7454 7461 6021 7462 7292 7463 7464 
738 739 964 963 763 764 989 988 5855 7295 7296 7288 6026 7466 7467 7459 6017 6024 7465 7458 7461 7468 6028 7469 7299 7470 7471 
739 740 965 964 764 765 990 989 5862 7302 7303 7295 6033 7473 7474 7466 6024 6031 7472 7465 7468 7475 6035 7476 7306 7477 7478 
740 741 966 965 765 766 991 990 5869 7309 7310 7302 6040 7480 7481 7473 6031 6038 7479 7472 7475 7482 6042 7483 7313 7484 7485 
741 742 967 966 766 767 992 991 5876 7316 7317 7309 6047 7487 7488 7480 6038 6045 7486 7479 7482 7489 6049 7490 7320 7491 7492 
742 743 968 967 767 768 993 992 5883 7323 7324 7316 6054 7494 7495 7487 6045 6052 7493 7486 7489 7496 6056 7497 7327 7498 7499 
743 744 969 968 768 769 994 993 5890 7330 7331 7323 6061 7501 7502 7494 6052 6059 7500 7493 7496 7503 6063 7504 7334 7505 7506 
744 745 970 969 769 770 995 994 5897 7337 7338 7330 6068 7508 7509 7501 6059 6066 7507 7500 7503 7510 6070 7511 7341 7512 7513 
745 746 971 970 770 771 996 995 5904 7344 7345 7337 6075 7515 7516 7508 6066 6073 7514 7507 7510 7517 6077 7518 7348 7519 7520 
746 747 972 971 771 772 997 996 5911 7351 7352 7344 6082 7522 7523 7515 6073 6080 7521 7514 7517 7524 6084 7525 7355 7526 7527 
747 748 973 972 772 773 998 997 5918 7358 7359 7351 6089 7529 7530 7522 6080 6087 7528 7521 7524 7531 6091 7532 7362 7533 7534 
748 749 974 973 773 774 999 998 5925 7365 7366 7358 6096 7536 7537 7529 6087 6094 7535 7528 7531 7538 6098 7539 7369 7540 7541 
750 751 976 975 775 776 1001 1000 5933 7373 7374 7375 6104 7544 7545 7546 6102 6101 7542 7543 7549 7547 6107 7548 7379 7550 7551 
751 752 977 976 776 777 1002 1001 5942 7382 7383 7373 6113 7553 7554 7544 6101 6111 7552 7542 7547 7555 6115 7556 7386 7557 7558 
752 753 978 977 777 778 1003 1002 5949 7389 7390 7382 6120 7560 7561 7553 6111 6118 7559 7552 7555 7562 6122 7563 7393 7564 7565 
753 754 979 978 778 779 1004 1003 5956 7396 7397 7389 6127 7567 7568 7560 6118 6125 7566 7559 7562 7569 6129 7570 7400 7571 7572 
754 755 980 979 779 780 1005 1004 5963 7403 7404 7396 6134 7574 7575 7567 6125 6132 7573 7566 7569 7576 6136 7577 7407 7578 7579 
755 756 981 980 780 781 1006 1005 5970 7410 7411 7403 6141 7581 7582 7574 6132 6139 7580 7573 7576 7583 6143 7584 7414 7585 7586 
756 757 982 981 781 782 1007 1006 5977 7417 7418 7410 6148 7588 7589 7581 6139 6146 7587 7580 7583 7590 6150 7591 7421 7592 7593 
757 758 983 982 782 783 1008 1007 5984 7424 7425 7417 6155 7595 7596 7588 6146 6153 7594 7587 7590 7597 6157 7598 7428 7599 7600 
758 759 984 983 783 784 1009 1008 5991 7431 7432 7424 6162 7602 7603 7595 6153 6160 7601 7594 7597 7604 6164 7605 7435 7606 7607 
759 760 985 984 784 785 1010 1009 5998 7438 7439 7431 6169 7609 7610 7602 6160 6167 7608 7601 7604 7611 6171 7612 7442 7613 7614 
760 761 986 985 785 786 1011 1010 6005 7445 7446 7438 6176 7616 7617 7609 6167 6174 7615 7608 7611 7618 6178 7619 7449 7620 7621 
761 762 987 986 786 787 1012 1011 6012 7452 7453 7445 6183 7623 7624 7616 6174 6181 7622 7615 7618 7625 6185 7626 7456 7627 7628 
762 763 988 987 787 788 1013 1012 6019 7459 7460 7452 6190 7630 7631 7623 6181 6188 7629 7622 7625 7632 6192 7633 7463 7634 7635 
763 764 989 988 788 789 1014 1013 6026 7466 7467 7459 6197 7637 7638 7630 6188 6195 7636 7629 7632 7639 6199 7640 7470 7641 7642 
764 765 990 989 789 790 1015 1014 6033 7473 7474 7466 6204 7644 7645 7637 6195 6202 7643 7636 7639 7646 6206 7647 7477 7648 7649 
765 766 991 990 790 791 1016 1015 6040 7480 7481 7473 6211 7651 7652 7644 6202 6209 7650 7643 7646 7653 6213 7654 7484 7655 7656 
766 767 992 991 791 792 1017 1016 6047 7487 7488 7480 6218 7658 7659 7651 6209 6216 7657 7650 7653 7660 6220 7661 7491 7662 7663 
767 768 993 992 792 793 1018 1017 6054 7494 7495 7487 6225 7665 7666 7658 6216 6223 7664 7657 7660 7667 6227 7668 7498 7669 7670 
768 769 994 993 793 794 1019 1018 6061 7501 7502 7494 6232 7672 7673 7665 6223 6230 7671 7664 7667 7674 6234 7675 7505 7676 7677 
769 770 995 994 794 795 1020 1019 6068 7508 7509 7501 6239 7679 7680 7672 6230 6237 7678 7671 7674 7681 6241 7682 7512 7683 7684 
770 771 996 995 795 796 1021 1020 6075 7515 7516 7508 6246 7686 7687 7679 6237 6244 7685 7678 7681 7688 6248 7689 7519 7690 7691 
771 772 997 996 796 797 1022 1021 6082 7522 7523 7515 6253 7693 7694 7686 6244 6251 7692 7685 7688 7695 6255 7696 7526 7697 7698 
772 773 998 997 797 798 1023 1022 6089 7529 7530 7522 6260 7700 7701 7693 6251 6258 7699 7692 7695 7702 6262 7703 7533 7704 7705 
773 774 999 998 798 799 1024 1023 6096 7536 7537 7529 6267 7707 7708 7700 6258 6265 7706 7699 7702 7709 6269 7710 7540 7711 7712 
775 776 1001 1000 800 801 1026 1025 6104 7544 7545 7546 6275 7715 7716 7717 6273 6272 7713 7714 7720 7718 6278 7719 7550 7721 7722 
776 777 1002 1001 801 802 1027 1026 6113 7553 7554 7544 6284 7724 7725 7715 6272 6282 7723 7713 7718 7726 6286 7727 7557 7728 7729 
777 778 1003 1002 802 803 1028 1027 6120 7560 7561 7553 6291 7731 7732 7724 6282 6289 7730 7723 7726 7733 6293 7734 7564 7735 7736 
778 779 1004 1003 803 804 1029 1028 6127 7567 7568 7560 6298 7738 7739 7731 6289 6296 7737 7730 7733 7740 6300 7741 7571 7742 7743 
779 780 1005 1004 804 805 1030 1029 6134 7574 7575 7567 6305 7745 7746 7738 6296 6303 7744 7737 7740 7747 6307 7748 7578 7749 7750 
780 781 1006 1005 805 806 1031 1030 6141 7581 7582 7574 6312 7752 7753 7745 6303 6310 7751 7744 7747 7754 6314 7755 7585 7756 7757 
781 782 1007 1006 806 807 1032 1031 6148 7588 7589 7581 6319 7759 7760 7752 6310 6317 7758 7751 7754 7761 6321 7762 7592 7763 7764 
782 783 1008 1007 807 808 1033 1032 6155 7595 7596 7588 6326 7766 7767 7759 6317 6324 7765 7758 7761 7768 6328 7769 7599 7770 7771 
783 784 1009 1008 808 809 1034 1033 6162 7602 7603 7595 6333 7773 7774 7766 6324 6331 7772 7765 7768 7775 6335 7776 7606 7777 7778 
784 785 1010 1009 809 810 1035 1034 6169 7609 7610 7602 6340 7780 7781 7773 6331 6338 7779 7772 7775 7782 6342 7783 7613 7784 7785 
785 786 1011 1010 810 811 1036 1035 6176 7616 7617 7609 6347 7787 7788 7780 6338 6345 7786 7779 7782 7789 6349 7790 7620 7791 7792 
786 787 1012 1011 811 812 1037 1036 6183 7623 7624 7616 6354 7794 7795 7787 6345 6352 7793 7786 7789 7796 6356 7797 7627 7798 7799 
787 788 1013 1012 812 813 1038 1037 6190 7630 7631 7623 6361 7801 7802 7794 6352 6359 7800 7793 7796 7803 6363 7804 7634 7805 7806 
788 789 1014 1013 813 814 1039 1038 6197 7637 7638 7630 6368 7808 7809 7801 6359 6366 7807 7800 7803 7810 6370 7811 7641 7812 7813 
789 790 1015 1014 814 815 1040 1039 6204 7644 7645 7637 6375 7815 7816 7808 6366 6373 7814 7807 7810 7817 6377 7818 7648 7819 7820 
790 791 1016 1015 815 816 1041 1040 6211 7651 7652 7644 6382 7822 7823 7815 6373 6380 7821 7814 7817 7824 6384 7825 7655 7826 7827 
791 792 1017 1016 816 817 1042 1041 6218 7658 7659 7651 6389 7829 7830 7822 6380 6387 7828 7821 7824 7831 6391 7832 7662 7833 7834 
792 793 1018 1017 817 818 1043 1042 6225 7665 7666 7658 6396 7836 7837 7829 6387 6394 7835 7828 7831 7838 6398 7839 7669 7840 7841 
793 794 1019 1018 818 819 1044 1043 6232 7672 7673 7665 6403 7843 7844 7836 6394 6401 7842 7835 7838 7845 6405 7846 7676 7847 7848 
794 795 1020 1019 819 820 1045 1044 6239 7679 7680 7672 6410 7850 7851 7843 6401 6408 7849 7842 7845 7852 6412 7853 7683 7854 7855 
795 796 1021 1020 820 821 1046 1045 6246 7686 7687 7679 6417 7857 7858 7850 6408 6415 7856 7849 7852 7859 6419 7860 7690 7861 7862 
796 797 1022 1021 821 822 1047 1046 6253 7693 7694 7686 6424 7864 7865 7857 6415 6422 7863 7856 7859 7866 6426 7867 7697 7868 7869 
797 798 1023 1022 822 823 1048 1047 6260 7700 7701 7693 6431 7871 7872 7864 6422 6429 7870 7863 7866 7873 6433 7874 7704 7875 7876 
798 799 1024 1023 823 824 1049 1048 6267 7707 7708 7700 6438 7878 7879 7871 6429 6436 7877 7870 7873 7880 6440 7881 7711 7882 7883 
800 801 1026 1025 825 826 1051 1050 6275 7715 7716 7717 6446 7886 7887 7888 6444 6443 7884 7885 7891 7889 6449 7890 7721 7892 7893 
801 802 1027 1026 826 827 1052 1051 6284 7724 7725 7715 6455 7895 7896 7886 6443 6453 7894 7884 7889 7897 6457 7898 7728 7899 7900 
802 803 1028 1027 827 828 1053 1052 6291 7731 7732 7724 6462 7902 7903 7895 6453 6460 7901 7894 7897 7904 6464 7905 7735 7906 7907 
803 804 1029 1028 828 829 1054 1053 6298 7738 7739 7731 6469 7909 7910 7902 6460 6467 7908 7901 7904 7911 6471 7912 7742 7913 7914 
804 805 1030 1029 829 830 1055 1054 6305 7745 7746 7738 6476 7916 7917 7909 6467 6474 7915 7908 7911 7918 6478 7919 7749 7920 7921 
805 806 1031 1030 830 831 1056 1055 6312 7752 7753 7745 6483 7923 7924 7916 6474 6481 7922 7915 7918 7925 6485 7926 7756 7927 7928 
806 807 1032 1031 831 832 1057 1056 6319 7759 7760 7752 6490 7930 7931 7923 6481 6488 7929 7922 7925 7932 6492 7933 7763 7934 7935 
807 808 1033 1032 832 833 1058 1057 6326 7766 7767 7759 6497 7937 7938 7930 6488 6495 7936 7929 7932 7939 6499 7940 7770 7941 7942 
808 809 1034 1033 833 834 1059 1058 6333 7773 7774 7766 6504 7944 7945 7937 6495 6502 7943 7936 7939 7946 6506 7947 7777 7948 7949 
809 810 1035 1034 834 835 1060 1059 6340 7780 7781 7773 6511 7951 7952 7944 6502 6509 7950 7943 7946 7953 6513 7954 7784 7955 7956 
810 811 1036 1035 835 836 1061 1060 6347 7787 7788 7780 6518 7958 7959 7951 6509 6516 7957 7950 7953 7960 6520 7961 7791 7962 7963 
811 812 1037 1036 836 837 1062 1061 6354 7794 7795 7787 6525 7965 7966 7958 6516 6523 7964 7957 7960 7967 6527 7968 7798 7969 7970 
812 813 1038 1037 837 838 1063 1062 6361 7801 7802 7794 6532 7972 7973 7965 6523 6530 7971 7964 7967 7974 6534 7975 7805 7976 7977 
813 814 1039 1038 838 839 1064 1063 6368 7808 7809 7801 6539 7979 7980 7972 6530 6537 7978 7971 7974 7981 6541 7982 7812 7983 7984 
814 815 1040 1039 839 840 1065 1064 6375 7815 7816 7808 6546 7986 7987 7979 6537 6544 7985 7978 7981 7988 6548 7989 7819 7990 7991 
815 816 1041 1040 840 841 1066 1065 6382 7822 7823 7815 6553 7993 7994 7986 6544 6551 7992 7985 7988 7995 6555 7996 7826 7997 7998 
816 817 1042 1041 841 842 1067 1066 6389 7829 7830 7822 6560 8000 8001 7993 6551 6558 7999 7992 7995 8002 6562 8003 7833 8004 8005 
817 818 1043 1042 842 843 1068 1067 6396 7836 7837 7829 6567 8007 8008 8000 6558 6565 8006 7999 8002 8009 6569 8010 7840 8011 8012 
818 819 1044 1043 843 844 1069 1068 6403 7843 7844 7836 6574 8014 8015 8007 6565 6572 8013 8006 8009 8016 6576 8017 7847 8018 8019 
819 820 1045 1044 844 845 1070 1069 6410 7850 7851 7843 6581 8021 8022 8014 6572 6579 8020 8013 8016 8023 6583 8024 7854 8025 8026 
820 821 1046 1045 845 846 1071 1070 6417 7857 7858 7850 6588 8028 8029 8021 6579 6586 8027 8020 8023 8030 6590 8031 7861 8032 8033 
821 822 1047 1046 846 847 1072 1071 6424 7864 7865 7857 6595 8035 8036 8028 6586 6593 8034 8027 8030 8037 6597 8038 7868 8039 8040 
822 823 1048 1047 847 848 1073 1072 6431 7871 7872 7864 6602 8042 8043 8035 6593 6600 8041 8034 8037 8044 6604 8045 7875 8046 8047 
823 824 1049 1048 848 849 1074 1073 6438 7878 7879 7871 6609 8049 8050 8042 6600 6607 8048 8041 8044 8051 6611 8052 7882 8053 8054 
825 826 1051 1050 850 851 1076 1075 6446 7886 7887 7888 6617 8057 8058 8059 6615 6614 8055 8056 8062 8060 6620 8061 7892 8063 8064 
826 827 1052 1051 851 852 1077 1076 6455 7895 7896 7886 6626 8066 8067 8057 6614 6624 8065 8055 8060 8068 6628 8069 7899 8070 8071 
827 828 1053 1052 852 853 1078 1077 6462 7902 7903 7895 6633 8073 8074 8066 6624 6631 8072 8065 8068 8075 6635 8076 7906 8077 8078 
828 829 1054 1053 853 854 1079 1078 6469 7909 7910 7902 6640 8080 8081 8073 6631 6638 8079 8072 8075 8082 6642 8083 7913 8084 8085 
829 830 1055 1054 854 855 1080 1079 6476 7916 7917 7909 6647 8087 8088 8080 6638 6645 8086 8079 8082 8089 6649 8090 7920 8091 8092 
830 831 1056 1055 855 856 1081 1080 6483 7923 7924 7916 6654 8094 8095 8087 6645 6652 8093 8086 8089 8096 6656 8097 7927 8098 8099 
831 832 1057 1056 856 857 1082 1081 6490 7930 7931 7923 6661 8101 8102 8094 6652 6659 8100 8093 8096 8103 6663 8104 7934 8105 8106 
832 833 1058 1057 857 858 1083 1082 6497 7937 7938 7930 6668 8108 8109 8101 6659 6666 8107 8100 8103 8110 6670 8111 7941 8112 8113 
833 834 1059 1058 858 859 1084 1083 6504 7944 7945 7937 6675 8115 8116 8108 6666 6673 8114 8107 8110 8117 6677 8118 7948 8119 8120 
834 835 1060 1059 859 860 1085 1084 6511 7951 7952 7944 6682 8122 8123 8115 6673 6680 8121 8114 8117 8124 6684 8125 7955 8126 8127 
835 836 1061 1060 860 861 1086 1085 6518 7958 7959 7951 6689 8129 8130 8122 6680 6687 8128 8121 8124 8131 6691 8132 7962 8133 8134 
836 837 1062 1061 861 862 1087 1086 6525 7965 7966 7958 6696 8136 8137 8129 6687 6694 8135 8128 8131 8138 6698 8139 7969 8140 8141 
837 838 1063 1062 862 863 1088 1087 6532 7972 7973 7965 6703 8143 8144 8136 6694 6701 8142 8135 8138 8145 6705 8146 7976 8147 8148 
838 839 1064 1063 863 864 1089 1088 6539 7979 7980 7972 6710 8150 8151 8143 6701 6708 8149 8142 8145 8152 6712 8153 7983 8154 8155 
839 840 1065 1064 864 865 1090 1089 6546 7986 7987 7979 6717 8157 8158 8150 6708 6715 8156 8149 8152 8159 6719 8160 7990 8161 8162 
840 841 1066 1065 865 866 1091 1090 6553 7993 7994 7986 6724 8164 8165 8157 6715 6722 8163 8156 8159 8166 6726 8167 7997 8168 8169 
841 842 1067 1066 866 867 1092 1091 6560 8000 8001 7993 6731 8171 8172 8164 6722 6729 8170 8163 8166 8173 6733 8174 8004 8175 8176 
842 843 1068 1067 867 868 1093 1092 6567 8007 8008 8000 6738 8178 8179 8171 6729 6736 8177 8170 8173 8180 6740 8181 8011 8182 8183 
843 844 1069 1068 868 869 1094 1093 6574 8014 8015 8007 6745 8185 8186 8178 6736 6743 8184 8177 8180 8187 6747 8188 8018 8189 8190 
844 845 1070 1069 869 870 1095 1094 6581 8021 8022 8014 6752 8192 8193 8185 6743 6750 8191 8184 8187 8194 6754 8195 8025 8196 8197 
845 846 1071 1070 870 871 1096 1095 6588 8028 8029 8021 6759 8199 8200 8192 6750 6757 8198 8191 8194 8201 6761 8202 8032 8203 8204 
846 847 1072 1071 871 872 1097 1096 6595 8035 8036 8028 6766 8206 8207 8199 6757 6764 8205 8198 8201 8208 6768 8209 8039 8210 8211 
847 848 1073 1072 872 873 1098 1097 6602 8042 8043 8035 6773 8213 8214 8206 6764 6771 8212 8205 8208 8215 6775 8216 8046 8217 8218 
848 849 1074 1073 873 874 1099 1098 6609 8049 8050 8042 6780 8220 8221 8213 6771 6778 8219 8212 8215 8222 6782 8223 8053 8224 8225 
850 851 1076 1075 875 876 1101 1100 6617 8057 8058 8059 6788 8228 8229 8230 6786 6785 8226 8227 8233 8231 6791 8232 8063 8234 8235 
851 852 1077 1076 876 877 1102 1101 6626 8066 8067 8057 6797 8237 8238 8228 6785 6795 8236 8226 8231 8239 6799 8240 8070 8241 8242 
852 853 1078 1077 877 878 1103 1102 6633 8073 8074 8066 6804 8244 8245 8237 6795 6802 8243 8236 8239 8246 6806 8247 8077 8248 8249 
853 854 1079 1078 878 879 1104 1103 6640 8080 8081 8073 6811 8251 8252 8244 6802 6809 8250 8243 8246 8253 6813 8254 8084 8255 8256 
854 855 1080 1079 879 880 1105 1104 6647 8087 8088 8080 6818 8258 8259 8251 6809 6816 8257 8250 8253 8260 6820 8261 8091 8262 8263 
855 856 1081 1080 880 881 1106 1105 6654 8094 8095 8087 6825 8265 8266 8258 6816 6823 8264 8257 8260 8267 6827 8268 8098 8269 8270 
856 857 1082 1081 881 882 1107 1106 6661 8101 8102 8094 6832 8272 8273 8265 6823 6830 8271 8264 8267 8274 6834 8275 8105 8276 8277 
857 858 1083 1082 882 883 1108 1107 6668 8108 8109 8101 6839 8279 8280 8272 6830 6837 8278 8271 8274 8281 6841 8282 8112 8283 8284 
858 859 1084 1083 883 884 1109 1108 6675 8115 8116 8108 6846 8286 8287 8279 6837 6844 8285 8278 8281 8288 6848 8289 8119 8290 8291 
859 860 1085 1084 884 885 1110 1109 6682 8122 8123 8115 6853 8293 8294 8286 6844 6851 8292 8285 8288 8295 6855 8296 8126 8297 8298 
860 861 1086 1085 885 886 1111 1110 6689 8129 8130 8122 6860 8300 8301 8293 6851 6858 8299 8292 8295 8302 6862 8303 8133 8304 8305 
861 862 1087 1086 886 887 1112 1111 6696 8136 8137 8129 6867 8307 8308 8300 6858 6865 8306 8299 8302 8309 6869 8310 8140 8311 8312 
862 863 1088 1087 887 888 1113 1112 6703 8143 8144 8136 6874 8314 8315 8307 6865 6872 8313 8306 8309 8316 6876 8317 8147 8318 8319 
863 864 1089 1088 888 889 1114 1113 6710 8150 8151 8143 6881 8321 8322 8314 6872 6879 8320 8313 8316 8323 6883 8324 8154 8325 8326 
864 865 1090 1089 889 890 1115 1114 6717 8157 8158 8150 6888 8328 8329 8321 6879 6886 8327 8320 8323 8330 6890 8331 8161 8332 8333 
865 866 1091 1090 890 891 1116 1115 6724 8164 8165 8157 6895 8335 8336 8328 6886 6893 8334 8327 8330 8337 6897 8338 8168 8339 8340 
866 867 1092 1091 891 892 1117 1116 6731 8171 8172 8164 6902 8342 8343 8335 6893 6900 8341 8334 8337 8344 6904 8345 8175 8346 8347 
867 868 1093 1092 892 893 1118 1117 6738 8178 8179 8171 6909 8349 8350 8342 6900 6907 8348 8341 8344 8351 6911 8352 8182 8353 8354 
868 869 1094 1093 893 894 1119 1118 6745 8185 8186 8178 6916 8356 8357 8349 6907 6914 8355 8348 8351 8358 6918 8359 8189 8360 8361 
869 870 1095 1094 894 895 1120 1119 6752 8192 8193 8185 6923 8363 8364 8356 6914 6921 8362 8355 8358 8365 6925 8366 8196 8367 8368 
870 871 1096 1095 895 896 1121 1120 6759 8199 8200 8192 6930 8370 8371 8363 6921 6928 8369 8362 8365 8372 6932 8373 8203 8374 8375 
871 872 1097 1096 896 897 1122 1121 6766 8206 8207 8199 6937 8377 8378 8370 6928 6935 8376 8369 8372 8379 6939 8380 8210 8381 8382 
872 873 1098 1097 897 898 1123 1122 6773 8213 8214 8206 6944 8384 8385 8377 6935 6942 8383 8376 8379 8386 6946 8387 8217 8388 8389 
873 874 1099 1098 898 899 1124 1123 6780 8220 8221 8213 6951 8391 8392 8384 6942 6949 8390 8383 8386 8393 6953 8394 8224 8395 8396 
900 901 1126 1125 925 926 1151 1150 6957 8397 8398 8399 6962 8402 8403 8404 6960 6959 8400 8401 8408 8406 6966 8407 8405 8409 8410 
901 902 1127 1126 926 927 1152 1151 6971 8411 8412 8397 6974 8414 8415 8402 6959 6972 8413 8400 8406 8417 6977 8418 8416 8419 8420 
902 903 1128 1127 927 928 1153 1152 6981 8421 8422 8411 6984 8424 8425 8414 6972 6982 8423 8413 8417 8427 6987 8428 8426 8429 8430 
903 904 1129 1128 928 929 1154 1153 6991 8431 8432 8421 6994 8434 8435 8424 6982 6992 8433 8423 8427 8437 6997 8438 8436 8439 8440 
904 905 1130 1129 929 930 1155 1154 7001 8441 8442 8431 7004 8444 8445 8434 6992 7002 8443 8433 8437 8447 7007 8448 8446 8449 8450 
905 906 1131 1130 930 931 1156 1155 7011 8451 8452 8441 7014 8454 8455 8444 7002 7012 8453 8443 8447 8457 7017 8458 8456 8459 8460 
906 907 1132 1131 931 932 1157 1156 7021 8461 8462 8451 7024 8464 8465 8454 7012 7022 8463 8453 8457 8467 7027 8468 8466 8469 8470 
907 908 1133 1132 932 933 1158 1157 7031 8471 8472 8461 7034 8474 8475 8464 7022 7032 8473 8463 8467 8477 7037 8478 8476 8479 8480 
908 909 1134 1133 933 934 1159 1158 7041 8481 8482 8471 7044 8484 8485 8474 7032 7042 8483 8473 8477 8487 7047 8488 8486 8489 8490 
909 910 1135 1134 934 935 1160 1159 7051 8491 8492 8481 7054 8494 8495 8484 7042 7052 8493 8483 8487 8497 7057 8498 8496 8499 8500 
910 911 1136 1135 935 936 1161 1160 7061 8501 8502 8491 7064 8504 8505 8494 7052 7062 8503 8493 8497 8507 7067 8508 8506 8509 8510 
911 912 1137 1136 936 937 1162 1161 7071 8511 8512 8501 7074 8514 8515 8504 7062 7072 8513 8503 8507 8517 7077 8518 8516 8519 8520 
912 913 1138 1137 937 938 1163 1162 7081 8521 8522 8511 7084 8524 8525 8514 7072 7082 8523 8513 8517 8527 7087 8528 8526 8529 8530 
913 914 1139 1138 938 939 1164 1163 7091 8531 8532 8521 7094 8534 8535 8524 7082 7092 8533 8523 8527 8537 7097 8538 8536 8539 8540 
914 915 1140 1139 939 940 1165 1164 7101 8541 8542 8531 7104 8544 8545 8534 7092 7102 8543 8533 8537 8547 7107 8548 8546 8549 8550 
915 916 1141 1140 940 941 1166 1165 7111 8551 8552 8541 7114 8554 8555 8544 7102 7112 8553 8543 8547 8557 7117 8558 8556 8559 8560 
916 917 1142 1141 941 942 1167 1166 7121 8561 8562 8551 7124 8564 8565 8554 7112 7122 8563 8553 8557 8567 7127 8568 8566 8569 8570 
917 918 1143 1142 942 943 1168 1167 7131 8571 8572 8561 7134 8574 8575 8564 7122 7132 8573 8563 8567 8577 7137 8578 8576 8579 8580 
918 919 1144 1143 943 944 1169 1168 7141 8581 8582 8571 7144 8584 8585 8574 7132 7142 8583 8573 8577 8587 7147 8588 8586 8589 8590 
919 920 1145 1144 944 945 1170 1169 7151 8591 8592 8581 7154 8594 8595 8584 7142 7152 8593 8583 8587 8597 7157 8598 8596 8599 8600 
920 921 1146 1145 945 946 1171 1170 7161 8601 8602 8591 7164 8604 8605 8594 7152 7162 8603 8593 8597 8607 7167 8608 8606 8609 8610 
921 922 1147 1146 946 947 1172 1171 7171 8611 8612 8601 7174 8614 8615 8604 7162 7172 8613 8603 8607 8617 7177 8618 8616 8619 8620 
922 923 1148 1147 947 948 1173 1172 7181 8621 8622 8611 7184 8624 8625 8614 7172 7182 8623 8613 8617 8627 7187 8628 8626 8629 8630 
923 924 1149 1148 948 949 1174 1173 7191 8631 8632 8621 7194 8634 8635 8624 7182 7192 8633 8623 8627 8637 7197 8638 8636 8639 8640 
925 926 1151 1150 950 951 1176 1175 6962 8402 8403 8404 7203 8643 8644 8645 7201 7200 8641 8642 8648 8646 7206 8647 8409 8649 8650 
926 927 1152 1151 951 952 1177 1176 6974 8414 8415 8402 7212 8652 8653 8643 7200 7210 8651 8641 8646 8654 7214 8655 8419 8656 8657 
927 928 1153 1152 952 953 1178 1177 6984 8424 8425 8414 7219 8659 8660 8652 7210 7217 8658 8651 8654 8661 7221 8662 8429 8663 8664 
928 929 1154 1153 953 954 1179 1178 6994 8434 8435 8424 7226 8666 8667 8659 7217 7224 8665 8658 8661 8668 7228 8669 8439 8670 8671 
929 930 1155 1154 954 955 1180 1179 7004 8444 8445 8434 7233 8673 8674 8666 7224 7231 8672 8665 8668 8675 7235 8676 8449 8677 8678 
930 931 1156 1155 955 956 1181 1180 7014 8454 8455 8444 7240 8680 8681 8673 7231 7238 8679 8672 8675 8682 7242 8683 8459 8684 8685 
931 932 1157 1156 956 957 1182 1181 7024 8464 8465 8454 7247 8687 8688 8680 7238 7245 8686 8679 8682 8689 7249 8690 8469 8691 8692 
932 933 1158 1157 957 958 1183 1182 7034 8474 8475 8464 7254 8694 8695 8687 7245 7252 8693 8686 8689 8696 7256 8697 8479 8698 8699 
933 934 1159 1158 958 959 1184 1183 7044 8484 8485 8474 7261 8701 8702 8694 7252 7259 8700 8693 8696 8703 7263 8704 8489 8705 8706 
934 935 1160 1159 959 960 1185 1184 7054 8494 8495 8484 7268 8708 8709 8701 7259 7266 8707 8700 8703 8710 7270 8711 8499 8712 8713 
935 936 1161 1160 960 961 1186 1185 7064 8504 8505 8494 7275 8715 8716 8708 7266 7273 8714 8707 8710 8717 7277 8718 8509 8719 8720 
936 937 1162 1161 961 962 1187 1186 7074 8514 8515 8504 7282 8722 8723 8715 7273 7280 8721 8714 8717 8724 7284 8725 8519 8726 8727 
937 938 1163 1162 962 963 1188 1187 7084 8524 8525 8514 7289 8729 8730 8722 7280 7287 8728 8721 8724 8731 7291 8732 8529 8733 8734 
938 939 1164 1163 963 964 1189 1188 7094 8534 8535 8524 7296 8736 8737 8729 7287 7294 8735 8728 8731 8738 7298 8739 8539 8740 8741 
939 940 1165 1164 964 965 1190 1189 7104 8544 8545 8534 7303 8743 8744 8736 7294 7301 8742 8735 8738 8745 7305 8746 8549 8747 8748 
940 941 1166 1165 965 966 1191 1190 7114 8554 8555 8544 7310 8750 8751 8743 7301 7308 8749 8742 8745 8752 7312 8753 8559 8754 8755 
941 942 1167 1166 966 967 1192 1191 7124 8564 8565 8554 7317 8757 8758 8750 7308 7315 8756 8749 8752 8759 7319 8760 8569 8761 8762 
942 943 1168 1167 967 968 1193 1192 7134 8574 8575 8564 7324 8764 8765 8757 7315 7322 8763 8756 8759 8766 7326 8767 8579 8768 8769 
943 944 1169 1168 968 969 1194 1193 7144 8584 8585 8574 7331 8771 8772 8764 7322 7329 8770 8763 8766 8773 7333 8774 8589 8775 8776 
944 945 1170 1169 969 970 1195 1194 7154 8594 8595 8584 7338 8778 8779 8771 7329 7336 8777 8770 8773 8780 7340 8781 8599 8782 8783 
945 946 1171 1170 970 971 1196 1195 7164 8604 8605 8594 7345 8785 8786 8778 7336 7343 8784 8777 8780 8787 7347 8788 8609 8789 8790 
946 947 1172 1171 971 972 1197 1196 7174 8614 8615 8604 7352 8792 8793 8785 7343 7350 8791 8784 8787 8794 7354 8795 8619 8796 8797 
947 948 1173 1172 972 973 1198 1197 7184 8624 8625 8614 7359 8799 8800 8792 7350 7357 8798 8791 8794 8801 7361 8802 8629 8803 8804 
948 949 1174 1173 973 974 1199 1198 7194 8634 8635 8624 7366 8806 8807 8799 7357 7364 8805 8798 8801 8808 7368 8809 8639 8810 8811 
950 951 1176 1175 975 976 1201 1200 7203 8643 8644 8645 7374 8814 8815 8816 7372 7371 8812 8813 8819 8817 7377 8818 8649 8820 8821 
951 952 1177 1176 976 977 1202 1201 7212 8652 8653 8643 7383 8823 8824 8814 7371 7381 8822 8812 8817 8825 7385 8826 8656 8827 8828 
952 953 1178 1177 977 978 1203 1202 7219 8659 8660 8652 7390 8830 8831 8823 7381 7388 8829 8822 8825 8832 7392 8833 8663 8834 8835 
953 954 1179 1178 978 979 1204 1203 7226 8666 8667 8659 7397 8837 8838 8830 7388 7395 8836 8829 8832 8839 7399 8840 8670 8841 8842 
954 955 1180 1179 979 980 1205 1204 7233 8673 8674 8666 7404 8844 8845 8837 7395 7402 8843 8836 8839 8846 7406 8847 8677 8848 8849 
955 956 1181 1180 980 981 1206 1205 7240 8680 8681 8673 7411 8851 8852 8844 7402 7409 8850 8843 8846 8853 7413 8854 8684 8855 8856 
956 957 1182 1181 981 982 1207 1206 7247 8687 8688 8680 7418 8858 8859 8851 7409 7416 8857 8850 8853 8860 7420 8861 8691 8862 8863 
957 958 1183 1182 982 983 1208 1207 7254 8694 8695 8687 7425 8865 8866 8858 7416 7423 8864 8857 8860 8867 7427 8868 8698 8869 8870 
958 959 1184 1183 983 984 1209 1208 7261 8701 8702 8694 7432 8872 8873 8865 7423 7430 8871 8864 8867 8874 7434 8875 8705 8876 8877 
959 960 1185 1184 984 985 1210 1209 7268 8708 8709 8701 7439 8879 8880 8872 7430 7437 8878 8871 8874 8881 7441 8882 8712 8883 8884 
960 961 1186 1185 985 986 1211 1210 7275 8715 8716 8708 7446 8886 8887 8879 7437 7444 8885 8878 8881 8888 7448 8889 8719 8890 8891 
961 962 1187 1186 986 987 1212 1211 7282 8722 8723 8715 7453 8893 8894 8886 7444 7451 8892 8885 8888 8895 7455 8896 8726 8897 8898 
962 963 1188 1187 987 988 1213 1212 7289 8729 8730 8722 7460 8900 8901 8893 7451 7458 8899 8892 8895 8902 7462 8903 8733 8904 8905 
963 964 1189 1188 988 989 1214 1213 7296 8736 8737 8729 7467 8907 8908 8900 7458 7465 8906 8899 8902 8909 7469 8910 8740 8911 8912 
964 965 1190 1189 989 990 1215 1214 7303 8743 8744 8736 7474 8914 8915 8907 7465 7472 8913 8906 8909 8916 7476 8917 8747 8918 8919 
965 966 1191 1190 990 991 1216 1215 7310 8750 8751 8743 7481 8921 8922 8914 7472 7479 8920 8913 8916 8923 7483 8924 8754 8925 8926 
966 967 1192 1191 991 992 1217 1216 7317 8757 8758 8750 7488 8928 8929 8921 7479 7486 8927 8920 8923 8930 7490 8931 8761 8932 8933 
967 968 1193 1192 992 993 1218 1217 7324 8764 8765 8757 7495 8935 8936 8928 7486 7493 8934 8927 8930 8937 7497 8938 8768 8939 8940 
968 969 1194 1193 993 994 1219 1218 7331 8771 8772 8764 7502 8942 8943 8935 7493 7500 8941 8934 8937 8944 7504 8945 8775 8946 8947 
969 970 1195 1194 994 995 1220 1219 7338 8778 8779 8771 7509 8949 8950 8942 7500 7507 8948 8941 8944 8951 7511 8952 8782 8953 8954 
970 971 1196 1195 995 996 1221 1220 7345 8785 8786 8778 7516 8956 8957 8949 7507 7514 8955 8948 8951 8958 7518 8959 8789 8960 8961 
971 972 1197 1196 996 997 1222 1221 7352 8792 8793 8785 7523 8963 8964 8956 7514 7521 8962 8955 8958 8965 7525 8966 8796 8967 8968 
972 973 1198 1197 997 998 1223 1222 7359 8799 8800 8792 7530 8970 8971 8963 7521 7528 8969 8962 8965 8972 7532 8973 8803 8974 8975 
973 974 1199 1198 998 999 1224 1223 7366 8806 8807 8799 7537 8977 8978 8970 7528 7535 8976 8969 8972 8979 7539 8980 8810 8981 8982 
975 976 1201 1200 1000 1001 1226 1225 7374 8814 8815 8816 7545 8985 8986 8987 7543 7542 8983 8984 8990 8988 7548 8989 8820 8991 8992 
976 977 1202 1201 1001 1002 1227 1226 7383 8823 8824 8814 7554 8994 8995 8985 7542 7552 8993 8983 8988 8996 7556 8997 8827 8998 8999 
977 978 1203 1202 1002 1003 1228 1227 7390 8830 8831 8823 7561 9001 9002 8994 7552 7559 9000 8993 8996 9003 7563 9004 8834 9005 9006 
978 979 1204 1203 1003 1004 1229 1228 7397 8837 8838 8830 7568 9008 9009 9001 7559 7566 9007 9000 9003 9010 7570 9011 8841 9012 9013 
979 980 1205 1204 1004 1005 1230 1229 7404 8844 8845 8837 7575 9015 9016 9008 7566 7573 9014 9007 9010 9017 7577 9018 8848 9019 9020 
980 981 1206 1205 1005 1006 1231 1230 7411 8851 8852 8844 7582 9022 9023 9015 7573 7580 9021 9014 9017 9024 7584 9025 8855 9026 9027 
981 982 1207 1206 1006 1007 1232 1231 7418 8858 8859 8851 7589 9029 9030 9022 7580 7587 9028 9021 9024 9031 7591 9032 8862 9033 9034 
982 983 1208 1207 1007 1008 1233 1232 7425 8865 8866 8858 7596 9036 9037 9029 7587 7594 9035 9028 9031 9038 7598 9039 8869 9040 9041 
983 984 1209 1208 1008 1009 1234 1233 7432 8872 8873 8865 7603 9043 9044 9036 7594 7601 9042 9035 9038 9045 7605 9046 8876 9047 9048 
984 985 1210 1209 1009 1010 1235 1234 7439 8879 8880 8872 7610 9050 9051 9043 7601 7608 9049 9042 9045 9052 7612 9053 8883 9054 9055 
985 986 1211 1210 1010 1011 1236 1235 7446 8886 8887 8879 7617 9057 9058 9050 7608 7615 9056 9049 9052 9059 7619 9060 8890 9061 9062 
986 987 1212 1211 1011 1012 1237 1236 7453 8893 8894 8886 7624 9064 9065 9057 7615 7622 9063 9056 9059 9066 7626 9067 8897 9068 9069 
987 988 1213 1212 1012 1013 1238 1237 7460 8900 8901 8893 7631 9071 9072 9064 7622 7629 9070 9063 9066 9073 7633 9074 8904 9075 9076 
988 989 1214 1213 1013 1014 1239 1238 7467 8907 8908 8900 7638 9078 9079 9071 7629 7636 9077 9070 9073 9080 7640 9081 8911 9082 9083 
989 990 1215 1214 1014 1015 1240 1239 7474 8914 8915 8907 7645 9085 9086 9078 7636 7643 9084 9077 9080 9087 7647 9088 8918 9089 9090 
990 991 1216 1215 1015 1016 1241 1240 7481 8921 8922 8914 7652 9092 9093 9085 7643 7650 9091 9084 9087 9094 7654 9095 8925 9096 9097 
991 992 1217 1216 1016 1017 1242 1241 7488 8928 8929 8921 7659 9099 9100 9092 7650 7657 9098 9091 9094 9101 7661 9102 8932 9103 9104 
992 993 1218 1217 1017 1018 1243 1242 7495 8935 8936 8928 7666 9106 9107 9099 7657 7664 9105 9098 9101 9108 7668 9109 8939 9110 9111 
993 994 1219 1218 1018 1019 1244 1243 7502 8942 8943 8935 7673 9113 9114 9106 7664 7671 9112 9105 9108 9115 7675 9116 8946 9117 9118 
994 995 1220 1219 1019 1020 1245 1244 7509 8949 8950 8942 7680 9120 9121 9113 7671 7678 9119 9112 9115 9122 7682 9123 8953 9124 9125 
995 996 1221 1220 1020 1021 1246 1245 7516 8956 8957 8949 7687 9127 9128 9120 7678 7685 9126 9119 9122 9129 7689 9130 8960 9131 9132 
996 997 1222 1221 1021 1022 1247 1246 7523 8963 8964 8956 7694 9134 9135 9127 7685 7692 9133 9126 9129 9136 7696 9137 8967 9138 9139 
997 998 1223 1222 1022 1023 1248 1247 7530 8970 8971 8963 7701 9141 9142 9134 7692 7699 9140 9133 9136 9143 7703 9144 8974 9145 9146 
998 999 1224 1223 1023 1024 1249 1248 7537 8977 8978 8970 7708 9148 9149 9141 7699 7706 9147 9140 9143 9150 7710 9151 8981 9152 9153 
1000 1001 1226 1225 1025 1026 1251 1250 7545 8985 8986 8987 7716 9156 9157 9158 7714 7713 9154 9155 9161 9159 7719 9160 8991 9162 9163 
1001 1002 1227 1226 1026 1027 1252 1251 7554 8994 8995 8985 7725 9165 9166 9156 7713 7723 9164 9154 9159 9167 7727 9168 8998 9169 9170 
1002 1003 1228 1227 1027 1028 1253 1252 7561 9001 9002 8994 7732 9172 9173 9165 7723 7730 9171 9164 9167 9174 7734 9175 9005 9176 9177 
1003 1004 1229 1228 1028 1029 1254 1253 7568 9008 9009 9001 7739 9179 9180 9172 7730 7737 9178 9171 9174 9181 7741 9182 9012 9183 9184 
1004 1005 1230 1229 1029 1030 1255 1254 7575 9015 9016 9008 7746 9186 9187 9179 7737 7744 9185 9178 9181 9188 7748 9189 9019 9190 9191 
1005 1006 1231 1230 1030 1031 1256 1255 7582 9022 9023 9015 7753 9193 9194 9186 7744 7751 9192 9185 9188 9195 7755 9196 9026 9197 9198 
1006 1007 1232 1231 1031 1032 1257 1256 7589 9029 9030 9022 7760 9200 9201 9193 7751 7758 9199 9192 9195 9202 7762 9203 9033 9204 9205 
1007 1008 1233 1232 1032 1033 1258 1257 7596 9036 9037 9029 7767 9207 9208 9200 7758 7765 9206 9199 9202 9209 7769 9210 9040 9211 9212 
1008 1009 1234 1233 1033 1034 1259 1258 7603 9043 9044 9036 7774 9214 9215 9207 7765 7772 9213 9206 9209 9216 7776 9217 9047 9218 9219 
1009 1010 1235 1234 1034 1035 1260 1259 7610 9050 9051 9043 7781 9221 9222 9214 7772 7779 9220 9213 9216 9223 7783 9224 9054 9225 9226 
1010 1011 1236 1235 1035 1036 1261 1260 7617 9057 9058 9050 7788 9228 9229 9221 7779 7786 9227 9220 9223 9230 7790 9231 9061 9232 9233 
1011 1012 1237 1236 1036 1037 1262 1261 7624 9064 9065 9057 7795 9235 9236 9228 7786 7793 9234 9227 9230 9237 7797 9238 9068 9239 9240 
1012 1013 1238 1237 1037 1038 1263 1262 7631 9071 9072 9064 7802 9242 9243 9235 7793 7800 9241 9234 9237 9244 7804 9245 9075 9246 9247 
1013 1014 1239 1238 1038 1039 1264 1263 7638 9078 9079 9071 7809 9249 9250 9242 7800 7807 9248 9241 9244 9251 7811 9252 9082 9253 9254 
1014 1015 1240 1239 1039 1040 1265 1264 7645 9085 9086 9078 7816 9256 9257 9249 7807 7814 9255 9248 9251 9258 7818 9259 9089 9260 9261 
1015 1016 1241 1240 1040 1041 1266 1265 7652 9092 9093 9085 7823 9263 9264 9256 7814 7821 9262 9255 9258 9265 7825 9266 9096 9267 9268 
1016 1017 1242 1241 1041 1042 1267 1266 7659 9099 9100 9092 7830 9270 9271 9263 7821 7828 9269 9262 9265 9272 7832 9273 9103 9274 9275 
1017 1018 1243 1242 1042 1043 1268 1267 7666 9106 9107 9099 7837 9277 9278 9270 7828 7835 9276 9269 9272 9279 7839 9280 9110 9281 9282 
1018 1019 1244 1243 1043 1044 1269 1268 7673 9113 9114 9106 7844 9284 9285 9277 7835 7842 9283 9276 9279 9286 7846 9287 9117 9288 9289 
1019 1020 1245 1244 1044 1045 1270 1269 7680 9120 9121 9113 7851 9291 9292 9284 7842 7849 9290 9283 9286 9293 7853 9294 9124 9295 9296 
1020 1021 1246 1245 1045 1046 1271 1270 7687 9127 9128 9120 7858 9298 9299 9291 7849 7856 9297 9290 9293 9300 7860 9301 9131 9302 9303 
1021 1022 1247 1246 1046 1047 1272 1271 7694 9134 9135 9127 7865 9305 9306 9298 7856 7863 9304 9297 9300 9307 7867 9308 9138 9309 9310 
1022 1023 1248 1247 1047 1048 1273 1272 7701 9141 9142 9134 7872 9312 9313 9305 7863 7870 9311 9304 9307 9314 7874 9315 9145 9316 9317 
1023 1024 1249 1248 1048 1049 1274 1273 7708 9148 9149 9141 7879 9319 9320 9312 7870 7877 9318 9311 9314 9321 7881 9322 9152 9323 9324 
1025 1026 1251 1250 1050 1051 1276 1275 7716 9156 9157 9158 7887 9327 9328 9329 7885 7884 9325 9326 9332 9330 7890 9331 9162 9333 9334 
1026 1027 1252 1251 1051 1052 1277 1276 7725 9165 9166 9156 7896 9336 9337 9327 7884 7894 9335 9325 9330 9338 7898 9339 9169 9340 9341 
1027 1028 1253 1252 1052 1053 1278 1277 7732 9172 9173 9165 7903 9343 9344 9336 7894 7901 9342 9335 9338 9345 7905 9346 9176 9347 9348 
1028 1029 1254 1253 1053 1054 1279 1278 7739 9179 9180 9172 7910 9350 9351 9343 7901 7908 9349 9342 9345 9352 7912 9353 9183 9354 9355 
1029 1030 1255 1254 1054 1055 1280 1279 7746 9186 9187 9179 7917 9357 9358 9350 7908 7915 9356 9349 9352 9359 7919 9360 9190 9361 9362 
1030 1031 1256 1255 1055 1056 1281 1280 7753 9193 9194 9186 7924 9364 9365 9357 7915 7922 9363 9356 9359 9366 7926 9367 9197 9368 9369 
1031 1032 1257 1256 1056 1057 1282 1281 7760 9200 9201 9193 7931 9371 9372 9364 7922 7929 9370 9363 9366 9373 7933 9374 9204 9375 9376 
1032 1033 1258 1257 1057 1058 1283 1282 7767 9207 9208 9200 7938 9378 9379 9371 7929 7936 9377 9370 9373 9380 7940 9381 9211 9382 9383 
1033 1034 1259 1258 1058 1059 1284 1283 7774 9214 9215 9207 7945 9385 9386 9378 7936 7943 9384 9377 9380 9387 7947 9388 9218 9389 9390 
1034 1035 1260 1259 1059 1060 1285 1284 7781 9221 9222 9214 7952 9392 9393 9385 7943 7950 9391 9384 9387 9394 7954 9395 9225 9396 9397 
1035 1036 1261 1260 1060 1061 1286 1285 7788 9228 9229 9221 7959 9399 9400 9392 7950 7957 9398 9391 9394 9401 7961 9402 9232 9403 9404 
1036 1037 1262 1261 1061 1062 1287 1286 7795 9235 9236 9228 7966 9406 9407 9399 7957 7964 9405 9398 9401 9408 7968 9409 9239 9410 9411 
1037 1038 1263 1262 1062 1063 1288 1287 7802 9242 9243 9235 7973 9413 9414 9406 7964 7971 9412 9405 9408 9415 7975 9416 9246 9417 9418 
1038 1039 1264 1263 1063 1064 1289 1288 7809 9249 9250 9242 7980 9420 9421 9413 7971 7978 9419 9412 9415 9422 7982 9423 9253 9424 9425 
1039 1040 1265 1264 1064 1065 1290 1289 7816 9256 9257 9249 7987 9427 9428 9420 7978 7985 9426 9419 9422 9429 7989 9430 9260 9431 9432 
1040 1041 1266 1265 1065 1066 1291 1290 7823 9263 9264 9256 7994 9434 9435 9427 7985 7992 9433 9426 9429 9436 7996 9437 9267 9438 9439 
1041 1042 1267 1266 1066 1067 1292 1291 7830 9270 9271 9263 8001 9441 9442 9434 7992 7999 9440 9433 9436 9443 8003 9444 9274 9445 9446 
1042 1043 1268 1267 1067 1068 1293 1292 7837 9277 9278 9270 8008 9448 9449 9441 7999 8006 9447 9440 9443 9450 8010 9451 9281 9452 9453 
1043 1044 1269 1268 1068 1069 1294 1293 7844 9284 9285 9277 8015 9455 9456 9448 8006 8013 9454 9447 9450 9457 8017 9458 9288 9459 9460 
1044 1045 1270 1269 1069 1070 1295 1294 7851 9291 9292 9284 8022 9462 9463 9455 8013 8020 9461 9454 9457 9464 8024 9465 9295 9466 9467 
1045 1046 1271 1270 1070 1071 1296 1295 7858 9298 9299 9291 8029 9469 9470 9462 8020 8027 9468 9461 9464 9471 8031 9472 9302 9473 9474 
1046 1047 1272 1271 1071 1072 1297 1296 7865 9305 9306 9298 8036 9476 9477 9469 8027 8034 9475 9468 9471 9478 8038 9479 9309 9480 9481 
1047 1048 1273 1272 1072 1073 1298 1297 7872 9312 9313 9305 8043 9483 9484 9476 8034 8041 9482 9475 9478 9485 8045 9486 9316 9487 9488 
1048 1049 1274 1273 1073 1074 1299 1298 7879 9319 9320 9312 8050 9490 9491 9483 8041 8048 9489 9482 9485 9492 8052 9493 9323 9494 9495 
1050 1051 1276 1275 1075 1076 1301 1300 7887 9327 9328 9329 8058 9498 9499 9500 8056 8055 9496 9497 9503 9501 8061 9502 9333 9504 9505 
1051 1052 1277 1276 1076 1077 1302 1301 7896 9336 9337 9327 8067 9507 9508 9498 8055 8065 9506 9496 9501 9509 8069 9510 9340 9511 9512 
1052 1053 1278 1277 1077 1078 1303 1302 7903 9343 9344 9336 8074 9514 9515 9507 8065 8072 9513 9506 9509 9516 8076 9517 9347 9518 9519 
1053 1054 1279 1278 1078 1079 1304 1303 7910 9350 9351 9343 8081 9521 9522 9514 8072 8079 9520 9513 9516 9523 8083 9524 9354 9525 9526 
1054 1055 1280 1279 1079 1080 1305 1304 7917 9357 9358 9350 8088 9528 9529 9521 8079 8086 9527 9520 9523 9530 8090 9531 9361 9532 9533 
1055 1056 1281 1280 1080 1081 1306 1305 7924 9364 9365 9357 8095 9535 9536 9528 8086 8093 9534 9527 9530 9537 8097 9538 9368 9539 9540 
1056 1057 1282 1281 1081 1082 1307 1306 7931 9371 9372 9364 8102 9542 9543 9535 8093 8100 9541 9534 9537 9544 8104 9545 9375 9546 9547 
1057 1058 1283 1282 1082 1083 1308 1307 7938 9378 9379 9371 8109 9549 9550 9542 8100 8107 9548 9541 9544 9551 8111 9552 9382 9553 9554 
1058 1059 1284 1283 1083 1084 1309 1308 7945 9385 9386 9378 8116 9556 9557 9549 8107 8114 9555 9548 9551 9558 8118 9559 9389 9560 9561 
1059 1060 1285 1284 1084 1085 1310 1309 7952 9392 9393 9385 8123 9563 9564 9556 8114 8121 9562 9555 9558 9565 8125 9566 9396 9567 9568 
1060 1061 1286 1285 1085 1086 1311 1310 7959 9399 9400 9392 8130 9570 9571 9563 8121 8128 9569 9562 9565 9572 8132 9573 9403 9574 9575 
1061 1062 1287 1286 1086 1087 1312 1311 7966 9406 9407 9399 8137 9577 9578 9570 8128 8135 9576 9569 9572 9579 8139 9580 9410 9581 9582 
1062 1063 1288 1287 1087 1088 1313 1312 7973 9413 9414 9406 8144 9584 9585 9577 8135 8142 9583 9576 9579 9586 8146 9587 9417 9588 9589 
1063 1064 1289 1288 1088 1089 1314 1313 7980 9420 9421 9413 8151 9591 9592 9584 8142 8149 9590 9583 9586 9593 8153 9594 9424 9595 9596 
1064 1065 1290 1289 1089 1090 1315 1314 7987 9427 9428 9420 8158 9598 9599 9591 8149 8156 9597 9590 9593 9600 8160 9601 9431 9602 9603 
1065 1066 1291 1290 1090 1091 1316 1315 7994 9434 9435 9427 8165 9605 9606 9598 8156 8163 9604 9597 9600 9607 8167 9608 9438 9609 9610 
1066 1067 1292 1291 1091 1092 1317 1316 8001 9441 9442 9434 8172 9612 9613 9605 8163 8170 9611 9604 9607 9614 8174 9615 9445 9616 9617 
1067 1068 1293 1292 1092 1093 1318 1317 8008 9448 9449 9441 8179 9619 9620 9612 8170 8177 9618 9611 9614 9621 8181 9622 9452 9623 9624 
1068 1069 1294 1293 1093 1094 1319 1318 8015 9455 9456 9448 8186 9626 9627 9619 8177 8184 9625 9618 9621 9628 8188 9629 9459 9630 9631 
1069 1070 1295 1294 1094 1095 1320 1319 8022 9462 9463 9455 8193 9633 9634 9626 8184 8191 9632 9625 9628 9635 8195 9636 9466 9637 9638 
1070 1071 1296 1295 1095 1096 1321 1320 8029 9469 9470 9462 8200 9640 9641 9633 8191 8198 9639 9632 9635 9642 8202 9643 9473 9644 9645 
1071 1072 1297 1296 1096 1097 1322 1321 8036 9476 9477 9469 8207 9647 9648 9640 8198 8205 9646 9639 9642 9649 8209 9650 9480 9651 9652 
1072 1073 1298 1297 1097 1098 1323 1322 8043 9483 9484 9476 8214 9654 9655 9647 8205 8212 9653 9646 9649 9656 8216 9657 9487 9658 9659 
1073 1074 1299 1298 1098 1099 1324 1323 8050 9490 9491 9483 8221 9661 9662 9654 8212 8219 9660 9653 9656 9663 8223 9664 9494 9665 9666 
1075 1076 1301 1300 1100 1101 1326 1325 8058 9498 9499 9500 8229 9669 9670 9671 8227 8226 9667 9668 9674 9672 8232 9673 9504 9675 9676 
1076 1077 1302 1301 1101 1102 1327 1326 8067 9507 9508 9498 8238 9678 9679 9669 8226 8236 9677 9667 9672 9680 8240 9681 9511 9682 9683 
1077 1078 1303 1302 1102 1103 1328 1327 8074 9514 9515 9507 8245 9685 9686 9678 8236 8243 9684 9677 9680 9687 8247 9688 9518 9689 9690 
1078 1079 1304 1303 1103 1104 1329 1328 8081 9521 9522 9514 8252 9692 9693 9685 8243 8250 9691 9684 9687 9694 8254 9695 9525 9696 9697 
1079 1080 1305 1304 1104 1105 1330 1329 8088 9528 9529 9521 8259 9699 9700 9692 8250 8257 9698 9691 9694 9701 8261 9702 9532 9703 9704 
1080 1081 1306 1305 1105 1106 1331 1330 8095 9535 9536 9528 8266 9706 9707 9699 8257 8264 9705 9698 9701 9708 8268 9709 9539 9710 9711 
1081 1082 1307 1306 1106 1107 1332 1331 8102 9542 9543 9535 8273 9713 9714 9706 8264 8271 9712 9705 9708 9715 8275 9716 9546 9717 9718 
1082 1083 1308 1307 1107 1108 1333 1332 8109 9549 9550 9542 8280 9720 9721 9713 8271 8278 9719 9712 9715 9722 8282 9723 9553 9724 9725 
1083 1084 1309 1308 1108 1109 1334 1333 8116 9556 9557 9549 8287 9727 9728 9720 8278 8285 9726 9719 9722 9729 8289 9730 9560 9731 9732 
1084 1085 1310 1309 1109 1110 1335 1334 8123 9563 9564 9556 8294 9734 9735 9727 8285 8292 9733 9726 9729 9736 8296 9737 9567 9738 9739 
1085 1086 1311 1310 1110 1111 1336 1335 8130 9570 9571 9563 8301 9741 9742 9734 8292 8299 9740 9733 9736 9743 8303 9744 9574 9745 9746 
1086 1087 1312 1311 1111 1112 1337 1336 8137 9577 9578 9570 8308 9748 9749 9741 8299 8306 9747 9740 9743 9750 8310 9751 9581 9752 9753 
1087 1088 1313 1312 1112 1113 1338 1337 8144 9584 9585 9577 8315 9755 9756 9748 8306 8313 9754 9747 9750 9757 8317 9758 9588 9759 9760 
1088 1089 1314 1313 1113 1114 1339 1338 8151 9591 9592 9584 8322 9762 9763 9755 8313 8320 9761 9754 9757 9764 8324 9765 9595 9766 9767 
1089 1090 1315 1314 1114 1115 1340 1339 8158 9598 9599 9591 8329 9769 9770 9762 8320 8327 9768 9761 9764 9771 8331 9772 9602 9773 9774 
1090 1091 1316 1315 1115 1116 1341 1340 8165 9605 9606 9598 8336 9776 9777 9769 8327 8334 9775 9768 9771 9778 8338 9779 9609 9780 9781 
1091 1092 1317 1316 1116 1117 1342 1341 8172 9612 9613 9605 8343 9783 9784 9776 8334 8341 9782 9775 9778 9785 8345 9786 9616 9787 9788 
1092 1093 1318 1317 1117 1118 1343 1342 8179 9619 9620 9612 8350 9790 9791 9783 8341 8348 9789 9782 9785 9792 8352 9793 9623 9794 9795 
1093 1094 1319 1318 1118 1119 1344 1343 8186 9626 9627 9619 8357 9797 9798 9790 8348 8355 9796 9789 9792 9799 8359 9800 9630 9801 9802 
1094 1095 1320 1319 1119 1120 1345 1344 8193 9633 9634 9626 8364 9804 9805 9797 8355 8362 9803 9796 9799 9806 8366 9807 9637 9808 9809 
1095 1096 1321 1320 1120 1121 1346 1345 8200 9640 9641 9633 8371 9811 9812 9804 8362 8369 9810 9803 9806 9813 8373 9814 9644 9815 9816 
1096 1097 1322 1321 1121 1122 1347 1346 8207 9647 9648 9640 8378 9818 9819 9811 8369 8376 9817 9810 9813 9820 8380 9821 9651 9822 9823 
1097 1098 1323 1322 1122 1123 1348 1347 8214 9654 9655 9647 8385 9825 9826 9818 8376 8383 9824 9817 9820 9827 8387 9828 9658 9829 9830 
1098 1099 1324 1323 1123 1124 1349 1348 8221 9661 9662 9654 8392 9832 9833 9825 8383 8390 9831 9824 9827 9834 8394 9835 9665 9836 9837 
1125 1126 1351 1350 1150 1151 1376 1375 8398 9838 9839 9840 8403 9843 9844 9845 8401 8400 9841 9842 9849 9847 8407 9848 9846 9850 9851 
1126 1127 1352 1351 1151 1152 1377 1376 8412 9852 9853 9838 8415 9855 9856 9843 8400 8413 9854 9841 9847 9858 8418 9859 9857 9860 9861 
1127 1128 1353 1352 1152 1153 1378 1377 8422 9862 9863 9852 8425 9865 9866 9855 8413 8423 9864 9854 9858 9868 8428 9869 9867 9870 9871 
1128 1129 1354 1353 1153 1154 1379 1378 8432 9872 9873 9862 8435 9875 9876 9865 8423 8433 9874 9864 9868 9878 8438 9879 9877 9880 9881 
1129 1130 1355 1354 1154 1155 1380 1379 8442 9882 9883 9872 8445 9885 9886 9875 8433 8443 9884 9874 9878 9888 8448 9889 9887 9890 9891 
1130 1131 1356 1355 1155 1156 1381 1380 8452 9892 9893 9882 8455 9895 9896 9885 8443 8453 9894 9884 9888 9898 8458 9899 9897 9900 9901 
1131 1132 1357 1356 1156 1157 1382 1381 8462 9902 9903 9892 8465 9905 9906 9895 8453 8463 9904 9894 9898 9908 8468 9909 9907 9910 9911 
1132 1133 1358 1357 1157 1158 1383 1382 8472 9912 9913 9902 8475 9915 9916 9905 8463 8473 9914 9904 9908 9918 8478 9919 9917 9920 9921 
1133 1134 1359 1358 1158 1159 1384 1383 8482 9922 9923 9912 8485 9925 9926 9915 8473 8483 9924 9914 9918 9928 8488 9929 9927 9930 9931 
1134 1135 1360 1359 1159 1160 1385 1384 8492 9932 9933 9922 8495 9935 9936 9925 8483 8493 9934 9924 9928 9938 8498 9939 9937 9940 9941 
1135 1136 1361 1360 1160 1161 1386 1385 8502 9942 9943 9932 8505 9945 9946 9935 8493 8503 9944 9934 9938 9948 8508 9949 9947 9950 9951 
1136 1137 1362 1361 1161 1162 1387 1386 8512 9952 9953 9942 8515 9955 9956 9945 8503 8513 9954 9944 9948 9958 8518 9959 9957 9960 9961 
1137 1138 1363 1362 1162 1163 1388 1387 8522 9962 9963 9952 8525 9965 9966 9955 8513 8523 9964 9954 9958 9968 8528 9969 9967 9970 9971 
1138 1139 1364 1363 1163 1164 1389 1388 8532 9972 9973 9962 8535 9975 9976 9965 8523 8533 9974 9964 9968 9978 8538 9979 9977 9980 9981 
1139 1140 1365 1364 1164 1165 1390 1389 8542 9982 9983 9972 8545 9985 9986 9975 8533 8543 9984 9974 9978 9988 8548 9989 9987 9990 9991 
1140 1141 1366 1365 1165 1166 1391 1390 8552 9992 9993 9982 8555 9995 9996 9985 8543 8553 9994 9984 9988 9998 8558 9999 9997 10000 10001 
1141 1142 1367 1366 1166 1167 1392 1391 8562 10002 10003 9992 8565 10005 10006 9995 8553 8563 10004 9994 9998 10008 8568 10009 10007 10010 10011 
1142 1143 1368 1367 1167 1168 1393 1392 8572 10012 10013 10002 8575 10015 10016 10005 8563 8573 10014 10004 10008 10018 8578 10019 10017 10020 10021 
1143 1144 1369 1368 1168 1169 1394 1393 8582 10022 10023 10012 8585 10025 10026 10015 8573 8583 10024 10014 10018 10028 8588 10029 10027 10030 10031 
1144 1145 1370 1369 1169 1170 1395 1394 8592 10032 10033 10022 8595 10035 10036 10025 8583 8593 10034 10024 10028 10038 8598 10039 10037 10040 10041 
1145 1146 1371 1370 1170 1171 1396 1395 8602 10042 10043 10032 8605 10045 10046 10035 8593 8603 10044 10034 10038 10048 8608 10049 10047 10050 10051 
1146 1147 1372 1371 1171 1172 1397 1396 8612 10052 10053 10042 8615 10055 10056 10045 8603 8613 10054 10044 10048 10058 8618 10059 10057 10060 10061 
1147 1148 1373 1372 1172 1173 1398 1397 8622 10062 10063 10052 8625 10065 10066 10055 8613 8623 10064 10054 10058 10068 8628 10069 10067 10070 10071 
1148 1149 1374 1373 1173 1174 1399 1398 8632 10072 10073 10062 8635 10075 10076 10065 8623 8633 10074 10064 10068 10078 8638 10079 10077 10080 10081 
1150 1151 1376 1375 1175 1176 1401 1400 8403 9843 9844 9845 8644 10084 10085 10086 8642 8641 10082 10083 10089 10087 8647 10088 9850 10090 10091 
1151 1152 1377 1376 1176 1177 1402 1401 8415 9855 9856 9843 8653 10093 10094 10084 8641 8651 10092 10082 10087 10095 8655 10096 9860 10097 10098 
1152 1153 1378 1377 1177 1178 1403 1402 8425 9865 9866 9855 8660 10100 10101 10093 8651 8658 10099 10092 10095 10102 8662 10103 9870 10104 10105 
1153 1154 1379 1378 1178 1179 1404 1403 8435 9875 9876 9865 8667 10107 10108 10100 8658 8665 10106 10099 10102 10109 8669 10110 9880 10111 10112 
1154 1155 1380 1379 1179 1180 1405 1404 8445 9885 9886 9875 8674 10114 10115 10107 8665 8672 10113 10106 10109 10116 8676 10117 9890 10118 10119 
1155 1156 1381 1380 1180 1181 1406 1405 8455 9895 9896 9885 8681 10121 10122 10114 8672 8679 10120 10113 10116 10123 8683 10124 9900 10125 10126 
1156 1157 1382 1381 1181 1182 1407 1406 8465 9905 9906 9895 8688 10128 10129 10121 8679 8686 10127 10120 10123 10130 8690 10131 9910 10132 10133 
1157 1158 1383 1382 1182 1183 1408 1407 8475 9915 9916 9905 8695 10135 10136 10128 8686 8693 10134 10127 10130 10137 8697 10138 9920 10139 10140 
1158 1159 1384 1383 1183 1184 1409 1408 8485 9925 9926 9915 8702 10142 10143 10135 8693 8700 10141 10134 10137 10144 8704 10145 9930 10146 10147 
1159 1160 1385 1384 1184 1185 1410 1409 8495 9935 9936 9925 8709 10149 10150 10142 8700 8707 10148 10141 10144 10151 8711 10152 9940 10153 10154 
1160 1161 1386 1385 1185 1186 1411 1410 8505 9945 9946 9935 8716 10156 10157 10149 8707 8714 10155 10148 10151 10158 8718 10159 9950 10160 10161 
1161 1162 1387 1386 1186 1187 1412 1411 8515 9955 9956 9945 8723 10163 10164 10156 8714 8721 10162 10155 10158 10165 8725 10166 9960 10167 10168 
1162 1163 1388 1387 1187 1188 1413 1412 8525 9965 9966 9955 8730 10170 10171 10163 8721 8728 10169 10162 10165 10172 8732 10173 9970 10174 10175 
1163 1164 1389 1388 1188 1189 1414 1413 8535 9975 9976 9965 8737 10177 10178 10170 8728 8735 10176 10169 10172 10179 8739 10180 9980 10181 10182 
1164 1165 1390 1389 1189 1190 1415 1414 8545 9985 9986 9975 8744 10184 10185 10177 8735 8742 10183 10176 10179 10186 8746 10187 9990 10188 10189 
1165 1166 1391 1390 1190 1191 1416 1415 8555 9995 9996 9985 8751 10191 10192 10184 8742 8749 10190 10183 10186 10193 8753 10194 10000 10195 10196 
1166 1167 1392 1391 1191 1192 1417 1416 8565 10005 10006 9995 8758 10198 10199 10191 8749 8756 10197 10190 10193 10200 8760 10201 10010 10202 10203 
1167 1168 1393 1392 1192 1193 1418 1417 8575 10015 10016 10005 8765 10205 10206 10198 8756 8763 10204 10197 10200 10207 8767 10208 10020 10209 10210 
1168 1169 1394 1393 1193 1194 1419 1418 8585 10025 10026 10015 8772 10212 10213 10205 8763 8770 10211 10204 10207 10214 8774 10215 10030 10216 10217 
1169 1170 1395 1394 1194 1195 1420 1419 8595 10035 10036 10025 8779 10219 10220 10212 8770 8777 10218 10211 10214 10221 8781 10222 10040 10223 10224 
1170 1171 1396 1395 1195 1196 1421 1420 8605 10045 10046 10035 8786 10226 10227 10219 8777 8784 10225 10218 10221 10228 8788 10229 10050 10230 10231 
1171 1172 1397 1396 1196 1197 1422 1421 8615 10055 10056 10045 8793 10233 10234 10226 8784 8791 10232 10225 10228 10235 8795 10236 10060 10237 10238 
1172 1173 1398 1397 1197 1198 1423 1422 8625 10065 10066 10055 8800 10240 10241 10233 8791 8798 10239 10232 10235 10242 8802 10243 10070 10244 10245 
1173 1174 1399 1398 1198 1199 1424 1423 8635 10075 10076 10065 8807 10247 10248 10240 8798 8805 10246 10239 10242 10249 8809 10250 10080 10251 10252 
1175 1176 1401 1400 1200 1201 1426 1425 8644 10084 10085 10086 8815 10255 10256 10257 8813 8812 10253 10254 10260 10258 8818 10259 10090 10261 10262 
1176 1177 1402 1401 1201 1202 1427 1426 8653 10093 10094 10084 8824 10264 10265 10255 8812 8822 10263 10253 10258 10266 8826 10267 10097 10268 10269 
1177 1178 1403 1402 1202 1203 1428 1427 8660 10100 10101 10093 8831 10271 10272 10264 8822 8829 10270 10263 10266 10273 8833 10274 10104 10275 10276 
1178 1179 1404 1403 1203 1204 1429 1428 8667 10107 10108 10100 8838 10278 10279 10271 8829 8836 10277 10270 10273 10280 8840 10281 10111 10282 10283 
1179 1180 1405 1404 1204 1205 1430 1429 8674 10114 10115 10107 8845 10285 10286 10278 8836 8843 10284 10277 10280 10287 8847 10288 10118 10289 10290 
1180 1181 1406 1405 1205 1206 1431 1430 8681 10121 10122 10114 8852 10292 10293 10285 8843 8850 10291 10284 10287 10294 8854 10295 10125 10296 10297 
1181 1182 1407 1406 1206 1207 1432 1431 8688 10128 10129 10121 8859 10299 10300 10292 8850 8857 10298 10291 10294 10301 8861 10302 10132 10303 10304 
1182 1183 1408 1407 1207 1208 1433 1432 8695 10135 10136 10128 8866 10306 10307 10299 8857 8864 10305 10298 10301 10308 8868 10309 10139 10310 10311 
1183 1184 1409 1408 1208 1209 1434 1433 8702 10142 10143 10135 8873 10313 10314 10306 8864 8871 10312 10305 10308 10315 8875 10316 10146 10317 10318 
1184 1185 1410 1409 1209 1210 1435 1434 8709 10149 10150 10142 8880 10320 10321 10313 8871 8878 10319 10312 10315 10322 8882 10323 10153 10324 10325 
1185 1186 1411 1410 1210 1211 1436 1435 8716 10156 10157 10149 8887 10327 10328 10320 8878 8885 10326 10319 10322 10329 8889 10330 10160 10331 10332 
1186 1187 1412 1411 1211 1212 1437 1436 8723 10163 10164 10156 8894 10334 10335 10327 8885 8892 10333 10326 10329 10336 8896 10337 10167 10338 10339 
1187 1188 1413 1412 1212 1213 1438 1437 8730 10170 10171 10163 8901 10341 10342 10334 8892 8899 10340 10333 10336 10343 8903 10344 10174 10345 10346 
1188 1189 1414 1413 1213 1214 1439 1438 8737 10177 10178 10170 8908 10348 10349 10341 8899 8906 10347 10340 10343 10350 8910 10351 10181 10352 10353 
1189 1190 1415 1414 1214 1215 1440 1439 8744 10184 10185 10177 8915 10355 10356 10348 8906 8913 10354 10347 10350 10357 8917 10358 10188 10359 10360 
1190 1191 1416 1415 1215 1216 1441 1440 8751 10191 10192 10184 8922 10362 10363 10355 8913 8920 10361 10354 10357 10364 8924 10365 10195 10366 10367 
1191 1192 1417 1416 1216 1217 1442 1441 8758 10198 10199 10191 8929 10369 10370 10362 8920 8927 10368 10361 10364 10371 8931 10372 10202 10373 10374 
1192 1193 1418 1417 1217 1218 1443 1442 8765 10205 10206 10198 8936 10376 10377 10369 8927 8934 10375 10368 10371 10378 8938 10379 10209 10380 10381 
1193 1194 1419 1418 1218 1219 1444 1443 8772 10212 10213 10205 8943 10383 10384 10376 8934 8941 10382 10375 10378 10385 8945 10386 10216 10387 10388 
1194 1195 1420 1419 1219 1220 1445 1444 8779 10219 10220 10212 8950 10390 10391 10383 8941 8948 10389 10382 10385 10392 8952 10393 10223 10394 10395 
1195 1196 1421 1420 1220 1221 1446 1445 8786 10226 10227 10219 8957 10397 10398 10390 8948 8955 10396 10389 10392 10399 8959 10400 10230 10401 10402 
1196 1197 1422 1421 1221 1222 1447 1446 8793 10233 10234 10226 8964 10404 10405 10397 8955 8962 10403 10396 10399 10406 8966 10407 10237 10408 10409 
1197 1198 1423 1422 1222 1223 1448 1447 8800 10240 10241 10233 8971 10411 10412 10404 8962 8969 10410 10403 10406 10413 8973 10414 10244 10415 10416 
1198 1199 1424 1423 1223 1224 1449 1448 8807 10247 10248 10240 8978 10418 10419 10411 8969 8976 10417 10410 10413 10420 8980 10421 10251 10422 10423 
1200 1201 1426 1425 1225 1226 1451 1450 8815 10255 10256 10257 8986 10426 10427 10428 8984 8983 10424 10425 10431 10429 8989 10430 10261 10432 10433 
1201 1202 1427 1426 1226 1227 1452 1451 8824 10264 10265 10255 8995 10435 10436 10426 8983 8993 10434 10424 10429 10437 8997 10438 10268 10439 10440 
1202 1203 1428 1427 1227 1228 1453 1452 8831 10271 10272 10264 9002 10442 10443 10435 8993 9000 10441 10434 10437 10444 9004 10445 10275 10446 10447 
1203 1204 1429 1428 1228 1229 1454 1453 8838 10278 10279 10271 9009 10449 10450 10442 9000 9007 10448 10441 10444 10451 9011 10452 10282 10453 10454 
1204 1205 1430 1429 1229 1230 1455 1454 8845 10285 10286 10278 9016 10456 10457 10449 9007 9014 10455 10448 10451 10458 9018 10459 10289 10460 10461 
1205 1206 1431 1430 1230 1231 1456 1455 8852 10292 10293 10285 9023 10463 10464 10456 9014 9021 10462 10455 10458 10465 9025 10466 10296 10467 10468 
1206 1207 1432 1431 1231 1232 1457 1456 8859 10299 10300 10292 9030 10470 10471 10463 9021 9028 10469 10462 10465 10472 9032 10473 10303 10474 10475 
1207 1208 1433 1432 1232 1233 1458 1457 8866 10306 10307 10299 9037 10477 10478 10470 9028 9035 10476 10469 10472 10479 9039 10480 10310 10481 10482 
1208 1209 1434 1433 1233 1234 1459 1458 8873 10313 10314 10306 9044 10484 10485 10477 9035 9042 10483 10476 10479 10486 9046 10487 10317 10488 10489 
1209 1210 1435 1434 1234 1235 1460 1459 8880 10320 10321 10313 9051 10491 10492 10484 9042 9049 10490 10483 10486 10493 9053 10494 10324 10495 10496 
1210 1211 1436 1435 1235 1236 1461 1460 8887 10327 10328 10320 9058 10498 10499 10491 9049 9056 10497 10490 10493 10500 9060 10501 10331 10502 10503 
1211 1212 1437 1436 1236 1237 1462 1461 8894 10334 10335 10327 9065 10505 10506 10498 9056 9063 10504 10497 10500 10507 9067 10508 10338 10509 10510 
1212 1213 1438 1437 1237 1238 1463 1462 8901 10341 10342 10334 9072 10512 10513 10505 9063 9070 10511 10504 10507 10514 9074 10515 10345 10516 10517 
1213 1214 1439 1438 1238 1239 1464 1463 8908 10348 10349 10341 9079 10519 10520 10512 9070 9077 10518 10511 10514 10521 9081 10522 10352 10523 10524 
1214 1215 1440 1439 1239 1240 1465 1464 8915 10355 10356 10348 9086 10526 10527 10519 9077 9084 10525 10518 10521 10528 9088 10529 10359 10530 10531 
1215 1216 1441 1440 1240 1241 1466 1465 8922 10362 10363 10355 9093 10533 10534 10526 9084 9091 10532 10525 10528 10535 9095 10536 10366 10537 10538 
1216 1217 1442 1441 1241 1242 1467 1466 8929 10369 10370 10362 9100 10540 10541 10533 9091 9098 10539 10532 10535 10542 9102 10543 10373 10544 10545 
1217 1218 1443 1442 1242 1243 1468 1467 8936 10376 10377 10369 9107 10547 10548 10540 9098 9105 10546 10539 10542 10549 9109 10550 10380 10551 10552 
1218 1219 1444 1443 1243 1244 1469 1468 8943 10383 10384 10376 9114 10554 10555 10547 9105 9112 10553 10546 10549 10556 9116 10557 10387 10558 10559 
1219 1220 1445 1444 1244 1245 1470 1469 8950 10390 10391 10383 9121 10561 10562 10554 9112 9119 10560 10553 10556 10563 9123 10564 10394 10565 10566 
1220 1221 1446 1445 1245 1246 1471 1470 8957 10397 10398 10390 9128 10568 10569 10561 9119 9126 10567 10560 10563 10570 9130 10571 10401 10572 10573 
1221 1222 1447 1446 1246 1247 1472 1471 8964 10404 10405 10397 9135 10575 10576 10568 9126 9133 10574 10567 10570 10577 9137 10578 10408 10579 10580 
1222 1223 1448 1447 1247 1248 1473 1472 8971 10411 10412 10404 9142 10582 10583 10575 9133 9140 10581 10574 10577 10584 9144 10585 10415 10586 10587 
1223 1224 1449 1448 1248 1249 1474 1473 8978 10418 10419 10411 9149 10589 10590 10582 9140 9147 10588 10581 10584 10591 9151 10592 10422 10593 10594 
1225 1226 1451 1450 1250 1251 1476 1475 8986 10426 10427 10428 9157 10597 10598 10599 9155 9154 10595 10596 10602 10600 9160 10601 10432 10603 10604 
1226 1227 1452 1451 1251 1252 1477 1476 8995 10435 10436 10426 9166 10606 10607 10597 9154 9164 10605 10595 10600 10608 9168 10609 10439 10610 10611 
1227 1228 1453 1452 1252 1253 1478 1477 9002 10442 10443 10435 9173 10613 10614 10606 9164 9171 10612 10605 10608 10615 9175 10616 10446 10617 10618 
1228 1229 1454 1453 1253 1254 1479 1478 9009 10449 10450 10442 9180 10620 10621 10613 9171 9178 10619 10612 10615 10622 9182 10623 10453 10624 10625 
1229 1230 1455 1454 1254 1255 1480 1479 9016 10456 10457 10449 9187 10627 10628 10620 9178 9185 10626 10619 10622 10629 9189 10630 10460 10631 10632 
1230 1231 1456 1455 1255 1256 1481 1480 9023 10463 10464 10456 9194 10634 10635 10627 9185 9192 10633 10626 10629 10636 9196 10637 10467 10638 10639 
1231 1232 1457 1456 1256 1257 1482 1481 9030 10470 10471 10463 9201 10641 10642 10634 9192 9199 10640 10633 10636 10643 9203 10644 10474 10645 10646 
1232 1233 1458 1457 1257 1258 1483 1482 9037 10477 10478 10470 9208 10648 10649 10641 9199 9206 10647 10640 10643 10650 9210 10651 10481 10652 10653 
1233 1234 1459 1458 1258 1259 1484 1483 9044 10484 10485 10477 9215 10655 10656 10648 9206 9213 10654 10647 10650 10657 9217 10658 10488 10659 10660 
1234 1235 1460 1459 1259 1260 1485 1484 9051 10491 10492 10484 9222 10662 10663 10655 9213 9220 10661 10654 10657 10664 9224 10665 10495 10666 10667 
1235 1236 1461 1460 1260 1261 1486 1485 9058 10498 10499 10491 9229 10669 10670 10662 9220 9227 10668 10661 10664 10671 9231 10672 10502 10673 10674 
1236 1237 1462 1461 1261 1262 1487 1486 9065 10505 10506 10498 9236 10676 10677 10669 9227 9234 10675 10668 10671 10678 9238 10679 10509 10680 10681 
1237 1238 1463 1462 1262 1263 1488 1487 9072 10512 10513 10505 9243 10683 10684 10676 9234 9241 10682 10675 10678 10685 9245 10686 10516 10687 10688 
1238 1239 1464 1463 1263 1264 1489 1488 9079 10519 10520 10512 9250 10690 10691 10683 9241 9248 10689 10682 10685 10692 9252 10693 10523 10694 10695 
1239 1240 1465 1464 1264 1265 1490 1489 9086 10526 10527 10519 9257 10697 10698 10690 9248 9255 10696 10689 10692 10699 9259 10700 10530 10701 10702 
1240 1241 1466 1465 1265 1266 1491 1490 9093 10533 10534 10526 9264 10704 10705 10697 9255 9262 10703 10696 10699 10706 9266 10707 10537 10708 10709 
1241 1242 1467 1466 1266 1267 1492 1491 9100 10540 10541 10533 9271 10711 10712 10704 9262 9269 10710 10703 10706 10713 9273 10714 10544 10715 10716 
1242 1243 1468 1467 1267 1268 1493 1492 9107 10547 10548 10540 9278 10718 10719 10711 9269 9276 10717 10710 10713 10720 9280 10721 10551 10722 10723 
1243 1244 1469 1468 1268 1269 1494 1493 9114 10554 10555 10547 9285 10725 10726 10718 9276 9283 10724 10717 10720 10727 9287 10728 10558 10729 10730 
1244 1245 1470 1469 1269 1270 1495 1494 9121 10561 10562 10554 9292 10732 10733 10725 9283 9290 10731 10724 10727 10734 9294 10735 10565 10736 10737 
1245 1246 1471 1470 1270 1271 1496 1495 9128 10568 10569 10561 9299 10739 10740 10732 9290 9297 10738 10731 10734 10741 9301 10742 10572 10743 10744 
1246 1247 1472 1471 1271 1272 1497 1496 9135 10575 10576 10568 9306 10746 10747 10739 9297 9304 10745 10738 10741 10748 9308 10749 10579 10750 10751 
1247 1248 1473 1472 1272 1273 1498 1497 9142 10582 10583 10575 9313 10753 10754 10746 9304 9311 10752 10745 10748 10755 9315 10756 10586 10757 10758 
1248 1249 1474 1473 1273 1274 1499 1498 9149 10589 10590 10582 9320 10760 10761 10753 9311 9318 10759 10752 10755 10762 9322 10763 10593 10764 10765 
1250 1251 1476 1475 1275 1276 1501 1500 9157 10597 10598 10599 9328 10768 10769 10770 9326 9325 10766 10767 10773 10771 9331 10772 10603 10774 10775 
1251 1252 1477 1476 1276 1277 1502 1501 9166 10606 10607 10597 9337 10777 10778 10768 9325 9335 10776 10766 10771 10779 9339 10780 10610 10781 10782 
1252 1253 1478 1477 1277 1278 1503 1502 9173 10613 10614 10606 9344 10784 10785 10777 9335 9342 10783 10776 10779 10786 9346 10787 10617 10788 10789 
1253 1254 1479 1478 1278 1279 1504 1503 9180 10620 10621 10613 9351 10791 10792 10784 9342 9349 10790 10783 10786 10793 9353 10794 10624 10795 10796 
1254 1255 1480 1479 1279 1280 1505 1504 9187 10627 10628 10620 9358 10798 10799 10791 9349 9356 10797 10790 10793 10800 9360 10801 10631 10802 10803 
1255 1256 1481 1480 1280 1281 1506 1505 9194 10634 10635 10627 9365 10805 10806 10798 9356 9363 10804 10797 10800 10807 9367 10808 10638 10809 10810 
1256 1257 1482 1481 1281 1282 1507 1506 9201 10641 10642 10634 9372 10812 10813 10805 9363 9370 10811 10804 10807 10814 9374 10815 10645 10816 10817 
1257 1258 1483 1482 1282 1283 1508 1507 9208 10648 10649 10641 9379 10819 10820 10812 9370 9377 10818 10811 10814 10821 9381 10822 10652 10823 10824 
1258 1259 1484 1483 1283 1284 1509 1508 9215 10655 10656 10648 9386 10826 10827 10819 9377 9384 10825 10818 10821 10828 9388 10829 10659 10830 10831 
1259 1260 1485 1484 1284 1285 1510 1509 9222 10662 10663 10655 9393 10833 10834 10826 9384 9391 10832 10825 10828 10835 9395 10836 10666 10837 10838 
1260 1261 1486 1485 1285 1286 1511 1510 9229 10669 10670 10662 9400 10840 10841 10833 9391 9398 10839 10832 10835 10842 9402 10843 10673 10844 10845 
1261 1262 1487 1486 1286 1287 1512 1511 9236 10676 10677 10669 9407 10847 10848 10840 9398 9405 10846 10839 10842 10849 9409 10850 10680 10851 10852 
1262 1263 1488 1487 1287 1288 1513 1512 9243 10683 10684 10676 9414 10854 10855 10847 9405 9412 10853 10846 10849 10856 9416 10857 10687 10858 10859 
1263 1264 1489 1488 1288 1289 1514 1513 9250 10690 10691 10683 9421 10861 10862 10854 9412 9419 10860 10853 10856 10863 9423 10864 10694 10865 10866 
1264 1265 1490 1489 1289 1290 1515 1514 9257 10697 10698 10690 9428 10868 10869 10861 9419 9426 10867 10860 10863 10870 9430 10871 10701 10872 10873 
1265 1266 1491 1490 1290 1291 1516 1515 9264 10704 10705 10697 9435 10875 10876 10868 9426 9433 10874 10867 10870 10877 9437 10878 10708 10879 10880 
1266 1267 1492 1491 1291 1292 1517 1516 9271 10711 10712 10704 9442 10882 10883 10875 9433 9440 10881 10874 10877 10884 9444 10885 10715 10886 10887 
1267 1268 1493 1492 1292 1293 1518 1517 9278 10718 10719 10711 9449 10889 10890 10882 9440 9447 10888 10881 10884 10891 9451 10892 10722 10893 10894 
1268 1269 1494 1493 1293 1294 1519 1518 9285 10725 10726 10718 9456 10896 10897 10889 9447 9454 10895 10888 10891 10898 9458 10899 10729 10900 10901 
1269 1270 1495 1494 1294 1295 1520 1519 9292 10732 10733 10725 9463 10903 10904 10896 9454 9461 10902 10895 10898 10905 9465 10906 10736 10907 10908 
1270 1271 1496 1495 1295 1296 1521 1520 9299 10739 10740 10732 9470 10910 10911 10903 9461 9468 10909 10902 10905 10912 9472 10913 10743 10914 10915 
1271 1272 1497 1496 1296 1297 1522 1521 9306 10746 10747 10739 9477 10917 10918 10910 9468 9475 10916 10909 10912 10919 9479 10920 10750 10921 10922 
1272 1273 1498 1497 1297 1298 1523 1522 9313 10753 10754 10746 9484 10924 10925 10917 9475 9482 10923 10916 10919 10926 9486 10927 10757 10928 10929 
1273 1274 1499 1498 1298 1299 1524 1523 9320 10760 10761 10753 9491 10931 10932 10924 9482 9489 10930 10923 10926 10933 9493 10934 10764 10935 10936 
1275 1276 1501 1500 1300 1301 1526 1525 9328 10768 10769 10770 9499 10939 10940 10941 9497 9496 10937 10938 10944 10942 9502 10943 10774 10945 10946 
1276 1277 1502 1501 1301 1302 1527 1526 9337 10777 10778 10768 9508 10948 10949 10939 9496 9506 10947 10937 10942 10950 9510 10951 10781 10952 10953 
1277 1278 1503 1502 1302 1303 1528 1527 9344 10784 10785 10777 9515 10955 10956 10948 9506 9513 10954 10947 10950 10957 9517 10958 10788 10959 10960 
1278 1279 1504 1503 1303 1304 1529 1528 9351 10791 10792 10784 9522 10962 10963 10955 9513 9520 10961 10954 10957 10964 9524 10965 10795 10966 10967 
1279 1280 1505 1504 1304 1305 1530 1529 9358 10798 10799 10791 9529 10969 10970 10962 9520 9527 10968 10961 10964 10971 9531 10972 10802 10973 10974 
1280 1281 1506 1505 1305 1306 1531 1530 9365 10805 10806 10798 9536 10976 10977 10969 9527 9534 10975 10968 10971 10978 9538 10979 10809 10980 10981 
1281 1282 1507 1506 1306 1307 1532 1531 9372 10812 10813 10805 9543 10983 10984 10976 9534 9541 10982 10975 10978 10985 9545 10986 10816 10987 10988 
1282 1283 1508 1507 1307 1308 1533 1532 9379 10819 10820 10812 9550 10990 10991 10983 9541 9548 10989 10982 10985 10992 9552 10993 10823 10994 10995 
1283 1284 1509 1508 1308 1309 1534 1533 9386 10826 10827 10819 9557 10997 10998 10990 9548 9555 10996 10989 10992 10999 9559 11000 10830 11001 11002 
1284 1285 1510 1509 1309 1310 1535 1534 9393 10833 10834 10826 9564 11004 11005 10997 9555 9562 11003 10996 10999 11006 9566 11007 10837 11008 11009 
1285 1286 1511 1510 1310 1311 1536 1535 9400 10840 10841 10833 9571 11011 11012 11004 9562 9569 11010 11003 11006 11013 9573 11014 10844 11015 11016 
1286 1287 1512 1511 1311 1312 1537 1536 9407 10847 10848 10840 9578 11018 11019 11011 9569 9576 11017 11010 11013 11020 9580 11021 10851 11022 11023 
1287 1288 1513 1512 1312 1313 1538 1537 9414 10854 10855 10847 9585 11025 11026 11018 9576 9583 11024 11017 11020 11027 9587 11028 10858 11029 11030 
1288 1289 1514 1513 1313 1314 1539 1538 9421 10861 10862 10854 9592 11032 11033 11025 9583 9590 11031 11024 11027 11034 9594 11035 10865 11036 11037 
1289 1290 1515 1514 1314 1315 1540 1539 9428 10868 10869 10861 9599 11039 11040 11032 9590 9597 11038 11031 11034 11041 9601 11042 10872 11043 11044 
1290 1291 1516 1515 1315 1316 1541 1540 9435 10875 10876 10868 9606 11046 11047 11039 9597 9604 11045 11038 11041 11048 9608 11049 10879 11050 11051 
1291 1292 1517 1516 1316 1317 1542 1541 9442 10882 10883 10875 9613 11053 11054 11046 9604 9611 11052 11045 11048 11055 9615 11056 10886 11057 11058 
1292 1293 1518 1517 1317 1318 1543 1542 9449 10889 10890 10882 9620 11060 11061 11053 9611 9618 11059 11052 11055 11062 9622 11063 10893 11064 11065 
1293 1294 1519 1518 1318 1319 1544 1543 9456 10896 10897 10889 9627 11067 11068 11060 9618 9625 11066 11059 11062 11069 9629 11070 10900 11071 11072 
1294 1295 1520 1519 1319 1320 1545 1544 9463 10903 10904 10896 9634 11074 11075 11067 9625 9632 11073 11066 11069 11076 9636 11077 10907 11078 11079 
1295 1296 1521 1520 1320 1321 1546 1545 9470 10910 10911 10903 9641 11081 11082 11074 9632 9639 11080 11073 11076 11083 9643 11084 10914 11085 11086 
1296 1297 1522 1521 1321 1322 1547 1546 9477 10917 10918 10910 9648 11088 11089 11081 9639 9646 11087 11080 11083 11090 9650 11091 10921 11092 11093 
1297 1298 1523 1522 1322 1323 1548 1547 9484 10924 10925 10917 9655 11095 11096 11088 9646 9653 11094 11087 11090 11097 9657 11098 10928 11099 11100 
1298 1299 1524 1523 1323 1324 1549 1548 9491 10931 10932 10924 9662 11102 11103 11095 9653 9660 11101 11094 11097 11104 9664 11105 10935 11106 11107 
1300 1301 1526 1525 1325 1326 1551 1550 9499 10939 10940 10941 9670 11110 11111 11112 9668 9667 11108 11109 11115 11113 9673 11114 10945 11116 11117 
1301 1302 1527 1526 1326 1327 1552 1551 9508 10948 10949 10939 9679 11119 11120 11110 9667 9677 11118 11108 11113 11121 9681 11122 10952 11123 11124 
1302 1303 1528 1527 1327 1328 1553 1552 9515 10955 10956 10948 9686 11126 11127 11119 9677 9684 11125 11118 11121 11128 9688 11129 10959 11130 11131 
1303 1304 1529 1528 1328 1329 1554 1553 9522 10962 10963 10955 9693 11133 11134 11126 9684 9691 11132 11125 11128 11135 9695 11136 10966 11137 11138 
1304 1305 1530 1529 1329 1330 1555 1554 9529 10969 10970 10962 9700 11140 11141 11133 9691 9698 11139 11132 11135 11142 9702 11143 10973 11144 11145 
1305 1306 1531 1530 1330 1331 1556 1555 9536 10976 10977 10969 9707 11147 11148 11140 9698 9705 11146 11139 11142 11149 9709 11150 10980 11151 11152 
1306 1307 1532 1531 1331 1332 1557 1556 9543 10983 10984 10976 9714 11154 11155 11147 9705 9712 11153 11146 11149 11156 9716 11157 10987 11158 11159 
1307 1308 1533 1532 1332 1333 1558 1557 9550 10990 10991 10983 9721 11161 11162 11154 9712 9719 11160 11153 11156 11163 9723 11164 10994 11165 11166 
1308 1309 1534 1533 1333 1334 1559 1558 9557 10997 10998 10990 9728 11168 11169 11161 9719 9726 11167 11160 11163 11170 9730 11171 11001 11172 11173 
1309 1310 1535 1534 1334 1335 1560 1559 9564 11004 11005 10997 9735 11175 11176 11168 9726 9733 11174 11167 11170 11177 9737 11178 11008 11179 11180 
1310 1311 1536 1535 1335 1336 1561 1560 9571 11011 11012 11004 9742 11182 11183 11175 9733 9740 11181 11174 11177 11184 9744 11185 11015 11186 11187 
1311 1312 1537 1536 1336 1337 1562 1561 9578 11018 11019 11011 9749 11189 11190 11182 9740 9747 11188 11181 11184 11191 9751 11192 11022 11193 11194 
1312 1313 1538 1537 1337 1338 1563 1562 9585 11025 11026 11018 9756 11196 11197 11189 9747 9754 11195 11188 11191 11198 9758 11199 11029 11200 11201 
1313 1314 1539 1538 1338 1339 1564 1563 9592 11032 11033 11025 9763 11203 11204 11196 9754 9761 11202 11195 11198 11205 9765 11206 11036 11207 11208 
1314 1315 1540 1539 1339 1340 1565 1564 9599 11039 11040 11032 9770 11210 11211 11203 9761 9768 11209 11202 11205 11212 9772 11213 11043 11214 11215 
1315 1316 1541 1540 1340 1341 1566 1565 9606 11046 11047 11039 9777 11217 11218 11210 9768 9775 11216 11209 11212 11219 9779 11220 11050 11221 11222 
1316 1317 1542 1541 1341 1342 1567 1566 9613 11053 11054 11046 9784 11224 11225 11217 9775 9782 11223 11216 11219 11226 9786 11227 11057 11228 11229 
1317 1318 1543 1542 1342 1343 1568 1567 9620 11060 11061 11053 9791 11231 11232 11224 9782 9789 11230 11223 11226 11233 9793 11234 11064 11235 11236 
1318 1319 1544 1543 1343 1344 1569 1568 9627 11067 11068 11060 9798 11238 11239 11231 9789 9796 11237 11230 11233 11240 9800 11241 11071 11242 11243 
1319 1320 1545 1544 1344 1345 1570 1569 9634 11074 11075 11067 9805 11245 11246 11238 9796 9803 11244 11237 11240 11247 9807 11248 11078 11249 11250 
1320 1321 1546 1545 1345 1346 1571 1570 9641 11081 11082 11074 9812 11252 11253 11245 9803 9810 11251 11244 11247 11254 9814 11255 11085 11256 11257 
1321 1322 1547 1546 1346 1347 1572 1571 9648 11088 11089 11081 9819 11259 11260 11252 9810 9817 11258 11251 11254 11261 9821 11262 11092 11263 11264 
1322 1323 1548 1547 1347 1348 1573 1572 9655 11095 11096 11088 9826 11266 11267 11259 9817 9824 11265 11258 11261 11268 9828 11269 11099 11270 11271 
1323 1324 1549 1548 1348 1349 1574 1573 9662 11102 11103 11095 9833 11273 11274 11266 9824 9831 11272 11265 11268 11275 9835 11276 11106 11277 11278 
1350 1351 1576 1575 1375 1376 1601 1600 9839 11279 11280 11281 9844 11284 11285 11286 9842 9841 11282 11283 11290 11288 9848 11289 11287 11291 11292 
1351 1352 1577 1576 1376 1377 1602 1601 9853 11293 11294 11279 9856 11296 11297 11284 9841 9854 11295 11282 11288 11299 9859 11300 11298 11301 11302 
1352 1353 1578 1577 1377 1378 1603 1602 9863 11303 11304 11293 9866 11306 11307 11296 9854 9864 11305 11295 11299 11309 9869 11310 11308 11311 11312 
1353 1354 1579 1578 1378 1379 1604 1603 9873 11313 11314 11303 9876 11316 11317 11306 9864 9874 11315 11305 11309 11319 9879 11320 11318 11321 11322 
1354 1355 1580 1579 1379 1380 1605 1604 9883 11323 11324 11313 9886 11326 11327 11316 9874 9884 11325 11315 11319 11329 9889 11330 11328 11331 11332 
1355 1356 1581 1580 1380 1381 1606 1605 9893 11333 11334 11323 9896 11336 11337 11326 9884 9894 11335 11325 11329 11339 9899 11340 11338 11341 11342 
1356 1357 1582 1581 1381 1382 1607 1606 9903 11343 11344 11333 9906 11346 11347 11336 9894 9904 11345 11335 11339 11349 9909 11350 11348 11351 11352 
1357 1358 1583 1582 1382 1383 1608 1607 9913 11353 11354 11343 9916 11356 11357 11346 9904 9914 11355 11345 11349 11359 9919 11360 11358 11361 11362 
1358 1359 1584 1583 1383 1384 1609 1608 9923 11363 11364 11353 9926 11366 11367 11356 9914 9924 11365 11355 11359 11369 9929 11370 11368 11371 11372 
1359 1360 1585 1584 1384 1385 1610 1609 9933 11373 11374 11363 9936 11376 11377 11366 9924 9934 11375 11365 11369 11379 9939 11380 11378 11381 11382 
1360 1361 1586 1585 1385 1386 1611 1610 9943 11383 11384 11373 9946 11386 11387 11376 9934 9944 11385 11375 11379 11389 9949 11390 11388 11391 11392 
1361 1362 1587 1586 1386 1387 1612 1611 9953 11393 11394 11383 9956 11396 11397 11386 9944 9954 11395 11385 11389 11399 9959 11400 11398 11401 11402 
1362 1363 1588 1587 1387 1388 1613 1612 9963 11403 11404 11393 9966 11406 11407 11396 9954 9964 11405 11395 11399 11409 9969 11410 11408 11411 11412 
1363 1364 1589 1588 1388 1389 1614 1613 9973 11413 11414 11403 9976 11416 11417 11406 9964 9974 11415 11405 11409 11419 9979 11420 11418 11421 11422 
1364 1365 1590 1589 1389 1390 1615 1614 9983 11423 11424 11413 9986 11426 11427 11416 9974 9984 11425 11415 11419 11429 9989 11430 11428 11431 11432 
1365 1366 1591 1590 1390 1391 1616 1615 9993 11433 11434 11423 9996 11436 11437 11426 9984 9994 11435 11425 11429 11439 9999 11440 11438 11441 11442 
1366 1367 1592 1591 1391 1392 1617 1616 10003 11443 11444 11433 10006 11446 11447 11436 9994 10004 11445 11435 11439 11449 10009 11450 11448 11451 11452 
1367 1368 1593 1592 1392 1393 1618 1617 10013 11453 11454 11443 10016 11456 11457 11446 10004 10014 11455 11445 11449 11459 10019 11460 11458 11461 11462 
1368 1369 1594 1593 1393 1394 1619 1618 10023 11463 11464 11453 10026 11466 11467 11456 10014 10024 11465 11455 11459 11469 10029 11470 11468 11471 11472 
1369 1370 1595 1594 1394 1395 1620 1619 10033 11473 11474 11463 10036 11476 11477 11466 10024 10034 11475 11465 11469 11479 10039 11480 11478 11481 11482 
1370 1371 1596 1595 1395 1396 1621 1620 10043 11483 11484 11473 10046 11486 11487 11476 10034 10044 11485 11475 11479 11489 10049 11490 11488 11491 11492 
1371 1372 1597 1596 1396 1397 1622 1621 10053 11493 11494 11483 10056 11496 11497 11486 10044 10054 11495 11485 11489 11499 10059 11500 11498 11501 11502 
1372 1373 1598 1597 1397 1398 1623 1622 10063 11503 11504 11493 10066 11506 11507 11496 10054 10064 11505 11495 11499 11509 10069 11510 11508 11511 11512 
1373 1374 1599 1598 1398 1399 1624 1623 10073 11513 11514 11503 10076 11516 11517 11506 10064 10074 11515 11505 11509 11519 10079 11520 11518 11521 11522 
1375 1376 1601 1600 1400 1401 1626 1625 9844 11284 11285 11286 10085 11525 11526 11527 10083 10082 11523 11524 11530 11528 10088 11529 11291 11531 11532 
1376 1377 1602 1601 1401 1402 1627 1626 9856 11296 11297 11284 10094 11534 11535 11525 10082 10092 11533 11523 11528 11536 10096 11537 11301 11538 11539 
1377 1378 1603 1602 1402 1403 1628 1627 9866 11306 11307 11296 10101 11541 11542 11534 10092 10099 11540 11533 11536 11543 10103 11544 11311 11545 11546 
1378 1379 1604 1603 1403 1404 1629 1628 9876 11316 11317 11306 10108 11548 11549 11541 10099 10106 11547 11540 11543 11550 10110 11551 11321 11552 11553 
1379 1380 1605 1604 1404 1405 1630 1629 9886 11326 11327 11316 10115 11555 11556 11548 10106 10113 11554 11547 11550 11557 10117 11558 11331 11559 11560 
1380 1381 1606 1605 1405 1406 1631 1630 9896 11336 11337 11326 10122 11562 11563 11555 10113 10120 11561 11554 11557 11564 10124 11565 11341 11566 11567 
1381 1382 1607 1606 1406 1407 1632 1631 9906 11346 11347 11336 10129 11569 11570 11562 10120 10127 11568 11561 11564 11571 10131 11572 11351 11573 11574 
1382 1383 1608 1607 1407 1408 1633 1632 9916 11356 11357 11346 10136 11576 11577 11569 10127 10134 11575 11568 11571 11578 10138 11579 11361 11580 11581 
1383 1384 1609 1608 1408 1409 1634 1633 9926 11366 11367 11356 10143 11583 11584 11576 10134 10141 11582 11575 11578 11585 10145 11586 11371 11587 11588 
1384 1385 1610 1609 1409 1410 1635 1634 9936 11376 11377 11366 10150 11590 11591 11583 10141 10148 11589 11582 11585 11592 10152 11593 11381 11594 11595 
1385 1386 1611 1610 1410 1411 1636 1635 9946 11386 11387 11376 10157 11597 11598 11590 10148 10155 11596 11589 11592 11599 10159 11600 11391 11601 11602 
1386 1387 1612 1611 1411 1412 1637 1636 9956 11396 11397 11386 10164 11604 11605 11597 10155 10162 11603 11596 11599 11606 10166 11607 11401 11608 11609 
1387 1388 1613 1612 1412 1413 1638 1637 9966 11406 11407 11396 10171 11611 11612 11604 10162 10169 11610 11603 11606 11613 10173 11614 11411 11615 11616 
1388 1389 1614 1613 1413 1414 1639 1638 9976 11416 11417 11406 10178 11618 11619 11611 10169 10176 11617 11610 11613 11620 10180 11621 11421 11622 11623 
1389 1390 1615 1614 1414 1415 1640 1639 9986 11426 11427 11416 10185 11625 11626 11618 10176 10183 11624 11617 11620 11627 10187 11628 11431 11629 11630 
1390 1391 1616 1615 1415 1416 1641 1640 9996 11436 11437 11426 10192 11632 11633 11625 10183 10190 11631 11624 11627 11634 10194 11635 11441 11636 11637 
1391 1392 1617 1616 1416 1417 1642 1641 10006 11446 11447 11436 10199 11639 11640 11632 10190 10197 11638 11631 11634 11641 10201 11642 11451 11643 11644 
1392 1393 1618 1617 1417 1418 1643 1642 10016 11456 11457 11446 10206 11646 11647 11639 10197 10204 11645 11638 11641 11648 10208 11649 11461 11650 11651 
1393 1394 1619 1618 1418 1419 1644 1643 10026 11466 11467 11456 10213 11653 11654 11646 10204 10211 11652 11645 11648 11655 10215 11656 11471 11657 11658 
1394 1395 1620 1619 1419 1420 1645 1644 10036 11476 11477 11466 10220 11660 11661 11653 10211 10218 11659 11652 11655 11662 10222 11663 11481 11664 11665 
1395 1396 1621 1620 1420 1421 1646 1645 10046 11486 11487 11476 10227 11667 11668 11660 10218 10225 11666 11659 11662 11669 10229 11670 11491 11671 11672 
1396 1397 1622 1621 1421 1422 1647 1646 10056 11496 11497 11486 10234 11674 11675 11667 10225 10232 11673 11666 11669 11676 10236 11677 11501 11678 11679 
1397 1398 1623 1622 1422 1423 1648 1647 10066 11506 11507 11496 10241 11681 11682 11674 10232 10239 11680 11673 11676 11683 10243 11684 11511 11685 11686 
1398 1399 1624 1623 1423 1424 1649 1648 10076 11516 11517 11506 10248 11688 11689 11681 10239 10246 11687 11680 11683 11690 10250 11691 11521 11692 11693 
1400 1401 1626 1625 1425 1426 1651 1650 10085 11525 11526 11527 10256 11696 11697 11698 10254 10253 11694 11695 11701 11699 10259 11700 11531 11702 11703 
1401 1402 1627 1626 1426 1427 1652 1651 10094 11534 11535 11525 10265 11705 11706 11696 10253 10263 11704 11694 11699 11707 10267 11708 11538 11709 11710 
1402 1403 1628 1627 1427 1428 1653 1652 10101 11541 11542 11534 10272 11712 11713 11705 10263 10270 11711 11704 11707 11714 10274 11715 11545 11716 11717 
1403 1404 1629 1628 1428 1429 1654 1653 10108 11548 11549 11541 10279 11719 11720 11712 10270 10277 11718 11711 11714 11721 10281 11722 11552 11723 11724 
1404 1405 1630 1629 1429 1430 1655 1654 10115 11555 11556 11548 10286 11726 11727 11719 10277 10284 11725 11718 11721 11728 10288 11729 11559 11730 11731 
1405 1406 1631 1630 1430 1431 1656 1655 10122 11562 11563 11555 10293 11733 11734 11726 10284 10291 11732 11725 11728 11735 10295 11736 11566 11737 11738 
1406 1407 1632 1631 1431 1432 1657 1656 10129 11569 11570 11562 10300 11740 11741 11733 10291 10298 11739 11732 11735 11742 10302 11743 11573 11744 11745 
1407 1408 1633 1632 1432 1433 1658 1657 10136 11576 11577 11569 10307 11747 11748 11740 10298 10305 11746 11739 11742 11749 10309 11750 11580 11751 11752 
1408 1409 1634 1633 1433 1434 1659 1658 10143 11583 11584 11576 10314 11754 11755 11747 10305 10312 11753 11746 11749 11756 10316 11757 11587 11758 11759 
1409 1410 1635 1634 1434 1435 1660 1659 10150 11590 11591 11583 10321 11761 11762 11754 10312 10319 11760 11753 11756 11763 10323 11764 11594 11765 11766 
1410 1411 1636 1635 1435 1436 1661 1660 10157 11597 11598 11590 10328 11768 11769 11761 10319 10326 11767 11760 11763 11770 10330 11771 11601 11772 11773 
1411 1412 1637 1636 1436 1437 1662 1661 10164 11604 11605 11597 10335 11775 11776 11768 10326 10333 11774 11767 11770 11777 10337 11778 11608 11779 11780 
1412 1413 1638 1637 1437 1438 1663 1662 10171 11611 11612 11604 10342 11782 11783 11775 10333 10340 11781 11774 11777 11784 10344 11785 11615 11786 11787 
1413 1414 1639 1638 1438 1439 1664 1663 10178 11618 11619 11611 10349 11789 11790 11782 10340 10347 11788 11781 11784 11791 10351 11792 11622 11793 11794 
1414 1415 1640 1639 1439 1440 1665 1664 10185 11625 11626 11618 10356 11796 11797 11789 10347 10354 11795 11788 11791 11798 10358 11799 11629 11800 11801 
1415 1416 1641 1640 1440 1441 1666 1665 10192 11632 11633 11625 10363 11803 11804 11796 10354 10361 11802 11795 11798 11805 10365 11806 11636 11807 11808 
1416 1417 1642 1641 1441 1442 1667 1666 10199 11639 11640 11632 10370 11810 11811 11803 10361 10368 11809 11802 11805 11812 10372 11813 11643 11814 11815 
1417 1418 1643 1642 1442 1443 1668 1667 10206 11646 11647 11639 10377 11817 11818 11810 10368 10375 11816 11809 11812 11819 10379 11820 11650 11821 11822 
1418 1419 1644 1643 1443 1444 1669 1668 10213 11653 11654 11646 10384 11824 11825 11817 10375 10382 11823 11816 11819 11826 10386 11827 11657 11828 11829 
1419 1420 1645 1644 1444 1445 1670 1669 10220 11660 11661 11653 10391 11831 11832 11824 10382 10389 11830 11823 11826 11833 10393 11834 11664 11835 11836 
1420 1421 1646 1645 1445 1446 1671 1670 10227 11667 11668 11660 10398 11838 11839 11831 10389 10396 11837 11830 11833 11840 10400 11841 11671 11842 11843 
1421 1422 1647 1646 1446 1447 1672 1671 10234 11674 11675 11667 10405 11845 11846 11838 10396 10403 11844 11837 11840 11847 10407 11848 11678 11849 11850 
1422 1423 1648 1647 1447 1448 1673 1672 10241 11681 11682 11674 10412 11852 11853 11845 10403 10410 11851 11844 11847 11854 10414 11855 11685 11856 11857 
1423 1424 1649 1648 1448 1449 1674 1673 10248 11688 11689 11681 10419 11859 11860 11852 10410 10417 11858 11851 11854 11861 10421 11862 11692 11863 11864 
1425 1426 1651 1650 1450 1451 1676 1675 10256 11696 11697 11698 10427 11867 11868 11869 10425 10424 11865 11866 11872 11870 10430 11871 11702 11873 11874 
1426 1427 1652 1651 1451 1452 1677 1676 10265 11705 11706 11696 10436 11876 11877 11867 10424 10434 11875 11865 11870 11878 10438 11879 11709 11880 11881 
1427 1428 1653 1652 1452 1453 1678 1677 10272 11712 11713 11705 10443 11883 11884 11876 10434 10441 11882 11875 11878 11885 10445 11886 11716 11887 11888 
1428 1429 1654 1653 1453 1454 1679 1678 10279 11719 11720 11712 10450 11890 11891 11883 10441 10448 11889 11882 11885 11892 10452 11893 11723 11894 11895 
1429 1430 1655 1654 1454 1455 1680 1679 10286 11726 11727 11719 10457 11897 11898 11890 10448 10455 11896 11889 11892 11899 10459 11900 11730 11901 11902 
1430 1431 1656 1655 1455 1456 1681 1680 10293 11733 11734 11726 10464 11904 11905 11897 10455 10462 11903 11896 11899 11906 10466 11907 11737 11908 11909 
1431 1432 1657 1656 1456 1457 1682 1681 10300 11740 11741 11733 10471 11911 11912 11904 10462 10469 11910 11903 11906 11913 10473 11914 11744 11915 11916 
1432 1433 1658 1657 1457 1458 1683 1682 10307 11747 11748 11740 10478 11918 11919 11911 10469 10476 11917 11910 11913 11920 10480 11921 11751 11922 11923 
1433 1434 1659 1658 1458 1459 1684 1683 10314 11754 11755 11747 10485 11925 11926 11918 10476 10483 11924 11917 11920 11927 10487 11928 11758 11929 11930 
1434 1435 1660 1659 1459 1460 1685 1684 10321 11761 11762 11754 10492 11932 11933 11925 10483 10490 11931 11924 11927 11934 10494 11935 11765 11936 11937 
1435 1436 1661 1660 1460 1461 1686 1685 10328 11768 11769 11761 10499 11939 11940 11932 10490 10497 11938 11931 11934 11941 10501 11942 11772 11943 11944 
1436 1437 1662 1661 1461 1462 1687 1686 10335 11775 11776 11768 10506 11946 11947 11939 10497 10504 11945 11938 11941 11948 10508 11949 11779 11950 11951 
1437 1438 1663 1662 1462 1463 1688 1687 10342 11782 11783 11775 10513 11953 11954 11946 10504 10511 11952 11945 11948 11955 10515 11956 11786 11957 11958 
1438 1439 1664 1663 1463 1464 1689 1688 10349 11789 11790 11782 10520 11960 11961 11953 10511 10518 11959 11952 11955 11962 10522 11963 11793 11964 11965 
1439 1440 1665 1664 1464 1465 1690 1689 10356 11796 11797 11789 10527 11967 11968 11960 10518 10525 11966 11959 11962 11969 10529 11970 11800 11971 11972 
1440 1441 1666 1665 1465 1466 1691 1690 10363 11803 11804 11796 10534 11974 11975 11967 10525 10532 11973 11966 11969 11976 10536 11977 11807 11978 11979 
1441 1442 1667 1666 1466 1467 1692 1691 10370 11810 11811 11803 10541 11981 11982 11974 10532 10539 11980 11973 11976 11983 10543 11984 11814 11985 11986 
1442 1443 1668 1667 1467 1468 1693 1692 10377 11817 11818 11810 10548 11988 11989 11981 10539 10546 11987 11980 11983 11990 10550 11991 11821 11992 11993 
1443 1444 1669 1668 1468 1469 1694 1693 10384 11824 11825 11817 10555 11995 11996 11988 10546 10553 11994 11987 11990 11997 10557 11998 11828 11999 12000 
1444 1445 1670 1669 1469 1470 1695 1694 10391 11831 11832 11824 10562 12002 12003 11995 10553 10560 12001 11994 11997 12004 10564 12005 11835 12006 12007 
1445 1446 1671 1670 1470 1471 1696 1695 10398 11838 11839 11831 10569 12009 12010 12002 10560 10567 12008 12001 12004 12011 10571 12012 11842 12013 12014 
1446 1447 1672 1671 1471 1472 1697 1696 10405 11845 11846 11838 10576 12016 12017 12009 10567 10574 12015 12008 12011 12018 10578 12019 11849 12020 12021 
1447 1448 1673 1672 1472 1473 1698 1697 10412 11852 11853 11845 10583 12023 12024 12016 10574 10581 12022 12015 12018 12025 10585 12026 11856 12027 12028 
1448 1449 1674 1673 1473 1474 1699 1698 10419 11859 11860 11852 10590 12030 12031 12023 10581 10588 12029 12022 12025 12032 10592 12033 11863 12034 12035 
1450 1451 1676 1675 1475 1476 1701 1700 10427 11867 11868 11869 10598 12038 12039 12040 10596 10595 12036 12037 12043 12041 10601 12042 11873 12044 12045 
1451 1452 1677 1676 1476 1477 1702 1701 10436 11876 11877 11867 10607 12047 12048 12038 10595 10605 12046 12036 12041 12049 10609 12050 11880 12051 12052 
1452 1453 1678 1677 1477 1478 1703 1702 10443 11883 11884 11876 10614 12054 12055 12047 10605 10612 12053 12046 12049 12056 10616 12057 11887 12058 12059 
1453 1454 1679 1678 1478 1479 1704 1703 10450 11890 11891 11883 10621 12061 12062 12054 10612 10619 12060 12053 12056 12063 10623 12064 11894 12065 12066 
1454 1455 1680 1679 1479 1480 1705 1704 10457 11897 11898 11890 10628 12068 12069 12061 10619 10626 12067 12060 12063 12070 10630 12071 11901 12072 12073 
1455 1456 1681 1680 1480 1481 1706 1705 10464 11904 11905 11897 10635 12075 12076 12068 10626 10633 12074 12067 12070 12077 10637 12078 11908 12079 12080 
1456 1457 1682 1681 1481 1482 1707 1706 10471 11911 11912 11904 10642 12082 12083 12075 10633 10640 12081 12074 12077 12084 10644 12085 11915 12086 12087 
1457 1458 1683 1682 1482 1483 1708 1707 10478 11918 11919 11911 10649 12089 12090 12082 10640 10647 12088 12081 12084 12091 10651 12092 11922 12093 12094 
1458 1459 1684 1683 1483 1484 1709 1708 10485 11925 11926 11918 10656 12096 12097 12089 10647 10654 12095 12088 12091 12098 10658 12099 11929 12100 12101 
1459 1460 1685 1684 1484 1485 1710 1709 10492 11932 11933 11925 10663 12103 12104 12096 10654 10661 12102 12095 12098 12105 10665 12106 11936 12107 12108 
1460 1461 1686 1685 1485 1486 1711 1710 10499 11939 11940 11932 10670 12110 12111 12103 10661 10668 12109 12102 12105 12112 10672 12113 11943 12114 12115 
1461 1462 1687 1686 1486 1487 1712 1711 10506 11946 11947 11939 10677 12117 12118 12110 10668 10675 12116 12109 12112 12119 10679 12120 11950 12121 12122 
1462 1463 1688 1687 1487 1488 1713 1712 10513 11953 11954 11946 10684 12124 12125 12117 10675 10682 12123 12116 12119 12126 10686 12127 11957 12128 12129 
1463 1464 1689 1688 1488 1489 1714 1713 10520 11960 11961 11953 10691 12131 12132 12124 10682 10689 12130 12123 12126 12133 10693 12134 11964 12135 12136 
1464 1465 1690 1689 1489 1490 1715 1714 10527 11967 11968 11960 10698 12138 12139 12131 10689 10696 12137 12130 12133 12140 10700 12141 11971 12142 12143 
1465 1466 1691 1690 1490 1491 1716 1715 10534 11974 11975 11967 10705 12145 12146 12138 10696 10703 12144 12137 12140 12147 10707 12148 11978 12149 12150 
1466 1467 1692 1691 1491 1492 1717 1716 10541 11981 11982 11974 10712 12152 12153 12145 10703 10710 12151 12144 12147 12154 10714 12155 11985 12156 12157 
1467 1468 1693 1692 1492 1493 1718 1717 10548 11988 11989 11981 10719 12159 12160 12152 10710 10717 12158 12151 12154 12161 10721 12162 11992 12163 12164 
1468 1469 1694 1693 1493 1494 1719 1718 10555 11995 11996 11988 10726 12166 12167 12159 10717 10724 12165 12158 12161 12168 10728 12169 11999 12170 12171 
1469 1470 1695 1694 1494 1495 1720 1719 10562 12002 12003 11995 10733 12173 12174 12166 10724 10731 12172 12165 12168 12175 10735 12176 12006 12177 12178 
1470 1471 1696 1695 1495 1496 1721 1720 10569 12009 12010 12002 10740 12180 12181 12173 10731 10738 12179 12172 12175 12182 10742 12183 12013 12184 12185 
1471 1472 1697 1696 1496 1497 1722 1721 10576 12016 12017 12009 10747 12187 12188 12180 10738 10745 12186 12179 12182 12189 10749 12190 12020 12191 12192 
1472 1473 1698 1697 1497 1498 1723 1722 10583 12023 12024 12016 10754 12194 12195 12187 10745 10752 12193 12186 12189 12196 10756 12197 12027 12198 12199 
1473 1474 1699 1698 1498 1499 1724 1723 10590 12030 12031 12023 10761 12201 12202 12194 10752 10759 12200 12193 12196 12203 10763 12204 12034 12205 12206 
1475 1476 1701 1700 1500 1501 1726 1725 10598 12038 12039 12040 10769 12209 12210 12211 10767 10766 12207 12208 12214 12212 10772 12213 12044 12215 12216 
1476 1477 1702 1701 1501 1502 1727 1726 10607 12047 12048 12038 10778 12218 12219 12209 10766 10776 12217 12207 12212 12220 10780 12221 12051 12222 12223 
1477 1478 1703 1702 1502 1503 1728 1727 10614 12054 12055 12047 10785 12225 12226 12218 10776 10783 12224 12217 12220 12227 10787 12228 12058 12229 12230 
1478 1479 1704 1703 1503 1504 1729 1728 10621 12061 12062 12054 10792 12232 12233 12225 10783 10790 12231 12224 12227 12234 10794 12235 12065 12236 12237 
1479 1480 1705 1704 1504 1505 1730 1729 10628 12068 12069 12061 10799 12239 12240 12232 10790 10797 12238 12231 12234 12241 10801 12242 12072 12243 12244 
1480 1481 1706 1705 1505 1506 1731 1730 10635 12075 12076 12068 10806 12246 12247 12239 10797 10804 12245 12238 12241 12248 10808 12249 12079 12250 12251 
1481 1482 1707 1706 1506 1507 1732 1731 10642 12082 12083 12075 10813 12253 12254 12246 10804 10811 12252 12245 12248 12255 10815 12256 12086 12257 12258 
1482 1483 1708 1707 1507 1508 1733 1732 10649 12089 12090 12082 10820 12260 12261 12253 10811 10818 12259 12252 12255 12262 10822 12263 12093 12264 12265 
1483 1484 1709 1708 1508 1509 1734 1733 10656 12096 12097 12089 10827 12267 12268 12260 10818 10825 12266 12259 12262 12269 10829 12270 12100 12271 12272 
1484 1485 1710 1709 1509 1510 1735 1734 10663 12103 12104 12096 10834 12274 12275 12267 10825 10832 12273 12266 12269 12276 10836 12277 12107 12278 12279 
1485 1486 1711 1710 1510 1511 1736 1735 10670 12110 12111 12103 10841 12281 12282 12274 10832 10839 12280 12273 12276 12283 10843 12284 12114 12285 12286 
1486 1487 1712 1711 1511 1512 1737 1736 10677 12117 12118 12110 10848 12288 12289 12281 10839 10846 12287 12280 12283 12290 10850 12291 12121 12292 12293 
1487 1488 1713 1712 1512 1513 1738 1737 10684 12124 12125 12117 10855 12295 12296 12288 10846 10853 12294 12287 12290 12297 10857 12298 12128 12299 12300 
1488 1489 1714 1713 1513 1514 1739 1738 10691 12131 12132 12124 10862 12302 12303 12295 10853 10860 12301 12294 12297 12304 10864 12305 12135 12306 12307 
1489 1490 1715 1714 1514 1515 1740 1739 10698 12138 12139 12131 10869 12309 12310 12302 10860 10867 12308 12301 12304 12311 10871 12312 12142 12313 12314 
1490 1491 1716 1715 1515 1516 1741 1740 10705 12145 12146 12138 10876 12316 12317 12309 10867 10874 12315 12308 12311 12318 10878 12319 12149 12320 12321 
1491 1492 1717 1716 1516 1517 1742 1741 10712 12152 12153 12145 10883 12323 12324 12316 10874 10881 12322 12315 12318 12325 10885 12326 12156 12327 12328 
1492 1493 1718 1717 1517 1518 1743 1742 10719 12159 12160 12152 10890 12330 12331 12323 10881 10888 12329 12322 12325 12332 10892 12333 12163 12334 12335 
1493 1494 1719 1718 1518 1519 1744 1743 10726 12166 12167 12159 10897 12337 12338 12330 10888 10895 12336 12329 12332 12339 10899 12340 12170 12341 12342 
1494 1495 1720 1719 1519 1520 1745 1744 10733 12173 12174 12166 10904 12344 12345 12337 10895 10902 12343 12336 12339 12346 10906 12347 12177 12348 12349 
1495 1496 1721 1720 1520 1521 1746 1745 10740 12180 12181 12173 10911 12351 12352 12344 10902 10909 12350 12343 12346 12353 10913 12354 12184 12355 12356 
1496 1497 1722 1721 1521 1522 1747 1746 10747 12187 12188 12180 10918 12358 12359 12351 10909 10916 12357 12350 12353 12360 10920 12361 12191 12362 12363 
1497 1498 1723 1722 1522 1523 1748 1747 10754 12194 12195 12187 10925 12365 12366 12358 10916 10923 12364 12357 12360 12367 10927 12368 12198 12369 12370 
1498 1499 1724 1723 1523 1524 1749 1748 10761 12201 12202 12194 10932 12372 12373 12365 10923 10930 12371 12364 12367 12374 10934 12375 12205 12376 12377 
1500 1501 1726 1725 1525 1526 1751 1750 10769 12209 12210 12211 10940 12380 12381 12382 10938 10937 12378 12379 12385 12383 10943 12384 12215 12386 12387 
1501 1502 1727 1726 1526 1527 1752 1751 10778 12218 12219 12209 10949 12389 12390 12380 10937 10947 12388 12378 12383 12391 10951 12392 12222 12393 12394 
1502 1503 1728 1727 1527 1528 1753 1752 10785 12225 12226 12218 10956 12396 12397 12389 10947 10954 12395 12388 12391 12398 10958 12399 12229 12400 12401 
1503 1504 1729 1728 1528 1529 1754 1753 10792 12232 12233 12225 10963 12403 12404 12396 10954 10961 12402 12395 12398 12405 10965 12406 12236 12407 12408 
1504 1505 1730 1729 1529 1530 1755 1754 10799 12239 12240 12232 10970 12410 12411 12403 10961 10968 12409 12402 12405 12412 10972 12413 12243 12414 12415 
1505 1506 1731 1730 1530 1531 1756 1755 10806 12246 12247 12239 10977 12417 12418 12410 10968 10975 12416 12409 12412 12419 10979 12420 12250 12421 12422 
1506 1507 1732 1731 1531 1532 1757 1756 10813 12253 12254 12246 10984 12424 12425 12417 10975 10982 12423 12416 12419 12426 10986 12427 12257 12428 12429 
1507 1508 1733 1732 1532 1533 1758 1757 10820 12260 12261 12253 10991 12431 12432 12424 10982 10989 12430 12423 12426 12433 10993 12434 12264 12435 12436 
1508 1509 1734 1733 1533 1534 1759 1758 10827 12267 12268 12260 10998 12438 12439 12431 10989 10996 12437 12430 12433 12440 11000 12441 12271 12442 12443 
1509 1510 1735 1734 1534 1535 1760 1759 10834 12274 12275 12267 11005 12445 12446 12438 10996 11003 12444 12437 12440 12447 11007 12448 12278 12449 12450 
1510 1511 1736 1735 1535 1536 1761 1760 10841 12281 12282 12274 11012 12452 12453 12445 11003 11010 12451 12444 12447 12454 11014 12455 12285 12456 12457 
1511 1512 1737 1736 1536 1537 1762 1761 10848 12288 12289 12281 11019 12459 12460 12452 11010 11017 12458 12451 12454 12461 11021 12462 12292 12463 12464 
1512 1513 1738 1737 1537 1538 1763 1762 10855 12295 12296 12288 11026 12466 12467 12459 11017 11024 12465 12458 12461 12468 11028 12469 12299 12470 12471 
1513 1514 1739 1738 1538 1539 1764 1763 10862 12302 12303 12295 11033 12473 12474 12466 11024 11031 12472 12465 12468 12475 11035 12476 12306 12477 12478 
1514 1515 1740 1739 1539 1540 1765 1764 10869 12309 12310 12302 11040 12480 12481 12473 11031 11038 12479 12472 12475 12482 11042 12483 12313 12484 12485 
1515 1516 1741 1740 1540 1541 1766 1765 10876 12316 12317 12309 11047 12487 12488 12480 11038 11045 12486 12479 12482 12489 11049 12490 12320 12491 12492 
1516 1517 1742 1741 1541 1542 1767 1766 10883 12323 12324 12316 11054 12494 12495 12487 11045 11052 12493 12486 12489 12496 11056 12497 12327 12498 12499 
1517 1518 1743 1742 1542 1543 1768 1767 10890 12330 12331 12323 11061 12501 12502 12494 11052 11059 12500 12493 12496 12503 11063 12504 12334 12505 12506 
1518 1519 1744 1743 1543 1544 1769 1768 10897 12337 12338 12330 11068 12508 12509 12501 11059 11066 12507 12500 12503 12510 11070 12511 12341 12512 12513 
1519 1520 1745 1744 1544 1545 1770 1769 10904 12344 12345 12337 11075 12515 12516 12508 11066 11073 12514 12507 12510 12517 11077 12518 12348 12519 12520 
1520 1521 1746 1745 1545 1546 1771 1770 10911 12351 12352 12344 11082 12522 12523 12515 11073 11080 12521 12514 12517 12524 11084 12525 12355 12526 12527 
1521 1522 1747 1746 1546 1547 1772 1771 10918 12358 12359 12351 11089 12529 12530 12522 11080 11087 12528 12521 12524 12531 11091 12532 12362 12533 12534 
1522 1523 1748 1747 1547 1548 1773 1772 10925 12365 12366 12358 11096 12536 12537 12529 11087 11094 12535 12528 12531 12538 11098 12539 12369 12540 12541 
1523 1524 1749 1748 1548 1549 1774 1773 10932 12372 12373 12365 11103 12543 12544 12536 11094 11101 12542 12535 12538 12545 11105 12546 12376 12547 12548 
1525 1526 1751 1750 1550 1551 1776 1775 10940 12380 12381 12382 11111 12551 12552 12553 11109 11108 12549 12550 12556 12554 11114 12555 12386 12557 12558 
1526 1527 1752 1751 1551 1552 1777 1776 10949 12389 12390 12380 11120 12560 12561 12551 11108 11118 12559 12549 12554 12562 11122 12563 12393 12564 12565 
1527 1528 1753 1752 1552 1553 1778 1777 10956 12396 12397 12389 11127 12567 12568 12560 11118 11125 12566 12559 12562 12569 11129 12570 12400 12571 12572 
1528 1529 1754 1753 1553 1554 1779 1778 10963 12403 12404 12396 11134 12574 12575 12567 11125 11132 12573 12566 12569 12576 11136 12577 12407 12578 12579 
1529 1530 1755 1754 1554 1555 1780 1779 10970 12410 12411 12403 11141 12581 12582 12574 11132 11139 12580 12573 12576 12583 11143 12584 12414 12585 12586 
1530 1531 1756 1755 1555 1556 1781 1780 10977 12417 12418 12410 11148 12588 12589 12581 11139 11146 12587 12580 12583 12590 11150 12591 12421 12592 12593 
1531 1532 1757 1756 1556 1557 1782 1781 10984 12424 12425 12417 11155 12595 12596 12588 11146 11153 12594 12587 12590 12597 11157 12598 12428 12599 12600 
1532 1533 1758 1757 1557 1558 1783 1782 10991 12431 12432 12424 11162 12602 12603 12595 11153 11160 12601 12594 12597 12604 11164 12605 12435 12606 12607 
1533 1534 1759 1758 1558 1559 1784 1783 10998 12438 12439 12431 11169 12609 12610 12602 11160 11167 12608 12601 12604 12611 11171 12612 12442 12613 12614 
1534 1535 1760 1759 1559 1560 1785 1784 11005 12445 12446 12438 11176 12616 12617 12609 11167 11174 12615 12608 12611 12618 11178 12619 12449 12620 12621 
1535 1536 1761 1760 1560 1561 1786 1785 11012 12452 12453 12445 11183 12623 12624 12616 11174 11181 12622 12615 12618 12625 11185 12626 12456 12627 12628 
1536 1537 1762 1761 1561 1562 1787 1786 11019 12459 12460 12452 11190 12630 12631 12623 11181 11188 12629 12622 12625 12632 11192 12633 12463 12634 12635 
1537 1538 1763 1762 1562 1563 1788 1787 11026 12466 12467 12459 11197 12637 12638 12630 11188 11195 12636 12629 12632 12639 11199 12640 12470 12641 12642 
1538 1539 1764 1763 1563 1564 1789 1788 11033 12473 12474 12466 11204 12644 12645 12637 11195 11202 12643 12636 12639 12646 11206 12647 12477 12648 12649 
1539 1540 1765 1764 1564 1565 1790 1789 11040 12480 12481 12473 11211 12651 12652 12644 11202 11209 12650 12643 12646 12653 11213 12654 12484 12655 12656 
1540 1541 1766 1765 1565 1566 1791 1790 11047 12487 12488 12480 11218 12658 12659 12651 11209 11216 12657 12650 12653 12660 11220 12661 12491 12662 12663 
1541 1542 1767 1766 1566 1567 1792 1791 11054 12494 12495 12487 11225 12665 12666 12658 11216 11223 12664 12657 12660 12667 11227 12668 12498 12669 12670 
1542 1543 1768 1767 1567 1568 1793 1792 11061 12501 12502 12494 11232 12672 12673 12665 11223 11230 12671 12664 12667 12674 11234 12675 12505 12676 12677 
1543 1544 1769 1768 1568 1569 1794 1793 11068 12508 12509 12501 11239 12679 12680 12672 11230 11237 12678 12671 12674 12681 11241 12682 12512 12683 12684 
1544 1545 1770 1769 1569 1570 1795 1794 11075 12515 12516 12508 11246 12686 12687 12679 11237 11244 12685 12678 12681 12688 11248 12689 12519 12690 12691 
1545 1546 1771 1770 1570 1571 1796 1795 11082 12522 12523 12515 11253 12693 12694 12686 11244 11251 12692 12685 12688 12695 11255 12696 12526 12697 12698 
1546 1547 1772 1771 1571 1572 1797 1796 11089 12529 12530 12522 11260 12700 12701 12693 11251 11258 12699 12692 12695 12702 11262 12703 12533 12704 12705 
1547 1548 1773 1772 1572 1573 1798 1797 11096 12536 12537 12529 11267 12707 12708 12700 11258 11265 12706 12699 12702 12709 11269 12710 12540 12711 12712 
1548 1549 1774 1773 1573 1574 1799 1798 11103 12543 12544 12536 11274 12714 12715 12707 11265 11272 12713 12706 12709 12716 11276 12717 12547 12718 12719 
1575 1576 1801 1800 1600 1601 1826 1825 11280 12720 12721 12722 11285 12725 12726 12727 11283 11282 12723 12724 12731 12729 11289 12730 12728 12732 12733 
1576 1577 1802 1801 1601 1602 1827 1826 11294 12734 12735 12720 11297 12737 12738 12725 11282 11295 12736 12723 12729 12740 11300 12741 12739 12742 12743 
1577 1578 1803 1802 1602 1603 1828 1827 11304 12744 12745 12734 11307 12747 12748 12737 11295 11305 12746 12736 12740 12750 11310 12751 12749 12752 12753 
1578 1579 1804 1803 1603 1604 1829 1828 11314 12754 12755 12744 11317 12757 12758 12747 11305 11315 12756 12746 12750 12760 11320 12761 12759 12762 12763 
1579 1580 1805 1804 1604 1605 1830 1829 11324 12764 12765 12754 11327 12767 12768 12757 11315 11325 12766 12756 12760 12770 11330 12771 12769 12772 12773 
1580 1581 1806 1805 1605 1606 1831 1830 11334 12774 12775 12764 11337 12777 12778 12767 11325 11335 12776 12766 12770 12780 11340 12781 12779 12782 12783 
1581 1582 1807 1806 1606 1607 1832 1831 11344 12784 12785 12774 11347 12787 12788 12777 11335 11345 12786 12776 12780 12790 11350 12791 12789 12792 12793 
1582 1583 1808 1807 1607 1608 1833 1832 11354 12794 12795 12784 11357 12797 12798 12787 11345 11355 12796 12786 12790 12800 11360 12801 12799 12802 12803 
1583 1584 1809 1808 1608 1609 1834 1833 11364 12804 12805 12794 11367 12807 12808 12797 11355 11365 12806 12796 12800 12810 11370 12811 12809 12812 12813 
1584 1585 1810 1809 1609 1610 1835 1834 11374 12814 12815 12804 11377 12817 12818 12807 11365 11375 12816 12806 12810 12820 11380 12821 12819 12822 12823 
1585 1586 1811 1810 1610 1611 1836 1835 11384 12824 12825 12814 11387 12827 12828 12817 11375 11385 12826 12816 12820 12830 11390 12831 12829 12832 12833 
1586 1587 1812 1811 1611 1612 1837 1836 11394 12834 12835 12824 11397 12837 12838 12827 11385 11395 12836 12826 12830 12840 11400 12841 12839 12842 12843 
1587 1588 1813 1812 1612 1613 1838 1837 11404 12844 12845 12834 11407 12847 12848 12837 11395 11405 12846 12836 12840 12850 11410 12851 12849 12852 12853 
1588 1589 1814 1813 1613 1614 1839 1838 11414 12854 12855 12844 11417 12857 12858 12847 11405 11415 12856 12846 12850 12860 11420 12861 12859 12862 12863 
1589 1590 1815 1814 1614 1615 1840 1839 11424 12864 12865 12854 11427 12867 12868 12857 11415 11425 12866 12856 12860 12870 11430 12871 12869 12872 12873 
1590 1591 1816 1815 1615 1616 1841 1840 11434 12874 12875 12864 11437 12877 12878 12867 11425 11435 12876 12866 12870 12880 11440 12881 12879 12882 12883 
1591 1592 1817 1816 1616 1617 1842 1841 11444 12884 12885 12874 11447 12887 12888 12877 11435 11445 12886 12876 12880 12890 11450 12891 12889 12892 12893 
1592 1593 1818 1817 1617 1618 1843 1842 11454 12894 12895 12884 11457 12897 12898 12887 11445 11455 12896 12886 12890 12900 11460 12901 12899 12902 12903 
1593 1594 1819 1818 1618 1619 1844 1843 11464 12904 12905 12894 11467 12907 12908 12897 11455 11465 12906 12896 12900 12910 11470 12911 12909 12912 12913 
1594 1595 1820 1819 1619 1620 1845 1844 11474 12914 12915 12904 11477 12917 12918 12907 11465 11475 12916 12906 12910 12920 11480 12921 12919 12922 12923 
1595 1596 1821 1820 1620 1621 1846 1845 11484 12924 12925 12914 11487 12927 12928 12917 11475 11485 12926 12916 12920 12930 11490 12931 12929 12932 12933 
1596 1597 1822 1821 1621 1622 1847 1846 11494 12934 12935 12924 11497 12937 12938 12927 11485 11495 12936 12926 12930 12940 11500 12941 12939 12942 12943 
1597 1598 1823 1822 1622 1623 1848 1847 11504 12944 12945 12934 11507 12947 12948 12937 11495 11505 12946 12936 12940 12950 11510 12951 12949 12952 12953 
1598 1599 1824 1823 1623 1624 1849 1848 11514 12954 12955 12944 11517 12957 12958 12947 11505 11515 12956 12946 12950 12960 11520 12961 12959 12962 12963 
1600 1601 1826 1825 1625 1626 1851 1850 11285 12725 12726 12727 11526 12966 12967 12968 11524 11523 12964 12965 12971 12969 11529 12970 12732 12972 12973 
1601 1602 1827 1826 1626 1627 1852 1851 11297 12737 12738 12725 11535 12975 12976 12966 11523 11533 12974 12964 12969 12977 11537 12978 12742 12979 12980 
1602 1603 1828 1827 1627 1628 1853 1852 11307 12747 12748 12737 11542 12982 12983 12975 11533 11540 12981 12974 12977 12984 11544 12985 12752 12986 12987 
1603 1604 1829 1828 1628 1629 1854 1853 11317 12757 12758 12747 11549 12989 12990 12982 11540 11547 12988 12981 12984 12991 11551 12992 12762 12993 12994 
1604 1605 1830 1829 1629 1630 1855 1854 11327 12767 12768 12757 11556 12996 12997 12989 11547 11554 12995 12988 12991 12998 11558 12999 12772 13000 13001 
1605 1606 1831 1830 1630 1631 1856 1855 11337 12777 12778 12767 11563 13003 13004 12996 11554 11561 13002 12995 12998 13005 11565 13006 12782 13007 13008 
1606 1607 1832 1831 1631 1632 1857 1856 11347 12787 12788 12777 11570 13010 13011 13003 11561 11568 13009 13002 13005 13012 11572 13013 12792 13014 13015 
1607 1608 1833 1832 1632 1633 1858 1857 11357 12797 12798 12787 11577 13017 13018 13010 11568 11575 13016 13009 13012 13019 11579 13020 12802 13021 13022 
1608 1609 1834 1833 1633 1634 1859 1858 11367 12807 12808 12797 11584 13024 13025 13017 11575 11582 13023 13016 13019 13026 11586 13027 12812 13028 13029 
1609 1610 1835 1834 1634 1635 1860 1859 11377 12817 12818 12807 11591 13031 13032 13024 11582 11589 13030 13023 13026 13033 11593 13034 12822 13035 13036 
1610 1611 1836 1835 1635 1636 1861 1860 11387 12827 12828 12817 11598 13038 13039 13031 11589 11596 13037 13030 13033 13040 11600 13041 12832 13042 13043 
1611 1612 1837 1836 1636 1637 1862 1861 11397 12837 12838 12827 11605 13045 13046 13038 11596 11603 13044 13037 13040 13047 11607 13048 12842 13049 13050 
1612 1613 1838 1837 1637 1638 1863 1862 11407 12847 12848 12837 11612 13052 13053 13045 11603 11610 13051 13044 13047 13054 11614 13055 12852 13056 13057 
1613 1614 1839 1838 1638 1639 1864 1863 11417 12857 12858 12847 11619 13059 13060 13052 11610 11617 13058 13051 13054 13061 11621 13062 12862 13063 13064 
1614 1615 1840 1839 1639 1640 1865 1864 11427 12867 12868 12857 11626 13066 13067 13059 11617 11624 13065 13058 13061 13068 11628 13069 12872 13070 13071 
1615 1616 1841 1840 1640 1641 1866 1865 11437 12877 12878 12867 11633 13073 13074 13066 11624 11631 13072 13065 13068 13075 11635 13076 12882 13077 13078 
1616 1617 1842 1841 1641 1642 1867 1866 11447 12887 12888 12877 11640 13080 13081 13073 11631 11638 13079 13072 13075 13082 11642 13083 12892 13084 13085 
1617 1618 1843 1842 1642 1643 1868 1867 11457 12897 12898 12887 11647 13087 13088 13080 11638 11645 13086 13079 13082 13089 11649 13090 12902 13091 13092 
1618 1619 1844 1843 1643 1644 1869 1868 11467 12907 12908 12897 11654 13094 13095 13087 11645 11652 13093 13086 13089 13096 11656 13097 12912 13098 13099 
1619 1620 1845 1844 1644 1645 1870 1869 11477 12917 12918 12907 11661 13101 13102 13094 11652 11659 13100 13093 13096 13103 11663 13104 12922 13105 13106 
1620 1621 1846 1845 1645 1646 1871 1870 11487 12927 12928 12917 11668 13108 13109 13101 11659 11666 13107 13100 13103 13110 11670 13111 12932 13112 13113 
1621 1622 1847 1846 1646 1647 1872 1871 11497 12937 12938 12927 11675 13115 13116 13108 11666 11673 13114 13107 13110 13117 11677 13118 12942 13119 13120 
1622 1623 1848 1847 1647 1648 1873 1872 11507 12947 12948 12937 11682 13122 13123 13115 11673 11680 13121 13114 13117 13124 11684 13125 12952 13126 13127 
1623 1624 1849 1848 1648 1649 1874 1873 11517 12957 12958 12947 11689 13129 13130 13122 11680 11687 13128 13121 13124 13131 11691 13132 12962 13133 13134 
1625 1626 1851 1850 1650 1651 1876 1875 11526 12966 12967 12968 11697 13137 13138 13139 11695 11694 13135 13136 13142 13140 11700 13141 12972 13143 13144 
1626 1627 1852 1851 1651 1652 1877 1876 11535 12975 12976 12966 11706 13146 13147 13137 11694 11704 13145 13135 13140 13148 11708 13149 12979 13150 13151 
1627 1628 1853 1852 1652 1653 1878 1877 11542 12982 12983 12975 11713 13153 13154 13146 11704 11711 13152 13145 13148 13155 11715 13156 12986 13157 13158 
1628 1629 1854 1853 1653 1654 1879 1878 11549 12989 12990 12982 11720 13160 13161 13153 11711 11718 13159 13152 13155 13162 11722 13163 12993 13164 13165 
1629 1630 1855 1854 1654 1655 1880 1879 11556 12996 12997 12989 11727 13167 13168 13160 11718 11725 13166 13159 13162 13169 11729 13170 13000 13171 13172 
1630 1631 1856 1855 1655 1656 1881 1880 11563 13003 13004 12996 11734 13174 13175 13167 11725 11732 13173 13166 13169 13176 11736 13177 13007 13178 13179 
1631 1632 1857 1856 1656 1657 1882 1881 11570 13010 13011 13003 11741 13181 13182 13174 11732 11739 13180 13173 13176 13183 11743 13184 13014 13185 13186 
1632 1633 1858 1857 1657 1658 1883 1882 11577 13017 13018 13010 11748 13188 13189 13181 11739 11746 13187 13180 13183 13190 11750 13191 13021 13192 13193 
1633 1634 1859 1858 1658 1659 1884 1883 11584 13024 13025 13017 11755 13195 13196 13188 11746 11753 13194 13187 13190 13197 11757 13198 13028 13199 13200 
1634 1635 1860 1859 1659 1660 1885 1884 11591 13031 13032 13024 11762 13202 13203 13195 11753 11760 13201 13194 13197 13204 11764 13205 13035 13206 13207 
1635 1636 1861 1860 1660 1661 1886 1885 11598 13038 13039 13031 11769 13209 13210 13202 11760 11767 13208 13201 13204 13211 11771 13212 13042 13213 13214 
1636 1637 1862 1861 1661 1662 1887 1886 11605 13045 13046 13038 11776 13216 13217 13209 11767 11774 13215 13208 13211 13218 11778 13219 13049 13220 13221 
1637 1638 1863 1862 1662 1663 1888 1887 11612 13052 13053 13045 11783 13223 13224 13216 11774 11781 13222 13215 13218 13225 11785 13226 13056 13227 13228 
1638 1639 1864 1863 1663 1664 1889 1888 11619 13059 13060 13052 11790 13230 13231 13223 11781 11788 13229 13222 13225 13232 11792 13233 13063 13234 13235 
1639 1640 1865 1864 1664 1665 1890 1889 11626 13066 13067 13059 11797 13237 13238 13230 11788 11795 13236 13229 13232 13239 11799 13240 13070 13241 13242 
1640 1641 1866 1865 1665 1666 1891 1890 11633 13073 13074 13066 11804 13244 13245 13237 11795 11802 13243 13236 13239 13246 11806 13247 13077 13248 13249 
1641 1642 1867 1866 1666 1667 1892 1891 11640 13080 13081 13073 11811 13251 13252 13244 11802 11809 13250 13243 13246 13253 11813 13254 13084 13255 13256 
1642 1643 1868 1867 1667 1668 1893 1892 11647 13087 13088 13080 11818 13258 13259 13251 11809 11816 13257 13250 13253 13260 11820 13261 13091 13262 13263 
1643 1644 1869 1868 1668 1669 1894 1893 11654 13094 13095 13087 11825 13265 13266 13258 11816 11823 13264 13257 13260 13267 11827 13268 13098 13269 13270 
1644 1645 1870 1869 1669 1670 1895 1894 11661 13101 13102 13094 11832 13272 13273 13265 11823 11830 13271 13264 13267 13274 11834 13275 13105 13276 13277 
1645 1646 1871 1870 1670 1671 1896 1895 11668 13108 13109 13101 11839 13279 13280 13272 11830 11837 13278 13271 13274 13281 11841 13282 13112 13283 13284 
1646 1647 1872 1871 1671 1672 1897 1896 11675 13115 13116 13108 11846 13286 13287 13279 11837 11844 13285 13278 13281 13288 11848 13289 13119 13290 13291 
1647 1648 1873 1872 1672 1673 1898 1897 11682 13122 13123 13115 11853 13293 13294 13286 11844 11851 13292 13285 13288 13295 11855 13296 13126 13297 13298 
1648 1649 1874 1873 1673 1674 1899 1898 11689 13129 13130 13122 11860 13300 13301 13293 11851 11858 13299 13292 13295 13302 11862 13303 13133 13304 13305 
1650 1651 1876 1875 1675 1676 1901 1900 11697 13137 13138 13139 11868 13308 13309 13310 11866 11865 13306 13307 13313 13311 11871 13312 13143 13314 13315 
1651 1652 1877 1876 1676 1677 1902 1901 11706 13146 13147 13137 11877 13317 13318 13308 11865 11875 13316 13306 13311 13319 11879 13320 13150 13321 13322 
1652 1653 1878 1877 1677 1678 1903 1902 11713 13153 13154 13146 11884 13324 13325 13317 11875 11882 13323 13316 13319 13326 11886 13327 13157 13328 13329 
1653 1654 1879 1878 1678 1679 1904 1903 11720 13160 13161 13153 11891 13331 13332 13324 11882 11889 13330 13323 13326 13333 11893 13334 13164 13335 13336 
1654 1655 1880 1879 1679 1680 1905 1904 11727 13167 13168 13160 11898 13338 13339 13331 11889 11896 13337 13330 13333 13340 11900 13341 13171 13342 13343 
1655 1656 1881 1880 1680 1681 1906 1905 11734 13174 13175 13167 11905 13345 13346 13338 11896 11903 13344 13337 13340 13347 11907 13348 13178 13349 13350 
1656 1657 1882 1881 1681 1682 1907 1906 11741 13181 13182 13174 11912 13352 13353 13345 11903 11910 13351 13344 13347 13354 11914 13355 13185 13356 13357 
1657 1658 1883 1882 1682 1683 1908 1907 11748 13188 13189 13181 11919 13359 13360 13352 11910 11917 13358 13351 13354 13361 11921 13362 13192 13363 13364 
1658 1659 1884 1883 1683 1684 1909 1908 11755 13195 13196 13188 11926 13366 13367 13359 11917 11924 13365 13358 13361 13368 11928 13369 13199 13370 13371 
1659 1660 1885 1884 1684 1685 1910 1909 11762 13202 13203 13195 11933 13373 13374 13366 11924 11931 13372 13365 13368 13375 11935 13376 13206 13377 13378 
1660 1661 1886 1885 1685 1686 1911 1910 11769 13209 13210 13202 11940 13380 13381 13373 11931 11938 13379 13372 13375 13382 11942 13383 13213 13384 13385 
1661 1662 1887 1886 1686 1687 1912 1911 11776 13216 13217 13209 11947 13387 13388 13380 11938 11945 13386 13379 13382 13389 11949 13390 13220 13391 13392 
1662 1663 1888 1887 1687 1688 1913 1912 11783 13223 13224 13216 11954 13394 13395 13387 11945 11952 13393 13386 13389 13396 11956 13397 13227 13398 13399 
1663 1664 1889 1888 1688 1689 1914 1913 11790 13230 13231 13223 11961 13401 13402 13394 11952 11959 13400 13393 13396 13403 11963 13404 13234 13405 13406 
1664 1665 1890 1889 1689 1690 1915 1914 11797 13237 13238 13230 11968 13408 13409 13401 11959 11966 13407 13400 13403 13410 11970 13411 13241 13412 13413 
1665 1666 1891 1890 1690 1691 1916 1915 11804 13244 13245 13237 11975 13415 13416 13408 11966 11973 13414 13407 13410 13417 11977 13418 13248 13419 13420 
1666 1667 1892 1891 1691 1692 1917 1916 11811 13251 13252 13244 11982 13422 13423 13415 11973 11980 13421 13414 13417 13424 11984 13425 13255 13426 13427 
1667 1668 1893 1892 1692 1693 1918 1917 11818 13258 13259 13251 11989 13429 13430 13422 11980 11987 13428 13421 13424 13431 11991 13432 13262 13433 13434 
1668 1669 1894 1893 1693 1694 1919 1918 11825 13265 13266 13258 11996 13436 13437 13429 11987 11994 13435 13428 13431 13438 11998 13439 13269 13440 13441 
1669 1670 1895 1894 1694 1695 1920 1919 11832 13272 13273 13265 12003 13443 13444 13436 11994 12001 13442 13435 13438 13445 12005 13446 13276 13447 13448 
1670 1671 1896 1895 1695 1696 1921 1920 11839 13279 13280 13272 12010 13450 13451 13443 12001 12008 13449 13442 13445 13452 12012 13453 13283 13454 13455 
1671 1672 1897 1896 1696 1697 1922 1921 11846 13286 13287 13279 12017 13457 13458 13450 12008 12015 13456 13449 13452 13459 12019 13460 13290 13461 13462 
1672 1673 1898 1897 1697 1698 1923 1922 11853 13293 13294 13286 12024 13464 13465 13457 12015 12022 13463 13456 13459 13466 12026 13467 13297 13468 13469 
1673 1674 1899 1898 1698 1699 1924 1923 11860 13300 13301 13293 12031 13471 13472 13464 12022 12029 13470 13463 13466 13473 12033 13474 13304 13475 13476 
1675 1676 1901 1900 1700 1701 1926 1925 11868 13308 13309 13310 12039 13479 13480 13481 12037 12036 13477 13478 13484 13482 12042 13483 13314 13485 13486 
1676 1677 1902 1901 1701 1702 1927 1926 11877 13317 13318 13308 12048 13488 13489 13479 12036 12046 13487 13477 13482 13490 12050 13491 13321 13492 13493 
1677 1678 1903 1902 1702 1703 1928 1927 11884 13324 13325 13317 12055 13495 13496 13488 12046 12053 13494 13487 13490 13497 12057 13498 13328 13499 13500 
1678 1679 1904 1903 1703 1704 1929 1928 11891 13331 13332 13324 12062 13502 13503 13495 12053 12060 13501 13494 13497 13504 12064 13505 13335 13506 13507 
1679 1680 1905 1904 1704 1705 1930 1929 11898 13338 13339 13331 12069 13509 13510 13502 12060 12067 13508 13501 13504 13511 12071 13512 13342 13513 13514 
1680 1681 1906 1905 1705 1706 1931 1930 11905 13345 13346 13338 12076 13516 13517 13509 12067 12074 13515 13508 13511 13518 12078 13519 13349 13520 13521 
1681 1682 1907 1906 1706 1707 1932 1931 11912 13352 13353 13345 12083 13523 13524 13516 12074 12081 13522 13515 13518 13525 12085 13526 13356 13527 13528 
1682 1683 1908 1907 1707 1708 1933 1932 11919 13359 13360 13352 12090 13530 13531 13523 12081 12088 13529 13522 13525 13532 12092 13533 13363 13534 13535 
1683 1684 1909 1908 1708 1709 1934 1933 11926 13366 13367 13359 12097 13537 13538 13530 12088 12095 13536 13529 13532 13539 12099 13540 13370 13541 13542 
1684 1685 1910 1909 1709 1710 1935 1934 11933 13373 13374 13366 12104 13544 13545 13537 12095 12102 13543 13536 13539 13546 12106 13547 13377 13548 13549 
1685 1686 1911 1910 1710 1711 1936 1935 11940 13380 13381 13373 12111 13551 13552 13544 12102 12109 13550 13543 13546 13553 12113 13554 13384 13555 13556 
1686 1687 1912 1911 1711 1712 1937 1936 11947 13387 13388 13380 12118 13558 13559 13551 12109 12116 13557 13550 13553 13560 12120 13561 13391 13562 13563 
1687 1688 1913 1912 1712 1713 1938 1937 11954 13394 13395 13387 12125 13565 13566 13558 12116 12123 13564 13557 13560 13567 12127 13568 13398 13569 13570 
1688 1689 1914 1913 1713 1714 1939 1938 11961 13401 13402 13394 12132 13572 13573 13565 12123 12130 13571 13564 13567 13574 12134 13575 13405 13576 13577 
1689 1690 1915 1914 1714 1715 1940 1939 11968 13408 13409 13401 12139 13579 13580 13572 12130 12137 13578 13571 13574 13581 12141 13582 13412 13583 13584 
1690 1691 1916 1915 1715 1716 1941 1940 11975 13415 13416 13408 12146 13586 13587 13579 12137 12144 13585 13578 13581 13588 12148 13589 13419 13590 13591 
1691 1692 1917 1916 1716 1717 1942 1941 11982 13422 13423 13415 12153 13593 13594 13586 12144 12151 13592 13585 13588 13595 12155 13596 13426 13597 13598 
1692 1693 1918 1917 1717 1718 1943 1942 11989 13429 13430 13422 12160 13600 13601 13593 12151 12158 13599 13592 13595 13602 12162 13603 13433 13604 13605 
1693 1694 1919 1918 1718 1719 1944 1943 11996 13436 13437 13429 12167 13607 13608 13600 12158 12165 13606 13599 13602 13609 12169 13610 13440 13611 13612 
1694 1695 1920 1919 1719 1720 1945 1944 12003 13443 13444 13436 12174 13614 13615 13607 12165 12172 13613 13606 13609 13616 12176 13617 13447 13618 13619 
1695 1696 1921 1920 1720 1721 1946 1945 12010 13450 13451 13443 12181 13621 13622 13614 12172 12179 13620 13613 13616 13623 12183 13624 13454 13625 13626 
1696 1697 1922 1921 1721 1722 1947 1946 12017 13457 13458 13450 12188 13628 13629 13621 12179 12186 13627 13620 13623 13630 12190 13631 13461 13632 13633 
1697 1698 1923 1922 1722 1723 1948 1947 12024 13464 13465 13457 12195 13635 13636 13628 12186 12193 13634 13627 13630 13637 12197 13638 13468 13639 13640 
1698 1699 1924 1923 1723 1724 1949 1948 12031 13471 13472 13464 12202 13642 13643 13635 12193 12200 13641 13634 13637 13644 12204 13645 13475 13646 13647 
1700 1701 1926 1925 1725 1726 1951 1950 12039 13479 13480 13481 12210 13650 13651 13652 12208 12207 13648 13649 13655 13653 12213 13654 13485 13656 13657 
1701 1702 1927 1926 1726 1727 1952 1951 12048 13488 13489 13479 12219 13659 13660 13650 12207 12217 13658 13648 13653 13661 12221 13662 13492 13663 13664 
1702 1703 1928 1927 1727 1728 1953 1952 12055 13495 13496 13488 12226 13666 13667 13659 12217 12224 13665 13658 13661 13668 12228 13669 13499 13670 13671 
1703 1704 1929 1928 1728 1729 1954 1953 12062 13502 13503 13495 12233 13673 13674 13666 12224 12231 13672 13665 13668 13675 12235 13676 13506 13677 13678 
1704 1705 1930 1929 1729 1730 1955 1954 12069 13509 13510 13502 12240 13680 13681 13673 12231 12238 13679 13672 13675 13682 12242 13683 13513 13684 13685 
1705 1706 1931 1930 1730 1731 1956 1955 12076 13516 13517 13509 12247 13687 13688 13680 12238 12245 13686 13679 13682 13689 12249 13690 13520 13691 13692 
1706 1707 1932 1931 1731 1732 1957 1956 12083 13523 13524 13516 12254 13694 13695 13687 12245 12252 13693 13686 13689 13696 12256 13697 13527 13698 13699 
1707 1708 1933 1932 1732 1733 1958 1957 12090 13530 13531 13523 12261 13701 13702 13694 12252 12259 13700 13693 13696 13703 12263 13704 13534 13705 13706 
1708 1709 1934 1933 1733 1734 1959 1958 12097 13537 13538 13530 12268 13708 13709 13701 12259 12266 13707 13700 13703 13710 12270 13711 13541 13712 13713 
1709 1710 1935 1934 1734 1735 1960 1959 12104 13544 13545 13537 12275 13715 13716 13708 12266 12273 13714 13707 13710 13717 12277 13718 13548 13719 13720 
1710 1711 1936 1935 1735 1736 1961 1960 12111 13551 13552 13544 12282 13722 13723 13715 12273 12280 13721 13714 13717 13724 12284 13725 13555 13726 13727 
1711 1712 1937 1936 1736 1737 1962 1961 12118 13558 13559 13551 12289 13729 13730 13722 12280 12287 13728 13721 13724 13731 12291 13732 13562 13733 13734 
1712 1713 1938 1937 1737 1738 1963 1962 12125 13565 13566 13558 12296 13736 13737 13729 12287 12294 13735 13728 13731 13738 12298 13739 13569 13740 13741 
1713 1714 1939 1938 1738 1739 1964 1963 12132 13572 13573 13565 12303 13743 13744 13736 12294 12301 13742 13735 13738 13745 12305 13746 13576 13747 13748 
1714 1715 1940 1939 1739 1740 1965 1964 12139 13579 13580 13572 12310 13750 13751 13743 12301 12308 13749 13742 13745 13752 12312 13753 13583 13754 13755 
1715 1716 1941 1940 1740 1741 1966 1965 12146 13586 13587 13579 12317 13757 13758 13750 12308 12315 13756 13749 13752 13759 12319 13760 13590 13761 13762 
1716 1717 1942 1941 1741 1742 1967 1966 12153 13593 13594 13586 12324 13764 13765 13757 12315 12322 13763 13756 13759 13766 12326 13767 13597 13768 13769 
1717 1718 1943 1942 1742 1743 1968 1967 12160 13600 13601 13593 12331 13771 13772 13764 12322 12329 13770 13763 13766 13773 12333 13774 13604 13775 13776 
1718 1719 1944 1943 1743 1744 1969 1968 12167 13607 13608 13600 12338 13778 13779 13771 12329 12336 13777 13770 13773 13780 12340 13781 13611 13782 13783 
1719 1720 1945 1944 1744 1745 1970 1969 12174 13614 13615 13607 12345 13785 13786 13778 12336 12343 13784 13777 13780 13787 12347 13788 13618 13789 13790 
1720 1721 1946 1945 1745 1746 1971 1970 12181 13621 13622 13614 12352 13792 13793 13785 12343 12350 13791 13784 13787 13794 12354 13795 13625 13796 13797 
1721 1722 1947 1946 1746 1747 1972 1971 12188 13628 13629 13621 12359 13799 13800 13792 12350 12357 13798 13791 13794 13801 12361 13802 13632 13803 13804 
1722 1723 1948 1947 1747 1748 1973 1972 12195 13635 13636 13628 12366 13806 13807 13799 12357 12364 13805 13798 13801 13808 12368 13809 13639 13810 13811 
1723 1724 1949 1948 1748 1749 1974 1973 12202 13642 13643 13635 12373 13813 13814 13806 12364 12371 13812 13805 13808 13815 12375 13816 13646 13817 13818 
1725 1726 1951 1950 1750 1751 1976 1975 12210 13650 13651 13652 12381 13821 13822 13823 12379 12378 13819 13820 13826 13824 12384 13825 13656 13827 13828 
1726 1727 1952 1951 1751 1752 1977 1976 12219 13659 13660 13650 12390 13830 13831 13821 12378 12388 13829 13819 13824 13832 12392 13833 13663 13834 13835 
1727 1728 1953 1952 1752 1753 1978 1977 12226 13666 13667 13659 12397 13837 13838 13830 12388 12395 13836 13829 13832 13839 12399 13840 13670 13841 13842 
1728 1729 1954 1953 1753 1754 1979 1978 12233 13673 13674 13666 12404 13844 13845 13837 12395 12402 13843 13836 13839 13846 12406 13847 13677 13848 13849 
1729 1730 1955 1954 1754 1755 1980 1979 12240 13680 13681 13673 12411 13851 13852 13844 12402 12409 13850 13843 13846 13853 12413 13854 13684 13855 13856 
1730 1731 1956 1955 1755 1756 1981 1980 12247 13687 13688 13680 12418 13858 13859 13851 12409 12416 13857 13850 13853 13860 12420 13861 13691 13862 13863 
1731 1732 1957 1956 1756 1757 1982 1981 12254 13694 13695 13687 12425 13865 13866 13858 12416 12423 13864 13857 13860 13867 12427 13868 13698 13869 13870 
1732 1733 1958 1957 1757 1758 1983 1982 12261 13701 13702 13694 12432 13872 13873 13865 12423 12430 13871 13864 13867 13874 12434 13875 13705 13876 13877 
1733 1734 1959 1958 1758 1759 1984 1983 12268 13708 13709 13701 12439 13879 13880 13872 12430 12437 13878 13871 13874 13881 12441 13882 13712 13883 13884 
1734 1735 1960 1959 1759 1760 1985 1984 12275 13715 13716 13708 12446 13886 13887 13879 12437 12444 13885 13878 13881 13888 12448 13889 13719 13890 13891 
1735 1736 1961 1960 1760 1761 1986 1985 12282 13722 13723 13715 12453 13893 13894 13886 12444 12451 13892 13885 13888 13895 12455 13896 13726 13897 13898 
1736 1737 1962 1961 1761 1762 1987 1986 12289 13729 13730 13722 12460 13900 13901 13893 12451 12458 13899 13892 13895 13902 12462 13903 13733 13904 13905 
1737 1738 1963 1962 1762 1763 1988 1987 12296 13736 13737 13729 12467 13907 13908 13900 12458 12465 13906 13899 13902 13909 12469 13910 13740 13911 13912 
1738 1739 1964 1963 1763 1764 1989 1988 12303 13743 13744 13736 12474 13914 13915 13907 12465 12472 13913 13906 13909 13916 12476 13917 13747 13918 13919 
1739 1740 1965 1964 1764 1765 1990 1989 12310 13750 13751 13743 12481 13921 13922 13914 12472 12479 13920 13913 13916 13923 12483 13924 13754 13925 13926 
1740 1741 1966 1965 1765 1766 1991 1990 12317 13757 13758 13750 12488 13928 13929 13921 12479 12486 13927 13920 13923 13930 12490 13931 13761 13932 13933 
1741 1742 1967 1966 1766 1767 1992 1991 12324 13764 13765 13757 12495 13935 13936 13928 12486 12493 13934 13927 13930 13937 12497 13938 13768 13939 13940 
1742 1743 1968 1967 1767 1768 1993 1992 12331 13771 13772 13764 12502 13942 13943 13935 12493 12500 13941 13934 13937 13944 12504 13945 13775 13946 13947 
1743 1744 1969 1968 1768 1769 1994 1993 12338 13778 13779 13771 12509 13949 13950 13942 12500 12507 13948 13941 13944 13951 12511 13952 13782 13953 13954 
1744 1745 1970 1969 1769 1770 1995 1994 12345 13785 13786 13778 12516 13956 13957 13949 12507 12514 13955 13948 13951 13958 12518 13959 13789 13960 13961 
1745 1746 1971 1970 1770 1771 1996 1995 12352 13792 13793 13785 12523 13963 13964 13956 12514 12521 13962 13955 13958 13965 12525 13966 13796 13967 13968 
1746 1747 1972 1971 1771 1772 1997 1996 12359 13799 13800 13792 12530 13970 13971 13963 12521 12528 13969 13962 13965 13972 12532 13973 13803 13974 13975 
1747 1748 1973 1972 1772 1773 1998 1997 12366 13806 13807 13799 12537 13977 13978 13970 12528 12535 13976 13969 13972 13979 12539 13980 13810 13981 13982 
1748 1749 1974 1973 1773 1774 1999 1998 12373 13813 13814 13806 12544 13984 13985 13977 12535 12542 13983 13976 13979 13986 12546 13987 13817 13988 13989 
1750 1751 1976 1975 1775 1776 2001 2000 12381 13821 13822 13823 12552 13992 13993 13994 12550 12549 13990 13991 13997 13995 12555 13996 13827 13998 13999 
1751 1752 1977 1976 1776 1777 2002 2001 12390 13830 13831 13821 12561 14001 14002 13992 12549 12559 14000 13990 13995 14003 12563 14004 13834 14005 14006 
1752 1753 1978 1977 1777 1778 2003 2002 12397 13837 13838 13830 12568 14008 14009 14001 12559 12566 14007 14000 14003 14010 12570 14011 13841 14012 14013 
1753 1754 1979 1978 1778 1779 2004 2003 12404 13844 13845 13837 12575 14015 14016 14008 12566 12573 14014 14007 14010 14017 12577 14018 13848 14019 14020 
1754 1755 1980 1979 1779 1780 2005 2004 12411 13851 13852 13844 12582 14022 14023 14015 12573 12580 14021 14014 14017 14024 12584 14025 13855 14026 14027 
1755 1756 1981 1980 1780 1781 2006 2005 12418 13858 13859 13851 12589 14029 14030 14022 12580 12587 14028 14021 14024 14031 12591 14032 13862 14033 14034 
1756 1757 1982 1981 1781 1782 2007 2006 12425 13865 13866 13858 12596 14036 14037 14029 12587 12594 14035 14028 14031 14038 12598 14039 13869 14040 14041 
1757 1758 1983 1982 1782 1783 2008 2007 12432 13872 13873 13865 12603 14043 14044 14036 12594 12601 14042 14035 14038 14045 12605 14046 13876 14047 14048 
1758 1759 1984 1983 1783 1784 2009 2008 12439 13879 13880 13872 12610 14050 14051 14043 12601 12608 14049 14042 14045 14052 12612 14053 13883 14054 14055 
1759 1760 1985 1984 1784 1785 2010 2009 12446 13886 13887 13879 12617 14057 14058 14050 12608 12615 14056 14049 14052 14059 12619 14060 13890 14061 14062 
1760 1761 1986 1985 1785 1786 2011 2010 12453 13893 13894 13886 12624 14064 14065 14057 12615 12622 14063 14056 14059 14066 12626 14067 13897 14068 14069 
1761 1762 1987 1986 1786 1787 2012 2011 12460 13900 13901 13893 12631 14071 14072 14064 12622 12629 14070 14063 14066 14073 12633 14074 13904 14075 14076 
1762 1763 1988 1987 1787 1788 2013 2012 12467 13907 13908 13900 12638 14078 14079 14071 12629 12636 14077 14070 14073 14080 12640 14081 13911 14082 14083 
1763 1764 1989 1988 1788 1789 2014 2013 12474 13914 13915 13907 12645 14085 14086 14078 12636 12643 14084 14077 14080 14087 12647 14088 13918 14089 14090 
1764 1765 1990 1989 1789 1790 2015 2014 12481 13921 13922 13914 12652 14092 14093 14085 12643 12650 14091 14084 14087 14094 12654 14095 13925 14096 14097 
1765 1766 1991 1990 1790 1791 2016 2015 12488 13928 13929 13921 12659 14099 14100 14092 12650 12657 14098 14091 14094 14101 12661 14102 13932 14103 14104 
1766 1767 1992 1991 1791 1792 2017 2016 12495 13935 13936 13928 12666 14106 14107 14099 12657 12664 14105 14098 14101 14108 12668 14109 13939 14110 14111 
1767 1768 1993 1992 1792 1793 2018 2017 12502 13942 13943 13935 12673 14113 14114 14106 12664 12671 14112 14105 14108 14115 12675 14116 13946 14117 14118 
1768 1769 1994 1993 1793 1794 2019 2018 12509 13949 13950 13942 12680 14120 14121 14113 12671 12678 14119 14112 14115 14122 12682 14123 13953 14124 14125 
1769 1770 1995 1994 1794 1795 2020 2019 12516 13956 13957 13949 12687 14127 14128 14120 12678 12685 14126 14119 14122 14129 12689 14130 13960 14131 14132 
1770 1771 1996 1995 1795 1796 2021 2020 12523 13963 13964 13956 12694 14134 14135 14127 12685 12692 14133 14126 14129 14136 12696 14137 13967 14138 14139 
1771 1772 1997 1996 1796 1797 2022 2021 12530 13970 13971 13963 12701 14141 14142 14134 12692 12699 14140 14133 14136 14143 12703 14144 13974 14145 14146 
1772 1773 1998 1997 1797 1798 2023 2022 12537 13977 13978 13970 12708 14148 14149 14141 12699 12706 14147 14140 14143 14150 12710 14151 13981 14152 14153 
1773 1774 1999 1998 1798 1799 2024 2023 12544 13984 13985 13977 12715 14155 14156 14148 12706 12713 14154 14147 14150 14157 12717 14158 13988 14159 14160 
CELL_TYPES 1536
29 29 29 29 29 29 29 29 29 29 29 29 29 29 29 29 29 29 29 29 29 29 29 29 29 29 29 29 29 29 29 29 29 29 29 29 29 29 29 29 29 29 29 29 29 29 29 29 29 29 29 29 29 29 29 29 29 29 29 29 29 29 29 29 29 29 29 29 29 29 29 29 29 29 29 29 29 29 29 29 29 29 29 29 29 29 29 29 29 29 29 29 29 29 29 29 29 29 29 29 29 29 29 29 29 29 29 29 29 29 29 29 29 29 29 29 29 29 29 29 29 29 29 29 29 29 29 29 29 29 29 29 29 29 29 29 29 29 29 29 29 29 29 29 29 29 29 29 29 29 29 29 29 29 29 29 29 29 29 29 29 29 29 29 29 29 29 29 29 29 29 29 29 29 29 29 29 29 29 29 29 29 29 29 29 29 29 29 29 29 29 29 29 29 29 29 29 29 29 29 29 29 29 29 29 29 29 29 29 29 29 29 29 29 29 29 29 29 29 29 29 29 29 29 29 29 29 29 29 29 29 29 29 29 29 29 29 29 29 29 29 29 29 29 29 29 29 29 29 29 29 29 29 29 29 29 29 29 29 29 29 29 29 29 29 29 29 29 29 29 29 29 29 29 29 29 29 29 29 29 29 29 29 29 29 29 29 29 29 29 29 29 29 29 29 29 29 29 29 29 29 29 29 29 29 29 29 29 29 29 29 29 29 29 29 29 29 29 29 29 29 29 29 29 29 29 29 29 29 29 29 29 29 29 29 29 29 29 29 29 29 29 29 29 29 29 29 29 29 29 29 29 29 29 29 29 29 29 29 29 29 29 29 29 29 29 29 29 29 29 29 29 29 29 29 29 29 29 29 29 29 29 29 29 29 29 29 29 29 29 29 29 29 29 29 29 29 29 29 29 29 29 29 29 29 29 29 29 29 29 29 29 29 29 29 29 29 29 29 29 29 29 29 29 29 29 29 29 29 29 29 29 29 29 29 29 29 29 29 29 29 29 29 29 29 29 29 29 29 29 29 29 29 29 29 29 29 29 29 29 29 29 29 29 29 29 29 29 29 29 29 29 29 29 29 29 29 29 29 29 29 29 29 29 29 29 29 29 29 29 29 29 29 29 29 29 29 29 29 29 29 29 29 29 29 29 29 29 29 29 29 29 29 29 29 29 29 29 29 29 29 29 29 29 29 29 29 29 29 29 29 29 29 29 29 29 29 29 29 29 29 29 29 29 29 29 29 29 29 29 29 29 29 29 29 29 29 29 29 29 29 29 29 29 29 29 29 29 29 29 29 29 29 29 29 29 29 29 29 29 29 29 29 29 29 29 29 29 29 29 29 29 29 29 29 29 29 29 29 29 29 29 29 29 29 29 29 29 29 29 29 29 29 29 29 29 29 29 29 29 29 29 29 29 29 29 29 29 29 29 29 29 29 29 29 29 29 29 29 29 29 29 29 29 29 29 29 29 29 29 29 29 29 29 29 29 29 29 29 29 29 29 29 29 29 29 29 29 29 29 29 29 29 29 29 29 29 29 29 29 29 29 29 29 29 29 29 29 29 29 29 29 29 29 29 29 29 29 29 29 29 29 29 29 29 29 29 29 29 29 29 29 29 29 29 29 29 29 29 29 29 29 29 29 29 29 29 29 29 29 29 29 29 29 29 29 29 29 29 29 29 29 29 29 29 29 29 29 29 29 29 29 29 29 29 29 29 29 29 29 29 29 29 29 29 29 29 29 29 29 29 29 29 29 29 29 29 29 29 29 29 29 29 29 29 29 29 29 29 29 29 29 29 29 29 29 29 29 29 29 29 29 29 29 29 29 29 29 29 29 29 29 29 29 29 29 29 29 29 29 29 29 29 29 29 29 29 29 29 29 29 29 29 29 29 29 29 29 29 29 29 29 29 29 29 29 29 29 29 29 29 29 29 29 29 29 29 29 29 29 29 29 29 29 29 29 29 29 29 29 29 29 29 29 29 29 29 29 29 29 29 29 29 29 29 29 29 29 29 29 29 29 29 29 29 29 29 29 29 29 29 29 29 29 29 29 29 29 29 29 29 29 29 29 29 29 29 29 29 29 29 29 29 29 29 29 29 29 29 29 29 29 29 29 29 29 29 29 29 29 29 29 29 29 29 29 29 29 29 29 29 29 29 29 29 29 29 29 29 29 29 29 29 29 29 29 29 29 29 29 29 29 29 29 29 29 29 29 29 29 29 29 29 29 29 29 29 29 29 29 29 29 29 29 29 29 29 29 29 29 29 29 29 29 29 29 29 29 29 29 29 29 29 29 29 29 29 29 29 29 29 29 29 29 29 29 29 29 29 29 29 29 29 29 29 29 29 29 29 29 29 29 29 29 29 29 29 29 29 29 29 29 29 29 29 29 29 29 29 29 29 29 29 29 29 29 29 29 29 29 29 29 29 29 29 29 29 29 29 29 29 29 29 29 29 29 29 29 29 29 29 29 29 29 29 29 29 29 29 29 29 29 29 29 29 29 29 29 29 29 29 29 29 29 29 29 29 29 29 29 29 29 29 29 29 29 29 29 29 29 29 29 29 29 29 29 29 29 29 29 29 29 29 29 29 29 29 29 29 29 29 29 29 29 29 29 29 29 29 29 29 29 29 29 29 29 29 29 29 29 29 29 29 29 29 29 29 29 29 29 29 29 29 29 29 29 29 29 29 29 29 29 29 29 29 29 29 29 29 29 29 29 29 29 29 29 29 29 29 29 29 29 29 29 29 29 29 29 29 29 29 29 29 29 29 29 29 29 29 29 29 29 29 29 29 29 29 29 29 29 29 29 29 29 29 29 29 29 29 29 29 29 29 29 29 29 29 29 29 29 29 29 29 29 29 29 29 29 29 29 29 29 29 29 29 29 29 29 29 29 29 29 29 29 29 29 29 29 29 29 29 29 29 29 29 29 29 29 29 29 29 29 29 29 29 29 29 29 29 29 29 29 29 29 29 29 29 29 29 29 29 29 29 29 29 29 29 29 29 29 29 29 29 29 29 29 29 29 29 29 29 29 29 29 29 29 29 29 29 29 29 29 29 29 29 29 29 29 29 29 29 29 29 29 29 29 29 29 29 29 29 29 29 29 29 29 29 29 29 29 29 29 29 29 29 29 29 29 29 29 29 29 29 29 29 29 29 29 29 29 29 29 29 29 29 29 29 29 29 29 29 29 29 29 29 29 29 29 29 29 29 29 29 29 29 29 29 29 29 29 29 29 29 29 29 29 29 29 29 29 29 29 29 29 29 29 29 29 29 29 29 29 29 29 29 29 29 29 29 29 29 29 29 29 29 29 29 29 29 29 29 29 29 29 29 29 29 29 29 29 29 29 29 29 29 29 29 29 29 29 29 29 29 29 29 29 29 29 29 29 29 29 29 29 29 29 29 29 29 29 29 29 29 29 29 29 29 29 29 29 29 29 29 29 29 29 29 29 29 29 29 29 29 29 29 29 

POINT_DATA 14161
SCALARS weights float 1
LOOKUP_TABLE default
0.072338 0.144676 0.144676 0.144676 0.144676 0.144676 0.144676 0.144676 0.144676 0.144676 0.144676 0.144676 0.144676 0.144676 0.144676 0.144676 0.144676 0.144676 0.144676 0.144676 0.144676 0.144676 0.144676 0.144676 0.072338 0.144676 0.289352 0.289352 0.289352 0.289352 0.289352 0.289352 0.289352 0.289352 0.289352 0.289352 0.289352 0.289352 0.289352 0.289352 0.289352 0.289352 0.289352 0.289352 0.289352 0.289352 0.289352 0.289352 0.289352 0.144676 0.144676 0.289352 0.289352 0.289352 0.289352 0.289352 0.289352 0.289352 0.289352 0.289352 0.289352 0.289352 0.289352 0.289352 0.289352 0.289352 0.289352 0.289352 0.289352 0.289352 0.289352 0.289352 0.289352 0.289352 0.144676 0.144676 0.289352 0.289352 0.289352 0.289352 0.289352 0.289352 0.289352 0.289352 0.289352 0.289352 0.289352 0.289352 0.289352 0.289352 0.289352 0.289352 0.289352 0.289352 0.289352 0.289352 0.289352 0.289352 0.289352 0.144676 0.144676 0.289352 0.289352 0.289352 0.289352 0.289352 0.289352 0.289352 0.289352 0.289352 0.289352 0.289352 0.289352 0.289352 0.289352 0.289352 0.289352 0.289352 0.289352 0.289352 0.289352 0.289352 0.289352 0.289352 0.144676 0.144676 0.289352 0.289352 0.289352 0.289352 0.289352 0.289352 0.289352 0.289352 0.289352 0.289352 0.289352 0.289352 0.289352 0.289352 0.289352 0.289352 0.289352 0.289352 0.289352 0.289352 0.289352 0.289352 0.289352 0.144676 0.144676 0.289352 0.289352 0.289352 0.289352 0.289352 0.289352 0.289352 0.289352 0.289352 0.289352 0.289352 0.289352 0.289352 0.289352 0.289352 0.289352 0.289352 0.289352 0.289352 0.289352 0.289352 0.289352 0.289352 0.144676 0.144676 0.289352 0.289352 0.289352 0.289352 0.289352 0.289352 0.289352 0.289352 0.289352 0.289352 0.289352 0.289352 0.289352 0.289352 0.289352 0.289352 0.289352 0.289352 0.289352 0.289352 0.289352 0.289352 0.289352 0.144676 0.072338 0.144676 0.144676 0.144676 0.144676 0.144676 0.144676 0.144676 0.144676 0.144676 0.144676 0.144676 0.144676 0.144676 0.144676 0.144676 0.144676 0.144676 0.144676 0.144676 0.144676 0.144676 0.144676 0.144676 0.072338 0.144676 0.289352 0.289352 0.289352 0.289352 0.289352 0.289352 0.289352 0.289352 0.289352 0.289352 0.289352 0.289352 0.289352 0.289352 0.289352 0.289352 0.289352 0.289352 0.289352 0.289352 0.289352 0.289352 0.289352 0.144676 0.289352 0.578704 0.578704 0.578704 0.578704 0.578704 0.578704 0.578704 0.578704 0.578704 0.578704 0.578704 0.578704 0.578704 0.578704 0.578704 0.578704 0.578704 0.578704 0.578704 0.578704 0.578704 0.578704 0.578704 0.289352 0.289352 0.578704 0.578704 0.578704 0.578704 0.578704 0.578704 0.578704 0.578704 0.578704 0.578704 0.578704 0.578704 0.578704 0.578704 0.578704 0.578704 0.578704 0.578704 0.578704 0.578704 0.578704 0.578704 0.578704 0.289352 0.289352 0.578704 0.578704 0.578704 0.578704 0.578704 0.578704 0.578704 0.578704 0.578704 0.578704 0.578704 0.578704 0.578704 0.578704 0.578704 0.578704 0.578704 0.578704 0.578704 0.578704 0.578704 0.578704 0.578704 0.289352 0.289352 0.578704 0.578704 0.578704 0.578704 0.578704 0.578704 0.578704 0.578704 0.578704 0.578704 0.578704 0.578704 0.578704 0.578704 0.578704 0.578704 0.578704 0.578704 0.578703 0.578704 0.578704 0.578704 0.578704 0.289352 0.289352 0.578704 0.578704 0.578704 0.578704 0.578704 0.578704 0.578704 0.578704 0.578704 0.578704 0.578704 0.578704 0.578704 0.578704 0.578704 0.578704 0.578704 0.578704 0.578704 0.578704 0.578704 0.578704 0.578704 0.289352 0.289352 0.578704 0.578704 0.578704 0.578704 0.578704 0.578704 0.578704 0.578704 0.578704 0.578704 0.578704 0.578704 0.578704 0.578704 0.578704 0.578704 0.578704 0.578704 0.578704 0.578704 0.578704 0.578704 0.578704 0.289352 0.289352 0.578704 0.578704 0.578704 0.578704 0.578704 0.578704 0.578704 0.578704 0.578704 0.578704 0.578704 0.578704 0.578704 0.578704 0.578704 0.578704 0.578704 0.578704 0.578704 0.578704 0.578704 0.578704 0.578704 0.289352 0.144676 0.289352 0.289352 0.289352 0.289352 0.289352 0.289352 0.289352 0.289352 0.289352 0.289352 0.289352 0.289352 0.289352 0.289352 0.289352 0.289352 0.289352 0.289352 0.289352 0.289352 0.289352 0.289352 0.289352 0.144676 0.144676 0.289352 0.289352 0.289352 0.289352 0.289352 0.289352 0.289352 0.289352 0.289352 0.289352 0.289352 0.289352 0.289352 0.289352 0.289352 0.289352 0.289352 0.289352 0.289352 0.289352 0.289352 0.289352 0.289352 0.144676 0.289352 0.578704 0.578704 0.578704 0.578704 0.578704 0.578704 0.578704 0.578704 0.578704 0.578704 0.578704 0.578704 0.578704 0.578704 0.578704 0.578704 0.578704 0.578704 0.578704 0.578704 0.578704 0.578704 0.578704 0.289352 0.289352 0.578704 0.578704 0.578704 0.578704 0.578704 0.578704 0.578704 0.578704 0.578704 0.578704 0.578704 0.578704 0.578704 0.578704 0.578704 0.578704 0.578704 0.578704 0.578704 0.578704 0.578704 0.578704 0.578704 0.289352 0.289352 0.578704 0.578704 0.578704 0.578704 0.578704 0.578704 0.578704 0.578704 0.578704 0.578704 0.578704 0.578704 0.578704 0.578704 0.578704 0.578704 0.578704 0.578704 0.578703 0.578704 0.578704 0.578704 0.578704 0.289352 0.289352 0.578704 0.578704 0.578704 0.578704 0.578704 0.578704 0.578704 0.578704 0.578704 0.578704 0.578704 0.578704 0.578704 0.578704 0.578704 0.578704 0.578704 0.578704 0.578703 0.578704 0.578704 0.578704 0.578704 0.289352 0.289352 0.578704 0.578704 0.578704 0.578704 0.578704 0.578704 0.578704 0.578704 0.578704 0.578704 0.578704 0.578704 0.578704 0.578704 0.578704 0.578704 0.578704 0.578704 0.578704 0.578704 0.578704 0.578704 0.578704 0.289352 0.289352 0.578704 0.578704 0.578704 0.578704 0.578704 0.578704 0.578704 0.578704 0.578704 0.578704 0.578704 0.578704 0.578704 0.578704 0.578704 0.578704 0.578704 0.578704 0.578704 0.578704 0.578704 0.578704 0.578704 0.289352 0.289352 0.578704 0.578704 0.578704 0.578704 0.578704 0.578704 0.578704 0.578704 0.578704 0.578704 0.578704 0.578704 0.578704 0.578704 0.578704 0.578704 0.578704 0.578704 0.578703 0.578704 0.578704 0.578704 0.578704 0.289352 0.144676 0.289352 0.289352 0.289352 0.289352 0.289352 0.289352 0.289352 0.289352 0.289352 0.289352 0.289352 0.289352 0.289352 0.289352 0.289352 0.289352 0.289352 0.289352 0.289352 0.289352 0.289352 0.289352 0.289352 0.144676 0.144676 0.289352 0.289352 0.289352 0.289352 0.289352 0.289352 0.289352 0.289352 0.289352 0.289352 0.289352 0.289352 0.289352 0.289352 0.289352 0.289352 0.289352 0.289352 0.289352 0.289352 0.289352 0.289352 0.289352 0.144676 0.289352 0.578704 0.578704 0.578704 0.578704 0.578704 0.578704 0.578704 0.578704 0.578704 0.578704 0.578704 0.578704 0.578704 0.578704 0.578704 0.578704 0.578704 0.578703 0.578703 0.578704 0.578704 0.578703 0.578704 0.289352 0.289352 0.578704 0.578704 0.578704 0.578704 0.578704 0.578704 0.578704 0.578704 0.578704 0.578703 0.578704 0.578704 0.578704 0.578704 0.578704 0.578704 0.578704 0.578703 0.578703 0.578704 0.578704 0.578703 0.578704 0.289352 0.289352 0.578704 0.578704 0.578704 0.578704 0.578704 0.578704 0.578704 0.578704 0.578704 0.578703 0.578704 0.578704 0.578704 0.578704 0.578704 0.578704 0.578704 0.578703 0.578703 0.578704 0.578704 0.578703 0.578704 0.289352 0.289352 0.578704 0.578704 0.578704 0.578704 0.578704 0.578704 0.578704 0.578704 0.578704 0.578703 0.578704 0.578704 0.578704 0.578704 0.578704 0.578704 0.578704 0.578703 0.578703 0.578703 0.578704 0.578703 0.578704 0.289352 0.289352 0.578704 0.578704 0.578704 0.578704 0.578704 0.578704 0.578704 0.578704 0.578704 0.578704 0.578704 0.578704 0.578704 0.578704 0.578704 0.578704 0.578704 0.578703 0.578703 0.578704 0.578704 0.578703 0.578704 0.289352 0.289352 0.578704 0.578704 0.578704 0.578704 0.578704 0.578704 0.578704 0.578704 0.578704 0.578704 0.578704 0.578704 0.578704 0.578704 0.578704 0.578704 0.578704 0.578703 0.578703 0.578704 0.578704 0.578704 0.578704 0.289352 0.289352 0.578704 0.578704 0.578704 0.578704 0.578704 0.578704 0.578704 0.578704 0.578704 0.578703 0.578704 0.578704 0.578704 0.578704 0.578704 0.578704 0.578704 0.578703 0.578703 0.578704 0.578704 0.578703 0.578704 0.289352 0.144676 0.289352 0.289352 0.289352 0.289352 0.289352 0.289352 0.289352 0.289352 0.289352 0.289352 0.289352 0.289352 0.289352 0.289352 0.289352 0.289352 0.289352 0.289352 0.289352 0.289352 0.289352 0.289352 0.289352 0.144676 0.144676 0.289352 0.289352 0.289352 0.289352 0.289352 0.289352 0.289352 0.289352 0.289352 0.289352 0.289352 0.289352 0.289352 0.289352 0.289352 0.289352 0.289352 0.289352 0.289352 0.289352 0.289352 0.289352 0.289352 0.144676 0.289352 0.578704 0.578704 0.578704 0.578704 0.578704 0.578704 0.578704 0.578704 0.578703 0.578703 0.578703 0.578704 0.578704 0.578703 0.578703 0.578704 0.578703 0.578703 0.578703 0.578703 0.578704 0.578703 0.578703 0.289352 0.289352 0.578704 0.578704 0.578704 0.578703 0.578704 0.578704 0.578704 0.578704 0.578703 0.578703 0.578703 0.578704 0.578704 0.578703 0.578703 0.578704 0.578703 0.578703 0.578703 0.578703 0.578704 0.578703 0.578703 0.289352 0.289352 0.578704 0.578704 0.578704 0.578703 0.578704 0.578704 0.578704 0.578704 0.578703 0.578703 0.578703 0.578704 0.578704 0.578703 0.578703 0.578704 0.578703 0.578703 0.578703 0.578703 0.578704 0.578703 0.578703 0.289352 0.289352 0.578704 0.578704 0.578703 0.578703 0.578704 0.578703 0.578703 0.578703 0.578703 0.578703 0.578703 0.578703 0.578703 0.578703 0.578703 0.578704 0.578703 0.578703 0.578703 0.578703 0.578703 0.578703 0.578703 0.289352 0.289352 0.578704 0.578704 0.578704 0.578703 0.578703 0.578704 0.578703 0.578703 0.578703 0.578703 0.578703 0.578703 0.578704 0.578703 0.578703 0.578704 0.578703 0.578703 0.578703 0.578703 0.578704 0.578703 0.578703 0.289352 0.289352 0.578704 0.578704 0.578704 0.578703 0.578704 0.578704 0.578704 0.578704 0.578703 0.578703 0.578703 0.578704 0.578704 0.578703 0.578703 0.578704 0.578703 0.578703 0.578703 0.578703 0.578704 0.578703 0.578703 0.289352 0.289352 0.578704 0.578704 0.578704 0.578703 0.578704 0.578704 0.578703 0.578704 0.578703 0.578703 0.578703 0.578704 0.578704 0.578703 0.578703 0.578704 0.578703 0.578703 0.578703 0.578703 0.578704 0.578703 0.578703 0.289352 0.144676 0.289352 0.289352 0.289352 0.289352 0.289352 0.289352 0.289352 0.289352 0.289352 0.289352 0.289352 0.289352 0.289352 0.289352 0.289352 0.289352 0.289352 0.289352 0.289352 0.289352 0.289352 0.289352 0.289352 0.144676 0.144676 0.289352 0.289352 0.289352 0.289352 0.289352 0.289352 0.289352 0.289352 0.289352 0.289352 0.289352 0.289352 0.289352 0.289352 0.289352 0.289352 0.289352 0.289352 0.289352 0.289352 0.289352 0.289352 0.289352 0.144676 0.289352 0.578703 0.578703 0.578703 0.578703 0.578703 0.578703 0.578703 0.578703 0.578703 0.578703 0.578703 0.578703 0.578703 0.578703 0.578703 0.578703 0.578703 0.578703 0.578703 0.578703 0.578703 0.578703 0.578703 0.289352 0.289352 0.578703 0.578703 0.578703 0.578703 0.578703 0.578703 0.578703 0.578703 0.578703 0.578703 0.578703 0.578703 0.578703 0.578703 0.578703 0.578703 0.578703 0.578703 0.578703 0.578703 0.578703 0.578703 0.578703 0.289352 0.289352 0.578703 0.578703 0.578703 0.578703 0.578703 0.578703 0.578703 0.578703 0.578703 0.578703 0.578703 0.578703 0.578703 0.578703 0.578703 0.578703 0.578703 0.578703 0.578703 0.578703 0.578703 0.578703 0.578703 0.289352 0.289352 0.578703 0.578703 0.578703 0.578703 0.578703 0.578703 0.578703 0.578703 0.578703 0.578703 0.578703 0.578703 0.578703 0.578703 0.578703 0.578703 0.578703 0.578703 0.578703 0.578703 0.578703 0.578703 0.578703 0.289352 0.289352 0.578703 0.578703 0.578703 0.578703 0.578703 0.578703 0.578703 0.578703 0.578703 0.578703 0.578703 0.578703 0.578703 0.578703 0.578703 0.578703 0.578703 0.578703 0.578703 0.578703 0.578703 0.578703 0.578703 0.289352 0.289352 0.578703 0.578703 0.578703 0.578703 0.578703 0.578703 0.578703 0.578703 0.578703 0.578703 0.578703 0.578703 0.578703 0.578703 0.578703 0.578703 0.578703 0.578703 0.578703 0.578703 0.578703 0.578703 0.578703 0.289352 0.289352 0.578703 0.578703 0.578703 0.578703 0.578703 0.578703 0.578703 0.578703 0.578703 0.578703 0.578703 0.578703 0.578703 0.578703 0.578703 0.578703 0.578703 0.578703 0.578703 0.578703 0.578703 0.578703 0.578703 0.289352 0.144676 0.289352 0.289352 0.289352 0.289352 0.289352 0.289352 0.289352 0.289352 0.289352 0.289352 0.289352 0.289352 0.289352 0.289352 0.289352 0.289352 0.289352 0.289351 0.289351 0.289352 0.289352 0.289352 0.289352 0.144676 0.144676 0.289352 0.289352 0.289352 0.289352 0.289352 0.289352 0.289352 0.289352 0.289352 0.289352 0.289352 0.289352 0.289352 0.289352 0.289352 0.289352 0.289352 0.289352 0.289352 0.289352 0.289352 0.289352 0.289352 0.144676 0.289352 0.578704 0.578704 0.578704 0.578704 0.578704 0.578704 0.578704 0.578704 0.578704 0.578704 0.578704 0.578704 0.578704 0.578704 0.578704 0.578704 0.578704 0.578704 0.578703 0.578704 0.578704 0.578704 0.578704 0.289352 0.289352 0.578704 0.578704 0.578704 0.578704 0.578704 0.578704 0.578704 0.578704 0.578704 0.578704 0.578704 0.578704 0.578704 0.578704 0.578704 0.578704 0.578704 0.578704 0.578703 0.578704 0.578704 0.578704 0.578704 0.289352 0.289352 0.578704 0.578704 0.578704 0.578704 0.578704 0.578704 0.578704 0.578704 0.578704 0.578704 0.578704 0.578704 0.578704 0.578704 0.578704 0.578704 0.578704 0.578704 0.578703 0.578704 0.578704 0.578704 0.578704 0.289352 0.289352 0.578704 0.578704 0.578704 0.578704 0.578704 0.578704 0.578704 0.578704 0.578704 0.578704 0.578704 0.578704 0.578704 0.578704 0.578704 0.578704 0.578704 0.578704 0.578703 0.578704 0.578704 0.578704 0.578704 0.289352 0.289352 0.578704 0.578704 0.578704 0.578704 0.578704 0.578704 0.578704 0.578704 0.578704 0.578704 0.578704 0.578704 0.578704 0.578704 0.578704 0.578704 0.578704 0.578704 0.578703 0.578704 0.578704 0.578704 0.578704 0.289352 0.289352 0.578704 0.578704 0.578704 0.578704 0.578704 0.578704 0.578704 0.578704 0.578704 0.578704 0.578704 0.578704 0.578704 0.578704 0.578704 0.578704 0.578704 0.578704 0.578703 0.578704 0.578704 0.578704 0.578704 0.289352 0.289352 0.578704 0.578704 0.578704 0.578704 0.578704 0.578704 0.578704 0.578704 0.578704 0.578704 0.578704 0.578704 0.578704 0.578704 0.578704 0.578704 0.578704 0.578704 0.578703 0.578704 0.578704 0.578704 0.578704 0.289352 0.144676 0.289352 0.289352 0.289352 0.289352 0.289352 0.289352 0.289352 0.289352 0.289352 0.289352 0.289352 0.289352 0.289352 0.289352 0.289352 0.289352 0.289352 0.289352 0.289352 0.289352 0.289352 0.289352 0.289352 0.144676 0.144676 0.289352 0.289352 0.289352 0.289352 0.289352 0.289352 0.289352 0.289352 0.289352 0.289352 0.289352 0.289352 0.289352 0.289352 0.289352 0.289352 0.289352 0.289352 0.289352 0.289352 0.289352 0.289352 0.289352 0.144676 0.289352 0.578704 0.578704 0.578704 0.578704 0.578704 0.578704 0.578704 0.578704 0.578704 0.578704 0.578704 0.578704 0.578704 0.578704 0.578704 0.578704 0.578704 0.578704 0.578704 0.578704 0.578704 0.578704 0.578704 0.289352 0.289352 0.578704 0.578704 0.578704 0.578704 0.578704 0.578704 0.578704 0.578704 0.578704 0.578704 0.578704 0.578704 0.578704 0.578704 0.578704 0.578704 0.578704 0.578704 0.578704 0.578704 0.578704 0.578704 0.578704 0.289352 0.289352 0.578704 0.578704 0.578704 0.578704 0.578704 0.578704 0.578704 0.578704 0.578704 0.578704 0.578704 0.578704 0.578704 0.578704 0.578704 0.578704 0.578704 0.578704 0.578704 0.578704 0.578704 0.578704 0.578704 0.289352 0.289352 0.578704 0.578704 0.578704 0.578704 0.578704 0.578704 0.578704 0.578704 0.578704 0.578704 0.578704 0.578704 0.578704 0.578704 0.578704 0.578704 0.578704 0.578704 0.578704 0.578704 0.578704 0.578704 0.578704 0.289352 0.289352 0.578704 0.578704 0.578704 0.578704 0.578704 0.578704 0.578704 0.578704 0.578704 0.578704 0.578704 0.578704 0.578704 0.578704 0.578704 0.578704 0.578704 0.578704 0.578704 0.578704 0.578704 0.578704 0.578704 0.289352 0.289352 0.578704 0.578704 0.578704 0.578704 0.578704 0.578704 0.578704 0.578704 0.578704 0.578704 0.578704 0.578704 0.578704 0.578704 0.578704 0.578704 0.578704 0.578704 0.578704 0.578704 0.578704 0.578704 0.578704 0.289352 0.289352 0.578704 0.578704 0.578704 0.578704 0.578704 0.578704 0.578704 0.578704 0.578704 0.578704 0.578704 0.578704 0.578704 0.578704 0.578704 0.578704 0.578704 0.578704 0.578704 0.578704 0.578704 0.578704 0.578704 0.289352 0.144676 0.289352 0.289352 0.289352 0.289352 0.289352 0.289352 0.289352 0.289352 0.289352 0.289352 0.289352 0.289352 0.289352 0.289352 0.289352 0.289352 0.289352 0.289352 0.289352 0.289352 0.289352 0.289352 0.289352 0.144676 0.072338 0.144676 0.144676 0.144676 0.144676 0.144676 0.144676 0.144676 0.144676 0.144676 0.144676 0.144676 0.144676 0.144676 0.144676 0.144676 0.144676 0.144676 0.144676 0.144676 0.144676 0.144676 0.144676 0.144676 0.072338 0.144676 0.289352 0.289352 0.289352 0.289352 0.289352 0.289352 0.289352 0.289352 0.289352 0.289352 0.289352 0.289352 0.289352 0.289352 0.289352 0.289352 0.289352 0.289352 0.289352 0.289352 0.289352 0.289352 0.289352 0.144676 0.144676 0.289352 0.289352 0.289352 0.289352 0.289352 0.289352 0.289352 0.289352 0.289352 0.289352 0.289352 0.289352 0.289352 0.289352 0.289352 0.289352 0.289352 0.289352 0.289352 0.289352 0.289352 0.289352 0.289352 0.144676 0.144676 0.289352 0.289352 0.289352 0.289352 0.289352 0.289352 0.289352 0.289352 0.289352 0.289352 0.289352 0.289352 0.289352 0.289352 0.289352 0.289352 0.289352 0.289352 0.289352 0.289352 0.289352 0.289352 0.289352 0.144676 0.144676 0.289352 0.289352 0.289352 0.289352 0.289352 0.289352 0.289352 0.289352 0.289352 0.289352 0.289352 0.289352 0.289352 0.289352 0.289352 0.289352 0.289352 0.289352 0.289352 0.289352 0.289352 0.289352 0.289352 0.144676 0.144676 0.289352 0.289352 0.289352 0.289352 0.289352 0.289352 0.289352 0.289352 0.289352 0.289352 0.289352 0.289352 0.289352 0.289352 0.289352 0.289352 0.289352 0.289352 0.289352 0.289352 0.289352 0.289352 0.289352 0.144676 0.144676 0.289352 0.289352 0.289352 0.289352 0.289352 0.289352 0.289352 0.289352 0.289352 0.289352 0.289352 0.289352 0.289352 0.289352 0.289352 0.289352 0.289352 0.289352 0.289352 0.289352 0.289352 0.289352 0.289352 0.144676 0.144676 0.289352 0.289352 0.289352 0.289352 0.289352 0.289352 0.289352 0.289352 0.289352 0.289352 0.289352 0.289352 0.289352 0.289352 0.289352 0.289352 0.289352 0.289352 0.289352 0.289352 0.289352 0.289352 0.289352 0.144676 0.072338 0.144676 0.144676 0.144676 0.144676 0.144676 0.144676 0.144676 0.144676 0.144676 0.144676 0.144676 0.144676 0.144676 0.144676 0.144676 0.144676 0.144676 0.144676 0.144676 0.144676 0.144676 0.144676 0.144676 0.072338 0.072338 0.144676 0.144676 0.072338 0.072338 0.144676 0.289352 0.144676 0.144676 0.289352 0.289352 0.144676 0.072338 0.072338 0.144676 0.144676 0.072338 0.144676 0.072338 0.072338 0.144676 0.144676 0.144676 0.289352 0.144676 0.289352 0.289352 0.072338 0.072338 0.144676 0.144676 0.144676 0.072338 0.072338 0.144676 0.144676 0.144676 0.289352 0.144676 0.289352 0.289352 0.072338 0.072338 0.144676 0.144676 0.144676 0.072338 0.072338 0.144676 0.144676 0.144676 0.289352 0.144676 0.289352 0.289352 0.072338 0.072338 0.144676 0.144676 0.144676 0.072338 0.072338 0.144676 0.144676 0.144676 0.289352 0.144676 0.289352 0.289352 0.072338 0.072338 0.144676 0.144676 0.144676 0.072338 0.072338 0.144676 0.144676 0.144676 0.289352 0.144676 0.289352 0.289352 0.072338 0.072338 0.144676 0.144676 0.144676 0.072338 0.072338 0.144676 0.144676 0.144676 0.289352 0.144676 0.289352 0.289352 0.072338 0.072338 0.144676 0.144676 0.144676 0.072338 0.072338 0.144676 0.144676 0.144676 0.289352 0.144676 0.289352 0.289352 0.072338 0.072338 0.144676 0.144676 0.144676 0.072338 0.072338 0.144676 0.144676 0.144676 0.289352 0.144676 0.289352 0.289352 0.072338 0.072338 0.144676 0.144676 0.144676 0.072338 0.0723379 0.144676 0.144676 0.144676 0.289352 0.144676 0.289352 0.289352 0.0723379 0.0723379 0.144676 0.144676 0.144676 0.0723379 0.072338 0.144676 0.144676 0.144676 0.289352 0.144676 0.289352 0.289352 0.072338 0.072338 0.144676 0.144676 0.144676 0.072338 0.072338 0.144676 0.144676 0.144676 0.289352 0.144676 0.289352 0.289352 0.072338 0.072338 0.144676 0.144676 0.144676 0.072338 0.072338 0.144676 0.144676 0.144676 0.289352 0.144676 0.289352 0.289352 0.072338 0.072338 0.144676 0.144676 0.144676 0.072338 0.072338 0.144676 0.144676 0.144676 0.289352 0.144676 0.289352 0.289352 0.072338 0.072338 0.144676 0.144676 0.144676 0.072338 0.0723379 0.144676 0.144676 0.144676 0.289352 0.144676 0.289352 0.289352 0.0723379 0.0723379 0.144676 0.144676 0.144676 0.0723379 0.072338 0.144676 0.144676 0.144676 0.289352 0.144676 0.289352 0.289352 0.072338 0.072338 0.144676 0.144676 0.144676 0.072338 0.072338 0.144676 0.144676 0.144676 0.289352 0.144676 0.289352 0.289352 0.072338 0.072338 0.144676 0.144676 0.144676 0.072338 0.0723379 0.144676 0.144676 0.144676 0.289352 0.144676 0.289352 0.289352 0.0723379 0.0723379 0.144676 0.144676 0.144676 0.0723379 0.0723379 0.144676 0.144676 0.144676 0.289352 0.144676 0.289352 0.289352 0.0723379 0.0723379 0.144676 0.144676 0.144676 0.0723379 0.0723379 0.144676 0.144676 0.144676 0.289352 0.144676 0.289352 0.289352 0.0723379 0.0723379 0.144676 0.144676 0.144676 0.0723379 0.072338 0.144676 0.144676 0.144676 0.289352 0.144676 0.289352 0.289352 0.072338 0.072338 0.144676 0.144676 0.144676 0.072338 0.072338 0.144676 0.144676 0.144676 0.289352 0.144676 0.289352 0.289352 0.072338 0.072338 0.144676 0.144676 0.144676 0.072338 0.0723379 0.144676 0.144676 0.144676 0.289352 0.144676 0.289352 0.289352 0.0723379 0.0723379 0.144676 0.144676 0.144676 0.0723379 0.072338 0.072338 0.144676 0.072338 0.144676 0.144676 0.144676 0.289352 0.072338 0.072338 0.072338 0.144676 0.144676 0.072338 0.072338 0.144676 0.289352 0.144676 0.144676 0.289352 0.289352 0.144676 0.072338 0.144676 0.144676 0.072338 0.144676 0.072338 0.144676 0.289352 0.144676 0.289352 0.289352 0.072338 0.144676 0.144676 0.144676 0.072338 0.144676 0.289352 0.144676 0.289352 0.289352 0.072338 0.144676 0.144676 0.144676 0.072338 0.144676 0.289352 0.144676 0.289352 0.289352 0.072338 0.144676 0.144676 0.144676 0.072338 0.144676 0.289352 0.144676 0.289352 0.289352 0.072338 0.144676 0.144676 0.144676 0.072338 0.144676 0.289352 0.144676 0.289352 0.289352 0.072338 0.144676 0.144676 0.144676 0.072338 0.144676 0.289352 0.144676 0.289352 0.289352 0.072338 0.144676 0.144676 0.144676 0.072338 0.144676 0.289352 0.144676 0.289352 0.289352 0.072338 0.144676 0.144676 0.144676 0.072338 0.144676 0.289352 0.144676 0.289352 0.289352 0.072338 0.144676 0.144676 0.144676 0.072338 0.144676 0.289352 0.144676 0.289352 0.289352 0.0723379 0.144676 0.144676 0.144676 0.0723379 0.144676 0.289352 0.144676 0.289352 0.289352 0.0723379 0.144676 0.144676 0.144676 0.0723379 0.144676 0.289352 0.144676 0.289352 0.289352 0.072338 0.144676 0.144676 0.144676 0.072338 0.144676 0.289352 0.144676 0.289352 0.289352 0.072338 0.144676 0.144676 0.144676 0.072338 0.144676 0.289352 0.144676 0.289352 0.289352 0.072338 0.144676 0.144676 0.144676 0.072338 0.144676 0.289352 0.144676 0.289352 0.289352 0.0723379 0.144676 0.144676 0.144676 0.0723379 0.144676 0.289352 0.144676 0.289352 0.289352 0.072338 0.144676 0.144676 0.144676 0.072338 0.144676 0.289352 0.144676 0.289352 0.289352 0.072338 0.144676 0.144676 0.144676 0.072338 0.144676 0.289352 0.144676 0.289352 0.289352 0.0723379 0.144676 0.144676 0.144676 0.0723379 0.144676 0.289352 0.144676 0.289352 0.289352 0.0723379 0.144676 0.144676 0.144676 0.0723379 0.144676 0.289352 0.144676 0.289352 0.289352 0.0723379 0.144676 0.144676 0.144676 0.0723379 0.144676 0.289352 0.144676 0.289352 0.289352 0.072338 0.144676 0.144676 0.144676 0.072338 0.144676 0.289352 0.144676 0.289352 0.289352 0.072338 0.144676 0.144676 0.144676 0.072338 0.144676 0.289352 0.144676 0.289352 0.289352 0.0723379 0.144676 0.144676 0.144676 0.0723379 0.072338 0.144676 0.144676 0.144676 0.289352 0.072338 0.072338 0.144676 0.144676 0.072338 0.072338 0.144676 0.289352 0.144676 0.144676 0.289352 0.289352 0.144676 0.072338 0.144676 0.144676 0.072338 0.144676 0.072338 0.144676 0.289352 0.144676 0.289352 0.289352 0.072338 0.144676 0.144676 0.144676 0.072338 0.144676 0.289352 0.144676 0.289352 0.289352 0.072338 0.144676 0.144676 0.144676 0.072338 0.144676 0.289352 0.144676 0.289352 0.289352 0.072338 0.144676 0.144676 0.144676 0.072338 0.144676 0.289352 0.144676 0.289352 0.289352 0.072338 0.144676 0.144676 0.144676 0.072338 0.144676 0.289352 0.144676 0.289352 0.289352 0.072338 0.144676 0.144676 0.144676 0.072338 0.144676 0.289352 0.144676 0.289352 0.289352 0.072338 0.144676 0.144676 0.144676 0.072338 0.144676 0.289352 0.144676 0.289352 0.289352 0.072338 0.144676 0.144676 0.144676 0.072338 0.144676 0.289352 0.144676 0.289352 0.289352 0.072338 0.144676 0.144676 0.144676 0.072338 0.144676 0.289352 0.144676 0.289352 0.289352 0.0723379 0.144676 0.144676 0.144676 0.0723379 0.144676 0.289352 0.144676 0.289352 0.289352 0.0723379 0.144676 0.144676 0.144676 0.0723379 0.144676 0.289352 0.144676 0.289352 0.289352 0.072338 0.144676 0.144676 0.144676 0.072338 0.144676 0.289352 0.144676 0.289352 0.289352 0.072338 0.144676 0.144676 0.144676 0.072338 0.144676 0.289352 0.144676 0.289352 0.289352 0.072338 0.144676 0.144676 0.144676 0.072338 0.144676 0.289352 0.144676 0.289352 0.289352 0.0723379 0.144676 0.144676 0.144676 0.0723379 0.144676 0.289352 0.144676 0.289352 0.289352 0.072338 0.144676 0.144676 0.144676 0.072338 0.144676 0.289352 0.144676 0.289352 0.289352 0.072338 0.144676 0.144676 0.144676 0.072338 0.144676 0.289352 0.144676 0.289352 0.289352 0.0723379 0.144676 0.144676 0.144676 0.0723379 0.144676 0.289352 0.144676 0.289352 0.289352 0.0723379 0.144676 0.144676 0.144676 0.0723379 0.144676 0.289352 0.144676 0.289352 0.289352 0.0723379 0.144676 0.144676 0.144676 0.0723379 0.144676 0.289352 0.144676 0.289352 0.289352 0.072338 0.144676 0.144676 0.144676 0.072338 0.144676 0.289352 0.144676 0.289352 0.289352 0.0723379 0.144676 0.144676 0.144676 0.0723379 0.144676 0.289352 0.144676 0.289352 0.289352 0.0723379 0.144676 0.144676 0.144676 0.0723379 0.072338 0.144676 0.144676 0.144676 0.289352 0.072338 0.072338 0.144676 0.144676 0.072338 0.072338 0.144676 0.289352 0.144676 0.144676 0.289352 0.289352 0.144676 0.072338 0.144676 0.144676 0.072338 0.144676 0.072338 0.144676 0.289352 0.144676 0.289352 0.289352 0.072338 0.144676 0.144676 0.144676 0.072338 0.144676 0.289352 0.144676 0.289352 0.289352 0.072338 0.144676 0.144676 0.144676 0.072338 0.144676 0.289352 0.144676 0.289352 0.289352 0.072338 0.144676 0.144676 0.144676 0.072338 0.144676 0.289352 0.144676 0.289352 0.289352 0.072338 0.144676 0.144676 0.144676 0.072338 0.144676 0.289352 0.144676 0.289352 0.289352 0.072338 0.144676 0.144676 0.144676 0.072338 0.144676 0.289352 0.144676 0.289352 0.289352 0.072338 0.144676 0.144676 0.144676 0.072338 0.144676 0.289352 0.144676 0.289352 0.289352 0.0723379 0.144676 0.144676 0.144676 0.0723379 0.144676 0.289352 0.144676 0.289352 0.289352 0.072338 0.144676 0.144676 0.144676 0.072338 0.144676 0.289352 0.144676 0.289352 0.289352 0.0723379 0.144676 0.144676 0.144676 0.0723379 0.144676 0.289352 0.144676 0.289352 0.289352 0.0723379 0.144676 0.144676 0.144676 0.0723379 0.144676 0.289352 0.144676 0.289352 0.289352 0.072338 0.144676 0.144676 0.144676 0.072338 0.144676 0.289352 0.144676 0.289352 0.289352 0.072338 0.144676 0.144676 0.144676 0.072338 0.144676 0.289352 0.144676 0.289352 0.289352 0.072338 0.144676 0.144676 0.144676 0.072338 0.144676 0.289352 0.144676 0.289352 0.289352 0.0723379 0.144676 0.144676 0.144676 0.0723379 0.144676 0.289352 0.144676 0.289352 0.289352 0.072338 0.144676 0.144676 0.144676 0.072338 0.144676 0.289352 0.144676 0.289352 0.289352 0.072338 0.144676 0.144676 0.144676 0.072338 0.144676 0.289352 0.144676 0.289352 0.289352 0.0723379 0.144676 0.144676 0.144676 0.0723379 0.144676 0.289352 0.144676 0.289352 0.289352 0.0723379 0.144676 0.144676 0.144676 0.0723379 0.144676 0.289352 0.144676 0.289352 0.289352 0.0723379 0.144676 0.144676 0.144676 0.0723379 0.144676 0.289352 0.144676 0.289352 0.289352 0.072338 0.144676 0.144676 0.144676 0.072338 0.144676 0.289352 0.144676 0.289352 0.289352 0.0723379 0.144676 0.144676 0.144676 0.0723379 0.144676 0.289352 0.144676 0.289352 0.289352 0.0723379 0.144676 0.144676 0.144676 0.0723379 0.072338 0.144676 0.144676 0.144676 0.289352 0.072338 0.072338 0.144676 0.144676 0.072338 0.072338 0.144676 0.289352 0.144676 0.144676 0.289352 0.289352 0.144676 0.072338 0.144676 0.144676 0.072338 0.144676 0.072338 0.144676 0.289352 0.144676 0.289352 0.289352 0.072338 0.144676 0.144676 0.144676 0.072338 0.144676 0.289352 0.144676 0.289352 0.289352 0.072338 0.144676 0.144676 0.144676 0.072338 0.144676 0.289352 0.144676 0.289352 0.289352 0.072338 0.144676 0.144676 0.144676 0.072338 0.144676 0.289352 0.144676 0.289352 0.289352 0.072338 0.144676 0.144676 0.144676 0.072338 0.144676 0.289352 0.144676 0.289352 0.289352 0.072338 0.144676 0.144676 0.144676 0.072338 0.144676 0.289352 0.144676 0.289352 0.289352 0.072338 0.144676 0.144676 0.144676 0.072338 0.144676 0.289352 0.144676 0.289352 0.289352 0.0723379 0.144676 0.144676 0.144676 0.0723379 0.144676 0.289352 0.144676 0.289352 0.289352 0.072338 0.144676 0.144676 0.144676 0.072338 0.144676 0.289352 0.144676 0.289352 0.289352 0.0723379 0.144676 0.144676 0.144676 0.0723379 0.144676 0.289352 0.144676 0.289352 0.289352 0.0723379 0.144676 0.144676 0.144676 0.0723379 0.144676 0.289352 0.144676 0.289352 0.289352 0.072338 0.144676 0.144676 0.144676 0.072338 0.144676 0.289352 0.144676 0.289352 0.289352 0.072338 0.144676 0.144676 0.144676 0.072338 0.144676 0.289352 0.144676 0.289352 0.289352 0.072338 0.144676 0.144676 0.144676 0.072338 0.144676 0.289352 0.144676 0.289352 0.289352 0.0723379 0.144676 0.144676 0.144676 0.0723379 0.144676 0.289352 0.144676 0.289352 0.289352 0.072338 0.144676 0.144676 0.144676 0.072338 0.144676 0.289352 0.144676 0.289352 0.289352 0.072338 0.144676 0.144676 0.144676 0.072338 0.144676 0.289352 0.144676 0.289352 0.289352 0.0723379 0.144676 0.144676 0.144676 0.0723379 0.144676 0.289352 0.144676 0.289352 0.289352 0.0723379 0.144676 0.144676 0.144676 0.0723379 0.144676 0.289352 0.144676 0.289352 0.289352 0.0723379 0.144676 0.144676 0.144676 0.0723379 0.144676 0.289352 0.144676 0.289352 0.289352 0.072338 0.144676 0.144676 0.144676 0.072338 0.144676 0.289352 0.144676 0.289352 0.289352 0.0723379 0.144676 0.144676 0.144676 0.0723379 0.144676 0.289352 0.144676 0.289352 0.289352 0.0723379 0.144676 0.144676 0.144676 0.0723379 0.072338 0.144676 0.144676 0.144676 0.289352 0.072338 0.072338 0.144676 0.144676 0.072338 0.072338 0.144676 0.289352 0.144676 0.144676 0.289352 0.289352 0.144676 0.072338 0.144676 0.144676 0.072338 0.144676 0.072338 0.144676 0.289352 0.144676 0.289352 0.289352 0.072338 0.144676 0.144676 0.144676 0.072338 0.144676 0.289352 0.144676 0.289352 0.289352 0.072338 0.144676 0.144676 0.144676 0.072338 0.144676 0.289352 0.144676 0.289352 0.289352 0.072338 0.144676 0.144676 0.144676 0.072338 0.144676 0.289352 0.144676 0.289352 0.289352 0.072338 0.144676 0.144676 0.144676 0.072338 0.144676 0.289352 0.144676 0.289352 0.289352 0.072338 0.144676 0.144676 0.144676 0.072338 0.144676 0.289352 0.144676 0.289352 0.289352 0.072338 0.144676 0.144676 0.144676 0.072338 0.144676 0.289352 0.144676 0.289352 0.289352 0.072338 0.144676 0.144676 0.144676 0.072338 0.144676 0.289352 0.144676 0.289352 0.289352 0.072338 0.144676 0.144676 0.144676 0.072338 0.144676 0.289352 0.144676 0.289352 0.289352 0.0723379 0.144676 0.144676 0.144676 0.0723379 0.144676 0.289352 0.144676 0.289352 0.289352 0.0723379 0.144676 0.144676 0.144676 0.0723379 0.144676 0.289352 0.144676 0.289352 0.289352 0.072338 0.144676 0.144676 0.144676 0.072338 0.144676 0.289352 0.144676 0.289352 0.289352 0.072338 0.144676 0.144676 0.144676 0.072338 0.144676 0.289352 0.144676 0.289352 0.289352 0.072338 0.144676 0.144676 0.144676 0.072338 0.144676 0.289352 0.144676 0.289352 0.289352 0.0723379 0.144676 0.144676 0.144676 0.0723379 0.144676 0.289352 0.144676 0.289352 0.289352 0.072338 0.144676 0.144676 0.144676 0.072338 0.144676 0.289352 0.144676 0.289352 0.289352 0.072338 0.144676 0.144676 0.144676 0.072338 0.144676 0.289352 0.144676 0.289352 0.289352 0.0723379 0.144676 0.144676 0.144676 0.0723379 0.144676 0.289352 0.144676 0.289352 0.289352 0.0723379 0.144676 0.144676 0.144676 0.0723379 0.144676 0.289352 0.144676 0.289352 0.289352 0.0723379 0.144676 0.144676 0.144676 0.0723379 0.144676 0.289352 0.144676 0.289352 0.289352 0.072338 0.144676 0.144676 0.144676 0.072338 0.144676 0.289352 0.144676 0.289352 0.289352 0.0723379 0.144676 0.144676 0.144676 0.0723379 0.144676 0.289352 0.144676 0.289352 0.289352 0.0723379 0.144676 0.144676 0.144676 0.0723379 0.072338 0.144676 0.144676 0.144676 0.289352 0.072338 0.072338 0.144676 0.144676 0.072338 0.072338 0.144676 0.289352 0.144676 0.144676 0.289352 0.289352 0.144676 0.072338 0.144676 0.144676 0.072338 0.144676 0.072338 0.144676 0.289352 0.144676 0.289352 0.289352 0.072338 0.144676 0.144676 0.144676 0.072338 0.144676 0.289352 0.144676 0.289352 0.289352 0.072338 0.144676 0.144676 0.144676 0.072338 0.144676 0.289352 0.144676 0.289352 0.289352 0.072338 0.144676 0.144676 0.144676 0.072338 0.144676 0.289352 0.144676 0.289352 0.289352 0.072338 0.144676 0.144676 0.144676 0.072338 0.144676 0.289352 0.144676 0.289352 0.289352 0.072338 0.144676 0.144676 0.144676 0.072338 0.144676 0.289352 0.144676 0.289352 0.289352 0.072338 0.144676 0.144676 0.144676 0.072338 0.144676 0.289352 0.144676 0.289352 0.289352 0.072338 0.144676 0.144676 0.144676 0.072338 0.144676 0.289352 0.144676 0.289352 0.289352 0.072338 0.144676 0.144676 0.144676 0.072338 0.144676 0.289352 0.144676 0.289352 0.289352 0.072338 0.144676 0.144676 0.144676 0.072338 0.144676 0.289352 0.144676 0.289352 0.289352 0.072338 0.144676 0.144676 0.144676 0.072338 0.144676 0.289352 0.144676 0.289352 0.289352 0.072338 0.144676 0.144676 0.144676 0.072338 0.144676 0.289352 0.144676 0.289352 0.289352 0.072338 0.144676 0.144676 0.144676 0.072338 0.144676 0.289352 0.144676 0.289352 0.289352 0.072338 0.144676 0.144676 0.144676 0.072338 0.144676 0.289352 0.144676 0.289352 0.289352 0.0723379 0.144676 0.144676 0.144676 0.0723379 0.144676 0.289352 0.144676 0.289352 0.289352 0.072338 0.144676 0.144676 0.144676 0.072338 0.144676 0.289352 0.144676 0.289352 0.289352 0.072338 0.144676 0.144676 0.144676 0.072338 0.144676 0.289352 0.144676 0.289352 0.289352 0.072338 0.144676 0.144676 0.144676 0.072338 0.144676 0.289352 0.144676 0.289352 0.289352 0.0723379 0.144676 0.144676 0.144676 0.0723379 0.144676 0.289352 0.144676 0.289352 0.289352 0.0723379 0.144676 0.144676 0.144676 0.0723379 0.144676 0.289352 0.144676 0.289352 0.289352 0.072338 0.144676 0.144676 0.144676 0.072338 0.144676 0.289352 0.144676 0.289352 0.289352 0.072338 0.144676 0.144676 0.144676 0.072338 0.144676 0.289352 0.144676 0.289352 0.289352 0.0723379 0.144676 0.144676 0.144676 0.0723379 0.072338 0.144676 0.144676 0.144676 0.289352 0.072338 0.072338 0.144676 0.144676 0.072338 0.072338 0.144676 0.289352 0.144676 0.072338 0.144676 0.144676 0.072338 0.072338 0.144676 0.144676 0.072338 0.072338 0.072338 0.144676 0.289352 0.072338 0.144676 0.144676 0.072338 0.144676 0.144676 0.072338 0.072338 0.144676 0.289352 0.072338 0.144676 0.144676 0.072338 0.144676 0.144676 0.072338 0.072338 0.144676 0.289352 0.0723379 0.144676 0.144676 0.0723379 0.144676 0.144676 0.0723379 0.0723379 0.144676 0.289352 0.0723379 0.144676 0.144676 0.0723379 0.144676 0.144676 0.0723379 0.0723379 0.144676 0.289352 0.0723379 0.144676 0.144676 0.0723379 0.144676 0.144676 0.0723379 0.0723379 0.144676 0.289352 0.0723379 0.144676 0.144676 0.0723379 0.144676 0.144676 0.0723379 0.0723379 0.144676 0.289352 0.0723379 0.144676 0.144676 0.0723379 0.144676 0.144676 0.0723379 0.0723379 0.144676 0.289352 0.072338 0.144676 0.144676 0.072338 0.144676 0.144676 0.072338 0.072338 0.144676 0.289352 0.0723379 0.144676 0.144676 0.0723379 0.144676 0.144676 0.0723379 0.0723379 0.144676 0.289352 0.0723379 0.144676 0.144676 0.0723379 0.144676 0.144676 0.0723379 0.0723379 0.144676 0.289352 0.0723379 0.144676 0.144676 0.0723379 0.144676 0.144676 0.0723379 0.0723379 0.144676 0.289352 0.0723379 0.144676 0.144676 0.0723379 0.144676 0.144676 0.0723379 0.0723379 0.144676 0.289352 0.072338 0.144676 0.144676 0.072338 0.144676 0.144676 0.072338 0.072338 0.144676 0.289352 0.0723379 0.144676 0.144676 0.0723379 0.144676 0.144676 0.0723379 0.0723379 0.144676 0.289352 0.072338 0.144676 0.144676 0.072338 0.144676 0.144676 0.072338 0.072338 0.144676 0.289352 0.072338 0.144676 0.144676 0.072338 0.144676 0.144676 0.072338 0.072338 0.144676 0.289352 0.0723379 0.144676 0.144676 0.0723379 0.144676 0.144676 0.0723379 0.0723379 0.144676 0.289352 0.0723379 0.144676 0.144676 0.0723379 0.144676 0.144676 0.0723379 0.0723379 0.144676 0.289352 0.0723379 0.144676 0.144676 0.0723379 0.144676 0.144676 0.0723379 0.0723379 0.144676 0.289352 0.072338 0.144676 0.144676 0.072338 0.144676 0.144676 0.072338 0.072338 0.144676 0.289352 0.0723379 0.144676 0.144676 0.0723379 0.144676 0.144676 0.0723379 0.0723379 0.144676 0.289352 0.0723379 0.144676 0.144676 0.0723379 0.144676 0.144676 0.0723379 0.0723379 0.072338 0.144676 0.072338 0.072338 0.144676 0.072338 0.072338 0.144676 0.072338 0.072338 0.144676 0.144676 0.072338 0.289352 0.144676 0.289352 0.289352 0.144676 0.072338 0.144676 0.144676 0.072338 0.144676 0.072338 0.144676 0.144676 0.289352 0.289352 0.289352 0.072338 0.144676 0.144676 0.144676 0.072338 0.144676 0.144676 0.289352 0.289352 0.289352 0.072338 0.144676 0.144676 0.144676 0.072338 0.144676 0.144676 0.289352 0.289352 0.289352 0.072338 0.144676 0.144676 0.144676 0.072338 0.144676 0.144676 0.289352 0.289352 0.289352 0.072338 0.144676 0.144676 0.144676 0.072338 0.144676 0.144676 0.289352 0.289352 0.289352 0.072338 0.144676 0.144676 0.144676 0.072338 0.144676 0.144676 0.289352 0.289352 0.289352 0.072338 0.144676 0.144676 0.144676 0.072338 0.144676 0.144676 0.289352 0.289352 0.289352 0.072338 0.144676 0.144676 0.144676 0.072338 0.144676 0.144676 0.289352 0.289352 0.289352 0.072338 0.144676 0.144676 0.144676 0.072338 0.144676 0.144676 0.289352 0.289352 0.289352 0.072338 0.144676 0.144676 0.144676 0.072338 0.144676 0.144676 0.289352 0.289352 0.289352 0.072338 0.144676 0.144676 0.144676 0.072338 0.144676 0.144676 0.289352 0.289352 0.289352 0.072338 0.144676 0.144676 0.144676 0.072338 0.144676 0.144676 0.289352 0.289352 0.289352 0.072338 0.144676 0.144676 0.144676 0.072338 0.144676 0.144676 0.289352 0.289352 0.289352 0.072338 0.144676 0.144676 0.144676 0.072338 0.144676 0.144676 0.289352 0.289352 0.289352 0.072338 0.144676 0.144676 0.144676 0.072338 0.144676 0.144676 0.289352 0.289352 0.289352 0.072338 0.144676 0.144676 0.144676 0.072338 0.144676 0.144676 0.289352 0.289352 0.289352 0.072338 0.144676 0.144676 0.144676 0.072338 0.144676 0.144676 0.289352 0.289352 0.289352 0.072338 0.144676 0.144676 0.144676 0.072338 0.144676 0.144676 0.289352 0.289352 0.289352 0.072338 0.144676 0.144676 0.144676 0.072338 0.144676 0.144676 0.289352 0.289352 0.289352 0.072338 0.144676 0.144676 0.144676 0.072338 0.144676 0.144676 0.289352 0.289352 0.289352 0.072338 0.144676 0.144676 0.144676 0.072338 0.144676 0.144676 0.289352 0.289352 0.289352 0.072338 0.144676 0.144676 0.144676 0.072338 0.144676 0.144676 0.289352 0.289352 0.289352 0.072338 0.144676 0.144676 0.144676 0.072338 0.072338 0.144676 0.144676 0.144676 0.289352 0.072338 0.072338 0.144676 0.144676 0.072338 0.289352 0.144676 0.289352 0.289352 0.144676 0.144676 0.144676 0.072338 0.144676 0.072338 0.289352 0.289352 0.289352 0.144676 0.144676 0.144676 0.072338 0.289352 0.289352 0.289352 0.144676 0.144676 0.144676 0.072338 0.289352 0.289352 0.289352 0.144676 0.144676 0.144676 0.072338 0.289352 0.289352 0.289352 0.144676 0.144676 0.144676 0.072338 0.289352 0.289352 0.289352 0.144676 0.144676 0.144676 0.072338 0.289352 0.289352 0.289352 0.144676 0.144676 0.144676 0.072338 0.289352 0.289352 0.289352 0.144676 0.144676 0.144676 0.072338 0.289352 0.289352 0.289352 0.144676 0.144676 0.144676 0.072338 0.289352 0.289352 0.289352 0.144676 0.144676 0.144676 0.072338 0.289352 0.289352 0.289352 0.144676 0.144676 0.144676 0.072338 0.289352 0.289352 0.289352 0.144676 0.144676 0.144676 0.072338 0.289352 0.289352 0.289352 0.144676 0.144676 0.144676 0.072338 0.289352 0.289352 0.289352 0.144676 0.144676 0.144676 0.072338 0.289352 0.289352 0.289352 0.144676 0.144676 0.144676 0.072338 0.289352 0.289352 0.289352 0.144676 0.144676 0.144676 0.072338 0.289352 0.289352 0.289352 0.144676 0.144676 0.144676 0.072338 0.289352 0.289352 0.289352 0.144676 0.144676 0.144676 0.072338 0.289352 0.289352 0.289352 0.144676 0.144676 0.144676 0.072338 0.289352 0.289352 0.289352 0.144676 0.144676 0.144676 0.072338 0.289352 0.289352 0.289352 0.144676 0.144676 0.144676 0.072338 0.289352 0.289352 0.289352 0.144676 0.144676 0.144676 0.072338 0.289352 0.289352 0.289352 0.144676 0.144676 0.144676 0.072338 0.144676 0.144676 0.289352 0.072338 0.144676 0.144676 0.072338 0.289352 0.144676 0.289352 0.289352 0.144676 0.144676 0.144676 0.072338 0.144676 0.072338 0.289352 0.289352 0.289352 0.144676 0.144676 0.144676 0.072338 0.289352 0.289352 0.289352 0.144676 0.144676 0.144676 0.072338 0.289352 0.289352 0.289352 0.144676 0.144676 0.144676 0.072338 0.289352 0.289352 0.289352 0.144676 0.144676 0.144676 0.072338 0.289352 0.289352 0.289352 0.144676 0.144676 0.144676 0.072338 0.289352 0.289352 0.289352 0.144676 0.144676 0.144676 0.072338 0.289352 0.289352 0.289352 0.144676 0.144676 0.144676 0.072338 0.289352 0.289352 0.289352 0.144676 0.144676 0.144676 0.072338 0.289352 0.289352 0.289352 0.144676 0.144676 0.144676 0.072338 0.289352 0.289352 0.289352 0.144676 0.144676 0.144676 0.072338 0.289352 0.289352 0.289352 0.144676 0.144676 0.144676 0.072338 0.289352 0.289352 0.289352 0.144676 0.144676 0.144676 0.072338 0.289352 0.289352 0.289352 0.144676 0.144676 0.144676 0.072338 0.289352 0.289352 0.289352 0.144676 0.144676 0.144676 0.072338 0.289352 0.289352 0.289352 0.144676 0.144676 0.144676 0.072338 0.289352 0.289352 0.289352 0.144676 0.144676 0.144676 0.072338 0.289352 0.289352 0.289352 0.144676 0.144676 0.144676 0.072338 0.289352 0.289352 0.289352 0.144676 0.144676 0.144676 0.072338 0.289352 0.289352 0.289352 0.144676 0.144676 0.144676 0.072338 0.289352 0.289352 0.289352 0.144676 0.144676 0.144676 0.072338 0.289352 0.289352 0.289352 0.144676 0.144676 0.144676 0.072338 0.289352 0.289352 0.289352 0.144676 0.144676 0.144676 0.072338 0.144676 0.144676 0.289352 0.072338 0.144676 0.144676 0.072338 0.289352 0.144676 0.289352 0.289352 0.144676 0.144676 0.144676 0.072338 0.144676 0.072338 0.289352 0.289352 0.289352 0.144676 0.144676 0.144676 0.072338 0.289352 0.289352 0.289352 0.144676 0.144676 0.144676 0.072338 0.289352 0.289352 0.289352 0.144676 0.144676 0.144676 0.072338 0.289352 0.289352 0.289352 0.144676 0.144676 0.144676 0.072338 0.289352 0.289352 0.289352 0.144676 0.144676 0.144676 0.072338 0.289352 0.289352 0.289352 0.144676 0.144676 0.144676 0.072338 0.289352 0.289352 0.289352 0.144676 0.144676 0.144676 0.072338 0.289352 0.289352 0.289352 0.144676 0.144676 0.144676 0.072338 0.289352 0.289352 0.289352 0.144676 0.144676 0.144676 0.072338 0.289352 0.289352 0.289352 0.144676 0.144676 0.144676 0.072338 0.289352 0.289352 0.289352 0.144676 0.144676 0.144676 0.072338 0.289352 0.289352 0.289352 0.144676 0.144676 0.144676 0.072338 0.289352 0.289352 0.289352 0.144676 0.144676 0.144676 0.072338 0.289352 0.289352 0.289352 0.144676 0.144676 0.144676 0.072338 0.289352 0.289352 0.289352 0.144676 0.144676 0.144676 0.072338 0.289352 0.289352 0.289352 0.144676 0.144676 0.144676 0.072338 0.289352 0.289352 0.289352 0.144676 0.144676 0.144676 0.072338 0.289352 0.289352 0.289352 0.144676 0.144676 0.144676 0.072338 0.289352 0.289352 0.289352 0.144676 0.144676 0.144676 0.072338 0.289352 0.289352 0.289352 0.144676 0.144676 0.144676 0.072338 0.289352 0.289352 0.289352 0.144676 0.144676 0.144676 0.072338 0.289352 0.289352 0.289352 0.144676 0.144676 0.144676 0.072338 0.144676 0.144676 0.289352 0.072338 0.144676 0.144676 0.072338 0.289352 0.144676 0.289352 0.289352 0.144676 0.144676 0.144676 0.072338 0.144676 0.072338 0.289352 0.289352 0.289352 0.144676 0.144676 0.144676 0.072338 0.289352 0.289352 0.289352 0.144676 0.144676 0.144676 0.072338 0.289352 0.289352 0.289352 0.144676 0.144676 0.144676 0.072338 0.289352 0.289352 0.289352 0.144676 0.144676 0.144676 0.072338 0.289352 0.289352 0.289352 0.144676 0.144676 0.144676 0.072338 0.289352 0.289352 0.289352 0.144676 0.144676 0.144676 0.072338 0.289352 0.289352 0.289352 0.144676 0.144676 0.144676 0.072338 0.289352 0.289352 0.289352 0.144676 0.144676 0.144676 0.072338 0.289352 0.289352 0.289352 0.144676 0.144676 0.144676 0.072338 0.289352 0.289352 0.289352 0.144676 0.144676 0.144676 0.072338 0.289352 0.289352 0.289352 0.144676 0.144676 0.144676 0.072338 0.289352 0.289352 0.289352 0.144676 0.144676 0.144676 0.072338 0.289352 0.289352 0.289352 0.144676 0.144676 0.144676 0.072338 0.289352 0.289352 0.289352 0.144676 0.144676 0.144676 0.072338 0.289352 0.289352 0.289352 0.144676 0.144676 0.144676 0.072338 0.289352 0.289352 0.289352 0.144676 0.144676 0.144676 0.072338 0.289352 0.289352 0.289352 0.144676 0.144676 0.144676 0.072338 0.289352 0.289352 0.289352 0.144676 0.144676 0.144676 0.072338 0.289352 0.289352 0.289352 0.144676 0.144676 0.144676 0.0723379 0.289352 0.289352 0.289352 0.144676 0.144676 0.144676 0.072338 0.289352 0.289352 0.289352 0.144676 0.144676 0.144676 0.072338 0.289352 0.289352 0.289352 0.144676 0.144676 0.144676 0.072338 0.144676 0.144676 0.289352 0.072338 0.144676 0.144676 0.072338 0.289352 0.144676 0.289352 0.289352 0.144676 0.144676 0.144676 0.072338 0.144676 0.072338 0.289352 0.289352 0.289352 0.144676 0.144676 0.144676 0.072338 0.289352 0.289352 0.289352 0.144676 0.144676 0.144676 0.072338 0.289352 0.289352 0.289352 0.144676 0.144676 0.144676 0.072338 0.289352 0.289352 0.289352 0.144676 0.144676 0.144676 0.072338 0.289352 0.289352 0.289352 0.144676 0.144676 0.144676 0.072338 0.289352 0.289352 0.289352 0.144676 0.144676 0.144676 0.072338 0.289352 0.289352 0.289352 0.144676 0.144676 0.144676 0.072338 0.289352 0.289352 0.289352 0.144676 0.144676 0.144676 0.072338 0.289352 0.289352 0.289352 0.144676 0.144676 0.144676 0.072338 0.289352 0.289352 0.289352 0.144676 0.144676 0.144676 0.072338 0.289352 0.289352 0.289352 0.144676 0.144676 0.144676 0.072338 0.289352 0.289352 0.289352 0.144676 0.144676 0.144676 0.072338 0.289352 0.289352 0.289352 0.144676 0.144676 0.144676 0.072338 0.289352 0.289352 0.289352 0.144676 0.144676 0.144676 0.072338 0.289352 0.289352 0.289352 0.144676 0.144676 0.144676 0.072338 0.289352 0.289352 0.289352 0.144676 0.144676 0.144676 0.072338 0.289352 0.289352 0.289352 0.144676 0.144676 0.144676 0.072338 0.289352 0.289352 0.289352 0.144676 0.144676 0.144676 0.072338 0.289352 0.289352 0.289352 0.144676 0.144676 0.144676 0.072338 0.289352 0.289352 0.289352 0.144676 0.144676 0.144676 0.072338 0.289352 0.289352 0.289352 0.144676 0.144676 0.144676 0.072338 0.289352 0.289352 0.289352 0.144676 0.144676 0.144676 0.072338 0.144676 0.144676 0.289352 0.072338 0.144676 0.144676 0.072338 0.289352 0.144676 0.289352 0.289352 0.144676 0.144676 0.144676 0.072338 0.144676 0.072338 0.289352 0.289352 0.289352 0.144676 0.144676 0.144676 0.072338 0.289352 0.289352 0.289352 0.144676 0.144676 0.144676 0.072338 0.289352 0.289352 0.289352 0.144676 0.144676 0.144676 0.072338 0.289352 0.289352 0.289352 0.144676 0.144676 0.144676 0.072338 0.289352 0.289352 0.289352 0.144676 0.144676 0.144676 0.072338 0.289352 0.289352 0.289352 0.144676 0.144676 0.144676 0.072338 0.289352 0.289352 0.289352 0.144676 0.144676 0.144676 0.072338 0.289352 0.289352 0.289352 0.144676 0.144676 0.144676 0.072338 0.289352 0.289352 0.289352 0.144676 0.144676 0.144676 0.072338 0.289352 0.289352 0.289352 0.144676 0.144676 0.144676 0.072338 0.289352 0.289352 0.289352 0.144676 0.144676 0.144676 0.072338 0.289352 0.289352 0.289352 0.144676 0.144676 0.144676 0.072338 0.289352 0.289352 0.289352 0.144676 0.144676 0.144676 0.072338 0.289352 0.289352 0.289352 0.144676 0.144676 0.144676 0.072338 0.289352 0.289352 0.289352 0.144676 0.144676 0.144676 0.072338 0.289352 0.289352 0.289352 0.144676 0.144676 0.144676 0.072338 0.289352 0.289352 0.289352 0.144676 0.144676 0.144676 0.072338 0.289352 0.289352 0.289352 0.144676 0.144676 0.144676 0.072338 0.289352 0.289352 0.289352 0.144676 0.144676 0.144676 0.072338 0.289352 0.289352 0.289352 0.144676 0.144676 0.144676 0.0723381 0.289352 0.289352 0.289352 0.144676 0.144676 0.144676 0.072338 0.289352 0.289352 0.289352 0.144676 0.144676 0.144676 0.072338 0.144676 0.144676 0.289352 0.072338 0.144676 0.144676 0.072338 0.289352 0.144676 0.144676 0.144676 0.072338 0.144676 0.144676 0.072338 0.072338 0.072338 0.289352 0.144676 0.144676 0.144676 0.144676 0.072338 0.072338 0.289352 0.144676 0.144676 0.144676 0.144676 0.072338 0.072338 0.289352 0.144676 0.144676 0.144676 0.144676 0.072338 0.072338 0.289352 0.144676 0.144676 0.144676 0.144676 0.072338 0.072338 0.289352 0.144676 0.144676 0.144676 0.144676 0.072338 0.072338 0.289352 0.144676 0.144676 0.144676 0.144676 0.072338 0.072338 0.289352 0.144676 0.144676 0.144676 0.144676 0.072338 0.072338 0.289352 0.144676 0.144676 0.144676 0.144676 0.072338 0.072338 0.289352 0.144676 0.144676 0.144676 0.144676 0.072338 0.072338 0.289352 0.144676 0.144676 0.144676 0.144676 0.072338 0.072338 0.289352 0.144676 0.144676 0.144676 0.144676 0.072338 0.072338 0.289352 0.144676 0.144676 0.144676 0.144676 0.072338 0.072338 0.289352 0.144676 0.144676 0.144676 0.144676 0.072338 0.072338 0.289352 0.144676 0.144676 0.144676 0.144676 0.072338 0.072338 0.289352 0.144676 0.144676 0.144676 0.144676 0.072338 0.072338 0.289352 0.144676 0.144676 0.144676 0.144676 0.072338 0.072338 0.289352 0.144676 0.144676 0.144676 0.144676 0.072338 0.072338 0.289352 0.144676 0.144676 0.144676 0.144676 0.072338 0.072338 0.289352 0.144676 0.144676 0.144676 0.144676 0.0723379 0.0723379 0.289352 0.144676 0.144676 0.144676 0.144676 0.072338 0.072338 0.289352 0.144676 0.144676 0.144676 0.144676 0.072338 0.072338 0.289352 0.144676 0.144676 0.144676 0.144676 0.072338 0.072338 0.144676 0.072338 0.144676 0.072338 0.144676 0.072338 0.072338 0.144676 0.144676 0.072338 0.289352 0.144676 0.289352 0.289352 0.144676 0.072338 0.144676 0.144676 0.072338 0.144676 0.072338 0.144676 0.144676 0.289352 0.289352 0.289352 0.072338 0.144676 0.144676 0.144676 0.072338 0.144676 0.144676 0.289352 0.289352 0.289352 0.072338 0.144676 0.144676 0.144676 0.072338 0.144676 0.144676 0.289352 0.289352 0.289352 0.0723379 0.144676 0.144676 0.144676 0.0723379 0.144676 0.144676 0.289352 0.289352 0.289352 0.072338 0.144676 0.144676 0.144676 0.072338 0.144676 0.144676 0.289352 0.289352 0.289352 0.072338 0.144676 0.144676 0.144676 0.072338 0.144676 0.144676 0.289352 0.289352 0.289352 0.072338 0.144676 0.144676 0.144676 0.072338 0.144676 0.144676 0.289352 0.289352 0.289352 0.072338 0.144676 0.144676 0.144676 0.072338 0.144676 0.144676 0.289352 0.289352 0.289352 0.072338 0.144676 0.144676 0.144676 0.072338 0.144676 0.144676 0.289352 0.289352 0.289352 0.0723379 0.144676 0.144676 0.144676 0.0723379 0.144676 0.144676 0.289352 0.289352 0.289352 0.0723379 0.144676 0.144676 0.144676 0.0723379 0.144676 0.144676 0.289352 0.289352 0.289352 0.072338 0.144676 0.144676 0.144676 0.072338 0.144676 0.144676 0.289352 0.289352 0.289352 0.072338 0.144676 0.144676 0.144676 0.072338 0.144676 0.144676 0.289352 0.289352 0.289352 0.072338 0.144676 0.144676 0.144676 0.072338 0.144676 0.144676 0.289352 0.289352 0.289352 0.0723379 0.144676 0.144676 0.144676 0.0723379 0.144676 0.144676 0.289352 0.289352 0.289352 0.072338 0.144676 0.144676 0.144676 0.072338 0.144676 0.144676 0.289352 0.289352 0.289352 0.072338 0.144676 0.144676 0.144676 0.072338 0.144676 0.144676 0.289352 0.289352 0.289352 0.0723379 0.144676 0.144676 0.144676 0.0723379 0.144676 0.144676 0.289352 0.289352 0.289352 0.0723379 0.144676 0.144676 0.144676 0.0723379 0.144676 0.144676 0.289352 0.289352 0.289352 0.0723379 0.144676 0.144676 0.144676 0.0723379 0.144676 0.144676 0.289352 0.289352 0.289352 0.072338 0.144676 0.144676 0.144676 0.072338 0.144676 0.144676 0.289352 0.289352 0.289352 0.0723379 0.144676 0.144676 0.144676 0.0723379 0.144676 0.144676 0.289352 0.289352 0.289352 0.0723379 0.144676 0.144676 0.144676 0.0723379 0.072338 0.144676 0.144676 0.144676 0.289352 0.072338 0.072338 0.144676 0.144676 0.072338 0.289352 0.144676 0.289352 0.289352 0.144676 0.144676 0.144676 0.072338 0.144676 0.072338 0.289352 0.289352 0.289352 0.144676 0.144676 0.144676 0.072338 0.289352 0.289352 0.289352 0.144676 0.144676 0.144676 0.072338 0.289352 0.289352 0.289352 0.144676 0.144676 0.144676 0.0723379 0.289352 0.289352 0.289352 0.144676 0.144676 0.144676 0.072338 0.289352 0.289352 0.289352 0.144676 0.144676 0.144676 0.072338 0.289352 0.289352 0.289352 0.144676 0.144676 0.144676 0.072338 0.289352 0.289352 0.289352 0.144676 0.144676 0.144676 0.072338 0.289352 0.289352 0.289352 0.144676 0.144676 0.144676 0.072338 0.289352 0.289352 0.289352 0.144676 0.144676 0.144676 0.0723379 0.289352 0.289352 0.289352 0.144676 0.144676 0.144676 0.0723379 0.289352 0.289352 0.289352 0.144676 0.144676 0.144676 0.072338 0.289352 0.289352 0.289352 0.144676 0.144676 0.144676 0.072338 0.289352 0.289352 0.289352 0.144676 0.144676 0.144676 0.072338 0.289352 0.289352 0.289352 0.144676 0.144676 0.144676 0.0723379 0.289352 0.289352 0.289352 0.144676 0.144676 0.144676 0.072338 0.289352 0.289352 0.289352 0.144676 0.144676 0.144676 0.072338 0.289352 0.289352 0.289352 0.144676 0.144676 0.144676 0.0723379 0.289352 0.289352 0.289352 0.144676 0.144676 0.144676 0.0723379 0.289352 0.289352 0.289352 0.144676 0.144676 0.144676 0.0723379 0.289352 0.289352 0.289352 0.144676 0.144676 0.144676 0.072338 0.289352 0.289352 0.289352 0.144676 0.144676 0.144676 0.0723379 0.289352 0.289352 0.289352 0.144676 0.144676 0.144676 0.0723379 0.144676 0.144676 0.289352 0.072338 0.144676 0.144676 0.072338 0.289352 0.144676 0.289352 0.289352 0.144676 0.144676 0.144676 0.072338 0.144676 0.072338 0.289352 0.289352 0.289352 0.144676 0.144676 0.144676 0.072338 0.289352 0.289352 0.289352 0.144676 0.144676 0.144676 0.072338 0.289352 0.289352 0.289352 0.144676 0.144676 0.144676 0.072338 0.289352 0.289352 0.289352 0.144676 0.144676 0.144676 0.072338 0.289352 0.289352 0.289352 0.144676 0.144676 0.144676 0.072338 0.289352 0.289352 0.289352 0.144676 0.144676 0.144676 0.072338 0.289352 0.289352 0.289352 0.144676 0.144676 0.144676 0.072338 0.289352 0.289352 0.289352 0.144676 0.144676 0.144676 0.072338 0.289352 0.289352 0.289352 0.144676 0.144676 0.144676 0.0723379 0.289352 0.289352 0.289352 0.144676 0.144676 0.144676 0.0723379 0.289352 0.289352 0.289352 0.144676 0.144676 0.144676 0.072338 0.289352 0.289352 0.289352 0.144676 0.144676 0.144676 0.072338 0.289352 0.289352 0.289352 0.144676 0.144676 0.144676 0.072338 0.289352 0.289352 0.289352 0.144676 0.144676 0.144676 0.0723379 0.289352 0.289352 0.289352 0.144676 0.144676 0.144676 0.072338 0.289352 0.289352 0.289352 0.144676 0.144676 0.144676 0.072338 0.289352 0.289352 0.289352 0.144676 0.144676 0.144676 0.0723379 0.289352 0.289352 0.289352 0.144676 0.144676 0.144676 0.0723379 0.289352 0.289352 0.289352 0.144676 0.144676 0.144676 0.0723379 0.289352 0.289352 0.289352 0.144676 0.144676 0.144676 0.072338 0.289352 0.289352 0.289352 0.144676 0.144676 0.144676 0.0723379 0.289352 0.289352 0.289352 0.144676 0.144676 0.144676 0.0723379 0.144676 0.144676 0.289352 0.072338 0.144676 0.144676 0.072338 0.289352 0.144676 0.289352 0.289352 0.144676 0.144676 0.144676 0.0723379 0.144676 0.0723379 0.289352 0.289352 0.289352 0.144676 0.144676 0.144676 0.072338 0.289352 0.289352 0.289352 0.144676 0.144676 0.144676 0.072338 0.289352 0.289352 0.289352 0.144676 0.144676 0.144676 0.0723379 0.289352 0.289352 0.289352 0.144676 0.144676 0.144676 0.0723379 0.289352 0.289352 0.289352 0.144676 0.144676 0.144676 0.072338 0.289352 0.289352 0.289352 0.144676 0.144676 0.144676 0.072338 0.289352 0.289352 0.289352 0.144676 0.144676 0.144676 0.0723379 0.289352 0.289352 0.289352 0.144676 0.144676 0.144676 0.0723379 0.289352 0.289352 0.289352 0.144676 0.144676 0.144676 0.0723379 0.289352 0.289352 0.289352 0.144676 0.144676 0.144676 0.0723379 0.289352 0.289352 0.289352 0.144676 0.144676 0.144676 0.072338 0.289352 0.289352 0.289352 0.144676 0.144676 0.144676 0.0723379 0.289352 0.289352 0.289352 0.144676 0.144676 0.144676 0.072338 0.289352 0.289352 0.289352 0.144676 0.144676 0.144676 0.0723379 0.289352 0.289352 0.289352 0.144676 0.144676 0.144676 0.072338 0.289352 0.289352 0.289352 0.144676 0.144676 0.144676 0.072338 0.289352 0.289352 0.289352 0.144676 0.144676 0.144676 0.0723379 0.289352 0.289352 0.289352 0.144676 0.144676 0.144676 0.0723379 0.289352 0.289352 0.289352 0.144676 0.144676 0.144676 0.0723379 0.289352 0.289352 0.289352 0.144676 0.144676 0.144676 0.072338 0.289352 0.289352 0.289352 0.144676 0.144676 0.144676 0.0723379 0.289352 0.289352 0.289352 0.144676 0.144676 0.144676 0.0723379 0.144676 0.144676 0.289352 0.072338 0.144676 0.144676 0.072338 0.289352 0.144676 0.289352 0.289352 0.144676 0.144676 0.144676 0.072338 0.144676 0.072338 0.289352 0.289352 0.289352 0.144676 0.144676 0.144676 0.072338 0.289352 0.289352 0.289352 0.144676 0.144676 0.144676 0.072338 0.289352 0.289352 0.289352 0.144676 0.144676 0.144676 0.0723379 0.289352 0.289352 0.289352 0.144676 0.144676 0.144676 0.0723379 0.289352 0.289352 0.289352 0.144676 0.144676 0.144676 0.072338 0.289352 0.289352 0.289352 0.144676 0.144676 0.144676 0.072338 0.289352 0.289352 0.289352 0.144676 0.144676 0.144676 0.0723379 0.289352 0.289352 0.289352 0.144676 0.144676 0.144676 0.0723379 0.289352 0.289352 0.289352 0.144676 0.144676 0.144676 0.0723379 0.289352 0.289352 0.289352 0.144676 0.144676 0.144676 0.0723379 0.289352 0.289352 0.289352 0.144676 0.144676 0.144676 0.072338 0.289352 0.289352 0.289352 0.144676 0.144676 0.144676 0.0723379 0.289352 0.289352 0.289352 0.144676 0.144676 0.144676 0.072338 0.289352 0.289352 0.289352 0.144676 0.144676 0.144676 0.0723379 0.289352 0.289352 0.289352 0.144676 0.144676 0.144676 0.072338 0.289352 0.289352 0.289352 0.144676 0.144676 0.144676 0.072338 0.289352 0.289352 0.289352 0.144676 0.144676 0.144676 0.0723379 0.289352 0.289352 0.289352 0.144676 0.144676 0.144676 0.0723379 0.289352 0.289352 0.289352 0.144676 0.144676 0.144676 0.0723379 0.289352 0.289352 0.289352 0.144676 0.144676 0.144676 0.072338 0.289352 0.289352 0.289352 0.144676 0.144676 0.144676 0.0723379 0.289352 0.289352 0.289352 0.144676 0.144676 0.144676 0.0723379 0.144676 0.144676 0.289352 0.072338 0.144676 0.144676 0.072338 0.289352 0.144676 0.289352 0.289352 0.144676 0.144676 0.144676 0.072338 0.144676 0.072338 0.289352 0.289352 0.289352 0.144676 0.144676 0.144676 0.072338 0.289352 0.289352 0.289352 0.144676 0.144676 0.144676 0.072338 0.289352 0.289352 0.289352 0.144676 0.144676 0.144676 0.0723379 0.289352 0.289352 0.289352 0.144676 0.144676 0.144676 0.0723379 0.289352 0.289352 0.289352 0.144676 0.144676 0.144676 0.072338 0.289352 0.289352 0.289352 0.144676 0.144676 0.144676 0.072338 0.289352 0.289352 0.289352 0.144676 0.144676 0.144676 0.0723379 0.289352 0.289352 0.289352 0.144676 0.144676 0.144676 0.072338 0.289352 0.289352 0.289352 0.144676 0.144676 0.144676 0.0723379 0.289352 0.289352 0.289352 0.144676 0.144676 0.144676 0.0723379 0.289352 0.289352 0.289352 0.144676 0.144676 0.144676 0.072338 0.289352 0.289352 0.289352 0.144676 0.144676 0.144676 0.072338 0.289352 0.289352 0.289352 0.144676 0.144676 0.144676 0.072338 0.289352 0.289352 0.289352 0.144676 0.144676 0.144676 0.0723379 0.289352 0.289352 0.289352 0.144676 0.144676 0.144676 0.072338 0.289352 0.289352 0.289352 0.144676 0.144676 0.144676 0.072338 0.289352 0.289352 0.289352 0.144676 0.144676 0.144676 0.0723379 0.289352 0.289352 0.289352 0.144676 0.144676 0.144676 0.0723379 0.289352 0.289352 0.289352 0.144676 0.144676 0.144676 0.0723379 0.289352 0.289352 0.289352 0.144676 0.144676 0.144676 0.072338 0.289352 0.289352 0.289352 0.144676 0.144676 0.144676 0.0723379 0.289352 0.289352 0.289352 0.144676 0.144676 0.144676 0.0723379 0.144676 0.144676 0.289352 0.072338 0.144676 0.144676 0.072338 0.289352 0.144676 0.289352 0.289352 0.144676 0.144676 0.144676 0.072338 0.144676 0.072338 0.289352 0.289352 0.289352 0.144676 0.144676 0.144676 0.072338 0.289352 0.289352 0.289352 0.144676 0.144676 0.144676 0.072338 0.289352 0.289352 0.289352 0.144676 0.144676 0.144676 0.072338 0.289352 0.289352 0.289352 0.144676 0.144676 0.144676 0.072338 0.289352 0.289352 0.289352 0.144676 0.144676 0.144676 0.072338 0.289352 0.289352 0.289352 0.144676 0.144676 0.144676 0.072338 0.289352 0.289352 0.289352 0.144676 0.144676 0.144676 0.072338 0.289352 0.289352 0.289352 0.144676 0.144676 0.144676 0.072338 0.289352 0.289352 0.289352 0.144676 0.144676 0.144676 0.0723379 0.289352 0.289352 0.289352 0.144676 0.144676 0.144676 0.0723379 0.289352 0.289352 0.289352 0.144676 0.144676 0.144676 0.072338 0.289352 0.289352 0.289352 0.144676 0.144676 0.144676 0.072338 0.289352 0.289352 0.289352 0.144676 0.144676 0.144676 0.072338 0.289352 0.289352 0.289352 0.144676 0.144676 0.144676 0.0723379 0.289352 0.289352 0.289352 0.144676 0.144676 0.144676 0.072338 0.289352 0.289352 0.289352 0.144676 0.144676 0.144676 0.072338 0.289352 0.289352 0.289352 0.144676 0.144676 0.144676 0.0723379 0.289352 0.289352 0.289352 0.144676 0.144676 0.144676 0.0723379 0.289352 0.289352 0.289352 0.144676 0.144676 0.144676 0.0723379 0.289352 0.289352 0.289352 0.144676 0.144676 0.144676 0.072338 0.289352 0.289352 0.289352 0.144676 0.144676 0.144676 0.0723379 0.289352 0.289352 0.289352 0.144676 0.144676 0.144676 0.0723379 0.144676 0.144676 0.289352 0.072338 0.144676 0.144676 0.072338 0.289352 0.144676 0.144676 0.144676 0.0723379 0.144676 0.144676 0.0723379 0.0723379 0.0723379 0.289352 0.144676 0.144676 0.144676 0.144676 0.0723379 0.0723379 0.289352 0.144676 0.144676 0.144676 0.144676 0.072338 0.072338 0.289352 0.144676 0.144676 0.144676 0.144676 0.0723379 0.0723379 0.289352 0.144676 0.144676 0.144676 0.144676 0.0723379 0.0723379 0.289352 0.144676 0.144676 0.144676 0.144676 0.0723379 0.0723379 0.289352 0.144676 0.144676 0.144676 0.144676 0.0723379 0.0723379 0.289352 0.144676 0.144676 0.144676 0.144676 0.0723379 0.0723379 0.289352 0.144676 0.144676 0.144676 0.144676 0.0723379 0.0723379 0.289352 0.144676 0.144676 0.144676 0.144676 0.0723379 0.0723379 0.289352 0.144676 0.144676 0.144676 0.144676 0.0723379 0.0723379 0.289352 0.144676 0.144676 0.144676 0.144676 0.0723379 0.0723379 0.289352 0.144676 0.144676 0.144676 0.144676 0.0723379 0.0723379 0.289352 0.144676 0.144676 0.144676 0.144676 0.072338 0.072338 0.289352 0.144676 0.144676 0.144676 0.144676 0.0723379 0.0723379 0.289352 0.144676 0.144676 0.144676 0.144676 0.072338 0.072338 0.289352 0.144676 0.144676 0.144676 0.144676 0.0723379 0.0723379 0.289352 0.144676 0.144676 0.144676 0.144676 0.0723379 0.0723379 0.289352 0.144676 0.144676 0.144676 0.144676 0.0723379 0.0723379 0.289352 0.144676 0.144676 0.144676 0.144676 0.0723379 0.0723379 0.289352 0.144676 0.144676 0.144676 0.144676 0.072338 0.072338 0.289352 0.144676 0.144676 0.144676 0.144676 0.0723379 0.0723379 0.289352 0.144676 0.144676 0.144676 0.144676 0.0723379 0.0723379 0.144676 0.072338 0.144676 0.072338 0.144676 0.072338 0.072338 0.144676 0.144676 0.072338 0.289352 0.144676 0.289352 0.289352 0.144676 0.072338 0.144676 0.144676 0.072338 0.144676 0.072338 0.144676 0.144676 0.289352 0.289352 0.289352 0.072338 0.144676 0.144676 0.144676 0.072338 0.144676 0.144676 0.289352 0.289352 0.289352 0.072338 0.144676 0.144676 0.144676 0.072338 0.144676 0.144676 0.289352 0.289352 0.289352 0.072338 0.144676 0.144676 0.144676 0.072338 0.144676 0.144676 0.289352 0.289352 0.289352 0.072338 0.144676 0.144676 0.144676 0.072338 0.144676 0.144676 0.289352 0.289352 0.289352 0.072338 0.144676 0.144676 0.144676 0.072338 0.144676 0.144676 0.289352 0.289352 0.289352 0.072338 0.144676 0.144676 0.144676 0.072338 0.144676 0.144676 0.289352 0.289352 0.289352 0.072338 0.144676 0.144676 0.144676 0.072338 0.144676 0.144676 0.289352 0.289352 0.289352 0.072338 0.144676 0.144676 0.144676 0.072338 0.144676 0.144676 0.289352 0.289352 0.289352 0.0723379 0.144676 0.144676 0.144676 0.0723379 0.144676 0.144676 0.289352 0.289352 0.289352 0.0723379 0.144676 0.144676 0.144676 0.0723379 0.144676 0.144676 0.289352 0.289352 0.289352 0.072338 0.144676 0.144676 0.144676 0.072338 0.144676 0.144676 0.289352 0.289352 0.289352 0.072338 0.144676 0.144676 0.144676 0.072338 0.144676 0.144676 0.289352 0.289352 0.289352 0.072338 0.144676 0.144676 0.144676 0.072338 0.144676 0.144676 0.289352 0.289352 0.289352 0.0723379 0.144676 0.144676 0.144676 0.0723379 0.144676 0.144676 0.289352 0.289352 0.289352 0.072338 0.144676 0.144676 0.144676 0.072338 0.144676 0.144676 0.289352 0.289352 0.289352 0.072338 0.144676 0.144676 0.144676 0.072338 0.144676 0.144676 0.289352 0.289352 0.289352 0.0723379 0.144676 0.144676 0.144676 0.0723379 0.144676 0.144676 0.289352 0.289352 0.289352 0.0723379 0.144676 0.144676 0.144676 0.0723379 0.144676 0.144676 0.289352 0.289352 0.289352 0.0723379 0.144676 0.144676 0.144676 0.0723379 0.144676 0.144676 0.289352 0.289352 0.289352 0.072338 0.144676 0.144676 0.144676 0.072338 0.144676 0.144676 0.289352 0.289352 0.289352 0.072338 0.144676 0.144676 0.144676 0.072338 0.144676 0.144676 0.289352 0.289352 0.289352 0.0723379 0.144676 0.144676 0.144676 0.0723379 0.072338 0.144676 0.144676 0.144676 0.289352 0.072338 0.072338 0.144676 0.144676 0.072338 0.289352 0.144676 0.289352 0.289352 0.144676 0.144676 0.144676 0.072338 0.144676 0.072338 0.289352 0.289352 0.289352 0.144676 0.144676 0.144676 0.072338 0.289352 0.289352 0.289352 0.144676 0.144676 0.144676 0.072338 0.289352 0.289352 0.289352 0.144676 0.144676 0.144676 0.072338 0.289352 0.289352 0.289352 0.144676 0.144676 0.144676 0.072338 0.289352 0.289352 0.289352 0.144676 0.144676 0.144676 0.072338 0.289352 0.289352 0.289352 0.144676 0.144676 0.144676 0.072338 0.289352 0.289352 0.289352 0.144676 0.144676 0.144676 0.072338 0.289352 0.289352 0.289352 0.144676 0.144676 0.144676 0.072338 0.289352 0.289352 0.289352 0.144676 0.144676 0.144676 0.0723379 0.289352 0.289352 0.289352 0.144676 0.144676 0.144676 0.0723379 0.289352 0.289352 0.289352 0.144676 0.144676 0.144676 0.072338 0.289352 0.289352 0.289352 0.144676 0.144676 0.144676 0.072338 0.289352 0.289352 0.289352 0.144676 0.144676 0.144676 0.072338 0.289352 0.289352 0.289352 0.144676 0.144676 0.144676 0.0723379 0.289352 0.289352 0.289352 0.144676 0.144676 0.144676 0.072338 0.289352 0.289352 0.289352 0.144676 0.144676 0.144676 0.072338 0.289352 0.289352 0.289352 0.144676 0.144676 0.144676 0.0723379 0.289352 0.289352 0.289352 0.144676 0.144676 0.144676 0.0723379 0.289352 0.289352 0.289352 0.144676 0.144676 0.144676 0.0723379 0.289352 0.289352 0.289352 0.144676 0.144676 0.144676 0.072338 0.289352 0.289352 0.289352 0.144676 0.144676 0.144676 0.072338 0.289352 0.289352 0.289352 0.144676 0.144676 0.144676 0.0723379 0.144676 0.144676 0.289352 0.072338 0.144676 0.144676 0.072338 0.289352 0.144676 0.289352 0.289352 0.144676 0.144676 0.144676 0.072338 0.144676 0.072338 0.289352 0.289352 0.289352 0.144676 0.144676 0.144676 0.072338 0.289352 0.289352 0.289352 0.144676 0.144676 0.144676 0.072338 0.289352 0.289352 0.289352 0.144676 0.144676 0.144676 0.072338 0.289352 0.289352 0.289352 0.144676 0.144676 0.144676 0.072338 0.289352 0.289352 0.289352 0.144676 0.144676 0.144676 0.072338 0.289352 0.289352 0.289352 0.144676 0.144676 0.144676 0.072338 0.289352 0.289352 0.289352 0.144676 0.144676 0.144676 0.072338 0.289352 0.289352 0.289352 0.144676 0.144676 0.144676 0.072338 0.289352 0.289352 0.289352 0.144676 0.144676 0.144676 0.0723379 0.289352 0.289352 0.289352 0.144676 0.144676 0.144676 0.0723379 0.289352 0.289352 0.289352 0.144676 0.144676 0.144676 0.072338 0.289352 0.289352 0.289352 0.144676 0.144676 0.144676 0.072338 0.289352 0.289352 0.289352 0.144676 0.144676 0.144676 0.072338 0.289352 0.289352 0.289352 0.144676 0.144676 0.144676 0.0723379 0.289352 0.289352 0.289352 0.144676 0.144676 0.144676 0.072338 0.289352 0.289352 0.289352 0.144676 0.144676 0.144676 0.072338 0.289352 0.289352 0.289352 0.144676 0.144676 0.144676 0.0723379 0.289352 0.289352 0.289352 0.144676 0.144676 0.144676 0.0723379 0.289352 0.289352 0.289352 0.144676 0.144676 0.144676 0.0723379 0.289352 0.289352 0.289352 0.144676 0.144676 0.144676 0.072338 0.289352 0.289352 0.289352 0.144676 0.144676 0.144676 0.072338 0.289352 0.289352 0.289352 0.144676 0.144676 0.144676 0.0723379 0.144676 0.144676 0.289352 0.072338 0.144676 0.144676 0.072338 0.289352 0.144676 0.289352 0.289352 0.144676 0.144676 0.144676 0.072338 0.144676 0.072338 0.289352 0.289352 0.289352 0.144676 0.144676 0.144676 0.072338 0.289352 0.289352 0.289352 0.144676 0.144676 0.144676 0.072338 0.289352 0.289352 0.289352 0.144676 0.144676 0.144676 0.0723379 0.289352 0.289352 0.289352 0.144676 0.144676 0.144676 0.0723379 0.289352 0.289352 0.289352 0.144676 0.144676 0.144676 0.072338 0.289352 0.289352 0.289352 0.144676 0.144676 0.144676 0.072338 0.289352 0.289352 0.289352 0.144676 0.144676 0.144676 0.0723379 0.289352 0.289352 0.289352 0.144676 0.144676 0.144676 0.072338 0.289352 0.289352 0.289352 0.144676 0.144676 0.144676 0.0723379 0.289352 0.289352 0.289352 0.144676 0.144676 0.144676 0.0723379 0.289352 0.289352 0.289352 0.144676 0.144676 0.144676 0.072338 0.289352 0.289352 0.289352 0.144676 0.144676 0.144676 0.0723379 0.289352 0.289352 0.289352 0.144676 0.144676 0.144676 0.072338 0.289352 0.289352 0.289352 0.144676 0.144676 0.144676 0.0723379 0.289352 0.289352 0.289352 0.144676 0.144676 0.144676 0.072338 0.289352 0.289352 0.289352 0.144676 0.144676 0.144676 0.072338 0.289352 0.289352 0.289352 0.144676 0.144676 0.144676 0.0723379 0.289352 0.289352 0.289352 0.144676 0.144676 0.144676 0.0723379 0.289352 0.289352 0.289352 0.144676 0.144676 0.144676 0.0723379 0.289352 0.289352 0.289352 0.144676 0.144676 0.144676 0.072338 0.289352 0.289352 0.289352 0.144676 0.144676 0.144676 0.0723379 0.289352 0.289352 0.289352 0.144676 0.144676 0.144676 0.0723379 0.144676 0.144676 0.289352 0.072338 0.144676 0.144676 0.072338 0.289352 0.144676 0.289352 0.289352 0.144676 0.144676 0.144676 0.072338 0.144676 0.072338 0.289352 0.289352 0.289352 0.144676 0.144676 0.144676 0.072338 0.289352 0.289352 0.289352 0.144676 0.144676 0.144676 0.072338 0.289352 0.289352 0.289352 0.144676 0.144676 0.144676 0.0723379 0.289352 0.289352 0.289352 0.144676 0.144676 0.144676 0.072338 0.289352 0.289352 0.289352 0.144676 0.144676 0.144676 0.072338 0.289352 0.289352 0.289352 0.144676 0.144676 0.144676 0.072338 0.289352 0.289352 0.289352 0.144676 0.144676 0.144676 0.072338 0.289352 0.289352 0.289352 0.144676 0.144676 0.144676 0.072338 0.289352 0.289352 0.289352 0.144676 0.144676 0.144676 0.0723379 0.289352 0.289352 0.289352 0.144676 0.144676 0.144676 0.0723379 0.289352 0.289352 0.289352 0.144676 0.144676 0.144676 0.072338 0.289352 0.289352 0.289352 0.144676 0.144676 0.144676 0.0723379 0.289352 0.289352 0.289352 0.144676 0.144676 0.144676 0.072338 0.289352 0.289352 0.289352 0.144676 0.144676 0.144676 0.0723379 0.289352 0.289352 0.289352 0.144676 0.144676 0.144676 0.072338 0.289352 0.289352 0.289352 0.144676 0.144676 0.144676 0.072338 0.289352 0.289352 0.289352 0.144676 0.144676 0.144676 0.0723379 0.289352 0.289352 0.289352 0.144676 0.144676 0.144676 0.0723379 0.289352 0.289352 0.289352 0.144676 0.144676 0.144676 0.0723379 0.289352 0.289352 0.289352 0.144676 0.144676 0.144676 0.072338 0.289352 0.289352 0.289352 0.144676 0.144676 0.144676 0.0723379 0.289352 0.289352 0.289352 0.144676 0.144676 0.144676 0.0723379 0.144676 0.144676 0.289352 0.072338 0.144676 0.144676 0.072338 0.289352 0.144676 0.289352 0.289352 0.144676 0.144676 0.144676 0.072338 0.144676 0.072338 0.289352 0.289352 0.289352 0.144676 0.144676 0.144676 0.072338 0.289352 0.289352 0.289352 0.144676 0.144676 0.144676 0.072338 0.289352 0.289352 0.289352 0.144676 0.144676 0.144676 0.072338 0.289352 0.289352 0.289352 0.144676 0.144676 0.144676 0.072338 0.289352 0.289352 0.289352 0.144676 0.144676 0.144676 0.072338 0.289352 0.289352 0.289352 0.144676 0.144676 0.144676 0.072338 0.289352 0.289352 0.289352 0.144676 0.144676 0.144676 0.072338 0.289352 0.289352 0.289352 0.144676 0.144676 0.144676 0.072338 0.289352 0.289352 0.289352 0.144676 0.144676 0.144676 0.0723379 0.289352 0.289352 0.289352 0.144676 0.144676 0.144676 0.0723379 0.289352 0.289352 0.289352 0.144676 0.144676 0.144676 0.072338 0.289352 0.289352 0.289352 0.144676 0.144676 0.144676 0.072338 0.289352 0.289352 0.289352 0.144676 0.144676 0.144676 0.072338 0.289352 0.289352 0.289352 0.144676 0.144676 0.144676 0.0723379 0.289352 0.289352 0.289352 0.144676 0.144676 0.144676 0.072338 0.289352 0.289352 0.289352 0.144676 0.144676 0.144676 0.072338 0.289352 0.289352 0.289352 0.144676 0.144676 0.144676 0.0723379 0.289352 0.289352 0.289352 0.144676 0.144676 0.144676 0.0723379 0.289352 0.289352 0.289352 0.144676 0.144676 0.144676 0.0723379 0.289352 0.289352 0.289352 0.144676 0.144676 0.144676 0.072338 0.289352 0.289352 0.289352 0.144676 0.144676 0.144676 0.0723379 0.289352 0.289352 0.289352 0.144676 0.144676 0.144676 0.0723379 0.144676 0.144676 0.289352 0.072338 0.144676 0.144676 0.072338 0.289352 0.144676 0.289352 0.289352 0.144676 0.144676 0.144676 0.072338 0.144676 0.072338 0.289352 0.289352 0.289352 0.144676 0.144676 0.144676 0.072338 0.289352 0.289352 0.289352 0.144676 0.144676 0.144676 0.072338 0.289352 0.289352 0.289352 0.144676 0.144676 0.144676 0.072338 0.289352 0.289352 0.289352 0.144676 0.144676 0.144676 0.072338 0.289352 0.289352 0.289352 0.144676 0.144676 0.144676 0.072338 0.289352 0.289352 0.289352 0.144676 0.144676 0.144676 0.072338 0.289352 0.289352 0.289352 0.144676 0.144676 0.144676 0.072338 0.289352 0.289352 0.289352 0.144676 0.144676 0.144676 0.072338 0.289352 0.289352 0.289352 0.144676 0.144676 0.144676 0.0723379 0.289352 0.289352 0.289352 0.144676 0.144676 0.144676 0.0723379 0.289352 0.289352 0.289352 0.144676 0.144676 0.144676 0.072338 0.289352 0.289352 0.289352 0.144676 0.144676 0.144676 0.072338 0.289352 0.289352 0.289352 0.144676 0.144676 0.144676 0.072338 0.289352 0.289352 0.289352 0.144676 0.144676 0.144676 0.0723379 0.289352 0.289352 0.289352 0.144676 0.144676 0.144676 0.072338 0.289352 0.289352 0.289352 0.144676 0.144676 0.144676 0.072338 0.289352 0.289352 0.289352 0.144676 0.144676 0.144676 0.0723379 0.289352 0.289352 0.289352 0.144676 0.144676 0.144676 0.0723379 0.289352 0.289352 0.289352 0.144676 0.144676 0.144676 0.0723379 0.289352 0.289352 0.289352 0.144676 0.144676 0.144676 0.072338 0.289352 0.289352 0.289352 0.144676 0.144676 0.144676 0.0723379 0.289352 0.289352 0.289352 0.144676 0.144676 0.144676 0.0723379 0.144676 0.144676 0.289352 0.072338 0.144676 0.144676 0.072338 0.289352 0.144676 0.144676 0.144676 0.072338 0.144676 0.144676 0.072338 0.072338 0.072338 0.289352 0.144676 0.144676 0.144676 0.144676 0.072338 0.072338 0.289352 0.144676 0.144676 0.144676 0.144676 0.072338 0.072338 0.289352 0.144676 0.144676 0.144676 0.144676 0.0723379 0.0723379 0.289352 0.144676 0.144676 0.144676 0.144676 0.0723379 0.0723379 0.289352 0.144676 0.144676 0.144676 0.144676 0.072338 0.072338 0.289352 0.144676 0.144676 0.144676 0.144676 0.0723379 0.0723379 0.289352 0.144676 0.144676 0.144676 0.144676 0.0723379 0.0723379 0.289352 0.144676 0.144676 0.144676 0.144676 0.072338 0.072338 0.289352 0.144676 0.144676 0.144676 0.144676 0.0723379 0.0723379 0.289352 0.144676 0.144676 0.144676 0.144676 0.0723379 0.0723379 0.289352 0.144676 0.144676 0.144676 0.144676 0.0723379 0.0723379 0.289352 0.144676 0.144676 0.144676 0.144676 0.0723379 0.0723379 0.289352 0.144676 0.144676 0.144676 0.144676 0.072338 0.072338 0.289352 0.144676 0.144676 0.144676 0.144676 0.0723379 0.0723379 0.289352 0.144676 0.144676 0.144676 0.144676 0.072338 0.072338 0.289352 0.144676 0.144676 0.144676 0.144676 0.0723379 0.0723379 0.289352 0.144676 0.144676 0.144676 0.144676 0.0723379 0.0723379 0.289352 0.144676 0.144676 0.144676 0.144676 0.0723379 0.0723379 0.289352 0.144676 0.144676 0.144676 0.144676 0.0723379 0.0723379 0.289352 0.144676 0.144676 0.144676 0.144676 0.072338 0.072338 0.289352 0.144676 0.144676 0.144676 0.144676 0.0723379 0.0723379 0.289352 0.144676 0.144676 0.144676 0.144676 0.0723379 0.0723379 0.144676 0.072338 0.144676 0.072338 0.144676 0.072338 0.072338 0.144676 0.144676 0.0723379 0.289352 0.144676 0.289352 0.289352 0.144676 0.0723379 0.144676 0.144676 0.0723379 0.144676 0.0723379 0.144676 0.144676 0.289352 0.289352 0.289352 0.0723379 0.144676 0.144676 0.144676 0.0723379 0.144676 0.144676 0.289352 0.289352 0.289352 0.0723379 0.144676 0.144676 0.144676 0.0723379 0.144676 0.144676 0.289352 0.289352 0.289352 0.0723379 0.144676 0.144676 0.144676 0.0723379 0.144676 0.144676 0.289352 0.289352 0.289352 0.0723379 0.144676 0.144676 0.144676 0.0723379 0.144676 0.144676 0.289352 0.289352 0.289352 0.0723379 0.144676 0.144676 0.144676 0.0723379 0.144676 0.144676 0.289352 0.289352 0.289352 0.0723379 0.144676 0.144676 0.144676 0.0723379 0.144676 0.144676 0.289352 0.289352 0.289352 0.0723379 0.144676 0.144676 0.144676 0.0723379 0.144676 0.144676 0.289352 0.289352 0.289352 0.0723379 0.144676 0.144676 0.144676 0.0723379 0.144676 0.144676 0.289352 0.289352 0.289352 0.0723379 0.144676 0.144676 0.144676 0.0723379 0.144676 0.144676 0.289352 0.289352 0.289352 0.0723379 0.144676 0.144676 0.144676 0.0723379 0.144676 0.144676 0.289352 0.289352 0.289352 0.0723379 0.144676 0.144676 0.144676 0.0723379 0.144676 0.144676 0.289352 0.289352 0.289352 0.0723379 0.144676 0.144676 0.144676 0.0723379 0.144676 0.144676 0.289352 0.289352 0.289352 0.0723379 0.144676 0.144676 0.144676 0.0723379 0.144676 0.144676 0.289352 0.289352 0.289352 0.0723379 0.144676 0.144676 0.144676 0.0723379 0.144676 0.144676 0.289352 0.289352 0.289352 0.0723379 0.144676 0.144676 0.144676 0.0723379 0.144676 0.144676 0.289352 0.289352 0.289352 0.0723379 0.144676 0.144676 0.144676 0.0723379 0.144676 0.144676 0.289352 0.289352 0.289352 0.0723379 0.144676 0.144676 0.144676 0.0723379 0.144676 0.144676 0.289352 0.289352 0.289352 0.0723379 0.144676 0.144676 0.144676 0.0723379 0.144676 0.144676 0.289352 0.289352 0.289351 0.0723379 0.144676 0.144676 0.144676 0.0723379 0.144676 0.144676 0.289352 0.289352 0.289352 0.0723379 0.144676 0.144676 0.144676 0.0723379 0.144676 0.144676 0.289352 0.289352 0.289352 0.0723379 0.144676 0.144676 0.144676 0.0723379 0.144676 0.144676 0.289352 0.289352 0.289352 0.0723379 0.144676 0.144676 0.144676 0.0723379 0.0723379 0.144676 0.144676 0.144676 0.289352 0.0723379 0.0723379 0.144676 0.144676 0.0723379 0.289352 0.144676 0.289352 0.289352 0.144676 0.144676 0.144676 0.0723379 0.144676 0.0723379 0.289352 0.289352 0.289352 0.144676 0.144676 0.144676 0.0723379 0.289352 0.289352 0.289352 0.144676 0.144676 0.144676 0.0723379 0.289352 0.289352 0.289352 0.144676 0.144676 0.144676 0.0723379 0.289352 0.289352 0.289352 0.144676 0.144676 0.144676 0.0723379 0.289352 0.289352 0.289352 0.144676 0.144676 0.144676 0.0723379 0.289352 0.289352 0.289352 0.144676 0.144676 0.144676 0.0723379 0.289352 0.289352 0.289352 0.144676 0.144676 0.144676 0.0723379 0.289352 0.289352 0.289352 0.144676 0.144676 0.144676 0.0723379 0.289352 0.289352 0.289352 0.144676 0.144676 0.144676 0.0723379 0.289352 0.289352 0.289352 0.144676 0.144676 0.144676 0.0723379 0.289352 0.289352 0.289352 0.144676 0.144676 0.144676 0.0723379 0.289352 0.289352 0.289352 0.144676 0.144676 0.144676 0.0723379 0.289352 0.289352 0.289352 0.144676 0.144676 0.144676 0.0723379 0.289352 0.289352 0.289351 0.144676 0.144676 0.144676 0.0723379 0.289352 0.289352 0.289352 0.144676 0.144676 0.144676 0.0723379 0.289352 0.289352 0.289352 0.144676 0.144676 0.144676 0.0723379 0.289352 0.289352 0.289352 0.144676 0.144676 0.144676 0.0723379 0.289351 0.289351 0.289352 0.144676 0.144676 0.144676 0.0723379 0.289352 0.289352 0.289351 0.144676 0.144676 0.144676 0.0723379 0.289352 0.289352 0.289352 0.144676 0.144676 0.144676 0.0723379 0.289352 0.289352 0.289352 0.144676 0.144676 0.144676 0.0723379 0.289352 0.289352 0.289352 0.144676 0.144676 0.144676 0.0723379 0.144676 0.144676 0.289352 0.0723379 0.144676 0.144676 0.0723379 0.289352 0.144676 0.289352 0.289352 0.144676 0.144676 0.144676 0.0723379 0.144676 0.0723379 0.289352 0.289352 0.289352 0.144676 0.144676 0.144676 0.0723379 0.289352 0.289352 0.289352 0.144676 0.144676 0.144676 0.0723379 0.289352 0.289352 0.289352 0.144676 0.144676 0.144676 0.0723379 0.289352 0.289352 0.289352 0.144676 0.144676 0.144676 0.0723379 0.289352 0.289352 0.289352 0.144676 0.144676 0.144676 0.0723379 0.289352 0.289352 0.289352 0.144676 0.144676 0.144676 0.0723379 0.289352 0.289352 0.289352 0.144676 0.144676 0.144676 0.0723379 0.289352 0.289352 0.289352 0.144676 0.144676 0.144676 0.0723379 0.289352 0.289352 0.289352 0.144676 0.144676 0.144676 0.0723379 0.289352 0.289352 0.289352 0.144676 0.144676 0.144676 0.0723379 0.289352 0.289352 0.289352 0.144676 0.144676 0.144676 0.0723379 0.289352 0.289352 0.289352 0.144676 0.144676 0.144676 0.0723379 0.289352 0.289352 0.289352 0.144676 0.144676 0.144676 0.0723379 0.289352 0.289352 0.289351 0.144676 0.144676 0.144676 0.0723379 0.289352 0.289352 0.289352 0.144676 0.144676 0.144676 0.0723379 0.289352 0.289352 0.289352 0.144676 0.144676 0.144676 0.0723379 0.289352 0.289352 0.289352 0.144676 0.144676 0.144676 0.0723379 0.289351 0.289351 0.289352 0.144676 0.144676 0.144676 0.0723379 0.289352 0.289352 0.289351 0.144676 0.144676 0.144676 0.0723379 0.289352 0.289352 0.289352 0.144676 0.144676 0.144676 0.0723379 0.289352 0.289352 0.289352 0.144676 0.144676 0.144676 0.0723379 0.289352 0.289352 0.289352 0.144676 0.144676 0.144676 0.0723379 0.144676 0.144676 0.289352 0.0723379 0.144676 0.144676 0.0723379 0.289352 0.144676 0.289352 0.289352 0.144676 0.144676 0.144676 0.0723379 0.144676 0.0723379 0.289352 0.289352 0.289352 0.144676 0.144676 0.144676 0.0723379 0.289352 0.289352 0.289352 0.144676 0.144676 0.144676 0.0723379 0.289352 0.289352 0.289352 0.144676 0.144676 0.144676 0.0723379 0.289352 0.289352 0.289352 0.144676 0.144676 0.144676 0.0723379 0.289352 0.289352 0.289352 0.144676 0.144676 0.144676 0.0723379 0.289352 0.289352 0.289352 0.144676 0.144676 0.144676 0.0723379 0.289352 0.289352 0.289352 0.144676 0.144676 0.144676 0.0723379 0.289352 0.289352 0.289352 0.144676 0.144676 0.144676 0.0723379 0.289352 0.289352 0.289352 0.144676 0.144676 0.144676 0.0723379 0.289352 0.289352 0.289352 0.144676 0.144676 0.144676 0.0723379 0.289352 0.289352 0.289352 0.144676 0.144676 0.144676 0.0723379 0.289352 0.289352 0.289352 0.144676 0.144676 0.144676 0.0723379 0.289352 0.289352 0.289352 0.144676 0.144676 0.144676 0.0723379 0.289352 0.289352 0.289351 0.144676 0.144676 0.144676 0.0723379 0.289352 0.289352 0.289352 0.144676 0.144676 0.144676 0.0723379 0.289352 0.289352 0.289352 0.144676 0.144676 0.144676 0.0723379 0.289352 0.289352 0.289352 0.144676 0.144676 0.144676 0.0723379 0.289351 0.289351 0.289351 0.144676 0.144676 0.144676 0.0723379 0.289352 0.289352 0.289351 0.144676 0.144676 0.144676 0.0723379 0.289352 0.289352 0.289352 0.144676 0.144676 0.144676 0.0723379 0.289352 0.289352 0.289352 0.144676 0.144676 0.144676 0.0723379 0.289352 0.289352 0.289352 0.144676 0.144676 0.144676 0.0723379 0.144676 0.144676 0.289352 0.0723379 0.144676 0.144676 0.0723379 0.289352 0.144676 0.289352 0.289352 0.144676 0.144676 0.144676 0.0723379 0.144676 0.0723379 0.289352 0.289352 0.289352 0.144676 0.144676 0.144676 0.0723379 0.289352 0.289352 0.289352 0.144676 0.144676 0.144676 0.0723379 0.289352 0.289352 0.289352 0.144676 0.144676 0.144676 0.0723379 0.289352 0.289352 0.289352 0.144676 0.144676 0.144676 0.0723379 0.289352 0.289352 0.289352 0.144676 0.144676 0.144676 0.0723379 0.289352 0.289352 0.289352 0.144676 0.144676 0.144676 0.0723379 0.289352 0.289352 0.289352 0.144676 0.144676 0.144676 0.0723379 0.289352 0.289352 0.289352 0.144676 0.144676 0.144676 0.0723379 0.289352 0.289352 0.289352 0.144676 0.144676 0.144676 0.0723379 0.289352 0.289352 0.289352 0.144676 0.144676 0.144676 0.0723379 0.289352 0.289352 0.289352 0.144676 0.144676 0.144676 0.0723379 0.289352 0.289352 0.289352 0.144676 0.144676 0.144676 0.0723379 0.289352 0.289352 0.289352 0.144676 0.144676 0.144676 0.0723379 0.289352 0.289352 0.289351 0.144676 0.144676 0.144676 0.0723379 0.289352 0.289352 0.289352 0.144676 0.144676 0.144676 0.0723379 0.289352 0.289352 0.289352 0.144676 0.144676 0.144676 0.0723379 0.289352 0.289352 0.289352 0.144676 0.144676 0.144676 0.0723379 0.289351 0.289351 0.289352 0.144676 0.144676 0.144676 0.0723379 0.289352 0.289352 0.289351 0.144676 0.144676 0.144676 0.0723379 0.289352 0.289352 0.289352 0.144676 0.144676 0.144676 0.0723379 0.289352 0.289352 0.289352 0.144676 0.144676 0.144676 0.0723379 0.289352 0.289352 0.289352 0.144676 0.144676 0.144676 0.0723379 0.144676 0.144676 0.289352 0.0723379 0.144676 0.144676 0.0723379 0.289352 0.144676 0.289352 0.289352 0.144676 0.144676 0.144676 0.0723379 0.144676 0.0723379 0.289352 0.289352 0.289352 0.144676 0.144676 0.144676 0.0723379 0.289352 0.289352 0.289352 0.144676 0.144676 0.144676 0.0723379 0.289352 0.289352 0.289352 0.144676 0.144676 0.144676 0.0723379 0.289352 0.289352 0.289352 0.144676 0.144676 0.144676 0.0723379 0.289352 0.289352 0.289352 0.144676 0.144676 0.144676 0.0723379 0.289352 0.289352 0.289352 0.144676 0.144676 0.144676 0.0723379 0.289352 0.289352 0.289352 0.144676 0.144676 0.144676 0.0723379 0.289352 0.289352 0.289352 0.144676 0.144676 0.144676 0.0723379 0.289352 0.289352 0.289352 0.144676 0.144676 0.144676 0.0723379 0.289352 0.289352 0.289352 0.144676 0.144676 0.144676 0.0723379 0.289352 0.289352 0.289352 0.144676 0.144676 0.144676 0.0723379 0.289352 0.289352 0.289352 0.144676 0.144676 0.144676 0.0723379 0.289352 0.289352 0.289352 0.144676 0.144676 0.144676 0.0723379 0.289352 0.289352 0.289352 0.144676 0.144676 0.144676 0.0723379 0.289352 0.289352 0.289352 0.144676 0.144676 0.144676 0.0723379 0.289352 0.289352 0.289352 0.144676 0.144676 0.144676 0.0723379 0.289352 0.289352 0.289352 0.144676 0.144676 0.144676 0.0723379 0.289351 0.289352 0.289352 0.144676 0.144676 0.144676 0.0723379 0.289352 0.289352 0.289351 0.144676 0.144676 0.144676 0.0723379 0.289352 0.289352 0.289352 0.144676 0.144676 0.144676 0.0723379 0.289352 0.289352 0.289352 0.144676 0.144676 0.144676 0.0723379 0.289352 0.289352 0.289352 0.144676 0.144676 0.144676 0.0723379 0.144676 0.144676 0.289352 0.0723379 0.144676 0.144676 0.0723379 0.289352 0.144676 0.289352 0.289352 0.144676 0.144676 0.144676 0.0723379 0.144676 0.0723379 0.289352 0.289352 0.289352 0.144676 0.144676 0.144676 0.0723379 0.289352 0.289352 0.289352 0.144676 0.144676 0.144676 0.0723379 0.289352 0.289352 0.289352 0.144676 0.144676 0.144676 0.0723379 0.289352 0.289352 0.289352 0.144676 0.144676 0.144676 0.0723379 0.289352 0.289352 0.289352 0.144676 0.144676 0.144676 0.0723379 0.289352 0.289352 0.289352 0.144676 0.144676 0.144676 0.0723379 0.289352 0.289352 0.289352 0.144676 0.144676 0.144676 0.0723379 0.289352 0.289352 0.289352 0.144676 0.144676 0.144676 0.0723379 0.289352 0.289352 0.289352 0.144676 0.144676 0.144676 0.0723379 0.289352 0.289352 0.289352 0.144676 0.144676 0.144676 0.0723379 0.289352 0.289352 0.289352 0.144676 0.144676 0.144676 0.0723379 0.289352 0.289352 0.289352 0.144676 0.144676 0.144676 0.0723379 0.289352 0.289352 0.289352 0.144676 0.144676 0.144676 0.0723379 0.289352 0.289352 0.289351 0.144676 0.144676 0.144676 0.0723379 0.289352 0.289352 0.289352 0.144676 0.144676 0.144676 0.0723379 0.289352 0.289352 0.289352 0.144676 0.144676 0.144676 0.0723379 0.289352 0.289352 0.289352 0.144676 0.144676 0.144676 0.0723379 0.289352 0.289351 0.289352 0.144676 0.144676 0.144676 0.0723379 0.289352 0.289352 0.289351 0.144676 0.144676 0.144676 0.0723379 0.289352 0.289352 0.289352 0.144676 0.144676 0.144676 0.0723379 0.289352 0.289352 0.289352 0.144676 0.144676 0.144676 0.0723379 0.289352 0.289352 0.289352 0.144676 0.144676 0.144676 0.0723379 0.144676 0.144676 0.289352 0.0723379 0.144676 0.144676 0.0723379 0.289352 0.144676 0.144676 0.144676 0.0723379 0.144676 0.144676 0.0723379 0.0723379 0.0723379 0.289352 0.144676 0.144676 0.144676 0.144676 0.0723379 0.0723379 0.289352 0.144676 0.144676 0.144676 0.144676 0.0723379 0.0723379 0.289352 0.144676 0.144676 0.144676 0.144676 0.0723379 0.0723379 0.289352 0.144676 0.144676 0.144676 0.144676 0.0723379 0.0723379 0.289352 0.144676 0.144676 0.144676 0.144676 0.0723379 0.0723379 0.289352 0.144676 0.144676 0.144676 0.144676 0.0723379 0.0723379 0.289352 0.144676 0.144676 0.144676 0.144676 0.0723379 0.0723379 0.289352 0.144676 0.144676 0.144676 0.144676 0.0723379 0.0723379 0.289352 0.144676 0.144676 0.144676 0.144676 0.0723379 0.0723379 0.289352 0.144676 0.144676 0.144676 0.144676 0.0723379 0.0723379 0.289352 0.144676 0.144676 0.144676 0.144676 0.0723379 0.0723379 0.289352 0.144676 0.144676 0.144676 0.144676 0.0723379 0.0723379 0.289352 0.144676 0.144676 0.144676 0.144676 0.0723379 0.0723379 0.289352 0.144676 0.144676 0.144676 0.144676 0.0723379 0.0723379 0.289352 0.144676 0.144676 0.144676 0.144676 0.0723379 0.0723379 0.289352 0.144676 0.144676 0.144676 0.144676 0.0723379 0.0723379 0.289351 0.144676 0.144676 0.144676 0.144676 0.0723379 0.0723379 0.289351 0.144676 0.144676 0.144676 0.144676 0.0723379 0.0723379 0.289352 0.144676 0.144676 0.144676 0.144676 0.0723379 0.0723379 0.289352 0.144676 0.144676 0.144676 0.144676 0.0723379 0.0723379 0.289352 0.144676 0.144676 0.144676 0.144676 0.0723379 0.0723379 0.289352 0.144676 0.144676 0.144676 0.144676 0.0723379 0.0723379 0.144676 0.0723379 0.144676 0.0723379 0.144676 0.0723379 0.0723379 0.144676 0.144676 0.0723379 0.289352 0.144676 0.289352 0.289352 0.144676 0.0723379 0.144676 0.144676 0.0723379 0.144676 0.0723379 0.144676 0.144676 0.289352 0.289352 0.289352 0.0723379 0.144676 0.144676 0.144676 0.0723379 0.144676 0.144676 0.289352 0.289352 0.289352 0.0723379 0.144676 0.144676 0.144676 0.0723379 0.144676 0.144676 0.289352 0.289352 0.289352 0.0723379 0.144676 0.144676 0.144676 0.0723379 0.144676 0.144676 0.289352 0.289352 0.289352 0.0723379 0.144676 0.144676 0.144676 0.0723379 0.144676 0.144676 0.289352 0.289352 0.289352 0.0723379 0.144676 0.144676 0.144676 0.0723379 0.144676 0.144676 0.289352 0.289352 0.289352 0.0723379 0.144676 0.144676 0.144676 0.0723379 0.144676 0.144676 0.289352 0.289352 0.289352 0.0723379 0.144676 0.144676 0.144676 0.0723379 0.144676 0.144676 0.289352 0.289352 0.289352 0.0723379 0.144676 0.144676 0.144676 0.0723379 0.144676 0.144676 0.289352 0.289352 0.289352 0.0723379 0.144676 0.144676 0.144676 0.0723379 0.144676 0.144676 0.289352 0.289352 0.289352 0.0723379 0.144676 0.144676 0.144676 0.0723379 0.144676 0.144676 0.289352 0.289352 0.289352 0.0723379 0.144676 0.144676 0.144676 0.0723379 0.144676 0.144676 0.289352 0.289352 0.289352 0.0723379 0.144676 0.144676 0.144676 0.0723379 0.144676 0.144676 0.289352 0.289352 0.289352 0.0723379 0.144676 0.144676 0.144676 0.0723379 0.144676 0.144676 0.289352 0.289352 0.289352 0.0723379 0.144676 0.144676 0.144676 0.0723379 0.144676 0.144676 0.289352 0.289352 0.289352 0.0723379 0.144676 0.144676 0.144676 0.0723379 0.144676 0.144676 0.289352 0.289352 0.289352 0.0723379 0.144676 0.144676 0.144676 0.0723379 0.144676 0.144676 0.289352 0.289352 0.289352 0.0723379 0.144676 0.144676 0.144676 0.0723379 0.144676 0.144676 0.289352 0.289351 0.289352 0.0723379 0.144676 0.144676 0.144676 0.0723379 0.144676 0.144676 0.289352 0.289352 0.289352 0.0723379 0.144676 0.144676 0.144676 0.0723379 0.144676 0.144676 0.289352 0.289352 0.289352 0.0723379 0.144676 0.144676 0.144676 0.0723379 0.144676 0.144676 0.289352 0.289352 0.289352 0.0723379 0.144676 0.144676 0.144676 0.0723379 0.144676 0.144676 0.289352 0.289352 0.289352 0.0723379 0.144676 0.144676 0.144676 0.0723379 0.0723379 0.144676 0.144676 0.144676 0.289352 0.0723379 0.0723379 0.144676 0.144676 0.0723379 0.289352 0.144676 0.289352 0.289352 0.144676 0.144676 0.144676 0.0723379 0.144676 0.0723379 0.289352 0.289352 0.289352 0.144676 0.144676 0.144676 0.0723379 0.289352 0.289352 0.289352 0.144676 0.144676 0.144676 0.0723379 0.289352 0.289352 0.289352 0.144676 0.144676 0.144676 0.0723379 0.289352 0.289352 0.289352 0.144676 0.144676 0.144676 0.0723379 0.289352 0.289352 0.289352 0.144676 0.144676 0.144676 0.0723379 0.289352 0.289352 0.289352 0.144676 0.144676 0.144676 0.0723379 0.289352 0.289352 0.289352 0.144676 0.144676 0.144676 0.0723379 0.289352 0.289352 0.289352 0.144676 0.144676 0.144676 0.0723379 0.289352 0.289352 0.289352 0.144676 0.144676 0.144676 0.0723379 0.289352 0.289352 0.289352 0.144676 0.144676 0.144676 0.0723379 0.289352 0.289352 0.289352 0.144676 0.144676 0.144676 0.0723379 0.289352 0.289352 0.289352 0.144676 0.144676 0.144676 0.0723379 0.289352 0.289352 0.289352 0.144676 0.144676 0.144676 0.0723379 0.289352 0.289352 0.289352 0.144676 0.144676 0.144676 0.0723379 0.289352 0.289352 0.289352 0.144676 0.144676 0.144676 0.0723379 0.289352 0.289352 0.289352 0.144676 0.144676 0.144676 0.0723379 0.289352 0.289352 0.289352 0.144676 0.144676 0.144676 0.0723379 0.289352 0.289351 0.289352 0.144676 0.144676 0.144676 0.0723379 0.289352 0.289352 0.289352 0.144676 0.144676 0.144676 0.0723379 0.289352 0.289352 0.289352 0.144676 0.144676 0.144676 0.0723379 0.289352 0.289352 0.289352 0.144676 0.144676 0.144676 0.0723379 0.289352 0.289352 0.289352 0.144676 0.144676 0.144676 0.0723379 0.144676 0.144676 0.289352 0.0723379 0.144676 0.144676 0.0723379 0.289352 0.144676 0.289352 0.289352 0.144676 0.144676 0.144676 0.0723379 0.144676 0.0723379 0.289352 0.289352 0.289352 0.144676 0.144676 0.144676 0.0723379 0.289352 0.289352 0.289352 0.144676 0.144676 0.144676 0.0723379 0.289352 0.289352 0.289352 0.144676 0.144676 0.144676 0.0723379 0.289352 0.289352 0.289352 0.144676 0.144676 0.144676 0.0723379 0.289352 0.289352 0.289352 0.144676 0.144676 0.144676 0.0723379 0.289352 0.289352 0.289352 0.144676 0.144676 0.144676 0.0723379 0.289352 0.289352 0.289352 0.144676 0.144676 0.144676 0.0723379 0.289352 0.289352 0.289352 0.144676 0.144676 0.144676 0.0723379 0.289352 0.289352 0.289352 0.144676 0.144676 0.144676 0.0723379 0.289352 0.289352 0.289352 0.144676 0.144676 0.144676 0.0723379 0.289352 0.289352 0.289352 0.144676 0.144676 0.144676 0.0723379 0.289352 0.289352 0.289352 0.144676 0.144676 0.144676 0.0723379 0.289352 0.289352 0.289352 0.144676 0.144676 0.144676 0.0723379 0.289352 0.289352 0.289352 0.144676 0.144676 0.144676 0.0723379 0.289352 0.289352 0.289352 0.144676 0.144676 0.144676 0.0723379 0.289352 0.289352 0.289352 0.144676 0.144676 0.144676 0.0723379 0.289352 0.289352 0.289352 0.144676 0.144676 0.144676 0.0723379 0.289352 0.289351 0.289352 0.144676 0.144676 0.144676 0.0723379 0.289352 0.289352 0.289352 0.144676 0.144676 0.144676 0.0723379 0.289352 0.289352 0.289352 0.144676 0.144676 0.144676 0.0723379 0.289352 0.289352 0.289352 0.144676 0.144676 0.144676 0.0723379 0.289352 0.289352 0.289352 0.144676 0.144676 0.144676 0.0723379 0.144676 0.144676 0.289352 0.0723379 0.144676 0.144676 0.0723379 0.289352 0.144676 0.289352 0.289352 0.144676 0.144676 0.144676 0.0723379 0.144676 0.0723379 0.289352 0.289352 0.289352 0.144676 0.144676 0.144676 0.0723379 0.289352 0.289352 0.289352 0.144676 0.144676 0.144676 0.0723379 0.289352 0.289352 0.289352 0.144676 0.144676 0.144676 0.0723379 0.289352 0.289352 0.289352 0.144676 0.144676 0.144676 0.0723379 0.289352 0.289352 0.289352 0.144676 0.144676 0.144676 0.0723379 0.289352 0.289352 0.289352 0.144676 0.144676 0.144676 0.0723379 0.289352 0.289352 0.289352 0.144676 0.144676 0.144676 0.0723379 0.289352 0.289352 0.289352 0.144676 0.144676 0.144676 0.0723379 0.289352 0.289352 0.289352 0.144676 0.144676 0.144676 0.0723379 0.289352 0.289352 0.289352 0.144676 0.144676 0.144676 0.0723379 0.289352 0.289352 0.289352 0.144676 0.144676 0.144676 0.0723379 0.289352 0.289352 0.289352 0.144676 0.144676 0.144676 0.0723379 0.289352 0.289352 0.289352 0.144676 0.144676 0.144676 0.0723379 0.289352 0.289352 0.289352 0.144676 0.144676 0.144676 0.0723379 0.289352 0.289352 0.289352 0.144676 0.144676 0.144676 0.0723379 0.289352 0.289352 0.289352 0.144676 0.144676 0.144676 0.0723379 0.289352 0.289352 0.289352 0.144676 0.144676 0.144676 0.0723379 0.289352 0.289351 0.289352 0.144676 0.144676 0.144676 0.0723379 0.289352 0.289352 0.289352 0.144676 0.144676 0.144676 0.0723379 0.289352 0.289352 0.289352 0.144676 0.144676 0.144676 0.0723379 0.289352 0.289352 0.289352 0.144676 0.144676 0.144676 0.0723379 0.289352 0.289352 0.289352 0.144676 0.144676 0.144676 0.0723379 0.144676 0.144676 0.289352 0.0723379 0.144676 0.144676 0.0723379 0.289352 0.144676 0.289352 0.289352 0.144676 0.144676 0.144676 0.0723379 0.144676 0.0723379 0.289352 0.289352 0.289352 0.144676 0.144676 0.144676 0.0723379 0.289352 0.289352 0.289352 0.144676 0.144676 0.144676 0.0723379 0.289352 0.289352 0.289352 0.144676 0.144676 0.144676 0.0723379 0.289352 0.289352 0.289352 0.144676 0.144676 0.144676 0.0723379 0.289352 0.289352 0.289352 0.144676 0.144676 0.144676 0.0723379 0.289352 0.289352 0.289352 0.144676 0.144676 0.144676 0.0723379 0.289352 0.289352 0.289352 0.144676 0.144676 0.144676 0.0723379 0.289352 0.289352 0.289352 0.144676 0.144676 0.144676 0.0723379 0.289352 0.289352 0.289352 0.144676 0.144676 0.144676 0.0723379 0.289352 0.289352 0.289352 0.144676 0.144676 0.144676 0.0723379 0.289352 0.289352 0.289352 0.144676 0.144676 0.144676 0.0723379 0.289352 0.289352 0.289352 0.144676 0.144676 0.144676 0.0723379 0.289352 0.289352 0.289352 0.144676 0.144676 0.144676 0.0723379 0.289352 0.289352 0.289352 0.144676 0.144676 0.144676 0.0723379 0.289352 0.289352 0.289352 0.144676 0.144676 0.144676 0.0723379 0.289352 0.289352 0.289352 0.144676 0.144676 0.144676 0.0723379 0.289352 0.289352 0.289352 0.144676 0.144676 0.144676 0.0723379 0.289352 0.289351 0.289352 0.144676 0.144676 0.144676 0.0723379 0.289352 0.289352 0.289352 0.144676 0.144676 0.144676 0.0723379 0.289352 0.289352 0.289352 0.144676 0.144676 0.144676 0.0723379 0.289352 0.289352 0.289352 0.144676 0.144676 0.144676 0.0723379 0.289352 0.289352 0.289352 0.144676 0.144676 0.144676 0.0723379 0.144676 0.144676 0.289352 0.0723379 0.144676 0.144676 0.0723379 0.289352 0.144676 0.289352 0.289352 0.144676 0.144676 0.144676 0.0723379 0.144676 0.0723379 0.289352 0.289352 0.289352 0.144676 0.144676 0.144676 0.0723379 0.289352 0.289352 0.289352 0.144676 0.144676 0.144676 0.0723379 0.289352 0.289352 0.289352 0.144676 0.144676 0.144676 0.0723379 0.289352 0.289352 0.289352 0.144676 0.144676 0.144676 0.0723379 0.289352 0.289352 0.289352 0.144676 0.144676 0.144676 0.0723379 0.289352 0.289352 0.289352 0.144676 0.144676 0.144676 0.0723379 0.289352 0.289352 0.289352 0.144676 0.144676 0.144676 0.0723379 0.289352 0.289352 0.289352 0.144676 0.144676 0.144676 0.0723379 0.289352 0.289352 0.289352 0.144676 0.144676 0.144676 0.0723379 0.289352 0.289352 0.289352 0.144676 0.144676 0.144676 0.0723379 0.289352 0.289352 0.289352 0.144676 0.144676 0.144676 0.0723379 0.289352 0.289352 0.289352 0.144676 0.144676 0.144676 0.0723379 0.289352 0.289352 0.289352 0.144676 0.144676 0.144676 0.0723379 0.289352 0.289352 0.289352 0.144676 0.144676 0.144676 0.0723379 0.289352 0.289352 0.289352 0.144676 0.144676 0.144676 0.0723379 0.289352 0.289352 0.289352 0.144676 0.144676 0.144676 0.0723379 0.289352 0.289352 0.289352 0.144676 0.144676 0.144676 0.0723379 0.289352 0.289351 0.289352 0.144676 0.144676 0.144676 0.0723379 0.289352 0.289352 0.289352 0.144676 0.144676 0.144676 0.0723379 0.289352 0.289352 0.289352 0.144676 0.144676 0.144676 0.0723379 0.289352 0.289352 0.289352 0.144676 0.144676 0.144676 0.0723379 0.289352 0.289352 0.289352 0.144676 0.144676 0.144676 0.0723379 0.144676 0.144676 0.289352 0.0723379 0.144676 0.144676 0.0723379 0.289352 0.144676 0.289352 0.289352 0.144676 0.144676 0.144676 0.0723379 0.144676 0.0723379 0.289352 0.289352 0.289352 0.144676 0.144676 0.144676 0.0723379 0.289352 0.289352 0.289352 0.144676 0.144676 0.144676 0.0723379 0.289352 0.289352 0.289352 0.144676 0.144676 0.144676 0.0723379 0.289352 0.289352 0.289352 0.144676 0.144676 0.144676 0.0723379 0.289352 0.289352 0.289352 0.144676 0.144676 0.144676 0.0723379 0.289352 0.289352 0.289352 0.144676 0.144676 0.144676 0.0723379 0.289352 0.289352 0.289352 0.144676 0.144676 0.144676 0.0723379 0.289352 0.289352 0.289352 0.144676 0.144676 0.144676 0.0723379 0.289352 0.289352 0.289352 0.144676 0.144676 0.144676 0.0723379 0.289352 0.289352 0.289352 0.144676 0.144676 0.144676 0.0723379 0.289352 0.289352 0.289352 0.144676 0.144676 0.144676 0.0723379 0.289352 0.289352 0.289352 0.144676 0.144676 0.144676 0.0723379 0.289352 0.289352 0.289352 0.144676 0.144676 0.144676 0.0723379 0.289352 0.289352 0.289352 0.144676 0.144676 0.144676 0.0723379 0.289352 0.289352 0.289352 0.144676 0.144676 0.144676 0.0723379 0.289352 0.289352 0.289352 0.144676 0.144676 0.144676 0.0723379 0.289352 0.289352 0.289352 0.144676 0.144676 0.144676 0.0723379 0.289352 0.289351 0.289352 0.144676 0.144676 0.144676 0.0723379 0.289352 0.289352 0.289352 0.144676 0.144676 0.144676 0.0723379 0.289352 0.289352 0.289352 0.144676 0.144676 0.144676 0.0723379 0.289352 0.289352 0.289352 0.144676 0.144676 0.144676 0.0723379 0.289352 0.289352 0.289352 0.144676 0.144676 0.144676 0.0723379 0.144676 0.144676 0.289352 0.0723379 0.144676 0.144676 0.0723379 0.289352 0.144676 0.144676 0.144676 0.0723379 0.144676 0.144676 0.0723379 0.0723379 0.0723379 0.289352 0.144676 0.144676 0.144676 0.144676 0.0723379 0.0723379 0.289352 0.144676 0.144676 0.144676 0.144676 0.0723379 0.0723379 0.289352 0.144676 0.144676 0.144676 0.144676 0.0723379 0.0723379 0.289352 0.144676 0.144676 0.144676 0.144676 0.0723379 0.0723379 0.289352 0.144676 0.144676 0.144676 0.144676 0.0723379 0.0723379 0.289352 0.144676 0.144676 0.144676 0.144676 0.0723379 0.0723379 0.289352 0.144676 0.144676 0.144676 0.144676 0.0723379 0.0723379 0.289352 0.144676 0.144676 0.144676 0.144676 0.0723379 0.0723379 0.289352 0.144676 0.144676 0.144676 0.144676 0.0723379 0.0723379 0.289352 0.144676 0.144676 0.144676 0.144676 0.0723379 0.0723379 0.289352 0.144676 0.144676 0.144676 0.144676 0.0723379 0.0723379 0.289352 0.144676 0.144676 0.144676 0.144676 0.0723379 0.0723379 0.289352 0.144676 0.144676 0.144676 0.144676 0.0723379 0.0723379 0.289352 0.144676 0.144676 0.144676 0.144676 0.0723379 0.0723379 0.289352 0.144676 0.144676 0.144676 0.144676 0.0723379 0.0723379 0.289352 0.144676 0.144676 0.144676 0.144676 0.0723379 0.0723379 0.289352 0.144676 0.144676 0.144676 0.144676 0.0723379 0.0723379 0.289352 0.144676 0.144676 0.144676 0.144676 0.0723379 0.0723379 0.289352 0.144676 0.144676 0.144676 0.144676 0.0723379 0.0723379 0.289352 0.144676 0.144676 0.144676 0.144676 0.0723379 0.0723379 0.289352 0.144676 0.144676 0.144676 0.144676 0.0723379 0.0723379 0.289352 0.144676 0.144676 0.144676 0.144676 0.0723379 0.0723379 0.144676 0.0723379 0.144676 0.0723379 0.144676 0.0723379 0.0723379 0.144676 0.144676 0.0723381 0.289352 0.144676 0.289352 0.289352 0.144676 0.0723381 0.144676 0.144676 0.0723381 0.144676 0.0723381 0.144676 0.144676 0.289352 0.289352 0.289352 0.0723381 0.144676 0.144676 0.144676 0.0723381 0.144676 0.144676 0.289352 0.289352 0.289352 0.0723381 0.144676 0.144676 0.144676 0.0723381 0.144676 0.144676 0.289352 0.289352 0.289352 0.072338 0.144676 0.144676 0.144676 0.072338 0.144676 0.144676 0.289352 0.289352 0.289352 0.072338 0.144676 0.144676 0.144676 0.072338 0.144676 0.144676 0.289352 0.289352 0.289352 0.0723381 0.144676 0.144676 0.144676 0.0723381 0.144676 0.144676 0.289352 0.289352 0.289352 0.0723381 0.144676 0.144676 0.144676 0.0723381 0.144676 0.144676 0.289352 0.289352 0.289352 0.0723381 0.144676 0.144676 0.144676 0.0723381 0.144676 0.144676 0.289352 0.289352 0.289352 0.0723381 0.144676 0.144676 0.144676 0.0723381 0.144676 0.144676 0.289352 0.289352 0.289352 0.072338 0.144676 0.144676 0.144676 0.072338 0.144676 0.144676 0.289352 0.289352 0.289352 0.072338 0.144676 0.144676 0.144676 0.072338 0.144676 0.144676 0.289352 0.289352 0.289352 0.0723381 0.144676 0.144676 0.144676 0.0723381 0.144676 0.144676 0.289352 0.289352 0.289352 0.072338 0.144676 0.144676 0.144676 0.072338 0.144676 0.144676 0.289352 0.289352 0.289352 0.0723381 0.144676 0.144676 0.144676 0.0723381 0.144676 0.144676 0.289352 0.289352 0.289352 0.072338 0.144676 0.144676 0.144676 0.072338 0.144676 0.144676 0.289352 0.289352 0.289352 0.0723381 0.144676 0.144676 0.144676 0.0723381 0.144676 0.144676 0.289352 0.289352 0.289352 0.0723381 0.144676 0.144676 0.144676 0.0723381 0.144676 0.144676 0.289352 0.289352 0.289352 0.072338 0.144676 0.144676 0.144676 0.072338 0.144676 0.144676 0.289352 0.289352 0.289352 0.072338 0.144676 0.144676 0.144676 0.072338 0.144676 0.144676 0.289352 0.289352 0.289352 0.072338 0.144676 0.144676 0.144676 0.072338 0.144676 0.144676 0.289352 0.289352 0.289352 0.0723381 0.144676 0.144676 0.144676 0.0723381 0.144676 0.144676 0.289352 0.289352 0.289352 0.072338 0.144676 0.144676 0.144676 0.072338 0.144676 0.144676 0.289352 0.289352 0.289352 0.072338 0.144676 0.144676 0.144676 0.072338 0.0723381 0.144676 0.144676 0.144676 0.289352 0.0723381 0.0723381 0.144676 0.144676 0.0723381 0.289352 0.144676 0.289352 0.289352 0.144676 0.144676 0.144676 0.0723381 0.144676 0.0723381 0.289352 0.289352 0.289352 0.144676 0.144676 0.144676 0.0723381 0.289352 0.289352 0.289352 0.144676 0.144676 0.144676 0.0723381 0.289352 0.289352 0.289352 0.144676 0.144676 0.144676 0.072338 0.289352 0.289352 0.289352 0.144676 0.144676 0.144676 0.072338 0.289352 0.289352 0.289352 0.144676 0.144676 0.144676 0.0723381 0.289352 0.289352 0.289352 0.144676 0.144676 0.144676 0.0723381 0.289352 0.289352 0.289352 0.144676 0.144676 0.144676 0.072338 0.289352 0.289352 0.289352 0.144676 0.144676 0.144676 0.0723381 0.289352 0.289352 0.289352 0.144676 0.144676 0.144676 0.072338 0.289352 0.289352 0.289352 0.144676 0.144676 0.144676 0.072338 0.289352 0.289352 0.289352 0.144676 0.144676 0.144676 0.072338 0.289352 0.289352 0.289352 0.144676 0.144676 0.144676 0.072338 0.289352 0.289352 0.289352 0.144676 0.144676 0.144676 0.0723381 0.289352 0.289352 0.289352 0.144676 0.144676 0.144676 0.072338 0.289352 0.289352 0.289352 0.144676 0.144676 0.144676 0.0723381 0.289352 0.289352 0.289352 0.144676 0.144676 0.144676 0.072338 0.289352 0.289352 0.289352 0.144676 0.144676 0.144676 0.072338 0.289352 0.289352 0.289352 0.144676 0.144676 0.144676 0.072338 0.289352 0.289352 0.289352 0.144676 0.144676 0.144676 0.072338 0.289352 0.289352 0.289352 0.144676 0.144676 0.144676 0.0723381 0.289352 0.289352 0.289352 0.144676 0.144676 0.144676 0.072338 0.289352 0.289352 0.289352 0.144676 0.144676 0.144676 0.072338 0.144676 0.144676 0.289352 0.0723381 0.144676 0.144676 0.0723381 0.289352 0.144676 0.289352 0.289352 0.144676 0.144676 0.144676 0.0723381 0.144676 0.0723381 0.289352 0.289352 0.289352 0.144676 0.144676 0.144676 0.0723381 0.289352 0.289352 0.289352 0.144676 0.144676 0.144676 0.0723381 0.289352 0.289352 0.289352 0.144676 0.144676 0.144676 0.072338 0.289352 0.289352 0.289352 0.144676 0.144676 0.144676 0.0723381 0.289352 0.289352 0.289352 0.144676 0.144676 0.144676 0.0723381 0.289352 0.289352 0.289352 0.144676 0.144676 0.144676 0.0723381 0.289352 0.289352 0.289352 0.144676 0.144676 0.144676 0.072338 0.289352 0.289352 0.289352 0.144676 0.144676 0.144676 0.0723381 0.289352 0.289352 0.289352 0.144676 0.144676 0.144676 0.072338 0.289352 0.289352 0.289352 0.144676 0.144676 0.144676 0.072338 0.289352 0.289352 0.289352 0.144676 0.144676 0.144676 0.072338 0.289352 0.289352 0.289352 0.144676 0.144676 0.144676 0.072338 0.289352 0.289352 0.289352 0.144676 0.144676 0.144676 0.0723381 0.289352 0.289352 0.289352 0.144676 0.144676 0.144676 0.072338 0.289352 0.289352 0.289352 0.144676 0.144676 0.144676 0.0723381 0.289352 0.289352 0.289352 0.144676 0.144676 0.144676 0.072338 0.289352 0.289352 0.289352 0.144676 0.144676 0.144676 0.072338 0.289352 0.289352 0.289352 0.144676 0.144676 0.144676 0.072338 0.289352 0.289352 0.289352 0.144676 0.144676 0.144676 0.072338 0.289352 0.289352 0.289352 0.144676 0.144676 0.144676 0.0723381 0.289352 0.289352 0.289352 0.144676 0.144676 0.144676 0.072338 0.289352 0.289352 0.289352 0.144676 0.144676 0.144676 0.072338 0.144676 0.144676 0.289352 0.0723381 0.144676 0.144676 0.0723381 0.289352 0.144676 0.289352 0.289352 0.144676 0.144676 0.144676 0.072338 0.144676 0.072338 0.289352 0.289352 0.289352 0.144676 0.144676 0.144676 0.0723381 0.289352 0.289352 0.289352 0.144676 0.144676 0.144676 0.0723381 0.289352 0.289352 0.289352 0.144676 0.144676 0.144676 0.072338 0.289352 0.289352 0.289352 0.144676 0.144676 0.144676 0.072338 0.289352 0.289352 0.289352 0.144676 0.144676 0.144676 0.072338 0.289352 0.289352 0.289352 0.144676 0.144676 0.144676 0.072338 0.289352 0.289352 0.289352 0.144676 0.144676 0.144676 0.072338 0.289352 0.289352 0.289352 0.144676 0.144676 0.144676 0.072338 0.289352 0.289352 0.289352 0.144676 0.144676 0.144676 0.072338 0.289352 0.289352 0.289352 0.144676 0.144676 0.144676 0.072338 0.289352 0.289352 0.289352 0.144676 0.144676 0.144676 0.072338 0.289352 0.289352 0.289352 0.144676 0.144676 0.144676 0.072338 0.289352 0.289352 0.289352 0.144676 0.144676 0.144676 0.0723381 0.289352 0.289352 0.289352 0.144676 0.144676 0.144676 0.072338 0.289352 0.289352 0.289352 0.144676 0.144676 0.144676 0.0723381 0.289352 0.289352 0.289352 0.144676 0.144676 0.144676 0.072338 0.289352 0.289352 0.289352 0.144676 0.144676 0.144676 0.072338 0.289352 0.289352 0.289352 0.144676 0.144676 0.144676 0.072338 0.289352 0.289352 0.289352 0.144676 0.144676 0.144676 0.072338 0.289352 0.289352 0.289352 0.144676 0.144676 0.144676 0.0723381 0.289352 0.289352 0.289352 0.144676 0.144676 0.144676 0.072338 0.289352 0.289352 0.289352 0.144676 0.144676 0.144676 0.072338 0.144676 0.144676 0.289352 0.0723381 0.144676 0.144676 0.0723381 0.289352 0.144676 0.289352 0.289352 0.144676 0.144676 0.144676 0.072338 0.144676 0.072338 0.289352 0.289352 0.289352 0.144676 0.144676 0.144676 0.072338 0.289352 0.289352 0.289352 0.144676 0.144676 0.144676 0.0723381 0.289352 0.289352 0.289352 0.144676 0.144676 0.144676 0.072338 0.289352 0.289352 0.289352 0.144676 0.144676 0.144676 0.072338 0.289352 0.289352 0.289352 0.144676 0.144676 0.144676 0.072338 0.289352 0.289352 0.289352 0.144676 0.144676 0.144676 0.072338 0.289352 0.289352 0.289352 0.144676 0.144676 0.144676 0.072338 0.289352 0.289352 0.289352 0.144676 0.144676 0.144676 0.072338 0.289352 0.289352 0.289352 0.144676 0.144676 0.144676 0.072338 0.289352 0.289352 0.289352 0.144676 0.144676 0.144676 0.072338 0.289352 0.289352 0.289352 0.144676 0.144676 0.144676 0.072338 0.289352 0.289352 0.289352 0.144676 0.144676 0.144676 0.072338 0.289352 0.289352 0.289352 0.144676 0.144676 0.144676 0.0723381 0.289352 0.289352 0.289352 0.144676 0.144676 0.144676 0.072338 0.289352 0.289352 0.289352 0.144676 0.144676 0.144676 0.0723381 0.289352 0.289352 0.289352 0.144676 0.144676 0.144676 0.072338 0.289352 0.289352 0.289352 0.144676 0.144676 0.144676 0.072338 0.289352 0.289352 0.289352 0.144676 0.144676 0.144676 0.072338 0.289352 0.289352 0.289352 0.144676 0.144676 0.144676 0.072338 0.289352 0.289352 0.289352 0.144676 0.144676 0.144676 0.0723381 0.289352 0.289352 0.289352 0.144676 0.144676 0.144676 0.072338 0.289352 0.289352 0.289352 0.144676 0.144676 0.144676 0.072338 0.144676 0.144676 0.289352 0.0723381 0.144676 0.144676 0.0723381 0.289352 0.144676 0.289352 0.289352 0.144676 0.144676 0.144676 0.0723381 0.144676 0.0723381 0.289352 0.289352 0.289352 0.144676 0.144676 0.144676 0.0723381 0.289352 0.289352 0.289352 0.144676 0.144676 0.144676 0.0723381 0.289352 0.289352 0.289352 0.144676 0.144676 0.144676 0.072338 0.289352 0.289352 0.289352 0.144676 0.144676 0.144676 0.072338 0.289352 0.289352 0.289352 0.144676 0.144676 0.144676 0.0723381 0.289352 0.289352 0.289352 0.144676 0.144676 0.144676 0.0723381 0.289352 0.289352 0.289352 0.144676 0.144676 0.144676 0.072338 0.289352 0.289352 0.289352 0.144676 0.144676 0.144676 0.0723381 0.289352 0.289352 0.289352 0.144676 0.144676 0.144676 0.072338 0.289352 0.289352 0.289352 0.144676 0.144676 0.144676 0.072338 0.289352 0.289352 0.289352 0.144676 0.144676 0.144676 0.072338 0.289352 0.289352 0.289352 0.144676 0.144676 0.144676 0.072338 0.289352 0.289352 0.289352 0.144676 0.144676 0.144676 0.0723381 0.289352 0.289352 0.289352 0.144676 0.144676 0.144676 0.072338 0.289352 0.289352 0.289352 0.144676 0.144676 0.144676 0.0723381 0.289352 0.289352 0.289352 0.144676 0.144676 0.144676 0.072338 0.289352 0.289352 0.289352 0.144676 0.144676 0.144676 0.072338 0.289352 0.289352 0.289352 0.144676 0.144676 0.144676 0.072338 0.289352 0.289352 0.289352 0.144676 0.144676 0.144676 0.072338 0.289352 0.289352 0.289352 0.144676 0.144676 0.144676 0.0723381 0.289352 0.289352 0.289352 0.144676 0.144676 0.144676 0.072338 0.289352 0.289352 0.289352 0.144676 0.144676 0.144676 0.072338 0.144676 0.144676 0.289352 0.0723381 0.144676 0.144676 0.0723381 0.289352 0.144676 0.289352 0.289352 0.144676 0.144676 0.144676 0.0723381 0.144676 0.0723381 0.289352 0.289352 0.289352 0.144676 0.144676 0.144676 0.0723381 0.289352 0.289352 0.289352 0.144676 0.144676 0.144676 0.0723381 0.289352 0.289352 0.289352 0.144676 0.144676 0.144676 0.072338 0.289352 0.289352 0.289352 0.144676 0.144676 0.144676 0.072338 0.289352 0.289352 0.289352 0.144676 0.144676 0.144676 0.0723381 0.289352 0.289352 0.289352 0.144676 0.144676 0.144676 0.0723381 0.289352 0.289352 0.289352 0.144676 0.144676 0.144676 0.072338 0.289352 0.289352 0.289352 0.144676 0.144676 0.144676 0.0723381 0.289352 0.289352 0.289352 0.144676 0.144676 0.144676 0.072338 0.289352 0.289352 0.289352 0.144676 0.144676 0.144676 0.072338 0.289352 0.289352 0.289352 0.144676 0.144676 0.144676 0.0723381 0.289352 0.289352 0.289352 0.144676 0.144676 0.144676 0.072338 0.289352 0.289352 0.289352 0.144676 0.144676 0.144676 0.0723381 0.289352 0.289352 0.289352 0.144676 0.144676 0.144676 0.072338 0.289352 0.289352 0.289352 0.144676 0.144676 0.144676 0.0723381 0.289352 0.289352 0.289352 0.144676 0.144676 0.144676 0.0723381 0.289352 0.289352 0.289352 0.144676 0.144676 0.144676 0.072338 0.289352 0.289352 0.289352 0.144676 0.144676 0.144676 0.072338 0.289352 0.289352 0.289352 0.144676 0.144676 0.144676 0.072338 0.289352 0.289352 0.289352 0.144676 0.144676 0.144676 0.0723381 0.289352 0.289352 0.289352 0.144676 0.144676 0.144676 0.072338 0.289352 0.289352 0.289352 0.144676 0.144676 0.144676 0.072338 0.144676 0.144676 0.289352 0.0723381 0.144676 0.144676 0.0723381 0.289352 0.144676 0.144676 0.144676 0.072338 0.144676 0.144676 0.072338 0.072338 0.072338 0.289352 0.144676 0.144676 0.144676 0.144676 0.072338 0.072338 0.289352 0.144676 0.144676 0.144676 0.144676 0.072338 0.072338 0.289352 0.144676 0.144676 0.144676 0.144676 0.072338 0.072338 0.289352 0.144676 0.144676 0.144676 0.144676 0.072338 0.072338 0.289352 0.144676 0.144676 0.144676 0.144676 0.072338 0.072338 0.289352 0.144676 0.144676 0.144676 0.144676 0.072338 0.072338 0.289352 0.144676 0.144676 0.144676 0.144676 0.072338 0.072338 0.289352 0.144676 0.144676 0.144676 0.144676 0.072338 0.072338 0.289352 0.144676 0.144676 0.144676 0.144676 0.072338 0.072338 0.289352 0.144676 0.144676 0.144676 0.144676 0.072338 0.072338 0.289352 0.144676 0.144676 0.144676 0.144676 0.072338 0.072338 0.289352 0.144676 0.144676 0.144676 0.144676 0.072338 0.072338 0.289352 0.144676 0.144676 0.144676 0.144676 0.0723381 0.0723381 0.289352 0.144676 0.144676 0.144676 0.144676 0.072338 0.072338 0.289352 0.144676 0.144676 0.144676 0.144676 0.072338 0.072338 0.289352 0.144676 0.144676 0.144676 0.144676 0.072338 0.072338 0.289352 0.144676 0.144676 0.144676 0.144676 0.072338 0.072338 0.289352 0.144676 0.144676 0.144676 0.144676 0.072338 0.072338 0.289352 0.144676 0.144676 0.144676 0.144676 0.072338 0.072338 0.289352 0.144676 0.144676 0.144676 0.144676 0.0723381 0.0723381 0.289352 0.144676 0.144676 0.144676 0.144676 0.072338 0.072338 0.289352 0.144676 0.144676 0.144676 0.144676 0.072338 0.072338 0.144676 0.0723381 0.144676 0.0723381 0.144676 0.0723381 0.0723381 0.144676 0.072338 0.072338 0.144676 0.072338 0.289352 0.144676 0.144676 0.072338 0.144676 0.072338 0.072338 0.144676 0.072338 0.144676 0.072338 0.144676 0.289352 0.144676 0.072338 0.144676 0.072338 0.144676 0.072338 0.144676 0.072338 0.144676 0.289352 0.144676 0.072338 0.144676 0.072338 0.144676 0.072338 0.144676 0.072338 0.144676 0.289352 0.144676 0.072338 0.144676 0.072338 0.144676 0.072338 0.144676 0.072338 0.144676 0.289352 0.144676 0.072338 0.144676 0.072338 0.144676 0.072338 0.144676 0.072338 0.144676 0.289352 0.144676 0.072338 0.144676 0.072338 0.144676 0.072338 0.144676 0.072338 0.144676 0.289352 0.144676 0.072338 0.144676 0.072338 0.144676 0.072338 0.144676 0.072338 0.144676 0.289352 0.144676 0.072338 0.144676 0.072338 0.144676 0.072338 0.144676 0.072338 0.144676 0.289352 0.144676 0.072338 0.144676 0.072338 0.144676 0.072338 0.144676 0.072338 0.144676 0.289352 0.144676 0.072338 0.144676 0.072338 0.144676 0.072338 0.144676 0.072338 0.144676 0.289352 0.144676 0.072338 0.144676 0.072338 0.144676 0.072338 0.144676 0.072338 0.144676 0.289352 0.144676 0.072338 0.144676 0.072338 0.144676 0.072338 0.144676 0.072338 0.144676 0.289352 0.144676 0.072338 0.144676 0.072338 0.144676 0.072338 0.144676 0.072338 0.144676 0.289352 0.144676 0.072338 0.144676 0.072338 0.144676 0.072338 0.144676 0.072338 0.144676 0.289352 0.144676 0.072338 0.144676 0.072338 0.144676 0.072338 0.144676 0.072338 0.144676 0.289352 0.144676 0.072338 0.144676 0.072338 0.144676 0.072338 0.144676 0.072338 0.144676 0.289352 0.144676 0.072338 0.144676 0.072338 0.144676 0.072338 0.144676 0.072338 0.144676 0.289352 0.144676 0.072338 0.144676 0.072338 0.144676 0.072338 0.144676 0.072338 0.144676 0.289352 0.144676 0.072338 0.144676 0.072338 0.144676 0.072338 0.144676 0.072338 0.144676 0.289352 0.144676 0.072338 0.144676 0.072338 0.144676 0.072338 0.144676 0.072338 0.144676 0.289352 0.144676 0.072338 0.144676 0.072338 0.144676 0.072338 0.144676 0.072338 0.144676 0.289352 0.144676 0.072338 0.144676 0.072338 0.144676 0.072338 0.144676 0.072338 0.144676 0.289352 0.144676 0.072338 0.144676 0.072338 0.144676 0.072338 0.072338 0.072338 0.072338 0.144676 0.144676 0.072338 0.072338 0.072338 0.144676 0.072338 0.144676 0.072338 0.289352 0.144676 0.144676 0.144676 0.072338 0.072338 0.144676 0.072338 0.144676 0.289352 0.144676 0.144676 0.072338 0.144676 0.072338 0.144676 0.289352 0.144676 0.144676 0.072338 0.144676 0.072338 0.144676 0.289352 0.144676 0.144676 0.072338 0.144676 0.072338 0.144676 0.289352 0.144676 0.144676 0.072338 0.144676 0.072338 0.144676 0.289352 0.144676 0.144676 0.072338 0.144676 0.072338 0.144676 0.289352 0.144676 0.144676 0.072338 0.144676 0.072338 0.144676 0.289352 0.144676 0.144676 0.072338 0.144676 0.072338 0.144676 0.289352 0.144676 0.144676 0.072338 0.144676 0.072338 0.144676 0.289352 0.144676 0.144676 0.072338 0.144676 0.072338 0.144676 0.289352 0.144676 0.144676 0.072338 0.144676 0.072338 0.144676 0.289352 0.144676 0.144676 0.072338 0.144676 0.072338 0.144676 0.289352 0.144676 0.144676 0.072338 0.144676 0.072338 0.144676 0.289352 0.144676 0.144676 0.072338 0.144676 0.072338 0.144676 0.289352 0.144676 0.144676 0.072338 0.144676 0.072338 0.144676 0.289352 0.144676 0.144676 0.072338 0.144676 0.072338 0.144676 0.289352 0.144676 0.144676 0.072338 0.144676 0.072338 0.144676 0.289352 0.144676 0.144676 0.072338 0.144676 0.072338 0.144676 0.289352 0.144676 0.144676 0.072338 0.144676 0.072338 0.144676 0.289352 0.144676 0.144676 0.072338 0.144676 0.072338 0.144676 0.289352 0.144676 0.144676 0.072338 0.144676 0.072338 0.144676 0.289352 0.144676 0.144676 0.072338 0.144676 0.072338 0.144676 0.289352 0.144676 0.144676 0.072338 0.144676 0.072338 0.072338 0.144676 0.144676 0.072338 0.072338 0.144676 0.072338 0.144676 0.072338 0.289352 0.144676 0.144676 0.144676 0.072338 0.072338 0.144676 0.072338 0.144676 0.289352 0.144676 0.144676 0.072338 0.144676 0.072338 0.144676 0.289352 0.144676 0.144676 0.072338 0.144676 0.072338 0.144676 0.289352 0.144676 0.144676 0.072338 0.144676 0.072338 0.144676 0.289352 0.144676 0.144676 0.072338 0.144676 0.072338 0.144676 0.289352 0.144676 0.144676 0.072338 0.144676 0.072338 0.144676 0.289352 0.144676 0.144676 0.072338 0.144676 0.072338 0.144676 0.289352 0.144676 0.144676 0.072338 0.144676 0.072338 0.144676 0.289352 0.144676 0.144676 0.072338 0.144676 0.072338 0.144676 0.289352 0.144676 0.144676 0.072338 0.144676 0.072338 0.144676 0.289352 0.144676 0.144676 0.072338 0.144676 0.072338 0.144676 0.289352 0.144676 0.144676 0.072338 0.144676 0.072338 0.144676 0.289352 0.144676 0.144676 0.072338 0.144676 0.072338 0.144676 0.289352 0.144676 0.144676 0.072338 0.144676 0.072338 0.144676 0.289352 0.144676 0.144676 0.072338 0.144676 0.072338 0.144676 0.289352 0.144676 0.144676 0.072338 0.144676 0.072338 0.144676 0.289352 0.144676 0.144676 0.072338 0.144676 0.072338 0.144676 0.289352 0.144676 0.144676 0.072338 0.144676 0.072338 0.144676 0.289352 0.144676 0.144676 0.072338 0.144676 0.072338 0.144676 0.289352 0.144676 0.144676 0.072338 0.144676 0.072338 0.144676 0.289352 0.144676 0.144676 0.072338 0.144676 0.072338 0.144676 0.289352 0.144676 0.144676 0.072338 0.144676 0.072338 0.144676 0.289352 0.144676 0.144676 0.072338 0.144676 0.072338 0.072338 0.144676 0.144676 0.072338 0.072338 0.144676 0.072338 0.144676 0.072338 0.289352 0.144676 0.144676 0.144676 0.072338 0.072338 0.144676 0.072338 0.144676 0.289352 0.144676 0.144676 0.072338 0.144676 0.072338 0.144676 0.289352 0.144676 0.144676 0.072338 0.144676 0.072338 0.144676 0.289352 0.144676 0.144676 0.072338 0.144676 0.072338 0.144676 0.289352 0.144676 0.144676 0.072338 0.144676 0.072338 0.144676 0.289352 0.144676 0.144676 0.072338 0.144676 0.072338 0.144676 0.289352 0.144676 0.144676 0.072338 0.144676 0.072338 0.144676 0.289352 0.144676 0.144676 0.072338 0.144676 0.072338 0.144676 0.289352 0.144676 0.144676 0.072338 0.144676 0.072338 0.144676 0.289352 0.144676 0.144676 0.072338 0.144676 0.072338 0.144676 0.289352 0.144676 0.144676 0.072338 0.144676 0.072338 0.144676 0.289352 0.144676 0.144676 0.072338 0.144676 0.072338 0.144676 0.289352 0.144676 0.144676 0.072338 0.144676 0.072338 0.144676 0.289352 0.144676 0.144676 0.072338 0.144676 0.072338 0.144676 0.289352 0.144676 0.144676 0.072338 0.144676 0.072338 0.144676 0.289352 0.144676 0.144676 0.072338 0.144676 0.072338 0.144676 0.289352 0.144676 0.144676 0.072338 0.144676 0.072338 0.144676 0.289352 0.144676 0.144676 0.072338 0.144676 0.072338 0.144676 0.289352 0.144676 0.144676 0.072338 0.144676 0.072338 0.144676 0.289352 0.144676 0.144676 0.072338 0.144676 0.072338 0.144676 0.289352 0.144676 0.144676 0.072338 0.144676 0.072338 0.144676 0.289352 0.144676 0.144676 0.072338 0.144676 0.072338 0.144676 0.289352 0.144676 0.144676 0.072338 0.144676 0.072338 0.072338 0.144676 0.144676 0.072338 0.072338 0.144676 0.072338 0.144676 0.072338 0.289352 0.144676 0.144676 0.144676 0.072338 0.072338 0.144676 0.072338 0.144676 0.289352 0.144676 0.144676 0.072338 0.144676 0.072338 0.144676 0.289352 0.144676 0.144676 0.072338 0.144676 0.072338 0.144676 0.289352 0.144676 0.144676 0.072338 0.144676 0.072338 0.144676 0.289352 0.144676 0.144676 0.072338 0.144676 0.072338 0.144676 0.289352 0.144676 0.144676 0.072338 0.144676 0.072338 0.144676 0.289352 0.144676 0.144676 0.072338 0.144676 0.072338 0.144676 0.289352 0.144676 0.144676 0.072338 0.144676 0.072338 0.144676 0.289352 0.144676 0.144676 0.072338 0.144676 0.072338 0.144676 0.289352 0.144676 0.144676 0.072338 0.144676 0.072338 0.144676 0.289352 0.144676 0.144676 0.072338 0.144676 0.072338 0.144676 0.289352 0.144676 0.144676 0.072338 0.144676 0.072338 0.144676 0.289352 0.144676 0.144676 0.072338 0.144676 0.072338 0.144676 0.289352 0.144676 0.144676 0.072338 0.144676 0.072338 0.144676 0.289352 0.144676 0.144676 0.072338 0.144676 0.072338 0.144676 0.289352 0.144676 0.144676 0.072338 0.144676 0.072338 0.144676 0.289352 0.144676 0.144676 0.072338 0.144676 0.072338 0.144676 0.289352 0.144676 0.144676 0.072338 0.144676 0.072338 0.144676 0.289352 0.144676 0.144676 0.072338 0.144676 0.072338 0.144676 0.289352 0.144676 0.144676 0.072338 0.144676 0.072338 0.144676 0.289352 0.144676 0.144676 0.072338 0.144676 0.072338 0.144676 0.289352 0.144676 0.144676 0.072338 0.144676 0.072338 0.144676 0.289352 0.144676 0.144676 0.072338 0.144676 0.072338 0.072338 0.144676 0.144676 0.072338 0.072338 0.144676 0.072338 0.144676 0.072338 0.289352 0.144676 0.144676 0.144676 0.072338 0.072338 0.144676 0.072338 0.144676 0.289352 0.144676 0.144676 0.072338 0.144676 0.072338 0.144676 0.289352 0.144676 0.144676 0.072338 0.144676 0.072338 0.144676 0.289352 0.144676 0.144676 0.072338 0.144676 0.072338 0.144676 0.289352 0.144676 0.144676 0.072338 0.144676 0.072338 0.144676 0.289352 0.144676 0.144676 0.072338 0.144676 0.072338 0.144676 0.289352 0.144676 0.144676 0.072338 0.144676 0.072338 0.144676 0.289352 0.144676 0.144676 0.072338 0.144676 0.072338 0.144676 0.289352 0.144676 0.144676 0.072338 0.144676 0.072338 0.144676 0.289352 0.144676 0.144676 0.072338 0.144676 0.072338 0.144676 0.289352 0.144676 0.144676 0.072338 0.144676 0.072338 0.144676 0.289352 0.144676 0.144676 0.072338 0.144676 0.072338 0.144676 0.289352 0.144676 0.144676 0.072338 0.144676 0.072338 0.144676 0.289352 0.144676 0.144676 0.072338 0.144676 0.072338 0.144676 0.289352 0.144676 0.144676 0.072338 0.144676 0.072338 0.144676 0.289352 0.144676 0.144676 0.072338 0.144676 0.072338 0.144676 0.289352 0.144676 0.144676 0.072338 0.144676 0.072338 0.144676 0.289352 0.144676 0.144676 0.072338 0.144676 0.072338 0.144676 0.289352 0.144676 0.144676 0.072338 0.144676 0.072338 0.144676 0.289352 0.144676 0.144676 0.072338 0.144676 0.072338 0.144676 0.289352 0.144676 0.144676 0.072338 0.144676 0.072338 0.144676 0.289352 0.144676 0.144676 0.072338 0.144676 0.072338 0.144676 0.289352 0.144676 0.144676 0.072338 0.144676 0.072338 0.072338 0.144676 0.144676 0.072338 0.072338 0.144676 0.072338 0.144676 0.072338 0.289352 0.144676 0.144676 0.144676 0.072338 0.072338 0.144676 0.072338 0.144676 0.289352 0.144676 0.144676 0.072338 0.144676 0.072338 0.144676 0.289352 0.144676 0.144676 0.072338 0.144676 0.072338 0.144676 0.289352 0.144676 0.144676 0.072338 0.144676 0.072338 0.144676 0.289352 0.144676 0.144676 0.072338 0.144676 0.072338 0.144676 0.289352 0.144676 0.144676 0.072338 0.144676 0.072338 0.144676 0.289352 0.144676 0.144676 0.072338 0.144676 0.072338 0.144676 0.289352 0.144676 0.144676 0.072338 0.144676 0.072338 0.144676 0.289352 0.144676 0.144676 0.072338 0.144676 0.072338 0.144676 0.289352 0.144676 0.144676 0.072338 0.144676 0.072338 0.144676 0.289352 0.144676 0.144676 0.072338 0.144676 0.072338 0.144676 0.289352 0.144676 0.144676 0.072338 0.144676 0.072338 0.144676 0.289352 0.144676 0.144676 0.072338 0.144676 0.072338 0.144676 0.289352 0.144676 0.144676 0.072338 0.144676 0.072338 0.144676 0.289352 0.144676 0.144676 0.072338 0.144676 0.072338 0.144676 0.289352 0.144676 0.144676 0.072338 0.144676 0.072338 0.144676 0.289352 0.144676 0.144676 0.072338 0.144676 0.072338 0.144676 0.289352 0.144676 0.144676 0.072338 0.144676 0.072338 0.144676 0.289352 0.144676 0.144676 0.072338 0.144676 0.072338 0.144676 0.289352 0.144676 0.144676 0.072338 0.144676 0.072338 0.144676 0.289352 0.144676 0.144676 0.072338 0.144676 0.072338 0.144676 0.289352 0.144676 0.144676 0.072338 0.144676 0.072338 0.144676 0.289352 0.144676 0.144676 0.072338 0.144676 0.072338 0.072338 0.144676 0.144676 0.072338 0.072338 0.144676 0.072338 0.144676 0.072338 0.144676 0.072338 0.072338 0.144676 0.072338 0.072338 0.072338 0.072338 0.144676 0.144676 0.072338 0.144676 0.072338 0.072338 0.072338 0.144676 0.144676 0.072338 0.144676 0.072338 0.072338 0.072338 0.144676 0.144676 0.072338 0.144676 0.072338 0.072338 0.072338 0.144676 0.144676 0.072338 0.144676 0.072338 0.072338 0.072338 0.144676 0.144676 0.072338 0.144676 0.072338 0.072338 0.072338 0.144676 0.144676 0.072338 0.144676 0.072338 0.072338 0.072338 0.144676 0.144676 0.072338 0.144676 0.072338 0.072338 0.072338 0.144676 0.144676 0.072338 0.144676 0.072338 0.072338 0.072338 0.144676 0.144676 0.072338 0.144676 0.072338 0.072338 0.072338 0.144676 0.144676 0.072338 0.144676 0.072338 0.072338 0.072338 0.144676 0.144676 0.072338 0.144676 0.072338 0.072338 0.072338 0.144676 0.144676 0.072338 0.144676 0.072338 0.072338 0.072338 0.144676 0.144676 0.072338 0.144676 0.072338 0.072338 0.072338 0.144676 0.144676 0.072338 0.144676 0.072338 0.072338 0.072338 0.144676 0.144676 0.072338 0.144676 0.072338 0.072338 0.072338 0.144676 0.144676 0.072338 0.144676 0.072338 0.072338 0.072338 0.144676 0.144676 0.072338 0.144676 0.072338 0.072338 0.072338 0.144676 0.144676 0.072338 0.144676 0.072338 0.072338 0.072338 0.144676 0.144676 0.0723379 0.144676 0.0723379 0.0723379 0.0723379 0.144676 0.144676 0.072338 0.144676 0.072338 0.072338 0.072338 0.144676 0.144676 0.072338 0.144676 0.072338 0.072338 0.072338 0.144676 0.144676 0.072338 0.144676 0.072338 0.072338 0.072338 0.072338 0.072338 0.072338 0.072338 0.072338 0.072338 0.072338 
VECTORS u float
0 0 0  -0.0154445 -0.00850181 -0.0167494  -0.0268863 -0.0151934 -0.0211549  -0.0376447 -0.0262358 -0.0218976  -0.0484612 -0.0405098 -0.0208592  -0.0590627 -0.0575519 -0.0191107  -0.0692992 -0.0769003 -0.0171275  -0.0790842 -0.098244 -0.0151327  -0.0883715 -0.121306 -0.0132339  -0.0971522 -0.145882 -0.0114689  -0.105425 -0.17177 -0.00984764  -0.113208 -0.198808 -0.00836182  -0.120515 -0.226809 -0.00701284  -0.127365 -0.255635 -0.00578713  -0.13378 -0.285121 -0.00468349  -0.139783 -0.315141 -0.00369525  -0.145394 -0.345551 -0.00282359  -0.150643 -0.376247 -0.00206041  -0.155557 -0.407106 -0.00140929  -0.160168 -0.438048 -0.000863314  -0.164506 -0.468966 -0.000431538  -0.168608 -0.499807 -0.00010705  -0.17252 -0.530495 0.00011158  -0.176302 -0.561013 0.000240564  -0.180048 -0.591391 0.000327349  0 0 0  -0.00889558 -0.00338137 -0.0125117  -0.0172374 -0.0113354 -0.0154505  -0.0250137 -0.0227235 -0.0160244  -0.0329353 -0.0374962 -0.0153701  -0.0409421 -0.055099 -0.0141664  -0.0489147 -0.0750835 -0.0127394  -0.0567427 -0.0970664 -0.0112844  -0.0643562 -0.120775 -0.00987267  -0.0717051 -0.145957 -0.00855899  -0.0787708 -0.172424 -0.00734043  -0.0855384 -0.199976 -0.00623274  -0.0920107 -0.228458 -0.00521588  -0.0981841 -0.257695 -0.0043025  -0.10407 -0.287554 -0.00347209  -0.10967 -0.317879 -0.00273991  -0.114997 -0.34856 -0.00208473  -0.120061 -0.379463 -0.00152278  -0.124878 -0.410499 -0.00103402  -0.129461 -0.441561 -0.000634909  -0.133837 -0.47258 -0.00030899  -0.138015 -0.503472 -6.79493e-05  -0.142026 -0.534201 0.000114441  -0.14589 -0.564724 0.000242233  -0.149665 -0.595083 0.00037384  0 0 0  -0.00504585 -0.000866801 -0.00831079  -0.00977226 -0.00850675 -0.0102749  -0.014749 -0.0203193 -0.0105965  -0.0200335 -0.0355172 -0.0101428  -0.0255341 -0.0535627 -0.00934768  -0.0311909 -0.0740134 -0.00841022  -0.0369338 -0.0964874 -0.00744224  -0.0427011 -0.120691 -0.00650263  -0.0484407 -0.146364 -0.00561857  -0.0541148 -0.173297 -0.00480413  -0.0596946 -0.201288 -0.00405908  -0.0651624 -0.230169 -0.00338149  -0.0705 -0.259768 -0.00277042  -0.0756989 -0.289945 -0.00222182  -0.0807468 -0.320549 -0.00173354  -0.0856426 -0.351464 -0.00130463  -0.0903797 -0.382566 -0.000932455  -0.0949609 -0.413762 -0.000615358  -0.0993869 -0.444952 -0.000354052  -0.103663 -0.476068 -0.000144482  -0.107793 -0.507037 1.83582e-05  -0.111783 -0.537822 0.000140905  -0.115642 -0.568382 0.000247478  -0.119407 -0.598689 0.000366449  0 0 0  -0.00209214 -3.50773e-05 -0.00395608  -0.00395927 -0.00726444 -0.00500345  -0.00615102 -0.019204 -0.00519443  -0.00876746 -0.0347124 -0.0049727  -0.0117459 -0.0530875 -0.00457096  -0.0150556 -0.0738808 -0.00409198  -0.0186546 -0.0967077 -0.00359273  -0.022498 -0.121281 -0.00310707  -0.0265324 -0.147321 -0.00264978  -0.0307165 -0.174619 -0.00223041  -0.0350051 -0.202953 -0.00184989  -0.0393661 -0.232158 -0.00150824  -0.0437659 -0.262049 -0.00120234  -0.04818 -0.292488 -0.000929832  -0.0525815 -0.323321 -0.000691652  -0.0569531 -0.354435 -0.000484705  -0.0612736 -0.385701 -0.000308275  -0.0655327 -0.417036 -0.000159502  -0.069715 -0.448334 -3.93391e-05  -0.0738184 -0.47954 5.57899e-05  -0.0778303 -0.510578 0.000125408  -0.0817504 -0.54142 0.000179529  -0.0855725 -0.572004 0.000229359  -0.0893078 -0.602263 0.000289917  0 0 0  0.000501409 -0.000200629 0.000351667  0.00114655 -0.0074774 0.000276804  0.00159559 -0.0195405 0.000200033  0.00164515 -0.0352251 0.000167608  0.00120461 -0.0537989 0.000179052  0.000254333 -0.0748044 0.000215054  -0.0011847 -0.0978643 0.000261068  -0.00307542 -0.122686 0.000304699  -0.00536752 -0.148987 0.000341415  -0.00801265 -0.176545 0.000368357  -0.0109583 -0.205136 0.000385523  -0.0141587 -0.234579 0.000393629  -0.0175664 -0.264692 0.000394106  -0.0211414 -0.295328 0.00038743  -0.0248427 -0.326336 0.000375032  -0.028638 -0.357598 0.000358343  -0.0324924 -0.388991 0.000339508  -0.0363812 -0.420428 0.000317574  -0.0402777 -0.451809 0.000295401  -0.0441666 -0.483078 0.000271082  -0.0480273 -0.514165 0.000245333  -0.0518527 -0.545037 0.000219345  -0.0556269 -0.575636 0.000194788  -0.059329 -0.605872 0.000173569  0 0 0  0.00302939 -0.00118142 0.00458097  0.00619692 -0.00901711 0.0054307  0.00928184 -0.0213109 0.00547743  0.0119713 -0.0370858 0.0052259  0.0140392 -0.0557288 0.00487733  0.0154227 -0.0768291 0.00449395  0.016127 -0.100011 0.00410223  0.0161804 -0.124981 0.0037148  0.0156311 -0.151443 0.00333881  0.0145298 -0.179171 0.00297785  0.0129383 -0.207926 0.00263262  0.0109115 -0.23753 0.0023067  0.00851107 -0.267787 0.00200033  0.00578964 -0.298555 0.00171423  0.00280321 -0.329673 0.00145006  -0.000402927 -0.361032 0.0012095  -0.00377846 -0.392501 0.000991821  -0.00728607 -0.423999 0.000799179  -0.0108862 -0.455424 0.000630617  -0.0145519 -0.486723 0.000487328  -0.0182524 -0.517824 0.000366211  -0.0219746 -0.5487 0.000259876  -0.0256948 -0.579294 0.000160456  -0.0293748 -0.609548 5.36442e-05  0 0 0  0.00576951 -0.00315505 0.00866413  0.0118058 -0.0119658 0.0103052  0.0176367 -0.0244852 0.0105369  0.0229151 -0.0402476 0.0101514  0.0274197 -0.0588656 0.00949645  0.0310801 -0.0799717 0.00872374  0.0338813 -0.103194 0.00791168  0.0358407 -0.128224 0.00710392  0.0370009 -0.154765 0.00632238  0.0374159 -0.182574 0.0055759  0.0371528 -0.211414 0.00487137  0.0362762 -0.241093 0.00421143  0.0348605 -0.27142 0.00359726  0.0329705 -0.302245 0.00303173  0.0306764 -0.33341 0.00251484  0.0280378 -0.364801 0.00204802  0.0251164 -0.396292 0.00163174  0.021966 -0.427798 0.00126648  0.0186374 -0.459224 0.000953674  0.0151749 -0.490512 0.000691414  0.0116158 -0.521594 0.00047636  0.00798702 -0.55244 0.000300407  0.00431609 -0.583014 0.000144243  0.000644207 -0.613306 -1.95503e-05  0 0 0  0.00922041 -0.00667858 0.0123026  0.0187809 -0.0163701 0.0148063  0.0273157 -0.0288746 0.0154054  0.035089 -0.0445676 0.0149701  0.0419657 -0.0631274 0.0140405  0.0478477 -0.0842026 0.0128922  0.0526935 -0.107409 0.0116715  0.0565032 -0.132438 0.0104496  0.0593169 -0.15898 0.00926757  0.0611885 -0.186796 0.00813937  0.0621963 -0.215636 0.00707793  0.062412 -0.245314 0.00608683  0.061922 -0.275629 0.00516605  0.0608042 -0.306437 0.0043211  0.0591431 -0.337573 0.0035522  0.0570092 -0.36893 0.00285864  0.0544825 -0.400376 0.00224328  0.0516241 -0.431836 0.00170469  0.0485072 -0.463207 0.00124717  0.0451837 -0.49444 0.00086832  0.0417123 -0.525463 0.000565529  0.0381339 -0.556255 0.00033164  0.0344899 -0.586782 0.000148535  0.0308089 -0.61711 -2.45571e-05  0 0 0  0.0151382 -0.0126016 0.0155456  0.0275837 -0.0216998 0.019485  0.0386928 -0.0342674 0.0203948  0.0490505 -0.0499571 0.0198011  0.0583453 -0.0685076 0.018537  0.0664445 -0.089546 0.0169909  0.07329 -0.112708 0.0153484  0.0788813 -0.137678 0.0137169  0.0832629 -0.16416 0.0121353  0.0865009 -0.191903 0.0106337  0.0886793 -0.220668 0.0092175  0.0898883 -0.250258 0.00790095  0.0902216 -0.280482 0.00667667  0.0897744 -0.311185 0.00555515  0.0886389 -0.342215 0.00453329  0.086906 -0.373455 0.00361657  0.0846627 -0.404788 0.00279903  0.0819895 -0.436126 0.0020895  0.0789673 -0.467383 0.00148654  0.0756674 -0.4985 0.000993729  0.0721624 -0.52942 0.000605345  0.0685196 -0.560116 0.000329971  0.0648081 -0.590576 0.000145435  0.06109 -0.620895 9.29832e-06  0 0 0  -0.01215 -0.0132742 -0.0103626  -0.0253885 -0.0209801 -0.0152833  -0.0378409 -0.0316692 -0.0164194  -0.0495802 -0.0453837 -0.0158613  -0.0606381 -0.0617992 -0.0145845  -0.0710469 -0.080575 -0.0130615  -0.0808419 -0.101395 -0.0115154  -0.0900545 -0.124009 -0.0100405  -0.0987158 -0.148183 -0.00867867  -0.106853 -0.173724 -0.00743198  -0.114494 -0.20044 -0.00629807  -0.121659 -0.228167 -0.00526953  -0.128374 -0.256735 -0.00434113  -0.134658 -0.286003 -0.00350428  -0.140537 -0.315819 -0.00275874  -0.146032 -0.34606 -0.00209928  -0.151174 -0.3766 -0.00152588  -0.155986 -0.407339 -0.00103378  -0.160504 -0.43817 -0.000626564  -0.164757 -0.469017 -0.000301123  -0.168792 -0.499799 -6.10352e-05  -0.172656 -0.53047 0.00010705  -0.176416 -0.560989 0.000214577  -0.180147 -0.591391 0.000307083  0 0 0  -0.00580519 -0.00653508 -0.00763202  -0.0157239 -0.0158226 -0.0113704  -0.0251573 -0.0274569 -0.0122032  -0.0339865 -0.041988 -0.0118022  -0.0424474 -0.0591763 -0.0108664  -0.0505975 -0.0786943 -0.00973725  -0.0584456 -0.100226 -0.00858235  -0.0659905 -0.12351 -0.00747752  -0.0732294 -0.148312 -0.00645399  -0.0801636 -0.17443 -0.0055182  -0.0867956 -0.201672 -0.00466657  -0.0931317 -0.229871 -0.00389576  -0.0991741 -0.258858 -0.00319982  -0.104933 -0.288489 -0.00257444  -0.110413 -0.318618 -0.0020175  -0.115628 -0.349121 -0.00152683  -0.120585 -0.379875 -0.00109959  -0.125304 -0.410782 -0.000735044  -0.129798 -0.441741 -0.000431776  -0.134091 -0.472676 -0.000190735  -0.138204 -0.503513 -7.62939e-06  -0.142165 -0.534206 0.000125647  -0.146007 -0.564719 0.000224352  -0.149784 -0.595075 0.000316858  0 0 0  -0.00309607 -0.00364545 -0.00513673  -0.00882173 -0.0124539 -0.00765395  -0.0149287 -0.0246721 -0.00818157  -0.0208822 -0.0397993 -0.0078733  -0.0267349 -0.0575552 -0.0072248  -0.0325394 -0.0776206 -0.0064559  -0.0383068 -0.0996903 -0.00567365  -0.0440271 -0.123497 -0.00492549  -0.0496808 -0.1488 -0.00423312  -0.0552506 -0.175391 -0.00360107  -0.0607189 -0.203072 -0.00302911  -0.0660738 -0.231669 -0.00251174  -0.0713018 -0.261015 -0.00204659  -0.0763938 -0.29096 -0.00163054  -0.0813426 -0.321362 -0.001261  -0.0861434 -0.352096 -0.00093627  -0.0907941 -0.383044 -0.000655651  -0.0952938 -0.414105 -0.000416279  -0.0996461 -0.445186 -0.000219345  -0.103858 -0.476212 -6.17504e-05  -0.107937 -0.507116 6.00815e-05  -0.11189 -0.537852 0.000151396  -0.115736 -0.568381 0.000227451  -0.119511 -0.598677 0.000303984  0 0 0  -0.00122631 -0.00266919 -0.00252795  -0.00363675 -0.0110303 -0.00381041  -0.00644824 -0.0233993 -0.00409532  -0.00945631 -0.038898 -0.00393367  -0.0126513 -0.057044 -0.0035882  -0.0160553 -0.0775004 -0.00317812  -0.0196696 -0.0999562 -0.00276136  -0.0234784 -0.124151 -0.00236511  -0.02745 -0.149834 -0.00200009  -0.0315547 -0.176793 -0.00166965  -0.0357565 -0.204819 -0.00137377  -0.0400311 -0.233737 -0.0011096  -0.044345 -0.263371 -0.000874996  -0.048677 -0.293576 -0.000667572  -0.053 -0.324202 -0.00048542  -0.0572987 -0.355129 -0.000327587  -0.061552 -0.386236 -0.000192642  -0.0657516 -0.41743 -8.05855e-05  -0.0698814 -0.448614 1.14441e-05  -0.0739377 -0.479722 8.32081e-05  -0.0779128 -0.510686 0.000137329  -0.0818074 -0.541466 0.000176191  -0.0856183 -0.572007 0.000211954  -0.0893617 -0.602254 0.000249624  0 0 0  0.000350758 -0.00273028 0.000122547  0.00086984 -0.011131 8.03471e-05  0.00116903 -0.0236446 2.12193e-05  0.0010913 -0.0393551 1.21593e-05  0.000570714 -0.0577378 4.45843e-05  -0.000413179 -0.078438 9.65595e-05  -0.00184888 -0.101151 0.00015378  -0.00370944 -0.125611 0.000204563  -0.0059557 -0.151564 0.000246048  -0.00854254 -0.178787 0.000276804  -0.0114261 -0.20707 0.000297546  -0.014563 -0.236226 0.000309944  -0.0179085 -0.266079 0.000313759  -0.0214238 -0.296477 0.000312567  -0.0250702 -0.327273 0.000305176  -0.028815 -0.358344 0.000295639  -0.0326257 -0.389572 0.000283003  -0.0364752 -0.420862 0.000268221  -0.0403388 -0.452123 0.000253677  -0.0441992 -0.483289 0.000236988  -0.0480385 -0.514295 0.000220299  -0.0518463 -0.5451 0.000202179  -0.0556099 -0.57565 0.000184774  -0.0593104 -0.605875 0.000169992  0 0 0  0.00193551 -0.00360233 0.0027256  0.00536129 -0.012568 0.00387597  0.00872514 -0.0253391 0.00404429  0.0115309 -0.0411712 0.00389004  0.0136495 -0.0596519 0.00363398  0.0150616 -0.0804713 0.00334787  0.0157916 -0.103325 0.00305629  0.015874 -0.127945 0.00277185  0.0153594 -0.154068 0.00249505  0.0142974 -0.181465 0.00222969  0.0127473 -0.209914 0.00197577  0.0107621 -0.23923 0.00173616  0.00840235 -0.269225 0.00150895  0.00571835 -0.29975 0.00129771  0.00276542 -0.330653 0.00110269  -0.000411391 -0.361815 0.000923634  -0.00376391 -0.393114 0.000763178  -0.00725365 -0.42446 0.00062108  -0.0108411 -0.45576 0.000496864  -0.0144975 -0.486951 0.000391483  -0.0181925 -0.517969 0.000303268  -0.021908 -0.548778 0.000227451  -0.0256195 -0.579327 0.000158787  -0.0292873 -0.609574 9.15527e-05  0 0 0  0.00382206 -0.00549263 0.00516748  0.0104606 -0.0154628 0.00742245  0.0169541 -0.0284817 0.00785828  0.0225687 -0.0443134 0.00762939  0.0272456 -0.0627819 0.00713634  0.0309951 -0.0836182 0.00654578  0.0338456 -0.106522 0.00592828  0.0358381 -0.131213 0.00531816  0.0370244 -0.157419 0.00473213  0.0374644 -0.184902 0.00417519  0.0372244 -0.213436 0.003649  0.0363718 -0.242828 0.00315738  0.0349766 -0.272892 0.00269985  0.0331044 -0.303471 0.00227833  0.0308242 -0.334417 0.00189304  0.0281942 -0.365607 0.00154543  0.0252776 -0.396923 0.00123596  0.0221248 -0.428272 0.000965118  0.0187907 -0.459569 0.00073266  0.0153167 -0.490746 0.000539064  0.0117452 -0.521744 0.000382185  0.00810838 -0.552528 0.000253916  0.00443745 -0.583067 0.000144482  0.000782013 -0.613355 3.8147e-05  0 0 0  0.00651444 -0.00917268 0.00731778  0.01703 -0.0200747 0.0106392  0.0265363 -0.032986 0.0114446  0.0348167 -0.048686 0.011225  0.0419633 -0.067064 0.0105441  0.0479839 -0.0878552 0.00967622  0.0529004 -0.11074 0.00875044  0.0567466 -0.13543 0.00782919  0.0595809 -0.16164 0.00693989  0.0614671 -0.189132 0.00609493  0.0624847 -0.21767 0.00530124  0.0627087 -0.24706 0.00456071  0.0622253 -0.277112 0.00387335  0.0611094 -0.307672 0.00324345  0.0594465 -0.338587 0.00266933  0.0573061 -0.369739 0.00215173  0.0547664 -0.401006 0.00169301  0.0518913 -0.432305 0.00129366  0.0487509 -0.463543 0.000952482  0.045399 -0.494663 0.000672817  0.0418975 -0.525603 0.00045085  0.0382922 -0.556337 0.00028038  0.0346313 -0.586843 0.000145674  0.0309539 -0.617167 2.24113e-05  0 0 0  0.0122937 -0.0162881 0.00949693  0.0257559 -0.0260745 0.0138874  0.0378542 -0.0386765 0.0150328  0.0487546 -0.0542021 0.0147753  0.0583506 -0.0724732 0.013886  0.0666099 -0.0931826 0.0127399  0.0735357 -0.116 0.0115108  0.0791693 -0.140625 0.0102861  0.0835729 -0.166772 0.00910163  0.0868255 -0.194194 0.00797915  0.089013 -0.222658 0.00692177  0.0902286 -0.251963 0.0059371  0.0905658 -0.281923 0.00502348  0.0901184 -0.312381 0.00418687  0.0889796 -0.343189 0.00342393  0.0872381 -0.374225 0.00274062  0.0849795 -0.405376 0.00213122  0.0822868 -0.436554 0.00160265  0.0792375 -0.467675 0.00115514  0.0759075 -0.49868 0.000792265  0.0723696 -0.529519 0.000507355  0.0686951 -0.560168 0.0003016  0.0649593 -0.590622 0.000155926  0.0612156 -0.620942 3.02792e-05  0 0 0  -0.0123959 -0.0157418 -0.00608516  -0.0250913 -0.0245334 -0.00946522  -0.0376234 -0.0353928 -0.0106885  -0.0497024 -0.0488728 -0.0105615  -0.0610526 -0.0649275 -0.0098021  -0.0716581 -0.0833343 -0.00880313  -0.0815505 -0.10379 -0.00775719  -0.0907965 -0.126084 -0.00675201  -0.0994397 -0.149958 -0.00582314  -0.107538 -0.175243 -0.00497341  -0.115117 -0.201718 -0.00420332  -0.122221 -0.229243 -0.0035069  -0.128865 -0.257617 -0.00287867  -0.135087 -0.286723 -0.00231433  -0.140898 -0.316382 -0.0018115  -0.146339 -0.346501 -0.00136828  -0.151421 -0.37692 -0.000981331  -0.156189 -0.407569 -0.000651598  -0.160661 -0.438313 -0.000377893  -0.164887 -0.469104 -0.000159025  -0.168896 -0.499833 4.29153e-06  -0.172754 -0.530483 0.000119448  -0.17651 -0.560989 0.000199795  -0.180238 -0.591401 0.00027132  0 0 0  -0.0054113 -0.0081988 -0.00445867  -0.0150293 -0.0186105 -0.00707412  -0.0248743 -0.0306167 -0.00800228  -0.0341918 -0.0451107 -0.00790763  -0.0430004 -0.0620873 -0.0073328  -0.0513561 -0.081319 -0.00657535  -0.0592999 -0.102552 -0.00578237  -0.0668651 -0.125541 -0.00502157  -0.0740772 -0.150071 -0.00431848  -0.0809581 -0.175936 -0.00367737  -0.0875216 -0.202953 -0.00309777  -0.0937829 -0.230944 -0.00257397  -0.0997498 -0.259748 -0.00210261  -0.105434 -0.289211 -0.00168014  -0.110843 -0.319194 -0.00130439  -0.115991 -0.349565 -0.000973225  -0.120885 -0.38021 -0.000684977  -0.125547 -0.411019 -0.000439167  -0.129992 -0.441901 -0.000235319  -0.134243 -0.472771 -7.1764e-05  -0.138322 -0.503564 5.14984e-05  -0.142262 -0.534224 0.000142097  -0.146096 -0.564726 0.000211239  -0.14988 -0.595081 0.000277758  0 0 0  -0.00280916 -0.00490248 -0.00298452  -0.0082884 -0.0146427 -0.00476956  -0.0147184 -0.027371 -0.00538945  -0.0210919 -0.0426233 -0.00530148  -0.0272494 -0.0603 -0.00489497  -0.0332319 -0.0801572 -0.00437021  -0.0390821 -0.101986 -0.00382543  -0.0448173 -0.125523 -0.00330544  -0.0504463 -0.150579 -0.00282621  -0.0559657 -0.17692 -0.00239182  -0.0613726 -0.204386 -0.00199986  -0.0666581 -0.232771 -0.00164747  -0.0718184 -0.26194 -0.00133157  -0.0768418 -0.291711 -0.00104976  -0.0817264 -0.321973 -0.000798702  -0.0864649 -0.352568 -0.000579834  -0.0910594 -0.38341 -0.000389576  -0.0955062 -0.414365 -0.000227213  -0.0998151 -0.445373 -9.29832e-05  -0.103987 -0.476325 1.33514e-05  -0.108036 -0.507187 9.67979e-05  -0.111968 -0.537879 0.000158548  -0.115806 -0.568398 0.000209808  -0.119585 -0.598693 0.000259876  0 0 0  -0.00111581 -0.00371107 -0.00148964  -0.00344205 -0.0129036 -0.00239921  -0.00644732 -0.0258116 -0.00272274  -0.00970984 -0.0415287 -0.00267315  -0.0131001 -0.0596762 -0.00245094  -0.0166196 -0.0799868 -0.00216532  -0.0202869 -0.10224 -0.00187016  -0.0240998 -0.126193 -0.00158954  -0.0280488 -0.15164 -0.00133228  -0.0321105 -0.178359 -0.00110292  -0.0362626 -0.206172 -0.000897408  -0.0404794 -0.234881 -0.000714779  -0.0447382 -0.264336 -0.000553608  -0.0490128 -0.294367 -0.000411749  -0.0532851 -0.324848 -0.000286579  -0.057533 -0.355636 -0.000178099  -0.0617433 -0.386632 -8.55923e-05  -0.0659001 -0.41772 -8.34465e-06  -0.0699961 -0.448825 5.50747e-05  -0.0740213 -0.479858 0.000104904  -0.0779736 -0.510773 0.000143766  -0.0818498 -0.541507 0.000172138  -0.0856559 -0.572033 0.00019598  -0.0894029 -0.602288 0.00022006  0 0 0  0.000276089 -0.00367415 3.40939e-05  0.000696003 -0.0128664 1.12057e-05  0.00091356 -0.0259315 -2.67029e-05  0.000759244 -0.0418899 -3.14713e-05  0.000175774 -0.0603165 -5.96046e-06  -0.000843346 -0.080899 3.91006e-05  -0.00229138 -0.103438 8.67844e-05  -0.00414115 -0.127667 0.000130892  -0.00636244 -0.153399 0.000166178  -0.00891423 -0.180386 0.000192881  -0.0117584 -0.208461 0.000212908  -0.0148512 -0.237406 0.000226259  -0.0181551 -0.267083 0.000231981  -0.021628 -0.297301 0.000234842  -0.0252372 -0.327955 0.000232935  -0.0289448 -0.35888 0.000229359  -0.0327246 -0.389998 0.000224829  -0.0365448 -0.421175 0.000217438  -0.0403876 -0.452357 0.00020957  -0.0442269 -0.483441 0.000201225  -0.0480516 -0.514398 0.000192642  -0.051847 -0.545151 0.000184059  -0.0556064 -0.575689 0.000174999  -0.0593088 -0.605921 0.000168324  0 0 0  0.00167689 -0.00453967 0.00152659  0.00482693 -0.0143043 0.00236678  0.00821757 -0.027621 0.00261283  0.0111148 -0.0436994 0.002563  0.0132981 -0.0622212 0.00240898  0.0147542 -0.0829338 0.00222349  0.0155135 -0.105617 0.00203323  0.0156248 -0.13002 0.00184631  0.0151371 -0.155923 0.00166583  0.014106 -0.183091 0.00149226  0.0125849 -0.211332 0.0013268  0.0106323 -0.240439 0.0011704  0.00830066 -0.270255 0.00102234  0.00564611 -0.300603 0.000884771  0.00271666 -0.331358 0.000757217  -0.00043571 -0.362375 0.000640869  -0.00377178 -0.393558 0.000537157  -0.00724387 -0.424791 0.000444651  -0.0108211 -0.456006 0.000365496  -0.0144672 -0.487117 0.000298738  -0.0181563 -0.518081 0.000242949  -0.0218654 -0.548841 0.000196457  -0.0255742 -0.579374 0.00015521  -0.0292418 -0.60963 0.000115633  0 0 0  0.00339216 -0.00655669 0.00291419  0.00960943 -0.0173647 0.00456786  0.0162433 -0.0308941 0.00510859  0.0220889 -0.0469109 0.00505543  0.0269313 -0.0653871 0.00475597  0.0307875 -0.0860946 0.00436687  0.033703 -0.108827 0.00395465  0.0357394 -0.133294 0.00354648  0.0369563 -0.159287 0.00315642  0.0374241 -0.18654 0.00278616  0.0372064 -0.214871 0.00243759  0.0363764 -0.244053 0.00211263  0.0349995 -0.27394 0.00181079  0.0331467 -0.304337 0.00153184  0.0308783 -0.335137 0.00127864  0.0282621 -0.366176 0.00104952  0.0253506 -0.397377 0.000846386  0.0222051 -0.428609 0.000669003  0.0188704 -0.459822 0.000517845  0.0153968 -0.490913 0.000391722  0.0118239 -0.521862 0.000290632  0.00818825 -0.552594 0.00020957  0.0045166 -0.583121 0.000142813  0.000861883 -0.613407 7.77245e-05  0 0 0  0.00597079 -0.0105889 0.00417852  0.016004 -0.0223808 0.00658846  0.0257224 -0.0356566 0.00744772  0.0342939 -0.0514199 0.00743437  0.0416549 -0.0697277 0.00702405  0.0478176 -0.0903534 0.00645566  0.0528195 -0.113044 0.00583863  0.0567214 -0.137507 0.00522089  0.0595901 -0.163499 0.00462747  0.0615041 -0.190764 0.0040648  0.0625402 -0.219097 0.00353742  0.0627831 -0.24828 0.00304627  0.0623122 -0.278152 0.00259089  0.0612116 -0.308534 0.00217271  0.0595551 -0.339299 0.00179267  0.0574229 -0.370303 0.00145197  0.0548832 -0.401451 0.00114942  0.0520105 -0.432634 0.00088644  0.0488639 -0.463785 0.000663519  0.0455089 -0.494823 0.000480413  0.042002 -0.525712 0.000336647  0.0383952 -0.556401 0.000226021  0.0347316 -0.586896 0.000139475  0.0310564 -0.617217 5.81741e-05  0 0 0  0.0120929 -0.0184303 0.00548363  0.0248999 -0.0289484 0.00860333  0.0370168 -0.0416732 0.00974488  0.0481373 -0.057089 0.00975037  0.0579304 -0.0751945 0.00922823  0.066332 -0.0956802 0.0084877  0.073351 -0.118278 0.00767612  0.0790473 -0.142659 0.00686073  0.0834934 -0.168586 0.00607347  0.0867791 -0.195776 0.00532651  0.0889921 -0.224038 0.00462556  0.0902313 -0.253136 0.00397134  0.0905879 -0.282921 0.00336647  0.0901607 -0.313199 0.00280976  0.0890361 -0.343861 0.00230598  0.0873082 -0.374749 0.00185299  0.0850577 -0.405784 0.00145173  0.0823729 -0.436846 0.00110316  0.0793273 -0.467885 0.000809669  0.0760014 -0.49881 0.000569582  0.0724657 -0.529606 0.000385761  0.0688004 -0.560216 0.000249624  0.0650678 -0.590672 0.000150919  0.0613394 -0.621001 6.34193e-05  0 0 0  -0.0126991 -0.0168789 -0.00284004  -0.0251869 -0.026323 -0.00449872  -0.0375403 -0.0374612 -0.00520515  -0.0496463 -0.0509011 -0.00523329  -0.0611178 -0.0668055 -0.00489497  -0.0718356 -0.0850021 -0.00440693  -0.0818112 -0.105262 -0.0038805  -0.0910956 -0.127353 -0.00336885  -0.0997555 -0.151059 -0.00289345  -0.107842 -0.176176 -0.00245881  -0.115405 -0.202516 -0.0020659  -0.122476 -0.229903 -0.00170898  -0.129094 -0.25817 -0.00138783  -0.13528 -0.287164 -0.00109959  -0.141065 -0.316741 -0.000842571  -0.146472 -0.346769 -0.000614882  -0.151533 -0.377127 -0.00041604  -0.156274 -0.407707 -0.00024581  -0.160733 -0.43841 -0.000105381  -0.164943 -0.469151 8.58307e-06  -0.168952 -0.499861 9.41753e-05  -0.172806 -0.530484 0.000157356  -0.176573 -0.560991 0.000204086  -0.180319 -0.591402 0.000246286  0 0 0  -0.00532008 -0.00899307 -0.00209022  -0.0148399 -0.0200707 -0.00337505  -0.0247096 -0.0323747 -0.00391293  -0.0341796 -0.046921 -0.00393295  -0.0431613 -0.0638139 -0.00367188  -0.0516499 -0.0829041 -0.00329614  -0.0596744 -0.103969 -0.00289202  -0.0672763 -0.126791 -0.00250101  -0.0744936 -0.151157 -0.00213981  -0.0813582 -0.176873 -0.00180984  -0.0878929 -0.20375 -0.00151253  -0.0941193 -0.231617 -0.00124335  -0.100048 -0.260306 -0.00100088  -0.105695 -0.289669 -0.000783443  -0.111067 -0.31956 -0.000590801  -0.116179 -0.349854 -0.000419855  -0.121043 -0.380427 -0.000270128  -0.125675 -0.411179 -0.000142813  -0.130096 -0.44201 -3.62396e-05  -0.134328 -0.472842 5.00679e-05  -0.138393 -0.503603 0.000115633  -0.142326 -0.534245 0.000166416  -0.146158 -0.564737 0.000205278  -0.149939 -0.595098 0.000244141  0 0 0  -0.00272143 -0.00549841 -0.00138998  -0.00810677 -0.0157787 -0.0022707  -0.0145828 -0.0288368 -0.00263619  -0.0211162 -0.0442324 -0.00264096  -0.0274374 -0.0618973 -0.00245428  -0.0335404 -0.0816729 -0.00219083  -0.0394592 -0.103366 -0.00191092  -0.0452232 -0.126763 -0.00164151  -0.0508518 -0.151664 -0.00139332  -0.056353 -0.177867 -0.00116825  -0.0617305 -0.205193 -0.000965595  -0.0669824 -0.233462 -0.000783205  -0.0721043 -0.262512 -0.000618219  -0.0770918 -0.292188 -0.000472546  -0.0819398 -0.322353 -0.000342846  -0.0866461 -0.352875 -0.000227213  -0.0912085 -0.38364 -0.000127792  -0.0956295 -0.414542 -4.24385e-05  -0.0999124 -0.445494 2.98023e-05  -0.104065 -0.476412 8.65459e-05  -0.108098 -0.507236 0.000132561  -0.112022 -0.537913 0.000168085  -0.115855 -0.568417 0.000197649  -0.119637 -0.598724 0.000225782  0 0 0  -0.00108491 -0.00417593 -0.00069499  -0.00338146 -0.01383 -0.00114489  -0.00642976 -0.0270755 -0.00133491  -0.00980079 -0.0429873 -0.00133467  -0.0133002 -0.0611807 -0.00123096  -0.0169005 -0.0814503 -0.00108528  -0.0206109 -0.103597 -0.000930786  -0.0244408 -0.127427 -0.00078392  -0.0283834 -0.152732 -0.000648022  -0.0324277 -0.17932 -0.000527143  -0.036553 -0.206997 -0.000417709  -0.0407408 -0.23559 -0.000321388  -0.0449662 -0.264928 -0.000236034  -0.0492113 -0.294862 -0.000159502  -0.0534521 -0.325247 -9.27448e-05  -0.0576741 -0.35596 -3.29018e-05  -0.0618575 -0.38688 1.7643e-05  -0.0659924 -0.417912 6.00815e-05  -0.0700672 -0.44896 9.58443e-05  -0.0740767 -0.479956 0.000125408  -0.0780153 -0.510833 0.000148535  -0.0818849 -0.541549 0.000166893  -0.0856848 -0.572061 0.000183582  -0.0894363 -0.60233 0.000198841  0 0 0  0.000239313 -0.00407958 5.72205e-06  0.000603408 -0.013701 -4.05312e-06  0.000773698 -0.0271 -1.90735e-05  0.000577092 -0.0432754 -2.14577e-05  -4.17233e-05 -0.0617697 -6.19888e-06  -0.00108713 -0.0823362 2.00272e-05  -0.00254554 -0.104783 4.88758e-05  -0.00439501 -0.128904 7.60555e-05  -0.00660443 -0.154499 9.89437e-05  -0.00913906 -0.181361 0.000117064  -0.0119603 -0.209301 0.000131845  -0.0150298 -0.238133 0.000142813  -0.0183079 -0.267691 0.000150919  -0.0217576 -0.297815 0.000155687  -0.0253429 -0.328369 0.000160217  -0.029031 -0.35922 0.000162363  -0.0327909 -0.390258 0.00016427  -0.0365961 -0.42138 0.000165462  -0.0404224 -0.452502 0.000165462  -0.0442517 -0.483549 0.000165701  -0.0480664 -0.514465 0.000166178  -0.0518568 -0.545201 0.000165701  -0.0556111 -0.575723 0.000165939  -0.0593183 -0.605973 0.000166416  0 0 0  0.00157297 -0.00495946 0.000690222  0.00458068 -0.0151561 0.00111103  0.00791985 -0.0288028 0.00126934  0.0108396 -0.0450855 0.00126934  0.0130604 -0.063673 0.00120234  0.0145437 -0.0843672 0.00111437  0.0153265 -0.106965 0.00102258  0.0154549 -0.13126 0.00093174  0.014986 -0.157032 0.000845432  0.0139718 -0.184077 0.000761271  0.0124706 -0.212186 0.000683308  0.0105356 -0.241179 0.000608206  0.00822389 -0.270878 0.000538826  0.00558555 -0.30113 0.000473499  0.00267398 -0.331787 0.000413418  -0.000466108 -0.362726 0.000360489  -0.00378776 -0.39383 0.000313282  -0.00725222 -0.425004 0.00027132  -0.0108192 -0.456161 0.000236273  -0.0144601 -0.487231 0.00020647  -0.0181429 -0.518155 0.000182867  -0.0218494 -0.548896 0.000163794  -0.0255551 -0.579414 0.000148535  -0.0292265 -0.609684 0.00013423  0 0 0  0.00323012 -0.0070737 0.00133085  0.00923669 -0.0183493 0.00215745  0.0158193 -0.0321825 0.00249124  0.0217385 -0.0483634 0.0025084  0.0266723 -0.066869 0.00237632  0.030598 -0.0875425 0.0021863  0.0335624 -0.110177 0.00198174  0.0356309 -0.134537 0.00177956  0.0368726 -0.160397 0.00158596  0.0373583 -0.187529 0.00140357  0.0371581 -0.215728 0.00123239  0.0363427 -0.244798 0.00107384  0.0349809 -0.274567 0.000925779  0.0331395 -0.30487 0.000790596  0.0308826 -0.335569 0.000667334  0.0282741 -0.366532 0.000556946  0.0253713 -0.397651 0.000459671  0.0222304 -0.428825 0.000375509  0.0189009 -0.459976 0.000304461  0.0154297 -0.49103 0.00024581  0.0118606 -0.521936 0.000198841  0.00822616 -0.552652 0.000163078  0.00455713 -0.583161 0.000134945  0.000899076 -0.613461 0.000107527  0 0 0  0.0057926 -0.0112788 0.00193167  0.0155866 -0.023607 0.00313163  0.0252375 -0.0371298 0.00363851  0.0338903 -0.0529782 0.00368786  0.0413619 -0.0712617 0.00350547  0.0476131 -0.091818 0.00322771  0.052679 -0.114397 0.00292182  0.0566227 -0.138743 0.00261354  0.0595218 -0.164601 0.00231791  0.0614564 -0.191743 0.00203896  0.0625107 -0.219945 0.00177765  0.0627677 -0.249016 0.00153518  0.0623113 -0.278773 0.00131106  0.0612196 -0.309058 0.00110555  0.0595739 -0.339724 0.000919104  0.0574484 -0.370649 0.000752449  0.0549169 -0.401719 0.000605106  0.0520463 -0.432842 0.000477552  0.0489056 -0.463933 0.000371695  0.0455527 -0.494932 0.000283957  0.0420499 -0.525783 0.000215769  0.0384455 -0.556455 0.000165462  0.034786 -0.586935 0.000126362  0.0311081 -0.617265 8.9407e-05  0 0 0  0.0121529 -0.019446 0.00252962  0.0246264 -0.0304853 0.00407982  0.0365402 -0.0433651 0.0047462  0.0476753 -0.0587668 0.0048213  0.0575551 -0.0767775 0.0045929  0.0660424 -0.0971539 0.00423574  0.0731279 -0.119615 0.00383568  0.0788713 -0.143869 0.00342965  0.0833515 -0.169655 0.00303769  0.0866634 -0.19672 0.00266695  0.0888993 -0.224851 0.00231957  0.090158 -0.253838 0.00199485  0.0905331 -0.283508 0.00169635  0.090121 -0.313692 0.00142121  0.0890105 -0.344257 0.00117254  0.0872958 -0.375067 0.000950336  0.0850577 -0.406024 0.000754118  0.0823829 -0.437029 0.000584364  0.0793469 -0.468009 0.000441551  0.0760307 -0.498899 0.000325918  0.0725055 -0.52966 0.000237465  0.0688491 -0.560259 0.000173807  0.0651269 -0.590705 0.000127077  0.0613925 -0.621038 8.60691e-05  0 0 0  -0.0128103 -0.0172249 5.24521e-06  -0.0252462 -0.0268832 1.16825e-05  -0.0375285 -0.0381147 1.97887e-05  -0.0496217 -0.051573 2.76566e-05  -0.0611168 -0.0674256 3.74317e-05  -0.0718733 -0.0855691 4.64916e-05  -0.0818753 -0.105753 5.62668e-05  -0.0911813 -0.127789 6.55651e-05  -0.0998446 -0.151427 7.58171e-05  -0.107935 -0.176499 8.67844e-05  -0.115489 -0.202781 9.63211e-05  -0.122558 -0.230132 0.000107527  -0.129163 -0.258351 0.000118732  -0.135344 -0.287319 0.000129461  -0.141116 -0.316856 0.000139952  -0.146519 -0.346864 0.000151157  -0.151568 -0.37719 0.000160933  -0.156307 -0.407758 0.000171423  -0.160756 -0.438435 0.000180721  -0.164968 -0.469171 0.000191212  -0.168972 -0.499862 0.000201225  -0.172832 -0.530486 0.000210285  -0.176596 -0.560982 0.000220299  -0.180337 -0.591399 0.000229597  0 0 0  -0.00529568 -0.00922377 4.76837e-06  -0.0147967 -0.0205131 1.07288e-05  -0.0246626 -0.032928 1.64509e-05  -0.0341617 -0.0475012 2.36034e-05  -0.0431904 -0.0643761 3.19481e-05  -0.0517224 -0.0834221 4.00543e-05  -0.0597767 -0.104436 4.88758e-05  -0.0673949 -0.127201 5.76973e-05  -0.0746163 -0.151514 6.67572e-05  -0.0814781 -0.177178 7.67708e-05  -0.0880063 -0.204009 8.55923e-05  -0.0942225 -0.231832 9.58443e-05  -0.100141 -0.260484 0.000106335  -0.105775 -0.289811 0.000117064  -0.111136 -0.319673 0.000126839  -0.116237 -0.349938 0.000136375  -0.121091 -0.38049 0.000147104  -0.125715 -0.411219 0.000156641  -0.130127 -0.442035 0.000166893  -0.134354 -0.472852 0.000176191  -0.138417 -0.503604 0.000185251  -0.142349 -0.534238 0.000194788  -0.146179 -0.564728 0.000204563  -0.149967 -0.595089 0.000213146  0 0 0  -0.00270092 -0.00567049 3.57628e-06  -0.0080595 -0.0161147 8.34465e-06  -0.0145425 -0.029295 1.35899e-05  -0.0211128 -0.044736 1.93119e-05  -0.027483 -0.0624131 2.6226e-05  -0.0336254 -0.0821574 3.3617e-05  -0.0395703 -0.103817 4.07696e-05  -0.0453461 -0.127159 4.86374e-05  -0.0509777 -0.152018 5.72205e-05  -0.056474 -0.178168 6.60419e-05  -0.0618439 -0.205455 7.43866e-05  -0.0670842 -0.233674 8.39233e-05  -0.0721961 -0.262693 9.41753e-05  -0.0771708 -0.292328 0.000103474  -0.0820096 -0.32247 0.000113487  -0.0867041 -0.352958 0.000123024  -0.0912576 -0.383707 0.000132561  -0.0956686 -0.414581 0.000141859  -0.0999446 -0.445523 0.000151396  -0.104091 -0.47642 0.000160694  -0.10812 -0.50724 0.000169754  -0.11204 -0.537903 0.000178814  -0.115873 -0.568411 0.000188112  -0.119654 -0.598714 0.000197411  0 0 0  -0.00107843 -0.00430912 1.90735e-06  -0.00336681 -0.0140984 5.48363e-06  -0.00642544 -0.0274631 9.77516e-06  -0.00982398 -0.0434381 1.45435e-05  -0.0133576 -0.0616601 2.0504e-05  -0.0169837 -0.0819148 2.67029e-05  -0.020712 -0.104036 3.33786e-05  -0.0245479 -0.127821 4.07696e-05  -0.0284914 -0.153085 4.79221e-05  -0.0325295 -0.179623 5.57899e-05  -0.0366489 -0.207261 6.36578e-05  -0.0408256 -0.235808 7.27177e-05  -0.0450423 -0.265113 8.13007e-05  -0.0492761 -0.295009 9.01222e-05  -0.0535091 -0.325368 9.9659e-05  -0.0577201 -0.356049 0.000108957  -0.0618963 -0.38695 0.000117302  -0.0660226 -0.417956 0.000125885  -0.0700917 -0.448991 0.00013566  -0.0740952 -0.479968 0.000144958  -0.0780311 -0.510839 0.000154257  -0.0818965 -0.541542 0.000162601  -0.0856974 -0.572056 0.000172138  -0.0894475 -0.602325 0.00018096  0 0 0  0.000229061 -0.00419343 7.15256e-07  0.000575244 -0.0139374 2.6226e-06  0.000729352 -0.027456 6.19888e-06  0.000519454 -0.0436977 9.53674e-06  -0.000111759 -0.062232 1.40667e-05  -0.00116497 -0.0827891 1.95503e-05  -0.00262934 -0.105219 2.5034e-05  -0.00447798 -0.129295 3.17097e-05  -0.0066855 -0.154856 3.79086e-05  -0.00921345 -0.181667 4.50611e-05  -0.0120291 -0.209572 5.24521e-05  -0.0150896 -0.238356 6.07967e-05  -0.018361 -0.267884 6.86646e-05  -0.0218014 -0.297967 7.67708e-05  -0.0253805 -0.328497 8.55923e-05  -0.0290598 -0.359313 9.44138e-05  -0.0328155 -0.390334 0.000102758  -0.0366137 -0.421427 0.000112295  -0.040436 -0.452539 0.000121117  -0.0442607 -0.483563 0.0001297  -0.0480733 -0.514476 0.000137806  -0.0518603 -0.545197 0.000147343  -0.0556159 -0.575723 0.000155687  -0.0593221 -0.605969 0.000164509  0 0 0  0.00154559 -0.005081 -7.15256e-07  0.00450906 -0.0154003 4.76837e-07  0.00782534 -0.0291612 1.66893e-06  0.0107465 -0.0455095 4.52995e-06  0.0129766 -0.0641319 9.05991e-06  0.0144708 -0.0848182 1.16825e-05  0.0152594 -0.107397 1.71661e-05  0.0153958 -0.131652 2.14577e-05  0.0149312 -0.157389 2.71797e-05  0.0139247 -0.184386 3.40939e-05  0.0124286 -0.212459 4.12464e-05  0.0105015 -0.241408 4.76837e-05  0.00819433 -0.271074 5.55515e-05  0.0055635 -0.301286 6.29425e-05  0.00265563 -0.331917 7.08103e-05  -0.000478625 -0.362823 7.96318e-05  -0.00379753 -0.393907 8.86917e-05  -0.00725651 -0.425055 9.77516e-05  -0.0108225 -0.456197 0.000105619  -0.0144587 -0.487248 0.000113487  -0.018141 -0.518166 0.000123262  -0.0218451 -0.548893 0.000130653  -0.0255513 -0.579413 0.000139236  -0.0292232 -0.609682 0.000148296  0 0 0  0.00318928 -0.00722426 -1.66893e-06  0.00913113 -0.0186366 -2.86102e-06  0.0156853 -0.0325811 -1.66893e-06  0.0216159 -0.0488102 -7.15256e-07  0.0265753 -0.0673413 2.6226e-06  0.030525 -0.0879972 5.00679e-06  0.0335055 -0.110613 8.58307e-06  0.035587 -0.134929 1.21593e-05  0.0368364 -0.160756 1.78814e-05  0.0373303 -0.187838 2.26498e-05  0.0371346 -0.216003 2.95639e-05  0.0363264 -0.245026 3.60012e-05  0.034968 -0.274765 4.29153e-05  0.0331322 -0.305026 5.07832e-05  0.0308789 -0.335701 5.74589e-05  0.0282748 -0.366629 6.60419e-05  0.0253737 -0.397731 7.41482e-05  0.0222359 -0.428876 8.22544e-05  0.0189075 -0.460015 9.08375e-05  0.0154388 -0.491046 9.799e-05  0.0118697 -0.521948 0.000106573  0.00823736 -0.552649 0.000114679  0.00456834 -0.583162 0.000123739  0.000911474 -0.613457 0.000132561  0 0 0  0.00575063 -0.0114813 -3.8147e-06  0.0154722 -0.0239705 -5.24521e-06  0.0250847 -0.0375889 -6.19888e-06  0.0337466 -0.0534637 -6.4373e-06  0.0412477 -0.0717511 -5.00679e-06  0.047529 -0.0922804 -3.33786e-06  0.0526166 -0.114832 4.76837e-07  0.0565768 -0.139133 3.57628e-06  0.0594857 -0.164955 7.15256e-06  0.0614295 -0.192049 1.19209e-05  0.0624895 -0.220215 1.81198e-05  0.0627536 -0.249242 2.38419e-05  0.0623007 -0.278966 2.95639e-05  0.061215 -0.309212 3.71933e-05  0.0595719 -0.339852 4.29153e-05  0.0574512 -0.370744 5.07832e-05  0.0549209 -0.401794 5.81741e-05  0.0520542 -0.432891 6.65188e-05  0.048914 -0.463969 7.43866e-05  0.0455649 -0.494948 8.24928e-05  0.0420616 -0.525792 9.05991e-05  0.0384603 -0.556453 9.89437e-05  0.0348012 -0.586936 0.000107765  0.031126 -0.617263 0.000117064  0 0 0  0.0121899 -0.0197548 -5.00679e-06  0.024566 -0.0309463 -8.82149e-06  0.036395 -0.0439014 -1.04904e-05  0.0475128 -0.0592991 -1.21593e-05  0.0574121 -0.0772905 -1.26362e-05  0.0659266 -0.0976235 -1.0252e-05  0.0730349 -0.120049 -7.62939e-06  0.078797 -0.144252 -6.19888e-06  0.083289 -0.17 -2.86102e-06  0.0866116 -0.197016 1.19209e-06  0.0888549 -0.225112 6.67572e-06  0.0901215 -0.254053 1.16825e-05  0.090503 -0.283693 1.71661e-05  0.0900983 -0.313837 2.31266e-05  0.0889926 -0.344377 3.02792e-05  0.0872836 -0.375154 3.74317e-05  0.0850499 -0.406093 4.3869e-05  0.0823791 -0.43707 5.22137e-05  0.0793478 -0.46804 5.96046e-05  0.0760367 -0.49891 6.7234e-05  0.0725145 -0.529667 7.58171e-05  0.0688624 -0.560254 8.44002e-05  0.0651433 -0.590704 9.25064e-05  0.0614235 -0.621044 0.000100851  0 0 0  -0.0126987 -0.0168778 0.00285125  -0.0251865 -0.02632 0.00452304  -0.0375405 -0.0374552 0.00524592  -0.0496475 -0.0508924 0.00529051  -0.0611202 -0.066794 0.00497079  -0.071839 -0.0849879 0.00450087  -0.0818157 -0.105246 0.00399399  -0.0911009 -0.127335 0.00350118  -0.0997615 -0.151039 0.0030458  -0.107848 -0.176154 0.00263286  -0.115411 -0.202493 0.00225949  -0.122484 -0.229877 0.00192428  -0.129102 -0.258143 0.0016253  -0.135289 -0.287135 0.0013597  -0.141074 -0.316711 0.00112343  -0.146481 -0.346738 0.000916481  -0.151542 -0.377096 0.000738621  -0.156283 -0.407674 0.000588655  -0.160742 -0.438377 0.000466824  -0.164952 -0.469118 0.000374794  -0.16896 -0.499827 0.000307322  -0.172815 -0.530449 0.000263214  -0.176583 -0.560956 0.000236273  -0.180329 -0.591367 0.000212908  0 0 0  -0.00532068 -0.00899179 0.00209999  -0.014841 -0.0200673 0.00339651  -0.0247119 -0.0323683 0.0039463  -0.0341834 -0.0469114 0.00398088  -0.0431657 -0.0638012 0.00373554  -0.0516551 -0.0828893 0.00337696  -0.0596806 -0.103952 0.00299025  -0.0672835 -0.126772 0.00261617  -0.0745009 -0.151137 0.00227284  -0.0813659 -0.176851 0.0019629  -0.0879015 -0.203726 0.00168395  -0.0941281 -0.231591 0.00143552  -0.100058 -0.260279 0.00121379  -0.105704 -0.28964 0.00101733  -0.111077 -0.31953 0.000844002  -0.116189 -0.349823 0.000693083  -0.121053 -0.380395 0.00056386  -0.125685 -0.411146 0.000455379  -0.130105 -0.441977 0.00036931  -0.134336 -0.472809 0.000302792  -0.138403 -0.503569 0.000255108  -0.142336 -0.534211 0.000224113  -0.146168 -0.564701 0.000202656  -0.149948 -0.595064 0.000182152  0 0 0  -0.0027222 -0.00549647 0.00139689  -0.00810845 -0.0157736 0.00228739  -0.0145858 -0.0288292 0.00266314  -0.02112 -0.0442217 0.00268006  -0.0274431 -0.0618843 0.00250697  -0.0335466 -0.0816577 0.0022583  -0.0394663 -0.103349 0.00199318  -0.0452315 -0.126743 0.00174022  -0.0508596 -0.151643 0.00150752  -0.0563613 -0.177845 0.00129962  -0.0617392 -0.205169 0.00111532  -0.066991 -0.233435 0.000950575  -0.0721136 -0.262484 0.00080657  -0.0771013 -0.292159 0.000678778  -0.0819504 -0.322323 0.00056839  -0.0866565 -0.352844 0.000473499  -0.0912187 -0.383609 0.000392675  -0.0956392 -0.41451 0.00032568  -0.0999219 -0.445461 0.000272989  -0.104075 -0.476378 0.000233889  -0.108108 -0.507202 0.000207424  -0.112031 -0.537879 0.000189543  -0.115864 -0.568382 0.000178337  -0.119645 -0.59869 0.000167608  0 0 0  -0.00108593 -0.00417286 0.000699759  -0.00338337 -0.0138243 0.00115633  -0.00643286 -0.0270677 0.00135517  -0.00980541 -0.0429767 0.00136471  -0.0133058 -0.0611676 0.00127196  -0.0169072 -0.0814351 0.00113916  -0.0206185 -0.10358 0.000997543  -0.024449 -0.127408 0.000864029  -0.0283916 -0.152711 0.000743151  -0.0324363 -0.179297 0.000637054  -0.036562 -0.206972 0.000545263  -0.0407504 -0.235564 0.000466108  -0.0449762 -0.2649 0.000398159  -0.0492212 -0.294833 0.0003407  -0.0534627 -0.325217 0.000291586  -0.0576843 -0.355929 0.000250816  -0.061867 -0.386849 0.000218153  -0.0660017 -0.417879 0.000192404  -0.0700765 -0.448926 0.000175714  -0.0740862 -0.479922 0.000164747  -0.0780256 -0.510798 0.000158787  -0.0818942 -0.541515 0.000159264  -0.0856943 -0.572026 0.000160217  -0.0894458 -0.602295 0.000162125  0 0 0  0.000238419 -0.00407645 -4.29153e-06  0.00060156 -0.0136949 9.77516e-06  0.000770599 -0.0270914 3.19481e-05  0.00057286 -0.0432643 4.07696e-05  -4.70877e-05 -0.0617566 3.50475e-05  -0.00109315 -0.0823207 1.93119e-05  -0.00255293 -0.104765 1.66893e-06  -0.00440282 -0.128884 -1.3113e-05  -0.00661242 -0.154477 -2.31266e-05  -0.00914752 -0.181338 -2.7895e-05  -0.0119696 -0.209277 -2.71797e-05  -0.0150388 -0.238107 -2.16961e-05  -0.018317 -0.267663 -1.40667e-05  -0.0217671 -0.297786 -2.6226e-06  -0.0253531 -0.328339 1.12057e-05  -0.0290408 -0.359189 2.55108e-05  -0.0327997 -0.390227 4.17233e-05  -0.0366056 -0.421347 5.88894e-05  -0.0404317 -0.452468 7.65324e-05  -0.0442605 -0.483515 9.29832e-05  -0.0480757 -0.514431 0.000110388  -0.0518665 -0.545167 0.000128746  -0.0556219 -0.575687 0.000145197  -0.0593281 -0.605938 0.000161648  0 0 0  0.00157242 -0.00495654 -0.000690937  0.00457874 -0.0151498 -0.00111032  0.00791651 -0.0287935 -0.00126553  0.0108354 -0.0450742 -0.00126004  0.0130551 -0.0636593 -0.00118589  0.0145378 -0.0843514 -0.00108957  0.0153197 -0.106947 -0.000988722  0.0154477 -0.13124 -0.000887871  0.0149779 -0.157011 -0.000789165  0.0139635 -0.184053 -0.000694036  0.0124624 -0.212162 -0.00060153  0.0105274 -0.241154 -0.000512838  0.00821531 -0.270851 -0.000427485  0.00557733 -0.301101 -0.000346661  0.0026648 -0.331757 -0.00027132  -0.000476122 -0.362695 -0.000200748  -0.00379705 -0.393798 -0.00013566  -0.00726199 -0.424972 -7.65324e-05  -0.0108285 -0.456127 -2.36034e-05  -0.0144687 -0.487197 2.14577e-05  -0.0181527 -0.518121 6.27041e-05  -0.0218596 -0.54886 9.799e-05  -0.0255654 -0.579379 0.000129938  -0.029237 -0.609648 0.000162125  0 0 0  0.00322966 -0.0070706 -0.00133491  0.00923449 -0.018343 -0.00216293  0.0158159 -0.032173 -0.00249457  0.0217338 -0.0483517 -0.00250912  0.026667 -0.066855 -0.00237131  0.0305919 -0.087526 -0.00217605  0.0335559 -0.110159 -0.00196409  0.0356237 -0.134518 -0.00175405  0.0368648 -0.160376 -0.00155115  0.0373499 -0.187506 -0.00135732  0.0371494 -0.215704 -0.0011735  0.0363342 -0.244773 -0.00100183  0.0349716 -0.274539 -0.000840902  0.0331305 -0.304841 -0.00069046  0.0308745 -0.335539 -0.000552654  0.0282655 -0.366501 -0.000426769  0.0253625 -0.397619 -0.000311852  0.0222211 -0.428793 -0.000211  0.018892 -0.459943 -0.000122309  0.0154214 -0.490996 -4.91142e-05  0.011852 -0.521902 1.40667e-05  0.00821638 -0.552617 6.65188e-05  0.00454736 -0.583126 0.000112295  0.000890017 -0.613426 0.00015831  0 0 0  0.00579125 -0.0112751 -0.00193858  0.0155838 -0.0236004 -0.0031426  0.0252336 -0.0371202 -0.00365138  0.0338848 -0.0529659 -0.00370049  0.0413553 -0.0712473 -0.00351596  0.0476063 -0.0918013 -0.00323462  0.0526721 -0.114378 -0.00292158  0.0566151 -0.138723 -0.00260687  0.0595137 -0.16458 -0.00230312  0.0614475 -0.191719 -0.00201392  0.0625017 -0.219921 -0.00174308  0.0627584 -0.24899 -0.00148845  0.0623015 -0.278745 -0.00125217  0.0612108 -0.309028 -0.00103188  0.0595655 -0.339694 -0.000832319  0.0574391 -0.370618 -0.000650644  0.0549078 -0.401687 -0.000488281  0.0520375 -0.43281 -0.000344992  0.0488966 -0.4639 -0.000222683  0.0455434 -0.494899 -0.000118971  0.0420401 -0.525749 -3.48091e-05  0.0384352 -0.556421 3.24249e-05  0.0347762 -0.586901 8.91685e-05  0.0310986 -0.61723 0.000144243  0 0 0  0.0121502 -0.0194405 -0.00254107  0.0246227 -0.030477 -0.00409698  0.0365349 -0.0433549 -0.00476742  0.0476685 -0.0587544 -0.00484657  0.0575473 -0.0767627 -0.00461745  0.066033 -0.0971364 -0.00425744  0.0731193 -0.119596 -0.00385141  0.0788622 -0.143848 -0.00344229  0.0833428 -0.169633 -0.00304365  0.0866536 -0.196697 -0.0026648  0.0888894 -0.224826 -0.00230646  0.090148 -0.253811 -0.00197196  0.0905226 -0.283479 -0.00166178  0.0901113 -0.313663 -0.00137496  0.0890007 -0.344226 -0.00111318  0.0872858 -0.375036 -0.000877142  0.085048 -0.405993 -0.000665903  0.0823727 -0.436996 -0.000481367  0.0793374 -0.467976 -0.000323296  0.076021 -0.498866 -0.000192165  0.0724959 -0.529624 -8.67844e-05  0.0688393 -0.560223 -6.4373e-06  0.0651162 -0.590669 5.62668e-05  0.0613813 -0.621002 0.000114679  0 0 0  -0.012395 -0.0157401 0.00609708  -0.0250909 -0.0245265 0.00949168  -0.0376247 -0.0353806 0.0107307  -0.0497062 -0.0488548 0.0106206  -0.0610592 -0.0649046 0.00987887  -0.0716662 -0.083306 0.00889897  -0.0815598 -0.103757 0.00787282  -0.0908074 -0.126047 0.00688696  -0.0994523 -0.149917 0.0059762  -0.107552 -0.175199 0.00514889  -0.115131 -0.20167 0.00439882  -0.122237 -0.229191 0.00372386  -0.128881 -0.257562 0.00311732  -0.135104 -0.286666 0.00257587  -0.140915 -0.316323 0.00209403  -0.146356 -0.346439 0.0016706  -0.151438 -0.376858 0.00130296  -0.156206 -0.407504 0.000994444  -0.160676 -0.438247 0.000740767  -0.164904 -0.469036 0.00054431  -0.168913 -0.499766 0.000400305  -0.172772 -0.530415 0.000303268  -0.176528 -0.560919 0.000240564  -0.180256 -0.59133 0.000188112  0 0 0  -0.00541273 -0.00819629 0.00446796  -0.0150324 -0.0186026 0.00709558  -0.0248793 -0.0306032 0.00803781  -0.0341994 -0.0450912 0.00795722  -0.0430104 -0.0620625 0.00739837  -0.0513677 -0.0812898 0.00665641  -0.0593122 -0.102518 0.00588107  -0.0668792 -0.125503 0.00513816  -0.0740918 -0.150029 0.00445175  -0.080974 -0.175891 0.00383043  -0.0875382 -0.202905 0.00327063  -0.0938008 -0.230892 0.00276661  -0.0997683 -0.259693 0.002316  -0.105452 -0.289153 0.0019145  -0.110862 -0.319134 0.00155807  -0.116009 -0.349504 0.00124693  -0.120903 -0.380147 0.00097847  -0.125565 -0.410953 0.000752449  -0.130009 -0.441835 0.000568151  -0.13426 -0.472704 0.0004251  -0.13834 -0.503495 0.000319958  -0.142282 -0.534155 0.000248432  -0.146115 -0.564656 0.000196457  -0.149899 -0.59501 0.000148773  0 0 0  -0.00281071 -0.00489829 0.00299191  -0.00829227 -0.0146331 0.00478697  -0.0147249 -0.0273559 0.00541759  -0.0211006 -0.0426027 0.00534248  -0.0272602 -0.0602743 0.00494885  -0.0332446 -0.0801267 0.0044384  -0.0390963 -0.101952 0.00390959  -0.0448326 -0.125485 0.00340509  -0.0504625 -0.150537 0.00294185  -0.0559825 -0.176874 0.00252414  -0.0613903 -0.204338 0.00215054  -0.0666764 -0.232719 0.00181651  -0.0718369 -0.261885 0.00152016  -0.0768608 -0.291653 0.00125694  -0.0817456 -0.321913 0.00102592  -0.0864842 -0.352506 0.000824928  -0.091078 -0.383346 0.000653505  -0.095525 -0.414299 0.000510454  -0.0998337 -0.445306 0.000395775  -0.104007 -0.476257 0.000308275  -0.108055 -0.507118 0.000243902  -0.111987 -0.53781 0.000198603  -0.115824 -0.568329 0.000166416  -0.119603 -0.598623 0.000133514  0 0 0  -0.00111728 -0.00370586 0.00149512  -0.0034457 -0.0128928 0.00241184  -0.00645381 -0.0257954 0.0027442  -0.00971898 -0.0415074 0.00270391  -0.0131114 -0.0596503 0.00249362  -0.0166329 -0.0799561 0.00221968  -0.0203013 -0.102205 0.00193715  -0.0241157 -0.126154 0.0016706  -0.0280653 -0.151597 0.00142837  -0.0321273 -0.178314 0.00121355  -0.0362803 -0.206123 0.00102496  -0.0404973 -0.23483 0.000860214  -0.0447565 -0.264281 0.000716448  -0.0490321 -0.294309 0.000591993  -0.0533041 -0.324788 0.000485659  -0.0575523 -0.355574 0.00039506  -0.061763 -0.386569 0.000320435  -0.0659192 -0.417654 0.000261307  -0.0700154 -0.448758 0.000216484  -0.0740404 -0.47979 0.000185251  -0.0779939 -0.510704 0.000164509  -0.0818691 -0.541438 0.000154018  -0.0856738 -0.571964 0.000147343  -0.089421 -0.602218 0.000140905  0 0 0  0.000274807 -0.00366819 -3.21865e-05  0.000692666 -0.0128542 -4.05312e-06  0.00090757 -0.0259145 3.95775e-05  0.000750601 -0.0418678 5.22137e-05  0.000165343 -0.0602895 3.57628e-05  -0.000855863 -0.0808674 1.19209e-06  -0.00230467 -0.103402 -3.55244e-05  -0.00415552 -0.127628 -6.69956e-05  -0.00637817 -0.153356 -8.98838e-05  -0.00893021 -0.18034 -0.000103712  -0.0117755 -0.208413 -0.000108242  -0.0148687 -0.237354 -0.000104666  -0.0181733 -0.267027 -9.56059e-05  -0.0216461 -0.297243 -8.10623e-05  -0.0252559 -0.327894 -6.27041e-05  -0.0289639 -0.358818 -4.17233e-05  -0.0327439 -0.389934 -1.93119e-05  -0.0365641 -0.421109 6.19888e-06  -0.0404048 -0.452291 3.17097e-05  -0.0442452 -0.483373 5.76973e-05  -0.0480711 -0.51433 8.41618e-05  -0.0518661 -0.545082 0.000110149  -0.0556245 -0.575619 0.000134706  -0.0593278 -0.605851 0.000159502  0 0 0  0.00167596 -0.00453359 -0.00152707  0.00482371 -0.0142919 -0.0023644  0.00821188 -0.0276036 -0.00260687  0.0111066 -0.0436767 -0.00255322  0.0132881 -0.0621939 -0.00239158  0.0147422 -0.082902 -0.00219846  0.0155011 -0.105581 -0.00199914  0.0156111 -0.12998 -0.00180149  0.0151217 -0.15588 -0.00161004  0.0140901 -0.183045 -0.0014236  0.0125688 -0.211283 -0.00124502  0.0106155 -0.240388 -0.00107408  0.0082835 -0.270199 -0.000911951  0.00562918 -0.300545 -0.000757933  0.00269949 -0.331297 -0.000614405  -0.000454307 -0.362313 -0.000481606  -0.00378942 -0.393493 -0.00036025  -0.00726247 -0.424726 -0.000250816  -0.0108395 -0.455939 -0.000153065  -0.0144849 -0.487049 -6.8903e-05  -0.0181754 -0.518012 4.05312e-06  -0.0218847 -0.548772 6.62804e-05  -0.0255935 -0.579304 0.000123978  -0.0292609 -0.609559 0.000180483  0 0 0  0.00339061 -0.00654972 -0.00291705  0.00960618 -0.0173516 -0.00457215  0.0162371 -0.0308758 -0.00511074  0.0220805 -0.0468873 -0.00505495  0.0269216 -0.0653596 -0.00475097  0.0307763 -0.0860621 -0.00435662  0.0336908 -0.10879 -0.00393653  0.0357264 -0.133254 -0.00352097  0.0369418 -0.159244 -0.00311923  0.0374079 -0.186493 -0.00273943  0.0371895 -0.214822 -0.0023787  0.0363599 -0.244 -0.0020411  0.0349826 -0.273883 -0.00172496  0.0331299 -0.304278 -0.00143242  0.0308619 -0.335076 -0.00116324  0.0282443 -0.366113 -0.000918388  0.0253329 -0.397313 -0.00069809  0.022186 -0.428543 -0.000504255  0.018852 -0.459756 -0.000336647  0.0153797 -0.490845 -0.000194311  0.011806 -0.521793 -7.62939e-05  0.00816965 -0.552525 2.12193e-05  0.00449872 -0.583051 0.000105143  0.000844002 -0.613336 0.000188112  0 0 0  0.00596902 -0.0105816 -0.00418496  0.0159995 -0.0223671 -0.00659847  0.0257154 -0.0356378 -0.0074594  0.0342844 -0.0513963 -0.00744557  0.0416439 -0.0697002 -0.00703502  0.0478054 -0.0903208 -0.0064621  0.0528063 -0.113007 -0.00583744  0.0567076 -0.137467 -0.00521398  0.0595746 -0.163456 -0.00461173  0.0614877 -0.190717 -0.00404  0.062523 -0.219047 -0.00350213  0.0627662 -0.248228 -0.00299907  0.062295 -0.278097 -0.00253224  0.0611939 -0.308476 -0.00210047  0.0595379 -0.339238 -0.00170565  0.0574055 -0.37024 -0.00134945  0.0548656 -0.401388 -0.0010314  0.0519912 -0.432569 -0.000753403  0.0488443 -0.463719 -0.000514269  0.0454907 -0.494756 -0.000315428  0.0419824 -0.525644 -0.000154734  0.0383766 -0.556332 -2.81334e-05  0.0347128 -0.586825 7.60555e-05  0.0310373 -0.617145 0.000175238  0 0 0  0.012088 -0.0184209 -0.00549483  0.0248919 -0.0289324 -0.00862098  0.0370069 -0.041652 -0.00976634  0.0481256 -0.0570634 -0.00977516  0.0579163 -0.0751655 -0.00925231  0.0663168 -0.0956461 -0.00851011  0.0733358 -0.11824 -0.00769353  0.0790318 -0.142618 -0.00687361  0.0834762 -0.168541 -0.0060792  0.0867605 -0.195728 -0.0053246  0.0889734 -0.223987 -0.0046134  0.0902125 -0.253082 -0.00394917  0.0905689 -0.282865 -0.00333285  0.0901417 -0.31314 -0.00276637  0.0890173 -0.3438 -0.00224757  0.0872893 -0.374686 -0.00177979  0.0850387 -0.405721 -0.00136471  0.0823531 -0.43678 -0.00100255  0.0793073 -0.467819 -0.000692129  0.0759823 -0.498742 -0.00043726  0.0724466 -0.529537 -0.000235796  0.0687802 -0.560145 -8.39233e-05  0.0650473 -0.590601 3.26633e-05  0.0613196 -0.62093 0.000138283  0 0 0  -0.0121505 -0.013271 0.0103776  -0.025391 -0.0209661 0.0153139  -0.0378464 -0.0316501 0.0164654  -0.0495886 -0.0453523 0.0159261  -0.0606506 -0.0617636 0.0146661  -0.0710613 -0.0805283 0.0131626  -0.0808588 -0.101345 0.0116329  -0.0900726 -0.123949 0.01018  -0.0987368 -0.14812 0.00883555  -0.106875 -0.173653 0.00761127  -0.114517 -0.200366 0.00649762  -0.121683 -0.228085 0.00549221  -0.128399 -0.256652 0.00458336  -0.134683 -0.285913 0.00376964  -0.140563 -0.315728 0.00304294  -0.146058 -0.345965 0.00240541  -0.151199 -0.376505 0.00184917  -0.156011 -0.407238 0.00138021  -0.160528 -0.43807 0.000992775  -0.164782 -0.468912 0.000690222  -0.168818 -0.499695 0.000467539  -0.17268 -0.530362 0.000320911  -0.176441 -0.560884 0.000228643  -0.180172 -0.591283 0.000154257  0 0 0  -0.0058084 -0.00653039 0.00764251  -0.0157318 -0.0158086 0.0113933  -0.0251687 -0.0274354 0.0122406  -0.034001 -0.0419578 0.0118546  -0.0424651 -0.0591389 0.0109336  -0.0506173 -0.0786493 0.00982022  -0.0584673 -0.100174 0.0086832  -0.0660138 -0.123452 0.00759673  -0.0732541 -0.148248 0.00659084  -0.0801899 -0.17436 0.00567317  -0.0868231 -0.201598 0.0048418  -0.093159 -0.229792 0.00409102  -0.0992031 -0.258775 0.00341463  -0.104961 -0.288402 0.00280976  -0.110442 -0.318527 0.00227308  -0.115656 -0.349027 0.00180078  -0.120613 -0.379779 0.00139308  -0.12533 -0.410683 0.00104856  -0.129825 -0.44164 0.000765324  -0.134118 -0.472573 0.000543356  -0.13823 -0.503409 0.000379801  -0.142192 -0.534102 0.00026536  -0.146034 -0.564614 0.000185013  -0.149813 -0.594968 0.000109673  0 0 0  -0.00309889 -0.00363879 0.00514579  -0.00882986 -0.0124377 0.00767398  -0.0149416 -0.0246502 0.00821185  -0.0208988 -0.0397673 0.00791645  -0.026754 -0.0575179 0.00728059  -0.0325608 -0.0775744 0.00652623  -0.0383301 -0.0996393 0.00575829  -0.0440512 -0.123437 0.00502682  -0.0497071 -0.148737 0.00435042  -0.0552776 -0.175321 0.00373554  -0.0607475 -0.202999 0.0031805  -0.0661026 -0.231589 0.00268245  -0.0713309 -0.260933 0.00223565  -0.0764228 -0.290872 0.00183892  -0.0813721 -0.321273 0.00148773  -0.0861731 -0.352003 0.00118279  -0.0908222 -0.38295 0.000920534  -0.0953219 -0.414006 0.000700712  -0.0996749 -0.445087 0.000522137  -0.103887 -0.476109 0.000383139  -0.107964 -0.507014 0.000281334  -0.111917 -0.537748 0.000206232  -0.115763 -0.568278 0.000149727  -0.11954 -0.598572 9.13143e-05  0 0 0  -0.00122894 -0.00266099 0.00253415  -0.00364406 -0.0110126 0.00382495  -0.00646061 -0.0233749 0.0041182  -0.00947201 -0.0388652 0.00396633  -0.01267 -0.0570057 0.00363159  -0.0160763 -0.077454 0.00323391  -0.0196925 -0.0999044 0.00283027  -0.0235026 -0.124092 0.00244737  -0.0274756 -0.149771 0.00209737  -0.0315813 -0.176724 0.0017817  -0.0357848 -0.204746 0.00150275  -0.0400591 -0.233659 0.00125551  -0.0443738 -0.263289 0.0010376  -0.0487055 -0.293489 0.000847816  -0.0530293 -0.324111 0.000684261  -0.057328 -0.355036 0.000544786  -0.0615828 -0.386141 0.0004282  -0.0657804 -0.417332 0.000334263  -0.0699096 -0.448514 0.000261545  -0.0739667 -0.47962 0.000208378  -0.0779412 -0.510584 0.000172138  -0.0818353 -0.541362 0.000147581  -0.0856462 -0.571904 0.00013113  -0.0893893 -0.602149 0.00011158  0 0 0  0.000348657 -0.00272116 -0.000118494  0.000864208 -0.0111111 -7.05719e-05  0.00115857 -0.0236197 -5.48363e-06  0.00107741 -0.0393202 1.0252e-05  0.00055337 -0.0576981 -1.33514e-05  -0.000431716 -0.078389 -5.55515e-05  -0.00187004 -0.101099 -0.000100851  -0.00373203 -0.12555 -0.00014019  -0.00597858 -0.1515 -0.000169039  -0.00856721 -0.178717 -0.000186443  -0.0114524 -0.206997 -0.00019145  -0.0145893 -0.236146 -0.000187159  -0.0179358 -0.265997 -0.000176191  -0.0214514 -0.296388 -0.000157595  -0.0250989 -0.327183 -0.000133991  -0.0288436 -0.358249 -0.000107527  -0.0326536 -0.389476 -7.79629e-05  -0.0365026 -0.420762 -4.55379e-05  -0.0403678 -0.452024 -1.07288e-05  -0.0442271 -0.483186 2.3365e-05  -0.0480671 -0.514193 5.84126e-05  -0.0518746 -0.544994 9.20296e-05  -0.0556371 -0.575546 0.000124454  -0.0593381 -0.605769 0.000157833  0 0 0  0.00193363 -0.00359315 -0.00272441  0.00535604 -0.0125484 -0.00387144  0.0087159 -0.0253127 -0.0040369  0.0115187 -0.0411364 -0.00387836  0.0136341 -0.0596119 -0.0036149  0.0150443 -0.0804237 -0.00332093  0.0157716 -0.103272 -0.00302148  0.0158528 -0.127886 -0.0027256  0.0153364 -0.154004 -0.00243807  0.0142738 -0.181395 -0.00216079  0.0127223 -0.20984 -0.00189328  0.0107371 -0.23915 -0.00163889  0.00837612 -0.269142 -0.00139761  0.00569189 -0.299662 -0.00117087  0.00273752 -0.330563 -0.000959396  -0.000440001 -0.361721 -0.000764132  -0.00379276 -0.393018 -0.00058651  -0.00728226 -0.424361 -0.000426292  -0.0108695 -0.45566 -0.000284433  -0.0145249 -0.48685 -0.000161886  -0.0182207 -0.517867 -5.57899e-05  -0.0219359 -0.548674 3.52859e-05  -0.0256469 -0.579223 0.000120163  -0.0293138 -0.609468 0.000205994  0 0 0  0.00382037 -0.00548232 -0.00516868  0.0104558 -0.0154412 -0.00742412  0.0169456 -0.0284539 -0.00785804  0.0225574 -0.0442764 -0.00762725  0.0272316 -0.0627416 -0.00713038  0.0309789 -0.0835694 -0.00653386  0.0338273 -0.10647 -0.00591016  0.0358186 -0.131152 -0.0052917  0.0370023 -0.157355 -0.00469398  0.0374411 -0.18483 -0.00412726  0.0372002 -0.213363 -0.00359011  0.0363474 -0.242747 -0.00308514  0.0349518 -0.272809 -0.00261426  0.0330797 -0.303381 -0.00217772  0.0307976 -0.334326 -0.00177717  0.028168 -0.365511 -0.00141406  0.0252495 -0.396827 -0.00108743  0.0220966 -0.428173 -0.000800133  0.0187619 -0.45947 -0.000551701  0.0152893 -0.490643 -0.000340223  0.0117178 -0.521642 -0.000165939  0.0080812 -0.552424 -2.31266e-05  0.00441003 -0.582962 0.000103712  0.00075531 -0.613248 0.000228167  0 0 0  0.00651197 -0.00916231 -0.0073216  0.0170242 -0.020053 -0.0106475  0.0265265 -0.0329575 -0.0114555  0.0348044 -0.0486483 -0.0112345  0.0419485 -0.0670223 -0.0105529  0.0479672 -0.0878056 -0.00968099  0.0528811 -0.110686 -0.00874972  0.0567266 -0.135369 -0.00782132  0.0595585 -0.161576 -0.00692272  0.0614438 -0.189061 -0.00606918  0.0624591 -0.217595 -0.00526571  0.0626839 -0.24698 -0.0045135  0.0621992 -0.277028 -0.00381446  0.0610845 -0.307583 -0.00317025  0.05942 -0.338495 -0.00258088  0.0572801 -0.369643 -0.00204897  0.0547392 -0.40091 -0.00157428  0.0518637 -0.432205 -0.00115895  0.0487211 -0.463443 -0.000802994  0.0453703 -0.494561 -0.000507832  0.0418684 -0.525501 -0.000267982  0.0382636 -0.556233 -8.2016e-05  0.0346017 -0.586737 6.96182e-05  0.030925 -0.617057 0.000211716  0 0 0  0.0122879 -0.0162749 -0.00950885  0.0257458 -0.0260494 -0.013905  0.0378407 -0.0386467 -0.0150559  0.048739 -0.0541624 -0.0147991  0.0583324 -0.0724298 -0.0139103  0.0665896 -0.0931294 -0.0127628  0.0735138 -0.115945 -0.0115304  0.0791472 -0.140561 -0.0102997  0.0835483 -0.166706 -0.00910926  0.0867995 -0.19412 -0.00797725  0.0889853 -0.222582 -0.00691175  0.0902016 -0.251881 -0.0059154  0.0905374 -0.281839 -0.00499201  0.0900911 -0.31229 -0.00414348  0.0889519 -0.343097 -0.00336766  0.0872114 -0.374128 -0.00266695  0.0849514 -0.405279 -0.00204563  0.0822589 -0.436451 -0.00150299  0.0792081 -0.467574 -0.00104165  0.0758791 -0.498576 -0.000660181  0.0723398 -0.529416 -0.000359297  0.0686653 -0.56006 -0.000137091  0.0649266 -0.590515 2.55108e-05  0.0611842 -0.620829 0.000169992  0 0 0  -0.015452 -0.00850269 0.0167537  -0.0268999 -0.0151827 0.0211947  -0.0376632 -0.0262167 0.0219293  -0.0484836 -0.0404762 0.0209339  -0.0590881 -0.0575093 0.0191791  -0.0693283 -0.0768474 0.0172367  -0.0791156 -0.0981827 0.0152378  -0.0884053 -0.121233 0.0133832  -0.0971886 -0.145806 0.0116117  -0.105464 -0.171684 0.0100346  -0.113248 -0.198714 0.00854731  -0.120554 -0.226708 0.00724292  -0.127405 -0.25553 0.00601482  -0.133819 -0.285009 0.00495601  -0.139821 -0.315027 0.0039649  -0.145434 -0.345432 0.00313592  -0.150683 -0.376127 0.00236845  -0.155597 -0.406981 0.00176287  -0.160206 -0.43792 0.00121427  -0.164543 -0.468835 0.00082612  -0.168645 -0.499674 0.000498295  -0.172556 -0.53036 0.000322104  -0.176335 -0.56088 0.000186443  -0.180059 -0.591254 0.00013423  0 0 0  -0.00890389 -0.00337636 0.0125294  -0.0172549 -0.0113162 0.0154784  -0.0250372 -0.022698 0.0160687  -0.0329622 -0.0374544 0.0154269  -0.0409724 -0.0550515 0.0142405  -0.0489476 -0.0750214 0.0128269  -0.056778 -0.0970004 0.0113919  -0.064392 -0.120696 0.00999546  -0.0717438 -0.145875 0.00870275  -0.0788106 -0.17233 0.00749874  -0.0855795 -0.19988 0.00641179  -0.092051 -0.22835 0.00541306  -0.0982249 -0.257586 0.00452256  -0.104109 -0.287435 0.00371075  -0.10971 -0.317762 0.00299954  -0.115037 -0.348434 0.00236034  -0.1201 -0.37934 0.00182009  -0.124918 -0.410368 0.00134993  -0.129502 -0.441431 0.000974178  -0.133873 -0.472441 0.000663996  -0.138052 -0.503337 0.000444651  -0.142062 -0.53406 0.000278711  -0.145928 -0.564588 0.000172853  -0.149709 -0.594938 6.24657e-05  0 0 0  -0.00505477 -0.000859693 0.00832367  -0.00978819 -0.00848047 0.0102973  -0.0147709 -0.020293 0.0106304  -0.0200589 -0.0354697 0.0101876  -0.0255641 -0.053516 0.00940561  -0.0312222 -0.0739467 0.00848174  -0.0369685 -0.0964219 0.00752831  -0.0427362 -0.120607 0.00660491  -0.0484786 -0.146283 0.00573802  -0.054153 -0.173199 0.00493908  -0.0597348 -0.201193 0.00421262  -0.0652019 -0.230057 0.00355315  -0.07054 -0.259662 0.00295973  -0.0757369 -0.289822 0.0024302  -0.0807871 -0.320433 0.00196171  -0.0856805 -0.351334 0.00155067  -0.0904193 -0.382444 0.00119734  -0.0949984 -0.413626 0.000899792  -0.0994258 -0.444823 0.00065732  -0.103699 -0.475926 0.000466585  -0.10783 -0.506904 0.000323296  -0.111819 -0.537678 0.000217438  -0.11568 -0.568246 0.000128984  -0.119439 -0.598543 2.74181e-05  0 0 0  -0.0020995 -2.65539e-05 0.00396681  -0.00397289 -0.00723875 0.00502014  -0.00617087 -0.019176 0.00521994  -0.00879136 -0.0346666 0.00500751  -0.0117741 -0.0530395 0.00461602  -0.0150859 -0.0738156 0.00414872  -0.0186889 -0.0966422 0.00366259  -0.0225332 -0.121199 0.00319004  -0.0265704 -0.14724 0.00274873  -0.0307544 -0.174523 0.00234365  -0.0350457 -0.202858 0.00197983  -0.0394061 -0.232049 0.00165415  -0.043807 -0.261941 0.00136518  -0.0482199 -0.292369 0.00111103  -0.0526233 -0.323204 0.000891209  -0.0569927 -0.354307 0.000702143  -0.0613146 -0.385578 0.000542641  -0.065572 -0.416901 0.000412703  -0.069756 -0.448205 0.000310898  -0.0738564 -0.479402 0.000235558  -0.0778692 -0.510445 0.000182152  -0.0817862 -0.541278 0.000144482  -0.0856113 -0.571869 0.00011301  -0.0893426 -0.60212 6.98566e-05  0 0 0  0.000496238 -0.000190914 -0.0003438  0.00113663 -0.00744608 -0.000264645  0.00158027 -0.0195114 -0.00018096  0.00162601 -0.0351748 -0.000142813  0.00118065 -0.0537512 -0.000146151  0.000228465 -0.0747356 -0.000173092  -0.00121373 -0.0977994 -0.000206709  -0.00310463 -0.122601 -0.000238895  -0.00540042 -0.148907 -0.000263214  -0.00804532 -0.176447 -0.000277519  -0.010994 -0.205042 -0.000279188  -0.0141935 -0.234467 -0.000271797  -0.0176028 -0.264586 -0.000255346  -0.0211769 -0.295206 -0.000231981  -0.0248806 -0.32622 -0.000202894  -0.0286741 -0.357468 -0.000170946  -0.0325313 -0.388868 -0.000133276  -0.036418 -0.420291 -9.41753e-05  -0.0403171 -0.451682 -5.126e-05  -0.0442023 -0.482937 -1.0252e-05  -0.0480635 -0.514034 3.31402e-05  -0.0518863 -0.544893 7.36713e-05  -0.0556638 -0.575502 0.000116587  -0.0593643 -0.605725 0.000155449  0 0 0  0.00302562 -0.00117081 -0.00457764  0.00618911 -0.00898767 -0.00542355  0.00926942 -0.0212801 -0.00546718  0.0119551 -0.0370366 -0.00521183  0.0140182 -0.0556792 -0.00485778  0.0153995 -0.0767632 -0.00446653  0.0160996 -0.0999453 -0.00406599  0.0161524 -0.124899 -0.00366855  0.0155991 -0.151363 -0.00328135  0.0144982 -0.179075 -0.00290775  0.0129037 -0.207832 -0.00254989  0.0108776 -0.237421 -0.00220919  0.00847507 -0.267679 -0.00188756  0.00575423 -0.298434 -0.00158644  0.00276506 -0.329556 -0.00130677  -0.000439882 -0.360904 -0.00104976  -0.00381875 -0.392377 -0.000814199  -0.00732493 -0.423864 -0.000603199  -0.0109267 -0.455295 -0.000417948  -0.0145891 -0.486585 -0.000257969  -0.0182915 -0.517691 -0.000118256  -0.022011 -0.548559 3.09944e-06  -0.0257335 -0.579159 0.000118971  -0.0294108 -0.609405 0.000242233  0 0 0  0.00576784 -0.00314415 -0.00866222  0.011801 -0.011932 -0.0103047  0.0176269 -0.0244533 -0.010535  0.0229024 -0.0401937 -0.0101483  0.0274026 -0.0588165 -0.00948858  0.031061 -0.079901 -0.00870967  0.0338584 -0.103127 -0.00789213  0.0358161 -0.128139 -0.00707531  0.0369729 -0.154684 -0.00628376  0.0373882 -0.182474 -0.00552845  0.0371218 -0.211319 -0.00481153  0.0362467 -0.240981 -0.00413942  0.0348277 -0.271313 -0.00351167  0.0329393 -0.302121 -0.0029304  0.030642 -0.333294 -0.00239849  0.0280035 -0.36467 -0.00191641  0.025079 -0.396169 -0.00148273  0.0219295 -0.427661 -0.00110173  0.0186 -0.459096 -0.000772953  0.0151386 -0.49037 -0.000493288  0.0115788 -0.521462 -0.000259876  0.00795317 -0.552296 -6.96182e-05  0.00427914 -0.582879 0.000104427  0.000610828 -0.613159 0.000284672  0 0 0  0.00921944 -0.00666738 -0.0123048  0.018776 -0.0163372 -0.0148137  0.0273059 -0.0288411 -0.0154135  0.0350759 -0.0445147 -0.0149796  0.041948 -0.063076 -0.0140483  0.0478283 -0.0841333 -0.0128975  0.0526689 -0.107341 -0.0116701  0.0564778 -0.132354 -0.0104415  0.0592878 -0.158898 -0.00924993  0.0611601 -0.186697 -0.00811362  0.0621631 -0.21554 -0.00704217  0.0623802 -0.245204 -0.00603914  0.0618879 -0.275522 -0.00510716  0.0607723 -0.306315 -0.00424862  0.0591067 -0.337455 -0.00346422  0.0569744 -0.368799 -0.00275612  0.0544443 -0.400252 -0.00212383  0.0515876 -0.4317 -0.0015707  0.0484686 -0.463077 -0.00109816  0.0451462 -0.494301 -0.000703335  0.0416732 -0.52533 -0.000383139  0.0380964 -0.556112 -0.000133991  0.0344477 -0.586647 6.74725e-05  0.0307703 -0.61696 0.000256538  0 0 0  0.0151349 -0.0125853 -0.0155606  0.0275746 -0.0216646 -0.0194986  0.0386799 -0.0342295 -0.0204189  0.049036 -0.0499018 -0.0198226  0.0583259 -0.0684534 -0.018563  0.0664245 -0.0894739 -0.0170109  0.0732652 -0.112638 -0.0153701  0.0788558 -0.137592 -0.0137277  0.083234 -0.164074 -0.0121443  0.0864725 -0.191803 -0.0106311  0.0886474 -0.22057 -0.00921154  0.0898567 -0.250146 -0.00787807  0.0901881 -0.280373 -0.00664759  0.0897422 -0.311061 -0.00551128  0.0886043 -0.342095 -0.00447941  0.0868728 -0.373324 -0.00354266  0.0846267 -0.404661 -0.00271559  0.0819554 -0.435987 -0.00198984  0.0789316 -0.46725 -0.00137496  0.0756323 -0.498359 -0.000861645  0.0721245 -0.529285 -0.000460148  0.0684819 -0.559972 -0.000162125  0.0647635 -0.590437 3.52859e-05  0.0610449 -0.620739 0.000194311  -0.00745673 -0.0062768 -0.010849  -0.0127791 -0.0117762 -0.0134575  -0.00524405 -0.00866894 -0.00589657  0 0 0  0 0 0  -0.0118914 -0.00572774 -0.0148001  -0.00832346 -0.00950124 -0.00895643  0 0 0  -0.00402442 -0.000980102 -0.00845456  -0.00681612 -0.0051877 -0.0100267  -0.00204604 -0.00290249 -0.00435662  0 0 0  -0.00517443 -0.00716114 -0.00773191  -0.00522449 -0.00279362 -0.00935245  -0.00925916 -0.00797661 -0.0117123  -0.00289006 -0.00490488 -0.00497842  0 0 0  -0.00236912 -0.00214514 -0.00584006  -0.00313191 -0.00392302 -0.00658727  -0.0214629 -0.0113204 -0.0196309  -0.0259496 -0.0184997 -0.0183702  -0.0188741 -0.0167287 -0.0134461  -0.0218241 -0.0131917 -0.0181124  -0.020172 -0.0182452 -0.0132804  -0.0132433 -0.00692221 -0.0143573  -0.0163806 -0.0138011 -0.0135887  -0.0107152 -0.0109304 -0.0099678  -0.0196929 -0.0146062 -0.0166099  -0.0171959 -0.00901191 -0.0168774  -0.0208602 -0.01599 -0.015882  -0.0143302 -0.0136162 -0.0116568  -0.0116999 -0.00915816 -0.0122764  -0.0153795 -0.0116361 -0.0143619  -0.032222 -0.0202627 -0.0218732  -0.0378765 -0.0292178 -0.0192463  -0.0317022 -0.0259313 -0.0161541  -0.0309621 -0.0243437 -0.0188503  -0.0311449 -0.0293903 -0.0142689  -0.0211098 -0.0165662 -0.0159729  -0.0251756 -0.0252819 -0.0142148  -0.0205397 -0.0212589 -0.0119951  -0.0319717 -0.0234573 -0.0191264  -0.0263483 -0.0183022 -0.0187769  -0.0311667 -0.0270738 -0.0166574  -0.0257673 -0.0234296 -0.0140257  -0.020845 -0.0191281 -0.0141163  -0.0260735 -0.0211173 -0.0165319  -0.0430677 -0.0329737 -0.0215147  -0.0492527 -0.0431099 -0.0184195  -0.043799 -0.038159 -0.0162766  -0.0402684 -0.0388776 -0.0180533  -0.0414221 -0.0435375 -0.0138049  -0.028954 -0.0297116 -0.015806  -0.0336117 -0.0399003 -0.0136428  -0.0296248 -0.0343563 -0.0121  -0.043636 -0.0357917 -0.0189676  -0.0356089 -0.0312134 -0.018573  -0.0410371 -0.0413666 -0.0159907  -0.0363523 -0.0360972 -0.0141537  -0.0294188 -0.0322186 -0.0140309  -0.0361474 -0.0338484 -0.016443  -0.0537959 -0.0486952 -0.0200386  -0.060095 -0.0597843 -0.0168879  -0.0551891 -0.0532685 -0.0152783  -0.0495541 -0.0562229 -0.0166152  -0.0511814 -0.0603684 -0.0127115  -0.0369362 -0.0459623 -0.0148144  -0.0418532 -0.0572672 -0.0125535  -0.0382543 -0.050258 -0.0113747  -0.0547376 -0.0511316 -0.0177062  -0.0449212 -0.047218 -0.0173833  -0.0505691 -0.0584136 -0.0146999  -0.0463602 -0.0516291 -0.0133059  -0.0377551 -0.0482628 -0.0131414  -0.0458431 -0.0495725 -0.0153928  -0.064231 -0.0669395 -0.0181313  -0.0704009 -0.0788117 -0.0151198  -0.065922 -0.0709038 -0.0138388  -0.0586715 -0.0759141 -0.0149293  -0.060475 -0.0795436 -0.0113912  -0.0449375 -0.0648079 -0.0134678  -0.0499032 -0.0769923 -0.011256  -0.0465607 -0.0686511 -0.0103133  -0.0653178 -0.0690268 -0.0160155  -0.0541417 -0.0657867 -0.0157847  -0.0597607 -0.0778234 -0.0131805  -0.0558837 -0.0696731 -0.0120645  -0.0459026 -0.0668551 -0.0119181  -0.0552101 -0.0678467 -0.0139523  -0.0742484 -0.0873225 -0.0161252  -0.0801663 -0.0998738 -0.0133419  -0.0760157 -0.090738 -0.0122859  -0.0675034 -0.0975993 -0.0132167  -0.069317 -0.100742 -0.0100455  -0.0528524 -0.0858316 -0.012012  -0.0577251 -0.098731 -0.00994658  -0.0545555 -0.0892125 -0.00915694  -0.0753493 -0.0891088 -0.0142248  -0.0631254 -0.0865137 -0.0140686  -0.0685764 -0.0992419 -0.0116425  -0.0649495 -0.0898957 -0.010716  -0.0538449 -0.087625 -0.0105999  -0.0642163 -0.0882984 -0.0124073  -0.0837884 -0.109555 -0.0141699  -0.0893918 -0.122696 -0.0116479  -0.0855194 -0.112484 -0.0107679  -0.0759861 -0.121003 -0.0115654  -0.0777211 -0.123711 -0.00875711  -0.0605769 -0.10871 -0.010572  -0.0652878 -0.12221 -0.00867844  -0.0622563 -0.11165 -0.00802088  -0.0848484 -0.11108 -0.0124805  -0.0717902 -0.109089 -0.0123794  -0.0769996 -0.122416 -0.0101664  -0.0735714 -0.112009 -0.00939083  -0.0615388 -0.110266 -0.00930452  -0.0728385 -0.110625 -0.0108924  -0.092822 -0.133401 -0.0123363  -0.0980912 -0.147062 -0.0100813  -0.0944489 -0.135906 -0.0093472  -0.0840819 -0.145898 -0.0100288  -0.0856948 -0.148214 -0.00756669  -0.0680652 -0.133183 -0.00920725  -0.0725678 -0.14719 -0.00751138  -0.0696442 -0.135722 -0.00695515  -0.0938047 -0.134702 -0.0108485  -0.0800803 -0.133264 -0.0107827  -0.0850158 -0.147099 -0.00880027  -0.0817583 -0.135772 -0.00814986  -0.068964 -0.134522 -0.00808525  -0.0810578 -0.134581 -0.00946879  -0.101349 -0.158656 -0.0106421  -0.106278 -0.172765 -0.0086441  -0.102849 -0.160785 -0.00804305  -0.0917827 -0.172086 -0.00860906  -0.0932555 -0.174057 -0.00647569  -0.0752712 -0.159031 -0.00794005  -0.079555 -0.173469 -0.00642776  -0.0767344 -0.161204 -0.00597477  -0.10225 -0.159759 -0.00934601  -0.0879803 -0.15883 -0.00930429  -0.0926315 -0.173108 -0.00754213  -0.0895238 -0.160969 -0.00700808  -0.0760965 -0.160176 -0.00695872  -0.088874 -0.159951 -0.00815606  -0.109373 -0.18514 -0.00909066  -0.113974 -0.199635 -0.00733447  -0.11073 -0.186938 -0.00685358  -0.099086 -0.199391 -0.00731373  -0.100414 -0.201045 -0.00548458  -0.0821911 -0.186062 -0.00677705  -0.0862449 -0.200858 -0.00545192  -0.0835128 -0.187909 -0.00508165  -0.110185 -0.186068 -0.00797391  -0.0954803 -0.185598 -0.00794744  -0.0998486 -0.200242 -0.00639868  -0.0968812 -0.187408 -0.00596857  -0.0829371 -0.187033 -0.00592947  -0.0962882 -0.186545 -0.00695634  -0.116916 -0.21268 -0.00767279  -0.121195 -0.227491 -0.00614309  -0.118135 -0.214178 -0.00577307  -0.106003 -0.22764 -0.00613022  -0.107187 -0.229017 -0.00458431  -0.0888079 -0.214101 -0.00571537  -0.0926394 -0.229188 -0.0045526  -0.0900003 -0.215649 -0.00427079  -0.117645 -0.21345 -0.0067234  -0.102591 -0.213395 -0.00670886  -0.106683 -0.228348 -0.0053556  -0.103846 -0.214908 -0.00502276  -0.0894773 -0.214913 -0.00499249  -0.103314 -0.214185 -0.00586343  -0.123991 -0.241112 -0.00638747  -0.127966 -0.256183 -0.00506687  -0.125068 -0.242347 -0.00479555  -0.112541 -0.256678 -0.00506234  -0.113586 -0.257802 -0.00377345  -0.0951338 -0.242978 -0.00475144  -0.0987401 -0.258294 -0.00375271  -0.0961847 -0.244263 -0.00353813  -0.124634 -0.241745 -0.00559139  -0.109315 -0.242059 -0.00558376  -0.11314 -0.257249 -0.00441623  -0.11043 -0.243307 -0.00416923  -0.0957259 -0.24365 -0.00414371  -0.109957 -0.242708 -0.00487351  -0.130622 -0.270287 -0.00522232  -0.134304 -0.285552 -0.00409508  -0.131569 -0.271282 -0.00391293  -0.118716 -0.286355 -0.00409412  -0.119629 -0.287257 -0.00304103  -0.101159 -0.272545 -0.00388002  -0.104554 -0.28803 -0.00301981  -0.102089 -0.273589 -0.00287771  -0.13119 -0.270792 -0.00456691  -0.115671 -0.271434 -0.00456667  -0.11924 -0.286811 -0.00356507  -0.116649 -0.272444 -0.00339746  -0.101681 -0.273089 -0.00337744  -0.116235 -0.271957 -0.00397873  -0.136827 -0.300056 -0.00417709  -0.140234 -0.315466 -0.00322914  -0.137643 -0.300842 -0.00312233  -0.124541 -0.316532 -0.00323462  -0.125327 -0.317233 -0.00239134  -0.106904 -0.302654 -0.00309896  -0.110088 -0.318252 -0.00237989  -0.107703 -0.303487 -0.00228643  -0.137317 -0.300453 -0.00364876  -0.121668 -0.301377 -0.00365281  -0.124992 -0.316879 -0.00281096  -0.122517 -0.302177 -0.00270724  -0.107356 -0.303085 -0.00269103  -0.122157 -0.30179 -0.00317645  -0.142633 -0.330288 -0.00324631  -0.145777 -0.345787 -0.00246215  -0.143331 -0.330885 -0.00241995  -0.130035 -0.347079 -0.00247049  -0.130701 -0.347609 -0.0018158  -0.112364 -0.333173 -0.00240493  -0.115352 -0.348837 -0.00180292  -0.113053 -0.333816 -0.00176311  -0.143055 -0.330584 -0.00283194  -0.127326 -0.331754 -0.00284171  -0.130418 -0.347339 -0.00214076  -0.128051 -0.332368 -0.00209379  -0.112751 -0.333504 -0.00208259  -0.127745 -0.332068 -0.00246406  -0.148058 -0.360855 -0.00243068  -0.150962 -0.376403 -0.00179505  -0.148643 -0.361292 -0.00180411  -0.135213 -0.37788 -0.00180888  -0.135767 -0.378258 -0.00131607  -0.117561 -0.363978 -0.00179744  -0.120356 -0.379663 -0.00131226  -0.118133 -0.36446 -0.00130439  -0.148411 -0.361068 -0.00211644  -0.132658 -0.362443 -0.00212908  -0.135531 -0.378056 -0.00156069  -0.133268 -0.362895 -0.00155759  -0.117886 -0.364223 -0.00154948  -0.133011 -0.362671 -0.00183964  -0.153137 -0.391646 -0.00172257  -0.155816 -0.407197 -0.00122213  -0.15362 -0.391942 -0.00127077  -0.140101 -0.408827 -0.00123835  -0.140553 -0.409082 -0.000887156  -0.122496 -0.39496 -0.00127101  -0.125117 -0.410629 -0.000881433  -0.122973 -0.395302 -0.000907898  -0.153431 -0.391784 -0.00149536  -0.13769 -0.39333 -0.00151229  -0.14036 -0.408942 -0.00106049  -0.138191 -0.393644 -0.00109196  -0.122764 -0.395132 -0.00108838  -0.13798 -0.393485 -0.00129867  -0.157894 -0.422556 -0.00112605  -0.16037 -0.438082 -0.000747204  -0.158277 -0.42274 -0.000822306  -0.144719 -0.439828 -0.000767469  -0.145075 -0.439977 -0.000533104  -0.127197 -0.42602 -0.000828028  -0.129651 -0.441638 -0.000534773  -0.127573 -0.426247 -0.000575066  -0.158127 -0.422637 -0.000972986  -0.142438 -0.424315 -0.000992298  -0.144922 -0.439884 -0.000648737  -0.142841 -0.424515 -0.000701904  -0.127411 -0.42613 -0.000700474  -0.142672 -0.424411 -0.000843763  -0.162365 -0.453497 -0.000635147  -0.164655 -0.468963 -0.000368118  -0.162661 -0.453587 -0.000455379  -0.149097 -0.470794 -0.000387669  -0.149367 -0.470867 -0.000249147  -0.131671 -0.457071 -0.000465155  -0.133978 -0.472612 -0.000247478  -0.131968 -0.457202 -0.000302553  -0.162546 -0.453529 -0.000544071  -0.146935 -0.455308 -0.000566721  -0.14925 -0.470814 -0.000316381  -0.147245 -0.455416 -0.000381947  -0.131837 -0.457131 -0.0003829  -0.147114 -0.455356 -0.000471115  -0.166579 -0.484385 -0.000258923  -0.168715 -0.499775 -8.72612e-05  -0.166796 -0.484412 -0.000173569  -0.15326 -0.501657 -0.000105619  -0.153457 -0.501674 -3.76701e-05  -0.135948 -0.488032 -0.000183344  -0.138119 -0.503477 -3.98159e-05  -0.136164 -0.488097 -9.15527e-05  -0.166709 -0.484385 -0.000216007  -0.1512 -0.486231 -0.000236511  -0.153368 -0.501645 -7.08103e-05  -0.151432 -0.486274 -0.000136137  -0.13607 -0.488058 -0.000136852  -0.151332 -0.486245 -0.000183582  -0.170581 -0.515156 1.33514e-05  -0.172592 -0.530455 0.000106573  -0.170742 -0.515142 3.00407e-05  -0.157244 -0.53236 9.67979e-05  -0.157387 -0.532353 0.000113964  -0.140037 -0.518849 2.74181e-05  -0.142101 -0.534186 0.000121593  -0.140201 -0.518866 6.58035e-05  -0.170676 -0.515135 2.12193e-05  -0.155271 -0.517019 4.52995e-06  -0.157319 -0.532341 0.000106096  -0.155437 -0.517021 4.55379e-05  -0.140126 -0.518851 4.673e-05  -0.155362 -0.517013 2.71797e-05  -0.174418 -0.545759 0.00018239  -0.176357 -0.560981 0.000224352  -0.17454 -0.545741 0.000164032  -0.161085 -0.562874 0.00022912  -0.1612 -0.562863 0.000217915  -0.143974 -0.549475 0.000177145  -0.145951 -0.564707 0.000229836  -0.144094 -0.549473 0.000178099  -0.174482 -0.545741 0.000172377  -0.159176 -0.547628 0.000167608  -0.16114 -0.562853 0.00022316  -0.159302 -0.547618 0.000169039  -0.14404 -0.549467 0.000177145  -0.159241 -0.547619 0.000169992  -0.178169 -0.576193 0.000281572  -0.180094 -0.591378 0.000320673  -0.178282 -0.576191 0.000258684  -0.164851 -0.593246 0.000345945  -0.164961 -0.593242 0.000313044  -0.147778 -0.57991 0.000297308  -0.14973 -0.595062 0.000344753  -0.147898 -0.579901 0.000271082  -0.178227 -0.576191 0.000272512  -0.162969 -0.578058 0.000283957  -0.16491 -0.593234 0.000329733  -0.16308 -0.578055 0.000265121  -0.147842 -0.5799 0.000283957  -0.163027 -0.578056 0.000276327  0 0 0  -0.00682517 -0.00182448 -0.0104132  -0.00432133 -0.00474635 -0.00639129  0 0 0  -0.00232561 0.000606984 -0.00556159  -0.00374458 -0.00248681 -0.00670648  -0.00108369 -0.00107607 -0.0029304  0 0 0  -0.00307486 3.69549e-06 -0.0069015  -0.00513803 -0.00351295 -0.00836372  -0.00147458 -0.00174981 -0.00362587  0 0 0  -0.0012912 -0.000512049 -0.0039115  -0.00173683 -0.00112697 -0.00484657  -0.0132476 -0.0097281 -0.0128582  -0.0120063 -0.0138692 -0.0095191  -0.00742002 -0.00405736 -0.00955224  -0.00926034 -0.010726 -0.00911212  -0.00582053 -0.00757629 -0.00670886  -0.0100972 -0.00522833 -0.0119052  -0.0125602 -0.0120238 -0.011354  -0.00802609 -0.00891772 -0.00833344  -0.00646918 -0.00607903 -0.00823069  -0.00885564 -0.00731549 -0.010236  -0.0196278 -0.0213744 -0.0132961  -0.0197775 -0.0258778 -0.0101931  -0.0122083 -0.0139341 -0.0105748  -0.0149193 -0.0227116 -0.00947809  -0.0118896 -0.0181683 -0.0080595  -0.016404 -0.0150908 -0.0132623  -0.0197887 -0.0238281 -0.0118394  -0.015948 -0.0194961 -0.0100307  -0.0120873 -0.0162975 -0.00943542  -0.0162059 -0.0175193 -0.0117745  -0.0262281 -0.0363673 -0.0127413  -0.0271745 -0.040734 -0.0098362  -0.0173603 -0.0275124 -0.0104344  -0.020568 -0.0378351 -0.00906157  -0.0179222 -0.0318721 -0.00809026  -0.022903 -0.0284725 -0.0131056  -0.0268297 -0.0387185 -0.0113466  -0.0235092 -0.0329469 -0.0100949  -0.0177435 -0.0299025 -0.00933385  -0.0233229 -0.0309042 -0.0116765  -0.0329813 -0.0542024 -0.011749  -0.0343383 -0.0582291 -0.00904274  -0.0227586 -0.0441967 -0.00977492  -0.0262434 -0.0557056 -0.00831699  -0.023815 -0.0483547 -0.00757551  -0.0295897 -0.0449489 -0.0122843  -0.0337902 -0.0563569 -0.0104287  -0.0307801 -0.0491629 -0.0094738  -0.0233993 -0.046451 -0.00871706  -0.0303169 -0.0472199 -0.0109246  -0.0398012 -0.0744359 -0.0105724  -0.0413239 -0.0780416 -0.00809598  -0.0283458 -0.0634959 -0.00888896  -0.0319634 -0.0759342 -0.00744987  -0.0296404 -0.0673053 -0.00684786  -0.0363876 -0.0640347 -0.0111749  -0.0406815 -0.0763517 -0.00935292  -0.0378499 -0.0678572 -0.00858045  -0.0290989 -0.065546 -0.00789237  -0.0372463 -0.0660819 -0.00990367  -0.0465967 -0.096682 -0.00936699  -0.0481448 -0.0998625 -0.007128  -0.0340537 -0.0849998 -0.00792527  -0.0377063 -0.0981859 -0.006567  -0.035426 -0.0884086 -0.0060637  -0.0432051 -0.085316 -0.00996995  -0.0474753 -0.0983671 -0.0082562  -0.0447546 -0.0887095 -0.00761104  -0.0348336 -0.0868252 -0.0070076  -0.0440921 -0.0871263 -0.00880504  -0.0533015 -0.120656 -0.00819421  -0.0547913 -0.123426 -0.00620437  -0.0398157 -0.108373 -0.00696731  -0.0434388 -0.122171 -0.00571799  -0.0411724 -0.111378 -0.00529408  -0.0499626 -0.108459 -0.00877643  -0.0541371 -0.122116 -0.00720382  -0.051488 -0.111433 -0.00665998  -0.0405764 -0.109977 -0.00613761  -0.0508252 -0.11004 -0.00772524  -0.0598611 -0.146098 -0.00709772  -0.0612543 -0.148494 -0.00534582  -0.0455747 -0.133341 -0.00605297  -0.0491256 -0.147647 -0.00492764  -0.0468613 -0.135961 -0.00457287  -0.0565995 -0.133195 -0.00763845  -0.0606369 -0.14736 -0.00622225  -0.0580456 -0.135776 -0.00576687  -0.0462893 -0.134736 -0.00531554  -0.057408 -0.134565 -0.006706  -0.0662484 -0.172812 -0.0060811  -0.0675217 -0.174861 -0.00456262  -0.0512853 -0.159669 -0.00520396  -0.0547391 -0.174394 -0.00420237  -0.0524757 -0.161933 -0.00391006  -0.063076 -0.159298 -0.00658321  -0.0669537 -0.173886 -0.00532174  -0.0644101 -0.161519 -0.00494647  -0.0519431 -0.160872 -0.00455785  -0.0638195 -0.160474 -0.00576544  -0.072438 -0.200594 -0.00515532  -0.0735891 -0.202335 -0.00385046  -0.0569149 -0.187154 -0.0044229  -0.0602564 -0.202221 -0.00354314  -0.0579956 -0.189093 -0.0033083  -0.0693663 -0.186568 -0.00561094  -0.0730739 -0.201506 -0.00450087  -0.0705798 -0.188462 -0.00419903  -0.0575104 -0.188183 -0.003865  -0.0700382 -0.18757 -0.00490451  -0.0784248 -0.229285 -0.00430894  -0.0794481 -0.230742 -0.00320721  -0.0624409 -0.215611 -0.00371361  -0.0656608 -0.230949 -0.00294518  -0.0634094 -0.217253 -0.00276351  -0.0754558 -0.214827 -0.00472641  -0.0789889 -0.230043 -0.00375652  -0.0765418 -0.216424 -0.00352192  -0.0629739 -0.216481 -0.00323772  -0.0760577 -0.21567 -0.0041225  -0.084196 -0.258711 -0.00354815  -0.0851003 -0.259917 -0.00262642  -0.067845 -0.244871 -0.00306869  -0.0709382 -0.260415 -0.00240684  -0.0687015 -0.246244 -0.00227308  -0.0813349 -0.243904 -0.00392175  -0.0846938 -0.259338 -0.00308442  -0.0822995 -0.245234 -0.0029099  -0.0683156 -0.245598 -0.00266933  -0.0818671 -0.244606 -0.00341439  -0.0897542 -0.288736 -0.00285792  -0.090539 -0.289711 -0.00210619  -0.0731145 -0.274777 -0.00249052  -0.0760784 -0.290465 -0.00192428  -0.0738634 -0.275908 -0.00183225  -0.0869997 -0.273648 -0.00319791  -0.0901861 -0.289237 -0.00248003  -0.0878431 -0.274737 -0.00236011  -0.0735261 -0.275374 -0.00215983  -0.0874671 -0.27422 -0.00277662  -0.0950928 -0.319206 -0.00224805  -0.0957693 -0.319983 -0.0016427  -0.0782387 -0.305184 -0.00197148  -0.0810726 -0.320964 -0.0014956  -0.0788839 -0.306099 -0.00144076  -0.0924485 -0.303912 -0.00254726  -0.0954648 -0.319604 -0.0019424  -0.0931791 -0.304787 -0.00186849  -0.0785939 -0.305666 -0.00170422  -0.0928513 -0.304371 -0.00220609  -0.10022 -0.350008 -0.00170565  -0.100789 -0.350605 -0.00123549  -0.0832109 -0.335959 -0.00151372  -0.0859159 -0.351781 -0.00111842  -0.0837598 -0.336682 -0.00109291  -0.0976803 -0.334563 -0.00197244  -0.100532 -0.350308 -0.00146842  -0.0983021 -0.335249 -0.00143337  -0.0835135 -0.336338 -0.00130153  -0.0980251 -0.334921 -0.0017004  -0.105133 -0.381013 -0.00123858  -0.105608 -0.38146 -0.000880718  -0.0880276 -0.366981 -0.0011127  -0.0906055 -0.382802 -0.000792503  -0.0884846 -0.367537 -0.000791311  -0.1027 -0.365481 -0.00146675  -0.105394 -0.381236 -0.00105667  -0.103222 -0.366001 -0.00105262  -0.0882795 -0.367271 -0.000950336  -0.102988 -0.365751 -0.0012579  -0.109846 -0.412132 -0.000835657  -0.110229 -0.412446 -0.000579834  -0.0926864 -0.398142 -0.000769377  -0.0951424 -0.413924 -0.000514269  -0.0930603 -0.398553 -0.00053072  -0.107512 -0.396555 -0.00103307  -0.110055 -0.412281 -0.000705957  -0.107939 -0.396934 -0.000725031  -0.0928929 -0.398355 -0.000648499  -0.107749 -0.396749 -0.000876904  -0.114363 -0.443259 -0.000504732  -0.114666 -0.443467 -0.000328541  -0.0971894 -0.429345 -0.000478983  -0.0995276 -0.445058 -0.000285149  -0.0974851 -0.429635 -0.00031352  -0.112126 -0.427688 -0.000665188  -0.114528 -0.443355 -0.000414133  -0.112468 -0.427948 -0.000448465  -0.097353 -0.429494 -0.000394583  -0.112314 -0.427821 -0.000555277  -0.118702 -0.474326 -0.000236988  -0.118929 -0.474448 -0.000129938  -0.10154 -0.460507 -0.000244617  -0.103768 -0.476124 -0.000102043  -0.101767 -0.460697 -0.00013566  -0.116552 -0.458795 -0.000367403  -0.118824 -0.474374 -0.000181913  -0.116815 -0.458959 -0.000224113  -0.101665 -0.460603 -0.000188828  -0.116698 -0.458875 -0.00029397  -0.122866 -0.505256 -3.3617e-05  -0.123036 -0.505319 2.36034e-05  -0.105742 -0.491556 -5.8651e-05  -0.107869 -0.507062 4.02927e-05  -0.105911 -0.491669 2.14577e-06  -0.120802 -0.489801 -0.000130892  -0.122957 -0.505276 -2.86102e-06  -0.121 -0.489892 -4.79221e-05  -0.105835 -0.491611 -2.69413e-05  -0.120909 -0.489844 -8.84533e-05  -0.126877 -0.536013 0.00012207  -0.127001 -0.536032 0.000136375  -0.109801 -0.522439 8.24928e-05  -0.111838 -0.537819 0.000146866  -0.109925 -0.522495 0.000108719  -0.124888 -0.520649 4.52995e-05  -0.126941 -0.536007 0.000129461  -0.125032 -0.520689 8.34465e-05  -0.109869 -0.522464 9.65595e-05  -0.124966 -0.520665 6.55651e-05  -0.130744 -0.566554 0.000242949  -0.130853 -0.566553 0.000227928  -0.113724 -0.553115 0.000192881  -0.11569 -0.568364 0.000237465  -0.113822 -0.553131 0.000189543  -0.128824 -0.5513 0.000180244  -0.130799 -0.566541 0.000235558  -0.128938 -0.551309 0.000182629  -0.113777 -0.553119 0.000191689  -0.128883 -0.5513 0.000181675  -0.134516 -0.59689 0.000377893  -0.134632 -0.596881 0.000315905  -0.117529 -0.583556 0.000296116  -0.119464 -0.598657 0.000332832  -0.117625 -0.583548 0.000264645  -0.132635 -0.581738 0.000296354  -0.13458 -0.596866 0.000344038  -0.132743 -0.581733 0.000269175  -0.117583 -0.583543 0.000280619  -0.132695 -0.581729 0.000283003  0 0 0  -0.00349833 -0.000303775 -0.00610018  -0.00209959 -0.00299779 -0.00383639  0 0 0  -0.000989608 0.00105435 -0.00265193  -0.00150839 -0.00161186 -0.00324726  -0.000428494 -0.000526041 -0.001436  0 0 0  -0.00161832 0.000921369 -0.00407195  -0.00256151 -0.00190032 -0.00496912  -0.000720181 -0.000700951 -0.00218177  0 0 0  -0.000520498 -2.66731e-05 -0.00189161  -0.000873324 -0.00017941 -0.00289106  -0.00673397 -0.00768679 -0.00762653  -0.00610591 -0.0115247 -0.00573754  -0.00301662 -0.0029431 -0.00462079  -0.00379078 -0.00943494 -0.00449371  -0.0023497 -0.00628349 -0.00332355  -0.00511226 -0.00331882 -0.00705242  -0.00639753 -0.00987747 -0.00680161  -0.00398822 -0.00673106 -0.00501776  -0.00261658 -0.00490743 -0.00403309  -0.00444071 -0.00530821 -0.00612187  -0.0102962 -0.0195803 -0.00789094  -0.0105353 -0.0238383 -0.00614357  -0.00499481 -0.0127261 -0.00517511  -0.00635687 -0.0215553 -0.00470352  -0.0050143 -0.0167827 -0.00402784  -0.00845346 -0.0131402 -0.00786209  -0.0104844 -0.0219477 -0.00709271  -0.0083065 -0.0172686 -0.00604701  -0.00503772 -0.0150332 -0.00467372  -0.00841737 -0.0154707 -0.00705123  -0.0142476 -0.0349541 -0.00755453  -0.0150131 -0.0391787 -0.00590444  -0.00741151 -0.0265547 -0.00511956  -0.00918517 -0.0370099 -0.00449109  -0.00792906 -0.0307823 -0.00404835  -0.0122313 -0.0268657 -0.00777006  -0.014721 -0.0372606 -0.0067749  -0.0127704 -0.0311479 -0.00607109  -0.00773907 -0.0289028 -0.00463176  -0.0125851 -0.0292319 -0.00698018  -0.0184898 -0.0531799 -0.00695372  -0.0195408 -0.0571502 -0.00540638  -0.0102128 -0.043563 -0.00478983  -0.0122699 -0.055233 -0.00410247  -0.0110282 -0.0476513 -0.00377464  -0.0163343 -0.0437297 -0.00727558  -0.0191039 -0.0553245 -0.00620794  -0.0172661 -0.0478476 -0.00567436  -0.0106938 -0.0457983 -0.0043118  -0.016893 -0.0459736 -0.00651073  -0.0229777 -0.073818 -0.00624895  -0.0241497 -0.0774302 -0.00481606  -0.0133606 -0.0631981 -0.00433826  -0.0156202 -0.0758246 -0.00364828  -0.0143257 -0.0669926 -0.00338697  -0.0207051 -0.0632126 -0.00660777  -0.0236426 -0.0757525 -0.00554729  -0.021834 -0.0670131 -0.00511622  -0.0139115 -0.0652513 -0.00388026  -0.0213537 -0.0652656 -0.00588226  -0.027653 -0.0964836 -0.00551677  -0.0288476 -0.0997097 -0.00421834  -0.016821 -0.0850496 -0.00384235  -0.0192189 -0.0984438 -0.00318456  -0.0178359 -0.0884839 -0.00296974  -0.0252936 -0.0849061 -0.00588083  -0.0283193 -0.0982035 -0.00487661  -0.0264857 -0.0883287 -0.00451541  -0.0173892 -0.0868953 -0.0034163  -0.0259657 -0.0867435 -0.00520968  -0.0324658 -0.120888 -0.00480795  -0.0336186 -0.123727 -0.00364614  -0.0205483 -0.108784 -0.00334716  -0.0230382 -0.122806 -0.00273991  -0.0215502 -0.111841 -0.00256014  -0.0300443 -0.108476 -0.00515628  -0.0331016 -0.122394 -0.0042305  -0.031225 -0.111508 -0.00392747  -0.0211027 -0.11042 -0.00295949  -0.030699 -0.110098 -0.00454736  -0.0373598 -0.146759 -0.00413799  -0.0384405 -0.149234 -0.00311899  -0.0244935 -0.134122 -0.0028739  -0.0270349 -0.148654 -0.0023272  -0.0254444 -0.136809 -0.00217938  -0.0349034 -0.133643 -0.00446415  -0.0379515 -0.148069 -0.00363064  -0.0360222 -0.1363 -0.00337601  -0.0250156 -0.135555 -0.00252962  -0.0355206 -0.13506 -0.0039227  -0.0422989 -0.173887 -0.00352263  -0.043286 -0.176023 -0.00263691  -0.0286078 -0.160817 -0.00243521  -0.0311736 -0.175767 -0.0019505  -0.0294865 -0.163156 -0.00183034  -0.0398245 -0.160169 -0.00382257  -0.0428368 -0.175013 -0.00307918  -0.0408611 -0.162473 -0.00287151  -0.0290878 -0.162062 -0.00213432  -0.0403912 -0.161396 -0.00334692  -0.0472416 -0.202061 -0.00295925  -0.0481319 -0.203887 -0.0022037  -0.0328487 -0.188658 -0.00203538  -0.0354139 -0.203938 -0.00161195  -0.0336435 -0.190673 -0.00151825  -0.0447694 -0.187844 -0.00323224  -0.047725 -0.203023 -0.00258136  -0.0457075 -0.189823 -0.00241423  -0.0332819 -0.189727 -0.0017767  -0.045282 -0.188895 -0.0028224  -0.0521663 -0.231115 -0.00245166  -0.0529549 -0.232655 -0.00181198  -0.0371773 -0.217449 -0.00167465  -0.0397276 -0.232987 -0.00130844  -0.0378851 -0.219167 -0.00123787  -0.049706 -0.216479 -0.00269818  -0.0525936 -0.231922 -0.00213003  -0.0505468 -0.218161 -0.00200224  -0.0375625 -0.218359 -0.00145602  -0.0501627 -0.217372 -0.00234818  -0.0570437 -0.260868 -0.00199199  -0.0577363 -0.262154 -0.00146317  -0.0415614 -0.247017 -0.0013504  -0.0440801 -0.262743 -0.0010376  -0.0421829 -0.248463 -0.000988722  -0.0546098 -0.245902 -0.00221348  -0.0574185 -0.261541 -0.00172663  -0.0553491 -0.247314 -0.00163174  -0.0418992 -0.247782 -0.00116873  -0.0550127 -0.24665 -0.0019207  -0.0618606 -0.291184 -0.00158381  -0.0624566 -0.292237 -0.00115037  -0.0459715 -0.2772 -0.00106192  -0.04845 -0.293054 -0.000797749  -0.0465087 -0.278401 -0.000766993  -0.0594591 -0.275955 -0.00178123  -0.0621827 -0.291731 -0.00136495  -0.060104 -0.277123 -0.001302  -0.0462633 -0.277834 -0.000913858  -0.0598087 -0.276573 -0.00153875  -0.066594 -0.321908 -0.00121832  -0.0671029 -0.322756 -0.000875711  -0.0503821 -0.307853 -0.000807762  -0.0528088 -0.323778 -0.000587463  -0.0508391 -0.308833 -0.000573874  -0.064236 -0.306492 -0.00139332  -0.0668685 -0.322348 -0.0010457  -0.0647874 -0.307441 -0.0010078  -0.0506306 -0.308368 -0.000689745  -0.0645361 -0.306993 -0.00119829  -0.0712371 -0.352929 -0.000902414  -0.0716602 -0.353593 -0.000633955  -0.0547713 -0.338841 -0.000585556  -0.0571413 -0.354791 -0.000405312  -0.0551521 -0.339624 -0.000403643  -0.0689255 -0.337379 -0.00105429  -0.0714649 -0.353268 -0.0007658  -0.069392 -0.338134 -0.000749826  -0.0549781 -0.339252 -0.000493765  -0.069178 -0.337777 -0.000899076  -0.0757725 -0.384117 -0.000625849  -0.0761213 -0.384624 -0.000427246  -0.059119 -0.370045 -0.000393152  -0.061425 -0.385974 -0.000249386  -0.0594301 -0.370655 -0.000257969  -0.0735161 -0.368497 -0.000757217  -0.0759602 -0.384374 -0.000525236  -0.0739003 -0.369083 -0.000525475  -0.0592885 -0.370363 -0.000324488  -0.0737257 -0.368804 -0.0006392  -0.0802021 -0.415386 -0.000394106  -0.0804782 -0.415756 -0.000249624  -0.06341 -0.401357 -0.000231028  -0.0656517 -0.417231 -0.000119209  -0.0636575 -0.401817 -0.000133991  -0.0779991 -0.399738 -0.000504494  -0.0803497 -0.415568 -0.000319719  -0.0783117 -0.400175 -0.000334024  -0.063545 -0.401595 -0.000181913  -0.0781682 -0.399966 -0.000416279  -0.0845132 -0.446633 -0.000200987  -0.0847282 -0.446891 -0.000106335  -0.0676317 -0.432684 -9.60827e-05  -0.0698051 -0.448471 -1.26362e-05  -0.0678239 -0.433016 -3.26633e-05  -0.0823696 -0.431006 -0.000291586  -0.0846279 -0.446757 -0.000152588  -0.0826137 -0.43132 -0.000173569  -0.0677364 -0.432853 -6.34193e-05  -0.0825028 -0.431168 -0.000230551  -0.0887113 -0.477796 -5.07832e-05  -0.0888679 -0.477961 9.29832e-06  -0.0717759 -0.463944 1.09673e-05  -0.0738833 -0.479622 7.03335e-05  -0.0719173 -0.464171 5.00679e-05  -0.0866244 -0.46222 -0.000120878  -0.0887935 -0.477869 -1.88351e-05  -0.0868104 -0.46243 -4.45843e-05  -0.0718529 -0.464058 3.12328e-05  -0.086724 -0.462327 -8.01086e-05  -0.0927868 -0.508802 6.91414e-05  -0.0929012 -0.508896 9.65595e-05  -0.0758338 -0.495073 9.27448e-05  -0.0778742 -0.510623 0.000132084  -0.0759337 -0.495214 0.000111103  -0.0907619 -0.493311 1.43051e-05  -0.0928462 -0.508839 8.34465e-05  -0.0908949 -0.49344 5.6982e-05  -0.0758882 -0.495141 0.00010252  -0.0908339 -0.493374 3.74317e-05  -0.0967469 -0.539618 0.00015831  -0.0968289 -0.539656 0.000164986  -0.0798004 -0.526018 0.000153542  -0.0817809 -0.541429 0.000178337  -0.0798681 -0.526091 0.000157833  -0.0947793 -0.524227 0.000116587  -0.0967879 -0.539623 0.00016284  -0.094877 -0.524292 0.000133514  -0.0798376 -0.526049 0.000155687  -0.0948298 -0.524257 0.000127077  -0.100589 -0.570191 0.00024128  -0.100662 -0.570191 0.000221968  -0.0836718 -0.556737 0.000202894  -0.0855973 -0.571989 0.000220537  -0.0837207 -0.556758 0.000193596  -0.0986793 -0.554926 0.000199795  -0.100625 -0.570176 0.000231028  -0.098753 -0.554945 0.000194311  -0.0836983 -0.556739 0.000198364  -0.0987189 -0.55493 0.000198126  -0.104339 -0.600472 0.000335455  -0.10442 -0.60046 0.000283003  -0.08745 -0.587177 0.000253916  -0.0893378 -0.60223 0.000267982  -0.0874949 -0.587161 0.000230312  -0.102472 -0.585367 0.000280142  -0.104383 -0.600442 0.000308037  -0.102546 -0.585355 0.000251532  -0.0874741 -0.587153 0.000241995  -0.102511 -0.58535 0.000267267  0 0 0  -0.000771448 -1.16229e-05 -0.00178599  -0.000420824 -0.00259143 -0.00119948  0 0 0  0.000185125 0.000941813 0.000245094  0.000415251 -0.00172195 0.000216961  0.000117399 -0.000565857 9.20296e-05  0 0 0  -0.000388544 0.00105453 -0.00119281  -0.000527404 -0.00156316 -0.00150657  -0.000147395 -0.000485867 -0.000671148  0 0 0  0.000134669 -0.000109255 0.000148773  -0.000183694 -1.40667e-05 -0.000868082  -0.00136378 -0.00720024 -0.00234342  -0.00134535 -0.0109058 -0.00186086  0.000834614 -0.00311425 0.000300169  0.000995845 -0.00959817 0.000154972  0.000620961 -0.0063459 0.000108242  -0.00105675 -0.00288454 -0.00214362  -0.00135696 -0.00934941 -0.00215936  -0.000834674 -0.00616795 -0.00160408  0.000719264 -0.00503689 0.000186205  -0.000918403 -0.00483087 -0.00191522  -0.00222507 -0.0191873 -0.00248361  -0.0025878 -0.0233339 -0.00203133  0.00141144 -0.0129842 0.000221491  0.00135809 -0.0218527 8.7738e-05  0.00105926 -0.0169424 4.36306e-05  -0.00174224 -0.0126752 -0.00246167  -0.00244626 -0.0215223 -0.00229836  -0.00193214 -0.0166802 -0.00198722  0.00121686 -0.0152566 0.000111103  -0.00186199 -0.0149683 -0.00227308  -0.00350574 -0.0347964 -0.00239062  -0.00412405 -0.0389516 -0.00195718  0.00167969 -0.026968 0.000169992  0.00133651 -0.0375001 7.24792e-05  0.00118342 -0.0311279 1.0252e-05  -0.0028114 -0.0265842 -0.00246334  -0.0038659 -0.0370854 -0.00220275  -0.0033159 -0.0307764 -0.00201511  0.00140199 -0.0292961 7.10487e-05  -0.0031127 -0.0289247 -0.00227404  -0.00521368 -0.0532876 -0.00218821  -0.00598103 -0.0572345 -0.00176835  0.00149029 -0.0441662 0.000165701  0.000854015 -0.0559392 9.98974e-05  0.000889301 -0.0482234 2.40803e-05  -0.00430465 -0.0437033 -0.00230384  -0.00564826 -0.0554331 -0.0019958  -0.00501114 -0.0477754 -0.0018723  0.00115567 -0.0463978 8.05855e-05  -0.0047096 -0.0459392 -0.00211143  -0.00734413 -0.0742028 -0.00193119  -0.00817418 -0.0778297 -0.00154042  0.000794113 -0.0640057 0.000193834  -0.00011152 -0.0767576 0.00014782  0.000137627 -0.0678041 6.93798e-05  -0.00622684 -0.0634571 -0.00206685  -0.00780523 -0.0761546 -0.00174785  -0.00703311 -0.0672546 -0.00165772  0.000431538 -0.0660716 0.000121355  -0.00668055 -0.0655189 -0.00187707  -0.00986272 -0.0971609 -0.00166297  -0.0107006 -0.10043 -0.00130367  -0.000404358 -0.0860798 0.000237942  -0.00154603 -0.0996215 0.000202179  -0.00107443 -0.0895464 0.000124693  -0.00855535 -0.0854354 -0.00179982  -0.0103227 -0.0989105 -0.00148964  -0.00939661 -0.0888873 -0.00142193  -0.000771642 -0.0879515 0.000174284  -0.00901979 -0.0872967 -0.00162077  -0.0127316 -0.121872 -0.00139928  -0.0135363 -0.124771 -0.00108218  -0.0020746 -0.110056 0.00028348  -0.00341845 -0.12424 0.000251532  -0.00272661 -0.113165 0.000180244  -0.0112555 -0.109305 -0.0015316  -0.0131693 -0.123415 -0.0012455  -0.0120794 -0.112391 -0.00119138  -0.00243008 -0.111727 0.000226974  -0.0117076 -0.110961 -0.00136733  -0.0158968 -0.148056 -0.0011549  -0.0166484 -0.150602 -0.000878572  -0.00417209 -0.135649 0.000325441  -0.00568378 -0.150353 0.000291824  -0.0047853 -0.138401 0.000226498  -0.0142779 -0.134784 -0.00127578  -0.0163029 -0.149409 -0.00101852  -0.0150596 -0.137506 -0.000977993  -0.00450456 -0.137124 0.000272751  -0.0147023 -0.13624 -0.00113082  -0.0193148 -0.175496 -0.000931263  -0.0199971 -0.177706 -0.00069952  -0.00664663 -0.162607 0.000356913  -0.00829673 -0.177728 0.000321865  -0.00720739 -0.165017 0.000262976  -0.0175755 -0.161623 -0.00104284  -0.0196819 -0.176665 -0.000816822  -0.0182929 -0.164 -0.00078702  -0.00694966 -0.163895 0.000308275  -0.0179647 -0.162892 -0.000916958  -0.0229348 -0.203969 -0.000734806  -0.023545 -0.205871 -0.000540018  -0.00944793 -0.190706 0.000379562  -0.0112083 -0.206155 0.000341415  -0.0099479 -0.192795 0.000287533  -0.0210999 -0.189604 -0.000831366  -0.0232624 -0.204974 -0.000636816  -0.0217479 -0.191659 -0.000617266  -0.00971782 -0.191821 0.000332594  -0.0214487 -0.1907 -0.000725746  -0.0267208 -0.233304 -0.000559092  -0.0272539 -0.234919 -0.000403166  -0.0125268 -0.219746 0.000391245  -0.014374 -0.235442 0.000351906  -0.0129634 -0.221537 0.000305176  -0.0248082 -0.218531 -0.000646591  -0.0270057 -0.234153 -0.000481367  -0.0253786 -0.220288 -0.000469685  -0.0127622 -0.220701 0.000347376  -0.0251161 -0.219465 -0.000558376  -0.0306277 -0.263314 -0.000407934  -0.0310893 -0.264671 -0.000282764  -0.0158361 -0.249544 0.000396013  -0.0177482 -0.265417 0.00035429  -0.0162101 -0.251062 0.000312567  -0.0286586 -0.248223 -0.000482082  -0.030874 -0.264027 -0.000344038  -0.0291572 -0.249708 -0.0003407  -0.0160375 -0.250353 0.00035429  -0.0289258 -0.249013 -0.000411749  -0.0346273 -0.293861 -0.000273466  -0.0350158 -0.294981 -0.000180721  -0.0193326 -0.279938 0.000391483  -0.0212911 -0.295924 0.000350475  -0.0196455 -0.281206 0.000313997  -0.0326164 -0.27852 -0.000340939  -0.0348344 -0.294445 -0.000226736  -0.0330399 -0.279758 -0.000230074  -0.019501 -0.280612 0.000352621  -0.032845 -0.279177 -0.00028491  -0.0386823 -0.324788 -0.000162125  -0.0390059 -0.325699 -9.17912e-05  -0.0229756 -0.310776 0.000383139  -0.024963 -0.32682 0.000340462  -0.0232304 -0.31182 0.00030899  -0.036647 -0.309274 -0.000216961  -0.0388541 -0.325262 -0.00012517  -0.0370039 -0.310288 -0.000134468  -0.0231131 -0.31133 0.000346422  -0.0368376 -0.309812 -0.000175476  -0.0427705 -0.355983 -6.50883e-05  -0.0430309 -0.356705 -1.88351e-05  -0.0267277 -0.341926 0.000367403  -0.0287311 -0.357978 0.000327587  -0.0269301 -0.342768 0.0003016  -0.0407223 -0.34035 -0.000114918  -0.0429081 -0.356354 -4.14848e-05  -0.0410126 -0.341166 -5.45979e-05  -0.026837 -0.342373 0.00033474  -0.0408788 -0.340781 -8.41618e-05  -0.0468609 -0.387318 1.28746e-05  -0.0470676 -0.387878 4.33922e-05  -0.0305564 -0.373268 0.000350952  -0.0325618 -0.389285 0.000311852  -0.0307114 -0.373931 0.000289917  -0.0448141 -0.371628 -2.55108e-05  -0.0469697 -0.387605 2.95639e-05  -0.0450482 -0.372268 1.38283e-05  -0.0306401 -0.373618 0.000320673  -0.0449386 -0.371966 -5.72205e-06  -0.0509396 -0.418708 7.70092e-05  -0.0510945 -0.419124 9.15527e-05  -0.0344307 -0.404694 0.000328541  -0.0364294 -0.420641 0.000293255  -0.0345447 -0.405202 0.000276327  -0.0489008 -0.403003 4.36306e-05  -0.0510199 -0.418916 8.46386e-05  -0.0490801 -0.40349 6.81877e-05  -0.0344925 -0.404961 0.000302553  -0.0489976 -0.403258 5.65052e-05  -0.0549817 -0.450053 0.000125647  -0.0550959 -0.450351 0.000130892  -0.038326 -0.436113 0.000307083  -0.0403087 -0.451961 0.000274897  -0.038404 -0.436487 0.00026083  -0.0529628 -0.43438 0.000101089  -0.0550399 -0.4502 0.000129461  -0.0530984 -0.434736 0.000111818  -0.0383687 -0.436309 0.000284433  -0.0530338 -0.434566 0.000106573  -0.0589807 -0.481294 0.000161648  -0.0590558 -0.481492 0.000158072  -0.0422213 -0.467446 0.000282526  -0.0441821 -0.483172 0.000254154  -0.042268 -0.467709 0.00024581  -0.0569854 -0.465681 0.000142097  -0.0590181 -0.481386 0.000159979  -0.0570786 -0.465929 0.00014472  -0.0422471 -0.467582 0.000264168  -0.057035 -0.465808 0.000144005  -0.0629189 -0.51236 0.000183344  -0.0629668 -0.51248 0.000177383  -0.046097 -0.49863 0.000258923  -0.0480313 -0.514218 0.000233173  -0.0461197 -0.498802 0.000228167  -0.060955 -0.496841 0.000172377  -0.0629418 -0.512411 0.000181675  -0.0610168 -0.496999 0.000168324  -0.0461102 -0.498717 0.000243902  -0.0609865 -0.496921 0.000169992  -0.0667944 -0.54322 0.000199795  -0.0668192 -0.543275 0.000187635  -0.0499418 -0.529614 0.000231981  -0.0518472 -0.545051 0.000210762  -0.0499442 -0.529713 0.000211477  -0.0648634 -0.527809 0.000189066  -0.0668049 -0.543234 0.000193357  -0.0648978 -0.527897 0.000182152  -0.0499444 -0.529662 0.000221729  -0.0648816 -0.52785 0.000185728  -0.0705934 -0.573814 0.000212669  -0.0706084 -0.573821 0.00019908  -0.0537434 -0.560357 0.000207663  -0.0556149 -0.575622 0.000189543  -0.0537317 -0.560396 0.000193119  -0.068701 -0.558543 0.000203371  -0.0705976 -0.573801 0.000206232  -0.0687208 -0.558573 0.000192642  -0.0537374 -0.560372 0.00020051  -0.0687096 -0.558553 0.000197411  -0.0743129 -0.604057 0.000235081  -0.0743284 -0.604053 0.000210762  -0.0574868 -0.590796 0.000182629  -0.0593138 -0.605841 0.000170946  -0.0574665 -0.590796 0.00017786  -0.0724623 -0.588982 0.000216961  -0.0743165 -0.604026 0.000221968  -0.0724733 -0.588973 0.000203609  -0.0574749 -0.590782 0.000180006  -0.0724671 -0.588963 0.000210285  0 0 0  0.00175877 -0.00058341 0.0024724  0.00112633 -0.00305831 0.00143504  0 0 0  0.00130189 0.000378489 0.0030973  0.00232443 -0.00264156 0.00361443  0.000662588 -0.00105745 0.00160146  0 0 0  0.000745736 0.000718951 0.00167155  0.0013562 -0.00207788 0.00192642  0.000383034 -0.000750601 0.000849962  0 0 0  0.000780791 -0.000617981 0.00216556  0.000451759 -0.000308692 0.00116014  0.00364313 -0.00807804 0.00287461  0.00308388 -0.0116782 0.00199962  0.00462514 -0.0044322 0.00511003  0.00575069 -0.0110742 0.00468588  0.00359115 -0.00755405 0.00346088  0.00271134 -0.00362921 0.00272155  0.00334305 -0.0101716 0.00244403  0.00207923 -0.00680518 0.00180268  0.00403419 -0.00628006 0.00430608  0.00235398 -0.00551903 0.00226617  0.00540039 -0.0202439 0.00286603  0.0049105 -0.024308 0.00205302  0.00776282 -0.0146735 0.0054915  0.0090093 -0.023576 0.00477004  0.00709596 -0.0185341 0.00401759  0.00455192 -0.0136517 0.00288367  0.00514781 -0.0225359 0.00245142  0.00404352 -0.0175604 0.0020535  0.00742608 -0.0168779 0.00477862  0.00428626 -0.0158941 0.00247097  0.00677204 -0.0359848 0.00271845  0.00627846 -0.0400908 0.00196719  0.0106978 -0.028798 0.0053606  0.0117566 -0.039336 0.00455952  0.0102101 -0.0328909 0.00398707  0.00615075 -0.0277085 0.00279188  0.00651413 -0.0382504 0.00233412  0.00566024 -0.031834 0.00201726  0.0104615 -0.0310791 0.00468111  0.00589719 -0.0300162 0.00239873  0.00759178 -0.0546074 0.0025456  0.00708288 -0.0585378 0.00184917  0.0130898 -0.0460671 0.00505519  0.0138441 -0.0578642 0.00425339  0.0126793 -0.0500898 0.00376844  0.00725698 -0.0449557 0.00263214  0.00732249 -0.0567477 0.00218844  0.00675559 -0.048996 0.00191021  0.0128873 -0.0482742 0.00441194  0.00699115 -0.0471775 0.00226331  0.00781322 -0.0756741 0.00236583  0.00730318 -0.0793121 0.00172925  0.0148179 -0.0659872 0.00468683  0.0152379 -0.0787927 0.00391769  0.0144435 -0.0697778 0.00349283  0.0077787 -0.0648497 0.00245643  0.00754207 -0.0776351 0.00204158  0.00726575 -0.068645 0.00179029  0.0146282 -0.0680457 0.00408697  0.00750631 -0.0669146 0.00211668  0.00745064 -0.0988069 0.00219035  0.00695354 -0.102109 0.00160909  0.0158591 -0.0881703 0.00429821  0.0159533 -0.10179 0.00357628  0.0155108 -0.0916501 0.0032022  0.00770473 -0.0869908 0.00228  0.00718623 -0.100577 0.001894  0.0072 -0.0904665 0.00167012  0.0156796 -0.0900474 0.00374699  0.00743419 -0.0888678 0.00196958  0.00653422 -0.123714 0.00201464  0.00606787 -0.126661 0.00149131  0.0162333 -0.112283 0.00390792  0.0160207 -0.126563 0.00324059  0.0159119 -0.11542 0.00291395  0.00706017 -0.111047 0.00210452  0.0062871 -0.125286 0.00174999  0.00657541 -0.114173 0.00155091  0.0160662 -0.113968 0.00340772  0.00680256 -0.112728 0.0018239  0.00511646 -0.150108 0.00184512  0.00468838 -0.15271 0.00137138  0.0159787 -0.138031 0.00352597  0.0154895 -0.152841 0.00291491  0.0156893 -0.140823 0.0026319  0.00588679 -0.13673 0.00193286  0.00489044 -0.151493 0.00160503  0.0054394 -0.139505 0.00143266  0.0158279 -0.139526 0.00307631  0.00564766 -0.138217 0.00167966  0.00324404 -0.177761 0.00167561  0.00286591 -0.180032 0.00125527  0.0151465 -0.165155 0.00315785  0.0144092 -0.180388 0.00260258  0.0148944 -0.16761 0.00236154  0.00423539 -0.163782 0.00176263  0.00304508 -0.178965 0.00146413  0.00383019 -0.166217 0.0013144  0.0150154 -0.166467 0.00275731  0.00402117 -0.165085 0.00153708  0.000977278 -0.206445 0.00151277  0.000648975 -0.208408 0.00113726  0.0137929 -0.193423 0.00280476  0.0128396 -0.20898 0.00230336  0.0135815 -0.195559 0.00210142  0.00215864 -0.191976 0.00159764  0.000805259 -0.207485 0.00132322  0.00180614 -0.194092 0.00119734  0.0136832 -0.194562 0.0024519  0.00197124 -0.193106 0.00139642  -0.00163651 -0.235979 0.00135064  -0.00191045 -0.237654 0.00102377  0.0119767 -0.222625 0.00246859  0.0108348 -0.238427 0.00202084  0.0118067 -0.224464 0.00185442  -0.000287652 -0.221108 0.00143385  -0.00177908 -0.236862 0.00118709  -0.000590205 -0.222925 0.00108099  0.0118891 -0.223604 0.00216007  -0.00044632 -0.222078 0.00125718  -0.00453842 -0.266173 0.00119901  -0.00476456 -0.267587 0.000911474  0.00975609 -0.252576 0.00215244  0.00845599 -0.268545 0.00175428  0.00962734 -0.254141 0.00162077  -0.00305223 -0.250992 0.00127792  -0.00465548 -0.266918 0.00105429  -0.00330091 -0.252536 0.000968695  0.00969005 -0.253408 0.00188589  -0.00318408 -0.251814 0.00112271  -0.00768805 -0.296883 0.00105071  -0.00786245 -0.298058 0.00080657  0.0071882 -0.283108 0.00185561  0.00575411 -0.299181 0.00150585  0.00709879 -0.28442 0.00140238  -0.00608349 -0.281464 0.00112677  -0.00777745 -0.297498 0.000929117  -0.00628471 -0.282756 0.000859261  0.00714338 -0.283804 0.00162792  -0.00618804 -0.282152 0.000993729  -0.0110306 -0.327955 0.000915289  -0.0111632 -0.328915 0.000704527  0.00432801 -0.314068 0.00158072  0.0027858 -0.330186 0.00127602  0.00427425 -0.315151 0.00119781  -0.00933552 -0.312371 0.000985384  -0.0110974 -0.328456 0.000809193  -0.00948739 -0.313438 0.000755787  0.00430167 -0.314641 0.00138879  -0.00941527 -0.312937 0.000870466  -0.0145316 -0.359273 0.000784874  -0.0146224 -0.360039 0.000611544  0.00122583 -0.345321 0.00132751  -0.000405312 -0.361437 0.00106645  0.00120354 -0.346199 0.00101137  -0.0127617 -0.343581 0.000850677  -0.0145757 -0.359669 0.000698805  -0.0128742 -0.344443 0.000657558  0.00121629 -0.345784 0.00116873  -0.0128186 -0.344038 0.000754833  -0.0181446 -0.39071 0.000668049  -0.018204 -0.391309 0.000523567  -0.00207067 -0.376749 0.00109887  -0.00376797 -0.392817 0.000877142  -0.00206637 -0.377442 0.000841379  -0.0163236 -0.374972 0.000728607  -0.018172 -0.391018 0.000595093  -0.0163972 -0.375653 0.000567913  -0.00206614 -0.377113 0.000969648  -0.0163615 -0.375332 0.00064826  -0.021843 -0.422183 0.000559092  -0.0218725 -0.422633 0.000446558  -0.00551677 -0.408243 0.000893354  -0.00726724 -0.424231 0.000709772  -0.00549221 -0.408776 0.000690222  -0.0199828 -0.406438 0.000613928  -0.0218544 -0.42241 0.000503302  -0.0200281 -0.406961 0.000484467  -0.00550199 -0.408521 0.000791073  -0.020004 -0.406714 0.000549793  -0.0255899 -0.453592 0.000465631  -0.025598 -0.453918 0.000376463  -0.00907516 -0.439715 0.000712872  -0.0108607 -0.455591 0.000563622  -0.00903511 -0.440108 0.000556469  -0.0237093 -0.437889 0.000514269  -0.0255902 -0.453754 0.000420332  -0.0237267 -0.438276 0.000411272  -0.00905252 -0.439918 0.000634193  -0.0237172 -0.438091 0.000463009  -0.0293667 -0.484881 0.000380039  -0.0293543 -0.485101 0.000316143  -0.012711 -0.471085 0.000557661  -0.0145216 -0.48683 0.000439167  -0.012661 -0.471362 0.000442505  -0.0274737 -0.469246 0.000423193  -0.0293562 -0.484985 0.000348568  -0.0274725 -0.469518 0.000345945  -0.0126832 -0.471226 0.000499249  -0.0274704 -0.469388 0.000385284  -0.0331464 -0.515979 0.000307322  -0.0331221 -0.516118 0.00026226  -0.0163975 -0.502291 0.0004251  -0.0182197 -0.51789 0.000334263  -0.0163395 -0.502474 0.000345707  -0.0312545 -0.500445 0.000345469  -0.0331302 -0.51604 0.000284433  -0.0312352 -0.500625 0.00028944  -0.0163658 -0.502381 0.000385046  -0.0312433 -0.500537 0.000317574  -0.0369213 -0.546857 0.000239849  -0.0368822 -0.546927 0.000215769  -0.0201106 -0.533284 0.00031209  -0.0219388 -0.548726 0.000243187  -0.0200469 -0.533392 0.000264645  -0.0350335 -0.531438 0.000275135  -0.0368969 -0.54688 0.000228167  -0.0350029 -0.531543 0.000239372  -0.0200765 -0.533334 0.000287771  -0.0350146 -0.53149 0.000257969  -0.0406671 -0.577455 0.000178576  -0.0406201 -0.577478 0.000172138  -0.0238345 -0.564025 0.000212193  -0.0256529 -0.579296 0.00015974  -0.0237639 -0.564076 0.000192165  -0.0387964 -0.562184 0.000212431  -0.0406375 -0.577451 0.000174522  -0.0387523 -0.56223 0.000195026  -0.0237966 -0.564043 0.000201702  -0.0387719 -0.562201 0.000203609  -0.0443573 -0.607696 0.000112534  -0.0443015 -0.60771 0.000130415  -0.027544 -0.594465 0.000113487  -0.0293224 -0.609536 7.43866e-05  -0.0274613 -0.594482 0.000126123  -0.0425215 -0.592623 0.000149012  -0.0443196 -0.607676 0.000122309  -0.0424693 -0.59263 0.000152111  -0.0274961 -0.59446 0.000119209  -0.0424888 -0.592614 0.000151157  0 0 0  0.00435084 -0.00202113 0.0066216  0.00282122 -0.00439268 0.00396919  0 0 0  0.00245218 -0.000767052 0.00584674  0.00450866 -0.00452709 0.00684476  0.00131272 -0.0021494 0.00302339  0 0 0  0.00186052 -9.92417e-05 0.00445867  0.00336127 -0.00343931 0.00524783  0.000956915 -0.00150174 0.00232029  0 0 0  0.00151929 -0.00170422 0.00409532  0.00112464 -0.0010699 0.00313234  0.00889251 -0.0103021 0.00790501  0.00780302 -0.0138143 0.0056839  0.00882377 -0.00700456 0.0096848  0.0110887 -0.0139459 0.00893712  0.00704135 -0.0100635 0.00659323  0.00664116 -0.00554252 0.00740814  0.00831157 -0.0123201 0.00684977  0.00522931 -0.00862306 0.00505471  0.00780241 -0.00877881 0.00818372  0.00583029 -0.0073539 0.00626993  0.0133329 -0.0227268 0.00804424  0.0127156 -0.026729 0.00598145  0.0147638 -0.0177777 0.0105159  0.0173223 -0.0266962 0.00922823  0.013806 -0.0215966 0.00775695  0.0111409 -0.0160463 0.00803733  0.0130429 -0.0249625 0.00703287  0.0103287 -0.019876 0.00591898  0.0142884 -0.0199249 0.00919104  0.0107374 -0.0182204 0.00701785  0.0173233 -0.0385091 0.00771832  0.0169337 -0.0425785 0.00577927  0.0203674 -0.0319667 0.0103843  0.0227777 -0.0424648 0.00890398  0.0198787 -0.0360377 0.00779247  0.0154085 -0.0302209 0.00790286  0.0171517 -0.0407425 0.0067544  0.0149243 -0.0342962 0.00591373  0.020157 -0.034215 0.00911212  0.0151885 -0.0324841 0.00692248  0.0206194 -0.0571483 0.00720668  0.0203413 -0.0610653 0.00539875  0.0252721 -0.0492067 0.00984335  0.027364 -0.0609851 0.00832057  0.0250253 -0.0532206 0.00740314  0.0190664 -0.0474863 0.00747132  0.0204978 -0.0592765 0.00630283  0.0187404 -0.0515014 0.00560188  0.0251815 -0.0513999 0.00863242  0.018924 -0.0496866 0.00653934  0.0231488 -0.0782595 0.00662494  0.0229312 -0.0819032 0.00495481  0.0293595 -0.0691153 0.00911617  0.0310624 -0.0819304 0.00763488  0.0292358 -0.0729102 0.00684881  0.0219824 -0.067409 0.00691652  0.0230523 -0.0802228 0.00578666  0.0217394 -0.0712013 0.00518036  0.0293241 -0.0711743 0.00798416  0.0218737 -0.0694686 0.00604653  0.0249085 -0.10147 0.00601745  0.0247275 -0.104792 0.00449824  0.0325897 -0.0913217 0.00831914  0.0338843 -0.104976 0.00691843  0.0325319 -0.0948169 0.00623798  0.0241258 -0.0896118 0.00631952  0.0248269 -0.103252 0.00525498  0.0239266 -0.0931005 0.00472665  0.0325818 -0.0932091 0.00727749  0.0240362 -0.0914962 0.00551915  0.0259204 -0.126479 0.00541949  0.0257717 -0.129457 0.00404787  0.0349662 -0.115486 0.00750566  0.0358571 -0.129816 0.0062089  0.0349478 -0.118649 0.00562215  0.0255068 -0.113759 0.00571465  0.0258536 -0.12807 0.00472975  0.0253431 -0.116912 0.00427079  0.0349743 -0.117188 0.00656128  0.0254309 -0.115455 0.00498867  0.0262324 -0.15299 0.00483751  0.0261122 -0.155632 0.00361681  0.0365199 -0.141305 0.00671101  0.0370293 -0.156177 0.00552511  0.0365301 -0.144129 0.00502205  0.0261629 -0.139552 0.00512505  0.0261792 -0.154398 0.00422502  0.026027 -0.142363 0.00382972  0.0365403 -0.142821 0.0058639  0.0261015 -0.141061 0.00447321  0.0258938 -0.180769 0.00428486  0.025807 -0.183082 0.00320387  0.0373001 -0.16851 0.00594568  0.0374562 -0.183807 0.00487375  0.0373356 -0.171002 0.0044508  0.026142 -0.166726 0.00455642  0.0258577 -0.181997 0.0037415  0.0260392 -0.169204 0.00340724  0.0373322 -0.169846 0.00519562  0.0260953 -0.168053 0.00397849  0.0249728 -0.209576 0.00375795  0.0249157 -0.211584 0.00281477  0.0373679 -0.196861 0.00522089  0.0372041 -0.212484 0.00425887  0.0374273 -0.199037 0.00390792  0.0255047 -0.195046 0.00401735  0.0249517 -0.210642 0.00328493  0.0254314 -0.197205 0.00300622  0.0374109 -0.198026 0.00456214  0.0254747 -0.196201 0.00350833  0.0235255 -0.239228 0.0032661  0.0235025 -0.240948 0.00244737  0.0367897 -0.226144 0.00453734  0.0363398 -0.242006 0.00368333  0.0368725 -0.228024 0.00339961  0.0243121 -0.224299 0.00350618  0.0235224 -0.240137 0.00285459  0.0242733 -0.226162 0.00262713  0.0368444 -0.22715 0.00396657  0.0242983 -0.225294 0.00306439  0.0216229 -0.269529 0.00280404  0.0216286 -0.270987 0.00210643  0.0356349 -0.256169 0.00390172  0.0349339 -0.272194 0.00314784  0.0357401 -0.257773 0.00292468  0.0226299 -0.254297 0.00303102  0.0216349 -0.270299 0.00245452  0.0226201 -0.255884 0.00227356  0.0357007 -0.257026 0.00341153  0.0226328 -0.255144 0.00264978  0.0193211 -0.300335 0.00237989  0.0193567 -0.301548 0.00178885  0.0339735 -0.286764 0.00331044  0.0330533 -0.302885 0.00265431  0.034098 -0.288113 0.00248551  0.0205199 -0.28487 0.00258613  0.0193487 -0.300972 0.00208259  0.0205418 -0.286204 0.00194383  0.034049 -0.287484 0.00289607  0.0205375 -0.28558 0.00226331  0.0166872 -0.331486 0.00198579  0.0167433 -0.332481 0.00149894  0.0318736 -0.317776 0.00277019  0.0307653 -0.333934 0.00220323  0.0320143 -0.318893 0.00208092  0.0180449 -0.315864 0.00217891  0.0167252 -0.332007 0.00174212  0.0180899 -0.316968 0.00164032  0.0319563 -0.318371 0.00242424  0.0180767 -0.316452 0.00190735  0.0137684 -0.362869 0.0016346  0.0138462 -0.363665 0.00123549  0.0293994 -0.349069 0.00227618  0.0281308 -0.365215 0.00179577  0.0295514 -0.349976 0.00171542  0.0152614 -0.347146 0.00180507  0.013818 -0.363282 0.00143361  0.0153298 -0.348042 0.00136328  0.0294876 -0.349552 0.00199413  0.0153034 -0.347621 0.00158262  0.0106263 -0.394356 0.00131655  0.0107155 -0.39498 0.00100136  0.0266118 -0.380523 0.00183606  0.0252109 -0.396614 0.0014329  0.0267708 -0.381242 0.00138545  0.0122252 -0.378594 0.00147057  0.0106814 -0.394678 0.00115848  0.0123081 -0.379303 0.00111437  0.0267031 -0.380905 0.00160956  0.0122759 -0.378971 0.00129032  0.00730157 -0.425865 0.00103951  0.00740051 -0.426335 0.000793934  0.0235698 -0.412033 0.0014441  0.0220582 -0.428034 0.00111461  0.0237298 -0.412586 0.00109625  0.00898576 -0.410104 0.00117183  0.00736117 -0.426103 0.000915289  0.00908113 -0.41065 0.000893593  0.0236607 -0.412325 0.00126839  0.00904107 -0.410392 0.00103116  0.00384307 -0.457296 0.000796318  0.00394344 -0.457638 0.00061655  0.0203242 -0.443508 0.00110626  0.0187252 -0.459392 0.000842333  0.0204799 -0.443918 0.00084424  0.00558949 -0.441584 0.000912428  0.00390267 -0.457467 0.000705957  0.00568843 -0.441988 0.000700951  0.0204117 -0.443724 0.000974178  0.00564766 -0.441797 0.000804663  0.000283957 -0.488595 0.000595093  0.000384808 -0.488828 0.000465631  0.0169234 -0.474873 0.000817776  0.0152559 -0.490618 0.000614166  0.0170708 -0.475163 0.000631809  0.00207591 -0.472957 0.000689507  0.000342607 -0.488706 0.000528574  0.00217795 -0.473244 0.000536919  0.0170054 -0.475024 0.000722885  0.00213289 -0.473105 0.000611782  -0.00334072 -0.519692 0.000423908  -0.00324512 -0.519841 0.000343561  0.0134091 -0.506065 0.000580072  0.0116892 -0.521658 0.000427961  0.0135438 -0.506257 0.000456095  -0.0015192 -0.504161 0.000504971  -0.00328588 -0.519759 0.000383615  -0.00142241 -0.504351 0.000401497  0.0134828 -0.506163 0.000516891  -0.00146389 -0.504258 0.000451326  -0.00701451 -0.550557 0.000281811  -0.006917 -0.550641 0.000238895  0.00981236 -0.537033 0.000385284  0.00805473 -0.552469 0.000276327  0.00993609 -0.537152 0.000315189  -0.00517106 -0.535146 0.000348568  -0.0069592 -0.550587 0.000259161  -0.00507426 -0.535262 0.000288725  0.0098784 -0.537092 0.000349045  -0.00511861 -0.535203 0.000317574  -0.0107079 -0.581142 0.000149965  -0.010607 -0.581186 0.000149727  0.00615883 -0.567745 0.000223637  0.00438356 -0.583024 0.000144243  0.0062778 -0.567816 0.000197887  -0.00885773 -0.565875 0.000216007  -0.0106502 -0.581151 0.000150204  -0.00876093 -0.565938 0.000193596  0.00622225 -0.567778 0.000209808  -0.00880337 -0.565903 0.000202894  -0.0143843 -0.611414 1.26362e-05  -0.0142674 -0.611453 5.93662e-05  0.00247836 -0.598181 7.15256e-05  0.000726461 -0.61331 1.19209e-05  0.0026052 -0.598229 9.36985e-05  -0.0125518 -0.596315 8.60691e-05  -0.0143123 -0.611412 3.74317e-05  -0.0124419 -0.596349 0.000104904  0.00254726 -0.5982 8.2016e-05  -0.01249 -0.596322 9.48906e-05  0 0 0  0.00737591 -0.00465214 0.0105381  0.00505795 -0.00701815 0.00627828  0 0 0  0.00380152 -0.00301486 0.00837827  0.00744782 -0.00809544 0.00967884  0.00223401 -0.00449985 0.00426388  0 0 0  0.00307116 -0.0017091 0.00705218  0.00585964 -0.006019 0.00830698  0.00170551 -0.00309378 0.0036459  0 0 0  0.00251652 -0.00390506 0.00580096  0.0019444 -0.00261116 0.00494099  0.0150787 -0.0139964 0.0126059  0.0135215 -0.0175475 0.00906825  0.0142025 -0.0111806 0.0138462  0.017824 -0.0184123 0.0127959  0.0117935 -0.0144208 0.00940084  0.0113217 -0.00886214 0.0117817  0.0142398 -0.015978 0.0109117  0.00921072 -0.0119579 0.00802398  0.012796 -0.0129946 0.0116556  0.0101042 -0.0106258 0.0099473  0.022277 -0.0265436 0.0129998  0.0215406 -0.0305713 0.00967598  0.023132 -0.0222076 0.0152853  0.0269551 -0.0311159 0.0134535  0.0219522 -0.0261753 0.0112185  0.0187419 -0.0198485 0.0129402  0.0219403 -0.0287551 0.0113668  0.0176655 -0.0237043 0.00951791  0.0225322 -0.0243859 0.0133011  0.018203 -0.0219894 0.0112815  0.0288109 -0.0422697 0.0125792  0.0285048 -0.0463483 0.00944495  0.0313078 -0.0363301 0.01527  0.0350111 -0.0467985 0.0131109  0.0308184 -0.0404753 0.0114174  0.0256433 -0.0340142 0.0128527  0.0287071 -0.0444876 0.0110257  0.0251525 -0.0381044 0.00962639  0.0311118 -0.0385884 0.0133665  0.0254427 -0.0362578 0.0112629  0.0345072 -0.0608565 0.011785  0.0344262 -0.0647775 0.00885272  0.0386479 -0.0535018 0.0145411  0.0420255 -0.0652525 0.0122967  0.038532 -0.0575449 0.0109205  0.0317717 -0.0512173 0.0122123  0.0345137 -0.0629773 0.0103219  0.0315972 -0.0552388 0.0091784  0.0386511 -0.0556939 0.0127409  0.0317315 -0.0534066 0.0107043  0.0392823 -0.0819483 0.0108223  0.039319 -0.0855971 0.00812221  0.0450358 -0.0733666 0.0134792  0.0479717 -0.0861656 0.0112846  0.045114 -0.0771676 0.0101242  0.0370141 -0.0711035 0.0113156  0.0393422 -0.0839108 0.00947213  0.0369999 -0.0749003 0.00849891  0.0451335 -0.0754197 0.0118046  0.037051 -0.0731601 0.00990963  0.0431129 -0.105167 0.00980663  0.0432091 -0.108499 0.00734806  0.0504019 -0.0955502 0.0122843  0.0528476 -0.109196 0.0102093  0.0505794 -0.099044 0.00921702  0.0413178 -0.0933016 0.0103185  0.0431975 -0.106955 0.00857425  0.0413896 -0.0967984 0.00773811  0.0505442 -0.0974324 0.0107505  0.0413902 -0.0951884 0.009027  0.0460044 -0.130204 0.0087893  0.0461372 -0.133197 0.00658178  0.0547271 -0.119707 0.0110574  0.0566711 -0.134038 0.00913739  0.054955 -0.122867 0.00828815  0.0446755 -0.117468 0.00929737  0.0461038 -0.131804 0.00768304  0.0447906 -0.120633 0.00696373  0.0548891 -0.121406 0.00967097  0.0447674 -0.119172 0.0081284  0.0480006 -0.156754 0.00780797  0.0481547 -0.159414 0.00584221  0.0580325 -0.145526 0.00985336  0.059492 -0.160402 0.00810146  0.0582876 -0.14835 0.00737953  0.0471135 -0.143295 0.00829744  0.0481081 -0.158174 0.00682116  0.0472587 -0.146123 0.00620914  0.058205 -0.147042 0.00861406  0.0472151 -0.144814 0.00725031  0.0491525 -0.184576 0.00686932  0.0493274 -0.186911 0.00514078  0.060367 -0.172736 0.00869775  0.0613685 -0.18804 0.00711536  0.0606389 -0.175231 0.00651264  0.0486795 -0.170511 0.00733566  0.0492692 -0.185818 0.00600266  0.0488429 -0.17301 0.00548768  0.0605446 -0.174073 0.00760269  0.0487903 -0.171852 0.00640917  0.0495348 -0.213425 0.00598669  0.0497241 -0.215457 0.00447965  0.0617973 -0.201091 0.00760293  0.062379 -0.21672 0.00618768  0.0620813 -0.203272 0.00569153  0.049438 -0.198874 0.00642538  0.0496573 -0.214506 0.00522995  0.049621 -0.201058 0.00480604  0.0619789 -0.202259 0.00664496  0.0495554 -0.200044 0.00561285  0.0492134 -0.243114 0.0051589  0.0494196 -0.244858 0.00386405  0.0623991 -0.230374 0.00657558  0.062597 -0.246241 0.00532222  0.0626918 -0.23226 0.00492501  0.0494592 -0.228167 0.00556922  0.0493438 -0.244038 0.00450993  0.0496557 -0.230055 0.00416756  0.0625826 -0.231383 0.00574827  0.0495842 -0.229178 0.00486636  0.0482708 -0.273445 0.00439239  0.0484877 -0.274926 0.00329018  0.0622514 -0.260392 0.00562024  0.0621082 -0.276416 0.00451827  0.0625523 -0.262003 0.00421119  0.0488174 -0.258199 0.00477314  0.0484058 -0.274229 0.00383854  0.0490304 -0.259811 0.00357318  0.0624378 -0.261253 0.00491381  0.0489482 -0.259061 0.00417089  0.0467763 -0.304271 0.00368524  0.0470045 -0.305506 0.00276494  0.0614377 -0.290973 0.00473714  0.0609896 -0.307088 0.00378132  0.0617421 -0.292328 0.0035522  0.0475903 -0.288797 0.004035  0.0469157 -0.304921 0.0032239  0.0478113 -0.290153 0.00302291  0.0616235 -0.291696 0.00414276  0.0477254 -0.289522 0.0035274  0.0448089 -0.335432 0.00304389  0.0450401 -0.336445 0.00228453  0.0600383 -0.321962 0.00393057  0.059325 -0.338108 0.00310969  0.0603436 -0.323082 0.00294971  0.0458497 -0.319807 0.00336146  0.0449486 -0.335964 0.00266171  0.0460808 -0.32093 0.00252032  0.0602224 -0.322559 0.00343871  0.0459874 -0.320406 0.00293875  0.0424323 -0.366814 0.00246191  0.0426664 -0.367625 0.00185347  0.0581312 -0.353223 0.00319815  0.0571856 -0.369351 0.00250435  0.0584325 -0.35413 0.00240421  0.0436696 -0.351093 0.0027492  0.0425725 -0.367236 0.00215626  0.0439014 -0.352004 0.00206375  0.0583109 -0.353705 0.00279951  0.0438081 -0.351579 0.00240517  0.0397186 -0.398292 0.00194812  0.0399461 -0.398925 0.00146794  0.0557926 -0.384638 0.00254416  0.0546505 -0.400704 0.00196695  0.0560839 -0.385353 0.00191522  0.0411165 -0.382536 0.0022018  0.039854 -0.39862 0.00170565  0.0413482 -0.383258 0.00165582  0.0559649 -0.385016 0.0022285  0.0412519 -0.382919 0.0019269  0.036725 -0.429783 0.00149441  0.0369434 -0.430257 0.00113368  0.0530918 -0.416102 0.00196648  0.0517809 -0.432074 0.00149775  0.0533681 -0.416647 0.00148654  0.0382555 -0.414032 0.00171661  0.0368543 -0.430023 0.00131297  0.0384777 -0.414585 0.00129533  0.0532541 -0.416389 0.0017252  0.0383861 -0.414325 0.00150466  0.0335133 -0.461188 0.00111079  0.0337143 -0.461531 0.000846148  0.0500963 -0.447526 0.0014689  0.0486479 -0.463375 0.00109911  0.0503521 -0.447924 0.0011158  0.035146 -0.445489 0.00129914  0.0336311 -0.46136 0.000976086  0.035357 -0.445897 0.000985384  0.0502455 -0.447734 0.00129128  0.0352671 -0.445704 0.00114059  0.0301299 -0.492455 0.000787735  0.0303133 -0.492686 0.000609875  0.0468686 -0.478837 0.00105071  0.0453062 -0.494545 0.000769854  0.0470986 -0.479111 0.000807047  0.0318425 -0.476833 0.000944614  0.0302365 -0.492565 0.000697613  0.0320334 -0.477119 0.000722885  0.0470009 -0.478977 0.000927448  0.0319529 -0.476983 0.000832796  0.0266263 -0.523513 0.000529289  0.0267851 -0.523661 0.000418901  0.0434654 -0.509971 0.000710249  0.041816 -0.525526 0.00050807  0.0436656 -0.510147 0.000555277  0.0283935 -0.508001 0.00065589  0.0267169 -0.523579 0.000472069  0.0285652 -0.50819 0.000510216  0.0435786 -0.510058 0.000632048  0.0284898 -0.508098 0.000581503  0.02303 -0.554334 0.00032115  0.023174 -0.554423 0.000269413  0.0399358 -0.540882 0.000443697  0.0382195 -0.556284 0.000306606  0.0401068 -0.540988 0.000360966  0.0248396 -0.538945 0.000422239  0.0231102 -0.554367 0.000294924  0.0249887 -0.539062 0.0003407  0.0400288 -0.54093 0.000401258  0.0249228 -0.539003 0.000380993  0.0193784 -0.584888 0.000148296  0.0195127 -0.584947 0.00014472  0.03632 -0.57154 0.000239849  0.034564 -0.586802 0.00014782  0.0364685 -0.571607 0.000210762  0.0212123 -0.569634 0.000237703  0.0194535 -0.584907 0.000145674  0.0213504 -0.569707 0.000205994  0.0363986 -0.571568 0.000224829  0.0212862 -0.569667 0.000221014  0.0157037 -0.615201 -2.76566e-05  0.0158498 -0.615257 2.7895e-05  0.0326514 -0.601956 7.03335e-05  0.0308874 -0.617127 1.43051e-06  0.0327919 -0.602014 8.55923e-05  0.0175414 -0.600063 7.00951e-05  0.0157886 -0.615217 2.86102e-06  0.0176783 -0.600119 8.79765e-05  0.032726 -0.60198 7.77245e-05  0.0176179 -0.600089 7.93934e-05  0 0 0  0.0117423 -0.00940067 0.0141795  0.00884487 -0.012363 0.00838947  0 0 0  0.0065553 -0.00823104 0.0105965  0.0129823 -0.0149287 0.0123029  0.00494081 -0.0103515 0.00553966  0 0 0  0.00472429 -0.00496668 0.00915408  0.00970501 -0.0111021 0.0110362  0.00298564 -0.00665545 0.00476742  0 0 0  0.00504436 -0.00908667 0.00743341  0.00320145 -0.00585431 0.00640965  0.0229693 -0.0189708 0.0170691  0.021098 -0.0229661 0.0122306  0.0217356 -0.0167608 0.0181432  0.0265329 -0.0241263 0.0167229  0.019258 -0.020812 0.0122592  0.0177464 -0.0138866 0.0159822  0.0219316 -0.0211657 0.0147088  0.0151545 -0.0174567 0.0107901  0.0201703 -0.0191201 0.0151663  0.016197 -0.0158918 0.0133727  0.0327634 -0.0314471 0.0178676  0.0319534 -0.035693 0.0132229  0.0331891 -0.0275691 0.0202198  0.0383108 -0.0366762 0.0177252  0.0319424 -0.0320007 0.0147102  0.0279312 -0.0247939 0.0177002  0.0323949 -0.0337568 0.0155659  0.0266904 -0.0289657 0.0129375  0.0325307 -0.0300241 0.0174818  0.0272932 -0.027082 0.0153527  0.0417961 -0.0471236 0.0173779  0.0415457 -0.0513028 0.0129983  0.044 -0.0417051 0.0202219  0.0489978 -0.052249 0.0172975  0.0434642 -0.0460641 0.0150199  0.0373951 -0.0388924 0.0177205  0.0417498 -0.0493833 0.0151985  0.0369039 -0.0431335 0.0132101  0.0438069 -0.0440849 0.017628  0.0372123 -0.0412014 0.0154822  0.0498643 -0.0656689 0.0162966  0.0499144 -0.0696265 0.0122221  0.0538424 -0.0588737 0.0192277  0.0584568 -0.0706424 0.0162148  0.0537208 -0.0629979 0.0143812  0.0459605 -0.0560495 0.0168803  0.0499759 -0.0678025 0.0142629  0.0458837 -0.060132 0.0126534  0.0538829 -0.0611106 0.0168061  0.0460066 -0.058263 0.0147736  0.0568499 -0.0867265 0.0149589  0.0570563 -0.0903805 0.0112164  0.062555 -0.0787165 0.0177889  0.0666349 -0.0914949 0.0148678  0.0626493 -0.082531 0.0133336  0.053499 -0.0758985 0.0156422  0.057037 -0.0886899 0.0130861  0.0536411 -0.0797114 0.0117354  0.0627102 -0.0807788 0.0155594  0.0536538 -0.0779593 0.0136895  0.062701 -0.109913 0.0135295  0.062983 -0.113237 0.0101407  0.0700271 -0.10086 0.0161803  0.0735152 -0.114473 0.0134292  0.0702396 -0.104335 0.0121307  0.0599204 -0.0980639 0.0142457  0.0629208 -0.111697 0.0118327  0.0601705 -0.101555 0.0106814  0.0702351 -0.102736 0.0141516  0.0601264 -0.0999483 0.0124609  0.0674107 -0.13492 0.012105  0.0677328 -0.137902 0.00906491  0.0762451 -0.124967 0.0145342  0.0791219 -0.139252 0.0120022  0.0765111 -0.128095 0.0108969  0.0651982 -0.1222 0.0128105  0.0676454 -0.136517 0.0105808  0.0655046 -0.125354 0.00959897  0.0764767 -0.126654 0.0127106  0.0654253 -0.123899 0.0112007  0.0710222 -0.161439 0.0107219  0.0713619 -0.164089 0.00802851  0.0812212 -0.150726 0.0129256  0.0835097 -0.165557 0.0106177  0.0815221 -0.153513 0.00968909  0.0693527 -0.147996 0.0114052  0.0712616 -0.162857 0.00937223  0.069684 -0.150812 0.00854063  0.0814623 -0.15223 0.0113025  0.069589 -0.149513 0.00996804  0.0735904 -0.189229 0.00940752  0.073944 -0.191556 0.00704217  0.0850248 -0.177871 0.0113814  0.0867494 -0.193123 0.00930762  0.0853386 -0.18033 0.00853443  0.0724338 -0.175182 0.0100543  0.0738332 -0.190471 0.00822115  0.0727819 -0.17767 0.00752807  0.0852695 -0.179197 0.00995278  0.072673 -0.176521 0.00878692  0.0751998 -0.21804 0.00816703  0.0755577 -0.220066 0.00611687  0.0877193 -0.206151 0.00992322  0.0889279 -0.221729 0.00806999  0.088048 -0.208299 0.00744271  0.074512 -0.203509 0.00877714  0.0754412 -0.219121 0.00713921  0.0748675 -0.205685 0.00657177  0.0879641 -0.20731 0.00867867  0.074753 -0.20468 0.00766969  0.0759274 -0.247685 0.00701332  0.0762917 -0.249424 0.0052526  0.0894042 -0.235354 0.00855517  0.0901357 -0.251163 0.00692105  0.0897369 -0.237209 0.00642252  0.07567 -0.232762 0.00757885  0.0761685 -0.248611 0.00612974  0.0760322 -0.234644 0.00567651  0.0896485 -0.236355 0.0074842  0.0759091 -0.233774 0.00662374  0.0758666 -0.277965 0.00593877  0.0762302 -0.27944 0.00445318  0.0901613 -0.265281 0.00728607  0.090467 -0.281247 0.00585103  0.0905029 -0.266862 0.0054729  0.0759926 -0.262746 0.00646567  0.0761048 -0.27875 0.00519419  0.0763556 -0.264352 0.00484443  0.0904031 -0.266134 0.00637579  0.0762308 -0.263611 0.005651  0.0750995 -0.308732 0.00495744  0.0754639 -0.30996 0.00371766  0.090095 -0.295766 0.00611138  0.0900149 -0.311815 0.00487399  0.0904349 -0.297092 0.00459766  0.0755675 -0.293289 0.00543618  0.0753341 -0.309383 0.00433469  0.0759326 -0.29464 0.00407624  0.0903343 -0.296481 0.00535059  0.0758017 -0.294015 0.00475311  0.0737194 -0.339826 0.00405955  0.0740747 -0.340831 0.00305033  0.0892893 -0.326647 0.00504112  0.0888731 -0.342728 0.00397992  0.0896317 -0.32774 0.00379729  0.0744832 -0.324236 0.004498  0.0739462 -0.340357 0.00355339  0.0748425 -0.325351 0.00337553  0.0895224 -0.327237 0.00441599  0.0747129 -0.324836 0.00393295  0.0718024 -0.371136 0.00325561  0.072149 -0.371935 0.00244808  0.087847 -0.357799 0.00406909  0.0871303 -0.373854 0.0031817  0.0881796 -0.358678 0.00307417  0.0728245 -0.355453 0.00364518  0.072021 -0.371555 0.00284934  0.0731769 -0.356355 0.00274014  0.0880721 -0.358272 0.00356841  0.0730453 -0.355936 0.0031898  0.0694356 -0.402534 0.00253749  0.0697629 -0.403154 0.00191522  0.0858455 -0.389095 0.00320435  0.0848742 -0.405091 0.00246668  0.08617 -0.389783 0.00242686  0.0706728 -0.386819 0.00288582  0.0696409 -0.402857 0.00222492  0.0710096 -0.387528 0.00217295  0.0860589 -0.389465 0.00281239  0.0708835 -0.387199 0.00252581  0.0666878 -0.433944 0.0019145  0.0669937 -0.434401 0.00144935  0.0833809 -0.420443 0.00243926  0.0821846 -0.436338 0.00184894  0.083684 -0.420959 0.00185966  0.0681069 -0.418235 0.00221395  0.0668778 -0.434177 0.00167942  0.0684249 -0.418772 0.00167346  0.0835795 -0.420719 0.00214648  0.0683022 -0.418521 0.00194073  0.063638 -0.465266 0.00138402  0.0639122 -0.465588 0.00105762  0.0805204 -0.451748 0.00178337  0.0791423 -0.467523 0.00132227  0.0808036 -0.452116 0.00136995  0.0651991 -0.44961 0.0016377  0.0638068 -0.465427 0.00121951  0.0654886 -0.449998 0.00124454  0.0807006 -0.451943 0.00157404  0.065377 -0.449816 0.00143766  0.0603456 -0.496451 0.000949621  0.0605884 -0.49666 0.000734091  0.0773532 -0.482944 0.00123453  0.0758197 -0.498575 0.000896692  0.0776036 -0.483187 0.000965595  0.0620201 -0.480872 0.00115347  0.0604925 -0.496549 0.000839949  0.0622797 -0.481135 0.00088644  0.077513 -0.48307 0.00109768  0.0621755 -0.481008 0.00101733  0.0568793 -0.52743 0.000602484  0.0570841 -0.527556 0.000481844  0.07394 -0.513966 0.000796318  0.0722895 -0.529453 0.000560045  0.074162 -0.514114 0.000640869  0.0586329 -0.511958 0.000764847  0.0570006 -0.527483 0.000541449  0.0588558 -0.512123 0.000598907  0.0740743 -0.514039 0.000716686  0.0587656 -0.512042 0.000679016  0.0532894 -0.55818 0.000348091  0.0534623 -0.558252 0.000292063  0.0703597 -0.54478 0.000461817  0.0686204 -0.560119 0.000320911  0.0705462 -0.544861 0.000397921  0.0550981 -0.542826 0.000464201  0.0533872 -0.558203 0.000318527  0.0552869 -0.542923 0.000379086  0.0704682 -0.544814 0.000428438  0.0552051 -0.542872 0.000419855  0.0496323 -0.588676 0.000157595  0.049777 -0.588734 0.000151634  0.0666709 -0.575353 0.000237465  0.0648892 -0.590581 0.000153542  0.0668323 -0.575407 0.000223875  0.0514696 -0.573448 0.00024724  0.049711 -0.588693 0.00015521  0.051625 -0.573509 0.000217199  0.0667565 -0.575374 0.000230074  0.0515544 -0.573475 0.000230312  0.0459356 -0.619005 -2.86102e-06  0.0460749 -0.61906 2.57492e-05  0.0629537 -0.605723 8.60691e-05  0.0611606 -0.620907 2.00272e-05  0.0630882 -0.605786 9.56059e-05  0.0477889 -0.603844 7.7486e-05  0.0460112 -0.619023 1.16825e-05  0.0479288 -0.603904 8.82149e-05  0.0630231 -0.605754 8.60691e-05  0.0478609 -0.603872 8.15392e-05  -0.0122181 -0.0147471 -0.00802517  -0.00546361 -0.00988918 -0.00342369  0 0 0  -0.00807317 -0.0115089 -0.00525236  0 0 0  -0.00557072 -0.00750301 -0.00588799  -0.00190952 -0.00378989 -0.0024817  0 0 0  -0.00527326 -0.00926613 -0.00456572  -0.00813323 -0.0106642 -0.00692225  -0.00277364 -0.00591019 -0.00288844  0 0 0  -0.00193537 -0.0034261 -0.00331426  -0.00276217 -0.00547621 -0.00384617  -0.0251591 -0.0230213 -0.0122528  -0.0187974 -0.0198411 -0.00808954  -0.0195887 -0.0214255 -0.00825286  -0.0152988 -0.0174008 -0.00915122  -0.0100478 -0.0132555 -0.00601459  -0.0187419 -0.018502 -0.0105753  -0.0197919 -0.0200552 -0.0106671  -0.0138313 -0.0163245 -0.00703239  -0.0102836 -0.0122664 -0.00785041  -0.0139783 -0.0151616 -0.00917697  -0.037728 -0.0337609 -0.0135427  -0.0313734 -0.0296188 -0.0102961  -0.0308816 -0.0328324 -0.00933051  -0.0250129 -0.0292187 -0.010108  -0.0200104 -0.0243031 -0.00770068  -0.0314977 -0.0280381 -0.0131719  -0.0310096 -0.0313107 -0.0117986  -0.0252902 -0.0268095 -0.00898194  -0.0202369 -0.0229748 -0.00982118  -0.0254847 -0.0253417 -0.0114653  -0.0496908 -0.0473105 -0.013227  -0.0437445 -0.0417742 -0.0107362  -0.0416053 -0.0468352 -0.00922418  -0.0341383 -0.0437094 -0.00987983  -0.0295983 -0.0375335 -0.00803661  -0.043799 -0.040188 -0.0135162  -0.0415658 -0.0453569 -0.0115352  -0.0363224 -0.0394976 -0.00937462  -0.0296371 -0.0361259 -0.0100849  -0.0363673 -0.0379938 -0.0117779  -0.0609201 -0.0635087 -0.0122173  -0.0554726 -0.0565756 -0.0102289  -0.0517005 -0.0633841 -0.00856113  -0.0427982 -0.0607716 -0.00911951  -0.0386553 -0.0532916 -0.00765562  -0.0553991 -0.0551001 -0.012779  -0.0515183 -0.0620171 -0.0106592  -0.0467302 -0.0547998 -0.00893474  -0.0385216 -0.0519331 -0.00953794  -0.0466142 -0.0533807 -0.0111449  -0.0714349 -0.0820696 -0.010952  -0.0664434 -0.0738435 -0.00931621  -0.0611975 -0.0822262 -0.00768471  -0.0510581 -0.0801234 -0.00817609  -0.0472308 -0.0714277 -0.00696492  -0.0662636 -0.0725188 -0.0116041  -0.0609211 -0.0810027 -0.00955749  -0.0565193 -0.0725293 -0.00813603  -0.0469735 -0.0701765 -0.00865841  -0.0562858 -0.0712411 -0.010123  -0.081277 -0.102686 -0.00965333  -0.0766894 -0.0933056 -0.00827861  -0.070139 -0.103098 -0.00676608  -0.0589533 -0.101489 -0.0071919  -0.0553766 -0.091691 -0.00617766  -0.0764384 -0.0921399 -0.0103047  -0.0698108 -0.102017 -0.00841951  -0.0657353 -0.0924177 -0.0072248  -0.0550501 -0.0905679 -0.00768137  -0.0654284 -0.091274 -0.00898838  -0.0905008 -0.125121 -0.00840712  -0.0862471 -0.114711 -0.00724626  -0.0785649 -0.125755 -0.00588322  -0.0665028 -0.124608 -0.00625968  -0.0631266 -0.113831 -0.00539637  -0.085963 -0.113697 -0.00902534  -0.0782204 -0.124814 -0.0073297  -0.0744116 -0.114211 -0.00631809  -0.0627683 -0.11284 -0.00671768  -0.0740738 -0.11321 -0.0078671  -0.0991461 -0.149132 -0.00726008  -0.0951895 -0.137819 -0.00627732  -0.086517 -0.149977 -0.00506735  -0.0737221 -0.149261 -0.00538826  -0.0705132 -0.137617 -0.00466228  -0.0948948 -0.136944 -0.00782633  -0.0861758 -0.149161 -0.00632262  -0.082598 -0.137676 -0.00546646  -0.0701532 -0.136753 -0.00581384  -0.0822536 -0.136808 -0.0068171  -0.107257 -0.174531 -0.0062077  -0.103551 -0.162425 -0.00538731  -0.0940257 -0.175561 -0.00432253  -0.0806227 -0.175239 -0.00460243  -0.0775563 -0.162839 -0.0039897  -0.103266 -0.161675 -0.00672626  -0.0937036 -0.174863 -0.00540304  -0.0903221 -0.162604 -0.00468636  -0.0772092 -0.162093 -0.00498486  -0.0899918 -0.161857 -0.00585318  -0.11486 -0.201117 -0.00525546  -0.111389 -0.188326 -0.00457859  -0.10112 -0.202322 -0.0036478  -0.0872149 -0.202359 -0.00388002  -0.0842779 -0.189302 -0.00338006  -0.111122 -0.187688 -0.00572467  -0.100822 -0.201726 -0.00456762  -0.097623 -0.188798 -0.00397754  -0.0839571 -0.188664 -0.00423169  -0.0973134 -0.188162 -0.00497699  -0.121988 -0.228732 -0.00439  -0.118722 -0.215348 -0.00384569  -0.107819 -0.230084 -0.00303841  -0.0935063 -0.230442 -0.00323701  -0.0906876 -0.216827 -0.0028286  -0.118482 -0.214811 -0.00481677  -0.107552 -0.229584 -0.00381255  -0.104514 -0.216082 -0.00333524  -0.0903952 -0.216287 -0.00354934  -0.104235 -0.215544 -0.00418139  -0.128662 -0.257195 -0.003613  -0.125597 -0.243315 -0.00318432  -0.114145 -0.258685 -0.00248909  -0.0995064 -0.259331 -0.00264788  -0.0968016 -0.245244 -0.00233197  -0.125382 -0.242868 -0.0039959  -0.113908 -0.258267 -0.00313115  -0.111027 -0.244282 -0.0027566  -0.0965424 -0.244792 -0.00293398  -0.110776 -0.243833 -0.0034647  -0.134909 -0.286374 -0.0029099  -0.132023 -0.272075 -0.00258827  -0.120113 -0.287971 -0.00199533  -0.105221 -0.288868 -0.00212884  -0.102625 -0.274397 -0.00188518  -0.131837 -0.271709 -0.00325632  -0.119908 -0.287631 -0.00251818  -0.11717 -0.273245 -0.00223589  -0.102396 -0.274025 -0.00238013  -0.116952 -0.272876 -0.00281763  -0.140749 -0.316106 -0.00228691  -0.138041 -0.301473 -0.00205517  -0.125743 -0.317801 -0.0015564  -0.110662 -0.318919 -0.00165749  -0.108171 -0.304136 -0.00148606  -0.13788 -0.301179 -0.00259352  -0.125567 -0.317527 -0.00197315  -0.122969 -0.302819 -0.0017693  -0.107975 -0.303835 -0.00188446  -0.122779 -0.302522 -0.00223923  -0.146212 -0.346279 -0.00173354  -0.143659 -0.33138 -0.00158191  -0.13105 -0.348045 -0.00116944  -0.115836 -0.349349 -0.00125122  -0.113447 -0.334329 -0.00113297  -0.143526 -0.33115 -0.00200629  -0.130903 -0.347832 -0.00149226  -0.128433 -0.332873 -0.00135684  -0.113279 -0.334091 -0.00144625  -0.128274 -0.332638 -0.00172591  -0.151319 -0.376755 -0.00125599  -0.148921 -0.361661 -0.00116754  -0.136058 -0.378584 -0.000831842  -0.12076 -0.380044 -0.000888586  -0.118467 -0.364851 -0.000823021  -0.14881 -0.361486 -0.00149035  -0.135935 -0.378419 -0.00107312  -0.13359 -0.363278 -0.000994921  -0.118329 -0.364667 -0.00106168  -0.133456 -0.363098 -0.00127721  -0.156105 -0.407442 -0.00084281  -0.153838 -0.39221 -0.000808716  -0.140785 -0.40931 -0.00054431  -0.125445 -0.410896 -0.000588655  -0.123242 -0.39559 -0.000556469  -0.15375 -0.392083 -0.00104499  -0.140687 -0.409191 -0.000715494  -0.138452 -0.393924 -0.000682116  -0.123128 -0.395454 -0.000730276  -0.138345 -0.393791 -0.000887394  -0.160595 -0.438228 -0.000504971  -0.158458 -0.422916 -0.000507355  -0.145262 -0.440128 -0.000305653  -0.129911 -0.441815 -0.000330448  -0.127795 -0.426447 -0.000331879  -0.158387 -0.422829 -0.000669718  -0.14518 -0.440043 -0.000418663  -0.143053 -0.424706 -0.00041914  -0.127704 -0.426349 -0.000451803  -0.142965 -0.424614 -0.000561714  -0.164831 -0.469043 -0.000230789  -0.162797 -0.453695 -0.000261068  -0.149512 -0.470954 -0.000114679  -0.134178 -0.472713 -0.000133276  -0.132138 -0.457332 -0.000148296  -0.162742 -0.453641 -0.000364065  -0.149449 -0.4709 -0.00018239  -0.14741 -0.455539 -0.000204086  -0.132066 -0.457268 -0.000223875  -0.147341 -0.455478 -0.00029397  -0.168851 -0.499799 -3.14713e-05  -0.166914 -0.484461 -7.10487e-05  -0.153575 -0.501718 2.81334e-05  -0.138272 -0.503528 2.43187e-05  -0.136301 -0.488171 -5.72205e-06  -0.166867 -0.484433 -0.000127792  -0.153522 -0.501682 -4.76837e-06  -0.151565 -0.48634 -3.79086e-05  -0.136245 -0.488132 -4.72069e-05  -0.151508 -0.486305 -8.86917e-05  -0.172709 -0.530457 0.000112772  -0.170836 -0.51516 6.74725e-05  -0.157485 -0.532365 0.000132322  -0.14222 -0.534202 0.000131607  -0.140306 -0.518903 0.000100613  -0.170797 -0.515148 4.31538e-05  -0.15744 -0.532346 0.000122547  -0.155544 -0.517052 8.4877e-05  -0.14026 -0.518882 8.41618e-05  -0.155497 -0.517034 6.38962e-05  -0.176465 -0.560971 0.000205755  -0.174639 -0.545736 0.000163078  -0.161294 -0.562868 0.000208139  -0.146057 -0.564711 0.000220537  -0.144189 -0.549486 0.000178814  -0.174597 -0.545734 0.000158548  -0.161249 -0.562851 0.000213146  -0.159399 -0.547628 0.000172377  -0.14415 -0.549475 0.000179052  -0.159356 -0.54762 0.000169039  -0.180194 -0.591379 0.000291586  -0.178371 -0.576191 0.000234604  -0.165052 -0.593248 0.000278473  -0.149834 -0.595063 0.000294447  -0.147987 -0.57991 0.000244379  -0.178329 -0.576189 0.000243187  -0.165011 -0.593231 0.000295877  -0.163173 -0.578064 0.000242472  -0.147946 -0.579902 0.000257969  -0.163132 -0.578056 0.000253201  -0.0039601 -0.00617826 -0.00371766  0 0 0  -0.00293078 -0.00437202 -0.00395799  -0.000982154 -0.00174326 -0.00164676  0 0 0  -0.00410502 -0.00557743 -0.00492191  -0.00133938 -0.00251782 -0.00205135  0 0 0  -0.00100628 -0.00148885 -0.00221515  -0.00136706 -0.00221923 -0.00275087  -0.0113586 -0.016319 -0.00592756  -0.00850798 -0.0136974 -0.00616908  -0.00532554 -0.00935856 -0.00404596  -0.0116184 -0.0152555 -0.00766444  -0.00741424 -0.0109287 -0.00502777  -0.00551625 -0.00861874 -0.00528932  -0.0076451 -0.0100846 -0.00656676  -0.0195117 -0.0287868 -0.00670123  -0.0148241 -0.0261793 -0.00679922  -0.0114757 -0.020668 -0.00519037  -0.0196421 -0.0275034 -0.00845981  -0.015446 -0.0222364 -0.00645065  -0.0116586 -0.0195881 -0.00661588  -0.0156634 -0.021046 -0.00822353  -0.0273806 -0.0436987 -0.00660658  -0.0210246 -0.0413632 -0.00660968  -0.0179316 -0.0346685 -0.00539923  -0.0273201 -0.042372 -0.00824428  -0.0234922 -0.035916 -0.00672197  -0.0179495 -0.0334396 -0.00676489  -0.0235256 -0.0346058 -0.00842738  -0.0348813 -0.0610494 -0.00611377  -0.0270478 -0.0590615 -0.0060792  -0.0241944 -0.0511567 -0.00512075  -0.0346738 -0.0597796 -0.00760031  -0.0311734 -0.0520694 -0.00638962  -0.0240542 -0.0499122 -0.00636983  -0.0310329 -0.0507743 -0.00795412  -0.0420651 -0.0806197 -0.00547242  -0.0329468 -0.0790076 -0.00542712  -0.0302574 -0.0699531 -0.00463915  -0.0417652 -0.0794492 -0.00679994  -0.038507 -0.0705605 -0.00580239  -0.0300097 -0.0687685 -0.00576091  -0.0382489 -0.0693478 -0.00720978  -0.0489767 -0.102169 -0.00480413  -0.0387554 -0.100938 -0.00475907  -0.0361705 -0.0908263 -0.00409698  -0.0486303 -0.10112 -0.00597715  -0.045552 -0.0911505 -0.00513768  -0.0358611 -0.0897392 -0.00509262  -0.0452248 -0.0900508 -0.006387  -0.055642 -0.125454 -0.00416374  -0.0444788 -0.124596 -0.00412107  -0.041961 -0.113538 -0.00356174  -0.0552815 -0.124525 -0.0051899  -0.052336 -0.113596 -0.00447893  -0.0416273 -0.112563 -0.00443554  -0.0519815 -0.112618 -0.00557756  -0.0620782 -0.15026 -0.00357223  -0.0501159 -0.14976 -0.00353265  -0.0476434 -0.137861 -0.00306034  -0.0617253 -0.149451 -0.0044632  -0.0588866 -0.137668 -0.00386143  -0.0473084 -0.137002 -0.00382113  -0.0585293 -0.136811 -0.00481844  -0.0682931 -0.176379 -0.00303459  -0.0556544 -0.176215 -0.00299788  -0.0532172 -0.163584 -0.00260353  -0.0679604 -0.175679 -0.00379968  -0.0652095 -0.163155 -0.00329709  -0.0528973 -0.162836 -0.00325918  -0.0648682 -0.162412 -0.00412369  -0.0742937 -0.203629 -0.00254893  -0.0610877 -0.203776 -0.0025146  -0.0586817 -0.19051 -0.00219059  -0.0739884 -0.203033 -0.00320053  -0.0713186 -0.189862 -0.00278616  -0.0583845 -0.189867 -0.0027504  -0.0710002 -0.189226 -0.00349283  -0.0800811 -0.231829 -0.00211096  -0.0664022 -0.232259 -0.00207901  -0.064028 -0.218457 -0.00181866  -0.0798062 -0.231323 -0.00265813  -0.0772104 -0.217609 -0.00232482  -0.0637597 -0.21791 -0.0022912  -0.076923 -0.21707 -0.00292277  -0.0856589 -0.260822 -0.00171733  -0.0715923 -0.261505 -0.001688  -0.0692525 -0.247254 -0.00148463  -0.0854156 -0.260401 -0.00217152  -0.0828944 -0.246225 -0.00190926  -0.0690132 -0.246795 -0.0018785  -0.0826371 -0.245774 -0.00240803  -0.0910261 -0.290448 -0.00136566  -0.0766448 -0.291357 -0.00133896  -0.0743442 -0.276742 -0.00118613  -0.0908138 -0.290101 -0.00173426  -0.0883651 -0.275553 -0.00153661  -0.0741354 -0.276362 -0.00150847  -0.0881405 -0.275181 -0.00194669  -0.096186 -0.320573 -0.00105238  -0.0815586 -0.32168 -0.00102878  -0.0792996 -0.306775 -0.000920057  -0.0960044 -0.320295 -0.00134683  -0.0936302 -0.305445 -0.00120425  -0.0791194 -0.306466 -0.00117946  -0.0934347 -0.305144 -0.00153422  -0.101141 -0.351064 -0.000777245  -0.0863234 -0.35234 -0.000756741  -0.0841107 -0.337219 -0.000685453  -0.100988 -0.350843 -0.0010047  -0.0986851 -0.335769 -0.000910521  -0.083959 -0.336973 -0.000888348  -0.098521 -0.335531 -0.00116992  -0.105898 -0.381808 -0.000537872  -0.0909426 -0.383227 -0.00052166  -0.088778 -0.367951 -0.000479937  -0.105771 -0.38164 -0.00070858  -0.103542 -0.3664 -0.000653267  -0.0886513 -0.367761 -0.00063467  -0.103404 -0.366217 -0.000850677  -0.110465 -0.412695 -0.000334024  -0.095412 -0.414234 -0.000320911  -0.0932972 -0.398862 -0.000304699  -0.110361 -0.412569 -0.000455141  -0.108201 -0.397228 -0.000431538  -0.093195 -0.398719 -0.000416756  -0.108089 -0.397092 -0.000576496  -0.114853 -0.44364 -0.000164509  -0.0997405 -0.445272 -0.000155449  -0.0976753 -0.429854 -0.000156641  -0.11477 -0.443551 -0.000246286  -0.112679 -0.428154 -0.000245333  -0.0975935 -0.429752 -0.000234127  -0.112587 -0.428059 -0.000344992  -0.119075 -0.474554 -3.02792e-05  -0.103929 -0.47626 -2.36034e-05  -0.101914 -0.460843 -3.6478e-05  -0.11901 -0.474493 -7.84397e-05  -0.11698 -0.459093 -9.32217e-05  -0.101851 -0.460775 -8.53539e-05  -0.116909 -0.45903 -0.000156879  -0.123149 -0.505379 7.36713e-05  -0.107991 -0.507139 7.84397e-05  -0.106024 -0.491757 5.81741e-05  -0.123097 -0.505342 4.86374e-05  -0.121128 -0.489969 2.55108e-05  -0.105975 -0.491715 3.0756e-05  -0.121071 -0.489932 -9.77516e-06  -0.127093 -0.536056 0.000150681  -0.111931 -0.537853 0.00015521  -0.110012 -0.52254 0.000129938  -0.12705 -0.536032 0.000144243  -0.125133 -0.520726 0.000114679  -0.109975 -0.522517 0.000119448  -0.125088 -0.520707 9.98974e-05  -0.130935 -0.566563 0.000212908  -0.115773 -0.568374 0.000218153  -0.113895 -0.553148 0.000185966  -0.130896 -0.566549 0.000219584  -0.129023 -0.55132 0.00018239  -0.113863 -0.553138 0.000187397  -0.128984 -0.551313 0.000183344  -0.134718 -0.596891 0.000271559  -0.11955 -0.598672 0.000280142  -0.117694 -0.583558 0.000234842  -0.134676 -0.596873 0.00029254  -0.132825 -0.581737 0.00024128  -0.117664 -0.58355 0.000248194  -0.132788 -0.581733 0.000255108  -0.00189798 -0.00412866 -0.0022409  0 0 0  -0.00116434 -0.00328848 -0.001966  -0.000388812 -0.00106251 -0.000818253  0 0 0  -0.00198347 -0.00366235 -0.0029664  -0.000647381 -0.00129011 -0.00123382  0 0 0  -0.00039776 -0.000864685 -0.00109625  -0.000665873 -0.00107333 -0.00165796  -0.00573452 -0.013528 -0.00359106  -0.00352339 -0.0121081 -0.0030911  -0.00215842 -0.00778639 -0.00202751  -0.00588803 -0.0126708 -0.00463772  -0.00363833 -0.00834566 -0.00304151  -0.00223264 -0.00717506 -0.00264025  -0.0037732 -0.00768468 -0.00397015  -0.0104214 -0.0263715 -0.00406218  -0.00645721 -0.0247663 -0.00342274  -0.00489387 -0.0189747 -0.00261879  -0.0104823 -0.0252655 -0.0051167  -0.00803152 -0.0195853 -0.00391102  -0.00494984 -0.0180393 -0.00332618  -0.00815544 -0.0185926 -0.00497746  -0.0152402 -0.0418936 -0.00399041  -0.00961214 -0.0403656 -0.00332069  -0.00805989 -0.0333423 -0.00272655  -0.0151592 -0.040689 -0.00496864  -0.0128327 -0.0338061 -0.00406766  -0.00801498 -0.0322262 -0.0034039  -0.0128216 -0.0326446 -0.00508881  -0.0200222 -0.0598323 -0.00367403  -0.0129161 -0.0585034 -0.00303411  -0.0113896 -0.0503068 -0.00257397  -0.019828 -0.0586323 -0.00455689  -0.0176345 -0.0505642 -0.00384998  -0.0112446 -0.0491329 -0.00319076  -0.017493 -0.0493625 -0.0047822  -0.0247816 -0.0799387 -0.00326824  -0.0163807 -0.0788659 -0.00268221  -0.0148417 -0.0695652 -0.00231171  -0.0245166 -0.0788063 -0.00405526  -0.0224013 -0.0696159 -0.00347614  -0.0146261 -0.0684174 -0.00286198  -0.0221675 -0.0684552 -0.00431204  -0.0295486 -0.101999 -0.00284815  -0.0200221 -0.101209 -0.00232244  -0.0184339 -0.090876 -0.00201702  -0.0292484 -0.100962 -0.00354075  -0.0271614 -0.0907288 -0.00305724  -0.0181786 -0.0898022 -0.0025022  -0.0268765 -0.0896524 -0.00379729  -0.0343308 -0.125761 -0.00244808  -0.0238292 -0.125263 -0.00198126  -0.0221748 -0.114007 -0.0017271  -0.034022 -0.124834 -0.00305247  -0.0319359 -0.113668 -0.00264502  -0.0219047 -0.113031 -0.00214911  -0.03163 -0.112696 -0.00329351  -0.0391291 -0.151027 -0.00207996  -0.0277874 -0.150818 -0.00166821  -0.026058 -0.138734 -0.00145745  -0.0388277 -0.150209 -0.00260139  -0.0367265 -0.138209 -0.00225973  -0.0257902 -0.137863 -0.00182176  -0.0364217 -0.137347 -0.00282216  -0.0439279 -0.177571 -0.00174761  -0.0318651 -0.177641 -0.00138712  -0.0300659 -0.164842 -0.00121427  -0.0436455 -0.17686 -0.00219393  -0.041527 -0.164139 -0.00190949  -0.0298115 -0.164078 -0.00152397  -0.0412357 -0.163386 -0.00239277  -0.0487177 -0.205221 -0.00144935  -0.0360407 -0.205553 -0.00113559  -0.0341758 -0.192132 -0.000997066  -0.0484588 -0.204609 -0.00182581  -0.0463228 -0.191259 -0.00159454  -0.0339414 -0.191469 -0.00125813  -0.0460538 -0.190609 -0.00200534  -0.0534774 -0.233779 -0.0011816  -0.0402811 -0.234353 -0.000911713  -0.0383633 -0.220415 -0.000802994  -0.053246 -0.233259 -0.00149679  -0.0510999 -0.219384 -0.00131202  -0.0381527 -0.219847 -0.00102043  -0.0508561 -0.21883 -0.00165749  -0.0581963 -0.2631 -0.000943422  -0.0445656 -0.263892 -0.00071311  -0.042604 -0.249517 -0.000631094  -0.0579921 -0.262662 -0.00120187  -0.0558406 -0.248344 -0.00105882  -0.0424182 -0.249036 -0.000809431  -0.0556252 -0.247877 -0.00134516  -0.0628537 -0.293008 -0.000730515  -0.0488634 -0.293997 -0.000538349  -0.0468737 -0.279278 -0.000479937  -0.0626775 -0.292647 -0.000940084  -0.060531 -0.277977 -0.000834227  -0.0467124 -0.278877 -0.000622988  -0.0603426 -0.277589 -0.00106788  -0.0674416 -0.323386 -0.000543594  -0.0531603 -0.324547 -0.000385046  -0.0511492 -0.309551 -0.000346899  -0.0672908 -0.323092 -0.000707865  -0.0651549 -0.308137 -0.000634193  -0.0510124 -0.309222 -0.000459671  -0.0649937 -0.30782 -0.000820398  -0.0719424 -0.354084 -0.000379324  -0.0574291 -0.355395 -0.00025177  -0.0554119 -0.340201 -0.000230312  -0.0718167 -0.35385 -0.000505924  -0.0697006 -0.338689 -0.000458717  -0.0552975 -0.339935 -0.000316143  -0.0695645 -0.338437 -0.000603676  -0.0763531 -0.385007 -0.000238419  -0.0616601 -0.386445 -0.000138044  -0.0596428 -0.371107 -0.0001297  -0.0762494 -0.384824 -0.000330925  -0.0741571 -0.369514 -0.000306368  -0.0595493 -0.370898 -0.000193119  -0.0740451 -0.369317 -0.000415325  -0.0806618 -0.416032 -0.000118017  -0.0658338 -0.417576 -4.36306e-05  -0.0638278 -0.40216 -4.50611e-05  -0.0805793 -0.415896 -0.000183344  -0.0785174 -0.4005 -0.000175714  -0.0637527 -0.402 -8.86917e-05  -0.0784268 -0.400351 -0.000254393  -0.0848722 -0.447091 -1.95503e-05  -0.0699463 -0.44872 3.40939e-05  -0.067955 -0.433266 2.55108e-05  -0.0848064 -0.446991 -6.1512e-05  -0.0827768 -0.431553 -6.65188e-05  -0.0678971 -0.433148 -2.86102e-06  -0.0827055 -0.431445 -0.000119686  -0.0889769 -0.478086 5.88894e-05  -0.0739837 -0.479784 9.46522e-05  -0.0720167 -0.464344 8.27312e-05  -0.0889268 -0.478018 3.43323e-05  -0.0869348 -0.462588 2.19345e-05  -0.0719726 -0.464261 6.67572e-05  -0.0868793 -0.462515 -1.14441e-05  -0.092984 -0.508976 0.000119686  -0.0779474 -0.510725 0.000140905  -0.0760057 -0.495325 0.000125647  -0.0929451 -0.50893 0.000109196  -0.0909901 -0.493538 9.13143e-05  -0.075974 -0.49527 0.000118971  -0.0909486 -0.493492 7.41482e-05  -0.0968924 -0.53969 0.000166416  -0.0818303 -0.541475 0.000174522  -0.0799196 -0.526155 0.000159264  -0.0968618 -0.539663 0.000165224  -0.0949476 -0.524345 0.00014472  -0.0798972 -0.526121 0.000158787  -0.0949149 -0.524319 0.00013876  -0.100718 -0.570214 0.000205278  -0.0856397 -0.572011 0.000204325  -0.0837603 -0.55679 0.000184298  -0.10069 -0.570193 0.000213861  -0.0988119 -0.554968 0.000186443  -0.0837426 -0.556769 0.000188828  -0.0987859 -0.554955 0.00019002  -0.104478 -0.600487 0.00024271  -0.0893843 -0.602257 0.000234127  -0.0875332 -0.587188 0.000208378  -0.104452 -0.600462 0.00026083  -0.1026 -0.585371 0.00022316  -0.0875158 -0.587168 0.00021863  -0.102576 -0.58536 0.000236034  -0.000401258 -0.00357339 -0.000727415  0 0 0  0.000307083 -0.00328639 6.84261e-05  9.34228e-05 -0.00104278 2.90871e-05  0 0 0  -0.000410087 -0.00317585 -0.000948429  -0.000138257 -0.000985414 -0.000394821  0 0 0  0.000102095 -0.000873983 5.36442e-05  -0.000137877 -0.000808895 -0.000521183  -0.0013345 -0.0126938 -0.00119281  0.000770777 -0.0121355 3.71933e-05  0.000491545 -0.0077222 2.83718e-05  -0.0013376 -0.01194 -0.00152445  -0.000803202 -0.00758964 -0.000998735  0.000545695 -0.007173 5.84126e-05  -0.00081414 -0.00702012 -0.00128913  -0.00271356 -0.0256669 -0.00137234  0.00102463 -0.0249403 -1.23978e-05  0.000843883 -0.018995 -1.00136e-05  -0.00266266 -0.0246594 -0.00171494  -0.00197777 -0.0187822 -0.00131321  0.000937045 -0.0181297 7.15256e-06  -0.00195915 -0.0178937 -0.00165629  -0.00441578 -0.0415238 -0.00135064  0.000903785 -0.0407738 -1.88351e-05  0.000888228 -0.033572 -3.29018e-05  -0.00429422 -0.0403908 -0.00166726  -0.0035277 -0.0332618 -0.0013783  0.00101617 -0.0325158 -2.14577e-05  -0.00344196 -0.0321857 -0.0017097  -0.0064013 -0.059834 -0.00122643  0.00034821 -0.0591641 1.14441e-05  0.000523329 -0.0508008 -2.09808e-05  -0.00622219 -0.058677 -0.00150967  -0.00537258 -0.0503809 -0.0012958  0.000681996 -0.0496694 -7.62939e-06  -0.00522029 -0.0492357 -0.00159621  -0.00867146 -0.0803016 -0.00106239  -0.000653863 -0.0797923 6.17504e-05  -0.000278115 -0.0703352 1.57356e-05  -0.00845605 -0.0791901 -0.00130916  -0.0074985 -0.0697997 -0.00114679  -9.66787e-05 -0.0692129 3.52859e-05  -0.00730002 -0.0686697 -0.00141191  -0.0112308 -0.102714 -0.000891447  -0.00209576 -0.1024 0.000115871  -0.0015136 -0.0919246 6.34193e-05  -0.0109984 -0.101683 -0.00110412  -0.00991416 -0.0912685 -0.000976562  -0.00132102 -0.0908629 8.86917e-05  -0.00968909 -0.0902047 -0.00120568  -0.0140643 -0.126821 -0.000729799  -0.00394851 -0.126732 0.000165224  -0.0031659 -0.115337 0.000109911  -0.0138307 -0.12589 -0.000908852  -0.0126122 -0.114557 -0.000808954  -0.00297225 -0.114363 0.000141382  -0.0123793 -0.113585 -0.00100422  -0.017153 -0.152424 -0.000583649  -0.00618052 -0.152559 0.000204802  -0.00520599 -0.140346 0.000150204  -0.0169282 -0.151596 -0.000733852  -0.0155771 -0.139439 -0.000654459  -0.00501943 -0.139471 0.000186205  -0.0153481 -0.138569 -0.000818491  -0.0204625 -0.17929 -0.000455379  -0.00874698 -0.179654 0.000234365  -0.00759733 -0.166731 0.000181437  -0.0202546 -0.178565 -0.000577927  -0.0187793 -0.165699 -0.000517607  -0.00742412 -0.165959 0.000220537  -0.0185646 -0.164933 -0.000653267  -0.0239661 -0.207244 -0.000342607  -0.0116091 -0.207819 0.000255346  -0.0103004 -0.194286 0.000204802  -0.0237769 -0.206616 -0.000442266  -0.0221906 -0.193133 -0.000397205  -0.0101435 -0.193613 0.000245571  -0.021993 -0.192467 -0.000507355  -0.0276246 -0.236083 -0.000245571  -0.0147206 -0.236862 0.000268459  -0.0132737 -0.222819 0.000220537  -0.0274578 -0.235546 -0.000323296  -0.0257753 -0.221551 -0.000292301  -0.0131356 -0.222239 0.000262499  -0.0255992 -0.22098 -0.000380516  -0.0314105 -0.265657 -0.000161409  -0.0180442 -0.266615 0.000273228  -0.0164769 -0.25215 0.000230551  -0.0312656 -0.265203 -0.000222445  -0.0295017 -0.250777 -0.000201702  -0.0163583 -0.251658 0.00027132  -0.0293477 -0.250294 -0.000270128  -0.0352881 -0.29579 -8.96454e-05  -0.0215348 -0.296917 0.000273943  -0.0198702 -0.282116 0.000234365  -0.0351651 -0.295414 -0.000133991  -0.0333368 -0.28065 -0.000123978  -0.01977 -0.281704 0.000274181  -0.0332054 -0.280246 -0.000175953  -0.0392336 -0.326364 -2.7895e-05  -0.0251615 -0.327632 0.000269651  -0.0234153 -0.312569 0.000234842  -0.0391299 -0.326055 -5.98431e-05  -0.0372523 -0.31102 -5.74589e-05  -0.0233333 -0.312229 0.000272036  -0.0371406 -0.310689 -9.48906e-05  -0.0432149 -0.357228 2.45571e-05  -0.0288849 -0.358625 0.000263214  -0.0270778 -0.343373 0.00023222  -0.043131 -0.356981 4.05312e-06  -0.0412182 -0.341754 -2.38419e-07  -0.0270123 -0.343098 0.000267029  -0.0411268 -0.341487 -2.6226e-05  -0.0472143 -0.38829 6.91414e-05  -0.0326793 -0.38979 0.000254393  -0.0308251 -0.374408 0.000227928  -0.0471466 -0.388094 5.60284e-05  -0.0452118 -0.372731 4.76837e-05  -0.0307751 -0.374191 0.000258923  -0.0451379 -0.372521 3.19481e-05  -0.0512056 -0.419427 0.000103951  -0.0365117 -0.42102 0.000243425  -0.0346282 -0.405567 0.000221252  -0.0511541 -0.419279 9.87053e-05  -0.0492086 -0.403842 8.74996e-05  -0.0345914 -0.4054 0.000248909  -0.0491521 -0.403681 7.89165e-05  -0.0551786 -0.450575 0.000132322  -0.0403647 -0.452236 0.00023222  -0.0384622 -0.436757 0.000214577  -0.0551398 -0.450464 0.00013113  -0.0531933 -0.434995 0.000118732  -0.0384369 -0.436633 0.000237703  -0.0531504 -0.434876 0.000116348  -0.059113 -0.481637 0.000152826  -0.0442123 -0.483359 0.000219345  -0.0423055 -0.467898 0.000206232  -0.0590856 -0.48156 0.000156164  -0.057148 -0.466108 0.000143051  -0.0422893 -0.467811 0.000226021  -0.0571177 -0.466025 0.000144958  -0.0630047 -0.512576 0.000168085  -0.0480449 -0.514336 0.000206709  -0.0461392 -0.498926 0.000197649  -0.0629857 -0.512523 0.000172377  -0.0610628 -0.497115 0.000160694  -0.0461314 -0.498867 0.000213146  -0.0610416 -0.497061 0.000165462  -0.0668418 -0.543322 0.000178099  -0.0518448 -0.545114 0.000193119  -0.0499504 -0.529786 0.000188828  -0.0668294 -0.543289 0.000183344  -0.0649273 -0.527963 0.000172853  -0.0499489 -0.529751 0.000200033  -0.0649142 -0.527931 0.000178337  -0.070626 -0.573854 0.00018692  -0.0556059 -0.575654 0.000180244  -0.0537293 -0.560437 0.000180006  -0.0706153 -0.573828 0.000191927  -0.0687387 -0.558608 0.000182152  -0.053731 -0.560415 0.000186682  -0.0687294 -0.55859 0.000187874  -0.0743525 -0.604093 0.000194788  -0.0593066 -0.605885 0.000169039  -0.0574617 -0.59083 0.000172377  -0.0743365 -0.604061 0.000202417  -0.0724921 -0.589002 0.000190735  -0.0574641 -0.59081 0.000174999  -0.0724831 -0.588985 0.000197172  0.000957683 -0.00398725 0.000789165  0 0 0  0.00178708 -0.00415957 0.00206351  0.000577755 -0.00152427 0.000861168  0 0 0  0.00102952 -0.00361139 0.00107598  0.000327073 -0.00121427 0.000448704  0 0 0  0.000604182 -0.00135273 0.00118637  0.000344262 -0.00105137 0.000623703  0.00272736 -0.0133982 0.00120258  0.00505489 -0.0135699 0.00309181  0.00314596 -0.00893176 0.00203824  0.00288025 -0.0126746 0.00158095  0.00179118 -0.00816441 0.00104523  0.00332762 -0.0083735 0.00269723  0.00191036 -0.00762153 0.0013926  0.00452659 -0.0265779 0.00130749  0.00844672 -0.026637 0.0033226  0.00655222 -0.0205891 0.00253987  0.0046989 -0.0255998 0.00167298  0.0036605 -0.0195954 0.00127935  0.00679237 -0.0197162 0.00326347  0.00382844 -0.0187375 0.00165367  0.00590307 -0.0426134 0.00127649  0.0113081 -0.042586 0.00322413  0.00974983 -0.0353321 0.00260782  0.00607359 -0.0415044 0.00161529  0.00528178 -0.0342621 0.00129962  0.00996146 -0.0342724 0.00329375  0.00545329 -0.0332133 0.00165129  0.00671065 -0.0611072 0.00120902  0.0134615 -0.0610806 0.00301957  0.0122989 -0.0526618 0.00249338  0.00687987 -0.0599657 0.00152469  0.00638169 -0.0515608 0.00124502  0.0124764 -0.0515293 0.00312853  0.00655025 -0.0504356 0.00157166  0.00693536 -0.0817728 0.00113511  0.0148976 -0.0818279 0.00278378  0.014116 -0.072308 0.00231838  0.00710237 -0.0806684 0.00142741  0.00689632 -0.0711699 0.00117278  0.0142688 -0.0711834 0.0029037  0.00706375 -0.0700513 0.00147629  0.00659513 -0.104398 0.00106287  0.0156416 -0.104586 0.00254297  0.0152187 -0.0940355 0.00212932  0.00675815 -0.103366 0.00133348  0.00683552 -0.0928446 0.00109959  0.0153544 -0.0929685 0.00266337  0.00699937 -0.0917839 0.00138044  0.00572884 -0.128728 0.000990629  0.0157406 -0.129079 0.00230765  0.0156479 -0.117608 0.00193954  0.00588357 -0.12779 0.00123811  0.0062269 -0.116351 0.00102663  0.01577 -0.116625 0.00242472  0.00638521 -0.115376 0.00128531  0.0043757 -0.154557 0.000916958  0.015239 -0.155082 0.00207925  0.0154532 -0.142789 0.00175571  0.00451887 -0.153718 0.00114346  0.00511241 -0.141459 0.000953913  0.0155625 -0.141903 0.00219226  0.00525975 -0.140581 0.0011909  0.00258553 -0.181647 0.000843763  0.0141953 -0.182349 0.00186038  0.0146869 -0.169352 0.00157881  0.00271416 -0.180909 0.00104785  0.0035342 -0.167944 0.00088048  0.014783 -0.168566 0.0019691  0.0036689 -0.167167 0.00109529  0.000402808 -0.209815 0.000770569  0.0126597 -0.210686 0.00165105  0.0134041 -0.197081 0.00140929  0.000516415 -0.209173 0.000953913  0.00154233 -0.195598 0.000807047  0.0134863 -0.196393 0.00175428  0.00166154 -0.194919 0.00100064  -0.00211906 -0.238852 0.000698805  0.0106938 -0.239883 0.00145292  0.0116605 -0.225778 0.00124836  -0.0020225 -0.238301 0.000860691  -0.000816345 -0.224222 0.000734329  0.0117286 -0.225183 0.00155067  -0.000712752 -0.223638 0.000906467  -0.00493765 -0.268606 0.000627756  0.00834763 -0.269783 0.00126553  0.00951135 -0.255261 0.00109601  -0.00485635 -0.268138 0.000770092  -0.00349188 -0.25364 0.000663042  0.00956583 -0.254752 0.00135779  -0.00340533 -0.253141 0.000815153  -0.00800085 -0.298899 0.000560284  0.00568151 -0.300207 0.00109124  0.00701177 -0.285361 0.000952959  -0.00793564 -0.298509 0.000682592  -0.00643873 -0.283682 0.000593185  0.00705338 -0.284933 0.00117731  -0.00636768 -0.283264 0.000725269  -0.0112705 -0.32961 0.000496149  0.00273955 -0.331032 0.000930071  0.00421369 -0.315929 0.000820398  -0.0112189 -0.329288 0.000601053  -0.00961018 -0.314201 0.00052762  0.00424266 -0.315574 0.00100851  -0.00955403 -0.313856 0.000641346  -0.0146997 -0.360589 0.000436306  -0.000422716 -0.362111 0.000782251  0.00116658 -0.346831 0.00069809  -0.0146621 -0.36033 0.000523329  -0.0129646 -0.345061 0.000465631  0.00118494 -0.346541 0.000854492  -0.0129224 -0.344781 0.000560999  -0.0182571 -0.391745 0.000381231  -0.00376701 -0.393349 0.000649929  -0.00208259 -0.377943 0.00058794  -0.0182307 -0.391539 0.000453234  -0.0164623 -0.376142 0.000408173  -0.00207353 -0.377713 0.000714064  -0.0164328 -0.37592 0.000487566  -0.021903 -0.422957 0.000332117  -0.00724649 -0.424629 0.000532866  -0.0054915 -0.409163 0.000489712  -0.0218863 -0.422799 0.000388861  -0.0200684 -0.407337 0.000355959  -0.00549054 -0.408984 0.000589848  -0.0200491 -0.407166 0.000419617  -0.0256124 -0.45416 0.000288725  -0.0108302 -0.455886 0.000431299  -0.00902057 -0.440397 0.000404358  -0.0256028 -0.454042 0.000333071  -0.0237489 -0.438554 0.000309706  -0.00902629 -0.440262 0.000479937  -0.0237384 -0.438427 0.000359774  -0.0293534 -0.485262 0.000251055  -0.0144794 -0.48703 0.000344992  -0.0126359 -0.471568 0.000330925  -0.0293515 -0.485178 0.000282764  -0.0274775 -0.469715 0.000269651  -0.0126462 -0.471471 0.000386238  -0.0274739 -0.469625 0.000307083  -0.0331109 -0.516226 0.000218153  -0.018173 -0.518022 0.000273466  -0.0163069 -0.502612 0.000269413  -0.0331135 -0.516167 0.000240803  -0.031229 -0.500755 0.000234365  -0.0163212 -0.502545 0.000307322  -0.0312319 -0.500694 0.000261307  -0.0368619 -0.546986 0.000190735  -0.0218832 -0.5488 0.000212193  -0.0200078 -0.533479 0.00021863  -0.0368688 -0.546947 0.000202656  -0.0349855 -0.531622 0.000203848  -0.0200255 -0.533434 0.00024128  -0.0349922 -0.531584 0.000220776  -0.0405951 -0.577522 0.000165701  -0.0255952 -0.579343 0.000158072  -0.0237207 -0.564129 0.000175476  -0.0406036 -0.577492 0.000169992  -0.0387294 -0.562275 0.000178099  -0.0237398 -0.564099 0.000183821  -0.0387399 -0.562252 0.000186205  -0.0442765 -0.607763 0.000141144  -0.0292616 -0.609589 0.000104904  -0.027415 -0.594529 0.000136375  -0.0442867 -0.607725 0.000135899  -0.0424416 -0.59267 0.000153542  -0.0274355 -0.5945 0.000131845  -0.0424533 -0.592648 0.000152588  0.00247508 -0.00537145 0.00223613  0 0 0  0.00357476 -0.00610244 0.00392032  0.00117327 -0.00269884 0.00163198  0 0 0  0.00262254 -0.00496596 0.00301123  0.000842914 -0.00199294 0.00125456  0 0 0  0.00121497 -0.002487 0.00223899  0.000878878 -0.00181234 0.00172257  0.0071032 -0.0156088 0.00349021  0.00996983 -0.0165458 0.00594234  0.00630611 -0.0115973 0.00391006  0.00740144 -0.0148441 0.0045464  0.00463396 -0.0100511 0.00299287  0.00660211 -0.0109619 0.00515366  0.00487457 -0.00946867 0.00394988  0.0120988 -0.0290594 0.00388217  0.0165683 -0.0298354 0.00647688  0.0129882 -0.0237993 0.00493598  0.0123809 -0.0280481 0.00492525  0.00964028 -0.021981 0.0037601  0.013349 -0.0228537 0.00632143  0.0099459 -0.0210847 0.00482059  0.0164821 -0.0451334 0.00382495  0.022321 -0.0457595 0.0063436  0.0192897 -0.0385721 0.005126  0.0166976 -0.044006 0.00480223  0.0143934 -0.0367687 0.00388527  0.0195667 -0.0374665 0.00645733  0.0146409 -0.035695 0.00489783  0.0200099 -0.0636484 0.00359321  0.0270901 -0.0642201 0.00594807  0.0246369 -0.0558383 0.00492406  0.0201717 -0.0624989 0.00449514  0.0183561 -0.0540875 0.00372124  0.0248283 -0.0546842 0.00616503  0.0185418 -0.0529502 0.00466228  0.0226771 -0.0843723 0.00330234  0.0308967 -0.0849807 0.00545716  0.0289814 -0.0754592 0.00456858  0.0228027 -0.0832639 0.00412846  0.0214506 -0.0737361 0.00345159  0.0291116 -0.0743275 0.00570965  0.0215909 -0.0726119 0.00431609  0.0245225 -0.107091 0.00299811  0.0337803 -0.107783 0.00494146  0.0323608 -0.0972106 0.00416255  0.0246246 -0.106056 0.00374627  0.0237004 -0.0954875 0.00315118  0.032451 -0.0961427 0.00520015  0.0238122 -0.0944232 0.00393844  0.0256029 -0.131538 0.00269938  0.0357957 -0.13235 0.00443172  0.0348293 -0.120842 0.00374961  0.0256873 -0.130595 0.00337291  0.0251571 -0.119101 0.00284791  0.0348934 -0.11986 0.00468493  0.025248 -0.118121 0.0035584  0.0259726 -0.157496 0.00241303  0.036997 -0.158435 0.00394344  0.0364479 -0.146102 0.00334954  0.0260431 -0.156651 0.0030129  0.0258744 -0.144332 0.00255442  0.0364945 -0.145217 0.00418448  0.0259502 -0.143449 0.00319123  0.0256958 -0.184717 0.00214052  0.0374519 -0.185792 0.00347996  0.037282 -0.172752 0.00296926  0.0257531 -0.183972 0.00267172  0.0259137 -0.17095 0.00227499  0.0373142 -0.171966 0.00370884  0.0259755 -0.170165 0.00284052  0.0248306 -0.213013 0.00188351  0.037223 -0.214212 0.0030427  0.0373987 -0.20057 0.00260949  0.0248756 -0.212362 0.00234747  0.0253346 -0.198733 0.00201058  0.0374187 -0.199881 0.00325751  0.0253842 -0.198046 0.00250793  0.0234442 -0.242168 0.00164223  0.036383 -0.24349 0.00263405  0.0368665 -0.22935 0.00227308  0.0234768 -0.241608 0.00204444  0.0242013 -0.227482 0.00176096  0.0368757 -0.228753 0.00283527  0.0242381 -0.226888 0.00219345  0.0215935 -0.272028 0.0014174  0.0349965 -0.273454 0.00225472  0.0357544 -0.258905 0.00195932  0.0216156 -0.271551 0.00176024  0.0225748 -0.25701 0.00152755  0.0357541 -0.258395 0.00244093  0.0226005 -0.256503 0.0019002  0.0193448 -0.302411 0.00120926  0.0331354 -0.303935 0.00190473  0.0341311 -0.289067 0.00166917  0.0193559 -0.302012 0.00149894  0.0205182 -0.287151 0.00131106  0.0341218 -0.288637 0.00207639  0.0205323 -0.286724 0.00162721  0.0167495 -0.333195 0.00101829  0.0308604 -0.334798 0.00158525  0.0320629 -0.319682 0.00140238  0.0167526 -0.332865 0.00125742  0.0180886 -0.317751 0.00111151  0.0320458 -0.319326 0.00174046  0.0180941 -0.317398 0.00137568  0.0138698 -0.364233 0.000845909  0.0282383 -0.365908 0.001297  0.0296131 -0.350617 0.00116134  0.0138643 -0.363966 0.0010407  0.015345 -0.348678 0.000930071  0.0295897 -0.350327 0.00143766  0.0153412 -0.34839 0.00114655  0.010751 -0.395431 0.000692606  0.0253227 -0.397157 0.00104046  0.0268424 -0.38175 0.000945091  0.01074 -0.395219 0.000845909  0.0123391 -0.379808 0.000766993  0.0268135 -0.38152 0.00116444  0.0123289 -0.37958 0.000940561  0.00744629 -0.426671 0.000557661  0.0221744 -0.428445 0.000816584  0.0238068 -0.412977 0.000754595  0.00743032 -0.426508 0.000675917  0.00912213 -0.411039 0.000622988  0.0237751 -0.4128 0.000925064  0.00910592 -0.410863 0.000758171  0.00399446 -0.45789 0.000442505  0.0188382 -0.459692 0.000625134  0.0205607 -0.444209 0.000590563  0.00397587 -0.457767 0.000528097  0.0057385 -0.442278 0.000497341  0.0205271 -0.444077 0.000716686  0.00571918 -0.442146 0.000599146  0.000440598 -0.488997 0.000345707  0.0153649 -0.490825 0.000465393  0.0171514 -0.475369 0.000452042  0.000418663 -0.48891 0.000405788  0.00223184 -0.473449 0.00039196  0.0171168 -0.475275 0.00054121  0.00220823 -0.473355 0.000464439  -0.00318742 -0.519957 0.000267029  0.0117908 -0.521794 0.000336647  0.0136232 -0.506395 0.00033927  -0.00321031 -0.519895 0.000304222  -0.00136399 -0.504488 0.000304222  0.0135882 -0.506331 0.000397444  -0.00138831 -0.504425 0.000353098  -0.00685596 -0.550707 0.000202417  0.00815487 -0.552551 0.00023222  0.010015 -0.53724 0.000248671  -0.00688076 -0.550665 0.000221252  -0.00501513 -0.535348 0.000233412  0.00997925 -0.537198 0.000281572  -0.00504088 -0.535307 0.000261307  -0.0105441 -0.581238 0.000147581  0.00448251 -0.58308 0.000144482  0.00635791 -0.567871 0.000175238  -0.0105691 -0.581204 0.000148535  -0.00869751 -0.565991 0.000174046  0.00632119 -0.567843 0.000186682  -0.00872445 -0.565965 0.000184536  -0.0142057 -0.611508 9.46522e-05  0.000828743 -0.61337 5.98431e-05  0.00268602 -0.598276 0.000110865  -0.0142281 -0.611469 7.9155e-05  -0.0123782 -0.596394 0.000121832  0.00264907 -0.598252 0.000102997  -0.0124061 -0.59637 0.000114679  0.00455765 -0.00822693 0.00355864  0 0 0  0.00619574 -0.00998765 0.00557971  0.00205866 -0.00527489 0.00233388  0 0 0  0.00476564 -0.00771213 0.00477076  0.00153853 -0.00373554 0.00198269  0 0 0  0.00210691 -0.00494808 0.00317359  0.00158425 -0.00348049 0.00270844  0.0125597 -0.0196227 0.00559902  0.0164282 -0.0213766 0.00853968  0.0108816 -0.0163587 0.00561929  0.012964 -0.0187231 0.00726891  0.00836547 -0.0136572 0.00477862  0.0112379 -0.0155284 0.00737333  0.00870351 -0.0129426 0.00628328  0.0207638 -0.0331002 0.00629663  0.0260942 -0.034482 0.00943255  0.0209967 -0.028712 0.00716138  0.0211203 -0.0319908 0.00797749  0.0167572 -0.0260509 0.00606799  0.0214147 -0.0276058 0.00915217  0.0171569 -0.0250362 0.00776148  0.028002 -0.0490094 0.00625944  0.034553 -0.0502024 0.0093286  0.0301577 -0.0432045 0.00751019  0.0282495 -0.0478277 0.00785208  0.0245214 -0.0407249 0.00633407  0.0304723 -0.0420011 0.00945783  0.0248218 -0.0395769 0.00797629  0.0341218 -0.0674107 0.0059011  0.0418207 -0.0685391 0.00878596  0.0381259 -0.0602589 0.00726032  0.0342824 -0.0662357 0.00737953  0.0312031 -0.0578987 0.00610447  0.0383353 -0.0590538 0.00909114  0.0314022 -0.0567232 0.00764251  0.0391431 -0.0880863 0.00541973  0.0479184 -0.0892295 0.00806713  0.0448847 -0.0797579 0.00675201  0.0392442 -0.0869676 0.00677156  0.0367684 -0.0774671 0.00566912  0.0450152 -0.0786025 0.00843954  0.0368952 -0.0763266 0.00708485  0.0431109 -0.110805 0.00490236  0.052878 -0.112008 0.00729465  0.0504607 -0.101451 0.00615001  0.0431745 -0.109767 0.00612569  0.0412567 -0.0991976 0.00516295  0.0505383 -0.100373 0.00768375  0.0413353 -0.0981271 0.00645018  0.0460888 -0.13528 0.00438833  0.0567536 -0.136566 0.00652456  0.0549048 -0.125061 0.00552845  0.0461274 -0.134337 0.00548339  0.0447215 -0.122827 0.00464439  0.0549489 -0.124076 0.0069077  0.04477 -0.121846 0.00580263  0.0481393 -0.161282 0.00389528  0.0596032 -0.16266 0.00578284  0.0582805 -0.15032 0.0049212  0.048162 -0.160437 0.00486827  0.0472275 -0.148096 0.00413918  0.058303 -0.149434 0.00614905  0.0472555 -0.147212 0.00517249  0.0493386 -0.188551 0.00342798  0.0615048 -0.190021 0.00507903  0.0606627 -0.176978 0.00434208  0.0493478 -0.187805 0.00428247  0.0488431 -0.174759 0.00365877  0.0606695 -0.176191 0.00542569  0.048857 -0.173975 0.0045712  0.0497553 -0.216892 0.00298953  0.0625296 -0.218449 0.00441837  0.0621274 -0.204802 0.00379682  0.0497545 -0.21624 0.00373411  0.0496421 -0.20259 0.00320554  0.0621225 -0.204112 0.00474262  0.049644 -0.201902 0.00400376  0.0494698 -0.246086 0.00258136  0.0627644 -0.247722 0.00380254  0.0627569 -0.233584 0.00328803  0.0494598 -0.245524 0.00322104  0.0496982 -0.231381 0.00278234  0.0627425 -0.232987 0.00410509  0.0496907 -0.230786 0.00347281  0.0485535 -0.275974 0.00220251  0.0622847 -0.277678 0.00323153  0.0626323 -0.263133 0.00281501  0.0485358 -0.275495 0.00274611  0.0490882 -0.260944 0.00238848  0.0626096 -0.262622 0.00351167  0.0490719 -0.260434 0.00297904  0.0470852 -0.306374 0.00185442  0.0611778 -0.308136 0.00270748  0.0618367 -0.293279 0.00237775  0.0470597 -0.305973 0.00230813  0.0478865 -0.291107 0.00202441  0.0618066 -0.292849 0.00296378  0.0478628 -0.290678 0.00252199  0.0451306 -0.337165 0.00153756  0.0595158 -0.338972 0.00223064  0.0604484 -0.32387 0.00197911  0.0451002 -0.336833 0.00191092  0.0461664 -0.321719 0.00169206  0.060412 -0.323512 0.00246334  0.0461361 -0.321364 0.00210476  0.0427654 -0.368196 0.00125217  0.0573807 -0.370038 0.00180125  0.0585454 -0.354768 0.00161862  0.0427299 -0.367928 0.00155163  0.0439978 -0.352644 0.0013907  0.0585047 -0.354478 0.00201058  0.043963 -0.352356 0.00172567  0.0400484 -0.399378 0.000999212  0.0548387 -0.401244 0.00142074  0.0562003 -0.385857 0.00129628  0.0400109 -0.399166 0.00123334  0.0414491 -0.383765 0.00112152  0.0561566 -0.385627 0.0016048  0.0414102 -0.383536 0.00138736  0.0370479 -0.430593 0.000779152  0.0519648 -0.432474 0.00108981  0.0534861 -0.417034 0.00101328  0.037008 -0.430431 0.000955343  0.0385828 -0.414974 0.000885248  0.0534408 -0.416856 0.00124931  0.0385418 -0.414798 0.00108886  0.0338161 -0.461781 0.000591516  0.0488176 -0.463668 0.000808001  0.0504682 -0.44821 0.000770092  0.033777 -0.461659 0.00071907  0.0354602 -0.446186 0.000681162  0.0504224 -0.448077 0.00094223  0.0354178 -0.446055 0.000832081  0.0304117 -0.492853 0.000437975  0.0454645 -0.494739 0.000576735  0.04721 -0.479312 0.000567913  0.0303726 -0.492766 0.000522852  0.032135 -0.477322 0.000510454  0.0471652 -0.479217 0.000686884  0.032094 -0.47723 0.000615358  0.0268788 -0.523775 0.000314236  0.0419564 -0.525655 0.000394106  0.0437717 -0.510281 0.000404596  0.0268407 -0.523714 0.000367403  0.028661 -0.508326 0.000372648  0.0437274 -0.510216 0.000479937  0.0286198 -0.508263 0.000440598  0.0232666 -0.55449 0.000218391  0.0383508 -0.55636 0.000254154  0.0402098 -0.541073 0.000278473  0.0232275 -0.554448 0.000243425  0.0250833 -0.539148 0.000263214  0.0401647 -0.54103 0.000319958  0.0250425 -0.539107 0.000301361  0.0196042 -0.585002 0.000139952  0.0346856 -0.586862 0.00014329  0.0365691 -0.571664 0.000181675  0.0195658 -0.584967 0.000143528  0.0214417 -0.569762 0.00017786  0.0365241 -0.571633 0.000196457  0.0214005 -0.569734 0.000191689  0.0159435 -0.615309 6.62804e-05  0.0310099 -0.617179 4.17233e-05  0.0328934 -0.602064 0.000100136  0.0159018 -0.615273 4.79221e-05  0.0177724 -0.600166 0.000103712  0.0328476 -0.602035 9.34601e-05  0.0177307 -0.600142 9.60827e-05  0.00837457 -0.0140906 0.00482011  0 0 0  0.01213 -0.0175141 0.00729132  0.00497402 -0.0115778 0.00309205  0 0 0  0.00854428 -0.0133493 0.00641704  0.00282246 -0.00759304 0.0026536  0 0 0  0.00491167 -0.0109708 0.00418997  0.00284857 -0.00717849 0.00359249  0.0201058 -0.0255556 0.00758386  0.0252295 -0.0277017 0.0111427  0.0186502 -0.0234188 0.00734472  0.020505 -0.0244272 0.00981784  0.014315 -0.0197043 0.00646329  0.0188536 -0.022274 0.00963545  0.0146286 -0.0187299 0.00847173  0.031122 -0.0385252 0.00859332  0.0373966 -0.0403467 0.0123603  0.0310398 -0.0349534 0.00936413  0.0315029 -0.0372759 0.0108867  0.0257375 -0.0317131 0.00825477  0.0314248 -0.0336721 0.0119839  0.0261512 -0.0305169 0.0105498  0.0409889 -0.0541145 0.0085969  0.0484428 -0.0558014 0.0122538  0.0427368 -0.0490086 0.00984192  0.0412675 -0.0528609 0.0107944  0.0362142 -0.0459728 0.00867724  0.0430802 -0.0477129 0.0124183  0.0365432 -0.0447222 0.0109341  0.0495716 -0.0723219 0.00813413  0.0581543 -0.0739696 0.0115552  0.0532091 -0.0658031 0.00953174  0.0497593 -0.0711167 0.0101779  0.045444 -0.0628947 0.00840187  0.0534716 -0.0645596 0.0119557  0.0456736 -0.0616701 0.0105274  0.0568603 -0.0928826 0.00747871  0.0664912 -0.0945544 0.0106127  0.0623075 -0.0851389 0.00887442  0.0569807 -0.0917565 0.00934935  0.0533786 -0.0823145 0.00782037  0.0624937 -0.0839764 0.0111065  0.053528 -0.0811553 0.00977945  0.0628783 -0.115534 0.00676346  0.0734656 -0.117245 0.00959349  0.0700139 -0.10672 0.00808644  0.0629548 -0.1145 0.00845194  0.0600263 -0.103957 0.00712442  0.0701476 -0.105655 0.0101116  0.0601215 -0.102885 0.00890398  0.0676874 -0.139964 0.00604558  0.0791308 -0.141737 0.00857234  0.0763619 -0.130246 0.00726771  0.0677344 -0.139031 0.00755572  0.0654317 -0.127532 0.00640297  0.0764562 -0.129283 0.00908518  0.0654904 -0.126558 0.00800157  0.0713542 -0.165932 0.00535345  0.0835556 -0.167759 0.00758743  0.0814236 -0.155432 0.00646329  0.0713823 -0.165099 0.00668979  0.0696601 -0.152763 0.00569558  0.0814946 -0.154574 0.00807881  0.0696955 -0.15189 0.00711823  0.0739657 -0.193169 0.0046978  0.0868244 -0.195056 0.00665212  0.0852776 -0.182021 0.00569487  0.0739783 -0.192436 0.00586987  0.072789 -0.179396 0.00502086  0.0853276 -0.181263 0.00711775  0.0728068 -0.178622 0.00627446  0.0755998 -0.221476 0.00408316  0.0890235 -0.223405 0.00577378  0.0880163 -0.209774 0.00497055  0.0756023 -0.220836 0.00509882  0.0749006 -0.207194 0.00438523  0.0880527 -0.209113 0.00620961  0.0749066 -0.206518 0.00547838  0.0763531 -0.250628 0.00350976  0.0902513 -0.252599 0.00495386  0.0897293 -0.238478 0.00429296  0.0763451 -0.250078 0.00438142  0.0760835 -0.235948 0.00379109  0.0897516 -0.237908 0.00536108  0.0760785 -0.235363 0.0047338  0.0763065 -0.280466 0.00297952  0.0905972 -0.282459 0.00419569  0.0905167 -0.267942 0.00366354  0.0762904 -0.279999 0.00371552  0.0764259 -0.265464 0.00323915  0.0905294 -0.267458 0.0045712  0.0764121 -0.264966 0.00404191  0.0755544 -0.310807 0.00249147  0.0901595 -0.312822 0.00349832  0.0904684 -0.297993 0.00308251  0.0755302 -0.310417 0.00310516  0.0760157 -0.295573 0.00272942  0.090469 -0.297588 0.00384378  0.0759932 -0.295154 0.00340319  0.0741749 -0.341529 0.00204968  0.089027 -0.343545 0.00286603  0.0896822 -0.328479 0.00255275  0.0741454 -0.341208 0.00254941  0.0749393 -0.326121 0.00226498  0.0896751 -0.328148 0.00317883  0.0749109 -0.325776 0.00282097  0.0722573 -0.372485 0.001652  0.0872922 -0.374502 0.00229716  0.0882442 -0.359269 0.00207353  0.0722227 -0.372228 0.00205088  0.073281 -0.356975 0.00184536  0.088228 -0.359003 0.00257778  0.0732465 -0.356696 0.00229335  0.0698738 -0.403586 0.00129986  0.085036 -0.405586 0.00179291  0.0862453 -0.390243 0.00164628  0.0698369 -0.403384 0.00160742  0.0711205 -0.388015 0.00147057  0.0862243 -0.390036 0.00204062  0.0710828 -0.387797 0.00182271  0.0671079 -0.434716 0.000994444  0.082346 -0.436703 0.00135374  0.0837669 -0.421302 0.00127149  0.0670679 -0.434564 0.00122333  0.0685368 -0.419143 0.00114155  0.0837386 -0.421147 0.00156999  0.0684958 -0.418975 0.00140858  0.0640237 -0.465819 0.000736475  0.0792964 -0.467775 0.000984669  0.080893 -0.452361 0.000949621  0.0639832 -0.465707 0.000896931  0.065603 -0.450268 0.000859022  0.0808618 -0.45225 0.00116444  0.0655606 -0.450146 0.00105309  0.060698 -0.496808 0.000524759  0.0759668 -0.498739 0.000682592  0.077697 -0.48335 0.000684023  0.0606558 -0.49673 0.000630856  0.0623894 -0.481321 0.000624657  0.0776606 -0.483274 0.000829697  0.062346 -0.481236 0.000756979  0.0571897 -0.527657 0.00036025  0.0724282 -0.529551 0.000448942  0.0742576 -0.514215 0.00047183  0.0571477 -0.527602 0.000422001  0.0589643 -0.512245 0.000436783  0.0742199 -0.514169 0.000561476  0.0589204 -0.512189 0.000519514  0.0535688 -0.55831 0.000237465  0.0687559 -0.56018 0.000277281  0.0706477 -0.544921 0.000313044  0.0535238 -0.558272 0.00026679  0.0553923 -0.542998 0.000294447  0.0706024 -0.54489 0.000360966  0.055347 -0.542962 0.000338793  0.0498827 -0.588786 0.000143528  0.0650198 -0.590632 0.000154018  0.0669403 -0.57545 0.000196695  0.0498374 -0.588753 0.00014782  0.0517323 -0.573561 0.000187159  0.0668919 -0.575429 0.000215054  0.0516853 -0.573536 0.000203848  0.0461779 -0.619107 5.67436e-05  0.0612752 -0.620952 4.64916e-05  0.0632026 -0.605828 0.000108719  0.0461352 -0.619072 4.12464e-05  0.0480332 -0.60395 0.000100851  0.0631461 -0.605805 0.00010705  0.047986 -0.603927 9.53674e-05  -0.012556 -0.0163945 -0.00438619  -0.00567189 -0.0105613 -0.00158477  0 0 0  -0.00808588 -0.0124553 -0.00246167  0 0 0  -0.00534763 -0.00867172 -0.00322294  -0.00188278 -0.00417472 -0.00115061  0 0 0  -0.00556903 -0.0102694 -0.00245595  -0.00806753 -0.0120635 -0.00379658  -0.00277724 -0.0063841 -0.00134254  0 0 0  -0.00188262 -0.00401869 -0.00177884  -0.00276287 -0.00619003 -0.00207448  -0.0251324 -0.0255726 -0.00689816  -0.0190304 -0.0213591 -0.00380635  -0.0194945 -0.0230688 -0.00393534  -0.0149135 -0.0194715 -0.00516224  -0.00989921 -0.0144246 -0.002841  -0.0189154 -0.0207227 -0.00585699  -0.0195224 -0.0223932 -0.00602365  -0.013802 -0.0176647 -0.00332141  -0.00994726 -0.0139563 -0.00436568  -0.0138001 -0.0171215 -0.00510406  -0.0375709 -0.0365987 -0.00790262  -0.0313463 -0.031601 -0.0049572  -0.030742 -0.0347482 -0.00455618  -0.0247814 -0.0316468 -0.00593472  -0.0198086 -0.0259456 -0.00372362  -0.0313487 -0.030785 -0.00755739  -0.0307986 -0.0339524 -0.00691032  -0.0251475 -0.0286238 -0.00433755  -0.0198933 -0.0252765 -0.00567031  -0.0252004 -0.0278841 -0.00660586  -0.0496781 -0.0500516 -0.00789189  -0.0436572 -0.0438439 -0.00528097  -0.0415753 -0.0487571 -0.0045805  -0.0341958 -0.0461629 -0.0059185  -0.029503 -0.0393358 -0.00396872  -0.0436968 -0.042994 -0.00798297  -0.0415974 -0.0479539 -0.00689983  -0.0362245 -0.0414309 -0.00462246  -0.029548 -0.0385944 -0.00599408  -0.036271 -0.040637 -0.00698233  -0.0611047 -0.0660137 -0.00735569  -0.0554708 -0.0585413 -0.00509262  -0.0518243 -0.0651827 -0.004282  -0.0431091 -0.0630875 -0.0055151  -0.0387291 -0.0550685 -0.00382304  -0.0554864 -0.0577297 -0.00765991  -0.0517862 -0.0644243 -0.00643134  -0.0467758 -0.0566644 -0.00445652  -0.0387149 -0.054331 -0.00574756  -0.0467706 -0.0558931 -0.00669956  -0.0717766 -0.0842946 -0.00661922  -0.0665724 -0.075623 -0.00466084  -0.0614502 -0.0838541 -0.00385046  -0.0515414 -0.0822322 -0.00494456  -0.0474674 -0.0730841 -0.00349092  -0.0665343 -0.0748857 -0.00699639  -0.0613589 -0.0831655 -0.00577998  -0.0567134 -0.0742403 -0.00407481  -0.0473812 -0.0723942 -0.00524068  -0.0566483 -0.0735295 -0.00611615  -0.0817155 -0.104633 -0.00583005  -0.0769114 -0.0948833 -0.00414419  -0.0704729 -0.10454 -0.00338483  -0.059531 -0.103367 -0.00434971  -0.0557131 -0.0931913 -0.00309396  -0.0768363 -0.094226 -0.00622106  -0.0703455 -0.103925 -0.00508714  -0.0660321 -0.0939485 -0.00361776  -0.0555896 -0.0925629 -0.00464797  -0.0659233 -0.09331 -0.00543213  -0.0909824 -0.126808 -0.00507259  -0.0865362 -0.116086 -0.00362086  -0.0789396 -0.127016 -0.00293326  -0.0671156 -0.126257 -0.00376582  -0.063527 -0.11516 -0.00269365  -0.0864291 -0.115512 -0.00544167  -0.0787937 -0.126478 -0.00441742  -0.0747707 -0.115556 -0.00315571  -0.0633697 -0.114603 -0.00405502  -0.074634 -0.114994 -0.0047462  -0.0996329 -0.150583 -0.00436592  -0.0954981 -0.139011 -0.00312591  -0.0868987 -0.151068 -0.00251436  -0.0743293 -0.150692 -0.00323701  -0.0709263 -0.138781 -0.002316  -0.0953831 -0.138512 -0.00470805  -0.0867472 -0.150598 -0.00379825  -0.0829769 -0.138847 -0.00271916  -0.0707671 -0.138291 -0.00349712  -0.0828301 -0.138356 -0.00409961  -0.107723 -0.17577 -0.00372505  -0.103867 -0.163445 -0.00267124  -0.0943953 -0.176497 -0.00213242  -0.0811987 -0.176468 -0.0027442  -0.0779694 -0.163844 -0.00196981  -0.103745 -0.163019 -0.00403333  -0.0942479 -0.176094 -0.00323248  -0.0907001 -0.16361 -0.0023191  -0.0778033 -0.163422 -0.00298595  -0.0905521 -0.163189 -0.00350785  -0.115291 -0.202167 -0.0031395  -0.111684 -0.189198 -0.00225782  -0.101463 -0.203117 -0.00178742  -0.0877455 -0.203405 -0.00231028  -0.0846604 -0.190165 -0.00165725  -0.111572 -0.188831 -0.00342131  -0.101324 -0.202771 -0.00272202  -0.0979779 -0.189658 -0.00195599  -0.0845116 -0.1898 -0.00252342  -0.097838 -0.189297 -0.00297022  -0.122376 -0.229611 -0.0026145  -0.118999 -0.216081 -0.00188279  -0.10813 -0.230752 -0.00147486  -0.0939847 -0.231323 -0.00190759  -0.0910447 -0.217556 -0.00137377  -0.118892 -0.215774 -0.00286555  -0.108005 -0.230461 -0.00225949  -0.104842 -0.216806 -0.00162697  -0.0909004 -0.217249 -0.002105  -0.104713 -0.216502 -0.00248384  -0.129003 -0.257922 -0.00213647  -0.125838 -0.243929 -0.00154448  -0.11442 -0.259238 -0.00119281  -0.0999299 -0.260062 -0.00155568  -0.097115 -0.245856 -0.0011189  -0.125747 -0.24367 -0.00236559  -0.114308 -0.258993 -0.00184369  -0.111318 -0.244887 -0.00133038  -0.0969934 -0.245596 -0.00172853  -0.111203 -0.244633 -0.00204515  -0.135204 -0.286963 -0.00171304  -0.132239 -0.272576 -0.00124002  -0.120353 -0.288423 -0.000940084  -0.105591 -0.289465 -0.00123  -0.102907 -0.274898 -0.000888824  -0.132155 -0.272366 -0.00191426  -0.120256 -0.288222 -0.00147009  -0.117427 -0.27374 -0.00106311  -0.102793 -0.274686 -0.00138974  -0.117325 -0.273532 -0.00165105  -0.140999 -0.316575 -0.00132966  -0.138219 -0.301881 -0.000967026  -0.125947 -0.318162 -0.00071454  -0.110978 -0.319396 -0.000950813  -0.108409 -0.304544 -0.000683546  -0.138152 -0.301708 -0.00151157  -0.125863 -0.317998 -0.00113797  -0.123188 -0.30322 -0.000823975  -0.108318 -0.304369 -0.00108743  -0.123101 -0.303051 -0.00129747  -0.14642 -0.346641 -0.000997543  -0.143814 -0.331697 -0.000724792  -0.131223 -0.348327 -0.000516176  -0.116104 -0.349721 -0.000694752  -0.113655 -0.33465 -0.00050211  -0.143754 -0.331564 -0.00115299  -0.131152 -0.348197 -0.000844955  -0.128621 -0.333186 -0.000612497  -0.113571 -0.334514 -0.000819921  -0.128546 -0.333055 -0.000985861  -0.151488 -0.377025 -0.000700951  -0.149042 -0.361907 -0.000512123  -0.136199 -0.378795 -0.000342131  -0.120981 -0.380325 -0.000481129  -0.118636 -0.3651 -0.000341654  -0.148998 -0.361801 -0.000839949  -0.13614 -0.378694 -0.000589371  -0.133744 -0.363518 -0.000426292  -0.118573 -0.364992 -0.000584841  -0.133683 -0.363416 -0.000711203  -0.156241 -0.407633 -0.000454426  -0.153941 -0.392386 -0.000327587  -0.140902 -0.409463 -0.000193119  -0.125625 -0.411099 -0.000288963  -0.123387 -0.395773 -0.000203609  -0.153902 -0.392312 -0.000567675  -0.140853 -0.409387 -0.000370502  -0.13858 -0.394098 -0.000264883  -0.123328 -0.395694 -0.000382423  -0.13853 -0.394025 -0.000474691  -0.160704 -0.438353 -0.000244141  -0.158534 -0.423041 -0.000172138  -0.145355 -0.44023 -6.93798e-05  -0.130055 -0.441953 -0.000139236  -0.127906 -0.426578 -8.63075e-05  -0.158508 -0.422986 -0.000339985  -0.145315 -0.440175 -0.000190258  -0.143154 -0.424828 -0.000128031  -0.127866 -0.426519 -0.000211716  -0.143114 -0.424776 -0.00027442  -0.16492 -0.469116 -8.13007e-05  -0.162866 -0.453771 -4.45843e-05  -0.14959 -0.471017 3.02792e-05  -0.134294 -0.4728 -9.05991e-06  -0.132235 -0.457416 1.00136e-05  -0.16284 -0.453739 -0.000152588  -0.149557 -0.470979 -4.48227e-05  -0.147495 -0.455614 -1.64509e-05  -0.132195 -0.457379 -7.20024e-05  -0.147461 -0.455582 -0.00011158  -0.168928 -0.499834 4.60148e-05  -0.166967 -0.484507 5.55515e-05  -0.15364 -0.501751 0.000106335  -0.138366 -0.503576 7.98702e-05  -0.136374 -0.488223 8.53539e-05  -0.166949 -0.484486 -8.34465e-06  -0.153611 -0.501724 6.46114e-05  -0.151633 -0.486383 7.12872e-05  -0.136349 -0.488198 3.69549e-05  -0.151605 -0.486364 1.54972e-05  -0.172783 -0.530469 0.000132561  -0.170893 -0.515176 0.000129223  -0.157548 -0.532381 0.00016284  -0.1423 -0.534224 0.000155687  -0.140375 -0.518928 0.000143051  -0.170871 -0.51517 9.82285e-05  -0.157521 -0.532363 0.000144958  -0.155607 -0.517068 0.000136614  -0.140346 -0.518916 0.000118732  -0.155581 -0.517062 0.000108957  -0.176544 -0.560975 0.000199556  -0.174694 -0.545745 0.000182629  -0.161357 -0.562874 0.000206709  -0.146132 -0.564722 0.000204563  -0.144247 -0.549499 0.000186443  -0.174673 -0.54574 0.000172615  -0.161328 -0.562859 0.000204802  -0.159459 -0.547633 0.000185728  -0.144227 -0.549489 0.000179768  -0.159434 -0.54763 0.00017786  -0.180282 -0.591387 0.000253439  -0.178444 -0.576194 0.00022459  -0.165121 -0.59326 0.000247717  -0.149912 -0.595079 0.000262976  -0.148051 -0.579918 0.000224352  -0.178413 -0.576194 0.000229597  -0.165093 -0.593242 0.000262022  -0.163238 -0.578064 0.000226498  -0.148022 -0.579913 0.000231981  -0.163212 -0.578064 0.000233412  -0.00385839 -0.00686483 -0.0017364  0 0 0  -0.00275265 -0.00525056 -0.00214744  -0.000952397 -0.00202624 -0.000756025  0 0 0  -0.00389142 -0.00658666 -0.00267959  -0.0013023 -0.00284779 -0.000946522  0 0 0  -0.000957504 -0.00191934 -0.00117373  -0.00130634 -0.00272271 -0.00146699  -0.0111526 -0.017602 -0.00282478  -0.00817993 -0.0153113 -0.00347829  -0.00517972 -0.0102475 -0.0019033  -0.0112335 -0.017075 -0.00432539  -0.00724636 -0.0119472 -0.00237012  -0.00523455 -0.00989641 -0.00292921  -0.00730839 -0.0115428 -0.0036447  -0.0193482 -0.0303925 -0.00327754  -0.0146424 -0.0282253 -0.00399685  -0.0112953 -0.0219984 -0.0025084  -0.0194184 -0.029729 -0.00496864  -0.0152393 -0.0237163 -0.00311852  -0.0113704 -0.0214608 -0.00382042  -0.015323 -0.0231169 -0.00474906  -0.027383 -0.0454032 -0.00328851  -0.0211138 -0.0435582 -0.00397372  -0.0178696 -0.0362297 -0.00266933  -0.0273907 -0.0446896 -0.00495052  -0.0234033 -0.0375961 -0.00332165  -0.0179021 -0.03559 -0.00402951  -0.023448 -0.0369067 -0.00501513  -0.0350597 -0.062709 -0.00306392  -0.0273687 -0.0612212 -0.00368285  -0.0243044 -0.0527751 -0.00256109  -0.0349962 -0.0620129 -0.00459814  -0.0312684 -0.0537668 -0.00319409  -0.0242686 -0.0521065 -0.0038476  -0.0312392 -0.0530652 -0.00479937  -0.0423734 -0.0821668 -0.00274324  -0.0334204 -0.0810304 -0.00328922  -0.0305126 -0.0715185 -0.00232697  -0.0422552 -0.0815114 -0.00411844  -0.0387573 -0.0721727 -0.00290942  -0.0304169 -0.0708683 -0.00349212  -0.0386659 -0.0715027 -0.00436664  -0.0493623 -0.103567 -0.00240183  -0.0393095 -0.102776 -0.00287485  -0.036519 -0.0922784 -0.00205064  -0.0492103 -0.102975 -0.00361085  -0.0459058 -0.092628 -0.00257277  -0.0363832 -0.0916732 -0.0030818  -0.0457684 -0.0920123 -0.00386524  -0.0560603 -0.126696 -0.00207114  -0.0450597 -0.126233 -0.00247812  -0.0423572 -0.114849 -0.00177455  -0.0558926 -0.126165 -0.003124  -0.0527427 -0.114919 -0.00223398  -0.0422003 -0.114301 -0.00267386  -0.0525832 -0.114366 -0.00336409  -0.062499 -0.151345 -0.00176549  -0.0506876 -0.151196 -0.00211239  -0.0480518 -0.139024 -0.00151443  -0.0623287 -0.150882 -0.00267243  -0.0593101 -0.138833 -0.00191474  -0.0478883 -0.138537 -0.00229144  -0.0591403 -0.138346 -0.00289369  -0.0686959 -0.177319 -0.00148821  -0.0561948 -0.177459 -0.00178146  -0.0536159 -0.1646 -0.00127745  -0.0685319 -0.176914 -0.0022645  -0.0656234 -0.164169 -0.00162387  -0.0534554 -0.164174 -0.00194287  -0.0654581 -0.163744 -0.00246429  -0.0746671 -0.204431 -0.00123858  -0.0615842 -0.204841 -0.00148344  -0.059055 -0.191387 -0.00106406  -0.0745145 -0.204087 -0.00189495  -0.0717084 -0.190734 -0.00136065  -0.0589042 -0.191019 -0.00162864  -0.0715503 -0.190369 -0.00207591  -0.0804188 -0.232509 -0.00101256  -0.066849 -0.23316 -0.00121522  -0.06437 -0.219206 -0.000871658  -0.0802804 -0.232213 -0.00156355  -0.0775664 -0.218351 -0.00112271  -0.0642316 -0.218891 -0.00134563  -0.0774237 -0.218039 -0.00172544  -0.0859586 -0.261387 -0.000809669  -0.071987 -0.262258 -0.000974655  -0.0695575 -0.247885 -0.000698328  -0.0858353 -0.261141 -0.00126338  -0.0832142 -0.246848 -0.000908375  -0.069434 -0.24762 -0.00109148  -0.083084 -0.246587 -0.00141025  -0.0912869 -0.290914 -0.000627756  -0.0769885 -0.291976 -0.000760555  -0.0746129 -0.277266 -0.000543594  -0.0911796 -0.290707 -0.000997782  -0.0886451 -0.276069 -0.000716209  -0.0745043 -0.277046 -0.000864744  -0.0885332 -0.275852 -0.00112724  -0.0964108 -0.320947 -0.000466347  -0.0818523 -0.322179 -0.000570059  -0.0795308 -0.307204 -0.000404835  -0.0963179 -0.320782 -0.000759125  -0.0938736 -0.305866 -0.000544786  -0.079438 -0.307023 -0.000662088  -0.0937742 -0.305689 -0.000875473  -0.10133 -0.35136 -0.000323534  -0.086571 -0.352733 -0.000402927  -0.0843086 -0.337563 -0.000282764  -0.101252 -0.351224 -0.000551224  -0.098892 -0.336105 -0.000392914  -0.0842289 -0.337417 -0.000483751  -0.0988092 -0.335963 -0.000652313  -0.106056 -0.382033 -0.000198603  -0.0911469 -0.383529 -0.000257969  -0.0889426 -0.36822 -0.000175476  -0.10599 -0.38193 -0.000368118  -0.103716 -0.366661 -0.000258923  -0.0888767 -0.368106 -0.000327587  -0.103645 -0.366551 -0.00045681  -0.110593 -0.412863 -9.25064e-05  -0.0955775 -0.414456 -0.000134468  -0.0934336 -0.399066 -8.34465e-05  -0.110539 -0.412781 -0.000214338  -0.108344 -0.397426 -0.000143051  -0.0933795 -0.39898 -0.000194073  -0.108287 -0.397342 -0.000287771  -0.114956 -0.443756 -3.09944e-06  -0.0998716 -0.445429 -3.12328e-05  -0.097785 -0.430004 -4.52995e-06  -0.114913 -0.443698 -8.36849e-05  -0.112795 -0.428297 -4.52995e-05  -0.0977411 -0.42994 -8.03471e-05  -0.112747 -0.428237 -0.000145912  -0.119158 -0.474632 6.86646e-05  -0.104032 -0.476363 4.98295e-05  -0.102002 -0.460947 6.00815e-05  -0.119122 -0.474588 1.78814e-05  -0.117072 -0.459191 3.48091e-05  -0.101967 -0.460903 1.19209e-05  -0.117036 -0.459149 -3.02792e-05  -0.123217 -0.505424 0.000124454  -0.108072 -0.507201 0.000115156  -0.106093 -0.491826 0.000111341  -0.123187 -0.505396 9.89437e-05  -0.121203 -0.490033 9.799e-05  -0.106066 -0.491796 8.46386e-05  -0.121171 -0.490006 6.07967e-05  -0.127152 -0.536083 0.00016737  -0.111998 -0.537887 0.000163317  -0.11007 -0.522581 0.000151634  -0.127126 -0.53606 0.000157356  -0.125195 -0.520764 0.000147343  -0.110047 -0.522562 0.000140667  -0.12517 -0.520747 0.000129938  -0.130991 -0.566579 0.000202894  -0.115833 -0.568394 0.000203848  -0.113945 -0.553174 0.000183344  -0.130965 -0.566564 0.000207424  -0.129081 -0.551343 0.00018549  -0.113925 -0.553163 0.000184536  -0.129056 -0.551333 0.00018239  -0.134773 -0.596916 0.000236511  -0.119612 -0.598699 0.000242472  -0.117745 -0.583582 0.000211954  -0.134747 -0.596894 0.000252724  -0.132881 -0.581758 0.000219584  -0.117725 -0.583571 0.000222683  -0.132858 -0.581749 0.000229359  -0.00183429 -0.00465032 -0.00104332  0 0 0  -0.00109638 -0.00399131 -0.00107336  -0.000378203 -0.00127706 -0.000375986  0 0 0  -0.00185657 -0.00443965 -0.0016129  -0.000624932 -0.00153589 -0.000566244  0 0 0  -0.000379648 -0.00119451 -0.000583649  -0.000630055 -0.00144562 -0.000879049  -0.00560656 -0.0145431 -0.00171065  -0.00340679 -0.0134509 -0.00175261  -0.00210713 -0.00849062 -0.00095582  -0.00565803 -0.0141274 -0.00261974  -0.00353485 -0.00913107 -0.00143147  -0.00212674 -0.00821361 -0.00147033  -0.00357263 -0.00882336 -0.00220275  -0.0103377 -0.027722 -0.00198913  -0.00644025 -0.0265573 -0.00202298  -0.00484318 -0.0200888 -0.00126839  -0.0103747 -0.0271654 -0.003016  -0.00790745 -0.0207944 -0.00189185  -0.00486532 -0.0196394 -0.00193119  -0.00796029 -0.0203077 -0.00288057  -0.0152938 -0.0434177 -0.00199008  -0.00976798 -0.0423785 -0.00200748  -0.00809255 -0.0347231 -0.00135136  -0.0152771 -0.0427814 -0.00299311  -0.0128133 -0.0352676 -0.00201321  -0.00808325 -0.0341575 -0.00203896  -0.0128253 -0.0346706 -0.00303793  -0.0202163 -0.0613773 -0.00184345  -0.0132234 -0.0605529 -0.00184727  -0.0115379 -0.0518017 -0.00128984  -0.0201423 -0.0607305 -0.00276756  -0.0177609 -0.052116 -0.00192738  -0.0114819 -0.0511839 -0.00193763  -0.0177167 -0.0514764 -0.00289464  -0.0250779 -0.081425 -0.00163865  -0.0167885 -0.0808322 -0.00163126  -0.0150865 -0.0710565 -0.00116038  -0.0249605 -0.0807972 -0.00246024  -0.0226534 -0.0711421 -0.00174451  -0.0149902 -0.0704364 -0.0017426  -0.0225549 -0.0705097 -0.00261784  -0.0299026 -0.103365 -0.00142145  -0.0204811 -0.103026 -0.00140524  -0.01874 -0.0922897 -0.00100756  -0.0297598 -0.102788 -0.00214124  -0.0274909 -0.0921614 -0.00152946  -0.0186176 -0.0916992 -0.00151777  -0.0273611 -0.0915652 -0.00229979  -0.0347081 -0.126996 -0.0012126  -0.0243021 -0.126901 -0.00118971  -0.0225101 -0.115303 -0.000855684  -0.0345542 -0.12647 -0.00183344  -0.0323066 -0.114972 -0.00131536  -0.0223746 -0.11476 -0.00129533  -0.0321564 -0.114428 -0.0019846  -0.0395033 -0.152114 -0.00102019  -0.0282475 -0.152269 -0.00099206  -0.0263975 -0.139896 -0.000713587  -0.0393494 -0.151652 -0.0015533  -0.037104 -0.139373 -0.00111437  -0.0262592 -0.139408 -0.0010879  -0.0369518 -0.138886 -0.00168991  -0.0442841 -0.178524 -0.000847101  -0.0322974 -0.178907 -0.00081563  -0.0303926 -0.165866 -0.000584841  -0.0441374 -0.178115 -0.00129843  -0.0418949 -0.16516 -0.00093174  -0.030259 -0.165435 -0.000901222  -0.0417442 -0.164733 -0.00142193  -0.0490453 -0.206037 -0.000691891  -0.0364349 -0.206645 -0.000657797  -0.0344797 -0.193022 -0.000470877  -0.0489099 -0.205687 -0.00107193  -0.046665 -0.192145 -0.000767469  -0.0343556 -0.192647 -0.000734568  -0.0465263 -0.191774 -0.0011816  -0.0537735 -0.234478 -0.000552416  -0.040633 -0.235282 -0.000517845  -0.0386392 -0.221178 -0.000368118  -0.0536504 -0.234175 -0.000866652  -0.0514133 -0.220142 -0.000620604  -0.0385262 -0.220856 -0.000586033  -0.0512842 -0.219825 -0.000966311  -0.0584573 -0.26368 -0.000427723  -0.0448737 -0.264673 -0.000394344  -0.0428487 -0.250164 -0.000277042  -0.0583482 -0.263429 -0.000686169  -0.0561184 -0.248985 -0.00048852  -0.0427483 -0.24989 -0.000453949  -0.0560056 -0.248716 -0.00077343  -0.0630808 -0.293494 -0.000316381  -0.0491295 -0.294644 -0.000285149  -0.0470865 -0.279819 -0.000196457  -0.0629861 -0.29328 -0.000522852  -0.060776 -0.27851 -0.000370264  -0.0469991 -0.279589 -0.000338316  -0.0606749 -0.278287 -0.00060153  -0.0676346 -0.323775 -0.000217915  -0.0533847 -0.325073 -0.000189304  -0.0513315 -0.309995 -0.000125408  -0.0675535 -0.323604 -0.000380993  -0.0653642 -0.308575 -0.000265837  -0.0512577 -0.309806 -0.000235796  -0.0652791 -0.308391 -0.000449181  -0.0721053 -0.354398 -0.000130892  -0.0576156 -0.355813 -0.000105381  -0.0555651 -0.340559 -6.19888e-05  -0.0720364 -0.354256 -0.000254154  -0.0698797 -0.339042 -0.000172853  -0.0555024 -0.340406 -0.000146151  -0.0698053 -0.338894 -0.000314951  -0.0764871 -0.385246 -5.57899e-05  -0.0618117 -0.386769 -3.38554e-05  -0.0597696 -0.371389 -6.91414e-06  -0.0764303 -0.385137 -0.000147581  -0.0743046 -0.369792 -9.15527e-05  -0.0597179 -0.371268 -6.79493e-05  -0.0742449 -0.369675 -0.000198364  -0.0807707 -0.416216 8.34465e-06  -0.065954 -0.41782 2.6226e-05  -0.06393 -0.402377 3.93391e-05  -0.0807245 -0.416129 -5.4121e-05  -0.07864 -0.400712 -2.24113e-05  -0.0638881 -0.402283 -2.6226e-06  -0.0785894 -0.400623 -9.82285e-05  -0.0849574 -0.447219 6.27041e-05  -0.0700386 -0.448896 7.60555e-05  -0.0680358 -0.433427 7.89165e-05  -0.0849206 -0.447157 2.09808e-05  -0.0828729 -0.431711 3.67165e-05  -0.0680032 -0.433357 5.24521e-05  -0.0828347 -0.431644 -1.43051e-05  -0.0890446 -0.478179 0.000106096  -0.0740535 -0.479903 0.000115395  -0.0720789 -0.464458 0.000112057  -0.0890148 -0.478129 8.29697e-05  -0.0870121 -0.462699 8.55923e-05  -0.0720532 -0.464407 9.75132e-05  -0.0869794 -0.462653 5.43594e-05  -0.0930367 -0.50903 0.000140905  -0.0779994 -0.5108 0.000146389  -0.0760531 -0.495401 0.000137806  -0.0930128 -0.508999 0.0001297  -0.0910492 -0.493612 0.000124454  -0.0760343 -0.495366 0.000131845  -0.0910256 -0.49358 0.000108242  -0.0969357 -0.539728 0.000168324  -0.0818691 -0.54152 0.000169992  -0.0799568 -0.526203 0.000159264  -0.0969157 -0.539702 0.000167608  -0.0949962 -0.524392 0.000155449  -0.079942 -0.526179 0.000158787  -0.0949748 -0.524372 0.000150442  -0.100757 -0.570236 0.000190973  -0.0856738 -0.572042 0.000189543  -0.0837905 -0.556821 0.000175476  -0.100738 -0.570218 0.000196934  -0.0988517 -0.554999 0.000180006  -0.0837781 -0.556804 0.000180006  -0.0988359 -0.554985 0.000183344  -0.104522 -0.600523 0.000213385  -0.0894213 -0.6023 0.000209332  -0.087563 -0.587218 0.000190735  -0.104504 -0.600497 0.000227451  -0.102642 -0.5854 0.000202179  -0.0875504 -0.587201 0.000198841  -0.102624 -0.585387 0.000212431  -0.000404619 -0.00399891 -0.000344276  0 0 0  0.000253245 -0.00390986 1.54972e-05  8.2016e-05 -0.00122094 6.19888e-06  0 0 0  -0.000402212 -0.00382796 -0.000528336  -0.000139244 -0.00117692 -0.000185013  0 0 0  8.58605e-05 -0.00115696 1.40667e-05  -0.000136454 -0.00110883 -0.000285149  -0.00134866 -0.0135593 -0.000574112  0.000640124 -0.0133595 -7.15256e-07  0.000426725 -0.00834882 3.09944e-06  -0.00134288 -0.0132062 -0.000876665  -0.000808209 -0.00824457 -0.000475645  0.000451908 -0.00810653 1.12057e-05  -0.000806823 -0.00799099 -0.000729084  -0.00277275 -0.0268693 -0.000676632  0.000830412 -0.0266152 -2.6226e-05  0.000725985 -0.0200155 -1.26362e-05  -0.00274923 -0.026376 -0.00102305  -0.00201008 -0.019837 -0.000640154  0.000773311 -0.0196083 -1.54972e-05  -0.00199673 -0.0194157 -0.000972986  -0.0045504 -0.0429351 -0.00067687  0.000651419 -0.0426978 -3.02792e-05  0.000726581 -0.0348704 -2.24113e-05  -0.00449672 -0.0423477 -0.00101852  -0.00362214 -0.0345918 -0.00068593  0.000791758 -0.034343 -3.19481e-05  -0.00358626 -0.0340509 -0.0010345  -0.00660986 -0.0613065 -0.000617504  4.75645e-05 -0.0611573 -9.53674e-06  0.000322163 -0.0522372 -1.4782e-05  -0.0065254 -0.0606916 -0.000926733  -0.00554723 -0.0518407 -0.000651598  0.000403821 -0.0516476 -2.21729e-05  -0.00547677 -0.0512413 -0.000979185  -0.00893319 -0.0817479 -0.00053215  -0.000986338 -0.0817295 2.6226e-05  -0.000510573 -0.0717917 6.67572e-06  -0.00882602 -0.0811384 -0.000802517  -0.00773609 -0.0712712 -0.000576258  -0.000415742 -0.0711897 6.91414e-06  -0.00764126 -0.0706627 -0.000867128  -0.0115203 -0.104064 -0.000440836  -0.00244051 -0.10421 6.50883e-05  -0.00176436 -0.0933228 3.48091e-05  -0.0114008 -0.103495 -0.000669003  -0.010194 -0.0926741 -0.000486374  -0.0016619 -0.0927426 4.60148e-05  -0.0100791 -0.0920908 -0.000735998  -0.0143617 -0.128055 -0.000353575  -0.00428915 -0.128377 0.000101805  -0.00342166 -0.116632 6.31809e-05  -0.0142382 -0.127531 -0.000544548  -0.0129072 -0.115853 -0.000396252  -0.00331682 -0.116093 8.41618e-05  -0.0127873 -0.115313 -0.00060606  -0.0174417 -0.153519 -0.000274658  -0.00650358 -0.154026 0.000131607  -0.00545526 -0.141516 8.82149e-05  -0.0173212 -0.153054 -0.000429869  -0.0158728 -0.140606 -0.000312567  -0.0053525 -0.141028 0.00011754  -0.0157503 -0.140119 -0.000485897  -0.020734 -0.180257 -0.000204802  -0.00904465 -0.180942 0.000154972  -0.00783169 -0.167769 0.000108957  -0.0206203 -0.179843 -0.000331402  -0.0190599 -0.166732 -0.000238657  -0.00773501 -0.167336 0.000144243  -0.0189452 -0.1663 -0.000379562  -0.0242127 -0.208077 -0.000143051  -0.0118759 -0.208937 0.000172377  -0.0105141 -0.195194 0.000125408  -0.024109 -0.207721 -0.000242472  -0.0224513 -0.194034 -0.000173092  -0.0104262 -0.194815 0.00016427  -0.0223426 -0.193657 -0.000286102  -0.0278444 -0.2368 -8.98838e-05  -0.014954 -0.237817 0.000184774  -0.0134645 -0.223602 0.000138044  -0.0277516 -0.23649 -0.000168324  -0.0260078 -0.222327 -0.000115633  -0.0133858 -0.223274 0.000178814  -0.0259124 -0.222002 -0.000204325  -0.0316019 -0.266257 -4.26769e-05  -0.0182437 -0.267423 0.000191927  -0.0166429 -0.252817 0.000147343  -0.0315206 -0.265998 -0.000101089  -0.0297086 -0.251437 -6.53267e-05  -0.0165744 -0.252538 0.000188828  -0.0296218 -0.251161 -0.000133991  -0.0354522 -0.296295 -2.6226e-06  -0.0217022 -0.297589 0.000195742  -0.0200114 -0.282677 0.000153542  -0.0353825 -0.296073 -4.64916e-05  -0.0335135 -0.281204 -2.19345e-05  -0.0199533 -0.282442 0.000193834  -0.0334414 -0.280971 -7.29561e-05  -0.0393708 -0.326771 3.31402e-05  -0.025298 -0.328182 0.000197172  -0.023533 -0.313033 0.000158072  -0.039312 -0.326593 3.57628e-06  -0.0374041 -0.311477 1.57356e-05  -0.0234851 -0.312838 0.000196457  -0.03734 -0.311286 -2.09808e-05  -0.0433282 -0.35756 6.41346e-05  -0.0289934 -0.359066 0.000196218  -0.0271736 -0.343751 0.000161409  -0.0432795 -0.35741 4.43459e-05  -0.0413427 -0.342125 4.93526e-05  -0.0271344 -0.343592 0.000196695  -0.041292 -0.341969 2.45571e-05  -0.0473049 -0.388544 9.03606e-05  -0.0327623 -0.390135 0.000195026  -0.0309014 -0.374709 0.000163555  -0.0472653 -0.38843 8.08239e-05  -0.0453148 -0.373024 7.77245e-05  -0.0308702 -0.374582 0.000195742  -0.0452712 -0.372902 6.24657e-05  -0.0512767 -0.419626 0.000112057  -0.0365734 -0.421282 0.000191689  -0.0346866 -0.4058 0.000164747  -0.0512452 -0.419532 0.000107765  -0.0492887 -0.40407 0.000102043  -0.0346632 -0.405702 0.000193119  -0.0492566 -0.403974 9.48906e-05  -0.0552313 -0.450715 0.00013113  -0.0404067 -0.452427 0.000187874  -0.0385051 -0.436932 0.000165939  -0.0552077 -0.450648 0.000132561  -0.053256 -0.435165 0.000122309  -0.0384884 -0.436858 0.000190258  -0.0532291 -0.435093 0.000120401  -0.0591526 -0.48174 0.000145674  -0.0442388 -0.483491 0.000183582  -0.0423348 -0.468025 0.000166178  -0.0591342 -0.481686 0.000148773  -0.057193 -0.466231 0.00013876  -0.0423231 -0.467971 0.000185966  -0.0571754 -0.466178 0.000140905  -0.0630331 -0.51264 0.000157595  -0.048059 -0.514423 0.000179529  -0.0461588 -0.499013 0.000166178  -0.0630195 -0.512604 0.000163317  -0.0610976 -0.497199 0.000151634  -0.0461512 -0.498975 0.000181913  -0.0610824 -0.497164 0.000155687  -0.0668633 -0.543368 0.000166655  -0.0518508 -0.545168 0.000175476  -0.0499623 -0.529845 0.000165701  -0.0668526 -0.543338 0.000171661  -0.0649514 -0.528019 0.000161886  -0.0499585 -0.529819 0.000177145  -0.0649424 -0.527995 0.000167131  -0.0706432 -0.573885 0.000175238  -0.055608 -0.575694 0.000170946  -0.053736 -0.560478 0.000165701  -0.0706336 -0.573864 0.000181437  -0.0687587 -0.558646 0.000170708  -0.0537338 -0.560459 0.000172853  -0.0687492 -0.558629 0.000175953  -0.0743701 -0.604142 0.000183105  -0.0593123 -0.60594 0.000168085  -0.0574689 -0.590871 0.000166416  -0.0743585 -0.60411 0.000188351  -0.0725086 -0.589041 0.000179052  -0.0574667 -0.590852 0.000169039  -0.0725019 -0.589023 0.000184774  0.000888512 -0.0043897 0.000352144  0 0 0  0.00161158 -0.00479269 0.00108051  0.000544615 -0.00171417 0.000379801  0 0 0  0.000914663 -0.0042277 0.000553608  0.000305682 -0.00139278 0.000194788  0 0 0  0.000553787 -0.00164086 0.000599384  0.000310451 -0.00132954 0.000309944  0.00255695 -0.0142264 0.000559568  0.00467998 -0.0148075 0.00171161  0.00296491 -0.00957394 0.000940323  0.00262609 -0.0138887 0.000865698  0.00166702 -0.00878787 0.000477314  0.00303547 -0.00932139 0.00145888  0.00171681 -0.00854665 0.000744104  0.00430626 -0.0277395 0.000631571  0.00804248 -0.0283191 0.00192881  0.00626564 -0.021622 0.00121593  0.00439778 -0.0272636 0.00096035  0.00345781 -0.0206103 0.000608206  0.00638264 -0.0212063 0.001858  0.00353953 -0.0202054 0.000932217  0.00567359 -0.0439895 0.000629425  0.0109559 -0.0445084 0.00191212  0.00945836 -0.0366334 0.00128126  0.00577027 -0.0434172 0.000949144  0.00505295 -0.0355526 0.000635147  0.00958037 -0.0361018 0.00193644  0.00514913 -0.0350288 0.000961781  0.00648296 -0.0625536 0.000602245  0.0131607 -0.0630689 0.00180387  0.0120432 -0.0540933 0.00124097  0.00657934 -0.0619504 0.000901699  0.0061537 -0.0529898 0.000617266  0.0121515 -0.0535033 0.00186419  0.00624818 -0.0524037 0.000927925  0.00671017 -0.0832045 0.000569105  0.0146332 -0.0837634 0.0016675  0.0138934 -0.0737579 0.00115967  0.00680554 -0.0826017 0.000850201  0.00666845 -0.072621 0.000586033  0.0139879 -0.0731565 0.00173736  0.00676489 -0.0720222 0.000877142  0.00637585 -0.105743 0.000536919  0.0154051 -0.106399 0.00152707  0.0150208 -0.0954291 0.00106883  0.00646889 -0.105176 0.000797033  0.00661367 -0.0942407 0.00055337  0.0151047 -0.0948487 0.00159788  0.00670552 -0.0936618 0.00082469  0.00551939 -0.129965 0.000504971  0.0155274 -0.130733 0.00138855  0.01547 -0.118903 0.000977278  0.00560844 -0.12944 0.000746965  0.00601077 -0.117647 0.000521183  0.0155453 -0.118362 0.00145698  0.0061022 -0.117108 0.000772715  0.00418091 -0.155661 0.000472546  0.0150493 -0.156564 0.00125527  0.0152928 -0.143963 0.000888109  0.00426412 -0.155193 0.000693083  0.00491047 -0.142633 0.00048852  0.015361 -0.143471 0.00132108  0.00499403 -0.142143 0.000720263  0.00240839 -0.182627 0.000439882  0.0140294 -0.183655 0.00112653  0.0145447 -0.170397 0.000803471  0.00248408 -0.182208 0.000641584  0.00334692 -0.168988 0.000456333  0.014605 -0.169959 0.00119019  0.00342631 -0.168553 0.000668049  0.000246167 -0.210662 0.000407696  0.0125185 -0.211823 0.00100493  0.0132802 -0.197999 0.000722408  0.000313878 -0.2103 0.000587702  0.00137603 -0.196514 0.000423431  0.0133328 -0.197613 0.00106525  0.00144494 -0.196131 0.000614882  -0.00225472 -0.239585 0.000375986  0.0105774 -0.24086 0.000889301  0.0115551 -0.226573 0.000645161  -0.00219584 -0.239268 0.000537634  -0.000963926 -0.225014 0.000391245  0.0115999 -0.226238 0.000946045  -0.000900865 -0.224684 0.000562906  -0.0050509 -0.269222 0.000344753  0.00825584 -0.270611 0.000780582  0.00942516 -0.25594 0.000573397  -0.00500095 -0.268957 0.00048542  -0.00361562 -0.254316 0.000360489  0.009462 -0.255653 0.000834227  -0.00356424 -0.254033 0.000511885  -0.00809383 -0.299419 0.000314713  0.00561225 -0.300899 0.000679255  0.00694335 -0.285934 0.000505924  -0.00805283 -0.299192 0.000437737  -0.00654316 -0.284251 0.000329733  0.00697291 -0.285692 0.000728846  -0.00649822 -0.284013 0.000461817  -0.0113435 -0.330032 0.000287056  0.00269175 -0.331601 0.000585318  0.00416243 -0.316405 0.00044322  -0.0113107 -0.329848 0.000390768  -0.00969255 -0.314674 0.000300884  0.00418448 -0.316203 0.000631571  -0.00965834 -0.314475 0.000414371  -0.0147564 -0.360935 0.000261545  -0.000452518 -0.362568 0.000500441  0.00113094 -0.347218 0.000386477  -0.0147303 -0.36078 0.000349522  -0.0130309 -0.345445 0.000274181  0.00114655 -0.347053 0.000541925  -0.0130019 -0.345285 0.000370264  -0.0182977 -0.392012 0.000238419  -0.00378108 -0.393709 0.000425339  -0.00210547 -0.378253 0.000335932  -0.0182784 -0.391893 0.00030899  -0.01651 -0.37645 0.000249624  -0.00209546 -0.37812 0.000461817  -0.0164905 -0.37632 0.000329018  -0.0219305 -0.423166 0.000218153  -0.00724769 -0.424904 0.000357866  -0.00550294 -0.409403 0.000291109  -0.0219169 -0.423068 0.000275612  -0.0201032 -0.407576 0.000228167  -0.00549769 -0.4093 0.000389814  -0.0200877 -0.407476 0.00029254  -0.0256286 -0.45431 0.000201464  -0.0108206 -0.456088 0.000300884  -0.00902343 -0.440578 0.000252724  -0.0256197 -0.454239 0.000244379  -0.0237703 -0.438735 0.000209808  -0.00902176 -0.440499 0.000328541  -0.0237617 -0.438659 0.000259876  -0.0293605 -0.485373 0.000186205  -0.0144618 -0.487172 0.000252962  -0.0126312 -0.471699 0.000220537  -0.0293555 -0.485316 0.000219107  -0.0274899 -0.469846 0.000193357  -0.0126326 -0.471641 0.000275373  -0.0274842 -0.469791 0.000231981  -0.0331109 -0.516297 0.000174284  -0.0181494 -0.518117 0.000213146  -0.0162954 -0.502703 0.000194311  -0.0331085 -0.516259 0.000195503  -0.0312316 -0.500847 0.000180244  -0.0163002 -0.502662 0.000231981  -0.0312309 -0.500808 0.000207424  -0.0368574 -0.547038 0.000164986  -0.0218558 -0.548861 0.000180483  -0.0199931 -0.53354 0.000173092  -0.0368576 -0.547006 0.000178337  -0.0349846 -0.531684 0.000169992  -0.02 -0.533511 0.000195742  -0.0349836 -0.531657 0.000187397  -0.0405881 -0.577559 0.000157118  -0.0255637 -0.57939 0.000152349  -0.0237021 -0.564173 0.000156164  -0.0405886 -0.577535 0.000160456  -0.0387228 -0.56232 0.000160694  -0.02371 -0.564151 0.000165939  -0.0387261 -0.562299 0.000169754  -0.0442755 -0.607816 0.000149965  -0.0292325 -0.609648 0.000125885  -0.0273967 -0.594571 0.000141144  -0.0442755 -0.607783 0.000145674  -0.0424378 -0.592714 0.00015378  -0.0274038 -0.594549 0.00013876  -0.0424387 -0.592694 0.000154018  0.00233884 -0.00582922 0.00101709  0 0 0  0.00329004 -0.00685644 0.00207305  0.00112158 -0.00294495 0.000728369  0 0 0  0.00239015 -0.00564355 0.00158739  0.000798807 -0.00220501 0.000557423  0 0 0  0.00113472 -0.00285125 0.00114346  0.00081183 -0.00212717 0.000877142  0.00678867 -0.0165119 0.00164461  0.00938702 -0.0179432 0.00331545  0.00602674 -0.0123657 0.0018177  0.00691652 -0.0161417 0.00252938  0.00440055 -0.010745 0.00138712  0.00613488 -0.0120619 0.00281096  0.00449039 -0.0104731 0.00214791  0.0117322 -0.0302826 0.00189042  0.0159963 -0.031646 0.00377989  0.0125648 -0.0249594 0.00237465  0.0118857 -0.0297797 0.00287056  0.00927854 -0.0230663 0.00180578  0.0127377 -0.0244917 0.00362182  0.00942785 -0.0226308 0.00275588  0.0161666 -0.0465449 0.00189686  0.0218893 -0.0477567 0.00377703  0.0188948 -0.0399627 0.00252557  0.0163022 -0.0459571 0.00285554  0.0140466 -0.0381079 0.00191283  0.0190617 -0.0393952 0.00381398  0.0141923 -0.0375626 0.00288916  0.0197614 -0.0651114 0.00179505  0.0267863 -0.0662444 0.00356579  0.0243338 -0.0573198 0.00245285  0.01987 -0.064501 0.00269365  0.0180742 -0.0555407 0.00185347  0.0244651 -0.0567105 0.00368571  0.0181967 -0.0549442 0.00278425  0.02248 -0.0858108 0.00165439  0.030683 -0.0869315 0.00327706  0.0287601 -0.0769333 0.002285  0.022567 -0.0852053 0.00247741  0.0212308 -0.0751976 0.00172734  0.0288574 -0.0763242 0.00342655  0.0213255 -0.074594 0.00258827  0.0243626 -0.10844 0.00150442  0.0336261 -0.109603 0.00296855  0.0321978 -0.0986153 0.00208545  0.0244338 -0.107872 0.00225186  0.0235224 -0.0968878 0.00157976  0.03227 -0.0980327 0.003124  0.0236011 -0.0963077 0.00236464  0.0254685 -0.132779 0.00135708  0.0356811 -0.134009 0.00266337  0.034706 -0.122142 0.00188017  0.025529 -0.132252 0.00202703  0.0250115 -0.120401 0.00143051  0.034761 -0.121602 0.00281477  0.0250744 -0.11986 0.00213838  0.0258597 -0.158606 0.00121641  0.0369118 -0.159921 0.00237107  0.0363524 -0.147281 0.0016818  0.025911 -0.158136 0.00181508  0.02575 -0.145511 0.00128579  0.0363954 -0.14679 0.00251508  0.0258056 -0.145021 0.00191903  0.0256011 -0.185705 0.00108361  0.0373905 -0.187105 0.00209475  0.0372075 -0.173804 0.00149369  0.0256445 -0.185283 0.00161099  0.0258108 -0.172001 0.00114942  0.0372415 -0.173366 0.00223064  0.0258553 -0.171563 0.00171137  0.0247539 -0.21387 0.000958204  0.0371821 -0.215357 0.00183487  0.0373418 -0.201494 0.00131702  0.0247898 -0.213505 0.00142097  0.0252478 -0.199657 0.00101995  0.0373678 -0.201109 0.00196266  0.0252872 -0.199272 0.0015142  0.0233835 -0.242912 0.000841379  0.036361 -0.244476 0.00159311  0.0368253 -0.230152 0.00115204  0.0234127 -0.242591 0.00124097  0.0241334 -0.228284 0.000898838  0.0368446 -0.229817 0.00171185  0.0241631 -0.227949 0.00132918  0.0215493 -0.272655 0.00073266  0.0349919 -0.274291 0.00136828  0.0357282 -0.259592 0.000998259  0.0215715 -0.272386 0.00107527  0.0225213 -0.257697 0.000786066  0.0357409 -0.259305 0.0014782  0.0225466 -0.257411 0.00115609  0.0193144 -0.302941 0.000632286  0.0331461 -0.304636 0.00116134  0.0341181 -0.289647 0.000857353  0.0193305 -0.30271 0.000919819  0.0204819 -0.287731 0.0006814  0.0341254 -0.289404 0.00126266  0.0204978 -0.287488 0.000995636  0.0167334 -0.333628 0.000540733  0.030884 -0.335375 0.000973225  0.0320613 -0.320165 0.000727654  0.0167437 -0.333439 0.000780106  0.0180643 -0.318233 0.000585794  0.032063 -0.319963 0.00106454  0.0180774 -0.318032 0.000848055  0.0138643 -0.364587 0.000459194  0.0282726 -0.366372 0.000803232  0.0296212 -0.351011 0.000610828  0.01387 -0.364429 0.000651836  0.0153351 -0.349072 0.000498772  0.0296191 -0.350846 0.000885487  0.01534 -0.348907 0.000713825  0.0107553 -0.395705 0.000386715  0.0253658 -0.397523 0.000653028  0.0268586 -0.382065 0.000507355  0.0107567 -0.395583 0.000540018  0.0123372 -0.380123 0.000421762  0.0268528 -0.381933 0.000725985  0.0123405 -0.379992 0.000593662  0.00745821 -0.426886 0.000323534  0.0222228 -0.428723 0.000521898  0.0238302 -0.413223 0.00041604  0.00745654 -0.426786 0.000439644  0.00913119 -0.411285 0.000354052  0.0238214 -0.41312 0.000585079  0.00912762 -0.411182 0.000488043  0.00401258 -0.458045 0.000270128  0.0188904 -0.459897 0.000411034  0.0205886 -0.444395 0.000338554  0.00400829 -0.457972 0.000356913  0.00575233 -0.442464 0.000296116  0.0205777 -0.444317 0.000464201  0.00574875 -0.442386 0.000396252  0.00046277 -0.489112 0.000226259  0.0154192 -0.490969 0.000319004  0.0171828 -0.475504 0.000273943  0.000456333 -0.489054 0.000285149  0.00225234 -0.473585 0.00024724  0.0171704 -0.475447 0.000362873  0.00224376 -0.473527 0.000319242  -0.00316119 -0.520031 0.00019145  0.0118468 -0.521891 0.000245094  0.013658 -0.506491 0.000221729  -0.00316954 -0.519992 0.000229836  -0.00134087 -0.504584 0.000207663  0.0136435 -0.50645 0.00028038  -0.00134897 -0.504544 0.000255346  -0.00682712 -0.550763 0.000163555  0.0082128 -0.552616 0.00018692  0.0100524 -0.537306 0.000180483  -0.00683761 -0.550729 0.000182629  -0.004987 -0.535414 0.000177145  0.0100365 -0.537277 0.000214815  -0.00499916 -0.535385 0.000205278  -0.0105131 -0.581278 0.000141144  0.00454187 -0.58313 0.000139713  0.00639629 -0.567919 0.000149012  -0.0105238 -0.581253 0.000145674  -0.00866866 -0.566039 0.000151873  0.00637984 -0.567898 0.000162363  -0.00867987 -0.566018 0.00016284  -0.0141749 -0.611563 0.000119209  0.000886679 -0.613427 9.39369e-05  0.00272536 -0.598322 0.000121355  -0.0141838 -0.611527 0.000107527  -0.0123467 -0.596441 0.000130653  0.00270844 -0.598302 0.000116587  -0.0123603 -0.59642 0.000126839  0.00438081 -0.00882113 0.0016346  0 0 0  0.00585593 -0.0109981 0.00299358  0.00200466 -0.00563157 0.00105739  0 0 0  0.00444531 -0.00857794 0.0025394  0.00148175 -0.00403136 0.000891447  0 0 0  0.00201599 -0.00548434 0.00164986  0.0014938 -0.00391746 0.0013957  0.0121509 -0.020715 0.00265288  0.0157531 -0.0231007 0.00479937  0.0105711 -0.0173511 0.00263476  0.0123158 -0.0202648 0.00407171  0.00805767 -0.014527 0.0022316  0.0106887 -0.0169491 0.00406003  0.00817725 -0.0141804 0.00344467  0.0202997 -0.0344744 0.00307393  0.0254391 -0.0365224 0.00551629  0.0205181 -0.0300862 0.00345755  0.0204945 -0.0339074 0.00466084  0.0162946 -0.0273116 0.00292468  0.020713 -0.0295246 0.00526619  0.0164828 -0.0268013 0.00445795  0.0276228 -0.0505109 0.00310588  0.0340651 -0.0523273 0.00555396  0.0297035 -0.0447338 0.00370264  0.0277877 -0.0498847 0.00467682  0.02409 -0.0421826 0.00312233  0.0298968 -0.0441044 0.00559092  0.0242747 -0.0415867 0.0047152  0.0338489 -0.0689173 0.00294638  0.0414918 -0.0706224 0.00526428  0.037779 -0.0618124 0.00361443  0.033971 -0.0682881 0.00442219  0.0308797 -0.0594168 0.00304079  0.0379315 -0.0611697 0.00543404  0.0310203 -0.0587918 0.00457025  0.0389528 -0.089542 0.00271153  0.047707 -0.0912008 0.004843  0.0446392 -0.0812609 0.00337291  0.0390406 -0.0889291 0.00406671  0.0365389 -0.0789573 0.0028336  0.0447501 -0.0806367 0.00506258  0.0366431 -0.0783418 0.00425196  0.0429783 -0.112158 0.00245476  0.0527444 -0.113829 0.00438142  0.0502912 -0.102861 0.00307703  0.0430414 -0.111589 0.00367832  0.0410991 -0.100608 0.00258446  0.0503699 -0.102273 0.00461435  0.0411706 -0.100023 0.00387454  0.0459943 -0.136521 0.00219893  0.056671 -0.138218 0.00391817  0.0547876 -0.126355 0.0027678  0.0460409 -0.135995 0.00329423  0.0446083 -0.124127 0.00232601  0.0548435 -0.125815 0.00414848  0.0446628 -0.123587 0.00348592  0.0480721 -0.16239 0.0019536  0.0595556 -0.164137 0.00347304  0.0581988 -0.151487 0.00246429  0.048107 -0.161921 0.00292349  0.0471486 -0.149273 0.00207472  0.0582392 -0.150999 0.00369287  0.0471859 -0.148783 0.00310707  0.0492909 -0.189537 0.0017221  0.0614821 -0.191325 0.00305223  0.0606056 -0.178016 0.00217652  0.0493171 -0.189116 0.00257516  0.0487847 -0.175808 0.0018363  0.0606353 -0.177581 0.00325942  0.048815 -0.175372 0.00274777  0.0497248 -0.217747 0.00150633  0.0625271 -0.219585 0.00265813  0.0620894 -0.205713 0.00190616  0.0497434 -0.217383 0.00224686  0.0496039 -0.203513 0.00161242  0.0621102 -0.205331 0.00285149  0.0496235 -0.203129 0.00240898  0.049454 -0.246828 0.00130486  0.0627791 -0.248699 0.00229096  0.0627351 -0.234374 0.0016551  0.0494664 -0.246509 0.00194335  0.0496737 -0.232182 0.00140405  0.0627488 -0.234042 0.00247169  0.0496887 -0.231848 0.00209332  0.048551 -0.2766 0.0011189  0.0623149 -0.278508 0.00195146  0.0626249 -0.263809 0.00142097  0.0485576 -0.276331 0.00165963  0.0490799 -0.26163 0.00121021  0.0626323 -0.263525 0.00211787  0.0490863 -0.261344 0.00179911  0.0470929 -0.306904 0.000948668  0.0612206 -0.308829 0.00163937  0.0618408 -0.293849 0.00120616  0.0470948 -0.306673 0.00140166  0.0478882 -0.291686 0.00103164  0.0618436 -0.293609 0.00179172  0.0478916 -0.291445 0.00152826  0.0451486 -0.337595 0.000793457  0.0595684 -0.33954 0.00135636  0.0604627 -0.324341 0.00101018  0.0451462 -0.337408 0.00116467  0.0461801 -0.322201 0.000869036  0.06046 -0.324142 0.00149488  0.0461769 -0.322 0.00128078  0.0427899 -0.368548 0.000654697  0.0574412 -0.370494 0.00110269  0.0585679 -0.355152 0.000833511  0.0427847 -0.368391 0.000954151  0.0440179 -0.353037 0.00072217  0.0585616 -0.354989 0.00122643  0.0440137 -0.352874 0.00105667  0.0400798 -0.399651 0.000532866  0.0549047 -0.4016 0.000878334  0.0562305 -0.386162 0.00067687  0.0400712 -0.399529 0.000765324  0.0414779 -0.384079 0.000591993  0.0562205 -0.386032 0.000987053  0.0414679 -0.383947 0.000857115  0.0370834 -0.430807 0.000427008  0.0520341 -0.432744 0.000682831  0.0535209 -0.417269 0.000539303  0.0370727 -0.430707 0.000603437  0.0386152 -0.415219 0.000478029  0.053509 -0.417168 0.000776529  0.0386045 -0.415117 0.000682354  0.0338552 -0.461934 0.000338078  0.0488887 -0.463864 0.000518799  0.0505073 -0.448385 0.000422478  0.0338423 -0.461862 0.000464201  0.0354981 -0.44637 0.000380754  0.0504928 -0.448309 0.000597  0.0354831 -0.446292 0.000531197  0.0304534 -0.492966 0.00026536  0.0455368 -0.494875 0.000383377  0.0472531 -0.479438 0.000325441  0.0304389 -0.492908 0.000352621  0.0321741 -0.477456 0.000300169  0.0472369 -0.479382 0.000447273  0.0321598 -0.4774 0.000406027  0.0269239 -0.523849 0.000208139  0.0420296 -0.525746 0.000277281  0.0438185 -0.510368 0.000247717  0.0269079 -0.52381 0.000261068  0.0287046 -0.50842 0.000234842  0.0437996 -0.510328 0.000327349  0.0286865 -0.50838 0.000304461  0.0233126 -0.554546 0.00016427  0.0384257 -0.556422 0.000196934  0.0402591 -0.541133 0.00019002  0.0232956 -0.554512 0.000192165  0.0251272 -0.539213 0.000184298  0.0402386 -0.541105 0.000235081  0.0251102 -0.539185 0.00022459  0.0196528 -0.585042 0.000129938  0.0347626 -0.586911 0.00013423  0.0366218 -0.571708 0.000145197  0.0196347 -0.585016 0.000134945  0.0214896 -0.56981 0.000146389  0.0366001 -0.571686 0.000164509  0.0214691 -0.569789 0.000163078  0.0159874 -0.615359 9.75132e-05  0.0310867 -0.617231 7.43866e-05  0.032948 -0.602105 0.000108719  0.015969 -0.615327 8.27312e-05  0.0178185 -0.600211 0.000113964  0.0329256 -0.602084 0.000104904  0.0177996 -0.600192 0.000109673  0.00826062 -0.0149164 0.00223088  0 0 0  0.0121215 -0.018997 0.00392818  0.00505189 -0.0122149 0.00140095  0 0 0  0.00829747 -0.0145704 0.00345755  0.00279208 -0.00803858 0.00120711  0 0 0  0.00501395 -0.0119368 0.00219011  0.00279544 -0.00785381 0.00188136  0.0197298 -0.0269338 0.00360537  0.0247275 -0.0298341 0.00626206  0.0185583 -0.0247577 0.00343466  0.0198758 -0.0263599 0.0055244  0.01407 -0.0208538 0.00303221  0.018582 -0.0241867 0.00529885  0.014157 -0.0203823 0.00467229  0.0306334 -0.0401044 0.00419474  0.0367359 -0.0426516 0.00720692  0.0306253 -0.0366011 0.0045073  0.0308363 -0.0394492 0.00636125  0.0252736 -0.0332189 0.00398326  0.0307909 -0.0359166 0.00687146  0.0254608 -0.032602 0.00606751  0.0405594 -0.055732 0.00425911  0.0478739 -0.058063 0.00727296  0.0422525 -0.0507063 0.0048368  0.040746 -0.055055 0.00641656  0.0357446 -0.0475843 0.00427341  0.0424536 -0.0500041 0.00731039  0.0359427 -0.0469219 0.00645494  0.0492459 -0.0738809 0.00405431  0.0577216 -0.0761082 0.00690913  0.0527856 -0.0674418 0.00473166  0.0493925 -0.0732296 0.00609255  0.0450653 -0.06449 0.00417781  0.052972 -0.0667648 0.00712013  0.0452327 -0.0638325 0.00628376  0.0566243 -0.0943541 0.00373626  0.0661732 -0.0965325 0.00636315  0.061978 -0.0866754 0.0044241  0.0567334 -0.093734 0.00560713  0.053102 -0.0838345 0.00390363  0.0621223 -0.0860379 0.00664401  0.0532261 -0.0832055 0.00586104  0.0627091 -0.116881 0.00338197  0.073231 -0.119046 0.00575876  0.0697569 -0.108131 0.00403833  0.0627899 -0.116315 0.00507426  0.0598255 -0.105369 0.00356126  0.069875 -0.107546 0.00605965  0.0599195 -0.104784 0.00534296  0.0675633 -0.141191 0.00302434  0.0789539 -0.143355 0.00514841  0.0761647 -0.131526 0.00363207  0.0676244 -0.14067 0.00453472  0.0652884 -0.128822 0.00320292  0.0762531 -0.130993 0.00544786  0.0653557 -0.128286 0.00480318  0.0712622 -0.167021 0.00267935  0.0834193 -0.169196 0.00455856  0.0812635 -0.156576 0.003232  0.0713098 -0.166561 0.00401711  0.0695525 -0.153922 0.00284958  0.0813394 -0.156101 0.00484586  0.0696057 -0.153441 0.00427246  0.0738966 -0.194136 0.00235391  0.0867194 -0.196317 0.00399995  0.0851499 -0.183034 0.00284958  0.0739336 -0.193723 0.00352573  0.0727103 -0.180425 0.00251389  0.0852078 -0.182611 0.00427032  0.0727491 -0.179997 0.00376725  0.0755509 -0.222311 0.00204945  0.088945 -0.224498 0.00347686  0.0879092 -0.210656 0.002491  0.0755794 -0.221957 0.00306702  0.0748413 -0.208094 0.00219893  0.0879614 -0.21029 0.0037291  0.0748733 -0.20772 0.00329208  0.0763203 -0.251352 0.00176549  0.0901953 -0.253535 0.00298595  0.0896468 -0.239242 0.00215435  0.0763413 -0.25104 0.00263739  0.076044 -0.236728 0.00190449  0.0896845 -0.238922 0.00322223  0.0760654 -0.236403 0.00284791  0.0762891 -0.281074 0.00150371  0.0905625 -0.28325 0.00253534  0.0904493 -0.268589 0.00184321  0.0763035 -0.280814 0.0022428  0.0763998 -0.266129 0.0016315  0.0904844 -0.26832 0.00275183  0.076417 -0.265852 0.00243545  0.075549 -0.31132 0.0012629  0.0901433 -0.313477 0.00211906  0.0904217 -0.298538 0.00155592  0.0755574 -0.311095 0.00187683  0.0760059 -0.296133 0.00138044  0.0904437 -0.29831 0.00231791  0.0760137 -0.2959 0.00205517  0.0741806 -0.341943 0.00104499  0.089027 -0.344078 0.00174284  0.0896472 -0.328926 0.0012939  0.0741844 -0.341763 0.00154853  0.0749384 -0.326583 0.00115061  0.0896672 -0.32874 0.00192213  0.0749441 -0.326391 0.00170779  0.0722723 -0.372822 0.000850677  0.087306 -0.374924 0.00140524  0.0882256 -0.359631 0.00105906  0.0722718 -0.372671 0.0012517  0.0732925 -0.35735 0.00094533  0.0882351 -0.359478 0.00156522  0.0732908 -0.357193 0.0013957  0.0698974 -0.403843 0.000678778  0.0850627 -0.405911 0.00110698  0.086237 -0.390524 0.00084877  0.0698931 -0.403728 0.000990868  0.0711393 -0.388311 0.000761986  0.0862451 -0.390408 0.00124669  0.0711358 -0.388189 0.00111675  0.0671372 -0.434916 0.000530481  0.0823829 -0.436942 0.000847578  0.0837722 -0.421519 0.000665903  0.0671299 -0.434822 0.000762939  0.0685644 -0.419371 0.00060153  0.083771 -0.421427 0.000967979  0.0685549 -0.419275 0.000872374  0.0640593 -0.465958 0.000406027  0.0793424 -0.467943 0.000630617  0.0809047 -0.452516 0.000509739  0.0640488 -0.465893 0.000573158  0.0656347 -0.450436 0.000465155  0.0809035 -0.452453 0.000729561  0.0656247 -0.450366 0.000662804  0.0607386 -0.49691 0.000303984  0.076021 -0.498852 0.000451803  0.0777211 -0.483462 0.000380993  0.060725 -0.496857 0.000415087  0.0624287 -0.481442 0.000352144  0.0777106 -0.483413 0.000532389  0.0624132 -0.481391 0.000489473  0.0572364 -0.527721 0.000226498  0.0724916 -0.529623 0.00031662  0.0742896 -0.514288 0.000279665  0.0572202 -0.527686 0.000295401  0.0590069 -0.512326 0.000262499  0.0742784 -0.514259 0.000375986  0.0589914 -0.512292 0.000350714  0.0536203 -0.558361 0.000169039  0.0688303 -0.56023 0.000216484  0.0706921 -0.544973 0.000203609  0.0536013 -0.558329 0.000204086  0.0554423 -0.543056 0.000195265  0.0706713 -0.544949 0.000258446  0.0554216 -0.543031 0.000246286  0.0499408 -0.588823 0.000125408  0.0651035 -0.590676 0.000144005  0.066992 -0.575489 0.00014925  0.0499194 -0.5888 0.000136375  0.0517864 -0.573603 0.000145674  0.0669718 -0.575473 0.000172853  0.0517652 -0.573586 0.000167608  0.0462394 -0.619156 8.51154e-05  0.0613639 -0.621003 7.7486e-05  0.0632627 -0.605871 0.000107765  0.0462179 -0.619124 7.1764e-05  0.0480947 -0.603993 0.000105858  0.0632331 -0.60585 0.000105858  0.0480692 -0.603975 0.000104189  -0.0127758 -0.0171113 -0.0013938  -0.00574716 -0.0107667 2.86102e-06  0 0 0  -0.00810532 -0.0127371 5.72205e-06  0 0 0  -0.00529921 -0.00915918 -0.0010252  -0.00187747 -0.00428626 2.38419e-06  0 0 0  -0.0057224 -0.0106999 -0.000774622  -0.00809644 -0.0126527 -0.00120807  -0.00278692 -0.00651823 2.6226e-06  0 0 0  -0.00187556 -0.00425453 -0.000565052  -0.00278074 -0.00648205 -0.000658751  -0.0252283 -0.0267078 -0.00221252  -0.0191242 -0.0218228 9.05991e-06  -0.0194858 -0.0235691 1.16825e-05  -0.014809 -0.0203938 -0.00166607  -0.00986168 -0.0147766 7.86781e-06  -0.0190971 -0.0216884 -0.00187278  -0.0194873 -0.0234311 -0.00193858  -0.0138114 -0.018076 8.58307e-06  -0.00986816 -0.0146885 -0.00139618  -0.0138071 -0.0179681 -0.00163364  -0.0375319 -0.0379249 -0.00257373  -0.031367 -0.0322151 1.64509e-05  -0.0307066 -0.0353532 1.88351e-05  -0.0246795 -0.032782 -0.00193334  -0.0197635 -0.0264572 1.38283e-05  -0.0313621 -0.0320466 -0.00244856  -0.0307169 -0.0351878 -0.00225282  -0.0251229 -0.0291936 1.4782e-05  -0.0197799 -0.0263289 -0.00183773  -0.0251301 -0.0290472 -0.00214243  -0.0496292 -0.0513841 -0.0025928  -0.0436276 -0.0445072 2.45571e-05  -0.0415522 -0.0493779 2.67029e-05  -0.0341707 -0.0473469 -0.00195384  -0.0294634 -0.0399138 2.02656e-05  -0.0436377 -0.0443351 -0.00261855  -0.0415601 -0.0492127 -0.00227189  -0.0361892 -0.0420566 2.24113e-05  -0.0294771 -0.0397692 -0.00196576  -0.0362014 -0.0418982 -0.0022912  -0.0611188 -0.0672573 -0.00242853  -0.0554572 -0.0591813 3.33786e-05  -0.051841 -0.0657732 3.52859e-05  -0.0431868 -0.0642278 -0.0018189  -0.0387375 -0.0556465 2.81334e-05  -0.0554644 -0.0590214 -0.00252962  -0.0518377 -0.0656148 -0.00212383  -0.046773 -0.0572781 3.0756e-05  -0.0387414 -0.0555011 -0.00189567  -0.0467762 -0.0571244 -0.00221229  -0.0718643 -0.0854131 -0.0021801  -0.0665868 -0.0762112 4.24385e-05  -0.0615069 -0.0843907 4.3869e-05  -0.0517063 -0.0832833 -0.00163364  -0.0475166 -0.0736306 3.62396e-05  -0.0665863 -0.0760678 -0.00231409  -0.0614935 -0.0842484 -0.00190592  -0.0567507 -0.0748113 3.93391e-05  -0.0475059 -0.0734938 -0.00172853  -0.0567438 -0.0746691 -0.0020206  -0.0818597 -0.105619 -0.00191522  -0.0769657 -0.095404 5.22137e-05  -0.0705608 -0.105018 5.31673e-05  -0.059753 -0.104311 -0.00142169  -0.0558063 -0.0936863 4.45843e-05  -0.0769552 -0.0952779 -0.00205183  -0.0705381 -0.104888 -0.00166821  -0.0661084 -0.0944607 4.8399e-05  -0.0557868 -0.0935618 -0.00152636  -0.0660905 -0.0943337 -0.00178862  -0.0911592 -0.127666 -0.00165176  -0.0866079 -0.116544 6.1512e-05  -0.079044 -0.127434 6.22272e-05  -0.0673662 -0.12709 -0.00122643  -0.0636364 -0.115602 5.31673e-05  -0.0865924 -0.116434 -0.00178576  -0.0790175 -0.127321 -0.00143766  -0.0748683 -0.11601 5.74589e-05  -0.0636092 -0.115492 -0.00132108  -0.0748454 -0.115898 -0.00155258  -0.0998218 -0.151323 -0.00141072  -0.0955886 -0.139405 7.15256e-05  -0.0870101 -0.15143 7.20024e-05  -0.0745871 -0.151417 -0.00103474  -0.0710521 -0.139166 6.24657e-05  -0.0955682 -0.13931 -0.00153232  -0.0869803 -0.151329 -0.00122213  -0.0830886 -0.13924 6.67572e-05  -0.0710238 -0.139069 -0.001127  -0.083061 -0.139143 -0.00132895  -0.10791 -0.176403 -0.0011847  -0.103955 -0.163785 8.2016e-05  -0.0945041 -0.176806 8.2016e-05  -0.0814488 -0.177093 -0.000869751  -0.0780888 -0.164179 7.1764e-05  -0.103934 -0.163704 -0.00129962  -0.0944759 -0.176721 -0.00102592  -0.0908109 -0.163951 7.70092e-05  -0.0780587 -0.164095 -0.000948668  -0.0907842 -0.163867 -0.00112295  -0.115467 -0.202702 -0.000985861  -0.111775 -0.189482 9.17912e-05  -0.101566 -0.203378 9.17912e-05  -0.0879792 -0.203937 -0.000711203  -0.0847814 -0.190449 8.10623e-05  -0.111754 -0.189414 -0.00108695  -0.101538 -0.203303 -0.000847816  -0.0980868 -0.189947 8.67844e-05  -0.0847543 -0.190377 -0.000787258  -0.0980595 -0.189875 -0.00093627  -0.122536 -0.23006 -0.000798941  -0.119078 -0.216322 0.00010252  -0.108224 -0.23097 0.000102043  -0.0941973 -0.23177 -0.000576019  -0.0911506 -0.217797 9.15527e-05  -0.11906 -0.216265 -0.000894308  -0.108199 -0.230908 -0.000686407  -0.104941 -0.217051 9.67979e-05  -0.0911238 -0.217737 -0.000639915  -0.104917 -0.216991 -0.000766277  -0.129144 -0.258293 -0.000635147  -0.125915 -0.244125 0.000113726  -0.114504 -0.259418 0.00011301  -0.100119 -0.260433 -0.000444174  -0.0972168 -0.246054 0.000101089  -0.125897 -0.244078 -0.000718594  -0.11448 -0.259363 -0.000539303  -0.11141 -0.245089 0.000107527  -0.0971943 -0.246004 -0.000507593  -0.111386 -0.24504 -0.000612497  -0.135326 -0.287265 -0.000482559  -0.1323 -0.272739 0.000124216  -0.120425 -0.288566 0.000123501  -0.105755 -0.289767 -0.000335455  -0.102991 -0.275062 0.00011158  -0.132286 -0.272701 -0.000561476  -0.120406 -0.288523 -0.000408173  -0.117506 -0.273907 0.000118256  -0.102969 -0.275022 -0.000386953  -0.117486 -0.273867 -0.000473022  -0.141102 -0.316815 -0.000351906  -0.138278 -0.302006 0.000134945  -0.12601 -0.318276 0.00013423  -0.11112 -0.319638 -0.000228882  -0.108488 -0.304674 0.00012207  -0.138265 -0.301977 -0.000418901  -0.125991 -0.318238 -0.00028944  -0.123259 -0.303352 0.000128984  -0.108471 -0.304641 -0.000279188  -0.12324 -0.303321 -0.00034833  -0.146505 -0.346826 -0.000229359  -0.143858 -0.331797 0.000145912  -0.131274 -0.348412 0.000143766  -0.116223 -0.349909 -0.000144243  -0.113716 -0.334753 0.000131607  -0.143848 -0.331776 -0.000292778  -0.13126 -0.348384 -0.00018549  -0.128679 -0.333292 0.000138998  -0.113701 -0.334728 -0.000183344  -0.128664 -0.333267 -0.000237226  -0.151558 -0.377162 -0.000128269  -0.149084 -0.361976 0.000155926  -0.136243 -0.378858 0.000154495  -0.12108 -0.380468 -5.84126e-05  -0.118693 -0.365175 0.000141859  -0.149075 -0.361962 -0.000180721  -0.136229 -0.378833 -9.29832e-05  -0.133794 -0.363596 0.000148773  -0.118681 -0.365156 -9.82285e-05  -0.133781 -0.363578 -0.000139713  -0.156296 -0.407731 -3.48091e-05  -0.15397 -0.392438 0.000166416  -0.140936 -0.409504 0.000164509  -0.125706 -0.411202 4.52995e-06  -0.123428 -0.395828 0.000151634  -0.153964 -0.392429 -8.41618e-05  -0.140926 -0.409487 -1.38283e-05  -0.13862 -0.394156 0.000159502  -0.123418 -0.395816 -2.43187e-05  -0.13861 -0.394143 -5.31673e-05  -0.160749 -0.438416 3.71933e-05  -0.158564 -0.42307 0.000176668  -0.145384 -0.440256 0.000174999  -0.130121 -0.442022 6.86646e-05  -0.127945 -0.426612 0.000161886  -0.158558 -0.423066 -4.76837e-07  -0.145374 -0.440241 5.36442e-05  -0.143189 -0.424865 0.000169516  -0.127939 -0.426604 3.95775e-05  -0.14318 -0.424858 1.97887e-05  -0.164959 -0.469152 0.000102282  -0.162885 -0.453788 0.000186682  -0.149614 -0.471028 0.000184774  -0.134347 -0.472842 0.000110626  -0.13226 -0.457438 0.000171661  -0.162882 -0.453788 6.74725e-05  -0.149606 -0.471019 0.000107765  -0.147521 -0.455638 0.000179529  -0.132254 -0.457434 9.25064e-05  -0.147515 -0.455634 8.08239e-05  -0.168964 -0.49985 0.000147104  -0.166991 -0.484508 0.000197172  -0.153664 -0.501753 0.000193834  -0.138412 -0.503598 0.000153303  -0.136403 -0.48823 0.000181437  -0.166986 -0.484511 0.000123262  -0.153655 -0.501743 0.000150442  -0.151659 -0.486393 0.000189066  -0.136398 -0.488229 0.000134945  -0.151652 -0.486392 0.000129223  -0.172822 -0.530472 0.000186443  -0.170911 -0.515173 0.000205755  -0.157569 -0.532374 0.000202894  -0.142342 -0.534233 0.000178099  -0.140395 -0.518928 0.000190258  -0.170908 -0.515178 0.000163794  -0.157562 -0.532369 0.000183105  -0.155629 -0.517072 0.000197887  -0.140389 -0.51893 0.000168085  -0.155623 -0.517073 0.000166655  -0.176589 -0.560973 0.000211954  -0.17472 -0.545733 0.00021553  -0.161381 -0.562866 0.000212669  -0.146175 -0.564725 0.000207901  -0.144273 -0.549492 0.000199318  -0.174714 -0.54574 0.000196218  -0.161372 -0.562859 0.000210285  -0.159483 -0.547629 0.000207663  -0.144269 -0.549494 0.00019455  -0.159477 -0.547632 0.000195742  -0.180332 -0.591388 0.000240803  -0.178463 -0.576185 0.000224829  -0.165144 -0.593252 0.000221968  -0.149956 -0.595084 0.000226021  -0.148072 -0.579913 0.000208855  -0.17846 -0.576192 0.000222206  -0.16514 -0.593245 0.000234604  -0.163262 -0.578063 0.000217438  -0.148065 -0.579916 0.000217915  -0.163257 -0.578065 0.000221491  -0.00383373 -0.00706251 4.52995e-06  0 0 0  -0.00270395 -0.00561509 -0.000681877  -0.000946786 -0.00211076 1.66893e-06  0 0 0  -0.00383658 -0.00700727 -0.000852823  -0.00129452 -0.00294532 1.90735e-06  0 0 0  -0.000945061 -0.00209099 -0.000369787  -0.00129155 -0.002923 -0.000463486  -0.0111012 -0.0179887 9.77516e-06  -0.00807288 -0.016025 -0.00111771  -0.00514272 -0.0105044 5.96046e-06  -0.0111143 -0.0178854 -0.00139046  -0.00720534 -0.0122432 6.91414e-06  -0.00515147 -0.010446 -0.000935078  -0.00721501 -0.0121745 -0.00116444  -0.0193003 -0.0308953 1.54972e-05  -0.0145561 -0.0291694 -0.00130343  -0.0112475 -0.0224027 1.09673e-05  -0.0193152 -0.0307648 -0.00162148  -0.015185 -0.0241684 1.26362e-05  -0.0112625 -0.0223072 -0.00123811  -0.0152003 -0.0240607 -0.00153899  -0.0273713 -0.0459446 2.19345e-05  -0.0211166 -0.0446022 -0.00130963  -0.0178442 -0.0367164 1.66893e-05  -0.0273768 -0.0458012 -0.00163054  -0.0233702 -0.0381232 1.85966e-05  -0.017855 -0.036599 -0.00132227  -0.0233832 -0.0379955 -0.00164533  -0.0350981 -0.063246 2.93255e-05  -0.0274731 -0.0622708 -0.00121617  -0.0243257 -0.0532881 2.28882e-05  -0.0350896 -0.0631058 -0.00151992  -0.0312809 -0.0543079 2.52724e-05  -0.0243236 -0.0531631 -0.00127029  -0.03128 -0.0541763 -0.00158405  -0.0424551 -0.0826683 3.74317e-05  -0.0336043 -0.0820277 -0.00108123  -0.030579 -0.0720195 3.02792e-05  -0.0424346 -0.0825342 -0.00135517  -0.0388191 -0.0726917 3.3617e-05  -0.0305648 -0.0718973 -0.00115085  -0.0388062 -0.0725651 -0.00143981  -0.0494726 -0.104024 4.50611e-05  -0.0395421 -0.103691 -0.0009377  -0.0366188 -0.092746 3.69549e-05  -0.0494441 -0.103903 -0.0011816  -0.0460032 -0.0931055 4.1008e-05  -0.0365952 -0.0926319 -0.00100946  -0.0459789 -0.0929897 -0.00126815  -0.0561854 -0.127099 5.36442e-05  -0.0453147 -0.127052 -0.000797987  -0.0424753 -0.115272 4.50611e-05  -0.0561525 -0.12699 -0.0010097  -0.052862 -0.115347 4.91142e-05  -0.0424469 -0.115169 -0.00086689  -0.0528333 -0.115243 -0.0010941  -0.0626272 -0.151699 6.24657e-05  -0.0509454 -0.151917 -0.000669241  -0.0481772 -0.139397 5.38826e-05  -0.0625935 -0.151605 -0.000853062  -0.059437 -0.139209 5.8651e-05  -0.0481466 -0.139307 -0.000731945  -0.0594047 -0.139119 -0.000928879  -0.0688205 -0.177622 7.15256e-05  -0.0564426 -0.178085 -0.000551939  -0.0537391 -0.164925 6.19888e-05  -0.0687875 -0.177538 -0.00070858  -0.0657502 -0.164494 6.69956e-05  -0.0537095 -0.164847 -0.000608921  -0.0657196 -0.164416 -0.000778675  -0.0747837 -0.20469 8.03471e-05  -0.0618147 -0.205378 -0.000446081  -0.0591726 -0.191666 7.00951e-05  -0.0747528 -0.20462 -0.000580311  -0.0718286 -0.191012 7.58171e-05  -0.0591441 -0.1916 -0.000497818  -0.071798 -0.190947 -0.0006423  -0.0805252 -0.232723 9.05991e-05  -0.0670578 -0.233614 -0.00034976  -0.0644772 -0.219441 7.96318e-05  -0.0804963 -0.232663 -0.000460386  -0.0776783 -0.218584 8.53539e-05  -0.0644516 -0.219386 -0.00039649  -0.077651 -0.21853 -0.000518322  -0.0860534 -0.261565 0.000100374  -0.0721724 -0.262636 -0.000262499  -0.0696546 -0.24808 8.91685e-05  -0.0860275 -0.261516 -0.000355005  -0.0833141 -0.247041 9.53674e-05  -0.0696312 -0.248035 -0.000304937  -0.0832883 -0.246998 -0.000405788  -0.0913702 -0.291056 0.000110626  -0.0771501 -0.292286 -0.000184536  -0.0746976 -0.277425 9.84669e-05  -0.0913471 -0.291013 -0.000257492  -0.0887343 -0.276226 0.000105143  -0.0746776 -0.27739 -0.000222445  -0.0887129 -0.276191 -0.000304937  -0.0964823 -0.321061 0.000120163  -0.0819912 -0.322429 -0.000114679  -0.0796053 -0.30733 0.000108242  -0.0964622 -0.321028 -0.000173569  -0.09395 -0.30599 0.000115395  -0.0795878 -0.307303 -0.000148535  -0.0939299 -0.305964 -0.000213861  -0.101391 -0.351445 0.000129938  -0.086688 -0.352931 -5.24521e-05  -0.0843714 -0.337661 0.000117779  -0.101374 -0.351417 -9.58443e-05  -0.0989583 -0.336201 0.000124931  -0.084357 -0.337641 -8.24928e-05  -0.0989424 -0.336182 -0.000133276  -0.106107 -0.382096 0.00014019  -0.0912445 -0.383679 1.90735e-06  -0.0889959 -0.368293 0.000127792  -0.106092 -0.382076 -2.93255e-05  -0.103771 -0.366732 0.000135183  -0.0889838 -0.368279 -2.38419e-05  -0.103756 -0.36672 -6.10352e-05  -0.110635 -0.412903 0.00014925  -0.0956573 -0.414565 4.95911e-05  -0.0934768 -0.399117 0.000137091  -0.110622 -0.412887 2.95639e-05  -0.108389 -0.397474 0.000144958  -0.0934677 -0.399109 2.69413e-05  -0.108379 -0.397467 1.66893e-06  -0.11499 -0.443781 0.000159264  -0.0999353 -0.445505 9.05991e-05  -0.0978205 -0.430035 0.000146627  -0.11498 -0.443771 7.77245e-05  -0.112831 -0.428327 0.000154257  -0.0978124 -0.430032 7.08103e-05  -0.112821 -0.428325 5.53131e-05  -0.119185 -0.474642 0.0001688  -0.104083 -0.476412 0.000123739  -0.10203 -0.460964 0.000156879  -0.119176 -0.474633 0.000119448  -0.117103 -0.459206 0.000163794  -0.102024 -0.460965 0.000108242  -0.117096 -0.459207 9.98974e-05  -0.123241 -0.505425 0.000178099  -0.108113 -0.507229 0.000150919  -0.106117 -0.49183 0.000165462  -0.123233 -0.505421 0.000150919  -0.121228 -0.490035 0.000172853  -0.106112 -0.491834 0.000138044  -0.121221 -0.49004 0.000136137  -0.127174 -0.536075 0.000187159  -0.112034 -0.5379 0.000173807  -0.110089 -0.522577 0.000174761  -0.127166 -0.536071 0.00017786  -0.125218 -0.520757 0.000182629  -0.110085 -0.522583 0.000163078  -0.125213 -0.520764 0.000165462  -0.131011 -0.56657 0.000196457  -0.115867 -0.568402 0.000192404  -0.113963 -0.553165 0.000183582  -0.131004 -0.566569 0.00019908  -0.129101 -0.551332 0.000191689  -0.11396 -0.553172 0.000183344  -0.129095 -0.55134 0.000189304  -0.134798 -0.596905 0.000205278  -0.119647 -0.598712 0.000211  -0.117762 -0.583571 0.000192404  -0.134786 -0.596902 0.000221252  -0.132903 -0.581745 0.000200748  -0.117759 -0.583579 0.000201464  -0.132897 -0.581754 0.000210285  -0.0018207 -0.00480133 3.09944e-06  0 0 0  -0.00107945 -0.00427353 -0.000340939  -0.000376254 -0.00133824 7.15256e-07  0 0 0  -0.00182205 -0.0047583 -0.000510931  -0.00062152 -0.00160706 1.43051e-06  0 0 0  -0.000375517 -0.00132254 -0.000184298  -0.000620849 -0.00159305 -0.000276804  -0.00557369 -0.0148417 7.39098e-06  -0.00337178 -0.0140274 -0.000563145  -0.00209503 -0.00869301 3.8147e-06  -0.00558239 -0.0147631 -0.000842094  -0.00350837 -0.00935566 5.00679e-06  -0.00209813 -0.00864562 -0.000468969  -0.00351326 -0.0093061 -0.000703096  -0.0103129 -0.0281413 1.19209e-05  -0.00642917 -0.027364 -0.000658751  -0.00483111 -0.020424 7.86781e-06  -0.0103212 -0.028032 -0.000982046  -0.00787595 -0.0211577 9.77516e-06  -0.00483596 -0.0203432 -0.000625134  -0.0078865 -0.0210732 -0.00093317  -0.0153025 -0.0438929 1.74046e-05  -0.00982016 -0.0433188 -0.000659943  -0.00810021 -0.0351501 1.23978e-05  -0.0153019 -0.0437678 -0.000986338  -0.0128015 -0.0357193 1.45435e-05  -0.00810078 -0.0350448 -0.00066781  -0.0128066 -0.0356113 -0.000996828  -0.0202678 -0.0618738 2.40803e-05  -0.0133449 -0.0615355 -0.000606775  -0.0115783 -0.0522737 1.78814e-05  -0.020255 -0.0617431 -0.000910759  -0.0177923 -0.0526045 2.0504e-05  -0.0115699 -0.0521557 -0.000637054  -0.0177868 -0.0524858 -0.000954866  -0.0251635 -0.081899 3.02792e-05  -0.0169634 -0.0817911 -0.000531435  -0.015158 -0.0715335 2.38419e-05  -0.0251414 -0.0817733 -0.000807047  -0.0227222 -0.0716281 2.69413e-05  -0.0151411 -0.0714136 -0.000570059  -0.0227051 -0.07151 -0.000861645  -0.0300105 -0.10381 3.74317e-05  -0.0206875 -0.103922 -0.000450134  -0.0188338 -0.0927448 3.05176e-05  -0.0299821 -0.103692 -0.000693083  -0.02759 -0.0926202 3.40939e-05  -0.0188107 -0.0926303 -0.000490427  -0.027566 -0.0925083 -0.000750303  -0.0348253 -0.127392 4.52995e-05  -0.0245209 -0.127715 -0.00037241  -0.0226155 -0.115722 3.69549e-05  -0.0347943 -0.127286 -0.000585556  -0.0324191 -0.115391 4.12464e-05  -0.0225891 -0.115617 -0.000410557  -0.0323902 -0.11529 -0.0006392  -0.0396222 -0.152469 5.31673e-05  -0.0284649 -0.152992 -0.000300884  -0.0265058 -0.140271 4.45843e-05  -0.0395904 -0.152374 -0.000483751  -0.0372238 -0.139745 4.91142e-05  -0.0264788 -0.140177 -0.000335455  -0.0371943 -0.139655 -0.000534058  -0.0443981 -0.178826 6.07967e-05  -0.0325037 -0.17954 -0.000236273  -0.0304983 -0.166196 5.19753e-05  -0.0443677 -0.178744 -0.000394106  -0.0420107 -0.165486 5.6982e-05  -0.0304719 -0.166114 -0.000267029  -0.041981 -0.165408 -0.000438452  -0.0491518 -0.2063 6.91414e-05  -0.0366249 -0.207191 -0.000177383  -0.0345792 -0.193307 5.88894e-05  -0.049123 -0.206229 -0.000310898  -0.0467762 -0.192425 6.50883e-05  -0.0345545 -0.193236 -0.000206232  -0.0467485 -0.192358 -0.000351906  -0.053869 -0.234694 7.84397e-05  -0.040804 -0.235747 -0.000124454  -0.0387298 -0.221421 6.79493e-05  -0.053843 -0.234634 -0.000237703  -0.0515132 -0.22038 7.36713e-05  -0.0387069 -0.221361 -0.000150204  -0.0514873 -0.220325 -0.000273943  -0.0585426 -0.263865 8.74996e-05  -0.0450244 -0.265063 -7.72476e-05  -0.0429295 -0.250367 7.67708e-05  -0.058519 -0.263813 -0.000169277  -0.0562096 -0.249182 8.27312e-05  -0.0429093 -0.250317 -0.000100374  -0.0561874 -0.249137 -0.000203133  -0.0631548 -0.293638 9.70364e-05  -0.0492594 -0.294966 -3.48091e-05  -0.0471572 -0.279986 8.55923e-05  -0.0631342 -0.293597 -0.000110149  -0.0608544 -0.278672 9.2268e-05  -0.0471395 -0.279945 -5.50747e-05  -0.0608342 -0.278636 -0.000139475  -0.0676991 -0.323895 0.000106573  -0.0534958 -0.325334 3.57628e-06  -0.0513928 -0.31013 9.46522e-05  -0.0676806 -0.32386 -5.48363e-05  -0.065434 -0.308704 0.000101566  -0.0513778 -0.310097 -1.54972e-05  -0.0654165 -0.308676 -8.24928e-05  -0.0721594 -0.354485 0.00011611  -0.0577083 -0.356021 3.8147e-05  -0.055617 -0.340665 0.000104189  -0.0721438 -0.354458 -7.62939e-06  -0.0699377 -0.339143 0.000111103  -0.0556042 -0.34064 2.16961e-05  -0.0699223 -0.339123 -3.12328e-05  -0.0765328 -0.385314 0.00012517  -0.061887 -0.386929 6.74725e-05  -0.0598121 -0.37147 0.00011301  -0.0765185 -0.385293 3.55244e-05  -0.074355 -0.369866 0.000120163  -0.0598018 -0.37145 5.31673e-05  -0.0743426 -0.369852 1.40667e-05  -0.0808072 -0.416258 0.000134468  -0.0660143 -0.417939 9.27448e-05  -0.0639646 -0.402435 0.000122309  -0.0807958 -0.416243 7.08103e-05  -0.0786793 -0.400765 0.000129223  -0.063956 -0.402422 8.10623e-05  -0.0786688 -0.400757 5.31673e-05  -0.0849876 -0.44725 0.000144243  -0.070086 -0.448981 0.000115871  -0.0680637 -0.433466 0.000131369  -0.0849776 -0.447238 0.000104427  -0.0829067 -0.431744 0.000138998  -0.0680561 -0.433458 0.000105143  -0.0828986 -0.43174 8.7738e-05  -0.0890675 -0.478189 0.000153303  -0.0740902 -0.47996 0.000135183  -0.0721006 -0.464481 0.000141144  -0.0890596 -0.478182 0.000129223  -0.0870371 -0.462718 0.000148296  -0.0720949 -0.464477 0.0001266  -0.0870302 -0.462718 0.000116587  -0.0930557 -0.509036 0.000162601  -0.0780284 -0.510834 0.000151634  -0.0760705 -0.495411 0.000149965  -0.0930486 -0.50903 0.000152588  -0.0910707 -0.493618 0.000157833  -0.0760667 -0.49541 0.000143766  -0.0910656 -0.493621 0.000140905  -0.0969515 -0.539721 0.000171423  -0.081893 -0.541539 0.000164747  -0.0799706 -0.526204 0.000159025  -0.0969458 -0.539718 0.000169039  -0.0950119 -0.524388 0.000166893  -0.079968 -0.526205 0.000159264  -0.0950074 -0.524395 0.000160694  -0.100773 -0.570232 0.000180244  -0.0856948 -0.572055 0.000178099  -0.0838032 -0.556817 0.000167131  -0.100766 -0.570228 0.000186205  -0.0988679 -0.55499 0.000175476  -0.0838001 -0.556819 0.000171185  -0.0988643 -0.554997 0.000177383  -0.104536 -0.600516 0.000188589  -0.0894446 -0.60232 0.000189781  -0.0875752 -0.587214 0.000175953  -0.104533 -0.600514 0.00020051  -0.102656 -0.585391 0.000184536  -0.0875716 -0.587216 0.000183582  -0.102653 -0.585399 0.000192881  -0.000404872 -0.00411978 1.66893e-06  0 0 0  0.000230998 -0.00415385 1.90735e-06  7.89613e-05 -0.00127468 2.38419e-07  0 0 0  -0.000404432 -0.00408506 -0.000169516  -0.000139214 -0.00123268 4.76837e-07  0 0 0  7.90134e-05 -0.00126392 2.14577e-06  -0.000137616 -0.00122291 -9.05991e-05  -0.00135487 -0.0138077 4.52995e-06  0.000581443 -0.0138741 -1.90735e-06  0.000407845 -0.0085215 1.66893e-06  -0.00135334 -0.0137426 -0.000281572  -0.000811681 -0.00842616 2.86102e-06  0.000411689 -0.0084855 7.15256e-07  -0.000811666 -0.00838804 -0.000233412  -0.002792 -0.0272363 8.10623e-06  0.000739872 -0.0273571 -7.62939e-06  0.000689715 -0.020314 4.52995e-06  -0.00278756 -0.0271409 -0.000333786  -0.00202066 -0.0201472 6.19888e-06  0.000697762 -0.0202463 -5.00679e-06  -0.00201827 -0.0200768 -0.000314474  -0.00459051 -0.0433691 1.28746e-05  0.00053364 -0.0435853 -6.67572e-06  0.00067544 -0.0352641 7.86781e-06  -0.00458065 -0.0432548 -0.000331879  -0.00365192 -0.0349959 1.00136e-05  0.000687271 -0.0351706 -8.58307e-06  -0.00364614 -0.0349 -0.000337362  -0.00667334 -0.0617754 1.7643e-05  -9.40561e-05 -0.0621039 2.86102e-06  0.000258446 -0.0526829 1.23978e-05  -0.00665677 -0.061652 -0.000302076  -0.00559807 -0.0522951 1.52588e-05  0.000273347 -0.0525752 -2.38419e-06  -0.00558537 -0.0521855 -0.000318766  -0.00901467 -0.0822064 2.36034e-05  -0.00114501 -0.0826678 1.88351e-05  -0.000584602 -0.0722509 1.71661e-05  -0.00899297 -0.0820849 -0.000255108  -0.00781018 -0.0717357 2.0504e-05  -0.00056684 -0.0721391 1.07288e-05  -0.00779235 -0.0716228 -0.00027895  -0.0116131 -0.104501 2.95639e-05  -0.00260764 -0.105097 3.60012e-05  -0.00184536 -0.0937672 2.26498e-05  -0.0115882 -0.104385 -0.000207663  -0.0102808 -0.0931212 2.6226e-05  -0.00182587 -0.093659 2.76566e-05  -0.0102581 -0.0930128 -0.000231028  -0.0144581 -0.128449 3.6478e-05  -0.00445622 -0.12919 5.34058e-05  -0.00350529 -0.117045 2.83718e-05  -0.0144321 -0.128344 -0.000158787  -0.0130033 -0.116267 3.24249e-05  -0.00348473 -0.116945 4.52995e-05  -0.0129794 -0.116167 -0.000182629  -0.0175371 -0.153875 4.33922e-05  -0.0066644 -0.154754 6.79493e-05  -0.00553715 -0.141889 3.50475e-05  -0.0175111 -0.15378 -0.000117064  -0.0159678 -0.140979 4.00543e-05  -0.00551713 -0.141799 6.10352e-05  -0.0159432 -0.140889 -0.000136375  -0.0208236 -0.180563 5.03063e-05  -0.00919378 -0.181583 8.05855e-05  -0.0079093 -0.168099 4.1008e-05  -0.0207992 -0.18048 -7.70092e-05  -0.0191534 -0.16706 4.64916e-05  -0.00789034 -0.16802 7.4625e-05  -0.0191302 -0.166982 -9.60827e-05  -0.0242952 -0.208345 5.8651e-05  -0.0120109 -0.209493 9.17912e-05  -0.0105854 -0.195481 4.91142e-05  -0.0242722 -0.208273 -4.31538e-05  -0.0225364 -0.194318 5.4121e-05  -0.0105686 -0.195413 8.70228e-05  -0.022514 -0.194251 -5.91278e-05  -0.0279181 -0.237021 6.62804e-05  -0.0150735 -0.238293 0.000101566  -0.0135282 -0.223847 5.67436e-05  -0.0278975 -0.23696 -1.12057e-05  -0.0260868 -0.222569 6.22272e-05  -0.013513 -0.22379 9.72748e-05  -0.0260673 -0.222513 -2.64645e-05  -0.031667 -0.266446 7.4625e-05  -0.0183463 -0.267824 0.000109673  -0.016699 -0.253023 6.46114e-05  -0.0316479 -0.266394 1.52588e-05  -0.0297767 -0.25164 7.05719e-05  -0.0166857 -0.252976 0.000105858  -0.0297586 -0.251594 3.09944e-06  -0.0355078 -0.296444 8.39233e-05  -0.021789 -0.297922 0.00011611  -0.0200592 -0.282847 7.29561e-05  -0.0354916 -0.296402 4.12464e-05  -0.0335745 -0.28137 7.9155e-05  -0.0200478 -0.282809 0.000113487  -0.0335593 -0.281333 2.88486e-05  -0.0394187 -0.326896 9.29832e-05  -0.02537 -0.328454 0.000123024  -0.0235734 -0.313171 8.10623e-05  -0.0394039 -0.32686 6.24657e-05  -0.0374545 -0.311612 8.79765e-05  -0.0235642 -0.313141 0.000119686  -0.0374404 -0.311583 5.24521e-05  -0.0433673 -0.357651 0.000101566  -0.0290515 -0.359283 0.000128269  -0.0272067 -0.343859 9.03606e-05  -0.0433552 -0.357623 8.36849e-05  -0.0413867 -0.34223 9.72748e-05  -0.0271994 -0.343836 0.000126123  -0.0413759 -0.342208 7.36713e-05  -0.0473368 -0.388617 0.000110626  -0.0328076 -0.390304 0.000133276  -0.0309274 -0.374791 9.87053e-05  -0.0473261 -0.388595 9.98974e-05  -0.0453489 -0.373104 0.000106096  -0.0309217 -0.374775 0.00013113  -0.0453391 -0.373089 9.25064e-05  -0.0513017 -0.419672 0.000119448  -0.0366073 -0.421409 0.000138998  -0.0347071 -0.40586 0.000107527  -0.0512934 -0.419656 0.000116587  -0.0493178 -0.404127 0.000114918  -0.0347025 -0.405849 0.000136137  -0.0493109 -0.404117 0.000108719  -0.0552514 -0.450749 0.000128984  -0.0404315 -0.452519 0.00014329  -0.0385203 -0.436972 0.000116825  -0.055244 -0.450737 0.000129461  -0.0532773 -0.435203 0.000123978  -0.0385172 -0.436967 0.000141382  -0.0532713 -0.435199 0.000123739  -0.0591676 -0.481754 0.000137568  -0.0442562 -0.483554 0.00014782  -0.042346 -0.468048 0.000125408  -0.0591614 -0.481746 0.000142097  -0.0572112 -0.466253 0.000133276  -0.0423439 -0.468047 0.000145912  -0.0572071 -0.466252 0.000136375  -0.0630448 -0.512648 0.000146389  -0.0480702 -0.514462 0.000152111  -0.0461664 -0.499023 0.000133753  -0.0630395 -0.512642 0.000151396  -0.0611095 -0.497208 0.000141621  -0.0461652 -0.499025 0.000149965  -0.0611057 -0.497211 0.000147343  -0.0668724 -0.543363 0.000155449  -0.0518577 -0.545192 0.000156641  -0.0499668 -0.529845 0.000143051  -0.0668681 -0.54336 0.000161409  -0.0649619 -0.528018 0.000150681  -0.0499673 -0.52985 0.000154495  -0.0649595 -0.528023 0.000156641  -0.070652 -0.573883 0.00016427  -0.055613 -0.575712 0.000160933  -0.0537395 -0.560473 0.000151396  -0.0706472 -0.573879 0.0001688  -0.0687661 -0.558639 0.00015974  -0.0537398 -0.560479 0.000158548  -0.0687635 -0.558646 0.000165701  -0.0743818 -0.604137 0.000172853  -0.0593193 -0.605966 0.000165224  -0.0574722 -0.590866 0.000160694  -0.0743737 -0.604133 0.000178337  -0.0725188 -0.589034 0.000168562  -0.0574722 -0.590873 0.000163555  -0.072516 -0.589041 0.000173807  0.000868469 -0.00450426 0  0 0 0  0.00155033 -0.00504816 0.000336409  0.000536636 -0.0017696 -2.38419e-07  0 0 0  0.000872716 -0.004471 0.000171661  0.00029891 -0.00144517 0  0 0 0  0.000536278 -0.00175512 0.000184059  0.00029818 -0.00143629 9.39369e-05  0.00250664 -0.0144628 1.90735e-06  0.004527 -0.0153357 0.000546932  0.00291458 -0.00975734 -2.38419e-07  0.00251973 -0.0144007 0.000275135  0.00163263 -0.00896013 7.15256e-07  0.00292602 -0.00971454 0.000460386  0.00164159 -0.00892425 0.000233173  0.00423616 -0.0280928 4.05312e-06  0.00784943 -0.0290697 0.00063014  0.00617921 -0.0219299 1.19209e-06  0.00425494 -0.028001 0.000315428  0.00339478 -0.0209067 2.6226e-06  0.00620139 -0.0218558 0.000601292  0.00341034 -0.0208396 0.000300646  0.00559753 -0.0444099 7.62939e-06  0.0107704 -0.0453974 0.00063467  0.00936234 -0.0370323 3.57628e-06  0.0056181 -0.0442991 0.000316381  0.00497955 -0.0359433 5.24521e-06  0.00938722 -0.0369341 0.0006392  0.00499928 -0.0358512 0.000317574  0.00640589 -0.0630127 1.16825e-05  0.0129976 -0.0640126 0.000605106  0.0119542 -0.0545413 6.91414e-06  0.00642693 -0.0628917 0.000306845  0.0060758 -0.0534321 9.53674e-06  0.0119771 -0.0544297 0.000622511  0.00609535 -0.0533256 0.000311852  0.00663406 -0.0836561 1.5974e-05  0.0144893 -0.0846983 0.000562668  0.0138153 -0.0742179 1.04904e-05  0.00665456 -0.0835364 0.000291348  0.00659311 -0.0730775 1.38283e-05  0.0138348 -0.0741027 0.000584602  0.00661308 -0.072967 0.000298738  0.00630105 -0.106177 2.12193e-05  0.0152757 -0.107285 0.000519753  0.0149507 -0.0958747 1.4782e-05  0.00632155 -0.106062 0.000279665  0.00653708 -0.0946831 1.88351e-05  0.0149685 -0.0957631 0.00054121  0.00655603 -0.0945759 0.000285149  0.00544775 -0.130358 2.69413e-05  0.0154107 -0.131547 0.000476599  0.0154067 -0.119318 2.00272e-05  0.00546741 -0.130253 0.000265121  0.00593847 -0.118059 2.45571e-05  0.0154225 -0.119214 0.000498533  0.00595766 -0.11796 0.000271797  0.00411344 -0.156019 3.31402e-05  0.0149444 -0.157296 0.000436068  0.0152357 -0.14434 2.5034e-05  0.00413239 -0.155924 0.000253439  0.00484002 -0.143006 2.95639e-05  0.0152501 -0.144246 0.000456095  0.0048573 -0.142916 0.000258446  0.00234735 -0.182935 3.95775e-05  0.0139368 -0.184302 0.000397682  0.0144935 -0.170732 3.12328e-05  0.00236452 -0.182852 0.000238895  0.00328374 -0.169319 3.62396e-05  0.0145065 -0.170649 0.000417233  0.00330031 -0.169241 0.000245571  0.00019145 -0.210935 4.74453e-05  0.0124385 -0.212387 0.000362396  0.0132352 -0.198291 3.76701e-05  0.000207305 -0.210861 0.000228167  0.00131714 -0.196801 4.33922e-05  0.0132463 -0.198219 0.000379801  0.00133169 -0.196733 0.000232935  -0.00230229 -0.239811 5.45979e-05  0.0105101 -0.241344 0.000328064  0.0115169 -0.226824 4.45843e-05  -0.00228834 -0.239749 0.000214577  -0.00101376 -0.225261 5.07832e-05  0.0115263 -0.226762 0.000344992  -0.0010004 -0.225204 0.000220299  -0.00509191 -0.269417 6.29425e-05  0.008201 -0.271021 0.000297308  0.0093931 -0.256153 5.19753e-05  -0.00507915 -0.269364 0.000204802  -0.0036608 -0.254523 5.84126e-05  0.00940096 -0.2561 0.000312567  -0.00364971 -0.254476 0.000209093  -0.00812733 -0.299574 7.03335e-05  0.00556934 -0.301241 0.000267982  0.0069176 -0.286111 5.98431e-05  -0.00811684 -0.29953 0.000191927  -0.00657904 -0.284423 6.62804e-05  0.00692403 -0.286067 0.000283003  -0.00656915 -0.284385 0.000197411  -0.0113715 -0.330162 7.93934e-05  0.0026592 -0.331881 0.000241995  0.00414217 -0.316549 6.77109e-05  -0.011362 -0.330125 0.000184059  -0.00972366 -0.314812 7.4625e-05  0.00414693 -0.316514 0.000255346  -0.00971591 -0.314782 0.000187397  -0.014778 -0.361031 8.72612e-05  -0.000475645 -0.362793 0.000220299  0.00111508 -0.347332 7.55787e-05  -0.0147703 -0.361002 0.000174046  -0.0130541 -0.345555 8.34465e-05  0.0011189 -0.347305 0.000231028  -0.0130475 -0.345533 0.000178337  -0.0183148 -0.392089 9.56059e-05  -0.00379539 -0.393885 0.000200987  -0.00211692 -0.378341 8.44002e-05  -0.0183077 -0.392065 0.000167847  -0.0165298 -0.376533 9.15527e-05  -0.00211406 -0.37832 0.000210047  -0.016525 -0.376517 0.000170231  -0.0219426 -0.423216 0.000105381  -0.00725484 -0.425037 0.000184536  -0.00550985 -0.409469 9.32217e-05  -0.0219371 -0.423199 0.000161409  -0.0201166 -0.407637 0.000100136  -0.00550795 -0.409453 0.000192404  -0.020112 -0.407627 0.000163555  -0.0256362 -0.454347 0.000113964  -0.0108225 -0.456185 0.000170708  -0.00902748 -0.440623 0.000102282  -0.0256319 -0.454334 0.000158548  -0.0237803 -0.438776 0.000109673  -0.00902653 -0.440613 0.000177145  -0.023778 -0.438771 0.00015974  -0.0293651 -0.48539 0.000122309  -0.0144587 -0.487238 0.000159979  -0.0126324 -0.471728 0.000110149  -0.029362 -0.485381 0.00015378  -0.0274947 -0.469871 0.000118017  -0.0126317 -0.471722 0.000165462  -0.027493 -0.46987 0.00015521  -0.0331132 -0.516308 0.000131369  -0.018142 -0.51816 0.000153065  -0.0162942 -0.502718 0.000118494  -0.0331104 -0.516301 0.00015378  -0.0312357 -0.500858 0.0001266  -0.0162947 -0.502716 0.000156403  -0.031235 -0.50086 0.000153303  -0.0368576 -0.547035 0.000139475  -0.0218456 -0.548889 0.000147343  -0.0199897 -0.533545 0.000127077  -0.0368557 -0.547032 0.000151634  -0.0349841 -0.531685 0.000135422  -0.0199909 -0.533546 0.000150204  -0.0349836 -0.53169 0.000152111  -0.0405889 -0.577559 0.000148296  -0.0255525 -0.579411 0.000144482  -0.0236983 -0.564172 0.000135183  -0.0405865 -0.577555 0.000153542  -0.0387235 -0.562315 0.000143528  -0.023699 -0.564174 0.000145674  -0.0387239 -0.562321 0.000151873  -0.0442734 -0.607814 0.000157118  -0.0292237 -0.609676 0.000141621  -0.0273929 -0.59457 0.000144005  -0.044275 -0.60781 0.000153542  -0.0424361 -0.59271 0.000152111  -0.0273936 -0.594572 0.000142813  -0.0424368 -0.592716 0.000152826  0.00230494 -0.00596285 -9.53674e-07  0 0 0  0.00319652 -0.00717402 0.000650644  0.00110973 -0.0030207 -1.19209e-06  0 0 0  0.00231132 -0.00592405 0.000496149  0.000789247 -0.00226879 -7.15256e-07  0 0 0  0.00110874 -0.00300276 0.000354052  0.000789523 -0.00225627 0.000270844  0.00669867 -0.016774 -7.15256e-07  0.00915807 -0.0185595 0.00106192  0.00595191 -0.012586 -2.38419e-06  0.00672233 -0.0167049 0.000810385  0.00433582 -0.0109414 -1.66893e-06  0.00596873 -0.0125363 0.000891447  0.00435005 -0.0108985 0.00067997  0.0116162 -0.0306576 4.76837e-07  0.0157214 -0.0324711 0.00123596  0.0124395 -0.0253068 -2.14577e-06  0.011648 -0.03056 0.000937462  0.00917161 -0.023388 0  0.0124722 -0.0252256 0.00117421  0.00920069 -0.0233141 0.000893593  0.0160574 -0.0469787 2.38419e-06  0.0216489 -0.0486919 0.00125074  0.0187629 -0.0403892 -1.19209e-06  0.0160874 -0.0468647 0.000947952  0.01393 -0.0385156 1.19209e-06  0.0187979 -0.0402874 0.0012567  0.0139607 -0.0384188 0.000952959  0.019671 -0.0655758 5.72205e-06  0.0266014 -0.0672113 0.00118876  0.0242238 -0.0577819 7.15256e-07  0.0196958 -0.065454 0.000899076  0.0179751 -0.0559924 3.8147e-06  0.0242524 -0.0576704 0.00122547  0.018002 -0.0558838 0.000927687  0.0224075 -0.0862638 9.29832e-06  0.0305445 -0.087876 0.00109553  0.0286762 -0.0773976 3.57628e-06  0.0224275 -0.086144 0.000832081  0.0211492 -0.0756572 7.15256e-06  0.0286974 -0.0772851 0.00114417  0.0211699 -0.0755458 0.000867367  0.0243019 -0.108874 1.3113e-05  0.033521 -0.110492 0.000995159  0.0321341 -0.0990606 7.15256e-06  0.0243191 -0.108759 0.000757933  0.0234575 -0.0973313 1.07288e-05  0.0321499 -0.0989527 0.00104642  0.0234752 -0.0972242 0.000795603  0.0254177 -0.133172 1.7643e-05  0.0355992 -0.134824 0.000895977  0.0346562 -0.122555 1.04904e-05  0.0254326 -0.133068 0.000687838  0.0249553 -0.120813 1.50204e-05  0.0346684 -0.122455 0.00094533  0.0249694 -0.120713 0.000722885  0.0258154 -0.158965 2.31266e-05  0.0368468 -0.160655 0.00080204  0.0363129 -0.147655 1.57356e-05  0.025829 -0.158869 0.000618935  0.0257038 -0.145885 2.00272e-05  0.0363227 -0.147565 0.00084877  0.0257167 -0.145795 0.000653028  0.0255642 -0.186016 2.88486e-05  0.0373384 -0.187754 0.00071311  0.0371758 -0.174136 2.09808e-05  0.0255755 -0.185932 0.000556469  0.0257698 -0.172333 2.6226e-05  0.0371832 -0.174056 0.000757217  0.0257798 -0.172254 0.000588179  0.0247226 -0.214144 3.52859e-05  0.0371423 -0.215923 0.000631094  0.0373164 -0.201784 2.67029e-05  0.0247325 -0.214071 0.000495911  0.0252147 -0.199947 3.19481e-05  0.0373222 -0.201716 0.000671864  0.0252241 -0.199879 0.000526428  0.0233587 -0.243141 4.22001e-05  0.0363318 -0.244963 0.0005548  0.0368057 -0.230402 3.29018e-05  0.023367 -0.243078 0.000442266  0.024105 -0.228533 3.86238e-05  0.03681 -0.230343 0.00059247  0.0241116 -0.228475 0.000468969  0.0215293 -0.272852 4.93526e-05  0.0349725 -0.274704 0.000484228  0.035714 -0.259803 3.91006e-05  0.0215371 -0.272798 0.000390291  0.0225003 -0.257907 4.57764e-05  0.0357169 -0.259755 0.00051856  0.0225066 -0.257859 0.000416279  0.0193003 -0.303099 5.6982e-05  0.0331355 -0.304981 0.00042057  0.0341085 -0.289822 4.64916e-05  0.0193059 -0.303054 0.00034523  0.0204643 -0.287905 5.31673e-05  0.0341104 -0.289783 0.000451803  0.0204685 -0.287866 0.000367641  0.0167228 -0.333759 6.46114e-05  0.0308809 -0.335657 0.000362158  0.0320563 -0.320307 5.4121e-05  0.0167282 -0.333722 0.000302076  0.0180534 -0.318375 6.05583e-05  0.0320566 -0.320276 0.000391006  0.0180573 -0.318345 0.000323534  0.0138583 -0.364685 7.31945e-05  0.028276 -0.366599 0.000311375  0.0296201 -0.351123 6.12736e-05  0.0138621 -0.364655 0.00026679  0.0153261 -0.349184 6.86646e-05  0.0296195 -0.3511 0.00033617  0.0153284 -0.349161 0.000283957  0.0107527 -0.395785 8.17776e-05  0.0253744 -0.3977 0.00026679  0.0268605 -0.382151 7.00951e-05  0.0107553 -0.39576 0.000233412  0.0123346 -0.380209 7.72476e-05  0.0268588 -0.382134 0.000288725  0.012336 -0.380193 0.000250101  0.00745797 -0.426938 9.01222e-05  0.0222361 -0.428857 0.000228882  0.0238345 -0.413286 7.82013e-05  0.00746083 -0.42692 0.000207424  0.00912905 -0.411348 8.58307e-05  0.0238323 -0.413275 0.000247002  0.00912929 -0.411337 0.00022006  0.00401425 -0.458084 9.87053e-05  0.0189068 -0.459995 0.000197649  0.0205951 -0.444438 8.63075e-05  0.00401711 -0.45807 0.000183582  0.00575471 -0.442506 9.44138e-05  0.0205925 -0.444432 0.000212669  0.00575542 -0.442501 0.000195742  0.000467062 -0.48913 0.000106573  0.0154388 -0.491036 0.000172138  0.0171907 -0.475531 9.53674e-05  0.000468493 -0.489121 0.000166893  0.00225472 -0.473611 0.000102282  0.0171885 -0.475529 0.000184536  0.00225401 -0.473609 0.000174999  -0.00315499 -0.520044 0.000114918  0.011869 -0.521935 0.000153065  0.0136676 -0.506503 0.00010252  -0.00315452 -0.520036 0.000152588  -0.00133443 -0.504596 0.000110388  0.0136647 -0.506505 0.000162125  -0.00133538 -0.504599 0.00015974  -0.00681996 -0.550761 0.000123024  0.00823617 -0.552644 0.000139236  0.0100634 -0.537308 0.000111103  -0.00681949 -0.550757 0.000144243  -0.00498104 -0.535416 0.000118971  0.0100591 -0.537313 0.000145912  -0.00498271 -0.535421 0.000148296  -0.0105052 -0.581279 0.000132322  0.00456738 -0.583151 0.0001297  0.00640798 -0.567916 0.000119448  -0.010505 -0.581275 0.000136137  -0.0086596 -0.566036 0.000127316  0.00640464 -0.567922 0.000134468  -0.00866127 -0.566042 0.000140429  -0.0141702 -0.611559 0.000140429  0.000910044 -0.613454 0.000119686  0.00273752 -0.598318 0.000128508  -0.0141666 -0.611556 0.000130415  -0.0123403 -0.596437 0.000135899  0.00273371 -0.598325 0.000124931  -0.0123417 -0.596443 0.000133276  0.0043363 -0.00899506 -2.6226e-06  0 0 0  0.00575761 -0.0114246 0.000946283  0.00199454 -0.00573593 -1.66893e-06  0 0 0  0.00434482 -0.00894475 0.00080061  0.00146819 -0.00411928 -1.66893e-06  0 0 0  0.00199233 -0.00570482 0.000516176  0.00146631 -0.00409853 0.00043416  0.0120367 -0.021038 -4.29153e-06  0.0155019 -0.0238718 0.001544  0.010492 -0.017644 -4.76837e-06  0.0120667 -0.0209516 0.0013063  0.00797713 -0.0147779 -3.57628e-06  0.0105102 -0.0175685 0.00129437  0.00799668 -0.0147194 0.00109529  0.0201531 -0.0349016 -4.05312e-06  0.0251257 -0.0374697 0.00180435  0.0203786 -0.0305071 -5.96046e-06  0.0201937 -0.0347899 0.0015254  0.0161568 -0.0276911 -4.29153e-06  0.020416 -0.030401 0.00170994  0.0161929 -0.027601 0.00144577  0.0274882 -0.0509769 -3.09944e-06  0.0337852 -0.053336 0.00183654  0.0295502 -0.0452129 -6.4373e-06  0.0275257 -0.0508548 0.00154757  0.0239462 -0.042632 -3.8147e-06  0.0295919 -0.0450929 0.00184035  0.023986 -0.0425244 0.00155234  0.0337439 -0.0693979 -9.53674e-07  0.0412774 -0.071625 0.00174928  0.0376489 -0.0623047 -5.48363e-06  0.0337731 -0.0692723 0.00147295  0.0307584 -0.059891 -1.90735e-06  0.0376838 -0.0621817 0.00180197  0.0307904 -0.0597766 0.0015173  0.0388758 -0.0900015 9.53674e-07  0.0475511 -0.0921585 0.00161219  0.0445411 -0.0817405 -4.52995e-06  0.0388975 -0.0898805 0.00135589  0.0364501 -0.0794271 -7.15256e-07  0.0445669 -0.0816207 0.00168347  0.0364743 -0.0793139 0.00141597  0.0429208 -0.112594 5.24521e-06  0.0526323 -0.114719 0.00146103  0.0502188 -0.103312 -1.19209e-06  0.0429378 -0.112479 0.00123119  0.0410318 -0.101054 3.09944e-06  0.0502377 -0.103199 0.00153804  0.0410491 -0.100947 0.00129366  0.0459515 -0.136914 8.58307e-06  0.0565891 -0.139029 0.00130892  0.0547338 -0.12677 2.38419e-06  0.0459644 -0.136809 0.0011034  0.0445603 -0.12454 6.67572e-06  0.0547479 -0.126666 0.00138545  0.0445737 -0.124441 0.00116611  0.0480388 -0.162747 1.28746e-05  0.0594946 -0.164863 0.00116277  0.058158 -0.151861 5.48363e-06  0.0480497 -0.162652 0.000983953  0.0471103 -0.149646 1.00136e-05  0.0581686 -0.151768 0.00123453  0.0471199 -0.149556 0.00104213  0.0492654 -0.189846 1.83582e-05  0.061437 -0.191966 0.00102544  0.0605743 -0.178347 1.00136e-05  0.0492743 -0.189762 0.000869513  0.0487571 -0.176139 1.52588e-05  0.0605825 -0.178265 0.00109291  0.0487654 -0.176061 0.000925303  0.0497049 -0.218021 2.36034e-05  0.0624946 -0.220144 0.000898123  0.0620651 -0.206003 1.52588e-05  0.0497127 -0.217947 0.0007658  0.0495807 -0.203801 2.12193e-05  0.0620718 -0.205931 0.000960588  0.0495868 -0.203733 0.000816345  0.0494403 -0.247056 2.98023e-05  0.0627576 -0.249179 0.00077939  0.0627173 -0.234622 2.09808e-05  0.0494461 -0.246994 0.000666857  0.0496583 -0.23243 2.71797e-05  0.062722 -0.234561 0.000838041  0.0496635 -0.232372 0.000715256  0.0485413 -0.276796 3.67165e-05  0.0623028 -0.278914 0.000670195  0.0626121 -0.264019 2.67029e-05  0.0485468 -0.276743 0.000578642  0.0490677 -0.261839 3.31402e-05  0.0626156 -0.263967 0.0007236  0.0490708 -0.261791 0.000621319  0.0470883 -0.30706 4.3869e-05  0.0612168 -0.309168 0.000571251  0.0618333 -0.294023 3.3617e-05  0.0470918 -0.307016 0.000495672  0.0478822 -0.29186 4.00543e-05  0.0618359 -0.293981 0.000619888  0.0478848 -0.291821 0.000535488  0.0451469 -0.337726 5.00679e-05  0.0595719 -0.339817 0.00048089  0.060459 -0.324483 4.00543e-05  0.0451499 -0.337689 0.000422716  0.0461764 -0.322342 4.69685e-05  0.0604599 -0.324448 0.000524759  0.0461774 -0.322311 0.000457525  0.0427923 -0.368646 5.79357e-05  0.0574508 -0.370715 0.000401735  0.058568 -0.355264 4.673e-05  0.0427942 -0.368616 0.000355721  0.0440202 -0.353149 5.38826e-05  0.0585682 -0.355237 0.000440121  0.0440204 -0.353126 0.00038743  0.0400839 -0.399729 6.60419e-05  0.0549192 -0.401772 0.00033164  0.0562334 -0.386248 5.48363e-05  0.0400858 -0.399705 0.000300407  0.0414805 -0.384163 6.24657e-05  0.0562327 -0.386228 0.000365734  0.0414801 -0.384147 0.000326872  0.0370903 -0.430857 7.4625e-05  0.0520527 -0.432873 0.000272274  0.0535266 -0.417332 6.27041e-05  0.0370913 -0.43084 0.000250578  0.0386219 -0.41528 7.03335e-05  0.0535257 -0.417318 0.000300884  0.0386212 -0.41527 0.000273705  0.0338635 -0.461972 8.29697e-05  0.0489113 -0.463957 0.00022316  0.0505154 -0.448428 7.05719e-05  0.0338643 -0.461958 0.000211477  0.0355053 -0.446411 7.89165e-05  0.0505133 -0.448419 0.000246525  0.0355034 -0.446406 0.000229597  0.0304639 -0.492983 9.13143e-05  0.0455625 -0.494938 0.000183344  0.0472634 -0.479464 7.86781e-05  0.0304639 -0.492974 0.000177622  0.0321853 -0.477482 8.72612e-05  0.047261 -0.479459 0.000202179  0.0321834 -0.477481 0.000193357  0.0269346 -0.52386 9.91821e-05  0.042058 -0.525787 0.000153542  0.0438302 -0.510381 8.67844e-05  0.0269346 -0.523853 0.000154495  0.0287149 -0.508431 9.46522e-05  0.0438271 -0.510379 0.000167131  0.0287125 -0.508433 0.000164509  0.0233252 -0.554544 0.000107288  0.0384569 -0.556448 0.000133038  0.0402722 -0.541137 9.53674e-05  0.023324 -0.55454 0.000135183  0.0251403 -0.539215 0.000102997  0.0402682 -0.541137 0.000142813  0.0251379 -0.53922 0.000143528  0.019666 -0.585043 0.000116348  0.0347967 -0.586932 0.000117302  0.0366368 -0.571707 0.000103474  0.0196652 -0.585038 0.000123978  0.021502 -0.569807 0.000111341  0.0366328 -0.571709 0.000124216  0.0214987 -0.569813 0.000128746  0.0160041 -0.615357 0.000124931  0.0311208 -0.617256 0.000104189  0.0329642 -0.602105 0.000112534  0.0159991 -0.615353 0.000111341  0.0178344 -0.600208 0.000120401  0.0329599 -0.602106 0.000110865  0.0178304 -0.600214 0.000117302  0.00824386 -0.0151621 -4.29153e-06  0 0 0  0.0121839 -0.0196446 0.00123668  0.00508666 -0.0124117 -3.33786e-06  0 0 0  0.00824623 -0.0150874 0.00109267  0.00279123 -0.00817007 -2.38419e-06  0 0 0  0.00507815 -0.0123472 0.000681162  0.00278945 -0.00813305 0.000589848  0.0196324 -0.0273427 -6.67572e-06  0.0245828 -0.0308027 0.00200629  0.0185534 -0.0251559 -6.91414e-06  0.0196582 -0.027227 0.00177789  0.0140139 -0.0211932 -5.96046e-06  0.0185537 -0.0250365 0.00168824  0.014026 -0.0211041 0.00149012  0.0304813 -0.0405994 -8.58307e-06  0.0364351 -0.0437412 0.00234842  0.0305161 -0.0371054 -9.77516e-06  0.0305229 -0.040466 0.00207877  0.0251425 -0.0336793 -8.10623e-06  0.0305472 -0.0369657 0.0022285  0.0251779 -0.0335621 0.00196981  0.0404065 -0.0562385 -9.77516e-06  0.0475566 -0.0591533 0.00239563  0.0420904 -0.0512375 -1.16825e-05  0.0404485 -0.0561036 0.00212002  0.0355851 -0.0480888 -9.05991e-06  0.042132 -0.0510991 0.00240326  0.0356272 -0.0479631 0.00212359  0.0491198 -0.0743814 -8.82149e-06  0.0574511 -0.0771479 0.00228572  0.0526339 -0.0679605 -1.23978e-05  0.0491545 -0.0742505 0.00202084  0.0449256 -0.0649955 -9.05991e-06  0.052675 -0.0678319 0.00235772  0.0449634 -0.0648718 0.00208187  0.0565274 -0.0948192 -6.67572e-06  0.0659577 -0.0974984 0.00211072  0.0618482 -0.0871609 -1.21593e-05  0.0565544 -0.0946963 0.00186563  0.0529898 -0.0843177 -8.10623e-06  0.0618804 -0.0870423 0.00220704  0.053019 -0.0842001 0.00194764  0.0626348 -0.117315 -3.33786e-06  0.0730605 -0.119929 0.00191188  0.0696564 -0.108579 -8.82149e-06  0.0626561 -0.117202 0.0016892  0.059742 -0.105819 -5.48363e-06  0.0696835 -0.108471 0.00201678  0.0597648 -0.10571 0.0017786  0.0675066 -0.141577 -1.19209e-06  0.0788172 -0.14415 0.00171065  0.0760813 -0.131929 -7.15256e-06  0.0675231 -0.141474 0.00151277  0.0652224 -0.129231 -2.14577e-06  0.0761008 -0.131832 0.00181532  0.0652394 -0.129132 0.00160122  0.0712173 -0.167371 2.86102e-06  0.0833071 -0.169902 0.00151539  0.0811983 -0.156936 -4.52995e-06  0.0712312 -0.167279 0.00134087  0.0695028 -0.15429 4.76837e-07  0.0812159 -0.156851 0.00161648  0.0695169 -0.154202 0.00142598  0.0738605 -0.194436 6.67572e-06  0.0866259 -0.196936 0.001333  0.0850924 -0.183348 -7.15256e-07  0.0738723 -0.194355 0.00118113  0.0726688 -0.180749 4.05312e-06  0.0851053 -0.183274 0.00142741  0.0726795 -0.180672 0.0012598  0.0755222 -0.222577 1.26362e-05  0.088868 -0.225035 0.00116134  0.0878643 -0.21093 3.8147e-06  0.0755322 -0.222506 0.00103068  0.0748098 -0.208377 9.77516e-06  0.0878767 -0.210867 0.00125027  0.0748193 -0.208311 0.00110507  0.0762979 -0.251571 1.7643e-05  0.0901327 -0.253993 0.00100183  0.0896064 -0.239473 9.05991e-06  0.0763061 -0.251511 0.000892878  0.0760175 -0.236969 1.52588e-05  0.089615 -0.239419 0.00108457  0.0760245 -0.236912 0.000960588  0.0762715 -0.281263 2.40803e-05  0.0905124 -0.283635 0.000854969  0.0904194 -0.268784 1.43051e-05  0.076279 -0.281212 0.000763416  0.076381 -0.266333 2.0504e-05  0.0904276 -0.268741 0.000931501  0.0763872 -0.266287 0.000826836  0.0755376 -0.311469 3.02792e-05  0.0901047 -0.313795 0.000721216  0.0903951 -0.298696 2.09808e-05  0.0755427 -0.311426 0.000647783  0.0759902 -0.296301 2.69413e-05  0.0903997 -0.29866 0.00079155  0.0759943 -0.296263 0.000704527  0.0741727 -0.342068 3.69549e-05  0.0889993 -0.344336 0.000599861  0.0896298 -0.329054 2.64645e-05  0.0741777 -0.342033 0.000540733  0.07493 -0.32672 3.31402e-05  0.0896345 -0.329028 0.000663042  0.0749336 -0.32669 0.000592709  0.072269 -0.372912 4.41074e-05  0.0872884 -0.375127 0.000492573  0.0882106 -0.359727 3.38554e-05  0.0722725 -0.372884 0.000448704  0.0732858 -0.357456 4.02927e-05  0.0882123 -0.359708 0.000549555  0.073288 -0.357434 0.000493765  0.0698972 -0.403915 5.14984e-05  0.0850534 -0.406065 0.000397682  0.0862298 -0.390598 4.07696e-05  0.0699003 -0.403893 0.000365019  0.0711386 -0.388392 4.76837e-05  0.0862315 -0.390586 0.00044775  0.0711398 -0.388377 0.000405788  0.0671408 -0.43496 5.8651e-05  0.0823817 -0.437054 0.000317097  0.0837667 -0.421567 4.79221e-05  0.067142 -0.434944 0.000295877  0.0685651 -0.419427 5.53131e-05  0.0837657 -0.421559 0.000360012  0.0685647 -0.419418 0.000329494  0.0640652 -0.465991 6.77109e-05  0.079349 -0.468021 0.000249147  0.0809064 -0.452548 5.57899e-05  0.0640669 -0.465979 0.000236988  0.0656404 -0.450474 6.31809e-05  0.0809059 -0.452547 0.000285864  0.0656397 -0.45047 0.000265121  0.0607483 -0.496923 7.51019e-05  0.0760362 -0.498902 0.000196218  0.0777245 -0.483475 6.31809e-05  0.0607479 -0.496915 0.000190973  0.0624354 -0.481463 7.10487e-05  0.0777216 -0.483477 0.000225306  0.0624337 -0.481462 0.000212669  0.0572481 -0.527729 8.39233e-05  0.0725145 -0.529655 0.000155449  0.0743001 -0.514293 7.24792e-05  0.0572479 -0.527723 0.00015521  0.0590184 -0.512336 7.96318e-05  0.0742974 -0.514299 0.000179052  0.0590165 -0.512339 0.000172138  0.0536354 -0.558356 9.17912e-05  0.0688605 -0.56025 0.000128508  0.0707033 -0.544968 8.03471e-05  0.0536335 -0.558353 0.000131845  0.0554543 -0.543056 8.74996e-05  0.0706978 -0.544973 0.000145435  0.0554516 -0.54306 0.000142336  0.049957 -0.588823 0.000100136  0.0651412 -0.590694 0.000108004  0.0670106 -0.575483 8.7738e-05  0.0499558 -0.588819 0.000112772  0.0518031 -0.573601 9.53674e-05  0.0670056 -0.575491 0.000121832  0.0517995 -0.573607 0.000121593  0.0462549 -0.619152 0.000108719  0.0614059 -0.621026 9.34601e-05  0.0632834 -0.605864 9.65595e-05  0.0462558 -0.619147 9.75132e-05  0.04811 -0.603989 0.000104189  0.0632737 -0.60587 0.000106335  0.0481071 -0.603995 0.000105858  -0.0127753 -0.0171108 0.00140548  -0.00567168 -0.0105614 0.00159025  0 0 0  -0.00808562 -0.0124545 0.00247288  0 0 0  -0.00529937 -0.00915875 0.00103498  -0.00188269 -0.00417431 0.00115538  0 0 0  -0.00572215 -0.0106998 0.000780344  -0.00809649 -0.0126523 0.00121927  -0.0027772 -0.00638409 0.00134778  0 0 0  -0.00187561 -0.0042544 0.00056982  -0.00278077 -0.00648195 0.000664234  -0.0252281 -0.0267062 0.00223708  -0.0190296 -0.021357 0.00382447  -0.0194949 -0.0230656 0.00395894  -0.0148094 -0.0203922 0.00168753  -0.00989978 -0.014422 0.00285673  -0.0190967 -0.0216876 0.0018909  -0.0194873 -0.0234294 0.00196195  -0.0138021 -0.0176627 0.0033381  -0.00986849 -0.0146873 0.00141191  -0.0138071 -0.0179671 0.00165057  -0.0375316 -0.037922 0.0026145  -0.0313458 -0.0315965 0.00498986  -0.0307432 -0.034742 0.00459361  -0.0246803 -0.0327788 0.00196695  -0.0198098 -0.0259407 0.00375128  -0.0313618 -0.0320443 0.00248098  -0.0307174 -0.0351848 0.00229025  -0.0251483 -0.0286191 0.00436807  -0.0197805 -0.0263265 0.00186515  -0.0251304 -0.0290449 0.00217247  -0.0496296 -0.0513797 0.00265026  -0.0436578 -0.0438362 0.00533056  -0.0415775 -0.0487479 0.00463414  -0.0341724 -0.047342 0.002002  -0.0295059 -0.0393277 0.0040102  -0.0436376 -0.0443313 0.00266743  -0.0415613 -0.0492081 0.00232506  -0.0362263 -0.0414232 0.00466824  -0.0294785 -0.0397652 0.00200653  -0.0362022 -0.0418943 0.0023365  -0.0611197 -0.0672515 0.00250483  -0.0554725 -0.0585308 0.00515985  -0.0518275 -0.0651706 0.00435257  -0.0431889 -0.0642217 0.00188279  -0.0387328 -0.0550577 0.00387979  -0.0554652 -0.0590163 0.0025959  -0.0518395 -0.065609 0.00219417  -0.0467787 -0.0566536 0.00451851  -0.0387434 -0.0554956 0.00195217  -0.0467777 -0.057119 0.00227404  -0.0718659 -0.0854062 0.00227427  -0.0665752 -0.07561 0.00474644  -0.0614543 -0.0838398 0.00393796  -0.0517085 -0.0832762 0.00171447  -0.047472 -0.0730709 0.00356364  -0.0665876 -0.0760614 0.00239921  -0.0614957 -0.0842414 0.00199342  -0.0567173 -0.074227 0.00415373  -0.047508 -0.0734872 0.00180101  -0.0567458 -0.0746626 0.00209928  -0.0818617 -0.105611 0.00202894  -0.076915 -0.0948682 0.00424862  -0.0704777 -0.104523 0.00349092  -0.059756 -0.104303 0.00151944  -0.0557186 -0.0931759 0.00318408  -0.076957 -0.0952705 0.00215602  -0.0705407 -0.10488 0.00177431  -0.0660367 -0.0939333 0.0037148  -0.0557895 -0.093554 0.001616  -0.0660928 -0.0943261 0.00188541  -0.0911617 -0.127657 0.00178385  -0.0865408 -0.116069 0.00374436  -0.0789456 -0.126998 0.00305724  -0.0673696 -0.12708 0.00134182  -0.0635334 -0.115142 0.0028007  -0.0865947 -0.116425 0.00190902  -0.0790205 -0.127312 0.0015614  -0.0747764 -0.115539 0.00327086  -0.0636124 -0.115483 0.00142789  -0.0748482 -0.115889 0.0016675  -0.0998249 -0.151313 0.00156355  -0.0955038 -0.138992 0.0032692  -0.0869057 -0.151048 0.00265813  -0.0745907 -0.151407 0.00116873  -0.0709333 -0.138762 0.00244141  -0.0955711 -0.1393 0.00167489  -0.0869839 -0.151319 0.0013659  -0.0829836 -0.138827 0.00285316  -0.071027 -0.13906 0.00125217  -0.0830641 -0.139133 0.0014627  -0.107913 -0.176392 0.00135899  -0.103873 -0.163425 0.0028348  -0.0944023 -0.176476 0.00229621  -0.0814526 -0.177082 0.00102329  -0.0779766 -0.163823 0.00211382  -0.103938 -0.163694 0.00146317  -0.0944793 -0.17671 0.00118971  -0.0907073 -0.163589 0.0024724  -0.0780624 -0.164085 0.00109243  -0.0907876 -0.163857 0.00127673  -0.11547 -0.202691 0.00117946  -0.11169 -0.189176 0.00244212  -0.10147 -0.203093 0.00197101  -0.0879834 -0.203925 0.000882626  -0.084668 -0.190142 0.00181961  -0.111758 -0.189403 0.00127077  -0.101542 -0.203291 0.00103116  -0.097985 -0.189636 0.00212908  -0.0847582 -0.190366 0.000949621  -0.0980629 -0.189864 0.00110984  -0.122539 -0.230047 0.00101471  -0.119006 -0.216057 0.00208831  -0.108138 -0.230727 0.00167918  -0.0942012 -0.231757 0.0007689  -0.0910532 -0.217531 0.00155616  -0.119063 -0.216253 0.00109935  -0.108203 -0.230895 0.000890493  -0.10485 -0.216781 0.00182104  -0.091128 -0.217725 0.000822544  -0.104921 -0.216978 0.000960112  -0.129148 -0.25828 0.000873804  -0.125846 -0.243902 0.00177169  -0.114428 -0.259211 0.00141883  -0.100123 -0.260419 0.000657558  -0.0971239 -0.24583 0.00132132  -0.125901 -0.244066 0.000945568  -0.114485 -0.25935 0.000765085  -0.111326 -0.244861 0.00154543  -0.0971985 -0.245991 0.000710011  -0.11139 -0.245027 0.000827551  -0.13533 -0.287251 0.000742435  -0.132247 -0.272548 0.00148892  -0.120362 -0.288395 0.00118732  -0.10576 -0.289753 0.000569582  -0.102916 -0.27487 0.00111246  -0.13229 -0.272688 0.000810146  -0.120411 -0.288509 0.000655174  -0.117436 -0.273712 0.00129986  -0.102974 -0.275008 0.000610352  -0.117491 -0.273853 0.000709534  -0.141106 -0.3168 0.000632763  -0.138227 -0.301852 0.00123763  -0.125956 -0.318132 0.000983  -0.111125 -0.319624 0.000482559  -0.108419 -0.304516 0.000928164  -0.138269 -0.301963 0.000689268  -0.125996 -0.318223 0.000557899  -0.123197 -0.303191 0.00108194  -0.108476 -0.304627 0.000523567  -0.123245 -0.303306 0.000606298  -0.146509 -0.346811 0.000531673  -0.143822 -0.331667 0.00101614  -0.131232 -0.348296 0.000803947  -0.116228 -0.349894 0.000417233  -0.113665 -0.33462 0.0007658  -0.143853 -0.331761 0.000584364  -0.131264 -0.348368 0.000473261  -0.12863 -0.333156 0.000890017  -0.113706 -0.334714 0.000446796  -0.128669 -0.333252 0.000514984  -0.151562 -0.377147 0.000451088  -0.14905 -0.361875 0.000824451  -0.136208 -0.378764 0.000650406  -0.121085 -0.380452 0.000352859  -0.118645 -0.36507 0.000626564  -0.149079 -0.361946 0.00049305  -0.136234 -0.378818 0.000401497  -0.133753 -0.363487 0.000724316  -0.118686 -0.365141 0.000382423  -0.133785 -0.363563 0.00043726  -0.156301 -0.407714 0.00037837  -0.153949 -0.392354 0.000660658  -0.14091 -0.40943 0.000522137  -0.12571 -0.411185 0.000308752  -0.123397 -0.395741 0.000507355  -0.153968 -0.392413 0.000416994  -0.14093 -0.40947 0.000342607  -0.138589 -0.394066 0.000582933  -0.123423 -0.3958 0.000327826  -0.138614 -0.394127 0.000371695  -0.160753 -0.438401 0.000325203  -0.158543 -0.423008 0.000524998  -0.145363 -0.440198 0.000418186  -0.130126 -0.442006 0.00026536  -0.127915 -0.426544 0.000410557  -0.158562 -0.423049 0.000353575  -0.145378 -0.440224 0.000295639  -0.143163 -0.424795 0.000467062  -0.127943 -0.426587 0.000284433  -0.143184 -0.424841 0.000319242  -0.164963 -0.469136 0.000281096  -0.162874 -0.453738 0.000418186  -0.149598 -0.470984 0.000338316  -0.134351 -0.472825 0.000242233  -0.132243 -0.457383 0.000333548  -0.162885 -0.453772 0.000306129  -0.14961 -0.471002 0.000261307  -0.147503 -0.455581 0.000375271  -0.132258 -0.457417 0.000251293  -0.147519 -0.455617 0.000277996  -0.168969 -0.499834 0.000255585  -0.166975 -0.484473 0.000339031  -0.153649 -0.501718 0.000280619  -0.138417 -0.503581 0.000217676  -0.136383 -0.488189 0.000277758  -0.166991 -0.484494 0.000271082  -0.153659 -0.501727 0.00023675  -0.151641 -0.486349 0.000307083  -0.136403 -0.488212 0.000227928  -0.151656 -0.486376 0.000249147  -0.172826 -0.530455 0.000235081  -0.170902 -0.515142 0.000283003  -0.157557 -0.532346 0.00024271  -0.142347 -0.534216 0.000212193  -0.140384 -0.518893 0.000237942  -0.170912 -0.515161 0.000248194  -0.157567 -0.532351 0.000222206  -0.155616 -0.517034 0.000259876  -0.140395 -0.518913 0.000212431  -0.155628 -0.517057 0.000229359  -0.176592 -0.560956 0.000229597  -0.174703 -0.54571 0.000248194  -0.161366 -0.562839 0.000217915  -0.146179 -0.564707 0.000200987  -0.144257 -0.549464 0.000212669  -0.174718 -0.545722 0.000234842  -0.161376 -0.562842 0.000214577  -0.159468 -0.547598 0.00022912  -0.144273 -0.549477 0.000204325  -0.159481 -0.547615 0.000219345  -0.180337 -0.591371 0.000219345  -0.178453 -0.576158 0.000226259  -0.165131 -0.593225 0.000195026  -0.14996 -0.595066 0.00020051  -0.14806 -0.579883 0.000193119  -0.178464 -0.576175 0.000227928  -0.165143 -0.593228 0.000208378  -0.163248 -0.578029 0.000207663  -0.148069 -0.579898 0.000199795  -0.163261 -0.578047 0.000213146  -0.00385891 -0.00686331 0.00174499  0 0 0  -0.00270429 -0.00561404 0.000689268  -0.000952534 -0.00202526 0.000759363  0 0 0  -0.003837 -0.00700651 0.000861406  -0.00130243 -0.00284715 0.000950336  0 0 0  -0.000945181 -0.0020905 0.000373125  -0.00129174 -0.00292271 0.0004673  -0.0111538 -0.0175981 0.00284314  -0.00807358 -0.0160226 0.00113487  -0.00518052 -0.0102439 0.00191545  -0.011115 -0.0178834 0.00140977  -0.00724733 -0.0119442 0.00238347  -0.00515197 -0.0104442 0.000947237  -0.00721559 -0.0121731 0.00117826  -0.0193506 -0.0303856 0.00330853  -0.0145573 -0.0291655 0.00133085  -0.0112974 -0.0219927 0.00253057  -0.0193163 -0.0307613 0.00165248  -0.0152411 -0.0237108 0.00314355  -0.0112635 -0.0223042 0.00126004  -0.015201 -0.024058 0.00156403  -0.0273866 -0.0453933 0.00333285  -0.0211184 -0.0445972 0.00134873  -0.0178728 -0.0362208 0.00270319  -0.0273787 -0.0457962 0.00167441  -0.0234063 -0.0375875 0.00335932  -0.0178565 -0.0365945 0.00135589  -0.0233847 -0.0379914 0.00168276  -0.0350645 -0.0626967 0.00312257  -0.0274757 -0.0622646 0.0012691  -0.0243089 -0.0527637 0.00260758  -0.0350921 -0.0630995 0.00157809  -0.0312726 -0.0537557 0.00324488  -0.0243258 -0.0531573 0.00131607  -0.0312822 -0.0541707 0.00163484  -0.0423788 -0.082152 0.00281811  -0.0336071 -0.0820204 0.00114894  -0.0305182 -0.0715043 0.00238729  -0.0424371 -0.0825269 0.0014298  -0.0387626 -0.0721591 0.00297594  -0.0305675 -0.0718902 0.0012114  -0.0388087 -0.0725583 0.00150681  -0.0493687 -0.10355 0.00249219  -0.0395457 -0.103683 0.00101995  -0.0365252 -0.0922625 0.00212622  -0.0494472 -0.103895 0.00127149  -0.0459119 -0.0926123 0.00265527  -0.0365983 -0.0926239 0.00108433  -0.0459817 -0.0929818 0.0013504  -0.0560677 -0.126677 0.00217867  -0.0453185 -0.127042 0.000896454  -0.0423646 -0.114831 0.00186515  -0.0561563 -0.12698 0.00111699  -0.0527498 -0.114901 0.00233245  -0.0424507 -0.11516 0.000957012  -0.0528367 -0.115234 0.00119257  -0.0625063 -0.151324 0.00189066  -0.0509495 -0.151906 0.00078392  -0.0480595 -0.139003 0.0016222  -0.0625973 -0.151594 0.000977993  -0.0593175 -0.138813 0.00203133  -0.0481507 -0.139297 0.00083971  -0.0594087 -0.139109 0.00104594  -0.0687034 -0.177297 0.00163078  -0.0564467 -0.178074 0.000683784  -0.0536237 -0.164578 0.00140119  -0.0687912 -0.177527 0.000851154  -0.0656309 -0.164147 0.00175738  -0.0537134 -0.164836 0.000732422  -0.0657234 -0.164406 0.000912905  -0.0746754 -0.204407 0.00139928  -0.061819 -0.205365 0.00059557  -0.059063 -0.191364 0.00120473  -0.0747566 -0.204608 0.000740528  -0.0717164 -0.190711 0.00151205  -0.0591482 -0.191588 0.000638008  -0.0718015 -0.190935 0.000793695  -0.0804272 -0.232483 0.00119281  -0.067062 -0.233601 0.000517845  -0.0643784 -0.21918 0.00103092  -0.0805008 -0.23265 0.000640869  -0.0775751 -0.218326 0.00129366  -0.064456 -0.219373 0.000555515  -0.0776554 -0.218517 0.000689268  -0.0859674 -0.261359 0.00101089  -0.0721769 -0.262623 0.00045085  -0.069566 -0.247858 0.000876904  -0.086032 -0.261502 0.000555754  -0.0832227 -0.246821 0.00109935  -0.0696356 -0.248022 0.000483274  -0.0832926 -0.246984 0.000596762  -0.0912963 -0.290885 0.000848532  -0.0771546 -0.292272 0.000391722  -0.0746219 -0.277238 0.000741243  -0.0913521 -0.290999 0.000478506  -0.0886546 -0.276041 0.000926971  -0.0746822 -0.277375 0.000419855  -0.0887177 -0.276177 0.000515461  -0.0964204 -0.320918 0.000706434  -0.0819962 -0.322415 0.000341415  -0.0795405 -0.307174 0.000622272  -0.0964671 -0.321013 0.000413656  -0.0938833 -0.305837 0.000775099  -0.0795927 -0.307288 0.000365257  -0.0939348 -0.30595 0.000444412  -0.10134 -0.35133 0.00058341  -0.086693 -0.352916 0.0002985  -0.0843185 -0.337532 0.000519037  -0.101379 -0.351401 0.000355721  -0.0989017 -0.336075 0.000642538  -0.0843618 -0.337625 0.000318527  -0.0989474 -0.336167 0.000383139  -0.106066 -0.382001 0.000478268  -0.0912492 -0.383664 0.000262976  -0.0889523 -0.368189 0.000430822  -0.106097 -0.38206 0.000309467  -0.103726 -0.366631 0.000528812  -0.0889887 -0.368264 0.000279427  -0.103762 -0.366704 0.000331163  -0.110602 -0.412831 0.000391006  -0.0956616 -0.414549 0.000234127  -0.0934432 -0.399034 0.000357389  -0.110626 -0.412871 0.000269175  -0.108353 -0.397394 0.000432253  -0.0934722 -0.399093 0.000247478  -0.108384 -0.397451 0.00028801  -0.114966 -0.443722 0.00032115  -0.0999401 -0.445488 0.000212669  -0.0977941 -0.429971 0.000298023  -0.114984 -0.443754 0.000240803  -0.112804 -0.428264 0.000353575  -0.0978169 -0.430016 0.000222445  -0.112826 -0.428309 0.000252962  -0.119167 -0.474598 0.000268698  -0.104087 -0.476395 0.000197411  -0.102011 -0.460914 0.000252247  -0.11918 -0.474616 0.000217915  -0.117082 -0.459158 0.000293016  -0.102028 -0.460948 0.00020504  -0.1171 -0.459191 0.00022769  -0.123226 -0.50539 0.000231266  -0.108117 -0.507212 0.000189304  -0.106103 -0.491792 0.000219822  -0.123237 -0.505404 0.000204802  -0.121212 -0.489999 0.000247717  -0.106116 -0.491816 0.000192881  -0.121225 -0.490023 0.000209808  -0.127161 -0.536049 0.000206947  -0.112038 -0.537883 0.000184536  -0.110079 -0.522547 0.000198126  -0.127171 -0.536054 0.000196218  -0.125204 -0.52073 0.000218153  -0.11009 -0.522565 0.000186682  -0.125217 -0.520747 0.000200033  -0.131 -0.566544 0.00019002  -0.115872 -0.568384 0.000184059  -0.113954 -0.55314 0.000183582  -0.131008 -0.566552 0.000193596  -0.12909 -0.551308 0.000197649  -0.113964 -0.553155 0.000183821  -0.129099 -0.551323 0.000194073  -0.134782 -0.596881 0.000173569  -0.119652 -0.598694 0.000183344  -0.117753 -0.583547 0.000173569  -0.134791 -0.596885 0.000189066  -0.13289 -0.581723 0.00018239  -0.117764 -0.583562 0.000183582  -0.132901 -0.581737 0.000191689  -0.00183471 -0.0046477 0.00104904  0 0 0  -0.00107984 -0.00427213 0.00034523  -0.000378251 -0.00127566 0.00037837  0 0 0  -0.00182226 -0.00475693 0.000516891  -0.000624992 -0.00153455 0.000568628  0 0 0  -0.000375587 -0.0013217 0.000185966  -0.000620946 -0.00159231 0.000279665  -0.00560801 -0.0145378 0.00172496  -0.00337259 -0.0140246 0.00057435  -0.00210807 -0.00848645 0.000963688  -0.00558321 -0.0147603 0.0008564  -0.00353587 -0.0091272 0.00144148  -0.00209877 -0.00864339 0.000477076  -0.00351375 -0.00930417 0.00071311  -0.0103405 -0.0277142 0.00201321  -0.00643054 -0.0273599 0.000679016  -0.00484514 -0.020082 0.00128436  -0.0103225 -0.0280279 0.00100589  -0.00790992 -0.0207879 0.00191116  -0.00483701 -0.0203395 0.000640869  -0.00788751 -0.0210699 0.000952721  -0.0152976 -0.0434074 0.00202537  -0.00982225 -0.0433136 0.000689745  -0.00809613 -0.0347137 0.00137639  -0.0153039 -0.0437626 0.00102115  -0.0128167 -0.0352584 0.00204253  -0.00810239 -0.0350399 0.000692368  -0.0128082 -0.0356068 0.00102615  -0.0202215 -0.0613647 0.00189137  -0.0133476 -0.0615288 0.00064826  -0.0115424 -0.05179 0.00132632  -0.0202577 -0.0617365 0.000958443  -0.0177658 -0.0521044 0.0019691  -0.0115724 -0.0521498 0.000673056  -0.0177892 -0.05248 0.000996113  -0.0250843 -0.0814097 0.00169945  -0.0169665 -0.0817835 0.000585318  -0.0150923 -0.0710425 0.00120831  -0.0251446 -0.0817657 0.000867605  -0.0226593 -0.0711279 0.00179863  -0.015144 -0.0714064 0.000617743  -0.022708 -0.0715029 0.000915289  -0.0299097 -0.103348 0.00149608  -0.0206912 -0.103913 0.000517368  -0.0187467 -0.092273 0.00106859  -0.0299857 -0.103684 0.000767708  -0.0274975 -0.0921452 0.00159764  -0.0188141 -0.092622 0.000551462  -0.0275694 -0.0925004 0.000818491  -0.0347157 -0.126977 0.0013032  -0.024525 -0.127705 0.000453949  -0.0225175 -0.115285 0.000929832  -0.0347983 -0.127276 0.000676155  -0.0323141 -0.114954 0.00139785  -0.0225931 -0.115607 0.000484467  -0.0323939 -0.115281 0.000721693  -0.0395114 -0.152093 0.00112653  -0.0284693 -0.152982 0.000396729  -0.0264052 -0.139875 0.000802994  -0.0395945 -0.152364 0.000589848  -0.0371119 -0.139352 0.00121284  -0.0264829 -0.140167 0.000424862  -0.0371982 -0.139645 0.000632524  -0.0442923 -0.178501 0.00096941  -0.032508 -0.179529 0.000347137  -0.0304008 -0.165844 0.00068903  -0.044372 -0.178733 0.000516176  -0.0419033 -0.165138 0.00104547  -0.0304762 -0.166103 0.000370979  -0.041985 -0.165397 0.000552416  -0.0490538 -0.206012 0.00083065  -0.0366297 -0.207179 0.000305176  -0.0344882 -0.192998 0.000589848  -0.0491277 -0.206217 0.000449181  -0.0466733 -0.192121 0.000897884  -0.0345587 -0.193224 0.000324726  -0.046753 -0.192346 0.000482321  -0.0537822 -0.234452 0.000709295  -0.0408084 -0.235734 0.00026989  -0.0386479 -0.221153 0.000504494  -0.0538478 -0.234621 0.000394106  -0.0514221 -0.220117 0.000768185  -0.0387117 -0.221348 0.000285864  -0.0514921 -0.220312 0.000421524  -0.0584662 -0.263653 0.000602722  -0.0450289 -0.26505 0.000239849  -0.0428578 -0.250137 0.000431061  -0.0585237 -0.2638 0.000344038  -0.0561274 -0.248958 0.000653982  -0.0429137 -0.250304 0.000253916  -0.056192 -0.249123 0.000368834  -0.06309 -0.293465 0.000510931  -0.0492646 -0.294952 0.00021553  -0.0470959 -0.27979 0.000368595  -0.0631392 -0.293582 0.000304222  -0.0607853 -0.278482 0.000555277  -0.0471443 -0.279931 0.000226974  -0.0608391 -0.278622 0.000324249  -0.0676444 -0.323745 0.000430584  -0.0535008 -0.325319 0.000195742  -0.0513414 -0.309966 0.000315189  -0.0676856 -0.323845 0.000267744  -0.0653738 -0.308546 0.000468969  -0.0513829 -0.310082 0.000204802  -0.0654216 -0.308662 0.000285625  -0.0721151 -0.354368 0.000362396  -0.057713 -0.356005 0.000179768  -0.0555751 -0.340529 0.00026989  -0.0721487 -0.354443 0.000239611  -0.0698898 -0.339012 0.000395298  -0.0556091 -0.340625 0.000186682  -0.0699273 -0.339107 0.000253439  -0.0764968 -0.385214 0.000305653  -0.061892 -0.386914 0.000168085  -0.0597792 -0.371358 0.00023365  -0.0765235 -0.385277 0.000214577  -0.0743145 -0.369761 0.000332594  -0.0598066 -0.371435 0.00017333  -0.0743476 -0.369837 0.000226736  -0.0807812 -0.416184 0.000259876  -0.0660195 -0.417922 0.00015974  -0.0639393 -0.402345 0.000205517  -0.0808008 -0.416227 0.000197649  -0.07865 -0.40068 0.000281334  -0.063961 -0.402406 0.000163555  -0.0786738 -0.400741 0.000205517  -0.0849674 -0.447186 0.00022459  -0.0700912 -0.448964 0.000155687  -0.0680449 -0.433394 0.000183582  -0.0849822 -0.447221 0.000183821  -0.0828836 -0.431677 0.000241041  -0.0680616 -0.433441 0.000157356  -0.0829034 -0.431724 0.000190258  -0.0890539 -0.478145 0.000199318  -0.0740948 -0.479943 0.000154972  -0.072088 -0.464424 0.000169516  -0.0890644 -0.478165 0.000176907  -0.0870216 -0.462665 0.000211239  -0.0720997 -0.46446 0.000155449  -0.0870347 -0.462701 0.000180244  -0.0930455 -0.508997 0.000183582  -0.078032 -0.510817 0.000156879  -0.0760627 -0.495367 0.000161171  -0.0930533 -0.509013 0.000172377  -0.0910583 -0.493579 0.000190973  -0.0760708 -0.495393 0.000155687  -0.0910702 -0.493604 0.000174761  -0.0969448 -0.539694 0.000174284  -0.081897 -0.541522 0.000161171  -0.0799661 -0.526168 0.000158787  -0.0969505 -0.539701 0.00017333  -0.0950053 -0.524357 0.000178099  -0.0799718 -0.526188 0.000159025  -0.0950119 -0.524377 0.000173092  -0.100766 -0.570202 0.000169277  -0.0856998 -0.572038 0.000166416  -0.0838001 -0.556787 0.000159025  -0.100771 -0.570211 0.000173807  -0.098861 -0.554965 0.000171423  -0.0838046 -0.556802 0.000163317  -0.0988691 -0.55498 0.000174046  -0.104532 -0.600488 0.000164032  -0.0894489 -0.602302 0.0001719  -0.0875721 -0.587184 0.000161409  -0.104538 -0.600496 0.000176907  -0.102652 -0.585365 0.000167131  -0.0875766 -0.587199 0.000168562  -0.102657 -0.585381 0.000176191  -0.000404961 -0.00399598 0.000347853  0 0 0  0.000230715 -0.00415233 -2.38419e-07  8.18893e-05 -0.00121954 -5.48363e-06  0 0 0  -0.000404738 -0.0040836 0.000172615  -0.000139505 -0.00117564 0.000186205  0 0 0  7.89613e-05 -0.00126311 -1.66893e-06  -0.000137713 -0.00122219 9.17912e-05  -0.00135034 -0.0135536 0.000582933  0.000580639 -0.013871 7.86781e-06  0.000425816 -0.00834432 7.15256e-07  -0.00135441 -0.0137396 0.000290155  -0.000809297 -0.00824025 0.000482082  0.000411138 -0.00848311 2.6226e-06  -0.000812367 -0.00838581 0.000239372  -0.00277552 -0.0268612 0.000692844  0.000738502 -0.0273528 2.02656e-05  0.000724077 -0.0200081 2.19345e-05  -0.00278905 -0.0271367 0.00034976  -0.00201264 -0.0198298 0.000652552  0.000696629 -0.0202424 1.40667e-05  -0.00201949 -0.020073 0.000326872  -0.00455436 -0.0429245 0.000701904  0.000531554 -0.0435798 2.64645e-05  0.000723213 -0.0348606 3.83854e-05  -0.00458276 -0.0432494 0.000357151  -0.00362572 -0.0345821 0.000706673  0.000685543 -0.0351656 2.40803e-05  -0.00364795 -0.0348951 0.000357866  -0.00661474 -0.0612936 0.000653267  -9.65595e-05 -0.0620975 2.59876e-05  0.000317752 -0.0522251 4.00543e-05  -0.00665927 -0.0616454 0.000337362  -0.0055517 -0.051829 0.000682116  0.000271142 -0.0525691 2.71797e-05  -0.0055877 -0.0521795 0.000349283  -0.00893945 -0.0817326 0.000579119  -0.00114816 -0.08266 2.07424e-05  -0.000515699 -0.0717773 2.86102e-05  -0.00899613 -0.0820771 0.000302076  -0.00774175 -0.0712571 0.000617743  -0.000569582 -0.0721319 2.38419e-05  -0.00779516 -0.0716156 0.000320196  -0.0115274 -0.104046 0.000500202  -0.00261116 -0.105088 1.45435e-05  -0.00177073 -0.0933058 1.14441e-05  -0.0115918 -0.104376 0.000266552  -0.0102007 -0.0926572 0.000539064  -0.00182915 -0.0936505 1.78814e-05  -0.0102615 -0.0930043 0.000283718  -0.0143695 -0.128036 0.000426054  -0.0044601 -0.12918 1.00136e-05  -0.00342888 -0.116613 -5.96046e-06  -0.0144359 -0.128334 0.000231266  -0.0129149 -0.115835 0.000461817  -0.00348854 -0.116935 1.19209e-05  -0.0129833 -0.116157 0.000247955  -0.0174499 -0.153498 0.000360489  -0.00666833 -0.154744 7.86781e-06  -0.00546265 -0.141495 -1.83582e-05  -0.0175152 -0.153769 0.000203133  -0.0158809 -0.140586 0.000392437  -0.00552106 -0.141788 8.82149e-06  -0.0159472 -0.140879 0.000216484  -0.0207427 -0.180234 0.000305414  -0.00919795 -0.181572 9.53674e-06  -0.00783968 -0.167747 -2.59876e-05  -0.0208036 -0.180469 0.000177383  -0.0190684 -0.16671 0.000331879  -0.00789452 -0.168009 7.86781e-06  -0.0191343 -0.166971 0.000189304  -0.0242213 -0.208053 0.000259638  -0.012015 -0.20948 1.33514e-05  -0.0105227 -0.195171 -2.74181e-05  -0.0242769 -0.20826 0.00015974  -0.0224602 -0.19401 0.000281572  -0.0105727 -0.195401 1.09673e-05  -0.0225185 -0.194239 0.000167608  -0.0278533 -0.236774 0.000222683  -0.0150779 -0.238281 1.97887e-05  -0.0134729 -0.223577 -2.45571e-05  -0.0279021 -0.236947 0.000144005  -0.0260168 -0.222302 0.000240088  -0.0135174 -0.223777 1.62125e-05  -0.0260718 -0.2225 0.000150919  -0.031611 -0.266229 0.000192642  -0.0183511 -0.267811 2.76566e-05  -0.0166514 -0.252791 -1.83582e-05  -0.0316529 -0.26638 0.00013423  -0.0297177 -0.25141 0.000206947  -0.0166903 -0.252963 2.3365e-05  -0.0297633 -0.251581 0.000138283  -0.0354617 -0.296266 0.000169992  -0.0217937 -0.297908 3.74317e-05  -0.0200202 -0.282649 -7.86781e-06  -0.035497 -0.296387 0.000126362  -0.0335231 -0.281175 0.000180483  -0.0200524 -0.282795 3.24249e-05  -0.0335647 -0.281319 0.0001297  -0.0393804 -0.326741 0.000152111  -0.025375 -0.328439 4.86374e-05  -0.0235425 -0.313004 4.29153e-06  -0.0394092 -0.326845 0.000123024  -0.0374137 -0.311447 0.000160456  -0.023569 -0.313126 4.26769e-05  -0.0374457 -0.311568 0.000123739  -0.0433379 -0.357529 0.00013876  -0.0290562 -0.359268 6.03199e-05  -0.0271834 -0.34372 1.88351e-05  -0.0433601 -0.357608 0.000119448  -0.0413525 -0.342095 0.00014472  -0.0272043 -0.343821 5.45979e-05  -0.0413808 -0.342193 0.00012064  -0.0473142 -0.388513 0.000130177  -0.0328121 -0.390289 7.22408e-05  -0.03091 -0.374678 3.38554e-05  -0.0473309 -0.388579 0.000121117  -0.0453243 -0.372993 0.000133991  -0.0309265 -0.374759 6.65188e-05  -0.0453441 -0.373074 0.000119686  -0.051286 -0.419593 0.0001266  -0.0366113 -0.421393 8.55923e-05  -0.0346956 -0.405768 5.07832e-05  -0.0512974 -0.419639 0.000122309  -0.049298 -0.404038 0.000127554  -0.0347071 -0.405834 7.9155e-05  -0.0493152 -0.404102 0.000121117  -0.0552406 -0.450681 0.0001266  -0.0404356 -0.452502 9.91821e-05  -0.0385144 -0.436899 6.79493e-05  -0.0552485 -0.45072 0.000128508  -0.0532656 -0.435132 0.000126123  -0.0385213 -0.43695 9.2268e-05  -0.0532756 -0.435182 0.000124454  -0.0591619 -0.481706 0.000129461  -0.0442607 -0.483537 0.000111341  -0.0423439 -0.467991 8.51154e-05  -0.059166 -0.481729 0.000132799  -0.0572023 -0.466197 0.000127554  -0.0423481 -0.46803 0.000105143  -0.0572116 -0.466235 0.000130415  -0.0630422 -0.512605 0.000135183  -0.0480745 -0.514446 0.000124454  -0.0461679 -0.498979 0.000102043  -0.0630438 -0.512624 0.000141382  -0.0611069 -0.497165 0.000132084  -0.0461698 -0.499009 0.000117779  -0.06111 -0.497194 0.000136375  -0.0668724 -0.543334 0.000143766  -0.0518615 -0.545175 0.00013876  -0.0499718 -0.52981 0.000120163  -0.0668724 -0.543343 0.000149012  -0.0649605 -0.527984 0.000139475  -0.0499711 -0.529832 0.000131369  -0.0649638 -0.528006 0.000144958  -0.0706527 -0.57385 0.000152826  -0.0556176 -0.575694 0.000150919  -0.0537457 -0.560443 0.000137329  -0.0706518 -0.573862 0.000159502  -0.0687683 -0.558611 0.000148058  -0.0537441 -0.560461 0.000144482  -0.0687678 -0.558629 0.000153542  -0.0743802 -0.604107 0.000161886  -0.0593238 -0.605948 0.000164032  -0.0574782 -0.590836 0.000154257  -0.0743785 -0.604116 0.000167131  -0.0725186 -0.589006 0.000157595  -0.057477 -0.590855 0.000157356  -0.072521 -0.589023 0.000163078  0.000888228 -0.00438672 -0.000351429  0 0 0  0.00155002 -0.0050469 -0.000337362  0.000544854 -0.0017128 -0.000380039  0 0 0  0.000872478 -0.00446945 -0.000171423  0.000305407 -0.00139135 -0.000194788  0 0 0  0.000536166 -0.00175434 -0.000184536  0.000298135 -0.00143546 -9.39369e-05  0.00255549 -0.0142205 -0.000555754  0.00452617 -0.0153326 -0.00054574  0.00296411 -0.00956917 -0.000940323  0.00251895 -0.0143976 -0.000271559  0.00166601 -0.00878322 -0.000475168  0.00292532 -0.0097121 -0.000460863  0.00164106 -0.00892186 -0.000231266  0.00430343 -0.0277308 -0.000623226  0.00784796 -0.0290651 -0.000626326  0.00626343 -0.0216146 -0.00121284  0.00425348 -0.0279964 -0.000307322  0.00345564 -0.0206028 -0.000602007  0.00620037 -0.0218523 -0.000598907  0.00340927 -0.0208359 -0.000295162  0.00566947 -0.0439782 -0.000614166  0.0107685 -0.0453919 -0.000625372  0.00945508 -0.0366235 -0.00127387  0.00561583 -0.0442935 -0.000301123  0.00504917 -0.0355426 -0.000623941  0.00938544 -0.0369291 -0.000632048  0.0049974 -0.0358462 -0.000306845  0.00647813 -0.0625405 -0.000578642  0.0129952 -0.0640061 -0.000587463  0.0120389 -0.0540811 -0.00122714  0.00642431 -0.0628854 -0.00028348  0.00614935 -0.0529775 -0.000597954  0.0119749 -0.0544236 -0.000608921  0.00609297 -0.0533195 -0.00029254  0.00670397 -0.0831891 -0.000536919  0.0144861 -0.0846907 -0.000537872  0.0138881 -0.0737432 -0.00113869  0.00665158 -0.0835286 -0.000259399  0.00666285 -0.0726065 -0.000558376  0.0138323 -0.0740951 -0.00056386  0.00661027 -0.0729598 -0.000271082  0.00636929 -0.105725 -0.000494003  0.0152723 -0.107276 -0.000485182  0.0150148 -0.0954125 -0.00103879  0.00631821 -0.106053 -0.00023675  0.00660717 -0.094224 -0.000515699  0.0149651 -0.0957546 -0.000511646  0.00655293 -0.0945674 -0.000247478  0.00551224 -0.129946 -0.00045085  0.015407 -0.131537 -0.000432491  0.0154633 -0.118884 -0.0009377  0.00546396 -0.130243 -0.000211239  0.0060038 -0.117628 -0.000472307  0.0154191 -0.119204 -0.000458956  0.00595421 -0.11795 -0.000222921  0.00417292 -0.15564 -0.000406027  0.0149403 -0.157285 -0.000380278  0.0152857 -0.143942 -0.000837564  0.00412846 -0.155913 -0.000187159  0.00490284 -0.142612 -0.000429153  0.0152463 -0.144235 -0.000406265  0.00485361 -0.142906 -0.00019908  0.00240004 -0.182603 -0.000360489  0.0139326 -0.18429 -0.000329494  0.0145367 -0.170375 -0.000740767  0.00236046 -0.18284 -0.000159979  0.00333846 -0.168966 -0.000383854  0.014502 -0.170638 -0.000354528  0.00329626 -0.16923 -0.000173092  0.000238061 -0.210638 -0.000313759  0.0124346 -0.212375 -0.000279665  0.013272 -0.197975 -0.000646591  0.000203252 -0.210849 -0.000133991  0.00136745 -0.19649 -0.000337362  0.0132424 -0.198206 -0.000304461  0.00132751 -0.196721 -0.000146389  -0.00226331 -0.239559 -0.00026679  0.0105063 -0.241331 -0.000231743  0.0115473 -0.226548 -0.000556231  -0.00229251 -0.239736 -0.000105619  -0.00097239 -0.224989 -0.000289917  0.0115225 -0.226749 -0.000256062  -0.00100446 -0.225191 -0.000118971  -0.00505936 -0.269195 -0.00022006  0.00819707 -0.271008 -0.00018549  0.00941718 -0.255913 -0.000468969  -0.00508344 -0.26935 -7.96318e-05  -0.00362444 -0.254289 -0.000243187  0.00939691 -0.256087 -0.000208378  -0.00365388 -0.254462 -9.20296e-05  -0.00810242 -0.29939 -0.000174284  0.00556517 -0.301227 -0.000141382  0.00693548 -0.285906 -0.000386  -0.00812113 -0.299516 -5.17368e-05  -0.00655162 -0.284223 -0.000196934  0.00692022 -0.286053 -0.000163078  -0.00657332 -0.284371 -6.46114e-05  -0.0113528 -0.330002 -0.000129461  0.00265467 -0.331866 -9.94205e-05  0.00415409 -0.316375 -0.000307798  -0.0113666 -0.33011 -2.59876e-05  -0.00970161 -0.314644 -0.000151873  0.00414264 -0.316499 -0.000120163  -0.00972044 -0.314767 -3.8147e-05  -0.0147655 -0.360904 -8.72612e-05  -0.000479937 -0.362778 -6.03199e-05  0.00112176 -0.347187 -0.000235081  -0.0147747 -0.360986 2.38419e-07  -0.0130402 -0.345415 -0.000108242  0.00111425 -0.347289 -7.98702e-05  -0.0130519 -0.345518 -1.16825e-05  -0.018307 -0.391981 -4.69685e-05  -0.00379992 -0.393869 -2.3365e-05  -0.00211453 -0.378221 -0.000166893  -0.0183127 -0.39205 2.36034e-05  -0.0165193 -0.376418 -6.69956e-05  -0.00211811 -0.378304 -4.1008e-05  -0.0165296 -0.376501 1.28746e-05  -0.0219398 -0.423134 -8.58307e-06  -0.00726032 -0.425021 1.12057e-05  -0.005512 -0.409372 -0.000105143  -0.0219417 -0.423183 4.88758e-05  -0.0201128 -0.407544 -2.76566e-05  -0.00551343 -0.409438 -6.19888e-06  -0.0201173 -0.407611 3.67165e-05  -0.0256364 -0.454277 2.64645e-05  -0.0108266 -0.456169 4.17233e-05  -0.00903225 -0.440545 -4.88758e-05  -0.025636 -0.454317 6.91414e-05  -0.0237782 -0.438703 8.82149e-06  -0.00903082 -0.440597 2.67029e-05  -0.0237823 -0.438754 5.96046e-05  -0.0293694 -0.485339 5.76973e-05  -0.0144625 -0.487222 6.77109e-05  -0.0126393 -0.471666 -2.38419e-07  -0.029366 -0.485364 9.03606e-05  -0.0274987 -0.469813 4.24385e-05  -0.0126357 -0.471705 5.45979e-05  -0.0274973 -0.469853 8.08239e-05  -0.0331202 -0.516263 8.72612e-05  -0.0181468 -0.518143 9.34601e-05  -0.0163043 -0.502669 4.3869e-05  -0.0331149 -0.516284 0.000108242  -0.0312409 -0.500813 7.27177e-05  -0.0162992 -0.502699 8.13007e-05  -0.0312393 -0.500843 9.98974e-05  -0.0368667 -0.547004 0.000113964  -0.0218503 -0.548871 0.000115156  -0.0200024 -0.533506 8.17776e-05  -0.03686 -0.547014 0.000127077  -0.0349939 -0.531649 0.000100851  -0.0199957 -0.533528 0.000104427  -0.0349879 -0.531673 0.000118732  -0.0405979 -0.577523 0.000138998  -0.0255573 -0.579393 0.000134945  -0.0237119 -0.564138 0.000115395  -0.0405905 -0.577537 0.000142574  -0.0387323 -0.562284 0.000126362  -0.0237038 -0.564156 0.000124931  -0.0387282 -0.562303 0.000135183  -0.0442851 -0.60778 0.000163317  -0.0292284 -0.609658 0.000155449  -0.0274067 -0.594536 0.000147104  -0.0442796 -0.607792 0.000160217  -0.0424478 -0.592678 0.000150681  -0.0273983 -0.594554 0.000144958  -0.0424414 -0.592698 0.000151396  0.00233851 -0.00582623 -0.001019  0 0 0  0.00319599 -0.00717264 -0.000654221  0.00112185 -0.00294334 -0.000730038  0 0 0  0.00231096 -0.00592268 -0.000498295  0.000798844 -0.0022034 -0.000558376  0 0 0  0.00110837 -0.00300223 -0.000356197  0.000789367 -0.00225568 -0.000271797  0.00678712 -0.0165055 -0.00164652  0.00915724 -0.0185562 -0.00106764  0.00602593 -0.0123609 -0.00182223  0.0067212 -0.0167016 -0.000812292  0.0043994 -0.0107402 -0.00138974  0.00596814 -0.0125339 -0.000896454  0.00434926 -0.0108961 -0.000683069  0.0117295 -0.0302735 -0.00188971  0.0157199 -0.0324664 -0.00123906  0.0125625 -0.0249519 -0.00237846  0.0116466 -0.0305554 -0.000936985  0.00927612 -0.0230588 -0.00180626  0.012471 -0.0252216 -0.00117826  0.00919944 -0.0233102 -0.000893831  0.0161624 -0.0465335 -0.00189233  0.0216468 -0.048686 -0.00125194  0.0188912 -0.0399525 -0.00252771  0.0160853 -0.046859 -0.000943184  0.014043 -0.0380977 -0.00190997  0.0187961 -0.0402823 -0.00125909  0.013959 -0.0384138 -0.000950336  0.0197565 -0.0650976 -0.00178409  0.0265986 -0.067204 -0.00118375  0.0243289 -0.0573071 -0.00245094  0.0196933 -0.0654469 -0.000888109  0.0180694 -0.0555281 -0.00184584  0.0242498 -0.0576637 -0.0012238  0.0179997 -0.0558774 -0.000920057  0.0224744 -0.0857946 -0.00163603  0.0305415 -0.0878677 -0.00108528  0.0287547 -0.076918 -0.00227785  0.0224248 -0.086136 -0.000814199  0.0212256 -0.0751827 -0.00171304  0.0286947 -0.0772775 -0.00113726  0.0211673 -0.0755382 -0.000852823  0.024356 -0.108422 -0.00147891  0.0335178 -0.110483 -0.000977516  0.0321918 -0.0985979 -0.00207114  0.0243157 -0.10875 -0.000732183  0.0235162 -0.0968708 -0.00155807  0.0321468 -0.0989439 -0.00103211  0.0234718 -0.0972157 -0.000773907  0.0254619 -0.13276 -0.00132203  0.0355954 -0.134814 -0.000870466  0.0346996 -0.122123 -0.00185847  0.0254291 -0.133058 -0.00065279  0.0250048 -0.120382 -0.00139999  0.034665 -0.122446 -0.00092411  0.0249661 -0.120704 -0.000692606  0.0258521 -0.158585 -0.00117016  0.0368429 -0.160644 -0.000766277  0.036345 -0.14726 -0.00165129  0.0258249 -0.158859 -0.00057292  0.0257428 -0.145491 -0.00124526  0.0363187 -0.147554 -0.000817776  0.025713 -0.145785 -0.000612974  0.0255933 -0.185682 -0.00102544  0.0373344 -0.187742 -0.000666857  0.0371999 -0.173781 -0.00145197  0.0255715 -0.18592 -0.00049901  0.0258031 -0.171979 -0.00109744  0.0371795 -0.174045 -0.000715733  0.0257758 -0.172243 -0.000535727  0.0247457 -0.213846 -0.000887871  0.0371379 -0.215911 -0.000571489  0.0373334 -0.201471 -0.00126362  0.0247285 -0.214058 -0.000425577  0.0252395 -0.199633 -0.000956059  0.037318 -0.201704 -0.000618458  0.02522 -0.199867 -0.000462294  0.0233753 -0.242886 -0.000756979  0.0363275 -0.24495 -0.000482559  0.0368171 -0.230127 -0.00108647  0.023363 -0.243065 -0.000358105  0.0241252 -0.228259 -0.000821352  0.0368057 -0.23033 -0.000526667  0.0241077 -0.228462 -0.000391483  0.021541 -0.272628 -0.000633955  0.0349683 -0.274691 -0.000398636  0.0357198 -0.259566 -0.000919342  0.0215328 -0.272785 -0.000291586  0.022513 -0.25767 -0.000694513  0.0357125 -0.259741 -0.000440121  0.0225025 -0.257846 -0.000324726  0.0193064 -0.302912 -0.000518799  0.0331315 -0.304966 -0.000319481  0.0341095 -0.289619 -0.000763893  0.0193017 -0.30304 -0.000231504  0.0204737 -0.287703 -0.000575066  0.0341063 -0.289768 -0.000358582  0.0204641 -0.287852 -0.000261068  0.0167247 -0.333597 -0.000411749  0.030877 -0.335642 -0.00024724  0.0320534 -0.320135 -0.00061965  0.0167238 -0.333707 -0.000172853  0.0180559 -0.318203 -0.000464201  0.0320526 -0.320261 -0.000282764  0.0180531 -0.31833 -0.000202179  0.0138552 -0.364556 -0.00031352  0.0282722 -0.366583 -0.000180006  0.0296129 -0.35098 -0.000488043  0.0138574 -0.36464 -0.000120878  0.0153261 -0.349041 -0.000361681  0.0296155 -0.351084 -0.000213385  0.0153238 -0.349145 -0.000146627  0.010746 -0.395674 -0.000223637  0.0253704 -0.397684 -0.000118971  0.0268502 -0.382033 -0.000367403  0.010751 -0.395744 -7.03335e-05  0.0123281 -0.380091 -0.000267506  0.0268548 -0.382118 -0.000148535  0.0123315 -0.380177 -9.56059e-05  0.00744915 -0.426854 -0.000144005  0.0222321 -0.428841 -6.41346e-05  0.0238214 -0.413191 -0.000259876  0.00745583 -0.426904 -2.76566e-05  0.00912189 -0.411253 -0.000182629  0.0238285 -0.413259 -9.08375e-05  0.00912452 -0.411321 -4.8399e-05  0.00400424 -0.458012 -7.31945e-05  0.0189025 -0.459979 -1.57356e-05  0.0205801 -0.444362 -0.000165224  0.00401258 -0.458053 1.33514e-05  0.0057435 -0.442431 -0.00010705  0.0205884 -0.444415 -3.95775e-05  0.00575066 -0.442485 -6.67572e-06  0.000454664 -0.489079 -1.35899e-05  0.015435 -0.49102 2.47955e-05  0.017175 -0.475471 -8.39233e-05  0.000464439 -0.489104 4.55379e-05  0.00224376 -0.473552 -4.24385e-05  0.0171845 -0.475512 5.72205e-06  0.00224996 -0.473593 2.98023e-05  -0.00317001 -0.519997 3.86238e-05  0.0118644 -0.521918 6.05583e-05  0.0136499 -0.506457 -1.5974e-05  -0.00315833 -0.520019 7.70092e-05  -0.00134945 -0.50455 1.33514e-05  0.0136604 -0.506488 4.29153e-05  -0.0013392 -0.504582 6.10352e-05  -0.00683641 -0.550728 8.27312e-05  0.00823116 -0.552627 9.08375e-05  0.0100439 -0.537271 4.19617e-05  -0.00682425 -0.55074 0.000102043  -0.00499654 -0.53538 6.17504e-05  0.0100543 -0.537295 7.60555e-05  -0.004987 -0.535404 9.01222e-05  -0.0105226 -0.581243 0.000122309  0.00456238 -0.583134 0.000118494  0.006387 -0.567885 9.05991e-05  -0.0105095 -0.581257 0.000127792  -0.0086782 -0.566004 0.000102997  0.00639939 -0.567904 0.000104666  -0.00866604 -0.566025 0.000114441  -0.0141852 -0.611527 0.000161648  0.000905275 -0.613436 0.000146389  0.00271606 -0.598287 0.00013566  -0.0141714 -0.611538 0.000150204  -0.0123565 -0.596406 0.000141621  0.00272894 -0.598307 0.000131845  -0.0123463 -0.596425 0.00013876  0.00438014 -0.00881815 -0.00164008  0 0 0  0.00575694 -0.0114229 -0.000953197  0.0020044 -0.00563014 -0.00106072  0 0 0  0.00434445 -0.00894308 -0.000805855  0.00148142 -0.00402981 -0.000894547  0 0 0  0.00199214 -0.00570381 -0.000519991  0.00146614 -0.00409794 -0.00043726  0.0121491 -0.0207088 -0.00266051  0.0155008 -0.0238687 -0.00155425  0.0105695 -0.017346 -0.0026443  0.0120658 -0.0209485 -0.00131464  0.00805619 -0.0145222 -0.00223827  0.0105092 -0.0175661 -0.00130391  0.0079961 -0.0147171 -0.00110221  0.0202966 -0.0344652 -0.00308156  0.0251239 -0.037465 -0.00181675  0.0205153 -0.0300779 -0.00346899  0.0201921 -0.0347852 -0.00153351  0.0162919 -0.0273037 -0.00293255  0.0204145 -0.0303968 -0.00172186  0.0161916 -0.027597 -0.00145388  0.0276181 -0.0504992 -0.00311184  0.0337828 -0.0533296 -0.00184917  0.0296993 -0.0447232 -0.00371456  0.0275232 -0.0508487 -0.00155354  0.0240859 -0.042172 -0.00312972  0.0295898 -0.0450875 -0.00185323  0.023984 -0.0425191 -0.00155997  0.0338434 -0.0689032 -0.00294876  0.0412745 -0.0716178 -0.00175929  0.0377733 -0.0617992 -0.00362492  0.0337703 -0.0692651 -0.0014751  0.0308741 -0.0594039 -0.00304461  0.0376809 -0.0621751 -0.00181293  0.0307875 -0.05977 -0.00152111  0.0389469 -0.0895256 -0.00270915  0.0475478 -0.09215 -0.00161886  0.0446332 -0.0812453 -0.00338149  0.0388943 -0.089872 -0.00135398  0.0365333 -0.078942 -0.0028348  0.0445638 -0.0816129 -0.00169277  0.0364715 -0.0793063 -0.00141692  0.0429719 -0.11214 -0.00244546  0.0526287 -0.11471 -0.00146031  0.0502848 -0.102843 -0.00307894  0.0429343 -0.11247 -0.00122142  0.0410927 -0.10059 -0.0025785  0.0502343 -0.10319 -0.00153995  0.0410457 -0.100938 -0.0012877  0.0459877 -0.136501 -0.00218201  0.0565852 -0.139019 -0.00130177  0.0547806 -0.126336 -0.00276279  0.0459611 -0.136799 -0.00108647  0.0446018 -0.124108 -0.00231338  0.0547442 -0.126656 -0.00138068  0.0445704 -0.124431 -0.00115299  0.0480646 -0.162368 -0.00192809  0.0594908 -0.164852 -0.00114775  0.0581914 -0.151466 -0.00245333  0.0480458 -0.162641 -0.000958443  0.0471414 -0.149253 -0.00205374  0.058165 -0.151757 -0.0012238  0.0471163 -0.149546 -0.00102162  0.0492826 -0.189514 -0.00168586  0.0614325 -0.191954 -0.0010004  0.0605974 -0.177993 -0.00215602  0.0492699 -0.189751 -0.000833273  0.0487767 -0.175786 -0.00180531  0.0605785 -0.178253 -0.00107312  0.0487612 -0.176049 -0.000894547  0.0497164 -0.217723 -0.00145864  0.0624902 -0.220131 -0.000862122  0.062081 -0.205689 -0.00187564  0.0497082 -0.217935 -0.000718355  0.0495954 -0.203489 -0.00157046  0.0620672 -0.205918 -0.000930071  0.0495826 -0.203721 -0.000774145  0.0494452 -0.246802 -0.00124502  0.0627531 -0.249166 -0.000731945  0.0627261 -0.234348 -0.0016129  0.0494417 -0.24698 -0.000607014  0.0496651 -0.232156 -0.0013504  0.0627177 -0.234548 -0.000795841  0.0496591 -0.232359 -0.000661135  0.0485423 -0.276572 -0.00104642  0.0622979 -0.2789 -0.000611067  0.0626156 -0.263782 -0.00136781  0.048542 -0.276729 -0.000505447  0.0490711 -0.261603 -0.00114393  0.0626109 -0.263954 -0.000670433  0.0490662 -0.261778 -0.000555038  0.0470847 -0.306875 -0.000861645  0.0612124 -0.309153 -0.000497341  0.0618321 -0.29382 -0.00113964  0.0470877 -0.307001 -0.000408411  0.0478793 -0.291657 -0.000952244  0.061831 -0.293966 -0.000552893  0.0478804 -0.291807 -0.000455379  0.0451401 -0.337565 -0.000692368  0.0595678 -0.339802 -0.000394583  0.0604542 -0.324312 -0.000929594  0.0451461 -0.337674 -0.000321865  0.0461718 -0.322171 -0.00077486  0.0604558 -0.324434 -0.000444412  0.0461736 -0.322296 -0.000363588  0.0427821 -0.368517 -0.000538111  0.0574467 -0.3707 -0.000299931  0.0585593 -0.355121 -0.000739098  0.0427904 -0.3686 -0.000239372  0.0440097 -0.353007 -0.000614166  0.0585643 -0.355222 -0.000346184  0.0440166 -0.353111 -0.000279665  0.040071 -0.399619 -0.000400305  0.0549152 -0.401756 -0.000214815  0.0562217 -0.38613 -0.000566244  0.040082 -0.399689 -0.000167847  0.0414696 -0.384047 -0.0004673  0.0562286 -0.386212 -0.000255585  0.0414762 -0.384131 -0.000202179  0.0370746 -0.430775 -0.000278473  0.0520487 -0.432857 -0.000139475  0.0535128 -0.417237 -0.000414133  0.0370872 -0.430824 -0.000101566  0.0386062 -0.415186 -0.000337124  0.0535216 -0.417302 -0.000175953  0.0386171 -0.415254 -0.000132799  0.0338466 -0.461901 -0.000172377  0.048907 -0.46394 -7.41482e-05  0.0504987 -0.448353 -0.000280619  0.0338602 -0.461942 -4.57764e-05  0.0354896 -0.446338 -0.000222921  0.0505092 -0.448403 -0.000104666  0.0354993 -0.44639 -7.20024e-05  0.0304453 -0.492933 -8.34465e-05  0.0455585 -0.494922 -1.83582e-05  0.0472445 -0.479405 -0.00016737  0.0304594 -0.492958 4.29153e-06  0.0321658 -0.477423 -0.000125647  0.0472569 -0.479442 -4.48227e-05  0.0321791 -0.477464 -1.88351e-05  0.0269148 -0.523815 -9.53674e-06  0.0420539 -0.52577 2.7895e-05  0.0438097 -0.510334 -7.41482e-05  0.0269303 -0.523836 4.3869e-05  0.0286963 -0.508386 -4.50611e-05  0.043823 -0.510362 6.4373e-06  0.0287082 -0.508417 2.47955e-05  0.0233037 -0.554512 5.03063e-05  0.0384524 -0.556431 6.58035e-05  0.0402496 -0.541098 1.43051e-06  0.0233197 -0.554523 7.89165e-05  0.0251181 -0.539179 2.16961e-05  0.0402639 -0.54112 4.81606e-05  0.0251336 -0.539203 6.27041e-05  0.0196435 -0.585007 0.000102282  0.0347919 -0.586915 9.89437e-05  0.036612 -0.571673 6.22272e-05  0.0196607 -0.585021 0.000108004  0.0214806 -0.569776 7.67708e-05  0.0366282 -0.571692 8.27312e-05  0.0214942 -0.569796 9.41753e-05  0.0159781 -0.615323 0.000152826  0.0311162 -0.617239 0.000129938  0.032939 -0.60207 0.000116587  0.0159945 -0.615335 0.00013876  0.0178092 -0.600176 0.000126839  0.0329554 -0.602088 0.000113964  0.0178261 -0.600197 0.000123501  0.0082594 -0.0149121 -0.00223994  0 0 0  0.0121824 -0.0196417 -0.00124788  0.00505148 -0.0122117 -0.00140667  0 0 0  0.0082456 -0.0150853 -0.00110126  0.00279138 -0.00803626 -0.00121188  0 0 0  0.00507743 -0.0123457 -0.000687599  0.00278921 -0.00813192 -0.000594378  0.0197271 -0.0269268 -0.00361943  0.024581 -0.030799 -0.00202441  0.018556 -0.0247517 -0.00344944  0.0196567 -0.0272235 -0.00179148  0.0140678 -0.0208483 -0.00304413  0.0185523 -0.0250332 -0.00170207  0.0140249 -0.0211014 -0.00150204  0.0306294 -0.0400945 -0.0042119  0.0364323 -0.043736 -0.0023694  0.0306209 -0.0365921 -0.00452638  0.0305207 -0.0404611 -0.0020957  0.02527 -0.0332103 -0.00399899  0.0305448 -0.0369613 -0.00224757  0.0251761 -0.0335578 -0.00198579  0.0405542 -0.0557197 -0.00427723  0.0475534 -0.0591472 -0.00242043  0.0422471 -0.0506951 -0.00485921  0.0404455 -0.0560974 -0.00213885  0.0357397 -0.0475734 -0.0042913  0.0421289 -0.0510934 -0.00242615  0.0356247 -0.0479576 -0.00214148  0.0492396 -0.0738664 -0.00407171  0.0574473 -0.0771407 -0.00231051  0.0527794 -0.0674281 -0.0047555  0.0491512 -0.0742432 -0.00203824  0.0450591 -0.0644765 -0.00419593  0.0526716 -0.0678251 -0.0023818  0.0449603 -0.0648652 -0.00209999  0.0566173 -0.0943372 -0.00374985  0.0659532 -0.0974898 -0.00213194  0.0619699 -0.0866598 -0.00444674  0.0565506 -0.0946879 -0.00187874  0.053095 -0.083819 -0.00391912  0.0618761 -0.0870347 -0.00223088  0.0530154 -0.0841923 -0.00196362  0.0627014 -0.116862 -0.0033896  0.0730563 -0.119919 -0.00192738  0.0697489 -0.108113 -0.00405622  0.0626522 -0.117192 -0.00169635  0.0598183 -0.105351 -0.00357175  0.0696791 -0.108462 -0.00203466  0.0597609 -0.105701 -0.00178933  0.0675555 -0.14117 -0.00302649  0.0788125 -0.144139 -0.00172281  0.0761564 -0.131507 -0.00364566  0.0675191 -0.141464 -0.00151491  0.0652806 -0.128802 -0.00320721  0.0760964 -0.131822 -0.00182915  0.0652355 -0.129123 -0.00160551  0.0712543 -0.166999 -0.00267434  0.0833026 -0.169891 -0.00152111  0.0812547 -0.156554 -0.00324082  0.071227 -0.167268 -0.00133562  0.0695442 -0.1539 -0.0028491  0.0812116 -0.15684 -0.00162506  0.0695127 -0.154191 -0.00142527  0.0738881 -0.194112 -0.00234008  0.0866214 -0.196924 -0.00133061  0.0851411 -0.183011 -0.00285149  0.0738674 -0.194344 -0.00116801  0.0727019 -0.180402 -0.0025053  0.0851009 -0.183262 -0.00142908  0.0726751 -0.18066 -0.00125122  0.075542 -0.222286 -0.00202465  0.088863 -0.225022 -0.00114799  0.0879002 -0.210632 -0.00248265  0.0755274 -0.222493 -0.00100589  0.0748321 -0.20807 -0.00217986  0.0878716 -0.210855 -0.00124192  0.0748144 -0.208299 -0.00108552  0.0763111 -0.251325 -0.00172973  0.0901277 -0.25398 -0.000979662  0.0896376 -0.239215 -0.00213599  0.0763016 -0.251497 -0.000857115  0.0760351 -0.236702 -0.00187492  0.0896101 -0.239405 -0.00106645  0.0760199 -0.236899 -0.000930309  0.0762789 -0.281046 -0.00145626  0.0905074 -0.283621 -0.000820875  0.09044 -0.268561 -0.00181365  0.0762743 -0.281197 -0.000715971  0.07639 -0.266101 -0.00159073  0.090423 -0.268727 -0.000902414  0.0763825 -0.266273 -0.000785828  0.0755396 -0.31129 -0.0012033  0.0901006 -0.31378 -0.000675201  0.090412 -0.298509 -0.00151515  0.0755382 -0.311411 -0.000587463  0.0759958 -0.296104 -0.00132751  0.0903953 -0.298645 -0.000750065  0.0759896 -0.296248 -0.000650883  0.074172 -0.341913 -0.000972033  0.0889946 -0.34432 -0.000540018  0.0896381 -0.328895 -0.00124121  0.0741733 -0.342018 -0.0004673  0.0749297 -0.326553 -0.00108504  0.0896299 -0.329013 -0.000609875  0.0749292 -0.326676 -0.000526428  0.072263 -0.37279 -0.000763178  0.0872836 -0.375111 -0.00041914  0.0882165 -0.359599 -0.000991821  0.072268 -0.372869 -0.000360489  0.0732832 -0.357319 -0.000864744  0.0882077 -0.359692 -0.000481844  0.0732834 -0.357419 -0.000413179  0.0698884 -0.403811 -0.000576019  0.0850494 -0.406049 -0.000309944  0.0862272 -0.390493 -0.000767231  0.0698957 -0.403877 -0.00026226  0.0711298 -0.38828 -0.00066638  0.0862269 -0.39057 -0.000365973  0.0711353 -0.388361 -0.000310421  0.0671277 -0.434883 -0.000412941  0.0823774 -0.437038 -0.0002141  0.0837631 -0.421486 -0.00056982  0.067138 -0.434928 -0.000178099  0.0685549 -0.419339 -0.000491619  0.0837615 -0.421543 -0.000263929  0.0685606 -0.419402 -0.000219107  0.0640504 -0.465926 -0.000271559  0.0793455 -0.468005 -0.000130415  0.0808959 -0.452483 -0.000399113  0.0640621 -0.465963 -0.000101805  0.0656254 -0.450403 -0.000339031  0.0809023 -0.452531 -0.000174522  0.0656352 -0.450453 -0.00013876  0.0607297 -0.496877 -0.000154495  0.0760322 -0.498885 -6.1512e-05  0.0777121 -0.483428 -0.000253439  0.0607436 -0.496898 -4.1008e-05  0.0624199 -0.481409 -0.000210047  0.0777178 -0.48346 -9.82285e-05  0.0624294 -0.481445 -7.05719e-05  0.0572276 -0.527686 -5.96046e-05  0.07251 -0.529637 -3.8147e-06  0.0742803 -0.514254 -0.000135422  0.0572431 -0.527706 1.21593e-05  0.0589981 -0.512292 -0.000104427  0.0742931 -0.514281 -3.45707e-05  0.0590119 -0.512322 -1.33514e-05  0.0536113 -0.558326 1.43051e-05  0.0688558 -0.560232 3.95775e-05  0.070683 -0.544938 -4.33922e-05  0.0536284 -0.558336 5.17368e-05  0.055433 -0.543021 -2.0504e-05  0.0706933 -0.544956 1.54972e-05  0.0554469 -0.543043 3.26633e-05  0.0499308 -0.588788 7.41482e-05  0.0651357 -0.590676 7.58171e-05  0.0669825 -0.575454 2.57492e-05  0.0499508 -0.588802 8.72612e-05  0.0517764 -0.573569 4.50611e-05  0.0670006 -0.575473 5.38826e-05  0.0517945 -0.57359 6.93798e-05  0.0462291 -0.619121 0.000132322  0.0614011 -0.621009 0.000107765  0.063252 -0.605836 8.51154e-05  0.0462511 -0.61913 0.000120163  0.0480845 -0.603958 0.000102997  0.0632684 -0.605852 8.65459e-05  0.0481024 -0.603978 0.000102758  -0.0125551 -0.0163931 0.00439787  -0.00546306 -0.00988883 0.00342965  0 0 0  -0.00807398 -0.011507 0.00526285  0 0 0  -0.00534835 -0.0086697 0.00323272  -0.00190984 -0.00378904 0.00248623  0 0 0  -0.00556861 -0.0102691 0.00246167  -0.00806781 -0.012062 0.00380731  -0.00277384 -0.00590977 0.00289369  0 0 0  -0.00188294 -0.00401809 0.00178337  -0.00276313 -0.00618977 0.00207925  -0.0251317 -0.0255678 0.00692391  -0.0187967 -0.019837 0.00810838  -0.0195906 -0.0214182 0.0082767  -0.0149153 -0.0194657 0.0051837  -0.01005 -0.0132499 0.00603032  -0.0189144 -0.0207198 0.00587535  -0.0195233 -0.0223881 0.00604725  -0.0138325 -0.01632 0.00704932  -0.00994849 -0.0139525 0.00438118  -0.0138005 -0.0171183 0.00512075  -0.0375715 -0.0365895 0.00794411  -0.0313736 -0.0296093 0.0103307  -0.0308855 -0.0328194 0.00936937  -0.0247848 -0.0316366 0.00596976  -0.0200144 -0.024292 0.00772929  -0.0313486 -0.0307781 0.00759077  -0.0308008 -0.0339426 0.00694847  -0.0252929 -0.0267994 0.00901318  -0.0198957 -0.0252686 0.00569844  -0.0252019 -0.0278768 0.00663638  -0.0496805 -0.0500381 0.00795054  -0.0437472 -0.0417585 0.0107875  -0.0416115 -0.0468162 0.00927901  -0.0342008 -0.0461482 0.00596738  -0.0296047 -0.0375167 0.00807929  -0.0436981 -0.0429828 0.0080328  -0.0416012 -0.0479397 0.00695419  -0.0363273 -0.0394815 0.00942135  -0.0295523 -0.038582 0.0060358  -0.0362741 -0.0406252 0.0070281  -0.0611086 -0.0659962 0.00743222  -0.0554778 -0.056555 0.0102978  -0.051709 -0.0633599 0.00863266  -0.0431158 -0.063069 0.00557971  -0.0386644 -0.0532694 0.00771356  -0.0554897 -0.0577141 0.00772762  -0.0517918 -0.0644062 0.00650263  -0.0467376 -0.0547784 0.00899816  -0.0387207 -0.0543144 0.00580454  -0.0467754 -0.055877 0.00676203  -0.0717819 -0.0842735 0.00671458  -0.0664511 -0.0738174 0.00940323  -0.0612078 -0.0821973 0.00777364  -0.0515497 -0.0822106 0.00502563  -0.0472419 -0.0714005 0.00703859  -0.0665392 -0.0748665 0.00708246  -0.0613658 -0.0831442 0.00586796  -0.0565287 -0.0725031 0.0082159  -0.0473888 -0.0723742 0.00531387  -0.0566546 -0.0735098 0.00619531  -0.0817222 -0.104609 0.00594497  -0.0766984 -0.0932754 0.0083847  -0.0701503 -0.103065 0.00687361  -0.0595402 -0.103342 0.00444841  -0.0553888 -0.0916592 0.00626826  -0.0768424 -0.0942034 0.00632644  -0.0703534 -0.103901 0.00519371  -0.0657461 -0.0923867 0.00732255  -0.0555983 -0.0925394 0.00473833  -0.0659306 -0.093287 0.0055294  -0.0909905 -0.126781 0.00520635  -0.0862572 -0.114676 0.0073719  -0.0785778 -0.125717 0.00600863  -0.067126 -0.126228 0.00388193  -0.0631397 -0.113795 0.00550413  -0.0864363 -0.115487 0.00556588  -0.0788031 -0.12645 0.00454187  -0.0744234 -0.114176 0.00643444  -0.0633793 -0.114576 0.00416231  -0.0746425 -0.114968 0.00486159  -0.0996422 -0.150553 0.00451875  -0.0952014 -0.137781 0.00642157  -0.0865313 -0.149936 0.00521111  -0.0743402 -0.150661 0.00337029  -0.0705277 -0.137577 0.00478745  -0.095392 -0.138483 0.00485158  -0.0867574 -0.150568 0.00394177  -0.0826114 -0.137637 0.00560117  -0.070778 -0.138261 0.00362206  -0.0828401 -0.138327 0.00423384  -0.107733 -0.175738 0.00389957  -0.103564 -0.162382 0.00555253  -0.0940402 -0.175516 0.00448656  -0.0812103 -0.176435 0.00289774  -0.0775719 -0.162795 0.00413346  -0.103755 -0.162987 0.00419736  -0.0942588 -0.176061 0.00339651  -0.0903367 -0.162561 0.00484014  -0.0778146 -0.16339 0.00312948  -0.0905627 -0.163157 0.00366116  -0.115301 -0.202131 0.00333405  -0.111403 -0.18828 0.00476432  -0.101135 -0.202274 0.00383258  -0.0877578 -0.203369 0.00248265  -0.084294 -0.189255 0.0035429  -0.111582 -0.188797 0.00360632  -0.101336 -0.202735 0.00290585  -0.0976379 -0.188752 0.00415111  -0.0845234 -0.189765 0.00268555  -0.0978489 -0.189263 0.00314307  -0.122387 -0.229573 0.00283122  -0.118737 -0.215298 0.00405312  -0.107835 -0.230031 0.00324321  -0.0939978 -0.231284 0.00209999  -0.0907049 -0.216777 0.00301147  -0.118902 -0.215737 0.00307202  -0.108017 -0.230422 0.00246429  -0.104531 -0.216032 0.0035305  -0.0909132 -0.217211 0.00228715  -0.104725 -0.216465 0.00267816  -0.129015 -0.257882 0.00237465  -0.125613 -0.243262 0.0034132  -0.114162 -0.25863 0.00271511  -0.0999433 -0.26002 0.0017693  -0.0968199 -0.24519 0.00253487  -0.125759 -0.24363 0.00259328  -0.114321 -0.258952 0.00206995  -0.111044 -0.244229 0.00297213  -0.0970067 -0.245556 0.00193095  -0.111216 -0.244593 0.00226021  -0.135216 -0.286921 0.00197363  -0.13204 -0.272019 0.00283909  -0.12013 -0.287913 0.00224352  -0.105604 -0.289421 0.00146437  -0.102644 -0.27434 0.00210929  -0.132167 -0.272324 0.00216389  -0.120269 -0.288179 0.00171781  -0.117187 -0.273189 0.00247264  -0.102806 -0.274644 0.00161338  -0.117338 -0.27349 0.00188756  -0.141012 -0.31653 0.00161099  -0.138058 -0.301415 0.00232744  -0.125761 -0.317742 0.00182486  -0.110992 -0.319351 0.00120473  -0.10819 -0.304077 0.00173092  -0.138165 -0.301664 0.00178289  -0.125877 -0.317953 0.00140619  -0.122987 -0.30276 0.00202775  -0.108332 -0.304326 0.00133181  -0.123115 -0.303007 0.00155544  -0.146433 -0.346595 0.0012989  -0.143676 -0.33132 0.00187492  -0.131068 -0.347984 0.00145769  -0.116118 -0.349675 0.000968456  -0.113465 -0.334268 0.00139737  -0.143767 -0.331519 0.00144529  -0.131166 -0.348151 0.00113297  -0.128451 -0.332813 0.00163484  -0.113585 -0.334469 0.00108409  -0.12856 -0.33301 0.00126338  -0.151501 -0.376978 0.00102329  -0.148938 -0.361599 0.0014801  -0.136075 -0.378522 0.00113964  -0.120995 -0.380278 0.00077486  -0.118485 -0.364788 0.00110769  -0.149011 -0.361755 0.00115228  -0.136153 -0.378647 0.000897408  -0.133607 -0.363216 0.00129247  -0.118586 -0.364945 0.000869513  -0.133696 -0.36337 0.00100923  -0.156253 -0.407585 0.00079751  -0.153855 -0.392147 0.00114274  -0.140803 -0.409245 0.000872612  -0.125638 -0.41105 0.000602245  -0.12326 -0.395526 0.000859737  -0.153914 -0.392265 0.000900984  -0.140866 -0.409339 0.00069952  -0.138469 -0.39386 0.000999928  -0.123342 -0.395646 0.00068593  -0.138543 -0.393977 0.000792503  -0.160717 -0.438304 0.000606775  -0.158474 -0.42285 0.000861406  -0.145279 -0.440062 0.000653982  -0.130068 -0.441904 0.000473022  -0.127812 -0.426381 0.000654936  -0.15852 -0.422937 0.00069356  -0.145328 -0.440125 0.000538588  -0.14307 -0.42464 0.000757456  -0.127879 -0.426469 0.00053525  -0.143127 -0.424726 0.000612736  -0.164932 -0.469066 0.000465631  -0.162814 -0.453629 0.000635862  -0.149529 -0.470886 0.000483751  -0.134306 -0.47275 0.000362396  -0.132155 -0.457265 0.000491142  -0.162852 -0.453689 0.000526428  -0.14957 -0.47093 0.000413418  -0.147427 -0.455472 0.000562906  -0.132207 -0.457329 0.00041461  -0.147474 -0.455532 0.000470161  -0.16894 -0.499783 0.000356674  -0.16693 -0.484394 0.00046587  -0.153592 -0.50165 0.000359058  -0.138379 -0.503525 0.000291824  -0.136318 -0.488103 0.000368357  -0.166961 -0.484436 0.000402689  -0.153625 -0.501674 0.00032258  -0.151582 -0.486272 0.00041604  -0.136362 -0.488147 0.00032568  -0.151619 -0.486314 0.000362635  -0.172796 -0.530417 0.00028944  -0.170853 -0.515091 0.000346661  -0.157504 -0.532296 0.000274897  -0.142314 -0.534173 0.000235319  -0.140325 -0.518834 0.000280857  -0.170883 -0.515118 0.000314474  -0.157534 -0.532311 0.000261307  -0.155562 -0.516984 0.000313044  -0.14036 -0.518864 0.00026226  -0.155595 -0.51701 0.000287771  -0.176558 -0.560922 0.000240803  -0.174656 -0.545667 0.000269413  -0.161313 -0.562798 0.000216722  -0.146147 -0.56467 0.000203848  -0.144208 -0.549416 0.000220537  -0.174687 -0.545688 0.000258923  -0.161342 -0.562806 0.000219584  -0.159418 -0.547558 0.000243187  -0.144241 -0.549437 0.000219345  -0.159448 -0.547578 0.000236988  -0.180295 -0.591334 0.000205278  -0.178389 -0.57612 0.000216007  -0.165071 -0.593177 0.00016427  -0.149926 -0.595026 0.000163794  -0.148006 -0.579839 0.00017333  -0.178426 -0.576141 0.000221014  -0.165106 -0.59319 0.000180244  -0.163192 -0.577993 0.000191689  -0.148036 -0.57986 0.00018549  -0.163226 -0.578011 0.00020051  -0.00396162 -0.00617468 0.00372648  0 0 0  -0.00275354 -0.00524738 0.00215459  -0.000982698 -0.00174135 0.00164986  0 0 0  -0.0038923 -0.00658394 0.00268817  -0.00133991 -0.00251643 0.00205493  0 0 0  -0.000957843 -0.00191787 0.00117683  -0.00130666 -0.00272162 0.00147033  -0.0113623 -0.0163102 0.00594616  -0.00818253 -0.0153041 0.00349498  -0.00532812 -0.00935151 0.00405836  -0.0112358 -0.0170684 0.00434399  -0.00741668 -0.0109225 0.00504088  -0.00523624 -0.00989111 0.00294113  -0.00731 -0.0115382 0.00365758  -0.0195178 -0.0287722 0.00673318  -0.0146468 -0.0282139 0.00402474  -0.0114812 -0.0206554 0.0052135  -0.0194225 -0.0297182 0.00499988  -0.015451 -0.0222246 0.00647616  -0.0113739 -0.0214517 0.00384283  -0.0153261 -0.0231083 0.00477386  -0.0273892 -0.0436788 0.00665236  -0.0211198 -0.0435427 0.00401402  -0.0179394 -0.0346504 0.00543427  -0.0273965 -0.0446744 0.00499535  -0.0234994 -0.0358984 0.00676036  -0.0179072 -0.0355766 0.00406361  -0.023453 -0.0368937 0.0050528  -0.0348922 -0.0610239 0.00617385  -0.0273765 -0.0612022 0.0037365  -0.0242046 -0.0511335 0.00516868  -0.0350038 -0.061994 0.00465727  -0.0311832 -0.0520467 0.00644207  -0.0242756 -0.0520893 0.00389457  -0.031246 -0.0530482 0.00485063  -0.0420775 -0.0805898 0.00554729  -0.0334297 -0.0810076 0.00335717  -0.0302693 -0.0699252 0.0047009  -0.042264 -0.0814891 0.00419354  -0.0385188 -0.0705328 0.00586939  -0.0304255 -0.0708473 0.00355291  -0.0386742 -0.0714821 0.00443316  -0.0489904 -0.102135 0.00489521  -0.0393197 -0.10275 0.0029583  -0.0361841 -0.0907936 0.00417304  -0.0492202 -0.10295 0.00370169  -0.045565 -0.0911184 0.00522089  -0.0363929 -0.091649 0.00315714  -0.0457778 -0.0919883 0.00394773  -0.0556569 -0.125415 0.00427151  -0.0450711 -0.126204 0.0025773  -0.0419756 -0.113501 0.00365376  -0.0559037 -0.126136 0.00323176  -0.0523503 -0.11356 0.00457835  -0.0422112 -0.114274 0.00276518  -0.0525938 -0.114339 0.00346279  -0.0620941 -0.150218 0.00369668  -0.0506995 -0.151164 0.00222778  -0.0476593 -0.13782 0.00316882  -0.06234 -0.150851 0.00279689  -0.058902 -0.137627 0.00397754  -0.0478998 -0.138506 0.00239897  -0.0591516 -0.138315 0.00300956  -0.0683097 -0.176333 0.00317717  -0.0562071 -0.177424 0.00191355  -0.0532339 -0.163539 0.00272775  -0.0685438 -0.17688 0.00240707  -0.0652256 -0.163111 0.00343037  -0.0534675 -0.164141 0.00206661  -0.0654695 -0.163711 0.00259733  -0.0743115 -0.20358 0.00271034  -0.0615972 -0.204804 0.00163364  -0.0586989 -0.190462 0.00233245  -0.0745274 -0.20405 0.00205588  -0.0713356 -0.189815 0.00293779  -0.0589169 -0.190984 0.00176978  -0.0715628 -0.190334 0.00222731  -0.0800992 -0.231777 0.00229192  -0.0668626 -0.233121 0.00138354  -0.0640458 -0.218406 0.00197911  -0.0802934 -0.232173 0.00174379  -0.0772282 -0.217558 0.00249577  -0.064245 -0.218853 0.00150537  -0.0774366 -0.218002 0.00189614  -0.0856777 -0.260766 0.00191855  -0.0720007 -0.262216 0.00116324  -0.0692711 -0.2472 0.00166368  -0.0858488 -0.2611 0.00146461  -0.082913 -0.246171 0.00209999  -0.0694476 -0.247579 0.00127006  -0.0830973 -0.246546 0.0016005  -0.0910448 -0.29039 0.00158644  -0.0770024 -0.291932 0.000967503  -0.0743631 -0.276685 0.00138402  -0.0911933 -0.290663 0.00121832  -0.0883839 -0.275496 0.00174761  -0.0745181 -0.277003 0.00106215  -0.0885468 -0.27581 0.00133777  -0.0962055 -0.320513 0.00129271  -0.0818669 -0.322134 0.000796795  -0.0793188 -0.306716 0.00113797  -0.0963321 -0.320737 0.000999451  -0.0936493 -0.305386 0.0014348  -0.0794522 -0.306979 0.000879765  -0.0937881 -0.305645 0.00110555  -0.10116 -0.351002 0.00103664  -0.0865854 -0.352687 0.000648499  -0.0841298 -0.337158 0.000921488  -0.101266 -0.351178 0.000810862  -0.0987043 -0.335708 0.00116014  -0.0842437 -0.337372 0.000719786  -0.0988238 -0.335918 0.000901699  -0.105917 -0.381744 0.000816822  -0.0911613 -0.383481 0.000522614  -0.0887971 -0.367888 0.000735521  -0.106004 -0.381883 0.000647545  -0.103561 -0.366337 0.00092268  -0.0888911 -0.368059 0.000582695  -0.10366 -0.366504 0.000725985  -0.110483 -0.41263 0.000632524  -0.0955918 -0.414406 0.000417709  -0.0933161 -0.398797 0.000579119  -0.110553 -0.412732 0.0005126  -0.10822 -0.397163 0.000720024  -0.0933936 -0.398931 0.000467777  -0.108301 -0.397293 0.000576496  -0.114871 -0.443572 0.000482321  -0.0998859 -0.445378 0.000334024  -0.0976939 -0.429788 0.000449896  -0.114926 -0.443648 0.000401497  -0.112696 -0.428088 0.000552893  -0.0977554 -0.42989 0.000373602  -0.112761 -0.428187 0.000453949  -0.119093 -0.474486 0.000366926  -0.104046 -0.476312 0.000271082  -0.101933 -0.460775 0.000348806  -0.119135 -0.474537 0.000318766  -0.116998 -0.459026 0.000420809  -0.101981 -0.460852 0.000300169  -0.117049 -0.459099 0.000357628  -0.123168 -0.50531 0.000282526  -0.108086 -0.507149 0.000226021  -0.106043 -0.491688 0.000273466  -0.123201 -0.505345 0.000257015  -0.121146 -0.489901 0.00032115  -0.106081 -0.491745 0.000246525  -0.121185 -0.489955 0.000285387  -0.127112 -0.535987 0.00022316  -0.112011 -0.537835 0.00019455  -0.110031 -0.522471 0.000219107  -0.12714 -0.536008 0.000216722  -0.125151 -0.520657 0.000249863  -0.110061 -0.522511 0.000208855  -0.125184 -0.520696 0.000234842  -0.130953 -0.566493 0.000180006  -0.115847 -0.568342 0.000172853  -0.113913 -0.553079 0.000181913  -0.130979 -0.566512 0.000185251  -0.129041 -0.551251 0.000200272  -0.113939 -0.55311 0.000183105  -0.129069 -0.551281 0.000200033  -0.134737 -0.596821 0.000138283  -0.119626 -0.598647 0.000150681  -0.117712 -0.583488 0.000150681  -0.13476 -0.596841 0.000157118  -0.132843 -0.581667 0.00015974  -0.117738 -0.583518 0.000162601  -0.132871 -0.581696 0.000171661  -0.00189912 -0.00412387 0.00224733  0 0 0  -0.00109716 -0.00398734 0.00107861  -0.000389174 -0.00105983 0.000820637  0 0 0  -0.00185745 -0.00443602 0.0016191  -0.000647828 -0.00128809 0.00123644  0 0 0  -0.000379935 -0.0011926 0.000586271  -0.000630327 -0.00144389 0.000881433  -0.00573854 -0.0135177 0.00360632  -0.00340934 -0.0134428 0.00176477  -0.00216091 -0.00777802 0.00203633  -0.00566062 -0.0141196 0.00263453  -0.00364071 -0.00833824 0.00305247  -0.00212838 -0.00820753 0.00147867  -0.00357428 -0.00881758 0.00221276  -0.0104282 -0.0263559 0.00408769  -0.00644481 -0.0265451 0.0020442  -0.00489917 -0.0189611 0.00263572  -0.0103793 -0.0271537 0.00304055  -0.00803688 -0.0195724 0.00393128  -0.00486884 -0.0196293 0.0019474  -0.00796387 -0.020298 0.00289989  -0.0152496 -0.0418727 0.00402713  -0.00977439 -0.0423627 0.002038  -0.00806785 -0.0333235 0.00275302  -0.0152836 -0.0427658 0.00302911  -0.0128407 -0.0337879 0.00409842  -0.00808883 -0.0341437 0.0020647  -0.0128309 -0.0346569 0.00306749  -0.0200338 -0.0598068 0.00372338  -0.0132313 -0.0605335 0.00188971  -0.0113999 -0.0502829 0.00261116  -0.0201501 -0.0607112 0.00281572  -0.0176449 -0.0505411 0.00389266  -0.011489 -0.0511663 0.00197434  -0.0177239 -0.0514589 0.0029366  -0.0247945 -0.0799083 0.00333047  -0.0167982 -0.0808091 0.00168562  -0.014854 -0.0695368 0.00236106  -0.0249699 -0.0807742 0.00252175  -0.0224135 -0.069588 0.00353169  -0.0149992 -0.0704151 0.00179124  -0.0225636 -0.0704886 0.00267243  -0.0295631 -0.101964 0.00292468  -0.0204918 -0.103 0.00147223  -0.0184478 -0.090843 0.00207853  -0.0297705 -0.102762 0.00221682  -0.0271751 -0.0906962 0.00312614  -0.0186276 -0.0916745 0.00157905  -0.0273712 -0.0915406 0.00236797  -0.0343465 -0.125722 0.00253892  -0.0243139 -0.126872 0.00127029  -0.0221899 -0.11397 0.00180197  -0.0345659 -0.126441 0.00192428  -0.031951 -0.113631 0.00272822  -0.0223858 -0.114733 0.00136995  -0.0321677 -0.114401 0.00206709  -0.0391452 -0.150985 0.0021863  -0.02826 -0.152237 0.00108767  -0.0260744 -0.138693 0.00154686  -0.0393616 -0.15162 0.00165963  -0.0367424 -0.138168 0.00235891  -0.0262713 -0.139377 0.00117731  -0.0369639 -0.138856 0.00178838  -0.0439448 -0.177525 0.00186992  -0.0323099 -0.178873 0.000926495  -0.0300826 -0.164798 0.00131774  -0.0441495 -0.178081 0.00142026  -0.0415434 -0.164094 0.0020237  -0.0302715 -0.165402 0.00100493  -0.0417564 -0.1647 0.00153565  -0.0487355 -0.205173 0.00158954  -0.0364476 -0.206608 0.000785589  -0.0341932 -0.192085 0.00111651  -0.0489228 -0.205651 0.0012114  -0.0463402 -0.191212 0.00172567  -0.0343684 -0.192611 0.000853777  -0.0465386 -0.191738 0.00131178  -0.0534956 -0.233727 0.00133967  -0.0406463 -0.235243 0.000663042  -0.0383811 -0.220364 0.000940323  -0.0536637 -0.234136 0.00102401  -0.0511178 -0.219334 0.00146055  -0.0385392 -0.220818 0.000722647  -0.0512974 -0.219787 0.00111413  -0.0582155 -0.263044 0.00111938  -0.0448877 -0.264632 0.000557184  -0.0426223 -0.249463 0.000786066  -0.0583622 -0.263388 0.000861883  -0.0558594 -0.24829 0.00122595  -0.042762 -0.24985 0.000608444  -0.0560192 -0.248675 0.000939131  -0.062873 -0.292951 0.000925541  -0.0491433 -0.2946 0.000466347  -0.0468925 -0.279222 0.000652075  -0.0630001 -0.293237 0.00071764  -0.06055 -0.27792 0.00101948  -0.0470133 -0.279547 0.000510216  -0.0606889 -0.278244 0.000786304  -0.067461 -0.323326 0.000756741  -0.0533992 -0.325028 0.000388384  -0.0511686 -0.309492 0.000536919  -0.0675682 -0.323559 0.000594139  -0.0651742 -0.308078 0.000838518  -0.0512717 -0.309762 0.000426054  -0.0652934 -0.308347 0.00065279  -0.071962 -0.354022 0.000611544  -0.0576304 -0.355767 0.00032258  -0.055431 -0.34014 0.000438213  -0.0720514 -0.354209 0.000485897  -0.0697201 -0.338629 0.000681639  -0.0555172 -0.34036 0.000353813  -0.06982 -0.338849 0.000537395  -0.0763726 -0.384943 0.00048852  -0.0618265 -0.386722 0.000269175  -0.0596626 -0.371044 0.000356197  -0.0764446 -0.38509 0.000397444  -0.0741769 -0.369451 0.000546932  -0.0597329 -0.37122 0.000294447  -0.0742598 -0.369628 0.00043869  -0.0806818 -0.415967 0.000387669  -0.0659683 -0.417771 0.000226498  -0.0638471 -0.402095 0.00028944  -0.080739 -0.416079 0.000323057  -0.0785372 -0.400435 0.000435591  -0.0639026 -0.402234 0.00024724  -0.0786037 -0.400575 0.000357389  -0.0848913 -0.447024 0.000307322  -0.0700529 -0.448846 0.000196218  -0.0679746 -0.433201 0.000237465  -0.0849352 -0.447107 0.000266314  -0.0827966 -0.431487 0.000344753  -0.0680172 -0.433307 0.000210047  -0.0828493 -0.431594 0.000292063  -0.0889964 -0.478018 0.000246763  -0.0740671 -0.479853 0.000174999  -0.0720356 -0.464277 0.000199556  -0.0890296 -0.478078 0.000222445  -0.0869539 -0.462521 0.000275135  -0.072067 -0.464356 0.000184298  -0.0869942 -0.462602 0.000241995  -0.093003 -0.508908 0.000204563  -0.0780134 -0.510749 0.000162125  -0.0760252 -0.495257 0.000173569  -0.0930276 -0.508948 0.000194788  -0.0910096 -0.49347 0.000223875  -0.0760479 -0.495315 0.000167131  -0.0910404 -0.493529 0.000206709  -0.096911 -0.539622 0.000176191  -0.0818832 -0.541468 0.000156641  -0.0799394 -0.526086 0.000157833  -0.0969298 -0.53965 0.000174761  -0.0949662 -0.524276 0.000188828  -0.0799563 -0.526128 0.000158787  -0.0949893 -0.52432 0.000182629  -0.100736 -0.570144 0.000155926  -0.0856876 -0.57199 0.000154018  -0.0837786 -0.556721 0.000150204  -0.100752 -0.570166 0.000163555  -0.09883 -0.554899 0.000165462  -0.0837917 -0.556753 0.000154972  -0.0988498 -0.554933 0.000168085  -0.104496 -0.600418 0.000135422  -0.0894356 -0.602247 0.000152588  -0.0875514 -0.587118 0.000144482  -0.104517 -0.600444 0.000150442  -0.102618 -0.585302 0.000146389  -0.0875645 -0.587149 0.000153303  -0.102638 -0.585335 0.000156879  -0.000402682 -0.00356749 0.00073123  0 0 0  0.000252351 -0.00390536 -1.35899e-05  9.30652e-05 -0.00103971 -2.81334e-05  0 0 0  -0.000403158 -0.00382364 0.000531912  -0.00013867 -0.000982583 0.00039649  0 0 0  8.54358e-05 -0.00115466 -1.33514e-05  -0.000136916 -0.00110671 0.000286341  -0.00133805 -0.012682 0.00120234  0.00063771 -0.0133505 7.15256e-06  0.000489458 -0.00771266 -2.3365e-05  -0.00134538 -0.0131977 0.000885725  -0.000805542 -0.00758073 0.00100541  0.000450402 -0.0080997 -6.91414e-06  -0.000808448 -0.00798443 0.000735521  -0.00271997 -0.02565 0.00138903  0.000825912 -0.026602 3.93391e-05  0.000839084 -0.01898 2.07424e-05  -0.00275379 -0.0263633 0.00103927  -0.00198278 -0.0187679 0.00132608  0.000769734 -0.019597 2.52724e-05  -0.0020003 -0.0194049 0.000985384  -0.00442466 -0.041502 0.00137591  0.000645339 -0.042681 5.05447e-05  0.000880986 -0.0335521 5.00679e-05  -0.00450292 -0.0423314 0.00104356  -0.00353545 -0.0332425 0.00139904  0.000786573 -0.034328 4.81606e-05  -0.00359175 -0.0340364 0.001055  -0.00641257 -0.0598073 0.00126314  3.98755e-05 -0.0611372 3.95775e-05  0.000513434 -0.050776 4.69685e-05  -0.00653332 -0.0606717 0.000962973  -0.00538242 -0.0503566 0.0013268  0.000396788 -0.051629 4.74453e-05  -0.00548381 -0.0512232 0.0010097  -0.00868404 -0.0802703 0.00110984  -0.000995457 -0.081706 1.38283e-05  -0.000289381 -0.0703054 1.97887e-05  -0.00883543 -0.0811151 0.000849962  -0.00751042 -0.0697708 0.00118876  -0.000424147 -0.0711678 2.81334e-05  -0.00764996 -0.0706411 0.000908852  -0.0112451 -0.102679 0.000950813  -0.0024507 -0.104183 -1.40667e-05  -0.00152659 -0.0918908 -1.69277e-05  -0.0114115 -0.103468 0.000728369  -0.00992751 -0.0912352 0.00102973  -0.00167161 -0.0927171 4.76837e-07  -0.0100892 -0.0920656 0.000788689  -0.0140797 -0.126782 0.000801802  -0.00430024 -0.128347 -3.8147e-05  -0.00317991 -0.115299 -5.24521e-05  -0.0142496 -0.127501 0.000617027  -0.0126271 -0.114519 0.000874519  -0.00332755 -0.116065 -2.69413e-05  -0.0127985 -0.115285 0.000671387  -0.0171688 -0.152381 0.000669718  -0.0065155 -0.153994 -5.53131e-05  -0.00522101 -0.140304 -7.96318e-05  -0.017333 -0.153022 0.000515938  -0.0155925 -0.139398 0.000733614  -0.00536394 -0.140997 -4.74453e-05  -0.0157619 -0.140089 0.00056529  -0.0204794 -0.179244 0.000555515  -0.00905681 -0.180907 -6.48499e-05  -0.00761318 -0.166686 -9.82285e-05  -0.0206329 -0.179808 0.000431776  -0.0187956 -0.165654 0.000610828  -0.00774693 -0.167302 -6.10352e-05  -0.0189574 -0.166267 0.000472546  -0.023983 -0.207195 0.000459671  -0.0118887 -0.2089 -6.74725e-05  -0.0103165 -0.194238 -0.000106573  -0.0241218 -0.207685 0.000359297  -0.0222075 -0.193085 0.000505686  -0.0104388 -0.194779 -6.67572e-05  -0.0223552 -0.193622 0.000394583  -0.0276423 -0.23603 0.000378847  -0.0149671 -0.237778 -6.31809e-05  -0.0132912 -0.222768 -0.000106812  -0.0277648 -0.23645 0.0003016  -0.0257924 -0.221501 0.000417233  -0.013399 -0.223236 -6.53267e-05  -0.0259254 -0.221965 0.000328779  -0.0314294 -0.265601 0.000311375  -0.0182571 -0.267381 -5.45979e-05  -0.0164949 -0.252096 -0.000100136  -0.0315344 -0.265956 0.000251293  -0.0295198 -0.250723 0.000343561  -0.0165879 -0.252497 -5.96046e-05  -0.0296353 -0.251121 0.000275373  -0.0353069 -0.295732 0.000256538  -0.0217159 -0.297545 -4.14848e-05  -0.0198885 -0.282059 -8.89301e-05  -0.0353966 -0.29603 0.000213623  -0.0333552 -0.280594 0.000282526  -0.0199668 -0.282399 -4.86374e-05  -0.0334555 -0.280929 0.000231504  -0.0392524 -0.326304 0.000212193  -0.0253123 -0.328136 -2.57492e-05  -0.0234339 -0.312509 -7.20024e-05  -0.0393263 -0.326548 0.000181198  -0.037271 -0.310961 0.000233173  -0.023499 -0.312794 -3.38554e-05  -0.0373542 -0.311242 0.000196934  -0.0432342 -0.357166 0.000176907  -0.0290074 -0.359019 -8.58307e-06  -0.0270966 -0.343312 -5.24521e-05  -0.0432938 -0.357364 0.000158072  -0.0412374 -0.341693 0.000193834  -0.0271486 -0.343546 -1.69277e-05  -0.0413064 -0.341924 0.000169039  -0.0472336 -0.388226 0.000151396  -0.0327761 -0.390088 1.14441e-05  -0.0308447 -0.374345 -3.0756e-05  -0.0472798 -0.388382 0.000139952  -0.0452311 -0.372668 0.000163555  -0.0308845 -0.374535 1.19209e-06  -0.0452855 -0.372854 0.000148773  -0.0512247 -0.419362 0.000134706  -0.0365865 -0.421233 3.26633e-05  -0.034647 -0.405502 -6.19888e-06  -0.0512598 -0.419483 0.000130892  -0.049228 -0.403778 0.000141859  -0.0346768 -0.405654 2.21729e-05  -0.0492711 -0.403926 0.000134468  -0.0551977 -0.450508 0.000124693  -0.0404201 -0.452378 5.4121e-05  -0.0384805 -0.436691 1.90735e-05  -0.0552211 -0.450598 0.000124693  -0.0532122 -0.434929 0.000128984  -0.0385015 -0.436809 4.33922e-05  -0.0532434 -0.435044 0.000127554  -0.0591321 -0.481569 0.00012207  -0.0442526 -0.48344 7.55787e-05  -0.0423231 -0.467831 4.52995e-05  -0.0591478 -0.481635 0.000126362  -0.0571671 -0.466041 0.000122786  -0.0423362 -0.46792 6.50883e-05  -0.0571887 -0.466128 0.000124931  -0.063024 -0.512508 0.000124454  -0.0480733 -0.514372 9.75132e-05  -0.0461581 -0.498857 7.10487e-05  -0.0630331 -0.512553 0.000128984  -0.0610819 -0.497047 0.000122786  -0.0461652 -0.498924 8.65459e-05  -0.061096 -0.497113 0.000127554  -0.0668604 -0.543253 0.000131607  -0.0518646 -0.545116 0.000119686  -0.0499694 -0.529717 9.75132e-05  -0.0668664 -0.543286 0.00013876  -0.0649467 -0.527894 0.000127792  -0.0499725 -0.529767 0.000108957  -0.0649559 -0.527943 0.000133753  -0.0706439 -0.573785 0.000140667  -0.0556214 -0.575641 0.00014019  -0.0537481 -0.560367 0.000122309  -0.0706475 -0.573811 0.000145912  -0.0687566 -0.558538 0.000135899  -0.0537477 -0.560407 0.000129938  -0.068763 -0.558577 0.000142336  -0.0743701 -0.604024 0.000149488  -0.0593262 -0.605887 0.000160933  -0.0574806 -0.590759 0.00014782  -0.0743725 -0.604058 0.000156403  -0.0725102 -0.588932 0.000145197  -0.0574803 -0.5908 0.000150919  -0.072516 -0.588971 0.000151396  0.000956878 -0.00398099 -0.000787497  0 0 0  0.00161102 -0.00478816 -0.00108051  0.000577569 -0.00152081 -0.000861168  0 0 0  0.000914037 -0.00422317 -0.000552654  0.000326857 -0.00121111 -0.000448465  0 0 0  0.000553556 -0.00163841 -0.000599861  0.000310235 -0.0013271 -0.000309944  0.00272402 -0.0133858 -0.0011971  0.0046775 -0.0147983 -0.00171018  0.00314391 -0.00892222 -0.00203729  0.00262377 -0.0138795 -0.000861168  0.00178918 -0.00815517 -0.00104141  0.00303404 -0.00931442 -0.00145864  0.00171541 -0.00853986 -0.000741482  0.0045206 -0.0265605 -0.00129724  0.00803825 -0.0283059 -0.0019238  0.0065479 -0.020574 -0.00253534  0.00439355 -0.0272502 -0.000951052  0.00365573 -0.0195804 -0.00127125  0.00637925 -0.0211951 -0.00185442  0.00353628 -0.0201941 -0.000925541  0.0058946 -0.042591 -0.00126004  0.0109496 -0.0444914 -0.0019021  0.00974262 -0.0353119 -0.002599  0.00576407 -0.0434003 -0.000933647  0.00527465 -0.034242 -0.00128651  0.00957495 -0.0360867 -0.00192881  0.00514385 -0.0350138 -0.000950098  0.0067004 -0.0610797 -0.0011847  0.0131533 -0.0630485 -0.00178671  0.0122897 -0.0526368 -0.00247884  0.00657183 -0.0619302 -0.000877857  0.00637215 -0.0515361 -0.00122476  0.0121447 -0.0534846 -0.00185013  0.00624126 -0.0523849 -0.000908613  0.00692338 -0.081741 -0.00110245  0.0146247 -0.0837393 -0.0016427  0.014105 -0.0722782 -0.00229692  0.00679654 -0.082578 -0.000817776  0.00688523 -0.0711401 -0.00114393  0.0139797 -0.0731343 -0.00171638  0.0067566 -0.072 -0.000849247  0.00658202 -0.104362 -0.00101948  0.0153956 -0.106372 -0.00149274  0.0152062 -0.0940015 -0.0020988  0.00645918 -0.10515 -0.000754118  0.00682294 -0.0928108 -0.0010612  0.0150955 -0.0948234 -0.00156784  0.00669611 -0.0936364 -0.000786781  0.00571489 -0.128688 -0.000935793  0.0155169 -0.130703 -0.00134373  0.0156348 -0.11757 -0.00189972  0.00559795 -0.12941 -0.000692368  0.00621343 -0.116313 -0.000977516  0.0155354 -0.118333 -0.00141764  0.00609219 -0.11708 -0.000724077  0.0043602 -0.154514 -0.000850439  0.0150377 -0.156531 -0.00119877  0.0154384 -0.142748 -0.00170469  0.00425255 -0.155161 -0.000626564  0.00509763 -0.141417 -0.000893116  0.0153496 -0.143441 -0.00127053  0.00498283 -0.142113 -0.000660658  0.00256968 -0.1816 -0.000763893  0.0140175 -0.18362 -0.00105786  0.0146711 -0.169307 -0.00151634  0.0024724 -0.182173 -0.000562191  0.0035187 -0.1679 -0.000807762  0.0145934 -0.169926 -0.00112796  0.00341463 -0.16852 -0.000595808  0.000386238 -0.209765 -0.000676394  0.0125064 -0.211786 -0.000922918  0.013388 -0.197034 -0.00133371  0.000301242 -0.210264 -0.000494003  0.00152624 -0.19555 -0.000720501  0.0133207 -0.197577 -0.000989914  0.00143266 -0.196095 -0.000529051  -0.00213671 -0.238799 -0.000588894  0.0105648 -0.240821 -0.00079298  0.0116436 -0.225728 -0.001158  -0.00220883 -0.239229 -0.0004282  -0.000833511 -0.224172 -0.000632524  0.0115874 -0.226201 -0.000856638  -0.00091362 -0.224646 -0.000461817  -0.00495529 -0.268551 -0.000502586  0.00824285 -0.27057 -0.000669241  0.00949407 -0.255207 -0.000991344  -0.00501418 -0.268916 -0.00036025  -0.00350952 -0.253586 -0.000545979  0.00944901 -0.255613 -0.000730038  -0.00357747 -0.253992 -0.00039506  -0.00801837 -0.298841 -0.00041914  0.0055995 -0.300855 -0.000551939  0.00699449 -0.285304 -0.000832796  -0.00806594 -0.299148 -0.00029707  -0.00645626 -0.283625 -0.000460625  0.00696015 -0.285649 -0.000608921  -0.00651133 -0.28397 -0.000329256  -0.0112883 -0.329549 -0.000338554  0.00267839 -0.331555 -0.000442505  0.00419664 -0.31587 -0.0006845  -0.011324 -0.329802 -0.000233173  -0.00962782 -0.314141 -0.000378609  0.00417149 -0.316158 -0.000496149  -0.00967169 -0.314431 -0.000265598  -0.0147184 -0.360527 -0.000261784  -0.000465989 -0.362522 -0.000341177  0.00114906 -0.346769 -0.000546455  -0.0147442 -0.360733 -0.000174999  -0.0129831 -0.344999 -0.000299454  0.00113308 -0.347007 -0.00039053  -0.0130155 -0.345239 -0.000204563  -0.0182762 -0.391681 -0.00019002  -0.00379467 -0.393661 -0.000247955  -0.00210118 -0.377881 -0.000419378  -0.0182922 -0.391845 -0.00011754  -0.0164814 -0.376079 -0.000225544  -0.00210905 -0.378073 -0.000293016  -0.0165043 -0.376273 -0.000146866  -0.0219216 -0.422891 -0.000123024  -0.00726104 -0.424855 -0.000163794  -0.00550961 -0.409099 -0.000303984  -0.0219302 -0.423019 -6.62804e-05  -0.020087 -0.407272 -0.000155449  -0.00551128 -0.409252 -0.000204325  -0.0201013 -0.407428 -9.2268e-05  -0.0256298 -0.454093 -6.07967e-05  -0.0108342 -0.456039 -8.79765e-05  -0.0090394 -0.440331 -0.00020051  -0.0256326 -0.454189 -1.62125e-05  -0.023767 -0.438489 -9.10759e-05  -0.00903511 -0.44045 -0.000124693  -0.0237749 -0.43861 -4.14848e-05  -0.0293715 -0.485194 -6.19888e-06  -0.0144753 -0.487121 -2.36034e-05  -0.0126538 -0.471501 -0.000110149  -0.0293686 -0.485265 2.52724e-05  -0.0274951 -0.469648 -3.26633e-05  -0.0126462 -0.471591 -5.50747e-05  -0.0274968 -0.469741 4.29153e-06  -0.0331304 -0.516158 4.36306e-05  -0.0181634 -0.518065 3.3617e-05  -0.016325 -0.502544 -3.17097e-05  -0.0331228 -0.516208 6.62804e-05  -0.0312479 -0.500687 1.93119e-05  -0.016314 -0.50261 6.19888e-06  -0.0312448 -0.500756 4.52995e-05  -0.0368814 -0.546916 8.86917e-05  -0.0218697 -0.548809 8.22544e-05  -0.0200272 -0.53341 3.62396e-05  -0.0368717 -0.546953 0.000100851  -0.0350051 -0.531552 6.69956e-05  -0.020014 -0.533459 5.91278e-05  -0.0349979 -0.531605 8.32081e-05  -0.0406144 -0.577452 0.0001297  -0.025578 -0.579337 0.000127077  -0.0237401 -0.564059 9.60827e-05  -0.0406029 -0.577482 0.000134945  -0.0387487 -0.562205 0.000109434  -0.0237241 -0.564098 0.000105619  -0.0387406 -0.562247 0.00011754  -0.0442955 -0.607692 0.000172138  -0.0292466 -0.609595 0.000171185  -0.0274341 -0.594458 0.000152111  -0.0442898 -0.607729 0.00016737  -0.0424607 -0.592599 0.000150681  -0.0274184 -0.594496 0.00014925  -0.0424528 -0.592641 0.000149965  0.00247392 -0.00536466 -0.0022378  0 0 0  0.00328927 -0.0068512 -0.00207639  0.00117278 -0.00269508 -0.00163364  0 0 0  0.00238943 -0.00563848 -0.0015893  0.000842668 -0.00198942 -0.00125551  0 0 0  0.00113436 -0.00284857 -0.00114512  0.000811622 -0.00212467 -0.000878334  0.00710016 -0.0155959 -0.00349069  0.00938439 -0.0179336 -0.00332022  0.00630391 -0.011587 -0.00391293  0.00691414 -0.0161322 -0.00253034  0.00463191 -0.0100414 -0.00299478  0.0061332 -0.0120544 -0.00281477  0.00448895 -0.0104657 -0.0021503  0.0120931 -0.0290413 -0.00388002  0.0159917 -0.0316322 -0.00378251  0.0129834 -0.0237831 -0.00493884  0.0118814 -0.0297663 -0.00286913  0.00963598 -0.0219654 -0.00375986  0.0127343 -0.0244798 -0.00362539  0.00942454 -0.0226193 -0.00275636  0.0164741 -0.04511 -0.0038197  0.0218828 -0.047739 -0.00377703  0.0192825 -0.0385509 -0.00512695  0.0162961 -0.0459399 -0.00285053  0.0143864 -0.0367482 -0.00388145  0.0190562 -0.0393794 -0.00381589  0.014187 -0.0375472 -0.00288582  0.0199997 -0.0636209 -0.00358176  0.0267788 -0.0662234 -0.00356078  0.0246279 -0.0558127 -0.0049212  0.0198625 -0.0644802 -0.00268245  0.0183471 -0.0540622 -0.00371313  0.0244578 -0.0566914 -0.00368357  0.0181898 -0.0549253 -0.00277686  0.0226655 -0.0843402 -0.00328422  0.0306746 -0.086907 -0.00326657  0.028971 -0.0754288 -0.00456071  0.0225586 -0.0851811 -0.00245905  0.0214398 -0.0737061 -0.00343728  0.0288494 -0.0763014 -0.0034194  0.0213174 -0.0745714 -0.00257444  0.0245098 -0.107055 -0.00297236  0.0336167 -0.109575 -0.00295067  0.032349 -0.0971758 -0.00414777  0.0244243 -0.107845 -0.00222588  0.0236885 -0.0954533 -0.00312901  0.0322612 -0.0980068 -0.00310969  0.0235922 -0.096282 -0.00234294  0.0255892 -0.131498 -0.00266409  0.0356712 -0.133979 -0.00263739  0.0348166 -0.120803 -0.00372791  0.0255188 -0.132223 -0.00199175  0.0251438 -0.119063 -0.00281739  0.0347513 -0.121573 -0.00279307  0.0250645 -0.119832 -0.00210834  0.0259575 -0.157453 -0.0023663  0.0369006 -0.159889 -0.00233507  0.0364342 -0.14606 -0.00331831  0.0258998 -0.158104 -0.00176835  0.0258603 -0.144291 -0.00251341  0.0363851 -0.146759 -0.00248456  0.0257949 -0.14499 -0.0018785  0.0256798 -0.184671 -0.00208282  0.0373781 -0.18707 -0.0020473  0.0372663 -0.172707 -0.00292683  0.0256327 -0.185249 -0.00155306  0.0258982 -0.170905 -0.00222325  0.0372295 -0.173332 -0.00218892  0.0258436 -0.171529 -0.00165963  0.0248138 -0.212964 -0.00181293  0.0371697 -0.21532 -0.0017755  0.0373822 -0.200522 -0.00255585  0.0247773 -0.213468 -0.00135064  0.025318 -0.198685 -0.00194597  0.0373553 -0.201073 -0.00190926  0.025275 -0.199236 -0.0014503  0.0234272 -0.242116 -0.0015583  0.0363486 -0.244437 -0.00152063  0.0368494 -0.229299 -0.00220752  0.0234001 -0.242552 -0.00115657  0.0241847 -0.227431 -0.00168371  0.0368321 -0.229779 -0.00164652  0.0241505 -0.227911 -0.00125194  0.0215764 -0.271972 -0.00131893  0.0349789 -0.274249 -0.00128245  0.0357376 -0.258851 -0.00187993  0.0215589 -0.272344 -0.000976562  0.0225581 -0.256956 -0.00143647  0.0357282 -0.259265 -0.00139928  0.022534 -0.25737 -0.00106478  0.0193275 -0.302352 -0.00109601  0.0331335 -0.304592 -0.0010612  0.0341142 -0.289009 -0.00157619  0.0193181 -0.302666 -0.000806332  0.020501 -0.287094 -0.00120568  0.0341123 -0.289361 -0.00116968  0.0204852 -0.287446 -0.000890017  0.0167325 -0.333135 -0.000888824  0.0308716 -0.335329 -0.000857592  0.0320463 -0.319622 -0.00129437  0.0167309 -0.333394 -0.000650644  0.0180715 -0.317692 -0.000990152  0.0320508 -0.319918 -0.000956774  0.0180647 -0.317987 -0.000726461  0.0138519 -0.36417 -0.000700712  0.0282595 -0.366325 -0.000672579  0.0295959 -0.350554 -0.00103784  0.0138564 -0.364382 -0.000506163  0.0153276 -0.348616 -0.00079298  0.0296065 -0.350799 -0.000762701  0.0153267 -0.34886 -0.000576973  0.0107322 -0.395367 -0.000530243  0.0253522 -0.397475 -0.000504732  0.0268242 -0.381686 -0.000805378  0.0107429 -0.395535 -0.000377178  0.0123208 -0.379745 -0.000612974  0.0268395 -0.381885 -0.000586033  0.0123267 -0.379944 -0.000439882  0.00742817 -0.426606 -0.000378132  0.0222089 -0.428674 -0.000357628  0.0237889 -0.412912 -0.000598669  0.00744271 -0.426737 -0.000260115  0.00910401 -0.410975 -0.000452042  0.0238075 -0.413071 -0.000428915  0.00911379 -0.411133 -0.000317097  0.00397658 -0.457824 -0.00024581  0.0188766 -0.459847 -0.000229359  0.0205421 -0.444143 -0.000416994  0.00399494 -0.457922 -0.000159979  0.00572038 -0.442212 -0.000309229  0.0205636 -0.444267 -0.000290871  0.00573492 -0.442337 -0.000207901  0.000422716 -0.488929 -0.000132561  0.0154059 -0.490918 -0.000121593  0.0171332 -0.475302 -0.000262737  0.000442982 -0.489003 -7.22408e-05  0.00221372 -0.473382 -0.00018692  0.0171571 -0.475397 -0.00017333  0.00223017 -0.473477 -0.000114918  -0.00320578 -0.519888 -3.67165e-05  0.0118332 -0.521839 -3.12328e-05  0.0136056 -0.506327 -0.000132799  -0.00318313 -0.519941 7.15256e-07  -0.00138211 -0.50442 -8.24928e-05  0.0136302 -0.506398 -7.43866e-05  -0.00136232 -0.504492 -3.43323e-05  -0.0068748 -0.550637 4.3869e-05  0.00819826 -0.552563 4.36306e-05  0.00999689 -0.537171 -2.55108e-05  -0.00685072 -0.550676 6.38962e-05  -0.00503373 -0.535279 5.24521e-06  0.0100222 -0.537225 8.34465e-06  -0.00501275 -0.535334 3.31402e-05  -0.0105627 -0.581168 0.000115871  0.00452805 -0.583077 0.000108242  0.00633907 -0.567801 6.4373e-05  -0.0105374 -0.5812 0.000118017  -0.00871587 -0.565921 8.05855e-05  0.00636601 -0.567845 7.70092e-05  -0.00869322 -0.565966 9.17912e-05  -0.0142252 -0.611436 0.00018692  0.000871897 -0.613373 0.000172377  0.00266767 -0.598205 0.000146151  -0.0141976 -0.611475 0.000173807  -0.0123973 -0.596323 0.000150681  0.00269413 -0.598249 0.000139952  -0.0123742 -0.596367 0.000145197  0.00455633 -0.00821978 -0.00356317  0 0 0  0.00585477 -0.0109925 -0.0030005  0.00205814 -0.00527114 -0.00233746  0 0 0  0.00444438 -0.00857264 -0.0025444  0.00153818 -0.00373185 -0.00198507  0 0 0  0.00201545 -0.00548154 -0.00165367  0.00149344 -0.00391477 -0.0013988  0.012556 -0.0196094 -0.00560498  0.0157496 -0.0230906 -0.00480962  0.0108782 -0.0163476 -0.00562811  0.0123129 -0.020255 -0.00407839  0.00836314 -0.0136467 -0.00478387  0.0106864 -0.0169411 -0.00406957  0.00817536 -0.0141728 -0.00345087  0.0207574 -0.0330816 -0.00630307  0.0254337 -0.0365081 -0.00552821  0.0209908 -0.0286955 -0.00717187  0.0204896 -0.0338934 -0.00466776  0.016752 -0.0260348 -0.00607419  0.0207086 -0.0295122 -0.0052774  0.0164789 -0.0267892 -0.00446558  0.0279934 -0.0489861 -0.00626397  0.0340577 -0.0523092 -0.00556564  0.0301493 -0.0431827 -0.00752163  0.0277809 -0.0498669 -0.0046823  0.024514 -0.0407036 -0.00634003  0.0298904 -0.0440882 -0.00560284  0.0242689 -0.0415708 -0.00472212  0.0341117 -0.067383 -0.00590301  0.0414834 -0.0706011 -0.00527501  0.0381159 -0.0602329 -0.00727057  0.0339631 -0.0682671 -0.00442481  0.0311938 -0.0578731 -0.00610781  0.0379234 -0.0611501 -0.00544477  0.0310129 -0.0587726 -0.00457406  0.0391315 -0.0880535 -0.00541663  0.0476972 -0.0911762 -0.0048492  0.0448728 -0.0797276 -0.00675964  0.0390317 -0.0889046 -0.00406408  0.0367576 -0.0774369 -0.00566912  0.0447411 -0.0806137 -0.00507116  0.0366346 -0.0783189 -0.00425315  0.0430983 -0.110768 -0.00489259  0.0527344 -0.113802 -0.00438046  0.0504475 -0.101416 -0.00615215  0.0430319 -0.111561 -0.00366902  0.0412447 -0.0991629 -0.00515652  0.05036 -0.102247 -0.00461674  0.0411614 -0.099997 -0.00386882  0.0460751 -0.13524 -0.0043714  0.0566603 -0.138188 -0.00391102  0.0548911 -0.125022 -0.00552392  0.0460305 -0.135965 -0.00327754  0.0447084 -0.122788 -0.0046308  0.0548332 -0.125786 -0.00414419  0.0446527 -0.123559 -0.00347304  0.0481243 -0.161238 -0.00386858  0.0595436 -0.164104 -0.00345755  0.0582659 -0.150278 -0.00490952  0.0480956 -0.161889 -0.0028975  0.0472133 -0.148054 -0.00411773  0.0582279 -0.150968 -0.00368214  0.0471752 -0.148752 -0.00308633  0.0493221 -0.188504 -0.0033915  0.0614697 -0.191289 -0.00302696  0.0606465 -0.176932 -0.00432205  0.0493047 -0.189081 -0.00253892  0.0488275 -0.174714 -0.00362706  0.0606228 -0.177547 -0.00323915  0.048803 -0.175338 -0.00271654  0.0497383 -0.216842 -0.00294232  0.0625142 -0.219548 -0.00262284  0.0621103 -0.204753 -0.00376678  0.0497308 -0.217346 -0.00219941  0.0496254 -0.202542 -0.00316358  0.0620975 -0.205295 -0.00282145  0.0496109 -0.203093 -0.00236726  0.049453 -0.246033 -0.00252175  0.0627661 -0.248659 -0.00224352  0.0627396 -0.233533 -0.00324631  0.0494535 -0.246469 -0.00188375  0.0496813 -0.23133 -0.00272894  0.0627358 -0.234004 -0.00242996  0.0496759 -0.23181 -0.00204015  0.0485365 -0.275918 -0.00212979  0.0623012 -0.278466 -0.00189233  0.0626154 -0.263079 -0.00276113  0.0485448 -0.27629 -0.00158715  0.0490713 -0.260889 -0.00232244  0.0626187 -0.263484 -0.00206494  0.0490733 -0.261303 -0.00173354  0.0470686 -0.306316 -0.00176692  0.0612074 -0.308785 -0.00156617  0.0618191 -0.293222 -0.00231147  0.0470822 -0.306629 -0.00131464  0.0478699 -0.29105 -0.00194526  0.0618298 -0.293566 -0.00172591  0.0478789 -0.291402 -0.00144911  0.045114 -0.337103 -0.00143552  0.0595555 -0.339495 -0.0012691  0.060431 -0.323809 -0.00189853  0.0451337 -0.337362 -0.00106311  0.0461498 -0.321659 -0.0015974  0.0604471 -0.324097 -0.00141454  0.0461643 -0.321955 -0.00118637  0.0427477 -0.368133 -0.00113487  0.0574281 -0.370447 -0.00100017  0.0585279 -0.354707 -0.00152302  0.0427716 -0.368344 -0.000837088  0.0439808 -0.352583 -0.0012815  0.0585486 -0.354943 -0.0011313  0.044001 -0.352828 -0.000948668  0.04003 -0.399314 -0.000865459  0.0548911 -0.401553 -0.000760555  0.0561829 -0.385794 -0.00118518  0.0400581 -0.399481 -0.000632048  0.041431 -0.383701 -0.000996113  0.0562072 -0.385985 -0.000876427  0.0414548 -0.3839 -0.000732183  0.0370288 -0.430528 -0.000629663  0.0520208 -0.432695 -0.000549793  0.0534678 -0.416969 -0.000887632  0.0370593 -0.430658 -0.000454664  0.0385642 -0.414909 -0.000743866  0.0534954 -0.41712 -0.000651598  0.0385911 -0.415068 -0.000541449  0.0337965 -0.461715 -0.000425577  0.0488749 -0.463815 -0.000368834  0.0504487 -0.448144 -0.000628471  0.033829 -0.461812 -0.0002985  0.0354407 -0.44612 -0.000523567  0.0504792 -0.44826 -0.000455618  0.0354695 -0.446243 -0.00037384  0.0303931 -0.492785 -0.000255823  0.0455232 -0.494825 -0.000217676  0.0471911 -0.479245 -0.000409126  0.0304263 -0.492858 -0.000170469  0.0321162 -0.477256 -0.000337124  0.0472231 -0.479332 -0.000288963  0.0321469 -0.47735 -0.000232458  0.0268602 -0.523707 -0.000115633  0.0420158 -0.525695 -9.58443e-05  0.0437531 -0.510213 -0.000230074  0.0268943 -0.523758 -6.19888e-05  0.0286422 -0.508258 -0.000181675  0.0437865 -0.510277 -0.000153303  0.0286734 -0.508329 -0.000114441  0.0232472 -0.554421 -3.33786e-06  0.0384114 -0.556369 1.43051e-06  0.0401907 -0.541004 -8.70228e-05  0.0232818 -0.55446 2.24113e-05  0.0250645 -0.539079 -5.67436e-05  0.0402246 -0.541053 -4.3869e-05  0.0250967 -0.539134 -1.88351e-05  0.0195854 -0.584931 9.27448e-05  0.0347483 -0.586858 8.15392e-05  0.0365498 -0.571595 2.6226e-05  0.0196209 -0.584964 9.77516e-05  0.0214226 -0.569692 4.60148e-05  0.0365856 -0.571634 4.29153e-05  0.021455 -0.569737 6.03199e-05  0.015924 -0.615238 0.000185013  0.0310724 -0.617178 0.000159979  0.0328746 -0.601993 0.00012517  0.015955 -0.615274 0.000167847  0.0177536 -0.600095 0.000137806  0.0329111 -0.602031 0.000120163  0.0177858 -0.600139 0.00013113  0.00837164 -0.0140824 -0.00482869  0 0 0  0.0121182 -0.0189896 -0.00393939  0.00497199 -0.0115724 -0.00309777  0 0 0  0.00829545 -0.0145643 -0.00346637  0.00282143 -0.00758904 -0.00265813  0 0 0  0.00501243 -0.0119324 -0.00219584  0.00279466 -0.00785047 -0.00188661  0.0201002 -0.0255408 -0.00759816  0.0247217 -0.0298221 -0.00627899  0.0186436 -0.023406 -0.0073595  0.0198715 -0.0263489 -0.00553823  0.0143105 -0.0196928 -0.00647473  0.0185771 -0.024177 -0.00531363  0.0141538 -0.0203735 -0.00468421  0.0311137 -0.038505 -0.00861025  0.0367285 -0.0426359 -0.00722814  0.0310308 -0.0349347 -0.00938416  0.03083 -0.0394342 -0.00637817  0.0257305 -0.0316957 -0.00827026  0.0307842 -0.0359023 -0.00689125  0.0254555 -0.0325888 -0.00608325  0.0409786 -0.0540898 -0.00861454  0.0478651 -0.0580438 -0.0072968  0.0427259 -0.0489848 -0.00986433  0.040738 -0.0550364 -0.00643444  0.036205 -0.0459504 -0.00869489  0.0424457 -0.0499866 -0.00733304  0.0359355 -0.046905 -0.00647259  0.0495593 -0.0722936 -0.00815082  0.0577111 -0.0760859 -0.0069325  0.0531964 -0.0657754 -0.0095551  0.049383 -0.0732077 -0.00610971  0.0454327 -0.062868 -0.00841975  0.052962 -0.0667439 -0.00714421  0.045224 -0.0638123 -0.00630188  0.0568463 -0.0928497 -0.00749302  0.0661615 -0.0965064 -0.00638437  0.0622925 -0.0851073 -0.00889683  0.0567229 -0.0937088 -0.00562119  0.0533653 -0.0822839 -0.00783563  0.062111 -0.086014 -0.0066669  0.0532159 -0.0831822 -0.00587654  0.0628641 -0.115496 -0.00677156  0.0732193 -0.119018 -0.00577497  0.0699983 -0.106683 -0.00810575  0.0627791 -0.116287 -0.00508189  0.0600123 -0.103921 -0.00713563  0.0698632 -0.107519 -0.00607872  0.0599087 -0.104757 -0.00535393  0.0676724 -0.139923 -0.00604796  0.0789416 -0.143324 -0.00515985  0.0763465 -0.130205 -0.0072813  0.0676132 -0.140639 -0.00453711  0.0654174 -0.127493 -0.00640821  0.0762411 -0.130963 -0.00546122  0.0653447 -0.128257 -0.00480819  0.0713382 -0.165888 -0.00534892  0.0834064 -0.169162 -0.00456452  0.0814075 -0.155389 -0.00647259  0.0712974 -0.166528 -0.00401282  0.0696448 -0.152721 -0.0056951  0.081327 -0.156069 -0.00485516  0.069594 -0.153409 -0.00427222  0.0739483 -0.193122 -0.00468397  0.0867059 -0.196281 -0.00399733  0.0852594 -0.181975 -0.00569701  0.0739205 -0.193687 -0.00351167  0.0727723 -0.179351 -0.00501251  0.0851945 -0.182576 -0.0042727  0.0727365 -0.179962 -0.00375915  0.0755821 -0.221426 -0.00405908  0.0889308 -0.22446 -0.00346327  0.0879976 -0.209724 -0.00496292  0.0755661 -0.221919 -0.00304294  0.0748831 -0.207145 -0.00436687  0.0879474 -0.210253 -0.00372124  0.07486 -0.207684 -0.00327349  0.0763347 -0.250575 -0.00347447  0.0901814 -0.253495 -0.00296307  0.0897102 -0.238426 -0.00427604  0.0763276 -0.251 -0.00260162  0.0760657 -0.235896 -0.00376153  0.0896705 -0.238883 -0.00320435  0.076052 -0.236364 -0.00281858  0.0762881 -0.28041 -0.00293255  0.0905478 -0.283207 -0.00250077  0.0904976 -0.267886 -0.00363469  0.0762894 -0.280772 -0.0021956  0.0764079 -0.265409 -0.00319862  0.0904697 -0.268278 -0.00272274  0.0764031 -0.265811 -0.00239491  0.0755363 -0.310747 -0.00243354  0.0901291 -0.313432 -0.002074  0.0904492 -0.297934 -0.00304365  0.0755438 -0.311051 -0.00181818  0.0759976 -0.295515 -0.00267768  0.0904289 -0.298265 -0.00227833  0.0759996 -0.295856 -0.00200295  0.0741566 -0.341468 -0.00197673  0.0890135 -0.344032 -0.00168419  0.0896636 -0.328419 -0.00250077  0.0741711 -0.341718 -0.00147533  0.0749211 -0.326061 -0.00220013  0.0896536 -0.328695 -0.00187016  0.0749308 -0.326346 -0.00164318  0.0722394 -0.372422 -0.00156474  0.087292 -0.374877 -0.00133157  0.0882251 -0.359206 -0.00200748  0.0722578 -0.372624 -0.00116396  0.0732627 -0.356913 -0.00176477  0.0882213 -0.359432 -0.00149894  0.073277 -0.357147 -0.00131536  0.069855 -0.403522 -0.00119734  0.085048 -0.405862 -0.00101972  0.0862269 -0.390179 -0.00156546  0.0698791 -0.403681 -0.000888109  0.0711024 -0.387952 -0.00137496  0.0862305 -0.39036 -0.00116611  0.0711217 -0.388141 -0.00102139  0.0670886 -0.434651 -0.000877142  0.0823686 -0.436892 -0.000745296  0.0837476 -0.421237 -0.00117731  0.0671155 -0.434773 -0.000645399  0.0685179 -0.419078 -0.00103188  0.083756 -0.421378 -0.000873327  0.0685408 -0.419227 -0.000762701  0.0640044 -0.465753 -0.000602961  0.0793283 -0.467894 -0.000511646  0.0808735 -0.452294 -0.000840664  0.0640349 -0.465843 -0.000439167  0.0655837 -0.450202 -0.000734329  0.0808895 -0.452402 -0.00061965  0.0656104 -0.450316 -0.000537872  0.0606792 -0.496741 -0.000375271  0.0760071 -0.4988 -0.00031805  0.077677 -0.483282 -0.000557899  0.0607111 -0.496806 -0.00026536  0.0623705 -0.481254 -0.000483036  0.0776968 -0.483363 -0.00040555  0.0623994 -0.481341 -0.000347614  0.0571702 -0.527588 -0.000194073  0.0724778 -0.529571 -0.000166178  0.074239 -0.514146 -0.000329494  0.0572059 -0.527635 -0.000128984  0.0589452 -0.512176 -0.000279188  0.0742648 -0.514207 -0.000232935  0.0589771 -0.512241 -0.000193119  0.0535493 -0.558241 -5.45979e-05  0.0688162 -0.560177 -4.91142e-05  0.0706277 -0.54485 -0.000154257  0.0535867 -0.558276 -2.12193e-05  0.0553727 -0.542929 -0.000120163  0.0706573 -0.544896 -9.89437e-05  0.0554073 -0.542979 -7.15256e-05  0.0498631 -0.588715 5.60284e-05  0.065089 -0.590623 4.02927e-05  0.0669205 -0.575379 -2.28882e-05  0.0499043 -0.588747 6.31809e-05  0.0517128 -0.573491 3.09944e-06  0.0669575 -0.57542 1.43051e-06  0.0517504 -0.573533 2.28882e-05  0.046159 -0.619036 0.000160933  0.0613496 -0.62095 0.000124693  0.0631826 -0.605757 8.32081e-05  0.0462031 -0.61907 0.000145674  0.0480144 -0.603879 0.000107527  0.0632186 -0.605797 8.60691e-05  0.0480545 -0.603921 0.000104189  -0.0122171 -0.0147445 0.00803876  -0.00524445 -0.00866968 0.00590253  0 0 0  -0.00832596 -0.00949851 0.00896788  0 0 0  -0.00557259 -0.00749947 0.00589824  -0.00204746 -0.00290156 0.00436139  0 0 0  -0.00527258 -0.00926582 0.00457168  -0.00813445 -0.0106616 0.00693321  -0.00289094 -0.00490467 0.0049839  0 0 0  -0.00193593 -0.0034249 0.00331879  -0.00276261 -0.00547574 0.00385141  -0.0251598 -0.0230119 0.0122809  -0.0188747 -0.0167201 0.0134676  -0.0201779 -0.0182318 0.0133066  -0.0153038 -0.0173901 0.00917387  -0.0107217 -0.0109207 0.00998592  -0.0187415 -0.0184961 0.0105951  -0.0197954 -0.0200453 0.0106919  -0.0143343 -0.0136069 0.0116751  -0.010287 -0.0122593 0.00786662  -0.0139805 -0.0151553 0.00919437  -0.0377309 -0.0337451 0.0135872  -0.0317073 -0.0259151 0.0161908  -0.0311546 -0.0293708 0.0143085  -0.0250207 -0.0292009 0.0101449  -0.0205486 -0.0212413 0.0120261  -0.0314996 -0.0280256 0.0132077  -0.0310156 -0.0312942 0.011838  -0.0257748 -0.0234121 0.0140584  -0.0202434 -0.0229606 0.0098505  -0.0254895 -0.0253284 0.011497  -0.0496966 -0.047287 0.013289  -0.0438056 -0.0381343 0.0163307  -0.0414344 -0.0435073 0.0138631  -0.0341491 -0.0436848 0.0099318  -0.0296388 -0.0343302 0.0121462  -0.043803 -0.0401683 0.0135691  -0.0415747 -0.0453329 0.0115914  -0.0363632 -0.0360709 0.0142028  -0.0296464 -0.0361046 0.0101287  -0.0363745 -0.0379732 0.0118258  -0.060929 -0.0634792 0.0122969  -0.0552004 -0.0532351 0.0153506  -0.051197 -0.0603326 0.0127845  -0.0428115 -0.0607405 0.00918603  -0.0382695 -0.0502245 0.0114362  -0.0554066 -0.0550738 0.0128489  -0.0515298 -0.0619869 0.0107315  -0.046374 -0.051595 0.0133715  -0.0385339 -0.0519052 0.00959682  -0.0466245 -0.0533535 0.011209  -0.0714458 -0.0820332 0.01105  -0.065935 -0.0708629 0.0139287  -0.0604928 -0.0794984 0.0114827  -0.0510734 -0.0800864 0.00825882  -0.0465805 -0.0686094 0.0103898  -0.0662737 -0.072486 0.0116925  -0.060935 -0.0809661 0.00964713  -0.0559004 -0.0696312 0.0121467  -0.0469878 -0.0701425 0.00873256  -0.0562984 -0.0712076 0.0102038  -0.0812897 -0.102644 0.00977063  -0.0760323 -0.0906896 0.0123944  -0.0693371 -0.100692 0.0101533  -0.0589702 -0.101446 0.00729132  -0.0545753 -0.0891644 0.00925016  -0.0764505 -0.0921013 0.010412  -0.0698259 -0.101975 0.00852704  -0.0649683 -0.0898469 0.0108147  -0.0550664 -0.0905281 0.00777268  -0.065443 -0.0912347 0.00908637  -0.0905153 -0.125074 0.00854349  -0.0855363 -0.112429 0.0108953  -0.077742 -0.123652 0.00888515  -0.0665208 -0.12456 0.0063777  -0.0622798 -0.111595 0.00813198  -0.0859762 -0.113652 0.00915194  -0.0782371 -0.124766 0.00745654  -0.073592 -0.111953 0.00950933  -0.0627857 -0.112795 0.0068264  -0.0740893 -0.113165 0.0079844  -0.0991628 -0.149079 0.00741601  -0.0944697 -0.135844 0.00949383  -0.0857182 -0.14815 0.00771213  -0.0737416 -0.149208 0.0055232  -0.0696672 -0.13566 0.00708318  -0.0949106 -0.136894 0.00797153  -0.0861939 -0.149108 0.0064671  -0.08178 -0.13571 0.008286  -0.0701718 -0.136702 0.00593972  -0.0822712 -0.136757 0.00695229  -0.107274 -0.174474 0.00638437  -0.102869 -0.160718 0.00820971  -0.0932806 -0.173986 0.00664139  -0.0806431 -0.175181 0.00475693  -0.076761 -0.161137 0.00612164  -0.103283 -0.16162 0.0068922  -0.0937231 -0.174806 0.00556731  -0.089548 -0.160901 0.00716424  -0.0772294 -0.162038 0.00512934  -0.0900105 -0.161802 0.00600767  -0.114879 -0.201056 0.00545406  -0.110754 -0.186865 0.00704122  -0.10044 -0.200972 0.00566983  -0.0872363 -0.202297 0.00405455  -0.0835388 -0.187837 0.00524783  -0.11114 -0.187629 0.00591111  -0.100842 -0.201665 0.00475287  -0.0969068 -0.187334 0.00614357  -0.0839781 -0.188604 0.00439548  -0.0973332 -0.188102 0.00515127  -0.122008 -0.228666 0.00460911  -0.118158 -0.214101 0.00598288  -0.107214 -0.228938 0.00479174  -0.0935287 -0.230376 0.0034318  -0.0900284 -0.215571 0.00445676  -0.118501 -0.214748 0.00502563  -0.107574 -0.229519 0.00401855  -0.103872 -0.21483 0.0052197  -0.0904171 -0.216224 0.0037334  -0.104255 -0.21548 0.00437737  -0.128682 -0.257127 0.0038538  -0.125094 -0.242265 0.00502634  -0.113613 -0.257719 0.00399995  -0.0995295 -0.259262 0.00286222  -0.0962123 -0.244182 0.00374389  -0.125402 -0.242801 0.00422549  -0.11393 -0.258198 0.00335741  -0.110456 -0.243224 0.00438547  -0.0965654 -0.244725 0.00313759  -0.110798 -0.243766 0.00368047  -0.13493 -0.286301 0.00317264  -0.131593 -0.271195 0.00416565  -0.119655 -0.287169 0.00329137  -0.105245 -0.288796 0.0023644  -0.102118 -0.273502 0.00310397  -0.131858 -0.271638 0.00350809  -0.119931 -0.287559 0.00276732  -0.116676 -0.272357 0.00363541  -0.10242 -0.273954 0.00260448  -0.116974 -0.272805 0.00305486  -0.140771 -0.31603 0.00257134  -0.13767 -0.300752 0.00339675  -0.125354 -0.317143 0.00266004  -0.110685 -0.318844 0.00191212  -0.10773 -0.303398 0.00253391  -0.137902 -0.301105 0.00286698  -0.125589 -0.317451 0.00224185  -0.122544 -0.302087 0.00296664  -0.107999 -0.303761 0.00213003  -0.122802 -0.302448 0.00249815  -0.146233 -0.346201 0.00203705  -0.143356 -0.330792 0.00271392  -0.130728 -0.347515 0.002105  -0.11586 -0.349271 0.00152612  -0.113082 -0.333724 0.00202894  -0.143547 -0.331073 0.00229979  -0.130925 -0.347754 0.00178099  -0.128078 -0.332274 0.00237298  -0.113303 -0.334015 0.00171041  -0.128296 -0.332562 0.00200415  -0.15134 -0.376675 0.00157881  -0.148669 -0.361196 0.00211763  -0.135795 -0.378163 0.00162315  -0.120783 -0.379965 0.00118208  -0.11816 -0.364366 0.00159001  -0.148831 -0.361408 0.00180316  -0.135956 -0.37834 0.00138044  -0.133295 -0.3628 0.0018549  -0.118352 -0.364588 0.00134611  -0.133478 -0.36302 0.00157428  -0.156125 -0.40736 0.00118732  -0.153644 -0.391845 0.00160503  -0.140578 -0.408982 0.00121641  -0.125467 -0.410814 0.000902653  -0.123001 -0.395204 0.0012126  -0.15377 -0.392002 0.00137925  -0.140708 -0.409109 0.00104403  -0.138218 -0.393545 0.00141072  -0.123151 -0.395373 0.00103378  -0.138366 -0.39371 0.00120568  -0.160616 -0.438144 0.000869989  -0.158302 -0.422639 0.00117707  -0.1451 -0.439876 0.000881672  -0.129933 -0.441731 0.000663519  -0.127599 -0.426148 0.000899792  -0.158407 -0.422747 0.00102401  -0.145202 -0.43996 0.000767469  -0.142867 -0.424414 0.0010407  -0.127726 -0.426267 0.00077486  -0.142986 -0.424531 0.000899792  -0.164853 -0.468958 0.000617027  -0.162686 -0.453485 0.000831842  -0.149392 -0.470764 0.000619411  -0.134201 -0.472628 0.000486374  -0.131996 -0.4571 0.000647783  -0.162764 -0.453557 0.000739574  -0.149471 -0.470815 0.000551939  -0.147271 -0.455313 0.000741243  -0.132087 -0.457184 0.000567436  -0.147363 -0.455394 0.00065279  -0.168871 -0.499713 0.00043726  -0.166822 -0.484307 0.000569344  -0.153483 -0.501571 0.000425577  -0.138295 -0.503442 0.000347376  -0.136189 -0.487995 0.000455379  -0.166888 -0.484347 0.00052309  -0.153543 -0.501597 0.000392675  -0.151457 -0.48617 0.000514269  -0.136268 -0.488046 0.000410318  -0.15153 -0.486219 0.000466585  -0.17273 -0.53037 0.000312567  -0.170766 -0.515037 0.000386238  -0.157413 -0.532247 0.000294924  -0.142242 -0.534115 0.000260115  -0.140228 -0.518762 0.00031805  -0.170817 -0.515061 0.000372648  -0.157462 -0.532259 0.000285387  -0.155463 -0.516916 0.000353575  -0.140283 -0.518796 0.000298023  -0.155519 -0.516948 0.00033474  -0.176486 -0.560884 0.000237226  -0.174566 -0.545634 0.000270367  -0.161226 -0.562759 0.000206709  -0.14608 -0.564623 0.000188589  -0.14412 -0.549368 0.00022316  -0.174618 -0.545647 0.000274658  -0.161271 -0.562764 0.000211239  -0.159327 -0.547512 0.000246763  -0.144172 -0.549387 0.000220299  -0.159377 -0.547532 0.000246525  -0.180217 -0.59129 0.000169039  -0.178305 -0.576084 0.000194073  -0.164985 -0.593135 0.000130177  -0.149858 -0.594975 0.000132799  -0.147927 -0.579795 0.000149012  -0.178351 -0.576101 0.000208139  -0.165033 -0.593142 0.000147343  -0.163106 -0.577948 0.000169754  -0.147969 -0.579813 0.000160217  -0.163153 -0.577968 0.000181198  -0.00432429 -0.00474057 0.00640082  0 0 0  -0.00293288 -0.00436623 0.00396609  -0.0010848 -0.00107297 0.00293446  0 0 0  -0.00410728 -0.00557266 0.00493073  -0.00147567 -0.00174774 0.0036304  0 0 0  -0.001007 -0.00148641 0.00221872  -0.00136785 -0.00221732 0.00275493  -0.0120148 -0.013855 0.0095396  -0.00851367 -0.0136848 0.00618815  -0.00582607 -0.00756425 0.00672293  -0.0116241 -0.0152437 0.00768375  -0.0080315 -0.00890733 0.00834799  -0.00552002 -0.00860953 0.00530243  -0.00764905 -0.0100765 0.00658035  -0.0197899 -0.025856 0.0102272  -0.0148336 -0.0261601 0.00682926  -0.0119004 -0.0181483 0.00808477  -0.0196511 -0.0274849 0.00849247  -0.0159587 -0.0194777 0.0100574  -0.0116663 -0.019572 0.00663996  -0.0156708 -0.0210309 0.00824952  -0.0271906 -0.0407038 0.0098834  -0.0210371 -0.0413371 0.00665259  -0.0179367 -0.0318443 0.00812721  -0.0273322 -0.0423467 0.00829053  -0.0235234 -0.0329207 0.0101352  -0.0179604 -0.0334169 0.00680089  -0.0235362 -0.0345839 0.00846672  -0.034357 -0.0581915 0.00910473  -0.0270627 -0.0590295 0.00613475  -0.023833 -0.0483195 0.00762486  -0.0346881 -0.0597479 0.0076611  -0.0307979 -0.0491289 0.00952744  -0.0240682 -0.049883 0.0064187  -0.0310461 -0.0507459 0.00800729  -0.0413448 -0.0779968 0.00817227  -0.0329636 -0.0789695 0.00549722  -0.0296606 -0.0672627 0.00691128  -0.0417814 -0.0794116 0.00687528  -0.0378692 -0.0678158 0.0086484  -0.0300255 -0.0687333 0.00582337  -0.0382643 -0.0693132 0.00727725  -0.0481677 -0.0998114 0.00722075  -0.0387737 -0.100894 0.00484395  -0.0354486 -0.088359 0.00614095  -0.0486482 -0.101077 0.00606942  -0.044777 -0.0886608 0.0076952  -0.035879 -0.0896984 0.00516939  -0.0452419 -0.0900105 0.00647068  -0.0548151 -0.123368 0.00631261  -0.0444982 -0.124547 0.00422215  -0.0411959 -0.111322 0.00538707  -0.0553007 -0.124476 0.00529814  -0.051511 -0.111378 0.00676036  -0.0416461 -0.112517 0.00452852  -0.0520002 -0.112573 0.00567746  -0.06128 -0.148431 0.00547242  -0.0501362 -0.149707 0.00364947  -0.0468863 -0.1359 0.00468159  -0.0617456 -0.149398 0.0045886  -0.0580707 -0.135715 0.00588417  -0.0473284 -0.136951 0.00392985  -0.0585488 -0.13676 0.00493503  -0.0675485 -0.174793 0.00470686  -0.0556761 -0.176158 0.00313139  -0.052502 -0.161867 0.00403547  -0.0679818 -0.175621 0.00394297  -0.0644358 -0.161453 0.0050807  -0.0529184 -0.162781 0.00338387  -0.0648893 -0.162358 0.00425744  -0.073617 -0.202261 0.00401378  -0.0611103 -0.203714 0.002666  -0.0580237 -0.189021 0.00345111  -0.0740108 -0.202971 0.00336289  -0.0706075 -0.18839 0.00435233  -0.0584069 -0.189807 0.00289297  -0.0710222 -0.189167 0.00364518  -0.0794772 -0.230663 0.00338936  -0.0664254 -0.232193 0.00224972  -0.0634377 -0.217176 0.00292516  -0.0798296 -0.231258 0.00283957  -0.0765699 -0.216347 0.00369406  -0.0637826 -0.217846 0.00245214  -0.0769458 -0.217006 0.00309396  -0.0851296 -0.259834 0.0028286  -0.0716164 -0.261436 0.00187731  -0.0687307 -0.246163 0.0024538  -0.0854396 -0.260332 0.00237322  -0.0823288 -0.245153 0.00310135  -0.069037 -0.246727 0.00205851  -0.0826607 -0.245706 0.00259924  -0.0905679 -0.289625 0.00232768  -0.0766691 -0.291284 0.00154734  -0.0738922 -0.275822 0.00203156  -0.0908377 -0.290028 0.00195551  -0.0878718 -0.274652 0.00257087  -0.0741594 -0.276291 0.00170708  -0.0881644 -0.27511 0.00215769  -0.0957981 -0.319893 0.00188351  -0.0815823 -0.321605 0.00125599  -0.078913 -0.306009 0.00165844  -0.0960282 -0.32022 0.00158739  -0.0932083 -0.304698 0.00209904  -0.0791436 -0.306392 0.00139737  -0.0934587 -0.305071 0.00176501  -0.100818 -0.350512 0.0014956  -0.0863476 -0.352263 0.0010035  -0.0837888 -0.33659 0.00133038  -0.101011 -0.350765 0.00126386  -0.0983305 -0.335158 0.00168276  -0.0839828 -0.336897 0.0011251  -0.0985446 -0.335454 0.00141954  -0.105636 -0.381365 0.00115943  -0.0909667 -0.383148 0.000786304  -0.0885137 -0.367442 0.0010469  -0.105794 -0.38156 0.000987291  -0.103251 -0.365907 0.00132155  -0.0886755 -0.367682 0.000890493  -0.103427 -0.366138 0.00112009  -0.110256 -0.412348 0.000877619  -0.0954351 -0.414151 0.000605106  -0.0930879 -0.398456 0.000805378  -0.110384 -0.412487 0.000753164  -0.107966 -0.396838 0.00101233  -0.0932186 -0.398638 0.000691175  -0.108112 -0.397011 0.000864267  -0.114694 -0.443367 0.00064683  -0.0997641 -0.445188 0.000459194  -0.0975139 -0.429535 0.000607014  -0.114793 -0.443467 0.00056386  -0.112496 -0.427849 0.000756502  -0.0976169 -0.429669 0.00052762  -0.11261 -0.427976 0.00065279  -0.118956 -0.474346 0.000466585  -0.103953 -0.476175 0.00034523  -0.101795 -0.460595 0.000448465  -0.119032 -0.474408 0.000415325  -0.116842 -0.458858 0.000551224  -0.101875 -0.46069 0.000397921  -0.116932 -0.458945 0.000484467  -0.123064 -0.505216 0.000332832  -0.108014 -0.507053 0.000262737  -0.105938 -0.491566 0.000328779  -0.123121 -0.505255 0.000307798  -0.121028 -0.489789 0.000394821  -0.105998 -0.491629 0.000300884  -0.121094 -0.489847 0.000356674  -0.127028 -0.535928 0.000236988  -0.111955 -0.537767 0.000202656  -0.109952 -0.522391 0.000241041  -0.127074 -0.535946 0.00022912  -0.125059 -0.520585 0.000281096  -0.109998 -0.52243 0.000230312  -0.125112 -0.520621 0.000264406  -0.13088 -0.566449 0.000165939  -0.115796 -0.568286 0.000159502  -0.113849 -0.553026 0.00017786  -0.130918 -0.566461 0.000173807  -0.128966 -0.551204 0.000200272  -0.113886 -0.553051 0.000180006  -0.129007 -0.551226 0.000199318  -0.134659 -0.596776 9.58443e-05  -0.119573 -0.598584 0.000115395  -0.117653 -0.583442 0.000122309  -0.134699 -0.596785 0.00011754  -0.13277 -0.581628 0.000132799  -0.117687 -0.583463 0.000137806  -0.132811 -0.581645 0.000146389  -0.00210249 -0.00299039 0.0038445  0 0 0  -0.00116619 -0.00328156 0.0019722  -0.000429507 -0.000522673 0.00143909  0 0 0  -0.0019853 -0.00365609 0.00297332  -0.000721 -0.000697762 0.00218534  0 0 0  -0.000398435 -0.000861377 0.00109887  -0.000666499 -0.00107041 0.00166082  -0.00611371 -0.011508 0.00575614  -0.00352865 -0.0120941 0.00310493  -0.00235479 -0.00627029 0.00333357  -0.0058936 -0.0126574 0.00465465  -0.0039936 -0.00671828 0.00503159  -0.00223604 -0.00716469 0.00264955  -0.00377667 -0.0076749 0.00398207  -0.0105481 -0.0238152 0.00617051  -0.00646639 -0.0247458 0.00344515  -0.00502399 -0.0167615 0.00404692  -0.0104918 -0.0252457 0.00514293  -0.00831687 -0.0172481 0.00607109  -0.0049572 -0.0180221 0.00334382  -0.00816318 -0.0185759 0.00499916  -0.0150293 -0.0391465 0.00594378  -0.00962472 -0.0403386 0.00335288  -0.00794345 -0.0307539 0.004076  -0.0151717 -0.0406624 0.00500655  -0.012785 -0.0311196 0.00610471  -0.00802594 -0.0322027 0.00343084  -0.0128326 -0.0326215 0.00512075  -0.01956 -0.0571122 0.00545669  -0.012931 -0.0584708 0.00307751  -0.0110455 -0.0476155 0.00381279  -0.0198432 -0.0586001 0.00460672  -0.0172837 -0.0478121 0.00571966  -0.0112585 -0.0491033 0.00322819  -0.0175071 -0.049333 0.00482607  -0.0241709 -0.0773838 0.00488043  -0.0163975 -0.0788276 0.00273752  -0.0143455 -0.0669495 0.0034368  -0.0245336 -0.0787681 0.00411844  -0.0218542 -0.0669702 0.0051744  -0.0146419 -0.0683822 0.00291157  -0.0221835 -0.0684201 0.00436878  -0.0288705 -0.0996585 0.00429559  -0.0200403 -0.101165 0.00239086  -0.0178577 -0.0884347 0.00303125  -0.0292671 -0.100919 0.00361753  -0.0265079 -0.0882792 0.0045867  -0.0181963 -0.0897613 0.00256371  -0.0268944 -0.0896116 0.00386715  -0.0336429 -0.123668 0.00373888  -0.0238491 -0.125215 0.00206351  -0.0215741 -0.111786 0.00263596  -0.0340418 -0.124785 0.0031445  -0.0312487 -0.111453 0.00401282  -0.0219238 -0.112985 0.00222445  -0.0316491 -0.11265 0.00337744  -0.0384665 -0.149171 0.00322628  -0.0278081 -0.150765 0.00176525  -0.0254697 -0.136748 0.00226855  -0.0388485 -0.150156 0.0027082  -0.0360471 -0.136238 0.0034771  -0.0258104 -0.137813 0.00191092  -0.0364422 -0.137296 0.00292182  -0.0433133 -0.175953 0.00276136  -0.0318871 -0.177583 0.00149894  -0.0295126 -0.16309 0.00193524  -0.0436674 -0.176803 0.00231743  -0.0408878 -0.162406 0.00298762  -0.0298328 -0.164023 0.00162792  -0.0412568 -0.16333 0.00250769  -0.0481604 -0.203814 0.00234413  -0.0360632 -0.205491 0.0012641  -0.0336711 -0.190601 0.00163794  -0.0484818 -0.204548 0.00196624  -0.0457351 -0.189751 0.00254774  -0.0339638 -0.19141 0.00137782  -0.0460765 -0.19055 0.00213742  -0.0529835 -0.232576 0.00197196  -0.0403038 -0.234287 0.00105786  -0.0379136 -0.21909 0.00137472  -0.0532693 -0.233194 0.00165582  -0.0505751 -0.218084 0.00215292  -0.0381755 -0.219784 0.00115752  -0.0508791 -0.218767 0.00180697  -0.0577658 -0.262071 0.00163937  -0.0445889 -0.263823 0.000876665  -0.0422113 -0.248383 0.00114346  -0.0580161 -0.262593 0.00137782  -0.0553778 -0.247233 0.00180149  -0.0424415 -0.248969 0.000964403  -0.0556489 -0.24781 0.00151324  -0.0624853 -0.292149 0.00134635  -0.0488874 -0.293925 0.000719547  -0.0465375 -0.278316 0.000939131  -0.0627013 -0.292575 0.00113583  -0.0601332 -0.277037 0.00148845  -0.046736 -0.278807 0.000794888  -0.0603665 -0.277519 0.0012536  -0.0671322 -0.322667 0.00108933  -0.0531839 -0.324472 0.000584602  -0.0508679 -0.308744 0.000763416  -0.0673149 -0.323016 0.000921488  -0.064816 -0.307353 0.00121379  -0.0510365 -0.309148 0.000649452  -0.0650177 -0.307747 0.0010252  -0.0716894 -0.3535 0.000866652  -0.0574535 -0.355317 0.000469685  -0.0551814 -0.339533 0.000611782  -0.0718408 -0.353772 0.000738621  -0.0694214 -0.338042 0.00097394  -0.0553213 -0.339859 0.000524282  -0.0695885 -0.338361 0.000827074  -0.0761514 -0.38453 0.000677109  -0.0616846 -0.386365 0.00037384  -0.0594597 -0.370561 0.000483513  -0.0762739 -0.384745 0.000581026  -0.0739298 -0.368988 0.000767946  -0.0595739 -0.370819 0.00041914  -0.0740695 -0.369238 0.000656366  -0.0805068 -0.415658 0.000520229  -0.0658581 -0.417494 0.000297546  -0.0636876 -0.40172 0.00037837  -0.0806031 -0.415813 0.000453711  -0.0783412 -0.400078 0.000594616  -0.0637774 -0.40192 0.000333309  -0.0784512 -0.400271 0.000514746  -0.0847566 -0.446792 0.000394583  -0.0699701 -0.448637 0.000238895  -0.0678523 -0.432917 0.000295401  -0.0848305 -0.446907 0.000349522  -0.0826416 -0.43122 0.000453711  -0.0679212 -0.433066 0.000266075  -0.0827296 -0.431362 0.000398636  -0.0888965 -0.477859 0.000297546  -0.0740077 -0.479699 0.000196695  -0.0719461 -0.46407 0.00023222  -0.0889509 -0.477933 0.000272274  -0.0868392 -0.462329 0.000343084  -0.0719967 -0.464177 0.000215292  -0.0869033 -0.462431 0.000308752  -0.0929296 -0.508795 0.000227213  -0.0779712 -0.510639 0.000168324  -0.0759623 -0.495112 0.000187874  -0.0929689 -0.508844 0.000215054  -0.0909231 -0.493338 0.000259876  -0.0759981 -0.495185 0.000180483  -0.0909724 -0.493406 0.000241518  -0.0968566 -0.539552 0.00017786  -0.0818534 -0.541389 0.000151157  -0.0798962 -0.525988 0.000158548  -0.0968854 -0.539576 0.000177622  -0.0949051 -0.524189 0.000201225  -0.0799212 -0.526035 0.000157833  -0.0949385 -0.524233 0.000195265  -0.100689 -0.570088 0.000138998  -0.0856631 -0.571924 0.000139952  -0.0837486 -0.556654 0.000139952  -0.100713 -0.570106 0.000147104  -0.0987806 -0.554841 0.00015831  -0.0837657 -0.556683 0.000145197  -0.0988092 -0.554869 0.000162125  -0.104448 -0.600355 9.65595e-05  -0.0894072 -0.602169 0.000127792  -0.0875227 -0.587057 0.000122309  -0.104475 -0.600374 0.000118017  -0.102573 -0.58525 0.000119686  -0.0875387 -0.587081 0.000133991  -0.102598 -0.585274 0.000133991  -0.000423387 -0.00258261 0.00120497  0 0 0  0.000305489 -0.00327855 -6.48499e-05  0.000116467 -0.000561446 -8.98838e-05  0 0 0  -0.000412121 -0.00316828 0.000953197  -0.00014833 -0.000481874 0.000674009  0 0 0  0.000101529 -0.000870228 -5.22137e-05  -0.000138551 -0.000805259 0.00052309  -0.0013521 -0.0108871 0.00187111  0.000766128 -0.0121196 -2.7895e-05  0.000616863 -0.00633049 -0.000101328  -0.00134252 -0.0119249 0.0015347  -0.000839025 -0.00615332 0.00161123  0.000542745 -0.00716087 -5.26905e-05  -0.000817597 -0.0070087 0.00129604  -0.00259909 -0.0233091 0.00205064  0.00101644 -0.0249185 2.74181e-05  0.00105131 -0.0169191 -3.0756e-05  -0.00267136 -0.024638 0.00173283  -0.00194123 -0.0166577 0.00200152  0.000930667 -0.0181107 4.29153e-06  -0.00196576 -0.0178756 0.00166965  -0.00413907 -0.038918 0.00198317  0.000892639 -0.0407454 4.14848e-05  0.00117105 -0.0310973 9.29832e-06  -0.00430608 -0.0403631 0.00169277  -0.00332892 -0.0307469 0.00203681  0.00100642 -0.0324908 3.95775e-05  -0.00345245 -0.0321612 0.00173092  -0.00599885 -0.0571954 0.00180507  0.00033474 -0.0591302 1.95503e-05  0.000873804 -0.0481853 2.86102e-06  -0.00623655 -0.0586437 0.00154662  -0.00502789 -0.0477385 0.00190377  0.000669599 -0.0496382 3.43323e-05  -0.00523347 -0.0492053 0.00162768  -0.00819385 -0.0777823 0.00158691  -0.000669301 -0.0797523 -2.0504e-05  0.000119746 -0.0677593 -3.31402e-05  -0.00847203 -0.0791511 0.00135636  -0.00705165 -0.067211 0.00169897  -0.000111163 -0.0691758 7.15256e-07  -0.00731528 -0.0686335 0.0014534  -0.0107225 -0.100378 0.00136352  -0.00211263 -0.102356 -6.36578e-05  -0.00109434 -0.0894954 -7.84397e-05  -0.0110162 -0.101639 0.00116372  -0.00941777 -0.0888373 0.00147486  -0.00133723 -0.0908205 -4.24385e-05  -0.0097059 -0.0901631 0.00125885  -0.0135595 -0.124712 0.00115395  -0.00396723 -0.126683 -0.000100851  -0.00274873 -0.113108 -0.000121593  -0.0138499 -0.125841 0.000980854  -0.0121017 -0.112335 0.00125647  -0.00299013 -0.114316 -8.34465e-05  -0.0123979 -0.113538 0.00106978  -0.0166733 -0.150539 0.000964642  -0.00619996 -0.152506 -0.000127316  -0.00480807 -0.138339 -0.000156164  -0.0169486 -0.151542 0.000819921  -0.0150838 -0.137444 0.00105667  -0.0050385 -0.13942 -0.000115395  -0.0153679 -0.138518 0.000897169  -0.0200224 -0.177636 0.000799417  -0.00876713 -0.179596 -0.000144005  -0.007231 -0.164949 -0.000179291  -0.0202757 -0.178508 0.000677824  -0.0183177 -0.163934 0.000879049  -0.00744367 -0.165903 -0.000137329  -0.0185853 -0.164877 0.00074625  -0.0235722 -0.205798 0.000656843  -0.0116301 -0.207758 -0.00014925  -0.00997329 -0.192723 -0.00019002  -0.0237991 -0.206555 0.000559568  -0.0217744 -0.191587 0.000725508  -0.010164 -0.193553 -0.000147581  -0.0220147 -0.192408 0.000615358  -0.0272813 -0.234839 0.000535488  -0.0147425 -0.236796 -0.000145435  -0.0129898 -0.221459 -0.000190496  -0.0274801 -0.235481 0.000456572  -0.0254058 -0.220211 0.000593901  -0.013157 -0.222176 -0.000148296  -0.0256215 -0.220916 0.000505209  -0.0311172 -0.264589 0.000432253  -0.0180663 -0.266546 -0.00013566  -0.0162368 -0.25098 -0.000182629  -0.0312885 -0.265134 0.00037241  -0.0291848 -0.249626 0.000482321  -0.0163803 -0.25159 -0.000141382  -0.0293702 -0.250226 0.000412226  -0.0350436 -0.294893 0.000346422  -0.0215577 -0.296844 -0.000119448  -0.0196726 -0.28112 -0.000167608  -0.0351882 -0.295341 0.000300884  -0.0330678 -0.279672 0.000387669  -0.0197924 -0.281633 -0.000128269  -0.0332284 -0.280175 0.000334263  -0.0390351 -0.325609 0.000276566  -0.0251849 -0.327556 -9.84669e-05  -0.0232583 -0.31173 -0.000146866  -0.0391541 -0.325979 0.000244617  -0.0370325 -0.310198 0.000309944  -0.0233564 -0.312155 -0.000109673  -0.0371641 -0.310615 0.000270367  -0.0430595 -0.356611 0.000219584  -0.0289086 -0.358547 -7.43866e-05  -0.0269588 -0.342675 -0.000121593  -0.0431548 -0.356902 0.000197411  -0.0410414 -0.341073 0.000246763  -0.027036 -0.343021 -8.72612e-05  -0.0411509 -0.34141 0.000219345  -0.0470965 -0.387782 0.000175953  -0.0327027 -0.38971 -4.88758e-05  -0.0307393 -0.373835 -9.29832e-05  -0.0471709 -0.388015 0.00016427  -0.0450771 -0.372172 0.000196695  -0.0307984 -0.374112 -6.17504e-05  -0.045162 -0.372441 0.000178814  -0.0511229 -0.419025 0.000145674  -0.0365353 -0.420938 -1.95503e-05  -0.0345719 -0.405104 -6.17504e-05  -0.0511777 -0.419197 0.000139236  -0.0491085 -0.403392 0.000159264  -0.034615 -0.405319 -3.40939e-05  -0.0491762 -0.403601 0.000149727  -0.0551245 -0.450252 0.000125885  -0.0403874 -0.452153 1.04904e-05  -0.0384316 -0.436387 -2.81334e-05  -0.0551631 -0.450381 0.000125647  -0.0531268 -0.434636 0.000135183  -0.0384598 -0.43655 -4.76837e-06  -0.0531735 -0.434794 0.00013113  -0.0590835 -0.481389 0.000116348  -0.0442357 -0.483274 4.07696e-05  -0.0422964 -0.467607 5.96046e-06  -0.059109 -0.481475 0.000118494  -0.0571063 -0.465827 0.000120163  -0.0423124 -0.467726 2.57492e-05  -0.0571411 -0.465941 0.000121117  -0.062995 -0.512378 0.000114918  -0.048069 -0.51425 7.15256e-05  -0.0461478 -0.498698 4.12464e-05  -0.0630095 -0.512437 0.000120163  -0.0610452 -0.496896 0.000115395  -0.046155 -0.498782 5.62668e-05  -0.0610652 -0.496976 0.000118017  -0.0668461 -0.54317 0.000119686  -0.0518684 -0.545027 0.000101566  -0.0499725 -0.529608 7.51019e-05  -0.0668528 -0.543202 0.000124931  -0.0649252 -0.527793 0.000117064  -0.049973 -0.529664 8.63075e-05  -0.0649381 -0.527845 0.000121832  -0.0706358 -0.573717 0.0001266  -0.0556295 -0.575566 0.000129938  -0.0537593 -0.560291 0.000108242  -0.0706379 -0.573741 0.000134945  -0.0687482 -0.558468 0.000123262  -0.0537543 -0.560328 0.000115395  -0.0687525 -0.558503 0.000128746  -0.0743551 -0.603948 0.000133276  -0.0593302 -0.605797 0.00015974  -0.0574937 -0.590689 0.000141382  -0.0743592 -0.603973 0.000141859  -0.0725 -0.588869 0.000130653  -0.0574875 -0.590722 0.000144482  -0.0725055 -0.588898 0.000138283  0.00112434 -0.00304919 -0.00143218  0 0 0  0.0017857 -0.00415128 -0.00206256  0.000661716 -0.00105327 -0.00160098  0 0 0  0.00102831 -0.00360346 -0.00107384  0.000382304 -0.000746429 -0.000849009  0 0 0  0.000603773 -0.00134867 -0.00118637  0.000343822 -0.00104743 -0.000623465  0.00307834 -0.0116585 -0.00199056  0.00505078 -0.0135539 -0.003088  0.00358778 -0.0075385 -0.00345826  0.00287589 -0.0126586 -0.00157404  0.00207552 -0.00678986 -0.00179553  0.0033249 -0.0083614 -0.00269556  0.00190786 -0.00760937 -0.00138736  0.00490072 -0.0242822 -0.0020411  0.00843936 -0.0266146 -0.00331521  0.00708866 -0.0185109 -0.00401115  0.00469109 -0.025578 -0.00166202  0.00403586 -0.0175371 -0.00204158  0.00678661 -0.0196971 -0.00325823  0.00382212 -0.0187184 -0.0016439  0.00626534 -0.040056 -0.00194812  0.0112976 -0.0425573 -0.00321245  0.0101993 -0.0328603 -0.00397682  0.00606304 -0.0414759 -0.00159764  0.00564858 -0.0318034 -0.00200152  0.0099526 -0.0342471 -0.00328445  0.00544417 -0.0331882 -0.00163698  0.00706697 -0.0584981 -0.00182319  0.0134488 -0.0610467 -0.0030005  0.0126656 -0.0500522 -0.00375342  0.00686687 -0.0599317 -0.00149989  0.00674123 -0.048958 -0.00188732  0.0124646 -0.0514981 -0.00311399  0.00653833 -0.0504045 -0.00155044  0.00728506 -0.079264 -0.00169373  0.0148828 -0.0817883 -0.00275731  0.0144273 -0.0697335 -0.00346971  0.00708753 -0.0806285 -0.00139332  0.0072484 -0.0686005 -0.00175905  0.014255 -0.0711465 -0.00288129  0.00704998 -0.0700142 -0.00144649  0.00693315 -0.102056 -0.00156426  0.0156256 -0.104542 -0.00250793  0.0154922 -0.0915997 -0.00317121  0.00674146 -0.103322 -0.00128961  0.00718111 -0.0904157 -0.00162911  0.0153388 -0.0929267 -0.00263309  0.00698352 -0.0917415 -0.0013411  0.00604594 -0.126601 -0.00143456  0.0157232 -0.129029 -0.0022614  0.0158913 -0.115364 -0.00287271  0.00586557 -0.127741 -0.00118208  0.00655413 -0.114116 -0.00149965  0.0157531 -0.116579 -0.00238442  0.00636786 -0.115329 -0.00123549  0.00466561 -0.152646 -0.00130439  0.0152204 -0.155029 -0.00202227  0.0156672 -0.140761 -0.0025804  0.00449967 -0.153665 -0.00107646  0.00541735 -0.139442 -0.00136971  0.0155445 -0.141852 -0.002141  0.00524092 -0.140529 -0.00112915  0.00284195 -0.179962 -0.00117397  0.0141754 -0.182291 -0.001791  0.0148711 -0.167543 -0.00229836  0.00269437 -0.180851 -0.000967503  0.00380683 -0.16615 -0.00123978  0.0147636 -0.16851 -0.00190616  0.00364947 -0.167111 -0.0010221  0.000623584 -0.208335 -0.00104237  0.0126393 -0.210625 -0.00156784  0.013557 -0.195487 -0.00202584  0.000495553 -0.209111 -0.000859499  0.00178182 -0.19402 -0.00110841  0.0134662 -0.196333 -0.00167894  0.00164127 -0.194859 -0.000913143  -0.0019362 -0.237574 -0.000912905  0.0106726 -0.239817 -0.00135565  0.0117816 -0.224388 -0.0017643  -0.00204372 -0.238235 -0.000749826  -0.000616074 -0.222848 -0.000977755  0.0117079 -0.225119 -0.00146031  -0.000733852 -0.223574 -0.000804186  -0.0047909 -0.267505 -0.000786543  0.00832605 -0.269714 -0.00115395  0.00960159 -0.254059 -0.00151658  -0.00487852 -0.268069 -0.000645161  -0.00332665 -0.252455 -0.000849485  0.00954449 -0.254685 -0.00125337  -0.00342715 -0.253074 -0.000697136  -0.00788987 -0.29797 -0.000664473  0.00565934 -0.300134 -0.000963688  0.00707269 -0.284334 -0.00128245  -0.00795794 -0.298436 -0.000540972  -0.00631154 -0.28267 -0.000725031  0.00703132 -0.284862 -0.00105762  -0.00638974 -0.283193 -0.00059247  -0.0111912 -0.328825 -0.000547171  0.00271714 -0.330956 -0.000785828  0.00424683 -0.315061 -0.00106263  -0.0112419 -0.329212 -0.000443459  -0.00951493 -0.313348 -0.000605106  0.00422049 -0.3155 -0.000873089  -0.0095768 -0.313781 -0.000491381  -0.0146502 -0.359945 -0.000436544  -0.000446081 -0.362033 -0.000622272  0.00117528 -0.346106 -0.000859499  -0.014685 -0.360252 -0.00034833  -0.0129024 -0.34435 -0.000490904  0.00116205 -0.346464 -0.000702858  -0.0129453 -0.344704 -0.000394583  -0.0182321 -0.391213 -0.000332594  -0.00379014 -0.393269 -0.000472784  -0.00209498 -0.377347 -0.000673532  -0.0182533 -0.391459 -0.00026226  -0.0164249 -0.375558 -0.000383615  -0.00209737 -0.377634 -0.000546217  -0.0164557 -0.375841 -0.000304222  -0.0218995 -0.422534 -0.000236034  -0.00726962 -0.424548 -0.000338078  -0.00552058 -0.408679 -0.000504255  -0.021909 -0.422717 -0.000178576  -0.020056 -0.406864 -0.000283241  -0.00551343 -0.408903 -0.000403881  -0.0200715 -0.407085 -0.000218868  -0.0256259 -0.453819 -0.000148058  -0.0108528 -0.455803 -0.000218391  -0.00906372 -0.440009 -0.000353098  -0.0256257 -0.453958 -0.000105143  -0.0237536 -0.438177 -0.000191212  -0.00904942 -0.44018 -0.000276327  -0.0237613 -0.438345 -0.000140905  -0.0293822 -0.484999 -6.96182e-05  -0.0145023 -0.486945 -0.000115156  -0.0126886 -0.471262 -0.000221252  -0.0293744 -0.485093 -3.69549e-05  -0.0275006 -0.469417 -0.000107527  -0.0126691 -0.471387 -0.000165462  -0.0274966 -0.469541 -6.96182e-05  -0.0331504 -0.516016 7.15256e-07  -0.0181971 -0.517937 -2.52724e-05  -0.0163677 -0.502372 -0.000106812  -0.0331373 -0.516082 2.16961e-05  -0.0312631 -0.500522 -3.31402e-05  -0.0163445 -0.50246 -6.8903e-05  -0.0312552 -0.500609 -6.4373e-06  -0.0369103 -0.546822 6.38962e-05  -0.0219076 -0.548713 5.126e-05  -0.0200748 -0.533289 -9.29832e-06  -0.0368927 -0.54686 7.70092e-05  -0.0350316 -0.531439 3.33786e-05  -0.0200498 -0.533348 1.35899e-05  -0.0350161 -0.531498 5.05447e-05  -0.0406477 -0.577374 0.000123262  -0.0256181 -0.579255 0.00012207  -0.023792 -0.563972 7.82013e-05  -0.0406275 -0.577403 0.000125408  -0.0387797 -0.562125 9.36985e-05  -0.0237634 -0.564012 8.70228e-05  -0.0387638 -0.562164 0.000101566  -0.0443289 -0.607604 0.000184059  -0.0292845 -0.609501 0.000192881  -0.0274882 -0.594377 0.000162363  -0.044311 -0.607637 0.00017786  -0.0424969 -0.592524 0.000153303  -0.0274582 -0.594412 0.000156641  -0.0424771 -0.59256 0.000151873  0.00281952 -0.00438291 -0.00396943  0 0 0  0.00357355 -0.00609386 -0.00392222  0.00131223 -0.00214475 -0.00302362  0 0 0  0.00262116 -0.0049575 -0.00301194  0.000956215 -0.00149727 -0.00232029  0 0 0  0.00121457 -0.00248289 -0.00223994  0.000878386 -0.00180805 -0.00172329  0.00779787 -0.0137936 -0.00568366  0.00996557 -0.0165288 -0.00594473  0.00703819 -0.0100467 -0.00659394  0.00739729 -0.0148275 -0.00454664  0.00522639 -0.00860673 -0.00505543  0.00659944 -0.0109487 -0.0051558  0.00487185 -0.00945592 -0.00395131  0.0127071 -0.026702 -0.00597835  0.0165609 -0.0298119 -0.00647759  0.0137992 -0.0215715 -0.00775743  0.0123736 -0.028025 -0.00492239  0.0103215 -0.0198518 -0.00591755  0.0133432 -0.0228332 -0.0063231  0.00994021 -0.0210649 -0.00481963  0.0169222 -0.0425429 -0.00577378  0.0223113 -0.0457296 -0.00634146  0.0198689 -0.0360047 -0.00779176  0.0166877 -0.0439767 -0.00479674  0.0149145 -0.0342644 -0.00590968  0.019558 -0.0374396 -0.00645733  0.0146322 -0.0356688 -0.00489378  0.0203269 -0.061025 -0.00538635  0.027078 -0.0641855 -0.00594187  0.0250126 -0.0531812 -0.00739908  0.0201595 -0.0624648 -0.00448298  0.0187269 -0.0514628 -0.0055933  0.0248173 -0.0546517 -0.00616169  0.0185308 -0.0529183 -0.00465369  0.0229149 -0.0818554 -0.00493622  0.0308828 -0.0849403 -0.00544596  0.0292211 -0.0728648 -0.00683975  0.0227886 -0.0832239 -0.0041101  0.0217243 -0.0711566 -0.00516605  0.0290986 -0.0742896 -0.0057013  0.0215778 -0.0725746 -0.00430179  0.0247086 -0.10474 -0.00447226  0.033765 -0.107738 -0.00492263  0.0325145 -0.0947653 -0.00622296  0.0246086 -0.106011 -0.00372005  0.0239085 -0.0930495 -0.00470448  0.0324363 -0.0960997 -0.00518537  0.0237971 -0.0943809 -0.0039165  0.0257514 -0.129398 -0.00401306  0.035779 -0.1323 -0.00440526  0.034929 -0.118591 -0.0055995  0.0256705 -0.130546 -0.00333786  0.0253239 -0.116855 -0.0042417  0.0348775 -0.119812 -0.00466299  0.0252315 -0.118074 -0.00352859  0.0260898 -0.155568 -0.00356936  0.0369788 -0.15838 -0.00390482  0.0365093 -0.144065 -0.00498939  0.0260246 -0.156597 -0.00296569  0.0260054 -0.1423 -0.00378895  0.0364771 -0.145164 -0.00415277  0.0259327 -0.143397 -0.00315022  0.0257835 -0.183012 -0.00314665  0.0374321 -0.185733 -0.0034318  0.0373131 -0.170934 -0.00440741  0.0257334 -0.183914 -0.00261402  0.0260166 -0.169136 -0.00335598  0.0372952 -0.171909 -0.00366592  0.0259562 -0.170109 -0.00278878  0.0248913 -0.21151 -0.0027442  0.0372026 -0.21415 -0.00298309  0.0374036 -0.198964 -0.00385475  0.0248554 -0.2123 -0.00227666  0.0254071 -0.197133 -0.0029428  0.0373986 -0.19982 -0.00320435  0.0253642 -0.197986 -0.00244355  0.023478 -0.240868 -0.00236416  0.0363624 -0.243423 -0.00256181  0.0368481 -0.227946 -0.00333405  0.0234563 -0.241542 -0.00196075  0.0242492 -0.226085 -0.00255108  0.0368553 -0.228689 -0.00276971  0.0242177 -0.226823 -0.00211668  0.0216032 -0.270904 -0.00200796  0.0349758 -0.273384 -0.00216866  0.0357157 -0.25769 -0.00284553  0.0215944 -0.271481 -0.00166178  0.022595 -0.255802 -0.00218296  0.0357333 -0.258327 -0.00236154  0.0225798 -0.256435 -0.00180936  0.0193311 -0.301459 -0.00167656  0.0331144 -0.303862 -0.00180411  0.0340735 -0.288026 -0.00239205  0.0193344 -0.301938 -0.00138617  0.0205166 -0.286118 -0.0018394  0.0341011 -0.288565 -0.0019834  0.0205109 -0.286652 -0.0015223  0.0167168 -0.332391 -0.00136971  0.030839 -0.334722 -0.0014689  0.0319887 -0.318802 -0.00197339  0.0167307 -0.332789 -0.00112796  0.0180637 -0.316877 -0.00151992  0.0320247 -0.319251 -0.00163293  0.0180725 -0.317323 -0.0012548  0.0138192 -0.363571 -0.00109076  0.0282159 -0.365828 -0.00116515  0.0295252 -0.349882 -0.00159097  0.0138416 -0.363888 -0.0008955  0.0153035 -0.347948 -0.0012269  0.0295678 -0.350249 -0.00131345  0.015319 -0.348312 -0.0010097  0.0106874 -0.394885 -0.000839233  0.0253 -0.397077 -0.000892162  0.0267444 -0.381146 -0.00124621  0.0107167 -0.395139 -0.000683308  0.0122802 -0.379208 -0.000961304  0.0267911 -0.38144 -0.00102496  0.012306 -0.379501 -0.00078702  0.00737286 -0.426236 -0.000614882  0.0221508 -0.428363 -0.00065136  0.0237019 -0.412488 -0.000939369  0.00740719 -0.426426 -0.000496387  0.00905371 -0.410553 -0.0007236  0.0237522 -0.412718 -0.000768185  0.00908256 -0.410781 -0.000587702  0.00391555 -0.457539 -0.000420094  0.0188153 -0.459609 -0.000442982  0.0204515 -0.443818 -0.000671387  0.00395298 -0.457684 -0.000331402  0.0056603 -0.441889 -0.000513792  0.0205038 -0.443994 -0.000543594  0.00569606 -0.442064 -0.00041151  0.000357389 -0.488726 -0.000252724  0.0153422 -0.49074 -0.00026679  0.0170431 -0.475061 -0.000442028  0.000396252 -0.488825 -0.000192881  0.00215101 -0.473143 -0.000333548  0.0170944 -0.47519 -0.000351906  0.00218582 -0.473271 -0.000259876  -0.00327349 -0.519739 -0.000112534  0.0117679 -0.521708 -0.000120401  0.0135162 -0.506154 -0.000249386  -0.00323439 -0.519809 -7.34329e-05  -0.00145054 -0.504248 -0.000179291  0.0135655 -0.506245 -0.000190496  -0.00141144 -0.50434 -0.00013113  -0.00694466 -0.550536 6.19888e-06  0.0081315 -0.552464 -4.76837e-07  0.00990868 -0.537048 -9.17912e-05  -0.00690484 -0.550578 2.45571e-05  -0.0051024 -0.535158 -5.10216e-05  0.00995588 -0.537112 -5.84126e-05  -0.00506544 -0.535221 -2.28882e-05  -0.0106342 -0.581082 0.000113487  0.0044601 -0.582992 0.000104189  0.00625086 -0.567711 4.07696e-05  -0.0105925 -0.581116 0.000115156  -0.00878835 -0.565833 6.00815e-05  0.0062983 -0.567756 5.24521e-05  -0.00874805 -0.565878 6.96182e-05  -0.0142937 -0.611346 0.000221729  0.000805616 -0.613281 0.000207663  0.00257802 -0.598122 0.000164509  -0.014251 -0.61138 0.000202417  -0.0124679 -0.596243 0.000166416  0.00262642 -0.598163 0.000154734  -0.012429 -0.596282 0.000157833  0.00505611 -0.00700796 -0.00628066  0 0 0  0.00619377 -0.00997919 -0.00558496  0.00223286 -0.00449586 -0.00426626  0 0 0  0.00476414 -0.00770354 -0.00477386  0.00170488 -0.00308961 -0.00364685  0 0 0  0.00210626 -0.00494397 -0.00317669  0.00158376 -0.0034765 -0.00271034  0.0135163 -0.017526 -0.00907111  0.016423 -0.021359 -0.0085485  0.0117896 -0.0144045 -0.00940752  0.0129595 -0.018706 -0.00727296  0.00920714 -0.0119417 -0.00802588  0.0112343 -0.0155153 -0.00738072  0.00870071 -0.0129294 -0.00628734  0.021532 -0.0305433 -0.00968122  0.0260857 -0.0344577 -0.00944352  0.0219444 -0.0261494 -0.0112276  0.0211127 -0.0319672 -0.00798321  0.0176588 -0.0236789 -0.00952101  0.0214077 -0.0275852 -0.00916219  0.0171506 -0.0250157 -0.00776625  0.0284934 -0.0463112 -0.00944734  0.034542 -0.0501724 -0.00933862  0.0308073 -0.0404421 -0.0114276  0.0282392 -0.0477977 -0.00785542  0.0251423 -0.0380711 -0.00962925  0.0304625 -0.0419742 -0.00946879  0.0248128 -0.0395501 -0.00798106  0.0344123 -0.0647368 -0.00885415  0.0418077 -0.0685038 -0.00879478  0.0385184 -0.0575048 -0.0109301  0.0342703 -0.0662008 -0.00738096  0.0315849 -0.0551993 -0.00917959  0.0383233 -0.0590214 -0.00910115  0.0313908 -0.0566908 -0.00764489  0.0393034 -0.0855486 -0.0081172  0.0479036 -0.089189 -0.0080719  0.0450982 -0.0771221 -0.0101309  0.0392301 -0.0869271 -0.00676703  0.0369849 -0.0748548 -0.00849652  0.045001 -0.0785649 -0.00844646  0.0368822 -0.0762889 -0.00708389  0.0431908 -0.108445 -0.00733757  0.0528616 -0.111962 -0.00729322  0.0505613 -0.0989919 -0.00921869  0.0431588 -0.109721 -0.00611544  0.0413727 -0.0967468 -0.00772953  0.0505224 -0.10033 -0.00768566  0.0413203 -0.098084 -0.00644302  0.0461177 -0.133137 -0.00656247  0.056736 -0.136516 -0.00651693  0.0549356 -0.12281 -0.00828338  0.0461109 -0.134287 -0.00546551  0.0447717 -0.120575 -0.00694895  0.0549319 -0.124029 -0.00690293  0.044754 -0.121798 -0.0057888  0.048133 -0.15935 -0.0058136  0.0595845 -0.162606 -0.00576568  0.058266 -0.148287 -0.00736761  0.0481434 -0.160382 -0.00484061  0.0472381 -0.146061 -0.00618458  0.0582849 -0.149382 -0.00613737  0.0472379 -0.14716 -0.00514984  0.0493046 -0.18684 -0.00510263  0.0614843 -0.189962 -0.00505304  0.0606159 -0.175163 -0.00649047  0.0493281 -0.187746 -0.00424552  0.048821 -0.172941 -0.00545406  0.0606499 -0.176135 -0.00540519  0.0488379 -0.173918 -0.00453854  0.0496993 -0.215383 -0.0044322  0.0625086 -0.218387 -0.00438237  0.0620568 -0.203199 -0.00566149  0.0497338 -0.216177 -0.00368667  0.0495973 -0.200985 -0.00476217  0.0621015 -0.204052 -0.00471282  0.0496235 -0.201841 -0.00396132  0.0493952 -0.244778 -0.00380301  0.0627431 -0.247656 -0.00375485  0.0626668 -0.232183 -0.00488329  0.0494391 -0.245458 -0.00316048  0.0496309 -0.229977 -0.00411296  0.0627213 -0.232923 -0.00406337  0.0496701 -0.230721 -0.00341916  0.048463 -0.274843 -0.0032177  0.0622634 -0.277608 -0.00317192  0.0625266 -0.261921 -0.00415707  0.048515 -0.275425 -0.00267339  0.049006 -0.259729 -0.00350547  0.0625882 -0.262554 -0.00345778  0.049051 -0.260366 -0.00291252  0.04698 -0.305417 -0.00267696  0.0611562 -0.308062 -0.00263453  0.061717 -0.292242 -0.00348544  0.047039 -0.3059 -0.00222039  0.047787 -0.290067 -0.00294232  0.0617851 -0.292777 -0.0028975  0.047842 -0.290606 -0.00244236  0.0450145 -0.336354 -0.00218225  0.0594941 -0.338895 -0.00214219  0.0603174 -0.322992 -0.00286913  0.0450791 -0.336756 -0.00180864  0.0460559 -0.32084 -0.00242376  0.0603906 -0.323437 -0.00238276  0.0461153 -0.321289 -0.00200939  0.0426407 -0.36753 -0.00173402  0.0573585 -0.369959 -0.00169826  0.0584066 -0.354037 -0.00230837  0.0427082 -0.36785 -0.0014329  0.0438756 -0.35191 -0.00195289  0.0584826 -0.354401 -0.00191498  0.0439416 -0.352279 -0.00161552  0.0399189 -0.398829 -0.00133419  0.0548155 -0.401164 -0.00130153  0.0560572 -0.385257 -0.00180459  0.0399885 -0.399086 -0.00109959  0.0413222 -0.383162 -0.00152826  0.056134 -0.385548 -0.00149393  0.0413878 -0.383456 -0.001261  0.0369158 -0.430158 -0.000982523  0.0519414 -0.432392 -0.000955582  0.0533409 -0.41655 -0.0013597  0.0369854 -0.430349 -0.000804424  0.03845 -0.414487 -0.00115252  0.0534177 -0.416775 -0.00112295  0.0385194 -0.414717 -0.000946999  0.0336857 -0.461432 -0.00067997  0.0487936 -0.463585 -0.000657558  0.0503235 -0.447825 -0.00097394  0.0337529 -0.461576 -0.000552893  0.0353289 -0.445798 -0.000825167  0.0503983 -0.447995 -0.00080061  0.0353942 -0.445972 -0.000673532  0.0302851 -0.492584 -0.000426769  0.0454407 -0.494654 -0.000411034  0.04707 -0.479011 -0.00064826  0.030349 -0.492682 -0.000339985  0.0320048 -0.477018 -0.000547647  0.0471413 -0.479134 -0.000528336  0.0320702 -0.477146 -0.000441551  0.026757 -0.523558 -0.000219345  0.0419323 -0.525569 -0.000211  0.043637 -0.510045 -0.000380754  0.0268171 -0.523629 -0.000167847  0.0285373 -0.508088 -0.000317335  0.0437033 -0.510131 -0.000305176  0.0285964 -0.508178 -0.000249147  0.0231459 -0.554318 -5.31673e-05  0.0383265 -0.556273 -5.50747e-05  0.0400782 -0.540884 -0.000169754  0.0232038 -0.554361 -2.74181e-05  0.0249605 -0.538958 -0.000132561  0.0401402 -0.540944 -0.000128508  0.0250192 -0.539021 -9.41753e-05  0.0194845 -0.584842 8.79765e-05  0.0346613 -0.586775 7.29561e-05  0.0364389 -0.571502 -3.09944e-06  0.019542 -0.584879 8.91685e-05  0.0213223 -0.569602 1.95503e-05  0.0364995 -0.571546 1.14441e-05  0.0213766 -0.569647 3.29018e-05  0.015821 -0.615148 0.000224829  0.0309861 -0.617089 0.000193357  0.0327632 -0.601906 0.000139236  0.0158777 -0.615183 0.000204086  0.0176501 -0.600012 0.000154972  0.0328238 -0.601946 0.000131607  0.0177071 -0.600054 0.000145912  0.00884134 -0.012352 -0.00839686  0 0 0  0.0121249 -0.0175026 -0.00730157  0.00493772 -0.0103438 -0.00554585  0 0 0  0.00854081 -0.0133399 -0.00642467  0.00298423 -0.00665057 -0.00477123  0 0 0  0.00490939 -0.0109641 -0.00419545  0.00284735 -0.00717366 -0.00359654  0.0210904 -0.0229434 -0.0122447  0.0252202 -0.0276818 -0.0111604  0.0192515 -0.020792 -0.0122731  0.020498 -0.0244087 -0.00983191  0.015149 -0.0174386 -0.0108016  0.0188459 -0.0222582 -0.00964999  0.0146233 -0.0187157 -0.00848293  0.0319425 -0.0356639 -0.0132387  0.0373848 -0.0403207 -0.0123811  0.0319287 -0.0319722 -0.0147293  0.0314933 -0.0372509 -0.0109034  0.0266809 -0.0289386 -0.0129535  0.0314139 -0.0336491 -0.0120034  0.0261429 -0.0304951 -0.0105655  0.0415325 -0.0512646 -0.0130162  0.0484284 -0.0557691 -0.0122778  0.0434515 -0.0460292 -0.0150416  0.0412552 -0.0528299 -0.0108123  0.0368918 -0.0430993 -0.0132277  0.0430675 -0.0476837 -0.0124404  0.0365321 -0.0446942 -0.0109518  0.0498981 -0.0695839 -0.012238  0.058138 -0.0739328 -0.0115776  0.0537018 -0.062955 -0.0144045  0.0497447 -0.071081 -0.0101943  0.0458688 -0.0600909 -0.0126715  0.0534562 -0.0645253 -0.0119791  0.0456602 -0.0616368 -0.0105455  0.057038 -0.0903296 -0.0112309  0.0664726 -0.0945117 -0.0106356  0.0626317 -0.082483 -0.0133545  0.0569641 -0.0917152 -0.00936341  0.053624 -0.0796642 -0.0117512  0.0624759 -0.0839366 -0.0111284  0.0535124 -0.0811167 -0.00979495  0.0629627 -0.113182 -0.0101492  0.0734466 -0.117198 -0.00961018  0.0702165 -0.10428 -0.0121505  0.0629374 -0.114453 -0.00845981  0.060151 -0.101502 -0.010694  0.0701286 -0.10561 -0.0101314  0.0601044 -0.102841 -0.00891614  0.0677119 -0.137841 -0.00906849  0.0791119 -0.141685 -0.00858498  0.0764912 -0.128035 -0.0109115  0.0677164 -0.13898 -0.00755835  0.0654842 -0.125295 -0.00960612  0.0764376 -0.129233 -0.00909972  0.0654727 -0.126509 -0.00800753  0.0713389 -0.164024 -0.0080235  0.0835345 -0.167703 -0.00759196  0.0814968 -0.153448 -0.00969768  0.0713624 -0.165045 -0.00668478  0.069662 -0.150748 -0.00854039  0.0814745 -0.15452 -0.00808787  0.0696766 -0.151837 -0.00711775  0.0739198 -0.191484 -0.00702906  0.0868018 -0.194995 -0.00664949  0.0853152 -0.18026 -0.00853539  0.0739571 -0.192376 -0.00585675  0.0727586 -0.177602 -0.00751948  0.0853056 -0.181205 -0.00711918  0.0727861 -0.178565 -0.00626564  0.075532 -0.219991 -0.0060935  0.0890009 -0.223341 -0.00576091  0.0880197 -0.208223 -0.00743604  0.0755802 -0.220774 -0.00507498  0.0748422 -0.20561 -0.00655437  0.0880301 -0.209051 -0.00620294  0.074885 -0.206457 -0.0054605  0.0762658 -0.249344 -0.00521874  0.0902276 -0.252531 -0.00493169  0.0897114 -0.23713 -0.00640464  0.0763229 -0.250011 -0.00434685  0.0760068 -0.234566 -0.0056479  0.0897284 -0.237843 -0.00534368  0.0760564 -0.235298 -0.00470471  0.0762037 -0.279356 -0.00440693  0.0905741 -0.282388 -0.00416136  0.0904734 -0.266777 -0.00544524  0.0762682 -0.279929 -0.00366879  0.0763297 -0.264269 -0.00480509  0.0905058 -0.267389 -0.00454354  0.0763899 -0.264897 -0.00400209  0.0754379 -0.309871 -0.00365996  0.0901363 -0.312747 -0.00345445  0.0904086 -0.297005 -0.00455856  0.0755079 -0.310343 -0.00304747  0.0759068 -0.294553 -0.00402546  0.0904459 -0.297515 -0.00380492  0.0759709 -0.295082 -0.00335193  0.074048 -0.340739 -0.00297785  0.089004 -0.343468 -0.00280666  0.0896026 -0.327647 -0.00374627  0.0741231 -0.341132 -0.00247645  0.0748161 -0.32526 -0.00331044  0.0896519 -0.328072 -0.0031271  0.0748885 -0.3257 -0.00275588  0.0721226 -0.37184 -0.00236058  0.0872691 -0.374422 -0.00222397  0.0881543 -0.358584 -0.00300741  0.0722005 -0.372148 -0.00196338  0.0731506 -0.35626 -0.00266099  0.0882051 -0.358924 -0.00251174  0.0732245 -0.356618 -0.00221372  0.0697353 -0.403057 -0.00181317  0.0850127 -0.405505 -0.00170493  0.0861409 -0.389684 -0.00234628  0.0698135 -0.403304 -0.00150466  0.0709822 -0.387431 -0.00207806  0.086201 -0.389956 -0.00196004  0.0710599 -0.387717 -0.0017271  0.0669665 -0.434301 -0.00133371  0.0823224 -0.436619 -0.00125408  0.0836577 -0.42086 -0.00176549  0.067044 -0.434481 -0.0011065  0.0683978 -0.418674 -0.00156474  0.0837152 -0.421065 -0.00147581  0.0684721 -0.418894 -0.00129914  0.0638833 -0.465489 -0.000924826  0.0792718 -0.467691 -0.000867367  0.0807731 -0.452014 -0.00126147  0.0639586 -0.465624 -0.000763655  0.0654604 -0.449897 -0.00112057  0.0808375 -0.452167 -0.00105596  0.0655365 -0.450063 -0.00092864  0.06056 -0.496557 -0.000586033  0.075943 -0.498653 -0.000549793  0.0775764 -0.483086 -0.000840425  0.0606322 -0.496645 -0.000482321  0.0622513 -0.481034 -0.000746727  0.077636 -0.48319 -0.00070405  0.0623219 -0.481152 -0.000616312  0.0570545 -0.527453 -0.000316381  0.0724034 -0.529464 -0.000298262  0.0741317 -0.514009 -0.000499249  0.0571232 -0.527516 -0.000255823  0.0588267 -0.51202 -0.000442743  0.0741956 -0.514082 -0.000419617  0.0588965 -0.512103 -0.000362635  0.0534327 -0.558147 -0.000111103  0.0687313 -0.560092 -0.000112295  0.070518 -0.544756 -0.000239611  0.0534992 -0.558184 -8.4877e-05  0.0552578 -0.542819 -0.00020647  0.0705774 -0.544803 -0.000202656  0.0553222 -0.542876 -0.000165462  0.049747 -0.588628 4.74453e-05  0.0649946 -0.590544 2.95639e-05  0.0667999 -0.5753 -5.00679e-05  0.0498126 -0.588665 5.14984e-05  0.0515954 -0.573403 -2.7895e-05  0.0668674 -0.57534 -4.12464e-05  0.0516605 -0.573448 -1.40667e-05  0.0460448 -0.618949 0.000193357  0.06125 -0.620862 0.000154972  0.0630572 -0.605676 9.53674e-05  0.0461109 -0.618982 0.000177383  0.0478992 -0.603796 0.000119448  0.0631206 -0.605715 8.44002e-05  0.0479617 -0.603838 0.000112534  -0.0127784 -0.0117726 0.0134697  -0.00746288 -0.0062824 0.0108585  0 0 0  -0.0119014 -0.00572464 0.0148149  0 0 0  -0.00682186 -0.00518271 0.0100396  -0.00402746 -0.000978619 0.00846171  0 0 0  -0.00517617 -0.00716126 0.00773954  -0.00926252 -0.0079722 0.0117257  -0.00522907 -0.00279466 0.00935841  0 0 0  -0.00237116 -0.00214338 0.00584555  -0.00313303 -0.00392325 0.00659299  -0.0259565 -0.01849 0.0184071  -0.0214705 -0.0113154 0.0196567  -0.0218402 -0.0131748 0.0181429  -0.0163925 -0.0137853 0.0136142  -0.0132592 -0.00691097 0.0143802  -0.0196911 -0.0146008 0.0166318  -0.0208701 -0.0159737 0.0159104  -0.0172088 -0.00900738 0.0168972  -0.011709 -0.00914747 0.0122974  -0.0153859 -0.0116276 0.0143819  -0.0378863 -0.0291938 0.0192876  -0.0322414 -0.0202471 0.0219121  -0.0309844 -0.0243194 0.018893  -0.0251924 -0.0252593 0.0142555  -0.0211293 -0.016545 0.0160089  -0.0319858 -0.023441 0.0191629  -0.0311813 -0.0270503 0.0166984  -0.0263684 -0.0182868 0.01881  -0.0208593 -0.0191082 0.0141504  -0.0260867 -0.021099 0.0165656  -0.0492671 -0.0430803 0.0184906  -0.0430854 -0.0329466 0.0215721  -0.0402932 -0.0388382 0.0181158  -0.0336319 -0.0398653 0.0136979  -0.0289809 -0.0296784 0.0158565  -0.0436427 -0.035767 0.019022  -0.041055 -0.0413306 0.0160518  -0.0356329 -0.0311863 0.0186224  -0.0294375 -0.0321891 0.0140803  -0.0361631 -0.0338206 0.0164931  -0.0601119 -0.0597409 0.0169659  -0.0538236 -0.048656 0.0201142  -0.0495831 -0.056176 0.0166905  -0.0418769 -0.0572258 0.0126238  -0.0369633 -0.0459186 0.0148807  -0.0547589 -0.0510949 0.0177786  -0.0505903 -0.058371 0.0147743  -0.0449492 -0.0471794 0.0174496  -0.0377767 -0.0482236 0.0132062  -0.0458637 -0.0495344 0.0154598  -0.0704216 -0.0787642 0.0152268  -0.0642551 -0.0668912 0.0182242  -0.0587013 -0.0758546 0.0150249  -0.049929 -0.0769397 0.0113413  -0.0449714 -0.0647532 0.0135486  -0.0653315 -0.0689837 0.0161054  -0.0597841 -0.0777697 0.0132747  -0.0541711 -0.0657383 0.015867  -0.0459275 -0.0668074 0.0119972  -0.0552319 -0.0678004 0.0140357  -0.0801882 -0.0998134 0.0134559  -0.0742817 -0.0872633 0.0162356  -0.0675375 -0.097534 0.0133266  -0.0577534 -0.0986729 0.0100508  -0.0528851 -0.0857683 0.012109  -0.0753762 -0.0890546 0.014333  -0.068603 -0.0991825 0.0117517  -0.0631591 -0.0864552 0.0141683  -0.0538717 -0.0875686 0.0106959  -0.0642423 -0.088243 0.0125074  -0.0894171 -0.122632 0.0117929  -0.0838177 -0.109489 0.0143003  -0.0760197 -0.120925 0.0116968  -0.065317 -0.122142 0.00879931  -0.0606142 -0.108637 0.0106862  -0.0848669 -0.111021 0.0126076  -0.077027 -0.122347 0.0102971  -0.0718247 -0.109022 0.0124965  -0.0615678 -0.110202 0.00941825  -0.0728651 -0.110563 0.0110114  -0.0981176 -0.146987 0.0102339  -0.0928605 -0.133324 0.0124846  -0.0841203 -0.145816 0.0101767  -0.0725995 -0.147117 0.00765181  -0.0681016 -0.133102 0.00934029  -0.0938362 -0.134631 0.0109947  -0.0850459 -0.147025 0.00894713  -0.0801175 -0.133189 0.0109196  -0.068994 -0.134451 0.00821662  -0.0810874 -0.13451 0.00960612  -0.106308 -0.172689 0.00882864  -0.101383 -0.158574 0.0108118  -0.0918207 -0.171994 0.00877786  -0.0795881 -0.173388 0.00658488  -0.0753124 -0.158943 0.00809073  -0.102273 -0.159686 0.00951266  -0.0926628 -0.173026 0.00771046  -0.088019 -0.158748 0.00945997  -0.076129 -0.160099 0.00710869  -0.0889044 -0.159875 0.00831318  -0.114004 -0.199547 0.00752926  -0.109416 -0.185048 0.00927901  -0.0991269 -0.199295 0.00750089  -0.0862796 -0.200774 0.00562882  -0.0822308 -0.185968 0.00694752  -0.11022 -0.185986 0.00816083  -0.0998818 -0.200156 0.00658512  -0.0955212 -0.185508 0.00812221  -0.0829706 -0.186949 0.00609875  -0.0963216 -0.186461 0.00713229  -0.121227 -0.227402 0.0063715  -0.116953 -0.212583 0.0078845  -0.106042 -0.227535 0.00634003  -0.0926737 -0.229095 0.0047493  -0.0888511 -0.213999 0.00590372  -0.117671 -0.213365 0.00693274  -0.106716 -0.228254 0.00556493  -0.102631 -0.2133 0.00690389  -0.0895116 -0.214824 0.0051806  -0.103346 -0.214097 0.0060606  -0.127996 -0.256084 0.00530386  -0.124034 -0.241007 0.00661874  -0.112582 -0.25657 0.00528979  -0.0987754 -0.258199 0.00397015  -0.0951731 -0.242871 0.0049603  -0.124671 -0.24165 0.00582147  -0.113174 -0.257152 0.00464392  -0.109356 -0.241955 0.00579953  -0.0957601 -0.243555 0.00435209  -0.109991 -0.242613 0.00509048  -0.134336 -0.285454 0.00436544  -0.130659 -0.270179 0.00547576  -0.118755 -0.286238 0.00434637  -0.104588 -0.287928 0.0032568  -0.101202 -0.272432 0.00410819  -0.131216 -0.270697 0.00481844  -0.119273 -0.286708 0.00381708  -0.115712 -0.271326 0.00480247  -0.101715 -0.27299 0.0036056  -0.116267 -0.271859 0.00421667  -0.140264 -0.315359 0.00350881  -0.13687 -0.299942 0.00445247  -0.124581 -0.316415 0.00350428  -0.110123 -0.318149 0.00263786  -0.106943 -0.302536 0.00334859  -0.137354 -0.300348 0.0039227  -0.125025 -0.316774 0.00308084  -0.121709 -0.301264 0.00391102  -0.107389 -0.302981 0.00294089  -0.122191 -0.301686 0.00343657  -0.145809 -0.345682 0.00277328  -0.142668 -0.330172 0.00354171  -0.130072 -0.346955 0.00276208  -0.115386 -0.348729 0.00207758  -0.112406 -0.333051 0.00267315  -0.143081 -0.330482 0.00312495  -0.13045 -0.347229 0.00243139  -0.127365 -0.331639 0.00311828  -0.112785 -0.333398 0.00235081  -0.127778 -0.331963 0.00274348  -0.150993 -0.37629 0.00211382  -0.148101 -0.360732 0.00274467  -0.135252 -0.377757 0.00211692  -0.12039 -0.379554 0.00160789  -0.117598 -0.363854 0.00208473  -0.148449 -0.360958 0.00242877  -0.135564 -0.377945 0.00186849  -0.132698 -0.362323 0.00242472  -0.117919 -0.364113 0.0018363  -0.133045 -0.362562 0.00213718  -0.155847 -0.407086 0.00157356  -0.153173 -0.391524 0.0020566  -0.140138 -0.408697 0.00156927  -0.125151 -0.410515 0.00119615  -0.122537 -0.394833 0.00157738  -0.153457 -0.391676 0.00182796  -0.140392 -0.408826 0.00139093  -0.137729 -0.393208 0.00182843  -0.122798 -0.39502 0.00139451  -0.138013 -0.393374 0.00161743  -0.1604 -0.437963 0.00110817  -0.157936 -0.422428 0.00148106  -0.144758 -0.439697 0.00111604  -0.129685 -0.441523 0.000871181  -0.127235 -0.425889 0.00115585  -0.158163 -0.422521 0.0013268  -0.144954 -0.439767 0.000997782  -0.142478 -0.424189 0.00132918  -0.127444 -0.426015 0.00102758  -0.142705 -0.424295 0.00118256  -0.164686 -0.468847 0.000761032  -0.162399 -0.453367 0.00101233  -0.149133 -0.470657 0.000758648  -0.134011 -0.472491 0.000600815  -0.131711 -0.456936 0.000811338  -0.162571 -0.453414 0.00091958  -0.149281 -0.470693 0.000687599  -0.146972 -0.455179 0.000923157  -0.13187 -0.457013 0.000729561  -0.147145 -0.455239 0.000830412  -0.168743 -0.499653 0.000489235  -0.166621 -0.484251 0.000654459  -0.153297 -0.501522 0.000493765  -0.138152 -0.503358 0.00041461  -0.135984 -0.487896 0.000549078  -0.166745 -0.484264 0.00061059  -0.153399 -0.501525 0.000459194  -0.151238 -0.486098 0.000613213  -0.136102 -0.487937 0.000502586  -0.151364 -0.486125 0.000561953  -0.172622 -0.530337 0.000326157  -0.170615 -0.515022 0.000403643  -0.157278 -0.532221 0.00031352  -0.142132 -0.534065 0.000270844  -0.140075 -0.518711 0.000357628  -0.1707 -0.515018 0.000393867  -0.157349 -0.532217 0.000304222  -0.155307 -0.516886 0.000391483  -0.140158 -0.51873 0.000338793  -0.155392 -0.516893 0.000371695  -0.176385 -0.560858 0.000213385  -0.174457 -0.545623 0.000251532  -0.16112 -0.56274 0.000195503  -0.145984 -0.564588 0.00018239  -0.144008 -0.549338 0.00022769  -0.174517 -0.545619 0.000260592  -0.161171 -0.562732 0.000202179  -0.159212 -0.547495 0.00024724  -0.144071 -0.549346 0.000226498  -0.159273 -0.547497 0.000246286  -0.180112 -0.591253 0.000144243  -0.178193 -0.576062 0.000167608  -0.164882 -0.593104 0.000102043  -0.149764 -0.594938 8.55923e-05  -0.147821 -0.57977 0.000124931  -0.178246 -0.576072 0.000178576  -0.164936 -0.593106 0.000115156  -0.163003 -0.577927 0.000147581  -0.147875 -0.579778 0.000138283  -0.163056 -0.577935 0.00015831  -0.00683411 -0.00181873 0.010426  0 0 0  -0.00374956 -0.00247702 0.00671721  -0.00232966 0.000607312 0.0055697  0 0 0  -0.00514276 -0.00350681 0.00837469  -0.0030794 6.06477e-06 0.00690961  0 0 0  -0.00129295 -0.000508681 0.0039165  -0.00173838 -0.00112413 0.00485182  -0.0132651 -0.00970729 0.0128837  -0.00927188 -0.0107078 0.00913358  -0.007433 -0.00404298 0.00956988  -0.0125725 -0.0120066 0.0113771  -0.01011 -0.00521393 0.0119238  -0.00647743 -0.00606561 0.00824618  -0.00886379 -0.00730379 0.0102525  -0.0196514 -0.021349 0.0133309  -0.0149364 -0.0226855 0.00951052  -0.0122284 -0.0139106 0.0106034  -0.0198062 -0.0238051 0.0118744  -0.0164258 -0.0150667 0.0132914  -0.0121018 -0.0162753 0.00946212  -0.0162216 -0.0174986 0.0118022  -0.0262549 -0.0363246 0.0127921  -0.0205885 -0.0377988 0.00910592  -0.0173844 -0.0274781 0.0104742  -0.0268507 -0.0386827 0.0113959  -0.0229275 -0.0284372 0.0131478  -0.0177624 -0.0298713 0.009372  -0.0233415 -0.0308744 0.011718  -0.0330123 -0.0541551 0.011811  -0.0262677 -0.0556616 0.00837326  -0.0227871 -0.0441522 0.0098269  -0.0338148 -0.0563155 0.0104911  -0.0296196 -0.0449026 0.0123405  -0.023422 -0.0464109 0.00876737  -0.0303403 -0.0471806 0.0109794  -0.0398335 -0.0743737 0.0106521  -0.0319896 -0.0758808 0.00752091  -0.0283771 -0.0634419 0.00895381  -0.0407079 -0.0762986 0.00943136  -0.0364183 -0.063979 0.0112445  -0.0291238 -0.0654974 0.00795627  -0.0372711 -0.0660343 0.00997257  -0.0466325 -0.0966163 0.00945973  -0.0377353 -0.098126 0.00665236  -0.0340877 -0.0849364 0.0080049  -0.0475047 -0.0983093 0.00834966  -0.0432401 -0.0852506 0.0100565  -0.0348613 -0.0867684 0.0070858  -0.0441206 -0.0870698 0.00889039  -0.0533375 -0.120576 0.00830603  -0.0434681 -0.122103 0.00582004  -0.0398511 -0.108301 0.00706148  -0.0541669 -0.122047 0.00731444  -0.0499976 -0.108385 0.00887728  -0.0406052 -0.109912 0.00623083  -0.0508541 -0.109976 0.00782585  -0.0599003 -0.146016 0.00722551  -0.0491577 -0.147573 0.00504565  -0.0456121 -0.13326 0.00616431  -0.0606691 -0.147288 0.00635004  -0.0566376 -0.133113 0.00775838  -0.0463202 -0.134664 0.00542569  -0.0574394 -0.134494 0.00682473  -0.066287 -0.172717 0.00622821  -0.0547712 -0.174313 0.00433779  -0.051324 -0.159581 0.00533056  -0.0669866 -0.173804 0.00546813  -0.063114 -0.159209 0.00671864  -0.051975 -0.160795 0.00468373  -0.0638514 -0.160397 0.00590038  -0.0724803 -0.200498 0.00531912  -0.0602905 -0.202136 0.00369573  -0.0569551 -0.18706 0.0045681  -0.0731087 -0.201422 0.00466537  -0.0694073 -0.186472 0.00576663  -0.0575438 -0.1881 0.00400901  -0.0700725 -0.187487 0.005059  -0.0784646 -0.229178 0.00449324  -0.0656943 -0.230856 0.00311685  -0.0624813 -0.21551 0.00387573  -0.0790236 -0.22995 0.00394034  -0.0754955 -0.214724 0.00489926  -0.0630074 -0.216392 0.00339913  -0.0760919 -0.215581 0.00429559  -0.0842373 -0.258604 0.00374889  -0.0709733 -0.260318 0.00259614  -0.0678858 -0.244764 0.0032506  -0.0847294 -0.259244 0.00328636  -0.0813762 -0.243795 0.00411415  -0.0683502 -0.245503 0.00285029  -0.0819029 -0.244511 0.00360608  -0.0897931 -0.288617 0.00307989  -0.0761116 -0.290364 0.00213313  -0.0731541 -0.274665 0.00268865  -0.0902202 -0.289135 0.00270247  -0.0870388 -0.273534 0.00340796  -0.0735599 -0.275275 0.0023582  -0.0875014 -0.274122 0.00298738  -0.0951334 -0.319089 0.0024879  -0.0811071 -0.32086 0.00172305  -0.0782787 -0.305067 0.00219035  -0.0954999 -0.319501 0.00218344  -0.0924886 -0.303792 0.00277901  -0.0786276 -0.305563 0.00192261  -0.0928861 -0.304267 0.00243688  -0.100258 -0.349882 0.00196671  -0.0859494 -0.351672 0.00136542  -0.0832508 -0.335838 0.00175071  -0.100566 -0.350199 0.00172997  -0.0977188 -0.334441 0.00222158  -0.0835472 -0.336232 0.00153875  -0.0980589 -0.334815 0.00195003  -0.105173 -0.38089 0.00151658  -0.0906398 -0.382692 0.00105739  -0.0880675 -0.366857 0.00136876  -0.105428 -0.381127 0.00133562  -0.10274 -0.365355 0.00173664  -0.0883138 -0.367162 0.00120616  -0.103022 -0.365642 0.00152707  -0.109884 -0.412 0.00113511  -0.0951748 -0.41381 0.000798702  -0.092725 -0.398014 0.00104356  -0.110089 -0.412167 0.00100541  -0.10755 -0.396426 0.00131989  -0.0929258 -0.398243 0.00092268  -0.107783 -0.396637 0.0011642  -0.114403 -0.443129 0.000822067  -0.099561 -0.444942 0.000588655  -0.0972285 -0.429214 0.000773191  -0.114563 -0.443241 0.000732899  -0.112165 -0.427556 0.00097394  -0.0973861 -0.429379 0.000688314  -0.112348 -0.427705 0.000863552  -0.118738 -0.474188 0.00057435  -0.1038 -0.476005 0.000423908  -0.101578 -0.460374 0.000557423  -0.118856 -0.474254 0.000519991  -0.11659 -0.45866 0.000693321  -0.101698 -0.460485 0.000501633  -0.11673 -0.458758 0.000620604  -0.122905 -0.505122 0.000389099  -0.107901 -0.506943 0.000301123  -0.10578 -0.491421 0.00039053  -0.122989 -0.505158 0.000359535  -0.12084 -0.489663 0.000478268  -0.105867 -0.491492 0.000358343  -0.120942 -0.489724 0.000435352  -0.126913 -0.535872 0.000253916  -0.111869 -0.537698 0.000211239  -0.109838 -0.522302 0.000267506  -0.126973 -0.535886 0.00024581  -0.124924 -0.52051 0.000318766  -0.109901 -0.522344 0.000253439  -0.124998 -0.520545 0.000298977  -0.130783 -0.566418 0.000148773  -0.115723 -0.568243 0.000139475  -0.113762 -0.552977 0.000175953  -0.130832 -0.566422 0.000157595  -0.128862 -0.55116 0.000203848  -0.113809 -0.552997 0.000176191  -0.128916 -0.551179 0.000201941  -0.134556 -0.596746 3.83854e-05  -0.119495 -0.598536 6.22272e-05  -0.117565 -0.583416 9.01222e-05  -0.134611 -0.596744 7.05719e-05  -0.132672 -0.581597 0.000104427  -0.117614 -0.583422 0.000106096  -0.132726 -0.581608 0.000118494  -0.00350791 -0.000296056 0.00611448  0 0 0  -0.00151297 -0.00160295 0.00325537  -0.000993159 0.00106066 0.00265861  0 0 0  -0.00256699 -0.00189179 0.00497961  -0.00162275 0.00092569 0.00407958  0 0 0  -0.000522103 -2.21133e-05 0.00189614  -0.000875175 -0.000175387 0.00289655  -0.00674944 -0.00766093 0.00764751  -0.00380071 -0.00941244 0.00450921  -0.00302754 -0.0029254 0.00463438  -0.00640878 -0.00985649 0.00682116  -0.00512522 -0.00330153 0.00706959  -0.00262395 -0.00489202 0.00404453  -0.00444947 -0.00529352 0.00613761  -0.0103177 -0.0195538 0.00792336  -0.00637284 -0.0215307 0.00472784  -0.00501183 -0.0126987 0.00519729  -0.0105012 -0.0219235 0.00712204  -0.00847152 -0.0131138 0.00788927  -0.00505063 -0.0150092 0.00469446  -0.00843126 -0.0154475 0.00707722  -0.0142722 -0.0349079 0.00759506  -0.00920415 -0.0369703 0.00452423  -0.0074333 -0.0265173 0.00514936  -0.0147414 -0.0372219 0.00681472  -0.012255 -0.0268287 0.00780606  -0.00775671 -0.0288703 0.00466061  -0.0126041 -0.0291999 0.00701547  -0.0185196 -0.0531333 0.00700879  -0.0122933 -0.0551913 0.00414681  -0.0102393 -0.0435157 0.00483012  -0.0191281 -0.0552828 0.0062604  -0.0163612 -0.0436827 0.00732279  -0.0107152 -0.045757 0.0043509  -0.016915 -0.0459329 0.00655723  -0.0230082 -0.0737529 0.00631404  -0.0156447 -0.0757683 0.00370431  -0.0133902 -0.0631408 0.00438929  -0.0236687 -0.075697 0.00561213  -0.020736 -0.0631559 0.00666738  -0.0139356 -0.0652017 0.00393081  -0.0213792 -0.0652161 0.00594187  -0.0276879 -0.0964188 0.00559783  -0.0192477 -0.0983864 0.00325394  -0.0168536 -0.0849837 0.00390673  -0.0283483 -0.098146 0.00495553  -0.0253263 -0.0848405 0.00595403  -0.0174158 -0.086838 0.00347924  -0.025993 -0.0866865 0.00528216  -0.0325001 -0.120806 0.00490093  -0.0230663 -0.122736 0.00282288  -0.0205831 -0.10871 0.00342321  -0.033131 -0.122324 0.00432324  -0.0300792 -0.108401 0.00524282  -0.021131 -0.110355 0.00303531  -0.0307284 -0.110033 0.0046339  -0.0373983 -0.146678 0.00424957  -0.0270668 -0.148583 0.00242496  -0.0245298 -0.13404 0.00296593  -0.0379838 -0.147998 0.00373983  -0.0349394 -0.133561 0.00456762  -0.0250456 -0.135483 0.00261998  -0.0355508 -0.134988 0.00402498  -0.0423361 -0.173791 0.00364804  -0.0312046 -0.175684 0.0020628  -0.0286459 -0.160728 0.00254035  -0.0428691 -0.174931 0.00320411  -0.0398628 -0.160079 0.00393987  -0.0291194 -0.161984 0.00223923  -0.0404238 -0.161318 0.00346422  -0.0472825 -0.201967 0.00310349  -0.0354484 -0.203855 0.00174093  -0.0328882 -0.188562 0.00215721  -0.0477599 -0.20294 0.00272346  -0.0448078 -0.187748 0.00336814  -0.0333147 -0.189644 0.00189757  -0.0453154 -0.188812 0.00295734  -0.052205 -0.231005 0.00261211  -0.0397599 -0.232893 0.00145411  -0.0372181 -0.217347 0.00181198  -0.0526274 -0.231828 0.00229001  -0.049746 -0.216376 0.0028491  -0.0375959 -0.218271 0.00159311  -0.0501972 -0.217283 0.00249934  -0.057085 -0.260762 0.00217128  -0.0441157 -0.262649 0.00120068  -0.0416024 -0.246909 0.00150681  -0.057454 -0.261447 0.00190425  -0.0546494 -0.245794 0.0023849  -0.0419329 -0.247688 0.00132418  -0.055047 -0.246556 0.00209165  -0.0618987 -0.291064 0.0017786  -0.0484825 -0.292951 0.00097847  -0.0460123 -0.277087 0.00123382  -0.0622168 -0.291627 0.00155997  -0.0594989 -0.275841 0.00196791  -0.0462973 -0.277735 0.00108552  -0.0598438 -0.276474 0.00172591  -0.0666347 -0.321793 0.00143433  -0.0528445 -0.323676 0.000787258  -0.0504231 -0.307734 0.000998735  -0.0669041 -0.322245 0.00126028  -0.0642749 -0.306373 0.00160074  -0.0506647 -0.308265 0.000879526  -0.0645705 -0.30689 0.00140548  -0.0712751 -0.3528 0.00113392  -0.0571738 -0.35468 0.000622272  -0.0548118 -0.338718 0.000792742  -0.071499 -0.353158 0.000997543  -0.0689654 -0.337257 0.00127769  -0.0550127 -0.339145 0.000701427  -0.0692129 -0.33767 0.00112343  -0.075814 -0.383995 0.000878811  -0.061461 -0.385866 0.000484467  -0.0591595 -0.369919 0.000619888  -0.0759962 -0.384266 0.000776529  -0.0735555 -0.368371 0.00100017  -0.0593228 -0.370253 0.00055027  -0.0737603 -0.368694 0.00088191  -0.0802393 -0.415252 0.00066328  -0.0656841 -0.417114 0.000372171  -0.0634503 -0.401228 0.000473738  -0.0803833 -0.415452 0.000589609  -0.0780389 -0.399608 0.00076437  -0.0635793 -0.401483 0.0004251  -0.0782032 -0.399854 0.000677347  -0.0845537 -0.446505 0.000492334  -0.0698402 -0.448358 0.000285625  -0.0676723 -0.432552 0.000360489  -0.0846624 -0.446644 0.000442505  -0.0824084 -0.430874 0.000572681  -0.06777 -0.432738 0.000326872  -0.0825362 -0.431052 0.000511169  -0.0887473 -0.477657 0.000357389  -0.0739155 -0.479502 0.000221491  -0.0718157 -0.46381 0.000270844  -0.0888262 -0.477749 0.000325441  -0.0866628 -0.462085 0.00041914  -0.0718863 -0.463941 0.000250816  -0.0867579 -0.46221 0.000379086  -0.0928254 -0.50867 0.000258446  -0.077909 -0.510507 0.000176668  -0.0758724 -0.494937 0.000208139  -0.0928795 -0.508723 0.000242233  -0.0907984 -0.493174 0.00030303  -0.0759218 -0.495022 0.000197172  -0.0908666 -0.493255 0.000279903  -0.096782 -0.539475 0.000184298  -0.0818117 -0.541306 0.000145674  -0.0798373 -0.52588 0.000162363  -0.0968204 -0.5395 0.000179291  -0.0948162 -0.524088 0.000217676  -0.0798697 -0.525929 0.000159979  -0.0948629 -0.524136 0.000207901  -0.100628 -0.570057 0.000122309  -0.0856304 -0.571872 0.000122309  -0.0837095 -0.556598 0.000131845  -0.100659 -0.570057 0.00013113  -0.098716 -0.554787 0.00015378  -0.0837305 -0.556618 0.000134945  -0.0987515 -0.554809 0.00015521  -0.104371 -0.600329 4.29153e-05  -0.0893681 -0.602105 9.29832e-05  -0.0874872 -0.587038 9.77516e-05  -0.104415 -0.600318 7.1764e-05  -0.102508 -0.585227 9.08375e-05  -0.0875058 -0.587032 0.000110149  -0.102544 -0.585228 0.000104666  -0.000776507 -2.6226e-06 0.00179362  0 0 0  0.000411928 -0.00170937 -0.000211477  0.000182718 0.000944436 -0.000240088  0 0 0  -0.000530645 -0.00155348 0.00151348  -0.000391193 0.00106025 0.00119877  0 0 0  0.000133552 -0.000104368 -0.000145674  -0.000184745 -9.26852e-06 0.000871897  -0.00137533 -0.00717247 0.00235844  0.000988007 -0.00957525 -0.000144005  0.000826374 -0.00309601 -0.000289917  -0.00136586 -0.00932613 0.00217247  -0.0010647 -0.00286582 0.00215387  0.000713632 -0.00501958 -0.000177383  -0.00092411 -0.00481457 0.00192356  -0.00224295 -0.0191594 0.0025034  0.00134498 -0.0218236 -7.05719e-05  0.0013988 -0.0129564 -0.000204563  -0.00246057 -0.0214963 0.00231862  -0.00175801 -0.0126466 0.0024786  0.00120649 -0.0152306 -9.58443e-05  -0.00187412 -0.0149433 0.00228858  -0.00352678 -0.034749 0.00242043  0.00131994 -0.0374606 -4.91142e-05  0.00166196 -0.0269313 -0.000148773  -0.00388405 -0.0370453 0.00223112  -0.00283027 -0.0265462 0.00248671  0.00138721 -0.0292617 -5.05447e-05  -0.00312853 -0.0288916 0.00229645  -0.0052402 -0.0532399 0.00222445  0.000833511 -0.0558936 -6.77109e-05  0.00146753 -0.0441193 -0.000136614  -0.00567037 -0.0553904 0.00203276  -0.0043292 -0.0436552 0.0023365  0.00113696 -0.046355 -5.24521e-05  -0.00473022 -0.0458971 0.00214314  -0.00737143 -0.0741369 0.00198078  -0.000133753 -0.0767021 -0.000106335  0.000768661 -0.0639499 -0.000156164  -0.00782931 -0.0760981 0.00179625  -0.00625324 -0.0633997 0.00210881  0.00041002 -0.0660211 -8.46386e-05  -0.0067032 -0.0654691 0.00191855  -0.00989479 -0.0970959 0.00172257  -0.00157148 -0.0995609 -0.000149012  -0.000432193 -0.0860156 -0.000189304  -0.0103498 -0.0988525 0.00154972  -0.00858581 -0.0853691 0.0018537  -0.000795305 -0.0878935 -0.000126839  -0.00904572 -0.0872389 0.00167394  -0.0127629 -0.12179 0.00147319  -0.00344425 -0.124171 -0.000186682  -0.00210458 -0.109984 -0.000224352  -0.0131972 -0.123345 0.00131869  -0.0112867 -0.109231 0.00159693  -0.00245565 -0.111662 -0.000168324  -0.0117347 -0.110896 0.00143266  -0.0159324 -0.147975 0.00124097  -0.00571239 -0.15028 -0.000214577  -0.00420392 -0.135569 -0.000253439  -0.0163338 -0.149337 0.00110459  -0.0143121 -0.134701 0.00135565  -0.00453174 -0.137052 -0.000202179  -0.0147318 -0.136169 0.00120974  -0.0193503 -0.1754 0.00103331  -0.00832498 -0.177647 -0.000230789  -0.00668049 -0.16252 -0.000273228  -0.0197129 -0.176582 0.000917912  -0.0176107 -0.161534 0.0011344  -0.00697803 -0.163818 -0.00022459  -0.0179954 -0.162814 0.00100851  -0.0229734 -0.203876 0.000850201  -0.0112395 -0.206069 -0.000234842  -0.0094831 -0.190612 -0.000279903  -0.0232955 -0.204891 0.000753403  -0.0211374 -0.189508 0.000940084  -0.00974751 -0.191738 -0.000234127  -0.0214812 -0.190616 0.000834227  -0.0267568 -0.233195 0.000692606  -0.0144044 -0.235349 -0.000229359  -0.0125628 -0.219645 -0.000277042  -0.0270381 -0.234059 0.000614643  -0.0248446 -0.218428 0.000770092  -0.0127928 -0.220612 -0.000233412  -0.0251486 -0.219377 0.000682354  -0.0306669 -0.263209 0.000555515  -0.0177805 -0.265321 -0.000216246  -0.0158728 -0.249438 -0.00026536  -0.030908 -0.263934 0.00049305  -0.0286967 -0.248115 0.000623465  -0.0160686 -0.250258 -0.000223637  -0.028959 -0.248918 0.000552654  -0.0346643 -0.293741 0.000441313  -0.0213224 -0.295822 -0.000195503  -0.0193696 -0.279825 -0.000245333  -0.0348673 -0.294342 0.000393629  -0.0326536 -0.278407 0.00049758  -0.0195326 -0.280513 -0.000206709  -0.0328779 -0.279078 0.000442028  -0.0387229 -0.324672 0.000345469  -0.0249966 -0.326716 -0.0001688  -0.0230131 -0.310659 -0.00021863  -0.0388892 -0.32516 0.000309944  -0.0366867 -0.309155 0.000392675  -0.0231454 -0.311227 -0.000183105  -0.0368718 -0.309708 0.000350952  -0.0428076 -0.355855 0.000267506  -0.0287631 -0.357869 -0.000139952  -0.0267655 -0.341805 -0.000187874  -0.0429415 -0.356243 0.000243664  -0.0407605 -0.340227 0.000305653  -0.0268698 -0.342265 -0.00015521  -0.0409124 -0.340674 0.000275612  -0.046901 -0.387195 0.00020504  -0.0325952 -0.389175 -0.000105858  -0.0305946 -0.373144 -0.000152826  -0.0470045 -0.387496 0.000189304  -0.044853 -0.371502 0.000236511  -0.0306726 -0.373508 -0.000123262  -0.0449729 -0.371855 0.000216007  -0.0509765 -0.418574 0.000160933  -0.0364611 -0.420526 -7.03335e-05  -0.0344694 -0.404567 -0.000114441  -0.0510528 -0.4188 0.000153303  -0.048939 -0.402874 0.000181913  -0.0345247 -0.404848 -8.82149e-05  -0.0490313 -0.403145 0.000169754  -0.0550213 -0.449925 0.000130415  -0.0403423 -0.451845 -3.12328e-05  -0.0383654 -0.435983 -7.24792e-05  -0.0550747 -0.450086 0.000127077  -0.0530019 -0.434248 0.000146627  -0.0384014 -0.436194 -5.03063e-05  -0.0530677 -0.43445 0.000140667  -0.0590167 -0.481155 0.000113726  -0.044214 -0.483053 6.4373e-06  -0.0422597 -0.467314 -3.12328e-05  -0.0590506 -0.481265 0.000115633  -0.0570228 -0.465547 0.000121355  -0.0422797 -0.467465 -1.26362e-05  -0.0570683 -0.465691 0.000120163  -0.0629573 -0.512229 0.000106573  -0.0480647 -0.514099 4.55379e-05  -0.0461345 -0.498496 1.12057e-05  -0.0629754 -0.512295 0.000110388  -0.060993 -0.496705 0.000111818  -0.0461428 -0.498599 2.6226e-05  -0.0610199 -0.496802 0.000113487  -0.0668285 -0.543078 0.000108719  -0.051877 -0.544929 8.29697e-05  -0.0499773 -0.52948 5.29289e-05  -0.0668359 -0.543111 0.000114679  -0.064899 -0.527672 0.000109196  -0.0499759 -0.529542 6.41346e-05  -0.0649133 -0.52773 0.00011301  -0.070631 -0.57368 0.00011158  -0.0556471 -0.575501 0.00012064  -0.0537791 -0.56022 9.56059e-05  -0.0706308 -0.573682 0.000118494  -0.068737 -0.558404 0.00011301  -0.0537684 -0.56025 0.000101566  -0.0687418 -0.558431 0.000118256  -0.0743501 -0.603912 0.000111103  -0.0593448 -0.605718 0.000156641  -0.0575235 -0.590658 0.00013566  -0.0743463 -0.603901 0.000123262  -0.072499 -0.588842 0.000115395  -0.0575068 -0.59066 0.000138521  -0.0724983 -0.588842 0.000122547  0.00175251 -0.000573516 -0.00246406  0 0 0  0.00232191 -0.00263107 -0.00361228  0.00130009 0.000385761 -0.00309467  0 0 0  0.00135259 -0.00206751 -0.00192094  0.000742935 0.000724971 -0.00166821  0 0 0  0.000780046 -0.000612438 -0.00216436  0.000450626 -0.000303388 -0.00115776  0.00363436 -0.00804847 -0.00286388  0.00574446 -0.0110488 -0.00468016  0.00461921 -0.00441158 -0.0051043  0.00333583 -0.0101469 -0.00243402  0.00270328 -0.00360841 -0.00271177  0.00402981 -0.0062623 -0.00430202  0.00234818 -0.00550127 -0.00225735  0.0053865 -0.0202144 -0.00284886  0.00899825 -0.0235485 -0.00476098  0.00775275 -0.0146426 -0.00548244  0.0051358 -0.0225087 -0.00243711  0.00454137 -0.013621 -0.00286865  0.00741753 -0.0168511 -0.00477076  0.00427717 -0.0158678 -0.00245714  0.00675428 -0.0359359 -0.00269866  0.0117427 -0.0392938 -0.0045464  0.0106832 -0.0287575 -0.00534868  0.00649852 -0.0382088 -0.00231504  0.00613433 -0.0276684 -0.00277352  0.0104489 -0.0310438 -0.00467014  0.00588286 -0.0299812 -0.00238109  0.0075689 -0.0545591 -0.00251555  0.0138257 -0.0578209 -0.0042336  0.0130706 -0.0460176 -0.00503755  0.00730288 -0.0567042 -0.00216055  0.0072369 -0.0449063 -0.00260687  0.0128709 -0.0482309 -0.00439548  0.00697392 -0.0471345 -0.00223899  0.00778937 -0.0756075 -0.00232959  0.0152184 -0.0787355 -0.00389004  0.0147957 -0.0659294 -0.00466251  0.00752079 -0.0775784 -0.00200582  0.0077548 -0.0647915 -0.002424  0.0146093 -0.0679951 -0.00406361  0.00748563 -0.0668636 -0.00208426  0.00742245 -0.0987421 -0.00214195  0.0159296 -0.101731 -0.00354004  0.0158339 -0.0881035 -0.00426483  0.0071618 -0.100519 -0.00184727  0.00767893 -0.0869245 -0.00223732  0.0156581 -0.0899894 -0.0037148  0.00741178 -0.0888099 -0.00192714  0.00650597 -0.123632 -0.00195789  0.0159971 -0.126492 -0.00319433  0.0162055 -0.112208 -0.00386643  0.00626171 -0.125215 -0.00169325  0.00703144 -0.110972 -0.00205207  0.0160424 -0.113903 -0.00336623  0.00677729 -0.112663 -0.00177145  0.00508392 -0.150028 -0.00177431  0.0154617 -0.152771 -0.00285745  0.0159488 -0.13795 -0.00347257  0.00486243 -0.151422 -0.00153613  0.00585699 -0.136648 -0.00186825  0.0158023 -0.139454 -0.0030241  0.00562143 -0.138145 -0.00161576  0.00321305 -0.177665 -0.00159454  0.0143824 -0.180305 -0.00253272  0.0151145 -0.165067 -0.00309443  0.00301731 -0.178882 -0.0013833  0.0042032 -0.163693 -0.00168753  0.0149882 -0.166389 -0.00269413  0.00399303 -0.165007 -0.00146151  0.000941873 -0.206351 -0.00141478  0.0128092 -0.208898 -0.00222039  0.0137595 -0.193327 -0.00272751  0.000774622 -0.207402 -0.0012269  0.00212598 -0.19188 -0.00150681  0.0136546 -0.194478 -0.00237536  0.00194228 -0.193022 -0.00130606  -0.00166988 -0.235869 -0.00124097  0.0108064 -0.238332 -0.00192332  0.0119421 -0.222523 -0.00237894  -0.00180912 -0.236768 -0.00107718  -0.00032258 -0.221005 -0.00133014  0.0118598 -0.223515 -0.00207043  -0.000477195 -0.221988 -0.00115299  -0.00457597 -0.266067 -0.00107098  0.0084244 -0.268452 -0.00164199  0.00972068 -0.252468 -0.00204659  -0.00468755 -0.266824 -0.000927925  -0.00308704 -0.250884 -0.00115776  0.00966024 -0.253313 -0.00178075  -0.00321448 -0.25172 -0.00100279  -0.0077225 -0.296764 -0.000910282  0.00572443 -0.299076 -0.00137854  0.00715208 -0.282993 -0.0017364  -0.0078088 -0.297394 -0.000787973  -0.00611973 -0.281349 -0.000992537  0.00711274 -0.283704 -0.00150871  -0.00622022 -0.282052 -0.000858545  -0.0110691 -0.327839 -0.000754833  0.00275218 -0.330084 -0.00113249  0.00429022 -0.313949 -0.0014441  -0.0111309 -0.328354 -0.000650167  -0.00937164 -0.312252 -0.000833511  0.00426996 -0.314537 -0.00125289  -0.00944722 -0.312834 -0.00071907  -0.0145669 -0.359145 -0.000610113  -0.000436306 -0.361326 -0.000906467  0.00118804 -0.345199 -0.00117636  -0.0146079 -0.359558 -0.000524044  -0.0127988 -0.343458 -0.0006845  0.00118387 -0.345677 -0.00101733  -0.0128517 -0.343931 -0.00058794  -0.0181837 -0.390588 -0.000473261  -0.00380254 -0.392709 -0.000700235  -0.00210881 -0.376623 -0.000929356  -0.0182066 -0.39091 -0.000402212  -0.0163605 -0.374846 -0.000542879  -0.00209904 -0.377003 -0.000801086  -0.0163944 -0.375222 -0.000463247  -0.0218797 -0.422049 -0.000349283  -0.00729847 -0.424115 -0.00051403  -0.00555658 -0.408114 -0.000708103  -0.0218871 -0.422293 -0.000293255  -0.0200212 -0.406309 -0.000412703  -0.00553465 -0.408409 -0.000605583  -0.0200381 -0.406601 -0.000348091  -0.02563 -0.453465 -0.000234365  -0.010895 -0.455479 -0.000350952  -0.00911474 -0.439583 -0.00050807  -0.0256248 -0.453641 -0.000190258  -0.0237472 -0.437757 -0.000293016  -0.00908542 -0.439803 -0.000430346  -0.0237503 -0.437976 -0.000241995  -0.029403 -0.484742 -0.000134468  -0.0145533 -0.48671 -0.000209093  -0.0127509 -0.470951 -0.000336647  -0.0293889 -0.484865 -0.000102282  -0.0275123 -0.469112 -0.000185251  -0.0127163 -0.471109 -0.000278234  -0.0275042 -0.46927 -0.000146389  -0.0331855 -0.515848 -4.24385e-05  -0.0182538 -0.517774 -8.65459e-05  -0.0164354 -0.502155 -0.000185966  -0.0331635 -0.515924 -1.97887e-05  -0.0312917 -0.50031 -8.86917e-05  -0.0163987 -0.502263 -0.000145912  -0.0312757 -0.500418 -6.07967e-05  -0.0369551 -0.546715 3.93391e-05  -0.0219698 -0.548603 2.00272e-05  -0.0201478 -0.533147 -5.76973e-05  -0.0369284 -0.546756 5.10216e-05  -0.0350702 -0.531301 -2.86102e-06  -0.0201094 -0.533214 -3.26633e-05  -0.0350473 -0.53137 1.54972e-05  -0.0407057 -0.577321 0.000120163  -0.025687 -0.579178 0.000119448  -0.0238721 -0.563886 6.03199e-05  -0.0406711 -0.577332 0.000122309  -0.0388317 -0.562045 7.72476e-05  -0.0238287 -0.563922 6.96182e-05  -0.0388038 -0.56208 8.55923e-05  -0.0443914 -0.607553 0.000201225  -0.0293534 -0.60941 0.000222921  -0.0275819 -0.594326 0.000174522  -0.044353 -0.607551 0.000191927  -0.0425589 -0.592483 0.000156879  -0.0275288 -0.594337 0.0001688  -0.0425222 -0.592492 0.00015521  0.00434922 -0.00201106 -0.00662136  0 0 0  0.00450665 -0.00451338 -0.00684428  0.00245133 -0.000764132 -0.00584555  0 0 0  0.0033596 -0.00342816 -0.00524759  0.00185956 -9.29236e-05 -0.00445652  0 0 0  0.00151867 -0.00169891 -0.00409484  0.001124 -0.00106448 -0.00313163  0.00888687 -0.0102715 -0.00790024  0.0110837 -0.0139209 -0.00893736  0.00881986 -0.00698447 -0.00968313  0.008306 -0.0122945 -0.0068469  0.00663786 -0.00552124 -0.00740695  0.00779891 -0.00875992 -0.00818324  0.00582731 -0.00733578 -0.00626969  0.0133219 -0.0226956 -0.00804138  0.0173129 -0.0266643 -0.00922751  0.0147561 -0.0177472 -0.0105138  0.0130329 -0.0249341 -0.00702929  0.0111317 -0.0160145 -0.00803447  0.0142812 -0.0198963 -0.00919008  0.0107291 -0.0181926 -0.00701618  0.0173091 -0.0384587 -0.00770974  0.0227659 -0.0424227 -0.00890136  0.0203559 -0.0319263 -0.0103829  0.0171387 -0.0406999 -0.00674701  0.0153965 -0.0301795 -0.00789857  0.0201463 -0.0341778 -0.00911093  0.0151775 -0.0324481 -0.00691843  0.0206002 -0.0570995 -0.007195  0.0273479 -0.0609378 -0.00831366  0.0252564 -0.0491568 -0.00983739  0.0204808 -0.0592322 -0.00629044  0.019049 -0.0474356 -0.00746179  0.0251676 -0.051355 -0.00862718  0.0189084 -0.0496426 -0.00653028  0.0231283 -0.0781922 -0.00660419  0.031045 -0.0818741 -0.00762129  0.0293406 -0.0690578 -0.0091064  0.0230332 -0.0801653 -0.00576639  0.0219629 -0.0673502 -0.0069015  0.0293073 -0.0711227 -0.00797486  0.021856 -0.0694177 -0.00603175  0.0248837 -0.101404 -0.00599217  0.0338629 -0.104914 -0.00689983  0.0325682 -0.0912557 -0.00830197  0.0248046 -0.103194 -0.00522876  0.0241026 -0.0895443 -0.00629663  0.0325624 -0.0931503 -0.00726128  0.0240152 -0.0914377 -0.00549674  0.0258948 -0.126397 -0.0053823  0.0358353 -0.129746 -0.00618124  0.0349416 -0.115412 -0.00748301  0.02583 -0.127998 -0.00469327  0.0254819 -0.113684 -0.00568509  0.0349527 -0.117123 -0.00653911  0.0254083 -0.11539 -0.00495958  0.0262021 -0.15291 -0.00479198  0.037004 -0.156102 -0.00548673  0.0364931 -0.141224 -0.0066762  0.0261525 -0.154327 -0.00417805  0.0261344 -0.13947 -0.00508356  0.0365165 -0.142749 -0.00583029  0.026076 -0.140989 -0.0044322  0.025865 -0.180673 -0.00422621  0.0374308 -0.183724 -0.00482535  0.037271 -0.168422 -0.00590229  0.025831 -0.181914 -0.00368333  0.0261133 -0.166638 -0.00450563  0.0373068 -0.169768 -0.00515246  0.0260689 -0.167975 -0.00392747  0.0249391 -0.209482 -0.00368881  0.037176 -0.212398 -0.00419903  0.0373377 -0.196766 -0.00516582  0.0249225 -0.210558 -0.00321507  0.0254732 -0.194949 -0.0039537  0.0373844 -0.197942 -0.00450826  0.0254467 -0.196117 -0.00344539  0.0234939 -0.239118 -0.00318146  0.0363126 -0.241913 -0.00361109  0.0367581 -0.226043 -0.00447178  0.0234941 -0.240042 -0.00277019  0.0242804 -0.224196 -0.00343132  0.0368166 -0.22706 -0.003901  0.0242698 -0.225205 -0.00298882  0.0215884 -0.269423 -0.00270748  0.034905 -0.272097 -0.00306201  0.0356026 -0.256062 -0.00382161  0.0216045 -0.270205 -0.00235677  0.0225965 -0.254188 -0.00293994  0.0356727 -0.256931 -0.00333214  0.0226034 -0.255049 -0.00255919  0.0192888 -0.300215 -0.00226521  0.0330254 -0.302781 -0.00255299  0.0339406 -0.286651 -0.00321698  0.0193189 -0.300867 -0.00196886  0.0204872 -0.284755 -0.00248218  0.0340208 -0.287384 -0.00280309  0.0205079 -0.28548 -0.00215888  0.0166498 -0.33137 -0.0018599  0.0307347 -0.333829 -0.00208664  0.0318396 -0.317658 -0.00266075  0.0166928 -0.331904 -0.00161409  0.0180097 -0.315745 -0.00205779  0.0319272 -0.318267 -0.00231552  0.0180451 -0.316348 -0.00178719  0.0137343 -0.36274 -0.00148845  0.0281012 -0.365104 -0.00166416  0.0293643 -0.348947 -0.00215292  0.0137866 -0.36317 -0.00128794  0.0152265 -0.347023 -0.00166941  0.0294576 -0.349444 -0.00187087  0.0152721 -0.347514 -0.00144625  0.0105879 -0.394234 -0.00115633  0.025178 -0.396503 -0.00128412  0.026576 -0.380398 -0.00169492  0.0106478 -0.39457 -0.000997066  0.0121882 -0.378468 -0.0013175  0.0266719 -0.380794 -0.00146937  0.0122433 -0.37886 -0.0011375  0.00726604 -0.42573 -0.000858545  0.0220265 -0.427919 -0.00094986  0.0235324 -0.411905 -0.0012877  0.00732875 -0.425986 -0.000734568  0.00894904 -0.409975 -0.00100255  0.0236282 -0.412212 -0.00111222  0.00900841 -0.410279 -0.000861406  0.00380468 -0.457168 -0.000602722  0.0186923 -0.459277 -0.000661612  0.020287 -0.443378 -0.00093317  0.00386834 -0.457354 -0.000510693  0.00555182 -0.441452 -0.000725031  0.0203795 -0.443609 -0.000800848  0.0056138 -0.441681 -0.000617743  0.000248194 -0.488457 -0.000380516  0.0152242 -0.490499 -0.000415325  0.0168858 -0.47474 -0.000628471  0.000310659 -0.488586 -0.000314474  0.00203919 -0.472823 -0.000487804  0.016973 -0.474907 -0.000533819  0.00210047 -0.472989 -0.000409126  -0.00337911 -0.51956 -0.000195503  0.011656 -0.521539 -0.000211954  0.0133715 -0.50593 -0.00037241  -0.00331926 -0.519642 -0.000153303  -0.00155663 -0.504024 -0.000282526  0.0134506 -0.506044 -0.000309467  -0.00149679 -0.504139 -0.00022912  -0.00704885 -0.550415 -3.62396e-05  0.00802422 -0.552347 -4.52995e-05  0.00977588 -0.536897 -0.000163078  -0.00699067 -0.550464 -1.35899e-05  -0.00520706 -0.535008 -0.000112295  0.00984669 -0.536972 -0.000126362  -0.00515056 -0.535083 -8.03471e-05  -0.0107458 -0.581009 0.000111103  0.00435138 -0.582903 0.000104189  0.00612307 -0.567609 1.62125e-05  -0.0106821 -0.581033 0.000112057  -0.00889397 -0.565737 3.71933e-05  0.00619102 -0.567657 2.93255e-05  -0.00883532 -0.565782 4.98295e-05  -0.0144212 -0.61127 0.000271082  0.000695229 -0.613186 0.000253439  0.00244212 -0.598043 0.000185251  -0.0143414 -0.611287 0.000245094  -0.0125878 -0.596175 0.000183344  0.00251627 -0.598077 0.000175476  -0.0125203 -0.596201 0.000175238  0.00737296 -0.00464106 -0.0105362  0 0 0  0.00744592 -0.0080843 -0.00968194  0.00380132 -0.00300694 -0.00837946  0 0 0  0.00585698 -0.00600773 -0.00830722  0.00307 -0.00170267 -0.00705123  0 0 0  0.00251575 -0.00389934 -0.00580263  0.00194357 -0.00260568 -0.00494051  0.0150743 -0.0139642 -0.0126073  0.0178185 -0.0183841 -0.0128036  0.0141996 -0.0111578 -0.0138514  0.0142345 -0.0159513 -0.0109138  0.0113177 -0.00883973 -0.0117817  0.0127924 -0.0129751 -0.0116615  0.0101 -0.0106068 -0.00994754  0.0222675 -0.0265112 -0.0130002  0.0269449 -0.031086 -0.0134628  0.0231242 -0.0221737 -0.0152926  0.0219308 -0.0287248 -0.0113699  0.0187355 -0.019815 -0.0129414  0.022524 -0.0243558 -0.0133095  0.018196 -0.0219602 -0.0112834  0.0287989 -0.0422171 -0.0125818  0.0349989 -0.0467522 -0.0131207  0.0312965 -0.0362865 -0.0152793  0.0286949 -0.0444432 -0.0110283  0.0256318 -0.033971 -0.0128543  0.0311009 -0.0385497 -0.0133762  0.0254315 -0.0362197 -0.0112648  0.0344895 -0.0608062 -0.0117824  0.0420085 -0.0652075 -0.0123048  0.0386314 -0.0534491 -0.0145488  0.0344976 -0.062932 -0.0103214  0.0317574 -0.0511649 -0.012212  0.0386361 -0.0556474 -0.0127497  0.0317178 -0.053361 -0.0107048  0.039264 -0.0818797 -0.0108175  0.0479542 -0.0861057 -0.0112898  0.0450171 -0.073306 -0.0134859  0.0393245 -0.0838526 -0.00946736  0.0369955 -0.0710431 -0.0113127  0.0451167 -0.0753667 -0.0118115  0.037034 -0.0731079 -0.00990653  0.0430893 -0.105101 -0.0097928  0.0528255 -0.109137 -0.0102086  0.0503793 -0.0954814 -0.012285  0.0431759 -0.106895 -0.00856233  0.0412972 -0.0932332 -0.0103085  0.0505239 -0.0973719 -0.0107517  0.0413711 -0.0951291 -0.00901747  0.0459801 -0.13012 -0.00877047  0.0566492 -0.133965 -0.00912905  0.0547019 -0.119631 -0.0110531  0.0460811 -0.131732 -0.0076642  0.0446512 -0.117392 -0.00928187  0.0548675 -0.121339 -0.00966668  0.0447449 -0.119106 -0.00811267  0.0479721 -0.156673 -0.0077765  0.0594654 -0.16033 -0.00808406  0.0580049 -0.145443 -0.00983953  0.0480825 -0.158102 -0.00679159  0.0470873 -0.143212 -0.00827146  0.0581802 -0.146969 -0.00860143  0.0471914 -0.144742 -0.00722432  0.0491254 -0.184478 -0.00683045  0.0613432 -0.187955 -0.00708914  0.0603379 -0.172645 -0.00867605  0.0492433 -0.185734 -0.00596428  0.0486515 -0.170421 -0.00730157  0.060519 -0.173994 -0.00758052  0.0487646 -0.171773 -0.0063746  0.0495025 -0.21333 -0.00593567  0.0623492 -0.216636 -0.00615215  0.0617659 -0.200993 -0.00757074  0.0496285 -0.214422 -0.00518084  0.0494087 -0.198777 -0.00638032  0.061951 -0.202174 -0.00661421  0.0495285 -0.19996 -0.00556827  0.0491832 -0.243004 -0.00509834  0.0625691 -0.246145 -0.00527501  0.0623661 -0.230271 -0.00653458  0.0493157 -0.243943 -0.00444937  0.0494275 -0.228064 -0.00551462  0.0625544 -0.231293 -0.00570703  0.0495553 -0.229088 -0.00481129  0.0482372 -0.273339 -0.00431752  0.0620774 -0.276322 -0.00445962  0.062218 -0.260283 -0.0055654  0.048376 -0.274135 -0.00376511  0.0487863 -0.25809 -0.00470471  0.0624079 -0.261158 -0.00485969  0.0489196 -0.258966 -0.00410247  0.0467453 -0.30415 -0.00359797  0.060962 -0.306982 -0.00370836  0.0614042 -0.290858 -0.00467134  0.0468872 -0.304816 -0.00313592  0.0475574 -0.288682 -0.00395441  0.0615948 -0.291596 -0.00407648  0.0476964 -0.289422 -0.0034461  0.0447738 -0.335315 -0.00293899  0.0592935 -0.338004 -0.00302172  0.0600034 -0.321841 -0.00384855  0.0449176 -0.335861 -0.00255823  0.0458174 -0.319687 -0.00326395  0.0601925 -0.322453 -0.00335741  0.0459582 -0.320302 -0.00284147  0.0423987 -0.366685 -0.00234389  0.0571568 -0.369238 -0.00240135  0.0580957 -0.353099 -0.00310349  0.042542 -0.367124 -0.002038  0.043635 -0.350969 -0.00263834  0.0582812 -0.353596 -0.00270438  0.0437771 -0.351471 -0.00229383  0.0396812 -0.398168 -0.00181079  0.0546169 -0.400595 -0.00184846  0.0557556 -0.38451 -0.00243211  0.0398211 -0.398511 -0.00157022  0.0410812 -0.382409 -0.00207329  0.0559335 -0.384905 -0.0021174  0.0412209 -0.382808 -0.00179863  0.0366895 -0.429647 -0.00134492  0.0517495 -0.431956 -0.00136375  0.0530541 -0.415971 -0.00184107  0.0368216 -0.429907 -0.00116229  0.0382183 -0.413901 -0.00157404  0.0532222 -0.416275 -0.00159883  0.038353 -0.414211 -0.00136137  0.0334749 -0.461059 -0.000941992  0.0486131 -0.463262 -0.000949621  0.0500581 -0.447393 -0.00132608  0.0335968 -0.461246 -0.000808954  0.0351095 -0.445357 -0.00113869  0.0502117 -0.447617 -0.0011487  0.035234 -0.445588 -0.000980139  0.0300944 -0.492315 -0.000605583  0.045275 -0.494424 -0.00060463  0.0468304 -0.478701 -0.000893354  0.0302036 -0.492444 -0.000515223  0.031805 -0.476698 -0.000769854  0.046968 -0.478859 -0.000769377  0.031919 -0.476865 -0.000656843  0.0265877 -0.52338 -0.000327826  0.0417812 -0.525409 -0.000324965  0.0434265 -0.509834 -0.000534773  0.0266833 -0.523462 -0.00027132  0.0283566 -0.507865 -0.000462294  0.043545 -0.509939 -0.000457048  0.0284567 -0.507979 -0.000388145  0.022995 -0.554193 -0.000105381  0.0381875 -0.55616 -0.000107288  0.0398974 -0.540743 -0.000253677  0.0230784 -0.554245 -7.9155e-05  0.0248027 -0.538807 -0.000214815  0.0399961 -0.54081 -0.000211  0.0248902 -0.538883 -0.000172377  0.0193398 -0.584754 8.72612e-05  0.034528 -0.586683 6.79493e-05  0.0362804 -0.571401 -3.0756e-05  0.0194194 -0.584788 8.82149e-05  0.0211761 -0.569495 -1.07288e-05  0.0363646 -0.571446 -1.71661e-05  0.0212538 -0.569546 5.48363e-06  0.0156703 -0.615056 0.000277758  0.030854 -0.616996 0.000232935  0.0326111 -0.601815 0.000154972  0.0157549 -0.615089 0.000249147  0.0175049 -0.599922 0.000172377  0.0326917 -0.601856 0.000147104  0.0175841 -0.599965 0.000164032  0.0117403 -0.00938851 -0.0141871  0 0 0  0.0129763 -0.0149112 -0.0123177  0.00655595 -0.00822544 -0.0106039  0 0 0  0.00970198 -0.0110903 -0.0110433  0.00472397 -0.00495887 -0.0091567  0 0 0  0.00504223 -0.00907904 -0.00744009  0.00320056 -0.00584829 -0.00641298  0.0229636 -0.0189362 -0.0170794  0.0265227 -0.0240999 -0.0167387  0.0217265 -0.0167397 -0.0181487  0.0219245 -0.0211362 -0.0147207  0.0177425 -0.0138624 -0.0159922  0.0201596 -0.0190984 -0.0151775  0.0161921 -0.0158709 -0.0133839  0.0327526 -0.0314128 -0.0178845  0.0382972 -0.0366398 -0.0177495  0.0331791 -0.0275382 -0.0202301  0.0323833 -0.0337263 -0.0155818  0.0279229 -0.0247592 -0.0177133  0.0325216 -0.0299937 -0.0174978  0.0272835 -0.0270509 -0.0153677  0.041783 -0.047069 -0.0173919  0.0489814 -0.0522051 -0.0173197  0.0439828 -0.0416633 -0.0202353  0.0417362 -0.0493361 -0.015214  0.037383 -0.0388473 -0.0177369  0.0437887 -0.044045 -0.017647  0.0372 -0.0411617 -0.0154996  0.0498459 -0.0656179 -0.0163133  0.0584373 -0.0705909 -0.0162406  0.0538259 -0.0588239 -0.0192423  0.0499579 -0.0677569 -0.0142787  0.0459449 -0.0559961 -0.0168965  0.053868 -0.0610638 -0.0168269  0.0459907 -0.0582156 -0.0147913  0.0568308 -0.0866558 -0.0149703  0.0666135 -0.0914368 -0.0148888  0.0625317 -0.0786582 -0.0178032  0.0570179 -0.0886285 -0.0130987  0.0534805 -0.0758371 -0.0156574  0.0626867 -0.0807239 -0.0155783  0.0536356 -0.0779052 -0.0137055  0.0626763 -0.109845 -0.0135398  0.0734916 -0.114407 -0.0134511  0.0700047 -0.100794 -0.0161924  0.0628977 -0.111637 -0.0118418  0.0598987 -0.097994 -0.0142567  0.0702155 -0.102675 -0.014169  0.0601052 -0.0998867 -0.0124733  0.0673864 -0.134835 -0.0121059  0.079097 -0.139182 -0.0120144  0.0762163 -0.124893 -0.0145426  0.0676222 -0.136443 -0.0105829  0.0651739 -0.122123 -0.0128181  0.0764494 -0.126586 -0.0127234  0.0654025 -0.123831 -0.0112085  0.0709924 -0.161356 -0.0107174  0.0834816 -0.165479 -0.010627  0.0811944 -0.150646 -0.0129256  0.0712346 -0.162784 -0.00936699  0.0693257 -0.147912 -0.0114036  0.0814385 -0.152157 -0.011308  0.0695639 -0.149439 -0.00996804  0.0735624 -0.189129 -0.00939226  0.0867212 -0.19304 -0.00930429  0.0849922 -0.177782 -0.0113766  0.0738062 -0.190385 -0.00820661  0.072405 -0.17509 -0.0100458  0.0852383 -0.179116 -0.00995231  0.072646 -0.176441 -0.00877833  0.0751671 -0.217945 -0.00814462  0.0888979 -0.22164 -0.0080626  0.0876889 -0.206057 -0.00990891  0.0754113 -0.219038 -0.00711608  0.074482 -0.203411 -0.00875854  0.0879375 -0.207225 -0.00866938  0.0747248 -0.204594 -0.00765228  0.0758964 -0.247575 -0.0069766  0.0901058 -0.251069 -0.00689816  0.0893686 -0.235253 -0.00853181  0.0761399 -0.248515 -0.00609422  0.0756385 -0.232659 -0.00755072  0.0896158 -0.236263 -0.00746489  0.0758802 -0.233683 -0.00659561  0.0758322 -0.277858 -0.00589418  0.0904354 -0.281148 -0.00582147  0.0901278 -0.265177 -0.00724983  0.0760736 -0.278656 -0.00514841  0.0759597 -0.262637 -0.00642562  0.0903751 -0.26604 -0.00634503  0.0762008 -0.263514 -0.0056119  0.0750685 -0.308609 -0.00489712  0.0899838 -0.311711 -0.00482917  0.090058 -0.295654 -0.00606656  0.075305 -0.309276 -0.00427532  0.0755352 -0.293174 -0.00538588  0.0903002 -0.296379 -0.0053103  0.0757719 -0.293914 -0.00470257  0.0736835 -0.339708 -0.00398827  0.0888413 -0.342619 -0.00392556  0.0892559 -0.326531 -0.00498343  0.0739146 -0.340253 -0.00348139  0.0744498 -0.324115 -0.00443196  0.0894938 -0.327132 -0.00436282  0.0746824 -0.32473 -0.0038681  0.0717697 -0.371005 -0.00316572  0.0870993 -0.373744 -0.00310683  0.0878093 -0.357678 -0.00399756  0.0719907 -0.371441 -0.00275993  0.0727899 -0.355328 -0.0035665  0.0880384 -0.358162 -0.0035007  0.0730147 -0.355827 -0.00311089  0.0693986 -0.40241 -0.00243688  0.0848422 -0.404977 -0.00238395  0.0858119 -0.388973 -0.00311613  0.0696075 -0.402748 -0.00212336  0.0706382 -0.386692 -0.00279021  0.0860305 -0.389354 -0.00272965  0.0708518 -0.387087 -0.00243163  0.066654 -0.433807 -0.00179696  0.0821528 -0.436222 -0.00174856  0.0833416 -0.420315 -0.00233936  0.0668461 -0.434058 -0.00156212  0.0680711 -0.418103 -0.00210643  0.083545 -0.420603 -0.00205064  0.06827 -0.418406 -0.00183272  0.0635996 -0.465136 -0.00125289  0.079109 -0.467405 -0.0012114  0.0804853 -0.451619 -0.00166917  0.0637724 -0.465314 -0.00108743  0.0651631 -0.449476 -0.00151324  0.0806711 -0.451827 -0.00146389  0.0653441 -0.449699 -0.00131416  0.0603094 -0.496311 -0.000799179  0.0757864 -0.498457 -0.000764132  0.0773137 -0.482812 -0.00110435  0.0604594 -0.496427 -0.000690222  0.0619826 -0.480735 -0.00101495  0.0774767 -0.482951 -0.000971317  0.0621424 -0.48089 -0.000878334  0.0568392 -0.527297 -0.000439167  0.0722547 -0.529332 -0.000413656  0.0739026 -0.513835 -0.00064683  0.0569651 -0.527367 -0.000376701  0.0585947 -0.511822 -0.000607967  0.074043 -0.513921 -0.000572681  0.0587313 -0.511922 -0.000523329  0.0532529 -0.558037 -0.000164032  0.0685863 -0.559997 -0.000154257  0.0703189 -0.544645 -0.000298977  0.0533535 -0.558077 -0.000136137  0.0550599 -0.542688 -0.000292301  0.0704315 -0.544692 -0.000269413  0.0551713 -0.54275 -0.000247717  0.0495884 -0.588542 4.1008e-05  0.0648496 -0.590456 2.64645e-05  0.0666306 -0.575218 -5.34058e-05  0.0496733 -0.588574 4.3869e-05  0.0514295 -0.573309 -5.60284e-05  0.0667224 -0.575252 -5.24521e-05  0.0515187 -0.573353 -4.1008e-05  0.0458946 -0.618852 0.000221252  0.0611057 -0.620762 0.000183582  0.0629029 -0.605583 0.000118971  0.0459762 -0.618888 0.000208139  0.0477457 -0.603701 0.000129223  0.0629759 -0.605624 0.000109434  0.0478251 -0.603747 0.000125408  
SCALARS smooth_stress float 1
LOOKUP_TABLE default
115.837 236.703 242.65 229.511 214.562 182.885 164.216 171.402 150.405 139.991 142.858 133.576 127.114 115.601 98.4075 90.3151 103.955 94.3655 78.7233 100.807 87.5773 66.7075 69.1745 79.509 45.8924 213.579 428.443 427.304 399.279 373.898 345.894 343.545 337.364 286.854 267.424 259.648 238.267 231.939 240.141 211.598 182.857 212.166 199.859 177.07 210.033 192.412 152.304 141.181 161.499 92.1698 174.601 340.976 342.353 327.909 305.841 302.525 323.533 308.139 255.131 235.369 222.728 205.605 215.196 242.593 236.841 218.461 219.474 203.451 209.054 226.414 196.105 175.004 163.417 159.21 81.381 149.558 293.967 293.689 286.506 267.988 265.715 274.182 269.3 240.312 229.916 225.699 208.039 225.968 237.4 235.519 236.14 220.008 202.63 206.33 208.129 177.761 167.204 176.977 166.053 77.0094 119.629 247.772 245.481 254.217 260.757 265.676 267.279 244.171 232.745 244.939 246.306 227.089 220.839 217.866 218.291 218.35 211.352 195.07 176.383 164.282 152.306 154.707 160.69 161.846 83.9253 113.779 258.09 270.082 285.757 295.296 281.981 291.993 265.588 247.428 254.967 252.852 237.786 211.872 215.342 222.547 205.522 206.631 208.895 193.383 189.089 181.502 175.891 161.362 161.431 91.612 154.127 330.862 329.897 336.145 333.277 302.483 306.784 300.907 279.957 259.772 264.165 253.69 231.244 240.5 229.543 206.704 208.145 213.394 205.508 219.14 215.419 195.772 181.897 168.591 87.9971 207.35 407.783 387.176 399.333 401.991 356.623 326.465 325.009 306.353 289.176 285.996 254.712 245.697 245.822 221.509 207.2 207.849 197.842 188.533 196.519 179.864 176.281 174.979 158.643 81.1825 120.072 231.971 217.869 223.094 224.737 196.645 174.374 172.643 162.708 161.413 148.139 118.844 121.081 122.145 108.09 97.8891 103.728 102.946 95.6485 93.128 80.1327 79.4896 79.3214 78.4706 42.7778 221.48 467.553 471.206 440.753 422.857 369 353.097 356.818 301.471 282.535 303.957 276.301 228.178 213.127 205.749 198.027 191.033 170.629 173.861 199.03 184.378 167.611 149.962 165.47 99.6228 386.56 830.567 860.449 798.88 755.234 721.085 694.438 649.27 573.705 543.116 556.488 511.514 445.007 441.16 423.112 395.267 407.182 381.064 354.643 377.888 373.152 351.399 315.229 322.401 178.412 309.484 656.283 691.676 642.417 609.774 631.958 612.58 554.201 502.009 480.958 480.08 459.274 442.406 452.726 451.046 439.426 440.638 407.781 377.908 397.969 376.313 337.672 330.448 315.542 151.846 280.571 561.581 548.7 528.5 525.679 542.275 530.434 511.484 485.15 460.952 467.516 447.296 434.119 441.692 450.355 443.499 427.611 406.12 397.086 403.765 359.307 331.266 346.837 322.986 148.05 221.734 478.924 486.232 495.977 513.11 525.554 523.354 492.008 478.799 475.273 486.005 459.282 421.966 419.417 431.376 410.159 404.676 401.159 368.654 335.436 315.405 333.47 331.815 308.084 151.619 213.381 506.004 555.77 569.348 577.474 546.787 566.092 527.832 475.65 491.585 498.429 475.239 450.758 452.174 444.85 398.789 397.714 408.752 372.047 348.293 338.835 332.818 316.633 328.668 178.658 298.961 641.088 669.506 675.552 646.71 599.673 615.071 578.313 533.637 510.382 506.862 506.983 487.656 486.033 459.528 428.521 410.296 410.408 400.161 385.13 370.799 353.36 361.713 375.212 189.755 393.722 805.442 802.277 802.548 771.11 704.15 672.684 633.584 606.28 557.935 526.122 513.329 502.962 478.117 437.059 423.597 406.556 380.659 386.305 380.662 330.616 326.456 354.871 350.904 166.82 222.576 459.745 448.576 444.578 437.044 388.113 359.546 340.829 324.869 304.44 271.651 245.538 252.641 241.84 207.678 185.019 192.42 186.618 189.496 193.043 155.014 149.825 159.632 160.65 79.0968 220.375 459.363 465.543 440.367 415.669 376.478 350.325 334.334 310.163 288.033 279.112 261.034 221.811 201.313 205.826 212.712 185.016 174.736 184.232 177.099 179.172 182.96 171.365 166.954 86.7755 363.029 793.511 840.102 810.441 773.222 729.861 670.048 611.77 582.178 561.413 546.669 505.81 449.231 410.41 420.926 433.084 401.752 380.707 364.105 352.118 354.59 351.625 332.182 312.627 155.341 270.429 611.833 678.624 651.853 630.781 632.715 588.423 550.972 523.642 501.9 500.892 487.725 449.191 414.816 439.341 454.645 451.613 420.487 359.525 352.667 351.582 314.165 319.491 336.233 166.474 244.813 515.943 538.634 526.179 523.503 533.827 507.492 509.69 507.94 462.662 469.424 467.204 422.22 412.08 423.687 432.057 436.879 419.578 372.347 347.556 344.764 330 349.671 361.625 177.027 202.946 444.268 480.185 498.252 518.773 518.549 485.989 474.945 471.257 442.576 467.113 467.951 427.417 409.713 415.703 397.781 381.062 392.185 377.594 348.997 336.759 340.492 356.183 343.248 157.973 210.207 477.223 533.973 555.824 571.495 547.789 537.95 505.882 443.832 439.013 465.061 463.056 462.966 451.914 440.466 400.094 367.512 385.446 379.192 362.13 338.863 313.007 328.002 363.197 185.056 287.461 623.372 666.297 662.055 625.785 602.525 613.309 546.144 495.826 484.072 461.815 464.046 473.527 463.889 435.053 427.511 407.485 393.941 375.19 340.75 337.796 347.135 363.163 392.116 204.848 361.015 789.054 838.445 805.584 741.941 701.395 690.809 611.481 571.765 539.936 490.739 489.532 481.409 452.864 426.566 422.385 395.853 367.198 374.357 361.486 340.013 341.832 354.365 364.601 180.073 197.854 436.894 460.505 445.502 419.153 382.606 368.253 332.429 304.826 286.442 262.96 244.845 243.879 237.538 215.721 194.972 176.82 171.581 193.46 203.778 172.921 151.712 154.018 163.498 81.4259 224.545 460.703 480.782 459.436 428.848 396.064 344.049 328.35 324.806 290.626 272.675 273.301 260.525 223.471 205.177 216.642 189.901 172.944 178.553 165.919 158.875 166.806 176.563 169.428 78.3912 362.337 781.375 843.777 838.093 801.016 721.158 646.738 630.574 613.957 565.574 521.641 496.307 492.044 438.065 401.893 419.699 390.783 371.127 374.487 352.947 332.463 327.929 327.995 324.484 158.199 256.965 592.577 671.101 697.875 682.478 611.652 572.574 567.409 550.657 509.347 472.517 449.212 432.65 416.037 401.939 387.931 389.251 396.446 382.207 350.401 353.748 342.821 323.499 346.174 178.297 235.857 518.823 568.643 589.14 572.764 519.067 501.101 491.236 489.743 472.731 453.394 449.392 419.372 408.947 389.393 380.904 401.286 405.304 362.801 316.68 349.843 353.488 330.474 349.712 180.753 209.222 453.436 494.952 525.951 548.21 504.375 463.105 457.408 451.773 435.843 441.691 456.45 437.985 406.909 398.084 396.565 388.01 376.076 348.149 340.863 349.9 332.646 331.357 339.451 163.537 218.3 475.994 541.847 567.569 569.141 562.756 526.275 492.884 456.447 431.7 442.458 438.182 430.399 409.366 416.642 398.499 356.398 360.737 364.946 380.85 362.959 327.277 336.552 355.605 179.054 281.272 614.351 683.396 691.451 632.893 621.476 632.032 563.46 506.899 490.525 464.023 444.89 449.237 424.678 395.144 402.783 391.715 383.833 365.232 342.892 347.678 350.899 334.409 349.321 196.629 360.576 787.034 849.62 833.907 760.604 719.328 712.966 647.842 585.018 548.301 509.286 493.395 474.357 434.284 410.933 418.56 398.738 374.697 364.914 353.331 366.892 354.124 327.087 324.11 167.922 205.066 442.159 473.656 453.996 411.096 388.74 375.32 345.91 311.032 291.964 275.873 253.423 235.776 219.567 218.517 213.74 188.328 182.565 193.006 203.732 201.957 169.645 156.28 149.538 69.0744 222.799 465.734 485.275 451.171 417.879 396.607 359.447 341.661 326.669 308.076 307.977 297.213 269.008 232.17 212.319 219.125 202.419 177.634 190.138 185.272 156.859 163.205 184.43 176.814 79.4645 355.132 797.005 875.478 840.035 781.315 709.593 659.93 651.561 622.57 564.554 536.929 508.099 493.596 450.419 391.346 407.55 390.451 357.716 382.607 353.788 316.473 326.092 327.999 333.027 165.615 240.484 580.395 687.833 724.477 679.087 592.678 558.243 546.812 538.102 488.02 447.295 430.782 424.92 424.867 386.742 344.248 337.249 359.992 372.119 332.32 333.897 341.19 306.015 301.938 155.734 229.521 503.361 557.113 612.132 605.493 521.201 498.994 479.014 469.793 477.731 453.794 440.264 408.583 398.979 398.957 354.947 348.486 378.977 353.946 313.239 340.674 345.686 300.379 272.523 132.32 210.316 467.234 498.811 536.597 584.102 514.873 477.78 463.501 438.128 446.343 430.576 425.77 424.344 403.653 398.458 397.134 391.806 378.611 342.349 325.899 338.942 345.181 323.518 289.514 135.18 219.523 497.372 579.484 607.868 592.131 557.341 517.397 467.958 433.246 435.285 432.475 425.674 422.366 410.612 405.113 396.571 381.802 359.004 344.075 347.407 339.845 337.933 341.704 324.589 158.455 285.777 629.622 730.664 746.015 659.978 623.645 605.521 551.17 515.506 499.215 485.511 472.379 447.91 405.605 393.892 403.538 371.799 355.195 364.218 357.263 346.93 323.923 323.779 351.72 187.803 381.585 815.879 866.848 848.095 774.157 746.001 722.329 659.429 616.887 560.808 519.86 506.632 473.443 432.693 429.637 425.111 386.025 368.362 374.319 376.253 360.734 319.144 325.264 342.083 169.401 226.384 470.633 476.339 449.871 412.048 406.331 397.66 354.818 324.091 296.725 271.699 254.525 231.807 226.408 233.642 220.133 203.49 192.626 186.125 189.933 181.098 155.356 157.604 152.235 67.6089 233.827 468.981 472.272 438.377 409.772 392.235 352.128 335.158 321.647 302.86 280.127 261.891 246.319 224.944 204.348 200.233 201.06 190.113 190.728 191.753 163.149 161.895 193.612 175.861 75.3099 394.031 844.889 873.311 809.12 764.582 728.218 665.527 635.967 611.74 578.288 536.029 475.932 462.752 450.058 402.325 395.06 386.024 360.64 383.089 362.434 317.049 320.187 330.638 317.329 151.024 266.883 624.182 711.295 704.502 647.547 597.554 570.294 553.364 533.787 507.3 485.448 456.565 438.2 443.602 427.471 375.617 361.06 374.478 380.921 340.071 325.332 326.179 288.461 291.652 158.367 211.629 480.86 570.996 614.557 591.788 524.597 499.316 501.257 476.497 452.761 440.138 454.076 439.585 413.889 424.462 395.135 368.267 391.339 360.658 327.064 353.155 341.406 314.219 313.407 159.637 204.612 455.962 509.739 568.043 616.85 544.047 490.178 466.901 436.384 431.124 402.442 410.84 440.705 425.381 395.801 404.55 397.31 383.785 355.431 323.221 349.396 359.612 344.729 324.377 154.267 237.512 521.433 582.215 623.541 620.652 548.535 505.995 466.715 432.205 428.801 413.673 430.23 443.736 442.839 415.848 408.476 399.322 358.783 350.705 353.197 361.092 356.503 339.69 330.664 167.073 298.176 663.886 742.935 722.019 656.737 597.116 558.941 542.443 519.556 489.495 475.784 481.335 457.173 419.001 416.55 415.827 373.994 337.932 338.384 384.552 404.304 352.921 336.427 370.207 197.774 377.49 829.414 890.166 820.901 756.759 740.017 685.003 650.173 622.378 557.143 516.927 491.775 459.616 435.378 448.209 426.708 393.288 392.271 375.213 381.458 371.522 334.202 349.921 372.661 185.607 217.164 463.586 480.447 435.177 402.873 410.414 384.301 356.246 331.447 286.216 262.966 241.382 223.293 229.236 246.673 229.15 213.477 216.725 204.201 184.556 160.636 151.69 171.24 171.964 77.6226 241.499 467.082 449.113 439.451 450.531 424.26 360.665 328.686 318.35 303.85 269.33 248.498 245.921 231.912 192.149 178.024 189.029 191.375 177.014 168.42 169.273 168.999 170.677 165.896 82.9041 407.549 834.066 839.427 803.385 786.466 753.787 676.235 603.508 581.155 589.26 545.496 480.237 454.43 463.08 411.633 374.14 386.346 385.097 364.316 324.879 321.545 332.654 327.246 313.766 156.017 286.526 638.03 690.412 662.702 626.582 592.743 572.574 531.924 509.175 528.072 507.993 478.204 447.249 453.986 431.469 371.473 376.826 397.552 391.671 359.272 346.101 338.068 321.794 320.369 164.023 218.595 495.531 580.913 582.305 572.807 531.07 500.758 499.304 475.13 464.561 442.654 462.598 482.206 455.273 429.15 399.199 383.374 415.066 407.715 378.628 378.156 354.766 341.095 365.093 190.841 204.839 454.198 552.81 588.587 587.596 541.941 490.771 482.061 464.1 445.593 425.141 430.685 457.207 443.228 398.972 416.022 425.473 422.943 390.3 334.976 347.439 349.08 331.083 348.538 182.122 222.919 507.852 599.903 625.12 592.468 547.642 530.634 519.795 483.222 449.96 450.204 461.093 440.641 410.105 392.862 396.784 393.656 362.155 355.723 356.607 364.69 364.139 325.277 326.876 175.929 271.003 621.891 707.389 695.519 657.473 604.837 586.141 589.638 542.74 486.872 485.676 495.81 452.548 415.019 420.397 409.374 365.225 331.289 338.129 379.189 402.738 367.279 317.475 348.541 198.326 360.662 800.034 866.642 815.415 780.255 730.516 667.741 672.7 630.769 552.418 535.466 517.536 472.869 443.714 445.39 413.46 391.124 401.594 378.245 369.21 360.884 331.676 337.196 361.401 182.431 205.859 456.282 487.162 439.965 409.814 399.234 365.217 362.999 335.909 291.813 285.68 268.267 247.222 228.026 236.048 208.69 197.947 220.751 208.886 187.466 159.725 159.809 189.785 183.791 77.8418 246.636 468.626 448.626 437.058 441.07 415.5 343.49 319.362 331.031 317.561 291.558 264.288 241.056 230.917 197.28 191.434 206.499 201.845 170.197 157.999 172.753 154.455 153.713 161.642 76.7769 402.859 815.106 823.24 796.691 768.056 720.551 652.639 609.259 598.642 588.482 553.392 503.607 450.466 446.047 408.979 389.889 407.307 393.602 356.997 325.347 323.56 314.371 321.742 312.251 147.326 281.077 606.45 648.266 630.477 600.852 594.328 599.738 549.692 503.363 521.513 520.067 505.939 460.199 430.125 414.824 388.248 391.484 401.278 394.186 376.414 349.231 327.239 351.866 333.519 150.069 225.77 484.092 530.524 527.902 538.582 556.017 546.736 504.598 457.674 491.247 502.537 487.406 479.655 460.21 448.153 423.143 401.598 419.103 417.161 392.302 365.516 336.151 348.098 350.574 170.741 195.275 444.76 528.975 528.576 527.154 516.655 492.968 485.591 443.427 468.106 484.171 443.836 447.708 445.986 427.139 437.767 421.706 421.621 416.475 372.075 345.562 338.527 325.458 328.629 176.11 203.746 488.165 590.24 582.195 545.566 531.67 533.957 519.658 476.961 475.8 481.602 454.754 424.843 389.503 392.969 399.482 375.157 381.502 387.473 369.22 352.737 350.15 332.229 343.946 188.564 258.151 597.596 672.009 673.095 655.271 613.887 598.72 581.59 540.682 497.955 492.067 477.386 429.451 417.744 433.264 416.104 360.927 346.905 374.338 368.029 361.289 353.003 309.714 336.637 194.049 366.064 786.185 825.328 815.719 785.385 700.082 652.805 645.988 605.272 556.529 554.736 533.716 477.393 460.161 445.181 413.121 384.68 373.285 381.191 367.187 347.329 336.612 330.559 347.014 179.674 217.301 456.115 471.457 453.301 413.244 367.95 351.22 343.268 320.045 306.924 304.404 288.033 253.943 231.148 222.774 192.081 188.125 195.843 187.626 179.538 160.307 164.06 191.876 193.358 89.3001 125.978 236.981 230.306 215.122 203.906 192.569 158.11 163.605 173.369 153.633 149.041 135.46 112.224 111.462 103.852 106.16 108.075 97.4202 83.2321 83.1022 86.2739 68.8944 78.2053 83.2267 35.0643 206.497 418.912 418.466 389.644 373.987 351.877 309.584 320.866 325.287 292.81 278.808 254.947 221.073 211.281 200.807 202.284 200.582 183.055 181.117 177.797 161.203 151.21 166.996 155.546 65.8187 142.37 308.26 323.116 308.33 298.36 314.832 312.413 286.819 263.765 265.758 279.203 268.673 236.899 206.229 200.887 202.396 197.27 198.501 202.853 194.182 176.939 165.485 183.558 169.136 70.9669 111.34 236.554 248.512 252.975 259.022 290.143 296.16 251.267 215.89 242.821 272.013 260.065 233.755 221.006 225.05 220.337 210.016 205.614 197.368 192.258 186.467 164.655 171.505 171.385 81.983 93.112 219.61 242.611 240.893 254.096 249.592 247.786 237.23 204.152 230.895 245.173 218.914 218.557 223.235 220.975 219.753 202.008 193.832 202.083 197.441 184.817 174.795 161.885 157.396 86.3328 106.512 251.059 286.631 268.082 261.442 254.995 254.344 247.866 233.536 248.662 235.57 210.796 211.893 205.909 209.321 206.275 178.988 194.274 202.798 196.326 190.721 175.778 168.759 182.79 102.296 138.191 311.173 333.599 322.384 315.098 298.661 293.011 277.948 266.743 258.427 241.569 224.668 218.288 222.444 225.602 216.108 184.278 185.258 195.071 184.262 181.188 176.076 155.948 170.409 99.2311 187.24 395.325 408.282 404.648 375.514 329.041 316.115 308.967 293.174 277.57 275.01 263.803 240.911 232.847 218.28 213.829 202.411 185.917 192.167 179.169 174.863 182.461 170.636 167.962 86.9364 111.938 225.826 232.26 228.619 198.505 170.401 164.884 163.364 159.859 153.151 146.416 141.895 121.664 107.674 102.142 98.3065 100.366 93.8483 90.2091 86.5637 84.0367 88.8543 98.2992 97.515 45.4395 115.837 236.703 221.48 115.837 115.837 236.703 467.553 221.48 213.579 428.443 386.56 213.579 115.837 115.837 236.703 221.48 115.837 213.579 115.837 120.866 242.65 246.073 242.65 471.206 214.865 427.304 444.007 120.866 120.866 242.65 246.073 214.865 120.866 121.785 229.511 225.134 229.511 440.753 212.439 399.279 416.442 121.785 121.785 229.511 225.134 212.439 121.785 107.726 214.562 215.619 214.562 422.857 186.841 373.898 382.438 107.726 107.726 214.562 215.619 186.841 107.726 106.836 182.885 207.238 182.885 369 187.058 345.894 372.796 106.836 106.836 182.885 207.238 187.058 106.836 76.0485 164.216 161.762 164.216 353.097 158.836 343.545 348.29 76.0485 76.0485 164.216 161.762 158.836 76.0485 88.1678 171.402 191.335 171.402 356.818 184.709 337.364 346.148 88.1678 88.1678 171.402 191.335 184.709 88.1678 83.2345 150.405 165.483 150.405 301.471 152.656 286.854 303.122 83.2345 83.2345 150.405 165.483 152.656 83.2345 67.1701 139.991 135.988 139.991 282.535 134.199 267.424 270.584 67.1701 67.1701 139.991 135.988 134.199 67.1701 72.8204 142.858 146.548 142.858 303.957 133.225 259.648 272.532 72.8204 72.8204 142.858 146.548 133.225 72.8204 70.0372 133.576 157.41 133.576 276.301 126.423 238.267 283.955 70.0372 70.0372 133.576 157.41 126.423 70.0372 63.539 127.114 118.892 127.114 228.178 111.844 231.939 227.559 63.539 63.539 127.114 118.892 111.844 63.539 63.5755 115.601 109.286 115.601 213.127 120.095 240.141 217.448 63.5755 63.5755 115.601 109.286 120.095 63.5755 52.0258 98.4075 103.84 98.4075 205.749 120.046 211.598 223.712 52.0258 52.0258 98.4075 103.84 120.046 52.0258 46.3817 90.3151 101.908 90.3151 198.027 91.552 182.857 199.401 46.3817 46.3817 90.3151 101.908 91.552 46.3817 43.9334 103.955 96.1186 103.955 191.033 91.3048 212.166 195.866 43.9334 43.9334 103.955 96.1186 91.3048 43.9334 60.0219 94.3655 94.9142 94.3655 170.629 120.861 199.859 211.316 60.0219 60.0219 94.3655 94.9142 120.861 60.0219 34.3436 78.7233 75.7149 78.7233 173.861 78.9975 177.07 169.748 34.3436 34.3436 78.7233 75.7149 78.9975 34.3436 44.3797 100.807 98.1466 100.807 199.03 98.0728 210.033 184.895 44.3797 44.3797 100.807 98.1466 98.0728 44.3797 56.4277 87.5773 100.883 87.5773 184.378 111.961 192.412 192.993 56.4277 56.4277 87.5773 100.883 111.961 56.4277 31.1497 66.7075 83.4953 66.7075 167.611 80.4518 152.304 180.159 31.1497 31.1497 66.7075 83.4953 80.4518 31.1497 35.5579 69.1745 84.1156 69.1745 149.962 71.8523 141.181 171.24 35.5579 35.5579 69.1745 84.1156 71.8523 35.5579 33.6166 79.509 65.8468 79.509 165.47 69.3291 161.499 143.989 33.6166 33.6166 79.509 65.8468 69.3291 33.6166 45.8924 45.8924 99.6228 45.8924 99.6228 92.1698 92.1698 178.412 45.8924 45.8924 45.8924 99.6228 92.1698 45.8924 97.7416 191.741 363.014 165.079 174.601 340.976 309.484 174.601 97.7416 191.741 165.079 97.7416 174.601 97.7416 184.653 389.243 166.375 342.353 346.8 93.9992 184.653 197.934 166.375 93.9992 169.769 358.128 175.978 327.909 344.877 90.654 169.769 191.308 175.978 90.654 159.336 332.376 151.931 305.841 297.54 79.1148 159.336 166.819 151.931 79.1148 163.01 352.085 153.91 302.525 312.234 80.2217 163.01 165.557 153.91 80.2217 179.329 341.341 148.615 323.533 319.725 82.7879 179.329 186.528 148.615 82.7879 165.962 292.452 174.918 308.139 292.855 96.541 165.962 154.813 174.918 96.541 136.45 272.234 133.221 255.131 261.346 69.4211 136.45 137.638 133.221 69.4211 127.433 260.581 121.91 235.369 240.663 67.0285 127.433 134.596 121.91 67.0285 116.79 252.531 113.458 222.728 240.295 60.4046 116.79 125.985 113.458 60.4046 104.691 235.213 109.27 205.605 239.785 56.3858 104.691 126.546 109.27 56.3858 104.824 216.829 96.3354 215.196 219.489 48.3049 104.824 108.667 96.3354 48.3049 124.54 228.033 118.861 242.593 222.917 56.5195 124.54 108.162 118.861 56.5195 113.191 217.364 123.732 236.841 229.809 68.0202 113.191 119.871 123.732 68.0202 92.5418 197.24 113.109 218.461 221.237 45.1703 92.5418 97.4925 113.109 45.1703 108.211 216.15 105.351 219.474 218.189 47.3714 108.211 99.7474 105.351 47.3714 105.493 210.435 114.123 203.451 222.449 60.8393 105.493 116.402 114.123 60.8393 98.347 180.781 89.3281 209.054 185.332 44.6539 98.347 94.0329 89.3281 44.6539 109.226 178.858 119.726 226.414 192.576 53.6931 109.226 86.7484 119.726 53.6931 104.835 188.773 106.688 196.105 205.393 55.5329 104.835 92.1099 106.688 55.5329 85.5967 183.788 89.4168 175.004 170.92 49.3022 85.5967 96.6636 89.4168 49.3022 72.0069 165.266 85.5873 163.417 166.752 36.2945 72.0069 87.124 85.5873 36.2945 81.9898 156.931 77.8293 159.21 163.696 35.7124 81.9898 78.1424 77.8293 35.7124 46.2774 78.789 81.381 81.381 151.846 46.2774 46.2774 78.789 81.381 46.2774 76.8589 149.235 293.27 144.404 149.558 293.967 280.571 149.558 76.8589 149.235 144.404 76.8589 149.558 76.8589 157.7 302.433 144.409 293.689 281.01 72.376 157.7 148.865 144.409 72.376 158.141 284.289 149.28 286.506 267.69 85.3241 158.141 153.568 149.28 85.3241 146.504 277.398 137.226 267.988 260.809 72.8164 146.504 130.721 137.226 72.8164 139.515 279.873 130.762 265.715 264.87 73.688 139.515 146.677 130.762 73.688 144.204 271.238 134.953 274.182 277.405 65.8271 144.204 133.196 134.953 65.8271 142.177 261.75 139.229 269.3 253.029 78.377 142.177 138.042 139.229 78.377 118.682 229.775 130.071 240.312 258.456 63.8002 118.682 123.708 130.071 63.8002 107.935 220.377 110.24 229.916 226.695 54.8816 107.935 106.067 110.24 54.8816 105.938 227.55 119.676 225.699 234.258 53.0538 105.938 114.31 119.676 53.0538 100.914 224.061 106.023 208.039 233.259 52.8837 100.914 113.239 106.023 52.8837 110.372 225.576 102.017 225.968 214.038 48.0305 110.372 110.822 102.017 48.0305 118.053 224.692 123.951 237.4 220.081 62.3415 118.053 114.755 123.951 62.3415 123.651 233.683 113.448 235.519 221.61 55.7116 123.651 109.938 113.448 55.7116 125.919 242.186 122.071 236.14 228.745 67.9392 125.919 123.745 122.071 67.9392 111.264 224.488 114.069 220.008 214.754 57.9799 111.264 118.441 114.069 57.9799 97.9579 197.346 105.939 202.63 212.856 53.2837 97.9579 106.047 105.939 53.2837 110.707 197.127 96.6918 206.33 193.263 44.6743 110.707 91.2995 96.6918 44.6743 117.188 219.111 109.638 208.129 203.823 66.0325 117.188 105.828 109.638 66.0325 91.2698 187.54 98.4909 177.761 199.942 51.1553 91.2698 113.283 98.4909 51.1553 89.4074 153.885 79.2701 167.204 159.365 40.1146 89.4074 74.2566 79.2701 40.1146 91.4097 165.182 87.9336 176.977 171.901 49.2928 91.4097 79.6279 87.9336 49.2928 77.2205 158.611 89.0435 166.053 174.936 42.1169 77.2205 85.5539 89.0435 42.1169 35.1036 73.057 77.0094 77.0094 148.05 35.1036 35.1036 73.057 77.0094 35.1036 72.6989 144.732 268.311 136.167 119.629 247.772 221.734 119.629 72.6989 144.732 136.167 72.6989 119.629 72.6989 135.989 246.267 128.143 245.481 257.19 72.0331 135.989 132.144 128.143 72.0331 128.366 244.21 117.338 254.217 229.042 63.9561 128.366 114.122 117.338 63.9561 121.484 248.281 136.879 260.757 266.935 64.4098 121.484 130.088 136.879 64.4098 126.2 262.402 123.878 265.676 246.175 57.0741 126.2 118.193 123.878 57.0741 129.978 259.195 141.798 267.279 279.379 69.1259 129.978 144.209 141.798 69.1259 127.123 249.735 125.481 244.171 243.975 60.8518 127.123 114.987 125.481 60.8518 121.63 255.376 118.69 232.745 248.033 66.2712 121.63 134.748 118.69 66.2712 121.981 240.575 114.055 244.939 230.766 55.3586 121.981 120.627 114.055 55.3586 119.762 239.967 130.884 246.306 244.507 66.6225 119.762 119.948 130.884 66.6225 107.125 223.235 115.422 227.089 241.498 53.1391 107.125 120.019 115.422 53.1391 115.596 208.543 111.667 220.839 217.785 53.9861 115.596 103.216 111.667 53.9861 119.346 216.999 109.172 217.866 204.181 61.6097 119.346 105.327 109.172 61.6097 111.869 216.673 108.693 218.291 215.236 57.7368 111.869 111.673 108.693 57.7368 110.221 201.313 109.598 218.35 216.14 54.1318 110.221 105 109.598 54.1318 108.744 203.122 108.752 211.352 194.019 56.0894 108.744 96.3129 108.752 56.0894 104.672 208.773 102.6 195.07 210.657 52.6549 104.672 106.81 102.6 52.6549 95.623 199.959 92.47 176.383 190.502 52.0175 95.623 101.964 92.47 52.0175 90.9411 184.654 83.9131 164.282 178.152 43.6055 90.9411 97.9951 83.9131 43.6055 86.4912 171.768 80.369 152.306 157.284 47.3357 86.4912 86.659 80.369 47.3357 77.7963 177.381 71.9372 154.707 158.121 39.1555 77.7963 85.1086 71.9372 39.1555 85.5674 181.655 82.7699 160.69 175.349 38.6408 85.5674 92.2729 82.7699 38.6408 88.8324 164.375 77.9202 161.846 156.465 46.9266 88.8324 89.3823 77.9202 46.9266 41.9058 74.9925 83.9253 83.9253 151.619 41.9058 41.9058 74.9925 83.9253 41.9058 46.93 103.04 210.613 85.5667 113.779 258.09 213.381 113.779 46.93 103.04 85.5667 46.93 113.779 46.93 109.492 239.966 144.311 270.082 292.623 56.1096 109.492 125.046 144.311 56.1096 125.851 251.767 125.771 285.757 263.147 53.3821 125.851 114.919 125.771 53.3821 139.273 264.829 159.986 295.296 306.202 72.4692 139.273 136.847 159.986 72.4692 139.476 263.152 135.31 281.981 271.272 66.8039 139.476 127.982 135.31 66.8039 137.301 264.159 146.671 291.993 275.515 72.6719 137.301 135.17 146.671 72.6719 117.048 242.273 145.323 265.588 290.576 64.6292 117.048 128.988 145.323 64.6292 111.116 223.423 120.265 247.428 237.255 52.4189 111.116 113.285 120.265 52.4189 122.958 234.698 127.163 254.967 238.394 58.6967 122.958 110.139 127.163 58.6967 126.544 246.038 127.804 252.852 253.191 64.2615 126.544 124.56 127.804 64.2615 119.963 236.047 125.047 237.786 245.238 62.283 119.963 121.479 125.047 62.283 105.243 213.423 112.738 211.872 230 57.6805 105.243 114.569 112.738 57.6805 98.5192 202.418 99.1333 215.342 220.758 47.5626 98.5192 98.8546 99.1333 47.5626 106.422 214.703 116.209 222.547 231.416 50.9566 106.422 103.563 116.209 50.9566 108.129 208.846 106.338 205.522 213.434 55.4658 108.129 111.14 106.338 55.4658 102.608 201.553 99.1838 206.631 185.356 52.6628 102.608 97.706 99.1838 52.6628 90.3972 192.385 107.447 208.895 212.358 49.9448 90.3972 103.847 107.447 49.9448 80.7601 168.695 101.448 193.383 196.394 40.4525 80.7601 88.5383 101.448 40.4525 73.341 150.782 91.9351 189.089 175.653 40.3076 73.341 80.1565 91.9351 40.3076 65.8151 143.637 97.1539 181.502 172.639 33.0334 65.8151 70.625 97.1539 33.0334 76.9108 156.089 84.3481 175.891 166.195 32.7817 76.9108 73.0122 84.3481 32.7817 75.1226 150.159 91.5429 161.362 166.623 44.1291 75.1226 83.0765 91.5429 44.1291 73.0131 143.71 69.8195 161.431 150.01 30.9936 73.0131 67.0829 69.8195 30.9936 42.0195 76.6267 91.612 91.612 178.658 42.0195 42.0195 76.6267 91.612 42.0195 66.8491 155.05 295.391 127.814 154.127 330.862 298.961 154.127 66.8491 155.05 127.814 66.8491 154.127 66.8491 160.59 315.804 176.735 329.897 342.127 88.2009 160.59 167.577 176.735 88.2009 159.906 317.582 153.162 336.145 327.379 72.3891 159.906 148.227 153.162 72.3891 156.023 312.645 182.982 333.277 348.173 87.517 156.023 169.354 182.982 87.517 142.505 283.635 150.294 302.483 298.537 68.5062 142.505 143.29 150.294 68.5062 154.692 301.933 152.189 306.784 301.136 73.9989 154.692 140.345 152.189 73.9989 148.54 285.559 154.594 300.907 313.935 80.6933 148.54 161.588 154.594 80.6933 136.312 252.226 146.312 279.957 264.378 67.8465 136.312 123.971 146.312 67.8465 132.009 256.887 133.645 259.772 269.26 68.4658 132.009 128.255 133.645 68.4658 126.307 252.391 126.126 264.165 241.122 63.5429 126.307 128.632 126.126 63.5429 117.822 239.191 138.038 253.69 265.74 62.7645 117.822 123.759 138.038 62.7645 106.629 237.335 115.652 231.244 241.243 55.0579 106.629 115.432 115.652 55.0579 116.823 249.756 115.592 240.5 246.413 51.5707 116.823 121.903 115.592 51.5707 116.124 230.147 124.908 229.543 239.62 65.2523 116.124 127.853 124.908 65.2523 97.3931 189.943 104.635 206.704 219.908 50.8721 97.3931 102.294 104.635 50.8721 104.024 196.161 102.069 208.145 208.613 46.521 104.024 87.6496 102.069 46.521 118.498 216.367 106.075 213.394 201.683 57.5025 118.498 108.511 106.075 57.5025 112.623 203.353 107.319 205.508 208.725 60.9955 112.623 107.856 107.319 60.9955 115.748 197.511 98.189 219.14 191.436 51.6275 115.748 95.4968 98.189 51.6275 115.687 195.197 120.95 215.419 193.694 64.1206 115.687 102.014 120.95 64.1206 98.9802 176.729 94.4682 195.772 177.105 51.5664 98.9802 93.1832 94.4682 51.5664 86.2397 166.474 101.304 181.897 176.255 47.4138 86.2397 83.5462 101.304 47.4138 88.4183 184.959 80.5936 168.591 185.457 38.8259 88.4183 82.9273 80.5936 38.8259 49.5924 102.031 87.9971 87.9971 189.755 49.5924 49.5924 102.031 87.9971 49.5924 87.278 175.812 345.696 171.146 207.35 407.783 393.722 207.35 87.278 175.812 171.146 87.278 207.35 87.278 169.307 353.702 200.433 387.176 411.72 88.5341 169.307 174.55 200.433 88.5341 176.238 357.971 186.743 399.333 390.558 80.773 176.238 179.152 186.743 80.773 177.253 334.066 212.59 401.991 411.99 95.4654 177.253 178.819 212.59 95.4654 159.978 316.038 189.401 356.623 359.119 81.788 159.978 155.247 189.401 81.788 152.091 313.138 167.223 326.465 345.031 78.1905 152.091 160.791 167.223 78.1905 152.367 292.755 159.242 325.009 327.653 73.9009 152.367 152.347 159.242 73.9009 143.645 281.411 165.767 306.353 305.931 78.4659 143.645 140.407 165.767 78.4659 127.763 253.495 140.586 289.176 300.349 65.1792 127.763 141.004 140.586 65.1792 137.857 254.471 148.59 285.996 257.586 62.5836 137.857 112.491 148.59 62.5836 135.868 267.791 137.406 254.712 268.536 75.2737 135.868 141.98 137.406 75.2737 124.616 250.321 117.306 245.697 244.793 60.5944 124.616 125.811 117.306 60.5944 123.677 236.277 128.391 245.822 258.169 64.0215 123.677 124.51 128.391 64.0215 113.418 229.381 117.431 221.509 219.948 59.6554 113.418 111.767 117.431 59.6554 109.311 238.577 104.078 207.2 217.111 53.7629 109.311 117.614 104.078 53.7629 104.121 214.135 103.123 207.849 206.486 55.5482 104.121 120.963 103.123 55.5482 94.896 194.041 104.726 197.842 200.07 48.5728 94.896 93.1721 104.726 48.5728 92.8848 196.809 93.1154 188.533 180.59 46.3232 92.8848 100.869 93.1154 46.3232 103.392 187.619 95.4178 196.519 205.715 46.5616 103.392 95.9395 95.4178 46.5616 99.7317 175.601 101.102 179.864 174.947 56.8299 99.7317 91.6797 101.102 56.8299 96.7918 176.631 78.7628 176.281 155.669 42.9018 96.7918 83.9217 78.7628 42.9018 95.6577 195.239 97.5186 174.979 170.788 53.89 95.6577 92.7091 97.5186 53.89 80.1724 190.253 77.4605 158.643 184.084 41.7677 80.1724 102.53 77.4605 41.7677 38.4047 87.7232 81.1825 81.1825 166.82 38.4047 38.4047 87.7232 81.1825 38.4047 120.072 231.971 459.745 222.576 120.072 231.971 222.576 120.072 120.072 231.971 222.576 120.072 120.072 120.072 217.869 448.576 111.899 217.869 237.17 111.899 217.869 237.17 111.899 111.899 223.094 444.578 105.97 223.094 211.406 105.97 223.094 211.406 105.97 105.97 224.737 437.044 117.125 224.737 233.172 117.125 224.737 233.172 117.125 117.125 196.645 388.113 107.613 196.645 203.872 107.613 196.645 203.872 107.613 107.613 174.374 359.546 89.0323 174.374 184.24 89.0323 174.374 184.24 89.0323 89.0323 172.643 340.829 85.3412 172.643 175.305 85.3412 172.643 175.305 85.3412 85.3412 162.708 324.869 87.3013 162.708 165.524 87.3013 162.708 165.524 87.3013 87.3013 161.413 304.44 75.4069 161.413 159.345 75.4069 161.413 159.345 75.4069 75.4069 148.139 271.651 86.0066 148.139 145.095 86.0066 148.139 145.095 86.0066 86.0066 118.844 245.538 62.132 118.844 126.556 62.132 118.844 126.556 62.132 62.132 121.081 252.641 56.7118 121.081 118.982 56.7118 121.081 118.982 56.7118 56.7118 122.145 241.84 64.3693 122.145 133.659 64.3693 122.145 133.659 64.3693 64.3693 108.09 207.678 57.7754 108.09 108.181 57.7754 108.09 108.181 57.7754 57.7754 97.8891 185.019 50.3148 97.8891 99.497 50.3148 97.8891 99.497 50.3148 50.3148 103.728 192.42 47.5743 103.728 85.5225 47.5743 103.728 85.5225 47.5743 47.5743 102.946 186.618 56.1534 102.946 106.898 56.1534 102.946 106.898 56.1534 56.1534 95.6485 189.496 46.7922 95.6485 79.7206 46.7922 95.6485 79.7206 46.7922 46.7922 93.128 193.043 48.8563 93.128 109.775 48.8563 93.128 109.775 48.8563 48.8563 80.1327 155.014 44.2717 80.1327 83.2675 44.2717 80.1327 83.2675 44.2717 44.2717 79.4896 149.825 35.861 79.4896 71.7469 35.861 79.4896 71.7469 35.861 35.861 79.3214 159.632 43.6286 79.3214 78.0784 43.6286 79.3214 78.0784 43.6286 43.6286 78.4706 160.65 35.6928 78.4706 81.5537 35.6928 78.4706 81.5537 35.6928 35.6928 42.7778 79.0968 42.7778 42.7778 79.0968 42.7778 42.7778 79.0968 42.7778 42.7778 230.85 220.375 105.643 459.363 220.375 402.123 363.029 172.981 105.643 230.85 220.375 105.643 172.981 105.643 228.556 238.988 465.543 433.145 430.482 125.207 228.556 238.988 229.142 125.207 211.242 226.554 440.367 399.601 409.621 103.349 211.242 226.554 204.003 103.349 208.295 213.813 415.669 381.335 400.82 107.893 208.295 213.813 195.598 107.893 186.116 201.856 376.478 375.191 372.401 100.402 186.116 201.856 185.738 100.402 188.88 174.623 350.325 350.893 357.46 85.7133 188.88 174.623 189.454 85.7133 185.416 175.703 334.334 311.905 312.588 103.167 185.416 175.703 161.439 103.167 151.066 158.631 310.163 286.851 299.182 82.2488 151.066 158.631 150.466 82.2488 142.544 151.532 288.033 275.692 282.996 68.8174 142.544 151.532 136.385 68.8174 161.099 136.501 279.112 296.84 278.416 73.7271 161.099 136.501 139.307 73.7271 142.725 142.61 261.034 273.247 268.252 87.3724 142.725 142.61 157.532 87.3724 101.063 118.424 221.811 213.068 237.557 55.3526 101.063 118.424 115.715 55.3526 97.5254 103.388 201.313 201.019 211.674 45.7109 97.5254 103.388 97.3534 45.7109 107.341 97.9254 205.826 211.514 198.736 51.8145 107.341 97.9254 103.666 51.8145 107.712 107.9 212.712 212.41 222.19 55.5267 107.712 107.9 107.849 55.5267 87.0775 104.811 185.016 195.016 210.894 52.1852 87.0775 104.811 104.561 52.1852 76.2635 80.2044 174.736 181.206 190.858 34.8923 76.2635 80.2044 90.4552 34.8923 95.1381 94.5311 184.232 177.572 189.849 41.3713 95.1381 94.5311 90.7503 41.3713 98.2222 89.7009 177.099 167.854 174.257 53.7668 98.2222 89.7009 86.8221 53.7668 96.801 87.3981 179.172 180.739 177.862 44.4553 96.801 87.3981 81.0323 44.4553 100.903 91.774 182.96 199.094 176.729 52.3457 100.903 91.774 99.7071 52.3457 80.7879 91.186 171.365 174.047 174.896 48.5578 80.7879 91.186 99.3872 48.5578 85.9605 80.1785 166.954 160.902 157.286 32.2301 85.9605 80.1785 74.6601 32.2301 53.7304 86.7755 86.7755 86.242 155.341 53.7304 53.7304 86.7755 86.242 53.7304 334.148 142.655 315.308 270.429 134.883 171.273 142.655 67.3379 134.883 67.3379 374.559 349.323 341.405 204.59 191.493 180.424 103.935 370.073 314.508 337.219 188.359 183.066 168.898 100.654 357.553 303.933 314.633 173.04 187.007 145.609 87.7044 353.383 329.434 316.147 189.076 170.546 158.324 85.3355 319.723 289.047 316.567 162.013 182.837 171.11 103.74 277.437 246.062 271.855 126.49 136.886 117.937 58.2724 272.015 246.878 279.116 135.785 140.551 128.125 68.2173 273.379 245.59 244.526 133.148 131.464 118.753 67.5675 267.557 257.352 257.374 135.74 141.915 126.837 65.5803 244.775 253.669 243.518 130.522 125.642 130.516 70.1598 227.42 227.209 244.207 112.005 119.133 123.153 60.3621 209.097 210.133 204.984 103.494 108.286 104.056 51.6426 215.1 214.205 209.832 104.173 100.81 106.077 51.851 220.373 220.965 229.51 104.698 114.289 108.128 52.3222 216.737 221.163 225.135 107.939 106.083 112.837 52.3759 205.971 204.33 226.478 104.942 110.654 108.326 55.5629 179.873 168.855 194.009 82.4343 95.3175 96.0042 49.3791 175.019 171.555 165.517 69.6323 84.5559 72.8505 33.0553 175.418 180.208 187.15 83.9384 90.4634 98.7048 36.577 168.665 162.668 164.432 98.1909 84.9547 81.5034 47.3614 160.817 167.032 149.732 93.2594 83.71 81.1645 50.8295 145.673 156.332 169.758 74.9416 77.1071 85.867 42.4299 68.5655 70.4651 166.474 32.5117 68.5655 70.4651 32.5117 277.686 127.774 267.614 244.813 131.013 144.035 127.774 67.5452 131.013 67.5452 304.064 255.011 271.13 144.733 149.911 136.6 76.4894 281.779 241.993 267.504 126.149 154.153 118.41 68.2439 273.228 257.691 258.675 130.893 127.626 123.583 57.9049 279.332 276.56 264.828 140.358 145.602 134.108 72.9886 268.7 256.252 269 127.034 133.73 142.452 67.3694 273.535 242.184 238.493 119.572 134.97 113.8 59.665 251.627 244.839 271.198 111.093 138.565 128.384 59.9074 228.521 231.036 236.743 112.442 113.062 116.454 51.1854 233.335 241.817 225.92 121.612 115.459 114.582 61.2564 242.95 239.257 243.505 123.147 117.876 127.236 60.3558 221.771 208.151 223.699 115.204 125.073 112.021 62.7913 205.719 204.292 198.521 106.639 96.6981 96.1301 52.4132 224.241 214.836 213.559 110.032 109.021 108.162 54.226 234.272 207.359 210.128 116.267 115.22 106.674 55.8058 234.876 207.603 221.929 113.225 119.052 100.685 60.4614 214.516 203.489 214.95 99.3884 115.824 106.918 52.7632 179.652 190.756 204.628 86.4204 98.6913 96.5714 46.6252 177.647 195.636 167.718 101.923 80.9607 94.1848 39.7952 176.164 181.546 179.838 96.2698 96.6867 101.451 62.1278 145.5 164.062 164.927 64.4771 79.4775 80.095 34.142 158.674 169.86 165.074 73.7721 66.0225 83.9672 30.3351 190.56 156.933 184.598 81.3904 92.6514 85.8927 43.437 97.9089 71.0401 177.027 37.9534 97.9089 71.0401 37.9534 238.257 117.039 231.152 202.946 102.105 123.579 117.039 63.4683 102.105 63.4683 234.57 240.751 241.322 110.277 121.219 129.047 60.111 244.4 241.76 238.863 115.844 113.351 111.704 50.1663 250.275 252.353 259.389 126.797 131.049 130.056 65.678 254.495 259.878 259.384 136.202 119.226 122.297 61.1193 238.792 256.075 259.165 129.218 135.269 137.581 75.0827 236.155 247.837 226.824 122.612 103.523 118.494 54.1349 256.313 246.054 248.121 133.746 132.632 129.343 68.477 234.142 230.334 223.137 118.594 123.681 116.711 65.2689 236.089 239.699 219.439 120.205 110.461 113.623 53.3252 224.254 232.194 247.674 116.11 125.628 126.076 66.88 200.449 201.127 220.277 92.9469 98.6259 106.118 49.2299 206.361 201.552 207.14 97.653 101.823 95.009 43.7169 199.445 213.085 202.572 104.804 104.538 106.543 53.936 197.785 191.809 213.131 91.0916 94.9074 106.542 50.8681 202.002 193.324 184.65 94.3781 102.877 85.2667 40.2235 205.062 206.089 196.412 104.101 99.1253 108.057 54.1547 192.695 192.271 195.772 104.336 105.937 98.032 49.9463 169.909 171.154 181.822 93.713 86.7577 94.2385 54.3896 168.6 163.099 167.175 85.2764 83.1509 76.915 39.3234 184.5 178.763 169.583 99.5851 85.4491 86.1836 45.953 190.997 171.125 170.908 96.0878 99.0511 92.5795 53.6321 171.065 146.239 185.274 75.5424 91.9462 78.545 42.4557 79.1185 67.6939 157.973 33.0867 79.1185 67.6939 33.0867 206.011 85.9075 247.914 210.207 99.6018 107.573 85.9075 38.6367 99.6018 38.6367 245.615 285.688 267.016 130.474 120.103 148.313 68.9364 253.852 283.591 266.957 125.916 125.512 137.375 61.5374 268.498 282.178 288.867 125.556 128.34 146.216 64.3782 264.054 264.806 282.628 123.676 140.158 135.962 61.1778 247.197 274.098 265.161 126.857 123.895 128.844 62.4983 238.79 262.244 272.789 125.225 123.302 145.254 64.3591 214.944 228.222 233.093 112.308 115.488 116.99 60.8657 208.434 236.618 210.739 111.74 99.4562 111.232 51.442 231.024 245.578 228.274 119.494 108.978 125.387 60.2981 243.697 237.453 236.787 116.084 122.046 120.191 59.1959 226.968 238.887 226.268 108.18 121.651 117.262 56.888 203.352 236.832 236.697 103.899 105.318 121.625 51.292 216.258 222.303 215.217 108.281 98.0342 115.208 52.6068 199.996 193.268 225.249 100.717 118.224 107.096 55.6739 179.06 191.083 174.845 98.9455 81.7728 86.1718 45.0432 187.122 199.857 192.667 101.988 97.2872 104.911 53.9023 184.899 178.664 192.779 87.9347 89.8351 94.9462 48.0858 179.088 159.204 186.413 77.4405 95.0639 83.7182 39.8489 168.159 157.333 175.718 77.8222 84.0245 75.4854 37.5916 155.992 156.927 163.146 79.178 84.1344 81.8473 40.2305 165.185 155.271 149.861 75.0368 71.8572 75.0798 38.9474 172.183 167.237 178.141 70.6965 93.3282 80.1908 36.0894 78.8548 87.0461 185.056 34.6072 78.8548 87.0461 34.6072 271.212 124.299 310.226 287.461 144.834 140.341 124.299 60.9651 144.834 60.9651 288.358 339.609 335.911 155.214 146.913 165.392 79.3761 301.972 339.408 330.386 157.675 141.445 174.217 75.8381 302.997 313.434 331.669 156.621 160.527 165.191 81.8374 283.736 297.189 294.116 141.13 142.47 148.243 74.7841 290.753 308.287 308.409 147.241 141.266 148.946 66.3461 267.091 277.407 304.899 137.019 149.487 159.341 80.8947 228.887 253.68 241.244 115.914 117.604 118.066 56.1243 230.578 250.61 254.582 124.878 111.283 135.614 59.7896 234.037 242.697 229.49 126.084 119.295 114.996 65.0887 219.359 253.292 232.325 121.369 114.741 127.701 60.9949 235.997 256.412 231.721 130.707 104.618 125.591 60.374 248.563 245.533 241.806 132.933 131.38 130.821 70.3325 224.208 229.985 222.083 114.023 117.183 114.712 62.6008 200.098 221.817 212.971 92.5504 107.025 115.273 51.4218 188.452 202.151 214.54 92.137 93.0726 106.544 41.1286 198.324 197.014 192.945 97.8688 95.3794 95.6077 51.0084 194.293 194.654 200.996 90.7297 102.944 101.406 46.8604 183.042 165.991 174.194 81.7631 91.3488 93.2472 43.8693 170.704 155.38 166.556 79.5106 91.693 72.7435 37.8938 157.015 157.588 171.24 77.7492 79.0114 82.6367 41.6168 162.816 179.815 175.895 80.2338 78.0039 74.9515 36.1324 191.014 206.621 187.268 96.5404 84.8124 104.864 44.1014 106.201 101.757 204.848 52.439 106.201 101.757 52.439 352.16 163.161 397.659 361.015 186.373 169.884 163.161 83.8685 186.373 83.8685 377.94 415.102 428.039 184.395 188.999 211.286 86.0158 360.083 403.216 410.405 181.732 188.941 203.815 98.3789 322.788 369.119 395.179 156.812 171.142 199.4 83.3533 318.789 347.527 346.762 156.059 151.646 169.719 73.4591 322.556 346.219 354.633 161.047 167.143 177.808 82.6001 279.053 308.574 336.176 140.388 155.412 168.411 78.4465 266.939 299.927 275.305 137.766 123.64 140.164 61.9413 253.494 268.759 296.46 125.732 143.299 159.763 75.8249 227.779 240.126 243.477 116.614 110.195 108.996 49.907 244.687 258.618 247.262 131.923 117.584 131.131 66.7065 237.53 257.265 242.27 125.706 127.103 127.487 65.2168 215.326 232.295 239.139 112.6 110.426 129.778 60.4888 210.845 215.55 213.725 115.962 104.9 102.517 52.1113 227.413 216.396 212.841 129.266 105.946 113.033 63.851 219.033 198.707 209.544 110.014 121.468 103.363 65.4151 195.617 182.818 186.309 99.1452 97.5654 95.3436 44.5993 180.897 197.771 180.889 103.924 98.0517 87.4742 54.5459 157.708 184.143 193.468 84.2277 82.8454 110.297 49.3779 167.091 150.751 168.017 75.8697 74.8626 73.8455 34.8498 190.12 150.175 171.995 79.839 92.2286 76.9058 41.0199 200.346 179.892 169.837 99.5814 97.891 73.2689 38.8191 201.102 192.261 184.528 110.081 102.455 106.623 60.7623 98.6469 85.6375 180.073 49.3185 98.6469 85.6375 49.3185 436.894 197.854 227.775 197.854 102.504 227.775 197.854 102.504 102.504 102.504 460.505 230.707 239.041 230.707 239.041 125.271 125.271 445.502 221.483 221.465 221.483 221.465 105.436 105.436 419.153 212.307 224.037 212.307 224.037 116.047 116.047 382.606 191.468 195.116 191.468 195.116 96.2597 96.2597 368.253 185.172 187.49 185.172 187.49 95.208 95.208 332.429 168.186 180.764 168.186 180.764 89.9642 89.9642 304.826 162.161 151.665 162.161 151.665 78.2223 78.2223 286.442 143.027 153.16 143.027 153.16 83.9382 83.9382 262.96 123.513 133.282 123.513 133.282 59.0885 59.0885 244.845 126.694 129.679 126.694 129.679 64.4242 64.4242 243.879 131.56 115.167 131.56 115.167 62.2701 62.2701 237.538 119.695 128.712 119.695 128.712 69.2894 69.2894 215.721 99.5877 108.825 99.5877 108.825 50.4055 50.4055 194.972 87.1304 106.896 87.1304 106.896 49.1822 49.1822 176.82 88.6925 88.0762 88.6925 88.0762 37.9482 37.9482 171.581 83.6727 88.744 83.6727 88.744 50.7443 50.7443 193.46 93.8476 82.8371 93.8476 82.8371 32.9284 32.9284 203.778 99.915 110.623 99.915 110.623 60.9192 60.9192 172.921 74.8816 93.1549 74.8816 93.1549 38.9958 38.9958 151.712 70.3357 79.7666 70.3357 79.7666 35.8858 35.8858 154.018 80.3107 71.9456 80.3107 71.9456 34.4498 34.4498 163.498 82.1799 82.0726 82.1799 82.0726 45.8609 45.8609 81.4259 36.319 81.4259 36.319 81.4259 36.319 36.319 228.513 224.545 114.732 460.703 224.545 391.388 362.337 190.048 114.732 228.513 224.545 114.732 190.048 114.732 236.987 236.158 480.782 406.957 419.039 113.782 236.987 236.158 201.339 113.782 229.125 244.624 459.436 410.84 424.739 123.205 229.125 244.624 205.617 123.205 207.374 214.812 428.848 391.886 413.354 105.92 207.374 214.812 205.223 105.92 190.363 214.036 396.064 354.67 387.662 101.454 190.363 214.036 186.664 101.454 161.445 182.028 344.049 319.155 333.496 88.9093 161.445 182.028 168.006 88.9093 148.918 162.021 328.35 299.865 313.242 72.5357 148.918 162.021 151.149 72.5357 159.097 166.329 324.806 295.327 317.332 76.3822 159.097 166.329 148.716 76.3822 145.489 158.478 290.626 285.72 296.625 82.7146 145.489 158.478 146.611 82.7146 118.012 132.149 272.675 249.829 268.948 62.7741 118.012 132.149 139.109 62.7741 118.309 140.527 273.301 232.563 252.693 55.2381 118.309 140.527 110.72 55.2381 120.748 132.775 260.525 236.163 243.614 63.0713 120.748 132.775 121.842 63.0713 103.788 127.75 223.471 209.391 248.43 57.6767 103.788 127.75 114.32 57.6767 98.4847 95.7215 205.177 209.411 189.636 46.1109 98.4847 95.7215 95.0704 46.1109 105 109.456 216.642 220.674 212.258 52.3737 105 109.456 114.341 52.3737 97.938 107.186 189.901 206.736 207.441 52.6259 97.938 107.186 106.333 52.6259 98.472 82.7149 172.944 199.501 183.342 45.3121 98.472 82.7149 100.403 45.3121 89.0939 90.2293 178.553 186.533 187.785 53.1599 89.0939 90.2293 99.0983 53.1599 78.8769 88.3236 165.919 184.264 186.702 35.9341 78.8769 88.3236 87.4347 35.9341 82.3711 77.5954 158.875 173.851 166.244 42.9428 82.3711 77.5954 96.8293 42.9428 82.0565 81.2793 166.806 152.53 166.218 39.4283 82.0565 81.2793 77.0215 39.4283 90.5766 85.5264 176.563 158.134 161.71 42.6283 90.5766 85.5264 75.5087 42.6283 80.9935 91.0365 169.428 151.724 166.285 47.9484 80.9935 91.0365 82.6255 47.9484 33.0451 78.3912 78.3912 69.099 158.199 33.0451 33.0451 78.3912 69.099 33.0451 320.672 137.792 296.526 256.965 135.546 162.875 137.792 75.3167 135.546 75.3167 362.995 329.301 335.612 169.97 182.881 160.98 87.558 378.657 337.345 335.489 181.715 180.114 168.321 82.4119 372.169 326.847 362.385 184.513 198.543 169.024 99.3027 325.094 303.281 320.092 164.307 173.626 157.823 85.2101 302.689 299.376 291.56 157.71 151.468 145.458 79.0971 302.225 304.91 281.014 150.947 151.221 153.918 78.6132 289.151 276.765 286.396 136.23 151.003 150.992 72.3335 274.947 256.31 264.262 140.232 138.147 125.773 63.8968 248.966 243.54 245.086 131.817 136.8 130.537 76.3348 223.006 234.056 227.431 114.253 112.166 113.003 55.4822 231.519 221.982 221.781 115.415 110.839 121.053 58.7712 214.594 204.683 210.869 105.603 120.68 100.929 56.6436 196.716 225.136 205.169 110.927 93.9143 103.754 48.9594 203.057 233.68 196.771 115.674 102.802 121.382 61.9671 200.882 230.45 191.161 108.798 100.255 112.298 53.7074 198.182 216.156 198.09 101.029 100.627 118.152 55.0907 195.934 190.671 198.356 97.4391 97.5554 98.0046 45.9384 187.028 181.112 183.851 105.387 98.3788 92.6662 51.5006 173.588 171.374 166.55 91.4797 88.6488 88.4454 53.8864 161.123 151.497 187.198 70.4737 84.9391 82.9287 37.5932 151.432 152.459 155.623 67.5576 76.1838 68.568 32.8805 155.056 179.901 167.877 70.7309 75.2485 83.8915 34.6771 79.8078 96.0094 178.297 36.0538 79.8078 96.0094 36.0538 271.905 119.174 248.329 235.857 113.799 133.651 119.174 60.2289 113.799 60.2289 308.106 283.624 282.966 159.331 152.731 134.53 73.4221 319.217 284.186 285.676 155.63 155.375 149.094 85.909 310.309 265.812 303.463 142.335 163.843 135.092 69.7213 286.558 257.267 269.3 138.974 146.466 130.72 72.6133 269.885 251.24 249.766 141.666 140.092 126.548 66.3608 265.185 267.506 251.335 153.963 129.793 124.693 75.3048 261.506 263.101 239.902 140.534 135.392 142.813 78.658 234.4 231.626 249.842 116.079 126.114 120.288 61.8764 223.55 227.607 222.89 111.723 108.286 111.338 54.2023 226.206 227.947 230.505 119.802 115.264 116.269 57.5206 201.13 214.069 218.887 106.567 110.942 111.678 62.2819 201.443 207.788 200.485 99.08 90.1888 102.391 44.2849 205.223 208.851 208.462 114.21 111.254 105.397 54.795 184.874 224.698 180.931 118.005 93.9689 103.454 59.4145 188.369 229.276 199.972 121.652 90.9056 121.244 58.5908 198.264 216.089 201.313 115.127 97.4632 108.032 63.0611 186.273 181.591 203.991 93.2317 100.801 108.057 52.0661 163.373 151.92 158.81 75.7245 85.4722 73.5336 41.1655 180.16 163.218 157.87 79.8944 77.9008 78.3865 34.559 181.698 165.938 191.973 81.0229 102.259 84.8315 45.3355 172.067 179.811 161.515 84.9019 79.4388 81.1064 35.6875 191.117 204.692 168.959 109.17 92.6284 98.7049 49.2144 98.4891 105.987 180.753 59.9555 98.4891 105.987 59.9555 246.918 116.683 213.116 209.222 100.841 114.678 116.683 53.5705 100.841 53.5705 260.536 239.434 244.214 124.292 130.235 112.274 61.1076 269.922 256.492 250.738 128.556 130.302 127.159 63.1849 262.455 266.42 275.212 123.477 139.621 129.333 65.3709 232.508 258.671 272.997 118.293 122.834 137.087 58.1066 231.216 229.914 231.378 109.575 109.674 121.584 60.1867 226.051 227.108 231.727 113.543 121.542 108.33 49.3879 228.237 225.204 225.681 122.567 104.509 118.778 64.1552 238.331 212.242 226.092 115.548 123.728 106.426 58.4118 229.844 227.414 209.751 115.884 114.604 105.816 57.1358 223.186 235.757 231.94 108.144 115.24 121.598 58.7482 218.242 226.29 224.51 107.502 107.946 114.159 49.396 207.504 208.161 213.475 108.708 110.296 112.131 58.1059 184.17 202.618 193.435 94.6412 97.2077 96.0293 50.6019 196.029 205.972 204.649 106.693 86.9624 106.589 44.0393 212.917 187.739 191.916 107.624 109.067 99.3833 62.6537 207.04 186.096 196.094 100.961 103.85 88.3555 44.9706 176.528 185.323 179.982 88.3588 103.19 97.7402 55.9908 153.307 177.843 168.167 76.1955 73.3376 87.583 32.368 169.684 173.66 172.697 83.3235 79.9692 90.2604 43.8275 171.79 161.729 177.203 84.915 89.7146 83.3999 39.4961 158.407 185.058 155.443 94.9095 82.0759 78.3288 45.419 158.595 197.009 175.914 95.5223 76.331 106.729 49.4905 82.2636 90.2794 163.537 46.0318 82.2636 90.2794 46.0318 206.518 92.5388 229.308 218.3 110.605 98.4376 92.5388 47.2708 110.605 47.2708 234.416 248.285 257.693 115.141 113.979 118.703 51.1668 256.029 272.233 284.154 127.937 120.437 129.581 63.9744 285.755 289.318 283.415 142.942 135.592 142.652 63.9621 271.867 282.983 285.726 140.377 150.163 146.666 78.9803 231.889 263.852 277.03 120.34 121.704 136.317 61.3971 231.356 243.638 249.245 113.565 110.185 127.535 58.9426 223.536 215.61 243.64 102.637 121.172 116.103 54.6226 197.512 202.394 212.808 96.6943 102.364 99.5073 48.0142 211.847 219.483 218.892 111.53 95.1476 102.887 48.6801 233.264 225.603 223.566 127.613 116.7 116.597 62.8501 219.743 224.079 214.616 118.788 116.565 109.006 64.7628 199.405 215.082 215.783 99.453 103.178 115.073 54.0256 213.914 218.163 193.583 107.977 96.2269 100.01 45.4274 200.536 206.826 223.059 99.2793 117.687 118.153 62.5497 175.093 176.429 175.44 80.1144 82.849 88.6736 36.7295 169.036 185.589 180.958 85.1342 92.2444 87.7559 43.3849 171.621 200.528 179.779 96.9643 76.7918 97.8331 41.7493 187.557 202.927 185.167 101.648 94.8291 102.694 55.215 180.216 181.531 195.683 90.3368 92.7276 100.232 46.4329 160.856 156.08 167.275 76.8137 87.4885 81.2985 43.9039 172.95 172.731 160.001 90.1486 73.3674 74.7813 32.9098 180.856 195.96 176.551 101.486 99.5827 97.9498 57.2388 81.2732 98.0101 179.054 44.2476 81.2732 98.0101 44.2476 269.476 125.762 313.147 281.272 142.627 130.871 125.762 63.3342 142.627 63.3342 307.432 326.688 333.079 133.143 143.715 170.519 67.5364 311.54 322.647 350.317 144.297 163.717 156.169 65.607 283.386 312.351 341.134 146.375 147.823 166.478 78.6896 290.889 305.336 291.759 142.606 135.563 145.873 67.6858 294.386 305.021 329.717 143.512 155.326 159.463 74.9199 261.528 268.737 302.315 130.072 139.06 145.558 68.5924 232.912 242.146 261.145 112.973 122.468 123.179 61.4799 234.188 233.462 245.754 105.7 110.444 118.968 51.4931 230.611 219.118 244.771 107.953 123.744 114.495 54.2067 204.918 210.754 219.252 97.9902 106.866 104.624 53.7466 210.656 217.115 225.638 105.291 98.0516 106.13 44.2436 209.961 218.355 223.599 115.629 112.605 110.985 61.0471 202.728 205.068 201.079 110.185 97.3564 107.371 54.5822 197.963 205.695 194.065 107.547 105.372 97.6978 55.6032 181.304 205.334 208.718 96.315 92.5912 107.997 51.944 191.7 196.927 182.997 100.455 88.7132 97.3371 44.371 193.325 180.536 200.836 103.563 102.987 99.5895 56.0837 193.293 174.759 164.397 101.279 90.3375 80.947 47.4795 182.743 182.415 178.495 91.1939 102.956 93.812 53.7992 166.421 189.547 169.183 79.2661 79.787 88.6033 37.3946 163.602 183.347 181.717 82.5824 86.6339 100.943 41.8715 174.749 185.495 152.692 94.4734 76.968 82.4041 40.711 97.7807 103.091 196.629 53.7625 97.7807 103.091 53.7625 344.875 155.51 391.395 360.576 174.642 182.276 155.51 79.2929 174.642 79.2929 375.965 423.343 426.459 193.545 189.365 216.753 102.983 379.911 402.369 423.162 178.351 186.6 206.59 90.5619 349.507 372.822 410.745 165.976 193.311 195.779 87.7886 330.588 353.868 349.858 162.73 156.197 177.043 78.187 337.646 344.59 369.469 161.509 174.391 176.825 84.5431 301.932 302.907 343.497 138.665 163.256 167.765 76.9658 273.987 271.838 304.345 129.173 138.677 135.142 61.6989 256.337 271.178 280.674 127.762 135.31 136.697 67.4744 233.413 250.613 267.628 111.165 121.027 134.481 60.2879 239.972 230.915 241.658 112.764 112.386 116.132 50.877 238.581 224.144 251.737 111.824 127.586 114.783 61.8865 214.717 220.569 222.62 102.726 110.995 109.361 49.9376 192.416 211.016 211.664 94.883 103.722 111.208 52.7883 204.82 205.989 199.269 98.1473 88.6936 99.8081 42.0947 210.41 197.146 219.291 109.019 116.127 106.181 56.0527 192.132 184.38 179.447 96.4718 94.2838 90.9657 52.9661 171.908 176.586 195.25 76.9733 97.8484 93.4146 43.5058 149.598 177.343 169.663 73.4803 74.0591 83.1712 33.4675 164.935 189.261 183.668 91.2214 75.5393 94.1719 40.0128 184.478 191.657 183.224 110.281 89.3957 95.0894 51.2086 170.807 174.473 170.899 100.765 95.0828 96.5677 59.0719 174.572 172.34 156.187 91.0216 75.7239 77.9049 41.6932 98.848 94.4353 167.922 49.3284 98.848 94.4353 49.3284 442.159 205.066 209.119 205.066 95.3494 209.119 205.066 95.3494 95.3494 95.3494 473.656 229.798 237.094 229.798 237.094 113.77 113.77 453.996 224.018 236.562 224.018 236.562 116.028 116.028 411.096 206.846 217.434 206.846 217.434 107.99 107.99 388.74 191.138 193.662 191.138 193.662 98.8561 98.8561 375.32 183.081 195.078 183.081 195.078 92.2817 92.2817 345.91 164.242 180.242 164.242 180.242 90.7994 90.7994 311.032 142.665 165.668 142.665 165.668 73.4429 73.4429 291.964 143.415 145.364 143.415 145.364 69.2222 69.2222 275.873 139.448 146.601 139.448 146.601 74.1931 74.1931 253.423 118.151 129.272 118.151 129.272 65.2545 65.2545 235.776 112.32 124.151 112.32 124.151 52.8965 52.8965 219.567 117.843 111.625 117.843 111.625 59.423 59.423 218.517 116.133 107.942 116.133 107.942 58.4199 58.4199 213.74 107.841 110.575 107.841 110.575 57.7134 57.7134 188.328 88.1277 103.165 88.1277 103.165 50.128 50.128 182.565 87.9085 85.163 87.9085 85.163 37.9997 37.9997 193.006 99.6125 97.4019 99.6125 97.4019 49.9088 49.9088 203.732 103.863 95.6041 103.863 95.6041 49.7037 49.7037 201.957 98.0398 108.128 98.0398 108.128 54.1591 54.1591 169.645 81.3765 93.8288 81.3765 93.8288 43.8807 43.8807 156.28 73.7075 75.8167 73.7075 75.8167 37.4958 37.4958 149.538 81.3186 80.4633 81.3186 80.4633 36.2117 36.2117 69.0744 45.1069 69.0744 45.1069 69.0744 45.1069 45.1069 232.19 222.799 109.814 465.734 222.799 389.988 355.132 172.289 109.814 232.19 222.799 109.814 172.289 109.814 243.795 242.935 485.275 436.82 441.874 122.376 243.795 242.935 217.699 122.376 230.31 242.341 451.171 427.253 433.605 121.419 230.31 242.341 219.121 121.419 221.474 208.831 417.879 409.13 406.431 108.892 221.474 208.831 208.132 108.892 205.701 209.049 396.607 366.488 374.884 112.582 205.701 209.049 200.998 112.582 182.604 187.559 359.447 327.583 334.709 93.1188 182.604 187.559 165.49 93.1188 179.432 171.888 341.661 330.71 325.221 89.4852 179.432 171.888 162.093 89.4852 165.71 169.772 326.669 318.63 326.34 89.9467 165.71 169.772 168.617 89.9467 145.137 156.897 308.076 279.853 296.23 75.763 145.137 156.897 150.014 75.763 154.663 151.179 307.977 271.812 268.324 69.3745 154.663 151.179 129.84 69.3745 154.992 156.797 297.213 263.744 268.605 85.2887 154.992 156.797 141.973 85.2887 139.777 140.416 269.008 255.881 239.495 69.7035 139.777 140.416 121.772 69.7035 119.684 128.592 232.17 228.675 254.101 70.0731 119.684 128.592 134.109 70.0731 106.693 103.578 212.319 192.482 196.318 49.6106 106.693 103.578 94.5654 49.6106 111.642 108.741 219.125 199.025 195.028 57.0821 111.642 108.741 97.9168 57.0821 91.9628 110.384 202.419 184.047 212.522 54.5601 91.9628 110.384 101.108 54.5601 74.4722 92.0347 177.634 171.626 177.929 37.4027 74.4722 92.0347 82.9392 37.4027 89.459 85.5998 190.138 187.954 179.787 37.0694 89.459 85.5998 88.6864 37.0694 87.0421 104.538 185.272 168.683 202.821 52.3896 87.0421 104.538 99.2678 52.3896 76.5036 80.734 156.859 158.612 150.967 34.6526 76.5036 80.734 69.415 34.6526 84.7492 76.125 163.205 175.398 165.506 41.8511 84.7492 76.125 89.197 41.8511 85.9863 87.0802 184.43 169.861 160.586 42.8982 85.9863 87.0802 86.2015 42.8982 88.4342 97.3493 176.814 172.759 167.413 43.0881 88.4342 97.3493 83.6594 43.0881 45.3461 79.4645 79.4645 89.1 165.615 45.3461 45.3461 79.4645 89.1 45.3461 331.272 132.333 296.052 240.484 121.42 157.798 132.333 62.4749 121.42 62.4749 390.203 341.8 339.911 193.025 198.939 174.632 95.3228 388.864 360.53 347.922 196.943 191.264 167.168 97.7025 363.436 355.63 376.555 187.656 197.6 193.361 99.2401 312.986 308.371 302.532 160.787 165.836 162.269 88.4159 300.483 273.198 290.147 144.979 147.15 146.102 72.371 309.901 262.5 268.096 151.278 153.333 127.096 72.6078 295.901 273.892 278.716 152.921 156.568 135.404 78.6699 256.478 253.037 259.386 134.716 139.333 138.488 74.2507 228.952 228.977 228.633 117.149 117.145 114.549 60.4651 210.886 215.156 218.662 108.752 111.807 114.428 56.684 224.588 210.668 212.12 116.104 99.0789 100.728 52.0683 218.249 211.354 212.8 108.991 125.509 109.94 64.0362 179.027 176.803 212.067 85.7895 92.7398 101.414 44.9549 188.424 154.252 174.675 87.3825 86.2867 75.3891 40.8347 188.032 158.801 169.573 92.0842 102.138 78.8626 46.5478 180.081 180.29 167.676 97.1534 85.8942 79.9385 45.5364 192.47 191.536 192.316 98.4951 94.1868 100.352 51.6169 168.516 169.289 179.803 81.6406 98.283 91.1849 46.8782 159.614 182.373 152.517 82.1083 70.2329 78.1042 34.7624 162.887 191.324 181.38 90.6492 89.381 104.269 47.3459 143.569 171.04 159.81 83.8747 73.5062 87.0546 43.3033 156.214 166.273 146.205 84.3253 70.0632 83.9854 40.5714 86.1503 82.2875 155.734 43.754 86.1503 82.2875 43.754 249.123 108.151 270.494 229.521 122.057 138.254 108.151 58.9448 122.057 58.9448 297.63 285.019 273.84 148.775 140.972 148.437 79.3093 335.613 304.953 283.273 163.587 156.658 136.582 69.4657 315.651 306.951 328.86 167.974 178.955 168.371 94.1213 279.692 261.799 276.633 147.584 136.696 138.58 73.8531 257.76 249.861 244.567 128.219 142.996 123.219 73.7311 236.912 223.73 254.427 111.222 114.764 126.642 54.4879 242.201 226.642 224.587 120.972 122.148 97.0883 56.7341 231.541 241.105 245.207 118.321 120.053 129.554 64.2376 218.343 225.787 232.525 111.828 111.488 111.551 54.0836 219.896 221.445 221.27 106.404 106.855 114.236 57.7439 200.332 205.304 218.994 94.5634 113.041 107.209 48.6596 206.618 201.159 189.589 102.363 87.2906 98.0943 45.9038 207.715 180.542 209.39 91.0136 119.327 103.065 56.4592 155.823 156.205 189.567 66.8692 88.3881 77.4774 34.5544 149.217 172.009 165.38 66.7169 67.4354 78.728 32.3148 179.911 189.215 183.106 83.1367 81.782 93.2814 34.402 179.649 181.21 195.872 93.0413 98.1294 95.9339 48.7346 163.804 164.76 158.074 87.6485 81.5199 85.2762 44.3067 174.283 186.625 155.165 100.265 82.2843 79.4836 43.3418 178.303 187.55 185.509 100.675 91.9987 107.142 56.9233 162.446 150.663 160.176 87.1654 86.3041 80.4082 43.7513 145.725 145.02 140.203 81.9476 76.1414 70.2546 43.414 69.5833 74.7653 132.32 38.5335 69.5833 74.7653 38.5335 254.238 121.37 240.32 210.316 108.38 132.24 121.37 63.1125 108.38 63.1125 259.483 255.518 256.917 136.244 132.868 131.939 69.1273 276.519 269.458 241.894 141.367 126.615 123.579 67.1167 289.842 281.79 294.703 138.977 149.904 145.879 74.2498 241.508 245.705 289.399 114.215 139.937 135.91 64.7272 241.234 233.191 225.474 121.642 101.571 109.795 49.4877 242.102 230.3 252.306 112.508 139.663 123.396 72.1542 227.592 226.569 211.195 105.67 102.439 106.903 40.3542 246.19 223.601 226.933 122.784 125.154 119.666 65.3161 235.451 214.277 219.409 113.96 121.036 103.935 57.4678 220.368 220.693 211.167 115.042 114.415 110.341 56.4919 208.252 211.695 214.603 110.74 105.953 110.352 58.5496 192.361 198.748 209.741 98.7963 102.299 101.343 52.1905 191.241 195.465 193.912 89.5288 90.0625 97.4052 46.6058 199.123 190.593 204.546 89.3362 101.179 98.0601 42.923 199.268 200.271 192.589 105.293 97.9446 92.5327 46.4132 199.066 189.981 199.217 106.079 101.324 107.739 58.8793 174.297 162.825 179.394 88.1688 97.7425 82.2418 47.1993 149.435 163.02 162.955 77.1113 76.5546 80.5836 40.9695 166.391 176.24 162.944 86.3603 72.8805 82.4365 36.1417 167.383 170.918 175.998 86.8754 93.5108 93.8032 50.2186 137.934 146.299 169.183 63.4974 73.8722 77.1145 36.6569 126.798 142.442 154.335 63.0724 64.0614 69.1844 26.8405 62.7368 73.2574 135.18 36.2318 62.7368 73.2574 36.2318 212.996 88.9467 246.686 219.523 107.695 108.08 88.9467 45.268 107.695 45.268 239.329 293.563 277.85 119.274 124.049 138.99 62.812 260.078 295.336 301.634 128.092 115.28 154.572 56.4623 294.261 279.823 306.234 142.813 144.799 140.763 71.6296 273.365 279.773 285.897 131.49 149.462 139.06 71.183 236.545 262.423 271.444 111.549 123.903 140.713 60.3068 221.399 249.247 245.953 117.791 112.643 121.71 51.2422 210.536 240.838 222.006 120.899 108.756 127.537 66.549 200.153 229.306 211.24 100.817 101.78 113.301 54.3498 195.125 222.974 224.045 100.317 98.3732 116.005 46.4675 205.402 212.579 208.43 105.651 96.7518 106.969 53.8495 216.092 206.32 217.244 100.955 108.65 105.61 51.802 211.292 194.284 205.121 99.9522 107.442 100.71 49.1527 207.217 198.479 205.49 105.937 103.85 93.5736 50.7995 198.011 191.672 199.623 101.257 103.367 104.906 55.137 192.538 179.968 196.948 94.979 94.6443 86.7666 46.1195 179.545 175.148 184.855 83.902 97.8936 93.2017 48.8595 168.052 164.418 174.15 74.6566 81.6514 81.9459 35.0425 176.464 177.923 169.925 85.9088 86.4002 82.4722 39.6141 172.551 181.428 177.482 89.8794 90.0638 95.4512 46.2947 177.798 171.197 162.363 84.0422 82.4871 85.977 43.5846 185.584 163.821 175.57 82.8015 95.311 85.22 40.4576 162.716 159.645 166.134 79.3694 90.2732 78.6009 42.3439 72.443 81.0438 158.455 37.0256 72.443 81.0438 37.0256 284.376 130.576 301.205 285.777 138.645 138.606 130.576 62.4274 138.645 62.4274 340.155 356.708 343.845 174.288 153.8 162.56 76.1782 347.79 368.804 386.819 167.244 186.355 194.148 98.1101 297.87 320.542 359.195 137.01 161.435 174.655 69.1335 283.976 316.14 300.783 148.283 136.435 145.886 67.8768 280.851 327.011 322.862 150.874 147.541 170.254 80.4061 246.56 294.723 282.658 131.455 133.31 156.757 70.4675 222.71 264.752 268.512 119.939 113.25 137.966 60.988 235.132 257.063 246.995 128.488 109.46 126.786 58.9509 237.35 244.905 252.22 122.657 125.672 130.277 69.5376 220.272 234.136 233.291 106.928 111.678 114.628 53.1197 206.273 232.122 239.088 105.366 108.594 119.508 53.808 199.32 206.323 208.822 94.3318 97.6794 112.615 51.5576 197.896 190.076 196.783 92.5428 101.64 93.708 42.7741 198.56 197.089 197.109 90.4157 96.2561 96.3675 49.7686 189.265 186.381 206.428 84.9893 102.304 100.721 40.6471 179.459 186.906 165.371 91.2456 86.961 85.6599 44.3422 176.023 184.696 189.824 89.7615 92.4982 101.246 46.9034 170.943 168.133 174.393 92.0146 83.525 83.4497 42.8581 167.294 165.262 182.869 91.5489 87.418 84.683 49.1565 160.135 161.353 164.06 87.1548 79.8763 80.5794 42.3924 156.12 151.061 159.862 81.0195 80.2588 80.7733 44.7624 161.873 163.826 163.917 80.2753 75.8608 70.2878 36.257 86.0117 93.5378 187.803 44.0182 86.0117 93.5378 44.0182 345.246 155.201 395.639 381.585 185.934 162.599 155.201 76.2173 185.934 76.2173 390.509 426.277 434.294 182.42 190.045 209.706 86.3818 398.224 431.538 432.554 201.56 200.464 216.572 96.038 362.108 387.782 415.541 183.532 197.76 214.966 105.522 339.669 365.46 358.616 167.857 164.348 172.815 78.0097 324.669 368.376 387.385 176.138 175.321 192.644 89.8478 304.611 344.935 334.944 163.268 149.348 175.732 86.2897 292.797 313.18 324.485 144.814 155.262 169.203 76.9779 264.083 277.124 292.403 128.575 137.534 143.977 67.8356 248.162 258.673 268.405 122.248 126.548 133.147 60.7392 252.107 262.48 251.455 127.208 121.613 125.526 61.5087 241.636 250.213 255.176 126.757 130.494 136.954 65.6997 206.285 213.715 218.267 111.991 111.143 113.259 61.0571 195.995 199.917 214.426 97.5328 95.1423 100.456 50.9339 204.978 212.572 215.21 106.673 100.853 99.4608 46.5989 182.535 201.592 209.901 101.392 104.125 113.111 60.074 175.736 190.317 176.124 95.6604 78.4099 88.4811 41.3177 188.194 188.328 192.238 94.9343 97.326 101.836 54.3427 186.32 175.988 182.082 76.1181 90.8684 86.492 40.5916 179.635 177.631 194.171 73.7136 95.4512 89.4957 35.5265 163.788 162.467 166.562 74.1979 84.1841 88.1351 38.1871 167.66 152.614 152.581 70.0416 79.6036 74.3318 36.0109 189.848 151.77 172.682 83.5504 88.0562 78.2824 34.0308 101.792 73.4871 169.401 49.5196 101.792 73.4871 49.5196 470.633 226.384 233.04 226.384 109.716 233.04 226.384 109.716 109.716 109.716 476.339 243.857 244.249 243.857 244.249 123.324 123.324 449.871 229.978 232.09 229.978 232.09 120.534 120.534 412.048 204.25 217.781 204.25 217.781 109.444 109.444 406.331 197.602 194.267 197.602 194.267 94.8057 94.8057 397.66 192.239 212.064 192.239 212.064 102.796 102.796 354.818 181.668 185.596 181.668 185.596 89.4424 89.4424 324.091 168.367 169.223 168.367 169.223 92.2252 92.2252 296.725 148.549 154.868 148.549 154.868 76.1414 76.1414 271.699 136.425 141.857 136.425 141.857 72.4076 72.4076 254.525 135.272 129.842 135.272 129.842 64.0176 64.0176 231.807 123.457 124.683 123.457 124.683 71.2543 71.2543 226.408 101.724 107.124 101.724 107.124 52.2022 52.2022 233.642 102.384 119.284 102.384 119.284 49.5219 49.5219 220.133 105.899 114.357 105.899 114.357 52.8619 52.8619 203.49 100.2 105.776 100.2 105.776 53.0368 53.0368 192.626 94.6565 97.7139 94.6565 97.7139 47.1633 47.1633 186.125 93.3936 94.9117 93.3936 94.9117 47.4932 47.4932 189.933 99.8696 91.2132 99.8696 91.2132 45.9004 45.9004 181.098 103.917 98.72 103.917 98.72 53.9692 53.9692 155.356 88.269 82.3784 88.269 82.3784 49.948 49.948 157.604 82.5726 72.9778 82.5726 72.9778 38.321 38.321 152.235 68.2191 84.6259 68.2191 84.6259 44.2516 44.2516 67.6089 23.9675 67.6089 23.9675 67.6089 23.9675 23.9675 233.544 233.827 112.986 468.981 233.827 407.018 394.031 182.843 112.986 233.544 233.827 112.986 182.843 112.986 241.48 235.154 472.272 438.658 450.858 120.558 241.48 235.154 224.175 120.558 220.861 237.119 438.377 412.782 422.452 120.922 220.861 237.119 214.483 120.922 196.405 201.258 409.772 372.185 386.667 99.939 196.405 201.258 198.299 99.939 190.906 208.514 392.235 343.105 377.915 96.466 190.906 208.514 173.886 96.466 176.843 183.721 352.128 332.347 350.303 94.4399 176.843 183.721 169.219 94.4399 162.229 168.407 335.158 320.852 315.224 82.4033 162.229 168.407 163.128 82.4033 160.959 166.751 321.647 303.94 320.743 79.8254 160.959 166.751 157.724 79.8254 162.938 154.895 302.86 284.701 290.997 81.1337 162.938 154.895 146.216 81.1337 153.313 147.964 280.127 265.117 287.291 81.8048 153.313 147.964 138.485 81.8048 142.221 132.163 261.891 244.355 248.738 71.5086 142.221 132.163 126.632 71.5086 129.231 129.728 246.319 237.715 227.194 70.7124 129.231 129.728 117.723 70.7124 112.486 116.591 224.944 221.745 235.558 58.519 112.486 116.591 119.992 58.519 105.627 108.352 204.348 198.864 214.501 53.9675 105.627 108.352 101.752 53.9675 107.483 95.9961 200.233 208.525 187.824 51.6591 107.483 95.9961 97.1111 51.6591 110.456 104.237 201.06 206.404 207.236 55.8239 110.456 104.237 111.414 55.8239 103.162 96.8227 190.113 186.09 178.789 54.6319 103.162 96.8227 94.9897 54.6319 100.679 93.2904 190.728 194.653 181.851 48.5304 100.679 93.2904 91.1003 48.5304 98.2296 97.4375 191.753 185.105 201.239 52.1482 98.2296 97.4375 103.553 52.1482 80.3554 94.3156 163.149 157.861 161.196 46.0814 80.3554 94.3156 81.5519 46.0814 78.456 68.8332 161.895 150.694 155.853 34.274 78.456 68.8332 76.3091 34.274 98.4433 93.0616 193.612 158.138 164.334 44.182 98.4433 93.0616 74.385 44.182 88.3796 100.551 175.861 160.268 166.304 54.2612 88.3796 100.551 83.7531 54.2612 34.1184 75.3099 75.3099 76.5148 151.024 34.1184 34.1184 75.3099 76.5148 34.1184 375.908 160.204 284.343 266.883 119.064 173.474 160.204 69.8576 119.064 69.8576 401.039 346.033 357.3 197.178 215.705 165.279 103.616 370.743 363.948 353.996 191.921 185.334 180.754 93.5614 354.81 323.457 350.507 175.78 185.409 183.194 98.3598 335.983 284.307 297.04 152.199 169.4 140.263 77.4201 313.399 285.045 300.514 155.504 166.582 144.044 74.7792 300.808 284.313 269.78 158.623 146.817 141.001 80.7247 290.093 264.21 283.583 142.981 153.991 143.312 77.8983 275.429 234.982 250.203 121.762 136.102 120.898 65.0823 255.902 218.319 257.096 111.803 139.327 114.085 56.6799 214.041 215.626 228.352 102.134 116.575 104.234 55.1232 216.432 214.252 228.213 108.484 97.466 111.392 47.0106 225.115 213.513 209.987 109.258 118.966 102.86 61.4731 197.976 209.939 233.615 93.237 106.148 110.653 47.7849 194.826 189.996 193.855 101.042 91.8279 99.2857 45.452 184.965 178.448 181.762 95.9477 102.999 90.7105 55.5899 170.526 179.702 179.298 82.9277 81.9662 87.7377 40.3578 192.361 180.583 195.179 93.9747 88.5603 91.9646 42.5699 170.681 163.031 185.741 86.8753 103.801 88.618 51.4048 153.9 151.523 154.33 77.5056 66.8799 74.413 35.4705 158.292 149.866 171.003 72.238 87.02 77.1104 42.0351 137.026 134.975 155.176 59.6948 71.2725 72.7557 30.2029 141.468 135.665 133.285 71.8883 65.7538 62.2192 29.4919 75.7143 73.4462 158.367 42.3964 75.7143 73.4462 42.3964 248.274 106.679 232.867 211.629 107.464 110.869 106.679 49.2067 107.464 49.2067 310.256 272.094 269.231 148.855 141.595 125.403 61.6626 333.759 307.179 301.765 172.026 168.662 146.69 87.1922 292.738 298.541 312.792 147.677 165.097 160.489 84.8342 261.571 259.401 278.996 132.108 127.64 138.053 62.8427 256.894 249.133 245.601 129.541 133.931 121.349 69.2652 252.555 255.283 253.715 125.69 122.963 127.785 60.276 243.694 243.151 247.542 121.229 129.592 127.498 65.4136 231.871 236.626 228.956 113.22 114.102 115.653 55.8155 229.546 228.007 223.805 106.515 117.769 120.973 57.4047 242.524 218.819 216.332 113.492 111.777 107.034 49.1108 221.768 203.28 237.744 105.768 130.747 111.785 64.3814 218.488 197.82 201.841 104.255 91.0206 91.4951 41.3868 229.494 218.414 212.047 116.702 127.467 106.325 62.868 180.791 198.741 212.414 88.9543 102.027 112.09 53.8337 176.096 176.476 182.72 82.5005 78.7634 86.6519 35.1206 203.951 189.762 185.547 96.7747 97.3321 89.8242 47.3799 188.559 172.736 205.792 86.6079 106.619 99.938 49.3947 169.39 148.48 154.866 76.1557 81.9401 72.7983 37.2132 171.432 154.049 172.198 74.0178 87.4497 75.6813 38.9425 167.887 158.136 180.957 77.6281 83.9828 78.3676 35.0753 151.435 149.716 160.449 75.2802 83.9038 79.7681 42.5528 150.184 127.503 153.77 63.7772 67.5309 69.9482 32.7274 82.653 57.5548 159.637 31.0498 82.653 57.5548 31.0498 232.586 104.95 226.914 204.612 101.936 121.998 104.95 58.2572 101.936 58.2572 260.739 243.293 251.35 123.239 127.636 124.978 63.7408 280.797 267.139 258.389 135.152 133.103 118.315 59.4979 299.05 302.312 309.654 150.864 147.694 148.823 75.6544 263.025 269.168 307.196 127.293 151.356 153.489 75.2101 242.422 244.589 236.851 119.592 111.669 115.679 52.0834 248.702 233.201 253.327 129.594 130.752 128.91 67.5089 232.804 211.559 213.574 121.922 117.95 104.292 62.0848 220.89 222.742 222.81 123.406 114.854 107.267 59.8374 210.592 216.3 208.314 121.492 106.036 115.474 63.5685 211.553 205.077 194.128 105.326 104.556 100.826 57.9232 217.818 212.649 216.712 97.5115 106.997 104.251 47.4031 195.401 204.905 223.993 93.5651 110.821 108.398 50.1084 194.967 202.993 201.388 101.713 84.5804 96.5072 43.4567 214.344 206.542 194.413 109.787 110.387 106.485 58.2558 192.172 191.535 210.137 93.9756 103.957 100.056 51.5314 187.388 188.63 187.172 92.9875 88.2147 91.4783 42.4443 172.099 179.523 196.613 86.1283 99.1731 97.1521 50.5432 157.674 162.879 158.819 72.3239 72.9258 82.3712 35.5851 181.722 162.703 164.403 80.031 84.7484 80.5079 36.7388 173.519 174.263 184.993 80.5076 96.9739 82.1947 43.2923 162.784 177.219 174.618 74.4361 76.5452 92.0687 37.2153 163.223 147.073 170.111 63.7258 86.2388 85.1501 37.2208 76.9842 61.9224 154.267 26.505 76.9842 61.9224 26.505 223.376 99.6618 250.687 237.512 111.827 104.916 99.6618 43.6787 111.827 43.6787 249 285.921 283.921 120.055 123.714 138.86 61.2373 287.246 312.533 298.294 131.986 125.286 147.062 58.8173 317.8 312.308 325.247 151.448 161.96 165.471 73.169 281.022 277.568 295.405 141.875 155.84 146.837 78.279 247.756 254.974 253.13 124.996 125.181 130.731 63.5957 218.199 218.712 252.865 103.607 122.575 124.243 61.4006 203.58 192.408 213.85 89.637 95.6239 94.4687 42.2069 210.234 205.979 218.355 99.3358 107.956 97.9393 47.43 191.851 209.5 210.446 94.808 102.278 108.04 51.9057 199.288 213.095 203.227 99.7505 89.5728 101.461 42.9023 222.887 216.045 227.003 115.137 109.715 111.634 56.8482 229.98 216.328 216.733 111.34 113.172 104.411 58.2893 200.834 206.634 226.106 101.28 116.808 111.917 53.0505 190.207 204.898 189.742 96.7545 84.0259 94.7171 48.2296 205.138 201.834 218.734 97.5589 106.181 110.181 48.5249 196.397 183.857 180.588 95.643 98.9576 91.6529 49.0341 183.332 179.657 178.195 93.395 97.4395 92.2037 46.6089 165.547 169.484 172.51 90.5552 85.8927 87.453 46.7861 167.674 158.417 180.688 82.6715 79.6545 82.0306 43.7691 186.093 166.736 180.404 93.7558 88.0194 76.3863 38.9024 181.945 177.883 176.099 102.783 98.0733 90.3497 54.8534 161.154 164.944 163.591 83.3467 83.8718 87.5331 47.9293 77.2825 77.4109 167.073 35.4174 77.2825 77.4109 35.4174 298.057 137.85 328.418 298.176 147.132 145.771 137.85 68.1485 147.132 68.1485 333.215 373.956 365.71 165.867 160.207 181.285 77.6222 336.295 377.211 377.225 180.547 173.008 192.671 88.2447 302.852 339.436 344.794 160.86 163.287 184.54 92.3019 267.513 307.505 311.943 135.693 139.564 154.897 68.5579 258.239 278.51 285.173 129.978 127.949 152.609 67.1353 248.516 256.447 273.768 115.104 130.29 125.901 62.8426 228.625 250.754 268.676 102.771 118.226 130.546 52.2618 218.567 242.151 250.88 106.643 110.399 120.208 50.5093 221.823 240.606 238.615 114.692 108.169 121.943 56.1342 230.942 238.243 237.169 113.344 113.654 118.663 58.5582 220.849 215.787 244.166 100.908 117.288 119.58 54.7861 212.86 199.282 213.007 104.988 103.561 96.2074 46.1218 215.014 203.816 205.995 105.354 109.298 103.075 58.8662 218.269 206.449 210.556 108.144 105.716 100.742 46.4875 194.184 185.418 205.271 104.275 112.553 105.707 61.6565 162.386 168.289 168.724 88.2136 81.6306 79.7109 42.6188 167.372 179.522 169.208 86.2617 80.7556 88.5781 45.5948 187.65 189.13 169.176 78.9284 86.6169 90.9437 40.6669 193.418 181.667 215.376 75.7454 101.033 98.1862 38.2615 170.41 162.57 188.928 72.9802 92.3844 83.4809 37.4839 157.745 172.718 163.994 75.1001 78.0257 79.0891 35.4963 169.509 187.895 172.433 81.5973 79.7193 93.6292 39.6038 89.7901 94.2655 197.774 41.9935 89.7901 94.2655 41.9935 365.828 160.326 420.24 377.49 195.652 182.647 160.326 78.984 195.652 78.984 409.72 440.571 451.924 208.089 205.502 224.588 103.663 385.724 416.557 438.242 196.664 204.217 215.982 104.426 353.885 386.375 382.659 178.577 181.507 200.575 92.238 329.603 380.541 374.1 171.812 172.378 185.8 86.3386 300.702 353.953 365.917 148.532 157.224 194.741 85.4733 293.928 314.494 319.086 141.343 143.478 159.212 63.0586 290.931 303.707 331.087 147.983 150.45 155.282 78.2842 270.928 283.684 291.291 135.508 140.481 148.426 69.6988 253.961 261.187 265.852 125.914 130.447 135.258 65.8092 250.392 244.151 251.075 124.898 123.515 125.929 60.1045 236.323 223.23 240.7 114.88 126.878 118.222 64.794 206.142 218.978 218.917 94.294 109.446 105.007 50.0856 201.536 229.72 216.461 98.4624 96.6963 113.971 44.2084 197.557 212.54 231.748 98.3049 104.84 115.75 54.254 179.811 184.433 194.96 81.143 92.7178 96.7902 44.0508 175.545 178.045 198.328 80.0754 87.0929 87.6427 37.0921 171.012 185.991 193.942 93.2601 88.4525 90.4019 42.9833 196.902 200.265 181.27 110.202 82.5594 95.5896 50.2768 210.886 183.103 200.187 105.922 114.343 104.676 59.9247 182.511 156.677 171.335 89.5898 96.5434 78.4274 45.997 178.682 172.649 162.867 97.6182 85.968 78.2496 43.5928 200.698 190.313 187.055 106.297 92.7137 94.3997 54.0254 107.984 95.9135 185.607 52.272 107.984 95.9135 52.272 463.586 217.164 237.593 217.164 116.668 237.593 217.164 116.668 116.668 116.668 480.447 232.481 246.422 232.481 246.422 120.925 120.925 435.177 219.893 234.025 219.893 234.025 111.556 111.556 402.873 207.798 201.152 207.798 201.152 108.337 108.337 410.414 208.729 201.721 208.729 201.721 99.4617 99.4617 384.301 205.421 208.693 205.421 208.693 109.268 109.268 356.246 173.151 175.608 173.151 175.608 96.1533 96.1533 331.447 155.724 180.637 155.724 180.637 76.9975 76.9975 286.216 148.176 150.81 148.176 150.81 78.7269 78.7269 262.966 135.274 135.406 135.274 135.406 69.4492 69.4492 241.382 119.253 127.56 119.253 127.56 65.8244 65.8244 223.293 108.35 113.822 108.35 113.822 53.4284 53.4284 229.236 124.684 109.471 124.684 109.471 54.9218 54.9218 246.673 131.258 119.765 131.258 119.765 69.7623 69.7623 229.15 114.235 126.908 114.235 126.908 61.4955 61.4955 213.477 103.29 102.242 103.29 102.242 52.7393 52.7393 216.725 97.9692 111.236 97.9692 111.236 50.5506 50.5506 204.201 92.7313 105.49 92.7313 105.49 47.4186 47.4186 184.556 90.0636 98.711 90.0636 98.711 45.3128 45.3128 160.636 77.1812 85.8446 77.1812 85.8446 44.7508 44.7508 151.69 67.0872 74.7917 67.0872 74.7917 32.4303 32.4303 171.24 75.0311 76.8985 75.0311 76.8985 34.6568 34.6568 171.964 84.0157 94.3412 84.0157 94.3412 40.3743 40.3743 77.6226 43.6414 77.6226 43.6414 77.6226 43.6414 43.6414 235.437 241.499 120.842 467.082 241.499 437.872 407.549 211.188 120.842 235.437 241.499 120.842 211.188 120.842 230.792 225.583 449.113 434.653 426.516 114.595 230.792 225.583 226.684 114.595 217.516 223.53 439.451 396.338 412.911 116.197 217.516 223.53 207.969 116.197 213.367 215.922 450.531 392.397 390.475 101.319 213.367 215.922 188.369 101.319 201.329 234.61 424.26 385.113 395.991 112.048 201.329 234.61 204.028 112.048 175.285 189.65 360.665 333.18 357.796 89.2811 175.285 189.65 181.084 89.2811 172.93 171.014 328.686 315.115 318.438 86.0035 172.93 171.014 152.096 86.0035 160.688 157.671 318.35 307.8 285.07 86.926 160.688 157.671 163.019 86.926 139.921 160.679 303.85 293.588 296.085 73.7618 139.921 160.679 144.781 73.7618 126.814 143.171 269.33 270.912 293.175 66.1595 126.814 143.171 148.806 66.1595 119.67 126.159 248.498 231.577 252.32 60.6543 119.67 126.159 122.106 60.6543 117.088 122.339 245.921 225.037 227.917 59.0156 117.088 122.339 109.471 59.0156 112.457 123.582 231.912 228.314 226.513 58.0723 112.457 123.582 115.566 58.0723 98.7218 108.33 192.149 203.461 236.567 54.3848 98.7218 108.33 112.748 54.3848 92.7501 83.8189 178.024 186.535 175.066 44.337 92.7501 83.8189 90.7128 44.337 90.6039 94.205 189.029 179.621 199.074 48.4132 90.6039 94.205 95.8217 48.4132 86.9508 94.8235 191.375 174.55 187.272 42.1907 86.9508 94.8235 83.7991 42.1907 90.0494 96.5519 177.014 188.436 197.824 44.7601 90.0494 96.5519 90.7504 44.7601 93.5235 80.462 168.42 177.329 166.492 45.2893 93.5235 80.462 97.6857 45.2893 82.7934 87.9581 169.273 159.188 158.387 48.2342 82.7934 87.9581 79.6437 48.2342 83.4387 81.3145 168.999 169.493 163.158 34.5592 83.4387 81.3145 79.544 34.5592 95.1689 87.6846 170.677 172.5 169.496 48.8795 95.1689 87.6846 89.9491 48.8795 87.4809 82.9922 165.896 157.061 157.749 46.2894 87.4809 82.9922 82.5513 46.2894 41.1915 82.9041 82.9041 74.5094 156.017 41.1915 41.1915 82.9041 74.5094 41.1915 366.984 166.05 339.839 286.526 147.819 202.435 166.05 90.346 147.819 90.346 390.315 365.263 351.504 203.861 200.934 192.021 112.089 363.934 340.554 338.908 178.822 189.381 173.242 91.7725 335.935 324.09 323.793 179.03 174.553 167.312 87.0493 329.527 313.247 302.789 183.783 161.381 156.778 91.9804 315.57 285.249 289.954 157.895 168.146 156.469 91.803 274.822 269.051 282.62 142.185 147.424 128.78 66.0925 262.805 269.577 249.304 147.112 127.399 140.271 76.0929 285.41 272.317 259.872 153.666 135.406 129.306 71.0194 276.166 267.129 268.201 144.099 150.004 143.012 82.6469 231.739 240.939 239.792 111.907 126.162 124.118 61.4518 208.509 223.948 238.412 107.949 105.578 116.821 50.4554 231.167 230.09 208.837 115.857 102.931 107.127 57.4933 219.483 217.532 245.149 104.739 128.236 122.962 58.3635 196.116 185.621 186.319 93.7844 91.2472 94.5695 46.3758 197.318 182.612 185.153 89.017 104.869 91.0515 47.4086 193.721 194.775 191.673 87.5988 92.4488 91.5606 41.6084 187.303 200.338 205.879 98.3867 101.272 103.215 45.9904 156.459 177.04 185.791 83.8058 86.0302 97.1233 52.3963 152.272 173.809 173.481 76.3943 70.4292 79.9166 31.4095 163.655 176.313 172.62 86.0544 81.8431 93.8923 44.9848 156.569 153.486 165.448 77.3315 81.8119 82.4206 41.0696 147.87 155.986 156.346 69.5798 74.7572 71.0654 36.2619 73.1127 84.9211 164.023 33.3179 73.1127 84.9211 33.3179 271.046 120.475 247.993 218.595 104.165 137.405 120.475 57.4726 104.165 57.4726 300.098 298.902 276.935 161.402 150.571 143.827 79.9321 298.768 307.378 303.978 161.733 149.527 155.074 81.4695 290.648 293.247 278.327 145.061 149.24 152.303 80.2632 263.216 265.196 294.48 129.464 141.407 140.943 64.7974 257.004 250.183 236.59 127.353 121.808 124.252 64.6662 257.101 245.974 264.168 126.866 135.196 125.93 62.6871 246.371 233.346 235.136 122.465 121.905 120.044 64.1786 242.662 216.135 239.994 118.651 124.466 113.303 58.2861 231.828 212.13 224.567 123.03 118.197 102.832 60.3646 246.465 235.258 218.087 129.031 113.631 109.298 62.6658 238.74 236.306 244.511 116 132.834 125.959 66.3657 222.818 216.069 237.694 114.233 105.905 110.346 49.6339 211.985 206.047 217.578 112.793 116.913 105.723 64.599 175.357 196.393 211.571 91.8365 95.0723 100.325 48.1937 179.509 191.791 187.628 93.595 80.2843 96.0684 43.6429 203.831 201.577 195.745 107.177 99.2242 95.7226 49.9522 204.368 187.922 219.32 101.951 104.607 105.854 57.2244 202.813 178.584 188.395 93.2341 99.7613 82.0676 44.7269 193.828 199.106 190.233 97.4147 103.052 96.5167 48.5072 174.413 183.27 187.923 90.2585 90.7764 102.589 48.9075 165.225 164.502 166.843 76.1545 83.6361 80.6809 41.351 172.499 185.904 174.252 86.4067 81.5885 83.8215 34.8035 90.9104 102.082 190.841 51.6032 90.9104 102.082 51.6032 224.485 98.12 229.048 204.839 102.676 110.588 98.12 46.6928 102.676 46.6928 280.815 266.446 249.359 137.5 126.365 126.372 63.8954 283.537 300.905 303.45 145.645 154.45 140.074 73.605 282.159 314.538 285.137 148.186 129.087 160.831 72.0401 267.854 274.879 302.459 135.732 153.072 153.707 76.1459 243.754 245.589 239.482 122.829 114.782 121.172 59.5861 242.203 233.699 251.289 119.108 128.972 124.417 63.2431 228.759 224.825 230.771 110.881 113.231 109.282 55.865 221.899 208.382 233.329 97.4841 115.528 115.542 55.0165 210.826 186.143 212.264 89.1001 106.371 92.8397 42.4676 216.133 205.763 212.877 106.226 104.456 93.3029 46.6325 243.466 228.056 217.809 120.306 111.677 112.46 59.5937 232.454 220.476 239.398 101.836 131.789 115.595 60.7124 217.164 192.808 203.829 93.2547 100.665 104.881 41.1237 223.843 198.009 195.142 104.557 116.499 87.9273 52.131 203.865 205.775 220.88 98.196 107.344 110.081 52.4255 211.234 195.154 204.594 94.4003 96.5212 95.694 45.7705 203.347 175.908 218.349 85.9705 114.713 99.4604 48.6298 175.814 160.342 171.95 85.3503 88.6335 76.4473 37.3407 184.327 186.694 163.026 101.691 87.1809 83.895 48.0096 180.353 185.348 184.413 93.0115 97.1464 102.799 53.6816 175.871 167.51 164.667 88.3479 83.2069 82.5498 39.3299 192.594 177.305 166.416 99.4973 92.6636 84.9605 49.018 99.9302 92.3443 182.122 50.4793 99.9302 92.3443 50.4793 229.713 106.719 270.746 222.919 125.684 118.46 106.719 55.9832 125.684 55.9832 271.994 296.294 284.933 128.945 122.994 145.062 62.4765 305.05 311.008 314.97 155.26 149 151.232 66.4688 305.437 308.344 310.15 166.352 156.05 159.776 88.7907 274.087 270.967 282.318 139.147 149.387 148.568 77.5613 247.018 251.021 265.324 122.76 124.7 122.399 61.5857 239.858 248.003 265.31 114.591 122.317 128.621 61.1743 235.341 239.797 254.485 113.943 117.54 119.381 53.417 223.694 222.822 228.737 110.898 117.801 120.416 60.526 214.314 204.173 221.223 97.0425 105.893 102.406 50.372 214.552 217.135 228.981 99.5372 108.421 101.766 46.6704 213.741 227.691 232.112 107.75 106.131 115.369 52.8668 210.774 226.512 208.528 118.64 107.61 112.322 54.8827 181.807 209.214 201.577 99.5535 103.164 114.189 63.7572 192.179 203.577 191.285 93.452 78.6433 95.025 35.7963 221.608 197.488 205.499 107.579 113.536 108.552 57.6557 211.709 174.927 188.157 100.754 108.072 88.9353 49.9235 186.953 171.048 173.997 89.9372 103.636 85.9914 50.8306 159.162 183.714 181.726 74.9919 83.3166 85.0565 39.1066 163.112 202.675 174.882 85.0024 75.8451 98.6572 35.8854 168.727 189.767 189.809 92.3369 87.2668 104.018 49.117 155.212 161.807 174.33 79.1624 81.4599 85.7493 43.2199 155.944 165.72 150.946 77.8076 73.7526 76.058 35.9425 82.1917 89.6617 175.929 41.8651 82.1917 89.6617 41.8651 278.139 116.2 335.468 271.003 151.043 152.286 116.2 69.7012 151.043 69.7012 327.909 368.979 350.888 167.348 161.939 184.425 82.5852 320.07 344.808 356.5 155.748 165.97 184.554 84.7631 287.031 317.3 339.019 141.992 154.1 160.254 70.9853 273.555 289.611 318.454 131.82 132.931 157.046 71.0065 283.616 280.431 286.384 128.261 140.624 132.565 60.8137 279.937 285.996 299.757 133.411 142.992 147.866 67.4472 247.881 268.802 289.881 125.854 136.945 138.13 65.9643 226.266 247.344 252.859 111.924 110.936 130.672 59.8896 235.89 235.178 234.012 107.13 115.33 116.672 52.0344 246.541 243.092 251.664 117.598 120.56 118.506 55.096 226.9 241.385 244.146 119.941 125.981 124.586 62.5019 199.332 219.719 208.402 107.872 100.919 116.8 57.4396 211.054 212.734 206.618 109.661 98.4127 102.92 50.432 204.605 209.378 213.779 110.125 112.642 109.814 59.2287 172.048 188.576 195.595 89.9084 91.9629 99.5635 50.8966 150.446 169.643 169.631 74.1726 80.085 89.0126 39.0118 168.77 158.863 161.659 81.1108 70.3613 80.63 35.1608 197.446 195.422 176.47 108.722 98.409 78.2326 45.95 201.578 222.637 202.719 117.672 99.0365 117.19 62.7719 195.413 190.352 200.019 97.43 102.542 105.447 54.9006 170.064 163.708 167.261 82.6449 92.8706 84.9046 42.5294 170.931 182.312 150.214 87.9121 77.1936 78.8038 40.1155 93.7376 103.508 198.326 47.7966 93.7376 103.508 47.7966 343.752 154.803 409.174 360.662 181.838 183.182 154.803 81.3421 181.838 81.3421 379.48 449.596 439.372 201.63 188.95 227.336 101.839 375.449 404.344 427.27 189.06 190.53 222.26 99.7909 370.442 370.384 388.145 175.309 184.919 182.084 89.2689 331.282 359.476 392.111 157.791 185.522 188.299 86.0397 302.524 331.05 338.406 152.17 145.76 171.176 71.751 309.701 335.68 329.335 152.585 156.764 159.874 80.4192 294.86 318.671 343.365 142.948 152.936 175.805 72.1656 260.605 273.459 287.404 135.42 141.923 142.865 70.7823 249.786 255.74 265.015 128.047 118.682 130.594 64.6373 249.269 247.623 270.451 125.494 131.104 125.146 63.4101 225.648 236.387 247.085 121.444 118.165 122.477 62.0837 215.688 216.4 225.784 111.848 107.483 113.909 59.36 209.342 218.489 217.929 103.074 108.205 102.491 52.4879 204.769 214.168 227.461 99.2526 101.138 115.999 50.5857 193.177 208.855 185.999 98.6677 103.632 98.1695 48.6669 180.843 214.226 205.125 95.47 89.5455 110.686 50.0008 169.359 189.221 196.469 77.7518 91.2977 103.54 45.4692 181.744 181.192 181.776 86.7005 78.0611 85.6809 32.2826 201.159 188.419 187.434 104.964 103.683 95.5116 54.4179 171.867 177.525 173.45 92.9215 97.4766 92.9077 50.5463 147.411 177.272 158.226 81.0635 74.3901 84.6169 42.3752 177.609 182.348 178.97 94.4001 73.0206 92.6552 38.6883 104.589 89.6931 182.431 55.7119 104.589 89.6931 55.7119 456.282 205.859 225.992 205.859 100.496 225.992 205.859 100.496 100.496 100.496 487.162 247.966 250.422 247.966 250.422 125.497 125.497 439.965 215.284 236.74 215.284 236.74 122.469 122.469 409.814 195.075 203.225 195.075 203.225 92.8152 92.8152 399.234 201.685 206.588 201.685 206.588 102.26 102.26 365.217 178.88 192.646 178.88 192.646 99.4252 99.4252 362.999 183.095 172.571 183.095 172.571 79.455 79.455 335.909 175.723 190.428 175.723 190.428 103.64 103.64 291.813 138.04 145.481 138.04 145.481 72.083 72.083 285.68 127.692 146.332 127.692 146.332 65.9566 65.9566 268.267 122.13 139.347 122.13 139.347 61.7358 61.7358 247.222 114.943 128.92 114.943 128.92 60.3937 60.3937 228.026 104.552 118.301 104.552 118.301 54.5492 54.5492 236.048 115.416 109.725 115.416 109.725 50.0027 50.0027 208.69 114.915 126.323 114.915 126.323 65.4128 65.4128 197.947 110.188 82.3673 110.188 82.3673 49.5026 49.5026 220.751 118.756 115.579 118.756 115.579 60.6849 60.6849 208.886 111.469 105.172 111.469 105.172 58.0711 58.0711 187.466 94.492 103.715 94.492 103.715 53.3983 53.3983 159.725 83.4551 83.7516 83.4551 83.7516 41.0937 41.0937 159.809 84.603 75.9735 84.603 75.9735 42.3613 42.3613 189.785 96.2086 83.8355 96.2086 83.8355 42.2417 42.2417 183.791 87.9481 105.949 87.9481 105.949 53.9669 53.9669 77.8418 33.9812 77.8418 33.9812 77.8418 33.9812 33.9812 231.645 246.636 120.657 468.626 246.636 396.194 402.859 196.361 120.657 231.645 246.636 120.657 196.361 120.657 218.32 221.99 448.626 404.774 412.247 110.988 218.32 221.99 199.833 110.988 221.935 226.636 437.058 407.048 410.993 107.333 221.935 226.636 204.941 107.333 237.164 210.422 441.07 394.069 385.698 114.602 237.164 210.422 202.106 114.602 222.931 230.648 415.5 368.675 382.357 122.561 222.931 230.648 191.962 122.561 185.38 184.852 343.49 343.055 338.194 100.369 185.38 184.852 176.712 100.369 155.756 158.638 319.362 288.393 314.445 85.0108 155.756 158.638 166.342 85.0108 157.662 160.724 331.031 273.354 294.814 70.7453 157.662 160.724 122.051 70.7453 163.929 170.307 317.561 295.672 303.828 86.9168 163.929 170.307 151.303 86.9168 142.516 147.254 291.558 274.583 284.654 77.0119 142.516 147.254 144.369 77.0119 128.828 144.304 264.288 248.66 268.737 65.5044 128.828 144.304 130.214 65.5044 128.833 119.984 241.056 229.393 234.869 63.3233 128.833 119.984 118.446 63.3233 119.455 121.072 230.917 234.766 215.597 65.5093 119.455 121.072 110.947 65.5093 93.4276 109.845 197.28 208.172 230.45 53.9457 93.4276 109.845 123.818 53.9457 85.2738 87.4347 191.434 187.606 178.529 39.4819 85.2738 87.4347 84.3533 39.4819 98.4247 103.999 206.499 206.725 211.36 45.7919 98.4247 103.999 103.252 45.7919 104.425 102.501 201.845 210.547 195.947 52.6328 104.425 102.501 103.473 52.6328 86.9645 99.3443 170.197 175.88 197.655 51.7918 86.9645 99.3443 107.074 51.7918 74.8965 70.8523 157.999 147.55 159.342 35.1727 74.8965 70.8523 68.8065 35.1727 86.4792 87.1464 172.753 162.357 166.005 39.7239 86.4792 87.1464 78.7436 39.7239 85.5603 85.6067 154.455 163.161 157.555 46.7553 85.5603 85.6067 83.6135 46.7553 75.5079 68.848 153.713 154.746 156.817 38.805 75.5079 68.848 79.5474 38.805 78.4155 84.8652 161.642 156.706 164.925 36.7029 78.4155 84.8652 75.1982 36.7029 41.7126 76.7769 76.7769 81.5074 147.326 41.7126 41.7126 76.7769 81.5074 41.7126 346.48 156.223 298.191 281.077 138.707 164.549 156.223 75.7042 138.707 75.7042 374.614 325.15 325.373 186.453 190.257 159.484 88.8451 359.634 322.147 322.893 185.112 184.357 165.666 97.6083 326.986 302.492 307.584 156.905 175.277 156.481 87.504 305.051 279.496 293.268 145.744 151.709 146.011 69.4009 309.149 287.325 301.06 157.674 153.342 133.485 76.343 289.898 262.873 298.678 132.637 155.807 153.84 81.3314 267.611 239.598 251.014 115.692 134.091 109.032 51.3057 270.921 255.755 252.349 131.743 133.52 130.566 64.3865 261.834 240.864 269.164 132.067 137.4 125.189 67.3569 239.319 237.266 250.904 119.832 124.433 115.675 64.7099 209.41 223.3 255.035 100.56 114.885 121.591 55.1224 215.129 223.896 205.164 115.311 94.5246 101.709 45.438 211.699 213.937 224.961 114.744 120.605 122.187 69.8727 198.456 185.852 189.863 102.332 91.0946 91.75 44.8714 200.808 194.214 198.385 108.301 107.361 94.1019 57.4604 191.757 202.777 193.099 106.122 93.4469 100.112 50.8404 186.8 191.333 208.179 88.9159 98.3105 102.665 55.2821 167.349 182.233 186.007 72.6535 88.4898 88.6682 33.6338 150.807 172.292 190.407 75.878 78.8588 93.5644 39.0197 159.917 161.755 158.823 77.6006 71.948 78.7272 36.8582 168.028 168.308 168.416 79.2376 87.9686 83.0274 40.7423 150.609 164.382 183.45 78.2901 80.0599 85.2803 38.4953 70.5493 79.1021 150.069 39.7948 70.5493 79.1021 39.7948 259.97 124.854 247.538 225.77 114.43 133.641 124.854 63.0028 114.43 63.0028 273.652 282.012 258.322 138.696 135.116 133.108 70.6385 270.843 274.927 272.202 137.035 138.536 148.903 68.058 273.866 279.56 255.7 145.587 132.307 126.024 68.9768 289.277 265.874 282.882 133.752 141.558 153.537 76.6101 290.589 250.575 273.135 129.651 147.718 112.337 57.1419 259.794 253.33 273.601 130.236 142.871 138.238 72.5088 235.752 241.784 230.997 123.906 116.923 115.093 57.7268 250.592 248.427 226.677 124.012 118.829 126.691 66.1794 258.233 230.523 264.57 108.797 131.763 121.735 57.8323 266.62 227.34 237.966 117.434 126.47 108.788 50.965 250.789 245.9 249.44 122.74 140.15 118.552 66.4686 214.996 239.204 230.215 108.586 110.639 127.348 56.2715 203.124 223.102 229.995 99.1928 104.356 111.856 52.3141 189.792 202.806 218.158 83.5201 98.7683 111.247 46.8786 190.676 191.583 204.985 85.9135 91.0239 91.5598 36.6415 209.521 213.489 196.613 96.6546 99.6521 100.023 49.2721 207.386 219.793 222.49 102.417 109.869 113.466 47.3825 209.066 200.043 194.671 109.579 97.5173 106.327 55.0343 198.424 179.05 197.631 96.4137 111.549 93.716 54.5447 167.323 171.496 167.886 84.154 86.8752 85.3337 41.8689 183.838 176.593 168.265 89.0701 80.4476 86.1621 42.2851 182.91 179.189 179.833 86.0922 103.39 90.4306 46.785 79.5196 88.7582 170.741 39.3072 79.5196 88.7582 39.3072 224.122 100.916 225.15 195.275 102.163 113.897 100.916 51.4272 102.163 51.4272 256.872 286.364 249.485 143.315 123.206 122.987 62.4696 257.059 287.683 279.489 137.892 133.666 163.377 80.8455 264.717 273.058 249.087 133.973 123.393 124.306 57.0467 266.74 267.062 278.067 132.122 141.324 148.752 76.9266 256.147 245.182 238.587 120.924 125.416 118.31 55.1955 244.804 248.361 254.381 123.095 130.73 126.872 65.7289 221.921 239.276 231.211 117.878 114.074 121.489 57.3658 240.655 237.211 212.217 124.415 107.848 117.787 60.5119 244.303 238.998 255.889 121.726 132.807 119.424 63.9029 220.786 224.922 228.282 109.907 111.496 119.574 57.8233 228.865 229.151 215.554 123.16 109.29 105.348 52.0834 245.214 222.752 232.154 130.618 119.576 123.803 71.0764 245.028 206.163 213.833 123.909 125.639 98.9484 59.5415 233.351 218.014 213.306 119.286 119.389 107.215 64.368 210.922 219.698 224.461 105.669 113.961 110.799 54.9183 209.582 227.789 197.246 116.834 96.9609 108.9 50.7507 209.775 214.392 224.375 117.376 112.621 118.889 66.0835 183.236 174.634 192.1 90.4641 97.1539 95.5028 51.2928 167.093 160.746 179.975 82.6361 86.0819 79.1311 39.1713 168.828 163.732 165.587 87.3419 81.0107 81.6146 43.4648 164.26 163.573 172.94 87.5227 87.8176 82.1171 43.8771 167.664 171.233 152.519 93.0966 76.4426 81.4557 43.6456 91.2216 89.7776 176.11 49.451 91.2216 89.7776 49.451 220.638 94.3586 237.106 203.746 97.2343 111.253 94.3586 50.7354 97.2343 50.7354 272.103 303.61 284.418 143.049 126.279 139.871 60.5179 271.517 314.113 305.822 149.791 145.823 163.738 82.5311 262.437 284.124 276.373 139.085 125.694 150.374 67.2596 249.914 276.675 269.194 134.94 136.743 133.75 71.8253 236.821 279.613 262.477 124.258 113.171 142.925 63.1147 240.787 271.792 271.48 125.266 123.65 136.688 61.1431 221.506 243.425 248.178 121.398 117.137 135.104 64.1232 227.451 227.138 228.783 112.796 104.369 108.321 57.2748 239.867 246.032 247.017 117.272 123.082 118.817 55.5212 223.051 243.958 234.585 115.015 116.786 127.215 61.7507 218.843 212.95 220.169 105.991 106.265 116.744 53.2646 200.772 183.594 204.674 92.1337 112.578 96.2061 52.7268 182.111 183.648 184.828 82.2539 88.194 87.3876 39.4069 204.416 193.207 208.14 98.7273 93.9166 96.26 42.847 210.784 196.169 191.341 114.029 110.5 96.9467 55.8803 212.039 187.228 183.815 110.954 100.285 99.222 58.1488 206.7 184.675 197.687 97.0156 111.754 88.006 52.8056 188.839 172.893 189.786 84.1698 94.9457 96.6691 44.21 178.47 162.016 179.433 78.1095 93.8934 76.2244 39.9598 169.698 174.372 173.303 76.3898 84.5762 85.7911 38.1498 161.198 163.469 176.847 76.05 85.1221 88.5812 38.24 160.965 161.156 155.382 78.1367 76.0759 74.8882 37.8101 84.8888 86.2676 188.564 40.3266 84.8888 86.2676 40.3266 267.527 109.388 286.423 258.151 119.96 125.852 109.388 46.4989 119.96 46.4989 318.138 338.41 339.445 160.561 158.139 166.464 79.3534 310.677 350.711 332.564 164.322 159.999 171.946 81.2074 283.129 340.172 340.531 145.039 150.679 178.765 83.1145 281.756 315.227 314.739 141.735 132.45 161.407 61.9246 297.135 305.71 299.148 155.355 149.306 153.819 79.8103 278.871 303.642 299.573 146.526 147.83 151.89 75.5452 255.455 273.939 282.017 122.027 131.041 151.751 70.9804 248.35 239.528 258.665 114.342 124.414 122.187 51.0464 241.735 250.498 239.29 128.76 123.935 117.341 63.2957 231.703 252.718 252.777 128.943 117.799 133.158 65.464 206.001 211.163 224.609 106.959 113.904 119.56 63.4792 188.731 195.3 204.841 91.46 92.0964 91.6022 43.4793 210.858 207.663 212.902 101.394 96.6342 103.698 47.9807 195.065 199.996 220.362 94.4794 114.224 103.965 53.413 164.372 176.649 195.742 82.1396 80.8416 96.0313 41.0664 169.464 161.647 165.185 76.2737 83.5307 80.6179 41.0732 180.773 179.267 181.72 87.6595 85.9329 81.029 35.2005 180.38 183.767 192.618 88.7237 94.8406 98.2375 52.459 174.267 180.101 175.412 83.906 85.5399 85.5295 36.2647 180.452 176.928 185.877 97.9826 88.7271 94.5716 47.6413 171.031 153.766 167.126 87.4193 91.7248 82.3561 50.3412 182.981 166.228 142.588 83.0191 79.3057 71.4104 37.0781 103.675 94.8179 194.049 45.941 103.675 94.8179 45.941 330.069 148.763 390.86 366.064 178.824 160.571 148.763 73.4606 178.824 73.4606 353.872 417.046 420.121 177.849 181.306 212.036 87.1102 362.418 411.071 405.208 186.389 172.566 205.01 90.7391 372.142 409.872 410.511 195.133 189.853 206.061 95.6503 332.131 371.041 374.874 173.492 182.289 203.811 99.4827 301.585 336.691 325.207 150.354 149.842 167.23 74.0089 302.719 337.02 327.598 157.116 151.743 169.461 76.3451 285.227 312.098 318.39 151.912 150.977 167.559 80.7709 249.605 278.959 286.883 125.186 134.25 144.539 71.1409 250.332 279.726 269.646 121.739 115.355 134.421 54.0448 245.683 269.913 285.089 123.775 134.978 145.305 67.6937 223.45 236.483 248.627 104.204 110.705 124.608 56.0812 229.013 227.314 228.767 103.84 112.745 111.875 48.1228 222.407 226.901 231.395 106.269 116.268 115.439 55.7171 221.039 199.292 213.786 105.517 106.138 111.462 50.5519 196.555 182.269 199.335 94.5097 114.901 87.8296 54.9649 177.442 187.368 185.345 85.3733 81.6542 94.4392 39.5447 193.564 189.024 187.94 91.6071 95.7875 92.9291 45.8286 187.649 188.018 193.251 95.0434 97.777 96.0951 45.7785 187.022 172.465 173.936 96.1951 89.8719 91.9227 49.2648 172.551 154.151 173.393 78.9452 97.15 80.5424 46.9303 138.684 159.924 163.219 66.3472 75.4015 73.6087 32.0149 153.656 179.052 167.34 83.2093 63.2822 86.3149 34.3323 90.3739 92.7375 179.674 48.8769 90.3739 92.7375 48.8769 456.115 217.301 230.289 217.301 105.363 230.289 217.301 105.363 105.363 105.363 471.457 239.197 238.815 239.197 238.815 124.926 124.926 453.301 224.681 232.642 224.681 232.642 114.271 114.271 413.244 214.739 220.659 214.739 220.659 110.41 110.41 367.95 197.549 192.585 197.549 192.585 104.328 104.328 351.22 186.337 175.365 186.337 175.365 93.2207 93.2207 343.268 179.904 175.855 179.904 175.855 93.1159 93.1159 320.045 160.186 167.413 160.186 167.413 86.7885 86.7885 306.924 153.773 152.632 153.773 152.632 73.3976 73.3976 304.404 157.987 154.292 157.987 154.292 80.3758 80.3758 288.033 146.138 150.112 146.138 150.112 77.6115 77.6115 253.943 132.279 137.922 132.279 137.922 68.5264 68.5264 231.148 123.474 116.022 123.474 116.022 63.7523 63.7523 222.774 120.632 115.127 120.632 115.127 59.7218 59.7218 192.081 93.775 107.648 93.775 107.648 60.9103 60.9103 188.125 87.7591 84.4338 87.7591 84.4338 32.8647 32.8647 195.843 101.995 103.691 101.995 103.691 54.8945 54.8945 187.626 97.4171 92.1521 97.4171 92.1521 47.1006 47.1006 179.538 92.9744 95.4742 92.9744 95.4742 50.3166 50.3166 160.307 76.27 84.064 76.27 84.064 42.6578 42.6578 164.06 75.206 76.2427 75.206 76.2427 33.6121 33.6121 191.876 93.5765 87.8176 93.5765 87.8176 41.5939 41.5939 193.358 95.8432 104.058 95.8432 104.058 51.9826 51.9826 89.3001 43.8606 89.3001 43.8606 89.3001 43.8606 43.8606 236.981 125.978 125.978 236.981 125.978 418.912 206.497 206.497 125.978 236.981 125.978 125.978 206.497 125.978 230.306 111.003 230.306 418.466 212.414 111.003 230.306 111.003 212.414 111.003 215.122 119.303 215.122 389.644 206.052 119.303 215.122 119.303 206.052 119.303 203.906 95.8195 203.906 373.987 183.592 95.8195 203.906 95.8195 183.592 95.8195 192.569 108.087 192.569 351.877 190.395 108.087 192.569 108.087 190.395 108.087 158.11 84.4828 158.11 309.584 161.481 84.4828 158.11 84.4828 161.481 84.4828 163.605 73.6272 163.605 320.866 148.103 73.6272 163.605 73.6272 148.103 73.6272 173.369 89.9782 173.369 325.287 172.763 89.9782 173.369 89.9782 172.763 89.9782 153.633 83.3906 153.633 292.81 152.524 83.3906 153.633 83.3906 152.524 83.3906 149.041 70.2419 149.041 278.808 140.285 70.2419 149.041 70.2419 140.285 70.2419 135.46 78.7995 135.46 254.947 138.523 78.7995 135.46 78.7995 138.523 78.7995 112.224 56.6609 112.224 221.073 116.424 56.6609 112.224 56.6609 116.424 56.6609 111.462 55.5627 111.462 211.281 104.649 55.5627 111.462 55.5627 104.649 55.5627 103.852 55.8996 103.852 200.807 106.631 55.8996 103.852 55.8996 106.631 55.8996 106.16 47.9528 106.16 202.284 94.176 47.9528 106.16 47.9528 94.176 47.9528 108.075 58.2069 108.075 200.582 108.108 58.2069 108.075 58.2069 108.108 58.2069 97.4202 49.8677 97.4202 183.055 92.4743 49.8677 97.4202 49.8677 92.4743 49.8677 83.2321 47.5525 83.2321 181.117 90.5808 47.5525 83.2321 47.5525 90.5808 47.5525 83.1022 35.6797 83.1022 177.797 90.5357 35.6797 83.1022 35.6797 90.5357 35.6797 86.2739 47.4225 86.2739 161.203 87.2616 47.4225 86.2739 47.4225 87.2616 47.4225 68.8944 38.8514 68.8944 151.21 73.9411 38.8514 68.8944 38.8514 73.9411 38.8514 78.2053 30.043 78.2053 166.996 77.2692 30.043 78.2053 30.043 77.2692 30.043 83.2267 48.1624 83.2267 155.546 89.7269 48.1624 83.2267 48.1624 89.7269 48.1624 35.0643 35.0643 35.0643 65.8187 65.8187 35.0643 35.0643 35.0643 65.8187 35.0643 181.93 80.5188 308.26 142.37 142.37 181.93 80.5188 80.5188 142.37 80.5188 188.16 323.116 165.889 188.16 101.412 165.889 101.412 174.521 308.33 157.226 174.521 86.7487 157.226 86.7487 170.081 298.36 151.103 170.081 87.7726 151.103 87.7726 159.307 314.832 147.257 159.307 82.3086 147.257 82.3086 151.474 312.413 167.575 151.474 76.9986 167.575 76.9986 157.261 286.819 144.838 157.261 74.4758 144.838 74.4758 151.919 263.765 141.981 151.919 82.785 141.981 82.785 139.177 265.758 121.783 139.177 69.1337 121.783 69.1337 129.767 279.203 143.974 129.767 70.0434 143.974 70.0434 119.486 268.673 135.229 119.486 59.7236 135.229 59.7236 108.85 236.899 133.444 108.85 59.7629 133.444 59.7629 99.8185 206.229 103.455 99.8185 49.0867 103.455 49.0867 96.9551 200.887 102.774 96.9551 50.7318 102.774 50.7318 96.124 202.396 98.1129 96.124 46.2232 98.1129 46.2232 92.5073 197.27 104.283 92.5073 49.9008 104.283 49.9008 85.6349 198.501 92.9866 85.6349 42.6065 92.9866 42.6065 97.8844 202.853 105.514 97.8844 43.0284 105.514 43.0284 94.6951 194.182 97.339 94.6951 54.856 97.339 54.856 74.9288 176.939 96.8429 74.9288 39.8391 96.8429 39.8391 82.316 165.485 80.096 82.316 35.0897 80.096 35.0897 88.7908 183.558 85.3888 88.7908 47.2263 85.3888 47.2263 72.319 169.136 98.1696 72.319 41.5646 98.1696 41.5646 30.7544 70.9669 70.9669 30.7544 30.7544 70.9669 30.7544 126.329 61.8514 236.554 111.34 111.34 126.329 61.8514 61.8514 111.34 61.8514 134.955 248.512 125.214 134.955 64.4777 125.214 64.4777 133.808 252.975 123.298 133.808 70.4778 123.298 70.4778 128.279 259.022 129.677 128.279 63.3305 129.677 63.3305 155.525 290.143 129.345 155.525 64.9481 129.345 64.9481 160.938 296.16 160.797 160.938 90.5764 160.797 90.5764 129.558 251.267 135.363 129.558 70.3619 135.363 70.3619 111.846 215.89 115.904 111.846 59.1963 115.904 59.1963 126.581 242.821 99.9856 126.581 52.6497 99.9856 52.6497 149.436 272.013 142.835 149.436 73.9309 142.835 73.9309 149.186 260.065 129.178 149.186 75.5051 129.178 75.5051 128.049 233.755 130.888 128.049 73.6813 130.888 73.6813 106.41 221.006 102.867 106.41 54.368 102.867 54.368 103.932 225.05 118.139 103.932 52.042 118.139 52.042 106.272 220.337 106.911 106.272 51.8897 106.911 51.8897 104.763 210.016 113.425 104.763 54.3825 113.425 54.3825 112.866 205.614 96.5902 112.866 50.38 96.5902 50.38 104.969 197.368 109.024 104.969 62.4861 109.024 62.4861 99.4868 192.258 88.344 99.4868 42.4829 88.344 42.4829 102.01 186.467 103.914 102.01 57.0039 103.914 57.0039 83.1688 164.655 82.5522 83.1688 45.0063 82.5522 45.0063 94.7676 171.505 82.1031 94.7676 38.1625 82.1031 38.1625 96.8174 171.385 89.4021 96.8174 56.605 89.4021 56.605 40.2124 81.983 81.983 40.2124 40.2124 81.983 40.2124 110.225 49.4888 219.61 93.112 93.112 110.225 49.4888 49.4888 93.112 49.4888 113.557 242.611 126.498 113.557 60.7364 126.498 60.7364 119.167 240.893 116.113 119.167 52.8204 116.113 52.8204 130.743 254.096 124.781 130.743 66.3462 124.781 66.3462 134.618 249.592 129.315 134.618 64.3973 129.315 64.3973 135.222 247.786 120.277 135.222 70.2208 120.277 70.2208 121.709 237.23 127.509 121.709 65.0014 127.509 65.0014 104.044 204.152 109.721 104.044 56.7077 109.721 56.7077 116.24 230.895 94.4303 116.24 47.336 94.4303 47.336 122.577 245.173 136.465 122.577 68.9043 136.465 68.9043 110.879 218.914 108.708 110.879 53.6729 108.708 53.6729 105.705 218.557 110.206 105.705 57.2062 110.206 57.2062 114.596 223.235 108.35 114.596 48.4993 108.35 48.4993 121.119 220.975 114.884 121.119 66.0972 114.884 66.0972 114.064 219.753 106.091 114.064 55.0215 106.091 55.0215 105.253 202.008 113.662 105.253 59.043 113.662 59.043 92.7478 193.832 88.346 92.7478 46.2102 88.346 46.2102 92.3986 202.083 105.486 92.3986 46.5376 105.486 46.5376 92.7717 197.441 96.5968 92.7717 45.8611 96.5968 45.8611 84.4566 184.817 100.844 84.4566 46.9106 100.844 46.9106 81.4864 174.795 83.9724 81.4864 37.5459 83.9724 37.5459 76.7375 161.885 90.8226 76.7375 43.9405 90.8226 43.9405 74.5676 157.396 71.0629 74.5676 32.797 71.0629 32.797 41.7706 86.3328 86.3328 41.7706 41.7706 86.3328 41.7706 109.385 43.6232 251.059 106.512 106.512 109.385 43.6232 43.6232 106.512 43.6232 129.054 286.631 144.547 129.054 65.7615 144.547 65.7615 121.727 268.082 142.084 121.727 63.2924 142.084 63.2924 123.353 261.442 125.999 123.353 58.4344 125.999 58.4344 114.974 254.995 135.444 114.974 64.9181 135.444 64.9181 112.564 254.344 119.552 112.564 50.0563 119.552 50.0563 115.521 247.866 134.792 115.521 62.5074 134.792 62.5074 100.108 233.536 113.074 100.108 53.0138 113.074 53.0138 114.655 248.662 120.462 114.655 47.0943 120.462 47.0943 122.595 235.57 128.2 122.595 67.5604 128.2 67.5604 108.035 210.796 107.37 108.035 55.0351 107.37 55.0351 112.851 211.893 103.425 112.851 53.0002 103.425 53.0002 108.638 205.909 108.468 108.638 59.8511 108.468 59.8511 99.8567 209.321 97.4406 99.8567 48.7871 97.4406 48.7871 105.689 206.275 111.88 105.689 51.0696 111.88 51.0696 96.7551 178.988 94.3945 96.7551 54.6193 94.3945 54.6193 101.084 194.274 84.5933 101.084 42.1358 84.5933 42.1358 109.684 202.798 109.681 109.684 58.9486 109.681 58.9486 104.669 196.326 93.1172 104.669 50.7357 93.1172 50.7357 100.36 190.721 103.209 100.36 53.9336 103.209 53.9336 93.3085 175.778 87.5122 93.3085 46.4264 87.5122 46.4264 85.1479 168.759 88.2657 85.1479 46.8821 88.2657 46.8821 82.828 182.79 80.4935 82.828 38.2658 80.4935 38.2658 44.5622 102.296 102.296 44.5622 44.5622 102.296 44.5622 141.674 62.8888 311.173 138.191 138.191 141.674 62.8888 62.8888 138.191 62.8888 157.577 333.599 172.982 157.577 78.7856 172.982 78.7856 146.355 322.384 160.618 146.355 78.7911 160.618 78.7911 138.09 315.098 161.767 138.09 67.5642 161.767 67.5642 140.021 298.661 153.332 140.021 70.5257 153.332 70.5257 141.78 293.011 145.329 141.78 69.4953 145.329 69.4953 132.345 277.948 147.682 132.345 72.2846 147.682 72.2846 133.428 266.743 130.266 133.428 60.0603 130.266 60.0603 134.008 258.427 136.477 134.008 73.3679 136.477 73.3679 112.975 241.569 121.95 112.975 60.6397 121.95 60.6397 102.76 224.668 119.619 102.76 52.3353 119.619 52.3353 99.042 218.288 105.049 99.042 50.4249 105.049 50.4249 97.2706 222.444 113.239 97.2706 48.6171 113.239 48.6171 109.464 225.602 109.205 109.464 48.6535 109.205 48.6535 100.586 216.108 116.397 100.586 60.8107 116.397 60.8107 82.2327 184.278 99.7111 82.2327 39.7752 99.7111 39.7752 93.1898 185.258 84.5669 93.1898 42.4575 84.5669 42.4575 93.114 195.071 100.691 93.114 50.7324 100.691 50.7324 91.6568 184.262 94.3801 91.6568 42.3816 94.3801 42.3816 90.361 181.188 89.8822 90.361 49.2752 89.8822 49.2752 82.4694 176.076 91.3055 82.4694 41.0858 91.3055 41.0858 83.6113 155.948 84.7702 83.6113 41.3836 84.7702 41.3836 99.9618 170.409 71.1776 99.9618 42.2276 71.1776 42.2276 57.7342 99.2311 99.2311 57.7342 57.7342 99.2311 57.7342 169.498 75.3025 395.325 187.24 187.24 169.498 75.3025 75.3025 187.24 75.3025 176.022 408.282 208.085 176.022 94.196 208.085 94.196 176.029 404.648 200.197 176.029 81.8265 200.197 81.8265 177.009 375.514 204.451 177.009 94.2023 204.451 94.2023 158.64 329.041 171.063 158.64 82.8063 171.063 82.8063 151.231 316.115 157.978 151.231 75.8334 157.978 75.8334 145.603 308.967 158.137 145.603 75.3976 158.137 75.3976 133.315 293.174 150.83 133.315 70.2058 150.83 70.2058 124.419 277.57 142.344 124.419 63.1093 142.344 63.1093 128.594 275.01 135.226 128.594 61.3098 135.226 61.3098 121.908 263.803 139.784 121.908 67.2841 139.784 67.2841 119.246 240.911 124.019 119.246 54.624 124.019 54.624 125.173 232.847 116.891 125.173 64.6222 116.891 64.6222 116.138 218.28 115.956 116.138 60.5511 115.956 60.5511 115.522 213.829 102.324 115.522 55.5865 102.324 55.5865 102.045 202.411 111.505 102.045 59.9358 111.505 59.9358 92.0684 185.917 90.9063 92.0684 42.1095 90.9063 42.1095 101.957 192.167 95.0104 101.957 49.9589 95.0104 49.9589 92.6055 179.169 97.1561 92.6055 51.9985 97.1561 51.9985 90.8268 174.863 82.0132 90.8268 40.607 82.0132 40.607 93.6063 182.461 92.8503 93.6063 50.2197 92.8503 50.2197 72.3365 170.636 89.6103 72.3365 43.3866 89.6103 43.3866 70.4468 167.962 81.0254 70.4468 28.9499 81.0254 28.9499 41.4969 86.9364 86.9364 41.4969 41.4969 86.9364 41.4969 225.826 111.938 225.826 111.938 111.938 225.826 111.938 111.938 111.938 111.938 232.26 232.26 113.889 232.26 113.889 113.889 113.889 228.619 228.619 118.371 228.619 118.371 118.371 118.371 198.505 198.505 110.248 198.505 110.248 110.248 110.248 170.401 170.401 88.2568 170.401 88.2568 88.2568 88.2568 164.884 164.884 82.1445 164.884 82.1445 82.1445 82.1445 163.364 163.364 82.7393 163.364 82.7393 82.7393 82.7393 159.859 159.859 80.6242 159.859 80.6242 80.6242 80.6242 153.151 153.151 79.2347 153.151 79.2347 79.2347 79.2347 146.416 146.416 73.9161 146.416 73.9161 73.9161 73.9161 141.895 141.895 72.5002 141.895 72.5002 72.5002 72.5002 121.664 121.664 69.3952 121.664 69.3952 69.3952 69.3952 107.674 107.674 52.2692 107.674 52.2692 52.2692 52.2692 102.142 102.142 55.4048 102.142 55.4048 55.4048 55.4048 98.3065 98.3065 46.7373 98.3065 46.7373 46.7373 46.7373 100.366 100.366 51.5692 100.366 51.5692 51.5692 51.5692 93.8483 93.8483 48.7968 93.8483 48.7968 48.7968 48.7968 90.2091 90.2091 45.0515 90.2091 45.0515 45.0515 45.0515 86.5637 86.5637 45.1576 86.5637 45.1576 45.1576 45.1576 84.0367 84.0367 41.4061 84.0367 41.4061 41.4061 41.4061 88.8543 88.8543 42.6306 88.8543 42.6306 42.6306 42.6306 98.2992 98.2992 46.2237 98.2992 46.2237 46.2237 46.2237 97.515 97.515 52.0755 97.515 52.0755 52.0755 52.0755 45.4395 45.4395 45.4395 45.4395 45.4395 45.4395 45.4395 
CELL_DATA 1536
SCALARS stress float 1
LOOKUP_TABLE default
115.837 120.866 121.785 107.726 106.836 76.0485 88.1678 83.2345 67.1701 72.8204 70.0372 63.539 63.5755 52.0258 46.3817 43.9334 60.0219 34.3436 44.3797 56.4277 31.1497 35.5579 33.6166 45.8924 97.7416 93.9992 90.654 79.1148 80.2217 82.7879 96.541 69.4211 67.0285 60.4046 56.3858 48.3049 56.5195 68.0202 45.1703 47.3714 60.8393 44.6539 53.6931 55.5329 49.3022 36.2945 35.7124 46.2774 76.8589 72.376 85.3241 72.8164 73.688 65.8271 78.377 63.8002 54.8816 53.0538 52.8837 48.0305 62.3415 55.7116 67.9392 57.9799 53.2837 44.6743 66.0325 51.1553 40.1146 49.2928 42.1169 35.1036 72.6989 72.0331 63.9561 64.4098 57.0741 69.1259 60.8518 66.2712 55.3586 66.6225 53.1391 53.9861 61.6097 57.7368 54.1318 56.0894 52.6549 52.0175 43.6055 47.3357 39.1555 38.6408 46.9266 41.9058 46.93 56.1096 53.3821 72.4692 66.8039 72.6719 64.6292 52.4189 58.6967 64.2615 62.283 57.6805 47.5626 50.9566 55.4658 52.6628 49.9448 40.4525 40.3076 33.0334 32.7817 44.1291 30.9936 42.0195 66.8491 88.2009 72.3891 87.517 68.5062 73.9989 80.6933 67.8465 68.4658 63.5429 62.7645 55.0579 51.5707 65.2523 50.8721 46.521 57.5025 60.9955 51.6275 64.1206 51.5664 47.4138 38.8259 49.5924 87.278 88.5341 80.773 95.4654 81.788 78.1905 73.9009 78.4659 65.1792 62.5836 75.2737 60.5944 64.0215 59.6554 53.7629 55.5482 48.5728 46.3232 46.5616 56.8299 42.9018 53.89 41.7677 38.4047 120.072 111.899 105.97 117.125 107.613 89.0323 85.3412 87.3013 75.4069 86.0066 62.132 56.7118 64.3693 57.7754 50.3148 47.5743 56.1534 46.7922 48.8563 44.2717 35.861 43.6286 35.6928 42.7778 105.643 125.207 103.349 107.893 100.402 85.7133 103.167 82.2488 68.8174 73.7271 87.3724 55.3526 45.7109 51.8145 55.5267 52.1852 34.8923 41.3713 53.7668 44.4553 52.3457 48.5578 32.2301 53.7304 67.3379 103.935 100.654 87.7044 85.3355 103.74 58.2724 68.2173 67.5675 65.5803 70.1598 60.3621 51.6426 51.851 52.3222 52.3759 55.5629 49.3791 33.0553 36.577 47.3614 50.8295 42.4299 32.5117 67.5452 76.4894 68.2439 57.9049 72.9886 67.3694 59.665 59.9074 51.1854 61.2564 60.3558 62.7913 52.4132 54.226 55.8058 60.4614 52.7632 46.6252 39.7952 62.1278 34.142 30.3351 43.437 37.9534 63.4683 60.111 50.1663 65.678 61.1193 75.0827 54.1349 68.477 65.2689 53.3252 66.88 49.2299 43.7169 53.936 50.8681 40.2235 54.1547 49.9463 54.3896 39.3234 45.953 53.6321 42.4557 33.0867 38.6367 68.9364 61.5374 64.3782 61.1778 62.4983 64.3591 60.8657 51.442 60.2981 59.1959 56.888 51.292 52.6068 55.6739 45.0432 53.9023 48.0858 39.8489 37.5916 40.2305 38.9474 36.0894 34.6072 60.9651 79.3761 75.8381 81.8374 74.7841 66.3461 80.8947 56.1243 59.7896 65.0887 60.9949 60.374 70.3325 62.6008 51.4218 41.1286 51.0084 46.8604 43.8693 37.8938 41.6168 36.1324 44.1014 52.439 83.8685 86.0158 98.3789 83.3533 73.4591 82.6001 78.4465 61.9413 75.8249 49.907 66.7065 65.2168 60.4888 52.1113 63.851 65.4151 44.5993 54.5459 49.3779 34.8498 41.0199 38.8191 60.7623 49.3185 102.504 125.271 105.436 116.047 96.2597 95.208 89.9642 78.2223 83.9382 59.0885 64.4242 62.2701 69.2894 50.4055 49.1822 37.9482 50.7443 32.9284 60.9192 38.9958 35.8858 34.4498 45.8609 36.319 114.732 113.782 123.205 105.92 101.454 88.9093 72.5357 76.3822 82.7146 62.7741 55.2381 63.0713 57.6767 46.1109 52.3737 52.6259 45.3121 53.1599 35.9341 42.9428 39.4283 42.6283 47.9484 33.0451 75.3167 87.558 82.4119 99.3027 85.2101 79.0971 78.6132 72.3335 63.8968 76.3348 55.4822 58.7712 56.6436 48.9594 61.9671 53.7074 55.0907 45.9384 51.5006 53.8864 37.5932 32.8805 34.6771 36.0538 60.2289 73.4221 85.909 69.7213 72.6133 66.3608 75.3048 78.658 61.8764 54.2023 57.5206 62.2819 44.2849 54.795 59.4145 58.5908 63.0611 52.0661 41.1655 34.559 45.3355 35.6875 49.2144 59.9555 53.5705 61.1076 63.1849 65.3709 58.1066 60.1867 49.3879 64.1552 58.4118 57.1358 58.7482 49.396 58.1059 50.6019 44.0393 62.6537 44.9706 55.9908 32.368 43.8275 39.4961 45.419 49.4905 46.0318 47.2708 51.1668 63.9744 63.9621 78.9803 61.3971 58.9426 54.6226 48.0142 48.6801 62.8501 64.7628 54.0256 45.4274 62.5497 36.7295 43.3849 41.7493 55.215 46.4329 43.9039 32.9098 57.2388 44.2476 63.3342 67.5364 65.607 78.6896 67.6858 74.9199 68.5924 61.4799 51.4931 54.2067 53.7466 44.2436 61.0471 54.5822 55.6032 51.944 44.371 56.0837 47.4795 53.7992 37.3946 41.8715 40.711 53.7625 79.2929 102.983 90.5619 87.7886 78.187 84.5431 76.9658 61.6989 67.4744 60.2879 50.877 61.8865 49.9376 52.7883 42.0947 56.0527 52.9661 43.5058 33.4675 40.0128 51.2086 59.0719 41.6932 49.3284 95.3494 113.77 116.028 107.99 98.8561 92.2817 90.7994 73.4429 69.2222 74.1931 65.2545 52.8965 59.423 58.4199 57.7134 50.128 37.9997 49.9088 49.7037 54.1591 43.8807 37.4958 36.2117 45.1069 109.814 122.376 121.419 108.892 112.582 93.1188 89.4852 89.9467 75.763 69.3745 85.2887 69.7035 70.0731 49.6106 57.0821 54.5601 37.4027 37.0694 52.3896 34.6526 41.8511 42.8982 43.0881 45.3461 62.4749 95.3228 97.7025 99.2401 88.4159 72.371 72.6078 78.6699 74.2507 60.4651 56.684 52.0683 64.0362 44.9549 40.8347 46.5478 45.5364 51.6169 46.8782 34.7624 47.3459 43.3033 40.5714 43.754 58.9448 79.3093 69.4657 94.1213 73.8531 73.7311 54.4879 56.7341 64.2376 54.0836 57.7439 48.6596 45.9038 56.4592 34.5544 32.3148 34.402 48.7346 44.3067 43.3418 56.9233 43.7513 43.414 38.5335 63.1125 69.1273 67.1167 74.2498 64.7272 49.4877 72.1542 40.3542 65.3161 57.4678 56.4919 58.5496 52.1905 46.6058 42.923 46.4132 58.8793 47.1993 40.9695 36.1417 50.2186 36.6569 26.8405 36.2318 45.268 62.812 56.4623 71.6296 71.183 60.3068 51.2422 66.549 54.3498 46.4675 53.8495 51.802 49.1527 50.7995 55.137 46.1195 48.8595 35.0425 39.6141 46.2947 43.5846 40.4576 42.3439 37.0256 62.4274 76.1782 98.1101 69.1335 67.8768 80.4061 70.4675 60.988 58.9509 69.5376 53.1197 53.808 51.5576 42.7741 49.7686 40.6471 44.3422 46.9034 42.8581 49.1565 42.3924 44.7624 36.257 44.0182 76.2173 86.3818 96.038 105.522 78.0097 89.8478 86.2897 76.9779 67.8356 60.7392 61.5087 65.6997 61.0571 50.9339 46.5989 60.074 41.3177 54.3427 40.5916 35.5265 38.1871 36.0109 34.0308 49.5196 109.716 123.324 120.534 109.444 94.8057 102.796 89.4424 92.2252 76.1414 72.4076 64.0176 71.2543 52.2022 49.5219 52.8619 53.0368 47.1633 47.4932 45.9004 53.9692 49.948 38.321 44.2516 23.9675 112.986 120.558 120.922 99.939 96.466 94.4399 82.4033 79.8254 81.1337 81.8048 71.5086 70.7124 58.519 53.9675 51.6591 55.8239 54.6319 48.5304 52.1482 46.0814 34.274 44.182 54.2612 34.1184 69.8576 103.616 93.5614 98.3598 77.4201 74.7792 80.7247 77.8983 65.0823 56.6799 55.1232 47.0106 61.4731 47.7849 45.452 55.5899 40.3578 42.5699 51.4048 35.4705 42.0351 30.2029 29.4919 42.3964 49.2067 61.6626 87.1922 84.8342 62.8427 69.2652 60.276 65.4136 55.8155 57.4047 49.1108 64.3814 41.3868 62.868 53.8337 35.1206 47.3799 49.3947 37.2132 38.9425 35.0753 42.5528 32.7274 31.0498 58.2572 63.7408 59.4979 75.6544 75.2101 52.0834 67.5089 62.0848 59.8374 63.5685 57.9232 47.4031 50.1084 43.4567 58.2558 51.5314 42.4443 50.5432 35.5851 36.7388 43.2923 37.2153 37.2208 26.505 43.6787 61.2373 58.8173 73.169 78.279 63.5957 61.4006 42.2069 47.43 51.9057 42.9023 56.8482 58.2893 53.0505 48.2296 48.5249 49.0341 46.6089 46.7861 43.7691 38.9024 54.8534 47.9293 35.4174 68.1485 77.6222 88.2447 92.3019 68.5579 67.1353 62.8426 52.2618 50.5093 56.1342 58.5582 54.7861 46.1218 58.8662 46.4875 61.6565 42.6188 45.5948 40.6669 38.2615 37.4839 35.4963 39.6038 41.9935 78.984 103.663 104.426 92.238 86.3386 85.4733 63.0586 78.2842 69.6988 65.8092 60.1045 64.794 50.0856 44.2084 54.254 44.0508 37.0921 42.9833 50.2768 59.9247 45.997 43.5928 54.0254 52.272 116.668 120.925 111.556 108.337 99.4617 109.268 96.1533 76.9975 78.7269 69.4492 65.8244 53.4284 54.9218 69.7623 61.4955 52.7393 50.5506 47.4186 45.3128 44.7508 32.4303 34.6568 40.3743 43.6414 120.842 114.595 116.197 101.319 112.048 89.2811 86.0035 86.926 73.7618 66.1595 60.6543 59.0156 58.0723 54.3848 44.337 48.4132 42.1907 44.7601 45.2893 48.2342 34.5592 48.8795 46.2894 41.1915 90.346 112.089 91.7725 87.0493 91.9804 91.803 66.0925 76.0929 71.0194 82.6469 61.4518 50.4554 57.4933 58.3635 46.3758 47.4086 41.6084 45.9904 52.3963 31.4095 44.9848 41.0696 36.2619 33.3179 57.4726 79.9321 81.4695 80.2632 64.7974 64.6662 62.6871 64.1786 58.2861 60.3646 62.6658 66.3657 49.6339 64.599 48.1937 43.6429 49.9522 57.2244 44.7269 48.5072 48.9075 41.351 34.8035 51.6032 46.6928 63.8954 73.605 72.0401 76.1459 59.5861 63.2431 55.865 55.0165 42.4676 46.6325 59.5937 60.7124 41.1237 52.131 52.4255 45.7705 48.6298 37.3407 48.0096 53.6816 39.3299 49.018 50.4793 55.9832 62.4765 66.4688 88.7907 77.5613 61.5857 61.1743 53.417 60.526 50.372 46.6704 52.8668 54.8827 63.7572 35.7963 57.6557 49.9235 50.8306 39.1066 35.8854 49.117 43.2199 35.9425 41.8651 69.7012 82.5852 84.7631 70.9853 71.0065 60.8137 67.4472 65.9643 59.8896 52.0344 55.096 62.5019 57.4396 50.432 59.2287 50.8966 39.0118 35.1608 45.95 62.7719 54.9006 42.5294 40.1155 47.7966 81.3421 101.839 99.7909 89.2689 86.0397 71.751 80.4192 72.1656 70.7823 64.6373 63.4101 62.0837 59.36 52.4879 50.5857 48.6669 50.0008 45.4692 32.2826 54.4179 50.5463 42.3752 38.6883 55.7119 100.496 125.497 122.469 92.8152 102.26 99.4252 79.455 103.64 72.083 65.9566 61.7358 60.3937 54.5492 50.0027 65.4128 49.5026 60.6849 58.0711 53.3983 41.0937 42.3613 42.2417 53.9669 33.9812 120.657 110.988 107.333 114.602 122.561 100.369 85.0108 70.7453 86.9168 77.0119 65.5044 63.3233 65.5093 53.9457 39.4819 45.7919 52.6328 51.7918 35.1727 39.7239 46.7553 38.805 36.7029 41.7126 75.7042 88.8451 97.6083 87.504 69.4009 76.343 81.3314 51.3057 64.3865 67.3569 64.7099 55.1224 45.438 69.8727 44.8714 57.4604 50.8404 55.2821 33.6338 39.0197 36.8582 40.7423 38.4953 39.7948 63.0028 70.6385 68.058 68.9768 76.6101 57.1419 72.5088 57.7268 66.1794 57.8323 50.965 66.4686 56.2715 52.3141 46.8786 36.6415 49.2721 47.3825 55.0343 54.5447 41.8689 42.2851 46.785 39.3072 51.4272 62.4696 80.8455 57.0467 76.9266 55.1955 65.7289 57.3658 60.5119 63.9029 57.8233 52.0834 71.0764 59.5415 64.368 54.9183 50.7507 66.0835 51.2928 39.1713 43.4648 43.8771 43.6456 49.451 50.7354 60.5179 82.5311 67.2596 71.8253 63.1147 61.1431 64.1232 57.2748 55.5212 61.7507 53.2646 52.7268 39.4069 42.847 55.8803 58.1488 52.8056 44.21 39.9598 38.1498 38.24 37.8101 40.3266 46.4989 79.3534 81.2074 83.1145 61.9246 79.8103 75.5452 70.9804 51.0464 63.2957 65.464 63.4792 43.4793 47.9807 53.413 41.0664 41.0732 35.2005 52.459 36.2647 47.6413 50.3412 37.0781 45.941 73.4606 87.1102 90.7391 95.6503 99.4827 74.0089 76.3451 80.7709 71.1409 54.0448 67.6937 56.0812 48.1228 55.7171 50.5519 54.9649 39.5447 45.8286 45.7785 49.2648 46.9303 32.0149 34.3323 48.8769 105.363 124.926 114.271 110.41 104.328 93.2207 93.1159 86.7885 73.3976 80.3758 77.6115 68.5264 63.7523 59.7218 60.9103 32.8647 54.8945 47.1006 50.3166 42.6578 33.6121 41.5939 51.9826 43.8606 125.978 111.003 119.303 95.8195 108.087 84.4828 73.6272 89.9782 83.3906 70.2419 78.7995 56.6609 55.5627 55.8996 47.9528 58.2069 49.8677 47.5525 35.6797 47.4225 38.8514 30.043 48.1624 35.0643 80.5188 101.412 86.7487 87.7726 82.3086 76.9986 74.4758 82.785 69.1337 70.0434 59.7236 59.7629 49.0867 50.7318 46.2232 49.9008 42.6065 43.0284 54.856 39.8391 35.0897 47.2263 41.5646 30.7544 61.8514 64.4777 70.4778 63.3305 64.9481 90.5764 70.3619 59.1963 52.6497 73.9309 75.5051 73.6813 54.368 52.042 51.8897 54.3825 50.38 62.4861 42.4829 57.0039 45.0063 38.1625 56.605 40.2124 49.4888 60.7364 52.8204 66.3462 64.3973 70.2208 65.0014 56.7077 47.336 68.9043 53.6729 57.2062 48.4993 66.0972 55.0215 59.043 46.2102 46.5376 45.8611 46.9106 37.5459 43.9405 32.797 41.7706 43.6232 65.7615 63.2924 58.4344 64.9181 50.0563 62.5074 53.0138 47.0943 67.5604 55.0351 53.0002 59.8511 48.7871 51.0696 54.6193 42.1358 58.9486 50.7357 53.9336 46.4264 46.8821 38.2658 44.5622 62.8888 78.7856 78.7911 67.5642 70.5257 69.4953 72.2846 60.0603 73.3679 60.6397 52.3353 50.4249 48.6171 48.6535 60.8107 39.7752 42.4575 50.7324 42.3816 49.2752 41.0858 41.3836 42.2276 57.7342 75.3025 94.196 81.8265 94.2023 82.8063 75.8334 75.3976 70.2058 63.1093 61.3098 67.2841 54.624 64.6222 60.5511 55.5865 59.9358 42.1095 49.9589 51.9985 40.607 50.2197 43.3866 28.9499 41.4969 111.938 113.889 118.371 110.248 88.2568 82.1445 82.7393 80.6242 79.2347 73.9161 72.5002 69.3952 52.2692 55.4048 46.7373 51.5692 48.7968 45.0515 45.1576 41.4061 42.6306 46.2237 52.0755 45.4395 
SCALARS volume float 1
LOOKUP_TABLE default
14.5529 14.7102 14.7083 14.7128 14.7173 14.7224 14.7277 14.7328 14.7378 14.7424 14.7468 14.7508 14.7545 14.7578 14.7608 14.7635 14.7659 14.7679 14.7696 14.771 14.7722 14.7729 14.7734 14.7735 14.6416 14.7188 14.7299 14.7323 14.7346 14.7375 14.7408 14.7443 14.7477 14.7511 14.7542 14.7571 14.7597 14.7621 14.7643 14.7662 14.7679 14.7693 14.7705 14.7715 14.7723 14.7729 14.7733 14.7739 14.6991 14.7426 14.7476 14.7495 14.7507 14.7522 14.754 14.756 14.7581 14.7601 14.762 14.7638 14.7653 14.7668 14.7681 14.7692 14.7702 14.7711 14.7717 14.7723 14.7728 14.7731 14.7734 14.7738 14.7518 14.7637 14.7653 14.7657 14.766 14.7664 14.767 14.7677 14.7685 14.7692 14.7699 14.7705 14.7711 14.7715 14.772 14.7724 14.7727 14.7729 14.7731 14.7732 14.7733 14.7734 14.7734 14.7735 14.8018 14.7841 14.7826 14.7816 14.781 14.7804 14.7799 14.7794 14.7789 14.7784 14.7779 14.7774 14.777 14.7765 14.776 14.7756 14.7753 14.7749 14.7746 14.7743 14.774 14.7737 14.7735 14.7732 14.8524 14.804 14.7995 14.7972 14.7958 14.7943 14.7927 14.791 14.7892 14.7875 14.7859 14.7843 14.7828 14.7814 14.7801 14.7789 14.7778 14.7768 14.7759 14.7752 14.7746 14.774 14.7735 14.7728 14.9066 14.8249 14.8157 14.8131 14.8108 14.8082 14.8054 14.8025 14.7995 14.7965 14.7937 14.791 14.7885 14.7861 14.784 14.782 14.7802 14.7786 14.7772 14.776 14.7751 14.7742 14.7736 14.7728 14.9884 14.8313 14.8335 14.8297 14.8262 14.8223 14.8181 14.8138 14.8095 14.8053 14.8013 14.7975 14.7939 14.7907 14.7876 14.7849 14.7824 14.7802 14.7782 14.7766 14.7753 14.7742 14.7735 14.7731 14.5738 14.6794 14.6968 14.7064 14.7141 14.721 14.7273 14.733 14.7382 14.743 14.7474 14.7514 14.7551 14.7584 14.7614 14.7641 14.7664 14.7684 14.7701 14.7715 14.7726 14.7733 14.7736 14.7736 14.6584 14.6875 14.7153 14.7253 14.7311 14.7358 14.7401 14.7442 14.7479 14.7513 14.7545 14.7575 14.7601 14.7625 14.7646 14.7666 14.7682 14.7697 14.7709 14.7719 14.7726 14.7732 14.7735 14.774 14.7088 14.7234 14.737 14.744 14.7479 14.7507 14.7532 14.7557 14.758 14.7601 14.7621 14.7639 14.7655 14.767 14.7682 14.7694 14.7704 14.7713 14.7719 14.7725 14.7729 14.7733 14.7735 14.774 14.7552 14.7578 14.7612 14.7632 14.7644 14.7655 14.7664 14.7673 14.7682 14.769 14.7698 14.7705 14.7711 14.7716 14.772 14.7724 14.7728 14.773 14.7731 14.7733 14.7734 14.7735 14.7735 14.7736 14.7998 14.791 14.7849 14.7822 14.7808 14.7801 14.7795 14.779 14.7786 14.7782 14.7777 14.7773 14.7768 14.7764 14.776 14.7756 14.7752 14.7748 14.7745 14.7742 14.7739 14.7737 14.7734 14.7731 14.8457 14.8231 14.8072 14.8003 14.7968 14.7945 14.7925 14.7907 14.7889 14.7872 14.7856 14.784 14.7825 14.7812 14.7799 14.7787 14.7776 14.7766 14.7758 14.7751 14.7744 14.7739 14.7734 14.7727 14.8953 14.8529 14.8257 14.8173 14.8125 14.8088 14.8054 14.8023 14.7991 14.7962 14.7933 14.7907 14.7881 14.7858 14.7836 14.7817 14.7799 14.7783 14.7769 14.7758 14.7748 14.774 14.7734 14.7727 14.9757 14.8554 14.8408 14.8336 14.828 14.823 14.8182 14.8136 14.8092 14.8049 14.8009 14.7971 14.7935 14.7902 14.7871 14.7844 14.7819 14.7797 14.7778 14.7761 14.7748 14.7739 14.7732 14.7731 14.5607 14.6758 14.6902 14.702 14.7114 14.7196 14.7267 14.7329 14.7383 14.7433 14.7477 14.7518 14.7554 14.7588 14.7618 14.7644 14.7668 14.7688 14.7704 14.7718 14.7729 14.7735 14.7738 14.7737 14.6541 14.6817 14.708 14.7207 14.7285 14.7345 14.7395 14.744 14.7479 14.7515 14.7547 14.7577 14.7603 14.7628 14.7649 14.7668 14.7685 14.7699 14.7711 14.772 14.7728 14.7733 14.7736 14.774 14.706 14.7192 14.7316 14.7405 14.7458 14.7496 14.7527 14.7554 14.7578 14.7601 14.7621 14.7639 14.7656 14.7671 14.7683 14.7695 14.7705 14.7714 14.772 14.7726 14.773 14.7733 14.7736 14.774 14.7543 14.7563 14.7591 14.7616 14.7634 14.7648 14.766 14.7671 14.768 14.769 14.7697 14.7705 14.7711 14.7716 14.772 14.7725 14.7728 14.773 14.7732 14.7734 14.7734 14.7735 14.7735 14.7736 14.8007 14.7926 14.7864 14.7827 14.7808 14.7799 14.7793 14.7788 14.7784 14.778 14.7775 14.7772 14.7767 14.7763 14.7759 14.7755 14.7751 14.7748 14.7744 14.7742 14.7739 14.7736 14.7734 14.7731 14.8482 14.8274 14.8117 14.8025 14.7978 14.7948 14.7925 14.7906 14.7887 14.787 14.7854 14.7839 14.7824 14.781 14.7797 14.7786 14.7775 14.7765 14.7756 14.7749 14.7743 14.7738 14.7733 14.7727 14.8985 14.8587 14.8316 14.8204 14.814 14.8094 14.8056 14.8022 14.7989 14.796 14.7931 14.7904 14.7879 14.7856 14.7834 14.7815 14.7796 14.7781 14.7767 14.7755 14.7746 14.7739 14.7732 14.7727 14.9848 14.86 14.8463 14.8366 14.8297 14.8238 14.8184 14.8136 14.809 14.8047 14.8006 14.7968 14.7932 14.7899 14.7868 14.7841 14.7816 14.7794 14.7774 14.7759 14.7745 14.7737 14.7731 14.773 14.5543 14.673 14.6877 14.6998 14.7099 14.7188 14.7263 14.7327 14.7384 14.7434 14.7479 14.752 14.7556 14.759 14.7619 14.7646 14.7669 14.7689 14.7706 14.772 14.773 14.7737 14.7739 14.7737 14.6521 14.679 14.7056 14.7186 14.7272 14.7338 14.7392 14.7438 14.7479 14.7515 14.7548 14.7578 14.7604 14.7629 14.765 14.7669 14.7686 14.77 14.7712 14.7722 14.7729 14.7734 14.7737 14.774 14.7048 14.7176 14.7298 14.739 14.7448 14.749 14.7523 14.7552 14.7578 14.7601 14.7621 14.764 14.7657 14.7671 14.7684 14.7696 14.7705 14.7714 14.7721 14.7726 14.773 14.7734 14.7736 14.7741 14.7539 14.7557 14.7584 14.7609 14.7628 14.7644 14.7658 14.7669 14.768 14.7689 14.7697 14.7705 14.7711 14.7716 14.7721 14.7725 14.7728 14.773 14.7732 14.7734 14.7734 14.7735 14.7735 14.7736 14.801 14.7931 14.7869 14.7829 14.7808 14.7798 14.7792 14.7787 14.7783 14.7779 14.7775 14.7771 14.7767 14.7763 14.7758 14.7755 14.7751 14.7748 14.7744 14.7741 14.7739 14.7737 14.7733 14.7731 14.8491 14.829 14.8132 14.8036 14.7983 14.795 14.7925 14.7905 14.7887 14.787 14.7853 14.7838 14.7823 14.781 14.7796 14.7785 14.7774 14.7764 14.7756 14.7749 14.7743 14.7738 14.7733 14.7727 14.8999 14.861 14.8338 14.8219 14.8148 14.8098 14.8057 14.8022 14.7989 14.7959 14.793 14.7903 14.7878 14.7855 14.7833 14.7814 14.7795 14.778 14.7766 14.7754 14.7745 14.7738 14.7732 14.7727 14.9894 14.8627 14.8487 14.8383 14.8306 14.8243 14.8187 14.8136 14.8089 14.8045 14.8004 14.7966 14.7931 14.7898 14.7866 14.7839 14.7814 14.7792 14.7773 14.7757 14.7744 14.7735 14.773 14.7729 14.5543 14.6729 14.6877 14.6997 14.7099 14.7187 14.7263 14.7327 14.7383 14.7434 14.7479 14.752 14.7556 14.759 14.7619 14.7646 14.7669 14.7689 14.7706 14.772 14.773 14.7737 14.7738 14.7737 14.652 14.6789 14.7055 14.7186 14.7272 14.7338 14.7392 14.7438 14.7479 14.7515 14.7548 14.7578 14.7604 14.7629 14.765 14.767 14.7686 14.77 14.7712 14.7721 14.7729 14.7734 14.7737 14.774 14.7048 14.7175 14.7297 14.7389 14.7448 14.749 14.7524 14.7552 14.7578 14.7601 14.7621 14.764 14.7656 14.7671 14.7684 14.7696 14.7705 14.7714 14.7721 14.7726 14.773 14.7734 14.7736 14.774 14.7538 14.7557 14.7583 14.7609 14.7628 14.7644 14.7657 14.767 14.768 14.7689 14.7697 14.7705 14.7711 14.7716 14.7721 14.7725 14.7728 14.773 14.7732 14.7733 14.7734 14.7735 14.7735 14.7736 14.801 14.7931 14.7868 14.7829 14.7808 14.7798 14.7792 14.7787 14.7783 14.7779 14.7775 14.7771 14.7767 14.7763 14.7758 14.7755 14.7751 14.7747 14.7744 14.7741 14.7739 14.7736 14.7733 14.7731 14.8491 14.8289 14.8132 14.8036 14.7982 14.795 14.7925 14.7905 14.7886 14.7869 14.7853 14.7838 14.7823 14.781 14.7796 14.7785 14.7774 14.7764 14.7756 14.7749 14.7743 14.7738 14.7733 14.7727 14.8999 14.861 14.8338 14.8219 14.8148 14.8098 14.8057 14.8021 14.7989 14.7959 14.793 14.7903 14.7878 14.7855 14.7833 14.7814 14.7795 14.778 14.7765 14.7754 14.7745 14.7738 14.7732 14.7726 14.9894 14.8627 14.8487 14.8383 14.8307 14.8243 14.8186 14.8136 14.8089 14.8045 14.8004 14.7966 14.793 14.7897 14.7867 14.7839 14.7814 14.7792 14.7773 14.7757 14.7744 14.7735 14.773 14.7729 14.5607 14.6757 14.6901 14.7019 14.7114 14.7196 14.7267 14.7328 14.7383 14.7433 14.7477 14.7518 14.7555 14.7588 14.7617 14.7644 14.7667 14.7688 14.7704 14.7718 14.7729 14.7736 14.7738 14.7737 14.6541 14.6816 14.7079 14.7207 14.7285 14.7345 14.7395 14.7439 14.7479 14.7515 14.7547 14.7577 14.7603 14.7627 14.7649 14.7668 14.7685 14.7699 14.7711 14.772 14.7728 14.7733 14.7736 14.774 14.7059 14.7192 14.7316 14.7405 14.7458 14.7496 14.7526 14.7554 14.7578 14.7601 14.7621 14.764 14.7656 14.7671 14.7683 14.7695 14.7705 14.7714 14.772 14.7726 14.773 14.7733 14.7736 14.774 14.7542 14.7563 14.7591 14.7616 14.7634 14.7648 14.766 14.7671 14.768 14.769 14.7697 14.7705 14.7711 14.7716 14.772 14.7725 14.7728 14.773 14.7732 14.7733 14.7734 14.7735 14.7735 14.7736 14.8007 14.7925 14.7863 14.7827 14.7808 14.7799 14.7792 14.7788 14.7783 14.778 14.7776 14.7771 14.7767 14.7763 14.7758 14.7755 14.7751 14.7748 14.7744 14.7742 14.7739 14.7736 14.7733 14.7731 14.8482 14.8274 14.8117 14.8025 14.7977 14.7948 14.7925 14.7905 14.7887 14.787 14.7854 14.7839 14.7824 14.781 14.7797 14.7785 14.7775 14.7765 14.7756 14.7749 14.7743 14.7738 14.7733 14.7727 14.8986 14.8587 14.8317 14.8203 14.814 14.8094 14.8056 14.8021 14.7989 14.7959 14.7931 14.7904 14.7879 14.7856 14.7834 14.7815 14.7796 14.7781 14.7766 14.7755 14.7746 14.7738 14.7732 14.7727 14.9848 14.86 14.8463 14.8366 14.8297 14.8238 14.8184 14.8135 14.809 14.8046 14.8006 14.7968 14.7932 14.7899 14.7868 14.7841 14.7816 14.7794 14.7774 14.7758 14.7745 14.7736 14.7731 14.773 14.5737 14.6793 14.6967 14.7063 14.714 14.721 14.7272 14.733 14.7382 14.743 14.7474 14.7514 14.7551 14.7584 14.7614 14.7641 14.7664 14.7685 14.7701 14.7715 14.7726 14.7734 14.7736 14.7736 14.6583 14.6874 14.7152 14.7252 14.7311 14.7358 14.7401 14.7442 14.7479 14.7513 14.7545 14.7575 14.7601 14.7625 14.7647 14.7666 14.7682 14.7697 14.7709 14.7719 14.7726 14.7732 14.7735 14.774 14.7086 14.7233 14.7369 14.744 14.7478 14.7507 14.7532 14.7557 14.7579 14.7601 14.762 14.7639 14.7654 14.767 14.7682 14.7694 14.7704 14.7713 14.7719 14.7725 14.7729 14.7732 14.7735 14.774 14.7552 14.7577 14.7611 14.7632 14.7644 14.7655 14.7664 14.7673 14.7682 14.7691 14.7698 14.7705 14.7711 14.7716 14.772 14.7724 14.7727 14.773 14.7732 14.7733 14.7734 14.7735 14.7735 14.7736 14.7998 14.791 14.7849 14.7822 14.7808 14.78 14.7795 14.779 14.7785 14.7781 14.7777 14.7773 14.7768 14.7764 14.776 14.7756 14.7752 14.7748 14.7745 14.7742 14.7739 14.7737 14.7734 14.7732 14.8457 14.8232 14.8072 14.8003 14.7968 14.7945 14.7925 14.7907 14.7889 14.7872 14.7855 14.784 14.7825 14.7812 14.7799 14.7787 14.7776 14.7766 14.7758 14.7751 14.7744 14.7739 14.7734 14.7728 14.8953 14.853 14.8257 14.8173 14.8125 14.8088 14.8054 14.8022 14.7991 14.7962 14.7933 14.7907 14.7881 14.7858 14.7836 14.7817 14.7799 14.7783 14.7769 14.7758 14.7747 14.774 14.7734 14.7727 14.9757 14.8554 14.8408 14.8336 14.8281 14.823 14.8182 14.8136 14.8091 14.8049 14.8008 14.7971 14.7935 14.7902 14.7872 14.7844 14.7819 14.7797 14.7778 14.7762 14.7748 14.7739 14.7732 14.7731 14.5528 14.7098 14.7081 14.7127 14.7172 14.7224 14.7276 14.7328 14.7378 14.7425 14.7468 14.7509 14.7545 14.7579 14.7609 14.7635 14.7659 14.7679 14.7696 14.771 14.7722 14.773 14.7734 14.7736 14.6412 14.7185 14.7297 14.7322 14.7345 14.7375 14.7408 14.7443 14.7478 14.7511 14.7542 14.7572 14.7598 14.7622 14.7643 14.7663 14.7679 14.7694 14.7706 14.7716 14.7723 14.7729 14.7734 14.7739 14.6989 14.7424 14.7474 14.7494 14.7506 14.7522 14.754 14.756 14.7581 14.7601 14.762 14.7638 14.7653 14.7668 14.7681 14.7692 14.7702 14.7711 14.7718 14.7723 14.7727 14.7731 14.7734 14.7739 14.7516 14.7636 14.7652 14.7657 14.7659 14.7664 14.767 14.7677 14.7685 14.7692 14.7699 14.7706 14.7711 14.7716 14.772 14.7724 14.7727 14.7729 14.7731 14.7733 14.7733 14.7734 14.7734 14.7736 14.8019 14.7841 14.7825 14.7816 14.781 14.7804 14.7799 14.7794 14.7789 14.7784 14.7779 14.7774 14.7769 14.7765 14.7761 14.7757 14.7752 14.7749 14.7745 14.7743 14.774 14.7737 14.7735 14.7732 14.8526 14.8042 14.7996 14.7973 14.7958 14.7943 14.7927 14.791 14.7892 14.7875 14.7859 14.7843 14.7828 14.7814 14.78 14.7789 14.7778 14.7768 14.7759 14.7752 14.7746 14.7741 14.7735 14.7729 14.9068 14.8252 14.8158 14.8131 14.8108 14.8083 14.8054 14.8024 14.7994 14.7965 14.7937 14.791 14.7885 14.7862 14.784 14.782 14.7802 14.7786 14.7772 14.7761 14.7751 14.7743 14.7736 14.7728 14.9885 14.8315 14.8337 14.8298 14.8263 14.8223 14.8181 14.8138 14.8095 14.8053 14.8013 14.7975 14.794 14.7907 14.7876 14.7849 14.7824 14.7802 14.7782 14.7766 14.7753 14.7743 14.7735 14.7731 
SCALARS volume_diff float 1
LOOKUP_TABLE default
14.551 14.7082 14.7064 14.7108 14.7153 14.7204 14.7257 14.7309 14.7358 14.7405 14.7449 14.7489 14.7526 14.7559 14.7589 14.7615 14.7639 14.7659 14.7677 14.769 14.7702 14.7709 14.7714 14.7715 14.6396 14.7168 14.7279 14.7304 14.7326 14.7355 14.7388 14.7423 14.7458 14.7491 14.7522 14.7551 14.7578 14.7602 14.7623 14.7643 14.7659 14.7674 14.7686 14.7696 14.7703 14.771 14.7714 14.7719 14.6971 14.7407 14.7456 14.7476 14.7487 14.7502 14.752 14.7541 14.7561 14.7581 14.76 14.7618 14.7634 14.7648 14.7661 14.7673 14.7683 14.7691 14.7698 14.7703 14.7708 14.7712 14.7714 14.7719 14.7498 14.7618 14.7633 14.7638 14.764 14.7644 14.765 14.7657 14.7665 14.7672 14.7679 14.7686 14.7691 14.7696 14.77 14.7704 14.7707 14.7709 14.7711 14.7713 14.7714 14.7714 14.7715 14.7716 14.7999 14.7821 14.7806 14.7797 14.779 14.7785 14.7779 14.7775 14.777 14.7765 14.776 14.7755 14.775 14.7746 14.7741 14.7737 14.7733 14.7729 14.7726 14.7723 14.772 14.7718 14.7715 14.7712 14.8505 14.8021 14.7976 14.7953 14.7938 14.7924 14.7907 14.789 14.7873 14.7855 14.7839 14.7823 14.7808 14.7794 14.7781 14.7769 14.7758 14.7748 14.774 14.7732 14.7726 14.7721 14.7715 14.7709 14.9046 14.823 14.8137 14.8111 14.8089 14.8063 14.8035 14.8005 14.7975 14.7946 14.7917 14.7891 14.7865 14.7842 14.782 14.78 14.7782 14.7766 14.7753 14.7741 14.7731 14.7723 14.7716 14.7708 14.9864 14.8293 14.8316 14.8277 14.8243 14.8203 14.8161 14.8118 14.8075 14.8033 14.7993 14.7955 14.792 14.7887 14.7857 14.7829 14.7804 14.7782 14.7762 14.7746 14.7733 14.7723 14.7715 14.7711 14.5718 14.6775 14.6948 14.7044 14.7121 14.719 14.7253 14.731 14.7363 14.741 14.7454 14.7494 14.7531 14.7565 14.7594 14.7621 14.7645 14.7665 14.7682 14.7696 14.7707 14.7714 14.7717 14.7716 14.6565 14.6856 14.7134 14.7233 14.7291 14.7339 14.7382 14.7422 14.7459 14.7494 14.7526 14.7555 14.7581 14.7606 14.7627 14.7646 14.7663 14.7677 14.7689 14.7699 14.7706 14.7712 14.7716 14.772 14.7068 14.7214 14.7351 14.7421 14.7459 14.7488 14.7513 14.7537 14.756 14.7581 14.7601 14.7619 14.7635 14.765 14.7663 14.7675 14.7684 14.7693 14.77 14.7705 14.771 14.7713 14.7715 14.772 14.7533 14.7558 14.7592 14.7612 14.7625 14.7635 14.7644 14.7654 14.7663 14.7671 14.7678 14.7685 14.7691 14.7697 14.7701 14.7705 14.7708 14.7711 14.7712 14.7713 14.7714 14.7715 14.7715 14.7717 14.7978 14.7891 14.7829 14.7802 14.7788 14.7781 14.7775 14.7771 14.7766 14.7762 14.7757 14.7753 14.7749 14.7745 14.774 14.7736 14.7732 14.7729 14.7725 14.7722 14.7719 14.7718 14.7714 14.7712 14.8437 14.8212 14.8052 14.7983 14.7949 14.7925 14.7906 14.7887 14.7869 14.7853 14.7836 14.7821 14.7806 14.7792 14.7779 14.7767 14.7756 14.7747 14.7738 14.7731 14.7724 14.7719 14.7714 14.7708 14.8933 14.851 14.8237 14.8153 14.8106 14.8069 14.8035 14.8003 14.7972 14.7942 14.7913 14.7887 14.7862 14.7839 14.7817 14.7797 14.7779 14.7763 14.775 14.7738 14.7728 14.7721 14.7714 14.7707 14.9737 14.8534 14.8388 14.8316 14.8261 14.8211 14.8162 14.8116 14.8072 14.803 14.7989 14.7951 14.7916 14.7883 14.7852 14.7825 14.7799 14.7778 14.7758 14.7742 14.7729 14.7719 14.7713 14.7711 14.5587 14.6738 14.6882 14.7 14.7095 14.7176 14.7247 14.7309 14.7364 14.7413 14.7458 14.7498 14.7535 14.7568 14.7598 14.7625 14.7648 14.7668 14.7685 14.7699 14.7709 14.7716 14.7718 14.7717 14.6522 14.6797 14.7061 14.7187 14.7266 14.7326 14.7376 14.742 14.7459 14.7495 14.7528 14.7557 14.7584 14.7608 14.7629 14.7649 14.7665 14.7679 14.7691 14.7701 14.7708 14.7714 14.7717 14.7721 14.704 14.7173 14.7297 14.7386 14.7439 14.7476 14.7507 14.7535 14.7559 14.7582 14.7601 14.762 14.7636 14.7651 14.7664 14.7676 14.7685 14.7694 14.7701 14.7706 14.771 14.7714 14.7716 14.7721 14.7523 14.7544 14.7572 14.7596 14.7614 14.7628 14.764 14.7651 14.7661 14.767 14.7678 14.7685 14.7691 14.7697 14.7701 14.7705 14.7708 14.7711 14.7712 14.7714 14.7715 14.7715 14.7715 14.7717 14.7988 14.7906 14.7844 14.7807 14.7789 14.778 14.7773 14.7769 14.7764 14.776 14.7756 14.7752 14.7748 14.7744 14.7739 14.7736 14.7732 14.7728 14.7724 14.7722 14.7719 14.7717 14.7714 14.7712 14.8463 14.8254 14.8097 14.8006 14.7958 14.7928 14.7905 14.7886 14.7868 14.7851 14.7834 14.7819 14.7804 14.7791 14.7778 14.7766 14.7755 14.7746 14.7737 14.773 14.7724 14.7719 14.7713 14.7708 14.8966 14.8568 14.8297 14.8184 14.812 14.8074 14.8036 14.8002 14.797 14.794 14.7911 14.7885 14.7859 14.7836 14.7814 14.7795 14.7777 14.7761 14.7747 14.7736 14.7726 14.7719 14.7713 14.7707 14.9829 14.858 14.8443 14.8346 14.8277 14.8218 14.8165 14.8116 14.807 14.8027 14.7986 14.7948 14.7912 14.788 14.7849 14.7822 14.7796 14.7775 14.7755 14.7739 14.7726 14.7717 14.7711 14.771 14.5524 14.671 14.6858 14.6978 14.708 14.7168 14.7243 14.7308 14.7364 14.7414 14.7459 14.75 14.7537 14.757 14.76 14.7627 14.765 14.767 14.7687 14.77 14.7711 14.7717 14.7719 14.7718 14.6501 14.677 14.7036 14.7167 14.7253 14.7318 14.7372 14.7419 14.7459 14.7496 14.7529 14.7559 14.7585 14.7609 14.7631 14.765 14.7666 14.7681 14.7693 14.7702 14.7709 14.7714 14.7717 14.7721 14.7029 14.7156 14.7278 14.737 14.7428 14.7471 14.7504 14.7533 14.7558 14.7581 14.7601 14.762 14.7637 14.7652 14.7664 14.7676 14.7686 14.7695 14.7701 14.7707 14.7711 14.7714 14.7717 14.7721 14.7519 14.7538 14.7564 14.7589 14.7609 14.7625 14.7638 14.765 14.766 14.767 14.7678 14.7685 14.7691 14.7697 14.7701 14.7705 14.7708 14.7711 14.7713 14.7714 14.7715 14.7716 14.7715 14.7717 14.799 14.7912 14.7849 14.781 14.7789 14.7779 14.7772 14.7768 14.7763 14.776 14.7755 14.7752 14.7747 14.7743 14.7739 14.7735 14.7731 14.7728 14.7725 14.7722 14.7719 14.7717 14.7714 14.7711 14.8471 14.827 14.8113 14.8016 14.7963 14.793 14.7906 14.7886 14.7867 14.785 14.7834 14.7818 14.7803 14.779 14.7777 14.7766 14.7755 14.7745 14.7736 14.7729 14.7723 14.7718 14.7713 14.7708 14.898 14.8591 14.8319 14.82 14.8128 14.8078 14.8037 14.8002 14.7969 14.7939 14.791 14.7884 14.7858 14.7835 14.7813 14.7794 14.7776 14.776 14.7746 14.7735 14.7725 14.7718 14.7713 14.7707 14.9875 14.8607 14.8467 14.8364 14.8287 14.8223 14.8167 14.8116 14.8069 14.8026 14.7985 14.7947 14.7911 14.7878 14.7847 14.782 14.7795 14.7773 14.7753 14.7737 14.7725 14.7715 14.7711 14.771 14.5523 14.671 14.6857 14.6978 14.708 14.7168 14.7243 14.7308 14.7364 14.7414 14.7459 14.75 14.7537 14.757 14.76 14.7626 14.765 14.767 14.7686 14.77 14.771 14.7717 14.7719 14.7718 14.6501 14.677 14.7036 14.7167 14.7252 14.7318 14.7372 14.7419 14.7459 14.7496 14.7528 14.7558 14.7585 14.7609 14.763 14.765 14.7666 14.7681 14.7692 14.7702 14.7709 14.7714 14.7717 14.7721 14.7029 14.7156 14.7278 14.737 14.7428 14.747 14.7504 14.7533 14.7558 14.7581 14.7602 14.762 14.7637 14.7652 14.7664 14.7676 14.7686 14.7695 14.7701 14.7707 14.7711 14.7714 14.7716 14.772 14.7519 14.7537 14.7564 14.7589 14.7609 14.7625 14.7638 14.765 14.766 14.767 14.7678 14.7685 14.7691 14.7697 14.7701 14.7706 14.7708 14.7711 14.7713 14.7714 14.7715 14.7715 14.7715 14.7717 14.799 14.7912 14.7849 14.781 14.7789 14.7779 14.7772 14.7768 14.7763 14.7759 14.7755 14.7752 14.7747 14.7743 14.7739 14.7735 14.7731 14.7728 14.7724 14.7722 14.7719 14.7717 14.7714 14.7711 14.8471 14.827 14.8113 14.8016 14.7963 14.793 14.7906 14.7886 14.7867 14.785 14.7833 14.7818 14.7803 14.779 14.7777 14.7765 14.7754 14.7745 14.7736 14.7729 14.7723 14.7718 14.7713 14.7707 14.898 14.8591 14.8319 14.8199 14.8128 14.8078 14.8037 14.8002 14.7969 14.7939 14.791 14.7884 14.7858 14.7835 14.7813 14.7794 14.7776 14.776 14.7746 14.7734 14.7725 14.7718 14.7712 14.7707 14.9875 14.8607 14.8467 14.8364 14.8287 14.8223 14.8167 14.8116 14.8069 14.8026 14.7985 14.7947 14.791 14.7878 14.7847 14.7819 14.7795 14.7772 14.7753 14.7737 14.7724 14.7716 14.7711 14.771 14.5587 14.6738 14.6882 14.6999 14.7094 14.7176 14.7247 14.7309 14.7364 14.7413 14.7458 14.7498 14.7535 14.7568 14.7598 14.7625 14.7648 14.7668 14.7685 14.7699 14.771 14.7716 14.7718 14.7717 14.6521 14.6796 14.706 14.7187 14.7266 14.7325 14.7375 14.742 14.7459 14.7495 14.7528 14.7557 14.7583 14.7608 14.7629 14.7648 14.7665 14.7679 14.7691 14.7701 14.7708 14.7713 14.7717 14.7721 14.704 14.7172 14.7296 14.7385 14.7438 14.7476 14.7507 14.7534 14.7559 14.7581 14.7601 14.762 14.7636 14.7651 14.7664 14.7675 14.7685 14.7694 14.7701 14.7707 14.771 14.7714 14.7716 14.7721 14.7523 14.7543 14.7571 14.7596 14.7614 14.7628 14.764 14.7651 14.7661 14.767 14.7678 14.7685 14.7691 14.7697 14.7701 14.7705 14.7708 14.7711 14.7712 14.7714 14.7715 14.7715 14.7715 14.7717 14.7987 14.7906 14.7844 14.7807 14.7788 14.7779 14.7773 14.7768 14.7764 14.776 14.7756 14.7752 14.7747 14.7744 14.7739 14.7736 14.7732 14.7728 14.7725 14.7722 14.7719 14.7717 14.7714 14.7712 14.8463 14.8254 14.8097 14.8006 14.7958 14.7928 14.7905 14.7886 14.7867 14.7851 14.7834 14.7819 14.7804 14.7791 14.7778 14.7766 14.7755 14.7746 14.7737 14.773 14.7723 14.7718 14.7713 14.7708 14.8966 14.8568 14.8297 14.8184 14.812 14.8074 14.8036 14.8002 14.797 14.794 14.7911 14.7885 14.7859 14.7836 14.7814 14.7795 14.7777 14.7761 14.7747 14.7736 14.7726 14.7719 14.7713 14.7707 14.9829 14.858 14.8444 14.8347 14.8277 14.8218 14.8165 14.8116 14.807 14.8027 14.7986 14.7948 14.7912 14.7879 14.7849 14.7821 14.7796 14.7774 14.7755 14.7739 14.7726 14.7716 14.7711 14.771 14.5718 14.6774 14.6947 14.7043 14.7121 14.719 14.7253 14.731 14.7362 14.741 14.7454 14.7495 14.7531 14.7565 14.7595 14.7621 14.7644 14.7665 14.7682 14.7696 14.7707 14.7715 14.7717 14.7717 14.6564 14.6855 14.7133 14.7232 14.7291 14.7339 14.7382 14.7422 14.7459 14.7494 14.7526 14.7555 14.7581 14.7606 14.7627 14.7646 14.7663 14.7677 14.7689 14.7699 14.7707 14.7712 14.7716 14.7721 14.7067 14.7213 14.735 14.742 14.7459 14.7487 14.7513 14.7537 14.756 14.7581 14.7601 14.7619 14.7635 14.765 14.7663 14.7675 14.7684 14.7693 14.77 14.7705 14.771 14.7713 14.7715 14.7721 14.7532 14.7558 14.7592 14.7612 14.7625 14.7635 14.7644 14.7654 14.7663 14.7671 14.7679 14.7686 14.7691 14.7697 14.7701 14.7705 14.7708 14.771 14.7712 14.7714 14.7714 14.7715 14.7715 14.7717 14.7978 14.7891 14.7829 14.7802 14.7788 14.7781 14.7775 14.7771 14.7766 14.7762 14.7757 14.7753 14.7748 14.7745 14.774 14.7736 14.7732 14.7729 14.7725 14.7722 14.772 14.7718 14.7714 14.7712 14.8438 14.8213 14.8053 14.7984 14.7949 14.7926 14.7905 14.7887 14.7869 14.7853 14.7836 14.7821 14.7806 14.7792 14.7779 14.7768 14.7757 14.7747 14.7738 14.7731 14.7725 14.772 14.7714 14.7708 14.8934 14.8511 14.8238 14.8154 14.8106 14.8069 14.8035 14.8003 14.7971 14.7942 14.7914 14.7887 14.7862 14.7839 14.7817 14.7797 14.7779 14.7764 14.7749 14.7738 14.7728 14.7721 14.7714 14.7708 14.9737 14.8535 14.8389 14.8316 14.8261 14.8211 14.8163 14.8116 14.8072 14.8029 14.7989 14.7951 14.7915 14.7883 14.7852 14.7825 14.7799 14.7778 14.7758 14.7742 14.7729 14.7719 14.7713 14.7711 14.5508 14.7079 14.7061 14.7107 14.7153 14.7204 14.7257 14.7309 14.7358 14.7405 14.7449 14.7489 14.7526 14.7559 14.7589 14.7616 14.7639 14.766 14.7677 14.7691 14.7702 14.771 14.7715 14.7717 14.6393 14.7166 14.7278 14.7303 14.7326 14.7355 14.7389 14.7424 14.7458 14.7492 14.7523 14.7552 14.7578 14.7603 14.7624 14.7643 14.766 14.7674 14.7686 14.7696 14.7704 14.771 14.7714 14.772 14.6969 14.7404 14.7455 14.7475 14.7487 14.7502 14.752 14.7541 14.7561 14.7581 14.76 14.7618 14.7634 14.7649 14.7661 14.7673 14.7682 14.7691 14.7698 14.7704 14.7708 14.7712 14.7714 14.7719 14.7497 14.7617 14.7633 14.7637 14.764 14.7645 14.765 14.7658 14.7665 14.7673 14.7679 14.7686 14.7691 14.7697 14.7701 14.7705 14.7708 14.771 14.7711 14.7713 14.7714 14.7715 14.7715 14.7716 14.7999 14.7822 14.7806 14.7797 14.779 14.7784 14.7779 14.7774 14.7769 14.7765 14.7759 14.7755 14.775 14.7746 14.7741 14.7737 14.7733 14.7729 14.7726 14.7723 14.7721 14.7718 14.7715 14.7713 14.8506 14.8022 14.7976 14.7953 14.7939 14.7924 14.7907 14.789 14.7873 14.7856 14.7839 14.7823 14.7808 14.7794 14.7781 14.7769 14.7758 14.7749 14.774 14.7733 14.7726 14.7721 14.7715 14.771 14.9049 14.8232 14.8138 14.8112 14.8088 14.8063 14.8034 14.8005 14.7975 14.7946 14.7917 14.7891 14.7865 14.7842 14.782 14.78 14.7782 14.7767 14.7753 14.7741 14.7731 14.7723 14.7716 14.7709 14.9865 14.8296 14.8317 14.8278 14.8244 14.8204 14.8162 14.8119 14.8075 14.8034 14.7994 14.7956 14.792 14.7887 14.7857 14.7829 14.7804 14.7782 14.7763 14.7747 14.7733 14.7723 14.7715 14.7712 
