# vtk DataFile Version 5.1
vtk output
ASCII

DATASET UNSTRUCTURED_GRID
POINTS 14161 float
0 0 2.2
0.125 0 2.2
0.25 0 2.2
0.375 0 2.2
0.5 0 2.2
0.625 0 2.2
0.75 0 2.2
0.875 0 2.2
1 0 2.2
1.125 0 2.2
1.25 0 2.2
1.375 0 2.2
1.5 0 2.2
1.625 0 2.2
1.75 0 2.2
1.875 0 2.2
2 0 2.2
2.125 0 2.2
2.25 0 2.2
2.375 0 2.2
2.5 0 2.2
2.625 0 2.2
2.75 0 2.2
2.875 0 2.2
3 0 2.2
0 0.125 2.2
0.125 0.125 2.2
0.25 0.125 2.2
0.375 0.125 2.2
0.5 0.125 2.2
0.625 0.125 2.2
0.75 0.125 2.2
0.875 0.125 2.2
1 0.125 2.2
1.125 0.125 2.2
1.25 0.125 2.2
1.375 0.125 2.2
1.5 0.125 2.2
1.625 0.125 2.2
1.75 0.125 2.2
1.875 0.125 2.2
2 0.125 2.2
2.125 0.125 2.2
2.25 0.125 2.2
2.375 0.125 2.2
2.5 0.125 2.2
2.625 0.125 2.2
2.75 0.125 2.2
2.875 0.125 2.2
3 0.125 2.2
0 0.25 2.2
0.125 0.25 2.2
0.25 0.25 2.2
0.375 0.25 2.2
0.5 0.25 2.2
0.625 0.25 2.2
0.75 0.25 2.2
0.875 0.25 2.2
1 0.25 2.2
1.125 0.25 2.2
1.25 0.25 2.2
1.375 0.25 2.2
1.5 0.25 2.2
1.625 0.25 2.2
1.75 0.25 2.2
1.875 0.25 2.2
2 0.25 2.2
2.125 0.25 2.2
2.25 0.25 2.2
2.375 0.25 2.2
2.5 0.25 2.2
2.625 0.25 2.2
2.75 0.25 2.2
2.875 0.25 2.2
3 0.25 2.2
0 0.375 2.2
0.125 0.375 2.2
0.25 0.375 2.2
0.375 0.375 2.2
0.5 0.375 2.2
0.625 0.375 2.2
0.75 0.375 2.2
0.875 0.375 2.2
1 0.375 2.2
1.125 0.375 2.2
1.25 0.375 2.2
1.375 0.375 2.2
1.5 0.375 2.2
1.625 0.375 2.2
1.75 0.375 2.2
1.875 0.375 2.2
2 0.375 2.2
2.125 0.375 2.2
2.25 0.375 2.2
2.375 0.375 2.2
2.5 0.375 2.2
2.625 0.375 2.2
2.75 0.375 2.2
2.875 0.375 2.2
3 0.375 2.2
0 0.5 2.2
0.125 0.5 2.2
0.25 0.5 2.2
0.375 0.5 2.2
0.5 0.5 2.2
0.625 0.5 2.2
0.75 0.5 2.2
0.875 0.5 2.2
1 0.5 2.2
1.125 0.5 2.2
1.25 0.5 2.2
1.375 0.5 2.2
1.5 0.5 2.2
1.625 0.5 2.2
1.75 0.5 2.2
1.875 0.5 2.2
2 0.5 2.2
2.125 0.5 2.2
2.25 0.5 2.2
2.375 0.5 2.2
2.5 0.5 2.2
2.625 0.5 2.2
2.75 0.5 2.2
2.875 0.5 2.2
3 0.5 2.2
0 0.625 2.2
0.125 0.625 2.2
0.25 0.625 2.2
0.375 0.625 2.2
0.5 0.625 2.2
0.625 0.625 2.2
0.75 0.625 2.2
0.875 0.625 2.2
1 0.625 2.2
1.125 0.625 2.2
1.25 0.625 2.2
1.375 0.625 2.2
1.5 0.625 2.2
1.625 0.625 2.2
1.75 0.625 2.2
1.875 0.625 2.2
2 0.625 2.2
2.125 0.625 2.2
2.25 0.625 2.2
2.375 0.625 2.2
2.5 0.625 2.2
2.625 0.625 2.2
2.75 0.625 2.2
2.875 0.625 2.2
3 0.625 2.2
0 0.75 2.2
0.125 0.75 2.2
0.25 0.75 2.2
0.375 0.75 2.2
0.5 0.75 2.2
0.625 0.75 2.2
0.75 0.75 2.2
0.875 0.75 2.2
1 0.75 2.2
1.125 0.75 2.2
1.25 0.75 2.2
1.375 0.75 2.2
1.5 0.75 2.2
1.625 0.75 2.2
1.75 0.75 2.2
1.875 0.75 2.2
2 0.75 2.2
2.125 0.75 2.2
2.25 0.75 2.2
2.375 0.75 2.2
2.5 0.75 2.2
2.625 0.75 2.2
2.75 0.75 2.2
2.875 0.75 2.2
3 0.75 2.2
0 0.875 2.2
0.125 0.875 2.2
0.25 0.875 2.2
0.375 0.875 2.2
0.5 0.875 2.2
0.625 0.875 2.2
0.75 0.875 2.2
0.875 0.875 2.2
1 0.875 2.2
1.125 0.875 2.2
1.25 0.875 2.2
1.375 0.875 2.2
1.5 0.875 2.2
1.625 0.875 2.2
1.75 0.875 2.2
1.875 0.875 2.2
2 0.875 2.2
2.125 0.875 2.2
2.25 0.875 2.2
2.375 0.875 2.2
2.5 0.875 2.2
2.625 0.875 2.2
2.75 0.875 2.2
2.875 0.875 2.2
3 0.875 2.2
0 1 2.2
0.125 1 2.2
0.25 1 2.2
0.375 1 2.2
0.5 1 2.2
0.625 1 2.2
0.75 1 2.2
0.875 1 2.2
1 1 2.2
1.125 1 2.2
1.25 1 2.2
1.375 1 2.2
1.5 1 2.2
1.625 1 2.2
1.75 1 2.2
1.875 1 2.2
2 1 2.2
2.125 1 2.2
2.25 1 2.2
2.375 1 2.2
2.5 1 2.2
2.625 1 2.2
2.75 1 2.2
2.875 1 2.2
3 1 2.2
0 0 2.325
0.125 0 2.325
0.25 0 2.325
0.375 0 2.325
0.5 0 2.325
0.625 0 2.325
0.75 0 2.325
0.875 0 2.325
1 0 2.325
1.125 0 2.325
1.25 0 2.325
1.375 0 2.325
1.5 0 2.325
1.625 0 2.325
1.75 0 2.325
1.875 0 2.325
2 0 2.325
2.125 0 2.325
2.25 0 2.325
2.375 0 2.325
2.5 0 2.325
2.625 0 2.325
2.75 0 2.325
2.875 0 2.325
3 0 2.325
0 0.125 2.325
0.125 0.125 2.325
0.25 0.125 2.325
0.375 0.125 2.325
0.5 0.125 2.325
0.625 0.125 2.325
0.75 0.125 2.325
0.875 0.125 2.325
1 0.125 2.325
1.125 0.125 2.325
1.25 0.125 2.325
1.375 0.125 2.325
1.5 0.125 2.325
1.625 0.125 2.325
1.75 0.125 2.325
1.875 0.125 2.325
2 0.125 2.325
2.125 0.125 2.325
2.25 0.125 2.325
2.375 0.125 2.325
2.5 0.125 2.325
2.625 0.125 2.325
2.75 0.125 2.325
2.875 0.125 2.325
3 0.125 2.325
0 0.25 2.325
0.125 0.25 2.325
0.25 0.25 2.325
0.375 0.25 2.325
0.5 0.25 2.325
0.625 0.25 2.325
0.75 0.25 2.325
0.875 0.25 2.325
1 0.25 2.325
1.125 0.25 2.325
1.25 0.25 2.325
1.375 0.25 2.325
1.5 0.25 2.325
1.625 0.25 2.325
1.75 0.25 2.325
1.875 0.25 2.325
2 0.25 2.325
2.125 0.25 2.325
2.25 0.25 2.325
2.375 0.25 2.325
2.5 0.25 2.325
2.625 0.25 2.325
2.75 0.25 2.325
2.875 0.25 2.325
3 0.25 2.325
0 0.375 2.325
0.125 0.375 2.325
0.25 0.375 2.325
0.375 0.375 2.325
0.5 0.375 2.325
0.625 0.375 2.325
0.75 0.375 2.325
0.875 0.375 2.325
1 0.375 2.325
1.125 0.375 2.325
1.25 0.375 2.325
1.375 0.375 2.325
1.5 0.375 2.325
1.625 0.375 2.325
1.75 0.375 2.325
1.875 0.375 2.325
2 0.375 2.325
2.125 0.375 2.325
2.25 0.375 2.325
2.375 0.375 2.325
2.5 0.375 2.325
2.625 0.375 2.325
2.75 0.375 2.325
2.875 0.375 2.325
3 0.375 2.325
0 0.5 2.325
0.125 0.5 2.325
0.25 0.5 2.325
0.375 0.5 2.325
0.5 0.5 2.325
0.625 0.5 2.325
0.75 0.5 2.325
0.875 0.5 2.325
1 0.5 2.325
1.125 0.5 2.325
1.25 0.5 2.325
1.375 0.5 2.325
1.5 0.5 2.325
1.625 0.5 2.325
1.75 0.5 2.325
1.875 0.5 2.325
2 0.5 2.325
2.125 0.5 2.325
2.25 0.5 2.325
2.375 0.5 2.325
2.5 0.5 2.325
2.625 0.5 2.325
2.75 0.5 2.325
2.875 0.5 2.325
3 0.5 2.325
0 0.625 2.325
0.125 0.625 2.325
0.25 0.625 2.325
0.375 0.625 2.325
0.5 0.625 2.325
0.625 0.625 2.325
0.75 0.625 2.325
0.875 0.625 2.325
1 0.625 2.325
1.125 0.625 2.325
1.25 0.625 2.325
1.375 0.625 2.325
1.5 0.625 2.325
1.625 0.625 2.325
1.75 0.625 2.325
1.875 0.625 2.325
2 0.625 2.325
2.125 0.625 2.325
2.25 0.625 2.325
2.375 0.625 2.325
2.5 0.625 2.325
2.625 0.625 2.325
2.75 0.625 2.325
2.875 0.625 2.325
3 0.625 2.325
0 0.75 2.325
0.125 0.75 2.325
0.25 0.75 2.325
0.375 0.75 2.325
0.5 0.75 2.325
0.625 0.75 2.325
0.75 0.75 2.325
0.875 0.75 2.325
1 0.75 2.325
1.125 0.75 2.325
1.25 0.75 2.325
1.375 0.75 2.325
1.5 0.75 2.325
1.625 0.75 2.325
1.75 0.75 2.325
1.875 0.75 2.325
2 0.75 2.325
2.125 0.75 2.325
2.25 0.75 2.325
2.375 0.75 2.325
2.5 0.75 2.325
2.625 0.75 2.325
2.75 0.75 2.325
2.875 0.75 2.325
3 0.75 2.325
0 0.875 2.325
0.125 0.875 2.325
0.25 0.875 2.325
0.375 0.875 2.325
0.5 0.875 2.325
0.625 0.875 2.325
0.75 0.875 2.325
0.875 0.875 2.325
1 0.875 2.325
1.125 0.875 2.325
1.25 0.875 2.325
1.375 0.875 2.325
1.5 0.875 2.325
1.625 0.875 2.325
1.75 0.875 2.325
1.875 0.875 2.325
2 0.875 2.325
2.125 0.875 2.325
2.25 0.875 2.325
2.375 0.875 2.325
2.5 0.875 2.325
2.625 0.875 2.325
2.75 0.875 2.325
2.875 0.875 2.325
3 0.875 2.325
0 1 2.325
0.125 1 2.325
0.25 1 2.325
0.375 1 2.325
0.5 1 2.325
0.625 1 2.325
0.75 1 2.325
0.875 1 2.325
1 1 2.325
1.125 1 2.325
1.25 1 2.325
1.375 1 2.325
1.5 1 2.325
1.625 1 2.325
1.75 1 2.325
1.875 1 2.325
2 1 2.325
2.125 1 2.325
2.25 1 2.325
2.375 1 2.325
2.5 1 2.325
2.625 1 2.325
2.75 1 2.325
2.875 1 2.325
3 1 2.325
0 0 2.45
0.125 0 2.45
0.25 0 2.45
0.375 0 2.45
0.5 0 2.45
0.625 0 2.45
0.75 0 2.45
0.875 0 2.45
1 0 2.45
1.125 0 2.45
1.25 0 2.45
1.375 0 2.45
1.5 0 2.45
1.625 0 2.45
1.75 0 2.45
1.875 0 2.45
2 0 2.45
2.125 0 2.45
2.25 0 2.45
2.375 0 2.45
2.5 0 2.45
2.625 0 2.45
2.75 0 2.45
2.875 0 2.45
3 0 2.45
0 0.125 2.45
0.125 0.125 2.45
0.25 0.125 2.45
0.375 0.125 2.45
0.5 0.125 2.45
0.625 0.125 2.45
0.75 0.125 2.45
0.875 0.125 2.45
1 0.125 2.45
1.125 0.125 2.45
1.25 0.125 2.45
1.375 0.125 2.45
1.5 0.125 2.45
1.625 0.125 2.45
1.75 0.125 2.45
1.875 0.125 2.45
2 0.125 2.45
2.125 0.125 2.45
2.25 0.125 2.45
2.375 0.125 2.45
2.5 0.125 2.45
2.625 0.125 2.45
2.75 0.125 2.45
2.875 0.125 2.45
3 0.125 2.45
0 0.25 2.45
0.125 0.25 2.45
0.25 0.25 2.45
0.375 0.25 2.45
0.5 0.25 2.45
0.625 0.25 2.45
0.75 0.25 2.45
0.875 0.25 2.45
1 0.25 2.45
1.125 0.25 2.45
1.25 0.25 2.45
1.375 0.25 2.45
1.5 0.25 2.45
1.625 0.25 2.45
1.75 0.25 2.45
1.875 0.25 2.45
2 0.25 2.45
2.125 0.25 2.45
2.25 0.25 2.45
2.375 0.25 2.45
2.5 0.25 2.45
2.625 0.25 2.45
2.75 0.25 2.45
2.875 0.25 2.45
3 0.25 2.45
0 0.375 2.45
0.125 0.375 2.45
0.25 0.375 2.45
0.375 0.375 2.45
0.5 0.375 2.45
0.625 0.375 2.45
0.75 0.375 2.45
0.875 0.375 2.45
1 0.375 2.45
1.125 0.375 2.45
1.25 0.375 2.45
1.375 0.375 2.45
1.5 0.375 2.45
1.625 0.375 2.45
1.75 0.375 2.45
1.875 0.375 2.45
2 0.375 2.45
2.125 0.375 2.45
2.25 0.375 2.45
2.375 0.375 2.45
2.5 0.375 2.45
2.625 0.375 2.45
2.75 0.375 2.45
2.875 0.375 2.45
3 0.375 2.45
0 0.5 2.45
0.125 0.5 2.45
0.25 0.5 2.45
0.375 0.5 2.45
0.5 0.5 2.45
0.625 0.5 2.45
0.75 0.5 2.45
0.875 0.5 2.45
1 0.5 2.45
1.125 0.5 2.45
1.25 0.5 2.45
1.375 0.5 2.45
1.5 0.5 2.45
1.625 0.5 2.45
1.75 0.5 2.45
1.875 0.5 2.45
2 0.5 2.45
2.125 0.5 2.45
2.25 0.5 2.45
2.375 0.5 2.45
2.5 0.5 2.45
2.625 0.5 2.45
2.75 0.5 2.45
2.875 0.5 2.45
3 0.5 2.45
0 0.625 2.45
0.125 0.625 2.45
0.25 0.625 2.45
0.375 0.625 2.45
0.5 0.625 2.45
0.625 0.625 2.45
0.75 0.625 2.45
0.875 0.625 2.45
1 0.625 2.45
1.125 0.625 2.45
1.25 0.625 2.45
1.375 0.625 2.45
1.5 0.625 2.45
1.625 0.625 2.45
1.75 0.625 2.45
1.875 0.625 2.45
2 0.625 2.45
2.125 0.625 2.45
2.25 0.625 2.45
2.375 0.625 2.45
2.5 0.625 2.45
2.625 0.625 2.45
2.75 0.625 2.45
2.875 0.625 2.45
3 0.625 2.45
0 0.75 2.45
0.125 0.75 2.45
0.25 0.75 2.45
0.375 0.75 2.45
0.5 0.75 2.45
0.625 0.75 2.45
0.75 0.75 2.45
0.875 0.75 2.45
1 0.75 2.45
1.125 0.75 2.45
1.25 0.75 2.45
1.375 0.75 2.45
1.5 0.75 2.45
1.625 0.75 2.45
1.75 0.75 2.45
1.875 0.75 2.45
2 0.75 2.45
2.125 0.75 2.45
2.25 0.75 2.45
2.375 0.75 2.45
2.5 0.75 2.45
2.625 0.75 2.45
2.75 0.75 2.45
2.875 0.75 2.45
3 0.75 2.45
0 0.875 2.45
0.125 0.875 2.45
0.25 0.875 2.45
0.375 0.875 2.45
0.5 0.875 2.45
0.625 0.875 2.45
0.75 0.875 2.45
0.875 0.875 2.45
1 0.875 2.45
1.125 0.875 2.45
1.25 0.875 2.45
1.375 0.875 2.45
1.5 0.875 2.45
1.625 0.875 2.45
1.75 0.875 2.45
1.875 0.875 2.45
2 0.875 2.45
2.125 0.875 2.45
2.25 0.875 2.45
2.375 0.875 2.45
2.5 0.875 2.45
2.625 0.875 2.45
2.75 0.875 2.45
2.875 0.875 2.45
3 0.875 2.45
0 1 2.45
0.125 1 2.45
0.25 1 2.45
0.375 1 2.45
0.5 1 2.45
0.625 1 2.45
0.75 1 2.45
0.875 1 2.45
1 1 2.45
1.125 1 2.45
1.25 1 2.45
1.375 1 2.45
1.5 1 2.45
1.625 1 2.45
1.75 1 2.45
1.875 1 2.45
2 1 2.45
2.125 1 2.45
2.25 1 2.45
2.375 1 2.45
2.5 1 2.45
2.625 1 2.45
2.75 1 2.45
2.875 1 2.45
3 1 2.45
0 0 2.575
0.125 0 2.575
0.25 0 2.575
0.375 0 2.575
0.5 0 2.575
0.625 0 2.575
0.75 0 2.575
0.875 0 2.575
1 0 2.575
1.125 0 2.575
1.25 0 2.575
1.375 0 2.575
1.5 0 2.575
1.625 0 2.575
1.75 0 2.575
1.875 0 2.575
2 0 2.575
2.125 0 2.575
2.25 0 2.575
2.375 0 2.575
2.5 0 2.575
2.625 0 2.575
2.75 0 2.575
2.875 0 2.575
3 0 2.575
0 0.125 2.575
0.125 0.125 2.575
0.25 0.125 2.575
0.375 0.125 2.575
0.5 0.125 2.575
0.625 0.125 2.575
0.75 0.125 2.575
0.875 0.125 2.575
1 0.125 2.575
1.125 0.125 2.575
1.25 0.125 2.575
1.375 0.125 2.575
1.5 0.125 2.575
1.625 0.125 2.575
1.75 0.125 2.575
1.875 0.125 2.575
2 0.125 2.575
2.125 0.125 2.575
2.25 0.125 2.575
2.375 0.125 2.575
2.5 0.125 2.575
2.625 0.125 2.575
2.75 0.125 2.575
2.875 0.125 2.575
3 0.125 2.575
0 0.25 2.575
0.125 0.25 2.575
0.25 0.25 2.575
0.375 0.25 2.575
0.5 0.25 2.575
0.625 0.25 2.575
0.75 0.25 2.575
0.875 0.25 2.575
1 0.25 2.575
1.125 0.25 2.575
1.25 0.25 2.575
1.375 0.25 2.575
1.5 0.25 2.575
1.625 0.25 2.575
1.75 0.25 2.575
1.875 0.25 2.575
2 0.25 2.575
2.125 0.25 2.575
2.25 0.25 2.575
2.375 0.25 2.575
2.5 0.25 2.575
2.625 0.25 2.575
2.75 0.25 2.575
2.875 0.25 2.575
3 0.25 2.575
0 0.375 2.575
0.125 0.375 2.575
0.25 0.375 2.575
0.375 0.375 2.575
0.5 0.375 2.575
0.625 0.375 2.575
0.75 0.375 2.575
0.875 0.375 2.575
1 0.375 2.575
1.125 0.375 2.575
1.25 0.375 2.575
1.375 0.375 2.575
1.5 0.375 2.575
1.625 0.375 2.575
1.75 0.375 2.575
1.875 0.375 2.575
2 0.375 2.575
2.125 0.375 2.575
2.25 0.375 2.575
2.375 0.375 2.575
2.5 0.375 2.575
2.625 0.375 2.575
2.75 0.375 2.575
2.875 0.375 2.575
3 0.375 2.575
0 0.5 2.575
0.125 0.5 2.575
0.25 0.5 2.575
0.375 0.5 2.575
0.5 0.5 2.575
0.625 0.5 2.575
0.75 0.5 2.575
0.875 0.5 2.575
1 0.5 2.575
1.125 0.5 2.575
1.25 0.5 2.575
1.375 0.5 2.575
1.5 0.5 2.575
1.625 0.5 2.575
1.75 0.5 2.575
1.875 0.5 2.575
2 0.5 2.575
2.125 0.5 2.575
2.25 0.5 2.575
2.375 0.5 2.575
2.5 0.5 2.575
2.625 0.5 2.575
2.75 0.5 2.575
2.875 0.5 2.575
3 0.5 2.575
0 0.625 2.575
0.125 0.625 2.575
0.25 0.625 2.575
0.375 0.625 2.575
0.5 0.625 2.575
0.625 0.625 2.575
0.75 0.625 2.575
0.875 0.625 2.575
1 0.625 2.575
1.125 0.625 2.575
1.25 0.625 2.575
1.375 0.625 2.575
1.5 0.625 2.575
1.625 0.625 2.575
1.75 0.625 2.575
1.875 0.625 2.575
2 0.625 2.575
2.125 0.625 2.575
2.25 0.625 2.575
2.375 0.625 2.575
2.5 0.625 2.575
2.625 0.625 2.575
2.75 0.625 2.575
2.875 0.625 2.575
3 0.625 2.575
0 0.75 2.575
0.125 0.75 2.575
0.25 0.75 2.575
0.375 0.75 2.575
0.5 0.75 2.575
0.625 0.75 2.575
0.75 0.75 2.575
0.875 0.75 2.575
1 0.75 2.575
1.125 0.75 2.575
1.25 0.75 2.575
1.375 0.75 2.575
1.5 0.75 2.575
1.625 0.75 2.575
1.75 0.75 2.575
1.875 0.75 2.575
2 0.75 2.575
2.125 0.75 2.575
2.25 0.75 2.575
2.375 0.75 2.575
2.5 0.75 2.575
2.625 0.75 2.575
2.75 0.75 2.575
2.875 0.75 2.575
3 0.75 2.575
0 0.875 2.575
0.125 0.875 2.575
0.25 0.875 2.575
0.375 0.875 2.575
0.5 0.875 2.575
0.625 0.875 2.575
0.75 0.875 2.575
0.875 0.875 2.575
1 0.875 2.575
1.125 0.875 2.575
1.25 0.875 2.575
1.375 0.875 2.575
1.5 0.875 2.575
1.625 0.875 2.575
1.75 0.875 2.575
1.875 0.875 2.575
2 0.875 2.575
2.125 0.875 2.575
2.25 0.875 2.575
2.375 0.875 2.575
2.5 0.875 2.575
2.625 0.875 2.575
2.75 0.875 2.575
2.875 0.875 2.575
3 0.875 2.575
0 1 2.575
0.125 1 2.575
0.25 1 2.575
0.375 1 2.575
0.5 1 2.575
0.625 1 2.575
0.75 1 2.575
0.875 1 2.575
1 1 2.575
1.125 1 2.575
1.25 1 2.575
1.375 1 2.575
1.5 1 2.575
1.625 1 2.575
1.75 1 2.575
1.875 1 2.575
2 1 2.575
2.125 1 2.575
2.25 1 2.575
2.375 1 2.575
2.5 1 2.575
2.625 1 2.575
2.75 1 2.575
2.875 1 2.575
3 1 2.575
0 0 2.7
0.125 0 2.7
0.25 0 2.7
0.375 0 2.7
0.5 0 2.7
0.625 0 2.7
0.75 0 2.7
0.875 0 2.7
1 0 2.7
1.125 0 2.7
1.25 0 2.7
1.375 0 2.7
1.5 0 2.7
1.625 0 2.7
1.75 0 2.7
1.875 0 2.7
2 0 2.7
2.125 0 2.7
2.25 0 2.7
2.375 0 2.7
2.5 0 2.7
2.625 0 2.7
2.75 0 2.7
2.875 0 2.7
3 0 2.7
0 0.125 2.7
0.125 0.125 2.7
0.25 0.125 2.7
0.375 0.125 2.7
0.5 0.125 2.7
0.625 0.125 2.7
0.75 0.125 2.7
0.875 0.125 2.7
1 0.125 2.7
1.125 0.125 2.7
1.25 0.125 2.7
1.375 0.125 2.7
1.5 0.125 2.7
1.625 0.125 2.7
1.75 0.125 2.7
1.875 0.125 2.7
2 0.125 2.7
2.125 0.125 2.7
2.25 0.125 2.7
2.375 0.125 2.7
2.5 0.125 2.7
2.625 0.125 2.7
2.75 0.125 2.7
2.875 0.125 2.7
3 0.125 2.7
0 0.25 2.7
0.125 0.25 2.7
0.25 0.25 2.7
0.375 0.25 2.7
0.5 0.25 2.7
0.625 0.25 2.7
0.75 0.25 2.7
0.875 0.25 2.7
1 0.25 2.7
1.125 0.25 2.7
1.25 0.25 2.7
1.375 0.25 2.7
1.5 0.25 2.7
1.625 0.25 2.7
1.75 0.25 2.7
1.875 0.25 2.7
2 0.25 2.7
2.125 0.25 2.7
2.25 0.25 2.7
2.375 0.25 2.7
2.5 0.25 2.7
2.625 0.25 2.7
2.75 0.25 2.7
2.875 0.25 2.7
3 0.25 2.7
0 0.375 2.7
0.125 0.375 2.7
0.25 0.375 2.7
0.375 0.375 2.7
0.5 0.375 2.7
0.625 0.375 2.7
0.75 0.375 2.7
0.875 0.375 2.7
1 0.375 2.7
1.125 0.375 2.7
1.25 0.375 2.7
1.375 0.375 2.7
1.5 0.375 2.7
1.625 0.375 2.7
1.75 0.375 2.7
1.875 0.375 2.7
2 0.375 2.7
2.125 0.375 2.7
2.25 0.375 2.7
2.375 0.375 2.7
2.5 0.375 2.7
2.625 0.375 2.7
2.75 0.375 2.7
2.875 0.375 2.7
3 0.375 2.7
0 0.5 2.7
0.125 0.5 2.7
0.25 0.5 2.7
0.375 0.5 2.7
0.5 0.5 2.7
0.625 0.5 2.7
0.75 0.5 2.7
0.875 0.5 2.7
1 0.5 2.7
1.125 0.5 2.7
1.25 0.5 2.7
1.375 0.5 2.7
1.5 0.5 2.7
1.625 0.5 2.7
1.75 0.5 2.7
1.875 0.5 2.7
2 0.5 2.7
2.125 0.5 2.7
2.25 0.5 2.7
2.375 0.5 2.7
2.5 0.5 2.7
2.625 0.5 2.7
2.75 0.5 2.7
2.875 0.5 2.7
3 0.5 2.7
0 0.625 2.7
0.125 0.625 2.7
0.25 0.625 2.7
0.375 0.625 2.7
0.5 0.625 2.7
0.625 0.625 2.7
0.75 0.625 2.7
0.875 0.625 2.7
1 0.625 2.7
1.125 0.625 2.7
1.25 0.625 2.7
1.375 0.625 2.7
1.5 0.625 2.7
1.625 0.625 2.7
1.75 0.625 2.7
1.875 0.625 2.7
2 0.625 2.7
2.125 0.625 2.7
2.25 0.625 2.7
2.375 0.625 2.7
2.5 0.625 2.7
2.625 0.625 2.7
2.75 0.625 2.7
2.875 0.625 2.7
3 0.625 2.7
0 0.75 2.7
0.125 0.75 2.7
0.25 0.75 2.7
0.375 0.75 2.7
0.5 0.75 2.7
0.625 0.75 2.7
0.75 0.75 2.7
0.875 0.75 2.7
1 0.75 2.7
1.125 0.75 2.7
1.25 0.75 2.7
1.375 0.75 2.7
1.5 0.75 2.7
1.625 0.75 2.7
1.75 0.75 2.7
1.875 0.75 2.7
2 0.75 2.7
2.125 0.75 2.7
2.25 0.75 2.7
2.375 0.75 2.7
2.5 0.75 2.7
2.625 0.75 2.7
2.75 0.75 2.7
2.875 0.75 2.7
3 0.75 2.7
0 0.875 2.7
0.125 0.875 2.7
0.25 0.875 2.7
0.375 0.875 2.7
0.5 0.875 2.7
0.625 0.875 2.7
0.75 0.875 2.7
0.875 0.875 2.7
1 0.875 2.7
1.125 0.875 2.7
1.25 0.875 2.7
1.375 0.875 2.7
1.5 0.875 2.7
1.625 0.875 2.7
1.75 0.875 2.7
1.875 0.875 2.7
2 0.875 2.7
2.125 0.875 2.7
2.25 0.875 2.7
2.375 0.875 2.7
2.5 0.875 2.7
2.625 0.875 2.7
2.75 0.875 2.7
2.875 0.875 2.7
3 0.875 2.7
0 1 2.7
0.125 1 2.7
0.25 1 2.7
0.375 1 2.7
0.5 1 2.7
0.625 1 2.7
0.75 1 2.7
0.875 1 2.7
1 1 2.7
1.125 1 2.7
1.25 1 2.7
1.375 1 2.7
1.5 1 2.7
1.625 1 2.7
1.75 1 2.7
1.875 1 2.7
2 1 2.7
2.125 1 2.7
2.25 1 2.7
2.375 1 2.7
2.5 1 2.7
2.625 1 2.7
2.75 1 2.7
2.875 1 2.7
3 1 2.7
0 0 2.825
0.125 0 2.825
0.25 0 2.825
0.375 0 2.825
0.5 0 2.825
0.625 0 2.825
0.75 0 2.825
0.875 0 2.825
1 0 2.825
1.125 0 2.825
1.25 0 2.825
1.375 0 2.825
1.5 0 2.825
1.625 0 2.825
1.75 0 2.825
1.875 0 2.825
2 0 2.825
2.125 0 2.825
2.25 0 2.825
2.375 0 2.825
2.5 0 2.825
2.625 0 2.825
2.75 0 2.825
2.875 0 2.825
3 0 2.825
0 0.125 2.825
0.125 0.125 2.825
0.25 0.125 2.825
0.375 0.125 2.825
0.5 0.125 2.825
0.625 0.125 2.825
0.75 0.125 2.825
0.875 0.125 2.825
1 0.125 2.825
1.125 0.125 2.825
1.25 0.125 2.825
1.375 0.125 2.825
1.5 0.125 2.825
1.625 0.125 2.825
1.75 0.125 2.825
1.875 0.125 2.825
2 0.125 2.825
2.125 0.125 2.825
2.25 0.125 2.825
2.375 0.125 2.825
2.5 0.125 2.825
2.625 0.125 2.825
2.75 0.125 2.825
2.875 0.125 2.825
3 0.125 2.825
0 0.25 2.825
0.125 0.25 2.825
0.25 0.25 2.825
0.375 0.25 2.825
0.5 0.25 2.825
0.625 0.25 2.825
0.75 0.25 2.825
0.875 0.25 2.825
1 0.25 2.825
1.125 0.25 2.825
1.25 0.25 2.825
1.375 0.25 2.825
1.5 0.25 2.825
1.625 0.25 2.825
1.75 0.25 2.825
1.875 0.25 2.825
2 0.25 2.825
2.125 0.25 2.825
2.25 0.25 2.825
2.375 0.25 2.825
2.5 0.25 2.825
2.625 0.25 2.825
2.75 0.25 2.825
2.875 0.25 2.825
3 0.25 2.825
0 0.375 2.825
0.125 0.375 2.825
0.25 0.375 2.825
0.375 0.375 2.825
0.5 0.375 2.825
0.625 0.375 2.825
0.75 0.375 2.825
0.875 0.375 2.825
1 0.375 2.825
1.125 0.375 2.825
1.25 0.375 2.825
1.375 0.375 2.825
1.5 0.375 2.825
1.625 0.375 2.825
1.75 0.375 2.825
1.875 0.375 2.825
2 0.375 2.825
2.125 0.375 2.825
2.25 0.375 2.825
2.375 0.375 2.825
2.5 0.375 2.825
2.625 0.375 2.825
2.75 0.375 2.825
2.875 0.375 2.825
3 0.375 2.825
0 0.5 2.825
0.125 0.5 2.825
0.25 0.5 2.825
0.375 0.5 2.825
0.5 0.5 2.825
0.625 0.5 2.825
0.75 0.5 2.825
0.875 0.5 2.825
1 0.5 2.825
1.125 0.5 2.825
1.25 0.5 2.825
1.375 0.5 2.825
1.5 0.5 2.825
1.625 0.5 2.825
1.75 0.5 2.825
1.875 0.5 2.825
2 0.5 2.825
2.125 0.5 2.825
2.25 0.5 2.825
2.375 0.5 2.825
2.5 0.5 2.825
2.625 0.5 2.825
2.75 0.5 2.825
2.875 0.5 2.825
3 0.5 2.825
0 0.625 2.825
0.125 0.625 2.825
0.25 0.625 2.825
0.375 0.625 2.825
0.5 0.625 2.825
0.625 0.625 2.825
0.75 0.625 2.825
0.875 0.625 2.825
1 0.625 2.825
1.125 0.625 2.825
1.25 0.625 2.825
1.375 0.625 2.825
1.5 0.625 2.825
1.625 0.625 2.825
1.75 0.625 2.825
1.875 0.625 2.825
2 0.625 2.825
2.125 0.625 2.825
2.25 0.625 2.825
2.375 0.625 2.825
2.5 0.625 2.825
2.625 0.625 2.825
2.75 0.625 2.825
2.875 0.625 2.825
3 0.625 2.825
0 0.75 2.825
0.125 0.75 2.825
0.25 0.75 2.825
0.375 0.75 2.825
0.5 0.75 2.825
0.625 0.75 2.825
0.75 0.75 2.825
0.875 0.75 2.825
1 0.75 2.825
1.125 0.75 2.825
1.25 0.75 2.825
1.375 0.75 2.825
1.5 0.75 2.825
1.625 0.75 2.825
1.75 0.75 2.825
1.875 0.75 2.825
2 0.75 2.825
2.125 0.75 2.825
2.25 0.75 2.825
2.375 0.75 2.825
2.5 0.75 2.825
2.625 0.75 2.825
2.75 0.75 2.825
2.875 0.75 2.825
3 0.75 2.825
0 0.875 2.825
0.125 0.875 2.825
0.25 0.875 2.825
0.375 0.875 2.825
0.5 0.875 2.825
0.625 0.875 2.825
0.75 0.875 2.825
0.875 0.875 2.825
1 0.875 2.825
1.125 0.875 2.825
1.25 0.875 2.825
1.375 0.875 2.825
1.5 0.875 2.825
1.625 0.875 2.825
1.75 0.875 2.825
1.875 0.875 2.825
2 0.875 2.825
2.125 0.875 2.825
2.25 0.875 2.825
2.375 0.875 2.825
2.5 0.875 2.825
2.625 0.875 2.825
2.75 0.875 2.825
2.875 0.875 2.825
3 0.875 2.825
0 1 2.825
0.125 1 2.825
0.25 1 2.825
0.375 1 2.825
0.5 1 2.825
0.625 1 2.825
0.75 1 2.825
0.875 1 2.825
1 1 2.825
1.125 1 2.825
1.25 1 2.825
1.375 1 2.825
1.5 1 2.825
1.625 1 2.825
1.75 1 2.825
1.875 1 2.825
2 1 2.825
2.125 1 2.825
2.25 1 2.825
2.375 1 2.825
2.5 1 2.825
2.625 1 2.825
2.75 1 2.825
2.875 1 2.825
3 1 2.825
0 0 2.95
0.125 0 2.95
0.25 0 2.95
0.375 0 2.95
0.5 0 2.95
0.625 0 2.95
0.75 0 2.95
0.875 0 2.95
1 0 2.95
1.125 0 2.95
1.25 0 2.95
1.375 0 2.95
1.5 0 2.95
1.625 0 2.95
1.75 0 2.95
1.875 0 2.95
2 0 2.95
2.125 0 2.95
2.25 0 2.95
2.375 0 2.95
2.5 0 2.95
2.625 0 2.95
2.75 0 2.95
2.875 0 2.95
3 0 2.95
0 0.125 2.95
0.125 0.125 2.95
0.25 0.125 2.95
0.375 0.125 2.95
0.5 0.125 2.95
0.625 0.125 2.95
0.75 0.125 2.95
0.875 0.125 2.95
1 0.125 2.95
1.125 0.125 2.95
1.25 0.125 2.95
1.375 0.125 2.95
1.5 0.125 2.95
1.625 0.125 2.95
1.75 0.125 2.95
1.875 0.125 2.95
2 0.125 2.95
2.125 0.125 2.95
2.25 0.125 2.95
2.375 0.125 2.95
2.5 0.125 2.95
2.625 0.125 2.95
2.75 0.125 2.95
2.875 0.125 2.95
3 0.125 2.95
0 0.25 2.95
0.125 0.25 2.95
0.25 0.25 2.95
0.375 0.25 2.95
0.5 0.25 2.95
0.625 0.25 2.95
0.75 0.25 2.95
0.875 0.25 2.95
1 0.25 2.95
1.125 0.25 2.95
1.25 0.25 2.95
1.375 0.25 2.95
1.5 0.25 2.95
1.625 0.25 2.95
1.75 0.25 2.95
1.875 0.25 2.95
2 0.25 2.95
2.125 0.25 2.95
2.25 0.25 2.95
2.375 0.25 2.95
2.5 0.25 2.95
2.625 0.25 2.95
2.75 0.25 2.95
2.875 0.25 2.95
3 0.25 2.95
0 0.375 2.95
0.125 0.375 2.95
0.25 0.375 2.95
0.375 0.375 2.95
0.5 0.375 2.95
0.625 0.375 2.95
0.75 0.375 2.95
0.875 0.375 2.95
1 0.375 2.95
1.125 0.375 2.95
1.25 0.375 2.95
1.375 0.375 2.95
1.5 0.375 2.95
1.625 0.375 2.95
1.75 0.375 2.95
1.875 0.375 2.95
2 0.375 2.95
2.125 0.375 2.95
2.25 0.375 2.95
2.375 0.375 2.95
2.5 0.375 2.95
2.625 0.375 2.95
2.75 0.375 2.95
2.875 0.375 2.95
3 0.375 2.95
0 0.5 2.95
0.125 0.5 2.95
0.25 0.5 2.95
0.375 0.5 2.95
0.5 0.5 2.95
0.625 0.5 2.95
0.75 0.5 2.95
0.875 0.5 2.95
1 0.5 2.95
1.125 0.5 2.95
1.25 0.5 2.95
1.375 0.5 2.95
1.5 0.5 2.95
1.625 0.5 2.95
1.75 0.5 2.95
1.875 0.5 2.95
2 0.5 2.95
2.125 0.5 2.95
2.25 0.5 2.95
2.375 0.5 2.95
2.5 0.5 2.95
2.625 0.5 2.95
2.75 0.5 2.95
2.875 0.5 2.95
3 0.5 2.95
0 0.625 2.95
0.125 0.625 2.95
0.25 0.625 2.95
0.375 0.625 2.95
0.5 0.625 2.95
0.625 0.625 2.95
0.75 0.625 2.95
0.875 0.625 2.95
1 0.625 2.95
1.125 0.625 2.95
1.25 0.625 2.95
1.375 0.625 2.95
1.5 0.625 2.95
1.625 0.625 2.95
1.75 0.625 2.95
1.875 0.625 2.95
2 0.625 2.95
2.125 0.625 2.95
2.25 0.625 2.95
2.375 0.625 2.95
2.5 0.625 2.95
2.625 0.625 2.95
2.75 0.625 2.95
2.875 0.625 2.95
3 0.625 2.95
0 0.75 2.95
0.125 0.75 2.95
0.25 0.75 2.95
0.375 0.75 2.95
0.5 0.75 2.95
0.625 0.75 2.95
0.75 0.75 2.95
0.875 0.75 2.95
1 0.75 2.95
1.125 0.75 2.95
1.25 0.75 2.95
1.375 0.75 2.95
1.5 0.75 2.95
1.625 0.75 2.95
1.75 0.75 2.95
1.875 0.75 2.95
2 0.75 2.95
2.125 0.75 2.95
2.25 0.75 2.95
2.375 0.75 2.95
2.5 0.75 2.95
2.625 0.75 2.95
2.75 0.75 2.95
2.875 0.75 2.95
3 0.75 2.95
0 0.875 2.95
0.125 0.875 2.95
0.25 0.875 2.95
0.375 0.875 2.95
0.5 0.875 2.95
0.625 0.875 2.95
0.75 0.875 2.95
0.875 0.875 2.95
1 0.875 2.95
1.125 0.875 2.95
1.25 0.875 2.95
1.375 0.875 2.95
1.5 0.875 2.95
1.625 0.875 2.95
1.75 0.875 2.95
1.875 0.875 2.95
2 0.875 2.95
2.125 0.875 2.95
2.25 0.875 2.95
2.375 0.875 2.95
2.5 0.875 2.95
2.625 0.875 2.95
2.75 0.875 2.95
2.875 0.875 2.95
3 0.875 2.95
0 1 2.95
0.125 1 2.95
0.25 1 2.95
0.375 1 2.95
0.5 1 2.95
0.625 1 2.95
0.75 1 2.95
0.875 1 2.95
1 1 2.95
1.125 1 2.95
1.25 1 2.95
1.375 1 2.95
1.5 1 2.95
1.625 1 2.95
1.75 1 2.95
1.875 1 2.95
2 1 2.95
2.125 1 2.95
2.25 1 2.95
2.375 1 2.95
2.5 1 2.95
2.625 1 2.95
2.75 1 2.95
2.875 1 2.95
3 1 2.95
0 0 3.075
0.125 0 3.075
0.25 0 3.075
0.375 0 3.075
0.5 0 3.075
0.625 0 3.075
0.75 0 3.075
0.875 0 3.075
1 0 3.075
1.125 0 3.075
1.25 0 3.075
1.375 0 3.075
1.5 0 3.075
1.625 0 3.075
1.75 0 3.075
1.875 0 3.075
2 0 3.075
2.125 0 3.075
2.25 0 3.075
2.375 0 3.075
2.5 0 3.075
2.625 0 3.075
2.75 0 3.075
2.875 0 3.075
3 0 3.075
0 0.125 3.075
0.125 0.125 3.075
0.25 0.125 3.075
0.375 0.125 3.075
0.5 0.125 3.075
0.625 0.125 3.075
0.75 0.125 3.075
0.875 0.125 3.075
1 0.125 3.075
1.125 0.125 3.075
1.25 0.125 3.075
1.375 0.125 3.075
1.5 0.125 3.075
1.625 0.125 3.075
1.75 0.125 3.075
1.875 0.125 3.075
2 0.125 3.075
2.125 0.125 3.075
2.25 0.125 3.075
2.375 0.125 3.075
2.5 0.125 3.075
2.625 0.125 3.075
2.75 0.125 3.075
2.875 0.125 3.075
3 0.125 3.075
0 0.25 3.075
0.125 0.25 3.075
0.25 0.25 3.075
0.375 0.25 3.075
0.5 0.25 3.075
0.625 0.25 3.075
0.75 0.25 3.075
0.875 0.25 3.075
1 0.25 3.075
1.125 0.25 3.075
1.25 0.25 3.075
1.375 0.25 3.075
1.5 0.25 3.075
1.625 0.25 3.075
1.75 0.25 3.075
1.875 0.25 3.075
2 0.25 3.075
2.125 0.25 3.075
2.25 0.25 3.075
2.375 0.25 3.075
2.5 0.25 3.075
2.625 0.25 3.075
2.75 0.25 3.075
2.875 0.25 3.075
3 0.25 3.075
0 0.375 3.075
0.125 0.375 3.075
0.25 0.375 3.075
0.375 0.375 3.075
0.5 0.375 3.075
0.625 0.375 3.075
0.75 0.375 3.075
0.875 0.375 3.075
1 0.375 3.075
1.125 0.375 3.075
1.25 0.375 3.075
1.375 0.375 3.075
1.5 0.375 3.075
1.625 0.375 3.075
1.75 0.375 3.075
1.875 0.375 3.075
2 0.375 3.075
2.125 0.375 3.075
2.25 0.375 3.075
2.375 0.375 3.075
2.5 0.375 3.075
2.625 0.375 3.075
2.75 0.375 3.075
2.875 0.375 3.075
3 0.375 3.075
0 0.5 3.075
0.125 0.5 3.075
0.25 0.5 3.075
0.375 0.5 3.075
0.5 0.5 3.075
0.625 0.5 3.075
0.75 0.5 3.075
0.875 0.5 3.075
1 0.5 3.075
1.125 0.5 3.075
1.25 0.5 3.075
1.375 0.5 3.075
1.5 0.5 3.075
1.625 0.5 3.075
1.75 0.5 3.075
1.875 0.5 3.075
2 0.5 3.075
2.125 0.5 3.075
2.25 0.5 3.075
2.375 0.5 3.075
2.5 0.5 3.075
2.625 0.5 3.075
2.75 0.5 3.075
2.875 0.5 3.075
3 0.5 3.075
0 0.625 3.075
0.125 0.625 3.075
0.25 0.625 3.075
0.375 0.625 3.075
0.5 0.625 3.075
0.625 0.625 3.075
0.75 0.625 3.075
0.875 0.625 3.075
1 0.625 3.075
1.125 0.625 3.075
1.25 0.625 3.075
1.375 0.625 3.075
1.5 0.625 3.075
1.625 0.625 3.075
1.75 0.625 3.075
1.875 0.625 3.075
2 0.625 3.075
2.125 0.625 3.075
2.25 0.625 3.075
2.375 0.625 3.075
2.5 0.625 3.075
2.625 0.625 3.075
2.75 0.625 3.075
2.875 0.625 3.075
3 0.625 3.075
0 0.75 3.075
0.125 0.75 3.075
0.25 0.75 3.075
0.375 0.75 3.075
0.5 0.75 3.075
0.625 0.75 3.075
0.75 0.75 3.075
0.875 0.75 3.075
1 0.75 3.075
1.125 0.75 3.075
1.25 0.75 3.075
1.375 0.75 3.075
1.5 0.75 3.075
1.625 0.75 3.075
1.75 0.75 3.075
1.875 0.75 3.075
2 0.75 3.075
2.125 0.75 3.075
2.25 0.75 3.075
2.375 0.75 3.075
2.5 0.75 3.075
2.625 0.75 3.075
2.75 0.75 3.075
2.875 0.75 3.075
3 0.75 3.075
0 0.875 3.075
0.125 0.875 3.075
0.25 0.875 3.075
0.375 0.875 3.075
0.5 0.875 3.075
0.625 0.875 3.075
0.75 0.875 3.075
0.875 0.875 3.075
1 0.875 3.075
1.125 0.875 3.075
1.25 0.875 3.075
1.375 0.875 3.075
1.5 0.875 3.075
1.625 0.875 3.075
1.75 0.875 3.075
1.875 0.875 3.075
2 0.875 3.075
2.125 0.875 3.075
2.25 0.875 3.075
2.375 0.875 3.075
2.5 0.875 3.075
2.625 0.875 3.075
2.75 0.875 3.075
2.875 0.875 3.075
3 0.875 3.075
0 1 3.075
0.125 1 3.075
0.25 1 3.075
0.375 1 3.075
0.5 1 3.075
0.625 1 3.075
0.75 1 3.075
0.875 1 3.075
1 1 3.075
1.125 1 3.075
1.25 1 3.075
1.375 1 3.075
1.5 1 3.075
1.625 1 3.075
1.75 1 3.075
1.875 1 3.075
2 1 3.075
2.125 1 3.075
2.25 1 3.075
2.375 1 3.075
2.5 1 3.075
2.625 1 3.075
2.75 1 3.075
2.875 1 3.075
3 1 3.075
0 0 3.2
0.125 0 3.2
0.25 0 3.2
0.375 0 3.2
0.5 0 3.2
0.625 0 3.2
0.75 0 3.2
0.875 0 3.2
1 0 3.2
1.125 0 3.2
1.25 0 3.2
1.375 0 3.2
1.5 0 3.2
1.625 0 3.2
1.75 0 3.2
1.875 0 3.2
2 0 3.2
2.125 0 3.2
2.25 0 3.2
2.375 0 3.2
2.5 0 3.2
2.625 0 3.2
2.75 0 3.2
2.875 0 3.2
3 0 3.2
0 0.125 3.2
0.125 0.125 3.2
0.25 0.125 3.2
0.375 0.125 3.2
0.5 0.125 3.2
0.625 0.125 3.2
0.75 0.125 3.2
0.875 0.125 3.2
1 0.125 3.2
1.125 0.125 3.2
1.25 0.125 3.2
1.375 0.125 3.2
1.5 0.125 3.2
1.625 0.125 3.2
1.75 0.125 3.2
1.875 0.125 3.2
2 0.125 3.2
2.125 0.125 3.2
2.25 0.125 3.2
2.375 0.125 3.2
2.5 0.125 3.2
2.625 0.125 3.2
2.75 0.125 3.2
2.875 0.125 3.2
3 0.125 3.2
0 0.25 3.2
0.125 0.25 3.2
0.25 0.25 3.2
0.375 0.25 3.2
0.5 0.25 3.2
0.625 0.25 3.2
0.75 0.25 3.2
0.875 0.25 3.2
1 0.25 3.2
1.125 0.25 3.2
1.25 0.25 3.2
1.375 0.25 3.2
1.5 0.25 3.2
1.625 0.25 3.2
1.75 0.25 3.2
1.875 0.25 3.2
2 0.25 3.2
2.125 0.25 3.2
2.25 0.25 3.2
2.375 0.25 3.2
2.5 0.25 3.2
2.625 0.25 3.2
2.75 0.25 3.2
2.875 0.25 3.2
3 0.25 3.2
0 0.375 3.2
0.125 0.375 3.2
0.25 0.375 3.2
0.375 0.375 3.2
0.5 0.375 3.2
0.625 0.375 3.2
0.75 0.375 3.2
0.875 0.375 3.2
1 0.375 3.2
1.125 0.375 3.2
1.25 0.375 3.2
1.375 0.375 3.2
1.5 0.375 3.2
1.625 0.375 3.2
1.75 0.375 3.2
1.875 0.375 3.2
2 0.375 3.2
2.125 0.375 3.2
2.25 0.375 3.2
2.375 0.375 3.2
2.5 0.375 3.2
2.625 0.375 3.2
2.75 0.375 3.2
2.875 0.375 3.2
3 0.375 3.2
0 0.5 3.2
0.125 0.5 3.2
0.25 0.5 3.2
0.375 0.5 3.2
0.5 0.5 3.2
0.625 0.5 3.2
0.75 0.5 3.2
0.875 0.5 3.2
1 0.5 3.2
1.125 0.5 3.2
1.25 0.5 3.2
1.375 0.5 3.2
1.5 0.5 3.2
1.625 0.5 3.2
1.75 0.5 3.2
1.875 0.5 3.2
2 0.5 3.2
2.125 0.5 3.2
2.25 0.5 3.2
2.375 0.5 3.2
2.5 0.5 3.2
2.625 0.5 3.2
2.75 0.5 3.2
2.875 0.5 3.2
3 0.5 3.2
0 0.625 3.2
0.125 0.625 3.2
0.25 0.625 3.2
0.375 0.625 3.2
0.5 0.625 3.2
0.625 0.625 3.2
0.75 0.625 3.2
0.875 0.625 3.2
1 0.625 3.2
1.125 0.625 3.2
1.25 0.625 3.2
1.375 0.625 3.2
1.5 0.625 3.2
1.625 0.625 3.2
1.75 0.625 3.2
1.875 0.625 3.2
2 0.625 3.2
2.125 0.625 3.2
2.25 0.625 3.2
2.375 0.625 3.2
2.5 0.625 3.2
2.625 0.625 3.2
2.75 0.625 3.2
2.875 0.625 3.2
3 0.625 3.2
0 0.75 3.2
0.125 0.75 3.2
0.25 0.75 3.2
0.375 0.75 3.2
0.5 0.75 3.2
0.625 0.75 3.2
0.75 0.75 3.2
0.875 0.75 3.2
1 0.75 3.2
1.125 0.75 3.2
1.25 0.75 3.2
1.375 0.75 3.2
1.5 0.75 3.2
1.625 0.75 3.2
1.75 0.75 3.2
1.875 0.75 3.2
2 0.75 3.2
2.125 0.75 3.2
2.25 0.75 3.2
2.375 0.75 3.2
2.5 0.75 3.2
2.625 0.75 3.2
2.75 0.75 3.2
2.875 0.75 3.2
3 0.75 3.2
0 0.875 3.2
0.125 0.875 3.2
0.25 0.875 3.2
0.375 0.875 3.2
0.5 0.875 3.2
0.625 0.875 3.2
0.75 0.875 3.2
0.875 0.875 3.2
1 0.875 3.2
1.125 0.875 3.2
1.25 0.875 3.2
1.375 0.875 3.2
1.5 0.875 3.2
1.625 0.875 3.2
1.75 0.875 3.2
1.875 0.875 3.2
2 0.875 3.2
2.125 0.875 3.2
2.25 0.875 3.2
2.375 0.875 3.2
2.5 0.875 3.2
2.625 0.875 3.2
2.75 0.875 3.2
2.875 0.875 3.2
3 0.875 3.2
0 1 3.2
0.125 1 3.2
0.25 1 3.2
0.375 1 3.2
0.5 1 3.2
0.625 1 3.2
0.75 1 3.2
0.875 1 3.2
1 1 3.2
1.125 1 3.2
1.25 1 3.2
1.375 1 3.2
1.5 1 3.2
1.625 1 3.2
1.75 1 3.2
1.875 1 3.2
2 1 3.2
2.125 1 3.2
2.25 1 3.2
2.375 1 3.2
2.5 1 3.2
2.625 1 3.2
2.75 1 3.2
2.875 1 3.2
3 1 3.2
0.0625 0 2.2
0.125 0 2.2625
0.0625 0 2.325
0 0 2.2625
0 0.0625 2.2
0.125 0.0625 2.2
0.125 0.0625 2.325
0 0.0625 2.325
0.0625 0.125 2.2
0.125 0.125 2.2625
0.0625 0.125 2.325
0 0.125 2.2625
0.0625 0 2.2625
0.0625 0.0625 2.2
0.125 0.0625 2.2625
0.0625 0.0625 2.325
0 0.0625 2.2625
0.0625 0.125 2.2625
0.0625 0.0625 2.2625
0.1875 0 2.2
0.25 0 2.2625
0.1875 0 2.325
0.25 0.0625 2.2
0.25 0.0625 2.325
0.1875 0.125 2.2
0.25 0.125 2.2625
0.1875 0.125 2.325
0.1875 0 2.2625
0.1875 0.0625 2.2
0.25 0.0625 2.2625
0.1875 0.0625 2.325
0.1875 0.125 2.2625
0.1875 0.0625 2.2625
0.3125 0 2.2
0.375 0 2.2625
0.3125 0 2.325
0.375 0.0625 2.2
0.375 0.0625 2.325
0.3125 0.125 2.2
0.375 0.125 2.2625
0.3125 0.125 2.325
0.3125 0 2.2625
0.3125 0.0625 2.2
0.375 0.0625 2.2625
0.3125 0.0625 2.325
0.3125 0.125 2.2625
0.3125 0.0625 2.2625
0.4375 0 2.2
0.5 0 2.2625
0.4375 0 2.325
0.5 0.0625 2.2
0.5 0.0625 2.325
0.4375 0.125 2.2
0.5 0.125 2.2625
0.4375 0.125 2.325
0.4375 0 2.2625
0.4375 0.0625 2.2
0.5 0.0625 2.2625
0.4375 0.0625 2.325
0.4375 0.125 2.2625
0.4375 0.0625 2.2625
0.5625 0 2.2
0.625 0 2.2625
0.5625 0 2.325
0.625 0.0625 2.2
0.625 0.0625 2.325
0.5625 0.125 2.2
0.625 0.125 2.2625
0.5625 0.125 2.325
0.5625 0 2.2625
0.5625 0.0625 2.2
0.625 0.0625 2.2625
0.5625 0.0625 2.325
0.5625 0.125 2.2625
0.5625 0.0625 2.2625
0.6875 0 2.2
0.75 0 2.2625
0.6875 0 2.325
0.75 0.0625 2.2
0.75 0.0625 2.325
0.6875 0.125 2.2
0.75 0.125 2.2625
0.6875 0.125 2.325
0.6875 0 2.2625
0.6875 0.0625 2.2
0.75 0.0625 2.2625
0.6875 0.0625 2.325
0.6875 0.125 2.2625
0.6875 0.0625 2.2625
0.8125 0 2.2
0.875 0 2.2625
0.8125 0 2.325
0.875 0.0625 2.2
0.875 0.0625 2.325
0.8125 0.125 2.2
0.875 0.125 2.2625
0.8125 0.125 2.325
0.8125 0 2.2625
0.8125 0.0625 2.2
0.875 0.0625 2.2625
0.8125 0.0625 2.325
0.8125 0.125 2.2625
0.8125 0.0625 2.2625
0.9375 0 2.2
1 0 2.2625
0.9375 0 2.325
1 0.0625 2.2
1 0.0625 2.325
0.9375 0.125 2.2
1 0.125 2.2625
0.9375 0.125 2.325
0.9375 0 2.2625
0.9375 0.0625 2.2
1 0.0625 2.2625
0.9375 0.0625 2.325
0.9375 0.125 2.2625
0.9375 0.0625 2.2625
1.0625 0 2.2
1.125 0 2.2625
1.0625 0 2.325
1.125 0.0625 2.2
1.125 0.0625 2.325
1.0625 0.125 2.2
1.125 0.125 2.2625
1.0625 0.125 2.325
1.0625 0 2.2625
1.0625 0.0625 2.2
1.125 0.0625 2.2625
1.0625 0.0625 2.325
1.0625 0.125 2.2625
1.0625 0.0625 2.2625
1.1875 0 2.2
1.25 0 2.2625
1.1875 0 2.325
1.25 0.0625 2.2
1.25 0.0625 2.325
1.1875 0.125 2.2
1.25 0.125 2.2625
1.1875 0.125 2.325
1.1875 0 2.2625
1.1875 0.0625 2.2
1.25 0.0625 2.2625
1.1875 0.0625 2.325
1.1875 0.125 2.2625
1.1875 0.0625 2.2625
1.3125 0 2.2
1.375 0 2.2625
1.3125 0 2.325
1.375 0.0625 2.2
1.375 0.0625 2.325
1.3125 0.125 2.2
1.375 0.125 2.2625
1.3125 0.125 2.325
1.3125 0 2.2625
1.3125 0.0625 2.2
1.375 0.0625 2.2625
1.3125 0.0625 2.325
1.3125 0.125 2.2625
1.3125 0.0625 2.2625
1.4375 0 2.2
1.5 0 2.2625
1.4375 0 2.325
1.5 0.0625 2.2
1.5 0.0625 2.325
1.4375 0.125 2.2
1.5 0.125 2.2625
1.4375 0.125 2.325
1.4375 0 2.2625
1.4375 0.0625 2.2
1.5 0.0625 2.2625
1.4375 0.0625 2.325
1.4375 0.125 2.2625
1.4375 0.0625 2.2625
1.5625 0 2.2
1.625 0 2.2625
1.5625 0 2.325
1.625 0.0625 2.2
1.625 0.0625 2.325
1.5625 0.125 2.2
1.625 0.125 2.2625
1.5625 0.125 2.325
1.5625 0 2.2625
1.5625 0.0625 2.2
1.625 0.0625 2.2625
1.5625 0.0625 2.325
1.5625 0.125 2.2625
1.5625 0.0625 2.2625
1.6875 0 2.2
1.75 0 2.2625
1.6875 0 2.325
1.75 0.0625 2.2
1.75 0.0625 2.325
1.6875 0.125 2.2
1.75 0.125 2.2625
1.6875 0.125 2.325
1.6875 0 2.2625
1.6875 0.0625 2.2
1.75 0.0625 2.2625
1.6875 0.0625 2.325
1.6875 0.125 2.2625
1.6875 0.0625 2.2625
1.8125 0 2.2
1.875 0 2.2625
1.8125 0 2.325
1.875 0.0625 2.2
1.875 0.0625 2.325
1.8125 0.125 2.2
1.875 0.125 2.2625
1.8125 0.125 2.325
1.8125 0 2.2625
1.8125 0.0625 2.2
1.875 0.0625 2.2625
1.8125 0.0625 2.325
1.8125 0.125 2.2625
1.8125 0.0625 2.2625
1.9375 0 2.2
2 0 2.2625
1.9375 0 2.325
2 0.0625 2.2
2 0.0625 2.325
1.9375 0.125 2.2
2 0.125 2.2625
1.9375 0.125 2.325
1.9375 0 2.2625
1.9375 0.0625 2.2
2 0.0625 2.2625
1.9375 0.0625 2.325
1.9375 0.125 2.2625
1.9375 0.0625 2.2625
2.0625 0 2.2
2.125 0 2.2625
2.0625 0 2.325
2.125 0.0625 2.2
2.125 0.0625 2.325
2.0625 0.125 2.2
2.125 0.125 2.2625
2.0625 0.125 2.325
2.0625 0 2.2625
2.0625 0.0625 2.2
2.125 0.0625 2.2625
2.0625 0.0625 2.325
2.0625 0.125 2.2625
2.0625 0.0625 2.2625
2.1875 0 2.2
2.25 0 2.2625
2.1875 0 2.325
2.25 0.0625 2.2
2.25 0.0625 2.325
2.1875 0.125 2.2
2.25 0.125 2.2625
2.1875 0.125 2.325
2.1875 0 2.2625
2.1875 0.0625 2.2
2.25 0.0625 2.2625
2.1875 0.0625 2.325
2.1875 0.125 2.2625
2.1875 0.0625 2.2625
2.3125 0 2.2
2.375 0 2.2625
2.3125 0 2.325
2.375 0.0625 2.2
2.375 0.0625 2.325
2.3125 0.125 2.2
2.375 0.125 2.2625
2.3125 0.125 2.325
2.3125 0 2.2625
2.3125 0.0625 2.2
2.375 0.0625 2.2625
2.3125 0.0625 2.325
2.3125 0.125 2.2625
2.3125 0.0625 2.2625
2.4375 0 2.2
2.5 0 2.2625
2.4375 0 2.325
2.5 0.0625 2.2
2.5 0.0625 2.325
2.4375 0.125 2.2
2.5 0.125 2.2625
2.4375 0.125 2.325
2.4375 0 2.2625
2.4375 0.0625 2.2
2.5 0.0625 2.2625
2.4375 0.0625 2.325
2.4375 0.125 2.2625
2.4375 0.0625 2.2625
2.5625 0 2.2
2.625 0 2.2625
2.5625 0 2.325
2.625 0.0625 2.2
2.625 0.0625 2.325
2.5625 0.125 2.2
2.625 0.125 2.2625
2.5625 0.125 2.325
2.5625 0 2.2625
2.5625 0.0625 2.2
2.625 0.0625 2.2625
2.5625 0.0625 2.325
2.5625 0.125 2.2625
2.5625 0.0625 2.2625
2.6875 0 2.2
2.75 0 2.2625
2.6875 0 2.325
2.75 0.0625 2.2
2.75 0.0625 2.325
2.6875 0.125 2.2
2.75 0.125 2.2625
2.6875 0.125 2.325
2.6875 0 2.2625
2.6875 0.0625 2.2
2.75 0.0625 2.2625
2.6875 0.0625 2.325
2.6875 0.125 2.2625
2.6875 0.0625 2.2625
2.8125 0 2.2
2.875 0 2.2625
2.8125 0 2.325
2.875 0.0625 2.2
2.875 0.0625 2.325
2.8125 0.125 2.2
2.875 0.125 2.2625
2.8125 0.125 2.325
2.8125 0 2.2625
2.8125 0.0625 2.2
2.875 0.0625 2.2625
2.8125 0.0625 2.325
2.8125 0.125 2.2625
2.8125 0.0625 2.2625
2.9375 0 2.2
3 0 2.2625
2.9375 0 2.325
3 0.0625 2.2
3 0.0625 2.325
2.9375 0.125 2.2
3 0.125 2.2625
2.9375 0.125 2.325
2.9375 0 2.2625
2.9375 0.0625 2.2
3 0.0625 2.2625
2.9375 0.0625 2.325
2.9375 0.125 2.2625
2.9375 0.0625 2.2625
0 0.1875 2.2
0.125 0.1875 2.2
0.125 0.1875 2.325
0 0.1875 2.325
0.0625 0.25 2.2
0.125 0.25 2.2625
0.0625 0.25 2.325
0 0.25 2.2625
0.0625 0.1875 2.2
0.125 0.1875 2.2625
0.0625 0.1875 2.325
0 0.1875 2.2625
0.0625 0.25 2.2625
0.0625 0.1875 2.2625
0.25 0.1875 2.2
0.25 0.1875 2.325
0.1875 0.25 2.2
0.25 0.25 2.2625
0.1875 0.25 2.325
0.1875 0.1875 2.2
0.25 0.1875 2.2625
0.1875 0.1875 2.325
0.1875 0.25 2.2625
0.1875 0.1875 2.2625
0.375 0.1875 2.2
0.375 0.1875 2.325
0.3125 0.25 2.2
0.375 0.25 2.2625
0.3125 0.25 2.325
0.3125 0.1875 2.2
0.375 0.1875 2.2625
0.3125 0.1875 2.325
0.3125 0.25 2.2625
0.3125 0.1875 2.2625
0.5 0.1875 2.2
0.5 0.1875 2.325
0.4375 0.25 2.2
0.5 0.25 2.2625
0.4375 0.25 2.325
0.4375 0.1875 2.2
0.5 0.1875 2.2625
0.4375 0.1875 2.325
0.4375 0.25 2.2625
0.4375 0.1875 2.2625
0.625 0.1875 2.2
0.625 0.1875 2.325
0.5625 0.25 2.2
0.625 0.25 2.2625
0.5625 0.25 2.325
0.5625 0.1875 2.2
0.625 0.1875 2.2625
0.5625 0.1875 2.325
0.5625 0.25 2.2625
0.5625 0.1875 2.2625
0.75 0.1875 2.2
0.75 0.1875 2.325
0.6875 0.25 2.2
0.75 0.25 2.2625
0.6875 0.25 2.325
0.6875 0.1875 2.2
0.75 0.1875 2.2625
0.6875 0.1875 2.325
0.6875 0.25 2.2625
0.6875 0.1875 2.2625
0.875 0.1875 2.2
0.875 0.1875 2.325
0.8125 0.25 2.2
0.875 0.25 2.2625
0.8125 0.25 2.325
0.8125 0.1875 2.2
0.875 0.1875 2.2625
0.8125 0.1875 2.325
0.8125 0.25 2.2625
0.8125 0.1875 2.2625
1 0.1875 2.2
1 0.1875 2.325
0.9375 0.25 2.2
1 0.25 2.2625
0.9375 0.25 2.325
0.9375 0.1875 2.2
1 0.1875 2.2625
0.9375 0.1875 2.325
0.9375 0.25 2.2625
0.9375 0.1875 2.2625
1.125 0.1875 2.2
1.125 0.1875 2.325
1.0625 0.25 2.2
1.125 0.25 2.2625
1.0625 0.25 2.325
1.0625 0.1875 2.2
1.125 0.1875 2.2625
1.0625 0.1875 2.325
1.0625 0.25 2.2625
1.0625 0.1875 2.2625
1.25 0.1875 2.2
1.25 0.1875 2.325
1.1875 0.25 2.2
1.25 0.25 2.2625
1.1875 0.25 2.325
1.1875 0.1875 2.2
1.25 0.1875 2.2625
1.1875 0.1875 2.325
1.1875 0.25 2.2625
1.1875 0.1875 2.2625
1.375 0.1875 2.2
1.375 0.1875 2.325
1.3125 0.25 2.2
1.375 0.25 2.2625
1.3125 0.25 2.325
1.3125 0.1875 2.2
1.375 0.1875 2.2625
1.3125 0.1875 2.325
1.3125 0.25 2.2625
1.3125 0.1875 2.2625
1.5 0.1875 2.2
1.5 0.1875 2.325
1.4375 0.25 2.2
1.5 0.25 2.2625
1.4375 0.25 2.325
1.4375 0.1875 2.2
1.5 0.1875 2.2625
1.4375 0.1875 2.325
1.4375 0.25 2.2625
1.4375 0.1875 2.2625
1.625 0.1875 2.2
1.625 0.1875 2.325
1.5625 0.25 2.2
1.625 0.25 2.2625
1.5625 0.25 2.325
1.5625 0.1875 2.2
1.625 0.1875 2.2625
1.5625 0.1875 2.325
1.5625 0.25 2.2625
1.5625 0.1875 2.2625
1.75 0.1875 2.2
1.75 0.1875 2.325
1.6875 0.25 2.2
1.75 0.25 2.2625
1.6875 0.25 2.325
1.6875 0.1875 2.2
1.75 0.1875 2.2625
1.6875 0.1875 2.325
1.6875 0.25 2.2625
1.6875 0.1875 2.2625
1.875 0.1875 2.2
1.875 0.1875 2.325
1.8125 0.25 2.2
1.875 0.25 2.2625
1.8125 0.25 2.325
1.8125 0.1875 2.2
1.875 0.1875 2.2625
1.8125 0.1875 2.325
1.8125 0.25 2.2625
1.8125 0.1875 2.2625
2 0.1875 2.2
2 0.1875 2.325
1.9375 0.25 2.2
2 0.25 2.2625
1.9375 0.25 2.325
1.9375 0.1875 2.2
2 0.1875 2.2625
1.9375 0.1875 2.325
1.9375 0.25 2.2625
1.9375 0.1875 2.2625
2.125 0.1875 2.2
2.125 0.1875 2.325
2.0625 0.25 2.2
2.125 0.25 2.2625
2.0625 0.25 2.325
2.0625 0.1875 2.2
2.125 0.1875 2.2625
2.0625 0.1875 2.325
2.0625 0.25 2.2625
2.0625 0.1875 2.2625
2.25 0.1875 2.2
2.25 0.1875 2.325
2.1875 0.25 2.2
2.25 0.25 2.2625
2.1875 0.25 2.325
2.1875 0.1875 2.2
2.25 0.1875 2.2625
2.1875 0.1875 2.325
2.1875 0.25 2.2625
2.1875 0.1875 2.2625
2.375 0.1875 2.2
2.375 0.1875 2.325
2.3125 0.25 2.2
2.375 0.25 2.2625
2.3125 0.25 2.325
2.3125 0.1875 2.2
2.375 0.1875 2.2625
2.3125 0.1875 2.325
2.3125 0.25 2.2625
2.3125 0.1875 2.2625
2.5 0.1875 2.2
2.5 0.1875 2.325
2.4375 0.25 2.2
2.5 0.25 2.2625
2.4375 0.25 2.325
2.4375 0.1875 2.2
2.5 0.1875 2.2625
2.4375 0.1875 2.325
2.4375 0.25 2.2625
2.4375 0.1875 2.2625
2.625 0.1875 2.2
2.625 0.1875 2.325
2.5625 0.25 2.2
2.625 0.25 2.2625
2.5625 0.25 2.325
2.5625 0.1875 2.2
2.625 0.1875 2.2625
2.5625 0.1875 2.325
2.5625 0.25 2.2625
2.5625 0.1875 2.2625
2.75 0.1875 2.2
2.75 0.1875 2.325
2.6875 0.25 2.2
2.75 0.25 2.2625
2.6875 0.25 2.325
2.6875 0.1875 2.2
2.75 0.1875 2.2625
2.6875 0.1875 2.325
2.6875 0.25 2.2625
2.6875 0.1875 2.2625
2.875 0.1875 2.2
2.875 0.1875 2.325
2.8125 0.25 2.2
2.875 0.25 2.2625
2.8125 0.25 2.325
2.8125 0.1875 2.2
2.875 0.1875 2.2625
2.8125 0.1875 2.325
2.8125 0.25 2.2625
2.8125 0.1875 2.2625
3 0.1875 2.2
3 0.1875 2.325
2.9375 0.25 2.2
3 0.25 2.2625
2.9375 0.25 2.325
2.9375 0.1875 2.2
3 0.1875 2.2625
2.9375 0.1875 2.325
2.9375 0.25 2.2625
2.9375 0.1875 2.2625
0 0.3125 2.2
0.125 0.3125 2.2
0.125 0.3125 2.325
0 0.3125 2.325
0.0625 0.375 2.2
0.125 0.375 2.2625
0.0625 0.375 2.325
0 0.375 2.2625
0.0625 0.3125 2.2
0.125 0.3125 2.2625
0.0625 0.3125 2.325
0 0.3125 2.2625
0.0625 0.375 2.2625
0.0625 0.3125 2.2625
0.25 0.3125 2.2
0.25 0.3125 2.325
0.1875 0.375 2.2
0.25 0.375 2.2625
0.1875 0.375 2.325
0.1875 0.3125 2.2
0.25 0.3125 2.2625
0.1875 0.3125 2.325
0.1875 0.375 2.2625
0.1875 0.3125 2.2625
0.375 0.3125 2.2
0.375 0.3125 2.325
0.3125 0.375 2.2
0.375 0.375 2.2625
0.3125 0.375 2.325
0.3125 0.3125 2.2
0.375 0.3125 2.2625
0.3125 0.3125 2.325
0.3125 0.375 2.2625
0.3125 0.3125 2.2625
0.5 0.3125 2.2
0.5 0.3125 2.325
0.4375 0.375 2.2
0.5 0.375 2.2625
0.4375 0.375 2.325
0.4375 0.3125 2.2
0.5 0.3125 2.2625
0.4375 0.3125 2.325
0.4375 0.375 2.2625
0.4375 0.3125 2.2625
0.625 0.3125 2.2
0.625 0.3125 2.325
0.5625 0.375 2.2
0.625 0.375 2.2625
0.5625 0.375 2.325
0.5625 0.3125 2.2
0.625 0.3125 2.2625
0.5625 0.3125 2.325
0.5625 0.375 2.2625
0.5625 0.3125 2.2625
0.75 0.3125 2.2
0.75 0.3125 2.325
0.6875 0.375 2.2
0.75 0.375 2.2625
0.6875 0.375 2.325
0.6875 0.3125 2.2
0.75 0.3125 2.2625
0.6875 0.3125 2.325
0.6875 0.375 2.2625
0.6875 0.3125 2.2625
0.875 0.3125 2.2
0.875 0.3125 2.325
0.8125 0.375 2.2
0.875 0.375 2.2625
0.8125 0.375 2.325
0.8125 0.3125 2.2
0.875 0.3125 2.2625
0.8125 0.3125 2.325
0.8125 0.375 2.2625
0.8125 0.3125 2.2625
1 0.3125 2.2
1 0.3125 2.325
0.9375 0.375 2.2
1 0.375 2.2625
0.9375 0.375 2.325
0.9375 0.3125 2.2
1 0.3125 2.2625
0.9375 0.3125 2.325
0.9375 0.375 2.2625
0.9375 0.3125 2.2625
1.125 0.3125 2.2
1.125 0.3125 2.325
1.0625 0.375 2.2
1.125 0.375 2.2625
1.0625 0.375 2.325
1.0625 0.3125 2.2
1.125 0.3125 2.2625
1.0625 0.3125 2.325
1.0625 0.375 2.2625
1.0625 0.3125 2.2625
1.25 0.3125 2.2
1.25 0.3125 2.325
1.1875 0.375 2.2
1.25 0.375 2.2625
1.1875 0.375 2.325
1.1875 0.3125 2.2
1.25 0.3125 2.2625
1.1875 0.3125 2.325
1.1875 0.375 2.2625
1.1875 0.3125 2.2625
1.375 0.3125 2.2
1.375 0.3125 2.325
1.3125 0.375 2.2
1.375 0.375 2.2625
1.3125 0.375 2.325
1.3125 0.3125 2.2
1.375 0.3125 2.2625
1.3125 0.3125 2.325
1.3125 0.375 2.2625
1.3125 0.3125 2.2625
1.5 0.3125 2.2
1.5 0.3125 2.325
1.4375 0.375 2.2
1.5 0.375 2.2625
1.4375 0.375 2.325
1.4375 0.3125 2.2
1.5 0.3125 2.2625
1.4375 0.3125 2.325
1.4375 0.375 2.2625
1.4375 0.3125 2.2625
1.625 0.3125 2.2
1.625 0.3125 2.325
1.5625 0.375 2.2
1.625 0.375 2.2625
1.5625 0.375 2.325
1.5625 0.3125 2.2
1.625 0.3125 2.2625
1.5625 0.3125 2.325
1.5625 0.375 2.2625
1.5625 0.3125 2.2625
1.75 0.3125 2.2
1.75 0.3125 2.325
1.6875 0.375 2.2
1.75 0.375 2.2625
1.6875 0.375 2.325
1.6875 0.3125 2.2
1.75 0.3125 2.2625
1.6875 0.3125 2.325
1.6875 0.375 2.2625
1.6875 0.3125 2.2625
1.875 0.3125 2.2
1.875 0.3125 2.325
1.8125 0.375 2.2
1.875 0.375 2.2625
1.8125 0.375 2.325
1.8125 0.3125 2.2
1.875 0.3125 2.2625
1.8125 0.3125 2.325
1.8125 0.375 2.2625
1.8125 0.3125 2.2625
2 0.3125 2.2
2 0.3125 2.325
1.9375 0.375 2.2
2 0.375 2.2625
1.9375 0.375 2.325
1.9375 0.3125 2.2
2 0.3125 2.2625
1.9375 0.3125 2.325
1.9375 0.375 2.2625
1.9375 0.3125 2.2625
2.125 0.3125 2.2
2.125 0.3125 2.325
2.0625 0.375 2.2
2.125 0.375 2.2625
2.0625 0.375 2.325
2.0625 0.3125 2.2
2.125 0.3125 2.2625
2.0625 0.3125 2.325
2.0625 0.375 2.2625
2.0625 0.3125 2.2625
2.25 0.3125 2.2
2.25 0.3125 2.325
2.1875 0.375 2.2
2.25 0.375 2.2625
2.1875 0.375 2.325
2.1875 0.3125 2.2
2.25 0.3125 2.2625
2.1875 0.3125 2.325
2.1875 0.375 2.2625
2.1875 0.3125 2.2625
2.375 0.3125 2.2
2.375 0.3125 2.325
2.3125 0.375 2.2
2.375 0.375 2.2625
2.3125 0.375 2.325
2.3125 0.3125 2.2
2.375 0.3125 2.2625
2.3125 0.3125 2.325
2.3125 0.375 2.2625
2.3125 0.3125 2.2625
2.5 0.3125 2.2
2.5 0.3125 2.325
2.4375 0.375 2.2
2.5 0.375 2.2625
2.4375 0.375 2.325
2.4375 0.3125 2.2
2.5 0.3125 2.2625
2.4375 0.3125 2.325
2.4375 0.375 2.2625
2.4375 0.3125 2.2625
2.625 0.3125 2.2
2.625 0.3125 2.325
2.5625 0.375 2.2
2.625 0.375 2.2625
2.5625 0.375 2.325
2.5625 0.3125 2.2
2.625 0.3125 2.2625
2.5625 0.3125 2.325
2.5625 0.375 2.2625
2.5625 0.3125 2.2625
2.75 0.3125 2.2
2.75 0.3125 2.325
2.6875 0.375 2.2
2.75 0.375 2.2625
2.6875 0.375 2.325
2.6875 0.3125 2.2
2.75 0.3125 2.2625
2.6875 0.3125 2.325
2.6875 0.375 2.2625
2.6875 0.3125 2.2625
2.875 0.3125 2.2
2.875 0.3125 2.325
2.8125 0.375 2.2
2.875 0.375 2.2625
2.8125 0.375 2.325
2.8125 0.3125 2.2
2.875 0.3125 2.2625
2.8125 0.3125 2.325
2.8125 0.375 2.2625
2.8125 0.3125 2.2625
3 0.3125 2.2
3 0.3125 2.325
2.9375 0.375 2.2
3 0.375 2.2625
2.9375 0.375 2.325
2.9375 0.3125 2.2
3 0.3125 2.2625
2.9375 0.3125 2.325
2.9375 0.375 2.2625
2.9375 0.3125 2.2625
0 0.4375 2.2
0.125 0.4375 2.2
0.125 0.4375 2.325
0 0.4375 2.325
0.0625 0.5 2.2
0.125 0.5 2.2625
0.0625 0.5 2.325
0 0.5 2.2625
0.0625 0.4375 2.2
0.125 0.4375 2.2625
0.0625 0.4375 2.325
0 0.4375 2.2625
0.0625 0.5 2.2625
0.0625 0.4375 2.2625
0.25 0.4375 2.2
0.25 0.4375 2.325
0.1875 0.5 2.2
0.25 0.5 2.2625
0.1875 0.5 2.325
0.1875 0.4375 2.2
0.25 0.4375 2.2625
0.1875 0.4375 2.325
0.1875 0.5 2.2625
0.1875 0.4375 2.2625
0.375 0.4375 2.2
0.375 0.4375 2.325
0.3125 0.5 2.2
0.375 0.5 2.2625
0.3125 0.5 2.325
0.3125 0.4375 2.2
0.375 0.4375 2.2625
0.3125 0.4375 2.325
0.3125 0.5 2.2625
0.3125 0.4375 2.2625
0.5 0.4375 2.2
0.5 0.4375 2.325
0.4375 0.5 2.2
0.5 0.5 2.2625
0.4375 0.5 2.325
0.4375 0.4375 2.2
0.5 0.4375 2.2625
0.4375 0.4375 2.325
0.4375 0.5 2.2625
0.4375 0.4375 2.2625
0.625 0.4375 2.2
0.625 0.4375 2.325
0.5625 0.5 2.2
0.625 0.5 2.2625
0.5625 0.5 2.325
0.5625 0.4375 2.2
0.625 0.4375 2.2625
0.5625 0.4375 2.325
0.5625 0.5 2.2625
0.5625 0.4375 2.2625
0.75 0.4375 2.2
0.75 0.4375 2.325
0.6875 0.5 2.2
0.75 0.5 2.2625
0.6875 0.5 2.325
0.6875 0.4375 2.2
0.75 0.4375 2.2625
0.6875 0.4375 2.325
0.6875 0.5 2.2625
0.6875 0.4375 2.2625
0.875 0.4375 2.2
0.875 0.4375 2.325
0.8125 0.5 2.2
0.875 0.5 2.2625
0.8125 0.5 2.325
0.8125 0.4375 2.2
0.875 0.4375 2.2625
0.8125 0.4375 2.325
0.8125 0.5 2.2625
0.8125 0.4375 2.2625
1 0.4375 2.2
1 0.4375 2.325
0.9375 0.5 2.2
1 0.5 2.2625
0.9375 0.5 2.325
0.9375 0.4375 2.2
1 0.4375 2.2625
0.9375 0.4375 2.325
0.9375 0.5 2.2625
0.9375 0.4375 2.2625
1.125 0.4375 2.2
1.125 0.4375 2.325
1.0625 0.5 2.2
1.125 0.5 2.2625
1.0625 0.5 2.325
1.0625 0.4375 2.2
1.125 0.4375 2.2625
1.0625 0.4375 2.325
1.0625 0.5 2.2625
1.0625 0.4375 2.2625
1.25 0.4375 2.2
1.25 0.4375 2.325
1.1875 0.5 2.2
1.25 0.5 2.2625
1.1875 0.5 2.325
1.1875 0.4375 2.2
1.25 0.4375 2.2625
1.1875 0.4375 2.325
1.1875 0.5 2.2625
1.1875 0.4375 2.2625
1.375 0.4375 2.2
1.375 0.4375 2.325
1.3125 0.5 2.2
1.375 0.5 2.2625
1.3125 0.5 2.325
1.3125 0.4375 2.2
1.375 0.4375 2.2625
1.3125 0.4375 2.325
1.3125 0.5 2.2625
1.3125 0.4375 2.2625
1.5 0.4375 2.2
1.5 0.4375 2.325
1.4375 0.5 2.2
1.5 0.5 2.2625
1.4375 0.5 2.325
1.4375 0.4375 2.2
1.5 0.4375 2.2625
1.4375 0.4375 2.325
1.4375 0.5 2.2625
1.4375 0.4375 2.2625
1.625 0.4375 2.2
1.625 0.4375 2.325
1.5625 0.5 2.2
1.625 0.5 2.2625
1.5625 0.5 2.325
1.5625 0.4375 2.2
1.625 0.4375 2.2625
1.5625 0.4375 2.325
1.5625 0.5 2.2625
1.5625 0.4375 2.2625
1.75 0.4375 2.2
1.75 0.4375 2.325
1.6875 0.5 2.2
1.75 0.5 2.2625
1.6875 0.5 2.325
1.6875 0.4375 2.2
1.75 0.4375 2.2625
1.6875 0.4375 2.325
1.6875 0.5 2.2625
1.6875 0.4375 2.2625
1.875 0.4375 2.2
1.875 0.4375 2.325
1.8125 0.5 2.2
1.875 0.5 2.2625
1.8125 0.5 2.325
1.8125 0.4375 2.2
1.875 0.4375 2.2625
1.8125 0.4375 2.325
1.8125 0.5 2.2625
1.8125 0.4375 2.2625
2 0.4375 2.2
2 0.4375 2.325
1.9375 0.5 2.2
2 0.5 2.2625
1.9375 0.5 2.325
1.9375 0.4375 2.2
2 0.4375 2.2625
1.9375 0.4375 2.325
1.9375 0.5 2.2625
1.9375 0.4375 2.2625
2.125 0.4375 2.2
2.125 0.4375 2.325
2.0625 0.5 2.2
2.125 0.5 2.2625
2.0625 0.5 2.325
2.0625 0.4375 2.2
2.125 0.4375 2.2625
2.0625 0.4375 2.325
2.0625 0.5 2.2625
2.0625 0.4375 2.2625
2.25 0.4375 2.2
2.25 0.4375 2.325
2.1875 0.5 2.2
2.25 0.5 2.2625
2.1875 0.5 2.325
2.1875 0.4375 2.2
2.25 0.4375 2.2625
2.1875 0.4375 2.325
2.1875 0.5 2.2625
2.1875 0.4375 2.2625
2.375 0.4375 2.2
2.375 0.4375 2.325
2.3125 0.5 2.2
2.375 0.5 2.2625
2.3125 0.5 2.325
2.3125 0.4375 2.2
2.375 0.4375 2.2625
2.3125 0.4375 2.325
2.3125 0.5 2.2625
2.3125 0.4375 2.2625
2.5 0.4375 2.2
2.5 0.4375 2.325
2.4375 0.5 2.2
2.5 0.5 2.2625
2.4375 0.5 2.325
2.4375 0.4375 2.2
2.5 0.4375 2.2625
2.4375 0.4375 2.325
2.4375 0.5 2.2625
2.4375 0.4375 2.2625
2.625 0.4375 2.2
2.625 0.4375 2.325
2.5625 0.5 2.2
2.625 0.5 2.2625
2.5625 0.5 2.325
2.5625 0.4375 2.2
2.625 0.4375 2.2625
2.5625 0.4375 2.325
2.5625 0.5 2.2625
2.5625 0.4375 2.2625
2.75 0.4375 2.2
2.75 0.4375 2.325
2.6875 0.5 2.2
2.75 0.5 2.2625
2.6875 0.5 2.325
2.6875 0.4375 2.2
2.75 0.4375 2.2625
2.6875 0.4375 2.325
2.6875 0.5 2.2625
2.6875 0.4375 2.2625
2.875 0.4375 2.2
2.875 0.4375 2.325
2.8125 0.5 2.2
2.875 0.5 2.2625
2.8125 0.5 2.325
2.8125 0.4375 2.2
2.875 0.4375 2.2625
2.8125 0.4375 2.325
2.8125 0.5 2.2625
2.8125 0.4375 2.2625
3 0.4375 2.2
3 0.4375 2.325
2.9375 0.5 2.2
3 0.5 2.2625
2.9375 0.5 2.325
2.9375 0.4375 2.2
3 0.4375 2.2625
2.9375 0.4375 2.325
2.9375 0.5 2.2625
2.9375 0.4375 2.2625
0 0.5625 2.2
0.125 0.5625 2.2
0.125 0.5625 2.325
0 0.5625 2.325
0.0625 0.625 2.2
0.125 0.625 2.2625
0.0625 0.625 2.325
0 0.625 2.2625
0.0625 0.5625 2.2
0.125 0.5625 2.2625
0.0625 0.5625 2.325
0 0.5625 2.2625
0.0625 0.625 2.2625
0.0625 0.5625 2.2625
0.25 0.5625 2.2
0.25 0.5625 2.325
0.1875 0.625 2.2
0.25 0.625 2.2625
0.1875 0.625 2.325
0.1875 0.5625 2.2
0.25 0.5625 2.2625
0.1875 0.5625 2.325
0.1875 0.625 2.2625
0.1875 0.5625 2.2625
0.375 0.5625 2.2
0.375 0.5625 2.325
0.3125 0.625 2.2
0.375 0.625 2.2625
0.3125 0.625 2.325
0.3125 0.5625 2.2
0.375 0.5625 2.2625
0.3125 0.5625 2.325
0.3125 0.625 2.2625
0.3125 0.5625 2.2625
0.5 0.5625 2.2
0.5 0.5625 2.325
0.4375 0.625 2.2
0.5 0.625 2.2625
0.4375 0.625 2.325
0.4375 0.5625 2.2
0.5 0.5625 2.2625
0.4375 0.5625 2.325
0.4375 0.625 2.2625
0.4375 0.5625 2.2625
0.625 0.5625 2.2
0.625 0.5625 2.325
0.5625 0.625 2.2
0.625 0.625 2.2625
0.5625 0.625 2.325
0.5625 0.5625 2.2
0.625 0.5625 2.2625
0.5625 0.5625 2.325
0.5625 0.625 2.2625
0.5625 0.5625 2.2625
0.75 0.5625 2.2
0.75 0.5625 2.325
0.6875 0.625 2.2
0.75 0.625 2.2625
0.6875 0.625 2.325
0.6875 0.5625 2.2
0.75 0.5625 2.2625
0.6875 0.5625 2.325
0.6875 0.625 2.2625
0.6875 0.5625 2.2625
0.875 0.5625 2.2
0.875 0.5625 2.325
0.8125 0.625 2.2
0.875 0.625 2.2625
0.8125 0.625 2.325
0.8125 0.5625 2.2
0.875 0.5625 2.2625
0.8125 0.5625 2.325
0.8125 0.625 2.2625
0.8125 0.5625 2.2625
1 0.5625 2.2
1 0.5625 2.325
0.9375 0.625 2.2
1 0.625 2.2625
0.9375 0.625 2.325
0.9375 0.5625 2.2
1 0.5625 2.2625
0.9375 0.5625 2.325
0.9375 0.625 2.2625
0.9375 0.5625 2.2625
1.125 0.5625 2.2
1.125 0.5625 2.325
1.0625 0.625 2.2
1.125 0.625 2.2625
1.0625 0.625 2.325
1.0625 0.5625 2.2
1.125 0.5625 2.2625
1.0625 0.5625 2.325
1.0625 0.625 2.2625
1.0625 0.5625 2.2625
1.25 0.5625 2.2
1.25 0.5625 2.325
1.1875 0.625 2.2
1.25 0.625 2.2625
1.1875 0.625 2.325
1.1875 0.5625 2.2
1.25 0.5625 2.2625
1.1875 0.5625 2.325
1.1875 0.625 2.2625
1.1875 0.5625 2.2625
1.375 0.5625 2.2
1.375 0.5625 2.325
1.3125 0.625 2.2
1.375 0.625 2.2625
1.3125 0.625 2.325
1.3125 0.5625 2.2
1.375 0.5625 2.2625
1.3125 0.5625 2.325
1.3125 0.625 2.2625
1.3125 0.5625 2.2625
1.5 0.5625 2.2
1.5 0.5625 2.325
1.4375 0.625 2.2
1.5 0.625 2.2625
1.4375 0.625 2.325
1.4375 0.5625 2.2
1.5 0.5625 2.2625
1.4375 0.5625 2.325
1.4375 0.625 2.2625
1.4375 0.5625 2.2625
1.625 0.5625 2.2
1.625 0.5625 2.325
1.5625 0.625 2.2
1.625 0.625 2.2625
1.5625 0.625 2.325
1.5625 0.5625 2.2
1.625 0.5625 2.2625
1.5625 0.5625 2.325
1.5625 0.625 2.2625
1.5625 0.5625 2.2625
1.75 0.5625 2.2
1.75 0.5625 2.325
1.6875 0.625 2.2
1.75 0.625 2.2625
1.6875 0.625 2.325
1.6875 0.5625 2.2
1.75 0.5625 2.2625
1.6875 0.5625 2.325
1.6875 0.625 2.2625
1.6875 0.5625 2.2625
1.875 0.5625 2.2
1.875 0.5625 2.325
1.8125 0.625 2.2
1.875 0.625 2.2625
1.8125 0.625 2.325
1.8125 0.5625 2.2
1.875 0.5625 2.2625
1.8125 0.5625 2.325
1.8125 0.625 2.2625
1.8125 0.5625 2.2625
2 0.5625 2.2
2 0.5625 2.325
1.9375 0.625 2.2
2 0.625 2.2625
1.9375 0.625 2.325
1.9375 0.5625 2.2
2 0.5625 2.2625
1.9375 0.5625 2.325
1.9375 0.625 2.2625
1.9375 0.5625 2.2625
2.125 0.5625 2.2
2.125 0.5625 2.325
2.0625 0.625 2.2
2.125 0.625 2.2625
2.0625 0.625 2.325
2.0625 0.5625 2.2
2.125 0.5625 2.2625
2.0625 0.5625 2.325
2.0625 0.625 2.2625
2.0625 0.5625 2.2625
2.25 0.5625 2.2
2.25 0.5625 2.325
2.1875 0.625 2.2
2.25 0.625 2.2625
2.1875 0.625 2.325
2.1875 0.5625 2.2
2.25 0.5625 2.2625
2.1875 0.5625 2.325
2.1875 0.625 2.2625
2.1875 0.5625 2.2625
2.375 0.5625 2.2
2.375 0.5625 2.325
2.3125 0.625 2.2
2.375 0.625 2.2625
2.3125 0.625 2.325
2.3125 0.5625 2.2
2.375 0.5625 2.2625
2.3125 0.5625 2.325
2.3125 0.625 2.2625
2.3125 0.5625 2.2625
2.5 0.5625 2.2
2.5 0.5625 2.325
2.4375 0.625 2.2
2.5 0.625 2.2625
2.4375 0.625 2.325
2.4375 0.5625 2.2
2.5 0.5625 2.2625
2.4375 0.5625 2.325
2.4375 0.625 2.2625
2.4375 0.5625 2.2625
2.625 0.5625 2.2
2.625 0.5625 2.325
2.5625 0.625 2.2
2.625 0.625 2.2625
2.5625 0.625 2.325
2.5625 0.5625 2.2
2.625 0.5625 2.2625
2.5625 0.5625 2.325
2.5625 0.625 2.2625
2.5625 0.5625 2.2625
2.75 0.5625 2.2
2.75 0.5625 2.325
2.6875 0.625 2.2
2.75 0.625 2.2625
2.6875 0.625 2.325
2.6875 0.5625 2.2
2.75 0.5625 2.2625
2.6875 0.5625 2.325
2.6875 0.625 2.2625
2.6875 0.5625 2.2625
2.875 0.5625 2.2
2.875 0.5625 2.325
2.8125 0.625 2.2
2.875 0.625 2.2625
2.8125 0.625 2.325
2.8125 0.5625 2.2
2.875 0.5625 2.2625
2.8125 0.5625 2.325
2.8125 0.625 2.2625
2.8125 0.5625 2.2625
3 0.5625 2.2
3 0.5625 2.325
2.9375 0.625 2.2
3 0.625 2.2625
2.9375 0.625 2.325
2.9375 0.5625 2.2
3 0.5625 2.2625
2.9375 0.5625 2.325
2.9375 0.625 2.2625
2.9375 0.5625 2.2625
0 0.6875 2.2
0.125 0.6875 2.2
0.125 0.6875 2.325
0 0.6875 2.325
0.0625 0.75 2.2
0.125 0.75 2.2625
0.0625 0.75 2.325
0 0.75 2.2625
0.0625 0.6875 2.2
0.125 0.6875 2.2625
0.0625 0.6875 2.325
0 0.6875 2.2625
0.0625 0.75 2.2625
0.0625 0.6875 2.2625
0.25 0.6875 2.2
0.25 0.6875 2.325
0.1875 0.75 2.2
0.25 0.75 2.2625
0.1875 0.75 2.325
0.1875 0.6875 2.2
0.25 0.6875 2.2625
0.1875 0.6875 2.325
0.1875 0.75 2.2625
0.1875 0.6875 2.2625
0.375 0.6875 2.2
0.375 0.6875 2.325
0.3125 0.75 2.2
0.375 0.75 2.2625
0.3125 0.75 2.325
0.3125 0.6875 2.2
0.375 0.6875 2.2625
0.3125 0.6875 2.325
0.3125 0.75 2.2625
0.3125 0.6875 2.2625
0.5 0.6875 2.2
0.5 0.6875 2.325
0.4375 0.75 2.2
0.5 0.75 2.2625
0.4375 0.75 2.325
0.4375 0.6875 2.2
0.5 0.6875 2.2625
0.4375 0.6875 2.325
0.4375 0.75 2.2625
0.4375 0.6875 2.2625
0.625 0.6875 2.2
0.625 0.6875 2.325
0.5625 0.75 2.2
0.625 0.75 2.2625
0.5625 0.75 2.325
0.5625 0.6875 2.2
0.625 0.6875 2.2625
0.5625 0.6875 2.325
0.5625 0.75 2.2625
0.5625 0.6875 2.2625
0.75 0.6875 2.2
0.75 0.6875 2.325
0.6875 0.75 2.2
0.75 0.75 2.2625
0.6875 0.75 2.325
0.6875 0.6875 2.2
0.75 0.6875 2.2625
0.6875 0.6875 2.325
0.6875 0.75 2.2625
0.6875 0.6875 2.2625
0.875 0.6875 2.2
0.875 0.6875 2.325
0.8125 0.75 2.2
0.875 0.75 2.2625
0.8125 0.75 2.325
0.8125 0.6875 2.2
0.875 0.6875 2.2625
0.8125 0.6875 2.325
0.8125 0.75 2.2625
0.8125 0.6875 2.2625
1 0.6875 2.2
1 0.6875 2.325
0.9375 0.75 2.2
1 0.75 2.2625
0.9375 0.75 2.325
0.9375 0.6875 2.2
1 0.6875 2.2625
0.9375 0.6875 2.325
0.9375 0.75 2.2625
0.9375 0.6875 2.2625
1.125 0.6875 2.2
1.125 0.6875 2.325
1.0625 0.75 2.2
1.125 0.75 2.2625
1.0625 0.75 2.325
1.0625 0.6875 2.2
1.125 0.6875 2.2625
1.0625 0.6875 2.325
1.0625 0.75 2.2625
1.0625 0.6875 2.2625
1.25 0.6875 2.2
1.25 0.6875 2.325
1.1875 0.75 2.2
1.25 0.75 2.2625
1.1875 0.75 2.325
1.1875 0.6875 2.2
1.25 0.6875 2.2625
1.1875 0.6875 2.325
1.1875 0.75 2.2625
1.1875 0.6875 2.2625
1.375 0.6875 2.2
1.375 0.6875 2.325
1.3125 0.75 2.2
1.375 0.75 2.2625
1.3125 0.75 2.325
1.3125 0.6875 2.2
1.375 0.6875 2.2625
1.3125 0.6875 2.325
1.3125 0.75 2.2625
1.3125 0.6875 2.2625
1.5 0.6875 2.2
1.5 0.6875 2.325
1.4375 0.75 2.2
1.5 0.75 2.2625
1.4375 0.75 2.325
1.4375 0.6875 2.2
1.5 0.6875 2.2625
1.4375 0.6875 2.325
1.4375 0.75 2.2625
1.4375 0.6875 2.2625
1.625 0.6875 2.2
1.625 0.6875 2.325
1.5625 0.75 2.2
1.625 0.75 2.2625
1.5625 0.75 2.325
1.5625 0.6875 2.2
1.625 0.6875 2.2625
1.5625 0.6875 2.325
1.5625 0.75 2.2625
1.5625 0.6875 2.2625
1.75 0.6875 2.2
1.75 0.6875 2.325
1.6875 0.75 2.2
1.75 0.75 2.2625
1.6875 0.75 2.325
1.6875 0.6875 2.2
1.75 0.6875 2.2625
1.6875 0.6875 2.325
1.6875 0.75 2.2625
1.6875 0.6875 2.2625
1.875 0.6875 2.2
1.875 0.6875 2.325
1.8125 0.75 2.2
1.875 0.75 2.2625
1.8125 0.75 2.325
1.8125 0.6875 2.2
1.875 0.6875 2.2625
1.8125 0.6875 2.325
1.8125 0.75 2.2625
1.8125 0.6875 2.2625
2 0.6875 2.2
2 0.6875 2.325
1.9375 0.75 2.2
2 0.75 2.2625
1.9375 0.75 2.325
1.9375 0.6875 2.2
2 0.6875 2.2625
1.9375 0.6875 2.325
1.9375 0.75 2.2625
1.9375 0.6875 2.2625
2.125 0.6875 2.2
2.125 0.6875 2.325
2.0625 0.75 2.2
2.125 0.75 2.2625
2.0625 0.75 2.325
2.0625 0.6875 2.2
2.125 0.6875 2.2625
2.0625 0.6875 2.325
2.0625 0.75 2.2625
2.0625 0.6875 2.2625
2.25 0.6875 2.2
2.25 0.6875 2.325
2.1875 0.75 2.2
2.25 0.75 2.2625
2.1875 0.75 2.325
2.1875 0.6875 2.2
2.25 0.6875 2.2625
2.1875 0.6875 2.325
2.1875 0.75 2.2625
2.1875 0.6875 2.2625
2.375 0.6875 2.2
2.375 0.6875 2.325
2.3125 0.75 2.2
2.375 0.75 2.2625
2.3125 0.75 2.325
2.3125 0.6875 2.2
2.375 0.6875 2.2625
2.3125 0.6875 2.325
2.3125 0.75 2.2625
2.3125 0.6875 2.2625
2.5 0.6875 2.2
2.5 0.6875 2.325
2.4375 0.75 2.2
2.5 0.75 2.2625
2.4375 0.75 2.325
2.4375 0.6875 2.2
2.5 0.6875 2.2625
2.4375 0.6875 2.325
2.4375 0.75 2.2625
2.4375 0.6875 2.2625
2.625 0.6875 2.2
2.625 0.6875 2.325
2.5625 0.75 2.2
2.625 0.75 2.2625
2.5625 0.75 2.325
2.5625 0.6875 2.2
2.625 0.6875 2.2625
2.5625 0.6875 2.325
2.5625 0.75 2.2625
2.5625 0.6875 2.2625
2.75 0.6875 2.2
2.75 0.6875 2.325
2.6875 0.75 2.2
2.75 0.75 2.2625
2.6875 0.75 2.325
2.6875 0.6875 2.2
2.75 0.6875 2.2625
2.6875 0.6875 2.325
2.6875 0.75 2.2625
2.6875 0.6875 2.2625
2.875 0.6875 2.2
2.875 0.6875 2.325
2.8125 0.75 2.2
2.875 0.75 2.2625
2.8125 0.75 2.325
2.8125 0.6875 2.2
2.875 0.6875 2.2625
2.8125 0.6875 2.325
2.8125 0.75 2.2625
2.8125 0.6875 2.2625
3 0.6875 2.2
3 0.6875 2.325
2.9375 0.75 2.2
3 0.75 2.2625
2.9375 0.75 2.325
2.9375 0.6875 2.2
3 0.6875 2.2625
2.9375 0.6875 2.325
2.9375 0.75 2.2625
2.9375 0.6875 2.2625
0 0.8125 2.2
0.125 0.8125 2.2
0.125 0.8125 2.325
0 0.8125 2.325
0.0625 0.875 2.2
0.125 0.875 2.2625
0.0625 0.875 2.325
0 0.875 2.2625
0.0625 0.8125 2.2
0.125 0.8125 2.2625
0.0625 0.8125 2.325
0 0.8125 2.2625
0.0625 0.875 2.2625
0.0625 0.8125 2.2625
0.25 0.8125 2.2
0.25 0.8125 2.325
0.1875 0.875 2.2
0.25 0.875 2.2625
0.1875 0.875 2.325
0.1875 0.8125 2.2
0.25 0.8125 2.2625
0.1875 0.8125 2.325
0.1875 0.875 2.2625
0.1875 0.8125 2.2625
0.375 0.8125 2.2
0.375 0.8125 2.325
0.3125 0.875 2.2
0.375 0.875 2.2625
0.3125 0.875 2.325
0.3125 0.8125 2.2
0.375 0.8125 2.2625
0.3125 0.8125 2.325
0.3125 0.875 2.2625
0.3125 0.8125 2.2625
0.5 0.8125 2.2
0.5 0.8125 2.325
0.4375 0.875 2.2
0.5 0.875 2.2625
0.4375 0.875 2.325
0.4375 0.8125 2.2
0.5 0.8125 2.2625
0.4375 0.8125 2.325
0.4375 0.875 2.2625
0.4375 0.8125 2.2625
0.625 0.8125 2.2
0.625 0.8125 2.325
0.5625 0.875 2.2
0.625 0.875 2.2625
0.5625 0.875 2.325
0.5625 0.8125 2.2
0.625 0.8125 2.2625
0.5625 0.8125 2.325
0.5625 0.875 2.2625
0.5625 0.8125 2.2625
0.75 0.8125 2.2
0.75 0.8125 2.325
0.6875 0.875 2.2
0.75 0.875 2.2625
0.6875 0.875 2.325
0.6875 0.8125 2.2
0.75 0.8125 2.2625
0.6875 0.8125 2.325
0.6875 0.875 2.2625
0.6875 0.8125 2.2625
0.875 0.8125 2.2
0.875 0.8125 2.325
0.8125 0.875 2.2
0.875 0.875 2.2625
0.8125 0.875 2.325
0.8125 0.8125 2.2
0.875 0.8125 2.2625
0.8125 0.8125 2.325
0.8125 0.875 2.2625
0.8125 0.8125 2.2625
1 0.8125 2.2
1 0.8125 2.325
0.9375 0.875 2.2
1 0.875 2.2625
0.9375 0.875 2.325
0.9375 0.8125 2.2
1 0.8125 2.2625
0.9375 0.8125 2.325
0.9375 0.875 2.2625
0.9375 0.8125 2.2625
1.125 0.8125 2.2
1.125 0.8125 2.325
1.0625 0.875 2.2
1.125 0.875 2.2625
1.0625 0.875 2.325
1.0625 0.8125 2.2
1.125 0.8125 2.2625
1.0625 0.8125 2.325
1.0625 0.875 2.2625
1.0625 0.8125 2.2625
1.25 0.8125 2.2
1.25 0.8125 2.325
1.1875 0.875 2.2
1.25 0.875 2.2625
1.1875 0.875 2.325
1.1875 0.8125 2.2
1.25 0.8125 2.2625
1.1875 0.8125 2.325
1.1875 0.875 2.2625
1.1875 0.8125 2.2625
1.375 0.8125 2.2
1.375 0.8125 2.325
1.3125 0.875 2.2
1.375 0.875 2.2625
1.3125 0.875 2.325
1.3125 0.8125 2.2
1.375 0.8125 2.2625
1.3125 0.8125 2.325
1.3125 0.875 2.2625
1.3125 0.8125 2.2625
1.5 0.8125 2.2
1.5 0.8125 2.325
1.4375 0.875 2.2
1.5 0.875 2.2625
1.4375 0.875 2.325
1.4375 0.8125 2.2
1.5 0.8125 2.2625
1.4375 0.8125 2.325
1.4375 0.875 2.2625
1.4375 0.8125 2.2625
1.625 0.8125 2.2
1.625 0.8125 2.325
1.5625 0.875 2.2
1.625 0.875 2.2625
1.5625 0.875 2.325
1.5625 0.8125 2.2
1.625 0.8125 2.2625
1.5625 0.8125 2.325
1.5625 0.875 2.2625
1.5625 0.8125 2.2625
1.75 0.8125 2.2
1.75 0.8125 2.325
1.6875 0.875 2.2
1.75 0.875 2.2625
1.6875 0.875 2.325
1.6875 0.8125 2.2
1.75 0.8125 2.2625
1.6875 0.8125 2.325
1.6875 0.875 2.2625
1.6875 0.8125 2.2625
1.875 0.8125 2.2
1.875 0.8125 2.325
1.8125 0.875 2.2
1.875 0.875 2.2625
1.8125 0.875 2.325
1.8125 0.8125 2.2
1.875 0.8125 2.2625
1.8125 0.8125 2.325
1.8125 0.875 2.2625
1.8125 0.8125 2.2625
2 0.8125 2.2
2 0.8125 2.325
1.9375 0.875 2.2
2 0.875 2.2625
1.9375 0.875 2.325
1.9375 0.8125 2.2
2 0.8125 2.2625
1.9375 0.8125 2.325
1.9375 0.875 2.2625
1.9375 0.8125 2.2625
2.125 0.8125 2.2
2.125 0.8125 2.325
2.0625 0.875 2.2
2.125 0.875 2.2625
2.0625 0.875 2.325
2.0625 0.8125 2.2
2.125 0.8125 2.2625
2.0625 0.8125 2.325
2.0625 0.875 2.2625
2.0625 0.8125 2.2625
2.25 0.8125 2.2
2.25 0.8125 2.325
2.1875 0.875 2.2
2.25 0.875 2.2625
2.1875 0.875 2.325
2.1875 0.8125 2.2
2.25 0.8125 2.2625
2.1875 0.8125 2.325
2.1875 0.875 2.2625
2.1875 0.8125 2.2625
2.375 0.8125 2.2
2.375 0.8125 2.325
2.3125 0.875 2.2
2.375 0.875 2.2625
2.3125 0.875 2.325
2.3125 0.8125 2.2
2.375 0.8125 2.2625
2.3125 0.8125 2.325
2.3125 0.875 2.2625
2.3125 0.8125 2.2625
2.5 0.8125 2.2
2.5 0.8125 2.325
2.4375 0.875 2.2
2.5 0.875 2.2625
2.4375 0.875 2.325
2.4375 0.8125 2.2
2.5 0.8125 2.2625
2.4375 0.8125 2.325
2.4375 0.875 2.2625
2.4375 0.8125 2.2625
2.625 0.8125 2.2
2.625 0.8125 2.325
2.5625 0.875 2.2
2.625 0.875 2.2625
2.5625 0.875 2.325
2.5625 0.8125 2.2
2.625 0.8125 2.2625
2.5625 0.8125 2.325
2.5625 0.875 2.2625
2.5625 0.8125 2.2625
2.75 0.8125 2.2
2.75 0.8125 2.325
2.6875 0.875 2.2
2.75 0.875 2.2625
2.6875 0.875 2.325
2.6875 0.8125 2.2
2.75 0.8125 2.2625
2.6875 0.8125 2.325
2.6875 0.875 2.2625
2.6875 0.8125 2.2625
2.875 0.8125 2.2
2.875 0.8125 2.325
2.8125 0.875 2.2
2.875 0.875 2.2625
2.8125 0.875 2.325
2.8125 0.8125 2.2
2.875 0.8125 2.2625
2.8125 0.8125 2.325
2.8125 0.875 2.2625
2.8125 0.8125 2.2625
3 0.8125 2.2
3 0.8125 2.325
2.9375 0.875 2.2
3 0.875 2.2625
2.9375 0.875 2.325
2.9375 0.8125 2.2
3 0.8125 2.2625
2.9375 0.8125 2.325
2.9375 0.875 2.2625
2.9375 0.8125 2.2625
0 0.9375 2.2
0.125 0.9375 2.2
0.125 0.9375 2.325
0 0.9375 2.325
0.0625 1 2.2
0.125 1 2.2625
0.0625 1 2.325
0 1 2.2625
0.0625 0.9375 2.2
0.125 0.9375 2.2625
0.0625 0.9375 2.325
0 0.9375 2.2625
0.0625 1 2.2625
0.0625 0.9375 2.2625
0.25 0.9375 2.2
0.25 0.9375 2.325
0.1875 1 2.2
0.25 1 2.2625
0.1875 1 2.325
0.1875 0.9375 2.2
0.25 0.9375 2.2625
0.1875 0.9375 2.325
0.1875 1 2.2625
0.1875 0.9375 2.2625
0.375 0.9375 2.2
0.375 0.9375 2.325
0.3125 1 2.2
0.375 1 2.2625
0.3125 1 2.325
0.3125 0.9375 2.2
0.375 0.9375 2.2625
0.3125 0.9375 2.325
0.3125 1 2.2625
0.3125 0.9375 2.2625
0.5 0.9375 2.2
0.5 0.9375 2.325
0.4375 1 2.2
0.5 1 2.2625
0.4375 1 2.325
0.4375 0.9375 2.2
0.5 0.9375 2.2625
0.4375 0.9375 2.325
0.4375 1 2.2625
0.4375 0.9375 2.2625
0.625 0.9375 2.2
0.625 0.9375 2.325
0.5625 1 2.2
0.625 1 2.2625
0.5625 1 2.325
0.5625 0.9375 2.2
0.625 0.9375 2.2625
0.5625 0.9375 2.325
0.5625 1 2.2625
0.5625 0.9375 2.2625
0.75 0.9375 2.2
0.75 0.9375 2.325
0.6875 1 2.2
0.75 1 2.2625
0.6875 1 2.325
0.6875 0.9375 2.2
0.75 0.9375 2.2625
0.6875 0.9375 2.325
0.6875 1 2.2625
0.6875 0.9375 2.2625
0.875 0.9375 2.2
0.875 0.9375 2.325
0.8125 1 2.2
0.875 1 2.2625
0.8125 1 2.325
0.8125 0.9375 2.2
0.875 0.9375 2.2625
0.8125 0.9375 2.325
0.8125 1 2.2625
0.8125 0.9375 2.2625
1 0.9375 2.2
1 0.9375 2.325
0.9375 1 2.2
1 1 2.2625
0.9375 1 2.325
0.9375 0.9375 2.2
1 0.9375 2.2625
0.9375 0.9375 2.325
0.9375 1 2.2625
0.9375 0.9375 2.2625
1.125 0.9375 2.2
1.125 0.9375 2.325
1.0625 1 2.2
1.125 1 2.2625
1.0625 1 2.325
1.0625 0.9375 2.2
1.125 0.9375 2.2625
1.0625 0.9375 2.325
1.0625 1 2.2625
1.0625 0.9375 2.2625
1.25 0.9375 2.2
1.25 0.9375 2.325
1.1875 1 2.2
1.25 1 2.2625
1.1875 1 2.325
1.1875 0.9375 2.2
1.25 0.9375 2.2625
1.1875 0.9375 2.325
1.1875 1 2.2625
1.1875 0.9375 2.2625
1.375 0.9375 2.2
1.375 0.9375 2.325
1.3125 1 2.2
1.375 1 2.2625
1.3125 1 2.325
1.3125 0.9375 2.2
1.375 0.9375 2.2625
1.3125 0.9375 2.325
1.3125 1 2.2625
1.3125 0.9375 2.2625
1.5 0.9375 2.2
1.5 0.9375 2.325
1.4375 1 2.2
1.5 1 2.2625
1.4375 1 2.325
1.4375 0.9375 2.2
1.5 0.9375 2.2625
1.4375 0.9375 2.325
1.4375 1 2.2625
1.4375 0.9375 2.2625
1.625 0.9375 2.2
1.625 0.9375 2.325
1.5625 1 2.2
1.625 1 2.2625
1.5625 1 2.325
1.5625 0.9375 2.2
1.625 0.9375 2.2625
1.5625 0.9375 2.325
1.5625 1 2.2625
1.5625 0.9375 2.2625
1.75 0.9375 2.2
1.75 0.9375 2.325
1.6875 1 2.2
1.75 1 2.2625
1.6875 1 2.325
1.6875 0.9375 2.2
1.75 0.9375 2.2625
1.6875 0.9375 2.325
1.6875 1 2.2625
1.6875 0.9375 2.2625
1.875 0.9375 2.2
1.875 0.9375 2.325
1.8125 1 2.2
1.875 1 2.2625
1.8125 1 2.325
1.8125 0.9375 2.2
1.875 0.9375 2.2625
1.8125 0.9375 2.325
1.8125 1 2.2625
1.8125 0.9375 2.2625
2 0.9375 2.2
2 0.9375 2.325
1.9375 1 2.2
2 1 2.2625
1.9375 1 2.325
1.9375 0.9375 2.2
2 0.9375 2.2625
1.9375 0.9375 2.325
1.9375 1 2.2625
1.9375 0.9375 2.2625
2.125 0.9375 2.2
2.125 0.9375 2.325
2.0625 1 2.2
2.125 1 2.2625
2.0625 1 2.325
2.0625 0.9375 2.2
2.125 0.9375 2.2625
2.0625 0.9375 2.325
2.0625 1 2.2625
2.0625 0.9375 2.2625
2.25 0.9375 2.2
2.25 0.9375 2.325
2.1875 1 2.2
2.25 1 2.2625
2.1875 1 2.325
2.1875 0.9375 2.2
2.25 0.9375 2.2625
2.1875 0.9375 2.325
2.1875 1 2.2625
2.1875 0.9375 2.2625
2.375 0.9375 2.2
2.375 0.9375 2.325
2.3125 1 2.2
2.375 1 2.2625
2.3125 1 2.325
2.3125 0.9375 2.2
2.375 0.9375 2.2625
2.3125 0.9375 2.325
2.3125 1 2.2625
2.3125 0.9375 2.2625
2.5 0.9375 2.2
2.5 0.9375 2.325
2.4375 1 2.2
2.5 1 2.2625
2.4375 1 2.325
2.4375 0.9375 2.2
2.5 0.9375 2.2625
2.4375 0.9375 2.325
2.4375 1 2.2625
2.4375 0.9375 2.2625
2.625 0.9375 2.2
2.625 0.9375 2.325
2.5625 1 2.2
2.625 1 2.2625
2.5625 1 2.325
2.5625 0.9375 2.2
2.625 0.9375 2.2625
2.5625 0.9375 2.325
2.5625 1 2.2625
2.5625 0.9375 2.2625
2.75 0.9375 2.2
2.75 0.9375 2.325
2.6875 1 2.2
2.75 1 2.2625
2.6875 1 2.325
2.6875 0.9375 2.2
2.75 0.9375 2.2625
2.6875 0.9375 2.325
2.6875 1 2.2625
2.6875 0.9375 2.2625
2.875 0.9375 2.2
2.875 0.9375 2.325
2.8125 1 2.2
2.875 1 2.2625
2.8125 1 2.325
2.8125 0.9375 2.2
2.875 0.9375 2.2625
2.8125 0.9375 2.325
2.8125 1 2.2625
2.8125 0.9375 2.2625
3 0.9375 2.2
3 0.9375 2.325
2.9375 1 2.2
3 1 2.2625
2.9375 1 2.325
2.9375 0.9375 2.2
3 0.9375 2.2625
2.9375 0.9375 2.325
2.9375 1 2.2625
2.9375 0.9375 2.2625
0.125 0 2.3875
0.0625 0 2.45
0 0 2.3875
0.125 0.0625 2.45
0 0.0625 2.45
0.125 0.125 2.3875
0.0625 0.125 2.45
0 0.125 2.3875
0.0625 0 2.3875
0.125 0.0625 2.3875
0.0625 0.0625 2.45
0 0.0625 2.3875
0.0625 0.125 2.3875
0.0625 0.0625 2.3875
0.25 0 2.3875
0.1875 0 2.45
0.25 0.0625 2.45
0.25 0.125 2.3875
0.1875 0.125 2.45
0.1875 0 2.3875
0.25 0.0625 2.3875
0.1875 0.0625 2.45
0.1875 0.125 2.3875
0.1875 0.0625 2.3875
0.375 0 2.3875
0.3125 0 2.45
0.375 0.0625 2.45
0.375 0.125 2.3875
0.3125 0.125 2.45
0.3125 0 2.3875
0.375 0.0625 2.3875
0.3125 0.0625 2.45
0.3125 0.125 2.3875
0.3125 0.0625 2.3875
0.5 0 2.3875
0.4375 0 2.45
0.5 0.0625 2.45
0.5 0.125 2.3875
0.4375 0.125 2.45
0.4375 0 2.3875
0.5 0.0625 2.3875
0.4375 0.0625 2.45
0.4375 0.125 2.3875
0.4375 0.0625 2.3875
0.625 0 2.3875
0.5625 0 2.45
0.625 0.0625 2.45
0.625 0.125 2.3875
0.5625 0.125 2.45
0.5625 0 2.3875
0.625 0.0625 2.3875
0.5625 0.0625 2.45
0.5625 0.125 2.3875
0.5625 0.0625 2.3875
0.75 0 2.3875
0.6875 0 2.45
0.75 0.0625 2.45
0.75 0.125 2.3875
0.6875 0.125 2.45
0.6875 0 2.3875
0.75 0.0625 2.3875
0.6875 0.0625 2.45
0.6875 0.125 2.3875
0.6875 0.0625 2.3875
0.875 0 2.3875
0.8125 0 2.45
0.875 0.0625 2.45
0.875 0.125 2.3875
0.8125 0.125 2.45
0.8125 0 2.3875
0.875 0.0625 2.3875
0.8125 0.0625 2.45
0.8125 0.125 2.3875
0.8125 0.0625 2.3875
1 0 2.3875
0.9375 0 2.45
1 0.0625 2.45
1 0.125 2.3875
0.9375 0.125 2.45
0.9375 0 2.3875
1 0.0625 2.3875
0.9375 0.0625 2.45
0.9375 0.125 2.3875
0.9375 0.0625 2.3875
1.125 0 2.3875
1.0625 0 2.45
1.125 0.0625 2.45
1.125 0.125 2.3875
1.0625 0.125 2.45
1.0625 0 2.3875
1.125 0.0625 2.3875
1.0625 0.0625 2.45
1.0625 0.125 2.3875
1.0625 0.0625 2.3875
1.25 0 2.3875
1.1875 0 2.45
1.25 0.0625 2.45
1.25 0.125 2.3875
1.1875 0.125 2.45
1.1875 0 2.3875
1.25 0.0625 2.3875
1.1875 0.0625 2.45
1.1875 0.125 2.3875
1.1875 0.0625 2.3875
1.375 0 2.3875
1.3125 0 2.45
1.375 0.0625 2.45
1.375 0.125 2.3875
1.3125 0.125 2.45
1.3125 0 2.3875
1.375 0.0625 2.3875
1.3125 0.0625 2.45
1.3125 0.125 2.3875
1.3125 0.0625 2.3875
1.5 0 2.3875
1.4375 0 2.45
1.5 0.0625 2.45
1.5 0.125 2.3875
1.4375 0.125 2.45
1.4375 0 2.3875
1.5 0.0625 2.3875
1.4375 0.0625 2.45
1.4375 0.125 2.3875
1.4375 0.0625 2.3875
1.625 0 2.3875
1.5625 0 2.45
1.625 0.0625 2.45
1.625 0.125 2.3875
1.5625 0.125 2.45
1.5625 0 2.3875
1.625 0.0625 2.3875
1.5625 0.0625 2.45
1.5625 0.125 2.3875
1.5625 0.0625 2.3875
1.75 0 2.3875
1.6875 0 2.45
1.75 0.0625 2.45
1.75 0.125 2.3875
1.6875 0.125 2.45
1.6875 0 2.3875
1.75 0.0625 2.3875
1.6875 0.0625 2.45
1.6875 0.125 2.3875
1.6875 0.0625 2.3875
1.875 0 2.3875
1.8125 0 2.45
1.875 0.0625 2.45
1.875 0.125 2.3875
1.8125 0.125 2.45
1.8125 0 2.3875
1.875 0.0625 2.3875
1.8125 0.0625 2.45
1.8125 0.125 2.3875
1.8125 0.0625 2.3875
2 0 2.3875
1.9375 0 2.45
2 0.0625 2.45
2 0.125 2.3875
1.9375 0.125 2.45
1.9375 0 2.3875
2 0.0625 2.3875
1.9375 0.0625 2.45
1.9375 0.125 2.3875
1.9375 0.0625 2.3875
2.125 0 2.3875
2.0625 0 2.45
2.125 0.0625 2.45
2.125 0.125 2.3875
2.0625 0.125 2.45
2.0625 0 2.3875
2.125 0.0625 2.3875
2.0625 0.0625 2.45
2.0625 0.125 2.3875
2.0625 0.0625 2.3875
2.25 0 2.3875
2.1875 0 2.45
2.25 0.0625 2.45
2.25 0.125 2.3875
2.1875 0.125 2.45
2.1875 0 2.3875
2.25 0.0625 2.3875
2.1875 0.0625 2.45
2.1875 0.125 2.3875
2.1875 0.0625 2.3875
2.375 0 2.3875
2.3125 0 2.45
2.375 0.0625 2.45
2.375 0.125 2.3875
2.3125 0.125 2.45
2.3125 0 2.3875
2.375 0.0625 2.3875
2.3125 0.0625 2.45
2.3125 0.125 2.3875
2.3125 0.0625 2.3875
2.5 0 2.3875
2.4375 0 2.45
2.5 0.0625 2.45
2.5 0.125 2.3875
2.4375 0.125 2.45
2.4375 0 2.3875
2.5 0.0625 2.3875
2.4375 0.0625 2.45
2.4375 0.125 2.3875
2.4375 0.0625 2.3875
2.625 0 2.3875
2.5625 0 2.45
2.625 0.0625 2.45
2.625 0.125 2.3875
2.5625 0.125 2.45
2.5625 0 2.3875
2.625 0.0625 2.3875
2.5625 0.0625 2.45
2.5625 0.125 2.3875
2.5625 0.0625 2.3875
2.75 0 2.3875
2.6875 0 2.45
2.75 0.0625 2.45
2.75 0.125 2.3875
2.6875 0.125 2.45
2.6875 0 2.3875
2.75 0.0625 2.3875
2.6875 0.0625 2.45
2.6875 0.125 2.3875
2.6875 0.0625 2.3875
2.875 0 2.3875
2.8125 0 2.45
2.875 0.0625 2.45
2.875 0.125 2.3875
2.8125 0.125 2.45
2.8125 0 2.3875
2.875 0.0625 2.3875
2.8125 0.0625 2.45
2.8125 0.125 2.3875
2.8125 0.0625 2.3875
3 0 2.3875
2.9375 0 2.45
3 0.0625 2.45
3 0.125 2.3875
2.9375 0.125 2.45
2.9375 0 2.3875
3 0.0625 2.3875
2.9375 0.0625 2.45
2.9375 0.125 2.3875
2.9375 0.0625 2.3875
0.125 0.1875 2.45
0 0.1875 2.45
0.125 0.25 2.3875
0.0625 0.25 2.45
0 0.25 2.3875
0.125 0.1875 2.3875
0.0625 0.1875 2.45
0 0.1875 2.3875
0.0625 0.25 2.3875
0.0625 0.1875 2.3875
0.25 0.1875 2.45
0.25 0.25 2.3875
0.1875 0.25 2.45
0.25 0.1875 2.3875
0.1875 0.1875 2.45
0.1875 0.25 2.3875
0.1875 0.1875 2.3875
0.375 0.1875 2.45
0.375 0.25 2.3875
0.3125 0.25 2.45
0.375 0.1875 2.3875
0.3125 0.1875 2.45
0.3125 0.25 2.3875
0.3125 0.1875 2.3875
0.5 0.1875 2.45
0.5 0.25 2.3875
0.4375 0.25 2.45
0.5 0.1875 2.3875
0.4375 0.1875 2.45
0.4375 0.25 2.3875
0.4375 0.1875 2.3875
0.625 0.1875 2.45
0.625 0.25 2.3875
0.5625 0.25 2.45
0.625 0.1875 2.3875
0.5625 0.1875 2.45
0.5625 0.25 2.3875
0.5625 0.1875 2.3875
0.75 0.1875 2.45
0.75 0.25 2.3875
0.6875 0.25 2.45
0.75 0.1875 2.3875
0.6875 0.1875 2.45
0.6875 0.25 2.3875
0.6875 0.1875 2.3875
0.875 0.1875 2.45
0.875 0.25 2.3875
0.8125 0.25 2.45
0.875 0.1875 2.3875
0.8125 0.1875 2.45
0.8125 0.25 2.3875
0.8125 0.1875 2.3875
1 0.1875 2.45
1 0.25 2.3875
0.9375 0.25 2.45
1 0.1875 2.3875
0.9375 0.1875 2.45
0.9375 0.25 2.3875
0.9375 0.1875 2.3875
1.125 0.1875 2.45
1.125 0.25 2.3875
1.0625 0.25 2.45
1.125 0.1875 2.3875
1.0625 0.1875 2.45
1.0625 0.25 2.3875
1.0625 0.1875 2.3875
1.25 0.1875 2.45
1.25 0.25 2.3875
1.1875 0.25 2.45
1.25 0.1875 2.3875
1.1875 0.1875 2.45
1.1875 0.25 2.3875
1.1875 0.1875 2.3875
1.375 0.1875 2.45
1.375 0.25 2.3875
1.3125 0.25 2.45
1.375 0.1875 2.3875
1.3125 0.1875 2.45
1.3125 0.25 2.3875
1.3125 0.1875 2.3875
1.5 0.1875 2.45
1.5 0.25 2.3875
1.4375 0.25 2.45
1.5 0.1875 2.3875
1.4375 0.1875 2.45
1.4375 0.25 2.3875
1.4375 0.1875 2.3875
1.625 0.1875 2.45
1.625 0.25 2.3875
1.5625 0.25 2.45
1.625 0.1875 2.3875
1.5625 0.1875 2.45
1.5625 0.25 2.3875
1.5625 0.1875 2.3875
1.75 0.1875 2.45
1.75 0.25 2.3875
1.6875 0.25 2.45
1.75 0.1875 2.3875
1.6875 0.1875 2.45
1.6875 0.25 2.3875
1.6875 0.1875 2.3875
1.875 0.1875 2.45
1.875 0.25 2.3875
1.8125 0.25 2.45
1.875 0.1875 2.3875
1.8125 0.1875 2.45
1.8125 0.25 2.3875
1.8125 0.1875 2.3875
2 0.1875 2.45
2 0.25 2.3875
1.9375 0.25 2.45
2 0.1875 2.3875
1.9375 0.1875 2.45
1.9375 0.25 2.3875
1.9375 0.1875 2.3875
2.125 0.1875 2.45
2.125 0.25 2.3875
2.0625 0.25 2.45
2.125 0.1875 2.3875
2.0625 0.1875 2.45
2.0625 0.25 2.3875
2.0625 0.1875 2.3875
2.25 0.1875 2.45
2.25 0.25 2.3875
2.1875 0.25 2.45
2.25 0.1875 2.3875
2.1875 0.1875 2.45
2.1875 0.25 2.3875
2.1875 0.1875 2.3875
2.375 0.1875 2.45
2.375 0.25 2.3875
2.3125 0.25 2.45
2.375 0.1875 2.3875
2.3125 0.1875 2.45
2.3125 0.25 2.3875
2.3125 0.1875 2.3875
2.5 0.1875 2.45
2.5 0.25 2.3875
2.4375 0.25 2.45
2.5 0.1875 2.3875
2.4375 0.1875 2.45
2.4375 0.25 2.3875
2.4375 0.1875 2.3875
2.625 0.1875 2.45
2.625 0.25 2.3875
2.5625 0.25 2.45
2.625 0.1875 2.3875
2.5625 0.1875 2.45
2.5625 0.25 2.3875
2.5625 0.1875 2.3875
2.75 0.1875 2.45
2.75 0.25 2.3875
2.6875 0.25 2.45
2.75 0.1875 2.3875
2.6875 0.1875 2.45
2.6875 0.25 2.3875
2.6875 0.1875 2.3875
2.875 0.1875 2.45
2.875 0.25 2.3875
2.8125 0.25 2.45
2.875 0.1875 2.3875
2.8125 0.1875 2.45
2.8125 0.25 2.3875
2.8125 0.1875 2.3875
3 0.1875 2.45
3 0.25 2.3875
2.9375 0.25 2.45
3 0.1875 2.3875
2.9375 0.1875 2.45
2.9375 0.25 2.3875
2.9375 0.1875 2.3875
0.125 0.3125 2.45
0 0.3125 2.45
0.125 0.375 2.3875
0.0625 0.375 2.45
0 0.375 2.3875
0.125 0.3125 2.3875
0.0625 0.3125 2.45
0 0.3125 2.3875
0.0625 0.375 2.3875
0.0625 0.3125 2.3875
0.25 0.3125 2.45
0.25 0.375 2.3875
0.1875 0.375 2.45
0.25 0.3125 2.3875
0.1875 0.3125 2.45
0.1875 0.375 2.3875
0.1875 0.3125 2.3875
0.375 0.3125 2.45
0.375 0.375 2.3875
0.3125 0.375 2.45
0.375 0.3125 2.3875
0.3125 0.3125 2.45
0.3125 0.375 2.3875
0.3125 0.3125 2.3875
0.5 0.3125 2.45
0.5 0.375 2.3875
0.4375 0.375 2.45
0.5 0.3125 2.3875
0.4375 0.3125 2.45
0.4375 0.375 2.3875
0.4375 0.3125 2.3875
0.625 0.3125 2.45
0.625 0.375 2.3875
0.5625 0.375 2.45
0.625 0.3125 2.3875
0.5625 0.3125 2.45
0.5625 0.375 2.3875
0.5625 0.3125 2.3875
0.75 0.3125 2.45
0.75 0.375 2.3875
0.6875 0.375 2.45
0.75 0.3125 2.3875
0.6875 0.3125 2.45
0.6875 0.375 2.3875
0.6875 0.3125 2.3875
0.875 0.3125 2.45
0.875 0.375 2.3875
0.8125 0.375 2.45
0.875 0.3125 2.3875
0.8125 0.3125 2.45
0.8125 0.375 2.3875
0.8125 0.3125 2.3875
1 0.3125 2.45
1 0.375 2.3875
0.9375 0.375 2.45
1 0.3125 2.3875
0.9375 0.3125 2.45
0.9375 0.375 2.3875
0.9375 0.3125 2.3875
1.125 0.3125 2.45
1.125 0.375 2.3875
1.0625 0.375 2.45
1.125 0.3125 2.3875
1.0625 0.3125 2.45
1.0625 0.375 2.3875
1.0625 0.3125 2.3875
1.25 0.3125 2.45
1.25 0.375 2.3875
1.1875 0.375 2.45
1.25 0.3125 2.3875
1.1875 0.3125 2.45
1.1875 0.375 2.3875
1.1875 0.3125 2.3875
1.375 0.3125 2.45
1.375 0.375 2.3875
1.3125 0.375 2.45
1.375 0.3125 2.3875
1.3125 0.3125 2.45
1.3125 0.375 2.3875
1.3125 0.3125 2.3875
1.5 0.3125 2.45
1.5 0.375 2.3875
1.4375 0.375 2.45
1.5 0.3125 2.3875
1.4375 0.3125 2.45
1.4375 0.375 2.3875
1.4375 0.3125 2.3875
1.625 0.3125 2.45
1.625 0.375 2.3875
1.5625 0.375 2.45
1.625 0.3125 2.3875
1.5625 0.3125 2.45
1.5625 0.375 2.3875
1.5625 0.3125 2.3875
1.75 0.3125 2.45
1.75 0.375 2.3875
1.6875 0.375 2.45
1.75 0.3125 2.3875
1.6875 0.3125 2.45
1.6875 0.375 2.3875
1.6875 0.3125 2.3875
1.875 0.3125 2.45
1.875 0.375 2.3875
1.8125 0.375 2.45
1.875 0.3125 2.3875
1.8125 0.3125 2.45
1.8125 0.375 2.3875
1.8125 0.3125 2.3875
2 0.3125 2.45
2 0.375 2.3875
1.9375 0.375 2.45
2 0.3125 2.3875
1.9375 0.3125 2.45
1.9375 0.375 2.3875
1.9375 0.3125 2.3875
2.125 0.3125 2.45
2.125 0.375 2.3875
2.0625 0.375 2.45
2.125 0.3125 2.3875
2.0625 0.3125 2.45
2.0625 0.375 2.3875
2.0625 0.3125 2.3875
2.25 0.3125 2.45
2.25 0.375 2.3875
2.1875 0.375 2.45
2.25 0.3125 2.3875
2.1875 0.3125 2.45
2.1875 0.375 2.3875
2.1875 0.3125 2.3875
2.375 0.3125 2.45
2.375 0.375 2.3875
2.3125 0.375 2.45
2.375 0.3125 2.3875
2.3125 0.3125 2.45
2.3125 0.375 2.3875
2.3125 0.3125 2.3875
2.5 0.3125 2.45
2.5 0.375 2.3875
2.4375 0.375 2.45
2.5 0.3125 2.3875
2.4375 0.3125 2.45
2.4375 0.375 2.3875
2.4375 0.3125 2.3875
2.625 0.3125 2.45
2.625 0.375 2.3875
2.5625 0.375 2.45
2.625 0.3125 2.3875
2.5625 0.3125 2.45
2.5625 0.375 2.3875
2.5625 0.3125 2.3875
2.75 0.3125 2.45
2.75 0.375 2.3875
2.6875 0.375 2.45
2.75 0.3125 2.3875
2.6875 0.3125 2.45
2.6875 0.375 2.3875
2.6875 0.3125 2.3875
2.875 0.3125 2.45
2.875 0.375 2.3875
2.8125 0.375 2.45
2.875 0.3125 2.3875
2.8125 0.3125 2.45
2.8125 0.375 2.3875
2.8125 0.3125 2.3875
3 0.3125 2.45
3 0.375 2.3875
2.9375 0.375 2.45
3 0.3125 2.3875
2.9375 0.3125 2.45
2.9375 0.375 2.3875
2.9375 0.3125 2.3875
0.125 0.4375 2.45
0 0.4375 2.45
0.125 0.5 2.3875
0.0625 0.5 2.45
0 0.5 2.3875
0.125 0.4375 2.3875
0.0625 0.4375 2.45
0 0.4375 2.3875
0.0625 0.5 2.3875
0.0625 0.4375 2.3875
0.25 0.4375 2.45
0.25 0.5 2.3875
0.1875 0.5 2.45
0.25 0.4375 2.3875
0.1875 0.4375 2.45
0.1875 0.5 2.3875
0.1875 0.4375 2.3875
0.375 0.4375 2.45
0.375 0.5 2.3875
0.3125 0.5 2.45
0.375 0.4375 2.3875
0.3125 0.4375 2.45
0.3125 0.5 2.3875
0.3125 0.4375 2.3875
0.5 0.4375 2.45
0.5 0.5 2.3875
0.4375 0.5 2.45
0.5 0.4375 2.3875
0.4375 0.4375 2.45
0.4375 0.5 2.3875
0.4375 0.4375 2.3875
0.625 0.4375 2.45
0.625 0.5 2.3875
0.5625 0.5 2.45
0.625 0.4375 2.3875
0.5625 0.4375 2.45
0.5625 0.5 2.3875
0.5625 0.4375 2.3875
0.75 0.4375 2.45
0.75 0.5 2.3875
0.6875 0.5 2.45
0.75 0.4375 2.3875
0.6875 0.4375 2.45
0.6875 0.5 2.3875
0.6875 0.4375 2.3875
0.875 0.4375 2.45
0.875 0.5 2.3875
0.8125 0.5 2.45
0.875 0.4375 2.3875
0.8125 0.4375 2.45
0.8125 0.5 2.3875
0.8125 0.4375 2.3875
1 0.4375 2.45
1 0.5 2.3875
0.9375 0.5 2.45
1 0.4375 2.3875
0.9375 0.4375 2.45
0.9375 0.5 2.3875
0.9375 0.4375 2.3875
1.125 0.4375 2.45
1.125 0.5 2.3875
1.0625 0.5 2.45
1.125 0.4375 2.3875
1.0625 0.4375 2.45
1.0625 0.5 2.3875
1.0625 0.4375 2.3875
1.25 0.4375 2.45
1.25 0.5 2.3875
1.1875 0.5 2.45
1.25 0.4375 2.3875
1.1875 0.4375 2.45
1.1875 0.5 2.3875
1.1875 0.4375 2.3875
1.375 0.4375 2.45
1.375 0.5 2.3875
1.3125 0.5 2.45
1.375 0.4375 2.3875
1.3125 0.4375 2.45
1.3125 0.5 2.3875
1.3125 0.4375 2.3875
1.5 0.4375 2.45
1.5 0.5 2.3875
1.4375 0.5 2.45
1.5 0.4375 2.3875
1.4375 0.4375 2.45
1.4375 0.5 2.3875
1.4375 0.4375 2.3875
1.625 0.4375 2.45
1.625 0.5 2.3875
1.5625 0.5 2.45
1.625 0.4375 2.3875
1.5625 0.4375 2.45
1.5625 0.5 2.3875
1.5625 0.4375 2.3875
1.75 0.4375 2.45
1.75 0.5 2.3875
1.6875 0.5 2.45
1.75 0.4375 2.3875
1.6875 0.4375 2.45
1.6875 0.5 2.3875
1.6875 0.4375 2.3875
1.875 0.4375 2.45
1.875 0.5 2.3875
1.8125 0.5 2.45
1.875 0.4375 2.3875
1.8125 0.4375 2.45
1.8125 0.5 2.3875
1.8125 0.4375 2.3875
2 0.4375 2.45
2 0.5 2.3875
1.9375 0.5 2.45
2 0.4375 2.3875
1.9375 0.4375 2.45
1.9375 0.5 2.3875
1.9375 0.4375 2.3875
2.125 0.4375 2.45
2.125 0.5 2.3875
2.0625 0.5 2.45
2.125 0.4375 2.3875
2.0625 0.4375 2.45
2.0625 0.5 2.3875
2.0625 0.4375 2.3875
2.25 0.4375 2.45
2.25 0.5 2.3875
2.1875 0.5 2.45
2.25 0.4375 2.3875
2.1875 0.4375 2.45
2.1875 0.5 2.3875
2.1875 0.4375 2.3875
2.375 0.4375 2.45
2.375 0.5 2.3875
2.3125 0.5 2.45
2.375 0.4375 2.3875
2.3125 0.4375 2.45
2.3125 0.5 2.3875
2.3125 0.4375 2.3875
2.5 0.4375 2.45
2.5 0.5 2.3875
2.4375 0.5 2.45
2.5 0.4375 2.3875
2.4375 0.4375 2.45
2.4375 0.5 2.3875
2.4375 0.4375 2.3875
2.625 0.4375 2.45
2.625 0.5 2.3875
2.5625 0.5 2.45
2.625 0.4375 2.3875
2.5625 0.4375 2.45
2.5625 0.5 2.3875
2.5625 0.4375 2.3875
2.75 0.4375 2.45
2.75 0.5 2.3875
2.6875 0.5 2.45
2.75 0.4375 2.3875
2.6875 0.4375 2.45
2.6875 0.5 2.3875
2.6875 0.4375 2.3875
2.875 0.4375 2.45
2.875 0.5 2.3875
2.8125 0.5 2.45
2.875 0.4375 2.3875
2.8125 0.4375 2.45
2.8125 0.5 2.3875
2.8125 0.4375 2.3875
3 0.4375 2.45
3 0.5 2.3875
2.9375 0.5 2.45
3 0.4375 2.3875
2.9375 0.4375 2.45
2.9375 0.5 2.3875
2.9375 0.4375 2.3875
0.125 0.5625 2.45
0 0.5625 2.45
0.125 0.625 2.3875
0.0625 0.625 2.45
0 0.625 2.3875
0.125 0.5625 2.3875
0.0625 0.5625 2.45
0 0.5625 2.3875
0.0625 0.625 2.3875
0.0625 0.5625 2.3875
0.25 0.5625 2.45
0.25 0.625 2.3875
0.1875 0.625 2.45
0.25 0.5625 2.3875
0.1875 0.5625 2.45
0.1875 0.625 2.3875
0.1875 0.5625 2.3875
0.375 0.5625 2.45
0.375 0.625 2.3875
0.3125 0.625 2.45
0.375 0.5625 2.3875
0.3125 0.5625 2.45
0.3125 0.625 2.3875
0.3125 0.5625 2.3875
0.5 0.5625 2.45
0.5 0.625 2.3875
0.4375 0.625 2.45
0.5 0.5625 2.3875
0.4375 0.5625 2.45
0.4375 0.625 2.3875
0.4375 0.5625 2.3875
0.625 0.5625 2.45
0.625 0.625 2.3875
0.5625 0.625 2.45
0.625 0.5625 2.3875
0.5625 0.5625 2.45
0.5625 0.625 2.3875
0.5625 0.5625 2.3875
0.75 0.5625 2.45
0.75 0.625 2.3875
0.6875 0.625 2.45
0.75 0.5625 2.3875
0.6875 0.5625 2.45
0.6875 0.625 2.3875
0.6875 0.5625 2.3875
0.875 0.5625 2.45
0.875 0.625 2.3875
0.8125 0.625 2.45
0.875 0.5625 2.3875
0.8125 0.5625 2.45
0.8125 0.625 2.3875
0.8125 0.5625 2.3875
1 0.5625 2.45
1 0.625 2.3875
0.9375 0.625 2.45
1 0.5625 2.3875
0.9375 0.5625 2.45
0.9375 0.625 2.3875
0.9375 0.5625 2.3875
1.125 0.5625 2.45
1.125 0.625 2.3875
1.0625 0.625 2.45
1.125 0.5625 2.3875
1.0625 0.5625 2.45
1.0625 0.625 2.3875
1.0625 0.5625 2.3875
1.25 0.5625 2.45
1.25 0.625 2.3875
1.1875 0.625 2.45
1.25 0.5625 2.3875
1.1875 0.5625 2.45
1.1875 0.625 2.3875
1.1875 0.5625 2.3875
1.375 0.5625 2.45
1.375 0.625 2.3875
1.3125 0.625 2.45
1.375 0.5625 2.3875
1.3125 0.5625 2.45
1.3125 0.625 2.3875
1.3125 0.5625 2.3875
1.5 0.5625 2.45
1.5 0.625 2.3875
1.4375 0.625 2.45
1.5 0.5625 2.3875
1.4375 0.5625 2.45
1.4375 0.625 2.3875
1.4375 0.5625 2.3875
1.625 0.5625 2.45
1.625 0.625 2.3875
1.5625 0.625 2.45
1.625 0.5625 2.3875
1.5625 0.5625 2.45
1.5625 0.625 2.3875
1.5625 0.5625 2.3875
1.75 0.5625 2.45
1.75 0.625 2.3875
1.6875 0.625 2.45
1.75 0.5625 2.3875
1.6875 0.5625 2.45
1.6875 0.625 2.3875
1.6875 0.5625 2.3875
1.875 0.5625 2.45
1.875 0.625 2.3875
1.8125 0.625 2.45
1.875 0.5625 2.3875
1.8125 0.5625 2.45
1.8125 0.625 2.3875
1.8125 0.5625 2.3875
2 0.5625 2.45
2 0.625 2.3875
1.9375 0.625 2.45
2 0.5625 2.3875
1.9375 0.5625 2.45
1.9375 0.625 2.3875
1.9375 0.5625 2.3875
2.125 0.5625 2.45
2.125 0.625 2.3875
2.0625 0.625 2.45
2.125 0.5625 2.3875
2.0625 0.5625 2.45
2.0625 0.625 2.3875
2.0625 0.5625 2.3875
2.25 0.5625 2.45
2.25 0.625 2.3875
2.1875 0.625 2.45
2.25 0.5625 2.3875
2.1875 0.5625 2.45
2.1875 0.625 2.3875
2.1875 0.5625 2.3875
2.375 0.5625 2.45
2.375 0.625 2.3875
2.3125 0.625 2.45
2.375 0.5625 2.3875
2.3125 0.5625 2.45
2.3125 0.625 2.3875
2.3125 0.5625 2.3875
2.5 0.5625 2.45
2.5 0.625 2.3875
2.4375 0.625 2.45
2.5 0.5625 2.3875
2.4375 0.5625 2.45
2.4375 0.625 2.3875
2.4375 0.5625 2.3875
2.625 0.5625 2.45
2.625 0.625 2.3875
2.5625 0.625 2.45
2.625 0.5625 2.3875
2.5625 0.5625 2.45
2.5625 0.625 2.3875
2.5625 0.5625 2.3875
2.75 0.5625 2.45
2.75 0.625 2.3875
2.6875 0.625 2.45
2.75 0.5625 2.3875
2.6875 0.5625 2.45
2.6875 0.625 2.3875
2.6875 0.5625 2.3875
2.875 0.5625 2.45
2.875 0.625 2.3875
2.8125 0.625 2.45
2.875 0.5625 2.3875
2.8125 0.5625 2.45
2.8125 0.625 2.3875
2.8125 0.5625 2.3875
3 0.5625 2.45
3 0.625 2.3875
2.9375 0.625 2.45
3 0.5625 2.3875
2.9375 0.5625 2.45
2.9375 0.625 2.3875
2.9375 0.5625 2.3875
0.125 0.6875 2.45
0 0.6875 2.45
0.125 0.75 2.3875
0.0625 0.75 2.45
0 0.75 2.3875
0.125 0.6875 2.3875
0.0625 0.6875 2.45
0 0.6875 2.3875
0.0625 0.75 2.3875
0.0625 0.6875 2.3875
0.25 0.6875 2.45
0.25 0.75 2.3875
0.1875 0.75 2.45
0.25 0.6875 2.3875
0.1875 0.6875 2.45
0.1875 0.75 2.3875
0.1875 0.6875 2.3875
0.375 0.6875 2.45
0.375 0.75 2.3875
0.3125 0.75 2.45
0.375 0.6875 2.3875
0.3125 0.6875 2.45
0.3125 0.75 2.3875
0.3125 0.6875 2.3875
0.5 0.6875 2.45
0.5 0.75 2.3875
0.4375 0.75 2.45
0.5 0.6875 2.3875
0.4375 0.6875 2.45
0.4375 0.75 2.3875
0.4375 0.6875 2.3875
0.625 0.6875 2.45
0.625 0.75 2.3875
0.5625 0.75 2.45
0.625 0.6875 2.3875
0.5625 0.6875 2.45
0.5625 0.75 2.3875
0.5625 0.6875 2.3875
0.75 0.6875 2.45
0.75 0.75 2.3875
0.6875 0.75 2.45
0.75 0.6875 2.3875
0.6875 0.6875 2.45
0.6875 0.75 2.3875
0.6875 0.6875 2.3875
0.875 0.6875 2.45
0.875 0.75 2.3875
0.8125 0.75 2.45
0.875 0.6875 2.3875
0.8125 0.6875 2.45
0.8125 0.75 2.3875
0.8125 0.6875 2.3875
1 0.6875 2.45
1 0.75 2.3875
0.9375 0.75 2.45
1 0.6875 2.3875
0.9375 0.6875 2.45
0.9375 0.75 2.3875
0.9375 0.6875 2.3875
1.125 0.6875 2.45
1.125 0.75 2.3875
1.0625 0.75 2.45
1.125 0.6875 2.3875
1.0625 0.6875 2.45
1.0625 0.75 2.3875
1.0625 0.6875 2.3875
1.25 0.6875 2.45
1.25 0.75 2.3875
1.1875 0.75 2.45
1.25 0.6875 2.3875
1.1875 0.6875 2.45
1.1875 0.75 2.3875
1.1875 0.6875 2.3875
1.375 0.6875 2.45
1.375 0.75 2.3875
1.3125 0.75 2.45
1.375 0.6875 2.3875
1.3125 0.6875 2.45
1.3125 0.75 2.3875
1.3125 0.6875 2.3875
1.5 0.6875 2.45
1.5 0.75 2.3875
1.4375 0.75 2.45
1.5 0.6875 2.3875
1.4375 0.6875 2.45
1.4375 0.75 2.3875
1.4375 0.6875 2.3875
1.625 0.6875 2.45
1.625 0.75 2.3875
1.5625 0.75 2.45
1.625 0.6875 2.3875
1.5625 0.6875 2.45
1.5625 0.75 2.3875
1.5625 0.6875 2.3875
1.75 0.6875 2.45
1.75 0.75 2.3875
1.6875 0.75 2.45
1.75 0.6875 2.3875
1.6875 0.6875 2.45
1.6875 0.75 2.3875
1.6875 0.6875 2.3875
1.875 0.6875 2.45
1.875 0.75 2.3875
1.8125 0.75 2.45
1.875 0.6875 2.3875
1.8125 0.6875 2.45
1.8125 0.75 2.3875
1.8125 0.6875 2.3875
2 0.6875 2.45
2 0.75 2.3875
1.9375 0.75 2.45
2 0.6875 2.3875
1.9375 0.6875 2.45
1.9375 0.75 2.3875
1.9375 0.6875 2.3875
2.125 0.6875 2.45
2.125 0.75 2.3875
2.0625 0.75 2.45
2.125 0.6875 2.3875
2.0625 0.6875 2.45
2.0625 0.75 2.3875
2.0625 0.6875 2.3875
2.25 0.6875 2.45
2.25 0.75 2.3875
2.1875 0.75 2.45
2.25 0.6875 2.3875
2.1875 0.6875 2.45
2.1875 0.75 2.3875
2.1875 0.6875 2.3875
2.375 0.6875 2.45
2.375 0.75 2.3875
2.3125 0.75 2.45
2.375 0.6875 2.3875
2.3125 0.6875 2.45
2.3125 0.75 2.3875
2.3125 0.6875 2.3875
2.5 0.6875 2.45
2.5 0.75 2.3875
2.4375 0.75 2.45
2.5 0.6875 2.3875
2.4375 0.6875 2.45
2.4375 0.75 2.3875
2.4375 0.6875 2.3875
2.625 0.6875 2.45
2.625 0.75 2.3875
2.5625 0.75 2.45
2.625 0.6875 2.3875
2.5625 0.6875 2.45
2.5625 0.75 2.3875
2.5625 0.6875 2.3875
2.75 0.6875 2.45
2.75 0.75 2.3875
2.6875 0.75 2.45
2.75 0.6875 2.3875
2.6875 0.6875 2.45
2.6875 0.75 2.3875
2.6875 0.6875 2.3875
2.875 0.6875 2.45
2.875 0.75 2.3875
2.8125 0.75 2.45
2.875 0.6875 2.3875
2.8125 0.6875 2.45
2.8125 0.75 2.3875
2.8125 0.6875 2.3875
3 0.6875 2.45
3 0.75 2.3875
2.9375 0.75 2.45
3 0.6875 2.3875
2.9375 0.6875 2.45
2.9375 0.75 2.3875
2.9375 0.6875 2.3875
0.125 0.8125 2.45
0 0.8125 2.45
0.125 0.875 2.3875
0.0625 0.875 2.45
0 0.875 2.3875
0.125 0.8125 2.3875
0.0625 0.8125 2.45
0 0.8125 2.3875
0.0625 0.875 2.3875
0.0625 0.8125 2.3875
0.25 0.8125 2.45
0.25 0.875 2.3875
0.1875 0.875 2.45
0.25 0.8125 2.3875
0.1875 0.8125 2.45
0.1875 0.875 2.3875
0.1875 0.8125 2.3875
0.375 0.8125 2.45
0.375 0.875 2.3875
0.3125 0.875 2.45
0.375 0.8125 2.3875
0.3125 0.8125 2.45
0.3125 0.875 2.3875
0.3125 0.8125 2.3875
0.5 0.8125 2.45
0.5 0.875 2.3875
0.4375 0.875 2.45
0.5 0.8125 2.3875
0.4375 0.8125 2.45
0.4375 0.875 2.3875
0.4375 0.8125 2.3875
0.625 0.8125 2.45
0.625 0.875 2.3875
0.5625 0.875 2.45
0.625 0.8125 2.3875
0.5625 0.8125 2.45
0.5625 0.875 2.3875
0.5625 0.8125 2.3875
0.75 0.8125 2.45
0.75 0.875 2.3875
0.6875 0.875 2.45
0.75 0.8125 2.3875
0.6875 0.8125 2.45
0.6875 0.875 2.3875
0.6875 0.8125 2.3875
0.875 0.8125 2.45
0.875 0.875 2.3875
0.8125 0.875 2.45
0.875 0.8125 2.3875
0.8125 0.8125 2.45
0.8125 0.875 2.3875
0.8125 0.8125 2.3875
1 0.8125 2.45
1 0.875 2.3875
0.9375 0.875 2.45
1 0.8125 2.3875
0.9375 0.8125 2.45
0.9375 0.875 2.3875
0.9375 0.8125 2.3875
1.125 0.8125 2.45
1.125 0.875 2.3875
1.0625 0.875 2.45
1.125 0.8125 2.3875
1.0625 0.8125 2.45
1.0625 0.875 2.3875
1.0625 0.8125 2.3875
1.25 0.8125 2.45
1.25 0.875 2.3875
1.1875 0.875 2.45
1.25 0.8125 2.3875
1.1875 0.8125 2.45
1.1875 0.875 2.3875
1.1875 0.8125 2.3875
1.375 0.8125 2.45
1.375 0.875 2.3875
1.3125 0.875 2.45
1.375 0.8125 2.3875
1.3125 0.8125 2.45
1.3125 0.875 2.3875
1.3125 0.8125 2.3875
1.5 0.8125 2.45
1.5 0.875 2.3875
1.4375 0.875 2.45
1.5 0.8125 2.3875
1.4375 0.8125 2.45
1.4375 0.875 2.3875
1.4375 0.8125 2.3875
1.625 0.8125 2.45
1.625 0.875 2.3875
1.5625 0.875 2.45
1.625 0.8125 2.3875
1.5625 0.8125 2.45
1.5625 0.875 2.3875
1.5625 0.8125 2.3875
1.75 0.8125 2.45
1.75 0.875 2.3875
1.6875 0.875 2.45
1.75 0.8125 2.3875
1.6875 0.8125 2.45
1.6875 0.875 2.3875
1.6875 0.8125 2.3875
1.875 0.8125 2.45
1.875 0.875 2.3875
1.8125 0.875 2.45
1.875 0.8125 2.3875
1.8125 0.8125 2.45
1.8125 0.875 2.3875
1.8125 0.8125 2.3875
2 0.8125 2.45
2 0.875 2.3875
1.9375 0.875 2.45
2 0.8125 2.3875
1.9375 0.8125 2.45
1.9375 0.875 2.3875
1.9375 0.8125 2.3875
2.125 0.8125 2.45
2.125 0.875 2.3875
2.0625 0.875 2.45
2.125 0.8125 2.3875
2.0625 0.8125 2.45
2.0625 0.875 2.3875
2.0625 0.8125 2.3875
2.25 0.8125 2.45
2.25 0.875 2.3875
2.1875 0.875 2.45
2.25 0.8125 2.3875
2.1875 0.8125 2.45
2.1875 0.875 2.3875
2.1875 0.8125 2.3875
2.375 0.8125 2.45
2.375 0.875 2.3875
2.3125 0.875 2.45
2.375 0.8125 2.3875
2.3125 0.8125 2.45
2.3125 0.875 2.3875
2.3125 0.8125 2.3875
2.5 0.8125 2.45
2.5 0.875 2.3875
2.4375 0.875 2.45
2.5 0.8125 2.3875
2.4375 0.8125 2.45
2.4375 0.875 2.3875
2.4375 0.8125 2.3875
2.625 0.8125 2.45
2.625 0.875 2.3875
2.5625 0.875 2.45
2.625 0.8125 2.3875
2.5625 0.8125 2.45
2.5625 0.875 2.3875
2.5625 0.8125 2.3875
2.75 0.8125 2.45
2.75 0.875 2.3875
2.6875 0.875 2.45
2.75 0.8125 2.3875
2.6875 0.8125 2.45
2.6875 0.875 2.3875
2.6875 0.8125 2.3875
2.875 0.8125 2.45
2.875 0.875 2.3875
2.8125 0.875 2.45
2.875 0.8125 2.3875
2.8125 0.8125 2.45
2.8125 0.875 2.3875
2.8125 0.8125 2.3875
3 0.8125 2.45
3 0.875 2.3875
2.9375 0.875 2.45
3 0.8125 2.3875
2.9375 0.8125 2.45
2.9375 0.875 2.3875
2.9375 0.8125 2.3875
0.125 0.9375 2.45
0 0.9375 2.45
0.125 1 2.3875
0.0625 1 2.45
0 1 2.3875
0.125 0.9375 2.3875
0.0625 0.9375 2.45
0 0.9375 2.3875
0.0625 1 2.3875
0.0625 0.9375 2.3875
0.25 0.9375 2.45
0.25 1 2.3875
0.1875 1 2.45
0.25 0.9375 2.3875
0.1875 0.9375 2.45
0.1875 1 2.3875
0.1875 0.9375 2.3875
0.375 0.9375 2.45
0.375 1 2.3875
0.3125 1 2.45
0.375 0.9375 2.3875
0.3125 0.9375 2.45
0.3125 1 2.3875
0.3125 0.9375 2.3875
0.5 0.9375 2.45
0.5 1 2.3875
0.4375 1 2.45
0.5 0.9375 2.3875
0.4375 0.9375 2.45
0.4375 1 2.3875
0.4375 0.9375 2.3875
0.625 0.9375 2.45
0.625 1 2.3875
0.5625 1 2.45
0.625 0.9375 2.3875
0.5625 0.9375 2.45
0.5625 1 2.3875
0.5625 0.9375 2.3875
0.75 0.9375 2.45
0.75 1 2.3875
0.6875 1 2.45
0.75 0.9375 2.3875
0.6875 0.9375 2.45
0.6875 1 2.3875
0.6875 0.9375 2.3875
0.875 0.9375 2.45
0.875 1 2.3875
0.8125 1 2.45
0.875 0.9375 2.3875
0.8125 0.9375 2.45
0.8125 1 2.3875
0.8125 0.9375 2.3875
1 0.9375 2.45
1 1 2.3875
0.9375 1 2.45
1 0.9375 2.3875
0.9375 0.9375 2.45
0.9375 1 2.3875
0.9375 0.9375 2.3875
1.125 0.9375 2.45
1.125 1 2.3875
1.0625 1 2.45
1.125 0.9375 2.3875
1.0625 0.9375 2.45
1.0625 1 2.3875
1.0625 0.9375 2.3875
1.25 0.9375 2.45
1.25 1 2.3875
1.1875 1 2.45
1.25 0.9375 2.3875
1.1875 0.9375 2.45
1.1875 1 2.3875
1.1875 0.9375 2.3875
1.375 0.9375 2.45
1.375 1 2.3875
1.3125 1 2.45
1.375 0.9375 2.3875
1.3125 0.9375 2.45
1.3125 1 2.3875
1.3125 0.9375 2.3875
1.5 0.9375 2.45
1.5 1 2.3875
1.4375 1 2.45
1.5 0.9375 2.3875
1.4375 0.9375 2.45
1.4375 1 2.3875
1.4375 0.9375 2.3875
1.625 0.9375 2.45
1.625 1 2.3875
1.5625 1 2.45
1.625 0.9375 2.3875
1.5625 0.9375 2.45
1.5625 1 2.3875
1.5625 0.9375 2.3875
1.75 0.9375 2.45
1.75 1 2.3875
1.6875 1 2.45
1.75 0.9375 2.3875
1.6875 0.9375 2.45
1.6875 1 2.3875
1.6875 0.9375 2.3875
1.875 0.9375 2.45
1.875 1 2.3875
1.8125 1 2.45
1.875 0.9375 2.3875
1.8125 0.9375 2.45
1.8125 1 2.3875
1.8125 0.9375 2.3875
2 0.9375 2.45
2 1 2.3875
1.9375 1 2.45
2 0.9375 2.3875
1.9375 0.9375 2.45
1.9375 1 2.3875
1.9375 0.9375 2.3875
2.125 0.9375 2.45
2.125 1 2.3875
2.0625 1 2.45
2.125 0.9375 2.3875
2.0625 0.9375 2.45
2.0625 1 2.3875
2.0625 0.9375 2.3875
2.25 0.9375 2.45
2.25 1 2.3875
2.1875 1 2.45
2.25 0.9375 2.3875
2.1875 0.9375 2.45
2.1875 1 2.3875
2.1875 0.9375 2.3875
2.375 0.9375 2.45
2.375 1 2.3875
2.3125 1 2.45
2.375 0.9375 2.3875
2.3125 0.9375 2.45
2.3125 1 2.3875
2.3125 0.9375 2.3875
2.5 0.9375 2.45
2.5 1 2.3875
2.4375 1 2.45
2.5 0.9375 2.3875
2.4375 0.9375 2.45
2.4375 1 2.3875
2.4375 0.9375 2.3875
2.625 0.9375 2.45
2.625 1 2.3875
2.5625 1 2.45
2.625 0.9375 2.3875
2.5625 0.9375 2.45
2.5625 1 2.3875
2.5625 0.9375 2.3875
2.75 0.9375 2.45
2.75 1 2.3875
2.6875 1 2.45
2.75 0.9375 2.3875
2.6875 0.9375 2.45
2.6875 1 2.3875
2.6875 0.9375 2.3875
2.875 0.9375 2.45
2.875 1 2.3875
2.8125 1 2.45
2.875 0.9375 2.3875
2.8125 0.9375 2.45
2.8125 1 2.3875
2.8125 0.9375 2.3875
3 0.9375 2.45
3 1 2.3875
2.9375 1 2.45
3 0.9375 2.3875
2.9375 0.9375 2.45
2.9375 1 2.3875
2.9375 0.9375 2.3875
0.125 0 2.5125
0.0625 0 2.575
0 0 2.5125
0.125 0.0625 2.575
0 0.0625 2.575
0.125 0.125 2.5125
0.0625 0.125 2.575
0 0.125 2.5125
0.0625 0 2.5125
0.125 0.0625 2.5125
0.0625 0.0625 2.575
0 0.0625 2.5125
0.0625 0.125 2.5125
0.0625 0.0625 2.5125
0.25 0 2.5125
0.1875 0 2.575
0.25 0.0625 2.575
0.25 0.125 2.5125
0.1875 0.125 2.575
0.1875 0 2.5125
0.25 0.0625 2.5125
0.1875 0.0625 2.575
0.1875 0.125 2.5125
0.1875 0.0625 2.5125
0.375 0 2.5125
0.3125 0 2.575
0.375 0.0625 2.575
0.375 0.125 2.5125
0.3125 0.125 2.575
0.3125 0 2.5125
0.375 0.0625 2.5125
0.3125 0.0625 2.575
0.3125 0.125 2.5125
0.3125 0.0625 2.5125
0.5 0 2.5125
0.4375 0 2.575
0.5 0.0625 2.575
0.5 0.125 2.5125
0.4375 0.125 2.575
0.4375 0 2.5125
0.5 0.0625 2.5125
0.4375 0.0625 2.575
0.4375 0.125 2.5125
0.4375 0.0625 2.5125
0.625 0 2.5125
0.5625 0 2.575
0.625 0.0625 2.575
0.625 0.125 2.5125
0.5625 0.125 2.575
0.5625 0 2.5125
0.625 0.0625 2.5125
0.5625 0.0625 2.575
0.5625 0.125 2.5125
0.5625 0.0625 2.5125
0.75 0 2.5125
0.6875 0 2.575
0.75 0.0625 2.575
0.75 0.125 2.5125
0.6875 0.125 2.575
0.6875 0 2.5125
0.75 0.0625 2.5125
0.6875 0.0625 2.575
0.6875 0.125 2.5125
0.6875 0.0625 2.5125
0.875 0 2.5125
0.8125 0 2.575
0.875 0.0625 2.575
0.875 0.125 2.5125
0.8125 0.125 2.575
0.8125 0 2.5125
0.875 0.0625 2.5125
0.8125 0.0625 2.575
0.8125 0.125 2.5125
0.8125 0.0625 2.5125
1 0 2.5125
0.9375 0 2.575
1 0.0625 2.575
1 0.125 2.5125
0.9375 0.125 2.575
0.9375 0 2.5125
1 0.0625 2.5125
0.9375 0.0625 2.575
0.9375 0.125 2.5125
0.9375 0.0625 2.5125
1.125 0 2.5125
1.0625 0 2.575
1.125 0.0625 2.575
1.125 0.125 2.5125
1.0625 0.125 2.575
1.0625 0 2.5125
1.125 0.0625 2.5125
1.0625 0.0625 2.575
1.0625 0.125 2.5125
1.0625 0.0625 2.5125
1.25 0 2.5125
1.1875 0 2.575
1.25 0.0625 2.575
1.25 0.125 2.5125
1.1875 0.125 2.575
1.1875 0 2.5125
1.25 0.0625 2.5125
1.1875 0.0625 2.575
1.1875 0.125 2.5125
1.1875 0.0625 2.5125
1.375 0 2.5125
1.3125 0 2.575
1.375 0.0625 2.575
1.375 0.125 2.5125
1.3125 0.125 2.575
1.3125 0 2.5125
1.375 0.0625 2.5125
1.3125 0.0625 2.575
1.3125 0.125 2.5125
1.3125 0.0625 2.5125
1.5 0 2.5125
1.4375 0 2.575
1.5 0.0625 2.575
1.5 0.125 2.5125
1.4375 0.125 2.575
1.4375 0 2.5125
1.5 0.0625 2.5125
1.4375 0.0625 2.575
1.4375 0.125 2.5125
1.4375 0.0625 2.5125
1.625 0 2.5125
1.5625 0 2.575
1.625 0.0625 2.575
1.625 0.125 2.5125
1.5625 0.125 2.575
1.5625 0 2.5125
1.625 0.0625 2.5125
1.5625 0.0625 2.575
1.5625 0.125 2.5125
1.5625 0.0625 2.5125
1.75 0 2.5125
1.6875 0 2.575
1.75 0.0625 2.575
1.75 0.125 2.5125
1.6875 0.125 2.575
1.6875 0 2.5125
1.75 0.0625 2.5125
1.6875 0.0625 2.575
1.6875 0.125 2.5125
1.6875 0.0625 2.5125
1.875 0 2.5125
1.8125 0 2.575
1.875 0.0625 2.575
1.875 0.125 2.5125
1.8125 0.125 2.575
1.8125 0 2.5125
1.875 0.0625 2.5125
1.8125 0.0625 2.575
1.8125 0.125 2.5125
1.8125 0.0625 2.5125
2 0 2.5125
1.9375 0 2.575
2 0.0625 2.575
2 0.125 2.5125
1.9375 0.125 2.575
1.9375 0 2.5125
2 0.0625 2.5125
1.9375 0.0625 2.575
1.9375 0.125 2.5125
1.9375 0.0625 2.5125
2.125 0 2.5125
2.0625 0 2.575
2.125 0.0625 2.575
2.125 0.125 2.5125
2.0625 0.125 2.575
2.0625 0 2.5125
2.125 0.0625 2.5125
2.0625 0.0625 2.575
2.0625 0.125 2.5125
2.0625 0.0625 2.5125
2.25 0 2.5125
2.1875 0 2.575
2.25 0.0625 2.575
2.25 0.125 2.5125
2.1875 0.125 2.575
2.1875 0 2.5125
2.25 0.0625 2.5125
2.1875 0.0625 2.575
2.1875 0.125 2.5125
2.1875 0.0625 2.5125
2.375 0 2.5125
2.3125 0 2.575
2.375 0.0625 2.575
2.375 0.125 2.5125
2.3125 0.125 2.575
2.3125 0 2.5125
2.375 0.0625 2.5125
2.3125 0.0625 2.575
2.3125 0.125 2.5125
2.3125 0.0625 2.5125
2.5 0 2.5125
2.4375 0 2.575
2.5 0.0625 2.575
2.5 0.125 2.5125
2.4375 0.125 2.575
2.4375 0 2.5125
2.5 0.0625 2.5125
2.4375 0.0625 2.575
2.4375 0.125 2.5125
2.4375 0.0625 2.5125
2.625 0 2.5125
2.5625 0 2.575
2.625 0.0625 2.575
2.625 0.125 2.5125
2.5625 0.125 2.575
2.5625 0 2.5125
2.625 0.0625 2.5125
2.5625 0.0625 2.575
2.5625 0.125 2.5125
2.5625 0.0625 2.5125
2.75 0 2.5125
2.6875 0 2.575
2.75 0.0625 2.575
2.75 0.125 2.5125
2.6875 0.125 2.575
2.6875 0 2.5125
2.75 0.0625 2.5125
2.6875 0.0625 2.575
2.6875 0.125 2.5125
2.6875 0.0625 2.5125
2.875 0 2.5125
2.8125 0 2.575
2.875 0.0625 2.575
2.875 0.125 2.5125
2.8125 0.125 2.575
2.8125 0 2.5125
2.875 0.0625 2.5125
2.8125 0.0625 2.575
2.8125 0.125 2.5125
2.8125 0.0625 2.5125
3 0 2.5125
2.9375 0 2.575
3 0.0625 2.575
3 0.125 2.5125
2.9375 0.125 2.575
2.9375 0 2.5125
3 0.0625 2.5125
2.9375 0.0625 2.575
2.9375 0.125 2.5125
2.9375 0.0625 2.5125
0.125 0.1875 2.575
0 0.1875 2.575
0.125 0.25 2.5125
0.0625 0.25 2.575
0 0.25 2.5125
0.125 0.1875 2.5125
0.0625 0.1875 2.575
0 0.1875 2.5125
0.0625 0.25 2.5125
0.0625 0.1875 2.5125
0.25 0.1875 2.575
0.25 0.25 2.5125
0.1875 0.25 2.575
0.25 0.1875 2.5125
0.1875 0.1875 2.575
0.1875 0.25 2.5125
0.1875 0.1875 2.5125
0.375 0.1875 2.575
0.375 0.25 2.5125
0.3125 0.25 2.575
0.375 0.1875 2.5125
0.3125 0.1875 2.575
0.3125 0.25 2.5125
0.3125 0.1875 2.5125
0.5 0.1875 2.575
0.5 0.25 2.5125
0.4375 0.25 2.575
0.5 0.1875 2.5125
0.4375 0.1875 2.575
0.4375 0.25 2.5125
0.4375 0.1875 2.5125
0.625 0.1875 2.575
0.625 0.25 2.5125
0.5625 0.25 2.575
0.625 0.1875 2.5125
0.5625 0.1875 2.575
0.5625 0.25 2.5125
0.5625 0.1875 2.5125
0.75 0.1875 2.575
0.75 0.25 2.5125
0.6875 0.25 2.575
0.75 0.1875 2.5125
0.6875 0.1875 2.575
0.6875 0.25 2.5125
0.6875 0.1875 2.5125
0.875 0.1875 2.575
0.875 0.25 2.5125
0.8125 0.25 2.575
0.875 0.1875 2.5125
0.8125 0.1875 2.575
0.8125 0.25 2.5125
0.8125 0.1875 2.5125
1 0.1875 2.575
1 0.25 2.5125
0.9375 0.25 2.575
1 0.1875 2.5125
0.9375 0.1875 2.575
0.9375 0.25 2.5125
0.9375 0.1875 2.5125
1.125 0.1875 2.575
1.125 0.25 2.5125
1.0625 0.25 2.575
1.125 0.1875 2.5125
1.0625 0.1875 2.575
1.0625 0.25 2.5125
1.0625 0.1875 2.5125
1.25 0.1875 2.575
1.25 0.25 2.5125
1.1875 0.25 2.575
1.25 0.1875 2.5125
1.1875 0.1875 2.575
1.1875 0.25 2.5125
1.1875 0.1875 2.5125
1.375 0.1875 2.575
1.375 0.25 2.5125
1.3125 0.25 2.575
1.375 0.1875 2.5125
1.3125 0.1875 2.575
1.3125 0.25 2.5125
1.3125 0.1875 2.5125
1.5 0.1875 2.575
1.5 0.25 2.5125
1.4375 0.25 2.575
1.5 0.1875 2.5125
1.4375 0.1875 2.575
1.4375 0.25 2.5125
1.4375 0.1875 2.5125
1.625 0.1875 2.575
1.625 0.25 2.5125
1.5625 0.25 2.575
1.625 0.1875 2.5125
1.5625 0.1875 2.575
1.5625 0.25 2.5125
1.5625 0.1875 2.5125
1.75 0.1875 2.575
1.75 0.25 2.5125
1.6875 0.25 2.575
1.75 0.1875 2.5125
1.6875 0.1875 2.575
1.6875 0.25 2.5125
1.6875 0.1875 2.5125
1.875 0.1875 2.575
1.875 0.25 2.5125
1.8125 0.25 2.575
1.875 0.1875 2.5125
1.8125 0.1875 2.575
1.8125 0.25 2.5125
1.8125 0.1875 2.5125
2 0.1875 2.575
2 0.25 2.5125
1.9375 0.25 2.575
2 0.1875 2.5125
1.9375 0.1875 2.575
1.9375 0.25 2.5125
1.9375 0.1875 2.5125
2.125 0.1875 2.575
2.125 0.25 2.5125
2.0625 0.25 2.575
2.125 0.1875 2.5125
2.0625 0.1875 2.575
2.0625 0.25 2.5125
2.0625 0.1875 2.5125
2.25 0.1875 2.575
2.25 0.25 2.5125
2.1875 0.25 2.575
2.25 0.1875 2.5125
2.1875 0.1875 2.575
2.1875 0.25 2.5125
2.1875 0.1875 2.5125
2.375 0.1875 2.575
2.375 0.25 2.5125
2.3125 0.25 2.575
2.375 0.1875 2.5125
2.3125 0.1875 2.575
2.3125 0.25 2.5125
2.3125 0.1875 2.5125
2.5 0.1875 2.575
2.5 0.25 2.5125
2.4375 0.25 2.575
2.5 0.1875 2.5125
2.4375 0.1875 2.575
2.4375 0.25 2.5125
2.4375 0.1875 2.5125
2.625 0.1875 2.575
2.625 0.25 2.5125
2.5625 0.25 2.575
2.625 0.1875 2.5125
2.5625 0.1875 2.575
2.5625 0.25 2.5125
2.5625 0.1875 2.5125
2.75 0.1875 2.575
2.75 0.25 2.5125
2.6875 0.25 2.575
2.75 0.1875 2.5125
2.6875 0.1875 2.575
2.6875 0.25 2.5125
2.6875 0.1875 2.5125
2.875 0.1875 2.575
2.875 0.25 2.5125
2.8125 0.25 2.575
2.875 0.1875 2.5125
2.8125 0.1875 2.575
2.8125 0.25 2.5125
2.8125 0.1875 2.5125
3 0.1875 2.575
3 0.25 2.5125
2.9375 0.25 2.575
3 0.1875 2.5125
2.9375 0.1875 2.575
2.9375 0.25 2.5125
2.9375 0.1875 2.5125
0.125 0.3125 2.575
0 0.3125 2.575
0.125 0.375 2.5125
0.0625 0.375 2.575
0 0.375 2.5125
0.125 0.3125 2.5125
0.0625 0.3125 2.575
0 0.3125 2.5125
0.0625 0.375 2.5125
0.0625 0.3125 2.5125
0.25 0.3125 2.575
0.25 0.375 2.5125
0.1875 0.375 2.575
0.25 0.3125 2.5125
0.1875 0.3125 2.575
0.1875 0.375 2.5125
0.1875 0.3125 2.5125
0.375 0.3125 2.575
0.375 0.375 2.5125
0.3125 0.375 2.575
0.375 0.3125 2.5125
0.3125 0.3125 2.575
0.3125 0.375 2.5125
0.3125 0.3125 2.5125
0.5 0.3125 2.575
0.5 0.375 2.5125
0.4375 0.375 2.575
0.5 0.3125 2.5125
0.4375 0.3125 2.575
0.4375 0.375 2.5125
0.4375 0.3125 2.5125
0.625 0.3125 2.575
0.625 0.375 2.5125
0.5625 0.375 2.575
0.625 0.3125 2.5125
0.5625 0.3125 2.575
0.5625 0.375 2.5125
0.5625 0.3125 2.5125
0.75 0.3125 2.575
0.75 0.375 2.5125
0.6875 0.375 2.575
0.75 0.3125 2.5125
0.6875 0.3125 2.575
0.6875 0.375 2.5125
0.6875 0.3125 2.5125
0.875 0.3125 2.575
0.875 0.375 2.5125
0.8125 0.375 2.575
0.875 0.3125 2.5125
0.8125 0.3125 2.575
0.8125 0.375 2.5125
0.8125 0.3125 2.5125
1 0.3125 2.575
1 0.375 2.5125
0.9375 0.375 2.575
1 0.3125 2.5125
0.9375 0.3125 2.575
0.9375 0.375 2.5125
0.9375 0.3125 2.5125
1.125 0.3125 2.575
1.125 0.375 2.5125
1.0625 0.375 2.575
1.125 0.3125 2.5125
1.0625 0.3125 2.575
1.0625 0.375 2.5125
1.0625 0.3125 2.5125
1.25 0.3125 2.575
1.25 0.375 2.5125
1.1875 0.375 2.575
1.25 0.3125 2.5125
1.1875 0.3125 2.575
1.1875 0.375 2.5125
1.1875 0.3125 2.5125
1.375 0.3125 2.575
1.375 0.375 2.5125
1.3125 0.375 2.575
1.375 0.3125 2.5125
1.3125 0.3125 2.575
1.3125 0.375 2.5125
1.3125 0.3125 2.5125
1.5 0.3125 2.575
1.5 0.375 2.5125
1.4375 0.375 2.575
1.5 0.3125 2.5125
1.4375 0.3125 2.575
1.4375 0.375 2.5125
1.4375 0.3125 2.5125
1.625 0.3125 2.575
1.625 0.375 2.5125
1.5625 0.375 2.575
1.625 0.3125 2.5125
1.5625 0.3125 2.575
1.5625 0.375 2.5125
1.5625 0.3125 2.5125
1.75 0.3125 2.575
1.75 0.375 2.5125
1.6875 0.375 2.575
1.75 0.3125 2.5125
1.6875 0.3125 2.575
1.6875 0.375 2.5125
1.6875 0.3125 2.5125
1.875 0.3125 2.575
1.875 0.375 2.5125
1.8125 0.375 2.575
1.875 0.3125 2.5125
1.8125 0.3125 2.575
1.8125 0.375 2.5125
1.8125 0.3125 2.5125
2 0.3125 2.575
2 0.375 2.5125
1.9375 0.375 2.575
2 0.3125 2.5125
1.9375 0.3125 2.575
1.9375 0.375 2.5125
1.9375 0.3125 2.5125
2.125 0.3125 2.575
2.125 0.375 2.5125
2.0625 0.375 2.575
2.125 0.3125 2.5125
2.0625 0.3125 2.575
2.0625 0.375 2.5125
2.0625 0.3125 2.5125
2.25 0.3125 2.575
2.25 0.375 2.5125
2.1875 0.375 2.575
2.25 0.3125 2.5125
2.1875 0.3125 2.575
2.1875 0.375 2.5125
2.1875 0.3125 2.5125
2.375 0.3125 2.575
2.375 0.375 2.5125
2.3125 0.375 2.575
2.375 0.3125 2.5125
2.3125 0.3125 2.575
2.3125 0.375 2.5125
2.3125 0.3125 2.5125
2.5 0.3125 2.575
2.5 0.375 2.5125
2.4375 0.375 2.575
2.5 0.3125 2.5125
2.4375 0.3125 2.575
2.4375 0.375 2.5125
2.4375 0.3125 2.5125
2.625 0.3125 2.575
2.625 0.375 2.5125
2.5625 0.375 2.575
2.625 0.3125 2.5125
2.5625 0.3125 2.575
2.5625 0.375 2.5125
2.5625 0.3125 2.5125
2.75 0.3125 2.575
2.75 0.375 2.5125
2.6875 0.375 2.575
2.75 0.3125 2.5125
2.6875 0.3125 2.575
2.6875 0.375 2.5125
2.6875 0.3125 2.5125
2.875 0.3125 2.575
2.875 0.375 2.5125
2.8125 0.375 2.575
2.875 0.3125 2.5125
2.8125 0.3125 2.575
2.8125 0.375 2.5125
2.8125 0.3125 2.5125
3 0.3125 2.575
3 0.375 2.5125
2.9375 0.375 2.575
3 0.3125 2.5125
2.9375 0.3125 2.575
2.9375 0.375 2.5125
2.9375 0.3125 2.5125
0.125 0.4375 2.575
0 0.4375 2.575
0.125 0.5 2.5125
0.0625 0.5 2.575
0 0.5 2.5125
0.125 0.4375 2.5125
0.0625 0.4375 2.575
0 0.4375 2.5125
0.0625 0.5 2.5125
0.0625 0.4375 2.5125
0.25 0.4375 2.575
0.25 0.5 2.5125
0.1875 0.5 2.575
0.25 0.4375 2.5125
0.1875 0.4375 2.575
0.1875 0.5 2.5125
0.1875 0.4375 2.5125
0.375 0.4375 2.575
0.375 0.5 2.5125
0.3125 0.5 2.575
0.375 0.4375 2.5125
0.3125 0.4375 2.575
0.3125 0.5 2.5125
0.3125 0.4375 2.5125
0.5 0.4375 2.575
0.5 0.5 2.5125
0.4375 0.5 2.575
0.5 0.4375 2.5125
0.4375 0.4375 2.575
0.4375 0.5 2.5125
0.4375 0.4375 2.5125
0.625 0.4375 2.575
0.625 0.5 2.5125
0.5625 0.5 2.575
0.625 0.4375 2.5125
0.5625 0.4375 2.575
0.5625 0.5 2.5125
0.5625 0.4375 2.5125
0.75 0.4375 2.575
0.75 0.5 2.5125
0.6875 0.5 2.575
0.75 0.4375 2.5125
0.6875 0.4375 2.575
0.6875 0.5 2.5125
0.6875 0.4375 2.5125
0.875 0.4375 2.575
0.875 0.5 2.5125
0.8125 0.5 2.575
0.875 0.4375 2.5125
0.8125 0.4375 2.575
0.8125 0.5 2.5125
0.8125 0.4375 2.5125
1 0.4375 2.575
1 0.5 2.5125
0.9375 0.5 2.575
1 0.4375 2.5125
0.9375 0.4375 2.575
0.9375 0.5 2.5125
0.9375 0.4375 2.5125
1.125 0.4375 2.575
1.125 0.5 2.5125
1.0625 0.5 2.575
1.125 0.4375 2.5125
1.0625 0.4375 2.575
1.0625 0.5 2.5125
1.0625 0.4375 2.5125
1.25 0.4375 2.575
1.25 0.5 2.5125
1.1875 0.5 2.575
1.25 0.4375 2.5125
1.1875 0.4375 2.575
1.1875 0.5 2.5125
1.1875 0.4375 2.5125
1.375 0.4375 2.575
1.375 0.5 2.5125
1.3125 0.5 2.575
1.375 0.4375 2.5125
1.3125 0.4375 2.575
1.3125 0.5 2.5125
1.3125 0.4375 2.5125
1.5 0.4375 2.575
1.5 0.5 2.5125
1.4375 0.5 2.575
1.5 0.4375 2.5125
1.4375 0.4375 2.575
1.4375 0.5 2.5125
1.4375 0.4375 2.5125
1.625 0.4375 2.575
1.625 0.5 2.5125
1.5625 0.5 2.575
1.625 0.4375 2.5125
1.5625 0.4375 2.575
1.5625 0.5 2.5125
1.5625 0.4375 2.5125
1.75 0.4375 2.575
1.75 0.5 2.5125
1.6875 0.5 2.575
1.75 0.4375 2.5125
1.6875 0.4375 2.575
1.6875 0.5 2.5125
1.6875 0.4375 2.5125
1.875 0.4375 2.575
1.875 0.5 2.5125
1.8125 0.5 2.575
1.875 0.4375 2.5125
1.8125 0.4375 2.575
1.8125 0.5 2.5125
1.8125 0.4375 2.5125
2 0.4375 2.575
2 0.5 2.5125
1.9375 0.5 2.575
2 0.4375 2.5125
1.9375 0.4375 2.575
1.9375 0.5 2.5125
1.9375 0.4375 2.5125
2.125 0.4375 2.575
2.125 0.5 2.5125
2.0625 0.5 2.575
2.125 0.4375 2.5125
2.0625 0.4375 2.575
2.0625 0.5 2.5125
2.0625 0.4375 2.5125
2.25 0.4375 2.575
2.25 0.5 2.5125
2.1875 0.5 2.575
2.25 0.4375 2.5125
2.1875 0.4375 2.575
2.1875 0.5 2.5125
2.1875 0.4375 2.5125
2.375 0.4375 2.575
2.375 0.5 2.5125
2.3125 0.5 2.575
2.375 0.4375 2.5125
2.3125 0.4375 2.575
2.3125 0.5 2.5125
2.3125 0.4375 2.5125
2.5 0.4375 2.575
2.5 0.5 2.5125
2.4375 0.5 2.575
2.5 0.4375 2.5125
2.4375 0.4375 2.575
2.4375 0.5 2.5125
2.4375 0.4375 2.5125
2.625 0.4375 2.575
2.625 0.5 2.5125
2.5625 0.5 2.575
2.625 0.4375 2.5125
2.5625 0.4375 2.575
2.5625 0.5 2.5125
2.5625 0.4375 2.5125
2.75 0.4375 2.575
2.75 0.5 2.5125
2.6875 0.5 2.575
2.75 0.4375 2.5125
2.6875 0.4375 2.575
2.6875 0.5 2.5125
2.6875 0.4375 2.5125
2.875 0.4375 2.575
2.875 0.5 2.5125
2.8125 0.5 2.575
2.875 0.4375 2.5125
2.8125 0.4375 2.575
2.8125 0.5 2.5125
2.8125 0.4375 2.5125
3 0.4375 2.575
3 0.5 2.5125
2.9375 0.5 2.575
3 0.4375 2.5125
2.9375 0.4375 2.575
2.9375 0.5 2.5125
2.9375 0.4375 2.5125
0.125 0.5625 2.575
0 0.5625 2.575
0.125 0.625 2.5125
0.0625 0.625 2.575
0 0.625 2.5125
0.125 0.5625 2.5125
0.0625 0.5625 2.575
0 0.5625 2.5125
0.0625 0.625 2.5125
0.0625 0.5625 2.5125
0.25 0.5625 2.575
0.25 0.625 2.5125
0.1875 0.625 2.575
0.25 0.5625 2.5125
0.1875 0.5625 2.575
0.1875 0.625 2.5125
0.1875 0.5625 2.5125
0.375 0.5625 2.575
0.375 0.625 2.5125
0.3125 0.625 2.575
0.375 0.5625 2.5125
0.3125 0.5625 2.575
0.3125 0.625 2.5125
0.3125 0.5625 2.5125
0.5 0.5625 2.575
0.5 0.625 2.5125
0.4375 0.625 2.575
0.5 0.5625 2.5125
0.4375 0.5625 2.575
0.4375 0.625 2.5125
0.4375 0.5625 2.5125
0.625 0.5625 2.575
0.625 0.625 2.5125
0.5625 0.625 2.575
0.625 0.5625 2.5125
0.5625 0.5625 2.575
0.5625 0.625 2.5125
0.5625 0.5625 2.5125
0.75 0.5625 2.575
0.75 0.625 2.5125
0.6875 0.625 2.575
0.75 0.5625 2.5125
0.6875 0.5625 2.575
0.6875 0.625 2.5125
0.6875 0.5625 2.5125
0.875 0.5625 2.575
0.875 0.625 2.5125
0.8125 0.625 2.575
0.875 0.5625 2.5125
0.8125 0.5625 2.575
0.8125 0.625 2.5125
0.8125 0.5625 2.5125
1 0.5625 2.575
1 0.625 2.5125
0.9375 0.625 2.575
1 0.5625 2.5125
0.9375 0.5625 2.575
0.9375 0.625 2.5125
0.9375 0.5625 2.5125
1.125 0.5625 2.575
1.125 0.625 2.5125
1.0625 0.625 2.575
1.125 0.5625 2.5125
1.0625 0.5625 2.575
1.0625 0.625 2.5125
1.0625 0.5625 2.5125
1.25 0.5625 2.575
1.25 0.625 2.5125
1.1875 0.625 2.575
1.25 0.5625 2.5125
1.1875 0.5625 2.575
1.1875 0.625 2.5125
1.1875 0.5625 2.5125
1.375 0.5625 2.575
1.375 0.625 2.5125
1.3125 0.625 2.575
1.375 0.5625 2.5125
1.3125 0.5625 2.575
1.3125 0.625 2.5125
1.3125 0.5625 2.5125
1.5 0.5625 2.575
1.5 0.625 2.5125
1.4375 0.625 2.575
1.5 0.5625 2.5125
1.4375 0.5625 2.575
1.4375 0.625 2.5125
1.4375 0.5625 2.5125
1.625 0.5625 2.575
1.625 0.625 2.5125
1.5625 0.625 2.575
1.625 0.5625 2.5125
1.5625 0.5625 2.575
1.5625 0.625 2.5125
1.5625 0.5625 2.5125
1.75 0.5625 2.575
1.75 0.625 2.5125
1.6875 0.625 2.575
1.75 0.5625 2.5125
1.6875 0.5625 2.575
1.6875 0.625 2.5125
1.6875 0.5625 2.5125
1.875 0.5625 2.575
1.875 0.625 2.5125
1.8125 0.625 2.575
1.875 0.5625 2.5125
1.8125 0.5625 2.575
1.8125 0.625 2.5125
1.8125 0.5625 2.5125
2 0.5625 2.575
2 0.625 2.5125
1.9375 0.625 2.575
2 0.5625 2.5125
1.9375 0.5625 2.575
1.9375 0.625 2.5125
1.9375 0.5625 2.5125
2.125 0.5625 2.575
2.125 0.625 2.5125
2.0625 0.625 2.575
2.125 0.5625 2.5125
2.0625 0.5625 2.575
2.0625 0.625 2.5125
2.0625 0.5625 2.5125
2.25 0.5625 2.575
2.25 0.625 2.5125
2.1875 0.625 2.575
2.25 0.5625 2.5125
2.1875 0.5625 2.575
2.1875 0.625 2.5125
2.1875 0.5625 2.5125
2.375 0.5625 2.575
2.375 0.625 2.5125
2.3125 0.625 2.575
2.375 0.5625 2.5125
2.3125 0.5625 2.575
2.3125 0.625 2.5125
2.3125 0.5625 2.5125
2.5 0.5625 2.575
2.5 0.625 2.5125
2.4375 0.625 2.575
2.5 0.5625 2.5125
2.4375 0.5625 2.575
2.4375 0.625 2.5125
2.4375 0.5625 2.5125
2.625 0.5625 2.575
2.625 0.625 2.5125
2.5625 0.625 2.575
2.625 0.5625 2.5125
2.5625 0.5625 2.575
2.5625 0.625 2.5125
2.5625 0.5625 2.5125
2.75 0.5625 2.575
2.75 0.625 2.5125
2.6875 0.625 2.575
2.75 0.5625 2.5125
2.6875 0.5625 2.575
2.6875 0.625 2.5125
2.6875 0.5625 2.5125
2.875 0.5625 2.575
2.875 0.625 2.5125
2.8125 0.625 2.575
2.875 0.5625 2.5125
2.8125 0.5625 2.575
2.8125 0.625 2.5125
2.8125 0.5625 2.5125
3 0.5625 2.575
3 0.625 2.5125
2.9375 0.625 2.575
3 0.5625 2.5125
2.9375 0.5625 2.575
2.9375 0.625 2.5125
2.9375 0.5625 2.5125
0.125 0.6875 2.575
0 0.6875 2.575
0.125 0.75 2.5125
0.0625 0.75 2.575
0 0.75 2.5125
0.125 0.6875 2.5125
0.0625 0.6875 2.575
0 0.6875 2.5125
0.0625 0.75 2.5125
0.0625 0.6875 2.5125
0.25 0.6875 2.575
0.25 0.75 2.5125
0.1875 0.75 2.575
0.25 0.6875 2.5125
0.1875 0.6875 2.575
0.1875 0.75 2.5125
0.1875 0.6875 2.5125
0.375 0.6875 2.575
0.375 0.75 2.5125
0.3125 0.75 2.575
0.375 0.6875 2.5125
0.3125 0.6875 2.575
0.3125 0.75 2.5125
0.3125 0.6875 2.5125
0.5 0.6875 2.575
0.5 0.75 2.5125
0.4375 0.75 2.575
0.5 0.6875 2.5125
0.4375 0.6875 2.575
0.4375 0.75 2.5125
0.4375 0.6875 2.5125
0.625 0.6875 2.575
0.625 0.75 2.5125
0.5625 0.75 2.575
0.625 0.6875 2.5125
0.5625 0.6875 2.575
0.5625 0.75 2.5125
0.5625 0.6875 2.5125
0.75 0.6875 2.575
0.75 0.75 2.5125
0.6875 0.75 2.575
0.75 0.6875 2.5125
0.6875 0.6875 2.575
0.6875 0.75 2.5125
0.6875 0.6875 2.5125
0.875 0.6875 2.575
0.875 0.75 2.5125
0.8125 0.75 2.575
0.875 0.6875 2.5125
0.8125 0.6875 2.575
0.8125 0.75 2.5125
0.8125 0.6875 2.5125
1 0.6875 2.575
1 0.75 2.5125
0.9375 0.75 2.575
1 0.6875 2.5125
0.9375 0.6875 2.575
0.9375 0.75 2.5125
0.9375 0.6875 2.5125
1.125 0.6875 2.575
1.125 0.75 2.5125
1.0625 0.75 2.575
1.125 0.6875 2.5125
1.0625 0.6875 2.575
1.0625 0.75 2.5125
1.0625 0.6875 2.5125
1.25 0.6875 2.575
1.25 0.75 2.5125
1.1875 0.75 2.575
1.25 0.6875 2.5125
1.1875 0.6875 2.575
1.1875 0.75 2.5125
1.1875 0.6875 2.5125
1.375 0.6875 2.575
1.375 0.75 2.5125
1.3125 0.75 2.575
1.375 0.6875 2.5125
1.3125 0.6875 2.575
1.3125 0.75 2.5125
1.3125 0.6875 2.5125
1.5 0.6875 2.575
1.5 0.75 2.5125
1.4375 0.75 2.575
1.5 0.6875 2.5125
1.4375 0.6875 2.575
1.4375 0.75 2.5125
1.4375 0.6875 2.5125
1.625 0.6875 2.575
1.625 0.75 2.5125
1.5625 0.75 2.575
1.625 0.6875 2.5125
1.5625 0.6875 2.575
1.5625 0.75 2.5125
1.5625 0.6875 2.5125
1.75 0.6875 2.575
1.75 0.75 2.5125
1.6875 0.75 2.575
1.75 0.6875 2.5125
1.6875 0.6875 2.575
1.6875 0.75 2.5125
1.6875 0.6875 2.5125
1.875 0.6875 2.575
1.875 0.75 2.5125
1.8125 0.75 2.575
1.875 0.6875 2.5125
1.8125 0.6875 2.575
1.8125 0.75 2.5125
1.8125 0.6875 2.5125
2 0.6875 2.575
2 0.75 2.5125
1.9375 0.75 2.575
2 0.6875 2.5125
1.9375 0.6875 2.575
1.9375 0.75 2.5125
1.9375 0.6875 2.5125
2.125 0.6875 2.575
2.125 0.75 2.5125
2.0625 0.75 2.575
2.125 0.6875 2.5125
2.0625 0.6875 2.575
2.0625 0.75 2.5125
2.0625 0.6875 2.5125
2.25 0.6875 2.575
2.25 0.75 2.5125
2.1875 0.75 2.575
2.25 0.6875 2.5125
2.1875 0.6875 2.575
2.1875 0.75 2.5125
2.1875 0.6875 2.5125
2.375 0.6875 2.575
2.375 0.75 2.5125
2.3125 0.75 2.575
2.375 0.6875 2.5125
2.3125 0.6875 2.575
2.3125 0.75 2.5125
2.3125 0.6875 2.5125
2.5 0.6875 2.575
2.5 0.75 2.5125
2.4375 0.75 2.575
2.5 0.6875 2.5125
2.4375 0.6875 2.575
2.4375 0.75 2.5125
2.4375 0.6875 2.5125
2.625 0.6875 2.575
2.625 0.75 2.5125
2.5625 0.75 2.575
2.625 0.6875 2.5125
2.5625 0.6875 2.575
2.5625 0.75 2.5125
2.5625 0.6875 2.5125
2.75 0.6875 2.575
2.75 0.75 2.5125
2.6875 0.75 2.575
2.75 0.6875 2.5125
2.6875 0.6875 2.575
2.6875 0.75 2.5125
2.6875 0.6875 2.5125
2.875 0.6875 2.575
2.875 0.75 2.5125
2.8125 0.75 2.575
2.875 0.6875 2.5125
2.8125 0.6875 2.575
2.8125 0.75 2.5125
2.8125 0.6875 2.5125
3 0.6875 2.575
3 0.75 2.5125
2.9375 0.75 2.575
3 0.6875 2.5125
2.9375 0.6875 2.575
2.9375 0.75 2.5125
2.9375 0.6875 2.5125
0.125 0.8125 2.575
0 0.8125 2.575
0.125 0.875 2.5125
0.0625 0.875 2.575
0 0.875 2.5125
0.125 0.8125 2.5125
0.0625 0.8125 2.575
0 0.8125 2.5125
0.0625 0.875 2.5125
0.0625 0.8125 2.5125
0.25 0.8125 2.575
0.25 0.875 2.5125
0.1875 0.875 2.575
0.25 0.8125 2.5125
0.1875 0.8125 2.575
0.1875 0.875 2.5125
0.1875 0.8125 2.5125
0.375 0.8125 2.575
0.375 0.875 2.5125
0.3125 0.875 2.575
0.375 0.8125 2.5125
0.3125 0.8125 2.575
0.3125 0.875 2.5125
0.3125 0.8125 2.5125
0.5 0.8125 2.575
0.5 0.875 2.5125
0.4375 0.875 2.575
0.5 0.8125 2.5125
0.4375 0.8125 2.575
0.4375 0.875 2.5125
0.4375 0.8125 2.5125
0.625 0.8125 2.575
0.625 0.875 2.5125
0.5625 0.875 2.575
0.625 0.8125 2.5125
0.5625 0.8125 2.575
0.5625 0.875 2.5125
0.5625 0.8125 2.5125
0.75 0.8125 2.575
0.75 0.875 2.5125
0.6875 0.875 2.575
0.75 0.8125 2.5125
0.6875 0.8125 2.575
0.6875 0.875 2.5125
0.6875 0.8125 2.5125
0.875 0.8125 2.575
0.875 0.875 2.5125
0.8125 0.875 2.575
0.875 0.8125 2.5125
0.8125 0.8125 2.575
0.8125 0.875 2.5125
0.8125 0.8125 2.5125
1 0.8125 2.575
1 0.875 2.5125
0.9375 0.875 2.575
1 0.8125 2.5125
0.9375 0.8125 2.575
0.9375 0.875 2.5125
0.9375 0.8125 2.5125
1.125 0.8125 2.575
1.125 0.875 2.5125
1.0625 0.875 2.575
1.125 0.8125 2.5125
1.0625 0.8125 2.575
1.0625 0.875 2.5125
1.0625 0.8125 2.5125
1.25 0.8125 2.575
1.25 0.875 2.5125
1.1875 0.875 2.575
1.25 0.8125 2.5125
1.1875 0.8125 2.575
1.1875 0.875 2.5125
1.1875 0.8125 2.5125
1.375 0.8125 2.575
1.375 0.875 2.5125
1.3125 0.875 2.575
1.375 0.8125 2.5125
1.3125 0.8125 2.575
1.3125 0.875 2.5125
1.3125 0.8125 2.5125
1.5 0.8125 2.575
1.5 0.875 2.5125
1.4375 0.875 2.575
1.5 0.8125 2.5125
1.4375 0.8125 2.575
1.4375 0.875 2.5125
1.4375 0.8125 2.5125
1.625 0.8125 2.575
1.625 0.875 2.5125
1.5625 0.875 2.575
1.625 0.8125 2.5125
1.5625 0.8125 2.575
1.5625 0.875 2.5125
1.5625 0.8125 2.5125
1.75 0.8125 2.575
1.75 0.875 2.5125
1.6875 0.875 2.575
1.75 0.8125 2.5125
1.6875 0.8125 2.575
1.6875 0.875 2.5125
1.6875 0.8125 2.5125
1.875 0.8125 2.575
1.875 0.875 2.5125
1.8125 0.875 2.575
1.875 0.8125 2.5125
1.8125 0.8125 2.575
1.8125 0.875 2.5125
1.8125 0.8125 2.5125
2 0.8125 2.575
2 0.875 2.5125
1.9375 0.875 2.575
2 0.8125 2.5125
1.9375 0.8125 2.575
1.9375 0.875 2.5125
1.9375 0.8125 2.5125
2.125 0.8125 2.575
2.125 0.875 2.5125
2.0625 0.875 2.575
2.125 0.8125 2.5125
2.0625 0.8125 2.575
2.0625 0.875 2.5125
2.0625 0.8125 2.5125
2.25 0.8125 2.575
2.25 0.875 2.5125
2.1875 0.875 2.575
2.25 0.8125 2.5125
2.1875 0.8125 2.575
2.1875 0.875 2.5125
2.1875 0.8125 2.5125
2.375 0.8125 2.575
2.375 0.875 2.5125
2.3125 0.875 2.575
2.375 0.8125 2.5125
2.3125 0.8125 2.575
2.3125 0.875 2.5125
2.3125 0.8125 2.5125
2.5 0.8125 2.575
2.5 0.875 2.5125
2.4375 0.875 2.575
2.5 0.8125 2.5125
2.4375 0.8125 2.575
2.4375 0.875 2.5125
2.4375 0.8125 2.5125
2.625 0.8125 2.575
2.625 0.875 2.5125
2.5625 0.875 2.575
2.625 0.8125 2.5125
2.5625 0.8125 2.575
2.5625 0.875 2.5125
2.5625 0.8125 2.5125
2.75 0.8125 2.575
2.75 0.875 2.5125
2.6875 0.875 2.575
2.75 0.8125 2.5125
2.6875 0.8125 2.575
2.6875 0.875 2.5125
2.6875 0.8125 2.5125
2.875 0.8125 2.575
2.875 0.875 2.5125
2.8125 0.875 2.575
2.875 0.8125 2.5125
2.8125 0.8125 2.575
2.8125 0.875 2.5125
2.8125 0.8125 2.5125
3 0.8125 2.575
3 0.875 2.5125
2.9375 0.875 2.575
3 0.8125 2.5125
2.9375 0.8125 2.575
2.9375 0.875 2.5125
2.9375 0.8125 2.5125
0.125 0.9375 2.575
0 0.9375 2.575
0.125 1 2.5125
0.0625 1 2.575
0 1 2.5125
0.125 0.9375 2.5125
0.0625 0.9375 2.575
0 0.9375 2.5125
0.0625 1 2.5125
0.0625 0.9375 2.5125
0.25 0.9375 2.575
0.25 1 2.5125
0.1875 1 2.575
0.25 0.9375 2.5125
0.1875 0.9375 2.575
0.1875 1 2.5125
0.1875 0.9375 2.5125
0.375 0.9375 2.575
0.375 1 2.5125
0.3125 1 2.575
0.375 0.9375 2.5125
0.3125 0.9375 2.575
0.3125 1 2.5125
0.3125 0.9375 2.5125
0.5 0.9375 2.575
0.5 1 2.5125
0.4375 1 2.575
0.5 0.9375 2.5125
0.4375 0.9375 2.575
0.4375 1 2.5125
0.4375 0.9375 2.5125
0.625 0.9375 2.575
0.625 1 2.5125
0.5625 1 2.575
0.625 0.9375 2.5125
0.5625 0.9375 2.575
0.5625 1 2.5125
0.5625 0.9375 2.5125
0.75 0.9375 2.575
0.75 1 2.5125
0.6875 1 2.575
0.75 0.9375 2.5125
0.6875 0.9375 2.575
0.6875 1 2.5125
0.6875 0.9375 2.5125
0.875 0.9375 2.575
0.875 1 2.5125
0.8125 1 2.575
0.875 0.9375 2.5125
0.8125 0.9375 2.575
0.8125 1 2.5125
0.8125 0.9375 2.5125
1 0.9375 2.575
1 1 2.5125
0.9375 1 2.575
1 0.9375 2.5125
0.9375 0.9375 2.575
0.9375 1 2.5125
0.9375 0.9375 2.5125
1.125 0.9375 2.575
1.125 1 2.5125
1.0625 1 2.575
1.125 0.9375 2.5125
1.0625 0.9375 2.575
1.0625 1 2.5125
1.0625 0.9375 2.5125
1.25 0.9375 2.575
1.25 1 2.5125
1.1875 1 2.575
1.25 0.9375 2.5125
1.1875 0.9375 2.575
1.1875 1 2.5125
1.1875 0.9375 2.5125
1.375 0.9375 2.575
1.375 1 2.5125
1.3125 1 2.575
1.375 0.9375 2.5125
1.3125 0.9375 2.575
1.3125 1 2.5125
1.3125 0.9375 2.5125
1.5 0.9375 2.575
1.5 1 2.5125
1.4375 1 2.575
1.5 0.9375 2.5125
1.4375 0.9375 2.575
1.4375 1 2.5125
1.4375 0.9375 2.5125
1.625 0.9375 2.575
1.625 1 2.5125
1.5625 1 2.575
1.625 0.9375 2.5125
1.5625 0.9375 2.575
1.5625 1 2.5125
1.5625 0.9375 2.5125
1.75 0.9375 2.575
1.75 1 2.5125
1.6875 1 2.575
1.75 0.9375 2.5125
1.6875 0.9375 2.575
1.6875 1 2.5125
1.6875 0.9375 2.5125
1.875 0.9375 2.575
1.875 1 2.5125
1.8125 1 2.575
1.875 0.9375 2.5125
1.8125 0.9375 2.575
1.8125 1 2.5125
1.8125 0.9375 2.5125
2 0.9375 2.575
2 1 2.5125
1.9375 1 2.575
2 0.9375 2.5125
1.9375 0.9375 2.575
1.9375 1 2.5125
1.9375 0.9375 2.5125
2.125 0.9375 2.575
2.125 1 2.5125
2.0625 1 2.575
2.125 0.9375 2.5125
2.0625 0.9375 2.575
2.0625 1 2.5125
2.0625 0.9375 2.5125
2.25 0.9375 2.575
2.25 1 2.5125
2.1875 1 2.575
2.25 0.9375 2.5125
2.1875 0.9375 2.575
2.1875 1 2.5125
2.1875 0.9375 2.5125
2.375 0.9375 2.575
2.375 1 2.5125
2.3125 1 2.575
2.375 0.9375 2.5125
2.3125 0.9375 2.575
2.3125 1 2.5125
2.3125 0.9375 2.5125
2.5 0.9375 2.575
2.5 1 2.5125
2.4375 1 2.575
2.5 0.9375 2.5125
2.4375 0.9375 2.575
2.4375 1 2.5125
2.4375 0.9375 2.5125
2.625 0.9375 2.575
2.625 1 2.5125
2.5625 1 2.575
2.625 0.9375 2.5125
2.5625 0.9375 2.575
2.5625 1 2.5125
2.5625 0.9375 2.5125
2.75 0.9375 2.575
2.75 1 2.5125
2.6875 1 2.575
2.75 0.9375 2.5125
2.6875 0.9375 2.575
2.6875 1 2.5125
2.6875 0.9375 2.5125
2.875 0.9375 2.575
2.875 1 2.5125
2.8125 1 2.575
2.875 0.9375 2.5125
2.8125 0.9375 2.575
2.8125 1 2.5125
2.8125 0.9375 2.5125
3 0.9375 2.575
3 1 2.5125
2.9375 1 2.575
3 0.9375 2.5125
2.9375 0.9375 2.575
2.9375 1 2.5125
2.9375 0.9375 2.5125
0.125 0 2.6375
0.0625 0 2.7
0 0 2.6375
0.125 0.0625 2.7
0 0.0625 2.7
0.125 0.125 2.6375
0.0625 0.125 2.7
0 0.125 2.6375
0.0625 0 2.6375
0.125 0.0625 2.6375
0.0625 0.0625 2.7
0 0.0625 2.6375
0.0625 0.125 2.6375
0.0625 0.0625 2.6375
0.25 0 2.6375
0.1875 0 2.7
0.25 0.0625 2.7
0.25 0.125 2.6375
0.1875 0.125 2.7
0.1875 0 2.6375
0.25 0.0625 2.6375
0.1875 0.0625 2.7
0.1875 0.125 2.6375
0.1875 0.0625 2.6375
0.375 0 2.6375
0.3125 0 2.7
0.375 0.0625 2.7
0.375 0.125 2.6375
0.3125 0.125 2.7
0.3125 0 2.6375
0.375 0.0625 2.6375
0.3125 0.0625 2.7
0.3125 0.125 2.6375
0.3125 0.0625 2.6375
0.5 0 2.6375
0.4375 0 2.7
0.5 0.0625 2.7
0.5 0.125 2.6375
0.4375 0.125 2.7
0.4375 0 2.6375
0.5 0.0625 2.6375
0.4375 0.0625 2.7
0.4375 0.125 2.6375
0.4375 0.0625 2.6375
0.625 0 2.6375
0.5625 0 2.7
0.625 0.0625 2.7
0.625 0.125 2.6375
0.5625 0.125 2.7
0.5625 0 2.6375
0.625 0.0625 2.6375
0.5625 0.0625 2.7
0.5625 0.125 2.6375
0.5625 0.0625 2.6375
0.75 0 2.6375
0.6875 0 2.7
0.75 0.0625 2.7
0.75 0.125 2.6375
0.6875 0.125 2.7
0.6875 0 2.6375
0.75 0.0625 2.6375
0.6875 0.0625 2.7
0.6875 0.125 2.6375
0.6875 0.0625 2.6375
0.875 0 2.6375
0.8125 0 2.7
0.875 0.0625 2.7
0.875 0.125 2.6375
0.8125 0.125 2.7
0.8125 0 2.6375
0.875 0.0625 2.6375
0.8125 0.0625 2.7
0.8125 0.125 2.6375
0.8125 0.0625 2.6375
1 0 2.6375
0.9375 0 2.7
1 0.0625 2.7
1 0.125 2.6375
0.9375 0.125 2.7
0.9375 0 2.6375
1 0.0625 2.6375
0.9375 0.0625 2.7
0.9375 0.125 2.6375
0.9375 0.0625 2.6375
1.125 0 2.6375
1.0625 0 2.7
1.125 0.0625 2.7
1.125 0.125 2.6375
1.0625 0.125 2.7
1.0625 0 2.6375
1.125 0.0625 2.6375
1.0625 0.0625 2.7
1.0625 0.125 2.6375
1.0625 0.0625 2.6375
1.25 0 2.6375
1.1875 0 2.7
1.25 0.0625 2.7
1.25 0.125 2.6375
1.1875 0.125 2.7
1.1875 0 2.6375
1.25 0.0625 2.6375
1.1875 0.0625 2.7
1.1875 0.125 2.6375
1.1875 0.0625 2.6375
1.375 0 2.6375
1.3125 0 2.7
1.375 0.0625 2.7
1.375 0.125 2.6375
1.3125 0.125 2.7
1.3125 0 2.6375
1.375 0.0625 2.6375
1.3125 0.0625 2.7
1.3125 0.125 2.6375
1.3125 0.0625 2.6375
1.5 0 2.6375
1.4375 0 2.7
1.5 0.0625 2.7
1.5 0.125 2.6375
1.4375 0.125 2.7
1.4375 0 2.6375
1.5 0.0625 2.6375
1.4375 0.0625 2.7
1.4375 0.125 2.6375
1.4375 0.0625 2.6375
1.625 0 2.6375
1.5625 0 2.7
1.625 0.0625 2.7
1.625 0.125 2.6375
1.5625 0.125 2.7
1.5625 0 2.6375
1.625 0.0625 2.6375
1.5625 0.0625 2.7
1.5625 0.125 2.6375
1.5625 0.0625 2.6375
1.75 0 2.6375
1.6875 0 2.7
1.75 0.0625 2.7
1.75 0.125 2.6375
1.6875 0.125 2.7
1.6875 0 2.6375
1.75 0.0625 2.6375
1.6875 0.0625 2.7
1.6875 0.125 2.6375
1.6875 0.0625 2.6375
1.875 0 2.6375
1.8125 0 2.7
1.875 0.0625 2.7
1.875 0.125 2.6375
1.8125 0.125 2.7
1.8125 0 2.6375
1.875 0.0625 2.6375
1.8125 0.0625 2.7
1.8125 0.125 2.6375
1.8125 0.0625 2.6375
2 0 2.6375
1.9375 0 2.7
2 0.0625 2.7
2 0.125 2.6375
1.9375 0.125 2.7
1.9375 0 2.6375
2 0.0625 2.6375
1.9375 0.0625 2.7
1.9375 0.125 2.6375
1.9375 0.0625 2.6375
2.125 0 2.6375
2.0625 0 2.7
2.125 0.0625 2.7
2.125 0.125 2.6375
2.0625 0.125 2.7
2.0625 0 2.6375
2.125 0.0625 2.6375
2.0625 0.0625 2.7
2.0625 0.125 2.6375
2.0625 0.0625 2.6375
2.25 0 2.6375
2.1875 0 2.7
2.25 0.0625 2.7
2.25 0.125 2.6375
2.1875 0.125 2.7
2.1875 0 2.6375
2.25 0.0625 2.6375
2.1875 0.0625 2.7
2.1875 0.125 2.6375
2.1875 0.0625 2.6375
2.375 0 2.6375
2.3125 0 2.7
2.375 0.0625 2.7
2.375 0.125 2.6375
2.3125 0.125 2.7
2.3125 0 2.6375
2.375 0.0625 2.6375
2.3125 0.0625 2.7
2.3125 0.125 2.6375
2.3125 0.0625 2.6375
2.5 0 2.6375
2.4375 0 2.7
2.5 0.0625 2.7
2.5 0.125 2.6375
2.4375 0.125 2.7
2.4375 0 2.6375
2.5 0.0625 2.6375
2.4375 0.0625 2.7
2.4375 0.125 2.6375
2.4375 0.0625 2.6375
2.625 0 2.6375
2.5625 0 2.7
2.625 0.0625 2.7
2.625 0.125 2.6375
2.5625 0.125 2.7
2.5625 0 2.6375
2.625 0.0625 2.6375
2.5625 0.0625 2.7
2.5625 0.125 2.6375
2.5625 0.0625 2.6375
2.75 0 2.6375
2.6875 0 2.7
2.75 0.0625 2.7
2.75 0.125 2.6375
2.6875 0.125 2.7
2.6875 0 2.6375
2.75 0.0625 2.6375
2.6875 0.0625 2.7
2.6875 0.125 2.6375
2.6875 0.0625 2.6375
2.875 0 2.6375
2.8125 0 2.7
2.875 0.0625 2.7
2.875 0.125 2.6375
2.8125 0.125 2.7
2.8125 0 2.6375
2.875 0.0625 2.6375
2.8125 0.0625 2.7
2.8125 0.125 2.6375
2.8125 0.0625 2.6375
3 0 2.6375
2.9375 0 2.7
3 0.0625 2.7
3 0.125 2.6375
2.9375 0.125 2.7
2.9375 0 2.6375
3 0.0625 2.6375
2.9375 0.0625 2.7
2.9375 0.125 2.6375
2.9375 0.0625 2.6375
0.125 0.1875 2.7
0 0.1875 2.7
0.125 0.25 2.6375
0.0625 0.25 2.7
0 0.25 2.6375
0.125 0.1875 2.6375
0.0625 0.1875 2.7
0 0.1875 2.6375
0.0625 0.25 2.6375
0.0625 0.1875 2.6375
0.25 0.1875 2.7
0.25 0.25 2.6375
0.1875 0.25 2.7
0.25 0.1875 2.6375
0.1875 0.1875 2.7
0.1875 0.25 2.6375
0.1875 0.1875 2.6375
0.375 0.1875 2.7
0.375 0.25 2.6375
0.3125 0.25 2.7
0.375 0.1875 2.6375
0.3125 0.1875 2.7
0.3125 0.25 2.6375
0.3125 0.1875 2.6375
0.5 0.1875 2.7
0.5 0.25 2.6375
0.4375 0.25 2.7
0.5 0.1875 2.6375
0.4375 0.1875 2.7
0.4375 0.25 2.6375
0.4375 0.1875 2.6375
0.625 0.1875 2.7
0.625 0.25 2.6375
0.5625 0.25 2.7
0.625 0.1875 2.6375
0.5625 0.1875 2.7
0.5625 0.25 2.6375
0.5625 0.1875 2.6375
0.75 0.1875 2.7
0.75 0.25 2.6375
0.6875 0.25 2.7
0.75 0.1875 2.6375
0.6875 0.1875 2.7
0.6875 0.25 2.6375
0.6875 0.1875 2.6375
0.875 0.1875 2.7
0.875 0.25 2.6375
0.8125 0.25 2.7
0.875 0.1875 2.6375
0.8125 0.1875 2.7
0.8125 0.25 2.6375
0.8125 0.1875 2.6375
1 0.1875 2.7
1 0.25 2.6375
0.9375 0.25 2.7
1 0.1875 2.6375
0.9375 0.1875 2.7
0.9375 0.25 2.6375
0.9375 0.1875 2.6375
1.125 0.1875 2.7
1.125 0.25 2.6375
1.0625 0.25 2.7
1.125 0.1875 2.6375
1.0625 0.1875 2.7
1.0625 0.25 2.6375
1.0625 0.1875 2.6375
1.25 0.1875 2.7
1.25 0.25 2.6375
1.1875 0.25 2.7
1.25 0.1875 2.6375
1.1875 0.1875 2.7
1.1875 0.25 2.6375
1.1875 0.1875 2.6375
1.375 0.1875 2.7
1.375 0.25 2.6375
1.3125 0.25 2.7
1.375 0.1875 2.6375
1.3125 0.1875 2.7
1.3125 0.25 2.6375
1.3125 0.1875 2.6375
1.5 0.1875 2.7
1.5 0.25 2.6375
1.4375 0.25 2.7
1.5 0.1875 2.6375
1.4375 0.1875 2.7
1.4375 0.25 2.6375
1.4375 0.1875 2.6375
1.625 0.1875 2.7
1.625 0.25 2.6375
1.5625 0.25 2.7
1.625 0.1875 2.6375
1.5625 0.1875 2.7
1.5625 0.25 2.6375
1.5625 0.1875 2.6375
1.75 0.1875 2.7
1.75 0.25 2.6375
1.6875 0.25 2.7
1.75 0.1875 2.6375
1.6875 0.1875 2.7
1.6875 0.25 2.6375
1.6875 0.1875 2.6375
1.875 0.1875 2.7
1.875 0.25 2.6375
1.8125 0.25 2.7
1.875 0.1875 2.6375
1.8125 0.1875 2.7
1.8125 0.25 2.6375
1.8125 0.1875 2.6375
2 0.1875 2.7
2 0.25 2.6375
1.9375 0.25 2.7
2 0.1875 2.6375
1.9375 0.1875 2.7
1.9375 0.25 2.6375
1.9375 0.1875 2.6375
2.125 0.1875 2.7
2.125 0.25 2.6375
2.0625 0.25 2.7
2.125 0.1875 2.6375
2.0625 0.1875 2.7
2.0625 0.25 2.6375
2.0625 0.1875 2.6375
2.25 0.1875 2.7
2.25 0.25 2.6375
2.1875 0.25 2.7
2.25 0.1875 2.6375
2.1875 0.1875 2.7
2.1875 0.25 2.6375
2.1875 0.1875 2.6375
2.375 0.1875 2.7
2.375 0.25 2.6375
2.3125 0.25 2.7
2.375 0.1875 2.6375
2.3125 0.1875 2.7
2.3125 0.25 2.6375
2.3125 0.1875 2.6375
2.5 0.1875 2.7
2.5 0.25 2.6375
2.4375 0.25 2.7
2.5 0.1875 2.6375
2.4375 0.1875 2.7
2.4375 0.25 2.6375
2.4375 0.1875 2.6375
2.625 0.1875 2.7
2.625 0.25 2.6375
2.5625 0.25 2.7
2.625 0.1875 2.6375
2.5625 0.1875 2.7
2.5625 0.25 2.6375
2.5625 0.1875 2.6375
2.75 0.1875 2.7
2.75 0.25 2.6375
2.6875 0.25 2.7
2.75 0.1875 2.6375
2.6875 0.1875 2.7
2.6875 0.25 2.6375
2.6875 0.1875 2.6375
2.875 0.1875 2.7
2.875 0.25 2.6375
2.8125 0.25 2.7
2.875 0.1875 2.6375
2.8125 0.1875 2.7
2.8125 0.25 2.6375
2.8125 0.1875 2.6375
3 0.1875 2.7
3 0.25 2.6375
2.9375 0.25 2.7
3 0.1875 2.6375
2.9375 0.1875 2.7
2.9375 0.25 2.6375
2.9375 0.1875 2.6375
0.125 0.3125 2.7
0 0.3125 2.7
0.125 0.375 2.6375
0.0625 0.375 2.7
0 0.375 2.6375
0.125 0.3125 2.6375
0.0625 0.3125 2.7
0 0.3125 2.6375
0.0625 0.375 2.6375
0.0625 0.3125 2.6375
0.25 0.3125 2.7
0.25 0.375 2.6375
0.1875 0.375 2.7
0.25 0.3125 2.6375
0.1875 0.3125 2.7
0.1875 0.375 2.6375
0.1875 0.3125 2.6375
0.375 0.3125 2.7
0.375 0.375 2.6375
0.3125 0.375 2.7
0.375 0.3125 2.6375
0.3125 0.3125 2.7
0.3125 0.375 2.6375
0.3125 0.3125 2.6375
0.5 0.3125 2.7
0.5 0.375 2.6375
0.4375 0.375 2.7
0.5 0.3125 2.6375
0.4375 0.3125 2.7
0.4375 0.375 2.6375
0.4375 0.3125 2.6375
0.625 0.3125 2.7
0.625 0.375 2.6375
0.5625 0.375 2.7
0.625 0.3125 2.6375
0.5625 0.3125 2.7
0.5625 0.375 2.6375
0.5625 0.3125 2.6375
0.75 0.3125 2.7
0.75 0.375 2.6375
0.6875 0.375 2.7
0.75 0.3125 2.6375
0.6875 0.3125 2.7
0.6875 0.375 2.6375
0.6875 0.3125 2.6375
0.875 0.3125 2.7
0.875 0.375 2.6375
0.8125 0.375 2.7
0.875 0.3125 2.6375
0.8125 0.3125 2.7
0.8125 0.375 2.6375
0.8125 0.3125 2.6375
1 0.3125 2.7
1 0.375 2.6375
0.9375 0.375 2.7
1 0.3125 2.6375
0.9375 0.3125 2.7
0.9375 0.375 2.6375
0.9375 0.3125 2.6375
1.125 0.3125 2.7
1.125 0.375 2.6375
1.0625 0.375 2.7
1.125 0.3125 2.6375
1.0625 0.3125 2.7
1.0625 0.375 2.6375
1.0625 0.3125 2.6375
1.25 0.3125 2.7
1.25 0.375 2.6375
1.1875 0.375 2.7
1.25 0.3125 2.6375
1.1875 0.3125 2.7
1.1875 0.375 2.6375
1.1875 0.3125 2.6375
1.375 0.3125 2.7
1.375 0.375 2.6375
1.3125 0.375 2.7
1.375 0.3125 2.6375
1.3125 0.3125 2.7
1.3125 0.375 2.6375
1.3125 0.3125 2.6375
1.5 0.3125 2.7
1.5 0.375 2.6375
1.4375 0.375 2.7
1.5 0.3125 2.6375
1.4375 0.3125 2.7
1.4375 0.375 2.6375
1.4375 0.3125 2.6375
1.625 0.3125 2.7
1.625 0.375 2.6375
1.5625 0.375 2.7
1.625 0.3125 2.6375
1.5625 0.3125 2.7
1.5625 0.375 2.6375
1.5625 0.3125 2.6375
1.75 0.3125 2.7
1.75 0.375 2.6375
1.6875 0.375 2.7
1.75 0.3125 2.6375
1.6875 0.3125 2.7
1.6875 0.375 2.6375
1.6875 0.3125 2.6375
1.875 0.3125 2.7
1.875 0.375 2.6375
1.8125 0.375 2.7
1.875 0.3125 2.6375
1.8125 0.3125 2.7
1.8125 0.375 2.6375
1.8125 0.3125 2.6375
2 0.3125 2.7
2 0.375 2.6375
1.9375 0.375 2.7
2 0.3125 2.6375
1.9375 0.3125 2.7
1.9375 0.375 2.6375
1.9375 0.3125 2.6375
2.125 0.3125 2.7
2.125 0.375 2.6375
2.0625 0.375 2.7
2.125 0.3125 2.6375
2.0625 0.3125 2.7
2.0625 0.375 2.6375
2.0625 0.3125 2.6375
2.25 0.3125 2.7
2.25 0.375 2.6375
2.1875 0.375 2.7
2.25 0.3125 2.6375
2.1875 0.3125 2.7
2.1875 0.375 2.6375
2.1875 0.3125 2.6375
2.375 0.3125 2.7
2.375 0.375 2.6375
2.3125 0.375 2.7
2.375 0.3125 2.6375
2.3125 0.3125 2.7
2.3125 0.375 2.6375
2.3125 0.3125 2.6375
2.5 0.3125 2.7
2.5 0.375 2.6375
2.4375 0.375 2.7
2.5 0.3125 2.6375
2.4375 0.3125 2.7
2.4375 0.375 2.6375
2.4375 0.3125 2.6375
2.625 0.3125 2.7
2.625 0.375 2.6375
2.5625 0.375 2.7
2.625 0.3125 2.6375
2.5625 0.3125 2.7
2.5625 0.375 2.6375
2.5625 0.3125 2.6375
2.75 0.3125 2.7
2.75 0.375 2.6375
2.6875 0.375 2.7
2.75 0.3125 2.6375
2.6875 0.3125 2.7
2.6875 0.375 2.6375
2.6875 0.3125 2.6375
2.875 0.3125 2.7
2.875 0.375 2.6375
2.8125 0.375 2.7
2.875 0.3125 2.6375
2.8125 0.3125 2.7
2.8125 0.375 2.6375
2.8125 0.3125 2.6375
3 0.3125 2.7
3 0.375 2.6375
2.9375 0.375 2.7
3 0.3125 2.6375
2.9375 0.3125 2.7
2.9375 0.375 2.6375
2.9375 0.3125 2.6375
0.125 0.4375 2.7
0 0.4375 2.7
0.125 0.5 2.6375
0.0625 0.5 2.7
0 0.5 2.6375
0.125 0.4375 2.6375
0.0625 0.4375 2.7
0 0.4375 2.6375
0.0625 0.5 2.6375
0.0625 0.4375 2.6375
0.25 0.4375 2.7
0.25 0.5 2.6375
0.1875 0.5 2.7
0.25 0.4375 2.6375
0.1875 0.4375 2.7
0.1875 0.5 2.6375
0.1875 0.4375 2.6375
0.375 0.4375 2.7
0.375 0.5 2.6375
0.3125 0.5 2.7
0.375 0.4375 2.6375
0.3125 0.4375 2.7
0.3125 0.5 2.6375
0.3125 0.4375 2.6375
0.5 0.4375 2.7
0.5 0.5 2.6375
0.4375 0.5 2.7
0.5 0.4375 2.6375
0.4375 0.4375 2.7
0.4375 0.5 2.6375
0.4375 0.4375 2.6375
0.625 0.4375 2.7
0.625 0.5 2.6375
0.5625 0.5 2.7
0.625 0.4375 2.6375
0.5625 0.4375 2.7
0.5625 0.5 2.6375
0.5625 0.4375 2.6375
0.75 0.4375 2.7
0.75 0.5 2.6375
0.6875 0.5 2.7
0.75 0.4375 2.6375
0.6875 0.4375 2.7
0.6875 0.5 2.6375
0.6875 0.4375 2.6375
0.875 0.4375 2.7
0.875 0.5 2.6375
0.8125 0.5 2.7
0.875 0.4375 2.6375
0.8125 0.4375 2.7
0.8125 0.5 2.6375
0.8125 0.4375 2.6375
1 0.4375 2.7
1 0.5 2.6375
0.9375 0.5 2.7
1 0.4375 2.6375
0.9375 0.4375 2.7
0.9375 0.5 2.6375
0.9375 0.4375 2.6375
1.125 0.4375 2.7
1.125 0.5 2.6375
1.0625 0.5 2.7
1.125 0.4375 2.6375
1.0625 0.4375 2.7
1.0625 0.5 2.6375
1.0625 0.4375 2.6375
1.25 0.4375 2.7
1.25 0.5 2.6375
1.1875 0.5 2.7
1.25 0.4375 2.6375
1.1875 0.4375 2.7
1.1875 0.5 2.6375
1.1875 0.4375 2.6375
1.375 0.4375 2.7
1.375 0.5 2.6375
1.3125 0.5 2.7
1.375 0.4375 2.6375
1.3125 0.4375 2.7
1.3125 0.5 2.6375
1.3125 0.4375 2.6375
1.5 0.4375 2.7
1.5 0.5 2.6375
1.4375 0.5 2.7
1.5 0.4375 2.6375
1.4375 0.4375 2.7
1.4375 0.5 2.6375
1.4375 0.4375 2.6375
1.625 0.4375 2.7
1.625 0.5 2.6375
1.5625 0.5 2.7
1.625 0.4375 2.6375
1.5625 0.4375 2.7
1.5625 0.5 2.6375
1.5625 0.4375 2.6375
1.75 0.4375 2.7
1.75 0.5 2.6375
1.6875 0.5 2.7
1.75 0.4375 2.6375
1.6875 0.4375 2.7
1.6875 0.5 2.6375
1.6875 0.4375 2.6375
1.875 0.4375 2.7
1.875 0.5 2.6375
1.8125 0.5 2.7
1.875 0.4375 2.6375
1.8125 0.4375 2.7
1.8125 0.5 2.6375
1.8125 0.4375 2.6375
2 0.4375 2.7
2 0.5 2.6375
1.9375 0.5 2.7
2 0.4375 2.6375
1.9375 0.4375 2.7
1.9375 0.5 2.6375
1.9375 0.4375 2.6375
2.125 0.4375 2.7
2.125 0.5 2.6375
2.0625 0.5 2.7
2.125 0.4375 2.6375
2.0625 0.4375 2.7
2.0625 0.5 2.6375
2.0625 0.4375 2.6375
2.25 0.4375 2.7
2.25 0.5 2.6375
2.1875 0.5 2.7
2.25 0.4375 2.6375
2.1875 0.4375 2.7
2.1875 0.5 2.6375
2.1875 0.4375 2.6375
2.375 0.4375 2.7
2.375 0.5 2.6375
2.3125 0.5 2.7
2.375 0.4375 2.6375
2.3125 0.4375 2.7
2.3125 0.5 2.6375
2.3125 0.4375 2.6375
2.5 0.4375 2.7
2.5 0.5 2.6375
2.4375 0.5 2.7
2.5 0.4375 2.6375
2.4375 0.4375 2.7
2.4375 0.5 2.6375
2.4375 0.4375 2.6375
2.625 0.4375 2.7
2.625 0.5 2.6375
2.5625 0.5 2.7
2.625 0.4375 2.6375
2.5625 0.4375 2.7
2.5625 0.5 2.6375
2.5625 0.4375 2.6375
2.75 0.4375 2.7
2.75 0.5 2.6375
2.6875 0.5 2.7
2.75 0.4375 2.6375
2.6875 0.4375 2.7
2.6875 0.5 2.6375
2.6875 0.4375 2.6375
2.875 0.4375 2.7
2.875 0.5 2.6375
2.8125 0.5 2.7
2.875 0.4375 2.6375
2.8125 0.4375 2.7
2.8125 0.5 2.6375
2.8125 0.4375 2.6375
3 0.4375 2.7
3 0.5 2.6375
2.9375 0.5 2.7
3 0.4375 2.6375
2.9375 0.4375 2.7
2.9375 0.5 2.6375
2.9375 0.4375 2.6375
0.125 0.5625 2.7
0 0.5625 2.7
0.125 0.625 2.6375
0.0625 0.625 2.7
0 0.625 2.6375
0.125 0.5625 2.6375
0.0625 0.5625 2.7
0 0.5625 2.6375
0.0625 0.625 2.6375
0.0625 0.5625 2.6375
0.25 0.5625 2.7
0.25 0.625 2.6375
0.1875 0.625 2.7
0.25 0.5625 2.6375
0.1875 0.5625 2.7
0.1875 0.625 2.6375
0.1875 0.5625 2.6375
0.375 0.5625 2.7
0.375 0.625 2.6375
0.3125 0.625 2.7
0.375 0.5625 2.6375
0.3125 0.5625 2.7
0.3125 0.625 2.6375
0.3125 0.5625 2.6375
0.5 0.5625 2.7
0.5 0.625 2.6375
0.4375 0.625 2.7
0.5 0.5625 2.6375
0.4375 0.5625 2.7
0.4375 0.625 2.6375
0.4375 0.5625 2.6375
0.625 0.5625 2.7
0.625 0.625 2.6375
0.5625 0.625 2.7
0.625 0.5625 2.6375
0.5625 0.5625 2.7
0.5625 0.625 2.6375
0.5625 0.5625 2.6375
0.75 0.5625 2.7
0.75 0.625 2.6375
0.6875 0.625 2.7
0.75 0.5625 2.6375
0.6875 0.5625 2.7
0.6875 0.625 2.6375
0.6875 0.5625 2.6375
0.875 0.5625 2.7
0.875 0.625 2.6375
0.8125 0.625 2.7
0.875 0.5625 2.6375
0.8125 0.5625 2.7
0.8125 0.625 2.6375
0.8125 0.5625 2.6375
1 0.5625 2.7
1 0.625 2.6375
0.9375 0.625 2.7
1 0.5625 2.6375
0.9375 0.5625 2.7
0.9375 0.625 2.6375
0.9375 0.5625 2.6375
1.125 0.5625 2.7
1.125 0.625 2.6375
1.0625 0.625 2.7
1.125 0.5625 2.6375
1.0625 0.5625 2.7
1.0625 0.625 2.6375
1.0625 0.5625 2.6375
1.25 0.5625 2.7
1.25 0.625 2.6375
1.1875 0.625 2.7
1.25 0.5625 2.6375
1.1875 0.5625 2.7
1.1875 0.625 2.6375
1.1875 0.5625 2.6375
1.375 0.5625 2.7
1.375 0.625 2.6375
1.3125 0.625 2.7
1.375 0.5625 2.6375
1.3125 0.5625 2.7
1.3125 0.625 2.6375
1.3125 0.5625 2.6375
1.5 0.5625 2.7
1.5 0.625 2.6375
1.4375 0.625 2.7
1.5 0.5625 2.6375
1.4375 0.5625 2.7
1.4375 0.625 2.6375
1.4375 0.5625 2.6375
1.625 0.5625 2.7
1.625 0.625 2.6375
1.5625 0.625 2.7
1.625 0.5625 2.6375
1.5625 0.5625 2.7
1.5625 0.625 2.6375
1.5625 0.5625 2.6375
1.75 0.5625 2.7
1.75 0.625 2.6375
1.6875 0.625 2.7
1.75 0.5625 2.6375
1.6875 0.5625 2.7
1.6875 0.625 2.6375
1.6875 0.5625 2.6375
1.875 0.5625 2.7
1.875 0.625 2.6375
1.8125 0.625 2.7
1.875 0.5625 2.6375
1.8125 0.5625 2.7
1.8125 0.625 2.6375
1.8125 0.5625 2.6375
2 0.5625 2.7
2 0.625 2.6375
1.9375 0.625 2.7
2 0.5625 2.6375
1.9375 0.5625 2.7
1.9375 0.625 2.6375
1.9375 0.5625 2.6375
2.125 0.5625 2.7
2.125 0.625 2.6375
2.0625 0.625 2.7
2.125 0.5625 2.6375
2.0625 0.5625 2.7
2.0625 0.625 2.6375
2.0625 0.5625 2.6375
2.25 0.5625 2.7
2.25 0.625 2.6375
2.1875 0.625 2.7
2.25 0.5625 2.6375
2.1875 0.5625 2.7
2.1875 0.625 2.6375
2.1875 0.5625 2.6375
2.375 0.5625 2.7
2.375 0.625 2.6375
2.3125 0.625 2.7
2.375 0.5625 2.6375
2.3125 0.5625 2.7
2.3125 0.625 2.6375
2.3125 0.5625 2.6375
2.5 0.5625 2.7
2.5 0.625 2.6375
2.4375 0.625 2.7
2.5 0.5625 2.6375
2.4375 0.5625 2.7
2.4375 0.625 2.6375
2.4375 0.5625 2.6375
2.625 0.5625 2.7
2.625 0.625 2.6375
2.5625 0.625 2.7
2.625 0.5625 2.6375
2.5625 0.5625 2.7
2.5625 0.625 2.6375
2.5625 0.5625 2.6375
2.75 0.5625 2.7
2.75 0.625 2.6375
2.6875 0.625 2.7
2.75 0.5625 2.6375
2.6875 0.5625 2.7
2.6875 0.625 2.6375
2.6875 0.5625 2.6375
2.875 0.5625 2.7
2.875 0.625 2.6375
2.8125 0.625 2.7
2.875 0.5625 2.6375
2.8125 0.5625 2.7
2.8125 0.625 2.6375
2.8125 0.5625 2.6375
3 0.5625 2.7
3 0.625 2.6375
2.9375 0.625 2.7
3 0.5625 2.6375
2.9375 0.5625 2.7
2.9375 0.625 2.6375
2.9375 0.5625 2.6375
0.125 0.6875 2.7
0 0.6875 2.7
0.125 0.75 2.6375
0.0625 0.75 2.7
0 0.75 2.6375
0.125 0.6875 2.6375
0.0625 0.6875 2.7
0 0.6875 2.6375
0.0625 0.75 2.6375
0.0625 0.6875 2.6375
0.25 0.6875 2.7
0.25 0.75 2.6375
0.1875 0.75 2.7
0.25 0.6875 2.6375
0.1875 0.6875 2.7
0.1875 0.75 2.6375
0.1875 0.6875 2.6375
0.375 0.6875 2.7
0.375 0.75 2.6375
0.3125 0.75 2.7
0.375 0.6875 2.6375
0.3125 0.6875 2.7
0.3125 0.75 2.6375
0.3125 0.6875 2.6375
0.5 0.6875 2.7
0.5 0.75 2.6375
0.4375 0.75 2.7
0.5 0.6875 2.6375
0.4375 0.6875 2.7
0.4375 0.75 2.6375
0.4375 0.6875 2.6375
0.625 0.6875 2.7
0.625 0.75 2.6375
0.5625 0.75 2.7
0.625 0.6875 2.6375
0.5625 0.6875 2.7
0.5625 0.75 2.6375
0.5625 0.6875 2.6375
0.75 0.6875 2.7
0.75 0.75 2.6375
0.6875 0.75 2.7
0.75 0.6875 2.6375
0.6875 0.6875 2.7
0.6875 0.75 2.6375
0.6875 0.6875 2.6375
0.875 0.6875 2.7
0.875 0.75 2.6375
0.8125 0.75 2.7
0.875 0.6875 2.6375
0.8125 0.6875 2.7
0.8125 0.75 2.6375
0.8125 0.6875 2.6375
1 0.6875 2.7
1 0.75 2.6375
0.9375 0.75 2.7
1 0.6875 2.6375
0.9375 0.6875 2.7
0.9375 0.75 2.6375
0.9375 0.6875 2.6375
1.125 0.6875 2.7
1.125 0.75 2.6375
1.0625 0.75 2.7
1.125 0.6875 2.6375
1.0625 0.6875 2.7
1.0625 0.75 2.6375
1.0625 0.6875 2.6375
1.25 0.6875 2.7
1.25 0.75 2.6375
1.1875 0.75 2.7
1.25 0.6875 2.6375
1.1875 0.6875 2.7
1.1875 0.75 2.6375
1.1875 0.6875 2.6375
1.375 0.6875 2.7
1.375 0.75 2.6375
1.3125 0.75 2.7
1.375 0.6875 2.6375
1.3125 0.6875 2.7
1.3125 0.75 2.6375
1.3125 0.6875 2.6375
1.5 0.6875 2.7
1.5 0.75 2.6375
1.4375 0.75 2.7
1.5 0.6875 2.6375
1.4375 0.6875 2.7
1.4375 0.75 2.6375
1.4375 0.6875 2.6375
1.625 0.6875 2.7
1.625 0.75 2.6375
1.5625 0.75 2.7
1.625 0.6875 2.6375
1.5625 0.6875 2.7
1.5625 0.75 2.6375
1.5625 0.6875 2.6375
1.75 0.6875 2.7
1.75 0.75 2.6375
1.6875 0.75 2.7
1.75 0.6875 2.6375
1.6875 0.6875 2.7
1.6875 0.75 2.6375
1.6875 0.6875 2.6375
1.875 0.6875 2.7
1.875 0.75 2.6375
1.8125 0.75 2.7
1.875 0.6875 2.6375
1.8125 0.6875 2.7
1.8125 0.75 2.6375
1.8125 0.6875 2.6375
2 0.6875 2.7
2 0.75 2.6375
1.9375 0.75 2.7
2 0.6875 2.6375
1.9375 0.6875 2.7
1.9375 0.75 2.6375
1.9375 0.6875 2.6375
2.125 0.6875 2.7
2.125 0.75 2.6375
2.0625 0.75 2.7
2.125 0.6875 2.6375
2.0625 0.6875 2.7
2.0625 0.75 2.6375
2.0625 0.6875 2.6375
2.25 0.6875 2.7
2.25 0.75 2.6375
2.1875 0.75 2.7
2.25 0.6875 2.6375
2.1875 0.6875 2.7
2.1875 0.75 2.6375
2.1875 0.6875 2.6375
2.375 0.6875 2.7
2.375 0.75 2.6375
2.3125 0.75 2.7
2.375 0.6875 2.6375
2.3125 0.6875 2.7
2.3125 0.75 2.6375
2.3125 0.6875 2.6375
2.5 0.6875 2.7
2.5 0.75 2.6375
2.4375 0.75 2.7
2.5 0.6875 2.6375
2.4375 0.6875 2.7
2.4375 0.75 2.6375
2.4375 0.6875 2.6375
2.625 0.6875 2.7
2.625 0.75 2.6375
2.5625 0.75 2.7
2.625 0.6875 2.6375
2.5625 0.6875 2.7
2.5625 0.75 2.6375
2.5625 0.6875 2.6375
2.75 0.6875 2.7
2.75 0.75 2.6375
2.6875 0.75 2.7
2.75 0.6875 2.6375
2.6875 0.6875 2.7
2.6875 0.75 2.6375
2.6875 0.6875 2.6375
2.875 0.6875 2.7
2.875 0.75 2.6375
2.8125 0.75 2.7
2.875 0.6875 2.6375
2.8125 0.6875 2.7
2.8125 0.75 2.6375
2.8125 0.6875 2.6375
3 0.6875 2.7
3 0.75 2.6375
2.9375 0.75 2.7
3 0.6875 2.6375
2.9375 0.6875 2.7
2.9375 0.75 2.6375
2.9375 0.6875 2.6375
0.125 0.8125 2.7
0 0.8125 2.7
0.125 0.875 2.6375
0.0625 0.875 2.7
0 0.875 2.6375
0.125 0.8125 2.6375
0.0625 0.8125 2.7
0 0.8125 2.6375
0.0625 0.875 2.6375
0.0625 0.8125 2.6375
0.25 0.8125 2.7
0.25 0.875 2.6375
0.1875 0.875 2.7
0.25 0.8125 2.6375
0.1875 0.8125 2.7
0.1875 0.875 2.6375
0.1875 0.8125 2.6375
0.375 0.8125 2.7
0.375 0.875 2.6375
0.3125 0.875 2.7
0.375 0.8125 2.6375
0.3125 0.8125 2.7
0.3125 0.875 2.6375
0.3125 0.8125 2.6375
0.5 0.8125 2.7
0.5 0.875 2.6375
0.4375 0.875 2.7
0.5 0.8125 2.6375
0.4375 0.8125 2.7
0.4375 0.875 2.6375
0.4375 0.8125 2.6375
0.625 0.8125 2.7
0.625 0.875 2.6375
0.5625 0.875 2.7
0.625 0.8125 2.6375
0.5625 0.8125 2.7
0.5625 0.875 2.6375
0.5625 0.8125 2.6375
0.75 0.8125 2.7
0.75 0.875 2.6375
0.6875 0.875 2.7
0.75 0.8125 2.6375
0.6875 0.8125 2.7
0.6875 0.875 2.6375
0.6875 0.8125 2.6375
0.875 0.8125 2.7
0.875 0.875 2.6375
0.8125 0.875 2.7
0.875 0.8125 2.6375
0.8125 0.8125 2.7
0.8125 0.875 2.6375
0.8125 0.8125 2.6375
1 0.8125 2.7
1 0.875 2.6375
0.9375 0.875 2.7
1 0.8125 2.6375
0.9375 0.8125 2.7
0.9375 0.875 2.6375
0.9375 0.8125 2.6375
1.125 0.8125 2.7
1.125 0.875 2.6375
1.0625 0.875 2.7
1.125 0.8125 2.6375
1.0625 0.8125 2.7
1.0625 0.875 2.6375
1.0625 0.8125 2.6375
1.25 0.8125 2.7
1.25 0.875 2.6375
1.1875 0.875 2.7
1.25 0.8125 2.6375
1.1875 0.8125 2.7
1.1875 0.875 2.6375
1.1875 0.8125 2.6375
1.375 0.8125 2.7
1.375 0.875 2.6375
1.3125 0.875 2.7
1.375 0.8125 2.6375
1.3125 0.8125 2.7
1.3125 0.875 2.6375
1.3125 0.8125 2.6375
1.5 0.8125 2.7
1.5 0.875 2.6375
1.4375 0.875 2.7
1.5 0.8125 2.6375
1.4375 0.8125 2.7
1.4375 0.875 2.6375
1.4375 0.8125 2.6375
1.625 0.8125 2.7
1.625 0.875 2.6375
1.5625 0.875 2.7
1.625 0.8125 2.6375
1.5625 0.8125 2.7
1.5625 0.875 2.6375
1.5625 0.8125 2.6375
1.75 0.8125 2.7
1.75 0.875 2.6375
1.6875 0.875 2.7
1.75 0.8125 2.6375
1.6875 0.8125 2.7
1.6875 0.875 2.6375
1.6875 0.8125 2.6375
1.875 0.8125 2.7
1.875 0.875 2.6375
1.8125 0.875 2.7
1.875 0.8125 2.6375
1.8125 0.8125 2.7
1.8125 0.875 2.6375
1.8125 0.8125 2.6375
2 0.8125 2.7
2 0.875 2.6375
1.9375 0.875 2.7
2 0.8125 2.6375
1.9375 0.8125 2.7
1.9375 0.875 2.6375
1.9375 0.8125 2.6375
2.125 0.8125 2.7
2.125 0.875 2.6375
2.0625 0.875 2.7
2.125 0.8125 2.6375
2.0625 0.8125 2.7
2.0625 0.875 2.6375
2.0625 0.8125 2.6375
2.25 0.8125 2.7
2.25 0.875 2.6375
2.1875 0.875 2.7
2.25 0.8125 2.6375
2.1875 0.8125 2.7
2.1875 0.875 2.6375
2.1875 0.8125 2.6375
2.375 0.8125 2.7
2.375 0.875 2.6375
2.3125 0.875 2.7
2.375 0.8125 2.6375
2.3125 0.8125 2.7
2.3125 0.875 2.6375
2.3125 0.8125 2.6375
2.5 0.8125 2.7
2.5 0.875 2.6375
2.4375 0.875 2.7
2.5 0.8125 2.6375
2.4375 0.8125 2.7
2.4375 0.875 2.6375
2.4375 0.8125 2.6375
2.625 0.8125 2.7
2.625 0.875 2.6375
2.5625 0.875 2.7
2.625 0.8125 2.6375
2.5625 0.8125 2.7
2.5625 0.875 2.6375
2.5625 0.8125 2.6375
2.75 0.8125 2.7
2.75 0.875 2.6375
2.6875 0.875 2.7
2.75 0.8125 2.6375
2.6875 0.8125 2.7
2.6875 0.875 2.6375
2.6875 0.8125 2.6375
2.875 0.8125 2.7
2.875 0.875 2.6375
2.8125 0.875 2.7
2.875 0.8125 2.6375
2.8125 0.8125 2.7
2.8125 0.875 2.6375
2.8125 0.8125 2.6375
3 0.8125 2.7
3 0.875 2.6375
2.9375 0.875 2.7
3 0.8125 2.6375
2.9375 0.8125 2.7
2.9375 0.875 2.6375
2.9375 0.8125 2.6375
0.125 0.9375 2.7
0 0.9375 2.7
0.125 1 2.6375
0.0625 1 2.7
0 1 2.6375
0.125 0.9375 2.6375
0.0625 0.9375 2.7
0 0.9375 2.6375
0.0625 1 2.6375
0.0625 0.9375 2.6375
0.25 0.9375 2.7
0.25 1 2.6375
0.1875 1 2.7
0.25 0.9375 2.6375
0.1875 0.9375 2.7
0.1875 1 2.6375
0.1875 0.9375 2.6375
0.375 0.9375 2.7
0.375 1 2.6375
0.3125 1 2.7
0.375 0.9375 2.6375
0.3125 0.9375 2.7
0.3125 1 2.6375
0.3125 0.9375 2.6375
0.5 0.9375 2.7
0.5 1 2.6375
0.4375 1 2.7
0.5 0.9375 2.6375
0.4375 0.9375 2.7
0.4375 1 2.6375
0.4375 0.9375 2.6375
0.625 0.9375 2.7
0.625 1 2.6375
0.5625 1 2.7
0.625 0.9375 2.6375
0.5625 0.9375 2.7
0.5625 1 2.6375
0.5625 0.9375 2.6375
0.75 0.9375 2.7
0.75 1 2.6375
0.6875 1 2.7
0.75 0.9375 2.6375
0.6875 0.9375 2.7
0.6875 1 2.6375
0.6875 0.9375 2.6375
0.875 0.9375 2.7
0.875 1 2.6375
0.8125 1 2.7
0.875 0.9375 2.6375
0.8125 0.9375 2.7
0.8125 1 2.6375
0.8125 0.9375 2.6375
1 0.9375 2.7
1 1 2.6375
0.9375 1 2.7
1 0.9375 2.6375
0.9375 0.9375 2.7
0.9375 1 2.6375
0.9375 0.9375 2.6375
1.125 0.9375 2.7
1.125 1 2.6375
1.0625 1 2.7
1.125 0.9375 2.6375
1.0625 0.9375 2.7
1.0625 1 2.6375
1.0625 0.9375 2.6375
1.25 0.9375 2.7
1.25 1 2.6375
1.1875 1 2.7
1.25 0.9375 2.6375
1.1875 0.9375 2.7
1.1875 1 2.6375
1.1875 0.9375 2.6375
1.375 0.9375 2.7
1.375 1 2.6375
1.3125 1 2.7
1.375 0.9375 2.6375
1.3125 0.9375 2.7
1.3125 1 2.6375
1.3125 0.9375 2.6375
1.5 0.9375 2.7
1.5 1 2.6375
1.4375 1 2.7
1.5 0.9375 2.6375
1.4375 0.9375 2.7
1.4375 1 2.6375
1.4375 0.9375 2.6375
1.625 0.9375 2.7
1.625 1 2.6375
1.5625 1 2.7
1.625 0.9375 2.6375
1.5625 0.9375 2.7
1.5625 1 2.6375
1.5625 0.9375 2.6375
1.75 0.9375 2.7
1.75 1 2.6375
1.6875 1 2.7
1.75 0.9375 2.6375
1.6875 0.9375 2.7
1.6875 1 2.6375
1.6875 0.9375 2.6375
1.875 0.9375 2.7
1.875 1 2.6375
1.8125 1 2.7
1.875 0.9375 2.6375
1.8125 0.9375 2.7
1.8125 1 2.6375
1.8125 0.9375 2.6375
2 0.9375 2.7
2 1 2.6375
1.9375 1 2.7
2 0.9375 2.6375
1.9375 0.9375 2.7
1.9375 1 2.6375
1.9375 0.9375 2.6375
2.125 0.9375 2.7
2.125 1 2.6375
2.0625 1 2.7
2.125 0.9375 2.6375
2.0625 0.9375 2.7
2.0625 1 2.6375
2.0625 0.9375 2.6375
2.25 0.9375 2.7
2.25 1 2.6375
2.1875 1 2.7
2.25 0.9375 2.6375
2.1875 0.9375 2.7
2.1875 1 2.6375
2.1875 0.9375 2.6375
2.375 0.9375 2.7
2.375 1 2.6375
2.3125 1 2.7
2.375 0.9375 2.6375
2.3125 0.9375 2.7
2.3125 1 2.6375
2.3125 0.9375 2.6375
2.5 0.9375 2.7
2.5 1 2.6375
2.4375 1 2.7
2.5 0.9375 2.6375
2.4375 0.9375 2.7
2.4375 1 2.6375
2.4375 0.9375 2.6375
2.625 0.9375 2.7
2.625 1 2.6375
2.5625 1 2.7
2.625 0.9375 2.6375
2.5625 0.9375 2.7
2.5625 1 2.6375
2.5625 0.9375 2.6375
2.75 0.9375 2.7
2.75 1 2.6375
2.6875 1 2.7
2.75 0.9375 2.6375
2.6875 0.9375 2.7
2.6875 1 2.6375
2.6875 0.9375 2.6375
2.875 0.9375 2.7
2.875 1 2.6375
2.8125 1 2.7
2.875 0.9375 2.6375
2.8125 0.9375 2.7
2.8125 1 2.6375
2.8125 0.9375 2.6375
3 0.9375 2.7
3 1 2.6375
2.9375 1 2.7
3 0.9375 2.6375
2.9375 0.9375 2.7
2.9375 1 2.6375
2.9375 0.9375 2.6375
0.125 0 2.7625
0.0625 0 2.825
0 0 2.7625
0.125 0.0625 2.825
0 0.0625 2.825
0.125 0.125 2.7625
0.0625 0.125 2.825
0 0.125 2.7625
0.0625 0 2.7625
0.125 0.0625 2.7625
0.0625 0.0625 2.825
0 0.0625 2.7625
0.0625 0.125 2.7625
0.0625 0.0625 2.7625
0.25 0 2.7625
0.1875 0 2.825
0.25 0.0625 2.825
0.25 0.125 2.7625
0.1875 0.125 2.825
0.1875 0 2.7625
0.25 0.0625 2.7625
0.1875 0.0625 2.825
0.1875 0.125 2.7625
0.1875 0.0625 2.7625
0.375 0 2.7625
0.3125 0 2.825
0.375 0.0625 2.825
0.375 0.125 2.7625
0.3125 0.125 2.825
0.3125 0 2.7625
0.375 0.0625 2.7625
0.3125 0.0625 2.825
0.3125 0.125 2.7625
0.3125 0.0625 2.7625
0.5 0 2.7625
0.4375 0 2.825
0.5 0.0625 2.825
0.5 0.125 2.7625
0.4375 0.125 2.825
0.4375 0 2.7625
0.5 0.0625 2.7625
0.4375 0.0625 2.825
0.4375 0.125 2.7625
0.4375 0.0625 2.7625
0.625 0 2.7625
0.5625 0 2.825
0.625 0.0625 2.825
0.625 0.125 2.7625
0.5625 0.125 2.825
0.5625 0 2.7625
0.625 0.0625 2.7625
0.5625 0.0625 2.825
0.5625 0.125 2.7625
0.5625 0.0625 2.7625
0.75 0 2.7625
0.6875 0 2.825
0.75 0.0625 2.825
0.75 0.125 2.7625
0.6875 0.125 2.825
0.6875 0 2.7625
0.75 0.0625 2.7625
0.6875 0.0625 2.825
0.6875 0.125 2.7625
0.6875 0.0625 2.7625
0.875 0 2.7625
0.8125 0 2.825
0.875 0.0625 2.825
0.875 0.125 2.7625
0.8125 0.125 2.825
0.8125 0 2.7625
0.875 0.0625 2.7625
0.8125 0.0625 2.825
0.8125 0.125 2.7625
0.8125 0.0625 2.7625
1 0 2.7625
0.9375 0 2.825
1 0.0625 2.825
1 0.125 2.7625
0.9375 0.125 2.825
0.9375 0 2.7625
1 0.0625 2.7625
0.9375 0.0625 2.825
0.9375 0.125 2.7625
0.9375 0.0625 2.7625
1.125 0 2.7625
1.0625 0 2.825
1.125 0.0625 2.825
1.125 0.125 2.7625
1.0625 0.125 2.825
1.0625 0 2.7625
1.125 0.0625 2.7625
1.0625 0.0625 2.825
1.0625 0.125 2.7625
1.0625 0.0625 2.7625
1.25 0 2.7625
1.1875 0 2.825
1.25 0.0625 2.825
1.25 0.125 2.7625
1.1875 0.125 2.825
1.1875 0 2.7625
1.25 0.0625 2.7625
1.1875 0.0625 2.825
1.1875 0.125 2.7625
1.1875 0.0625 2.7625
1.375 0 2.7625
1.3125 0 2.825
1.375 0.0625 2.825
1.375 0.125 2.7625
1.3125 0.125 2.825
1.3125 0 2.7625
1.375 0.0625 2.7625
1.3125 0.0625 2.825
1.3125 0.125 2.7625
1.3125 0.0625 2.7625
1.5 0 2.7625
1.4375 0 2.825
1.5 0.0625 2.825
1.5 0.125 2.7625
1.4375 0.125 2.825
1.4375 0 2.7625
1.5 0.0625 2.7625
1.4375 0.0625 2.825
1.4375 0.125 2.7625
1.4375 0.0625 2.7625
1.625 0 2.7625
1.5625 0 2.825
1.625 0.0625 2.825
1.625 0.125 2.7625
1.5625 0.125 2.825
1.5625 0 2.7625
1.625 0.0625 2.7625
1.5625 0.0625 2.825
1.5625 0.125 2.7625
1.5625 0.0625 2.7625
1.75 0 2.7625
1.6875 0 2.825
1.75 0.0625 2.825
1.75 0.125 2.7625
1.6875 0.125 2.825
1.6875 0 2.7625
1.75 0.0625 2.7625
1.6875 0.0625 2.825
1.6875 0.125 2.7625
1.6875 0.0625 2.7625
1.875 0 2.7625
1.8125 0 2.825
1.875 0.0625 2.825
1.875 0.125 2.7625
1.8125 0.125 2.825
1.8125 0 2.7625
1.875 0.0625 2.7625
1.8125 0.0625 2.825
1.8125 0.125 2.7625
1.8125 0.0625 2.7625
2 0 2.7625
1.9375 0 2.825
2 0.0625 2.825
2 0.125 2.7625
1.9375 0.125 2.825
1.9375 0 2.7625
2 0.0625 2.7625
1.9375 0.0625 2.825
1.9375 0.125 2.7625
1.9375 0.0625 2.7625
2.125 0 2.7625
2.0625 0 2.825
2.125 0.0625 2.825
2.125 0.125 2.7625
2.0625 0.125 2.825
2.0625 0 2.7625
2.125 0.0625 2.7625
2.0625 0.0625 2.825
2.0625 0.125 2.7625
2.0625 0.0625 2.7625
2.25 0 2.7625
2.1875 0 2.825
2.25 0.0625 2.825
2.25 0.125 2.7625
2.1875 0.125 2.825
2.1875 0 2.7625
2.25 0.0625 2.7625
2.1875 0.0625 2.825
2.1875 0.125 2.7625
2.1875 0.0625 2.7625
2.375 0 2.7625
2.3125 0 2.825
2.375 0.0625 2.825
2.375 0.125 2.7625
2.3125 0.125 2.825
2.3125 0 2.7625
2.375 0.0625 2.7625
2.3125 0.0625 2.825
2.3125 0.125 2.7625
2.3125 0.0625 2.7625
2.5 0 2.7625
2.4375 0 2.825
2.5 0.0625 2.825
2.5 0.125 2.7625
2.4375 0.125 2.825
2.4375 0 2.7625
2.5 0.0625 2.7625
2.4375 0.0625 2.825
2.4375 0.125 2.7625
2.4375 0.0625 2.7625
2.625 0 2.7625
2.5625 0 2.825
2.625 0.0625 2.825
2.625 0.125 2.7625
2.5625 0.125 2.825
2.5625 0 2.7625
2.625 0.0625 2.7625
2.5625 0.0625 2.825
2.5625 0.125 2.7625
2.5625 0.0625 2.7625
2.75 0 2.7625
2.6875 0 2.825
2.75 0.0625 2.825
2.75 0.125 2.7625
2.6875 0.125 2.825
2.6875 0 2.7625
2.75 0.0625 2.7625
2.6875 0.0625 2.825
2.6875 0.125 2.7625
2.6875 0.0625 2.7625
2.875 0 2.7625
2.8125 0 2.825
2.875 0.0625 2.825
2.875 0.125 2.7625
2.8125 0.125 2.825
2.8125 0 2.7625
2.875 0.0625 2.7625
2.8125 0.0625 2.825
2.8125 0.125 2.7625
2.8125 0.0625 2.7625
3 0 2.7625
2.9375 0 2.825
3 0.0625 2.825
3 0.125 2.7625
2.9375 0.125 2.825
2.9375 0 2.7625
3 0.0625 2.7625
2.9375 0.0625 2.825
2.9375 0.125 2.7625
2.9375 0.0625 2.7625
0.125 0.1875 2.825
0 0.1875 2.825
0.125 0.25 2.7625
0.0625 0.25 2.825
0 0.25 2.7625
0.125 0.1875 2.7625
0.0625 0.1875 2.825
0 0.1875 2.7625
0.0625 0.25 2.7625
0.0625 0.1875 2.7625
0.25 0.1875 2.825
0.25 0.25 2.7625
0.1875 0.25 2.825
0.25 0.1875 2.7625
0.1875 0.1875 2.825
0.1875 0.25 2.7625
0.1875 0.1875 2.7625
0.375 0.1875 2.825
0.375 0.25 2.7625
0.3125 0.25 2.825
0.375 0.1875 2.7625
0.3125 0.1875 2.825
0.3125 0.25 2.7625
0.3125 0.1875 2.7625
0.5 0.1875 2.825
0.5 0.25 2.7625
0.4375 0.25 2.825
0.5 0.1875 2.7625
0.4375 0.1875 2.825
0.4375 0.25 2.7625
0.4375 0.1875 2.7625
0.625 0.1875 2.825
0.625 0.25 2.7625
0.5625 0.25 2.825
0.625 0.1875 2.7625
0.5625 0.1875 2.825
0.5625 0.25 2.7625
0.5625 0.1875 2.7625
0.75 0.1875 2.825
0.75 0.25 2.7625
0.6875 0.25 2.825
0.75 0.1875 2.7625
0.6875 0.1875 2.825
0.6875 0.25 2.7625
0.6875 0.1875 2.7625
0.875 0.1875 2.825
0.875 0.25 2.7625
0.8125 0.25 2.825
0.875 0.1875 2.7625
0.8125 0.1875 2.825
0.8125 0.25 2.7625
0.8125 0.1875 2.7625
1 0.1875 2.825
1 0.25 2.7625
0.9375 0.25 2.825
1 0.1875 2.7625
0.9375 0.1875 2.825
0.9375 0.25 2.7625
0.9375 0.1875 2.7625
1.125 0.1875 2.825
1.125 0.25 2.7625
1.0625 0.25 2.825
1.125 0.1875 2.7625
1.0625 0.1875 2.825
1.0625 0.25 2.7625
1.0625 0.1875 2.7625
1.25 0.1875 2.825
1.25 0.25 2.7625
1.1875 0.25 2.825
1.25 0.1875 2.7625
1.1875 0.1875 2.825
1.1875 0.25 2.7625
1.1875 0.1875 2.7625
1.375 0.1875 2.825
1.375 0.25 2.7625
1.3125 0.25 2.825
1.375 0.1875 2.7625
1.3125 0.1875 2.825
1.3125 0.25 2.7625
1.3125 0.1875 2.7625
1.5 0.1875 2.825
1.5 0.25 2.7625
1.4375 0.25 2.825
1.5 0.1875 2.7625
1.4375 0.1875 2.825
1.4375 0.25 2.7625
1.4375 0.1875 2.7625
1.625 0.1875 2.825
1.625 0.25 2.7625
1.5625 0.25 2.825
1.625 0.1875 2.7625
1.5625 0.1875 2.825
1.5625 0.25 2.7625
1.5625 0.1875 2.7625
1.75 0.1875 2.825
1.75 0.25 2.7625
1.6875 0.25 2.825
1.75 0.1875 2.7625
1.6875 0.1875 2.825
1.6875 0.25 2.7625
1.6875 0.1875 2.7625
1.875 0.1875 2.825
1.875 0.25 2.7625
1.8125 0.25 2.825
1.875 0.1875 2.7625
1.8125 0.1875 2.825
1.8125 0.25 2.7625
1.8125 0.1875 2.7625
2 0.1875 2.825
2 0.25 2.7625
1.9375 0.25 2.825
2 0.1875 2.7625
1.9375 0.1875 2.825
1.9375 0.25 2.7625
1.9375 0.1875 2.7625
2.125 0.1875 2.825
2.125 0.25 2.7625
2.0625 0.25 2.825
2.125 0.1875 2.7625
2.0625 0.1875 2.825
2.0625 0.25 2.7625
2.0625 0.1875 2.7625
2.25 0.1875 2.825
2.25 0.25 2.7625
2.1875 0.25 2.825
2.25 0.1875 2.7625
2.1875 0.1875 2.825
2.1875 0.25 2.7625
2.1875 0.1875 2.7625
2.375 0.1875 2.825
2.375 0.25 2.7625
2.3125 0.25 2.825
2.375 0.1875 2.7625
2.3125 0.1875 2.825
2.3125 0.25 2.7625
2.3125 0.1875 2.7625
2.5 0.1875 2.825
2.5 0.25 2.7625
2.4375 0.25 2.825
2.5 0.1875 2.7625
2.4375 0.1875 2.825
2.4375 0.25 2.7625
2.4375 0.1875 2.7625
2.625 0.1875 2.825
2.625 0.25 2.7625
2.5625 0.25 2.825
2.625 0.1875 2.7625
2.5625 0.1875 2.825
2.5625 0.25 2.7625
2.5625 0.1875 2.7625
2.75 0.1875 2.825
2.75 0.25 2.7625
2.6875 0.25 2.825
2.75 0.1875 2.7625
2.6875 0.1875 2.825
2.6875 0.25 2.7625
2.6875 0.1875 2.7625
2.875 0.1875 2.825
2.875 0.25 2.7625
2.8125 0.25 2.825
2.875 0.1875 2.7625
2.8125 0.1875 2.825
2.8125 0.25 2.7625
2.8125 0.1875 2.7625
3 0.1875 2.825
3 0.25 2.7625
2.9375 0.25 2.825
3 0.1875 2.7625
2.9375 0.1875 2.825
2.9375 0.25 2.7625
2.9375 0.1875 2.7625
0.125 0.3125 2.825
0 0.3125 2.825
0.125 0.375 2.7625
0.0625 0.375 2.825
0 0.375 2.7625
0.125 0.3125 2.7625
0.0625 0.3125 2.825
0 0.3125 2.7625
0.0625 0.375 2.7625
0.0625 0.3125 2.7625
0.25 0.3125 2.825
0.25 0.375 2.7625
0.1875 0.375 2.825
0.25 0.3125 2.7625
0.1875 0.3125 2.825
0.1875 0.375 2.7625
0.1875 0.3125 2.7625
0.375 0.3125 2.825
0.375 0.375 2.7625
0.3125 0.375 2.825
0.375 0.3125 2.7625
0.3125 0.3125 2.825
0.3125 0.375 2.7625
0.3125 0.3125 2.7625
0.5 0.3125 2.825
0.5 0.375 2.7625
0.4375 0.375 2.825
0.5 0.3125 2.7625
0.4375 0.3125 2.825
0.4375 0.375 2.7625
0.4375 0.3125 2.7625
0.625 0.3125 2.825
0.625 0.375 2.7625
0.5625 0.375 2.825
0.625 0.3125 2.7625
0.5625 0.3125 2.825
0.5625 0.375 2.7625
0.5625 0.3125 2.7625
0.75 0.3125 2.825
0.75 0.375 2.7625
0.6875 0.375 2.825
0.75 0.3125 2.7625
0.6875 0.3125 2.825
0.6875 0.375 2.7625
0.6875 0.3125 2.7625
0.875 0.3125 2.825
0.875 0.375 2.7625
0.8125 0.375 2.825
0.875 0.3125 2.7625
0.8125 0.3125 2.825
0.8125 0.375 2.7625
0.8125 0.3125 2.7625
1 0.3125 2.825
1 0.375 2.7625
0.9375 0.375 2.825
1 0.3125 2.7625
0.9375 0.3125 2.825
0.9375 0.375 2.7625
0.9375 0.3125 2.7625
1.125 0.3125 2.825
1.125 0.375 2.7625
1.0625 0.375 2.825
1.125 0.3125 2.7625
1.0625 0.3125 2.825
1.0625 0.375 2.7625
1.0625 0.3125 2.7625
1.25 0.3125 2.825
1.25 0.375 2.7625
1.1875 0.375 2.825
1.25 0.3125 2.7625
1.1875 0.3125 2.825
1.1875 0.375 2.7625
1.1875 0.3125 2.7625
1.375 0.3125 2.825
1.375 0.375 2.7625
1.3125 0.375 2.825
1.375 0.3125 2.7625
1.3125 0.3125 2.825
1.3125 0.375 2.7625
1.3125 0.3125 2.7625
1.5 0.3125 2.825
1.5 0.375 2.7625
1.4375 0.375 2.825
1.5 0.3125 2.7625
1.4375 0.3125 2.825
1.4375 0.375 2.7625
1.4375 0.3125 2.7625
1.625 0.3125 2.825
1.625 0.375 2.7625
1.5625 0.375 2.825
1.625 0.3125 2.7625
1.5625 0.3125 2.825
1.5625 0.375 2.7625
1.5625 0.3125 2.7625
1.75 0.3125 2.825
1.75 0.375 2.7625
1.6875 0.375 2.825
1.75 0.3125 2.7625
1.6875 0.3125 2.825
1.6875 0.375 2.7625
1.6875 0.3125 2.7625
1.875 0.3125 2.825
1.875 0.375 2.7625
1.8125 0.375 2.825
1.875 0.3125 2.7625
1.8125 0.3125 2.825
1.8125 0.375 2.7625
1.8125 0.3125 2.7625
2 0.3125 2.825
2 0.375 2.7625
1.9375 0.375 2.825
2 0.3125 2.7625
1.9375 0.3125 2.825
1.9375 0.375 2.7625
1.9375 0.3125 2.7625
2.125 0.3125 2.825
2.125 0.375 2.7625
2.0625 0.375 2.825
2.125 0.3125 2.7625
2.0625 0.3125 2.825
2.0625 0.375 2.7625
2.0625 0.3125 2.7625
2.25 0.3125 2.825
2.25 0.375 2.7625
2.1875 0.375 2.825
2.25 0.3125 2.7625
2.1875 0.3125 2.825
2.1875 0.375 2.7625
2.1875 0.3125 2.7625
2.375 0.3125 2.825
2.375 0.375 2.7625
2.3125 0.375 2.825
2.375 0.3125 2.7625
2.3125 0.3125 2.825
2.3125 0.375 2.7625
2.3125 0.3125 2.7625
2.5 0.3125 2.825
2.5 0.375 2.7625
2.4375 0.375 2.825
2.5 0.3125 2.7625
2.4375 0.3125 2.825
2.4375 0.375 2.7625
2.4375 0.3125 2.7625
2.625 0.3125 2.825
2.625 0.375 2.7625
2.5625 0.375 2.825
2.625 0.3125 2.7625
2.5625 0.3125 2.825
2.5625 0.375 2.7625
2.5625 0.3125 2.7625
2.75 0.3125 2.825
2.75 0.375 2.7625
2.6875 0.375 2.825
2.75 0.3125 2.7625
2.6875 0.3125 2.825
2.6875 0.375 2.7625
2.6875 0.3125 2.7625
2.875 0.3125 2.825
2.875 0.375 2.7625
2.8125 0.375 2.825
2.875 0.3125 2.7625
2.8125 0.3125 2.825
2.8125 0.375 2.7625
2.8125 0.3125 2.7625
3 0.3125 2.825
3 0.375 2.7625
2.9375 0.375 2.825
3 0.3125 2.7625
2.9375 0.3125 2.825
2.9375 0.375 2.7625
2.9375 0.3125 2.7625
0.125 0.4375 2.825
0 0.4375 2.825
0.125 0.5 2.7625
0.0625 0.5 2.825
0 0.5 2.7625
0.125 0.4375 2.7625
0.0625 0.4375 2.825
0 0.4375 2.7625
0.0625 0.5 2.7625
0.0625 0.4375 2.7625
0.25 0.4375 2.825
0.25 0.5 2.7625
0.1875 0.5 2.825
0.25 0.4375 2.7625
0.1875 0.4375 2.825
0.1875 0.5 2.7625
0.1875 0.4375 2.7625
0.375 0.4375 2.825
0.375 0.5 2.7625
0.3125 0.5 2.825
0.375 0.4375 2.7625
0.3125 0.4375 2.825
0.3125 0.5 2.7625
0.3125 0.4375 2.7625
0.5 0.4375 2.825
0.5 0.5 2.7625
0.4375 0.5 2.825
0.5 0.4375 2.7625
0.4375 0.4375 2.825
0.4375 0.5 2.7625
0.4375 0.4375 2.7625
0.625 0.4375 2.825
0.625 0.5 2.7625
0.5625 0.5 2.825
0.625 0.4375 2.7625
0.5625 0.4375 2.825
0.5625 0.5 2.7625
0.5625 0.4375 2.7625
0.75 0.4375 2.825
0.75 0.5 2.7625
0.6875 0.5 2.825
0.75 0.4375 2.7625
0.6875 0.4375 2.825
0.6875 0.5 2.7625
0.6875 0.4375 2.7625
0.875 0.4375 2.825
0.875 0.5 2.7625
0.8125 0.5 2.825
0.875 0.4375 2.7625
0.8125 0.4375 2.825
0.8125 0.5 2.7625
0.8125 0.4375 2.7625
1 0.4375 2.825
1 0.5 2.7625
0.9375 0.5 2.825
1 0.4375 2.7625
0.9375 0.4375 2.825
0.9375 0.5 2.7625
0.9375 0.4375 2.7625
1.125 0.4375 2.825
1.125 0.5 2.7625
1.0625 0.5 2.825
1.125 0.4375 2.7625
1.0625 0.4375 2.825
1.0625 0.5 2.7625
1.0625 0.4375 2.7625
1.25 0.4375 2.825
1.25 0.5 2.7625
1.1875 0.5 2.825
1.25 0.4375 2.7625
1.1875 0.4375 2.825
1.1875 0.5 2.7625
1.1875 0.4375 2.7625
1.375 0.4375 2.825
1.375 0.5 2.7625
1.3125 0.5 2.825
1.375 0.4375 2.7625
1.3125 0.4375 2.825
1.3125 0.5 2.7625
1.3125 0.4375 2.7625
1.5 0.4375 2.825
1.5 0.5 2.7625
1.4375 0.5 2.825
1.5 0.4375 2.7625
1.4375 0.4375 2.825
1.4375 0.5 2.7625
1.4375 0.4375 2.7625
1.625 0.4375 2.825
1.625 0.5 2.7625
1.5625 0.5 2.825
1.625 0.4375 2.7625
1.5625 0.4375 2.825
1.5625 0.5 2.7625
1.5625 0.4375 2.7625
1.75 0.4375 2.825
1.75 0.5 2.7625
1.6875 0.5 2.825
1.75 0.4375 2.7625
1.6875 0.4375 2.825
1.6875 0.5 2.7625
1.6875 0.4375 2.7625
1.875 0.4375 2.825
1.875 0.5 2.7625
1.8125 0.5 2.825
1.875 0.4375 2.7625
1.8125 0.4375 2.825
1.8125 0.5 2.7625
1.8125 0.4375 2.7625
2 0.4375 2.825
2 0.5 2.7625
1.9375 0.5 2.825
2 0.4375 2.7625
1.9375 0.4375 2.825
1.9375 0.5 2.7625
1.9375 0.4375 2.7625
2.125 0.4375 2.825
2.125 0.5 2.7625
2.0625 0.5 2.825
2.125 0.4375 2.7625
2.0625 0.4375 2.825
2.0625 0.5 2.7625
2.0625 0.4375 2.7625
2.25 0.4375 2.825
2.25 0.5 2.7625
2.1875 0.5 2.825
2.25 0.4375 2.7625
2.1875 0.4375 2.825
2.1875 0.5 2.7625
2.1875 0.4375 2.7625
2.375 0.4375 2.825
2.375 0.5 2.7625
2.3125 0.5 2.825
2.375 0.4375 2.7625
2.3125 0.4375 2.825
2.3125 0.5 2.7625
2.3125 0.4375 2.7625
2.5 0.4375 2.825
2.5 0.5 2.7625
2.4375 0.5 2.825
2.5 0.4375 2.7625
2.4375 0.4375 2.825
2.4375 0.5 2.7625
2.4375 0.4375 2.7625
2.625 0.4375 2.825
2.625 0.5 2.7625
2.5625 0.5 2.825
2.625 0.4375 2.7625
2.5625 0.4375 2.825
2.5625 0.5 2.7625
2.5625 0.4375 2.7625
2.75 0.4375 2.825
2.75 0.5 2.7625
2.6875 0.5 2.825
2.75 0.4375 2.7625
2.6875 0.4375 2.825
2.6875 0.5 2.7625
2.6875 0.4375 2.7625
2.875 0.4375 2.825
2.875 0.5 2.7625
2.8125 0.5 2.825
2.875 0.4375 2.7625
2.8125 0.4375 2.825
2.8125 0.5 2.7625
2.8125 0.4375 2.7625
3 0.4375 2.825
3 0.5 2.7625
2.9375 0.5 2.825
3 0.4375 2.7625
2.9375 0.4375 2.825
2.9375 0.5 2.7625
2.9375 0.4375 2.7625
0.125 0.5625 2.825
0 0.5625 2.825
0.125 0.625 2.7625
0.0625 0.625 2.825
0 0.625 2.7625
0.125 0.5625 2.7625
0.0625 0.5625 2.825
0 0.5625 2.7625
0.0625 0.625 2.7625
0.0625 0.5625 2.7625
0.25 0.5625 2.825
0.25 0.625 2.7625
0.1875 0.625 2.825
0.25 0.5625 2.7625
0.1875 0.5625 2.825
0.1875 0.625 2.7625
0.1875 0.5625 2.7625
0.375 0.5625 2.825
0.375 0.625 2.7625
0.3125 0.625 2.825
0.375 0.5625 2.7625
0.3125 0.5625 2.825
0.3125 0.625 2.7625
0.3125 0.5625 2.7625
0.5 0.5625 2.825
0.5 0.625 2.7625
0.4375 0.625 2.825
0.5 0.5625 2.7625
0.4375 0.5625 2.825
0.4375 0.625 2.7625
0.4375 0.5625 2.7625
0.625 0.5625 2.825
0.625 0.625 2.7625
0.5625 0.625 2.825
0.625 0.5625 2.7625
0.5625 0.5625 2.825
0.5625 0.625 2.7625
0.5625 0.5625 2.7625
0.75 0.5625 2.825
0.75 0.625 2.7625
0.6875 0.625 2.825
0.75 0.5625 2.7625
0.6875 0.5625 2.825
0.6875 0.625 2.7625
0.6875 0.5625 2.7625
0.875 0.5625 2.825
0.875 0.625 2.7625
0.8125 0.625 2.825
0.875 0.5625 2.7625
0.8125 0.5625 2.825
0.8125 0.625 2.7625
0.8125 0.5625 2.7625
1 0.5625 2.825
1 0.625 2.7625
0.9375 0.625 2.825
1 0.5625 2.7625
0.9375 0.5625 2.825
0.9375 0.625 2.7625
0.9375 0.5625 2.7625
1.125 0.5625 2.825
1.125 0.625 2.7625
1.0625 0.625 2.825
1.125 0.5625 2.7625
1.0625 0.5625 2.825
1.0625 0.625 2.7625
1.0625 0.5625 2.7625
1.25 0.5625 2.825
1.25 0.625 2.7625
1.1875 0.625 2.825
1.25 0.5625 2.7625
1.1875 0.5625 2.825
1.1875 0.625 2.7625
1.1875 0.5625 2.7625
1.375 0.5625 2.825
1.375 0.625 2.7625
1.3125 0.625 2.825
1.375 0.5625 2.7625
1.3125 0.5625 2.825
1.3125 0.625 2.7625
1.3125 0.5625 2.7625
1.5 0.5625 2.825
1.5 0.625 2.7625
1.4375 0.625 2.825
1.5 0.5625 2.7625
1.4375 0.5625 2.825
1.4375 0.625 2.7625
1.4375 0.5625 2.7625
1.625 0.5625 2.825
1.625 0.625 2.7625
1.5625 0.625 2.825
1.625 0.5625 2.7625
1.5625 0.5625 2.825
1.5625 0.625 2.7625
1.5625 0.5625 2.7625
1.75 0.5625 2.825
1.75 0.625 2.7625
1.6875 0.625 2.825
1.75 0.5625 2.7625
1.6875 0.5625 2.825
1.6875 0.625 2.7625
1.6875 0.5625 2.7625
1.875 0.5625 2.825
1.875 0.625 2.7625
1.8125 0.625 2.825
1.875 0.5625 2.7625
1.8125 0.5625 2.825
1.8125 0.625 2.7625
1.8125 0.5625 2.7625
2 0.5625 2.825
2 0.625 2.7625
1.9375 0.625 2.825
2 0.5625 2.7625
1.9375 0.5625 2.825
1.9375 0.625 2.7625
1.9375 0.5625 2.7625
2.125 0.5625 2.825
2.125 0.625 2.7625
2.0625 0.625 2.825
2.125 0.5625 2.7625
2.0625 0.5625 2.825
2.0625 0.625 2.7625
2.0625 0.5625 2.7625
2.25 0.5625 2.825
2.25 0.625 2.7625
2.1875 0.625 2.825
2.25 0.5625 2.7625
2.1875 0.5625 2.825
2.1875 0.625 2.7625
2.1875 0.5625 2.7625
2.375 0.5625 2.825
2.375 0.625 2.7625
2.3125 0.625 2.825
2.375 0.5625 2.7625
2.3125 0.5625 2.825
2.3125 0.625 2.7625
2.3125 0.5625 2.7625
2.5 0.5625 2.825
2.5 0.625 2.7625
2.4375 0.625 2.825
2.5 0.5625 2.7625
2.4375 0.5625 2.825
2.4375 0.625 2.7625
2.4375 0.5625 2.7625
2.625 0.5625 2.825
2.625 0.625 2.7625
2.5625 0.625 2.825
2.625 0.5625 2.7625
2.5625 0.5625 2.825
2.5625 0.625 2.7625
2.5625 0.5625 2.7625
2.75 0.5625 2.825
2.75 0.625 2.7625
2.6875 0.625 2.825
2.75 0.5625 2.7625
2.6875 0.5625 2.825
2.6875 0.625 2.7625
2.6875 0.5625 2.7625
2.875 0.5625 2.825
2.875 0.625 2.7625
2.8125 0.625 2.825
2.875 0.5625 2.7625
2.8125 0.5625 2.825
2.8125 0.625 2.7625
2.8125 0.5625 2.7625
3 0.5625 2.825
3 0.625 2.7625
2.9375 0.625 2.825
3 0.5625 2.7625
2.9375 0.5625 2.825
2.9375 0.625 2.7625
2.9375 0.5625 2.7625
0.125 0.6875 2.825
0 0.6875 2.825
0.125 0.75 2.7625
0.0625 0.75 2.825
0 0.75 2.7625
0.125 0.6875 2.7625
0.0625 0.6875 2.825
0 0.6875 2.7625
0.0625 0.75 2.7625
0.0625 0.6875 2.7625
0.25 0.6875 2.825
0.25 0.75 2.7625
0.1875 0.75 2.825
0.25 0.6875 2.7625
0.1875 0.6875 2.825
0.1875 0.75 2.7625
0.1875 0.6875 2.7625
0.375 0.6875 2.825
0.375 0.75 2.7625
0.3125 0.75 2.825
0.375 0.6875 2.7625
0.3125 0.6875 2.825
0.3125 0.75 2.7625
0.3125 0.6875 2.7625
0.5 0.6875 2.825
0.5 0.75 2.7625
0.4375 0.75 2.825
0.5 0.6875 2.7625
0.4375 0.6875 2.825
0.4375 0.75 2.7625
0.4375 0.6875 2.7625
0.625 0.6875 2.825
0.625 0.75 2.7625
0.5625 0.75 2.825
0.625 0.6875 2.7625
0.5625 0.6875 2.825
0.5625 0.75 2.7625
0.5625 0.6875 2.7625
0.75 0.6875 2.825
0.75 0.75 2.7625
0.6875 0.75 2.825
0.75 0.6875 2.7625
0.6875 0.6875 2.825
0.6875 0.75 2.7625
0.6875 0.6875 2.7625
0.875 0.6875 2.825
0.875 0.75 2.7625
0.8125 0.75 2.825
0.875 0.6875 2.7625
0.8125 0.6875 2.825
0.8125 0.75 2.7625
0.8125 0.6875 2.7625
1 0.6875 2.825
1 0.75 2.7625
0.9375 0.75 2.825
1 0.6875 2.7625
0.9375 0.6875 2.825
0.9375 0.75 2.7625
0.9375 0.6875 2.7625
1.125 0.6875 2.825
1.125 0.75 2.7625
1.0625 0.75 2.825
1.125 0.6875 2.7625
1.0625 0.6875 2.825
1.0625 0.75 2.7625
1.0625 0.6875 2.7625
1.25 0.6875 2.825
1.25 0.75 2.7625
1.1875 0.75 2.825
1.25 0.6875 2.7625
1.1875 0.6875 2.825
1.1875 0.75 2.7625
1.1875 0.6875 2.7625
1.375 0.6875 2.825
1.375 0.75 2.7625
1.3125 0.75 2.825
1.375 0.6875 2.7625
1.3125 0.6875 2.825
1.3125 0.75 2.7625
1.3125 0.6875 2.7625
1.5 0.6875 2.825
1.5 0.75 2.7625
1.4375 0.75 2.825
1.5 0.6875 2.7625
1.4375 0.6875 2.825
1.4375 0.75 2.7625
1.4375 0.6875 2.7625
1.625 0.6875 2.825
1.625 0.75 2.7625
1.5625 0.75 2.825
1.625 0.6875 2.7625
1.5625 0.6875 2.825
1.5625 0.75 2.7625
1.5625 0.6875 2.7625
1.75 0.6875 2.825
1.75 0.75 2.7625
1.6875 0.75 2.825
1.75 0.6875 2.7625
1.6875 0.6875 2.825
1.6875 0.75 2.7625
1.6875 0.6875 2.7625
1.875 0.6875 2.825
1.875 0.75 2.7625
1.8125 0.75 2.825
1.875 0.6875 2.7625
1.8125 0.6875 2.825
1.8125 0.75 2.7625
1.8125 0.6875 2.7625
2 0.6875 2.825
2 0.75 2.7625
1.9375 0.75 2.825
2 0.6875 2.7625
1.9375 0.6875 2.825
1.9375 0.75 2.7625
1.9375 0.6875 2.7625
2.125 0.6875 2.825
2.125 0.75 2.7625
2.0625 0.75 2.825
2.125 0.6875 2.7625
2.0625 0.6875 2.825
2.0625 0.75 2.7625
2.0625 0.6875 2.7625
2.25 0.6875 2.825
2.25 0.75 2.7625
2.1875 0.75 2.825
2.25 0.6875 2.7625
2.1875 0.6875 2.825
2.1875 0.75 2.7625
2.1875 0.6875 2.7625
2.375 0.6875 2.825
2.375 0.75 2.7625
2.3125 0.75 2.825
2.375 0.6875 2.7625
2.3125 0.6875 2.825
2.3125 0.75 2.7625
2.3125 0.6875 2.7625
2.5 0.6875 2.825
2.5 0.75 2.7625
2.4375 0.75 2.825
2.5 0.6875 2.7625
2.4375 0.6875 2.825
2.4375 0.75 2.7625
2.4375 0.6875 2.7625
2.625 0.6875 2.825
2.625 0.75 2.7625
2.5625 0.75 2.825
2.625 0.6875 2.7625
2.5625 0.6875 2.825
2.5625 0.75 2.7625
2.5625 0.6875 2.7625
2.75 0.6875 2.825
2.75 0.75 2.7625
2.6875 0.75 2.825
2.75 0.6875 2.7625
2.6875 0.6875 2.825
2.6875 0.75 2.7625
2.6875 0.6875 2.7625
2.875 0.6875 2.825
2.875 0.75 2.7625
2.8125 0.75 2.825
2.875 0.6875 2.7625
2.8125 0.6875 2.825
2.8125 0.75 2.7625
2.8125 0.6875 2.7625
3 0.6875 2.825
3 0.75 2.7625
2.9375 0.75 2.825
3 0.6875 2.7625
2.9375 0.6875 2.825
2.9375 0.75 2.7625
2.9375 0.6875 2.7625
0.125 0.8125 2.825
0 0.8125 2.825
0.125 0.875 2.7625
0.0625 0.875 2.825
0 0.875 2.7625
0.125 0.8125 2.7625
0.0625 0.8125 2.825
0 0.8125 2.7625
0.0625 0.875 2.7625
0.0625 0.8125 2.7625
0.25 0.8125 2.825
0.25 0.875 2.7625
0.1875 0.875 2.825
0.25 0.8125 2.7625
0.1875 0.8125 2.825
0.1875 0.875 2.7625
0.1875 0.8125 2.7625
0.375 0.8125 2.825
0.375 0.875 2.7625
0.3125 0.875 2.825
0.375 0.8125 2.7625
0.3125 0.8125 2.825
0.3125 0.875 2.7625
0.3125 0.8125 2.7625
0.5 0.8125 2.825
0.5 0.875 2.7625
0.4375 0.875 2.825
0.5 0.8125 2.7625
0.4375 0.8125 2.825
0.4375 0.875 2.7625
0.4375 0.8125 2.7625
0.625 0.8125 2.825
0.625 0.875 2.7625
0.5625 0.875 2.825
0.625 0.8125 2.7625
0.5625 0.8125 2.825
0.5625 0.875 2.7625
0.5625 0.8125 2.7625
0.75 0.8125 2.825
0.75 0.875 2.7625
0.6875 0.875 2.825
0.75 0.8125 2.7625
0.6875 0.8125 2.825
0.6875 0.875 2.7625
0.6875 0.8125 2.7625
0.875 0.8125 2.825
0.875 0.875 2.7625
0.8125 0.875 2.825
0.875 0.8125 2.7625
0.8125 0.8125 2.825
0.8125 0.875 2.7625
0.8125 0.8125 2.7625
1 0.8125 2.825
1 0.875 2.7625
0.9375 0.875 2.825
1 0.8125 2.7625
0.9375 0.8125 2.825
0.9375 0.875 2.7625
0.9375 0.8125 2.7625
1.125 0.8125 2.825
1.125 0.875 2.7625
1.0625 0.875 2.825
1.125 0.8125 2.7625
1.0625 0.8125 2.825
1.0625 0.875 2.7625
1.0625 0.8125 2.7625
1.25 0.8125 2.825
1.25 0.875 2.7625
1.1875 0.875 2.825
1.25 0.8125 2.7625
1.1875 0.8125 2.825
1.1875 0.875 2.7625
1.1875 0.8125 2.7625
1.375 0.8125 2.825
1.375 0.875 2.7625
1.3125 0.875 2.825
1.375 0.8125 2.7625
1.3125 0.8125 2.825
1.3125 0.875 2.7625
1.3125 0.8125 2.7625
1.5 0.8125 2.825
1.5 0.875 2.7625
1.4375 0.875 2.825
1.5 0.8125 2.7625
1.4375 0.8125 2.825
1.4375 0.875 2.7625
1.4375 0.8125 2.7625
1.625 0.8125 2.825
1.625 0.875 2.7625
1.5625 0.875 2.825
1.625 0.8125 2.7625
1.5625 0.8125 2.825
1.5625 0.875 2.7625
1.5625 0.8125 2.7625
1.75 0.8125 2.825
1.75 0.875 2.7625
1.6875 0.875 2.825
1.75 0.8125 2.7625
1.6875 0.8125 2.825
1.6875 0.875 2.7625
1.6875 0.8125 2.7625
1.875 0.8125 2.825
1.875 0.875 2.7625
1.8125 0.875 2.825
1.875 0.8125 2.7625
1.8125 0.8125 2.825
1.8125 0.875 2.7625
1.8125 0.8125 2.7625
2 0.8125 2.825
2 0.875 2.7625
1.9375 0.875 2.825
2 0.8125 2.7625
1.9375 0.8125 2.825
1.9375 0.875 2.7625
1.9375 0.8125 2.7625
2.125 0.8125 2.825
2.125 0.875 2.7625
2.0625 0.875 2.825
2.125 0.8125 2.7625
2.0625 0.8125 2.825
2.0625 0.875 2.7625
2.0625 0.8125 2.7625
2.25 0.8125 2.825
2.25 0.875 2.7625
2.1875 0.875 2.825
2.25 0.8125 2.7625
2.1875 0.8125 2.825
2.1875 0.875 2.7625
2.1875 0.8125 2.7625
2.375 0.8125 2.825
2.375 0.875 2.7625
2.3125 0.875 2.825
2.375 0.8125 2.7625
2.3125 0.8125 2.825
2.3125 0.875 2.7625
2.3125 0.8125 2.7625
2.5 0.8125 2.825
2.5 0.875 2.7625
2.4375 0.875 2.825
2.5 0.8125 2.7625
2.4375 0.8125 2.825
2.4375 0.875 2.7625
2.4375 0.8125 2.7625
2.625 0.8125 2.825
2.625 0.875 2.7625
2.5625 0.875 2.825
2.625 0.8125 2.7625
2.5625 0.8125 2.825
2.5625 0.875 2.7625
2.5625 0.8125 2.7625
2.75 0.8125 2.825
2.75 0.875 2.7625
2.6875 0.875 2.825
2.75 0.8125 2.7625
2.6875 0.8125 2.825
2.6875 0.875 2.7625
2.6875 0.8125 2.7625
2.875 0.8125 2.825
2.875 0.875 2.7625
2.8125 0.875 2.825
2.875 0.8125 2.7625
2.8125 0.8125 2.825
2.8125 0.875 2.7625
2.8125 0.8125 2.7625
3 0.8125 2.825
3 0.875 2.7625
2.9375 0.875 2.825
3 0.8125 2.7625
2.9375 0.8125 2.825
2.9375 0.875 2.7625
2.9375 0.8125 2.7625
0.125 0.9375 2.825
0 0.9375 2.825
0.125 1 2.7625
0.0625 1 2.825
0 1 2.7625
0.125 0.9375 2.7625
0.0625 0.9375 2.825
0 0.9375 2.7625
0.0625 1 2.7625
0.0625 0.9375 2.7625
0.25 0.9375 2.825
0.25 1 2.7625
0.1875 1 2.825
0.25 0.9375 2.7625
0.1875 0.9375 2.825
0.1875 1 2.7625
0.1875 0.9375 2.7625
0.375 0.9375 2.825
0.375 1 2.7625
0.3125 1 2.825
0.375 0.9375 2.7625
0.3125 0.9375 2.825
0.3125 1 2.7625
0.3125 0.9375 2.7625
0.5 0.9375 2.825
0.5 1 2.7625
0.4375 1 2.825
0.5 0.9375 2.7625
0.4375 0.9375 2.825
0.4375 1 2.7625
0.4375 0.9375 2.7625
0.625 0.9375 2.825
0.625 1 2.7625
0.5625 1 2.825
0.625 0.9375 2.7625
0.5625 0.9375 2.825
0.5625 1 2.7625
0.5625 0.9375 2.7625
0.75 0.9375 2.825
0.75 1 2.7625
0.6875 1 2.825
0.75 0.9375 2.7625
0.6875 0.9375 2.825
0.6875 1 2.7625
0.6875 0.9375 2.7625
0.875 0.9375 2.825
0.875 1 2.7625
0.8125 1 2.825
0.875 0.9375 2.7625
0.8125 0.9375 2.825
0.8125 1 2.7625
0.8125 0.9375 2.7625
1 0.9375 2.825
1 1 2.7625
0.9375 1 2.825
1 0.9375 2.7625
0.9375 0.9375 2.825
0.9375 1 2.7625
0.9375 0.9375 2.7625
1.125 0.9375 2.825
1.125 1 2.7625
1.0625 1 2.825
1.125 0.9375 2.7625
1.0625 0.9375 2.825
1.0625 1 2.7625
1.0625 0.9375 2.7625
1.25 0.9375 2.825
1.25 1 2.7625
1.1875 1 2.825
1.25 0.9375 2.7625
1.1875 0.9375 2.825
1.1875 1 2.7625
1.1875 0.9375 2.7625
1.375 0.9375 2.825
1.375 1 2.7625
1.3125 1 2.825
1.375 0.9375 2.7625
1.3125 0.9375 2.825
1.3125 1 2.7625
1.3125 0.9375 2.7625
1.5 0.9375 2.825
1.5 1 2.7625
1.4375 1 2.825
1.5 0.9375 2.7625
1.4375 0.9375 2.825
1.4375 1 2.7625
1.4375 0.9375 2.7625
1.625 0.9375 2.825
1.625 1 2.7625
1.5625 1 2.825
1.625 0.9375 2.7625
1.5625 0.9375 2.825
1.5625 1 2.7625
1.5625 0.9375 2.7625
1.75 0.9375 2.825
1.75 1 2.7625
1.6875 1 2.825
1.75 0.9375 2.7625
1.6875 0.9375 2.825
1.6875 1 2.7625
1.6875 0.9375 2.7625
1.875 0.9375 2.825
1.875 1 2.7625
1.8125 1 2.825
1.875 0.9375 2.7625
1.8125 0.9375 2.825
1.8125 1 2.7625
1.8125 0.9375 2.7625
2 0.9375 2.825
2 1 2.7625
1.9375 1 2.825
2 0.9375 2.7625
1.9375 0.9375 2.825
1.9375 1 2.7625
1.9375 0.9375 2.7625
2.125 0.9375 2.825
2.125 1 2.7625
2.0625 1 2.825
2.125 0.9375 2.7625
2.0625 0.9375 2.825
2.0625 1 2.7625
2.0625 0.9375 2.7625
2.25 0.9375 2.825
2.25 1 2.7625
2.1875 1 2.825
2.25 0.9375 2.7625
2.1875 0.9375 2.825
2.1875 1 2.7625
2.1875 0.9375 2.7625
2.375 0.9375 2.825
2.375 1 2.7625
2.3125 1 2.825
2.375 0.9375 2.7625
2.3125 0.9375 2.825
2.3125 1 2.7625
2.3125 0.9375 2.7625
2.5 0.9375 2.825
2.5 1 2.7625
2.4375 1 2.825
2.5 0.9375 2.7625
2.4375 0.9375 2.825
2.4375 1 2.7625
2.4375 0.9375 2.7625
2.625 0.9375 2.825
2.625 1 2.7625
2.5625 1 2.825
2.625 0.9375 2.7625
2.5625 0.9375 2.825
2.5625 1 2.7625
2.5625 0.9375 2.7625
2.75 0.9375 2.825
2.75 1 2.7625
2.6875 1 2.825
2.75 0.9375 2.7625
2.6875 0.9375 2.825
2.6875 1 2.7625
2.6875 0.9375 2.7625
2.875 0.9375 2.825
2.875 1 2.7625
2.8125 1 2.825
2.875 0.9375 2.7625
2.8125 0.9375 2.825
2.8125 1 2.7625
2.8125 0.9375 2.7625
3 0.9375 2.825
3 1 2.7625
2.9375 1 2.825
3 0.9375 2.7625
2.9375 0.9375 2.825
2.9375 1 2.7625
2.9375 0.9375 2.7625
0.125 0 2.8875
0.0625 0 2.95
0 0 2.8875
0.125 0.0625 2.95
0 0.0625 2.95
0.125 0.125 2.8875
0.0625 0.125 2.95
0 0.125 2.8875
0.0625 0 2.8875
0.125 0.0625 2.8875
0.0625 0.0625 2.95
0 0.0625 2.8875
0.0625 0.125 2.8875
0.0625 0.0625 2.8875
0.25 0 2.8875
0.1875 0 2.95
0.25 0.0625 2.95
0.25 0.125 2.8875
0.1875 0.125 2.95
0.1875 0 2.8875
0.25 0.0625 2.8875
0.1875 0.0625 2.95
0.1875 0.125 2.8875
0.1875 0.0625 2.8875
0.375 0 2.8875
0.3125 0 2.95
0.375 0.0625 2.95
0.375 0.125 2.8875
0.3125 0.125 2.95
0.3125 0 2.8875
0.375 0.0625 2.8875
0.3125 0.0625 2.95
0.3125 0.125 2.8875
0.3125 0.0625 2.8875
0.5 0 2.8875
0.4375 0 2.95
0.5 0.0625 2.95
0.5 0.125 2.8875
0.4375 0.125 2.95
0.4375 0 2.8875
0.5 0.0625 2.8875
0.4375 0.0625 2.95
0.4375 0.125 2.8875
0.4375 0.0625 2.8875
0.625 0 2.8875
0.5625 0 2.95
0.625 0.0625 2.95
0.625 0.125 2.8875
0.5625 0.125 2.95
0.5625 0 2.8875
0.625 0.0625 2.8875
0.5625 0.0625 2.95
0.5625 0.125 2.8875
0.5625 0.0625 2.8875
0.75 0 2.8875
0.6875 0 2.95
0.75 0.0625 2.95
0.75 0.125 2.8875
0.6875 0.125 2.95
0.6875 0 2.8875
0.75 0.0625 2.8875
0.6875 0.0625 2.95
0.6875 0.125 2.8875
0.6875 0.0625 2.8875
0.875 0 2.8875
0.8125 0 2.95
0.875 0.0625 2.95
0.875 0.125 2.8875
0.8125 0.125 2.95
0.8125 0 2.8875
0.875 0.0625 2.8875
0.8125 0.0625 2.95
0.8125 0.125 2.8875
0.8125 0.0625 2.8875
1 0 2.8875
0.9375 0 2.95
1 0.0625 2.95
1 0.125 2.8875
0.9375 0.125 2.95
0.9375 0 2.8875
1 0.0625 2.8875
0.9375 0.0625 2.95
0.9375 0.125 2.8875
0.9375 0.0625 2.8875
1.125 0 2.8875
1.0625 0 2.95
1.125 0.0625 2.95
1.125 0.125 2.8875
1.0625 0.125 2.95
1.0625 0 2.8875
1.125 0.0625 2.8875
1.0625 0.0625 2.95
1.0625 0.125 2.8875
1.0625 0.0625 2.8875
1.25 0 2.8875
1.1875 0 2.95
1.25 0.0625 2.95
1.25 0.125 2.8875
1.1875 0.125 2.95
1.1875 0 2.8875
1.25 0.0625 2.8875
1.1875 0.0625 2.95
1.1875 0.125 2.8875
1.1875 0.0625 2.8875
1.375 0 2.8875
1.3125 0 2.95
1.375 0.0625 2.95
1.375 0.125 2.8875
1.3125 0.125 2.95
1.3125 0 2.8875
1.375 0.0625 2.8875
1.3125 0.0625 2.95
1.3125 0.125 2.8875
1.3125 0.0625 2.8875
1.5 0 2.8875
1.4375 0 2.95
1.5 0.0625 2.95
1.5 0.125 2.8875
1.4375 0.125 2.95
1.4375 0 2.8875
1.5 0.0625 2.8875
1.4375 0.0625 2.95
1.4375 0.125 2.8875
1.4375 0.0625 2.8875
1.625 0 2.8875
1.5625 0 2.95
1.625 0.0625 2.95
1.625 0.125 2.8875
1.5625 0.125 2.95
1.5625 0 2.8875
1.625 0.0625 2.8875
1.5625 0.0625 2.95
1.5625 0.125 2.8875
1.5625 0.0625 2.8875
1.75 0 2.8875
1.6875 0 2.95
1.75 0.0625 2.95
1.75 0.125 2.8875
1.6875 0.125 2.95
1.6875 0 2.8875
1.75 0.0625 2.8875
1.6875 0.0625 2.95
1.6875 0.125 2.8875
1.6875 0.0625 2.8875
1.875 0 2.8875
1.8125 0 2.95
1.875 0.0625 2.95
1.875 0.125 2.8875
1.8125 0.125 2.95
1.8125 0 2.8875
1.875 0.0625 2.8875
1.8125 0.0625 2.95
1.8125 0.125 2.8875
1.8125 0.0625 2.8875
2 0 2.8875
1.9375 0 2.95
2 0.0625 2.95
2 0.125 2.8875
1.9375 0.125 2.95
1.9375 0 2.8875
2 0.0625 2.8875
1.9375 0.0625 2.95
1.9375 0.125 2.8875
1.9375 0.0625 2.8875
2.125 0 2.8875
2.0625 0 2.95
2.125 0.0625 2.95
2.125 0.125 2.8875
2.0625 0.125 2.95
2.0625 0 2.8875
2.125 0.0625 2.8875
2.0625 0.0625 2.95
2.0625 0.125 2.8875
2.0625 0.0625 2.8875
2.25 0 2.8875
2.1875 0 2.95
2.25 0.0625 2.95
2.25 0.125 2.8875
2.1875 0.125 2.95
2.1875 0 2.8875
2.25 0.0625 2.8875
2.1875 0.0625 2.95
2.1875 0.125 2.8875
2.1875 0.0625 2.8875
2.375 0 2.8875
2.3125 0 2.95
2.375 0.0625 2.95
2.375 0.125 2.8875
2.3125 0.125 2.95
2.3125 0 2.8875
2.375 0.0625 2.8875
2.3125 0.0625 2.95
2.3125 0.125 2.8875
2.3125 0.0625 2.8875
2.5 0 2.8875
2.4375 0 2.95
2.5 0.0625 2.95
2.5 0.125 2.8875
2.4375 0.125 2.95
2.4375 0 2.8875
2.5 0.0625 2.8875
2.4375 0.0625 2.95
2.4375 0.125 2.8875
2.4375 0.0625 2.8875
2.625 0 2.8875
2.5625 0 2.95
2.625 0.0625 2.95
2.625 0.125 2.8875
2.5625 0.125 2.95
2.5625 0 2.8875
2.625 0.0625 2.8875
2.5625 0.0625 2.95
2.5625 0.125 2.8875
2.5625 0.0625 2.8875
2.75 0 2.8875
2.6875 0 2.95
2.75 0.0625 2.95
2.75 0.125 2.8875
2.6875 0.125 2.95
2.6875 0 2.8875
2.75 0.0625 2.8875
2.6875 0.0625 2.95
2.6875 0.125 2.8875
2.6875 0.0625 2.8875
2.875 0 2.8875
2.8125 0 2.95
2.875 0.0625 2.95
2.875 0.125 2.8875
2.8125 0.125 2.95
2.8125 0 2.8875
2.875 0.0625 2.8875
2.8125 0.0625 2.95
2.8125 0.125 2.8875
2.8125 0.0625 2.8875
3 0 2.8875
2.9375 0 2.95
3 0.0625 2.95
3 0.125 2.8875
2.9375 0.125 2.95
2.9375 0 2.8875
3 0.0625 2.8875
2.9375 0.0625 2.95
2.9375 0.125 2.8875
2.9375 0.0625 2.8875
0.125 0.1875 2.95
0 0.1875 2.95
0.125 0.25 2.8875
0.0625 0.25 2.95
0 0.25 2.8875
0.125 0.1875 2.8875
0.0625 0.1875 2.95
0 0.1875 2.8875
0.0625 0.25 2.8875
0.0625 0.1875 2.8875
0.25 0.1875 2.95
0.25 0.25 2.8875
0.1875 0.25 2.95
0.25 0.1875 2.8875
0.1875 0.1875 2.95
0.1875 0.25 2.8875
0.1875 0.1875 2.8875
0.375 0.1875 2.95
0.375 0.25 2.8875
0.3125 0.25 2.95
0.375 0.1875 2.8875
0.3125 0.1875 2.95
0.3125 0.25 2.8875
0.3125 0.1875 2.8875
0.5 0.1875 2.95
0.5 0.25 2.8875
0.4375 0.25 2.95
0.5 0.1875 2.8875
0.4375 0.1875 2.95
0.4375 0.25 2.8875
0.4375 0.1875 2.8875
0.625 0.1875 2.95
0.625 0.25 2.8875
0.5625 0.25 2.95
0.625 0.1875 2.8875
0.5625 0.1875 2.95
0.5625 0.25 2.8875
0.5625 0.1875 2.8875
0.75 0.1875 2.95
0.75 0.25 2.8875
0.6875 0.25 2.95
0.75 0.1875 2.8875
0.6875 0.1875 2.95
0.6875 0.25 2.8875
0.6875 0.1875 2.8875
0.875 0.1875 2.95
0.875 0.25 2.8875
0.8125 0.25 2.95
0.875 0.1875 2.8875
0.8125 0.1875 2.95
0.8125 0.25 2.8875
0.8125 0.1875 2.8875
1 0.1875 2.95
1 0.25 2.8875
0.9375 0.25 2.95
1 0.1875 2.8875
0.9375 0.1875 2.95
0.9375 0.25 2.8875
0.9375 0.1875 2.8875
1.125 0.1875 2.95
1.125 0.25 2.8875
1.0625 0.25 2.95
1.125 0.1875 2.8875
1.0625 0.1875 2.95
1.0625 0.25 2.8875
1.0625 0.1875 2.8875
1.25 0.1875 2.95
1.25 0.25 2.8875
1.1875 0.25 2.95
1.25 0.1875 2.8875
1.1875 0.1875 2.95
1.1875 0.25 2.8875
1.1875 0.1875 2.8875
1.375 0.1875 2.95
1.375 0.25 2.8875
1.3125 0.25 2.95
1.375 0.1875 2.8875
1.3125 0.1875 2.95
1.3125 0.25 2.8875
1.3125 0.1875 2.8875
1.5 0.1875 2.95
1.5 0.25 2.8875
1.4375 0.25 2.95
1.5 0.1875 2.8875
1.4375 0.1875 2.95
1.4375 0.25 2.8875
1.4375 0.1875 2.8875
1.625 0.1875 2.95
1.625 0.25 2.8875
1.5625 0.25 2.95
1.625 0.1875 2.8875
1.5625 0.1875 2.95
1.5625 0.25 2.8875
1.5625 0.1875 2.8875
1.75 0.1875 2.95
1.75 0.25 2.8875
1.6875 0.25 2.95
1.75 0.1875 2.8875
1.6875 0.1875 2.95
1.6875 0.25 2.8875
1.6875 0.1875 2.8875
1.875 0.1875 2.95
1.875 0.25 2.8875
1.8125 0.25 2.95
1.875 0.1875 2.8875
1.8125 0.1875 2.95
1.8125 0.25 2.8875
1.8125 0.1875 2.8875
2 0.1875 2.95
2 0.25 2.8875
1.9375 0.25 2.95
2 0.1875 2.8875
1.9375 0.1875 2.95
1.9375 0.25 2.8875
1.9375 0.1875 2.8875
2.125 0.1875 2.95
2.125 0.25 2.8875
2.0625 0.25 2.95
2.125 0.1875 2.8875
2.0625 0.1875 2.95
2.0625 0.25 2.8875
2.0625 0.1875 2.8875
2.25 0.1875 2.95
2.25 0.25 2.8875
2.1875 0.25 2.95
2.25 0.1875 2.8875
2.1875 0.1875 2.95
2.1875 0.25 2.8875
2.1875 0.1875 2.8875
2.375 0.1875 2.95
2.375 0.25 2.8875
2.3125 0.25 2.95
2.375 0.1875 2.8875
2.3125 0.1875 2.95
2.3125 0.25 2.8875
2.3125 0.1875 2.8875
2.5 0.1875 2.95
2.5 0.25 2.8875
2.4375 0.25 2.95
2.5 0.1875 2.8875
2.4375 0.1875 2.95
2.4375 0.25 2.8875
2.4375 0.1875 2.8875
2.625 0.1875 2.95
2.625 0.25 2.8875
2.5625 0.25 2.95
2.625 0.1875 2.8875
2.5625 0.1875 2.95
2.5625 0.25 2.8875
2.5625 0.1875 2.8875
2.75 0.1875 2.95
2.75 0.25 2.8875
2.6875 0.25 2.95
2.75 0.1875 2.8875
2.6875 0.1875 2.95
2.6875 0.25 2.8875
2.6875 0.1875 2.8875
2.875 0.1875 2.95
2.875 0.25 2.8875
2.8125 0.25 2.95
2.875 0.1875 2.8875
2.8125 0.1875 2.95
2.8125 0.25 2.8875
2.8125 0.1875 2.8875
3 0.1875 2.95
3 0.25 2.8875
2.9375 0.25 2.95
3 0.1875 2.8875
2.9375 0.1875 2.95
2.9375 0.25 2.8875
2.9375 0.1875 2.8875
0.125 0.3125 2.95
0 0.3125 2.95
0.125 0.375 2.8875
0.0625 0.375 2.95
0 0.375 2.8875
0.125 0.3125 2.8875
0.0625 0.3125 2.95
0 0.3125 2.8875
0.0625 0.375 2.8875
0.0625 0.3125 2.8875
0.25 0.3125 2.95
0.25 0.375 2.8875
0.1875 0.375 2.95
0.25 0.3125 2.8875
0.1875 0.3125 2.95
0.1875 0.375 2.8875
0.1875 0.3125 2.8875
0.375 0.3125 2.95
0.375 0.375 2.8875
0.3125 0.375 2.95
0.375 0.3125 2.8875
0.3125 0.3125 2.95
0.3125 0.375 2.8875
0.3125 0.3125 2.8875
0.5 0.3125 2.95
0.5 0.375 2.8875
0.4375 0.375 2.95
0.5 0.3125 2.8875
0.4375 0.3125 2.95
0.4375 0.375 2.8875
0.4375 0.3125 2.8875
0.625 0.3125 2.95
0.625 0.375 2.8875
0.5625 0.375 2.95
0.625 0.3125 2.8875
0.5625 0.3125 2.95
0.5625 0.375 2.8875
0.5625 0.3125 2.8875
0.75 0.3125 2.95
0.75 0.375 2.8875
0.6875 0.375 2.95
0.75 0.3125 2.8875
0.6875 0.3125 2.95
0.6875 0.375 2.8875
0.6875 0.3125 2.8875
0.875 0.3125 2.95
0.875 0.375 2.8875
0.8125 0.375 2.95
0.875 0.3125 2.8875
0.8125 0.3125 2.95
0.8125 0.375 2.8875
0.8125 0.3125 2.8875
1 0.3125 2.95
1 0.375 2.8875
0.9375 0.375 2.95
1 0.3125 2.8875
0.9375 0.3125 2.95
0.9375 0.375 2.8875
0.9375 0.3125 2.8875
1.125 0.3125 2.95
1.125 0.375 2.8875
1.0625 0.375 2.95
1.125 0.3125 2.8875
1.0625 0.3125 2.95
1.0625 0.375 2.8875
1.0625 0.3125 2.8875
1.25 0.3125 2.95
1.25 0.375 2.8875
1.1875 0.375 2.95
1.25 0.3125 2.8875
1.1875 0.3125 2.95
1.1875 0.375 2.8875
1.1875 0.3125 2.8875
1.375 0.3125 2.95
1.375 0.375 2.8875
1.3125 0.375 2.95
1.375 0.3125 2.8875
1.3125 0.3125 2.95
1.3125 0.375 2.8875
1.3125 0.3125 2.8875
1.5 0.3125 2.95
1.5 0.375 2.8875
1.4375 0.375 2.95
1.5 0.3125 2.8875
1.4375 0.3125 2.95
1.4375 0.375 2.8875
1.4375 0.3125 2.8875
1.625 0.3125 2.95
1.625 0.375 2.8875
1.5625 0.375 2.95
1.625 0.3125 2.8875
1.5625 0.3125 2.95
1.5625 0.375 2.8875
1.5625 0.3125 2.8875
1.75 0.3125 2.95
1.75 0.375 2.8875
1.6875 0.375 2.95
1.75 0.3125 2.8875
1.6875 0.3125 2.95
1.6875 0.375 2.8875
1.6875 0.3125 2.8875
1.875 0.3125 2.95
1.875 0.375 2.8875
1.8125 0.375 2.95
1.875 0.3125 2.8875
1.8125 0.3125 2.95
1.8125 0.375 2.8875
1.8125 0.3125 2.8875
2 0.3125 2.95
2 0.375 2.8875
1.9375 0.375 2.95
2 0.3125 2.8875
1.9375 0.3125 2.95
1.9375 0.375 2.8875
1.9375 0.3125 2.8875
2.125 0.3125 2.95
2.125 0.375 2.8875
2.0625 0.375 2.95
2.125 0.3125 2.8875
2.0625 0.3125 2.95
2.0625 0.375 2.8875
2.0625 0.3125 2.8875
2.25 0.3125 2.95
2.25 0.375 2.8875
2.1875 0.375 2.95
2.25 0.3125 2.8875
2.1875 0.3125 2.95
2.1875 0.375 2.8875
2.1875 0.3125 2.8875
2.375 0.3125 2.95
2.375 0.375 2.8875
2.3125 0.375 2.95
2.375 0.3125 2.8875
2.3125 0.3125 2.95
2.3125 0.375 2.8875
2.3125 0.3125 2.8875
2.5 0.3125 2.95
2.5 0.375 2.8875
2.4375 0.375 2.95
2.5 0.3125 2.8875
2.4375 0.3125 2.95
2.4375 0.375 2.8875
2.4375 0.3125 2.8875
2.625 0.3125 2.95
2.625 0.375 2.8875
2.5625 0.375 2.95
2.625 0.3125 2.8875
2.5625 0.3125 2.95
2.5625 0.375 2.8875
2.5625 0.3125 2.8875
2.75 0.3125 2.95
2.75 0.375 2.8875
2.6875 0.375 2.95
2.75 0.3125 2.8875
2.6875 0.3125 2.95
2.6875 0.375 2.8875
2.6875 0.3125 2.8875
2.875 0.3125 2.95
2.875 0.375 2.8875
2.8125 0.375 2.95
2.875 0.3125 2.8875
2.8125 0.3125 2.95
2.8125 0.375 2.8875
2.8125 0.3125 2.8875
3 0.3125 2.95
3 0.375 2.8875
2.9375 0.375 2.95
3 0.3125 2.8875
2.9375 0.3125 2.95
2.9375 0.375 2.8875
2.9375 0.3125 2.8875
0.125 0.4375 2.95
0 0.4375 2.95
0.125 0.5 2.8875
0.0625 0.5 2.95
0 0.5 2.8875
0.125 0.4375 2.8875
0.0625 0.4375 2.95
0 0.4375 2.8875
0.0625 0.5 2.8875
0.0625 0.4375 2.8875
0.25 0.4375 2.95
0.25 0.5 2.8875
0.1875 0.5 2.95
0.25 0.4375 2.8875
0.1875 0.4375 2.95
0.1875 0.5 2.8875
0.1875 0.4375 2.8875
0.375 0.4375 2.95
0.375 0.5 2.8875
0.3125 0.5 2.95
0.375 0.4375 2.8875
0.3125 0.4375 2.95
0.3125 0.5 2.8875
0.3125 0.4375 2.8875
0.5 0.4375 2.95
0.5 0.5 2.8875
0.4375 0.5 2.95
0.5 0.4375 2.8875
0.4375 0.4375 2.95
0.4375 0.5 2.8875
0.4375 0.4375 2.8875
0.625 0.4375 2.95
0.625 0.5 2.8875
0.5625 0.5 2.95
0.625 0.4375 2.8875
0.5625 0.4375 2.95
0.5625 0.5 2.8875
0.5625 0.4375 2.8875
0.75 0.4375 2.95
0.75 0.5 2.8875
0.6875 0.5 2.95
0.75 0.4375 2.8875
0.6875 0.4375 2.95
0.6875 0.5 2.8875
0.6875 0.4375 2.8875
0.875 0.4375 2.95
0.875 0.5 2.8875
0.8125 0.5 2.95
0.875 0.4375 2.8875
0.8125 0.4375 2.95
0.8125 0.5 2.8875
0.8125 0.4375 2.8875
1 0.4375 2.95
1 0.5 2.8875
0.9375 0.5 2.95
1 0.4375 2.8875
0.9375 0.4375 2.95
0.9375 0.5 2.8875
0.9375 0.4375 2.8875
1.125 0.4375 2.95
1.125 0.5 2.8875
1.0625 0.5 2.95
1.125 0.4375 2.8875
1.0625 0.4375 2.95
1.0625 0.5 2.8875
1.0625 0.4375 2.8875
1.25 0.4375 2.95
1.25 0.5 2.8875
1.1875 0.5 2.95
1.25 0.4375 2.8875
1.1875 0.4375 2.95
1.1875 0.5 2.8875
1.1875 0.4375 2.8875
1.375 0.4375 2.95
1.375 0.5 2.8875
1.3125 0.5 2.95
1.375 0.4375 2.8875
1.3125 0.4375 2.95
1.3125 0.5 2.8875
1.3125 0.4375 2.8875
1.5 0.4375 2.95
1.5 0.5 2.8875
1.4375 0.5 2.95
1.5 0.4375 2.8875
1.4375 0.4375 2.95
1.4375 0.5 2.8875
1.4375 0.4375 2.8875
1.625 0.4375 2.95
1.625 0.5 2.8875
1.5625 0.5 2.95
1.625 0.4375 2.8875
1.5625 0.4375 2.95
1.5625 0.5 2.8875
1.5625 0.4375 2.8875
1.75 0.4375 2.95
1.75 0.5 2.8875
1.6875 0.5 2.95
1.75 0.4375 2.8875
1.6875 0.4375 2.95
1.6875 0.5 2.8875
1.6875 0.4375 2.8875
1.875 0.4375 2.95
1.875 0.5 2.8875
1.8125 0.5 2.95
1.875 0.4375 2.8875
1.8125 0.4375 2.95
1.8125 0.5 2.8875
1.8125 0.4375 2.8875
2 0.4375 2.95
2 0.5 2.8875
1.9375 0.5 2.95
2 0.4375 2.8875
1.9375 0.4375 2.95
1.9375 0.5 2.8875
1.9375 0.4375 2.8875
2.125 0.4375 2.95
2.125 0.5 2.8875
2.0625 0.5 2.95
2.125 0.4375 2.8875
2.0625 0.4375 2.95
2.0625 0.5 2.8875
2.0625 0.4375 2.8875
2.25 0.4375 2.95
2.25 0.5 2.8875
2.1875 0.5 2.95
2.25 0.4375 2.8875
2.1875 0.4375 2.95
2.1875 0.5 2.8875
2.1875 0.4375 2.8875
2.375 0.4375 2.95
2.375 0.5 2.8875
2.3125 0.5 2.95
2.375 0.4375 2.8875
2.3125 0.4375 2.95
2.3125 0.5 2.8875
2.3125 0.4375 2.8875
2.5 0.4375 2.95
2.5 0.5 2.8875
2.4375 0.5 2.95
2.5 0.4375 2.8875
2.4375 0.4375 2.95
2.4375 0.5 2.8875
2.4375 0.4375 2.8875
2.625 0.4375 2.95
2.625 0.5 2.8875
2.5625 0.5 2.95
2.625 0.4375 2.8875
2.5625 0.4375 2.95
2.5625 0.5 2.8875
2.5625 0.4375 2.8875
2.75 0.4375 2.95
2.75 0.5 2.8875
2.6875 0.5 2.95
2.75 0.4375 2.8875
2.6875 0.4375 2.95
2.6875 0.5 2.8875
2.6875 0.4375 2.8875
2.875 0.4375 2.95
2.875 0.5 2.8875
2.8125 0.5 2.95
2.875 0.4375 2.8875
2.8125 0.4375 2.95
2.8125 0.5 2.8875
2.8125 0.4375 2.8875
3 0.4375 2.95
3 0.5 2.8875
2.9375 0.5 2.95
3 0.4375 2.8875
2.9375 0.4375 2.95
2.9375 0.5 2.8875
2.9375 0.4375 2.8875
0.125 0.5625 2.95
0 0.5625 2.95
0.125 0.625 2.8875
0.0625 0.625 2.95
0 0.625 2.8875
0.125 0.5625 2.8875
0.0625 0.5625 2.95
0 0.5625 2.8875
0.0625 0.625 2.8875
0.0625 0.5625 2.8875
0.25 0.5625 2.95
0.25 0.625 2.8875
0.1875 0.625 2.95
0.25 0.5625 2.8875
0.1875 0.5625 2.95
0.1875 0.625 2.8875
0.1875 0.5625 2.8875
0.375 0.5625 2.95
0.375 0.625 2.8875
0.3125 0.625 2.95
0.375 0.5625 2.8875
0.3125 0.5625 2.95
0.3125 0.625 2.8875
0.3125 0.5625 2.8875
0.5 0.5625 2.95
0.5 0.625 2.8875
0.4375 0.625 2.95
0.5 0.5625 2.8875
0.4375 0.5625 2.95
0.4375 0.625 2.8875
0.4375 0.5625 2.8875
0.625 0.5625 2.95
0.625 0.625 2.8875
0.5625 0.625 2.95
0.625 0.5625 2.8875
0.5625 0.5625 2.95
0.5625 0.625 2.8875
0.5625 0.5625 2.8875
0.75 0.5625 2.95
0.75 0.625 2.8875
0.6875 0.625 2.95
0.75 0.5625 2.8875
0.6875 0.5625 2.95
0.6875 0.625 2.8875
0.6875 0.5625 2.8875
0.875 0.5625 2.95
0.875 0.625 2.8875
0.8125 0.625 2.95
0.875 0.5625 2.8875
0.8125 0.5625 2.95
0.8125 0.625 2.8875
0.8125 0.5625 2.8875
1 0.5625 2.95
1 0.625 2.8875
0.9375 0.625 2.95
1 0.5625 2.8875
0.9375 0.5625 2.95
0.9375 0.625 2.8875
0.9375 0.5625 2.8875
1.125 0.5625 2.95
1.125 0.625 2.8875
1.0625 0.625 2.95
1.125 0.5625 2.8875
1.0625 0.5625 2.95
1.0625 0.625 2.8875
1.0625 0.5625 2.8875
1.25 0.5625 2.95
1.25 0.625 2.8875
1.1875 0.625 2.95
1.25 0.5625 2.8875
1.1875 0.5625 2.95
1.1875 0.625 2.8875
1.1875 0.5625 2.8875
1.375 0.5625 2.95
1.375 0.625 2.8875
1.3125 0.625 2.95
1.375 0.5625 2.8875
1.3125 0.5625 2.95
1.3125 0.625 2.8875
1.3125 0.5625 2.8875
1.5 0.5625 2.95
1.5 0.625 2.8875
1.4375 0.625 2.95
1.5 0.5625 2.8875
1.4375 0.5625 2.95
1.4375 0.625 2.8875
1.4375 0.5625 2.8875
1.625 0.5625 2.95
1.625 0.625 2.8875
1.5625 0.625 2.95
1.625 0.5625 2.8875
1.5625 0.5625 2.95
1.5625 0.625 2.8875
1.5625 0.5625 2.8875
1.75 0.5625 2.95
1.75 0.625 2.8875
1.6875 0.625 2.95
1.75 0.5625 2.8875
1.6875 0.5625 2.95
1.6875 0.625 2.8875
1.6875 0.5625 2.8875
1.875 0.5625 2.95
1.875 0.625 2.8875
1.8125 0.625 2.95
1.875 0.5625 2.8875
1.8125 0.5625 2.95
1.8125 0.625 2.8875
1.8125 0.5625 2.8875
2 0.5625 2.95
2 0.625 2.8875
1.9375 0.625 2.95
2 0.5625 2.8875
1.9375 0.5625 2.95
1.9375 0.625 2.8875
1.9375 0.5625 2.8875
2.125 0.5625 2.95
2.125 0.625 2.8875
2.0625 0.625 2.95
2.125 0.5625 2.8875
2.0625 0.5625 2.95
2.0625 0.625 2.8875
2.0625 0.5625 2.8875
2.25 0.5625 2.95
2.25 0.625 2.8875
2.1875 0.625 2.95
2.25 0.5625 2.8875
2.1875 0.5625 2.95
2.1875 0.625 2.8875
2.1875 0.5625 2.8875
2.375 0.5625 2.95
2.375 0.625 2.8875
2.3125 0.625 2.95
2.375 0.5625 2.8875
2.3125 0.5625 2.95
2.3125 0.625 2.8875
2.3125 0.5625 2.8875
2.5 0.5625 2.95
2.5 0.625 2.8875
2.4375 0.625 2.95
2.5 0.5625 2.8875
2.4375 0.5625 2.95
2.4375 0.625 2.8875
2.4375 0.5625 2.8875
2.625 0.5625 2.95
2.625 0.625 2.8875
2.5625 0.625 2.95
2.625 0.5625 2.8875
2.5625 0.5625 2.95
2.5625 0.625 2.8875
2.5625 0.5625 2.8875
2.75 0.5625 2.95
2.75 0.625 2.8875
2.6875 0.625 2.95
2.75 0.5625 2.8875
2.6875 0.5625 2.95
2.6875 0.625 2.8875
2.6875 0.5625 2.8875
2.875 0.5625 2.95
2.875 0.625 2.8875
2.8125 0.625 2.95
2.875 0.5625 2.8875
2.8125 0.5625 2.95
2.8125 0.625 2.8875
2.8125 0.5625 2.8875
3 0.5625 2.95
3 0.625 2.8875
2.9375 0.625 2.95
3 0.5625 2.8875
2.9375 0.5625 2.95
2.9375 0.625 2.8875
2.9375 0.5625 2.8875
0.125 0.6875 2.95
0 0.6875 2.95
0.125 0.75 2.8875
0.0625 0.75 2.95
0 0.75 2.8875
0.125 0.6875 2.8875
0.0625 0.6875 2.95
0 0.6875 2.8875
0.0625 0.75 2.8875
0.0625 0.6875 2.8875
0.25 0.6875 2.95
0.25 0.75 2.8875
0.1875 0.75 2.95
0.25 0.6875 2.8875
0.1875 0.6875 2.95
0.1875 0.75 2.8875
0.1875 0.6875 2.8875
0.375 0.6875 2.95
0.375 0.75 2.8875
0.3125 0.75 2.95
0.375 0.6875 2.8875
0.3125 0.6875 2.95
0.3125 0.75 2.8875
0.3125 0.6875 2.8875
0.5 0.6875 2.95
0.5 0.75 2.8875
0.4375 0.75 2.95
0.5 0.6875 2.8875
0.4375 0.6875 2.95
0.4375 0.75 2.8875
0.4375 0.6875 2.8875
0.625 0.6875 2.95
0.625 0.75 2.8875
0.5625 0.75 2.95
0.625 0.6875 2.8875
0.5625 0.6875 2.95
0.5625 0.75 2.8875
0.5625 0.6875 2.8875
0.75 0.6875 2.95
0.75 0.75 2.8875
0.6875 0.75 2.95
0.75 0.6875 2.8875
0.6875 0.6875 2.95
0.6875 0.75 2.8875
0.6875 0.6875 2.8875
0.875 0.6875 2.95
0.875 0.75 2.8875
0.8125 0.75 2.95
0.875 0.6875 2.8875
0.8125 0.6875 2.95
0.8125 0.75 2.8875
0.8125 0.6875 2.8875
1 0.6875 2.95
1 0.75 2.8875
0.9375 0.75 2.95
1 0.6875 2.8875
0.9375 0.6875 2.95
0.9375 0.75 2.8875
0.9375 0.6875 2.8875
1.125 0.6875 2.95
1.125 0.75 2.8875
1.0625 0.75 2.95
1.125 0.6875 2.8875
1.0625 0.6875 2.95
1.0625 0.75 2.8875
1.0625 0.6875 2.8875
1.25 0.6875 2.95
1.25 0.75 2.8875
1.1875 0.75 2.95
1.25 0.6875 2.8875
1.1875 0.6875 2.95
1.1875 0.75 2.8875
1.1875 0.6875 2.8875
1.375 0.6875 2.95
1.375 0.75 2.8875
1.3125 0.75 2.95
1.375 0.6875 2.8875
1.3125 0.6875 2.95
1.3125 0.75 2.8875
1.3125 0.6875 2.8875
1.5 0.6875 2.95
1.5 0.75 2.8875
1.4375 0.75 2.95
1.5 0.6875 2.8875
1.4375 0.6875 2.95
1.4375 0.75 2.8875
1.4375 0.6875 2.8875
1.625 0.6875 2.95
1.625 0.75 2.8875
1.5625 0.75 2.95
1.625 0.6875 2.8875
1.5625 0.6875 2.95
1.5625 0.75 2.8875
1.5625 0.6875 2.8875
1.75 0.6875 2.95
1.75 0.75 2.8875
1.6875 0.75 2.95
1.75 0.6875 2.8875
1.6875 0.6875 2.95
1.6875 0.75 2.8875
1.6875 0.6875 2.8875
1.875 0.6875 2.95
1.875 0.75 2.8875
1.8125 0.75 2.95
1.875 0.6875 2.8875
1.8125 0.6875 2.95
1.8125 0.75 2.8875
1.8125 0.6875 2.8875
2 0.6875 2.95
2 0.75 2.8875
1.9375 0.75 2.95
2 0.6875 2.8875
1.9375 0.6875 2.95
1.9375 0.75 2.8875
1.9375 0.6875 2.8875
2.125 0.6875 2.95
2.125 0.75 2.8875
2.0625 0.75 2.95
2.125 0.6875 2.8875
2.0625 0.6875 2.95
2.0625 0.75 2.8875
2.0625 0.6875 2.8875
2.25 0.6875 2.95
2.25 0.75 2.8875
2.1875 0.75 2.95
2.25 0.6875 2.8875
2.1875 0.6875 2.95
2.1875 0.75 2.8875
2.1875 0.6875 2.8875
2.375 0.6875 2.95
2.375 0.75 2.8875
2.3125 0.75 2.95
2.375 0.6875 2.8875
2.3125 0.6875 2.95
2.3125 0.75 2.8875
2.3125 0.6875 2.8875
2.5 0.6875 2.95
2.5 0.75 2.8875
2.4375 0.75 2.95
2.5 0.6875 2.8875
2.4375 0.6875 2.95
2.4375 0.75 2.8875
2.4375 0.6875 2.8875
2.625 0.6875 2.95
2.625 0.75 2.8875
2.5625 0.75 2.95
2.625 0.6875 2.8875
2.5625 0.6875 2.95
2.5625 0.75 2.8875
2.5625 0.6875 2.8875
2.75 0.6875 2.95
2.75 0.75 2.8875
2.6875 0.75 2.95
2.75 0.6875 2.8875
2.6875 0.6875 2.95
2.6875 0.75 2.8875
2.6875 0.6875 2.8875
2.875 0.6875 2.95
2.875 0.75 2.8875
2.8125 0.75 2.95
2.875 0.6875 2.8875
2.8125 0.6875 2.95
2.8125 0.75 2.8875
2.8125 0.6875 2.8875
3 0.6875 2.95
3 0.75 2.8875
2.9375 0.75 2.95
3 0.6875 2.8875
2.9375 0.6875 2.95
2.9375 0.75 2.8875
2.9375 0.6875 2.8875
0.125 0.8125 2.95
0 0.8125 2.95
0.125 0.875 2.8875
0.0625 0.875 2.95
0 0.875 2.8875
0.125 0.8125 2.8875
0.0625 0.8125 2.95
0 0.8125 2.8875
0.0625 0.875 2.8875
0.0625 0.8125 2.8875
0.25 0.8125 2.95
0.25 0.875 2.8875
0.1875 0.875 2.95
0.25 0.8125 2.8875
0.1875 0.8125 2.95
0.1875 0.875 2.8875
0.1875 0.8125 2.8875
0.375 0.8125 2.95
0.375 0.875 2.8875
0.3125 0.875 2.95
0.375 0.8125 2.8875
0.3125 0.8125 2.95
0.3125 0.875 2.8875
0.3125 0.8125 2.8875
0.5 0.8125 2.95
0.5 0.875 2.8875
0.4375 0.875 2.95
0.5 0.8125 2.8875
0.4375 0.8125 2.95
0.4375 0.875 2.8875
0.4375 0.8125 2.8875
0.625 0.8125 2.95
0.625 0.875 2.8875
0.5625 0.875 2.95
0.625 0.8125 2.8875
0.5625 0.8125 2.95
0.5625 0.875 2.8875
0.5625 0.8125 2.8875
0.75 0.8125 2.95
0.75 0.875 2.8875
0.6875 0.875 2.95
0.75 0.8125 2.8875
0.6875 0.8125 2.95
0.6875 0.875 2.8875
0.6875 0.8125 2.8875
0.875 0.8125 2.95
0.875 0.875 2.8875
0.8125 0.875 2.95
0.875 0.8125 2.8875
0.8125 0.8125 2.95
0.8125 0.875 2.8875
0.8125 0.8125 2.8875
1 0.8125 2.95
1 0.875 2.8875
0.9375 0.875 2.95
1 0.8125 2.8875
0.9375 0.8125 2.95
0.9375 0.875 2.8875
0.9375 0.8125 2.8875
1.125 0.8125 2.95
1.125 0.875 2.8875
1.0625 0.875 2.95
1.125 0.8125 2.8875
1.0625 0.8125 2.95
1.0625 0.875 2.8875
1.0625 0.8125 2.8875
1.25 0.8125 2.95
1.25 0.875 2.8875
1.1875 0.875 2.95
1.25 0.8125 2.8875
1.1875 0.8125 2.95
1.1875 0.875 2.8875
1.1875 0.8125 2.8875
1.375 0.8125 2.95
1.375 0.875 2.8875
1.3125 0.875 2.95
1.375 0.8125 2.8875
1.3125 0.8125 2.95
1.3125 0.875 2.8875
1.3125 0.8125 2.8875
1.5 0.8125 2.95
1.5 0.875 2.8875
1.4375 0.875 2.95
1.5 0.8125 2.8875
1.4375 0.8125 2.95
1.4375 0.875 2.8875
1.4375 0.8125 2.8875
1.625 0.8125 2.95
1.625 0.875 2.8875
1.5625 0.875 2.95
1.625 0.8125 2.8875
1.5625 0.8125 2.95
1.5625 0.875 2.8875
1.5625 0.8125 2.8875
1.75 0.8125 2.95
1.75 0.875 2.8875
1.6875 0.875 2.95
1.75 0.8125 2.8875
1.6875 0.8125 2.95
1.6875 0.875 2.8875
1.6875 0.8125 2.8875
1.875 0.8125 2.95
1.875 0.875 2.8875
1.8125 0.875 2.95
1.875 0.8125 2.8875
1.8125 0.8125 2.95
1.8125 0.875 2.8875
1.8125 0.8125 2.8875
2 0.8125 2.95
2 0.875 2.8875
1.9375 0.875 2.95
2 0.8125 2.8875
1.9375 0.8125 2.95
1.9375 0.875 2.8875
1.9375 0.8125 2.8875
2.125 0.8125 2.95
2.125 0.875 2.8875
2.0625 0.875 2.95
2.125 0.8125 2.8875
2.0625 0.8125 2.95
2.0625 0.875 2.8875
2.0625 0.8125 2.8875
2.25 0.8125 2.95
2.25 0.875 2.8875
2.1875 0.875 2.95
2.25 0.8125 2.8875
2.1875 0.8125 2.95
2.1875 0.875 2.8875
2.1875 0.8125 2.8875
2.375 0.8125 2.95
2.375 0.875 2.8875
2.3125 0.875 2.95
2.375 0.8125 2.8875
2.3125 0.8125 2.95
2.3125 0.875 2.8875
2.3125 0.8125 2.8875
2.5 0.8125 2.95
2.5 0.875 2.8875
2.4375 0.875 2.95
2.5 0.8125 2.8875
2.4375 0.8125 2.95
2.4375 0.875 2.8875
2.4375 0.8125 2.8875
2.625 0.8125 2.95
2.625 0.875 2.8875
2.5625 0.875 2.95
2.625 0.8125 2.8875
2.5625 0.8125 2.95
2.5625 0.875 2.8875
2.5625 0.8125 2.8875
2.75 0.8125 2.95
2.75 0.875 2.8875
2.6875 0.875 2.95
2.75 0.8125 2.8875
2.6875 0.8125 2.95
2.6875 0.875 2.8875
2.6875 0.8125 2.8875
2.875 0.8125 2.95
2.875 0.875 2.8875
2.8125 0.875 2.95
2.875 0.8125 2.8875
2.8125 0.8125 2.95
2.8125 0.875 2.8875
2.8125 0.8125 2.8875
3 0.8125 2.95
3 0.875 2.8875
2.9375 0.875 2.95
3 0.8125 2.8875
2.9375 0.8125 2.95
2.9375 0.875 2.8875
2.9375 0.8125 2.8875
0.125 0.9375 2.95
0 0.9375 2.95
0.125 1 2.8875
0.0625 1 2.95
0 1 2.8875
0.125 0.9375 2.8875
0.0625 0.9375 2.95
0 0.9375 2.8875
0.0625 1 2.8875
0.0625 0.9375 2.8875
0.25 0.9375 2.95
0.25 1 2.8875
0.1875 1 2.95
0.25 0.9375 2.8875
0.1875 0.9375 2.95
0.1875 1 2.8875
0.1875 0.9375 2.8875
0.375 0.9375 2.95
0.375 1 2.8875
0.3125 1 2.95
0.375 0.9375 2.8875
0.3125 0.9375 2.95
0.3125 1 2.8875
0.3125 0.9375 2.8875
0.5 0.9375 2.95
0.5 1 2.8875
0.4375 1 2.95
0.5 0.9375 2.8875
0.4375 0.9375 2.95
0.4375 1 2.8875
0.4375 0.9375 2.8875
0.625 0.9375 2.95
0.625 1 2.8875
0.5625 1 2.95
0.625 0.9375 2.8875
0.5625 0.9375 2.95
0.5625 1 2.8875
0.5625 0.9375 2.8875
0.75 0.9375 2.95
0.75 1 2.8875
0.6875 1 2.95
0.75 0.9375 2.8875
0.6875 0.9375 2.95
0.6875 1 2.8875
0.6875 0.9375 2.8875
0.875 0.9375 2.95
0.875 1 2.8875
0.8125 1 2.95
0.875 0.9375 2.8875
0.8125 0.9375 2.95
0.8125 1 2.8875
0.8125 0.9375 2.8875
1 0.9375 2.95
1 1 2.8875
0.9375 1 2.95
1 0.9375 2.8875
0.9375 0.9375 2.95
0.9375 1 2.8875
0.9375 0.9375 2.8875
1.125 0.9375 2.95
1.125 1 2.8875
1.0625 1 2.95
1.125 0.9375 2.8875
1.0625 0.9375 2.95
1.0625 1 2.8875
1.0625 0.9375 2.8875
1.25 0.9375 2.95
1.25 1 2.8875
1.1875 1 2.95
1.25 0.9375 2.8875
1.1875 0.9375 2.95
1.1875 1 2.8875
1.1875 0.9375 2.8875
1.375 0.9375 2.95
1.375 1 2.8875
1.3125 1 2.95
1.375 0.9375 2.8875
1.3125 0.9375 2.95
1.3125 1 2.8875
1.3125 0.9375 2.8875
1.5 0.9375 2.95
1.5 1 2.8875
1.4375 1 2.95
1.5 0.9375 2.8875
1.4375 0.9375 2.95
1.4375 1 2.8875
1.4375 0.9375 2.8875
1.625 0.9375 2.95
1.625 1 2.8875
1.5625 1 2.95
1.625 0.9375 2.8875
1.5625 0.9375 2.95
1.5625 1 2.8875
1.5625 0.9375 2.8875
1.75 0.9375 2.95
1.75 1 2.8875
1.6875 1 2.95
1.75 0.9375 2.8875
1.6875 0.9375 2.95
1.6875 1 2.8875
1.6875 0.9375 2.8875
1.875 0.9375 2.95
1.875 1 2.8875
1.8125 1 2.95
1.875 0.9375 2.8875
1.8125 0.9375 2.95
1.8125 1 2.8875
1.8125 0.9375 2.8875
2 0.9375 2.95
2 1 2.8875
1.9375 1 2.95
2 0.9375 2.8875
1.9375 0.9375 2.95
1.9375 1 2.8875
1.9375 0.9375 2.8875
2.125 0.9375 2.95
2.125 1 2.8875
2.0625 1 2.95
2.125 0.9375 2.8875
2.0625 0.9375 2.95
2.0625 1 2.8875
2.0625 0.9375 2.8875
2.25 0.9375 2.95
2.25 1 2.8875
2.1875 1 2.95
2.25 0.9375 2.8875
2.1875 0.9375 2.95
2.1875 1 2.8875
2.1875 0.9375 2.8875
2.375 0.9375 2.95
2.375 1 2.8875
2.3125 1 2.95
2.375 0.9375 2.8875
2.3125 0.9375 2.95
2.3125 1 2.8875
2.3125 0.9375 2.8875
2.5 0.9375 2.95
2.5 1 2.8875
2.4375 1 2.95
2.5 0.9375 2.8875
2.4375 0.9375 2.95
2.4375 1 2.8875
2.4375 0.9375 2.8875
2.625 0.9375 2.95
2.625 1 2.8875
2.5625 1 2.95
2.625 0.9375 2.8875
2.5625 0.9375 2.95
2.5625 1 2.8875
2.5625 0.9375 2.8875
2.75 0.9375 2.95
2.75 1 2.8875
2.6875 1 2.95
2.75 0.9375 2.8875
2.6875 0.9375 2.95
2.6875 1 2.8875
2.6875 0.9375 2.8875
2.875 0.9375 2.95
2.875 1 2.8875
2.8125 1 2.95
2.875 0.9375 2.8875
2.8125 0.9375 2.95
2.8125 1 2.8875
2.8125 0.9375 2.8875
3 0.9375 2.95
3 1 2.8875
2.9375 1 2.95
3 0.9375 2.8875
2.9375 0.9375 2.95
2.9375 1 2.8875
2.9375 0.9375 2.8875
0.125 0 3.0125
0.0625 0 3.075
0 0 3.0125
0.125 0.0625 3.075
0 0.0625 3.075
0.125 0.125 3.0125
0.0625 0.125 3.075
0 0.125 3.0125
0.0625 0 3.0125
0.125 0.0625 3.0125
0.0625 0.0625 3.075
0 0.0625 3.0125
0.0625 0.125 3.0125
0.0625 0.0625 3.0125
0.25 0 3.0125
0.1875 0 3.075
0.25 0.0625 3.075
0.25 0.125 3.0125
0.1875 0.125 3.075
0.1875 0 3.0125
0.25 0.0625 3.0125
0.1875 0.0625 3.075
0.1875 0.125 3.0125
0.1875 0.0625 3.0125
0.375 0 3.0125
0.3125 0 3.075
0.375 0.0625 3.075
0.375 0.125 3.0125
0.3125 0.125 3.075
0.3125 0 3.0125
0.375 0.0625 3.0125
0.3125 0.0625 3.075
0.3125 0.125 3.0125
0.3125 0.0625 3.0125
0.5 0 3.0125
0.4375 0 3.075
0.5 0.0625 3.075
0.5 0.125 3.0125
0.4375 0.125 3.075
0.4375 0 3.0125
0.5 0.0625 3.0125
0.4375 0.0625 3.075
0.4375 0.125 3.0125
0.4375 0.0625 3.0125
0.625 0 3.0125
0.5625 0 3.075
0.625 0.0625 3.075
0.625 0.125 3.0125
0.5625 0.125 3.075
0.5625 0 3.0125
0.625 0.0625 3.0125
0.5625 0.0625 3.075
0.5625 0.125 3.0125
0.5625 0.0625 3.0125
0.75 0 3.0125
0.6875 0 3.075
0.75 0.0625 3.075
0.75 0.125 3.0125
0.6875 0.125 3.075
0.6875 0 3.0125
0.75 0.0625 3.0125
0.6875 0.0625 3.075
0.6875 0.125 3.0125
0.6875 0.0625 3.0125
0.875 0 3.0125
0.8125 0 3.075
0.875 0.0625 3.075
0.875 0.125 3.0125
0.8125 0.125 3.075
0.8125 0 3.0125
0.875 0.0625 3.0125
0.8125 0.0625 3.075
0.8125 0.125 3.0125
0.8125 0.0625 3.0125
1 0 3.0125
0.9375 0 3.075
1 0.0625 3.075
1 0.125 3.0125
0.9375 0.125 3.075
0.9375 0 3.0125
1 0.0625 3.0125
0.9375 0.0625 3.075
0.9375 0.125 3.0125
0.9375 0.0625 3.0125
1.125 0 3.0125
1.0625 0 3.075
1.125 0.0625 3.075
1.125 0.125 3.0125
1.0625 0.125 3.075
1.0625 0 3.0125
1.125 0.0625 3.0125
1.0625 0.0625 3.075
1.0625 0.125 3.0125
1.0625 0.0625 3.0125
1.25 0 3.0125
1.1875 0 3.075
1.25 0.0625 3.075
1.25 0.125 3.0125
1.1875 0.125 3.075
1.1875 0 3.0125
1.25 0.0625 3.0125
1.1875 0.0625 3.075
1.1875 0.125 3.0125
1.1875 0.0625 3.0125
1.375 0 3.0125
1.3125 0 3.075
1.375 0.0625 3.075
1.375 0.125 3.0125
1.3125 0.125 3.075
1.3125 0 3.0125
1.375 0.0625 3.0125
1.3125 0.0625 3.075
1.3125 0.125 3.0125
1.3125 0.0625 3.0125
1.5 0 3.0125
1.4375 0 3.075
1.5 0.0625 3.075
1.5 0.125 3.0125
1.4375 0.125 3.075
1.4375 0 3.0125
1.5 0.0625 3.0125
1.4375 0.0625 3.075
1.4375 0.125 3.0125
1.4375 0.0625 3.0125
1.625 0 3.0125
1.5625 0 3.075
1.625 0.0625 3.075
1.625 0.125 3.0125
1.5625 0.125 3.075
1.5625 0 3.0125
1.625 0.0625 3.0125
1.5625 0.0625 3.075
1.5625 0.125 3.0125
1.5625 0.0625 3.0125
1.75 0 3.0125
1.6875 0 3.075
1.75 0.0625 3.075
1.75 0.125 3.0125
1.6875 0.125 3.075
1.6875 0 3.0125
1.75 0.0625 3.0125
1.6875 0.0625 3.075
1.6875 0.125 3.0125
1.6875 0.0625 3.0125
1.875 0 3.0125
1.8125 0 3.075
1.875 0.0625 3.075
1.875 0.125 3.0125
1.8125 0.125 3.075
1.8125 0 3.0125
1.875 0.0625 3.0125
1.8125 0.0625 3.075
1.8125 0.125 3.0125
1.8125 0.0625 3.0125
2 0 3.0125
1.9375 0 3.075
2 0.0625 3.075
2 0.125 3.0125
1.9375 0.125 3.075
1.9375 0 3.0125
2 0.0625 3.0125
1.9375 0.0625 3.075
1.9375 0.125 3.0125
1.9375 0.0625 3.0125
2.125 0 3.0125
2.0625 0 3.075
2.125 0.0625 3.075
2.125 0.125 3.0125
2.0625 0.125 3.075
2.0625 0 3.0125
2.125 0.0625 3.0125
2.0625 0.0625 3.075
2.0625 0.125 3.0125
2.0625 0.0625 3.0125
2.25 0 3.0125
2.1875 0 3.075
2.25 0.0625 3.075
2.25 0.125 3.0125
2.1875 0.125 3.075
2.1875 0 3.0125
2.25 0.0625 3.0125
2.1875 0.0625 3.075
2.1875 0.125 3.0125
2.1875 0.0625 3.0125
2.375 0 3.0125
2.3125 0 3.075
2.375 0.0625 3.075
2.375 0.125 3.0125
2.3125 0.125 3.075
2.3125 0 3.0125
2.375 0.0625 3.0125
2.3125 0.0625 3.075
2.3125 0.125 3.0125
2.3125 0.0625 3.0125
2.5 0 3.0125
2.4375 0 3.075
2.5 0.0625 3.075
2.5 0.125 3.0125
2.4375 0.125 3.075
2.4375 0 3.0125
2.5 0.0625 3.0125
2.4375 0.0625 3.075
2.4375 0.125 3.0125
2.4375 0.0625 3.0125
2.625 0 3.0125
2.5625 0 3.075
2.625 0.0625 3.075
2.625 0.125 3.0125
2.5625 0.125 3.075
2.5625 0 3.0125
2.625 0.0625 3.0125
2.5625 0.0625 3.075
2.5625 0.125 3.0125
2.5625 0.0625 3.0125
2.75 0 3.0125
2.6875 0 3.075
2.75 0.0625 3.075
2.75 0.125 3.0125
2.6875 0.125 3.075
2.6875 0 3.0125
2.75 0.0625 3.0125
2.6875 0.0625 3.075
2.6875 0.125 3.0125
2.6875 0.0625 3.0125
2.875 0 3.0125
2.8125 0 3.075
2.875 0.0625 3.075
2.875 0.125 3.0125
2.8125 0.125 3.075
2.8125 0 3.0125
2.875 0.0625 3.0125
2.8125 0.0625 3.075
2.8125 0.125 3.0125
2.8125 0.0625 3.0125
3 0 3.0125
2.9375 0 3.075
3 0.0625 3.075
3 0.125 3.0125
2.9375 0.125 3.075
2.9375 0 3.0125
3 0.0625 3.0125
2.9375 0.0625 3.075
2.9375 0.125 3.0125
2.9375 0.0625 3.0125
0.125 0.1875 3.075
0 0.1875 3.075
0.125 0.25 3.0125
0.0625 0.25 3.075
0 0.25 3.0125
0.125 0.1875 3.0125
0.0625 0.1875 3.075
0 0.1875 3.0125
0.0625 0.25 3.0125
0.0625 0.1875 3.0125
0.25 0.1875 3.075
0.25 0.25 3.0125
0.1875 0.25 3.075
0.25 0.1875 3.0125
0.1875 0.1875 3.075
0.1875 0.25 3.0125
0.1875 0.1875 3.0125
0.375 0.1875 3.075
0.375 0.25 3.0125
0.3125 0.25 3.075
0.375 0.1875 3.0125
0.3125 0.1875 3.075
0.3125 0.25 3.0125
0.3125 0.1875 3.0125
0.5 0.1875 3.075
0.5 0.25 3.0125
0.4375 0.25 3.075
0.5 0.1875 3.0125
0.4375 0.1875 3.075
0.4375 0.25 3.0125
0.4375 0.1875 3.0125
0.625 0.1875 3.075
0.625 0.25 3.0125
0.5625 0.25 3.075
0.625 0.1875 3.0125
0.5625 0.1875 3.075
0.5625 0.25 3.0125
0.5625 0.1875 3.0125
0.75 0.1875 3.075
0.75 0.25 3.0125
0.6875 0.25 3.075
0.75 0.1875 3.0125
0.6875 0.1875 3.075
0.6875 0.25 3.0125
0.6875 0.1875 3.0125
0.875 0.1875 3.075
0.875 0.25 3.0125
0.8125 0.25 3.075
0.875 0.1875 3.0125
0.8125 0.1875 3.075
0.8125 0.25 3.0125
0.8125 0.1875 3.0125
1 0.1875 3.075
1 0.25 3.0125
0.9375 0.25 3.075
1 0.1875 3.0125
0.9375 0.1875 3.075
0.9375 0.25 3.0125
0.9375 0.1875 3.0125
1.125 0.1875 3.075
1.125 0.25 3.0125
1.0625 0.25 3.075
1.125 0.1875 3.0125
1.0625 0.1875 3.075
1.0625 0.25 3.0125
1.0625 0.1875 3.0125
1.25 0.1875 3.075
1.25 0.25 3.0125
1.1875 0.25 3.075
1.25 0.1875 3.0125
1.1875 0.1875 3.075
1.1875 0.25 3.0125
1.1875 0.1875 3.0125
1.375 0.1875 3.075
1.375 0.25 3.0125
1.3125 0.25 3.075
1.375 0.1875 3.0125
1.3125 0.1875 3.075
1.3125 0.25 3.0125
1.3125 0.1875 3.0125
1.5 0.1875 3.075
1.5 0.25 3.0125
1.4375 0.25 3.075
1.5 0.1875 3.0125
1.4375 0.1875 3.075
1.4375 0.25 3.0125
1.4375 0.1875 3.0125
1.625 0.1875 3.075
1.625 0.25 3.0125
1.5625 0.25 3.075
1.625 0.1875 3.0125
1.5625 0.1875 3.075
1.5625 0.25 3.0125
1.5625 0.1875 3.0125
1.75 0.1875 3.075
1.75 0.25 3.0125
1.6875 0.25 3.075
1.75 0.1875 3.0125
1.6875 0.1875 3.075
1.6875 0.25 3.0125
1.6875 0.1875 3.0125
1.875 0.1875 3.075
1.875 0.25 3.0125
1.8125 0.25 3.075
1.875 0.1875 3.0125
1.8125 0.1875 3.075
1.8125 0.25 3.0125
1.8125 0.1875 3.0125
2 0.1875 3.075
2 0.25 3.0125
1.9375 0.25 3.075
2 0.1875 3.0125
1.9375 0.1875 3.075
1.9375 0.25 3.0125
1.9375 0.1875 3.0125
2.125 0.1875 3.075
2.125 0.25 3.0125
2.0625 0.25 3.075
2.125 0.1875 3.0125
2.0625 0.1875 3.075
2.0625 0.25 3.0125
2.0625 0.1875 3.0125
2.25 0.1875 3.075
2.25 0.25 3.0125
2.1875 0.25 3.075
2.25 0.1875 3.0125
2.1875 0.1875 3.075
2.1875 0.25 3.0125
2.1875 0.1875 3.0125
2.375 0.1875 3.075
2.375 0.25 3.0125
2.3125 0.25 3.075
2.375 0.1875 3.0125
2.3125 0.1875 3.075
2.3125 0.25 3.0125
2.3125 0.1875 3.0125
2.5 0.1875 3.075
2.5 0.25 3.0125
2.4375 0.25 3.075
2.5 0.1875 3.0125
2.4375 0.1875 3.075
2.4375 0.25 3.0125
2.4375 0.1875 3.0125
2.625 0.1875 3.075
2.625 0.25 3.0125
2.5625 0.25 3.075
2.625 0.1875 3.0125
2.5625 0.1875 3.075
2.5625 0.25 3.0125
2.5625 0.1875 3.0125
2.75 0.1875 3.075
2.75 0.25 3.0125
2.6875 0.25 3.075
2.75 0.1875 3.0125
2.6875 0.1875 3.075
2.6875 0.25 3.0125
2.6875 0.1875 3.0125
2.875 0.1875 3.075
2.875 0.25 3.0125
2.8125 0.25 3.075
2.875 0.1875 3.0125
2.8125 0.1875 3.075
2.8125 0.25 3.0125
2.8125 0.1875 3.0125
3 0.1875 3.075
3 0.25 3.0125
2.9375 0.25 3.075
3 0.1875 3.0125
2.9375 0.1875 3.075
2.9375 0.25 3.0125
2.9375 0.1875 3.0125
0.125 0.3125 3.075
0 0.3125 3.075
0.125 0.375 3.0125
0.0625 0.375 3.075
0 0.375 3.0125
0.125 0.3125 3.0125
0.0625 0.3125 3.075
0 0.3125 3.0125
0.0625 0.375 3.0125
0.0625 0.3125 3.0125
0.25 0.3125 3.075
0.25 0.375 3.0125
0.1875 0.375 3.075
0.25 0.3125 3.0125
0.1875 0.3125 3.075
0.1875 0.375 3.0125
0.1875 0.3125 3.0125
0.375 0.3125 3.075
0.375 0.375 3.0125
0.3125 0.375 3.075
0.375 0.3125 3.0125
0.3125 0.3125 3.075
0.3125 0.375 3.0125
0.3125 0.3125 3.0125
0.5 0.3125 3.075
0.5 0.375 3.0125
0.4375 0.375 3.075
0.5 0.3125 3.0125
0.4375 0.3125 3.075
0.4375 0.375 3.0125
0.4375 0.3125 3.0125
0.625 0.3125 3.075
0.625 0.375 3.0125
0.5625 0.375 3.075
0.625 0.3125 3.0125
0.5625 0.3125 3.075
0.5625 0.375 3.0125
0.5625 0.3125 3.0125
0.75 0.3125 3.075
0.75 0.375 3.0125
0.6875 0.375 3.075
0.75 0.3125 3.0125
0.6875 0.3125 3.075
0.6875 0.375 3.0125
0.6875 0.3125 3.0125
0.875 0.3125 3.075
0.875 0.375 3.0125
0.8125 0.375 3.075
0.875 0.3125 3.0125
0.8125 0.3125 3.075
0.8125 0.375 3.0125
0.8125 0.3125 3.0125
1 0.3125 3.075
1 0.375 3.0125
0.9375 0.375 3.075
1 0.3125 3.0125
0.9375 0.3125 3.075
0.9375 0.375 3.0125
0.9375 0.3125 3.0125
1.125 0.3125 3.075
1.125 0.375 3.0125
1.0625 0.375 3.075
1.125 0.3125 3.0125
1.0625 0.3125 3.075
1.0625 0.375 3.0125
1.0625 0.3125 3.0125
1.25 0.3125 3.075
1.25 0.375 3.0125
1.1875 0.375 3.075
1.25 0.3125 3.0125
1.1875 0.3125 3.075
1.1875 0.375 3.0125
1.1875 0.3125 3.0125
1.375 0.3125 3.075
1.375 0.375 3.0125
1.3125 0.375 3.075
1.375 0.3125 3.0125
1.3125 0.3125 3.075
1.3125 0.375 3.0125
1.3125 0.3125 3.0125
1.5 0.3125 3.075
1.5 0.375 3.0125
1.4375 0.375 3.075
1.5 0.3125 3.0125
1.4375 0.3125 3.075
1.4375 0.375 3.0125
1.4375 0.3125 3.0125
1.625 0.3125 3.075
1.625 0.375 3.0125
1.5625 0.375 3.075
1.625 0.3125 3.0125
1.5625 0.3125 3.075
1.5625 0.375 3.0125
1.5625 0.3125 3.0125
1.75 0.3125 3.075
1.75 0.375 3.0125
1.6875 0.375 3.075
1.75 0.3125 3.0125
1.6875 0.3125 3.075
1.6875 0.375 3.0125
1.6875 0.3125 3.0125
1.875 0.3125 3.075
1.875 0.375 3.0125
1.8125 0.375 3.075
1.875 0.3125 3.0125
1.8125 0.3125 3.075
1.8125 0.375 3.0125
1.8125 0.3125 3.0125
2 0.3125 3.075
2 0.375 3.0125
1.9375 0.375 3.075
2 0.3125 3.0125
1.9375 0.3125 3.075
1.9375 0.375 3.0125
1.9375 0.3125 3.0125
2.125 0.3125 3.075
2.125 0.375 3.0125
2.0625 0.375 3.075
2.125 0.3125 3.0125
2.0625 0.3125 3.075
2.0625 0.375 3.0125
2.0625 0.3125 3.0125
2.25 0.3125 3.075
2.25 0.375 3.0125
2.1875 0.375 3.075
2.25 0.3125 3.0125
2.1875 0.3125 3.075
2.1875 0.375 3.0125
2.1875 0.3125 3.0125
2.375 0.3125 3.075
2.375 0.375 3.0125
2.3125 0.375 3.075
2.375 0.3125 3.0125
2.3125 0.3125 3.075
2.3125 0.375 3.0125
2.3125 0.3125 3.0125
2.5 0.3125 3.075
2.5 0.375 3.0125
2.4375 0.375 3.075
2.5 0.3125 3.0125
2.4375 0.3125 3.075
2.4375 0.375 3.0125
2.4375 0.3125 3.0125
2.625 0.3125 3.075
2.625 0.375 3.0125
2.5625 0.375 3.075
2.625 0.3125 3.0125
2.5625 0.3125 3.075
2.5625 0.375 3.0125
2.5625 0.3125 3.0125
2.75 0.3125 3.075
2.75 0.375 3.0125
2.6875 0.375 3.075
2.75 0.3125 3.0125
2.6875 0.3125 3.075
2.6875 0.375 3.0125
2.6875 0.3125 3.0125
2.875 0.3125 3.075
2.875 0.375 3.0125
2.8125 0.375 3.075
2.875 0.3125 3.0125
2.8125 0.3125 3.075
2.8125 0.375 3.0125
2.8125 0.3125 3.0125
3 0.3125 3.075
3 0.375 3.0125
2.9375 0.375 3.075
3 0.3125 3.0125
2.9375 0.3125 3.075
2.9375 0.375 3.0125
2.9375 0.3125 3.0125
0.125 0.4375 3.075
0 0.4375 3.075
0.125 0.5 3.0125
0.0625 0.5 3.075
0 0.5 3.0125
0.125 0.4375 3.0125
0.0625 0.4375 3.075
0 0.4375 3.0125
0.0625 0.5 3.0125
0.0625 0.4375 3.0125
0.25 0.4375 3.075
0.25 0.5 3.0125
0.1875 0.5 3.075
0.25 0.4375 3.0125
0.1875 0.4375 3.075
0.1875 0.5 3.0125
0.1875 0.4375 3.0125
0.375 0.4375 3.075
0.375 0.5 3.0125
0.3125 0.5 3.075
0.375 0.4375 3.0125
0.3125 0.4375 3.075
0.3125 0.5 3.0125
0.3125 0.4375 3.0125
0.5 0.4375 3.075
0.5 0.5 3.0125
0.4375 0.5 3.075
0.5 0.4375 3.0125
0.4375 0.4375 3.075
0.4375 0.5 3.0125
0.4375 0.4375 3.0125
0.625 0.4375 3.075
0.625 0.5 3.0125
0.5625 0.5 3.075
0.625 0.4375 3.0125
0.5625 0.4375 3.075
0.5625 0.5 3.0125
0.5625 0.4375 3.0125
0.75 0.4375 3.075
0.75 0.5 3.0125
0.6875 0.5 3.075
0.75 0.4375 3.0125
0.6875 0.4375 3.075
0.6875 0.5 3.0125
0.6875 0.4375 3.0125
0.875 0.4375 3.075
0.875 0.5 3.0125
0.8125 0.5 3.075
0.875 0.4375 3.0125
0.8125 0.4375 3.075
0.8125 0.5 3.0125
0.8125 0.4375 3.0125
1 0.4375 3.075
1 0.5 3.0125
0.9375 0.5 3.075
1 0.4375 3.0125
0.9375 0.4375 3.075
0.9375 0.5 3.0125
0.9375 0.4375 3.0125
1.125 0.4375 3.075
1.125 0.5 3.0125
1.0625 0.5 3.075
1.125 0.4375 3.0125
1.0625 0.4375 3.075
1.0625 0.5 3.0125
1.0625 0.4375 3.0125
1.25 0.4375 3.075
1.25 0.5 3.0125
1.1875 0.5 3.075
1.25 0.4375 3.0125
1.1875 0.4375 3.075
1.1875 0.5 3.0125
1.1875 0.4375 3.0125
1.375 0.4375 3.075
1.375 0.5 3.0125
1.3125 0.5 3.075
1.375 0.4375 3.0125
1.3125 0.4375 3.075
1.3125 0.5 3.0125
1.3125 0.4375 3.0125
1.5 0.4375 3.075
1.5 0.5 3.0125
1.4375 0.5 3.075
1.5 0.4375 3.0125
1.4375 0.4375 3.075
1.4375 0.5 3.0125
1.4375 0.4375 3.0125
1.625 0.4375 3.075
1.625 0.5 3.0125
1.5625 0.5 3.075
1.625 0.4375 3.0125
1.5625 0.4375 3.075
1.5625 0.5 3.0125
1.5625 0.4375 3.0125
1.75 0.4375 3.075
1.75 0.5 3.0125
1.6875 0.5 3.075
1.75 0.4375 3.0125
1.6875 0.4375 3.075
1.6875 0.5 3.0125
1.6875 0.4375 3.0125
1.875 0.4375 3.075
1.875 0.5 3.0125
1.8125 0.5 3.075
1.875 0.4375 3.0125
1.8125 0.4375 3.075
1.8125 0.5 3.0125
1.8125 0.4375 3.0125
2 0.4375 3.075
2 0.5 3.0125
1.9375 0.5 3.075
2 0.4375 3.0125
1.9375 0.4375 3.075
1.9375 0.5 3.0125
1.9375 0.4375 3.0125
2.125 0.4375 3.075
2.125 0.5 3.0125
2.0625 0.5 3.075
2.125 0.4375 3.0125
2.0625 0.4375 3.075
2.0625 0.5 3.0125
2.0625 0.4375 3.0125
2.25 0.4375 3.075
2.25 0.5 3.0125
2.1875 0.5 3.075
2.25 0.4375 3.0125
2.1875 0.4375 3.075
2.1875 0.5 3.0125
2.1875 0.4375 3.0125
2.375 0.4375 3.075
2.375 0.5 3.0125
2.3125 0.5 3.075
2.375 0.4375 3.0125
2.3125 0.4375 3.075
2.3125 0.5 3.0125
2.3125 0.4375 3.0125
2.5 0.4375 3.075
2.5 0.5 3.0125
2.4375 0.5 3.075
2.5 0.4375 3.0125
2.4375 0.4375 3.075
2.4375 0.5 3.0125
2.4375 0.4375 3.0125
2.625 0.4375 3.075
2.625 0.5 3.0125
2.5625 0.5 3.075
2.625 0.4375 3.0125
2.5625 0.4375 3.075
2.5625 0.5 3.0125
2.5625 0.4375 3.0125
2.75 0.4375 3.075
2.75 0.5 3.0125
2.6875 0.5 3.075
2.75 0.4375 3.0125
2.6875 0.4375 3.075
2.6875 0.5 3.0125
2.6875 0.4375 3.0125
2.875 0.4375 3.075
2.875 0.5 3.0125
2.8125 0.5 3.075
2.875 0.4375 3.0125
2.8125 0.4375 3.075
2.8125 0.5 3.0125
2.8125 0.4375 3.0125
3 0.4375 3.075
3 0.5 3.0125
2.9375 0.5 3.075
3 0.4375 3.0125
2.9375 0.4375 3.075
2.9375 0.5 3.0125
2.9375 0.4375 3.0125
0.125 0.5625 3.075
0 0.5625 3.075
0.125 0.625 3.0125
0.0625 0.625 3.075
0 0.625 3.0125
0.125 0.5625 3.0125
0.0625 0.5625 3.075
0 0.5625 3.0125
0.0625 0.625 3.0125
0.0625 0.5625 3.0125
0.25 0.5625 3.075
0.25 0.625 3.0125
0.1875 0.625 3.075
0.25 0.5625 3.0125
0.1875 0.5625 3.075
0.1875 0.625 3.0125
0.1875 0.5625 3.0125
0.375 0.5625 3.075
0.375 0.625 3.0125
0.3125 0.625 3.075
0.375 0.5625 3.0125
0.3125 0.5625 3.075
0.3125 0.625 3.0125
0.3125 0.5625 3.0125
0.5 0.5625 3.075
0.5 0.625 3.0125
0.4375 0.625 3.075
0.5 0.5625 3.0125
0.4375 0.5625 3.075
0.4375 0.625 3.0125
0.4375 0.5625 3.0125
0.625 0.5625 3.075
0.625 0.625 3.0125
0.5625 0.625 3.075
0.625 0.5625 3.0125
0.5625 0.5625 3.075
0.5625 0.625 3.0125
0.5625 0.5625 3.0125
0.75 0.5625 3.075
0.75 0.625 3.0125
0.6875 0.625 3.075
0.75 0.5625 3.0125
0.6875 0.5625 3.075
0.6875 0.625 3.0125
0.6875 0.5625 3.0125
0.875 0.5625 3.075
0.875 0.625 3.0125
0.8125 0.625 3.075
0.875 0.5625 3.0125
0.8125 0.5625 3.075
0.8125 0.625 3.0125
0.8125 0.5625 3.0125
1 0.5625 3.075
1 0.625 3.0125
0.9375 0.625 3.075
1 0.5625 3.0125
0.9375 0.5625 3.075
0.9375 0.625 3.0125
0.9375 0.5625 3.0125
1.125 0.5625 3.075
1.125 0.625 3.0125
1.0625 0.625 3.075
1.125 0.5625 3.0125
1.0625 0.5625 3.075
1.0625 0.625 3.0125
1.0625 0.5625 3.0125
1.25 0.5625 3.075
1.25 0.625 3.0125
1.1875 0.625 3.075
1.25 0.5625 3.0125
1.1875 0.5625 3.075
1.1875 0.625 3.0125
1.1875 0.5625 3.0125
1.375 0.5625 3.075
1.375 0.625 3.0125
1.3125 0.625 3.075
1.375 0.5625 3.0125
1.3125 0.5625 3.075
1.3125 0.625 3.0125
1.3125 0.5625 3.0125
1.5 0.5625 3.075
1.5 0.625 3.0125
1.4375 0.625 3.075
1.5 0.5625 3.0125
1.4375 0.5625 3.075
1.4375 0.625 3.0125
1.4375 0.5625 3.0125
1.625 0.5625 3.075
1.625 0.625 3.0125
1.5625 0.625 3.075
1.625 0.5625 3.0125
1.5625 0.5625 3.075
1.5625 0.625 3.0125
1.5625 0.5625 3.0125
1.75 0.5625 3.075
1.75 0.625 3.0125
1.6875 0.625 3.075
1.75 0.5625 3.0125
1.6875 0.5625 3.075
1.6875 0.625 3.0125
1.6875 0.5625 3.0125
1.875 0.5625 3.075
1.875 0.625 3.0125
1.8125 0.625 3.075
1.875 0.5625 3.0125
1.8125 0.5625 3.075
1.8125 0.625 3.0125
1.8125 0.5625 3.0125
2 0.5625 3.075
2 0.625 3.0125
1.9375 0.625 3.075
2 0.5625 3.0125
1.9375 0.5625 3.075
1.9375 0.625 3.0125
1.9375 0.5625 3.0125
2.125 0.5625 3.075
2.125 0.625 3.0125
2.0625 0.625 3.075
2.125 0.5625 3.0125
2.0625 0.5625 3.075
2.0625 0.625 3.0125
2.0625 0.5625 3.0125
2.25 0.5625 3.075
2.25 0.625 3.0125
2.1875 0.625 3.075
2.25 0.5625 3.0125
2.1875 0.5625 3.075
2.1875 0.625 3.0125
2.1875 0.5625 3.0125
2.375 0.5625 3.075
2.375 0.625 3.0125
2.3125 0.625 3.075
2.375 0.5625 3.0125
2.3125 0.5625 3.075
2.3125 0.625 3.0125
2.3125 0.5625 3.0125
2.5 0.5625 3.075
2.5 0.625 3.0125
2.4375 0.625 3.075
2.5 0.5625 3.0125
2.4375 0.5625 3.075
2.4375 0.625 3.0125
2.4375 0.5625 3.0125
2.625 0.5625 3.075
2.625 0.625 3.0125
2.5625 0.625 3.075
2.625 0.5625 3.0125
2.5625 0.5625 3.075
2.5625 0.625 3.0125
2.5625 0.5625 3.0125
2.75 0.5625 3.075
2.75 0.625 3.0125
2.6875 0.625 3.075
2.75 0.5625 3.0125
2.6875 0.5625 3.075
2.6875 0.625 3.0125
2.6875 0.5625 3.0125
2.875 0.5625 3.075
2.875 0.625 3.0125
2.8125 0.625 3.075
2.875 0.5625 3.0125
2.8125 0.5625 3.075
2.8125 0.625 3.0125
2.8125 0.5625 3.0125
3 0.5625 3.075
3 0.625 3.0125
2.9375 0.625 3.075
3 0.5625 3.0125
2.9375 0.5625 3.075
2.9375 0.625 3.0125
2.9375 0.5625 3.0125
0.125 0.6875 3.075
0 0.6875 3.075
0.125 0.75 3.0125
0.0625 0.75 3.075
0 0.75 3.0125
0.125 0.6875 3.0125
0.0625 0.6875 3.075
0 0.6875 3.0125
0.0625 0.75 3.0125
0.0625 0.6875 3.0125
0.25 0.6875 3.075
0.25 0.75 3.0125
0.1875 0.75 3.075
0.25 0.6875 3.0125
0.1875 0.6875 3.075
0.1875 0.75 3.0125
0.1875 0.6875 3.0125
0.375 0.6875 3.075
0.375 0.75 3.0125
0.3125 0.75 3.075
0.375 0.6875 3.0125
0.3125 0.6875 3.075
0.3125 0.75 3.0125
0.3125 0.6875 3.0125
0.5 0.6875 3.075
0.5 0.75 3.0125
0.4375 0.75 3.075
0.5 0.6875 3.0125
0.4375 0.6875 3.075
0.4375 0.75 3.0125
0.4375 0.6875 3.0125
0.625 0.6875 3.075
0.625 0.75 3.0125
0.5625 0.75 3.075
0.625 0.6875 3.0125
0.5625 0.6875 3.075
0.5625 0.75 3.0125
0.5625 0.6875 3.0125
0.75 0.6875 3.075
0.75 0.75 3.0125
0.6875 0.75 3.075
0.75 0.6875 3.0125
0.6875 0.6875 3.075
0.6875 0.75 3.0125
0.6875 0.6875 3.0125
0.875 0.6875 3.075
0.875 0.75 3.0125
0.8125 0.75 3.075
0.875 0.6875 3.0125
0.8125 0.6875 3.075
0.8125 0.75 3.0125
0.8125 0.6875 3.0125
1 0.6875 3.075
1 0.75 3.0125
0.9375 0.75 3.075
1 0.6875 3.0125
0.9375 0.6875 3.075
0.9375 0.75 3.0125
0.9375 0.6875 3.0125
1.125 0.6875 3.075
1.125 0.75 3.0125
1.0625 0.75 3.075
1.125 0.6875 3.0125
1.0625 0.6875 3.075
1.0625 0.75 3.0125
1.0625 0.6875 3.0125
1.25 0.6875 3.075
1.25 0.75 3.0125
1.1875 0.75 3.075
1.25 0.6875 3.0125
1.1875 0.6875 3.075
1.1875 0.75 3.0125
1.1875 0.6875 3.0125
1.375 0.6875 3.075
1.375 0.75 3.0125
1.3125 0.75 3.075
1.375 0.6875 3.0125
1.3125 0.6875 3.075
1.3125 0.75 3.0125
1.3125 0.6875 3.0125
1.5 0.6875 3.075
1.5 0.75 3.0125
1.4375 0.75 3.075
1.5 0.6875 3.0125
1.4375 0.6875 3.075
1.4375 0.75 3.0125
1.4375 0.6875 3.0125
1.625 0.6875 3.075
1.625 0.75 3.0125
1.5625 0.75 3.075
1.625 0.6875 3.0125
1.5625 0.6875 3.075
1.5625 0.75 3.0125
1.5625 0.6875 3.0125
1.75 0.6875 3.075
1.75 0.75 3.0125
1.6875 0.75 3.075
1.75 0.6875 3.0125
1.6875 0.6875 3.075
1.6875 0.75 3.0125
1.6875 0.6875 3.0125
1.875 0.6875 3.075
1.875 0.75 3.0125
1.8125 0.75 3.075
1.875 0.6875 3.0125
1.8125 0.6875 3.075
1.8125 0.75 3.0125
1.8125 0.6875 3.0125
2 0.6875 3.075
2 0.75 3.0125
1.9375 0.75 3.075
2 0.6875 3.0125
1.9375 0.6875 3.075
1.9375 0.75 3.0125
1.9375 0.6875 3.0125
2.125 0.6875 3.075
2.125 0.75 3.0125
2.0625 0.75 3.075
2.125 0.6875 3.0125
2.0625 0.6875 3.075
2.0625 0.75 3.0125
2.0625 0.6875 3.0125
2.25 0.6875 3.075
2.25 0.75 3.0125
2.1875 0.75 3.075
2.25 0.6875 3.0125
2.1875 0.6875 3.075
2.1875 0.75 3.0125
2.1875 0.6875 3.0125
2.375 0.6875 3.075
2.375 0.75 3.0125
2.3125 0.75 3.075
2.375 0.6875 3.0125
2.3125 0.6875 3.075
2.3125 0.75 3.0125
2.3125 0.6875 3.0125
2.5 0.6875 3.075
2.5 0.75 3.0125
2.4375 0.75 3.075
2.5 0.6875 3.0125
2.4375 0.6875 3.075
2.4375 0.75 3.0125
2.4375 0.6875 3.0125
2.625 0.6875 3.075
2.625 0.75 3.0125
2.5625 0.75 3.075
2.625 0.6875 3.0125
2.5625 0.6875 3.075
2.5625 0.75 3.0125
2.5625 0.6875 3.0125
2.75 0.6875 3.075
2.75 0.75 3.0125
2.6875 0.75 3.075
2.75 0.6875 3.0125
2.6875 0.6875 3.075
2.6875 0.75 3.0125
2.6875 0.6875 3.0125
2.875 0.6875 3.075
2.875 0.75 3.0125
2.8125 0.75 3.075
2.875 0.6875 3.0125
2.8125 0.6875 3.075
2.8125 0.75 3.0125
2.8125 0.6875 3.0125
3 0.6875 3.075
3 0.75 3.0125
2.9375 0.75 3.075
3 0.6875 3.0125
2.9375 0.6875 3.075
2.9375 0.75 3.0125
2.9375 0.6875 3.0125
0.125 0.8125 3.075
0 0.8125 3.075
0.125 0.875 3.0125
0.0625 0.875 3.075
0 0.875 3.0125
0.125 0.8125 3.0125
0.0625 0.8125 3.075
0 0.8125 3.0125
0.0625 0.875 3.0125
0.0625 0.8125 3.0125
0.25 0.8125 3.075
0.25 0.875 3.0125
0.1875 0.875 3.075
0.25 0.8125 3.0125
0.1875 0.8125 3.075
0.1875 0.875 3.0125
0.1875 0.8125 3.0125
0.375 0.8125 3.075
0.375 0.875 3.0125
0.3125 0.875 3.075
0.375 0.8125 3.0125
0.3125 0.8125 3.075
0.3125 0.875 3.0125
0.3125 0.8125 3.0125
0.5 0.8125 3.075
0.5 0.875 3.0125
0.4375 0.875 3.075
0.5 0.8125 3.0125
0.4375 0.8125 3.075
0.4375 0.875 3.0125
0.4375 0.8125 3.0125
0.625 0.8125 3.075
0.625 0.875 3.0125
0.5625 0.875 3.075
0.625 0.8125 3.0125
0.5625 0.8125 3.075
0.5625 0.875 3.0125
0.5625 0.8125 3.0125
0.75 0.8125 3.075
0.75 0.875 3.0125
0.6875 0.875 3.075
0.75 0.8125 3.0125
0.6875 0.8125 3.075
0.6875 0.875 3.0125
0.6875 0.8125 3.0125
0.875 0.8125 3.075
0.875 0.875 3.0125
0.8125 0.875 3.075
0.875 0.8125 3.0125
0.8125 0.8125 3.075
0.8125 0.875 3.0125
0.8125 0.8125 3.0125
1 0.8125 3.075
1 0.875 3.0125
0.9375 0.875 3.075
1 0.8125 3.0125
0.9375 0.8125 3.075
0.9375 0.875 3.0125
0.9375 0.8125 3.0125
1.125 0.8125 3.075
1.125 0.875 3.0125
1.0625 0.875 3.075
1.125 0.8125 3.0125
1.0625 0.8125 3.075
1.0625 0.875 3.0125
1.0625 0.8125 3.0125
1.25 0.8125 3.075
1.25 0.875 3.0125
1.1875 0.875 3.075
1.25 0.8125 3.0125
1.1875 0.8125 3.075
1.1875 0.875 3.0125
1.1875 0.8125 3.0125
1.375 0.8125 3.075
1.375 0.875 3.0125
1.3125 0.875 3.075
1.375 0.8125 3.0125
1.3125 0.8125 3.075
1.3125 0.875 3.0125
1.3125 0.8125 3.0125
1.5 0.8125 3.075
1.5 0.875 3.0125
1.4375 0.875 3.075
1.5 0.8125 3.0125
1.4375 0.8125 3.075
1.4375 0.875 3.0125
1.4375 0.8125 3.0125
1.625 0.8125 3.075
1.625 0.875 3.0125
1.5625 0.875 3.075
1.625 0.8125 3.0125
1.5625 0.8125 3.075
1.5625 0.875 3.0125
1.5625 0.8125 3.0125
1.75 0.8125 3.075
1.75 0.875 3.0125
1.6875 0.875 3.075
1.75 0.8125 3.0125
1.6875 0.8125 3.075
1.6875 0.875 3.0125
1.6875 0.8125 3.0125
1.875 0.8125 3.075
1.875 0.875 3.0125
1.8125 0.875 3.075
1.875 0.8125 3.0125
1.8125 0.8125 3.075
1.8125 0.875 3.0125
1.8125 0.8125 3.0125
2 0.8125 3.075
2 0.875 3.0125
1.9375 0.875 3.075
2 0.8125 3.0125
1.9375 0.8125 3.075
1.9375 0.875 3.0125
1.9375 0.8125 3.0125
2.125 0.8125 3.075
2.125 0.875 3.0125
2.0625 0.875 3.075
2.125 0.8125 3.0125
2.0625 0.8125 3.075
2.0625 0.875 3.0125
2.0625 0.8125 3.0125
2.25 0.8125 3.075
2.25 0.875 3.0125
2.1875 0.875 3.075
2.25 0.8125 3.0125
2.1875 0.8125 3.075
2.1875 0.875 3.0125
2.1875 0.8125 3.0125
2.375 0.8125 3.075
2.375 0.875 3.0125
2.3125 0.875 3.075
2.375 0.8125 3.0125
2.3125 0.8125 3.075
2.3125 0.875 3.0125
2.3125 0.8125 3.0125
2.5 0.8125 3.075
2.5 0.875 3.0125
2.4375 0.875 3.075
2.5 0.8125 3.0125
2.4375 0.8125 3.075
2.4375 0.875 3.0125
2.4375 0.8125 3.0125
2.625 0.8125 3.075
2.625 0.875 3.0125
2.5625 0.875 3.075
2.625 0.8125 3.0125
2.5625 0.8125 3.075
2.5625 0.875 3.0125
2.5625 0.8125 3.0125
2.75 0.8125 3.075
2.75 0.875 3.0125
2.6875 0.875 3.075
2.75 0.8125 3.0125
2.6875 0.8125 3.075
2.6875 0.875 3.0125
2.6875 0.8125 3.0125
2.875 0.8125 3.075
2.875 0.875 3.0125
2.8125 0.875 3.075
2.875 0.8125 3.0125
2.8125 0.8125 3.075
2.8125 0.875 3.0125
2.8125 0.8125 3.0125
3 0.8125 3.075
3 0.875 3.0125
2.9375 0.875 3.075
3 0.8125 3.0125
2.9375 0.8125 3.075
2.9375 0.875 3.0125
2.9375 0.8125 3.0125
0.125 0.9375 3.075
0 0.9375 3.075
0.125 1 3.0125
0.0625 1 3.075
0 1 3.0125
0.125 0.9375 3.0125
0.0625 0.9375 3.075
0 0.9375 3.0125
0.0625 1 3.0125
0.0625 0.9375 3.0125
0.25 0.9375 3.075
0.25 1 3.0125
0.1875 1 3.075
0.25 0.9375 3.0125
0.1875 0.9375 3.075
0.1875 1 3.0125
0.1875 0.9375 3.0125
0.375 0.9375 3.075
0.375 1 3.0125
0.3125 1 3.075
0.375 0.9375 3.0125
0.3125 0.9375 3.075
0.3125 1 3.0125
0.3125 0.9375 3.0125
0.5 0.9375 3.075
0.5 1 3.0125
0.4375 1 3.075
0.5 0.9375 3.0125
0.4375 0.9375 3.075
0.4375 1 3.0125
0.4375 0.9375 3.0125
0.625 0.9375 3.075
0.625 1 3.0125
0.5625 1 3.075
0.625 0.9375 3.0125
0.5625 0.9375 3.075
0.5625 1 3.0125
0.5625 0.9375 3.0125
0.75 0.9375 3.075
0.75 1 3.0125
0.6875 1 3.075
0.75 0.9375 3.0125
0.6875 0.9375 3.075
0.6875 1 3.0125
0.6875 0.9375 3.0125
0.875 0.9375 3.075
0.875 1 3.0125
0.8125 1 3.075
0.875 0.9375 3.0125
0.8125 0.9375 3.075
0.8125 1 3.0125
0.8125 0.9375 3.0125
1 0.9375 3.075
1 1 3.0125
0.9375 1 3.075
1 0.9375 3.0125
0.9375 0.9375 3.075
0.9375 1 3.0125
0.9375 0.9375 3.0125
1.125 0.9375 3.075
1.125 1 3.0125
1.0625 1 3.075
1.125 0.9375 3.0125
1.0625 0.9375 3.075
1.0625 1 3.0125
1.0625 0.9375 3.0125
1.25 0.9375 3.075
1.25 1 3.0125
1.1875 1 3.075
1.25 0.9375 3.0125
1.1875 0.9375 3.075
1.1875 1 3.0125
1.1875 0.9375 3.0125
1.375 0.9375 3.075
1.375 1 3.0125
1.3125 1 3.075
1.375 0.9375 3.0125
1.3125 0.9375 3.075
1.3125 1 3.0125
1.3125 0.9375 3.0125
1.5 0.9375 3.075
1.5 1 3.0125
1.4375 1 3.075
1.5 0.9375 3.0125
1.4375 0.9375 3.075
1.4375 1 3.0125
1.4375 0.9375 3.0125
1.625 0.9375 3.075
1.625 1 3.0125
1.5625 1 3.075
1.625 0.9375 3.0125
1.5625 0.9375 3.075
1.5625 1 3.0125
1.5625 0.9375 3.0125
1.75 0.9375 3.075
1.75 1 3.0125
1.6875 1 3.075
1.75 0.9375 3.0125
1.6875 0.9375 3.075
1.6875 1 3.0125
1.6875 0.9375 3.0125
1.875 0.9375 3.075
1.875 1 3.0125
1.8125 1 3.075
1.875 0.9375 3.0125
1.8125 0.9375 3.075
1.8125 1 3.0125
1.8125 0.9375 3.0125
2 0.9375 3.075
2 1 3.0125
1.9375 1 3.075
2 0.9375 3.0125
1.9375 0.9375 3.075
1.9375 1 3.0125
1.9375 0.9375 3.0125
2.125 0.9375 3.075
2.125 1 3.0125
2.0625 1 3.075
2.125 0.9375 3.0125
2.0625 0.9375 3.075
2.0625 1 3.0125
2.0625 0.9375 3.0125
2.25 0.9375 3.075
2.25 1 3.0125
2.1875 1 3.075
2.25 0.9375 3.0125
2.1875 0.9375 3.075
2.1875 1 3.0125
2.1875 0.9375 3.0125
2.375 0.9375 3.075
2.375 1 3.0125
2.3125 1 3.075
2.375 0.9375 3.0125
2.3125 0.9375 3.075
2.3125 1 3.0125
2.3125 0.9375 3.0125
2.5 0.9375 3.075
2.5 1 3.0125
2.4375 1 3.075
2.5 0.9375 3.0125
2.4375 0.9375 3.075
2.4375 1 3.0125
2.4375 0.9375 3.0125
2.625 0.9375 3.075
2.625 1 3.0125
2.5625 1 3.075
2.625 0.9375 3.0125
2.5625 0.9375 3.075
2.5625 1 3.0125
2.5625 0.9375 3.0125
2.75 0.9375 3.075
2.75 1 3.0125
2.6875 1 3.075
2.75 0.9375 3.0125
2.6875 0.9375 3.075
2.6875 1 3.0125
2.6875 0.9375 3.0125
2.875 0.9375 3.075
2.875 1 3.0125
2.8125 1 3.075
2.875 0.9375 3.0125
2.8125 0.9375 3.075
2.8125 1 3.0125
2.8125 0.9375 3.0125
3 0.9375 3.075
3 1 3.0125
2.9375 1 3.075
3 0.9375 3.0125
2.9375 0.9375 3.075
2.9375 1 3.0125
2.9375 0.9375 3.0125
0.125 0 3.1375
0.0625 0 3.2
0 0 3.1375
0.125 0.0625 3.2
0 0.0625 3.2
0.125 0.125 3.1375
0.0625 0.125 3.2
0 0.125 3.1375
0.0625 0 3.1375
0.125 0.0625 3.1375
0.0625 0.0625 3.2
0 0.0625 3.1375
0.0625 0.125 3.1375
0.0625 0.0625 3.1375
0.25 0 3.1375
0.1875 0 3.2
0.25 0.0625 3.2
0.25 0.125 3.1375
0.1875 0.125 3.2
0.1875 0 3.1375
0.25 0.0625 3.1375
0.1875 0.0625 3.2
0.1875 0.125 3.1375
0.1875 0.0625 3.1375
0.375 0 3.1375
0.3125 0 3.2
0.375 0.0625 3.2
0.375 0.125 3.1375
0.3125 0.125 3.2
0.3125 0 3.1375
0.375 0.0625 3.1375
0.3125 0.0625 3.2
0.3125 0.125 3.1375
0.3125 0.0625 3.1375
0.5 0 3.1375
0.4375 0 3.2
0.5 0.0625 3.2
0.5 0.125 3.1375
0.4375 0.125 3.2
0.4375 0 3.1375
0.5 0.0625 3.1375
0.4375 0.0625 3.2
0.4375 0.125 3.1375
0.4375 0.0625 3.1375
0.625 0 3.1375
0.5625 0 3.2
0.625 0.0625 3.2
0.625 0.125 3.1375
0.5625 0.125 3.2
0.5625 0 3.1375
0.625 0.0625 3.1375
0.5625 0.0625 3.2
0.5625 0.125 3.1375
0.5625 0.0625 3.1375
0.75 0 3.1375
0.6875 0 3.2
0.75 0.0625 3.2
0.75 0.125 3.1375
0.6875 0.125 3.2
0.6875 0 3.1375
0.75 0.0625 3.1375
0.6875 0.0625 3.2
0.6875 0.125 3.1375
0.6875 0.0625 3.1375
0.875 0 3.1375
0.8125 0 3.2
0.875 0.0625 3.2
0.875 0.125 3.1375
0.8125 0.125 3.2
0.8125 0 3.1375
0.875 0.0625 3.1375
0.8125 0.0625 3.2
0.8125 0.125 3.1375
0.8125 0.0625 3.1375
1 0 3.1375
0.9375 0 3.2
1 0.0625 3.2
1 0.125 3.1375
0.9375 0.125 3.2
0.9375 0 3.1375
1 0.0625 3.1375
0.9375 0.0625 3.2
0.9375 0.125 3.1375
0.9375 0.0625 3.1375
1.125 0 3.1375
1.0625 0 3.2
1.125 0.0625 3.2
1.125 0.125 3.1375
1.0625 0.125 3.2
1.0625 0 3.1375
1.125 0.0625 3.1375
1.0625 0.0625 3.2
1.0625 0.125 3.1375
1.0625 0.0625 3.1375
1.25 0 3.1375
1.1875 0 3.2
1.25 0.0625 3.2
1.25 0.125 3.1375
1.1875 0.125 3.2
1.1875 0 3.1375
1.25 0.0625 3.1375
1.1875 0.0625 3.2
1.1875 0.125 3.1375
1.1875 0.0625 3.1375
1.375 0 3.1375
1.3125 0 3.2
1.375 0.0625 3.2
1.375 0.125 3.1375
1.3125 0.125 3.2
1.3125 0 3.1375
1.375 0.0625 3.1375
1.3125 0.0625 3.2
1.3125 0.125 3.1375
1.3125 0.0625 3.1375
1.5 0 3.1375
1.4375 0 3.2
1.5 0.0625 3.2
1.5 0.125 3.1375
1.4375 0.125 3.2
1.4375 0 3.1375
1.5 0.0625 3.1375
1.4375 0.0625 3.2
1.4375 0.125 3.1375
1.4375 0.0625 3.1375
1.625 0 3.1375
1.5625 0 3.2
1.625 0.0625 3.2
1.625 0.125 3.1375
1.5625 0.125 3.2
1.5625 0 3.1375
1.625 0.0625 3.1375
1.5625 0.0625 3.2
1.5625 0.125 3.1375
1.5625 0.0625 3.1375
1.75 0 3.1375
1.6875 0 3.2
1.75 0.0625 3.2
1.75 0.125 3.1375
1.6875 0.125 3.2
1.6875 0 3.1375
1.75 0.0625 3.1375
1.6875 0.0625 3.2
1.6875 0.125 3.1375
1.6875 0.0625 3.1375
1.875 0 3.1375
1.8125 0 3.2
1.875 0.0625 3.2
1.875 0.125 3.1375
1.8125 0.125 3.2
1.8125 0 3.1375
1.875 0.0625 3.1375
1.8125 0.0625 3.2
1.8125 0.125 3.1375
1.8125 0.0625 3.1375
2 0 3.1375
1.9375 0 3.2
2 0.0625 3.2
2 0.125 3.1375
1.9375 0.125 3.2
1.9375 0 3.1375
2 0.0625 3.1375
1.9375 0.0625 3.2
1.9375 0.125 3.1375
1.9375 0.0625 3.1375
2.125 0 3.1375
2.0625 0 3.2
2.125 0.0625 3.2
2.125 0.125 3.1375
2.0625 0.125 3.2
2.0625 0 3.1375
2.125 0.0625 3.1375
2.0625 0.0625 3.2
2.0625 0.125 3.1375
2.0625 0.0625 3.1375
2.25 0 3.1375
2.1875 0 3.2
2.25 0.0625 3.2
2.25 0.125 3.1375
2.1875 0.125 3.2
2.1875 0 3.1375
2.25 0.0625 3.1375
2.1875 0.0625 3.2
2.1875 0.125 3.1375
2.1875 0.0625 3.1375
2.375 0 3.1375
2.3125 0 3.2
2.375 0.0625 3.2
2.375 0.125 3.1375
2.3125 0.125 3.2
2.3125 0 3.1375
2.375 0.0625 3.1375
2.3125 0.0625 3.2
2.3125 0.125 3.1375
2.3125 0.0625 3.1375
2.5 0 3.1375
2.4375 0 3.2
2.5 0.0625 3.2
2.5 0.125 3.1375
2.4375 0.125 3.2
2.4375 0 3.1375
2.5 0.0625 3.1375
2.4375 0.0625 3.2
2.4375 0.125 3.1375
2.4375 0.0625 3.1375
2.625 0 3.1375
2.5625 0 3.2
2.625 0.0625 3.2
2.625 0.125 3.1375
2.5625 0.125 3.2
2.5625 0 3.1375
2.625 0.0625 3.1375
2.5625 0.0625 3.2
2.5625 0.125 3.1375
2.5625 0.0625 3.1375
2.75 0 3.1375
2.6875 0 3.2
2.75 0.0625 3.2
2.75 0.125 3.1375
2.6875 0.125 3.2
2.6875 0 3.1375
2.75 0.0625 3.1375
2.6875 0.0625 3.2
2.6875 0.125 3.1375
2.6875 0.0625 3.1375
2.875 0 3.1375
2.8125 0 3.2
2.875 0.0625 3.2
2.875 0.125 3.1375
2.8125 0.125 3.2
2.8125 0 3.1375
2.875 0.0625 3.1375
2.8125 0.0625 3.2
2.8125 0.125 3.1375
2.8125 0.0625 3.1375
3 0 3.1375
2.9375 0 3.2
3 0.0625 3.2
3 0.125 3.1375
2.9375 0.125 3.2
2.9375 0 3.1375
3 0.0625 3.1375
2.9375 0.0625 3.2
2.9375 0.125 3.1375
2.9375 0.0625 3.1375
0.125 0.1875 3.2
0 0.1875 3.2
0.125 0.25 3.1375
0.0625 0.25 3.2
0 0.25 3.1375
0.125 0.1875 3.1375
0.0625 0.1875 3.2
0 0.1875 3.1375
0.0625 0.25 3.1375
0.0625 0.1875 3.1375
0.25 0.1875 3.2
0.25 0.25 3.1375
0.1875 0.25 3.2
0.25 0.1875 3.1375
0.1875 0.1875 3.2
0.1875 0.25 3.1375
0.1875 0.1875 3.1375
0.375 0.1875 3.2
0.375 0.25 3.1375
0.3125 0.25 3.2
0.375 0.1875 3.1375
0.3125 0.1875 3.2
0.3125 0.25 3.1375
0.3125 0.1875 3.1375
0.5 0.1875 3.2
0.5 0.25 3.1375
0.4375 0.25 3.2
0.5 0.1875 3.1375
0.4375 0.1875 3.2
0.4375 0.25 3.1375
0.4375 0.1875 3.1375
0.625 0.1875 3.2
0.625 0.25 3.1375
0.5625 0.25 3.2
0.625 0.1875 3.1375
0.5625 0.1875 3.2
0.5625 0.25 3.1375
0.5625 0.1875 3.1375
0.75 0.1875 3.2
0.75 0.25 3.1375
0.6875 0.25 3.2
0.75 0.1875 3.1375
0.6875 0.1875 3.2
0.6875 0.25 3.1375
0.6875 0.1875 3.1375
0.875 0.1875 3.2
0.875 0.25 3.1375
0.8125 0.25 3.2
0.875 0.1875 3.1375
0.8125 0.1875 3.2
0.8125 0.25 3.1375
0.8125 0.1875 3.1375
1 0.1875 3.2
1 0.25 3.1375
0.9375 0.25 3.2
1 0.1875 3.1375
0.9375 0.1875 3.2
0.9375 0.25 3.1375
0.9375 0.1875 3.1375
1.125 0.1875 3.2
1.125 0.25 3.1375
1.0625 0.25 3.2
1.125 0.1875 3.1375
1.0625 0.1875 3.2
1.0625 0.25 3.1375
1.0625 0.1875 3.1375
1.25 0.1875 3.2
1.25 0.25 3.1375
1.1875 0.25 3.2
1.25 0.1875 3.1375
1.1875 0.1875 3.2
1.1875 0.25 3.1375
1.1875 0.1875 3.1375
1.375 0.1875 3.2
1.375 0.25 3.1375
1.3125 0.25 3.2
1.375 0.1875 3.1375
1.3125 0.1875 3.2
1.3125 0.25 3.1375
1.3125 0.1875 3.1375
1.5 0.1875 3.2
1.5 0.25 3.1375
1.4375 0.25 3.2
1.5 0.1875 3.1375
1.4375 0.1875 3.2
1.4375 0.25 3.1375
1.4375 0.1875 3.1375
1.625 0.1875 3.2
1.625 0.25 3.1375
1.5625 0.25 3.2
1.625 0.1875 3.1375
1.5625 0.1875 3.2
1.5625 0.25 3.1375
1.5625 0.1875 3.1375
1.75 0.1875 3.2
1.75 0.25 3.1375
1.6875 0.25 3.2
1.75 0.1875 3.1375
1.6875 0.1875 3.2
1.6875 0.25 3.1375
1.6875 0.1875 3.1375
1.875 0.1875 3.2
1.875 0.25 3.1375
1.8125 0.25 3.2
1.875 0.1875 3.1375
1.8125 0.1875 3.2
1.8125 0.25 3.1375
1.8125 0.1875 3.1375
2 0.1875 3.2
2 0.25 3.1375
1.9375 0.25 3.2
2 0.1875 3.1375
1.9375 0.1875 3.2
1.9375 0.25 3.1375
1.9375 0.1875 3.1375
2.125 0.1875 3.2
2.125 0.25 3.1375
2.0625 0.25 3.2
2.125 0.1875 3.1375
2.0625 0.1875 3.2
2.0625 0.25 3.1375
2.0625 0.1875 3.1375
2.25 0.1875 3.2
2.25 0.25 3.1375
2.1875 0.25 3.2
2.25 0.1875 3.1375
2.1875 0.1875 3.2
2.1875 0.25 3.1375
2.1875 0.1875 3.1375
2.375 0.1875 3.2
2.375 0.25 3.1375
2.3125 0.25 3.2
2.375 0.1875 3.1375
2.3125 0.1875 3.2
2.3125 0.25 3.1375
2.3125 0.1875 3.1375
2.5 0.1875 3.2
2.5 0.25 3.1375
2.4375 0.25 3.2
2.5 0.1875 3.1375
2.4375 0.1875 3.2
2.4375 0.25 3.1375
2.4375 0.1875 3.1375
2.625 0.1875 3.2
2.625 0.25 3.1375
2.5625 0.25 3.2
2.625 0.1875 3.1375
2.5625 0.1875 3.2
2.5625 0.25 3.1375
2.5625 0.1875 3.1375
2.75 0.1875 3.2
2.75 0.25 3.1375
2.6875 0.25 3.2
2.75 0.1875 3.1375
2.6875 0.1875 3.2
2.6875 0.25 3.1375
2.6875 0.1875 3.1375
2.875 0.1875 3.2
2.875 0.25 3.1375
2.8125 0.25 3.2
2.875 0.1875 3.1375
2.8125 0.1875 3.2
2.8125 0.25 3.1375
2.8125 0.1875 3.1375
3 0.1875 3.2
3 0.25 3.1375
2.9375 0.25 3.2
3 0.1875 3.1375
2.9375 0.1875 3.2
2.9375 0.25 3.1375
2.9375 0.1875 3.1375
0.125 0.3125 3.2
0 0.3125 3.2
0.125 0.375 3.1375
0.0625 0.375 3.2
0 0.375 3.1375
0.125 0.3125 3.1375
0.0625 0.3125 3.2
0 0.3125 3.1375
0.0625 0.375 3.1375
0.0625 0.3125 3.1375
0.25 0.3125 3.2
0.25 0.375 3.1375
0.1875 0.375 3.2
0.25 0.3125 3.1375
0.1875 0.3125 3.2
0.1875 0.375 3.1375
0.1875 0.3125 3.1375
0.375 0.3125 3.2
0.375 0.375 3.1375
0.3125 0.375 3.2
0.375 0.3125 3.1375
0.3125 0.3125 3.2
0.3125 0.375 3.1375
0.3125 0.3125 3.1375
0.5 0.3125 3.2
0.5 0.375 3.1375
0.4375 0.375 3.2
0.5 0.3125 3.1375
0.4375 0.3125 3.2
0.4375 0.375 3.1375
0.4375 0.3125 3.1375
0.625 0.3125 3.2
0.625 0.375 3.1375
0.5625 0.375 3.2
0.625 0.3125 3.1375
0.5625 0.3125 3.2
0.5625 0.375 3.1375
0.5625 0.3125 3.1375
0.75 0.3125 3.2
0.75 0.375 3.1375
0.6875 0.375 3.2
0.75 0.3125 3.1375
0.6875 0.3125 3.2
0.6875 0.375 3.1375
0.6875 0.3125 3.1375
0.875 0.3125 3.2
0.875 0.375 3.1375
0.8125 0.375 3.2
0.875 0.3125 3.1375
0.8125 0.3125 3.2
0.8125 0.375 3.1375
0.8125 0.3125 3.1375
1 0.3125 3.2
1 0.375 3.1375
0.9375 0.375 3.2
1 0.3125 3.1375
0.9375 0.3125 3.2
0.9375 0.375 3.1375
0.9375 0.3125 3.1375
1.125 0.3125 3.2
1.125 0.375 3.1375
1.0625 0.375 3.2
1.125 0.3125 3.1375
1.0625 0.3125 3.2
1.0625 0.375 3.1375
1.0625 0.3125 3.1375
1.25 0.3125 3.2
1.25 0.375 3.1375
1.1875 0.375 3.2
1.25 0.3125 3.1375
1.1875 0.3125 3.2
1.1875 0.375 3.1375
1.1875 0.3125 3.1375
1.375 0.3125 3.2
1.375 0.375 3.1375
1.3125 0.375 3.2
1.375 0.3125 3.1375
1.3125 0.3125 3.2
1.3125 0.375 3.1375
1.3125 0.3125 3.1375
1.5 0.3125 3.2
1.5 0.375 3.1375
1.4375 0.375 3.2
1.5 0.3125 3.1375
1.4375 0.3125 3.2
1.4375 0.375 3.1375
1.4375 0.3125 3.1375
1.625 0.3125 3.2
1.625 0.375 3.1375
1.5625 0.375 3.2
1.625 0.3125 3.1375
1.5625 0.3125 3.2
1.5625 0.375 3.1375
1.5625 0.3125 3.1375
1.75 0.3125 3.2
1.75 0.375 3.1375
1.6875 0.375 3.2
1.75 0.3125 3.1375
1.6875 0.3125 3.2
1.6875 0.375 3.1375
1.6875 0.3125 3.1375
1.875 0.3125 3.2
1.875 0.375 3.1375
1.8125 0.375 3.2
1.875 0.3125 3.1375
1.8125 0.3125 3.2
1.8125 0.375 3.1375
1.8125 0.3125 3.1375
2 0.3125 3.2
2 0.375 3.1375
1.9375 0.375 3.2
2 0.3125 3.1375
1.9375 0.3125 3.2
1.9375 0.375 3.1375
1.9375 0.3125 3.1375
2.125 0.3125 3.2
2.125 0.375 3.1375
2.0625 0.375 3.2
2.125 0.3125 3.1375
2.0625 0.3125 3.2
2.0625 0.375 3.1375
2.0625 0.3125 3.1375
2.25 0.3125 3.2
2.25 0.375 3.1375
2.1875 0.375 3.2
2.25 0.3125 3.1375
2.1875 0.3125 3.2
2.1875 0.375 3.1375
2.1875 0.3125 3.1375
2.375 0.3125 3.2
2.375 0.375 3.1375
2.3125 0.375 3.2
2.375 0.3125 3.1375
2.3125 0.3125 3.2
2.3125 0.375 3.1375
2.3125 0.3125 3.1375
2.5 0.3125 3.2
2.5 0.375 3.1375
2.4375 0.375 3.2
2.5 0.3125 3.1375
2.4375 0.3125 3.2
2.4375 0.375 3.1375
2.4375 0.3125 3.1375
2.625 0.3125 3.2
2.625 0.375 3.1375
2.5625 0.375 3.2
2.625 0.3125 3.1375
2.5625 0.3125 3.2
2.5625 0.375 3.1375
2.5625 0.3125 3.1375
2.75 0.3125 3.2
2.75 0.375 3.1375
2.6875 0.375 3.2
2.75 0.3125 3.1375
2.6875 0.3125 3.2
2.6875 0.375 3.1375
2.6875 0.3125 3.1375
2.875 0.3125 3.2
2.875 0.375 3.1375
2.8125 0.375 3.2
2.875 0.3125 3.1375
2.8125 0.3125 3.2
2.8125 0.375 3.1375
2.8125 0.3125 3.1375
3 0.3125 3.2
3 0.375 3.1375
2.9375 0.375 3.2
3 0.3125 3.1375
2.9375 0.3125 3.2
2.9375 0.375 3.1375
2.9375 0.3125 3.1375
0.125 0.4375 3.2
0 0.4375 3.2
0.125 0.5 3.1375
0.0625 0.5 3.2
0 0.5 3.1375
0.125 0.4375 3.1375
0.0625 0.4375 3.2
0 0.4375 3.1375
0.0625 0.5 3.1375
0.0625 0.4375 3.1375
0.25 0.4375 3.2
0.25 0.5 3.1375
0.1875 0.5 3.2
0.25 0.4375 3.1375
0.1875 0.4375 3.2
0.1875 0.5 3.1375
0.1875 0.4375 3.1375
0.375 0.4375 3.2
0.375 0.5 3.1375
0.3125 0.5 3.2
0.375 0.4375 3.1375
0.3125 0.4375 3.2
0.3125 0.5 3.1375
0.3125 0.4375 3.1375
0.5 0.4375 3.2
0.5 0.5 3.1375
0.4375 0.5 3.2
0.5 0.4375 3.1375
0.4375 0.4375 3.2
0.4375 0.5 3.1375
0.4375 0.4375 3.1375
0.625 0.4375 3.2
0.625 0.5 3.1375
0.5625 0.5 3.2
0.625 0.4375 3.1375
0.5625 0.4375 3.2
0.5625 0.5 3.1375
0.5625 0.4375 3.1375
0.75 0.4375 3.2
0.75 0.5 3.1375
0.6875 0.5 3.2
0.75 0.4375 3.1375
0.6875 0.4375 3.2
0.6875 0.5 3.1375
0.6875 0.4375 3.1375
0.875 0.4375 3.2
0.875 0.5 3.1375
0.8125 0.5 3.2
0.875 0.4375 3.1375
0.8125 0.4375 3.2
0.8125 0.5 3.1375
0.8125 0.4375 3.1375
1 0.4375 3.2
1 0.5 3.1375
0.9375 0.5 3.2
1 0.4375 3.1375
0.9375 0.4375 3.2
0.9375 0.5 3.1375
0.9375 0.4375 3.1375
1.125 0.4375 3.2
1.125 0.5 3.1375
1.0625 0.5 3.2
1.125 0.4375 3.1375
1.0625 0.4375 3.2
1.0625 0.5 3.1375
1.0625 0.4375 3.1375
1.25 0.4375 3.2
1.25 0.5 3.1375
1.1875 0.5 3.2
1.25 0.4375 3.1375
1.1875 0.4375 3.2
1.1875 0.5 3.1375
1.1875 0.4375 3.1375
1.375 0.4375 3.2
1.375 0.5 3.1375
1.3125 0.5 3.2
1.375 0.4375 3.1375
1.3125 0.4375 3.2
1.3125 0.5 3.1375
1.3125 0.4375 3.1375
1.5 0.4375 3.2
1.5 0.5 3.1375
1.4375 0.5 3.2
1.5 0.4375 3.1375
1.4375 0.4375 3.2
1.4375 0.5 3.1375
1.4375 0.4375 3.1375
1.625 0.4375 3.2
1.625 0.5 3.1375
1.5625 0.5 3.2
1.625 0.4375 3.1375
1.5625 0.4375 3.2
1.5625 0.5 3.1375
1.5625 0.4375 3.1375
1.75 0.4375 3.2
1.75 0.5 3.1375
1.6875 0.5 3.2
1.75 0.4375 3.1375
1.6875 0.4375 3.2
1.6875 0.5 3.1375
1.6875 0.4375 3.1375
1.875 0.4375 3.2
1.875 0.5 3.1375
1.8125 0.5 3.2
1.875 0.4375 3.1375
1.8125 0.4375 3.2
1.8125 0.5 3.1375
1.8125 0.4375 3.1375
2 0.4375 3.2
2 0.5 3.1375
1.9375 0.5 3.2
2 0.4375 3.1375
1.9375 0.4375 3.2
1.9375 0.5 3.1375
1.9375 0.4375 3.1375
2.125 0.4375 3.2
2.125 0.5 3.1375
2.0625 0.5 3.2
2.125 0.4375 3.1375
2.0625 0.4375 3.2
2.0625 0.5 3.1375
2.0625 0.4375 3.1375
2.25 0.4375 3.2
2.25 0.5 3.1375
2.1875 0.5 3.2
2.25 0.4375 3.1375
2.1875 0.4375 3.2
2.1875 0.5 3.1375
2.1875 0.4375 3.1375
2.375 0.4375 3.2
2.375 0.5 3.1375
2.3125 0.5 3.2
2.375 0.4375 3.1375
2.3125 0.4375 3.2
2.3125 0.5 3.1375
2.3125 0.4375 3.1375
2.5 0.4375 3.2
2.5 0.5 3.1375
2.4375 0.5 3.2
2.5 0.4375 3.1375
2.4375 0.4375 3.2
2.4375 0.5 3.1375
2.4375 0.4375 3.1375
2.625 0.4375 3.2
2.625 0.5 3.1375
2.5625 0.5 3.2
2.625 0.4375 3.1375
2.5625 0.4375 3.2
2.5625 0.5 3.1375
2.5625 0.4375 3.1375
2.75 0.4375 3.2
2.75 0.5 3.1375
2.6875 0.5 3.2
2.75 0.4375 3.1375
2.6875 0.4375 3.2
2.6875 0.5 3.1375
2.6875 0.4375 3.1375
2.875 0.4375 3.2
2.875 0.5 3.1375
2.8125 0.5 3.2
2.875 0.4375 3.1375
2.8125 0.4375 3.2
2.8125 0.5 3.1375
2.8125 0.4375 3.1375
3 0.4375 3.2
3 0.5 3.1375
2.9375 0.5 3.2
3 0.4375 3.1375
2.9375 0.4375 3.2
2.9375 0.5 3.1375
2.9375 0.4375 3.1375
0.125 0.5625 3.2
0 0.5625 3.2
0.125 0.625 3.1375
0.0625 0.625 3.2
0 0.625 3.1375
0.125 0.5625 3.1375
0.0625 0.5625 3.2
0 0.5625 3.1375
0.0625 0.625 3.1375
0.0625 0.5625 3.1375
0.25 0.5625 3.2
0.25 0.625 3.1375
0.1875 0.625 3.2
0.25 0.5625 3.1375
0.1875 0.5625 3.2
0.1875 0.625 3.1375
0.1875 0.5625 3.1375
0.375 0.5625 3.2
0.375 0.625 3.1375
0.3125 0.625 3.2
0.375 0.5625 3.1375
0.3125 0.5625 3.2
0.3125 0.625 3.1375
0.3125 0.5625 3.1375
0.5 0.5625 3.2
0.5 0.625 3.1375
0.4375 0.625 3.2
0.5 0.5625 3.1375
0.4375 0.5625 3.2
0.4375 0.625 3.1375
0.4375 0.5625 3.1375
0.625 0.5625 3.2
0.625 0.625 3.1375
0.5625 0.625 3.2
0.625 0.5625 3.1375
0.5625 0.5625 3.2
0.5625 0.625 3.1375
0.5625 0.5625 3.1375
0.75 0.5625 3.2
0.75 0.625 3.1375
0.6875 0.625 3.2
0.75 0.5625 3.1375
0.6875 0.5625 3.2
0.6875 0.625 3.1375
0.6875 0.5625 3.1375
0.875 0.5625 3.2
0.875 0.625 3.1375
0.8125 0.625 3.2
0.875 0.5625 3.1375
0.8125 0.5625 3.2
0.8125 0.625 3.1375
0.8125 0.5625 3.1375
1 0.5625 3.2
1 0.625 3.1375
0.9375 0.625 3.2
1 0.5625 3.1375
0.9375 0.5625 3.2
0.9375 0.625 3.1375
0.9375 0.5625 3.1375
1.125 0.5625 3.2
1.125 0.625 3.1375
1.0625 0.625 3.2
1.125 0.5625 3.1375
1.0625 0.5625 3.2
1.0625 0.625 3.1375
1.0625 0.5625 3.1375
1.25 0.5625 3.2
1.25 0.625 3.1375
1.1875 0.625 3.2
1.25 0.5625 3.1375
1.1875 0.5625 3.2
1.1875 0.625 3.1375
1.1875 0.5625 3.1375
1.375 0.5625 3.2
1.375 0.625 3.1375
1.3125 0.625 3.2
1.375 0.5625 3.1375
1.3125 0.5625 3.2
1.3125 0.625 3.1375
1.3125 0.5625 3.1375
1.5 0.5625 3.2
1.5 0.625 3.1375
1.4375 0.625 3.2
1.5 0.5625 3.1375
1.4375 0.5625 3.2
1.4375 0.625 3.1375
1.4375 0.5625 3.1375
1.625 0.5625 3.2
1.625 0.625 3.1375
1.5625 0.625 3.2
1.625 0.5625 3.1375
1.5625 0.5625 3.2
1.5625 0.625 3.1375
1.5625 0.5625 3.1375
1.75 0.5625 3.2
1.75 0.625 3.1375
1.6875 0.625 3.2
1.75 0.5625 3.1375
1.6875 0.5625 3.2
1.6875 0.625 3.1375
1.6875 0.5625 3.1375
1.875 0.5625 3.2
1.875 0.625 3.1375
1.8125 0.625 3.2
1.875 0.5625 3.1375
1.8125 0.5625 3.2
1.8125 0.625 3.1375
1.8125 0.5625 3.1375
2 0.5625 3.2
2 0.625 3.1375
1.9375 0.625 3.2
2 0.5625 3.1375
1.9375 0.5625 3.2
1.9375 0.625 3.1375
1.9375 0.5625 3.1375
2.125 0.5625 3.2
2.125 0.625 3.1375
2.0625 0.625 3.2
2.125 0.5625 3.1375
2.0625 0.5625 3.2
2.0625 0.625 3.1375
2.0625 0.5625 3.1375
2.25 0.5625 3.2
2.25 0.625 3.1375
2.1875 0.625 3.2
2.25 0.5625 3.1375
2.1875 0.5625 3.2
2.1875 0.625 3.1375
2.1875 0.5625 3.1375
2.375 0.5625 3.2
2.375 0.625 3.1375
2.3125 0.625 3.2
2.375 0.5625 3.1375
2.3125 0.5625 3.2
2.3125 0.625 3.1375
2.3125 0.5625 3.1375
2.5 0.5625 3.2
2.5 0.625 3.1375
2.4375 0.625 3.2
2.5 0.5625 3.1375
2.4375 0.5625 3.2
2.4375 0.625 3.1375
2.4375 0.5625 3.1375
2.625 0.5625 3.2
2.625 0.625 3.1375
2.5625 0.625 3.2
2.625 0.5625 3.1375
2.5625 0.5625 3.2
2.5625 0.625 3.1375
2.5625 0.5625 3.1375
2.75 0.5625 3.2
2.75 0.625 3.1375
2.6875 0.625 3.2
2.75 0.5625 3.1375
2.6875 0.5625 3.2
2.6875 0.625 3.1375
2.6875 0.5625 3.1375
2.875 0.5625 3.2
2.875 0.625 3.1375
2.8125 0.625 3.2
2.875 0.5625 3.1375
2.8125 0.5625 3.2
2.8125 0.625 3.1375
2.8125 0.5625 3.1375
3 0.5625 3.2
3 0.625 3.1375
2.9375 0.625 3.2
3 0.5625 3.1375
2.9375 0.5625 3.2
2.9375 0.625 3.1375
2.9375 0.5625 3.1375
0.125 0.6875 3.2
0 0.6875 3.2
0.125 0.75 3.1375
0.0625 0.75 3.2
0 0.75 3.1375
0.125 0.6875 3.1375
0.0625 0.6875 3.2
0 0.6875 3.1375
0.0625 0.75 3.1375
0.0625 0.6875 3.1375
0.25 0.6875 3.2
0.25 0.75 3.1375
0.1875 0.75 3.2
0.25 0.6875 3.1375
0.1875 0.6875 3.2
0.1875 0.75 3.1375
0.1875 0.6875 3.1375
0.375 0.6875 3.2
0.375 0.75 3.1375
0.3125 0.75 3.2
0.375 0.6875 3.1375
0.3125 0.6875 3.2
0.3125 0.75 3.1375
0.3125 0.6875 3.1375
0.5 0.6875 3.2
0.5 0.75 3.1375
0.4375 0.75 3.2
0.5 0.6875 3.1375
0.4375 0.6875 3.2
0.4375 0.75 3.1375
0.4375 0.6875 3.1375
0.625 0.6875 3.2
0.625 0.75 3.1375
0.5625 0.75 3.2
0.625 0.6875 3.1375
0.5625 0.6875 3.2
0.5625 0.75 3.1375
0.5625 0.6875 3.1375
0.75 0.6875 3.2
0.75 0.75 3.1375
0.6875 0.75 3.2
0.75 0.6875 3.1375
0.6875 0.6875 3.2
0.6875 0.75 3.1375
0.6875 0.6875 3.1375
0.875 0.6875 3.2
0.875 0.75 3.1375
0.8125 0.75 3.2
0.875 0.6875 3.1375
0.8125 0.6875 3.2
0.8125 0.75 3.1375
0.8125 0.6875 3.1375
1 0.6875 3.2
1 0.75 3.1375
0.9375 0.75 3.2
1 0.6875 3.1375
0.9375 0.6875 3.2
0.9375 0.75 3.1375
0.9375 0.6875 3.1375
1.125 0.6875 3.2
1.125 0.75 3.1375
1.0625 0.75 3.2
1.125 0.6875 3.1375
1.0625 0.6875 3.2
1.0625 0.75 3.1375
1.0625 0.6875 3.1375
1.25 0.6875 3.2
1.25 0.75 3.1375
1.1875 0.75 3.2
1.25 0.6875 3.1375
1.1875 0.6875 3.2
1.1875 0.75 3.1375
1.1875 0.6875 3.1375
1.375 0.6875 3.2
1.375 0.75 3.1375
1.3125 0.75 3.2
1.375 0.6875 3.1375
1.3125 0.6875 3.2
1.3125 0.75 3.1375
1.3125 0.6875 3.1375
1.5 0.6875 3.2
1.5 0.75 3.1375
1.4375 0.75 3.2
1.5 0.6875 3.1375
1.4375 0.6875 3.2
1.4375 0.75 3.1375
1.4375 0.6875 3.1375
1.625 0.6875 3.2
1.625 0.75 3.1375
1.5625 0.75 3.2
1.625 0.6875 3.1375
1.5625 0.6875 3.2
1.5625 0.75 3.1375
1.5625 0.6875 3.1375
1.75 0.6875 3.2
1.75 0.75 3.1375
1.6875 0.75 3.2
1.75 0.6875 3.1375
1.6875 0.6875 3.2
1.6875 0.75 3.1375
1.6875 0.6875 3.1375
1.875 0.6875 3.2
1.875 0.75 3.1375
1.8125 0.75 3.2
1.875 0.6875 3.1375
1.8125 0.6875 3.2
1.8125 0.75 3.1375
1.8125 0.6875 3.1375
2 0.6875 3.2
2 0.75 3.1375
1.9375 0.75 3.2
2 0.6875 3.1375
1.9375 0.6875 3.2
1.9375 0.75 3.1375
1.9375 0.6875 3.1375
2.125 0.6875 3.2
2.125 0.75 3.1375
2.0625 0.75 3.2
2.125 0.6875 3.1375
2.0625 0.6875 3.2
2.0625 0.75 3.1375
2.0625 0.6875 3.1375
2.25 0.6875 3.2
2.25 0.75 3.1375
2.1875 0.75 3.2
2.25 0.6875 3.1375
2.1875 0.6875 3.2
2.1875 0.75 3.1375
2.1875 0.6875 3.1375
2.375 0.6875 3.2
2.375 0.75 3.1375
2.3125 0.75 3.2
2.375 0.6875 3.1375
2.3125 0.6875 3.2
2.3125 0.75 3.1375
2.3125 0.6875 3.1375
2.5 0.6875 3.2
2.5 0.75 3.1375
2.4375 0.75 3.2
2.5 0.6875 3.1375
2.4375 0.6875 3.2
2.4375 0.75 3.1375
2.4375 0.6875 3.1375
2.625 0.6875 3.2
2.625 0.75 3.1375
2.5625 0.75 3.2
2.625 0.6875 3.1375
2.5625 0.6875 3.2
2.5625 0.75 3.1375
2.5625 0.6875 3.1375
2.75 0.6875 3.2
2.75 0.75 3.1375
2.6875 0.75 3.2
2.75 0.6875 3.1375
2.6875 0.6875 3.2
2.6875 0.75 3.1375
2.6875 0.6875 3.1375
2.875 0.6875 3.2
2.875 0.75 3.1375
2.8125 0.75 3.2
2.875 0.6875 3.1375
2.8125 0.6875 3.2
2.8125 0.75 3.1375
2.8125 0.6875 3.1375
3 0.6875 3.2
3 0.75 3.1375
2.9375 0.75 3.2
3 0.6875 3.1375
2.9375 0.6875 3.2
2.9375 0.75 3.1375
2.9375 0.6875 3.1375
0.125 0.8125 3.2
0 0.8125 3.2
0.125 0.875 3.1375
0.0625 0.875 3.2
0 0.875 3.1375
0.125 0.8125 3.1375
0.0625 0.8125 3.2
0 0.8125 3.1375
0.0625 0.875 3.1375
0.0625 0.8125 3.1375
0.25 0.8125 3.2
0.25 0.875 3.1375
0.1875 0.875 3.2
0.25 0.8125 3.1375
0.1875 0.8125 3.2
0.1875 0.875 3.1375
0.1875 0.8125 3.1375
0.375 0.8125 3.2
0.375 0.875 3.1375
0.3125 0.875 3.2
0.375 0.8125 3.1375
0.3125 0.8125 3.2
0.3125 0.875 3.1375
0.3125 0.8125 3.1375
0.5 0.8125 3.2
0.5 0.875 3.1375
0.4375 0.875 3.2
0.5 0.8125 3.1375
0.4375 0.8125 3.2
0.4375 0.875 3.1375
0.4375 0.8125 3.1375
0.625 0.8125 3.2
0.625 0.875 3.1375
0.5625 0.875 3.2
0.625 0.8125 3.1375
0.5625 0.8125 3.2
0.5625 0.875 3.1375
0.5625 0.8125 3.1375
0.75 0.8125 3.2
0.75 0.875 3.1375
0.6875 0.875 3.2
0.75 0.8125 3.1375
0.6875 0.8125 3.2
0.6875 0.875 3.1375
0.6875 0.8125 3.1375
0.875 0.8125 3.2
0.875 0.875 3.1375
0.8125 0.875 3.2
0.875 0.8125 3.1375
0.8125 0.8125 3.2
0.8125 0.875 3.1375
0.8125 0.8125 3.1375
1 0.8125 3.2
1 0.875 3.1375
0.9375 0.875 3.2
1 0.8125 3.1375
0.9375 0.8125 3.2
0.9375 0.875 3.1375
0.9375 0.8125 3.1375
1.125 0.8125 3.2
1.125 0.875 3.1375
1.0625 0.875 3.2
1.125 0.8125 3.1375
1.0625 0.8125 3.2
1.0625 0.875 3.1375
1.0625 0.8125 3.1375
1.25 0.8125 3.2
1.25 0.875 3.1375
1.1875 0.875 3.2
1.25 0.8125 3.1375
1.1875 0.8125 3.2
1.1875 0.875 3.1375
1.1875 0.8125 3.1375
1.375 0.8125 3.2
1.375 0.875 3.1375
1.3125 0.875 3.2
1.375 0.8125 3.1375
1.3125 0.8125 3.2
1.3125 0.875 3.1375
1.3125 0.8125 3.1375
1.5 0.8125 3.2
1.5 0.875 3.1375
1.4375 0.875 3.2
1.5 0.8125 3.1375
1.4375 0.8125 3.2
1.4375 0.875 3.1375
1.4375 0.8125 3.1375
1.625 0.8125 3.2
1.625 0.875 3.1375
1.5625 0.875 3.2
1.625 0.8125 3.1375
1.5625 0.8125 3.2
1.5625 0.875 3.1375
1.5625 0.8125 3.1375
1.75 0.8125 3.2
1.75 0.875 3.1375
1.6875 0.875 3.2
1.75 0.8125 3.1375
1.6875 0.8125 3.2
1.6875 0.875 3.1375
1.6875 0.8125 3.1375
1.875 0.8125 3.2
1.875 0.875 3.1375
1.8125 0.875 3.2
1.875 0.8125 3.1375
1.8125 0.8125 3.2
1.8125 0.875 3.1375
1.8125 0.8125 3.1375
2 0.8125 3.2
2 0.875 3.1375
1.9375 0.875 3.2
2 0.8125 3.1375
1.9375 0.8125 3.2
1.9375 0.875 3.1375
1.9375 0.8125 3.1375
2.125 0.8125 3.2
2.125 0.875 3.1375
2.0625 0.875 3.2
2.125 0.8125 3.1375
2.0625 0.8125 3.2
2.0625 0.875 3.1375
2.0625 0.8125 3.1375
2.25 0.8125 3.2
2.25 0.875 3.1375
2.1875 0.875 3.2
2.25 0.8125 3.1375
2.1875 0.8125 3.2
2.1875 0.875 3.1375
2.1875 0.8125 3.1375
2.375 0.8125 3.2
2.375 0.875 3.1375
2.3125 0.875 3.2
2.375 0.8125 3.1375
2.3125 0.8125 3.2
2.3125 0.875 3.1375
2.3125 0.8125 3.1375
2.5 0.8125 3.2
2.5 0.875 3.1375
2.4375 0.875 3.2
2.5 0.8125 3.1375
2.4375 0.8125 3.2
2.4375 0.875 3.1375
2.4375 0.8125 3.1375
2.625 0.8125 3.2
2.625 0.875 3.1375
2.5625 0.875 3.2
2.625 0.8125 3.1375
2.5625 0.8125 3.2
2.5625 0.875 3.1375
2.5625 0.8125 3.1375
2.75 0.8125 3.2
2.75 0.875 3.1375
2.6875 0.875 3.2
2.75 0.8125 3.1375
2.6875 0.8125 3.2
2.6875 0.875 3.1375
2.6875 0.8125 3.1375
2.875 0.8125 3.2
2.875 0.875 3.1375
2.8125 0.875 3.2
2.875 0.8125 3.1375
2.8125 0.8125 3.2
2.8125 0.875 3.1375
2.8125 0.8125 3.1375
3 0.8125 3.2
3 0.875 3.1375
2.9375 0.875 3.2
3 0.8125 3.1375
2.9375 0.8125 3.2
2.9375 0.875 3.1375
2.9375 0.8125 3.1375
0.125 0.9375 3.2
0 0.9375 3.2
0.125 1 3.1375
0.0625 1 3.2
0 1 3.1375
0.125 0.9375 3.1375
0.0625 0.9375 3.2
0 0.9375 3.1375
0.0625 1 3.1375
0.0625 0.9375 3.1375
0.25 0.9375 3.2
0.25 1 3.1375
0.1875 1 3.2
0.25 0.9375 3.1375
0.1875 0.9375 3.2
0.1875 1 3.1375
0.1875 0.9375 3.1375
0.375 0.9375 3.2
0.375 1 3.1375
0.3125 1 3.2
0.375 0.9375 3.1375
0.3125 0.9375 3.2
0.3125 1 3.1375
0.3125 0.9375 3.1375
0.5 0.9375 3.2
0.5 1 3.1375
0.4375 1 3.2
0.5 0.9375 3.1375
0.4375 0.9375 3.2
0.4375 1 3.1375
0.4375 0.9375 3.1375
0.625 0.9375 3.2
0.625 1 3.1375
0.5625 1 3.2
0.625 0.9375 3.1375
0.5625 0.9375 3.2
0.5625 1 3.1375
0.5625 0.9375 3.1375
0.75 0.9375 3.2
0.75 1 3.1375
0.6875 1 3.2
0.75 0.9375 3.1375
0.6875 0.9375 3.2
0.6875 1 3.1375
0.6875 0.9375 3.1375
0.875 0.9375 3.2
0.875 1 3.1375
0.8125 1 3.2
0.875 0.9375 3.1375
0.8125 0.9375 3.2
0.8125 1 3.1375
0.8125 0.9375 3.1375
1 0.9375 3.2
1 1 3.1375
0.9375 1 3.2
1 0.9375 3.1375
0.9375 0.9375 3.2
0.9375 1 3.1375
0.9375 0.9375 3.1375
1.125 0.9375 3.2
1.125 1 3.1375
1.0625 1 3.2
1.125 0.9375 3.1375
1.0625 0.9375 3.2
1.0625 1 3.1375
1.0625 0.9375 3.1375
1.25 0.9375 3.2
1.25 1 3.1375
1.1875 1 3.2
1.25 0.9375 3.1375
1.1875 0.9375 3.2
1.1875 1 3.1375
1.1875 0.9375 3.1375
1.375 0.9375 3.2
1.375 1 3.1375
1.3125 1 3.2
1.375 0.9375 3.1375
1.3125 0.9375 3.2
1.3125 1 3.1375
1.3125 0.9375 3.1375
1.5 0.9375 3.2
1.5 1 3.1375
1.4375 1 3.2
1.5 0.9375 3.1375
1.4375 0.9375 3.2
1.4375 1 3.1375
1.4375 0.9375 3.1375
1.625 0.9375 3.2
1.625 1 3.1375
1.5625 1 3.2
1.625 0.9375 3.1375
1.5625 0.9375 3.2
1.5625 1 3.1375
1.5625 0.9375 3.1375
1.75 0.9375 3.2
1.75 1 3.1375
1.6875 1 3.2
1.75 0.9375 3.1375
1.6875 0.9375 3.2
1.6875 1 3.1375
1.6875 0.9375 3.1375
1.875 0.9375 3.2
1.875 1 3.1375
1.8125 1 3.2
1.875 0.9375 3.1375
1.8125 0.9375 3.2
1.8125 1 3.1375
1.8125 0.9375 3.1375
2 0.9375 3.2
2 1 3.1375
1.9375 1 3.2
2 0.9375 3.1375
1.9375 0.9375 3.2
1.9375 1 3.1375
1.9375 0.9375 3.1375
2.125 0.9375 3.2
2.125 1 3.1375
2.0625 1 3.2
2.125 0.9375 3.1375
2.0625 0.9375 3.2
2.0625 1 3.1375
2.0625 0.9375 3.1375
2.25 0.9375 3.2
2.25 1 3.1375
2.1875 1 3.2
2.25 0.9375 3.1375
2.1875 0.9375 3.2
2.1875 1 3.1375
2.1875 0.9375 3.1375
2.375 0.9375 3.2
2.375 1 3.1375
2.3125 1 3.2
2.375 0.9375 3.1375
2.3125 0.9375 3.2
2.3125 1 3.1375
2.3125 0.9375 3.1375
2.5 0.9375 3.2
2.5 1 3.1375
2.4375 1 3.2
2.5 0.9375 3.1375
2.4375 0.9375 3.2
2.4375 1 3.1375
2.4375 0.9375 3.1375
2.625 0.9375 3.2
2.625 1 3.1375
2.5625 1 3.2
2.625 0.9375 3.1375
2.5625 0.9375 3.2
2.5625 1 3.1375
2.5625 0.9375 3.1375
2.75 0.9375 3.2
2.75 1 3.1375
2.6875 1 3.2
2.75 0.9375 3.1375
2.6875 0.9375 3.2
2.6875 1 3.1375
2.6875 0.9375 3.1375
2.875 0.9375 3.2
2.875 1 3.1375
2.8125 1 3.2
2.875 0.9375 3.1375
2.8125 0.9375 3.2
2.8125 1 3.1375
2.8125 0.9375 3.1375
3 0.9375 3.2
3 1 3.1375
2.9375 1 3.2
3 0.9375 3.1375
2.9375 0.9375 3.2
2.9375 1 3.1375
2.9375 0.9375 3.1375

CELLS 1537 41472
OFFSETS vtktypeint64
0 27 54 81 108 135 162 189 216 243 270 297 324 351 378 405 432 459 486 513 540 567 594 621 648 675 702 729 756 783 810 837 864 891 918 945 972 999 1026 1053 1080 1107 1134 1161 1188 1215 1242 1269 1296 1323 1350 1377 1404 1431 1458 1485 1512 1539 1566 1593 1620 1647 1674 1701 1728 1755 1782 1809 1836 1863 1890 1917 1944 1971 1998 2025 2052 2079 2106 2133 2160 2187 2214 2241 2268 2295 2322 2349 2376 2403 2430 2457 2484 2511 2538 2565 2592 2619 2646 2673 2700 2727 2754 2781 2808 2835 2862 2889 2916 2943 2970 2997 3024 3051 3078 3105 3132 3159 3186 3213 3240 3267 3294 3321 3348 3375 3402 3429 3456 3483 3510 3537 3564 3591 3618 3645 3672 3699 3726 3753 3780 3807 3834 3861 3888 3915 3942 3969 3996 4023 4050 4077 4104 4131 4158 4185 4212 4239 4266 4293 4320 4347 4374 4401 4428 4455 4482 4509 4536 4563 4590 4617 4644 4671 4698 4725 4752 4779 4806 4833 4860 4887 4914 4941 4968 4995 5022 5049 5076 5103 5130 5157 5184 5211 5238 5265 5292 5319 5346 5373 5400 5427 5454 5481 5508 5535 5562 5589 5616 5643 5670 5697 5724 5751 5778 5805 5832 5859 5886 5913 5940 5967 5994 6021 6048 6075 6102 6129 6156 6183 6210 6237 6264 6291 6318 6345 6372 6399 6426 6453 6480 6507 6534 6561 6588 6615 6642 6669 6696 6723 6750 6777 6804 6831 6858 6885 6912 6939 6966 6993 7020 7047 7074 7101 7128 7155 7182 7209 7236 7263 7290 7317 7344 7371 7398 7425 7452 7479 7506 7533 7560 7587 7614 7641 7668 7695 7722 7749 7776 7803 7830 7857 7884 7911 7938 7965 7992 8019 8046 8073 8100 8127 8154 8181 8208 8235 8262 8289 8316 8343 8370 8397 8424 8451 8478 8505 8532 8559 8586 8613 8640 8667 8694 8721 8748 8775 8802 8829 8856 8883 8910 8937 8964 8991 9018 9045 9072 9099 9126 9153 9180 9207 9234 9261 9288 9315 9342 9369 9396 9423 9450 9477 9504 9531 9558 9585 9612 9639 9666 9693 9720 9747 9774 9801 9828 9855 9882 9909 9936 9963 9990 10017 10044 10071 10098 10125 10152 10179 10206 10233 10260 10287 10314 10341 10368 10395 10422 10449 10476 10503 10530 10557 10584 10611 10638 10665 10692 10719 10746 10773 10800 10827 10854 10881 10908 10935 10962 10989 11016 11043 11070 11097 11124 11151 11178 11205 11232 11259 11286 11313 11340 11367 11394 11421 11448 11475 11502 11529 11556 11583 11610 11637 11664 11691 11718 11745 11772 11799 11826 11853 11880 11907 11934 11961 11988 12015 12042 12069 12096 12123 12150 12177 12204 12231 12258 12285 12312 12339 12366 12393 12420 12447 12474 12501 12528 12555 12582 12609 12636 12663 12690 12717 12744 12771 12798 12825 12852 12879 12906 12933 12960 12987 13014 13041 13068 13095 13122 13149 13176 13203 13230 13257 13284 13311 13338 13365 13392 13419 13446 13473 13500 13527 13554 13581 13608 13635 13662 13689 13716 13743 13770 13797 13824 13851 13878 13905 13932 13959 13986 14013 14040 14067 14094 14121 14148 14175 14202 14229 14256 14283 14310 14337 14364 14391 14418 14445 14472 14499 14526 14553 14580 14607 14634 14661 14688 14715 14742 14769 14796 14823 14850 14877 14904 14931 14958 14985 15012 15039 15066 15093 15120 15147 15174 15201 15228 15255 15282 15309 15336 15363 15390 15417 15444 15471 15498 15525 15552 15579 15606 15633 15660 15687 15714 15741 15768 15795 15822 15849 15876 15903 15930 15957 15984 16011 16038 16065 16092 16119 16146 16173 16200 16227 16254 16281 16308 16335 16362 16389 16416 16443 16470 16497 16524 16551 16578 16605 16632 16659 16686 16713 16740 16767 16794 16821 16848 16875 16902 16929 16956 16983 17010 17037 17064 17091 17118 17145 17172 17199 17226 17253 17280 17307 17334 17361 17388 17415 17442 17469 17496 17523 17550 17577 17604 17631 17658 17685 17712 17739 17766 17793 17820 17847 17874 17901 17928 17955 17982 18009 18036 18063 18090 18117 18144 18171 18198 18225 18252 18279 18306 18333 18360 18387 18414 18441 18468 18495 18522 18549 18576 18603 18630 18657 18684 18711 18738 18765 18792 18819 18846 18873 18900 18927 18954 18981 19008 19035 19062 19089 19116 19143 19170 19197 19224 19251 19278 19305 19332 19359 19386 19413 19440 19467 19494 19521 19548 19575 19602 19629 19656 19683 19710 19737 19764 19791 19818 19845 19872 19899 19926 19953 19980 20007 20034 20061 20088 20115 20142 20169 20196 20223 20250 20277 20304 20331 20358 20385 20412 20439 20466 20493 20520 20547 20574 20601 20628 20655 20682 20709 20736 20763 20790 20817 20844 20871 20898 20925 20952 20979 21006 21033 21060 21087 21114 21141 21168 21195 21222 21249 21276 21303 21330 21357 21384 21411 21438 21465 21492 21519 21546 21573 21600 21627 21654 21681 21708 21735 21762 21789 21816 21843 21870 21897 21924 21951 21978 22005 22032 22059 22086 22113 22140 22167 22194 22221 22248 22275 22302 22329 22356 22383 22410 22437 22464 22491 22518 22545 22572 22599 22626 22653 22680 22707 22734 22761 22788 22815 22842 22869 22896 22923 22950 22977 23004 23031 23058 23085 23112 23139 23166 23193 23220 23247 23274 23301 23328 23355 23382 23409 23436 23463 23490 23517 23544 23571 23598 23625 23652 23679 23706 23733 23760 23787 23814 23841 23868 23895 23922 23949 23976 24003 24030 24057 24084 24111 24138 24165 24192 24219 24246 24273 24300 24327 24354 24381 24408 24435 24462 24489 24516 24543 24570 24597 24624 24651 24678 24705 24732 24759 24786 24813 24840 24867 24894 24921 24948 24975 25002 25029 25056 25083 25110 25137 25164 25191 25218 25245 25272 25299 25326 25353 25380 25407 25434 25461 25488 25515 25542 25569 25596 25623 25650 25677 25704 25731 25758 25785 25812 25839 25866 25893 25920 25947 25974 26001 26028 26055 26082 26109 26136 26163 26190 26217 26244 26271 26298 26325 26352 26379 26406 26433 26460 26487 26514 26541 26568 26595 26622 26649 26676 26703 26730 26757 26784 26811 26838 26865 26892 26919 26946 26973 27000 27027 27054 27081 27108 27135 27162 27189 27216 27243 27270 27297 27324 27351 27378 27405 27432 27459 27486 27513 27540 27567 27594 27621 27648 27675 27702 27729 27756 27783 27810 27837 27864 27891 27918 27945 27972 27999 28026 28053 28080 28107 28134 28161 28188 28215 28242 28269 28296 28323 28350 28377 28404 28431 28458 28485 28512 28539 28566 28593 28620 28647 28674 28701 28728 28755 28782 28809 28836 28863 28890 28917 28944 28971 28998 29025 29052 29079 29106 29133 29160 29187 29214 29241 29268 29295 29322 29349 29376 29403 29430 29457 29484 29511 29538 29565 29592 29619 29646 29673 29700 29727 29754 29781 29808 29835 29862 29889 29916 29943 29970 29997 30024 30051 30078 30105 30132 30159 30186 30213 30240 30267 30294 30321 30348 30375 30402 30429 30456 30483 30510 30537 30564 30591 30618 30645 30672 30699 30726 30753 30780 30807 30834 30861 30888 30915 30942 30969 30996 31023 31050 31077 31104 31131 31158 31185 31212 31239 31266 31293 31320 31347 31374 31401 31428 31455 31482 31509 31536 31563 31590 31617 31644 31671 31698 31725 31752 31779 31806 31833 31860 31887 31914 31941 31968 31995 32022 32049 32076 32103 32130 32157 32184 32211 32238 32265 32292 32319 32346 32373 32400 32427 32454 32481 32508 32535 32562 32589 32616 32643 32670 32697 32724 32751 32778 32805 32832 32859 32886 32913 32940 32967 32994 33021 33048 33075 33102 33129 33156 33183 33210 33237 33264 33291 33318 33345 33372 33399 33426 33453 33480 33507 33534 33561 33588 33615 33642 33669 33696 33723 33750 33777 33804 33831 33858 33885 33912 33939 33966 33993 34020 34047 34074 34101 34128 34155 34182 34209 34236 34263 34290 34317 34344 34371 34398 34425 34452 34479 34506 34533 34560 34587 34614 34641 34668 34695 34722 34749 34776 34803 34830 34857 34884 34911 34938 34965 34992 35019 35046 35073 35100 35127 35154 35181 35208 35235 35262 35289 35316 35343 35370 35397 35424 35451 35478 35505 35532 35559 35586 35613 35640 35667 35694 35721 35748 35775 35802 35829 35856 35883 35910 35937 35964 35991 36018 36045 36072 36099 36126 36153 36180 36207 36234 36261 36288 36315 36342 36369 36396 36423 36450 36477 36504 36531 36558 36585 36612 36639 36666 36693 36720 36747 36774 36801 36828 36855 36882 36909 36936 36963 36990 37017 37044 37071 37098 37125 37152 37179 37206 37233 37260 37287 37314 37341 37368 37395 37422 37449 37476 37503 37530 37557 37584 37611 37638 37665 37692 37719 37746 37773 37800 37827 37854 37881 37908 37935 37962 37989 38016 38043 38070 38097 38124 38151 38178 38205 38232 38259 38286 38313 38340 38367 38394 38421 38448 38475 38502 38529 38556 38583 38610 38637 38664 38691 38718 38745 38772 38799 38826 38853 38880 38907 38934 38961 38988 39015 39042 39069 39096 39123 39150 39177 39204 39231 39258 39285 39312 39339 39366 39393 39420 39447 39474 39501 39528 39555 39582 39609 39636 39663 39690 39717 39744 39771 39798 39825 39852 39879 39906 39933 39960 39987 40014 40041 40068 40095 40122 40149 40176 40203 40230 40257 40284 40311 40338 40365 40392 40419 40446 40473 40500 40527 40554 40581 40608 40635 40662 40689 40716 40743 40770 40797 40824 40851 40878 40905 40932 40959 40986 41013 41040 41067 41094 41121 41148 41175 41202 41229 41256 41283 41310 41337 41364 41391 41418 41445 41472 
CONNECTIVITY vtktypeint64
0 1 226 225 25 26 251 250 2025 2026 2027 2028 2033 2034 2035 2036 2029 2030 2031 2032 2041 2039 2038 2040 2037 2042 2043 
1 2 227 226 26 27 252 251 2044 2045 2046 2026 2049 2050 2051 2034 2030 2047 2048 2031 2039 2054 2053 2055 2052 2056 2057 
2 3 228 227 27 28 253 252 2058 2059 2060 2045 2063 2064 2065 2050 2047 2061 2062 2048 2054 2068 2067 2069 2066 2070 2071 
3 4 229 228 28 29 254 253 2072 2073 2074 2059 2077 2078 2079 2064 2061 2075 2076 2062 2068 2082 2081 2083 2080 2084 2085 
4 5 230 229 29 30 255 254 2086 2087 2088 2073 2091 2092 2093 2078 2075 2089 2090 2076 2082 2096 2095 2097 2094 2098 2099 
5 6 231 230 30 31 256 255 2100 2101 2102 2087 2105 2106 2107 2092 2089 2103 2104 2090 2096 2110 2109 2111 2108 2112 2113 
6 7 232 231 31 32 257 256 2114 2115 2116 2101 2119 2120 2121 2106 2103 2117 2118 2104 2110 2124 2123 2125 2122 2126 2127 
7 8 233 232 32 33 258 257 2128 2129 2130 2115 2133 2134 2135 2120 2117 2131 2132 2118 2124 2138 2137 2139 2136 2140 2141 
8 9 234 233 33 34 259 258 2142 2143 2144 2129 2147 2148 2149 2134 2131 2145 2146 2132 2138 2152 2151 2153 2150 2154 2155 
9 10 235 234 34 35 260 259 2156 2157 2158 2143 2161 2162 2163 2148 2145 2159 2160 2146 2152 2166 2165 2167 2164 2168 2169 
10 11 236 235 35 36 261 260 2170 2171 2172 2157 2175 2176 2177 2162 2159 2173 2174 2160 2166 2180 2179 2181 2178 2182 2183 
11 12 237 236 36 37 262 261 2184 2185 2186 2171 2189 2190 2191 2176 2173 2187 2188 2174 2180 2194 2193 2195 2192 2196 2197 
12 13 238 237 37 38 263 262 2198 2199 2200 2185 2203 2204 2205 2190 2187 2201 2202 2188 2194 2208 2207 2209 2206 2210 2211 
13 14 239 238 38 39 264 263 2212 2213 2214 2199 2217 2218 2219 2204 2201 2215 2216 2202 2208 2222 2221 2223 2220 2224 2225 
14 15 240 239 39 40 265 264 2226 2227 2228 2213 2231 2232 2233 2218 2215 2229 2230 2216 2222 2236 2235 2237 2234 2238 2239 
15 16 241 240 40 41 266 265 2240 2241 2242 2227 2245 2246 2247 2232 2229 2243 2244 2230 2236 2250 2249 2251 2248 2252 2253 
16 17 242 241 41 42 267 266 2254 2255 2256 2241 2259 2260 2261 2246 2243 2257 2258 2244 2250 2264 2263 2265 2262 2266 2267 
17 18 243 242 42 43 268 267 2268 2269 2270 2255 2273 2274 2275 2260 2257 2271 2272 2258 2264 2278 2277 2279 2276 2280 2281 
18 19 244 243 43 44 269 268 2282 2283 2284 2269 2287 2288 2289 2274 2271 2285 2286 2272 2278 2292 2291 2293 2290 2294 2295 
19 20 245 244 44 45 270 269 2296 2297 2298 2283 2301 2302 2303 2288 2285 2299 2300 2286 2292 2306 2305 2307 2304 2308 2309 
20 21 246 245 45 46 271 270 2310 2311 2312 2297 2315 2316 2317 2302 2299 2313 2314 2300 2306 2320 2319 2321 2318 2322 2323 
21 22 247 246 46 47 272 271 2324 2325 2326 2311 2329 2330 2331 2316 2313 2327 2328 2314 2320 2334 2333 2335 2332 2336 2337 
22 23 248 247 47 48 273 272 2338 2339 2340 2325 2343 2344 2345 2330 2327 2341 2342 2328 2334 2348 2347 2349 2346 2350 2351 
23 24 249 248 48 49 274 273 2352 2353 2354 2339 2357 2358 2359 2344 2341 2355 2356 2342 2348 2362 2361 2363 2360 2364 2365 
25 26 251 250 50 51 276 275 2033 2034 2035 2036 2370 2371 2372 2373 2366 2367 2368 2369 2377 2375 2374 2376 2042 2378 2379 
26 27 252 251 51 52 277 276 2049 2050 2051 2034 2382 2383 2384 2371 2367 2380 2381 2368 2375 2386 2385 2387 2056 2388 2389 
27 28 253 252 52 53 278 277 2063 2064 2065 2050 2392 2393 2394 2383 2380 2390 2391 2381 2386 2396 2395 2397 2070 2398 2399 
28 29 254 253 53 54 279 278 2077 2078 2079 2064 2402 2403 2404 2393 2390 2400 2401 2391 2396 2406 2405 2407 2084 2408 2409 
29 30 255 254 54 55 280 279 2091 2092 2093 2078 2412 2413 2414 2403 2400 2410 2411 2401 2406 2416 2415 2417 2098 2418 2419 
30 31 256 255 55 56 281 280 2105 2106 2107 2092 2422 2423 2424 2413 2410 2420 2421 2411 2416 2426 2425 2427 2112 2428 2429 
31 32 257 256 56 57 282 281 2119 2120 2121 2106 2432 2433 2434 2423 2420 2430 2431 2421 2426 2436 2435 2437 2126 2438 2439 
32 33 258 257 57 58 283 282 2133 2134 2135 2120 2442 2443 2444 2433 2430 2440 2441 2431 2436 2446 2445 2447 2140 2448 2449 
33 34 259 258 58 59 284 283 2147 2148 2149 2134 2452 2453 2454 2443 2440 2450 2451 2441 2446 2456 2455 2457 2154 2458 2459 
34 35 260 259 59 60 285 284 2161 2162 2163 2148 2462 2463 2464 2453 2450 2460 2461 2451 2456 2466 2465 2467 2168 2468 2469 
35 36 261 260 60 61 286 285 2175 2176 2177 2162 2472 2473 2474 2463 2460 2470 2471 2461 2466 2476 2475 2477 2182 2478 2479 
36 37 262 261 61 62 287 286 2189 2190 2191 2176 2482 2483 2484 2473 2470 2480 2481 2471 2476 2486 2485 2487 2196 2488 2489 
37 38 263 262 62 63 288 287 2203 2204 2205 2190 2492 2493 2494 2483 2480 2490 2491 2481 2486 2496 2495 2497 2210 2498 2499 
38 39 264 263 63 64 289 288 2217 2218 2219 2204 2502 2503 2504 2493 2490 2500 2501 2491 2496 2506 2505 2507 2224 2508 2509 
39 40 265 264 64 65 290 289 2231 2232 2233 2218 2512 2513 2514 2503 2500 2510 2511 2501 2506 2516 2515 2517 2238 2518 2519 
40 41 266 265 65 66 291 290 2245 2246 2247 2232 2522 2523 2524 2513 2510 2520 2521 2511 2516 2526 2525 2527 2252 2528 2529 
41 42 267 266 66 67 292 291 2259 2260 2261 2246 2532 2533 2534 2523 2520 2530 2531 2521 2526 2536 2535 2537 2266 2538 2539 
42 43 268 267 67 68 293 292 2273 2274 2275 2260 2542 2543 2544 2533 2530 2540 2541 2531 2536 2546 2545 2547 2280 2548 2549 
43 44 269 268 68 69 294 293 2287 2288 2289 2274 2552 2553 2554 2543 2540 2550 2551 2541 2546 2556 2555 2557 2294 2558 2559 
44 45 270 269 69 70 295 294 2301 2302 2303 2288 2562 2563 2564 2553 2550 2560 2561 2551 2556 2566 2565 2567 2308 2568 2569 
45 46 271 270 70 71 296 295 2315 2316 2317 2302 2572 2573 2574 2563 2560 2570 2571 2561 2566 2576 2575 2577 2322 2578 2579 
46 47 272 271 71 72 297 296 2329 2330 2331 2316 2582 2583 2584 2573 2570 2580 2581 2571 2576 2586 2585 2587 2336 2588 2589 
47 48 273 272 72 73 298 297 2343 2344 2345 2330 2592 2593 2594 2583 2580 2590 2591 2581 2586 2596 2595 2597 2350 2598 2599 
48 49 274 273 73 74 299 298 2357 2358 2359 2344 2602 2603 2604 2593 2590 2600 2601 2591 2596 2606 2605 2607 2364 2608 2609 
50 51 276 275 75 76 301 300 2370 2371 2372 2373 2614 2615 2616 2617 2610 2611 2612 2613 2621 2619 2618 2620 2378 2622 2623 
51 52 277 276 76 77 302 301 2382 2383 2384 2371 2626 2627 2628 2615 2611 2624 2625 2612 2619 2630 2629 2631 2388 2632 2633 
52 53 278 277 77 78 303 302 2392 2393 2394 2383 2636 2637 2638 2627 2624 2634 2635 2625 2630 2640 2639 2641 2398 2642 2643 
53 54 279 278 78 79 304 303 2402 2403 2404 2393 2646 2647 2648 2637 2634 2644 2645 2635 2640 2650 2649 2651 2408 2652 2653 
54 55 280 279 79 80 305 304 2412 2413 2414 2403 2656 2657 2658 2647 2644 2654 2655 2645 2650 2660 2659 2661 2418 2662 2663 
55 56 281 280 80 81 306 305 2422 2423 2424 2413 2666 2667 2668 2657 2654 2664 2665 2655 2660 2670 2669 2671 2428 2672 2673 
56 57 282 281 81 82 307 306 2432 2433 2434 2423 2676 2677 2678 2667 2664 2674 2675 2665 2670 2680 2679 2681 2438 2682 2683 
57 58 283 282 82 83 308 307 2442 2443 2444 2433 2686 2687 2688 2677 2674 2684 2685 2675 2680 2690 2689 2691 2448 2692 2693 
58 59 284 283 83 84 309 308 2452 2453 2454 2443 2696 2697 2698 2687 2684 2694 2695 2685 2690 2700 2699 2701 2458 2702 2703 
59 60 285 284 84 85 310 309 2462 2463 2464 2453 2706 2707 2708 2697 2694 2704 2705 2695 2700 2710 2709 2711 2468 2712 2713 
60 61 286 285 85 86 311 310 2472 2473 2474 2463 2716 2717 2718 2707 2704 2714 2715 2705 2710 2720 2719 2721 2478 2722 2723 
61 62 287 286 86 87 312 311 2482 2483 2484 2473 2726 2727 2728 2717 2714 2724 2725 2715 2720 2730 2729 2731 2488 2732 2733 
62 63 288 287 87 88 313 312 2492 2493 2494 2483 2736 2737 2738 2727 2724 2734 2735 2725 2730 2740 2739 2741 2498 2742 2743 
63 64 289 288 88 89 314 313 2502 2503 2504 2493 2746 2747 2748 2737 2734 2744 2745 2735 2740 2750 2749 2751 2508 2752 2753 
64 65 290 289 89 90 315 314 2512 2513 2514 2503 2756 2757 2758 2747 2744 2754 2755 2745 2750 2760 2759 2761 2518 2762 2763 
65 66 291 290 90 91 316 315 2522 2523 2524 2513 2766 2767 2768 2757 2754 2764 2765 2755 2760 2770 2769 2771 2528 2772 2773 
66 67 292 291 91 92 317 316 2532 2533 2534 2523 2776 2777 2778 2767 2764 2774 2775 2765 2770 2780 2779 2781 2538 2782 2783 
67 68 293 292 92 93 318 317 2542 2543 2544 2533 2786 2787 2788 2777 2774 2784 2785 2775 2780 2790 2789 2791 2548 2792 2793 
68 69 294 293 93 94 319 318 2552 2553 2554 2543 2796 2797 2798 2787 2784 2794 2795 2785 2790 2800 2799 2801 2558 2802 2803 
69 70 295 294 94 95 320 319 2562 2563 2564 2553 2806 2807 2808 2797 2794 2804 2805 2795 2800 2810 2809 2811 2568 2812 2813 
70 71 296 295 95 96 321 320 2572 2573 2574 2563 2816 2817 2818 2807 2804 2814 2815 2805 2810 2820 2819 2821 2578 2822 2823 
71 72 297 296 96 97 322 321 2582 2583 2584 2573 2826 2827 2828 2817 2814 2824 2825 2815 2820 2830 2829 2831 2588 2832 2833 
72 73 298 297 97 98 323 322 2592 2593 2594 2583 2836 2837 2838 2827 2824 2834 2835 2825 2830 2840 2839 2841 2598 2842 2843 
73 74 299 298 98 99 324 323 2602 2603 2604 2593 2846 2847 2848 2837 2834 2844 2845 2835 2840 2850 2849 2851 2608 2852 2853 
75 76 301 300 100 101 326 325 2614 2615 2616 2617 2858 2859 2860 2861 2854 2855 2856 2857 2865 2863 2862 2864 2622 2866 2867 
76 77 302 301 101 102 327 326 2626 2627 2628 2615 2870 2871 2872 2859 2855 2868 2869 2856 2863 2874 2873 2875 2632 2876 2877 
77 78 303 302 102 103 328 327 2636 2637 2638 2627 2880 2881 2882 2871 2868 2878 2879 2869 2874 2884 2883 2885 2642 2886 2887 
78 79 304 303 103 104 329 328 2646 2647 2648 2637 2890 2891 2892 2881 2878 2888 2889 2879 2884 2894 2893 2895 2652 2896 2897 
79 80 305 304 104 105 330 329 2656 2657 2658 2647 2900 2901 2902 2891 2888 2898 2899 2889 2894 2904 2903 2905 2662 2906 2907 
80 81 306 305 105 106 331 330 2666 2667 2668 2657 2910 2911 2912 2901 2898 2908 2909 2899 2904 2914 2913 2915 2672 2916 2917 
81 82 307 306 106 107 332 331 2676 2677 2678 2667 2920 2921 2922 2911 2908 2918 2919 2909 2914 2924 2923 2925 2682 2926 2927 
82 83 308 307 107 108 333 332 2686 2687 2688 2677 2930 2931 2932 2921 2918 2928 2929 2919 2924 2934 2933 2935 2692 2936 2937 
83 84 309 308 108 109 334 333 2696 2697 2698 2687 2940 2941 2942 2931 2928 2938 2939 2929 2934 2944 2943 2945 2702 2946 2947 
84 85 310 309 109 110 335 334 2706 2707 2708 2697 2950 2951 2952 2941 2938 2948 2949 2939 2944 2954 2953 2955 2712 2956 2957 
85 86 311 310 110 111 336 335 2716 2717 2718 2707 2960 2961 2962 2951 2948 2958 2959 2949 2954 2964 2963 2965 2722 2966 2967 
86 87 312 311 111 112 337 336 2726 2727 2728 2717 2970 2971 2972 2961 2958 2968 2969 2959 2964 2974 2973 2975 2732 2976 2977 
87 88 313 312 112 113 338 337 2736 2737 2738 2727 2980 2981 2982 2971 2968 2978 2979 2969 2974 2984 2983 2985 2742 2986 2987 
88 89 314 313 113 114 339 338 2746 2747 2748 2737 2990 2991 2992 2981 2978 2988 2989 2979 2984 2994 2993 2995 2752 2996 2997 
89 90 315 314 114 115 340 339 2756 2757 2758 2747 3000 3001 3002 2991 2988 2998 2999 2989 2994 3004 3003 3005 2762 3006 3007 
90 91 316 315 115 116 341 340 2766 2767 2768 2757 3010 3011 3012 3001 2998 3008 3009 2999 3004 3014 3013 3015 2772 3016 3017 
91 92 317 316 116 117 342 341 2776 2777 2778 2767 3020 3021 3022 3011 3008 3018 3019 3009 3014 3024 3023 3025 2782 3026 3027 
92 93 318 317 117 118 343 342 2786 2787 2788 2777 3030 3031 3032 3021 3018 3028 3029 3019 3024 3034 3033 3035 2792 3036 3037 
93 94 319 318 118 119 344 343 2796 2797 2798 2787 3040 3041 3042 3031 3028 3038 3039 3029 3034 3044 3043 3045 2802 3046 3047 
94 95 320 319 119 120 345 344 2806 2807 2808 2797 3050 3051 3052 3041 3038 3048 3049 3039 3044 3054 3053 3055 2812 3056 3057 
95 96 321 320 120 121 346 345 2816 2817 2818 2807 3060 3061 3062 3051 3048 3058 3059 3049 3054 3064 3063 3065 2822 3066 3067 
96 97 322 321 121 122 347 346 2826 2827 2828 2817 3070 3071 3072 3061 3058 3068 3069 3059 3064 3074 3073 3075 2832 3076 3077 
97 98 323 322 122 123 348 347 2836 2837 2838 2827 3080 3081 3082 3071 3068 3078 3079 3069 3074 3084 3083 3085 2842 3086 3087 
98 99 324 323 123 124 349 348 2846 2847 2848 2837 3090 3091 3092 3081 3078 3088 3089 3079 3084 3094 3093 3095 2852 3096 3097 
100 101 326 325 125 126 351 350 2858 2859 2860 2861 3102 3103 3104 3105 3098 3099 3100 3101 3109 3107 3106 3108 2866 3110 3111 
101 102 327 326 126 127 352 351 2870 2871 2872 2859 3114 3115 3116 3103 3099 3112 3113 3100 3107 3118 3117 3119 2876 3120 3121 
102 103 328 327 127 128 353 352 2880 2881 2882 2871 3124 3125 3126 3115 3112 3122 3123 3113 3118 3128 3127 3129 2886 3130 3131 
103 104 329 328 128 129 354 353 2890 2891 2892 2881 3134 3135 3136 3125 3122 3132 3133 3123 3128 3138 3137 3139 2896 3140 3141 
104 105 330 329 129 130 355 354 2900 2901 2902 2891 3144 3145 3146 3135 3132 3142 3143 3133 3138 3148 3147 3149 2906 3150 3151 
105 106 331 330 130 131 356 355 2910 2911 2912 2901 3154 3155 3156 3145 3142 3152 3153 3143 3148 3158 3157 3159 2916 3160 3161 
106 107 332 331 131 132 357 356 2920 2921 2922 2911 3164 3165 3166 3155 3152 3162 3163 3153 3158 3168 3167 3169 2926 3170 3171 
107 108 333 332 132 133 358 357 2930 2931 2932 2921 3174 3175 3176 3165 3162 3172 3173 3163 3168 3178 3177 3179 2936 3180 3181 
108 109 334 333 133 134 359 358 2940 2941 2942 2931 3184 3185 3186 3175 3172 3182 3183 3173 3178 3188 3187 3189 2946 3190 3191 
109 110 335 334 134 135 360 359 2950 2951 2952 2941 3194 3195 3196 3185 3182 3192 3193 3183 3188 3198 3197 3199 2956 3200 3201 
110 111 336 335 135 136 361 360 2960 2961 2962 2951 3204 3205 3206 3195 3192 3202 3203 3193 3198 3208 3207 3209 2966 3210 3211 
111 112 337 336 136 137 362 361 2970 2971 2972 2961 3214 3215 3216 3205 3202 3212 3213 3203 3208 3218 3217 3219 2976 3220 3221 
112 113 338 337 137 138 363 362 2980 2981 2982 2971 3224 3225 3226 3215 3212 3222 3223 3213 3218 3228 3227 3229 2986 3230 3231 
113 114 339 338 138 139 364 363 2990 2991 2992 2981 3234 3235 3236 3225 3222 3232 3233 3223 3228 3238 3237 3239 2996 3240 3241 
114 115 340 339 139 140 365 364 3000 3001 3002 2991 3244 3245 3246 3235 3232 3242 3243 3233 3238 3248 3247 3249 3006 3250 3251 
115 116 341 340 140 141 366 365 3010 3011 3012 3001 3254 3255 3256 3245 3242 3252 3253 3243 3248 3258 3257 3259 3016 3260 3261 
116 117 342 341 141 142 367 366 3020 3021 3022 3011 3264 3265 3266 3255 3252 3262 3263 3253 3258 3268 3267 3269 3026 3270 3271 
117 118 343 342 142 143 368 367 3030 3031 3032 3021 3274 3275 3276 3265 3262 3272 3273 3263 3268 3278 3277 3279 3036 3280 3281 
118 119 344 343 143 144 369 368 3040 3041 3042 3031 3284 3285 3286 3275 3272 3282 3283 3273 3278 3288 3287 3289 3046 3290 3291 
119 120 345 344 144 145 370 369 3050 3051 3052 3041 3294 3295 3296 3285 3282 3292 3293 3283 3288 3298 3297 3299 3056 3300 3301 
120 121 346 345 145 146 371 370 3060 3061 3062 3051 3304 3305 3306 3295 3292 3302 3303 3293 3298 3308 3307 3309 3066 3310 3311 
121 122 347 346 146 147 372 371 3070 3071 3072 3061 3314 3315 3316 3305 3302 3312 3313 3303 3308 3318 3317 3319 3076 3320 3321 
122 123 348 347 147 148 373 372 3080 3081 3082 3071 3324 3325 3326 3315 3312 3322 3323 3313 3318 3328 3327 3329 3086 3330 3331 
123 124 349 348 148 149 374 373 3090 3091 3092 3081 3334 3335 3336 3325 3322 3332 3333 3323 3328 3338 3337 3339 3096 3340 3341 
125 126 351 350 150 151 376 375 3102 3103 3104 3105 3346 3347 3348 3349 3342 3343 3344 3345 3353 3351 3350 3352 3110 3354 3355 
126 127 352 351 151 152 377 376 3114 3115 3116 3103 3358 3359 3360 3347 3343 3356 3357 3344 3351 3362 3361 3363 3120 3364 3365 
127 128 353 352 152 153 378 377 3124 3125 3126 3115 3368 3369 3370 3359 3356 3366 3367 3357 3362 3372 3371 3373 3130 3374 3375 
128 129 354 353 153 154 379 378 3134 3135 3136 3125 3378 3379 3380 3369 3366 3376 3377 3367 3372 3382 3381 3383 3140 3384 3385 
129 130 355 354 154 155 380 379 3144 3145 3146 3135 3388 3389 3390 3379 3376 3386 3387 3377 3382 3392 3391 3393 3150 3394 3395 
130 131 356 355 155 156 381 380 3154 3155 3156 3145 3398 3399 3400 3389 3386 3396 3397 3387 3392 3402 3401 3403 3160 3404 3405 
131 132 357 356 156 157 382 381 3164 3165 3166 3155 3408 3409 3410 3399 3396 3406 3407 3397 3402 3412 3411 3413 3170 3414 3415 
132 133 358 357 157 158 383 382 3174 3175 3176 3165 3418 3419 3420 3409 3406 3416 3417 3407 3412 3422 3421 3423 3180 3424 3425 
133 134 359 358 158 159 384 383 3184 3185 3186 3175 3428 3429 3430 3419 3416 3426 3427 3417 3422 3432 3431 3433 3190 3434 3435 
134 135 360 359 159 160 385 384 3194 3195 3196 3185 3438 3439 3440 3429 3426 3436 3437 3427 3432 3442 3441 3443 3200 3444 3445 
135 136 361 360 160 161 386 385 3204 3205 3206 3195 3448 3449 3450 3439 3436 3446 3447 3437 3442 3452 3451 3453 3210 3454 3455 
136 137 362 361 161 162 387 386 3214 3215 3216 3205 3458 3459 3460 3449 3446 3456 3457 3447 3452 3462 3461 3463 3220 3464 3465 
137 138 363 362 162 163 388 387 3224 3225 3226 3215 3468 3469 3470 3459 3456 3466 3467 3457 3462 3472 3471 3473 3230 3474 3475 
138 139 364 363 163 164 389 388 3234 3235 3236 3225 3478 3479 3480 3469 3466 3476 3477 3467 3472 3482 3481 3483 3240 3484 3485 
139 140 365 364 164 165 390 389 3244 3245 3246 3235 3488 3489 3490 3479 3476 3486 3487 3477 3482 3492 3491 3493 3250 3494 3495 
140 141 366 365 165 166 391 390 3254 3255 3256 3245 3498 3499 3500 3489 3486 3496 3497 3487 3492 3502 3501 3503 3260 3504 3505 
141 142 367 366 166 167 392 391 3264 3265 3266 3255 3508 3509 3510 3499 3496 3506 3507 3497 3502 3512 3511 3513 3270 3514 3515 
142 143 368 367 167 168 393 392 3274 3275 3276 3265 3518 3519 3520 3509 3506 3516 3517 3507 3512 3522 3521 3523 3280 3524 3525 
143 144 369 368 168 169 394 393 3284 3285 3286 3275 3528 3529 3530 3519 3516 3526 3527 3517 3522 3532 3531 3533 3290 3534 3535 
144 145 370 369 169 170 395 394 3294 3295 3296 3285 3538 3539 3540 3529 3526 3536 3537 3527 3532 3542 3541 3543 3300 3544 3545 
145 146 371 370 170 171 396 395 3304 3305 3306 3295 3548 3549 3550 3539 3536 3546 3547 3537 3542 3552 3551 3553 3310 3554 3555 
146 147 372 371 171 172 397 396 3314 3315 3316 3305 3558 3559 3560 3549 3546 3556 3557 3547 3552 3562 3561 3563 3320 3564 3565 
147 148 373 372 172 173 398 397 3324 3325 3326 3315 3568 3569 3570 3559 3556 3566 3567 3557 3562 3572 3571 3573 3330 3574 3575 
148 149 374 373 173 174 399 398 3334 3335 3336 3325 3578 3579 3580 3569 3566 3576 3577 3567 3572 3582 3581 3583 3340 3584 3585 
150 151 376 375 175 176 401 400 3346 3347 3348 3349 3590 3591 3592 3593 3586 3587 3588 3589 3597 3595 3594 3596 3354 3598 3599 
151 152 377 376 176 177 402 401 3358 3359 3360 3347 3602 3603 3604 3591 3587 3600 3601 3588 3595 3606 3605 3607 3364 3608 3609 
152 153 378 377 177 178 403 402 3368 3369 3370 3359 3612 3613 3614 3603 3600 3610 3611 3601 3606 3616 3615 3617 3374 3618 3619 
153 154 379 378 178 179 404 403 3378 3379 3380 3369 3622 3623 3624 3613 3610 3620 3621 3611 3616 3626 3625 3627 3384 3628 3629 
154 155 380 379 179 180 405 404 3388 3389 3390 3379 3632 3633 3634 3623 3620 3630 3631 3621 3626 3636 3635 3637 3394 3638 3639 
155 156 381 380 180 181 406 405 3398 3399 3400 3389 3642 3643 3644 3633 3630 3640 3641 3631 3636 3646 3645 3647 3404 3648 3649 
156 157 382 381 181 182 407 406 3408 3409 3410 3399 3652 3653 3654 3643 3640 3650 3651 3641 3646 3656 3655 3657 3414 3658 3659 
157 158 383 382 182 183 408 407 3418 3419 3420 3409 3662 3663 3664 3653 3650 3660 3661 3651 3656 3666 3665 3667 3424 3668 3669 
158 159 384 383 183 184 409 408 3428 3429 3430 3419 3672 3673 3674 3663 3660 3670 3671 3661 3666 3676 3675 3677 3434 3678 3679 
159 160 385 384 184 185 410 409 3438 3439 3440 3429 3682 3683 3684 3673 3670 3680 3681 3671 3676 3686 3685 3687 3444 3688 3689 
160 161 386 385 185 186 411 410 3448 3449 3450 3439 3692 3693 3694 3683 3680 3690 3691 3681 3686 3696 3695 3697 3454 3698 3699 
161 162 387 386 186 187 412 411 3458 3459 3460 3449 3702 3703 3704 3693 3690 3700 3701 3691 3696 3706 3705 3707 3464 3708 3709 
162 163 388 387 187 188 413 412 3468 3469 3470 3459 3712 3713 3714 3703 3700 3710 3711 3701 3706 3716 3715 3717 3474 3718 3719 
163 164 389 388 188 189 414 413 3478 3479 3480 3469 3722 3723 3724 3713 3710 3720 3721 3711 3716 3726 3725 3727 3484 3728 3729 
164 165 390 389 189 190 415 414 3488 3489 3490 3479 3732 3733 3734 3723 3720 3730 3731 3721 3726 3736 3735 3737 3494 3738 3739 
165 166 391 390 190 191 416 415 3498 3499 3500 3489 3742 3743 3744 3733 3730 3740 3741 3731 3736 3746 3745 3747 3504 3748 3749 
166 167 392 391 191 192 417 416 3508 3509 3510 3499 3752 3753 3754 3743 3740 3750 3751 3741 3746 3756 3755 3757 3514 3758 3759 
167 168 393 392 192 193 418 417 3518 3519 3520 3509 3762 3763 3764 3753 3750 3760 3761 3751 3756 3766 3765 3767 3524 3768 3769 
168 169 394 393 193 194 419 418 3528 3529 3530 3519 3772 3773 3774 3763 3760 3770 3771 3761 3766 3776 3775 3777 3534 3778 3779 
169 170 395 394 194 195 420 419 3538 3539 3540 3529 3782 3783 3784 3773 3770 3780 3781 3771 3776 3786 3785 3787 3544 3788 3789 
170 171 396 395 195 196 421 420 3548 3549 3550 3539 3792 3793 3794 3783 3780 3790 3791 3781 3786 3796 3795 3797 3554 3798 3799 
171 172 397 396 196 197 422 421 3558 3559 3560 3549 3802 3803 3804 3793 3790 3800 3801 3791 3796 3806 3805 3807 3564 3808 3809 
172 173 398 397 197 198 423 422 3568 3569 3570 3559 3812 3813 3814 3803 3800 3810 3811 3801 3806 3816 3815 3817 3574 3818 3819 
173 174 399 398 198 199 424 423 3578 3579 3580 3569 3822 3823 3824 3813 3810 3820 3821 3811 3816 3826 3825 3827 3584 3828 3829 
175 176 401 400 200 201 426 425 3590 3591 3592 3593 3834 3835 3836 3837 3830 3831 3832 3833 3841 3839 3838 3840 3598 3842 3843 
176 177 402 401 201 202 427 426 3602 3603 3604 3591 3846 3847 3848 3835 3831 3844 3845 3832 3839 3850 3849 3851 3608 3852 3853 
177 178 403 402 202 203 428 427 3612 3613 3614 3603 3856 3857 3858 3847 3844 3854 3855 3845 3850 3860 3859 3861 3618 3862 3863 
178 179 404 403 203 204 429 428 3622 3623 3624 3613 3866 3867 3868 3857 3854 3864 3865 3855 3860 3870 3869 3871 3628 3872 3873 
179 180 405 404 204 205 430 429 3632 3633 3634 3623 3876 3877 3878 3867 3864 3874 3875 3865 3870 3880 3879 3881 3638 3882 3883 
180 181 406 405 205 206 431 430 3642 3643 3644 3633 3886 3887 3888 3877 3874 3884 3885 3875 3880 3890 3889 3891 3648 3892 3893 
181 182 407 406 206 207 432 431 3652 3653 3654 3643 3896 3897 3898 3887 3884 3894 3895 3885 3890 3900 3899 3901 3658 3902 3903 
182 183 408 407 207 208 433 432 3662 3663 3664 3653 3906 3907 3908 3897 3894 3904 3905 3895 3900 3910 3909 3911 3668 3912 3913 
183 184 409 408 208 209 434 433 3672 3673 3674 3663 3916 3917 3918 3907 3904 3914 3915 3905 3910 3920 3919 3921 3678 3922 3923 
184 185 410 409 209 210 435 434 3682 3683 3684 3673 3926 3927 3928 3917 3914 3924 3925 3915 3920 3930 3929 3931 3688 3932 3933 
185 186 411 410 210 211 436 435 3692 3693 3694 3683 3936 3937 3938 3927 3924 3934 3935 3925 3930 3940 3939 3941 3698 3942 3943 
186 187 412 411 211 212 437 436 3702 3703 3704 3693 3946 3947 3948 3937 3934 3944 3945 3935 3940 3950 3949 3951 3708 3952 3953 
187 188 413 412 212 213 438 437 3712 3713 3714 3703 3956 3957 3958 3947 3944 3954 3955 3945 3950 3960 3959 3961 3718 3962 3963 
188 189 414 413 213 214 439 438 3722 3723 3724 3713 3966 3967 3968 3957 3954 3964 3965 3955 3960 3970 3969 3971 3728 3972 3973 
189 190 415 414 214 215 440 439 3732 3733 3734 3723 3976 3977 3978 3967 3964 3974 3975 3965 3970 3980 3979 3981 3738 3982 3983 
190 191 416 415 215 216 441 440 3742 3743 3744 3733 3986 3987 3988 3977 3974 3984 3985 3975 3980 3990 3989 3991 3748 3992 3993 
191 192 417 416 216 217 442 441 3752 3753 3754 3743 3996 3997 3998 3987 3984 3994 3995 3985 3990 4000 3999 4001 3758 4002 4003 
192 193 418 417 217 218 443 442 3762 3763 3764 3753 4006 4007 4008 3997 3994 4004 4005 3995 4000 4010 4009 4011 3768 4012 4013 
193 194 419 418 218 219 444 443 3772 3773 3774 3763 4016 4017 4018 4007 4004 4014 4015 4005 4010 4020 4019 4021 3778 4022 4023 
194 195 420 419 219 220 445 444 3782 3783 3784 3773 4026 4027 4028 4017 4014 4024 4025 4015 4020 4030 4029 4031 3788 4032 4033 
195 196 421 420 220 221 446 445 3792 3793 3794 3783 4036 4037 4038 4027 4024 4034 4035 4025 4030 4040 4039 4041 3798 4042 4043 
196 197 422 421 221 222 447 446 3802 3803 3804 3793 4046 4047 4048 4037 4034 4044 4045 4035 4040 4050 4049 4051 3808 4052 4053 
197 198 423 422 222 223 448 447 3812 3813 3814 3803 4056 4057 4058 4047 4044 4054 4055 4045 4050 4060 4059 4061 3818 4062 4063 
198 199 424 423 223 224 449 448 3822 3823 3824 3813 4066 4067 4068 4057 4054 4064 4065 4055 4060 4070 4069 4071 3828 4072 4073 
225 226 451 450 250 251 476 475 2027 4074 4075 4076 2035 4079 4080 4081 2032 2031 4077 4078 4085 4083 2040 4084 4082 4086 4087 
226 227 452 451 251 252 477 476 2046 4088 4089 4074 2051 4091 4092 4079 2031 2048 4090 4077 4083 4094 2055 4095 4093 4096 4097 
227 228 453 452 252 253 478 477 2060 4098 4099 4088 2065 4101 4102 4091 2048 2062 4100 4090 4094 4104 2069 4105 4103 4106 4107 
228 229 454 453 253 254 479 478 2074 4108 4109 4098 2079 4111 4112 4101 2062 2076 4110 4100 4104 4114 2083 4115 4113 4116 4117 
229 230 455 454 254 255 480 479 2088 4118 4119 4108 2093 4121 4122 4111 2076 2090 4120 4110 4114 4124 2097 4125 4123 4126 4127 
230 231 456 455 255 256 481 480 2102 4128 4129 4118 2107 4131 4132 4121 2090 2104 4130 4120 4124 4134 2111 4135 4133 4136 4137 
231 232 457 456 256 257 482 481 2116 4138 4139 4128 2121 4141 4142 4131 2104 2118 4140 4130 4134 4144 2125 4145 4143 4146 4147 
232 233 458 457 257 258 483 482 2130 4148 4149 4138 2135 4151 4152 4141 2118 2132 4150 4140 4144 4154 2139 4155 4153 4156 4157 
233 234 459 458 258 259 484 483 2144 4158 4159 4148 2149 4161 4162 4151 2132 2146 4160 4150 4154 4164 2153 4165 4163 4166 4167 
234 235 460 459 259 260 485 484 2158 4168 4169 4158 2163 4171 4172 4161 2146 2160 4170 4160 4164 4174 2167 4175 4173 4176 4177 
235 236 461 460 260 261 486 485 2172 4178 4179 4168 2177 4181 4182 4171 2160 2174 4180 4170 4174 4184 2181 4185 4183 4186 4187 
236 237 462 461 261 262 487 486 2186 4188 4189 4178 2191 4191 4192 4181 2174 2188 4190 4180 4184 4194 2195 4195 4193 4196 4197 
237 238 463 462 262 263 488 487 2200 4198 4199 4188 2205 4201 4202 4191 2188 2202 4200 4190 4194 4204 2209 4205 4203 4206 4207 
238 239 464 463 263 264 489 488 2214 4208 4209 4198 2219 4211 4212 4201 2202 2216 4210 4200 4204 4214 2223 4215 4213 4216 4217 
239 240 465 464 264 265 490 489 2228 4218 4219 4208 2233 4221 4222 4211 2216 2230 4220 4210 4214 4224 2237 4225 4223 4226 4227 
240 241 466 465 265 266 491 490 2242 4228 4229 4218 2247 4231 4232 4221 2230 2244 4230 4220 4224 4234 2251 4235 4233 4236 4237 
241 242 467 466 266 267 492 491 2256 4238 4239 4228 2261 4241 4242 4231 2244 2258 4240 4230 4234 4244 2265 4245 4243 4246 4247 
242 243 468 467 267 268 493 492 2270 4248 4249 4238 2275 4251 4252 4241 2258 2272 4250 4240 4244 4254 2279 4255 4253 4256 4257 
243 244 469 468 268 269 494 493 2284 4258 4259 4248 2289 4261 4262 4251 2272 2286 4260 4250 4254 4264 2293 4265 4263 4266 4267 
244 245 470 469 269 270 495 494 2298 4268 4269 4258 2303 4271 4272 4261 2286 2300 4270 4260 4264 4274 2307 4275 4273 4276 4277 
245 246 471 470 270 271 496 495 2312 4278 4279 4268 2317 4281 4282 4271 2300 2314 4280 4270 4274 4284 2321 4285 4283 4286 4287 
246 247 472 471 271 272 497 496 2326 4288 4289 4278 2331 4291 4292 4281 2314 2328 4290 4280 4284 4294 2335 4295 4293 4296 4297 
247 248 473 472 272 273 498 497 2340 4298 4299 4288 2345 4301 4302 4291 2328 2342 4300 4290 4294 4304 2349 4305 4303 4306 4307 
248 249 474 473 273 274 499 498 2354 4308 4309 4298 2359 4311 4312 4301 2342 2356 4310 4300 4304 4314 2363 4315 4313 4316 4317 
250 251 476 475 275 276 501 500 2035 4079 4080 4081 2372 4320 4321 4322 2369 2368 4318 4319 4325 4323 2376 4324 4086 4326 4327 
251 252 477 476 276 277 502 501 2051 4091 4092 4079 2384 4329 4330 4320 2368 2381 4328 4318 4323 4331 2387 4332 4096 4333 4334 
252 253 478 477 277 278 503 502 2065 4101 4102 4091 2394 4336 4337 4329 2381 2391 4335 4328 4331 4338 2397 4339 4106 4340 4341 
253 254 479 478 278 279 504 503 2079 4111 4112 4101 2404 4343 4344 4336 2391 2401 4342 4335 4338 4345 2407 4346 4116 4347 4348 
254 255 480 479 279 280 505 504 2093 4121 4122 4111 2414 4350 4351 4343 2401 2411 4349 4342 4345 4352 2417 4353 4126 4354 4355 
255 256 481 480 280 281 506 505 2107 4131 4132 4121 2424 4357 4358 4350 2411 2421 4356 4349 4352 4359 2427 4360 4136 4361 4362 
256 257 482 481 281 282 507 506 2121 4141 4142 4131 2434 4364 4365 4357 2421 2431 4363 4356 4359 4366 2437 4367 4146 4368 4369 
257 258 483 482 282 283 508 507 2135 4151 4152 4141 2444 4371 4372 4364 2431 2441 4370 4363 4366 4373 2447 4374 4156 4375 4376 
258 259 484 483 283 284 509 508 2149 4161 4162 4151 2454 4378 4379 4371 2441 2451 4377 4370 4373 4380 2457 4381 4166 4382 4383 
259 260 485 484 284 285 510 509 2163 4171 4172 4161 2464 4385 4386 4378 2451 2461 4384 4377 4380 4387 2467 4388 4176 4389 4390 
260 261 486 485 285 286 511 510 2177 4181 4182 4171 2474 4392 4393 4385 2461 2471 4391 4384 4387 4394 2477 4395 4186 4396 4397 
261 262 487 486 286 287 512 511 2191 4191 4192 4181 2484 4399 4400 4392 2471 2481 4398 4391 4394 4401 2487 4402 4196 4403 4404 
262 263 488 487 287 288 513 512 2205 4201 4202 4191 2494 4406 4407 4399 2481 2491 4405 4398 4401 4408 2497 4409 4206 4410 4411 
263 264 489 488 288 289 514 513 2219 4211 4212 4201 2504 4413 4414 4406 2491 2501 4412 4405 4408 4415 2507 4416 4216 4417 4418 
264 265 490 489 289 290 515 514 2233 4221 4222 4211 2514 4420 4421 4413 2501 2511 4419 4412 4415 4422 2517 4423 4226 4424 4425 
265 266 491 490 290 291 516 515 2247 4231 4232 4221 2524 4427 4428 4420 2511 2521 4426 4419 4422 4429 2527 4430 4236 4431 4432 
266 267 492 491 291 292 517 516 2261 4241 4242 4231 2534 4434 4435 4427 2521 2531 4433 4426 4429 4436 2537 4437 4246 4438 4439 
267 268 493 492 292 293 518 517 2275 4251 4252 4241 2544 4441 4442 4434 2531 2541 4440 4433 4436 4443 2547 4444 4256 4445 4446 
268 269 494 493 293 294 519 518 2289 4261 4262 4251 2554 4448 4449 4441 2541 2551 4447 4440 4443 4450 2557 4451 4266 4452 4453 
269 270 495 494 294 295 520 519 2303 4271 4272 4261 2564 4455 4456 4448 2551 2561 4454 4447 4450 4457 2567 4458 4276 4459 4460 
270 271 496 495 295 296 521 520 2317 4281 4282 4271 2574 4462 4463 4455 2561 2571 4461 4454 4457 4464 2577 4465 4286 4466 4467 
271 272 497 496 296 297 522 521 2331 4291 4292 4281 2584 4469 4470 4462 2571 2581 4468 4461 4464 4471 2587 4472 4296 4473 4474 
272 273 498 497 297 298 523 522 2345 4301 4302 4291 2594 4476 4477 4469 2581 2591 4475 4468 4471 4478 2597 4479 4306 4480 4481 
273 274 499 498 298 299 524 523 2359 4311 4312 4301 2604 4483 4484 4476 2591 2601 4482 4475 4478 4485 2607 4486 4316 4487 4488 
275 276 501 500 300 301 526 525 2372 4320 4321 4322 2616 4491 4492 4493 2613 2612 4489 4490 4496 4494 2620 4495 4326 4497 4498 
276 277 502 501 301 302 527 526 2384 4329 4330 4320 2628 4500 4501 4491 2612 2625 4499 4489 4494 4502 2631 4503 4333 4504 4505 
277 278 503 502 302 303 528 527 2394 4336 4337 4329 2638 4507 4508 4500 2625 2635 4506 4499 4502 4509 2641 4510 4340 4511 4512 
278 279 504 503 303 304 529 528 2404 4343 4344 4336 2648 4514 4515 4507 2635 2645 4513 4506 4509 4516 2651 4517 4347 4518 4519 
279 280 505 504 304 305 530 529 2414 4350 4351 4343 2658 4521 4522 4514 2645 2655 4520 4513 4516 4523 2661 4524 4354 4525 4526 
280 281 506 505 305 306 531 530 2424 4357 4358 4350 2668 4528 4529 4521 2655 2665 4527 4520 4523 4530 2671 4531 4361 4532 4533 
281 282 507 506 306 307 532 531 2434 4364 4365 4357 2678 4535 4536 4528 2665 2675 4534 4527 4530 4537 2681 4538 4368 4539 4540 
282 283 508 507 307 308 533 532 2444 4371 4372 4364 2688 4542 4543 4535 2675 2685 4541 4534 4537 4544 2691 4545 4375 4546 4547 
283 284 509 508 308 309 534 533 2454 4378 4379 4371 2698 4549 4550 4542 2685 2695 4548 4541 4544 4551 2701 4552 4382 4553 4554 
284 285 510 509 309 310 535 534 2464 4385 4386 4378 2708 4556 4557 4549 2695 2705 4555 4548 4551 4558 2711 4559 4389 4560 4561 
285 286 511 510 310 311 536 535 2474 4392 4393 4385 2718 4563 4564 4556 2705 2715 4562 4555 4558 4565 2721 4566 4396 4567 4568 
286 287 512 511 311 312 537 536 2484 4399 4400 4392 2728 4570 4571 4563 2715 2725 4569 4562 4565 4572 2731 4573 4403 4574 4575 
287 288 513 512 312 313 538 537 2494 4406 4407 4399 2738 4577 4578 4570 2725 2735 4576 4569 4572 4579 2741 4580 4410 4581 4582 
288 289 514 513 313 314 539 538 2504 4413 4414 4406 2748 4584 4585 4577 2735 2745 4583 4576 4579 4586 2751 4587 4417 4588 4589 
289 290 515 514 314 315 540 539 2514 4420 4421 4413 2758 4591 4592 4584 2745 2755 4590 4583 4586 4593 2761 4594 4424 4595 4596 
290 291 516 515 315 316 541 540 2524 4427 4428 4420 2768 4598 4599 4591 2755 2765 4597 4590 4593 4600 2771 4601 4431 4602 4603 
291 292 517 516 316 317 542 541 2534 4434 4435 4427 2778 4605 4606 4598 2765 2775 4604 4597 4600 4607 2781 4608 4438 4609 4610 
292 293 518 517 317 318 543 542 2544 4441 4442 4434 2788 4612 4613 4605 2775 2785 4611 4604 4607 4614 2791 4615 4445 4616 4617 
293 294 519 518 318 319 544 543 2554 4448 4449 4441 2798 4619 4620 4612 2785 2795 4618 4611 4614 4621 2801 4622 4452 4623 4624 
294 295 520 519 319 320 545 544 2564 4455 4456 4448 2808 4626 4627 4619 2795 2805 4625 4618 4621 4628 2811 4629 4459 4630 4631 
295 296 521 520 320 321 546 545 2574 4462 4463 4455 2818 4633 4634 4626 2805 2815 4632 4625 4628 4635 2821 4636 4466 4637 4638 
296 297 522 521 321 322 547 546 2584 4469 4470 4462 2828 4640 4641 4633 2815 2825 4639 4632 4635 4642 2831 4643 4473 4644 4645 
297 298 523 522 322 323 548 547 2594 4476 4477 4469 2838 4647 4648 4640 2825 2835 4646 4639 4642 4649 2841 4650 4480 4651 4652 
298 299 524 523 323 324 549 548 2604 4483 4484 4476 2848 4654 4655 4647 2835 2845 4653 4646 4649 4656 2851 4657 4487 4658 4659 
300 301 526 525 325 326 551 550 2616 4491 4492 4493 2860 4662 4663 4664 2857 2856 4660 4661 4667 4665 2864 4666 4497 4668 4669 
301 302 527 526 326 327 552 551 2628 4500 4501 4491 2872 4671 4672 4662 2856 2869 4670 4660 4665 4673 2875 4674 4504 4675 4676 
302 303 528 527 327 328 553 552 2638 4507 4508 4500 2882 4678 4679 4671 2869 2879 4677 4670 4673 4680 2885 4681 4511 4682 4683 
303 304 529 528 328 329 554 553 2648 4514 4515 4507 2892 4685 4686 4678 2879 2889 4684 4677 4680 4687 2895 4688 4518 4689 4690 
304 305 530 529 329 330 555 554 2658 4521 4522 4514 2902 4692 4693 4685 2889 2899 4691 4684 4687 4694 2905 4695 4525 4696 4697 
305 306 531 530 330 331 556 555 2668 4528 4529 4521 2912 4699 4700 4692 2899 2909 4698 4691 4694 4701 2915 4702 4532 4703 4704 
306 307 532 531 331 332 557 556 2678 4535 4536 4528 2922 4706 4707 4699 2909 2919 4705 4698 4701 4708 2925 4709 4539 4710 4711 
307 308 533 532 332 333 558 557 2688 4542 4543 4535 2932 4713 4714 4706 2919 2929 4712 4705 4708 4715 2935 4716 4546 4717 4718 
308 309 534 533 333 334 559 558 2698 4549 4550 4542 2942 4720 4721 4713 2929 2939 4719 4712 4715 4722 2945 4723 4553 4724 4725 
309 310 535 534 334 335 560 559 2708 4556 4557 4549 2952 4727 4728 4720 2939 2949 4726 4719 4722 4729 2955 4730 4560 4731 4732 
310 311 536 535 335 336 561 560 2718 4563 4564 4556 2962 4734 4735 4727 2949 2959 4733 4726 4729 4736 2965 4737 4567 4738 4739 
311 312 537 536 336 337 562 561 2728 4570 4571 4563 2972 4741 4742 4734 2959 2969 4740 4733 4736 4743 2975 4744 4574 4745 4746 
312 313 538 537 337 338 563 562 2738 4577 4578 4570 2982 4748 4749 4741 2969 2979 4747 4740 4743 4750 2985 4751 4581 4752 4753 
313 314 539 538 338 339 564 563 2748 4584 4585 4577 2992 4755 4756 4748 2979 2989 4754 4747 4750 4757 2995 4758 4588 4759 4760 
314 315 540 539 339 340 565 564 2758 4591 4592 4584 3002 4762 4763 4755 2989 2999 4761 4754 4757 4764 3005 4765 4595 4766 4767 
315 316 541 540 340 341 566 565 2768 4598 4599 4591 3012 4769 4770 4762 2999 3009 4768 4761 4764 4771 3015 4772 4602 4773 4774 
316 317 542 541 341 342 567 566 2778 4605 4606 4598 3022 4776 4777 4769 3009 3019 4775 4768 4771 4778 3025 4779 4609 4780 4781 
317 318 543 542 342 343 568 567 2788 4612 4613 4605 3032 4783 4784 4776 3019 3029 4782 4775 4778 4785 3035 4786 4616 4787 4788 
318 319 544 543 343 344 569 568 2798 4619 4620 4612 3042 4790 4791 4783 3029 3039 4789 4782 4785 4792 3045 4793 4623 4794 4795 
319 320 545 544 344 345 570 569 2808 4626 4627 4619 3052 4797 4798 4790 3039 3049 4796 4789 4792 4799 3055 4800 4630 4801 4802 
320 321 546 545 345 346 571 570 2818 4633 4634 4626 3062 4804 4805 4797 3049 3059 4803 4796 4799 4806 3065 4807 4637 4808 4809 
321 322 547 546 346 347 572 571 2828 4640 4641 4633 3072 4811 4812 4804 3059 3069 4810 4803 4806 4813 3075 4814 4644 4815 4816 
322 323 548 547 347 348 573 572 2838 4647 4648 4640 3082 4818 4819 4811 3069 3079 4817 4810 4813 4820 3085 4821 4651 4822 4823 
323 324 549 548 348 349 574 573 2848 4654 4655 4647 3092 4825 4826 4818 3079 3089 4824 4817 4820 4827 3095 4828 4658 4829 4830 
325 326 551 550 350 351 576 575 2860 4662 4663 4664 3104 4833 4834 4835 3101 3100 4831 4832 4838 4836 3108 4837 4668 4839 4840 
326 327 552 551 351 352 577 576 2872 4671 4672 4662 3116 4842 4843 4833 3100 3113 4841 4831 4836 4844 3119 4845 4675 4846 4847 
327 328 553 552 352 353 578 577 2882 4678 4679 4671 3126 4849 4850 4842 3113 3123 4848 4841 4844 4851 3129 4852 4682 4853 4854 
328 329 554 553 353 354 579 578 2892 4685 4686 4678 3136 4856 4857 4849 3123 3133 4855 4848 4851 4858 3139 4859 4689 4860 4861 
329 330 555 554 354 355 580 579 2902 4692 4693 4685 3146 4863 4864 4856 3133 3143 4862 4855 4858 4865 3149 4866 4696 4867 4868 
330 331 556 555 355 356 581 580 2912 4699 4700 4692 3156 4870 4871 4863 3143 3153 4869 4862 4865 4872 3159 4873 4703 4874 4875 
331 332 557 556 356 357 582 581 2922 4706 4707 4699 3166 4877 4878 4870 3153 3163 4876 4869 4872 4879 3169 4880 4710 4881 4882 
332 333 558 557 357 358 583 582 2932 4713 4714 4706 3176 4884 4885 4877 3163 3173 4883 4876 4879 4886 3179 4887 4717 4888 4889 
333 334 559 558 358 359 584 583 2942 4720 4721 4713 3186 4891 4892 4884 3173 3183 4890 4883 4886 4893 3189 4894 4724 4895 4896 
334 335 560 559 359 360 585 584 2952 4727 4728 4720 3196 4898 4899 4891 3183 3193 4897 4890 4893 4900 3199 4901 4731 4902 4903 
335 336 561 560 360 361 586 585 2962 4734 4735 4727 3206 4905 4906 4898 3193 3203 4904 4897 4900 4907 3209 4908 4738 4909 4910 
336 337 562 561 361 362 587 586 2972 4741 4742 4734 3216 4912 4913 4905 3203 3213 4911 4904 4907 4914 3219 4915 4745 4916 4917 
337 338 563 562 362 363 588 587 2982 4748 4749 4741 3226 4919 4920 4912 3213 3223 4918 4911 4914 4921 3229 4922 4752 4923 4924 
338 339 564 563 363 364 589 588 2992 4755 4756 4748 3236 4926 4927 4919 3223 3233 4925 4918 4921 4928 3239 4929 4759 4930 4931 
339 340 565 564 364 365 590 589 3002 4762 4763 4755 3246 4933 4934 4926 3233 3243 4932 4925 4928 4935 3249 4936 4766 4937 4938 
340 341 566 565 365 366 591 590 3012 4769 4770 4762 3256 4940 4941 4933 3243 3253 4939 4932 4935 4942 3259 4943 4773 4944 4945 
341 342 567 566 366 367 592 591 3022 4776 4777 4769 3266 4947 4948 4940 3253 3263 4946 4939 4942 4949 3269 4950 4780 4951 4952 
342 343 568 567 367 368 593 592 3032 4783 4784 4776 3276 4954 4955 4947 3263 3273 4953 4946 4949 4956 3279 4957 4787 4958 4959 
343 344 569 568 368 369 594 593 3042 4790 4791 4783 3286 4961 4962 4954 3273 3283 4960 4953 4956 4963 3289 4964 4794 4965 4966 
344 345 570 569 369 370 595 594 3052 4797 4798 4790 3296 4968 4969 4961 3283 3293 4967 4960 4963 4970 3299 4971 4801 4972 4973 
345 346 571 570 370 371 596 595 3062 4804 4805 4797 3306 4975 4976 4968 3293 3303 4974 4967 4970 4977 3309 4978 4808 4979 4980 
346 347 572 571 371 372 597 596 3072 4811 4812 4804 3316 4982 4983 4975 3303 3313 4981 4974 4977 4984 3319 4985 4815 4986 4987 
347 348 573 572 372 373 598 597 3082 4818 4819 4811 3326 4989 4990 4982 3313 3323 4988 4981 4984 4991 3329 4992 4822 4993 4994 
348 349 574 573 373 374 599 598 3092 4825 4826 4818 3336 4996 4997 4989 3323 3333 4995 4988 4991 4998 3339 4999 4829 5000 5001 
350 351 576 575 375 376 601 600 3104 4833 4834 4835 3348 5004 5005 5006 3345 3344 5002 5003 5009 5007 3352 5008 4839 5010 5011 
351 352 577 576 376 377 602 601 3116 4842 4843 4833 3360 5013 5014 5004 3344 3357 5012 5002 5007 5015 3363 5016 4846 5017 5018 
352 353 578 577 377 378 603 602 3126 4849 4850 4842 3370 5020 5021 5013 3357 3367 5019 5012 5015 5022 3373 5023 4853 5024 5025 
353 354 579 578 378 379 604 603 3136 4856 4857 4849 3380 5027 5028 5020 3367 3377 5026 5019 5022 5029 3383 5030 4860 5031 5032 
354 355 580 579 379 380 605 604 3146 4863 4864 4856 3390 5034 5035 5027 3377 3387 5033 5026 5029 5036 3393 5037 4867 5038 5039 
355 356 581 580 380 381 606 605 3156 4870 4871 4863 3400 5041 5042 5034 3387 3397 5040 5033 5036 5043 3403 5044 4874 5045 5046 
356 357 582 581 381 382 607 606 3166 4877 4878 4870 3410 5048 5049 5041 3397 3407 5047 5040 5043 5050 3413 5051 4881 5052 5053 
357 358 583 582 382 383 608 607 3176 4884 4885 4877 3420 5055 5056 5048 3407 3417 5054 5047 5050 5057 3423 5058 4888 5059 5060 
358 359 584 583 383 384 609 608 3186 4891 4892 4884 3430 5062 5063 5055 3417 3427 5061 5054 5057 5064 3433 5065 4895 5066 5067 
359 360 585 584 384 385 610 609 3196 4898 4899 4891 3440 5069 5070 5062 3427 3437 5068 5061 5064 5071 3443 5072 4902 5073 5074 
360 361 586 585 385 386 611 610 3206 4905 4906 4898 3450 5076 5077 5069 3437 3447 5075 5068 5071 5078 3453 5079 4909 5080 5081 
361 362 587 586 386 387 612 611 3216 4912 4913 4905 3460 5083 5084 5076 3447 3457 5082 5075 5078 5085 3463 5086 4916 5087 5088 
362 363 588 587 387 388 613 612 3226 4919 4920 4912 3470 5090 5091 5083 3457 3467 5089 5082 5085 5092 3473 5093 4923 5094 5095 
363 364 589 588 388 389 614 613 3236 4926 4927 4919 3480 5097 5098 5090 3467 3477 5096 5089 5092 5099 3483 5100 4930 5101 5102 
364 365 590 589 389 390 615 614 3246 4933 4934 4926 3490 5104 5105 5097 3477 3487 5103 5096 5099 5106 3493 5107 4937 5108 5109 
365 366 591 590 390 391 616 615 3256 4940 4941 4933 3500 5111 5112 5104 3487 3497 5110 5103 5106 5113 3503 5114 4944 5115 5116 
366 367 592 591 391 392 617 616 3266 4947 4948 4940 3510 5118 5119 5111 3497 3507 5117 5110 5113 5120 3513 5121 4951 5122 5123 
367 368 593 592 392 393 618 617 3276 4954 4955 4947 3520 5125 5126 5118 3507 3517 5124 5117 5120 5127 3523 5128 4958 5129 5130 
368 369 594 593 393 394 619 618 3286 4961 4962 4954 3530 5132 5133 5125 3517 3527 5131 5124 5127 5134 3533 5135 4965 5136 5137 
369 370 595 594 394 395 620 619 3296 4968 4969 4961 3540 5139 5140 5132 3527 3537 5138 5131 5134 5141 3543 5142 4972 5143 5144 
370 371 596 595 395 396 621 620 3306 4975 4976 4968 3550 5146 5147 5139 3537 3547 5145 5138 5141 5148 3553 5149 4979 5150 5151 
371 372 597 596 396 397 622 621 3316 4982 4983 4975 3560 5153 5154 5146 3547 3557 5152 5145 5148 5155 3563 5156 4986 5157 5158 
372 373 598 597 397 398 623 622 3326 4989 4990 4982 3570 5160 5161 5153 3557 3567 5159 5152 5155 5162 3573 5163 4993 5164 5165 
373 374 599 598 398 399 624 623 3336 4996 4997 4989 3580 5167 5168 5160 3567 3577 5166 5159 5162 5169 3583 5170 5000 5171 5172 
375 376 601 600 400 401 626 625 3348 5004 5005 5006 3592 5175 5176 5177 3589 3588 5173 5174 5180 5178 3596 5179 5010 5181 5182 
376 377 602 601 401 402 627 626 3360 5013 5014 5004 3604 5184 5185 5175 3588 3601 5183 5173 5178 5186 3607 5187 5017 5188 5189 
377 378 603 602 402 403 628 627 3370 5020 5021 5013 3614 5191 5192 5184 3601 3611 5190 5183 5186 5193 3617 5194 5024 5195 5196 
378 379 604 603 403 404 629 628 3380 5027 5028 5020 3624 5198 5199 5191 3611 3621 5197 5190 5193 5200 3627 5201 5031 5202 5203 
379 380 605 604 404 405 630 629 3390 5034 5035 5027 3634 5205 5206 5198 3621 3631 5204 5197 5200 5207 3637 5208 5038 5209 5210 
380 381 606 605 405 406 631 630 3400 5041 5042 5034 3644 5212 5213 5205 3631 3641 5211 5204 5207 5214 3647 5215 5045 5216 5217 
381 382 607 606 406 407 632 631 3410 5048 5049 5041 3654 5219 5220 5212 3641 3651 5218 5211 5214 5221 3657 5222 5052 5223 5224 
382 383 608 607 407 408 633 632 3420 5055 5056 5048 3664 5226 5227 5219 3651 3661 5225 5218 5221 5228 3667 5229 5059 5230 5231 
383 384 609 608 408 409 634 633 3430 5062 5063 5055 3674 5233 5234 5226 3661 3671 5232 5225 5228 5235 3677 5236 5066 5237 5238 
384 385 610 609 409 410 635 634 3440 5069 5070 5062 3684 5240 5241 5233 3671 3681 5239 5232 5235 5242 3687 5243 5073 5244 5245 
385 386 611 610 410 411 636 635 3450 5076 5077 5069 3694 5247 5248 5240 3681 3691 5246 5239 5242 5249 3697 5250 5080 5251 5252 
386 387 612 611 411 412 637 636 3460 5083 5084 5076 3704 5254 5255 5247 3691 3701 5253 5246 5249 5256 3707 5257 5087 5258 5259 
387 388 613 612 412 413 638 637 3470 5090 5091 5083 3714 5261 5262 5254 3701 3711 5260 5253 5256 5263 3717 5264 5094 5265 5266 
388 389 614 613 413 414 639 638 3480 5097 5098 5090 3724 5268 5269 5261 3711 3721 5267 5260 5263 5270 3727 5271 5101 5272 5273 
389 390 615 614 414 415 640 639 3490 5104 5105 5097 3734 5275 5276 5268 3721 3731 5274 5267 5270 5277 3737 5278 5108 5279 5280 
390 391 616 615 415 416 641 640 3500 5111 5112 5104 3744 5282 5283 5275 3731 3741 5281 5274 5277 5284 3747 5285 5115 5286 5287 
391 392 617 616 416 417 642 641 3510 5118 5119 5111 3754 5289 5290 5282 3741 3751 5288 5281 5284 5291 3757 5292 5122 5293 5294 
392 393 618 617 417 418 643 642 3520 5125 5126 5118 3764 5296 5297 5289 3751 3761 5295 5288 5291 5298 3767 5299 5129 5300 5301 
393 394 619 618 418 419 644 643 3530 5132 5133 5125 3774 5303 5304 5296 3761 3771 5302 5295 5298 5305 3777 5306 5136 5307 5308 
394 395 620 619 419 420 645 644 3540 5139 5140 5132 3784 5310 5311 5303 3771 3781 5309 5302 5305 5312 3787 5313 5143 5314 5315 
395 396 621 620 420 421 646 645 3550 5146 5147 5139 3794 5317 5318 5310 3781 3791 5316 5309 5312 5319 3797 5320 5150 5321 5322 
396 397 622 621 421 422 647 646 3560 5153 5154 5146 3804 5324 5325 5317 3791 3801 5323 5316 5319 5326 3807 5327 5157 5328 5329 
397 398 623 622 422 423 648 647 3570 5160 5161 5153 3814 5331 5332 5324 3801 3811 5330 5323 5326 5333 3817 5334 5164 5335 5336 
398 399 624 623 423 424 649 648 3580 5167 5168 5160 3824 5338 5339 5331 3811 3821 5337 5330 5333 5340 3827 5341 5171 5342 5343 
400 401 626 625 425 426 651 650 3592 5175 5176 5177 3836 5346 5347 5348 3833 3832 5344 5345 5351 5349 3840 5350 5181 5352 5353 
401 402 627 626 426 427 652 651 3604 5184 5185 5175 3848 5355 5356 5346 3832 3845 5354 5344 5349 5357 3851 5358 5188 5359 5360 
402 403 628 627 427 428 653 652 3614 5191 5192 5184 3858 5362 5363 5355 3845 3855 5361 5354 5357 5364 3861 5365 5195 5366 5367 
403 404 629 628 428 429 654 653 3624 5198 5199 5191 3868 5369 5370 5362 3855 3865 5368 5361 5364 5371 3871 5372 5202 5373 5374 
404 405 630 629 429 430 655 654 3634 5205 5206 5198 3878 5376 5377 5369 3865 3875 5375 5368 5371 5378 3881 5379 5209 5380 5381 
405 406 631 630 430 431 656 655 3644 5212 5213 5205 3888 5383 5384 5376 3875 3885 5382 5375 5378 5385 3891 5386 5216 5387 5388 
406 407 632 631 431 432 657 656 3654 5219 5220 5212 3898 5390 5391 5383 3885 3895 5389 5382 5385 5392 3901 5393 5223 5394 5395 
407 408 633 632 432 433 658 657 3664 5226 5227 5219 3908 5397 5398 5390 3895 3905 5396 5389 5392 5399 3911 5400 5230 5401 5402 
408 409 634 633 433 434 659 658 3674 5233 5234 5226 3918 5404 5405 5397 3905 3915 5403 5396 5399 5406 3921 5407 5237 5408 5409 
409 410 635 634 434 435 660 659 3684 5240 5241 5233 3928 5411 5412 5404 3915 3925 5410 5403 5406 5413 3931 5414 5244 5415 5416 
410 411 636 635 435 436 661 660 3694 5247 5248 5240 3938 5418 5419 5411 3925 3935 5417 5410 5413 5420 3941 5421 5251 5422 5423 
411 412 637 636 436 437 662 661 3704 5254 5255 5247 3948 5425 5426 5418 3935 3945 5424 5417 5420 5427 3951 5428 5258 5429 5430 
412 413 638 637 437 438 663 662 3714 5261 5262 5254 3958 5432 5433 5425 3945 3955 5431 5424 5427 5434 3961 5435 5265 5436 5437 
413 414 639 638 438 439 664 663 3724 5268 5269 5261 3968 5439 5440 5432 3955 3965 5438 5431 5434 5441 3971 5442 5272 5443 5444 
414 415 640 639 439 440 665 664 3734 5275 5276 5268 3978 5446 5447 5439 3965 3975 5445 5438 5441 5448 3981 5449 5279 5450 5451 
415 416 641 640 440 441 666 665 3744 5282 5283 5275 3988 5453 5454 5446 3975 3985 5452 5445 5448 5455 3991 5456 5286 5457 5458 
416 417 642 641 441 442 667 666 3754 5289 5290 5282 3998 5460 5461 5453 3985 3995 5459 5452 5455 5462 4001 5463 5293 5464 5465 
417 418 643 642 442 443 668 667 3764 5296 5297 5289 4008 5467 5468 5460 3995 4005 5466 5459 5462 5469 4011 5470 5300 5471 5472 
418 419 644 643 443 444 669 668 3774 5303 5304 5296 4018 5474 5475 5467 4005 4015 5473 5466 5469 5476 4021 5477 5307 5478 5479 
419 420 645 644 444 445 670 669 3784 5310 5311 5303 4028 5481 5482 5474 4015 4025 5480 5473 5476 5483 4031 5484 5314 5485 5486 
420 421 646 645 445 446 671 670 3794 5317 5318 5310 4038 5488 5489 5481 4025 4035 5487 5480 5483 5490 4041 5491 5321 5492 5493 
421 422 647 646 446 447 672 671 3804 5324 5325 5317 4048 5495 5496 5488 4035 4045 5494 5487 5490 5497 4051 5498 5328 5499 5500 
422 423 648 647 447 448 673 672 3814 5331 5332 5324 4058 5502 5503 5495 4045 4055 5501 5494 5497 5504 4061 5505 5335 5506 5507 
423 424 649 648 448 449 674 673 3824 5338 5339 5331 4068 5509 5510 5502 4055 4065 5508 5501 5504 5511 4071 5512 5342 5513 5514 
450 451 676 675 475 476 701 700 4075 5515 5516 5517 4080 5520 5521 5522 4078 4077 5518 5519 5526 5524 4084 5525 5523 5527 5528 
451 452 677 676 476 477 702 701 4089 5529 5530 5515 4092 5532 5533 5520 4077 4090 5531 5518 5524 5535 4095 5536 5534 5537 5538 
452 453 678 677 477 478 703 702 4099 5539 5540 5529 4102 5542 5543 5532 4090 4100 5541 5531 5535 5545 4105 5546 5544 5547 5548 
453 454 679 678 478 479 704 703 4109 5549 5550 5539 4112 5552 5553 5542 4100 4110 5551 5541 5545 5555 4115 5556 5554 5557 5558 
454 455 680 679 479 480 705 704 4119 5559 5560 5549 4122 5562 5563 5552 4110 4120 5561 5551 5555 5565 4125 5566 5564 5567 5568 
455 456 681 680 480 481 706 705 4129 5569 5570 5559 4132 5572 5573 5562 4120 4130 5571 5561 5565 5575 4135 5576 5574 5577 5578 
456 457 682 681 481 482 707 706 4139 5579 5580 5569 4142 5582 5583 5572 4130 4140 5581 5571 5575 5585 4145 5586 5584 5587 5588 
457 458 683 682 482 483 708 707 4149 5589 5590 5579 4152 5592 5593 5582 4140 4150 5591 5581 5585 5595 4155 5596 5594 5597 5598 
458 459 684 683 483 484 709 708 4159 5599 5600 5589 4162 5602 5603 5592 4150 4160 5601 5591 5595 5605 4165 5606 5604 5607 5608 
459 460 685 684 484 485 710 709 4169 5609 5610 5599 4172 5612 5613 5602 4160 4170 5611 5601 5605 5615 4175 5616 5614 5617 5618 
460 461 686 685 485 486 711 710 4179 5619 5620 5609 4182 5622 5623 5612 4170 4180 5621 5611 5615 5625 4185 5626 5624 5627 5628 
461 462 687 686 486 487 712 711 4189 5629 5630 5619 4192 5632 5633 5622 4180 4190 5631 5621 5625 5635 4195 5636 5634 5637 5638 
462 463 688 687 487 488 713 712 4199 5639 5640 5629 4202 5642 5643 5632 4190 4200 5641 5631 5635 5645 4205 5646 5644 5647 5648 
463 464 689 688 488 489 714 713 4209 5649 5650 5639 4212 5652 5653 5642 4200 4210 5651 5641 5645 5655 4215 5656 5654 5657 5658 
464 465 690 689 489 490 715 714 4219 5659 5660 5649 4222 5662 5663 5652 4210 4220 5661 5651 5655 5665 4225 5666 5664 5667 5668 
465 466 691 690 490 491 716 715 4229 5669 5670 5659 4232 5672 5673 5662 4220 4230 5671 5661 5665 5675 4235 5676 5674 5677 5678 
466 467 692 691 491 492 717 716 4239 5679 5680 5669 4242 5682 5683 5672 4230 4240 5681 5671 5675 5685 4245 5686 5684 5687 5688 
467 468 693 692 492 493 718 717 4249 5689 5690 5679 4252 5692 5693 5682 4240 4250 5691 5681 5685 5695 4255 5696 5694 5697 5698 
468 469 694 693 493 494 719 718 4259 5699 5700 5689 4262 5702 5703 5692 4250 4260 5701 5691 5695 5705 4265 5706 5704 5707 5708 
469 470 695 694 494 495 720 719 4269 5709 5710 5699 4272 5712 5713 5702 4260 4270 5711 5701 5705 5715 4275 5716 5714 5717 5718 
470 471 696 695 495 496 721 720 4279 5719 5720 5709 4282 5722 5723 5712 4270 4280 5721 5711 5715 5725 4285 5726 5724 5727 5728 
471 472 697 696 496 497 722 721 4289 5729 5730 5719 4292 5732 5733 5722 4280 4290 5731 5721 5725 5735 4295 5736 5734 5737 5738 
472 473 698 697 497 498 723 722 4299 5739 5740 5729 4302 5742 5743 5732 4290 4300 5741 5731 5735 5745 4305 5746 5744 5747 5748 
473 474 699 698 498 499 724 723 4309 5749 5750 5739 4312 5752 5753 5742 4300 4310 5751 5741 5745 5755 4315 5756 5754 5757 5758 
475 476 701 700 500 501 726 725 4080 5520 5521 5522 4321 5761 5762 5763 4319 4318 5759 5760 5766 5764 4324 5765 5527 5767 5768 
476 477 702 701 501 502 727 726 4092 5532 5533 5520 4330 5770 5771 5761 4318 4328 5769 5759 5764 5772 4332 5773 5537 5774 5775 
477 478 703 702 502 503 728 727 4102 5542 5543 5532 4337 5777 5778 5770 4328 4335 5776 5769 5772 5779 4339 5780 5547 5781 5782 
478 479 704 703 503 504 729 728 4112 5552 5553 5542 4344 5784 5785 5777 4335 4342 5783 5776 5779 5786 4346 5787 5557 5788 5789 
479 480 705 704 504 505 730 729 4122 5562 5563 5552 4351 5791 5792 5784 4342 4349 5790 5783 5786 5793 4353 5794 5567 5795 5796 
480 481 706 705 505 506 731 730 4132 5572 5573 5562 4358 5798 5799 5791 4349 4356 5797 5790 5793 5800 4360 5801 5577 5802 5803 
481 482 707 706 506 507 732 731 4142 5582 5583 5572 4365 5805 5806 5798 4356 4363 5804 5797 5800 5807 4367 5808 5587 5809 5810 
482 483 708 707 507 508 733 732 4152 5592 5593 5582 4372 5812 5813 5805 4363 4370 5811 5804 5807 5814 4374 5815 5597 5816 5817 
483 484 709 708 508 509 734 733 4162 5602 5603 5592 4379 5819 5820 5812 4370 4377 5818 5811 5814 5821 4381 5822 5607 5823 5824 
484 485 710 709 509 510 735 734 4172 5612 5613 5602 4386 5826 5827 5819 4377 4384 5825 5818 5821 5828 4388 5829 5617 5830 5831 
485 486 711 710 510 511 736 735 4182 5622 5623 5612 4393 5833 5834 5826 4384 4391 5832 5825 5828 5835 4395 5836 5627 5837 5838 
486 487 712 711 511 512 737 736 4192 5632 5633 5622 4400 5840 5841 5833 4391 4398 5839 5832 5835 5842 4402 5843 5637 5844 5845 
487 488 713 712 512 513 738 737 4202 5642 5643 5632 4407 5847 5848 5840 4398 4405 5846 5839 5842 5849 4409 5850 5647 5851 5852 
488 489 714 713 513 514 739 738 4212 5652 5653 5642 4414 5854 5855 5847 4405 4412 5853 5846 5849 5856 4416 5857 5657 5858 5859 
489 490 715 714 514 515 740 739 4222 5662 5663 5652 4421 5861 5862 5854 4412 4419 5860 5853 5856 5863 4423 5864 5667 5865 5866 
490 491 716 715 515 516 741 740 4232 5672 5673 5662 4428 5868 5869 5861 4419 4426 5867 5860 5863 5870 4430 5871 5677 5872 5873 
491 492 717 716 516 517 742 741 4242 5682 5683 5672 4435 5875 5876 5868 4426 4433 5874 5867 5870 5877 4437 5878 5687 5879 5880 
492 493 718 717 517 518 743 742 4252 5692 5693 5682 4442 5882 5883 5875 4433 4440 5881 5874 5877 5884 4444 5885 5697 5886 5887 
493 494 719 718 518 519 744 743 4262 5702 5703 5692 4449 5889 5890 5882 4440 4447 5888 5881 5884 5891 4451 5892 5707 5893 5894 
494 495 720 719 519 520 745 744 4272 5712 5713 5702 4456 5896 5897 5889 4447 4454 5895 5888 5891 5898 4458 5899 5717 5900 5901 
495 496 721 720 520 521 746 745 4282 5722 5723 5712 4463 5903 5904 5896 4454 4461 5902 5895 5898 5905 4465 5906 5727 5907 5908 
496 497 722 721 521 522 747 746 4292 5732 5733 5722 4470 5910 5911 5903 4461 4468 5909 5902 5905 5912 4472 5913 5737 5914 5915 
497 498 723 722 522 523 748 747 4302 5742 5743 5732 4477 5917 5918 5910 4468 4475 5916 5909 5912 5919 4479 5920 5747 5921 5922 
498 499 724 723 523 524 749 748 4312 5752 5753 5742 4484 5924 5925 5917 4475 4482 5923 5916 5919 5926 4486 5927 5757 5928 5929 
500 501 726 725 525 526 751 750 4321 5761 5762 5763 4492 5932 5933 5934 4490 4489 5930 5931 5937 5935 4495 5936 5767 5938 5939 
501 502 727 726 526 527 752 751 4330 5770 5771 5761 4501 5941 5942 5932 4489 4499 5940 5930 5935 5943 4503 5944 5774 5945 5946 
502 503 728 727 527 528 753 752 4337 5777 5778 5770 4508 5948 5949 5941 4499 4506 5947 5940 5943 5950 4510 5951 5781 5952 5953 
503 504 729 728 528 529 754 753 4344 5784 5785 5777 4515 5955 5956 5948 4506 4513 5954 5947 5950 5957 4517 5958 5788 5959 5960 
504 505 730 729 529 530 755 754 4351 5791 5792 5784 4522 5962 5963 5955 4513 4520 5961 5954 5957 5964 4524 5965 5795 5966 5967 
505 506 731 730 530 531 756 755 4358 5798 5799 5791 4529 5969 5970 5962 4520 4527 5968 5961 5964 5971 4531 5972 5802 5973 5974 
506 507 732 731 531 532 757 756 4365 5805 5806 5798 4536 5976 5977 5969 4527 4534 5975 5968 5971 5978 4538 5979 5809 5980 5981 
507 508 733 732 532 533 758 757 4372 5812 5813 5805 4543 5983 5984 5976 4534 4541 5982 5975 5978 5985 4545 5986 5816 5987 5988 
508 509 734 733 533 534 759 758 4379 5819 5820 5812 4550 5990 5991 5983 4541 4548 5989 5982 5985 5992 4552 5993 5823 5994 5995 
509 510 735 734 534 535 760 759 4386 5826 5827 5819 4557 5997 5998 5990 4548 4555 5996 5989 5992 5999 4559 6000 5830 6001 6002 
510 511 736 735 535 536 761 760 4393 5833 5834 5826 4564 6004 6005 5997 4555 4562 6003 5996 5999 6006 4566 6007 5837 6008 6009 
511 512 737 736 536 537 762 761 4400 5840 5841 5833 4571 6011 6012 6004 4562 4569 6010 6003 6006 6013 4573 6014 5844 6015 6016 
512 513 738 737 537 538 763 762 4407 5847 5848 5840 4578 6018 6019 6011 4569 4576 6017 6010 6013 6020 4580 6021 5851 6022 6023 
513 514 739 738 538 539 764 763 4414 5854 5855 5847 4585 6025 6026 6018 4576 4583 6024 6017 6020 6027 4587 6028 5858 6029 6030 
514 515 740 739 539 540 765 764 4421 5861 5862 5854 4592 6032 6033 6025 4583 4590 6031 6024 6027 6034 4594 6035 5865 6036 6037 
515 516 741 740 540 541 766 765 4428 5868 5869 5861 4599 6039 6040 6032 4590 4597 6038 6031 6034 6041 4601 6042 5872 6043 6044 
516 517 742 741 541 542 767 766 4435 5875 5876 5868 4606 6046 6047 6039 4597 4604 6045 6038 6041 6048 4608 6049 5879 6050 6051 
517 518 743 742 542 543 768 767 4442 5882 5883 5875 4613 6053 6054 6046 4604 4611 6052 6045 6048 6055 4615 6056 5886 6057 6058 
518 519 744 743 543 544 769 768 4449 5889 5890 5882 4620 6060 6061 6053 4611 4618 6059 6052 6055 6062 4622 6063 5893 6064 6065 
519 520 745 744 544 545 770 769 4456 5896 5897 5889 4627 6067 6068 6060 4618 4625 6066 6059 6062 6069 4629 6070 5900 6071 6072 
520 521 746 745 545 546 771 770 4463 5903 5904 5896 4634 6074 6075 6067 4625 4632 6073 6066 6069 6076 4636 6077 5907 6078 6079 
521 522 747 746 546 547 772 771 4470 5910 5911 5903 4641 6081 6082 6074 4632 4639 6080 6073 6076 6083 4643 6084 5914 6085 6086 
522 523 748 747 547 548 773 772 4477 5917 5918 5910 4648 6088 6089 6081 4639 4646 6087 6080 6083 6090 4650 6091 5921 6092 6093 
523 524 749 748 548 549 774 773 4484 5924 5925 5917 4655 6095 6096 6088 4646 4653 6094 6087 6090 6097 4657 6098 5928 6099 6100 
525 526 751 750 550 551 776 775 4492 5932 5933 5934 4663 6103 6104 6105 4661 4660 6101 6102 6108 6106 4666 6107 5938 6109 6110 
526 527 752 751 551 552 777 776 4501 5941 5942 5932 4672 6112 6113 6103 4660 4670 6111 6101 6106 6114 4674 6115 5945 6116 6117 
527 528 753 752 552 553 778 777 4508 5948 5949 5941 4679 6119 6120 6112 4670 4677 6118 6111 6114 6121 4681 6122 5952 6123 6124 
528 529 754 753 553 554 779 778 4515 5955 5956 5948 4686 6126 6127 6119 4677 4684 6125 6118 6121 6128 4688 6129 5959 6130 6131 
529 530 755 754 554 555 780 779 4522 5962 5963 5955 4693 6133 6134 6126 4684 4691 6132 6125 6128 6135 4695 6136 5966 6137 6138 
530 531 756 755 555 556 781 780 4529 5969 5970 5962 4700 6140 6141 6133 4691 4698 6139 6132 6135 6142 4702 6143 5973 6144 6145 
531 532 757 756 556 557 782 781 4536 5976 5977 5969 4707 6147 6148 6140 4698 4705 6146 6139 6142 6149 4709 6150 5980 6151 6152 
532 533 758 757 557 558 783 782 4543 5983 5984 5976 4714 6154 6155 6147 4705 4712 6153 6146 6149 6156 4716 6157 5987 6158 6159 
533 534 759 758 558 559 784 783 4550 5990 5991 5983 4721 6161 6162 6154 4712 4719 6160 6153 6156 6163 4723 6164 5994 6165 6166 
534 535 760 759 559 560 785 784 4557 5997 5998 5990 4728 6168 6169 6161 4719 4726 6167 6160 6163 6170 4730 6171 6001 6172 6173 
535 536 761 760 560 561 786 785 4564 6004 6005 5997 4735 6175 6176 6168 4726 4733 6174 6167 6170 6177 4737 6178 6008 6179 6180 
536 537 762 761 561 562 787 786 4571 6011 6012 6004 4742 6182 6183 6175 4733 4740 6181 6174 6177 6184 4744 6185 6015 6186 6187 
537 538 763 762 562 563 788 787 4578 6018 6019 6011 4749 6189 6190 6182 4740 4747 6188 6181 6184 6191 4751 6192 6022 6193 6194 
538 539 764 763 563 564 789 788 4585 6025 6026 6018 4756 6196 6197 6189 4747 4754 6195 6188 6191 6198 4758 6199 6029 6200 6201 
539 540 765 764 564 565 790 789 4592 6032 6033 6025 4763 6203 6204 6196 4754 4761 6202 6195 6198 6205 4765 6206 6036 6207 6208 
540 541 766 765 565 566 791 790 4599 6039 6040 6032 4770 6210 6211 6203 4761 4768 6209 6202 6205 6212 4772 6213 6043 6214 6215 
541 542 767 766 566 567 792 791 4606 6046 6047 6039 4777 6217 6218 6210 4768 4775 6216 6209 6212 6219 4779 6220 6050 6221 6222 
542 543 768 767 567 568 793 792 4613 6053 6054 6046 4784 6224 6225 6217 4775 4782 6223 6216 6219 6226 4786 6227 6057 6228 6229 
543 544 769 768 568 569 794 793 4620 6060 6061 6053 4791 6231 6232 6224 4782 4789 6230 6223 6226 6233 4793 6234 6064 6235 6236 
544 545 770 769 569 570 795 794 4627 6067 6068 6060 4798 6238 6239 6231 4789 4796 6237 6230 6233 6240 4800 6241 6071 6242 6243 
545 546 771 770 570 571 796 795 4634 6074 6075 6067 4805 6245 6246 6238 4796 4803 6244 6237 6240 6247 4807 6248 6078 6249 6250 
546 547 772 771 571 572 797 796 4641 6081 6082 6074 4812 6252 6253 6245 4803 4810 6251 6244 6247 6254 4814 6255 6085 6256 6257 
547 548 773 772 572 573 798 797 4648 6088 6089 6081 4819 6259 6260 6252 4810 4817 6258 6251 6254 6261 4821 6262 6092 6263 6264 
548 549 774 773 573 574 799 798 4655 6095 6096 6088 4826 6266 6267 6259 4817 4824 6265 6258 6261 6268 4828 6269 6099 6270 6271 
550 551 776 775 575 576 801 800 4663 6103 6104 6105 4834 6274 6275 6276 4832 4831 6272 6273 6279 6277 4837 6278 6109 6280 6281 
551 552 777 776 576 577 802 801 4672 6112 6113 6103 4843 6283 6284 6274 4831 4841 6282 6272 6277 6285 4845 6286 6116 6287 6288 
552 553 778 777 577 578 803 802 4679 6119 6120 6112 4850 6290 6291 6283 4841 4848 6289 6282 6285 6292 4852 6293 6123 6294 6295 
553 554 779 778 578 579 804 803 4686 6126 6127 6119 4857 6297 6298 6290 4848 4855 6296 6289 6292 6299 4859 6300 6130 6301 6302 
554 555 780 779 579 580 805 804 4693 6133 6134 6126 4864 6304 6305 6297 4855 4862 6303 6296 6299 6306 4866 6307 6137 6308 6309 
555 556 781 780 580 581 806 805 4700 6140 6141 6133 4871 6311 6312 6304 4862 4869 6310 6303 6306 6313 4873 6314 6144 6315 6316 
556 557 782 781 581 582 807 806 4707 6147 6148 6140 4878 6318 6319 6311 4869 4876 6317 6310 6313 6320 4880 6321 6151 6322 6323 
557 558 783 782 582 583 808 807 4714 6154 6155 6147 4885 6325 6326 6318 4876 4883 6324 6317 6320 6327 4887 6328 6158 6329 6330 
558 559 784 783 583 584 809 808 4721 6161 6162 6154 4892 6332 6333 6325 4883 4890 6331 6324 6327 6334 4894 6335 6165 6336 6337 
559 560 785 784 584 585 810 809 4728 6168 6169 6161 4899 6339 6340 6332 4890 4897 6338 6331 6334 6341 4901 6342 6172 6343 6344 
560 561 786 785 585 586 811 810 4735 6175 6176 6168 4906 6346 6347 6339 4897 4904 6345 6338 6341 6348 4908 6349 6179 6350 6351 
561 562 787 786 586 587 812 811 4742 6182 6183 6175 4913 6353 6354 6346 4904 4911 6352 6345 6348 6355 4915 6356 6186 6357 6358 
562 563 788 787 587 588 813 812 4749 6189 6190 6182 4920 6360 6361 6353 4911 4918 6359 6352 6355 6362 4922 6363 6193 6364 6365 
563 564 789 788 588 589 814 813 4756 6196 6197 6189 4927 6367 6368 6360 4918 4925 6366 6359 6362 6369 4929 6370 6200 6371 6372 
564 565 790 789 589 590 815 814 4763 6203 6204 6196 4934 6374 6375 6367 4925 4932 6373 6366 6369 6376 4936 6377 6207 6378 6379 
565 566 791 790 590 591 816 815 4770 6210 6211 6203 4941 6381 6382 6374 4932 4939 6380 6373 6376 6383 4943 6384 6214 6385 6386 
566 567 792 791 591 592 817 816 4777 6217 6218 6210 4948 6388 6389 6381 4939 4946 6387 6380 6383 6390 4950 6391 6221 6392 6393 
567 568 793 792 592 593 818 817 4784 6224 6225 6217 4955 6395 6396 6388 4946 4953 6394 6387 6390 6397 4957 6398 6228 6399 6400 
568 569 794 793 593 594 819 818 4791 6231 6232 6224 4962 6402 6403 6395 4953 4960 6401 6394 6397 6404 4964 6405 6235 6406 6407 
569 570 795 794 594 595 820 819 4798 6238 6239 6231 4969 6409 6410 6402 4960 4967 6408 6401 6404 6411 4971 6412 6242 6413 6414 
570 571 796 795 595 596 821 820 4805 6245 6246 6238 4976 6416 6417 6409 4967 4974 6415 6408 6411 6418 4978 6419 6249 6420 6421 
571 572 797 796 596 597 822 821 4812 6252 6253 6245 4983 6423 6424 6416 4974 4981 6422 6415 6418 6425 4985 6426 6256 6427 6428 
572 573 798 797 597 598 823 822 4819 6259 6260 6252 4990 6430 6431 6423 4981 4988 6429 6422 6425 6432 4992 6433 6263 6434 6435 
573 574 799 798 598 599 824 823 4826 6266 6267 6259 4997 6437 6438 6430 4988 4995 6436 6429 6432 6439 4999 6440 6270 6441 6442 
575 576 801 800 600 601 826 825 4834 6274 6275 6276 5005 6445 6446 6447 5003 5002 6443 6444 6450 6448 5008 6449 6280 6451 6452 
576 577 802 801 601 602 827 826 4843 6283 6284 6274 5014 6454 6455 6445 5002 5012 6453 6443 6448 6456 5016 6457 6287 6458 6459 
577 578 803 802 602 603 828 827 4850 6290 6291 6283 5021 6461 6462 6454 5012 5019 6460 6453 6456 6463 5023 6464 6294 6465 6466 
578 579 804 803 603 604 829 828 4857 6297 6298 6290 5028 6468 6469 6461 5019 5026 6467 6460 6463 6470 5030 6471 6301 6472 6473 
579 580 805 804 604 605 830 829 4864 6304 6305 6297 5035 6475 6476 6468 5026 5033 6474 6467 6470 6477 5037 6478 6308 6479 6480 
580 581 806 805 605 606 831 830 4871 6311 6312 6304 5042 6482 6483 6475 5033 5040 6481 6474 6477 6484 5044 6485 6315 6486 6487 
581 582 807 806 606 607 832 831 4878 6318 6319 6311 5049 6489 6490 6482 5040 5047 6488 6481 6484 6491 5051 6492 6322 6493 6494 
582 583 808 807 607 608 833 832 4885 6325 6326 6318 5056 6496 6497 6489 5047 5054 6495 6488 6491 6498 5058 6499 6329 6500 6501 
583 584 809 808 608 609 834 833 4892 6332 6333 6325 5063 6503 6504 6496 5054 5061 6502 6495 6498 6505 5065 6506 6336 6507 6508 
584 585 810 809 609 610 835 834 4899 6339 6340 6332 5070 6510 6511 6503 5061 5068 6509 6502 6505 6512 5072 6513 6343 6514 6515 
585 586 811 810 610 611 836 835 4906 6346 6347 6339 5077 6517 6518 6510 5068 5075 6516 6509 6512 6519 5079 6520 6350 6521 6522 
586 587 812 811 611 612 837 836 4913 6353 6354 6346 5084 6524 6525 6517 5075 5082 6523 6516 6519 6526 5086 6527 6357 6528 6529 
587 588 813 812 612 613 838 837 4920 6360 6361 6353 5091 6531 6532 6524 5082 5089 6530 6523 6526 6533 5093 6534 6364 6535 6536 
588 589 814 813 613 614 839 838 4927 6367 6368 6360 5098 6538 6539 6531 5089 5096 6537 6530 6533 6540 5100 6541 6371 6542 6543 
589 590 815 814 614 615 840 839 4934 6374 6375 6367 5105 6545 6546 6538 5096 5103 6544 6537 6540 6547 5107 6548 6378 6549 6550 
590 591 816 815 615 616 841 840 4941 6381 6382 6374 5112 6552 6553 6545 5103 5110 6551 6544 6547 6554 5114 6555 6385 6556 6557 
591 592 817 816 616 617 842 841 4948 6388 6389 6381 5119 6559 6560 6552 5110 5117 6558 6551 6554 6561 5121 6562 6392 6563 6564 
592 593 818 817 617 618 843 842 4955 6395 6396 6388 5126 6566 6567 6559 5117 5124 6565 6558 6561 6568 5128 6569 6399 6570 6571 
593 594 819 818 618 619 844 843 4962 6402 6403 6395 5133 6573 6574 6566 5124 5131 6572 6565 6568 6575 5135 6576 6406 6577 6578 
594 595 820 819 619 620 845 844 4969 6409 6410 6402 5140 6580 6581 6573 5131 5138 6579 6572 6575 6582 5142 6583 6413 6584 6585 
595 596 821 820 620 621 846 845 4976 6416 6417 6409 5147 6587 6588 6580 5138 5145 6586 6579 6582 6589 5149 6590 6420 6591 6592 
596 597 822 821 621 622 847 846 4983 6423 6424 6416 5154 6594 6595 6587 5145 5152 6593 6586 6589 6596 5156 6597 6427 6598 6599 
597 598 823 822 622 623 848 847 4990 6430 6431 6423 5161 6601 6602 6594 5152 5159 6600 6593 6596 6603 5163 6604 6434 6605 6606 
598 599 824 823 623 624 849 848 4997 6437 6438 6430 5168 6608 6609 6601 5159 5166 6607 6600 6603 6610 5170 6611 6441 6612 6613 
600 601 826 825 625 626 851 850 5005 6445 6446 6447 5176 6616 6617 6618 5174 5173 6614 6615 6621 6619 5179 6620 6451 6622 6623 
601 602 827 826 626 627 852 851 5014 6454 6455 6445 5185 6625 6626 6616 5173 5183 6624 6614 6619 6627 5187 6628 6458 6629 6630 
602 603 828 827 627 628 853 852 5021 6461 6462 6454 5192 6632 6633 6625 5183 5190 6631 6624 6627 6634 5194 6635 6465 6636 6637 
603 604 829 828 628 629 854 853 5028 6468 6469 6461 5199 6639 6640 6632 5190 5197 6638 6631 6634 6641 5201 6642 6472 6643 6644 
604 605 830 829 629 630 855 854 5035 6475 6476 6468 5206 6646 6647 6639 5197 5204 6645 6638 6641 6648 5208 6649 6479 6650 6651 
605 606 831 830 630 631 856 855 5042 6482 6483 6475 5213 6653 6654 6646 5204 5211 6652 6645 6648 6655 5215 6656 6486 6657 6658 
606 607 832 831 631 632 857 856 5049 6489 6490 6482 5220 6660 6661 6653 5211 5218 6659 6652 6655 6662 5222 6663 6493 6664 6665 
607 608 833 832 632 633 858 857 5056 6496 6497 6489 5227 6667 6668 6660 5218 5225 6666 6659 6662 6669 5229 6670 6500 6671 6672 
608 609 834 833 633 634 859 858 5063 6503 6504 6496 5234 6674 6675 6667 5225 5232 6673 6666 6669 6676 5236 6677 6507 6678 6679 
609 610 835 834 634 635 860 859 5070 6510 6511 6503 5241 6681 6682 6674 5232 5239 6680 6673 6676 6683 5243 6684 6514 6685 6686 
610 611 836 835 635 636 861 860 5077 6517 6518 6510 5248 6688 6689 6681 5239 5246 6687 6680 6683 6690 5250 6691 6521 6692 6693 
611 612 837 836 636 637 862 861 5084 6524 6525 6517 5255 6695 6696 6688 5246 5253 6694 6687 6690 6697 5257 6698 6528 6699 6700 
612 613 838 837 637 638 863 862 5091 6531 6532 6524 5262 6702 6703 6695 5253 5260 6701 6694 6697 6704 5264 6705 6535 6706 6707 
613 614 839 838 638 639 864 863 5098 6538 6539 6531 5269 6709 6710 6702 5260 5267 6708 6701 6704 6711 5271 6712 6542 6713 6714 
614 615 840 839 639 640 865 864 5105 6545 6546 6538 5276 6716 6717 6709 5267 5274 6715 6708 6711 6718 5278 6719 6549 6720 6721 
615 616 841 840 640 641 866 865 5112 6552 6553 6545 5283 6723 6724 6716 5274 5281 6722 6715 6718 6725 5285 6726 6556 6727 6728 
616 617 842 841 641 642 867 866 5119 6559 6560 6552 5290 6730 6731 6723 5281 5288 6729 6722 6725 6732 5292 6733 6563 6734 6735 
617 618 843 842 642 643 868 867 5126 6566 6567 6559 5297 6737 6738 6730 5288 5295 6736 6729 6732 6739 5299 6740 6570 6741 6742 
618 619 844 843 643 644 869 868 5133 6573 6574 6566 5304 6744 6745 6737 5295 5302 6743 6736 6739 6746 5306 6747 6577 6748 6749 
619 620 845 844 644 645 870 869 5140 6580 6581 6573 5311 6751 6752 6744 5302 5309 6750 6743 6746 6753 5313 6754 6584 6755 6756 
620 621 846 845 645 646 871 870 5147 6587 6588 6580 5318 6758 6759 6751 5309 5316 6757 6750 6753 6760 5320 6761 6591 6762 6763 
621 622 847 846 646 647 872 871 5154 6594 6595 6587 5325 6765 6766 6758 5316 5323 6764 6757 6760 6767 5327 6768 6598 6769 6770 
622 623 848 847 647 648 873 872 5161 6601 6602 6594 5332 6772 6773 6765 5323 5330 6771 6764 6767 6774 5334 6775 6605 6776 6777 
623 624 849 848 648 649 874 873 5168 6608 6609 6601 5339 6779 6780 6772 5330 5337 6778 6771 6774 6781 5341 6782 6612 6783 6784 
625 626 851 850 650 651 876 875 5176 6616 6617 6618 5347 6787 6788 6789 5345 5344 6785 6786 6792 6790 5350 6791 6622 6793 6794 
626 627 852 851 651 652 877 876 5185 6625 6626 6616 5356 6796 6797 6787 5344 5354 6795 6785 6790 6798 5358 6799 6629 6800 6801 
627 628 853 852 652 653 878 877 5192 6632 6633 6625 5363 6803 6804 6796 5354 5361 6802 6795 6798 6805 5365 6806 6636 6807 6808 
628 629 854 853 653 654 879 878 5199 6639 6640 6632 5370 6810 6811 6803 5361 5368 6809 6802 6805 6812 5372 6813 6643 6814 6815 
629 630 855 854 654 655 880 879 5206 6646 6647 6639 5377 6817 6818 6810 5368 5375 6816 6809 6812 6819 5379 6820 6650 6821 6822 
630 631 856 855 655 656 881 880 5213 6653 6654 6646 5384 6824 6825 6817 5375 5382 6823 6816 6819 6826 5386 6827 6657 6828 6829 
631 632 857 856 656 657 882 881 5220 6660 6661 6653 5391 6831 6832 6824 5382 5389 6830 6823 6826 6833 5393 6834 6664 6835 6836 
632 633 858 857 657 658 883 882 5227 6667 6668 6660 5398 6838 6839 6831 5389 5396 6837 6830 6833 6840 5400 6841 6671 6842 6843 
633 634 859 858 658 659 884 883 5234 6674 6675 6667 5405 6845 6846 6838 5396 5403 6844 6837 6840 6847 5407 6848 6678 6849 6850 
634 635 860 859 659 660 885 884 5241 6681 6682 6674 5412 6852 6853 6845 5403 5410 6851 6844 6847 6854 5414 6855 6685 6856 6857 
635 636 861 860 660 661 886 885 5248 6688 6689 6681 5419 6859 6860 6852 5410 5417 6858 6851 6854 6861 5421 6862 6692 6863 6864 
636 637 862 861 661 662 887 886 5255 6695 6696 6688 5426 6866 6867 6859 5417 5424 6865 6858 6861 6868 5428 6869 6699 6870 6871 
637 638 863 862 662 663 888 887 5262 6702 6703 6695 5433 6873 6874 6866 5424 5431 6872 6865 6868 6875 5435 6876 6706 6877 6878 
638 639 864 863 663 664 889 888 5269 6709 6710 6702 5440 6880 6881 6873 5431 5438 6879 6872 6875 6882 5442 6883 6713 6884 6885 
639 640 865 864 664 665 890 889 5276 6716 6717 6709 5447 6887 6888 6880 5438 5445 6886 6879 6882 6889 5449 6890 6720 6891 6892 
640 641 866 865 665 666 891 890 5283 6723 6724 6716 5454 6894 6895 6887 5445 5452 6893 6886 6889 6896 5456 6897 6727 6898 6899 
641 642 867 866 666 667 892 891 5290 6730 6731 6723 5461 6901 6902 6894 5452 5459 6900 6893 6896 6903 5463 6904 6734 6905 6906 
642 643 868 867 667 668 893 892 5297 6737 6738 6730 5468 6908 6909 6901 5459 5466 6907 6900 6903 6910 5470 6911 6741 6912 6913 
643 644 869 868 668 669 894 893 5304 6744 6745 6737 5475 6915 6916 6908 5466 5473 6914 6907 6910 6917 5477 6918 6748 6919 6920 
644 645 870 869 669 670 895 894 5311 6751 6752 6744 5482 6922 6923 6915 5473 5480 6921 6914 6917 6924 5484 6925 6755 6926 6927 
645 646 871 870 670 671 896 895 5318 6758 6759 6751 5489 6929 6930 6922 5480 5487 6928 6921 6924 6931 5491 6932 6762 6933 6934 
646 647 872 871 671 672 897 896 5325 6765 6766 6758 5496 6936 6937 6929 5487 5494 6935 6928 6931 6938 5498 6939 6769 6940 6941 
647 648 873 872 672 673 898 897 5332 6772 6773 6765 5503 6943 6944 6936 5494 5501 6942 6935 6938 6945 5505 6946 6776 6947 6948 
648 649 874 873 673 674 899 898 5339 6779 6780 6772 5510 6950 6951 6943 5501 5508 6949 6942 6945 6952 5512 6953 6783 6954 6955 
675 676 901 900 700 701 926 925 5516 6956 6957 6958 5521 6961 6962 6963 5519 5518 6959 6960 6967 6965 5525 6966 6964 6968 6969 
676 677 902 901 701 702 927 926 5530 6970 6971 6956 5533 6973 6974 6961 5518 5531 6972 6959 6965 6976 5536 6977 6975 6978 6979 
677 678 903 902 702 703 928 927 5540 6980 6981 6970 5543 6983 6984 6973 5531 5541 6982 6972 6976 6986 5546 6987 6985 6988 6989 
678 679 904 903 703 704 929 928 5550 6990 6991 6980 5553 6993 6994 6983 5541 5551 6992 6982 6986 6996 5556 6997 6995 6998 6999 
679 680 905 904 704 705 930 929 5560 7000 7001 6990 5563 7003 7004 6993 5551 5561 7002 6992 6996 7006 5566 7007 7005 7008 7009 
680 681 906 905 705 706 931 930 5570 7010 7011 7000 5573 7013 7014 7003 5561 5571 7012 7002 7006 7016 5576 7017 7015 7018 7019 
681 682 907 906 706 707 932 931 5580 7020 7021 7010 5583 7023 7024 7013 5571 5581 7022 7012 7016 7026 5586 7027 7025 7028 7029 
682 683 908 907 707 708 933 932 5590 7030 7031 7020 5593 7033 7034 7023 5581 5591 7032 7022 7026 7036 5596 7037 7035 7038 7039 
683 684 909 908 708 709 934 933 5600 7040 7041 7030 5603 7043 7044 7033 5591 5601 7042 7032 7036 7046 5606 7047 7045 7048 7049 
684 685 910 909 709 710 935 934 5610 7050 7051 7040 5613 7053 7054 7043 5601 5611 7052 7042 7046 7056 5616 7057 7055 7058 7059 
685 686 911 910 710 711 936 935 5620 7060 7061 7050 5623 7063 7064 7053 5611 5621 7062 7052 7056 7066 5626 7067 7065 7068 7069 
686 687 912 911 711 712 937 936 5630 7070 7071 7060 5633 7073 7074 7063 5621 5631 7072 7062 7066 7076 5636 7077 7075 7078 7079 
687 688 913 912 712 713 938 937 5640 7080 7081 7070 5643 7083 7084 7073 5631 5641 7082 7072 7076 7086 5646 7087 7085 7088 7089 
688 689 914 913 713 714 939 938 5650 7090 7091 7080 5653 7093 7094 7083 5641 5651 7092 7082 7086 7096 5656 7097 7095 7098 7099 
689 690 915 914 714 715 940 939 5660 7100 7101 7090 5663 7103 7104 7093 5651 5661 7102 7092 7096 7106 5666 7107 7105 7108 7109 
690 691 916 915 715 716 941 940 5670 7110 7111 7100 5673 7113 7114 7103 5661 5671 7112 7102 7106 7116 5676 7117 7115 7118 7119 
691 692 917 916 716 717 942 941 5680 7120 7121 7110 5683 7123 7124 7113 5671 5681 7122 7112 7116 7126 5686 7127 7125 7128 7129 
692 693 918 917 717 718 943 942 5690 7130 7131 7120 5693 7133 7134 7123 5681 5691 7132 7122 7126 7136 5696 7137 7135 7138 7139 
693 694 919 918 718 719 944 943 5700 7140 7141 7130 5703 7143 7144 7133 5691 5701 7142 7132 7136 7146 5706 7147 7145 7148 7149 
694 695 920 919 719 720 945 944 5710 7150 7151 7140 5713 7153 7154 7143 5701 5711 7152 7142 7146 7156 5716 7157 7155 7158 7159 
695 696 921 920 720 721 946 945 5720 7160 7161 7150 5723 7163 7164 7153 5711 5721 7162 7152 7156 7166 5726 7167 7165 7168 7169 
696 697 922 921 721 722 947 946 5730 7170 7171 7160 5733 7173 7174 7163 5721 5731 7172 7162 7166 7176 5736 7177 7175 7178 7179 
697 698 923 922 722 723 948 947 5740 7180 7181 7170 5743 7183 7184 7173 5731 5741 7182 7172 7176 7186 5746 7187 7185 7188 7189 
698 699 924 923 723 724 949 948 5750 7190 7191 7180 5753 7193 7194 7183 5741 5751 7192 7182 7186 7196 5756 7197 7195 7198 7199 
700 701 926 925 725 726 951 950 5521 6961 6962 6963 5762 7202 7203 7204 5760 5759 7200 7201 7207 7205 5765 7206 6968 7208 7209 
701 702 927 926 726 727 952 951 5533 6973 6974 6961 5771 7211 7212 7202 5759 5769 7210 7200 7205 7213 5773 7214 6978 7215 7216 
702 703 928 927 727 728 953 952 5543 6983 6984 6973 5778 7218 7219 7211 5769 5776 7217 7210 7213 7220 5780 7221 6988 7222 7223 
703 704 929 928 728 729 954 953 5553 6993 6994 6983 5785 7225 7226 7218 5776 5783 7224 7217 7220 7227 5787 7228 6998 7229 7230 
704 705 930 929 729 730 955 954 5563 7003 7004 6993 5792 7232 7233 7225 5783 5790 7231 7224 7227 7234 5794 7235 7008 7236 7237 
705 706 931 930 730 731 956 955 5573 7013 7014 7003 5799 7239 7240 7232 5790 5797 7238 7231 7234 7241 5801 7242 7018 7243 7244 
706 707 932 931 731 732 957 956 5583 7023 7024 7013 5806 7246 7247 7239 5797 5804 7245 7238 7241 7248 5808 7249 7028 7250 7251 
707 708 933 932 732 733 958 957 5593 7033 7034 7023 5813 7253 7254 7246 5804 5811 7252 7245 7248 7255 5815 7256 7038 7257 7258 
708 709 934 933 733 734 959 958 5603 7043 7044 7033 5820 7260 7261 7253 5811 5818 7259 7252 7255 7262 5822 7263 7048 7264 7265 
709 710 935 934 734 735 960 959 5613 7053 7054 7043 5827 7267 7268 7260 5818 5825 7266 7259 7262 7269 5829 7270 7058 7271 7272 
710 711 936 935 735 736 961 960 5623 7063 7064 7053 5834 7274 7275 7267 5825 5832 7273 7266 7269 7276 5836 7277 7068 7278 7279 
711 712 937 936 736 737 962 961 5633 7073 7074 7063 5841 7281 7282 7274 5832 5839 7280 7273 7276 7283 5843 7284 7078 7285 7286 
712 713 938 937 737 738 963 962 5643 7083 7084 7073 5848 7288 7289 7281 5839 5846 7287 7280 7283 7290 5850 7291 7088 7292 7293 
713 714 939 938 738 739 964 963 5653 7093 7094 7083 5855 7295 7296 7288 5846 5853 7294 7287 7290 7297 5857 7298 7098 7299 7300 
714 715 940 939 739 740 965 964 5663 7103 7104 7093 5862 7302 7303 7295 5853 5860 7301 7294 7297 7304 5864 7305 7108 7306 7307 
715 716 941 940 740 741 966 965 5673 7113 7114 7103 5869 7309 7310 7302 5860 5867 7308 7301 7304 7311 5871 7312 7118 7313 7314 
716 717 942 941 741 742 967 966 5683 7123 7124 7113 5876 7316 7317 7309 5867 5874 7315 7308 7311 7318 5878 7319 7128 7320 7321 
717 718 943 942 742 743 968 967 5693 7133 7134 7123 5883 7323 7324 7316 5874 5881 7322 7315 7318 7325 5885 7326 7138 7327 7328 
718 719 944 943 743 744 969 968 5703 7143 7144 7133 5890 7330 7331 7323 5881 5888 7329 7322 7325 7332 5892 7333 7148 7334 7335 
719 720 945 944 744 745 970 969 5713 7153 7154 7143 5897 7337 7338 7330 5888 5895 7336 7329 7332 7339 5899 7340 7158 7341 7342 
720 721 946 945 745 746 971 970 5723 7163 7164 7153 5904 7344 7345 7337 5895 5902 7343 7336 7339 7346 5906 7347 7168 7348 7349 
721 722 947 946 746 747 972 971 5733 7173 7174 7163 5911 7351 7352 7344 5902 5909 7350 7343 7346 7353 5913 7354 7178 7355 7356 
722 723 948 947 747 748 973 972 5743 7183 7184 7173 5918 7358 7359 7351 5909 5916 7357 7350 7353 7360 5920 7361 7188 7362 7363 
723 724 949 948 748 749 974 973 5753 7193 7194 7183 5925 7365 7366 7358 5916 5923 7364 7357 7360 7367 5927 7368 7198 7369 7370 
725 726 951 950 750 751 976 975 5762 7202 7203 7204 5933 7373 7374 7375 5931 5930 7371 7372 7378 7376 5936 7377 7208 7379 7380 
726 727 952 951 751 752 977 976 5771 7211 7212 7202 5942 7382 7383 7373 5930 5940 7381 7371 7376 7384 5944 7385 7215 7386 7387 
727 728 953 952 752 753 978 977 5778 7218 7219 7211 5949 7389 7390 7382 5940 5947 7388 7381 7384 7391 5951 7392 7222 7393 7394 
728 729 954 953 753 754 979 978 5785 7225 7226 7218 5956 7396 7397 7389 5947 5954 7395 7388 7391 7398 5958 7399 7229 7400 7401 
729 730 955 954 754 755 980 979 5792 7232 7233 7225 5963 7403 7404 7396 5954 5961 7402 7395 7398 7405 5965 7406 7236 7407 7408 
730 731 956 955 755 756 981 980 5799 7239 7240 7232 5970 7410 7411 7403 5961 5968 7409 7402 7405 7412 5972 7413 7243 7414 7415 
731 732 957 956 756 757 982 981 5806 7246 7247 7239 5977 7417 7418 7410 5968 5975 7416 7409 7412 7419 5979 7420 7250 7421 7422 
732 733 958 957 757 758 983 982 5813 7253 7254 7246 5984 7424 7425 7417 5975 5982 7423 7416 7419 7426 5986 7427 7257 7428 7429 
733 734 959 958 758 759 984 983 5820 7260 7261 7253 5991 7431 7432 7424 5982 5989 7430 7423 7426 7433 5993 7434 7264 7435 7436 
734 735 960 959 759 760 985 984 5827 7267 7268 7260 5998 7438 7439 7431 5989 5996 7437 7430 7433 7440 6000 7441 7271 7442 7443 
735 736 961 960 760 761 986 985 5834 7274 7275 7267 6005 7445 7446 7438 5996 6003 7444 7437 7440 7447 6007 7448 7278 7449 7450 
736 737 962 961 761 762 987 986 5841 7281 7282 7274 6012 7452 7453 7445 6003 6010 7451 7444 7447 7454 6014 7455 7285 7456 7457 
737 738 963 962 762 763 988 987 5848 7288 7289 7281 6019 7459 7460 7452 6010 6017 7458 7451 7454 7461 6021 7462 7292 7463 7464 
738 739 964 963 763 764 989 988 5855 7295 7296 7288 6026 7466 7467 7459 6017 6024 7465 7458 7461 7468 6028 7469 7299 7470 7471 
739 740 965 964 764 765 990 989 5862 7302 7303 7295 6033 7473 7474 7466 6024 6031 7472 7465 7468 7475 6035 7476 7306 7477 7478 
740 741 966 965 765 766 991 990 5869 7309 7310 7302 6040 7480 7481 7473 6031 6038 7479 7472 7475 7482 6042 7483 7313 7484 7485 
741 742 967 966 766 767 992 991 5876 7316 7317 7309 6047 7487 7488 7480 6038 6045 7486 7479 7482 7489 6049 7490 7320 7491 7492 
742 743 968 967 767 768 993 992 5883 7323 7324 7316 6054 7494 7495 7487 6045 6052 7493 7486 7489 7496 6056 7497 7327 7498 7499 
743 744 969 968 768 769 994 993 5890 7330 7331 7323 6061 7501 7502 7494 6052 6059 7500 7493 7496 7503 6063 7504 7334 7505 7506 
744 745 970 969 769 770 995 994 5897 7337 7338 7330 6068 7508 7509 7501 6059 6066 7507 7500 7503 7510 6070 7511 7341 7512 7513 
745 746 971 970 770 771 996 995 5904 7344 7345 7337 6075 7515 7516 7508 6066 6073 7514 7507 7510 7517 6077 7518 7348 7519 7520 
746 747 972 971 771 772 997 996 5911 7351 7352 7344 6082 7522 7523 7515 6073 6080 7521 7514 7517 7524 6084 7525 7355 7526 7527 
747 748 973 972 772 773 998 997 5918 7358 7359 7351 6089 7529 7530 7522 6080 6087 7528 7521 7524 7531 6091 7532 7362 7533 7534 
748 749 974 973 773 774 999 998 5925 7365 7366 7358 6096 7536 7537 7529 6087 6094 7535 7528 7531 7538 6098 7539 7369 7540 7541 
750 751 976 975 775 776 1001 1000 5933 7373 7374 7375 6104 7544 7545 7546 6102 6101 7542 7543 7549 7547 6107 7548 7379 7550 7551 
751 752 977 976 776 777 1002 1001 5942 7382 7383 7373 6113 7553 7554 7544 6101 6111 7552 7542 7547 7555 6115 7556 7386 7557 7558 
752 753 978 977 777 778 1003 1002 5949 7389 7390 7382 6120 7560 7561 7553 6111 6118 7559 7552 7555 7562 6122 7563 7393 7564 7565 
753 754 979 978 778 779 1004 1003 5956 7396 7397 7389 6127 7567 7568 7560 6118 6125 7566 7559 7562 7569 6129 7570 7400 7571 7572 
754 755 980 979 779 780 1005 1004 5963 7403 7404 7396 6134 7574 7575 7567 6125 6132 7573 7566 7569 7576 6136 7577 7407 7578 7579 
755 756 981 980 780 781 1006 1005 5970 7410 7411 7403 6141 7581 7582 7574 6132 6139 7580 7573 7576 7583 6143 7584 7414 7585 7586 
756 757 982 981 781 782 1007 1006 5977 7417 7418 7410 6148 7588 7589 7581 6139 6146 7587 7580 7583 7590 6150 7591 7421 7592 7593 
757 758 983 982 782 783 1008 1007 5984 7424 7425 7417 6155 7595 7596 7588 6146 6153 7594 7587 7590 7597 6157 7598 7428 7599 7600 
758 759 984 983 783 784 1009 1008 5991 7431 7432 7424 6162 7602 7603 7595 6153 6160 7601 7594 7597 7604 6164 7605 7435 7606 7607 
759 760 985 984 784 785 1010 1009 5998 7438 7439 7431 6169 7609 7610 7602 6160 6167 7608 7601 7604 7611 6171 7612 7442 7613 7614 
760 761 986 985 785 786 1011 1010 6005 7445 7446 7438 6176 7616 7617 7609 6167 6174 7615 7608 7611 7618 6178 7619 7449 7620 7621 
761 762 987 986 786 787 1012 1011 6012 7452 7453 7445 6183 7623 7624 7616 6174 6181 7622 7615 7618 7625 6185 7626 7456 7627 7628 
762 763 988 987 787 788 1013 1012 6019 7459 7460 7452 6190 7630 7631 7623 6181 6188 7629 7622 7625 7632 6192 7633 7463 7634 7635 
763 764 989 988 788 789 1014 1013 6026 7466 7467 7459 6197 7637 7638 7630 6188 6195 7636 7629 7632 7639 6199 7640 7470 7641 7642 
764 765 990 989 789 790 1015 1014 6033 7473 7474 7466 6204 7644 7645 7637 6195 6202 7643 7636 7639 7646 6206 7647 7477 7648 7649 
765 766 991 990 790 791 1016 1015 6040 7480 7481 7473 6211 7651 7652 7644 6202 6209 7650 7643 7646 7653 6213 7654 7484 7655 7656 
766 767 992 991 791 792 1017 1016 6047 7487 7488 7480 6218 7658 7659 7651 6209 6216 7657 7650 7653 7660 6220 7661 7491 7662 7663 
767 768 993 992 792 793 1018 1017 6054 7494 7495 7487 6225 7665 7666 7658 6216 6223 7664 7657 7660 7667 6227 7668 7498 7669 7670 
768 769 994 993 793 794 1019 1018 6061 7501 7502 7494 6232 7672 7673 7665 6223 6230 7671 7664 7667 7674 6234 7675 7505 7676 7677 
769 770 995 994 794 795 1020 1019 6068 7508 7509 7501 6239 7679 7680 7672 6230 6237 7678 7671 7674 7681 6241 7682 7512 7683 7684 
770 771 996 995 795 796 1021 1020 6075 7515 7516 7508 6246 7686 7687 7679 6237 6244 7685 7678 7681 7688 6248 7689 7519 7690 7691 
771 772 997 996 796 797 1022 1021 6082 7522 7523 7515 6253 7693 7694 7686 6244 6251 7692 7685 7688 7695 6255 7696 7526 7697 7698 
772 773 998 997 797 798 1023 1022 6089 7529 7530 7522 6260 7700 7701 7693 6251 6258 7699 7692 7695 7702 6262 7703 7533 7704 7705 
773 774 999 998 798 799 1024 1023 6096 7536 7537 7529 6267 7707 7708 7700 6258 6265 7706 7699 7702 7709 6269 7710 7540 7711 7712 
775 776 1001 1000 800 801 1026 1025 6104 7544 7545 7546 6275 7715 7716 7717 6273 6272 7713 7714 7720 7718 6278 7719 7550 7721 7722 
776 777 1002 1001 801 802 1027 1026 6113 7553 7554 7544 6284 7724 7725 7715 6272 6282 7723 7713 7718 7726 6286 7727 7557 7728 7729 
777 778 1003 1002 802 803 1028 1027 6120 7560 7561 7553 6291 7731 7732 7724 6282 6289 7730 7723 7726 7733 6293 7734 7564 7735 7736 
778 779 1004 1003 803 804 1029 1028 6127 7567 7568 7560 6298 7738 7739 7731 6289 6296 7737 7730 7733 7740 6300 7741 7571 7742 7743 
779 780 1005 1004 804 805 1030 1029 6134 7574 7575 7567 6305 7745 7746 7738 6296 6303 7744 7737 7740 7747 6307 7748 7578 7749 7750 
780 781 1006 1005 805 806 1031 1030 6141 7581 7582 7574 6312 7752 7753 7745 6303 6310 7751 7744 7747 7754 6314 7755 7585 7756 7757 
781 782 1007 1006 806 807 1032 1031 6148 7588 7589 7581 6319 7759 7760 7752 6310 6317 7758 7751 7754 7761 6321 7762 7592 7763 7764 
782 783 1008 1007 807 808 1033 1032 6155 7595 7596 7588 6326 7766 7767 7759 6317 6324 7765 7758 7761 7768 6328 7769 7599 7770 7771 
783 784 1009 1008 808 809 1034 1033 6162 7602 7603 7595 6333 7773 7774 7766 6324 6331 7772 7765 7768 7775 6335 7776 7606 7777 7778 
784 785 1010 1009 809 810 1035 1034 6169 7609 7610 7602 6340 7780 7781 7773 6331 6338 7779 7772 7775 7782 6342 7783 7613 7784 7785 
785 786 1011 1010 810 811 1036 1035 6176 7616 7617 7609 6347 7787 7788 7780 6338 6345 7786 7779 7782 7789 6349 7790 7620 7791 7792 
786 787 1012 1011 811 812 1037 1036 6183 7623 7624 7616 6354 7794 7795 7787 6345 6352 7793 7786 7789 7796 6356 7797 7627 7798 7799 
787 788 1013 1012 812 813 1038 1037 6190 7630 7631 7623 6361 7801 7802 7794 6352 6359 7800 7793 7796 7803 6363 7804 7634 7805 7806 
788 789 1014 1013 813 814 1039 1038 6197 7637 7638 7630 6368 7808 7809 7801 6359 6366 7807 7800 7803 7810 6370 7811 7641 7812 7813 
789 790 1015 1014 814 815 1040 1039 6204 7644 7645 7637 6375 7815 7816 7808 6366 6373 7814 7807 7810 7817 6377 7818 7648 7819 7820 
790 791 1016 1015 815 816 1041 1040 6211 7651 7652 7644 6382 7822 7823 7815 6373 6380 7821 7814 7817 7824 6384 7825 7655 7826 7827 
791 792 1017 1016 816 817 1042 1041 6218 7658 7659 7651 6389 7829 7830 7822 6380 6387 7828 7821 7824 7831 6391 7832 7662 7833 7834 
792 793 1018 1017 817 818 1043 1042 6225 7665 7666 7658 6396 7836 7837 7829 6387 6394 7835 7828 7831 7838 6398 7839 7669 7840 7841 
793 794 1019 1018 818 819 1044 1043 6232 7672 7673 7665 6403 7843 7844 7836 6394 6401 7842 7835 7838 7845 6405 7846 7676 7847 7848 
794 795 1020 1019 819 820 1045 1044 6239 7679 7680 7672 6410 7850 7851 7843 6401 6408 7849 7842 7845 7852 6412 7853 7683 7854 7855 
795 796 1021 1020 820 821 1046 1045 6246 7686 7687 7679 6417 7857 7858 7850 6408 6415 7856 7849 7852 7859 6419 7860 7690 7861 7862 
796 797 1022 1021 821 822 1047 1046 6253 7693 7694 7686 6424 7864 7865 7857 6415 6422 7863 7856 7859 7866 6426 7867 7697 7868 7869 
797 798 1023 1022 822 823 1048 1047 6260 7700 7701 7693 6431 7871 7872 7864 6422 6429 7870 7863 7866 7873 6433 7874 7704 7875 7876 
798 799 1024 1023 823 824 1049 1048 6267 7707 7708 7700 6438 7878 7879 7871 6429 6436 7877 7870 7873 7880 6440 7881 7711 7882 7883 
800 801 1026 1025 825 826 1051 1050 6275 7715 7716 7717 6446 7886 7887 7888 6444 6443 7884 7885 7891 7889 6449 7890 7721 7892 7893 
801 802 1027 1026 826 827 1052 1051 6284 7724 7725 7715 6455 7895 7896 7886 6443 6453 7894 7884 7889 7897 6457 7898 7728 7899 7900 
802 803 1028 1027 827 828 1053 1052 6291 7731 7732 7724 6462 7902 7903 7895 6453 6460 7901 7894 7897 7904 6464 7905 7735 7906 7907 
803 804 1029 1028 828 829 1054 1053 6298 7738 7739 7731 6469 7909 7910 7902 6460 6467 7908 7901 7904 7911 6471 7912 7742 7913 7914 
804 805 1030 1029 829 830 1055 1054 6305 7745 7746 7738 6476 7916 7917 7909 6467 6474 7915 7908 7911 7918 6478 7919 7749 7920 7921 
805 806 1031 1030 830 831 1056 1055 6312 7752 7753 7745 6483 7923 7924 7916 6474 6481 7922 7915 7918 7925 6485 7926 7756 7927 7928 
806 807 1032 1031 831 832 1057 1056 6319 7759 7760 7752 6490 7930 7931 7923 6481 6488 7929 7922 7925 7932 6492 7933 7763 7934 7935 
807 808 1033 1032 832 833 1058 1057 6326 7766 7767 7759 6497 7937 7938 7930 6488 6495 7936 7929 7932 7939 6499 7940 7770 7941 7942 
808 809 1034 1033 833 834 1059 1058 6333 7773 7774 7766 6504 7944 7945 7937 6495 6502 7943 7936 7939 7946 6506 7947 7777 7948 7949 
809 810 1035 1034 834 835 1060 1059 6340 7780 7781 7773 6511 7951 7952 7944 6502 6509 7950 7943 7946 7953 6513 7954 7784 7955 7956 
810 811 1036 1035 835 836 1061 1060 6347 7787 7788 7780 6518 7958 7959 7951 6509 6516 7957 7950 7953 7960 6520 7961 7791 7962 7963 
811 812 1037 1036 836 837 1062 1061 6354 7794 7795 7787 6525 7965 7966 7958 6516 6523 7964 7957 7960 7967 6527 7968 7798 7969 7970 
812 813 1038 1037 837 838 1063 1062 6361 7801 7802 7794 6532 7972 7973 7965 6523 6530 7971 7964 7967 7974 6534 7975 7805 7976 7977 
813 814 1039 1038 838 839 1064 1063 6368 7808 7809 7801 6539 7979 7980 7972 6530 6537 7978 7971 7974 7981 6541 7982 7812 7983 7984 
814 815 1040 1039 839 840 1065 1064 6375 7815 7816 7808 6546 7986 7987 7979 6537 6544 7985 7978 7981 7988 6548 7989 7819 7990 7991 
815 816 1041 1040 840 841 1066 1065 6382 7822 7823 7815 6553 7993 7994 7986 6544 6551 7992 7985 7988 7995 6555 7996 7826 7997 7998 
816 817 1042 1041 841 842 1067 1066 6389 7829 7830 7822 6560 8000 8001 7993 6551 6558 7999 7992 7995 8002 6562 8003 7833 8004 8005 
817 818 1043 1042 842 843 1068 1067 6396 7836 7837 7829 6567 8007 8008 8000 6558 6565 8006 7999 8002 8009 6569 8010 7840 8011 8012 
818 819 1044 1043 843 844 1069 1068 6403 7843 7844 7836 6574 8014 8015 8007 6565 6572 8013 8006 8009 8016 6576 8017 7847 8018 8019 
819 820 1045 1044 844 845 1070 1069 6410 7850 7851 7843 6581 8021 8022 8014 6572 6579 8020 8013 8016 8023 6583 8024 7854 8025 8026 
820 821 1046 1045 845 846 1071 1070 6417 7857 7858 7850 6588 8028 8029 8021 6579 6586 8027 8020 8023 8030 6590 8031 7861 8032 8033 
821 822 1047 1046 846 847 1072 1071 6424 7864 7865 7857 6595 8035 8036 8028 6586 6593 8034 8027 8030 8037 6597 8038 7868 8039 8040 
822 823 1048 1047 847 848 1073 1072 6431 7871 7872 7864 6602 8042 8043 8035 6593 6600 8041 8034 8037 8044 6604 8045 7875 8046 8047 
823 824 1049 1048 848 849 1074 1073 6438 7878 7879 7871 6609 8049 8050 8042 6600 6607 8048 8041 8044 8051 6611 8052 7882 8053 8054 
825 826 1051 1050 850 851 1076 1075 6446 7886 7887 7888 6617 8057 8058 8059 6615 6614 8055 8056 8062 8060 6620 8061 7892 8063 8064 
826 827 1052 1051 851 852 1077 1076 6455 7895 7896 7886 6626 8066 8067 8057 6614 6624 8065 8055 8060 8068 6628 8069 7899 8070 8071 
827 828 1053 1052 852 853 1078 1077 6462 7902 7903 7895 6633 8073 8074 8066 6624 6631 8072 8065 8068 8075 6635 8076 7906 8077 8078 
828 829 1054 1053 853 854 1079 1078 6469 7909 7910 7902 6640 8080 8081 8073 6631 6638 8079 8072 8075 8082 6642 8083 7913 8084 8085 
829 830 1055 1054 854 855 1080 1079 6476 7916 7917 7909 6647 8087 8088 8080 6638 6645 8086 8079 8082 8089 6649 8090 7920 8091 8092 
830 831 1056 1055 855 856 1081 1080 6483 7923 7924 7916 6654 8094 8095 8087 6645 6652 8093 8086 8089 8096 6656 8097 7927 8098 8099 
831 832 1057 1056 856 857 1082 1081 6490 7930 7931 7923 6661 8101 8102 8094 6652 6659 8100 8093 8096 8103 6663 8104 7934 8105 8106 
832 833 1058 1057 857 858 1083 1082 6497 7937 7938 7930 6668 8108 8109 8101 6659 6666 8107 8100 8103 8110 6670 8111 7941 8112 8113 
833 834 1059 1058 858 859 1084 1083 6504 7944 7945 7937 6675 8115 8116 8108 6666 6673 8114 8107 8110 8117 6677 8118 7948 8119 8120 
834 835 1060 1059 859 860 1085 1084 6511 7951 7952 7944 6682 8122 8123 8115 6673 6680 8121 8114 8117 8124 6684 8125 7955 8126 8127 
835 836 1061 1060 860 861 1086 1085 6518 7958 7959 7951 6689 8129 8130 8122 6680 6687 8128 8121 8124 8131 6691 8132 7962 8133 8134 
836 837 1062 1061 861 862 1087 1086 6525 7965 7966 7958 6696 8136 8137 8129 6687 6694 8135 8128 8131 8138 6698 8139 7969 8140 8141 
837 838 1063 1062 862 863 1088 1087 6532 7972 7973 7965 6703 8143 8144 8136 6694 6701 8142 8135 8138 8145 6705 8146 7976 8147 8148 
838 839 1064 1063 863 864 1089 1088 6539 7979 7980 7972 6710 8150 8151 8143 6701 6708 8149 8142 8145 8152 6712 8153 7983 8154 8155 
839 840 1065 1064 864 865 1090 1089 6546 7986 7987 7979 6717 8157 8158 8150 6708 6715 8156 8149 8152 8159 6719 8160 7990 8161 8162 
840 841 1066 1065 865 866 1091 1090 6553 7993 7994 7986 6724 8164 8165 8157 6715 6722 8163 8156 8159 8166 6726 8167 7997 8168 8169 
841 842 1067 1066 866 867 1092 1091 6560 8000 8001 7993 6731 8171 8172 8164 6722 6729 8170 8163 8166 8173 6733 8174 8004 8175 8176 
842 843 1068 1067 867 868 1093 1092 6567 8007 8008 8000 6738 8178 8179 8171 6729 6736 8177 8170 8173 8180 6740 8181 8011 8182 8183 
843 844 1069 1068 868 869 1094 1093 6574 8014 8015 8007 6745 8185 8186 8178 6736 6743 8184 8177 8180 8187 6747 8188 8018 8189 8190 
844 845 1070 1069 869 870 1095 1094 6581 8021 8022 8014 6752 8192 8193 8185 6743 6750 8191 8184 8187 8194 6754 8195 8025 8196 8197 
845 846 1071 1070 870 871 1096 1095 6588 8028 8029 8021 6759 8199 8200 8192 6750 6757 8198 8191 8194 8201 6761 8202 8032 8203 8204 
846 847 1072 1071 871 872 1097 1096 6595 8035 8036 8028 6766 8206 8207 8199 6757 6764 8205 8198 8201 8208 6768 8209 8039 8210 8211 
847 848 1073 1072 872 873 1098 1097 6602 8042 8043 8035 6773 8213 8214 8206 6764 6771 8212 8205 8208 8215 6775 8216 8046 8217 8218 
848 849 1074 1073 873 874 1099 1098 6609 8049 8050 8042 6780 8220 8221 8213 6771 6778 8219 8212 8215 8222 6782 8223 8053 8224 8225 
850 851 1076 1075 875 876 1101 1100 6617 8057 8058 8059 6788 8228 8229 8230 6786 6785 8226 8227 8233 8231 6791 8232 8063 8234 8235 
851 852 1077 1076 876 877 1102 1101 6626 8066 8067 8057 6797 8237 8238 8228 6785 6795 8236 8226 8231 8239 6799 8240 8070 8241 8242 
852 853 1078 1077 877 878 1103 1102 6633 8073 8074 8066 6804 8244 8245 8237 6795 6802 8243 8236 8239 8246 6806 8247 8077 8248 8249 
853 854 1079 1078 878 879 1104 1103 6640 8080 8081 8073 6811 8251 8252 8244 6802 6809 8250 8243 8246 8253 6813 8254 8084 8255 8256 
854 855 1080 1079 879 880 1105 1104 6647 8087 8088 8080 6818 8258 8259 8251 6809 6816 8257 8250 8253 8260 6820 8261 8091 8262 8263 
855 856 1081 1080 880 881 1106 1105 6654 8094 8095 8087 6825 8265 8266 8258 6816 6823 8264 8257 8260 8267 6827 8268 8098 8269 8270 
856 857 1082 1081 881 882 1107 1106 6661 8101 8102 8094 6832 8272 8273 8265 6823 6830 8271 8264 8267 8274 6834 8275 8105 8276 8277 
857 858 1083 1082 882 883 1108 1107 6668 8108 8109 8101 6839 8279 8280 8272 6830 6837 8278 8271 8274 8281 6841 8282 8112 8283 8284 
858 859 1084 1083 883 884 1109 1108 6675 8115 8116 8108 6846 8286 8287 8279 6837 6844 8285 8278 8281 8288 6848 8289 8119 8290 8291 
859 860 1085 1084 884 885 1110 1109 6682 8122 8123 8115 6853 8293 8294 8286 6844 6851 8292 8285 8288 8295 6855 8296 8126 8297 8298 
860 861 1086 1085 885 886 1111 1110 6689 8129 8130 8122 6860 8300 8301 8293 6851 6858 8299 8292 8295 8302 6862 8303 8133 8304 8305 
861 862 1087 1086 886 887 1112 1111 6696 8136 8137 8129 6867 8307 8308 8300 6858 6865 8306 8299 8302 8309 6869 8310 8140 8311 8312 
862 863 1088 1087 887 888 1113 1112 6703 8143 8144 8136 6874 8314 8315 8307 6865 6872 8313 8306 8309 8316 6876 8317 8147 8318 8319 
863 864 1089 1088 888 889 1114 1113 6710 8150 8151 8143 6881 8321 8322 8314 6872 6879 8320 8313 8316 8323 6883 8324 8154 8325 8326 
864 865 1090 1089 889 890 1115 1114 6717 8157 8158 8150 6888 8328 8329 8321 6879 6886 8327 8320 8323 8330 6890 8331 8161 8332 8333 
865 866 1091 1090 890 891 1116 1115 6724 8164 8165 8157 6895 8335 8336 8328 6886 6893 8334 8327 8330 8337 6897 8338 8168 8339 8340 
866 867 1092 1091 891 892 1117 1116 6731 8171 8172 8164 6902 8342 8343 8335 6893 6900 8341 8334 8337 8344 6904 8345 8175 8346 8347 
867 868 1093 1092 892 893 1118 1117 6738 8178 8179 8171 6909 8349 8350 8342 6900 6907 8348 8341 8344 8351 6911 8352 8182 8353 8354 
868 869 1094 1093 893 894 1119 1118 6745 8185 8186 8178 6916 8356 8357 8349 6907 6914 8355 8348 8351 8358 6918 8359 8189 8360 8361 
869 870 1095 1094 894 895 1120 1119 6752 8192 8193 8185 6923 8363 8364 8356 6914 6921 8362 8355 8358 8365 6925 8366 8196 8367 8368 
870 871 1096 1095 895 896 1121 1120 6759 8199 8200 8192 6930 8370 8371 8363 6921 6928 8369 8362 8365 8372 6932 8373 8203 8374 8375 
871 872 1097 1096 896 897 1122 1121 6766 8206 8207 8199 6937 8377 8378 8370 6928 6935 8376 8369 8372 8379 6939 8380 8210 8381 8382 
872 873 1098 1097 897 898 1123 1122 6773 8213 8214 8206 6944 8384 8385 8377 6935 6942 8383 8376 8379 8386 6946 8387 8217 8388 8389 
873 874 1099 1098 898 899 1124 1123 6780 8220 8221 8213 6951 8391 8392 8384 6942 6949 8390 8383 8386 8393 6953 8394 8224 8395 8396 
900 901 1126 1125 925 926 1151 1150 6957 8397 8398 8399 6962 8402 8403 8404 6960 6959 8400 8401 8408 8406 6966 8407 8405 8409 8410 
901 902 1127 1126 926 927 1152 1151 6971 8411 8412 8397 6974 8414 8415 8402 6959 6972 8413 8400 8406 8417 6977 8418 8416 8419 8420 
902 903 1128 1127 927 928 1153 1152 6981 8421 8422 8411 6984 8424 8425 8414 6972 6982 8423 8413 8417 8427 6987 8428 8426 8429 8430 
903 904 1129 1128 928 929 1154 1153 6991 8431 8432 8421 6994 8434 8435 8424 6982 6992 8433 8423 8427 8437 6997 8438 8436 8439 8440 
904 905 1130 1129 929 930 1155 1154 7001 8441 8442 8431 7004 8444 8445 8434 6992 7002 8443 8433 8437 8447 7007 8448 8446 8449 8450 
905 906 1131 1130 930 931 1156 1155 7011 8451 8452 8441 7014 8454 8455 8444 7002 7012 8453 8443 8447 8457 7017 8458 8456 8459 8460 
906 907 1132 1131 931 932 1157 1156 7021 8461 8462 8451 7024 8464 8465 8454 7012 7022 8463 8453 8457 8467 7027 8468 8466 8469 8470 
907 908 1133 1132 932 933 1158 1157 7031 8471 8472 8461 7034 8474 8475 8464 7022 7032 8473 8463 8467 8477 7037 8478 8476 8479 8480 
908 909 1134 1133 933 934 1159 1158 7041 8481 8482 8471 7044 8484 8485 8474 7032 7042 8483 8473 8477 8487 7047 8488 8486 8489 8490 
909 910 1135 1134 934 935 1160 1159 7051 8491 8492 8481 7054 8494 8495 8484 7042 7052 8493 8483 8487 8497 7057 8498 8496 8499 8500 
910 911 1136 1135 935 936 1161 1160 7061 8501 8502 8491 7064 8504 8505 8494 7052 7062 8503 8493 8497 8507 7067 8508 8506 8509 8510 
911 912 1137 1136 936 937 1162 1161 7071 8511 8512 8501 7074 8514 8515 8504 7062 7072 8513 8503 8507 8517 7077 8518 8516 8519 8520 
912 913 1138 1137 937 938 1163 1162 7081 8521 8522 8511 7084 8524 8525 8514 7072 7082 8523 8513 8517 8527 7087 8528 8526 8529 8530 
913 914 1139 1138 938 939 1164 1163 7091 8531 8532 8521 7094 8534 8535 8524 7082 7092 8533 8523 8527 8537 7097 8538 8536 8539 8540 
914 915 1140 1139 939 940 1165 1164 7101 8541 8542 8531 7104 8544 8545 8534 7092 7102 8543 8533 8537 8547 7107 8548 8546 8549 8550 
915 916 1141 1140 940 941 1166 1165 7111 8551 8552 8541 7114 8554 8555 8544 7102 7112 8553 8543 8547 8557 7117 8558 8556 8559 8560 
916 917 1142 1141 941 942 1167 1166 7121 8561 8562 8551 7124 8564 8565 8554 7112 7122 8563 8553 8557 8567 7127 8568 8566 8569 8570 
917 918 1143 1142 942 943 1168 1167 7131 8571 8572 8561 7134 8574 8575 8564 7122 7132 8573 8563 8567 8577 7137 8578 8576 8579 8580 
918 919 1144 1143 943 944 1169 1168 7141 8581 8582 8571 7144 8584 8585 8574 7132 7142 8583 8573 8577 8587 7147 8588 8586 8589 8590 
919 920 1145 1144 944 945 1170 1169 7151 8591 8592 8581 7154 8594 8595 8584 7142 7152 8593 8583 8587 8597 7157 8598 8596 8599 8600 
920 921 1146 1145 945 946 1171 1170 7161 8601 8602 8591 7164 8604 8605 8594 7152 7162 8603 8593 8597 8607 7167 8608 8606 8609 8610 
921 922 1147 1146 946 947 1172 1171 7171 8611 8612 8601 7174 8614 8615 8604 7162 7172 8613 8603 8607 8617 7177 8618 8616 8619 8620 
922 923 1148 1147 947 948 1173 1172 7181 8621 8622 8611 7184 8624 8625 8614 7172 7182 8623 8613 8617 8627 7187 8628 8626 8629 8630 
923 924 1149 1148 948 949 1174 1173 7191 8631 8632 8621 7194 8634 8635 8624 7182 7192 8633 8623 8627 8637 7197 8638 8636 8639 8640 
925 926 1151 1150 950 951 1176 1175 6962 8402 8403 8404 7203 8643 8644 8645 7201 7200 8641 8642 8648 8646 7206 8647 8409 8649 8650 
926 927 1152 1151 951 952 1177 1176 6974 8414 8415 8402 7212 8652 8653 8643 7200 7210 8651 8641 8646 8654 7214 8655 8419 8656 8657 
927 928 1153 1152 952 953 1178 1177 6984 8424 8425 8414 7219 8659 8660 8652 7210 7217 8658 8651 8654 8661 7221 8662 8429 8663 8664 
928 929 1154 1153 953 954 1179 1178 6994 8434 8435 8424 7226 8666 8667 8659 7217 7224 8665 8658 8661 8668 7228 8669 8439 8670 8671 
929 930 1155 1154 954 955 1180 1179 7004 8444 8445 8434 7233 8673 8674 8666 7224 7231 8672 8665 8668 8675 7235 8676 8449 8677 8678 
930 931 1156 1155 955 956 1181 1180 7014 8454 8455 8444 7240 8680 8681 8673 7231 7238 8679 8672 8675 8682 7242 8683 8459 8684 8685 
931 932 1157 1156 956 957 1182 1181 7024 8464 8465 8454 7247 8687 8688 8680 7238 7245 8686 8679 8682 8689 7249 8690 8469 8691 8692 
932 933 1158 1157 957 958 1183 1182 7034 8474 8475 8464 7254 8694 8695 8687 7245 7252 8693 8686 8689 8696 7256 8697 8479 8698 8699 
933 934 1159 1158 958 959 1184 1183 7044 8484 8485 8474 7261 8701 8702 8694 7252 7259 8700 8693 8696 8703 7263 8704 8489 8705 8706 
934 935 1160 1159 959 960 1185 1184 7054 8494 8495 8484 7268 8708 8709 8701 7259 7266 8707 8700 8703 8710 7270 8711 8499 8712 8713 
935 936 1161 1160 960 961 1186 1185 7064 8504 8505 8494 7275 8715 8716 8708 7266 7273 8714 8707 8710 8717 7277 8718 8509 8719 8720 
936 937 1162 1161 961 962 1187 1186 7074 8514 8515 8504 7282 8722 8723 8715 7273 7280 8721 8714 8717 8724 7284 8725 8519 8726 8727 
937 938 1163 1162 962 963 1188 1187 7084 8524 8525 8514 7289 8729 8730 8722 7280 7287 8728 8721 8724 8731 7291 8732 8529 8733 8734 
938 939 1164 1163 963 964 1189 1188 7094 8534 8535 8524 7296 8736 8737 8729 7287 7294 8735 8728 8731 8738 7298 8739 8539 8740 8741 
939 940 1165 1164 964 965 1190 1189 7104 8544 8545 8534 7303 8743 8744 8736 7294 7301 8742 8735 8738 8745 7305 8746 8549 8747 8748 
940 941 1166 1165 965 966 1191 1190 7114 8554 8555 8544 7310 8750 8751 8743 7301 7308 8749 8742 8745 8752 7312 8753 8559 8754 8755 
941 942 1167 1166 966 967 1192 1191 7124 8564 8565 8554 7317 8757 8758 8750 7308 7315 8756 8749 8752 8759 7319 8760 8569 8761 8762 
942 943 1168 1167 967 968 1193 1192 7134 8574 8575 8564 7324 8764 8765 8757 7315 7322 8763 8756 8759 8766 7326 8767 8579 8768 8769 
943 944 1169 1168 968 969 1194 1193 7144 8584 8585 8574 7331 8771 8772 8764 7322 7329 8770 8763 8766 8773 7333 8774 8589 8775 8776 
944 945 1170 1169 969 970 1195 1194 7154 8594 8595 8584 7338 8778 8779 8771 7329 7336 8777 8770 8773 8780 7340 8781 8599 8782 8783 
945 946 1171 1170 970 971 1196 1195 7164 8604 8605 8594 7345 8785 8786 8778 7336 7343 8784 8777 8780 8787 7347 8788 8609 8789 8790 
946 947 1172 1171 971 972 1197 1196 7174 8614 8615 8604 7352 8792 8793 8785 7343 7350 8791 8784 8787 8794 7354 8795 8619 8796 8797 
947 948 1173 1172 972 973 1198 1197 7184 8624 8625 8614 7359 8799 8800 8792 7350 7357 8798 8791 8794 8801 7361 8802 8629 8803 8804 
948 949 1174 1173 973 974 1199 1198 7194 8634 8635 8624 7366 8806 8807 8799 7357 7364 8805 8798 8801 8808 7368 8809 8639 8810 8811 
950 951 1176 1175 975 976 1201 1200 7203 8643 8644 8645 7374 8814 8815 8816 7372 7371 8812 8813 8819 8817 7377 8818 8649 8820 8821 
951 952 1177 1176 976 977 1202 1201 7212 8652 8653 8643 7383 8823 8824 8814 7371 7381 8822 8812 8817 8825 7385 8826 8656 8827 8828 
952 953 1178 1177 977 978 1203 1202 7219 8659 8660 8652 7390 8830 8831 8823 7381 7388 8829 8822 8825 8832 7392 8833 8663 8834 8835 
953 954 1179 1178 978 979 1204 1203 7226 8666 8667 8659 7397 8837 8838 8830 7388 7395 8836 8829 8832 8839 7399 8840 8670 8841 8842 
954 955 1180 1179 979 980 1205 1204 7233 8673 8674 8666 7404 8844 8845 8837 7395 7402 8843 8836 8839 8846 7406 8847 8677 8848 8849 
955 956 1181 1180 980 981 1206 1205 7240 8680 8681 8673 7411 8851 8852 8844 7402 7409 8850 8843 8846 8853 7413 8854 8684 8855 8856 
956 957 1182 1181 981 982 1207 1206 7247 8687 8688 8680 7418 8858 8859 8851 7409 7416 8857 8850 8853 8860 7420 8861 8691 8862 8863 
957 958 1183 1182 982 983 1208 1207 7254 8694 8695 8687 7425 8865 8866 8858 7416 7423 8864 8857 8860 8867 7427 8868 8698 8869 8870 
958 959 1184 1183 983 984 1209 1208 7261 8701 8702 8694 7432 8872 8873 8865 7423 7430 8871 8864 8867 8874 7434 8875 8705 8876 8877 
959 960 1185 1184 984 985 1210 1209 7268 8708 8709 8701 7439 8879 8880 8872 7430 7437 8878 8871 8874 8881 7441 8882 8712 8883 8884 
960 961 1186 1185 985 986 1211 1210 7275 8715 8716 8708 7446 8886 8887 8879 7437 7444 8885 8878 8881 8888 7448 8889 8719 8890 8891 
961 962 1187 1186 986 987 1212 1211 7282 8722 8723 8715 7453 8893 8894 8886 7444 7451 8892 8885 8888 8895 7455 8896 8726 8897 8898 
962 963 1188 1187 987 988 1213 1212 7289 8729 8730 8722 7460 8900 8901 8893 7451 7458 8899 8892 8895 8902 7462 8903 8733 8904 8905 
963 964 1189 1188 988 989 1214 1213 7296 8736 8737 8729 7467 8907 8908 8900 7458 7465 8906 8899 8902 8909 7469 8910 8740 8911 8912 
964 965 1190 1189 989 990 1215 1214 7303 8743 8744 8736 7474 8914 8915 8907 7465 7472 8913 8906 8909 8916 7476 8917 8747 8918 8919 
965 966 1191 1190 990 991 1216 1215 7310 8750 8751 8743 7481 8921 8922 8914 7472 7479 8920 8913 8916 8923 7483 8924 8754 8925 8926 
966 967 1192 1191 991 992 1217 1216 7317 8757 8758 8750 7488 8928 8929 8921 7479 7486 8927 8920 8923 8930 7490 8931 8761 8932 8933 
967 968 1193 1192 992 993 1218 1217 7324 8764 8765 8757 7495 8935 8936 8928 7486 7493 8934 8927 8930 8937 7497 8938 8768 8939 8940 
968 969 1194 1193 993 994 1219 1218 7331 8771 8772 8764 7502 8942 8943 8935 7493 7500 8941 8934 8937 8944 7504 8945 8775 8946 8947 
969 970 1195 1194 994 995 1220 1219 7338 8778 8779 8771 7509 8949 8950 8942 7500 7507 8948 8941 8944 8951 7511 8952 8782 8953 8954 
970 971 1196 1195 995 996 1221 1220 7345 8785 8786 8778 7516 8956 8957 8949 7507 7514 8955 8948 8951 8958 7518 8959 8789 8960 8961 
971 972 1197 1196 996 997 1222 1221 7352 8792 8793 8785 7523 8963 8964 8956 7514 7521 8962 8955 8958 8965 7525 8966 8796 8967 8968 
972 973 1198 1197 997 998 1223 1222 7359 8799 8800 8792 7530 8970 8971 8963 7521 7528 8969 8962 8965 8972 7532 8973 8803 8974 8975 
973 974 1199 1198 998 999 1224 1223 7366 8806 8807 8799 7537 8977 8978 8970 7528 7535 8976 8969 8972 8979 7539 8980 8810 8981 8982 
975 976 1201 1200 1000 1001 1226 1225 7374 8814 8815 8816 7545 8985 8986 8987 7543 7542 8983 8984 8990 8988 7548 8989 8820 8991 8992 
976 977 1202 1201 1001 1002 1227 1226 7383 8823 8824 8814 7554 8994 8995 8985 7542 7552 8993 8983 8988 8996 7556 8997 8827 8998 8999 
977 978 1203 1202 1002 1003 1228 1227 7390 8830 8831 8823 7561 9001 9002 8994 7552 7559 9000 8993 8996 9003 7563 9004 8834 9005 9006 
978 979 1204 1203 1003 1004 1229 1228 7397 8837 8838 8830 7568 9008 9009 9001 7559 7566 9007 9000 9003 9010 7570 9011 8841 9012 9013 
979 980 1205 1204 1004 1005 1230 1229 7404 8844 8845 8837 7575 9015 9016 9008 7566 7573 9014 9007 9010 9017 7577 9018 8848 9019 9020 
980 981 1206 1205 1005 1006 1231 1230 7411 8851 8852 8844 7582 9022 9023 9015 7573 7580 9021 9014 9017 9024 7584 9025 8855 9026 9027 
981 982 1207 1206 1006 1007 1232 1231 7418 8858 8859 8851 7589 9029 9030 9022 7580 7587 9028 9021 9024 9031 7591 9032 8862 9033 9034 
982 983 1208 1207 1007 1008 1233 1232 7425 8865 8866 8858 7596 9036 9037 9029 7587 7594 9035 9028 9031 9038 7598 9039 8869 9040 9041 
983 984 1209 1208 1008 1009 1234 1233 7432 8872 8873 8865 7603 9043 9044 9036 7594 7601 9042 9035 9038 9045 7605 9046 8876 9047 9048 
984 985 1210 1209 1009 1010 1235 1234 7439 8879 8880 8872 7610 9050 9051 9043 7601 7608 9049 9042 9045 9052 7612 9053 8883 9054 9055 
985 986 1211 1210 1010 1011 1236 1235 7446 8886 8887 8879 7617 9057 9058 9050 7608 7615 9056 9049 9052 9059 7619 9060 8890 9061 9062 
986 987 1212 1211 1011 1012 1237 1236 7453 8893 8894 8886 7624 9064 9065 9057 7615 7622 9063 9056 9059 9066 7626 9067 8897 9068 9069 
987 988 1213 1212 1012 1013 1238 1237 7460 8900 8901 8893 7631 9071 9072 9064 7622 7629 9070 9063 9066 9073 7633 9074 8904 9075 9076 
988 989 1214 1213 1013 1014 1239 1238 7467 8907 8908 8900 7638 9078 9079 9071 7629 7636 9077 9070 9073 9080 7640 9081 8911 9082 9083 
989 990 1215 1214 1014 1015 1240 1239 7474 8914 8915 8907 7645 9085 9086 9078 7636 7643 9084 9077 9080 9087 7647 9088 8918 9089 9090 
990 991 1216 1215 1015 1016 1241 1240 7481 8921 8922 8914 7652 9092 9093 9085 7643 7650 9091 9084 9087 9094 7654 9095 8925 9096 9097 
991 992 1217 1216 1016 1017 1242 1241 7488 8928 8929 8921 7659 9099 9100 9092 7650 7657 9098 9091 9094 9101 7661 9102 8932 9103 9104 
992 993 1218 1217 1017 1018 1243 1242 7495 8935 8936 8928 7666 9106 9107 9099 7657 7664 9105 9098 9101 9108 7668 9109 8939 9110 9111 
993 994 1219 1218 1018 1019 1244 1243 7502 8942 8943 8935 7673 9113 9114 9106 7664 7671 9112 9105 9108 9115 7675 9116 8946 9117 9118 
994 995 1220 1219 1019 1020 1245 1244 7509 8949 8950 8942 7680 9120 9121 9113 7671 7678 9119 9112 9115 9122 7682 9123 8953 9124 9125 
995 996 1221 1220 1020 1021 1246 1245 7516 8956 8957 8949 7687 9127 9128 9120 7678 7685 9126 9119 9122 9129 7689 9130 8960 9131 9132 
996 997 1222 1221 1021 1022 1247 1246 7523 8963 8964 8956 7694 9134 9135 9127 7685 7692 9133 9126 9129 9136 7696 9137 8967 9138 9139 
997 998 1223 1222 1022 1023 1248 1247 7530 8970 8971 8963 7701 9141 9142 9134 7692 7699 9140 9133 9136 9143 7703 9144 8974 9145 9146 
998 999 1224 1223 1023 1024 1249 1248 7537 8977 8978 8970 7708 9148 9149 9141 7699 7706 9147 9140 9143 9150 7710 9151 8981 9152 9153 
1000 1001 1226 1225 1025 1026 1251 1250 7545 8985 8986 8987 7716 9156 9157 9158 7714 7713 9154 9155 9161 9159 7719 9160 8991 9162 9163 
1001 1002 1227 1226 1026 1027 1252 1251 7554 8994 8995 8985 7725 9165 9166 9156 7713 7723 9164 9154 9159 9167 7727 9168 8998 9169 9170 
1002 1003 1228 1227 1027 1028 1253 1252 7561 9001 9002 8994 7732 9172 9173 9165 7723 7730 9171 9164 9167 9174 7734 9175 9005 9176 9177 
1003 1004 1229 1228 1028 1029 1254 1253 7568 9008 9009 9001 7739 9179 9180 9172 7730 7737 9178 9171 9174 9181 7741 9182 9012 9183 9184 
1004 1005 1230 1229 1029 1030 1255 1254 7575 9015 9016 9008 7746 9186 9187 9179 7737 7744 9185 9178 9181 9188 7748 9189 9019 9190 9191 
1005 1006 1231 1230 1030 1031 1256 1255 7582 9022 9023 9015 7753 9193 9194 9186 7744 7751 9192 9185 9188 9195 7755 9196 9026 9197 9198 
1006 1007 1232 1231 1031 1032 1257 1256 7589 9029 9030 9022 7760 9200 9201 9193 7751 7758 9199 9192 9195 9202 7762 9203 9033 9204 9205 
1007 1008 1233 1232 1032 1033 1258 1257 7596 9036 9037 9029 7767 9207 9208 9200 7758 7765 9206 9199 9202 9209 7769 9210 9040 9211 9212 
1008 1009 1234 1233 1033 1034 1259 1258 7603 9043 9044 9036 7774 9214 9215 9207 7765 7772 9213 9206 9209 9216 7776 9217 9047 9218 9219 
1009 1010 1235 1234 1034 1035 1260 1259 7610 9050 9051 9043 7781 9221 9222 9214 7772 7779 9220 9213 9216 9223 7783 9224 9054 9225 9226 
1010 1011 1236 1235 1035 1036 1261 1260 7617 9057 9058 9050 7788 9228 9229 9221 7779 7786 9227 9220 9223 9230 7790 9231 9061 9232 9233 
1011 1012 1237 1236 1036 1037 1262 1261 7624 9064 9065 9057 7795 9235 9236 9228 7786 7793 9234 9227 9230 9237 7797 9238 9068 9239 9240 
1012 1013 1238 1237 1037 1038 1263 1262 7631 9071 9072 9064 7802 9242 9243 9235 7793 7800 9241 9234 9237 9244 7804 9245 9075 9246 9247 
1013 1014 1239 1238 1038 1039 1264 1263 7638 9078 9079 9071 7809 9249 9250 9242 7800 7807 9248 9241 9244 9251 7811 9252 9082 9253 9254 
1014 1015 1240 1239 1039 1040 1265 1264 7645 9085 9086 9078 7816 9256 9257 9249 7807 7814 9255 9248 9251 9258 7818 9259 9089 9260 9261 
1015 1016 1241 1240 1040 1041 1266 1265 7652 9092 9093 9085 7823 9263 9264 9256 7814 7821 9262 9255 9258 9265 7825 9266 9096 9267 9268 
1016 1017 1242 1241 1041 1042 1267 1266 7659 9099 9100 9092 7830 9270 9271 9263 7821 7828 9269 9262 9265 9272 7832 9273 9103 9274 9275 
1017 1018 1243 1242 1042 1043 1268 1267 7666 9106 9107 9099 7837 9277 9278 9270 7828 7835 9276 9269 9272 9279 7839 9280 9110 9281 9282 
1018 1019 1244 1243 1043 1044 1269 1268 7673 9113 9114 9106 7844 9284 9285 9277 7835 7842 9283 9276 9279 9286 7846 9287 9117 9288 9289 
1019 1020 1245 1244 1044 1045 1270 1269 7680 9120 9121 9113 7851 9291 9292 9284 7842 7849 9290 9283 9286 9293 7853 9294 9124 9295 9296 
1020 1021 1246 1245 1045 1046 1271 1270 7687 9127 9128 9120 7858 9298 9299 9291 7849 7856 9297 9290 9293 9300 7860 9301 9131 9302 9303 
1021 1022 1247 1246 1046 1047 1272 1271 7694 9134 9135 9127 7865 9305 9306 9298 7856 7863 9304 9297 9300 9307 7867 9308 9138 9309 9310 
1022 1023 1248 1247 1047 1048 1273 1272 7701 9141 9142 9134 7872 9312 9313 9305 7863 7870 9311 9304 9307 9314 7874 9315 9145 9316 9317 
1023 1024 1249 1248 1048 1049 1274 1273 7708 9148 9149 9141 7879 9319 9320 9312 7870 7877 9318 9311 9314 9321 7881 9322 9152 9323 9324 
1025 1026 1251 1250 1050 1051 1276 1275 7716 9156 9157 9158 7887 9327 9328 9329 7885 7884 9325 9326 9332 9330 7890 9331 9162 9333 9334 
1026 1027 1252 1251 1051 1052 1277 1276 7725 9165 9166 9156 7896 9336 9337 9327 7884 7894 9335 9325 9330 9338 7898 9339 9169 9340 9341 
1027 1028 1253 1252 1052 1053 1278 1277 7732 9172 9173 9165 7903 9343 9344 9336 7894 7901 9342 9335 9338 9345 7905 9346 9176 9347 9348 
1028 1029 1254 1253 1053 1054 1279 1278 7739 9179 9180 9172 7910 9350 9351 9343 7901 7908 9349 9342 9345 9352 7912 9353 9183 9354 9355 
1029 1030 1255 1254 1054 1055 1280 1279 7746 9186 9187 9179 7917 9357 9358 9350 7908 7915 9356 9349 9352 9359 7919 9360 9190 9361 9362 
1030 1031 1256 1255 1055 1056 1281 1280 7753 9193 9194 9186 7924 9364 9365 9357 7915 7922 9363 9356 9359 9366 7926 9367 9197 9368 9369 
1031 1032 1257 1256 1056 1057 1282 1281 7760 9200 9201 9193 7931 9371 9372 9364 7922 7929 9370 9363 9366 9373 7933 9374 9204 9375 9376 
1032 1033 1258 1257 1057 1058 1283 1282 7767 9207 9208 9200 7938 9378 9379 9371 7929 7936 9377 9370 9373 9380 7940 9381 9211 9382 9383 
1033 1034 1259 1258 1058 1059 1284 1283 7774 9214 9215 9207 7945 9385 9386 9378 7936 7943 9384 9377 9380 9387 7947 9388 9218 9389 9390 
1034 1035 1260 1259 1059 1060 1285 1284 7781 9221 9222 9214 7952 9392 9393 9385 7943 7950 9391 9384 9387 9394 7954 9395 9225 9396 9397 
1035 1036 1261 1260 1060 1061 1286 1285 7788 9228 9229 9221 7959 9399 9400 9392 7950 7957 9398 9391 9394 9401 7961 9402 9232 9403 9404 
1036 1037 1262 1261 1061 1062 1287 1286 7795 9235 9236 9228 7966 9406 9407 9399 7957 7964 9405 9398 9401 9408 7968 9409 9239 9410 9411 
1037 1038 1263 1262 1062 1063 1288 1287 7802 9242 9243 9235 7973 9413 9414 9406 7964 7971 9412 9405 9408 9415 7975 9416 9246 9417 9418 
1038 1039 1264 1263 1063 1064 1289 1288 7809 9249 9250 9242 7980 9420 9421 9413 7971 7978 9419 9412 9415 9422 7982 9423 9253 9424 9425 
1039 1040 1265 1264 1064 1065 1290 1289 7816 9256 9257 9249 7987 9427 9428 9420 7978 7985 9426 9419 9422 9429 7989 9430 9260 9431 9432 
1040 1041 1266 1265 1065 1066 1291 1290 7823 9263 9264 9256 7994 9434 9435 9427 7985 7992 9433 9426 9429 9436 7996 9437 9267 9438 9439 
1041 1042 1267 1266 1066 1067 1292 1291 7830 9270 9271 9263 8001 9441 9442 9434 7992 7999 9440 9433 9436 9443 8003 9444 9274 9445 9446 
1042 1043 1268 1267 1067 1068 1293 1292 7837 9277 9278 9270 8008 9448 9449 9441 7999 8006 9447 9440 9443 9450 8010 9451 9281 9452 9453 
1043 1044 1269 1268 1068 1069 1294 1293 7844 9284 9285 9277 8015 9455 9456 9448 8006 8013 9454 9447 9450 9457 8017 9458 9288 9459 9460 
1044 1045 1270 1269 1069 1070 1295 1294 7851 9291 9292 9284 8022 9462 9463 9455 8013 8020 9461 9454 9457 9464 8024 9465 9295 9466 9467 
1045 1046 1271 1270 1070 1071 1296 1295 7858 9298 9299 9291 8029 9469 9470 9462 8020 8027 9468 9461 9464 9471 8031 9472 9302 9473 9474 
1046 1047 1272 1271 1071 1072 1297 1296 7865 9305 9306 9298 8036 9476 9477 9469 8027 8034 9475 9468 9471 9478 8038 9479 9309 9480 9481 
1047 1048 1273 1272 1072 1073 1298 1297 7872 9312 9313 9305 8043 9483 9484 9476 8034 8041 9482 9475 9478 9485 8045 9486 9316 9487 9488 
1048 1049 1274 1273 1073 1074 1299 1298 7879 9319 9320 9312 8050 9490 9491 9483 8041 8048 9489 9482 9485 9492 8052 9493 9323 9494 9495 
1050 1051 1276 1275 1075 1076 1301 1300 7887 9327 9328 9329 8058 9498 9499 9500 8056 8055 9496 9497 9503 9501 8061 9502 9333 9504 9505 
1051 1052 1277 1276 1076 1077 1302 1301 7896 9336 9337 9327 8067 9507 9508 9498 8055 8065 9506 9496 9501 9509 8069 9510 9340 9511 9512 
1052 1053 1278 1277 1077 1078 1303 1302 7903 9343 9344 9336 8074 9514 9515 9507 8065 8072 9513 9506 9509 9516 8076 9517 9347 9518 9519 
1053 1054 1279 1278 1078 1079 1304 1303 7910 9350 9351 9343 8081 9521 9522 9514 8072 8079 9520 9513 9516 9523 8083 9524 9354 9525 9526 
1054 1055 1280 1279 1079 1080 1305 1304 7917 9357 9358 9350 8088 9528 9529 9521 8079 8086 9527 9520 9523 9530 8090 9531 9361 9532 9533 
1055 1056 1281 1280 1080 1081 1306 1305 7924 9364 9365 9357 8095 9535 9536 9528 8086 8093 9534 9527 9530 9537 8097 9538 9368 9539 9540 
1056 1057 1282 1281 1081 1082 1307 1306 7931 9371 9372 9364 8102 9542 9543 9535 8093 8100 9541 9534 9537 9544 8104 9545 9375 9546 9547 
1057 1058 1283 1282 1082 1083 1308 1307 7938 9378 9379 9371 8109 9549 9550 9542 8100 8107 9548 9541 9544 9551 8111 9552 9382 9553 9554 
1058 1059 1284 1283 1083 1084 1309 1308 7945 9385 9386 9378 8116 9556 9557 9549 8107 8114 9555 9548 9551 9558 8118 9559 9389 9560 9561 
1059 1060 1285 1284 1084 1085 1310 1309 7952 9392 9393 9385 8123 9563 9564 9556 8114 8121 9562 9555 9558 9565 8125 9566 9396 9567 9568 
1060 1061 1286 1285 1085 1086 1311 1310 7959 9399 9400 9392 8130 9570 9571 9563 8121 8128 9569 9562 9565 9572 8132 9573 9403 9574 9575 
1061 1062 1287 1286 1086 1087 1312 1311 7966 9406 9407 9399 8137 9577 9578 9570 8128 8135 9576 9569 9572 9579 8139 9580 9410 9581 9582 
1062 1063 1288 1287 1087 1088 1313 1312 7973 9413 9414 9406 8144 9584 9585 9577 8135 8142 9583 9576 9579 9586 8146 9587 9417 9588 9589 
1063 1064 1289 1288 1088 1089 1314 1313 7980 9420 9421 9413 8151 9591 9592 9584 8142 8149 9590 9583 9586 9593 8153 9594 9424 9595 9596 
1064 1065 1290 1289 1089 1090 1315 1314 7987 9427 9428 9420 8158 9598 9599 9591 8149 8156 9597 9590 9593 9600 8160 9601 9431 9602 9603 
1065 1066 1291 1290 1090 1091 1316 1315 7994 9434 9435 9427 8165 9605 9606 9598 8156 8163 9604 9597 9600 9607 8167 9608 9438 9609 9610 
1066 1067 1292 1291 1091 1092 1317 1316 8001 9441 9442 9434 8172 9612 9613 9605 8163 8170 9611 9604 9607 9614 8174 9615 9445 9616 9617 
1067 1068 1293 1292 1092 1093 1318 1317 8008 9448 9449 9441 8179 9619 9620 9612 8170 8177 9618 9611 9614 9621 8181 9622 9452 9623 9624 
1068 1069 1294 1293 1093 1094 1319 1318 8015 9455 9456 9448 8186 9626 9627 9619 8177 8184 9625 9618 9621 9628 8188 9629 9459 9630 9631 
1069 1070 1295 1294 1094 1095 1320 1319 8022 9462 9463 9455 8193 9633 9634 9626 8184 8191 9632 9625 9628 9635 8195 9636 9466 9637 9638 
1070 1071 1296 1295 1095 1096 1321 1320 8029 9469 9470 9462 8200 9640 9641 9633 8191 8198 9639 9632 9635 9642 8202 9643 9473 9644 9645 
1071 1072 1297 1296 1096 1097 1322 1321 8036 9476 9477 9469 8207 9647 9648 9640 8198 8205 9646 9639 9642 9649 8209 9650 9480 9651 9652 
1072 1073 1298 1297 1097 1098 1323 1322 8043 9483 9484 9476 8214 9654 9655 9647 8205 8212 9653 9646 9649 9656 8216 9657 9487 9658 9659 
1073 1074 1299 1298 1098 1099 1324 1323 8050 9490 9491 9483 8221 9661 9662 9654 8212 8219 9660 9653 9656 9663 8223 9664 9494 9665 9666 
1075 1076 1301 1300 1100 1101 1326 1325 8058 9498 9499 9500 8229 9669 9670 9671 8227 8226 9667 9668 9674 9672 8232 9673 9504 9675 9676 
1076 1077 1302 1301 1101 1102 1327 1326 8067 9507 9508 9498 8238 9678 9679 9669 8226 8236 9677 9667 9672 9680 8240 9681 9511 9682 9683 
1077 1078 1303 1302 1102 1103 1328 1327 8074 9514 9515 9507 8245 9685 9686 9678 8236 8243 9684 9677 9680 9687 8247 9688 9518 9689 9690 
1078 1079 1304 1303 1103 1104 1329 1328 8081 9521 9522 9514 8252 9692 9693 9685 8243 8250 9691 9684 9687 9694 8254 9695 9525 9696 9697 
1079 1080 1305 1304 1104 1105 1330 1329 8088 9528 9529 9521 8259 9699 9700 9692 8250 8257 9698 9691 9694 9701 8261 9702 9532 9703 9704 
1080 1081 1306 1305 1105 1106 1331 1330 8095 9535 9536 9528 8266 9706 9707 9699 8257 8264 9705 9698 9701 9708 8268 9709 9539 9710 9711 
1081 1082 1307 1306 1106 1107 1332 1331 8102 9542 9543 9535 8273 9713 9714 9706 8264 8271 9712 9705 9708 9715 8275 9716 9546 9717 9718 
1082 1083 1308 1307 1107 1108 1333 1332 8109 9549 9550 9542 8280 9720 9721 9713 8271 8278 9719 9712 9715 9722 8282 9723 9553 9724 9725 
1083 1084 1309 1308 1108 1109 1334 1333 8116 9556 9557 9549 8287 9727 9728 9720 8278 8285 9726 9719 9722 9729 8289 9730 9560 9731 9732 
1084 1085 1310 1309 1109 1110 1335 1334 8123 9563 9564 9556 8294 9734 9735 9727 8285 8292 9733 9726 9729 9736 8296 9737 9567 9738 9739 
1085 1086 1311 1310 1110 1111 1336 1335 8130 9570 9571 9563 8301 9741 9742 9734 8292 8299 9740 9733 9736 9743 8303 9744 9574 9745 9746 
1086 1087 1312 1311 1111 1112 1337 1336 8137 9577 9578 9570 8308 9748 9749 9741 8299 8306 9747 9740 9743 9750 8310 9751 9581 9752 9753 
1087 1088 1313 1312 1112 1113 1338 1337 8144 9584 9585 9577 8315 9755 9756 9748 8306 8313 9754 9747 9750 9757 8317 9758 9588 9759 9760 
1088 1089 1314 1313 1113 1114 1339 1338 8151 9591 9592 9584 8322 9762 9763 9755 8313 8320 9761 9754 9757 9764 8324 9765 9595 9766 9767 
1089 1090 1315 1314 1114 1115 1340 1339 8158 9598 9599 9591 8329 9769 9770 9762 8320 8327 9768 9761 9764 9771 8331 9772 9602 9773 9774 
1090 1091 1316 1315 1115 1116 1341 1340 8165 9605 9606 9598 8336 9776 9777 9769 8327 8334 9775 9768 9771 9778 8338 9779 9609 9780 9781 
1091 1092 1317 1316 1116 1117 1342 1341 8172 9612 9613 9605 8343 9783 9784 9776 8334 8341 9782 9775 9778 9785 8345 9786 9616 9787 9788 
1092 1093 1318 1317 1117 1118 1343 1342 8179 9619 9620 9612 8350 9790 9791 9783 8341 8348 9789 9782 9785 9792 8352 9793 9623 9794 9795 
1093 1094 1319 1318 1118 1119 1344 1343 8186 9626 9627 9619 8357 9797 9798 9790 8348 8355 9796 9789 9792 9799 8359 9800 9630 9801 9802 
1094 1095 1320 1319 1119 1120 1345 1344 8193 9633 9634 9626 8364 9804 9805 9797 8355 8362 9803 9796 9799 9806 8366 9807 9637 9808 9809 
1095 1096 1321 1320 1120 1121 1346 1345 8200 9640 9641 9633 8371 9811 9812 9804 8362 8369 9810 9803 9806 9813 8373 9814 9644 9815 9816 
1096 1097 1322 1321 1121 1122 1347 1346 8207 9647 9648 9640 8378 9818 9819 9811 8369 8376 9817 9810 9813 9820 8380 9821 9651 9822 9823 
1097 1098 1323 1322 1122 1123 1348 1347 8214 9654 9655 9647 8385 9825 9826 9818 8376 8383 9824 9817 9820 9827 8387 9828 9658 9829 9830 
1098 1099 1324 1323 1123 1124 1349 1348 8221 9661 9662 9654 8392 9832 9833 9825 8383 8390 9831 9824 9827 9834 8394 9835 9665 9836 9837 
1125 1126 1351 1350 1150 1151 1376 1375 8398 9838 9839 9840 8403 9843 9844 9845 8401 8400 9841 9842 9849 9847 8407 9848 9846 9850 9851 
1126 1127 1352 1351 1151 1152 1377 1376 8412 9852 9853 9838 8415 9855 9856 9843 8400 8413 9854 9841 9847 9858 8418 9859 9857 9860 9861 
1127 1128 1353 1352 1152 1153 1378 1377 8422 9862 9863 9852 8425 9865 9866 9855 8413 8423 9864 9854 9858 9868 8428 9869 9867 9870 9871 
1128 1129 1354 1353 1153 1154 1379 1378 8432 9872 9873 9862 8435 9875 9876 9865 8423 8433 9874 9864 9868 9878 8438 9879 9877 9880 9881 
1129 1130 1355 1354 1154 1155 1380 1379 8442 9882 9883 9872 8445 9885 9886 9875 8433 8443 9884 9874 9878 9888 8448 9889 9887 9890 9891 
1130 1131 1356 1355 1155 1156 1381 1380 8452 9892 9893 9882 8455 9895 9896 9885 8443 8453 9894 9884 9888 9898 8458 9899 9897 9900 9901 
1131 1132 1357 1356 1156 1157 1382 1381 8462 9902 9903 9892 8465 9905 9906 9895 8453 8463 9904 9894 9898 9908 8468 9909 9907 9910 9911 
1132 1133 1358 1357 1157 1158 1383 1382 8472 9912 9913 9902 8475 9915 9916 9905 8463 8473 9914 9904 9908 9918 8478 9919 9917 9920 9921 
1133 1134 1359 1358 1158 1159 1384 1383 8482 9922 9923 9912 8485 9925 9926 9915 8473 8483 9924 9914 9918 9928 8488 9929 9927 9930 9931 
1134 1135 1360 1359 1159 1160 1385 1384 8492 9932 9933 9922 8495 9935 9936 9925 8483 8493 9934 9924 9928 9938 8498 9939 9937 9940 9941 
1135 1136 1361 1360 1160 1161 1386 1385 8502 9942 9943 9932 8505 9945 9946 9935 8493 8503 9944 9934 9938 9948 8508 9949 9947 9950 9951 
1136 1137 1362 1361 1161 1162 1387 1386 8512 9952 9953 9942 8515 9955 9956 9945 8503 8513 9954 9944 9948 9958 8518 9959 9957 9960 9961 
1137 1138 1363 1362 1162 1163 1388 1387 8522 9962 9963 9952 8525 9965 9966 9955 8513 8523 9964 9954 9958 9968 8528 9969 9967 9970 9971 
1138 1139 1364 1363 1163 1164 1389 1388 8532 9972 9973 9962 8535 9975 9976 9965 8523 8533 9974 9964 9968 9978 8538 9979 9977 9980 9981 
1139 1140 1365 1364 1164 1165 1390 1389 8542 9982 9983 9972 8545 9985 9986 9975 8533 8543 9984 9974 9978 9988 8548 9989 9987 9990 9991 
1140 1141 1366 1365 1165 1166 1391 1390 8552 9992 9993 9982 8555 9995 9996 9985 8543 8553 9994 9984 9988 9998 8558 9999 9997 10000 10001 
1141 1142 1367 1366 1166 1167 1392 1391 8562 10002 10003 9992 8565 10005 10006 9995 8553 8563 10004 9994 9998 10008 8568 10009 10007 10010 10011 
1142 1143 1368 1367 1167 1168 1393 1392 8572 10012 10013 10002 8575 10015 10016 10005 8563 8573 10014 10004 10008 10018 8578 10019 10017 10020 10021 
1143 1144 1369 1368 1168 1169 1394 1393 8582 10022 10023 10012 8585 10025 10026 10015 8573 8583 10024 10014 10018 10028 8588 10029 10027 10030 10031 
1144 1145 1370 1369 1169 1170 1395 1394 8592 10032 10033 10022 8595 10035 10036 10025 8583 8593 10034 10024 10028 10038 8598 10039 10037 10040 10041 
1145 1146 1371 1370 1170 1171 1396 1395 8602 10042 10043 10032 8605 10045 10046 10035 8593 8603 10044 10034 10038 10048 8608 10049 10047 10050 10051 
1146 1147 1372 1371 1171 1172 1397 1396 8612 10052 10053 10042 8615 10055 10056 10045 8603 8613 10054 10044 10048 10058 8618 10059 10057 10060 10061 
1147 1148 1373 1372 1172 1173 1398 1397 8622 10062 10063 10052 8625 10065 10066 10055 8613 8623 10064 10054 10058 10068 8628 10069 10067 10070 10071 
1148 1149 1374 1373 1173 1174 1399 1398 8632 10072 10073 10062 8635 10075 10076 10065 8623 8633 10074 10064 10068 10078 8638 10079 10077 10080 10081 
1150 1151 1376 1375 1175 1176 1401 1400 8403 9843 9844 9845 8644 10084 10085 10086 8642 8641 10082 10083 10089 10087 8647 10088 9850 10090 10091 
1151 1152 1377 1376 1176 1177 1402 1401 8415 9855 9856 9843 8653 10093 10094 10084 8641 8651 10092 10082 10087 10095 8655 10096 9860 10097 10098 
1152 1153 1378 1377 1177 1178 1403 1402 8425 9865 9866 9855 8660 10100 10101 10093 8651 8658 10099 10092 10095 10102 8662 10103 9870 10104 10105 
1153 1154 1379 1378 1178 1179 1404 1403 8435 9875 9876 9865 8667 10107 10108 10100 8658 8665 10106 10099 10102 10109 8669 10110 9880 10111 10112 
1154 1155 1380 1379 1179 1180 1405 1404 8445 9885 9886 9875 8674 10114 10115 10107 8665 8672 10113 10106 10109 10116 8676 10117 9890 10118 10119 
1155 1156 1381 1380 1180 1181 1406 1405 8455 9895 9896 9885 8681 10121 10122 10114 8672 8679 10120 10113 10116 10123 8683 10124 9900 10125 10126 
1156 1157 1382 1381 1181 1182 1407 1406 8465 9905 9906 9895 8688 10128 10129 10121 8679 8686 10127 10120 10123 10130 8690 10131 9910 10132 10133 
1157 1158 1383 1382 1182 1183 1408 1407 8475 9915 9916 9905 8695 10135 10136 10128 8686 8693 10134 10127 10130 10137 8697 10138 9920 10139 10140 
1158 1159 1384 1383 1183 1184 1409 1408 8485 9925 9926 9915 8702 10142 10143 10135 8693 8700 10141 10134 10137 10144 8704 10145 9930 10146 10147 
1159 1160 1385 1384 1184 1185 1410 1409 8495 9935 9936 9925 8709 10149 10150 10142 8700 8707 10148 10141 10144 10151 8711 10152 9940 10153 10154 
1160 1161 1386 1385 1185 1186 1411 1410 8505 9945 9946 9935 8716 10156 10157 10149 8707 8714 10155 10148 10151 10158 8718 10159 9950 10160 10161 
1161 1162 1387 1386 1186 1187 1412 1411 8515 9955 9956 9945 8723 10163 10164 10156 8714 8721 10162 10155 10158 10165 8725 10166 9960 10167 10168 
1162 1163 1388 1387 1187 1188 1413 1412 8525 9965 9966 9955 8730 10170 10171 10163 8721 8728 10169 10162 10165 10172 8732 10173 9970 10174 10175 
1163 1164 1389 1388 1188 1189 1414 1413 8535 9975 9976 9965 8737 10177 10178 10170 8728 8735 10176 10169 10172 10179 8739 10180 9980 10181 10182 
1164 1165 1390 1389 1189 1190 1415 1414 8545 9985 9986 9975 8744 10184 10185 10177 8735 8742 10183 10176 10179 10186 8746 10187 9990 10188 10189 
1165 1166 1391 1390 1190 1191 1416 1415 8555 9995 9996 9985 8751 10191 10192 10184 8742 8749 10190 10183 10186 10193 8753 10194 10000 10195 10196 
1166 1167 1392 1391 1191 1192 1417 1416 8565 10005 10006 9995 8758 10198 10199 10191 8749 8756 10197 10190 10193 10200 8760 10201 10010 10202 10203 
1167 1168 1393 1392 1192 1193 1418 1417 8575 10015 10016 10005 8765 10205 10206 10198 8756 8763 10204 10197 10200 10207 8767 10208 10020 10209 10210 
1168 1169 1394 1393 1193 1194 1419 1418 8585 10025 10026 10015 8772 10212 10213 10205 8763 8770 10211 10204 10207 10214 8774 10215 10030 10216 10217 
1169 1170 1395 1394 1194 1195 1420 1419 8595 10035 10036 10025 8779 10219 10220 10212 8770 8777 10218 10211 10214 10221 8781 10222 10040 10223 10224 
1170 1171 1396 1395 1195 1196 1421 1420 8605 10045 10046 10035 8786 10226 10227 10219 8777 8784 10225 10218 10221 10228 8788 10229 10050 10230 10231 
1171 1172 1397 1396 1196 1197 1422 1421 8615 10055 10056 10045 8793 10233 10234 10226 8784 8791 10232 10225 10228 10235 8795 10236 10060 10237 10238 
1172 1173 1398 1397 1197 1198 1423 1422 8625 10065 10066 10055 8800 10240 10241 10233 8791 8798 10239 10232 10235 10242 8802 10243 10070 10244 10245 
1173 1174 1399 1398 1198 1199 1424 1423 8635 10075 10076 10065 8807 10247 10248 10240 8798 8805 10246 10239 10242 10249 8809 10250 10080 10251 10252 
1175 1176 1401 1400 1200 1201 1426 1425 8644 10084 10085 10086 8815 10255 10256 10257 8813 8812 10253 10254 10260 10258 8818 10259 10090 10261 10262 
1176 1177 1402 1401 1201 1202 1427 1426 8653 10093 10094 10084 8824 10264 10265 10255 8812 8822 10263 10253 10258 10266 8826 10267 10097 10268 10269 
1177 1178 1403 1402 1202 1203 1428 1427 8660 10100 10101 10093 8831 10271 10272 10264 8822 8829 10270 10263 10266 10273 8833 10274 10104 10275 10276 
1178 1179 1404 1403 1203 1204 1429 1428 8667 10107 10108 10100 8838 10278 10279 10271 8829 8836 10277 10270 10273 10280 8840 10281 10111 10282 10283 
1179 1180 1405 1404 1204 1205 1430 1429 8674 10114 10115 10107 8845 10285 10286 10278 8836 8843 10284 10277 10280 10287 8847 10288 10118 10289 10290 
1180 1181 1406 1405 1205 1206 1431 1430 8681 10121 10122 10114 8852 10292 10293 10285 8843 8850 10291 10284 10287 10294 8854 10295 10125 10296 10297 
1181 1182 1407 1406 1206 1207 1432 1431 8688 10128 10129 10121 8859 10299 10300 10292 8850 8857 10298 10291 10294 10301 8861 10302 10132 10303 10304 
1182 1183 1408 1407 1207 1208 1433 1432 8695 10135 10136 10128 8866 10306 10307 10299 8857 8864 10305 10298 10301 10308 8868 10309 10139 10310 10311 
1183 1184 1409 1408 1208 1209 1434 1433 8702 10142 10143 10135 8873 10313 10314 10306 8864 8871 10312 10305 10308 10315 8875 10316 10146 10317 10318 
1184 1185 1410 1409 1209 1210 1435 1434 8709 10149 10150 10142 8880 10320 10321 10313 8871 8878 10319 10312 10315 10322 8882 10323 10153 10324 10325 
1185 1186 1411 1410 1210 1211 1436 1435 8716 10156 10157 10149 8887 10327 10328 10320 8878 8885 10326 10319 10322 10329 8889 10330 10160 10331 10332 
1186 1187 1412 1411 1211 1212 1437 1436 8723 10163 10164 10156 8894 10334 10335 10327 8885 8892 10333 10326 10329 10336 8896 10337 10167 10338 10339 
1187 1188 1413 1412 1212 1213 1438 1437 8730 10170 10171 10163 8901 10341 10342 10334 8892 8899 10340 10333 10336 10343 8903 10344 10174 10345 10346 
1188 1189 1414 1413 1213 1214 1439 1438 8737 10177 10178 10170 8908 10348 10349 10341 8899 8906 10347 10340 10343 10350 8910 10351 10181 10352 10353 
1189 1190 1415 1414 1214 1215 1440 1439 8744 10184 10185 10177 8915 10355 10356 10348 8906 8913 10354 10347 10350 10357 8917 10358 10188 10359 10360 
1190 1191 1416 1415 1215 1216 1441 1440 8751 10191 10192 10184 8922 10362 10363 10355 8913 8920 10361 10354 10357 10364 8924 10365 10195 10366 10367 
1191 1192 1417 1416 1216 1217 1442 1441 8758 10198 10199 10191 8929 10369 10370 10362 8920 8927 10368 10361 10364 10371 8931 10372 10202 10373 10374 
1192 1193 1418 1417 1217 1218 1443 1442 8765 10205 10206 10198 8936 10376 10377 10369 8927 8934 10375 10368 10371 10378 8938 10379 10209 10380 10381 
1193 1194 1419 1418 1218 1219 1444 1443 8772 10212 10213 10205 8943 10383 10384 10376 8934 8941 10382 10375 10378 10385 8945 10386 10216 10387 10388 
1194 1195 1420 1419 1219 1220 1445 1444 8779 10219 10220 10212 8950 10390 10391 10383 8941 8948 10389 10382 10385 10392 8952 10393 10223 10394 10395 
1195 1196 1421 1420 1220 1221 1446 1445 8786 10226 10227 10219 8957 10397 10398 10390 8948 8955 10396 10389 10392 10399 8959 10400 10230 10401 10402 
1196 1197 1422 1421 1221 1222 1447 1446 8793 10233 10234 10226 8964 10404 10405 10397 8955 8962 10403 10396 10399 10406 8966 10407 10237 10408 10409 
1197 1198 1423 1422 1222 1223 1448 1447 8800 10240 10241 10233 8971 10411 10412 10404 8962 8969 10410 10403 10406 10413 8973 10414 10244 10415 10416 
1198 1199 1424 1423 1223 1224 1449 1448 8807 10247 10248 10240 8978 10418 10419 10411 8969 8976 10417 10410 10413 10420 8980 10421 10251 10422 10423 
1200 1201 1426 1425 1225 1226 1451 1450 8815 10255 10256 10257 8986 10426 10427 10428 8984 8983 10424 10425 10431 10429 8989 10430 10261 10432 10433 
1201 1202 1427 1426 1226 1227 1452 1451 8824 10264 10265 10255 8995 10435 10436 10426 8983 8993 10434 10424 10429 10437 8997 10438 10268 10439 10440 
1202 1203 1428 1427 1227 1228 1453 1452 8831 10271 10272 10264 9002 10442 10443 10435 8993 9000 10441 10434 10437 10444 9004 10445 10275 10446 10447 
1203 1204 1429 1428 1228 1229 1454 1453 8838 10278 10279 10271 9009 10449 10450 10442 9000 9007 10448 10441 10444 10451 9011 10452 10282 10453 10454 
1204 1205 1430 1429 1229 1230 1455 1454 8845 10285 10286 10278 9016 10456 10457 10449 9007 9014 10455 10448 10451 10458 9018 10459 10289 10460 10461 
1205 1206 1431 1430 1230 1231 1456 1455 8852 10292 10293 10285 9023 10463 10464 10456 9014 9021 10462 10455 10458 10465 9025 10466 10296 10467 10468 
1206 1207 1432 1431 1231 1232 1457 1456 8859 10299 10300 10292 9030 10470 10471 10463 9021 9028 10469 10462 10465 10472 9032 10473 10303 10474 10475 
1207 1208 1433 1432 1232 1233 1458 1457 8866 10306 10307 10299 9037 10477 10478 10470 9028 9035 10476 10469 10472 10479 9039 10480 10310 10481 10482 
1208 1209 1434 1433 1233 1234 1459 1458 8873 10313 10314 10306 9044 10484 10485 10477 9035 9042 10483 10476 10479 10486 9046 10487 10317 10488 10489 
1209 1210 1435 1434 1234 1235 1460 1459 8880 10320 10321 10313 9051 10491 10492 10484 9042 9049 10490 10483 10486 10493 9053 10494 10324 10495 10496 
1210 1211 1436 1435 1235 1236 1461 1460 8887 10327 10328 10320 9058 10498 10499 10491 9049 9056 10497 10490 10493 10500 9060 10501 10331 10502 10503 
1211 1212 1437 1436 1236 1237 1462 1461 8894 10334 10335 10327 9065 10505 10506 10498 9056 9063 10504 10497 10500 10507 9067 10508 10338 10509 10510 
1212 1213 1438 1437 1237 1238 1463 1462 8901 10341 10342 10334 9072 10512 10513 10505 9063 9070 10511 10504 10507 10514 9074 10515 10345 10516 10517 
1213 1214 1439 1438 1238 1239 1464 1463 8908 10348 10349 10341 9079 10519 10520 10512 9070 9077 10518 10511 10514 10521 9081 10522 10352 10523 10524 
1214 1215 1440 1439 1239 1240 1465 1464 8915 10355 10356 10348 9086 10526 10527 10519 9077 9084 10525 10518 10521 10528 9088 10529 10359 10530 10531 
1215 1216 1441 1440 1240 1241 1466 1465 8922 10362 10363 10355 9093 10533 10534 10526 9084 9091 10532 10525 10528 10535 9095 10536 10366 10537 10538 
1216 1217 1442 1441 1241 1242 1467 1466 8929 10369 10370 10362 9100 10540 10541 10533 9091 9098 10539 10532 10535 10542 9102 10543 10373 10544 10545 
1217 1218 1443 1442 1242 1243 1468 1467 8936 10376 10377 10369 9107 10547 10548 10540 9098 9105 10546 10539 10542 10549 9109 10550 10380 10551 10552 
1218 1219 1444 1443 1243 1244 1469 1468 8943 10383 10384 10376 9114 10554 10555 10547 9105 9112 10553 10546 10549 10556 9116 10557 10387 10558 10559 
1219 1220 1445 1444 1244 1245 1470 1469 8950 10390 10391 10383 9121 10561 10562 10554 9112 9119 10560 10553 10556 10563 9123 10564 10394 10565 10566 
1220 1221 1446 1445 1245 1246 1471 1470 8957 10397 10398 10390 9128 10568 10569 10561 9119 9126 10567 10560 10563 10570 9130 10571 10401 10572 10573 
1221 1222 1447 1446 1246 1247 1472 1471 8964 10404 10405 10397 9135 10575 10576 10568 9126 9133 10574 10567 10570 10577 9137 10578 10408 10579 10580 
1222 1223 1448 1447 1247 1248 1473 1472 8971 10411 10412 10404 9142 10582 10583 10575 9133 9140 10581 10574 10577 10584 9144 10585 10415 10586 10587 
1223 1224 1449 1448 1248 1249 1474 1473 8978 10418 10419 10411 9149 10589 10590 10582 9140 9147 10588 10581 10584 10591 9151 10592 10422 10593 10594 
1225 1226 1451 1450 1250 1251 1476 1475 8986 10426 10427 10428 9157 10597 10598 10599 9155 9154 10595 10596 10602 10600 9160 10601 10432 10603 10604 
1226 1227 1452 1451 1251 1252 1477 1476 8995 10435 10436 10426 9166 10606 10607 10597 9154 9164 10605 10595 10600 10608 9168 10609 10439 10610 10611 
1227 1228 1453 1452 1252 1253 1478 1477 9002 10442 10443 10435 9173 10613 10614 10606 9164 9171 10612 10605 10608 10615 9175 10616 10446 10617 10618 
1228 1229 1454 1453 1253 1254 1479 1478 9009 10449 10450 10442 9180 10620 10621 10613 9171 9178 10619 10612 10615 10622 9182 10623 10453 10624 10625 
1229 1230 1455 1454 1254 1255 1480 1479 9016 10456 10457 10449 9187 10627 10628 10620 9178 9185 10626 10619 10622 10629 9189 10630 10460 10631 10632 
1230 1231 1456 1455 1255 1256 1481 1480 9023 10463 10464 10456 9194 10634 10635 10627 9185 9192 10633 10626 10629 10636 9196 10637 10467 10638 10639 
1231 1232 1457 1456 1256 1257 1482 1481 9030 10470 10471 10463 9201 10641 10642 10634 9192 9199 10640 10633 10636 10643 9203 10644 10474 10645 10646 
1232 1233 1458 1457 1257 1258 1483 1482 9037 10477 10478 10470 9208 10648 10649 10641 9199 9206 10647 10640 10643 10650 9210 10651 10481 10652 10653 
1233 1234 1459 1458 1258 1259 1484 1483 9044 10484 10485 10477 9215 10655 10656 10648 9206 9213 10654 10647 10650 10657 9217 10658 10488 10659 10660 
1234 1235 1460 1459 1259 1260 1485 1484 9051 10491 10492 10484 9222 10662 10663 10655 9213 9220 10661 10654 10657 10664 9224 10665 10495 10666 10667 
1235 1236 1461 1460 1260 1261 1486 1485 9058 10498 10499 10491 9229 10669 10670 10662 9220 9227 10668 10661 10664 10671 9231 10672 10502 10673 10674 
1236 1237 1462 1461 1261 1262 1487 1486 9065 10505 10506 10498 9236 10676 10677 10669 9227 9234 10675 10668 10671 10678 9238 10679 10509 10680 10681 
1237 1238 1463 1462 1262 1263 1488 1487 9072 10512 10513 10505 9243 10683 10684 10676 9234 9241 10682 10675 10678 10685 9245 10686 10516 10687 10688 
1238 1239 1464 1463 1263 1264 1489 1488 9079 10519 10520 10512 9250 10690 10691 10683 9241 9248 10689 10682 10685 10692 9252 10693 10523 10694 10695 
1239 1240 1465 1464 1264 1265 1490 1489 9086 10526 10527 10519 9257 10697 10698 10690 9248 9255 10696 10689 10692 10699 9259 10700 10530 10701 10702 
1240 1241 1466 1465 1265 1266 1491 1490 9093 10533 10534 10526 9264 10704 10705 10697 9255 9262 10703 10696 10699 10706 9266 10707 10537 10708 10709 
1241 1242 1467 1466 1266 1267 1492 1491 9100 10540 10541 10533 9271 10711 10712 10704 9262 9269 10710 10703 10706 10713 9273 10714 10544 10715 10716 
1242 1243 1468 1467 1267 1268 1493 1492 9107 10547 10548 10540 9278 10718 10719 10711 9269 9276 10717 10710 10713 10720 9280 10721 10551 10722 10723 
1243 1244 1469 1468 1268 1269 1494 1493 9114 10554 10555 10547 9285 10725 10726 10718 9276 9283 10724 10717 10720 10727 9287 10728 10558 10729 10730 
1244 1245 1470 1469 1269 1270 1495 1494 9121 10561 10562 10554 9292 10732 10733 10725 9283 9290 10731 10724 10727 10734 9294 10735 10565 10736 10737 
1245 1246 1471 1470 1270 1271 1496 1495 9128 10568 10569 10561 9299 10739 10740 10732 9290 9297 10738 10731 10734 10741 9301 10742 10572 10743 10744 
1246 1247 1472 1471 1271 1272 1497 1496 9135 10575 10576 10568 9306 10746 10747 10739 9297 9304 10745 10738 10741 10748 9308 10749 10579 10750 10751 
1247 1248 1473 1472 1272 1273 1498 1497 9142 10582 10583 10575 9313 10753 10754 10746 9304 9311 10752 10745 10748 10755 9315 10756 10586 10757 10758 
1248 1249 1474 1473 1273 1274 1499 1498 9149 10589 10590 10582 9320 10760 10761 10753 9311 9318 10759 10752 10755 10762 9322 10763 10593 10764 10765 
1250 1251 1476 1475 1275 1276 1501 1500 9157 10597 10598 10599 9328 10768 10769 10770 9326 9325 10766 10767 10773 10771 9331 10772 10603 10774 10775 
1251 1252 1477 1476 1276 1277 1502 1501 9166 10606 10607 10597 9337 10777 10778 10768 9325 9335 10776 10766 10771 10779 9339 10780 10610 10781 10782 
1252 1253 1478 1477 1277 1278 1503 1502 9173 10613 10614 10606 9344 10784 10785 10777 9335 9342 10783 10776 10779 10786 9346 10787 10617 10788 10789 
1253 1254 1479 1478 1278 1279 1504 1503 9180 10620 10621 10613 9351 10791 10792 10784 9342 9349 10790 10783 10786 10793 9353 10794 10624 10795 10796 
1254 1255 1480 1479 1279 1280 1505 1504 9187 10627 10628 10620 9358 10798 10799 10791 9349 9356 10797 10790 10793 10800 9360 10801 10631 10802 10803 
1255 1256 1481 1480 1280 1281 1506 1505 9194 10634 10635 10627 9365 10805 10806 10798 9356 9363 10804 10797 10800 10807 9367 10808 10638 10809 10810 
1256 1257 1482 1481 1281 1282 1507 1506 9201 10641 10642 10634 9372 10812 10813 10805 9363 9370 10811 10804 10807 10814 9374 10815 10645 10816 10817 
1257 1258 1483 1482 1282 1283 1508 1507 9208 10648 10649 10641 9379 10819 10820 10812 9370 9377 10818 10811 10814 10821 9381 10822 10652 10823 10824 
1258 1259 1484 1483 1283 1284 1509 1508 9215 10655 10656 10648 9386 10826 10827 10819 9377 9384 10825 10818 10821 10828 9388 10829 10659 10830 10831 
1259 1260 1485 1484 1284 1285 1510 1509 9222 10662 10663 10655 9393 10833 10834 10826 9384 9391 10832 10825 10828 10835 9395 10836 10666 10837 10838 
1260 1261 1486 1485 1285 1286 1511 1510 9229 10669 10670 10662 9400 10840 10841 10833 9391 9398 10839 10832 10835 10842 9402 10843 10673 10844 10845 
1261 1262 1487 1486 1286 1287 1512 1511 9236 10676 10677 10669 9407 10847 10848 10840 9398 9405 10846 10839 10842 10849 9409 10850 10680 10851 10852 
1262 1263 1488 1487 1287 1288 1513 1512 9243 10683 10684 10676 9414 10854 10855 10847 9405 9412 10853 10846 10849 10856 9416 10857 10687 10858 10859 
1263 1264 1489 1488 1288 1289 1514 1513 9250 10690 10691 10683 9421 10861 10862 10854 9412 9419 10860 10853 10856 10863 9423 10864 10694 10865 10866 
1264 1265 1490 1489 1289 1290 1515 1514 9257 10697 10698 10690 9428 10868 10869 10861 9419 9426 10867 10860 10863 10870 9430 10871 10701 10872 10873 
1265 1266 1491 1490 1290 1291 1516 1515 9264 10704 10705 10697 9435 10875 10876 10868 9426 9433 10874 10867 10870 10877 9437 10878 10708 10879 10880 
1266 1267 1492 1491 1291 1292 1517 1516 9271 10711 10712 10704 9442 10882 10883 10875 9433 9440 10881 10874 10877 10884 9444 10885 10715 10886 10887 
1267 1268 1493 1492 1292 1293 1518 1517 9278 10718 10719 10711 9449 10889 10890 10882 9440 9447 10888 10881 10884 10891 9451 10892 10722 10893 10894 
1268 1269 1494 1493 1293 1294 1519 1518 9285 10725 10726 10718 9456 10896 10897 10889 9447 9454 10895 10888 10891 10898 9458 10899 10729 10900 10901 
1269 1270 1495 1494 1294 1295 1520 1519 9292 10732 10733 10725 9463 10903 10904 10896 9454 9461 10902 10895 10898 10905 9465 10906 10736 10907 10908 
1270 1271 1496 1495 1295 1296 1521 1520 9299 10739 10740 10732 9470 10910 10911 10903 9461 9468 10909 10902 10905 10912 9472 10913 10743 10914 10915 
1271 1272 1497 1496 1296 1297 1522 1521 9306 10746 10747 10739 9477 10917 10918 10910 9468 9475 10916 10909 10912 10919 9479 10920 10750 10921 10922 
1272 1273 1498 1497 1297 1298 1523 1522 9313 10753 10754 10746 9484 10924 10925 10917 9475 9482 10923 10916 10919 10926 9486 10927 10757 10928 10929 
1273 1274 1499 1498 1298 1299 1524 1523 9320 10760 10761 10753 9491 10931 10932 10924 9482 9489 10930 10923 10926 10933 9493 10934 10764 10935 10936 
1275 1276 1501 1500 1300 1301 1526 1525 9328 10768 10769 10770 9499 10939 10940 10941 9497 9496 10937 10938 10944 10942 9502 10943 10774 10945 10946 
1276 1277 1502 1501 1301 1302 1527 1526 9337 10777 10778 10768 9508 10948 10949 10939 9496 9506 10947 10937 10942 10950 9510 10951 10781 10952 10953 
1277 1278 1503 1502 1302 1303 1528 1527 9344 10784 10785 10777 9515 10955 10956 10948 9506 9513 10954 10947 10950 10957 9517 10958 10788 10959 10960 
1278 1279 1504 1503 1303 1304 1529 1528 9351 10791 10792 10784 9522 10962 10963 10955 9513 9520 10961 10954 10957 10964 9524 10965 10795 10966 10967 
1279 1280 1505 1504 1304 1305 1530 1529 9358 10798 10799 10791 9529 10969 10970 10962 9520 9527 10968 10961 10964 10971 9531 10972 10802 10973 10974 
1280 1281 1506 1505 1305 1306 1531 1530 9365 10805 10806 10798 9536 10976 10977 10969 9527 9534 10975 10968 10971 10978 9538 10979 10809 10980 10981 
1281 1282 1507 1506 1306 1307 1532 1531 9372 10812 10813 10805 9543 10983 10984 10976 9534 9541 10982 10975 10978 10985 9545 10986 10816 10987 10988 
1282 1283 1508 1507 1307 1308 1533 1532 9379 10819 10820 10812 9550 10990 10991 10983 9541 9548 10989 10982 10985 10992 9552 10993 10823 10994 10995 
1283 1284 1509 1508 1308 1309 1534 1533 9386 10826 10827 10819 9557 10997 10998 10990 9548 9555 10996 10989 10992 10999 9559 11000 10830 11001 11002 
1284 1285 1510 1509 1309 1310 1535 1534 9393 10833 10834 10826 9564 11004 11005 10997 9555 9562 11003 10996 10999 11006 9566 11007 10837 11008 11009 
1285 1286 1511 1510 1310 1311 1536 1535 9400 10840 10841 10833 9571 11011 11012 11004 9562 9569 11010 11003 11006 11013 9573 11014 10844 11015 11016 
1286 1287 1512 1511 1311 1312 1537 1536 9407 10847 10848 10840 9578 11018 11019 11011 9569 9576 11017 11010 11013 11020 9580 11021 10851 11022 11023 
1287 1288 1513 1512 1312 1313 1538 1537 9414 10854 10855 10847 9585 11025 11026 11018 9576 9583 11024 11017 11020 11027 9587 11028 10858 11029 11030 
1288 1289 1514 1513 1313 1314 1539 1538 9421 10861 10862 10854 9592 11032 11033 11025 9583 9590 11031 11024 11027 11034 9594 11035 10865 11036 11037 
1289 1290 1515 1514 1314 1315 1540 1539 9428 10868 10869 10861 9599 11039 11040 11032 9590 9597 11038 11031 11034 11041 9601 11042 10872 11043 11044 
1290 1291 1516 1515 1315 1316 1541 1540 9435 10875 10876 10868 9606 11046 11047 11039 9597 9604 11045 11038 11041 11048 9608 11049 10879 11050 11051 
1291 1292 1517 1516 1316 1317 1542 1541 9442 10882 10883 10875 9613 11053 11054 11046 9604 9611 11052 11045 11048 11055 9615 11056 10886 11057 11058 
1292 1293 1518 1517 1317 1318 1543 1542 9449 10889 10890 10882 9620 11060 11061 11053 9611 9618 11059 11052 11055 11062 9622 11063 10893 11064 11065 
1293 1294 1519 1518 1318 1319 1544 1543 9456 10896 10897 10889 9627 11067 11068 11060 9618 9625 11066 11059 11062 11069 9629 11070 10900 11071 11072 
1294 1295 1520 1519 1319 1320 1545 1544 9463 10903 10904 10896 9634 11074 11075 11067 9625 9632 11073 11066 11069 11076 9636 11077 10907 11078 11079 
1295 1296 1521 1520 1320 1321 1546 1545 9470 10910 10911 10903 9641 11081 11082 11074 9632 9639 11080 11073 11076 11083 9643 11084 10914 11085 11086 
1296 1297 1522 1521 1321 1322 1547 1546 9477 10917 10918 10910 9648 11088 11089 11081 9639 9646 11087 11080 11083 11090 9650 11091 10921 11092 11093 
1297 1298 1523 1522 1322 1323 1548 1547 9484 10924 10925 10917 9655 11095 11096 11088 9646 9653 11094 11087 11090 11097 9657 11098 10928 11099 11100 
1298 1299 1524 1523 1323 1324 1549 1548 9491 10931 10932 10924 9662 11102 11103 11095 9653 9660 11101 11094 11097 11104 9664 11105 10935 11106 11107 
1300 1301 1526 1525 1325 1326 1551 1550 9499 10939 10940 10941 9670 11110 11111 11112 9668 9667 11108 11109 11115 11113 9673 11114 10945 11116 11117 
1301 1302 1527 1526 1326 1327 1552 1551 9508 10948 10949 10939 9679 11119 11120 11110 9667 9677 11118 11108 11113 11121 9681 11122 10952 11123 11124 
1302 1303 1528 1527 1327 1328 1553 1552 9515 10955 10956 10948 9686 11126 11127 11119 9677 9684 11125 11118 11121 11128 9688 11129 10959 11130 11131 
1303 1304 1529 1528 1328 1329 1554 1553 9522 10962 10963 10955 9693 11133 11134 11126 9684 9691 11132 11125 11128 11135 9695 11136 10966 11137 11138 
1304 1305 1530 1529 1329 1330 1555 1554 9529 10969 10970 10962 9700 11140 11141 11133 9691 9698 11139 11132 11135 11142 9702 11143 10973 11144 11145 
1305 1306 1531 1530 1330 1331 1556 1555 9536 10976 10977 10969 9707 11147 11148 11140 9698 9705 11146 11139 11142 11149 9709 11150 10980 11151 11152 
1306 1307 1532 1531 1331 1332 1557 1556 9543 10983 10984 10976 9714 11154 11155 11147 9705 9712 11153 11146 11149 11156 9716 11157 10987 11158 11159 
1307 1308 1533 1532 1332 1333 1558 1557 9550 10990 10991 10983 9721 11161 11162 11154 9712 9719 11160 11153 11156 11163 9723 11164 10994 11165 11166 
1308 1309 1534 1533 1333 1334 1559 1558 9557 10997 10998 10990 9728 11168 11169 11161 9719 9726 11167 11160 11163 11170 9730 11171 11001 11172 11173 
1309 1310 1535 1534 1334 1335 1560 1559 9564 11004 11005 10997 9735 11175 11176 11168 9726 9733 11174 11167 11170 11177 9737 11178 11008 11179 11180 
1310 1311 1536 1535 1335 1336 1561 1560 9571 11011 11012 11004 9742 11182 11183 11175 9733 9740 11181 11174 11177 11184 9744 11185 11015 11186 11187 
1311 1312 1537 1536 1336 1337 1562 1561 9578 11018 11019 11011 9749 11189 11190 11182 9740 9747 11188 11181 11184 11191 9751 11192 11022 11193 11194 
1312 1313 1538 1537 1337 1338 1563 1562 9585 11025 11026 11018 9756 11196 11197 11189 9747 9754 11195 11188 11191 11198 9758 11199 11029 11200 11201 
1313 1314 1539 1538 1338 1339 1564 1563 9592 11032 11033 11025 9763 11203 11204 11196 9754 9761 11202 11195 11198 11205 9765 11206 11036 11207 11208 
1314 1315 1540 1539 1339 1340 1565 1564 9599 11039 11040 11032 9770 11210 11211 11203 9761 9768 11209 11202 11205 11212 9772 11213 11043 11214 11215 
1315 1316 1541 1540 1340 1341 1566 1565 9606 11046 11047 11039 9777 11217 11218 11210 9768 9775 11216 11209 11212 11219 9779 11220 11050 11221 11222 
1316 1317 1542 1541 1341 1342 1567 1566 9613 11053 11054 11046 9784 11224 11225 11217 9775 9782 11223 11216 11219 11226 9786 11227 11057 11228 11229 
1317 1318 1543 1542 1342 1343 1568 1567 9620 11060 11061 11053 9791 11231 11232 11224 9782 9789 11230 11223 11226 11233 9793 11234 11064 11235 11236 
1318 1319 1544 1543 1343 1344 1569 1568 9627 11067 11068 11060 9798 11238 11239 11231 9789 9796 11237 11230 11233 11240 9800 11241 11071 11242 11243 
1319 1320 1545 1544 1344 1345 1570 1569 9634 11074 11075 11067 9805 11245 11246 11238 9796 9803 11244 11237 11240 11247 9807 11248 11078 11249 11250 
1320 1321 1546 1545 1345 1346 1571 1570 9641 11081 11082 11074 9812 11252 11253 11245 9803 9810 11251 11244 11247 11254 9814 11255 11085 11256 11257 
1321 1322 1547 1546 1346 1347 1572 1571 9648 11088 11089 11081 9819 11259 11260 11252 9810 9817 11258 11251 11254 11261 9821 11262 11092 11263 11264 
1322 1323 1548 1547 1347 1348 1573 1572 9655 11095 11096 11088 9826 11266 11267 11259 9817 9824 11265 11258 11261 11268 9828 11269 11099 11270 11271 
1323 1324 1549 1548 1348 1349 1574 1573 9662 11102 11103 11095 9833 11273 11274 11266 9824 9831 11272 11265 11268 11275 9835 11276 11106 11277 11278 
1350 1351 1576 1575 1375 1376 1601 1600 9839 11279 11280 11281 9844 11284 11285 11286 9842 9841 11282 11283 11290 11288 9848 11289 11287 11291 11292 
1351 1352 1577 1576 1376 1377 1602 1601 9853 11293 11294 11279 9856 11296 11297 11284 9841 9854 11295 11282 11288 11299 9859 11300 11298 11301 11302 
1352 1353 1578 1577 1377 1378 1603 1602 9863 11303 11304 11293 9866 11306 11307 11296 9854 9864 11305 11295 11299 11309 9869 11310 11308 11311 11312 
1353 1354 1579 1578 1378 1379 1604 1603 9873 11313 11314 11303 9876 11316 11317 11306 9864 9874 11315 11305 11309 11319 9879 11320 11318 11321 11322 
1354 1355 1580 1579 1379 1380 1605 1604 9883 11323 11324 11313 9886 11326 11327 11316 9874 9884 11325 11315 11319 11329 9889 11330 11328 11331 11332 
1355 1356 1581 1580 1380 1381 1606 1605 9893 11333 11334 11323 9896 11336 11337 11326 9884 9894 11335 11325 11329 11339 9899 11340 11338 11341 11342 
1356 1357 1582 1581 1381 1382 1607 1606 9903 11343 11344 11333 9906 11346 11347 11336 9894 9904 11345 11335 11339 11349 9909 11350 11348 11351 11352 
1357 1358 1583 1582 1382 1383 1608 1607 9913 11353 11354 11343 9916 11356 11357 11346 9904 9914 11355 11345 11349 11359 9919 11360 11358 11361 11362 
1358 1359 1584 1583 1383 1384 1609 1608 9923 11363 11364 11353 9926 11366 11367 11356 9914 9924 11365 11355 11359 11369 9929 11370 11368 11371 11372 
1359 1360 1585 1584 1384 1385 1610 1609 9933 11373 11374 11363 9936 11376 11377 11366 9924 9934 11375 11365 11369 11379 9939 11380 11378 11381 11382 
1360 1361 1586 1585 1385 1386 1611 1610 9943 11383 11384 11373 9946 11386 11387 11376 9934 9944 11385 11375 11379 11389 9949 11390 11388 11391 11392 
1361 1362 1587 1586 1386 1387 1612 1611 9953 11393 11394 11383 9956 11396 11397 11386 9944 9954 11395 11385 11389 11399 9959 11400 11398 11401 11402 
1362 1363 1588 1587 1387 1388 1613 1612 9963 11403 11404 11393 9966 11406 11407 11396 9954 9964 11405 11395 11399 11409 9969 11410 11408 11411 11412 
1363 1364 1589 1588 1388 1389 1614 1613 9973 11413 11414 11403 9976 11416 11417 11406 9964 9974 11415 11405 11409 11419 9979 11420 11418 11421 11422 
1364 1365 1590 1589 1389 1390 1615 1614 9983 11423 11424 11413 9986 11426 11427 11416 9974 9984 11425 11415 11419 11429 9989 11430 11428 11431 11432 
1365 1366 1591 1590 1390 1391 1616 1615 9993 11433 11434 11423 9996 11436 11437 11426 9984 9994 11435 11425 11429 11439 9999 11440 11438 11441 11442 
1366 1367 1592 1591 1391 1392 1617 1616 10003 11443 11444 11433 10006 11446 11447 11436 9994 10004 11445 11435 11439 11449 10009 11450 11448 11451 11452 
1367 1368 1593 1592 1392 1393 1618 1617 10013 11453 11454 11443 10016 11456 11457 11446 10004 10014 11455 11445 11449 11459 10019 11460 11458 11461 11462 
1368 1369 1594 1593 1393 1394 1619 1618 10023 11463 11464 11453 10026 11466 11467 11456 10014 10024 11465 11455 11459 11469 10029 11470 11468 11471 11472 
1369 1370 1595 1594 1394 1395 1620 1619 10033 11473 11474 11463 10036 11476 11477 11466 10024 10034 11475 11465 11469 11479 10039 11480 11478 11481 11482 
1370 1371 1596 1595 1395 1396 1621 1620 10043 11483 11484 11473 10046 11486 11487 11476 10034 10044 11485 11475 11479 11489 10049 11490 11488 11491 11492 
1371 1372 1597 1596 1396 1397 1622 1621 10053 11493 11494 11483 10056 11496 11497 11486 10044 10054 11495 11485 11489 11499 10059 11500 11498 11501 11502 
1372 1373 1598 1597 1397 1398 1623 1622 10063 11503 11504 11493 10066 11506 11507 11496 10054 10064 11505 11495 11499 11509 10069 11510 11508 11511 11512 
1373 1374 1599 1598 1398 1399 1624 1623 10073 11513 11514 11503 10076 11516 11517 11506 10064 10074 11515 11505 11509 11519 10079 11520 11518 11521 11522 
1375 1376 1601 1600 1400 1401 1626 1625 9844 11284 11285 11286 10085 11525 11526 11527 10083 10082 11523 11524 11530 11528 10088 11529 11291 11531 11532 
1376 1377 1602 1601 1401 1402 1627 1626 9856 11296 11297 11284 10094 11534 11535 11525 10082 10092 11533 11523 11528 11536 10096 11537 11301 11538 11539 
1377 1378 1603 1602 1402 1403 1628 1627 9866 11306 11307 11296 10101 11541 11542 11534 10092 10099 11540 11533 11536 11543 10103 11544 11311 11545 11546 
1378 1379 1604 1603 1403 1404 1629 1628 9876 11316 11317 11306 10108 11548 11549 11541 10099 10106 11547 11540 11543 11550 10110 11551 11321 11552 11553 
1379 1380 1605 1604 1404 1405 1630 1629 9886 11326 11327 11316 10115 11555 11556 11548 10106 10113 11554 11547 11550 11557 10117 11558 11331 11559 11560 
1380 1381 1606 1605 1405 1406 1631 1630 9896 11336 11337 11326 10122 11562 11563 11555 10113 10120 11561 11554 11557 11564 10124 11565 11341 11566 11567 
1381 1382 1607 1606 1406 1407 1632 1631 9906 11346 11347 11336 10129 11569 11570 11562 10120 10127 11568 11561 11564 11571 10131 11572 11351 11573 11574 
1382 1383 1608 1607 1407 1408 1633 1632 9916 11356 11357 11346 10136 11576 11577 11569 10127 10134 11575 11568 11571 11578 10138 11579 11361 11580 11581 
1383 1384 1609 1608 1408 1409 1634 1633 9926 11366 11367 11356 10143 11583 11584 11576 10134 10141 11582 11575 11578 11585 10145 11586 11371 11587 11588 
1384 1385 1610 1609 1409 1410 1635 1634 9936 11376 11377 11366 10150 11590 11591 11583 10141 10148 11589 11582 11585 11592 10152 11593 11381 11594 11595 
1385 1386 1611 1610 1410 1411 1636 1635 9946 11386 11387 11376 10157 11597 11598 11590 10148 10155 11596 11589 11592 11599 10159 11600 11391 11601 11602 
1386 1387 1612 1611 1411 1412 1637 1636 9956 11396 11397 11386 10164 11604 11605 11597 10155 10162 11603 11596 11599 11606 10166 11607 11401 11608 11609 
1387 1388 1613 1612 1412 1413 1638 1637 9966 11406 11407 11396 10171 11611 11612 11604 10162 10169 11610 11603 11606 11613 10173 11614 11411 11615 11616 
1388 1389 1614 1613 1413 1414 1639 1638 9976 11416 11417 11406 10178 11618 11619 11611 10169 10176 11617 11610 11613 11620 10180 11621 11421 11622 11623 
1389 1390 1615 1614 1414 1415 1640 1639 9986 11426 11427 11416 10185 11625 11626 11618 10176 10183 11624 11617 11620 11627 10187 11628 11431 11629 11630 
1390 1391 1616 1615 1415 1416 1641 1640 9996 11436 11437 11426 10192 11632 11633 11625 10183 10190 11631 11624 11627 11634 10194 11635 11441 11636 11637 
1391 1392 1617 1616 1416 1417 1642 1641 10006 11446 11447 11436 10199 11639 11640 11632 10190 10197 11638 11631 11634 11641 10201 11642 11451 11643 11644 
1392 1393 1618 1617 1417 1418 1643 1642 10016 11456 11457 11446 10206 11646 11647 11639 10197 10204 11645 11638 11641 11648 10208 11649 11461 11650 11651 
1393 1394 1619 1618 1418 1419 1644 1643 10026 11466 11467 11456 10213 11653 11654 11646 10204 10211 11652 11645 11648 11655 10215 11656 11471 11657 11658 
1394 1395 1620 1619 1419 1420 1645 1644 10036 11476 11477 11466 10220 11660 11661 11653 10211 10218 11659 11652 11655 11662 10222 11663 11481 11664 11665 
1395 1396 1621 1620 1420 1421 1646 1645 10046 11486 11487 11476 10227 11667 11668 11660 10218 10225 11666 11659 11662 11669 10229 11670 11491 11671 11672 
1396 1397 1622 1621 1421 1422 1647 1646 10056 11496 11497 11486 10234 11674 11675 11667 10225 10232 11673 11666 11669 11676 10236 11677 11501 11678 11679 
1397 1398 1623 1622 1422 1423 1648 1647 10066 11506 11507 11496 10241 11681 11682 11674 10232 10239 11680 11673 11676 11683 10243 11684 11511 11685 11686 
1398 1399 1624 1623 1423 1424 1649 1648 10076 11516 11517 11506 10248 11688 11689 11681 10239 10246 11687 11680 11683 11690 10250 11691 11521 11692 11693 
1400 1401 1626 1625 1425 1426 1651 1650 10085 11525 11526 11527 10256 11696 11697 11698 10254 10253 11694 11695 11701 11699 10259 11700 11531 11702 11703 
1401 1402 1627 1626 1426 1427 1652 1651 10094 11534 11535 11525 10265 11705 11706 11696 10253 10263 11704 11694 11699 11707 10267 11708 11538 11709 11710 
1402 1403 1628 1627 1427 1428 1653 1652 10101 11541 11542 11534 10272 11712 11713 11705 10263 10270 11711 11704 11707 11714 10274 11715 11545 11716 11717 
1403 1404 1629 1628 1428 1429 1654 1653 10108 11548 11549 11541 10279 11719 11720 11712 10270 10277 11718 11711 11714 11721 10281 11722 11552 11723 11724 
1404 1405 1630 1629 1429 1430 1655 1654 10115 11555 11556 11548 10286 11726 11727 11719 10277 10284 11725 11718 11721 11728 10288 11729 11559 11730 11731 
1405 1406 1631 1630 1430 1431 1656 1655 10122 11562 11563 11555 10293 11733 11734 11726 10284 10291 11732 11725 11728 11735 10295 11736 11566 11737 11738 
1406 1407 1632 1631 1431 1432 1657 1656 10129 11569 11570 11562 10300 11740 11741 11733 10291 10298 11739 11732 11735 11742 10302 11743 11573 11744 11745 
1407 1408 1633 1632 1432 1433 1658 1657 10136 11576 11577 11569 10307 11747 11748 11740 10298 10305 11746 11739 11742 11749 10309 11750 11580 11751 11752 
1408 1409 1634 1633 1433 1434 1659 1658 10143 11583 11584 11576 10314 11754 11755 11747 10305 10312 11753 11746 11749 11756 10316 11757 11587 11758 11759 
1409 1410 1635 1634 1434 1435 1660 1659 10150 11590 11591 11583 10321 11761 11762 11754 10312 10319 11760 11753 11756 11763 10323 11764 11594 11765 11766 
1410 1411 1636 1635 1435 1436 1661 1660 10157 11597 11598 11590 10328 11768 11769 11761 10319 10326 11767 11760 11763 11770 10330 11771 11601 11772 11773 
1411 1412 1637 1636 1436 1437 1662 1661 10164 11604 11605 11597 10335 11775 11776 11768 10326 10333 11774 11767 11770 11777 10337 11778 11608 11779 11780 
1412 1413 1638 1637 1437 1438 1663 1662 10171 11611 11612 11604 10342 11782 11783 11775 10333 10340 11781 11774 11777 11784 10344 11785 11615 11786 11787 
1413 1414 1639 1638 1438 1439 1664 1663 10178 11618 11619 11611 10349 11789 11790 11782 10340 10347 11788 11781 11784 11791 10351 11792 11622 11793 11794 
1414 1415 1640 1639 1439 1440 1665 1664 10185 11625 11626 11618 10356 11796 11797 11789 10347 10354 11795 11788 11791 11798 10358 11799 11629 11800 11801 
1415 1416 1641 1640 1440 1441 1666 1665 10192 11632 11633 11625 10363 11803 11804 11796 10354 10361 11802 11795 11798 11805 10365 11806 11636 11807 11808 
1416 1417 1642 1641 1441 1442 1667 1666 10199 11639 11640 11632 10370 11810 11811 11803 10361 10368 11809 11802 11805 11812 10372 11813 11643 11814 11815 
1417 1418 1643 1642 1442 1443 1668 1667 10206 11646 11647 11639 10377 11817 11818 11810 10368 10375 11816 11809 11812 11819 10379 11820 11650 11821 11822 
1418 1419 1644 1643 1443 1444 1669 1668 10213 11653 11654 11646 10384 11824 11825 11817 10375 10382 11823 11816 11819 11826 10386 11827 11657 11828 11829 
1419 1420 1645 1644 1444 1445 1670 1669 10220 11660 11661 11653 10391 11831 11832 11824 10382 10389 11830 11823 11826 11833 10393 11834 11664 11835 11836 
1420 1421 1646 1645 1445 1446 1671 1670 10227 11667 11668 11660 10398 11838 11839 11831 10389 10396 11837 11830 11833 11840 10400 11841 11671 11842 11843 
1421 1422 1647 1646 1446 1447 1672 1671 10234 11674 11675 11667 10405 11845 11846 11838 10396 10403 11844 11837 11840 11847 10407 11848 11678 11849 11850 
1422 1423 1648 1647 1447 1448 1673 1672 10241 11681 11682 11674 10412 11852 11853 11845 10403 10410 11851 11844 11847 11854 10414 11855 11685 11856 11857 
1423 1424 1649 1648 1448 1449 1674 1673 10248 11688 11689 11681 10419 11859 11860 11852 10410 10417 11858 11851 11854 11861 10421 11862 11692 11863 11864 
1425 1426 1651 1650 1450 1451 1676 1675 10256 11696 11697 11698 10427 11867 11868 11869 10425 10424 11865 11866 11872 11870 10430 11871 11702 11873 11874 
1426 1427 1652 1651 1451 1452 1677 1676 10265 11705 11706 11696 10436 11876 11877 11867 10424 10434 11875 11865 11870 11878 10438 11879 11709 11880 11881 
1427 1428 1653 1652 1452 1453 1678 1677 10272 11712 11713 11705 10443 11883 11884 11876 10434 10441 11882 11875 11878 11885 10445 11886 11716 11887 11888 
1428 1429 1654 1653 1453 1454 1679 1678 10279 11719 11720 11712 10450 11890 11891 11883 10441 10448 11889 11882 11885 11892 10452 11893 11723 11894 11895 
1429 1430 1655 1654 1454 1455 1680 1679 10286 11726 11727 11719 10457 11897 11898 11890 10448 10455 11896 11889 11892 11899 10459 11900 11730 11901 11902 
1430 1431 1656 1655 1455 1456 1681 1680 10293 11733 11734 11726 10464 11904 11905 11897 10455 10462 11903 11896 11899 11906 10466 11907 11737 11908 11909 
1431 1432 1657 1656 1456 1457 1682 1681 10300 11740 11741 11733 10471 11911 11912 11904 10462 10469 11910 11903 11906 11913 10473 11914 11744 11915 11916 
1432 1433 1658 1657 1457 1458 1683 1682 10307 11747 11748 11740 10478 11918 11919 11911 10469 10476 11917 11910 11913 11920 10480 11921 11751 11922 11923 
1433 1434 1659 1658 1458 1459 1684 1683 10314 11754 11755 11747 10485 11925 11926 11918 10476 10483 11924 11917 11920 11927 10487 11928 11758 11929 11930 
1434 1435 1660 1659 1459 1460 1685 1684 10321 11761 11762 11754 10492 11932 11933 11925 10483 10490 11931 11924 11927 11934 10494 11935 11765 11936 11937 
1435 1436 1661 1660 1460 1461 1686 1685 10328 11768 11769 11761 10499 11939 11940 11932 10490 10497 11938 11931 11934 11941 10501 11942 11772 11943 11944 
1436 1437 1662 1661 1461 1462 1687 1686 10335 11775 11776 11768 10506 11946 11947 11939 10497 10504 11945 11938 11941 11948 10508 11949 11779 11950 11951 
1437 1438 1663 1662 1462 1463 1688 1687 10342 11782 11783 11775 10513 11953 11954 11946 10504 10511 11952 11945 11948 11955 10515 11956 11786 11957 11958 
1438 1439 1664 1663 1463 1464 1689 1688 10349 11789 11790 11782 10520 11960 11961 11953 10511 10518 11959 11952 11955 11962 10522 11963 11793 11964 11965 
1439 1440 1665 1664 1464 1465 1690 1689 10356 11796 11797 11789 10527 11967 11968 11960 10518 10525 11966 11959 11962 11969 10529 11970 11800 11971 11972 
1440 1441 1666 1665 1465 1466 1691 1690 10363 11803 11804 11796 10534 11974 11975 11967 10525 10532 11973 11966 11969 11976 10536 11977 11807 11978 11979 
1441 1442 1667 1666 1466 1467 1692 1691 10370 11810 11811 11803 10541 11981 11982 11974 10532 10539 11980 11973 11976 11983 10543 11984 11814 11985 11986 
1442 1443 1668 1667 1467 1468 1693 1692 10377 11817 11818 11810 10548 11988 11989 11981 10539 10546 11987 11980 11983 11990 10550 11991 11821 11992 11993 
1443 1444 1669 1668 1468 1469 1694 1693 10384 11824 11825 11817 10555 11995 11996 11988 10546 10553 11994 11987 11990 11997 10557 11998 11828 11999 12000 
1444 1445 1670 1669 1469 1470 1695 1694 10391 11831 11832 11824 10562 12002 12003 11995 10553 10560 12001 11994 11997 12004 10564 12005 11835 12006 12007 
1445 1446 1671 1670 1470 1471 1696 1695 10398 11838 11839 11831 10569 12009 12010 12002 10560 10567 12008 12001 12004 12011 10571 12012 11842 12013 12014 
1446 1447 1672 1671 1471 1472 1697 1696 10405 11845 11846 11838 10576 12016 12017 12009 10567 10574 12015 12008 12011 12018 10578 12019 11849 12020 12021 
1447 1448 1673 1672 1472 1473 1698 1697 10412 11852 11853 11845 10583 12023 12024 12016 10574 10581 12022 12015 12018 12025 10585 12026 11856 12027 12028 
1448 1449 1674 1673 1473 1474 1699 1698 10419 11859 11860 11852 10590 12030 12031 12023 10581 10588 12029 12022 12025 12032 10592 12033 11863 12034 12035 
1450 1451 1676 1675 1475 1476 1701 1700 10427 11867 11868 11869 10598 12038 12039 12040 10596 10595 12036 12037 12043 12041 10601 12042 11873 12044 12045 
1451 1452 1677 1676 1476 1477 1702 1701 10436 11876 11877 11867 10607 12047 12048 12038 10595 10605 12046 12036 12041 12049 10609 12050 11880 12051 12052 
1452 1453 1678 1677 1477 1478 1703 1702 10443 11883 11884 11876 10614 12054 12055 12047 10605 10612 12053 12046 12049 12056 10616 12057 11887 12058 12059 
1453 1454 1679 1678 1478 1479 1704 1703 10450 11890 11891 11883 10621 12061 12062 12054 10612 10619 12060 12053 12056 12063 10623 12064 11894 12065 12066 
1454 1455 1680 1679 1479 1480 1705 1704 10457 11897 11898 11890 10628 12068 12069 12061 10619 10626 12067 12060 12063 12070 10630 12071 11901 12072 12073 
1455 1456 1681 1680 1480 1481 1706 1705 10464 11904 11905 11897 10635 12075 12076 12068 10626 10633 12074 12067 12070 12077 10637 12078 11908 12079 12080 
1456 1457 1682 1681 1481 1482 1707 1706 10471 11911 11912 11904 10642 12082 12083 12075 10633 10640 12081 12074 12077 12084 10644 12085 11915 12086 12087 
1457 1458 1683 1682 1482 1483 1708 1707 10478 11918 11919 11911 10649 12089 12090 12082 10640 10647 12088 12081 12084 12091 10651 12092 11922 12093 12094 
1458 1459 1684 1683 1483 1484 1709 1708 10485 11925 11926 11918 10656 12096 12097 12089 10647 10654 12095 12088 12091 12098 10658 12099 11929 12100 12101 
1459 1460 1685 1684 1484 1485 1710 1709 10492 11932 11933 11925 10663 12103 12104 12096 10654 10661 12102 12095 12098 12105 10665 12106 11936 12107 12108 
1460 1461 1686 1685 1485 1486 1711 1710 10499 11939 11940 11932 10670 12110 12111 12103 10661 10668 12109 12102 12105 12112 10672 12113 11943 12114 12115 
1461 1462 1687 1686 1486 1487 1712 1711 10506 11946 11947 11939 10677 12117 12118 12110 10668 10675 12116 12109 12112 12119 10679 12120 11950 12121 12122 
1462 1463 1688 1687 1487 1488 1713 1712 10513 11953 11954 11946 10684 12124 12125 12117 10675 10682 12123 12116 12119 12126 10686 12127 11957 12128 12129 
1463 1464 1689 1688 1488 1489 1714 1713 10520 11960 11961 11953 10691 12131 12132 12124 10682 10689 12130 12123 12126 12133 10693 12134 11964 12135 12136 
1464 1465 1690 1689 1489 1490 1715 1714 10527 11967 11968 11960 10698 12138 12139 12131 10689 10696 12137 12130 12133 12140 10700 12141 11971 12142 12143 
1465 1466 1691 1690 1490 1491 1716 1715 10534 11974 11975 11967 10705 12145 12146 12138 10696 10703 12144 12137 12140 12147 10707 12148 11978 12149 12150 
1466 1467 1692 1691 1491 1492 1717 1716 10541 11981 11982 11974 10712 12152 12153 12145 10703 10710 12151 12144 12147 12154 10714 12155 11985 12156 12157 
1467 1468 1693 1692 1492 1493 1718 1717 10548 11988 11989 11981 10719 12159 12160 12152 10710 10717 12158 12151 12154 12161 10721 12162 11992 12163 12164 
1468 1469 1694 1693 1493 1494 1719 1718 10555 11995 11996 11988 10726 12166 12167 12159 10717 10724 12165 12158 12161 12168 10728 12169 11999 12170 12171 
1469 1470 1695 1694 1494 1495 1720 1719 10562 12002 12003 11995 10733 12173 12174 12166 10724 10731 12172 12165 12168 12175 10735 12176 12006 12177 12178 
1470 1471 1696 1695 1495 1496 1721 1720 10569 12009 12010 12002 10740 12180 12181 12173 10731 10738 12179 12172 12175 12182 10742 12183 12013 12184 12185 
1471 1472 1697 1696 1496 1497 1722 1721 10576 12016 12017 12009 10747 12187 12188 12180 10738 10745 12186 12179 12182 12189 10749 12190 12020 12191 12192 
1472 1473 1698 1697 1497 1498 1723 1722 10583 12023 12024 12016 10754 12194 12195 12187 10745 10752 12193 12186 12189 12196 10756 12197 12027 12198 12199 
1473 1474 1699 1698 1498 1499 1724 1723 10590 12030 12031 12023 10761 12201 12202 12194 10752 10759 12200 12193 12196 12203 10763 12204 12034 12205 12206 
1475 1476 1701 1700 1500 1501 1726 1725 10598 12038 12039 12040 10769 12209 12210 12211 10767 10766 12207 12208 12214 12212 10772 12213 12044 12215 12216 
1476 1477 1702 1701 1501 1502 1727 1726 10607 12047 12048 12038 10778 12218 12219 12209 10766 10776 12217 12207 12212 12220 10780 12221 12051 12222 12223 
1477 1478 1703 1702 1502 1503 1728 1727 10614 12054 12055 12047 10785 12225 12226 12218 10776 10783 12224 12217 12220 12227 10787 12228 12058 12229 12230 
1478 1479 1704 1703 1503 1504 1729 1728 10621 12061 12062 12054 10792 12232 12233 12225 10783 10790 12231 12224 12227 12234 10794 12235 12065 12236 12237 
1479 1480 1705 1704 1504 1505 1730 1729 10628 12068 12069 12061 10799 12239 12240 12232 10790 10797 12238 12231 12234 12241 10801 12242 12072 12243 12244 
1480 1481 1706 1705 1505 1506 1731 1730 10635 12075 12076 12068 10806 12246 12247 12239 10797 10804 12245 12238 12241 12248 10808 12249 12079 12250 12251 
1481 1482 1707 1706 1506 1507 1732 1731 10642 12082 12083 12075 10813 12253 12254 12246 10804 10811 12252 12245 12248 12255 10815 12256 12086 12257 12258 
1482 1483 1708 1707 1507 1508 1733 1732 10649 12089 12090 12082 10820 12260 12261 12253 10811 10818 12259 12252 12255 12262 10822 12263 12093 12264 12265 
1483 1484 1709 1708 1508 1509 1734 1733 10656 12096 12097 12089 10827 12267 12268 12260 10818 10825 12266 12259 12262 12269 10829 12270 12100 12271 12272 
1484 1485 1710 1709 1509 1510 1735 1734 10663 12103 12104 12096 10834 12274 12275 12267 10825 10832 12273 12266 12269 12276 10836 12277 12107 12278 12279 
1485 1486 1711 1710 1510 1511 1736 1735 10670 12110 12111 12103 10841 12281 12282 12274 10832 10839 12280 12273 12276 12283 10843 12284 12114 12285 12286 
1486 1487 1712 1711 1511 1512 1737 1736 10677 12117 12118 12110 10848 12288 12289 12281 10839 10846 12287 12280 12283 12290 10850 12291 12121 12292 12293 
1487 1488 1713 1712 1512 1513 1738 1737 10684 12124 12125 12117 10855 12295 12296 12288 10846 10853 12294 12287 12290 12297 10857 12298 12128 12299 12300 
1488 1489 1714 1713 1513 1514 1739 1738 10691 12131 12132 12124 10862 12302 12303 12295 10853 10860 12301 12294 12297 12304 10864 12305 12135 12306 12307 
1489 1490 1715 1714 1514 1515 1740 1739 10698 12138 12139 12131 10869 12309 12310 12302 10860 10867 12308 12301 12304 12311 10871 12312 12142 12313 12314 
1490 1491 1716 1715 1515 1516 1741 1740 10705 12145 12146 12138 10876 12316 12317 12309 10867 10874 12315 12308 12311 12318 10878 12319 12149 12320 12321 
1491 1492 1717 1716 1516 1517 1742 1741 10712 12152 12153 12145 10883 12323 12324 12316 10874 10881 12322 12315 12318 12325 10885 12326 12156 12327 12328 
1492 1493 1718 1717 1517 1518 1743 1742 10719 12159 12160 12152 10890 12330 12331 12323 10881 10888 12329 12322 12325 12332 10892 12333 12163 12334 12335 
1493 1494 1719 1718 1518 1519 1744 1743 10726 12166 12167 12159 10897 12337 12338 12330 10888 10895 12336 12329 12332 12339 10899 12340 12170 12341 12342 
1494 1495 1720 1719 1519 1520 1745 1744 10733 12173 12174 12166 10904 12344 12345 12337 10895 10902 12343 12336 12339 12346 10906 12347 12177 12348 12349 
1495 1496 1721 1720 1520 1521 1746 1745 10740 12180 12181 12173 10911 12351 12352 12344 10902 10909 12350 12343 12346 12353 10913 12354 12184 12355 12356 
1496 1497 1722 1721 1521 1522 1747 1746 10747 12187 12188 12180 10918 12358 12359 12351 10909 10916 12357 12350 12353 12360 10920 12361 12191 12362 12363 
1497 1498 1723 1722 1522 1523 1748 1747 10754 12194 12195 12187 10925 12365 12366 12358 10916 10923 12364 12357 12360 12367 10927 12368 12198 12369 12370 
1498 1499 1724 1723 1523 1524 1749 1748 10761 12201 12202 12194 10932 12372 12373 12365 10923 10930 12371 12364 12367 12374 10934 12375 12205 12376 12377 
1500 1501 1726 1725 1525 1526 1751 1750 10769 12209 12210 12211 10940 12380 12381 12382 10938 10937 12378 12379 12385 12383 10943 12384 12215 12386 12387 
1501 1502 1727 1726 1526 1527 1752 1751 10778 12218 12219 12209 10949 12389 12390 12380 10937 10947 12388 12378 12383 12391 10951 12392 12222 12393 12394 
1502 1503 1728 1727 1527 1528 1753 1752 10785 12225 12226 12218 10956 12396 12397 12389 10947 10954 12395 12388 12391 12398 10958 12399 12229 12400 12401 
1503 1504 1729 1728 1528 1529 1754 1753 10792 12232 12233 12225 10963 12403 12404 12396 10954 10961 12402 12395 12398 12405 10965 12406 12236 12407 12408 
1504 1505 1730 1729 1529 1530 1755 1754 10799 12239 12240 12232 10970 12410 12411 12403 10961 10968 12409 12402 12405 12412 10972 12413 12243 12414 12415 
1505 1506 1731 1730 1530 1531 1756 1755 10806 12246 12247 12239 10977 12417 12418 12410 10968 10975 12416 12409 12412 12419 10979 12420 12250 12421 12422 
1506 1507 1732 1731 1531 1532 1757 1756 10813 12253 12254 12246 10984 12424 12425 12417 10975 10982 12423 12416 12419 12426 10986 12427 12257 12428 12429 
1507 1508 1733 1732 1532 1533 1758 1757 10820 12260 12261 12253 10991 12431 12432 12424 10982 10989 12430 12423 12426 12433 10993 12434 12264 12435 12436 
1508 1509 1734 1733 1533 1534 1759 1758 10827 12267 12268 12260 10998 12438 12439 12431 10989 10996 12437 12430 12433 12440 11000 12441 12271 12442 12443 
1509 1510 1735 1734 1534 1535 1760 1759 10834 12274 12275 12267 11005 12445 12446 12438 10996 11003 12444 12437 12440 12447 11007 12448 12278 12449 12450 
1510 1511 1736 1735 1535 1536 1761 1760 10841 12281 12282 12274 11012 12452 12453 12445 11003 11010 12451 12444 12447 12454 11014 12455 12285 12456 12457 
1511 1512 1737 1736 1536 1537 1762 1761 10848 12288 12289 12281 11019 12459 12460 12452 11010 11017 12458 12451 12454 12461 11021 12462 12292 12463 12464 
1512 1513 1738 1737 1537 1538 1763 1762 10855 12295 12296 12288 11026 12466 12467 12459 11017 11024 12465 12458 12461 12468 11028 12469 12299 12470 12471 
1513 1514 1739 1738 1538 1539 1764 1763 10862 12302 12303 12295 11033 12473 12474 12466 11024 11031 12472 12465 12468 12475 11035 12476 12306 12477 12478 
1514 1515 1740 1739 1539 1540 1765 1764 10869 12309 12310 12302 11040 12480 12481 12473 11031 11038 12479 12472 12475 12482 11042 12483 12313 12484 12485 
1515 1516 1741 1740 1540 1541 1766 1765 10876 12316 12317 12309 11047 12487 12488 12480 11038 11045 12486 12479 12482 12489 11049 12490 12320 12491 12492 
1516 1517 1742 1741 1541 1542 1767 1766 10883 12323 12324 12316 11054 12494 12495 12487 11045 11052 12493 12486 12489 12496 11056 12497 12327 12498 12499 
1517 1518 1743 1742 1542 1543 1768 1767 10890 12330 12331 12323 11061 12501 12502 12494 11052 11059 12500 12493 12496 12503 11063 12504 12334 12505 12506 
1518 1519 1744 1743 1543 1544 1769 1768 10897 12337 12338 12330 11068 12508 12509 12501 11059 11066 12507 12500 12503 12510 11070 12511 12341 12512 12513 
1519 1520 1745 1744 1544 1545 1770 1769 10904 12344 12345 12337 11075 12515 12516 12508 11066 11073 12514 12507 12510 12517 11077 12518 12348 12519 12520 
1520 1521 1746 1745 1545 1546 1771 1770 10911 12351 12352 12344 11082 12522 12523 12515 11073 11080 12521 12514 12517 12524 11084 12525 12355 12526 12527 
1521 1522 1747 1746 1546 1547 1772 1771 10918 12358 12359 12351 11089 12529 12530 12522 11080 11087 12528 12521 12524 12531 11091 12532 12362 12533 12534 
1522 1523 1748 1747 1547 1548 1773 1772 10925 12365 12366 12358 11096 12536 12537 12529 11087 11094 12535 12528 12531 12538 11098 12539 12369 12540 12541 
1523 1524 1749 1748 1548 1549 1774 1773 10932 12372 12373 12365 11103 12543 12544 12536 11094 11101 12542 12535 12538 12545 11105 12546 12376 12547 12548 
1525 1526 1751 1750 1550 1551 1776 1775 10940 12380 12381 12382 11111 12551 12552 12553 11109 11108 12549 12550 12556 12554 11114 12555 12386 12557 12558 
1526 1527 1752 1751 1551 1552 1777 1776 10949 12389 12390 12380 11120 12560 12561 12551 11108 11118 12559 12549 12554 12562 11122 12563 12393 12564 12565 
1527 1528 1753 1752 1552 1553 1778 1777 10956 12396 12397 12389 11127 12567 12568 12560 11118 11125 12566 12559 12562 12569 11129 12570 12400 12571 12572 
1528 1529 1754 1753 1553 1554 1779 1778 10963 12403 12404 12396 11134 12574 12575 12567 11125 11132 12573 12566 12569 12576 11136 12577 12407 12578 12579 
1529 1530 1755 1754 1554 1555 1780 1779 10970 12410 12411 12403 11141 12581 12582 12574 11132 11139 12580 12573 12576 12583 11143 12584 12414 12585 12586 
1530 1531 1756 1755 1555 1556 1781 1780 10977 12417 12418 12410 11148 12588 12589 12581 11139 11146 12587 12580 12583 12590 11150 12591 12421 12592 12593 
1531 1532 1757 1756 1556 1557 1782 1781 10984 12424 12425 12417 11155 12595 12596 12588 11146 11153 12594 12587 12590 12597 11157 12598 12428 12599 12600 
1532 1533 1758 1757 1557 1558 1783 1782 10991 12431 12432 12424 11162 12602 12603 12595 11153 11160 12601 12594 12597 12604 11164 12605 12435 12606 12607 
1533 1534 1759 1758 1558 1559 1784 1783 10998 12438 12439 12431 11169 12609 12610 12602 11160 11167 12608 12601 12604 12611 11171 12612 12442 12613 12614 
1534 1535 1760 1759 1559 1560 1785 1784 11005 12445 12446 12438 11176 12616 12617 12609 11167 11174 12615 12608 12611 12618 11178 12619 12449 12620 12621 
1535 1536 1761 1760 1560 1561 1786 1785 11012 12452 12453 12445 11183 12623 12624 12616 11174 11181 12622 12615 12618 12625 11185 12626 12456 12627 12628 
1536 1537 1762 1761 1561 1562 1787 1786 11019 12459 12460 12452 11190 12630 12631 12623 11181 11188 12629 12622 12625 12632 11192 12633 12463 12634 12635 
1537 1538 1763 1762 1562 1563 1788 1787 11026 12466 12467 12459 11197 12637 12638 12630 11188 11195 12636 12629 12632 12639 11199 12640 12470 12641 12642 
1538 1539 1764 1763 1563 1564 1789 1788 11033 12473 12474 12466 11204 12644 12645 12637 11195 11202 12643 12636 12639 12646 11206 12647 12477 12648 12649 
1539 1540 1765 1764 1564 1565 1790 1789 11040 12480 12481 12473 11211 12651 12652 12644 11202 11209 12650 12643 12646 12653 11213 12654 12484 12655 12656 
1540 1541 1766 1765 1565 1566 1791 1790 11047 12487 12488 12480 11218 12658 12659 12651 11209 11216 12657 12650 12653 12660 11220 12661 12491 12662 12663 
1541 1542 1767 1766 1566 1567 1792 1791 11054 12494 12495 12487 11225 12665 12666 12658 11216 11223 12664 12657 12660 12667 11227 12668 12498 12669 12670 
1542 1543 1768 1767 1567 1568 1793 1792 11061 12501 12502 12494 11232 12672 12673 12665 11223 11230 12671 12664 12667 12674 11234 12675 12505 12676 12677 
1543 1544 1769 1768 1568 1569 1794 1793 11068 12508 12509 12501 11239 12679 12680 12672 11230 11237 12678 12671 12674 12681 11241 12682 12512 12683 12684 
1544 1545 1770 1769 1569 1570 1795 1794 11075 12515 12516 12508 11246 12686 12687 12679 11237 11244 12685 12678 12681 12688 11248 12689 12519 12690 12691 
1545 1546 1771 1770 1570 1571 1796 1795 11082 12522 12523 12515 11253 12693 12694 12686 11244 11251 12692 12685 12688 12695 11255 12696 12526 12697 12698 
1546 1547 1772 1771 1571 1572 1797 1796 11089 12529 12530 12522 11260 12700 12701 12693 11251 11258 12699 12692 12695 12702 11262 12703 12533 12704 12705 
1547 1548 1773 1772 1572 1573 1798 1797 11096 12536 12537 12529 11267 12707 12708 12700 11258 11265 12706 12699 12702 12709 11269 12710 12540 12711 12712 
1548 1549 1774 1773 1573 1574 1799 1798 11103 12543 12544 12536 11274 12714 12715 12707 11265 11272 12713 12706 12709 12716 11276 12717 12547 12718 12719 
1575 1576 1801 1800 1600 1601 1826 1825 11280 12720 12721 12722 11285 12725 12726 12727 11283 11282 12723 12724 12731 12729 11289 12730 12728 12732 12733 
1576 1577 1802 1801 1601 1602 1827 1826 11294 12734 12735 12720 11297 12737 12738 12725 11282 11295 12736 12723 12729 12740 11300 12741 12739 12742 12743 
1577 1578 1803 1802 1602 1603 1828 1827 11304 12744 12745 12734 11307 12747 12748 12737 11295 11305 12746 12736 12740 12750 11310 12751 12749 12752 12753 
1578 1579 1804 1803 1603 1604 1829 1828 11314 12754 12755 12744 11317 12757 12758 12747 11305 11315 12756 12746 12750 12760 11320 12761 12759 12762 12763 
1579 1580 1805 1804 1604 1605 1830 1829 11324 12764 12765 12754 11327 12767 12768 12757 11315 11325 12766 12756 12760 12770 11330 12771 12769 12772 12773 
1580 1581 1806 1805 1605 1606 1831 1830 11334 12774 12775 12764 11337 12777 12778 12767 11325 11335 12776 12766 12770 12780 11340 12781 12779 12782 12783 
1581 1582 1807 1806 1606 1607 1832 1831 11344 12784 12785 12774 11347 12787 12788 12777 11335 11345 12786 12776 12780 12790 11350 12791 12789 12792 12793 
1582 1583 1808 1807 1607 1608 1833 1832 11354 12794 12795 12784 11357 12797 12798 12787 11345 11355 12796 12786 12790 12800 11360 12801 12799 12802 12803 
1583 1584 1809 1808 1608 1609 1834 1833 11364 12804 12805 12794 11367 12807 12808 12797 11355 11365 12806 12796 12800 12810 11370 12811 12809 12812 12813 
1584 1585 1810 1809 1609 1610 1835 1834 11374 12814 12815 12804 11377 12817 12818 12807 11365 11375 12816 12806 12810 12820 11380 12821 12819 12822 12823 
1585 1586 1811 1810 1610 1611 1836 1835 11384 12824 12825 12814 11387 12827 12828 12817 11375 11385 12826 12816 12820 12830 11390 12831 12829 12832 12833 
1586 1587 1812 1811 1611 1612 1837 1836 11394 12834 12835 12824 11397 12837 12838 12827 11385 11395 12836 12826 12830 12840 11400 12841 12839 12842 12843 
1587 1588 1813 1812 1612 1613 1838 1837 11404 12844 12845 12834 11407 12847 12848 12837 11395 11405 12846 12836 12840 12850 11410 12851 12849 12852 12853 
1588 1589 1814 1813 1613 1614 1839 1838 11414 12854 12855 12844 11417 12857 12858 12847 11405 11415 12856 12846 12850 12860 11420 12861 12859 12862 12863 
1589 1590 1815 1814 1614 1615 1840 1839 11424 12864 12865 12854 11427 12867 12868 12857 11415 11425 12866 12856 12860 12870 11430 12871 12869 12872 12873 
1590 1591 1816 1815 1615 1616 1841 1840 11434 12874 12875 12864 11437 12877 12878 12867 11425 11435 12876 12866 12870 12880 11440 12881 12879 12882 12883 
1591 1592 1817 1816 1616 1617 1842 1841 11444 12884 12885 12874 11447 12887 12888 12877 11435 11445 12886 12876 12880 12890 11450 12891 12889 12892 12893 
1592 1593 1818 1817 1617 1618 1843 1842 11454 12894 12895 12884 11457 12897 12898 12887 11445 11455 12896 12886 12890 12900 11460 12901 12899 12902 12903 
1593 1594 1819 1818 1618 1619 1844 1843 11464 12904 12905 12894 11467 12907 12908 12897 11455 11465 12906 12896 12900 12910 11470 12911 12909 12912 12913 
1594 1595 1820 1819 1619 1620 1845 1844 11474 12914 12915 12904 11477 12917 12918 12907 11465 11475 12916 12906 12910 12920 11480 12921 12919 12922 12923 
1595 1596 1821 1820 1620 1621 1846 1845 11484 12924 12925 12914 11487 12927 12928 12917 11475 11485 12926 12916 12920 12930 11490 12931 12929 12932 12933 
1596 1597 1822 1821 1621 1622 1847 1846 11494 12934 12935 12924 11497 12937 12938 12927 11485 11495 12936 12926 12930 12940 11500 12941 12939 12942 12943 
1597 1598 1823 1822 1622 1623 1848 1847 11504 12944 12945 12934 11507 12947 12948 12937 11495 11505 12946 12936 12940 12950 11510 12951 12949 12952 12953 
1598 1599 1824 1823 1623 1624 1849 1848 11514 12954 12955 12944 11517 12957 12958 12947 11505 11515 12956 12946 12950 12960 11520 12961 12959 12962 12963 
1600 1601 1826 1825 1625 1626 1851 1850 11285 12725 12726 12727 11526 12966 12967 12968 11524 11523 12964 12965 12971 12969 11529 12970 12732 12972 12973 
1601 1602 1827 1826 1626 1627 1852 1851 11297 12737 12738 12725 11535 12975 12976 12966 11523 11533 12974 12964 12969 12977 11537 12978 12742 12979 12980 
1602 1603 1828 1827 1627 1628 1853 1852 11307 12747 12748 12737 11542 12982 12983 12975 11533 11540 12981 12974 12977 12984 11544 12985 12752 12986 12987 
1603 1604 1829 1828 1628 1629 1854 1853 11317 12757 12758 12747 11549 12989 12990 12982 11540 11547 12988 12981 12984 12991 11551 12992 12762 12993 12994 
1604 1605 1830 1829 1629 1630 1855 1854 11327 12767 12768 12757 11556 12996 12997 12989 11547 11554 12995 12988 12991 12998 11558 12999 12772 13000 13001 
1605 1606 1831 1830 1630 1631 1856 1855 11337 12777 12778 12767 11563 13003 13004 12996 11554 11561 13002 12995 12998 13005 11565 13006 12782 13007 13008 
1606 1607 1832 1831 1631 1632 1857 1856 11347 12787 12788 12777 11570 13010 13011 13003 11561 11568 13009 13002 13005 13012 11572 13013 12792 13014 13015 
1607 1608 1833 1832 1632 1633 1858 1857 11357 12797 12798 12787 11577 13017 13018 13010 11568 11575 13016 13009 13012 13019 11579 13020 12802 13021 13022 
1608 1609 1834 1833 1633 1634 1859 1858 11367 12807 12808 12797 11584 13024 13025 13017 11575 11582 13023 13016 13019 13026 11586 13027 12812 13028 13029 
1609 1610 1835 1834 1634 1635 1860 1859 11377 12817 12818 12807 11591 13031 13032 13024 11582 11589 13030 13023 13026 13033 11593 13034 12822 13035 13036 
1610 1611 1836 1835 1635 1636 1861 1860 11387 12827 12828 12817 11598 13038 13039 13031 11589 11596 13037 13030 13033 13040 11600 13041 12832 13042 13043 
1611 1612 1837 1836 1636 1637 1862 1861 11397 12837 12838 12827 11605 13045 13046 13038 11596 11603 13044 13037 13040 13047 11607 13048 12842 13049 13050 
1612 1613 1838 1837 1637 1638 1863 1862 11407 12847 12848 12837 11612 13052 13053 13045 11603 11610 13051 13044 13047 13054 11614 13055 12852 13056 13057 
1613 1614 1839 1838 1638 1639 1864 1863 11417 12857 12858 12847 11619 13059 13060 13052 11610 11617 13058 13051 13054 13061 11621 13062 12862 13063 13064 
1614 1615 1840 1839 1639 1640 1865 1864 11427 12867 12868 12857 11626 13066 13067 13059 11617 11624 13065 13058 13061 13068 11628 13069 12872 13070 13071 
1615 1616 1841 1840 1640 1641 1866 1865 11437 12877 12878 12867 11633 13073 13074 13066 11624 11631 13072 13065 13068 13075 11635 13076 12882 13077 13078 
1616 1617 1842 1841 1641 1642 1867 1866 11447 12887 12888 12877 11640 13080 13081 13073 11631 11638 13079 13072 13075 13082 11642 13083 12892 13084 13085 
1617 1618 1843 1842 1642 1643 1868 1867 11457 12897 12898 12887 11647 13087 13088 13080 11638 11645 13086 13079 13082 13089 11649 13090 12902 13091 13092 
1618 1619 1844 1843 1643 1644 1869 1868 11467 12907 12908 12897 11654 13094 13095 13087 11645 11652 13093 13086 13089 13096 11656 13097 12912 13098 13099 
1619 1620 1845 1844 1644 1645 1870 1869 11477 12917 12918 12907 11661 13101 13102 13094 11652 11659 13100 13093 13096 13103 11663 13104 12922 13105 13106 
1620 1621 1846 1845 1645 1646 1871 1870 11487 12927 12928 12917 11668 13108 13109 13101 11659 11666 13107 13100 13103 13110 11670 13111 12932 13112 13113 
1621 1622 1847 1846 1646 1647 1872 1871 11497 12937 12938 12927 11675 13115 13116 13108 11666 11673 13114 13107 13110 13117 11677 13118 12942 13119 13120 
1622 1623 1848 1847 1647 1648 1873 1872 11507 12947 12948 12937 11682 13122 13123 13115 11673 11680 13121 13114 13117 13124 11684 13125 12952 13126 13127 
1623 1624 1849 1848 1648 1649 1874 1873 11517 12957 12958 12947 11689 13129 13130 13122 11680 11687 13128 13121 13124 13131 11691 13132 12962 13133 13134 
1625 1626 1851 1850 1650 1651 1876 1875 11526 12966 12967 12968 11697 13137 13138 13139 11695 11694 13135 13136 13142 13140 11700 13141 12972 13143 13144 
1626 1627 1852 1851 1651 1652 1877 1876 11535 12975 12976 12966 11706 13146 13147 13137 11694 11704 13145 13135 13140 13148 11708 13149 12979 13150 13151 
1627 1628 1853 1852 1652 1653 1878 1877 11542 12982 12983 12975 11713 13153 13154 13146 11704 11711 13152 13145 13148 13155 11715 13156 12986 13157 13158 
1628 1629 1854 1853 1653 1654 1879 1878 11549 12989 12990 12982 11720 13160 13161 13153 11711 11718 13159 13152 13155 13162 11722 13163 12993 13164 13165 
1629 1630 1855 1854 1654 1655 1880 1879 11556 12996 12997 12989 11727 13167 13168 13160 11718 11725 13166 13159 13162 13169 11729 13170 13000 13171 13172 
1630 1631 1856 1855 1655 1656 1881 1880 11563 13003 13004 12996 11734 13174 13175 13167 11725 11732 13173 13166 13169 13176 11736 13177 13007 13178 13179 
1631 1632 1857 1856 1656 1657 1882 1881 11570 13010 13011 13003 11741 13181 13182 13174 11732 11739 13180 13173 13176 13183 11743 13184 13014 13185 13186 
1632 1633 1858 1857 1657 1658 1883 1882 11577 13017 13018 13010 11748 13188 13189 13181 11739 11746 13187 13180 13183 13190 11750 13191 13021 13192 13193 
1633 1634 1859 1858 1658 1659 1884 1883 11584 13024 13025 13017 11755 13195 13196 13188 11746 11753 13194 13187 13190 13197 11757 13198 13028 13199 13200 
1634 1635 1860 1859 1659 1660 1885 1884 11591 13031 13032 13024 11762 13202 13203 13195 11753 11760 13201 13194 13197 13204 11764 13205 13035 13206 13207 
1635 1636 1861 1860 1660 1661 1886 1885 11598 13038 13039 13031 11769 13209 13210 13202 11760 11767 13208 13201 13204 13211 11771 13212 13042 13213 13214 
1636 1637 1862 1861 1661 1662 1887 1886 11605 13045 13046 13038 11776 13216 13217 13209 11767 11774 13215 13208 13211 13218 11778 13219 13049 13220 13221 
1637 1638 1863 1862 1662 1663 1888 1887 11612 13052 13053 13045 11783 13223 13224 13216 11774 11781 13222 13215 13218 13225 11785 13226 13056 13227 13228 
1638 1639 1864 1863 1663 1664 1889 1888 11619 13059 13060 13052 11790 13230 13231 13223 11781 11788 13229 13222 13225 13232 11792 13233 13063 13234 13235 
1639 1640 1865 1864 1664 1665 1890 1889 11626 13066 13067 13059 11797 13237 13238 13230 11788 11795 13236 13229 13232 13239 11799 13240 13070 13241 13242 
1640 1641 1866 1865 1665 1666 1891 1890 11633 13073 13074 13066 11804 13244 13245 13237 11795 11802 13243 13236 13239 13246 11806 13247 13077 13248 13249 
1641 1642 1867 1866 1666 1667 1892 1891 11640 13080 13081 13073 11811 13251 13252 13244 11802 11809 13250 13243 13246 13253 11813 13254 13084 13255 13256 
1642 1643 1868 1867 1667 1668 1893 1892 11647 13087 13088 13080 11818 13258 13259 13251 11809 11816 13257 13250 13253 13260 11820 13261 13091 13262 13263 
1643 1644 1869 1868 1668 1669 1894 1893 11654 13094 13095 13087 11825 13265 13266 13258 11816 11823 13264 13257 13260 13267 11827 13268 13098 13269 13270 
1644 1645 1870 1869 1669 1670 1895 1894 11661 13101 13102 13094 11832 13272 13273 13265 11823 11830 13271 13264 13267 13274 11834 13275 13105 13276 13277 
1645 1646 1871 1870 1670 1671 1896 1895 11668 13108 13109 13101 11839 13279 13280 13272 11830 11837 13278 13271 13274 13281 11841 13282 13112 13283 13284 
1646 1647 1872 1871 1671 1672 1897 1896 11675 13115 13116 13108 11846 13286 13287 13279 11837 11844 13285 13278 13281 13288 11848 13289 13119 13290 13291 
1647 1648 1873 1872 1672 1673 1898 1897 11682 13122 13123 13115 11853 13293 13294 13286 11844 11851 13292 13285 13288 13295 11855 13296 13126 13297 13298 
1648 1649 1874 1873 1673 1674 1899 1898 11689 13129 13130 13122 11860 13300 13301 13293 11851 11858 13299 13292 13295 13302 11862 13303 13133 13304 13305 
1650 1651 1876 1875 1675 1676 1901 1900 11697 13137 13138 13139 11868 13308 13309 13310 11866 11865 13306 13307 13313 13311 11871 13312 13143 13314 13315 
1651 1652 1877 1876 1676 1677 1902 1901 11706 13146 13147 13137 11877 13317 13318 13308 11865 11875 13316 13306 13311 13319 11879 13320 13150 13321 13322 
1652 1653 1878 1877 1677 1678 1903 1902 11713 13153 13154 13146 11884 13324 13325 13317 11875 11882 13323 13316 13319 13326 11886 13327 13157 13328 13329 
1653 1654 1879 1878 1678 1679 1904 1903 11720 13160 13161 13153 11891 13331 13332 13324 11882 11889 13330 13323 13326 13333 11893 13334 13164 13335 13336 
1654 1655 1880 1879 1679 1680 1905 1904 11727 13167 13168 13160 11898 13338 13339 13331 11889 11896 13337 13330 13333 13340 11900 13341 13171 13342 13343 
1655 1656 1881 1880 1680 1681 1906 1905 11734 13174 13175 13167 11905 13345 13346 13338 11896 11903 13344 13337 13340 13347 11907 13348 13178 13349 13350 
1656 1657 1882 1881 1681 1682 1907 1906 11741 13181 13182 13174 11912 13352 13353 13345 11903 11910 13351 13344 13347 13354 11914 13355 13185 13356 13357 
1657 1658 1883 1882 1682 1683 1908 1907 11748 13188 13189 13181 11919 13359 13360 13352 11910 11917 13358 13351 13354 13361 11921 13362 13192 13363 13364 
1658 1659 1884 1883 1683 1684 1909 1908 11755 13195 13196 13188 11926 13366 13367 13359 11917 11924 13365 13358 13361 13368 11928 13369 13199 13370 13371 
1659 1660 1885 1884 1684 1685 1910 1909 11762 13202 13203 13195 11933 13373 13374 13366 11924 11931 13372 13365 13368 13375 11935 13376 13206 13377 13378 
1660 1661 1886 1885 1685 1686 1911 1910 11769 13209 13210 13202 11940 13380 13381 13373 11931 11938 13379 13372 13375 13382 11942 13383 13213 13384 13385 
1661 1662 1887 1886 1686 1687 1912 1911 11776 13216 13217 13209 11947 13387 13388 13380 11938 11945 13386 13379 13382 13389 11949 13390 13220 13391 13392 
1662 1663 1888 1887 1687 1688 1913 1912 11783 13223 13224 13216 11954 13394 13395 13387 11945 11952 13393 13386 13389 13396 11956 13397 13227 13398 13399 
1663 1664 1889 1888 1688 1689 1914 1913 11790 13230 13231 13223 11961 13401 13402 13394 11952 11959 13400 13393 13396 13403 11963 13404 13234 13405 13406 
1664 1665 1890 1889 1689 1690 1915 1914 11797 13237 13238 13230 11968 13408 13409 13401 11959 11966 13407 13400 13403 13410 11970 13411 13241 13412 13413 
1665 1666 1891 1890 1690 1691 1916 1915 11804 13244 13245 13237 11975 13415 13416 13408 11966 11973 13414 13407 13410 13417 11977 13418 13248 13419 13420 
1666 1667 1892 1891 1691 1692 1917 1916 11811 13251 13252 13244 11982 13422 13423 13415 11973 11980 13421 13414 13417 13424 11984 13425 13255 13426 13427 
1667 1668 1893 1892 1692 1693 1918 1917 11818 13258 13259 13251 11989 13429 13430 13422 11980 11987 13428 13421 13424 13431 11991 13432 13262 13433 13434 
1668 1669 1894 1893 1693 1694 1919 1918 11825 13265 13266 13258 11996 13436 13437 13429 11987 11994 13435 13428 13431 13438 11998 13439 13269 13440 13441 
1669 1670 1895 1894 1694 1695 1920 1919 11832 13272 13273 13265 12003 13443 13444 13436 11994 12001 13442 13435 13438 13445 12005 13446 13276 13447 13448 
1670 1671 1896 1895 1695 1696 1921 1920 11839 13279 13280 13272 12010 13450 13451 13443 12001 12008 13449 13442 13445 13452 12012 13453 13283 13454 13455 
1671 1672 1897 1896 1696 1697 1922 1921 11846 13286 13287 13279 12017 13457 13458 13450 12008 12015 13456 13449 13452 13459 12019 13460 13290 13461 13462 
1672 1673 1898 1897 1697 1698 1923 1922 11853 13293 13294 13286 12024 13464 13465 13457 12015 12022 13463 13456 13459 13466 12026 13467 13297 13468 13469 
1673 1674 1899 1898 1698 1699 1924 1923 11860 13300 13301 13293 12031 13471 13472 13464 12022 12029 13470 13463 13466 13473 12033 13474 13304 13475 13476 
1675 1676 1901 1900 1700 1701 1926 1925 11868 13308 13309 13310 12039 13479 13480 13481 12037 12036 13477 13478 13484 13482 12042 13483 13314 13485 13486 
1676 1677 1902 1901 1701 1702 1927 1926 11877 13317 13318 13308 12048 13488 13489 13479 12036 12046 13487 13477 13482 13490 12050 13491 13321 13492 13493 
1677 1678 1903 1902 1702 1703 1928 1927 11884 13324 13325 13317 12055 13495 13496 13488 12046 12053 13494 13487 13490 13497 12057 13498 13328 13499 13500 
1678 1679 1904 1903 1703 1704 1929 1928 11891 13331 13332 13324 12062 13502 13503 13495 12053 12060 13501 13494 13497 13504 12064 13505 13335 13506 13507 
1679 1680 1905 1904 1704 1705 1930 1929 11898 13338 13339 13331 12069 13509 13510 13502 12060 12067 13508 13501 13504 13511 12071 13512 13342 13513 13514 
1680 1681 1906 1905 1705 1706 1931 1930 11905 13345 13346 13338 12076 13516 13517 13509 12067 12074 13515 13508 13511 13518 12078 13519 13349 13520 13521 
1681 1682 1907 1906 1706 1707 1932 1931 11912 13352 13353 13345 12083 13523 13524 13516 12074 12081 13522 13515 13518 13525 12085 13526 13356 13527 13528 
1682 1683 1908 1907 1707 1708 1933 1932 11919 13359 13360 13352 12090 13530 13531 13523 12081 12088 13529 13522 13525 13532 12092 13533 13363 13534 13535 
1683 1684 1909 1908 1708 1709 1934 1933 11926 13366 13367 13359 12097 13537 13538 13530 12088 12095 13536 13529 13532 13539 12099 13540 13370 13541 13542 
1684 1685 1910 1909 1709 1710 1935 1934 11933 13373 13374 13366 12104 13544 13545 13537 12095 12102 13543 13536 13539 13546 12106 13547 13377 13548 13549 
1685 1686 1911 1910 1710 1711 1936 1935 11940 13380 13381 13373 12111 13551 13552 13544 12102 12109 13550 13543 13546 13553 12113 13554 13384 13555 13556 
1686 1687 1912 1911 1711 1712 1937 1936 11947 13387 13388 13380 12118 13558 13559 13551 12109 12116 13557 13550 13553 13560 12120 13561 13391 13562 13563 
1687 1688 1913 1912 1712 1713 1938 1937 11954 13394 13395 13387 12125 13565 13566 13558 12116 12123 13564 13557 13560 13567 12127 13568 13398 13569 13570 
1688 1689 1914 1913 1713 1714 1939 1938 11961 13401 13402 13394 12132 13572 13573 13565 12123 12130 13571 13564 13567 13574 12134 13575 13405 13576 13577 
1689 1690 1915 1914 1714 1715 1940 1939 11968 13408 13409 13401 12139 13579 13580 13572 12130 12137 13578 13571 13574 13581 12141 13582 13412 13583 13584 
1690 1691 1916 1915 1715 1716 1941 1940 11975 13415 13416 13408 12146 13586 13587 13579 12137 12144 13585 13578 13581 13588 12148 13589 13419 13590 13591 
1691 1692 1917 1916 1716 1717 1942 1941 11982 13422 13423 13415 12153 13593 13594 13586 12144 12151 13592 13585 13588 13595 12155 13596 13426 13597 13598 
1692 1693 1918 1917 1717 1718 1943 1942 11989 13429 13430 13422 12160 13600 13601 13593 12151 12158 13599 13592 13595 13602 12162 13603 13433 13604 13605 
1693 1694 1919 1918 1718 1719 1944 1943 11996 13436 13437 13429 12167 13607 13608 13600 12158 12165 13606 13599 13602 13609 12169 13610 13440 13611 13612 
1694 1695 1920 1919 1719 1720 1945 1944 12003 13443 13444 13436 12174 13614 13615 13607 12165 12172 13613 13606 13609 13616 12176 13617 13447 13618 13619 
1695 1696 1921 1920 1720 1721 1946 1945 12010 13450 13451 13443 12181 13621 13622 13614 12172 12179 13620 13613 13616 13623 12183 13624 13454 13625 13626 
1696 1697 1922 1921 1721 1722 1947 1946 12017 13457 13458 13450 12188 13628 13629 13621 12179 12186 13627 13620 13623 13630 12190 13631 13461 13632 13633 
1697 1698 1923 1922 1722 1723 1948 1947 12024 13464 13465 13457 12195 13635 13636 13628 12186 12193 13634 13627 13630 13637 12197 13638 13468 13639 13640 
1698 1699 1924 1923 1723 1724 1949 1948 12031 13471 13472 13464 12202 13642 13643 13635 12193 12200 13641 13634 13637 13644 12204 13645 13475 13646 13647 
1700 1701 1926 1925 1725 1726 1951 1950 12039 13479 13480 13481 12210 13650 13651 13652 12208 12207 13648 13649 13655 13653 12213 13654 13485 13656 13657 
1701 1702 1927 1926 1726 1727 1952 1951 12048 13488 13489 13479 12219 13659 13660 13650 12207 12217 13658 13648 13653 13661 12221 13662 13492 13663 13664 
1702 1703 1928 1927 1727 1728 1953 1952 12055 13495 13496 13488 12226 13666 13667 13659 12217 12224 13665 13658 13661 13668 12228 13669 13499 13670 13671 
1703 1704 1929 1928 1728 1729 1954 1953 12062 13502 13503 13495 12233 13673 13674 13666 12224 12231 13672 13665 13668 13675 12235 13676 13506 13677 13678 
1704 1705 1930 1929 1729 1730 1955 1954 12069 13509 13510 13502 12240 13680 13681 13673 12231 12238 13679 13672 13675 13682 12242 13683 13513 13684 13685 
1705 1706 1931 1930 1730 1731 1956 1955 12076 13516 13517 13509 12247 13687 13688 13680 12238 12245 13686 13679 13682 13689 12249 13690 13520 13691 13692 
1706 1707 1932 1931 1731 1732 1957 1956 12083 13523 13524 13516 12254 13694 13695 13687 12245 12252 13693 13686 13689 13696 12256 13697 13527 13698 13699 
1707 1708 1933 1932 1732 1733 1958 1957 12090 13530 13531 13523 12261 13701 13702 13694 12252 12259 13700 13693 13696 13703 12263 13704 13534 13705 13706 
1708 1709 1934 1933 1733 1734 1959 1958 12097 13537 13538 13530 12268 13708 13709 13701 12259 12266 13707 13700 13703 13710 12270 13711 13541 13712 13713 
1709 1710 1935 1934 1734 1735 1960 1959 12104 13544 13545 13537 12275 13715 13716 13708 12266 12273 13714 13707 13710 13717 12277 13718 13548 13719 13720 
1710 1711 1936 1935 1735 1736 1961 1960 12111 13551 13552 13544 12282 13722 13723 13715 12273 12280 13721 13714 13717 13724 12284 13725 13555 13726 13727 
1711 1712 1937 1936 1736 1737 1962 1961 12118 13558 13559 13551 12289 13729 13730 13722 12280 12287 13728 13721 13724 13731 12291 13732 13562 13733 13734 
1712 1713 1938 1937 1737 1738 1963 1962 12125 13565 13566 13558 12296 13736 13737 13729 12287 12294 13735 13728 13731 13738 12298 13739 13569 13740 13741 
1713 1714 1939 1938 1738 1739 1964 1963 12132 13572 13573 13565 12303 13743 13744 13736 12294 12301 13742 13735 13738 13745 12305 13746 13576 13747 13748 
1714 1715 1940 1939 1739 1740 1965 1964 12139 13579 13580 13572 12310 13750 13751 13743 12301 12308 13749 13742 13745 13752 12312 13753 13583 13754 13755 
1715 1716 1941 1940 1740 1741 1966 1965 12146 13586 13587 13579 12317 13757 13758 13750 12308 12315 13756 13749 13752 13759 12319 13760 13590 13761 13762 
1716 1717 1942 1941 1741 1742 1967 1966 12153 13593 13594 13586 12324 13764 13765 13757 12315 12322 13763 13756 13759 13766 12326 13767 13597 13768 13769 
1717 1718 1943 1942 1742 1743 1968 1967 12160 13600 13601 13593 12331 13771 13772 13764 12322 12329 13770 13763 13766 13773 12333 13774 13604 13775 13776 
1718 1719 1944 1943 1743 1744 1969 1968 12167 13607 13608 13600 12338 13778 13779 13771 12329 12336 13777 13770 13773 13780 12340 13781 13611 13782 13783 
1719 1720 1945 1944 1744 1745 1970 1969 12174 13614 13615 13607 12345 13785 13786 13778 12336 12343 13784 13777 13780 13787 12347 13788 13618 13789 13790 
1720 1721 1946 1945 1745 1746 1971 1970 12181 13621 13622 13614 12352 13792 13793 13785 12343 12350 13791 13784 13787 13794 12354 13795 13625 13796 13797 
1721 1722 1947 1946 1746 1747 1972 1971 12188 13628 13629 13621 12359 13799 13800 13792 12350 12357 13798 13791 13794 13801 12361 13802 13632 13803 13804 
1722 1723 1948 1947 1747 1748 1973 1972 12195 13635 13636 13628 12366 13806 13807 13799 12357 12364 13805 13798 13801 13808 12368 13809 13639 13810 13811 
1723 1724 1949 1948 1748 1749 1974 1973 12202 13642 13643 13635 12373 13813 13814 13806 12364 12371 13812 13805 13808 13815 12375 13816 13646 13817 13818 
1725 1726 1951 1950 1750 1751 1976 1975 12210 13650 13651 13652 12381 13821 13822 13823 12379 12378 13819 13820 13826 13824 12384 13825 13656 13827 13828 
1726 1727 1952 1951 1751 1752 1977 1976 12219 13659 13660 13650 12390 13830 13831 13821 12378 12388 13829 13819 13824 13832 12392 13833 13663 13834 13835 
1727 1728 1953 1952 1752 1753 1978 1977 12226 13666 13667 13659 12397 13837 13838 13830 12388 12395 13836 13829 13832 13839 12399 13840 13670 13841 13842 
1728 1729 1954 1953 1753 1754 1979 1978 12233 13673 13674 13666 12404 13844 13845 13837 12395 12402 13843 13836 13839 13846 12406 13847 13677 13848 13849 
1729 1730 1955 1954 1754 1755 1980 1979 12240 13680 13681 13673 12411 13851 13852 13844 12402 12409 13850 13843 13846 13853 12413 13854 13684 13855 13856 
1730 1731 1956 1955 1755 1756 1981 1980 12247 13687 13688 13680 12418 13858 13859 13851 12409 12416 13857 13850 13853 13860 12420 13861 13691 13862 13863 
1731 1732 1957 1956 1756 1757 1982 1981 12254 13694 13695 13687 12425 13865 13866 13858 12416 12423 13864 13857 13860 13867 12427 13868 13698 13869 13870 
1732 1733 1958 1957 1757 1758 1983 1982 12261 13701 13702 13694 12432 13872 13873 13865 12423 12430 13871 13864 13867 13874 12434 13875 13705 13876 13877 
1733 1734 1959 1958 1758 1759 1984 1983 12268 13708 13709 13701 12439 13879 13880 13872 12430 12437 13878 13871 13874 13881 12441 13882 13712 13883 13884 
1734 1735 1960 1959 1759 1760 1985 1984 12275 13715 13716 13708 12446 13886 13887 13879 12437 12444 13885 13878 13881 13888 12448 13889 13719 13890 13891 
1735 1736 1961 1960 1760 1761 1986 1985 12282 13722 13723 13715 12453 13893 13894 13886 12444 12451 13892 13885 13888 13895 12455 13896 13726 13897 13898 
1736 1737 1962 1961 1761 1762 1987 1986 12289 13729 13730 13722 12460 13900 13901 13893 12451 12458 13899 13892 13895 13902 12462 13903 13733 13904 13905 
1737 1738 1963 1962 1762 1763 1988 1987 12296 13736 13737 13729 12467 13907 13908 13900 12458 12465 13906 13899 13902 13909 12469 13910 13740 13911 13912 
1738 1739 1964 1963 1763 1764 1989 1988 12303 13743 13744 13736 12474 13914 13915 13907 12465 12472 13913 13906 13909 13916 12476 13917 13747 13918 13919 
1739 1740 1965 1964 1764 1765 1990 1989 12310 13750 13751 13743 12481 13921 13922 13914 12472 12479 13920 13913 13916 13923 12483 13924 13754 13925 13926 
1740 1741 1966 1965 1765 1766 1991 1990 12317 13757 13758 13750 12488 13928 13929 13921 12479 12486 13927 13920 13923 13930 12490 13931 13761 13932 13933 
1741 1742 1967 1966 1766 1767 1992 1991 12324 13764 13765 13757 12495 13935 13936 13928 12486 12493 13934 13927 13930 13937 12497 13938 13768 13939 13940 
1742 1743 1968 1967 1767 1768 1993 1992 12331 13771 13772 13764 12502 13942 13943 13935 12493 12500 13941 13934 13937 13944 12504 13945 13775 13946 13947 
1743 1744 1969 1968 1768 1769 1994 1993 12338 13778 13779 13771 12509 13949 13950 13942 12500 12507 13948 13941 13944 13951 12511 13952 13782 13953 13954 
1744 1745 1970 1969 1769 1770 1995 1994 12345 13785 13786 13778 12516 13956 13957 13949 12507 12514 13955 13948 13951 13958 12518 13959 13789 13960 13961 
1745 1746 1971 1970 1770 1771 1996 1995 12352 13792 13793 13785 12523 13963 13964 13956 12514 12521 13962 13955 13958 13965 12525 13966 13796 13967 13968 
1746 1747 1972 1971 1771 1772 1997 1996 12359 13799 13800 13792 12530 13970 13971 13963 12521 12528 13969 13962 13965 13972 12532 13973 13803 13974 13975 
1747 1748 1973 1972 1772 1773 1998 1997 12366 13806 13807 13799 12537 13977 13978 13970 12528 12535 13976 13969 13972 13979 12539 13980 13810 13981 13982 
1748 1749 1974 1973 1773 1774 1999 1998 12373 13813 13814 13806 12544 13984 13985 13977 12535 12542 13983 13976 13979 13986 12546 13987 13817 13988 13989 
1750 1751 1976 1975 1775 1776 2001 2000 12381 13821 13822 13823 12552 13992 13993 13994 12550 12549 13990 13991 13997 13995 12555 13996 13827 13998 13999 
1751 1752 1977 1976 1776 1777 2002 2001 12390 13830 13831 13821 12561 14001 14002 13992 12549 12559 14000 13990 13995 14003 12563 14004 13834 14005 14006 
1752 1753 1978 1977 1777 1778 2003 2002 12397 13837 13838 13830 12568 14008 14009 14001 12559 12566 14007 14000 14003 14010 12570 14011 13841 14012 14013 
1753 1754 1979 1978 1778 1779 2004 2003 12404 13844 13845 13837 12575 14015 14016 14008 12566 12573 14014 14007 14010 14017 12577 14018 13848 14019 14020 
1754 1755 1980 1979 1779 1780 2005 2004 12411 13851 13852 13844 12582 14022 14023 14015 12573 12580 14021 14014 14017 14024 12584 14025 13855 14026 14027 
1755 1756 1981 1980 1780 1781 2006 2005 12418 13858 13859 13851 12589 14029 14030 14022 12580 12587 14028 14021 14024 14031 12591 14032 13862 14033 14034 
1756 1757 1982 1981 1781 1782 2007 2006 12425 13865 13866 13858 12596 14036 14037 14029 12587 12594 14035 14028 14031 14038 12598 14039 13869 14040 14041 
1757 1758 1983 1982 1782 1783 2008 2007 12432 13872 13873 13865 12603 14043 14044 14036 12594 12601 14042 14035 14038 14045 12605 14046 13876 14047 14048 
1758 1759 1984 1983 1783 1784 2009 2008 12439 13879 13880 13872 12610 14050 14051 14043 12601 12608 14049 14042 14045 14052 12612 14053 13883 14054 14055 
1759 1760 1985 1984 1784 1785 2010 2009 12446 13886 13887 13879 12617 14057 14058 14050 12608 12615 14056 14049 14052 14059 12619 14060 13890 14061 14062 
1760 1761 1986 1985 1785 1786 2011 2010 12453 13893 13894 13886 12624 14064 14065 14057 12615 12622 14063 14056 14059 14066 12626 14067 13897 14068 14069 
1761 1762 1987 1986 1786 1787 2012 2011 12460 13900 13901 13893 12631 14071 14072 14064 12622 12629 14070 14063 14066 14073 12633 14074 13904 14075 14076 
1762 1763 1988 1987 1787 1788 2013 2012 12467 13907 13908 13900 12638 14078 14079 14071 12629 12636 14077 14070 14073 14080 12640 14081 13911 14082 14083 
1763 1764 1989 1988 1788 1789 2014 2013 12474 13914 13915 13907 12645 14085 14086 14078 12636 12643 14084 14077 14080 14087 12647 14088 13918 14089 14090 
1764 1765 1990 1989 1789 1790 2015 2014 12481 13921 13922 13914 12652 14092 14093 14085 12643 12650 14091 14084 14087 14094 12654 14095 13925 14096 14097 
1765 1766 1991 1990 1790 1791 2016 2015 12488 13928 13929 13921 12659 14099 14100 14092 12650 12657 14098 14091 14094 14101 12661 14102 13932 14103 14104 
1766 1767 1992 1991 1791 1792 2017 2016 12495 13935 13936 13928 12666 14106 14107 14099 12657 12664 14105 14098 14101 14108 12668 14109 13939 14110 14111 
1767 1768 1993 1992 1792 1793 2018 2017 12502 13942 13943 13935 12673 14113 14114 14106 12664 12671 14112 14105 14108 14115 12675 14116 13946 14117 14118 
1768 1769 1994 1993 1793 1794 2019 2018 12509 13949 13950 13942 12680 14120 14121 14113 12671 12678 14119 14112 14115 14122 12682 14123 13953 14124 14125 
1769 1770 1995 1994 1794 1795 2020 2019 12516 13956 13957 13949 12687 14127 14128 14120 12678 12685 14126 14119 14122 14129 12689 14130 13960 14131 14132 
1770 1771 1996 1995 1795 1796 2021 2020 12523 13963 13964 13956 12694 14134 14135 14127 12685 12692 14133 14126 14129 14136 12696 14137 13967 14138 14139 
1771 1772 1997 1996 1796 1797 2022 2021 12530 13970 13971 13963 12701 14141 14142 14134 12692 12699 14140 14133 14136 14143 12703 14144 13974 14145 14146 
1772 1773 1998 1997 1797 1798 2023 2022 12537 13977 13978 13970 12708 14148 14149 14141 12699 12706 14147 14140 14143 14150 12710 14151 13981 14152 14153 
1773 1774 1999 1998 1798 1799 2024 2023 12544 13984 13985 13977 12715 14155 14156 14148 12706 12713 14154 14147 14150 14157 12717 14158 13988 14159 14160 
CELL_TYPES 1536
29 29 29 29 29 29 29 29 29 29 29 29 29 29 29 29 29 29 29 29 29 29 29 29 29 29 29 29 29 29 29 29 29 29 29 29 29 29 29 29 29 29 29 29 29 29 29 29 29 29 29 29 29 29 29 29 29 29 29 29 29 29 29 29 29 29 29 29 29 29 29 29 29 29 29 29 29 29 29 29 29 29 29 29 29 29 29 29 29 29 29 29 29 29 29 29 29 29 29 29 29 29 29 29 29 29 29 29 29 29 29 29 29 29 29 29 29 29 29 29 29 29 29 29 29 29 29 29 29 29 29 29 29 29 29 29 29 29 29 29 29 29 29 29 29 29 29 29 29 29 29 29 29 29 29 29 29 29 29 29 29 29 29 29 29 29 29 29 29 29 29 29 29 29 29 29 29 29 29 29 29 29 29 29 29 29 29 29 29 29 29 29 29 29 29 29 29 29 29 29 29 29 29 29 29 29 29 29 29 29 29 29 29 29 29 29 29 29 29 29 29 29 29 29 29 29 29 29 29 29 29 29 29 29 29 29 29 29 29 29 29 29 29 29 29 29 29 29 29 29 29 29 29 29 29 29 29 29 29 29 29 29 29 29 29 29 29 29 29 29 29 29 29 29 29 29 29 29 29 29 29 29 29 29 29 29 29 29 29 29 29 29 29 29 29 29 29 29 29 29 29 29 29 29 29 29 29 29 29 29 29 29 29 29 29 29 29 29 29 29 29 29 29 29 29 29 29 29 29 29 29 29 29 29 29 29 29 29 29 29 29 29 29 29 29 29 29 29 29 29 29 29 29 29 29 29 29 29 29 29 29 29 29 29 29 29 29 29 29 29 29 29 29 29 29 29 29 29 29 29 29 29 29 29 29 29 29 29 29 29 29 29 29 29 29 29 29 29 29 29 29 29 29 29 29 29 29 29 29 29 29 29 29 29 29 29 29 29 29 29 29 29 29 29 29 29 29 29 29 29 29 29 29 29 29 29 29 29 29 29 29 29 29 29 29 29 29 29 29 29 29 29 29 29 29 29 29 29 29 29 29 29 29 29 29 29 29 29 29 29 29 29 29 29 29 29 29 29 29 29 29 29 29 29 29 29 29 29 29 29 29 29 29 29 29 29 29 29 29 29 29 29 29 29 29 29 29 29 29 29 29 29 29 29 29 29 29 29 29 29 29 29 29 29 29 29 29 29 29 29 29 29 29 29 29 29 29 29 29 29 29 29 29 29 29 29 29 29 29 29 29 29 29 29 29 29 29 29 29 29 29 29 29 29 29 29 29 29 29 29 29 29 29 29 29 29 29 29 29 29 29 29 29 29 29 29 29 29 29 29 29 29 29 29 29 29 29 29 29 29 29 29 29 29 29 29 29 29 29 29 29 29 29 29 29 29 29 29 29 29 29 29 29 29 29 29 29 29 29 29 29 29 29 29 29 29 29 29 29 29 29 29 29 29 29 29 29 29 29 29 29 29 29 29 29 29 29 29 29 29 29 29 29 29 29 29 29 29 29 29 29 29 29 29 29 29 29 29 29 29 29 29 29 29 29 29 29 29 29 29 29 29 29 29 29 29 29 29 29 29 29 29 29 29 29 29 29 29 29 29 29 29 29 29 29 29 29 29 29 29 29 29 29 29 29 29 29 29 29 29 29 29 29 29 29 29 29 29 29 29 29 29 29 29 29 29 29 29 29 29 29 29 29 29 29 29 29 29 29 29 29 29 29 29 29 29 29 29 29 29 29 29 29 29 29 29 29 29 29 29 29 29 29 29 29 29 29 29 29 29 29 29 29 29 29 29 29 29 29 29 29 29 29 29 29 29 29 29 29 29 29 29 29 29 29 29 29 29 29 29 29 29 29 29 29 29 29 29 29 29 29 29 29 29 29 29 29 29 29 29 29 29 29 29 29 29 29 29 29 29 29 29 29 29 29 29 29 29 29 29 29 29 29 29 29 29 29 29 29 29 29 29 29 29 29 29 29 29 29 29 29 29 29 29 29 29 29 29 29 29 29 29 29 29 29 29 29 29 29 29 29 29 29 29 29 29 29 29 29 29 29 29 29 29 29 29 29 29 29 29 29 29 29 29 29 29 29 29 29 29 29 29 29 29 29 29 29 29 29 29 29 29 29 29 29 29 29 29 29 29 29 29 29 29 29 29 29 29 29 29 29 29 29 29 29 29 29 29 29 29 29 29 29 29 29 29 29 29 29 29 29 29 29 29 29 29 29 29 29 29 29 29 29 29 29 29 29 29 29 29 29 29 29 29 29 29 29 29 29 29 29 29 29 29 29 29 29 29 29 29 29 29 29 29 29 29 29 29 29 29 29 29 29 29 29 29 29 29 29 29 29 29 29 29 29 29 29 29 29 29 29 29 29 29 29 29 29 29 29 29 29 29 29 29 29 29 29 29 29 29 29 29 29 29 29 29 29 29 29 29 29 29 29 29 29 29 29 29 29 29 29 29 29 29 29 29 29 29 29 29 29 29 29 29 29 29 29 29 29 29 29 29 29 29 29 29 29 29 29 29 29 29 29 29 29 29 29 29 29 29 29 29 29 29 29 29 29 29 29 29 29 29 29 29 29 29 29 29 29 29 29 29 29 29 29 29 29 29 29 29 29 29 29 29 29 29 29 29 29 29 29 29 29 29 29 29 29 29 29 29 29 29 29 29 29 29 29 29 29 29 29 29 29 29 29 29 29 29 29 29 29 29 29 29 29 29 29 29 29 29 29 29 29 29 29 29 29 29 29 29 29 29 29 29 29 29 29 29 29 29 29 29 29 29 29 29 29 29 29 29 29 29 29 29 29 29 29 29 29 29 29 29 29 29 29 29 29 29 29 29 29 29 29 29 29 29 29 29 29 29 29 29 29 29 29 29 29 29 29 29 29 29 29 29 29 29 29 29 29 29 29 29 29 29 29 29 29 29 29 29 29 29 29 29 29 29 29 29 29 29 29 29 29 29 29 29 29 29 29 29 29 29 29 29 29 29 29 29 29 29 29 29 29 29 29 29 29 29 29 29 29 29 29 29 29 29 29 29 29 29 29 29 29 29 29 29 29 29 29 29 29 29 29 29 29 29 29 29 29 29 29 29 29 29 29 29 29 29 29 29 29 29 29 29 29 29 29 29 29 29 29 29 29 29 29 29 29 29 29 29 29 29 29 29 29 29 29 29 29 29 29 29 29 29 29 29 29 29 29 29 29 29 29 29 29 29 29 29 29 29 29 29 29 29 29 29 29 29 29 29 29 29 29 29 29 29 29 29 29 29 29 29 29 29 29 29 29 29 29 29 29 29 29 29 29 29 29 29 29 29 29 29 29 29 29 29 29 29 29 29 29 29 29 29 29 29 29 29 29 29 29 29 29 29 29 29 29 29 29 29 29 29 29 29 29 29 29 29 29 29 29 29 29 29 29 29 29 29 29 29 29 29 29 29 29 29 29 29 29 29 29 29 29 29 29 29 

POINT_DATA 14161
SCALARS weights float 1
LOOKUP_TABLE default
0.072338 0.144676 0.144676 0.144676 0.144676 0.144676 0.144676 0.144676 0.144676 0.144676 0.144676 0.144676 0.144676 0.144676 0.144676 0.144676 0.144676 0.144676 0.144676 0.144676 0.144676 0.144676 0.144676 0.144676 0.072338 0.144676 0.289352 0.289352 0.289352 0.289352 0.289352 0.289352 0.289352 0.289352 0.289352 0.289352 0.289352 0.289352 0.289352 0.289352 0.289352 0.289352 0.289352 0.289352 0.289352 0.289352 0.289352 0.289352 0.289352 0.144676 0.144676 0.289352 0.289352 0.289352 0.289352 0.289352 0.289352 0.289352 0.289352 0.289352 0.289352 0.289352 0.289352 0.289352 0.289352 0.289352 0.289352 0.289352 0.289352 0.289352 0.289352 0.289352 0.289352 0.289352 0.144676 0.144676 0.289352 0.289352 0.289352 0.289352 0.289352 0.289352 0.289352 0.289352 0.289352 0.289352 0.289352 0.289352 0.289352 0.289352 0.289352 0.289352 0.289352 0.289352 0.289352 0.289352 0.289352 0.289352 0.289352 0.144676 0.144676 0.289352 0.289352 0.289352 0.289352 0.289352 0.289352 0.289352 0.289352 0.289352 0.289352 0.289352 0.289352 0.289352 0.289352 0.289352 0.289352 0.289352 0.289352 0.289352 0.289352 0.289352 0.289352 0.289352 0.144676 0.144676 0.289352 0.289352 0.289352 0.289352 0.289352 0.289352 0.289352 0.289352 0.289352 0.289352 0.289352 0.289352 0.289352 0.289352 0.289352 0.289352 0.289352 0.289352 0.289352 0.289352 0.289352 0.289352 0.289352 0.144676 0.144676 0.289352 0.289352 0.289352 0.289352 0.289352 0.289352 0.289352 0.289352 0.289352 0.289352 0.289352 0.289352 0.289352 0.289352 0.289352 0.289352 0.289352 0.289352 0.289352 0.289352 0.289352 0.289352 0.289352 0.144676 0.144676 0.289352 0.289352 0.289352 0.289352 0.289352 0.289352 0.289352 0.289352 0.289352 0.289352 0.289352 0.289352 0.289352 0.289352 0.289352 0.289352 0.289352 0.289352 0.289352 0.289352 0.289352 0.289352 0.289352 0.144676 0.072338 0.144676 0.144676 0.144676 0.144676 0.144676 0.144676 0.144676 0.144676 0.144676 0.144676 0.144676 0.144676 0.144676 0.144676 0.144676 0.144676 0.144676 0.144676 0.144676 0.144676 0.144676 0.144676 0.144676 0.072338 0.144676 0.289352 0.289352 0.289352 0.289352 0.289352 0.289352 0.289352 0.289352 0.289352 0.289352 0.289352 0.289352 0.289352 0.289352 0.289352 0.289352 0.289352 0.289352 0.289352 0.289352 0.289352 0.289352 0.289352 0.144676 0.289352 0.578704 0.578704 0.578704 0.578704 0.578704 0.578704 0.578704 0.578704 0.578704 0.578704 0.578704 0.578704 0.578704 0.578704 0.578704 0.578704 0.578704 0.578704 0.578704 0.578704 0.578704 0.578704 0.578704 0.289352 0.289352 0.578704 0.578704 0.578704 0.578704 0.578704 0.578704 0.578704 0.578704 0.578704 0.578704 0.578704 0.578704 0.578704 0.578704 0.578704 0.578704 0.578704 0.578704 0.578704 0.578704 0.578704 0.578704 0.578704 0.289352 0.289352 0.578704 0.578704 0.578704 0.578704 0.578704 0.578704 0.578704 0.578704 0.578704 0.578704 0.578704 0.578704 0.578704 0.578704 0.578704 0.578704 0.578704 0.578704 0.578704 0.578704 0.578704 0.578704 0.578704 0.289352 0.289352 0.578704 0.578704 0.578704 0.578704 0.578704 0.578704 0.578704 0.578704 0.578704 0.578704 0.578704 0.578704 0.578704 0.578704 0.578704 0.578704 0.578704 0.578704 0.578703 0.578704 0.578704 0.578704 0.578704 0.289352 0.289352 0.578704 0.578704 0.578704 0.578704 0.578704 0.578704 0.578704 0.578704 0.578704 0.578704 0.578704 0.578704 0.578704 0.578704 0.578704 0.578704 0.578704 0.578704 0.578704 0.578704 0.578704 0.578704 0.578704 0.289352 0.289352 0.578704 0.578704 0.578704 0.578704 0.578704 0.578704 0.578704 0.578704 0.578704 0.578704 0.578704 0.578704 0.578704 0.578704 0.578704 0.578704 0.578704 0.578704 0.578704 0.578704 0.578704 0.578704 0.578704 0.289352 0.289352 0.578704 0.578704 0.578704 0.578704 0.578704 0.578704 0.578704 0.578704 0.578704 0.578704 0.578704 0.578704 0.578704 0.578704 0.578704 0.578704 0.578704 0.578704 0.578704 0.578704 0.578704 0.578704 0.578704 0.289352 0.144676 0.289352 0.289352 0.289352 0.289352 0.289352 0.289352 0.289352 0.289352 0.289352 0.289352 0.289352 0.289352 0.289352 0.289352 0.289352 0.289352 0.289352 0.289352 0.289352 0.289352 0.289352 0.289352 0.289352 0.144676 0.144676 0.289352 0.289352 0.289352 0.289352 0.289352 0.289352 0.289352 0.289352 0.289352 0.289352 0.289352 0.289352 0.289352 0.289352 0.289352 0.289352 0.289352 0.289352 0.289352 0.289352 0.289352 0.289352 0.289352 0.144676 0.289352 0.578704 0.578704 0.578704 0.578704 0.578704 0.578704 0.578704 0.578704 0.578704 0.578704 0.578704 0.578704 0.578704 0.578704 0.578704 0.578704 0.578704 0.578704 0.578704 0.578704 0.578704 0.578704 0.578704 0.289352 0.289352 0.578704 0.578704 0.578704 0.578704 0.578704 0.578704 0.578704 0.578704 0.578704 0.578704 0.578704 0.578704 0.578704 0.578704 0.578704 0.578704 0.578704 0.578704 0.578704 0.578704 0.578704 0.578704 0.578704 0.289352 0.289352 0.578704 0.578704 0.578704 0.578704 0.578704 0.578704 0.578704 0.578704 0.578704 0.578704 0.578704 0.578704 0.578704 0.578704 0.578704 0.578704 0.578704 0.578704 0.578703 0.578704 0.578704 0.578704 0.578704 0.289352 0.289352 0.578704 0.578704 0.578704 0.578704 0.578704 0.578704 0.578704 0.578704 0.578704 0.578704 0.578704 0.578704 0.578704 0.578704 0.578704 0.578704 0.578704 0.578704 0.578703 0.578704 0.578704 0.578704 0.578704 0.289352 0.289352 0.578704 0.578704 0.578704 0.578704 0.578704 0.578704 0.578704 0.578704 0.578704 0.578704 0.578704 0.578704 0.578704 0.578704 0.578704 0.578704 0.578704 0.578704 0.578704 0.578704 0.578704 0.578704 0.578704 0.289352 0.289352 0.578704 0.578704 0.578704 0.578704 0.578704 0.578704 0.578704 0.578704 0.578704 0.578704 0.578704 0.578704 0.578704 0.578704 0.578704 0.578704 0.578704 0.578704 0.578704 0.578704 0.578704 0.578704 0.578704 0.289352 0.289352 0.578704 0.578704 0.578704 0.578704 0.578704 0.578704 0.578704 0.578704 0.578704 0.578704 0.578704 0.578704 0.578704 0.578704 0.578704 0.578704 0.578704 0.578704 0.578703 0.578704 0.578704 0.578704 0.578704 0.289352 0.144676 0.289352 0.289352 0.289352 0.289352 0.289352 0.289352 0.289352 0.289352 0.289352 0.289352 0.289352 0.289352 0.289352 0.289352 0.289352 0.289352 0.289352 0.289352 0.289352 0.289352 0.289352 0.289352 0.289352 0.144676 0.144676 0.289352 0.289352 0.289352 0.289352 0.289352 0.289352 0.289352 0.289352 0.289352 0.289352 0.289352 0.289352 0.289352 0.289352 0.289352 0.289352 0.289352 0.289352 0.289352 0.289352 0.289352 0.289352 0.289352 0.144676 0.289352 0.578704 0.578704 0.578704 0.578704 0.578704 0.578704 0.578704 0.578704 0.578704 0.578704 0.578704 0.578704 0.578704 0.578704 0.578704 0.578704 0.578704 0.578703 0.578703 0.578704 0.578704 0.578703 0.578704 0.289352 0.289352 0.578704 0.578704 0.578704 0.578704 0.578704 0.578704 0.578704 0.578704 0.578704 0.578703 0.578704 0.578704 0.578704 0.578704 0.578704 0.578704 0.578704 0.578703 0.578703 0.578704 0.578704 0.578703 0.578704 0.289352 0.289352 0.578704 0.578704 0.578704 0.578704 0.578704 0.578704 0.578704 0.578704 0.578704 0.578703 0.578704 0.578704 0.578704 0.578704 0.578704 0.578704 0.578704 0.578703 0.578703 0.578704 0.578704 0.578703 0.578704 0.289352 0.289352 0.578704 0.578704 0.578704 0.578704 0.578704 0.578704 0.578704 0.578704 0.578704 0.578703 0.578704 0.578704 0.578704 0.578704 0.578704 0.578704 0.578704 0.578703 0.578703 0.578703 0.578704 0.578703 0.578704 0.289352 0.289352 0.578704 0.578704 0.578704 0.578704 0.578704 0.578704 0.578704 0.578704 0.578704 0.578704 0.578704 0.578704 0.578704 0.578704 0.578704 0.578704 0.578704 0.578703 0.578703 0.578704 0.578704 0.578703 0.578704 0.289352 0.289352 0.578704 0.578704 0.578704 0.578704 0.578704 0.578704 0.578704 0.578704 0.578704 0.578704 0.578704 0.578704 0.578704 0.578704 0.578704 0.578704 0.578704 0.578703 0.578703 0.578704 0.578704 0.578704 0.578704 0.289352 0.289352 0.578704 0.578704 0.578704 0.578704 0.578704 0.578704 0.578704 0.578704 0.578704 0.578703 0.578704 0.578704 0.578704 0.578704 0.578704 0.578704 0.578704 0.578703 0.578703 0.578704 0.578704 0.578703 0.578704 0.289352 0.144676 0.289352 0.289352 0.289352 0.289352 0.289352 0.289352 0.289352 0.289352 0.289352 0.289352 0.289352 0.289352 0.289352 0.289352 0.289352 0.289352 0.289352 0.289352 0.289352 0.289352 0.289352 0.289352 0.289352 0.144676 0.144676 0.289352 0.289352 0.289352 0.289352 0.289352 0.289352 0.289352 0.289352 0.289352 0.289352 0.289352 0.289352 0.289352 0.289352 0.289352 0.289352 0.289352 0.289352 0.289352 0.289352 0.289352 0.289352 0.289352 0.144676 0.289352 0.578704 0.578704 0.578704 0.578704 0.578704 0.578704 0.578704 0.578704 0.578703 0.578703 0.578703 0.578704 0.578704 0.578703 0.578703 0.578704 0.578703 0.578703 0.578703 0.578703 0.578704 0.578703 0.578703 0.289352 0.289352 0.578704 0.578704 0.578704 0.578703 0.578704 0.578704 0.578704 0.578704 0.578703 0.578703 0.578703 0.578704 0.578704 0.578703 0.578703 0.578704 0.578703 0.578703 0.578703 0.578703 0.578704 0.578703 0.578703 0.289352 0.289352 0.578704 0.578704 0.578704 0.578703 0.578704 0.578704 0.578704 0.578704 0.578703 0.578703 0.578703 0.578704 0.578704 0.578703 0.578703 0.578704 0.578703 0.578703 0.578703 0.578703 0.578704 0.578703 0.578703 0.289352 0.289352 0.578704 0.578704 0.578703 0.578703 0.578704 0.578703 0.578703 0.578703 0.578703 0.578703 0.578703 0.578703 0.578703 0.578703 0.578703 0.578704 0.578703 0.578703 0.578703 0.578703 0.578703 0.578703 0.578703 0.289352 0.289352 0.578704 0.578704 0.578704 0.578703 0.578703 0.578704 0.578703 0.578703 0.578703 0.578703 0.578703 0.578703 0.578704 0.578703 0.578703 0.578704 0.578703 0.578703 0.578703 0.578703 0.578704 0.578703 0.578703 0.289352 0.289352 0.578704 0.578704 0.578704 0.578703 0.578704 0.578704 0.578704 0.578704 0.578703 0.578703 0.578703 0.578704 0.578704 0.578703 0.578703 0.578704 0.578703 0.578703 0.578703 0.578703 0.578704 0.578703 0.578703 0.289352 0.289352 0.578704 0.578704 0.578704 0.578703 0.578704 0.578704 0.578703 0.578704 0.578703 0.578703 0.578703 0.578704 0.578704 0.578703 0.578703 0.578704 0.578703 0.578703 0.578703 0.578703 0.578704 0.578703 0.578703 0.289352 0.144676 0.289352 0.289352 0.289352 0.289352 0.289352 0.289352 0.289352 0.289352 0.289352 0.289352 0.289352 0.289352 0.289352 0.289352 0.289352 0.289352 0.289352 0.289352 0.289352 0.289352 0.289352 0.289352 0.289352 0.144676 0.144676 0.289352 0.289352 0.289352 0.289352 0.289352 0.289352 0.289352 0.289352 0.289352 0.289352 0.289352 0.289352 0.289352 0.289352 0.289352 0.289352 0.289352 0.289352 0.289352 0.289352 0.289352 0.289352 0.289352 0.144676 0.289352 0.578703 0.578703 0.578703 0.578703 0.578703 0.578703 0.578703 0.578703 0.578703 0.578703 0.578703 0.578703 0.578703 0.578703 0.578703 0.578703 0.578703 0.578703 0.578703 0.578703 0.578703 0.578703 0.578703 0.289352 0.289352 0.578703 0.578703 0.578703 0.578703 0.578703 0.578703 0.578703 0.578703 0.578703 0.578703 0.578703 0.578703 0.578703 0.578703 0.578703 0.578703 0.578703 0.578703 0.578703 0.578703 0.578703 0.578703 0.578703 0.289352 0.289352 0.578703 0.578703 0.578703 0.578703 0.578703 0.578703 0.578703 0.578703 0.578703 0.578703 0.578703 0.578703 0.578703 0.578703 0.578703 0.578703 0.578703 0.578703 0.578703 0.578703 0.578703 0.578703 0.578703 0.289352 0.289352 0.578703 0.578703 0.578703 0.578703 0.578703 0.578703 0.578703 0.578703 0.578703 0.578703 0.578703 0.578703 0.578703 0.578703 0.578703 0.578703 0.578703 0.578703 0.578703 0.578703 0.578703 0.578703 0.578703 0.289352 0.289352 0.578703 0.578703 0.578703 0.578703 0.578703 0.578703 0.578703 0.578703 0.578703 0.578703 0.578703 0.578703 0.578703 0.578703 0.578703 0.578703 0.578703 0.578703 0.578703 0.578703 0.578703 0.578703 0.578703 0.289352 0.289352 0.578703 0.578703 0.578703 0.578703 0.578703 0.578703 0.578703 0.578703 0.578703 0.578703 0.578703 0.578703 0.578703 0.578703 0.578703 0.578703 0.578703 0.578703 0.578703 0.578703 0.578703 0.578703 0.578703 0.289352 0.289352 0.578703 0.578703 0.578703 0.578703 0.578703 0.578703 0.578703 0.578703 0.578703 0.578703 0.578703 0.578703 0.578703 0.578703 0.578703 0.578703 0.578703 0.578703 0.578703 0.578703 0.578703 0.578703 0.578703 0.289352 0.144676 0.289352 0.289352 0.289352 0.289352 0.289352 0.289352 0.289352 0.289352 0.289352 0.289352 0.289352 0.289352 0.289352 0.289352 0.289352 0.289352 0.289352 0.289351 0.289351 0.289352 0.289352 0.289352 0.289352 0.144676 0.144676 0.289352 0.289352 0.289352 0.289352 0.289352 0.289352 0.289352 0.289352 0.289352 0.289352 0.289352 0.289352 0.289352 0.289352 0.289352 0.289352 0.289352 0.289352 0.289352 0.289352 0.289352 0.289352 0.289352 0.144676 0.289352 0.578704 0.578704 0.578704 0.578704 0.578704 0.578704 0.578704 0.578704 0.578704 0.578704 0.578704 0.578704 0.578704 0.578704 0.578704 0.578704 0.578704 0.578704 0.578703 0.578704 0.578704 0.578704 0.578704 0.289352 0.289352 0.578704 0.578704 0.578704 0.578704 0.578704 0.578704 0.578704 0.578704 0.578704 0.578704 0.578704 0.578704 0.578704 0.578704 0.578704 0.578704 0.578704 0.578704 0.578703 0.578704 0.578704 0.578704 0.578704 0.289352 0.289352 0.578704 0.578704 0.578704 0.578704 0.578704 0.578704 0.578704 0.578704 0.578704 0.578704 0.578704 0.578704 0.578704 0.578704 0.578704 0.578704 0.578704 0.578704 0.578703 0.578704 0.578704 0.578704 0.578704 0.289352 0.289352 0.578704 0.578704 0.578704 0.578704 0.578704 0.578704 0.578704 0.578704 0.578704 0.578704 0.578704 0.578704 0.578704 0.578704 0.578704 0.578704 0.578704 0.578704 0.578703 0.578704 0.578704 0.578704 0.578704 0.289352 0.289352 0.578704 0.578704 0.578704 0.578704 0.578704 0.578704 0.578704 0.578704 0.578704 0.578704 0.578704 0.578704 0.578704 0.578704 0.578704 0.578704 0.578704 0.578704 0.578703 0.578704 0.578704 0.578704 0.578704 0.289352 0.289352 0.578704 0.578704 0.578704 0.578704 0.578704 0.578704 0.578704 0.578704 0.578704 0.578704 0.578704 0.578704 0.578704 0.578704 0.578704 0.578704 0.578704 0.578704 0.578703 0.578704 0.578704 0.578704 0.578704 0.289352 0.289352 0.578704 0.578704 0.578704 0.578704 0.578704 0.578704 0.578704 0.578704 0.578704 0.578704 0.578704 0.578704 0.578704 0.578704 0.578704 0.578704 0.578704 0.578704 0.578703 0.578704 0.578704 0.578704 0.578704 0.289352 0.144676 0.289352 0.289352 0.289352 0.289352 0.289352 0.289352 0.289352 0.289352 0.289352 0.289352 0.289352 0.289352 0.289352 0.289352 0.289352 0.289352 0.289352 0.289352 0.289352 0.289352 0.289352 0.289352 0.289352 0.144676 0.144676 0.289352 0.289352 0.289352 0.289352 0.289352 0.289352 0.289352 0.289352 0.289352 0.289352 0.289352 0.289352 0.289352 0.289352 0.289352 0.289352 0.289352 0.289352 0.289352 0.289352 0.289352 0.289352 0.289352 0.144676 0.289352 0.578704 0.578704 0.578704 0.578704 0.578704 0.578704 0.578704 0.578704 0.578704 0.578704 0.578704 0.578704 0.578704 0.578704 0.578704 0.578704 0.578704 0.578704 0.578704 0.578704 0.578704 0.578704 0.578704 0.289352 0.289352 0.578704 0.578704 0.578704 0.578704 0.578704 0.578704 0.578704 0.578704 0.578704 0.578704 0.578704 0.578704 0.578704 0.578704 0.578704 0.578704 0.578704 0.578704 0.578704 0.578704 0.578704 0.578704 0.578704 0.289352 0.289352 0.578704 0.578704 0.578704 0.578704 0.578704 0.578704 0.578704 0.578704 0.578704 0.578704 0.578704 0.578704 0.578704 0.578704 0.578704 0.578704 0.578704 0.578704 0.578704 0.578704 0.578704 0.578704 0.578704 0.289352 0.289352 0.578704 0.578704 0.578704 0.578704 0.578704 0.578704 0.578704 0.578704 0.578704 0.578704 0.578704 0.578704 0.578704 0.578704 0.578704 0.578704 0.578704 0.578704 0.578704 0.578704 0.578704 0.578704 0.578704 0.289352 0.289352 0.578704 0.578704 0.578704 0.578704 0.578704 0.578704 0.578704 0.578704 0.578704 0.578704 0.578704 0.578704 0.578704 0.578704 0.578704 0.578704 0.578704 0.578704 0.578704 0.578704 0.578704 0.578704 0.578704 0.289352 0.289352 0.578704 0.578704 0.578704 0.578704 0.578704 0.578704 0.578704 0.578704 0.578704 0.578704 0.578704 0.578704 0.578704 0.578704 0.578704 0.578704 0.578704 0.578704 0.578704 0.578704 0.578704 0.578704 0.578704 0.289352 0.289352 0.578704 0.578704 0.578704 0.578704 0.578704 0.578704 0.578704 0.578704 0.578704 0.578704 0.578704 0.578704 0.578704 0.578704 0.578704 0.578704 0.578704 0.578704 0.578704 0.578704 0.578704 0.578704 0.578704 0.289352 0.144676 0.289352 0.289352 0.289352 0.289352 0.289352 0.289352 0.289352 0.289352 0.289352 0.289352 0.289352 0.289352 0.289352 0.289352 0.289352 0.289352 0.289352 0.289352 0.289352 0.289352 0.289352 0.289352 0.289352 0.144676 0.072338 0.144676 0.144676 0.144676 0.144676 0.144676 0.144676 0.144676 0.144676 0.144676 0.144676 0.144676 0.144676 0.144676 0.144676 0.144676 0.144676 0.144676 0.144676 0.144676 0.144676 0.144676 0.144676 0.144676 0.072338 0.144676 0.289352 0.289352 0.289352 0.289352 0.289352 0.289352 0.289352 0.289352 0.289352 0.289352 0.289352 0.289352 0.289352 0.289352 0.289352 0.289352 0.289352 0.289352 0.289352 0.289352 0.289352 0.289352 0.289352 0.144676 0.144676 0.289352 0.289352 0.289352 0.289352 0.289352 0.289352 0.289352 0.289352 0.289352 0.289352 0.289352 0.289352 0.289352 0.289352 0.289352 0.289352 0.289352 0.289352 0.289352 0.289352 0.289352 0.289352 0.289352 0.144676 0.144676 0.289352 0.289352 0.289352 0.289352 0.289352 0.289352 0.289352 0.289352 0.289352 0.289352 0.289352 0.289352 0.289352 0.289352 0.289352 0.289352 0.289352 0.289352 0.289352 0.289352 0.289352 0.289352 0.289352 0.144676 0.144676 0.289352 0.289352 0.289352 0.289352 0.289352 0.289352 0.289352 0.289352 0.289352 0.289352 0.289352 0.289352 0.289352 0.289352 0.289352 0.289352 0.289352 0.289352 0.289352 0.289352 0.289352 0.289352 0.289352 0.144676 0.144676 0.289352 0.289352 0.289352 0.289352 0.289352 0.289352 0.289352 0.289352 0.289352 0.289352 0.289352 0.289352 0.289352 0.289352 0.289352 0.289352 0.289352 0.289352 0.289352 0.289352 0.289352 0.289352 0.289352 0.144676 0.144676 0.289352 0.289352 0.289352 0.289352 0.289352 0.289352 0.289352 0.289352 0.289352 0.289352 0.289352 0.289352 0.289352 0.289352 0.289352 0.289352 0.289352 0.289352 0.289352 0.289352 0.289352 0.289352 0.289352 0.144676 0.144676 0.289352 0.289352 0.289352 0.289352 0.289352 0.289352 0.289352 0.289352 0.289352 0.289352 0.289352 0.289352 0.289352 0.289352 0.289352 0.289352 0.289352 0.289352 0.289352 0.289352 0.289352 0.289352 0.289352 0.144676 0.072338 0.144676 0.144676 0.144676 0.144676 0.144676 0.144676 0.144676 0.144676 0.144676 0.144676 0.144676 0.144676 0.144676 0.144676 0.144676 0.144676 0.144676 0.144676 0.144676 0.144676 0.144676 0.144676 0.144676 0.072338 0.072338 0.144676 0.144676 0.072338 0.072338 0.144676 0.289352 0.144676 0.144676 0.289352 0.289352 0.144676 0.072338 0.072338 0.144676 0.144676 0.072338 0.144676 0.072338 0.072338 0.144676 0.144676 0.144676 0.289352 0.144676 0.289352 0.289352 0.072338 0.072338 0.144676 0.144676 0.144676 0.072338 0.072338 0.144676 0.144676 0.144676 0.289352 0.144676 0.289352 0.289352 0.072338 0.072338 0.144676 0.144676 0.144676 0.072338 0.072338 0.144676 0.144676 0.144676 0.289352 0.144676 0.289352 0.289352 0.072338 0.072338 0.144676 0.144676 0.144676 0.072338 0.072338 0.144676 0.144676 0.144676 0.289352 0.144676 0.289352 0.289352 0.072338 0.072338 0.144676 0.144676 0.144676 0.072338 0.072338 0.144676 0.144676 0.144676 0.289352 0.144676 0.289352 0.289352 0.072338 0.072338 0.144676 0.144676 0.144676 0.072338 0.072338 0.144676 0.144676 0.144676 0.289352 0.144676 0.289352 0.289352 0.072338 0.072338 0.144676 0.144676 0.144676 0.072338 0.072338 0.144676 0.144676 0.144676 0.289352 0.144676 0.289352 0.289352 0.072338 0.072338 0.144676 0.144676 0.144676 0.072338 0.072338 0.144676 0.144676 0.144676 0.289352 0.144676 0.289352 0.289352 0.072338 0.072338 0.144676 0.144676 0.144676 0.072338 0.0723379 0.144676 0.144676 0.144676 0.289352 0.144676 0.289352 0.289352 0.0723379 0.0723379 0.144676 0.144676 0.144676 0.0723379 0.072338 0.144676 0.144676 0.144676 0.289352 0.144676 0.289352 0.289352 0.072338 0.072338 0.144676 0.144676 0.144676 0.072338 0.072338 0.144676 0.144676 0.144676 0.289352 0.144676 0.289352 0.289352 0.072338 0.072338 0.144676 0.144676 0.144676 0.072338 0.072338 0.144676 0.144676 0.144676 0.289352 0.144676 0.289352 0.289352 0.072338 0.072338 0.144676 0.144676 0.144676 0.072338 0.072338 0.144676 0.144676 0.144676 0.289352 0.144676 0.289352 0.289352 0.072338 0.072338 0.144676 0.144676 0.144676 0.072338 0.0723379 0.144676 0.144676 0.144676 0.289352 0.144676 0.289352 0.289352 0.0723379 0.0723379 0.144676 0.144676 0.144676 0.0723379 0.072338 0.144676 0.144676 0.144676 0.289352 0.144676 0.289352 0.289352 0.072338 0.072338 0.144676 0.144676 0.144676 0.072338 0.072338 0.144676 0.144676 0.144676 0.289352 0.144676 0.289352 0.289352 0.072338 0.072338 0.144676 0.144676 0.144676 0.072338 0.0723379 0.144676 0.144676 0.144676 0.289352 0.144676 0.289352 0.289352 0.0723379 0.0723379 0.144676 0.144676 0.144676 0.0723379 0.0723379 0.144676 0.144676 0.144676 0.289352 0.144676 0.289352 0.289352 0.0723379 0.0723379 0.144676 0.144676 0.144676 0.0723379 0.0723379 0.144676 0.144676 0.144676 0.289352 0.144676 0.289352 0.289352 0.0723379 0.0723379 0.144676 0.144676 0.144676 0.0723379 0.072338 0.144676 0.144676 0.144676 0.289352 0.144676 0.289352 0.289352 0.072338 0.072338 0.144676 0.144676 0.144676 0.072338 0.072338 0.144676 0.144676 0.144676 0.289352 0.144676 0.289352 0.289352 0.072338 0.072338 0.144676 0.144676 0.144676 0.072338 0.0723379 0.144676 0.144676 0.144676 0.289352 0.144676 0.289352 0.289352 0.0723379 0.0723379 0.144676 0.144676 0.144676 0.0723379 0.072338 0.072338 0.144676 0.072338 0.144676 0.144676 0.144676 0.289352 0.072338 0.072338 0.072338 0.144676 0.144676 0.072338 0.072338 0.144676 0.289352 0.144676 0.144676 0.289352 0.289352 0.144676 0.072338 0.144676 0.144676 0.072338 0.144676 0.072338 0.144676 0.289352 0.144676 0.289352 0.289352 0.072338 0.144676 0.144676 0.144676 0.072338 0.144676 0.289352 0.144676 0.289352 0.289352 0.072338 0.144676 0.144676 0.144676 0.072338 0.144676 0.289352 0.144676 0.289352 0.289352 0.072338 0.144676 0.144676 0.144676 0.072338 0.144676 0.289352 0.144676 0.289352 0.289352 0.072338 0.144676 0.144676 0.144676 0.072338 0.144676 0.289352 0.144676 0.289352 0.289352 0.072338 0.144676 0.144676 0.144676 0.072338 0.144676 0.289352 0.144676 0.289352 0.289352 0.072338 0.144676 0.144676 0.144676 0.072338 0.144676 0.289352 0.144676 0.289352 0.289352 0.072338 0.144676 0.144676 0.144676 0.072338 0.144676 0.289352 0.144676 0.289352 0.289352 0.072338 0.144676 0.144676 0.144676 0.072338 0.144676 0.289352 0.144676 0.289352 0.289352 0.0723379 0.144676 0.144676 0.144676 0.0723379 0.144676 0.289352 0.144676 0.289352 0.289352 0.0723379 0.144676 0.144676 0.144676 0.0723379 0.144676 0.289352 0.144676 0.289352 0.289352 0.072338 0.144676 0.144676 0.144676 0.072338 0.144676 0.289352 0.144676 0.289352 0.289352 0.072338 0.144676 0.144676 0.144676 0.072338 0.144676 0.289352 0.144676 0.289352 0.289352 0.072338 0.144676 0.144676 0.144676 0.072338 0.144676 0.289352 0.144676 0.289352 0.289352 0.0723379 0.144676 0.144676 0.144676 0.0723379 0.144676 0.289352 0.144676 0.289352 0.289352 0.072338 0.144676 0.144676 0.144676 0.072338 0.144676 0.289352 0.144676 0.289352 0.289352 0.072338 0.144676 0.144676 0.144676 0.072338 0.144676 0.289352 0.144676 0.289352 0.289352 0.0723379 0.144676 0.144676 0.144676 0.0723379 0.144676 0.289352 0.144676 0.289352 0.289352 0.0723379 0.144676 0.144676 0.144676 0.0723379 0.144676 0.289352 0.144676 0.289352 0.289352 0.0723379 0.144676 0.144676 0.144676 0.0723379 0.144676 0.289352 0.144676 0.289352 0.289352 0.072338 0.144676 0.144676 0.144676 0.072338 0.144676 0.289352 0.144676 0.289352 0.289352 0.072338 0.144676 0.144676 0.144676 0.072338 0.144676 0.289352 0.144676 0.289352 0.289352 0.0723379 0.144676 0.144676 0.144676 0.0723379 0.072338 0.144676 0.144676 0.144676 0.289352 0.072338 0.072338 0.144676 0.144676 0.072338 0.072338 0.144676 0.289352 0.144676 0.144676 0.289352 0.289352 0.144676 0.072338 0.144676 0.144676 0.072338 0.144676 0.072338 0.144676 0.289352 0.144676 0.289352 0.289352 0.072338 0.144676 0.144676 0.144676 0.072338 0.144676 0.289352 0.144676 0.289352 0.289352 0.072338 0.144676 0.144676 0.144676 0.072338 0.144676 0.289352 0.144676 0.289352 0.289352 0.072338 0.144676 0.144676 0.144676 0.072338 0.144676 0.289352 0.144676 0.289352 0.289352 0.072338 0.144676 0.144676 0.144676 0.072338 0.144676 0.289352 0.144676 0.289352 0.289352 0.072338 0.144676 0.144676 0.144676 0.072338 0.144676 0.289352 0.144676 0.289352 0.289352 0.072338 0.144676 0.144676 0.144676 0.072338 0.144676 0.289352 0.144676 0.289352 0.289352 0.072338 0.144676 0.144676 0.144676 0.072338 0.144676 0.289352 0.144676 0.289352 0.289352 0.072338 0.144676 0.144676 0.144676 0.072338 0.144676 0.289352 0.144676 0.289352 0.289352 0.0723379 0.144676 0.144676 0.144676 0.0723379 0.144676 0.289352 0.144676 0.289352 0.289352 0.0723379 0.144676 0.144676 0.144676 0.0723379 0.144676 0.289352 0.144676 0.289352 0.289352 0.072338 0.144676 0.144676 0.144676 0.072338 0.144676 0.289352 0.144676 0.289352 0.289352 0.072338 0.144676 0.144676 0.144676 0.072338 0.144676 0.289352 0.144676 0.289352 0.289352 0.072338 0.144676 0.144676 0.144676 0.072338 0.144676 0.289352 0.144676 0.289352 0.289352 0.0723379 0.144676 0.144676 0.144676 0.0723379 0.144676 0.289352 0.144676 0.289352 0.289352 0.072338 0.144676 0.144676 0.144676 0.072338 0.144676 0.289352 0.144676 0.289352 0.289352 0.072338 0.144676 0.144676 0.144676 0.072338 0.144676 0.289352 0.144676 0.289352 0.289352 0.0723379 0.144676 0.144676 0.144676 0.0723379 0.144676 0.289352 0.144676 0.289352 0.289352 0.0723379 0.144676 0.144676 0.144676 0.0723379 0.144676 0.289352 0.144676 0.289352 0.289352 0.0723379 0.144676 0.144676 0.144676 0.0723379 0.144676 0.289352 0.144676 0.289352 0.289352 0.072338 0.144676 0.144676 0.144676 0.072338 0.144676 0.289352 0.144676 0.289352 0.289352 0.0723379 0.144676 0.144676 0.144676 0.0723379 0.144676 0.289352 0.144676 0.289352 0.289352 0.0723379 0.144676 0.144676 0.144676 0.0723379 0.072338 0.144676 0.144676 0.144676 0.289352 0.072338 0.072338 0.144676 0.144676 0.072338 0.072338 0.144676 0.289352 0.144676 0.144676 0.289352 0.289352 0.144676 0.072338 0.144676 0.144676 0.072338 0.144676 0.072338 0.144676 0.289352 0.144676 0.289352 0.289352 0.072338 0.144676 0.144676 0.144676 0.072338 0.144676 0.289352 0.144676 0.289352 0.289352 0.072338 0.144676 0.144676 0.144676 0.072338 0.144676 0.289352 0.144676 0.289352 0.289352 0.072338 0.144676 0.144676 0.144676 0.072338 0.144676 0.289352 0.144676 0.289352 0.289352 0.072338 0.144676 0.144676 0.144676 0.072338 0.144676 0.289352 0.144676 0.289352 0.289352 0.072338 0.144676 0.144676 0.144676 0.072338 0.144676 0.289352 0.144676 0.289352 0.289352 0.072338 0.144676 0.144676 0.144676 0.072338 0.144676 0.289352 0.144676 0.289352 0.289352 0.0723379 0.144676 0.144676 0.144676 0.0723379 0.144676 0.289352 0.144676 0.289352 0.289352 0.072338 0.144676 0.144676 0.144676 0.072338 0.144676 0.289352 0.144676 0.289352 0.289352 0.0723379 0.144676 0.144676 0.144676 0.0723379 0.144676 0.289352 0.144676 0.289352 0.289352 0.0723379 0.144676 0.144676 0.144676 0.0723379 0.144676 0.289352 0.144676 0.289352 0.289352 0.072338 0.144676 0.144676 0.144676 0.072338 0.144676 0.289352 0.144676 0.289352 0.289352 0.072338 0.144676 0.144676 0.144676 0.072338 0.144676 0.289352 0.144676 0.289352 0.289352 0.072338 0.144676 0.144676 0.144676 0.072338 0.144676 0.289352 0.144676 0.289352 0.289352 0.0723379 0.144676 0.144676 0.144676 0.0723379 0.144676 0.289352 0.144676 0.289352 0.289352 0.072338 0.144676 0.144676 0.144676 0.072338 0.144676 0.289352 0.144676 0.289352 0.289352 0.072338 0.144676 0.144676 0.144676 0.072338 0.144676 0.289352 0.144676 0.289352 0.289352 0.0723379 0.144676 0.144676 0.144676 0.0723379 0.144676 0.289352 0.144676 0.289352 0.289352 0.0723379 0.144676 0.144676 0.144676 0.0723379 0.144676 0.289352 0.144676 0.289352 0.289352 0.0723379 0.144676 0.144676 0.144676 0.0723379 0.144676 0.289352 0.144676 0.289352 0.289352 0.072338 0.144676 0.144676 0.144676 0.072338 0.144676 0.289352 0.144676 0.289352 0.289352 0.0723379 0.144676 0.144676 0.144676 0.0723379 0.144676 0.289352 0.144676 0.289352 0.289352 0.0723379 0.144676 0.144676 0.144676 0.0723379 0.072338 0.144676 0.144676 0.144676 0.289352 0.072338 0.072338 0.144676 0.144676 0.072338 0.072338 0.144676 0.289352 0.144676 0.144676 0.289352 0.289352 0.144676 0.072338 0.144676 0.144676 0.072338 0.144676 0.072338 0.144676 0.289352 0.144676 0.289352 0.289352 0.072338 0.144676 0.144676 0.144676 0.072338 0.144676 0.289352 0.144676 0.289352 0.289352 0.072338 0.144676 0.144676 0.144676 0.072338 0.144676 0.289352 0.144676 0.289352 0.289352 0.072338 0.144676 0.144676 0.144676 0.072338 0.144676 0.289352 0.144676 0.289352 0.289352 0.072338 0.144676 0.144676 0.144676 0.072338 0.144676 0.289352 0.144676 0.289352 0.289352 0.072338 0.144676 0.144676 0.144676 0.072338 0.144676 0.289352 0.144676 0.289352 0.289352 0.072338 0.144676 0.144676 0.144676 0.072338 0.144676 0.289352 0.144676 0.289352 0.289352 0.0723379 0.144676 0.144676 0.144676 0.0723379 0.144676 0.289352 0.144676 0.289352 0.289352 0.072338 0.144676 0.144676 0.144676 0.072338 0.144676 0.289352 0.144676 0.289352 0.289352 0.0723379 0.144676 0.144676 0.144676 0.0723379 0.144676 0.289352 0.144676 0.289352 0.289352 0.0723379 0.144676 0.144676 0.144676 0.0723379 0.144676 0.289352 0.144676 0.289352 0.289352 0.072338 0.144676 0.144676 0.144676 0.072338 0.144676 0.289352 0.144676 0.289352 0.289352 0.072338 0.144676 0.144676 0.144676 0.072338 0.144676 0.289352 0.144676 0.289352 0.289352 0.072338 0.144676 0.144676 0.144676 0.072338 0.144676 0.289352 0.144676 0.289352 0.289352 0.0723379 0.144676 0.144676 0.144676 0.0723379 0.144676 0.289352 0.144676 0.289352 0.289352 0.072338 0.144676 0.144676 0.144676 0.072338 0.144676 0.289352 0.144676 0.289352 0.289352 0.072338 0.144676 0.144676 0.144676 0.072338 0.144676 0.289352 0.144676 0.289352 0.289352 0.0723379 0.144676 0.144676 0.144676 0.0723379 0.144676 0.289352 0.144676 0.289352 0.289352 0.0723379 0.144676 0.144676 0.144676 0.0723379 0.144676 0.289352 0.144676 0.289352 0.289352 0.0723379 0.144676 0.144676 0.144676 0.0723379 0.144676 0.289352 0.144676 0.289352 0.289352 0.072338 0.144676 0.144676 0.144676 0.072338 0.144676 0.289352 0.144676 0.289352 0.289352 0.0723379 0.144676 0.144676 0.144676 0.0723379 0.144676 0.289352 0.144676 0.289352 0.289352 0.0723379 0.144676 0.144676 0.144676 0.0723379 0.072338 0.144676 0.144676 0.144676 0.289352 0.072338 0.072338 0.144676 0.144676 0.072338 0.072338 0.144676 0.289352 0.144676 0.144676 0.289352 0.289352 0.144676 0.072338 0.144676 0.144676 0.072338 0.144676 0.072338 0.144676 0.289352 0.144676 0.289352 0.289352 0.072338 0.144676 0.144676 0.144676 0.072338 0.144676 0.289352 0.144676 0.289352 0.289352 0.072338 0.144676 0.144676 0.144676 0.072338 0.144676 0.289352 0.144676 0.289352 0.289352 0.072338 0.144676 0.144676 0.144676 0.072338 0.144676 0.289352 0.144676 0.289352 0.289352 0.072338 0.144676 0.144676 0.144676 0.072338 0.144676 0.289352 0.144676 0.289352 0.289352 0.072338 0.144676 0.144676 0.144676 0.072338 0.144676 0.289352 0.144676 0.289352 0.289352 0.072338 0.144676 0.144676 0.144676 0.072338 0.144676 0.289352 0.144676 0.289352 0.289352 0.072338 0.144676 0.144676 0.144676 0.072338 0.144676 0.289352 0.144676 0.289352 0.289352 0.072338 0.144676 0.144676 0.144676 0.072338 0.144676 0.289352 0.144676 0.289352 0.289352 0.0723379 0.144676 0.144676 0.144676 0.0723379 0.144676 0.289352 0.144676 0.289352 0.289352 0.0723379 0.144676 0.144676 0.144676 0.0723379 0.144676 0.289352 0.144676 0.289352 0.289352 0.072338 0.144676 0.144676 0.144676 0.072338 0.144676 0.289352 0.144676 0.289352 0.289352 0.072338 0.144676 0.144676 0.144676 0.072338 0.144676 0.289352 0.144676 0.289352 0.289352 0.072338 0.144676 0.144676 0.144676 0.072338 0.144676 0.289352 0.144676 0.289352 0.289352 0.0723379 0.144676 0.144676 0.144676 0.0723379 0.144676 0.289352 0.144676 0.289352 0.289352 0.072338 0.144676 0.144676 0.144676 0.072338 0.144676 0.289352 0.144676 0.289352 0.289352 0.072338 0.144676 0.144676 0.144676 0.072338 0.144676 0.289352 0.144676 0.289352 0.289352 0.0723379 0.144676 0.144676 0.144676 0.0723379 0.144676 0.289352 0.144676 0.289352 0.289352 0.0723379 0.144676 0.144676 0.144676 0.0723379 0.144676 0.289352 0.144676 0.289352 0.289352 0.0723379 0.144676 0.144676 0.144676 0.0723379 0.144676 0.289352 0.144676 0.289352 0.289352 0.072338 0.144676 0.144676 0.144676 0.072338 0.144676 0.289352 0.144676 0.289352 0.289352 0.0723379 0.144676 0.144676 0.144676 0.0723379 0.144676 0.289352 0.144676 0.289352 0.289352 0.0723379 0.144676 0.144676 0.144676 0.0723379 0.072338 0.144676 0.144676 0.144676 0.289352 0.072338 0.072338 0.144676 0.144676 0.072338 0.072338 0.144676 0.289352 0.144676 0.144676 0.289352 0.289352 0.144676 0.072338 0.144676 0.144676 0.072338 0.144676 0.072338 0.144676 0.289352 0.144676 0.289352 0.289352 0.072338 0.144676 0.144676 0.144676 0.072338 0.144676 0.289352 0.144676 0.289352 0.289352 0.072338 0.144676 0.144676 0.144676 0.072338 0.144676 0.289352 0.144676 0.289352 0.289352 0.072338 0.144676 0.144676 0.144676 0.072338 0.144676 0.289352 0.144676 0.289352 0.289352 0.072338 0.144676 0.144676 0.144676 0.072338 0.144676 0.289352 0.144676 0.289352 0.289352 0.072338 0.144676 0.144676 0.144676 0.072338 0.144676 0.289352 0.144676 0.289352 0.289352 0.072338 0.144676 0.144676 0.144676 0.072338 0.144676 0.289352 0.144676 0.289352 0.289352 0.072338 0.144676 0.144676 0.144676 0.072338 0.144676 0.289352 0.144676 0.289352 0.289352 0.072338 0.144676 0.144676 0.144676 0.072338 0.144676 0.289352 0.144676 0.289352 0.289352 0.072338 0.144676 0.144676 0.144676 0.072338 0.144676 0.289352 0.144676 0.289352 0.289352 0.072338 0.144676 0.144676 0.144676 0.072338 0.144676 0.289352 0.144676 0.289352 0.289352 0.072338 0.144676 0.144676 0.144676 0.072338 0.144676 0.289352 0.144676 0.289352 0.289352 0.072338 0.144676 0.144676 0.144676 0.072338 0.144676 0.289352 0.144676 0.289352 0.289352 0.072338 0.144676 0.144676 0.144676 0.072338 0.144676 0.289352 0.144676 0.289352 0.289352 0.0723379 0.144676 0.144676 0.144676 0.0723379 0.144676 0.289352 0.144676 0.289352 0.289352 0.072338 0.144676 0.144676 0.144676 0.072338 0.144676 0.289352 0.144676 0.289352 0.289352 0.072338 0.144676 0.144676 0.144676 0.072338 0.144676 0.289352 0.144676 0.289352 0.289352 0.072338 0.144676 0.144676 0.144676 0.072338 0.144676 0.289352 0.144676 0.289352 0.289352 0.0723379 0.144676 0.144676 0.144676 0.0723379 0.144676 0.289352 0.144676 0.289352 0.289352 0.0723379 0.144676 0.144676 0.144676 0.0723379 0.144676 0.289352 0.144676 0.289352 0.289352 0.072338 0.144676 0.144676 0.144676 0.072338 0.144676 0.289352 0.144676 0.289352 0.289352 0.072338 0.144676 0.144676 0.144676 0.072338 0.144676 0.289352 0.144676 0.289352 0.289352 0.0723379 0.144676 0.144676 0.144676 0.0723379 0.072338 0.144676 0.144676 0.144676 0.289352 0.072338 0.072338 0.144676 0.144676 0.072338 0.072338 0.144676 0.289352 0.144676 0.072338 0.144676 0.144676 0.072338 0.072338 0.144676 0.144676 0.072338 0.072338 0.072338 0.144676 0.289352 0.072338 0.144676 0.144676 0.072338 0.144676 0.144676 0.072338 0.072338 0.144676 0.289352 0.072338 0.144676 0.144676 0.072338 0.144676 0.144676 0.072338 0.072338 0.144676 0.289352 0.0723379 0.144676 0.144676 0.0723379 0.144676 0.144676 0.0723379 0.0723379 0.144676 0.289352 0.0723379 0.144676 0.144676 0.0723379 0.144676 0.144676 0.0723379 0.0723379 0.144676 0.289352 0.0723379 0.144676 0.144676 0.0723379 0.144676 0.144676 0.0723379 0.0723379 0.144676 0.289352 0.0723379 0.144676 0.144676 0.0723379 0.144676 0.144676 0.0723379 0.0723379 0.144676 0.289352 0.0723379 0.144676 0.144676 0.0723379 0.144676 0.144676 0.0723379 0.0723379 0.144676 0.289352 0.072338 0.144676 0.144676 0.072338 0.144676 0.144676 0.072338 0.072338 0.144676 0.289352 0.0723379 0.144676 0.144676 0.0723379 0.144676 0.144676 0.0723379 0.0723379 0.144676 0.289352 0.0723379 0.144676 0.144676 0.0723379 0.144676 0.144676 0.0723379 0.0723379 0.144676 0.289352 0.0723379 0.144676 0.144676 0.0723379 0.144676 0.144676 0.0723379 0.0723379 0.144676 0.289352 0.0723379 0.144676 0.144676 0.0723379 0.144676 0.144676 0.0723379 0.0723379 0.144676 0.289352 0.072338 0.144676 0.144676 0.072338 0.144676 0.144676 0.072338 0.072338 0.144676 0.289352 0.0723379 0.144676 0.144676 0.0723379 0.144676 0.144676 0.0723379 0.0723379 0.144676 0.289352 0.072338 0.144676 0.144676 0.072338 0.144676 0.144676 0.072338 0.072338 0.144676 0.289352 0.072338 0.144676 0.144676 0.072338 0.144676 0.144676 0.072338 0.072338 0.144676 0.289352 0.0723379 0.144676 0.144676 0.0723379 0.144676 0.144676 0.0723379 0.0723379 0.144676 0.289352 0.0723379 0.144676 0.144676 0.0723379 0.144676 0.144676 0.0723379 0.0723379 0.144676 0.289352 0.0723379 0.144676 0.144676 0.0723379 0.144676 0.144676 0.0723379 0.0723379 0.144676 0.289352 0.072338 0.144676 0.144676 0.072338 0.144676 0.144676 0.072338 0.072338 0.144676 0.289352 0.0723379 0.144676 0.144676 0.0723379 0.144676 0.144676 0.0723379 0.0723379 0.144676 0.289352 0.0723379 0.144676 0.144676 0.0723379 0.144676 0.144676 0.0723379 0.0723379 0.072338 0.144676 0.072338 0.072338 0.144676 0.072338 0.072338 0.144676 0.072338 0.072338 0.144676 0.144676 0.072338 0.289352 0.144676 0.289352 0.289352 0.144676 0.072338 0.144676 0.144676 0.072338 0.144676 0.072338 0.144676 0.144676 0.289352 0.289352 0.289352 0.072338 0.144676 0.144676 0.144676 0.072338 0.144676 0.144676 0.289352 0.289352 0.289352 0.072338 0.144676 0.144676 0.144676 0.072338 0.144676 0.144676 0.289352 0.289352 0.289352 0.072338 0.144676 0.144676 0.144676 0.072338 0.144676 0.144676 0.289352 0.289352 0.289352 0.072338 0.144676 0.144676 0.144676 0.072338 0.144676 0.144676 0.289352 0.289352 0.289352 0.072338 0.144676 0.144676 0.144676 0.072338 0.144676 0.144676 0.289352 0.289352 0.289352 0.072338 0.144676 0.144676 0.144676 0.072338 0.144676 0.144676 0.289352 0.289352 0.289352 0.072338 0.144676 0.144676 0.144676 0.072338 0.144676 0.144676 0.289352 0.289352 0.289352 0.072338 0.144676 0.144676 0.144676 0.072338 0.144676 0.144676 0.289352 0.289352 0.289352 0.072338 0.144676 0.144676 0.144676 0.072338 0.144676 0.144676 0.289352 0.289352 0.289352 0.072338 0.144676 0.144676 0.144676 0.072338 0.144676 0.144676 0.289352 0.289352 0.289352 0.072338 0.144676 0.144676 0.144676 0.072338 0.144676 0.144676 0.289352 0.289352 0.289352 0.072338 0.144676 0.144676 0.144676 0.072338 0.144676 0.144676 0.289352 0.289352 0.289352 0.072338 0.144676 0.144676 0.144676 0.072338 0.144676 0.144676 0.289352 0.289352 0.289352 0.072338 0.144676 0.144676 0.144676 0.072338 0.144676 0.144676 0.289352 0.289352 0.289352 0.072338 0.144676 0.144676 0.144676 0.072338 0.144676 0.144676 0.289352 0.289352 0.289352 0.072338 0.144676 0.144676 0.144676 0.072338 0.144676 0.144676 0.289352 0.289352 0.289352 0.072338 0.144676 0.144676 0.144676 0.072338 0.144676 0.144676 0.289352 0.289352 0.289352 0.072338 0.144676 0.144676 0.144676 0.072338 0.144676 0.144676 0.289352 0.289352 0.289352 0.072338 0.144676 0.144676 0.144676 0.072338 0.144676 0.144676 0.289352 0.289352 0.289352 0.072338 0.144676 0.144676 0.144676 0.072338 0.144676 0.144676 0.289352 0.289352 0.289352 0.072338 0.144676 0.144676 0.144676 0.072338 0.144676 0.144676 0.289352 0.289352 0.289352 0.072338 0.144676 0.144676 0.144676 0.072338 0.072338 0.144676 0.144676 0.144676 0.289352 0.072338 0.072338 0.144676 0.144676 0.072338 0.289352 0.144676 0.289352 0.289352 0.144676 0.144676 0.144676 0.072338 0.144676 0.072338 0.289352 0.289352 0.289352 0.144676 0.144676 0.144676 0.072338 0.289352 0.289352 0.289352 0.144676 0.144676 0.144676 0.072338 0.289352 0.289352 0.289352 0.144676 0.144676 0.144676 0.072338 0.289352 0.289352 0.289352 0.144676 0.144676 0.144676 0.072338 0.289352 0.289352 0.289352 0.144676 0.144676 0.144676 0.072338 0.289352 0.289352 0.289352 0.144676 0.144676 0.144676 0.072338 0.289352 0.289352 0.289352 0.144676 0.144676 0.144676 0.072338 0.289352 0.289352 0.289352 0.144676 0.144676 0.144676 0.072338 0.289352 0.289352 0.289352 0.144676 0.144676 0.144676 0.072338 0.289352 0.289352 0.289352 0.144676 0.144676 0.144676 0.072338 0.289352 0.289352 0.289352 0.144676 0.144676 0.144676 0.072338 0.289352 0.289352 0.289352 0.144676 0.144676 0.144676 0.072338 0.289352 0.289352 0.289352 0.144676 0.144676 0.144676 0.072338 0.289352 0.289352 0.289352 0.144676 0.144676 0.144676 0.072338 0.289352 0.289352 0.289352 0.144676 0.144676 0.144676 0.072338 0.289352 0.289352 0.289352 0.144676 0.144676 0.144676 0.072338 0.289352 0.289352 0.289352 0.144676 0.144676 0.144676 0.072338 0.289352 0.289352 0.289352 0.144676 0.144676 0.144676 0.072338 0.289352 0.289352 0.289352 0.144676 0.144676 0.144676 0.072338 0.289352 0.289352 0.289352 0.144676 0.144676 0.144676 0.072338 0.289352 0.289352 0.289352 0.144676 0.144676 0.144676 0.072338 0.289352 0.289352 0.289352 0.144676 0.144676 0.144676 0.072338 0.144676 0.144676 0.289352 0.072338 0.144676 0.144676 0.072338 0.289352 0.144676 0.289352 0.289352 0.144676 0.144676 0.144676 0.072338 0.144676 0.072338 0.289352 0.289352 0.289352 0.144676 0.144676 0.144676 0.072338 0.289352 0.289352 0.289352 0.144676 0.144676 0.144676 0.072338 0.289352 0.289352 0.289352 0.144676 0.144676 0.144676 0.072338 0.289352 0.289352 0.289352 0.144676 0.144676 0.144676 0.072338 0.289352 0.289352 0.289352 0.144676 0.144676 0.144676 0.072338 0.289352 0.289352 0.289352 0.144676 0.144676 0.144676 0.072338 0.289352 0.289352 0.289352 0.144676 0.144676 0.144676 0.072338 0.289352 0.289352 0.289352 0.144676 0.144676 0.144676 0.072338 0.289352 0.289352 0.289352 0.144676 0.144676 0.144676 0.072338 0.289352 0.289352 0.289352 0.144676 0.144676 0.144676 0.072338 0.289352 0.289352 0.289352 0.144676 0.144676 0.144676 0.072338 0.289352 0.289352 0.289352 0.144676 0.144676 0.144676 0.072338 0.289352 0.289352 0.289352 0.144676 0.144676 0.144676 0.072338 0.289352 0.289352 0.289352 0.144676 0.144676 0.144676 0.072338 0.289352 0.289352 0.289352 0.144676 0.144676 0.144676 0.072338 0.289352 0.289352 0.289352 0.144676 0.144676 0.144676 0.072338 0.289352 0.289352 0.289352 0.144676 0.144676 0.144676 0.072338 0.289352 0.289352 0.289352 0.144676 0.144676 0.144676 0.072338 0.289352 0.289352 0.289352 0.144676 0.144676 0.144676 0.072338 0.289352 0.289352 0.289352 0.144676 0.144676 0.144676 0.072338 0.289352 0.289352 0.289352 0.144676 0.144676 0.144676 0.072338 0.289352 0.289352 0.289352 0.144676 0.144676 0.144676 0.072338 0.144676 0.144676 0.289352 0.072338 0.144676 0.144676 0.072338 0.289352 0.144676 0.289352 0.289352 0.144676 0.144676 0.144676 0.072338 0.144676 0.072338 0.289352 0.289352 0.289352 0.144676 0.144676 0.144676 0.072338 0.289352 0.289352 0.289352 0.144676 0.144676 0.144676 0.072338 0.289352 0.289352 0.289352 0.144676 0.144676 0.144676 0.072338 0.289352 0.289352 0.289352 0.144676 0.144676 0.144676 0.072338 0.289352 0.289352 0.289352 0.144676 0.144676 0.144676 0.072338 0.289352 0.289352 0.289352 0.144676 0.144676 0.144676 0.072338 0.289352 0.289352 0.289352 0.144676 0.144676 0.144676 0.072338 0.289352 0.289352 0.289352 0.144676 0.144676 0.144676 0.072338 0.289352 0.289352 0.289352 0.144676 0.144676 0.144676 0.072338 0.289352 0.289352 0.289352 0.144676 0.144676 0.144676 0.072338 0.289352 0.289352 0.289352 0.144676 0.144676 0.144676 0.072338 0.289352 0.289352 0.289352 0.144676 0.144676 0.144676 0.072338 0.289352 0.289352 0.289352 0.144676 0.144676 0.144676 0.072338 0.289352 0.289352 0.289352 0.144676 0.144676 0.144676 0.072338 0.289352 0.289352 0.289352 0.144676 0.144676 0.144676 0.072338 0.289352 0.289352 0.289352 0.144676 0.144676 0.144676 0.072338 0.289352 0.289352 0.289352 0.144676 0.144676 0.144676 0.072338 0.289352 0.289352 0.289352 0.144676 0.144676 0.144676 0.072338 0.289352 0.289352 0.289352 0.144676 0.144676 0.144676 0.072338 0.289352 0.289352 0.289352 0.144676 0.144676 0.144676 0.072338 0.289352 0.289352 0.289352 0.144676 0.144676 0.144676 0.072338 0.289352 0.289352 0.289352 0.144676 0.144676 0.144676 0.072338 0.144676 0.144676 0.289352 0.072338 0.144676 0.144676 0.072338 0.289352 0.144676 0.289352 0.289352 0.144676 0.144676 0.144676 0.072338 0.144676 0.072338 0.289352 0.289352 0.289352 0.144676 0.144676 0.144676 0.072338 0.289352 0.289352 0.289352 0.144676 0.144676 0.144676 0.072338 0.289352 0.289352 0.289352 0.144676 0.144676 0.144676 0.072338 0.289352 0.289352 0.289352 0.144676 0.144676 0.144676 0.072338 0.289352 0.289352 0.289352 0.144676 0.144676 0.144676 0.072338 0.289352 0.289352 0.289352 0.144676 0.144676 0.144676 0.072338 0.289352 0.289352 0.289352 0.144676 0.144676 0.144676 0.072338 0.289352 0.289352 0.289352 0.144676 0.144676 0.144676 0.072338 0.289352 0.289352 0.289352 0.144676 0.144676 0.144676 0.072338 0.289352 0.289352 0.289352 0.144676 0.144676 0.144676 0.072338 0.289352 0.289352 0.289352 0.144676 0.144676 0.144676 0.072338 0.289352 0.289352 0.289352 0.144676 0.144676 0.144676 0.072338 0.289352 0.289352 0.289352 0.144676 0.144676 0.144676 0.072338 0.289352 0.289352 0.289352 0.144676 0.144676 0.144676 0.072338 0.289352 0.289352 0.289352 0.144676 0.144676 0.144676 0.072338 0.289352 0.289352 0.289352 0.144676 0.144676 0.144676 0.072338 0.289352 0.289352 0.289352 0.144676 0.144676 0.144676 0.072338 0.289352 0.289352 0.289352 0.144676 0.144676 0.144676 0.072338 0.289352 0.289352 0.289352 0.144676 0.144676 0.144676 0.0723379 0.289352 0.289352 0.289352 0.144676 0.144676 0.144676 0.072338 0.289352 0.289352 0.289352 0.144676 0.144676 0.144676 0.072338 0.289352 0.289352 0.289352 0.144676 0.144676 0.144676 0.072338 0.144676 0.144676 0.289352 0.072338 0.144676 0.144676 0.072338 0.289352 0.144676 0.289352 0.289352 0.144676 0.144676 0.144676 0.072338 0.144676 0.072338 0.289352 0.289352 0.289352 0.144676 0.144676 0.144676 0.072338 0.289352 0.289352 0.289352 0.144676 0.144676 0.144676 0.072338 0.289352 0.289352 0.289352 0.144676 0.144676 0.144676 0.072338 0.289352 0.289352 0.289352 0.144676 0.144676 0.144676 0.072338 0.289352 0.289352 0.289352 0.144676 0.144676 0.144676 0.072338 0.289352 0.289352 0.289352 0.144676 0.144676 0.144676 0.072338 0.289352 0.289352 0.289352 0.144676 0.144676 0.144676 0.072338 0.289352 0.289352 0.289352 0.144676 0.144676 0.144676 0.072338 0.289352 0.289352 0.289352 0.144676 0.144676 0.144676 0.072338 0.289352 0.289352 0.289352 0.144676 0.144676 0.144676 0.072338 0.289352 0.289352 0.289352 0.144676 0.144676 0.144676 0.072338 0.289352 0.289352 0.289352 0.144676 0.144676 0.144676 0.072338 0.289352 0.289352 0.289352 0.144676 0.144676 0.144676 0.072338 0.289352 0.289352 0.289352 0.144676 0.144676 0.144676 0.072338 0.289352 0.289352 0.289352 0.144676 0.144676 0.144676 0.072338 0.289352 0.289352 0.289352 0.144676 0.144676 0.144676 0.072338 0.289352 0.289352 0.289352 0.144676 0.144676 0.144676 0.072338 0.289352 0.289352 0.289352 0.144676 0.144676 0.144676 0.072338 0.289352 0.289352 0.289352 0.144676 0.144676 0.144676 0.072338 0.289352 0.289352 0.289352 0.144676 0.144676 0.144676 0.072338 0.289352 0.289352 0.289352 0.144676 0.144676 0.144676 0.072338 0.289352 0.289352 0.289352 0.144676 0.144676 0.144676 0.072338 0.144676 0.144676 0.289352 0.072338 0.144676 0.144676 0.072338 0.289352 0.144676 0.289352 0.289352 0.144676 0.144676 0.144676 0.072338 0.144676 0.072338 0.289352 0.289352 0.289352 0.144676 0.144676 0.144676 0.072338 0.289352 0.289352 0.289352 0.144676 0.144676 0.144676 0.072338 0.289352 0.289352 0.289352 0.144676 0.144676 0.144676 0.072338 0.289352 0.289352 0.289352 0.144676 0.144676 0.144676 0.072338 0.289352 0.289352 0.289352 0.144676 0.144676 0.144676 0.072338 0.289352 0.289352 0.289352 0.144676 0.144676 0.144676 0.072338 0.289352 0.289352 0.289352 0.144676 0.144676 0.144676 0.072338 0.289352 0.289352 0.289352 0.144676 0.144676 0.144676 0.072338 0.289352 0.289352 0.289352 0.144676 0.144676 0.144676 0.072338 0.289352 0.289352 0.289352 0.144676 0.144676 0.144676 0.072338 0.289352 0.289352 0.289352 0.144676 0.144676 0.144676 0.072338 0.289352 0.289352 0.289352 0.144676 0.144676 0.144676 0.072338 0.289352 0.289352 0.289352 0.144676 0.144676 0.144676 0.072338 0.289352 0.289352 0.289352 0.144676 0.144676 0.144676 0.072338 0.289352 0.289352 0.289352 0.144676 0.144676 0.144676 0.072338 0.289352 0.289352 0.289352 0.144676 0.144676 0.144676 0.072338 0.289352 0.289352 0.289352 0.144676 0.144676 0.144676 0.072338 0.289352 0.289352 0.289352 0.144676 0.144676 0.144676 0.072338 0.289352 0.289352 0.289352 0.144676 0.144676 0.144676 0.072338 0.289352 0.289352 0.289352 0.144676 0.144676 0.144676 0.0723381 0.289352 0.289352 0.289352 0.144676 0.144676 0.144676 0.072338 0.289352 0.289352 0.289352 0.144676 0.144676 0.144676 0.072338 0.144676 0.144676 0.289352 0.072338 0.144676 0.144676 0.072338 0.289352 0.144676 0.144676 0.144676 0.072338 0.144676 0.144676 0.072338 0.072338 0.072338 0.289352 0.144676 0.144676 0.144676 0.144676 0.072338 0.072338 0.289352 0.144676 0.144676 0.144676 0.144676 0.072338 0.072338 0.289352 0.144676 0.144676 0.144676 0.144676 0.072338 0.072338 0.289352 0.144676 0.144676 0.144676 0.144676 0.072338 0.072338 0.289352 0.144676 0.144676 0.144676 0.144676 0.072338 0.072338 0.289352 0.144676 0.144676 0.144676 0.144676 0.072338 0.072338 0.289352 0.144676 0.144676 0.144676 0.144676 0.072338 0.072338 0.289352 0.144676 0.144676 0.144676 0.144676 0.072338 0.072338 0.289352 0.144676 0.144676 0.144676 0.144676 0.072338 0.072338 0.289352 0.144676 0.144676 0.144676 0.144676 0.072338 0.072338 0.289352 0.144676 0.144676 0.144676 0.144676 0.072338 0.072338 0.289352 0.144676 0.144676 0.144676 0.144676 0.072338 0.072338 0.289352 0.144676 0.144676 0.144676 0.144676 0.072338 0.072338 0.289352 0.144676 0.144676 0.144676 0.144676 0.072338 0.072338 0.289352 0.144676 0.144676 0.144676 0.144676 0.072338 0.072338 0.289352 0.144676 0.144676 0.144676 0.144676 0.072338 0.072338 0.289352 0.144676 0.144676 0.144676 0.144676 0.072338 0.072338 0.289352 0.144676 0.144676 0.144676 0.144676 0.072338 0.072338 0.289352 0.144676 0.144676 0.144676 0.144676 0.0723379 0.0723379 0.289352 0.144676 0.144676 0.144676 0.144676 0.072338 0.072338 0.289352 0.144676 0.144676 0.144676 0.144676 0.072338 0.072338 0.289352 0.144676 0.144676 0.144676 0.144676 0.072338 0.072338 0.144676 0.072338 0.144676 0.072338 0.144676 0.072338 0.072338 0.144676 0.144676 0.072338 0.289352 0.144676 0.289352 0.289352 0.144676 0.072338 0.144676 0.144676 0.072338 0.144676 0.072338 0.144676 0.144676 0.289352 0.289352 0.289352 0.072338 0.144676 0.144676 0.144676 0.072338 0.144676 0.144676 0.289352 0.289352 0.289352 0.072338 0.144676 0.144676 0.144676 0.072338 0.144676 0.144676 0.289352 0.289352 0.289352 0.0723379 0.144676 0.144676 0.144676 0.0723379 0.144676 0.144676 0.289352 0.289352 0.289352 0.072338 0.144676 0.144676 0.144676 0.072338 0.144676 0.144676 0.289352 0.289352 0.289352 0.072338 0.144676 0.144676 0.144676 0.072338 0.144676 0.144676 0.289352 0.289352 0.289352 0.072338 0.144676 0.144676 0.144676 0.072338 0.144676 0.144676 0.289352 0.289352 0.289352 0.072338 0.144676 0.144676 0.144676 0.072338 0.144676 0.144676 0.289352 0.289352 0.289352 0.072338 0.144676 0.144676 0.144676 0.072338 0.144676 0.144676 0.289352 0.289352 0.289352 0.0723379 0.144676 0.144676 0.144676 0.0723379 0.144676 0.144676 0.289352 0.289352 0.289352 0.0723379 0.144676 0.144676 0.144676 0.0723379 0.144676 0.144676 0.289352 0.289352 0.289352 0.072338 0.144676 0.144676 0.144676 0.072338 0.144676 0.144676 0.289352 0.289352 0.289352 0.072338 0.144676 0.144676 0.144676 0.072338 0.144676 0.144676 0.289352 0.289352 0.289352 0.072338 0.144676 0.144676 0.144676 0.072338 0.144676 0.144676 0.289352 0.289352 0.289352 0.0723379 0.144676 0.144676 0.144676 0.0723379 0.144676 0.144676 0.289352 0.289352 0.289352 0.072338 0.144676 0.144676 0.144676 0.072338 0.144676 0.144676 0.289352 0.289352 0.289352 0.072338 0.144676 0.144676 0.144676 0.072338 0.144676 0.144676 0.289352 0.289352 0.289352 0.0723379 0.144676 0.144676 0.144676 0.0723379 0.144676 0.144676 0.289352 0.289352 0.289352 0.0723379 0.144676 0.144676 0.144676 0.0723379 0.144676 0.144676 0.289352 0.289352 0.289352 0.0723379 0.144676 0.144676 0.144676 0.0723379 0.144676 0.144676 0.289352 0.289352 0.289352 0.072338 0.144676 0.144676 0.144676 0.072338 0.144676 0.144676 0.289352 0.289352 0.289352 0.0723379 0.144676 0.144676 0.144676 0.0723379 0.144676 0.144676 0.289352 0.289352 0.289352 0.0723379 0.144676 0.144676 0.144676 0.0723379 0.072338 0.144676 0.144676 0.144676 0.289352 0.072338 0.072338 0.144676 0.144676 0.072338 0.289352 0.144676 0.289352 0.289352 0.144676 0.144676 0.144676 0.072338 0.144676 0.072338 0.289352 0.289352 0.289352 0.144676 0.144676 0.144676 0.072338 0.289352 0.289352 0.289352 0.144676 0.144676 0.144676 0.072338 0.289352 0.289352 0.289352 0.144676 0.144676 0.144676 0.0723379 0.289352 0.289352 0.289352 0.144676 0.144676 0.144676 0.072338 0.289352 0.289352 0.289352 0.144676 0.144676 0.144676 0.072338 0.289352 0.289352 0.289352 0.144676 0.144676 0.144676 0.072338 0.289352 0.289352 0.289352 0.144676 0.144676 0.144676 0.072338 0.289352 0.289352 0.289352 0.144676 0.144676 0.144676 0.072338 0.289352 0.289352 0.289352 0.144676 0.144676 0.144676 0.0723379 0.289352 0.289352 0.289352 0.144676 0.144676 0.144676 0.0723379 0.289352 0.289352 0.289352 0.144676 0.144676 0.144676 0.072338 0.289352 0.289352 0.289352 0.144676 0.144676 0.144676 0.072338 0.289352 0.289352 0.289352 0.144676 0.144676 0.144676 0.072338 0.289352 0.289352 0.289352 0.144676 0.144676 0.144676 0.0723379 0.289352 0.289352 0.289352 0.144676 0.144676 0.144676 0.072338 0.289352 0.289352 0.289352 0.144676 0.144676 0.144676 0.072338 0.289352 0.289352 0.289352 0.144676 0.144676 0.144676 0.0723379 0.289352 0.289352 0.289352 0.144676 0.144676 0.144676 0.0723379 0.289352 0.289352 0.289352 0.144676 0.144676 0.144676 0.0723379 0.289352 0.289352 0.289352 0.144676 0.144676 0.144676 0.072338 0.289352 0.289352 0.289352 0.144676 0.144676 0.144676 0.0723379 0.289352 0.289352 0.289352 0.144676 0.144676 0.144676 0.0723379 0.144676 0.144676 0.289352 0.072338 0.144676 0.144676 0.072338 0.289352 0.144676 0.289352 0.289352 0.144676 0.144676 0.144676 0.072338 0.144676 0.072338 0.289352 0.289352 0.289352 0.144676 0.144676 0.144676 0.072338 0.289352 0.289352 0.289352 0.144676 0.144676 0.144676 0.072338 0.289352 0.289352 0.289352 0.144676 0.144676 0.144676 0.072338 0.289352 0.289352 0.289352 0.144676 0.144676 0.144676 0.072338 0.289352 0.289352 0.289352 0.144676 0.144676 0.144676 0.072338 0.289352 0.289352 0.289352 0.144676 0.144676 0.144676 0.072338 0.289352 0.289352 0.289352 0.144676 0.144676 0.144676 0.072338 0.289352 0.289352 0.289352 0.144676 0.144676 0.144676 0.072338 0.289352 0.289352 0.289352 0.144676 0.144676 0.144676 0.0723379 0.289352 0.289352 0.289352 0.144676 0.144676 0.144676 0.0723379 0.289352 0.289352 0.289352 0.144676 0.144676 0.144676 0.072338 0.289352 0.289352 0.289352 0.144676 0.144676 0.144676 0.072338 0.289352 0.289352 0.289352 0.144676 0.144676 0.144676 0.072338 0.289352 0.289352 0.289352 0.144676 0.144676 0.144676 0.0723379 0.289352 0.289352 0.289352 0.144676 0.144676 0.144676 0.072338 0.289352 0.289352 0.289352 0.144676 0.144676 0.144676 0.072338 0.289352 0.289352 0.289352 0.144676 0.144676 0.144676 0.0723379 0.289352 0.289352 0.289352 0.144676 0.144676 0.144676 0.0723379 0.289352 0.289352 0.289352 0.144676 0.144676 0.144676 0.0723379 0.289352 0.289352 0.289352 0.144676 0.144676 0.144676 0.072338 0.289352 0.289352 0.289352 0.144676 0.144676 0.144676 0.0723379 0.289352 0.289352 0.289352 0.144676 0.144676 0.144676 0.0723379 0.144676 0.144676 0.289352 0.072338 0.144676 0.144676 0.072338 0.289352 0.144676 0.289352 0.289352 0.144676 0.144676 0.144676 0.0723379 0.144676 0.0723379 0.289352 0.289352 0.289352 0.144676 0.144676 0.144676 0.072338 0.289352 0.289352 0.289352 0.144676 0.144676 0.144676 0.072338 0.289352 0.289352 0.289352 0.144676 0.144676 0.144676 0.0723379 0.289352 0.289352 0.289352 0.144676 0.144676 0.144676 0.0723379 0.289352 0.289352 0.289352 0.144676 0.144676 0.144676 0.072338 0.289352 0.289352 0.289352 0.144676 0.144676 0.144676 0.072338 0.289352 0.289352 0.289352 0.144676 0.144676 0.144676 0.0723379 0.289352 0.289352 0.289352 0.144676 0.144676 0.144676 0.0723379 0.289352 0.289352 0.289352 0.144676 0.144676 0.144676 0.0723379 0.289352 0.289352 0.289352 0.144676 0.144676 0.144676 0.0723379 0.289352 0.289352 0.289352 0.144676 0.144676 0.144676 0.072338 0.289352 0.289352 0.289352 0.144676 0.144676 0.144676 0.0723379 0.289352 0.289352 0.289352 0.144676 0.144676 0.144676 0.072338 0.289352 0.289352 0.289352 0.144676 0.144676 0.144676 0.0723379 0.289352 0.289352 0.289352 0.144676 0.144676 0.144676 0.072338 0.289352 0.289352 0.289352 0.144676 0.144676 0.144676 0.072338 0.289352 0.289352 0.289352 0.144676 0.144676 0.144676 0.0723379 0.289352 0.289352 0.289352 0.144676 0.144676 0.144676 0.0723379 0.289352 0.289352 0.289352 0.144676 0.144676 0.144676 0.0723379 0.289352 0.289352 0.289352 0.144676 0.144676 0.144676 0.072338 0.289352 0.289352 0.289352 0.144676 0.144676 0.144676 0.0723379 0.289352 0.289352 0.289352 0.144676 0.144676 0.144676 0.0723379 0.144676 0.144676 0.289352 0.072338 0.144676 0.144676 0.072338 0.289352 0.144676 0.289352 0.289352 0.144676 0.144676 0.144676 0.072338 0.144676 0.072338 0.289352 0.289352 0.289352 0.144676 0.144676 0.144676 0.072338 0.289352 0.289352 0.289352 0.144676 0.144676 0.144676 0.072338 0.289352 0.289352 0.289352 0.144676 0.144676 0.144676 0.0723379 0.289352 0.289352 0.289352 0.144676 0.144676 0.144676 0.0723379 0.289352 0.289352 0.289352 0.144676 0.144676 0.144676 0.072338 0.289352 0.289352 0.289352 0.144676 0.144676 0.144676 0.072338 0.289352 0.289352 0.289352 0.144676 0.144676 0.144676 0.0723379 0.289352 0.289352 0.289352 0.144676 0.144676 0.144676 0.0723379 0.289352 0.289352 0.289352 0.144676 0.144676 0.144676 0.0723379 0.289352 0.289352 0.289352 0.144676 0.144676 0.144676 0.0723379 0.289352 0.289352 0.289352 0.144676 0.144676 0.144676 0.072338 0.289352 0.289352 0.289352 0.144676 0.144676 0.144676 0.0723379 0.289352 0.289352 0.289352 0.144676 0.144676 0.144676 0.072338 0.289352 0.289352 0.289352 0.144676 0.144676 0.144676 0.0723379 0.289352 0.289352 0.289352 0.144676 0.144676 0.144676 0.072338 0.289352 0.289352 0.289352 0.144676 0.144676 0.144676 0.072338 0.289352 0.289352 0.289352 0.144676 0.144676 0.144676 0.0723379 0.289352 0.289352 0.289352 0.144676 0.144676 0.144676 0.0723379 0.289352 0.289352 0.289352 0.144676 0.144676 0.144676 0.0723379 0.289352 0.289352 0.289352 0.144676 0.144676 0.144676 0.072338 0.289352 0.289352 0.289352 0.144676 0.144676 0.144676 0.0723379 0.289352 0.289352 0.289352 0.144676 0.144676 0.144676 0.0723379 0.144676 0.144676 0.289352 0.072338 0.144676 0.144676 0.072338 0.289352 0.144676 0.289352 0.289352 0.144676 0.144676 0.144676 0.072338 0.144676 0.072338 0.289352 0.289352 0.289352 0.144676 0.144676 0.144676 0.072338 0.289352 0.289352 0.289352 0.144676 0.144676 0.144676 0.072338 0.289352 0.289352 0.289352 0.144676 0.144676 0.144676 0.0723379 0.289352 0.289352 0.289352 0.144676 0.144676 0.144676 0.0723379 0.289352 0.289352 0.289352 0.144676 0.144676 0.144676 0.072338 0.289352 0.289352 0.289352 0.144676 0.144676 0.144676 0.072338 0.289352 0.289352 0.289352 0.144676 0.144676 0.144676 0.0723379 0.289352 0.289352 0.289352 0.144676 0.144676 0.144676 0.072338 0.289352 0.289352 0.289352 0.144676 0.144676 0.144676 0.0723379 0.289352 0.289352 0.289352 0.144676 0.144676 0.144676 0.0723379 0.289352 0.289352 0.289352 0.144676 0.144676 0.144676 0.072338 0.289352 0.289352 0.289352 0.144676 0.144676 0.144676 0.072338 0.289352 0.289352 0.289352 0.144676 0.144676 0.144676 0.072338 0.289352 0.289352 0.289352 0.144676 0.144676 0.144676 0.0723379 0.289352 0.289352 0.289352 0.144676 0.144676 0.144676 0.072338 0.289352 0.289352 0.289352 0.144676 0.144676 0.144676 0.072338 0.289352 0.289352 0.289352 0.144676 0.144676 0.144676 0.0723379 0.289352 0.289352 0.289352 0.144676 0.144676 0.144676 0.0723379 0.289352 0.289352 0.289352 0.144676 0.144676 0.144676 0.0723379 0.289352 0.289352 0.289352 0.144676 0.144676 0.144676 0.072338 0.289352 0.289352 0.289352 0.144676 0.144676 0.144676 0.0723379 0.289352 0.289352 0.289352 0.144676 0.144676 0.144676 0.0723379 0.144676 0.144676 0.289352 0.072338 0.144676 0.144676 0.072338 0.289352 0.144676 0.289352 0.289352 0.144676 0.144676 0.144676 0.072338 0.144676 0.072338 0.289352 0.289352 0.289352 0.144676 0.144676 0.144676 0.072338 0.289352 0.289352 0.289352 0.144676 0.144676 0.144676 0.072338 0.289352 0.289352 0.289352 0.144676 0.144676 0.144676 0.072338 0.289352 0.289352 0.289352 0.144676 0.144676 0.144676 0.072338 0.289352 0.289352 0.289352 0.144676 0.144676 0.144676 0.072338 0.289352 0.289352 0.289352 0.144676 0.144676 0.144676 0.072338 0.289352 0.289352 0.289352 0.144676 0.144676 0.144676 0.072338 0.289352 0.289352 0.289352 0.144676 0.144676 0.144676 0.072338 0.289352 0.289352 0.289352 0.144676 0.144676 0.144676 0.0723379 0.289352 0.289352 0.289352 0.144676 0.144676 0.144676 0.0723379 0.289352 0.289352 0.289352 0.144676 0.144676 0.144676 0.072338 0.289352 0.289352 0.289352 0.144676 0.144676 0.144676 0.072338 0.289352 0.289352 0.289352 0.144676 0.144676 0.144676 0.072338 0.289352 0.289352 0.289352 0.144676 0.144676 0.144676 0.0723379 0.289352 0.289352 0.289352 0.144676 0.144676 0.144676 0.072338 0.289352 0.289352 0.289352 0.144676 0.144676 0.144676 0.072338 0.289352 0.289352 0.289352 0.144676 0.144676 0.144676 0.0723379 0.289352 0.289352 0.289352 0.144676 0.144676 0.144676 0.0723379 0.289352 0.289352 0.289352 0.144676 0.144676 0.144676 0.0723379 0.289352 0.289352 0.289352 0.144676 0.144676 0.144676 0.072338 0.289352 0.289352 0.289352 0.144676 0.144676 0.144676 0.0723379 0.289352 0.289352 0.289352 0.144676 0.144676 0.144676 0.0723379 0.144676 0.144676 0.289352 0.072338 0.144676 0.144676 0.072338 0.289352 0.144676 0.144676 0.144676 0.0723379 0.144676 0.144676 0.0723379 0.0723379 0.0723379 0.289352 0.144676 0.144676 0.144676 0.144676 0.0723379 0.0723379 0.289352 0.144676 0.144676 0.144676 0.144676 0.072338 0.072338 0.289352 0.144676 0.144676 0.144676 0.144676 0.0723379 0.0723379 0.289352 0.144676 0.144676 0.144676 0.144676 0.0723379 0.0723379 0.289352 0.144676 0.144676 0.144676 0.144676 0.0723379 0.0723379 0.289352 0.144676 0.144676 0.144676 0.144676 0.0723379 0.0723379 0.289352 0.144676 0.144676 0.144676 0.144676 0.0723379 0.0723379 0.289352 0.144676 0.144676 0.144676 0.144676 0.0723379 0.0723379 0.289352 0.144676 0.144676 0.144676 0.144676 0.0723379 0.0723379 0.289352 0.144676 0.144676 0.144676 0.144676 0.0723379 0.0723379 0.289352 0.144676 0.144676 0.144676 0.144676 0.0723379 0.0723379 0.289352 0.144676 0.144676 0.144676 0.144676 0.0723379 0.0723379 0.289352 0.144676 0.144676 0.144676 0.144676 0.072338 0.072338 0.289352 0.144676 0.144676 0.144676 0.144676 0.0723379 0.0723379 0.289352 0.144676 0.144676 0.144676 0.144676 0.072338 0.072338 0.289352 0.144676 0.144676 0.144676 0.144676 0.0723379 0.0723379 0.289352 0.144676 0.144676 0.144676 0.144676 0.0723379 0.0723379 0.289352 0.144676 0.144676 0.144676 0.144676 0.0723379 0.0723379 0.289352 0.144676 0.144676 0.144676 0.144676 0.0723379 0.0723379 0.289352 0.144676 0.144676 0.144676 0.144676 0.072338 0.072338 0.289352 0.144676 0.144676 0.144676 0.144676 0.0723379 0.0723379 0.289352 0.144676 0.144676 0.144676 0.144676 0.0723379 0.0723379 0.144676 0.072338 0.144676 0.072338 0.144676 0.072338 0.072338 0.144676 0.144676 0.072338 0.289352 0.144676 0.289352 0.289352 0.144676 0.072338 0.144676 0.144676 0.072338 0.144676 0.072338 0.144676 0.144676 0.289352 0.289352 0.289352 0.072338 0.144676 0.144676 0.144676 0.072338 0.144676 0.144676 0.289352 0.289352 0.289352 0.072338 0.144676 0.144676 0.144676 0.072338 0.144676 0.144676 0.289352 0.289352 0.289352 0.072338 0.144676 0.144676 0.144676 0.072338 0.144676 0.144676 0.289352 0.289352 0.289352 0.072338 0.144676 0.144676 0.144676 0.072338 0.144676 0.144676 0.289352 0.289352 0.289352 0.072338 0.144676 0.144676 0.144676 0.072338 0.144676 0.144676 0.289352 0.289352 0.289352 0.072338 0.144676 0.144676 0.144676 0.072338 0.144676 0.144676 0.289352 0.289352 0.289352 0.072338 0.144676 0.144676 0.144676 0.072338 0.144676 0.144676 0.289352 0.289352 0.289352 0.072338 0.144676 0.144676 0.144676 0.072338 0.144676 0.144676 0.289352 0.289352 0.289352 0.0723379 0.144676 0.144676 0.144676 0.0723379 0.144676 0.144676 0.289352 0.289352 0.289352 0.0723379 0.144676 0.144676 0.144676 0.0723379 0.144676 0.144676 0.289352 0.289352 0.289352 0.072338 0.144676 0.144676 0.144676 0.072338 0.144676 0.144676 0.289352 0.289352 0.289352 0.072338 0.144676 0.144676 0.144676 0.072338 0.144676 0.144676 0.289352 0.289352 0.289352 0.072338 0.144676 0.144676 0.144676 0.072338 0.144676 0.144676 0.289352 0.289352 0.289352 0.0723379 0.144676 0.144676 0.144676 0.0723379 0.144676 0.144676 0.289352 0.289352 0.289352 0.072338 0.144676 0.144676 0.144676 0.072338 0.144676 0.144676 0.289352 0.289352 0.289352 0.072338 0.144676 0.144676 0.144676 0.072338 0.144676 0.144676 0.289352 0.289352 0.289352 0.0723379 0.144676 0.144676 0.144676 0.0723379 0.144676 0.144676 0.289352 0.289352 0.289352 0.0723379 0.144676 0.144676 0.144676 0.0723379 0.144676 0.144676 0.289352 0.289352 0.289352 0.0723379 0.144676 0.144676 0.144676 0.0723379 0.144676 0.144676 0.289352 0.289352 0.289352 0.072338 0.144676 0.144676 0.144676 0.072338 0.144676 0.144676 0.289352 0.289352 0.289352 0.072338 0.144676 0.144676 0.144676 0.072338 0.144676 0.144676 0.289352 0.289352 0.289352 0.0723379 0.144676 0.144676 0.144676 0.0723379 0.072338 0.144676 0.144676 0.144676 0.289352 0.072338 0.072338 0.144676 0.144676 0.072338 0.289352 0.144676 0.289352 0.289352 0.144676 0.144676 0.144676 0.072338 0.144676 0.072338 0.289352 0.289352 0.289352 0.144676 0.144676 0.144676 0.072338 0.289352 0.289352 0.289352 0.144676 0.144676 0.144676 0.072338 0.289352 0.289352 0.289352 0.144676 0.144676 0.144676 0.072338 0.289352 0.289352 0.289352 0.144676 0.144676 0.144676 0.072338 0.289352 0.289352 0.289352 0.144676 0.144676 0.144676 0.072338 0.289352 0.289352 0.289352 0.144676 0.144676 0.144676 0.072338 0.289352 0.289352 0.289352 0.144676 0.144676 0.144676 0.072338 0.289352 0.289352 0.289352 0.144676 0.144676 0.144676 0.072338 0.289352 0.289352 0.289352 0.144676 0.144676 0.144676 0.0723379 0.289352 0.289352 0.289352 0.144676 0.144676 0.144676 0.0723379 0.289352 0.289352 0.289352 0.144676 0.144676 0.144676 0.072338 0.289352 0.289352 0.289352 0.144676 0.144676 0.144676 0.072338 0.289352 0.289352 0.289352 0.144676 0.144676 0.144676 0.072338 0.289352 0.289352 0.289352 0.144676 0.144676 0.144676 0.0723379 0.289352 0.289352 0.289352 0.144676 0.144676 0.144676 0.072338 0.289352 0.289352 0.289352 0.144676 0.144676 0.144676 0.072338 0.289352 0.289352 0.289352 0.144676 0.144676 0.144676 0.0723379 0.289352 0.289352 0.289352 0.144676 0.144676 0.144676 0.0723379 0.289352 0.289352 0.289352 0.144676 0.144676 0.144676 0.0723379 0.289352 0.289352 0.289352 0.144676 0.144676 0.144676 0.072338 0.289352 0.289352 0.289352 0.144676 0.144676 0.144676 0.072338 0.289352 0.289352 0.289352 0.144676 0.144676 0.144676 0.0723379 0.144676 0.144676 0.289352 0.072338 0.144676 0.144676 0.072338 0.289352 0.144676 0.289352 0.289352 0.144676 0.144676 0.144676 0.072338 0.144676 0.072338 0.289352 0.289352 0.289352 0.144676 0.144676 0.144676 0.072338 0.289352 0.289352 0.289352 0.144676 0.144676 0.144676 0.072338 0.289352 0.289352 0.289352 0.144676 0.144676 0.144676 0.072338 0.289352 0.289352 0.289352 0.144676 0.144676 0.144676 0.072338 0.289352 0.289352 0.289352 0.144676 0.144676 0.144676 0.072338 0.289352 0.289352 0.289352 0.144676 0.144676 0.144676 0.072338 0.289352 0.289352 0.289352 0.144676 0.144676 0.144676 0.072338 0.289352 0.289352 0.289352 0.144676 0.144676 0.144676 0.072338 0.289352 0.289352 0.289352 0.144676 0.144676 0.144676 0.0723379 0.289352 0.289352 0.289352 0.144676 0.144676 0.144676 0.0723379 0.289352 0.289352 0.289352 0.144676 0.144676 0.144676 0.072338 0.289352 0.289352 0.289352 0.144676 0.144676 0.144676 0.072338 0.289352 0.289352 0.289352 0.144676 0.144676 0.144676 0.072338 0.289352 0.289352 0.289352 0.144676 0.144676 0.144676 0.0723379 0.289352 0.289352 0.289352 0.144676 0.144676 0.144676 0.072338 0.289352 0.289352 0.289352 0.144676 0.144676 0.144676 0.072338 0.289352 0.289352 0.289352 0.144676 0.144676 0.144676 0.0723379 0.289352 0.289352 0.289352 0.144676 0.144676 0.144676 0.0723379 0.289352 0.289352 0.289352 0.144676 0.144676 0.144676 0.0723379 0.289352 0.289352 0.289352 0.144676 0.144676 0.144676 0.072338 0.289352 0.289352 0.289352 0.144676 0.144676 0.144676 0.072338 0.289352 0.289352 0.289352 0.144676 0.144676 0.144676 0.0723379 0.144676 0.144676 0.289352 0.072338 0.144676 0.144676 0.072338 0.289352 0.144676 0.289352 0.289352 0.144676 0.144676 0.144676 0.072338 0.144676 0.072338 0.289352 0.289352 0.289352 0.144676 0.144676 0.144676 0.072338 0.289352 0.289352 0.289352 0.144676 0.144676 0.144676 0.072338 0.289352 0.289352 0.289352 0.144676 0.144676 0.144676 0.0723379 0.289352 0.289352 0.289352 0.144676 0.144676 0.144676 0.0723379 0.289352 0.289352 0.289352 0.144676 0.144676 0.144676 0.072338 0.289352 0.289352 0.289352 0.144676 0.144676 0.144676 0.072338 0.289352 0.289352 0.289352 0.144676 0.144676 0.144676 0.0723379 0.289352 0.289352 0.289352 0.144676 0.144676 0.144676 0.072338 0.289352 0.289352 0.289352 0.144676 0.144676 0.144676 0.0723379 0.289352 0.289352 0.289352 0.144676 0.144676 0.144676 0.0723379 0.289352 0.289352 0.289352 0.144676 0.144676 0.144676 0.072338 0.289352 0.289352 0.289352 0.144676 0.144676 0.144676 0.0723379 0.289352 0.289352 0.289352 0.144676 0.144676 0.144676 0.072338 0.289352 0.289352 0.289352 0.144676 0.144676 0.144676 0.0723379 0.289352 0.289352 0.289352 0.144676 0.144676 0.144676 0.072338 0.289352 0.289352 0.289352 0.144676 0.144676 0.144676 0.072338 0.289352 0.289352 0.289352 0.144676 0.144676 0.144676 0.0723379 0.289352 0.289352 0.289352 0.144676 0.144676 0.144676 0.0723379 0.289352 0.289352 0.289352 0.144676 0.144676 0.144676 0.0723379 0.289352 0.289352 0.289352 0.144676 0.144676 0.144676 0.072338 0.289352 0.289352 0.289352 0.144676 0.144676 0.144676 0.0723379 0.289352 0.289352 0.289352 0.144676 0.144676 0.144676 0.0723379 0.144676 0.144676 0.289352 0.072338 0.144676 0.144676 0.072338 0.289352 0.144676 0.289352 0.289352 0.144676 0.144676 0.144676 0.072338 0.144676 0.072338 0.289352 0.289352 0.289352 0.144676 0.144676 0.144676 0.072338 0.289352 0.289352 0.289352 0.144676 0.144676 0.144676 0.072338 0.289352 0.289352 0.289352 0.144676 0.144676 0.144676 0.0723379 0.289352 0.289352 0.289352 0.144676 0.144676 0.144676 0.072338 0.289352 0.289352 0.289352 0.144676 0.144676 0.144676 0.072338 0.289352 0.289352 0.289352 0.144676 0.144676 0.144676 0.072338 0.289352 0.289352 0.289352 0.144676 0.144676 0.144676 0.072338 0.289352 0.289352 0.289352 0.144676 0.144676 0.144676 0.072338 0.289352 0.289352 0.289352 0.144676 0.144676 0.144676 0.0723379 0.289352 0.289352 0.289352 0.144676 0.144676 0.144676 0.0723379 0.289352 0.289352 0.289352 0.144676 0.144676 0.144676 0.072338 0.289352 0.289352 0.289352 0.144676 0.144676 0.144676 0.0723379 0.289352 0.289352 0.289352 0.144676 0.144676 0.144676 0.072338 0.289352 0.289352 0.289352 0.144676 0.144676 0.144676 0.0723379 0.289352 0.289352 0.289352 0.144676 0.144676 0.144676 0.072338 0.289352 0.289352 0.289352 0.144676 0.144676 0.144676 0.072338 0.289352 0.289352 0.289352 0.144676 0.144676 0.144676 0.0723379 0.289352 0.289352 0.289352 0.144676 0.144676 0.144676 0.0723379 0.289352 0.289352 0.289352 0.144676 0.144676 0.144676 0.0723379 0.289352 0.289352 0.289352 0.144676 0.144676 0.144676 0.072338 0.289352 0.289352 0.289352 0.144676 0.144676 0.144676 0.0723379 0.289352 0.289352 0.289352 0.144676 0.144676 0.144676 0.0723379 0.144676 0.144676 0.289352 0.072338 0.144676 0.144676 0.072338 0.289352 0.144676 0.289352 0.289352 0.144676 0.144676 0.144676 0.072338 0.144676 0.072338 0.289352 0.289352 0.289352 0.144676 0.144676 0.144676 0.072338 0.289352 0.289352 0.289352 0.144676 0.144676 0.144676 0.072338 0.289352 0.289352 0.289352 0.144676 0.144676 0.144676 0.072338 0.289352 0.289352 0.289352 0.144676 0.144676 0.144676 0.072338 0.289352 0.289352 0.289352 0.144676 0.144676 0.144676 0.072338 0.289352 0.289352 0.289352 0.144676 0.144676 0.144676 0.072338 0.289352 0.289352 0.289352 0.144676 0.144676 0.144676 0.072338 0.289352 0.289352 0.289352 0.144676 0.144676 0.144676 0.072338 0.289352 0.289352 0.289352 0.144676 0.144676 0.144676 0.0723379 0.289352 0.289352 0.289352 0.144676 0.144676 0.144676 0.0723379 0.289352 0.289352 0.289352 0.144676 0.144676 0.144676 0.072338 0.289352 0.289352 0.289352 0.144676 0.144676 0.144676 0.072338 0.289352 0.289352 0.289352 0.144676 0.144676 0.144676 0.072338 0.289352 0.289352 0.289352 0.144676 0.144676 0.144676 0.0723379 0.289352 0.289352 0.289352 0.144676 0.144676 0.144676 0.072338 0.289352 0.289352 0.289352 0.144676 0.144676 0.144676 0.072338 0.289352 0.289352 0.289352 0.144676 0.144676 0.144676 0.0723379 0.289352 0.289352 0.289352 0.144676 0.144676 0.144676 0.0723379 0.289352 0.289352 0.289352 0.144676 0.144676 0.144676 0.0723379 0.289352 0.289352 0.289352 0.144676 0.144676 0.144676 0.072338 0.289352 0.289352 0.289352 0.144676 0.144676 0.144676 0.0723379 0.289352 0.289352 0.289352 0.144676 0.144676 0.144676 0.0723379 0.144676 0.144676 0.289352 0.072338 0.144676 0.144676 0.072338 0.289352 0.144676 0.289352 0.289352 0.144676 0.144676 0.144676 0.072338 0.144676 0.072338 0.289352 0.289352 0.289352 0.144676 0.144676 0.144676 0.072338 0.289352 0.289352 0.289352 0.144676 0.144676 0.144676 0.072338 0.289352 0.289352 0.289352 0.144676 0.144676 0.144676 0.072338 0.289352 0.289352 0.289352 0.144676 0.144676 0.144676 0.072338 0.289352 0.289352 0.289352 0.144676 0.144676 0.144676 0.072338 0.289352 0.289352 0.289352 0.144676 0.144676 0.144676 0.072338 0.289352 0.289352 0.289352 0.144676 0.144676 0.144676 0.072338 0.289352 0.289352 0.289352 0.144676 0.144676 0.144676 0.072338 0.289352 0.289352 0.289352 0.144676 0.144676 0.144676 0.0723379 0.289352 0.289352 0.289352 0.144676 0.144676 0.144676 0.0723379 0.289352 0.289352 0.289352 0.144676 0.144676 0.144676 0.072338 0.289352 0.289352 0.289352 0.144676 0.144676 0.144676 0.072338 0.289352 0.289352 0.289352 0.144676 0.144676 0.144676 0.072338 0.289352 0.289352 0.289352 0.144676 0.144676 0.144676 0.0723379 0.289352 0.289352 0.289352 0.144676 0.144676 0.144676 0.072338 0.289352 0.289352 0.289352 0.144676 0.144676 0.144676 0.072338 0.289352 0.289352 0.289352 0.144676 0.144676 0.144676 0.0723379 0.289352 0.289352 0.289352 0.144676 0.144676 0.144676 0.0723379 0.289352 0.289352 0.289352 0.144676 0.144676 0.144676 0.0723379 0.289352 0.289352 0.289352 0.144676 0.144676 0.144676 0.072338 0.289352 0.289352 0.289352 0.144676 0.144676 0.144676 0.0723379 0.289352 0.289352 0.289352 0.144676 0.144676 0.144676 0.0723379 0.144676 0.144676 0.289352 0.072338 0.144676 0.144676 0.072338 0.289352 0.144676 0.144676 0.144676 0.072338 0.144676 0.144676 0.072338 0.072338 0.072338 0.289352 0.144676 0.144676 0.144676 0.144676 0.072338 0.072338 0.289352 0.144676 0.144676 0.144676 0.144676 0.072338 0.072338 0.289352 0.144676 0.144676 0.144676 0.144676 0.0723379 0.0723379 0.289352 0.144676 0.144676 0.144676 0.144676 0.0723379 0.0723379 0.289352 0.144676 0.144676 0.144676 0.144676 0.072338 0.072338 0.289352 0.144676 0.144676 0.144676 0.144676 0.0723379 0.0723379 0.289352 0.144676 0.144676 0.144676 0.144676 0.0723379 0.0723379 0.289352 0.144676 0.144676 0.144676 0.144676 0.072338 0.072338 0.289352 0.144676 0.144676 0.144676 0.144676 0.0723379 0.0723379 0.289352 0.144676 0.144676 0.144676 0.144676 0.0723379 0.0723379 0.289352 0.144676 0.144676 0.144676 0.144676 0.0723379 0.0723379 0.289352 0.144676 0.144676 0.144676 0.144676 0.0723379 0.0723379 0.289352 0.144676 0.144676 0.144676 0.144676 0.072338 0.072338 0.289352 0.144676 0.144676 0.144676 0.144676 0.0723379 0.0723379 0.289352 0.144676 0.144676 0.144676 0.144676 0.072338 0.072338 0.289352 0.144676 0.144676 0.144676 0.144676 0.0723379 0.0723379 0.289352 0.144676 0.144676 0.144676 0.144676 0.0723379 0.0723379 0.289352 0.144676 0.144676 0.144676 0.144676 0.0723379 0.0723379 0.289352 0.144676 0.144676 0.144676 0.144676 0.0723379 0.0723379 0.289352 0.144676 0.144676 0.144676 0.144676 0.072338 0.072338 0.289352 0.144676 0.144676 0.144676 0.144676 0.0723379 0.0723379 0.289352 0.144676 0.144676 0.144676 0.144676 0.0723379 0.0723379 0.144676 0.072338 0.144676 0.072338 0.144676 0.072338 0.072338 0.144676 0.144676 0.0723379 0.289352 0.144676 0.289352 0.289352 0.144676 0.0723379 0.144676 0.144676 0.0723379 0.144676 0.0723379 0.144676 0.144676 0.289352 0.289352 0.289352 0.0723379 0.144676 0.144676 0.144676 0.0723379 0.144676 0.144676 0.289352 0.289352 0.289352 0.0723379 0.144676 0.144676 0.144676 0.0723379 0.144676 0.144676 0.289352 0.289352 0.289352 0.0723379 0.144676 0.144676 0.144676 0.0723379 0.144676 0.144676 0.289352 0.289352 0.289352 0.0723379 0.144676 0.144676 0.144676 0.0723379 0.144676 0.144676 0.289352 0.289352 0.289352 0.0723379 0.144676 0.144676 0.144676 0.0723379 0.144676 0.144676 0.289352 0.289352 0.289352 0.0723379 0.144676 0.144676 0.144676 0.0723379 0.144676 0.144676 0.289352 0.289352 0.289352 0.0723379 0.144676 0.144676 0.144676 0.0723379 0.144676 0.144676 0.289352 0.289352 0.289352 0.0723379 0.144676 0.144676 0.144676 0.0723379 0.144676 0.144676 0.289352 0.289352 0.289352 0.0723379 0.144676 0.144676 0.144676 0.0723379 0.144676 0.144676 0.289352 0.289352 0.289352 0.0723379 0.144676 0.144676 0.144676 0.0723379 0.144676 0.144676 0.289352 0.289352 0.289352 0.0723379 0.144676 0.144676 0.144676 0.0723379 0.144676 0.144676 0.289352 0.289352 0.289352 0.0723379 0.144676 0.144676 0.144676 0.0723379 0.144676 0.144676 0.289352 0.289352 0.289352 0.0723379 0.144676 0.144676 0.144676 0.0723379 0.144676 0.144676 0.289352 0.289352 0.289352 0.0723379 0.144676 0.144676 0.144676 0.0723379 0.144676 0.144676 0.289352 0.289352 0.289352 0.0723379 0.144676 0.144676 0.144676 0.0723379 0.144676 0.144676 0.289352 0.289352 0.289352 0.0723379 0.144676 0.144676 0.144676 0.0723379 0.144676 0.144676 0.289352 0.289352 0.289352 0.0723379 0.144676 0.144676 0.144676 0.0723379 0.144676 0.144676 0.289352 0.289352 0.289352 0.0723379 0.144676 0.144676 0.144676 0.0723379 0.144676 0.144676 0.289352 0.289352 0.289351 0.0723379 0.144676 0.144676 0.144676 0.0723379 0.144676 0.144676 0.289352 0.289352 0.289352 0.0723379 0.144676 0.144676 0.144676 0.0723379 0.144676 0.144676 0.289352 0.289352 0.289352 0.0723379 0.144676 0.144676 0.144676 0.0723379 0.144676 0.144676 0.289352 0.289352 0.289352 0.0723379 0.144676 0.144676 0.144676 0.0723379 0.0723379 0.144676 0.144676 0.144676 0.289352 0.0723379 0.0723379 0.144676 0.144676 0.0723379 0.289352 0.144676 0.289352 0.289352 0.144676 0.144676 0.144676 0.0723379 0.144676 0.0723379 0.289352 0.289352 0.289352 0.144676 0.144676 0.144676 0.0723379 0.289352 0.289352 0.289352 0.144676 0.144676 0.144676 0.0723379 0.289352 0.289352 0.289352 0.144676 0.144676 0.144676 0.0723379 0.289352 0.289352 0.289352 0.144676 0.144676 0.144676 0.0723379 0.289352 0.289352 0.289352 0.144676 0.144676 0.144676 0.0723379 0.289352 0.289352 0.289352 0.144676 0.144676 0.144676 0.0723379 0.289352 0.289352 0.289352 0.144676 0.144676 0.144676 0.0723379 0.289352 0.289352 0.289352 0.144676 0.144676 0.144676 0.0723379 0.289352 0.289352 0.289352 0.144676 0.144676 0.144676 0.0723379 0.289352 0.289352 0.289352 0.144676 0.144676 0.144676 0.0723379 0.289352 0.289352 0.289352 0.144676 0.144676 0.144676 0.0723379 0.289352 0.289352 0.289352 0.144676 0.144676 0.144676 0.0723379 0.289352 0.289352 0.289352 0.144676 0.144676 0.144676 0.0723379 0.289352 0.289352 0.289351 0.144676 0.144676 0.144676 0.0723379 0.289352 0.289352 0.289352 0.144676 0.144676 0.144676 0.0723379 0.289352 0.289352 0.289352 0.144676 0.144676 0.144676 0.0723379 0.289352 0.289352 0.289352 0.144676 0.144676 0.144676 0.0723379 0.289351 0.289351 0.289352 0.144676 0.144676 0.144676 0.0723379 0.289352 0.289352 0.289351 0.144676 0.144676 0.144676 0.0723379 0.289352 0.289352 0.289352 0.144676 0.144676 0.144676 0.0723379 0.289352 0.289352 0.289352 0.144676 0.144676 0.144676 0.0723379 0.289352 0.289352 0.289352 0.144676 0.144676 0.144676 0.0723379 0.144676 0.144676 0.289352 0.0723379 0.144676 0.144676 0.0723379 0.289352 0.144676 0.289352 0.289352 0.144676 0.144676 0.144676 0.0723379 0.144676 0.0723379 0.289352 0.289352 0.289352 0.144676 0.144676 0.144676 0.0723379 0.289352 0.289352 0.289352 0.144676 0.144676 0.144676 0.0723379 0.289352 0.289352 0.289352 0.144676 0.144676 0.144676 0.0723379 0.289352 0.289352 0.289352 0.144676 0.144676 0.144676 0.0723379 0.289352 0.289352 0.289352 0.144676 0.144676 0.144676 0.0723379 0.289352 0.289352 0.289352 0.144676 0.144676 0.144676 0.0723379 0.289352 0.289352 0.289352 0.144676 0.144676 0.144676 0.0723379 0.289352 0.289352 0.289352 0.144676 0.144676 0.144676 0.0723379 0.289352 0.289352 0.289352 0.144676 0.144676 0.144676 0.0723379 0.289352 0.289352 0.289352 0.144676 0.144676 0.144676 0.0723379 0.289352 0.289352 0.289352 0.144676 0.144676 0.144676 0.0723379 0.289352 0.289352 0.289352 0.144676 0.144676 0.144676 0.0723379 0.289352 0.289352 0.289352 0.144676 0.144676 0.144676 0.0723379 0.289352 0.289352 0.289351 0.144676 0.144676 0.144676 0.0723379 0.289352 0.289352 0.289352 0.144676 0.144676 0.144676 0.0723379 0.289352 0.289352 0.289352 0.144676 0.144676 0.144676 0.0723379 0.289352 0.289352 0.289352 0.144676 0.144676 0.144676 0.0723379 0.289351 0.289351 0.289352 0.144676 0.144676 0.144676 0.0723379 0.289352 0.289352 0.289351 0.144676 0.144676 0.144676 0.0723379 0.289352 0.289352 0.289352 0.144676 0.144676 0.144676 0.0723379 0.289352 0.289352 0.289352 0.144676 0.144676 0.144676 0.0723379 0.289352 0.289352 0.289352 0.144676 0.144676 0.144676 0.0723379 0.144676 0.144676 0.289352 0.0723379 0.144676 0.144676 0.0723379 0.289352 0.144676 0.289352 0.289352 0.144676 0.144676 0.144676 0.0723379 0.144676 0.0723379 0.289352 0.289352 0.289352 0.144676 0.144676 0.144676 0.0723379 0.289352 0.289352 0.289352 0.144676 0.144676 0.144676 0.0723379 0.289352 0.289352 0.289352 0.144676 0.144676 0.144676 0.0723379 0.289352 0.289352 0.289352 0.144676 0.144676 0.144676 0.0723379 0.289352 0.289352 0.289352 0.144676 0.144676 0.144676 0.0723379 0.289352 0.289352 0.289352 0.144676 0.144676 0.144676 0.0723379 0.289352 0.289352 0.289352 0.144676 0.144676 0.144676 0.0723379 0.289352 0.289352 0.289352 0.144676 0.144676 0.144676 0.0723379 0.289352 0.289352 0.289352 0.144676 0.144676 0.144676 0.0723379 0.289352 0.289352 0.289352 0.144676 0.144676 0.144676 0.0723379 0.289352 0.289352 0.289352 0.144676 0.144676 0.144676 0.0723379 0.289352 0.289352 0.289352 0.144676 0.144676 0.144676 0.0723379 0.289352 0.289352 0.289352 0.144676 0.144676 0.144676 0.0723379 0.289352 0.289352 0.289351 0.144676 0.144676 0.144676 0.0723379 0.289352 0.289352 0.289352 0.144676 0.144676 0.144676 0.0723379 0.289352 0.289352 0.289352 0.144676 0.144676 0.144676 0.0723379 0.289352 0.289352 0.289352 0.144676 0.144676 0.144676 0.0723379 0.289351 0.289351 0.289351 0.144676 0.144676 0.144676 0.0723379 0.289352 0.289352 0.289351 0.144676 0.144676 0.144676 0.0723379 0.289352 0.289352 0.289352 0.144676 0.144676 0.144676 0.0723379 0.289352 0.289352 0.289352 0.144676 0.144676 0.144676 0.0723379 0.289352 0.289352 0.289352 0.144676 0.144676 0.144676 0.0723379 0.144676 0.144676 0.289352 0.0723379 0.144676 0.144676 0.0723379 0.289352 0.144676 0.289352 0.289352 0.144676 0.144676 0.144676 0.0723379 0.144676 0.0723379 0.289352 0.289352 0.289352 0.144676 0.144676 0.144676 0.0723379 0.289352 0.289352 0.289352 0.144676 0.144676 0.144676 0.0723379 0.289352 0.289352 0.289352 0.144676 0.144676 0.144676 0.0723379 0.289352 0.289352 0.289352 0.144676 0.144676 0.144676 0.0723379 0.289352 0.289352 0.289352 0.144676 0.144676 0.144676 0.0723379 0.289352 0.289352 0.289352 0.144676 0.144676 0.144676 0.0723379 0.289352 0.289352 0.289352 0.144676 0.144676 0.144676 0.0723379 0.289352 0.289352 0.289352 0.144676 0.144676 0.144676 0.0723379 0.289352 0.289352 0.289352 0.144676 0.144676 0.144676 0.0723379 0.289352 0.289352 0.289352 0.144676 0.144676 0.144676 0.0723379 0.289352 0.289352 0.289352 0.144676 0.144676 0.144676 0.0723379 0.289352 0.289352 0.289352 0.144676 0.144676 0.144676 0.0723379 0.289352 0.289352 0.289352 0.144676 0.144676 0.144676 0.0723379 0.289352 0.289352 0.289351 0.144676 0.144676 0.144676 0.0723379 0.289352 0.289352 0.289352 0.144676 0.144676 0.144676 0.0723379 0.289352 0.289352 0.289352 0.144676 0.144676 0.144676 0.0723379 0.289352 0.289352 0.289352 0.144676 0.144676 0.144676 0.0723379 0.289351 0.289351 0.289352 0.144676 0.144676 0.144676 0.0723379 0.289352 0.289352 0.289351 0.144676 0.144676 0.144676 0.0723379 0.289352 0.289352 0.289352 0.144676 0.144676 0.144676 0.0723379 0.289352 0.289352 0.289352 0.144676 0.144676 0.144676 0.0723379 0.289352 0.289352 0.289352 0.144676 0.144676 0.144676 0.0723379 0.144676 0.144676 0.289352 0.0723379 0.144676 0.144676 0.0723379 0.289352 0.144676 0.289352 0.289352 0.144676 0.144676 0.144676 0.0723379 0.144676 0.0723379 0.289352 0.289352 0.289352 0.144676 0.144676 0.144676 0.0723379 0.289352 0.289352 0.289352 0.144676 0.144676 0.144676 0.0723379 0.289352 0.289352 0.289352 0.144676 0.144676 0.144676 0.0723379 0.289352 0.289352 0.289352 0.144676 0.144676 0.144676 0.0723379 0.289352 0.289352 0.289352 0.144676 0.144676 0.144676 0.0723379 0.289352 0.289352 0.289352 0.144676 0.144676 0.144676 0.0723379 0.289352 0.289352 0.289352 0.144676 0.144676 0.144676 0.0723379 0.289352 0.289352 0.289352 0.144676 0.144676 0.144676 0.0723379 0.289352 0.289352 0.289352 0.144676 0.144676 0.144676 0.0723379 0.289352 0.289352 0.289352 0.144676 0.144676 0.144676 0.0723379 0.289352 0.289352 0.289352 0.144676 0.144676 0.144676 0.0723379 0.289352 0.289352 0.289352 0.144676 0.144676 0.144676 0.0723379 0.289352 0.289352 0.289352 0.144676 0.144676 0.144676 0.0723379 0.289352 0.289352 0.289352 0.144676 0.144676 0.144676 0.0723379 0.289352 0.289352 0.289352 0.144676 0.144676 0.144676 0.0723379 0.289352 0.289352 0.289352 0.144676 0.144676 0.144676 0.0723379 0.289352 0.289352 0.289352 0.144676 0.144676 0.144676 0.0723379 0.289351 0.289352 0.289352 0.144676 0.144676 0.144676 0.0723379 0.289352 0.289352 0.289351 0.144676 0.144676 0.144676 0.0723379 0.289352 0.289352 0.289352 0.144676 0.144676 0.144676 0.0723379 0.289352 0.289352 0.289352 0.144676 0.144676 0.144676 0.0723379 0.289352 0.289352 0.289352 0.144676 0.144676 0.144676 0.0723379 0.144676 0.144676 0.289352 0.0723379 0.144676 0.144676 0.0723379 0.289352 0.144676 0.289352 0.289352 0.144676 0.144676 0.144676 0.0723379 0.144676 0.0723379 0.289352 0.289352 0.289352 0.144676 0.144676 0.144676 0.0723379 0.289352 0.289352 0.289352 0.144676 0.144676 0.144676 0.0723379 0.289352 0.289352 0.289352 0.144676 0.144676 0.144676 0.0723379 0.289352 0.289352 0.289352 0.144676 0.144676 0.144676 0.0723379 0.289352 0.289352 0.289352 0.144676 0.144676 0.144676 0.0723379 0.289352 0.289352 0.289352 0.144676 0.144676 0.144676 0.0723379 0.289352 0.289352 0.289352 0.144676 0.144676 0.144676 0.0723379 0.289352 0.289352 0.289352 0.144676 0.144676 0.144676 0.0723379 0.289352 0.289352 0.289352 0.144676 0.144676 0.144676 0.0723379 0.289352 0.289352 0.289352 0.144676 0.144676 0.144676 0.0723379 0.289352 0.289352 0.289352 0.144676 0.144676 0.144676 0.0723379 0.289352 0.289352 0.289352 0.144676 0.144676 0.144676 0.0723379 0.289352 0.289352 0.289352 0.144676 0.144676 0.144676 0.0723379 0.289352 0.289352 0.289351 0.144676 0.144676 0.144676 0.0723379 0.289352 0.289352 0.289352 0.144676 0.144676 0.144676 0.0723379 0.289352 0.289352 0.289352 0.144676 0.144676 0.144676 0.0723379 0.289352 0.289352 0.289352 0.144676 0.144676 0.144676 0.0723379 0.289352 0.289351 0.289352 0.144676 0.144676 0.144676 0.0723379 0.289352 0.289352 0.289351 0.144676 0.144676 0.144676 0.0723379 0.289352 0.289352 0.289352 0.144676 0.144676 0.144676 0.0723379 0.289352 0.289352 0.289352 0.144676 0.144676 0.144676 0.0723379 0.289352 0.289352 0.289352 0.144676 0.144676 0.144676 0.0723379 0.144676 0.144676 0.289352 0.0723379 0.144676 0.144676 0.0723379 0.289352 0.144676 0.144676 0.144676 0.0723379 0.144676 0.144676 0.0723379 0.0723379 0.0723379 0.289352 0.144676 0.144676 0.144676 0.144676 0.0723379 0.0723379 0.289352 0.144676 0.144676 0.144676 0.144676 0.0723379 0.0723379 0.289352 0.144676 0.144676 0.144676 0.144676 0.0723379 0.0723379 0.289352 0.144676 0.144676 0.144676 0.144676 0.0723379 0.0723379 0.289352 0.144676 0.144676 0.144676 0.144676 0.0723379 0.0723379 0.289352 0.144676 0.144676 0.144676 0.144676 0.0723379 0.0723379 0.289352 0.144676 0.144676 0.144676 0.144676 0.0723379 0.0723379 0.289352 0.144676 0.144676 0.144676 0.144676 0.0723379 0.0723379 0.289352 0.144676 0.144676 0.144676 0.144676 0.0723379 0.0723379 0.289352 0.144676 0.144676 0.144676 0.144676 0.0723379 0.0723379 0.289352 0.144676 0.144676 0.144676 0.144676 0.0723379 0.0723379 0.289352 0.144676 0.144676 0.144676 0.144676 0.0723379 0.0723379 0.289352 0.144676 0.144676 0.144676 0.144676 0.0723379 0.0723379 0.289352 0.144676 0.144676 0.144676 0.144676 0.0723379 0.0723379 0.289352 0.144676 0.144676 0.144676 0.144676 0.0723379 0.0723379 0.289352 0.144676 0.144676 0.144676 0.144676 0.0723379 0.0723379 0.289351 0.144676 0.144676 0.144676 0.144676 0.0723379 0.0723379 0.289351 0.144676 0.144676 0.144676 0.144676 0.0723379 0.0723379 0.289352 0.144676 0.144676 0.144676 0.144676 0.0723379 0.0723379 0.289352 0.144676 0.144676 0.144676 0.144676 0.0723379 0.0723379 0.289352 0.144676 0.144676 0.144676 0.144676 0.0723379 0.0723379 0.289352 0.144676 0.144676 0.144676 0.144676 0.0723379 0.0723379 0.144676 0.0723379 0.144676 0.0723379 0.144676 0.0723379 0.0723379 0.144676 0.144676 0.0723379 0.289352 0.144676 0.289352 0.289352 0.144676 0.0723379 0.144676 0.144676 0.0723379 0.144676 0.0723379 0.144676 0.144676 0.289352 0.289352 0.289352 0.0723379 0.144676 0.144676 0.144676 0.0723379 0.144676 0.144676 0.289352 0.289352 0.289352 0.0723379 0.144676 0.144676 0.144676 0.0723379 0.144676 0.144676 0.289352 0.289352 0.289352 0.0723379 0.144676 0.144676 0.144676 0.0723379 0.144676 0.144676 0.289352 0.289352 0.289352 0.0723379 0.144676 0.144676 0.144676 0.0723379 0.144676 0.144676 0.289352 0.289352 0.289352 0.0723379 0.144676 0.144676 0.144676 0.0723379 0.144676 0.144676 0.289352 0.289352 0.289352 0.0723379 0.144676 0.144676 0.144676 0.0723379 0.144676 0.144676 0.289352 0.289352 0.289352 0.0723379 0.144676 0.144676 0.144676 0.0723379 0.144676 0.144676 0.289352 0.289352 0.289352 0.0723379 0.144676 0.144676 0.144676 0.0723379 0.144676 0.144676 0.289352 0.289352 0.289352 0.0723379 0.144676 0.144676 0.144676 0.0723379 0.144676 0.144676 0.289352 0.289352 0.289352 0.0723379 0.144676 0.144676 0.144676 0.0723379 0.144676 0.144676 0.289352 0.289352 0.289352 0.0723379 0.144676 0.144676 0.144676 0.0723379 0.144676 0.144676 0.289352 0.289352 0.289352 0.0723379 0.144676 0.144676 0.144676 0.0723379 0.144676 0.144676 0.289352 0.289352 0.289352 0.0723379 0.144676 0.144676 0.144676 0.0723379 0.144676 0.144676 0.289352 0.289352 0.289352 0.0723379 0.144676 0.144676 0.144676 0.0723379 0.144676 0.144676 0.289352 0.289352 0.289352 0.0723379 0.144676 0.144676 0.144676 0.0723379 0.144676 0.144676 0.289352 0.289352 0.289352 0.0723379 0.144676 0.144676 0.144676 0.0723379 0.144676 0.144676 0.289352 0.289352 0.289352 0.0723379 0.144676 0.144676 0.144676 0.0723379 0.144676 0.144676 0.289352 0.289351 0.289352 0.0723379 0.144676 0.144676 0.144676 0.0723379 0.144676 0.144676 0.289352 0.289352 0.289352 0.0723379 0.144676 0.144676 0.144676 0.0723379 0.144676 0.144676 0.289352 0.289352 0.289352 0.0723379 0.144676 0.144676 0.144676 0.0723379 0.144676 0.144676 0.289352 0.289352 0.289352 0.0723379 0.144676 0.144676 0.144676 0.0723379 0.144676 0.144676 0.289352 0.289352 0.289352 0.0723379 0.144676 0.144676 0.144676 0.0723379 0.0723379 0.144676 0.144676 0.144676 0.289352 0.0723379 0.0723379 0.144676 0.144676 0.0723379 0.289352 0.144676 0.289352 0.289352 0.144676 0.144676 0.144676 0.0723379 0.144676 0.0723379 0.289352 0.289352 0.289352 0.144676 0.144676 0.144676 0.0723379 0.289352 0.289352 0.289352 0.144676 0.144676 0.144676 0.0723379 0.289352 0.289352 0.289352 0.144676 0.144676 0.144676 0.0723379 0.289352 0.289352 0.289352 0.144676 0.144676 0.144676 0.0723379 0.289352 0.289352 0.289352 0.144676 0.144676 0.144676 0.0723379 0.289352 0.289352 0.289352 0.144676 0.144676 0.144676 0.0723379 0.289352 0.289352 0.289352 0.144676 0.144676 0.144676 0.0723379 0.289352 0.289352 0.289352 0.144676 0.144676 0.144676 0.0723379 0.289352 0.289352 0.289352 0.144676 0.144676 0.144676 0.0723379 0.289352 0.289352 0.289352 0.144676 0.144676 0.144676 0.0723379 0.289352 0.289352 0.289352 0.144676 0.144676 0.144676 0.0723379 0.289352 0.289352 0.289352 0.144676 0.144676 0.144676 0.0723379 0.289352 0.289352 0.289352 0.144676 0.144676 0.144676 0.0723379 0.289352 0.289352 0.289352 0.144676 0.144676 0.144676 0.0723379 0.289352 0.289352 0.289352 0.144676 0.144676 0.144676 0.0723379 0.289352 0.289352 0.289352 0.144676 0.144676 0.144676 0.0723379 0.289352 0.289352 0.289352 0.144676 0.144676 0.144676 0.0723379 0.289352 0.289351 0.289352 0.144676 0.144676 0.144676 0.0723379 0.289352 0.289352 0.289352 0.144676 0.144676 0.144676 0.0723379 0.289352 0.289352 0.289352 0.144676 0.144676 0.144676 0.0723379 0.289352 0.289352 0.289352 0.144676 0.144676 0.144676 0.0723379 0.289352 0.289352 0.289352 0.144676 0.144676 0.144676 0.0723379 0.144676 0.144676 0.289352 0.0723379 0.144676 0.144676 0.0723379 0.289352 0.144676 0.289352 0.289352 0.144676 0.144676 0.144676 0.0723379 0.144676 0.0723379 0.289352 0.289352 0.289352 0.144676 0.144676 0.144676 0.0723379 0.289352 0.289352 0.289352 0.144676 0.144676 0.144676 0.0723379 0.289352 0.289352 0.289352 0.144676 0.144676 0.144676 0.0723379 0.289352 0.289352 0.289352 0.144676 0.144676 0.144676 0.0723379 0.289352 0.289352 0.289352 0.144676 0.144676 0.144676 0.0723379 0.289352 0.289352 0.289352 0.144676 0.144676 0.144676 0.0723379 0.289352 0.289352 0.289352 0.144676 0.144676 0.144676 0.0723379 0.289352 0.289352 0.289352 0.144676 0.144676 0.144676 0.0723379 0.289352 0.289352 0.289352 0.144676 0.144676 0.144676 0.0723379 0.289352 0.289352 0.289352 0.144676 0.144676 0.144676 0.0723379 0.289352 0.289352 0.289352 0.144676 0.144676 0.144676 0.0723379 0.289352 0.289352 0.289352 0.144676 0.144676 0.144676 0.0723379 0.289352 0.289352 0.289352 0.144676 0.144676 0.144676 0.0723379 0.289352 0.289352 0.289352 0.144676 0.144676 0.144676 0.0723379 0.289352 0.289352 0.289352 0.144676 0.144676 0.144676 0.0723379 0.289352 0.289352 0.289352 0.144676 0.144676 0.144676 0.0723379 0.289352 0.289352 0.289352 0.144676 0.144676 0.144676 0.0723379 0.289352 0.289351 0.289352 0.144676 0.144676 0.144676 0.0723379 0.289352 0.289352 0.289352 0.144676 0.144676 0.144676 0.0723379 0.289352 0.289352 0.289352 0.144676 0.144676 0.144676 0.0723379 0.289352 0.289352 0.289352 0.144676 0.144676 0.144676 0.0723379 0.289352 0.289352 0.289352 0.144676 0.144676 0.144676 0.0723379 0.144676 0.144676 0.289352 0.0723379 0.144676 0.144676 0.0723379 0.289352 0.144676 0.289352 0.289352 0.144676 0.144676 0.144676 0.0723379 0.144676 0.0723379 0.289352 0.289352 0.289352 0.144676 0.144676 0.144676 0.0723379 0.289352 0.289352 0.289352 0.144676 0.144676 0.144676 0.0723379 0.289352 0.289352 0.289352 0.144676 0.144676 0.144676 0.0723379 0.289352 0.289352 0.289352 0.144676 0.144676 0.144676 0.0723379 0.289352 0.289352 0.289352 0.144676 0.144676 0.144676 0.0723379 0.289352 0.289352 0.289352 0.144676 0.144676 0.144676 0.0723379 0.289352 0.289352 0.289352 0.144676 0.144676 0.144676 0.0723379 0.289352 0.289352 0.289352 0.144676 0.144676 0.144676 0.0723379 0.289352 0.289352 0.289352 0.144676 0.144676 0.144676 0.0723379 0.289352 0.289352 0.289352 0.144676 0.144676 0.144676 0.0723379 0.289352 0.289352 0.289352 0.144676 0.144676 0.144676 0.0723379 0.289352 0.289352 0.289352 0.144676 0.144676 0.144676 0.0723379 0.289352 0.289352 0.289352 0.144676 0.144676 0.144676 0.0723379 0.289352 0.289352 0.289352 0.144676 0.144676 0.144676 0.0723379 0.289352 0.289352 0.289352 0.144676 0.144676 0.144676 0.0723379 0.289352 0.289352 0.289352 0.144676 0.144676 0.144676 0.0723379 0.289352 0.289352 0.289352 0.144676 0.144676 0.144676 0.0723379 0.289352 0.289351 0.289352 0.144676 0.144676 0.144676 0.0723379 0.289352 0.289352 0.289352 0.144676 0.144676 0.144676 0.0723379 0.289352 0.289352 0.289352 0.144676 0.144676 0.144676 0.0723379 0.289352 0.289352 0.289352 0.144676 0.144676 0.144676 0.0723379 0.289352 0.289352 0.289352 0.144676 0.144676 0.144676 0.0723379 0.144676 0.144676 0.289352 0.0723379 0.144676 0.144676 0.0723379 0.289352 0.144676 0.289352 0.289352 0.144676 0.144676 0.144676 0.0723379 0.144676 0.0723379 0.289352 0.289352 0.289352 0.144676 0.144676 0.144676 0.0723379 0.289352 0.289352 0.289352 0.144676 0.144676 0.144676 0.0723379 0.289352 0.289352 0.289352 0.144676 0.144676 0.144676 0.0723379 0.289352 0.289352 0.289352 0.144676 0.144676 0.144676 0.0723379 0.289352 0.289352 0.289352 0.144676 0.144676 0.144676 0.0723379 0.289352 0.289352 0.289352 0.144676 0.144676 0.144676 0.0723379 0.289352 0.289352 0.289352 0.144676 0.144676 0.144676 0.0723379 0.289352 0.289352 0.289352 0.144676 0.144676 0.144676 0.0723379 0.289352 0.289352 0.289352 0.144676 0.144676 0.144676 0.0723379 0.289352 0.289352 0.289352 0.144676 0.144676 0.144676 0.0723379 0.289352 0.289352 0.289352 0.144676 0.144676 0.144676 0.0723379 0.289352 0.289352 0.289352 0.144676 0.144676 0.144676 0.0723379 0.289352 0.289352 0.289352 0.144676 0.144676 0.144676 0.0723379 0.289352 0.289352 0.289352 0.144676 0.144676 0.144676 0.0723379 0.289352 0.289352 0.289352 0.144676 0.144676 0.144676 0.0723379 0.289352 0.289352 0.289352 0.144676 0.144676 0.144676 0.0723379 0.289352 0.289352 0.289352 0.144676 0.144676 0.144676 0.0723379 0.289352 0.289351 0.289352 0.144676 0.144676 0.144676 0.0723379 0.289352 0.289352 0.289352 0.144676 0.144676 0.144676 0.0723379 0.289352 0.289352 0.289352 0.144676 0.144676 0.144676 0.0723379 0.289352 0.289352 0.289352 0.144676 0.144676 0.144676 0.0723379 0.289352 0.289352 0.289352 0.144676 0.144676 0.144676 0.0723379 0.144676 0.144676 0.289352 0.0723379 0.144676 0.144676 0.0723379 0.289352 0.144676 0.289352 0.289352 0.144676 0.144676 0.144676 0.0723379 0.144676 0.0723379 0.289352 0.289352 0.289352 0.144676 0.144676 0.144676 0.0723379 0.289352 0.289352 0.289352 0.144676 0.144676 0.144676 0.0723379 0.289352 0.289352 0.289352 0.144676 0.144676 0.144676 0.0723379 0.289352 0.289352 0.289352 0.144676 0.144676 0.144676 0.0723379 0.289352 0.289352 0.289352 0.144676 0.144676 0.144676 0.0723379 0.289352 0.289352 0.289352 0.144676 0.144676 0.144676 0.0723379 0.289352 0.289352 0.289352 0.144676 0.144676 0.144676 0.0723379 0.289352 0.289352 0.289352 0.144676 0.144676 0.144676 0.0723379 0.289352 0.289352 0.289352 0.144676 0.144676 0.144676 0.0723379 0.289352 0.289352 0.289352 0.144676 0.144676 0.144676 0.0723379 0.289352 0.289352 0.289352 0.144676 0.144676 0.144676 0.0723379 0.289352 0.289352 0.289352 0.144676 0.144676 0.144676 0.0723379 0.289352 0.289352 0.289352 0.144676 0.144676 0.144676 0.0723379 0.289352 0.289352 0.289352 0.144676 0.144676 0.144676 0.0723379 0.289352 0.289352 0.289352 0.144676 0.144676 0.144676 0.0723379 0.289352 0.289352 0.289352 0.144676 0.144676 0.144676 0.0723379 0.289352 0.289352 0.289352 0.144676 0.144676 0.144676 0.0723379 0.289352 0.289351 0.289352 0.144676 0.144676 0.144676 0.0723379 0.289352 0.289352 0.289352 0.144676 0.144676 0.144676 0.0723379 0.289352 0.289352 0.289352 0.144676 0.144676 0.144676 0.0723379 0.289352 0.289352 0.289352 0.144676 0.144676 0.144676 0.0723379 0.289352 0.289352 0.289352 0.144676 0.144676 0.144676 0.0723379 0.144676 0.144676 0.289352 0.0723379 0.144676 0.144676 0.0723379 0.289352 0.144676 0.289352 0.289352 0.144676 0.144676 0.144676 0.0723379 0.144676 0.0723379 0.289352 0.289352 0.289352 0.144676 0.144676 0.144676 0.0723379 0.289352 0.289352 0.289352 0.144676 0.144676 0.144676 0.0723379 0.289352 0.289352 0.289352 0.144676 0.144676 0.144676 0.0723379 0.289352 0.289352 0.289352 0.144676 0.144676 0.144676 0.0723379 0.289352 0.289352 0.289352 0.144676 0.144676 0.144676 0.0723379 0.289352 0.289352 0.289352 0.144676 0.144676 0.144676 0.0723379 0.289352 0.289352 0.289352 0.144676 0.144676 0.144676 0.0723379 0.289352 0.289352 0.289352 0.144676 0.144676 0.144676 0.0723379 0.289352 0.289352 0.289352 0.144676 0.144676 0.144676 0.0723379 0.289352 0.289352 0.289352 0.144676 0.144676 0.144676 0.0723379 0.289352 0.289352 0.289352 0.144676 0.144676 0.144676 0.0723379 0.289352 0.289352 0.289352 0.144676 0.144676 0.144676 0.0723379 0.289352 0.289352 0.289352 0.144676 0.144676 0.144676 0.0723379 0.289352 0.289352 0.289352 0.144676 0.144676 0.144676 0.0723379 0.289352 0.289352 0.289352 0.144676 0.144676 0.144676 0.0723379 0.289352 0.289352 0.289352 0.144676 0.144676 0.144676 0.0723379 0.289352 0.289352 0.289352 0.144676 0.144676 0.144676 0.0723379 0.289352 0.289351 0.289352 0.144676 0.144676 0.144676 0.0723379 0.289352 0.289352 0.289352 0.144676 0.144676 0.144676 0.0723379 0.289352 0.289352 0.289352 0.144676 0.144676 0.144676 0.0723379 0.289352 0.289352 0.289352 0.144676 0.144676 0.144676 0.0723379 0.289352 0.289352 0.289352 0.144676 0.144676 0.144676 0.0723379 0.144676 0.144676 0.289352 0.0723379 0.144676 0.144676 0.0723379 0.289352 0.144676 0.144676 0.144676 0.0723379 0.144676 0.144676 0.0723379 0.0723379 0.0723379 0.289352 0.144676 0.144676 0.144676 0.144676 0.0723379 0.0723379 0.289352 0.144676 0.144676 0.144676 0.144676 0.0723379 0.0723379 0.289352 0.144676 0.144676 0.144676 0.144676 0.0723379 0.0723379 0.289352 0.144676 0.144676 0.144676 0.144676 0.0723379 0.0723379 0.289352 0.144676 0.144676 0.144676 0.144676 0.0723379 0.0723379 0.289352 0.144676 0.144676 0.144676 0.144676 0.0723379 0.0723379 0.289352 0.144676 0.144676 0.144676 0.144676 0.0723379 0.0723379 0.289352 0.144676 0.144676 0.144676 0.144676 0.0723379 0.0723379 0.289352 0.144676 0.144676 0.144676 0.144676 0.0723379 0.0723379 0.289352 0.144676 0.144676 0.144676 0.144676 0.0723379 0.0723379 0.289352 0.144676 0.144676 0.144676 0.144676 0.0723379 0.0723379 0.289352 0.144676 0.144676 0.144676 0.144676 0.0723379 0.0723379 0.289352 0.144676 0.144676 0.144676 0.144676 0.0723379 0.0723379 0.289352 0.144676 0.144676 0.144676 0.144676 0.0723379 0.0723379 0.289352 0.144676 0.144676 0.144676 0.144676 0.0723379 0.0723379 0.289352 0.144676 0.144676 0.144676 0.144676 0.0723379 0.0723379 0.289352 0.144676 0.144676 0.144676 0.144676 0.0723379 0.0723379 0.289352 0.144676 0.144676 0.144676 0.144676 0.0723379 0.0723379 0.289352 0.144676 0.144676 0.144676 0.144676 0.0723379 0.0723379 0.289352 0.144676 0.144676 0.144676 0.144676 0.0723379 0.0723379 0.289352 0.144676 0.144676 0.144676 0.144676 0.0723379 0.0723379 0.289352 0.144676 0.144676 0.144676 0.144676 0.0723379 0.0723379 0.144676 0.0723379 0.144676 0.0723379 0.144676 0.0723379 0.0723379 0.144676 0.144676 0.0723381 0.289352 0.144676 0.289352 0.289352 0.144676 0.0723381 0.144676 0.144676 0.0723381 0.144676 0.0723381 0.144676 0.144676 0.289352 0.289352 0.289352 0.0723381 0.144676 0.144676 0.144676 0.0723381 0.144676 0.144676 0.289352 0.289352 0.289352 0.0723381 0.144676 0.144676 0.144676 0.0723381 0.144676 0.144676 0.289352 0.289352 0.289352 0.072338 0.144676 0.144676 0.144676 0.072338 0.144676 0.144676 0.289352 0.289352 0.289352 0.072338 0.144676 0.144676 0.144676 0.072338 0.144676 0.144676 0.289352 0.289352 0.289352 0.0723381 0.144676 0.144676 0.144676 0.0723381 0.144676 0.144676 0.289352 0.289352 0.289352 0.0723381 0.144676 0.144676 0.144676 0.0723381 0.144676 0.144676 0.289352 0.289352 0.289352 0.0723381 0.144676 0.144676 0.144676 0.0723381 0.144676 0.144676 0.289352 0.289352 0.289352 0.0723381 0.144676 0.144676 0.144676 0.0723381 0.144676 0.144676 0.289352 0.289352 0.289352 0.072338 0.144676 0.144676 0.144676 0.072338 0.144676 0.144676 0.289352 0.289352 0.289352 0.072338 0.144676 0.144676 0.144676 0.072338 0.144676 0.144676 0.289352 0.289352 0.289352 0.0723381 0.144676 0.144676 0.144676 0.0723381 0.144676 0.144676 0.289352 0.289352 0.289352 0.072338 0.144676 0.144676 0.144676 0.072338 0.144676 0.144676 0.289352 0.289352 0.289352 0.0723381 0.144676 0.144676 0.144676 0.0723381 0.144676 0.144676 0.289352 0.289352 0.289352 0.072338 0.144676 0.144676 0.144676 0.072338 0.144676 0.144676 0.289352 0.289352 0.289352 0.0723381 0.144676 0.144676 0.144676 0.0723381 0.144676 0.144676 0.289352 0.289352 0.289352 0.0723381 0.144676 0.144676 0.144676 0.0723381 0.144676 0.144676 0.289352 0.289352 0.289352 0.072338 0.144676 0.144676 0.144676 0.072338 0.144676 0.144676 0.289352 0.289352 0.289352 0.072338 0.144676 0.144676 0.144676 0.072338 0.144676 0.144676 0.289352 0.289352 0.289352 0.072338 0.144676 0.144676 0.144676 0.072338 0.144676 0.144676 0.289352 0.289352 0.289352 0.0723381 0.144676 0.144676 0.144676 0.0723381 0.144676 0.144676 0.289352 0.289352 0.289352 0.072338 0.144676 0.144676 0.144676 0.072338 0.144676 0.144676 0.289352 0.289352 0.289352 0.072338 0.144676 0.144676 0.144676 0.072338 0.0723381 0.144676 0.144676 0.144676 0.289352 0.0723381 0.0723381 0.144676 0.144676 0.0723381 0.289352 0.144676 0.289352 0.289352 0.144676 0.144676 0.144676 0.0723381 0.144676 0.0723381 0.289352 0.289352 0.289352 0.144676 0.144676 0.144676 0.0723381 0.289352 0.289352 0.289352 0.144676 0.144676 0.144676 0.0723381 0.289352 0.289352 0.289352 0.144676 0.144676 0.144676 0.072338 0.289352 0.289352 0.289352 0.144676 0.144676 0.144676 0.072338 0.289352 0.289352 0.289352 0.144676 0.144676 0.144676 0.0723381 0.289352 0.289352 0.289352 0.144676 0.144676 0.144676 0.0723381 0.289352 0.289352 0.289352 0.144676 0.144676 0.144676 0.072338 0.289352 0.289352 0.289352 0.144676 0.144676 0.144676 0.0723381 0.289352 0.289352 0.289352 0.144676 0.144676 0.144676 0.072338 0.289352 0.289352 0.289352 0.144676 0.144676 0.144676 0.072338 0.289352 0.289352 0.289352 0.144676 0.144676 0.144676 0.072338 0.289352 0.289352 0.289352 0.144676 0.144676 0.144676 0.072338 0.289352 0.289352 0.289352 0.144676 0.144676 0.144676 0.0723381 0.289352 0.289352 0.289352 0.144676 0.144676 0.144676 0.072338 0.289352 0.289352 0.289352 0.144676 0.144676 0.144676 0.0723381 0.289352 0.289352 0.289352 0.144676 0.144676 0.144676 0.072338 0.289352 0.289352 0.289352 0.144676 0.144676 0.144676 0.072338 0.289352 0.289352 0.289352 0.144676 0.144676 0.144676 0.072338 0.289352 0.289352 0.289352 0.144676 0.144676 0.144676 0.072338 0.289352 0.289352 0.289352 0.144676 0.144676 0.144676 0.0723381 0.289352 0.289352 0.289352 0.144676 0.144676 0.144676 0.072338 0.289352 0.289352 0.289352 0.144676 0.144676 0.144676 0.072338 0.144676 0.144676 0.289352 0.0723381 0.144676 0.144676 0.0723381 0.289352 0.144676 0.289352 0.289352 0.144676 0.144676 0.144676 0.0723381 0.144676 0.0723381 0.289352 0.289352 0.289352 0.144676 0.144676 0.144676 0.0723381 0.289352 0.289352 0.289352 0.144676 0.144676 0.144676 0.0723381 0.289352 0.289352 0.289352 0.144676 0.144676 0.144676 0.072338 0.289352 0.289352 0.289352 0.144676 0.144676 0.144676 0.0723381 0.289352 0.289352 0.289352 0.144676 0.144676 0.144676 0.0723381 0.289352 0.289352 0.289352 0.144676 0.144676 0.144676 0.0723381 0.289352 0.289352 0.289352 0.144676 0.144676 0.144676 0.072338 0.289352 0.289352 0.289352 0.144676 0.144676 0.144676 0.0723381 0.289352 0.289352 0.289352 0.144676 0.144676 0.144676 0.072338 0.289352 0.289352 0.289352 0.144676 0.144676 0.144676 0.072338 0.289352 0.289352 0.289352 0.144676 0.144676 0.144676 0.072338 0.289352 0.289352 0.289352 0.144676 0.144676 0.144676 0.072338 0.289352 0.289352 0.289352 0.144676 0.144676 0.144676 0.0723381 0.289352 0.289352 0.289352 0.144676 0.144676 0.144676 0.072338 0.289352 0.289352 0.289352 0.144676 0.144676 0.144676 0.0723381 0.289352 0.289352 0.289352 0.144676 0.144676 0.144676 0.072338 0.289352 0.289352 0.289352 0.144676 0.144676 0.144676 0.072338 0.289352 0.289352 0.289352 0.144676 0.144676 0.144676 0.072338 0.289352 0.289352 0.289352 0.144676 0.144676 0.144676 0.072338 0.289352 0.289352 0.289352 0.144676 0.144676 0.144676 0.0723381 0.289352 0.289352 0.289352 0.144676 0.144676 0.144676 0.072338 0.289352 0.289352 0.289352 0.144676 0.144676 0.144676 0.072338 0.144676 0.144676 0.289352 0.0723381 0.144676 0.144676 0.0723381 0.289352 0.144676 0.289352 0.289352 0.144676 0.144676 0.144676 0.072338 0.144676 0.072338 0.289352 0.289352 0.289352 0.144676 0.144676 0.144676 0.0723381 0.289352 0.289352 0.289352 0.144676 0.144676 0.144676 0.0723381 0.289352 0.289352 0.289352 0.144676 0.144676 0.144676 0.072338 0.289352 0.289352 0.289352 0.144676 0.144676 0.144676 0.072338 0.289352 0.289352 0.289352 0.144676 0.144676 0.144676 0.072338 0.289352 0.289352 0.289352 0.144676 0.144676 0.144676 0.072338 0.289352 0.289352 0.289352 0.144676 0.144676 0.144676 0.072338 0.289352 0.289352 0.289352 0.144676 0.144676 0.144676 0.072338 0.289352 0.289352 0.289352 0.144676 0.144676 0.144676 0.072338 0.289352 0.289352 0.289352 0.144676 0.144676 0.144676 0.072338 0.289352 0.289352 0.289352 0.144676 0.144676 0.144676 0.072338 0.289352 0.289352 0.289352 0.144676 0.144676 0.144676 0.072338 0.289352 0.289352 0.289352 0.144676 0.144676 0.144676 0.0723381 0.289352 0.289352 0.289352 0.144676 0.144676 0.144676 0.072338 0.289352 0.289352 0.289352 0.144676 0.144676 0.144676 0.0723381 0.289352 0.289352 0.289352 0.144676 0.144676 0.144676 0.072338 0.289352 0.289352 0.289352 0.144676 0.144676 0.144676 0.072338 0.289352 0.289352 0.289352 0.144676 0.144676 0.144676 0.072338 0.289352 0.289352 0.289352 0.144676 0.144676 0.144676 0.072338 0.289352 0.289352 0.289352 0.144676 0.144676 0.144676 0.0723381 0.289352 0.289352 0.289352 0.144676 0.144676 0.144676 0.072338 0.289352 0.289352 0.289352 0.144676 0.144676 0.144676 0.072338 0.144676 0.144676 0.289352 0.0723381 0.144676 0.144676 0.0723381 0.289352 0.144676 0.289352 0.289352 0.144676 0.144676 0.144676 0.072338 0.144676 0.072338 0.289352 0.289352 0.289352 0.144676 0.144676 0.144676 0.072338 0.289352 0.289352 0.289352 0.144676 0.144676 0.144676 0.0723381 0.289352 0.289352 0.289352 0.144676 0.144676 0.144676 0.072338 0.289352 0.289352 0.289352 0.144676 0.144676 0.144676 0.072338 0.289352 0.289352 0.289352 0.144676 0.144676 0.144676 0.072338 0.289352 0.289352 0.289352 0.144676 0.144676 0.144676 0.072338 0.289352 0.289352 0.289352 0.144676 0.144676 0.144676 0.072338 0.289352 0.289352 0.289352 0.144676 0.144676 0.144676 0.072338 0.289352 0.289352 0.289352 0.144676 0.144676 0.144676 0.072338 0.289352 0.289352 0.289352 0.144676 0.144676 0.144676 0.072338 0.289352 0.289352 0.289352 0.144676 0.144676 0.144676 0.072338 0.289352 0.289352 0.289352 0.144676 0.144676 0.144676 0.072338 0.289352 0.289352 0.289352 0.144676 0.144676 0.144676 0.0723381 0.289352 0.289352 0.289352 0.144676 0.144676 0.144676 0.072338 0.289352 0.289352 0.289352 0.144676 0.144676 0.144676 0.0723381 0.289352 0.289352 0.289352 0.144676 0.144676 0.144676 0.072338 0.289352 0.289352 0.289352 0.144676 0.144676 0.144676 0.072338 0.289352 0.289352 0.289352 0.144676 0.144676 0.144676 0.072338 0.289352 0.289352 0.289352 0.144676 0.144676 0.144676 0.072338 0.289352 0.289352 0.289352 0.144676 0.144676 0.144676 0.0723381 0.289352 0.289352 0.289352 0.144676 0.144676 0.144676 0.072338 0.289352 0.289352 0.289352 0.144676 0.144676 0.144676 0.072338 0.144676 0.144676 0.289352 0.0723381 0.144676 0.144676 0.0723381 0.289352 0.144676 0.289352 0.289352 0.144676 0.144676 0.144676 0.0723381 0.144676 0.0723381 0.289352 0.289352 0.289352 0.144676 0.144676 0.144676 0.0723381 0.289352 0.289352 0.289352 0.144676 0.144676 0.144676 0.0723381 0.289352 0.289352 0.289352 0.144676 0.144676 0.144676 0.072338 0.289352 0.289352 0.289352 0.144676 0.144676 0.144676 0.072338 0.289352 0.289352 0.289352 0.144676 0.144676 0.144676 0.0723381 0.289352 0.289352 0.289352 0.144676 0.144676 0.144676 0.0723381 0.289352 0.289352 0.289352 0.144676 0.144676 0.144676 0.072338 0.289352 0.289352 0.289352 0.144676 0.144676 0.144676 0.0723381 0.289352 0.289352 0.289352 0.144676 0.144676 0.144676 0.072338 0.289352 0.289352 0.289352 0.144676 0.144676 0.144676 0.072338 0.289352 0.289352 0.289352 0.144676 0.144676 0.144676 0.072338 0.289352 0.289352 0.289352 0.144676 0.144676 0.144676 0.072338 0.289352 0.289352 0.289352 0.144676 0.144676 0.144676 0.0723381 0.289352 0.289352 0.289352 0.144676 0.144676 0.144676 0.072338 0.289352 0.289352 0.289352 0.144676 0.144676 0.144676 0.0723381 0.289352 0.289352 0.289352 0.144676 0.144676 0.144676 0.072338 0.289352 0.289352 0.289352 0.144676 0.144676 0.144676 0.072338 0.289352 0.289352 0.289352 0.144676 0.144676 0.144676 0.072338 0.289352 0.289352 0.289352 0.144676 0.144676 0.144676 0.072338 0.289352 0.289352 0.289352 0.144676 0.144676 0.144676 0.0723381 0.289352 0.289352 0.289352 0.144676 0.144676 0.144676 0.072338 0.289352 0.289352 0.289352 0.144676 0.144676 0.144676 0.072338 0.144676 0.144676 0.289352 0.0723381 0.144676 0.144676 0.0723381 0.289352 0.144676 0.289352 0.289352 0.144676 0.144676 0.144676 0.0723381 0.144676 0.0723381 0.289352 0.289352 0.289352 0.144676 0.144676 0.144676 0.0723381 0.289352 0.289352 0.289352 0.144676 0.144676 0.144676 0.0723381 0.289352 0.289352 0.289352 0.144676 0.144676 0.144676 0.072338 0.289352 0.289352 0.289352 0.144676 0.144676 0.144676 0.072338 0.289352 0.289352 0.289352 0.144676 0.144676 0.144676 0.0723381 0.289352 0.289352 0.289352 0.144676 0.144676 0.144676 0.0723381 0.289352 0.289352 0.289352 0.144676 0.144676 0.144676 0.072338 0.289352 0.289352 0.289352 0.144676 0.144676 0.144676 0.0723381 0.289352 0.289352 0.289352 0.144676 0.144676 0.144676 0.072338 0.289352 0.289352 0.289352 0.144676 0.144676 0.144676 0.072338 0.289352 0.289352 0.289352 0.144676 0.144676 0.144676 0.0723381 0.289352 0.289352 0.289352 0.144676 0.144676 0.144676 0.072338 0.289352 0.289352 0.289352 0.144676 0.144676 0.144676 0.0723381 0.289352 0.289352 0.289352 0.144676 0.144676 0.144676 0.072338 0.289352 0.289352 0.289352 0.144676 0.144676 0.144676 0.0723381 0.289352 0.289352 0.289352 0.144676 0.144676 0.144676 0.0723381 0.289352 0.289352 0.289352 0.144676 0.144676 0.144676 0.072338 0.289352 0.289352 0.289352 0.144676 0.144676 0.144676 0.072338 0.289352 0.289352 0.289352 0.144676 0.144676 0.144676 0.072338 0.289352 0.289352 0.289352 0.144676 0.144676 0.144676 0.0723381 0.289352 0.289352 0.289352 0.144676 0.144676 0.144676 0.072338 0.289352 0.289352 0.289352 0.144676 0.144676 0.144676 0.072338 0.144676 0.144676 0.289352 0.0723381 0.144676 0.144676 0.0723381 0.289352 0.144676 0.144676 0.144676 0.072338 0.144676 0.144676 0.072338 0.072338 0.072338 0.289352 0.144676 0.144676 0.144676 0.144676 0.072338 0.072338 0.289352 0.144676 0.144676 0.144676 0.144676 0.072338 0.072338 0.289352 0.144676 0.144676 0.144676 0.144676 0.072338 0.072338 0.289352 0.144676 0.144676 0.144676 0.144676 0.072338 0.072338 0.289352 0.144676 0.144676 0.144676 0.144676 0.072338 0.072338 0.289352 0.144676 0.144676 0.144676 0.144676 0.072338 0.072338 0.289352 0.144676 0.144676 0.144676 0.144676 0.072338 0.072338 0.289352 0.144676 0.144676 0.144676 0.144676 0.072338 0.072338 0.289352 0.144676 0.144676 0.144676 0.144676 0.072338 0.072338 0.289352 0.144676 0.144676 0.144676 0.144676 0.072338 0.072338 0.289352 0.144676 0.144676 0.144676 0.144676 0.072338 0.072338 0.289352 0.144676 0.144676 0.144676 0.144676 0.072338 0.072338 0.289352 0.144676 0.144676 0.144676 0.144676 0.0723381 0.0723381 0.289352 0.144676 0.144676 0.144676 0.144676 0.072338 0.072338 0.289352 0.144676 0.144676 0.144676 0.144676 0.072338 0.072338 0.289352 0.144676 0.144676 0.144676 0.144676 0.072338 0.072338 0.289352 0.144676 0.144676 0.144676 0.144676 0.072338 0.072338 0.289352 0.144676 0.144676 0.144676 0.144676 0.072338 0.072338 0.289352 0.144676 0.144676 0.144676 0.144676 0.072338 0.072338 0.289352 0.144676 0.144676 0.144676 0.144676 0.0723381 0.0723381 0.289352 0.144676 0.144676 0.144676 0.144676 0.072338 0.072338 0.289352 0.144676 0.144676 0.144676 0.144676 0.072338 0.072338 0.144676 0.0723381 0.144676 0.0723381 0.144676 0.0723381 0.0723381 0.144676 0.072338 0.072338 0.144676 0.072338 0.289352 0.144676 0.144676 0.072338 0.144676 0.072338 0.072338 0.144676 0.072338 0.144676 0.072338 0.144676 0.289352 0.144676 0.072338 0.144676 0.072338 0.144676 0.072338 0.144676 0.072338 0.144676 0.289352 0.144676 0.072338 0.144676 0.072338 0.144676 0.072338 0.144676 0.072338 0.144676 0.289352 0.144676 0.072338 0.144676 0.072338 0.144676 0.072338 0.144676 0.072338 0.144676 0.289352 0.144676 0.072338 0.144676 0.072338 0.144676 0.072338 0.144676 0.072338 0.144676 0.289352 0.144676 0.072338 0.144676 0.072338 0.144676 0.072338 0.144676 0.072338 0.144676 0.289352 0.144676 0.072338 0.144676 0.072338 0.144676 0.072338 0.144676 0.072338 0.144676 0.289352 0.144676 0.072338 0.144676 0.072338 0.144676 0.072338 0.144676 0.072338 0.144676 0.289352 0.144676 0.072338 0.144676 0.072338 0.144676 0.072338 0.144676 0.072338 0.144676 0.289352 0.144676 0.072338 0.144676 0.072338 0.144676 0.072338 0.144676 0.072338 0.144676 0.289352 0.144676 0.072338 0.144676 0.072338 0.144676 0.072338 0.144676 0.072338 0.144676 0.289352 0.144676 0.072338 0.144676 0.072338 0.144676 0.072338 0.144676 0.072338 0.144676 0.289352 0.144676 0.072338 0.144676 0.072338 0.144676 0.072338 0.144676 0.072338 0.144676 0.289352 0.144676 0.072338 0.144676 0.072338 0.144676 0.072338 0.144676 0.072338 0.144676 0.289352 0.144676 0.072338 0.144676 0.072338 0.144676 0.072338 0.144676 0.072338 0.144676 0.289352 0.144676 0.072338 0.144676 0.072338 0.144676 0.072338 0.144676 0.072338 0.144676 0.289352 0.144676 0.072338 0.144676 0.072338 0.144676 0.072338 0.144676 0.072338 0.144676 0.289352 0.144676 0.072338 0.144676 0.072338 0.144676 0.072338 0.144676 0.072338 0.144676 0.289352 0.144676 0.072338 0.144676 0.072338 0.144676 0.072338 0.144676 0.072338 0.144676 0.289352 0.144676 0.072338 0.144676 0.072338 0.144676 0.072338 0.144676 0.072338 0.144676 0.289352 0.144676 0.072338 0.144676 0.072338 0.144676 0.072338 0.144676 0.072338 0.144676 0.289352 0.144676 0.072338 0.144676 0.072338 0.144676 0.072338 0.144676 0.072338 0.144676 0.289352 0.144676 0.072338 0.144676 0.072338 0.144676 0.072338 0.072338 0.072338 0.072338 0.144676 0.144676 0.072338 0.072338 0.072338 0.144676 0.072338 0.144676 0.072338 0.289352 0.144676 0.144676 0.144676 0.072338 0.072338 0.144676 0.072338 0.144676 0.289352 0.144676 0.144676 0.072338 0.144676 0.072338 0.144676 0.289352 0.144676 0.144676 0.072338 0.144676 0.072338 0.144676 0.289352 0.144676 0.144676 0.072338 0.144676 0.072338 0.144676 0.289352 0.144676 0.144676 0.072338 0.144676 0.072338 0.144676 0.289352 0.144676 0.144676 0.072338 0.144676 0.072338 0.144676 0.289352 0.144676 0.144676 0.072338 0.144676 0.072338 0.144676 0.289352 0.144676 0.144676 0.072338 0.144676 0.072338 0.144676 0.289352 0.144676 0.144676 0.072338 0.144676 0.072338 0.144676 0.289352 0.144676 0.144676 0.072338 0.144676 0.072338 0.144676 0.289352 0.144676 0.144676 0.072338 0.144676 0.072338 0.144676 0.289352 0.144676 0.144676 0.072338 0.144676 0.072338 0.144676 0.289352 0.144676 0.144676 0.072338 0.144676 0.072338 0.144676 0.289352 0.144676 0.144676 0.072338 0.144676 0.072338 0.144676 0.289352 0.144676 0.144676 0.072338 0.144676 0.072338 0.144676 0.289352 0.144676 0.144676 0.072338 0.144676 0.072338 0.144676 0.289352 0.144676 0.144676 0.072338 0.144676 0.072338 0.144676 0.289352 0.144676 0.144676 0.072338 0.144676 0.072338 0.144676 0.289352 0.144676 0.144676 0.072338 0.144676 0.072338 0.144676 0.289352 0.144676 0.144676 0.072338 0.144676 0.072338 0.144676 0.289352 0.144676 0.144676 0.072338 0.144676 0.072338 0.144676 0.289352 0.144676 0.144676 0.072338 0.144676 0.072338 0.144676 0.289352 0.144676 0.144676 0.072338 0.144676 0.072338 0.072338 0.144676 0.144676 0.072338 0.072338 0.144676 0.072338 0.144676 0.072338 0.289352 0.144676 0.144676 0.144676 0.072338 0.072338 0.144676 0.072338 0.144676 0.289352 0.144676 0.144676 0.072338 0.144676 0.072338 0.144676 0.289352 0.144676 0.144676 0.072338 0.144676 0.072338 0.144676 0.289352 0.144676 0.144676 0.072338 0.144676 0.072338 0.144676 0.289352 0.144676 0.144676 0.072338 0.144676 0.072338 0.144676 0.289352 0.144676 0.144676 0.072338 0.144676 0.072338 0.144676 0.289352 0.144676 0.144676 0.072338 0.144676 0.072338 0.144676 0.289352 0.144676 0.144676 0.072338 0.144676 0.072338 0.144676 0.289352 0.144676 0.144676 0.072338 0.144676 0.072338 0.144676 0.289352 0.144676 0.144676 0.072338 0.144676 0.072338 0.144676 0.289352 0.144676 0.144676 0.072338 0.144676 0.072338 0.144676 0.289352 0.144676 0.144676 0.072338 0.144676 0.072338 0.144676 0.289352 0.144676 0.144676 0.072338 0.144676 0.072338 0.144676 0.289352 0.144676 0.144676 0.072338 0.144676 0.072338 0.144676 0.289352 0.144676 0.144676 0.072338 0.144676 0.072338 0.144676 0.289352 0.144676 0.144676 0.072338 0.144676 0.072338 0.144676 0.289352 0.144676 0.144676 0.072338 0.144676 0.072338 0.144676 0.289352 0.144676 0.144676 0.072338 0.144676 0.072338 0.144676 0.289352 0.144676 0.144676 0.072338 0.144676 0.072338 0.144676 0.289352 0.144676 0.144676 0.072338 0.144676 0.072338 0.144676 0.289352 0.144676 0.144676 0.072338 0.144676 0.072338 0.144676 0.289352 0.144676 0.144676 0.072338 0.144676 0.072338 0.144676 0.289352 0.144676 0.144676 0.072338 0.144676 0.072338 0.072338 0.144676 0.144676 0.072338 0.072338 0.144676 0.072338 0.144676 0.072338 0.289352 0.144676 0.144676 0.144676 0.072338 0.072338 0.144676 0.072338 0.144676 0.289352 0.144676 0.144676 0.072338 0.144676 0.072338 0.144676 0.289352 0.144676 0.144676 0.072338 0.144676 0.072338 0.144676 0.289352 0.144676 0.144676 0.072338 0.144676 0.072338 0.144676 0.289352 0.144676 0.144676 0.072338 0.144676 0.072338 0.144676 0.289352 0.144676 0.144676 0.072338 0.144676 0.072338 0.144676 0.289352 0.144676 0.144676 0.072338 0.144676 0.072338 0.144676 0.289352 0.144676 0.144676 0.072338 0.144676 0.072338 0.144676 0.289352 0.144676 0.144676 0.072338 0.144676 0.072338 0.144676 0.289352 0.144676 0.144676 0.072338 0.144676 0.072338 0.144676 0.289352 0.144676 0.144676 0.072338 0.144676 0.072338 0.144676 0.289352 0.144676 0.144676 0.072338 0.144676 0.072338 0.144676 0.289352 0.144676 0.144676 0.072338 0.144676 0.072338 0.144676 0.289352 0.144676 0.144676 0.072338 0.144676 0.072338 0.144676 0.289352 0.144676 0.144676 0.072338 0.144676 0.072338 0.144676 0.289352 0.144676 0.144676 0.072338 0.144676 0.072338 0.144676 0.289352 0.144676 0.144676 0.072338 0.144676 0.072338 0.144676 0.289352 0.144676 0.144676 0.072338 0.144676 0.072338 0.144676 0.289352 0.144676 0.144676 0.072338 0.144676 0.072338 0.144676 0.289352 0.144676 0.144676 0.072338 0.144676 0.072338 0.144676 0.289352 0.144676 0.144676 0.072338 0.144676 0.072338 0.144676 0.289352 0.144676 0.144676 0.072338 0.144676 0.072338 0.144676 0.289352 0.144676 0.144676 0.072338 0.144676 0.072338 0.072338 0.144676 0.144676 0.072338 0.072338 0.144676 0.072338 0.144676 0.072338 0.289352 0.144676 0.144676 0.144676 0.072338 0.072338 0.144676 0.072338 0.144676 0.289352 0.144676 0.144676 0.072338 0.144676 0.072338 0.144676 0.289352 0.144676 0.144676 0.072338 0.144676 0.072338 0.144676 0.289352 0.144676 0.144676 0.072338 0.144676 0.072338 0.144676 0.289352 0.144676 0.144676 0.072338 0.144676 0.072338 0.144676 0.289352 0.144676 0.144676 0.072338 0.144676 0.072338 0.144676 0.289352 0.144676 0.144676 0.072338 0.144676 0.072338 0.144676 0.289352 0.144676 0.144676 0.072338 0.144676 0.072338 0.144676 0.289352 0.144676 0.144676 0.072338 0.144676 0.072338 0.144676 0.289352 0.144676 0.144676 0.072338 0.144676 0.072338 0.144676 0.289352 0.144676 0.144676 0.072338 0.144676 0.072338 0.144676 0.289352 0.144676 0.144676 0.072338 0.144676 0.072338 0.144676 0.289352 0.144676 0.144676 0.072338 0.144676 0.072338 0.144676 0.289352 0.144676 0.144676 0.072338 0.144676 0.072338 0.144676 0.289352 0.144676 0.144676 0.072338 0.144676 0.072338 0.144676 0.289352 0.144676 0.144676 0.072338 0.144676 0.072338 0.144676 0.289352 0.144676 0.144676 0.072338 0.144676 0.072338 0.144676 0.289352 0.144676 0.144676 0.072338 0.144676 0.072338 0.144676 0.289352 0.144676 0.144676 0.072338 0.144676 0.072338 0.144676 0.289352 0.144676 0.144676 0.072338 0.144676 0.072338 0.144676 0.289352 0.144676 0.144676 0.072338 0.144676 0.072338 0.144676 0.289352 0.144676 0.144676 0.072338 0.144676 0.072338 0.144676 0.289352 0.144676 0.144676 0.072338 0.144676 0.072338 0.072338 0.144676 0.144676 0.072338 0.072338 0.144676 0.072338 0.144676 0.072338 0.289352 0.144676 0.144676 0.144676 0.072338 0.072338 0.144676 0.072338 0.144676 0.289352 0.144676 0.144676 0.072338 0.144676 0.072338 0.144676 0.289352 0.144676 0.144676 0.072338 0.144676 0.072338 0.144676 0.289352 0.144676 0.144676 0.072338 0.144676 0.072338 0.144676 0.289352 0.144676 0.144676 0.072338 0.144676 0.072338 0.144676 0.289352 0.144676 0.144676 0.072338 0.144676 0.072338 0.144676 0.289352 0.144676 0.144676 0.072338 0.144676 0.072338 0.144676 0.289352 0.144676 0.144676 0.072338 0.144676 0.072338 0.144676 0.289352 0.144676 0.144676 0.072338 0.144676 0.072338 0.144676 0.289352 0.144676 0.144676 0.072338 0.144676 0.072338 0.144676 0.289352 0.144676 0.144676 0.072338 0.144676 0.072338 0.144676 0.289352 0.144676 0.144676 0.072338 0.144676 0.072338 0.144676 0.289352 0.144676 0.144676 0.072338 0.144676 0.072338 0.144676 0.289352 0.144676 0.144676 0.072338 0.144676 0.072338 0.144676 0.289352 0.144676 0.144676 0.072338 0.144676 0.072338 0.144676 0.289352 0.144676 0.144676 0.072338 0.144676 0.072338 0.144676 0.289352 0.144676 0.144676 0.072338 0.144676 0.072338 0.144676 0.289352 0.144676 0.144676 0.072338 0.144676 0.072338 0.144676 0.289352 0.144676 0.144676 0.072338 0.144676 0.072338 0.144676 0.289352 0.144676 0.144676 0.072338 0.144676 0.072338 0.144676 0.289352 0.144676 0.144676 0.072338 0.144676 0.072338 0.144676 0.289352 0.144676 0.144676 0.072338 0.144676 0.072338 0.144676 0.289352 0.144676 0.144676 0.072338 0.144676 0.072338 0.072338 0.144676 0.144676 0.072338 0.072338 0.144676 0.072338 0.144676 0.072338 0.289352 0.144676 0.144676 0.144676 0.072338 0.072338 0.144676 0.072338 0.144676 0.289352 0.144676 0.144676 0.072338 0.144676 0.072338 0.144676 0.289352 0.144676 0.144676 0.072338 0.144676 0.072338 0.144676 0.289352 0.144676 0.144676 0.072338 0.144676 0.072338 0.144676 0.289352 0.144676 0.144676 0.072338 0.144676 0.072338 0.144676 0.289352 0.144676 0.144676 0.072338 0.144676 0.072338 0.144676 0.289352 0.144676 0.144676 0.072338 0.144676 0.072338 0.144676 0.289352 0.144676 0.144676 0.072338 0.144676 0.072338 0.144676 0.289352 0.144676 0.144676 0.072338 0.144676 0.072338 0.144676 0.289352 0.144676 0.144676 0.072338 0.144676 0.072338 0.144676 0.289352 0.144676 0.144676 0.072338 0.144676 0.072338 0.144676 0.289352 0.144676 0.144676 0.072338 0.144676 0.072338 0.144676 0.289352 0.144676 0.144676 0.072338 0.144676 0.072338 0.144676 0.289352 0.144676 0.144676 0.072338 0.144676 0.072338 0.144676 0.289352 0.144676 0.144676 0.072338 0.144676 0.072338 0.144676 0.289352 0.144676 0.144676 0.072338 0.144676 0.072338 0.144676 0.289352 0.144676 0.144676 0.072338 0.144676 0.072338 0.144676 0.289352 0.144676 0.144676 0.072338 0.144676 0.072338 0.144676 0.289352 0.144676 0.144676 0.072338 0.144676 0.072338 0.144676 0.289352 0.144676 0.144676 0.072338 0.144676 0.072338 0.144676 0.289352 0.144676 0.144676 0.072338 0.144676 0.072338 0.144676 0.289352 0.144676 0.144676 0.072338 0.144676 0.072338 0.144676 0.289352 0.144676 0.144676 0.072338 0.144676 0.072338 0.072338 0.144676 0.144676 0.072338 0.072338 0.144676 0.072338 0.144676 0.072338 0.144676 0.072338 0.072338 0.144676 0.072338 0.072338 0.072338 0.072338 0.144676 0.144676 0.072338 0.144676 0.072338 0.072338 0.072338 0.144676 0.144676 0.072338 0.144676 0.072338 0.072338 0.072338 0.144676 0.144676 0.072338 0.144676 0.072338 0.072338 0.072338 0.144676 0.144676 0.072338 0.144676 0.072338 0.072338 0.072338 0.144676 0.144676 0.072338 0.144676 0.072338 0.072338 0.072338 0.144676 0.144676 0.072338 0.144676 0.072338 0.072338 0.072338 0.144676 0.144676 0.072338 0.144676 0.072338 0.072338 0.072338 0.144676 0.144676 0.072338 0.144676 0.072338 0.072338 0.072338 0.144676 0.144676 0.072338 0.144676 0.072338 0.072338 0.072338 0.144676 0.144676 0.072338 0.144676 0.072338 0.072338 0.072338 0.144676 0.144676 0.072338 0.144676 0.072338 0.072338 0.072338 0.144676 0.144676 0.072338 0.144676 0.072338 0.072338 0.072338 0.144676 0.144676 0.072338 0.144676 0.072338 0.072338 0.072338 0.144676 0.144676 0.072338 0.144676 0.072338 0.072338 0.072338 0.144676 0.144676 0.072338 0.144676 0.072338 0.072338 0.072338 0.144676 0.144676 0.072338 0.144676 0.072338 0.072338 0.072338 0.144676 0.144676 0.072338 0.144676 0.072338 0.072338 0.072338 0.144676 0.144676 0.072338 0.144676 0.072338 0.072338 0.072338 0.144676 0.144676 0.0723379 0.144676 0.0723379 0.0723379 0.0723379 0.144676 0.144676 0.072338 0.144676 0.072338 0.072338 0.072338 0.144676 0.144676 0.072338 0.144676 0.072338 0.072338 0.072338 0.144676 0.144676 0.072338 0.144676 0.072338 0.072338 0.072338 0.072338 0.072338 0.072338 0.072338 0.072338 0.072338 0.072338 
VECTORS u float
0 0 0  -0.0436959 -0.0114779 -0.0491374  -0.0707203 -0.0261625 -0.0622952  -0.0984563 -0.056818 -0.0628374  -0.129203 -0.0963689 -0.0577304  -0.16148 -0.142293 -0.0508735  -0.194349 -0.193084 -0.0438032  -0.227333 -0.248 -0.0371726  -0.26019 -0.306513 -0.0311887  -0.292845 -0.368313 -0.025871  -0.325245 -0.433048 -0.0211568  -0.357387 -0.500453 -0.0169671  -0.389229 -0.570181 -0.0132301  -0.420765 -0.641966 -0.00988102  -0.45193 -0.71546 -0.00688243  -0.482704 -0.790411 -0.00419283  -0.513024 -0.866492 -0.0018003  -0.542869 -0.943472 0.000322342  -0.572192 -1.02106 0.00217175  -0.600986 -1.09905 0.00376463  -0.629232 -1.17721 0.00508785  -0.656944 -1.25537 0.00615907  -0.684189 -1.33328 0.00699759  -0.710975 -1.41086 0.00751328  -0.737684 -1.48828 0.00807786  0 0 0  -0.0229546 -0.00216115 -0.0342281  -0.0416065 -0.0222637 -0.0433042  -0.0603473 -0.054544 -0.0442972  -0.0826714 -0.0965596 -0.0413101  -0.107991 -0.145357 -0.0367546  -0.135366 -0.199232 -0.03175  -0.163997 -0.257133 -0.0269048  -0.193421 -0.318496 -0.0224068  -0.2233 -0.382874 -0.0183754  -0.253493 -0.449962 -0.01475  -0.283839 -0.519414 -0.0115378  -0.314288 -0.590953 -0.00864077  -0.344713 -0.66425 -0.00606918  -0.375073 -0.73904 -0.0037353  -0.405246 -0.815014 -0.00166821  -0.435197 -0.891929 0.000206709  -0.464816 -0.969505 0.0018425  -0.494085 -1.04754 0.0033114  -0.522918 -1.12579 0.00455117  -0.55132 -1.20409 0.00563359  -0.579222 -1.28222 0.00649476  -0.606657 -1.36013 0.00723863  -0.633644 -1.4376 0.00779414  -0.660453 -1.51474 0.00845313  0 0 0  -0.0113454 0.000908226 -0.0214283  -0.0203898 -0.0199782 -0.0274036  -0.0316678 -0.054026 -0.028213  -0.0465032 -0.0977153 -0.0264153  -0.0647118 -0.148547 -0.0234902  -0.0857587 -0.204782 -0.0201731  -0.109006 -0.265214 -0.0168576  -0.133926 -0.329113 -0.0137432  -0.160096 -0.395919 -0.0109029  -0.187231 -0.465255 -0.00835133  -0.215087 -0.536741 -0.00606656  -0.243499 -0.610084 -0.00402093  -0.272294 -0.68495 -0.00218654  -0.301347 -0.76108 -0.000540018  -0.330509 -0.838174 0.000942945  -0.35968 -0.916004 0.00227141  -0.388736 -0.994309 0.00345993  -0.417602 -1.0729 0.00451541  -0.446182 -1.15155 0.00543022  -0.474431 -1.23013 0.00623465  -0.50228 -1.30845 0.00690031  -0.529712 -1.38648 0.00754356  -0.556702 -1.46399 0.00799274  -0.583235 -1.54093 0.00881314  0 0 0  -0.00305507 -0.000173867 -0.00912809  -0.00472537 -0.0213693 -0.0123386  -0.00861442 -0.0563717 -0.0129921  -0.016085 -0.101352 -0.0121679  -0.027217 -0.153691 -0.0106177  -0.0417634 -0.211712 -0.00876331  -0.0592426 -0.274134 -0.00685406  -0.0791931 -0.340138 -0.00502992  -0.101139 -0.40904 -0.00335336  -0.124735 -0.480392 -0.0018425  -0.149636 -0.553744 -0.000491381  -0.175609 -0.62878 0.00071454  -0.20239 -0.705142 0.00179577  -0.22981 -0.782574 0.00276923  -0.25765 -0.86077 0.00364733  -0.285774 -0.939527 0.00444698  -0.314008 -1.01857 0.00516629  -0.342246 -1.09777 0.00582623  -0.370355 -1.17687 0.0064075  -0.398274 -1.2558 0.00694275  -0.425907 -1.33435 0.00740004  -0.453255 -1.4125 0.00787473  -0.48012 -1.4903 0.00827503  -0.506409 -1.56759 0.00855136  0 0 0  0.00383194 -0.00346619 0.00256133  0.00863913 -0.0261662 0.00201392  0.0116847 -0.0621851 0.00160027  0.0114012 -0.108129 0.00161433  0.0072009 -0.161576 0.00197768  -0.000899613 -0.220922 0.00252938  -0.0125681 -0.284889 0.00314522  -0.0273905 -0.352585 0.00374675  -0.0449018 -0.423242 0.00429606  -0.0647038 -0.496324 0.00477839  -0.0863987 -0.57132 0.00519633  -0.109677 -0.647872 0.00555873  -0.134218 -0.725593 0.00587702  -0.159782 -0.804219 0.00616646  -0.186103 -0.883441 0.0064311  -0.213 -0.963057 0.00668883  -0.24025 -1.04281 0.00692487  -0.267711 -1.12256 0.00717831  -0.295234 -1.20211 0.00739145  -0.322675 -1.28136 0.00765705  -0.350054 -1.3602 0.00786996  -0.377103 -1.43844 0.00803518  -0.403832 -1.51611 0.0081737  -0.430216 -1.59304 0.00803304  0 0 0  0.0103067 -0.00858527 0.0137115  0.0216974 -0.0340726 0.0155191  0.0316306 -0.0714511 0.0154495  0.0383003 -0.118222 0.0148935  0.040782 -0.172484 0.0142848  0.0389116 -0.232841 0.0136888  0.032932 -0.298024 0.0131164  0.0231858 -0.367102 0.0125587  0.0101405 -0.439218 0.0120127  -0.00580037 -0.513771 0.0114784  -0.0241828 -0.59018 0.0109632  -0.0446582 -0.668046 0.0104768  -0.0668395 -0.746951 0.0100243  -0.090439 -0.82662 0.00962043  -0.115142 -0.906729 0.00926208  -0.14071 -0.987099 0.00897074  -0.166897 -1.06746 0.00873017  -0.193503 -1.14771 0.00856662  -0.220376 -1.2276 0.00845909  -0.247366 -1.30708 0.00839925  -0.274174 -1.38606 0.00846124  -0.300986 -1.46467 0.00836968  -0.327631 -1.54186 0.00936484  -0.355252 -1.61875 0.00904155  0 0 0  0.0171933 -0.0160844 0.0241206  0.0361235 -0.0453193 0.0278921  0.053145 -0.0841075 0.0284312  0.0664942 -0.131565 0.027631  0.0753028 -0.1865 0.0262692  0.0793636 -0.2477 0.0246708  0.0788301 -0.313915 0.022999  0.0739976 -0.384159 0.021337  0.065302 -0.457513 0.0197239  0.0531646 -0.533305 0.0181885  0.0380595 -0.610906 0.0167453  0.0203819 -0.68987 0.0154073  0.000564694 -0.76976 0.0141804  -0.021063 -0.850274 0.0130744  -0.0441325 -0.931112 0.0120854  -0.0683613 -1.01205 0.0112393  -0.0935011 -1.09289 0.0104883  -0.119208 -1.17345 0.00995183  -0.145545 -1.25363 0.00937295  -0.171694 -1.33336 0.00925183  -0.198633 -1.4123 0.00873041  -0.224848 -1.49084 0.00960588  -0.250675 -1.56838 0.00861168  -0.277707 -1.64531 0.0114102  0 0 0  0.0258961 -0.0272503 0.0328915  0.0539713 -0.0599916 0.0390179  0.0778619 -0.0996994 0.0407095  0.0975147 -0.147836 0.0399084  0.112331 -0.203505 0.0379281  0.122029 -0.265589 0.0354106  0.126693 -0.332802 0.0327027  0.126544 -0.404127 0.0299757  0.122014 -0.478573 0.0273306  0.113514 -0.555433 0.0248115  0.101559 -0.634017 0.022454  0.0865679 -0.713874 0.0202739  0.0690165 -0.794518 0.0182736  0.0492831 -0.87568 0.0164762  0.0277575 -0.956996 0.0148423  0.00479722 -1.03833 0.0134583  -0.0193603 -1.1194 0.0122137  -0.0442986 -1.2001 0.0112484  -0.070061 -1.2804 0.0103216  -0.095686 -1.35977 0.00999022  -0.122285 -1.43924 0.00949144  -0.147753 -1.51745 0.0094378  -0.17614 -1.59639 0.00956678  -0.200088 -1.66934 0.0116529  0 0 0  0.0413437 -0.0443895 0.0402188  0.0765826 -0.0768816 0.050344  0.106636 -0.117644 0.0529406  0.132547 -0.166779 0.0519338  0.153282 -0.223543 0.049233  0.168477 -0.28674 0.0458  0.17811 -0.355084 0.0420675  0.182407 -0.427493 0.0383258  0.181775 -0.502966 0.0346737  0.176672 -0.580743 0.031214  0.167626 -0.660137 0.0279653  0.155104 -0.740648 0.0249686  0.139626 -0.821836 0.0222211  0.12159 -0.903341 0.019726  0.101436 -0.984961 0.017508  0.0796049 -1.0663 0.015543  0.0561631 -1.14747 0.0138021  0.0320201 -1.22785 0.0123274  0.00616145 -1.30811 0.0110109  -0.0181019 -1.38714 0.0107224  -0.0466084 -1.4653 0.00845146  -0.0711253 -1.54383 0.0081408  -0.0976374 -1.61876 0.00622487  -0.121733 -1.69755 0.00528955  0 0 0  -0.0329586 -0.0292719 -0.0312874  -0.0688287 -0.047091 -0.0460982  -0.103657 -0.0740245 -0.0483797  -0.137489 -0.109746 -0.0451739  -0.17068 -0.152449 -0.0399034  -0.203371 -0.200851 -0.0342073  -0.235698 -0.253981 -0.028795  -0.267718 -0.311222 -0.0239172  -0.299519 -0.372027 -0.019614  -0.331101 -0.436022 -0.0158267  -0.362494 -0.50279 -0.0124865  -0.393656 -0.572028 -0.00951409  -0.424577 -0.643357 -0.00686097  -0.455187 -0.716505 -0.00447488  -0.485465 -0.79112 -0.00233507  -0.515334 -0.866958 -0.000411987  -0.544781 -0.943698 0.001297  -0.573746 -1.02113 0.00281072  -0.602234 -1.09898 0.00411987  -0.630213 -1.17706 0.00523567  -0.657724 -1.25514 0.00615263  -0.684805 -1.3331 0.00688839  -0.711645 -1.41079 0.00748849  -0.738293 -1.48813 0.00802112  0 0 0  -0.0137255 -0.012785 -0.021878  -0.0389287 -0.0366795 -0.0330446  -0.064392 -0.0684501 -0.0349288  -0.0900524 -0.10837 -0.0327697  -0.116603 -0.154948 -0.0289986  -0.14404 -0.206887 -0.0248053  -0.172172 -0.263246 -0.0207455  -0.200848 -0.323389 -0.0170403  -0.229927 -0.386815 -0.013741  -0.259329 -0.453127 -0.0108242  -0.288951 -0.521952 -0.00823808  -0.318726 -0.592957 -0.00593281  -0.348553 -0.66581 -0.00386667  -0.378361 -0.740213 -0.00200653  -0.408048 -0.815865 -0.000327587  -0.437551 -0.892502 0.00118446  -0.466782 -0.969858 0.00254059  -0.495695 -1.04771 0.00374675  -0.524228 -1.12582 0.00480819  -0.552366 -1.20402 0.00572038  -0.580067 -1.28211 0.00650191  -0.60738 -1.35996 0.00714254  -0.634329 -1.43751 0.0077529  -0.661036 -1.51467 0.00829005  0 0 0  -0.00640416 -0.00775708 -0.014024  -0.0194495 -0.0317488 -0.0213697  -0.0351294 -0.0662549 -0.0227392  -0.0525323 -0.108883 -0.0213027  -0.0718764 -0.158167 -0.0187304  -0.0931383 -0.212825 -0.0158257  -0.116092 -0.271872 -0.012979  -0.140459 -0.334592 -0.0103512  -0.165987 -0.400434 -0.00799656  -0.192458 -0.468959 -0.00590253  -0.219685 -0.539775 -0.00404286  -0.247504 -0.612538 -0.00237727  -0.275762 -0.68692 -0.000883102  -0.304318 -0.762623 0.000468731  -0.33304 -0.839361 0.00169325  -0.361807 -0.916876 0.00280666  -0.390512 -0.994929 0.00381351  -0.419057 -1.0733 0.00472331  -0.44737 -1.15179 0.0055306  -0.475385 -1.23023 0.00625443  -0.503066 -1.30848 0.00688481  -0.530368 -1.38642 0.00743723  -0.557251 -1.46387 0.00796247  -0.583985 -1.5409 0.00844765  0 0 0  -0.0015095 -0.00773269 -0.00649428  -0.00552246 -0.0319571 -0.01019  -0.0120091 -0.0677505 -0.0110221  -0.0211696 -0.112173 -0.0102658  -0.0331442 -0.163379 -0.00877929  -0.0479095 -0.220095 -0.00705028  -0.0652117 -0.281273 -0.00532174  -0.0847633 -0.346155 -0.00371265  -0.106207 -0.414096 -0.00226045  -0.129267 -0.484615 -0.000968456  -0.153637 -0.557261 0.000181675  -0.179106 -0.631679 0.00121021  -0.205418 -0.707515 0.00213861  -0.232406 -0.784482 0.00298309  -0.259854 -0.862284 0.00375581  -0.287629 -0.94069 0.00446844  -0.315551 -1.01945 0.00512838  -0.343521 -1.09839 0.00572944  -0.371399 -1.17729 0.0062983  -0.39912 -1.25605 0.00679564  -0.42661 -1.33448 0.00730205  -0.4538 -1.41255 0.00771022  -0.480579 -1.4901 0.00806212  -0.506996 -1.56708 0.00854111  0 0 0  0.00261569 -0.010221 0.000799417  0.0063611 -0.0359484 0.000519037  0.00822189 -0.0729966 0.000247478  0.00700843 -0.118698 0.000430822  0.002289 -0.171307 0.000942945  -0.00595325 -0.22956 0.00160551  -0.0174974 -0.29242 0.00229263  -0.0320174 -0.359063 0.0029397  -0.0491399 -0.428784 0.00351715  -0.0685043 -0.501028 0.00402331  -0.0897633 -0.5753 0.0044663  -0.11261 -0.651204 0.0048604  -0.136754 -0.728368 0.00521708  -0.161939 -0.806492 0.00554991  -0.18793 -0.885285 0.00586557  -0.214514 -0.964514 0.00617552  -0.241506 -1.04395 0.00647807  -0.268732 -1.12342 0.00678515  -0.296058 -1.20273 0.00708818  -0.323366 -1.28179 0.00738573  -0.350546 -1.36041 0.00769806  -0.377532 -1.43864 0.00799847  -0.404258 -1.51624 0.00835109  -0.430744 -1.59318 0.00867414  0 0 0  0.00682443 -0.014613 0.00776029  0.0181758 -0.0431678 0.0105748  0.0280471 -0.0817629 0.010905  0.0344145 -0.128534 0.0106916  0.0366842 -0.182183 0.0104039  0.0347735 -0.241628 0.0101268  0.0289125 -0.305826 0.0098629  0.019406 -0.373923 0.00959826  0.00667226 -0.445139 0.00933146  -0.00891638 -0.518862 0.00906277  -0.0269369 -0.594537 0.00880218  -0.0470536 -0.671738 0.00855756  -0.0688933 -0.750061 0.00833893  -0.0921764 -0.8292 0.00815058  -0.116588 -0.908851 0.00800467  -0.141907 -0.988796 0.00789714  -0.16786 -1.0688 0.00784779  -0.194299 -1.14871 0.00783038  -0.22099 -1.22837 0.00791407  -0.247878 -1.30759 0.00796223  -0.274619 -1.38651 0.00806022  -0.301353 -1.46467 0.00838757  -0.328117 -1.54222 0.00886893  -0.354416 -1.61894 0.00899124  0 0 0  0.0119075 -0.0215338 0.0140882  0.0315861 -0.0538993 0.0196671  0.0494231 -0.0940252 0.0207601  0.0629894 -0.141634 0.0204167  0.0718615 -0.196119 0.0195346  0.0760038 -0.256545 0.0184605  0.0756078 -0.321884 0.0173326  0.0709885 -0.391221 0.0162134  0.0625485 -0.46372 0.0151317  0.0507064 -0.538703 0.0141044  0.0358982 -0.615576 0.0131462  0.0185286 -0.693868 0.0122638  -0.0010066 -0.773162 0.011466  -0.0223576 -0.853127 0.010757  -0.0451891 -0.933474 0.0101397  -0.0692085 -1.01397 0.00962949  -0.0941532 -1.09441 0.00919461  -0.119748 -1.17462 0.00891805  -0.14587 -1.25446 0.00862837  -0.172217 -1.33379 0.00864148  -0.198887 -1.41267 0.00850463  -0.224917 -1.49087 0.00896263  -0.251362 -1.56822 0.00888038  -0.277183 -1.64577 0.00933433  0 0 0  0.0191553 -0.0329077 0.0193374  0.0486797 -0.0686553 0.0276601  0.0740028 -0.109492 0.0298457  0.0942628 -0.157736 0.0296106  0.109373 -0.212999 0.0282958  0.119259 -0.274384 0.0265353  0.124094 -0.340797 0.0246205  0.124145 -0.411276 0.0227001  0.119838 -0.48491 0.0208385  0.11159 -0.560989 0.0190778  0.0998887 -0.638863 0.0174344  0.0851582 -0.718049 0.0159254  0.0678543 -0.798096 0.014555  0.0483515 -0.878694 0.0133228  0.0270461 -0.959522 0.0122488  0.00422907 -1.04038 0.0112967  -0.0197194 -1.12105 0.0105524  -0.0446703 -1.20137 0.00981379  -0.0700827 -1.28134 0.00949717  -0.0963426 -1.36053 0.00897098  -0.12214 -1.43948 0.00897574  -0.149118 -1.51742 0.00849009  -0.174301 -1.5942 0.00930834  -0.201054 -1.67217 0.0102403  0 0 0  0.0340094 -0.0528644 0.0243392  0.0710355 -0.0865921 0.0355179  0.102653 -0.127665 0.038609  0.129309 -0.176597 0.0383751  0.150441 -0.232828 0.0366194  0.16588 -0.295306 0.0342236  0.175707 -0.362864 0.0315838  0.180209 -0.434463 0.0289273  0.17979 -0.509156 0.0263369  0.174931 -0.586185 0.0238879  0.16612 -0.664884 0.0215907  0.153857 -0.744751 0.0194888  0.138602 -0.825336 0.0175536  0.120803 -0.906321 0.0158355  0.100845 -0.987392 0.0142763  0.0791385 -1.06836 0.0129693  0.0559371 -1.14905 0.0117614  0.03163 -1.22934 0.0107987  0.00632119 -1.30895 0.0100069  -0.0193713 -1.3879 0.0094347  -0.0458376 -1.46713 0.00883031  -0.0719056 -1.54477 0.00830698  -0.0972373 -1.61852 0.00908566  -0.125606 -1.69415 0.0101984  0 0 0  -0.0353878 -0.0371641 -0.0185852  -0.070249 -0.0587876 -0.0284863  -0.105539 -0.0860769 -0.0316608  -0.140506 -0.120304 -0.0304253  -0.174514 -0.161166 -0.0271935  -0.207649 -0.207885 -0.0233493  -0.24002 -0.259588 -0.019551  -0.27191 -0.315706 -0.0160766  -0.303387 -0.375611 -0.0129852  -0.334641 -0.438908 -0.010263  -0.365626 -0.505104 -0.00785232  -0.396445 -0.573883 -0.00570488  -0.426981 -0.644821 -0.00377512  -0.457294 -0.717644 -0.00203013  -0.487241 -0.791976 -0.00044775  -0.516876 -0.867581 0.000987291  -0.546053 -0.944116 0.00228763  -0.574845 -1.02139 0.00345254  -0.603127 -1.09909 0.00448942  -0.631008 -1.17708 0.00539351  -0.658398 -1.25507 0.00616837  -0.685467 -1.33299 0.00682878  -0.712229 -1.41062 0.00738811  -0.738914 -1.488 0.00794578  0 0 0  -0.0131851 -0.0180609 -0.0131006  -0.0382857 -0.0455627 -0.020709  -0.0655578 -0.0780711 -0.0231349  -0.093034 -0.117218 -0.022265  -0.12071 -0.162553 -0.0198524  -0.148663 -0.213193 -0.0169284  -0.176881 -0.268409 -0.0140085  -0.205375 -0.327573 -0.0113146  -0.234126 -0.390215 -0.00890756  -0.263132 -0.45587 -0.00677657  -0.292341 -0.524173 -0.004884  -0.321713 -0.594725 -0.00319028  -0.351159 -0.667216 -0.00166082  -0.380616 -0.741294 -0.000270605  -0.409985 -0.816688 0.000998735  -0.439202 -0.893087 0.00216007  -0.468178 -0.970264 0.0032196  -0.496869 -1.04794 0.0041821  -0.525212 -1.12595 0.00504827  -0.553194 -1.20403 0.00582075  -0.580787 -1.28207 0.00649643  -0.608017 -1.35988 0.00710464  -0.634921 -1.43739 0.00765038  -0.661653 -1.51455 0.00817895  0 0 0  -0.006081 -0.0116092 -0.00844359  -0.0190612 -0.0382838 -0.01355  -0.0362084 -0.0740051 -0.0152063  -0.0552293 -0.116542 -0.0145702  -0.0756547 -0.165145 -0.0128582  -0.0974323 -0.218844 -0.0107687  -0.120507 -0.276983 -0.00867152  -0.144723 -0.338828 -0.00671673  -0.169967 -0.403963 -0.00496173  -0.196069 -0.471838 -0.0033958  -0.222921 -0.542153 -0.00199938  -0.250353 -0.614444 -0.000739574  -0.278262 -0.68847 0.000402689  -0.306478 -0.763822 0.00145173  -0.334906 -0.840305 0.00241685  -0.363393 -0.917559 0.00331092  -0.391864 -0.995435 0.00413799  -0.420191 -1.07361 0.00489974  -0.448332 -1.152 0.00560164  -0.476191 -1.23031 0.00623751  -0.503754 -1.30849 0.00682735  -0.530978 -1.38634 0.00736642  -0.557884 -1.46385 0.00787067  -0.584499 -1.54085 0.00835538  0 0 0  -0.00163907 -0.0107199 -0.00406766  -0.00599985 -0.0371975 -0.00664043  -0.0134961 -0.0743263 -0.0075171  -0.0237544 -0.119065 -0.00713038  -0.03653 -0.169974 -0.00607729  -0.0516927 -0.226015 -0.00477338  -0.0691044 -0.286457 -0.00344229  -0.0885292 -0.350571 -0.00219202  -0.109743 -0.417848 -0.00105739  -0.132481 -0.487742 -4.00543e-05  -0.156533 -0.55988 0.000875473  -0.181654 -0.633823 0.00170612  -0.207663 -0.70928 0.00246978  -0.234341 -0.785885 0.00317836  -0.261533 -0.863408 0.00384355  -0.28905 -0.941537 0.00447059  -0.316768 -1.0201 0.00506639  -0.344537 -1.09883 0.00562882  -0.372268 -1.1776 0.00616384  -0.399855 -1.2562 0.00667834  -0.427227 -1.33458 0.00717187  -0.454316 -1.41255 0.00761962  -0.481143 -1.49007 0.00803876  -0.507672 -1.56695 0.00847697  0 0 0  0.00201318 -0.0126742 0.000167131  0.00496799 -0.0404777 4.43459e-05  0.00618479 -0.078938 -8.24928e-05  0.00438732 -0.125137 9.25064e-05  -0.000779867 -0.177682 0.000532627  -0.0092454 -0.235438 0.00111532  -0.0208369 -0.297707 0.00172544  -0.0352379 -0.363653 0.00231338  -0.0521648 -0.432768 0.00284696  -0.07126 -0.504395 0.00333166  -0.0922482 -0.578174 0.0037694  -0.1148 -0.653583 0.00417662  -0.13868 -0.730367 0.00455809  -0.163599 -0.808101 0.00492716  -0.189365 -0.886606 0.0052886  -0.21573 -0.965529 0.00564814  -0.242541 -1.04475 0.00600982  -0.269602 -1.12398 0.00637436  -0.296796 -1.20315 0.00674105  -0.323997 -1.28203 0.00711894  -0.351087 -1.36059 0.00748682  -0.378013 -1.43864 0.00789332  -0.404675 -1.5162 0.00827456  -0.43108 -1.59313 0.00864196  0 0 0  0.00576334 -0.0168331 0.00418401  0.015922 -0.0474138 0.00634527  0.0254735 -0.0874249 0.00696421  0.0317078 -0.134756 0.00700974  0.033851 -0.188429 0.0069468  0.0319017 -0.24749 0.00688696  0.0260673 -0.311178 0.00684261  0.0166944 -0.378655 0.00680256  0.00412941 -0.449295 0.00676179  -0.0112258 -0.522434 0.00672126  -0.0290229 -0.597614 0.00668931  -0.048884 -0.674328 0.00666857  -0.0705042 -0.752251 0.00666857  -0.0935539 -0.830996 0.00669312  -0.117778 -0.910336 0.00674891  -0.142901 -0.989964 0.00683594  -0.168715 -1.06974 0.00696087  -0.195005 -1.1494 0.0071218  -0.221604 -1.22888 0.00733376  -0.248345 -1.30795 0.0075748  -0.275126 -1.38668 0.00781965  -0.301851 -1.4648 0.00813293  -0.328369 -1.54235 0.00860333  -0.354525 -1.61944 0.00892591  0 0 0  0.0104333 -0.0239553 0.00777793  0.028607 -0.0583252 0.0120523  0.0464331 -0.0997449 0.0134583  0.060215 -0.147801 0.0135269  0.0692119 -0.202308 0.0130911  0.0734639 -0.262373 0.0124981  0.0731652 -0.327265 0.011863  0.068696 -0.396015 0.0112438  0.0604134 -0.467987 0.0106514  0.0487757 -0.542399 0.0101051  0.0341597 -0.618799 0.00960493  0.0170105 -0.696597 0.00916338  -0.00233614 -0.775498 0.00877929  -0.0234834 -0.855056 0.00846028  -0.0461535 -0.935086 0.00820708  -0.0700066 -1.01525 0.00801849  -0.0948186 -1.09543 0.00791001  -0.120318 -1.1754 0.00785208  -0.146322 -1.25506 0.00790238  -0.172652 -1.33427 0.00796366  -0.199115 -1.41291 0.00817585  -0.225657 -1.49111 0.00840139  -0.251979 -1.56892 0.00865793  -0.278356 -1.64587 0.00877857  0 0 0  0.0173701 -0.036257 0.0108693  0.0452756 -0.0738749 0.0171115  0.0707847 -0.115563 0.0194016  0.0914303 -0.163984 0.0196147  0.106801 -0.219139 0.0189283  0.116893 -0.28014 0.0178847  0.121869 -0.346108 0.0167308  0.12209 -0.416034 0.0155752  0.117934 -0.48916 0.0144694  0.10988 -0.564694 0.0134349  0.0983495 -0.642102 0.0124855  0.0838225 -0.72081 0.0116284  0.0666882 -0.800466 0.0108695  0.0473721 -0.880656 0.0102093  0.0262104 -0.961162 0.00964904  0.00355601 -1.04168 0.00919294  -0.0203006 -1.1221 0.00883412  -0.0450873 -1.20218 0.00859904  -0.0705609 -1.28185 0.00844479  -0.0965035 -1.36103 0.00843072  -0.122685 -1.43958 0.00836062  -0.148978 -1.5178 0.00876427  -0.175495 -1.59485 0.00911236  -0.202202 -1.67138 0.00921321  0 0 0  0.0326863 -0.0581217 0.0138502  0.0677772 -0.0930732 0.0219698  0.0993005 -0.134276 0.0249772  0.126282 -0.182971 0.0252855  0.147691 -0.238891 0.0243704  0.163359 -0.300878 0.0229447  0.173353 -0.36796 0.0213397  0.178036 -0.438991 0.0197155  0.177781 -0.513187 0.0181432  0.173118 -0.589676 0.0166612  0.164487 -0.667932 0.015291  0.15243 -0.747327 0.0140414  0.137353 -0.827541 0.012924  0.119747 -0.90812 0.0119269  0.0999538 -0.9889 0.0110712  0.078397 -1.06952 0.0103378  0.055352 -1.14998 0.00975227  0.0311666 -1.2299 0.00931191  0.00605798 -1.30951 0.00892997  -0.0196555 -1.38838 0.00877142  -0.0455811 -1.46695 0.0086484  -0.0725129 -1.54419 0.00944185  -0.0988898 -1.62125 0.00969505  -0.125149 -1.6994 0.00935149  0 0 0  -0.0370941 -0.0406361 -0.00878596  -0.0718198 -0.0644295 -0.0136085  -0.106787 -0.092638 -0.0154369  -0.141841 -0.126582 -0.0150971  -0.17622 -0.166671 -0.0135767  -0.209631 -0.212458 -0.0116055  -0.242203 -0.263332 -0.00958157  -0.274092 -0.318712 -0.00768161  -0.305533 -0.378043 -0.00595832  -0.336617 -0.440851 -0.00441074  -0.36747 -0.506675 -0.0030148  -0.398072 -0.575128 -0.00174451  -0.428464 -0.645814 -0.000576735  -0.45857 -0.718407 0.000504971  -0.488396 -0.79256 0.00151396  -0.51785 -0.867993 0.00245667  -0.54694 -0.944402 0.00333762  -0.575586 -1.02155 0.00415945  -0.60382 -1.09916 0.00491929  -0.631593 -1.17706 0.00561714  -0.658984 -1.25501 0.00625443  -0.686001 -1.33286 0.00682974  -0.7128 -1.41047 0.00736713  -0.739514 -1.48786 0.00787973  0 0 0  -0.0131843 -0.0205229 -0.00624537  -0.038549 -0.0501826 -0.00994277  -0.0662532 -0.0834692 -0.0113163  -0.0943392 -0.12251 -0.0110538  -0.122597 -0.167286 -0.00987339  -0.150946 -0.217246 -0.00832534  -0.179359 -0.271775 -0.00672126  -0.207875 -0.330343 -0.00520468  -0.236538 -0.392461 -0.00381947  -0.265383 -0.457698 -0.00256801  -0.294402 -0.525636 -0.00143051  -0.323568 -0.595903 -0.00038743  -0.352818 -0.668138 0.000580311  -0.382084 -0.742015 0.00148535  -0.411283 -0.817222 0.00233817  -0.440341 -0.893481 0.00314331  -0.469182 -0.97052 0.00390458  -0.49775 -1.0481 0.00462413  -0.525995 -1.12601 0.00529861  -0.553892 -1.20404 0.00593019  -0.581428 -1.28201 0.00651741  -0.608621 -1.35978 0.00706697  -0.63551 -1.43727 0.00758719  -0.662239 -1.51444 0.00809336  0 0 0  -0.00606091 -0.0133924 -0.0040226  -0.0191608 -0.0416796 -0.0065074  -0.0367692 -0.0782677 -0.00743032  -0.0564789 -0.121015 -0.00719571  -0.07751 -0.169338 -0.00631285  -0.0996913 -0.222592 -0.00516129  -0.122946 -0.280183 -0.00396252  -0.147187 -0.341542 -0.00281692  -0.172333 -0.4062 -0.00176001  -0.198285 -0.4737 -0.000794411  -0.224941 -0.543657 9.46522e-05  -0.252184 -0.61568 0.000920057  -0.27989 -0.689442 0.00169539  -0.307931 -0.764603 0.00243068  -0.336183 -0.840888 0.00313282  -0.364525 -0.918008 0.0038054  -0.392854 -0.995735 0.00445151  -0.421071 -1.07382 0.0050714  -0.449103 -1.1521 0.00566578  -0.476887 -1.23035 0.00623488  -0.504382 -1.30847 0.00677419  -0.531564 -1.38629 0.00729251  -0.558452 -1.46376 0.00778627  -0.585076 -1.54079 0.00828409  0 0 0  -0.00176118 -0.0120249 -0.00196338  -0.00637154 -0.0397871 -0.00320196  -0.0142702 -0.0777778 -0.00365257  -0.0250677 -0.122932 -0.00345564  -0.0383114 -0.173794 -0.00286007  -0.0537984 -0.229571 -0.00208807  -0.0713452 -0.289596 -0.00127172  -0.0907876 -0.353301 -0.000481844  -0.111905 -0.420152 0.000261068  -0.134513 -0.489692 0.000952005  -0.158385 -0.561486 0.00159907  -0.183341 -0.635159 0.00221181  -0.209162 -0.710353 0.00279951  -0.235686 -0.786757 0.00336695  -0.262713 -0.864078 0.00391984  -0.290104 -0.942061 0.00446224  -0.317688 -1.02047 0.00499439  -0.345363 -1.0991 0.00551772  -0.37299 -1.17776 0.00603032  -0.400509 -1.2563 0.00653625  -0.427821 -1.33459 0.00702882  -0.454895 -1.41253 0.00750661  -0.481676 -1.49003 0.00799179  -0.508175 -1.56696 0.00845909  0 0 0  0.00172135 -0.013703 4.05312e-06  0.00422433 -0.042628 -1.19209e-05  0.00505906 -0.0819294 7.39098e-06  0.00292152 -0.128643 0.000174999  -0.00251883 -0.181265 0.000497341  -0.0111762 -0.238884 0.000916719  -0.022838 -0.30082 0.00137162  -0.0372323 -0.366427 0.00182652  -0.0540694 -0.435148 0.00226784  -0.0730492 -0.506449 0.00269151  -0.0938829 -0.579887 0.0031023  -0.11629 -0.655034 0.00350475  -0.140009 -0.731545 0.0039041  -0.164792 -0.809078 0.00430417  -0.190416 -0.887366 0.00470877  -0.216669 -0.96614 0.00512075  -0.243367 -1.04519 0.00553966  -0.270344 -1.12431 0.00596762  -0.297457 -1.20336 0.00639915  -0.324586 -1.28217 0.00684237  -0.351639 -1.36064 0.00729179  -0.378531 -1.43867 0.00775146  -0.405164 -1.51618 0.00819516  -0.431514 -1.59312 0.00864959  0 0 0  0.00530159 -0.0177988 0.00185609  0.0148023 -0.0494459 0.00299668  0.0239896 -0.0902677 0.00348115  0.0300686 -0.138108 0.00364876  0.0321326 -0.191899 0.00374436  0.0301223 -0.250872 0.00384831  0.0242912 -0.314286 0.0039742  0.0149508 -0.381462 0.00411487  0.00247848 -0.451745 0.00426769  -0.0127774 -0.524572 0.00443053  -0.0304372 -0.599427 0.00460792  -0.0501789 -0.675875 0.00479937  -0.0716559 -0.75353 0.00501156  -0.0945942 -0.832063 0.00524378  -0.118692 -0.911185 0.00549865  -0.143723 -0.990652 0.00577974  -0.169436 -1.07024 0.00608206  -0.195654 -1.1498 0.00641418  -0.222181 -1.22913 0.00676179  -0.248878 -1.30815 0.00714684  -0.275615 -1.38673 0.00757432  -0.302274 -1.46484 0.00798893  -0.328804 -1.54241 0.00837278  -0.355085 -1.61933 0.00879049  0 0 0  0.00982438 -0.0251306 0.00351691  0.0271719 -0.0605692 0.00573158  0.0446605 -0.102686 0.00668502  0.0584328 -0.151159 0.0069108  0.0674956 -0.205727 0.00683928  0.0717911 -0.265711 0.00668097  0.0715558 -0.330342 0.00651336  0.0671458 -0.398825 0.00636482  0.058959 -0.470455 0.00624418  0.0474137 -0.544578 0.0061574  0.0329194 -0.620656 0.00610542  0.0158746 -0.698201 0.00609064  -0.00334775 -0.776827 0.00611544  -0.0243973 -0.856178 0.00618029  -0.0469565 -0.935983 0.00628591  -0.0707296 -1.01598 0.00643563  -0.0954542 -1.09599 0.00662041  -0.120892 -1.17582 0.00686216  -0.146838 -1.25537 0.00712323  -0.173097 -1.33447 0.0074656  -0.199515 -1.41307 0.00780439  -0.22598 -1.49119 0.00821829  -0.252456 -1.56878 0.00858784  -0.278553 -1.64578 0.00902104  0 0 0  0.0167034 -0.0378804 0.00498509  0.0436859 -0.0766387 0.00817657  0.0688509 -0.118809 0.00960732  0.0895393 -0.16744 0.00993371  0.105047 -0.222549 0.00975347  0.11524 -0.283416 0.00937986  0.120319 -0.34912 0.00895786  0.120617 -0.41878 0.00854731  0.116566 -0.491582 0.00817466  0.108599 -0.566834 0.00785017  0.0971879 -0.643936 0.00758004  0.0827565 -0.722393 0.00736475  0.0657408 -0.801783 0.00720692  0.0465165 -0.881768 0.00710797  0.0254579 -0.96205 0.00706458  0.00288296 -1.04241 0.00708318  -0.0209007 -1.12264 0.00715137  -0.0456231 -1.2026 0.0072906  -0.0710471 -1.28215 0.00749493  -0.0969386 -1.36123 0.00773644  -0.123111 -1.43978 0.00807118  -0.14947 -1.51772 0.00840402  -0.175798 -1.59513 0.00906277  -0.201934 -1.67208 0.00952339  0 0 0  0.0323988 -0.0606139 0.00633025  0.0663453 -0.0966212 0.0104403  0.0972951 -0.137964 0.0122731  0.124246 -0.186586 0.0126884  0.145784 -0.242289 0.0124226  0.161573 -0.304058 0.0118804  0.171683 -0.37083 0.0112491  0.176461 -0.441581 0.0106182  0.176315 -0.515447 0.0100241  0.171753 -0.591663 0.00948739  0.163243 -0.669616 0.00901484  0.151293 -0.748774 0.00861335  0.136337 -0.828726 0.00828266  0.118833 -0.909115 0.00802684  0.0991495 -0.989668 0.00783801  0.0776784 -1.07016 0.00773168  0.0547137 -1.1504 0.00768065  0.0306032 -1.23026 0.00774455  0.00556827 -1.30965 0.00784469  -0.0200589 -1.38852 0.00806117  -0.0461793 -1.46679 0.00833535  -0.0725915 -1.54426 0.00886941  -0.098906 -1.62178 0.00938368  -0.124363 -1.69829 0.0103772  0 0 0  -0.0377009 -0.0416996 -7.27177e-05  -0.0724628 -0.0662013 -4.29153e-05  -0.10731 -0.094717 4.76837e-05  -0.142392 -0.128676 0.000180006  -0.176844 -0.168533 0.000344515  -0.210404 -0.214053 0.00053978  -0.243033 -0.264625 0.0007658  -0.275001 -0.319768 0.00101924  -0.306416 -0.378873 0.00130224  -0.337517 -0.44152 0.00161266  -0.368299 -0.507189 0.00194883  -0.398895 -0.575534 0.00230956  -0.429206 -0.64611 0.00269318  -0.459306 -0.718629 0.00309825  -0.489053 -0.792702 0.00352263  -0.518508 -0.868083 0.00396657  -0.547525 -0.944431 0.00442767  -0.576181 -1.02154 0.00490069  -0.60435 -1.09911 0.00538588  -0.632145 -1.17698 0.00587702  -0.659485 -1.2549 0.00637412  -0.686538 -1.33275 0.00687265  -0.713296 -1.41034 0.00736213  -0.74 -1.48772 0.0078392  0 0 0  -0.0131855 -0.0212501 -3.33786e-05  -0.0386994 -0.0515992 1.52588e-05  -0.0665491 -0.0851921 0.000119448  -0.0948017 -0.124236 0.000262976  -0.123241 -0.168873 0.000438929  -0.151746 -0.21861 0.000645399  -0.180255 -0.272922 0.000881433  -0.208819 -0.331271 0.00114584  -0.237482 -0.393216 0.00143838  -0.266303 -0.458289 0.00175691  -0.295278 -0.526107 0.00210023  -0.324397 -0.596255 0.00246692  -0.353594 -0.668407 0.00285649  -0.382813 -0.742196 0.00326562  -0.411964 -0.817346 0.00369477  -0.440982 -0.893537 0.00414085  -0.469782 -0.970537 0.00460267  -0.49832 -1.04807 0.00507832  -0.526533 -1.12595 0.00556231  -0.554411 -1.20394 0.00605416  -0.581928 -1.2819 0.00654936  -0.609113 -1.35965 0.00704479  -0.635996 -1.43713 0.00753498  -0.662743 -1.51429 0.00801206  0 0 0  -0.00607215 -0.0139026 -8.10623e-06  -0.0192354 -0.0426788 5.79357e-05  -0.037005 -0.0796072 0.000175953  -0.0569186 -0.122422 0.000331402  -0.0781597 -0.170706 0.000518322  -0.100494 -0.223795 0.000736475  -0.12385 -0.281237 0.000982285  -0.148126 -0.3424 0.00125647  -0.173277 -0.40692 0.00155687  -0.199195 -0.474259 0.00188303  -0.225817 -0.544116 0.00223374  -0.253004 -0.616014 0.00260758  -0.280668 -0.689705 0.00300431  -0.308653 -0.764769 0.00341892  -0.336868 -0.841008 0.00385213  -0.365161 -0.918051 0.00430274  -0.393461 -0.995749 0.00476766  -0.421638 -1.07378 0.00524449  -0.449651 -1.15204 0.00573277  -0.477405 -1.23025 0.0062263  -0.504889 -1.30836 0.00672674  -0.532052 -1.38615 0.00722051  -0.558933 -1.46363 0.00771642  -0.585563 -1.54063 0.00819373  0 0 0  -0.00180786 -0.0123934 1.0252e-05  -0.00651434 -0.0405148 9.10759e-05  -0.014564 -0.0788255 0.000220776  -0.0255329 -0.124107 0.000386238  -0.0389565 -0.175002 0.000583649  -0.0545661 -0.23068 0.0008111  -0.0722007 -0.290597 0.00106668  -0.0916651 -0.354142 0.00134945  -0.112792 -0.42087 0.00165868  -0.135364 -0.490265 0.00199366  -0.15921 -0.561959 0.00235224  -0.184111 -0.635514 0.00273395  -0.209901 -0.710634 0.00313663  -0.23637 -0.786946 0.00355816  -0.263371 -0.864213 0.00399685  -0.290712 -0.942125 0.00445294  -0.318278 -1.02049 0.00492239  -0.345909 -1.09907 0.00540495  -0.373528 -1.17771 0.00589561  -0.401011 -1.25621 0.00639749  -0.428316 -1.33449 0.00690293  -0.455365 -1.4124 0.00741196  -0.482151 -1.48989 0.00790381  -0.508653 -1.56681 0.00839496  0 0 0  0.00163266 -0.0139765 2.45571e-05  0.00398099 -0.0431977 0.00011611  0.00466129 -0.0828118 0.000254869  0.00239795 -0.129671 0.000428915  -0.00316304 -0.182376 0.000634432  -0.0118997 -0.239928 0.000870466  -0.0236216 -0.301797 0.00113487  -0.0380288 -0.36726 0.00142717  -0.0548702 -0.435881 0.00174594  -0.0738209 -0.507038 0.0020895  -0.0946331 -0.580389 0.00245714  -0.116996 -0.655413 0.00284696  -0.140688 -0.731857 0.00325704  -0.165427 -0.809289 0.00368619  -0.191026 -0.887531 0.00413227  -0.21724 -0.966222 0.00459385  -0.243921 -1.04525 0.00507116  -0.270865 -1.1243 0.00555849  -0.297967 -1.20333 0.00606036  -0.32507 -1.28208 0.00656819  -0.352116 -1.36055 0.00708628  -0.378984 -1.43855 0.00759912  -0.405641 -1.51607 0.00811458  -0.432009 -1.59296 0.00859571  0 0 0  0.00516975 -0.0180627 3.60012e-05  0.0144534 -0.0499752 0.000134468  0.0234774 -0.0910846 0.000279188  0.0294773 -0.139072 0.000459194  0.0314787 -0.192949 0.000671148  0.0294378 -0.251878 0.000915051  0.023573 -0.315238 0.00118852  0.0142347 -0.382291 0.00149035  0.00175881 -0.452481 0.00181818  -0.0134681 -0.525178 0.00217199  -0.0311147 -0.599943 0.00254893  -0.0508163 -0.676279 0.00294733  -0.0722781 -0.75386 0.00336599  -0.0951738 -0.832299 0.00380349  -0.119259 -0.911364 0.00425696  -0.144252 -0.990755 0.00472736  -0.169958 -1.07031 0.00521016  -0.196145 -1.1498 0.0057075  -0.222664 -1.22911 0.00621152  -0.249337 -1.30808 0.0067389  -0.276066 -1.38666 0.00726175  -0.302727 -1.46471 0.00778818  -0.329237 -1.54224 0.00833011  -0.355493 -1.61921 0.00882864  0 0 0  0.00965963 -0.0254487 4.24385e-05  0.0267378 -0.0611582 0.000143766  0.0440566 -0.10354 0.00028944  0.057785 -0.152115 0.000473976  0.0668312 -0.206758 0.000691652  0.0711328 -0.266687 0.000942945  0.070887 -0.331278 0.00122571  0.0664903 -0.399638 0.00153804  0.0583042 -0.471191 0.00187683  0.0467854 -0.545182 0.00224113  0.0323019 -0.621185 0.0026288  0.0152901 -0.698611 0.00303769  -0.00391948 -0.777174 0.00346613  -0.024936 -0.856422 0.00391269  -0.0474832 -0.936179 0.00437546  -0.071228 -1.01609 0.00485301  -0.0959444 -1.09607 0.0053463  -0.121362 -1.17583 0.00585032  -0.147301 -1.25535 0.00637197  -0.173549 -1.33441 0.00689721  -0.199976 -1.41302 0.00743532  -0.226383 -1.49108 0.00798821  -0.252811 -1.5686 0.00851536  -0.279046 -1.6455 0.00903487  0 0 0  0.0165257 -0.0383312 4.17233e-05  0.0432136 -0.0773885 0.00013876  0.0681924 -0.119761 0.000282764  0.088848 -0.168433 0.000468969  0.104359 -0.223569 0.000693798  0.11458 -0.28437 0.000953913  0.119662 -0.350021 0.00124693  0.119984 -0.419568 0.00156975  0.115934 -0.492289 0.0019207  0.107998 -0.567421 0.0022974  0.0965934 -0.644444 0.00269723  0.0821956 -0.722792 0.00311732  0.0651888 -0.802115 0.00355721  0.045997 -0.882004 0.00401402  0.0249475 -0.962236 0.00448704  0.00240088 -1.04251 0.00497508  -0.0213735 -1.12271 0.00547504  -0.0460773 -1.2026 0.00599265  -0.0714931 -1.28214 0.0065124  -0.0973711 -1.36117 0.00705647  -0.123573 -1.43968 0.007581  -0.14984 -1.51762 0.00818992  -0.176167 -1.59513 0.00878024  -0.20235 -1.6721 0.00918937  0 0 0  0.0323493 -0.0613352 2.28882e-05  0.0659347 -0.0976296 0.00010705  0.0966175 -0.13909 0.000248432  0.123504 -0.187654 0.000437498  0.145045 -0.243326 0.000671148  0.160865 -0.304988 0.000942469  0.170989 -0.371695 0.00124884  0.175791 -0.442319 0.00158596  0.175656 -0.516107 0.00195146  0.171122 -0.592198 0.00234199  0.162626 -0.670079 0.0027554  0.150706 -0.749126 0.00319004  0.135767 -0.829019 0.00364208  0.118292 -0.90931 0.00411224  0.0986246 -0.989821 0.00459242  0.077177 -1.07022 0.00509214  0.0542328 -1.15044 0.00559616  0.0301504 -1.23024 0.00611901  0.00512218 -1.30961 0.00665784  -0.0205076 -1.38841 0.0072093  -0.0466294 -1.46658 0.00780368  -0.072896 -1.54434 0.00828052  -0.0994053 -1.62179 0.0089128  -0.125709 -1.69842 0.00931954  0 0 0  -0.037185 -0.0407148 0.00865817  -0.0719915 -0.0645172 0.0135522  -0.107045 -0.092712 0.015564  -0.142184 -0.126632 0.015487  -0.176641 -0.166695 0.0142922  -0.210122 -0.212456 0.0127087  -0.242755 -0.263303 0.011133  -0.2747 -0.318655 0.00973916  -0.306191 -0.37796 0.00858092  -0.33732 -0.44074 0.00765252  -0.368214 -0.506538 0.00692749  -0.398852 -0.574965 0.00637722  -0.429278 -0.645628 0.00597548  -0.459412 -0.7182 0.0057025  -0.489264 -0.792334 0.0055418  -0.518739 -0.86775 0.00548553  -0.547846 -0.944144 0.00552392  -0.576505 -1.02128 0.00564861  -0.604748 -1.09888 0.0058558  -0.632528 -1.17677 0.00614214  -0.65992 -1.25471 0.00649643  -0.686935 -1.33256 0.00690889  -0.713731 -1.41016 0.00735521  -0.740436 -1.48754 0.00779796  0 0 0  -0.0132274 -0.0205496 0.00619435  -0.0386761 -0.0502179 0.00999999  -0.0664704 -0.0834925 0.011584  -0.0946412 -0.122514 0.0116076  -0.122977 -0.16727 0.010777  -0.151396 -0.217208 0.00963974  -0.179873 -0.271714 0.00850511  -0.208447 -0.330258 0.00751591  -0.237163 -0.392352 0.00671411  -0.266056 -0.457565 0.00609756  -0.295119 -0.525479 0.00564575  -0.324325 -0.595724 0.00533509  -0.353611 -0.667937 0.00514507  -0.382909 -0.741795 0.00505733  -0.412137 -0.816985 0.00506067  -0.441218 -0.893227 0.00514674  -0.470079 -0.970252 0.00530744  -0.498663 -1.04783 0.00553632  -0.526919 -1.12572 0.00582862  -0.554825 -1.20374 0.006181  -0.582364 -1.2817 0.00658226  -0.609557 -1.35947 0.0070231  -0.636445 -1.43694 0.0074842  -0.663166 -1.51412 0.00793242  0 0 0  -0.00609683 -0.0133898 0.00402021  -0.0192673 -0.0416724 0.00664759  -0.0369603 -0.0782493 0.00781035  -0.0567533 -0.12098 0.00788546  -0.0778611 -0.169285 0.00737405  -0.100113 -0.222521 0.00665593  -0.123431 -0.280092 0.00594687  -0.147732 -0.341429 0.00534821  -0.172932 -0.406065 0.0048914  -0.198934 -0.473544 0.00457644  -0.225637 -0.54348 0.00438881  -0.252921 -0.615483 0.00430965  -0.280665 -0.689224 0.0043242  -0.30874 -0.764368 0.0044179  -0.337023 -0.840637 0.00458145  -0.365391 -0.917743 0.00480723  -0.393742 -0.995457 0.00509024  -0.421978 -1.07354 0.00542283  -0.450025 -1.1518 0.00580311  -0.477818 -1.23005 0.00622344  -0.50532 -1.30816 0.00667763  -0.532503 -1.38598 0.00715685  -0.559381 -1.46344 0.00764275  -0.58602 -1.54045 0.00812006  0 0 0  -0.00179397 -0.0120042 0.00199723  -0.00646883 -0.0397499 0.00340652  -0.0144468 -0.0777255 0.00411868  -0.0253235 -0.122864 0.00425148  -0.0386422 -0.173709 0.00404906  -0.0541976 -0.229469 0.00373006  -0.0718085 -0.289476 0.00342393  -0.0913101 -0.353162 0.00319791  -0.112483 -0.419994 0.00307274  -0.135142 -0.489514 0.00305033  -0.159061 -0.56129 0.00311947  -0.18406 -0.634943 0.00326896  -0.209922 -0.71012 0.00348568  -0.236481 -0.786508 0.00376058  -0.263541 -0.863814 0.00408292  -0.29096 -0.941785 0.00445104  -0.318569 -1.02018 0.0048573  -0.346263 -1.0988 0.00529814  -0.373907 -1.17745 0.00576711  -0.401436 -1.25599 0.00626254  -0.428754 -1.33427 0.0067749  -0.455831 -1.4122 0.00730252  -0.482614 -1.48968 0.0078299  -0.509119 -1.5666 0.00833893  0 0 0  0.00169048 -0.0136685 5.76973e-05  0.00413233 -0.0425685 0.000263929  0.00489187 -0.0818497 0.000524282  0.00267899 -0.128547 0.000703335  -0.00283319 -0.181153 0.000789642  -0.0115575 -0.238755 0.000841618  -0.0232822 -0.300674 0.000914812  -0.0377356 -0.366263 0.00104308  -0.0546277 -0.434967 0.00123835  -0.0736595 -0.506251 0.00150108  -0.0945412 -0.579671 0.00182509  -0.116993 -0.654801 0.00220132  -0.140753 -0.731296 0.00262094  -0.165575 -0.808814 0.00307727  -0.191231 -0.88709 0.00356293  -0.217515 -0.965851 0.00407553  -0.24424 -1.0449 0.00460863  -0.271237 -1.12401 0.00515771  -0.298369 -1.20305 0.00572228  -0.325511 -1.28184 0.00629497  -0.352568 -1.36031 0.0068748  -0.379456 -1.43833 0.00745535  -0.406116 -1.51584 0.00802755  -0.43247 -1.59273 0.00858927  0 0 0  0.00527188 -0.0177519 -0.0017724  0.0147136 -0.0493662 -0.0027101  0.02383 -0.0901645 -0.00290394  0.029837 -0.137987 -0.00271249  0.0318322 -0.191761 -0.00238562  0.0297571 -0.250719 -0.00200319  0.0238647 -0.314118 -0.00158286  0.0144657 -0.381277 -0.00112081  0.00193882 -0.451544 -0.000617027  -0.0133693 -0.524355 -7.43866e-05  -0.031078 -0.599193 0.00050211  -0.0508652 -0.675627 0.00110579  -0.0723857 -0.753266 0.00173044  -0.0953621 -0.831786 0.00237131  -0.119496 -0.910895 0.00302243  -0.144559 -0.990352 0.00368166  -0.1703 -1.06994 0.00434446  -0.196542 -1.14948 0.00500774  -0.223084 -1.22882 0.00566483  -0.249799 -1.30782 0.00632262  -0.276532 -1.38641 0.00696707  -0.303214 -1.46449 0.00760198  -0.329739 -1.54201 0.00820994  -0.35599 -1.61896 0.00880766  0 0 0  0.00979467 -0.0250701 -0.00342178  0.0270851 -0.06047 -0.00542927  0.0445062 -0.102562 -0.00608969  0.0582114 -0.151017 -0.00594759  0.0672087 -0.20557 -0.00544167  0.0714421 -0.265538 -0.00478101  0.071147 -0.330155 -0.00404906  0.06668 -0.398622 -0.00327706  0.0584389 -0.470237 -0.00247908  0.0468411 -0.544345 -0.00166392  0.0322976 -0.620409 -0.000837326  0.0152062 -0.697939 -6.19888e-06  -0.00405896 -0.776552 0.000824451  -0.0251495 -0.85589 0.001652  -0.0477461 -0.935684 0.00247121  -0.0715529 -1.01567 0.00328064  -0.0963104 -1.09567 0.0040741  -0.121774 -1.1755 0.00485325  -0.147742 -1.25503 0.00560904  -0.174013 -1.33415 0.00634813  -0.200454 -1.41276 0.00705791  -0.22692 -1.49084 0.00775194  -0.253303 -1.56835 0.00841975  -0.279543 -1.64535 0.00904679  0 0 0  0.0166721 -0.0378026 -0.00489402  0.0435981 -0.0765194 -0.00788736  0.068702 -0.118667 -0.00902843  0.0893279 -0.16728 -0.0089829  0.104775 -0.222374 -0.00835443  0.114908 -0.283228 -0.00746012  0.11993 -0.348919 -0.00645304  0.120172 -0.418565 -0.00539637  0.116066 -0.491352 -0.00432229  0.108048 -0.56659 -0.00324583  0.0965868 -0.643678 -0.00217628  0.0821085 -0.722122 -0.00112081  0.0650489 -0.801499 -8.53539e-05  0.0457817 -0.881471 0.000928164  0.0246857 -0.961746 0.00191498  0.00207305 -1.04209 0.00287437  -0.0217352 -1.12232 0.00380087  -0.046494 -1.20227 0.00469398  -0.0719302 -1.28183 0.00554705  -0.0978553 -1.3609 0.00636697  -0.124044 -1.43942 0.00714159  -0.15037 -1.51741 0.00788307  -0.176686 -1.59481 0.00853992  -0.202966 -1.67182 0.00924206  0 0 0  0.0323564 -0.0605109 -0.00627828  0.0662542 -0.0964851 -0.0102148  0.0971514 -0.137808 -0.0117633  0.124047 -0.186416 -0.0118008  0.145529 -0.242105 -0.0110688  0.161262 -0.303862 -0.00998306  0.171317 -0.370621 -0.00874066  0.17604 -0.441359 -0.00743484  0.17584 -0.515211 -0.00611067  0.171228 -0.591412 -0.00479507  0.162667 -0.669352 -0.00349545  0.150669 -0.748497 -0.00222588  0.135668 -0.828438 -0.000990629  0.118121 -0.908815 0.00020504  0.0983963 -0.989359 0.00135684  0.0768893 -1.06984 0.00246263  0.053899 -1.15008 0.00352001  0.0297539 -1.22994 0.0045259  0.00470304 -1.30932 0.00547433  -0.0209892 -1.38816 0.00635839  -0.0470843 -1.46643 0.0072124  -0.073426 -1.54413 0.00800014  -0.0998454 -1.62131 0.0086658  -0.126251 -1.69818 0.00936818  0 0 0  -0.0355709 -0.0373212 0.018517  -0.0706027 -0.0589577 0.0285234  -0.106071 -0.0862182 0.0318875  -0.141208 -0.120399 0.0309057  -0.17537 -0.161213 0.0279896  -0.208641 -0.20788 0.0245223  -0.241134 -0.25953 0.0211661  -0.273135 -0.315592 0.0181928  -0.304711 -0.375443 0.0156624  -0.336055 -0.438684 0.0135543  -0.367121 -0.504828 0.0118105  -0.398014 -0.573555 0.0103798  -0.428614 -0.644447 0.00921178  -0.458987 -0.717227 0.00827241  -0.488983 -0.791521 0.00753331  -0.51866 -0.867089 0.00697947  -0.547871 -0.943596 0.00659513  -0.57669 -1.02084 0.00637174  -0.604991 -1.09852 0.00629878  -0.632881 -1.17649 0.0063746  -0.660278 -1.25447 0.00658607  -0.687348 -1.33237 0.0069139  -0.714094 -1.40998 0.00732279  -0.740758 -1.48735 0.00773668  0 0 0  -0.0132767 -0.0181119 0.0131018  -0.0385525 -0.0456292 0.0208507  -0.0660082 -0.0781144 0.023494  -0.0936537 -0.117226 0.0229046  -0.121483 -0.16252 0.0208342  -0.149575 -0.213117 0.0183132  -0.177919 -0.268288 0.0158567  -0.206528 -0.327404 0.0136859  -0.235385 -0.389997 0.0118568  -0.264487 -0.455602 0.0103569  -0.293784 -0.523857 0.00914574  -0.323235 -0.594364 0.00818062  -0.352752 -0.666812 0.00742388  -0.382273 -0.740849 0.00684714  -0.411697 -0.816209 0.00642824  -0.440961 -0.892576 0.00615525  -0.469978 -0.969724 0.00601292  -0.498701 -1.04738 0.00599456  -0.527069 -1.12536 0.00609183  -0.555066 -1.20343 0.00629854  -0.582667 -1.28146 0.00660467  -0.609901 -1.35925 0.006989  -0.6368 -1.43674 0.00742149  -0.663527 -1.51388 0.00785041  0 0 0  -0.0061582 -0.0116024 0.00849056  -0.0192882 -0.0382666 0.0137691  -0.0366081 -0.0739675 0.0156698  -0.0557939 -0.116474 0.0153384  -0.0763702 -0.165042 0.0139923  -0.0982862 -0.218702 0.0123303  -0.121488 -0.276801 0.0107174  -0.145822 -0.338603 0.00930595  -0.171174 -0.403694 0.00814652  -0.197376 -0.471524 0.0072279  -0.22432 -0.541797 0.0065279  -0.251836 -0.614046 0.00601125  -0.279819 -0.688033 0.00565386  -0.308103 -0.763348 0.00543046  -0.336592 -0.8398 0.00532556  -0.365131 -0.917025 0.00532699  -0.393647 -0.994876 0.00542521  -0.42201 -1.07303 0.00561213  -0.450181 -1.1514 0.00588012  -0.478059 -1.22969 0.00622392  -0.505638 -1.30787 0.00663114  -0.532859 -1.3857 0.00708604  -0.559763 -1.4632 0.00756574  -0.586381 -1.54017 0.00803828  0 0 0  -0.00171076 -0.0106782 0.00414824  -0.00620952 -0.0371242 0.00691652  -0.0138662 -0.0742243 0.00805807  -0.0242817 -0.118932 0.0079968  -0.0372037 -0.169808 0.00733089  -0.0525029 -0.225814 0.00647521  -0.0700414 -0.286219 0.00565004  -0.0895833 -0.350294 0.00496078  -0.110907 -0.417532 0.00444031  -0.133747 -0.487386 0.00408769  -0.157894 -0.559484 0.00388551  -0.183102 -0.633389 0.00381351  -0.209191 -0.708811 0.00384951  -0.235939 -0.785384 0.00397944  -0.263196 -0.862876 0.00418782  -0.290769 -0.94098 0.00446653  -0.318538 -1.01952 0.00480771  -0.346346 -1.09823 0.00520253  -0.374112 -1.17699 0.00564671  -0.401714 -1.25558 0.00613356  -0.429112 -1.33393 0.00665379  -0.45622 -1.41189 0.00719571  -0.483035 -1.4894 0.00774288  -0.509513 -1.56628 0.00828338  0 0 0  0.00194538 -0.0126051 -6.12736e-05  0.00477025 -0.0403582 0.000274181  0.00583535 -0.0787817 0.000680685  0.00388891 -0.124946 0.000847816  -0.00142008 -0.17746 0.000812292  -0.0100185 -0.235181 0.000696182  -0.0217345 -0.297417 0.000610352  -0.0362527 -0.363326 0.000603914  -0.05329 -0.432406 0.000703573  -0.0724887 -0.503996 0.000902176  -0.093573 -0.577739 0.00119519  -0.116214 -0.653113 0.00156403  -0.140177 -0.729866 0.00199819  -0.16517 -0.807569 0.00248313  -0.191004 -0.886047 0.00300956  -0.217428 -0.964946 0.00356936  -0.244296 -1.04415 0.0041573  -0.2714 -1.12336 0.00476599  -0.298637 -1.20252 0.0053916  -0.325848 -1.28138 0.00602651  -0.352972 -1.35993 0.00666928  -0.379899 -1.43797 0.00730777  -0.406589 -1.51552 0.00794625  -0.432921 -1.59236 0.0085659  0 0 0  0.0056975 -0.0167415 -0.00405979  0.0157324 -0.0472568 -0.00600028  0.0251399 -0.0872226 -0.00633025  0.0312324 -0.134518 -0.00602055  0.0332395 -0.188159 -0.00553894  0.0311614 -0.247188 -0.00499606  0.0252042 -0.310843 -0.00440788  0.0157156 -0.378286 -0.00376701  0.00304008 -0.448893 -0.00307274  -0.012418 -0.521999 -0.00232863  -0.0303134 -0.597145 -0.00154471  -0.0502652 -0.673828 -0.000730991  -0.0719708 -0.75172 0.00010252  -0.0950975 -0.830439 0.000948191  -0.119395 -0.909752 0.00179791  -0.14458 -0.989362 0.00264525  -0.170454 -1.06911 0.0034852  -0.196785 -1.14876 0.00431204  -0.223425 -1.22822 0.00512338  -0.250195 -1.30731 0.00591207  -0.276995 -1.38598 0.00667715  -0.303705 -1.46409 0.00742102  -0.330248 -1.54165 0.00814199  -0.356498 -1.61854 0.00884414  0 0 0  0.0103689 -0.023838 -0.00764894  0.0284227 -0.0581292 -0.0117006  0.0461135 -0.0995007 -0.012814  0.059762 -0.14752 -0.0125172  0.0686294 -0.201995 -0.0116513  0.0727569 -0.262029 -0.0105581  0.0723388 -0.326891 -0.00936031  0.0677558 -0.39561 -0.00811934  0.0593636 -0.467551 -0.00685143  0.0476224 -0.541931 -0.00557899  0.032908 -0.618301 -0.00430655  0.0156655 -0.696068 -0.00304985  -0.00376773 -0.774942 -0.00181198  -0.0249971 -0.854472 -0.000603437  -0.0477406 -0.934483 0.000574112  -0.0716629 -1.01462 0.00171185  -0.0965378 -1.0948 0.00280881  -0.122087 -1.17474 0.00385571  -0.148138 -1.25441 0.0048573  -0.174469 -1.3336 0.00579739  -0.200965 -1.41232 0.00668907  -0.227446 -1.49041 0.00752687  -0.253874 -1.56796 0.00831962  -0.280089 -1.6449 0.00910449  0 0 0  0.0173028 -0.0361065 -0.0107522  0.0450915 -0.0736421 -0.0167835  0.0704756 -0.115283 -0.0187833  0.0909986 -0.163669 -0.0186253  0.106248 -0.218794 -0.0174932  0.116221 -0.279767 -0.0159304  0.121082 -0.345707 -0.0141931  0.121191 -0.415603 -0.0123918  0.116926 -0.488699 -0.0105853  0.108769 -0.564204 -0.00880051  0.0971395 -0.641582 -0.00705481  0.0825185 -0.720263 -0.00535822  0.0652943 -0.799891 -0.00372195  0.0458975 -0.880059 -0.00214863  0.0246556 -0.960543 -0.000645399  0.00193501 -1.04105 0.000784159  -0.0219941 -1.12144 0.00213766  -0.0468304 -1.20152 0.00340748  -0.0723581 -1.2812 0.00459385  -0.0983326 -1.36036 0.00569057  -0.124593 -1.43898 0.00669122  -0.150937 -1.51697 0.00761914  -0.177288 -1.59441 0.00848722  -0.203562 -1.67137 0.00928926  0 0 0  0.0325971 -0.0579199 -0.0137749  0.0675875 -0.0928037 -0.0217104  0.0990043 -0.133968 -0.0244308  0.125876 -0.182629 -0.0243609  0.147173 -0.238525 -0.02298  0.16273 -0.300485 -0.0210147  0.172612 -0.367542 -0.0187969  0.177186 -0.438543 -0.0165002  0.176824 -0.512711 -0.0141976  0.172059 -0.589172 -0.0119405  0.163329 -0.6674 -0.00974321  0.151176 -0.746769 -0.00762987  0.136009 -0.826957 -0.00560427  0.118317 -0.907516 -0.00367856  0.0984453 -0.988269 -0.00185513  0.0768118 -1.06889 -0.000136852  0.0536978 -1.1493 0.00146937  0.0294566 -1.22926 0.00296354  0.00431108 -1.30877 0.0043304  -0.0214438 -1.38767 0.00558233  -0.0476334 -1.46601 0.0066967  -0.0740218 -1.54372 0.00767517  -0.100461 -1.62098 0.00855589  -0.126824 -1.69784 0.0093627  0 0 0  -0.0332375 -0.0294913 0.0313518  -0.0693892 -0.0473085 0.0463223  -0.104494 -0.0742126 0.0487828  -0.138568 -0.109867 0.0458133  -0.17199 -0.152514 0.040839  -0.204876 -0.200832 0.0355101  -0.23739 -0.253891 0.0305264  -0.269568 -0.311039 0.0261464  -0.301524 -0.371767 0.0223911  -0.333234 -0.43567 0.0192156  -0.364757 -0.502365 0.0165305  -0.39602 -0.57152 0.0142703  -0.427046 -0.642785 0.0123665  -0.457735 -0.71586 0.010783  -0.488094 -0.790422 0.00947523  -0.51802 -0.866201 0.00843191  -0.547526 -0.942902 0.00762606  -0.576523 -1.02029 0.00705385  -0.605048 -1.09811 0.00669503  -0.633038 -1.17616 0.00655627  -0.660571 -1.25423 0.00661635  -0.687647 -1.33216 0.00686646  -0.714439 -1.4098 0.00724387  -0.741089 -1.48715 0.00765848  0 0 0  -0.0138826 -0.0128522 0.0219915  -0.0393746 -0.0367632 0.0333471  -0.0651125 -0.0685053 0.0354431  -0.0910155 -0.108378 0.0335524  -0.117792 -0.154901 0.030112  -0.145431 -0.206774 0.0263116  -0.173754 -0.263064 0.0227072  -0.2026 -0.323131 0.0195155  -0.231841 -0.386482 0.0167875  -0.261383 -0.452718 0.0144928  -0.291139 -0.521469 0.0125816  -0.321029 -0.592404 0.0109963  -0.350964 -0.665191 0.00969577  -0.380863 -0.739534 0.00864005  -0.410637 -0.815132 0.00780606  -0.440208 -0.891721 0.00717306  -0.469502 -0.969034 0.00672841  -0.498461 -1.04685 0.00645757  -0.527033 -1.12493 0.006356  -0.555192 -1.20311 0.00641155  -0.582917 -1.28118 0.00661612  -0.610227 -1.35903 0.00694108  -0.637161 -1.43653 0.00734758  -0.663866 -1.51368 0.00776029  0 0 0  -0.00654253 -0.00774421 0.0141776  -0.0198389 -0.0317172 0.021735  -0.0357763 -0.0662027 0.0233426  -0.0534155 -0.108782 0.0222006  -0.0729805 -0.158021 0.0199854  -0.0944452 -0.212615 0.0174994  -0.117589 -0.271605 0.0151308  -0.142131 -0.334253 0.0130389  -0.167823 -0.400032 0.0112734  -0.194441 -0.468483 0.00981927  -0.221807 -0.539238 0.00864887  -0.249748 -0.611932 0.00772071  -0.278121 -0.686258 0.00700355  -0.306775 -0.761901 0.00646925  -0.335589 -0.838595 0.00609875  -0.364433 -0.916063 0.00587416  -0.393206 -0.994083 0.00578499  -0.421807 -1.07242 0.00582099  -0.450166 -1.15089 0.00597382  -0.478212 -1.22931 0.00623441  -0.505907 -1.30754 0.00658989  -0.533219 -1.38545 0.00701475  -0.560155 -1.46296 0.00747824  -0.58677 -1.53994 0.00793123  0 0 0  -0.00164048 -0.00767016 0.00667381  -0.00588398 -0.0318459 0.0105958  -0.0126104 -0.0676061 0.0116851  -0.0219972 -0.11198 0.0112464  -0.0341883 -0.163141 0.010138  -0.0491521 -0.219798 0.00885224  -0.0666452 -0.280922 0.00762296  -0.0863706 -0.34574 0.00657058  -0.107981 -0.413622 0.00572634  -0.131189 -0.484075 0.00509381  -0.155704 -0.556663 0.00465012  -0.181298 -0.63102 0.00437355  -0.207732 -0.706804 0.00423861  -0.234824 -0.783718 0.00422764  -0.262372 -0.861478 0.00432038  -0.290228 -0.939841 0.0045085  -0.318226 -1.01857 0.00478029  -0.346255 -1.09747 0.00512719  -0.374186 -1.17636 0.00554276  -0.401947 -1.25509 0.00601506  -0.429446 -1.33353 0.00653839  -0.456646 -1.41157 0.00709152  -0.483487 -1.4891 0.00765657  -0.509953 -1.56597 0.00820756  0 0 0  0.002492 -0.0101193 -0.000599861  0.00602248 -0.0357682 -8.4877e-05  0.00765744 -0.072774 0.000459194  0.00622785 -0.118418 0.000609159  0.00129884 -0.170986 0.000495672  -0.00713831 -0.22918 0.000294685  -0.0188705 -0.291994 0.000127316  -0.0335635 -0.358572 5.65052e-05  -0.0508529 -0.428244 0.000108242  -0.0703684 -0.500423 0.000280142  -0.0917739 -0.574647 0.000563145  -0.114751 -0.65049 0.000939846  -0.13902 -0.727611 0.00139308  -0.164317 -0.805682 0.00190997  -0.19041 -0.884441 0.0024755  -0.217086 -0.963626 0.00308275  -0.244158 -1.04304 0.00372243  -0.271455 -1.12247 0.00438738  -0.298838 -1.20177 0.00507092  -0.326184 -1.28079 0.00576568  -0.3534 -1.35943 0.00646853  -0.380404 -1.43758 0.00717044  -0.407124 -1.51515 0.00786757  -0.433442 -1.59197 0.00855303  0 0 0  0.00670601 -0.014478 -0.00755262  0.0178538 -0.0429351 -0.0101273  0.0275107 -0.0814724 -0.0101788  0.033672 -0.128184 -0.00961685  0.0357383 -0.181789 -0.00891805  0.0336384 -0.241179 -0.00816011  0.027592 -0.30533 -0.00735784  0.0179147 -0.373371 -0.00649452  0.00501275 -0.444537 -0.00557756  -0.0107272 -0.518203 -0.00460839  -0.0288967 -0.59383 -0.00360179  -0.0491467 -0.670977 -0.00256658  -0.0711168 -0.749257 -0.00151896  -0.0945143 -0.828349 -0.000464916  -0.119037 -0.907966 0.000582933  -0.144447 -0.987874 0.00161743  -0.170497 -1.06786 0.00263286  -0.196999 -1.14774 0.00362372  -0.223761 -1.22737 0.0045836  -0.250649 -1.30663 0.00550723  -0.277522 -1.38541 0.00639653  -0.3043 -1.46363 0.00725007  -0.330873 -1.54122 0.00807667  -0.357114 -1.61809 0.00890303  0 0 0  0.011794 -0.0213635 -0.0138841  0.0312798 -0.0536081 -0.0192297  0.0489137 -0.093672 -0.0200362  0.0622845 -0.141216 -0.019336  0.0709627 -0.195661 -0.0180266  0.0749219 -0.256031 -0.0164561  0.0743446 -0.321331 -0.0147684  0.0695572 -0.39061 -0.0130296  0.0609499 -0.463066 -0.0112743  0.0489556 -0.537993 -0.00952625  0.0339968 -0.614824 -0.00779557  0.0164902 -0.693062 -0.00610209  -0.00317872 -0.772318 -0.00445366  -0.0246482 -0.852239 -0.00285792  -0.0475953 -0.932557 -0.00132298  -0.0717154 -1.01302 0.000146627  -0.0967469 -1.09344 0.00154376  -0.122445 -1.17363 0.00286341  -0.148601 -1.25348 0.00410247  -0.17503 -1.33286 0.0052557  -0.201579 -1.41169 0.00632548  -0.228128 -1.4899 0.00731778  -0.254574 -1.56747 0.00826144  -0.280793 -1.64441 0.00918174  0 0 0  0.0190396 -0.0326955 -0.0191627  0.0483785 -0.0683102 -0.0272629  0.0735134 -0.109084 -0.0291655  0.0935933 -0.157265 -0.0285606  0.108519 -0.21249 -0.0268042  0.118232 -0.273823 -0.024524  0.122888 -0.340198 -0.0220304  0.122775 -0.410623 -0.0194623  0.118302 -0.484217 -0.0169053  0.109902 -0.560242 -0.0143943  0.0980475 -0.638076 -0.0119584  0.0831778 -0.717211 -0.0096097  0.0657375 -0.797225 -0.00736475  0.0461119 -0.877776 -0.00522685  0.0246832 -0.958578 -0.00320387  0.00177312 -1.0394 -0.00129867  -0.0222998 -1.12005 0.000481606  -0.0472779 -1.20038 0.00213432  -0.0728998 -1.28026 0.00365114  -0.0989666 -1.35961 0.0050323  -0.12527 -1.43834 0.00627184  -0.151673 -1.51645 0.00738358  -0.178033 -1.59391 0.00839424  -0.204312 -1.67087 0.00936699  0 0 0  0.0338655 -0.0525767 -0.0242324  0.0707301 -0.0861919 -0.035207  0.102186 -0.12721 -0.038017  0.128682 -0.176085 -0.0374002  0.149644 -0.232283 -0.0351856  0.164919 -0.294711 -0.032243  0.174574 -0.362236 -0.0289993  0.178916 -0.433783 -0.0256639  0.178331 -0.508439 -0.022351  0.173321 -0.585414 -0.0191195  0.164355 -0.66408 -0.0160046  0.151951 -0.743897 -0.0130267  0.136554 -0.824451 -0.0102015  0.11863 -0.905387 -0.00753522  0.0985547 -0.986439 -0.00503373  0.0767269 -1.06737 -0.0026989  0.0534506 -1.14802 -0.000540018  0.0290585 -1.22824 0.00144172  0.0037961 -1.30792 0.00323749  -0.0220597 -1.387 0.00483918  -0.0483186 -1.46544 0.00624514  -0.0747607 -1.54324 0.00745749  -0.101237 -1.62048 0.00849485  -0.127629 -1.69729 0.00949144  0 0 0  -0.0442187 -0.011723 0.0493636  -0.0715615 -0.0264077 0.0627713  -0.0996143 -0.0570637 0.0634124  -0.130677 -0.0965445 0.0586083  -0.163259 -0.142404 0.0519557  -0.196396 -0.193083 0.045316  -0.229632 -0.247901 0.0390253  -0.262708 -0.306283 0.0336003  -0.295567 -0.367978 0.0287449  -0.328143 -0.432585 0.0247002  -0.360449 -0.49989 0.0210829  -0.392438 -0.569505 0.0181127  -0.424101 -0.641203 0.015435  -0.455381 -0.714599 0.0132933  -0.486254 -0.789479 0.0113583  -0.51666 -0.86548 0.00989747  -0.546571 -0.942406 0.008605  -0.575948 -1.01993 0.00774813  -0.604779 -1.0979 0.00702906  -0.633048 -1.17601 0.00673699  -0.660775 -1.25414 0.00656629  -0.687993 -1.33205 0.00679874  -0.714808 -1.40968 0.00709987  -0.741421 -1.48697 0.00761175  0 0 0  -0.0233037 -0.00223854 0.0345626  -0.0423029 -0.0223504 0.043817  -0.0613637 -0.0546191 0.0450287  -0.0839922 -0.0965674 0.0422986  -0.10961 -0.145311 0.0380747  -0.137256 -0.199083 0.0334451  -0.166148 -0.256902 0.029052  -0.195799 -0.318146 0.0250466  -0.225894 -0.382434 0.0215821  -0.256271 -0.449401 0.0185573  -0.286798 -0.518768 0.0160153  -0.317395 -0.590197 0.0138175  -0.347967 -0.66342 0.0120075  -0.378444 -0.738113 0.0104597  -0.408735 -0.814028 0.00923371  -0.438773 -0.890863 0.00821948  -0.46848 -0.9684 0.00749016  -0.497804 -1.04637 0.00694108  -0.526693 -1.1246 0.00665689  -0.555119 -1.20285 0.00652981  -0.583055 -1.28099 0.00664663  -0.610507 -1.35885 0.00688076  -0.637506 -1.43638 0.00727534  -0.664224 -1.5135 0.00766087  0 0 0  -0.0116582 0.000922263 0.0217919  -0.0210063 -0.0199192 0.0279555  -0.0325948 -0.053976 0.0290065  -0.0477248 -0.097576 0.0274904  -0.0662297 -0.148378 0.0249226  -0.087538 -0.204498 0.0220101  -0.111048 -0.264877 0.0191684  -0.136191 -0.32865 0.0165741  -0.162588 -0.395395 0.0143163  -0.189907 -0.464603 0.0123897  -0.217956 -0.536029 0.0107875  -0.24652 -0.609252 0.0094645  -0.275476 -0.684068 0.00839877  -0.304647 -0.760091 0.00755596  -0.333941 -0.837148 0.00691915  -0.363203 -0.914888 0.00646639  -0.392362 -0.993174 0.00618601  -0.421287 -1.07169 0.0060668  -0.449941 -1.15035 0.00609708  -0.478217 -1.22887 0.00626898  -0.506108 -1.30722 0.00656223  -0.533542 -1.38518 0.00695109  -0.560549 -1.46276 0.00738239  -0.587127 -1.53975 0.00778222  0 0 0  -0.00334214 -0.000100493 0.00950193  -0.00530182 -0.0212201 0.0129192  -0.00949016 -0.0562086 0.0138211  -0.0172441 -0.101099 0.0133076  -0.0286699 -0.153401 0.0121293  -0.0434715 -0.211317 0.0107107  -0.061215 -0.273684 0.00929356  -0.081385 -0.339576 0.00801802  -0.103563 -0.408415 0.00694036  -0.127346 -0.479655 0.00607967  -0.152448 -0.552943 0.00542617  -0.178575 -0.627876 0.00496221  -0.20553 -0.704182 0.00466537  -0.233073 -0.781524 0.00451565  -0.261056 -0.85968 0.00449467  -0.28928 -0.93836 0.00458837  -0.317627 -1.01739 0.00478864  -0.345936 -1.09652 0.00508189  -0.374131 -1.17562 0.00546265  -0.402085 -1.2545 0.0059166  -0.429761 -1.33308 0.00643706  -0.457069 -1.41121 0.00699544  -0.483997 -1.48885 0.00756383  -0.510439 -1.56573 0.00811172  0 0 0  0.00357004 -0.00334451 -0.00217867  0.00810573 -0.0259253 -0.00142455  0.0108658 -0.0619292 -0.000743866  0.0103107 -0.107764 -0.000439167  0.0058279 -0.161188 -0.000404119  -0.00252044 -0.220418 -0.000506639  -0.0144483 -0.284351 -0.000603676  -0.0294896 -0.351928 -0.000638962  -0.0472332 -0.422542 -0.000562906  -0.067223 -0.495507 -0.00037694  -0.0891232 -0.570461 -7.36713e-05  -0.11256 -0.6469 0.000324249  -0.13728 -0.724587 0.000809908  -0.162975 -0.803114 0.0013597  -0.18945 -0.882313 0.00196815  -0.21645 -0.961843 0.00262022  -0.243825 -1.0416 0.00330901  -0.271366 -1.12128 0.00402737  -0.298973 -1.20084 0.00476193  -0.326484 -1.28003 0.00551534  -0.353849 -1.35886 0.00627303  -0.380953 -1.43711 0.00703549  -0.407761 -1.51481 0.00779176  -0.434081 -1.59163 0.00854397  0 0 0  0.0100678 -0.00842041 -0.0133438  0.0211962 -0.0337656 -0.0149379  0.0308515 -0.0711033 -0.014601  0.0372598 -0.117766 -0.0137062  0.0394649 -0.171994 -0.0126905  0.037353 -0.232246 -0.0116196  0.0311155 -0.297387 -0.0105119  0.0211532 -0.36636 -0.00936007  0.00787294 -0.438426 -0.00816846  -0.00825715 -0.512878 -0.00693941  -0.0268512 -0.589236 -0.00568366  -0.0474901 -0.667008 -0.00441122  -0.0698563 -0.74587 -0.00313854  -0.0935962 -0.825455 -0.00187087  -0.118457 -0.905536 -0.000622511  -0.144143 -0.98583 0.000599623  -0.170459 -1.06618 0.00178933  -0.197163 -1.14636 0.00293899  -0.224114 -1.22627 0.00404549  -0.251127 -1.30575 0.00509977  -0.278124 -1.38472 0.00610995  -0.304975 -1.46307 0.00707388  -0.331632 -1.54077 0.00802255  -0.357897 -1.61763 0.00899482  0 0 0  0.0169791 -0.0158708 -0.0237763  0.0356608 -0.0449249 -0.0273454  0.0524152 -0.0836757 -0.0276046  0.0655178 -0.131009 -0.0264606  0.0740593 -0.185925 -0.0246704  0.0778887 -0.247011 -0.0225835  0.0771024 -0.313203 -0.02035  0.0720581 -0.383334 -0.0180748  0.0631275 -0.456658 -0.0157895  0.0508002 -0.532341 -0.0135384  0.0354792 -0.609909 -0.0113261  0.0176368 -0.688771 -0.0091815  -0.00237572 -0.768635 -0.00710917  -0.0241445 -0.849061 -0.00512123  -0.0473837 -0.929876 -0.0032239  -0.0717456 -1.01074 -0.00142336  -0.097002 -1.09157 0.000275135  -0.122867 -1.17208 0.00186515  -0.149174 -1.25225 0.00334191  -0.175694 -1.33186 0.00470424  -0.202328 -1.41091 0.00595498  -0.228911 -1.48926 0.0071063  -0.255415 -1.56693 0.00820708  -0.281665 -1.64383 0.00932336  0 0 0  0.0256971 -0.026982 -0.0326078  0.0535292 -0.0595219 -0.0385396  0.0771651 -0.0991812 -0.0399499  0.0965871 -0.147203 -0.03879  0.111145 -0.202847 -0.0363674  0.120622 -0.264829 -0.0333347  0.125034 -0.332013 -0.0300436  0.124679 -0.403236 -0.0266762  0.119911 -0.477646 -0.0233328  0.111224 -0.554407 -0.0200691  0.0990463 -0.632955 -0.0169184  0.0838856 -0.71272 -0.0139024  0.0661376 -0.793338 -0.0110354  0.0462514 -0.874413 -0.00832534  0.024559 -0.955719 -0.00577617  0.00144386 -1.03698 -0.00339508  -0.0228288 -1.11804 -0.00118303  -0.0479412 -1.19872 0.000848532  -0.0736866 -1.27894 0.00270224  -0.0998085 -1.35855 0.0043664  -0.126163 -1.43753 0.00584722  -0.152555 -1.51577 0.00715756  -0.178917 -1.59333 0.00833774  -0.205195 -1.67028 0.00947666  0 0 0  0.0411169 -0.0440254 -0.0400643  0.07615 -0.0763375 -0.0499582  0.105985 -0.117049 -0.0523031  0.131684 -0.166084 -0.0508893  0.152186 -0.222823 -0.0477529  0.167162 -0.285931 -0.0437505  0.176561 -0.354247 -0.0394335  0.180649 -0.426563 -0.034997  0.179787 -0.502003 -0.0306387  0.174491 -0.579688 -0.0263848  0.165225 -0.659045 -0.0223322  0.152529 -0.739474 -0.0184548  0.136848 -0.82062 -0.0148222  0.118659 -0.902073 -0.0113914  0.0983377 -0.983626 -0.00821328  0.0762944 -1.06499 -0.00524426  0.0528359 -1.14606 -0.0025382  0.0283017 -1.22663 -4.79221e-05  0.00292659 -1.30666 0.00216341  -0.022995 -1.38601 0.00414491  -0.0492861 -1.46468 0.00583935  -0.0757134 -1.54261 0.00728178  -0.102152 -1.61992 0.00844717  -0.12847 -1.69673 0.00951982  -0.0228763 -0.0117286 -0.0296023  -0.0345553 -0.0244086 -0.0408843  -0.015088 -0.0196911 -0.0174644  0 0 0  0 0 0  -0.0330495 -0.00644293 -0.0414121  -0.021094 -0.0197744 -0.0263689  0 0 0  -0.011356 0.00212948 -0.022913  -0.0166132 -0.00833148 -0.0283442  -0.00495406 -0.00458832 -0.012254  0 0 0  -0.0142305 -0.0146198 -0.0222983  -0.015662 -0.0019461 -0.0252934  -0.0238794 -0.0146994 -0.0341158  -0.00739395 -0.0093517 -0.014297  0 0 0  -0.00586826 -0.00197741 -0.016052  -0.00811521 -0.00596031 -0.0183825  -0.0579752 -0.0169222 -0.0577409  -0.0693063 -0.0384896 -0.0553207  -0.0508985 -0.0370392 -0.0406783  -0.0552714 -0.0242589 -0.0517466  -0.0523195 -0.0413262 -0.0393598  -0.032768 -0.0106285 -0.0401552  -0.0400173 -0.0301692 -0.039109  -0.0260192 -0.0238844 -0.0289066  -0.052662 -0.0296488 -0.0501962  -0.0450026 -0.0135842 -0.0480568  -0.0534262 -0.0337486 -0.0466661  -0.0367059 -0.0296765 -0.0345755  -0.0284665 -0.0179778 -0.0352058  -0.0394042 -0.022846 -0.0421774  -0.0840548 -0.0401292 -0.0637889  -0.101981 -0.0662233 -0.0562494  -0.0864157 -0.0594081 -0.0482395  -0.0777715 -0.0556146 -0.0529411  -0.0825087 -0.0708552 -0.0414383  -0.0505469 -0.0369607 -0.0446646  -0.0628869 -0.0619973 -0.0401716  -0.0517149 -0.0514684 -0.034662  -0.0856844 -0.051139 -0.0568504  -0.0659339 -0.0384769 -0.0534  -0.080852 -0.0637538 -0.0478017  -0.0675625 -0.0549564 -0.0412259  -0.051358 -0.0448172 -0.0403512  -0.0670626 -0.0474821 -0.0481093  -0.113548 -0.0756358 -0.0606697  -0.13453 -0.10323 -0.0518618  -0.120688 -0.0909471 -0.0471997  -0.104128 -0.0965484 -0.0491841  -0.112295 -0.108899 -0.0388141  -0.0710583 -0.0745506 -0.0431647  -0.0871019 -0.102771 -0.0373576  -0.0771292 -0.0874694 -0.0341542  -0.118269 -0.0837597 -0.0544503  -0.0905493 -0.0750952 -0.0514445  -0.109179 -0.102942 -0.0443718  -0.0973888 -0.0889313 -0.0404868  -0.0747607 -0.0814122 -0.0390837  -0.0948753 -0.0823825 -0.0464492  -0.145201 -0.118615 -0.0544028  -0.16716 -0.147282 -0.0456576  -0.154154 -0.13034 -0.0426786  -0.132998 -0.144046 -0.0436709  -0.142272 -0.153717 -0.0343497  -0.0950218 -0.120228 -0.0391583  -0.11302 -0.150321 -0.0330791  -0.1032 -0.130912 -0.0309951  -0.150842 -0.124521 -0.0488753  -0.118313 -0.119582 -0.0465446  -0.13854 -0.148914 -0.0392294  -0.127246 -0.130547 -0.03671  -0.0998589 -0.125801 -0.0353334  -0.12374 -0.125196 -0.041918  -0.177869 -0.167112 -0.0472996  -0.199751 -0.196787 -0.0391703  -0.187088 -0.17601 -0.0370605  -0.163317 -0.196455 -0.0377305  -0.172499 -0.203997 -0.0294373  -0.12147 -0.171732 -0.0342674  -0.140325 -0.203145 -0.028378  -0.130223 -0.180295 -0.0269115  -0.183481 -0.171432 -0.0423901  -0.148027 -0.169682 -0.0406976  -0.168675 -0.200196 -0.0337064  -0.157353 -0.178227 -0.0318966  -0.126516 -0.17614 -0.0307393  -0.153535 -0.173965 -0.0364649  -0.210831 -0.220039 -0.0404143  -0.232232 -0.250805 -0.0330899  -0.219573 -0.22688 -0.031455  -0.194331 -0.252901 -0.0320418  -0.202879 -0.258803 -0.0247269  -0.149563 -0.227708 -0.0292983  -0.168599 -0.260234 -0.0238943  -0.158019 -0.23455 -0.022742  -0.216012 -0.223292 -0.0360656  -0.178756 -0.224194 -0.0348337  -0.199222 -0.255785 -0.0284514  -0.187665 -0.230865 -0.027045  -0.154358 -0.231194 -0.0261033  -0.183907 -0.227496 -0.0310302  -0.243778 -0.276811 -0.0340829  -0.264529 -0.308697 -0.0276132  -0.251747 -0.282122 -0.0262918  -0.225671 -0.312845 -0.026818  -0.233381 -0.317521 -0.0204468  -0.178627 -0.287407 -0.0246096  -0.197551 -0.320965 -0.0197461  -0.186451 -0.292857 -0.018842  -0.248418 -0.279301 -0.0302637  -0.209973 -0.282443 -0.0293634  -0.230027 -0.315127 -0.0236657  -0.218112 -0.287692 -0.0225241  -0.182996 -0.290171 -0.0217698  -0.214605 -0.285021 -0.0259907  -0.276534 -0.337005 -0.0284505  -0.296651 -0.370026 -0.0227835  -0.283642 -0.341212 -0.0217071  -0.257097 -0.375935 -0.0221529  -0.263937 -0.379652 -0.0166585  -0.208317 -0.350316 -0.0203464  -0.226957 -0.384857 -0.0160825  -0.215333 -0.354711 -0.0153406  -0.280616 -0.338971 -0.0251253  -0.241369 -0.344003 -0.0244195  -0.260919 -0.37773 -0.0194223  -0.248645 -0.348176 -0.0185013  -0.212203 -0.352534 -0.0178645  -0.245464 -0.346047 -0.0214813  -0.309071 -0.400316 -0.0234296  -0.328559 -0.434405 -0.018513  -0.315341 -0.403646 -0.0176654  -0.288536 -0.441834 -0.0179825  -0.294544 -0.444807 -0.0133097  -0.23836 -0.416096 -0.0165217  -0.256692 -0.451548 -0.0127859  -0.244594 -0.419614 -0.0122347  -0.312645 -0.401858 -0.0205724  -0.272816 -0.408536 -0.0200093  -0.291876 -0.443272 -0.0156517  -0.27923 -0.411862 -0.0149276  -0.241781 -0.417871 -0.0143876  -0.276398 -0.410159 -0.0174763  -0.341337 -0.466421 -0.0190005  -0.360265 -0.501509 -0.014744  -0.34682 -0.469086 -0.0141146  -0.31989 -0.510254 -0.0142846  -0.325133 -0.512605 -0.010355  -0.268653 -0.484399 -0.0131102  -0.286634 -0.520681 -0.0098989  -0.274108 -0.487242 -0.00949192  -0.344443 -0.467651 -0.0165737  -0.304214 -0.475734 -0.0160832  -0.322786 -0.511373 -0.0123217  -0.309834 -0.478388 -0.0117955  -0.271639 -0.485825 -0.0113034  -0.307337 -0.477026 -0.0139389  -0.37334 -0.535029 -0.0150316  -0.391715 -0.570996 -0.0113795  -0.378109 -0.537117 -0.0109618  -0.351138 -0.580868 -0.0109658  -0.355688 -0.582718 -0.00771761  -0.299051 -0.554939 -0.0100603  -0.316706 -0.591945 -0.00727892  -0.303825 -0.557183 -0.00704908  -0.376036 -0.535975 -0.0130033  -0.335527 -0.54529 -0.0125821  -0.35365 -0.581748 -0.00933886  -0.340412 -0.54738 -0.00899386  -0.30165 -0.556063 -0.0085547  -0.338232 -0.546299 -0.0107844  -0.405025 -0.60582 -0.0115092  -0.422903 -0.642562 -0.00837946  -0.409147 -0.607455 -0.0081594  -0.382196 -0.653398 -0.0080092  -0.386121 -0.654806 -0.0053637  -0.329509 -0.627388 -0.00733209  -0.346804 -0.665015 -0.00497532  -0.333629 -0.629167 -0.00487065  -0.407349 -0.606552 -0.0098393  -0.366681 -0.6169 -0.00944924  -0.384352 -0.654045 -0.00668383  -0.370914 -0.618526 -0.0065155  -0.331753 -0.628269 -0.00609899  -0.369021 -0.617679 -0.00797558  -0.436389 -0.678501 -0.0083251  -0.453752 -0.715884 -0.0056808  -0.439926 -0.679718 -0.00563955  -0.413038 -0.727518 -0.00534105  -0.4164 -0.728567 -0.00324035  -0.359902 -0.701475 -0.00488091  -0.376858 -0.739604 -0.00286174  -0.363465 -0.702817 -0.00290799  -0.438384 -0.679022 -0.00698209  -0.397644 -0.690262 -0.00664043  -0.414887 -0.727995 -0.00428534  -0.401277 -0.691483 -0.00426841  -0.361832 -0.702136 -0.00389171  -0.399649 -0.690835 -0.00544739  -0.467356 -0.752757 -0.00550032  -0.484248 -0.790673 -0.00326824  -0.470369 -0.753651 -0.00338483  -0.443572 -0.802966 -0.00296521  -0.446427 -0.803692 -0.0013361  -0.390187 -0.776884 -0.00268483  -0.406768 -0.815414 -0.00100422  -0.393215 -0.777895 -0.00114346  -0.469052 -0.753126 -0.00444293  -0.428334 -0.765082 -0.00412202  -0.445133 -0.803269 -0.00214672  -0.43144 -0.765969 -0.00226927  -0.391832 -0.77737 -0.00191045  -0.430046 -0.765488 -0.0031867  -0.497916 -0.828311 -0.00294685  -0.514311 -0.866632 -0.00110626  -0.500455 -0.828897 -0.00135136  -0.473772 -0.879438 -0.000829697  -0.476173 -0.879912 0.0003829  -0.420249 -0.853367 -0.000714064  -0.436471 -0.892184 0.000705481  -0.422827 -0.854058 0.000452042  -0.499347 -0.828523 -0.00214577  -0.458713 -0.841075 -0.00186849  -0.475087 -0.879625 -0.000217199  -0.461332 -0.841669 -0.00044775  -0.42164 -0.853693 -0.000128269  -0.460155 -0.841332 -0.00115013  -0.527995 -0.904871 -0.000705481  -0.543934 -0.9435 0.000807047  -0.530111 -0.905234 0.000458956  -0.503554 -0.9567 0.00104642  -0.505547 -0.956949 0.00191092  -0.450052 -0.930638 0.00103927  -0.46588 -0.969649 0.00218534  -0.452195 -0.9311 0.00188351  -0.529185 -0.904981 -0.000121593  -0.488705 -0.917974 0.000137091  -0.504636 -0.956764 0.0014832  -0.4909 -0.918335 0.00116301  -0.451212 -0.930841 0.00146556  -0.489912 -0.918116 0.000659227  -0.557592 -0.982189 0.00129747  -0.573049 -1.02101 0.00249195  -0.559327 -0.982338 0.00207543  -0.532907 -1.03448 0.00270724  -0.534539 -1.03457 0.00327301  -0.479493 -1.00848 0.00259256  -0.494951 -1.04759 0.00353789  -0.481281 -1.00871 0.0031662  -0.558568 -0.982189 0.00169134  -0.518283 -0.995524 0.0019052  -0.533793 -1.03448 0.00299597  -0.520086 -0.995687 0.00261974  -0.480451 -1.00857 0.00288105  -0.519271 -0.995567 0.00227046  -0.58664 -1.06 0.00299907  -0.60167 -1.09894 0.00394082  -0.588048 -1.06002 0.00347924  -0.56176 -1.11258 0.00412226  -0.563079 -1.11254 0.00445414  -0.508558 -1.08664 0.00394368  -0.523619 -1.12577 0.00467348  -0.510002 -1.08674 0.00429726  -0.587426 -1.05995 0.00324178  -0.547384 -1.07349 0.00344133  -0.562465 -1.1125 0.00429201  -0.548857 -1.07351 0.00387907  -0.509334 -1.08666 0.00412464  -0.548187 -1.07347 0.00366926  -0.615174 -1.13811 0.00447774  -0.629755 -1.17706 0.00516129  -0.616287 -1.138 0.00469804  -0.590139 -1.19078 0.00532985  -0.591185 -1.19065 0.0054729  -0.53717 -1.16493 0.00510645  -0.55187 -1.20402 0.00568199  -0.538348 -1.1649 0.00528622  -0.61579 -1.13799 0.00459194  -0.576007 -1.15166 0.00475121  -0.590692 -1.19067 0.00540614  -0.577179 -1.15157 0.00498939  -0.53779 -1.16489 0.00519633  -0.57664 -1.15158 0.00487733  -0.643132 -1.21628 0.00566149  -0.657363 -1.2552 0.00615048  -0.644026 -1.21611 0.00570846  -0.617994 -1.26889 0.00629044  -0.61882 -1.26872 0.00631642  -0.565331 -1.24317 0.00607204  -0.579673 -1.28214 0.00649285  -0.566263 -1.24308 0.00613213  -0.64362 -1.21615 0.00568438  -0.604112 -1.22984 0.00583625  -0.618419 -1.26877 0.00630546  -0.605051 -1.22969 0.00591087  -0.565823 -1.2431 0.00610614  -0.604611 -1.22975 0.0058825  -0.670615 -1.29435 0.00661969  -0.684478 -1.33315 0.00693965  -0.671321 -1.29415 0.00654697  -0.645369 -1.34676 0.0070734  -0.646064 -1.34659 0.00701332  -0.593009 -1.32121 0.00687957  -0.607049 -1.36003 0.00718212  -0.593771 -1.32106 0.00684142  -0.670989 -1.2942 0.00658822  -0.63174 -1.30785 0.00670075  -0.645723 -1.34667 0.00704217  -0.632485 -1.30768 0.00668621  -0.593405 -1.32111 0.0068562  -0.632127 -1.30775 0.00669479  -0.697614 -1.37211 0.00729585  -0.711296 -1.41084 0.00751781  -0.698223 -1.37197 0.00718856  -0.672293 -1.4243 0.00768566  -0.672974 -1.42418 0.00761271  -0.620185 -1.39894 0.00752115  -0.634004 -1.43755 0.00778985  -0.620891 -1.39877 0.00744963  -0.697907 -1.37205 0.00723767  -0.658877 -1.38557 0.0073812  -0.672631 -1.42422 0.00764561  -0.659536 -1.38541 0.00731683  -0.620557 -1.39884 0.00748324  -0.659207 -1.38549 0.00735331  -0.724321 -1.44957 0.00777769  -0.738017 -1.48815 0.00805736  -0.724944 -1.44943 0.0077219  -0.699057 -1.50154 0.00826311  -0.699653 -1.50144 0.00816989  -0.6471 -1.47621 0.00805545  -0.660728 -1.51477 0.00837469  -0.647694 -1.47611 0.00799179  -0.724648 -1.44949 0.00776148  -0.685682 -1.46296 0.00795555  -0.699373 -1.50149 0.00822163  -0.686299 -1.46281 0.00789309  -0.647366 -1.47616 0.00801635  -0.685991 -1.46285 0.00793314  0 0 0  -0.0165898 0.000148699 -0.0276165  -0.00963181 -0.00934908 -0.0178583  0 0 0  -0.00573146 0.00391209 -0.0142906  -0.00793706 -0.00414588 -0.0178883  -0.00228669 -0.00144973 -0.00784802  0 0 0  -0.00810073 0.00347194 -0.0182147  -0.0117714 -0.00536823 -0.0229213  -0.00329584 -0.0023852 -0.00994158  0 0 0  -0.0027925 0.000373125 -0.010236  -0.00401007 -0.000287399 -0.0130029  -0.0300983 -0.020702 -0.0351114  -0.0282749 -0.0334663 -0.0270846  -0.0158286 -0.00753362 -0.0253386  -0.0198957 -0.026583 -0.0250335  -0.0124409 -0.0182801 -0.0186105  -0.0234357 -0.00843 -0.0323713  -0.0290624 -0.027753 -0.0318782  -0.0184188 -0.0201277 -0.0236056  -0.0137195 -0.0136771 -0.0224323  -0.0203122 -0.0150176 -0.0285783  -0.0451117 -0.0539963 -0.0360506  -0.0487934 -0.0668963 -0.0287304  -0.0255758 -0.0355808 -0.0283434  -0.0338104 -0.060729 -0.0259073  -0.0270808 -0.0478825 -0.0225246  -0.0371695 -0.035942 -0.0362649  -0.0474132 -0.0609799 -0.0328822  -0.0384488 -0.0490919 -0.0284801  -0.0265756 -0.0424139 -0.0259552  -0.0380492 -0.0431447 -0.0329843  -0.063659 -0.0968871 -0.0337117  -0.070318 -0.108313 -0.026958  -0.038633 -0.0748083 -0.0275619  -0.0500496 -0.103722 -0.0241251  -0.0435972 -0.0866325 -0.0222313  -0.0539359 -0.0744096 -0.035187  -0.0676089 -0.102962 -0.0306385  -0.0593814 -0.0866798 -0.0281084  -0.0416173 -0.0812424 -0.025238  -0.0572371 -0.0810008 -0.0320368  -0.085419 -0.146772 -0.0300398  -0.0933079 -0.156358 -0.0238073  -0.0552047 -0.122339 -0.025049  -0.068805 -0.15366 -0.0212646  -0.0619517 -0.132767 -0.0201013  -0.0741751 -0.121073 -0.031986  -0.0899655 -0.151811 -0.0270975  -0.081625 -0.131591 -0.0254831  -0.0591137 -0.127931 -0.0227811  -0.0785233 -0.126646 -0.0289743  -0.109681 -0.201905 -0.0259225  -0.117716 -0.209754 -0.0202825  -0.0749138 -0.176051 -0.0218525  -0.0898926 -0.209009 -0.0180845  -0.0822752 -0.184878 -0.0172901  -0.0972841 -0.173754 -0.0280061  -0.114217 -0.205982 -0.0232005  -0.105339 -0.18245 -0.0220637  -0.0790812 -0.180733 -0.0196917  -0.10188 -0.178307 -0.0251701  -0.135689 -0.261141 -0.0218768  -0.143351 -0.267527 -0.0168409  -0.0971343 -0.234502 -0.0184915  -0.112916 -0.268697 -0.0149624  -0.104415 -0.241834 -0.0143878  -0.122498 -0.231046 -0.0238731  -0.139949 -0.264445 -0.0194066  -0.130396 -0.238133 -0.0185404  -0.101187 -0.238363 -0.0165043  -0.126921 -0.234734 -0.0212841  -0.162953 -0.323823 -0.018085  -0.169951 -0.329014 -0.0136871  -0.121276 -0.296743 -0.0152686  -0.137493 -0.33196 -0.012068  -0.12811 -0.302794 -0.011632  -0.149188 -0.292073 -0.0199497  -0.166799 -0.32649 -0.0159101  -0.156535 -0.297836 -0.0152302  -0.125034 -0.299915 -0.0134852  -0.153254 -0.295054 -0.0176253  -0.191056 -0.389454 -0.0146613  -0.197347 -0.393679 -0.010864  -0.146864 -0.362154 -0.0122805  -0.163286 -0.398266 -0.00945807  -0.153086 -0.367137 -0.00914478  -0.176909 -0.356281 -0.0163286  -0.194487 -0.391627 -0.0127692  -0.183561 -0.360969 -0.0122375  -0.150254 -0.36476 -0.0107269  -0.180551 -0.358706 -0.0143027  -0.219805 -0.457689 -0.011574  -0.225351 -0.461126 -0.00836492  -0.173548 -0.430272 -0.00959587  -0.190046 -0.467169 -0.00712824  -0.179111 -0.434372 -0.00691605  -0.20536 -0.423257 -0.0130901  -0.22281 -0.459444 -0.0099721  -0.211273 -0.427075 -0.00958204  -0.176561 -0.432413 -0.00826287  -0.20858 -0.425223 -0.0113392  -0.248971 -0.528175 -0.00883079  -0.253853 -0.530956 -0.00614166  -0.201068 -0.500727 -0.00717425  -0.217552 -0.538313 -0.00505328  -0.205981 -0.50409 -0.00495052  -0.234337 -0.492658 -0.0101674  -0.251607 -0.5296 -0.00748181  -0.239548 -0.495758 -0.00722384  -0.203717 -0.502482 -0.00606132  -0.237157 -0.494259 -0.0086987  -0.278472 -0.600622 -0.00635791  -0.2827 -0.602854 -0.00416136  -0.229223 -0.57318 -0.00502253  -0.24564 -0.611344 -0.00319552  -0.233525 -0.57592 -0.00318384  -0.263685 -0.564162 -0.00757742  -0.280746 -0.601753 -0.00525618  -0.268232 -0.566664 -0.00512862  -0.231535 -0.574608 -0.00410199  -0.266142 -0.565446 -0.00634718  -0.30813 -0.674709 -0.00415754  -0.311806 -0.67647 -0.00237966  -0.257845 -0.647321 -0.00307703  -0.274142 -0.685964 -0.00153089  -0.261581 -0.649534 -0.00161576  -0.293279 -0.637467 -0.00523138  -0.310103 -0.675605 -0.00326109  -0.297229 -0.63946 -0.00324917  -0.259848 -0.648474 -0.00234079  -0.295405 -0.638494 -0.00423908  -0.337894 -0.750167 -0.00216413  -0.341026 -0.751529 -0.000776291  -0.286785 -0.722854 -0.00134873  -0.302926 -0.761862 -3.12328e-05  -0.290006 -0.724612 -0.000187159  -0.323004 -0.712275 -0.00315285  -0.339569 -0.750845 -0.00146556  -0.3264 -0.713835 -0.00156236  -0.288509 -0.723767 -0.000764847  -0.324831 -0.713069 -0.00234962  -0.367598 -0.8267 -0.000390768  -0.370284 -0.827716 0.000676632  -0.315908 -0.7995 0.000222683  -0.331849 -0.838778 0.00132251  -0.31866 -0.800868 0.00109076  -0.35275 -0.788304 -0.00125718  -0.369033 -0.827208 0.000150919  -0.355658 -0.789492 -3.33786e-05  -0.317378 -0.800209 0.000662804  -0.354308 -0.788912 -0.000643253  -0.397209 -0.904064 0.00121236  -0.399448 -0.904794 0.00198674  -0.345088 -0.876992 0.00161839  -0.360802 -0.916434 0.00254369  -0.34742 -0.878025 0.00226665  -0.382419 -0.865284 0.000413895  -0.398398 -0.904412 0.00160432  -0.384875 -0.866158 0.00134373  -0.346331 -0.877524 0.00194621  -0.383734 -0.865721 0.000886917  -0.426574 -0.982001 0.00262547  -0.428461 -0.982485 0.0031693  -0.374215 -0.955089 0.00288463  -0.389668 -0.994616 0.00364208  -0.376168 -0.955839 0.00331712  -0.411918 -0.942964 0.00193644  -0.427575 -0.982232 0.00290513  -0.41398 -0.943571 0.00259233  -0.375253 -0.955473 0.00310683  -0.413017 -0.943269 0.00226617  -0.455686 -1.0603 0.00388622  -0.457213 -1.06059 0.00422502  -0.403185 -1.03356 0.00399828  -0.41836 -1.07308 0.00462246  -0.404804 -1.03408 0.00428319  -0.441163 -1.02111 0.00325537  -0.456488 -1.06042 0.00406051  -0.442865 -1.0215 0.00370765  -0.404043 -1.03382 0.00414467  -0.442069 -1.02129 0.00348926  -0.484411 -1.13874 0.00497079  -0.485677 -1.13888 0.00516152  -0.431917 -1.11221 0.00498962  -0.446797 -1.15166 0.00548673  -0.433243 -1.11253 0.00513005  -0.470092 -1.0995 0.00444365  -0.485072 -1.1388 0.00507283  -0.471486 -1.09972 0.00470638  -0.432616 -1.11237 0.00506449  -0.470827 -1.09961 0.00457573  -0.512776 -1.21716 0.00590658  -0.51377 -1.2172 0.00597477  -0.460337 -1.19084 0.00584793  -0.474915 -1.23016 0.00624752  -0.461413 -1.19102 0.00590539  -0.498637 -1.17796 0.00543666  -0.513283 -1.21715 0.00594568  -0.499762 -1.17804 0.0055778  -0.460898 -1.19093 0.00587988  -0.499227 -1.17799 0.00551414  -0.540666 -1.29539 0.00667334  -0.541497 -1.29535 0.00667763  -0.488391 -1.26932 0.00658751  -0.502674 -1.30845 0.00690436  -0.489268 -1.26938 0.00656748  -0.526778 -1.2563 0.00630713  -0.541086 -1.29535 0.00667977  -0.527683 -1.25629 0.0063436  -0.488848 -1.26934 0.00658226  -0.527242 -1.25629 0.00632596  -0.568131 -1.37334 0.0073576  -0.568812 -1.37323 0.00728941  -0.516058 -1.34748 0.00720859  -0.530024 -1.38641 0.00746989  -0.516747 -1.34748 0.00716615  -0.554451 -1.3344 0.00702167  -0.568476 -1.37326 0.00732398  -0.555194 -1.33432 0.00700021  -0.516401 -1.34748 0.00718832  -0.554832 -1.33434 0.00701499  -0.595101 -1.45086 0.00799251  -0.59575 -1.45074 0.00785613  -0.543218 -1.42529 0.00777793  -0.557027 -1.46392 0.00801301  -0.543875 -1.42522 0.00770307  -0.581662 -1.41214 0.00764608  -0.595441 -1.45079 0.00792933  -0.582325 -1.41205 0.00756836  -0.543567 -1.42524 0.00774455  -0.58202 -1.41209 0.00760293  -0.621783 -1.52794 0.00859451  -0.622415 -1.52787 0.00840187  -0.57008 -1.50255 0.00830722  -0.583675 -1.54094 0.00854826  -0.57066 -1.50248 0.0082345  -0.608466 -1.48946 0.00817776  -0.622132 -1.52792 0.00849223  -0.609125 -1.48937 0.00809884  -0.570413 -1.50251 0.00827408  -0.608804 -1.48941 0.00814223  0 0 0  -0.00693066 0.000684261 -0.0150988  -0.00377568 -0.00735989 -0.0102077  0 0 0  -0.00175774 0.00304329 -0.00608873  -0.00192134 -0.00471163 -0.00796652  -0.000553533 -0.00153121 -0.00359178  0 0 0  -0.00356533 0.00366345 -0.0100498  -0.0047223 -0.00407571 -0.0128214  -0.00130851 -0.00125322 -0.00568748  0 0 0  -0.000704125 -7.37309e-05 -0.00453329  -0.00164477 0.000348806 -0.00732279  -0.0121232 -0.0202188 -0.0196962  -0.0120904 -0.0313111 -0.0156913  -0.00379121 -0.00870273 -0.0112464  -0.00518881 -0.0274864 -0.0116553  -0.00321348 -0.018219 -0.00876284  -0.00943956 -0.00770769 -0.0180676  -0.012128 -0.0265421 -0.0182104  -0.00752631 -0.0177509 -0.0136006  -0.00336847 -0.0142857 -0.0102873  -0.00821608 -0.0135403 -0.0162175  -0.0196388 -0.0547788 -0.020462  -0.0230481 -0.0665167 -0.0168056  -0.00624862 -0.0374272 -0.0129938  -0.0106279 -0.062767 -0.0123065  -0.00845712 -0.0486616 -0.0108678  -0.0154301 -0.0360611 -0.0204864  -0.0217046 -0.0612987 -0.0190039  -0.0172866 -0.0477533 -0.0166051  -0.00756314 -0.0438088 -0.0122585  -0.0165949 -0.0426422 -0.0189745  -0.0307788 -0.09917 -0.0191896  -0.0362919 -0.110139 -0.0157259  -0.0118831 -0.0778051 -0.0127511  -0.0190209 -0.107296 -0.011416  -0.0162436 -0.0890191 -0.0107753  -0.0247491 -0.075916 -0.0200229  -0.0339898 -0.105137 -0.0176938  -0.0293779 -0.0873937 -0.0164354  -0.0144282 -0.0840194 -0.012002  -0.0274894 -0.082234 -0.0185215  -0.0454349 -0.150809 -0.016978  -0.0519529 -0.160459 -0.0137172  -0.0212037 -0.126722 -0.0114717  -0.030564 -0.158941 -0.00982332  -0.0268034 -0.137013 -0.00958061  -0.0376803 -0.124194 -0.0181589  -0.0491326 -0.155991 -0.0154946  -0.0438123 -0.134547 -0.0147872  -0.0243906 -0.132324 -0.0106802  -0.0412058 -0.129795 -0.0166605  -0.0632432 -0.207999 -0.0144284  -0.0699788 -0.216223 -0.0114126  -0.0340918 -0.182083 -0.00971651  -0.0451779 -0.2162 -0.00797987  -0.0401911 -0.191117 -0.0079267  -0.0539778 -0.178788 -0.0157189  -0.0669928 -0.212367 -0.0130019  -0.0606836 -0.187727 -0.0125782  -0.0374985 -0.186939 -0.00891757  -0.0577424 -0.183575 -0.0142579  -0.083622 -0.269487 -0.0118341  -0.0901439 -0.276394 -0.00914025  -0.0501689 -0.242431 -0.00780177  -0.0625179 -0.277937 -0.00613022  -0.0562615 -0.250173 -0.00618005  -0.0731394 -0.238251 -0.0131044  -0.0872034 -0.273136 -0.0105348  -0.079807 -0.245806 -0.0102608  -0.0535222 -0.246558 -0.00704551  -0.0768295 -0.24226 -0.0117481  -0.1061 -0.334491 -0.00938749  -0.112139 -0.340254 -0.00702667  -0.068942 -0.306735 -0.00592422  -0.082224 -0.343322 -0.00439405  -0.0747293 -0.31329 -0.00449824  -0.0946275 -0.30158 -0.0105798  -0.109382 -0.337518 -0.00822806  -0.100932 -0.307899 -0.0080595  -0.0720944 -0.310209 -0.00524378  -0.0980712 -0.304923 -0.00935078  -0.130192 -0.40239 -0.00713348  -0.135676 -0.407182 -0.00513172  -0.089943 -0.374256 -0.0041666  -0.103878 -0.411716 -0.0028193  -0.0952671 -0.37977 -0.0029695  -0.117961 -0.368096 -0.00821567  -0.133151 -0.404906 -0.006145  -0.123726 -0.373362 -0.00604987  -0.0928195 -0.377169 -0.00358343  -0.121088 -0.370868 -0.00715113  -0.15561 -0.472766 -0.00511432  -0.16048 -0.476742 -0.00343776  -0.112755 -0.444438 -0.00257611  -0.127175 -0.482615 -0.00141096  -0.117555 -0.449057 -0.00159383  -0.142753 -0.437283 -0.00609279  -0.158223 -0.474845 -0.00427723  -0.147934 -0.441655 -0.00425982  -0.115334 -0.446872 -0.00209475  -0.145542 -0.439588 -0.00517917  -0.182024 -0.545212 -0.00329399  -0.18633 -0.54849 -0.00193739  -0.137041 -0.516837 -0.0011456  -0.151782 -0.5556 -0.000157118  -0.141303 -0.520689 -0.000380039  -0.1687 -0.50874 -0.0041647  -0.184326 -0.546929 -0.00261688  -0.173283 -0.512362 -0.0026629  -0.139321 -0.518864 -0.00076437  -0.17116 -0.510642 -0.00341654  -0.209265 -0.619418 -0.00167489  -0.213008 -0.622106 -0.00058794  -0.162507 -0.591073 0.000127077  -0.177482 -0.6303 0.000962973  -0.166251 -0.594266 0.000711679  -0.195552 -0.582106 -0.00246167  -0.211259 -0.620818 -0.00112605  -0.199577 -0.585083 -0.00124431  -0.164504 -0.59275 0.000417471  -0.197703 -0.583675 -0.00184655  -0.237082 -0.695048 -0.000211954  -0.240337 -0.697221 0.000619888  -0.188913 -0.66681 0.00127125  -0.204008 -0.706392 0.00196862  -0.192168 -0.669433 0.00168324  -0.223105 -0.657062 -0.000910759  -0.238812 -0.696183 0.000206232  -0.226597 -0.659493 3.55244e-05  -0.190643 -0.668186 0.00148034  -0.224968 -0.658336 -0.000435352  -0.265361 -0.771835 0.00109291  -0.268136 -0.773573 0.00172162  -0.216036 -0.743742 0.00229263  -0.231197 -0.783569 0.0028789  -0.218842 -0.74587 0.00257206  -0.251173 -0.733306 0.000456572  -0.266831 -0.772735 0.0014143  -0.254187 -0.735258 0.00118399  -0.217525 -0.744856 0.00243282  -0.252775 -0.734334 0.000829697  -0.293885 -0.849491 0.00227952  -0.29626 -0.850842 0.00271678  -0.243689 -0.821589 0.00322032  -0.258824 -0.861565 0.00370407  -0.246083 -0.823288 0.00337458  -0.279594 -0.81056 0.00171375  -0.29514 -0.850192 0.00250125  -0.282162 -0.812107 0.00223494  -0.244955 -0.822475 0.00330257  -0.280958 -0.811367 0.00197792  -0.322569 -0.927783 0.00333738  -0.324551 -0.928813 0.00363398  -0.271691 -0.900093 0.00405335  -0.286763 -0.940126 0.0044601  -0.273714 -0.901421 0.00412011  -0.308213 -0.888563 0.00282121  -0.323612 -0.928309 0.00349283  -0.310392 -0.889752 0.00318599  -0.272757 -0.900783 0.00408769  -0.309365 -0.889189 0.00301385  -0.351232 -1.00647 0.00430083  -0.352897 -1.00721 0.00446367  -0.299885 -0.979027 0.00481439  -0.314826 -1.01903 0.00515151  -0.301579 -0.980033 0.00480175  -0.336904 -0.96708 0.00384355  -0.352105 -1.00685 0.00438499  -0.338721 -0.967973 0.00406241  -0.300774 -0.979544 0.00481296  -0.337862 -0.967541 0.00395679  -0.379818 -1.08535 0.00514388  -0.38117 -1.08587 0.00522304  -0.328144 -1.05816 0.00549817  -0.342922 -1.09808 0.00577521  -0.329539 -1.0589 0.00543594  -0.365538 -1.04589 0.00473571  -0.380519 -1.08561 0.00518942  -0.367047 -1.04652 0.00485301  -0.328872 -1.05854 0.00546741  -0.36633 -1.04622 0.00480485  -0.408175 -1.16424 0.00591063  -0.409293 -1.16457 0.00590372  -0.356317 -1.13735 0.00611734  -0.370904 -1.17708 0.00636077  -0.357478 -1.13785 0.00601768  -0.394023 -1.12479 0.00554824  -0.408755 -1.1644 0.00590873  -0.395254 -1.12523 0.00557661  -0.356918 -1.13759 0.00607276  -0.394663 -1.12501 0.00556517  -0.436285 -1.24298 0.00655389  -0.437172 -1.24316 0.0065217  -0.384359 -1.21635 0.00667143  -0.398725 -1.25592 0.00685549  -0.385288 -1.2167 0.00655389  -0.422258 -1.20362 0.00624776  -0.436735 -1.24306 0.00654292  -0.423266 -1.20388 0.00622272  -0.38484 -1.21652 0.00661111  -0.422782 -1.20376 0.00624347  -0.46403 -1.32143 0.00715828  -0.464775 -1.32151 0.00706673  -0.412114 -1.29514 0.00716448  -0.426237 -1.33441 0.0073595  -0.412896 -1.29531 0.0070374  -0.450204 -1.28224 0.00687146  -0.464399 -1.32146 0.00711465  -0.451013 -1.28238 0.0068078  -0.412498 -1.29522 0.00710344  -0.450609 -1.28231 0.00684118  -0.491459 -1.39951 0.00762963  -0.492022 -1.39953 0.00758672  -0.439649 -1.37348 0.00760531  -0.45349 -1.41252 0.00777984  -0.440243 -1.37356 0.00750303  -0.477779 -1.36051 0.00740433  -0.491707 -1.39949 0.00762534  -0.478434 -1.36055 0.0073266  -0.439922 -1.37352 0.00756812  -0.478101 -1.36054 0.00737691  -0.518326 -1.47716 0.00823712  -0.518872 -1.47698 0.00803709  -0.466734 -1.45142 0.00808907  -0.480317 -1.49 0.00815845  -0.467269 -1.45139 0.00797963  -0.504947 -1.43833 0.00790548  -0.518614 -1.47701 0.00812769  -0.505517 -1.43834 0.00781655  -0.466957 -1.45136 0.00804687  -0.505223 -1.43833 0.00784755  -0.544816 -1.55419 0.0086751  -0.545441 -1.55401 0.00857711  -0.493078 -1.52875 0.00861073  -0.506775 -1.56696 0.00852251  -0.493873 -1.52877 0.00838208  -0.531562 -1.51567 0.00839996  -0.545138 -1.55399 0.00869679  -0.532228 -1.5156 0.00829625  -0.493665 -1.52872 0.0084157  -0.531971 -1.51567 0.00831366  0 0 0  0.000492245 -0.00159079 -0.00319409  0.000599012 -0.00872731 -0.00280666  0 0 0  0.00141317 0.00105417 0.00181508  0.00314145 -0.00756055 0.00151134  0.000878952 -0.00296372 0.000611305  0 0 0  -9.86755e-05 0.00216469 -0.00208735  0.000672191 -0.00589854 -0.00316072  0.000186831 -0.00210857 -0.00147486  0 0 0  0.00102121 -0.0017781 0.00105071  0.000189826 -0.000811189 -0.00171924  0.00210091 -0.0233793 -0.00501847  0.000540942 -0.0335332 -0.00476074  0.0063456 -0.0128047 0.00215578  0.00739264 -0.0318808 0.00107479  0.0045913 -0.0214964 0.000688791  0.00140542 -0.0104282 -0.00442696  0.00123376 -0.0292868 -0.00518417  0.000778854 -0.0195076 -0.00397682  0.00539725 -0.0179986 0.00127316  0.00111113 -0.0158146 -0.00442123  0.00171137 -0.058841 -0.00556731  -0.00170818 -0.0699175 -0.00530887  0.0105098 -0.0427266 0.00166225  0.00975168 -0.0683114 0.000745773  0.00762087 -0.0532722 0.000317097  0.00229329 -0.0396551 -0.00552869  -0.000252962 -0.0650992 -0.00567937  -0.00026381 -0.0505222 -0.00519633  0.00890803 -0.0488021 0.000818968  0.000833601 -0.0458853 -0.00561929  -0.00214258 -0.104327 -0.00516772  -0.0068478 -0.115016 -0.00486398  0.0120252 -0.0840617 0.00150228  0.00895065 -0.113975 0.000890732  0.00803855 -0.0948847 0.000285864  0.000258148 -0.0805053 -0.00551057  -0.00481075 -0.110225 -0.00519013  -0.00388691 -0.0915172 -0.00518203  0.00979394 -0.0901322 0.000747442  -0.00211406 -0.0866541 -0.00554585  -0.00977993 -0.157262 -0.00424767  -0.0151747 -0.166976 -0.00388098  0.00980788 -0.134002 0.00174427  0.00448716 -0.166882 0.00137091  0.00509673 -0.144215 0.000655174  -0.00548184 -0.129971 -0.00477791  -0.0127909 -0.162545 -0.0041759  -0.0106113 -0.140225 -0.00441718  0.0071882 -0.139625 0.00109315  -0.0083648 -0.135595 -0.00473952  -0.0210919 -0.215991 -0.00306368  -0.0266601 -0.224515 -0.002707  0.00362903 -0.190574 0.00223112  -0.00366449 -0.225574 0.00200844  -0.0013991 -0.199787 0.00126672  -0.0149971 -0.185981 -0.00368786  -0.0241565 -0.220572 -0.00295925  -0.020528 -0.19512 -0.00330925  0.000859618 -0.195582 0.00167465  -0.0180657 -0.190926 -0.00358987  -0.0356526 -0.279234 -0.00182939  -0.04109 -0.286582 -0.00150657  -0.0063042 -0.252366 0.00284028  -0.01524 -0.288924 0.00268221  -0.0113284 -0.260458 0.00194764  -0.0279875 -0.2471 -0.00244641  -0.0386134 -0.283162 -0.00171018  -0.0335281 -0.255032 -0.00210428  -0.0090453 -0.256728 0.00234652  -0.031019 -0.251361 -0.00233722  -0.0530501 -0.346127 -0.000624657  -0.0581281 -0.352392 -0.000391006  -0.0196056 -0.318299 0.00345349  -0.0298811 -0.356032 0.00332046  -0.0244048 -0.325304 0.00262713  -0.0440263 -0.312263 -0.0012238  -0.0557913 -0.349455 -0.000536203  -0.0492991 -0.319064 -0.0009408  -0.0222043 -0.322055 0.00300813  -0.0468889 -0.315893 -0.00111771  -0.0727845 -0.415948 0.0004704  -0.0774356 -0.421258 0.000623226  -0.0358264 -0.387557 0.00403976  -0.0471691 -0.426189 0.00389361  -0.0402726 -0.393563 0.00323415  -0.0626438 -0.380696 -6.03199e-05  -0.0752802 -0.418767 0.000533581  -0.0675212 -0.386472 0.000128984  -0.0382189 -0.390768 0.00361824  -0.0652689 -0.383775 8.34465e-06  -0.0945094 -0.488197 0.00146723  -0.0986611 -0.492677 0.0015161  -0.0545328 -0.45949 0.00454783  -0.0667275 -0.498813 0.00439334  -0.0585599 -0.464611 0.00378275  -0.083421 -0.45179 0.000975609  -0.0967256 -0.490565 0.00148177  -0.0878226 -0.45668 0.00108004  -0.0566894 -0.462222 0.0041523  -0.0857812 -0.454386 0.00101638  -0.117821 -0.562403 0.00234103  -0.121507 -0.566158 0.00231552  -0.0753244 -0.533585 0.00500464  -0.0881829 -0.573431 0.00482774  -0.0789123 -0.537924 0.00424886  -0.105979 -0.525069 0.00191975  -0.119781 -0.564392 0.00232649  -0.1099 -0.529178 0.00192642  -0.0772389 -0.535898 0.00462079  -0.10807 -0.527255 0.00191212  -0.142477 -0.638218 0.00313044  -0.145679 -0.641348 0.00302339  -0.0978495 -0.609405 0.00538301  -0.111227 -0.649628 0.00520802  -0.101002 -0.61306 0.00467253  -0.129998 -0.600122 0.00273657  -0.144173 -0.639868 0.00307369  -0.133437 -0.603564 0.00267506  -0.0995269 -0.611352 0.00502276  -0.131828 -0.601946 0.00270438  -0.168151 -0.715283 0.00382376  -0.170937 -0.717862 0.00367022  -0.121794 -0.686583 0.00573087  -0.135552 -0.727062 0.00554776  -0.124532 -0.689636 0.00503874  -0.155193 -0.676602 0.00348783  -0.169623 -0.716646 0.00374961  -0.158188 -0.679452 0.00335407  -0.123246 -0.68821 0.00538421  -0.15678 -0.678119 0.00341582  -0.194672 -0.793324 0.00446129  -0.197036 -0.795429 0.00425577  -0.146878 -0.764791 0.00602365  -0.160913 -0.805411 0.00585842  -0.149227 -0.767318 0.00538969  -0.181319 -0.754189 0.00413823  -0.195916 -0.794429 0.00435853  -0.183889 -0.756534 0.00396466  -0.14812 -0.766137 0.0057056  -0.182679 -0.75543 0.00405407  -0.221761 -0.872051 0.00502825  -0.223783 -0.873733 0.00480366  -0.172848 -0.843749 0.00630689  -0.187056 -0.884414 0.00615096  -0.174843 -0.845808 0.00570321  -0.208149 -0.832607 0.00475097  -0.222822 -0.872938 0.00492001  -0.210342 -0.834498 0.00453377  -0.1739 -0.844845 0.00600648  -0.209303 -0.833614 0.00463939  -0.249301 -0.951244 0.00555944  -0.250971 -0.952569 0.00531149  -0.199482 -0.923193 0.00656033  -0.213785 -0.963813 0.00643158  -0.201156 -0.92485 0.00602412  -0.235486 -0.911594 0.00528502  -0.250171 -0.951934 0.00543666  -0.237327 -0.913102 0.00505686  -0.200361 -0.924075 0.00629258  -0.236453 -0.91239 0.00517511  -0.277044 -1.03066 0.00604033  -0.278452 -1.03167 0.00579476  -0.226577 -1.00291 0.00681043  -0.240895 -1.04341 0.00670791  -0.227967 -1.0042 0.00631738  -0.263148 -0.990926 0.00580359  -0.277773 -1.03119 0.00592136  -0.264686 -0.992089 0.00555634  -0.227304 -1.0036 0.00656509  -0.26395 -0.991545 0.00567722  -0.304924 -1.11013 0.00648928  -0.306058 -1.11088 0.00624561  -0.253957 -1.08268 0.00705957  -0.268235 -1.12299 0.0069778  -0.255094 -1.08368 0.0066328  -0.290975 -1.0704 0.00625396  -0.305505 -1.11052 0.00636864  -0.292241 -1.07128 0.00601935  -0.254545 -1.08321 0.00684786  -0.291634 -1.07086 0.00614071  -0.332741 -1.18947 0.00688696  -0.333681 -1.18999 0.00667572  -0.281455 -1.16236 0.00728512  -0.295647 -1.20244 0.00725651  -0.282387 -1.16308 0.00691676  -0.318841 -1.14982 0.00669861  -0.333208 -1.18973 0.00678563  -0.319873 -1.15045 0.00646806  -0.281942 -1.16273 0.00710177  -0.319367 -1.15015 0.00658226  -0.360454 -1.26854 0.00728869  -0.361199 -1.26892 0.00708151  -0.308978 -1.24176 0.00753999  -0.32302 -1.28156 0.00752378  -0.309712 -1.24229 0.00723863  -0.346612 -1.22904 0.00708127  -0.360824 -1.26874 0.00718474  -0.347454 -1.22949 0.00688267  -0.30934 -1.24205 0.00739098  -0.347039 -1.22928 0.00698948  -0.387898 -1.34726 0.00768709  -0.388538 -1.34744 0.00748944  -0.336357 -1.3208 0.00778198  -0.350224 -1.36025 0.00780916  -0.336971 -1.32112 0.00752521  -0.374222 -1.30795 0.00746655  -0.388194 -1.34731 0.00758839  -0.374891 -1.30822 0.00728512  -0.336661 -1.32095 0.00765371  -0.374546 -1.30808 0.00737  -0.415023 -1.42555 0.00800848  -0.415643 -1.42559 0.00785041  -0.363611 -1.39943 0.00800991  -0.377292 -1.43849 0.00805473  -0.364063 -1.39959 0.00788116  -0.40153 -1.3865 0.00779152  -0.415354 -1.42551 0.00791836  -0.402122 -1.38657 0.00765467  -0.363788 -1.39947 0.00795722  -0.401823 -1.38649 0.00772166  -0.442095 -1.50305 0.00788188  -0.442494 -1.50312 0.00820661  -0.390509 -1.47736 0.00819468  -0.404091 -1.51631 0.00834417  -0.390838 -1.47738 0.00812888  -0.42856 -1.46441 0.00822616  -0.442106 -1.5031 0.00806308  -0.429033 -1.46437 0.00807214  -0.390712 -1.47735 0.00815749  -0.428746 -1.46438 0.00819397  -0.468826 -1.57967 0.00886941  -0.468897 -1.5801 0.00858712  -0.417064 -1.55461 0.00842237  -0.430434 -1.59288 0.00860572  -0.417428 -1.55462 0.00847626  -0.455434 -1.54137 0.00855231  -0.468512 -1.57996 0.00859618  -0.455738 -1.54166 0.00851965  -0.417202 -1.55477 0.00843453  -0.455485 -1.54171 0.00865674  0 0 0  0.00707695 -0.00577563 0.00819016  0.00467172 -0.0121599 0.00433302  0 0 0  0.00418727 -0.00193167 0.00938845  0.00813165 -0.0122883 0.0105226  0.00231504 -0.00546461 0.00468183  0 0 0  0.00283501 -0.000299037 0.00563288  0.00560509 -0.00967568 0.006078  0.00158197 -0.00406295 0.00266767  0 0 0  0.00269258 -0.00443518 0.006464  0.00184496 -0.00297832 0.00378108  0.0151068 -0.0297251 0.00888872  0.0121901 -0.0391526 0.00565267  0.0161251 -0.0195764 0.0148015  0.0198037 -0.0394078 0.0130079  0.012432 -0.0275273 0.00959516  0.0112044 -0.0158515 0.00858593  0.0135272 -0.0352513 0.00716352  0.00843753 -0.0241659 0.00523019  0.0140631 -0.0243278 0.0121558  0.0096758 -0.0208368 0.0068202  0.0215773 -0.0663868 0.00866771  0.0180635 -0.0769407 0.00567579  0.0269598 -0.0514497 0.015491  0.0297229 -0.0773098 0.0130908  0.0234707 -0.0613639 0.010844  0.0186577 -0.0466679 0.00872755  0.0196668 -0.0723787 0.00703406  0.0154725 -0.056894 0.00569081  0.0251135 -0.0571495 0.0131238  0.0169309 -0.052565 0.00710249  0.0247894 -0.11276 0.00836635  0.0206782 -0.1232 0.00563812  0.0354651 -0.0937909 0.0151341  0.0362053 -0.123951 0.0127153  0.0317221 -0.104211 0.0108182  0.0236704 -0.0885015 0.00845766  0.0225397 -0.118551 0.00689387  0.0198217 -0.0991218 0.00564146  0.0334649 -0.0996286 0.0129077  0.0215722 -0.0944678 0.00693965  0.023971 -0.16664 0.00821781  0.0194877 -0.176359 0.00572133  0.0400854 -0.144511 0.0145643  0.0385615 -0.177806 0.01228  0.036073 -0.154567 0.0105464  0.0249066 -0.138855 0.00826669  0.0215218 -0.171956 0.00688386  0.0205749 -0.148997 0.00566745  0.0379226 -0.15005 0.0124919  0.0225308 -0.144446 0.0068748  0.0190132 -0.22652 0.00816464  0.0144462 -0.235245 0.00589752  0.0403806 -0.201988 0.013972  0.0366711 -0.237609 0.0118608  0.0362391 -0.211248 0.0102646  0.021999 -0.195906 0.00818253  0.016534 -0.231239 0.00697446  0.017436 -0.205154 0.00580502  0.0381443 -0.207029 0.0120661  0.0195151 -0.200947 0.00692725  0.0102195 -0.291127 0.00817275  0.00575876 -0.298804 0.00609255  0.036413 -0.264894 0.0133986  0.0307639 -0.302239 0.0114553  0.0323175 -0.273186 0.00999212  0.0150782 -0.258286 0.0081799  0.00781226 -0.295257 0.00708985  0.0105441 -0.266497 0.00599861  0.034209 -0.269375 0.0116575  0.0126187 -0.262721 0.00703931  -0.00205588 -0.359544 0.0081749  -0.0062378 -0.366211 0.00627923  0.0284987 -0.332135 0.0128365  0.0211538 -0.370764 0.011055  0.0245878 -0.339436 0.00973272  0.0044896 -0.324904 0.00818515  -0.00429827 -0.36311 0.00720191  0.000148714 -0.332074 0.00619149  0.0264021 -0.336059 0.011256  0.00215489 -0.328763 0.00715709  -0.0173209 -0.430963 0.00817275  -0.0211688 -0.436706 0.00642657  0.0170466 -0.402821 0.012289  0.00828362 -0.442395 0.0106556  0.0134172 -0.409178 0.00946379  -0.00933599 -0.394908 0.00819683  -0.0193747 -0.434032 0.0072794  -0.0133562 -0.401111 0.00636172  0.01511 -0.406227 0.0108581  -0.011492 -0.39823 0.00725508  -0.0351993 -0.50481 0.00813508  -0.03864 -0.509724 0.0065465  0.0025003 -0.476229 0.0117469  -0.00746441 -0.51649 0.0102603  -0.000793457 -0.481719 0.00919938  -0.0259585 -0.467609 0.00816607  -0.0370264 -0.507425 0.00733137  -0.0296111 -0.472931 0.0064919  0.00074935 -0.479163 0.0104587  -0.0279043 -0.470461 0.0073173  -0.0552341 -0.580543 0.00808764  -0.0582926 -0.584719 0.0066328  -0.0147119 -0.551769 0.0112245  -0.0256484 -0.592513 0.00987577  -0.0176456 -0.556479 0.00892973  -0.0449632 -0.542456 0.00813293  -0.0568528 -0.582769 0.00735092  -0.0482111 -0.547 0.00659657  -0.0162652 -0.554283 0.0100696  -0.0466903 -0.544882 0.00735331  -0.0771238 -0.657774 0.0080173  -0.0797739 -0.661303 0.00671053  -0.0341867 -0.628958 0.0107191  -0.0459309 -0.670012 0.00951338  -0.0367587 -0.632969 0.00868034  -0.0659672 -0.618987 0.00806117  -0.0785199 -0.659648 0.00736213  -0.0688249 -0.622835 0.00667429  -0.0355432 -0.631096 0.00969267  -0.0674782 -0.621047 0.00736547  -0.100484 -0.736114 0.0079565  -0.102781 -0.739063 0.00677586  -0.0555567 -0.707386 0.0102522  -0.0679258 -0.748614 0.00917935  -0.0577773 -0.710774 0.00844312  -0.0886322 -0.696815 0.00800538  -0.10169 -0.737684 0.00736237  -0.0911009 -0.700055 0.0067482  -0.0567229 -0.70919 0.00934577  -0.0899355 -0.698542 0.00737166  -0.125082 -0.815278 0.00788879  -0.127016 -0.817721 0.0068512  -0.0784861 -0.786709 0.00981784  -0.0913571 -0.827988 0.00888371  -0.0803761 -0.789542 0.00824189  -0.112644 -0.775604 0.0079267  -0.126091 -0.816572 0.00737143  -0.114761 -0.778296 0.00681353  -0.0794739 -0.788216 0.00902605  -0.113755 -0.777046 0.00737238  -0.150593 -0.894969 0.00785446  -0.152233 -0.896956 0.00693297  -0.102668 -0.866631 0.00943971  -0.115901 -0.907863 0.00863409  -0.104257 -0.86897 0.00806999  -0.137732 -0.855063 0.00788593  -0.151445 -0.896025 0.00739145  -0.139513 -0.85728 0.0068953  -0.103495 -0.867873 0.00875545  -0.138664 -0.856243 0.00738788  -0.17684 -0.974971 0.00782013  -0.178183 -0.976564 0.00703645  -0.127842 -0.946895 0.00910711  -0.141336 -0.987993 0.0084312  -0.129153 -0.948795 0.00794697  -0.163636 -0.934936 0.00783944  -0.177531 -0.975811 0.00743055  -0.165129 -0.936726 0.006984  -0.128517 -0.947904 0.0085237  -0.164411 -0.935896 0.00741649  -0.203556 -1.05505 0.00784159  -0.204672 -1.05629 0.00715995  -0.153734 -1.02729 0.00884366  -0.1674 -1.06817 0.00829172  -0.154814 -1.0288 0.00786495  -0.190145 -1.015 0.00784063  -0.204126 -1.05571 0.00749946  -0.191369 -1.01642 0.00710011  -0.15429 -1.02808 0.00835752  -0.190776 -1.01576 0.00746775  -0.23061 -1.13505 0.00785232  -0.2315 -1.13599 0.00730324  -0.180174 -1.1076 0.00862718  -0.193917 -1.14823 0.00818896  -0.181036 -1.10877 0.0078311  -0.217049 -1.09507 0.00785112  -0.231051 -1.13555 0.007581  -0.218053 -1.09616 0.00723267  -0.180612 -1.10822 0.00822234  -0.217558 -1.09565 0.00754833  -0.257787 -1.21481 0.00795698  -0.258527 -1.21548 0.0074873  -0.206906 -1.18772 0.00848508  -0.220682 -1.22799 0.00819254  -0.207617 -1.18857 0.00785542  -0.244187 -1.17496 0.00789976  -0.25816 -1.21517 0.00771976  -0.244996 -1.17577 0.00739574  -0.207261 -1.18816 0.00818014  -0.244588 -1.17539 0.00764513  -0.285015 -1.29421 0.0080235  -0.285607 -1.29463 0.00768614  -0.23389 -1.26737 0.00838327  -0.247585 -1.30739 0.00815058  -0.23442 -1.26802 0.0079143  -0.271404 -1.25455 0.00796914  -0.285286 -1.29442 0.00785112  -0.272066 -1.25512 0.0075736  -0.234145 -1.26773 0.0081315  -0.27173 -1.25485 0.00777292  -0.312161 -1.37312 0.00811148  -0.312616 -1.37338 0.00792146  -0.260834 -1.3467 0.00840235  -0.274461 -1.3863 0.00819659  -0.261276 -1.34713 0.00810122  -0.298541 -1.33369 0.00809789  -0.312332 -1.37327 0.00802135  -0.299126 -1.33406 0.00780153  -0.261017 -1.34692 0.00828314  -0.298822 -1.3339 0.00794792  -0.339279 -1.45132 0.00831079  -0.33947 -1.45161 0.00819468  -0.287535 -1.4254 0.00846267  -0.301277 -1.46456 0.00840735  -0.287989 -1.42566 0.00810599  -0.325769 -1.41229 0.00821877  -0.339241 -1.45152 0.00824451  -0.326056 -1.41257 0.00806499  -0.287857 -1.42552 0.00820708  -0.325822 -1.4125 0.00816345  -0.365783 -1.52922 0.00885749  -0.366062 -1.52928 0.00850701  -0.314395 -1.5036 0.00843883  -0.327788 -1.54224 0.00892591  -0.314736 -1.50354 0.00837779  -0.352606 -1.49044 0.00834084  -0.366077 -1.52931 0.00864911  -0.352783 -1.49046 0.00831079  -0.314585 -1.5035 0.00835228  -0.352635 -1.4904 0.00830436  -0.391817 -1.60689 0.00882196  -0.392396 -1.60599 0.00871563  -0.341614 -1.58036 0.00819516  -0.354163 -1.6188 0.00899959  -0.341328 -1.58055 0.00874853  -0.378826 -1.5679 0.00852704  -0.392175 -1.60591 0.00880575  -0.379222 -1.56773 0.00844169  -0.341135 -1.58058 0.00864315  -0.37912 -1.56766 0.00840497  0 0 0  0.0136395 -0.0119762 0.0189645  0.009213 -0.017692 0.0110126  0 0 0  0.00687353 -0.00632721 0.0164223  0.0138506 -0.0193386 0.0188153  0.00403067 -0.00948465 0.00840259  0 0 0  0.00551711 -0.00388622 0.0129116  0.01085 -0.0154545 0.0147564  0.00309982 -0.00720888 0.00658131  0 0 0  0.0045771 -0.00852019 0.011497  0.00357915 -0.00624901 0.00900602  0.0286372 -0.0392556 0.0218673  0.0246042 -0.048062 0.0152478  0.0268757 -0.0293038 0.0264337  0.0337093 -0.0502458 0.0238373  0.0216067 -0.0367005 0.0176415  0.0212936 -0.0240182 0.0207086  0.026482 -0.0443771 0.0185707  0.0167932 -0.0316713 0.0137255  0.0239263 -0.0336523 0.0220518  0.0187667 -0.0285723 0.0172131  0.0420815 -0.0773736 0.0220876  0.0384375 -0.0874689 0.0159438  0.0449952 -0.0635307 0.0283344  0.0512359 -0.0896674 0.0245721  0.0409889 -0.0729854 0.0204706  0.0356753 -0.057068 0.0220604  0.0401846 -0.0830739 0.0189593  0.0319255 -0.0667297 0.0157747  0.0429194 -0.0689051 0.0244308  0.0337198 -0.0626032 0.0189061  0.0521213 -0.124505 0.0213842  0.0484512 -0.134687 0.0156271  0.0603691 -0.106789 0.028091  0.0646793 -0.13712 0.0239844  0.0567812 -0.1169 0.0206902  0.0476218 -0.0998952 0.0217376  0.0501879 -0.130144 0.0184388  0.0439794 -0.110152 0.0158401  0.058519 -0.112427 0.0243657  0.0457118 -0.105633 0.0187356  0.057815 -0.179108 0.0203588  0.0540639 -0.188769 0.0150216  0.0714976 -0.158148 0.0269756  0.0734994 -0.191764 0.0228605  0.0680221 -0.168061 0.0200124  0.0555422 -0.150945 0.0208652  0.0558189 -0.184402 0.017633  0.051816 -0.160929 0.0153399  0.0696813 -0.16361 0.0234559  0.0535688 -0.156453 0.0180409  0.0589437 -0.239893 0.0192487  0.0552245 -0.24872 0.0143223  0.0779306 -0.216373 0.0254729  0.0775937 -0.252497 0.0215292  0.074518 -0.225646 0.0190132  0.0589445 -0.2088 0.0197883  0.0569609 -0.244683 0.0167358  0.0551971 -0.218079 0.0146725  0.0761304 -0.22144 0.0222042  0.0569426 -0.213864 0.0171783  0.0557257 -0.305605 0.0181024  0.0521199 -0.313502 0.0136197  0.0796649 -0.280224 0.0238369  0.0771318 -0.318225 0.0201373  0.0763574 -0.288651 0.0178959  0.0578668 -0.272189 0.0186689  0.0538046 -0.309873 0.0158262  0.0541839 -0.280563 0.0139697  0.0779156 -0.284803 0.0208342  0.0559042 -0.276734 0.0162735  0.0484561 -0.375282 0.0169888  0.0450867 -0.382242 0.0129154  0.0769341 -0.348571 0.0221617  0.0724156 -0.387956 0.0187531  0.0738049 -0.356099 0.0167742  0.0525706 -0.339997 0.0175323  0.0466683 -0.379023 0.0149226  0.0490752 -0.347433 0.013262  0.0752795 -0.352646 0.0194409  0.0507076 -0.34401 0.0153649  0.037612 -0.44804 0.0158935  0.0345094 -0.454117 0.0122404  0.0701166 -0.420471 0.0205307  0.0638601 -0.460852 0.0174124  0.0672228 -0.427109 0.0156641  0.0434612 -0.411311 0.016438  0.0359712 -0.451305 0.0140491  0.0402129 -0.417826 0.012574  0.0685911 -0.424056 0.0180781  0.0417399 -0.414824 0.0144773  0.0235801 -0.523236 0.0148606  0.0208144 -0.528499 0.0115857  0.0596431 -0.495124 0.0189476  0.0518836 -0.536196 0.0161347  0.057029 -0.50093 0.0146148  0.0309657 -0.485363 0.0153637  0.0221251 -0.526053 0.0132067  0.0280309 -0.491035 0.0119047  0.0582696 -0.498255 0.0167649  0.029413 -0.48841 0.0136168  0.00685406 -0.600269 0.0138702  0.00440121 -0.604794 0.0109787  0.0459684 -0.57189 0.0174656  0.036939 -0.613412 0.0149386  0.043651 -0.576924 0.0136135  0.0155364 -0.561543 0.0143619  0.00556791 -0.602694 0.0124159  0.012921 -0.566432 0.0112762  0.0447558 -0.574603 0.0155289  0.0141615 -0.564173 0.0128016  -0.0122222 -0.678707 0.0129614  -0.0143274 -0.682571 0.0104103  0.0295244 -0.650225 0.0160656  0.0194287 -0.692006 0.013829  0.0275126 -0.654562 0.0126994  -0.00241566 -0.63933 0.0133998  -0.0133185 -0.68077 0.011677  -0.00469184 -0.643526 0.0106847  0.028477 -0.652561 0.0143733  -0.0036099 -0.64158 0.0120337  -0.0332071 -0.758134 0.0121155  -0.0350183 -0.761398 0.0099051  0.010731 -0.729701 0.0147905  -0.000237107 -0.771583 0.0128205  0.00901306 -0.7334 0.0118499  -0.0224892 -0.718308 0.0125329  -0.0341467 -0.759882 0.0110068  -0.0244504 -0.721868 0.0101504  0.00984275 -0.731694 0.0133152  -0.0235105 -0.720223 0.0113301  -0.0558265 -0.838246 0.0113614  -0.0573226 -0.840982 0.00945187  -0.0100358 -0.809939 0.0136144  -0.0217156 -0.851794 0.0119121  -0.0114722 -0.813069 0.0111036  -0.0443332 -0.798115 0.0117188  -0.0565946 -0.839702 0.0104022  -0.0459832 -0.801117 0.00966692  -0.0107739 -0.811625 0.0123532  -0.04519 -0.799723 0.010689  -0.0796939 -0.91875 0.0106874  -0.080947 -0.920999 0.00907183  -0.0324225 -0.890647 0.0125751  -0.0446559 -0.932379 0.0111105  -0.0336024 -0.893258 0.0104289  -0.0676134 -0.878452 0.0110192  -0.0803342 -0.919952 0.00987792  -0.0689884 -0.880945 0.00925422  -0.0330219 -0.892054 0.0114999  -0.0683204 -0.879794 0.0101278  -0.104611 -0.999419 0.0101087  -0.105605 -1.00125 0.00875759  -0.0561086 -0.971566 0.0116491  -0.0687828 -1.01306 0.0104344  -0.0570647 -0.973707 0.00987363  -0.092036 -0.959072 0.0103734  -0.10511 -1.00039 0.00943303  -0.0931568 -0.961112 0.00890231  -0.0565897 -0.972718 0.0107565  -0.092611 -0.960164 0.00963616  -0.130237 -1.08005 0.00962377  -0.131051 -1.08149 0.0085156  -0.0808269 -1.05246 0.0108564  -0.0938065 -1.09371 0.00983477  -0.0815748 -1.05419 0.00938535  -0.117344 -1.03973 0.00987196  -0.130641 -1.08081 0.00906682  -0.118244 -1.04137 0.00863314  -0.0811992 -1.05339 0.0101192  -0.117797 -1.04061 0.0092442  -0.15645 -1.16046 0.00923252  -0.157058 -1.16159 0.00835443  -0.106268 -1.13321 0.0102043  -0.119483 -1.17403 0.00944257  -0.106884 -1.13455 0.00903416  -0.14327 -1.12029 0.00939298  -0.156746 -1.16104 0.00880313  -0.143993 -1.12157 0.00842237  -0.106571 -1.13393 0.00961089  -0.143639 -1.12098 0.00890589  -0.182941 -1.24054 0.00895834  -0.183449 -1.24136 0.00825238  -0.132303 -1.21351 0.00969148  -0.145631 -1.25415 0.00897861  -0.132751 -1.2146 0.00873065  -0.169684 -1.20052 0.00911689  -0.183172 -1.24096 0.00859785  -0.170217 -1.20152 0.00830913  -0.132532 -1.2141 0.00920939  -0.16994 -1.20105 0.00869703  -0.20961 -1.32014 0.00874925  -0.210016 -1.32073 0.00825405  -0.158554 -1.29359 0.009305  -0.171998 -1.33348 0.00900316  -0.159053 -1.29422 0.00860476  -0.196213 -1.2804 0.00879073  -0.20986 -1.32042 0.00852656  -0.19671 -1.28109 0.00822783  -0.158747 -1.29394 0.00892711  -0.196487 -1.28078 0.00850201  -0.236275 -1.39906 0.00851274  -0.236761 -1.39957 0.00827694  -0.185162 -1.37267 0.00900888  -0.198777 -1.41268 0.00857115  -0.185496 -1.3733 0.00849867  -0.223045 -1.35974 0.00884175  -0.236557 -1.39939 0.00841117  -0.223397 -1.36023 0.0083127  -0.185411 -1.37302 0.00874066  -0.223215 -1.35997 0.00855565  -0.263287 -1.47759 0.00870943  -0.263285 -1.47761 0.00854015  -0.211459 -1.45152 0.00907183  -0.224846 -1.49079 0.009197  -0.212009 -1.45188 0.00867438  -0.249641 -1.43828 0.00855041  -0.263295 -1.47761 0.00865245  -0.250023 -1.43869 0.00841832  -0.211795 -1.45189 0.00885773  -0.249888 -1.43858 0.00847101  -0.288985 -1.55487 0.00935364  -0.289769 -1.55544 0.00871778  -0.237836 -1.52967 0.00896335  -0.251195 -1.56881 0.00868869  -0.23842 -1.53027 0.00853825  -0.27633 -1.51639 0.00854731  -0.289694 -1.55518 0.00898457  -0.276731 -1.51677 0.0084722  -0.238313 -1.52997 0.00866747  -0.2767 -1.51656 0.00836444  -0.315974 -1.63335 0.00811148  -0.315685 -1.63248 0.00901556  -0.263809 -1.60714 0.00930071  -0.276779 -1.6464 0.00979662  -0.265008 -1.60753 0.00884962  -0.302286 -1.59407 0.00860095  -0.315959 -1.63225 0.00882387  -0.302938 -1.59421 0.0085609  -0.264333 -1.6073 0.00934362  -0.302724 -1.59387 0.00834322  0 0 0  0.0212266 -0.0210519 0.0287132  0.01525 -0.0264501 0.0168562  0 0 0  0.00993015 -0.0134215 0.0224612  0.0215691 -0.0304853 0.0256464  0.00640518 -0.0167588 0.0114081  0 0 0  0.00830235 -0.00943166 0.0193706  0.0174043 -0.0242061 0.022418  0.00507396 -0.0125254 0.00995064  0 0 0  0.00709305 -0.0153881 0.0156472  0.00566837 -0.0114651 0.0135975  0.0444999 -0.05226 0.0336347  0.0395713 -0.0607779 0.0237949  0.0406228 -0.0428529 0.0366237  0.0511185 -0.0648264 0.0333831  0.0341864 -0.0503122 0.0245726  0.0332611 -0.0355372 0.0316584  0.0418686 -0.0570748 0.02877  0.0273707 -0.0428452 0.0212209  0.036971 -0.0470551 0.030575  0.0299512 -0.0397482 0.026443  0.0650213 -0.0915774 0.0346918  0.0612267 -0.101381 0.0253959  0.0663814 -0.0787825 0.040271  0.0758968 -0.105121 0.035255  0.0619817 -0.0881584 0.0291755  0.0551772 -0.0708169 0.0344648  0.0630917 -0.0970339 0.0300159  0.0509695 -0.0801581 0.0249352  0.064097 -0.0839801 0.0347404  0.0529974 -0.0760614 0.0297194  0.0815609 -0.139355 0.0338607  0.0782061 -0.149321 0.025089  0.0882673 -0.122756 0.0404828  0.0958757 -0.153279 0.0347283  0.0847623 -0.132683 0.0299215  0.0738568 -0.11444 0.034405  0.0798542 -0.144842 0.0294378  0.0703173 -0.124429 0.0253904  0.0865043 -0.128221 0.0351858  0.0720639 -0.119981 0.0298755  0.0934121 -0.19463 0.0321808  0.0902358 -0.204186 0.0239735  0.105551 -0.174796 0.0389898  0.110831 -0.208707 0.033076  0.10247 -0.184537 0.0290363  0.0881023 -0.166114 0.0330832  0.0917771 -0.19986 0.0280321  0.0848519 -0.175941 0.0245955  0.104004 -0.180133 0.0339882  0.0864324 -0.171515 0.0288026  0.100317 -0.256252 0.0301063  0.0972899 -0.265087 0.0225468  0.117819 -0.23383 0.0366888  0.120614 -0.270382 0.030942  0.114959 -0.242994 0.0274487  0.0974836 -0.224718 0.0311656  0.0987498 -0.261055 0.0262907  0.0943737 -0.233949 0.0232847  0.116372 -0.238827 0.0320406  0.0958782 -0.229765 0.0271902  0.102419 -0.32296 0.0279131  0.0995339 -0.330959 0.0210135  0.124977 -0.298623 0.0340571  0.125363 -0.337156 0.0286341  0.122292 -0.307023 0.0255842  0.101961 -0.289028 0.0290244  0.100921 -0.327299 0.0244291  0.0990003 -0.297466 0.0217884  0.123615 -0.30319 0.0297968  0.100419 -0.293615 0.0253725  0.099952 -0.393746 0.0257049  0.097285 -0.400877 0.0194886  0.127192 -0.368019 0.0313275  0.125316 -0.408004 0.0263174  0.124689 -0.375587 0.0236576  0.101733 -0.357897 0.0268095  0.0985714 -0.397598 0.0225737  0.0989448 -0.36547 0.0202489  0.125921 -0.372123 0.0274706  0.100287 -0.362008 0.0235043  0.0933735 -0.46766 0.023576  0.0909302 -0.473953 0.0180082  0.124799 -0.441008 0.028641  0.120906 -0.482014 0.0240676  0.122509 -0.447743 0.0217576  0.0971569 -0.43035 0.0246468  0.0921122 -0.47106 0.0207703  0.0945979 -0.437068 0.0187447  0.123641 -0.444658 0.0251837  0.0958279 -0.433985 0.0216722  0.0830741 -0.544003 0.0215359  0.0809155 -0.549508 0.016613  0.118225 -0.516748 0.0260534  0.112537 -0.55844 0.0219331  0.116173 -0.522686 0.0199466  0.0886607 -0.505562 0.0225503  0.0819672 -0.546968 0.0190618  0.0863508 -0.511461 0.0173013  0.117193 -0.519962 0.0229859  0.087471 -0.508757 0.0199113  0.0695732 -0.622122 0.0196395  0.0676737 -0.626899 0.0153062  0.107939 -0.59454 0.0236187  0.10072 -0.636648 0.0199347  0.106142 -0.599731 0.0182383  0.0767032 -0.582863 0.0205905  0.0686045 -0.624699 0.0174592  0.0746738 -0.588006 0.0159512  0.107043 -0.59735 0.0209196  0.0756599 -0.585641 0.0182555  0.0532517 -0.701555 0.0178664  0.0516495 -0.705669 0.0141098  0.0944084 -0.673819 0.0213437  0.0858632 -0.716131 0.0180941  0.0928689 -0.678319 0.0166657  0.0617386 -0.661694 0.0187442  0.0524436 -0.703768 0.0159817  0.0599822 -0.666139 0.0146964  0.0936488 -0.676254 0.0189958  0.0608459 -0.664102 0.0167131  0.0345938 -0.781855 0.0162637  0.0332385 -0.785361 0.0130208  0.0780863 -0.754117 0.0192585  0.0684497 -0.796463 0.0164099  0.0768026 -0.757982 0.015219  0.0441965 -0.74161 0.0170648  0.0339175 -0.783745 0.0146334  0.0427214 -0.745421 0.0135555  0.0774616 -0.75621 0.0172338  0.0434514 -0.743667 0.0153  0.0139226 -0.862715 0.0147936  0.0128356 -0.865676 0.0120523  0.0593884 -0.835058 0.0173509  0.0488333 -0.877306 0.0148964  0.0583472 -0.838344 0.0139236  0.0244873 -0.822227 0.0155153  0.0133889 -0.864307 0.0134199  0.0232629 -0.825458 0.0125229  0.0588962 -0.836837 0.0156317  0.0238788 -0.823979 0.0140166  -0.00834632 -0.943834 0.0135071  -0.00923014 -0.946284 0.0112014  0.0387264 -0.916332 0.0156455  0.0274305 -0.958368 0.0135448  0.0379063 -0.919089 0.0127628  0.00297296 -0.90325 0.0141463  -0.00877357 -0.945153 0.012346  0.00199378 -0.905958 0.011616  0.0383459 -0.917826 0.0142031  0.00249207 -0.904711 0.0128732  -0.0319436 -1.02497 0.0123572  -0.0326128 -1.027 0.0104718  0.0164183 -0.997673 0.0141261  0.00453615 -1.03944 0.012373  0.015794 -0.999954 0.0117505  -0.020003 -0.984411 0.0129151  -0.0322613 -1.02606 0.0114114  -0.0207789 -0.986641 0.0108216  0.016149 -0.998907 0.0129256  -0.0203733 -0.985615 0.0118682  -0.0565534 -1.10601 0.0113759  -0.0570731 -1.10758 0.00986338  -0.00714445 -1.07893 0.0127909  -0.0195081 -1.12028 0.011389  -0.00760555 -1.08075 0.0109046  -0.0441303 -1.0655 0.011869  -0.0567944 -1.10685 0.0106113  -0.0447171 -1.06731 0.0101607  -0.00733376 -1.07991 0.0118585  -0.0444033 -1.06648 0.0110085  -0.0818887 -1.18661 0.0105832  -0.0822697 -1.18788 0.00939083  -0.0318074 -1.15978 0.0116882  -0.0444579 -1.20084 0.0104845  -0.032119 -1.16125 0.0101802  -0.0691459 -1.14636 0.0109689  -0.0820704 -1.18728 0.00998712  -0.0696118 -1.14778 0.00960779  -0.0319083 -1.16056 0.0109158  -0.0693629 -1.1471 0.0102892  -0.10782 -1.26699 0.009835  -0.108111 -1.26777 0.00902534  -0.057008 -1.24036 0.0107627  -0.07005 -1.28084 0.00995898  -0.0573075 -1.24143 0.00969148  -0.0947578 -1.22676 0.0102639  -0.108014 -1.26742 0.00940943  -0.0951147 -1.22789 0.0092237  -0.0570927 -1.24097 0.0102737  -0.0949318 -1.2274 0.00973296  -0.133897 -1.34633 0.00950956  -0.134187 -1.34711 0.00884414  -0.0830603 -1.32013 0.0100677  -0.0960743 -1.36056 0.0093751  -0.0832009 -1.321 0.00915313  -0.120898 -1.30689 0.00967574  -0.134112 -1.34677 0.00913239  -0.121194 -1.30757 0.00892425  -0.0830905 -1.32053 0.00945592  -0.121056 -1.30709 0.00930452  -0.160421 -1.42608 0.00861096  -0.16069 -1.42608 0.00859642  -0.109019 -1.40001 0.0092845  -0.122594 -1.43916 0.00924158  -0.109191 -1.40028 0.00928259  -0.147033 -1.386 0.00926852  -0.160835 -1.42608 0.00862885  -0.147364 -1.38666 0.00880694  -0.108955 -1.40005 0.00953341  -0.147273 -1.38642 0.00902343  -0.18692 -1.50355 0.00845838  -0.186862 -1.50428 0.00877118  -0.134873 -1.47748 0.00970721  -0.149369 -1.51845 0.00842404  -0.135676 -1.47849 0.00882053  -0.173193 -1.46462 0.009341  -0.186863 -1.50428 0.00881338  -0.173909 -1.46525 0.00875235  -0.136004 -1.47798 0.00906634  -0.173921 -1.46503 0.00903249  -0.213232 -1.58184 0.00762606  -0.212986 -1.58087 0.00831676  -0.160793 -1.55677 0.00927806  -0.173947 -1.59394 0.0103905  -0.162593 -1.55617 0.00941086  -0.200479 -1.54236 0.00903273  -0.213548 -1.58139 0.00808334  -0.200265 -1.54345 0.00913858  -0.161072 -1.55697 0.00953817  -0.199866 -1.54323 0.00903511  -0.237425 -1.65675 0.00645852  -0.241078 -1.65838 0.00884104  -0.188361 -1.63292 0.00913668  -0.202283 -1.67556 0.0111213  -0.187559 -1.63412 0.00899887  -0.225576 -1.62099 0.00935221  -0.240907 -1.65925 0.00779676  -0.227192 -1.61993 0.00958896  -0.188417 -1.63359 0.00869656  -0.22722 -1.61946 0.00946021  0 0 0  0.032159 -0.0351009 0.0372524  0.0251334 -0.0419142 0.0218494  0 0 0  0.0163457 -0.0273161 0.0280774  0.0360736 -0.0493836 0.0315719  0.0128459 -0.0327763 0.0144358  0 0 0  0.012066 -0.018827 0.0242414  0.027411 -0.0389329 0.0288241  0.00825298 -0.0228354 0.0125313  0 0 0  0.0134017 -0.0297185 0.0197015  0.00884052 -0.0208967 0.017  0.0646786 -0.0682918 0.0445957  0.0591249 -0.0773702 0.0315356  0.0601834 -0.0599028 0.0468955  0.0735256 -0.082231 0.0428953  0.0534372 -0.068853 0.0314283  0.0496451 -0.0511727 0.0418184  0.061669 -0.0733021 0.0380671  0.0428772 -0.0591899 0.0279081  0.0561053 -0.064984 0.0389719  0.0457387 -0.0556436 0.0347087  0.0916905 -0.108405 0.0468309  0.0877665 -0.118277 0.0342457  0.0919847 -0.09618 0.0522938  0.104633 -0.123154 0.0457146  0.0874024 -0.106139 0.0376642  0.0786074 -0.0872769 0.0462492  0.0897118 -0.113836 0.0404954  0.0740745 -0.0968729 0.033397  0.0895642 -0.101677 0.0449128  0.0762452 -0.0925724 0.0397923  0.11443 -0.156974 0.0459697  0.111258 -0.166837 0.0340405  0.120229 -0.141141 0.0527248  0.130997 -0.172145 0.045114  0.116654 -0.151138 0.0387745  0.103663 -0.131661 0.0466175  0.112878 -0.162378 0.0399618  0.100175 -0.141603 0.0343759  0.118483 -0.146635 0.0456903  0.101934 -0.137127 0.0404608  0.132192 -0.213122 0.0436485  0.129385 -0.222543 0.0325232  0.143603 -0.19423 0.0507226  0.151946 -0.228627 0.0428836  0.140593 -0.203834 0.0376251  0.123966 -0.184157 0.0449064  0.130827 -0.218277 0.0380459  0.121003 -0.193837 0.0333848  0.142166 -0.199498 0.044121  0.122523 -0.189469 0.0391047  0.144636 -0.275721 0.040688  0.142071 -0.284451 0.0304351  0.161603 -0.254385 0.047569  0.167263 -0.291413 0.0399821  0.158876 -0.263346 0.0354798  0.139086 -0.24369 0.0421932  0.143388 -0.280482 0.0355217  0.136413 -0.25279 0.0315161  0.160324 -0.259294 0.0414755  0.137782 -0.248666 0.0368171  0.151813 -0.343471 0.0374627  0.14942 -0.351417 0.0281577  0.17399 -0.3203 0.0439594  0.176994 -0.359345 0.0367959  0.171488 -0.328501 0.0329218  0.148879 -0.309013 0.0390782  0.150651 -0.347807 0.0327792  0.146399 -0.317357 0.0293055  0.172812 -0.324797 0.038398  0.147672 -0.313576 0.0341542  0.153912 -0.41533 0.0342288  0.151734 -0.422459 0.0258532  0.180921 -0.390824 0.0401902  0.181395 -0.431299 0.0336096  0.178598 -0.398219 0.0302596  0.153474 -0.378948 0.0358236  0.152859 -0.419211 0.0300121  0.15119 -0.386492 0.0269966  0.179844 -0.394879 0.0351875  0.152363 -0.383063 0.0313804  0.151374 -0.490291 0.0310667  0.149396 -0.496624 0.0236256  0.182691 -0.464864 0.0364974  0.180872 -0.506366 0.0304871  0.18059 -0.471463 0.0276213  0.153202 -0.452464 0.0326316  0.150426 -0.493746 0.0273256  0.151119 -0.459192 0.0247264  0.181714 -0.468493 0.0320284  0.152197 -0.456143 0.02865  0.144603 -0.567625 0.0280793  0.14288 -0.5732 0.0215068  0.179766 -0.541595 0.0329201  0.175893 -0.583721 0.0275443  0.177878 -0.547428 0.0251017  0.148485 -0.528702 0.0295393  0.143787 -0.570661 0.0247734  0.146635 -0.534659 0.0225453  0.178911 -0.544804 0.0289838  0.1476 -0.531954 0.0260222  0.134147 -0.646635 0.0252624  0.132647 -0.651501 0.0195367  0.172622 -0.620239 0.0295792  0.166966 -0.662758 0.0247667  0.170989 -0.625354 0.022718  0.139813 -0.606944 0.0266488  0.133448 -0.649296 0.0223873  0.138198 -0.612161 0.0205026  0.171883 -0.623064 0.0261266  0.13905 -0.609804 0.0235541  0.120416 -0.726848 0.0226724  0.119185 -0.731061 0.0177174  0.161785 -0.700269 0.0264385  0.15458 -0.742897 0.0222294  0.160379 -0.704709 0.0205221  0.127659 -0.686618 0.023931  0.119859 -0.729143 0.0201831  0.126294 -0.69116 0.0186033  0.161175 -0.702723 0.0234616  0.127028 -0.689103 0.0212541  0.103946 -0.807793 0.0202925  0.102926 -0.8114 0.0160697  0.147715 -0.781142 0.0235782  0.139209 -0.823781 0.0198767  0.146575 -0.784973 0.018492  0.112506 -0.767238 0.0214593  0.103496 -0.809772 0.0181739  0.111378 -0.771147 0.0168729  0.147227 -0.783271 0.0210185  0.111994 -0.76939 0.0191493  0.0850772 -0.889168 0.0181341  0.0843065 -0.89223 0.0145774  0.130923 -0.862561 0.0209429  0.1213 -0.904971 0.0177908  0.129979 -0.865806 0.0166743  0.0947833 -0.848448 0.0191774  0.0847626 -0.890834 0.0163498  0.0938894 -0.851783 0.0152988  0.130548 -0.864362 0.0187957  0.0943986 -0.850277 0.0172298  0.0642935 -0.970665 0.0162187  0.0636939 -0.973204 0.0132694  0.111753 -0.944102 0.0185966  0.101247 -0.986315 0.0158713  0.111076 -0.946853 0.0150239  0.0749093 -0.929895 0.0171578  0.0640647 -0.972059 0.0147395  0.0742254 -0.932701 0.0139067  0.111497 -0.945643 0.0167978  0.0746276 -0.93145 0.0155175  0.0418534 -1.05204 0.0144982  0.0414531 -1.05416 0.0121195  0.0907612 -1.02568 0.0164971  0.0794423 -1.06744 0.0142758  0.090178 -1.0279 0.0135949  0.0532755 -1.01138 0.0153248  0.0417325 -1.05322 0.013308  0.0527656 -1.01371 0.0126665  0.0905597 -1.02692 0.0150363  0.0530862 -1.01267 0.0139911  0.0181816 -1.13319 0.0131066  0.0179176 -1.13485 0.0111716  0.0679853 -1.10688 0.0146155  0.0561969 -1.14827 0.0127444  0.0676985 -1.10875 0.0123434  0.0301256 -1.09266 0.0137513  0.018146 -1.13406 0.0121281  0.0298131 -1.09454 0.0116291  0.0679247 -1.10792 0.0134718  0.0300574 -1.0937 0.0126746  -0.00639558 -1.21382 0.0117664  -0.00669336 -1.21523 0.0103319  0.0442102 -1.18784 0.0131328  0.0317926 -1.22875 0.0115986  0.043926 -1.1892 0.0113194  0.00600243 -1.17363 0.0124166  -0.00652695 -1.21468 0.0110288  0.00575304 -1.17509 0.0107179  0.0441823 -1.18859 0.0122242  0.005934 -1.1744 0.0115602  -0.0320005 -1.29416 0.0108507  -0.0320077 -1.29504 0.00976539  0.0191755 -1.26802 0.0117028  0.00663209 -1.30835 0.0105181  0.0191517 -1.26914 0.0105107  -0.0191772 -1.25404 0.0113091  -0.0317531 -1.29447 0.0102966  -0.0192738 -1.25517 0.0100856  0.0191851 -1.26868 0.0111091  -0.0190957 -1.25473 0.0107026  -0.0577097 -1.37301 0.01003  -0.0579288 -1.37428 0.00938106  -0.00597668 -1.34772 0.0108979  -0.0194159 -1.38828 0.0100329  -0.00639963 -1.34846 0.00974345  -0.0446296 -1.33367 0.0103476  -0.0579419 -1.3744 0.00968456  -0.044801 -1.3347 0.0094161  -0.00619435 -1.34832 0.01019  -0.0447586 -1.33436 0.00988197  -0.0841715 -1.45221 0.00960898  -0.0840523 -1.45273 0.00904369  -0.0326986 -1.42697 0.00967216  -0.044987 -1.46525 0.00885081  -0.0326514 -1.4274 0.00960207  -0.071564 -1.41336 0.00966668  -0.0836222 -1.45199 0.00922418  -0.0712256 -1.41372 0.00926614  -0.0323956 -1.42707 0.00978971  -0.0707071 -1.41359 0.00944209  -0.108659 -1.5308 0.0102658  -0.111297 -1.53083 0.00909567  -0.0594118 -1.50454 0.010612  -0.0728116 -1.54587 0.00789714  -0.0579026 -1.50543 0.0092988  -0.0965762 -1.49129 0.00977182  -0.111528 -1.53199 0.0090332  -0.0972438 -1.4917 0.00923252  -0.0581915 -1.50531 0.0100906  -0.0975106 -1.49135 0.00941753  -0.136977 -1.60895 0.0108345  -0.136174 -1.60723 0.0100722  -0.0831757 -1.58417 0.0078733  -0.0971894 -1.61978 0.00982666  -0.0860541 -1.58309 0.009027  -0.122063 -1.57066 0.00913858  -0.13443 -1.60641 0.0103812  -0.124027 -1.56959 0.00911713  -0.0862877 -1.58347 0.00785136  -0.123606 -1.57035 0.00933194  -0.162068 -1.681 0.0156858  -0.16049 -1.686 0.0113015  -0.113536 -1.65801 0.00620055  -0.129544 -1.69659 0.0085783  -0.113417 -1.66034 0.010154  -0.150855 -1.64462 0.00819635  -0.163154 -1.68854 0.0131462  -0.149465 -1.64759 0.00878406  -0.112943 -1.66163 0.00695658  -0.149981 -1.64855 0.00908399  -0.0341197 -0.0342143 -0.0243905  -0.0163813 -0.0228342 -0.0105538  0 0 0  -0.0212304 -0.0262382 -0.0157628  0 0 0  -0.0134038 -0.0159289 -0.0171089  -0.00474032 -0.00733208 -0.00730944  0 0 0  -0.0154273 -0.0211852 -0.0138822  -0.0210196 -0.0236146 -0.0205815  -0.00726692 -0.0122512 -0.00871205  0 0 0  -0.0047264 -0.00623916 -0.00957298  -0.00712867 -0.0110355 -0.0114071  -0.0694477 -0.053979 -0.0368769  -0.0527441 -0.047129 -0.0244839  -0.0523329 -0.051699 -0.0245318  -0.0384579 -0.0417505 -0.0267069  -0.0250929 -0.0313117 -0.0176418  -0.051625 -0.0429223 -0.0319388  -0.0521607 -0.0472972 -0.0316472  -0.0366143 -0.0384648 -0.0210006  -0.0253249 -0.0281693 -0.0228934  -0.0364158 -0.0347305 -0.0272853  -0.104763 -0.0808739 -0.0400658  -0.0878285 -0.071525 -0.0307794  -0.083959 -0.0816625 -0.0273228  -0.065094 -0.073818 -0.0291343  -0.0518699 -0.0609796 -0.0224357  -0.0871619 -0.0664163 -0.0393646  -0.083367 -0.0768964 -0.0344663  -0.0681351 -0.0658267 -0.0265365  -0.0517763 -0.0568221 -0.0285327  -0.0678345 -0.0611253 -0.0338142  -0.139332 -0.11558 -0.0379524  -0.123119 -0.102289 -0.0314007  -0.115346 -0.118522 -0.0262809  -0.0918468 -0.113225 -0.0276852  -0.0792755 -0.0968213 -0.0229654  -0.122174 -0.0973269 -0.0394282  -0.114152 -0.114176 -0.0327115  -0.099706 -0.0992462 -0.0271158  -0.0784196 -0.0926456 -0.0286984  -0.0988033 -0.0946577 -0.0339403  -0.172987 -0.157169 -0.0337167  -0.157637 -0.139945 -0.0289471  -0.146366 -0.161798 -0.0234771  -0.119042 -0.159074 -0.0245585  -0.106843 -0.139166 -0.021167  -0.156283 -0.135609 -0.035989  -0.144717 -0.158076 -0.0290689  -0.130904 -0.139419 -0.0250049  -0.105379 -0.135411 -0.0262315  -0.129457 -0.135386 -0.0310271  -0.20589 -0.204598 -0.0289147  -0.191182 -0.183856 -0.0252929  -0.177057 -0.210585 -0.0201001  -0.146733 -0.210272 -0.0209839  -0.134652 -0.187255 -0.0184133  -0.189533 -0.180249 -0.0313458  -0.175175 -0.207511 -0.0248945  -0.161747 -0.18556 -0.0218117  -0.132817 -0.184057 -0.0227852  -0.15996 -0.182176 -0.026999  -0.238199 -0.256941 -0.0242815  -0.223915 -0.23314 -0.0214221  -0.207523 -0.264119 -0.0167491  -0.174884 -0.266002 -0.0174434  -0.16274 -0.240266 -0.0154514  -0.222119 -0.230212 -0.0265701  -0.205558 -0.261612 -0.0208261  -0.192317 -0.236798 -0.0184031  -0.160752 -0.237607 -0.0191858  -0.190375 -0.234029 -0.0228357  -0.270111 -0.313568 -0.0200684  -0.256014 -0.287136 -0.0177672  -0.237827 -0.321791 -0.0136673  -0.203421 -0.32561 -0.0142345  -0.191094 -0.297524 -0.0126293  -0.254209 -0.284783 -0.0221334  -0.235919 -0.319767 -0.0171185  -0.222688 -0.292477 -0.0151689  -0.189097 -0.295349 -0.0157943  -0.220744 -0.290231 -0.0189233  -0.301705 -0.373897 -0.0163538  -0.287686 -0.345192 -0.0144844  -0.268074 -0.383089 -0.0109243  -0.232302 -0.388615 -0.0113459  -0.219721 -0.358485 -0.0100775  -0.285951 -0.343303 -0.0181665  -0.266271 -0.38145 -0.013829  -0.252959 -0.352013 -0.0122566  -0.217818 -0.356709 -0.0127456  -0.251098 -0.350201 -0.0154328  -0.333085 -0.437517 -0.0130754  -0.319035 -0.406862 -0.0115807  -0.298275 -0.447571 -0.00849962  -0.26146 -0.454574 -0.00882578  -0.2486 -0.422685 -0.00781083  -0.317431 -0.405344 -0.0146794  -0.29664 -0.446249 -0.0109296  -0.283176 -0.414964 -0.00967503  -0.246839 -0.421247 -0.0100431  -0.28146 -0.413498 -0.0123343  -0.36424 -0.503987 -0.0101955  -0.350156 -0.471641 -0.00902271  -0.328474 -0.514828 -0.00635266  -0.29085 -0.52312 -0.00656176  -0.277717 -0.489712 -0.00580478  -0.348697 -0.470419 -0.0116048  -0.326994 -0.513757 -0.00836658  -0.31338 -0.480873 -0.00739717  -0.276127 -0.488541 -0.00765896  -0.311823 -0.479693 -0.00961995  -0.395202 -0.572978 -0.00762105  -0.381053 -0.53919 -0.00674772  -0.358615 -0.584491 -0.00443435  -0.320387 -0.593882 -0.00457382  -0.307012 -0.559184 -0.00401473  -0.379758 -0.53821 -0.00888729  -0.357317 -0.583633 -0.00608492  -0.343551 -0.549386 -0.00536704  -0.305594 -0.558243 -0.0055356  -0.342169 -0.548434 -0.00719357  -0.425904 -0.644104 -0.00533199  -0.411738 -0.609074 -0.00471592  -0.388689 -0.656204 -0.00270796  -0.350006 -0.666542 -0.00275636  -0.336434 -0.630746 -0.00240707  -0.410593 -0.608292 -0.00645852  -0.387539 -0.65552 -0.00403857  -0.373667 -0.620107 -0.00355053  -0.335188 -0.62999 -0.00363898  -0.372447 -0.61935 -0.00504375  -0.456344 -0.717075 -0.00325561  -0.442163 -0.681011 -0.00287986  -0.418605 -0.729647 -0.00114202  -0.379608 -0.74077 -0.00114608  -0.365893 -0.70407 -0.000949383  -0.44117 -0.680397 -0.00428224  -0.417619 -0.729113 -0.00219393  -0.403668 -0.692734 -0.00190568  -0.364804 -0.703478 -0.00192642  -0.402607 -0.692135 -0.00309205  -0.486435 -0.791544 -0.00140023  -0.472302 -0.754609 -0.00122094  -0.448333 -0.804504 0.000281572  -0.409124 -0.816285 0.000345707  -0.39532 -0.778842 0.000377893  -0.471441 -0.754138 -0.00231695  -0.447471 -0.804094 -0.000526428  -0.4335 -0.766912 -0.000415087  -0.394379 -0.778379 -0.000379324  -0.432579 -0.766453 -0.00134826  -0.51617 -0.867253 0.00028801  -0.502094 -0.829631 0.000288725  -0.47778 -0.880494 0.00157905  -0.43846 -0.892794 0.00166583  -0.424619 -0.854773 0.00159264  -0.501361 -0.829279 -0.000550032  -0.477054 -0.880193 0.000980854  -0.463094 -0.84238 0.00094676  -0.423808 -0.85443 0.00102711  -0.462306 -0.842033 0.000247478  -0.545466 -0.94389 0.00178504  -0.531509 -0.905716 0.00165343  -0.506921 -0.95734 0.00275755  -0.467554 -0.970055 0.00289106  -0.453728 -0.931592 0.002702  -0.530879 -0.905468 0.00104451  -0.50629 -0.957127 0.0023365  -0.492395 -0.91882 0.00218177  -0.453037 -0.931341 0.00229716  -0.49172 -0.918576 0.00166798  -0.574329 -1.02123 0.00313258  -0.560491 -0.982669 0.00288796  -0.535676 -1.0348 0.00382161  -0.496334 -1.04781 0.00395799  -0.482564 -1.00905 0.00371385  -0.559964 -0.982507 0.00246429  -0.535153 -1.03466 0.00354767  -0.521346 -0.996014 0.00330496  -0.481976 -1.00889 0.00344539  -0.520777 -0.995848 0.00296116  -0.6027 -1.09901 0.00429726  -0.589035 -1.06017 0.00398636  -0.564048 -1.11264 0.00477123  -0.524767 -1.12587 0.00493956  -0.51109 -1.08692 0.00462723  -0.588581 -1.06008 0.00372195  -0.563591 -1.11256 0.00461435  -0.549914 -1.07368 0.00430918  -0.510592 -1.08681 0.00446653  -0.549428 -1.07359 0.00408959  -0.630621 -1.17704 0.00531459  -0.617109 -1.13806 0.00495863  -0.591988 -1.19066 0.00561094  -0.552807 -1.20401 0.00576401  -0.539251 -1.16498 0.00544763  -0.616728 -1.13802 0.00481057  -0.591608 -1.19063 0.00554132  -0.578069 -1.15164 0.00520563  -0.538826 -1.16494 0.00537181  -0.577658 -1.1516 0.00509596  -0.658064 -1.25508 0.00615239  -0.644747 -1.21605 0.00579667  -0.619535 -1.26866 0.00633764  -0.580455 -1.28208 0.00650835  -0.567043 -1.24307 0.00617218  -0.644405 -1.21606 0.00573993  -0.619185 -1.26866 0.00632787  -0.605813 -1.22966 0.00598526  -0.566677 -1.24306 0.00615525  -0.605454 -1.22967 0.00594258  -0.685138 -1.33302 0.00685596  -0.67196 -1.29405 0.00651789  -0.646691 -1.3465 0.00696874  -0.607717 -1.3599 0.00712085  -0.594446 -1.32101 0.00681138  -0.671653 -1.29409 0.0065124  -0.646385 -1.34652 0.00698853  -0.633155 -1.30761 0.00666404  -0.594119 -1.32103 0.0068295  -0.632835 -1.30764 0.00667381  -0.711906 -1.41066 0.00742483  -0.69886 -1.37181 0.0071187  -0.673572 -1.42404 0.00753331  -0.634636 -1.43742 0.00770617  -0.621504 -1.39867 0.00737882  -0.698563 -1.37188 0.00714779  -0.673258 -1.42407 0.00757146  -0.66016 -1.3853 0.00725651  -0.621215 -1.3987 0.0074172  -0.65986 -1.38534 0.00728297  -0.738609 -1.48804 0.00797939  -0.725563 -1.44932 0.00766277  -0.700274 -1.50132 0.00806928  -0.661347 -1.51459 0.00822735  -0.648296 -1.476 0.00791645  -0.725256 -1.44939 0.007689  -0.699975 -1.50134 0.00811672  -0.686924 -1.46271 0.00780654  -0.647992 -1.47605 0.00796342  -0.686626 -1.46275 0.00784802  -0.00910543 -0.0138281 -0.0107069  0 0 0  -0.00622299 -0.0100159 -0.0110176  -0.00214898 -0.00354303 -0.00462389  0 0 0  -0.00930765 -0.0119929 -0.0139775  -0.00305353 -0.00481188 -0.00588775  0 0 0  -0.0021559 -0.00275934 -0.00608349  -0.00306926 -0.00389214 -0.00773644  -0.0276243 -0.041015 -0.0170789  -0.0191964 -0.0354824 -0.0173967  -0.0118684 -0.0236655 -0.0114808  -0.0278393 -0.0377536 -0.0219615  -0.0175402 -0.0263757 -0.0144861  -0.0120555 -0.0214341 -0.0148537  -0.0178248 -0.0237621 -0.0187666  -0.0498487 -0.0754836 -0.01913  -0.0357753 -0.0705837 -0.0190849  -0.0273116 -0.0552195 -0.0147278  -0.0494282 -0.071688 -0.0240476  -0.0385305 -0.0573794 -0.0185342  -0.027215 -0.0520378 -0.0186644  -0.0384855 -0.0537666 -0.0235219  -0.0731591 -0.116515 -0.0183806  -0.0541178 -0.11312 -0.0180709  -0.0455362 -0.0944474 -0.015069  -0.0720087 -0.11282 -0.0228159  -0.0613959 -0.0951771 -0.0189767  -0.0447501 -0.0909902 -0.0187788  -0.0605947 -0.0913963 -0.0236785  -0.0972866 -0.163602 -0.0163229  -0.074064 -0.16198 -0.0159078  -0.0652655 -0.140126 -0.0137897  -0.0956339 -0.16031 -0.0201955  -0.0851173 -0.139339 -0.0174429  -0.0638876 -0.136828 -0.0170717  -0.0836858 -0.135845 -0.021601  -0.122233 -0.215885 -0.0138247  -0.0955862 -0.216103 -0.0133796  -0.0863693 -0.191381 -0.0118308  -0.120317 -0.213062 -0.0171468  -0.109649 -0.189129 -0.0150938  -0.0846304 -0.188439 -0.0146594  -0.107845 -0.186085 -0.0186894  -0.147969 -0.272628 -0.011322  -0.118584 -0.274629 -0.0108807  -0.10881 -0.247386 -0.0097096  -0.145976 -0.270275 -0.0141482  -0.135002 -0.243724 -0.0125597  -0.106912 -0.244858 -0.0121183  -0.133033 -0.241159 -0.0156267  -0.174407 -0.333199 -0.00900364  -0.14284 -0.336881 -0.00856805  -0.132471 -0.307449 -0.00767207  -0.17246 -0.331249 -0.0113845  -0.161094 -0.302453 -0.0101359  -0.130562 -0.305321 -0.00969744  -0.15912 -0.300324 -0.0127337  -0.201486 -0.397113 -0.00692606  -0.168197 -0.402324 -0.00649929  -0.157221 -0.370999 -0.00581574  -0.199659 -0.395519 -0.00892115  -0.187867 -0.364751 -0.007936  -0.155392 -0.36923 -0.0075078  -0.185978 -0.363005 -0.0101156  -0.229109 -0.463915 -0.00508094  -0.194447 -0.470511 -0.00465941  -0.182909 -0.437558 -0.00415683  -0.227439 -0.462607 -0.00673413  -0.215224 -0.430164 -0.00597692  -0.181216 -0.436097 -0.00555205  -0.21348 -0.428734 -0.00779605  -0.257206 -0.533228 -0.00343776  -0.221464 -0.541042 -0.00302577  -0.209405 -0.506701 -0.00267935  -0.255706 -0.53217 -0.0047977  -0.243099 -0.498266 -0.00423717  -0.20787 -0.505503 -0.00382257  -0.241519 -0.497106 -0.00573659  -0.285661 -0.604672 -0.00196338  -0.249059 -0.613564 -0.0015595  -0.236562 -0.578049 -0.00135398  -0.284332 -0.603812 -0.00306273  -0.271383 -0.568692 -0.00268149  -0.235194 -0.577073 -0.00227213  -0.269978 -0.567752 -0.00390744  -0.314391 -0.677923 -0.000627518  -0.277126 -0.687739 -0.000239611  -0.264252 -0.651248 -0.000155687  -0.313224 -0.677245 -0.0015049  -0.299993 -0.641078 -0.00127983  -0.263044 -0.650462 -0.000885963  -0.298753 -0.640329 -0.00226188  -0.343269 -0.752653 0.000590086  -0.305486 -0.763267 0.000962496  -0.292328 -0.725975 0.000938654  -0.342254 -0.752114 -8.96454e-05  -0.328807 -0.71511 -5.48363e-06  -0.291273 -0.72535 0.000376701  -0.327726 -0.714518 -0.000781059  -0.37221 -0.828578 0.00170755  -0.33405 -0.839853 0.00205708  -0.320668 -0.801927 0.0019443  -0.371333 -0.828172 0.00119281  -0.357734 -0.790469 0.0011611  -0.319752 -0.801442 0.00151968  -0.356795 -0.790016 0.000569344  -0.401096 -0.905415 0.00273395  -0.362655 -0.917242 0.00306129  -0.349137 -0.878829 0.00287318  -0.400342 -0.905108 0.00236487  -0.386655 -0.866888 0.00223112  -0.34835 -0.87846 0.00257206  -0.38585 -0.866546 0.00179172  -0.429855 -0.982923 0.00367713  -0.391235 -0.995184 0.0039773  -0.377632 -0.956422 0.00373244  -0.429213 -0.982713 0.00342441  -0.415492 -0.944086 0.00321579  -0.376956 -0.956156 0.0035274  -0.414802 -0.943847 0.0029099  -0.458393 -1.06086 0.00453949  -0.419654 -1.07347 0.00481343  -0.406039 -1.03448 0.00452662  -0.457845 -1.06072 0.00438619  -0.444144 -1.02184 0.00411677  -0.405465 -1.03429 0.00440669  -0.44356 -1.02168 0.0039165  -0.486665 -1.13903 0.00532317  -0.447875 -1.15188 0.0055666  -0.434285 -1.11278 0.00525975  -0.486199 -1.13895 0.00524282  -0.47256 -1.09991 0.00494123  -0.433795 -1.11267 0.00519753  -0.472062 -1.09982 0.00482941  -0.514606 -1.21723 0.00602794  -0.475793 -1.23027 0.00624514  -0.462289 -1.19115 0.00592661  -0.514209 -1.2172 0.00600433  -0.500668 -1.17813 0.00568414  -0.461871 -1.19109 0.00591636  -0.500247 -1.17808 0.00563431  -0.542211 -1.29532 0.00666261  -0.503416 -1.30847 0.00685334  -0.490006 -1.26942 0.00654125  -0.541865 -1.29533 0.00667262  -0.528448 -1.25629 0.00635362  -0.489645 -1.2694 0.00655699  -0.528083 -1.25629 0.00635314  -0.569453 -1.37315 0.00723529  -0.530675 -1.38638 0.00741053  -0.517396 -1.34744 0.00710487  -0.569135 -1.37317 0.0072639  -0.555865 -1.33426 0.00695491  -0.517083 -1.34746 0.00713682  -0.555542 -1.33429 0.00698018  -0.59637 -1.45064 0.00775361  -0.557575 -1.46387 0.00790882  -0.544462 -1.42514 0.00761342  -0.596065 -1.45068 0.00779271  -0.58294 -1.41193 0.00749469  -0.544157 -1.42518 0.00765514  -0.582643 -1.41198 0.00753212  -0.623048 -1.52773 0.00828075  -0.584218 -1.5409 0.00841117  -0.571218 -1.50242 0.00812459  -0.622742 -1.52776 0.00833344  -0.609722 -1.48923 0.00800848  -0.570928 -1.50243 0.00817513  -0.609428 -1.48928 0.00804758  -0.00366516 -0.0107284 -0.00622964  0 0 0  -0.00159368 -0.00953898 -0.00522685  -0.000583056 -0.00309432 -0.00220299  0 0 0  -0.00371772 -0.00936368 -0.0080843  -0.00124767 -0.00305089 -0.00339627  0 0 0  -0.000555478 -0.00252262 -0.0028522  -0.00124652 -0.00239918 -0.00444961  -0.0121123 -0.0371044 -0.0100598  -0.00578842 -0.0349974 -0.00843477  -0.00343385 -0.0224732 -0.00557852  -0.0120861 -0.034638 -0.0128608  -0.00732537 -0.0224834 -0.00849319  -0.00332372 -0.0207453 -0.00713086  -0.00737557 -0.0205507 -0.0109413  -0.0243032 -0.0735946 -0.0113261  -0.0128796 -0.0714984 -0.00936961  -0.00938624 -0.0547253 -0.00726938  -0.0237891 -0.0705092 -0.0141714  -0.0178419 -0.0543465 -0.0109589  -0.00899091 -0.0521341 -0.00913239  -0.0176145 -0.0515139 -0.0138397  -0.0389166 -0.117366 -0.0108209  -0.0226617 -0.116031 -0.00880408  -0.0183069 -0.0958695 -0.00743365  -0.0378229 -0.114154 -0.013397  -0.0313502 -0.0946511 -0.0112162  -0.0174375 -0.0928742 -0.00920773  -0.0305358 -0.0914664 -0.0139463  -0.055532 -0.167223 -0.00944495  -0.0350844 -0.167046 -0.00751567  -0.0298399 -0.143821 -0.00665402  -0.0540098 -0.16419 -0.0116796  -0.0469778 -0.141586 -0.0101938  -0.028542 -0.1408 -0.00821304  -0.0456492 -0.138452 -0.0126047  -0.074028 -0.222181 -0.00775504  -0.0500448 -0.223353 -0.00597429  -0.0438229 -0.197402 -0.00543976  -0.0722774 -0.219478 -0.00965858  -0.0645447 -0.194095 -0.00861478  -0.0422476 -0.194583 -0.00675654  -0.0628886 -0.191235 -0.0106859  -0.0943124 -0.281537 -0.00604773  -0.0673997 -0.284122 -0.0044241  -0.0601344 -0.255733 -0.00410414  -0.0924854 -0.279199 -0.00764036  -0.0839526 -0.251343 -0.00689363  -0.0584326 -0.253222 -0.00519347  -0.0821522 -0.248837 -0.00863934  -0.116174 -0.344575 -0.00444961  -0.0868547 -0.348566 -0.00297809  -0.0785823 -0.318087 -0.00280547  -0.114387 -0.342594 -0.00576997  -0.10505 -0.312611 -0.00523138  -0.0768716 -0.31591 -0.00368452  -0.103236 -0.310472 -0.00668693  -0.139452 -0.41082 -0.00300813  -0.108171 -0.416148 -0.00167394  -0.0989329 -0.383848 -0.00161195  -0.137766 -0.409156 -0.00408483  -0.127643 -0.377319 -0.00370979  -0.0972912 -0.381992 -0.00231051  -0.125907 -0.375515 -0.00490451  -0.163914 -0.47974 -0.00171781  -0.131033 -0.486316 -0.000511885  -0.120939 -0.45249 -0.000535727  -0.162372 -0.478358 -0.00258827  -0.151538 -0.444953 -0.00234532  -0.119413 -0.450925 -0.00107503  -0.149926 -0.443451 -0.00331783  -0.189413 -0.550986 -0.000563622  -0.155234 -0.558691 0.000524998  -0.144362 -0.523556 0.000427961  -0.188021 -0.549843 -0.0012517  -0.176541 -0.515089 -0.00112581  -0.142974 -0.522247 1.88351e-05  -0.175079 -0.513843 -0.00190163  -0.215726 -0.624125 0.000481606  -0.180496 -0.632844 0.00145769  -0.168976 -0.596642 0.00129938  -0.214494 -0.62319 -5.53131e-05  -0.202469 -0.587323 -2.86102e-05  -0.167734 -0.595556 0.00100446  -0.201162 -0.586303 -0.000640869  -0.242724 -0.698876 0.00143409  -0.206651 -0.708479 0.00230503  -0.194566 -0.671383 0.00209522  -0.241637 -0.698117 0.00103045  -0.229146 -0.661312 0.000968456  -0.193468 -0.670492 0.00188947  -0.227993 -0.660481 0.000501394  -0.2702 -0.774868 0.00231385  -0.233454 -0.785244 0.00308251  -0.220933 -0.747451 0.00282931  -0.269257 -0.774264 0.00201821  -0.256402 -0.736718 0.00188231  -0.21997 -0.746728 0.00270247  -0.255394 -0.736054 0.00153232  -0.298044 -0.851874 0.00312853  -0.260773 -0.862898 0.00380158  -0.24789 -0.824549 0.00351596  -0.297224 -0.851399 0.00292778  -0.284081 -0.813254 0.0027287  -0.247053 -0.823972 0.00344706  -0.283207 -0.81273 0.00248337  -0.326069 -0.929573 0.00389028  -0.288391 -0.941149 0.00447106  -0.275264 -0.902404 0.0041604  -0.325368 -0.929214 0.00376344  -0.312032 -0.890635 0.00351524  -0.274541 -0.901954 0.00414252  -0.311279 -0.890234 0.00335073  -0.354193 -1.00779 0.00460029  -0.316213 -1.0198 0.00509977  -0.3029 -0.980778 0.00477386  -0.353589 -1.00752 0.00453687  -0.340122 -0.968625 0.00425172  -0.302279 -0.980435 0.00479054  -0.339477 -0.968326 0.00415897  -0.382258 -1.08625 0.00526428  -0.344058 -1.09862 0.00568151  -0.330657 -1.05945 0.00535035  -0.381747 -1.08607 0.00524545  -0.368229 -1.04698 0.00493765  -0.330127 -1.0592 0.00539517  -0.367679 -1.04678 0.00489521  -0.410219 -1.16482 0.00588059  -0.371867 -1.17746 0.00623155  -0.358421 -1.13822 0.00590396  -0.409778 -1.1647 0.00589609  -0.396253 -1.12553 0.00557876  -0.357968 -1.13805 0.0059638  -0.395786 -1.12539 0.00557947  -0.437952 -1.24328 0.00645709  -0.399499 -1.25614 0.00674248  -0.386089 -1.21692 0.00642204  -0.437578 -1.24322 0.00649095  -0.424107 -1.20406 0.00617456  -0.385696 -1.21682 0.00648904  -0.423707 -1.20398 0.00619888  -0.465443 -1.32155 0.00699067  -0.426938 -1.33454 0.00724077  -0.413579 -1.29543 0.00692749  -0.465115 -1.32153 0.00703335  -0.451728 -1.28244 0.00673056  -0.413242 -1.29537 0.00698948  -0.451382 -1.28241 0.0067699  -0.492605 -1.39947 0.00749493  -0.454072 -1.41257 0.00767159  -0.440816 -1.37362 0.00739336  -0.492322 -1.39949 0.00754189  -0.479054 -1.36054 0.00724077  -0.440525 -1.3736 0.007447  -0.478755 -1.36055 0.00727868  -0.519476 -1.47697 0.0079453  -0.480877 -1.49006 0.00802588  -0.467767 -1.45138 0.00784039  -0.519182 -1.47696 0.00799584  -0.506075 -1.43827 0.0077405  -0.467499 -1.45137 0.00789523  -0.505795 -1.4383 0.00778246  -0.54602 -1.55392 0.0084672  -0.507363 -1.567 0.00851727  -0.494449 -1.52857 0.00829101  -0.545779 -1.55395 0.00850868  -0.532797 -1.51552 0.00821924  -0.494144 -1.52862 0.00833702  -0.532511 -1.51553 0.00827265  0.000239998 -0.0114123 -0.00192904  0 0 0  0.00226539 -0.0116853 0.000399828  0.000685751 -0.00419238 0.000153303  0 0 0  0.00038749 -0.010346 -0.00238681  7.87079e-05 -0.00348198 -0.00101566  0 0 0  0.000756823 -0.00376889 0.000327349  0.000129551 -0.00300735 -0.00125074  -0.000395432 -0.0383665 -0.00325918  0.00556678 -0.0386029 0.000210047  0.0035542 -0.0250907 0.000131369  9.41753e-06 -0.0363498 -0.00405645  0.000151068 -0.0233741 -0.00269127  0.00398864 -0.0236705 0.000332355  0.000417709 -0.0218351 -0.0033555  -0.00346586 -0.0761229 -0.00375581  0.0070709 -0.0763903 4.52995e-06  0.00589907 -0.0586289 -5.14984e-05  -0.00271332 -0.0734628 -0.00462508  -0.00158498 -0.0561667 -0.00361538  0.00664544 -0.0563843 5.8651e-05  -0.00101593 -0.0537885 -0.00447488  -0.00944489 -0.121649 -0.00348473  0.00553262 -0.122329 0.00018692  0.00569716 -0.101169 -3.26633e-05  -0.0083288 -0.11874 -0.00426316  -0.00608355 -0.0980306 -0.00369167  0.00671679 -0.0984638 4.95911e-05  -0.00514612 -0.095213 -0.00452614  -0.0183936 -0.173444 -0.00274873  0.000567853 -0.174852 0.000676394  0.0022288 -0.150676 0.000289679  -0.0169948 -0.170577 -0.00339246  -0.0135505 -0.146826 -0.00315166  0.00348258 -0.147846 0.000403881  -0.0122805 -0.143925 -0.003865  -0.0301973 -0.230411 -0.00181699  -0.00778478 -0.232815 0.00131536  -0.00460452 -0.205935 0.000816822  -0.0286442 -0.227765 -0.00231457  -0.0239407 -0.201317 -0.00229263  -0.00319242 -0.203211 0.000988007  -0.0224543 -0.198561 -0.00286365  -0.0447041 -0.291817 -0.000852585  -0.0193467 -0.295322 0.00197768  -0.014663 -0.266042 0.00142169  -0.0431011 -0.289461 -0.00121951  -0.0371246 -0.260594 -0.00133204  -0.0131825 -0.263551 0.0016458  -0.035538 -0.258105 -0.0017612  -0.0616277 -0.356898 6.03199e-05  -0.0337867 -0.361585 0.00260687  -0.0276978 -0.330234 0.00202584  -0.0600636 -0.354854 -0.000186682  -0.0528728 -0.323921 -0.00038743  -0.0262248 -0.328024 0.00230026  -0.0512862 -0.321735 -0.000692844  -0.080719 -0.425129 0.000892401  -0.0507969 -0.430956 0.00317001  -0.0434016 -0.397838 0.0025866  -0.0792408 -0.423377 0.000741482  -0.0709166 -0.390644 0.000486612  -0.0419925 -0.395917 0.00289392  -0.0693949 -0.388764 0.000291824  -0.101655 -0.495927 0.00164127  -0.0700022 -0.502873 0.00367093  -0.061452 -0.468272 0.00309634  -0.1003 -0.494445 0.00157309  -0.0909642 -0.460221 0.00127649  -0.0601422 -0.466625 0.00342917  -0.0895513 -0.45862 0.00116897  -0.124202 -0.568907 0.00231767  -0.091113 -0.576861 0.00411415  -0.0815312 -0.541031 0.00355554  -0.122976 -0.56766 0.00231075  -0.112739 -0.53216 0.0019877  -0.0803394 -0.539632 0.00389671  -0.111454 -0.530814 0.00195408  -0.148059 -0.643611 0.00293636  -0.113789 -0.652507 0.00451708  -0.103337 -0.615673 0.00397658  -0.146972 -0.642575 0.00298095  -0.135972 -0.606051 0.00263309  -0.102269 -0.614497 0.00432134  -0.134822 -0.604926 0.00265288  -0.173028 -0.719745 0.00351024  -0.137791 -0.72945 0.00488734  -0.126585 -0.691812 0.00436974  -0.172068 -0.718891 0.00358844  -0.160414 -0.68151 0.00322819  -0.125642 -0.690834 0.00470352  -0.159397 -0.680582 0.00329351  -0.198844 -0.796935 0.00404859  -0.162823 -0.807374 0.00523901  -0.151015 -0.769109 0.00474405  -0.198011 -0.796243 0.00415492  -0.185833 -0.758212 0.00378275  -0.150189 -0.768305 0.00506616  -0.184945 -0.757453 0.00387549  -0.225344 -0.874956 0.00456238  -0.188695 -0.885996 0.00557733  -0.176385 -0.847262 0.00510907  -0.22462 -0.874402 0.0046823  -0.212017 -0.835849 0.00430822  -0.175669 -0.846611 0.00540733  -0.211245 -0.835242 0.00442505  -0.252299 -0.953499 0.00505638  -0.215151 -0.965071 0.00591254  -0.202475 -0.926005 0.00546765  -0.251681 -0.953068 0.00518751  -0.238766 -0.914163 0.00481057  -0.201858 -0.925489 0.00574589  -0.238102 -0.913684 0.00493598  -0.279584 -1.03239 0.00553536  -0.242051 -1.04437 0.00624275  -0.229085 -1.0051 0.00583053  -0.27905 -1.03206 0.00566459  -0.265906 -0.992906 0.00529814  -0.228558 -1.0047 0.0060761  -0.265337 -0.992541 0.00543165  -0.307007 -1.11139 0.0059998  -0.269175 -1.12373 0.00657916  -0.256041 -1.08435 0.00618744  -0.306559 -1.11115 0.0061264  -0.293276 -1.07187 0.00576854  -0.25559 -1.08406 0.00640845  -0.292793 -1.0716 0.00589657  -0.33449 -1.19035 0.00644994  -0.296445 -1.20295 0.00690842  -0.283184 -1.16357 0.0065608  -0.3341 -1.19019 0.00656319  -0.320744 -1.15087 0.00622773  -0.282803 -1.16335 0.00674129  -0.320332 -1.15068 0.00635123  -0.361878 -1.26911 0.00689507  -0.323673 -1.28193 0.00724983  -0.310398 -1.24261 0.006917  -0.361551 -1.26901 0.00699139  -0.348193 -1.22975 0.00667143  -0.310061 -1.24247 0.00707293  -0.34784 -1.22964 0.00677681  -0.389132 -1.34758 0.0073235  -0.350836 -1.36048 0.00758815  -0.337549 -1.32135 0.00730777  -0.388844 -1.34752 0.00740361  -0.375523 -1.30838 0.00711036  -0.33727 -1.32125 0.00741553  -0.375219 -1.30831 0.00720024  -0.416129 -1.4256 0.0077467  -0.377797 -1.43861 0.00793958  -0.36458 -1.39967 0.00767708  -0.415913 -1.42557 0.00779963  -0.402663 -1.38665 0.00754833  -0.364351 -1.39961 0.00777221  -0.402414 -1.38662 0.00760937  -0.442909 -1.50312 0.00820947  -0.404514 -1.51627 0.00829744  -0.391376 -1.47748 0.0080595  -0.442682 -1.50316 0.00823402  -0.429549 -1.46442 0.00796199  -0.391159 -1.47746 0.00809264  -0.429318 -1.46438 0.00800562  -0.469375 -1.57999 0.0085721  -0.430723 -1.59306 0.00859022  -0.417871 -1.55468 0.00840759  -0.46899 -1.58003 0.00859022  -0.456141 -1.5416 0.00833654  -0.417615 -1.55471 0.00844407  -0.455851 -1.54168 0.0083766  0.00383401 -0.0144574 0.00221348  0 0 0  0.0062132 -0.0159663 0.00575542  0.00198095 -0.0065245 0.00240159  0 0 0  0.00418819 -0.0135503 0.00312448  0.00131197 -0.00517696 0.00129557  0 0 0  0.00209451 -0.00614333 0.0033865  0.00140089 -0.00480086 0.00187612  0.0103573 -0.043493 0.00325751  0.0168893 -0.0456619 0.00834441  0.0106122 -0.0308673 0.00551605  0.0111445 -0.041697 0.00435805  0.00700764 -0.0275765 0.00287795  0.0113663 -0.0295295 0.00737906  0.00760502 -0.026233 0.00392365  0.0157514 -0.0827028 0.00350523  0.0266111 -0.0850326 0.00887227  0.0209976 -0.066444 0.00675988  0.0167702 -0.0802544 0.00452328  0.0133631 -0.0620562 0.00342178  0.0220872 -0.0643068 0.00872278  0.0142818 -0.0598997 0.00447679  0.0180122 -0.129509 0.00360012  0.0329193 -0.132056 0.00880027  0.029078 -0.110253 0.00701237  0.0191924 -0.12676 0.00455451  0.0173307 -0.105244 0.00354886  0.030263 -0.107649 0.0088625  0.0184339 -0.102618 0.00452757  0.0165424 -0.18266 0.00377226  0.0351117 -0.185695 0.00863385  0.033295 -0.160865 0.00698042  0.0178496 -0.179886 0.00469756  0.0177534 -0.15535 0.00367808  0.0345436 -0.158107 0.00871992  0.0189993 -0.152575 0.00461411  0.0113691 -0.241116 0.00402045  0.0331916 -0.244889 0.00847507  0.0333741 -0.217337 0.00691509  0.0127416 -0.238497 0.00491786  0.0144133 -0.21126 0.00389266  0.0346636 -0.214642 0.00855494  0.0157585 -0.208564 0.00480127  0.00267363 -0.304128 0.00429392  0.0273394 -0.3088 0.00832868  0.0294452 -0.278811 0.00686336  0.00405735 -0.301748 0.00516748  0.0074473 -0.272094 0.0041585  0.0307427 -0.276304 0.00840068  0.00882745 -0.269602 0.00504303  -0.00920153 -0.370879 0.00456238  0.0179222 -0.376535 0.00818396  0.0217974 -0.344484 0.00682211  -0.00786477 -0.368774 0.00539994  -0.00288093 -0.337061 0.00443172  0.0230634 -0.342224 0.00825834  -0.00151873 -0.334833 0.0052855  -0.0239483 -0.440783 0.00480604  0.00527418 -0.447437 0.00803518  0.0107807 -0.413622 0.00678205  -0.0226876 -0.43895 0.00560617  -0.0162343 -0.405468 0.00468826  0.011983 -0.411626 0.00810933  -0.0149374 -0.403513 0.00550771  -0.0411743 -0.513201 0.00502682  -0.0101703 -0.520828 0.00788498  -0.00322652 -0.485582 0.00674081  -0.0400194 -0.511626 0.00577736  -0.0322651 -0.476693 0.00491905  -0.0021112 -0.483844 0.00796103  -0.0310599 -0.475006 0.00569272  -0.0605762 -0.587701 0.0052278  -0.0280774 -0.596236 0.00774097  -0.0198481 -0.559801 0.00670385  -0.0595303 -0.586358 0.00592828  -0.0506198 -0.550212 0.00512981  -0.0188332 -0.558305 0.00781059  -0.0495244 -0.548768 0.0058558  -0.0817883 -0.663792 0.0054214  -0.0480392 -0.673162 0.00761008  -0.0387204 -0.635799 0.0066762  -0.0808614 -0.662661 0.00606179  -0.0709666 -0.625556 0.00532556  -0.0378109 -0.634524 0.00767469  -0.0699853 -0.624335 0.0059936  -0.10455 -0.741163 0.00561237  -0.0697697 -0.751271 0.00750184  -0.0595006 -0.713162 0.00666618  -0.103731 -0.740217 0.00619531  -0.0929888 -0.702333 0.00551748  -0.0586967 -0.712086 0.00755191  -0.0921229 -0.701308 0.00612974  -0.128539 -0.819428 0.00581002  -0.0929103 -0.830187 0.00742054  -0.0818716 -0.791534 0.00667644  -0.127831 -0.818649 0.00632882  -0.116398 -0.780185 0.00570965  -0.0811692 -0.790636 0.00745797  -0.115641 -0.77934 0.00625777  -0.153546 -0.898363 0.00601816  -0.117232 -0.909672 0.00737643  -0.105542 -0.870608 0.00671721  -0.15293 -0.89773 0.00647759  -0.140926 -0.858821 0.00591302  -0.104933 -0.86987 0.00739264  -0.140271 -0.858129 0.00640297  -0.179292 -0.977661 0.00624347  -0.142428 -0.989439 0.00736547  -0.130245 -0.950122 0.00678802  -0.178768 -0.977157 0.00663948  -0.16633 -0.937964 0.00612831  -0.129723 -0.949524 0.00736666  -0.165767 -0.937413 0.00655317  -0.205616 -1.05717 0.00648499  -0.16832 -1.06932 0.00740433  -0.155741 -1.02984 0.00689626  -0.205165 -1.05677 0.00682402  -0.19239 -1.01739 0.00636292  -0.155294 -1.02937 0.00738049  -0.19191 -1.01696 0.00673127  -0.23229 -1.13664 0.00675058  -0.194664 -1.14909 0.00747514  -0.181814 -1.10958 0.0070374  -0.231909 -1.13634 0.0070262  -0.218909 -1.0969 0.00661421  -0.181435 -1.10922 0.00743365  -0.218501 -1.09657 0.00691962  -0.259199 -1.21596 0.00703192  -0.221317 -1.22864 0.00762868  -0.208278 -1.18916 0.00722456  -0.258868 -1.21575 0.00726056  -0.245719 -1.17631 0.0068872  -0.207958 -1.18889 0.00754309  -0.24537 -1.17607 0.00714159  -0.286164 -1.29497 0.0073421  -0.248086 -1.30782 0.00777888  -0.234966 -1.26848 0.00744796  -0.285894 -1.29481 0.00751233  -0.272666 -1.2555 0.00718951  -0.234678 -1.26828 0.00768995  -0.272376 -1.25533 0.00738049  -0.313118 -1.37357 0.0076766  -0.274898 -1.3866 0.00793338  -0.261749 -1.34736 0.00770068  -0.312867 -1.37349 0.00779557  -0.299648 -1.33432 0.00751042  -0.261496 -1.34725 0.0078969  -0.299402 -1.33421 0.00765872  -0.339941 -1.45171 0.00802994  -0.301635 -1.46472 0.00823474  -0.288495 -1.42583 0.00797319  -0.339689 -1.45169 0.00810289  -0.326547 -1.41269 0.00782657  -0.288263 -1.42573 0.00803161  -0.326293 -1.41265 0.0079298  -0.366521 -1.52932 0.00833774  -0.328219 -1.5423 0.00883889  -0.315149 -1.50362 0.00837445  -0.366346 -1.52933 0.0084126  -0.353252 -1.49056 0.00818062  -0.314951 -1.50357 0.00844407  -0.353001 -1.49055 0.00824761  -0.39282 -1.60625 0.00869966  -0.354288 -1.61933 0.00900173  -0.341454 -1.5809 0.00870514  -0.392637 -1.60604 0.00868773  -0.379639 -1.56779 0.00857639  -0.341279 -1.58086 0.00880289  -0.379501 -1.5677 0.00853872  0.00794479 -0.0199392 0.00604177  0 0 0  0.0110649 -0.0229318 0.010571  0.00358059 -0.0107144 0.00440073  0 0 0  0.00848688 -0.0190277 0.00823784  0.00270446 -0.00829244 0.00343466  0 0 0  0.00372952 -0.0102449 0.00612783  0.00284017 -0.00790703 0.00479937  0.0219705 -0.0523351 0.0092814  0.0298825 -0.0564622 0.015698  0.0190946 -0.0402369 0.0103648  0.0231009 -0.0505511 0.0121284  0.0146161 -0.0350281 0.00801492  0.0201276 -0.0387905 0.0137229  0.0155101 -0.0336801 0.0106444  0.0356392 -0.0931205 0.010287  0.0477794 -0.0972801 0.0170515  0.0379226 -0.078163 0.0129869  0.0368933 -0.0907118 0.0130532  0.0291388 -0.0717969 0.00995517  0.0392771 -0.0759712 0.0166318  0.0303705 -0.069669 0.0127804  0.0457033 -0.140866 0.0103223  0.0614864 -0.145115 0.0169353  0.053909 -0.122916 0.0135863  0.0469486 -0.138175 0.0129337  0.0412091 -0.116144 0.0103655  0.0552155 -0.120324 0.0170941  0.0424568 -0.113569 0.013057  0.0513294 -0.194981 0.0100565  0.0704272 -0.199575 0.0162849  0.0653201 -0.17428 0.0133443  0.0525698 -0.192253 0.0125012  0.0490814 -0.167168 0.0102093  0.0665574 -0.171566 0.0166471  0.0503224 -0.164449 0.0127397  0.0525262 -0.25457 0.00971508  0.0746323 -0.259792 0.0154564  0.0719256 -0.231673 0.0128071  0.0537511 -0.251971 0.0119929  0.0524774 -0.224128 0.00989151  0.0731134 -0.229021 0.0158846  0.0537068 -0.221464 0.012253  0.0494901 -0.318876 0.0093677  0.0742871 -0.32486 0.0145793  0.0738661 -0.29426 0.0121825  0.0506866 -0.316485 0.0114691  0.0515194 -0.286177 0.00954294  0.0750079 -0.291778 0.0150182  0.0527295 -0.283691 0.0117342  0.0425937 -0.387016 0.00903034  0.069757 -0.393877 0.0137148  0.0714351 -0.361182 0.0115521  0.0437319 -0.384875 0.0109587  0.0465089 -0.352499 0.00919819  0.072524 -0.358925 0.0141463  0.0476737 -0.350244 0.0112131  0.0321833 -0.45834 0.00871181  0.0614011 -0.466068 0.0128808  0.0650088 -0.431632 0.0109437  0.0332501 -0.456451 0.0104613  0.0378056 -0.422313 0.00886965  0.0660295 -0.42962 0.0132906  0.0389057 -0.420314 0.0107102  0.0187 -0.532145 0.00841546  0.0496788 -0.540746 0.0120971  0.0549964 -0.5049 0.0103736  0.0196742 -0.530502 0.00999379  0.0258098 -0.494954 0.0085597  0.0559376 -0.503133 0.0124841  0.0268257 -0.493202 0.0102234  0.00249815 -0.607954 0.00814891  0.0349731 -0.617345 0.0113699  0.0418186 -0.580371 0.00984883  0.0033797 -0.606538 0.00955534  0.010918 -0.56982 0.00827837  0.0426713 -0.578836 0.011724  0.0118415 -0.568308 0.00977254  -0.0159994 -0.68524 0.00791597  0.0177313 -0.695377 0.0107098  0.025887 -0.657526 0.00937772  -0.015221 -0.684034 0.00916076  -0.00647712 -0.646424 0.00802803  0.0266483 -0.656207 0.0110331  -0.00565302 -0.645128 0.00935268  -0.0364817 -0.763671 0.00772524  -0.00170445 -0.774441 0.0101194  0.00759375 -0.735921 0.00896406  -0.0357952 -0.762653 0.0088098  -0.02601 -0.724325 0.0078156  0.00826299 -0.7348 0.0104029  -0.0252832 -0.72323 0.00898194  -0.0585747 -0.842851 0.00757575  -0.0229366 -0.854196 0.00960517  -0.0126952 -0.81519 0.00861192  -0.0579841 -0.842005 0.00851321  -0.0473366 -0.803172 0.00764489  -0.0121126 -0.81425 0.00985479  -0.046705 -0.802254 0.00865436  -0.0820225 -0.922554 0.00747776  -0.0456856 -0.934355 0.00917101  -0.0346427 -0.895018 0.00832391  -0.0815103 -0.921857 0.00827122  -0.0701436 -0.882644 0.00752115  -0.034143 -0.894238 0.00937414  -0.069598 -0.881889 0.0083878  -0.106503 -1.00248 0.00742865  -0.0696073 -1.01468 0.00881743  -0.0579395 -0.975141 0.0081048  -0.106074 -1.00192 0.00809264  -0.0941403 -0.962488 0.00744724  -0.0575129 -0.974509 0.0089879  -0.093676 -0.961874 0.00817418  -0.13182 -1.08247 0.00743675  -0.0944896 -1.09497 0.00855112  -0.0823033 -1.05535 0.0079565  -0.131449 -1.08203 0.00797486  -0.119068 -1.04247 0.00742531  -0.0819426 -1.05484 0.00866914  -0.118673 -1.04198 0.00802898  -0.157702 -1.1623 0.00749326  -0.120022 -1.17507 0.00836658  -0.10749 -1.13543 0.00787735  -0.157394 -1.16197 0.00792146  -0.144695 -1.1224 0.00745988  -0.107187 -1.13505 0.00845599  -0.144361 -1.12203 0.00794053  -0.184002 -1.2419 0.00761557  -0.146107 -1.2548 0.00826168  -0.133259 -1.21528 0.0078733  -0.183741 -1.24166 0.00793505  -0.170806 -1.20213 0.00754499  -0.132994 -1.21499 0.00829697  -0.170524 -1.20186 0.00792575  -0.210498 -1.32104 0.00777459  -0.172442 -1.33411 0.00824809  -0.159462 -1.29469 0.00793004  -0.210294 -1.3209 0.0080092  -0.197236 -1.28153 0.00768828  -0.159257 -1.29448 0.00827622  -0.197 -1.28133 0.00795603  -0.237156 -1.3998 0.00802565  -0.198923 -1.41287 0.00835276  -0.185858 -1.37372 0.00810075  -0.236964 -1.39972 0.00815415  -0.223815 -1.36049 0.00789094  -0.185631 -1.37358 0.00828004  -0.223592 -1.36036 0.00809503  -0.263812 -1.47785 0.00832224  -0.225471 -1.49102 0.00861216  -0.212387 -1.45202 0.00837517  -0.26351 -1.47785 0.00841308  -0.250491 -1.43888 0.00809574  -0.212218 -1.4519 0.00852871  -0.250246 -1.43883 0.00823951  -0.290184 -1.55551 0.00858426  -0.251608 -1.56866 0.00866938  -0.238786 -1.53008 0.00858998  -0.289958 -1.55545 0.00857472  -0.277018 -1.51674 0.00850701  -0.238657 -1.53016 0.00860476  -0.276792 -1.51681 0.00852942  -0.31627 -1.63276 0.00889444  -0.27774 -1.646 0.00900722  -0.265158 -1.60744 0.00867558  -0.31628 -1.63241 0.00886345  -0.303253 -1.59417 0.00883269  -0.264868 -1.60733 0.00863147  -0.303196 -1.59401 0.00878239  0.0136022 -0.0292389 0.00938559  0 0 0  0.0181201 -0.0348539 0.014626  0.00585254 -0.0186512 0.00607705  0 0 0  0.0142983 -0.028062 0.0126939  0.00456171 -0.01402 0.00526285  0 0 0  0.00603227 -0.0178401 0.0083735  0.00471892 -0.0134236 0.00728536  0.0363347 -0.0655321 0.0146589  0.0467174 -0.0716342 0.0221784  0.0312346 -0.054758 0.0146081  0.0377165 -0.0635036 0.0190392  0.0245977 -0.0467342 0.0125508  0.0324383 -0.0528533 0.0192256  0.0257383 -0.045112 0.0165598  0.0580968 -0.107244 0.0164974  0.0722333 -0.112946 0.0245483  0.0585937 -0.093904 0.0186062  0.0595116 -0.104719 0.020884  0.0477 -0.0855584 0.0158687  0.0600929 -0.0914179 0.0237668  0.0491422 -0.0832527 0.0202894  0.0754011 -0.155519 0.0166264  0.0927439 -0.161253 0.0245717  0.0817464 -0.138903 0.0196667  0.0766953 -0.152808 0.0208178  0.0673681 -0.130517 0.0166895  0.0831369 -0.136188 0.0247414  0.0687209 -0.127885 0.0209899  0.0876431 -0.210351 0.0160544  0.107994 -0.216453 0.0235829  0.0997765 -0.190771 0.0193391  0.0888449 -0.207644 0.0199881  0.0821638 -0.182151 0.0163937  0.101037 -0.188032 0.0241551  0.0834036 -0.179437 0.0204613  0.094859 -0.270889 0.0152261  0.118001 -0.277597 0.022187  0.112496 -0.248967 0.0184312  0.0959867 -0.268317 0.0188615  0.0918742 -0.239945 0.0156596  0.113655 -0.246329 0.0229151  0.0930341 -0.23731 0.0194447  0.09723 -0.336318 0.0143232  0.1229 -0.343766 0.0206559  0.119994 -0.31257 0.0173125  0.0982997 -0.333943 0.0176511  0.0966337 -0.303044 0.0147789  0.121076 -0.310112 0.0214272  0.0977268 -0.300578 0.018261  0.0951363 -0.405672 0.0134292  0.123056 -0.413922 0.0191219  0.122546 -0.380629 0.016149  0.0961367 -0.403531 0.0164416  0.0967237 -0.370539 0.0138736  0.123558 -0.378389 0.019886  0.0977559 -0.368295 0.0170412  0.0889394 -0.47823 0.0125749  0.118819 -0.487281 0.0176406  0.120523 -0.45225 0.0150146  0.0898696 -0.476327 0.0152812  0.0925273 -0.44159 0.0129969  0.121464 -0.450246 0.0183713  0.0934879 -0.439582 0.0158551  0.0791165 -0.553228 0.0117815  0.11069 -0.563047 0.0162466  0.114361 -0.526663 0.0139415  0.0799614 -0.551562 0.0141859  0.084462 -0.515446 0.0121703  0.115225 -0.524894 0.0169325  0.0853455 -0.513678 0.0147219  0.0660595 -0.630148 0.011054  0.0990709 -0.64067 0.0149524  0.104512 -0.603202 0.0129488  0.0668222 -0.628702 0.0131745  0.0729688 -0.591475 0.0114093  0.105293 -0.601657 0.015584  0.0737668 -0.589933 0.0136702  0.0502392 -0.708432 0.0104029  0.0844654 -0.719583 0.0137708  0.0914297 -0.681318 0.0120449  0.0509107 -0.707192 0.0122492  0.0584779 -0.669131 0.0107188  0.0921259 -0.679984 0.0143483  0.0591898 -0.667805 0.0126982  0.0320102 -0.78773 0.00982928  0.0672411 -0.799421 0.0127084  0.0755471 -0.760545 0.0112371  0.0326003 -0.786677 0.0114229  0.0414054 -0.747971 0.0101061  0.0761601 -0.759407 0.0132225  0.0420293 -0.746839 0.0118244  0.0117937 -0.867637 0.00933838  0.047856 -0.879784 0.011761  0.0572765 -0.840509 0.0105267  0.0122999 -0.866754 0.0106902  0.0221381 -0.827611 0.00957441  0.0578067 -0.839548 0.0122209  0.0226793 -0.82666 0.0110419  -0.0101119 -0.947926 0.00893211  0.026613 -0.960443 0.0109506  0.0369908 -0.920885 0.00991583  -0.00967848 -0.947199 0.010067  0.00103474 -0.907743 0.00912428  0.037448 -0.92009 0.0113363  0.00149775 -0.906953 0.0103662  -0.0333537 -1.0283 0.00860929  0.0039041 -1.0411 0.0102384  0.0150516 -1.00143 0.00940776  -0.0329863 -1.02771 0.00953579  -0.0215725 -0.988101 0.00876021  0.0154372 -1.00078 0.0105779  -0.0211807 -0.987459 0.00978518  -0.057673 -1.10862 0.00837636  -0.020026 -1.12165 0.00969982  -0.00825143 -1.08191 0.00900745  -0.0573711 -1.10816 0.00912428  -0.0453935 -1.06847 0.00847936  -0.00792551 -1.08139 0.00995636  -0.0450613 -1.06796 0.00931811  -0.0828135 -1.18869 0.00823092  -0.0448439 -1.2018 0.00921178  -0.0325894 -1.1622 0.00871229  -0.0825524 -1.18831 0.00880122  -0.0701406 -1.14868 0.00829363  -0.0323048 -1.16179 0.00945067  -0.0698736 -1.14828 0.0089438  -0.108513 -1.26837 0.00818253  -0.070369 -1.2817 0.0089848  -0.0577784 -1.24206 0.0085001  -0.108322 -1.26812 0.00862312  -0.0956128 -1.22857 0.00818992  -0.0575571 -1.24175 0.00908637  -0.0953758 -1.22826 0.00871062  -0.134688 -1.34761 0.00820661  -0.0962894 -1.36083 0.00871062  -0.0834558 -1.32152 0.00843406  -0.134475 -1.34739 0.00852036  -0.121527 -1.30802 0.00820112  -0.0831892 -1.32136 0.00883675  -0.121347 -1.30781 0.0085535  -0.160906 -1.4262 0.0083735  -0.122617 -1.43976 0.0086391  -0.109636 -1.40042 0.00852704  -0.160795 -1.42619 0.00851774  -0.14783 -1.38701 0.00828528  -0.10949 -1.40027 0.00889945  -0.147647 -1.38689 0.00856614  -0.1874 -1.50446 0.00863028  -0.149025 -1.51756 0.00893164  -0.135895 -1.47877 0.0086174  -0.187214 -1.50435 0.00870752  -0.174129 -1.46536 0.00846124  -0.135546 -1.47872 0.00873709  -0.173937 -1.46527 0.00858808  -0.213715 -1.58194 0.00883532  -0.175462 -1.59513 0.00871825  -0.162123 -1.55661 0.0088017  -0.213634 -1.58167 0.00868297  -0.20056 -1.54335 0.00889015  -0.162324 -1.55623 0.00903082  -0.200558 -1.54334 0.00907445  -0.239704 -1.65908 0.00937057  -0.201547 -1.67364 0.0096333  -0.189169 -1.63341 0.00924039  -0.240092 -1.65935 0.00947809  -0.226974 -1.62063 0.00912714  -0.1883 -1.63378 0.00908923  -0.226792 -1.62023 0.00942063  0.0234421 -0.0461016 0.0123565  0 0 0  0.0331695 -0.0558151 0.0185597  0.0126038 -0.0360159 0.00781918  0 0 0  0.0241111 -0.0443022 0.0165801  0.00772224 -0.0252256 0.00678968  0 0 0  0.0126552 -0.0344545 0.010736  0.00787099 -0.0241607 0.00930405  0.0557166 -0.0831937 0.0195286  0.0691228 -0.0902522 0.0284669  0.0508761 -0.074957 0.0187175  0.0571445 -0.0806641 0.0252919  0.039986 -0.0643827 0.0166216  0.0518747 -0.0722579 0.0246496  0.0411405 -0.0621256 0.0218577  0.0844826 -0.1246 0.0222182  0.100821 -0.131365 0.0316775  0.0839909 -0.112675 0.0239391  0.0859728 -0.121847 0.0281367  0.0706455 -0.103004 0.0212834  0.0854874 -0.109837 0.0306442  0.0721573 -0.10035 0.0271957  0.108357 -0.173141 0.0224993  0.127699 -0.180164 0.031759  0.113471 -0.157616 0.0253527  0.109711 -0.170368 0.0282218  0.0970877 -0.147949 0.0225534  0.114934 -0.154778 0.0319927  0.0985085 -0.145179 0.0284011  0.126771 -0.22865 0.0217035  0.148994 -0.236201 0.0304487  0.137721 -0.210048 0.0249262  0.128005 -0.225965 0.0270762  0.118261 -0.200065 0.0221872  0.139075 -0.207322 0.0312343  0.119551 -0.197338 0.0277486  0.139679 -0.290127 0.0204616  0.164559 -0.298412 0.0285451  0.156255 -0.269149 0.0236981  0.140811 -0.287612 0.025424  0.133916 -0.258691 0.0211151  0.157493 -0.266588 0.029563  0.135092 -0.256093 0.026289  0.147189 -0.356643 0.019073  0.174476 -0.36569 0.0264335  0.169061 -0.333825 0.0221539  0.148247 -0.354334 0.0235913  0.144093 -0.322814 0.0197761  0.170215 -0.331481 0.0275185  0.145185 -0.32041 0.0245194  0.149674 -0.427126 0.0176737  0.179075 -0.436984 0.0242965  0.176344 -0.403007 0.0205264  0.150653 -0.425049 0.0217488  0.149042 -0.391434 0.0183704  0.177414 -0.400889 0.0253818  0.150057 -0.389249 0.0226667  0.147494 -0.500795 0.0163271  0.178746 -0.511388 0.0222232  0.178505 -0.475728 0.0189207  0.148402 -0.49895 0.0199606  0.149139 -0.463609 0.0169921  0.179501 -0.473852 0.0232632  0.150081 -0.46166 0.0208461  0.141167 -0.576827 0.0150626  0.173993 -0.588132 0.0202591  0.175977 -0.551161 0.0173903  0.141988 -0.575212 0.0182767  0.144825 -0.538548 0.0156834  0.176887 -0.54951 0.0212448  0.145686 -0.536828 0.019105  0.131109 -0.654678 0.0138988  0.165282 -0.666572 0.0184314  0.169275 -0.628607 0.0159621  0.131853 -0.653275 0.0167081  0.136575 -0.615557 0.0144677  0.170101 -0.627182 0.0193408  0.137354 -0.614062 0.0174787  0.117845 -0.733758 0.0128424  0.153129 -0.746195 0.0167549  0.158863 -0.707494 0.014653  0.118497 -0.732559 0.0152771  0.124855 -0.694085 0.013356  0.159599 -0.706266 0.0175924  0.125549 -0.692793 0.0159755  0.101758 -0.813717 0.0118992  0.137973 -0.826556 0.015234  0.145247 -0.787346 0.0134678  0.102334 -0.812697 0.013979  0.110127 -0.773649 0.0123577  0.145897 -0.786314 0.0159864  0.110738 -0.772554 0.0146134  0.0833241 -0.894135 0.011071  0.120276 -0.907335 0.0138695  0.128845 -0.867784 0.0124128  0.0838109 -0.893288 0.0128255  0.0928152 -0.853882 0.011471  0.129408 -0.866915 0.0145521  0.0933417 -0.852957 0.0133836  0.0628604 -0.974804 0.0103614  0.100412 -0.988221 0.0126741  0.110108 -0.948489 0.0114892  0.0632828 -0.974104 0.0118122  0.0733215 -0.934449 0.0107024  0.110591 -0.947787 0.0132675  0.0737742 -0.933691 0.0123057  0.040782 -1.05541 0.00976825  0.0787787 -1.06902 0.0116363  0.0893755 -1.02923 0.0106959  0.0411303 -1.05485 0.0109491  0.0520076 -1.01512 0.0100482  0.0897834 -1.02865 0.0121505  0.0523877 -1.0145 0.0113547  0.0173388 -1.13588 0.0092895  0.0556631 -1.14953 0.010777  0.0670557 -1.10976 0.0100491  0.0176351 -1.13544 0.0102282  0.0292137 -1.09566 0.00952244  0.067389 -1.10934 0.011215  0.0295286 -1.09518 0.0105834  -0.00709224 -1.21591 0.00893235  0.031472 -1.2296 0.010041  0.0433724 -1.19 0.00950646  -0.00685167 -1.21554 0.00965357  0.00523114 -1.17596 0.00912714  0.043659 -1.18965 0.0104089  0.00549221 -1.17557 0.0099225  -0.0323956 -1.2956 0.00873899  0.00627279 -1.30929 0.00950336  0.0187685 -1.26971 0.00916386  -0.032222 -1.2954 0.00924468  -0.0196502 -1.25578 0.00881481  0.0189946 -1.26952 0.009866  -0.0194447 -1.25551 0.00945497  -0.0581722 -1.37462 0.00861335  -0.0193465 -1.38805 0.0091455  -0.00675464 -1.34899 0.00893307  -0.0578983 -1.37433 0.00902081  -0.0452125 -1.33516 0.00863624  -0.00656199 -1.34881 0.00931621  -0.0450277 -1.33499 0.00901008  -0.0844378 -1.45313 0.00856829  -0.045692 -1.46662 0.00896263  -0.0324621 -1.42751 0.00884295  -0.0842965 -1.45316 0.00881267  -0.0711758 -1.41385 0.00870299  -0.032445 -1.42756 0.00923538  -0.0710926 -1.41385 0.00904298  -0.110655 -1.53114 0.00899887  -0.071631 -1.54408 0.00924945  -0.0590005 -1.50561 0.00843167  -0.110437 -1.53058 0.00909925  -0.097537 -1.49219 0.00890255  -0.0586655 -1.50549 0.00861359  -0.0973146 -1.49199 0.00914407  -0.136911 -1.60839 0.00930142  -0.0987144 -1.62257 0.00870466  -0.0854616 -1.58298 0.00957274  -0.137089 -1.60849 0.00936961  -0.123725 -1.56984 0.00888276  -0.0852768 -1.58304 0.0096519  -0.123957 -1.56941 0.00897932  -0.16353 -1.68552 0.00994515  -0.124708 -1.6985 0.00982451  -0.112098 -1.66005 0.01051  -0.163288 -1.68598 0.00977898  -0.150385 -1.64694 0.00886726  -0.111825 -1.66088 0.0111027  -0.150207 -1.64773 0.00858569  -0.0363248 -0.0392275 -0.0134819  -0.0174004 -0.0246704 -0.00499725  0 0 0  -0.0216548 -0.0292452 -0.00749588  0 0 0  -0.0131628 -0.0195637 -0.00956011  -0.00474081 -0.00843677 -0.00347638  0 0 0  -0.0169089 -0.0238946 -0.00766349  -0.021444 -0.0280313 -0.0114799  -0.00735934 -0.0136023 -0.00414515  0 0 0  -0.00470993 -0.00799543 -0.00531435  -0.0072849 -0.013064 -0.00633574  -0.0711271 -0.0621167 -0.0208023  -0.0545037 -0.0518281 -0.0116148  -0.0530778 -0.0569715 -0.0117645  -0.0384352 -0.0483195 -0.015162  -0.0252005 -0.0350114 -0.0084188  -0.0537116 -0.049893 -0.0177898  -0.0527462 -0.0548342 -0.0179529  -0.0372539 -0.0427556 -0.0100095  -0.0251207 -0.033539 -0.0128732  -0.0369558 -0.0410321 -0.015312  -0.106257 -0.0899467 -0.0234196  -0.0891809 -0.0778265 -0.0148568  -0.084866 -0.0876825 -0.0133531  -0.0659815 -0.0812546 -0.0171781  -0.052307 -0.0661141 -0.0108771  -0.0885954 -0.0752507 -0.0226102  -0.0844876 -0.085201 -0.0202494  -0.0689213 -0.0716047 -0.0128469  -0.0521338 -0.0640195 -0.0165479  -0.0685826 -0.069256 -0.0195382  -0.141313 -0.123982 -0.0227764  -0.124356 -0.108788 -0.0154662  -0.116682 -0.124298 -0.0130546  -0.0938307 -0.120305 -0.0166862  -0.0802682 -0.102226 -0.0113349  -0.123856 -0.106135 -0.0233715  -0.116158 -0.121892 -0.0196934  -0.100791 -0.105198 -0.0133786  -0.0798708 -0.0999982 -0.0171506  -0.100362 -0.102753 -0.0202224  -0.175546 -0.164368 -0.0204518  -0.159142 -0.145882 -0.014426  -0.148185 -0.166886 -0.0117087  -0.121856 -0.165299 -0.0149441  -0.108442 -0.144208 -0.0105321  -0.158562 -0.143425 -0.0217249  -0.147464 -0.164738 -0.0176651  -0.13248 -0.144866 -0.0124609  -0.107821 -0.142095 -0.0159116  -0.131867 -0.142599 -0.0187829  -0.208841 -0.210526 -0.0175641  -0.193052 -0.188894 -0.0126147  -0.17925 -0.21487 -0.00995111  -0.150029 -0.215529 -0.0126886  -0.136768 -0.191638 -0.00911832  -0.192319 -0.186803 -0.0190194  -0.178373 -0.21305 -0.0151029  -0.163768 -0.190226 -0.0108511  -0.135916 -0.189799 -0.0138428  -0.162972 -0.188272 -0.0164077  -0.241311 -0.261739 -0.0146372  -0.226018 -0.237318 -0.0105855  -0.209893 -0.267645 -0.00813746  -0.178354 -0.270344 -0.0104339  -0.165131 -0.24397 -0.00751829  -0.225181 -0.235558 -0.0160751  -0.208924 -0.266133 -0.012511  -0.194612 -0.240686 -0.00903749  -0.164169 -0.242395 -0.0115545  -0.193691 -0.239043 -0.0137889  -0.273193 -0.317423 -0.0119441  -0.258227 -0.2905 -0.00861168  -0.240237 -0.324654 -0.00642967  -0.206845 -0.329159 -0.00829411  -0.193604 -0.300563 -0.00594807  -0.257329 -0.28909 -0.0132425  -0.239245 -0.323424 -0.0101001  -0.225087 -0.295636 -0.00726533  -0.192567 -0.299279 -0.00934386  -0.224112 -0.294301 -0.0112753  -0.304632 -0.376996 -0.00951433  -0.289867 -0.347931 -0.00679827  -0.270389 -0.385406 -0.00487638  -0.235539 -0.3915 -0.00640416  -0.222175 -0.360983 -0.00449586  -0.288971 -0.346765 -0.0106857  -0.269419 -0.384402 -0.0079391  -0.255323 -0.354584 -0.00563312  -0.221162 -0.359911 -0.00732756  -0.254348 -0.35349 -0.00898433  -0.335783 -0.440009 -0.00737667  -0.321118 -0.409041 -0.00516462  -0.300452 -0.449436 -0.00347781  -0.264439 -0.456912 -0.00468397  -0.250939 -0.424694 -0.00317836  -0.320252 -0.408126 -0.00839782  -0.299537 -0.448627 -0.00601554  -0.285419 -0.41702 -0.00415897  -0.249954 -0.423845 -0.00552464  -0.284488 -0.416149 -0.00694799  -0.366678 -0.505993 -0.00545597  -0.352076 -0.473423 -0.00369668  -0.330453 -0.516329 -0.002213  -0.293537 -0.525007 -0.00318098  -0.279861 -0.491351 -0.00198698  -0.351271 -0.472659 -0.00638127  -0.329608 -0.515672 -0.00430322  -0.315451 -0.482541 -0.00283074  -0.278962 -0.490642 -0.00391722  -0.314581 -0.481829 -0.00513196  -0.397371 -0.574583 -0.0037508  -0.382802 -0.540593 -0.00236583  -0.360412 -0.585685 -0.00105715  -0.322779 -0.595394 -0.00178981  -0.308971 -0.56048 -0.000898838  -0.382062 -0.540007 -0.004565  -0.359644 -0.585162 -0.0027597  -0.345429 -0.550703 -0.00162244  -0.308133 -0.559934 -0.00247288  -0.344638 -0.550147 -0.00351024  -0.427813 -0.645377 -0.00218844  -0.4133 -0.610221 -0.00114894  -0.39028 -0.657149 8.82149e-06  -0.352113 -0.667739 -0.000556946  -0.338177 -0.631794 0.000104904  -0.412633 -0.609726 -0.00294185  -0.389587 -0.65673 -0.00136137  -0.37535 -0.621166 -0.000513554  -0.337435 -0.631337 -0.00116324  -0.374632 -0.620714 -0.00203943  -0.458009 -0.718067 -0.000782967  -0.443554 -0.681886 -2.6226e-05  -0.420025 -0.730375 0.00100136  -0.381451 -0.7417 0.000611067  -0.367455 -0.704868 0.00103974  -0.442955 -0.681525 -0.0014534  -0.419407 -0.730051 -7.89165e-05  -0.40516 -0.693543 0.00051403  -0.366776 -0.704536 3.45707e-05  -0.404522 -0.693204 -0.000704288  -0.487877 -0.792299 0.000524282  -0.473524 -0.755313 0.00101757  -0.449574 -0.805055 0.00193071  -0.410723 -0.816989 0.00165462  -0.396687 -0.779469 0.00191808  -0.472993 -0.755008 -0.000106096  -0.449021 -0.804805 0.00109768  -0.434818 -0.767542 0.00147343  -0.396096 -0.779192 0.0011394  -0.434246 -0.767273 0.00052619  -0.51741 -0.867803 0.00170374  -0.503171 -0.830127 0.00199318  -0.478881 -0.880887 0.00280452  -0.439841 -0.893306 0.00265718  -0.425835 -0.855215 0.00274611  -0.502698 -0.829928 0.00114441  -0.478391 -0.880707 0.00218511  -0.464249 -0.842824 0.00237513  -0.425296 -0.855035 0.00216103  -0.463746 -0.842641 0.0016551  -0.546528 -0.944268 0.00280547  -0.532447 -0.906098 0.00290442  -0.507874 -0.957607 0.00362539  -0.468741 -0.970406 0.00354934  -0.454783 -0.931916 0.00352955  -0.53203 -0.90593 0.0022769  -0.507437 -0.957478 0.00318408  -0.49341 -0.919142 0.00322104  -0.454318 -0.931769 0.00310802  -0.49296 -0.919005 0.00270009  -0.575239 -1.02147 0.00378871  -0.561318 -0.982891 0.00375581  -0.536527 -1.03495 0.00439548  -0.497353 -1.04803 0.00440931  -0.483504 -1.00924 0.0042696  -0.560946 -0.98281 0.00332665  -0.536137 -1.03488 0.00410199  -0.522233 -0.996197 0.0040164  -0.483076 -1.00917 0.00398374  -0.521839 -0.996126 0.00365567  -0.603485 -1.09912 0.00469708  -0.589759 -1.06032 0.00454712  -0.564789 -1.11271 0.00511169  -0.525643 -1.12598 0.00516009  -0.511905 -1.08703 0.00496769  -0.589427 -1.06025 0.00426459  -0.564436 -1.11267 0.00493383  -0.550697 -1.07378 0.00476027  -0.511537 -1.08697 0.00479031  -0.550341 -1.07374 0.00453329  -0.631307 -1.17705 0.00548792  -0.617761 -1.13808 0.00527596  -0.592665 -1.19065 0.00577641  -0.553568 -1.20403 0.00588107  -0.539988 -1.16499 0.00562119  -0.617459 -1.13809 0.00512195  -0.592345 -1.19064 0.00568652  -0.578763 -1.15165 0.0054512  -0.539642 -1.165 0.0055263  -0.578446 -1.15165 0.00532341  -0.658691 -1.25503 0.00620437  -0.645338 -1.21604 0.0059433  -0.620148 -1.2686 0.00638795  -0.581132 -1.28203 0.00649357  -0.567693 -1.24304 0.00622988  -0.645057 -1.21605 0.00586796  -0.619847 -1.26861 0.00635457  -0.606444 -1.22962 0.0060885  -0.567391 -1.24304 0.00619316  -0.606147 -1.22964 0.00603533  -0.685734 -1.33291 0.00681186  -0.672531 -1.29395 0.00655055  -0.647289 -1.34638 0.00695252  -0.608331 -1.35982 0.00709033  -0.595067 -1.32091 0.00679564  -0.672261 -1.29401 0.0065372  -0.647002 -1.34642 0.00695372  -0.633746 -1.3075 0.00667644  -0.594766 -1.32096 0.00679398  -0.63347 -1.30756 0.00666451  -0.712513 -1.41053 0.00737596  -0.699424 -1.37171 0.00710583  -0.674144 -1.42391 0.00747919  -0.635236 -1.43732 0.00760579  -0.622088 -1.39857 0.00733137  -0.699153 -1.37175 0.00711012  -0.673856 -1.42396 0.00749779  -0.660736 -1.38518 0.00721908  -0.621813 -1.39861 0.00734878  -0.660463 -1.38523 0.00723529  -0.739216 -1.4879 0.00790334  -0.726152 -1.44918 0.00762606  -0.700873 -1.50119 0.00799465  -0.661954 -1.51448 0.00813842  -0.64888 -1.47587 0.00783587  -0.725879 -1.44926 0.00765038  -0.700576 -1.50122 0.00803137  -0.687499 -1.46256 0.00773621  -0.648597 -1.47594 0.00787044  -0.68723 -1.46264 0.00776839  -0.00904626 -0.0159225 -0.00510049  0 0 0  -0.00606091 -0.0126731 -0.00615454  -0.0021366 -0.00437656 -0.00219345  0 0 0  -0.00905006 -0.0150973 -0.00780106  -0.00301107 -0.00578192 -0.00279784  0 0 0  -0.00212601 -0.00407003 -0.00335717  -0.00299953 -0.00542496 -0.00428224  -0.0277159 -0.0449648 -0.00820136  -0.0191184 -0.0403091 -0.00993872  -0.0118742 -0.0263362 -0.00548005  -0.0276718 -0.0433607 -0.0125198  -0.0175095 -0.0295192 -0.00691438  -0.0118619 -0.0252854 -0.00838161  -0.0175085 -0.0282753 -0.0105734  -0.0504219 -0.0802887 -0.00935841  -0.0365456 -0.0765064 -0.0112963  -0.0275952 -0.0591528 -0.0071404  -0.0501938 -0.0783169 -0.0142047  -0.0388241 -0.0618848 -0.00898981  -0.0274804 -0.0575633 -0.0108755  -0.0387013 -0.0600599 -0.0136809  -0.0744179 -0.121374 -0.00911021  -0.0559767 -0.119157 -0.010922  -0.0464345 -0.098893 -0.00741696  -0.0739204 -0.119342 -0.0137868  -0.062302 -0.100095 -0.00936079  -0.0460782 -0.0970659 -0.0112569  -0.0619504 -0.0980689 -0.0141771  -0.099167 -0.168049 -0.00807786  -0.0767572 -0.167571 -0.00964165  -0.0668403 -0.144502 -0.00680256  -0.0984125 -0.166186 -0.0122633  -0.0867122 -0.144037 -0.00865293  -0.0662076 -0.142687 -0.0103469  -0.0860777 -0.142084 -0.0131056  -0.12452 -0.219767 -0.00673056  -0.09876 -0.221015 -0.00801849  -0.0884566 -0.19537 -0.00575137  -0.12359 -0.218119 -0.0103421  -0.111763 -0.193313 -0.00742149  -0.0876067 -0.193704 -0.00884795  -0.110916 -0.191559 -0.0113239  -0.150452 -0.2759 -0.00533128  -0.121933 -0.27882 -0.00635815  -0.111184 -0.250865 -0.00455952  -0.149429 -0.274516 -0.00837493  -0.137417 -0.247308 -0.0060277  -0.110205 -0.249408 -0.00718212  -0.13643 -0.245802 -0.00935268  -0.176909 -0.335927 -0.00400233  -0.14615 -0.340394 -0.00479603  -0.134942 -0.310404 -0.00337982  -0.175868 -0.334758 -0.00654125  -0.163606 -0.305453 -0.00465488  -0.133913 -0.309164 -0.00556159  -0.162573 -0.304186 -0.00743961  -0.203898 -0.399348 -0.00278378  -0.171332 -0.40524 -0.00337958  -0.159646 -0.373471 -0.00227737  -0.202885 -0.398399 -0.00487733  -0.19034 -0.367232 -0.00337934  -0.158627 -0.372433 -0.00407004  -0.189308 -0.366186 -0.00569034  -0.231357 -0.465751 -0.00167584  -0.197336 -0.472912 -0.00210667  -0.185207 -0.439603 -0.00126719  -0.230406 -0.464958 -0.00339627  -0.217562 -0.432199 -0.00221729  -0.184234 -0.438745 -0.00272751  -0.216583 -0.431338 -0.00411797  -0.259264 -0.534708 -0.000663996  -0.224074 -0.543008 -0.000958681  -0.211525 -0.508382 -0.000341654  -0.258385 -0.53408 -0.00205922  -0.24526 -0.499925 -0.00115943  -0.210621 -0.507678 -0.00151896  -0.244344 -0.499227 -0.00271368  -0.287513 -0.605873 0.00026989  -0.251387 -0.615158 8.67844e-05  -0.23849 -0.579416 0.000513792  -0.286717 -0.60535 -0.000854969  -0.273341 -0.570035 -0.000188589  -0.237662 -0.578845 -0.000425577  -0.27251 -0.569468 -0.00144386  -0.316047 -0.678869 0.00114059  -0.27918 -0.689019 0.00104785  -0.26598 -0.652352 0.00131345  -0.315329 -0.678468 0.000254631  -0.301752 -0.642154 0.000711918  -0.265232 -0.651892 0.000576973  -0.300996 -0.641704 -0.000291586  -0.344734 -0.7534 0.00196028  -0.307286 -0.764274 0.00194073  -0.29387 -0.72685 0.0020678  -0.344094 -0.753071 0.00127077  -0.330368 -0.71596 0.00155592  -0.293197 -0.726488 0.0015018  -0.329696 -0.715603 0.000771284  -0.373506 -0.829138 0.00273705  -0.335614 -0.840631 0.00277567  -0.322032 -0.80261 0.00278568  -0.372934 -0.828902 0.0022223  -0.359118 -0.791128 0.00235343  -0.321431 -0.80233 0.00236535  -0.358513 -0.790856 0.00175285  -0.402233 -0.905834 0.00347543  -0.36401 -0.917822 0.00355816  -0.350343 -0.879345 0.00347281  -0.401725 -0.905645 0.00310159  -0.387871 -0.867382 0.00311065  -0.349806 -0.879135 0.00317311  -0.387339 -0.867176 0.00266838  -0.430858 -0.983205 0.00417924  -0.392401 -0.995598 0.00429559  -0.378691 -0.956799 0.00413227  -0.430404 -0.983088 0.0039289  -0.416565 -0.944442 0.00383186  -0.378213 -0.956649 0.00393343  -0.416086 -0.944299 0.00352025  -0.459271 -1.06105 0.00484896  -0.420658 -1.07374 0.00498581  -0.406974 -1.03473 0.00476575  -0.458868 -1.06096 0.00469112  -0.445084 -1.02208 0.00451756  -0.406547 -1.03463 0.0046463  -0.444664 -1.02198 0.0043149  -0.487444 -1.13912 0.00548315  -0.448739 -1.15204 0.00563478  -0.435109 -1.11294 0.00537324  -0.487081 -1.13908 0.00540352  -0.473392 -1.10006 0.00517058  -0.434727 -1.11288 0.00531769  -0.473011 -1.1 0.00505233  -0.5153 -1.21726 0.00608325  -0.47655 -1.23034 0.00623655  -0.463022 -1.19122 0.00595474  -0.514973 -1.21724 0.00605249  -0.501403 -1.17819 0.0057869  -0.462677 -1.1912 0.00594068  -0.501066 -1.17817 0.00573349  -0.542845 -1.29528 0.00664616  -0.504079 -1.30847 0.00680113  -0.490667 -1.26943 0.0065093  -0.54254 -1.2953 0.00665402  -0.529113 -1.25629 0.00636959  -0.490355 -1.26943 0.00652575  -0.5288 -1.2563 0.00635695  -0.570037 -1.37309 0.00717878  -0.531266 -1.38632 0.00732803  -0.518007 -1.34741 0.00703573  -0.569752 -1.3731 0.00720263  -0.556476 -1.33422 0.006917  -0.517711 -1.34744 0.00706863  -0.556189 -1.33424 0.00693226  -0.596945 -1.45054 0.00768685  -0.558163 -1.4638 0.00782537  -0.545035 -1.42507 0.00754786  -0.596659 -1.45059 0.0077219  -0.583525 -1.41185 0.00743628  -0.544761 -1.42511 0.00758123  -0.583244 -1.4119 0.00746155  -0.623624 -1.52765 0.00818229  -0.584781 -1.54082 0.00832176  -0.571777 -1.50232 0.00804138  -0.623336 -1.52768 0.00822568  -0.610286 -1.48914 0.00793529  -0.571491 -1.50238 0.00808239  -0.610016 -1.48918 0.00797176  -0.00370095 -0.0122515 -0.00297809  0 0 0  -0.00171331 -0.0115367 -0.00299168  -0.000620391 -0.00369844 -0.00106287  0 0 0  -0.00368144 -0.011657 -0.00455356  -0.00125094 -0.00376746 -0.00161815  0 0 0  -0.000600979 -0.00346902 -0.00161552  -0.00124444 -0.00351241 -0.00247192  -0.0123216 -0.0400448 -0.00483799  -0.00622216 -0.0387539 -0.00489521  -0.00366503 -0.0244517 -0.00268388  -0.0122368 -0.0388575 -0.00738931  -0.00742596 -0.0247759 -0.0040648  -0.00356947 -0.0236755 -0.00410032  -0.007376 -0.0238826 -0.0062139  -0.0249438 -0.0774011 -0.00552583  -0.0139632 -0.0763891 -0.00559402  -0.00993508 -0.0578068 -0.00352025  -0.0246876 -0.0758473 -0.00842404  -0.0182269 -0.0578095 -0.00531387  -0.00971204 -0.0565642 -0.00538445  -0.0180772 -0.0564161 -0.00810266  -0.040181 -0.121502 -0.00531244  -0.0245332 -0.121339 -0.00533032  -0.0193445 -0.0995882 -0.00361562  -0.0396718 -0.119784 -0.00810337  -0.032301 -0.0986993 -0.00550151  -0.0189215 -0.0980633 -0.00555038  -0.0319181 -0.0970442 -0.00837803  -0.0573475 -0.171208 -0.0045743  -0.0375884 -0.172221 -0.00451374  -0.0314017 -0.147702 -0.00318861  -0.0566077 -0.169548 -0.00706339  -0.0485358 -0.145697 -0.00498271  -0.0307605 -0.146095 -0.00496316  -0.0479105 -0.143996 -0.00763464  -0.0762118 -0.225821 -0.00361562  -0.0529255 -0.228086 -0.00347018  -0.0457857 -0.201106 -0.00248432  -0.0753121 -0.224287 -0.00572991  -0.0665756 -0.197933 -0.00410748  -0.0449721 -0.199562 -0.00400519  -0.0657429 -0.196339 -0.00640893  -0.0966605 -0.284698 -0.00261068  -0.0704186 -0.288293 -0.00238752  -0.0623243 -0.259083 -0.00168014  -0.0956833 -0.28337 -0.00436735  -0.0862398 -0.254758 -0.0031116  -0.0614086 -0.257681 -0.00292611  -0.0852985 -0.253329 -0.00504327  -0.118541 -0.347292 -0.00164509  -0.0898362 -0.352155 -0.00135732  -0.0808427 -0.321016 -0.000872135  -0.117548 -0.346139 -0.00307035  -0.107429 -0.315554 -0.00212049  -0.0798897 -0.319788 -0.00186443  -0.106435 -0.314325 -0.00370407  -0.141725 -0.413085 -0.000747204  -0.110999 -0.419194 -0.000411749  -0.101149 -0.386356 -0.000104904  -0.140764 -0.412131 -0.00189614  -0.129973 -0.379813 -0.0011878  -0.100207 -0.385303 -0.000874281  -0.128998 -0.378766 -0.00246859  -0.166042 -0.481644 8.03471e-05  -0.133645 -0.488872 0.000448465  -0.123037 -0.454607 0.000612259  -0.165136 -0.480832 -0.000826836  -0.153749 -0.447037 -0.000325441  -0.122139 -0.453718 2.71797e-05  -0.152812 -0.446167 -0.00134563  -0.191356 -0.552538 0.000847816  -0.1576 -0.560819 0.00123286  -0.146303 -0.525325 0.00128007  -0.190522 -0.551885 0.00013423  -0.178579 -0.51682 0.000470161  -0.145466 -0.524582 0.000849009  -0.177714 -0.516093 -0.000334978  -0.217485 -0.625411 0.00156665  -0.18261 -0.634597 0.00195694  -0.170741 -0.598105 0.00190902  -0.216725 -0.62486 0.00102305  -0.204326 -0.588742 0.00121212  -0.169974 -0.597491 0.00160003  -0.203529 -0.588152 0.000589848  -0.244293 -0.699895 0.00224781  -0.20852 -0.70991 0.00263357  -0.196154 -0.67258 0.00250864  -0.24361 -0.699467 0.00183749  -0.230809 -0.662469 0.00191116  -0.195458 -0.672078 0.00230145  -0.230094 -0.661984 0.00143814  -0.271599 -0.775695 0.00289893  -0.235093 -0.786391 0.00327277  -0.22235 -0.748417 0.00308514  -0.270984 -0.775339 0.00260782  -0.257891 -0.737643 0.00257635  -0.221723 -0.748013 0.00295615  -0.257242 -0.737262 0.00223088  -0.299276 -0.852498 0.00352645  -0.2622 -0.863805 0.00388217  -0.249147 -0.825313 0.00364494  -0.298729 -0.852237 0.0033257  -0.285395 -0.813986 0.00321555  -0.248584 -0.824995 0.00358152  -0.284821 -0.813681 0.00297236  -0.32716 -0.930062 0.00413394  -0.28963 -0.941842 0.00446701  -0.276374 -0.902997 0.00419259  -0.326671 -0.929849 0.00401449  -0.313197 -0.891194 0.00383258  -0.275871 -0.902751 0.00417638  -0.31268 -0.890968 0.00367665  -0.355149 -1.00812 0.00472331  -0.317281 -1.02032 0.00503039  -0.30388 -0.98122 0.00472975  -0.354714 -1.00799 0.00466037  -0.341144 -0.969043 0.00443125  -0.30343 -0.981037 0.00475311  -0.340689 -0.96887 0.00434208  -0.383107 -1.08649 0.00529504  -0.344982 -1.09898 0.00557375  -0.331523 -1.05976 0.00525761  -0.382716 -1.08638 0.00528145  -0.369135 -1.04728 0.00501156  -0.33112 -1.05963 0.00530338  -0.368723 -1.04716 0.00497723  -0.410965 -1.16495 0.00584865  -0.372664 -1.1777 0.00609803  -0.359189 -1.13843 0.00577593  -0.410616 -1.1649 0.00586343  -0.397049 -1.12572 0.00557494  -0.358826 -1.13835 0.00584054  -0.396686 -1.12564 0.00557709  -0.438624 -1.24336 0.00638509  -0.400196 -1.25626 0.00660682  -0.38677 -1.21705 0.00628543  -0.438307 -1.24332 0.00642228  -0.42482 -1.20416 0.00611925  -0.386443 -1.217 0.00635409  -0.424489 -1.20413 0.00614882  -0.466052 -1.32155 0.00690079  -0.427547 -1.3346 0.00709558  -0.414193 -1.29548 0.00678658  -0.465759 -1.32156 0.00694394  -0.452366 -1.28248 0.00664592  -0.413895 -1.29546 0.0068562  -0.452069 -1.28247 0.00668836  -0.493181 -1.39943 0.00740457  -0.454614 -1.41254 0.00755906  -0.441393 -1.3736 0.00727391  -0.4929 -1.39944 0.00744891  -0.479653 -1.36053 0.00715446  -0.441107 -1.37361 0.00733423  -0.479367 -1.36055 0.00720048  -0.520024 -1.47692 0.0078907  -0.481439 -1.49007 0.00803685  -0.46833 -1.45134 0.00774908  -0.519765 -1.47695 0.00791812  -0.506634 -1.43823 0.00765061  -0.468045 -1.45137 0.00779414  -0.506373 -1.43826 0.00769544  -0.546577 -1.55389 0.00835705  -0.507896 -1.56694 0.00846624  -0.49496 -1.52858 0.00821471  -0.546296 -1.55389 0.00840449  -0.533332 -1.51547 0.00812793  -0.494698 -1.52859 0.0082469  -0.533066 -1.51551 0.00816536  3.22759e-05 -0.012554 -0.000967979  0 0 0  0.00183465 -0.0132871 5.00679e-05  0.00059431 -0.00462702 1.23978e-05  0 0 0  0.000115588 -0.0121141 -0.00145292  1.22711e-05 -0.0039891 -0.000519753  0 0 0  0.000625722 -0.00448009 5.60284e-05  4.30122e-05 -0.00381801 -0.000772953  -0.000945434 -0.0406927 -0.00158787  0.00452504 -0.0417738 -1.90735e-05  0.0030342 -0.0267005 3.8147e-06  -0.000723094 -0.039762 -0.00243115  -0.000216976 -0.0251424 -0.00132442  0.00324011 -0.0260852 3.12328e-05  -7.43121e-05 -0.0244631 -0.00201225  -0.00440794 -0.0793031 -0.00180173  0.00552219 -0.0807109 -6.7234e-05  0.00495109 -0.0612561 -1.69277e-05  -0.00402316 -0.0780181 -0.00279689  -0.0023295 -0.0589863 -0.0017488  0.00533757 -0.0602149 -6.60419e-05  -0.00202408 -0.0578658 -0.0026958  -0.0108243 -0.125304 -0.00162244  0.00353146 -0.127206 9.98974e-05  0.00439557 -0.104481 7.10487e-05  -0.010257 -0.123797 -0.00259137  -0.0072428 -0.10152 -0.00175285  0.00493279 -0.103142 -1.43051e-05  -0.0067727 -0.100104 -0.00275326  -0.0201497 -0.177129 -0.00116825  -0.00179261 -0.179775 0.000483036  0.000615239 -0.154269 0.000321627  -0.0194228 -0.175607 -0.00199437  -0.0151371 -0.150548 -0.00141764  0.00128597 -0.1528 0.000272274  -0.0144814 -0.149023 -0.00232482  -0.0322089 -0.233904 -0.00057745  -0.0103619 -0.237452 0.000988007  -0.00645339 -0.209479 0.000700951  -0.0313697 -0.232442 -0.00123239  -0.0258413 -0.204939 -0.000881433  -0.0056802 -0.20802 0.000727892  -0.0250571 -0.203441 -0.00162435  -0.0468246 -0.294941 5.4121e-05  -0.0219911 -0.299512 0.00152826  -0.0166436 -0.269338 0.00114322  -0.0459335 -0.293639 -0.000422001  -0.0392126 -0.26392 -0.00026226  -0.0158098 -0.267976 0.00125837  -0.0383384 -0.262542 -0.000828505  -0.0637488 -0.359651 0.000674486  -0.0363787 -0.365268 0.00205564  -0.0297066 -0.333185 0.00160074  -0.0628514 -0.358491 0.00034833  -0.0550052 -0.32687 0.000367641  -0.0288556 -0.331963 0.00179505  -0.0541118 -0.325642 -3.14713e-05  -0.0827529 -0.427473 0.00126457  -0.0532525 -0.434143 0.00254846  -0.0453594 -0.400418 0.00204968  -0.0818862 -0.426494 0.00106955  -0.0730077 -0.393196 0.000973225  -0.0445241 -0.399348 0.00230646  -0.0721208 -0.392136 0.000713587  -0.103561 -0.497932 0.00182128  -0.0722718 -0.505591 0.00300622  -0.0633044 -0.470491 0.00248194  -0.102744 -0.497084 0.00172281  -0.092939 -0.4624 0.00154662  -0.0625089 -0.469571 0.00278115  -0.0921006 -0.461491 0.00140238  -0.125945 -0.570569 0.00234985  -0.0931714 -0.579161 0.00343275  -0.0832464 -0.542915 0.00289845  -0.125192 -0.569875 0.00233245  -0.114572 -0.533995 0.00208855  -0.0825049 -0.542135 0.0032227  -0.113785 -0.533235 0.00203085  -0.149641 -0.645008 0.00285745  -0.115631 -0.65443 0.00383902  -0.104901 -0.617256 0.003304  -0.148952 -0.644415 0.00289345  -0.137636 -0.607587 0.00260568  -0.104219 -0.616603 0.00363731  -0.13692 -0.606947 0.00261664  -0.174442 -0.720872 0.00335097  -0.13942 -0.731044 0.00423074  -0.127995 -0.693127 0.00370431  -0.173821 -0.720403 0.00343227  -0.161918 -0.682774 0.00310588  -0.127375 -0.692587 0.00403595  -0.161263 -0.682253 0.00316358  -0.200107 -0.797864 0.00383472  -0.164253 -0.808674 0.00461578  -0.152277 -0.770187 0.00410366  -0.199548 -0.797468 0.00394011  -0.187171 -0.759246 0.00359321  -0.151716 -0.769747 0.0044229  -0.186587 -0.758817 0.00368762  -0.22646 -0.875674 0.00431395  -0.189939 -0.887041 0.0049994  -0.177507 -0.848132 0.00450563  -0.22596 -0.875377 0.00444102  -0.21321 -0.836674 0.00407457  -0.177003 -0.847779 0.00480723  -0.21268 -0.836339 0.00418949  -0.253289 -0.954071 0.00479102  -0.216232 -0.96589 0.00538421  -0.20347 -0.926693 0.00491405  -0.252841 -0.953825 0.00492263  -0.239818 -0.914815 0.00455213  -0.203017 -0.926417 0.00519061  -0.23935 -0.914547 0.00468183  -0.280455 -1.0328 0.00526714  -0.242982 -1.045 0.00577545  -0.229968 -1.00563 0.00533009  -0.280055 -1.03264 0.00540423  -0.26684 -0.9934 0.00502944  -0.229561 -1.00542 0.00558043  -0.266417 -0.993204 0.005162  -0.307784 -1.11169 0.00574231  -0.26999 -1.12418 0.00617075  -0.256824 -1.08474 0.00575376  -0.307424 -1.11156 0.0058701  -0.294099 -1.07224 0.00550437  -0.256459 -1.08459 0.00597119  -0.293726 -1.07209 0.00563669  -0.335177 -1.19054 0.00621653  -0.297143 -1.20327 0.00657177  -0.283887 -1.16385 0.00618386  -0.334853 -1.19047 0.00633574  -0.321481 -1.15113 0.00598001  -0.283556 -1.16374 0.00637245  -0.321139 -1.15103 0.00610232  -0.3625 -1.26923 0.00669003  -0.324284 -1.28212 0.00698161  -0.311023 -1.24278 0.00662518  -0.362201 -1.26917 0.00679159  -0.348846 -1.22991 0.00645399  -0.310722 -1.24273 0.00677538  -0.348542 -1.22985 0.00656366  -0.389699 -1.34761 0.00716162  -0.351367 -1.36061 0.00738859  -0.338119 -1.32144 0.0070653  -0.389425 -1.3476 0.00724506  -0.376122 -1.30846 0.00692606  -0.337835 -1.32141 0.00718689  -0.375835 -1.30843 0.0070169  -0.416679 -1.42561 0.00763226  -0.378275 -1.43868 0.00782466  -0.365102 -1.39969 0.00752568  -0.416413 -1.4256 0.00768924  -0.403211 -1.38666 0.00739288  -0.364843 -1.39969 0.00760388  -0.402945 -1.38665 0.0074687  -0.443401 -1.50311 0.00809574  -0.404917 -1.51619 0.00823975  -0.391876 -1.47749 0.00796437  -0.44316 -1.50313 0.00815058  -0.430073 -1.46442 0.00786376  -0.391623 -1.47751 0.00802207  -0.429817 -1.46444 0.00791931  -0.469816 -1.58004 0.00855613  -0.431285 -1.59312 0.00866294  -0.418392 -1.55473 0.00840974  -0.46957 -1.58 0.00857544  -0.456652 -1.54166 0.00832701  -0.418181 -1.55476 0.0084219  -0.456426 -1.54167 0.00833917  0.00346223 -0.0154241 0.000949144  0 0 0  0.00547621 -0.0174443 0.00291967  0.00183651 -0.00694239 0.00102353  0 0 0  0.00360492 -0.0150528 0.00151157  0.00119692 -0.00558597 0.000528336  0 0 0  0.00188113 -0.00678337 0.00163841  0.0012277 -0.00545168 0.000862598  0.00942627 -0.0455418 0.00152278  0.0152571 -0.0486435 0.00458026  0.00980285 -0.0323778 0.00253391  0.0098044 -0.0447249 0.0023284  0.00634076 -0.0291063 0.00129461  0.0101238 -0.0317887 0.00392342  0.00660965 -0.0285242 0.00201845  0.0144441 -0.0855846 0.00177598  0.024599 -0.0891417 0.00517297  0.0196509 -0.0689217 0.00329518  0.0149848 -0.0844282 0.00259662  0.0122176 -0.0645794 0.00167036  0.0202054 -0.067932 0.00495982  0.0126818 -0.063582 0.00249672  0.0164623 -0.132913 0.00193763  0.0307563 -0.136744 0.00529909  0.0275034 -0.113396 0.003582  0.0171098 -0.131516 0.00273871  0.0158859 -0.10845 0.0018549  0.028164 -0.11212 0.00525904  0.0164895 -0.10716 0.0026679  0.014817 -0.186174 0.00213933  0.0328489 -0.190488 0.0053215  0.0316144 -0.164309 0.00369835  0.0155411 -0.184731 0.00292492  0.0161106 -0.158861 0.0020318  0.0323253 -0.162897 0.00531363  0.0167929 -0.157428 0.00282598  0.0095228 -0.244525 0.00239372  0.0308759 -0.249475 0.00534868  0.0316225 -0.220782 0.00379491  0.0103018 -0.243105 0.00318575  0.0126128 -0.214753 0.00226235  0.0323671 -0.219361 0.00533342  0.0133715 -0.21332 0.00305343  0.000791609 -0.30724 0.00267959  0.0250371 -0.313009 0.00539327  0.0276644 -0.282063 0.00390959  0.00158978 -0.305949 0.00346637  0.00557482 -0.275376 0.00253534  0.028425 -0.280716 0.00537038  0.00636101 -0.27402 0.00332737  -0.01106 -0.373673 0.00297451  0.0156969 -0.380295 0.0054481  0.0200351 -0.347442 0.00404286  -0.0102668 -0.372501 0.00375748  -0.00476432 -0.340024 0.00282669  0.0207921 -0.346213 0.00541925  -0.00396329 -0.338801 0.00361586  -0.02572 -0.443203 0.00326943  0.00317848 -0.450736 0.00550699  0.00908267 -0.416247 0.00419021  -0.0249591 -0.442197 0.00402617  -0.0180541 -0.408084 0.00312257  0.00981724 -0.415156 0.00547743  -0.0172811 -0.406998 0.00389528  -0.0428336 -0.515303 0.00356197  -0.0121047 -0.523683 0.00557089  -0.00482655 -0.487869 0.0043478  -0.0421165 -0.514418 0.0042901  -0.0339895 -0.478957 0.00341558  -0.00412953 -0.486918 0.00553679  -0.0332477 -0.478022 0.00416231  -0.0620954 -0.58947 0.00385499  -0.0298311 -0.598682 0.00564504  -0.0213283 -0.561769 0.00451756  -0.061434 -0.588735 0.0045352  -0.0522107 -0.552153 0.00370836  -0.0206788 -0.560951 0.00560713  -0.0515264 -0.551348 0.0044148  -0.0831699 -0.665298 0.00415182  -0.0496083 -0.675232 0.00573182  -0.0400707 -0.637472 0.00470161  -0.0825634 -0.664663 0.00478601  -0.0724232 -0.627194 0.00400281  -0.0394725 -0.636777 0.00568509  -0.071788 -0.62652 0.00466347  -0.105786 -0.742395 0.00445724  -0.0711557 -0.753007 0.00583839  -0.0607194 -0.714567 0.00490308  -0.105238 -0.741885 0.00503111  -0.0942974 -0.703707 0.00430369  -0.0601737 -0.713985 0.00578356  -0.0937263 -0.703138 0.00490904  -0.129646 -0.820456 0.00477433  -0.094126 -0.831621 0.00596762  -0.0829625 -0.792699 0.00512505  -0.129151 -0.820021 0.00529265  -0.117574 -0.781318 0.00461435  -0.0824686 -0.792218 0.00589848  -0.117052 -0.780856 0.00516319  -0.154524 -0.899171 0.0051043  -0.118288 -0.910841 0.00612283  -0.106514 -0.87156 0.00536871  -0.15408 -0.898839 0.00555825  -0.141968 -0.859746 0.00493741  -0.106068 -0.871168 0.00604272  -0.141505 -0.859366 0.0054245  -0.180164 -0.978317 0.00545049  -0.143344 -0.990369 0.00630736  -0.131108 -0.950884 0.00563717  -0.179765 -0.978038 0.00584793  -0.16726 -0.938699 0.00527573  -0.130706 -0.950571 0.00621128  -0.166838 -0.938404 0.00570393  -0.206384 -1.05765 0.00581217  -0.169111 -1.07004 0.00652027  -0.156508 -1.03044 0.00592852  -0.206027 -1.05745 0.00614619  -0.19321 -1.01797 0.00563025  -0.156146 -1.0302 0.00641155  -0.192837 -1.01773 0.00599575  -0.232977 -1.13701 0.00619292  -0.195346 -1.14963 0.00676775  -0.182497 -1.11003 0.00624895  -0.232655 -1.13684 0.00647306  -0.219643 -1.09733 0.00600028  -0.18217 -1.10985 0.00664306  -0.219303 -1.09716 0.00630927  -0.259812 -1.2162 0.00658274  -0.221911 -1.22903 0.00704288  -0.208889 -1.18949 0.00658751  -0.259517 -1.2161 0.00680542  -0.24637 -1.17663 0.00638485  -0.208592 -1.18936 0.00690341  -0.246066 -1.1765 0.006634  -0.286721 -1.29513 0.00699997  -0.248618 -1.30807 0.00735378  -0.235522 -1.26869 0.00696588  -0.286449 -1.29505 0.00717211  -0.273263 -1.2557 0.00679088  -0.235247 -1.2686 0.00721049  -0.272984 -1.25563 0.00699139  -0.31362 -1.37365 0.00743389  -0.27538 -1.38673 0.0077064  -0.262257 -1.34749 0.00734544  -0.313365 -1.37363 0.00755501  -0.300175 -1.33445 0.00721264  -0.261988 -1.34745 0.00751519  -0.299915 -1.33439 0.00736284  -0.3404 -1.45174 0.00786614  -0.302079 -1.46481 0.00807571  -0.288962 -1.42586 0.00778079  -0.340173 -1.45174 0.00795555  -0.327029 -1.41275 0.00764298  -0.288721 -1.42584 0.00788665  -0.326784 -1.41275 0.00774169  -0.367005 -1.52927 0.00827217  -0.328583 -1.5424 0.00842476  -0.315555 -1.50371 0.00822282  -0.366736 -1.52927 0.0082972  -0.353724 -1.49058 0.00806785  -0.315396 -1.50365 0.00830007  -0.353494 -1.49059 0.008111  -0.393298 -1.6062 0.0086925  -0.354803 -1.61931 0.00885797  -0.341995 -1.5809 0.00860548  -0.393062 -1.60624 0.00870728  -0.380195 -1.56782 0.00849342  -0.341688 -1.58096 0.0086472  -0.379948 -1.56785 0.00853491  0.00740039 -0.0209758 0.00271344  0 0 0  0.0100581 -0.0246457 0.00549126  0.00339293 -0.0112661 0.0019238  0 0 0  0.00761004 -0.0205711 0.00424957  0.00253359 -0.00875562 0.0014894  0 0 0  0.00344726 -0.0110641 0.00304365  0.00258942 -0.00859636 0.00236511  0.0206842 -0.05443 0.00440335  0.027756 -0.0596693 0.00875449  0.0180346 -0.0419853 0.00481892  0.0212083 -0.0535911 0.00672531  0.0136761 -0.0366276 0.00371122  0.0184528 -0.0413026 0.00743365  0.0140425 -0.0360096 0.00573134  0.0339992 -0.0959828 0.00512123  0.0454007 -0.101489 0.0100083  0.0362451 -0.0808108 0.00632858  0.0346824 -0.0948351 0.00765038  0.0276097 -0.074333 0.0048511  0.0369357 -0.079756 0.00956035  0.0282423 -0.0733291 0.00731802  0.0439912 -0.144203 0.00530982  0.0591914 -0.149788 0.0101888  0.0521114 -0.126116 0.00685191  0.0447147 -0.142837 0.00778461  0.0395173 -0.119303 0.00525117  0.0528683 -0.124825 0.0101748  0.0402229 -0.11803 0.00776649  0.049615 -0.198418 0.0053134  0.0682296 -0.204314 0.00994754  0.0635684 -0.177707 0.00689459  0.0503432 -0.197011 0.00766706  0.0473601 -0.1706 0.00532222  0.0643142 -0.176313 0.0100965  0.0480915 -0.169205 0.00773954  0.0508131 -0.257929 0.00527883  0.072513 -0.264333 0.00957537  0.0702307 -0.235078 0.00676537  0.0515443 -0.256535 0.00747919  0.0507628 -0.22756 0.0052979  0.0709559 -0.233685 0.00976992  0.051487 -0.226152 0.00757575  0.0478086 -0.321973 0.00525308  0.0722505 -0.329059 0.00917745  0.0722222 -0.297484 0.00659704  0.0485291 -0.320694 0.00730038  0.0498127 -0.289425 0.005265  0.0729288 -0.29616 0.00937748  0.050543 -0.288092 0.00738764  0.0409639 -0.389831 0.00524569  0.0678228 -0.397661 0.00879526  0.069852 -0.364135 0.00643659  0.0416663 -0.388655 0.00712633  0.0448502 -0.35547 0.00524712  0.0705357 -0.362921 0.00898385  0.0455571 -0.354243 0.00721073  0.0306432 -0.460807 0.00525975  0.0595951 -0.469422 0.00844145  0.0635024 -0.434276 0.00630116  0.0313109 -0.459786 0.0069809  0.0362111 -0.424961 0.00525022  0.0641575 -0.433189 0.00861478  0.0368996 -0.423871 0.00704956  0.0172608 -0.534312 0.00529647  0.0480182 -0.543675 0.00812578  0.0535849 -0.507227 0.0061965  0.0178891 -0.533404 0.00684881  0.0243179 -0.497279 0.00527453  0.0542023 -0.506271 0.00827813  0.0249608 -0.496318 0.00691032  0.0011822 -0.609797 0.00535846  0.0334712 -0.619877 0.00785136  0.0405146 -0.582392 0.00612712  0.00176096 -0.609035 0.00675225  0.00953305 -0.571829 0.00532436  0.0410901 -0.581563 0.00798345  0.0101389 -0.571004 0.00679469  -0.0171984 -0.686825 0.00544643  0.0163895 -0.697539 0.00762391  0.0246972 -0.659258 0.00609326  -0.0166662 -0.68616 0.00667691  -0.00773513 -0.648145 0.00539875  0.0252266 -0.658549 0.0077312  -0.00718522 -0.647435 0.00670958  -0.0375546 -0.764983 0.00556445  -0.00288653 -0.776268 0.00744557  0.00651836 -0.73739 0.00609851  -0.0370729 -0.764442 0.0066452  -0.0271518 -0.725777 0.00550175  0.00700307 -0.736791 0.00752902  -0.0266436 -0.725184 0.00665402  -0.0595367 -0.843955 0.00571251  -0.0239712 -0.855718 0.00731874  -0.0136595 -0.816417 0.00614309  -0.0591003 -0.843491 0.00664115  -0.0483537 -0.804387 0.00563455  -0.0132201 -0.815919 0.007375  -0.0479007 -0.803888 0.00663781  -0.0828732 -0.923434 0.00589371  -0.0465795 -0.935605 0.0072453  -0.0355016 -0.896029 0.00622869  -0.0824816 -0.923073 0.00668693  -0.0710549 -0.883639 0.00579953  -0.0351044 -0.895621 0.00727534  -0.0706401 -0.883237 0.00665689  -0.107265 -1.0032 0.00610828  -0.0703821 -1.01569 0.00722694  -0.0587033 -0.975958 0.00635457  -0.10691 -1.00289 0.00676608  -0.0949448 -0.963294 0.00599647  -0.0583445 -0.975633 0.00722742  -0.0945783 -0.962965 0.00672078  -0.132491 -1.08301 0.00635505  -0.0951471 -1.09576 0.00726414  -0.0829828 -1.05599 0.00652504  -0.132173 -1.08279 0.00689673  -0.11979 -1.0431 0.00622725  -0.0826596 -1.05573 0.00724101  -0.119452 -1.04285 0.00682354  -0.158309 -1.16272 0.00663805  -0.120607 -1.17565 0.00736094  -0.108094 -1.13593 0.00673485  -0.158017 -1.16255 0.00706291  -0.145331 -1.12289 0.00649381  -0.1078 -1.13574 0.00730491  -0.145034 -1.1227 0.00697708  -0.184551 -1.24217 0.00695276  -0.14658 -1.25523 0.00751662  -0.133805 -1.21563 0.006989  -0.184281 -1.24206 0.00728345  -0.171389 -1.20248 0.00678897  -0.133541 -1.21548 0.00743461  -0.171107 -1.20234 0.00716543  -0.211019 -1.32125 0.00730205  -0.172851 -1.33441 0.00773191  -0.159939 -1.29496 0.00729227  -0.210761 -1.32118 0.00753784  -0.19776 -1.28177 0.00713015  -0.159687 -1.29489 0.00761104  -0.197507 -1.28168 0.00741148  -0.237592 -1.39988 0.00769639  -0.199329 -1.41304 0.00800371  -0.186291 -1.37385 0.00764465  -0.237375 -1.39986 0.00786209  -0.224304 -1.36064 0.00748396  -0.186061 -1.37378 0.00788569  -0.224055 -1.36058 0.0076921  -0.264128 -1.47799 0.00809002  -0.225701 -1.49115 0.00833797  -0.212789 -1.45223 0.00802398  -0.263921 -1.47792 0.00819492  -0.250879 -1.43902 0.00789928  -0.212577 -1.45221 0.00817418  -0.250677 -1.43899 0.0080049  -0.290659 -1.55555 0.00852895  -0.252225 -1.56876 0.00864673  -0.239146 -1.52996 0.00839591  -0.290439 -1.55556 0.00856471  -0.277401 -1.5168 0.00832558  -0.238932 -1.52999 0.00850868  -0.277211 -1.5168 0.00842547  -0.316873 -1.63247 0.00895905  -0.278414 -1.64577 0.00899363  -0.265503 -1.60721 0.00884581  -0.31653 -1.63248 0.00891209  -0.303742 -1.59404 0.00871444  -0.265302 -1.60724 0.00882554  -0.303482 -1.59405 0.00878477  0.0129529 -0.0306123 0.00427461  0 0 0  0.0169537 -0.0372431 0.00774097  0.00565032 -0.0195293 0.00270772  0 0 0  0.0131988 -0.030064 0.00665331  0.00436351 -0.0147179 0.00232482  0 0 0  0.00570878 -0.0191634 0.00425124  0.00441288 -0.0144546 0.00366259  0.0347993 -0.0679989 0.00698948  0.0443302 -0.0755212 0.0124762  0.0300609 -0.0570301 0.00684905  0.0354235 -0.0669997 0.0106714  0.023455 -0.0487173 0.00586176  0.0305243 -0.056107 0.0105383  0.0239104 -0.0479341 0.00903106  0.0562265 -0.110319 0.00818205  0.0696521 -0.117507 0.0144258  0.0567538 -0.096952 0.00907135  0.0570085 -0.109079 0.0122652  0.0459206 -0.0883904 0.00773573  0.0575145 -0.0957119 0.0137212  0.0466485 -0.0872554 0.0116947  0.0735655 -0.158915 0.00845408  0.0903443 -0.166029 0.0147388  0.0798128 -0.14228 0.00986004  0.0743472 -0.157523 0.0125105  0.0654877 -0.1338 0.00838995  0.0806342 -0.1409 0.0147111  0.0662852 -0.132476 0.0124936  0.085917 -0.213764 0.00832248  0.105792 -0.221166 0.0143213  0.0979567 -0.194219 0.00988102  0.0866578 -0.212368 0.0121672  0.080385 -0.185595 0.00841689  0.0987405 -0.192805 0.0145862  0.0811401 -0.184192 0.0123827  0.0932162 -0.274199 0.0080502  0.115953 -0.282068 0.0136185  0.110797 -0.252319 0.00957918  0.0939251 -0.272828 0.0116267  0.0901853 -0.243333 0.00819492  0.111535 -0.25094 0.0139899  0.0909135 -0.24195 0.0119138  0.0956697 -0.339371 0.00775051  0.120981 -0.347891 0.0128338  0.118397 -0.315717 0.00917029  0.0963458 -0.338114 0.0110235  0.0950333 -0.306246 0.00790095  0.119094 -0.314419 0.0132313  0.0957192 -0.304931 0.0113289  0.0936506 -0.408459 0.00746703  0.121259 -0.417646 0.0120523  0.121037 -0.383508 0.00874949  0.0942975 -0.407299 0.0104413  0.0951931 -0.373472 0.00760579  0.1217 -0.382319 0.01244  0.0958582 -0.37227 0.0107319  0.0875484 -0.480687 0.00721788  0.117155 -0.490592 0.0113156  0.119105 -0.45483 0.00835586  0.0881581 -0.479674 0.00988674  0.0910876 -0.444224 0.00733805  0.119731 -0.453764 0.0116789  0.0917102 -0.443139 0.0101602  0.0778205 -0.555401 0.00700974  0.109165 -0.565951 0.0106375  0.113039 -0.52894 0.00800705  0.0783926 -0.554495 0.00939202  0.0831105 -0.517767 0.00710821  0.113628 -0.528 0.0109682  0.083704 -0.516816 0.00963521  0.0648766 -0.632008 0.0068469  0.0976937 -0.643189 0.0100296  0.103295 -0.605183 0.00770831  0.0654033 -0.631243 0.0089438  0.0717285 -0.593499 0.00692272  0.103841 -0.604366 0.0103257  0.0722723 -0.592666 0.00916171  0.0491613 -0.710041 0.00673056  0.0832359 -0.721742 0.00949407  0.0903188 -0.683022 0.00746536  0.0496457 -0.709369 0.00856543  0.0573407 -0.670869 0.00678277  0.0908232 -0.68232 0.00975156  0.0578481 -0.67016 0.00874925  0.0310465 -0.789067 0.0066638  0.066161 -0.801249 0.0090363  0.0745449 -0.76199 0.0072794  0.031486 -0.788518 0.00824189  0.0403844 -0.749452 0.00669074  0.0750051 -0.761397 0.00925756  0.0408405 -0.748845 0.00839615  0.0109293 -0.868769 0.00664616  0.0469103 -0.881314 0.00865865  0.0563771 -0.841718 0.0071516  0.0113269 -0.868297 0.00799274  0.0212175 -0.828848 0.00664878  0.0567961 -0.841223 0.00883794  0.0216371 -0.828347 0.00811195  -0.0108778 -0.948831 0.00667596  0.0258008 -0.961691 0.0083549  0.0361941 -0.921882 0.00707984  -0.0105182 -0.948461 0.0078001  0.000221252 -0.908769 0.00665474  0.0365717 -0.921477 0.00849795  0.000593543 -0.908352 0.0078876  -0.0340323 -1.02905 0.00675941  0.00320029 -1.04212 0.0081408  0.014336 -1.00223 0.00706697  -0.0337118 -1.02874 0.00768638  -0.0223033 -0.988927 0.00671172  0.0146786 -1.0019 0.00823784  -0.0219625 -0.988597 0.00773764  -0.0582867 -1.10918 0.00688529  -0.0206139 -1.12242 0.00798845  -0.00887394 -1.08254 0.0071156  -0.057987 -1.10895 0.00762582  -0.0460334 -1.06913 0.00681734  -0.00856757 -1.08229 0.00805974  -0.0457308 -1.06887 0.00764561  -0.0833435 -1.18911 0.00707936  -0.0453637 -1.20243 0.00794625  -0.0331645 -1.16266 0.00722194  -0.0830817 -1.18893 0.00766087  -0.0707288 -1.14917 0.00697756  -0.0328803 -1.16246 0.00797176  -0.0704486 -1.14898 0.00763941  -0.10903 -1.26867 0.00730777  -0.0708034 -1.28204 0.0079658  -0.0582583 -1.24243 0.00738049  -0.108773 -1.26855 0.00773644  -0.0961137 -1.22894 0.00718427  -0.0579982 -1.2423 0.00793481  -0.0958612 -1.22879 0.00768089  -0.135087 -1.34779 0.00761032  -0.0967758 -1.36113 0.00808501  -0.0839441 -1.32174 0.0076232  -0.134881 -1.34771 0.00791287  -0.122017 -1.30828 0.00745392  -0.0837243 -1.32163 0.00803804  -0.121792 -1.30821 0.00783801  -0.161382 -1.42635 0.00795531  -0.122936 -1.43975 0.00825143  -0.110006 -1.40056 0.00791192  -0.161172 -1.42632 0.00814557  -0.148212 -1.38714 0.00779128  -0.109817 -1.40049 0.00819135  -0.148 -1.38707 0.0080359  -0.187794 -1.50439 0.00839663  -0.149237 -1.51766 0.00849342  -0.136299 -1.47888 0.00821781  -0.187531 -1.5044 0.00849152  -0.174624 -1.4655 0.00812578  -0.136091 -1.47883 0.00840068  -0.174401 -1.4655 0.00830483  -0.214139 -1.582 0.00891519  -0.175747 -1.59557 0.00929976  -0.162616 -1.55639 0.00863314  -0.213969 -1.58206 0.00888109  -0.200899 -1.54316 0.00857997  -0.162352 -1.55642 0.00873685  -0.200648 -1.54315 0.00873399  -0.24031 -1.65899 0.00915289  -0.201844 -1.67207 0.00954533  -0.188914 -1.63367 0.00911999  -0.240242 -1.659 0.00907755  -0.227179 -1.62054 0.00897002  -0.188371 -1.63376 0.00931668  -0.227021 -1.62044 0.00899792  0.0228679 -0.0480825 0.00567174  0 0 0  0.0325271 -0.0595105 0.00986648  0.012592 -0.0375897 0.00347853  0 0 0  0.0230858 -0.0472595 0.00881362  0.0075618 -0.0263451 0.00304222  0 0 0  0.0126 -0.0369141 0.00548553  0.00761322 -0.0258856 0.00477028  0.0541617 -0.0863241 0.00932074  0.0669202 -0.0951267 0.0159934  0.0500098 -0.0781797 0.00872636  0.0547866 -0.0850275 0.0142326  0.0388934 -0.0670657 0.00778794  0.0503435 -0.0767932 0.0134621  0.0393127 -0.0659601 0.0119896  0.0825092 -0.12805 0.010968  0.0981351 -0.136421 0.0185189  0.0821548 -0.116353 0.01159  0.083334 -0.126641 0.0165002  0.068789 -0.106338 0.0103512  0.0829185 -0.114823 0.0175879  0.0695545 -0.104978 0.0156758  0.106409 -0.176674 0.0113459  0.125118 -0.185091 0.0189364  0.11142 -0.161304 0.012603  0.107241 -0.175214 0.0168755  0.0951059 -0.151465 0.0112643  0.112282 -0.159776 0.0188832  0.0959396 -0.150028 0.0168414  0.124961 -0.232054 0.0111222  0.14661 -0.240874 0.0183728  0.135732 -0.213577 0.01261  0.125743 -0.23066 0.0163898  0.116377 -0.203547 0.0112801  0.136595 -0.212131 0.0187137  0.117188 -0.202128 0.0166984  0.137987 -0.293367 0.0106578  0.16235 -0.302744 0.0173976  0.154407 -0.272475 0.0121717  0.138721 -0.292022 0.0155408  0.132171 -0.262029 0.0109067  0.155202 -0.271098 0.0178964  0.132921 -0.260659 0.0159888  0.145606 -0.359596 0.0101256  0.172415 -0.369633 0.0162876  0.16732 -0.336865 0.0115695  0.146297 -0.358383 0.0145888  0.142454 -0.325915 0.0103948  0.168083 -0.335622 0.0168335  0.143167 -0.324648 0.015069  0.148181 -0.429815 0.00959921  0.177153 -0.440511 0.0151622  0.174716 -0.405769 0.0109315  0.148835 -0.428696 0.0136244  0.147507 -0.394264 0.00985932  0.175423 -0.404624 0.0157046  0.148173 -0.393099 0.014102  0.146104 -0.503155 0.00911164  0.176966 -0.514504 0.0140843  0.176971 -0.478161 0.0103161  0.146717 -0.502187 0.0127139  0.147695 -0.466131 0.00934935  0.177649 -0.477172 0.0146  0.148328 -0.465101 0.0131602  0.139874 -0.578916 0.00867701  0.172361 -0.590845 0.0130761  0.174554 -0.553311 0.0097487  0.140448 -0.578045 0.0118625  0.143486 -0.540778 0.00888753  0.17518 -0.552421 0.0135529  0.144073 -0.539861 0.0122778  0.129929 -0.656457 0.00830293  0.163803 -0.668913 0.0121591  0.167957 -0.630445 0.00924373  0.130458 -0.65573 0.0110993  0.135336 -0.617486 0.00848198  0.168545 -0.629704 0.0125911  0.135886 -0.616703 0.0114686  0.11677 -0.7353 0.00799227  0.151807 -0.748183 0.011333  0.157664 -0.709083 0.00880551  0.117254 -0.734657 0.0104132  0.123729 -0.69575 0.00813961  0.158201 -0.708427 0.0117176  0.124231 -0.695067 0.0107439  0.100796 -0.814989 0.00774693  0.136805 -0.828233 0.0106125  0.144159 -0.788663 0.00844002  0.101237 -0.814472 0.00982428  0.109108 -0.77505 0.00786161  0.144652 -0.78814 0.010946  0.109568 -0.774486 0.0101061  0.0824584 -0.895213 0.00756836  0.119256 -0.908714 0.00998688  0.127872 -0.868896 0.00814605  0.0828561 -0.894765 0.00931716  0.0919036 -0.85506 0.00764918  0.12832 -0.86844 0.0102711  0.0923188 -0.854579 0.00955939  0.0620962 -0.97565 0.00745225  0.0995319 -0.989347 0.00946665  0.109237 -0.949375 0.0079248  0.0624596 -0.975308 0.00890946  0.0725079 -0.935408 0.0075016  0.109638 -0.949031 0.00970054  0.0728832 -0.935029 0.00909972  0.0401011 -1.05612 0.00740862  0.0780239 -1.06991 0.00904918  0.0886092 -1.02994 0.00777888  0.0404193 -1.05582 0.00858688  0.0512872 -1.0159 0.00742221  0.088979 -1.02965 0.00923347  0.0516267 -1.01558 0.00873828  0.0167334 -1.13637 0.00742102  0.0550308 -1.15022 0.00872612  0.0663674 -1.1103 0.00770116  0.0170369 -1.13617 0.00836015  0.0285704 -1.09626 0.00740528  0.06669 -1.1101 0.00886631  0.0288734 -1.09603 0.00845909  -0.00765443 -1.21632 0.00751448  0.0308766 -1.23015 0.00854683  0.0427837 -1.19038 0.00771523  -0.00739098 -1.21616 0.00822568  0.00466132 -1.1764 0.00746322  0.0430961 -1.19022 0.00861788  0.00494814 -1.17621 0.0083034  -0.0328724 -1.2958 0.0076704  0.00584292 -1.30954 0.00841141  0.0181808 -1.27001 0.00776529  -0.0325978 -1.2957 0.00821519  -0.0201807 -1.25611 0.00757718  0.0184507 -1.26993 0.00844741  -0.019927 -1.25602 0.00818539  -0.0586271 -1.3748 0.00788426  -0.0198445 -1.38851 0.00842834  -0.00716591 -1.34913 0.00797868  -0.0584073 -1.37471 0.00826025  -0.0456798 -1.33536 0.00777864  -0.00692201 -1.34906 0.00848341  -0.0454314 -1.33526 0.00822687  -0.0847583 -1.45326 0.00819635  -0.04601 -1.46674 0.00847459  -0.0330579 -1.42771 0.00808668  -0.0845873 -1.45323 0.00841832  -0.0716355 -1.41407 0.00805593  -0.0328057 -1.4277 0.00842476  -0.071456 -1.41405 0.00836587  -0.111047 -1.53106 0.0084765  -0.0725341 -1.54397 0.00904274  -0.0594313 -1.50568 0.00858927  -0.110717 -1.53097 0.00872207  -0.097913 -1.49231 0.00836349  -0.0593138 -1.50543 0.00864577  -0.0976779 -1.49216 0.00859618  -0.137281 -1.60845 0.00893831  -0.0987182 -1.62194 0.00966859  -0.0858297 -1.58297 0.00882459  -0.137312 -1.60879 0.00917745  -0.124184 -1.56974 0.00871658  -0.0856175 -1.58315 0.00919795  -0.123935 -1.56986 0.00880814  -0.163464 -1.68501 0.00914788  -0.123604 -1.69865 0.00977683  -0.111624 -1.6603 0.00918555  -0.163046 -1.68478 0.00958753  -0.150303 -1.64686 0.00913167  -0.111375 -1.66051 0.00961113  -0.15022 -1.64688 0.00907946  -0.0375057 -0.0413859 -0.00436616  -0.0177668 -0.0252375 -5.45979e-05  0 0 0  -0.02184 -0.0301497 -5.05447e-05  0 0 0  -0.0131761 -0.0210746 -0.0030942  -0.00474889 -0.00876064 -2.90871e-05  0 0 0  -0.0176379 -0.0250606 -0.00248456  -0.0217748 -0.0298985 -0.00372148  -0.00741309 -0.0139831 -3.86238e-05  0 0 0  -0.00473612 -0.0086719 -0.0017333  -0.0073886 -0.0138883 -0.0020659  -0.0722579 -0.0656829 -0.00673962  -0.0551578 -0.0532793 -6.60419e-05  -0.0534004 -0.0586002 -1.14441e-05  -0.038656 -0.0512434 -0.0049262  -0.0252595 -0.0361442 -1.64509e-05  -0.0549553 -0.0528713 -0.00577188  -0.0533044 -0.0581707 -0.00582647  -0.0375278 -0.0440929 -3.95775e-05  -0.0252278 -0.0358628 -0.00416684  -0.0374428 -0.0437467 -0.0049634  -0.107141 -0.0941427 -0.00764227  -0.0897622 -0.0797772 -2.86102e-06  -0.085256 -0.0896 8.60691e-05  -0.0664744 -0.0847579 -0.00555897  -0.0525434 -0.0677273 6.22272e-05  -0.0895837 -0.079246 -0.00736713  -0.0851363 -0.0890908 -0.00659251  -0.0692841 -0.0734348 3.17097e-05  -0.0524826 -0.0673182 -0.00536299  -0.0691769 -0.072965 -0.00635839  -0.14221 -0.128113 -0.00743866  -0.124861 -0.110893 0.000110388  -0.117166 -0.126199 0.000223875  -0.0946725 -0.123796 -0.00540495  -0.0806347 -0.103992 0.00018692  -0.124703 -0.110349 -0.00765824  -0.117023 -0.125704 -0.00640941  -0.101222 -0.107155 0.000150681  -0.0805281 -0.103547 -0.00555634  -0.101097 -0.106655 -0.0065937  -0.176642 -0.168052 -0.00663018  -0.15972 -0.147839 0.000259161  -0.148826 -0.1686 0.000394344  -0.123057 -0.16847 -0.0047245  -0.109008 -0.145878 0.000347376  -0.159542 -0.147347 -0.00709271  -0.148625 -0.168151 -0.0056715  -0.133047 -0.146695 0.000304937  -0.108848 -0.145449 -0.00509882  -0.132878 -0.146232 -0.00608921  -0.210151 -0.213643 -0.00554848  -0.193737 -0.190616 0.000439405  -0.180024 -0.216334 0.000595093  -0.151505 -0.218263 -0.00387144  -0.137491 -0.193134 0.000538826  -0.193525 -0.190202 -0.0061202  -0.179787 -0.215956 -0.00470066  -0.164486 -0.19184 0.000490904  -0.137268 -0.192758 -0.00430608  -0.16427 -0.191435 -0.00520205  -0.242761 -0.264299 -0.00443125  -0.226824 -0.238726 0.000649691  -0.210773 -0.268854 0.000825405  -0.179986 -0.272633 -0.00292921  -0.166001 -0.245224 0.000760078  -0.226572 -0.238389 -0.00499797  -0.21049 -0.268539 -0.00367546  -0.195455 -0.242028 0.000706434  -0.165738 -0.244903 -0.00339627  -0.195194 -0.241694 -0.00419211  -0.274694 -0.319497 -0.00334215  -0.259088 -0.291666 0.000889063  -0.241152 -0.325634 0.00108528  -0.208523 -0.331039 -0.00205374  -0.194528 -0.301616 0.00101042  -0.258814 -0.291398 -0.00389528  -0.24086 -0.325383 -0.00268912  -0.225999 -0.296749 0.000951767  -0.194234 -0.301357 -0.0024817  -0.225715 -0.296475 -0.00317717  -0.306112 -0.378665 -0.00234318  -0.290764 -0.348837 0.001158  -0.27132 -0.386188 0.00137281  -0.237185 -0.393029 -0.00119138  -0.223137 -0.361819 0.00128889  -0.29047 -0.348628 -0.0028429  -0.271007 -0.385985 -0.00176239  -0.256261 -0.355468 0.00122547  -0.222832 -0.361608 -0.00161219  -0.255958 -0.355252 -0.00222278  -0.337195 -0.441348 -0.00140142  -0.321998 -0.409784 0.00145483  -0.301349 -0.450057 0.00168753  -0.266 -0.458145 -0.000421762  -0.251872 -0.425382 0.00159431  -0.321702 -0.409623 -0.00188017  -0.301047 -0.449899 -0.000903368  -0.286346 -0.417741 0.00152683  -0.251562 -0.42522 -0.000796318  -0.286042 -0.41757 -0.00132751  -0.367993 -0.507062 -0.00054121  -0.352936 -0.473978 0.00177813  -0.331323 -0.516811 0.0020268  -0.294987 -0.525995 0.000339985  -0.280774 -0.491877 0.00192523  -0.352637 -0.473858 -0.00097394  -0.331012 -0.516687 -9.67979e-05  -0.316345 -0.483095 0.0018537  -0.280469 -0.491748 -3.24249e-05  -0.31604 -0.482967 -0.000499725  -0.39858 -0.575431 0.000286102  -0.383615 -0.541048 0.00212693  -0.361222 -0.586057 0.00239086  -0.324107 -0.596177 0.0010283  -0.309823 -0.560906 0.00228071  -0.383325 -0.540961 -0.000138521  -0.360931 -0.585966 0.000663519  -0.34628 -0.551151 0.00220537  -0.309523 -0.560816 0.000691891  -0.345984 -0.551052 0.000286102  -0.428912 -0.646042 0.00105333  -0.414076 -0.610538 0.0024991  -0.391053 -0.657423 0.00277734  -0.353318 -0.66835 0.00172615  -0.338993 -0.6321 0.00265908  -0.413787 -0.61048 0.000664473  -0.390756 -0.657357 0.00139284  -0.376153 -0.621493 0.00258136  -0.338701 -0.632031 0.00138378  -0.37586 -0.621426 0.00102687  -0.459003 -0.718576 0.00180769  -0.444279 -0.682141 0.00289369  -0.42074 -0.730572 0.0031848  -0.38254 -0.742165 0.00236583  -0.368207 -0.705111 0.00305891  -0.444 -0.682109 0.00141764  -0.420463 -0.73053 0.00209212  -0.405915 -0.693799 0.00297761  -0.367922 -0.705071 0.00205278  -0.405634 -0.693753 0.00174308  -0.488773 -0.792676 0.00251555  -0.474213 -0.75546 0.00330901  -0.450256 -0.805179 0.00361109  -0.411705 -0.81733 0.00302577  -0.397405 -0.779617 0.00347829  -0.473938 -0.755449 0.00215459  -0.449973 -0.805156 0.00277209  -0.435527 -0.767707 0.00339508  -0.39713 -0.779592 0.00270176  -0.435249 -0.767685 0.00242925  -0.518217 -0.868067 0.00322008  -0.503813 -0.830239 0.00374413  -0.479509 -0.880955 0.00405622  -0.440724 -0.893541 0.00363326  -0.426496 -0.855322 0.00391603  -0.503548 -0.830246 0.00285387  -0.479248 -0.880949 0.0034306  -0.464916 -0.842943 0.00383139  -0.426227 -0.855321 0.00333571  -0.464649 -0.842936 0.00310183  -0.547258 -0.944436 0.00387979  -0.533058 -0.906121 0.00419545  -0.508479 -0.957622 0.00451684  -0.469538 -0.970552 0.00426364  -0.455416 -0.931949 0.00437021  -0.532797 -0.906145 0.00354218  -0.50821 -0.957629 0.0040729  -0.494036 -0.919189 0.00428414  -0.455157 -0.931957 0.00395441  -0.493773 -0.9192 0.00374794  -0.575903 -1.02155 0.00453901  -0.561892 -0.982897 0.00466347  -0.537087 -1.03493 0.00499082  -0.498075 -1.0481 0.00484228  -0.484089 -1.00925 0.00483894  -0.561641 -0.982934 0.00419521  -0.536838 -1.03495 0.00469422  -0.522828 -0.996215 0.0047524  -0.483834 -1.00927 0.00455928  -0.522574 -0.996237 0.00438333  -0.604093 -1.09914 0.00515079  -0.590312 -1.06025 0.00514317  -0.565335 -1.11264 0.00547552  -0.526301 -1.12598 0.00544119  -0.512473 -1.08698 0.0053196  -0.590061 -1.0603 0.00483823  -0.565077 -1.11267 0.00529623  -0.551261 -1.07374 0.00523233  -0.512225 -1.08701 0.00514817  -0.55101 -1.07378 0.00499249  -0.631876 -1.17702 0.00575519  -0.618285 -1.13802 0.00563121  -0.593178 -1.19056 0.00596714  -0.554176 -1.20399 0.00598335  -0.540516 -1.16494 0.00580812  -0.618045 -1.13807 0.00543976  -0.592939 -1.1906 0.00587273  -0.579304 -1.15159 0.00572038  -0.540273 -1.16498 0.00571966  -0.579061 -1.15164 0.00558496  -0.659234 -1.25495 0.00631261  -0.645855 -1.21592 0.00612617  -0.620659 -1.26848 0.0064621  -0.581703 -1.28195 0.00654364  -0.568217 -1.24293 0.00630188  -0.645613 -1.21598 0.0060277  -0.620409 -1.26853 0.00642729  -0.606966 -1.22952 0.00621414  -0.567979 -1.24298 0.00627017  -0.606724 -1.22958 0.00614691  -0.686271 -1.33279 0.00686193  -0.673034 -1.29383 0.0066247  -0.647779 -1.34626 0.00695753  -0.608885 -1.35971 0.00704765  -0.595561 -1.3208 0.00679755  -0.672798 -1.29391 0.00657487  -0.647546 -1.34631 0.00695682  -0.634258 -1.3074 0.00671029  -0.595325 -1.32086 0.00680208  -0.634021 -1.30746 0.00669289  -0.71305 -1.41039 0.00736547  -0.69993 -1.37155 0.00711918  -0.674643 -1.42377 0.00744891  -0.635776 -1.4372 0.00757098  -0.622591 -1.39843 0.0072906  -0.69969 -1.37163 0.0071063  -0.674397 -1.42383 0.00746679  -0.661241 -1.38505 0.00720477  -0.622358 -1.39849 0.0073154  -0.661003 -1.38511 0.00720954  -0.73977 -1.48777 0.00786495  -0.72664 -1.44904 0.00760436  -0.701359 -1.50105 0.00792456  -0.662495 -1.51436 0.00804639  -0.649375 -1.47575 0.00777459  -0.726416 -1.44912 0.00760508  -0.701132 -1.50109 0.00795722  -0.688006 -1.46244 0.00768733  -0.649133 -1.47582 0.00780797  -0.687774 -1.4625 0.00771022  -0.00904289 -0.0165256 -1.95503e-05  0 0 0  -0.00606117 -0.0137573 -0.0019927  -0.00214355 -0.00462517 -1.50204e-05  0 0 0  -0.00903269 -0.0163763 -0.00253177  -0.00300751 -0.00606969 -2.12193e-05  0 0 0  -0.00213382 -0.0045719 -0.00109005  -0.00299493 -0.00601077 -0.00139093  -0.0278034 -0.0461583 3.91006e-05  -0.0192108 -0.0424403 -0.00319719  -0.0119036 -0.0271022 1.7643e-05  -0.0277728 -0.0458574 -0.00404167  -0.017536 -0.0304318 2.38419e-06  -0.0118893 -0.0269318 -0.00270295  -0.0175239 -0.0302234 -0.00341678  -0.0506726 -0.081808 0.00014925  -0.0369352 -0.0792614 -0.00361371  -0.0277416 -0.060349 0.000112057  -0.0505994 -0.0814313 -0.00458574  -0.0389851 -0.0632673 8.89301e-05  -0.0276981 -0.060069 -0.00349283  -0.0389357 -0.0629402 -0.0044179  -0.0748693 -0.122935 0.000299692  -0.0567861 -0.122075 -0.00343847  -0.0467674 -0.100286 0.000250101  -0.0747356 -0.122535 -0.00440598  -0.0626485 -0.10165 0.000220299  -0.0466713 -0.0999512 -0.00358081  -0.062553 -0.101273 -0.00456119  -0.0998199 -0.169513 0.000481367  -0.0779601 -0.170349 -0.00291491  -0.0673884 -0.1459 0.000421762  -0.0996215 -0.169147 -0.0038178  -0.087263 -0.145553 0.000386238  -0.0672245 -0.145563 -0.00320411  -0.0870991 -0.145186 -0.004143  -0.125337 -0.221042 0.000693083  -0.100242 -0.223501 -0.00223136  -0.0891886 -0.196658 0.000624418  -0.125084 -0.220715 -0.00303674  -0.112504 -0.194678 0.000583172  -0.0889655 -0.196348 -0.00258231  -0.112284 -0.194347 -0.00343776  -0.151366 -0.276986 0.000933886  -0.123563 -0.280963 -0.00150657  -0.112045 -0.25199 0.000855923  -0.151079 -0.276719 -0.00221848  -0.138286 -0.248478 0.000809669  -0.111777 -0.251724 -0.00187016  -0.138018 -0.248201 -0.00262594  -0.17787 -0.336812 0.00120354  -0.14782 -0.342198 -0.000792503  -0.135867 -0.311355 0.0011158  -0.177562 -0.336589 -0.00141072  -0.164548 -0.306428 0.00106525  -0.135575 -0.311134 -0.00114632  -0.164257 -0.306199 -0.00180936  -0.204856 -0.400072 0.00149941  -0.172964 -0.406736 -0.000110865  -0.160591 -0.374253 0.00140357  -0.204542 -0.399901 -0.000653505  -0.191298 -0.368024 0.00134826  -0.160286 -0.374078 -0.000447989  -0.190991 -0.367847 -0.00102448  -0.232291 -0.466317 0.00182176  -0.198883 -0.474139 0.000538349  -0.186134 -0.440237 0.00171685  -0.231977 -0.466179 6.8903e-05  -0.218508 -0.432833 0.00165772  -0.185828 -0.440101 0.000217438  -0.218202 -0.432694 -0.000286579  -0.260152 -0.535159 0.00216937  -0.22551 -0.544003 0.00115991  -0.212419 -0.508883 0.00205564  -0.259843 -0.535063 0.000746727  -0.246167 -0.500422 0.0019927  -0.212115 -0.508784 0.000851393  -0.245861 -0.500324 0.000414133  -0.288355 -0.606207 0.00253963  -0.252703 -0.615956 0.00176096  -0.239335 -0.579807 0.00241828  -0.288053 -0.606133 0.00140452  -0.274204 -0.570417 0.00235152  -0.239039 -0.579737 0.00146246  -0.273907 -0.570346 0.00107908  -0.316834 -0.679122 0.00293207  -0.280376 -0.689647 0.00234771  -0.266779 -0.652643 0.0028038  -0.316542 -0.679081 0.002033  -0.302561 -0.642438 0.00273347  -0.266488 -0.652602 0.00205564  -0.30227 -0.642398 0.00172329  -0.345476 -0.753566 0.00334477  -0.308368 -0.764758 0.00292325  -0.294617 -0.727061 0.00320888  -0.34519 -0.753539 0.0026536  -0.33113 -0.716161 0.00313592  -0.294336 -0.727041 0.00263691  -0.33085 -0.71614 0.00234556  -0.374199 -0.829247 0.00377536  -0.336591 -0.84099 0.00349092  -0.322734 -0.802747 0.00363398  -0.373922 -0.829247 0.00325418  -0.359828 -0.791256 0.00355792  -0.322459 -0.802749 0.00320792  -0.359554 -0.79126 0.00295758  -0.402886 -0.905877 0.00422335  -0.364891 -0.918075 0.00405335  -0.351 -0.879422 0.00407577  -0.402615 -0.905885 0.00385141  -0.388541 -0.867449 0.00399756  -0.350734 -0.87944 0.00377321  -0.388277 -0.867466 0.00355482  -0.431469 -0.983209 0.00468683  -0.393197 -0.995761 0.00460887  -0.379312 -0.956821 0.00453377  -0.431207 -0.983238 0.00443101  -0.41719 -0.944456 0.00445318  -0.37905 -0.956855 0.00433159  -0.416931 -0.944492 0.00414515  -0.459854 -1.061 0.00516224  -0.42138 -1.07383 0.00515795  -0.407558 -1.03471 0.00500512  -0.459595 -1.06103 0.00500774  -0.445679 -1.02205 0.00492287  -0.407305 -1.03476 0.0048852  -0.445428 -1.02209 0.0047214  -0.487994 -1.13905 0.00564837  -0.449398 -1.15207 0.00569868  -0.435665 -1.11288 0.00548768  -0.487744 -1.1391 0.00556397  -0.473952 -1.09999 0.00540447  -0.435414 -1.11294 0.00542903  -0.473705 -1.10005 0.00529027  -0.515831 -1.21715 0.00614142  -0.477154 -1.23031 0.00623035  -0.463551 -1.19113 0.00597978  -0.515583 -1.2172 0.00611472  -0.501942 -1.17809 0.00589395  -0.463308 -1.1912 0.0059669  -0.501702 -1.17815 0.00584149  -0.543355 -1.29516 0.00663853  -0.504647 -1.30841 0.00675011  -0.491179 -1.26931 0.00647807  -0.543113 -1.29523 0.00664115  -0.529628 -1.25616 0.00638914  -0.490936 -1.26938 0.00649261  -0.52939 -1.25624 0.00638223  -0.570541 -1.37294 0.00713253  -0.531809 -1.38623 0.00725579  -0.5185 -1.34728 0.00697517  -0.570299 -1.373 0.0071578  -0.556978 -1.33408 0.00688529  -0.518265 -1.34735 0.00700569  -0.556745 -1.33415 0.00690222  -0.597436 -1.4504 0.0076232  -0.558689 -1.46369 0.0077529  -0.54552 -1.42492 0.00747132  -0.597198 -1.45048 0.00765371  -0.584017 -1.4117 0.00737906  -0.545281 -1.42501 0.00750971  -0.583782 -1.41179 0.007411  -0.624125 -1.52749 0.00810242  -0.585324 -1.54072 0.00823355  -0.572257 -1.50218 0.00796461  -0.623875 -1.52756 0.00814533  -0.610784 -1.48898 0.007864  -0.572031 -1.50226 0.00800323  -0.610554 -1.48907 0.00789952  -0.00373 -0.0126854 1.43051e-06  0 0 0  -0.00179479 -0.0123235 -0.000968933  -0.000635907 -0.00386539 -5.00679e-06  0 0 0  -0.00371588 -0.0125804 -0.0014708  -0.00126304 -0.00397068 -9.53674e-06  0 0 0  -0.000629283 -0.00382432 -0.000530005  -0.00125876 -0.0039371 -0.00080514  -0.0124244 -0.0408957 7.58171e-05  -0.00647356 -0.0403525 -0.00154662  -0.00375319 -0.0250052 4.3869e-05  -0.0123925 -0.0406914 -0.00236487  -0.007477 -0.0254178 3.17097e-05  -0.00372589 -0.0248789 -0.00130939  -0.00745504 -0.025283 -0.00199842  -0.0252006 -0.0785806 0.000200748  -0.0144839 -0.0785887 -0.00171399  -0.0101493 -0.0587185 0.000151157  -0.0251251 -0.0782934 -0.00265265  -0.0184016 -0.0588391 0.000133276  -0.0100856 -0.0585028 -0.00167823  -0.0183538 -0.0586049 -0.00257778  -0.0406329 -0.122784 0.000361204  -0.0253958 -0.123827 -0.00154281  -0.0197239 -0.100726 0.000300169  -0.0404985 -0.122465 -0.00248504  -0.0326474 -0.0999448 0.000276804  -0.01961 -0.100449 -0.00166059  -0.032545 -0.0996535 -0.00261474  -0.0579971 -0.17249 0.00055337  -0.0387682 -0.174718 -0.00115204  -0.0319623 -0.148914 0.000481129  -0.0577989 -0.172172 -0.00202346  -0.049092 -0.146985 0.000452995  -0.0317904 -0.148617 -0.00136542  -0.0489296 -0.146678 -0.00227833  -0.077006 -0.226972 0.000776291  -0.0543303 -0.230415 -0.000652313  -0.0465012 -0.202278 0.000693798  -0.0767609 -0.226685 -0.0014379  -0.0672992 -0.199151 0.000660896  -0.046278 -0.201991 -0.000908613  -0.0670784 -0.198864 -0.00174189  -0.0975478 -0.285722 0.00102711  -0.0719408 -0.290366 -0.000114202  -0.0631449 -0.260146 0.000935555  -0.0972681 -0.285472 -0.000802994  -0.0870889 -0.255838 0.000898361  -0.0628847 -0.259888 -0.000385284  -0.0868298 -0.255583 -0.00112247  -0.11946 -0.348138 0.0013051  -0.0913855 -0.353948 0.000425339  -0.0817173 -0.321942 0.00120473  -0.119166 -0.347933 -0.000182152  -0.108332 -0.316482 0.00116301  -0.0814349 -0.321721 0.000157118  -0.108048 -0.316271 -0.000492811  -0.142648 -0.413802 0.00161028  -0.112511 -0.420713 0.000953674  -0.102037 -0.387138 0.00150108  -0.142345 -0.413635 0.000426769  -0.130899 -0.380583 0.00145388  -0.101744 -0.386956 0.000690222  -0.130605 -0.380411 0.000123739  -0.166934 -0.482206 0.00194097  -0.135078 -0.490142 0.0014689  -0.123911 -0.455255 0.00182319  -0.166634 -0.482077 0.00100374  -0.154653 -0.447668 0.00177193  -0.123615 -0.455109 0.00121403  -0.154356 -0.447537 0.000715017  -0.192214 -0.553001 0.00229526  -0.158933 -0.561867 0.00197291  -0.147145 -0.52585 0.00217009  -0.191915 -0.552903 0.00157046  -0.179455 -0.517321 0.00211477  -0.146851 -0.525737 0.00172091  -0.179161 -0.51722 0.00128818  -0.218293 -0.625751 0.00267339  -0.183835 -0.635451 0.00247097  -0.171543 -0.598521 0.00254059  -0.218003 -0.625683 0.0021162  -0.205153 -0.589136 0.00248122  -0.171253 -0.598438 0.00222397  -0.204864 -0.589069 0.00184155  -0.245058 -0.700165 0.00307226  -0.209636 -0.710594 0.00296688  -0.196913 -0.6729 0.00293303  -0.244773 -0.70012 0.00266099  -0.231595 -0.662763 0.00287032  -0.196629 -0.672844 0.00271869  -0.231314 -0.662719 0.00238872  -0.272313 -0.775868 0.00349021  -0.236107 -0.786928 0.0034616  -0.223065 -0.748654 0.00334549  -0.272038 -0.775846 0.00319171  -0.258624 -0.737858 0.00327921  -0.222787 -0.748621 0.00321555  -0.258349 -0.737839 0.0029242  -0.299953 -0.852623 0.00392652  -0.263118 -0.864213 0.00395775  -0.249821 -0.825478 0.0037756  -0.299681 -0.852619 0.00372815  -0.28609 -0.814124 0.00370574  -0.249549 -0.825465 0.0037086  -0.285823 -0.814123 0.00345945  -0.327793 -0.93011 0.00437927  -0.29046 -0.942141 0.004457  -0.277011 -0.903098 0.00422311  -0.327531 -0.930123 0.00425434  -0.313846 -0.891274 0.00415111  -0.276745 -0.903103 0.0042088  -0.313585 -0.891294 0.00398898  -0.355753 -1.00814 0.00484681  -0.318035 -1.02052 0.00495815  -0.304482 -0.981266 0.00468659  -0.355493 -1.00817 0.00478697  -0.341761 -0.969066 0.00461173  -0.304221 -0.981287 0.00470638  -0.341507 -0.969096 0.00452065  -0.383674 -1.08645 0.00532699  -0.345667 -1.09911 0.00546074  -0.332095 -1.05976 0.00516319  -0.383424 -1.08649 0.00530934  -0.369714 -1.04726 0.00508523  -0.331839 -1.0598 0.00521159  -0.369465 -1.0473 0.00504565  -0.411513 -1.16489 0.00581574  -0.373293 -1.17776 0.00596261  -0.359733 -1.13839 0.005651  -0.411262 -1.16494 0.00583386  -0.397606 -1.12566 0.00557089  -0.359481 -1.13843 0.00571203  -0.397362 -1.12571 0.00557256  -0.439143 -1.24325 0.00631475  -0.400776 -1.25627 0.00646615  -0.387294 -1.21698 0.00614762  -0.438901 -1.24331 0.00634861  -0.425348 -1.20407 0.00606418  -0.387046 -1.21703 0.00621724  -0.425107 -1.20414 0.00608921  -0.466557 -1.32144 0.00681376  -0.428088 -1.33455 0.00696683  -0.414695 -1.29538 0.00665307  -0.466314 -1.3215 0.0068593  -0.452877 -1.28237 0.00656486  -0.41445 -1.29544 0.00671911  -0.452639 -1.28244 0.00660515  -0.493668 -1.39929 0.00731874  -0.455143 -1.41247 0.00746202  -0.441878 -1.37349 0.00715852  -0.493436 -1.39936 0.00735998  -0.480142 -1.3604 0.00706816  -0.441638 -1.37355 0.00721645  -0.47991 -1.36048 0.00710988  -0.520511 -1.47677 0.00781226  -0.481928 -1.48996 0.00794268  -0.468797 -1.4512 0.00765944  -0.520272 -1.47684 0.00785375  -0.507118 -1.43808 0.00756741  -0.468564 -1.45127 0.00770402  -0.506889 -1.43816 0.00760961  -0.547065 -1.55374 0.00830126  -0.508426 -1.5669 0.00843453  -0.495445 -1.52842 0.0081501  -0.546851 -1.55382 0.00833106  -0.533812 -1.51531 0.00806046  -0.495198 -1.5285 0.00818205  -0.533585 -1.5154 0.00809574  -3.06144e-05 -0.0128664 1.81198e-05  0 0 0  0.00165467 -0.0138958 3.8147e-06  0.000565693 -0.00475928 2.6226e-06  0 0 0  -1.32844e-05 -0.0127951 -0.000477791  -6.99982e-06 -0.00413293 -9.53674e-07  0 0 0  0.000570267 -0.00473985 -4.76837e-07  1.78814e-06 -0.00411659 -0.000261545  -0.00113717 -0.0413299 0.000104666  0.00404674 -0.0430762 4.12464e-05  0.00287168 -0.0271132 6.38962e-05  -0.00108287 -0.041185 -0.000740767  -0.00034304 -0.0256038 5.45979e-05  0.00291352 -0.0270393 2.21729e-05  -0.000312269 -0.0255178 -0.000634432  -0.00475082 -0.0802532 0.000239134  0.0047766 -0.082592 0.000121355  0.00462875 -0.0619887 0.00018096  -0.00465086 -0.0800301 -0.000788689  -0.00259063 -0.0597852 0.000166893  0.00471857 -0.0618348 7.10487e-05  -0.00251457 -0.0596157 -0.00079155  -0.0113208 -0.126396 0.000409603  0.00255448 -0.12943 0.000292301  0.00393242 -0.105447 0.000338316  -0.0111728 -0.126132 -0.000613451  -0.00766507 -0.102549 0.000320435  0.00406718 -0.105231 0.000195026  -0.00754499 -0.102316 -0.000721931  -0.0207946 -0.178281 0.000610828  -0.00296479 -0.182094 0.000555038  3.01003e-05 -0.155347 0.000528097  -0.0205968 -0.178002 -0.000293732  -0.0157052 -0.151677 0.000506401  0.000205278 -0.1551 0.000413418  -0.0155337 -0.151418 -0.000465155  -0.0329608 -0.234977 0.000842571  -0.0116714 -0.239683 0.000883818  -0.0071401 -0.21056 0.000749111  -0.0327274 -0.234716 0.000123024  -0.0265461 -0.20605 0.000722885  -0.00692916 -0.210312 0.00071454  -0.0263337 -0.205793 -9.05991e-05  -0.0476466 -0.295927 0.00110269  -0.0233699 -0.301552 0.00124502  -0.0173995 -0.270348 0.000999689  -0.0473855 -0.295692 0.000566244  -0.039999 -0.264946 0.000969172  -0.0171626 -0.270119 0.00106192  -0.0397537 -0.264713 0.000344515  -0.0645941 -0.360486 0.00139046  -0.0377653 -0.367072 0.00162101  -0.0304989 -0.334086 0.00127769  -0.064321 -0.360288 0.00102711  -0.0558435 -0.327771 0.00124311  -0.0302444 -0.333886 0.00143218  -0.0555807 -0.327568 0.00079751  -0.0835997 -0.428197 0.00170422  -0.0545996 -0.435702 0.00200248  -0.0461587 -0.401195 0.00158358  -0.0833178 -0.428032 0.00147676  -0.0738508 -0.393968 0.00154376  -0.0458958 -0.401029 0.00181103  -0.0735769 -0.393803 0.00125456  -0.104381 -0.498511 0.00204349  -0.0735495 -0.506917 0.00238752  -0.0640906 -0.471146 0.00191498  -0.104101 -0.498382 0.00193071  -0.093774 -0.46304 0.00187111  -0.0638241 -0.471012 0.00219464  -0.0934987 -0.462907 0.00170517  -0.126736 -0.571055 0.00240684  -0.0943624 -0.580272 0.00277781  -0.0840063 -0.543454 0.0022707  -0.126456 -0.570955 0.00237346  -0.115373 -0.53452 0.0022223  -0.0837407 -0.543351 0.00258183  -0.115097 -0.534421 0.00215483  -0.150389 -0.645373 0.00279236  -0.116729 -0.655349 0.00317407  -0.105627 -0.61769 0.00264978  -0.150116 -0.645301 0.00282526  -0.138405 -0.608 0.00259686  -0.105364 -0.617615 0.0029757  -0.138134 -0.607927 0.00259972  -0.175154 -0.721168 0.00319839  -0.140424 -0.731792 0.0035789  -0.128686 -0.693467 0.00304985  -0.174884 -0.721119 0.0032711  -0.162642 -0.683097 0.00299311  -0.128426 -0.693418 0.00337529  -0.162375 -0.683052 0.00305057  -0.200776 -0.79806 0.00362372  -0.165168 -0.809271 0.00399423  -0.152931 -0.770444 0.00346923  -0.200514 -0.798035 0.00373054  -0.187861 -0.759481 0.00340915  -0.152675 -0.770418 0.00378585  -0.187601 -0.759456 0.00350046  -0.227097 -0.875822 0.00406599  -0.190771 -0.887506 0.00442004  -0.178127 -0.848315 0.00390744  -0.226837 -0.875814 0.00418711  -0.213857 -0.83684 0.00384235  -0.177876 -0.848308 0.0042057  -0.213601 -0.836838 0.00396013  -0.253889 -0.95414 0.00452471  -0.216989 -0.96624 0.0048573  -0.204058 -0.926811 0.00436163  -0.253636 -0.954149 0.00465918  -0.240435 -0.914913 0.00429344  -0.203811 -0.926822 0.00463772  -0.240185 -0.914925 0.00442243  -0.281029 -1.03284 0.00499821  -0.243672 -1.04525 0.00530481  -0.230528 -1.00569 0.00483155  -0.280778 -1.03286 0.00512981  -0.267421 -0.993446 0.00475955  -0.230283 -1.00572 0.00507975  -0.267175 -0.993477 0.0048964  -0.308328 -1.11167 0.00548434  -0.270618 -1.12435 0.00576329  -0.257359 -1.08476 0.00531411  -0.308084 -1.1117 0.00561452  -0.294658 -1.07224 0.00523901  -0.257118 -1.0848 0.00553393  -0.294416 -1.07228 0.00537133  -0.335703 -1.1905 0.00598049  -0.297726 -1.20336 0.00623059  -0.2844 -1.16382 0.0058105  -0.335459 -1.19054 0.00609612  -0.322009 -1.15108 0.00572968  -0.284159 -1.16387 0.0059967  -0.321771 -1.15114 0.00585651  -0.363004 -1.26914 0.00648522  -0.324833 -1.28214 0.00670528  -0.311517 -1.24272 0.00631595  -0.362767 -1.26919 0.00658917  -0.34936 -1.22984 0.00623083  -0.311283 -1.24278 0.00647044  -0.349125 -1.2299 0.00634193  -0.390189 -1.34751 0.00699568  -0.351878 -1.36059 0.00718999  -0.338601 -1.32134 0.00682473  -0.389949 -1.34757 0.00707698  -0.376611 -1.30835 0.00673985  -0.338372 -1.32141 0.00694418  -0.37638 -1.30843 0.00683594  -0.417146 -1.42547 0.00750613  -0.37874 -1.43862 0.0076735  -0.365564 -1.39959 0.00733876  -0.416923 -1.42554 0.00757003  -0.403689 -1.38653 0.00725007  -0.365329 -1.39966 0.0074327  -0.403462 -1.38661 0.00732327  -0.44388 -1.50298 0.008008  -0.405413 -1.51613 0.00815368  -0.392338 -1.47736 0.00785804  -0.443647 -1.50305 0.00804496  -0.430539 -1.46428 0.00774932  -0.3921 -1.47743 0.00790858  -0.430316 -1.46435 0.00780225  -0.470306 -1.57987 0.00849199  -0.43175 -1.59303 0.00861144  -0.418853 -1.55458 0.00836587  -0.47005 -1.57995 0.00852156  -0.457127 -1.5415 0.00824618  -0.418626 -1.55466 0.00838804  -0.456887 -1.54159 0.00828171  0.00334804 -0.0156829 3.09944e-05  0 0 0  0.00519691 -0.0180225 0.000916958  0.00179633 -0.00705951 9.05991e-06  0 0 0  0.00337547 -0.0156265 0.00047183  0.00115907 -0.0057025 5.96046e-06  0 0 0  0.00179923 -0.00703162 0.000495672  0.00115906 -0.00569314 0.000252485  0.00912803 -0.0460805 0.0001266  0.0145482 -0.04987 0.00153518  0.00956206 -0.0327737 7.9155e-05  0.00921035 -0.0459628 0.000801325  0.0061413 -0.0294911 7.20024e-05  0.00962441 -0.0326906 0.00127482  0.0061965 -0.0294271 0.000659704  0.013988 -0.0864223 0.000268459  0.0236186 -0.0909152 0.00186086  0.0192075 -0.0696116 0.000202179  0.0141199 -0.0862317 0.00101042  0.0118299 -0.0652685 0.000192642  0.0193344 -0.0694576 0.00172472  0.0119355 -0.0651284 0.000912428  0.0159002 -0.133902 0.00044632  0.0296501 -0.138855 0.00204277  0.0269431 -0.114307 0.00036478  0.0160672 -0.133667 0.00117898  0.0153773 -0.109371 0.000353575  0.0271085 -0.114095 0.00195956  0.0155274 -0.109171 0.00109005  0.014167 -0.187249 0.000655651  0.0316694 -0.192715 0.00219941  0.0309874 -0.165334 0.000561476  0.0143659 -0.186995 0.00139046  0.0155002 -0.159896 0.000546455  0.0311786 -0.165093 0.00212002  0.0156791 -0.159663 0.00127769  0.00881428 -0.245549 0.000894785  0.0296493 -0.251648 0.00237465  0.0309493 -0.221824 0.000789404  0.00903571 -0.245304 0.00163388  0.0119365 -0.215805 0.000771523  0.0311605 -0.221578 0.00228548  0.0121452 -0.215569 0.00150609  3.99351e-05 -0.308203 0.00116444  0.0237938 -0.315028 0.00257564  0.0269581 -0.283052 0.00104809  0.000281036 -0.307978 0.00191784  0.00484055 -0.276364 0.00102568  0.0271862 -0.282821 0.00247216  0.00506759 -0.276142 0.00177217  -0.0118216 -0.374504 0.00146127  0.0144684 -0.382108 0.00279832  0.0193131 -0.348339 0.00133586  -0.0115718 -0.374311 0.00221086  -0.00551784 -0.340916 0.00130892  0.0195525 -0.348133 0.00268531  -0.00527507 -0.340723 0.0020597  -0.0264813 -0.443938 0.00178432  0.00199258 -0.452327 0.00303936  0.00835991 -0.417034 0.00165153  -0.0262235 -0.443774 0.00252557  -0.018818 -0.408856 0.00161958  0.00860691 -0.416857 0.00291657  -0.0185696 -0.408691 0.00236583  -0.0435712 -0.5159 0.00213265  -0.0132278 -0.525053 0.00329876  -0.00553632 -0.488544 0.00199223  -0.0433146 -0.515769 0.00284266  -0.0347344 -0.479616 0.00195503  -0.0052861 -0.488397 0.00316811  -0.0344812 -0.479484 0.00268006  -0.0628105 -0.589979 0.0025053  -0.0308799 -0.599847 0.00357628  -0.0220169 -0.562333 0.00235796  -0.0625521 -0.589876 0.00318074  -0.0529377 -0.552695 0.00231647  -0.0217657 -0.562217 0.0034349  -0.0526857 -0.552591 0.00300956  -0.0838487 -0.665688 0.00289917  -0.0505781 -0.676208 0.00387168  -0.0407319 -0.637935 0.00274587  -0.0835953 -0.665613 0.0035224  -0.0731142 -0.627637 0.00269961  -0.0404818 -0.637845 0.00372291  -0.0728631 -0.627563 0.0033474  -0.106438 -0.742717 0.00331306  -0.0720463 -0.753812 0.00418758  -0.0613527 -0.714937 0.00315452  -0.106184 -0.742664 0.00388646  -0.0949626 -0.704052 0.00310373  -0.0611038 -0.714873 0.00402641  -0.0947151 -0.704 0.00370193  -0.130261 -0.820678 0.00374651  -0.0949396 -0.832273 0.00452256  -0.083567 -0.792985 0.00358272  -0.130014 -0.820648 0.00425792  -0.118201 -0.781583 0.00352716  -0.0833199 -0.792944 0.004354  -0.117957 -0.781557 0.00406742  -0.155115 -0.899343 0.00419569  -0.119032 -0.911357 0.00487661  -0.107091 -0.871771 0.00402856  -0.154867 -0.899331 0.00465178  -0.14257 -0.859932 0.00396919  -0.106846 -0.87175 0.00469685  -0.142329 -0.859923 0.00445223  -0.180723 -0.978405 0.00466204  -0.144023 -0.990765 0.00525284  -0.13166 -0.951027 0.00449038  -0.180482 -0.978412 0.00505424  -0.167828 -0.938823 0.00442719  -0.131417 -0.951025 0.00506401  -0.167589 -0.938835 0.00484824  -0.206925 -1.0577 0.00514269  -0.169734 -1.07033 0.00564551  -0.157036 -1.03052 0.00496888  -0.206683 -1.05772 0.00547934  -0.193758 -1.01803 0.00490141  -0.156796 -1.03054 0.00544739  -0.193522 -1.01806 0.00526524  -0.233493 -1.13699 0.00563645  -0.195918 -1.14983 0.00606012  -0.183005 -1.11007 0.00545931  -0.233257 -1.13703 0.00591302  -0.220165 -1.09734 0.00538731  -0.182767 -1.11009 0.00585461  -0.219931 -1.09738 0.00569081  -0.260312 -1.21617 0.0061388  -0.222446 -1.22915 0.00648785  -0.20938 -1.18948 0.00596452  -0.260073 -1.21621 0.00636268  -0.246877 -1.1766 0.00588727  -0.209143 -1.18952 0.00627589  -0.246644 -1.17665 0.00613642  -0.2872 -1.29505 0.00665665  -0.249121 -1.30814 0.00694418  -0.235993 -1.26864 0.00647926  -0.28697 -1.2951 0.00682616  -0.273746 -1.25564 0.00639749  -0.235761 -1.26869 0.00672317  -0.273518 -1.2557 0.00659299  -0.314092 -1.37358 0.00717449  -0.275853 -1.38671 0.00742197  -0.262709 -1.34743 0.00700235  -0.31386 -1.37363 0.00730538  -0.300647 -1.33435 0.00691247  -0.26248 -1.34748 0.00717688  -0.300423 -1.33442 0.00706267  -0.340859 -1.45161 0.00769496  -0.302495 -1.4648 0.00788331  -0.289413 -1.42575 0.00753164  -0.34062 -1.45168 0.00777531  -0.327483 -1.41264 0.0074358  -0.289184 -1.42581 0.00765848  -0.327257 -1.41272 0.0075376  -0.367447 -1.52915 0.008219  -0.329039 -1.54237 0.00837803  -0.316017 -1.50354 0.00806165  -0.367224 -1.52922 0.00826001  -0.354177 -1.49044 0.00796008  -0.315762 -1.50363 0.00814271  -0.353944 -1.49052 0.00802374  -0.393731 -1.60607 0.00871873  -0.355298 -1.61929 0.00878882  -0.342413 -1.58081 0.00858593  -0.393521 -1.60613 0.00870824  -0.38062 -1.56767 0.00846863  -0.342182 -1.58088 0.0085969  -0.380413 -1.56775 0.00848031  0.00725424 -0.0212582 4.05312e-05  0 0 0  0.00969617 -0.0253552 0.00173569  0.00334315 -0.0114367 1.35899e-05  0 0 0  0.0072865 -0.0211952 0.00133801  0.00249047 -0.00889248 1.16825e-05  0 0 0  0.00334439 -0.0114045 0.0009377  0.00249603 -0.00887734 0.000724792  0.0202883 -0.0549799 0.000140667  0.0268565 -0.061034 0.00289273  0.0177324 -0.0424361 8.74996e-05  0.0203974 -0.0548613 0.00223613  0.0133992 -0.0370302 8.39233e-05  0.0178084 -0.0423524 0.00240469  0.0134653 -0.0369607 0.001858  0.033437 -0.096809 0.000286102  0.0442303 -0.103333 0.00346065  0.0357099 -0.0815371 0.000212193  0.033599 -0.096624 0.00267744  0.0271209 -0.0750213 0.000208378  0.0358591 -0.0813879 0.00323439  0.0272603 -0.0748844 0.00250149  0.0433651 -0.145158 0.000468731  0.0579766 -0.1519 0.00368047  0.051476 -0.127026 0.000377893  0.0435499 -0.144937 0.00287986  0.038912 -0.120195 0.000373363  0.051659 -0.126831 0.00359678  0.0390838 -0.120004 0.00279713  0.0489553 -0.199456 0.000684023  0.0670342 -0.206506 0.00375843  0.0629128 -0.178704 0.00057888  0.0491565 -0.199215 0.00298834  0.0467215 -0.171599 0.000572443  0.0631068 -0.178486 0.00372696  0.0469129 -0.171382 0.00294018  0.0501382 -0.25892 0.000931501  0.0713416 -0.266467 0.00380683  0.0695705 -0.236082 0.000813723  0.0503499 -0.258688 0.00310159  0.0500934 -0.22857 0.000803471  0.0697727 -0.235862 0.0037837  0.0502951 -0.228346 0.00304532  0.0471163 -0.322917 0.0012095  0.0711055 -0.33105 0.003865  0.0715603 -0.298438 0.00108123  0.0473409 -0.322701 0.00322366  0.0491343 -0.290389 0.00106692  0.0717697 -0.29823 0.00383401  0.0493495 -0.29018 0.00316262  0.040275 -0.390653 0.00151658  0.0667135 -0.399462 0.00394797  0.0691905 -0.365006 0.00137854  0.0405045 -0.390466 0.00337958  0.0441576 -0.356344 0.00135899  0.0694071 -0.36482 0.0039041  0.0443794 -0.356155 0.00329947  0.0299569 -0.461544 0.00184965  0.0585334 -0.471016 0.00405741  0.062849 -0.435046 0.00170445  0.0301942 -0.461383 0.00354886  0.0355291 -0.425734 0.00167966  0.0630703 -0.434887 0.00399923  0.0357581 -0.425576 0.00346351  0.0165969 -0.534918 0.00220871  0.0470157 -0.545062 0.00419712  0.0529443 -0.507892 0.00205612  0.0168327 -0.534788 0.00375199  0.0236421 -0.497939 0.00202584  0.0531691 -0.507761 0.00412393  0.0238729 -0.497807 0.00364828  0.000534773 -0.610321 0.00259066  0.0325347 -0.621066 0.00436544  0.0398937 -0.582953 0.00243258  0.000774503 -0.610217 0.00396991  0.00888348 -0.572387 0.00239658  0.04012 -0.582849 0.00427747  0.00911677 -0.572285 0.00386047  -0.0178152 -0.687232 0.00299358  0.0155222 -0.698543 0.00456309  0.0240977 -0.659721 0.00283074  -0.0175794 -0.687155 0.00422049  -0.0083667 -0.648599 0.00278997  0.0243248 -0.659644 0.0044601  -0.0081352 -0.648521 0.00409317  -0.0381511 -0.765322 0.00341725  -0.00368667 -0.777104 0.00478959  0.0059427 -0.737762 0.00325012  -0.0379133 -0.765267 0.00448704  -0.0277519 -0.726142 0.00320315  0.0061692 -0.737709 0.00467253  -0.0275204 -0.726092 0.00435328  -0.0601032 -0.844194 0.0038588  -0.024704 -0.856399 0.00504541  -0.0142124 -0.816707 0.0036869  -0.0598696 -0.844162 0.00478649  -0.0489348 -0.804665 0.00363588  -0.0139859 -0.816676 0.00491428  -0.0487051 -0.804633 0.00463414  -0.0834206 -0.923621 0.00431728  -0.0472519 -0.93615 0.00532985  -0.0360318 -0.896242 0.00414205  -0.0831859 -0.923607 0.00510216  -0.0716048 -0.883845 0.00408626  -0.0358063 -0.896232 0.00518394  -0.0713762 -0.883837 0.00494432  -0.107785 -1.0033 0.00479198  -0.0709964 -1.01611 0.00564337  -0.059213 -0.976106 0.00461268  -0.107555 -1.0033 0.0054512  -0.0954784 -0.96343 0.00455236  -0.058988 -0.976113 0.00548315  -0.0952516 -0.963436 0.00527382  -0.132999 -1.08308 0.00528073  -0.095716 -1.09607 0.00598335  -0.0834751 -1.05607 0.00509906  -0.132766 -1.0831 0.00581527  -0.120296 -1.04318 0.00503373  -0.08325 -1.0561 0.00581098  -0.120071 -1.04321 0.00563216  -0.158793 -1.16273 0.00578427  -0.12113 -1.17587 0.00635409  -0.108571 -1.13596 0.00559711  -0.158565 -1.16276 0.00621295  -0.145826 -1.12292 0.00552917  -0.108346 -1.136 0.00616527  -0.145602 -1.12295 0.00601077  -0.185024 -1.24216 0.0062983  -0.147076 -1.25537 0.00674915  -0.134272 -1.21562 0.00611186  -0.184795 -1.24219 0.00662374  -0.171861 -1.20247 0.0060389  -0.13405 -1.21567 0.00654936  -0.171638 -1.20252 0.00641632  -0.211474 -1.32119 0.00681949  -0.173324 -1.33447 0.00717402  -0.160386 -1.29491 0.00663972  -0.211253 -1.32125 0.00706053  -0.198219 -1.28172 0.00655913  -0.160167 -1.29497 0.00696611  -0.198 -1.28177 0.00684619  -0.23805 -1.3998 0.00735068  -0.199723 -1.41307 0.00762153  -0.186746 -1.37377 0.00716209  -0.237816 -1.39984 0.00751996  -0.224754 -1.36055 0.00708723  -0.186517 -1.37384 0.00739861  -0.224534 -1.36061 0.00728536  -0.264583 -1.47786 0.00788569  -0.226199 -1.49115 0.00809908  -0.213186 -1.45212 0.00771666  -0.264373 -1.47794 0.0079937  -0.251321 -1.43889 0.00762367  -0.212957 -1.45218 0.00787783  -0.251108 -1.43896 0.00776386  -0.291032 -1.5554 0.00844145  -0.252603 -1.5687 0.0085845  -0.239595 -1.52988 0.00823545  -0.290831 -1.55551 0.00848126  -0.27782 -1.51668 0.00816965  -0.239414 -1.52996 0.00830317  -0.277595 -1.51677 0.00825047  -0.317293 -1.63235 0.00889492  -0.278778 -1.64563 0.00902152  -0.265925 -1.60709 0.00878286  -0.317035 -1.63245 0.00893402  -0.304182 -1.59395 0.00868368  -0.26571 -1.60725 0.00881386  -0.303971 -1.59405 0.00869727  0.0127746 -0.0309882 4.33922e-05  0 0 0  0.0165652 -0.0382347 0.00246  0.00560107 -0.0197713 1.43051e-05  0 0 0  0.0128158 -0.030898 0.00211143  0.00430873 -0.0149173 1.4782e-05  0 0 0  0.00560395 -0.0197002 0.00132537  0.0043063 -0.0148798 0.00113535  0.0343363 -0.0686607 0.00014329  0.0433442 -0.0772206 0.00410271  0.0297324 -0.0576533 8.41618e-05  0.034464 -0.0685103 0.00351357  0.0231357 -0.0492336 8.79765e-05  0.0298209 -0.0575004 0.00340581  0.0232216 -0.0491324 0.00291848  0.0555891 -0.111215 0.000288963  0.0683743 -0.119556 0.00491095  0.0561664 -0.0978245 0.000204802  0.0557725 -0.111012 0.00420856  0.0453476 -0.0891702 0.000210524  0.0563361 -0.0976179 0.00459266  0.045505 -0.089007 0.00393128  0.0728904 -0.159888 0.000475168  0.0890466 -0.168212 0.00518632  0.0791232 -0.143267 0.000371218  0.0730883 -0.159664 0.00444889  0.0648265 -0.134736 0.000377417  0.0793263 -0.143036 0.00509238  0.0650191 -0.134537 0.00436139  0.0852424 -0.214788 0.000695944  0.104557 -0.223349 0.00521493  0.0972619 -0.195239 0.000576973  0.085447 -0.214554 0.00450444  0.0797064 -0.18659 0.000581026  0.0974709 -0.195002 0.00521636  0.0799031 -0.186373 0.00448775  0.0925561 -0.275165 0.000951529  0.114781 -0.284159 0.00516129  0.110122 -0.253317 0.000819445  0.0927624 -0.274942 0.00449347  0.089525 -0.244325 0.000819206  0.110332 -0.253087 0.00519252  0.0897277 -0.244112 0.00449896  0.0950113 -0.34029 0.00123882  0.119863 -0.349829 0.00509715  0.117736 -0.316653 0.00109649  0.0952255 -0.340083 0.004493  0.0943733 -0.307181 0.001091  0.11795 -0.31644 0.00512695  0.094578 -0.306979 0.00449038  0.0930054 -0.409263 0.0015564  0.120192 -0.4194 0.00505519  0.120389 -0.384358 0.00140476  0.0932215 -0.409082 0.00450611  0.094548 -0.374327 0.00139356  0.120607 -0.384167 0.00507307  0.0947593 -0.374149 0.00449347  0.0869101 -0.48141 0.00190115  0.116141 -0.492146 0.00504398  0.11847 -0.455582 0.00174236  0.0871328 -0.481255 0.00455904  0.0904454 -0.444977 0.00172544  0.11869 -0.455418 0.00504398  0.0906588 -0.444822 0.00452757  0.0772038 -0.555999 0.00227118  0.10821 -0.567306 0.00507164  0.11242 -0.52959 0.00210643  0.0774255 -0.555873 0.00463605  0.0824893 -0.518421 0.00208282  0.112644 -0.529453 0.00505424  0.082707 -0.518296 0.00459051  0.0642736 -0.632528 0.00266433  0.0968024 -0.644352 0.00513625  0.102692 -0.605733 0.00249481  0.0645001 -0.632426 0.00475597  0.0711187 -0.594047 0.00246549  0.102918 -0.605623 0.00509763  0.0713366 -0.593946 0.00469112  0.0485852 -0.710445 0.0030787  0.0824102 -0.722726 0.00523973  0.0897379 -0.683477 0.00290465  0.0488088 -0.710371 0.00490093  0.0567578 -0.671324 0.00286889  0.0899645 -0.683392 0.00518346  0.0569779 -0.671251 0.00482178  0.0304866 -0.789407 0.00351238  0.065398 -0.802069 0.00538039  0.0739843 -0.762357 0.00333548  0.0307134 -0.789354 0.00508928  0.0398169 -0.749813 0.00329304  0.0742112 -0.762297 0.00530434  0.0400358 -0.749761 0.00498986  0.0103955 -0.869009 0.00396442  0.0462126 -0.88198 0.00555968  0.0558387 -0.842004 0.00378394  0.0106192 -0.868977 0.00530219  0.0206778 -0.829132 0.0037365  0.0560662 -0.841965 0.0054667  0.0208973 -0.829104 0.00518894  -0.0113957 -0.949022 0.00443172  0.0251552 -0.962231 0.00577474  0.0356746 -0.922095 0.0042491  -0.0111699 -0.949008 0.00555563  -0.000304222 -0.908973 0.00419593  0.0359014 -0.922075 0.00566244  -8.53539e-05 -0.908963 0.00542402  -0.0345294 -1.02915 0.00491571  0.00261736 -1.04252 0.0060277  0.0138376 -1.00238 0.00472903  -0.0343049 -1.02915 0.00583482  -0.0228028 -0.989069 0.00467134  0.0140653 -1.00238 0.00589728  -0.0225842 -0.98908 0.00568771  -0.0587683 -1.10925 0.0054121  -0.0211678 -1.12274 0.0063138  -0.00935912 -1.08263 0.00522566  -0.0585444 -1.10927 0.00615239  -0.046524 -1.06921 0.00516248  -0.00913191 -1.08265 0.00616956  -0.0463049 -1.06923 0.00598955  -0.0838151 -1.18911 0.00592351  -0.045856 -1.20263 0.00664139  -0.0336304 -1.1627 0.00573516  -0.08359 -1.18914 0.0064981  -0.0711954 -1.14921 0.00566602  -0.0333998 -1.16273 0.00647736  -0.0709784 -1.14924 0.00631785  -0.109485 -1.26865 0.00645065  -0.0712912 -1.28219 0.0070076  -0.0587199 -1.24242 0.0062542  -0.109264 -1.2687 0.0068841  -0.0965815 -1.22892 0.00618148  -0.0584939 -1.24246 0.00681853  -0.096365 -1.22897 0.00668406  -0.13554 -1.34773 0.0069797  -0.0971522 -1.36122 0.00739884  -0.0843885 -1.32172 0.00679255  -0.135308 -1.34777 0.00729227  -0.122461 -1.30824 0.00671244  -0.0841589 -1.32177 0.00720763  -0.122245 -1.30829 0.00707698  -0.161832 -1.42631 0.00753021  -0.123327 -1.43972 0.00783777  -0.110445 -1.40048 0.00732183  -0.161585 -1.42635 0.0077486  -0.14866 -1.38707 0.00725293  -0.110219 -1.40054 0.0076139  -0.148434 -1.38715 0.00752878  -0.188157 -1.50433 0.00809264  -0.149608 -1.5176 0.00832295  -0.136719 -1.47874 0.00792265  -0.187964 -1.50433 0.00823998  -0.174999 -1.46539 0.00782537  -0.136489 -1.4788 0.00809526  -0.174775 -1.46544 0.00798726  -0.214532 -1.58182 0.00867534  -0.176059 -1.59519 0.00889707  -0.163005 -1.55638 0.00843072  -0.214366 -1.58195 0.00874782  -0.201324 -1.54311 0.00833368  -0.162852 -1.55643 0.00853395  -0.201188 -1.54316 0.00844264  -0.240717 -1.65878 0.0091486  -0.202079 -1.67201 0.00924897  -0.189219 -1.63364 0.00895596  -0.240471 -1.65881 0.00914598  -0.227608 -1.6203 0.00888419  -0.189113 -1.63364 0.00897527  -0.227408 -1.62046 0.00893092  0.0227343 -0.048641 3.52859e-05  0 0 0  0.0323942 -0.0610859 0.00310135  0.0126114 -0.0380688 2.86102e-06  0 0 0  0.0227698 -0.0484856 0.0027914  0.00753149 -0.0266594 1.21593e-05  0 0 0  0.0126174 -0.0379201 0.00168419  0.00753909 -0.0265802 0.00148821  0.0537035 -0.0871823 0.000127077  0.0660619 -0.0973378 0.00519013  0.0497855 -0.0790684 5.6982e-05  0.0538337 -0.0869605 0.00466371  0.0385902 -0.0678012 7.4625e-05  0.0498538 -0.0788061 0.0043242  0.0386693 -0.0676183 0.00386596  0.0818392 -0.129074 0.000269651  0.0968199 -0.138773 0.00620294  0.0815969 -0.11742 0.000171185  0.0820326 -0.128828 0.00557685  0.0682064 -0.107296 0.000192404  0.0817683 -0.117138 0.00582981  0.0683742 -0.10707 0.0052228  0.105693 -0.177691 0.000457048  0.123722 -0.187394 0.00653076  0.110693 -0.162371 0.000337362  0.105901 -0.17745 0.00588512  0.094394 -0.152487 0.000358582  0.110898 -0.162108 0.00644779  0.0945956 -0.152253 0.00578618  0.124254 -0.233076 0.00068593  0.14527 -0.243063 0.00652432  0.135003 -0.214614 0.000549555  0.124466 -0.232843 0.00589132  0.115667 -0.204573 0.000566483  0.135221 -0.214381 0.00657153  0.115876 -0.204347 0.00591183  0.137307 -0.294301 0.000950813  0.161083 -0.304777 0.00639558  0.153688 -0.27343 0.000802279  0.137516 -0.294086 0.00580049  0.131475 -0.263005 0.000813961  0.153898 -0.273215 0.00648785  0.131682 -0.26279 0.00585437  0.144938 -0.360477 0.00125027  0.171214 -0.371483 0.00623393  0.166634 -0.337754 0.00109076  0.145153 -0.360282 0.00568056  0.141784 -0.326827 0.00109625  0.166849 -0.337569 0.00633168  0.141994 -0.326634 0.00574183  0.147534 -0.430573 0.00158024  0.176012 -0.442162 0.00609183  0.174039 -0.406542 0.0014143  0.147747 -0.430405 0.00558829  0.146846 -0.395079 0.00141144  0.174252 -0.406377 0.00617838  0.147057 -0.394906 0.00563312  0.145466 -0.503838 0.00193787  0.175886 -0.515952 0.00597644  0.17632 -0.478853 0.00176525  0.145687 -0.503696 0.00551939  0.147054 -0.466855 0.00175571  0.176537 -0.478722 0.0060451  0.147269 -0.466711 0.00555086  0.139261 -0.579473 0.00232148  0.171346 -0.592096 0.0059073  0.173916 -0.55388 0.00214362  0.139479 -0.579358 0.0054996  0.142857 -0.541391 0.00212646  0.174132 -0.553769 0.00595355  0.143073 -0.541271 0.00550604  0.12933 -0.656944 0.00272751  0.162857 -0.669977 0.00587583  0.167345 -0.630938 0.00254607  0.129554 -0.656854 0.00551128  0.134732 -0.618011 0.00252151  0.167564 -0.630861 0.00590086  0.134949 -0.61792 0.00550175  0.116198 -0.735671 0.00315499  0.150931 -0.749074 0.00589514  0.157071 -0.709462 0.0029695  0.116417 -0.735605 0.00557494  0.123142 -0.69617 0.00293875  0.157288 -0.709402 0.00589609  0.123359 -0.696101 0.00553942  0.10024 -0.815302 0.00360131  0.135997 -0.828964 0.00595403  0.143593 -0.78898 0.00341392  0.100463 -0.815259 0.00567102  0.108546 -0.775394 0.00337577  0.143811 -0.788951 0.00593352  0.108763 -0.775351 0.00561976  0.0819298 -0.895425 0.00406361  0.118517 -0.909299 0.00606418  0.127327 -0.869112 0.00387526  0.0821491 -0.8954 0.00581837  0.0913601 -0.855313 0.00383019  0.127544 -0.869097 0.00601959  0.0915772 -0.855289 0.0057404  0.0615823 -0.97582 0.00454259  0.0988531 -0.989805 0.00620866  0.108715 -0.949545 0.00435209  0.0618037 -0.975817 0.00599527  0.0719881 -0.935602 0.00430202  0.108932 -0.949555 0.00614619  0.0722054 -0.935599 0.00590396  0.039607 -1.05619 0.00503397  0.0774031 -1.07024 0.00640655  0.0881064 -1.03003 0.00484538  0.0398295 -1.0562 0.00622463  0.0507826 -1.01602 0.00478554  0.0883224 -1.03005 0.00632071  0.0509998 -1.01603 0.00610375  0.0162601 -1.13642 0.00554132  0.0544639 -1.15046 0.00663686  0.0658793 -1.11035 0.00534296  0.0164781 -1.13646 0.00648022  0.0280876 -1.09633 0.00528955  0.0660985 -1.1104 0.00653005  0.0283051 -1.09636 0.00635195  -0.00811481 -1.2163 0.00605965  0.0303771 -1.23028 0.00692415  0.0423229 -1.19038 0.00586963  -0.00788903 -1.21633 0.00679088  0.00418973 -1.17641 0.00579572  0.042537 -1.19042 0.00680184  0.00440621 -1.17645 0.0066278  -0.0333197 -1.29578 0.00658274  0.00536156 -1.30963 0.00725055  0.0177431 -1.26997 0.00638533  -0.0330994 -1.29582 0.00712609  -0.0206277 -1.25609 0.00632787  0.0179646 -1.27004 0.00708508  -0.0204093 -1.25615 0.00695992  -0.0590582 -1.37472 0.00713325  -0.0202961 -1.38846 0.00762868  -0.0076201 -1.34906 0.00693512  -0.0588453 -1.37477 0.00751162  -0.0461266 -1.33531 0.00686479  -0.00741363 -1.34911 0.00746131  -0.0459189 -1.33537 0.0073235  -0.0851779 -1.45311 0.00767994  -0.0464056 -1.46667 0.00805545  -0.0335147 -1.42756 0.00746655  -0.0849359 -1.45318 0.00794387  -0.0720744 -1.41397 0.00740409  -0.033308 -1.42765 0.00777793  -0.0718584 -1.41404 0.0077312  -0.111432 -1.53093 0.00825763  -0.0726688 -1.54449 0.00855279  -0.059782 -1.50552 0.00805378  -0.111193 -1.53103 0.0083859  -0.0983198 -1.49212 0.00796819  -0.059581 -1.50563 0.00837207  -0.0980895 -1.49222 0.00817895  -0.137825 -1.60842 0.00875211  -0.0990303 -1.62145 0.00902486  -0.0860939 -1.58307 0.00864601  -0.137625 -1.6084 0.00880265  -0.124606 -1.56971 0.00853348  -0.0858266 -1.58315 0.00871682  -0.124378 -1.56981 0.0086143  -0.164041 -1.68532 0.00928974  -0.125576 -1.69844 0.00982165  -0.112555 -1.66013 0.00915289  -0.163947 -1.68519 0.00923181  -0.150939 -1.64689 0.0091083  -0.112481 -1.65992 0.0091269  -0.150812 -1.6468 0.00911045  -0.0375506 -0.0414249 0.00422549  -0.0174459 -0.0247195 0.00489664  0 0 0  -0.021712 -0.0292985 0.00741196  0 0 0  -0.0131971 -0.0210881 0.00303173  -0.00475573 -0.00845019 0.00342655  0 0 0  -0.0176605 -0.0250849 0.00237727  -0.0218031 -0.0299249 0.00362468  -0.00737864 -0.0136282 0.00407648  0 0 0  -0.00474347 -0.00867856 0.00167704  -0.007398 -0.0139012 0.0019908  -0.0723434 -0.0657267 0.00666213  -0.0546332 -0.0519137 0.0115066  -0.0532234 -0.0570337 0.0117691  -0.0387186 -0.0512615 0.00496387  -0.0252828 -0.035046 0.00840807  -0.0550198 -0.0529142 0.00564551  -0.0533766 -0.0582021 0.00581026  -0.0373543 -0.0428165 0.00995374  -0.0252685 -0.0358802 0.00413918  -0.0374926 -0.0437774 0.00488997  -0.107269 -0.09418 0.00774646  -0.0893953 -0.0779083 0.0148814  -0.0851011 -0.0877302 0.0135555  -0.0665819 -0.0847699 0.00580525  -0.052479 -0.0661446 0.0110302  -0.0896901 -0.0792871 0.00736904  -0.0852532 -0.0891149 0.0067718  -0.069112 -0.0716608 0.0129402  -0.0525678 -0.0673335 0.00549436  -0.0692716 -0.0729934 0.0064292  -0.142381 -0.128139 0.00780749  -0.124658 -0.108851 0.0157173  -0.117002 -0.124325 0.013531  -0.0948225 -0.123799 0.00593805  -0.0805283 -0.102241 0.0117383  -0.124853 -0.110381 0.00788617  -0.117182 -0.125717 0.00686407  -0.10107 -0.105235 0.0137098  -0.0806572 -0.103554 0.00593758  -0.101236 -0.106674 0.00690269  -0.176852 -0.168065 0.00732708  -0.159525 -0.145919 0.014972  -0.148584 -0.16689 0.0125229  -0.123246 -0.168462 0.00560904  -0.108784 -0.144202 0.0112541  -0.159732 -0.147366 0.00761771  -0.148824 -0.168153 0.00646591  -0.132841 -0.144882 0.0130987  -0.109018 -0.145446 0.00580025  -0.133057 -0.14624 0.006706  -0.210396 -0.213642 0.00663519  -0.19351 -0.188905 0.0135174  -0.179719 -0.214849 0.0111637  -0.151729 -0.218244 0.00516868  -0.137184 -0.191611 0.0102205  -0.193753 -0.190207 0.00700474  -0.18002 -0.215946 0.00589609  -0.164203 -0.190217 0.0118573  -0.137476 -0.192745 0.00538969  -0.164486 -0.191431 0.00618982  -0.243036 -0.264285 0.00596809  -0.226541 -0.237302 0.0119059  -0.210425 -0.267601 0.00980926  -0.180242 -0.272602 0.00469708  -0.165614 -0.243921 0.00906038  -0.226833 -0.238382 0.00630236  -0.210755 -0.268516 0.00533152  -0.195113 -0.240654 0.0104723  -0.165978 -0.244879 0.00492167  -0.195444 -0.241678 0.00561047  -0.274997 -0.319469 0.00538635  -0.258808 -0.290458 0.0104094  -0.240826 -0.324584 0.00861835  -0.208809 -0.330996 0.00435042  -0.194148 -0.300491 0.00798917  -0.259104 -0.291377 0.00567842  -0.241154 -0.325348 0.00486374  -0.225648 -0.295578 0.00918889  -0.194505 -0.301321 0.00450778  -0.225995 -0.296447 0.00508571  -0.306441 -0.378623 0.00495338  -0.2905 -0.347862 0.00913167  -0.271029 -0.385311 0.00763965  -0.237497 -0.392975 0.00407267  -0.222774 -0.360887 0.00709248  -0.290787 -0.348593 0.00516295  -0.271326 -0.385937 0.00451207  -0.255938 -0.354501 0.00810242  -0.223131 -0.36156 0.00419474  -0.256265 -0.355211 0.00467825  -0.337546 -0.441292 0.00463152  -0.321799 -0.408945 0.00809097  -0.301139 -0.449314 0.00686836  -0.266336 -0.458079 0.00393939  -0.251589 -0.424573 0.00638461  -0.322043 -0.409574 0.00479412  -0.30139 -0.449838 0.00428176  -0.286083 -0.416912 0.00722957  -0.251886 -0.42516 0.00398946  -0.286374 -0.417515 0.00438523  -0.368365 -0.506994 0.00444365  -0.3528 -0.473299 0.00726724  -0.331183 -0.516182 0.00628138  -0.295345 -0.525917 0.00386405  -0.280557 -0.491207 0.00585365  -0.352999 -0.473796 0.00453377  -0.331376 -0.516614 0.00415373  -0.31616 -0.482407 0.00655341  -0.280817 -0.491676 0.00388718  -0.316395 -0.4829 0.00421071  -0.398969 -0.57535 0.00433755  -0.383565 -0.540443 0.0066328  -0.361179 -0.585514 0.00585198  -0.324485 -0.596087 0.00390935  -0.309709 -0.560311 0.00547528  -0.383705 -0.540886 0.00439548  -0.361314 -0.585881 0.00412083  -0.346178 -0.550545 0.00604844  -0.309891 -0.560732 0.00387335  -0.346358 -0.550973 0.00412869  -0.429319 -0.64595 0.0043366  -0.414097 -0.610047 0.00615978  -0.391082 -0.656957 0.0055573  -0.353714 -0.66825 0.0039897  -0.338952 -0.631604 0.00522709  -0.414185 -0.610393 0.0043366  -0.391157 -0.657261 0.00416446  -0.376136 -0.620985 0.00568914  -0.339089 -0.631936 0.00393772  -0.376252 -0.621335 0.00413918  -0.459424 -0.718473 0.00439239  -0.444383 -0.68169 0.00582504  -0.420859 -0.730162 0.00537777  -0.382952 -0.742055 0.00416875  -0.368264 -0.704658 0.00509  -0.444414 -0.68201 0.0043726  -0.42088 -0.730423 0.00427914  -0.405978 -0.69334 0.00545382  -0.368327 -0.704966 0.00406814  -0.406042 -0.693652 0.00421548  -0.489207 -0.792563 0.00453401  -0.47438 -0.755097 0.00560951  -0.450434 -0.804824 0.00530028  -0.412131 -0.817212 0.00436616  -0.397527 -0.77924 0.00504923  -0.474365 -0.75534 0.0044651  -0.450403 -0.80504 0.00445175  -0.435665 -0.76732 0.00532699  -0.39755 -0.779478 0.00425744  -0.435672 -0.767574 0.00436378  -0.518661 -0.867946 0.00471663  -0.50405 -0.829893 0.00550222  -0.479763 -0.880638 0.00531507  -0.441162 -0.893415 0.00465083  -0.426701 -0.854969 0.00509477  -0.503988 -0.830129 0.00463557  -0.479689 -0.880826 0.00468302  -0.465121 -0.842584 0.00529623  -0.426659 -0.855198 0.00449848  -0.465085 -0.842816 0.00456285  -0.54771 -0.944307 0.00497746  -0.533344 -0.905846 0.00549364  -0.508775 -0.957344 0.00541496  -0.469986 -0.970418 0.00494361  -0.45567 -0.931656 0.00521851  -0.533245 -0.906019 0.00485015  -0.50866 -0.957499 0.00496244  -0.494302 -0.918886 0.00535464  -0.4556 -0.931827 0.00478792  -0.494219 -0.919073 0.00482202  -0.576361 -1.02142 0.005265  -0.562231 -0.982626 0.00557637  -0.537442 -1.03468 0.00559187  -0.498531 -1.04796 0.00531554  -0.484409 -1.00896 0.00541401  -0.562097 -0.982802 0.00513315  -0.537295 -1.03481 0.00528884  -0.523141 -0.995927 0.00549436  -0.484286 -1.00914 0.00512004  -0.523028 -0.996102 0.0051229  -0.604557 -1.099 0.00562263  -0.590683 -1.06004 0.00574279  -0.565715 -1.11242 0.00584197  -0.526762 -1.12584 0.00568461  -0.512823 -1.08674 0.00567555  -0.590523 -1.06016 0.00544882  -0.565539 -1.11253 0.00565553  -0.551619 -1.0735 0.00570774  -0.512684 -1.08687 0.00549173  -0.55147 -1.07364 0.0054729  -0.632342 -1.17687 0.006001  -0.618692 -1.1378 0.00599003  -0.593599 -1.19035 0.00615978  -0.554642 -1.20384 0.0061264  -0.540917 -1.1647 0.00599813  -0.61851 -1.13793 0.00582361  -0.593405 -1.19045 0.00606155  -0.579693 -1.15136 0.00599289  -0.540736 -1.16484 0.00589705  -0.579525 -1.15149 0.00585651  -0.659702 -1.2548 0.00643802  -0.646273 -1.21575 0.00631189  -0.621084 -1.26829 0.00653815  -0.58217 -1.2818 0.00655556  -0.568629 -1.24273 0.0063765  -0.646079 -1.21584 0.00622559  -0.620876 -1.26837 0.00649762  -0.60738 -1.22932 0.00634241  -0.568445 -1.24283 0.00633407  -0.607191 -1.22943 0.00628209  -0.686736 -1.33264 0.00688195  -0.673466 -1.29365 0.00669789  -0.648226 -1.34607 0.00696254  -0.609351 -1.35955 0.00704265  -0.596001 -1.3206 0.00679922  -0.673265 -1.29375 0.00667429  -0.648013 -1.34615 0.00695801  -0.634681 -1.30719 0.00674534  -0.595792 -1.32071 0.00679302  -0.634489 -1.3073 0.00672817  -0.713512 -1.41024 0.00735927  -0.700355 -1.3714 0.00712991  -0.675075 -1.4236 0.00741529  -0.636242 -1.43703 0.00749969  -0.623024 -1.39825 0.00725174  -0.700154 -1.37147 0.0071311  -0.674861 -1.42367 0.00742984  -0.661669 -1.38486 0.00718665  -0.622823 -1.39833 0.00726604  -0.661469 -1.38495 0.00719929  -0.740227 -1.48761 0.00781512  -0.727077 -1.44886 0.00758171  -0.701797 -1.50086 0.00785708  -0.662961 -1.5142 0.00797892  -0.649815 -1.47555 0.00771213  -0.726876 -1.44896 0.00760341  -0.701592 -1.50093 0.00789261  -0.688427 -1.46224 0.00763941  -0.649601 -1.47565 0.00774026  -0.688237 -1.46234 0.00766397  -0.0090843 -0.0159328 0.00507641  0 0 0  -0.00607847 -0.0137561 0.00197959  -0.00214886 -0.00437532 0.00217152  0 0 0  -0.00905144 -0.0163813 0.00249624  -0.00302393 -0.00578701 0.00276327  0 0 0  -0.00213984 -0.00457118 0.00106192  -0.00300116 -0.00601333 0.0013504  -0.0278304 -0.0449768 0.00830436  -0.019263 -0.0424368 0.0033195  -0.0119419 -0.0263321 0.00553584  -0.0278292 -0.0458636 0.0041256  -0.017583 -0.0295317 0.00693965  -0.0119223 -0.0269296 0.00274348  -0.0175599 -0.0302298 0.00342631  -0.0506241 -0.0802902 0.00968599  -0.0370298 -0.0792525 0.00397325  -0.0277429 -0.0591409 0.00739169  -0.0506994 -0.0814321 0.00489163  -0.0389822 -0.0618926 0.00919557  -0.0277712 -0.060063 0.00372386  -0.0390137 -0.0629442 0.00460267  -0.0747043 -0.121359 0.00973558  -0.0569221 -0.122058 0.00410843  -0.0466677 -0.0988672 0.00794435  -0.074878 -0.122527 0.00501132  -0.0625472 -0.100088 0.00982952  -0.0467869 -0.0999382 0.00408769  -0.0626747 -0.10127 0.0050087  -0.0995306 -0.168015 0.00906491  -0.0781349 -0.170323 0.00395823  -0.0671535 -0.144459 0.00767088  -0.0998026 -0.16913 0.00478625  -0.0870381 -0.144012 0.00945139  -0.0673802 -0.145541 0.00405359  -0.0872613 -0.145174 0.00492215  -0.124955 -0.219712 0.00813913  -0.100452 -0.223465 0.00371003  -0.0888437 -0.195308 0.00702238  -0.125301 -0.220688 0.00442839  -0.112164 -0.193268 0.00861168  -0.0891582 -0.196317 0.00383663  -0.112483 -0.194325 0.00461006  -0.150951 -0.275824 0.00721955  -0.123805 -0.280917 0.00347614  -0.111637 -0.250784 0.0062921  -0.151327 -0.276681 0.00409126  -0.137885 -0.247242 0.0076685  -0.112004 -0.251683 0.00358748  -0.138251 -0.248168 0.00425076  -0.177467 -0.335829 0.00642848  -0.148092 -0.342142 0.00331044  -0.135457 -0.310302 0.00563145  -0.17784 -0.33654 0.00382257  -0.164135 -0.305366 0.00680518  -0.135832 -0.311083 0.00338316  -0.16452 -0.306155 0.00394511  -0.204509 -0.399226 0.00580025  -0.173263 -0.406669 0.0032289  -0.160218 -0.373348 0.00510287  -0.204847 -0.399841 0.00365663  -0.190925 -0.367122 0.00609422  -0.160571 -0.374017 0.00325966  -0.191283 -0.367792 0.00372553  -0.232018 -0.465606 0.00533605  -0.199206 -0.474061 0.00323224  -0.185831 -0.439458 0.00471759  -0.232306 -0.466107 0.00357866  -0.218198 -0.432065 0.00554967  -0.186139 -0.440029 0.00322056  -0.218519 -0.432628 0.00360632  -0.25997 -0.534541 0.0050168  -0.225857 -0.543915 0.00331235  -0.212198 -0.508215 0.00446868  -0.260195 -0.53498 0.00359535  -0.245944 -0.499769 0.00516033  -0.21245 -0.508701 0.00326371  -0.246202 -0.500246 0.00357509  -0.28826 -0.605685 0.00482321  -0.253071 -0.615857 0.00345874  -0.239206 -0.579229 0.00433755  -0.288426 -0.606039 0.00367832  -0.274067 -0.569857 0.00490618  -0.239396 -0.579644 0.00337768  -0.27427 -0.570258 0.00362754  -0.316831 -0.67866 0.00473571  -0.280763 -0.689539 0.00366378  -0.266737 -0.652144 0.00430655  -0.316933 -0.678977 0.00383401  -0.302518 -0.641956 0.00476766  -0.266866 -0.652498 0.00355458  -0.302652 -0.642299 0.00374675  -0.345551 -0.753173 0.00473976  -0.308772 -0.76464 0.00391722  -0.294662 -0.726624 0.00436234  -0.345598 -0.753425 0.00403833  -0.331169 -0.715742 0.00472665  -0.294731 -0.726928 0.00378442  -0.331249 -0.716031 0.00392866  -0.374353 -0.828894 0.00482321  -0.337011 -0.840865 0.00421596  -0.322857 -0.802367 0.00449181  -0.374344 -0.829125 0.00429916  -0.35995 -0.790892 0.00477195  -0.322871 -0.802627 0.00406194  -0.359969 -0.791142 0.0041604  -0.403104 -0.905576 0.0049789  -0.365324 -0.917943 0.00455427  -0.351196 -0.879087 0.00468755  -0.403051 -0.905756 0.00459695  -0.388731 -0.86713 0.00489259  -0.35116 -0.87931 0.00438046  -0.388706 -0.86734 0.00444221  -0.43175 -0.982932 0.00520015  -0.393641 -0.995623 0.00492835  -0.379569 -0.956527 0.00494218  -0.431653 -0.983102 0.00494385  -0.417447 -0.944176 0.00508165  -0.379489 -0.956719 0.00473762  -0.417372 -0.944359 0.00476289  -0.46018 -1.06076 0.00548124  -0.421832 -1.07368 0.00533295  -0.407872 -1.03445 0.00525069  -0.460049 -1.06089 0.00531793  -0.445985 -1.0218 0.00533366  -0.407753 -1.03462 0.00512695  -0.445878 -1.02195 0.00512576  -0.488367 -1.13882 0.0058167  -0.449858 -1.15192 0.0057683  -0.436022 -1.11264 0.00560784  -0.488204 -1.13895 0.00573349  -0.474309 -1.09977 0.00564265  -0.435871 -1.11279 0.00554776  -0.474162 -1.0999 0.00551987  -0.516231 -1.21696 0.00620317  -0.47762 -1.23016 0.00622487  -0.463949 -1.19092 0.00600934  -0.516049 -1.21705 0.00616908  -0.502331 -1.17789 0.00600386  -0.46377 -1.19105 0.00599384  -0.502165 -1.17801 0.00594687  -0.543782 -1.29497 0.00663018  -0.505114 -1.30825 0.00670266  -0.491601 -1.26912 0.00644803  -0.54358 -1.29507 0.00663567  -0.530048 -1.25598 0.00641227  -0.491404 -1.26923 0.00646329  -0.529856 -1.25609 0.00639701  -0.570976 -1.37277 0.00708866  -0.532278 -1.38607 0.00718975  -0.518945 -1.34709 0.00691605  -0.570768 -1.37284 0.00710797  -0.557412 -1.3339 0.00685668  -0.518733 -1.3472 0.00694561  -0.557213 -1.334 0.00686979  -0.597879 -1.45022 0.00756001  -0.55916 -1.46352 0.0076797  -0.545971 -1.42475 0.00740194  -0.597664 -1.45031 0.00759315  -0.584463 -1.41153 0.00732398  -0.545754 -1.42484 0.00743699  -0.584251 -1.41162 0.00734806  -0.624559 -1.52732 0.00802326  -0.585788 -1.54055 0.00816298  -0.572714 -1.502 0.00788617  -0.624342 -1.52739 0.00805998  -0.611224 -1.48882 0.00779462  -0.572494 -1.5021 0.00792432  -0.611019 -1.48891 0.00782847  -0.00373437 -0.0122393 0.00299549  0 0 0  -0.00181039 -0.0123132 0.000992537  -0.000631325 -0.00368753 0.00106025  0 0 0  -0.00373226 -0.0125742 0.00147748  -0.00126256 -0.00376099 0.00160646  0 0 0  -0.00063473 -0.00381881 0.000521421  -0.00126425 -0.00393385 0.000787735  -0.0124226 -0.0400218 0.00501323  -0.00652124 -0.0403342 0.0017345  -0.00372666 -0.0244228 0.0027914  -0.0124421 -0.0406798 0.00252247  -0.00749031 -0.0247582 0.00414801  -0.00375597 -0.0248642 0.00140238  -0.00748648 -0.0252741 0.00206661  -0.0251264 -0.077365 0.00595284  -0.0145711 -0.0785626 0.00216222  -0.0100711 -0.0577623 0.00384712  -0.0252155 -0.0782754 0.00305986  -0.018368 -0.0577802 0.00560617  -0.0101527 -0.0584805 0.00198674  -0.0184234 -0.0585904 0.00285077  -0.040445 -0.12145 0.00605941  -0.0255226 -0.123793 0.00232196  -0.019561 -0.0995283 0.0042398  -0.0406297 -0.122439 0.00321317  -0.0325248 -0.0986556 0.0060811  -0.0197173 -0.100419 0.00226665  -0.032656 -0.0996317 0.00317526  -0.0576874 -0.171139 0.00570393  -0.0389326 -0.174676 0.0023253  -0.0316952 -0.147626 0.00417423  -0.057968 -0.172138 0.00313568  -0.0488386 -0.145637 0.00591326  -0.0319364 -0.148579 0.00233364  -0.04908 -0.146647 0.00319076  -0.0766215 -0.225734 0.00518799  -0.0545292 -0.230364 0.00227976  -0.0461512 -0.201013 0.00389314  -0.0769652 -0.226642 0.00299525  -0.0669513 -0.197855 0.00545168  -0.04646 -0.201944 0.00230145  -0.0672654 -0.198824 0.0030694  -0.0971339 -0.284592 0.00468373  -0.0721714 -0.290306 0.00225258  -0.0627556 -0.258972 0.00357008  -0.0975041 -0.285419 0.00286174  -0.0866821 -0.254661 0.00492764  -0.0630999 -0.259832 0.00226116  -0.0870501 -0.255535 0.00292397  -0.119073 -0.347166 0.00427365  -0.0916462 -0.353878 0.00227833  -0.0813356 -0.320887 0.00329995  -0.119432 -0.34787 0.00279689  -0.107932 -0.315438 0.00446486  -0.0816808 -0.321656 0.00225687  -0.108299 -0.316213 0.00282335  -0.142313 -0.412939 0.00398421  -0.112799 -0.420634 0.00236797  -0.101699 -0.386207 0.00312352  -0.142638 -0.413562 0.0027976  -0.130534 -0.379677 0.00411415  -0.102018 -0.386882 0.00231576  -0.130884 -0.380343 0.00278878  -0.16668 -0.481478 0.00381613  -0.135392 -0.490053 0.00252271  -0.123641 -0.454439 0.00305009  -0.166953 -0.481994 0.00288105  -0.154363 -0.44688 0.00388622  -0.123916 -0.455025 0.0024364  -0.154662 -0.447459 0.00283313  -0.192041 -0.552351 0.00375772  -0.159271 -0.561769 0.00273538  -0.146955 -0.525138 0.00307488  -0.192257 -0.55281 0.00302339  -0.179241 -0.516643 0.00377488  -0.147177 -0.525644 0.00262308  -0.179492 -0.517132 0.00294542  -0.218213 -0.625205 0.00379276  -0.184194 -0.635343 0.00300026  -0.171439 -0.597899 0.00318575  -0.218367 -0.62558 0.00323343  -0.205033 -0.588545 0.00376463  -0.171602 -0.598335 0.00286055  -0.205217 -0.588971 0.00312448  -0.24506 -0.69967 0.00390863  -0.210015 -0.710478 0.00330949  -0.196894 -0.672355 0.00337029  -0.245156 -0.700008 0.00348639  -0.231557 -0.662253 0.00384212  -0.196998 -0.672732 0.0031507  -0.231687 -0.662611 0.00335503  -0.2724 -0.775454 0.00409245  -0.236504 -0.786804 0.00365806  -0.223127 -0.748176 0.00361705  -0.272438 -0.775725 0.00379133  -0.258675 -0.737409 0.0039928  -0.223175 -0.7485 0.00347829  -0.258741 -0.737723 0.0036366  -0.300109 -0.85224 0.00433588  -0.263531 -0.864082 0.00403857  -0.249958 -0.825057 0.00391674  -0.300098 -0.85249 0.00412726  -0.286213 -0.813736 0.00420737  -0.249954 -0.825337 0.00384521  -0.286231 -0.813998 0.00395513  -0.32802 -0.929792 0.00463247  -0.290888 -0.942003 0.0044508  -0.277216 -0.902727 0.00426269  -0.327961 -0.929988 0.00450635  -0.314045 -0.89093 0.00447798  -0.277165 -0.902968 0.00424027  -0.314008 -0.891162 0.00431538  -0.356033 -1.00784 0.00497627  -0.318475 -1.02038 0.00488853  -0.304748 -0.980937 0.00465059  -0.355934 -1.00803 0.00490808  -0.342016 -0.968766 0.00479937  -0.304654 -0.981146 0.00466824  -0.341942 -0.968958 0.00470424  -0.384009 -1.0862 0.00536275  -0.346117 -1.09896 0.00535131  -0.332414 -1.05947 0.00507379  -0.383874 -1.08634 0.00534558  -0.370029 -1.04699 0.00516462  -0.332284 -1.05965 0.00511599  -0.369911 -1.04716 0.005126  -0.411884 -1.16465 0.00578737  -0.373751 -1.17761 0.00583148  -0.360096 -1.13813 0.0055294  -0.411721 -1.16479 0.00579882  -0.39796 -1.12542 0.00557113  -0.359934 -1.13828 0.00559044  -0.397816 -1.12556 0.00557017  -0.439552 -1.24305 0.00624442  -0.401239 -1.25611 0.00633025  -0.387693 -1.21674 0.00601268  -0.439365 -1.24315 0.00628066  -0.425745 -1.20386 0.00601268  -0.387506 -1.21688 0.00607824  -0.425569 -1.20399 0.00604057  -0.466986 -1.32123 0.00672698  -0.428557 -1.33439 0.00683928  -0.415124 -1.29516 0.00651789  -0.466783 -1.32134 0.00676847  -0.453298 -1.28217 0.00648379  -0.414917 -1.29528 0.00658607  -0.453107 -1.28228 0.00652385  -0.494117 -1.39911 0.00722933  -0.455604 -1.4123 0.00735807  -0.442327 -1.37328 0.00703883  -0.493901 -1.3992 0.00727558  -0.480588 -1.36021 0.00697732  -0.442105 -1.37339 0.00709796  -0.480377 -1.36032 0.007025  -0.520964 -1.47658 0.00773597  -0.482403 -1.4898 0.00786996  -0.469259 -1.451 0.0075655  -0.520745 -1.47668 0.00777221  -0.507571 -1.4379 0.00748301  -0.469028 -1.45111 0.0076139  -0.507358 -1.43799 0.00752521  -0.547522 -1.55354 0.0082283  -0.508892 -1.56671 0.00836158  -0.495903 -1.52822 0.0080862  -0.547311 -1.55364 0.00826335  -0.534273 -1.51513 0.00798464  -0.495671 -1.52832 0.00811863  -0.534053 -1.51523 0.00802398  1.19209e-06 -0.0125262 0.00101757  0 0 0  0.0016396 -0.0138787 4.86374e-05  0.000584096 -0.00460833 7.15256e-07  0 0 0  -2.86251e-05 -0.0127811 0.00051713  1.51992e-06 -0.00397411 0.000524759  0 0 0  0.000565104 -0.00473025 7.39098e-06  -3.50922e-06 -0.00410905 0.000261307  -0.00103928 -0.0406437 0.00181866  0.0040015 -0.0430462 0.000196218  0.00297588 -0.0266522 0.000142097  -0.00112928 -0.0411605 0.000954866  -0.00027664 -0.0251032 0.00145221  0.00288491 -0.0270151 0.000110388  -0.000341684 -0.0254982 0.000748396  -0.00457907 -0.0792366 0.0023036  0.00469419 -0.0825522 0.000394344  0.00482267 -0.0611861 0.000401258  -0.00473541 -0.0799968 0.00127268  -0.0024614 -0.0589285 0.00210547  0.00465527 -0.0617995 0.000296354  -0.00257957 -0.0595866 0.00113082  -0.011073 -0.125222 0.0024631  0.00243402 -0.129382 0.000571012  0.00419068 -0.104393 0.000627995  -0.0112962 -0.12609 0.0014379  -0.00745311 -0.101446 0.00241685  0.00396562 -0.105187 0.000487328  -0.00764912 -0.102279 0.00136876  -0.0204713 -0.17703 0.00241017  -0.00312114 -0.182038 0.000718594  0.000336707 -0.154164 0.000753641  -0.0207571 -0.177953 0.0015204  -0.0154229 -0.150457 0.00245166  6.65188e-05 -0.155048 0.000647306  -0.0156758 -0.151372 0.0014832  -0.0325984 -0.233788 0.00228119  -0.0118614 -0.239618 0.000861645  -0.00680149 -0.209359 0.000815153  -0.0329216 -0.234658 0.00156665  -0.0261977 -0.204833 0.00234723  -0.00710261 -0.210252 0.000787973  -0.0265115 -0.205739 0.00154161  -0.047278 -0.294808 0.00216889  -0.0235913 -0.301479 0.00102949  -0.0170562 -0.269201 0.000872374  -0.0476114 -0.295626 0.00164366  -0.0396348 -0.263795 0.00221848  -0.0173683 -0.27005 0.000941277  -0.039964 -0.264651 0.00159812  -0.0642612 -0.3595 0.0021224  -0.0380161 -0.36699 0.00123763  -0.0301805 -0.333031 0.000971079  -0.0645766 -0.360212 0.00175762  -0.0554886 -0.326728 0.00213599  -0.0304809 -0.333809 0.00112724  -0.0558218 -0.327497 0.00169325  -0.0833209 -0.427303 0.00215888  -0.0548779 -0.435611 0.00149322  -0.0458901 -0.400246 0.00113249  -0.0836012 -0.427947 0.00193548  -0.0735485 -0.393035 0.00213027  -0.0461602 -0.400942 0.00135994  -0.0738467 -0.393722 0.00183702  -0.10418 -0.497744 0.00227952  -0.0738539 -0.506818 0.00179553  -0.063889 -0.470301 0.00136209  -0.10441 -0.498288 0.00215912  -0.0935329 -0.462221 0.00220919  -0.0641154 -0.470917 0.00163841  -0.0937951 -0.462817 0.00204039  -0.126612 -0.570363 0.00247622  -0.0946909 -0.580165 0.00214076  -0.083881 -0.542707 0.00165677  -0.126789 -0.570852 0.00244284  -0.115216 -0.533797 0.0023694  -0.0840572 -0.543248 0.00196314  -0.115419 -0.534322 0.00229335  -0.150352 -0.644784 0.00273895  -0.11708 -0.655233 0.00252295  -0.105582 -0.617031 0.00200725  -0.150471 -0.64519 0.00276208  -0.138325 -0.607371 0.00260043  -0.105704 -0.617503 0.00232697  -0.138479 -0.60782 0.00259709  -0.175194 -0.720631 0.00305653  -0.140796 -0.731668 0.00293779  -0.128719 -0.692886 0.00240636  -0.175259 -0.720999 0.00312829  -0.16265 -0.682541 0.00289202  -0.128788 -0.693298 0.00272703  -0.162741 -0.682936 0.00293851  -0.200895 -0.797608 0.00342274  -0.165558 -0.80914 0.0033803  -0.15304 -0.769931 0.00284553  -0.200907 -0.797907 0.00351954  -0.187942 -0.758997 0.00323439  -0.153056 -0.77029 0.00315547  -0.187985 -0.759332 0.00331998  -0.227281 -0.875404 0.00382614  -0.191178 -0.887368 0.00384688  -0.178306 -0.847862 0.00331712  -0.227247 -0.875679 0.00394678  -0.214015 -0.836411 0.00361991  -0.178275 -0.848173 0.00361085  -0.214003 -0.836707 0.0037272  -0.25414 -0.953789 0.00426602  -0.217411 -0.966096 0.0043335  -0.204301 -0.92641 0.0038166  -0.254061 -0.954009 0.00439215  -0.240655 -0.914538 0.00404239  -0.204226 -0.926681 0.00408745  -0.240602 -0.914788 0.00416636  -0.281331 -1.03251 0.00473523  -0.244108 -1.0451 0.00483918  -0.230827 -1.00534 0.00434017  -0.281216 -1.03272 0.00486779  -0.267704 -0.993111 0.00449729  -0.230713 -1.00557 0.00458503  -0.267606 -0.993333 0.00462484  -0.30868 -1.11139 0.00523019  -0.271066 -1.12419 0.00535774  -0.257707 -1.08444 0.00488162  -0.308532 -1.11155 0.00535488  -0.294986 -1.07194 0.00497937  -0.257559 -1.08465 0.00509667  -0.294859 -1.07213 0.00510812  -0.33609 -1.19023 0.00574636  -0.29818 -1.2032 0.00589085  -0.284789 -1.16354 0.00544024  -0.335916 -1.19039 0.00586486  -0.322385 -1.15082 0.00548577  -0.284613 -1.16371 0.00562501  -0.322223 -1.15099 0.00560451  -0.363425 -1.26891 0.00628138  -0.325292 -1.28198 0.00643229  -0.311939 -1.24247 0.00600934  -0.363228 -1.26903 0.00638103  -0.349765 -1.2296 0.00601149  -0.311739 -1.24262 0.00616169  -0.349584 -1.22974 0.00612068  -0.390631 -1.34728 0.00682688  -0.35234 -1.36043 0.00698137  -0.339048 -1.32111 0.00658584  -0.390416 -1.34741 0.00691295  -0.37705 -1.30813 0.00655246  -0.33883 -1.32125 0.006706  -0.376842 -1.30826 0.00664353  -0.417612 -1.42527 0.00737786  -0.379217 -1.43844 0.00752878  -0.36603 -1.39936 0.00716543  -0.417384 -1.42537 0.00744033  -0.404145 -1.38633 0.00710058  -0.365799 -1.39949 0.00725174  -0.403928 -1.38644 0.00717473  -0.444345 -1.50276 0.00792599  -0.405877 -1.51596 0.0080719  -0.392816 -1.47715 0.00774097  -0.444117 -1.50288 0.00797081  -0.431013 -1.46407 0.00765276  -0.392581 -1.47727 0.00780034  -0.430784 -1.46419 0.00770044  -0.470768 -1.57967 0.00846219  -0.432221 -1.59288 0.00859904  -0.419332 -1.55437 0.00830483  -0.470534 -1.57977 0.0084765  -0.457589 -1.5413 0.00819659  -0.419092 -1.5545 0.00833583  -0.457367 -1.54141 0.00822163  0.00343229 -0.0153835 -0.000874996  0 0 0  0.00518239 -0.0179994 -0.000841856  0.00182673 -0.0069173 -0.000998259  0 0 0  0.00336069 -0.0156063 -0.000406981  0.00118657 -0.00556415 -0.000508547  0 0 0  0.00179423 -0.0070191 -0.000475645  0.00115388 -0.00568217 -0.000238419  0.00933644 -0.045472 -0.00124979  0.0145045 -0.0498304 -0.00126195  0.00974678 -0.0323135 -0.00235939  0.00916609 -0.0459278 -0.000543594  0.00628358 -0.0290501 -0.0011332  0.00959671 -0.0326582 -0.00111246  0.00616841 -0.0293989 -0.000511408  0.0142813 -0.0854933 -0.00121808  0.0235398 -0.0908637 -0.00129771  0.0195276 -0.0688301 -0.00287151  0.0140392 -0.0861856 -0.000468493  0.0120918 -0.0644982 -0.00126386  0.0192734 -0.0694115 -0.00131536  0.0118734 -0.0650876 -0.00052166  0.0162255 -0.132804 -0.00102615  0.0295351 -0.138794 -0.00111938  0.0273078 -0.113283 -0.00283337  0.0159498 -0.133612 -0.000282288  0.0156857 -0.108349 -0.0011282  0.0270117 -0.114039 -0.00122523  0.0154282 -0.109121 -0.000378132  0.0145099 -0.186049 -0.0008111  0.03152 -0.192646 -0.000852346  0.0313483 -0.16418 -0.00255799  0.014213 -0.186932 -7.55787e-05  0.0158381 -0.158743 -0.000920057  0.0310462 -0.165028 -0.000993013  0.0155437 -0.159604 -0.000180006  0.00914973 -0.244383 -0.000587463  0.0294673 -0.251572 -0.000540972  0.0312898 -0.220637 -0.00219989  0.00884986 -0.245233 0.00015974  0.0122722 -0.21462 -0.000702858  0.0309947 -0.221505 -0.00070262  0.0119756 -0.215502 4.1008e-05  0.000356019 -0.307082 -0.000336409  0.0235811 -0.314944 -0.000195026  0.0272684 -0.281903 -0.00179791  6.40154e-05 -0.307899 0.000414133  0.00517011 -0.275226 -0.000467539  0.0269886 -0.282741 -0.000371933  0.00486588 -0.276067 0.00028348  -0.0115537 -0.373499 -3.8147e-05  0.0142263 -0.382015 0.000186205  0.019579 -0.347265 -0.00135684  -0.0118181 -0.374224 0.000714779  -0.00522965 -0.339858 -0.000193834  0.019325 -0.348044 -9.77516e-06  -0.00550699 -0.34064 0.000561953  -0.0262682 -0.443012 0.000312805  0.00172353 -0.452226 0.000600815  0.00857031 -0.416054 -0.000873804  -0.0264969 -0.443678 0.00104618  -0.0185755 -0.407901 0.00013113  0.00835133 -0.416761 0.000389814  -0.0188296 -0.4086 0.000877142  -0.0434346 -0.515095 0.000716925  -0.0135231 -0.524945 0.00104856  -0.00539267 -0.487661 -0.000350237  -0.0436147 -0.515665 0.00142598  -0.0345647 -0.478757 0.000508785  -0.00556827 -0.488293 0.000819683  -0.0347681 -0.479384 0.00123405  -0.0627447 -0.589245 0.00116706  -0.0311997 -0.59973 0.00152493  -0.021945 -0.561543 0.000210285  -0.0628765 -0.589763 0.00183249  -0.0528365 -0.551936 0.000936985  -0.0220733 -0.562104 0.00128412  -0.0529983 -0.552483 0.00162649  -0.0838642 -0.665058 0.00165701  -0.0509205 -0.676084 0.0020256  -0.0407345 -0.637231 0.000801325  -0.0839421 -0.665493 0.00227857  -0.0730957 -0.626961 0.00140762  -0.0408131 -0.637725 0.00177145  -0.0731988 -0.627447 0.00205469  -0.106522 -0.742139 0.00217915  -0.0724101 -0.753681 0.00254726  -0.0614272 -0.714311 0.00141621  -0.106552 -0.742536 0.00274205  -0.0950134 -0.703459 0.00191474  -0.0614572 -0.714745 0.00228524  -0.0950725 -0.703876 0.00250816  -0.130421 -0.820186 0.00272679  -0.0953232 -0.832135 0.00308657  -0.0837119 -0.79243 0.00204992  -0.130401 -0.820513 0.00323677  -0.118331 -0.781054 0.00244999  -0.0836942 -0.79281 0.00281382  -0.118334 -0.781425 0.00298929  -0.155333 -0.898889 0.0032959  -0.119433 -0.911213 0.00363898  -0.1073 -0.871277 0.00269651  -0.155272 -0.89919 0.00374198  -0.142761 -0.859469 0.00300932  -0.107238 -0.871609 0.00336242  -0.142725 -0.859785 0.0034883  -0.181005 -0.978022 0.0038805  -0.14444 -0.990615 0.0042038  -0.131928 -0.950589 0.00335193  -0.180902 -0.978265 0.00427198  -0.168085 -0.938409 0.00358629  -0.131826 -0.950878 0.00391865  -0.168001 -0.93869 0.00400782  -0.207254 -1.05734 0.00447869  -0.170166 -1.07018 0.00477719  -0.157357 -1.03014 0.00401378  -0.207117 -1.05757 0.00480747  -0.194065 -1.01767 0.00417876  -0.15722 -1.03039 0.00449109  -0.19395 -1.01791 0.00453925  -0.233869 -1.13669 0.00508475  -0.196362 -1.14967 0.00535774  -0.183372 -1.10972 0.0046761  -0.233702 -1.13687 0.00536132  -0.220523 -1.09702 0.00478077  -0.183204 -1.10994 0.0050652  -0.22037 -1.09723 0.00508571  -0.26072 -1.21588 0.0056963  -0.222899 -1.229 0.00593781  -0.209785 -1.18918 0.0053401  -0.260529 -1.21605 0.00591516  -0.24727 -1.17631 0.00539112  -0.209591 -1.18936 0.00565243  -0.247097 -1.17649 0.0056386  -0.287641 -1.2948 0.0063107  -0.249572 -1.30797 0.00653172  -0.236431 -1.26836 0.0059948  -0.287429 -1.29494 0.00648475  -0.274175 -1.25538 0.00600362  -0.236214 -1.26853 0.00623393  -0.273974 -1.25554 0.00620222  -0.314549 -1.37333 0.0069232  -0.276313 -1.38655 0.00711346  -0.263171 -1.34717 0.00665283  -0.314322 -1.37346 0.00704598  -0.301099 -1.33412 0.00661755  -0.262938 -1.34732 0.00682974  -0.300885 -1.33426 0.00676417  -0.341325 -1.4514 0.00753212  -0.302973 -1.46462 0.00769567  -0.289883 -1.42551 0.00729227  -0.341092 -1.45151 0.00761485  -0.327955 -1.41242 0.00722933  -0.289645 -1.42564 0.00741339  -0.327724 -1.41255 0.00733662  -0.367927 -1.52891 0.00811839  -0.329494 -1.54215 0.00825858  -0.316501 -1.50333 0.00791359  -0.367681 -1.52904 0.00816059  -0.35465 -1.49023 0.00782704  -0.316252 -1.50345 0.00798202  -0.354419 -1.49035 0.0078907  -0.394212 -1.60582 0.00870156  -0.355736 -1.61909 0.00882173  -0.342916 -1.58055 0.00853086  -0.39399 -1.60596 0.00870919  -0.381116 -1.56744 0.00841475  -0.342642 -1.58069 0.00855947  -0.380872 -1.56758 0.00844407  0.00737119 -0.0209228 -0.00262213  0 0 0  0.00968181 -0.0253249 -0.00164795  0.00338314 -0.0112325 -0.00189114  0 0 0  0.00727227 -0.0211685 -0.00125504  0.00252371 -0.00872666 -0.00145984  0 0 0  0.00333955 -0.0113875 -0.00090909  0.00249123 -0.00886285 -0.000699759  0.0205969 -0.054341 -0.00410604  0.0268137 -0.0609838 -0.00260186  0.0179794 -0.0419037 -0.0046308  0.0203542 -0.0548164 -0.00195098  0.0136202 -0.0365546 -0.00352812  0.0177811 -0.0423115 -0.00222659  0.0134379 -0.0369242 -0.00168633  0.0338429 -0.0958694 -0.00453162  0.0441544 -0.103271 -0.00287747  0.0361255 -0.0806985 -0.00588894  0.0335217 -0.0965669 -0.00210094  0.0274883 -0.0742307 -0.00441742  0.0358002 -0.0813312 -0.00280666  0.0272003 -0.0748332 -0.00208044  0.0437649 -0.144071 -0.00435615  0.0578668 -0.151829 -0.00272822  0.0519237 -0.125982 -0.00608039  0.0434377 -0.14487 -0.00193834  0.0393258 -0.119179 -0.00448751  0.051566 -0.126764 -0.00283742  0.0389888 -0.119942 -0.00204635  0.0493219 -0.19827 -0.00393057  0.0668915 -0.206427 -0.00237107  0.0633144 -0.177557 -0.00572181  0.0490106 -0.199141 -0.00161672  0.0470999 -0.17046 -0.0041616  0.0629803 -0.17841 -0.00256562  0.0467836 -0.171311 -0.00179124  0.0504564 -0.257766 -0.00340223  0.0711676 -0.266381 -0.00191712  0.0699128 -0.234912 -0.00512409  0.0501719 -0.258606 -0.00123525  0.0504374 -0.227404 -0.00367594  0.0696144 -0.235779 -0.00215292  0.0501329 -0.228268 -0.00143433  0.0473911 -0.321795 -0.00282097  0.070902 -0.330956 -0.00141025  0.0718433 -0.297304 -0.00442147  0.047133 -0.322611 -0.000801563  0.049425 -0.289254 -0.00311756  0.0715806 -0.29814 -0.00166845  0.0491563 -0.290095 -0.00102544  0.0404887 -0.389637 -0.00220013  0.0664814 -0.399361 -0.000868797  0.0694144 -0.363941 -0.00366712  0.0402672 -0.390369 -0.000343323  0.0444032 -0.355284 -0.00251579  0.0691893 -0.364723 -0.00114369  0.0441568 -0.356062 -0.000578165  0.0301129 -0.460597 -0.00154853  0.0582739 -0.470908 -0.000300884  0.0630093 -0.434067 -0.0028801  0.0299295 -0.461278 0.000153303  0.035708 -0.42476 -0.00187826  0.0628245 -0.434782 -0.000587225  0.0355071 -0.425475 -0.000101089  0.0166786 -0.534087 -0.00086832  0.0467303 -0.544946 0.000288486  0.0530384 -0.507003 -0.00207329  0.0165422 -0.534676 0.000667572  0.023761 -0.497062 -0.0012114  0.0528966 -0.507649 -9.05991e-06  0.023595 -0.497698 0.000406265  0.000550508 -0.609557 -0.000166416  0.0322242 -0.620942 0.0008955  0.0399177 -0.582152 -0.00125122  0.000459313 -0.610097 0.00121379  0.00892591 -0.571596 -0.000519753  0.0398217 -0.582729 0.000590086  0.00881362 -0.572169 0.000935793  -0.017876 -0.68657 0.000551224  0.0151883 -0.698412 0.00151491  0.024052 -0.659004 -0.000422001  -0.0179174 -0.687027 0.00176954  -0.00839019 -0.647897 0.000190735  0.0240024 -0.659516 0.00120354  -0.00846183 -0.648397 0.00148916  -0.0382754 -0.764713 0.00127935  -0.00404155 -0.776967 0.00214458  0.00582838 -0.737121 0.00041008  -0.0382729 -0.765132 0.00234985  -0.0278511 -0.725514 0.000914335  0.00582469 -0.737575 0.00182962  -0.0278695 -0.725961 0.00205564  -0.0602975 -0.843673 0.00201249  -0.0250801 -0.856255 0.00278163  -0.0143911 -0.816136 0.0012393  -0.0602496 -0.844021 0.00293279  -0.049095 -0.804111 0.00164557  -0.014351 -0.816535 0.00246167  -0.0490751 -0.804496 0.00263953  -0.08367 -0.923139 0.00274873  -0.0476457 -0.936001 0.00342274  -0.0362726 -0.895734 0.00206351  -0.0835832 -0.92346 0.00353432  -0.0718337 -0.88335 0.00238109  -0.0361919 -0.896085 0.00310206  -0.0717647 -0.883693 0.00323057  -0.108094 -1.00289 0.0034821  -0.071408 -1.01595 0.00406671  -0.0595095 -0.975655 0.00287747  -0.107969 -1.00315 0.00413418  -0.0957587 -0.962995 0.00311565  -0.0593898 -0.975961 0.00374389  -0.0956577 -0.963287 0.00383306  -0.13335 -1.0827 0.00421  -0.0961413 -1.09591 0.00470996  -0.0838227 -1.05567 0.00367951  -0.133195 -1.08294 0.00474668  -0.120633 -1.04279 0.00384736  -0.0836705 -1.05594 0.00438857  -0.120492 -1.04305 0.00443745  -0.15919 -1.16241 0.00493264  -0.12157 -1.17571 0.00535226  -0.108962 -1.13561 0.00446582  -0.159007 -1.1626 0.00535536  -0.146202 -1.12258 0.00457144  -0.108778 -1.13584 0.00503087  -0.146037 -1.12279 0.00504923  -0.185452 -1.24185 0.00564003  -0.147521 -1.25521 0.00599098  -0.134701 -1.2153 0.00523424  -0.185244 -1.24203 0.00596976  -0.172281 -1.20216 0.00528812  -0.134493 -1.2155 0.00567198  -0.172084 -1.20236 0.00566053  -0.211928 -1.32093 0.00634027  -0.173765 -1.33431 0.00662708  -0.160846 -1.29463 0.00598192  -0.211704 -1.32108 0.00657868  -0.198665 -1.28144 0.00599027  -0.160612 -1.29481 0.00631046  -0.198453 -1.28161 0.00627375  -0.238521 -1.39954 0.00701833  -0.20021 -1.4129 0.00724697  -0.187212 -1.37351 0.00670958  -0.238287 -1.39969 0.00718546  -0.225221 -1.3603 0.00668097  -0.186971 -1.37366 0.00693583  -0.224989 -1.36045 0.00688457  -0.265083 -1.47764 0.00768781  -0.226654 -1.49098 0.00786948  -0.213681 -1.45185 0.0074122  -0.264835 -1.47776 0.00778294  -0.251798 -1.43865 0.0073514  -0.213434 -1.452 0.00756145  -0.251564 -1.43879 0.00748825  -0.29154 -1.55516 0.00832558  -0.25305 -1.56847 0.00846887  -0.240124 -1.52965 0.00807881  -0.291285 -1.55529 0.00838447  -0.278337 -1.51647 0.00800705  -0.239844 -1.52978 0.00816298  -0.278078 -1.51659 0.00808334  -0.317778 -1.63214 0.00895333  -0.279264 -1.64551 0.00903106  -0.266441 -1.6069 0.0087266  -0.317509 -1.63224 0.00891995  -0.304684 -1.59371 0.00864244  -0.266193 -1.60702 0.00874853  -0.30443 -1.59384 0.00866079  0.0129232 -0.030544 -0.00417852  0 0 0  0.0165503 -0.038196 -0.00237465  0.00564054 -0.0194839 -0.00267482  0 0 0  0.012801 -0.0308639 -0.00202227  0.00435353 -0.0146788 -0.00229025  0 0 0  0.0055993 -0.0196775 -0.00129604  0.0043014 -0.0148603 -0.00110459  0.0347133 -0.06789 -0.00668812  0.043301 -0.0771609 -0.00382257  0.0300033 -0.0569285 -0.00667  0.0344215 -0.0684554 -0.00322318  0.023399 -0.0486261 -0.00567412  0.0297924 -0.0574489 -0.0032351  0.0231941 -0.0490865 -0.00273967  0.0560752 -0.110186 -0.00758886  0.0683005 -0.119485 -0.00434232  0.0566365 -0.0968206 -0.00864768  0.0556976 -0.110945 -0.00362682  0.0458022 -0.088268 -0.00729918  0.0562778 -0.0975517 -0.00417948  0.0454465 -0.0889453 -0.00350618  0.0733493 -0.158764 -0.00748992  0.0889419 -0.168132 -0.0042448  0.0796329 -0.142128 -0.00910401  0.0729809 -0.159588 -0.00349522  0.0653036 -0.133658 -0.00762081  0.0792369 -0.14296 -0.00434661  0.0649278 -0.134465 -0.00360274  0.0856375 -0.213598 -0.00691772  0.104421 -0.223262 -0.00382423  0.0977148 -0.194052 -0.00871444  0.0853077 -0.214471 -0.00310969  0.0801368 -0.185435 -0.00724101  0.097351 -0.194919 -0.00405955  0.0797797 -0.186293 -0.00332212  0.0928763 -0.274019 -0.00613475  0.114616 -0.284065 -0.0032506  0.110496 -0.252139 -0.00792813  0.0925928 -0.274852 -0.00258756  0.0898753 -0.243159 -0.00654387  0.110182 -0.252996 -0.00355077  0.0895732 -0.244025 -0.00285721  0.0952705 -0.339177 -0.00526118  0.119669 -0.349729 -0.00260067  0.118037 -0.315523 -0.00696635  0.0950263 -0.339986 -0.00201273  0.0946631 -0.306059 -0.00570631  0.11777 -0.316343 -0.00293136  0.0943933 -0.306886 -0.00230503  0.0931947 -0.40825 -0.00434279  0.11997 -0.419292 -0.00191236  0.12062 -0.3833 -0.00592852  0.0929943 -0.408978 -0.0013907  0.0947651 -0.37327 -0.00480652  0.120399 -0.384064 -0.00226068  0.0945462 -0.374048 -0.00170326  0.0870383 -0.480463 -0.00340462  0.115892 -0.492031 -0.00119948  0.118633 -0.454608 -0.00485992  0.0868783 -0.481143 -0.00075388  0.0906041 -0.444008 -0.00387573  0.118455 -0.455307 -0.0015564  0.0904179 -0.444714 -0.00107384  0.0772585 -0.555162 -0.00245714  0.107936 -0.567184 -0.000473976  0.112514 -0.528703 -0.00378346  0.0771451 -0.555754 -9.13143e-05  0.0825742 -0.517536 -0.00293183  0.112382 -0.529335 -0.000838757  0.0824393 -0.51818 -0.000422001  0.064265 -0.631755 -0.001508  0.096503 -0.644224 0.00026083  0.102719 -0.604932 -0.00270915  0.0641948 -0.6323 0.000575304  0.0711409 -0.593253 -0.00198197  0.10263 -0.605498 -0.000105619  0.0710438 -0.593823 0.000242233  0.048503 -0.709774 -0.000564098  0.082087 -0.72259 0.000997782  0.0896944 -0.682757 -0.00164652  0.0484802 -0.710237 0.00125837  0.0567054 -0.670609 -0.00103498  0.089653 -0.68326 0.000627995  0.0566608 -0.671121 0.000918627  0.0303439 -0.788787 0.000369787  0.0650531 -0.801928 0.00173569  0.0738751 -0.761712 -0.000600338  0.030363 -0.789214 0.00193787  0.0397035 -0.749177 -9.56059e-05  0.0738767 -0.762158 0.00136828  0.039696 -0.749624 0.00159836  0.0101861 -0.868475 0.0012908  0.0458465 -0.881833 0.00247025  0.0556641 -0.841428 0.000425816  0.0102484 -0.868831 0.00262856  0.0204942 -0.828561 0.000832319  0.0557103 -0.84182 0.00210333  0.0205367 -0.828961 0.00228596  -0.0116593 -0.948529 0.00219321  0.0247713 -0.962075 0.00320053  0.0354404 -0.921582 0.00142622  -0.0115595 -0.948857 0.00330925  -0.000542045 -0.908471 0.00174451  0.0355257 -0.921926 0.00283813  -0.000466347 -0.908815 0.0029695  -0.0348489 -1.02873 0.00307846  0.00221157 -1.04237 0.00392389  0.0135458 -1.00192 0.00239897  -0.0347133 -1.029 0.00399804  -0.0231029 -0.988619 0.00263882  0.0136689 -1.00222 0.00356293  -0.0229833 -0.988925 0.00365686  -0.0591316 -1.10886 0.00393677  -0.0215838 -1.12257 0.0046382  -0.00969982 -1.08223 0.00334358  -0.058965 -1.10911 0.0046711  -0.0468659 -1.06881 0.00351191  -0.0095439 -1.08249 0.00428462  -0.046721 -1.06907 0.00433636  -0.0842216 -1.18878 0.00477481  -0.0462964 -1.20248 0.00534344  -0.0340161 -1.16233 0.00425267  -0.0840282 -1.18898 0.00535035  -0.071589 -1.14885 0.00435901  -0.0338309 -1.16256 0.00499249  -0.0714078 -1.14908 0.0050149  -0.109922 -1.26834 0.00557852  -0.0717273 -1.28201 0.00602865  -0.0591407 -1.2421 0.00512886  -0.109703 -1.26853 0.00601053  -0.0970039 -1.22861 0.00518107  -0.0589306 -1.2423 0.00569177  -0.0968044 -1.22881 0.00568008  -0.135995 -1.34747 0.00636125  -0.0976143 -1.36105 0.00671148  -0.0848496 -1.32143 0.00596499  -0.135765 -1.34761 0.00667238  -0.122923 -1.30796 0.00597453  -0.0846162 -1.32159 0.00637698  -0.122695 -1.30813 0.00634813  -0.162302 -1.42604 0.0071044  -0.123819 -1.43959 0.00736141  -0.110927 -1.40023 0.00675917  -0.162064 -1.42619 0.00731254  -0.149123 -1.38682 0.00673699  -0.11068 -1.40038 0.00703859  -0.148895 -1.38697 0.00698948  -0.188677 -1.5041 0.00781822  -0.150107 -1.51755 0.00803256  -0.137206 -1.47849 0.00752378  -0.188423 -1.50424 0.00794959  -0.175487 -1.46514 0.00746489  -0.136936 -1.47863 0.00771594  -0.175241 -1.46528 0.00764155  -0.215031 -1.58155 0.00849438  -0.176357 -1.5949 0.00861931  -0.163524 -1.55616 0.00823116  -0.214741 -1.58167 0.00858521  -0.20186 -1.54289 0.00814986  -0.163251 -1.5563 0.00833511  -0.20158 -1.54302 0.00823832  -0.241284 -1.65857 0.00917029  -0.202732 -1.67193 0.00923038  -0.189835 -1.63334 0.0089066  -0.241045 -1.65871 0.0091579  -0.228176 -1.62011 0.00882602  -0.18953 -1.63348 0.00895023  -0.227908 -1.62024 0.00885606  0.0228335 -0.0479929 -0.00559449  0 0 0  0.0323736 -0.0610341 -0.00305462  0.012578 -0.0375231 -0.00346828  0 0 0  0.0227526 -0.0484406 -0.00271916  0.00755068 -0.0262913 -0.00301385  0 0 0  0.01261 -0.0378867 -0.00167751  0.00753374 -0.0265533 -0.0014627  0.0540728 -0.0861955 -0.00905538  0.0660166 -0.0972694 -0.00497317  0.049944 -0.0780566 -0.00860119  0.0537897 -0.0868961 -0.00440693  0.0388322 -0.0669526 -0.00762939  0.0498215 -0.0787437 -0.00420761  0.0386392 -0.0675609 -0.00371456  0.0823633 -0.1279 -0.0104165  0.0967487 -0.138694 -0.0057025  0.0820384 -0.116207 -0.011235  0.0819599 -0.128752 -0.00503445  0.0686715 -0.106198 -0.00995398  0.0817101 -0.117064 -0.00548434  0.068316 -0.107 -0.00483489  0.106204 -0.176508 -0.0104191  0.123623 -0.187308 -0.00565219  0.111249 -0.16114 -0.0119145  0.105799 -0.177367 -0.00496817  0.0949304 -0.151306 -0.0105348  0.110814 -0.162026 -0.00576949  0.0945082 -0.152173 -0.00506592  0.124698 -0.231874 -0.00973916  0.145143 -0.242971 -0.00517893  0.135505 -0.213399 -0.0114975  0.124335 -0.232753 -0.00451684  0.116143 -0.203374 -0.0101354  0.135108 -0.214292 -0.00546932  0.115759 -0.20426 -0.00477576  0.137666 -0.293174 -0.00874496  0.160928 -0.304679 -0.00450802  0.154125 -0.272285 -0.0105546  0.137356 -0.293989 -0.003896  0.131879 -0.261843 -0.00926709  0.153758 -0.27312 -0.00487995  0.131536 -0.262696 -0.00422359  0.145228 -0.35939 -0.00761509  0.171031 -0.371378 -0.00373363  0.166982 -0.336663 -0.00937486  0.144964 -0.360179 -0.00317764  0.142105 -0.325716 -0.00819111  0.166681 -0.337467 -0.00414681  0.141819 -0.326533 -0.00354648  0.147748 -0.429596 -0.006428  0.175802 -0.44205 -0.00291681  0.174323 -0.405554 -0.00809216  0.147531 -0.430295 -0.00242519  0.147101 -0.394052 -0.00702548  0.174055 -0.406269 -0.0033474  0.146855 -0.3948 -0.00280738  0.145616 -0.502921 -0.00522542  0.175649 -0.515833 -0.0020709  0.176523 -0.477931 -0.00677371  0.145444 -0.503579 -0.00164127  0.147234 -0.465904 -0.00582743  0.176314 -0.478607 -0.0025115  0.147039 -0.466598 -0.00203681  0.139336 -0.578669 -0.00402522  0.171084 -0.591971 -0.00122118  0.174054 -0.553068 -0.00545096  0.13921 -0.579234 -0.000854492  0.142972 -0.540537 -0.00462437  0.173883 -0.553648 -0.00166392  0.142817 -0.541151 -0.00125051  0.129341 -0.656196 -0.00283909  0.162571 -0.669845 -0.000363111  0.167408 -0.630188 -0.00414205  0.12926 -0.656723 -5.4121e-05  0.134773 -0.617232 -0.00342989  0.16729 -0.630732 -0.000806093  0.134668 -0.617792 -0.000456333  0.116134 -0.735026 -0.00167441  0.150621 -0.748935 0.000485897  0.157065 -0.708813 -0.00285625  0.1161 -0.735468 0.000736713  0.123117 -0.695482 -0.00225353  0.15699 -0.709268 4.57764e-05  0.123054 -0.695967 0.000339985  0.100115 -0.814702 -0.000537395  0.135665 -0.828819 0.00133133  0.143514 -0.78838 -0.00160289  0.100124 -0.815115 0.00153279  0.108449 -0.774769 -0.00110245  0.143489 -0.788809 0.000896692  0.108435 -0.775211 0.00113344  0.0817353 -0.894915 0.000568151  0.118162 -0.909153 0.0021615  0.127182 -0.868602 -0.000386953  0.0817876 -0.895253 0.00231171  0.0912018 -0.854767 1.90735e-05  0.1272 -0.86895 0.00173283  0.0912269 -0.855142 0.00192165  0.061335 -0.975343 0.00163794  0.0984795 -0.989647 0.00297999  0.108505 -0.949069 0.000787497  0.061427 -0.975659 0.00309086  0.0717647 -0.935106 0.00110769  0.108567 -0.949402 0.00256014  0.0718343 -0.935448 0.00270152  0.0392988 -1.0558 0.00267196  0.0770078 -1.07009 0.0037806  0.0878403 -1.02963 0.00191712  0.0394254 -1.05605 0.00384855  0.0505067 -1.01559 0.00215912  0.0879407 -1.02989 0.00337052  0.0506109 -1.01587 0.00346971  0.0159092 -1.13605 0.0036633  0.0540521 -1.15029 0.00456238  0.065557 -1.10999 0.00299859  0.0160701 -1.13628 0.00460267  0.0277541 -1.09595 0.00317335  0.0656941 -1.11024 0.00416183  0.0278952 -1.0962 0.00422716  -0.00851727 -1.21599 0.00461531  0.0299406 -1.23013 0.00532699  0.0419464 -1.19007 0.00403023  -0.00832939 -1.21618 0.00533295  0.00381374 -1.17607 0.00414443  0.0421188 -1.19026 0.00493574  0.00398254 -1.17628 0.00496697  -0.0337503 -1.29548 0.00551748  0.0049119 -1.30948 0.00606751  0.0173266 -1.26968 0.00501227  -0.0335388 -1.29566 0.00605011  -0.0210471 -1.25579 0.00507259  0.0175235 -1.26987 0.00569057  -0.0208492 -1.25598 0.00569534  -0.05953 -1.37448 0.0063777  -0.0207486 -1.3883 0.00678515  -0.00808477 -1.34882 0.00593281  -0.0592918 -1.37461 0.00675225  -0.0465827 -1.33505 0.00595045  -0.00785637 -1.34895 0.0064187  -0.0463603 -1.3352 0.00640297  -0.0856636 -1.45289 0.00717592  -0.0468535 -1.46655 0.00751758  -0.0340004 -1.42735 0.00679684  -0.0854292 -1.45305 0.00742149  -0.0725582 -1.41375 0.00678349  -0.0337555 -1.42751 0.0071373  -0.0723233 -1.4139 0.00709081  -0.111957 -1.53076 0.00792766  -0.0731792 -1.5442 0.00815058  -0.0602577 -1.50537 0.00759172  -0.111707 -1.53085 0.00808096  -0.0988007 -1.4919 0.00756645  -0.0599878 -1.50545 0.0077827  -0.0985508 -1.49202 0.00776339  -0.138308 -1.60809 0.00865841  -0.0995834 -1.62148 0.00881147  -0.0866172 -1.58277 0.00836873  -0.137988 -1.60819 0.00874114  -0.125134 -1.56945 0.008286  -0.0864134 -1.58286 0.00849938  -0.12487 -1.56959 0.00840974  -0.164622 -1.68502 0.00932169  -0.125912 -1.69834 0.00935149  -0.113055 -1.65976 0.00911188  -0.164301 -1.68517 0.00928903  -0.151436 -1.64659 0.00897694  -0.112675 -1.65992 0.00915146  -0.151104 -1.6467 0.00904894  -0.036461 -0.0393454 0.0133779  -0.0164723 -0.022935 0.0104859  0 0 0  -0.0213506 -0.0263419 0.015734  0 0 0  -0.0132287 -0.0196032 0.00953078  -0.00477291 -0.007358 0.00728774  0 0 0  -0.0169764 -0.0239686 0.00757599  -0.0215316 -0.0281101 0.0114179  -0.00730807 -0.0123033 0.00867248  0 0 0  -0.00473298 -0.00801492 0.00527549  -0.00731431 -0.0131028 0.00627828  -0.0713876 -0.0622463 0.0207839  -0.0530098 -0.0472968 0.0244558  -0.0526359 -0.0518179 0.0246255  -0.0386298 -0.0483715 0.015254  -0.0252679 -0.0313765 0.0177028  -0.0539077 -0.0500197 0.0177135  -0.0529684 -0.054926 0.0179937  -0.0368237 -0.0385823 0.0210216  -0.0252476 -0.0335895 0.0128913  -0.037109 -0.0411221 0.0152869  -0.106649 -0.0900551 0.0235875  -0.0882706 -0.0716819 0.0309033  -0.0844454 -0.081753 0.0276203  -0.0663124 -0.0812884 0.0174844  -0.0522297 -0.0610362 0.0226786  -0.0889208 -0.075371 0.0226753  -0.0848455 -0.0852708 0.0204906  -0.0685304 -0.0659334 0.0267236  -0.052397 -0.064064 0.0167377  -0.0688731 -0.0693384 0.0196693  -0.141833 -0.124056 0.0232038  -0.123737 -0.102407 0.0317473  -0.116002 -0.118571 0.0268457  -0.0942888 -0.120312 0.0172763  -0.0798126 -0.0968474 0.0234578  -0.124313 -0.106227 0.0236616  -0.116644 -0.12193 0.0202062  -0.100279 -0.0993166 0.0275397  -0.0802667 -0.100019 0.0175905  -0.100785 -0.102807 0.0205913  -0.176182 -0.164404 0.0212009  -0.158418 -0.140017 0.0295775  -0.147177 -0.161804 0.0243704  -0.12243 -0.165274 0.0158808  -0.107541 -0.139153 0.0219705  -0.159142 -0.14348 0.0223064  -0.148067 -0.164743 0.0185125  -0.13164 -0.139447 0.0257254  -0.108339 -0.142086 0.0166671  -0.132412 -0.142621 0.019455  -0.209581 -0.210523 0.0186963  -0.192108 -0.183876 0.0262713  -0.178006 -0.210543 0.0213838  -0.150708 -0.215473 0.0140321  -0.135496 -0.187202 0.0195894  -0.193008 -0.186819 0.019953  -0.17908 -0.213019 0.016345  -0.162628 -0.185543 0.0228932  -0.136543 -0.189759 0.0149758  -0.163628 -0.188259 0.0174448  -0.242143 -0.261695 0.0162153  -0.22497 -0.233108 0.0228083  -0.208597 -0.26403 0.0184848  -0.179128 -0.270253 0.0122447  -0.163717 -0.240167 0.0170605  -0.225969 -0.235535 0.0174224  -0.209725 -0.266066 0.0142093  -0.19333 -0.236733 0.0199046  -0.164897 -0.242321 0.013124  -0.194446 -0.238994 0.0152512  -0.274108 -0.317339 0.0140259  -0.257184 -0.28705 0.0196266  -0.239014 -0.32165 0.0159159  -0.207706 -0.329032 0.0106304  -0.192191 -0.297379 0.0147321  -0.258203 -0.289026 0.015065  -0.240131 -0.323318 0.0123134  -0.22382 -0.292362 0.0171545  -0.193385 -0.299171 0.0114107  -0.224957 -0.294214 0.0132241  -0.305622 -0.37687 0.0121596  -0.288963 -0.345051 0.0168736  -0.269363 -0.382897 0.0137415  -0.23648 -0.391337 0.00932169  -0.220928 -0.35829 0.0127308  -0.289925 -0.34666 0.0130422  -0.270382 -0.384258 0.0107245  -0.254198 -0.351846 0.0147815  -0.222064 -0.359765 0.0099473  -0.255274 -0.353365 0.0114765  -0.33684 -0.439842 0.0106394  -0.320405 -0.406665 0.0145602  -0.299659 -0.447326 0.0119407  -0.265452 -0.456712 0.00823498  -0.249908 -0.422442 0.0110695  -0.321276 -0.40798 0.0113456  -0.300571 -0.448444 0.00942683  -0.284514 -0.414745 0.0127985  -0.250931 -0.423664 0.00875211  -0.285488 -0.415986 0.01004  -0.367796 -0.505787 0.00938749  -0.351612 -0.471391 0.0126414  -0.329942 -0.514533 0.0104675  -0.294615 -0.524771 0.00741601  -0.279117 -0.489419 0.00971961  -0.352359 -0.472473 0.00997162  -0.330705 -0.515451 0.0083909  -0.314806 -0.480602 0.011167  -0.280008 -0.490424 0.00780344  -0.315647 -0.481627 0.0088737  -0.398544 -0.574338 0.00840116  -0.382585 -0.538887 0.0110607  -0.360159 -0.584146 0.00927091  -0.323917 -0.595124 0.00675535  -0.308496 -0.558844 0.00863576  -0.383208 -0.539781 0.00885081  -0.360798 -0.584906 0.0075717  -0.345058 -0.549066 0.00983787  -0.309242 -0.559681 0.00706792  -0.345764 -0.549908 0.00795436  -0.429036 -0.645098 0.00760293  -0.41334 -0.608723 0.00976539  -0.390302 -0.655816 0.00831151  -0.353304 -0.667437 0.00629807  -0.337992 -0.630362 0.00777864  -0.413831 -0.609465 0.0079689  -0.390793 -0.65644 0.00694323  -0.375247 -0.61974 0.00876451  -0.338601 -0.631051 0.00651145  -0.375813 -0.62044 0.00723076  -0.459274 -0.717756 0.00700474  -0.443826 -0.680614 0.00871563  -0.420278 -0.729217 0.00755477  -0.38269 -0.741369 0.00594592  -0.367519 -0.703645 0.00711513  -0.444199 -0.681229 0.00726676  -0.420659 -0.729731 0.00647211  -0.405312 -0.692324 0.00791001  -0.367992 -0.704219 0.00610971  -0.405752 -0.692898 0.00668693  -0.48918 -0.791958 0.00654387  -0.474021 -0.754173 0.00787926  -0.45006 -0.804037 0.00697827  -0.412005 -0.816631 0.0057559  -0.397005 -0.778379 0.00661969  -0.474279 -0.754682 0.00674605  -0.450314 -0.804456 0.00614548  -0.435202 -0.766463 0.0072453  -0.397358 -0.778847 0.00584054  -0.435519 -0.766938 0.00628638  -0.518745 -0.867436 0.00624824  -0.503857 -0.829155 0.00723505  -0.479552 -0.879992 0.00656462  -0.441158 -0.892924 0.00564313  -0.426356 -0.854277 0.0062747  -0.504018 -0.829574 0.00636244  -0.479717 -0.880333 0.00594473  -0.464844 -0.841895 0.00675178  -0.426596 -0.854665 0.00569105  -0.465056 -0.84228 0.00602698  -0.547889 -0.943879 0.00606465  -0.533311 -0.90521 0.00676727  -0.50873 -0.956811 0.00630212  -0.470088 -0.970003 0.00567126  -0.455508 -0.931066 0.00606823  -0.533378 -0.905552 0.00613046  -0.508791 -0.957083 0.00586438  -0.494187 -0.918305 0.00641561  -0.455651 -0.931376 0.00564909  -0.4943 -0.91862 0.00588465  -0.57662 -1.02106 0.00602674  -0.562324 -0.982133 0.00646472  -0.537515 -1.03425 0.006181  -0.498725 -1.04761 0.00575781  -0.484382 -1.0085 0.0059886  -0.562317 -0.982409 0.00601363  -0.537513 -1.03446 0.00589156  -0.523171 -0.995471 0.00622487  -0.484436 -1.00875 0.00570798  -0.523204 -0.995721 0.00586247  -0.604879 -1.0987 0.00608301  -0.590891 -1.05961 0.00631714  -0.565909 -1.11207 0.00619435  -0.527032 -1.12554 0.00597286  -0.512935 -1.08634 0.00602889  -0.590816 -1.05983 0.00603008  -0.565829 -1.11224 0.00602484  -0.551765 -1.07312 0.00617146  -0.512918 -1.08654 0.00585842  -0.551725 -1.07332 0.00593925  -0.632711 -1.17662 0.00627542  -0.618979 -1.13747 0.00631952  -0.593861 -1.19006 0.00633502  -0.55497 -1.20358 0.00623322  -0.541117 -1.16439 0.00618196  -0.618859 -1.13765 0.00614882  -0.593748 -1.1902 0.00625348  -0.579937 -1.15106 0.00624895  -0.541038 -1.16456 0.00609779  -0.579844 -1.15122 0.0061245  -0.660097 -1.25458 0.00654745  -0.646624 -1.21546 0.00646472  -0.621417 -1.26805 0.00659251  -0.58254 -1.28157 0.00660682  -0.568919 -1.24246 0.00644088  -0.646464 -1.2156 0.00638962  -0.621254 -1.26816 0.00657296  -0.607691 -1.22906 0.00645041  -0.568796 -1.24259 0.00641608  -0.607554 -1.22919 0.00639701  -0.68714 -1.33244 0.00692844  -0.67384 -1.29343 0.00673723  -0.648573 -1.34587 0.00694799  -0.609743 -1.35935 0.00700068  -0.596329 -1.32038 0.00678825  -0.673667 -1.29355 0.00671244  -0.648408 -1.34596 0.00696158  -0.635038 -1.30699 0.00675964  -0.596175 -1.32049 0.00680208  -0.634877 -1.3071 0.00675702  -0.713907 -1.41006 0.00734544  -0.700737 -1.37118 0.00711155  -0.675439 -1.4234 0.00736499  -0.63664 -1.43683 0.00746536  -0.623391 -1.39803 0.00720239  -0.700555 -1.37129 0.00712156  -0.675257 -1.42348 0.00739622  -0.662039 -1.38467 0.0071516  -0.623222 -1.39813 0.00723457  -0.661866 -1.38476 0.00716972  -0.740602 -1.48742 0.00777721  -0.727423 -1.44869 0.00753546  -0.702133 -1.50066 0.00778103  -0.663348 -1.51399 0.00788689  -0.650172 -1.47535 0.00763893  -0.727264 -1.44878 0.00755453  -0.701975 -1.50073 0.0078187  -0.688794 -1.46206 0.00757766  -0.649995 -1.47545 0.00768161  -0.688627 -1.46215 0.00761127  -0.00918831 -0.0138457 0.0107329  0 0 0  -0.00611594 -0.0126686 0.00617218  -0.00217608 -0.00353883 0.00462866  0 0 0  -0.00910904 -0.0151116 0.00779676  -0.00308178 -0.00482053 0.00588059  0 0 0  -0.0021449 -0.0040673 0.00334573  -0.0030192 -0.00543188 0.00425816  -0.0278675 -0.0410355 0.0172627  -0.0192823 -0.0402973 0.0101113  -0.012015 -0.0236543 0.0116043  -0.0278481 -0.0433775 0.0126553  -0.0176974 -0.0263971 0.0145805  -0.011967 -0.0252783 0.00846434  -0.0176217 -0.0282929 0.0106263  -0.0502706 -0.0754839 0.0195451  -0.0368379 -0.0764785 0.0117114  -0.0276251 -0.0551932 0.015063  -0.050503 -0.0783184 0.0145686  -0.0388632 -0.0573913 0.0188258  -0.0277079 -0.0575444 0.0111606  -0.0389439 -0.0600702 0.0139215  -0.0737484 -0.116483 0.0190876  -0.0563933 -0.119105 0.0116444  -0.0460198 -0.0943952 0.0156782  -0.0743555 -0.119318 0.014446  -0.0619032 -0.0951621 0.0195298  -0.0464338 -0.0970266 0.0118179  -0.0623239 -0.0980583 0.0146806  -0.0980282 -0.163533 0.0173848  -0.0772879 -0.167493 0.0107336  -0.0659073 -0.140041 0.0147333  -0.098963 -0.166134 0.0132813  -0.0857843 -0.139289 0.0183196  -0.0666824 -0.142622 0.0112462  -0.0865718 -0.142046 0.0139365  -0.123113 -0.215776 0.0153012  -0.0993955 -0.220908 0.00954056  -0.0871551 -0.191258 0.0131717  -0.124245 -0.218036 0.0117791  -0.110462 -0.18904 0.0163553  -0.0881909 -0.193612 0.0101478  -0.11152 -0.191492 0.0125439  -0.148977 -0.272475 0.0132735  -0.122664 -0.278683 0.00836802  -0.10973 -0.247224 0.0115066  -0.15018 -0.274402 0.0102894  -0.135947 -0.243593 0.0142655  -0.11089 -0.249286 0.00894117  -0.137134 -0.245703 0.0110202  -0.175531 -0.333002 0.0114877  -0.146969 -0.340225 0.0073514  -0.133512 -0.307246 0.00998306  -0.176707 -0.33461 0.00899124  -0.162161 -0.302278 0.0123465  -0.134689 -0.309011 0.00783753  -0.163369 -0.304055 0.00961447  -0.202718 -0.396869 0.00999713  -0.172233 -0.405039 0.00653315  -0.158374 -0.370752 0.00869656  -0.203804 -0.398217 0.00791669  -0.189046 -0.36453 0.0107071  -0.159488 -0.372248 0.00691819  -0.190188 -0.366021 0.0084281  -0.230439 -0.463625 0.00879121  -0.198312 -0.472678 0.00590968  -0.184166 -0.437266 0.0076592  -0.231399 -0.464741 0.00707722  -0.216506 -0.429897 0.00936079  -0.185173 -0.438527 0.00619936  -0.21754 -0.431138 0.00747156  -0.258626 -0.532891 0.00783682  -0.225119 -0.542742 0.00546145  -0.210759 -0.506365 0.00685382  -0.259447 -0.533829 0.0064311  -0.244475 -0.497952 0.00828576  -0.211632 -0.507427 0.00566578  -0.245372 -0.498993 0.00673413  -0.287162 -0.604292 0.00709748  -0.252495 -0.614861 0.00516057  -0.238004 -0.577672 0.00624919  -0.28784 -0.605067 0.00596547  -0.272845 -0.568334 0.00744271  -0.238739 -0.578563 0.00529456  -0.273603 -0.5692 0.00617933  -0.315965 -0.677502 0.00654125  -0.280344 -0.688692 0.00498724  -0.265773 -0.650829 0.00581455  -0.316506 -0.678154 0.00563717  -0.301532 -0.640677 0.00679898  -0.266369 -0.65158 0.00505924  -0.302146 -0.641405 0.00578713  -0.34491 -0.752194 0.00614214  -0.308502 -0.763921 0.00492215  -0.293921 -0.72552 0.00552654  -0.345322 -0.752729 0.00544286  -0.330415 -0.71467 0.00632334  -0.294388 -0.726148 0.00494242  -0.330899 -0.715275 0.00552583  -0.373909 -0.828086 0.00588059  -0.336876 -0.840253 0.00495076  -0.322325 -0.801437 0.00536466  -0.374205 -0.828535 0.0053494  -0.359404 -0.789993 0.00599504  -0.32267 -0.801964 0.00492501  -0.359763 -0.790501 0.00538516  -0.402845 -0.904892 0.0057447  -0.36531 -0.917422 0.00506449  -0.350851 -0.878308 0.0053134  -0.403034 -0.905255 0.00536299  -0.388379 -0.866379 0.00579786  -0.351088 -0.878747 0.00499797  -0.388629 -0.866797 0.00534511  -0.431646 -0.982373 0.00572205  -0.393735 -0.99518 0.00525498  -0.379393 -0.955874 0.00536466  -0.431744 -0.982677 0.00545859  -0.417262 -0.943549 0.0057199  -0.379532 -0.95624 0.00515008  -0.417411 -0.943898 0.00540233  -0.460218 -1.06029 0.00580573  -0.422019 -1.07331 0.00551581  -0.407841 -1.03391 0.00550818  -0.460234 -1.06053 0.00564575  -0.445954 -1.02128 0.00575137  -0.407896 -1.03421 0.00537753  -0.446018 -1.02156 0.00554299  -0.488517 -1.13844 0.00598812  -0.450123 -1.1516 0.0058403  -0.436119 -1.11219 0.00573683  -0.488467 -1.13864 0.00590062  -0.474399 -1.09933 0.00588584  -0.436099 -1.11244 0.00567007  -0.474387 -1.09957 0.00576663  -0.516478 -1.21663 0.00626326  -0.477946 -1.22988 0.00622344  -0.464147 -1.19054 0.0060432  -0.516371 -1.21678 0.00623631  -0.50253 -1.17753 0.00611496  -0.464068 -1.19075 0.00602531  -0.50246 -1.17772 0.0060606  -0.544092 -1.2947 0.00661826  -0.505486 -1.308 0.0066545  -0.491883 -1.26879 0.00642157  -0.543948 -1.29484 0.00662398  -0.530324 -1.25567 0.00643277  -0.491755 -1.26897 0.00643373  -0.530204 -1.25584 0.00642633  -0.571334 -1.37252 0.00703645  -0.532678 -1.38584 0.00712252  -0.519282 -1.34681 0.00685453  -0.571162 -1.37263 0.00706697  -0.557748 -1.33363 0.00682092  -0.519123 -1.34696 0.00688553  -0.557597 -1.33377 0.00684118  -0.59825 -1.44999 0.00748897  -0.559571 -1.4633 0.00760651  -0.546344 -1.42449 0.00732589  -0.598068 -1.4501 0.00752521  -0.584825 -1.41129 0.0072608  -0.546161 -1.42462 0.00736427  -0.584652 -1.41141 0.00729704  -0.624925 -1.52706 0.00793672  -0.586195 -1.54032 0.00807762  -0.573085 -1.50174 0.0078063  -0.624737 -1.52717 0.00798464  -0.611594 -1.48857 0.00771642  -0.572906 -1.50187 0.00784779  -0.611421 -1.48869 0.0077579  -0.0037387 -0.0107027 0.0062952  0 0 0  -0.00176385 -0.0115057 0.00304437  -0.00060783 -0.00307098 0.00222635  0 0 0  -0.00373361 -0.0116383 0.0045898  -0.00127316 -0.00303659 0.00341129  0 0 0  -0.000618134 -0.00345227 0.00162292  -0.00126216 -0.00350207 0.00247025  -0.0123297 -0.0370572 0.0103109  -0.00637288 -0.0386988 0.00512934  -0.00356913 -0.0224149 0.00574803  -0.0123932 -0.0388225 0.00759506  -0.007465 -0.022447 0.00864244  -0.00366585 -0.023632 0.00423241  -0.00747588 -0.0238559 0.0063231  -0.0246866 -0.073523 0.0118327  -0.0142334 -0.0763115 0.00609183  -0.00967577 -0.0546374 0.00767088  -0.0249675 -0.075793 0.00888395  -0.0181419 -0.0542877 0.0113308  -0.00992167 -0.0564978 0.00574207  -0.0182946 -0.0563719 0.00842738  -0.0394611 -0.117264 0.0116429  -0.0249217 -0.121238 0.00615621  -0.0187567 -0.0957523 0.00812984  -0.0400731 -0.119707 0.00888157  -0.0318155 -0.0945652 0.0118732  -0.0192515 -0.0979745 0.00620461  -0.0322596 -0.0969789 0.00898957  -0.0562254 -0.167087 0.0106435  -0.0380879 -0.172095 0.00573063  -0.030442 -0.143672 0.0077064  -0.0571217 -0.169446 0.0082221  -0.0475983 -0.141467 0.0111964  -0.0312056 -0.145982 0.00597668  -0.0483693 -0.143907 0.00859523  -0.0748587 -0.222009 0.00939202  -0.0535278 -0.227935 0.00513744  -0.044566 -0.197218 0.00691032  -0.0759301 -0.224158 0.00732875  -0.0653079 -0.193942 0.0100253  -0.0455241 -0.199424 0.00543976  -0.06631 -0.196223 0.00778055  -0.0952706 -0.281326 0.00817966  -0.0711163 -0.288113 0.00456309  -0.061009 -0.255513 0.00605249  -0.096397 -0.283211 0.00646496  -0.0848483 -0.251152 0.00877142  -0.0620595 -0.257515 0.00484037  -0.0859654 -0.253185 0.00688457  -0.117249 -0.344324 0.0071342  -0.0906225 -0.351947 0.00409579  -0.0795788 -0.31783 0.00528741  -0.11835 -0.34595 0.00572205  -0.106067 -0.312381 0.00763273  -0.0806323 -0.319594 0.00431514  -0.107194 -0.314151 0.00607157  -0.140637 -0.410526 0.00629735  -0.111868 -0.418956 0.0037663  -0.100043 -0.383551 0.00468111  -0.141648 -0.411911 0.00515509  -0.128775 -0.377046 0.0066905  -0.101035 -0.38508 0.00391364  -0.129842 -0.378561 0.00541735  -0.1652 -0.479405 0.00566316  -0.134591 -0.488605 0.00357318  -0.122155 -0.452153 0.00424576  -0.166097 -0.480582 0.00474334  -0.152774 -0.444639 0.00595665  -0.123047 -0.453466 0.0036552  -0.153736 -0.445931 0.0049274  -0.190792 -0.55061 0.00521326  -0.158616 -0.560523 0.00350404  -0.145676 -0.52318 0.00397086  -0.191553 -0.551603 0.00448942  -0.177875 -0.514733 0.00541806  -0.146448 -0.524301 0.00352383  -0.17871 -0.515827 0.00459957  -0.21719 -0.62371 0.00491953  -0.183692 -0.634273 0.00354004  -0.17038 -0.596227 0.00383615  -0.21782 -0.62455 0.00435352  -0.203891 -0.586927 0.00504851  -0.171024 -0.597181 0.00351167  -0.204592 -0.587856 0.00440454  -0.244266 -0.698423 0.00475812  -0.209661 -0.70956 0.00366569  -0.196055 -0.670931 0.00381994  -0.244762 -0.699129 0.00433373  -0.23065 -0.660877 0.00482368  -0.196571 -0.671741 0.00359225  -0.231218 -0.661659 0.00433087  -0.271811 -0.774381 0.00471091  -0.236288 -0.786017 0.00386763  -0.222496 -0.746965 0.0039041  -0.272189 -0.774975 0.00439739  -0.25798 -0.736248 0.00472093  -0.222891 -0.747651 0.00375938  -0.258421 -0.736911 0.00435209  -0.299718 -0.851355 0.00476217  -0.263443 -0.863408 0.00413299  -0.249521 -0.824032 0.00407529  -0.299981 -0.85185 0.00454855  -0.285725 -0.812751 0.00472569  -0.249804 -0.824609 0.00399232  -0.28605 -0.813305 0.0044632  -0.327798 -0.929028 0.00490165  -0.290915 -0.941427 0.00445652  -0.276956 -0.90186 0.00431871  -0.327963 -0.929442 0.00476241  -0.313734 -0.890103 0.0048213  -0.277137 -0.902344 0.00428915  -0.313953 -0.89057 0.00464416  -0.355969 -1.00722 0.00512052  -0.318604 -1.01989 0.0048306  -0.304644 -0.980208 0.00462985  -0.356042 -1.00756 0.00504851  -0.341875 -0.968066 0.0050025  -0.304735 -0.980613 0.00463676  -0.342 -0.968454 0.00489783  -0.384073 -1.08566 0.00541115  -0.346334 -1.09854 0.00524831  -0.332447 -1.05886 0.00499821  -0.384074 -1.08594 0.00538301  -0.370024 -1.0464 0.00525713  -0.332459 -1.05919 0.00503492  -0.370067 -1.04673 0.00520611  -0.412065 -1.16421 0.00576711  -0.374042 -1.17724 0.00570536  -0.360247 -1.13761 0.00541902  -0.411996 -1.16445 0.00577831  -0.398084 -1.12493 0.00558162  -0.36019 -1.13789 0.00547075  -0.398055 -1.12519 0.00557423  -0.439818 -1.24266 0.006181  -0.401589 -1.2558 0.00619698  -0.387941 -1.21631 0.00588489  -0.439701 -1.24286 0.00621009  -0.425964 -1.20344 0.0059669  -0.387828 -1.21654 0.00594854  -0.425876 -1.20367 0.00598574  -0.467325 -1.32092 0.00664306  -0.428953 -1.33411 0.00671363  -0.415449 -1.2948 0.00639057  -0.467164 -1.32108 0.00668693  -0.453602 -1.28182 0.00640774  -0.415292 -1.29499 0.00645208  -0.453468 -1.282 0.00644445  -0.494497 -1.39881 0.0071404  -0.45603 -1.41205 0.00724888  -0.442708 -1.37296 0.00692296  -0.494313 -1.39896 0.00718331  -0.480944 -1.3599 0.00688887  -0.442518 -1.37313 0.00698137  -0.480777 -1.36007 0.00693011  -0.521367 -1.47631 0.00765204  -0.482836 -1.48955 0.00778627  -0.469672 -1.45071 0.00746942  -0.521167 -1.47644 0.00769687  -0.507966 -1.43761 0.00739574  -0.469463 -1.45085 0.00751591  -0.507778 -1.43776 0.00743961  -0.547906 -1.55325 0.00815535  -0.509321 -1.56644 0.00831676  -0.496318 -1.52792 0.00801468  -0.547729 -1.55339 0.00819302  -0.534663 -1.51484 0.00790596  -0.496103 -1.52807 0.00805211  -0.534476 -1.51499 0.00794435  0.000170097 -0.0113561 0.00202322  0 0 0  0.00178689 -0.0132353 2.98023e-05  0.000662513 -0.00415498 -0.000114679  0 0 0  6.64145e-05 -0.012072 0.00151992  5.43967e-05 -0.00345129 0.00104666  0 0 0  0.000609405 -0.00445211 -3.31402e-05  2.61664e-05 -0.0037953 0.000787497  -0.000598818 -0.0382692 0.00355744  0.00438255 -0.0416842 0.000298738  0.00342658 -0.0249941 7.29561e-05  -0.000869185 -0.0396887 0.0026896  1.97291e-05 -0.0232957 0.00287819  0.00314924 -0.0260128 0.000138044  -0.000167713 -0.0244043 0.00216365  -0.00382507 -0.0759922 0.00432777  0.00526702 -0.0805921 0.000627279  0.00562575 -0.0584894 0.000503063  -0.00428525 -0.077919 0.00332785  -0.00186548 -0.056052 0.00404239  0.00513941 -0.0601101 0.000478029  -0.00222731 -0.0577793 0.00308156  -0.00995687 -0.121486 0.00439  0.00316375 -0.127062 0.000804901  0.00527233 -0.100995 0.000794649  -0.0106346 -0.123673 0.00345922  -0.00652012 -0.0978838 0.00442243  0.00462079 -0.103011 0.000739098  -0.00709325 -0.0999925 0.00344515  -0.0190496 -0.173249 0.00405145  -0.00226724 -0.179607 0.000828981  0.00165844 -0.150469 0.000844955  -0.0199091 -0.175459 0.0032618  -0.0141355 -0.146647 0.00424695  0.000864148 -0.152644 0.000827789  -0.0149142 -0.148888 0.00338435  -0.0309883 -0.230181 0.00357628  -0.0109369 -0.237259 0.000792503  -0.00531232 -0.205695 0.000754833  -0.031958 -0.232269 0.00295949  -0.0246654 -0.201104 0.00381637  -0.00620604 -0.207839 0.0008111  -0.0255952 -0.203281 0.00311422  -0.0456212 -0.291552 0.00312805  -0.0226601 -0.299294 0.000778913  -0.0154995 -0.265769 0.000645399  -0.0466166 -0.293439 0.00266671  -0.0379796 -0.260347 0.00334215  -0.0164327 -0.26777 0.000778675  -0.0389749 -0.262356 0.00280714  -0.0626616 -0.356596 0.00278521  -0.0371358 -0.365023 0.000834227  -0.0286551 -0.329925 0.000594616  -0.0636225 -0.358264 0.00246906  -0.0538492 -0.323637 0.00294089  -0.0295691 -0.331731 0.000797033  -0.0548397 -0.325429 0.00255585  -0.0818634 -0.424789 0.00257754  -0.0540922 -0.433871 0.000976562  -0.0444725 -0.397493 0.000641108  -0.0827405 -0.426238 0.00237274  -0.0720063 -0.390323 0.00266504  -0.0453233 -0.39909 0.000894547  -0.0729342 -0.391895 0.00240993  -0.102902 -0.495549 0.0025022  -0.0731897 -0.505293 0.00120449  -0.0626301 -0.467891 0.000791073  -0.103675 -0.496801 0.00239563  -0.0921613 -0.459861 0.00252342  -0.0633883 -0.469286 0.00108075  -0.0929946 -0.461222 0.00237155  -0.125544 -0.568492 0.00254774  -0.0941612 -0.578836 0.00151014  -0.0828086 -0.540613 0.00103903  -0.126195 -0.569564 0.00250983  -0.114035 -0.531763 0.00251102  -0.0834594 -0.541823 0.00134897  -0.114753 -0.532938 0.00244379  -0.149489 -0.643159 0.00269604  -0.116688 -0.654079 0.00188184  -0.104707 -0.61522 0.00137138  -0.150022 -0.644078 0.00271821  -0.137359 -0.605618 0.00260997  -0.105243 -0.616265 0.00168896  -0.137957 -0.606623 0.00260448  -0.174539 -0.719259 0.00292993  -0.140538 -0.730669 0.00230742  -0.128041 -0.691326 0.00177455  -0.174951 -0.72004 0.00298905  -0.161886 -0.681041 0.00280356  -0.128464 -0.692224 0.00208855  -0.162363 -0.681903 0.00284815  -0.200428 -0.796419 0.00323725  -0.165428 -0.808277 0.00277805  -0.152549 -0.768592 0.00223494  -0.200732 -0.797082 0.00332952  -0.187382 -0.757711 0.00307536  -0.152864 -0.769361 0.00253868  -0.187745 -0.758443 0.00315237  -0.226995 -0.874411 0.00360346  -0.191165 -0.886624 0.00328398  -0.177991 -0.846716 0.00274205  -0.227195 -0.874971 0.00371003  -0.213635 -0.835318 0.00341392  -0.178204 -0.847372 0.0030272  -0.213891 -0.835942 0.00351644  -0.254009 -0.952929 0.00402212  -0.217503 -0.965455 0.00382066  -0.204145 -0.925434 0.00328541  -0.254119 -0.9534 0.00414371  -0.240447 -0.913606 0.00380659  -0.204267 -0.92599 0.00354934  -0.240607 -0.91413 0.00392199  -0.281345 -1.0318 0.00448561  -0.244293 -1.04455 0.00438142  -0.230813 -1.00451 0.00386047  -0.281372 -1.0322 0.00460601  -0.267642 -0.992325 0.00424933  -0.230853 -1.00498 0.00409794  -0.267715 -0.99277 0.00437307  -0.308812 -1.11078 0.004987  -0.271331 -1.12372 0.00496078  -0.257818 -1.08374 0.0044589  -0.308771 -1.1111 0.00510859  -0.29506 -1.07128 0.00473189  -0.257787 -1.08414 0.00466919  -0.295059 -1.07164 0.00485349  -0.336328 -1.18973 0.0055213  -0.298513 -1.20279 0.00555658  -0.285005 -1.16294 0.0050776  -0.336226 -1.19 0.00563025  -0.322567 -1.15026 0.00525069  -0.284913 -1.16328 0.00525737  -0.3225 -1.15057 0.00536871  -0.363741 -1.26847 0.00608206  -0.325679 -1.28163 0.0061605  -0.312243 -1.24197 0.00570869  -0.363595 -1.2687 0.00618267  -0.350044 -1.22913 0.00579834  -0.3121 -1.24225 0.00585866  -0.349924 -1.22938 0.00590348  -0.391015 -1.34692 0.00666261  -0.352769 -1.36012 0.0067718  -0.339421 -1.32069 0.00634813  -0.390828 -1.34711 0.00674176  -0.377396 -1.30773 0.00637054  -0.33924 -1.32092 0.00646591  -0.377234 -1.30795 0.00646257  -0.418035 -1.42493 0.00725198  -0.379665 -1.43816 0.0073812  -0.366455 -1.39899 0.00698829  -0.417825 -1.42509 0.00731587  -0.404551 -1.38597 0.0069561  -0.366242 -1.3992 0.00707674  -0.404356 -1.38616 0.00702786  -0.444795 -1.50245 0.00784278  -0.406347 -1.51567 0.00798583  -0.393272 -1.4768 0.00763059  -0.444569 -1.50261 0.0078814  -0.431445 -1.46375 0.00754786  -0.393037 -1.47699 0.00768518  -0.431232 -1.46392 0.0076015  -0.471197 -1.57931 0.00842118  -0.432689 -1.59255 0.00857139  -0.419793 -1.55401 0.00826097  -0.470971 -1.57948 0.00844383  -0.458033 -1.54096 0.00813389  -0.419565 -1.5542 0.0082829  -0.457813 -1.54114 0.00816464  0.00376847 -0.0143768 -0.00209618  0 0 0  0.00542994 -0.0173749 -0.0028193  0.0019582 -0.00647396 -0.00235176  0 0 0  0.0035582 -0.0149921 -0.00142026  0.00128932 -0.00513303 -0.00125074  0 0 0  0.00186544 -0.00674558 -0.00160384  0.00121184 -0.00541878 -0.000833273  0.010164 -0.0433543 -0.00292158  0.0151202 -0.048525 -0.00426936  0.0104898 -0.0307396 -0.00528979  0.00966507 -0.0446208 -0.00203013  0.00688347 -0.0274642 -0.00266004  0.0100363 -0.0316924 -0.00372839  0.00652072 -0.0284396 -0.00183439  0.0154103 -0.0825229 -0.00288439  0.024355 -0.0889888 -0.00457144  0.0207364 -0.0662623 -0.00627804  0.0147354 -0.0842919 -0.00201249  0.0130963 -0.0618953 -0.00295091  0.0200155 -0.0677949 -0.00451231  0.0124881 -0.0634607 -0.00206375  0.0175256 -0.129294 -0.00263095  0.0304052 -0.136563 -0.00433993  0.0286728 -0.110031 -0.00620818  0.0167506 -0.131353 -0.00180316  0.0169162 -0.105046 -0.0027616  0.0278661 -0.111953 -0.00448704  0.0161849 -0.10701 -0.00191617  0.0159171 -0.182413 -0.00239062  0.0323954 -0.190283 -0.00394154  0.0327508 -0.16061 -0.00578952  0.0150771 -0.184543 -0.00157428  0.0171965 -0.155119 -0.00250983  0.0319222 -0.162704 -0.00415182  0.0163805 -0.157253 -0.00169086  0.0106122 -0.240835 -0.00216389  0.0303251 -0.249246 -0.00348401  0.0326973 -0.217051 -0.0052731  0.00973898 -0.242894 -0.00135899  0.0137215 -0.210996 -0.00228167  0.0318642 -0.219144 -0.00371909  0.0128573 -0.213121 -0.00147295  0.00179332 -0.303815 -0.00190401  0.0243943 -0.312758 -0.00298333  0.0286426 -0.278492 -0.0047071  0.000933588 -0.305713 -0.0011034  0.00662768 -0.271797 -0.00204134  0.0278276 -0.280476 -0.00324011  0.00575078 -0.273796 -0.00123906  -0.0101985 -0.370531 -0.00158072  0.0149667 -0.380019 -0.00243616  0.0208756 -0.344133 -0.00409317  -0.0110106 -0.37224 -0.000802517  -0.00381994 -0.33673 -0.00175261  0.0201051 -0.345949 -0.00271511  -0.00466377 -0.338552 -0.000964165  -0.0250554 -0.440401 -0.00118113  0.00236571 -0.450435 -0.00183988  0.00974584 -0.413237 -0.00342464  -0.0257856 -0.44191 -0.000426292  -0.0172871 -0.405102 -0.00139093  0.009045 -0.414867 -0.00214434  -0.0180669 -0.406724 -0.000623941  -0.0423849 -0.512783 -0.000707865  -0.0129951 -0.523356 -0.00119925  -0.00436783 -0.485163 -0.00270534  -0.0430207 -0.514105 5.00679e-06  -0.0334245 -0.476293 -0.000953436  -0.00498164 -0.486605 -0.00152373  -0.0341135 -0.477722 -0.000221014  -0.061884 -0.587249 -0.000169039  -0.0307949 -0.598331 -0.000520468  -0.0210901 -0.559348 -0.00194025  -0.0624111 -0.588397 0.000501871  -0.0518799 -0.549776 -0.000445843  -0.0216066 -0.560612 -0.000864506  -0.0524678 -0.551022 0.000246048  -0.0831858 -0.663307 0.000422478  -0.0506406 -0.674858 0.000187397  -0.0400566 -0.635314 -0.00114012  -0.0836077 -0.6643 0.00103712  -0.0723199 -0.625087 0.000119925  -0.0404711 -0.636415 -0.000168324  -0.0727993 -0.62617 0.000761271  -0.106031 -0.740646 0.001055  -0.0722518 -0.752611 0.000916004  -0.0609249 -0.712645 -0.000314951  -0.106345 -0.741499 0.00161839  -0.0944294 -0.701831 0.000734329  -0.0612385 -0.713599 0.000549078  -0.0948027 -0.702764 0.00132275  -0.130097 -0.818883 0.00171947  -0.0952802 -0.831205 0.00165868  -0.0833777 -0.790989 0.000524759  -0.130316 -0.819614 0.00221968  -0.117918 -0.779654 0.00138378  -0.0835944 -0.791811 0.00128746  -0.118189 -0.780459 0.00191307  -0.155174 -0.897791 0.0024066  -0.119496 -0.910406 0.00240922  -0.107123 -0.870038 0.00137329  -0.155297 -0.898413 0.0028522  -0.14252 -0.858262 0.00206089  -0.10725 -0.870742 0.00203252  -0.142696 -0.858949 0.00253272  -0.180983 -0.977067 0.00310993  -0.144599 -0.989918 0.00316262  -0.131894 -0.949527 0.00222206  -0.181028 -0.977594 0.00349188  -0.16799 -0.937381 0.0027566  -0.131939 -0.950128 0.00278711  -0.168079 -0.937969 0.00316739  -0.207362 -1.05655 0.00382352  -0.17041 -1.06958 0.00391412  -0.157451 -1.02923 0.00306726  -0.207332 -1.05699 0.0041523  -0.194109 -1.01679 0.00346613  -0.157423 -1.02974 0.00353813  -0.194122 -1.01728 0.00382066  -0.234082 -1.136 0.00454068  -0.196678 -1.14916 0.00465918  -0.183578 -1.10895 0.00390005  -0.233993 -1.13638 0.00481009  -0.22068 -1.09628 0.00418067  -0.183486 -1.10938 0.00428843  -0.220625 -1.0967 0.00447702  -0.261027 -1.21532 0.0052588  -0.223274 -1.22855 0.00539446  -0.210084 -1.18853 0.00472069  -0.260883 -1.21563 0.0054791  -0.247532 -1.17568 0.00489998  -0.209939 -1.18888 0.00502825  -0.247419 -1.17603 0.0051446  -0.288017 -1.29431 0.00597191  -0.25 -1.30759 0.00611639  -0.236805 -1.26781 0.00552034  -0.287835 -1.29457 0.00613928  -0.274515 -1.25485 0.00561547  -0.236616 -1.26811 0.00575805  -0.274355 -1.25514 0.00580621  -0.314986 -1.37292 0.00667477  -0.276776 -1.38622 0.00682139  -0.263606 -1.3467 0.00630116  -0.314768 -1.37314 0.00680041  -0.301507 -1.33366 0.00632501  -0.263381 -1.34696 0.00647521  -0.301312 -1.33391 0.00647092  -0.341801 -1.45101 0.00736833  -0.30345 -1.46431 0.00751114  -0.290371 -1.4251 0.00705147  -0.341559 -1.4512 0.0074482  -0.328408 -1.41202 0.00702095  -0.290117 -1.42532 0.00716853  -0.328182 -1.41224 0.00712085  -0.368421 -1.52856 0.00804543  -0.329996 -1.54185 0.00817847  -0.317009 -1.50295 0.00778866  -0.368166 -1.52874 0.00808549  -0.355137 -1.48986 0.00770926  -0.316741 -1.50315 0.00785303  -0.354892 -1.49005 0.00776815  -0.394694 -1.60543 0.00871086  -0.356246 -1.61875 0.00881982  -0.343425 -1.58018 0.00849819  -0.394462 -1.60562 0.0087049  -0.3816 -1.56708 0.00838041  -0.343151 -1.58037 0.00851083  -0.381359 -1.56727 0.008394  0.00787954 -0.0198348 -0.00591326  0 0 0  0.0100122 -0.0245565 -0.00538254  0.00355873 -0.0106493 -0.00434685  0 0 0  0.00756392 -0.0204921 -0.00414348  0.00268223 -0.0082351 -0.00338244  0 0 0  0.0034318 -0.0110143 -0.00300312  0.00257382 -0.00855303 -0.0023272  0.021784 -0.0521587 -0.00893188  0.0276227 -0.0595217 -0.00843191  0.0189746 -0.0400757 -0.0101323  0.0210736 -0.053458 -0.00640655  0.0144949 -0.034884 -0.00778461  0.0183668 -0.0411809 -0.0072279  0.0139558 -0.0359008 -0.00552917  0.0353128 -0.0928966 -0.00964475  0.0451661 -0.101304 -0.00939226  0.0376708 -0.0779408 -0.0124972  0.0344432 -0.0946656 -0.00703859  0.028883 -0.0715947 -0.00946784  0.036752 -0.0795881 -0.0091002  0.0280559 -0.0731763 -0.00686216  0.045239 -0.140605 -0.00932074  0.0588561 -0.149576 -0.00920582  0.0535219 -0.122652 -0.0127671  0.0443717 -0.142639 -0.00681043  0.040813 -0.1159 -0.00955153  0.0525829 -0.124626 -0.00938368  0.0399312 -0.117846 -0.00698161  0.0507321 -0.194688 -0.00862885  0.0677971 -0.204078 -0.00853157  0.0648016 -0.173983 -0.0121279  0.0499002 -0.19679 -0.0062654  0.0485502 -0.166891 -0.00900292  0.0639299 -0.176088 -0.00890565  0.0476979 -0.168996 -0.00656009  0.0518024 -0.254245 -0.00779724  0.0719868 -0.264074 -0.00765872  0.0712804 -0.231344 -0.0111246  0.0510058 -0.256291 -0.00558519  0.0518159 -0.223819 -0.00822687  0.0704761 -0.233437 -0.00811148  0.0509957 -0.22592 -0.00593615  0.0486453 -0.318521 -0.00689578  0.0716349 -0.328779 -0.00669646  0.0730987 -0.293901 -0.00996852  0.0478995 -0.320427 -0.00485134  0.0507345 -0.285838 -0.0073545  0.0723574 -0.295891 -0.00718594  0.0499582 -0.287836 -0.00522304  0.0416337 -0.386628 -0.00594807  0.0671215 -0.397357 -0.00569177  0.0705516 -0.360792 -0.00874496  0.0409503 -0.388364 -0.00406551  0.0456059 -0.352127 -0.00642824  0.0698767 -0.362629 -0.00619864  0.0448835 -0.353964 -0.00446343  0.0311134 -0.457921 -0.00496411  0.0588115 -0.469095 -0.00466132  0.064013 -0.431211 -0.00748706  0.0305126 -0.459471 -0.00325441  0.03679 -0.42191 -0.00546074  0.0634143 -0.432873 -0.00517869  0.0361419 -0.423569 -0.00366187  0.0175272 -0.531692 -0.00395393  0.0471572 -0.543325 -0.00361872  0.0538939 -0.504448 -0.00621581  0.0170133 -0.533066 -0.0024066  0.0246874 -0.494517 -0.00446248  0.0533795 -0.505933 -0.00414085  0.0241231 -0.495991 -0.00283313  0.0012269 -0.60747 -0.0029254  0.0325361 -0.619505 -0.00257063  0.0406159 -0.579888 -0.00494146  0.000811338 -0.608673 -0.0015471  0.00969565 -0.569352 -0.0034411  0.0401914 -0.581201 -0.00309443  0.00922549 -0.570654 -0.00197649  -0.0173631 -0.684724 -0.00188923  0.0153847 -0.697145 -0.00152731  0.0245875 -0.657012 -0.00367594  -0.0176851 -0.685775 -0.000666857  -0.00779521 -0.645924 -0.00240779  0.024256 -0.658166 -0.00204754  -0.00817013 -0.647061 -0.00110769  -0.0379314 -0.763127 -0.000854015  -0.00395739 -0.775854 -0.000493765  0.00620472 -0.735378 -0.00242758  -0.0381565 -0.764036 0.000210047  -0.0274171 -0.723795 -0.00137115  0.00596476 -0.736386 -0.00100899  -0.0276955 -0.724788 -0.000226259  -0.0601041 -0.84228 0.00017333  -0.025102 -0.855283 0.000524044  -0.0141692 -0.81462 -0.00120378  -0.0602432 -0.843065 0.00109434  -0.0488271 -0.802615 -0.000339508  -0.0143213 -0.815495 1.78814e-05  -0.0490146 -0.803472 0.000652313  -0.0836251 -0.921959 0.00118613  -0.0477668 -0.935155 0.00152254  -0.0361936 -0.894423 -1.0252e-05  -0.0836797 -0.92263 0.00196457  -0.0717099 -0.882061 0.000682116  -0.0362638 -0.895178 0.00102615  -0.0718112 -0.882802 0.00153303  -0.108173 -1.00186 0.00217867  -0.0716184 -1.01522 0.00249553  -0.0595618 -0.974526 0.00114846  -0.108157 -1.00243 0.00283146  -0.095777 -0.961883 0.0016849  -0.0595578 -0.975174 0.00201297  -0.0958012 -0.962514 0.00239968  -0.133548 -1.08184 0.00314689  -0.0964313 -1.09528 0.0034411  -0.0839918 -1.05471 0.00226617  -0.133464 -1.08232 0.0036757  -0.120768 -1.04184 0.00266576  -0.0839206 -1.05526 0.00297236  -0.120722 -1.04238 0.00325799  -0.159482 -1.16166 0.00408459  -0.121927 -1.17517 0.00435472  -0.109232 -1.13479 0.00333858  -0.159346 -1.16207 0.00451016  -0.146448 -1.12177 0.00361824  -0.109104 -1.13525 0.00390172  -0.146343 -1.12222 0.00409412  -0.185826 -1.24124 0.00499105  -0.147937 -1.25474 0.00523353  -0.135056 -1.21461 0.00436425  -0.185642 -1.24158 0.00531316  -0.172609 -1.20148 0.00454092  -0.13488 -1.215 0.00479865  -0.172453 -1.20186 0.00491667  -0.212367 -1.3204 0.00585651  -0.174232 -1.3339 0.00607085  -0.161269 -1.29405 0.00533485  -0.212148 -1.32068 0.00609899  -0.199071 -1.28086 0.00542641  -0.161055 -1.29437 0.0056572  -0.198875 -1.28118 0.0057075  -0.239014 -1.3991 0.00668502  -0.200691 -1.41255 0.00687408  -0.1877 -1.37301 0.00625014  -0.23876 -1.39934 0.00684786  -0.225681 -1.3598 0.00627613  -0.18745 -1.37329 0.00647855  -0.225449 -1.36008 0.00647974  -0.265601 -1.47722 0.00747919  -0.227153 -1.49064 0.00763869  -0.214203 -1.45142 0.00711274  -0.265331 -1.47743 0.00758433  -0.252312 -1.43822 0.00708413  -0.213926 -1.45167 0.00726128  -0.252055 -1.43846 0.00721645  -0.292085 -1.55477 0.00823808  -0.253575 -1.56815 0.00836039  -0.240664 -1.52924 0.00792718  -0.291805 -1.55498 0.00827384  -0.278855 -1.51606 0.00786138  -0.240377 -1.52947 0.00799847  -0.278587 -1.51628 0.00793576  -0.318312 -1.63169 0.00898385  -0.279798 -1.64512 0.00907755  -0.267004 -1.60647 0.0087111  -0.318024 -1.63191 0.00896955  -0.305232 -1.59329 0.00861144  -0.266713 -1.60669 0.0087173  -0.30495 -1.59351 0.00862527  0.0135373 -0.0291069 -0.00925803  0 0 0  0.0169054 -0.0371284 -0.00763917  0.005831 -0.0185642 -0.0060277  0 0 0  0.0131524 -0.0299632 -0.00654483  0.00454028 -0.0139453 -0.00520945  0 0 0  0.0056931 -0.0190967 -0.0042119  0.00439765 -0.0143973 -0.0036211  0.0361513 -0.0653182 -0.0143123  0.0441963 -0.0753443 -0.0121708  0.0311109 -0.0545604 -0.014395  0.0352907 -0.0668377 -0.0103519  0.0244776 -0.0465559 -0.0123224  0.0304353 -0.0559571 -0.0103457  0.0238237 -0.0477991 -0.00882745  0.0577827 -0.106981 -0.0158591  0.0694251 -0.117296 -0.0138299  0.058347 -0.0936451 -0.0181422  0.0567776 -0.10888 -0.0116529  0.0474511 -0.0853174 -0.0153852  0.0573339 -0.0955161 -0.0132811  0.0464667 -0.0870733 -0.0112388  0.0749581 -0.15522 -0.0156198  0.0900248 -0.165791 -0.0137713  0.0813758 -0.138604 -0.0188723  0.0740196 -0.157297 -0.0115287  0.0669895 -0.130235 -0.0158765  0.0803612 -0.140675 -0.0139394  0.0660056 -0.132263 -0.0117064  0.0870751 -0.210021 -0.0146101  0.105381 -0.220906 -0.012907  0.0992839 -0.19044 -0.0181355  0.0862358 -0.212119 -0.0107458  0.0816578 -0.181835 -0.0151768  0.0983748 -0.192555 -0.0134044  0.0807649 -0.183954 -0.0111902  0.094169 -0.270529 -0.0132718  0.115454 -0.281787 -0.0116844  0.111883 -0.248608 -0.0167441  0.0934118 -0.272558 -0.00969529  0.091245 -0.2396 -0.0139694  0.111079 -0.250669 -0.0123241  0.0904456 -0.24169 -0.0102468  0.0964227 -0.335929 -0.011797  0.120395 -0.34759 -0.0103147  0.119264 -0.312183 -0.015074  0.0957438 -0.337822 -0.00851846  0.0958844 -0.30267 -0.0125468  0.11855 -0.314129 -0.0110133  0.0951611 -0.30465 -0.0091188  0.0942162 -0.405252 -0.0102696  0.120589 -0.417323 -0.00888777  0.121702 -0.380213 -0.0132949  0.0936112 -0.406985 -0.00730276  0.0958596 -0.370136 -0.0110388  0.121071 -0.382007 -0.00960517  0.0952135 -0.371967 -0.00791812  0.0879099 -0.47778 -0.0087285  0.116403 -0.490248 -0.00744915  0.119569 -0.451804 -0.0114863  0.0873899 -0.479337 -0.00605989  0.0915518 -0.441156 -0.00949979  0.11902 -0.45343 -0.00817037  0.0909827 -0.442814 -0.00668383  0.0779834 -0.552747 -0.00719619  0.108336 -0.565584 -0.00601983  0.113302 -0.526188 -0.00968742  0.0775466 -0.554136 -0.00482583  0.0833802 -0.514981 -0.00796151  0.112838 -0.527644 -0.00673199  0.0828966 -0.516468 -0.00544548  0.0648277 -0.629638 -0.00568485  0.0967902 -0.642801 -0.00461411  0.103351 -0.602696 -0.0079205  0.0644833 -0.630861 -0.00359225  0.0717859 -0.590979 -0.00643778  0.102974 -0.603988 -0.00531483  0.0713887 -0.592296 -0.00420856  0.0489136 -0.707893 -0.00420737  0.082262 -0.721333 -0.00323868  0.0901717 -0.680785 -0.00619864  0.0486556 -0.708967 -0.00238705  0.0571986 -0.668607 -0.00494218  0.0898838 -0.681922 -0.00392151  0.0568924 -0.669769 -0.00298977  0.0305966 -0.787163 -0.00276947  0.0651191 -0.800822 -0.00190449  0.0741976 -0.759984 -0.00453115  0.0304288 -0.788097 -0.00119734  0.0400351 -0.747418 -0.00348306  0.0739969 -0.760978 -0.00256777  0.0398164 -0.748432 -0.00178981  0.0102986 -0.867046 -0.00137782  0.0458081 -0.880867 -0.000611067  0.0558398 -0.839923 -0.00292587  0.0102097 -0.867855 -4.57764e-05  0.0206826 -0.827032 -0.00206828  0.0557235 -0.840786 -0.00125027  0.0205491 -0.827916 -0.000620604  -0.011685 -0.947313 -3.76701e-05  0.0246369 -0.961235 0.000633001  0.0354766 -0.920279 -0.0013876  -0.0116943 -0.948006 0.0010798  -0.000499725 -0.907141 -0.000701189  0.0354383 -0.921024 1.62125e-05  -0.000553489 -0.907902 0.000520706  -0.0349926 -1.02767 0.00124717  0.00199056 -1.04164 0.00182796  0.0134561 -1.0008 7.89165e-05  -0.034936 -1.02826 0.00216031  -0.0231822 -0.987478 0.000611782  0.0134909 -1.00144 0.00123763  -0.0231636 -0.988134 0.00162196  -0.0593855 -1.10798 0.00247192  -0.0218847 -1.12194 0.00296688  -0.0099051 -1.08127 0.00147223  -0.0592661 -1.10847 0.00320625  -0.0470662 -1.06783 0.00186753  -0.00980592 -1.08181 0.00240493  -0.046983 -1.06839 0.00268865  -0.0845637 -1.18801 0.00363183  -0.0466635 -1.20194 0.00404882  -0.0343199 -1.16153 0.0027833  -0.0843949 -1.18843 0.0042007  -0.0718818 -1.14802 0.00305843  -0.0341644 -1.16198 0.00351596  -0.0717432 -1.14849 0.00370455  -0.110343 -1.26771 0.00472403  -0.072155 -1.28156 0.00506878  -0.0595315 -1.24142 0.00401449  -0.110131 -1.26806 0.00515294  -0.0973873 -1.22791 0.00418758  -0.0593276 -1.2418 0.00456786  -0.0972009 -1.2283 0.00468326  -0.13648 -1.34691 0.00574517  -0.0980873 -1.36066 0.00602746  -0.0853083 -1.32085 0.00515389  -0.136233 -1.3472 0.00604963  -0.123369 -1.30736 0.00524163  -0.0850656 -1.32117 0.00555658  -0.123145 -1.3077 0.00560212  -0.162843 -1.42559 0.00669312  -0.124319 -1.43922 0.00691533  -0.111446 -1.39974 0.00620675  -0.162562 -1.42584 0.00689936  -0.149639 -1.38631 0.00622725  -0.11117 -1.40001 0.00648093  -0.149379 -1.38659 0.00648117  -0.189239 -1.50366 0.00757384  -0.15064 -1.51719 0.00774622  -0.137768 -1.47805 0.00717163  -0.188941 -1.50388 0.00769377  -0.176035 -1.46469 0.00713873  -0.137469 -1.47828 0.00734496  -0.175751 -1.46494 0.00729752  -0.215619 -1.58116 0.00839782  -0.176993 -1.59465 0.00851488  -0.164123 -1.55576 0.00805044  -0.215314 -1.58136 0.00844264  -0.20243 -1.54247 0.00799084  -0.163807 -1.55597 0.00813508  -0.202137 -1.54269 0.00806522  -0.241848 -1.65813 0.00920391  -0.20323 -1.6716 0.00925374  -0.190438 -1.63294 0.00888681  -0.241551 -1.65834 0.00918317  -0.228751 -1.61968 0.00879812  -0.190115 -1.63316 0.00889134  -0.22845 -1.61991 0.0088017  0.0233683 -0.0459267 -0.0122557  0 0 0  0.0324627 -0.0593578 -0.00980496  0.0125732 -0.0358862 -0.0077939  0 0 0  0.0230327 -0.0471268 -0.00872707  0.00769919 -0.025122 -0.00674772  0 0 0  0.0125775 -0.0368153 -0.0054698  0.0075965 -0.0258064 -0.00473666  0.05553 -0.0829414 -0.0192292  0.0667817 -0.0949231 -0.0157528  0.0507365 -0.0747154 -0.0185633  0.0546507 -0.0848358 -0.0139527  0.039856 -0.0641625 -0.0164335  0.0502421 -0.0766104 -0.0133247  0.0392186 -0.0657932 -0.0118191  0.0841794 -0.124304 -0.0216308  0.0979169 -0.136188 -0.0179935  0.0837493 -0.112383 -0.0235479  0.083111 -0.126417 -0.015934  0.0704012 -0.102727 -0.0208509  0.0827413 -0.114604 -0.0172176  0.0693754 -0.104769 -0.015264  0.107937 -0.172811 -0.021539  0.124817 -0.184834 -0.0180323  0.11312 -0.15729 -0.0246284  0.106931 -0.174965 -0.015934  0.0967263 -0.147634 -0.0217893  0.112022 -0.15953 -0.0181797  0.0956729 -0.149791 -0.0160971  0.126235 -0.228292 -0.0202861  0.146226 -0.240599 -0.0170028  0.13726 -0.209694 -0.0237799  0.125344 -0.230391 -0.0149927  0.117784 -0.199721 -0.021008  0.136252 -0.211864 -0.0175867  0.116834 -0.201868 -0.0155392  0.139028 -0.289743 -0.0185156  0.161882 -0.302449 -0.0154855  0.155681 -0.268769 -0.0220456  0.138237 -0.291733 -0.0136135  0.133322 -0.258319 -0.0194433  0.154775 -0.270813 -0.0162644  0.13248 -0.26038 -0.0143356  0.146424 -0.356231 -0.0165296  0.171864 -0.369319 -0.0137651  0.168375 -0.33342 -0.0199251  0.145727 -0.358075 -0.0120642  0.143385 -0.322417 -0.0175395  0.167573 -0.335319 -0.0146241  0.14264 -0.324349 -0.0128515  0.148798 -0.426686 -0.0144715  0.176519 -0.440177 -0.0119646  0.175548 -0.402574 -0.0176542  0.148182 -0.428365 -0.0104399  0.148221 -0.391008 -0.0155056  0.17483 -0.4043 -0.0128512  0.147561 -0.39278 -0.0112553  0.146511 -0.500325 -0.0124104  0.176252 -0.514148 -0.0101576  0.177601 -0.475267 -0.0153468  0.145984 -0.501835 -0.00881457  0.14821 -0.463154 -0.0134397  0.176975 -0.476826 -0.0110443  0.147635 -0.46476 -0.00962543  0.140081 -0.576329 -0.0103831  0.17157 -0.590469 -0.0083704  0.174969 -0.550671 -0.013063  0.139637 -0.577672 -0.00719929  0.143791 -0.538064 -0.0113921  0.174428 -0.552054 -0.00924277  0.143301 -0.539499 -0.008003  0.129924 -0.654151 -0.00840783  0.162939 -0.668516 -0.00662732  0.168166 -0.628089 -0.0108328  0.129573 -0.655336 -0.00562453  0.135439 -0.615044 -0.00938869  0.167718 -0.629317 -0.007478  0.135038 -0.616319 -0.00640535  0.116565 -0.733206 -0.00649929  0.150871 -0.747766 -0.00493431  0.157657 -0.706948 -0.00867629  0.116299 -0.734243 -0.00408459  0.123622 -0.693545 -0.00744557  0.1573 -0.708019 -0.00575686  0.12331 -0.694664 -0.00484776  0.100387 -0.813137 -0.00466633  0.135801 -0.827797 -0.00330806  0.143947 -0.786774 -0.00660539  0.100213 -0.81404 -0.00260496  0.108802 -0.773082 -0.00557375  0.143683 -0.787714 -0.00409865  0.108578 -0.774063 -0.00333714  0.0818682 -0.893534 -0.00291562  0.118189 -0.908262 -0.00174522  0.127458 -0.867188 -0.00462937  0.0817705 -0.894314 -0.00117302  0.0914015 -0.853289 -0.00378084  0.127281 -0.867995 -0.00250196  0.0912621 -0.854137 -0.00188112  0.0613257 -0.974178 -0.00125027  0.0984033 -0.98888 -0.000260353  0.108635 -0.947875 -0.00275326  0.0613099 -0.974847 0.000189304  0.0718268 -0.933838 -0.00207281  0.108542 -0.948574 -0.000979424  0.0717672 -0.934572 -0.000482798  0.0391726 -1.05478 0.000323772  0.0768385 -1.06943 0.00115275  0.0878325 -1.02859 -0.000982761  0.0392227 -1.05534 0.00149751  0.0504352 -1.01449 -0.000452518  0.0878162 -1.02918 0.000471115  0.0504495 -1.01511 0.000851631  0.0156641 -1.1352 0.00180435  0.053797 -1.14973 0.00248384  0.0654256 -1.10912 0.000679493  0.0157814 -1.13568 0.00272894  0.0275691 -1.09502 0.00107646  0.0654798 -1.10962 0.00184131  0.0276494 -1.09555 0.00212407  -0.00884986 -1.21526 0.0031867  0.0296082 -1.22964 0.00373387  0.0417068 -1.18932 0.00223064  -0.00868368 -1.21566 0.00390029  0.00352192 -1.17528 0.00250816  0.0418234 -1.18974 0.00313497  0.00366044 -1.17572 0.00332451  -0.034173 -1.29488 0.00446701  0.00451756 -1.30907 0.0048933  0.0169864 -1.26907 0.00366187  -0.0339563 -1.29522 0.00498748  -0.0214255 -1.25513 0.00383997  0.0171568 -1.26942 0.00433898  -0.0212369 -1.2555 0.00445533  -0.060009 -1.37395 0.00563622  -0.0211995 -1.38793 0.00596142  -0.00849867 -1.34828 0.0049715  -0.0597596 -1.37422 0.00600338  -0.047034 -1.33448 0.00506544  -0.00828028 -1.34857 0.00545645  -0.0468049 -1.33479 0.00550675  -0.0862145 -1.45244 0.00669503  -0.0473547 -1.46622 0.0069344  -0.034493 -1.42691 0.00614905  -0.0859241 -1.45268 0.00693035  -0.0730762 -1.41326 0.00618148  -0.0342429 -1.42715 0.00646782  -0.072814 -1.41353 0.00647902  -0.112541 -1.53033 0.00766182  -0.0737059 -1.54395 0.00782084  -0.0608141 -1.50493 0.00719166  -0.112234 -1.53055 0.00779676  -0.0993719 -1.49146 0.00719023  -0.0605237 -1.50515 0.00739765  -0.0990713 -1.49169 0.00737572  -0.138906 -1.6077 0.0085268  -0.100124 -1.62118 0.00860023  -0.087229 -1.58239 0.00814033  -0.138606 -1.60792 0.00857568  -0.125722 -1.56907 0.00810361  -0.0869048 -1.58263 0.00825405  -0.125417 -1.56929 0.00819397  -0.165214 -1.6846 0.00937366  -0.12651 -1.69804 0.00933814  -0.113627 -1.6594 0.00900769  -0.164902 -1.68482 0.00935268  -0.152059 -1.64618 0.00894189  -0.113334 -1.65964 0.00906253  -0.151766 -1.64642 0.008955  -0.0343468 -0.0344089 0.0243771  -0.0152308 -0.0198559 0.0174582  0 0 0  -0.02129 -0.01992 0.0264597  0 0 0  -0.0135245 -0.0159904 0.0171564  -0.00501003 -0.00462321 0.0122926  0 0 0  -0.0155369 -0.021312 0.0138426  -0.0211738 -0.0237404 0.0206015  -0.00746264 -0.00942855 0.0143149  0 0 0  -0.00476794 -0.00626909 0.00957561  -0.00718049 -0.0110997 0.0113931  -0.0699006 -0.0541816 0.0369925  -0.051315 -0.037265 0.0408182  -0.0528124 -0.041477 0.0396278  -0.0388077 -0.0418277 0.0269203  -0.0263214 -0.0239665 0.0291181  -0.0519609 -0.0431239 0.0319808  -0.0525531 -0.0474368 0.0318151  -0.0370492 -0.0298287 0.0347519  -0.025555 -0.0282453 0.023016  -0.0366862 -0.0348691 0.0273707  -0.105443 -0.0810407 0.0403724  -0.0871192 -0.0596129 0.0485427  -0.0832791 -0.0709769 0.0418975  -0.0656738 -0.0738681 0.029563  -0.0522994 -0.0515415 0.0350688  -0.0877295 -0.0666038 0.0395677  -0.0839906 -0.0770031 0.0348365  -0.0681969 -0.0550926 0.041579  -0.0522434 -0.0568879 0.0288465  -0.0683451 -0.0612504 0.0340748  -0.140222 -0.115692 0.0385027  -0.121648 -0.091103 0.0477097  -0.113309 -0.108962 0.0395293  -0.0926346 -0.113232 0.0283911  -0.0779766 -0.0874996 0.0348001  -0.122961 -0.0974675 0.0398493  -0.114985 -0.114234 0.0333438  -0.0982836 -0.0890201 0.0410676  -0.079106 -0.0926757 0.0292587  -0.0995343 -0.0947404 0.0344348  -0.174066 -0.157224 0.0345747  -0.155355 -0.130434 0.0434525  -0.143515 -0.153728 0.0353754  -0.120018 -0.159034 0.0255983  -0.104275 -0.130895 0.0319397  -0.157272 -0.135695 0.0366836  -0.14574 -0.158083 0.0300212  -0.128375 -0.130583 0.0375676  -0.106263 -0.135395 0.0270965  -0.130388 -0.135419 0.0318091  -0.207138 -0.204587 0.0301437  -0.188497 -0.176033 0.0381675  -0.173942 -0.203931 0.0308466  -0.147882 -0.210178 0.0224242  -0.131518 -0.180213 0.0282185  -0.1907 -0.180273 0.0323822  -0.17637 -0.207458 0.0262332  -0.158696 -0.178196 0.0331087  -0.133882 -0.18399 0.024018  -0.161071 -0.182154 0.0281384  -0.239599 -0.256865 0.0259483  -0.221177 -0.226826 0.0329583  -0.204512 -0.25867 0.0265751  -0.176191 -0.265851 0.0193412  -0.159506 -0.234405 0.0244722  -0.223446 -0.230171 0.0280075  -0.206907 -0.2615 0.0226114  -0.189204 -0.230765 0.0286605  -0.161981 -0.237484 0.0208466  -0.19165 -0.233946 0.0243876  -0.271647 -0.313422 0.0222325  -0.253518 -0.281985 0.0282607  -0.235179 -0.317303 0.0228038  -0.204871 -0.325397 0.0166535  -0.188123 -0.292635 0.0210578  -0.255678 -0.284672 0.0240424  -0.237411 -0.319588 0.0194142  -0.219827 -0.287512 0.0246222  -0.190477 -0.295168 0.0179455  -0.222166 -0.290085 0.0209584  -0.303366 -0.373682 0.0190754  -0.285575 -0.340991 0.0241964  -0.265893 -0.37936 0.0195718  -0.233884 -0.388341 0.0143368  -0.217166 -0.354418 0.0180993  -0.287553 -0.343124 0.0205994  -0.26789 -0.381207 0.0166883  -0.250523 -0.347919 0.0211229  -0.219335 -0.356465 0.0154436  -0.252655 -0.34999 0.0179996  -0.334858 -0.437232 0.016408  -0.317409 -0.403341 0.0207384  -0.296636 -0.444429 0.0168431  -0.263162 -0.454236 0.0124469  -0.246582 -0.41924 0.0155904  -0.319149 -0.405095 0.0177011  -0.298377 -0.445938 0.0144105  -0.281253 -0.411522 0.0181482  -0.248483 -0.420941 0.0133433  -0.283138 -0.413221 0.0155005  -0.366115 -0.503637 0.0141923  -0.349023 -0.468697 0.0178187  -0.327356 -0.512156 0.0145497  -0.292662 -0.522723 0.010859  -0.276229 -0.486798 0.0134959  -0.350524 -0.470103 0.0152609  -0.328836 -0.513385 0.0125172  -0.311992 -0.477971 0.0156467  -0.277885 -0.488173 0.0116115  -0.313614 -0.479351 0.0134254  -0.397168 -0.572563 0.0123296  -0.380422 -0.536649 0.0153527  -0.358021 -0.58219 0.0126309  -0.322297 -0.593426 0.00959778  -0.306074 -0.556662 0.0117514  -0.381679 -0.537826 0.013236  -0.359255 -0.583198 0.0109551  -0.342688 -0.546886 0.0135458  -0.307456 -0.557816 0.0101912  -0.344059 -0.548029 0.0116999  -0.427952 -0.643631 0.0107996  -0.411569 -0.606913 0.0132785  -0.38856 -0.654214 0.0110312  -0.352004 -0.666033 0.00854778  -0.335986 -0.628583 0.0103157  -0.412603 -0.607849 0.0115383  -0.389562 -0.65503 0.00967097  -0.373301 -0.617963 0.0117941  -0.337143 -0.629507 0.00904131  -0.374428 -0.618887 0.0102859  -0.458463 -0.716547 0.00952458  -0.442434 -0.679109 0.0115385  -0.418925 -0.727907 0.00971365  -0.381686 -0.74021 0.00774884  -0.365925 -0.702165 0.0091393  -0.443255 -0.679896 0.0101473  -0.419717 -0.72857 0.0086329  -0.403757 -0.690852 0.0103383  -0.366843 -0.702943 0.00811958  -0.404668 -0.691617 0.00912523  -0.488618 -0.790968 0.00851059  -0.472962 -0.752978 0.010098  -0.449035 -0.802981 0.00864363  -0.411271 -0.815681 0.0071032  -0.395761 -0.777192 0.00819921  -0.473595 -0.753586 0.00899935  -0.449635 -0.803505 0.00780749  -0.434006 -0.76528 0.00914955  -0.396491 -0.777797 0.00740075  -0.434712 -0.765886 0.00820017  -0.518404 -0.866632 0.00769973  -0.503112 -0.82817 0.00892258  -0.478844 -0.879146 0.00780654  -0.440666 -0.89215 0.00666833  -0.425453 -0.853296 0.00746536  -0.50357 -0.82868 0.00809598  -0.479275 -0.879561 0.00718284  -0.463969 -0.840925 0.00819635  -0.425986 -0.853806 0.00686073  -0.464499 -0.841422 0.00747323  -0.547744 -0.943232 0.00711608  -0.532832 -0.904457 0.00800157  -0.508279 -0.956143 0.00718188  -0.46981 -0.969376 0.00635648  -0.454884 -0.9303 0.00693011  -0.533139 -0.904829 0.00739384  -0.508556 -0.95646 0.00673819  -0.493602 -0.917546 0.00746918  -0.455269 -0.930678 0.00649047  -0.493966 -0.917926 0.00694418  -0.57664 -1.02054 0.00670695  -0.562087 -0.981517 0.00731254  -0.53731 -1.03372 0.00676107  -0.498631 -1.0471 0.00623155  -0.484027 -1.00787 0.00657225  -0.562259 -0.981831 0.00690532  -0.537458 -1.03396 0.0064683  -0.522835 -0.994855 0.00694585  -0.484254 -1.00819 0.0062716  -0.523063 -0.995163 0.00658441  -0.605037 -1.09829 0.00650382  -0.590849 -1.05916 0.0068481  -0.565888 -1.11166 0.00653028  -0.527094 -1.12514 0.0062108  -0.512787 -1.08587 0.00638843  -0.590909 -1.05937 0.00659251  -0.565922 -1.11184 0.00635982  -0.551647 -1.07265 0.00662208  -0.512905 -1.08609 0.00620055  -0.551749 -1.07287 0.00639939  -0.63297 -1.1763 0.00646114  -0.619106 -1.13711 0.00659943  -0.59401 -1.18975 0.00648832  -0.555155 -1.20325 0.00636244  -0.541166 -1.164 0.00636458  -0.61907 -1.13729 0.00647736  -0.593957 -1.18988 0.0064106  -0.579993 -1.15068 0.00648594  -0.541165 -1.1642 0.00626564  -0.579999 -1.15086 0.00636792  -0.660422 -1.25433 0.00660992  -0.646863 -1.21521 0.00656366  -0.621666 -1.2678 0.00662017  -0.582816 -1.2813 0.00659943  -0.569097 -1.24216 0.00649905  -0.64676 -1.21532 0.00652623  -0.621545 -1.2679 0.00660563  -0.607884 -1.22878 0.00653458  -0.569031 -1.24229 0.00646353  -0.607808 -1.22891 0.00649714  -0.687493 -1.33224 0.00688648  -0.674158 -1.29322 0.00672054  -0.648903 -1.34566 0.00690556  -0.610075 -1.35912 0.00697446  -0.596623 -1.32012 0.00676537  -0.674011 -1.29332 0.00674796  -0.648744 -1.34574 0.00692725  -0.635321 -1.30674 0.00674534  -0.596483 -1.32025 0.00677109  -0.635195 -1.30686 0.00675464  -0.714256 -1.40987 0.00728869  -0.701071 -1.37103 0.00704455  -0.675781 -1.42321 0.00729442  -0.636994 -1.43662 0.00737429  -0.623726 -1.39783 0.00714064  -0.700911 -1.37109 0.0070889  -0.675605 -1.42328 0.00732875  -0.662369 -1.38447 0.00709152  -0.623568 -1.39791 0.00716662  -0.662212 -1.38456 0.00712657  -0.740921 -1.48723 0.0076921  -0.727762 -1.4485 0.00745773  -0.702478 -1.50045 0.00770164  -0.663694 -1.51377 0.0078125  -0.65053 -1.47513 0.00755692  -0.7276 -1.4486 0.00750828  -0.702309 -1.50052 0.0077424  -0.689125 -1.46185 0.00750136  -0.650347 -1.47524 0.00759411  -0.688971 -1.46195 0.00753975  -0.00977748 -0.00936936 0.0179944  0 0 0  -0.00632769 -0.0100058 0.0111086  -0.00233627 -0.00143963 0.0079155  0 0 0  -0.00941926 -0.0120128 0.0140488  -0.00334695 -0.00239371 0.00999641  0 0 0  -0.00219152 -0.00275266 0.00611353  -0.00310603 -0.00390096 0.00775456  -0.0286882 -0.033491 0.0274186  -0.0194987 -0.035459 0.0176811  -0.0127001 -0.0182566 0.0188682  -0.0281607 -0.0377757 0.0222099  -0.0186916 -0.0201527 0.0238354  -0.0122524 -0.021418 0.0150342  -0.018035 -0.0237861 0.018918  -0.049472 -0.0668953 0.0292931  -0.0362924 -0.0705364 0.0196128  -0.027601 -0.0478403 0.0230024  -0.0499732 -0.0716866 0.0245297  -0.0389988 -0.0491048 0.0289204  -0.0276257 -0.0520037 0.0190639  -0.0389199 -0.0537797 0.0238805  -0.071238 -0.108268 0.0278003  -0.0548376 -0.113036 0.018899  -0.0443636 -0.0865554 0.0229764  -0.072759 -0.11278 0.0235834  -0.0601819 -0.0866582 0.0287998  -0.0453702 -0.090925 0.0194502  -0.0612451 -0.0913772 0.0242946  -0.0944502 -0.15626 0.0249968  -0.0749694 -0.161853 0.0170965  -0.0629475 -0.132642 0.021168  -0.0965726 -0.160224 0.0213146  -0.0826593 -0.131519 0.02649  -0.0647021 -0.136723 0.0180714  -0.0845322 -0.135783 0.0225368  -0.119063 -0.209595 0.0218749  -0.0966638 -0.215927 0.0149927  -0.0834817 -0.184699 0.01875  -0.121428 -0.212927 0.0186746  -0.106585 -0.182323 0.0234432  -0.0856233 -0.188288 0.0160539  -0.108872 -0.185975 0.0200038  -0.144888 -0.267302 0.0189033  -0.119819 -0.274403 0.0129747  -0.105819 -0.241594 0.0162914  -0.147246 -0.270085 0.0161486  -0.13184 -0.23794 0.0203595  -0.108069 -0.244657 0.0139632  -0.134224 -0.240997 0.0173833  -0.171662 -0.328719 0.0162723  -0.144222 -0.3366 0.0112026  -0.129696 -0.30249 0.0140474  -0.173874 -0.331002 0.0139127  -0.158159 -0.297576 0.0175421  -0.131872 -0.305067 0.0120547  -0.160464 -0.300106 0.0149896  -0.19922 -0.393312 0.0140309  -0.169714 -0.401988 0.00972557  -0.154841 -0.366765 0.0121186  -0.201208 -0.395213 0.0120344  -0.185354 -0.360637 0.0151067  -0.156843 -0.36892 0.0104303  -0.187461 -0.362728 0.0129306  -0.227368 -0.460687 0.0121608  -0.196089 -0.470117 0.00853038  -0.181021 -0.433931 0.0105093  -0.229109 -0.462242 0.0104821  -0.213219 -0.426672 0.0130527  -0.182797 -0.435731 0.00909519  -0.215092 -0.428399 0.0112188  -0.256006 -0.530447 0.0106227  -0.22322 -0.540595 0.00758958  -0.208034 -0.503581 0.00920343  -0.257489 -0.531748 0.00923324  -0.241635 -0.495282 0.0113554  -0.20957 -0.505082 0.00803232  -0.243247 -0.496712 0.00982237  -0.284974 -0.602278 0.00936723  -0.25092 -0.613064 0.00686431  -0.235708 -0.575347 0.00815749  -0.286216 -0.603335 0.0082283  -0.270446 -0.566121 0.00996232  -0.237004 -0.576598 0.00720263  -0.271814 -0.567301 0.00870109  -0.31419 -0.67583 0.00835896  -0.27908 -0.68719 0.00632524  -0.263883 -0.648897 0.007339  -0.315201 -0.676714 0.00744796  -0.299559 -0.63885 0.00883651  -0.264952 -0.649936 0.00657415  -0.300684 -0.639825 0.00781178  -0.343506 -0.750833 0.00756431  -0.307526 -0.762671 0.00594568  -0.292414 -0.723918 0.00671482  -0.344311 -0.751537 0.00684619  -0.328832 -0.713167 0.00793648  -0.293271 -0.724777 0.00611639  -0.329744 -0.713964 0.00712442  -0.372851 -0.826968 0.0069623  -0.336164 -0.839218 0.00570798  -0.321164 -0.800121 0.00626636  -0.373464 -0.827552 0.00641775  -0.358183 -0.788767 0.00724292  -0.32183 -0.800826 0.00581121  -0.35889 -0.789418 0.00661063  -0.402089 -0.904001 0.00653315  -0.364836 -0.916569 0.00559616  -0.350007 -0.877233 0.00596881  -0.402534 -0.90445 0.00613165  -0.38748 -0.865386 0.00672698  -0.350498 -0.877806 0.00563645  -0.388013 -0.865907 0.0062561  -0.431167 -0.981651 0.00626659  -0.39347 -0.994481 0.00560141  -0.378828 -0.955006 0.00581503  -0.431459 -0.982022 0.00599122  -0.416655 -0.942755 0.00638247  -0.379165 -0.955467 0.00558615  -0.417022 -0.943172 0.00604296  -0.459971 -1.05973 0.0061481  -0.421936 -1.07274 0.0057137  -0.407526 -1.03321 0.00578809  -0.460134 -1.06 0.00597048  -0.445598 -1.02065 0.00618958  -0.407725 -1.03358 0.00564432  -0.445829 -1.02097 0.00596452  -0.488476 -1.13799 0.00617361  -0.450194 -1.15113 0.0059247  -0.436015 -1.11164 0.00588536  -0.488523 -1.13821 0.00607896  -0.474266 -1.09884 0.00614548  -0.436096 -1.11193 0.00580835  -0.474369 -1.09909 0.00600839  -0.516596 -1.21628 0.0063293  -0.478142 -1.2295 0.00622749  -0.464224 -1.1901 0.00609064  -0.516554 -1.21644 0.00629163  -0.502576 -1.17714 0.00623608  -0.464205 -1.19033 0.00606465  -0.502583 -1.17733 0.00617123  -0.54434 -1.29441 0.00660825  -0.505776 -1.30769 0.00660992  -0.492099 -1.26844 0.00640273  -0.544225 -1.29455 0.00661325  -0.530517 -1.25537 0.00645757  -0.492002 -1.26862 0.00641108  -0.530437 -1.25552 0.00643969  -0.57166 -1.37229 0.00697923  -0.533032 -1.38557 0.00705099  -0.519605 -1.34653 0.00679445  -0.571501 -1.37238 0.00700474  -0.558042 -1.33339 0.00678372  -0.519448 -1.34667 0.00682402  -0.557909 -1.33351 0.0067997  -0.598619 -1.44978 0.00740814  -0.559955 -1.46306 0.00752354  -0.546725 -1.42425 0.00724721  -0.598434 -1.44988 0.00745058  -0.585184 -1.41108 0.00719285  -0.546535 -1.42437 0.00728726  -0.585009 -1.41118 0.00722313  -0.62528 -1.52686 0.00783348  -0.586566 -1.54005 0.00799417  -0.573486 -1.50151 0.00770926  -0.625094 -1.52693 0.00788498  -0.611963 -1.48837 0.0076251  -0.573288 -1.50162 0.00776029  -0.611786 -1.48847 0.00767088  -0.00390962 -0.00732031 0.0103769  0 0 0  -0.00169199 -0.00948653 0.00534868  -0.000599541 -0.00149852 0.00367618  0 0 0  -0.0038178 -0.00933096 0.0081923  -0.00135574 -0.00123081 0.00576425  0 0 0  -0.000588953 -0.00249341 0.00290012  -0.00128017 -0.00238049 0.00448871  -0.0124641 -0.0312371 0.0160844  -0.00606804 -0.0349054 0.00876904  -0.00345591 -0.0181294 0.00905371  -0.0123752 -0.0345778 0.0131748  -0.00777555 -0.017691 0.0138814  -0.00350675 -0.0206723 0.00735188  -0.00756356 -0.020504 0.0111463  -0.0236697 -0.0664168 0.0174437  -0.0133592 -0.0713729 0.00996661  -0.00893924 -0.0485339 0.0113959  -0.0242864 -0.0704208 0.0147381  -0.0177851 -0.0476649 0.0171173  -0.00937083 -0.0520261 0.00959086  -0.0180086 -0.0514402 0.0142741  -0.0371444 -0.109991 0.0166733  -0.0233352 -0.115868 0.00972295  -0.0169596 -0.0888503 0.0115907  -0.0385171 -0.114028 0.0142763  -0.0301166 -0.0872678 0.0172217  -0.0180154 -0.0927309 0.00995779  -0.0311328 -0.0913608 0.0146618  -0.0530248 -0.160267 0.015029  -0.0359384 -0.166842 0.0088172  -0.0277407 -0.136797 0.010741  -0.0548887 -0.164023 0.012929  -0.0447754 -0.134376 0.0159123  -0.0293076 -0.140617 0.00931454  -0.0464379 -0.138306 0.0136621  -0.0712504 -0.215969 0.0131595  -0.0510684 -0.223103 0.0077219  -0.0413361 -0.190848 0.0095017  -0.0733253 -0.219265 0.0113454  -0.0618567 -0.187502 0.0141006  -0.0431879 -0.194357 0.00827384  -0.0638531 -0.191046 0.0121465  -0.0916073 -0.276085 0.0113721  -0.0685798 -0.283826 0.00667405  -0.0576007 -0.249848 0.00822401  -0.0936926 -0.278937 0.00981712  -0.0811749 -0.245523 0.0122473  -0.0595361 -0.25295 0.00718474  -0.0832815 -0.248599 0.010565  -0.113775 -0.339877 0.00980854  -0.0881825 -0.34822 0.00578737  -0.0762511 -0.312906 0.00707269  -0.115741 -0.34228 0.00849819  -0.102483 -0.307554 0.0105598  -0.078127 -0.31559 0.00620747  -0.104518 -0.310185 0.00913215  -0.137479 -0.406744 0.00850844  -0.109635 -0.415753 0.00509453  -0.096959 -0.379325 0.00612378  -0.139257 -0.408789 0.00741315  -0.125446 -0.372954 0.00912714  -0.0986887 -0.381622 0.00541782  -0.12733 -0.375174 0.00792742  -0.162431 -0.476236 0.00746799  -0.132625 -0.485869 0.00459504  -0.119404 -0.44855 0.00538492  -0.163988 -0.477938 0.00657201  -0.149812 -0.441181 0.00795722  -0.120942 -0.450504 0.00482106  -0.15148 -0.443058 0.00696754  -0.188423 -0.547924 0.00666189  -0.156943 -0.558195 0.00426793  -0.143298 -0.520119 0.00485158  -0.189754 -0.54937 0.00593495  -0.175305 -0.511824 0.00703883  -0.144626 -0.521776 0.00441289  -0.176754 -0.513397 0.00623035  -0.215224 -0.621475 0.00605965  -0.182313 -0.632299 0.0040915  -0.168382 -0.593636 0.00449252  -0.216332 -0.622668 0.0054884  -0.201732 -0.584481 0.00633669  -0.169499 -0.595036 0.0041616  -0.202949 -0.585806 0.0056932  -0.242672 -0.696536 0.00563312  -0.208567 -0.70789 0.00404024  -0.194422 -0.668747 0.00429153  -0.243573 -0.697547 0.0051887  -0.228873 -0.658833 0.00582695  -0.195336 -0.669924 0.0040524  -0.229881 -0.659934 0.0053215  -0.270571 -0.772832 0.00535965  -0.23546 -0.784612 0.00409913  -0.221209 -0.745132 0.00421762  -0.271278 -0.773651 0.00503206  -0.256573 -0.734541 0.00547767  -0.221933 -0.746118 0.00405526  -0.257374 -0.735463 0.00509691  -0.298792 -0.850057 0.00522041  -0.262858 -0.862231 0.00424981  -0.248551 -0.822502 0.00426364  -0.299324 -0.850747 0.0049839  -0.284646 -0.811342 0.00527573  -0.2491 -0.823322 0.00416565  -0.285269 -0.812096 0.00499558  -0.327162 -0.927985 0.00520134  -0.290548 -0.940447 0.0044837  -0.276273 -0.900593 0.00440216  -0.327535 -0.928528 0.00504875  -0.312964 -0.888942 0.00519586  -0.276664 -0.90127 0.00435495  -0.313414 -0.889566 0.00500584  -0.355581 -1.00635 0.00529218  -0.318431 -1.01908 0.00479054  -0.304217 -0.979166 0.00463629  -0.355816 -1.00681 0.00519943  -0.341368 -0.967125 0.00523496  -0.304468 -0.97972 0.00462985  -0.341676 -0.967624 0.00511408  -0.38391 -1.08498 0.00548244  -0.346328 -1.09787 0.005162  -0.332246 -1.05801 0.00494432  -0.384023 -1.08533 0.005445  -0.36976 -1.04564 0.00537395  -0.332372 -1.05846 0.00496697  -0.369932 -1.04605 0.00531411  -0.412084 -1.16365 0.00576496  -0.374179 -1.17669 0.00559282  -0.360239 -1.13692 0.00532818  -0.412095 -1.16394 0.00576067  -0.398017 -1.12432 0.00561404  -0.360259 -1.13728 0.00537181  -0.398082 -1.12464 0.00559425  -0.439997 -1.24223 0.00612998  -0.401841 -1.25534 0.006073  -0.388095 -1.21575 0.00577021  -0.439921 -1.24244 0.00615525  -0.426075 -1.20296 0.00593662  -0.388026 -1.21604 0.00582457  -0.426039 -1.20321 0.0059514  -0.467619 -1.32055 0.00656724  -0.429295 -1.33374 0.00659561  -0.415733 -1.29435 0.00627232  -0.467477 -1.32074 0.00660181  -0.453844 -1.28143 0.00634265  -0.415592 -1.29458 0.00633097  -0.453737 -1.28163 0.00637293  -0.494877 -1.39853 0.00705338  -0.456433 -1.41172 0.00714421  -0.443088 -1.3726 0.00681067  -0.494689 -1.39866 0.00709844  -0.481292 -1.35959 0.00680518  -0.442893 -1.37278 0.00686526  -0.481124 -1.35975 0.00684834  -0.521783 -1.47604 0.0075624  -0.48327 -1.48925 0.00770116  -0.470114 -1.4504 0.00737524  -0.521573 -1.47617 0.00760603  -0.508371 -1.43735 0.00730944  -0.469884 -1.45055 0.00742364  -0.508173 -1.43748 0.00735211  -0.548309 -1.55297 0.00805736  -0.509734 -1.56611 0.00824618  -0.49677 -1.52762 0.00793314  -0.548118 -1.55309 0.00811148  -0.535089 -1.51459 0.00781417  -0.496533 -1.52776 0.00797486  -0.534879 -1.51471 0.007864  0.000472039 -0.00864384 0.00299644  0 0 0  0.00217246 -0.0115992 -0.000254631  0.000835799 -0.00290763 -0.000512838  0 0 0  0.000291184 -0.0102756 0.0025208  0.000142105 -0.00206313 0.00156641  0 0 0  0.00072547 -0.0037221 -0.000264883  9.70066e-05 -0.00296873 0.00130653  0.000191718 -0.0333875 0.00517678  0.00530341 -0.0384536 0.000161171  0.00436383 -0.0213491 -0.000374079  -0.000261262 -0.0362279 0.00440669  0.000546142 -0.0193884 0.00427389  0.00381611 -0.0235492 -8.08239e-05  0.000239611 -0.0217368 0.00358987  -0.0022895 -0.0697327 0.00599504  0.00661951 -0.0761973 0.00064373  0.00716913 -0.0530677 0.000246048  -0.00317857 -0.0733017 0.0052495  -0.000731081 -0.0503543 0.00573874  0.00628802 -0.0562115 0.000443459  -0.00138357 -0.0536469 0.00495458  -0.00765049 -0.114779 0.00587177  0.00489676 -0.122093 0.000799417  0.00736523 -0.0946305 0.000581503  -0.00898191 -0.118539 0.00521493  -0.00457874 -0.0913053 0.00601768  0.00617239 -0.0982489 0.000760078  -0.0057067 -0.0950325 0.00530529  -0.0161901 -0.166695 0.00528193  -0.000243008 -0.174577 0.000711203  0.00421059 -0.143912 0.000575066  -0.017827 -0.170335 0.00473976  -0.0115223 -0.139964 0.00561213  0.00275797 -0.14759 0.000774384  -0.0130244 -0.143704 0.00500584  -0.0278727 -0.224177 0.00455689  -0.00876111 -0.232496 0.000536919  -0.0024876 -0.199433 0.000397205  -0.0296426 -0.22748 0.00411439  -0.0216419 -0.194809 0.00492358  -0.00408661 -0.202914 0.000624895  -0.0233711 -0.198298 0.00442886  -0.042492 -0.286192 0.00387025  -0.020478 -0.294961 0.000396252  -0.012608 -0.260052 0.000202417  -0.044257 -0.289131 0.00353456  -0.0348368 -0.254666 0.00420284  -0.0142376 -0.26321 0.000458479  -0.0366164 -0.257798 0.00381136  -0.0597034 -0.35194 0.00331688  -0.0350645 -0.361177 0.000346661  -0.0258652 -0.324843 7.70092e-05  -0.0613651 -0.354477 0.00306821  -0.0507878 -0.318643 0.00357437  -0.0274299 -0.327639 0.000357389  -0.0525162 -0.321381 0.00328255  -0.0791775 -0.420751 0.00292516  -0.0522118 -0.430504 0.00041461  -0.0419024 -0.393046 6.77109e-05  -0.0806808 -0.422951 0.00276399  -0.0691813 -0.38599 0.00310135  -0.0433397 -0.395486 0.000367403  -0.0707667 -0.388363 0.00289536  -0.100553 -0.492106 0.00269699  -0.071546 -0.502372 0.000595331  -0.0603487 -0.464037 0.000179052  -0.101867 -0.49397 0.00260139  -0.0896393 -0.45614 0.00279117  -0.0616225 -0.466148 0.000491381  -0.0910562 -0.45817 0.00266361  -0.123544 -0.565533 0.00261641  -0.0927762 -0.576316 0.000880003  -0.08085 -0.537292 0.000409842  -0.124663 -0.567139 0.00258493  -0.111866 -0.528577 0.00264025  -0.0819438 -0.539109 0.0007267  -0.113081 -0.530316 0.00257516  -0.147844 -0.640663 0.00266695  -0.115564 -0.651916 0.00125098  -0.103078 -0.612374 0.000739813  -0.148767 -0.642007 0.00267744  -0.135538 -0.602908 0.00262666  -0.103989 -0.613929 0.001055  -0.136564 -0.604381 0.00261712  -0.173226 -0.717128 0.00282526  -0.139668 -0.72882 0.00169325  -0.126735 -0.688898 0.00115871  -0.173966 -0.71828 0.002877  -0.160416 -0.67874 0.00273466  -0.127469 -0.690223 0.00146508  -0.161245 -0.679993 0.00276375  -0.199432 -0.794644 0.00307775  -0.164795 -0.806705 0.00219369  -0.151549 -0.766531 0.00164318  -0.199999 -0.795593 0.00315189  -0.186231 -0.755773 0.00294018  -0.152115 -0.767655 0.0019362  -0.186888 -0.756822 0.00300407  -0.22628 -0.872909 0.00340533  -0.19075 -0.885294 0.00273991  -0.177272 -0.844978 0.00218797  -0.226692 -0.873716 0.00350308  -0.212789 -0.83369 0.00323367  -0.177683 -0.845924 0.00246286  -0.213275 -0.834574 0.00331759  -0.253555 -0.951702 0.0038023  -0.217284 -0.964337 0.00332403  -0.203681 -0.92398 0.00277352  -0.253824 -0.95235 0.00390649  -0.239868 -0.912255 0.00359488  -0.203953 -0.92477 0.00302672  -0.240211 -0.912982 0.00369716  -0.281114 -1.03077 0.00425696  -0.244248 -1.04362 0.00393748  -0.230577 -1.0033 0.00339985  -0.28126 -1.03132 0.00437069  -0.267309 -0.991207 0.00402403  -0.230724 -1.00396 0.00362802  -0.267514 -0.991812 0.0041306  -0.308781 -1.10996 0.0047617  -0.271435 -1.12294 0.00457501  -0.257781 -1.08275 0.00405049  -0.308818 -1.11038 0.00487018  -0.294935 -1.07036 0.00450301  -0.257819 -1.08328 0.00425243  -0.295029 -1.07085 0.00461459  -0.33646 -1.18905 0.00530958  -0.298743 -1.20215 0.00522995  -0.285138 -1.16213 0.00472713  -0.336407 -1.18941 0.00541592  -0.322627 -1.14952 0.0050323  -0.285083 -1.16257 0.00490069  -0.322616 -1.14991 0.00513649  -0.364015 -1.26794 0.00589275  -0.32601 -1.2811 0.00589538  -0.312517 -1.24131 0.00541568  -0.363885 -1.26821 0.00598431  -0.350251 -1.22853 0.0055964  -0.312384 -1.24166 0.00556087  -0.350163 -1.22884 0.00569558  -0.391391 -1.34647 0.00650454  -0.35318 -1.35967 0.00656891  -0.339808 -1.32015 0.00611758  -0.391204 -1.3467 0.00658488  -0.377731 -1.30725 0.00619745  -0.339613 -1.32044 0.00623226  -0.37757 -1.3075 0.00628018  -0.41849 -1.42458 0.00713038  -0.380137 -1.43778 0.00723958  -0.366926 -1.39856 0.00681853  -0.41826 -1.42474 0.00718927  -0.404972 -1.38559 0.00681615  -0.366685 -1.39879 0.00690246  -0.404765 -1.38578 0.00688529  -0.445284 -1.50212 0.00775886  -0.406842 -1.51532 0.00790715  -0.393798 -1.47643 0.00752187  -0.445031 -1.50228 0.00780392  -0.43193 -1.46342 0.00744653  -0.393527 -1.47662 0.00757599  -0.431685 -1.46359 0.00749469  -0.471661 -1.57897 0.00837517  -0.433161 -1.59217 0.00856447  -0.420335 -1.55365 0.0082109  -0.471414 -1.57912 0.00839853  -0.458519 -1.54064 0.00806904  -0.420053 -1.55383 0.00823522  -0.458273 -1.5408 0.00810289  0.00455123 -0.0120417 -0.00412655  0 0 0  0.0061239 -0.0158518 -0.00559616  0.00227456 -0.00539374 -0.0045774  0 0 0  0.004098 -0.0134502 -0.00297022  0.00154046 -0.00399947 -0.00256515  0 0 0  0.00206444 -0.0060811 -0.00331426  0.00137065 -0.00474662 -0.00180864  0.0118604 -0.0389462 -0.00520277  0.016638 -0.0454668 -0.00795293  0.0122154 -0.027337 -0.00927067  0.0108879 -0.0415241 -0.0039711  0.00821614 -0.0239959 -0.00490236  0.0112013 -0.0293716 -0.00711036  0.0074373 -0.0260931 -0.00365853  0.0175142 -0.0766835 -0.00495362  0.0261812 -0.0847832 -0.00819564  0.0230411 -0.0610994 -0.0102649  0.0163293 -0.0800322 -0.00385642  0.0150334 -0.0566583 -0.00510931  0.0217462 -0.0640835 -0.00819683  0.0139328 -0.0597008 -0.00395632  0.019918 -0.122885 -0.00457168  0.0323136 -0.131762 -0.00777173  0.0310821 -0.103889 -0.00992465  0.0185726 -0.126493 -0.00354075  0.019166 -0.0988323 -0.0047543  0.0297443 -0.107377 -0.00801826  0.017903 -0.102374 -0.00369525  0.0185207 -0.176001 -0.00425267  0.0343376 -0.18536 -0.00718951  0.0352281 -0.154194 -0.00927353  0.017057 -0.17958 -0.00327682  0.0197111 -0.148658 -0.00440454  0.0338524 -0.157792 -0.00749135  0.0182917 -0.152289 -0.00340366  0.0132875 -0.234831 -0.00395513  0.0322567 -0.244513 -0.00654888  0.0351981 -0.210825 -0.00854492  0.0117869 -0.238149 -0.00302219  0.0163725 -0.204764 -0.00410604  0.0338081 -0.214287 -0.00687814  0.0148841 -0.208238 -0.0031507  0.00441289 -0.298343 -0.00362492  0.0262523 -0.308383 -0.00586152  0.0310888 -0.272714 -0.00776386  0.00294733 -0.301358 -0.00274277  0.00929201 -0.266057 -0.00379682  0.0297302 -0.275908 -0.00621176  0.00779378 -0.269233 -0.00288844  -0.00775492 -0.36569 -0.00322032  0.0166898 -0.376075 -0.0051167  0.0231808 -0.338912 -0.00693369  -0.0091188 -0.36834 -0.00238347  -0.00128341 -0.33158 -0.00343418  0.0219023 -0.341786 -0.00549793  -0.00270152 -0.334421 -0.00257158  -0.0228543 -0.436135 -0.00273156  0.00390482 -0.446935 -0.00431609  0.0118408 -0.408601 -0.00604153  -0.0240808 -0.438471 -0.00194979  -0.0149574 -0.400564 -0.00298643  0.0106809 -0.411146 -0.00472236  -0.0162623 -0.403056 -0.00217628  -0.0404762 -0.509093 -0.0021584  -0.0116694 -0.520281 -0.00346351  -0.00252974 -0.481089 -0.00510025  -0.04154 -0.511101 -0.00142694  -0.0313727 -0.472328 -0.00245619  -0.00354671 -0.48332 -0.00389743  -0.0325176 -0.474505 -0.00169587  -0.0602769 -0.58404 -0.001513  -0.0296975 -0.595649 -0.00257063  -0.0195317 -0.555795 -0.00410867  -0.0611731 -0.58579 -0.000841856  -0.0501213 -0.546344 -0.00184393  -0.0203941 -0.557738 -0.00302076  -0.0511074 -0.548222 -0.00114155  -0.0818893 -0.660567 -0.000807047  -0.0497738 -0.672533 -0.00164795  -0.0387858 -0.632234 -0.00308776  -0.0826155 -0.662051 -0.000190496  -0.0708753 -0.622124 -0.00116849  -0.0394895 -0.633916 -0.00211382  -0.0716845 -0.623747 -0.000521421  -0.105025 -0.738283 -5.74589e-05  -0.0716097 -0.750605 -0.000708342  -0.0599368 -0.709991 -0.00204301  -0.105591 -0.739568 0.000494957  -0.0932801 -0.699295 -0.000436783  -0.0604856 -0.711438 -0.0011785  -0.0939312 -0.700678 0.000148058  -0.129371 -0.816893 0.000726938  -0.0948486 -0.829485 0.000240803  -0.0826573 -0.788715 -0.000993729  -0.129785 -0.817964 0.00122309  -0.117061 -0.777489 0.000329733  -0.0830597 -0.789953 -0.000236034  -0.117549 -0.778673 0.000857592  -0.154696 -0.896092 0.00153255  -0.119259 -0.90894 0.00118971  -0.106652 -0.868102 6.07967e-05  -0.154973 -0.897011 0.00196528  -0.141922 -0.856432 0.0011282  -0.106918 -0.869153 0.000716686  -0.142271 -0.857427 0.00159264  -0.180736 -0.975663 0.00235367  -0.144536 -0.988678 0.00213051  -0.131648 -0.947892 0.00110054  -0.180888 -0.976412 0.0027318  -0.167638 -0.935839 0.00194025  -0.131792 -0.948778 0.00165915  -0.16785 -0.93668 0.0023489  -0.207311 -1.05537 0.00318027  -0.170501 -1.06854 0.00305867  -0.157405 -1.02786 0.00212908  -0.207355 -1.056 0.00349808  -0.193965 -1.01551 0.00276685  -0.157439 -1.0286 0.00259829  -0.194066 -1.0162 0.0031147  -0.234206 -1.13505 0.00400591  -0.1969 -1.14829 0.00396752  -0.183705 -1.10782 0.00312924  -0.234156 -1.13555 0.00427413  -0.220727 -1.09522 0.00359154  -0.183645 -1.10843 0.0035131  -0.220721 -1.09579 0.00388718  -0.261292 -1.21452 0.0048275  -0.223606 -1.22783 0.00485301  -0.210357 -1.18759 0.00410676  -0.261164 -1.21494 0.00504041  -0.247731 -1.17482 0.00441861  -0.210218 -1.18809 0.00441384  -0.247644 -1.17528 0.00465775  -0.288403 -1.29368 0.00563645  -0.250419 -1.30699 0.00571036  -0.2372 -1.26705 0.00504684  -0.28821 -1.294 0.00580525  -0.274849 -1.25414 0.00523233  -0.236995 -1.26746 0.0052824  -0.274686 -1.25452 0.00542569  -0.31546 -1.37239 0.00643253  -0.277264 -1.38571 0.00653744  -0.264093 -1.34608 0.00595498  -0.315217 -1.37266 0.0065515  -0.30194 -1.33309 0.00603747  -0.263838 -1.34641 0.00612855  -0.301726 -1.33339 0.00618052  -0.342343 -1.45059 0.00721121  -0.303993 -1.46387 0.00733566  -0.29093 -1.42459 0.00682378  -0.342065 -1.45079 0.0072906  -0.328926 -1.41155 0.00682235  -0.290636 -1.42485 0.0069375  -0.328663 -1.4118 0.00692391  -0.368999 -1.52816 0.00797415  -0.33056 -1.54144 0.00810575  -0.317617 -1.5025 0.00766325  -0.368698 -1.52836 0.00800562  -0.355702 -1.48946 0.00759578  -0.317297 -1.50273 0.00772357  -0.355416 -1.48966 0.00765061  -0.395259 -1.605 0.00873184  -0.356788 -1.61831 0.00887108  -0.344049 -1.57974 0.00848532  -0.394973 -1.60521 0.00871897  -0.382188 -1.56668 0.00835395  -0.343711 -1.57996 0.00848842  -0.381884 -1.56688 0.00836802  0.0090972 -0.0175393 -0.0108056  0 0 0  0.0109779 -0.0227866 -0.0104101  0.00399268 -0.00939023 -0.0082984  0 0 0  0.00839803 -0.018898 -0.00807643  0.00306053 -0.00712603 -0.00647664  0 0 0  0.00370067 -0.0101648 -0.00605369  0.00281051 -0.0078361 -0.00472546  0.0242906 -0.0478012 -0.0148089  0.0296406 -0.0562188 -0.0153072  0.0213999 -0.036459 -0.0173249  0.022855 -0.050332 -0.011739  0.0165834 -0.0314562 -0.0134106  0.0199677 -0.0385898 -0.013454  0.0153474 -0.033501 -0.0103767  0.0379152 -0.0871465 -0.0152164  0.0473686 -0.0969782 -0.0163701  0.0405808 -0.072657 -0.0198994  0.036473 -0.0904351 -0.0123718  0.0315059 -0.0664326 -0.0152023  0.0389506 -0.075695 -0.0161052  0.0300376 -0.0694192 -0.0122538  0.0477281 -0.134303 -0.0145502  0.06091 -0.144765 -0.0158923  0.0561736 -0.116511 -0.0197947  0.0463582 -0.137852 -0.011898  0.0433578 -0.109797 -0.0149503  0.0547216 -0.119996 -0.0162401  0.0419506 -0.113269 -0.0122077  0.0531422 -0.188342 -0.0135214  0.0696899 -0.199187 -0.0148134  0.06722 -0.16762 -0.0187275  0.0518135 -0.191889 -0.0110402  0.0509919 -0.160521 -0.0140615  0.0659001 -0.171196 -0.015399  0.0496483 -0.164106 -0.0115001  0.0541165 -0.248239 -0.0123382  0.0737402 -0.259364 -0.0134864  0.0735272 -0.225157 -0.0172637  0.052838 -0.251568 -0.0100453  0.054183 -0.217624 -0.0129433  0.0722985 -0.228612 -0.0141718  0.052871 -0.221081 -0.0105586  0.0508281 -0.312976 -0.0110824  0.0732464 -0.324394 -0.0120485  0.0751849 -0.288115 -0.0156217  0.0496216 -0.316042 -0.00896716  0.0529826 -0.280057 -0.0117173  0.074041 -0.29133 -0.0127769  0.0517398 -0.283268 -0.00951672  0.0436262 -0.38166 -0.00977302  0.0685732 -0.393369 -0.0105622  0.0724573 -0.355514 -0.0139041  0.0425245 -0.38439 -0.00784945  0.0476998 -0.346879 -0.0104339  0.0714114 -0.358438 -0.0113106  0.0465364 -0.34978 -0.00841594  0.0328809 -0.453489 -0.0084331  0.0600812 -0.465522 -0.00905442  0.0657082 -0.426475 -0.0121524  0.0319041 -0.455925 -0.00668645  0.0386673 -0.417219 -0.00910592  0.0647774 -0.429093 -0.00980926  0.0376283 -0.419809 -0.00727439  0.0190339 -0.527815 -0.00707078  0.048229 -0.540158 -0.00754619  0.0553538 -0.500246 -0.0103996  0.0181998 -0.529935 -0.00550866  0.0263268 -0.490378 -0.00775504  0.054552 -0.502565 -0.0083003  0.0254143 -0.492655 -0.00610209  0.00247049 -0.604063 -0.00570178  0.0334004 -0.61672 -0.00604725  0.0418249 -0.57619 -0.00865746  0.00178158 -0.605929 -0.00430727  0.0110645 -0.565722 -0.00638628  0.0411599 -0.578229 -0.00679421  0.0103046 -0.567721 -0.00491118  -0.0163921 -0.681789 -0.00433612  0.0160419 -0.694712 -0.00457358  0.0255423 -0.653781 -0.00694561  -0.0169326 -0.683387 -0.00311279  -0.00668931 -0.642769 -0.00501847  0.0250167 -0.655561 -0.00530791  -0.00730908 -0.6445 -0.00371075  -0.0372162 -0.760575 -0.0029881  -0.00350249 -0.773742 -0.00313163  0.00690842 -0.732574 -0.00527167  -0.0376164 -0.761968 -0.0019176  -0.0265824 -0.721063 -0.00365949  0.0065192 -0.734118 -0.00384736  -0.0270505 -0.722565 -0.00251651  -0.0596368 -0.840113 -0.00166368  -0.0248376 -0.853462 -0.0017302  -0.0137041 -0.812201 -0.00365043  -0.0599029 -0.841287 -0.000747204  -0.0482386 -0.80027 -0.00232363  -0.0139631 -0.813532 -0.00242615  -0.0485762 -0.801553 -0.00133133  -0.0833772 -0.920097 -0.000372887  -0.0476779 -0.933594 -0.00037384  -0.0359513 -0.892352 -0.00208259  -0.0835227 -0.921109 0.000409126  -0.0713617 -0.880056 -0.00101352  -0.0360897 -0.89349 -0.00104594  -0.0715646 -0.881156 -0.000168085  -0.108129 -1.00031 0.000878572  -0.0716867 -1.01389 0.000929832  -0.0595202 -0.972769 -0.000581503  -0.108165 -1.00114 0.00152707  -0.0956355 -0.96019 0.000257254  -0.0595495 -0.973734 0.000283957  -0.0957296 -0.961112 0.000971079  -0.133675 -1.08053 0.00208426  -0.0966375 -1.09416 0.00217676  -0.0841273 -1.05323 0.000854254  -0.133617 -1.08124 0.00261807  -0.120818 -1.04042 0.00148821  -0.0840608 -1.05404 0.00156045  -0.120805 -1.0412 0.00207448  -0.159761 -1.16059 0.00323939  -0.122252 -1.17423 0.00336051  -0.10952 -1.13356 0.00221133  -0.159622 -1.16116 0.0036602  -0.146656 -1.12059 0.00266647  -0.109371 -1.13423 0.00277519  -0.14656 -1.12123 0.0031426  -0.186224 -1.24035 0.00433803  -0.148355 -1.25397 0.0044806  -0.135472 -1.2136 0.00349331  -0.186019 -1.24082 0.00466704  -0.172958 -1.20051 0.00379586  -0.135255 -1.21415 0.00392938  -0.172783 -1.20104 0.00416589  -0.212867 -1.31969 0.00537705  -0.174726 -1.33325 0.00552845  -0.161786 -1.29322 0.00468802  -0.212609 -1.32005 0.00561547  -0.199525 -1.28008 0.00486445  -0.161513 -1.29367 0.0050118  -0.199297 -1.2805 0.00514579  -0.239583 -1.3985 0.00635767  -0.201253 -1.41201 0.00650787  -0.188291 -1.37234 0.00580096  -0.239287 -1.39881 0.0065248  -0.226224 -1.35916 0.00587535  -0.187979 -1.3727 0.00602674  -0.225945 -1.3595 0.00607347  -0.266231 -1.47674 0.00728297  -0.227765 -1.49017 0.00742102  -0.214854 -1.45086 0.00682855  -0.265904 -1.47698 0.0073781  -0.252913 -1.4377 0.00682354  -0.214514 -1.45116 0.0069685  -0.252606 -1.43797 0.00695372  -0.292747 -1.55431 0.00817204  -0.2542 -1.56771 0.00829029  -0.241364 -1.52876 0.007792  -0.2924 -1.55454 0.00820684  -0.279514 -1.5156 0.00773191  -0.240998 -1.52901 0.00786018  -0.279175 -1.51584 0.00779176  -0.318968 -1.63123 0.00905585  -0.280411 -1.64468 0.00913811  -0.267715 -1.606 0.00871372  -0.318614 -1.63145 0.00901103  -0.305894 -1.59285 0.00861025  -0.267344 -1.60625 0.00870895  -0.305551 -1.59308 0.0086062  0.0151363 -0.0262604 -0.0166614  0 0 0  0.0180304 -0.0346705 -0.0144849  0.00636706 -0.0166418 -0.0113182  0 0 0  0.0142111 -0.0278999 -0.0125389  0.00503682 -0.0124212 -0.00985074  0 0 0  0.00600327 -0.017736 -0.00830865  0.00469057 -0.0133331 -0.00721407  0.039269 -0.0604609 -0.0233665  0.0464772 -0.0713461 -0.0218191  0.0339799 -0.0500226 -0.0242925  0.037477 -0.0632377 -0.0186553  0.0271651 -0.0425801 -0.0209119  0.0322753 -0.0526107 -0.0189836  0.0255788 -0.0448913 -0.0162966  0.060728 -0.100999 -0.0246859  0.071838 -0.112599 -0.023901  0.0615854 -0.0877772 -0.028645  0.0591085 -0.104393 -0.0202129  0.0505695 -0.0798025 -0.0243716  0.0597741 -0.091098 -0.0232725  0.0488202 -0.082954 -0.0197701  0.077519 -0.148876 -0.0240121  0.0921956 -0.16086 -0.0235546  0.0841838 -0.132242 -0.0290644  0.0761332 -0.152436 -0.0197785  0.0697245 -0.124012 -0.0245044  0.0826651 -0.135818 -0.0239184  0.0682383 -0.127535 -0.020144  0.0893592 -0.203701 -0.0224664  0.107294 -0.216024 -0.0221207  0.101707 -0.184046 -0.0277743  0.0881256 -0.207234 -0.0185151  0.0840709 -0.175473 -0.0233092  0.100412 -0.187621 -0.0229244  0.0827618 -0.179045 -0.0192134  0.0962353 -0.264549 -0.0205293  0.117153 -0.277131 -0.0202062  0.114019 -0.242459 -0.0257049  0.095117 -0.267868 -0.0168779  0.0934079 -0.233434 -0.0215297  0.112881 -0.245883 -0.0212026  0.0922394 -0.236881 -0.017725  0.0982992 -0.330381 -0.0184295  0.121908 -0.343265 -0.0180931  0.121174 -0.306442 -0.0232911  0.0972817 -0.333457 -0.0150988  0.0978566 -0.296906 -0.0194914  0.120155 -0.309628 -0.0191636  0.0967821 -0.300111 -0.016  0.0958844 -0.400245 -0.0162694  0.121923 -0.413382 -0.015913  0.123402 -0.374961 -0.0207486  0.0949785 -0.403006 -0.0132542  0.0976269 -0.364862 -0.017354  0.122495 -0.37787 -0.0170071  0.0966675 -0.36779 -0.0141792  0.0893625 -0.473278 -0.0141079  0.117552 -0.486704 -0.0137336  0.121054 -0.44707 -0.0181782  0.0885743 -0.475763 -0.0114105  0.0931143 -0.436413 -0.0151863  0.120263 -0.449687 -0.0148191  0.0922601 -0.439037 -0.0123308  0.0791959 -0.548779 -0.0119739  0.109293 -0.562431 -0.0115895  0.11456 -0.521965 -0.0156422  0.0785377 -0.550958 -0.00957561  0.084707 -0.510756 -0.0130379  0.113892 -0.524297 -0.0126562  0.0839853 -0.513095 -0.0104885  0.0658017 -0.626128 -0.00988865  0.0975503 -0.640018 -0.00950003  0.104376 -0.598963 -0.013165  0.0652735 -0.628061 -0.00778365  0.0728788 -0.587255 -0.0109251  0.103833 -0.601023 -0.0105348  0.0722799 -0.58931 -0.00867462  0.0496407 -0.704848 -0.00786567  0.0828252 -0.718894 -0.00748014  0.0909586 -0.677507 -0.0107725  0.0492457 -0.706515 -0.0060308  0.0580419 -0.66534 -0.00887036  0.0905451 -0.679314 -0.0084815  0.0575823 -0.667146 -0.00689936  0.0310934 -0.784502 -0.00591731  0.0654902 -0.7987 -0.00554013  0.074752 -0.757126 -0.00847292  0.0308238 -0.785964 -0.00434327  0.0406451 -0.74458 -0.00688195  0.074463 -0.758701 -0.00649762  0.0403078 -0.746143 -0.00517917  0.0105696 -0.864774 -0.00404978  0.0459989 -0.879032 -0.00368619  0.0561702 -0.83745 -0.00628304  0.0104208 -0.866012 -0.0027101  0.0210575 -0.824576 -0.00497532  0.0560031 -0.838811 -0.00460291  0.0208508 -0.825932 -0.00351715  -0.0116137 -0.945354 -0.00227022  0.0246592 -0.959662 -0.00192237  0.0355997 -0.918156 -0.00419974  -0.0116534 -0.946426 -0.00115514  -0.00033164 -0.90504 -0.00314879  0.0355428 -0.919323 -0.00279093  -0.00042963 -0.906194 -0.00192332  -0.0351057 -1.02603 -0.000583172  0.00186181 -1.0403 -0.000256538  0.0133902 -0.998996 -0.0022378  -0.0350468 -1.02692 0.00033474  -0.0232128 -0.985689 -0.00141716  0.0134357 -0.999987 -0.00107884  -0.0232004 -0.986675 -0.000398636  -0.0596538 -1.10659 0.00100589  -0.022146 -1.12082 0.00131106  -0.0101371 -1.07975 -0.000392914  -0.0595102 -1.10734 0.00173759  -0.047261 -1.06633 0.000223637  -0.0100038 -1.08058 0.000541449  -0.0471635 -1.06715 0.00104642  -0.0849674 -1.18688 0.00249195  -0.0470374 -1.201 0.00277162  -0.0346951 -1.16026 0.00132203  -0.084753 -1.18749 0.00306463  -0.0722275 -1.14677 0.00176072  -0.0344849 -1.16095 0.00205255  -0.0720463 -1.14746 0.00241327  -0.110852 -1.26677 0.00387073  -0.072623 -1.28078 0.00412393  -0.0600228 -1.24038 0.00291038  -0.110581 -1.26727 0.00429583  -0.0978479 -1.22688 0.00319552  -0.0597532 -1.24094 0.00346398  -0.0976093 -1.22744 0.00369215  -0.137073 -1.34616 0.00513768  -0.098629 -1.36001 0.0053606  -0.0858936 -1.32 0.00435686  -0.136759 -1.34655 0.00544381  -0.123929 -1.30652 0.0045166  -0.0855732 -1.32046 0.00475502  -0.123634 -1.30698 0.00488305  -0.163492 -1.42496 0.00629497  -0.124924 -1.43869 0.00648189  -0.1121 -1.39905 0.00566936  -0.163149 -1.42529 0.00649071  -0.150263 -1.38563 0.00573039  -0.111747 -1.39942 0.00593805  -0.14994 -1.386 0.00597835  -0.189942 -1.50314 0.00734901  -0.151287 -1.51672 0.00749898  -0.138471 -1.47747 0.00683951  -0.189576 -1.5034 0.00746155  -0.176719 -1.46412 0.00683022  -0.138091 -1.47778 0.00700188  -0.176363 -1.46443 0.00698543  -0.216343 -1.58066 0.00832701  -0.177652 -1.59418 0.00843644  -0.164864 -1.55525 0.00789809  -0.215961 -1.58091 0.00835896  -0.20315 -1.54198 0.00784373  -0.16447 -1.55551 0.00797367  -0.202781 -1.54224 0.00791645  -0.24258 -1.65763 0.00928497  -0.20392 -1.67113 0.0093286  -0.191192 -1.63244 0.00887704  -0.242214 -1.65788 0.00923872  -0.229488 -1.6192 0.00879979  -0.190779 -1.6327 0.00887895  -0.229105 -1.61945 0.00879788  0.0250081 -0.0416701 -0.0217009  0 0 0  0.0330555 -0.0555689 -0.0184667  0.0127952 -0.0325948 -0.0143845  0 0 0  0.0240131 -0.0440903 -0.0164587  0.00821338 -0.0226949 -0.0124581  0 0 0  0.0126147 -0.0342981 -0.0106986  0.00784018 -0.0240369 -0.00924921  0.0588231 -0.0769982 -0.0311797  0.0688768 -0.0899183 -0.0281847  0.0532177 -0.0685007 -0.0312202  0.0569025 -0.0803522 -0.0249674  0.042664 -0.0588677 -0.0276694  0.0516941 -0.0719607 -0.0244722  0.0409705 -0.0618553 -0.021647  0.0872883 -0.117844 -0.0336008  0.100443 -0.13098 -0.0311053  0.0870108 -0.105703 -0.0372159  0.0855849 -0.121479 -0.0275223  0.0736838 -0.0964631 -0.0329103  0.0851758 -0.109474 -0.0302269  0.0718426 -0.100007 -0.0267379  0.110609 -0.166345 -0.0330272  0.127184 -0.179737 -0.0308125  0.116115 -0.150653 -0.0379918  0.109179 -0.169957 -0.0272377  0.0996137 -0.141137 -0.0335624  0.114489 -0.154371 -0.0312421  0.0980487 -0.144789 -0.0276139  0.128558 -0.222014 -0.0310538  0.148341 -0.235742 -0.0290337  0.139875 -0.203299 -0.0364244  0.127326 -0.22552 -0.0256345  0.120265 -0.193322 -0.0321558  0.138491 -0.206879 -0.0300632  0.118946 -0.196909 -0.026546  0.141075 -0.283873 -0.028439  0.163765 -0.297918 -0.0265927  0.158003 -0.262778 -0.033772  0.139989 -0.287131 -0.0234556  0.135504 -0.252235 -0.0297978  0.15677 -0.266112 -0.0278862  0.134343 -0.255629 -0.0245953  0.148249 -0.350801 -0.025564  0.173542 -0.365165 -0.0238671  0.170435 -0.327883 -0.0306411  0.147282 -0.353819 -0.021024  0.145315 -0.316756 -0.0270207  0.169351 -0.330972 -0.0252662  0.144291 -0.319912 -0.0222602  0.150401 -0.421792 -0.0226028  0.178006 -0.436422 -0.0210598  0.17739 -0.397568 -0.0273333  0.149551 -0.424497 -0.0185246  0.149939 -0.38585 -0.0240872  0.176413 -0.400345 -0.0224855  0.149024 -0.388715 -0.0197809  0.147896 -0.495917 -0.0196619  0.177543 -0.510792 -0.018255  0.179208 -0.470759 -0.023999  0.147164 -0.498361 -0.016022  0.149702 -0.458502 -0.021127  0.178363 -0.473273 -0.0196674  0.14891 -0.46109 -0.017272  0.141231 -0.572441 -0.0167825  0.172662 -0.587497 -0.0155175  0.176349 -0.546687 -0.0207212  0.140623 -0.574584 -0.0135772  0.145062 -0.533926 -0.0182128  0.17562 -0.548894 -0.0168939  0.144385 -0.53622 -0.0147943  0.130842 -0.650703 -0.014003  0.163825 -0.665905 -0.0128632  0.169298 -0.624558 -0.0175443  0.130361 -0.652613 -0.0111976  0.136471 -0.611379 -0.0153797  0.168706 -0.62653 -0.0141904  0.135925 -0.613417 -0.0123794  0.117243 -0.730216 -0.0113354  0.151553 -0.745489 -0.0103228  0.15855 -0.703882 -0.0144968  0.116889 -0.731859 -0.00891685  0.124421 -0.690337 -0.0126543  0.158083 -0.70558 -0.0115948  0.123999 -0.692113 -0.0100472  0.100842 -0.810519 -0.00879717  0.136283 -0.825825 -0.0078969  0.144595 -0.784093 -0.0115938  0.100609 -0.811968 -0.0067277  0.109364 -0.77028 -0.0100498  0.144262 -0.785595 -0.00910759  0.10907 -0.771839 -0.00781155  0.0821002 -0.891305 -0.00639224  0.11848 -0.906568 -0.00560474  0.127878 -0.8649 -0.008847  0.0819846 -0.892526 -0.00465584  0.0917442 -0.850877 -0.00757837  0.127666 -0.866166 -0.00675011  0.091566 -0.852211 -0.00567985  0.0613633 -0.972252 -0.00412822  0.0985168 -0.987436 -0.0034411  0.108835 -0.945902 -0.0062623  0.061354 -0.973316 -0.00268698  0.0719575 -0.931762 -0.00524282  0.108742 -0.94701 -0.00451803  0.071894 -0.932917 -0.00365973  0.0390253 -1.05318 -0.00200677  0.0767889 -1.06821 -0.00141764  0.0878339 -1.02694 -0.0038445  0.0391119 -1.05405 -0.000844955  0.0503792 -1.01274 -0.00305009  0.0878453 -1.02785 -0.00242662  0.0504143 -1.0137 -0.00175309  0.0153642 -1.13385 -3.67165e-05  0.0536017 -1.14871 0.000466347  0.0652483 -1.10773 -0.00159621  0.0155346 -1.13459 0.000884533  0.0273411 -1.09354 -0.00100279  0.0653548 -1.10851 -0.000470161  0.027468 -1.09436 3.33786e-05  -0.00928831 -1.21416 0.0017817  0.0292864 -1.2288 0.0022018  0.0413716 -1.1882 0.000473976  -0.00904822 -1.21475 0.00248027  0.00315022 -1.17406 0.000890732  0.0415609 -1.18881 0.00133753  0.00335217 -1.17473 0.00169683  -0.0347149 -1.29397 0.00343823  0.00408745 -1.30837 0.00378323  0.0165203 -1.26814 0.0023632  -0.0344191 -1.29447 0.00395226  -0.0219197 -1.25412 0.00263166  0.0167787 -1.26866 0.00299931  -0.0216539 -1.25468 0.00323129  -0.0606439 -1.37322 0.0049305  -0.0217237 -1.38736 0.0052073  -0.0090754 -1.34755 0.00406218  -0.0603018 -1.3736 0.00527883  -0.0476243 -1.33368 0.00420403  -0.00876379 -1.34794 0.00450063  -0.0473101 -1.33411 0.00463009  -0.0869031 -1.45184 0.00625277  -0.047945 -1.46574 0.00647044  -0.0351546 -1.42629 0.0055654  -0.0865362 -1.45217 0.00647259  -0.0737429 -1.4126 0.00561428  -0.0347967 -1.42664 0.00584459  -0.07339 -1.41296 0.00589347  -0.113281 -1.52983 0.00741243  -0.0743587 -1.54349 0.00756359  -0.0615342 -1.50443 0.0068686  -0.112892 -1.53008 0.00752759  -0.100083 -1.49092 0.00685382  -0.0611453 -1.50469 0.00701332  -0.0997076 -1.4912 0.00701642  -0.139678 -1.60719 0.0084424  -0.100823 -1.62072 0.00852585  -0.0879984 -1.58191 0.00798965  -0.139271 -1.60745 0.00848269  -0.126483 -1.56857 0.00794172  -0.0875964 -1.58217 0.00804949  -0.126089 -1.56883 0.00801444  -0.165998 -1.6841 0.00941539  -0.127205 -1.69755 0.00944567  -0.11445 -1.65893 0.00897789  -0.165573 -1.68434 0.00938654  -0.152838 -1.64569 0.00892949  -0.114015 -1.65918 0.00896835  -0.15243 -1.64595 0.00892854  -0.034914 -0.02467 0.0410511  -0.0231775 -0.0119316 0.029743  0 0 0  -0.0334767 -0.00659975 0.0417235  0 0 0  -0.0168464 -0.00840537 0.028563  -0.0115224 0.00210151 0.023119  0 0 0  -0.0143965 -0.0147819 0.0223522  -0.0241484 -0.0148569 0.0343163  -0.0158512 -0.00202663 0.0254467  0 0 0  -0.0059503 -0.00200561 0.0161495  -0.00820507 -0.00603594 0.0184507  -0.0700009 -0.0387431 0.0556824  -0.0586517 -0.0171735 0.0581014  -0.0560224 -0.0244267 0.0522301  -0.0405794 -0.0302561 0.0395219  -0.0333048 -0.0107237 0.0405753  -0.0531773 -0.0299173 0.0504529  -0.0540411 -0.0339033 0.0470481  -0.0455997 -0.0137759 0.0484366  -0.0288664 -0.0180653 0.0355265  -0.0398527 -0.0230165 0.0424643  -0.102975 -0.0664303 0.0567386  -0.0850607 -0.040371 0.0643206  -0.0788465 -0.0557661 0.0536149  -0.0637549 -0.0620659 0.0407901  -0.0513995 -0.0370486 0.0452847  -0.0865463 -0.0513668 0.0572648  -0.081776 -0.0638872 0.0483639  -0.066851 -0.0386555 0.0539656  -0.0520745 -0.0448944 0.0408666  -0.0678382 -0.0476325 0.0485709  -0.135814 -0.103386 0.0526166  -0.114858 -0.0758485 0.0614066  -0.105501 -0.0966413 0.0501113  -0.0882443 -0.10278 0.0382376  -0.0722355 -0.0745945 0.0440152  -0.119396 -0.0839562 0.0550606  -0.110378 -0.103011 0.0451865  -0.0917796 -0.0752382 0.0522254  -0.0757687 -0.0814516 0.0398297  -0.09594 -0.0824941 0.0471282  -0.168694 -0.147355 0.0466621  -0.146839 -0.118752 0.0553827  -0.134685 -0.144072 0.0448971  -0.114426 -0.150276 0.0342867  -0.0964885 -0.120214 0.0403085  -0.152269 -0.124628 0.0497403  -0.140006 -0.148926 0.0403461  -0.119851 -0.119656 0.0476053  -0.101132 -0.12578 0.0363753  -0.125078 -0.125239 0.0428708  -0.201529 -0.196783 0.0405719  -0.179776 -0.16717 0.0486073  -0.165262 -0.196384 0.0393322  -0.141965 -0.203016 0.0299711  -0.123234 -0.171634 0.0357635  -0.185127 -0.171484 0.0435805  -0.170371 -0.200118 0.0352037  -0.149853 -0.169679 0.0420916  -0.128042 -0.176054 0.0321355  -0.155121 -0.173943 0.0377629  -0.234213 -0.250698 0.0348783  -0.213015 -0.21998 0.0420961  -0.196549 -0.252731 0.0340662  -0.170466 -0.260029 0.0259397  -0.151581 -0.227521 0.0312159  -0.217908 -0.223226 0.0376458  -0.201145 -0.255627 0.0303788  -0.180847 -0.224084 0.0366311  -0.15611 -0.231024 0.0279207  -0.185722 -0.227379 0.0327294  -0.266712 -0.308499 0.0299292  -0.246181 -0.276651 0.0362244  -0.228097 -0.312561 0.0293407  -0.199614 -0.320664 0.0222971  -0.180901 -0.287113 0.0269907  -0.250491 -0.279168 0.0323031  -0.23214 -0.314867 0.0260987  -0.212305 -0.282232 0.0316174  -0.184964 -0.289918 0.0240636  -0.216628 -0.284822 0.0281627  -0.298997 -0.36972 0.0256071  -0.279164 -0.336712 0.0310919  -0.25975 -0.375543 0.0252156  -0.229211 -0.384472 0.0192018  -0.210802 -0.349924 0.0232685  -0.282896 -0.338706 0.0276806  -0.263221 -0.377382 0.0224035  -0.243918 -0.343674 0.0271981  -0.214359 -0.352187 0.0207  -0.247676 -0.345743 0.0241756  -0.331074 -0.434008 0.0219772  -0.311877 -0.399921 0.0266485  -0.291355 -0.441329 0.021656  -0.259107 -0.451066 0.0165191  -0.241056 -0.415592 0.0200162  -0.315068 -0.401526 0.023705  -0.294332 -0.442823 0.0192499  -0.275562 -0.408103 0.0233576  -0.244119 -0.417438 0.0178099  -0.278781 -0.409771 0.0207586  -0.362911 -0.501008 0.0188241  -0.344328 -0.465896 0.022831  -0.322898 -0.509645 0.0186019  -0.289208 -0.520119 0.0143042  -0.27152 -0.483798 0.0172532  -0.347037 -0.467188 0.0203323  -0.325398 -0.510839 0.0165725  -0.307137 -0.475186 0.0200644  -0.27413 -0.485298 0.0153735  -0.309875 -0.476533 0.0178511  -0.3945 -0.570414 0.0161986  -0.376471 -0.534416 0.0195413  -0.354276 -0.580161 0.0159929  -0.319409 -0.591294 0.0123959  -0.302094 -0.554233 0.0148764  -0.378745 -0.535454 0.0174417  -0.356386 -0.581122 0.0143056  -0.33861 -0.544647 0.0172353  -0.304291 -0.555456 0.0133123  -0.340911 -0.545729 0.0153866  -0.425788 -0.641888 0.0139108  -0.408307 -0.605089 0.0167274  -0.38549 -0.652597 0.0137739  -0.349638 -0.664292 0.0108542  -0.332688 -0.626597 0.0128908  -0.410197 -0.605909 0.0150013  -0.387215 -0.653344 0.0123961  -0.369907 -0.616154 0.014832  -0.334518 -0.627577 0.0115983  -0.371825 -0.617013 0.0133038  -0.456751 -0.71514 0.0120413  -0.439778 -0.677696 0.0143185  -0.416431 -0.726632 0.0119045  -0.379794 -0.738805 0.00953794  -0.363223 -0.70059 0.0112021  -0.44132 -0.678334 0.0129178  -0.417846 -0.727215 0.0108016  -0.400998 -0.689432 0.0127869  -0.36472 -0.701374 0.0101676  -0.402565 -0.690103 0.0115561  -0.48732 -0.789852 0.0104241  -0.470866 -0.751849 0.0122888  -0.44709 -0.802003 0.0103478  -0.409809 -0.814556 0.00852227  -0.393617 -0.77593 0.00983143  -0.4721 -0.752328 0.011188  -0.448193 -0.802428 0.00948906  -0.431799 -0.764164 0.0110824  -0.394817 -0.776536 0.00901055  -0.43306 -0.764675 0.0101061  -0.517472 -0.865758 0.00916672  -0.501505 -0.827346 0.0105884  -0.477361 -0.878407 0.00908709  -0.439587 -0.891264 0.00768447  -0.42379 -0.852337 0.00869942  -0.502458 -0.827696 0.00974298  -0.478217 -0.87872 0.0084393  -0.462278 -0.840092 0.00967002  -0.424721 -0.852803 0.00808024  -0.463255 -0.840468 0.00892639  -0.547139 -0.942563 0.00812292  -0.531674 -0.903821 0.00921822  -0.507237 -0.955608 0.00809884  -0.469074 -0.968687 0.0071125  -0.453671 -0.929553 0.00784302  -0.53238 -0.90406 0.00860357  -0.507839 -0.955812 0.0076344  -0.492351 -0.91692 0.00855327  -0.454363 -0.929895 0.00738263  -0.493082 -0.917185 0.0080018  -0.576315 -1.02004 0.00740337  -0.561316 -0.981098 0.00814033  -0.536626 -1.03334 0.00737309  -0.498192 -1.04658 0.00668907  -0.483193 -1.00734 0.00719213  -0.561797 -0.981254 0.00771379  -0.537038 -1.03348 0.00706077  -0.521994 -0.994423 0.00769186  -0.483671 -1.00758 0.00688148  -0.522501 -0.9946 0.00731349  -0.604955 -1.09792 0.00686979  -0.590427 -1.05885 0.00735784  -0.565547 -1.11141 0.00689411  -0.526913 -1.12473 0.00651217  -0.512305 -1.08546 0.00678992  -0.590715 -1.05894 0.00709748  -0.565757 -1.11147 0.00670743  -0.551145 -1.07234 0.00709558  -0.512597 -1.08563 0.00658703  -0.55146 -1.07245 0.00685048  -0.633075 -1.17602 0.0066514  -0.618971 -1.13694 0.00684738  -0.593928 -1.18957 0.00666118  -0.555183 -1.20295 0.00646186  -0.540966 -1.16372 0.00657177  -0.619086 -1.13698 0.0067122  -0.594001 -1.18961 0.00657034  -0.579805 -1.15048 0.00673509  -0.541094 -1.16384 0.00646925  -0.579945 -1.15055 0.00660658  -0.66067 -1.25412 0.00660229  -0.646971 -1.21506 0.00662303  -0.621818 -1.26767 0.00665689  -0.583008 -1.28106 0.00663877  -0.569148 -1.24194 0.00658369  -0.646949 -1.21508 0.00659013  -0.621745 -1.26769 0.00663662  -0.607933 -1.22863 0.00662446  -0.569144 -1.24202 0.00654125  -0.607935 -1.22867 0.00657344  -0.687812 -1.33207 0.00684094  -0.67443 -1.29312 0.00665236  -0.649184 -1.34552 0.00686359  -0.610373 -1.35892 0.00690508  -0.596839 -1.31996 0.0067482  -0.674299 -1.29315 0.00667858  -0.649043 -1.34556 0.00688314  -0.635563 -1.30663 0.00672436  -0.596735 -1.32003 0.0067606  -0.635453 -1.30667 0.00673389  -0.714595 -1.40971 0.00718403  -0.701435 -1.37088 0.00693369  -0.67614 -1.42306 0.00722337  -0.637342 -1.43644 0.00732279  -0.624057 -1.39765 0.00708771  -0.701251 -1.37093 0.00698876  -0.675943 -1.42311 0.00726008  -0.662704 -1.38433 0.0070231  -0.623894 -1.39772 0.00711703  -0.662536 -1.38438 0.00705433  -0.741236 -1.48704 0.00763655  -0.728114 -1.44835 0.00736642  -0.702828 -1.50027 0.00765252  -0.664042 -1.51358 0.00770712  -0.650877 -1.47498 0.00747418  -0.72793 -1.44843 0.00740314  -0.702647 -1.50033 0.00766945  -0.689496 -1.4617 0.00742197  -0.650697 -1.47505 0.0075202  -0.689312 -1.46177 0.00746202  -0.0169175 0.000123769 0.027957  0 0 0  -0.00814097 -0.00411896 0.0181382  -0.00587744 0.00391731 0.0145195  0 0 0  -0.0119833 -0.00538999 0.0231543  -0.00825502 0.00346746 0.0184309  0 0 0  -0.00286306 0.000387639 0.0103624  -0.00408231 -0.000291124 0.0131159  -0.0307465 -0.0207178 0.0356483  -0.0203896 -0.0265481 0.0254929  -0.0162964 -0.00751022 0.0257902  -0.0295859 -0.0277727 0.0323155  -0.0239207 -0.00845322 0.0327985  -0.0140678 -0.0136498 0.0227838  -0.0206779 -0.015043 0.0289063  -0.0460826 -0.0540071 0.0368006  -0.0345948 -0.060669 0.0265996  -0.0263508 -0.0355391 0.0290124  -0.0482361 -0.0609861 0.0335362  -0.0379826 -0.0359546 0.0369029  -0.0272164 -0.0423693 0.0265257  -0.038727 -0.0431584 0.0335205  -0.0649237 -0.0968264 0.0347486  -0.051098 -0.103613 0.025106  -0.0397112 -0.0747254 0.0284853  -0.0687025 -0.102909 0.0315726  -0.0550514 -0.0743854 0.0360649  -0.0425343 -0.0811605 0.0260656  -0.0581954 -0.0809796 0.0328171  -0.0869887 -0.14666 0.0314057  -0.0701146 -0.153494 0.0225999  -0.0565807 -0.122194 0.026298  -0.0913214 -0.151708 0.0283692  -0.075596 -0.120984 0.0331838  -0.0602947 -0.127795 0.0239322  -0.0797517 -0.126565 0.0300677  -0.111509 -0.201695 0.0276935  -0.0914302 -0.208775 0.0198326  -0.0765677 -0.175834 0.0234764  -0.115805 -0.205797 0.0248756  -0.0989816 -0.173594 0.0295579  -0.0805051 -0.180534 0.0212247  -0.103353 -0.178165 0.0266297  -0.137788 -0.260853 0.0240974  -0.114684 -0.268387 0.0171857  -0.0990524 -0.234199 0.0205634  -0.141766 -0.264191 0.0215423  -0.124464 -0.230793 0.0258677  -0.102841 -0.238092 0.0184846  -0.128626 -0.234511 0.023181  -0.165268 -0.323425 0.0208263  -0.139455 -0.331573 0.0148213  -0.123437 -0.296352 0.0178285  -0.168813 -0.326142 0.018568  -0.151394 -0.291729 0.0224133  -0.126899 -0.299568 0.0159645  -0.15517 -0.294754 0.0200076  -0.193604 -0.388967 0.0179636  -0.165448 -0.397795 0.0127969  -0.14925 -0.361667 0.015403  -0.196695 -0.391203 0.0159996  -0.179343 -0.355834 0.019352  -0.152317 -0.364332 0.0137694  -0.182665 -0.358315 0.0172403  -0.222528 -0.457091 0.0155025  -0.192369 -0.46662 0.0111015  -0.176139 -0.42969 0.0133114  -0.225181 -0.458926 0.0138297  -0.207993 -0.422713 0.0166876  -0.178804 -0.431904 0.0119097  -0.210871 -0.424753 0.0148692  -0.251891 -0.52749 0.0134225  -0.220046 -0.53768 0.00971198  -0.203849 -0.500049 0.011554  -0.254142 -0.529006 0.0120146  -0.237159 -0.492012 0.01443  -0.206126 -0.501891 0.0103736  -0.239612 -0.493698 0.012888  -0.281531 -0.599837 0.0116727  -0.248267 -0.610641 0.00858521  -0.232175 -0.572413 0.0100942  -0.283414 -0.601072 0.0105138  -0.266672 -0.563426 0.0125141  -0.234096 -0.573941 0.00911856  -0.268744 -0.56481 0.0112305  -0.311354 -0.673848 0.0102251  -0.276911 -0.685185 0.00769281  -0.260954 -0.646469 0.00890589  -0.312907 -0.674857 0.00928235  -0.296422 -0.636639 0.0109265  -0.262547 -0.647732 0.0081141  -0.298142 -0.637774 0.00987339  -0.341225 -0.749218 0.00903797  -0.305799 -0.761023 0.00700498  -0.290034 -0.721924 0.00795341  -0.342477 -0.750023 0.00829458  -0.326279 -0.711369 0.00960588  -0.29133 -0.722959 0.00732541  -0.327686 -0.712285 0.00876188  -0.371065 -0.82569 0.00809741  -0.33484 -0.837875 0.00650144  -0.319283 -0.798497 0.00721884  -0.372051 -0.826331 0.00752044  -0.356151 -0.78732 0.00855231  -0.32031 -0.799337 0.00673413  -0.357272 -0.788057 0.00788999  -0.400754 -0.902983 0.00737119  -0.363872 -0.915487 0.00616336  -0.348574 -0.875928 0.0066731  -0.401495 -0.903476 0.00694656  -0.385923 -0.864237 0.00771427  -0.349361 -0.8766 0.00631309  -0.386792 -0.864814 0.00721192  -0.430227 -0.980875 0.00685716  -0.392828 -0.993617 0.00597954  -0.377798 -0.953968 0.00631118  -0.430754 -0.981255 0.00655365  -0.415518 -0.941855 0.00710297  -0.378367 -0.9545 0.00605559  -0.416155 -0.942306 0.00673604  -0.459383 -1.05912 0.00653076  -0.421573 -1.07205 0.00593805  -0.406849 -1.0324 0.00611043  -0.459718 -1.0594 0.0063355  -0.444836 -1.01996 0.00667739  -0.407228 -1.03281 0.00594258  -0.445274 -1.02029 0.00642633  -0.488188 -1.13754 0.00639296  -0.450072 -1.1506 0.0060308  -0.435649 -1.111 0.00606871  -0.48836 -1.13775 0.00627685  -0.473828 -1.09831 0.00645351  -0.43586 -1.11132 0.00597072  -0.474086 -1.09857 0.00629449  -0.516565 -1.21593 0.00642276  -0.478217 -1.22908 0.00624728  -0.464119 -1.18961 0.00616765  -0.516596 -1.21608 0.00637412  -0.50242 -1.17674 0.00639415  -0.464188 -1.18986 0.00612402  -0.502528 -1.17693 0.00630975  -0.544506 -1.29415 0.0066154  -0.506008 -1.30735 0.00657344  -0.49221 -1.26806 0.00640702  -0.544429 -1.29427 0.00660801  -0.530586 -1.25505 0.00651503  -0.492162 -1.26825 0.00640082  -0.530567 -1.2552 0.00648355  -0.571965 -1.37206 0.00692916  -0.533369 -1.3853 0.00698113  -0.519873 -1.34623 0.00675011  -0.571811 -1.37215 0.00695539  -0.558283 -1.33313 0.0067656  -0.51974 -1.34637 0.00676918  -0.558172 -1.33325 0.00677204  -0.598984 -1.44959 0.00731945  -0.560343 -1.46283 0.00743079  -0.547095 -1.42401 0.00717449  -0.598797 -1.44967 0.00736427  -0.585523 -1.41086 0.00713825  -0.546906 -1.42412 0.00720835  -0.585353 -1.41097 0.00716567  -0.625629 -1.52667 0.00768852  -0.586937 -1.53982 0.00785756  -0.573875 -1.50132 0.00760555  -0.625451 -1.52673 0.00777149  -0.612328 -1.48818 0.0075326  -0.573678 -1.5014 0.0076561  -0.612153 -1.48826 0.00757861  -0.00723544 0.00072974 0.0154743  0 0 0  -0.00211272 -0.00464016 0.00823402  -0.00188529 0.00309739 0.00632858  0 0 0  -0.00492164 -0.00402921 0.0130849  -0.00370298 0.00369868 0.0102856  0 0 0  -0.000769638 -3.03388e-05 0.00467443  -0.00171323 0.000378937 0.00745893  -0.0127167 -0.0201133 0.0202663  -0.00564627 -0.0273522 0.012146  -0.00422513 -0.00858945 0.0117176  -0.0126044 -0.0264512 0.0186899  -0.00989026 -0.00763178 0.0185347  -0.00369304 -0.0141829 0.010664  -0.00855501 -0.013471 0.0165901  -0.0205399 -0.0546716 0.0212853  -0.0113628 -0.0626156 0.0130479  -0.00697401 -0.0372694 0.0136969  -0.0224628 -0.0611951 0.0197294  -0.0161754 -0.0359545 0.0211804  -0.00815997 -0.0436655 0.0128703  -0.0172116 -0.0425452 0.0195751  -0.0319633 -0.0989754 0.0203016  -0.0200044 -0.107071 0.0124698  -0.0129023 -0.077597 0.0137241  -0.0350076 -0.104965 0.0187163  -0.0257926 -0.0757643 0.0209787  -0.0152885 -0.0838311 0.0128908  -0.0283795 -0.0820943 0.0193894  -0.0469201 -0.150578 0.0184627  -0.0318098 -0.158679 0.0112522  -0.0225115 -0.126449 0.0127947  -0.0504094 -0.15578 0.0168855  -0.0390153 -0.123981 0.0194545  -0.0255068 -0.13208 0.011915  -0.0423534 -0.129603 0.017864  -0.0649799 -0.207662 0.0163262  -0.0466405 -0.215855 0.00984764  -0.0356756 -0.18174 0.0114336  -0.0684965 -0.21207 0.0148168  -0.0555905 -0.178504 0.0173972  -0.0388543 -0.186635 0.0105574  -0.0591345 -0.183319 0.0158536  -0.0856296 -0.269093 0.0142233  -0.0642185 -0.27754 0.00849462  -0.0520111 -0.242007 0.00999594  -0.0889373 -0.272786 0.0128386  -0.0750116 -0.237885 0.0152483  -0.0551051 -0.246185 0.00915813  -0.0784485 -0.241936 0.0138061  -0.10832 -0.333984 0.0123029  -0.0841092 -0.342837 0.00731063  -0.0710276 -0.306228 0.00862455  -0.11131 -0.337075 0.01107  -0.096743 -0.301129 0.0132184  -0.0738888 -0.309767 0.00787568  -0.0999036 -0.304523 0.0119166  -0.132652 -0.401815 0.0106478  -0.105975 -0.41117 0.00634027  -0.0922535 -0.37366 0.0074563  -0.135281 -0.404401 0.00958443  -0.1203 -0.367554 0.0114338  -0.0948121 -0.376652 0.00679994  -0.123117 -0.370394 0.0102925  -0.158245 -0.472078 0.00925827  -0.129427 -0.481982 0.0055871  -0.115277 -0.443755 0.00647473  -0.160517 -0.474246 0.00835872  -0.145302 -0.43665 0.00990725  -0.11751 -0.446282 0.00593472  -0.147755 -0.439033 0.00893259  -0.184866 -0.544456 0.00813484  -0.15422 -0.554905 0.00503588  -0.139754 -0.516065 0.0057354  -0.186793 -0.546269 0.00739479  -0.171438 -0.508016 0.00866175  -0.141667 -0.518198 0.00529027  -0.17354 -0.510012 0.00784731  -0.21225 -0.618557 0.00723934  -0.180047 -0.629526 0.00466323  -0.1654 -0.590218 0.0051651  -0.213861 -0.620072 0.00663996  -0.198467 -0.581295 0.00765061  -0.167006 -0.592014 0.00482655  -0.200238 -0.582968 0.0069859  -0.240245 -0.694128 0.00656104  -0.206734 -0.705562 0.00444698  -0.191968 -0.665875 0.00480318  -0.241561 -0.695382 0.00609064  -0.226178 -0.65617 0.00687361  -0.19329 -0.667381 0.00454021  -0.227644 -0.657561 0.00634313  -0.268635 -0.770825 0.00606108  -0.234023 -0.78267 0.00436616  -0.219242 -0.742734 0.00456643  -0.269687 -0.771858 0.00570011  -0.254392 -0.732337 0.0062809  -0.220302 -0.743989 0.00438833  -0.255579 -0.733491 0.00586963  -0.297307 -0.848433 0.00573373  -0.261785 -0.860621 0.0044024  -0.247026 -0.820515 0.0044992  -0.298117 -0.849272 0.00547051  -0.282941 -0.809524 0.00587702  -0.247849 -0.821552 0.00437379  -0.283874 -0.810468 0.0055685  -0.326075 -0.926652 0.00555134  -0.289799 -0.939127 0.00454307  -0.275149 -0.898962 0.00452065  -0.326671 -0.927328 0.00536633  -0.311679 -0.887466 0.00561786  -0.275757 -0.89981 0.00445771  -0.312384 -0.888235 0.00539756  -0.354856 -1.0053 0.005512  -0.317972 -1.018 0.00477982  -0.303452 -0.977841 0.00468516  -0.355258 -1.00584 0.00539637  -0.340467 -0.965931 0.00551438  -0.303868 -0.978527 0.00465369  -0.340969 -0.966545 0.00536752  -0.383495 -1.08413 0.00559425  -0.346119 -1.09701 0.00510025  -0.331795 -1.05694 0.00491595  -0.38373 -1.08455 0.0055294  -0.369191 -1.04469 0.00553107  -0.332042 -1.05749 0.00492787  -0.369512 -1.04518 0.00544381  -0.411942 -1.163 0.00580001  -0.374185 -1.176 0.00549912  -0.36006 -1.13608 0.00527  -0.412031 -1.16333 0.00577831  -0.397744 -1.12357 0.00568366  -0.360161 -1.13651 0.00529313  -0.397909 -1.12395 0.00564337  -0.440074 -1.24171 0.00610733  -0.402021 -1.2548 0.00596285  -0.388145 -1.21509 0.00567055  -0.440044 -1.24196 0.0061121  -0.426042 -1.20237 0.00593448  -0.388123 -1.21542 0.00571918  -0.426075 -1.20267 0.00592852  -0.467876 -1.32016 0.0065136  -0.429616 -1.3333 0.00648546  -0.415968 -1.29383 0.00617719  -0.467748 -1.32035 0.00653839  -0.454015 -1.28097 0.00630116  -0.415847 -1.29409 0.00621986  -0.45394 -1.2812 0.00631785  -0.495255 -1.39822 0.00698066  -0.456853 -1.41138 0.00704217  -0.443466 -1.3722 0.00670362  -0.495063 -1.39836 0.00701213  -0.481611 -1.35923 0.00673461  -0.443268 -1.37239 0.00675702  -0.481454 -1.35941 0.00676465  -0.522233 -1.47582 0.00747418  -0.483744 -1.48896 0.00761032  -0.47059 -1.4501 0.00729156  -0.521999 -1.47591 0.00751925  -0.508792 -1.43707 0.00723076  -0.470338 -1.45023 0.00732946  -0.508581 -1.4372 0.00726795  -0.54873 -1.55277 0.00791788  -0.510178 -1.5658 0.00816369  -0.49729 -1.5274 0.00784159  -0.54852 -1.55282 0.00799251  -0.535537 -1.51438 0.00771499  -0.497005 -1.52748 0.00788879  -0.535307 -1.51446 0.00776196  0.000222579 -0.00149423 0.00356388  0 0 0  0.00296408 -0.0074347 -0.00123072  0.00130171 0.00111443 -0.0015707  0 0 0  0.000490606 -0.00580367 0.00343204  -0.000216771 0.00222653 0.00232959  0 0 0  0.00096111 -0.00171322 -0.0008986  0.000127658 -0.000756502 0.00186467  0.00154918 -0.0231858 0.0056057  0.00696433 -0.0316792 -0.000564814  0.00594473 -0.0126306 -0.00167656  0.000790119 -0.0291152 0.0056839  0.000995398 -0.01028 0.00489521  0.0050945 -0.0178335 -0.000881195  0.000800103 -0.015681 0.00479865  0.00086385 -0.0586331 0.00639987  0.00906393 -0.0680613 3.09944e-05  0.00983298 -0.0424869 -0.00094533  -0.000963837 -0.0649012 0.00643516  0.00159204 -0.0394509 0.00623107  0.00835019 -0.0485755 -0.00018239  0.000254095 -0.0456989 0.00623655  -0.00326258 -0.104021 0.00632787  0.00801998 -0.113662 0.000213146  0.0110664 -0.0837607 -0.000497103  -0.00577027 -0.109951 0.00626945  -0.000723213 -0.080248 0.00649214  0.00898415 -0.0898512 0.000184059  -0.0029487 -0.0864195 0.00644994  -0.0111941 -0.156924 0.00578189  0.0033083 -0.166517 0.0001297  0.00857174 -0.133634 -0.000375271  -0.014003 -0.162234 0.00563908  -0.00675178 -0.129646 0.00611877  0.00613308 -0.139286 0.000201941  -0.00945336 -0.135301 0.0059998  -0.0227507 -0.215546 0.00505304  -0.00506198 -0.225143 -5.126e-05  0.0021258 -0.190137 -0.000444412  -0.0255905 -0.220178 0.00487423  -0.0165323 -0.185589 0.00543427  -0.000429332 -0.195184 4.55379e-05  -0.0193889 -0.190575 0.00526547  -0.0375803 -0.27874 0.00431347  -0.016864 -0.288431 -0.000206709  -0.00806034 -0.251852 -0.000561476  -0.0402759 -0.282719 0.00412989  -0.029783 -0.246627 0.00467944  -0.0105563 -0.256266 -0.000136137  -0.0325693 -0.250941 0.00449586  -0.0551883 -0.345524 0.00367618  -0.0316971 -0.35547 -0.000272036  -0.0216024 -0.317709 -0.000639915  -0.0576476 -0.348925 0.00352049  -0.0460582 -0.311715 0.00397563  -0.0239251 -0.321529 -0.000254393  -0.0486487 -0.315408 0.00380635  -0.0751647 -0.415286 0.00318313  -0.0491891 -0.42556 -0.000218391  -0.0380481 -0.386885 -0.000620127  -0.0773394 -0.418183 0.00306368  -0.0649046 -0.38006 0.00341177  -0.0401372 -0.390173 -0.000261068  -0.0672287 -0.383215 0.00327516  -0.0970672 -0.487427 0.00285578  -0.0689131 -0.498115 -4.36306e-05  -0.0569652 -0.458738 -0.000491381  -0.09895 -0.489893 0.00278282  -0.085889 -0.451073 0.00299668  -0.0587926 -0.46156 -0.00014782  -0.0879234 -0.453759 0.00290227  -0.120592 -0.561573 0.00268102  -0.0905483 -0.572665 0.000244856  -0.0779532 -0.532752 -0.000241756  -0.122184 -0.563664 0.00264764  -0.108644 -0.524265 0.0027535  -0.0795143 -0.535167 8.70228e-05  -0.110385 -0.526552 0.00270128  -0.145394 -0.637288 0.00265312  -0.113733 -0.6488 0.000630856  -0.100661 -0.608495 0.000108957  -0.146715 -0.639059 0.00266027  -0.132841 -0.599242 0.00264978  -0.101963 -0.610556 0.000424862  -0.134301 -0.601179 0.00263739  -0.171255 -0.7143 0.00274372  -0.138215 -0.726171 0.00109816  -0.124774 -0.685599 0.000555277  -0.172319 -0.715788 0.00277972  -0.158204 -0.675642 0.00269055  -0.12583 -0.687351 0.000855446  -0.1594 -0.677282 0.00271177  -0.197892 -0.792256 0.00294757  -0.163692 -0.804469 0.00163198  -0.150014 -0.763741 0.00107265  -0.198725 -0.793501 0.00301075  -0.18448 -0.753164 0.00283384  -0.150841 -0.765221 0.00135589  -0.185432 -0.754538 0.00288296  -0.225142 -0.870942 0.00323653  -0.189968 -0.883419 0.00221777  -0.176126 -0.842636 0.00165677  -0.22576 -0.871972 0.00331521  -0.211449 -0.831514 0.00308847  -0.176746 -0.843877 0.00191903  -0.212178 -0.832663 0.00315857  -0.252768 -0.950063 0.00361156  -0.216789 -0.96278 0.00284815  -0.202889 -0.922029 0.00228524  -0.253198 -0.95091 0.00370479  -0.238909 -0.910449 0.00341606  -0.203319 -0.923061 0.00252604  -0.239437 -0.911395 0.0035007  -0.280647 -1.02946 0.00405216  -0.244007 -1.04233 0.0035131  -0.230098 -1.0017 0.00296164  -0.280906 -1.03014 0.00414944  -0.266683 -0.98973 0.00383258  -0.230362 -1.00254 0.00317764  -0.26703 -0.990507 0.00392604  -0.308583 -1.10888 0.00455809  -0.271413 -1.1219 0.00420451  -0.257576 -1.08144 0.00366163  -0.308699 -1.10942 0.00465894  -0.294606 -1.06916 0.00430107  -0.257693 -1.08213 0.0038538  -0.294797 -1.06979 0.00439787  -0.336499 -1.18821 0.00511289  -0.298906 -1.20131 0.00491452  -0.285167 -1.16108 0.00439239  -0.336488 -1.18864 0.00520754  -0.322548 -1.14855 0.00483918  -0.285159 -1.16163 0.00455785  -0.322603 -1.14906 0.00493431  -0.36424 -1.26726 0.00571632  -0.326323 -1.28042 0.00563908  -0.31274 -1.24047 0.00513411  -0.36413 -1.26759 0.00580478  -0.350387 -1.22776 0.00541282  -0.312627 -1.24091 0.00527382  -0.35033 -1.22815 0.00550151  -0.391773 -1.34596 0.00635242  -0.353614 -1.35913 0.00636983  -0.340187 -1.31949 0.00589371  -0.391578 -1.34621 0.0064261  -0.378036 -1.30665 0.00604081  -0.339993 -1.31983 0.00600505  -0.377884 -1.30696 0.00611901  -0.418983 -1.42416 0.00701118  -0.380656 -1.43734 0.00710249  -0.36743 -1.39804 0.00665164  -0.418728 -1.42435 0.00707269  -0.405413 -1.38512 0.00668406  -0.367167 -1.3983 0.00673509  -0.40519 -1.38535 0.0067482  -0.44586 -1.50183 0.00766969  -0.407419 -1.51495 0.00782967  -0.394395 -1.47603 0.00741696  -0.445556 -1.50196 0.00771308  -0.432466 -1.46306 0.00735307  -0.394081 -1.47623 0.00746965  -0.432189 -1.46324 0.00740051  -0.472236 -1.57867 0.00831294  -0.433716 -1.59177 0.00854325  -0.42099 -1.55333 0.00816607  -0.47191 -1.57877 0.00834823  -0.459114 -1.54037 0.00800157  -0.420637 -1.55347 0.00818872  -0.458799 -1.54048 0.00803399  0.00682123 -0.00563276 -0.00780606  0 0 0  0.00796498 -0.012135 -0.0102437  0.00409169 -0.00182933 -0.00915265  0 0 0  0.00543074 -0.00954068 -0.00579238  0.00272947 -0.000213265 -0.00539064  0 0 0  0.00263713 -0.00434917 -0.0063107  0.00178643 -0.00290281 -0.00362539  0.0145912 -0.0294535 -0.00829887  0.0194012 -0.0391335 -0.012496  0.0157527 -0.0193332 -0.0143321  0.0131101 -0.0350105 -0.00664639  0.0108168 -0.0156379 -0.00810289  0.0137786 -0.0241103 -0.0117629  0.00937888 -0.0206437 -0.00641704  0.0207782 -0.0660852 -0.00780153  0.0290683 -0.0769929 -0.0123065  0.0263204 -0.0511178 -0.0147805  0.018996 -0.0720986 -0.00624371  0.0180032 -0.0463774 -0.00800395  0.0245849 -0.05685 -0.0124819  0.0163889 -0.0523013 -0.00645232  0.023728 -0.112353 -0.00717974  0.0353233 -0.123546 -0.0115871  0.0345541 -0.0933868 -0.0141265  0.0216306 -0.118187 -0.00577164  0.0227391 -0.0881446 -0.00744343  0.0326959 -0.0992655 -0.01196  0.0207805 -0.0941429 -0.00599027  0.0226249 -0.1662 -0.00662112  0.0374323 -0.177366 -0.0107434  0.0389054 -0.144035 -0.0131755  0.0203677 -0.171557 -0.0053556  0.0237037 -0.138429 -0.00687742  0.0369162 -0.149626 -0.0111647  0.0215 -0.144063 -0.00555229  0.0174283 -0.225976 -0.00611353  0.0353358 -0.237087 -0.00984597  0.0389404 -0.201444 -0.0121517  0.0151631 -0.230757 -0.00498199  0.0205318 -0.195411 -0.00636959  0.0369111 -0.206547 -0.0102994  0.018251 -0.200503 -0.00517273  0.0083698 -0.290538 -0.00558639  0.0291969 -0.301675 -0.0089035  0.0347233 -0.264275 -0.0110621  0.00621617 -0.294731 -0.00456691  0.0133622 -0.257718 -0.00586176  0.0327571 -0.26883 -0.00937891  0.0111359 -0.262216 -0.00478339  -0.004116 -0.35885 -0.00501633  0.0194045 -0.370119 -0.00790691  0.0265718 -0.331444 -0.00994706  -0.00608665 -0.3625 -0.00409722  0.00253326 -0.32426 -0.00532532  0.024743 -0.335454 -0.00841475  0.00046128 -0.328192 -0.00434971  -0.0196226 -0.430217 -0.0043714  0.00632119 -0.441702 -0.00685954  0.0148941 -0.402052 -0.00876617  -0.021367 -0.433374 -0.00353503  -0.0115153 -0.394186 -0.00471401  0.0132531 -0.405556 -0.00738907  -0.0133818 -0.397595 -0.00382972  -0.0376809 -0.50396 -0.00365925  -0.0095849 -0.515719 -0.00576615  0.000135303 -0.475384 -0.0075686  -0.0391856 -0.506684 -0.00290322  -0.0283515 -0.466809 -0.00404072  -0.00129294 -0.47843 -0.00632262  -0.0299811 -0.469757 -0.00323701  -0.0579332 -0.57964 -0.0028739  -0.0279615 -0.591691 -0.0046382  -0.0172772 -0.550848 -0.00631166  -0.0591936 -0.581978 -0.00218797  -0.047552 -0.541579 -0.00328493  -0.0184827 -0.553485 -0.00520587  -0.0489399 -0.544116 -0.00255704  -0.0799752 -0.656778 -0.00203967  -0.0483792 -0.669119 -0.00348711  -0.0369396 -0.627965 -0.00505948  -0.0810041 -0.658779 -0.00142455  -0.0687438 -0.618035 -0.00247836  -0.0379249 -0.630237 -0.00406861  -0.0698916 -0.620214 -0.0018208  -0.103527 -0.73507 -0.00115705  -0.0705454 -0.747676 -0.00232887  -0.0584841 -0.706323 -0.00377131  -0.104333 -0.736772 -0.00060606  -0.0915769 -0.695792 -0.00161123  -0.059258 -0.708273 -0.00290799  -0.0924989 -0.697652 -0.00102234  -0.12825 -0.814152 -0.000250816  -0.0940901 -0.826989 -0.0011692  -0.0815752 -0.785584 -0.00251508  -0.128855 -0.815593 0.000234127  -0.115751 -0.774515 -0.000721455  -0.0821507 -0.787246 -0.00175285  -0.116459 -0.776097 -0.000197411  -0.153926 -0.893807 0.000679016  -0.118783 -0.906828 -2.09808e-05  -0.10591 -0.865448 -0.00124025  -0.154343 -0.895013 0.00110531  -0.14098 -0.853917 0.000205994  -0.106304 -0.866854 -0.00059247  -0.141495 -0.855248 0.00066638  -0.180273 -0.973742 0.00161362  -0.144309 -0.986909 0.00110698  -0.131214 -0.945663 -2.00272e-05  -0.180527 -0.974744 0.00197911  -0.167022 -0.933739 0.0011332  -0.131444 -0.946842 0.000541449  -0.167359 -0.934853 0.00153375  -0.207126 -1.0538 0.00255442  -0.170496 -1.06707 0.00220966  -0.157242 -1.02601 0.00120258  -0.207232 -1.05462 0.00286674  -0.193645 -1.01376 0.00207853  -0.157327 -1.02699 0.00166273  -0.193828 -1.01468 0.00242162  -0.234253 -1.13376 0.00348377  -0.197081 -1.14708 0.00328088  -0.183776 -1.10629 0.00235677  -0.234235 -1.13442 0.00374103  -0.220657 -1.09379 0.0030086  -0.183737 -1.10709 0.0027442  -0.220704 -1.09454 0.00329733  -0.261537 -1.2135 0.00440741  -0.223944 -1.22685 0.00431466  -0.210624 -1.18636 0.0035007  -0.261413 -1.21403 0.00461817  -0.24788 -1.17366 0.00394273  -0.210481 -1.187 0.00380158  -0.247813 -1.17426 0.00418043  -0.288801 -1.29285 0.00530815  -0.250879 -1.3062 0.0053041  -0.237623 -1.26607 0.00456572  -0.288596 -1.29327 0.0054698  -0.275169 -1.25322 0.00484872  -0.237397 -1.26658 0.00480866  -0.275009 -1.2537 0.0050385  -0.315987 -1.37175 0.00619507  -0.277822 -1.38508 0.00625443  -0.264641 -1.3453 0.00561523  -0.315713 -1.37207 0.00631547  -0.302405 -1.33236 0.00575066  -0.26435 -1.3457 0.00578284  -0.30217 -1.33273 0.00589418  -0.342967 -1.45007 0.0070591  -0.304621 -1.46335 0.007164  -0.291575 -1.42397 0.00658488  -0.34264 -1.45032 0.00713372  -0.329498 -1.41098 0.0066185  -0.291232 -1.42429 0.00670719  -0.329202 -1.41127 0.00671887  -0.369703 -1.52777 0.00791454  -0.331242 -1.54099 0.00805163  -0.318341 -1.50201 0.00755215  -0.369329 -1.52795 0.00794697  -0.356367 -1.489 0.00748372  -0.317954 -1.50225 0.00760698  -0.356022 -1.48922 0.00754166  -0.395976 -1.60461 0.00876284  -0.357464 -1.61783 0.00894642  -0.344836 -1.57932 0.00847936  -0.395588 -1.60477 0.00874734  -0.38291 -1.5663 0.00832796  -0.344402 -1.57951 0.0084846  -0.382524 -1.56647 0.00834036  0.0134171 -0.0117896 -0.0186157  0 0 0  0.0136962 -0.019133 -0.0185494  0.00679236 -0.00621742 -0.0162034  0 0 0  0.0106924 -0.0152803 -0.0144856  0.00542933 -0.00377661 -0.0126841  0 0 0  0.00452697 -0.00841302 -0.0113485  0.00352703 -0.00615263 -0.00885677  0.0281583 -0.0389082 -0.0212994  0.0333298 -0.0499136 -0.0233459  0.026534 -0.0290017 -0.0259957  0.0260902 -0.0440717 -0.0180681  0.0209439 -0.0237433 -0.0202618  0.0236594 -0.0333784 -0.021678  0.0184937 -0.0283287 -0.0168366  0.0413255 -0.0769864 -0.0212586  0.0506186 -0.0892645 -0.0237994  0.044398 -0.0631229 -0.0276549  0.0395484 -0.0827179 -0.0181823  0.0350564 -0.0566939 -0.0213714  0.0424216 -0.0685337 -0.0238068  0.0332038 -0.0622676 -0.0182791  0.0511156 -0.124002 -0.0201998  0.0638419 -0.136644 -0.0228591  0.0595115 -0.106302 -0.0271029  0.0493252 -0.129699 -0.0173094  0.046744 -0.099448 -0.0207467  0.0577916 -0.111986 -0.0234258  0.0449637 -0.105232 -0.0177975  0.0565323 -0.178576 -0.0187705  0.0724304 -0.191237 -0.0213089  0.0703834 -0.15759 -0.0255966  0.0547189 -0.183921 -0.0160904  0.0543954 -0.150424 -0.0194862  0.0687284 -0.163108 -0.0221257  0.0525854 -0.155988 -0.0167162  0.0574317 -0.239255 -0.0171659  0.0763197 -0.251907 -0.0194845  0.0765661 -0.215751 -0.0236423  0.0556515 -0.244121 -0.014704  0.0575494 -0.208215 -0.0179696  0.0749588 -0.220882 -0.0204163  0.0557388 -0.213344 -0.0154064  0.0539503 -0.30493 -0.0154843  0.0756379 -0.317582 -0.0175331  0.078058 -0.27953 -0.0214727  0.0522731 -0.309273 -0.0132501  0.0562212 -0.271529 -0.0163224  0.076532 -0.284187 -0.0185165  0.0544817 -0.27615 -0.0139787  0.0464748 -0.374503 -0.0137551  0.0707352 -0.387251 -0.0155313  0.0750935 -0.347811 -0.0192182  0.0449475 -0.378341 -0.0117364  0.0506945 -0.33927 -0.0146229  0.0736922 -0.351973 -0.016537  0.0490818 -0.34337 -0.0124984  0.0353875 -0.447217 -0.0120125  0.0619749 -0.460089 -0.0135186  0.0680535 -0.419637 -0.0169334  0.0340458 -0.45058 -0.0102065  0.0413567 -0.410506 -0.0128822  0.0668087 -0.423322 -0.0145249  0.0399154 -0.414117 -0.0109704  0.0211751 -0.522312 -0.010262  0.0498308 -0.535372 -0.0115223  0.0573667 -0.494221 -0.0146661  0.0200318 -0.525248 -0.00865221  0.0286534 -0.48449 -0.0111408  0.0563009 -0.497463 -0.0125196  0.0274041 -0.487646 -0.00943208  0.00422621 -0.599298 -0.00852871  0.0346998 -0.61253 -0.0095551  0.0434893 -0.570914 -0.0124309  0.00328994 -0.601845 -0.00710845  0.0130186 -0.560592 -0.00939131  0.04261 -0.573749 -0.010535  0.0119746 -0.563342 -0.00787616  -0.0150049 -0.677645 -0.00681448  0.0170418 -0.691068 -0.00763774  0.0268546 -0.649184 -0.0102537  -0.015743 -0.679847 -0.00556755  -0.00511873 -0.638313 -0.00767136  0.0261643 -0.651652 -0.00859261  -0.00596094 -0.640695 -0.0063374  -0.0361896 -0.757031 -0.00514245  -0.00279152 -0.770591 -0.00577974  0.00788069 -0.728592 -0.00814176  -0.0367355 -0.758919 -0.00406337  -0.0253725 -0.717222 -0.00597119  0.0073719 -0.730729 -0.00670266  -0.026018 -0.719278 -0.00480843  -0.0589374 -0.837065 -0.00351191  -0.0243967 -0.850759 -0.00398827  -0.0130541 -0.808774 -0.00611258  -0.059309 -0.838678 -0.00258327  -0.0473785 -0.796971 -0.00432444  -0.0133911 -0.810612 -0.00487828  -0.0478413 -0.79873 -0.00332069  -0.0829853 -0.917533 -0.00194049  -0.0474858 -0.931292 -0.00227284  -0.0355971 -0.889427 -0.00416541  -0.0831932 -0.918895 -0.00115681  -0.0708146 -0.877252 -0.00271606  -0.0357776 -0.890995 -0.00312209  -0.0711071 -0.878751 -0.00186062  -0.108003 -0.998142 -0.000427246  -0.0717139 -1.01195 -0.000638485  -0.0594337 -0.970294 -0.0023191  -0.10807 -0.999282 0.000228882  -0.0953791 -0.95782 -0.0011785  -0.0594718 -0.97162 -0.00144887  -0.0955203 -0.959079 -0.000458956  -0.133786 -1.07874 0.00101376  -0.0968568 -1.09254 0.000909567  -0.0842746 -1.05116 -0.000564575  -0.133727 -1.07969 0.00154901  -0.120811 -1.03845 0.000306845  -0.0841891 -1.05227 0.000146389  -0.120817 -1.0395 0.000901222  -0.160064 -1.15912 0.00238514  -0.122629 -1.1729 0.00236511  -0.109864 -1.13185 0.00107527  -0.159903 -1.15989 0.0028162  -0.146866 -1.11896 0.0017066  -0.109675 -1.13276 0.00164509  -0.14676 -1.11982 0.00218797  -0.186689 -1.23917 0.00367522  -0.148863 -1.25288 0.00372362  -0.135974 -1.21221 0.00261402  -0.186443 -1.23979 0.00400758  -0.173341 -1.19918 0.00304461  -0.135703 -1.21294 0.00305533  -0.173141 -1.19989 0.00342417  -0.213448 -1.31873 0.00488663  -0.175332 -1.33238 0.0049808  -0.162409 -1.29211 0.00403118  -0.213142 -1.31922 0.00513673  -0.200051 -1.27901 0.00428963  -0.162075 -1.2927 0.00436234  -0.199779 -1.27957 0.00457907  -0.240259 -1.39776 0.0060153  -0.201927 -1.4113 0.00614166  -0.189002 -1.37145 0.00533795  -0.239904 -1.39814 0.00618768  -0.226853 -1.35831 0.0054667  -0.188624 -1.37192 0.00557184  -0.226525 -1.35875 0.00567508  -0.266974 -1.47612 0.00708294  -0.228488 -1.48959 0.00721407  -0.215623 -1.45016 0.00653458  -0.266584 -1.47642 0.0071876  -0.253625 -1.43702 0.0065546  -0.215215 -1.45053 0.00668526  -0.253257 -1.43736 0.00669074  -0.293556 -1.55381 0.00811076  -0.254967 -1.56719 0.00823331  -0.242172 -1.52817 0.00765419  -0.293128 -1.55406 0.00814033  -0.280284 -1.51505 0.00760078  -0.241744 -1.52847 0.00772476  -0.279881 -1.51533 0.00767088  -0.319808 -1.63069 0.00916123  -0.281184 -1.64412 0.0092423  -0.268576 -1.60546 0.00873566  -0.319335 -1.63093 0.00910807  -0.306731 -1.59235 0.00861907  -0.268119 -1.60573 0.0087254  -0.306286 -1.59259 0.00861549  0.0210166 -0.0208127 -0.0283868  0 0 0  0.021418 -0.0302421 -0.0254235  0.00986166 -0.013254 -0.0222805  0 0 0  0.0172506 -0.0239877 -0.0221643  0.00822592 -0.00929028 -0.0191686  0 0 0  0.00704449 -0.015251 -0.0155203  0.00561956 -0.0113446 -0.0134561  0.0440513 -0.0518321 -0.0331132  0.0507537 -0.0644168 -0.0329459  0.0402998 -0.0424691 -0.0362523  0.0414957 -0.0567026 -0.0282967  0.0329306 -0.0351914 -0.0312409  0.0367119 -0.0467203 -0.030251  0.0296864 -0.0394441 -0.0260801  0.064307 -0.0911013 -0.0338814  0.075304 -0.104663 -0.0345364  0.0658119 -0.078282 -0.0396559  0.0624874 -0.0966062 -0.0292571  0.0545984 -0.070358 -0.0338042  0.0636172 -0.0835396 -0.0341682  0.0525107 -0.0756553 -0.0291078  0.0806119 -0.138763 -0.0327075  0.0950857 -0.152726 -0.0336442  0.0874547 -0.122175 -0.039556  0.0790367 -0.144323 -0.0283244  0.0730246 -0.113901 -0.0334356  0.0858147 -0.127713 -0.0342939  0.0713521 -0.119504 -0.0289464  0.0921953 -0.194011 -0.0305851  0.109812 -0.208128 -0.0315506  0.104492 -0.174146 -0.0376525  0.090732 -0.199309 -0.0264823  0.0870207 -0.165505 -0.0317125  0.103097 -0.179563 -0.0326891  0.0855026 -0.170978 -0.0274751  0.0988805 -0.255531 -0.0280185  0.119408 -0.269723 -0.0288985  0.116522 -0.233119 -0.0348825  0.0975039 -0.260425 -0.02424  0.0961564 -0.224047 -0.0293365  0.115261 -0.238207 -0.0302656  0.094732 -0.229172 -0.0253971  0.100723 -0.322207 -0.0252452  0.123931 -0.336465 -0.0260112  0.123443 -0.297845 -0.0316896  0.0994568 -0.326634 -0.0218048  0.100397 -0.288289 -0.0266469  0.122295 -0.302513 -0.0274675  0.099066 -0.292967 -0.0230367  0.0980543 -0.392893 -0.0224183  0.123711 -0.407237 -0.0230486  0.125429 -0.367177 -0.0283606  0.096921 -0.396855 -0.0193226  0.099936 -0.357092 -0.0238447  0.124403 -0.371393 -0.024533  0.0987294 -0.361301 -0.0205734  0.0912318 -0.466767 -0.0195961  0.119086 -0.48121 -0.0201037  0.122812 -0.440096 -0.0249891  0.0902581 -0.470277 -0.0168319  0.0951385 -0.429476 -0.0210114  0.121927 -0.443868 -0.0215693  0.0940769 -0.433221 -0.0180774  0.0807503 -0.543014 -0.0168352  0.110561 -0.557561 -0.0172205  0.116026 -0.515771 -0.0216951  0.0799447 -0.546109 -0.0143938  0.0864277 -0.504619 -0.0182233  0.115295 -0.519118 -0.0186551  0.0855323 -0.507933 -0.0156152  0.0670233 -0.62109 -0.0141482  0.0985423 -0.63573 -0.0144305  0.105533 -0.593494 -0.0184748  0.0663943 -0.6238 -0.012007  0.0742681 -0.58185 -0.0154924  0.104964 -0.596448 -0.0158129  0.0735447 -0.584761 -0.013196  0.0505422 -0.700436 -0.0115664  0.0835466 -0.715145 -0.0117505  0.0918089 -0.67271 -0.0154035  0.0500835 -0.702798 -0.0097115  0.0591083 -0.660617 -0.0128615  0.0914025 -0.675299 -0.0130794  0.0585604 -0.663164 -0.0108573  0.0316796 -0.780699 -0.00909209  0.0659479 -0.795443 -0.00919628  0.0753001 -0.752945 -0.0124476  0.0313879 -0.782742 -0.00749779  0.041388 -0.740469 -0.0103264  0.0750519 -0.755203 -0.0104573  0.0410074 -0.742679 -0.00859642  0.0108696 -0.861484 -0.00674319  0.046211 -0.876227 -0.00677323  0.0564358 -0.833831 -0.00967288  0.010729 -0.86324 -0.00539541  0.0215039 -0.82103 -0.00791955  0.0563365 -0.835784 -0.00797224  0.021284 -0.822941 -0.00644302  -0.0115815 -0.942569 -0.00451612  0.0246433 -0.957266 -0.00448847  0.0356008 -0.915052 -0.0070281  -0.0115813 -0.944061 -0.00338864  -0.000167727 -0.901998 -0.00562382  0.0356394 -0.916726 -0.00561357  -0.000242233 -0.903631 -0.00438094  -0.0353038 -1.02366 -0.00242758  0.001647 -1.03828 -0.00234485  0.0131574 -0.99636 -0.00457788  -0.0351827 -1.02492 -0.0015049  -0.0232936 -0.983113 -0.00347257  0.0133178 -0.99778 -0.00340366  -0.0232364 -0.9845 -0.00244236  -0.0600553 -1.10463 -0.0004704  -0.0225353 -1.11913 -0.000350475  -0.0105731 -1.07754 -0.00226569  -0.0598271 -1.10567 0.000272512  -0.0475638 -1.06417 -0.00144076  -0.0103083 -1.07873 -0.00132918  -0.0473931 -1.06533 -0.000604153  -0.0855267 -1.18526 0.00133896  -0.0475669 -1.19961 0.00149345  -0.0352986 -1.15843 -0.000158787  -0.0852177 -1.18612 0.00191617  -0.0727067 -1.14498 0.00043726  -0.0349474 -1.15941 0.000586271  -0.0724418 -1.14594 0.00110173  -0.111537 -1.26548 0.0030055  -0.0732644 -1.27965 0.00317764  -0.0607576 -1.2389 0.00180054  -0.111164 -1.26616 0.00344324  -0.0984733 -1.22542 0.00218296  -0.0603404 -1.23969 0.00235486  -0.0981362 -1.2262 0.00269389  -0.137841 -1.34512 0.00451851  -0.0993512 -1.35911 0.00470209  -0.0867164 -1.31882 0.00354385  -0.137428 -1.34565 0.00482941  -0.124654 -1.30536 0.00376725  -0.0862579 -1.31945 0.00395441  -0.124265 -1.30598 0.00414419  -0.164318 -1.42415 0.00588822  -0.125695 -1.43795 0.00606108  -0.112974 -1.39812 0.00513411  -0.163877 -1.42457 0.00609708  -0.151062 -1.3847 0.00521445  -0.112495 -1.39861 0.00540113  -0.15064 -1.38519 0.00547719  -0.190785 -1.50247 0.00712132  -0.152088 -1.51611 0.00727153  -0.139362 -1.47674 0.00651145  -0.190341 -1.5028 0.007236  -0.177548 -1.46339 0.00650597  -0.138881 -1.47711 0.00667787  -0.177112 -1.46377 0.00667095  -0.217213 -1.58009 0.00827217  -0.178478 -1.59363 0.00836515  -0.165753 -1.55463 0.00775957  -0.216758 -1.58038 0.00830102  -0.204002 -1.54136 0.00769591  -0.165281 -1.55494 0.00782824  -0.203562 -1.54167 0.00777221  -0.243474 -1.65703 0.00940895  -0.204731 -1.67057 0.00941443  -0.192068 -1.63186 0.00887752  -0.243002 -1.65732 0.00934076  -0.230367 -1.61862 0.00881124  -0.191606 -1.63215 0.00888014  -0.229905 -1.61892 0.0088048  0.0319576 -0.0347953 -0.03702  0 0 0  0.0358915 -0.0490469 -0.0314498  0.0162789 -0.0271018 -0.0279701  0 0 0  0.0272532 -0.0386562 -0.0286381  0.012 -0.0186363 -0.0240946  0 0 0  0.0133388 -0.0295196 -0.0196285  0.00879136 -0.0207377 -0.0168993  0.0642482 -0.0677817 -0.044153  0.0731567 -0.0817752 -0.0425451  0.0598385 -0.0594499 -0.046586  0.0613038 -0.072859 -0.0376685  0.0493244 -0.0507469 -0.0414972  0.0558162 -0.0645769 -0.0387199  0.0454738 -0.0552719 -0.0344329  0.0910131 -0.107851 -0.0461252  0.104074 -0.122621 -0.0451038  0.0914495 -0.0956271 -0.0517466  0.0891342 -0.113349 -0.0398192  0.0780554 -0.0867385 -0.0456853  0.0891148 -0.101184 -0.0444217  0.0757741 -0.0920993 -0.0392711  0.113538 -0.156306 -0.0448794  0.130252 -0.171558 -0.0441017  0.119457 -0.140505 -0.0518548  0.112109 -0.161796 -0.0389102  0.10288 -0.131045 -0.0457387  0.117821 -0.146069 -0.0448699  0.101263 -0.136588 -0.0396166  0.131044 -0.212434 -0.0421236  0.151 -0.227986 -0.0414307  0.142624 -0.193542 -0.0494242  0.129841 -0.217673 -0.0365479  0.122948 -0.183475 -0.043607  0.141333 -0.198891 -0.0428767  0.121646 -0.188872 -0.0378442  0.143279 -0.274933 -0.0386193  0.166128 -0.290728 -0.0379651  0.160381 -0.253629 -0.0457804  0.142213 -0.279797 -0.0334892  0.137835 -0.24295 -0.0404139  0.159273 -0.258628 -0.0397327  0.136703 -0.24802 -0.0350692  0.150202 -0.342658 -0.0348125  0.175655 -0.358603 -0.0341914  0.172556 -0.319498 -0.0415807  0.149261 -0.347097 -0.0301571  0.147397 -0.308211 -0.0367239  0.171585 -0.324092 -0.0360739  0.146391 -0.312876 -0.0318387  0.152104 -0.414417 -0.0309086  0.179872 -0.430512 -0.0303104  0.179249 -0.389946 -0.0371873  0.15129 -0.41842 -0.0267267  0.151765 -0.378082 -0.0328567  0.178403 -0.39411 -0.0322287  0.150885 -0.382312 -0.0284433  0.149322 -0.489346 -0.0270495  0.179152 -0.505518 -0.0264812  0.180812 -0.463937 -0.0327783  0.148651 -0.492926 -0.0233355  0.151273 -0.451534 -0.0289633  0.180101 -0.467684 -0.0283632  0.150525 -0.455334 -0.0250206  0.142372 -0.566583 -0.0232875  0.174001 -0.582829 -0.0227423  0.177663 -0.54059 -0.0284686  0.141847 -0.569761 -0.020016  0.146344 -0.527708 -0.0251529  0.177096 -0.543927 -0.0245728  0.145743 -0.531092 -0.0216632  0.131683 -0.645558 -0.0196774  0.164889 -0.661801 -0.0191629  0.170324 -0.619187 -0.0243115  0.131315 -0.648364 -0.0168281  0.137465 -0.605885 -0.0214593  0.169906 -0.62215 -0.0209115  0.137015 -0.608885 -0.0184031  0.117795 -0.725684 -0.0162296  0.152342 -0.741908 -0.0157378  0.159277 -0.699138 -0.0203476  0.117575 -0.728142 -0.0137694  0.125116 -0.685495 -0.0179338  0.15901 -0.701742 -0.0174077  0.12482 -0.688132 -0.015281  0.101107 -0.806596 -0.0129726  0.136804 -0.822721 -0.0125108  0.145033 -0.779976 -0.0165918  0.101036 -0.808738 -0.0108774  0.109774 -0.766061 -0.0145743  0.144914 -0.782258 -0.0140822  0.109625 -0.768369 -0.012301  0.0821066 -0.887897 -0.00990009  0.118748 -0.903903 -0.00946331  0.12804 -0.861312 -0.0130591  0.0821676 -0.889744 -0.00813699  0.0918781 -0.847207 -0.011416  0.12806 -0.863287 -0.0109437  0.0918708 -0.849207 -0.00948834  0.0611248 -0.969361 -0.00703263  0.098552 -0.98517 -0.00662518  0.10874 -0.942847 -0.00975561  0.061312 -0.970941 -0.00557566  0.0718403 -0.92862 -0.00843883  0.108889 -0.944549 -0.00800228  0.0719624 -0.930342 -0.00683284  0.0385809 -1.05071 -0.0043571  0.0766141 -1.06631 -0.00397348  0.0875101 -1.02433 -0.00668359  0.0388706 -1.05204 -0.00317407  0.050034 -1.01005 -0.00567293  0.0877738 -1.02577 -0.00525689  0.0502717 -1.01152 -0.00435472  0.0147393 -1.13182 -0.00189495  0.0532451 -1.14713 -0.00154138  0.0647237 -1.10557 -0.00384402  0.015121 -1.13292 -0.000961781  0.0268042 -1.0913 -0.00309801  0.0650837 -1.10678 -0.00271487  0.0271375 -1.09253 -0.00204325  -0.0100508 -1.21248 0.000361919  0.0287764 -1.22751 0.000692129  0.0406871 -1.1864 -0.0012486  -0.00960302 -1.21338 0.00107932  0.00245285 -1.1722 -0.000743389  0.0411263 -1.18739 -0.000380754  0.00286627 -1.17321 7.93934e-05  -0.0355828 -1.29264 0.00239944  0.00345516 -1.30734 0.00269723  0.015703 -1.26671 0.00110149  -0.0350847 -1.29336 0.00292206  -0.0227394 -1.25263 0.00141144  0.0162015 -1.26751 0.00173664  -0.0222666 -1.25344 0.00202823  -0.061564 -1.37216 0.0042212  -0.0224478 -1.38655 0.00448704  -0.009974 -1.34641 0.00319839  -0.0610509 -1.37272 0.00458193  -0.048522 -1.33248 0.00333261  -0.00943971 -1.34703 0.00363541  -0.0480165 -1.33312 0.00377464  -0.087852 -1.45103 0.00580692  -0.0487392 -1.46507 0.00603318  -0.0361068 -1.42543 0.00504255  -0.0873308 -1.45145 0.00603247  -0.0746801 -1.41167 0.00504351  -0.0355618 -1.4259 0.00530457  -0.0741656 -1.41217 0.00533342  -0.114213 -1.52915 0.00718379  -0.0751901 -1.54293 0.00735879  -0.0624936 -1.50373 0.00660086  -0.113715 -1.52948 0.00730443  -0.101029 -1.49017 0.00652027  -0.0619605 -1.50408 0.00673842  -0.100517 -1.49055 0.0066905  -0.140576 -1.60661 0.00837231  -0.101664 -1.62017 0.0084672  -0.0889351 -1.58133 0.00791216  -0.140111 -1.6069 0.00840807  -0.127398 -1.56795 0.00780177  -0.0884366 -1.58163 0.00794864  -0.126918 -1.56827 0.00787687  -0.166856 -1.68351 0.00946426  -0.128042 -1.69697 0.00949764  -0.11532 -1.65835 0.00901341  -0.166406 -1.68378 0.00944877  -0.153711 -1.6451 0.00893044  -0.114876 -1.65862 0.00900412  -0.15327 -1.64539 0.0089345  
SCALARS smooth_stress float 1
LOOKUP_TABLE default
318.373 565.71 450.164 411.584 391.247 352.104 321.709 303.259 277.671 250.352 244.562 224.963 197.939 175.702 167.445 164.448 145.696 116.527 98.3704 96.6048 112.678 118.087 111.059 100.065 42.4921 510.897 921.489 761.349 700 680.612 648.442 600.579 564.637 532.854 484.12 448.434 412.157 364.453 334.959 333.424 311.385 283.905 241.636 211.085 210.253 231.41 225.178 199.182 193.354 89.4221 305.622 573.827 547.555 545.077 529.476 534.148 525.858 492.895 484.041 462.907 407.676 373.946 344.72 325.401 320.994 296.405 267.785 248.9 231.115 219.127 244.911 237.357 213.203 222.284 109.319 189.525 384.711 439.057 498.177 497.629 482.442 484.694 467.589 452.196 450.14 420.656 378.201 358.95 337.634 323.094 320.39 287.454 279.562 253.382 225.374 249.715 258.305 246.95 233.29 112.514 152.171 348.627 446.093 517.01 533.996 504.791 478.73 471.516 459.168 448.246 433.146 394.345 368.746 353.52 347.55 334.962 293.686 281.72 256.327 230.287 230.899 240.979 234.817 203.448 94.1268 211.152 501.384 601.924 630.479 627.497 586.277 540.339 514.98 509.581 482.915 448.902 424.16 392.238 372.037 349.129 314.356 284.342 281.532 267.27 249.717 245.65 242.155 224.369 193.828 91.4258 349.718 790.665 849.004 820.743 779.298 706.008 669.152 630.522 579.966 529.039 500.802 465.427 413.204 385.426 368.434 342.765 314.751 311.445 291.194 269.291 256.173 252.916 243.593 233.844 122.802 534.389 1108.19 1098.96 1044.62 979.606 878.801 808.741 747.96 667.007 594.441 570.024 524.079 452.184 404.306 401.475 385.688 330.417 308.22 295.189 261.78 227.606 238.644 246.229 266.353 151.257 320.08 636.947 608.474 578.86 551.328 498.91 438.904 396.975 360.793 321.072 301.832 279.916 243.217 208.887 202.698 193.241 164.201 152.358 149.92 131.813 109.721 114.942 114.059 127.184 75.8798 600.12 1122.52 984.296 895.187 817.885 729.943 675.515 626.595 558.933 500.649 464.497 426.212 376.862 342.18 317.356 295.424 270.73 235.636 205.939 203.23 208.422 205.663 201.791 193.698 94.5976 935.419 1820.34 1687.68 1552.4 1452.69 1335.84 1226.13 1142.53 1058.7 962.648 874.01 808.319 714.393 654.575 625.579 562.98 532.174 495.544 447.445 440.736 441.613 412.674 392.509 390.99 191.224 536.831 1136.66 1214.62 1191.38 1136.78 1082.81 1013.93 961.141 948.342 902.252 805.789 741.845 684.087 626.2 580.54 540.604 529.499 514.524 479.029 452.318 463.724 441.954 421.655 421.772 198.631 354.216 805.182 956.687 1018.3 1015.77 967.503 926.604 899.612 883.139 859.061 783.568 711.257 683.402 627.902 579.496 581.448 569.387 550.767 494.514 459.999 475.341 478.481 465.357 429.73 201.759 313.789 765.456 960.64 1030.96 1045.69 996.551 958.582 932.792 905.253 874.066 809.505 743.528 698.411 674.033 657.907 631.854 594.992 564.412 515.973 483.926 466.498 471.963 459.916 419.486 201.875 423.484 1020.22 1231.24 1264.44 1230.54 1148.58 1083.41 1023.88 986.626 942.445 879.771 823.785 756.479 732.664 690.317 626.13 581.652 564.49 537.427 498.868 491.6 465.789 429.166 411.65 201.228 661.272 1524.99 1703.85 1658.48 1554.95 1415.59 1317.19 1223.01 1131.93 1050.48 992.493 919.073 834.418 784.326 729.463 669.414 602.734 590.082 569.297 539.677 525.641 480.15 447.63 441.811 226.216 1015.29 2152.12 2191.7 2067.42 1925.54 1753.5 1597.09 1460.32 1337.27 1219.58 1130.68 1027.53 935.451 844.747 764.039 717.783 653.389 595.32 557.32 530.356 487.692 482.79 484.246 491.912 263.683 616.395 1248.24 1203.9 1126.55 1069.23 980.523 868.025 782.804 721.275 656.288 595.748 540.234 495.946 433.148 374.165 351.046 338.648 301.467 266.468 250.808 231.962 240.004 240.287 247.515 136.576 547.306 1114.9 1080.41 985.91 899.908 792.032 699.883 623.934 555.578 506.63 445.695 400.286 362.649 335.035 306.915 265.384 252.833 241.779 204.083 203.901 202.511 175.249 177.333 191.853 101.785 818.876 1779.25 1850.32 1721.29 1592.3 1402.71 1239.71 1133.94 1041.62 949.515 841.28 788.478 719.688 655.339 607.36 518.87 495.953 494.356 447.471 447.834 438.283 395.973 382.387 396.071 208.37 439.907 1097.24 1322.65 1291.56 1212.52 1107.27 995.938 929.823 896.631 836.667 769.018 745.612 688.491 617.664 567.485 515.393 506.271 498.841 498.405 481.03 433.157 412.018 410.549 394.788 186.89 318.298 841.132 1059.17 1058.5 1022.86 964.43 895.769 842.708 814.345 773.469 718.116 693.453 658.253 598.744 546.243 536.969 553.695 528.402 496.155 468.609 437.27 419.28 410.592 384.992 179.924 324.39 854.956 1071.75 1073.03 1038.6 972.879 940.676 901.86 854.898 808.794 749.056 714.773 673.378 642.197 607.456 583.23 581.367 539.112 488.048 481.393 480.434 461.125 425.689 405.039 202.643 426.429 1053.27 1299.96 1321.47 1248.13 1156.61 1091.69 1018.92 952.207 901.601 849.661 787.109 714.551 703.645 684.082 633.467 590.287 536.978 497.036 478.947 479.469 446.43 416.626 420.642 208.97 615.096 1452.13 1722.96 1706.64 1573.19 1445.7 1312.62 1189.3 1109.51 1036.09 955.072 883.364 814.547 757.524 720.959 680.132 612.384 566.513 546.355 519.753 501.419 460.145 422.427 413.665 204.404 932.955 2043.96 2202.46 2089.24 1913.02 1765.34 1595.5 1437.22 1339.36 1237.29 1117.81 1009.69 939.491 830.28 731.212 699.441 650.268 585.549 546.163 521.377 490.112 490.405 472.777 425.836 204.508 569.86 1198.41 1214.15 1133.36 1052.09 971.205 873.551 787.875 730.911 673.699 608.024 534.698 492.918 435.589 366.083 344.608 337.348 299.041 249.934 230.691 227.614 243.55 246.384 222.195 106.052 512.169 1098.53 1083.98 1000.78 965.693 843.572 712.95 632.711 569.259 510.047 447.966 411.317 386.839 354.922 314.878 260.679 251.478 243.626 211.006 213.127 213.144 181.24 171.331 191.571 101.422 763.836 1728.79 1844.61 1740.65 1654.64 1463.98 1265.49 1149.08 1053.27 934.228 831.076 788.407 735.252 674.422 617.536 519.767 490.55 475.758 436.902 451.529 449.788 407.857 392.71 409.502 208.302 427.301 1082.62 1349.11 1329.27 1240.47 1146.85 1027.13 934.166 872.193 794.82 732.11 721.489 663.354 611.447 593.399 537.995 489.554 464.355 482.584 486.512 452.147 426.154 420.585 415.504 201.245 330.168 868.692 1110.01 1118.7 1063.45 987.979 897.411 812.493 769.84 740.203 704.423 691.086 646.961 604.649 582.369 570.381 542.375 505.729 497.605 466.099 447.307 425.095 399.532 399.899 199.552 329.041 875.887 1111.46 1130.74 1074.61 974.896 902.068 848.225 802.183 772.588 748.921 727.276 671.728 614.959 600.242 607.54 582.274 528.739 476.575 461.449 473.485 438.969 402.366 396.244 202.563 420.022 1051.06 1338.35 1387.41 1277.48 1165.34 1072.76 989.203 929.43 872.833 823.992 778.844 710.033 664.239 659.805 635.342 599.679 550.751 488.079 482.929 469.546 423.286 401.177 386.39 197.278 591.24 1413.38 1734.62 1741.2 1568.73 1447.19 1314.95 1168.93 1093.83 1011.75 926.112 861.344 806.999 751.281 729.249 698.115 638.32 577.082 524.003 503.892 461.239 432.023 414.942 409.407 211.36 889.716 1974.18 2190.09 2101.96 1910.75 1781.79 1614.89 1429.4 1304.63 1200.39 1103.05 991.991 911.151 824.168 771.122 743.327 654.03 573.401 535.507 484.8 441.63 438.952 437.824 434.322 214.301 543.991 1152.31 1203.88 1146.73 1056.82 986.578 893.463 796.138 719.699 658.454 607.432 528.904 474.476 434.87 393.063 364.489 325.009 291.836 263.926 220.378 208.257 216.804 222.02 217.387 102.843 494.646 1055.24 1053.22 982.35 948.612 831.741 722.526 652.612 580.762 517.208 464.94 432.132 410.984 370.652 308.363 261.024 243.018 237.724 231.182 228.403 212.747 193.59 177.392 183.158 97.4419 734.803 1677.39 1822.56 1717.83 1630.26 1468.16 1293.9 1179.09 1070.73 957.76 857.361 791.15 734.814 676.022 612.877 533.809 500.941 491.73 455.106 457.922 456.9 415.895 399.891 394.998 191.602 415.341 1067.39 1369.31 1361.66 1260.28 1158.07 1025.65 944.646 892.26 826.177 749.934 690.036 620.261 588.079 578.576 544.366 527.156 500.776 455.779 459.334 484.114 443.222 425.944 410.374 189.529 339.605 865.709 1122.44 1166.2 1092.36 982.388 884.325 813.176 772.439 741.026 709.883 684.913 634.966 588.444 566.409 562.897 540.781 500.772 465.533 467.161 480.711 454.875 437.252 424.68 205.535 344.579 879.182 1111.7 1143.85 1079.4 976.154 902.383 828.323 781.371 755.102 719.681 718.797 680.739 612.219 596.102 610.694 570.939 516.579 483.377 493.468 476.299 432.561 433.023 421.792 209.123 413.17 1038.64 1334.28 1384.88 1274.18 1157.41 1070.73 979.023 919.205 864.392 806.808 778.725 719.171 658.214 621.766 621.741 601.506 558.044 523.236 526.336 480.324 406.508 393.863 383.22 198.893 586.727 1417.8 1721.16 1720.86 1566.22 1427.76 1300.33 1167.66 1092.11 1017.54 948.717 867.573 803.091 738.829 685.467 676.499 618.322 557.798 513.777 508.832 455.888 396.389 393.325 408.552 220.946 902.579 1990.52 2155.95 2072.47 1922.2 1762.36 1570.83 1405.06 1287.89 1196.21 1098.17 976.553 913.708 845.967 784.187 742.185 645.218 566.929 522.138 460.287 427.091 410.319 397.789 428.75 229.863 548.864 1152.65 1179.86 1132.67 1064.48 976.598 868.893 783.107 703.766 643.365 588.952 522.802 487.584 458.869 416.731 368.049 329.012 304.596 281.898 221.67 215.977 221.835 199.112 207.771 108.853 517.52 1067.65 1043.54 983.015 925.649 797.051 703.605 641.515 576.344 511.416 464.955 425.171 377.97 352.441 319.043 275.318 231.12 214.272 208.968 208.558 207.247 185.82 171.139 183.462 98.5895 756.016 1697.73 1808.1 1711.12 1612.63 1420.5 1261.77 1155.28 1060.7 967.782 874.127 800.352 728.227 671.733 618.605 561.168 505.109 471.335 441.821 450.389 464.693 405.545 371.555 384.421 194.005 397.657 1058.43 1345.16 1334.13 1260.35 1153.98 1027.8 944.28 892.238 840.232 789.818 732.3 649.664 598.592 560.735 535.759 535.757 503.107 456.328 471.989 494.843 430.292 408.117 407.229 191.859 318.409 831.233 1101.21 1150.54 1069.36 988.216 924.515 851.883 786.327 727.182 734.791 730.255 650.008 587.425 556.06 536.611 517.996 484.319 448.977 470.251 468.533 445.468 457.026 431.914 202.081 349.121 866.65 1109.89 1157.23 1077.92 1002.19 942.272 869.595 810.967 749.423 718.604 718.529 693.55 642.226 619.131 603.088 557.233 502.948 469.766 480.644 453.13 438.587 478.045 461.473 212.955 416.822 1059.97 1347.87 1379.01 1279.91 1179.17 1082.6 987.725 939.428 873.654 805.907 760.273 706.901 671.4 646.885 632.168 593.161 535.057 515.413 514.386 476.511 433.977 448.672 448.188 214.896 591.232 1432.71 1726.82 1715.54 1563.38 1422.68 1311.23 1179.92 1097.43 1034.14 952.525 861.057 796.895 715.563 664.982 674.407 616.719 548.983 512.109 517.164 507.859 466.475 431.058 427.568 223.957 919.272 2012.81 2151.79 2062.76 1919.7 1743.77 1562.68 1415.38 1324.69 1226.04 1094.7 981.354 928.793 837.85 763.328 729.618 650.791 575.342 508.45 471.257 484.518 478.52 415.836 400.873 211.027 554.989 1176.31 1183.57 1113.52 1054.3 955.763 846.65 774.955 734.172 659.445 583.624 535.178 495.849 459.586 420.987 370.992 326.228 296.743 267.491 227.929 231.176 242.336 204.731 185.666 94.6479 538.661 1084.79 1037.58 977.655 898.531 784.22 702.521 630.916 571.512 501.095 453.364 419.474 360.056 339.871 319.247 275.656 229.878 209.684 207.173 210.48 223.628 201.28 185.24 185.754 93.4897 813.044 1757.61 1804.28 1704.8 1584.93 1403.94 1267.68 1140.97 1044.67 949.498 862.119 806.729 732.274 667.746 599.941 545.684 473.087 431.513 447.864 469.723 461.08 395.522 385.08 386.443 184.111 440.582 1130.14 1357.21 1310.42 1245.88 1136.36 1022.46 925.327 867.822 826.8 765.889 713.565 679.872 626.259 555.529 540.379 502.624 471.529 477.676 495.216 490.403 421.09 411.877 397.729 176.991 318.833 833.391 1084.4 1104.51 1047.71 993.831 906.212 831.912 796.049 741.364 710.464 686.256 647.574 610.847 571.859 565.229 550.529 514.99 479.776 466.592 471.959 465.775 453.623 409.074 184.781 323.378 822.092 1078.61 1129.37 1062.4 1023.57 941.458 876.065 851.79 789.107 741.825 712.048 676.015 626.004 625.504 613.122 581.678 544.2 496.44 454.373 450.719 466.565 479.05 468.091 215.736 402.348 1033.21 1330.64 1363.25 1255.37 1165.72 1066.34 980.278 953.936 900.125 814.458 755.048 713.906 680.747 693.253 639.571 580.491 551.257 514.794 482.738 469.46 456.141 465.647 486.998 234.441 591.182 1435.09 1752.26 1717.68 1523.4 1387.49 1314.54 1200.93 1098.67 1033.73 938.613 859.06 804.612 748.648 729.559 682.814 622.382 578.206 523.958 523.691 525.229 478.313 433.61 440.067 227.701 901.715 2034.5 2220.7 2075.67 1887.44 1738.79 1610.38 1458.55 1350.46 1245.95 1106.99 980.456 906.541 834.962 773.155 714.306 639.426 580.424 513.022 509.01 507.719 467.181 417.124 397.271 202.399 542.138 1186.6 1214.35 1113.1 1045.26 970.635 869.633 778.474 755.326 686.207 594.339 524.343 479.74 453.519 408.37 352.819 306.971 274.566 250.21 244.303 220.239 217.371 211.696 188.146 91.8144 536.235 1063.61 1004.6 916.14 823.166 755.82 699.019 626.49 564.65 507.489 464.271 440.401 393.401 333.125 301.386 278.683 244.727 223.615 218.391 219.892 229.838 218.235 212.916 191.998 82.9016 841.21 1753.77 1741.96 1607.97 1475.47 1368.83 1272.94 1150.02 1052.16 961.691 865.504 819.567 762.347 670.26 605.106 564.958 498.543 458.343 457.931 447.38 438.135 411.592 415.087 378.759 166.756 492.19 1150.58 1283.6 1232.85 1187.14 1108.09 1019.09 931.02 907.406 877.668 761.13 701.005 693.237 663.685 619.39 597.618 529.252 492.245 495.705 474.366 453.896 413.069 399.916 357.908 158.149 337.695 818.373 994.015 1023.37 1029.64 982.195 885.702 824.35 835.604 815.92 721.678 681.672 680.226 652.607 624.123 624.605 596.59 555.094 515.409 490.999 485.553 462.372 423.224 367.308 169.399 303.515 759.162 977.757 1045.6 1039.81 1012.13 926.067 870.964 868.688 825.756 778.428 753.008 705.455 629.681 618.678 632.056 611.341 585.882 526.424 473.617 474.839 468.995 439.251 412.654 199.251 396.623 985.839 1255.74 1306.92 1231.91 1149.02 1060.45 1007.53 981.718 928.301 876.209 810.144 742.348 688.049 677.12 655.422 612.04 576.951 506.022 464.088 468.916 443.137 428.411 438.075 215.977 627.802 1477.06 1728.98 1672.56 1512.18 1370.69 1296.65 1244.32 1146.2 1048.15 959.117 874.892 794.217 747.763 727.376 668.974 623.945 585.377 503.172 485.575 480.054 432.431 414.849 427.821 221.064 942.558 2094.34 2227.28 2062.03 1888.51 1709.41 1594.44 1499.78 1359.35 1232.21 1088.63 958.111 868.589 805.444 759.134 676.956 611.88 580.457 527.475 502.187 455.742 415.042 414.255 404.269 202.387 558.343 1201.9 1224.06 1133.14 1063.22 962.723 872.697 808.884 741.888 679.063 589.075 500.187 467.201 442.106 398.652 344.609 309.787 283.726 263.146 251.204 209.719 199.414 214.046 198.03 93.1528 267.058 531.678 495.049 437.62 394.094 366.288 344.449 316.59 283.663 254.316 233.129 226.246 203.443 161.409 150.693 143.592 126.629 111.435 103.496 105.418 107.087 102.752 106.152 99.8981 42.3028 418.861 864.895 843.841 768.222 707.324 665.904 624.454 578.278 534.952 485.456 435.522 418.132 388.99 336.924 313.223 299.125 272.489 241.744 222.574 204.303 206.556 205.101 205.322 192.806 86.7817 252.528 559.699 595.764 578.917 576.597 555.882 518.05 477.916 479.425 462.421 396.33 373.48 357 342.521 331.48 315.433 280.228 254.185 250.671 230.478 212.025 197.781 188.699 177.239 87.1549 174.227 398.536 456.863 483.518 517.657 502.803 463.232 432.953 439.882 436.367 385.34 371.446 360.853 336.913 334.444 327.558 293.889 272.182 261.658 259.613 237.08 213.181 196.722 176.816 90.0377 150.948 362.297 451.59 501.282 523.626 508.366 465.743 443.812 439.865 420.585 411.749 402.378 370.266 326.958 319.347 332.53 318.171 300.371 264.545 240.115 229.6 217.285 206.999 191.488 95.0161 203.852 490.581 606.391 637.719 614.666 576.087 530.129 515.134 502.273 468.2 466.05 428.004 375.894 341.709 325.896 339.928 329.906 299.439 244.606 222.531 231.669 214.955 206.92 199.616 95.6497 328.823 752.452 848.891 821.859 757.142 689.192 643.363 627.781 589.138 528.131 487.044 440.941 397.075 368.506 346.651 328.7 313.878 287.561 233.296 224.741 236.085 223.316 215.524 210.478 106.745 495.193 1056.27 1082.78 1012.17 942.233 843.173 783.643 756.083 681.221 604.336 524.073 468.206 432.06 396.693 367.595 326.065 304.76 283.399 252.24 236.146 217.054 208.756 218.243 213.166 103.371 292.775 604.154 598.578 561.957 530.421 468.238 429.854 416.349 366.238 328.906 282.733 242.743 230.014 212.846 192.987 172.419 162.139 143.211 129.069 121.841 107.563 100.859 109.832 103.301 44.621 318.373 565.71 600.12 318.373 318.373 565.71 1122.52 600.12 510.897 921.489 935.419 510.897 318.373 318.373 565.71 600.12 318.373 510.897 318.373 247.337 450.164 522.404 450.164 984.296 410.592 761.349 884.924 247.337 247.337 450.164 522.404 410.592 247.337 202.828 411.584 461.892 411.584 895.187 350.758 700 802.758 202.828 202.828 411.584 461.892 350.758 202.828 208.756 391.247 433.295 391.247 817.885 349.243 680.612 749.638 208.756 208.756 391.247 433.295 349.243 208.756 182.491 352.104 384.59 352.104 729.943 331.369 648.442 703.053 182.491 182.491 352.104 384.59 331.369 182.491 169.614 321.709 345.353 321.709 675.515 317.072 600.579 632.784 169.614 169.614 321.709 345.353 317.072 169.614 152.095 303.259 330.161 303.259 626.595 283.506 564.637 593.35 152.095 152.095 303.259 330.161 283.506 152.095 151.164 277.671 296.434 277.671 558.933 281.131 532.854 549.182 151.164 151.164 277.671 296.434 281.131 151.164 126.507 250.352 262.499 250.352 500.649 251.723 484.12 509.52 126.507 126.507 250.352 262.499 251.723 126.507 123.846 244.562 238.15 244.562 464.497 232.397 448.434 453.128 123.846 123.846 244.562 238.15 232.397 123.846 120.716 224.963 226.347 224.963 426.212 216.037 412.157 420.882 120.716 120.716 224.963 226.347 216.037 120.716 104.246 197.939 199.865 197.939 376.862 196.119 364.453 387.437 104.246 104.246 197.939 199.865 196.119 104.246 93.6922 175.702 176.997 175.702 342.18 168.334 334.959 326.956 93.6922 93.6922 175.702 176.997 168.334 93.6922 82.0095 167.445 165.183 167.445 317.356 166.625 333.424 327.619 82.0095 82.0095 167.445 165.183 166.625 82.0095 85.4357 164.448 152.173 164.448 295.424 166.799 311.385 297.96 85.4357 85.4357 164.448 152.173 166.799 85.4357 79.012 145.696 143.251 145.696 270.73 144.586 283.905 265.021 79.012 79.012 145.696 143.251 144.586 79.012 66.6842 116.527 127.478 116.527 235.636 139.319 241.636 267.153 66.6842 66.6842 116.527 127.478 139.319 66.6842 49.8426 98.3704 108.158 98.3704 205.939 102.316 211.085 228.391 49.8426 49.8426 98.3704 108.158 102.316 49.8426 48.5278 96.6048 97.7812 96.6048 203.23 108.769 210.253 219.054 48.5278 48.5278 96.6048 97.7812 108.769 48.5278 48.077 112.678 105.449 112.678 208.422 101.483 231.41 221.682 48.077 48.077 112.678 105.449 101.483 48.077 64.6012 118.087 102.973 118.087 205.663 129.927 225.178 219.931 64.6012 64.6012 118.087 102.973 129.927 64.6012 53.486 111.059 102.69 111.059 201.791 95.2503 199.182 192.743 53.486 53.486 111.059 102.69 95.2503 53.486 57.5727 100.065 99.1004 100.065 193.698 103.931 193.354 199.766 57.5727 57.5727 100.065 99.1004 103.931 57.5727 42.4921 42.4921 94.5976 42.4921 94.5976 89.4221 89.4221 191.224 42.4921 42.4921 42.4921 94.5976 89.4221 42.4921 192.524 355.779 697.821 335.3 305.622 573.827 536.831 305.622 192.524 355.779 335.3 192.524 305.622 192.524 311.185 703.386 268.205 547.555 599.828 163.255 311.185 362.521 268.205 163.255 288.417 657.208 279.35 545.077 614.788 147.93 288.417 340.866 279.35 147.93 289.365 634.806 265.727 529.476 576.587 140.486 289.365 316.343 265.727 140.486 296.337 605.894 263.748 534.148 560.197 148.879 296.337 318.464 263.748 148.879 278.87 550.62 270.4 525.858 522.614 147.459 278.87 287.431 270.4 147.459 261.378 515.937 255.458 492.895 491.316 131.411 261.378 263.189 255.458 131.411 255.184 499.769 237.437 484.041 469.826 129.967 255.184 252.748 237.437 129.967 233.768 461.999 246.604 462.907 478.516 125.216 233.768 247.021 246.604 125.216 203.872 409.513 216.303 407.676 423.736 108.551 203.872 214.978 216.303 108.551 187.194 382.108 191.373 373.946 382.053 95.321 187.194 194.536 191.373 95.321 166.515 337.531 182.573 344.72 359.792 91.8728 166.515 187.572 182.573 91.8728 159.257 312.395 162.147 325.401 324.295 74.6418 159.257 149.959 162.147 74.6418 165.979 308.223 163.254 320.994 301.905 84.6152 165.979 162.436 163.254 84.6152 146.938 267.556 157.74 296.405 278.634 81.3638 146.938 145.786 157.74 81.3638 138.209 261.444 138.665 267.785 261.97 65.574 138.209 121.769 138.665 65.574 125.109 259.908 129.12 248.9 267.529 72.6353 125.109 139.675 129.12 72.6353 112.715 241.506 119.78 231.115 246.994 52.4735 112.715 120.233 119.78 52.4735 113.648 237.506 111.335 219.127 232.034 60.2416 113.648 121.273 111.335 60.2416 118.732 233.192 107.792 244.911 220.284 53.4062 118.732 116.234 107.792 53.4062 107.09 207.011 137.119 237.357 243.44 65.326 107.09 116.958 137.119 65.326 88.1231 190.718 100.238 213.203 198.513 41.7644 88.1231 90.0528 100.238 41.7644 93.2887 197.292 112.965 222.284 223.141 46.3587 93.2887 100.665 112.965 46.3587 46.93 96.6269 109.319 109.319 198.631 46.93 46.93 96.6269 109.319 46.93 113.097 218.048 438.839 201.531 189.525 384.711 354.216 189.525 113.097 218.048 201.531 113.097 189.525 113.097 236.37 511.23 195.186 439.057 450.966 104.95 236.37 237.307 195.186 104.95 256.661 534.167 243.871 498.177 505.721 131.42 256.661 273.923 243.871 131.42 240.11 501.978 254.306 497.629 512.574 125.241 240.11 260.245 254.306 125.241 237.811 476.917 243.323 482.442 503.192 114.869 237.811 241.734 243.323 114.869 246.988 463.31 239.119 484.694 464.311 122.941 246.988 235.183 239.119 122.941 231.517 445.204 245.576 467.589 462.293 124.047 231.517 228.127 245.576 124.047 228.857 448.573 222.013 452.196 437.32 107.469 228.857 217.077 222.013 107.469 229.139 440.253 230.183 450.14 445.82 121.388 229.139 231.495 230.183 121.388 203.803 396.275 219.958 420.656 413.241 107.751 203.803 208.758 219.958 107.751 186.752 359.738 200.699 378.201 370.327 96.0519 186.752 187.517 200.699 96.0519 178.205 346.557 177.503 358.95 340.93 90.7005 178.205 172.221 177.503 90.7005 166.144 313.805 181.447 337.634 342.471 87.5049 166.144 174.336 181.447 87.5049 155.015 272.317 156.187 323.094 285.431 78.6391 155.015 139.469 156.187 78.6391 149.467 273.048 166.907 320.39 294.065 76.3763 149.467 132.848 166.907 76.3763 129.576 268.055 153.483 287.454 287.383 73.0908 129.576 140.201 153.483 73.0908 123.791 254.615 133.971 279.562 282.004 56.4847 123.791 127.854 133.971 56.4847 118.4 237.523 145.592 253.382 268.762 67.3065 118.4 126.761 145.592 67.3065 105.479 214.812 107.79 225.374 225.752 51.093 105.479 110.762 107.79 51.093 126.179 230.533 117.584 249.715 234.247 54.3857 126.179 104.05 117.584 54.3857 130.266 234.943 132.131 258.305 241.094 71.7931 130.266 126.482 132.131 71.7931 125.08 230.936 126.174 246.95 237.386 58.4734 125.08 108.461 126.174 58.4734 128.995 224.479 120.776 233.29 227.97 66.6061 128.995 122.476 120.776 66.6061 62.3891 102.004 112.514 112.514 201.759 62.3891 62.3891 102.004 112.514 62.3891 76.4281 166.664 366.343 152.684 152.171 348.627 313.789 152.171 76.4281 166.664 152.684 76.4281 152.171 76.4281 202.687 445.457 196.457 446.093 451.667 90.2356 202.687 213.659 196.457 90.2356 241.516 484.128 249.636 517.01 508.973 112.451 241.516 231.799 249.636 112.451 257.519 513.787 267.374 533.996 521.989 129.065 257.519 252.329 267.374 129.065 244.631 490.586 266.622 504.791 523.7 128.454 244.631 261.458 266.622 128.454 237.706 463.294 238.169 478.73 472.851 116.177 237.706 229.128 238.169 116.177 236.073 454.408 240.56 471.516 485.731 121.529 236.073 234.166 240.56 121.529 223.339 434.567 230.956 459.168 447.061 114.544 223.339 220.242 230.956 114.544 221.001 418.808 228.212 448.246 458.192 108.795 221.001 214.325 228.212 108.795 216.853 387.292 220.034 433.146 415.874 112.206 216.853 204.483 220.034 112.206 191.449 351.519 213.111 394.345 393.631 104.647 191.449 182.809 213.111 104.647 180.745 336.845 181.233 368.746 349.897 86.8022 180.745 168.71 181.233 86.8022 171.49 314.097 187.512 353.52 348.514 93.9426 171.49 168.135 187.512 93.9426 168.078 307.179 166.008 347.55 325.519 77.5475 168.078 145.961 166.008 77.5475 170.923 308.4 181.542 334.962 332.388 90.531 170.923 161.218 181.542 90.531 157.878 301.332 153.42 293.686 299.465 80.3923 157.878 147.182 153.42 80.3923 155.771 296.151 140.266 281.72 295.526 77.4861 155.771 154.15 140.266 77.4861 134.982 256.992 141.454 256.327 268.886 78.2851 134.982 142.001 141.454 78.2851 119.895 245.187 114.872 230.287 247.087 56.6972 119.895 114.991 114.872 56.6972 123.536 244.809 115.415 230.899 236.839 63.1981 123.536 130.196 115.415 63.1981 128.038 243.538 115.483 240.979 229.658 60.3377 128.038 114.612 115.483 60.3377 121.87 234.42 125.495 234.817 242.305 67.7006 121.87 128.926 125.495 67.7006 104.295 205.25 109.321 203.448 217.611 54.1695 104.295 105.495 109.321 54.1695 50.1254 99.7555 94.1268 94.1268 201.875 50.1254 50.1254 99.7555 94.1268 50.1254 75.7428 181.964 399.113 161.104 211.152 501.384 423.484 211.152 75.7428 181.964 161.104 75.7428 211.152 75.7428 243.406 515.183 290.232 601.924 596.737 106.221 243.406 238.008 290.232 106.221 275.494 546.834 311.693 630.479 634.501 137.185 275.494 277.174 311.693 137.185 276.478 531.902 318.787 627.497 629.942 138.309 276.478 269.66 318.787 138.309 260.16 505.965 308.71 586.277 600.602 138.168 260.16 262.242 308.71 138.168 241.023 495.288 277.567 540.339 547.976 121.992 241.023 243.723 277.567 121.992 235.444 478.384 262.771 514.98 535.436 119.031 235.444 251.565 262.771 119.031 235.829 470.686 252.209 509.581 488.445 116.412 235.829 226.819 252.209 116.412 227.245 455.259 257.373 482.915 498.181 119.417 227.245 243.867 257.373 119.417 216.293 422.213 225.542 448.902 444.265 107.828 216.293 211.391 225.542 107.828 202.896 392.009 223.36 424.16 435.506 108.465 202.896 210.822 223.36 108.465 188.001 361.566 200.8 392.238 388.278 94.4313 188.001 181.187 200.8 94.4313 182.03 359.936 191.438 372.037 368.201 93.5697 182.03 180.378 191.438 93.5697 179.471 350.728 180.599 349.129 364.463 88.4607 179.471 179.558 180.599 88.4607 164.039 323.454 168.53 314.356 325.854 91.0107 164.039 171.171 168.53 91.0107 135.807 293.659 145.826 284.342 300.276 73.0278 135.807 152.283 145.826 73.0278 125.949 268.261 138.516 281.532 281.376 62.7796 125.949 141.376 138.516 62.7796 121.344 258.981 143.016 267.27 283.114 63.1694 121.344 126.885 143.016 63.1694 110.392 238.739 124.254 249.717 254.313 58.1748 110.392 132.096 124.254 58.1748 107.363 221.689 125.463 245.65 244.555 52.2172 107.363 106.643 125.463 52.2172 112.94 228.425 120.188 242.155 247.045 55.1458 112.94 115.046 120.188 55.1458 112.946 225.495 121.967 224.369 218.744 57.7946 112.946 113.379 121.967 57.7946 99.1533 214.236 102.402 193.828 210.422 55.1519 99.1533 112.117 102.402 55.1519 44.0014 102.119 91.4258 91.4258 201.228 44.0014 44.0014 102.119 91.4258 44.0014 135.409 319.42 621.108 262.379 349.718 790.665 661.272 349.718 135.409 319.42 262.379 135.409 349.718 135.409 358.519 716.056 440.947 849.004 863.718 184.011 358.519 358.729 440.947 184.011 354.985 717.61 408.057 820.743 840.136 174.508 354.985 357.327 408.057 174.508 351.019 698.642 412.686 779.298 818.34 180.477 351.019 360.283 412.686 180.477 326.117 642.613 366.612 706.008 736.611 170.542 326.117 338.36 366.612 170.542 299.315 588.125 339.396 669.152 678.979 155.575 299.315 304.254 339.396 155.575 279.536 545.497 329.755 630.522 638.206 143.74 279.536 283.871 329.755 143.74 273.752 515.939 300.766 579.966 584.808 135.797 273.752 261.626 300.766 135.797 255.67 487.187 279.2 529.039 547.124 137.956 255.67 254.313 279.2 137.956 232.609 457.558 249.838 500.802 503.359 117.715 232.609 232.873 249.838 117.715 221.264 431.775 250.963 465.427 489.133 114.895 221.264 224.685 250.963 114.895 204.237 394.913 214.464 413.204 429.939 106.369 204.237 207.091 214.464 106.369 190.007 372.728 198.741 385.426 404.479 97.8684 190.007 187.822 198.741 97.8684 169.657 339.589 186.685 368.434 379.847 92.1382 169.657 184.905 186.685 92.1382 150.317 302.676 181.749 342.765 349.616 77.5191 150.317 154.683 181.749 77.5191 148.535 287.993 161.016 314.751 319.798 72.7983 148.535 147.993 161.016 72.7983 155.583 296.229 153.735 311.445 282.936 75.7368 155.583 140 153.735 75.7368 145.926 278.446 157.71 291.194 307.146 79.8464 145.926 156.229 157.71 79.8464 139.325 260.129 133.484 269.291 262.151 66.0794 139.325 122.217 133.484 66.0794 138.287 269.911 135.807 256.173 277.526 73.2455 138.287 137.912 135.807 73.2455 129.214 237.364 120.366 252.916 248.116 65.0418 129.214 131.999 120.366 65.0418 111.423 203.67 132.55 243.593 232.034 64.1723 111.423 105.365 132.55 64.1723 94.6749 197.414 111.043 233.844 215.596 47.2505 94.6749 98.3053 111.043 47.2505 47.4244 99.1089 122.802 122.802 226.216 47.4244 47.4244 99.1089 122.802 47.4244 214.309 471.245 903.882 398.892 534.389 1108.19 1015.29 534.389 214.309 471.245 398.892 214.309 534.389 214.309 490.485 987.799 573.803 1098.96 1136.83 256.936 490.485 504.99 573.803 256.936 465.757 940.866 525.156 1044.62 1054.87 233.549 465.757 482.809 525.156 233.549 428.278 856.309 519.461 979.606 1012.55 232.208 428.278 458.057 519.461 232.208 379.891 772.977 460.145 878.801 912.988 196.07 379.891 398.252 460.145 196.07 369.837 729.061 418.656 808.741 840.512 183.821 369.837 374.726 418.656 183.821 350.985 677.517 390.085 747.96 756.574 186.016 350.985 354.335 390.085 186.016 306.214 615.993 357.876 667.007 703.746 164.969 306.214 323.182 357.876 164.969 273.368 563.297 309.131 594.441 633.521 141.245 273.368 292.811 309.131 141.245 268.192 534.935 285.31 570.024 586.064 132.124 268.192 270.486 285.31 132.124 244.163 487.297 284.714 524.079 544.619 136.069 244.163 264.449 284.714 136.069 208.967 439.505 239.365 452.184 482.912 108.095 208.967 222.848 239.365 108.095 195.419 411.598 212.819 404.306 452.539 100.872 195.419 216.657 212.819 100.872 198.777 389.874 191.488 401.475 392.208 94.5466 198.777 194.942 191.488 94.5466 192.448 366.738 209.987 385.688 371.832 104.23 192.448 194.933 209.987 104.23 166.216 314.741 175.701 330.417 345.952 88.2176 166.216 171.805 175.701 88.2176 155.862 293.853 154.716 308.22 307.437 77.9986 155.862 142.936 154.716 77.9986 145.268 290.851 153.504 295.189 287.883 77.8633 145.268 150.917 153.504 77.8633 129.966 279.548 141.685 261.78 269.437 67.4049 129.966 139.935 141.685 67.4049 117.885 255.73 120.095 227.606 260.919 62.5613 117.885 139.613 120.095 62.5613 123.702 242.786 107.511 238.644 226.773 55.3241 123.702 116.117 107.511 55.3241 132.17 243.96 131.133 246.229 256.017 68.3776 132.17 126.669 131.133 68.3776 139.17 244.397 115.096 266.353 228.229 63.7924 139.17 117.29 115.096 63.7924 75.3771 127.107 151.257 151.257 263.683 75.3771 75.3771 127.107 151.257 75.3771 320.08 636.947 1248.24 616.395 320.08 636.947 616.395 320.08 320.08 636.947 616.395 320.08 320.08 320.08 608.474 1203.9 316.867 608.474 631.842 316.867 608.474 631.842 316.867 316.867 578.86 1126.55 291.607 578.86 572.06 291.607 578.86 572.06 291.607 291.607 551.328 1069.23 287.253 551.328 554.495 287.253 551.328 554.495 287.253 287.253 498.91 980.523 264.075 498.91 514.737 264.075 498.91 514.737 264.075 264.075 438.904 868.025 234.835 438.904 465.786 234.835 438.904 465.786 234.835 234.835 396.975 782.804 204.069 396.975 402.239 204.069 396.975 402.239 204.069 204.069 360.793 721.275 192.906 360.793 380.565 192.906 360.793 380.565 192.906 192.906 321.072 656.288 167.887 321.072 340.71 167.887 321.072 340.71 167.887 167.887 301.832 595.748 153.186 301.832 315.578 153.186 301.832 315.578 153.186 153.186 279.916 540.234 148.646 279.916 280.171 148.646 279.916 280.171 148.646 148.646 243.217 495.946 131.271 243.217 260.064 131.271 243.217 260.064 131.271 131.271 208.887 433.148 111.946 208.887 235.882 111.946 208.887 235.882 111.946 111.946 202.698 374.165 96.9411 202.698 197.266 96.9411 202.698 197.266 96.9411 96.9411 193.241 351.046 105.757 193.241 176.899 105.757 193.241 176.899 105.757 105.757 164.201 338.648 87.4837 164.201 174.147 87.4837 164.201 174.147 87.4837 87.4837 152.358 301.467 76.7173 152.358 164.501 76.7173 152.358 164.501 76.7173 76.7173 149.92 266.468 75.6403 149.92 136.966 75.6403 149.92 136.966 75.6403 75.6403 131.813 250.808 74.28 131.813 129.502 74.28 131.813 129.502 74.28 74.28 109.721 231.962 57.5333 109.721 121.306 57.5333 109.721 121.306 57.5333 57.5333 114.942 240.004 52.1873 114.942 110.656 52.1873 114.942 110.656 52.1873 52.1873 114.059 240.287 62.7549 114.059 129.348 62.7549 114.059 129.348 62.7549 62.7549 127.184 247.515 51.3039 127.184 110.939 51.3039 127.184 110.939 51.3039 51.3039 75.8798 136.576 75.8798 75.8798 136.576 75.8798 75.8798 136.576 75.8798 75.8798 556.814 547.306 281.747 1114.9 547.306 898.855 818.876 424.522 281.747 556.814 547.306 281.747 424.522 281.747 534.132 567.59 1080.41 926.333 960.376 275.067 534.132 567.59 474.333 275.067 483.603 512.82 985.91 852.395 889.948 259.065 483.603 512.82 452 259.065 426.638 473.09 899.908 772.079 831.343 224.539 426.638 473.09 400.395 224.539 377.839 426.818 792.032 687.396 760.955 202.099 377.839 426.818 371.684 202.099 353.805 365.214 699.883 625.555 641.753 175.74 353.805 365.214 315.712 175.74 323.336 334.668 623.934 577.895 597.961 178.066 323.336 334.668 309.844 178.066 281.263 289.266 555.578 525.848 535.978 145.27 281.263 289.266 268.051 145.27 250.297 266.313 506.63 478.528 505.644 135.992 250.297 266.313 257.797 135.992 219.935 240.317 445.695 425.576 443.872 114.305 219.935 240.317 220.731 114.305 201.249 205.378 400.286 396.163 397.408 105.63 201.249 205.378 204.845 105.63 178.923 194.908 362.649 349.94 391.07 95.6186 178.923 194.908 191.318 95.6186 166.478 167.741 335.035 319.616 328.618 83.3046 166.478 167.741 158.622 83.3046 149.911 167.294 306.915 292.154 326.721 83.1734 149.911 167.294 160.994 83.1734 130.977 139.621 265.384 251.595 280.639 66.7374 130.977 139.621 131.16 66.7374 125.033 125.763 252.833 248.269 238.231 64.2393 125.033 125.763 120.435 64.2393 119.109 127.07 241.779 253.909 257.723 60.7941 119.109 127.07 127.834 60.7941 107.568 114.709 204.083 236.359 236.633 58.315 107.568 114.709 126.075 58.315 106.625 89.3741 203.901 230.484 210.837 49.2535 106.625 89.3741 110.285 49.2535 95.7434 114.527 202.511 210.203 236.996 57.3718 95.7434 114.527 120.199 57.3718 87.5759 87.9842 175.249 187.497 201.286 38.3717 87.5759 87.9842 90.0038 38.3717 90.7319 87.2647 177.333 193.327 194.686 49.2043 90.7319 87.2647 97.4927 49.2043 93.6332 90.0688 191.853 197.637 187.701 41.5277 93.6332 90.0688 95.8343 41.5277 52.1055 101.785 101.785 101.802 208.37 52.1055 52.1055 101.785 101.802 52.1055 664.355 271.57 562.832 439.907 231.21 342.041 271.57 142.776 231.21 142.776 769.913 667.061 657.33 392.201 392.786 331.623 199.266 735.38 646.299 665.317 368.792 377.127 335.439 192.936 692.39 607.309 626.244 345.441 358.253 310.86 175.856 610.675 548.663 586.272 309.557 334.137 296.449 169.585 539.832 488.071 520.998 271.75 276.539 252.214 139.972 510.005 468.247 474.94 254.559 263.293 235.858 131.778 486.043 464.301 454.883 244.586 246.712 232.389 122.781 442.886 439.345 441.748 228.231 239.331 231.912 121.805 395.585 398.113 394.919 205.641 203.555 207.433 106.426 388.192 367.899 374.099 194.914 192.03 190.68 99.2146 357.038 339.367 371.512 171.016 196.162 177.219 95.6992 320.304 300.799 316.978 153.138 160.877 162.148 75.3172 300.446 259.545 300.686 142.243 159.427 138.651 77.8208 253.486 244.199 266.799 120.618 141.019 120.894 64.4227 243.12 261.714 248.594 123.235 112.467 123.305 56.1953 252.578 265.624 257.676 134.8 130.653 138.409 67.0399 243.388 247.914 241.164 128.791 121.925 127.214 67.7598 243.933 233.192 257.241 123.859 121.463 120.7 61.0311 235.772 218.813 223.789 114.46 122.47 112.492 62.8274 220.724 204.597 209.368 99.9206 113.302 106.321 51.6321 205.054 208.452 202.651 102.595 107.422 98.2757 48.2885 204.218 199.488 207.898 104.003 97.6317 110.176 54.3066 106.586 89.3114 186.89 49.6969 106.586 89.3114 49.6969 432.881 168.337 420.47 318.298 164.69 220.791 168.337 88.4342 164.69 88.4342 552.734 517.63 522.834 274.86 264.544 255.78 132.357 556.181 520.118 536.335 277.507 288.19 261.85 142.503 520.127 518.136 522.163 261.868 267.991 258.268 135.004 496.595 485.061 500.693 239.106 252.136 259.868 126.864 456.107 441.909 463.737 216.322 244.459 225.192 112.242 419.818 432.023 432.032 213.688 211.648 216.717 104.08 410.588 430.944 410.676 219.715 208.171 215.306 109.608 393.781 408.92 403.669 211.114 202.417 215.637 110.107 373.433 362.911 369.8 192.472 191.364 193.283 101.007 357.42 333.056 348.316 172.986 182.069 169.628 91.4655 331.452 324.451 345.137 168.351 175.351 163.428 81.52 297.36 290.268 313.116 147.661 156.102 161.024 86.8311 267.039 256.402 285.628 117.302 141.259 129.244 60.8303 261.907 261.058 260.615 123.581 125.78 127.158 56.4716 263.151 281.933 276.354 138.479 136.127 133.9 67.1098 246.263 271.204 277.341 130.824 127.024 148.034 71.3695 255.017 241.132 251.062 119.123 119.24 123.171 59.4547 237.097 234.625 245.094 109.333 135.778 117.962 59.6686 197.385 225.627 223.515 104.354 101.319 116.663 49.6646 191.294 220.176 213.755 104.676 96.0654 108.964 54.689 205.496 218.407 205.525 105.857 95.2288 111.212 49.9872 190.571 196.439 205.067 95.4842 110.267 107.195 55.8697 80.3038 89.2447 179.924 39.6146 80.3038 89.2447 39.6146 408.251 149.961 416.828 324.39 161.618 199.679 149.961 76.256 161.618 76.256 506.435 514.548 530.567 242.77 258.29 255.21 123.423 502.317 513.952 541.182 242.612 248.145 259.337 119.347 502.728 511.693 531.844 256.268 254.172 254.615 123.264 467.834 491.76 506.757 245.955 248.557 257.078 133.004 439.662 479.852 466.121 225.588 219.278 234.681 112.951 422.89 461.276 474.554 218.335 220.385 245.171 112.637 403.757 446.085 427.306 211.228 202.505 216.105 105.698 379.688 425.82 427.592 197.807 201.252 229.981 105.53 344.683 376.359 381.202 170.439 178.436 195.84 92.2764 336.033 349.183 367.854 160.07 166.247 180.52 78.1627 326.801 329.665 346.919 156.1 169.786 168.664 81.9075 301.384 320.512 326.459 142.607 157.015 161.001 74.1928 279.204 310.357 315.738 139.101 144.369 159.511 68.4139 275.062 296.892 291.718 137.477 134.835 150.847 70.6867 290.544 301.306 291.511 143.454 140.228 146.045 66.7899 282.139 282.692 289.856 140.38 150.317 155.26 76.6641 241.138 259.646 249.257 122.009 131.822 127.432 63.7159 231.512 253.639 238.791 125.292 109.316 132.215 58.2933 239.885 235.599 242.602 121.273 122.196 121.424 66.9984 227.986 230.984 237.832 115.5 117.69 114.175 54.2746 205.096 225.099 223.293 112.55 110.296 116.809 61.2252 194.421 216.038 202.396 100.955 94.8004 108.29 51.3251 99.6205 107.748 202.643 49.6301 99.6205 107.748 49.6301 446.705 174.428 518.837 426.429 212.332 217.149 174.428 85.3616 212.332 85.3616 565.314 629.314 626.845 271.777 272.277 306.505 131.787 570.709 633.964 673.118 271.34 293.037 322.809 139.99 535.873 603.047 648.353 255.424 277.672 311.156 131.35 505.044 562.301 599.777 245.805 258.201 291.892 124.074 501.013 543.074 556.834 254.264 246.844 270.409 121.731 478.97 508.901 534.853 242.94 254.169 272.665 132.534 451.141 477.044 484.069 234.857 224.801 236.236 110.407 429.106 459.53 468.137 228.014 226.34 240.808 124.451 404.373 430.869 433.464 205.92 202.766 218.722 103.563 378.739 399.625 416.197 189.113 201.607 212.147 102.357 346.577 364.241 370.912 173.565 177.132 187.478 86.7562 340.813 360.627 343.639 177.905 169.444 176.763 86.8085 328.252 341.188 360.007 171.257 171.369 183.864 91.0969 308.167 311.774 324.076 159.415 156.884 157.324 80.16 290.822 297.31 309.391 157.852 151.284 154.45 79.2554 256.973 282.958 280.896 142.312 139.539 142.86 78.5964 246.91 270.157 256.082 137.637 117.435 140.098 63.7157 249.881 249.151 240.954 128.347 129.475 130.059 73.9213 240.549 245.95 237.994 114.326 120.406 119.092 54.4257 233.139 223.634 241.476 115.484 120.142 126.858 59.9002 220.592 204.796 204.954 112.549 112.997 96.7769 55.5843 210.618 217.822 211.672 115.083 107.596 108.02 56.9647 103.022 109.802 208.97 58.1178 103.022 109.802 58.1178 606.57 252.001 734.325 615.096 311.554 301.688 252.001 126.971 311.554 126.971 734.65 854.85 837.031 357.537 354.569 422.771 174.718 750.762 837.733 885.93 362.624 380.081 432.079 182.819 712.257 775.653 820.707 347.623 370.68 405.654 179.805 651.567 709.582 752.479 316.496 341.576 369.999 167.818 590.674 648.034 693.226 288.81 309.99 339.583 148.679 539.952 592.492 619.397 265.961 280.683 308.451 140.131 501.066 551.966 569.9 242.187 259.268 284.042 125.83 472.495 521.445 539.615 231.516 241.797 267.924 116.358 445.288 491.691 496.472 224.949 230.698 253.521 115.159 408.37 453.646 458.6 210.512 214.59 238.17 109.79 367.974 421.214 424.763 190.676 193.78 215.476 100.722 362.832 398.9 389.784 182.721 174.194 205.738 89.954 355.83 361.029 367.74 169.931 188.638 193.162 92.767 325.299 326.649 353.219 152.359 167.192 167.867 77.1642 299.464 287.983 326.913 139.458 158.107 158.782 75.1944 280.005 278.637 285.471 140.646 141.357 129.201 64.2633 250.126 278.103 281.042 132.52 138.648 149.436 76.3827 229.066 270.386 265.313 120.804 111.479 128.667 56.1374 238.92 269.469 254.44 131.624 117.587 141.719 64.6666 213.29 227.234 246.979 108.15 121.333 127.75 66.9573 196.034 204.037 213.165 92.2474 91.9573 99.4844 41.1926 210.024 207.967 209.262 102.739 104.076 104.553 51.0548 105.948 103.414 204.404 51.6844 105.948 103.414 51.6844 845.558 363.095 1043.93 932.955 480.898 432.637 363.095 184.583 480.898 184.583 988.311 1092.74 1111.01 497.313 482.463 563.029 248.053 955.875 1022.8 1091.45 475.109 505.848 529.713 249.26 860.929 945.934 997.784 428.031 450.026 493.091 225.849 794.138 874.699 915.235 393.086 410.902 452.843 202.182 721.949 788.345 850.108 359.224 383.235 421.856 190.905 649.346 712.36 745.392 326.532 338.713 366.49 168.32 608.449 670.261 691.829 309.779 310.632 345.871 158.212 563.591 625.144 647.531 289.929 297.817 324.39 151.566 509.784 560.659 589.758 266.742 265.774 300.754 138.362 474.994 503.452 528.05 243.134 244.01 259.905 128.38 446.573 483.267 481.643 230.538 230.984 243.547 114.754 394.691 440.44 457.848 216.179 215.589 239.72 115.784 365.129 362.565 372.432 191.098 179.102 200.72 100.395 354.833 332.095 358.779 174.29 186.027 161.845 90.7026 312.92 322.972 340.661 148.525 168.806 170.251 83.5874 286.509 287.101 309.607 137.991 144.114 152.721 64.9376 296.229 262.131 275.943 145.583 142.395 134.38 73.0535 290.687 268.576 270.22 149.582 153.834 127.752 72.5296 262.499 260.086 251.157 137.845 136.852 140.824 77.0521 246.854 244.146 238.956 119.085 125.646 119.261 60.7927 226.393 238.018 251.449 111.79 121.208 124.885 58.2918 203.641 225.559 221.329 105.228 105.185 113.133 53.4979 98.4559 112.426 204.508 51.7296 98.4559 112.426 51.7296 1198.41 569.86 611.289 569.86 296.314 611.289 569.86 296.314 296.314 296.314 1214.15 595.428 628.546 595.428 628.546 314.975 314.975 1133.36 547.694 585.606 547.694 585.606 280.453 280.453 1052.09 517.904 547.757 517.904 547.757 267.242 267.242 971.205 481.613 504.332 481.613 504.332 250.662 250.662 873.551 429.121 466.872 429.121 466.872 230.951 230.951 787.875 385.828 406.678 385.828 406.678 198.17 198.17 730.911 360.482 381.197 360.482 381.197 187.658 187.658 673.699 335.216 349.714 335.216 349.714 172.824 172.824 608.024 293.917 323.985 293.917 323.985 162.392 162.392 534.698 260.318 284.039 260.318 284.039 131.525 131.525 492.918 252.729 250.659 252.729 250.659 128.793 128.793 435.589 224.261 242.259 224.261 242.259 123.936 123.936 366.083 171.467 193.33 171.467 193.33 100.325 100.325 344.608 157.805 172.752 157.805 172.752 71.1421 71.1421 337.348 174.447 171.856 174.447 171.856 86.6632 86.6632 299.041 149.11 165.493 149.11 165.493 87.7835 87.7835 249.934 116.548 133.548 116.548 133.548 61.3261 61.3261 230.691 118.994 116.386 118.994 116.386 55.222 55.222 227.614 122.241 114.304 122.241 114.304 63.7724 63.7724 243.55 125.062 113.309 125.062 113.309 58.4688 58.4688 246.384 126.228 130.241 126.228 130.241 66.5931 66.5931 222.195 120.331 116.143 120.331 116.143 59.6348 59.6348 106.052 60.6966 106.052 60.6966 106.052 60.6966 60.6966 558.083 512.169 265.56 1098.53 512.169 880.397 763.836 394.354 265.56 558.083 512.169 265.56 394.354 265.56 546.279 586.36 1083.98 923.991 964.951 292.523 546.279 586.36 486.043 292.523 502.307 497.621 1000.78 868.895 879.659 253.755 502.307 497.621 437.947 253.755 473.27 503.154 965.693 820.219 860.991 248.551 473.27 503.154 430.948 248.551 414.194 462.539 843.572 715.312 793.648 224.719 414.194 462.539 389.271 224.719 346.077 381.034 712.95 614.159 670.331 189.475 346.077 381.034 326.041 189.475 300.598 331.916 632.711 556.044 595.16 156.603 300.598 331.916 288.118 156.603 274.316 300.795 569.259 515.773 553.917 143.995 274.316 300.795 267.926 143.995 256.333 268.465 510.047 470.987 499.354 130.321 256.333 268.465 247.847 130.321 225.76 241.582 447.966 415.704 434.874 126.012 225.76 241.582 223.141 126.012 199.037 206.383 411.317 392.315 396.202 99.7474 199.037 206.383 192.563 99.7474 183.726 204.933 386.839 369.748 392.206 99.2895 183.726 204.933 199.752 99.2895 168.557 181.905 354.922 335.723 343.046 84.4367 168.557 181.905 169.996 84.4367 157.004 173.017 314.878 315.206 331.377 84.1206 157.004 173.017 165.727 84.1206 134.407 141.862 260.679 267.275 286.16 72.8831 134.407 141.862 149.479 72.8831 127.8 118.817 251.478 247.685 233.607 61.5237 127.8 118.817 117.796 61.5237 122.67 132.661 243.626 240.447 256.943 66.2759 122.67 132.661 129.889 66.2759 96.5143 110.965 211.006 211.112 218.815 56.3936 96.5143 110.965 110.559 56.3936 97.2755 100.041 213.127 217.35 218.087 40.1207 97.2755 100.041 100.553 40.1207 106.767 113.086 213.144 228.08 233.442 57.1548 106.767 113.086 116.797 57.1548 87.6729 100.059 181.24 208.476 216.347 49.6125 87.6729 100.059 111.283 49.6125 86.6015 81.1818 171.331 189.06 191.51 38.0604 86.6015 81.1818 97.1938 38.0604 98.2202 90.1488 191.571 198.434 201.2 48.5411 98.2202 90.1488 91.8662 48.5411 49.6791 101.422 101.422 106.568 208.302 49.6791 49.6791 101.422 106.568 49.6791 630.258 251.667 534.404 427.301 208.697 322.314 251.667 128.794 208.697 128.794 760.629 655.586 655.32 377.712 378.591 325.707 193.52 739.875 645.263 693.79 366.589 382.038 329.879 184.192 688.947 605.208 635.482 346.949 357.837 315.384 182.397 620.407 558.608 604.987 301.118 331.11 289.823 164.552 552.541 507.867 541.86 268.082 289.297 268.784 136.567 516.366 461.577 485.27 255.446 263.244 239.083 131.515 484.012 432.33 448.896 241.457 253.123 222.494 123.931 424.181 397.321 423.297 214.654 230.89 209.836 117.526 383.11 370.905 371.523 189.944 193.292 187.486 97.1283 377.091 377.713 360.588 193.278 189.818 183.419 92.8158 348.413 349.123 360.901 186.022 187.273 194.293 100.462 319.5 316.865 302.453 167.166 161.141 154.83 85.5596 302.658 307.939 308.994 158.202 158.36 162.035 81.6065 259.089 271.194 284.406 132.868 144.298 145.905 76.596 239.073 244.556 253.589 119.885 114.79 125.289 56.2722 232.132 233.217 235.964 117.778 124.282 119.267 63.6129 225.896 250.491 228.391 114.597 107.85 113.95 54.1651 238.402 247.838 254.193 120.074 118.046 136.541 60.4323 236.644 214.343 232.319 121.312 120.356 111.297 59.6422 226.617 207.421 219.828 120.803 116.288 103.046 61.67 221.38 202.097 206.326 102.458 110.329 104.375 59.1334 217.931 195.3 214.259 100.214 111.051 97.7222 43.3251 106.879 97.5783 201.245 56.889 106.879 97.5783 56.889 452.363 175.634 420.662 330.168 153.608 212.09 175.634 79.9027 153.608 79.9027 588.481 541.539 538.523 277.874 276.729 267.054 132.187 589.397 538.38 571.486 278.674 311.752 274.485 145.687 551.522 504.719 547.21 258.259 277.645 263.895 132.988 526.441 479.369 516.237 257.489 273.877 240.824 125.272 474.59 453.86 471.743 239.785 252.563 238.545 132.218 417.8 410.685 425.668 206.13 222.027 215.315 107.568 388.181 383.401 386.824 190.872 195.773 195.37 98.5627 370.638 364.548 383.016 182.667 192.408 188.032 92.3097 349 355.205 357.188 180.961 178.231 176.517 90.3574 344.398 360.398 347.235 184.434 170.77 178.688 90.6035 314.941 333.802 343.851 163.101 173.628 181.71 93.8308 291.946 308.476 303.11 149.699 141.313 152.092 69.2704 290.741 289.84 301.539 149.737 150.634 156.384 80.4282 278.906 275.911 280.83 138.325 140.108 133.457 69.3085 250.481 271.762 289.551 124.671 138.799 142.455 69.0169 232.223 257.198 252.824 115.439 111.682 129.307 55.6542 256.688 255.023 252.904 135.894 120.541 127.891 59.7848 248.109 233.984 244.701 127.764 136.147 127.132 76.109 215.503 211.644 221.398 93.0312 111.963 106.852 51.6548 199.537 199.104 225.909 86.618 103.54 104.792 41.3764 199.205 192.185 199.185 99.6387 95.9971 94.3122 45.2416 197.573 188.552 200.346 95.0864 103.208 97.8724 54.3971 94.3655 90.6797 199.552 40.6893 94.3655 90.6797 40.6893 416.328 154.534 438.128 329.041 162.772 208.572 154.534 73.7054 162.772 73.7054 521.529 557.201 546.846 263.665 261.794 275.356 134.867 529.3 559.074 564.613 259.705 259.735 281.845 128.798 511.925 526.909 566.131 246.46 269.565 277.229 130.907 461.539 481.119 508.479 221.88 242.359 249.679 115.553 422.821 460.823 466.417 214.074 219.179 231.44 106.327 394.693 440.585 435.651 204.554 203.642 229.383 107.748 381.66 408.812 412.573 192.529 191.051 211.201 96.8068 369.565 382.973 389.61 181.881 190.608 197.611 95.7219 355.423 372.697 382.977 174.244 178.957 185.362 86.1593 346.688 365.589 365.944 175.963 176.466 187.334 88.0844 332.019 343.713 361.332 170.701 170.222 178.255 87.8789 312.702 321.685 310.396 158.777 161.797 165.458 82.8219 291.628 297.099 304.563 140.103 150.905 156.227 75.9553 291.474 286.338 295.679 137.586 140.722 140.872 64.148 291.894 280.061 311.861 147.09 150.752 145.466 73.4377 273.505 256.42 270.413 141.759 141.142 134.595 73.6527 240.917 228.402 258.326 119.129 132.363 121.825 68.1063 217.99 227.755 218.248 106.22 108.554 106.577 51.0228 231.805 244.835 243.201 118.612 109.436 121.178 55.1973 225.557 230.141 230.284 112.486 122.369 123.657 63.4152 200.327 200.589 208.685 92.5459 103.188 106.483 49.0707 202.325 189.001 193.681 93.4657 97.1384 94.1061 43.4753 105.187 94.8949 202.563 49.9904 105.187 94.8949 49.9904 459.558 174.507 534.437 420.022 214.097 229.556 174.507 89.0666 214.097 89.0666 589.93 670.65 631.042 293.536 285.051 320.34 140.489 601.444 687.506 707.308 299.369 304.878 350.31 153.047 562.686 645.083 680.107 280.449 296.566 337.197 146.322 513.357 594.311 597.376 259.24 266.12 307.886 134.127 479.247 548.613 567.967 246.749 247.237 286.425 125.113 453.531 510.021 504.796 236.03 232.01 262.188 121.636 420.524 475.162 484.406 216.284 221.522 247.833 114.395 403.023 442.071 445.024 201.092 199.002 227.329 101.889 393.498 418.792 427.809 198.453 204.02 214.742 99.2029 380.588 387.484 396.184 189.626 189.478 204.05 99.2499 339.709 350.311 382.66 173.012 191.11 183.434 90.3763 302.257 343.019 327.373 162.908 148.599 166.876 82.6358 308.614 342.894 336.866 156.995 153.658 176.143 80.2717 316.066 321.693 322.939 148.752 154.957 166.752 76.7236 290.38 292.977 312.403 132.971 161.109 154.941 72.0284 255.234 254.019 287.276 114.661 129.271 138.036 60.9423 235.657 226.879 263.475 109.273 125.963 115.984 53.7188 243.459 229.797 224.604 121.534 109.694 110.895 55.5538 241.68 233.519 258.325 126.223 133.765 118.901 65.9807 213.412 222.795 211.221 117.655 107.915 114.618 60.2423 202.04 211.83 212.065 108.043 105.497 108.177 57.4127 193.919 202.82 189.112 95.5353 96.543 103.652 50.6308 97.3758 99.1677 197.278 44.9045 97.3758 99.1677 44.9045 591.506 245.515 717.803 591.24 303.542 304.881 245.515 125.03 303.542 125.03 748.42 868.111 822.139 377.113 345.99 414.26 179.851 785.97 868.903 912.483 388.137 402.43 453.851 197.262 714.797 797.532 828.715 364.634 383.541 415.053 190.875 651.986 736.122 740.018 335.071 331.256 382.48 173.759 593.516 664.589 707.176 301.864 320.729 353.643 161.312 535.671 596.805 607.77 273.991 272.787 310.946 140.552 508.906 557.549 561.165 258.878 262.884 285.859 133.439 469.81 514.641 532.669 240.979 246.022 271.69 125.44 430.494 463.381 479.081 220.339 223.788 242.951 115.539 398.256 429.718 447.031 197.858 206.706 220.43 104.8 370.324 393.333 414.313 177.298 191.55 209.288 93.0581 361.982 358.623 392.686 180.111 178.774 184.046 84.2403 351.191 359.93 358.594 185.899 183.208 174.578 95.8709 319.277 353.484 370.655 172.941 167.983 185.353 90.0281 309.299 324.401 327.46 160.006 151.294 168.131 82.9128 295.517 287.876 310.86 139.358 158.005 156.27 77.0937 252.422 268.252 266.222 117.606 137.512 131.606 62.2648 239.47 249.367 257.78 108.262 114.91 136.646 55.3414 227.866 231.95 246.111 107.296 124.56 112.721 52.9207 209.874 232.91 215.127 105.14 103.306 119.229 54.3758 199.137 218.39 216.895 103.786 106.568 113.681 50.7646 192.471 205.698 198.046 107.285 92.5694 104.709 53.0216 99.9019 100.989 211.36 54.2632 99.9019 100.989 54.2632 821.873 345.724 1000.04 889.716 452.058 412.922 345.724 178.512 452.058 178.512 986.201 1109.72 1084.47 490.998 476.149 547.98 234.41 955.227 1066.44 1105.62 480.766 510.053 561.742 256.588 853.936 967.085 996.342 432.898 445.175 504.693 224.177 795.208 890.644 914.41 401.052 408.762 462.391 208.721 721.429 807.154 867.376 362.725 386.446 428.252 192.331 633.263 724.861 747.517 322.814 334.983 378.902 170.394 584.927 669.1 681.885 298.671 298.281 345.959 152.42 541.94 612.146 622.741 273.662 286.647 323.141 146.251 495.617 557.149 577.652 243.042 255.293 289.004 127.412 463.087 506.24 525.398 231.86 240.325 268.145 115.63 436.675 456.223 466.593 216.035 222.763 238.096 116.23 389.298 389.84 444.557 178.512 213.912 218.128 99.8052 378.058 368.647 379.611 174.031 175.386 171.712 78.7069 378.838 367.345 391.511 180.543 202.672 196.935 95.3244 329.02 327.296 351.816 164.395 176.166 170.411 85.2183 281.565 298.449 302.214 148.518 152.854 156.886 79.1763 271.581 284.032 271.187 150.646 128.71 141.563 69.3412 264.422 252.801 264.32 141.105 142.87 142.469 81.3047 233.373 230.026 220.48 124.654 121.552 110.332 59.8001 222.148 246.258 221.15 127.77 111.821 119.694 64.8536 215.804 234.76 217.803 114.603 110.327 126.564 62.916 216.935 200.277 220.022 98.4136 105.477 108.196 51.6873 111.458 92.0815 214.301 46.7263 111.458 92.0815 46.7263 1152.31 543.991 587.117 543.991 273.546 587.117 543.991 273.546 273.546 273.546 1203.88 618.725 608.318 618.725 608.318 313.571 313.571 1146.73 585.669 595.566 585.669 595.566 305.154 305.154 1056.82 534.186 551.168 534.186 551.168 280.516 280.516 986.578 489.592 505.648 489.592 505.648 253.671 253.671 893.463 444.43 480.929 444.43 480.929 235.921 235.921 796.138 402.047 412.534 402.047 412.534 208.508 208.508 719.699 370.429 383.605 370.429 383.605 193.539 193.539 658.454 338.483 336.094 338.483 336.094 176.891 176.891 607.432 314.107 322.359 314.107 322.359 161.593 161.593 528.904 274.38 285.073 274.38 285.073 152.514 152.514 474.476 240.189 243.83 240.189 243.83 121.866 121.866 434.87 211.328 230.645 211.328 230.645 118.323 118.323 393.063 194.615 204.225 194.615 204.225 93.0053 93.0053 364.489 186.803 188.839 186.803 188.839 101.61 101.61 325.009 162.902 175.65 162.902 175.65 85.1923 85.1923 291.836 149.931 149.359 149.931 149.359 77.7094 77.7094 263.926 133.386 142.477 133.386 142.477 72.2218 72.2218 220.378 111.696 121.449 111.696 121.449 61.1641 61.1641 208.257 105.373 98.9284 105.373 98.9284 50.532 50.532 216.804 118.489 109.329 118.489 109.329 54.8407 54.8407 222.02 120.156 107.476 120.156 107.476 63.6478 63.6478 217.387 101.864 114.544 101.864 114.544 56.5087 56.5087 102.843 45.3552 102.843 45.3552 102.843 45.3552 45.3552 540.446 494.646 246.609 1055.24 494.646 848.39 734.803 369.482 246.609 540.446 494.646 246.609 369.482 246.609 537.703 560.591 1053.22 920.62 942.59 293.837 537.703 560.591 478.908 293.837 498.469 492.624 982.35 871.756 879.974 243.866 498.469 492.624 441.712 243.866 492.423 489.726 948.612 834.421 837.854 254.603 492.423 489.726 430.043 254.603 429.379 458.887 831.741 748.667 792.409 237.82 429.379 458.887 404.378 237.82 366.872 372.855 722.526 651.332 675.753 191.559 366.872 372.855 344.289 191.559 332.113 349.672 652.612 593.033 618.147 175.313 332.113 349.672 307.042 175.313 294.943 302.94 580.762 537.498 560.94 156.799 294.943 302.94 285.991 156.799 253.714 277.822 517.208 463.241 509.794 138.144 253.714 277.822 251.508 138.144 222.206 239.385 464.94 415.372 447.966 115.57 222.206 239.385 211.733 115.57 212.28 225.554 432.132 396.092 409.396 106.636 212.28 225.554 203.638 106.636 203.112 206.578 410.984 365.503 381.754 105.644 203.112 206.578 192.454 105.644 186.365 204.407 370.652 338.699 353.06 97.4685 186.365 204.407 173.049 97.4685 157.875 166.245 308.363 302.33 322.962 88.8961 157.875 166.245 165.65 88.8961 126.272 142.118 261.024 252.492 289.914 68.9785 126.272 142.118 136.681 68.9785 123.678 118.906 243.018 242.865 243.895 57.2933 123.678 118.906 115.812 57.2933 120.956 124.112 237.724 235.31 257.047 66.3848 120.956 124.112 127.054 66.3848 114.492 113.612 231.182 225.791 234.684 54.5714 114.492 113.612 108.256 54.5714 115.851 117.57 228.403 234.179 220.422 59.9207 115.851 117.57 117.534 59.9207 106.377 110.833 212.747 221.709 237.5 55.9307 106.377 110.833 116.645 55.9307 93.5674 101.915 193.59 199.381 219.4 50.4461 93.5674 101.915 105.064 50.4461 84.729 91.6753 177.392 203.651 196.495 43.1214 84.729 91.6753 94.3165 43.1214 93.3511 85.7163 183.158 211.067 203.396 41.6077 93.3511 85.7163 109.334 41.6077 51.7434 97.4419 97.4419 101.733 191.602 51.7434 51.7434 97.4419 101.733 51.7434 622.156 240.157 548.217 415.341 218.604 307.944 240.157 122.873 218.604 122.873 769.349 693.525 652.053 382.917 381.999 329.613 185.071 735.478 684.009 717.253 373.287 387.35 363.911 197.846 681.65 635.261 644.403 341.998 348.128 320.098 175.44 636.42 588.24 615.876 319.288 333.522 315.164 166.558 571.374 519.264 542.193 284.459 302.898 273.076 152.73 526.475 472.59 483.458 260.92 268.476 246.188 131.729 489.971 439.863 461.188 242.555 257.999 226.402 129.191 440.552 397.498 431.072 209.527 231.972 213.462 113.364 392.422 361.205 395.105 193.166 208.581 184.037 96.1633 359.018 343.776 354.829 183.812 183.841 177.168 97.0024 323.83 314.231 335.208 162.391 175.177 166.608 86.8101 305.37 294.582 285.053 152.334 148.653 147.623 75.581 304.514 285.46 303.026 144.455 156.717 146.959 76.7534 272.785 266.801 275.55 126.22 147.796 138.501 67.702 257.923 244.997 268.816 119.187 124.989 128.3 58.5183 254.006 231.138 258.34 114.354 132.935 116.697 60.6692 223.923 232.092 242.437 111.299 121.071 114.441 53.6849 229.519 238.673 213.342 118.328 102.852 117.652 57.6138 244.152 237.803 245.992 115.332 126.667 121.022 60.7139 222.305 218.732 238.122 105.813 117.485 116.782 54.618 222.5 218.488 205.1 118.921 104.82 101.951 51.1952 211.84 220.204 220.845 117.716 117.68 116.537 67.7263 94.1597 103.666 189.529 49.9901 94.1597 103.666 49.9901 445.238 175.184 448.03 339.605 176.56 240.274 175.184 95.7314 176.56 95.7314 599.957 568.471 526.104 310.607 270.054 271.47 144.542 626.178 580.317 596.339 310.722 329.903 297.002 166.065 578.629 558.728 569.861 293.263 296.275 283.315 144.657 521.649 508.611 522.498 268.951 282.354 275.413 148.606 454.278 443.552 459.89 234.805 239.295 233.198 120.346 418.171 401.808 424.434 211.669 214.983 210.353 114.459 402.289 386.439 388.742 197.308 203.189 191.455 97.2104 385.625 375.655 383.698 187.971 199.101 194.984 100.098 357.512 349.218 357.328 168.04 186.524 180.671 87.8735 331.019 330.688 352.555 159.964 170.988 168.547 80.1661 296.431 313.159 332.359 151.84 160.031 162.141 79.7976 282.709 296.173 302.607 142.248 136.4 151.018 72.0423 274.063 292.529 285.837 141.004 146.309 145.155 70.2055 271.581 294.469 280.571 140.581 127.754 147.373 70.799 269.232 270.613 282.326 125.81 143.827 147.096 69.7817 246.77 248.53 258.455 116.784 125.405 123.517 56.0282 231.855 242.582 242.316 120.794 121.365 125.013 60.7561 229.815 232.115 223.217 120.346 110.49 117.569 60.0377 239.962 235.664 243.944 122.471 119.325 114.546 60.3078 220.917 225.991 236.767 112.919 120.637 121.118 62.1637 203.444 207.347 218.108 99.5665 100.28 104.873 50.7555 198.534 211.347 219.145 102.487 103.164 102.474 48.8109 95.3692 108.873 205.535 53.6762 95.3692 108.873 53.6762 420.471 164.421 437.759 344.579 166.269 207.756 164.421 80.8289 166.269 80.8289 522.485 554.257 534.603 257.864 256.05 271.49 126.927 540.021 571.669 577.096 269.594 266.435 282.767 130.937 513.729 547.702 566.751 265.465 273.586 288.902 138.658 460.739 493.776 512.652 239.659 240.143 258.8 126.807 430.047 441.245 463.503 208.747 220.595 234.977 112.853 395.004 407.64 438.88 190.139 209.451 206.268 95.8944 370.15 393.371 389.443 189.131 185.553 201.372 94.2446 355.401 389.614 391.929 187.684 184.597 191.999 94.8863 352.371 376.224 363.173 181.179 170.804 197.615 92.7975 353.895 361.686 356.508 170.725 181.567 178.609 88.3814 338.535 328.015 362.29 161.319 172.327 183.077 82.3433 305.735 293.274 318.449 153.925 166.207 144.938 78.9753 292.346 303.143 293.769 151.524 139.528 148.336 74.9499 291.317 321.202 302.333 153.889 152.818 154.807 76.5744 271.549 302.213 308.361 144.804 138.499 166.395 77.3143 254.001 272.319 262.577 131.746 133.05 135.818 67.4893 233.678 248.173 254.002 121.788 120.951 136.501 64.2569 237.346 233.694 229.375 111.77 112.727 111.672 57.5313 240.749 228.65 264.092 113.192 124.619 122.023 54.2383 233.958 208.828 212.207 113.072 116.13 106.627 58.954 233.808 201.777 220.354 107.781 117.828 102.201 54.1176 226.146 207.243 212.669 108.86 115.98 99.5753 53.6631 110.166 107.668 209.123 55.1966 110.166 107.668 55.1966 458.712 180.158 516.627 413.17 205.925 230.003 180.158 85.4404 205.925 85.4404 589.215 667.7 625.468 296.393 278.554 310.702 144.562 603.826 699.908 708.809 302.075 310.661 356.998 151.831 565.674 632.4 676.068 282.237 293.165 342.91 150.244 515.415 571.032 598.11 254.117 272.508 289.49 131.993 472.336 524.15 559.302 232.498 242.907 281.542 122.124 433.318 479.181 511.429 217.501 229.429 242.608 110.374 411.221 454.268 467.594 204.24 203.89 236.573 107.127 399.701 430.762 451.611 201.93 207.332 217.695 97.1129 367.31 405.201 412.781 195.045 192.369 213.067 104.818 364.903 391.36 394.027 190.962 174.941 192.134 90.2278 342.204 359.723 384.697 166.697 189.962 199.226 100.734 306.483 321.22 334.474 139.349 152.242 160.497 65.9629 303.756 316.911 323.74 151.619 154.241 160.723 73.3861 319.377 313.649 298.026 167.314 149.515 156.188 78.233 299.389 306.702 323.714 157.409 169.862 157.462 89.0806 262.578 296.732 277.791 140.573 129.527 149.24 68.3287 249.699 261.2 280.252 126.385 133.051 147.491 72.2444 256.122 253.132 242.984 121.925 116.648 113.709 54.1402 235.55 236.027 283.353 115.457 139.473 139.423 67.7845 198.603 200.491 196.972 95.7567 96.0763 96.6033 47.6728 199.215 189.347 209.536 93.9961 102.526 103.887 48.0839 195.646 183.57 184.327 98.3834 96.6889 85.4599 45.9122 98.9569 98.1099 198.893 52.4712 98.9569 98.1099 52.4712 579.926 233.012 695.576 586.727 287.697 286.625 233.012 120.485 287.697 120.485 745.062 866.51 831.072 371.307 346.914 407.879 166.139 781.052 872.294 890.085 397.833 398.149 458.632 205.167 708.505 771.201 830.773 350.163 382.903 413.663 192.666 641.997 711.071 735.451 316.915 325.602 357.538 157.497 598.396 650.356 692.311 291.652 316.395 353.533 159.418 545.705 572.13 608.024 261.68 282.001 296.823 132.234 507.984 536.285 559.634 250.028 263.704 275.306 129.446 464.691 497.109 532.476 228.831 244.28 260.979 120.582 439.498 462.731 485.06 210.156 220.411 236.131 108.249 413.822 431.626 463.657 200.398 219.086 226.601 101.906 376.967 413.666 403.917 193.026 194.735 205.025 98.4919 351.73 392.657 399.174 181.871 182.232 208.641 94.5339 318.01 369.319 339.654 165.292 169.499 184.017 87.3371 302.364 344.631 345.812 146.336 148.512 185.302 77.9548 302.116 313.918 330.687 149.293 153.852 159.329 68.3811 295.466 289.206 287.635 156.159 148.264 154.59 80.9116 273.537 255.75 270.163 134.816 147.201 134.616 75.2469 270.215 254.525 243.614 131.208 126.336 121.134 59.5686 244.775 229.289 265.218 120.57 143.879 133.391 71.639 207.905 199.113 190.67 104.734 100.896 95.898 48.9305 194.647 196.552 205.719 95.3513 107.009 103.215 55.8035 187.574 203.708 187.606 85.1865 87.6381 93.3375 39.5478 99.9357 110.371 220.946 45.6387 99.9357 110.371 45.6387 837.872 353.714 974.144 902.579 437.658 408.951 353.714 167.212 437.658 167.212 976.094 1080.36 1087.95 495.203 484.158 536.486 241.739 939.806 1035.53 1068.01 474.462 491.936 543.877 253.464 857.719 943.668 1004.46 421.038 447.87 491.649 220.997 785.765 891.142 917.735 394.156 409.849 452.019 200.041 701.939 807.738 844.629 358.704 375.916 439.124 194.115 621.953 704.541 726.204 310.449 326.023 368.614 164.589 584.126 635.526 678.856 286.257 295.929 335.927 145.86 552.845 588.248 609.035 268.278 288.196 299.6 140.396 509.219 545.901 587.175 252.576 264.649 288.648 127.881 453.752 485.75 510.996 231.227 244.57 257.253 124.694 426.124 454.927 465.558 220.64 209.181 228.498 106.533 387.098 434.328 448.151 210.786 216.943 226.429 114.107 367.456 402.475 397.816 204.027 170.156 207.899 96.6795 374.136 375.982 386.371 198.295 197.301 194.576 107.348 316.206 326.734 355.814 164.626 176.835 181.406 90.9477 262.332 274.952 289.403 133.047 139.37 145.328 73.6781 240.24 251.475 277.525 120.935 122.962 129.624 59.3691 238.618 231.999 244.613 123.317 117.279 121.851 61.5657 211.114 211.603 215.675 108.719 121.339 110.148 61.7516 188.484 192.694 211.416 94.3786 89.7747 101.455 46.9675 198.678 203.064 198.903 101.201 98.7097 91.2388 47.4111 220.978 234.045 198.887 118.522 99.968 111.826 53.7898 121.01 122.219 229.863 64.7319 121.01 122.219 64.7319 1152.65 548.864 565.193 548.864 270.445 565.193 548.864 270.445 270.445 270.445 1179.86 585.16 603.788 585.16 603.788 294.747 294.747 1132.67 561.065 576.072 561.065 576.072 290.412 290.412 1064.48 522.63 556.594 522.63 556.594 270.652 270.652 976.598 496.986 507.885 496.986 507.885 251.978 251.978 868.893 449.034 468.713 449.034 468.713 245.008 245.008 783.107 394.092 400.18 394.092 400.18 204.025 204.025 703.766 349.269 382.927 349.269 382.927 190.066 190.066 643.365 319.97 320.839 319.97 320.839 159.203 159.203 588.952 293.326 322.526 293.326 322.526 160.767 160.767 522.802 254.523 266.425 254.523 266.425 132.559 132.559 487.584 234.287 256.376 234.287 256.376 121.964 121.964 458.869 223.542 231.208 223.542 231.208 112.323 112.323 416.731 198.448 227.661 198.448 227.661 111.219 111.219 368.049 177.686 189.07 177.686 189.07 87.2284 87.2284 329.012 162.108 178.979 162.108 178.979 90.4579 90.4579 304.596 141.905 150.033 141.905 150.033 71.6498 71.6498 281.898 130.54 154.563 130.54 154.563 70.2553 70.2553 221.67 108.681 127.334 108.681 127.334 60.285 60.285 215.977 102.884 94.3357 102.884 94.3357 48.3964 48.3964 221.835 98.3156 121.642 98.3156 121.642 54.4879 54.4879 199.112 101.864 100.193 101.864 100.193 43.8277 43.8277 207.771 115.523 98.9187 115.523 98.9187 58.0358 58.0358 108.853 57.4874 108.853 57.4874 108.853 57.4874 57.4874 514.791 517.52 248.036 1067.65 517.52 829.002 756.016 365.321 248.036 514.791 517.52 248.036 365.321 248.036 515.513 550.129 1043.54 901.944 941.717 266.754 515.513 550.129 463.682 266.754 483.881 493.411 983.015 846.073 866.386 248.759 483.881 493.411 438.262 248.759 456.189 489.605 925.649 795.841 844.734 235.123 456.189 489.605 407.811 235.123 402.363 436.044 797.051 719.495 767.895 221.067 402.363 436.044 388.031 221.067 355.654 361.007 703.605 642.569 652.609 181.296 355.654 361.007 331.464 181.296 320.499 342.598 641.515 586.054 609.159 174.358 320.499 342.598 311.105 174.358 285.819 298.917 576.344 533.235 546.119 146.141 285.819 298.917 274.949 146.141 263.494 277.427 511.416 494.519 514.582 139.678 263.494 277.427 258.286 139.678 242.734 233.99 464.955 441.99 453.2 123.815 242.734 233.99 236.232 123.815 219.852 230.965 425.171 395.057 420.927 118.918 219.852 230.965 205.757 118.918 207.872 194.206 377.97 369.31 379.425 100.934 207.872 194.206 189.3 100.934 184.287 183.764 352.441 337.323 348.803 106.938 184.287 183.764 180.01 106.938 150.488 168.677 319.043 310.547 322.93 77.3488 150.488 168.677 157.313 77.3488 134.752 150.366 275.318 281.317 295.675 73.1396 134.752 150.366 153.234 73.1396 119.34 124.952 231.12 258.076 265.493 61.6125 119.34 124.952 128.083 61.6125 116.768 106.168 214.272 256.42 239.617 57.7274 116.768 106.168 129.993 57.7274 116.69 108.105 208.968 229.315 231.718 59.0408 116.69 108.105 126.427 59.0408 112.552 100.864 208.558 223.743 210.104 57.6494 112.552 100.864 102.888 57.6494 106.371 107.694 207.247 235.191 240.286 54.9022 106.371 107.694 120.855 54.9022 100.022 99.5533 185.82 216.514 224.407 51.4685 100.022 99.5533 114.336 51.4685 92.6625 86.2666 171.139 196.241 181.138 48.5539 92.6625 86.2666 102.178 48.5539 89.8072 84.8722 183.462 183.931 190.417 44.1086 89.8072 84.8722 94.0625 44.1086 45.6986 98.5895 98.5895 89.8681 194.005 45.6986 45.6986 98.5895 89.8681 45.6986 630.083 238.495 519.176 397.657 196.736 314.212 238.495 117.284 196.736 117.284 764.563 675.781 660.77 386.431 391.588 322.44 196.928 728.105 677.647 684.386 362.191 372.976 353.342 189.504 686.98 625.018 649.746 339.652 355.13 324.305 172.688 623.452 569.83 610.603 317.132 331.85 300.713 166.964 558.163 506.388 543.381 286.914 291.602 269.117 150.168 513.762 472.057 484.422 265.555 266.56 237.27 136.747 484.357 452.397 459.858 247.416 247.202 234.786 128.808 456.365 428.679 432.38 231.025 237.155 217.611 118.608 409.172 388.729 407.852 199.256 219.21 211.068 112.417 375.181 346.26 381.966 175.205 189.962 177.66 86.8387 350.257 306.03 350.333 161.438 185.219 168.6 88.3665 319.292 293.497 299.331 153.036 165.039 137.43 73.072 299.562 293.116 299.261 160.058 154.253 156.068 79.964 285.85 277.565 261.474 146.565 145.309 137.049 80.0942 273.99 282.158 274.285 138.736 140.54 140.516 66.4704 257.062 269.638 261.472 139.652 133.449 141.642 72.2654 232.853 223.686 241.636 112.625 123.613 127.996 67.3866 241.832 220.661 214.692 111.191 109.24 95.6905 45.2382 257.445 246.311 257.297 128.821 132.592 124.97 65.9531 219.725 224.489 237.546 116.492 124.854 121.34 62.8674 200.416 207.456 192.746 103.578 94.8716 103.149 53.6245 200.96 190.17 215.37 94.1234 105.544 104.307 49.9539 95.4151 85.8626 191.859 44.1696 95.4151 85.8626 44.1696 428.343 159.161 417.679 318.409 163.044 204.964 159.161 79.4521 163.044 79.4521 580.593 553.971 512.824 289.35 269.182 254.634 125.512 606.027 585.883 588.391 315.456 311.411 299.337 163.838 573.369 533.631 562.15 285.366 294.616 286.546 151.618 530.531 473.777 507.211 252.698 278.753 247.085 133.748 469.64 440.773 481.006 219.473 251.779 226.692 118.949 430.518 411.368 443.509 206.502 217.862 214.081 100.524 407.881 386 408.374 204.981 212.656 197.287 105.978 383.867 365.371 377.954 197.654 195.225 188.713 99.0028 380.646 360.665 349.228 189.473 188.641 176.657 98.6509 357.119 354.225 385.563 171.055 192.005 184.007 90.8216 299.407 321.807 344.693 144.591 165.115 170.218 80.2335 279.3 292.271 305.315 140.461 134.292 151.59 64.3578 261.173 273.88 282.11 133.058 145.008 140.682 76.1036 249.909 268.428 273.951 131 116.164 133.198 56.9546 261.768 270.168 262.66 143.422 133.745 135.23 74.0455 246.045 252.241 255.336 129.986 128.023 134.938 69.3769 223.475 222.951 228.983 111.061 118.022 117.303 60.6092 230.158 235.046 219.993 109.47 105.452 105.648 50.4523 237.397 245.047 250.258 117.49 124.705 129.398 59.0173 210.567 228.884 218.275 107.997 112.692 115.649 58.473 207.7 229.905 227.193 103.878 97.8748 113.235 49.5245 206.27 213.333 229.833 96.0465 109.826 116.67 54.3535 96.4439 96.6622 202.081 41.693 96.4439 96.6622 41.693 402.89 159.248 441.424 349.121 178.31 212.715 159.248 83.5924 178.31 83.5924 520.622 557.443 517.529 264.621 243.642 263.114 129.122 544.513 572.178 592.359 270.427 276.98 294.329 135.499 495.991 531.701 564.869 248.265 267.533 277.849 134.928 457.685 482.378 513.047 221.08 228.458 253.852 113.337 454.875 461.138 489.139 221.3 229.227 228.526 107.743 421.365 420.683 453.133 204.865 225.648 232.612 113.557 378.446 388 416.463 181.019 195.718 188.071 91.3083 343.315 365.487 394.504 167.717 182.729 199.929 89.7107 354.145 343.457 354.918 171.192 160.587 165.558 78.0063 373.136 357.111 363.685 183.17 193.558 177.899 93.1858 350.601 352.723 354.843 177.216 179.578 179.212 89.9841 308.125 318.944 338.707 151.81 171.023 173.511 87.2318 294.888 292.958 303.519 140.822 137.101 145.433 64.5782 286.701 289.492 315.612 137.428 157.786 147.525 76.2434 256.228 268.726 287.476 126.746 128.915 141.966 61.1846 238.274 244.26 269.757 122.255 127.313 126.759 65.5611 225.502 235.204 233.191 111.89 110.961 117.501 56.6939 240.094 259.773 236.575 125.576 114.541 117.704 55.1957 231.136 247.649 244.069 127.557 125.553 142.07 70.3807 234.901 223.733 209.061 120.887 105.583 105.58 57.1764 249.326 231.246 229.527 126.027 129.318 118.153 63.7101 225.645 214.549 248.518 117.286 120.008 113.094 62.317 105.637 101.455 212.955 54.9692 105.637 101.455 54.9692 463.761 189.873 522.011 416.822 207.245 228.709 189.873 94.7175 207.245 94.7175 589.267 666.577 643.144 292.822 273.888 314.766 133.992 612.715 684.97 704.724 301.751 315.379 351.811 158.83 581.925 641.779 674.287 283.437 297.336 333.159 142.921 544.502 586.38 605.624 261.298 284.59 308.62 140.515 487.397 546.581 573.547 239.838 259.912 277.76 120.783 448.23 499.842 509.057 215.817 227.485 268.821 119.055 432.521 464.937 478.668 206.981 220.745 231.021 96.7624 406.107 433.63 460.76 197.77 211.776 233.916 110.219 364.459 401.607 412.894 172.265 194.332 199.714 87.5517 345.393 387.365 393.012 173.941 170.127 201.893 84.7128 342.949 359.448 367.261 175.508 175.266 185.472 89.2282 334.101 336.994 339.64 167.134 167.684 173.977 86.2793 324.243 304.855 331.76 152.137 166.418 163.017 80.8551 316.386 308.091 315.124 152.064 157.825 141.839 71.2818 301.005 294.804 317.044 141.98 158.561 166.253 80.7818 264.674 261.312 276.117 122.005 142.444 128.551 61.1982 244.264 262.036 258.94 123.315 122.23 132.761 60.8067 240.55 273.204 256.473 134.197 122.034 129.275 62.5081 221.994 244.298 257.913 120.092 118.516 143.929 71.6888 203.686 206.017 218.598 102.846 103.478 100.369 48.4035 228.719 204.515 215.379 105.219 100.208 105.648 54.4425 235.828 199.65 233.293 97.2624 128.51 98.8671 50.7768 107.318 100.783 214.896 46.4856 107.318 100.783 46.4856 596.205 226.949 722.223 591.232 299.029 293.302 226.949 112.527 299.029 112.527 758.601 854.646 841.474 373.755 369.256 423.193 180.774 766.296 848.563 885.344 383.219 389.345 431.453 192.981 697.986 795.023 830.193 358.342 376.951 417.11 190.238 634.67 716.691 733.19 325.082 321.035 377.913 168.105 595.207 649.978 689.488 306.744 313.635 338.778 156.977 539.495 595.528 621.746 284.025 281.572 311.201 149.766 506.907 555.825 558.173 257.956 257.923 284.328 134.259 467.547 520.427 539.254 235.86 248.984 271.497 123.697 441.448 485.985 494.889 229.342 218.563 248.929 112.162 414.88 435.948 457.637 213.423 222.885 237.056 117.18 363.951 389.425 403.42 183.941 191.995 198.892 96.2433 337.299 346.171 393.475 169.859 171.956 190.533 87.6976 322.641 316.148 322.087 152.718 165.343 155.638 82.1616 315.782 331.868 342.894 156.028 157.299 160.51 70.5568 292.156 304.403 331.513 152.824 158.483 171.358 85.4711 270.383 268.592 285.206 139.307 133.673 133.045 67.3526 271.149 258.027 263.777 138.721 136.71 135.547 71.9544 273.836 254.307 248.333 139.007 134.439 122.48 66.767 254.517 226.6 268.831 124.205 139.397 131.828 72.2403 230.291 197.277 239.027 103.171 115.12 94.7723 51.965 219.953 196.773 227.447 99.2961 115.17 102.504 51.2057 212.36 204.844 203.611 102.387 104.782 94.2686 48.0904 107.578 110.575 223.957 54.297 107.578 110.575 54.297 836.501 364.283 1016.38 919.272 464.921 428.921 364.283 186.502 464.921 186.502 968.217 1075.59 1093.54 480.891 472.218 551.459 242.419 949.241 1036.95 1058.25 465.344 495.999 524.131 238.472 865.397 978.53 1004.51 436.681 453.242 512.814 226.873 788.008 871.221 915.192 391.609 412.155 465.716 209.808 716.027 763.094 828.579 343.235 375.853 405.505 181.8 640.424 700.519 734.098 311.503 340.174 357.589 161.434 590.52 652.365 681.281 297.869 300.25 342.93 150.069 566.596 607.962 643.411 284.567 290.27 309.435 147.8 511.077 552.269 582.63 256.643 276.326 298.527 136.767 446.176 490.803 512.07 222.524 234.751 253.743 119.876 432.944 458.781 469.284 205.484 211.425 237.06 102.648 378.263 411.639 459.509 176.312 221.519 221.721 102.836 342.34 381.712 378.34 163.429 156.745 189.917 73.4762 358.626 366.203 384.988 175.84 185.596 191.794 89.953 324.563 318.484 344.63 151.58 173.03 174.409 85.8874 278.599 291.976 306.16 129.285 151.533 144.075 65.6923 240.96 270.663 269.182 119.306 127.066 147.901 63.5927 243.328 228.289 239.268 115.3 113.894 122.762 55.7128 253.342 215.488 231.989 102.395 129.435 105.527 59.5873 236.184 217.625 252.53 94.1058 123.907 109.961 42.8073 211.105 194.725 225.99 97.4768 112.277 107.664 51.2986 215.208 194.705 189.846 102.457 98.8284 87.0611 46.1782 116.379 107.644 211.027 56.2785 116.379 107.644 56.2785 1176.31 554.989 587.459 554.989 278.419 587.459 554.989 278.419 278.419 278.419 1183.57 594.7 621.319 594.7 621.319 309.04 309.04 1113.52 571.601 562.255 571.601 562.255 285.659 285.659 1054.3 541.849 551.267 541.849 551.267 285.942 285.942 955.763 479.613 503.037 479.613 503.037 255.908 255.908 846.65 419.86 452.726 419.86 452.726 223.705 223.705 774.955 389.016 393.924 389.016 393.924 196.155 196.155 734.172 354.496 381.031 354.496 381.031 192.861 192.861 659.445 323.395 353.141 323.395 353.141 161.635 161.635 583.624 295.626 306.304 295.626 306.304 161.76 161.76 535.178 268.279 277.319 268.279 277.319 133.867 133.867 495.849 253.297 257.859 253.297 257.859 134.412 134.412 459.586 235.327 237.991 235.327 237.991 118.885 118.885 420.987 218.283 221.596 218.283 221.596 116.441 116.441 370.992 190.363 199.392 190.363 199.392 101.841 101.841 326.228 166.905 171.6 166.905 171.6 88.5215 88.5215 296.743 162.691 154.627 162.691 154.627 78.3831 78.3831 267.491 151.357 142.116 151.357 142.116 84.3082 84.3082 227.929 112.989 125.375 112.989 125.375 67.0493 67.0493 231.176 113.093 102.554 113.093 102.554 45.9393 45.9393 242.336 123.519 128.622 123.519 128.622 67.1539 67.1539 204.731 97.2484 113.713 97.2484 113.713 56.3654 56.3654 185.666 92.2483 91.0176 92.2483 91.0176 40.8829 40.8829 94.6479 51.3654 94.6479 51.3654 94.6479 51.3654 51.3654 552.859 538.661 269.484 1084.79 538.661 868.73 813.044 390.695 269.484 552.859 538.661 269.484 390.695 269.484 528.027 546.132 1037.58 906.159 944.563 283.375 528.027 546.132 478.035 283.375 499.134 491.445 977.655 865.048 859.717 244.652 499.134 491.445 428.124 244.652 469.46 486.21 898.531 816.787 845.078 254.482 469.46 486.21 436.924 254.482 394.689 412.322 784.22 701.009 739.852 214.978 394.689 412.322 379.864 214.978 347.951 371.899 702.521 619.199 664.083 179.711 347.951 371.899 321.145 179.711 321.017 330.622 630.916 569.224 603.597 168.24 321.017 330.622 298.054 168.24 290.525 300.294 571.512 527.466 537.37 152.776 290.525 300.294 271.17 152.776 247.923 271.218 501.095 473.263 507.302 137.748 247.923 271.218 256.296 137.748 222.221 229.877 453.364 432.137 442.196 110.174 222.221 229.877 216.967 110.174 205.319 223.487 419.474 405.294 419.923 112.047 205.319 223.487 215.17 112.047 170.098 195.987 360.056 358.917 386.806 93.2721 170.098 195.987 190.124 93.2721 168.154 164.069 339.871 334.41 345.468 76.826 168.154 164.069 168.793 76.826 168.554 175.803 319.247 308.058 322.278 91.3285 168.554 175.803 165.617 91.3285 140.566 143.445 275.656 279.851 277.663 77.226 140.566 143.445 142.441 77.226 111.78 132.211 229.878 247.034 268.021 63.3398 111.78 132.211 137.41 63.3398 97.5039 97.6671 209.684 214.914 205.066 48.4401 97.5039 97.6671 109.624 48.4401 92.278 112.017 207.173 212.506 226.447 49.0638 92.278 112.017 105.29 49.0638 96.0061 95.156 210.48 226.647 221.417 43.2142 96.0061 95.156 107.216 43.2142 100.877 115.324 223.628 229.502 248.306 52.7919 100.877 115.324 119.431 52.7919 85.7975 108.304 201.28 189.031 212.774 48.0848 85.7975 108.304 110.071 48.0848 78.4763 92.9757 185.24 175.314 182.748 37.7127 78.4763 92.9757 78.9599 37.7127 93.6545 92.2645 185.754 200.491 202.332 40.7636 93.6545 92.2645 96.3542 40.7636 52.891 93.4897 93.4897 104.136 184.111 52.891 52.891 93.4897 104.136 52.891 672.815 274.383 539.251 440.582 200.92 315.871 274.383 121.211 200.92 121.211 766.704 669.375 689.553 378.132 398.431 338.33 194.66 727.14 656.485 667.656 365.914 368.272 331.045 183.472 686.398 635.331 642.761 347.328 358.868 325.44 182.442 619.715 584.154 603.114 306.32 327.53 309.89 164.886 565.159 521.415 533.248 271.248 292.184 274.264 141.434 510.051 472.223 489.211 248.207 272.975 247.152 129.814 473.16 439.841 436.116 236.941 237.076 225.071 118.394 448.403 411.553 431.706 225.34 236.084 214.77 118.547 408.755 401.089 395.093 209.916 212.318 196.783 106.793 387.255 386.039 370.795 199.975 196.437 204.306 103.123 372.218 343.635 342.77 188.819 190.818 181.733 96.8521 327.875 305.095 337.103 166.256 181.399 161.901 91.9668 280.694 267.618 289.156 139.504 146.475 143.194 74.2889 270.028 258.194 266.372 139.285 134.219 124.425 65.2149 243.208 253.599 274.007 135.254 135.809 133.769 74.07 221.829 233.469 228.617 117.41 107.399 119.83 61.1838 240.691 232.642 242.912 120.228 114.43 113.64 56.2266 259.243 251.328 234.764 130.64 126.261 119.002 64.0017 237.452 248.532 260.452 128.625 132.982 132.327 66.6388 194.242 205.803 229.951 103.233 104.47 116.205 61.9861 199.839 200.66 191.139 96.8377 89.772 89.5974 41.2471 200.689 217.059 220.738 106.836 110.067 111.063 55.5906 90.6213 105.996 176.991 51.2455 90.6213 105.996 51.2455 457.32 166.199 413.554 318.833 155.365 223.379 166.199 79.7092 155.365 79.7092 590.505 547.244 514.559 291.243 291.122 258.19 143.67 583.276 564.658 569.837 290.571 299.383 289.054 147.573 559.477 535.729 534.668 288.003 283.893 275.604 142.999 516.647 514.439 513.044 277.833 275.584 260.125 145.004 457.3 483.742 480.787 250.167 241.064 254.314 132.829 415.276 440.516 425.425 224.016 216.237 229.428 117.338 394.662 400.327 406.487 202.9 199.04 211.087 106.678 378.397 361.811 389.562 186.213 195.622 189.24 96.2223 357.133 374.126 351.802 191.173 182.775 172.571 89.9905 326.31 376.03 358.662 186.064 174.358 201.555 101.183 307.655 328.201 327.594 154.816 151.951 174.475 84.8812 298.384 295.154 319.98 138.839 155.703 153.726 69.9343 274.835 282.181 290.867 128.115 142.681 141.428 68.9047 270.351 268.183 280.992 118.909 132.154 140.753 59.2098 259.416 247.828 284.237 118.345 138.197 127.43 59.6995 249.7 232.078 266.292 116.059 121.218 120.398 58.6457 236.985 226.026 248.699 112.413 128.482 111.68 57.4132 235.973 235.205 231.077 120.688 108.503 114.345 55.0001 252.952 223.486 235.514 119.907 127.47 120.86 65.6879 226.849 216.584 236.445 102.57 125.481 102.626 54.2193 212.038 227.121 229.33 103.822 101.367 113.958 48.3503 197.04 218.582 224.293 110.223 110.67 113.163 55.4721 86.3694 105.419 184.781 54.7509 86.3694 105.419 54.7509 376.071 152.634 425.227 323.378 170.811 190.175 152.634 75.6556 170.811 75.6556 493.891 552.446 498.714 256.001 223.437 254.416 114.52 521.229 585.05 579.899 274.086 270.454 298.03 141.481 488.236 546.215 549.467 247.727 250.775 287.02 132.605 477.184 519.809 512.932 236.605 237.461 259.195 115.121 448.912 481.134 510.641 233.575 239.723 260.613 121.484 416.636 448.913 430.817 216.5 209.188 220.521 112.091 401.387 422.967 445.248 197.427 207.448 228.392 104.409 362.967 383.935 406.542 175.598 193.94 194.575 93.018 353.331 375.147 382.565 182.953 169.027 189.36 82.5805 359.946 361.418 359.26 189.966 184.304 185.787 100.372 339.919 340.827 352.787 173.385 175.642 175.631 89.5937 312.463 323.281 323.228 156.315 164.277 165.196 83.7914 297.024 326.172 302.776 154.066 148.186 158.086 72.5232 294.878 313.596 322.727 149.273 148.838 168.087 81.5429 291.113 288.507 290.394 129.483 146.04 145.51 67.7304 265.29 258.688 291.284 116.019 145.073 142.998 61.7521 242.792 234.561 252.916 113.612 120.217 115.69 54.267 230.619 220.87 243.524 114.517 122.575 118.871 59.3452 219.007 205.48 210.849 103.579 108.044 102 55.1722 238.927 214.855 239.869 114.015 110.963 103.481 48.4066 241.586 246.798 226.695 123.299 127.963 111.374 65.6081 212.034 246.925 252.355 108.359 113.623 135.424 57.6907 98.4112 111.5 215.736 50.6679 98.4112 111.5 50.6679 446.021 170.744 537.955 402.348 209.577 235.052 170.744 95.1557 209.577 95.1557 584.722 681.291 630.865 296.445 275.277 328.378 139.896 608.137 694.042 699.77 310.964 309.445 352.913 156.549 574.163 638.133 663.476 298.489 298.692 341.128 154.414 546.389 592.791 591.898 283.203 275.472 297.005 144.074 492.546 536.022 573.823 247.559 270.918 295.786 139.129 459.429 487.883 492.517 232.413 221.628 240.236 108.43 450.402 474.491 487.761 225.54 237.8 247.647 123.983 426.14 440.024 466.175 208.337 212.602 226.844 101.557 388.494 404.3 433.95 192.194 213.538 213.18 106.78 352.101 372.908 380.508 171.452 174.956 191.119 85.4142 336.096 347.452 374.541 167.442 177.145 181.789 86.0374 313.541 334.407 339.366 166.967 158.951 165.663 81.4044 328.479 342.029 341.381 172.106 154.59 168.744 85.5625 318.243 324.077 351.872 164.323 173.889 173.285 86.5437 290.564 298.357 287.698 159.025 144.354 150.791 77.7791 278.91 273.745 292.793 142.669 146.21 147.566 81.2456 253.649 253.377 258.464 120.949 132.699 126.179 61.4234 223.755 241.182 256.33 106.353 120.949 127.198 59.5258 231.711 232.213 226.408 101.901 102.805 113.984 46.8273 227.638 227.96 243.052 100.84 128.906 118.229 55.0742 237.465 244.156 213.089 123.5 98.7323 109.73 45.7659 256.057 248.539 252.558 138.566 138.732 134.426 77.7336 117.324 114.113 234.441 60.8324 117.324 114.113 60.8324 587.192 231.604 710.483 591.182 292.203 302.903 231.604 114.421 292.203 114.421 745.913 872.172 843.909 384.846 355.588 418.281 188.482 755.11 866.974 908.354 383.078 390.325 453.891 196.364 681.211 768.36 809.326 339.644 364.784 413.083 186.714 619.331 705.987 714.073 309.588 316.426 355.277 152.93 573.794 661.256 673.415 288.463 302.905 350.71 156.657 520.849 584.391 641.129 255.47 270.889 310.546 131.806 503.533 541.602 559.8 248.951 249.96 273.845 123.664 473.985 513.716 538.867 231.687 253.573 267.757 125.287 425.964 466.54 494.864 212.106 220.412 245.959 106.4 402.947 425.109 443.748 201.457 205.551 220.58 105.705 377.81 407.47 415.312 180.01 197.396 204.528 95.7516 367.205 369.391 389.3 167.44 180.415 202.942 84.2586 364.774 348.834 359.348 169.923 186.791 166.45 83.1813 321.327 342.539 370.211 159.754 177.983 182.385 86.7418 289.927 312.316 312.603 139.333 143.344 160.155 73.0122 272.348 280.391 309.779 131.076 146.583 152.161 66.3204 261.145 254.082 268.427 132.428 125.765 128.229 64.7559 258.984 262.857 255.532 134.829 135.381 125.853 67.6722 237.749 281.259 268.159 130.312 123.603 137.004 67.1566 228.503 269.198 257.069 127.12 114.146 144.255 63.1552 228.182 234.285 221.244 120.657 114.357 124.943 63.9645 230.941 222.724 212.366 109.973 113.825 109.342 56.692 117.116 113.382 227.701 53.2807 117.116 113.382 53.2807 847.899 359.578 996.429 901.715 454.351 407.58 359.578 177.781 454.351 177.781 1006.35 1076.2 1132.78 487.326 488.322 542.078 229.799 962.57 1025.82 1087.92 483.897 518.029 534.122 257.527 842.188 941.171 987.751 428.716 444.541 491.695 226.37 768.156 872.55 899.693 396.399 397.647 449.476 202.347 740.75 799.583 839.099 372.793 370.51 423.074 194.053 680.079 714.86 771.284 328.921 370.24 376.509 178.74 595.133 672.327 687.27 292.651 309.839 338.351 150.181 559.746 618.079 663.19 282.029 285.294 333.976 142.47 512.649 542.432 582.764 254.434 274.452 284.104 139.559 456.113 490.552 524.224 223.652 238.197 258.328 114.875 426.802 470.012 456.232 227.46 217.916 232.224 108.777 381.443 426.211 450.309 201.951 208.886 237.788 118.683 364.785 381.616 384.653 178.911 172.557 188.423 83.2683 361.486 363.415 388.502 182.785 192.228 193.193 95.6428 332.455 332.306 325.803 172.983 169.259 170.221 87.1425 305.858 283.366 313.623 149.314 163.196 162.085 85.8407 262.813 237.787 266.801 121.654 142.662 121.281 63.4735 264.707 242.968 246.221 128.028 120.151 116.506 58.1808 287.48 269.03 262.789 150.947 144.556 126.462 69.8472 249.81 260.895 244.93 142.078 142.924 142.568 81.1 205.427 221.111 222.252 113.629 106.887 118.326 60.9783 209.125 206.168 194.872 112.751 98.5405 102.785 52.6502 110.585 103.383 202.399 60.1008 110.585 103.383 60.1008 1186.6 542.138 588.849 542.138 276.57 588.849 542.138 276.57 276.57 276.57 1214.35 588.874 644.46 588.874 644.46 312.279 312.279 1113.1 541.92 569.892 541.92 569.892 276.595 276.595 1045.26 512.455 543.21 512.455 543.21 265.325 265.325 970.635 476.15 502.046 476.15 502.046 247.129 247.129 869.633 426.79 468.589 426.79 468.589 229.021 229.021 778.474 385.939 401.044 385.939 401.044 197.769 197.769 755.326 379.676 377.431 379.676 377.431 188.17 188.17 686.207 336.051 377.895 336.051 377.895 191.506 191.506 594.339 287.998 308.312 287.998 308.312 144.545 144.545 524.343 266.9 286.027 266.9 286.027 143.453 143.453 479.74 242.552 238.316 242.552 238.316 123.447 123.447 453.519 224.259 241.424 224.259 241.424 119.105 119.105 408.37 202.705 212.096 202.705 212.096 105.154 105.154 352.819 180.629 196.274 180.629 196.274 97.5503 97.5503 306.971 159.323 156.545 159.323 156.545 83.0789 83.0789 274.566 134.052 150.426 134.052 150.426 76.2442 76.2442 250.21 116.133 124.139 116.133 124.139 57.8076 57.8076 244.303 114.94 126.07 114.94 126.07 58.3255 58.3255 220.239 118.083 118.233 118.083 118.233 56.6147 56.6147 217.371 118.816 102.006 118.816 102.006 61.4685 61.4685 211.696 107.483 115.365 107.483 115.365 57.3479 57.3479 188.146 93.4173 96.3313 93.4173 96.3313 50.1347 50.1347 91.8144 43.2826 91.8144 43.2826 91.8144 43.2826 43.2826 531.934 536.235 269.177 1063.61 536.235 888.878 841.21 422.349 269.177 531.934 536.235 269.177 422.349 269.177 509.55 527.378 1004.6 898.122 912.562 262.758 509.55 527.378 466.528 262.758 478.521 477.222 916.14 839.747 829.4 246.793 478.521 477.222 431.593 246.793 429.072 438.919 823.166 768.142 778.569 231.728 429.072 438.919 408.154 231.728 389.532 384.247 755.82 702.926 696.897 197.344 389.532 384.247 359.988 197.344 354.57 371.573 699.019 648.481 671.932 192.188 354.57 371.573 342.938 192.188 309.9 327.446 626.49 571.743 601.003 162.382 309.9 327.446 305.543 162.382 280.988 299.044 564.65 517.206 549.018 147.518 280.988 299.044 266.2 147.518 253.173 265.606 507.489 476.235 503.141 133.47 253.173 265.606 251.007 133.47 231.142 241.883 464.271 429.982 458.55 119.703 231.142 241.883 225.229 119.703 214.155 222.388 440.401 401.435 406.953 111.44 214.155 222.388 204.753 111.44 189.958 218.013 393.401 373.357 412.614 102.715 189.958 218.013 196.681 102.715 171.717 175.387 333.125 333.336 349.733 87.2425 171.717 175.387 176.675 87.2425 150.693 157.738 301.386 291.883 320.527 84.4741 150.693 157.738 156.661 84.4741 135.09 143.648 278.683 265.833 284.579 66.2186 135.09 143.648 135.222 66.2186 118.099 135.035 244.727 226.053 280.379 68.8716 118.099 135.035 130.611 68.8716 112.18 109.692 223.615 216.599 218.164 49.2269 112.18 109.692 95.4422 49.2269 114.895 113.923 218.391 235.358 240.179 62.9532 114.895 113.923 121.156 62.9532 114.474 104.468 219.892 243.077 217.753 51.9417 114.474 104.468 114.201 51.9417 122.752 115.423 229.838 231.578 229.627 62.5322 122.752 115.423 128.875 62.5322 115.482 114.415 218.235 206.491 208.507 60.2194 115.482 114.415 102.703 60.2194 106.764 103.82 212.916 209.766 203.085 55.263 106.764 103.82 103.788 55.263 92.0996 109.096 191.998 185.952 212.002 51.5009 92.0996 109.096 105.978 51.5009 40.5987 82.9016 82.9016 79.9745 166.756 40.5987 40.5987 82.9016 79.9745 40.5987 690.16 304.975 590.884 492.19 239.662 356.943 304.975 153.172 239.662 153.172 737.363 687.833 658.393 388.571 385.185 351.223 203.771 691.829 653.931 625.204 361.227 352.179 336.611 184.8 652.301 610.544 607.644 339.07 339.651 317.321 176.426 613.01 552.208 579.498 313.394 312.65 293.224 162.644 573.917 501.044 528.592 293.911 300.36 258.984 150.75 523.531 453.104 490.502 261.843 273.557 242.06 143.161 487.508 427.981 440.518 236.219 249.974 211.044 118.682 454.202 415.247 466.888 223.062 237.535 216.937 117.537 401.232 364.799 410.78 198.839 216.667 198.31 105.526 379.166 327.525 350.35 187.28 184.565 166.489 93.3137 368.946 336.238 350.655 183.399 194.601 161.036 93.9661 337.134 321.164 342.582 161.619 174.346 175.202 89.4326 303.72 287.91 321.103 141.19 162.789 145.963 72.1865 286.275 282.185 298.287 130.743 140.931 141.948 69.0036 253.815 249.025 299.331 107.955 145.344 140.237 61.7393 234.728 238.06 229.922 104.418 108.472 108.788 46.2153 239.541 245.034 262.323 120.463 126.256 129.272 58.2031 227.488 243.888 233.382 128.603 113.285 115.762 62.2597 208.296 241.871 240.984 108.827 114.204 128.126 66.343 193.358 215.287 212.912 91.0084 94.0924 113.746 42.4836 202.171 211.217 200.156 103.002 99.2651 101.542 48.5248 186.761 180.669 199.759 93.8527 102.906 109.675 54.4769 83.8547 70.9943 158.149 39.3758 83.8547 70.9943 39.3758 460.424 187.215 419.837 337.695 163.468 233.941 187.215 86.4895 163.468 86.4895 546.234 537.152 480.678 299.262 273.209 256.369 147.452 541.019 539.847 513.336 292.705 273.026 280.783 151.81 534.84 511.983 510.029 271.474 267.993 259.064 140.895 495.08 479.392 519.612 238.814 266.848 252.919 130.58 445.177 422.47 462.583 207.133 228.233 226.473 108.234 407.489 391.397 423.119 191.261 216.945 195.997 98.8987 419.897 395.722 401.231 191.762 190.544 195.4 92.3622 423.466 379.553 434.373 192.184 229.353 200.322 99.3999 359.898 336.338 381.547 165.96 194.113 179.231 92.7844 321.839 310.226 340.131 140.246 165.785 157.107 73.1755 324.291 319.373 341.54 152.839 156.055 153.119 67.07 326.551 315.694 338.686 159.545 168.237 166.254 85.769 315.67 289.679 313.921 146.72 158.314 149.439 73.7763 311.343 297.047 310.202 151.442 157.356 140.239 72.944 275.437 302.701 314.404 141.07 153.987 156.807 78.4978 257.517 282.912 282.187 133.641 121.45 145.894 62.5725 256.165 253.751 272.907 124.571 136.067 137.019 71.0687 246.878 231.386 242.501 115.285 120.097 116.732 53.5026 245.6 248.473 248.498 133.045 126.78 114.654 61.7826 219.711 249.191 237.056 124.279 118.82 133.819 71.262 197.744 226.502 225.316 108.215 100.891 115.372 53.017 171.147 190.492 197.908 86.8167 96.853 111.13 55.1983 74.2945 79.3618 169.399 31.6185 74.2945 79.3618 31.6185 357.949 150.479 396.865 303.515 152.566 185.895 150.479 76.9783 152.566 76.9783 447.78 526.167 455.647 237.89 207.47 244.299 108.917 482.346 544.315 522.11 247.143 240.311 281.868 128.973 494.8 516.184 523.487 240.509 242.036 262.447 118.17 487.115 503.764 516.323 240.578 252.764 253.737 122.339 440.525 460.323 495.807 215.337 234.351 250.028 118.239 416.862 427.152 430.259 200.136 206.174 210.296 97.0979 415.707 428.823 440.705 203.96 210.687 216.856 103.038 392.454 405.172 427.983 187.368 205.02 211.967 100.922 361.781 366.678 397.773 170.378 187.434 193.205 86.4466 359.832 350.63 380.655 169.98 174.346 173.474 83.9316 355.935 335.188 372.353 166.534 185.486 177.156 86.0487 326.056 302.723 333.101 156.148 170.449 158.032 80.4854 308.453 299.331 296.58 142.958 155.607 144.691 75.6628 313.262 299.525 322.099 145.605 152.846 154.641 67.2955 321.153 293.17 309.957 161.631 160.417 144.885 78.3097 297.577 285.512 301.384 149.271 160.737 148.286 83.3211 259.244 261.879 284.498 129.179 136.84 137.226 65.95 244.121 233.503 241.926 116.101 122.404 124.653 63.2295 239.953 245.238 231.692 115.429 121.717 108.85 52.8717 242.661 251.71 243.147 124.912 118.236 136.389 62.5569 225.48 232.252 225.848 118.287 124.425 115.321 62.355 196.16 221.166 213.403 103.675 101.055 116.931 55.9319 95.105 104.235 199.251 47.7433 95.105 104.235 47.7433 401.212 153.035 495.259 396.623 192.771 210.97 153.035 75.5881 192.771 75.5881 529.977 649.344 589.216 288.277 248.177 302.488 135.382 563.251 669.205 666.52 297.173 281.8 346.857 152.896 545.01 617.241 640.405 275.675 281.452 322.348 144.277 525.016 572.93 591.503 263.186 263.559 294.893 131.397 485.542 530.317 557.514 244.987 261.457 278.036 131.789 454.102 492.395 502.933 227.016 224.085 252.281 113.198 452.981 479.445 504.596 224.863 230.017 240.114 113.818 433.302 460.101 477.121 217.803 222.963 239.331 111.045 416.647 410.158 451.179 196.3 210.339 220.77 106.758 393.176 382.14 425.029 180.65 206.308 189.388 89.5421 349.519 366.454 385.114 168.654 186.867 192.752 91.1076 303.624 346.34 357.234 146.574 162.652 173.702 77.5466 310.226 351.224 330.815 156.373 140.973 172.637 69.0277 318.794 315.494 346.305 153.92 169.253 178.587 87.3454 290.188 282.134 309.117 131.54 149.541 136.907 66.575 288.305 277.512 302.924 136.241 140.647 145.227 64.9647 267.18 261.417 274.027 132.699 147.658 132.285 71.2759 229.496 241.557 231.995 117.402 119.522 129.132 61.4235 234.885 237.247 232.092 129.81 109.974 112.424 55.978 226.335 228.181 236.823 126.798 124.911 124.822 73.8318 213.771 221.491 206.313 113.965 101.424 103.359 52.9663 216.494 238.46 222.098 117.491 112.347 118.132 60.9988 104.147 120.328 215.977 56.4921 104.147 120.328 56.4921 584.627 243.588 724.608 627.802 298.98 284.289 243.588 117.183 298.98 117.183 725.759 880.091 849.258 361.067 341.039 425.628 167.106 743.673 850.705 879.724 372.032 384.72 454.463 193.961 686.898 755.038 792.84 341.567 358.953 396.242 178.071 624.001 681.5 719.341 309.743 327.944 358.796 163.496 574.905 653.288 651.352 285.331 296.057 322.705 146.248 553.427 616.538 645.299 265.38 278.848 330.583 139.083 528.737 557.065 599.019 254.582 274.579 285.955 126.296 494.999 520.015 547.183 242.298 254.158 271.11 128.286 459.562 472.073 500.962 213.858 240.84 248.905 114.012 416.968 433.951 458.155 201.49 218.721 223.168 99.8462 392.829 397.142 416.737 197.8 198.247 210.784 101.644 384.424 379.257 377.479 199.765 194.582 186.358 96.1559 366.894 380.725 370.283 194.851 189.842 192.899 103.609 336.628 340.275 357.093 161.574 177.052 187.827 91.2415 321.852 310.066 311.881 150.595 159.576 152.448 70.332 288.645 297.815 312.063 141.271 162.276 157.618 80.2625 238.843 269.876 273.313 128.717 126.369 140.197 61.0088 234.592 260.834 229.859 124.155 112.474 129.679 67.7086 234.03 243.97 255.716 107.437 122.118 131.155 56.4464 216.802 209.115 224.338 101.383 111.913 112.814 50.9905 214.64 199.325 208.093 107.526 104.889 96.3011 50.3927 221.581 217.343 206.756 120.969 109.751 103.023 57.1332 111.831 114.319 221.064 63.8355 111.831 114.319 63.8355 892.433 384.215 1038.07 942.558 447.365 440.319 384.215 181.797 447.365 181.797 1003.22 1144.5 1151.78 519.024 508.219 590.703 258.522 928.891 1049.85 1075.5 478.673 495.004 553.798 260.502 825.283 946.273 986.528 413.472 433.886 496.056 218.172 746.692 866.242 901.978 371.757 391.397 450.217 195.3 721.746 810.8 807.437 367.957 355.295 416.025 176.457 690.892 743.693 787.006 351.158 366.451 394.775 191.5 617.466 678.132 712.77 302.482 324.441 348.919 159.658 553.147 627.874 646.584 277.718 293.025 329.214 142.824 499.555 564.557 585.627 258.215 260.122 298.66 134.893 457.924 489.905 503.004 232.461 239.433 265.896 123.322 401.388 436.529 455.107 199.342 218.491 224.008 109.139 363.339 408.751 413.482 179.492 182.897 212.521 90.2025 360.482 391.539 391.962 185.874 180.441 196.23 89.2891 332.346 350.891 367.172 178.701 180.041 195.309 96.585 302.093 307.12 309.784 159.472 152.305 155.582 82.1161 296.731 297.058 302.096 156.544 149.787 151.538 77.3557 264.329 275.235 278.361 141.158 146.944 145.52 79.1883 250.983 266.042 249.115 136.679 117.385 129.715 61.9701 246.024 238.688 253.073 136.533 133.598 136.327 74.709 215.629 206.287 202.67 107.732 112.426 102.361 61.8236 200.209 196.012 212.373 91.7987 103.203 103.926 45.9085 206.239 191.103 201.882 96.3742 97.0056 92.0869 45.8902 109.234 99.0158 202.387 50.484 109.234 99.0158 50.484 1201.9 558.343 597.749 558.343 265.568 597.749 558.343 265.568 265.568 265.568 1224.06 625.477 643.559 625.477 643.559 332.181 332.181 1133.14 571.181 580.496 571.181 580.496 293.297 293.297 1063.22 532.801 552.642 532.801 552.642 277.885 277.885 962.723 494.485 510.581 494.485 510.581 254.917 254.917 872.697 442.843 452.142 442.843 452.142 239.568 239.568 808.884 392.535 420.555 392.535 420.555 203.275 203.275 741.888 375.65 388.329 375.65 388.329 189.26 189.26 679.063 350.157 353.558 350.157 353.558 186.39 186.39 589.075 306.342 325.505 306.342 325.505 163.767 163.767 500.187 257.444 263.57 257.444 263.57 142.575 142.575 467.201 237.188 236.617 237.188 236.617 114.869 114.869 442.106 229.26 230.585 229.26 230.585 122.318 122.318 398.652 205.665 211.521 205.665 211.521 106.941 106.941 344.609 172.19 187.131 172.19 187.131 98.7239 98.7239 309.787 147.648 157.478 147.648 157.478 73.4659 73.4659 283.726 140.514 152.309 140.514 152.309 74.1823 74.1823 263.146 134.076 131.417 134.076 131.417 66.3318 66.3318 251.204 129.363 131.729 129.363 131.729 67.7446 67.7446 209.719 102.156 119.475 102.156 119.475 61.6181 61.6181 199.414 98.5547 90.244 98.5547 90.244 40.5375 40.5375 214.046 104.214 109.169 104.214 109.169 58.0171 58.0171 198.03 94.7284 104.877 94.7284 104.877 46.1966 46.1966 93.1528 48.5318 93.1528 48.5318 93.1528 48.5318 48.5318 531.678 267.058 267.058 531.678 267.058 864.895 418.861 418.861 267.058 531.678 267.058 267.058 418.861 267.058 495.049 264.62 495.049 843.841 446.034 264.62 495.049 264.62 446.034 264.62 437.62 230.429 437.62 768.222 397.807 230.429 437.62 230.429 397.807 230.429 394.094 207.191 394.094 707.324 370.415 207.191 394.094 207.191 370.415 207.191 366.288 186.903 366.288 665.904 336.909 186.903 366.288 186.903 336.909 186.903 344.449 179.385 344.449 624.454 328.994 179.385 344.449 179.385 328.994 179.385 316.59 165.064 316.59 578.278 295.46 165.064 316.59 165.064 295.46 165.064 283.663 151.527 283.663 534.952 282.818 151.527 283.663 151.527 282.818 151.527 254.316 132.136 254.316 485.456 252.134 132.136 254.316 132.136 252.134 132.136 233.129 122.18 233.129 435.522 233.322 122.18 233.129 122.18 233.322 122.18 226.246 110.949 226.246 418.132 202.2 110.949 226.246 110.949 202.2 110.949 203.443 115.298 203.443 388.99 215.932 115.298 203.443 115.298 215.932 115.298 161.409 88.1449 161.409 336.924 173.058 88.1449 161.409 88.1449 173.058 88.1449 150.693 73.2638 150.693 313.223 163.866 73.2638 150.693 73.2638 163.866 73.2638 143.592 77.4293 143.592 299.125 149.357 77.4293 143.592 77.4293 149.357 77.4293 126.629 66.1631 126.629 272.489 149.768 66.1631 126.629 66.1631 149.768 66.1631 111.435 60.4655 111.435 241.744 122.722 60.4655 111.435 60.4655 122.722 60.4655 103.496 50.9693 103.496 222.574 119.022 50.9693 103.496 50.9693 119.022 50.9693 105.418 52.5264 105.418 204.303 103.551 52.5264 105.418 52.5264 103.551 52.5264 107.087 52.8911 107.087 206.556 100.752 52.8911 107.087 52.8911 100.752 52.8911 102.752 54.1956 102.752 205.101 105.804 54.1956 102.752 54.1956 105.804 54.1956 106.152 48.5566 106.152 205.322 99.2969 48.5566 106.152 48.5566 99.2969 48.5566 99.8981 57.5953 99.8981 192.806 106.025 57.5953 99.8981 57.5953 106.025 57.5953 42.3028 42.3028 42.3028 86.7817 86.7817 42.3028 42.3028 42.3028 86.7817 42.3028 333.217 151.803 559.699 252.528 252.528 333.217 151.803 151.803 252.528 151.803 348.792 595.764 307.171 348.792 181.414 307.171 181.414 330.603 578.917 288.594 330.603 167.378 288.594 167.378 313.231 576.597 290.323 313.231 163.225 290.323 163.225 299.616 555.882 286.274 299.616 150.006 286.274 150.006 280.006 518.05 269.608 280.006 149.61 269.608 149.61 261.688 477.916 248.442 261.688 130.396 248.442 130.396 251.29 479.425 229.473 251.29 131.291 229.473 131.291 231.14 462.421 249.952 231.14 119.998 249.952 119.998 202.393 396.33 212.47 202.393 111.141 212.47 111.141 191.886 373.48 183.861 191.886 91.2514 183.861 91.2514 185.547 357 189.619 185.547 100.634 189.619 100.634 175.515 342.521 167.381 175.515 84.913 167.381 84.913 162.53 331.48 175.14 162.53 90.6023 175.14 90.6023 155.532 315.433 156.34 155.532 71.9276 156.34 71.9276 145.861 280.228 159.094 145.861 83.6045 159.094 83.6045 130.309 254.185 121.134 130.309 62.2563 121.134 62.2563 119.078 250.671 133.051 119.078 68.053 133.051 68.053 98.8857 230.478 117.62 98.8857 51.0248 117.62 51.0248 99.4697 212.025 112.858 99.4697 47.8609 112.858 47.8609 102.349 197.781 99.1667 102.349 51.6088 99.1667 51.6088 99.1696 188.699 98.6147 99.1696 50.7403 98.6147 50.7403 92.9082 177.239 90.084 92.9082 48.4293 90.084 48.4293 44.4788 87.1549 87.1549 44.4788 44.4788 87.1549 44.4788 226.482 100.726 398.536 174.227 174.227 226.482 100.726 100.726 174.227 100.726 246.972 456.863 224.31 246.972 125.757 224.31 125.757 248.314 483.518 232.553 248.314 121.215 232.553 121.215 263.366 517.657 250.965 263.366 127.098 250.965 127.098 256.266 502.803 266.693 256.266 136.268 266.693 136.268 238.044 463.232 236.11 238.044 119.998 236.11 119.998 216.228 432.953 227.122 216.228 118.046 227.122 118.046 228.135 439.882 205.831 228.135 98.182 205.831 98.182 231.282 436.367 234.051 231.282 129.953 234.051 129.953 193.938 385.34 202.316 193.938 101.328 202.316 101.328 181.594 371.446 183.024 181.594 92.6094 183.024 92.6094 171.452 360.853 188.422 171.452 88.9845 188.422 88.9845 167.005 336.913 172.432 167.005 82.4677 172.432 82.4677 168.95 334.444 164.482 168.95 84.5376 164.482 84.5376 159.901 327.558 169.962 159.901 84.4121 169.962 84.4121 134.367 293.889 157.596 134.367 75.4892 157.596 75.4892 123.876 272.182 136.293 123.876 58.8777 136.293 58.8777 131.593 261.658 135.889 131.593 64.9984 135.889 64.9984 131.592 259.613 125.769 131.592 66.5948 125.769 66.5948 112.556 237.08 133.843 112.556 64.9975 133.843 64.9975 95.4323 213.181 103.237 95.4323 47.558 103.237 47.558 89.5291 196.722 109.944 89.5291 47.8744 109.944 47.8744 84.3307 176.816 86.778 84.3307 41.6547 86.778 41.6547 42.676 90.0377 90.0377 42.676 42.676 90.0377 42.676 172.054 73.5011 362.297 150.948 150.948 172.054 73.5011 73.5011 150.948 73.5011 209.89 451.59 211.348 209.89 98.5528 211.348 98.5528 235.204 501.282 240.242 235.204 111.338 240.242 111.338 254.291 523.626 261.04 254.291 123.866 261.04 123.866 246.536 508.366 262.586 246.536 130.425 262.586 130.425 225.188 465.743 245.78 225.188 116.112 245.78 116.112 216.726 443.812 219.963 216.726 109.077 219.963 109.077 211.747 439.865 223.849 211.747 107.649 223.849 107.649 205.086 420.585 216.016 205.086 104.098 216.016 104.098 191.403 411.749 204.568 191.403 100.988 204.568 100.988 189.852 402.378 207.181 189.852 90.4149 207.181 90.4149 189.401 370.266 195.197 189.401 99.4372 195.197 99.4372 169.908 326.958 175.069 169.908 89.9639 175.069 89.9639 165.494 319.347 151.889 165.494 79.9441 151.889 79.9441 167.657 332.53 167.458 167.657 85.5502 167.458 85.5502 159.522 318.171 165.073 159.522 82.1069 165.073 82.1069 148.306 300.371 153.098 148.306 77.4155 153.098 77.4155 130.065 264.545 147.272 130.065 70.8904 147.272 70.8904 128.02 240.115 117.273 128.02 59.1746 117.273 59.1746 124.525 229.6 122.842 124.525 68.8457 122.842 68.8457 117.749 217.285 106.758 117.749 55.679 106.758 55.679 107.193 206.999 110.527 107.193 62.0698 110.527 62.0698 92.485 191.488 96.4718 92.485 45.1234 96.4718 45.1234 47.3617 95.0161 95.0161 47.3617 47.3617 95.0161 47.3617 190.243 77.4473 490.581 203.852 203.852 190.243 77.4473 77.4473 203.852 77.4473 241.699 606.391 286.729 241.699 112.795 286.729 112.795 266.078 637.719 319.663 266.078 128.904 319.663 128.904 269.335 614.666 318.057 269.335 137.174 318.057 137.174 261.829 576.087 296.609 261.829 132.161 296.609 132.161 240.555 530.129 279.478 240.555 129.668 279.478 129.668 227.086 515.134 250.651 227.086 110.887 250.651 110.887 228.118 502.273 264.482 228.118 116.2 264.482 116.2 215.499 468.2 237.791 215.499 111.918 237.791 111.918 220.347 466.05 230.409 220.347 103.581 230.409 103.581 212.526 428.004 235.641 212.526 116.766 235.641 116.766 180.865 375.894 192.363 180.865 95.7599 192.363 95.7599 157.05 341.709 183.531 157.05 85.1051 183.531 85.1051 153.852 325.896 158.178 153.852 71.945 158.178 71.945 164.873 339.928 167.718 164.873 81.9075 167.718 81.9075 158.649 329.906 172.21 158.649 82.9659 172.21 82.9659 152.065 299.439 157.696 152.065 75.6827 157.696 75.6827 134.48 244.606 141.742 134.48 76.382 141.742 76.382 112.094 222.531 102.863 112.094 58.098 102.863 58.098 105.075 231.669 119.668 105.075 53.9964 119.668 53.9964 99.5365 214.955 112.001 99.5365 51.0791 112.001 51.0791 99.8058 206.92 102.954 99.8058 48.4574 102.954 48.4574 99.0028 199.616 103.966 99.0028 51.3484 103.966 51.3484 47.6544 95.6497 95.6497 47.6544 47.6544 95.6497 47.6544 300.338 126.405 752.452 328.823 328.823 300.338 126.405 126.405 328.823 126.405 364.692 848.891 423.629 364.692 173.933 423.629 173.933 371.641 821.859 425.261 371.641 190.759 425.261 190.759 345.331 757.142 396.597 345.331 180.883 396.597 180.883 314.258 689.192 360.545 314.258 164.448 360.545 164.448 289.574 643.363 328.647 289.574 149.809 328.647 149.809 288.047 627.781 314.716 288.047 139.765 314.716 139.765 274.155 589.138 313.065 274.155 148.282 313.065 148.282 252.701 528.131 276.073 252.701 125.872 276.073 125.872 245.704 487.044 252.057 245.704 126.829 252.057 126.829 215.478 440.941 234.987 215.478 118.875 234.987 118.875 195.029 397.075 205.954 195.029 96.6027 205.954 96.6027 184.659 368.506 191.121 184.659 98.4262 191.121 98.4262 172.043 346.651 177.385 172.043 86.2326 177.385 86.2326 175.054 328.7 169.266 175.054 85.8105 169.266 85.8105 171.258 313.878 159.433 171.258 89.2438 159.433 89.2438 147.374 287.561 154.445 147.374 82.0137 154.445 82.0137 110.125 233.296 133.116 110.125 65.3603 133.116 65.3603 110.437 224.741 100.18 110.437 44.7652 100.18 44.7652 126.594 236.085 124.561 126.594 65.6714 124.561 65.6714 115.419 223.316 111.524 115.419 60.9221 111.524 60.9221 107.114 215.524 111.791 107.114 54.4966 111.791 54.4966 100.613 210.478 103.733 100.613 52.6174 103.733 52.6174 47.9954 106.745 106.745 47.9954 47.9954 106.745 47.9954 452.114 202.418 1056.27 495.193 495.193 452.114 202.418 202.418 495.193 202.418 484.199 1082.78 561.075 484.199 249.696 561.075 249.696 450.217 1012.17 521.702 450.217 234.503 521.702 234.503 411.812 942.233 490.472 411.812 215.715 490.472 215.715 374.935 843.173 451.761 374.935 196.097 451.761 196.097 353.789 783.643 391.412 353.789 178.838 391.412 178.838 339.733 756.083 392.231 339.733 174.951 392.231 174.951 314.984 681.221 363.851 314.984 164.783 363.851 164.783 275.43 604.336 317.37 275.43 150.201 317.37 150.201 241.34 524.073 286.966 241.34 125.229 286.966 125.229 225.463 468.206 237.107 225.463 116.112 237.107 116.112 202.046 432.06 231.099 202.046 109.351 231.099 109.351 183.847 396.693 200.961 183.847 92.6947 200.961 92.6947 174.608 367.595 195.732 174.608 91.1522 195.732 91.1522 153.645 326.065 171.863 153.645 83.4559 171.863 83.4559 142.621 304.76 154.202 142.621 70.1894 154.202 70.1894 140.187 283.399 150.558 140.187 72.4314 150.558 72.4314 123.171 252.24 132.841 123.171 67.7559 132.841 67.7559 114.304 236.146 119.4 114.304 55.415 119.4 55.415 109.491 217.054 116.746 109.491 58.8891 116.746 58.8891 107.897 208.756 100.309 107.897 50.6021 100.309 50.6021 108.41 218.243 108.447 108.41 57.2948 108.447 57.2948 109.865 213.166 109.795 109.865 51.1153 109.795 51.1153 58.7497 103.371 103.371 58.7497 58.7497 103.371 58.7497 604.154 292.775 604.154 292.775 292.775 604.154 292.775 292.775 292.775 292.775 598.578 598.578 311.379 598.578 311.379 311.379 311.379 561.957 561.957 287.2 561.957 287.2 287.2 287.2 530.421 530.421 274.757 530.421 274.757 274.757 274.757 468.238 468.238 255.664 468.238 255.664 255.664 255.664 429.854 429.854 212.574 429.854 212.574 212.574 212.574 416.349 416.349 217.28 416.349 217.28 217.28 217.28 366.238 366.238 199.069 366.238 199.069 199.069 199.069 328.906 328.906 167.169 328.906 167.169 167.169 167.169 282.733 282.733 161.738 282.733 161.738 161.738 161.738 242.743 242.743 120.996 242.743 120.996 120.996 120.996 230.014 230.014 121.748 230.014 121.748 121.748 121.748 212.846 212.846 108.266 212.846 108.266 108.266 108.266 192.987 192.987 104.58 192.987 104.58 104.58 104.58 172.419 172.419 88.4071 172.419 88.4071 88.4071 88.4071 162.139 162.139 84.0123 162.139 84.0123 84.0123 84.0123 143.211 143.211 78.1267 143.211 78.1267 78.1267 78.1267 129.069 129.069 65.0847 129.069 65.0847 65.0847 65.0847 121.841 121.841 63.9848 121.841 63.9848 63.9848 63.9848 107.563 107.563 57.8567 107.563 57.8567 57.8567 57.8567 100.859 100.859 49.7065 100.859 49.7065 49.7065 49.7065 109.832 109.832 51.1524 109.832 51.1524 51.1524 51.1524 103.301 103.301 58.6801 103.301 58.6801 58.6801 58.6801 44.621 44.621 44.621 44.621 44.621 44.621 44.621 
CELL_DATA 1536
SCALARS stress float 1
LOOKUP_TABLE default
318.373 247.337 202.828 208.756 182.491 169.614 152.095 151.164 126.507 123.846 120.716 104.246 93.6922 82.0095 85.4357 79.012 66.6842 49.8426 48.5278 48.077 64.6012 53.486 57.5727 42.4921 192.524 163.255 147.93 140.486 148.879 147.459 131.411 129.967 125.216 108.551 95.321 91.8728 74.6418 84.6152 81.3638 65.574 72.6353 52.4735 60.2416 53.4062 65.326 41.7644 46.3587 46.93 113.097 104.95 131.42 125.241 114.869 122.941 124.047 107.469 121.388 107.751 96.0519 90.7005 87.5049 78.6391 76.3763 73.0908 56.4847 67.3065 51.093 54.3857 71.7931 58.4734 66.6061 62.3891 76.4281 90.2356 112.451 129.065 128.454 116.177 121.529 114.544 108.795 112.206 104.647 86.8022 93.9426 77.5475 90.531 80.3923 77.4861 78.2851 56.6972 63.1981 60.3377 67.7006 54.1695 50.1254 75.7428 106.221 137.185 138.309 138.168 121.992 119.031 116.412 119.417 107.828 108.465 94.4313 93.5697 88.4607 91.0107 73.0278 62.7796 63.1694 58.1748 52.2172 55.1458 57.7946 55.1519 44.0014 135.409 184.011 174.508 180.477 170.542 155.575 143.74 135.797 137.956 117.715 114.895 106.369 97.8684 92.1382 77.5191 72.7983 75.7368 79.8464 66.0794 73.2455 65.0418 64.1723 47.2505 47.4244 214.309 256.936 233.549 232.208 196.07 183.821 186.016 164.969 141.245 132.124 136.069 108.095 100.872 94.5466 104.23 88.2176 77.9986 77.8633 67.4049 62.5613 55.3241 68.3776 63.7924 75.3771 320.08 316.867 291.607 287.253 264.075 234.835 204.069 192.906 167.887 153.186 148.646 131.271 111.946 96.9411 105.757 87.4837 76.7173 75.6403 74.28 57.5333 52.1873 62.7549 51.3039 75.8798 281.747 275.067 259.065 224.539 202.099 175.74 178.066 145.27 135.992 114.305 105.63 95.6186 83.3046 83.1734 66.7374 64.2393 60.7941 58.315 49.2535 57.3718 38.3717 49.2043 41.5277 52.1055 142.776 199.266 192.936 175.856 169.585 139.972 131.778 122.781 121.805 106.426 99.2146 95.6992 75.3172 77.8208 64.4227 56.1953 67.0399 67.7598 61.0311 62.8274 51.6321 48.2885 54.3066 49.6969 88.4342 132.357 142.503 135.004 126.864 112.242 104.08 109.608 110.107 101.007 91.4655 81.52 86.8311 60.8303 56.4716 67.1098 71.3695 59.4547 59.6686 49.6646 54.689 49.9872 55.8697 39.6146 76.256 123.423 119.347 123.264 133.004 112.951 112.637 105.698 105.53 92.2764 78.1627 81.9075 74.1928 68.4139 70.6867 66.7899 76.6641 63.7159 58.2933 66.9984 54.2746 61.2252 51.3251 49.6301 85.3616 131.787 139.99 131.35 124.074 121.731 132.534 110.407 124.451 103.563 102.357 86.7562 86.8085 91.0969 80.16 79.2554 78.5964 63.7157 73.9213 54.4257 59.9002 55.5843 56.9647 58.1178 126.971 174.718 182.819 179.805 167.818 148.679 140.131 125.83 116.358 115.159 109.79 100.722 89.954 92.767 77.1642 75.1944 64.2633 76.3827 56.1374 64.6666 66.9573 41.1926 51.0548 51.6844 184.583 248.053 249.26 225.849 202.182 190.905 168.32 158.212 151.566 138.362 128.38 114.754 115.784 100.395 90.7026 83.5874 64.9376 73.0535 72.5296 77.0521 60.7927 58.2918 53.4979 51.7296 296.314 314.975 280.453 267.242 250.662 230.951 198.17 187.658 172.824 162.392 131.525 128.793 123.936 100.325 71.1421 86.6632 87.7835 61.3261 55.222 63.7724 58.4688 66.5931 59.6348 60.6966 265.56 292.523 253.755 248.551 224.719 189.475 156.603 143.995 130.321 126.012 99.7474 99.2895 84.4367 84.1206 72.8831 61.5237 66.2759 56.3936 40.1207 57.1548 49.6125 38.0604 48.5411 49.6791 128.794 193.52 184.192 182.397 164.552 136.567 131.515 123.931 117.526 97.1283 92.8158 100.462 85.5596 81.6065 76.596 56.2722 63.6129 54.1651 60.4323 59.6422 61.67 59.1334 43.3251 56.889 79.9027 132.187 145.687 132.988 125.272 132.218 107.568 98.5627 92.3097 90.3574 90.6035 93.8308 69.2704 80.4282 69.3085 69.0169 55.6542 59.7848 76.109 51.6548 41.3764 45.2416 54.3971 40.6893 73.7054 134.867 128.798 130.907 115.553 106.327 107.748 96.8068 95.7219 86.1593 88.0844 87.8789 82.8219 75.9553 64.148 73.4377 73.6527 68.1063 51.0228 55.1973 63.4152 49.0707 43.4753 49.9904 89.0666 140.489 153.047 146.322 134.127 125.113 121.636 114.395 101.889 99.2029 99.2499 90.3763 82.6358 80.2717 76.7236 72.0284 60.9423 53.7188 55.5538 65.9807 60.2423 57.4127 50.6308 44.9045 125.03 179.851 197.262 190.875 173.759 161.312 140.552 133.439 125.44 115.539 104.8 93.0581 84.2403 95.8709 90.0281 82.9128 77.0937 62.2648 55.3414 52.9207 54.3758 50.7646 53.0216 54.2632 178.512 234.41 256.588 224.177 208.721 192.331 170.394 152.42 146.251 127.412 115.63 116.23 99.8052 78.7069 95.3244 85.2183 79.1763 69.3412 81.3047 59.8001 64.8536 62.916 51.6873 46.7263 273.546 313.571 305.154 280.516 253.671 235.921 208.508 193.539 176.891 161.593 152.514 121.866 118.323 93.0053 101.61 85.1923 77.7094 72.2218 61.1641 50.532 54.8407 63.6478 56.5087 45.3552 246.609 293.837 243.866 254.603 237.82 191.559 175.313 156.799 138.144 115.57 106.636 105.644 97.4685 88.8961 68.9785 57.2933 66.3848 54.5714 59.9207 55.9307 50.4461 43.1214 41.6077 51.7434 122.873 185.071 197.846 175.44 166.558 152.73 131.729 129.191 113.364 96.1633 97.0024 86.8101 75.581 76.7534 67.702 58.5183 60.6692 53.6849 57.6138 60.7139 54.618 51.1952 67.7263 49.9901 95.7314 144.542 166.065 144.657 148.606 120.346 114.459 97.2104 100.098 87.8735 80.1661 79.7976 72.0423 70.2055 70.799 69.7817 56.0282 60.7561 60.0377 60.3078 62.1637 50.7555 48.8109 53.6762 80.8289 126.927 130.937 138.658 126.807 112.853 95.8944 94.2446 94.8863 92.7975 88.3814 82.3433 78.9753 74.9499 76.5744 77.3143 67.4893 64.2569 57.5313 54.2383 58.954 54.1176 53.6631 55.1966 85.4404 144.562 151.831 150.244 131.993 122.124 110.374 107.127 97.1129 104.818 90.2278 100.734 65.9629 73.3861 78.233 89.0806 68.3287 72.2444 54.1402 67.7845 47.6728 48.0839 45.9122 52.4712 120.485 166.139 205.167 192.666 157.497 159.418 132.234 129.446 120.582 108.249 101.906 98.4919 94.5339 87.3371 77.9548 68.3811 80.9116 75.2469 59.5686 71.639 48.9305 55.8035 39.5478 45.6387 167.212 241.739 253.464 220.997 200.041 194.115 164.589 145.86 140.396 127.881 124.694 106.533 114.107 96.6795 107.348 90.9477 73.6781 59.3691 61.5657 61.7516 46.9675 47.4111 53.7898 64.7319 270.445 294.747 290.412 270.652 251.978 245.008 204.025 190.066 159.203 160.767 132.559 121.964 112.323 111.219 87.2284 90.4579 71.6498 70.2553 60.285 48.3964 54.4879 43.8277 58.0358 57.4874 248.036 266.754 248.759 235.123 221.067 181.296 174.358 146.141 139.678 123.815 118.918 100.934 106.938 77.3488 73.1396 61.6125 57.7274 59.0408 57.6494 54.9022 51.4685 48.5539 44.1086 45.6986 117.284 196.928 189.504 172.688 166.964 150.168 136.747 128.808 118.608 112.417 86.8387 88.3665 73.072 79.964 80.0942 66.4704 72.2654 67.3866 45.2382 65.9531 62.8674 53.6245 49.9539 44.1696 79.4521 125.512 163.838 151.618 133.748 118.949 100.524 105.978 99.0028 98.6509 90.8216 80.2335 64.3578 76.1036 56.9546 74.0455 69.3769 60.6092 50.4523 59.0173 58.473 49.5245 54.3535 41.693 83.5924 129.122 135.499 134.928 113.337 107.743 113.557 91.3083 89.7107 78.0063 93.1858 89.9841 87.2318 64.5782 76.2434 61.1846 65.5611 56.6939 55.1957 70.3807 57.1764 63.7101 62.317 54.9692 94.7175 133.992 158.83 142.921 140.515 120.783 119.055 96.7624 110.219 87.5517 84.7128 89.2282 86.2793 80.8551 71.2818 80.7818 61.1982 60.8067 62.5081 71.6888 48.4035 54.4425 50.7768 46.4856 112.527 180.774 192.981 190.238 168.105 156.977 149.766 134.259 123.697 112.162 117.18 96.2433 87.6976 82.1616 70.5568 85.4711 67.3526 71.9544 66.767 72.2403 51.965 51.2057 48.0904 54.297 186.502 242.419 238.472 226.873 209.808 181.8 161.434 150.069 147.8 136.767 119.876 102.648 102.836 73.4762 89.953 85.8874 65.6923 63.5927 55.7128 59.5873 42.8073 51.2986 46.1782 56.2785 278.419 309.04 285.659 285.942 255.908 223.705 196.155 192.861 161.635 161.76 133.867 134.412 118.885 116.441 101.841 88.5215 78.3831 84.3082 67.0493 45.9393 67.1539 56.3654 40.8829 51.3654 269.484 283.375 244.652 254.482 214.978 179.711 168.24 152.776 137.748 110.174 112.047 93.2721 76.826 91.3285 77.226 63.3398 48.4401 49.0638 43.2142 52.7919 48.0848 37.7127 40.7636 52.891 121.211 194.66 183.472 182.442 164.886 141.434 129.814 118.394 118.547 106.793 103.123 96.8521 91.9668 74.2889 65.2149 74.07 61.1838 56.2266 64.0017 66.6388 61.9861 41.2471 55.5906 51.2455 79.7092 143.67 147.573 142.999 145.004 132.829 117.338 106.678 96.2223 89.9905 101.183 84.8812 69.9343 68.9047 59.2098 59.6995 58.6457 57.4132 55.0001 65.6879 54.2193 48.3503 55.4721 54.7509 75.6556 114.52 141.481 132.605 115.121 121.484 112.091 104.409 93.018 82.5805 100.372 89.5937 83.7914 72.5232 81.5429 67.7304 61.7521 54.267 59.3452 55.1722 48.4066 65.6081 57.6907 50.6679 95.1557 139.896 156.549 154.414 144.074 139.129 108.43 123.983 101.557 106.78 85.4142 86.0374 81.4044 85.5625 86.5437 77.7791 81.2456 61.4234 59.5258 46.8273 55.0742 45.7659 77.7336 60.8324 114.421 188.482 196.364 186.714 152.93 156.657 131.806 123.664 125.287 106.4 105.705 95.7516 84.2586 83.1813 86.7418 73.0122 66.3204 64.7559 67.6722 67.1566 63.1552 63.9645 56.692 53.2807 177.781 229.799 257.527 226.37 202.347 194.053 178.74 150.181 142.47 139.559 114.875 108.777 118.683 83.2683 95.6428 87.1425 85.8407 63.4735 58.1808 69.8472 81.1 60.9783 52.6502 60.1008 276.57 312.279 276.595 265.325 247.129 229.021 197.769 188.17 191.506 144.545 143.453 123.447 119.105 105.154 97.5503 83.0789 76.2442 57.8076 58.3255 56.6147 61.4685 57.3479 50.1347 43.2826 269.177 262.758 246.793 231.728 197.344 192.188 162.382 147.518 133.47 119.703 111.44 102.715 87.2425 84.4741 66.2186 68.8716 49.2269 62.9532 51.9417 62.5322 60.2194 55.263 51.5009 40.5987 153.172 203.771 184.8 176.426 162.644 150.75 143.161 118.682 117.537 105.526 93.3137 93.9661 89.4326 72.1865 69.0036 61.7393 46.2153 58.2031 62.2597 66.343 42.4836 48.5248 54.4769 39.3758 86.4895 147.452 151.81 140.895 130.58 108.234 98.8987 92.3622 99.3999 92.7844 73.1755 67.07 85.769 73.7763 72.944 78.4978 62.5725 71.0687 53.5026 61.7826 71.262 53.017 55.1983 31.6185 76.9783 108.917 128.973 118.17 122.339 118.239 97.0979 103.038 100.922 86.4466 83.9316 86.0487 80.4854 75.6628 67.2955 78.3097 83.3211 65.95 63.2295 52.8717 62.5569 62.355 55.9319 47.7433 75.5881 135.382 152.896 144.277 131.397 131.789 113.198 113.818 111.045 106.758 89.5421 91.1076 77.5466 69.0277 87.3454 66.575 64.9647 71.2759 61.4235 55.978 73.8318 52.9663 60.9988 56.4921 117.183 167.106 193.961 178.071 163.496 146.248 139.083 126.296 128.286 114.012 99.8462 101.644 96.1559 103.609 91.2415 70.332 80.2625 61.0088 67.7086 56.4464 50.9905 50.3927 57.1332 63.8355 181.797 258.522 260.502 218.172 195.3 176.457 191.5 159.658 142.824 134.893 123.322 109.139 90.2025 89.2891 96.585 82.1161 77.3557 79.1883 61.9701 74.709 61.8236 45.9085 45.8902 50.484 265.568 332.181 293.297 277.885 254.917 239.568 203.275 189.26 186.39 163.767 142.575 114.869 122.318 106.941 98.7239 73.4659 74.1823 66.3318 67.7446 61.6181 40.5375 58.0171 46.1966 48.5318 267.058 264.62 230.429 207.191 186.903 179.385 165.064 151.527 132.136 122.18 110.949 115.298 88.1449 73.2638 77.4293 66.1631 60.4655 50.9693 52.5264 52.8911 54.1956 48.5566 57.5953 42.3028 151.803 181.414 167.378 163.225 150.006 149.61 130.396 131.291 119.998 111.141 91.2514 100.634 84.913 90.6023 71.9276 83.6045 62.2563 68.053 51.0248 47.8609 51.6088 50.7403 48.4293 44.4788 100.726 125.757 121.215 127.098 136.268 119.998 118.046 98.182 129.953 101.328 92.6094 88.9845 82.4677 84.5376 84.4121 75.4892 58.8777 64.9984 66.5948 64.9975 47.558 47.8744 41.6547 42.676 73.5011 98.5528 111.338 123.866 130.425 116.112 109.077 107.649 104.098 100.988 90.4149 99.4372 89.9639 79.9441 85.5502 82.1069 77.4155 70.8904 59.1746 68.8457 55.679 62.0698 45.1234 47.3617 77.4473 112.795 128.904 137.174 132.161 129.668 110.887 116.2 111.918 103.581 116.766 95.7599 85.1051 71.945 81.9075 82.9659 75.6827 76.382 58.098 53.9964 51.0791 48.4574 51.3484 47.6544 126.405 173.933 190.759 180.883 164.448 149.809 139.765 148.282 125.872 126.829 118.875 96.6027 98.4262 86.2326 85.8105 89.2438 82.0137 65.3603 44.7652 65.6714 60.9221 54.4966 52.6174 47.9954 202.418 249.696 234.503 215.715 196.097 178.838 174.951 164.783 150.201 125.229 116.112 109.351 92.6947 91.1522 83.4559 70.1894 72.4314 67.7559 55.415 58.8891 50.6021 57.2948 51.1153 58.7497 292.775 311.379 287.2 274.757 255.664 212.574 217.28 199.069 167.169 161.738 120.996 121.748 108.266 104.58 88.4071 84.0123 78.1267 65.0847 63.9848 57.8567 49.7065 51.1524 58.6801 44.621 
SCALARS volume float 1
LOOKUP_TABLE default
14.112 14.5985 14.5983 14.6137 14.6291 14.6453 14.6613 14.6761 14.6901 14.7025 14.7142 14.7242 14.7336 14.7413 14.7486 14.7545 14.76 14.764 14.7679 14.7704 14.7729 14.7739 14.7751 14.7745 14.4109 14.6271 14.6628 14.668 14.6739 14.6826 14.6928 14.7033 14.7134 14.7228 14.7313 14.7389 14.7455 14.7514 14.7564 14.7608 14.7644 14.7674 14.7698 14.7716 14.773 14.7737 14.7739 14.7748 14.5866 14.6953 14.7099 14.714 14.7165 14.7207 14.7264 14.7327 14.739 14.7449 14.7503 14.755 14.7591 14.7626 14.7656 14.768 14.7701 14.7716 14.7728 14.7736 14.7739 14.7743 14.7733 14.7744 14.7373 14.7532 14.7567 14.7563 14.7564 14.7575 14.7597 14.7623 14.7651 14.7676 14.7698 14.7716 14.7731 14.7742 14.7751 14.7757 14.776 14.7761 14.7759 14.7758 14.7751 14.7752 14.7753 14.7733 14.874 14.8067 14.8012 14.7972 14.795 14.7937 14.7929 14.7921 14.7915 14.7907 14.7899 14.7888 14.7877 14.7864 14.7851 14.7837 14.7823 14.781 14.7795 14.7785 14.7772 14.7756 14.7763 14.7734 15.0087 14.8565 14.8434 14.8365 14.8325 14.8288 14.8252 14.8214 14.8176 14.8137 14.8098 14.8059 14.8021 14.7985 14.795 14.7917 14.7885 14.7858 14.7829 14.7816 14.7793 14.7809 14.7805 14.7743 15.1537 14.9051 14.883 14.8755 14.8697 14.8635 14.8571 14.8503 14.8433 14.8363 14.8295 14.8229 14.8165 14.8105 14.8049 14.7994 14.795 14.7901 14.7877 14.7826 14.7828 14.7784 14.7809 14.7756 15.3804 14.9195 14.9252 14.9149 14.9068 14.8979 14.8884 14.8784 14.8683 14.8583 14.8485 14.8391 14.8302 14.8218 14.8139 14.8069 14.8001 14.7944 14.7875 14.7856 14.7816 14.7832 14.7811 14.7963 14.2051 14.4873 14.549 14.5871 14.6163 14.6405 14.6604 14.6774 14.692 14.7049 14.7162 14.7263 14.7352 14.7432 14.75 14.7561 14.7611 14.7655 14.769 14.7718 14.7738 14.775 14.7751 14.7746 14.4735 14.531 14.6092 14.6408 14.6602 14.6763 14.6902 14.7029 14.7138 14.7238 14.7322 14.74 14.7465 14.7525 14.7573 14.7618 14.7652 14.7684 14.7705 14.7725 14.7735 14.7744 14.7747 14.7752 14.6189 14.6419 14.6737 14.6929 14.7044 14.714 14.7224 14.7307 14.7377 14.7445 14.7499 14.7552 14.759 14.763 14.7657 14.7686 14.7702 14.7721 14.7728 14.7741 14.7741 14.7749 14.774 14.775 14.7484 14.7383 14.7404 14.7442 14.7477 14.7518 14.7556 14.7597 14.763 14.7664 14.7687 14.7712 14.7726 14.7742 14.7748 14.7758 14.7758 14.7763 14.7757 14.7759 14.7752 14.7754 14.7749 14.7744 14.8702 14.8264 14.8021 14.7935 14.7902 14.7894 14.789 14.7893 14.7891 14.7891 14.7883 14.7879 14.7867 14.786 14.7844 14.7835 14.7818 14.7808 14.779 14.7784 14.7772 14.7759 14.7748 14.7738 14.9948 14.9067 14.8571 14.8391 14.831 14.8262 14.8222 14.8189 14.8152 14.8119 14.8081 14.8048 14.8009 14.7977 14.7941 14.7911 14.7878 14.7852 14.7824 14.7801 14.7797 14.7779 14.777 14.771 15.1299 14.9746 14.9017 14.8818 14.8707 14.8627 14.8553 14.8485 14.8413 14.8348 14.8279 14.8217 14.8151 14.8096 14.8036 14.7988 14.7936 14.7898 14.7856 14.7822 14.7811 14.779 14.7801 14.7741 15.354 14.9757 14.9392 14.922 14.9096 14.8987 14.8879 14.8776 14.867 14.8571 14.8471 14.838 14.8289 14.8208 14.8127 14.8057 14.7988 14.7933 14.788 14.784 14.7803 14.7784 14.79 14.7872 14.149 14.4798 14.526 14.5694 14.605 14.6344 14.6579 14.6769 14.6925 14.7059 14.7172 14.7275 14.7362 14.7442 14.7509 14.7571 14.762 14.7664 14.7698 14.7726 14.7744 14.7756 14.7754 14.7747 14.4589 14.5126 14.5846 14.6238 14.6502 14.6708 14.6876 14.7019 14.7137 14.7241 14.7327 14.7406 14.747 14.7531 14.7579 14.7624 14.7657 14.769 14.771 14.773 14.774 14.7748 14.7747 14.7753 14.6102 14.6297 14.6558 14.6797 14.696 14.7091 14.7196 14.7293 14.737 14.7442 14.7498 14.7552 14.7592 14.7632 14.7659 14.7688 14.7705 14.7724 14.7732 14.7743 14.7743 14.7747 14.7746 14.7756 14.7449 14.7339 14.7325 14.7368 14.7422 14.7479 14.753 14.758 14.7619 14.7656 14.7682 14.7708 14.7723 14.774 14.7748 14.7758 14.7759 14.7763 14.7758 14.7759 14.775 14.7751 14.7748 14.7745 14.8716 14.8305 14.804 14.7919 14.7875 14.7868 14.7869 14.7876 14.7877 14.7881 14.7875 14.7873 14.7862 14.7856 14.7841 14.7833 14.7815 14.7805 14.7787 14.778 14.7767 14.7761 14.7743 14.7724 15 14.9184 14.8667 14.842 14.8309 14.825 14.8208 14.8175 14.814 14.8108 14.8072 14.804 14.8003 14.7972 14.7936 14.7908 14.7874 14.7849 14.7818 14.78 14.7779 14.7779 14.7746 14.7716 15.1356 14.9907 14.9152 14.8872 14.8724 14.8628 14.8546 14.8475 14.8403 14.8338 14.8269 14.8208 14.8144 14.8089 14.803 14.7982 14.793 14.7888 14.7849 14.7822 14.78 14.777 14.7772 14.7789 15.3727 14.9898 14.9526 14.9286 14.9128 14.9 14.8881 14.8772 14.8663 14.8563 14.8462 14.8371 14.828 14.8199 14.8119 14.805 14.7981 14.7923 14.7869 14.7823 14.781 14.7734 14.7735 14.7771 14.1224 14.4715 14.5185 14.5615 14.599 14.6307 14.656 14.6762 14.6924 14.7061 14.7177 14.7279 14.7367 14.7446 14.7513 14.7574 14.7624 14.7668 14.7701 14.7729 14.7747 14.7758 14.7756 14.7748 14.451 14.503 14.5764 14.6164 14.6449 14.6676 14.6859 14.7012 14.7135 14.7241 14.7329 14.7408 14.7473 14.7533 14.7581 14.7627 14.766 14.7692 14.7713 14.7732 14.7741 14.775 14.7749 14.7754 14.6057 14.6239 14.6494 14.6739 14.6918 14.7064 14.7181 14.7284 14.7365 14.744 14.7497 14.7552 14.7592 14.7633 14.7659 14.7689 14.7706 14.7726 14.7733 14.7743 14.7744 14.7749 14.7746 14.7753 14.7426 14.7315 14.7295 14.7335 14.7394 14.7459 14.7516 14.7571 14.7613 14.7652 14.768 14.7706 14.7722 14.7739 14.7747 14.7757 14.7758 14.7763 14.7758 14.7759 14.7751 14.775 14.7744 14.7741 14.8711 14.8316 14.8045 14.7913 14.7863 14.7856 14.7858 14.7868 14.7871 14.7875 14.7871 14.7869 14.7859 14.7853 14.7839 14.7831 14.7814 14.7804 14.7786 14.7778 14.7762 14.7756 14.7739 14.7733 15.0009 14.9223 14.8703 14.8437 14.8311 14.8246 14.8201 14.8169 14.8133 14.8103 14.8067 14.8036 14.8 14.7969 14.7933 14.7905 14.7871 14.7846 14.7817 14.7795 14.7775 14.7761 14.7743 14.7727 15.1375 14.9965 14.9205 14.8903 14.8736 14.863 14.8543 14.8471 14.8398 14.8333 14.8264 14.8204 14.814 14.8085 14.8026 14.7979 14.7926 14.7886 14.7842 14.7815 14.7778 14.7773 14.7744 14.7715 15.3821 14.9971 14.959 14.9327 14.915 14.901 14.8884 14.8771 14.8661 14.8559 14.8458 14.8367 14.8276 14.8195 14.8115 14.8045 14.7976 14.7921 14.786 14.7823 14.7776 14.7743 14.7729 14.7704 14.1215 14.471 14.518 14.561 14.5985 14.6303 14.6556 14.6759 14.6921 14.7059 14.7175 14.7277 14.7365 14.7445 14.7512 14.7574 14.7623 14.7667 14.7701 14.7729 14.7747 14.7758 14.7756 14.7748 14.4504 14.5024 14.5759 14.616 14.6446 14.6673 14.6856 14.7009 14.7132 14.7239 14.7327 14.7406 14.7471 14.7532 14.758 14.7626 14.7659 14.7692 14.7712 14.7732 14.7742 14.775 14.775 14.7754 14.6051 14.6234 14.649 14.6735 14.6915 14.7061 14.7178 14.7281 14.7363 14.7438 14.7495 14.755 14.759 14.7631 14.7658 14.7688 14.7705 14.7725 14.7732 14.7744 14.7744 14.7749 14.7747 14.7754 14.742 14.7311 14.7291 14.7332 14.7392 14.7457 14.7514 14.7569 14.7611 14.765 14.7678 14.7704 14.772 14.7738 14.7746 14.7756 14.7758 14.7762 14.7758 14.7758 14.7751 14.775 14.7743 14.7743 14.8706 14.8312 14.8042 14.791 14.7861 14.7854 14.7856 14.7866 14.7869 14.7874 14.7869 14.7868 14.7858 14.7852 14.7838 14.783 14.7814 14.7804 14.7786 14.7777 14.7761 14.7753 14.7738 14.7731 15.0004 14.922 14.87 14.8435 14.8309 14.8244 14.82 14.8167 14.8132 14.8102 14.8066 14.8035 14.7998 14.7968 14.7933 14.7904 14.7871 14.7845 14.7815 14.7795 14.777 14.7759 14.7734 14.7721 15.137 14.9962 14.9203 14.8902 14.8735 14.8629 14.8542 14.847 14.8397 14.8332 14.8263 14.8202 14.8138 14.8084 14.8025 14.7977 14.7926 14.7885 14.7841 14.7811 14.7778 14.7761 14.7733 14.7714 15.3816 14.997 14.9589 14.9326 14.9149 14.9009 14.8883 14.877 14.8659 14.8558 14.8457 14.8365 14.8274 14.8194 14.8113 14.8044 14.7976 14.7919 14.7863 14.7818 14.7777 14.776 14.772 14.7715 14.1465 14.4782 14.5245 14.568 14.6037 14.6333 14.6569 14.676 14.6917 14.7052 14.7167 14.7269 14.7358 14.7438 14.7506 14.7568 14.7618 14.7662 14.7696 14.7725 14.7744 14.7755 14.7754 14.7747 14.457 14.5109 14.5832 14.6226 14.6491 14.6699 14.6868 14.7012 14.713 14.7235 14.7322 14.7401 14.7466 14.7527 14.7575 14.7621 14.7656 14.7688 14.771 14.773 14.7739 14.7748 14.7748 14.7754 14.6083 14.6281 14.6545 14.6786 14.6951 14.7082 14.7189 14.7286 14.7364 14.7436 14.7493 14.7547 14.7587 14.7628 14.7656 14.7686 14.7703 14.7723 14.7731 14.7743 14.7743 14.7749 14.7746 14.7754 14.7432 14.7325 14.7314 14.7359 14.7414 14.7472 14.7523 14.7574 14.7613 14.7651 14.7677 14.7704 14.7719 14.7737 14.7744 14.7755 14.7756 14.7762 14.7758 14.7759 14.7752 14.775 14.7743 14.7744 14.87 14.8294 14.8031 14.7911 14.7869 14.7862 14.7863 14.7871 14.7872 14.7876 14.787 14.7868 14.7858 14.7852 14.7838 14.783 14.7814 14.7805 14.7787 14.7778 14.7762 14.7754 14.7739 14.7732 14.9986 14.9175 14.8661 14.8415 14.8304 14.8246 14.8203 14.8171 14.8135 14.8104 14.8068 14.8036 14.7999 14.7969 14.7933 14.7905 14.7872 14.7847 14.7817 14.7796 14.7772 14.7757 14.7737 14.7721 15.1344 14.9899 14.9147 14.8868 14.872 14.8624 14.8542 14.8471 14.8399 14.8334 14.8265 14.8205 14.814 14.8086 14.8027 14.7979 14.7927 14.7887 14.7843 14.7813 14.7777 14.776 14.7735 14.7723 15.3714 14.9895 14.9524 14.9283 14.9126 14.8997 14.8878 14.8769 14.866 14.856 14.8459 14.8368 14.8277 14.8196 14.8116 14.8047 14.7979 14.7922 14.7866 14.7823 14.7781 14.7753 14.7734 14.7731 14.2012 14.4846 14.5465 14.5847 14.6142 14.6387 14.6588 14.6761 14.6907 14.7038 14.7152 14.7255 14.7344 14.7426 14.7494 14.7557 14.7608 14.7653 14.7688 14.7718 14.7737 14.775 14.7751 14.7746 14.4702 14.528 14.6068 14.6388 14.6584 14.6747 14.6887 14.7016 14.7126 14.7227 14.7313 14.7392 14.7457 14.7519 14.7568 14.7614 14.7649 14.7682 14.7704 14.7725 14.7735 14.7745 14.7746 14.7754 14.6157 14.6393 14.6716 14.6911 14.7028 14.7125 14.7211 14.7296 14.7366 14.7436 14.749 14.7543 14.7583 14.7624 14.7651 14.7681 14.7699 14.7719 14.7727 14.774 14.7741 14.7748 14.7745 14.7755 14.7455 14.7362 14.7387 14.7427 14.7465 14.7506 14.7545 14.7587 14.7621 14.7655 14.7679 14.7704 14.7719 14.7736 14.7743 14.7754 14.7755 14.7761 14.7757 14.7758 14.7752 14.7751 14.7744 14.7745 14.8676 14.8245 14.8007 14.7923 14.7891 14.7884 14.7881 14.7884 14.7881 14.7883 14.7875 14.7872 14.786 14.7854 14.7839 14.7831 14.7814 14.7805 14.7788 14.778 14.7764 14.7756 14.7741 14.7733 14.9925 14.9052 14.8561 14.8383 14.8301 14.8255 14.8215 14.8181 14.8145 14.8112 14.8074 14.8042 14.8003 14.7972 14.7936 14.7908 14.7874 14.785 14.782 14.78 14.7776 14.7761 14.7741 14.7723 15.1279 14.9735 14.9009 14.8811 14.87 14.8621 14.8546 14.8478 14.8407 14.8342 14.8272 14.8211 14.8146 14.8091 14.8031 14.7984 14.7932 14.7892 14.7849 14.7818 14.7785 14.7765 14.7739 14.7722 15.3517 14.9752 14.9388 14.9216 14.9091 14.8982 14.8874 14.877 14.8665 14.8566 14.8466 14.8375 14.8284 14.8203 14.8123 14.8054 14.7985 14.7929 14.7873 14.783 14.7788 14.7762 14.7736 14.7731 14.1049 14.5951 14.5947 14.6108 14.6263 14.6431 14.659 14.6744 14.6883 14.7012 14.7127 14.7232 14.7323 14.7407 14.7477 14.7541 14.7593 14.7639 14.7674 14.7705 14.7726 14.7741 14.7745 14.7745 14.405 14.6235 14.6597 14.6653 14.6715 14.6805 14.6908 14.7017 14.7118 14.7215 14.73 14.7379 14.7445 14.7507 14.7557 14.7603 14.7638 14.7672 14.7694 14.7716 14.7728 14.7739 14.7742 14.7752 14.5811 14.6922 14.7071 14.7117 14.7141 14.7188 14.7244 14.7311 14.7373 14.7437 14.7488 14.754 14.7578 14.7619 14.7646 14.7675 14.7693 14.7713 14.7722 14.7736 14.7737 14.7744 14.7742 14.7752 14.7323 14.7507 14.7544 14.7544 14.7544 14.756 14.7581 14.761 14.7636 14.7665 14.7685 14.7707 14.772 14.7736 14.7742 14.7751 14.7753 14.7758 14.7755 14.7757 14.7751 14.7751 14.7744 14.7744 14.8698 14.8048 14.7993 14.7956 14.7934 14.7924 14.7914 14.791 14.7902 14.7898 14.7887 14.788 14.7866 14.7858 14.7842 14.7833 14.7816 14.7807 14.779 14.7782 14.7767 14.776 14.7744 14.7736 15.0052 14.8552 14.8421 14.8353 14.8312 14.8278 14.824 14.8205 14.8165 14.8128 14.8087 14.8052 14.8012 14.7979 14.7942 14.7912 14.7879 14.7854 14.7825 14.7805 14.7782 14.7767 14.7746 14.7727 15.1509 14.9043 14.882 14.8747 14.8686 14.8627 14.856 14.8495 14.8423 14.8356 14.8285 14.8222 14.8156 14.81 14.804 14.7991 14.794 14.79 14.7857 14.7827 14.7794 14.7772 14.7747 14.7727 15.3769 14.9194 14.9247 14.9143 14.9062 14.8973 14.8876 14.8778 14.8675 14.8577 14.8477 14.8386 14.8294 14.8214 14.8133 14.8064 14.7996 14.7939 14.7884 14.7842 14.78 14.7771 14.7745 14.7732 
SCALARS volume_diff float 1
LOOKUP_TABLE default
14.11 14.5965 14.5963 14.6118 14.6272 14.6433 14.6594 14.6741 14.6882 14.7005 14.7122 14.7222 14.7316 14.7394 14.7467 14.7525 14.758 14.7621 14.766 14.7685 14.771 14.7719 14.7731 14.7725 14.4089 14.6252 14.6608 14.666 14.672 14.6807 14.6908 14.7014 14.7115 14.7209 14.7293 14.737 14.7436 14.7495 14.7545 14.7588 14.7625 14.7655 14.7678 14.7697 14.771 14.7718 14.7719 14.7728 14.5846 14.6933 14.708 14.7121 14.7145 14.7187 14.7245 14.7307 14.7371 14.7429 14.7483 14.753 14.7571 14.7607 14.7636 14.7661 14.7681 14.7697 14.7708 14.7717 14.7719 14.7724 14.7714 14.7725 14.7353 14.7512 14.7547 14.7543 14.7544 14.7556 14.7578 14.7604 14.7632 14.7656 14.7679 14.7697 14.7712 14.7723 14.7732 14.7737 14.774 14.7741 14.774 14.7738 14.7732 14.7732 14.7733 14.7713 14.872 14.8047 14.7992 14.7952 14.7931 14.7917 14.7909 14.7902 14.7896 14.7888 14.788 14.7869 14.7857 14.7845 14.7831 14.7818 14.7803 14.779 14.7775 14.7765 14.7753 14.7737 14.7744 14.7715 15.0068 14.8545 14.8414 14.8345 14.8305 14.8269 14.8232 14.8194 14.8156 14.8117 14.8078 14.8039 14.8002 14.7965 14.793 14.7897 14.7865 14.7839 14.7809 14.7796 14.7774 14.779 14.7786 14.7723 15.1518 14.9032 14.881 14.8736 14.8677 14.8616 14.8551 14.8483 14.8414 14.8344 14.8276 14.8209 14.8146 14.8085 14.8029 14.7975 14.793 14.7881 14.7857 14.7806 14.7809 14.7764 14.7789 14.7736 15.3784 14.9176 14.9233 14.9129 14.9049 14.896 14.8864 14.8764 14.8663 14.8563 14.8466 14.8372 14.8283 14.8199 14.812 14.8049 14.7981 14.7925 14.7856 14.7836 14.7797 14.7813 14.7792 14.7944 14.2032 14.4854 14.547 14.5851 14.6143 14.6385 14.6585 14.6755 14.69 14.7029 14.7142 14.7243 14.7332 14.7412 14.7481 14.7541 14.7592 14.7636 14.7671 14.7699 14.7718 14.773 14.7731 14.7726 14.4715 14.529 14.6072 14.6389 14.6583 14.6743 14.6882 14.7009 14.7118 14.7218 14.7303 14.7381 14.7445 14.7506 14.7554 14.7599 14.7633 14.7664 14.7686 14.7705 14.7715 14.7724 14.7727 14.7732 14.6169 14.64 14.6717 14.691 14.7024 14.712 14.7204 14.7288 14.7358 14.7426 14.748 14.7532 14.7571 14.7611 14.7638 14.7666 14.7682 14.7702 14.7709 14.7721 14.7722 14.773 14.7721 14.773 14.7465 14.7364 14.7384 14.7422 14.7458 14.7498 14.7536 14.7577 14.7611 14.7644 14.7668 14.7692 14.7706 14.7722 14.7728 14.7738 14.7738 14.7743 14.7738 14.7739 14.7732 14.7734 14.7729 14.7724 14.8682 14.8245 14.8001 14.7915 14.7882 14.7875 14.7871 14.7874 14.7871 14.7872 14.7864 14.786 14.7848 14.784 14.7825 14.7816 14.7798 14.7788 14.7771 14.7764 14.7753 14.7739 14.7728 14.7719 14.9928 14.9047 14.8552 14.8372 14.829 14.8243 14.8203 14.817 14.8133 14.8099 14.8062 14.8028 14.799 14.7958 14.7921 14.7892 14.7859 14.7832 14.7804 14.7781 14.7777 14.7759 14.775 14.769 15.128 14.9727 14.8997 14.8798 14.8687 14.8608 14.8533 14.8466 14.8394 14.8329 14.8259 14.8197 14.8132 14.8076 14.8017 14.7968 14.7916 14.7879 14.7836 14.7802 14.7791 14.7771 14.7782 14.7722 15.352 14.9737 14.9373 14.92 14.9076 14.8967 14.8859 14.8756 14.8651 14.8552 14.8452 14.836 14.8269 14.8188 14.8107 14.8038 14.7969 14.7913 14.786 14.7821 14.7784 14.7765 14.7881 14.7852 14.147 14.4778 14.5241 14.5675 14.6031 14.6325 14.6559 14.675 14.6905 14.7039 14.7153 14.7255 14.7343 14.7422 14.749 14.7551 14.76 14.7645 14.7678 14.7706 14.7724 14.7736 14.7735 14.7727 14.457 14.5107 14.5827 14.6219 14.6483 14.6689 14.6857 14.7 14.7118 14.7222 14.7308 14.7387 14.7451 14.7511 14.7559 14.7604 14.7638 14.767 14.7691 14.771 14.7721 14.7728 14.7728 14.7733 14.6083 14.6277 14.6539 14.6778 14.694 14.7071 14.7177 14.7273 14.7351 14.7423 14.7479 14.7533 14.7572 14.7613 14.764 14.7669 14.7685 14.7704 14.7712 14.7723 14.7723 14.7727 14.7727 14.7737 14.7429 14.7319 14.7306 14.7348 14.7402 14.746 14.7511 14.756 14.7599 14.7637 14.7663 14.7689 14.7704 14.7721 14.7728 14.7738 14.7739 14.7743 14.7739 14.7739 14.7731 14.7731 14.7728 14.7725 14.8696 14.8286 14.802 14.7899 14.7855 14.7849 14.7849 14.7857 14.7858 14.7861 14.7856 14.7853 14.7842 14.7836 14.7821 14.7813 14.7796 14.7786 14.7768 14.776 14.7747 14.7741 14.7723 14.7705 14.9981 14.9165 14.8648 14.8401 14.8289 14.8231 14.8188 14.8156 14.812 14.8089 14.8053 14.8021 14.7984 14.7953 14.7917 14.7888 14.7854 14.783 14.7799 14.7781 14.776 14.7759 14.7727 14.7697 15.1337 14.9887 14.9132 14.8853 14.8705 14.8609 14.8526 14.8456 14.8383 14.8319 14.825 14.8189 14.8124 14.8069 14.801 14.7963 14.791 14.7869 14.7829 14.7802 14.7781 14.775 14.7753 14.7769 15.3708 14.9878 14.9507 14.9266 14.9109 14.898 14.8861 14.8752 14.8644 14.8544 14.8443 14.8352 14.826 14.818 14.8099 14.803 14.7961 14.7903 14.785 14.7804 14.779 14.7714 14.7715 14.7751 14.1205 14.4695 14.5166 14.5596 14.597 14.6288 14.654 14.6742 14.6904 14.7042 14.7157 14.7259 14.7347 14.7427 14.7494 14.7555 14.7604 14.7648 14.7682 14.771 14.7728 14.7738 14.7737 14.7728 14.4491 14.501 14.5744 14.6145 14.643 14.6657 14.684 14.6992 14.7115 14.7222 14.7309 14.7389 14.7453 14.7514 14.7562 14.7607 14.7641 14.7672 14.7693 14.7713 14.7722 14.773 14.7729 14.7735 14.6038 14.622 14.6474 14.6719 14.6899 14.7045 14.7161 14.7264 14.7346 14.7421 14.7478 14.7532 14.7572 14.7613 14.764 14.767 14.7686 14.7706 14.7713 14.7724 14.7724 14.773 14.7727 14.7734 14.7406 14.7296 14.7276 14.7315 14.7375 14.744 14.7497 14.7551 14.7593 14.7633 14.766 14.7686 14.7702 14.772 14.7727 14.7738 14.7739 14.7743 14.7739 14.7739 14.7732 14.773 14.7725 14.7722 14.8692 14.8296 14.8025 14.7893 14.7843 14.7837 14.7839 14.7848 14.7851 14.7856 14.7851 14.785 14.7839 14.7834 14.782 14.7811 14.7794 14.7785 14.7766 14.7758 14.7742 14.7736 14.7719 14.7713 14.9989 14.9203 14.8683 14.8418 14.8291 14.8226 14.8182 14.8149 14.8114 14.8084 14.8048 14.8016 14.798 14.795 14.7914 14.7885 14.7852 14.7827 14.7797 14.7776 14.7755 14.7741 14.7723 14.7708 15.1355 14.9945 14.9185 14.8884 14.8717 14.8611 14.8524 14.8452 14.8378 14.8314 14.8245 14.8185 14.812 14.8066 14.8007 14.7959 14.7906 14.7867 14.7822 14.7796 14.7759 14.7754 14.7725 14.7696 15.3801 14.9952 14.957 14.9307 14.913 14.899 14.8865 14.8752 14.8641 14.854 14.8439 14.8347 14.8256 14.8176 14.8095 14.8026 14.7956 14.7901 14.7841 14.7804 14.7757 14.7724 14.7709 14.7684 14.1196 14.469 14.5161 14.5591 14.5966 14.6284 14.6537 14.6739 14.6902 14.7039 14.7155 14.7258 14.7345 14.7425 14.7493 14.7554 14.7604 14.7648 14.7682 14.771 14.7727 14.7738 14.7737 14.7728 14.4484 14.5004 14.5739 14.614 14.6426 14.6654 14.6837 14.6989 14.7113 14.722 14.7307 14.7387 14.7452 14.7512 14.756 14.7606 14.764 14.7672 14.7693 14.7712 14.7722 14.7731 14.773 14.7735 14.6032 14.6214 14.647 14.6716 14.6896 14.7041 14.7158 14.7262 14.7344 14.7418 14.7476 14.753 14.7571 14.7611 14.7639 14.7669 14.7685 14.7705 14.7713 14.7724 14.7724 14.773 14.7727 14.7735 14.74 14.7291 14.7272 14.7312 14.7372 14.7437 14.7494 14.7549 14.7591 14.7631 14.7658 14.7685 14.7701 14.7718 14.7726 14.7737 14.7738 14.7743 14.7739 14.7739 14.7732 14.773 14.7723 14.7723 14.8687 14.8292 14.8022 14.789 14.7841 14.7834 14.7836 14.7846 14.7849 14.7854 14.785 14.7848 14.7838 14.7833 14.7818 14.781 14.7794 14.7784 14.7767 14.7757 14.7741 14.7733 14.7719 14.7711 14.9985 14.92 14.8681 14.8415 14.8289 14.8225 14.818 14.8147 14.8113 14.8082 14.8046 14.8015 14.7979 14.7948 14.7913 14.7885 14.7851 14.7826 14.7796 14.7776 14.7751 14.7739 14.7715 14.7702 15.1351 14.9943 14.9183 14.8883 14.8715 14.8609 14.8522 14.845 14.8377 14.8312 14.8244 14.8183 14.8119 14.8064 14.8006 14.7958 14.7906 14.7866 14.7822 14.7792 14.7758 14.7741 14.7713 14.7695 15.3796 14.995 14.9569 14.9306 14.9129 14.8989 14.8863 14.8751 14.864 14.8539 14.8437 14.8346 14.8255 14.8174 14.8094 14.8025 14.7956 14.7899 14.7843 14.7799 14.7757 14.7741 14.7701 14.7695 14.1445 14.4762 14.5226 14.5661 14.6018 14.6314 14.6549 14.6741 14.6898 14.7032 14.7147 14.7249 14.7338 14.7419 14.7486 14.7548 14.7598 14.7643 14.7677 14.7706 14.7724 14.7735 14.7735 14.7727 14.4551 14.5089 14.5812 14.6206 14.6471 14.6679 14.6848 14.6992 14.7111 14.7215 14.7302 14.7381 14.7447 14.7507 14.7556 14.7602 14.7636 14.7669 14.769 14.771 14.772 14.7729 14.7729 14.7735 14.6064 14.6262 14.6526 14.6767 14.6931 14.7063 14.7169 14.7266 14.7344 14.7417 14.7473 14.7528 14.7567 14.7609 14.7636 14.7666 14.7683 14.7704 14.7711 14.7723 14.7724 14.773 14.7726 14.7735 14.7412 14.7306 14.7295 14.7339 14.7395 14.7453 14.7504 14.7554 14.7594 14.7631 14.7658 14.7684 14.7699 14.7717 14.7724 14.7735 14.7737 14.7742 14.7738 14.7739 14.7732 14.7731 14.7723 14.7724 14.8681 14.8274 14.8011 14.7892 14.7849 14.7843 14.7843 14.7852 14.7852 14.7856 14.7851 14.7849 14.7838 14.7833 14.7818 14.781 14.7794 14.7785 14.7768 14.7758 14.7742 14.7734 14.772 14.7713 14.9966 14.9155 14.8641 14.8395 14.8284 14.8226 14.8184 14.8151 14.8116 14.8085 14.8048 14.8017 14.798 14.7949 14.7914 14.7886 14.7853 14.7827 14.7797 14.7777 14.7752 14.7738 14.7717 14.7701 15.1324 14.988 14.9127 14.8848 14.8701 14.8605 14.8522 14.8452 14.8379 14.8315 14.8246 14.8185 14.8121 14.8066 14.8008 14.796 14.7908 14.7868 14.7824 14.7793 14.7758 14.774 14.7716 14.7703 15.3694 14.9875 14.9504 14.9264 14.9106 14.8977 14.8859 14.8749 14.8641 14.854 14.844 14.8348 14.8257 14.8177 14.8097 14.8028 14.7959 14.7902 14.7846 14.7803 14.7762 14.7733 14.7714 14.7712 14.1992 14.4827 14.5445 14.5828 14.6122 14.6367 14.6569 14.6741 14.6888 14.7019 14.7132 14.7235 14.7325 14.7406 14.7475 14.7537 14.7588 14.7634 14.7668 14.7698 14.7717 14.7731 14.7731 14.7726 14.4683 14.5261 14.6049 14.6369 14.6565 14.6727 14.6868 14.6996 14.7107 14.7208 14.7293 14.7372 14.7438 14.7499 14.7548 14.7594 14.7629 14.7662 14.7684 14.7705 14.7716 14.7726 14.7727 14.7735 14.6138 14.6374 14.6696 14.6892 14.7008 14.7106 14.7191 14.7276 14.7347 14.7416 14.747 14.7524 14.7563 14.7604 14.7631 14.7662 14.7679 14.77 14.7708 14.7721 14.7721 14.7728 14.7726 14.7735 14.7436 14.7342 14.7367 14.7408 14.7445 14.7486 14.7525 14.7567 14.7601 14.7636 14.766 14.7685 14.7699 14.7716 14.7723 14.7734 14.7735 14.7741 14.7738 14.7739 14.7732 14.7731 14.7724 14.7725 14.8656 14.8226 14.7987 14.7903 14.7871 14.7864 14.7861 14.7865 14.7862 14.7863 14.7856 14.7853 14.784 14.7834 14.7819 14.7811 14.7795 14.7786 14.7769 14.776 14.7745 14.7737 14.7722 14.7713 14.9905 14.9033 14.8542 14.8363 14.8282 14.8235 14.8195 14.8162 14.8125 14.8093 14.8055 14.8022 14.7984 14.7953 14.7917 14.7888 14.7855 14.783 14.7801 14.778 14.7756 14.7741 14.7721 14.7703 15.1259 14.9716 14.899 14.8791 14.868 14.8601 14.8526 14.8459 14.8387 14.8322 14.8253 14.8191 14.8126 14.8071 14.8012 14.7964 14.7913 14.7873 14.783 14.7798 14.7766 14.7745 14.7719 14.7702 15.3497 14.9732 14.9369 14.9196 14.9072 14.8963 14.8854 14.8751 14.8645 14.8547 14.8447 14.8355 14.8264 14.8184 14.8103 14.8034 14.7966 14.7909 14.7853 14.781 14.7769 14.7742 14.7717 14.7711 14.103 14.5931 14.5928 14.6088 14.6243 14.6411 14.6571 14.6724 14.6863 14.6993 14.7107 14.7213 14.7304 14.7387 14.7457 14.7521 14.7573 14.7619 14.7655 14.7685 14.7706 14.7721 14.7725 14.7725 14.403 14.6216 14.6578 14.6633 14.6695 14.6785 14.6889 14.6997 14.7098 14.7196 14.728 14.7359 14.7426 14.7487 14.7537 14.7584 14.7619 14.7652 14.7675 14.7697 14.7709 14.772 14.7723 14.7732 14.5791 14.6902 14.7051 14.7097 14.7122 14.7168 14.7224 14.7292 14.7353 14.7417 14.7468 14.752 14.7559 14.7599 14.7626 14.7656 14.7673 14.7694 14.7703 14.7716 14.7718 14.7725 14.7723 14.7732 14.7304 14.7488 14.7524 14.7524 14.7525 14.754 14.7561 14.7591 14.7617 14.7646 14.7666 14.7688 14.7701 14.7716 14.7723 14.7732 14.7733 14.7739 14.7736 14.7737 14.7732 14.7731 14.7724 14.7725 14.8678 14.8028 14.7973 14.7937 14.7914 14.7904 14.7894 14.7891 14.7882 14.7878 14.7867 14.7861 14.7847 14.7838 14.7822 14.7813 14.7796 14.7788 14.7771 14.7763 14.7747 14.774 14.7725 14.7716 15.0032 14.8532 14.8401 14.8334 14.8293 14.8258 14.822 14.8185 14.8145 14.8109 14.8068 14.8032 14.7992 14.796 14.7922 14.7893 14.7859 14.7834 14.7806 14.7786 14.7762 14.7747 14.7726 14.7708 15.149 14.9023 14.88 14.8728 14.8667 14.8608 14.8541 14.8475 14.8403 14.8337 14.8266 14.8203 14.8136 14.808 14.802 14.7971 14.792 14.788 14.7838 14.7807 14.7774 14.7753 14.7728 14.7708 15.3749 14.9174 14.9228 14.9124 14.9042 14.8954 14.8857 14.8759 14.8656 14.8558 14.8458 14.8366 14.8275 14.8194 14.8113 14.8045 14.7976 14.792 14.7865 14.7822 14.778 14.7751 14.7725 14.7712 
