# vtk DataFile Version 5.1
vtk output
ASCII

DATASET UNSTRUCTURED_GRID
POINTS 14161 float
0 0 2.2
0.125 0 2.2
0.25 0 2.2
0.375 0 2.2
0.5 0 2.2
0.625 0 2.2
0.75 0 2.2
0.875 0 2.2
1 0 2.2
1.125 0 2.2
1.25 0 2.2
1.375 0 2.2
1.5 0 2.2
1.625 0 2.2
1.75 0 2.2
1.875 0 2.2
2 0 2.2
2.125 0 2.2
2.25 0 2.2
2.375 0 2.2
2.5 0 2.2
2.625 0 2.2
2.75 0 2.2
2.875 0 2.2
3 0 2.2
0 0.125 2.2
0.125 0.125 2.2
0.25 0.125 2.2
0.375 0.125 2.2
0.5 0.125 2.2
0.625 0.125 2.2
0.75 0.125 2.2
0.875 0.125 2.2
1 0.125 2.2
1.125 0.125 2.2
1.25 0.125 2.2
1.375 0.125 2.2
1.5 0.125 2.2
1.625 0.125 2.2
1.75 0.125 2.2
1.875 0.125 2.2
2 0.125 2.2
2.125 0.125 2.2
2.25 0.125 2.2
2.375 0.125 2.2
2.5 0.125 2.2
2.625 0.125 2.2
2.75 0.125 2.2
2.875 0.125 2.2
3 0.125 2.2
0 0.25 2.2
0.125 0.25 2.2
0.25 0.25 2.2
0.375 0.25 2.2
0.5 0.25 2.2
0.625 0.25 2.2
0.75 0.25 2.2
0.875 0.25 2.2
1 0.25 2.2
1.125 0.25 2.2
1.25 0.25 2.2
1.375 0.25 2.2
1.5 0.25 2.2
1.625 0.25 2.2
1.75 0.25 2.2
1.875 0.25 2.2
2 0.25 2.2
2.125 0.25 2.2
2.25 0.25 2.2
2.375 0.25 2.2
2.5 0.25 2.2
2.625 0.25 2.2
2.75 0.25 2.2
2.875 0.25 2.2
3 0.25 2.2
0 0.375 2.2
0.125 0.375 2.2
0.25 0.375 2.2
0.375 0.375 2.2
0.5 0.375 2.2
0.625 0.375 2.2
0.75 0.375 2.2
0.875 0.375 2.2
1 0.375 2.2
1.125 0.375 2.2
1.25 0.375 2.2
1.375 0.375 2.2
1.5 0.375 2.2
1.625 0.375 2.2
1.75 0.375 2.2
1.875 0.375 2.2
2 0.375 2.2
2.125 0.375 2.2
2.25 0.375 2.2
2.375 0.375 2.2
2.5 0.375 2.2
2.625 0.375 2.2
2.75 0.375 2.2
2.875 0.375 2.2
3 0.375 2.2
0 0.5 2.2
0.125 0.5 2.2
0.25 0.5 2.2
0.375 0.5 2.2
0.5 0.5 2.2
0.625 0.5 2.2
0.75 0.5 2.2
0.875 0.5 2.2
1 0.5 2.2
1.125 0.5 2.2
1.25 0.5 2.2
1.375 0.5 2.2
1.5 0.5 2.2
1.625 0.5 2.2
1.75 0.5 2.2
1.875 0.5 2.2
2 0.5 2.2
2.125 0.5 2.2
2.25 0.5 2.2
2.375 0.5 2.2
2.5 0.5 2.2
2.625 0.5 2.2
2.75 0.5 2.2
2.875 0.5 2.2
3 0.5 2.2
0 0.625 2.2
0.125 0.625 2.2
0.25 0.625 2.2
0.375 0.625 2.2
0.5 0.625 2.2
0.625 0.625 2.2
0.75 0.625 2.2
0.875 0.625 2.2
1 0.625 2.2
1.125 0.625 2.2
1.25 0.625 2.2
1.375 0.625 2.2
1.5 0.625 2.2
1.625 0.625 2.2
1.75 0.625 2.2
1.875 0.625 2.2
2 0.625 2.2
2.125 0.625 2.2
2.25 0.625 2.2
2.375 0.625 2.2
2.5 0.625 2.2
2.625 0.625 2.2
2.75 0.625 2.2
2.875 0.625 2.2
3 0.625 2.2
0 0.75 2.2
0.125 0.75 2.2
0.25 0.75 2.2
0.375 0.75 2.2
0.5 0.75 2.2
0.625 0.75 2.2
0.75 0.75 2.2
0.875 0.75 2.2
1 0.75 2.2
1.125 0.75 2.2
1.25 0.75 2.2
1.375 0.75 2.2
1.5 0.75 2.2
1.625 0.75 2.2
1.75 0.75 2.2
1.875 0.75 2.2
2 0.75 2.2
2.125 0.75 2.2
2.25 0.75 2.2
2.375 0.75 2.2
2.5 0.75 2.2
2.625 0.75 2.2
2.75 0.75 2.2
2.875 0.75 2.2
3 0.75 2.2
0 0.875 2.2
0.125 0.875 2.2
0.25 0.875 2.2
0.375 0.875 2.2
0.5 0.875 2.2
0.625 0.875 2.2
0.75 0.875 2.2
0.875 0.875 2.2
1 0.875 2.2
1.125 0.875 2.2
1.25 0.875 2.2
1.375 0.875 2.2
1.5 0.875 2.2
1.625 0.875 2.2
1.75 0.875 2.2
1.875 0.875 2.2
2 0.875 2.2
2.125 0.875 2.2
2.25 0.875 2.2
2.375 0.875 2.2
2.5 0.875 2.2
2.625 0.875 2.2
2.75 0.875 2.2
2.875 0.875 2.2
3 0.875 2.2
0 1 2.2
0.125 1 2.2
0.25 1 2.2
0.375 1 2.2
0.5 1 2.2
0.625 1 2.2
0.75 1 2.2
0.875 1 2.2
1 1 2.2
1.125 1 2.2
1.25 1 2.2
1.375 1 2.2
1.5 1 2.2
1.625 1 2.2
1.75 1 2.2
1.875 1 2.2
2 1 2.2
2.125 1 2.2
2.25 1 2.2
2.375 1 2.2
2.5 1 2.2
2.625 1 2.2
2.75 1 2.2
2.875 1 2.2
3 1 2.2
0 0 2.325
0.125 0 2.325
0.25 0 2.325
0.375 0 2.325
0.5 0 2.325
0.625 0 2.325
0.75 0 2.325
0.875 0 2.325
1 0 2.325
1.125 0 2.325
1.25 0 2.325
1.375 0 2.325
1.5 0 2.325
1.625 0 2.325
1.75 0 2.325
1.875 0 2.325
2 0 2.325
2.125 0 2.325
2.25 0 2.325
2.375 0 2.325
2.5 0 2.325
2.625 0 2.325
2.75 0 2.325
2.875 0 2.325
3 0 2.325
0 0.125 2.325
0.125 0.125 2.325
0.25 0.125 2.325
0.375 0.125 2.325
0.5 0.125 2.325
0.625 0.125 2.325
0.75 0.125 2.325
0.875 0.125 2.325
1 0.125 2.325
1.125 0.125 2.325
1.25 0.125 2.325
1.375 0.125 2.325
1.5 0.125 2.325
1.625 0.125 2.325
1.75 0.125 2.325
1.875 0.125 2.325
2 0.125 2.325
2.125 0.125 2.325
2.25 0.125 2.325
2.375 0.125 2.325
2.5 0.125 2.325
2.625 0.125 2.325
2.75 0.125 2.325
2.875 0.125 2.325
3 0.125 2.325
0 0.25 2.325
0.125 0.25 2.325
0.25 0.25 2.325
0.375 0.25 2.325
0.5 0.25 2.325
0.625 0.25 2.325
0.75 0.25 2.325
0.875 0.25 2.325
1 0.25 2.325
1.125 0.25 2.325
1.25 0.25 2.325
1.375 0.25 2.325
1.5 0.25 2.325
1.625 0.25 2.325
1.75 0.25 2.325
1.875 0.25 2.325
2 0.25 2.325
2.125 0.25 2.325
2.25 0.25 2.325
2.375 0.25 2.325
2.5 0.25 2.325
2.625 0.25 2.325
2.75 0.25 2.325
2.875 0.25 2.325
3 0.25 2.325
0 0.375 2.325
0.125 0.375 2.325
0.25 0.375 2.325
0.375 0.375 2.325
0.5 0.375 2.325
0.625 0.375 2.325
0.75 0.375 2.325
0.875 0.375 2.325
1 0.375 2.325
1.125 0.375 2.325
1.25 0.375 2.325
1.375 0.375 2.325
1.5 0.375 2.325
1.625 0.375 2.325
1.75 0.375 2.325
1.875 0.375 2.325
2 0.375 2.325
2.125 0.375 2.325
2.25 0.375 2.325
2.375 0.375 2.325
2.5 0.375 2.325
2.625 0.375 2.325
2.75 0.375 2.325
2.875 0.375 2.325
3 0.375 2.325
0 0.5 2.325
0.125 0.5 2.325
0.25 0.5 2.325
0.375 0.5 2.325
0.5 0.5 2.325
0.625 0.5 2.325
0.75 0.5 2.325
0.875 0.5 2.325
1 0.5 2.325
1.125 0.5 2.325
1.25 0.5 2.325
1.375 0.5 2.325
1.5 0.5 2.325
1.625 0.5 2.325
1.75 0.5 2.325
1.875 0.5 2.325
2 0.5 2.325
2.125 0.5 2.325
2.25 0.5 2.325
2.375 0.5 2.325
2.5 0.5 2.325
2.625 0.5 2.325
2.75 0.5 2.325
2.875 0.5 2.325
3 0.5 2.325
0 0.625 2.325
0.125 0.625 2.325
0.25 0.625 2.325
0.375 0.625 2.325
0.5 0.625 2.325
0.625 0.625 2.325
0.75 0.625 2.325
0.875 0.625 2.325
1 0.625 2.325
1.125 0.625 2.325
1.25 0.625 2.325
1.375 0.625 2.325
1.5 0.625 2.325
1.625 0.625 2.325
1.75 0.625 2.325
1.875 0.625 2.325
2 0.625 2.325
2.125 0.625 2.325
2.25 0.625 2.325
2.375 0.625 2.325
2.5 0.625 2.325
2.625 0.625 2.325
2.75 0.625 2.325
2.875 0.625 2.325
3 0.625 2.325
0 0.75 2.325
0.125 0.75 2.325
0.25 0.75 2.325
0.375 0.75 2.325
0.5 0.75 2.325
0.625 0.75 2.325
0.75 0.75 2.325
0.875 0.75 2.325
1 0.75 2.325
1.125 0.75 2.325
1.25 0.75 2.325
1.375 0.75 2.325
1.5 0.75 2.325
1.625 0.75 2.325
1.75 0.75 2.325
1.875 0.75 2.325
2 0.75 2.325
2.125 0.75 2.325
2.25 0.75 2.325
2.375 0.75 2.325
2.5 0.75 2.325
2.625 0.75 2.325
2.75 0.75 2.325
2.875 0.75 2.325
3 0.75 2.325
0 0.875 2.325
0.125 0.875 2.325
0.25 0.875 2.325
0.375 0.875 2.325
0.5 0.875 2.325
0.625 0.875 2.325
0.75 0.875 2.325
0.875 0.875 2.325
1 0.875 2.325
1.125 0.875 2.325
1.25 0.875 2.325
1.375 0.875 2.325
1.5 0.875 2.325
1.625 0.875 2.325
1.75 0.875 2.325
1.875 0.875 2.325
2 0.875 2.325
2.125 0.875 2.325
2.25 0.875 2.325
2.375 0.875 2.325
2.5 0.875 2.325
2.625 0.875 2.325
2.75 0.875 2.325
2.875 0.875 2.325
3 0.875 2.325
0 1 2.325
0.125 1 2.325
0.25 1 2.325
0.375 1 2.325
0.5 1 2.325
0.625 1 2.325
0.75 1 2.325
0.875 1 2.325
1 1 2.325
1.125 1 2.325
1.25 1 2.325
1.375 1 2.325
1.5 1 2.325
1.625 1 2.325
1.75 1 2.325
1.875 1 2.325
2 1 2.325
2.125 1 2.325
2.25 1 2.325
2.375 1 2.325
2.5 1 2.325
2.625 1 2.325
2.75 1 2.325
2.875 1 2.325
3 1 2.325
0 0 2.45
0.125 0 2.45
0.25 0 2.45
0.375 0 2.45
0.5 0 2.45
0.625 0 2.45
0.75 0 2.45
0.875 0 2.45
1 0 2.45
1.125 0 2.45
1.25 0 2.45
1.375 0 2.45
1.5 0 2.45
1.625 0 2.45
1.75 0 2.45
1.875 0 2.45
2 0 2.45
2.125 0 2.45
2.25 0 2.45
2.375 0 2.45
2.5 0 2.45
2.625 0 2.45
2.75 0 2.45
2.875 0 2.45
3 0 2.45
0 0.125 2.45
0.125 0.125 2.45
0.25 0.125 2.45
0.375 0.125 2.45
0.5 0.125 2.45
0.625 0.125 2.45
0.75 0.125 2.45
0.875 0.125 2.45
1 0.125 2.45
1.125 0.125 2.45
1.25 0.125 2.45
1.375 0.125 2.45
1.5 0.125 2.45
1.625 0.125 2.45
1.75 0.125 2.45
1.875 0.125 2.45
2 0.125 2.45
2.125 0.125 2.45
2.25 0.125 2.45
2.375 0.125 2.45
2.5 0.125 2.45
2.625 0.125 2.45
2.75 0.125 2.45
2.875 0.125 2.45
3 0.125 2.45
0 0.25 2.45
0.125 0.25 2.45
0.25 0.25 2.45
0.375 0.25 2.45
0.5 0.25 2.45
0.625 0.25 2.45
0.75 0.25 2.45
0.875 0.25 2.45
1 0.25 2.45
1.125 0.25 2.45
1.25 0.25 2.45
1.375 0.25 2.45
1.5 0.25 2.45
1.625 0.25 2.45
1.75 0.25 2.45
1.875 0.25 2.45
2 0.25 2.45
2.125 0.25 2.45
2.25 0.25 2.45
2.375 0.25 2.45
2.5 0.25 2.45
2.625 0.25 2.45
2.75 0.25 2.45
2.875 0.25 2.45
3 0.25 2.45
0 0.375 2.45
0.125 0.375 2.45
0.25 0.375 2.45
0.375 0.375 2.45
0.5 0.375 2.45
0.625 0.375 2.45
0.75 0.375 2.45
0.875 0.375 2.45
1 0.375 2.45
1.125 0.375 2.45
1.25 0.375 2.45
1.375 0.375 2.45
1.5 0.375 2.45
1.625 0.375 2.45
1.75 0.375 2.45
1.875 0.375 2.45
2 0.375 2.45
2.125 0.375 2.45
2.25 0.375 2.45
2.375 0.375 2.45
2.5 0.375 2.45
2.625 0.375 2.45
2.75 0.375 2.45
2.875 0.375 2.45
3 0.375 2.45
0 0.5 2.45
0.125 0.5 2.45
0.25 0.5 2.45
0.375 0.5 2.45
0.5 0.5 2.45
0.625 0.5 2.45
0.75 0.5 2.45
0.875 0.5 2.45
1 0.5 2.45
1.125 0.5 2.45
1.25 0.5 2.45
1.375 0.5 2.45
1.5 0.5 2.45
1.625 0.5 2.45
1.75 0.5 2.45
1.875 0.5 2.45
2 0.5 2.45
2.125 0.5 2.45
2.25 0.5 2.45
2.375 0.5 2.45
2.5 0.5 2.45
2.625 0.5 2.45
2.75 0.5 2.45
2.875 0.5 2.45
3 0.5 2.45
0 0.625 2.45
0.125 0.625 2.45
0.25 0.625 2.45
0.375 0.625 2.45
0.5 0.625 2.45
0.625 0.625 2.45
0.75 0.625 2.45
0.875 0.625 2.45
1 0.625 2.45
1.125 0.625 2.45
1.25 0.625 2.45
1.375 0.625 2.45
1.5 0.625 2.45
1.625 0.625 2.45
1.75 0.625 2.45
1.875 0.625 2.45
2 0.625 2.45
2.125 0.625 2.45
2.25 0.625 2.45
2.375 0.625 2.45
2.5 0.625 2.45
2.625 0.625 2.45
2.75 0.625 2.45
2.875 0.625 2.45
3 0.625 2.45
0 0.75 2.45
0.125 0.75 2.45
0.25 0.75 2.45
0.375 0.75 2.45
0.5 0.75 2.45
0.625 0.75 2.45
0.75 0.75 2.45
0.875 0.75 2.45
1 0.75 2.45
1.125 0.75 2.45
1.25 0.75 2.45
1.375 0.75 2.45
1.5 0.75 2.45
1.625 0.75 2.45
1.75 0.75 2.45
1.875 0.75 2.45
2 0.75 2.45
2.125 0.75 2.45
2.25 0.75 2.45
2.375 0.75 2.45
2.5 0.75 2.45
2.625 0.75 2.45
2.75 0.75 2.45
2.875 0.75 2.45
3 0.75 2.45
0 0.875 2.45
0.125 0.875 2.45
0.25 0.875 2.45
0.375 0.875 2.45
0.5 0.875 2.45
0.625 0.875 2.45
0.75 0.875 2.45
0.875 0.875 2.45
1 0.875 2.45
1.125 0.875 2.45
1.25 0.875 2.45
1.375 0.875 2.45
1.5 0.875 2.45
1.625 0.875 2.45
1.75 0.875 2.45
1.875 0.875 2.45
2 0.875 2.45
2.125 0.875 2.45
2.25 0.875 2.45
2.375 0.875 2.45
2.5 0.875 2.45
2.625 0.875 2.45
2.75 0.875 2.45
2.875 0.875 2.45
3 0.875 2.45
0 1 2.45
0.125 1 2.45
0.25 1 2.45
0.375 1 2.45
0.5 1 2.45
0.625 1 2.45
0.75 1 2.45
0.875 1 2.45
1 1 2.45
1.125 1 2.45
1.25 1 2.45
1.375 1 2.45
1.5 1 2.45
1.625 1 2.45
1.75 1 2.45
1.875 1 2.45
2 1 2.45
2.125 1 2.45
2.25 1 2.45
2.375 1 2.45
2.5 1 2.45
2.625 1 2.45
2.75 1 2.45
2.875 1 2.45
3 1 2.45
0 0 2.575
0.125 0 2.575
0.25 0 2.575
0.375 0 2.575
0.5 0 2.575
0.625 0 2.575
0.75 0 2.575
0.875 0 2.575
1 0 2.575
1.125 0 2.575
1.25 0 2.575
1.375 0 2.575
1.5 0 2.575
1.625 0 2.575
1.75 0 2.575
1.875 0 2.575
2 0 2.575
2.125 0 2.575
2.25 0 2.575
2.375 0 2.575
2.5 0 2.575
2.625 0 2.575
2.75 0 2.575
2.875 0 2.575
3 0 2.575
0 0.125 2.575
0.125 0.125 2.575
0.25 0.125 2.575
0.375 0.125 2.575
0.5 0.125 2.575
0.625 0.125 2.575
0.75 0.125 2.575
0.875 0.125 2.575
1 0.125 2.575
1.125 0.125 2.575
1.25 0.125 2.575
1.375 0.125 2.575
1.5 0.125 2.575
1.625 0.125 2.575
1.75 0.125 2.575
1.875 0.125 2.575
2 0.125 2.575
2.125 0.125 2.575
2.25 0.125 2.575
2.375 0.125 2.575
2.5 0.125 2.575
2.625 0.125 2.575
2.75 0.125 2.575
2.875 0.125 2.575
3 0.125 2.575
0 0.25 2.575
0.125 0.25 2.575
0.25 0.25 2.575
0.375 0.25 2.575
0.5 0.25 2.575
0.625 0.25 2.575
0.75 0.25 2.575
0.875 0.25 2.575
1 0.25 2.575
1.125 0.25 2.575
1.25 0.25 2.575
1.375 0.25 2.575
1.5 0.25 2.575
1.625 0.25 2.575
1.75 0.25 2.575
1.875 0.25 2.575
2 0.25 2.575
2.125 0.25 2.575
2.25 0.25 2.575
2.375 0.25 2.575
2.5 0.25 2.575
2.625 0.25 2.575
2.75 0.25 2.575
2.875 0.25 2.575
3 0.25 2.575
0 0.375 2.575
0.125 0.375 2.575
0.25 0.375 2.575
0.375 0.375 2.575
0.5 0.375 2.575
0.625 0.375 2.575
0.75 0.375 2.575
0.875 0.375 2.575
1 0.375 2.575
1.125 0.375 2.575
1.25 0.375 2.575
1.375 0.375 2.575
1.5 0.375 2.575
1.625 0.375 2.575
1.75 0.375 2.575
1.875 0.375 2.575
2 0.375 2.575
2.125 0.375 2.575
2.25 0.375 2.575
2.375 0.375 2.575
2.5 0.375 2.575
2.625 0.375 2.575
2.75 0.375 2.575
2.875 0.375 2.575
3 0.375 2.575
0 0.5 2.575
0.125 0.5 2.575
0.25 0.5 2.575
0.375 0.5 2.575
0.5 0.5 2.575
0.625 0.5 2.575
0.75 0.5 2.575
0.875 0.5 2.575
1 0.5 2.575
1.125 0.5 2.575
1.25 0.5 2.575
1.375 0.5 2.575
1.5 0.5 2.575
1.625 0.5 2.575
1.75 0.5 2.575
1.875 0.5 2.575
2 0.5 2.575
2.125 0.5 2.575
2.25 0.5 2.575
2.375 0.5 2.575
2.5 0.5 2.575
2.625 0.5 2.575
2.75 0.5 2.575
2.875 0.5 2.575
3 0.5 2.575
0 0.625 2.575
0.125 0.625 2.575
0.25 0.625 2.575
0.375 0.625 2.575
0.5 0.625 2.575
0.625 0.625 2.575
0.75 0.625 2.575
0.875 0.625 2.575
1 0.625 2.575
1.125 0.625 2.575
1.25 0.625 2.575
1.375 0.625 2.575
1.5 0.625 2.575
1.625 0.625 2.575
1.75 0.625 2.575
1.875 0.625 2.575
2 0.625 2.575
2.125 0.625 2.575
2.25 0.625 2.575
2.375 0.625 2.575
2.5 0.625 2.575
2.625 0.625 2.575
2.75 0.625 2.575
2.875 0.625 2.575
3 0.625 2.575
0 0.75 2.575
0.125 0.75 2.575
0.25 0.75 2.575
0.375 0.75 2.575
0.5 0.75 2.575
0.625 0.75 2.575
0.75 0.75 2.575
0.875 0.75 2.575
1 0.75 2.575
1.125 0.75 2.575
1.25 0.75 2.575
1.375 0.75 2.575
1.5 0.75 2.575
1.625 0.75 2.575
1.75 0.75 2.575
1.875 0.75 2.575
2 0.75 2.575
2.125 0.75 2.575
2.25 0.75 2.575
2.375 0.75 2.575
2.5 0.75 2.575
2.625 0.75 2.575
2.75 0.75 2.575
2.875 0.75 2.575
3 0.75 2.575
0 0.875 2.575
0.125 0.875 2.575
0.25 0.875 2.575
0.375 0.875 2.575
0.5 0.875 2.575
0.625 0.875 2.575
0.75 0.875 2.575
0.875 0.875 2.575
1 0.875 2.575
1.125 0.875 2.575
1.25 0.875 2.575
1.375 0.875 2.575
1.5 0.875 2.575
1.625 0.875 2.575
1.75 0.875 2.575
1.875 0.875 2.575
2 0.875 2.575
2.125 0.875 2.575
2.25 0.875 2.575
2.375 0.875 2.575
2.5 0.875 2.575
2.625 0.875 2.575
2.75 0.875 2.575
2.875 0.875 2.575
3 0.875 2.575
0 1 2.575
0.125 1 2.575
0.25 1 2.575
0.375 1 2.575
0.5 1 2.575
0.625 1 2.575
0.75 1 2.575
0.875 1 2.575
1 1 2.575
1.125 1 2.575
1.25 1 2.575
1.375 1 2.575
1.5 1 2.575
1.625 1 2.575
1.75 1 2.575
1.875 1 2.575
2 1 2.575
2.125 1 2.575
2.25 1 2.575
2.375 1 2.575
2.5 1 2.575
2.625 1 2.575
2.75 1 2.575
2.875 1 2.575
3 1 2.575
0 0 2.7
0.125 0 2.7
0.25 0 2.7
0.375 0 2.7
0.5 0 2.7
0.625 0 2.7
0.75 0 2.7
0.875 0 2.7
1 0 2.7
1.125 0 2.7
1.25 0 2.7
1.375 0 2.7
1.5 0 2.7
1.625 0 2.7
1.75 0 2.7
1.875 0 2.7
2 0 2.7
2.125 0 2.7
2.25 0 2.7
2.375 0 2.7
2.5 0 2.7
2.625 0 2.7
2.75 0 2.7
2.875 0 2.7
3 0 2.7
0 0.125 2.7
0.125 0.125 2.7
0.25 0.125 2.7
0.375 0.125 2.7
0.5 0.125 2.7
0.625 0.125 2.7
0.75 0.125 2.7
0.875 0.125 2.7
1 0.125 2.7
1.125 0.125 2.7
1.25 0.125 2.7
1.375 0.125 2.7
1.5 0.125 2.7
1.625 0.125 2.7
1.75 0.125 2.7
1.875 0.125 2.7
2 0.125 2.7
2.125 0.125 2.7
2.25 0.125 2.7
2.375 0.125 2.7
2.5 0.125 2.7
2.625 0.125 2.7
2.75 0.125 2.7
2.875 0.125 2.7
3 0.125 2.7
0 0.25 2.7
0.125 0.25 2.7
0.25 0.25 2.7
0.375 0.25 2.7
0.5 0.25 2.7
0.625 0.25 2.7
0.75 0.25 2.7
0.875 0.25 2.7
1 0.25 2.7
1.125 0.25 2.7
1.25 0.25 2.7
1.375 0.25 2.7
1.5 0.25 2.7
1.625 0.25 2.7
1.75 0.25 2.7
1.875 0.25 2.7
2 0.25 2.7
2.125 0.25 2.7
2.25 0.25 2.7
2.375 0.25 2.7
2.5 0.25 2.7
2.625 0.25 2.7
2.75 0.25 2.7
2.875 0.25 2.7
3 0.25 2.7
0 0.375 2.7
0.125 0.375 2.7
0.25 0.375 2.7
0.375 0.375 2.7
0.5 0.375 2.7
0.625 0.375 2.7
0.75 0.375 2.7
0.875 0.375 2.7
1 0.375 2.7
1.125 0.375 2.7
1.25 0.375 2.7
1.375 0.375 2.7
1.5 0.375 2.7
1.625 0.375 2.7
1.75 0.375 2.7
1.875 0.375 2.7
2 0.375 2.7
2.125 0.375 2.7
2.25 0.375 2.7
2.375 0.375 2.7
2.5 0.375 2.7
2.625 0.375 2.7
2.75 0.375 2.7
2.875 0.375 2.7
3 0.375 2.7
0 0.5 2.7
0.125 0.5 2.7
0.25 0.5 2.7
0.375 0.5 2.7
0.5 0.5 2.7
0.625 0.5 2.7
0.75 0.5 2.7
0.875 0.5 2.7
1 0.5 2.7
1.125 0.5 2.7
1.25 0.5 2.7
1.375 0.5 2.7
1.5 0.5 2.7
1.625 0.5 2.7
1.75 0.5 2.7
1.875 0.5 2.7
2 0.5 2.7
2.125 0.5 2.7
2.25 0.5 2.7
2.375 0.5 2.7
2.5 0.5 2.7
2.625 0.5 2.7
2.75 0.5 2.7
2.875 0.5 2.7
3 0.5 2.7
0 0.625 2.7
0.125 0.625 2.7
0.25 0.625 2.7
0.375 0.625 2.7
0.5 0.625 2.7
0.625 0.625 2.7
0.75 0.625 2.7
0.875 0.625 2.7
1 0.625 2.7
1.125 0.625 2.7
1.25 0.625 2.7
1.375 0.625 2.7
1.5 0.625 2.7
1.625 0.625 2.7
1.75 0.625 2.7
1.875 0.625 2.7
2 0.625 2.7
2.125 0.625 2.7
2.25 0.625 2.7
2.375 0.625 2.7
2.5 0.625 2.7
2.625 0.625 2.7
2.75 0.625 2.7
2.875 0.625 2.7
3 0.625 2.7
0 0.75 2.7
0.125 0.75 2.7
0.25 0.75 2.7
0.375 0.75 2.7
0.5 0.75 2.7
0.625 0.75 2.7
0.75 0.75 2.7
0.875 0.75 2.7
1 0.75 2.7
1.125 0.75 2.7
1.25 0.75 2.7
1.375 0.75 2.7
1.5 0.75 2.7
1.625 0.75 2.7
1.75 0.75 2.7
1.875 0.75 2.7
2 0.75 2.7
2.125 0.75 2.7
2.25 0.75 2.7
2.375 0.75 2.7
2.5 0.75 2.7
2.625 0.75 2.7
2.75 0.75 2.7
2.875 0.75 2.7
3 0.75 2.7
0 0.875 2.7
0.125 0.875 2.7
0.25 0.875 2.7
0.375 0.875 2.7
0.5 0.875 2.7
0.625 0.875 2.7
0.75 0.875 2.7
0.875 0.875 2.7
1 0.875 2.7
1.125 0.875 2.7
1.25 0.875 2.7
1.375 0.875 2.7
1.5 0.875 2.7
1.625 0.875 2.7
1.75 0.875 2.7
1.875 0.875 2.7
2 0.875 2.7
2.125 0.875 2.7
2.25 0.875 2.7
2.375 0.875 2.7
2.5 0.875 2.7
2.625 0.875 2.7
2.75 0.875 2.7
2.875 0.875 2.7
3 0.875 2.7
0 1 2.7
0.125 1 2.7
0.25 1 2.7
0.375 1 2.7
0.5 1 2.7
0.625 1 2.7
0.75 1 2.7
0.875 1 2.7
1 1 2.7
1.125 1 2.7
1.25 1 2.7
1.375 1 2.7
1.5 1 2.7
1.625 1 2.7
1.75 1 2.7
1.875 1 2.7
2 1 2.7
2.125 1 2.7
2.25 1 2.7
2.375 1 2.7
2.5 1 2.7
2.625 1 2.7
2.75 1 2.7
2.875 1 2.7
3 1 2.7
0 0 2.825
0.125 0 2.825
0.25 0 2.825
0.375 0 2.825
0.5 0 2.825
0.625 0 2.825
0.75 0 2.825
0.875 0 2.825
1 0 2.825
1.125 0 2.825
1.25 0 2.825
1.375 0 2.825
1.5 0 2.825
1.625 0 2.825
1.75 0 2.825
1.875 0 2.825
2 0 2.825
2.125 0 2.825
2.25 0 2.825
2.375 0 2.825
2.5 0 2.825
2.625 0 2.825
2.75 0 2.825
2.875 0 2.825
3 0 2.825
0 0.125 2.825
0.125 0.125 2.825
0.25 0.125 2.825
0.375 0.125 2.825
0.5 0.125 2.825
0.625 0.125 2.825
0.75 0.125 2.825
0.875 0.125 2.825
1 0.125 2.825
1.125 0.125 2.825
1.25 0.125 2.825
1.375 0.125 2.825
1.5 0.125 2.825
1.625 0.125 2.825
1.75 0.125 2.825
1.875 0.125 2.825
2 0.125 2.825
2.125 0.125 2.825
2.25 0.125 2.825
2.375 0.125 2.825
2.5 0.125 2.825
2.625 0.125 2.825
2.75 0.125 2.825
2.875 0.125 2.825
3 0.125 2.825
0 0.25 2.825
0.125 0.25 2.825
0.25 0.25 2.825
0.375 0.25 2.825
0.5 0.25 2.825
0.625 0.25 2.825
0.75 0.25 2.825
0.875 0.25 2.825
1 0.25 2.825
1.125 0.25 2.825
1.25 0.25 2.825
1.375 0.25 2.825
1.5 0.25 2.825
1.625 0.25 2.825
1.75 0.25 2.825
1.875 0.25 2.825
2 0.25 2.825
2.125 0.25 2.825
2.25 0.25 2.825
2.375 0.25 2.825
2.5 0.25 2.825
2.625 0.25 2.825
2.75 0.25 2.825
2.875 0.25 2.825
3 0.25 2.825
0 0.375 2.825
0.125 0.375 2.825
0.25 0.375 2.825
0.375 0.375 2.825
0.5 0.375 2.825
0.625 0.375 2.825
0.75 0.375 2.825
0.875 0.375 2.825
1 0.375 2.825
1.125 0.375 2.825
1.25 0.375 2.825
1.375 0.375 2.825
1.5 0.375 2.825
1.625 0.375 2.825
1.75 0.375 2.825
1.875 0.375 2.825
2 0.375 2.825
2.125 0.375 2.825
2.25 0.375 2.825
2.375 0.375 2.825
2.5 0.375 2.825
2.625 0.375 2.825
2.75 0.375 2.825
2.875 0.375 2.825
3 0.375 2.825
0 0.5 2.825
0.125 0.5 2.825
0.25 0.5 2.825
0.375 0.5 2.825
0.5 0.5 2.825
0.625 0.5 2.825
0.75 0.5 2.825
0.875 0.5 2.825
1 0.5 2.825
1.125 0.5 2.825
1.25 0.5 2.825
1.375 0.5 2.825
1.5 0.5 2.825
1.625 0.5 2.825
1.75 0.5 2.825
1.875 0.5 2.825
2 0.5 2.825
2.125 0.5 2.825
2.25 0.5 2.825
2.375 0.5 2.825
2.5 0.5 2.825
2.625 0.5 2.825
2.75 0.5 2.825
2.875 0.5 2.825
3 0.5 2.825
0 0.625 2.825
0.125 0.625 2.825
0.25 0.625 2.825
0.375 0.625 2.825
0.5 0.625 2.825
0.625 0.625 2.825
0.75 0.625 2.825
0.875 0.625 2.825
1 0.625 2.825
1.125 0.625 2.825
1.25 0.625 2.825
1.375 0.625 2.825
1.5 0.625 2.825
1.625 0.625 2.825
1.75 0.625 2.825
1.875 0.625 2.825
2 0.625 2.825
2.125 0.625 2.825
2.25 0.625 2.825
2.375 0.625 2.825
2.5 0.625 2.825
2.625 0.625 2.825
2.75 0.625 2.825
2.875 0.625 2.825
3 0.625 2.825
0 0.75 2.825
0.125 0.75 2.825
0.25 0.75 2.825
0.375 0.75 2.825
0.5 0.75 2.825
0.625 0.75 2.825
0.75 0.75 2.825
0.875 0.75 2.825
1 0.75 2.825
1.125 0.75 2.825
1.25 0.75 2.825
1.375 0.75 2.825
1.5 0.75 2.825
1.625 0.75 2.825
1.75 0.75 2.825
1.875 0.75 2.825
2 0.75 2.825
2.125 0.75 2.825
2.25 0.75 2.825
2.375 0.75 2.825
2.5 0.75 2.825
2.625 0.75 2.825
2.75 0.75 2.825
2.875 0.75 2.825
3 0.75 2.825
0 0.875 2.825
0.125 0.875 2.825
0.25 0.875 2.825
0.375 0.875 2.825
0.5 0.875 2.825
0.625 0.875 2.825
0.75 0.875 2.825
0.875 0.875 2.825
1 0.875 2.825
1.125 0.875 2.825
1.25 0.875 2.825
1.375 0.875 2.825
1.5 0.875 2.825
1.625 0.875 2.825
1.75 0.875 2.825
1.875 0.875 2.825
2 0.875 2.825
2.125 0.875 2.825
2.25 0.875 2.825
2.375 0.875 2.825
2.5 0.875 2.825
2.625 0.875 2.825
2.75 0.875 2.825
2.875 0.875 2.825
3 0.875 2.825
0 1 2.825
0.125 1 2.825
0.25 1 2.825
0.375 1 2.825
0.5 1 2.825
0.625 1 2.825
0.75 1 2.825
0.875 1 2.825
1 1 2.825
1.125 1 2.825
1.25 1 2.825
1.375 1 2.825
1.5 1 2.825
1.625 1 2.825
1.75 1 2.825
1.875 1 2.825
2 1 2.825
2.125 1 2.825
2.25 1 2.825
2.375 1 2.825
2.5 1 2.825
2.625 1 2.825
2.75 1 2.825
2.875 1 2.825
3 1 2.825
0 0 2.95
0.125 0 2.95
0.25 0 2.95
0.375 0 2.95
0.5 0 2.95
0.625 0 2.95
0.75 0 2.95
0.875 0 2.95
1 0 2.95
1.125 0 2.95
1.25 0 2.95
1.375 0 2.95
1.5 0 2.95
1.625 0 2.95
1.75 0 2.95
1.875 0 2.95
2 0 2.95
2.125 0 2.95
2.25 0 2.95
2.375 0 2.95
2.5 0 2.95
2.625 0 2.95
2.75 0 2.95
2.875 0 2.95
3 0 2.95
0 0.125 2.95
0.125 0.125 2.95
0.25 0.125 2.95
0.375 0.125 2.95
0.5 0.125 2.95
0.625 0.125 2.95
0.75 0.125 2.95
0.875 0.125 2.95
1 0.125 2.95
1.125 0.125 2.95
1.25 0.125 2.95
1.375 0.125 2.95
1.5 0.125 2.95
1.625 0.125 2.95
1.75 0.125 2.95
1.875 0.125 2.95
2 0.125 2.95
2.125 0.125 2.95
2.25 0.125 2.95
2.375 0.125 2.95
2.5 0.125 2.95
2.625 0.125 2.95
2.75 0.125 2.95
2.875 0.125 2.95
3 0.125 2.95
0 0.25 2.95
0.125 0.25 2.95
0.25 0.25 2.95
0.375 0.25 2.95
0.5 0.25 2.95
0.625 0.25 2.95
0.75 0.25 2.95
0.875 0.25 2.95
1 0.25 2.95
1.125 0.25 2.95
1.25 0.25 2.95
1.375 0.25 2.95
1.5 0.25 2.95
1.625 0.25 2.95
1.75 0.25 2.95
1.875 0.25 2.95
2 0.25 2.95
2.125 0.25 2.95
2.25 0.25 2.95
2.375 0.25 2.95
2.5 0.25 2.95
2.625 0.25 2.95
2.75 0.25 2.95
2.875 0.25 2.95
3 0.25 2.95
0 0.375 2.95
0.125 0.375 2.95
0.25 0.375 2.95
0.375 0.375 2.95
0.5 0.375 2.95
0.625 0.375 2.95
0.75 0.375 2.95
0.875 0.375 2.95
1 0.375 2.95
1.125 0.375 2.95
1.25 0.375 2.95
1.375 0.375 2.95
1.5 0.375 2.95
1.625 0.375 2.95
1.75 0.375 2.95
1.875 0.375 2.95
2 0.375 2.95
2.125 0.375 2.95
2.25 0.375 2.95
2.375 0.375 2.95
2.5 0.375 2.95
2.625 0.375 2.95
2.75 0.375 2.95
2.875 0.375 2.95
3 0.375 2.95
0 0.5 2.95
0.125 0.5 2.95
0.25 0.5 2.95
0.375 0.5 2.95
0.5 0.5 2.95
0.625 0.5 2.95
0.75 0.5 2.95
0.875 0.5 2.95
1 0.5 2.95
1.125 0.5 2.95
1.25 0.5 2.95
1.375 0.5 2.95
1.5 0.5 2.95
1.625 0.5 2.95
1.75 0.5 2.95
1.875 0.5 2.95
2 0.5 2.95
2.125 0.5 2.95
2.25 0.5 2.95
2.375 0.5 2.95
2.5 0.5 2.95
2.625 0.5 2.95
2.75 0.5 2.95
2.875 0.5 2.95
3 0.5 2.95
0 0.625 2.95
0.125 0.625 2.95
0.25 0.625 2.95
0.375 0.625 2.95
0.5 0.625 2.95
0.625 0.625 2.95
0.75 0.625 2.95
0.875 0.625 2.95
1 0.625 2.95
1.125 0.625 2.95
1.25 0.625 2.95
1.375 0.625 2.95
1.5 0.625 2.95
1.625 0.625 2.95
1.75 0.625 2.95
1.875 0.625 2.95
2 0.625 2.95
2.125 0.625 2.95
2.25 0.625 2.95
2.375 0.625 2.95
2.5 0.625 2.95
2.625 0.625 2.95
2.75 0.625 2.95
2.875 0.625 2.95
3 0.625 2.95
0 0.75 2.95
0.125 0.75 2.95
0.25 0.75 2.95
0.375 0.75 2.95
0.5 0.75 2.95
0.625 0.75 2.95
0.75 0.75 2.95
0.875 0.75 2.95
1 0.75 2.95
1.125 0.75 2.95
1.25 0.75 2.95
1.375 0.75 2.95
1.5 0.75 2.95
1.625 0.75 2.95
1.75 0.75 2.95
1.875 0.75 2.95
2 0.75 2.95
2.125 0.75 2.95
2.25 0.75 2.95
2.375 0.75 2.95
2.5 0.75 2.95
2.625 0.75 2.95
2.75 0.75 2.95
2.875 0.75 2.95
3 0.75 2.95
0 0.875 2.95
0.125 0.875 2.95
0.25 0.875 2.95
0.375 0.875 2.95
0.5 0.875 2.95
0.625 0.875 2.95
0.75 0.875 2.95
0.875 0.875 2.95
1 0.875 2.95
1.125 0.875 2.95
1.25 0.875 2.95
1.375 0.875 2.95
1.5 0.875 2.95
1.625 0.875 2.95
1.75 0.875 2.95
1.875 0.875 2.95
2 0.875 2.95
2.125 0.875 2.95
2.25 0.875 2.95
2.375 0.875 2.95
2.5 0.875 2.95
2.625 0.875 2.95
2.75 0.875 2.95
2.875 0.875 2.95
3 0.875 2.95
0 1 2.95
0.125 1 2.95
0.25 1 2.95
0.375 1 2.95
0.5 1 2.95
0.625 1 2.95
0.75 1 2.95
0.875 1 2.95
1 1 2.95
1.125 1 2.95
1.25 1 2.95
1.375 1 2.95
1.5 1 2.95
1.625 1 2.95
1.75 1 2.95
1.875 1 2.95
2 1 2.95
2.125 1 2.95
2.25 1 2.95
2.375 1 2.95
2.5 1 2.95
2.625 1 2.95
2.75 1 2.95
2.875 1 2.95
3 1 2.95
0 0 3.075
0.125 0 3.075
0.25 0 3.075
0.375 0 3.075
0.5 0 3.075
0.625 0 3.075
0.75 0 3.075
0.875 0 3.075
1 0 3.075
1.125 0 3.075
1.25 0 3.075
1.375 0 3.075
1.5 0 3.075
1.625 0 3.075
1.75 0 3.075
1.875 0 3.075
2 0 3.075
2.125 0 3.075
2.25 0 3.075
2.375 0 3.075
2.5 0 3.075
2.625 0 3.075
2.75 0 3.075
2.875 0 3.075
3 0 3.075
0 0.125 3.075
0.125 0.125 3.075
0.25 0.125 3.075
0.375 0.125 3.075
0.5 0.125 3.075
0.625 0.125 3.075
0.75 0.125 3.075
0.875 0.125 3.075
1 0.125 3.075
1.125 0.125 3.075
1.25 0.125 3.075
1.375 0.125 3.075
1.5 0.125 3.075
1.625 0.125 3.075
1.75 0.125 3.075
1.875 0.125 3.075
2 0.125 3.075
2.125 0.125 3.075
2.25 0.125 3.075
2.375 0.125 3.075
2.5 0.125 3.075
2.625 0.125 3.075
2.75 0.125 3.075
2.875 0.125 3.075
3 0.125 3.075
0 0.25 3.075
0.125 0.25 3.075
0.25 0.25 3.075
0.375 0.25 3.075
0.5 0.25 3.075
0.625 0.25 3.075
0.75 0.25 3.075
0.875 0.25 3.075
1 0.25 3.075
1.125 0.25 3.075
1.25 0.25 3.075
1.375 0.25 3.075
1.5 0.25 3.075
1.625 0.25 3.075
1.75 0.25 3.075
1.875 0.25 3.075
2 0.25 3.075
2.125 0.25 3.075
2.25 0.25 3.075
2.375 0.25 3.075
2.5 0.25 3.075
2.625 0.25 3.075
2.75 0.25 3.075
2.875 0.25 3.075
3 0.25 3.075
0 0.375 3.075
0.125 0.375 3.075
0.25 0.375 3.075
0.375 0.375 3.075
0.5 0.375 3.075
0.625 0.375 3.075
0.75 0.375 3.075
0.875 0.375 3.075
1 0.375 3.075
1.125 0.375 3.075
1.25 0.375 3.075
1.375 0.375 3.075
1.5 0.375 3.075
1.625 0.375 3.075
1.75 0.375 3.075
1.875 0.375 3.075
2 0.375 3.075
2.125 0.375 3.075
2.25 0.375 3.075
2.375 0.375 3.075
2.5 0.375 3.075
2.625 0.375 3.075
2.75 0.375 3.075
2.875 0.375 3.075
3 0.375 3.075
0 0.5 3.075
0.125 0.5 3.075
0.25 0.5 3.075
0.375 0.5 3.075
0.5 0.5 3.075
0.625 0.5 3.075
0.75 0.5 3.075
0.875 0.5 3.075
1 0.5 3.075
1.125 0.5 3.075
1.25 0.5 3.075
1.375 0.5 3.075
1.5 0.5 3.075
1.625 0.5 3.075
1.75 0.5 3.075
1.875 0.5 3.075
2 0.5 3.075
2.125 0.5 3.075
2.25 0.5 3.075
2.375 0.5 3.075
2.5 0.5 3.075
2.625 0.5 3.075
2.75 0.5 3.075
2.875 0.5 3.075
3 0.5 3.075
0 0.625 3.075
0.125 0.625 3.075
0.25 0.625 3.075
0.375 0.625 3.075
0.5 0.625 3.075
0.625 0.625 3.075
0.75 0.625 3.075
0.875 0.625 3.075
1 0.625 3.075
1.125 0.625 3.075
1.25 0.625 3.075
1.375 0.625 3.075
1.5 0.625 3.075
1.625 0.625 3.075
1.75 0.625 3.075
1.875 0.625 3.075
2 0.625 3.075
2.125 0.625 3.075
2.25 0.625 3.075
2.375 0.625 3.075
2.5 0.625 3.075
2.625 0.625 3.075
2.75 0.625 3.075
2.875 0.625 3.075
3 0.625 3.075
0 0.75 3.075
0.125 0.75 3.075
0.25 0.75 3.075
0.375 0.75 3.075
0.5 0.75 3.075
0.625 0.75 3.075
0.75 0.75 3.075
0.875 0.75 3.075
1 0.75 3.075
1.125 0.75 3.075
1.25 0.75 3.075
1.375 0.75 3.075
1.5 0.75 3.075
1.625 0.75 3.075
1.75 0.75 3.075
1.875 0.75 3.075
2 0.75 3.075
2.125 0.75 3.075
2.25 0.75 3.075
2.375 0.75 3.075
2.5 0.75 3.075
2.625 0.75 3.075
2.75 0.75 3.075
2.875 0.75 3.075
3 0.75 3.075
0 0.875 3.075
0.125 0.875 3.075
0.25 0.875 3.075
0.375 0.875 3.075
0.5 0.875 3.075
0.625 0.875 3.075
0.75 0.875 3.075
0.875 0.875 3.075
1 0.875 3.075
1.125 0.875 3.075
1.25 0.875 3.075
1.375 0.875 3.075
1.5 0.875 3.075
1.625 0.875 3.075
1.75 0.875 3.075
1.875 0.875 3.075
2 0.875 3.075
2.125 0.875 3.075
2.25 0.875 3.075
2.375 0.875 3.075
2.5 0.875 3.075
2.625 0.875 3.075
2.75 0.875 3.075
2.875 0.875 3.075
3 0.875 3.075
0 1 3.075
0.125 1 3.075
0.25 1 3.075
0.375 1 3.075
0.5 1 3.075
0.625 1 3.075
0.75 1 3.075
0.875 1 3.075
1 1 3.075
1.125 1 3.075
1.25 1 3.075
1.375 1 3.075
1.5 1 3.075
1.625 1 3.075
1.75 1 3.075
1.875 1 3.075
2 1 3.075
2.125 1 3.075
2.25 1 3.075
2.375 1 3.075
2.5 1 3.075
2.625 1 3.075
2.75 1 3.075
2.875 1 3.075
3 1 3.075
0 0 3.2
0.125 0 3.2
0.25 0 3.2
0.375 0 3.2
0.5 0 3.2
0.625 0 3.2
0.75 0 3.2
0.875 0 3.2
1 0 3.2
1.125 0 3.2
1.25 0 3.2
1.375 0 3.2
1.5 0 3.2
1.625 0 3.2
1.75 0 3.2
1.875 0 3.2
2 0 3.2
2.125 0 3.2
2.25 0 3.2
2.375 0 3.2
2.5 0 3.2
2.625 0 3.2
2.75 0 3.2
2.875 0 3.2
3 0 3.2
0 0.125 3.2
0.125 0.125 3.2
0.25 0.125 3.2
0.375 0.125 3.2
0.5 0.125 3.2
0.625 0.125 3.2
0.75 0.125 3.2
0.875 0.125 3.2
1 0.125 3.2
1.125 0.125 3.2
1.25 0.125 3.2
1.375 0.125 3.2
1.5 0.125 3.2
1.625 0.125 3.2
1.75 0.125 3.2
1.875 0.125 3.2
2 0.125 3.2
2.125 0.125 3.2
2.25 0.125 3.2
2.375 0.125 3.2
2.5 0.125 3.2
2.625 0.125 3.2
2.75 0.125 3.2
2.875 0.125 3.2
3 0.125 3.2
0 0.25 3.2
0.125 0.25 3.2
0.25 0.25 3.2
0.375 0.25 3.2
0.5 0.25 3.2
0.625 0.25 3.2
0.75 0.25 3.2
0.875 0.25 3.2
1 0.25 3.2
1.125 0.25 3.2
1.25 0.25 3.2
1.375 0.25 3.2
1.5 0.25 3.2
1.625 0.25 3.2
1.75 0.25 3.2
1.875 0.25 3.2
2 0.25 3.2
2.125 0.25 3.2
2.25 0.25 3.2
2.375 0.25 3.2
2.5 0.25 3.2
2.625 0.25 3.2
2.75 0.25 3.2
2.875 0.25 3.2
3 0.25 3.2
0 0.375 3.2
0.125 0.375 3.2
0.25 0.375 3.2
0.375 0.375 3.2
0.5 0.375 3.2
0.625 0.375 3.2
0.75 0.375 3.2
0.875 0.375 3.2
1 0.375 3.2
1.125 0.375 3.2
1.25 0.375 3.2
1.375 0.375 3.2
1.5 0.375 3.2
1.625 0.375 3.2
1.75 0.375 3.2
1.875 0.375 3.2
2 0.375 3.2
2.125 0.375 3.2
2.25 0.375 3.2
2.375 0.375 3.2
2.5 0.375 3.2
2.625 0.375 3.2
2.75 0.375 3.2
2.875 0.375 3.2
3 0.375 3.2
0 0.5 3.2
0.125 0.5 3.2
0.25 0.5 3.2
0.375 0.5 3.2
0.5 0.5 3.2
0.625 0.5 3.2
0.75 0.5 3.2
0.875 0.5 3.2
1 0.5 3.2
1.125 0.5 3.2
1.25 0.5 3.2
1.375 0.5 3.2
1.5 0.5 3.2
1.625 0.5 3.2
1.75 0.5 3.2
1.875 0.5 3.2
2 0.5 3.2
2.125 0.5 3.2
2.25 0.5 3.2
2.375 0.5 3.2
2.5 0.5 3.2
2.625 0.5 3.2
2.75 0.5 3.2
2.875 0.5 3.2
3 0.5 3.2
0 0.625 3.2
0.125 0.625 3.2
0.25 0.625 3.2
0.375 0.625 3.2
0.5 0.625 3.2
0.625 0.625 3.2
0.75 0.625 3.2
0.875 0.625 3.2
1 0.625 3.2
1.125 0.625 3.2
1.25 0.625 3.2
1.375 0.625 3.2
1.5 0.625 3.2
1.625 0.625 3.2
1.75 0.625 3.2
1.875 0.625 3.2
2 0.625 3.2
2.125 0.625 3.2
2.25 0.625 3.2
2.375 0.625 3.2
2.5 0.625 3.2
2.625 0.625 3.2
2.75 0.625 3.2
2.875 0.625 3.2
3 0.625 3.2
0 0.75 3.2
0.125 0.75 3.2
0.25 0.75 3.2
0.375 0.75 3.2
0.5 0.75 3.2
0.625 0.75 3.2
0.75 0.75 3.2
0.875 0.75 3.2
1 0.75 3.2
1.125 0.75 3.2
1.25 0.75 3.2
1.375 0.75 3.2
1.5 0.75 3.2
1.625 0.75 3.2
1.75 0.75 3.2
1.875 0.75 3.2
2 0.75 3.2
2.125 0.75 3.2
2.25 0.75 3.2
2.375 0.75 3.2
2.5 0.75 3.2
2.625 0.75 3.2
2.75 0.75 3.2
2.875 0.75 3.2
3 0.75 3.2
0 0.875 3.2
0.125 0.875 3.2
0.25 0.875 3.2
0.375 0.875 3.2
0.5 0.875 3.2
0.625 0.875 3.2
0.75 0.875 3.2
0.875 0.875 3.2
1 0.875 3.2
1.125 0.875 3.2
1.25 0.875 3.2
1.375 0.875 3.2
1.5 0.875 3.2
1.625 0.875 3.2
1.75 0.875 3.2
1.875 0.875 3.2
2 0.875 3.2
2.125 0.875 3.2
2.25 0.875 3.2
2.375 0.875 3.2
2.5 0.875 3.2
2.625 0.875 3.2
2.75 0.875 3.2
2.875 0.875 3.2
3 0.875 3.2
0 1 3.2
0.125 1 3.2
0.25 1 3.2
0.375 1 3.2
0.5 1 3.2
0.625 1 3.2
0.75 1 3.2
0.875 1 3.2
1 1 3.2
1.125 1 3.2
1.25 1 3.2
1.375 1 3.2
1.5 1 3.2
1.625 1 3.2
1.75 1 3.2
1.875 1 3.2
2 1 3.2
2.125 1 3.2
2.25 1 3.2
2.375 1 3.2
2.5 1 3.2
2.625 1 3.2
2.75 1 3.2
2.875 1 3.2
3 1 3.2
0.0625 0 2.2
0.125 0 2.2625
0.0625 0 2.325
0 0 2.2625
0 0.0625 2.2
0.125 0.0625 2.2
0.125 0.0625 2.325
0 0.0625 2.325
0.0625 0.125 2.2
0.125 0.125 2.2625
0.0625 0.125 2.325
0 0.125 2.2625
0.0625 0 2.2625
0.0625 0.0625 2.2
0.125 0.0625 2.2625
0.0625 0.0625 2.325
0 0.0625 2.2625
0.0625 0.125 2.2625
0.0625 0.0625 2.2625
0.1875 0 2.2
0.25 0 2.2625
0.1875 0 2.325
0.25 0.0625 2.2
0.25 0.0625 2.325
0.1875 0.125 2.2
0.25 0.125 2.2625
0.1875 0.125 2.325
0.1875 0 2.2625
0.1875 0.0625 2.2
0.25 0.0625 2.2625
0.1875 0.0625 2.325
0.1875 0.125 2.2625
0.1875 0.0625 2.2625
0.3125 0 2.2
0.375 0 2.2625
0.3125 0 2.325
0.375 0.0625 2.2
0.375 0.0625 2.325
0.3125 0.125 2.2
0.375 0.125 2.2625
0.3125 0.125 2.325
0.3125 0 2.2625
0.3125 0.0625 2.2
0.375 0.0625 2.2625
0.3125 0.0625 2.325
0.3125 0.125 2.2625
0.3125 0.0625 2.2625
0.4375 0 2.2
0.5 0 2.2625
0.4375 0 2.325
0.5 0.0625 2.2
0.5 0.0625 2.325
0.4375 0.125 2.2
0.5 0.125 2.2625
0.4375 0.125 2.325
0.4375 0 2.2625
0.4375 0.0625 2.2
0.5 0.0625 2.2625
0.4375 0.0625 2.325
0.4375 0.125 2.2625
0.4375 0.0625 2.2625
0.5625 0 2.2
0.625 0 2.2625
0.5625 0 2.325
0.625 0.0625 2.2
0.625 0.0625 2.325
0.5625 0.125 2.2
0.625 0.125 2.2625
0.5625 0.125 2.325
0.5625 0 2.2625
0.5625 0.0625 2.2
0.625 0.0625 2.2625
0.5625 0.0625 2.325
0.5625 0.125 2.2625
0.5625 0.0625 2.2625
0.6875 0 2.2
0.75 0 2.2625
0.6875 0 2.325
0.75 0.0625 2.2
0.75 0.0625 2.325
0.6875 0.125 2.2
0.75 0.125 2.2625
0.6875 0.125 2.325
0.6875 0 2.2625
0.6875 0.0625 2.2
0.75 0.0625 2.2625
0.6875 0.0625 2.325
0.6875 0.125 2.2625
0.6875 0.0625 2.2625
0.8125 0 2.2
0.875 0 2.2625
0.8125 0 2.325
0.875 0.0625 2.2
0.875 0.0625 2.325
0.8125 0.125 2.2
0.875 0.125 2.2625
0.8125 0.125 2.325
0.8125 0 2.2625
0.8125 0.0625 2.2
0.875 0.0625 2.2625
0.8125 0.0625 2.325
0.8125 0.125 2.2625
0.8125 0.0625 2.2625
0.9375 0 2.2
1 0 2.2625
0.9375 0 2.325
1 0.0625 2.2
1 0.0625 2.325
0.9375 0.125 2.2
1 0.125 2.2625
0.9375 0.125 2.325
0.9375 0 2.2625
0.9375 0.0625 2.2
1 0.0625 2.2625
0.9375 0.0625 2.325
0.9375 0.125 2.2625
0.9375 0.0625 2.2625
1.0625 0 2.2
1.125 0 2.2625
1.0625 0 2.325
1.125 0.0625 2.2
1.125 0.0625 2.325
1.0625 0.125 2.2
1.125 0.125 2.2625
1.0625 0.125 2.325
1.0625 0 2.2625
1.0625 0.0625 2.2
1.125 0.0625 2.2625
1.0625 0.0625 2.325
1.0625 0.125 2.2625
1.0625 0.0625 2.2625
1.1875 0 2.2
1.25 0 2.2625
1.1875 0 2.325
1.25 0.0625 2.2
1.25 0.0625 2.325
1.1875 0.125 2.2
1.25 0.125 2.2625
1.1875 0.125 2.325
1.1875 0 2.2625
1.1875 0.0625 2.2
1.25 0.0625 2.2625
1.1875 0.0625 2.325
1.1875 0.125 2.2625
1.1875 0.0625 2.2625
1.3125 0 2.2
1.375 0 2.2625
1.3125 0 2.325
1.375 0.0625 2.2
1.375 0.0625 2.325
1.3125 0.125 2.2
1.375 0.125 2.2625
1.3125 0.125 2.325
1.3125 0 2.2625
1.3125 0.0625 2.2
1.375 0.0625 2.2625
1.3125 0.0625 2.325
1.3125 0.125 2.2625
1.3125 0.0625 2.2625
1.4375 0 2.2
1.5 0 2.2625
1.4375 0 2.325
1.5 0.0625 2.2
1.5 0.0625 2.325
1.4375 0.125 2.2
1.5 0.125 2.2625
1.4375 0.125 2.325
1.4375 0 2.2625
1.4375 0.0625 2.2
1.5 0.0625 2.2625
1.4375 0.0625 2.325
1.4375 0.125 2.2625
1.4375 0.0625 2.2625
1.5625 0 2.2
1.625 0 2.2625
1.5625 0 2.325
1.625 0.0625 2.2
1.625 0.0625 2.325
1.5625 0.125 2.2
1.625 0.125 2.2625
1.5625 0.125 2.325
1.5625 0 2.2625
1.5625 0.0625 2.2
1.625 0.0625 2.2625
1.5625 0.0625 2.325
1.5625 0.125 2.2625
1.5625 0.0625 2.2625
1.6875 0 2.2
1.75 0 2.2625
1.6875 0 2.325
1.75 0.0625 2.2
1.75 0.0625 2.325
1.6875 0.125 2.2
1.75 0.125 2.2625
1.6875 0.125 2.325
1.6875 0 2.2625
1.6875 0.0625 2.2
1.75 0.0625 2.2625
1.6875 0.0625 2.325
1.6875 0.125 2.2625
1.6875 0.0625 2.2625
1.8125 0 2.2
1.875 0 2.2625
1.8125 0 2.325
1.875 0.0625 2.2
1.875 0.0625 2.325
1.8125 0.125 2.2
1.875 0.125 2.2625
1.8125 0.125 2.325
1.8125 0 2.2625
1.8125 0.0625 2.2
1.875 0.0625 2.2625
1.8125 0.0625 2.325
1.8125 0.125 2.2625
1.8125 0.0625 2.2625
1.9375 0 2.2
2 0 2.2625
1.9375 0 2.325
2 0.0625 2.2
2 0.0625 2.325
1.9375 0.125 2.2
2 0.125 2.2625
1.9375 0.125 2.325
1.9375 0 2.2625
1.9375 0.0625 2.2
2 0.0625 2.2625
1.9375 0.0625 2.325
1.9375 0.125 2.2625
1.9375 0.0625 2.2625
2.0625 0 2.2
2.125 0 2.2625
2.0625 0 2.325
2.125 0.0625 2.2
2.125 0.0625 2.325
2.0625 0.125 2.2
2.125 0.125 2.2625
2.0625 0.125 2.325
2.0625 0 2.2625
2.0625 0.0625 2.2
2.125 0.0625 2.2625
2.0625 0.0625 2.325
2.0625 0.125 2.2625
2.0625 0.0625 2.2625
2.1875 0 2.2
2.25 0 2.2625
2.1875 0 2.325
2.25 0.0625 2.2
2.25 0.0625 2.325
2.1875 0.125 2.2
2.25 0.125 2.2625
2.1875 0.125 2.325
2.1875 0 2.2625
2.1875 0.0625 2.2
2.25 0.0625 2.2625
2.1875 0.0625 2.325
2.1875 0.125 2.2625
2.1875 0.0625 2.2625
2.3125 0 2.2
2.375 0 2.2625
2.3125 0 2.325
2.375 0.0625 2.2
2.375 0.0625 2.325
2.3125 0.125 2.2
2.375 0.125 2.2625
2.3125 0.125 2.325
2.3125 0 2.2625
2.3125 0.0625 2.2
2.375 0.0625 2.2625
2.3125 0.0625 2.325
2.3125 0.125 2.2625
2.3125 0.0625 2.2625
2.4375 0 2.2
2.5 0 2.2625
2.4375 0 2.325
2.5 0.0625 2.2
2.5 0.0625 2.325
2.4375 0.125 2.2
2.5 0.125 2.2625
2.4375 0.125 2.325
2.4375 0 2.2625
2.4375 0.0625 2.2
2.5 0.0625 2.2625
2.4375 0.0625 2.325
2.4375 0.125 2.2625
2.4375 0.0625 2.2625
2.5625 0 2.2
2.625 0 2.2625
2.5625 0 2.325
2.625 0.0625 2.2
2.625 0.0625 2.325
2.5625 0.125 2.2
2.625 0.125 2.2625
2.5625 0.125 2.325
2.5625 0 2.2625
2.5625 0.0625 2.2
2.625 0.0625 2.2625
2.5625 0.0625 2.325
2.5625 0.125 2.2625
2.5625 0.0625 2.2625
2.6875 0 2.2
2.75 0 2.2625
2.6875 0 2.325
2.75 0.0625 2.2
2.75 0.0625 2.325
2.6875 0.125 2.2
2.75 0.125 2.2625
2.6875 0.125 2.325
2.6875 0 2.2625
2.6875 0.0625 2.2
2.75 0.0625 2.2625
2.6875 0.0625 2.325
2.6875 0.125 2.2625
2.6875 0.0625 2.2625
2.8125 0 2.2
2.875 0 2.2625
2.8125 0 2.325
2.875 0.0625 2.2
2.875 0.0625 2.325
2.8125 0.125 2.2
2.875 0.125 2.2625
2.8125 0.125 2.325
2.8125 0 2.2625
2.8125 0.0625 2.2
2.875 0.0625 2.2625
2.8125 0.0625 2.325
2.8125 0.125 2.2625
2.8125 0.0625 2.2625
2.9375 0 2.2
3 0 2.2625
2.9375 0 2.325
3 0.0625 2.2
3 0.0625 2.325
2.9375 0.125 2.2
3 0.125 2.2625
2.9375 0.125 2.325
2.9375 0 2.2625
2.9375 0.0625 2.2
3 0.0625 2.2625
2.9375 0.0625 2.325
2.9375 0.125 2.2625
2.9375 0.0625 2.2625
0 0.1875 2.2
0.125 0.1875 2.2
0.125 0.1875 2.325
0 0.1875 2.325
0.0625 0.25 2.2
0.125 0.25 2.2625
0.0625 0.25 2.325
0 0.25 2.2625
0.0625 0.1875 2.2
0.125 0.1875 2.2625
0.0625 0.1875 2.325
0 0.1875 2.2625
0.0625 0.25 2.2625
0.0625 0.1875 2.2625
0.25 0.1875 2.2
0.25 0.1875 2.325
0.1875 0.25 2.2
0.25 0.25 2.2625
0.1875 0.25 2.325
0.1875 0.1875 2.2
0.25 0.1875 2.2625
0.1875 0.1875 2.325
0.1875 0.25 2.2625
0.1875 0.1875 2.2625
0.375 0.1875 2.2
0.375 0.1875 2.325
0.3125 0.25 2.2
0.375 0.25 2.2625
0.3125 0.25 2.325
0.3125 0.1875 2.2
0.375 0.1875 2.2625
0.3125 0.1875 2.325
0.3125 0.25 2.2625
0.3125 0.1875 2.2625
0.5 0.1875 2.2
0.5 0.1875 2.325
0.4375 0.25 2.2
0.5 0.25 2.2625
0.4375 0.25 2.325
0.4375 0.1875 2.2
0.5 0.1875 2.2625
0.4375 0.1875 2.325
0.4375 0.25 2.2625
0.4375 0.1875 2.2625
0.625 0.1875 2.2
0.625 0.1875 2.325
0.5625 0.25 2.2
0.625 0.25 2.2625
0.5625 0.25 2.325
0.5625 0.1875 2.2
0.625 0.1875 2.2625
0.5625 0.1875 2.325
0.5625 0.25 2.2625
0.5625 0.1875 2.2625
0.75 0.1875 2.2
0.75 0.1875 2.325
0.6875 0.25 2.2
0.75 0.25 2.2625
0.6875 0.25 2.325
0.6875 0.1875 2.2
0.75 0.1875 2.2625
0.6875 0.1875 2.325
0.6875 0.25 2.2625
0.6875 0.1875 2.2625
0.875 0.1875 2.2
0.875 0.1875 2.325
0.8125 0.25 2.2
0.875 0.25 2.2625
0.8125 0.25 2.325
0.8125 0.1875 2.2
0.875 0.1875 2.2625
0.8125 0.1875 2.325
0.8125 0.25 2.2625
0.8125 0.1875 2.2625
1 0.1875 2.2
1 0.1875 2.325
0.9375 0.25 2.2
1 0.25 2.2625
0.9375 0.25 2.325
0.9375 0.1875 2.2
1 0.1875 2.2625
0.9375 0.1875 2.325
0.9375 0.25 2.2625
0.9375 0.1875 2.2625
1.125 0.1875 2.2
1.125 0.1875 2.325
1.0625 0.25 2.2
1.125 0.25 2.2625
1.0625 0.25 2.325
1.0625 0.1875 2.2
1.125 0.1875 2.2625
1.0625 0.1875 2.325
1.0625 0.25 2.2625
1.0625 0.1875 2.2625
1.25 0.1875 2.2
1.25 0.1875 2.325
1.1875 0.25 2.2
1.25 0.25 2.2625
1.1875 0.25 2.325
1.1875 0.1875 2.2
1.25 0.1875 2.2625
1.1875 0.1875 2.325
1.1875 0.25 2.2625
1.1875 0.1875 2.2625
1.375 0.1875 2.2
1.375 0.1875 2.325
1.3125 0.25 2.2
1.375 0.25 2.2625
1.3125 0.25 2.325
1.3125 0.1875 2.2
1.375 0.1875 2.2625
1.3125 0.1875 2.325
1.3125 0.25 2.2625
1.3125 0.1875 2.2625
1.5 0.1875 2.2
1.5 0.1875 2.325
1.4375 0.25 2.2
1.5 0.25 2.2625
1.4375 0.25 2.325
1.4375 0.1875 2.2
1.5 0.1875 2.2625
1.4375 0.1875 2.325
1.4375 0.25 2.2625
1.4375 0.1875 2.2625
1.625 0.1875 2.2
1.625 0.1875 2.325
1.5625 0.25 2.2
1.625 0.25 2.2625
1.5625 0.25 2.325
1.5625 0.1875 2.2
1.625 0.1875 2.2625
1.5625 0.1875 2.325
1.5625 0.25 2.2625
1.5625 0.1875 2.2625
1.75 0.1875 2.2
1.75 0.1875 2.325
1.6875 0.25 2.2
1.75 0.25 2.2625
1.6875 0.25 2.325
1.6875 0.1875 2.2
1.75 0.1875 2.2625
1.6875 0.1875 2.325
1.6875 0.25 2.2625
1.6875 0.1875 2.2625
1.875 0.1875 2.2
1.875 0.1875 2.325
1.8125 0.25 2.2
1.875 0.25 2.2625
1.8125 0.25 2.325
1.8125 0.1875 2.2
1.875 0.1875 2.2625
1.8125 0.1875 2.325
1.8125 0.25 2.2625
1.8125 0.1875 2.2625
2 0.1875 2.2
2 0.1875 2.325
1.9375 0.25 2.2
2 0.25 2.2625
1.9375 0.25 2.325
1.9375 0.1875 2.2
2 0.1875 2.2625
1.9375 0.1875 2.325
1.9375 0.25 2.2625
1.9375 0.1875 2.2625
2.125 0.1875 2.2
2.125 0.1875 2.325
2.0625 0.25 2.2
2.125 0.25 2.2625
2.0625 0.25 2.325
2.0625 0.1875 2.2
2.125 0.1875 2.2625
2.0625 0.1875 2.325
2.0625 0.25 2.2625
2.0625 0.1875 2.2625
2.25 0.1875 2.2
2.25 0.1875 2.325
2.1875 0.25 2.2
2.25 0.25 2.2625
2.1875 0.25 2.325
2.1875 0.1875 2.2
2.25 0.1875 2.2625
2.1875 0.1875 2.325
2.1875 0.25 2.2625
2.1875 0.1875 2.2625
2.375 0.1875 2.2
2.375 0.1875 2.325
2.3125 0.25 2.2
2.375 0.25 2.2625
2.3125 0.25 2.325
2.3125 0.1875 2.2
2.375 0.1875 2.2625
2.3125 0.1875 2.325
2.3125 0.25 2.2625
2.3125 0.1875 2.2625
2.5 0.1875 2.2
2.5 0.1875 2.325
2.4375 0.25 2.2
2.5 0.25 2.2625
2.4375 0.25 2.325
2.4375 0.1875 2.2
2.5 0.1875 2.2625
2.4375 0.1875 2.325
2.4375 0.25 2.2625
2.4375 0.1875 2.2625
2.625 0.1875 2.2
2.625 0.1875 2.325
2.5625 0.25 2.2
2.625 0.25 2.2625
2.5625 0.25 2.325
2.5625 0.1875 2.2
2.625 0.1875 2.2625
2.5625 0.1875 2.325
2.5625 0.25 2.2625
2.5625 0.1875 2.2625
2.75 0.1875 2.2
2.75 0.1875 2.325
2.6875 0.25 2.2
2.75 0.25 2.2625
2.6875 0.25 2.325
2.6875 0.1875 2.2
2.75 0.1875 2.2625
2.6875 0.1875 2.325
2.6875 0.25 2.2625
2.6875 0.1875 2.2625
2.875 0.1875 2.2
2.875 0.1875 2.325
2.8125 0.25 2.2
2.875 0.25 2.2625
2.8125 0.25 2.325
2.8125 0.1875 2.2
2.875 0.1875 2.2625
2.8125 0.1875 2.325
2.8125 0.25 2.2625
2.8125 0.1875 2.2625
3 0.1875 2.2
3 0.1875 2.325
2.9375 0.25 2.2
3 0.25 2.2625
2.9375 0.25 2.325
2.9375 0.1875 2.2
3 0.1875 2.2625
2.9375 0.1875 2.325
2.9375 0.25 2.2625
2.9375 0.1875 2.2625
0 0.3125 2.2
0.125 0.3125 2.2
0.125 0.3125 2.325
0 0.3125 2.325
0.0625 0.375 2.2
0.125 0.375 2.2625
0.0625 0.375 2.325
0 0.375 2.2625
0.0625 0.3125 2.2
0.125 0.3125 2.2625
0.0625 0.3125 2.325
0 0.3125 2.2625
0.0625 0.375 2.2625
0.0625 0.3125 2.2625
0.25 0.3125 2.2
0.25 0.3125 2.325
0.1875 0.375 2.2
0.25 0.375 2.2625
0.1875 0.375 2.325
0.1875 0.3125 2.2
0.25 0.3125 2.2625
0.1875 0.3125 2.325
0.1875 0.375 2.2625
0.1875 0.3125 2.2625
0.375 0.3125 2.2
0.375 0.3125 2.325
0.3125 0.375 2.2
0.375 0.375 2.2625
0.3125 0.375 2.325
0.3125 0.3125 2.2
0.375 0.3125 2.2625
0.3125 0.3125 2.325
0.3125 0.375 2.2625
0.3125 0.3125 2.2625
0.5 0.3125 2.2
0.5 0.3125 2.325
0.4375 0.375 2.2
0.5 0.375 2.2625
0.4375 0.375 2.325
0.4375 0.3125 2.2
0.5 0.3125 2.2625
0.4375 0.3125 2.325
0.4375 0.375 2.2625
0.4375 0.3125 2.2625
0.625 0.3125 2.2
0.625 0.3125 2.325
0.5625 0.375 2.2
0.625 0.375 2.2625
0.5625 0.375 2.325
0.5625 0.3125 2.2
0.625 0.3125 2.2625
0.5625 0.3125 2.325
0.5625 0.375 2.2625
0.5625 0.3125 2.2625
0.75 0.3125 2.2
0.75 0.3125 2.325
0.6875 0.375 2.2
0.75 0.375 2.2625
0.6875 0.375 2.325
0.6875 0.3125 2.2
0.75 0.3125 2.2625
0.6875 0.3125 2.325
0.6875 0.375 2.2625
0.6875 0.3125 2.2625
0.875 0.3125 2.2
0.875 0.3125 2.325
0.8125 0.375 2.2
0.875 0.375 2.2625
0.8125 0.375 2.325
0.8125 0.3125 2.2
0.875 0.3125 2.2625
0.8125 0.3125 2.325
0.8125 0.375 2.2625
0.8125 0.3125 2.2625
1 0.3125 2.2
1 0.3125 2.325
0.9375 0.375 2.2
1 0.375 2.2625
0.9375 0.375 2.325
0.9375 0.3125 2.2
1 0.3125 2.2625
0.9375 0.3125 2.325
0.9375 0.375 2.2625
0.9375 0.3125 2.2625
1.125 0.3125 2.2
1.125 0.3125 2.325
1.0625 0.375 2.2
1.125 0.375 2.2625
1.0625 0.375 2.325
1.0625 0.3125 2.2
1.125 0.3125 2.2625
1.0625 0.3125 2.325
1.0625 0.375 2.2625
1.0625 0.3125 2.2625
1.25 0.3125 2.2
1.25 0.3125 2.325
1.1875 0.375 2.2
1.25 0.375 2.2625
1.1875 0.375 2.325
1.1875 0.3125 2.2
1.25 0.3125 2.2625
1.1875 0.3125 2.325
1.1875 0.375 2.2625
1.1875 0.3125 2.2625
1.375 0.3125 2.2
1.375 0.3125 2.325
1.3125 0.375 2.2
1.375 0.375 2.2625
1.3125 0.375 2.325
1.3125 0.3125 2.2
1.375 0.3125 2.2625
1.3125 0.3125 2.325
1.3125 0.375 2.2625
1.3125 0.3125 2.2625
1.5 0.3125 2.2
1.5 0.3125 2.325
1.4375 0.375 2.2
1.5 0.375 2.2625
1.4375 0.375 2.325
1.4375 0.3125 2.2
1.5 0.3125 2.2625
1.4375 0.3125 2.325
1.4375 0.375 2.2625
1.4375 0.3125 2.2625
1.625 0.3125 2.2
1.625 0.3125 2.325
1.5625 0.375 2.2
1.625 0.375 2.2625
1.5625 0.375 2.325
1.5625 0.3125 2.2
1.625 0.3125 2.2625
1.5625 0.3125 2.325
1.5625 0.375 2.2625
1.5625 0.3125 2.2625
1.75 0.3125 2.2
1.75 0.3125 2.325
1.6875 0.375 2.2
1.75 0.375 2.2625
1.6875 0.375 2.325
1.6875 0.3125 2.2
1.75 0.3125 2.2625
1.6875 0.3125 2.325
1.6875 0.375 2.2625
1.6875 0.3125 2.2625
1.875 0.3125 2.2
1.875 0.3125 2.325
1.8125 0.375 2.2
1.875 0.375 2.2625
1.8125 0.375 2.325
1.8125 0.3125 2.2
1.875 0.3125 2.2625
1.8125 0.3125 2.325
1.8125 0.375 2.2625
1.8125 0.3125 2.2625
2 0.3125 2.2
2 0.3125 2.325
1.9375 0.375 2.2
2 0.375 2.2625
1.9375 0.375 2.325
1.9375 0.3125 2.2
2 0.3125 2.2625
1.9375 0.3125 2.325
1.9375 0.375 2.2625
1.9375 0.3125 2.2625
2.125 0.3125 2.2
2.125 0.3125 2.325
2.0625 0.375 2.2
2.125 0.375 2.2625
2.0625 0.375 2.325
2.0625 0.3125 2.2
2.125 0.3125 2.2625
2.0625 0.3125 2.325
2.0625 0.375 2.2625
2.0625 0.3125 2.2625
2.25 0.3125 2.2
2.25 0.3125 2.325
2.1875 0.375 2.2
2.25 0.375 2.2625
2.1875 0.375 2.325
2.1875 0.3125 2.2
2.25 0.3125 2.2625
2.1875 0.3125 2.325
2.1875 0.375 2.2625
2.1875 0.3125 2.2625
2.375 0.3125 2.2
2.375 0.3125 2.325
2.3125 0.375 2.2
2.375 0.375 2.2625
2.3125 0.375 2.325
2.3125 0.3125 2.2
2.375 0.3125 2.2625
2.3125 0.3125 2.325
2.3125 0.375 2.2625
2.3125 0.3125 2.2625
2.5 0.3125 2.2
2.5 0.3125 2.325
2.4375 0.375 2.2
2.5 0.375 2.2625
2.4375 0.375 2.325
2.4375 0.3125 2.2
2.5 0.3125 2.2625
2.4375 0.3125 2.325
2.4375 0.375 2.2625
2.4375 0.3125 2.2625
2.625 0.3125 2.2
2.625 0.3125 2.325
2.5625 0.375 2.2
2.625 0.375 2.2625
2.5625 0.375 2.325
2.5625 0.3125 2.2
2.625 0.3125 2.2625
2.5625 0.3125 2.325
2.5625 0.375 2.2625
2.5625 0.3125 2.2625
2.75 0.3125 2.2
2.75 0.3125 2.325
2.6875 0.375 2.2
2.75 0.375 2.2625
2.6875 0.375 2.325
2.6875 0.3125 2.2
2.75 0.3125 2.2625
2.6875 0.3125 2.325
2.6875 0.375 2.2625
2.6875 0.3125 2.2625
2.875 0.3125 2.2
2.875 0.3125 2.325
2.8125 0.375 2.2
2.875 0.375 2.2625
2.8125 0.375 2.325
2.8125 0.3125 2.2
2.875 0.3125 2.2625
2.8125 0.3125 2.325
2.8125 0.375 2.2625
2.8125 0.3125 2.2625
3 0.3125 2.2
3 0.3125 2.325
2.9375 0.375 2.2
3 0.375 2.2625
2.9375 0.375 2.325
2.9375 0.3125 2.2
3 0.3125 2.2625
2.9375 0.3125 2.325
2.9375 0.375 2.2625
2.9375 0.3125 2.2625
0 0.4375 2.2
0.125 0.4375 2.2
0.125 0.4375 2.325
0 0.4375 2.325
0.0625 0.5 2.2
0.125 0.5 2.2625
0.0625 0.5 2.325
0 0.5 2.2625
0.0625 0.4375 2.2
0.125 0.4375 2.2625
0.0625 0.4375 2.325
0 0.4375 2.2625
0.0625 0.5 2.2625
0.0625 0.4375 2.2625
0.25 0.4375 2.2
0.25 0.4375 2.325
0.1875 0.5 2.2
0.25 0.5 2.2625
0.1875 0.5 2.325
0.1875 0.4375 2.2
0.25 0.4375 2.2625
0.1875 0.4375 2.325
0.1875 0.5 2.2625
0.1875 0.4375 2.2625
0.375 0.4375 2.2
0.375 0.4375 2.325
0.3125 0.5 2.2
0.375 0.5 2.2625
0.3125 0.5 2.325
0.3125 0.4375 2.2
0.375 0.4375 2.2625
0.3125 0.4375 2.325
0.3125 0.5 2.2625
0.3125 0.4375 2.2625
0.5 0.4375 2.2
0.5 0.4375 2.325
0.4375 0.5 2.2
0.5 0.5 2.2625
0.4375 0.5 2.325
0.4375 0.4375 2.2
0.5 0.4375 2.2625
0.4375 0.4375 2.325
0.4375 0.5 2.2625
0.4375 0.4375 2.2625
0.625 0.4375 2.2
0.625 0.4375 2.325
0.5625 0.5 2.2
0.625 0.5 2.2625
0.5625 0.5 2.325
0.5625 0.4375 2.2
0.625 0.4375 2.2625
0.5625 0.4375 2.325
0.5625 0.5 2.2625
0.5625 0.4375 2.2625
0.75 0.4375 2.2
0.75 0.4375 2.325
0.6875 0.5 2.2
0.75 0.5 2.2625
0.6875 0.5 2.325
0.6875 0.4375 2.2
0.75 0.4375 2.2625
0.6875 0.4375 2.325
0.6875 0.5 2.2625
0.6875 0.4375 2.2625
0.875 0.4375 2.2
0.875 0.4375 2.325
0.8125 0.5 2.2
0.875 0.5 2.2625
0.8125 0.5 2.325
0.8125 0.4375 2.2
0.875 0.4375 2.2625
0.8125 0.4375 2.325
0.8125 0.5 2.2625
0.8125 0.4375 2.2625
1 0.4375 2.2
1 0.4375 2.325
0.9375 0.5 2.2
1 0.5 2.2625
0.9375 0.5 2.325
0.9375 0.4375 2.2
1 0.4375 2.2625
0.9375 0.4375 2.325
0.9375 0.5 2.2625
0.9375 0.4375 2.2625
1.125 0.4375 2.2
1.125 0.4375 2.325
1.0625 0.5 2.2
1.125 0.5 2.2625
1.0625 0.5 2.325
1.0625 0.4375 2.2
1.125 0.4375 2.2625
1.0625 0.4375 2.325
1.0625 0.5 2.2625
1.0625 0.4375 2.2625
1.25 0.4375 2.2
1.25 0.4375 2.325
1.1875 0.5 2.2
1.25 0.5 2.2625
1.1875 0.5 2.325
1.1875 0.4375 2.2
1.25 0.4375 2.2625
1.1875 0.4375 2.325
1.1875 0.5 2.2625
1.1875 0.4375 2.2625
1.375 0.4375 2.2
1.375 0.4375 2.325
1.3125 0.5 2.2
1.375 0.5 2.2625
1.3125 0.5 2.325
1.3125 0.4375 2.2
1.375 0.4375 2.2625
1.3125 0.4375 2.325
1.3125 0.5 2.2625
1.3125 0.4375 2.2625
1.5 0.4375 2.2
1.5 0.4375 2.325
1.4375 0.5 2.2
1.5 0.5 2.2625
1.4375 0.5 2.325
1.4375 0.4375 2.2
1.5 0.4375 2.2625
1.4375 0.4375 2.325
1.4375 0.5 2.2625
1.4375 0.4375 2.2625
1.625 0.4375 2.2
1.625 0.4375 2.325
1.5625 0.5 2.2
1.625 0.5 2.2625
1.5625 0.5 2.325
1.5625 0.4375 2.2
1.625 0.4375 2.2625
1.5625 0.4375 2.325
1.5625 0.5 2.2625
1.5625 0.4375 2.2625
1.75 0.4375 2.2
1.75 0.4375 2.325
1.6875 0.5 2.2
1.75 0.5 2.2625
1.6875 0.5 2.325
1.6875 0.4375 2.2
1.75 0.4375 2.2625
1.6875 0.4375 2.325
1.6875 0.5 2.2625
1.6875 0.4375 2.2625
1.875 0.4375 2.2
1.875 0.4375 2.325
1.8125 0.5 2.2
1.875 0.5 2.2625
1.8125 0.5 2.325
1.8125 0.4375 2.2
1.875 0.4375 2.2625
1.8125 0.4375 2.325
1.8125 0.5 2.2625
1.8125 0.4375 2.2625
2 0.4375 2.2
2 0.4375 2.325
1.9375 0.5 2.2
2 0.5 2.2625
1.9375 0.5 2.325
1.9375 0.4375 2.2
2 0.4375 2.2625
1.9375 0.4375 2.325
1.9375 0.5 2.2625
1.9375 0.4375 2.2625
2.125 0.4375 2.2
2.125 0.4375 2.325
2.0625 0.5 2.2
2.125 0.5 2.2625
2.0625 0.5 2.325
2.0625 0.4375 2.2
2.125 0.4375 2.2625
2.0625 0.4375 2.325
2.0625 0.5 2.2625
2.0625 0.4375 2.2625
2.25 0.4375 2.2
2.25 0.4375 2.325
2.1875 0.5 2.2
2.25 0.5 2.2625
2.1875 0.5 2.325
2.1875 0.4375 2.2
2.25 0.4375 2.2625
2.1875 0.4375 2.325
2.1875 0.5 2.2625
2.1875 0.4375 2.2625
2.375 0.4375 2.2
2.375 0.4375 2.325
2.3125 0.5 2.2
2.375 0.5 2.2625
2.3125 0.5 2.325
2.3125 0.4375 2.2
2.375 0.4375 2.2625
2.3125 0.4375 2.325
2.3125 0.5 2.2625
2.3125 0.4375 2.2625
2.5 0.4375 2.2
2.5 0.4375 2.325
2.4375 0.5 2.2
2.5 0.5 2.2625
2.4375 0.5 2.325
2.4375 0.4375 2.2
2.5 0.4375 2.2625
2.4375 0.4375 2.325
2.4375 0.5 2.2625
2.4375 0.4375 2.2625
2.625 0.4375 2.2
2.625 0.4375 2.325
2.5625 0.5 2.2
2.625 0.5 2.2625
2.5625 0.5 2.325
2.5625 0.4375 2.2
2.625 0.4375 2.2625
2.5625 0.4375 2.325
2.5625 0.5 2.2625
2.5625 0.4375 2.2625
2.75 0.4375 2.2
2.75 0.4375 2.325
2.6875 0.5 2.2
2.75 0.5 2.2625
2.6875 0.5 2.325
2.6875 0.4375 2.2
2.75 0.4375 2.2625
2.6875 0.4375 2.325
2.6875 0.5 2.2625
2.6875 0.4375 2.2625
2.875 0.4375 2.2
2.875 0.4375 2.325
2.8125 0.5 2.2
2.875 0.5 2.2625
2.8125 0.5 2.325
2.8125 0.4375 2.2
2.875 0.4375 2.2625
2.8125 0.4375 2.325
2.8125 0.5 2.2625
2.8125 0.4375 2.2625
3 0.4375 2.2
3 0.4375 2.325
2.9375 0.5 2.2
3 0.5 2.2625
2.9375 0.5 2.325
2.9375 0.4375 2.2
3 0.4375 2.2625
2.9375 0.4375 2.325
2.9375 0.5 2.2625
2.9375 0.4375 2.2625
0 0.5625 2.2
0.125 0.5625 2.2
0.125 0.5625 2.325
0 0.5625 2.325
0.0625 0.625 2.2
0.125 0.625 2.2625
0.0625 0.625 2.325
0 0.625 2.2625
0.0625 0.5625 2.2
0.125 0.5625 2.2625
0.0625 0.5625 2.325
0 0.5625 2.2625
0.0625 0.625 2.2625
0.0625 0.5625 2.2625
0.25 0.5625 2.2
0.25 0.5625 2.325
0.1875 0.625 2.2
0.25 0.625 2.2625
0.1875 0.625 2.325
0.1875 0.5625 2.2
0.25 0.5625 2.2625
0.1875 0.5625 2.325
0.1875 0.625 2.2625
0.1875 0.5625 2.2625
0.375 0.5625 2.2
0.375 0.5625 2.325
0.3125 0.625 2.2
0.375 0.625 2.2625
0.3125 0.625 2.325
0.3125 0.5625 2.2
0.375 0.5625 2.2625
0.3125 0.5625 2.325
0.3125 0.625 2.2625
0.3125 0.5625 2.2625
0.5 0.5625 2.2
0.5 0.5625 2.325
0.4375 0.625 2.2
0.5 0.625 2.2625
0.4375 0.625 2.325
0.4375 0.5625 2.2
0.5 0.5625 2.2625
0.4375 0.5625 2.325
0.4375 0.625 2.2625
0.4375 0.5625 2.2625
0.625 0.5625 2.2
0.625 0.5625 2.325
0.5625 0.625 2.2
0.625 0.625 2.2625
0.5625 0.625 2.325
0.5625 0.5625 2.2
0.625 0.5625 2.2625
0.5625 0.5625 2.325
0.5625 0.625 2.2625
0.5625 0.5625 2.2625
0.75 0.5625 2.2
0.75 0.5625 2.325
0.6875 0.625 2.2
0.75 0.625 2.2625
0.6875 0.625 2.325
0.6875 0.5625 2.2
0.75 0.5625 2.2625
0.6875 0.5625 2.325
0.6875 0.625 2.2625
0.6875 0.5625 2.2625
0.875 0.5625 2.2
0.875 0.5625 2.325
0.8125 0.625 2.2
0.875 0.625 2.2625
0.8125 0.625 2.325
0.8125 0.5625 2.2
0.875 0.5625 2.2625
0.8125 0.5625 2.325
0.8125 0.625 2.2625
0.8125 0.5625 2.2625
1 0.5625 2.2
1 0.5625 2.325
0.9375 0.625 2.2
1 0.625 2.2625
0.9375 0.625 2.325
0.9375 0.5625 2.2
1 0.5625 2.2625
0.9375 0.5625 2.325
0.9375 0.625 2.2625
0.9375 0.5625 2.2625
1.125 0.5625 2.2
1.125 0.5625 2.325
1.0625 0.625 2.2
1.125 0.625 2.2625
1.0625 0.625 2.325
1.0625 0.5625 2.2
1.125 0.5625 2.2625
1.0625 0.5625 2.325
1.0625 0.625 2.2625
1.0625 0.5625 2.2625
1.25 0.5625 2.2
1.25 0.5625 2.325
1.1875 0.625 2.2
1.25 0.625 2.2625
1.1875 0.625 2.325
1.1875 0.5625 2.2
1.25 0.5625 2.2625
1.1875 0.5625 2.325
1.1875 0.625 2.2625
1.1875 0.5625 2.2625
1.375 0.5625 2.2
1.375 0.5625 2.325
1.3125 0.625 2.2
1.375 0.625 2.2625
1.3125 0.625 2.325
1.3125 0.5625 2.2
1.375 0.5625 2.2625
1.3125 0.5625 2.325
1.3125 0.625 2.2625
1.3125 0.5625 2.2625
1.5 0.5625 2.2
1.5 0.5625 2.325
1.4375 0.625 2.2
1.5 0.625 2.2625
1.4375 0.625 2.325
1.4375 0.5625 2.2
1.5 0.5625 2.2625
1.4375 0.5625 2.325
1.4375 0.625 2.2625
1.4375 0.5625 2.2625
1.625 0.5625 2.2
1.625 0.5625 2.325
1.5625 0.625 2.2
1.625 0.625 2.2625
1.5625 0.625 2.325
1.5625 0.5625 2.2
1.625 0.5625 2.2625
1.5625 0.5625 2.325
1.5625 0.625 2.2625
1.5625 0.5625 2.2625
1.75 0.5625 2.2
1.75 0.5625 2.325
1.6875 0.625 2.2
1.75 0.625 2.2625
1.6875 0.625 2.325
1.6875 0.5625 2.2
1.75 0.5625 2.2625
1.6875 0.5625 2.325
1.6875 0.625 2.2625
1.6875 0.5625 2.2625
1.875 0.5625 2.2
1.875 0.5625 2.325
1.8125 0.625 2.2
1.875 0.625 2.2625
1.8125 0.625 2.325
1.8125 0.5625 2.2
1.875 0.5625 2.2625
1.8125 0.5625 2.325
1.8125 0.625 2.2625
1.8125 0.5625 2.2625
2 0.5625 2.2
2 0.5625 2.325
1.9375 0.625 2.2
2 0.625 2.2625
1.9375 0.625 2.325
1.9375 0.5625 2.2
2 0.5625 2.2625
1.9375 0.5625 2.325
1.9375 0.625 2.2625
1.9375 0.5625 2.2625
2.125 0.5625 2.2
2.125 0.5625 2.325
2.0625 0.625 2.2
2.125 0.625 2.2625
2.0625 0.625 2.325
2.0625 0.5625 2.2
2.125 0.5625 2.2625
2.0625 0.5625 2.325
2.0625 0.625 2.2625
2.0625 0.5625 2.2625
2.25 0.5625 2.2
2.25 0.5625 2.325
2.1875 0.625 2.2
2.25 0.625 2.2625
2.1875 0.625 2.325
2.1875 0.5625 2.2
2.25 0.5625 2.2625
2.1875 0.5625 2.325
2.1875 0.625 2.2625
2.1875 0.5625 2.2625
2.375 0.5625 2.2
2.375 0.5625 2.325
2.3125 0.625 2.2
2.375 0.625 2.2625
2.3125 0.625 2.325
2.3125 0.5625 2.2
2.375 0.5625 2.2625
2.3125 0.5625 2.325
2.3125 0.625 2.2625
2.3125 0.5625 2.2625
2.5 0.5625 2.2
2.5 0.5625 2.325
2.4375 0.625 2.2
2.5 0.625 2.2625
2.4375 0.625 2.325
2.4375 0.5625 2.2
2.5 0.5625 2.2625
2.4375 0.5625 2.325
2.4375 0.625 2.2625
2.4375 0.5625 2.2625
2.625 0.5625 2.2
2.625 0.5625 2.325
2.5625 0.625 2.2
2.625 0.625 2.2625
2.5625 0.625 2.325
2.5625 0.5625 2.2
2.625 0.5625 2.2625
2.5625 0.5625 2.325
2.5625 0.625 2.2625
2.5625 0.5625 2.2625
2.75 0.5625 2.2
2.75 0.5625 2.325
2.6875 0.625 2.2
2.75 0.625 2.2625
2.6875 0.625 2.325
2.6875 0.5625 2.2
2.75 0.5625 2.2625
2.6875 0.5625 2.325
2.6875 0.625 2.2625
2.6875 0.5625 2.2625
2.875 0.5625 2.2
2.875 0.5625 2.325
2.8125 0.625 2.2
2.875 0.625 2.2625
2.8125 0.625 2.325
2.8125 0.5625 2.2
2.875 0.5625 2.2625
2.8125 0.5625 2.325
2.8125 0.625 2.2625
2.8125 0.5625 2.2625
3 0.5625 2.2
3 0.5625 2.325
2.9375 0.625 2.2
3 0.625 2.2625
2.9375 0.625 2.325
2.9375 0.5625 2.2
3 0.5625 2.2625
2.9375 0.5625 2.325
2.9375 0.625 2.2625
2.9375 0.5625 2.2625
0 0.6875 2.2
0.125 0.6875 2.2
0.125 0.6875 2.325
0 0.6875 2.325
0.0625 0.75 2.2
0.125 0.75 2.2625
0.0625 0.75 2.325
0 0.75 2.2625
0.0625 0.6875 2.2
0.125 0.6875 2.2625
0.0625 0.6875 2.325
0 0.6875 2.2625
0.0625 0.75 2.2625
0.0625 0.6875 2.2625
0.25 0.6875 2.2
0.25 0.6875 2.325
0.1875 0.75 2.2
0.25 0.75 2.2625
0.1875 0.75 2.325
0.1875 0.6875 2.2
0.25 0.6875 2.2625
0.1875 0.6875 2.325
0.1875 0.75 2.2625
0.1875 0.6875 2.2625
0.375 0.6875 2.2
0.375 0.6875 2.325
0.3125 0.75 2.2
0.375 0.75 2.2625
0.3125 0.75 2.325
0.3125 0.6875 2.2
0.375 0.6875 2.2625
0.3125 0.6875 2.325
0.3125 0.75 2.2625
0.3125 0.6875 2.2625
0.5 0.6875 2.2
0.5 0.6875 2.325
0.4375 0.75 2.2
0.5 0.75 2.2625
0.4375 0.75 2.325
0.4375 0.6875 2.2
0.5 0.6875 2.2625
0.4375 0.6875 2.325
0.4375 0.75 2.2625
0.4375 0.6875 2.2625
0.625 0.6875 2.2
0.625 0.6875 2.325
0.5625 0.75 2.2
0.625 0.75 2.2625
0.5625 0.75 2.325
0.5625 0.6875 2.2
0.625 0.6875 2.2625
0.5625 0.6875 2.325
0.5625 0.75 2.2625
0.5625 0.6875 2.2625
0.75 0.6875 2.2
0.75 0.6875 2.325
0.6875 0.75 2.2
0.75 0.75 2.2625
0.6875 0.75 2.325
0.6875 0.6875 2.2
0.75 0.6875 2.2625
0.6875 0.6875 2.325
0.6875 0.75 2.2625
0.6875 0.6875 2.2625
0.875 0.6875 2.2
0.875 0.6875 2.325
0.8125 0.75 2.2
0.875 0.75 2.2625
0.8125 0.75 2.325
0.8125 0.6875 2.2
0.875 0.6875 2.2625
0.8125 0.6875 2.325
0.8125 0.75 2.2625
0.8125 0.6875 2.2625
1 0.6875 2.2
1 0.6875 2.325
0.9375 0.75 2.2
1 0.75 2.2625
0.9375 0.75 2.325
0.9375 0.6875 2.2
1 0.6875 2.2625
0.9375 0.6875 2.325
0.9375 0.75 2.2625
0.9375 0.6875 2.2625
1.125 0.6875 2.2
1.125 0.6875 2.325
1.0625 0.75 2.2
1.125 0.75 2.2625
1.0625 0.75 2.325
1.0625 0.6875 2.2
1.125 0.6875 2.2625
1.0625 0.6875 2.325
1.0625 0.75 2.2625
1.0625 0.6875 2.2625
1.25 0.6875 2.2
1.25 0.6875 2.325
1.1875 0.75 2.2
1.25 0.75 2.2625
1.1875 0.75 2.325
1.1875 0.6875 2.2
1.25 0.6875 2.2625
1.1875 0.6875 2.325
1.1875 0.75 2.2625
1.1875 0.6875 2.2625
1.375 0.6875 2.2
1.375 0.6875 2.325
1.3125 0.75 2.2
1.375 0.75 2.2625
1.3125 0.75 2.325
1.3125 0.6875 2.2
1.375 0.6875 2.2625
1.3125 0.6875 2.325
1.3125 0.75 2.2625
1.3125 0.6875 2.2625
1.5 0.6875 2.2
1.5 0.6875 2.325
1.4375 0.75 2.2
1.5 0.75 2.2625
1.4375 0.75 2.325
1.4375 0.6875 2.2
1.5 0.6875 2.2625
1.4375 0.6875 2.325
1.4375 0.75 2.2625
1.4375 0.6875 2.2625
1.625 0.6875 2.2
1.625 0.6875 2.325
1.5625 0.75 2.2
1.625 0.75 2.2625
1.5625 0.75 2.325
1.5625 0.6875 2.2
1.625 0.6875 2.2625
1.5625 0.6875 2.325
1.5625 0.75 2.2625
1.5625 0.6875 2.2625
1.75 0.6875 2.2
1.75 0.6875 2.325
1.6875 0.75 2.2
1.75 0.75 2.2625
1.6875 0.75 2.325
1.6875 0.6875 2.2
1.75 0.6875 2.2625
1.6875 0.6875 2.325
1.6875 0.75 2.2625
1.6875 0.6875 2.2625
1.875 0.6875 2.2
1.875 0.6875 2.325
1.8125 0.75 2.2
1.875 0.75 2.2625
1.8125 0.75 2.325
1.8125 0.6875 2.2
1.875 0.6875 2.2625
1.8125 0.6875 2.325
1.8125 0.75 2.2625
1.8125 0.6875 2.2625
2 0.6875 2.2
2 0.6875 2.325
1.9375 0.75 2.2
2 0.75 2.2625
1.9375 0.75 2.325
1.9375 0.6875 2.2
2 0.6875 2.2625
1.9375 0.6875 2.325
1.9375 0.75 2.2625
1.9375 0.6875 2.2625
2.125 0.6875 2.2
2.125 0.6875 2.325
2.0625 0.75 2.2
2.125 0.75 2.2625
2.0625 0.75 2.325
2.0625 0.6875 2.2
2.125 0.6875 2.2625
2.0625 0.6875 2.325
2.0625 0.75 2.2625
2.0625 0.6875 2.2625
2.25 0.6875 2.2
2.25 0.6875 2.325
2.1875 0.75 2.2
2.25 0.75 2.2625
2.1875 0.75 2.325
2.1875 0.6875 2.2
2.25 0.6875 2.2625
2.1875 0.6875 2.325
2.1875 0.75 2.2625
2.1875 0.6875 2.2625
2.375 0.6875 2.2
2.375 0.6875 2.325
2.3125 0.75 2.2
2.375 0.75 2.2625
2.3125 0.75 2.325
2.3125 0.6875 2.2
2.375 0.6875 2.2625
2.3125 0.6875 2.325
2.3125 0.75 2.2625
2.3125 0.6875 2.2625
2.5 0.6875 2.2
2.5 0.6875 2.325
2.4375 0.75 2.2
2.5 0.75 2.2625
2.4375 0.75 2.325
2.4375 0.6875 2.2
2.5 0.6875 2.2625
2.4375 0.6875 2.325
2.4375 0.75 2.2625
2.4375 0.6875 2.2625
2.625 0.6875 2.2
2.625 0.6875 2.325
2.5625 0.75 2.2
2.625 0.75 2.2625
2.5625 0.75 2.325
2.5625 0.6875 2.2
2.625 0.6875 2.2625
2.5625 0.6875 2.325
2.5625 0.75 2.2625
2.5625 0.6875 2.2625
2.75 0.6875 2.2
2.75 0.6875 2.325
2.6875 0.75 2.2
2.75 0.75 2.2625
2.6875 0.75 2.325
2.6875 0.6875 2.2
2.75 0.6875 2.2625
2.6875 0.6875 2.325
2.6875 0.75 2.2625
2.6875 0.6875 2.2625
2.875 0.6875 2.2
2.875 0.6875 2.325
2.8125 0.75 2.2
2.875 0.75 2.2625
2.8125 0.75 2.325
2.8125 0.6875 2.2
2.875 0.6875 2.2625
2.8125 0.6875 2.325
2.8125 0.75 2.2625
2.8125 0.6875 2.2625
3 0.6875 2.2
3 0.6875 2.325
2.9375 0.75 2.2
3 0.75 2.2625
2.9375 0.75 2.325
2.9375 0.6875 2.2
3 0.6875 2.2625
2.9375 0.6875 2.325
2.9375 0.75 2.2625
2.9375 0.6875 2.2625
0 0.8125 2.2
0.125 0.8125 2.2
0.125 0.8125 2.325
0 0.8125 2.325
0.0625 0.875 2.2
0.125 0.875 2.2625
0.0625 0.875 2.325
0 0.875 2.2625
0.0625 0.8125 2.2
0.125 0.8125 2.2625
0.0625 0.8125 2.325
0 0.8125 2.2625
0.0625 0.875 2.2625
0.0625 0.8125 2.2625
0.25 0.8125 2.2
0.25 0.8125 2.325
0.1875 0.875 2.2
0.25 0.875 2.2625
0.1875 0.875 2.325
0.1875 0.8125 2.2
0.25 0.8125 2.2625
0.1875 0.8125 2.325
0.1875 0.875 2.2625
0.1875 0.8125 2.2625
0.375 0.8125 2.2
0.375 0.8125 2.325
0.3125 0.875 2.2
0.375 0.875 2.2625
0.3125 0.875 2.325
0.3125 0.8125 2.2
0.375 0.8125 2.2625
0.3125 0.8125 2.325
0.3125 0.875 2.2625
0.3125 0.8125 2.2625
0.5 0.8125 2.2
0.5 0.8125 2.325
0.4375 0.875 2.2
0.5 0.875 2.2625
0.4375 0.875 2.325
0.4375 0.8125 2.2
0.5 0.8125 2.2625
0.4375 0.8125 2.325
0.4375 0.875 2.2625
0.4375 0.8125 2.2625
0.625 0.8125 2.2
0.625 0.8125 2.325
0.5625 0.875 2.2
0.625 0.875 2.2625
0.5625 0.875 2.325
0.5625 0.8125 2.2
0.625 0.8125 2.2625
0.5625 0.8125 2.325
0.5625 0.875 2.2625
0.5625 0.8125 2.2625
0.75 0.8125 2.2
0.75 0.8125 2.325
0.6875 0.875 2.2
0.75 0.875 2.2625
0.6875 0.875 2.325
0.6875 0.8125 2.2
0.75 0.8125 2.2625
0.6875 0.8125 2.325
0.6875 0.875 2.2625
0.6875 0.8125 2.2625
0.875 0.8125 2.2
0.875 0.8125 2.325
0.8125 0.875 2.2
0.875 0.875 2.2625
0.8125 0.875 2.325
0.8125 0.8125 2.2
0.875 0.8125 2.2625
0.8125 0.8125 2.325
0.8125 0.875 2.2625
0.8125 0.8125 2.2625
1 0.8125 2.2
1 0.8125 2.325
0.9375 0.875 2.2
1 0.875 2.2625
0.9375 0.875 2.325
0.9375 0.8125 2.2
1 0.8125 2.2625
0.9375 0.8125 2.325
0.9375 0.875 2.2625
0.9375 0.8125 2.2625
1.125 0.8125 2.2
1.125 0.8125 2.325
1.0625 0.875 2.2
1.125 0.875 2.2625
1.0625 0.875 2.325
1.0625 0.8125 2.2
1.125 0.8125 2.2625
1.0625 0.8125 2.325
1.0625 0.875 2.2625
1.0625 0.8125 2.2625
1.25 0.8125 2.2
1.25 0.8125 2.325
1.1875 0.875 2.2
1.25 0.875 2.2625
1.1875 0.875 2.325
1.1875 0.8125 2.2
1.25 0.8125 2.2625
1.1875 0.8125 2.325
1.1875 0.875 2.2625
1.1875 0.8125 2.2625
1.375 0.8125 2.2
1.375 0.8125 2.325
1.3125 0.875 2.2
1.375 0.875 2.2625
1.3125 0.875 2.325
1.3125 0.8125 2.2
1.375 0.8125 2.2625
1.3125 0.8125 2.325
1.3125 0.875 2.2625
1.3125 0.8125 2.2625
1.5 0.8125 2.2
1.5 0.8125 2.325
1.4375 0.875 2.2
1.5 0.875 2.2625
1.4375 0.875 2.325
1.4375 0.8125 2.2
1.5 0.8125 2.2625
1.4375 0.8125 2.325
1.4375 0.875 2.2625
1.4375 0.8125 2.2625
1.625 0.8125 2.2
1.625 0.8125 2.325
1.5625 0.875 2.2
1.625 0.875 2.2625
1.5625 0.875 2.325
1.5625 0.8125 2.2
1.625 0.8125 2.2625
1.5625 0.8125 2.325
1.5625 0.875 2.2625
1.5625 0.8125 2.2625
1.75 0.8125 2.2
1.75 0.8125 2.325
1.6875 0.875 2.2
1.75 0.875 2.2625
1.6875 0.875 2.325
1.6875 0.8125 2.2
1.75 0.8125 2.2625
1.6875 0.8125 2.325
1.6875 0.875 2.2625
1.6875 0.8125 2.2625
1.875 0.8125 2.2
1.875 0.8125 2.325
1.8125 0.875 2.2
1.875 0.875 2.2625
1.8125 0.875 2.325
1.8125 0.8125 2.2
1.875 0.8125 2.2625
1.8125 0.8125 2.325
1.8125 0.875 2.2625
1.8125 0.8125 2.2625
2 0.8125 2.2
2 0.8125 2.325
1.9375 0.875 2.2
2 0.875 2.2625
1.9375 0.875 2.325
1.9375 0.8125 2.2
2 0.8125 2.2625
1.9375 0.8125 2.325
1.9375 0.875 2.2625
1.9375 0.8125 2.2625
2.125 0.8125 2.2
2.125 0.8125 2.325
2.0625 0.875 2.2
2.125 0.875 2.2625
2.0625 0.875 2.325
2.0625 0.8125 2.2
2.125 0.8125 2.2625
2.0625 0.8125 2.325
2.0625 0.875 2.2625
2.0625 0.8125 2.2625
2.25 0.8125 2.2
2.25 0.8125 2.325
2.1875 0.875 2.2
2.25 0.875 2.2625
2.1875 0.875 2.325
2.1875 0.8125 2.2
2.25 0.8125 2.2625
2.1875 0.8125 2.325
2.1875 0.875 2.2625
2.1875 0.8125 2.2625
2.375 0.8125 2.2
2.375 0.8125 2.325
2.3125 0.875 2.2
2.375 0.875 2.2625
2.3125 0.875 2.325
2.3125 0.8125 2.2
2.375 0.8125 2.2625
2.3125 0.8125 2.325
2.3125 0.875 2.2625
2.3125 0.8125 2.2625
2.5 0.8125 2.2
2.5 0.8125 2.325
2.4375 0.875 2.2
2.5 0.875 2.2625
2.4375 0.875 2.325
2.4375 0.8125 2.2
2.5 0.8125 2.2625
2.4375 0.8125 2.325
2.4375 0.875 2.2625
2.4375 0.8125 2.2625
2.625 0.8125 2.2
2.625 0.8125 2.325
2.5625 0.875 2.2
2.625 0.875 2.2625
2.5625 0.875 2.325
2.5625 0.8125 2.2
2.625 0.8125 2.2625
2.5625 0.8125 2.325
2.5625 0.875 2.2625
2.5625 0.8125 2.2625
2.75 0.8125 2.2
2.75 0.8125 2.325
2.6875 0.875 2.2
2.75 0.875 2.2625
2.6875 0.875 2.325
2.6875 0.8125 2.2
2.75 0.8125 2.2625
2.6875 0.8125 2.325
2.6875 0.875 2.2625
2.6875 0.8125 2.2625
2.875 0.8125 2.2
2.875 0.8125 2.325
2.8125 0.875 2.2
2.875 0.875 2.2625
2.8125 0.875 2.325
2.8125 0.8125 2.2
2.875 0.8125 2.2625
2.8125 0.8125 2.325
2.8125 0.875 2.2625
2.8125 0.8125 2.2625
3 0.8125 2.2
3 0.8125 2.325
2.9375 0.875 2.2
3 0.875 2.2625
2.9375 0.875 2.325
2.9375 0.8125 2.2
3 0.8125 2.2625
2.9375 0.8125 2.325
2.9375 0.875 2.2625
2.9375 0.8125 2.2625
0 0.9375 2.2
0.125 0.9375 2.2
0.125 0.9375 2.325
0 0.9375 2.325
0.0625 1 2.2
0.125 1 2.2625
0.0625 1 2.325
0 1 2.2625
0.0625 0.9375 2.2
0.125 0.9375 2.2625
0.0625 0.9375 2.325
0 0.9375 2.2625
0.0625 1 2.2625
0.0625 0.9375 2.2625
0.25 0.9375 2.2
0.25 0.9375 2.325
0.1875 1 2.2
0.25 1 2.2625
0.1875 1 2.325
0.1875 0.9375 2.2
0.25 0.9375 2.2625
0.1875 0.9375 2.325
0.1875 1 2.2625
0.1875 0.9375 2.2625
0.375 0.9375 2.2
0.375 0.9375 2.325
0.3125 1 2.2
0.375 1 2.2625
0.3125 1 2.325
0.3125 0.9375 2.2
0.375 0.9375 2.2625
0.3125 0.9375 2.325
0.3125 1 2.2625
0.3125 0.9375 2.2625
0.5 0.9375 2.2
0.5 0.9375 2.325
0.4375 1 2.2
0.5 1 2.2625
0.4375 1 2.325
0.4375 0.9375 2.2
0.5 0.9375 2.2625
0.4375 0.9375 2.325
0.4375 1 2.2625
0.4375 0.9375 2.2625
0.625 0.9375 2.2
0.625 0.9375 2.325
0.5625 1 2.2
0.625 1 2.2625
0.5625 1 2.325
0.5625 0.9375 2.2
0.625 0.9375 2.2625
0.5625 0.9375 2.325
0.5625 1 2.2625
0.5625 0.9375 2.2625
0.75 0.9375 2.2
0.75 0.9375 2.325
0.6875 1 2.2
0.75 1 2.2625
0.6875 1 2.325
0.6875 0.9375 2.2
0.75 0.9375 2.2625
0.6875 0.9375 2.325
0.6875 1 2.2625
0.6875 0.9375 2.2625
0.875 0.9375 2.2
0.875 0.9375 2.325
0.8125 1 2.2
0.875 1 2.2625
0.8125 1 2.325
0.8125 0.9375 2.2
0.875 0.9375 2.2625
0.8125 0.9375 2.325
0.8125 1 2.2625
0.8125 0.9375 2.2625
1 0.9375 2.2
1 0.9375 2.325
0.9375 1 2.2
1 1 2.2625
0.9375 1 2.325
0.9375 0.9375 2.2
1 0.9375 2.2625
0.9375 0.9375 2.325
0.9375 1 2.2625
0.9375 0.9375 2.2625
1.125 0.9375 2.2
1.125 0.9375 2.325
1.0625 1 2.2
1.125 1 2.2625
1.0625 1 2.325
1.0625 0.9375 2.2
1.125 0.9375 2.2625
1.0625 0.9375 2.325
1.0625 1 2.2625
1.0625 0.9375 2.2625
1.25 0.9375 2.2
1.25 0.9375 2.325
1.1875 1 2.2
1.25 1 2.2625
1.1875 1 2.325
1.1875 0.9375 2.2
1.25 0.9375 2.2625
1.1875 0.9375 2.325
1.1875 1 2.2625
1.1875 0.9375 2.2625
1.375 0.9375 2.2
1.375 0.9375 2.325
1.3125 1 2.2
1.375 1 2.2625
1.3125 1 2.325
1.3125 0.9375 2.2
1.375 0.9375 2.2625
1.3125 0.9375 2.325
1.3125 1 2.2625
1.3125 0.9375 2.2625
1.5 0.9375 2.2
1.5 0.9375 2.325
1.4375 1 2.2
1.5 1 2.2625
1.4375 1 2.325
1.4375 0.9375 2.2
1.5 0.9375 2.2625
1.4375 0.9375 2.325
1.4375 1 2.2625
1.4375 0.9375 2.2625
1.625 0.9375 2.2
1.625 0.9375 2.325
1.5625 1 2.2
1.625 1 2.2625
1.5625 1 2.325
1.5625 0.9375 2.2
1.625 0.9375 2.2625
1.5625 0.9375 2.325
1.5625 1 2.2625
1.5625 0.9375 2.2625
1.75 0.9375 2.2
1.75 0.9375 2.325
1.6875 1 2.2
1.75 1 2.2625
1.6875 1 2.325
1.6875 0.9375 2.2
1.75 0.9375 2.2625
1.6875 0.9375 2.325
1.6875 1 2.2625
1.6875 0.9375 2.2625
1.875 0.9375 2.2
1.875 0.9375 2.325
1.8125 1 2.2
1.875 1 2.2625
1.8125 1 2.325
1.8125 0.9375 2.2
1.875 0.9375 2.2625
1.8125 0.9375 2.325
1.8125 1 2.2625
1.8125 0.9375 2.2625
2 0.9375 2.2
2 0.9375 2.325
1.9375 1 2.2
2 1 2.2625
1.9375 1 2.325
1.9375 0.9375 2.2
2 0.9375 2.2625
1.9375 0.9375 2.325
1.9375 1 2.2625
1.9375 0.9375 2.2625
2.125 0.9375 2.2
2.125 0.9375 2.325
2.0625 1 2.2
2.125 1 2.2625
2.0625 1 2.325
2.0625 0.9375 2.2
2.125 0.9375 2.2625
2.0625 0.9375 2.325
2.0625 1 2.2625
2.0625 0.9375 2.2625
2.25 0.9375 2.2
2.25 0.9375 2.325
2.1875 1 2.2
2.25 1 2.2625
2.1875 1 2.325
2.1875 0.9375 2.2
2.25 0.9375 2.2625
2.1875 0.9375 2.325
2.1875 1 2.2625
2.1875 0.9375 2.2625
2.375 0.9375 2.2
2.375 0.9375 2.325
2.3125 1 2.2
2.375 1 2.2625
2.3125 1 2.325
2.3125 0.9375 2.2
2.375 0.9375 2.2625
2.3125 0.9375 2.325
2.3125 1 2.2625
2.3125 0.9375 2.2625
2.5 0.9375 2.2
2.5 0.9375 2.325
2.4375 1 2.2
2.5 1 2.2625
2.4375 1 2.325
2.4375 0.9375 2.2
2.5 0.9375 2.2625
2.4375 0.9375 2.325
2.4375 1 2.2625
2.4375 0.9375 2.2625
2.625 0.9375 2.2
2.625 0.9375 2.325
2.5625 1 2.2
2.625 1 2.2625
2.5625 1 2.325
2.5625 0.9375 2.2
2.625 0.9375 2.2625
2.5625 0.9375 2.325
2.5625 1 2.2625
2.5625 0.9375 2.2625
2.75 0.9375 2.2
2.75 0.9375 2.325
2.6875 1 2.2
2.75 1 2.2625
2.6875 1 2.325
2.6875 0.9375 2.2
2.75 0.9375 2.2625
2.6875 0.9375 2.325
2.6875 1 2.2625
2.6875 0.9375 2.2625
2.875 0.9375 2.2
2.875 0.9375 2.325
2.8125 1 2.2
2.875 1 2.2625
2.8125 1 2.325
2.8125 0.9375 2.2
2.875 0.9375 2.2625
2.8125 0.9375 2.325
2.8125 1 2.2625
2.8125 0.9375 2.2625
3 0.9375 2.2
3 0.9375 2.325
2.9375 1 2.2
3 1 2.2625
2.9375 1 2.325
2.9375 0.9375 2.2
3 0.9375 2.2625
2.9375 0.9375 2.325
2.9375 1 2.2625
2.9375 0.9375 2.2625
0.125 0 2.3875
0.0625 0 2.45
0 0 2.3875
0.125 0.0625 2.45
0 0.0625 2.45
0.125 0.125 2.3875
0.0625 0.125 2.45
0 0.125 2.3875
0.0625 0 2.3875
0.125 0.0625 2.3875
0.0625 0.0625 2.45
0 0.0625 2.3875
0.0625 0.125 2.3875
0.0625 0.0625 2.3875
0.25 0 2.3875
0.1875 0 2.45
0.25 0.0625 2.45
0.25 0.125 2.3875
0.1875 0.125 2.45
0.1875 0 2.3875
0.25 0.0625 2.3875
0.1875 0.0625 2.45
0.1875 0.125 2.3875
0.1875 0.0625 2.3875
0.375 0 2.3875
0.3125 0 2.45
0.375 0.0625 2.45
0.375 0.125 2.3875
0.3125 0.125 2.45
0.3125 0 2.3875
0.375 0.0625 2.3875
0.3125 0.0625 2.45
0.3125 0.125 2.3875
0.3125 0.0625 2.3875
0.5 0 2.3875
0.4375 0 2.45
0.5 0.0625 2.45
0.5 0.125 2.3875
0.4375 0.125 2.45
0.4375 0 2.3875
0.5 0.0625 2.3875
0.4375 0.0625 2.45
0.4375 0.125 2.3875
0.4375 0.0625 2.3875
0.625 0 2.3875
0.5625 0 2.45
0.625 0.0625 2.45
0.625 0.125 2.3875
0.5625 0.125 2.45
0.5625 0 2.3875
0.625 0.0625 2.3875
0.5625 0.0625 2.45
0.5625 0.125 2.3875
0.5625 0.0625 2.3875
0.75 0 2.3875
0.6875 0 2.45
0.75 0.0625 2.45
0.75 0.125 2.3875
0.6875 0.125 2.45
0.6875 0 2.3875
0.75 0.0625 2.3875
0.6875 0.0625 2.45
0.6875 0.125 2.3875
0.6875 0.0625 2.3875
0.875 0 2.3875
0.8125 0 2.45
0.875 0.0625 2.45
0.875 0.125 2.3875
0.8125 0.125 2.45
0.8125 0 2.3875
0.875 0.0625 2.3875
0.8125 0.0625 2.45
0.8125 0.125 2.3875
0.8125 0.0625 2.3875
1 0 2.3875
0.9375 0 2.45
1 0.0625 2.45
1 0.125 2.3875
0.9375 0.125 2.45
0.9375 0 2.3875
1 0.0625 2.3875
0.9375 0.0625 2.45
0.9375 0.125 2.3875
0.9375 0.0625 2.3875
1.125 0 2.3875
1.0625 0 2.45
1.125 0.0625 2.45
1.125 0.125 2.3875
1.0625 0.125 2.45
1.0625 0 2.3875
1.125 0.0625 2.3875
1.0625 0.0625 2.45
1.0625 0.125 2.3875
1.0625 0.0625 2.3875
1.25 0 2.3875
1.1875 0 2.45
1.25 0.0625 2.45
1.25 0.125 2.3875
1.1875 0.125 2.45
1.1875 0 2.3875
1.25 0.0625 2.3875
1.1875 0.0625 2.45
1.1875 0.125 2.3875
1.1875 0.0625 2.3875
1.375 0 2.3875
1.3125 0 2.45
1.375 0.0625 2.45
1.375 0.125 2.3875
1.3125 0.125 2.45
1.3125 0 2.3875
1.375 0.0625 2.3875
1.3125 0.0625 2.45
1.3125 0.125 2.3875
1.3125 0.0625 2.3875
1.5 0 2.3875
1.4375 0 2.45
1.5 0.0625 2.45
1.5 0.125 2.3875
1.4375 0.125 2.45
1.4375 0 2.3875
1.5 0.0625 2.3875
1.4375 0.0625 2.45
1.4375 0.125 2.3875
1.4375 0.0625 2.3875
1.625 0 2.3875
1.5625 0 2.45
1.625 0.0625 2.45
1.625 0.125 2.3875
1.5625 0.125 2.45
1.5625 0 2.3875
1.625 0.0625 2.3875
1.5625 0.0625 2.45
1.5625 0.125 2.3875
1.5625 0.0625 2.3875
1.75 0 2.3875
1.6875 0 2.45
1.75 0.0625 2.45
1.75 0.125 2.3875
1.6875 0.125 2.45
1.6875 0 2.3875
1.75 0.0625 2.3875
1.6875 0.0625 2.45
1.6875 0.125 2.3875
1.6875 0.0625 2.3875
1.875 0 2.3875
1.8125 0 2.45
1.875 0.0625 2.45
1.875 0.125 2.3875
1.8125 0.125 2.45
1.8125 0 2.3875
1.875 0.0625 2.3875
1.8125 0.0625 2.45
1.8125 0.125 2.3875
1.8125 0.0625 2.3875
2 0 2.3875
1.9375 0 2.45
2 0.0625 2.45
2 0.125 2.3875
1.9375 0.125 2.45
1.9375 0 2.3875
2 0.0625 2.3875
1.9375 0.0625 2.45
1.9375 0.125 2.3875
1.9375 0.0625 2.3875
2.125 0 2.3875
2.0625 0 2.45
2.125 0.0625 2.45
2.125 0.125 2.3875
2.0625 0.125 2.45
2.0625 0 2.3875
2.125 0.0625 2.3875
2.0625 0.0625 2.45
2.0625 0.125 2.3875
2.0625 0.0625 2.3875
2.25 0 2.3875
2.1875 0 2.45
2.25 0.0625 2.45
2.25 0.125 2.3875
2.1875 0.125 2.45
2.1875 0 2.3875
2.25 0.0625 2.3875
2.1875 0.0625 2.45
2.1875 0.125 2.3875
2.1875 0.0625 2.3875
2.375 0 2.3875
2.3125 0 2.45
2.375 0.0625 2.45
2.375 0.125 2.3875
2.3125 0.125 2.45
2.3125 0 2.3875
2.375 0.0625 2.3875
2.3125 0.0625 2.45
2.3125 0.125 2.3875
2.3125 0.0625 2.3875
2.5 0 2.3875
2.4375 0 2.45
2.5 0.0625 2.45
2.5 0.125 2.3875
2.4375 0.125 2.45
2.4375 0 2.3875
2.5 0.0625 2.3875
2.4375 0.0625 2.45
2.4375 0.125 2.3875
2.4375 0.0625 2.3875
2.625 0 2.3875
2.5625 0 2.45
2.625 0.0625 2.45
2.625 0.125 2.3875
2.5625 0.125 2.45
2.5625 0 2.3875
2.625 0.0625 2.3875
2.5625 0.0625 2.45
2.5625 0.125 2.3875
2.5625 0.0625 2.3875
2.75 0 2.3875
2.6875 0 2.45
2.75 0.0625 2.45
2.75 0.125 2.3875
2.6875 0.125 2.45
2.6875 0 2.3875
2.75 0.0625 2.3875
2.6875 0.0625 2.45
2.6875 0.125 2.3875
2.6875 0.0625 2.3875
2.875 0 2.3875
2.8125 0 2.45
2.875 0.0625 2.45
2.875 0.125 2.3875
2.8125 0.125 2.45
2.8125 0 2.3875
2.875 0.0625 2.3875
2.8125 0.0625 2.45
2.8125 0.125 2.3875
2.8125 0.0625 2.3875
3 0 2.3875
2.9375 0 2.45
3 0.0625 2.45
3 0.125 2.3875
2.9375 0.125 2.45
2.9375 0 2.3875
3 0.0625 2.3875
2.9375 0.0625 2.45
2.9375 0.125 2.3875
2.9375 0.0625 2.3875
0.125 0.1875 2.45
0 0.1875 2.45
0.125 0.25 2.3875
0.0625 0.25 2.45
0 0.25 2.3875
0.125 0.1875 2.3875
0.0625 0.1875 2.45
0 0.1875 2.3875
0.0625 0.25 2.3875
0.0625 0.1875 2.3875
0.25 0.1875 2.45
0.25 0.25 2.3875
0.1875 0.25 2.45
0.25 0.1875 2.3875
0.1875 0.1875 2.45
0.1875 0.25 2.3875
0.1875 0.1875 2.3875
0.375 0.1875 2.45
0.375 0.25 2.3875
0.3125 0.25 2.45
0.375 0.1875 2.3875
0.3125 0.1875 2.45
0.3125 0.25 2.3875
0.3125 0.1875 2.3875
0.5 0.1875 2.45
0.5 0.25 2.3875
0.4375 0.25 2.45
0.5 0.1875 2.3875
0.4375 0.1875 2.45
0.4375 0.25 2.3875
0.4375 0.1875 2.3875
0.625 0.1875 2.45
0.625 0.25 2.3875
0.5625 0.25 2.45
0.625 0.1875 2.3875
0.5625 0.1875 2.45
0.5625 0.25 2.3875
0.5625 0.1875 2.3875
0.75 0.1875 2.45
0.75 0.25 2.3875
0.6875 0.25 2.45
0.75 0.1875 2.3875
0.6875 0.1875 2.45
0.6875 0.25 2.3875
0.6875 0.1875 2.3875
0.875 0.1875 2.45
0.875 0.25 2.3875
0.8125 0.25 2.45
0.875 0.1875 2.3875
0.8125 0.1875 2.45
0.8125 0.25 2.3875
0.8125 0.1875 2.3875
1 0.1875 2.45
1 0.25 2.3875
0.9375 0.25 2.45
1 0.1875 2.3875
0.9375 0.1875 2.45
0.9375 0.25 2.3875
0.9375 0.1875 2.3875
1.125 0.1875 2.45
1.125 0.25 2.3875
1.0625 0.25 2.45
1.125 0.1875 2.3875
1.0625 0.1875 2.45
1.0625 0.25 2.3875
1.0625 0.1875 2.3875
1.25 0.1875 2.45
1.25 0.25 2.3875
1.1875 0.25 2.45
1.25 0.1875 2.3875
1.1875 0.1875 2.45
1.1875 0.25 2.3875
1.1875 0.1875 2.3875
1.375 0.1875 2.45
1.375 0.25 2.3875
1.3125 0.25 2.45
1.375 0.1875 2.3875
1.3125 0.1875 2.45
1.3125 0.25 2.3875
1.3125 0.1875 2.3875
1.5 0.1875 2.45
1.5 0.25 2.3875
1.4375 0.25 2.45
1.5 0.1875 2.3875
1.4375 0.1875 2.45
1.4375 0.25 2.3875
1.4375 0.1875 2.3875
1.625 0.1875 2.45
1.625 0.25 2.3875
1.5625 0.25 2.45
1.625 0.1875 2.3875
1.5625 0.1875 2.45
1.5625 0.25 2.3875
1.5625 0.1875 2.3875
1.75 0.1875 2.45
1.75 0.25 2.3875
1.6875 0.25 2.45
1.75 0.1875 2.3875
1.6875 0.1875 2.45
1.6875 0.25 2.3875
1.6875 0.1875 2.3875
1.875 0.1875 2.45
1.875 0.25 2.3875
1.8125 0.25 2.45
1.875 0.1875 2.3875
1.8125 0.1875 2.45
1.8125 0.25 2.3875
1.8125 0.1875 2.3875
2 0.1875 2.45
2 0.25 2.3875
1.9375 0.25 2.45
2 0.1875 2.3875
1.9375 0.1875 2.45
1.9375 0.25 2.3875
1.9375 0.1875 2.3875
2.125 0.1875 2.45
2.125 0.25 2.3875
2.0625 0.25 2.45
2.125 0.1875 2.3875
2.0625 0.1875 2.45
2.0625 0.25 2.3875
2.0625 0.1875 2.3875
2.25 0.1875 2.45
2.25 0.25 2.3875
2.1875 0.25 2.45
2.25 0.1875 2.3875
2.1875 0.1875 2.45
2.1875 0.25 2.3875
2.1875 0.1875 2.3875
2.375 0.1875 2.45
2.375 0.25 2.3875
2.3125 0.25 2.45
2.375 0.1875 2.3875
2.3125 0.1875 2.45
2.3125 0.25 2.3875
2.3125 0.1875 2.3875
2.5 0.1875 2.45
2.5 0.25 2.3875
2.4375 0.25 2.45
2.5 0.1875 2.3875
2.4375 0.1875 2.45
2.4375 0.25 2.3875
2.4375 0.1875 2.3875
2.625 0.1875 2.45
2.625 0.25 2.3875
2.5625 0.25 2.45
2.625 0.1875 2.3875
2.5625 0.1875 2.45
2.5625 0.25 2.3875
2.5625 0.1875 2.3875
2.75 0.1875 2.45
2.75 0.25 2.3875
2.6875 0.25 2.45
2.75 0.1875 2.3875
2.6875 0.1875 2.45
2.6875 0.25 2.3875
2.6875 0.1875 2.3875
2.875 0.1875 2.45
2.875 0.25 2.3875
2.8125 0.25 2.45
2.875 0.1875 2.3875
2.8125 0.1875 2.45
2.8125 0.25 2.3875
2.8125 0.1875 2.3875
3 0.1875 2.45
3 0.25 2.3875
2.9375 0.25 2.45
3 0.1875 2.3875
2.9375 0.1875 2.45
2.9375 0.25 2.3875
2.9375 0.1875 2.3875
0.125 0.3125 2.45
0 0.3125 2.45
0.125 0.375 2.3875
0.0625 0.375 2.45
0 0.375 2.3875
0.125 0.3125 2.3875
0.0625 0.3125 2.45
0 0.3125 2.3875
0.0625 0.375 2.3875
0.0625 0.3125 2.3875
0.25 0.3125 2.45
0.25 0.375 2.3875
0.1875 0.375 2.45
0.25 0.3125 2.3875
0.1875 0.3125 2.45
0.1875 0.375 2.3875
0.1875 0.3125 2.3875
0.375 0.3125 2.45
0.375 0.375 2.3875
0.3125 0.375 2.45
0.375 0.3125 2.3875
0.3125 0.3125 2.45
0.3125 0.375 2.3875
0.3125 0.3125 2.3875
0.5 0.3125 2.45
0.5 0.375 2.3875
0.4375 0.375 2.45
0.5 0.3125 2.3875
0.4375 0.3125 2.45
0.4375 0.375 2.3875
0.4375 0.3125 2.3875
0.625 0.3125 2.45
0.625 0.375 2.3875
0.5625 0.375 2.45
0.625 0.3125 2.3875
0.5625 0.3125 2.45
0.5625 0.375 2.3875
0.5625 0.3125 2.3875
0.75 0.3125 2.45
0.75 0.375 2.3875
0.6875 0.375 2.45
0.75 0.3125 2.3875
0.6875 0.3125 2.45
0.6875 0.375 2.3875
0.6875 0.3125 2.3875
0.875 0.3125 2.45
0.875 0.375 2.3875
0.8125 0.375 2.45
0.875 0.3125 2.3875
0.8125 0.3125 2.45
0.8125 0.375 2.3875
0.8125 0.3125 2.3875
1 0.3125 2.45
1 0.375 2.3875
0.9375 0.375 2.45
1 0.3125 2.3875
0.9375 0.3125 2.45
0.9375 0.375 2.3875
0.9375 0.3125 2.3875
1.125 0.3125 2.45
1.125 0.375 2.3875
1.0625 0.375 2.45
1.125 0.3125 2.3875
1.0625 0.3125 2.45
1.0625 0.375 2.3875
1.0625 0.3125 2.3875
1.25 0.3125 2.45
1.25 0.375 2.3875
1.1875 0.375 2.45
1.25 0.3125 2.3875
1.1875 0.3125 2.45
1.1875 0.375 2.3875
1.1875 0.3125 2.3875
1.375 0.3125 2.45
1.375 0.375 2.3875
1.3125 0.375 2.45
1.375 0.3125 2.3875
1.3125 0.3125 2.45
1.3125 0.375 2.3875
1.3125 0.3125 2.3875
1.5 0.3125 2.45
1.5 0.375 2.3875
1.4375 0.375 2.45
1.5 0.3125 2.3875
1.4375 0.3125 2.45
1.4375 0.375 2.3875
1.4375 0.3125 2.3875
1.625 0.3125 2.45
1.625 0.375 2.3875
1.5625 0.375 2.45
1.625 0.3125 2.3875
1.5625 0.3125 2.45
1.5625 0.375 2.3875
1.5625 0.3125 2.3875
1.75 0.3125 2.45
1.75 0.375 2.3875
1.6875 0.375 2.45
1.75 0.3125 2.3875
1.6875 0.3125 2.45
1.6875 0.375 2.3875
1.6875 0.3125 2.3875
1.875 0.3125 2.45
1.875 0.375 2.3875
1.8125 0.375 2.45
1.875 0.3125 2.3875
1.8125 0.3125 2.45
1.8125 0.375 2.3875
1.8125 0.3125 2.3875
2 0.3125 2.45
2 0.375 2.3875
1.9375 0.375 2.45
2 0.3125 2.3875
1.9375 0.3125 2.45
1.9375 0.375 2.3875
1.9375 0.3125 2.3875
2.125 0.3125 2.45
2.125 0.375 2.3875
2.0625 0.375 2.45
2.125 0.3125 2.3875
2.0625 0.3125 2.45
2.0625 0.375 2.3875
2.0625 0.3125 2.3875
2.25 0.3125 2.45
2.25 0.375 2.3875
2.1875 0.375 2.45
2.25 0.3125 2.3875
2.1875 0.3125 2.45
2.1875 0.375 2.3875
2.1875 0.3125 2.3875
2.375 0.3125 2.45
2.375 0.375 2.3875
2.3125 0.375 2.45
2.375 0.3125 2.3875
2.3125 0.3125 2.45
2.3125 0.375 2.3875
2.3125 0.3125 2.3875
2.5 0.3125 2.45
2.5 0.375 2.3875
2.4375 0.375 2.45
2.5 0.3125 2.3875
2.4375 0.3125 2.45
2.4375 0.375 2.3875
2.4375 0.3125 2.3875
2.625 0.3125 2.45
2.625 0.375 2.3875
2.5625 0.375 2.45
2.625 0.3125 2.3875
2.5625 0.3125 2.45
2.5625 0.375 2.3875
2.5625 0.3125 2.3875
2.75 0.3125 2.45
2.75 0.375 2.3875
2.6875 0.375 2.45
2.75 0.3125 2.3875
2.6875 0.3125 2.45
2.6875 0.375 2.3875
2.6875 0.3125 2.3875
2.875 0.3125 2.45
2.875 0.375 2.3875
2.8125 0.375 2.45
2.875 0.3125 2.3875
2.8125 0.3125 2.45
2.8125 0.375 2.3875
2.8125 0.3125 2.3875
3 0.3125 2.45
3 0.375 2.3875
2.9375 0.375 2.45
3 0.3125 2.3875
2.9375 0.3125 2.45
2.9375 0.375 2.3875
2.9375 0.3125 2.3875
0.125 0.4375 2.45
0 0.4375 2.45
0.125 0.5 2.3875
0.0625 0.5 2.45
0 0.5 2.3875
0.125 0.4375 2.3875
0.0625 0.4375 2.45
0 0.4375 2.3875
0.0625 0.5 2.3875
0.0625 0.4375 2.3875
0.25 0.4375 2.45
0.25 0.5 2.3875
0.1875 0.5 2.45
0.25 0.4375 2.3875
0.1875 0.4375 2.45
0.1875 0.5 2.3875
0.1875 0.4375 2.3875
0.375 0.4375 2.45
0.375 0.5 2.3875
0.3125 0.5 2.45
0.375 0.4375 2.3875
0.3125 0.4375 2.45
0.3125 0.5 2.3875
0.3125 0.4375 2.3875
0.5 0.4375 2.45
0.5 0.5 2.3875
0.4375 0.5 2.45
0.5 0.4375 2.3875
0.4375 0.4375 2.45
0.4375 0.5 2.3875
0.4375 0.4375 2.3875
0.625 0.4375 2.45
0.625 0.5 2.3875
0.5625 0.5 2.45
0.625 0.4375 2.3875
0.5625 0.4375 2.45
0.5625 0.5 2.3875
0.5625 0.4375 2.3875
0.75 0.4375 2.45
0.75 0.5 2.3875
0.6875 0.5 2.45
0.75 0.4375 2.3875
0.6875 0.4375 2.45
0.6875 0.5 2.3875
0.6875 0.4375 2.3875
0.875 0.4375 2.45
0.875 0.5 2.3875
0.8125 0.5 2.45
0.875 0.4375 2.3875
0.8125 0.4375 2.45
0.8125 0.5 2.3875
0.8125 0.4375 2.3875
1 0.4375 2.45
1 0.5 2.3875
0.9375 0.5 2.45
1 0.4375 2.3875
0.9375 0.4375 2.45
0.9375 0.5 2.3875
0.9375 0.4375 2.3875
1.125 0.4375 2.45
1.125 0.5 2.3875
1.0625 0.5 2.45
1.125 0.4375 2.3875
1.0625 0.4375 2.45
1.0625 0.5 2.3875
1.0625 0.4375 2.3875
1.25 0.4375 2.45
1.25 0.5 2.3875
1.1875 0.5 2.45
1.25 0.4375 2.3875
1.1875 0.4375 2.45
1.1875 0.5 2.3875
1.1875 0.4375 2.3875
1.375 0.4375 2.45
1.375 0.5 2.3875
1.3125 0.5 2.45
1.375 0.4375 2.3875
1.3125 0.4375 2.45
1.3125 0.5 2.3875
1.3125 0.4375 2.3875
1.5 0.4375 2.45
1.5 0.5 2.3875
1.4375 0.5 2.45
1.5 0.4375 2.3875
1.4375 0.4375 2.45
1.4375 0.5 2.3875
1.4375 0.4375 2.3875
1.625 0.4375 2.45
1.625 0.5 2.3875
1.5625 0.5 2.45
1.625 0.4375 2.3875
1.5625 0.4375 2.45
1.5625 0.5 2.3875
1.5625 0.4375 2.3875
1.75 0.4375 2.45
1.75 0.5 2.3875
1.6875 0.5 2.45
1.75 0.4375 2.3875
1.6875 0.4375 2.45
1.6875 0.5 2.3875
1.6875 0.4375 2.3875
1.875 0.4375 2.45
1.875 0.5 2.3875
1.8125 0.5 2.45
1.875 0.4375 2.3875
1.8125 0.4375 2.45
1.8125 0.5 2.3875
1.8125 0.4375 2.3875
2 0.4375 2.45
2 0.5 2.3875
1.9375 0.5 2.45
2 0.4375 2.3875
1.9375 0.4375 2.45
1.9375 0.5 2.3875
1.9375 0.4375 2.3875
2.125 0.4375 2.45
2.125 0.5 2.3875
2.0625 0.5 2.45
2.125 0.4375 2.3875
2.0625 0.4375 2.45
2.0625 0.5 2.3875
2.0625 0.4375 2.3875
2.25 0.4375 2.45
2.25 0.5 2.3875
2.1875 0.5 2.45
2.25 0.4375 2.3875
2.1875 0.4375 2.45
2.1875 0.5 2.3875
2.1875 0.4375 2.3875
2.375 0.4375 2.45
2.375 0.5 2.3875
2.3125 0.5 2.45
2.375 0.4375 2.3875
2.3125 0.4375 2.45
2.3125 0.5 2.3875
2.3125 0.4375 2.3875
2.5 0.4375 2.45
2.5 0.5 2.3875
2.4375 0.5 2.45
2.5 0.4375 2.3875
2.4375 0.4375 2.45
2.4375 0.5 2.3875
2.4375 0.4375 2.3875
2.625 0.4375 2.45
2.625 0.5 2.3875
2.5625 0.5 2.45
2.625 0.4375 2.3875
2.5625 0.4375 2.45
2.5625 0.5 2.3875
2.5625 0.4375 2.3875
2.75 0.4375 2.45
2.75 0.5 2.3875
2.6875 0.5 2.45
2.75 0.4375 2.3875
2.6875 0.4375 2.45
2.6875 0.5 2.3875
2.6875 0.4375 2.3875
2.875 0.4375 2.45
2.875 0.5 2.3875
2.8125 0.5 2.45
2.875 0.4375 2.3875
2.8125 0.4375 2.45
2.8125 0.5 2.3875
2.8125 0.4375 2.3875
3 0.4375 2.45
3 0.5 2.3875
2.9375 0.5 2.45
3 0.4375 2.3875
2.9375 0.4375 2.45
2.9375 0.5 2.3875
2.9375 0.4375 2.3875
0.125 0.5625 2.45
0 0.5625 2.45
0.125 0.625 2.3875
0.0625 0.625 2.45
0 0.625 2.3875
0.125 0.5625 2.3875
0.0625 0.5625 2.45
0 0.5625 2.3875
0.0625 0.625 2.3875
0.0625 0.5625 2.3875
0.25 0.5625 2.45
0.25 0.625 2.3875
0.1875 0.625 2.45
0.25 0.5625 2.3875
0.1875 0.5625 2.45
0.1875 0.625 2.3875
0.1875 0.5625 2.3875
0.375 0.5625 2.45
0.375 0.625 2.3875
0.3125 0.625 2.45
0.375 0.5625 2.3875
0.3125 0.5625 2.45
0.3125 0.625 2.3875
0.3125 0.5625 2.3875
0.5 0.5625 2.45
0.5 0.625 2.3875
0.4375 0.625 2.45
0.5 0.5625 2.3875
0.4375 0.5625 2.45
0.4375 0.625 2.3875
0.4375 0.5625 2.3875
0.625 0.5625 2.45
0.625 0.625 2.3875
0.5625 0.625 2.45
0.625 0.5625 2.3875
0.5625 0.5625 2.45
0.5625 0.625 2.3875
0.5625 0.5625 2.3875
0.75 0.5625 2.45
0.75 0.625 2.3875
0.6875 0.625 2.45
0.75 0.5625 2.3875
0.6875 0.5625 2.45
0.6875 0.625 2.3875
0.6875 0.5625 2.3875
0.875 0.5625 2.45
0.875 0.625 2.3875
0.8125 0.625 2.45
0.875 0.5625 2.3875
0.8125 0.5625 2.45
0.8125 0.625 2.3875
0.8125 0.5625 2.3875
1 0.5625 2.45
1 0.625 2.3875
0.9375 0.625 2.45
1 0.5625 2.3875
0.9375 0.5625 2.45
0.9375 0.625 2.3875
0.9375 0.5625 2.3875
1.125 0.5625 2.45
1.125 0.625 2.3875
1.0625 0.625 2.45
1.125 0.5625 2.3875
1.0625 0.5625 2.45
1.0625 0.625 2.3875
1.0625 0.5625 2.3875
1.25 0.5625 2.45
1.25 0.625 2.3875
1.1875 0.625 2.45
1.25 0.5625 2.3875
1.1875 0.5625 2.45
1.1875 0.625 2.3875
1.1875 0.5625 2.3875
1.375 0.5625 2.45
1.375 0.625 2.3875
1.3125 0.625 2.45
1.375 0.5625 2.3875
1.3125 0.5625 2.45
1.3125 0.625 2.3875
1.3125 0.5625 2.3875
1.5 0.5625 2.45
1.5 0.625 2.3875
1.4375 0.625 2.45
1.5 0.5625 2.3875
1.4375 0.5625 2.45
1.4375 0.625 2.3875
1.4375 0.5625 2.3875
1.625 0.5625 2.45
1.625 0.625 2.3875
1.5625 0.625 2.45
1.625 0.5625 2.3875
1.5625 0.5625 2.45
1.5625 0.625 2.3875
1.5625 0.5625 2.3875
1.75 0.5625 2.45
1.75 0.625 2.3875
1.6875 0.625 2.45
1.75 0.5625 2.3875
1.6875 0.5625 2.45
1.6875 0.625 2.3875
1.6875 0.5625 2.3875
1.875 0.5625 2.45
1.875 0.625 2.3875
1.8125 0.625 2.45
1.875 0.5625 2.3875
1.8125 0.5625 2.45
1.8125 0.625 2.3875
1.8125 0.5625 2.3875
2 0.5625 2.45
2 0.625 2.3875
1.9375 0.625 2.45
2 0.5625 2.3875
1.9375 0.5625 2.45
1.9375 0.625 2.3875
1.9375 0.5625 2.3875
2.125 0.5625 2.45
2.125 0.625 2.3875
2.0625 0.625 2.45
2.125 0.5625 2.3875
2.0625 0.5625 2.45
2.0625 0.625 2.3875
2.0625 0.5625 2.3875
2.25 0.5625 2.45
2.25 0.625 2.3875
2.1875 0.625 2.45
2.25 0.5625 2.3875
2.1875 0.5625 2.45
2.1875 0.625 2.3875
2.1875 0.5625 2.3875
2.375 0.5625 2.45
2.375 0.625 2.3875
2.3125 0.625 2.45
2.375 0.5625 2.3875
2.3125 0.5625 2.45
2.3125 0.625 2.3875
2.3125 0.5625 2.3875
2.5 0.5625 2.45
2.5 0.625 2.3875
2.4375 0.625 2.45
2.5 0.5625 2.3875
2.4375 0.5625 2.45
2.4375 0.625 2.3875
2.4375 0.5625 2.3875
2.625 0.5625 2.45
2.625 0.625 2.3875
2.5625 0.625 2.45
2.625 0.5625 2.3875
2.5625 0.5625 2.45
2.5625 0.625 2.3875
2.5625 0.5625 2.3875
2.75 0.5625 2.45
2.75 0.625 2.3875
2.6875 0.625 2.45
2.75 0.5625 2.3875
2.6875 0.5625 2.45
2.6875 0.625 2.3875
2.6875 0.5625 2.3875
2.875 0.5625 2.45
2.875 0.625 2.3875
2.8125 0.625 2.45
2.875 0.5625 2.3875
2.8125 0.5625 2.45
2.8125 0.625 2.3875
2.8125 0.5625 2.3875
3 0.5625 2.45
3 0.625 2.3875
2.9375 0.625 2.45
3 0.5625 2.3875
2.9375 0.5625 2.45
2.9375 0.625 2.3875
2.9375 0.5625 2.3875
0.125 0.6875 2.45
0 0.6875 2.45
0.125 0.75 2.3875
0.0625 0.75 2.45
0 0.75 2.3875
0.125 0.6875 2.3875
0.0625 0.6875 2.45
0 0.6875 2.3875
0.0625 0.75 2.3875
0.0625 0.6875 2.3875
0.25 0.6875 2.45
0.25 0.75 2.3875
0.1875 0.75 2.45
0.25 0.6875 2.3875
0.1875 0.6875 2.45
0.1875 0.75 2.3875
0.1875 0.6875 2.3875
0.375 0.6875 2.45
0.375 0.75 2.3875
0.3125 0.75 2.45
0.375 0.6875 2.3875
0.3125 0.6875 2.45
0.3125 0.75 2.3875
0.3125 0.6875 2.3875
0.5 0.6875 2.45
0.5 0.75 2.3875
0.4375 0.75 2.45
0.5 0.6875 2.3875
0.4375 0.6875 2.45
0.4375 0.75 2.3875
0.4375 0.6875 2.3875
0.625 0.6875 2.45
0.625 0.75 2.3875
0.5625 0.75 2.45
0.625 0.6875 2.3875
0.5625 0.6875 2.45
0.5625 0.75 2.3875
0.5625 0.6875 2.3875
0.75 0.6875 2.45
0.75 0.75 2.3875
0.6875 0.75 2.45
0.75 0.6875 2.3875
0.6875 0.6875 2.45
0.6875 0.75 2.3875
0.6875 0.6875 2.3875
0.875 0.6875 2.45
0.875 0.75 2.3875
0.8125 0.75 2.45
0.875 0.6875 2.3875
0.8125 0.6875 2.45
0.8125 0.75 2.3875
0.8125 0.6875 2.3875
1 0.6875 2.45
1 0.75 2.3875
0.9375 0.75 2.45
1 0.6875 2.3875
0.9375 0.6875 2.45
0.9375 0.75 2.3875
0.9375 0.6875 2.3875
1.125 0.6875 2.45
1.125 0.75 2.3875
1.0625 0.75 2.45
1.125 0.6875 2.3875
1.0625 0.6875 2.45
1.0625 0.75 2.3875
1.0625 0.6875 2.3875
1.25 0.6875 2.45
1.25 0.75 2.3875
1.1875 0.75 2.45
1.25 0.6875 2.3875
1.1875 0.6875 2.45
1.1875 0.75 2.3875
1.1875 0.6875 2.3875
1.375 0.6875 2.45
1.375 0.75 2.3875
1.3125 0.75 2.45
1.375 0.6875 2.3875
1.3125 0.6875 2.45
1.3125 0.75 2.3875
1.3125 0.6875 2.3875
1.5 0.6875 2.45
1.5 0.75 2.3875
1.4375 0.75 2.45
1.5 0.6875 2.3875
1.4375 0.6875 2.45
1.4375 0.75 2.3875
1.4375 0.6875 2.3875
1.625 0.6875 2.45
1.625 0.75 2.3875
1.5625 0.75 2.45
1.625 0.6875 2.3875
1.5625 0.6875 2.45
1.5625 0.75 2.3875
1.5625 0.6875 2.3875
1.75 0.6875 2.45
1.75 0.75 2.3875
1.6875 0.75 2.45
1.75 0.6875 2.3875
1.6875 0.6875 2.45
1.6875 0.75 2.3875
1.6875 0.6875 2.3875
1.875 0.6875 2.45
1.875 0.75 2.3875
1.8125 0.75 2.45
1.875 0.6875 2.3875
1.8125 0.6875 2.45
1.8125 0.75 2.3875
1.8125 0.6875 2.3875
2 0.6875 2.45
2 0.75 2.3875
1.9375 0.75 2.45
2 0.6875 2.3875
1.9375 0.6875 2.45
1.9375 0.75 2.3875
1.9375 0.6875 2.3875
2.125 0.6875 2.45
2.125 0.75 2.3875
2.0625 0.75 2.45
2.125 0.6875 2.3875
2.0625 0.6875 2.45
2.0625 0.75 2.3875
2.0625 0.6875 2.3875
2.25 0.6875 2.45
2.25 0.75 2.3875
2.1875 0.75 2.45
2.25 0.6875 2.3875
2.1875 0.6875 2.45
2.1875 0.75 2.3875
2.1875 0.6875 2.3875
2.375 0.6875 2.45
2.375 0.75 2.3875
2.3125 0.75 2.45
2.375 0.6875 2.3875
2.3125 0.6875 2.45
2.3125 0.75 2.3875
2.3125 0.6875 2.3875
2.5 0.6875 2.45
2.5 0.75 2.3875
2.4375 0.75 2.45
2.5 0.6875 2.3875
2.4375 0.6875 2.45
2.4375 0.75 2.3875
2.4375 0.6875 2.3875
2.625 0.6875 2.45
2.625 0.75 2.3875
2.5625 0.75 2.45
2.625 0.6875 2.3875
2.5625 0.6875 2.45
2.5625 0.75 2.3875
2.5625 0.6875 2.3875
2.75 0.6875 2.45
2.75 0.75 2.3875
2.6875 0.75 2.45
2.75 0.6875 2.3875
2.6875 0.6875 2.45
2.6875 0.75 2.3875
2.6875 0.6875 2.3875
2.875 0.6875 2.45
2.875 0.75 2.3875
2.8125 0.75 2.45
2.875 0.6875 2.3875
2.8125 0.6875 2.45
2.8125 0.75 2.3875
2.8125 0.6875 2.3875
3 0.6875 2.45
3 0.75 2.3875
2.9375 0.75 2.45
3 0.6875 2.3875
2.9375 0.6875 2.45
2.9375 0.75 2.3875
2.9375 0.6875 2.3875
0.125 0.8125 2.45
0 0.8125 2.45
0.125 0.875 2.3875
0.0625 0.875 2.45
0 0.875 2.3875
0.125 0.8125 2.3875
0.0625 0.8125 2.45
0 0.8125 2.3875
0.0625 0.875 2.3875
0.0625 0.8125 2.3875
0.25 0.8125 2.45
0.25 0.875 2.3875
0.1875 0.875 2.45
0.25 0.8125 2.3875
0.1875 0.8125 2.45
0.1875 0.875 2.3875
0.1875 0.8125 2.3875
0.375 0.8125 2.45
0.375 0.875 2.3875
0.3125 0.875 2.45
0.375 0.8125 2.3875
0.3125 0.8125 2.45
0.3125 0.875 2.3875
0.3125 0.8125 2.3875
0.5 0.8125 2.45
0.5 0.875 2.3875
0.4375 0.875 2.45
0.5 0.8125 2.3875
0.4375 0.8125 2.45
0.4375 0.875 2.3875
0.4375 0.8125 2.3875
0.625 0.8125 2.45
0.625 0.875 2.3875
0.5625 0.875 2.45
0.625 0.8125 2.3875
0.5625 0.8125 2.45
0.5625 0.875 2.3875
0.5625 0.8125 2.3875
0.75 0.8125 2.45
0.75 0.875 2.3875
0.6875 0.875 2.45
0.75 0.8125 2.3875
0.6875 0.8125 2.45
0.6875 0.875 2.3875
0.6875 0.8125 2.3875
0.875 0.8125 2.45
0.875 0.875 2.3875
0.8125 0.875 2.45
0.875 0.8125 2.3875
0.8125 0.8125 2.45
0.8125 0.875 2.3875
0.8125 0.8125 2.3875
1 0.8125 2.45
1 0.875 2.3875
0.9375 0.875 2.45
1 0.8125 2.3875
0.9375 0.8125 2.45
0.9375 0.875 2.3875
0.9375 0.8125 2.3875
1.125 0.8125 2.45
1.125 0.875 2.3875
1.0625 0.875 2.45
1.125 0.8125 2.3875
1.0625 0.8125 2.45
1.0625 0.875 2.3875
1.0625 0.8125 2.3875
1.25 0.8125 2.45
1.25 0.875 2.3875
1.1875 0.875 2.45
1.25 0.8125 2.3875
1.1875 0.8125 2.45
1.1875 0.875 2.3875
1.1875 0.8125 2.3875
1.375 0.8125 2.45
1.375 0.875 2.3875
1.3125 0.875 2.45
1.375 0.8125 2.3875
1.3125 0.8125 2.45
1.3125 0.875 2.3875
1.3125 0.8125 2.3875
1.5 0.8125 2.45
1.5 0.875 2.3875
1.4375 0.875 2.45
1.5 0.8125 2.3875
1.4375 0.8125 2.45
1.4375 0.875 2.3875
1.4375 0.8125 2.3875
1.625 0.8125 2.45
1.625 0.875 2.3875
1.5625 0.875 2.45
1.625 0.8125 2.3875
1.5625 0.8125 2.45
1.5625 0.875 2.3875
1.5625 0.8125 2.3875
1.75 0.8125 2.45
1.75 0.875 2.3875
1.6875 0.875 2.45
1.75 0.8125 2.3875
1.6875 0.8125 2.45
1.6875 0.875 2.3875
1.6875 0.8125 2.3875
1.875 0.8125 2.45
1.875 0.875 2.3875
1.8125 0.875 2.45
1.875 0.8125 2.3875
1.8125 0.8125 2.45
1.8125 0.875 2.3875
1.8125 0.8125 2.3875
2 0.8125 2.45
2 0.875 2.3875
1.9375 0.875 2.45
2 0.8125 2.3875
1.9375 0.8125 2.45
1.9375 0.875 2.3875
1.9375 0.8125 2.3875
2.125 0.8125 2.45
2.125 0.875 2.3875
2.0625 0.875 2.45
2.125 0.8125 2.3875
2.0625 0.8125 2.45
2.0625 0.875 2.3875
2.0625 0.8125 2.3875
2.25 0.8125 2.45
2.25 0.875 2.3875
2.1875 0.875 2.45
2.25 0.8125 2.3875
2.1875 0.8125 2.45
2.1875 0.875 2.3875
2.1875 0.8125 2.3875
2.375 0.8125 2.45
2.375 0.875 2.3875
2.3125 0.875 2.45
2.375 0.8125 2.3875
2.3125 0.8125 2.45
2.3125 0.875 2.3875
2.3125 0.8125 2.3875
2.5 0.8125 2.45
2.5 0.875 2.3875
2.4375 0.875 2.45
2.5 0.8125 2.3875
2.4375 0.8125 2.45
2.4375 0.875 2.3875
2.4375 0.8125 2.3875
2.625 0.8125 2.45
2.625 0.875 2.3875
2.5625 0.875 2.45
2.625 0.8125 2.3875
2.5625 0.8125 2.45
2.5625 0.875 2.3875
2.5625 0.8125 2.3875
2.75 0.8125 2.45
2.75 0.875 2.3875
2.6875 0.875 2.45
2.75 0.8125 2.3875
2.6875 0.8125 2.45
2.6875 0.875 2.3875
2.6875 0.8125 2.3875
2.875 0.8125 2.45
2.875 0.875 2.3875
2.8125 0.875 2.45
2.875 0.8125 2.3875
2.8125 0.8125 2.45
2.8125 0.875 2.3875
2.8125 0.8125 2.3875
3 0.8125 2.45
3 0.875 2.3875
2.9375 0.875 2.45
3 0.8125 2.3875
2.9375 0.8125 2.45
2.9375 0.875 2.3875
2.9375 0.8125 2.3875
0.125 0.9375 2.45
0 0.9375 2.45
0.125 1 2.3875
0.0625 1 2.45
0 1 2.3875
0.125 0.9375 2.3875
0.0625 0.9375 2.45
0 0.9375 2.3875
0.0625 1 2.3875
0.0625 0.9375 2.3875
0.25 0.9375 2.45
0.25 1 2.3875
0.1875 1 2.45
0.25 0.9375 2.3875
0.1875 0.9375 2.45
0.1875 1 2.3875
0.1875 0.9375 2.3875
0.375 0.9375 2.45
0.375 1 2.3875
0.3125 1 2.45
0.375 0.9375 2.3875
0.3125 0.9375 2.45
0.3125 1 2.3875
0.3125 0.9375 2.3875
0.5 0.9375 2.45
0.5 1 2.3875
0.4375 1 2.45
0.5 0.9375 2.3875
0.4375 0.9375 2.45
0.4375 1 2.3875
0.4375 0.9375 2.3875
0.625 0.9375 2.45
0.625 1 2.3875
0.5625 1 2.45
0.625 0.9375 2.3875
0.5625 0.9375 2.45
0.5625 1 2.3875
0.5625 0.9375 2.3875
0.75 0.9375 2.45
0.75 1 2.3875
0.6875 1 2.45
0.75 0.9375 2.3875
0.6875 0.9375 2.45
0.6875 1 2.3875
0.6875 0.9375 2.3875
0.875 0.9375 2.45
0.875 1 2.3875
0.8125 1 2.45
0.875 0.9375 2.3875
0.8125 0.9375 2.45
0.8125 1 2.3875
0.8125 0.9375 2.3875
1 0.9375 2.45
1 1 2.3875
0.9375 1 2.45
1 0.9375 2.3875
0.9375 0.9375 2.45
0.9375 1 2.3875
0.9375 0.9375 2.3875
1.125 0.9375 2.45
1.125 1 2.3875
1.0625 1 2.45
1.125 0.9375 2.3875
1.0625 0.9375 2.45
1.0625 1 2.3875
1.0625 0.9375 2.3875
1.25 0.9375 2.45
1.25 1 2.3875
1.1875 1 2.45
1.25 0.9375 2.3875
1.1875 0.9375 2.45
1.1875 1 2.3875
1.1875 0.9375 2.3875
1.375 0.9375 2.45
1.375 1 2.3875
1.3125 1 2.45
1.375 0.9375 2.3875
1.3125 0.9375 2.45
1.3125 1 2.3875
1.3125 0.9375 2.3875
1.5 0.9375 2.45
1.5 1 2.3875
1.4375 1 2.45
1.5 0.9375 2.3875
1.4375 0.9375 2.45
1.4375 1 2.3875
1.4375 0.9375 2.3875
1.625 0.9375 2.45
1.625 1 2.3875
1.5625 1 2.45
1.625 0.9375 2.3875
1.5625 0.9375 2.45
1.5625 1 2.3875
1.5625 0.9375 2.3875
1.75 0.9375 2.45
1.75 1 2.3875
1.6875 1 2.45
1.75 0.9375 2.3875
1.6875 0.9375 2.45
1.6875 1 2.3875
1.6875 0.9375 2.3875
1.875 0.9375 2.45
1.875 1 2.3875
1.8125 1 2.45
1.875 0.9375 2.3875
1.8125 0.9375 2.45
1.8125 1 2.3875
1.8125 0.9375 2.3875
2 0.9375 2.45
2 1 2.3875
1.9375 1 2.45
2 0.9375 2.3875
1.9375 0.9375 2.45
1.9375 1 2.3875
1.9375 0.9375 2.3875
2.125 0.9375 2.45
2.125 1 2.3875
2.0625 1 2.45
2.125 0.9375 2.3875
2.0625 0.9375 2.45
2.0625 1 2.3875
2.0625 0.9375 2.3875
2.25 0.9375 2.45
2.25 1 2.3875
2.1875 1 2.45
2.25 0.9375 2.3875
2.1875 0.9375 2.45
2.1875 1 2.3875
2.1875 0.9375 2.3875
2.375 0.9375 2.45
2.375 1 2.3875
2.3125 1 2.45
2.375 0.9375 2.3875
2.3125 0.9375 2.45
2.3125 1 2.3875
2.3125 0.9375 2.3875
2.5 0.9375 2.45
2.5 1 2.3875
2.4375 1 2.45
2.5 0.9375 2.3875
2.4375 0.9375 2.45
2.4375 1 2.3875
2.4375 0.9375 2.3875
2.625 0.9375 2.45
2.625 1 2.3875
2.5625 1 2.45
2.625 0.9375 2.3875
2.5625 0.9375 2.45
2.5625 1 2.3875
2.5625 0.9375 2.3875
2.75 0.9375 2.45
2.75 1 2.3875
2.6875 1 2.45
2.75 0.9375 2.3875
2.6875 0.9375 2.45
2.6875 1 2.3875
2.6875 0.9375 2.3875
2.875 0.9375 2.45
2.875 1 2.3875
2.8125 1 2.45
2.875 0.9375 2.3875
2.8125 0.9375 2.45
2.8125 1 2.3875
2.8125 0.9375 2.3875
3 0.9375 2.45
3 1 2.3875
2.9375 1 2.45
3 0.9375 2.3875
2.9375 0.9375 2.45
2.9375 1 2.3875
2.9375 0.9375 2.3875
0.125 0 2.5125
0.0625 0 2.575
0 0 2.5125
0.125 0.0625 2.575
0 0.0625 2.575
0.125 0.125 2.5125
0.0625 0.125 2.575
0 0.125 2.5125
0.0625 0 2.5125
0.125 0.0625 2.5125
0.0625 0.0625 2.575
0 0.0625 2.5125
0.0625 0.125 2.5125
0.0625 0.0625 2.5125
0.25 0 2.5125
0.1875 0 2.575
0.25 0.0625 2.575
0.25 0.125 2.5125
0.1875 0.125 2.575
0.1875 0 2.5125
0.25 0.0625 2.5125
0.1875 0.0625 2.575
0.1875 0.125 2.5125
0.1875 0.0625 2.5125
0.375 0 2.5125
0.3125 0 2.575
0.375 0.0625 2.575
0.375 0.125 2.5125
0.3125 0.125 2.575
0.3125 0 2.5125
0.375 0.0625 2.5125
0.3125 0.0625 2.575
0.3125 0.125 2.5125
0.3125 0.0625 2.5125
0.5 0 2.5125
0.4375 0 2.575
0.5 0.0625 2.575
0.5 0.125 2.5125
0.4375 0.125 2.575
0.4375 0 2.5125
0.5 0.0625 2.5125
0.4375 0.0625 2.575
0.4375 0.125 2.5125
0.4375 0.0625 2.5125
0.625 0 2.5125
0.5625 0 2.575
0.625 0.0625 2.575
0.625 0.125 2.5125
0.5625 0.125 2.575
0.5625 0 2.5125
0.625 0.0625 2.5125
0.5625 0.0625 2.575
0.5625 0.125 2.5125
0.5625 0.0625 2.5125
0.75 0 2.5125
0.6875 0 2.575
0.75 0.0625 2.575
0.75 0.125 2.5125
0.6875 0.125 2.575
0.6875 0 2.5125
0.75 0.0625 2.5125
0.6875 0.0625 2.575
0.6875 0.125 2.5125
0.6875 0.0625 2.5125
0.875 0 2.5125
0.8125 0 2.575
0.875 0.0625 2.575
0.875 0.125 2.5125
0.8125 0.125 2.575
0.8125 0 2.5125
0.875 0.0625 2.5125
0.8125 0.0625 2.575
0.8125 0.125 2.5125
0.8125 0.0625 2.5125
1 0 2.5125
0.9375 0 2.575
1 0.0625 2.575
1 0.125 2.5125
0.9375 0.125 2.575
0.9375 0 2.5125
1 0.0625 2.5125
0.9375 0.0625 2.575
0.9375 0.125 2.5125
0.9375 0.0625 2.5125
1.125 0 2.5125
1.0625 0 2.575
1.125 0.0625 2.575
1.125 0.125 2.5125
1.0625 0.125 2.575
1.0625 0 2.5125
1.125 0.0625 2.5125
1.0625 0.0625 2.575
1.0625 0.125 2.5125
1.0625 0.0625 2.5125
1.25 0 2.5125
1.1875 0 2.575
1.25 0.0625 2.575
1.25 0.125 2.5125
1.1875 0.125 2.575
1.1875 0 2.5125
1.25 0.0625 2.5125
1.1875 0.0625 2.575
1.1875 0.125 2.5125
1.1875 0.0625 2.5125
1.375 0 2.5125
1.3125 0 2.575
1.375 0.0625 2.575
1.375 0.125 2.5125
1.3125 0.125 2.575
1.3125 0 2.5125
1.375 0.0625 2.5125
1.3125 0.0625 2.575
1.3125 0.125 2.5125
1.3125 0.0625 2.5125
1.5 0 2.5125
1.4375 0 2.575
1.5 0.0625 2.575
1.5 0.125 2.5125
1.4375 0.125 2.575
1.4375 0 2.5125
1.5 0.0625 2.5125
1.4375 0.0625 2.575
1.4375 0.125 2.5125
1.4375 0.0625 2.5125
1.625 0 2.5125
1.5625 0 2.575
1.625 0.0625 2.575
1.625 0.125 2.5125
1.5625 0.125 2.575
1.5625 0 2.5125
1.625 0.0625 2.5125
1.5625 0.0625 2.575
1.5625 0.125 2.5125
1.5625 0.0625 2.5125
1.75 0 2.5125
1.6875 0 2.575
1.75 0.0625 2.575
1.75 0.125 2.5125
1.6875 0.125 2.575
1.6875 0 2.5125
1.75 0.0625 2.5125
1.6875 0.0625 2.575
1.6875 0.125 2.5125
1.6875 0.0625 2.5125
1.875 0 2.5125
1.8125 0 2.575
1.875 0.0625 2.575
1.875 0.125 2.5125
1.8125 0.125 2.575
1.8125 0 2.5125
1.875 0.0625 2.5125
1.8125 0.0625 2.575
1.8125 0.125 2.5125
1.8125 0.0625 2.5125
2 0 2.5125
1.9375 0 2.575
2 0.0625 2.575
2 0.125 2.5125
1.9375 0.125 2.575
1.9375 0 2.5125
2 0.0625 2.5125
1.9375 0.0625 2.575
1.9375 0.125 2.5125
1.9375 0.0625 2.5125
2.125 0 2.5125
2.0625 0 2.575
2.125 0.0625 2.575
2.125 0.125 2.5125
2.0625 0.125 2.575
2.0625 0 2.5125
2.125 0.0625 2.5125
2.0625 0.0625 2.575
2.0625 0.125 2.5125
2.0625 0.0625 2.5125
2.25 0 2.5125
2.1875 0 2.575
2.25 0.0625 2.575
2.25 0.125 2.5125
2.1875 0.125 2.575
2.1875 0 2.5125
2.25 0.0625 2.5125
2.1875 0.0625 2.575
2.1875 0.125 2.5125
2.1875 0.0625 2.5125
2.375 0 2.5125
2.3125 0 2.575
2.375 0.0625 2.575
2.375 0.125 2.5125
2.3125 0.125 2.575
2.3125 0 2.5125
2.375 0.0625 2.5125
2.3125 0.0625 2.575
2.3125 0.125 2.5125
2.3125 0.0625 2.5125
2.5 0 2.5125
2.4375 0 2.575
2.5 0.0625 2.575
2.5 0.125 2.5125
2.4375 0.125 2.575
2.4375 0 2.5125
2.5 0.0625 2.5125
2.4375 0.0625 2.575
2.4375 0.125 2.5125
2.4375 0.0625 2.5125
2.625 0 2.5125
2.5625 0 2.575
2.625 0.0625 2.575
2.625 0.125 2.5125
2.5625 0.125 2.575
2.5625 0 2.5125
2.625 0.0625 2.5125
2.5625 0.0625 2.575
2.5625 0.125 2.5125
2.5625 0.0625 2.5125
2.75 0 2.5125
2.6875 0 2.575
2.75 0.0625 2.575
2.75 0.125 2.5125
2.6875 0.125 2.575
2.6875 0 2.5125
2.75 0.0625 2.5125
2.6875 0.0625 2.575
2.6875 0.125 2.5125
2.6875 0.0625 2.5125
2.875 0 2.5125
2.8125 0 2.575
2.875 0.0625 2.575
2.875 0.125 2.5125
2.8125 0.125 2.575
2.8125 0 2.5125
2.875 0.0625 2.5125
2.8125 0.0625 2.575
2.8125 0.125 2.5125
2.8125 0.0625 2.5125
3 0 2.5125
2.9375 0 2.575
3 0.0625 2.575
3 0.125 2.5125
2.9375 0.125 2.575
2.9375 0 2.5125
3 0.0625 2.5125
2.9375 0.0625 2.575
2.9375 0.125 2.5125
2.9375 0.0625 2.5125
0.125 0.1875 2.575
0 0.1875 2.575
0.125 0.25 2.5125
0.0625 0.25 2.575
0 0.25 2.5125
0.125 0.1875 2.5125
0.0625 0.1875 2.575
0 0.1875 2.5125
0.0625 0.25 2.5125
0.0625 0.1875 2.5125
0.25 0.1875 2.575
0.25 0.25 2.5125
0.1875 0.25 2.575
0.25 0.1875 2.5125
0.1875 0.1875 2.575
0.1875 0.25 2.5125
0.1875 0.1875 2.5125
0.375 0.1875 2.575
0.375 0.25 2.5125
0.3125 0.25 2.575
0.375 0.1875 2.5125
0.3125 0.1875 2.575
0.3125 0.25 2.5125
0.3125 0.1875 2.5125
0.5 0.1875 2.575
0.5 0.25 2.5125
0.4375 0.25 2.575
0.5 0.1875 2.5125
0.4375 0.1875 2.575
0.4375 0.25 2.5125
0.4375 0.1875 2.5125
0.625 0.1875 2.575
0.625 0.25 2.5125
0.5625 0.25 2.575
0.625 0.1875 2.5125
0.5625 0.1875 2.575
0.5625 0.25 2.5125
0.5625 0.1875 2.5125
0.75 0.1875 2.575
0.75 0.25 2.5125
0.6875 0.25 2.575
0.75 0.1875 2.5125
0.6875 0.1875 2.575
0.6875 0.25 2.5125
0.6875 0.1875 2.5125
0.875 0.1875 2.575
0.875 0.25 2.5125
0.8125 0.25 2.575
0.875 0.1875 2.5125
0.8125 0.1875 2.575
0.8125 0.25 2.5125
0.8125 0.1875 2.5125
1 0.1875 2.575
1 0.25 2.5125
0.9375 0.25 2.575
1 0.1875 2.5125
0.9375 0.1875 2.575
0.9375 0.25 2.5125
0.9375 0.1875 2.5125
1.125 0.1875 2.575
1.125 0.25 2.5125
1.0625 0.25 2.575
1.125 0.1875 2.5125
1.0625 0.1875 2.575
1.0625 0.25 2.5125
1.0625 0.1875 2.5125
1.25 0.1875 2.575
1.25 0.25 2.5125
1.1875 0.25 2.575
1.25 0.1875 2.5125
1.1875 0.1875 2.575
1.1875 0.25 2.5125
1.1875 0.1875 2.5125
1.375 0.1875 2.575
1.375 0.25 2.5125
1.3125 0.25 2.575
1.375 0.1875 2.5125
1.3125 0.1875 2.575
1.3125 0.25 2.5125
1.3125 0.1875 2.5125
1.5 0.1875 2.575
1.5 0.25 2.5125
1.4375 0.25 2.575
1.5 0.1875 2.5125
1.4375 0.1875 2.575
1.4375 0.25 2.5125
1.4375 0.1875 2.5125
1.625 0.1875 2.575
1.625 0.25 2.5125
1.5625 0.25 2.575
1.625 0.1875 2.5125
1.5625 0.1875 2.575
1.5625 0.25 2.5125
1.5625 0.1875 2.5125
1.75 0.1875 2.575
1.75 0.25 2.5125
1.6875 0.25 2.575
1.75 0.1875 2.5125
1.6875 0.1875 2.575
1.6875 0.25 2.5125
1.6875 0.1875 2.5125
1.875 0.1875 2.575
1.875 0.25 2.5125
1.8125 0.25 2.575
1.875 0.1875 2.5125
1.8125 0.1875 2.575
1.8125 0.25 2.5125
1.8125 0.1875 2.5125
2 0.1875 2.575
2 0.25 2.5125
1.9375 0.25 2.575
2 0.1875 2.5125
1.9375 0.1875 2.575
1.9375 0.25 2.5125
1.9375 0.1875 2.5125
2.125 0.1875 2.575
2.125 0.25 2.5125
2.0625 0.25 2.575
2.125 0.1875 2.5125
2.0625 0.1875 2.575
2.0625 0.25 2.5125
2.0625 0.1875 2.5125
2.25 0.1875 2.575
2.25 0.25 2.5125
2.1875 0.25 2.575
2.25 0.1875 2.5125
2.1875 0.1875 2.575
2.1875 0.25 2.5125
2.1875 0.1875 2.5125
2.375 0.1875 2.575
2.375 0.25 2.5125
2.3125 0.25 2.575
2.375 0.1875 2.5125
2.3125 0.1875 2.575
2.3125 0.25 2.5125
2.3125 0.1875 2.5125
2.5 0.1875 2.575
2.5 0.25 2.5125
2.4375 0.25 2.575
2.5 0.1875 2.5125
2.4375 0.1875 2.575
2.4375 0.25 2.5125
2.4375 0.1875 2.5125
2.625 0.1875 2.575
2.625 0.25 2.5125
2.5625 0.25 2.575
2.625 0.1875 2.5125
2.5625 0.1875 2.575
2.5625 0.25 2.5125
2.5625 0.1875 2.5125
2.75 0.1875 2.575
2.75 0.25 2.5125
2.6875 0.25 2.575
2.75 0.1875 2.5125
2.6875 0.1875 2.575
2.6875 0.25 2.5125
2.6875 0.1875 2.5125
2.875 0.1875 2.575
2.875 0.25 2.5125
2.8125 0.25 2.575
2.875 0.1875 2.5125
2.8125 0.1875 2.575
2.8125 0.25 2.5125
2.8125 0.1875 2.5125
3 0.1875 2.575
3 0.25 2.5125
2.9375 0.25 2.575
3 0.1875 2.5125
2.9375 0.1875 2.575
2.9375 0.25 2.5125
2.9375 0.1875 2.5125
0.125 0.3125 2.575
0 0.3125 2.575
0.125 0.375 2.5125
0.0625 0.375 2.575
0 0.375 2.5125
0.125 0.3125 2.5125
0.0625 0.3125 2.575
0 0.3125 2.5125
0.0625 0.375 2.5125
0.0625 0.3125 2.5125
0.25 0.3125 2.575
0.25 0.375 2.5125
0.1875 0.375 2.575
0.25 0.3125 2.5125
0.1875 0.3125 2.575
0.1875 0.375 2.5125
0.1875 0.3125 2.5125
0.375 0.3125 2.575
0.375 0.375 2.5125
0.3125 0.375 2.575
0.375 0.3125 2.5125
0.3125 0.3125 2.575
0.3125 0.375 2.5125
0.3125 0.3125 2.5125
0.5 0.3125 2.575
0.5 0.375 2.5125
0.4375 0.375 2.575
0.5 0.3125 2.5125
0.4375 0.3125 2.575
0.4375 0.375 2.5125
0.4375 0.3125 2.5125
0.625 0.3125 2.575
0.625 0.375 2.5125
0.5625 0.375 2.575
0.625 0.3125 2.5125
0.5625 0.3125 2.575
0.5625 0.375 2.5125
0.5625 0.3125 2.5125
0.75 0.3125 2.575
0.75 0.375 2.5125
0.6875 0.375 2.575
0.75 0.3125 2.5125
0.6875 0.3125 2.575
0.6875 0.375 2.5125
0.6875 0.3125 2.5125
0.875 0.3125 2.575
0.875 0.375 2.5125
0.8125 0.375 2.575
0.875 0.3125 2.5125
0.8125 0.3125 2.575
0.8125 0.375 2.5125
0.8125 0.3125 2.5125
1 0.3125 2.575
1 0.375 2.5125
0.9375 0.375 2.575
1 0.3125 2.5125
0.9375 0.3125 2.575
0.9375 0.375 2.5125
0.9375 0.3125 2.5125
1.125 0.3125 2.575
1.125 0.375 2.5125
1.0625 0.375 2.575
1.125 0.3125 2.5125
1.0625 0.3125 2.575
1.0625 0.375 2.5125
1.0625 0.3125 2.5125
1.25 0.3125 2.575
1.25 0.375 2.5125
1.1875 0.375 2.575
1.25 0.3125 2.5125
1.1875 0.3125 2.575
1.1875 0.375 2.5125
1.1875 0.3125 2.5125
1.375 0.3125 2.575
1.375 0.375 2.5125
1.3125 0.375 2.575
1.375 0.3125 2.5125
1.3125 0.3125 2.575
1.3125 0.375 2.5125
1.3125 0.3125 2.5125
1.5 0.3125 2.575
1.5 0.375 2.5125
1.4375 0.375 2.575
1.5 0.3125 2.5125
1.4375 0.3125 2.575
1.4375 0.375 2.5125
1.4375 0.3125 2.5125
1.625 0.3125 2.575
1.625 0.375 2.5125
1.5625 0.375 2.575
1.625 0.3125 2.5125
1.5625 0.3125 2.575
1.5625 0.375 2.5125
1.5625 0.3125 2.5125
1.75 0.3125 2.575
1.75 0.375 2.5125
1.6875 0.375 2.575
1.75 0.3125 2.5125
1.6875 0.3125 2.575
1.6875 0.375 2.5125
1.6875 0.3125 2.5125
1.875 0.3125 2.575
1.875 0.375 2.5125
1.8125 0.375 2.575
1.875 0.3125 2.5125
1.8125 0.3125 2.575
1.8125 0.375 2.5125
1.8125 0.3125 2.5125
2 0.3125 2.575
2 0.375 2.5125
1.9375 0.375 2.575
2 0.3125 2.5125
1.9375 0.3125 2.575
1.9375 0.375 2.5125
1.9375 0.3125 2.5125
2.125 0.3125 2.575
2.125 0.375 2.5125
2.0625 0.375 2.575
2.125 0.3125 2.5125
2.0625 0.3125 2.575
2.0625 0.375 2.5125
2.0625 0.3125 2.5125
2.25 0.3125 2.575
2.25 0.375 2.5125
2.1875 0.375 2.575
2.25 0.3125 2.5125
2.1875 0.3125 2.575
2.1875 0.375 2.5125
2.1875 0.3125 2.5125
2.375 0.3125 2.575
2.375 0.375 2.5125
2.3125 0.375 2.575
2.375 0.3125 2.5125
2.3125 0.3125 2.575
2.3125 0.375 2.5125
2.3125 0.3125 2.5125
2.5 0.3125 2.575
2.5 0.375 2.5125
2.4375 0.375 2.575
2.5 0.3125 2.5125
2.4375 0.3125 2.575
2.4375 0.375 2.5125
2.4375 0.3125 2.5125
2.625 0.3125 2.575
2.625 0.375 2.5125
2.5625 0.375 2.575
2.625 0.3125 2.5125
2.5625 0.3125 2.575
2.5625 0.375 2.5125
2.5625 0.3125 2.5125
2.75 0.3125 2.575
2.75 0.375 2.5125
2.6875 0.375 2.575
2.75 0.3125 2.5125
2.6875 0.3125 2.575
2.6875 0.375 2.5125
2.6875 0.3125 2.5125
2.875 0.3125 2.575
2.875 0.375 2.5125
2.8125 0.375 2.575
2.875 0.3125 2.5125
2.8125 0.3125 2.575
2.8125 0.375 2.5125
2.8125 0.3125 2.5125
3 0.3125 2.575
3 0.375 2.5125
2.9375 0.375 2.575
3 0.3125 2.5125
2.9375 0.3125 2.575
2.9375 0.375 2.5125
2.9375 0.3125 2.5125
0.125 0.4375 2.575
0 0.4375 2.575
0.125 0.5 2.5125
0.0625 0.5 2.575
0 0.5 2.5125
0.125 0.4375 2.5125
0.0625 0.4375 2.575
0 0.4375 2.5125
0.0625 0.5 2.5125
0.0625 0.4375 2.5125
0.25 0.4375 2.575
0.25 0.5 2.5125
0.1875 0.5 2.575
0.25 0.4375 2.5125
0.1875 0.4375 2.575
0.1875 0.5 2.5125
0.1875 0.4375 2.5125
0.375 0.4375 2.575
0.375 0.5 2.5125
0.3125 0.5 2.575
0.375 0.4375 2.5125
0.3125 0.4375 2.575
0.3125 0.5 2.5125
0.3125 0.4375 2.5125
0.5 0.4375 2.575
0.5 0.5 2.5125
0.4375 0.5 2.575
0.5 0.4375 2.5125
0.4375 0.4375 2.575
0.4375 0.5 2.5125
0.4375 0.4375 2.5125
0.625 0.4375 2.575
0.625 0.5 2.5125
0.5625 0.5 2.575
0.625 0.4375 2.5125
0.5625 0.4375 2.575
0.5625 0.5 2.5125
0.5625 0.4375 2.5125
0.75 0.4375 2.575
0.75 0.5 2.5125
0.6875 0.5 2.575
0.75 0.4375 2.5125
0.6875 0.4375 2.575
0.6875 0.5 2.5125
0.6875 0.4375 2.5125
0.875 0.4375 2.575
0.875 0.5 2.5125
0.8125 0.5 2.575
0.875 0.4375 2.5125
0.8125 0.4375 2.575
0.8125 0.5 2.5125
0.8125 0.4375 2.5125
1 0.4375 2.575
1 0.5 2.5125
0.9375 0.5 2.575
1 0.4375 2.5125
0.9375 0.4375 2.575
0.9375 0.5 2.5125
0.9375 0.4375 2.5125
1.125 0.4375 2.575
1.125 0.5 2.5125
1.0625 0.5 2.575
1.125 0.4375 2.5125
1.0625 0.4375 2.575
1.0625 0.5 2.5125
1.0625 0.4375 2.5125
1.25 0.4375 2.575
1.25 0.5 2.5125
1.1875 0.5 2.575
1.25 0.4375 2.5125
1.1875 0.4375 2.575
1.1875 0.5 2.5125
1.1875 0.4375 2.5125
1.375 0.4375 2.575
1.375 0.5 2.5125
1.3125 0.5 2.575
1.375 0.4375 2.5125
1.3125 0.4375 2.575
1.3125 0.5 2.5125
1.3125 0.4375 2.5125
1.5 0.4375 2.575
1.5 0.5 2.5125
1.4375 0.5 2.575
1.5 0.4375 2.5125
1.4375 0.4375 2.575
1.4375 0.5 2.5125
1.4375 0.4375 2.5125
1.625 0.4375 2.575
1.625 0.5 2.5125
1.5625 0.5 2.575
1.625 0.4375 2.5125
1.5625 0.4375 2.575
1.5625 0.5 2.5125
1.5625 0.4375 2.5125
1.75 0.4375 2.575
1.75 0.5 2.5125
1.6875 0.5 2.575
1.75 0.4375 2.5125
1.6875 0.4375 2.575
1.6875 0.5 2.5125
1.6875 0.4375 2.5125
1.875 0.4375 2.575
1.875 0.5 2.5125
1.8125 0.5 2.575
1.875 0.4375 2.5125
1.8125 0.4375 2.575
1.8125 0.5 2.5125
1.8125 0.4375 2.5125
2 0.4375 2.575
2 0.5 2.5125
1.9375 0.5 2.575
2 0.4375 2.5125
1.9375 0.4375 2.575
1.9375 0.5 2.5125
1.9375 0.4375 2.5125
2.125 0.4375 2.575
2.125 0.5 2.5125
2.0625 0.5 2.575
2.125 0.4375 2.5125
2.0625 0.4375 2.575
2.0625 0.5 2.5125
2.0625 0.4375 2.5125
2.25 0.4375 2.575
2.25 0.5 2.5125
2.1875 0.5 2.575
2.25 0.4375 2.5125
2.1875 0.4375 2.575
2.1875 0.5 2.5125
2.1875 0.4375 2.5125
2.375 0.4375 2.575
2.375 0.5 2.5125
2.3125 0.5 2.575
2.375 0.4375 2.5125
2.3125 0.4375 2.575
2.3125 0.5 2.5125
2.3125 0.4375 2.5125
2.5 0.4375 2.575
2.5 0.5 2.5125
2.4375 0.5 2.575
2.5 0.4375 2.5125
2.4375 0.4375 2.575
2.4375 0.5 2.5125
2.4375 0.4375 2.5125
2.625 0.4375 2.575
2.625 0.5 2.5125
2.5625 0.5 2.575
2.625 0.4375 2.5125
2.5625 0.4375 2.575
2.5625 0.5 2.5125
2.5625 0.4375 2.5125
2.75 0.4375 2.575
2.75 0.5 2.5125
2.6875 0.5 2.575
2.75 0.4375 2.5125
2.6875 0.4375 2.575
2.6875 0.5 2.5125
2.6875 0.4375 2.5125
2.875 0.4375 2.575
2.875 0.5 2.5125
2.8125 0.5 2.575
2.875 0.4375 2.5125
2.8125 0.4375 2.575
2.8125 0.5 2.5125
2.8125 0.4375 2.5125
3 0.4375 2.575
3 0.5 2.5125
2.9375 0.5 2.575
3 0.4375 2.5125
2.9375 0.4375 2.575
2.9375 0.5 2.5125
2.9375 0.4375 2.5125
0.125 0.5625 2.575
0 0.5625 2.575
0.125 0.625 2.5125
0.0625 0.625 2.575
0 0.625 2.5125
0.125 0.5625 2.5125
0.0625 0.5625 2.575
0 0.5625 2.5125
0.0625 0.625 2.5125
0.0625 0.5625 2.5125
0.25 0.5625 2.575
0.25 0.625 2.5125
0.1875 0.625 2.575
0.25 0.5625 2.5125
0.1875 0.5625 2.575
0.1875 0.625 2.5125
0.1875 0.5625 2.5125
0.375 0.5625 2.575
0.375 0.625 2.5125
0.3125 0.625 2.575
0.375 0.5625 2.5125
0.3125 0.5625 2.575
0.3125 0.625 2.5125
0.3125 0.5625 2.5125
0.5 0.5625 2.575
0.5 0.625 2.5125
0.4375 0.625 2.575
0.5 0.5625 2.5125
0.4375 0.5625 2.575
0.4375 0.625 2.5125
0.4375 0.5625 2.5125
0.625 0.5625 2.575
0.625 0.625 2.5125
0.5625 0.625 2.575
0.625 0.5625 2.5125
0.5625 0.5625 2.575
0.5625 0.625 2.5125
0.5625 0.5625 2.5125
0.75 0.5625 2.575
0.75 0.625 2.5125
0.6875 0.625 2.575
0.75 0.5625 2.5125
0.6875 0.5625 2.575
0.6875 0.625 2.5125
0.6875 0.5625 2.5125
0.875 0.5625 2.575
0.875 0.625 2.5125
0.8125 0.625 2.575
0.875 0.5625 2.5125
0.8125 0.5625 2.575
0.8125 0.625 2.5125
0.8125 0.5625 2.5125
1 0.5625 2.575
1 0.625 2.5125
0.9375 0.625 2.575
1 0.5625 2.5125
0.9375 0.5625 2.575
0.9375 0.625 2.5125
0.9375 0.5625 2.5125
1.125 0.5625 2.575
1.125 0.625 2.5125
1.0625 0.625 2.575
1.125 0.5625 2.5125
1.0625 0.5625 2.575
1.0625 0.625 2.5125
1.0625 0.5625 2.5125
1.25 0.5625 2.575
1.25 0.625 2.5125
1.1875 0.625 2.575
1.25 0.5625 2.5125
1.1875 0.5625 2.575
1.1875 0.625 2.5125
1.1875 0.5625 2.5125
1.375 0.5625 2.575
1.375 0.625 2.5125
1.3125 0.625 2.575
1.375 0.5625 2.5125
1.3125 0.5625 2.575
1.3125 0.625 2.5125
1.3125 0.5625 2.5125
1.5 0.5625 2.575
1.5 0.625 2.5125
1.4375 0.625 2.575
1.5 0.5625 2.5125
1.4375 0.5625 2.575
1.4375 0.625 2.5125
1.4375 0.5625 2.5125
1.625 0.5625 2.575
1.625 0.625 2.5125
1.5625 0.625 2.575
1.625 0.5625 2.5125
1.5625 0.5625 2.575
1.5625 0.625 2.5125
1.5625 0.5625 2.5125
1.75 0.5625 2.575
1.75 0.625 2.5125
1.6875 0.625 2.575
1.75 0.5625 2.5125
1.6875 0.5625 2.575
1.6875 0.625 2.5125
1.6875 0.5625 2.5125
1.875 0.5625 2.575
1.875 0.625 2.5125
1.8125 0.625 2.575
1.875 0.5625 2.5125
1.8125 0.5625 2.575
1.8125 0.625 2.5125
1.8125 0.5625 2.5125
2 0.5625 2.575
2 0.625 2.5125
1.9375 0.625 2.575
2 0.5625 2.5125
1.9375 0.5625 2.575
1.9375 0.625 2.5125
1.9375 0.5625 2.5125
2.125 0.5625 2.575
2.125 0.625 2.5125
2.0625 0.625 2.575
2.125 0.5625 2.5125
2.0625 0.5625 2.575
2.0625 0.625 2.5125
2.0625 0.5625 2.5125
2.25 0.5625 2.575
2.25 0.625 2.5125
2.1875 0.625 2.575
2.25 0.5625 2.5125
2.1875 0.5625 2.575
2.1875 0.625 2.5125
2.1875 0.5625 2.5125
2.375 0.5625 2.575
2.375 0.625 2.5125
2.3125 0.625 2.575
2.375 0.5625 2.5125
2.3125 0.5625 2.575
2.3125 0.625 2.5125
2.3125 0.5625 2.5125
2.5 0.5625 2.575
2.5 0.625 2.5125
2.4375 0.625 2.575
2.5 0.5625 2.5125
2.4375 0.5625 2.575
2.4375 0.625 2.5125
2.4375 0.5625 2.5125
2.625 0.5625 2.575
2.625 0.625 2.5125
2.5625 0.625 2.575
2.625 0.5625 2.5125
2.5625 0.5625 2.575
2.5625 0.625 2.5125
2.5625 0.5625 2.5125
2.75 0.5625 2.575
2.75 0.625 2.5125
2.6875 0.625 2.575
2.75 0.5625 2.5125
2.6875 0.5625 2.575
2.6875 0.625 2.5125
2.6875 0.5625 2.5125
2.875 0.5625 2.575
2.875 0.625 2.5125
2.8125 0.625 2.575
2.875 0.5625 2.5125
2.8125 0.5625 2.575
2.8125 0.625 2.5125
2.8125 0.5625 2.5125
3 0.5625 2.575
3 0.625 2.5125
2.9375 0.625 2.575
3 0.5625 2.5125
2.9375 0.5625 2.575
2.9375 0.625 2.5125
2.9375 0.5625 2.5125
0.125 0.6875 2.575
0 0.6875 2.575
0.125 0.75 2.5125
0.0625 0.75 2.575
0 0.75 2.5125
0.125 0.6875 2.5125
0.0625 0.6875 2.575
0 0.6875 2.5125
0.0625 0.75 2.5125
0.0625 0.6875 2.5125
0.25 0.6875 2.575
0.25 0.75 2.5125
0.1875 0.75 2.575
0.25 0.6875 2.5125
0.1875 0.6875 2.575
0.1875 0.75 2.5125
0.1875 0.6875 2.5125
0.375 0.6875 2.575
0.375 0.75 2.5125
0.3125 0.75 2.575
0.375 0.6875 2.5125
0.3125 0.6875 2.575
0.3125 0.75 2.5125
0.3125 0.6875 2.5125
0.5 0.6875 2.575
0.5 0.75 2.5125
0.4375 0.75 2.575
0.5 0.6875 2.5125
0.4375 0.6875 2.575
0.4375 0.75 2.5125
0.4375 0.6875 2.5125
0.625 0.6875 2.575
0.625 0.75 2.5125
0.5625 0.75 2.575
0.625 0.6875 2.5125
0.5625 0.6875 2.575
0.5625 0.75 2.5125
0.5625 0.6875 2.5125
0.75 0.6875 2.575
0.75 0.75 2.5125
0.6875 0.75 2.575
0.75 0.6875 2.5125
0.6875 0.6875 2.575
0.6875 0.75 2.5125
0.6875 0.6875 2.5125
0.875 0.6875 2.575
0.875 0.75 2.5125
0.8125 0.75 2.575
0.875 0.6875 2.5125
0.8125 0.6875 2.575
0.8125 0.75 2.5125
0.8125 0.6875 2.5125
1 0.6875 2.575
1 0.75 2.5125
0.9375 0.75 2.575
1 0.6875 2.5125
0.9375 0.6875 2.575
0.9375 0.75 2.5125
0.9375 0.6875 2.5125
1.125 0.6875 2.575
1.125 0.75 2.5125
1.0625 0.75 2.575
1.125 0.6875 2.5125
1.0625 0.6875 2.575
1.0625 0.75 2.5125
1.0625 0.6875 2.5125
1.25 0.6875 2.575
1.25 0.75 2.5125
1.1875 0.75 2.575
1.25 0.6875 2.5125
1.1875 0.6875 2.575
1.1875 0.75 2.5125
1.1875 0.6875 2.5125
1.375 0.6875 2.575
1.375 0.75 2.5125
1.3125 0.75 2.575
1.375 0.6875 2.5125
1.3125 0.6875 2.575
1.3125 0.75 2.5125
1.3125 0.6875 2.5125
1.5 0.6875 2.575
1.5 0.75 2.5125
1.4375 0.75 2.575
1.5 0.6875 2.5125
1.4375 0.6875 2.575
1.4375 0.75 2.5125
1.4375 0.6875 2.5125
1.625 0.6875 2.575
1.625 0.75 2.5125
1.5625 0.75 2.575
1.625 0.6875 2.5125
1.5625 0.6875 2.575
1.5625 0.75 2.5125
1.5625 0.6875 2.5125
1.75 0.6875 2.575
1.75 0.75 2.5125
1.6875 0.75 2.575
1.75 0.6875 2.5125
1.6875 0.6875 2.575
1.6875 0.75 2.5125
1.6875 0.6875 2.5125
1.875 0.6875 2.575
1.875 0.75 2.5125
1.8125 0.75 2.575
1.875 0.6875 2.5125
1.8125 0.6875 2.575
1.8125 0.75 2.5125
1.8125 0.6875 2.5125
2 0.6875 2.575
2 0.75 2.5125
1.9375 0.75 2.575
2 0.6875 2.5125
1.9375 0.6875 2.575
1.9375 0.75 2.5125
1.9375 0.6875 2.5125
2.125 0.6875 2.575
2.125 0.75 2.5125
2.0625 0.75 2.575
2.125 0.6875 2.5125
2.0625 0.6875 2.575
2.0625 0.75 2.5125
2.0625 0.6875 2.5125
2.25 0.6875 2.575
2.25 0.75 2.5125
2.1875 0.75 2.575
2.25 0.6875 2.5125
2.1875 0.6875 2.575
2.1875 0.75 2.5125
2.1875 0.6875 2.5125
2.375 0.6875 2.575
2.375 0.75 2.5125
2.3125 0.75 2.575
2.375 0.6875 2.5125
2.3125 0.6875 2.575
2.3125 0.75 2.5125
2.3125 0.6875 2.5125
2.5 0.6875 2.575
2.5 0.75 2.5125
2.4375 0.75 2.575
2.5 0.6875 2.5125
2.4375 0.6875 2.575
2.4375 0.75 2.5125
2.4375 0.6875 2.5125
2.625 0.6875 2.575
2.625 0.75 2.5125
2.5625 0.75 2.575
2.625 0.6875 2.5125
2.5625 0.6875 2.575
2.5625 0.75 2.5125
2.5625 0.6875 2.5125
2.75 0.6875 2.575
2.75 0.75 2.5125
2.6875 0.75 2.575
2.75 0.6875 2.5125
2.6875 0.6875 2.575
2.6875 0.75 2.5125
2.6875 0.6875 2.5125
2.875 0.6875 2.575
2.875 0.75 2.5125
2.8125 0.75 2.575
2.875 0.6875 2.5125
2.8125 0.6875 2.575
2.8125 0.75 2.5125
2.8125 0.6875 2.5125
3 0.6875 2.575
3 0.75 2.5125
2.9375 0.75 2.575
3 0.6875 2.5125
2.9375 0.6875 2.575
2.9375 0.75 2.5125
2.9375 0.6875 2.5125
0.125 0.8125 2.575
0 0.8125 2.575
0.125 0.875 2.5125
0.0625 0.875 2.575
0 0.875 2.5125
0.125 0.8125 2.5125
0.0625 0.8125 2.575
0 0.8125 2.5125
0.0625 0.875 2.5125
0.0625 0.8125 2.5125
0.25 0.8125 2.575
0.25 0.875 2.5125
0.1875 0.875 2.575
0.25 0.8125 2.5125
0.1875 0.8125 2.575
0.1875 0.875 2.5125
0.1875 0.8125 2.5125
0.375 0.8125 2.575
0.375 0.875 2.5125
0.3125 0.875 2.575
0.375 0.8125 2.5125
0.3125 0.8125 2.575
0.3125 0.875 2.5125
0.3125 0.8125 2.5125
0.5 0.8125 2.575
0.5 0.875 2.5125
0.4375 0.875 2.575
0.5 0.8125 2.5125
0.4375 0.8125 2.575
0.4375 0.875 2.5125
0.4375 0.8125 2.5125
0.625 0.8125 2.575
0.625 0.875 2.5125
0.5625 0.875 2.575
0.625 0.8125 2.5125
0.5625 0.8125 2.575
0.5625 0.875 2.5125
0.5625 0.8125 2.5125
0.75 0.8125 2.575
0.75 0.875 2.5125
0.6875 0.875 2.575
0.75 0.8125 2.5125
0.6875 0.8125 2.575
0.6875 0.875 2.5125
0.6875 0.8125 2.5125
0.875 0.8125 2.575
0.875 0.875 2.5125
0.8125 0.875 2.575
0.875 0.8125 2.5125
0.8125 0.8125 2.575
0.8125 0.875 2.5125
0.8125 0.8125 2.5125
1 0.8125 2.575
1 0.875 2.5125
0.9375 0.875 2.575
1 0.8125 2.5125
0.9375 0.8125 2.575
0.9375 0.875 2.5125
0.9375 0.8125 2.5125
1.125 0.8125 2.575
1.125 0.875 2.5125
1.0625 0.875 2.575
1.125 0.8125 2.5125
1.0625 0.8125 2.575
1.0625 0.875 2.5125
1.0625 0.8125 2.5125
1.25 0.8125 2.575
1.25 0.875 2.5125
1.1875 0.875 2.575
1.25 0.8125 2.5125
1.1875 0.8125 2.575
1.1875 0.875 2.5125
1.1875 0.8125 2.5125
1.375 0.8125 2.575
1.375 0.875 2.5125
1.3125 0.875 2.575
1.375 0.8125 2.5125
1.3125 0.8125 2.575
1.3125 0.875 2.5125
1.3125 0.8125 2.5125
1.5 0.8125 2.575
1.5 0.875 2.5125
1.4375 0.875 2.575
1.5 0.8125 2.5125
1.4375 0.8125 2.575
1.4375 0.875 2.5125
1.4375 0.8125 2.5125
1.625 0.8125 2.575
1.625 0.875 2.5125
1.5625 0.875 2.575
1.625 0.8125 2.5125
1.5625 0.8125 2.575
1.5625 0.875 2.5125
1.5625 0.8125 2.5125
1.75 0.8125 2.575
1.75 0.875 2.5125
1.6875 0.875 2.575
1.75 0.8125 2.5125
1.6875 0.8125 2.575
1.6875 0.875 2.5125
1.6875 0.8125 2.5125
1.875 0.8125 2.575
1.875 0.875 2.5125
1.8125 0.875 2.575
1.875 0.8125 2.5125
1.8125 0.8125 2.575
1.8125 0.875 2.5125
1.8125 0.8125 2.5125
2 0.8125 2.575
2 0.875 2.5125
1.9375 0.875 2.575
2 0.8125 2.5125
1.9375 0.8125 2.575
1.9375 0.875 2.5125
1.9375 0.8125 2.5125
2.125 0.8125 2.575
2.125 0.875 2.5125
2.0625 0.875 2.575
2.125 0.8125 2.5125
2.0625 0.8125 2.575
2.0625 0.875 2.5125
2.0625 0.8125 2.5125
2.25 0.8125 2.575
2.25 0.875 2.5125
2.1875 0.875 2.575
2.25 0.8125 2.5125
2.1875 0.8125 2.575
2.1875 0.875 2.5125
2.1875 0.8125 2.5125
2.375 0.8125 2.575
2.375 0.875 2.5125
2.3125 0.875 2.575
2.375 0.8125 2.5125
2.3125 0.8125 2.575
2.3125 0.875 2.5125
2.3125 0.8125 2.5125
2.5 0.8125 2.575
2.5 0.875 2.5125
2.4375 0.875 2.575
2.5 0.8125 2.5125
2.4375 0.8125 2.575
2.4375 0.875 2.5125
2.4375 0.8125 2.5125
2.625 0.8125 2.575
2.625 0.875 2.5125
2.5625 0.875 2.575
2.625 0.8125 2.5125
2.5625 0.8125 2.575
2.5625 0.875 2.5125
2.5625 0.8125 2.5125
2.75 0.8125 2.575
2.75 0.875 2.5125
2.6875 0.875 2.575
2.75 0.8125 2.5125
2.6875 0.8125 2.575
2.6875 0.875 2.5125
2.6875 0.8125 2.5125
2.875 0.8125 2.575
2.875 0.875 2.5125
2.8125 0.875 2.575
2.875 0.8125 2.5125
2.8125 0.8125 2.575
2.8125 0.875 2.5125
2.8125 0.8125 2.5125
3 0.8125 2.575
3 0.875 2.5125
2.9375 0.875 2.575
3 0.8125 2.5125
2.9375 0.8125 2.575
2.9375 0.875 2.5125
2.9375 0.8125 2.5125
0.125 0.9375 2.575
0 0.9375 2.575
0.125 1 2.5125
0.0625 1 2.575
0 1 2.5125
0.125 0.9375 2.5125
0.0625 0.9375 2.575
0 0.9375 2.5125
0.0625 1 2.5125
0.0625 0.9375 2.5125
0.25 0.9375 2.575
0.25 1 2.5125
0.1875 1 2.575
0.25 0.9375 2.5125
0.1875 0.9375 2.575
0.1875 1 2.5125
0.1875 0.9375 2.5125
0.375 0.9375 2.575
0.375 1 2.5125
0.3125 1 2.575
0.375 0.9375 2.5125
0.3125 0.9375 2.575
0.3125 1 2.5125
0.3125 0.9375 2.5125
0.5 0.9375 2.575
0.5 1 2.5125
0.4375 1 2.575
0.5 0.9375 2.5125
0.4375 0.9375 2.575
0.4375 1 2.5125
0.4375 0.9375 2.5125
0.625 0.9375 2.575
0.625 1 2.5125
0.5625 1 2.575
0.625 0.9375 2.5125
0.5625 0.9375 2.575
0.5625 1 2.5125
0.5625 0.9375 2.5125
0.75 0.9375 2.575
0.75 1 2.5125
0.6875 1 2.575
0.75 0.9375 2.5125
0.6875 0.9375 2.575
0.6875 1 2.5125
0.6875 0.9375 2.5125
0.875 0.9375 2.575
0.875 1 2.5125
0.8125 1 2.575
0.875 0.9375 2.5125
0.8125 0.9375 2.575
0.8125 1 2.5125
0.8125 0.9375 2.5125
1 0.9375 2.575
1 1 2.5125
0.9375 1 2.575
1 0.9375 2.5125
0.9375 0.9375 2.575
0.9375 1 2.5125
0.9375 0.9375 2.5125
1.125 0.9375 2.575
1.125 1 2.5125
1.0625 1 2.575
1.125 0.9375 2.5125
1.0625 0.9375 2.575
1.0625 1 2.5125
1.0625 0.9375 2.5125
1.25 0.9375 2.575
1.25 1 2.5125
1.1875 1 2.575
1.25 0.9375 2.5125
1.1875 0.9375 2.575
1.1875 1 2.5125
1.1875 0.9375 2.5125
1.375 0.9375 2.575
1.375 1 2.5125
1.3125 1 2.575
1.375 0.9375 2.5125
1.3125 0.9375 2.575
1.3125 1 2.5125
1.3125 0.9375 2.5125
1.5 0.9375 2.575
1.5 1 2.5125
1.4375 1 2.575
1.5 0.9375 2.5125
1.4375 0.9375 2.575
1.4375 1 2.5125
1.4375 0.9375 2.5125
1.625 0.9375 2.575
1.625 1 2.5125
1.5625 1 2.575
1.625 0.9375 2.5125
1.5625 0.9375 2.575
1.5625 1 2.5125
1.5625 0.9375 2.5125
1.75 0.9375 2.575
1.75 1 2.5125
1.6875 1 2.575
1.75 0.9375 2.5125
1.6875 0.9375 2.575
1.6875 1 2.5125
1.6875 0.9375 2.5125
1.875 0.9375 2.575
1.875 1 2.5125
1.8125 1 2.575
1.875 0.9375 2.5125
1.8125 0.9375 2.575
1.8125 1 2.5125
1.8125 0.9375 2.5125
2 0.9375 2.575
2 1 2.5125
1.9375 1 2.575
2 0.9375 2.5125
1.9375 0.9375 2.575
1.9375 1 2.5125
1.9375 0.9375 2.5125
2.125 0.9375 2.575
2.125 1 2.5125
2.0625 1 2.575
2.125 0.9375 2.5125
2.0625 0.9375 2.575
2.0625 1 2.5125
2.0625 0.9375 2.5125
2.25 0.9375 2.575
2.25 1 2.5125
2.1875 1 2.575
2.25 0.9375 2.5125
2.1875 0.9375 2.575
2.1875 1 2.5125
2.1875 0.9375 2.5125
2.375 0.9375 2.575
2.375 1 2.5125
2.3125 1 2.575
2.375 0.9375 2.5125
2.3125 0.9375 2.575
2.3125 1 2.5125
2.3125 0.9375 2.5125
2.5 0.9375 2.575
2.5 1 2.5125
2.4375 1 2.575
2.5 0.9375 2.5125
2.4375 0.9375 2.575
2.4375 1 2.5125
2.4375 0.9375 2.5125
2.625 0.9375 2.575
2.625 1 2.5125
2.5625 1 2.575
2.625 0.9375 2.5125
2.5625 0.9375 2.575
2.5625 1 2.5125
2.5625 0.9375 2.5125
2.75 0.9375 2.575
2.75 1 2.5125
2.6875 1 2.575
2.75 0.9375 2.5125
2.6875 0.9375 2.575
2.6875 1 2.5125
2.6875 0.9375 2.5125
2.875 0.9375 2.575
2.875 1 2.5125
2.8125 1 2.575
2.875 0.9375 2.5125
2.8125 0.9375 2.575
2.8125 1 2.5125
2.8125 0.9375 2.5125
3 0.9375 2.575
3 1 2.5125
2.9375 1 2.575
3 0.9375 2.5125
2.9375 0.9375 2.575
2.9375 1 2.5125
2.9375 0.9375 2.5125
0.125 0 2.6375
0.0625 0 2.7
0 0 2.6375
0.125 0.0625 2.7
0 0.0625 2.7
0.125 0.125 2.6375
0.0625 0.125 2.7
0 0.125 2.6375
0.0625 0 2.6375
0.125 0.0625 2.6375
0.0625 0.0625 2.7
0 0.0625 2.6375
0.0625 0.125 2.6375
0.0625 0.0625 2.6375
0.25 0 2.6375
0.1875 0 2.7
0.25 0.0625 2.7
0.25 0.125 2.6375
0.1875 0.125 2.7
0.1875 0 2.6375
0.25 0.0625 2.6375
0.1875 0.0625 2.7
0.1875 0.125 2.6375
0.1875 0.0625 2.6375
0.375 0 2.6375
0.3125 0 2.7
0.375 0.0625 2.7
0.375 0.125 2.6375
0.3125 0.125 2.7
0.3125 0 2.6375
0.375 0.0625 2.6375
0.3125 0.0625 2.7
0.3125 0.125 2.6375
0.3125 0.0625 2.6375
0.5 0 2.6375
0.4375 0 2.7
0.5 0.0625 2.7
0.5 0.125 2.6375
0.4375 0.125 2.7
0.4375 0 2.6375
0.5 0.0625 2.6375
0.4375 0.0625 2.7
0.4375 0.125 2.6375
0.4375 0.0625 2.6375
0.625 0 2.6375
0.5625 0 2.7
0.625 0.0625 2.7
0.625 0.125 2.6375
0.5625 0.125 2.7
0.5625 0 2.6375
0.625 0.0625 2.6375
0.5625 0.0625 2.7
0.5625 0.125 2.6375
0.5625 0.0625 2.6375
0.75 0 2.6375
0.6875 0 2.7
0.75 0.0625 2.7
0.75 0.125 2.6375
0.6875 0.125 2.7
0.6875 0 2.6375
0.75 0.0625 2.6375
0.6875 0.0625 2.7
0.6875 0.125 2.6375
0.6875 0.0625 2.6375
0.875 0 2.6375
0.8125 0 2.7
0.875 0.0625 2.7
0.875 0.125 2.6375
0.8125 0.125 2.7
0.8125 0 2.6375
0.875 0.0625 2.6375
0.8125 0.0625 2.7
0.8125 0.125 2.6375
0.8125 0.0625 2.6375
1 0 2.6375
0.9375 0 2.7
1 0.0625 2.7
1 0.125 2.6375
0.9375 0.125 2.7
0.9375 0 2.6375
1 0.0625 2.6375
0.9375 0.0625 2.7
0.9375 0.125 2.6375
0.9375 0.0625 2.6375
1.125 0 2.6375
1.0625 0 2.7
1.125 0.0625 2.7
1.125 0.125 2.6375
1.0625 0.125 2.7
1.0625 0 2.6375
1.125 0.0625 2.6375
1.0625 0.0625 2.7
1.0625 0.125 2.6375
1.0625 0.0625 2.6375
1.25 0 2.6375
1.1875 0 2.7
1.25 0.0625 2.7
1.25 0.125 2.6375
1.1875 0.125 2.7
1.1875 0 2.6375
1.25 0.0625 2.6375
1.1875 0.0625 2.7
1.1875 0.125 2.6375
1.1875 0.0625 2.6375
1.375 0 2.6375
1.3125 0 2.7
1.375 0.0625 2.7
1.375 0.125 2.6375
1.3125 0.125 2.7
1.3125 0 2.6375
1.375 0.0625 2.6375
1.3125 0.0625 2.7
1.3125 0.125 2.6375
1.3125 0.0625 2.6375
1.5 0 2.6375
1.4375 0 2.7
1.5 0.0625 2.7
1.5 0.125 2.6375
1.4375 0.125 2.7
1.4375 0 2.6375
1.5 0.0625 2.6375
1.4375 0.0625 2.7
1.4375 0.125 2.6375
1.4375 0.0625 2.6375
1.625 0 2.6375
1.5625 0 2.7
1.625 0.0625 2.7
1.625 0.125 2.6375
1.5625 0.125 2.7
1.5625 0 2.6375
1.625 0.0625 2.6375
1.5625 0.0625 2.7
1.5625 0.125 2.6375
1.5625 0.0625 2.6375
1.75 0 2.6375
1.6875 0 2.7
1.75 0.0625 2.7
1.75 0.125 2.6375
1.6875 0.125 2.7
1.6875 0 2.6375
1.75 0.0625 2.6375
1.6875 0.0625 2.7
1.6875 0.125 2.6375
1.6875 0.0625 2.6375
1.875 0 2.6375
1.8125 0 2.7
1.875 0.0625 2.7
1.875 0.125 2.6375
1.8125 0.125 2.7
1.8125 0 2.6375
1.875 0.0625 2.6375
1.8125 0.0625 2.7
1.8125 0.125 2.6375
1.8125 0.0625 2.6375
2 0 2.6375
1.9375 0 2.7
2 0.0625 2.7
2 0.125 2.6375
1.9375 0.125 2.7
1.9375 0 2.6375
2 0.0625 2.6375
1.9375 0.0625 2.7
1.9375 0.125 2.6375
1.9375 0.0625 2.6375
2.125 0 2.6375
2.0625 0 2.7
2.125 0.0625 2.7
2.125 0.125 2.6375
2.0625 0.125 2.7
2.0625 0 2.6375
2.125 0.0625 2.6375
2.0625 0.0625 2.7
2.0625 0.125 2.6375
2.0625 0.0625 2.6375
2.25 0 2.6375
2.1875 0 2.7
2.25 0.0625 2.7
2.25 0.125 2.6375
2.1875 0.125 2.7
2.1875 0 2.6375
2.25 0.0625 2.6375
2.1875 0.0625 2.7
2.1875 0.125 2.6375
2.1875 0.0625 2.6375
2.375 0 2.6375
2.3125 0 2.7
2.375 0.0625 2.7
2.375 0.125 2.6375
2.3125 0.125 2.7
2.3125 0 2.6375
2.375 0.0625 2.6375
2.3125 0.0625 2.7
2.3125 0.125 2.6375
2.3125 0.0625 2.6375
2.5 0 2.6375
2.4375 0 2.7
2.5 0.0625 2.7
2.5 0.125 2.6375
2.4375 0.125 2.7
2.4375 0 2.6375
2.5 0.0625 2.6375
2.4375 0.0625 2.7
2.4375 0.125 2.6375
2.4375 0.0625 2.6375
2.625 0 2.6375
2.5625 0 2.7
2.625 0.0625 2.7
2.625 0.125 2.6375
2.5625 0.125 2.7
2.5625 0 2.6375
2.625 0.0625 2.6375
2.5625 0.0625 2.7
2.5625 0.125 2.6375
2.5625 0.0625 2.6375
2.75 0 2.6375
2.6875 0 2.7
2.75 0.0625 2.7
2.75 0.125 2.6375
2.6875 0.125 2.7
2.6875 0 2.6375
2.75 0.0625 2.6375
2.6875 0.0625 2.7
2.6875 0.125 2.6375
2.6875 0.0625 2.6375
2.875 0 2.6375
2.8125 0 2.7
2.875 0.0625 2.7
2.875 0.125 2.6375
2.8125 0.125 2.7
2.8125 0 2.6375
2.875 0.0625 2.6375
2.8125 0.0625 2.7
2.8125 0.125 2.6375
2.8125 0.0625 2.6375
3 0 2.6375
2.9375 0 2.7
3 0.0625 2.7
3 0.125 2.6375
2.9375 0.125 2.7
2.9375 0 2.6375
3 0.0625 2.6375
2.9375 0.0625 2.7
2.9375 0.125 2.6375
2.9375 0.0625 2.6375
0.125 0.1875 2.7
0 0.1875 2.7
0.125 0.25 2.6375
0.0625 0.25 2.7
0 0.25 2.6375
0.125 0.1875 2.6375
0.0625 0.1875 2.7
0 0.1875 2.6375
0.0625 0.25 2.6375
0.0625 0.1875 2.6375
0.25 0.1875 2.7
0.25 0.25 2.6375
0.1875 0.25 2.7
0.25 0.1875 2.6375
0.1875 0.1875 2.7
0.1875 0.25 2.6375
0.1875 0.1875 2.6375
0.375 0.1875 2.7
0.375 0.25 2.6375
0.3125 0.25 2.7
0.375 0.1875 2.6375
0.3125 0.1875 2.7
0.3125 0.25 2.6375
0.3125 0.1875 2.6375
0.5 0.1875 2.7
0.5 0.25 2.6375
0.4375 0.25 2.7
0.5 0.1875 2.6375
0.4375 0.1875 2.7
0.4375 0.25 2.6375
0.4375 0.1875 2.6375
0.625 0.1875 2.7
0.625 0.25 2.6375
0.5625 0.25 2.7
0.625 0.1875 2.6375
0.5625 0.1875 2.7
0.5625 0.25 2.6375
0.5625 0.1875 2.6375
0.75 0.1875 2.7
0.75 0.25 2.6375
0.6875 0.25 2.7
0.75 0.1875 2.6375
0.6875 0.1875 2.7
0.6875 0.25 2.6375
0.6875 0.1875 2.6375
0.875 0.1875 2.7
0.875 0.25 2.6375
0.8125 0.25 2.7
0.875 0.1875 2.6375
0.8125 0.1875 2.7
0.8125 0.25 2.6375
0.8125 0.1875 2.6375
1 0.1875 2.7
1 0.25 2.6375
0.9375 0.25 2.7
1 0.1875 2.6375
0.9375 0.1875 2.7
0.9375 0.25 2.6375
0.9375 0.1875 2.6375
1.125 0.1875 2.7
1.125 0.25 2.6375
1.0625 0.25 2.7
1.125 0.1875 2.6375
1.0625 0.1875 2.7
1.0625 0.25 2.6375
1.0625 0.1875 2.6375
1.25 0.1875 2.7
1.25 0.25 2.6375
1.1875 0.25 2.7
1.25 0.1875 2.6375
1.1875 0.1875 2.7
1.1875 0.25 2.6375
1.1875 0.1875 2.6375
1.375 0.1875 2.7
1.375 0.25 2.6375
1.3125 0.25 2.7
1.375 0.1875 2.6375
1.3125 0.1875 2.7
1.3125 0.25 2.6375
1.3125 0.1875 2.6375
1.5 0.1875 2.7
1.5 0.25 2.6375
1.4375 0.25 2.7
1.5 0.1875 2.6375
1.4375 0.1875 2.7
1.4375 0.25 2.6375
1.4375 0.1875 2.6375
1.625 0.1875 2.7
1.625 0.25 2.6375
1.5625 0.25 2.7
1.625 0.1875 2.6375
1.5625 0.1875 2.7
1.5625 0.25 2.6375
1.5625 0.1875 2.6375
1.75 0.1875 2.7
1.75 0.25 2.6375
1.6875 0.25 2.7
1.75 0.1875 2.6375
1.6875 0.1875 2.7
1.6875 0.25 2.6375
1.6875 0.1875 2.6375
1.875 0.1875 2.7
1.875 0.25 2.6375
1.8125 0.25 2.7
1.875 0.1875 2.6375
1.8125 0.1875 2.7
1.8125 0.25 2.6375
1.8125 0.1875 2.6375
2 0.1875 2.7
2 0.25 2.6375
1.9375 0.25 2.7
2 0.1875 2.6375
1.9375 0.1875 2.7
1.9375 0.25 2.6375
1.9375 0.1875 2.6375
2.125 0.1875 2.7
2.125 0.25 2.6375
2.0625 0.25 2.7
2.125 0.1875 2.6375
2.0625 0.1875 2.7
2.0625 0.25 2.6375
2.0625 0.1875 2.6375
2.25 0.1875 2.7
2.25 0.25 2.6375
2.1875 0.25 2.7
2.25 0.1875 2.6375
2.1875 0.1875 2.7
2.1875 0.25 2.6375
2.1875 0.1875 2.6375
2.375 0.1875 2.7
2.375 0.25 2.6375
2.3125 0.25 2.7
2.375 0.1875 2.6375
2.3125 0.1875 2.7
2.3125 0.25 2.6375
2.3125 0.1875 2.6375
2.5 0.1875 2.7
2.5 0.25 2.6375
2.4375 0.25 2.7
2.5 0.1875 2.6375
2.4375 0.1875 2.7
2.4375 0.25 2.6375
2.4375 0.1875 2.6375
2.625 0.1875 2.7
2.625 0.25 2.6375
2.5625 0.25 2.7
2.625 0.1875 2.6375
2.5625 0.1875 2.7
2.5625 0.25 2.6375
2.5625 0.1875 2.6375
2.75 0.1875 2.7
2.75 0.25 2.6375
2.6875 0.25 2.7
2.75 0.1875 2.6375
2.6875 0.1875 2.7
2.6875 0.25 2.6375
2.6875 0.1875 2.6375
2.875 0.1875 2.7
2.875 0.25 2.6375
2.8125 0.25 2.7
2.875 0.1875 2.6375
2.8125 0.1875 2.7
2.8125 0.25 2.6375
2.8125 0.1875 2.6375
3 0.1875 2.7
3 0.25 2.6375
2.9375 0.25 2.7
3 0.1875 2.6375
2.9375 0.1875 2.7
2.9375 0.25 2.6375
2.9375 0.1875 2.6375
0.125 0.3125 2.7
0 0.3125 2.7
0.125 0.375 2.6375
0.0625 0.375 2.7
0 0.375 2.6375
0.125 0.3125 2.6375
0.0625 0.3125 2.7
0 0.3125 2.6375
0.0625 0.375 2.6375
0.0625 0.3125 2.6375
0.25 0.3125 2.7
0.25 0.375 2.6375
0.1875 0.375 2.7
0.25 0.3125 2.6375
0.1875 0.3125 2.7
0.1875 0.375 2.6375
0.1875 0.3125 2.6375
0.375 0.3125 2.7
0.375 0.375 2.6375
0.3125 0.375 2.7
0.375 0.3125 2.6375
0.3125 0.3125 2.7
0.3125 0.375 2.6375
0.3125 0.3125 2.6375
0.5 0.3125 2.7
0.5 0.375 2.6375
0.4375 0.375 2.7
0.5 0.3125 2.6375
0.4375 0.3125 2.7
0.4375 0.375 2.6375
0.4375 0.3125 2.6375
0.625 0.3125 2.7
0.625 0.375 2.6375
0.5625 0.375 2.7
0.625 0.3125 2.6375
0.5625 0.3125 2.7
0.5625 0.375 2.6375
0.5625 0.3125 2.6375
0.75 0.3125 2.7
0.75 0.375 2.6375
0.6875 0.375 2.7
0.75 0.3125 2.6375
0.6875 0.3125 2.7
0.6875 0.375 2.6375
0.6875 0.3125 2.6375
0.875 0.3125 2.7
0.875 0.375 2.6375
0.8125 0.375 2.7
0.875 0.3125 2.6375
0.8125 0.3125 2.7
0.8125 0.375 2.6375
0.8125 0.3125 2.6375
1 0.3125 2.7
1 0.375 2.6375
0.9375 0.375 2.7
1 0.3125 2.6375
0.9375 0.3125 2.7
0.9375 0.375 2.6375
0.9375 0.3125 2.6375
1.125 0.3125 2.7
1.125 0.375 2.6375
1.0625 0.375 2.7
1.125 0.3125 2.6375
1.0625 0.3125 2.7
1.0625 0.375 2.6375
1.0625 0.3125 2.6375
1.25 0.3125 2.7
1.25 0.375 2.6375
1.1875 0.375 2.7
1.25 0.3125 2.6375
1.1875 0.3125 2.7
1.1875 0.375 2.6375
1.1875 0.3125 2.6375
1.375 0.3125 2.7
1.375 0.375 2.6375
1.3125 0.375 2.7
1.375 0.3125 2.6375
1.3125 0.3125 2.7
1.3125 0.375 2.6375
1.3125 0.3125 2.6375
1.5 0.3125 2.7
1.5 0.375 2.6375
1.4375 0.375 2.7
1.5 0.3125 2.6375
1.4375 0.3125 2.7
1.4375 0.375 2.6375
1.4375 0.3125 2.6375
1.625 0.3125 2.7
1.625 0.375 2.6375
1.5625 0.375 2.7
1.625 0.3125 2.6375
1.5625 0.3125 2.7
1.5625 0.375 2.6375
1.5625 0.3125 2.6375
1.75 0.3125 2.7
1.75 0.375 2.6375
1.6875 0.375 2.7
1.75 0.3125 2.6375
1.6875 0.3125 2.7
1.6875 0.375 2.6375
1.6875 0.3125 2.6375
1.875 0.3125 2.7
1.875 0.375 2.6375
1.8125 0.375 2.7
1.875 0.3125 2.6375
1.8125 0.3125 2.7
1.8125 0.375 2.6375
1.8125 0.3125 2.6375
2 0.3125 2.7
2 0.375 2.6375
1.9375 0.375 2.7
2 0.3125 2.6375
1.9375 0.3125 2.7
1.9375 0.375 2.6375
1.9375 0.3125 2.6375
2.125 0.3125 2.7
2.125 0.375 2.6375
2.0625 0.375 2.7
2.125 0.3125 2.6375
2.0625 0.3125 2.7
2.0625 0.375 2.6375
2.0625 0.3125 2.6375
2.25 0.3125 2.7
2.25 0.375 2.6375
2.1875 0.375 2.7
2.25 0.3125 2.6375
2.1875 0.3125 2.7
2.1875 0.375 2.6375
2.1875 0.3125 2.6375
2.375 0.3125 2.7
2.375 0.375 2.6375
2.3125 0.375 2.7
2.375 0.3125 2.6375
2.3125 0.3125 2.7
2.3125 0.375 2.6375
2.3125 0.3125 2.6375
2.5 0.3125 2.7
2.5 0.375 2.6375
2.4375 0.375 2.7
2.5 0.3125 2.6375
2.4375 0.3125 2.7
2.4375 0.375 2.6375
2.4375 0.3125 2.6375
2.625 0.3125 2.7
2.625 0.375 2.6375
2.5625 0.375 2.7
2.625 0.3125 2.6375
2.5625 0.3125 2.7
2.5625 0.375 2.6375
2.5625 0.3125 2.6375
2.75 0.3125 2.7
2.75 0.375 2.6375
2.6875 0.375 2.7
2.75 0.3125 2.6375
2.6875 0.3125 2.7
2.6875 0.375 2.6375
2.6875 0.3125 2.6375
2.875 0.3125 2.7
2.875 0.375 2.6375
2.8125 0.375 2.7
2.875 0.3125 2.6375
2.8125 0.3125 2.7
2.8125 0.375 2.6375
2.8125 0.3125 2.6375
3 0.3125 2.7
3 0.375 2.6375
2.9375 0.375 2.7
3 0.3125 2.6375
2.9375 0.3125 2.7
2.9375 0.375 2.6375
2.9375 0.3125 2.6375
0.125 0.4375 2.7
0 0.4375 2.7
0.125 0.5 2.6375
0.0625 0.5 2.7
0 0.5 2.6375
0.125 0.4375 2.6375
0.0625 0.4375 2.7
0 0.4375 2.6375
0.0625 0.5 2.6375
0.0625 0.4375 2.6375
0.25 0.4375 2.7
0.25 0.5 2.6375
0.1875 0.5 2.7
0.25 0.4375 2.6375
0.1875 0.4375 2.7
0.1875 0.5 2.6375
0.1875 0.4375 2.6375
0.375 0.4375 2.7
0.375 0.5 2.6375
0.3125 0.5 2.7
0.375 0.4375 2.6375
0.3125 0.4375 2.7
0.3125 0.5 2.6375
0.3125 0.4375 2.6375
0.5 0.4375 2.7
0.5 0.5 2.6375
0.4375 0.5 2.7
0.5 0.4375 2.6375
0.4375 0.4375 2.7
0.4375 0.5 2.6375
0.4375 0.4375 2.6375
0.625 0.4375 2.7
0.625 0.5 2.6375
0.5625 0.5 2.7
0.625 0.4375 2.6375
0.5625 0.4375 2.7
0.5625 0.5 2.6375
0.5625 0.4375 2.6375
0.75 0.4375 2.7
0.75 0.5 2.6375
0.6875 0.5 2.7
0.75 0.4375 2.6375
0.6875 0.4375 2.7
0.6875 0.5 2.6375
0.6875 0.4375 2.6375
0.875 0.4375 2.7
0.875 0.5 2.6375
0.8125 0.5 2.7
0.875 0.4375 2.6375
0.8125 0.4375 2.7
0.8125 0.5 2.6375
0.8125 0.4375 2.6375
1 0.4375 2.7
1 0.5 2.6375
0.9375 0.5 2.7
1 0.4375 2.6375
0.9375 0.4375 2.7
0.9375 0.5 2.6375
0.9375 0.4375 2.6375
1.125 0.4375 2.7
1.125 0.5 2.6375
1.0625 0.5 2.7
1.125 0.4375 2.6375
1.0625 0.4375 2.7
1.0625 0.5 2.6375
1.0625 0.4375 2.6375
1.25 0.4375 2.7
1.25 0.5 2.6375
1.1875 0.5 2.7
1.25 0.4375 2.6375
1.1875 0.4375 2.7
1.1875 0.5 2.6375
1.1875 0.4375 2.6375
1.375 0.4375 2.7
1.375 0.5 2.6375
1.3125 0.5 2.7
1.375 0.4375 2.6375
1.3125 0.4375 2.7
1.3125 0.5 2.6375
1.3125 0.4375 2.6375
1.5 0.4375 2.7
1.5 0.5 2.6375
1.4375 0.5 2.7
1.5 0.4375 2.6375
1.4375 0.4375 2.7
1.4375 0.5 2.6375
1.4375 0.4375 2.6375
1.625 0.4375 2.7
1.625 0.5 2.6375
1.5625 0.5 2.7
1.625 0.4375 2.6375
1.5625 0.4375 2.7
1.5625 0.5 2.6375
1.5625 0.4375 2.6375
1.75 0.4375 2.7
1.75 0.5 2.6375
1.6875 0.5 2.7
1.75 0.4375 2.6375
1.6875 0.4375 2.7
1.6875 0.5 2.6375
1.6875 0.4375 2.6375
1.875 0.4375 2.7
1.875 0.5 2.6375
1.8125 0.5 2.7
1.875 0.4375 2.6375
1.8125 0.4375 2.7
1.8125 0.5 2.6375
1.8125 0.4375 2.6375
2 0.4375 2.7
2 0.5 2.6375
1.9375 0.5 2.7
2 0.4375 2.6375
1.9375 0.4375 2.7
1.9375 0.5 2.6375
1.9375 0.4375 2.6375
2.125 0.4375 2.7
2.125 0.5 2.6375
2.0625 0.5 2.7
2.125 0.4375 2.6375
2.0625 0.4375 2.7
2.0625 0.5 2.6375
2.0625 0.4375 2.6375
2.25 0.4375 2.7
2.25 0.5 2.6375
2.1875 0.5 2.7
2.25 0.4375 2.6375
2.1875 0.4375 2.7
2.1875 0.5 2.6375
2.1875 0.4375 2.6375
2.375 0.4375 2.7
2.375 0.5 2.6375
2.3125 0.5 2.7
2.375 0.4375 2.6375
2.3125 0.4375 2.7
2.3125 0.5 2.6375
2.3125 0.4375 2.6375
2.5 0.4375 2.7
2.5 0.5 2.6375
2.4375 0.5 2.7
2.5 0.4375 2.6375
2.4375 0.4375 2.7
2.4375 0.5 2.6375
2.4375 0.4375 2.6375
2.625 0.4375 2.7
2.625 0.5 2.6375
2.5625 0.5 2.7
2.625 0.4375 2.6375
2.5625 0.4375 2.7
2.5625 0.5 2.6375
2.5625 0.4375 2.6375
2.75 0.4375 2.7
2.75 0.5 2.6375
2.6875 0.5 2.7
2.75 0.4375 2.6375
2.6875 0.4375 2.7
2.6875 0.5 2.6375
2.6875 0.4375 2.6375
2.875 0.4375 2.7
2.875 0.5 2.6375
2.8125 0.5 2.7
2.875 0.4375 2.6375
2.8125 0.4375 2.7
2.8125 0.5 2.6375
2.8125 0.4375 2.6375
3 0.4375 2.7
3 0.5 2.6375
2.9375 0.5 2.7
3 0.4375 2.6375
2.9375 0.4375 2.7
2.9375 0.5 2.6375
2.9375 0.4375 2.6375
0.125 0.5625 2.7
0 0.5625 2.7
0.125 0.625 2.6375
0.0625 0.625 2.7
0 0.625 2.6375
0.125 0.5625 2.6375
0.0625 0.5625 2.7
0 0.5625 2.6375
0.0625 0.625 2.6375
0.0625 0.5625 2.6375
0.25 0.5625 2.7
0.25 0.625 2.6375
0.1875 0.625 2.7
0.25 0.5625 2.6375
0.1875 0.5625 2.7
0.1875 0.625 2.6375
0.1875 0.5625 2.6375
0.375 0.5625 2.7
0.375 0.625 2.6375
0.3125 0.625 2.7
0.375 0.5625 2.6375
0.3125 0.5625 2.7
0.3125 0.625 2.6375
0.3125 0.5625 2.6375
0.5 0.5625 2.7
0.5 0.625 2.6375
0.4375 0.625 2.7
0.5 0.5625 2.6375
0.4375 0.5625 2.7
0.4375 0.625 2.6375
0.4375 0.5625 2.6375
0.625 0.5625 2.7
0.625 0.625 2.6375
0.5625 0.625 2.7
0.625 0.5625 2.6375
0.5625 0.5625 2.7
0.5625 0.625 2.6375
0.5625 0.5625 2.6375
0.75 0.5625 2.7
0.75 0.625 2.6375
0.6875 0.625 2.7
0.75 0.5625 2.6375
0.6875 0.5625 2.7
0.6875 0.625 2.6375
0.6875 0.5625 2.6375
0.875 0.5625 2.7
0.875 0.625 2.6375
0.8125 0.625 2.7
0.875 0.5625 2.6375
0.8125 0.5625 2.7
0.8125 0.625 2.6375
0.8125 0.5625 2.6375
1 0.5625 2.7
1 0.625 2.6375
0.9375 0.625 2.7
1 0.5625 2.6375
0.9375 0.5625 2.7
0.9375 0.625 2.6375
0.9375 0.5625 2.6375
1.125 0.5625 2.7
1.125 0.625 2.6375
1.0625 0.625 2.7
1.125 0.5625 2.6375
1.0625 0.5625 2.7
1.0625 0.625 2.6375
1.0625 0.5625 2.6375
1.25 0.5625 2.7
1.25 0.625 2.6375
1.1875 0.625 2.7
1.25 0.5625 2.6375
1.1875 0.5625 2.7
1.1875 0.625 2.6375
1.1875 0.5625 2.6375
1.375 0.5625 2.7
1.375 0.625 2.6375
1.3125 0.625 2.7
1.375 0.5625 2.6375
1.3125 0.5625 2.7
1.3125 0.625 2.6375
1.3125 0.5625 2.6375
1.5 0.5625 2.7
1.5 0.625 2.6375
1.4375 0.625 2.7
1.5 0.5625 2.6375
1.4375 0.5625 2.7
1.4375 0.625 2.6375
1.4375 0.5625 2.6375
1.625 0.5625 2.7
1.625 0.625 2.6375
1.5625 0.625 2.7
1.625 0.5625 2.6375
1.5625 0.5625 2.7
1.5625 0.625 2.6375
1.5625 0.5625 2.6375
1.75 0.5625 2.7
1.75 0.625 2.6375
1.6875 0.625 2.7
1.75 0.5625 2.6375
1.6875 0.5625 2.7
1.6875 0.625 2.6375
1.6875 0.5625 2.6375
1.875 0.5625 2.7
1.875 0.625 2.6375
1.8125 0.625 2.7
1.875 0.5625 2.6375
1.8125 0.5625 2.7
1.8125 0.625 2.6375
1.8125 0.5625 2.6375
2 0.5625 2.7
2 0.625 2.6375
1.9375 0.625 2.7
2 0.5625 2.6375
1.9375 0.5625 2.7
1.9375 0.625 2.6375
1.9375 0.5625 2.6375
2.125 0.5625 2.7
2.125 0.625 2.6375
2.0625 0.625 2.7
2.125 0.5625 2.6375
2.0625 0.5625 2.7
2.0625 0.625 2.6375
2.0625 0.5625 2.6375
2.25 0.5625 2.7
2.25 0.625 2.6375
2.1875 0.625 2.7
2.25 0.5625 2.6375
2.1875 0.5625 2.7
2.1875 0.625 2.6375
2.1875 0.5625 2.6375
2.375 0.5625 2.7
2.375 0.625 2.6375
2.3125 0.625 2.7
2.375 0.5625 2.6375
2.3125 0.5625 2.7
2.3125 0.625 2.6375
2.3125 0.5625 2.6375
2.5 0.5625 2.7
2.5 0.625 2.6375
2.4375 0.625 2.7
2.5 0.5625 2.6375
2.4375 0.5625 2.7
2.4375 0.625 2.6375
2.4375 0.5625 2.6375
2.625 0.5625 2.7
2.625 0.625 2.6375
2.5625 0.625 2.7
2.625 0.5625 2.6375
2.5625 0.5625 2.7
2.5625 0.625 2.6375
2.5625 0.5625 2.6375
2.75 0.5625 2.7
2.75 0.625 2.6375
2.6875 0.625 2.7
2.75 0.5625 2.6375
2.6875 0.5625 2.7
2.6875 0.625 2.6375
2.6875 0.5625 2.6375
2.875 0.5625 2.7
2.875 0.625 2.6375
2.8125 0.625 2.7
2.875 0.5625 2.6375
2.8125 0.5625 2.7
2.8125 0.625 2.6375
2.8125 0.5625 2.6375
3 0.5625 2.7
3 0.625 2.6375
2.9375 0.625 2.7
3 0.5625 2.6375
2.9375 0.5625 2.7
2.9375 0.625 2.6375
2.9375 0.5625 2.6375
0.125 0.6875 2.7
0 0.6875 2.7
0.125 0.75 2.6375
0.0625 0.75 2.7
0 0.75 2.6375
0.125 0.6875 2.6375
0.0625 0.6875 2.7
0 0.6875 2.6375
0.0625 0.75 2.6375
0.0625 0.6875 2.6375
0.25 0.6875 2.7
0.25 0.75 2.6375
0.1875 0.75 2.7
0.25 0.6875 2.6375
0.1875 0.6875 2.7
0.1875 0.75 2.6375
0.1875 0.6875 2.6375
0.375 0.6875 2.7
0.375 0.75 2.6375
0.3125 0.75 2.7
0.375 0.6875 2.6375
0.3125 0.6875 2.7
0.3125 0.75 2.6375
0.3125 0.6875 2.6375
0.5 0.6875 2.7
0.5 0.75 2.6375
0.4375 0.75 2.7
0.5 0.6875 2.6375
0.4375 0.6875 2.7
0.4375 0.75 2.6375
0.4375 0.6875 2.6375
0.625 0.6875 2.7
0.625 0.75 2.6375
0.5625 0.75 2.7
0.625 0.6875 2.6375
0.5625 0.6875 2.7
0.5625 0.75 2.6375
0.5625 0.6875 2.6375
0.75 0.6875 2.7
0.75 0.75 2.6375
0.6875 0.75 2.7
0.75 0.6875 2.6375
0.6875 0.6875 2.7
0.6875 0.75 2.6375
0.6875 0.6875 2.6375
0.875 0.6875 2.7
0.875 0.75 2.6375
0.8125 0.75 2.7
0.875 0.6875 2.6375
0.8125 0.6875 2.7
0.8125 0.75 2.6375
0.8125 0.6875 2.6375
1 0.6875 2.7
1 0.75 2.6375
0.9375 0.75 2.7
1 0.6875 2.6375
0.9375 0.6875 2.7
0.9375 0.75 2.6375
0.9375 0.6875 2.6375
1.125 0.6875 2.7
1.125 0.75 2.6375
1.0625 0.75 2.7
1.125 0.6875 2.6375
1.0625 0.6875 2.7
1.0625 0.75 2.6375
1.0625 0.6875 2.6375
1.25 0.6875 2.7
1.25 0.75 2.6375
1.1875 0.75 2.7
1.25 0.6875 2.6375
1.1875 0.6875 2.7
1.1875 0.75 2.6375
1.1875 0.6875 2.6375
1.375 0.6875 2.7
1.375 0.75 2.6375
1.3125 0.75 2.7
1.375 0.6875 2.6375
1.3125 0.6875 2.7
1.3125 0.75 2.6375
1.3125 0.6875 2.6375
1.5 0.6875 2.7
1.5 0.75 2.6375
1.4375 0.75 2.7
1.5 0.6875 2.6375
1.4375 0.6875 2.7
1.4375 0.75 2.6375
1.4375 0.6875 2.6375
1.625 0.6875 2.7
1.625 0.75 2.6375
1.5625 0.75 2.7
1.625 0.6875 2.6375
1.5625 0.6875 2.7
1.5625 0.75 2.6375
1.5625 0.6875 2.6375
1.75 0.6875 2.7
1.75 0.75 2.6375
1.6875 0.75 2.7
1.75 0.6875 2.6375
1.6875 0.6875 2.7
1.6875 0.75 2.6375
1.6875 0.6875 2.6375
1.875 0.6875 2.7
1.875 0.75 2.6375
1.8125 0.75 2.7
1.875 0.6875 2.6375
1.8125 0.6875 2.7
1.8125 0.75 2.6375
1.8125 0.6875 2.6375
2 0.6875 2.7
2 0.75 2.6375
1.9375 0.75 2.7
2 0.6875 2.6375
1.9375 0.6875 2.7
1.9375 0.75 2.6375
1.9375 0.6875 2.6375
2.125 0.6875 2.7
2.125 0.75 2.6375
2.0625 0.75 2.7
2.125 0.6875 2.6375
2.0625 0.6875 2.7
2.0625 0.75 2.6375
2.0625 0.6875 2.6375
2.25 0.6875 2.7
2.25 0.75 2.6375
2.1875 0.75 2.7
2.25 0.6875 2.6375
2.1875 0.6875 2.7
2.1875 0.75 2.6375
2.1875 0.6875 2.6375
2.375 0.6875 2.7
2.375 0.75 2.6375
2.3125 0.75 2.7
2.375 0.6875 2.6375
2.3125 0.6875 2.7
2.3125 0.75 2.6375
2.3125 0.6875 2.6375
2.5 0.6875 2.7
2.5 0.75 2.6375
2.4375 0.75 2.7
2.5 0.6875 2.6375
2.4375 0.6875 2.7
2.4375 0.75 2.6375
2.4375 0.6875 2.6375
2.625 0.6875 2.7
2.625 0.75 2.6375
2.5625 0.75 2.7
2.625 0.6875 2.6375
2.5625 0.6875 2.7
2.5625 0.75 2.6375
2.5625 0.6875 2.6375
2.75 0.6875 2.7
2.75 0.75 2.6375
2.6875 0.75 2.7
2.75 0.6875 2.6375
2.6875 0.6875 2.7
2.6875 0.75 2.6375
2.6875 0.6875 2.6375
2.875 0.6875 2.7
2.875 0.75 2.6375
2.8125 0.75 2.7
2.875 0.6875 2.6375
2.8125 0.6875 2.7
2.8125 0.75 2.6375
2.8125 0.6875 2.6375
3 0.6875 2.7
3 0.75 2.6375
2.9375 0.75 2.7
3 0.6875 2.6375
2.9375 0.6875 2.7
2.9375 0.75 2.6375
2.9375 0.6875 2.6375
0.125 0.8125 2.7
0 0.8125 2.7
0.125 0.875 2.6375
0.0625 0.875 2.7
0 0.875 2.6375
0.125 0.8125 2.6375
0.0625 0.8125 2.7
0 0.8125 2.6375
0.0625 0.875 2.6375
0.0625 0.8125 2.6375
0.25 0.8125 2.7
0.25 0.875 2.6375
0.1875 0.875 2.7
0.25 0.8125 2.6375
0.1875 0.8125 2.7
0.1875 0.875 2.6375
0.1875 0.8125 2.6375
0.375 0.8125 2.7
0.375 0.875 2.6375
0.3125 0.875 2.7
0.375 0.8125 2.6375
0.3125 0.8125 2.7
0.3125 0.875 2.6375
0.3125 0.8125 2.6375
0.5 0.8125 2.7
0.5 0.875 2.6375
0.4375 0.875 2.7
0.5 0.8125 2.6375
0.4375 0.8125 2.7
0.4375 0.875 2.6375
0.4375 0.8125 2.6375
0.625 0.8125 2.7
0.625 0.875 2.6375
0.5625 0.875 2.7
0.625 0.8125 2.6375
0.5625 0.8125 2.7
0.5625 0.875 2.6375
0.5625 0.8125 2.6375
0.75 0.8125 2.7
0.75 0.875 2.6375
0.6875 0.875 2.7
0.75 0.8125 2.6375
0.6875 0.8125 2.7
0.6875 0.875 2.6375
0.6875 0.8125 2.6375
0.875 0.8125 2.7
0.875 0.875 2.6375
0.8125 0.875 2.7
0.875 0.8125 2.6375
0.8125 0.8125 2.7
0.8125 0.875 2.6375
0.8125 0.8125 2.6375
1 0.8125 2.7
1 0.875 2.6375
0.9375 0.875 2.7
1 0.8125 2.6375
0.9375 0.8125 2.7
0.9375 0.875 2.6375
0.9375 0.8125 2.6375
1.125 0.8125 2.7
1.125 0.875 2.6375
1.0625 0.875 2.7
1.125 0.8125 2.6375
1.0625 0.8125 2.7
1.0625 0.875 2.6375
1.0625 0.8125 2.6375
1.25 0.8125 2.7
1.25 0.875 2.6375
1.1875 0.875 2.7
1.25 0.8125 2.6375
1.1875 0.8125 2.7
1.1875 0.875 2.6375
1.1875 0.8125 2.6375
1.375 0.8125 2.7
1.375 0.875 2.6375
1.3125 0.875 2.7
1.375 0.8125 2.6375
1.3125 0.8125 2.7
1.3125 0.875 2.6375
1.3125 0.8125 2.6375
1.5 0.8125 2.7
1.5 0.875 2.6375
1.4375 0.875 2.7
1.5 0.8125 2.6375
1.4375 0.8125 2.7
1.4375 0.875 2.6375
1.4375 0.8125 2.6375
1.625 0.8125 2.7
1.625 0.875 2.6375
1.5625 0.875 2.7
1.625 0.8125 2.6375
1.5625 0.8125 2.7
1.5625 0.875 2.6375
1.5625 0.8125 2.6375
1.75 0.8125 2.7
1.75 0.875 2.6375
1.6875 0.875 2.7
1.75 0.8125 2.6375
1.6875 0.8125 2.7
1.6875 0.875 2.6375
1.6875 0.8125 2.6375
1.875 0.8125 2.7
1.875 0.875 2.6375
1.8125 0.875 2.7
1.875 0.8125 2.6375
1.8125 0.8125 2.7
1.8125 0.875 2.6375
1.8125 0.8125 2.6375
2 0.8125 2.7
2 0.875 2.6375
1.9375 0.875 2.7
2 0.8125 2.6375
1.9375 0.8125 2.7
1.9375 0.875 2.6375
1.9375 0.8125 2.6375
2.125 0.8125 2.7
2.125 0.875 2.6375
2.0625 0.875 2.7
2.125 0.8125 2.6375
2.0625 0.8125 2.7
2.0625 0.875 2.6375
2.0625 0.8125 2.6375
2.25 0.8125 2.7
2.25 0.875 2.6375
2.1875 0.875 2.7
2.25 0.8125 2.6375
2.1875 0.8125 2.7
2.1875 0.875 2.6375
2.1875 0.8125 2.6375
2.375 0.8125 2.7
2.375 0.875 2.6375
2.3125 0.875 2.7
2.375 0.8125 2.6375
2.3125 0.8125 2.7
2.3125 0.875 2.6375
2.3125 0.8125 2.6375
2.5 0.8125 2.7
2.5 0.875 2.6375
2.4375 0.875 2.7
2.5 0.8125 2.6375
2.4375 0.8125 2.7
2.4375 0.875 2.6375
2.4375 0.8125 2.6375
2.625 0.8125 2.7
2.625 0.875 2.6375
2.5625 0.875 2.7
2.625 0.8125 2.6375
2.5625 0.8125 2.7
2.5625 0.875 2.6375
2.5625 0.8125 2.6375
2.75 0.8125 2.7
2.75 0.875 2.6375
2.6875 0.875 2.7
2.75 0.8125 2.6375
2.6875 0.8125 2.7
2.6875 0.875 2.6375
2.6875 0.8125 2.6375
2.875 0.8125 2.7
2.875 0.875 2.6375
2.8125 0.875 2.7
2.875 0.8125 2.6375
2.8125 0.8125 2.7
2.8125 0.875 2.6375
2.8125 0.8125 2.6375
3 0.8125 2.7
3 0.875 2.6375
2.9375 0.875 2.7
3 0.8125 2.6375
2.9375 0.8125 2.7
2.9375 0.875 2.6375
2.9375 0.8125 2.6375
0.125 0.9375 2.7
0 0.9375 2.7
0.125 1 2.6375
0.0625 1 2.7
0 1 2.6375
0.125 0.9375 2.6375
0.0625 0.9375 2.7
0 0.9375 2.6375
0.0625 1 2.6375
0.0625 0.9375 2.6375
0.25 0.9375 2.7
0.25 1 2.6375
0.1875 1 2.7
0.25 0.9375 2.6375
0.1875 0.9375 2.7
0.1875 1 2.6375
0.1875 0.9375 2.6375
0.375 0.9375 2.7
0.375 1 2.6375
0.3125 1 2.7
0.375 0.9375 2.6375
0.3125 0.9375 2.7
0.3125 1 2.6375
0.3125 0.9375 2.6375
0.5 0.9375 2.7
0.5 1 2.6375
0.4375 1 2.7
0.5 0.9375 2.6375
0.4375 0.9375 2.7
0.4375 1 2.6375
0.4375 0.9375 2.6375
0.625 0.9375 2.7
0.625 1 2.6375
0.5625 1 2.7
0.625 0.9375 2.6375
0.5625 0.9375 2.7
0.5625 1 2.6375
0.5625 0.9375 2.6375
0.75 0.9375 2.7
0.75 1 2.6375
0.6875 1 2.7
0.75 0.9375 2.6375
0.6875 0.9375 2.7
0.6875 1 2.6375
0.6875 0.9375 2.6375
0.875 0.9375 2.7
0.875 1 2.6375
0.8125 1 2.7
0.875 0.9375 2.6375
0.8125 0.9375 2.7
0.8125 1 2.6375
0.8125 0.9375 2.6375
1 0.9375 2.7
1 1 2.6375
0.9375 1 2.7
1 0.9375 2.6375
0.9375 0.9375 2.7
0.9375 1 2.6375
0.9375 0.9375 2.6375
1.125 0.9375 2.7
1.125 1 2.6375
1.0625 1 2.7
1.125 0.9375 2.6375
1.0625 0.9375 2.7
1.0625 1 2.6375
1.0625 0.9375 2.6375
1.25 0.9375 2.7
1.25 1 2.6375
1.1875 1 2.7
1.25 0.9375 2.6375
1.1875 0.9375 2.7
1.1875 1 2.6375
1.1875 0.9375 2.6375
1.375 0.9375 2.7
1.375 1 2.6375
1.3125 1 2.7
1.375 0.9375 2.6375
1.3125 0.9375 2.7
1.3125 1 2.6375
1.3125 0.9375 2.6375
1.5 0.9375 2.7
1.5 1 2.6375
1.4375 1 2.7
1.5 0.9375 2.6375
1.4375 0.9375 2.7
1.4375 1 2.6375
1.4375 0.9375 2.6375
1.625 0.9375 2.7
1.625 1 2.6375
1.5625 1 2.7
1.625 0.9375 2.6375
1.5625 0.9375 2.7
1.5625 1 2.6375
1.5625 0.9375 2.6375
1.75 0.9375 2.7
1.75 1 2.6375
1.6875 1 2.7
1.75 0.9375 2.6375
1.6875 0.9375 2.7
1.6875 1 2.6375
1.6875 0.9375 2.6375
1.875 0.9375 2.7
1.875 1 2.6375
1.8125 1 2.7
1.875 0.9375 2.6375
1.8125 0.9375 2.7
1.8125 1 2.6375
1.8125 0.9375 2.6375
2 0.9375 2.7
2 1 2.6375
1.9375 1 2.7
2 0.9375 2.6375
1.9375 0.9375 2.7
1.9375 1 2.6375
1.9375 0.9375 2.6375
2.125 0.9375 2.7
2.125 1 2.6375
2.0625 1 2.7
2.125 0.9375 2.6375
2.0625 0.9375 2.7
2.0625 1 2.6375
2.0625 0.9375 2.6375
2.25 0.9375 2.7
2.25 1 2.6375
2.1875 1 2.7
2.25 0.9375 2.6375
2.1875 0.9375 2.7
2.1875 1 2.6375
2.1875 0.9375 2.6375
2.375 0.9375 2.7
2.375 1 2.6375
2.3125 1 2.7
2.375 0.9375 2.6375
2.3125 0.9375 2.7
2.3125 1 2.6375
2.3125 0.9375 2.6375
2.5 0.9375 2.7
2.5 1 2.6375
2.4375 1 2.7
2.5 0.9375 2.6375
2.4375 0.9375 2.7
2.4375 1 2.6375
2.4375 0.9375 2.6375
2.625 0.9375 2.7
2.625 1 2.6375
2.5625 1 2.7
2.625 0.9375 2.6375
2.5625 0.9375 2.7
2.5625 1 2.6375
2.5625 0.9375 2.6375
2.75 0.9375 2.7
2.75 1 2.6375
2.6875 1 2.7
2.75 0.9375 2.6375
2.6875 0.9375 2.7
2.6875 1 2.6375
2.6875 0.9375 2.6375
2.875 0.9375 2.7
2.875 1 2.6375
2.8125 1 2.7
2.875 0.9375 2.6375
2.8125 0.9375 2.7
2.8125 1 2.6375
2.8125 0.9375 2.6375
3 0.9375 2.7
3 1 2.6375
2.9375 1 2.7
3 0.9375 2.6375
2.9375 0.9375 2.7
2.9375 1 2.6375
2.9375 0.9375 2.6375
0.125 0 2.7625
0.0625 0 2.825
0 0 2.7625
0.125 0.0625 2.825
0 0.0625 2.825
0.125 0.125 2.7625
0.0625 0.125 2.825
0 0.125 2.7625
0.0625 0 2.7625
0.125 0.0625 2.7625
0.0625 0.0625 2.825
0 0.0625 2.7625
0.0625 0.125 2.7625
0.0625 0.0625 2.7625
0.25 0 2.7625
0.1875 0 2.825
0.25 0.0625 2.825
0.25 0.125 2.7625
0.1875 0.125 2.825
0.1875 0 2.7625
0.25 0.0625 2.7625
0.1875 0.0625 2.825
0.1875 0.125 2.7625
0.1875 0.0625 2.7625
0.375 0 2.7625
0.3125 0 2.825
0.375 0.0625 2.825
0.375 0.125 2.7625
0.3125 0.125 2.825
0.3125 0 2.7625
0.375 0.0625 2.7625
0.3125 0.0625 2.825
0.3125 0.125 2.7625
0.3125 0.0625 2.7625
0.5 0 2.7625
0.4375 0 2.825
0.5 0.0625 2.825
0.5 0.125 2.7625
0.4375 0.125 2.825
0.4375 0 2.7625
0.5 0.0625 2.7625
0.4375 0.0625 2.825
0.4375 0.125 2.7625
0.4375 0.0625 2.7625
0.625 0 2.7625
0.5625 0 2.825
0.625 0.0625 2.825
0.625 0.125 2.7625
0.5625 0.125 2.825
0.5625 0 2.7625
0.625 0.0625 2.7625
0.5625 0.0625 2.825
0.5625 0.125 2.7625
0.5625 0.0625 2.7625
0.75 0 2.7625
0.6875 0 2.825
0.75 0.0625 2.825
0.75 0.125 2.7625
0.6875 0.125 2.825
0.6875 0 2.7625
0.75 0.0625 2.7625
0.6875 0.0625 2.825
0.6875 0.125 2.7625
0.6875 0.0625 2.7625
0.875 0 2.7625
0.8125 0 2.825
0.875 0.0625 2.825
0.875 0.125 2.7625
0.8125 0.125 2.825
0.8125 0 2.7625
0.875 0.0625 2.7625
0.8125 0.0625 2.825
0.8125 0.125 2.7625
0.8125 0.0625 2.7625
1 0 2.7625
0.9375 0 2.825
1 0.0625 2.825
1 0.125 2.7625
0.9375 0.125 2.825
0.9375 0 2.7625
1 0.0625 2.7625
0.9375 0.0625 2.825
0.9375 0.125 2.7625
0.9375 0.0625 2.7625
1.125 0 2.7625
1.0625 0 2.825
1.125 0.0625 2.825
1.125 0.125 2.7625
1.0625 0.125 2.825
1.0625 0 2.7625
1.125 0.0625 2.7625
1.0625 0.0625 2.825
1.0625 0.125 2.7625
1.0625 0.0625 2.7625
1.25 0 2.7625
1.1875 0 2.825
1.25 0.0625 2.825
1.25 0.125 2.7625
1.1875 0.125 2.825
1.1875 0 2.7625
1.25 0.0625 2.7625
1.1875 0.0625 2.825
1.1875 0.125 2.7625
1.1875 0.0625 2.7625
1.375 0 2.7625
1.3125 0 2.825
1.375 0.0625 2.825
1.375 0.125 2.7625
1.3125 0.125 2.825
1.3125 0 2.7625
1.375 0.0625 2.7625
1.3125 0.0625 2.825
1.3125 0.125 2.7625
1.3125 0.0625 2.7625
1.5 0 2.7625
1.4375 0 2.825
1.5 0.0625 2.825
1.5 0.125 2.7625
1.4375 0.125 2.825
1.4375 0 2.7625
1.5 0.0625 2.7625
1.4375 0.0625 2.825
1.4375 0.125 2.7625
1.4375 0.0625 2.7625
1.625 0 2.7625
1.5625 0 2.825
1.625 0.0625 2.825
1.625 0.125 2.7625
1.5625 0.125 2.825
1.5625 0 2.7625
1.625 0.0625 2.7625
1.5625 0.0625 2.825
1.5625 0.125 2.7625
1.5625 0.0625 2.7625
1.75 0 2.7625
1.6875 0 2.825
1.75 0.0625 2.825
1.75 0.125 2.7625
1.6875 0.125 2.825
1.6875 0 2.7625
1.75 0.0625 2.7625
1.6875 0.0625 2.825
1.6875 0.125 2.7625
1.6875 0.0625 2.7625
1.875 0 2.7625
1.8125 0 2.825
1.875 0.0625 2.825
1.875 0.125 2.7625
1.8125 0.125 2.825
1.8125 0 2.7625
1.875 0.0625 2.7625
1.8125 0.0625 2.825
1.8125 0.125 2.7625
1.8125 0.0625 2.7625
2 0 2.7625
1.9375 0 2.825
2 0.0625 2.825
2 0.125 2.7625
1.9375 0.125 2.825
1.9375 0 2.7625
2 0.0625 2.7625
1.9375 0.0625 2.825
1.9375 0.125 2.7625
1.9375 0.0625 2.7625
2.125 0 2.7625
2.0625 0 2.825
2.125 0.0625 2.825
2.125 0.125 2.7625
2.0625 0.125 2.825
2.0625 0 2.7625
2.125 0.0625 2.7625
2.0625 0.0625 2.825
2.0625 0.125 2.7625
2.0625 0.0625 2.7625
2.25 0 2.7625
2.1875 0 2.825
2.25 0.0625 2.825
2.25 0.125 2.7625
2.1875 0.125 2.825
2.1875 0 2.7625
2.25 0.0625 2.7625
2.1875 0.0625 2.825
2.1875 0.125 2.7625
2.1875 0.0625 2.7625
2.375 0 2.7625
2.3125 0 2.825
2.375 0.0625 2.825
2.375 0.125 2.7625
2.3125 0.125 2.825
2.3125 0 2.7625
2.375 0.0625 2.7625
2.3125 0.0625 2.825
2.3125 0.125 2.7625
2.3125 0.0625 2.7625
2.5 0 2.7625
2.4375 0 2.825
2.5 0.0625 2.825
2.5 0.125 2.7625
2.4375 0.125 2.825
2.4375 0 2.7625
2.5 0.0625 2.7625
2.4375 0.0625 2.825
2.4375 0.125 2.7625
2.4375 0.0625 2.7625
2.625 0 2.7625
2.5625 0 2.825
2.625 0.0625 2.825
2.625 0.125 2.7625
2.5625 0.125 2.825
2.5625 0 2.7625
2.625 0.0625 2.7625
2.5625 0.0625 2.825
2.5625 0.125 2.7625
2.5625 0.0625 2.7625
2.75 0 2.7625
2.6875 0 2.825
2.75 0.0625 2.825
2.75 0.125 2.7625
2.6875 0.125 2.825
2.6875 0 2.7625
2.75 0.0625 2.7625
2.6875 0.0625 2.825
2.6875 0.125 2.7625
2.6875 0.0625 2.7625
2.875 0 2.7625
2.8125 0 2.825
2.875 0.0625 2.825
2.875 0.125 2.7625
2.8125 0.125 2.825
2.8125 0 2.7625
2.875 0.0625 2.7625
2.8125 0.0625 2.825
2.8125 0.125 2.7625
2.8125 0.0625 2.7625
3 0 2.7625
2.9375 0 2.825
3 0.0625 2.825
3 0.125 2.7625
2.9375 0.125 2.825
2.9375 0 2.7625
3 0.0625 2.7625
2.9375 0.0625 2.825
2.9375 0.125 2.7625
2.9375 0.0625 2.7625
0.125 0.1875 2.825
0 0.1875 2.825
0.125 0.25 2.7625
0.0625 0.25 2.825
0 0.25 2.7625
0.125 0.1875 2.7625
0.0625 0.1875 2.825
0 0.1875 2.7625
0.0625 0.25 2.7625
0.0625 0.1875 2.7625
0.25 0.1875 2.825
0.25 0.25 2.7625
0.1875 0.25 2.825
0.25 0.1875 2.7625
0.1875 0.1875 2.825
0.1875 0.25 2.7625
0.1875 0.1875 2.7625
0.375 0.1875 2.825
0.375 0.25 2.7625
0.3125 0.25 2.825
0.375 0.1875 2.7625
0.3125 0.1875 2.825
0.3125 0.25 2.7625
0.3125 0.1875 2.7625
0.5 0.1875 2.825
0.5 0.25 2.7625
0.4375 0.25 2.825
0.5 0.1875 2.7625
0.4375 0.1875 2.825
0.4375 0.25 2.7625
0.4375 0.1875 2.7625
0.625 0.1875 2.825
0.625 0.25 2.7625
0.5625 0.25 2.825
0.625 0.1875 2.7625
0.5625 0.1875 2.825
0.5625 0.25 2.7625
0.5625 0.1875 2.7625
0.75 0.1875 2.825
0.75 0.25 2.7625
0.6875 0.25 2.825
0.75 0.1875 2.7625
0.6875 0.1875 2.825
0.6875 0.25 2.7625
0.6875 0.1875 2.7625
0.875 0.1875 2.825
0.875 0.25 2.7625
0.8125 0.25 2.825
0.875 0.1875 2.7625
0.8125 0.1875 2.825
0.8125 0.25 2.7625
0.8125 0.1875 2.7625
1 0.1875 2.825
1 0.25 2.7625
0.9375 0.25 2.825
1 0.1875 2.7625
0.9375 0.1875 2.825
0.9375 0.25 2.7625
0.9375 0.1875 2.7625
1.125 0.1875 2.825
1.125 0.25 2.7625
1.0625 0.25 2.825
1.125 0.1875 2.7625
1.0625 0.1875 2.825
1.0625 0.25 2.7625
1.0625 0.1875 2.7625
1.25 0.1875 2.825
1.25 0.25 2.7625
1.1875 0.25 2.825
1.25 0.1875 2.7625
1.1875 0.1875 2.825
1.1875 0.25 2.7625
1.1875 0.1875 2.7625
1.375 0.1875 2.825
1.375 0.25 2.7625
1.3125 0.25 2.825
1.375 0.1875 2.7625
1.3125 0.1875 2.825
1.3125 0.25 2.7625
1.3125 0.1875 2.7625
1.5 0.1875 2.825
1.5 0.25 2.7625
1.4375 0.25 2.825
1.5 0.1875 2.7625
1.4375 0.1875 2.825
1.4375 0.25 2.7625
1.4375 0.1875 2.7625
1.625 0.1875 2.825
1.625 0.25 2.7625
1.5625 0.25 2.825
1.625 0.1875 2.7625
1.5625 0.1875 2.825
1.5625 0.25 2.7625
1.5625 0.1875 2.7625
1.75 0.1875 2.825
1.75 0.25 2.7625
1.6875 0.25 2.825
1.75 0.1875 2.7625
1.6875 0.1875 2.825
1.6875 0.25 2.7625
1.6875 0.1875 2.7625
1.875 0.1875 2.825
1.875 0.25 2.7625
1.8125 0.25 2.825
1.875 0.1875 2.7625
1.8125 0.1875 2.825
1.8125 0.25 2.7625
1.8125 0.1875 2.7625
2 0.1875 2.825
2 0.25 2.7625
1.9375 0.25 2.825
2 0.1875 2.7625
1.9375 0.1875 2.825
1.9375 0.25 2.7625
1.9375 0.1875 2.7625
2.125 0.1875 2.825
2.125 0.25 2.7625
2.0625 0.25 2.825
2.125 0.1875 2.7625
2.0625 0.1875 2.825
2.0625 0.25 2.7625
2.0625 0.1875 2.7625
2.25 0.1875 2.825
2.25 0.25 2.7625
2.1875 0.25 2.825
2.25 0.1875 2.7625
2.1875 0.1875 2.825
2.1875 0.25 2.7625
2.1875 0.1875 2.7625
2.375 0.1875 2.825
2.375 0.25 2.7625
2.3125 0.25 2.825
2.375 0.1875 2.7625
2.3125 0.1875 2.825
2.3125 0.25 2.7625
2.3125 0.1875 2.7625
2.5 0.1875 2.825
2.5 0.25 2.7625
2.4375 0.25 2.825
2.5 0.1875 2.7625
2.4375 0.1875 2.825
2.4375 0.25 2.7625
2.4375 0.1875 2.7625
2.625 0.1875 2.825
2.625 0.25 2.7625
2.5625 0.25 2.825
2.625 0.1875 2.7625
2.5625 0.1875 2.825
2.5625 0.25 2.7625
2.5625 0.1875 2.7625
2.75 0.1875 2.825
2.75 0.25 2.7625
2.6875 0.25 2.825
2.75 0.1875 2.7625
2.6875 0.1875 2.825
2.6875 0.25 2.7625
2.6875 0.1875 2.7625
2.875 0.1875 2.825
2.875 0.25 2.7625
2.8125 0.25 2.825
2.875 0.1875 2.7625
2.8125 0.1875 2.825
2.8125 0.25 2.7625
2.8125 0.1875 2.7625
3 0.1875 2.825
3 0.25 2.7625
2.9375 0.25 2.825
3 0.1875 2.7625
2.9375 0.1875 2.825
2.9375 0.25 2.7625
2.9375 0.1875 2.7625
0.125 0.3125 2.825
0 0.3125 2.825
0.125 0.375 2.7625
0.0625 0.375 2.825
0 0.375 2.7625
0.125 0.3125 2.7625
0.0625 0.3125 2.825
0 0.3125 2.7625
0.0625 0.375 2.7625
0.0625 0.3125 2.7625
0.25 0.3125 2.825
0.25 0.375 2.7625
0.1875 0.375 2.825
0.25 0.3125 2.7625
0.1875 0.3125 2.825
0.1875 0.375 2.7625
0.1875 0.3125 2.7625
0.375 0.3125 2.825
0.375 0.375 2.7625
0.3125 0.375 2.825
0.375 0.3125 2.7625
0.3125 0.3125 2.825
0.3125 0.375 2.7625
0.3125 0.3125 2.7625
0.5 0.3125 2.825
0.5 0.375 2.7625
0.4375 0.375 2.825
0.5 0.3125 2.7625
0.4375 0.3125 2.825
0.4375 0.375 2.7625
0.4375 0.3125 2.7625
0.625 0.3125 2.825
0.625 0.375 2.7625
0.5625 0.375 2.825
0.625 0.3125 2.7625
0.5625 0.3125 2.825
0.5625 0.375 2.7625
0.5625 0.3125 2.7625
0.75 0.3125 2.825
0.75 0.375 2.7625
0.6875 0.375 2.825
0.75 0.3125 2.7625
0.6875 0.3125 2.825
0.6875 0.375 2.7625
0.6875 0.3125 2.7625
0.875 0.3125 2.825
0.875 0.375 2.7625
0.8125 0.375 2.825
0.875 0.3125 2.7625
0.8125 0.3125 2.825
0.8125 0.375 2.7625
0.8125 0.3125 2.7625
1 0.3125 2.825
1 0.375 2.7625
0.9375 0.375 2.825
1 0.3125 2.7625
0.9375 0.3125 2.825
0.9375 0.375 2.7625
0.9375 0.3125 2.7625
1.125 0.3125 2.825
1.125 0.375 2.7625
1.0625 0.375 2.825
1.125 0.3125 2.7625
1.0625 0.3125 2.825
1.0625 0.375 2.7625
1.0625 0.3125 2.7625
1.25 0.3125 2.825
1.25 0.375 2.7625
1.1875 0.375 2.825
1.25 0.3125 2.7625
1.1875 0.3125 2.825
1.1875 0.375 2.7625
1.1875 0.3125 2.7625
1.375 0.3125 2.825
1.375 0.375 2.7625
1.3125 0.375 2.825
1.375 0.3125 2.7625
1.3125 0.3125 2.825
1.3125 0.375 2.7625
1.3125 0.3125 2.7625
1.5 0.3125 2.825
1.5 0.375 2.7625
1.4375 0.375 2.825
1.5 0.3125 2.7625
1.4375 0.3125 2.825
1.4375 0.375 2.7625
1.4375 0.3125 2.7625
1.625 0.3125 2.825
1.625 0.375 2.7625
1.5625 0.375 2.825
1.625 0.3125 2.7625
1.5625 0.3125 2.825
1.5625 0.375 2.7625
1.5625 0.3125 2.7625
1.75 0.3125 2.825
1.75 0.375 2.7625
1.6875 0.375 2.825
1.75 0.3125 2.7625
1.6875 0.3125 2.825
1.6875 0.375 2.7625
1.6875 0.3125 2.7625
1.875 0.3125 2.825
1.875 0.375 2.7625
1.8125 0.375 2.825
1.875 0.3125 2.7625
1.8125 0.3125 2.825
1.8125 0.375 2.7625
1.8125 0.3125 2.7625
2 0.3125 2.825
2 0.375 2.7625
1.9375 0.375 2.825
2 0.3125 2.7625
1.9375 0.3125 2.825
1.9375 0.375 2.7625
1.9375 0.3125 2.7625
2.125 0.3125 2.825
2.125 0.375 2.7625
2.0625 0.375 2.825
2.125 0.3125 2.7625
2.0625 0.3125 2.825
2.0625 0.375 2.7625
2.0625 0.3125 2.7625
2.25 0.3125 2.825
2.25 0.375 2.7625
2.1875 0.375 2.825
2.25 0.3125 2.7625
2.1875 0.3125 2.825
2.1875 0.375 2.7625
2.1875 0.3125 2.7625
2.375 0.3125 2.825
2.375 0.375 2.7625
2.3125 0.375 2.825
2.375 0.3125 2.7625
2.3125 0.3125 2.825
2.3125 0.375 2.7625
2.3125 0.3125 2.7625
2.5 0.3125 2.825
2.5 0.375 2.7625
2.4375 0.375 2.825
2.5 0.3125 2.7625
2.4375 0.3125 2.825
2.4375 0.375 2.7625
2.4375 0.3125 2.7625
2.625 0.3125 2.825
2.625 0.375 2.7625
2.5625 0.375 2.825
2.625 0.3125 2.7625
2.5625 0.3125 2.825
2.5625 0.375 2.7625
2.5625 0.3125 2.7625
2.75 0.3125 2.825
2.75 0.375 2.7625
2.6875 0.375 2.825
2.75 0.3125 2.7625
2.6875 0.3125 2.825
2.6875 0.375 2.7625
2.6875 0.3125 2.7625
2.875 0.3125 2.825
2.875 0.375 2.7625
2.8125 0.375 2.825
2.875 0.3125 2.7625
2.8125 0.3125 2.825
2.8125 0.375 2.7625
2.8125 0.3125 2.7625
3 0.3125 2.825
3 0.375 2.7625
2.9375 0.375 2.825
3 0.3125 2.7625
2.9375 0.3125 2.825
2.9375 0.375 2.7625
2.9375 0.3125 2.7625
0.125 0.4375 2.825
0 0.4375 2.825
0.125 0.5 2.7625
0.0625 0.5 2.825
0 0.5 2.7625
0.125 0.4375 2.7625
0.0625 0.4375 2.825
0 0.4375 2.7625
0.0625 0.5 2.7625
0.0625 0.4375 2.7625
0.25 0.4375 2.825
0.25 0.5 2.7625
0.1875 0.5 2.825
0.25 0.4375 2.7625
0.1875 0.4375 2.825
0.1875 0.5 2.7625
0.1875 0.4375 2.7625
0.375 0.4375 2.825
0.375 0.5 2.7625
0.3125 0.5 2.825
0.375 0.4375 2.7625
0.3125 0.4375 2.825
0.3125 0.5 2.7625
0.3125 0.4375 2.7625
0.5 0.4375 2.825
0.5 0.5 2.7625
0.4375 0.5 2.825
0.5 0.4375 2.7625
0.4375 0.4375 2.825
0.4375 0.5 2.7625
0.4375 0.4375 2.7625
0.625 0.4375 2.825
0.625 0.5 2.7625
0.5625 0.5 2.825
0.625 0.4375 2.7625
0.5625 0.4375 2.825
0.5625 0.5 2.7625
0.5625 0.4375 2.7625
0.75 0.4375 2.825
0.75 0.5 2.7625
0.6875 0.5 2.825
0.75 0.4375 2.7625
0.6875 0.4375 2.825
0.6875 0.5 2.7625
0.6875 0.4375 2.7625
0.875 0.4375 2.825
0.875 0.5 2.7625
0.8125 0.5 2.825
0.875 0.4375 2.7625
0.8125 0.4375 2.825
0.8125 0.5 2.7625
0.8125 0.4375 2.7625
1 0.4375 2.825
1 0.5 2.7625
0.9375 0.5 2.825
1 0.4375 2.7625
0.9375 0.4375 2.825
0.9375 0.5 2.7625
0.9375 0.4375 2.7625
1.125 0.4375 2.825
1.125 0.5 2.7625
1.0625 0.5 2.825
1.125 0.4375 2.7625
1.0625 0.4375 2.825
1.0625 0.5 2.7625
1.0625 0.4375 2.7625
1.25 0.4375 2.825
1.25 0.5 2.7625
1.1875 0.5 2.825
1.25 0.4375 2.7625
1.1875 0.4375 2.825
1.1875 0.5 2.7625
1.1875 0.4375 2.7625
1.375 0.4375 2.825
1.375 0.5 2.7625
1.3125 0.5 2.825
1.375 0.4375 2.7625
1.3125 0.4375 2.825
1.3125 0.5 2.7625
1.3125 0.4375 2.7625
1.5 0.4375 2.825
1.5 0.5 2.7625
1.4375 0.5 2.825
1.5 0.4375 2.7625
1.4375 0.4375 2.825
1.4375 0.5 2.7625
1.4375 0.4375 2.7625
1.625 0.4375 2.825
1.625 0.5 2.7625
1.5625 0.5 2.825
1.625 0.4375 2.7625
1.5625 0.4375 2.825
1.5625 0.5 2.7625
1.5625 0.4375 2.7625
1.75 0.4375 2.825
1.75 0.5 2.7625
1.6875 0.5 2.825
1.75 0.4375 2.7625
1.6875 0.4375 2.825
1.6875 0.5 2.7625
1.6875 0.4375 2.7625
1.875 0.4375 2.825
1.875 0.5 2.7625
1.8125 0.5 2.825
1.875 0.4375 2.7625
1.8125 0.4375 2.825
1.8125 0.5 2.7625
1.8125 0.4375 2.7625
2 0.4375 2.825
2 0.5 2.7625
1.9375 0.5 2.825
2 0.4375 2.7625
1.9375 0.4375 2.825
1.9375 0.5 2.7625
1.9375 0.4375 2.7625
2.125 0.4375 2.825
2.125 0.5 2.7625
2.0625 0.5 2.825
2.125 0.4375 2.7625
2.0625 0.4375 2.825
2.0625 0.5 2.7625
2.0625 0.4375 2.7625
2.25 0.4375 2.825
2.25 0.5 2.7625
2.1875 0.5 2.825
2.25 0.4375 2.7625
2.1875 0.4375 2.825
2.1875 0.5 2.7625
2.1875 0.4375 2.7625
2.375 0.4375 2.825
2.375 0.5 2.7625
2.3125 0.5 2.825
2.375 0.4375 2.7625
2.3125 0.4375 2.825
2.3125 0.5 2.7625
2.3125 0.4375 2.7625
2.5 0.4375 2.825
2.5 0.5 2.7625
2.4375 0.5 2.825
2.5 0.4375 2.7625
2.4375 0.4375 2.825
2.4375 0.5 2.7625
2.4375 0.4375 2.7625
2.625 0.4375 2.825
2.625 0.5 2.7625
2.5625 0.5 2.825
2.625 0.4375 2.7625
2.5625 0.4375 2.825
2.5625 0.5 2.7625
2.5625 0.4375 2.7625
2.75 0.4375 2.825
2.75 0.5 2.7625
2.6875 0.5 2.825
2.75 0.4375 2.7625
2.6875 0.4375 2.825
2.6875 0.5 2.7625
2.6875 0.4375 2.7625
2.875 0.4375 2.825
2.875 0.5 2.7625
2.8125 0.5 2.825
2.875 0.4375 2.7625
2.8125 0.4375 2.825
2.8125 0.5 2.7625
2.8125 0.4375 2.7625
3 0.4375 2.825
3 0.5 2.7625
2.9375 0.5 2.825
3 0.4375 2.7625
2.9375 0.4375 2.825
2.9375 0.5 2.7625
2.9375 0.4375 2.7625
0.125 0.5625 2.825
0 0.5625 2.825
0.125 0.625 2.7625
0.0625 0.625 2.825
0 0.625 2.7625
0.125 0.5625 2.7625
0.0625 0.5625 2.825
0 0.5625 2.7625
0.0625 0.625 2.7625
0.0625 0.5625 2.7625
0.25 0.5625 2.825
0.25 0.625 2.7625
0.1875 0.625 2.825
0.25 0.5625 2.7625
0.1875 0.5625 2.825
0.1875 0.625 2.7625
0.1875 0.5625 2.7625
0.375 0.5625 2.825
0.375 0.625 2.7625
0.3125 0.625 2.825
0.375 0.5625 2.7625
0.3125 0.5625 2.825
0.3125 0.625 2.7625
0.3125 0.5625 2.7625
0.5 0.5625 2.825
0.5 0.625 2.7625
0.4375 0.625 2.825
0.5 0.5625 2.7625
0.4375 0.5625 2.825
0.4375 0.625 2.7625
0.4375 0.5625 2.7625
0.625 0.5625 2.825
0.625 0.625 2.7625
0.5625 0.625 2.825
0.625 0.5625 2.7625
0.5625 0.5625 2.825
0.5625 0.625 2.7625
0.5625 0.5625 2.7625
0.75 0.5625 2.825
0.75 0.625 2.7625
0.6875 0.625 2.825
0.75 0.5625 2.7625
0.6875 0.5625 2.825
0.6875 0.625 2.7625
0.6875 0.5625 2.7625
0.875 0.5625 2.825
0.875 0.625 2.7625
0.8125 0.625 2.825
0.875 0.5625 2.7625
0.8125 0.5625 2.825
0.8125 0.625 2.7625
0.8125 0.5625 2.7625
1 0.5625 2.825
1 0.625 2.7625
0.9375 0.625 2.825
1 0.5625 2.7625
0.9375 0.5625 2.825
0.9375 0.625 2.7625
0.9375 0.5625 2.7625
1.125 0.5625 2.825
1.125 0.625 2.7625
1.0625 0.625 2.825
1.125 0.5625 2.7625
1.0625 0.5625 2.825
1.0625 0.625 2.7625
1.0625 0.5625 2.7625
1.25 0.5625 2.825
1.25 0.625 2.7625
1.1875 0.625 2.825
1.25 0.5625 2.7625
1.1875 0.5625 2.825
1.1875 0.625 2.7625
1.1875 0.5625 2.7625
1.375 0.5625 2.825
1.375 0.625 2.7625
1.3125 0.625 2.825
1.375 0.5625 2.7625
1.3125 0.5625 2.825
1.3125 0.625 2.7625
1.3125 0.5625 2.7625
1.5 0.5625 2.825
1.5 0.625 2.7625
1.4375 0.625 2.825
1.5 0.5625 2.7625
1.4375 0.5625 2.825
1.4375 0.625 2.7625
1.4375 0.5625 2.7625
1.625 0.5625 2.825
1.625 0.625 2.7625
1.5625 0.625 2.825
1.625 0.5625 2.7625
1.5625 0.5625 2.825
1.5625 0.625 2.7625
1.5625 0.5625 2.7625
1.75 0.5625 2.825
1.75 0.625 2.7625
1.6875 0.625 2.825
1.75 0.5625 2.7625
1.6875 0.5625 2.825
1.6875 0.625 2.7625
1.6875 0.5625 2.7625
1.875 0.5625 2.825
1.875 0.625 2.7625
1.8125 0.625 2.825
1.875 0.5625 2.7625
1.8125 0.5625 2.825
1.8125 0.625 2.7625
1.8125 0.5625 2.7625
2 0.5625 2.825
2 0.625 2.7625
1.9375 0.625 2.825
2 0.5625 2.7625
1.9375 0.5625 2.825
1.9375 0.625 2.7625
1.9375 0.5625 2.7625
2.125 0.5625 2.825
2.125 0.625 2.7625
2.0625 0.625 2.825
2.125 0.5625 2.7625
2.0625 0.5625 2.825
2.0625 0.625 2.7625
2.0625 0.5625 2.7625
2.25 0.5625 2.825
2.25 0.625 2.7625
2.1875 0.625 2.825
2.25 0.5625 2.7625
2.1875 0.5625 2.825
2.1875 0.625 2.7625
2.1875 0.5625 2.7625
2.375 0.5625 2.825
2.375 0.625 2.7625
2.3125 0.625 2.825
2.375 0.5625 2.7625
2.3125 0.5625 2.825
2.3125 0.625 2.7625
2.3125 0.5625 2.7625
2.5 0.5625 2.825
2.5 0.625 2.7625
2.4375 0.625 2.825
2.5 0.5625 2.7625
2.4375 0.5625 2.825
2.4375 0.625 2.7625
2.4375 0.5625 2.7625
2.625 0.5625 2.825
2.625 0.625 2.7625
2.5625 0.625 2.825
2.625 0.5625 2.7625
2.5625 0.5625 2.825
2.5625 0.625 2.7625
2.5625 0.5625 2.7625
2.75 0.5625 2.825
2.75 0.625 2.7625
2.6875 0.625 2.825
2.75 0.5625 2.7625
2.6875 0.5625 2.825
2.6875 0.625 2.7625
2.6875 0.5625 2.7625
2.875 0.5625 2.825
2.875 0.625 2.7625
2.8125 0.625 2.825
2.875 0.5625 2.7625
2.8125 0.5625 2.825
2.8125 0.625 2.7625
2.8125 0.5625 2.7625
3 0.5625 2.825
3 0.625 2.7625
2.9375 0.625 2.825
3 0.5625 2.7625
2.9375 0.5625 2.825
2.9375 0.625 2.7625
2.9375 0.5625 2.7625
0.125 0.6875 2.825
0 0.6875 2.825
0.125 0.75 2.7625
0.0625 0.75 2.825
0 0.75 2.7625
0.125 0.6875 2.7625
0.0625 0.6875 2.825
0 0.6875 2.7625
0.0625 0.75 2.7625
0.0625 0.6875 2.7625
0.25 0.6875 2.825
0.25 0.75 2.7625
0.1875 0.75 2.825
0.25 0.6875 2.7625
0.1875 0.6875 2.825
0.1875 0.75 2.7625
0.1875 0.6875 2.7625
0.375 0.6875 2.825
0.375 0.75 2.7625
0.3125 0.75 2.825
0.375 0.6875 2.7625
0.3125 0.6875 2.825
0.3125 0.75 2.7625
0.3125 0.6875 2.7625
0.5 0.6875 2.825
0.5 0.75 2.7625
0.4375 0.75 2.825
0.5 0.6875 2.7625
0.4375 0.6875 2.825
0.4375 0.75 2.7625
0.4375 0.6875 2.7625
0.625 0.6875 2.825
0.625 0.75 2.7625
0.5625 0.75 2.825
0.625 0.6875 2.7625
0.5625 0.6875 2.825
0.5625 0.75 2.7625
0.5625 0.6875 2.7625
0.75 0.6875 2.825
0.75 0.75 2.7625
0.6875 0.75 2.825
0.75 0.6875 2.7625
0.6875 0.6875 2.825
0.6875 0.75 2.7625
0.6875 0.6875 2.7625
0.875 0.6875 2.825
0.875 0.75 2.7625
0.8125 0.75 2.825
0.875 0.6875 2.7625
0.8125 0.6875 2.825
0.8125 0.75 2.7625
0.8125 0.6875 2.7625
1 0.6875 2.825
1 0.75 2.7625
0.9375 0.75 2.825
1 0.6875 2.7625
0.9375 0.6875 2.825
0.9375 0.75 2.7625
0.9375 0.6875 2.7625
1.125 0.6875 2.825
1.125 0.75 2.7625
1.0625 0.75 2.825
1.125 0.6875 2.7625
1.0625 0.6875 2.825
1.0625 0.75 2.7625
1.0625 0.6875 2.7625
1.25 0.6875 2.825
1.25 0.75 2.7625
1.1875 0.75 2.825
1.25 0.6875 2.7625
1.1875 0.6875 2.825
1.1875 0.75 2.7625
1.1875 0.6875 2.7625
1.375 0.6875 2.825
1.375 0.75 2.7625
1.3125 0.75 2.825
1.375 0.6875 2.7625
1.3125 0.6875 2.825
1.3125 0.75 2.7625
1.3125 0.6875 2.7625
1.5 0.6875 2.825
1.5 0.75 2.7625
1.4375 0.75 2.825
1.5 0.6875 2.7625
1.4375 0.6875 2.825
1.4375 0.75 2.7625
1.4375 0.6875 2.7625
1.625 0.6875 2.825
1.625 0.75 2.7625
1.5625 0.75 2.825
1.625 0.6875 2.7625
1.5625 0.6875 2.825
1.5625 0.75 2.7625
1.5625 0.6875 2.7625
1.75 0.6875 2.825
1.75 0.75 2.7625
1.6875 0.75 2.825
1.75 0.6875 2.7625
1.6875 0.6875 2.825
1.6875 0.75 2.7625
1.6875 0.6875 2.7625
1.875 0.6875 2.825
1.875 0.75 2.7625
1.8125 0.75 2.825
1.875 0.6875 2.7625
1.8125 0.6875 2.825
1.8125 0.75 2.7625
1.8125 0.6875 2.7625
2 0.6875 2.825
2 0.75 2.7625
1.9375 0.75 2.825
2 0.6875 2.7625
1.9375 0.6875 2.825
1.9375 0.75 2.7625
1.9375 0.6875 2.7625
2.125 0.6875 2.825
2.125 0.75 2.7625
2.0625 0.75 2.825
2.125 0.6875 2.7625
2.0625 0.6875 2.825
2.0625 0.75 2.7625
2.0625 0.6875 2.7625
2.25 0.6875 2.825
2.25 0.75 2.7625
2.1875 0.75 2.825
2.25 0.6875 2.7625
2.1875 0.6875 2.825
2.1875 0.75 2.7625
2.1875 0.6875 2.7625
2.375 0.6875 2.825
2.375 0.75 2.7625
2.3125 0.75 2.825
2.375 0.6875 2.7625
2.3125 0.6875 2.825
2.3125 0.75 2.7625
2.3125 0.6875 2.7625
2.5 0.6875 2.825
2.5 0.75 2.7625
2.4375 0.75 2.825
2.5 0.6875 2.7625
2.4375 0.6875 2.825
2.4375 0.75 2.7625
2.4375 0.6875 2.7625
2.625 0.6875 2.825
2.625 0.75 2.7625
2.5625 0.75 2.825
2.625 0.6875 2.7625
2.5625 0.6875 2.825
2.5625 0.75 2.7625
2.5625 0.6875 2.7625
2.75 0.6875 2.825
2.75 0.75 2.7625
2.6875 0.75 2.825
2.75 0.6875 2.7625
2.6875 0.6875 2.825
2.6875 0.75 2.7625
2.6875 0.6875 2.7625
2.875 0.6875 2.825
2.875 0.75 2.7625
2.8125 0.75 2.825
2.875 0.6875 2.7625
2.8125 0.6875 2.825
2.8125 0.75 2.7625
2.8125 0.6875 2.7625
3 0.6875 2.825
3 0.75 2.7625
2.9375 0.75 2.825
3 0.6875 2.7625
2.9375 0.6875 2.825
2.9375 0.75 2.7625
2.9375 0.6875 2.7625
0.125 0.8125 2.825
0 0.8125 2.825
0.125 0.875 2.7625
0.0625 0.875 2.825
0 0.875 2.7625
0.125 0.8125 2.7625
0.0625 0.8125 2.825
0 0.8125 2.7625
0.0625 0.875 2.7625
0.0625 0.8125 2.7625
0.25 0.8125 2.825
0.25 0.875 2.7625
0.1875 0.875 2.825
0.25 0.8125 2.7625
0.1875 0.8125 2.825
0.1875 0.875 2.7625
0.1875 0.8125 2.7625
0.375 0.8125 2.825
0.375 0.875 2.7625
0.3125 0.875 2.825
0.375 0.8125 2.7625
0.3125 0.8125 2.825
0.3125 0.875 2.7625
0.3125 0.8125 2.7625
0.5 0.8125 2.825
0.5 0.875 2.7625
0.4375 0.875 2.825
0.5 0.8125 2.7625
0.4375 0.8125 2.825
0.4375 0.875 2.7625
0.4375 0.8125 2.7625
0.625 0.8125 2.825
0.625 0.875 2.7625
0.5625 0.875 2.825
0.625 0.8125 2.7625
0.5625 0.8125 2.825
0.5625 0.875 2.7625
0.5625 0.8125 2.7625
0.75 0.8125 2.825
0.75 0.875 2.7625
0.6875 0.875 2.825
0.75 0.8125 2.7625
0.6875 0.8125 2.825
0.6875 0.875 2.7625
0.6875 0.8125 2.7625
0.875 0.8125 2.825
0.875 0.875 2.7625
0.8125 0.875 2.825
0.875 0.8125 2.7625
0.8125 0.8125 2.825
0.8125 0.875 2.7625
0.8125 0.8125 2.7625
1 0.8125 2.825
1 0.875 2.7625
0.9375 0.875 2.825
1 0.8125 2.7625
0.9375 0.8125 2.825
0.9375 0.875 2.7625
0.9375 0.8125 2.7625
1.125 0.8125 2.825
1.125 0.875 2.7625
1.0625 0.875 2.825
1.125 0.8125 2.7625
1.0625 0.8125 2.825
1.0625 0.875 2.7625
1.0625 0.8125 2.7625
1.25 0.8125 2.825
1.25 0.875 2.7625
1.1875 0.875 2.825
1.25 0.8125 2.7625
1.1875 0.8125 2.825
1.1875 0.875 2.7625
1.1875 0.8125 2.7625
1.375 0.8125 2.825
1.375 0.875 2.7625
1.3125 0.875 2.825
1.375 0.8125 2.7625
1.3125 0.8125 2.825
1.3125 0.875 2.7625
1.3125 0.8125 2.7625
1.5 0.8125 2.825
1.5 0.875 2.7625
1.4375 0.875 2.825
1.5 0.8125 2.7625
1.4375 0.8125 2.825
1.4375 0.875 2.7625
1.4375 0.8125 2.7625
1.625 0.8125 2.825
1.625 0.875 2.7625
1.5625 0.875 2.825
1.625 0.8125 2.7625
1.5625 0.8125 2.825
1.5625 0.875 2.7625
1.5625 0.8125 2.7625
1.75 0.8125 2.825
1.75 0.875 2.7625
1.6875 0.875 2.825
1.75 0.8125 2.7625
1.6875 0.8125 2.825
1.6875 0.875 2.7625
1.6875 0.8125 2.7625
1.875 0.8125 2.825
1.875 0.875 2.7625
1.8125 0.875 2.825
1.875 0.8125 2.7625
1.8125 0.8125 2.825
1.8125 0.875 2.7625
1.8125 0.8125 2.7625
2 0.8125 2.825
2 0.875 2.7625
1.9375 0.875 2.825
2 0.8125 2.7625
1.9375 0.8125 2.825
1.9375 0.875 2.7625
1.9375 0.8125 2.7625
2.125 0.8125 2.825
2.125 0.875 2.7625
2.0625 0.875 2.825
2.125 0.8125 2.7625
2.0625 0.8125 2.825
2.0625 0.875 2.7625
2.0625 0.8125 2.7625
2.25 0.8125 2.825
2.25 0.875 2.7625
2.1875 0.875 2.825
2.25 0.8125 2.7625
2.1875 0.8125 2.825
2.1875 0.875 2.7625
2.1875 0.8125 2.7625
2.375 0.8125 2.825
2.375 0.875 2.7625
2.3125 0.875 2.825
2.375 0.8125 2.7625
2.3125 0.8125 2.825
2.3125 0.875 2.7625
2.3125 0.8125 2.7625
2.5 0.8125 2.825
2.5 0.875 2.7625
2.4375 0.875 2.825
2.5 0.8125 2.7625
2.4375 0.8125 2.825
2.4375 0.875 2.7625
2.4375 0.8125 2.7625
2.625 0.8125 2.825
2.625 0.875 2.7625
2.5625 0.875 2.825
2.625 0.8125 2.7625
2.5625 0.8125 2.825
2.5625 0.875 2.7625
2.5625 0.8125 2.7625
2.75 0.8125 2.825
2.75 0.875 2.7625
2.6875 0.875 2.825
2.75 0.8125 2.7625
2.6875 0.8125 2.825
2.6875 0.875 2.7625
2.6875 0.8125 2.7625
2.875 0.8125 2.825
2.875 0.875 2.7625
2.8125 0.875 2.825
2.875 0.8125 2.7625
2.8125 0.8125 2.825
2.8125 0.875 2.7625
2.8125 0.8125 2.7625
3 0.8125 2.825
3 0.875 2.7625
2.9375 0.875 2.825
3 0.8125 2.7625
2.9375 0.8125 2.825
2.9375 0.875 2.7625
2.9375 0.8125 2.7625
0.125 0.9375 2.825
0 0.9375 2.825
0.125 1 2.7625
0.0625 1 2.825
0 1 2.7625
0.125 0.9375 2.7625
0.0625 0.9375 2.825
0 0.9375 2.7625
0.0625 1 2.7625
0.0625 0.9375 2.7625
0.25 0.9375 2.825
0.25 1 2.7625
0.1875 1 2.825
0.25 0.9375 2.7625
0.1875 0.9375 2.825
0.1875 1 2.7625
0.1875 0.9375 2.7625
0.375 0.9375 2.825
0.375 1 2.7625
0.3125 1 2.825
0.375 0.9375 2.7625
0.3125 0.9375 2.825
0.3125 1 2.7625
0.3125 0.9375 2.7625
0.5 0.9375 2.825
0.5 1 2.7625
0.4375 1 2.825
0.5 0.9375 2.7625
0.4375 0.9375 2.825
0.4375 1 2.7625
0.4375 0.9375 2.7625
0.625 0.9375 2.825
0.625 1 2.7625
0.5625 1 2.825
0.625 0.9375 2.7625
0.5625 0.9375 2.825
0.5625 1 2.7625
0.5625 0.9375 2.7625
0.75 0.9375 2.825
0.75 1 2.7625
0.6875 1 2.825
0.75 0.9375 2.7625
0.6875 0.9375 2.825
0.6875 1 2.7625
0.6875 0.9375 2.7625
0.875 0.9375 2.825
0.875 1 2.7625
0.8125 1 2.825
0.875 0.9375 2.7625
0.8125 0.9375 2.825
0.8125 1 2.7625
0.8125 0.9375 2.7625
1 0.9375 2.825
1 1 2.7625
0.9375 1 2.825
1 0.9375 2.7625
0.9375 0.9375 2.825
0.9375 1 2.7625
0.9375 0.9375 2.7625
1.125 0.9375 2.825
1.125 1 2.7625
1.0625 1 2.825
1.125 0.9375 2.7625
1.0625 0.9375 2.825
1.0625 1 2.7625
1.0625 0.9375 2.7625
1.25 0.9375 2.825
1.25 1 2.7625
1.1875 1 2.825
1.25 0.9375 2.7625
1.1875 0.9375 2.825
1.1875 1 2.7625
1.1875 0.9375 2.7625
1.375 0.9375 2.825
1.375 1 2.7625
1.3125 1 2.825
1.375 0.9375 2.7625
1.3125 0.9375 2.825
1.3125 1 2.7625
1.3125 0.9375 2.7625
1.5 0.9375 2.825
1.5 1 2.7625
1.4375 1 2.825
1.5 0.9375 2.7625
1.4375 0.9375 2.825
1.4375 1 2.7625
1.4375 0.9375 2.7625
1.625 0.9375 2.825
1.625 1 2.7625
1.5625 1 2.825
1.625 0.9375 2.7625
1.5625 0.9375 2.825
1.5625 1 2.7625
1.5625 0.9375 2.7625
1.75 0.9375 2.825
1.75 1 2.7625
1.6875 1 2.825
1.75 0.9375 2.7625
1.6875 0.9375 2.825
1.6875 1 2.7625
1.6875 0.9375 2.7625
1.875 0.9375 2.825
1.875 1 2.7625
1.8125 1 2.825
1.875 0.9375 2.7625
1.8125 0.9375 2.825
1.8125 1 2.7625
1.8125 0.9375 2.7625
2 0.9375 2.825
2 1 2.7625
1.9375 1 2.825
2 0.9375 2.7625
1.9375 0.9375 2.825
1.9375 1 2.7625
1.9375 0.9375 2.7625
2.125 0.9375 2.825
2.125 1 2.7625
2.0625 1 2.825
2.125 0.9375 2.7625
2.0625 0.9375 2.825
2.0625 1 2.7625
2.0625 0.9375 2.7625
2.25 0.9375 2.825
2.25 1 2.7625
2.1875 1 2.825
2.25 0.9375 2.7625
2.1875 0.9375 2.825
2.1875 1 2.7625
2.1875 0.9375 2.7625
2.375 0.9375 2.825
2.375 1 2.7625
2.3125 1 2.825
2.375 0.9375 2.7625
2.3125 0.9375 2.825
2.3125 1 2.7625
2.3125 0.9375 2.7625
2.5 0.9375 2.825
2.5 1 2.7625
2.4375 1 2.825
2.5 0.9375 2.7625
2.4375 0.9375 2.825
2.4375 1 2.7625
2.4375 0.9375 2.7625
2.625 0.9375 2.825
2.625 1 2.7625
2.5625 1 2.825
2.625 0.9375 2.7625
2.5625 0.9375 2.825
2.5625 1 2.7625
2.5625 0.9375 2.7625
2.75 0.9375 2.825
2.75 1 2.7625
2.6875 1 2.825
2.75 0.9375 2.7625
2.6875 0.9375 2.825
2.6875 1 2.7625
2.6875 0.9375 2.7625
2.875 0.9375 2.825
2.875 1 2.7625
2.8125 1 2.825
2.875 0.9375 2.7625
2.8125 0.9375 2.825
2.8125 1 2.7625
2.8125 0.9375 2.7625
3 0.9375 2.825
3 1 2.7625
2.9375 1 2.825
3 0.9375 2.7625
2.9375 0.9375 2.825
2.9375 1 2.7625
2.9375 0.9375 2.7625
0.125 0 2.8875
0.0625 0 2.95
0 0 2.8875
0.125 0.0625 2.95
0 0.0625 2.95
0.125 0.125 2.8875
0.0625 0.125 2.95
0 0.125 2.8875
0.0625 0 2.8875
0.125 0.0625 2.8875
0.0625 0.0625 2.95
0 0.0625 2.8875
0.0625 0.125 2.8875
0.0625 0.0625 2.8875
0.25 0 2.8875
0.1875 0 2.95
0.25 0.0625 2.95
0.25 0.125 2.8875
0.1875 0.125 2.95
0.1875 0 2.8875
0.25 0.0625 2.8875
0.1875 0.0625 2.95
0.1875 0.125 2.8875
0.1875 0.0625 2.8875
0.375 0 2.8875
0.3125 0 2.95
0.375 0.0625 2.95
0.375 0.125 2.8875
0.3125 0.125 2.95
0.3125 0 2.8875
0.375 0.0625 2.8875
0.3125 0.0625 2.95
0.3125 0.125 2.8875
0.3125 0.0625 2.8875
0.5 0 2.8875
0.4375 0 2.95
0.5 0.0625 2.95
0.5 0.125 2.8875
0.4375 0.125 2.95
0.4375 0 2.8875
0.5 0.0625 2.8875
0.4375 0.0625 2.95
0.4375 0.125 2.8875
0.4375 0.0625 2.8875
0.625 0 2.8875
0.5625 0 2.95
0.625 0.0625 2.95
0.625 0.125 2.8875
0.5625 0.125 2.95
0.5625 0 2.8875
0.625 0.0625 2.8875
0.5625 0.0625 2.95
0.5625 0.125 2.8875
0.5625 0.0625 2.8875
0.75 0 2.8875
0.6875 0 2.95
0.75 0.0625 2.95
0.75 0.125 2.8875
0.6875 0.125 2.95
0.6875 0 2.8875
0.75 0.0625 2.8875
0.6875 0.0625 2.95
0.6875 0.125 2.8875
0.6875 0.0625 2.8875
0.875 0 2.8875
0.8125 0 2.95
0.875 0.0625 2.95
0.875 0.125 2.8875
0.8125 0.125 2.95
0.8125 0 2.8875
0.875 0.0625 2.8875
0.8125 0.0625 2.95
0.8125 0.125 2.8875
0.8125 0.0625 2.8875
1 0 2.8875
0.9375 0 2.95
1 0.0625 2.95
1 0.125 2.8875
0.9375 0.125 2.95
0.9375 0 2.8875
1 0.0625 2.8875
0.9375 0.0625 2.95
0.9375 0.125 2.8875
0.9375 0.0625 2.8875
1.125 0 2.8875
1.0625 0 2.95
1.125 0.0625 2.95
1.125 0.125 2.8875
1.0625 0.125 2.95
1.0625 0 2.8875
1.125 0.0625 2.8875
1.0625 0.0625 2.95
1.0625 0.125 2.8875
1.0625 0.0625 2.8875
1.25 0 2.8875
1.1875 0 2.95
1.25 0.0625 2.95
1.25 0.125 2.8875
1.1875 0.125 2.95
1.1875 0 2.8875
1.25 0.0625 2.8875
1.1875 0.0625 2.95
1.1875 0.125 2.8875
1.1875 0.0625 2.8875
1.375 0 2.8875
1.3125 0 2.95
1.375 0.0625 2.95
1.375 0.125 2.8875
1.3125 0.125 2.95
1.3125 0 2.8875
1.375 0.0625 2.8875
1.3125 0.0625 2.95
1.3125 0.125 2.8875
1.3125 0.0625 2.8875
1.5 0 2.8875
1.4375 0 2.95
1.5 0.0625 2.95
1.5 0.125 2.8875
1.4375 0.125 2.95
1.4375 0 2.8875
1.5 0.0625 2.8875
1.4375 0.0625 2.95
1.4375 0.125 2.8875
1.4375 0.0625 2.8875
1.625 0 2.8875
1.5625 0 2.95
1.625 0.0625 2.95
1.625 0.125 2.8875
1.5625 0.125 2.95
1.5625 0 2.8875
1.625 0.0625 2.8875
1.5625 0.0625 2.95
1.5625 0.125 2.8875
1.5625 0.0625 2.8875
1.75 0 2.8875
1.6875 0 2.95
1.75 0.0625 2.95
1.75 0.125 2.8875
1.6875 0.125 2.95
1.6875 0 2.8875
1.75 0.0625 2.8875
1.6875 0.0625 2.95
1.6875 0.125 2.8875
1.6875 0.0625 2.8875
1.875 0 2.8875
1.8125 0 2.95
1.875 0.0625 2.95
1.875 0.125 2.8875
1.8125 0.125 2.95
1.8125 0 2.8875
1.875 0.0625 2.8875
1.8125 0.0625 2.95
1.8125 0.125 2.8875
1.8125 0.0625 2.8875
2 0 2.8875
1.9375 0 2.95
2 0.0625 2.95
2 0.125 2.8875
1.9375 0.125 2.95
1.9375 0 2.8875
2 0.0625 2.8875
1.9375 0.0625 2.95
1.9375 0.125 2.8875
1.9375 0.0625 2.8875
2.125 0 2.8875
2.0625 0 2.95
2.125 0.0625 2.95
2.125 0.125 2.8875
2.0625 0.125 2.95
2.0625 0 2.8875
2.125 0.0625 2.8875
2.0625 0.0625 2.95
2.0625 0.125 2.8875
2.0625 0.0625 2.8875
2.25 0 2.8875
2.1875 0 2.95
2.25 0.0625 2.95
2.25 0.125 2.8875
2.1875 0.125 2.95
2.1875 0 2.8875
2.25 0.0625 2.8875
2.1875 0.0625 2.95
2.1875 0.125 2.8875
2.1875 0.0625 2.8875
2.375 0 2.8875
2.3125 0 2.95
2.375 0.0625 2.95
2.375 0.125 2.8875
2.3125 0.125 2.95
2.3125 0 2.8875
2.375 0.0625 2.8875
2.3125 0.0625 2.95
2.3125 0.125 2.8875
2.3125 0.0625 2.8875
2.5 0 2.8875
2.4375 0 2.95
2.5 0.0625 2.95
2.5 0.125 2.8875
2.4375 0.125 2.95
2.4375 0 2.8875
2.5 0.0625 2.8875
2.4375 0.0625 2.95
2.4375 0.125 2.8875
2.4375 0.0625 2.8875
2.625 0 2.8875
2.5625 0 2.95
2.625 0.0625 2.95
2.625 0.125 2.8875
2.5625 0.125 2.95
2.5625 0 2.8875
2.625 0.0625 2.8875
2.5625 0.0625 2.95
2.5625 0.125 2.8875
2.5625 0.0625 2.8875
2.75 0 2.8875
2.6875 0 2.95
2.75 0.0625 2.95
2.75 0.125 2.8875
2.6875 0.125 2.95
2.6875 0 2.8875
2.75 0.0625 2.8875
2.6875 0.0625 2.95
2.6875 0.125 2.8875
2.6875 0.0625 2.8875
2.875 0 2.8875
2.8125 0 2.95
2.875 0.0625 2.95
2.875 0.125 2.8875
2.8125 0.125 2.95
2.8125 0 2.8875
2.875 0.0625 2.8875
2.8125 0.0625 2.95
2.8125 0.125 2.8875
2.8125 0.0625 2.8875
3 0 2.8875
2.9375 0 2.95
3 0.0625 2.95
3 0.125 2.8875
2.9375 0.125 2.95
2.9375 0 2.8875
3 0.0625 2.8875
2.9375 0.0625 2.95
2.9375 0.125 2.8875
2.9375 0.0625 2.8875
0.125 0.1875 2.95
0 0.1875 2.95
0.125 0.25 2.8875
0.0625 0.25 2.95
0 0.25 2.8875
0.125 0.1875 2.8875
0.0625 0.1875 2.95
0 0.1875 2.8875
0.0625 0.25 2.8875
0.0625 0.1875 2.8875
0.25 0.1875 2.95
0.25 0.25 2.8875
0.1875 0.25 2.95
0.25 0.1875 2.8875
0.1875 0.1875 2.95
0.1875 0.25 2.8875
0.1875 0.1875 2.8875
0.375 0.1875 2.95
0.375 0.25 2.8875
0.3125 0.25 2.95
0.375 0.1875 2.8875
0.3125 0.1875 2.95
0.3125 0.25 2.8875
0.3125 0.1875 2.8875
0.5 0.1875 2.95
0.5 0.25 2.8875
0.4375 0.25 2.95
0.5 0.1875 2.8875
0.4375 0.1875 2.95
0.4375 0.25 2.8875
0.4375 0.1875 2.8875
0.625 0.1875 2.95
0.625 0.25 2.8875
0.5625 0.25 2.95
0.625 0.1875 2.8875
0.5625 0.1875 2.95
0.5625 0.25 2.8875
0.5625 0.1875 2.8875
0.75 0.1875 2.95
0.75 0.25 2.8875
0.6875 0.25 2.95
0.75 0.1875 2.8875
0.6875 0.1875 2.95
0.6875 0.25 2.8875
0.6875 0.1875 2.8875
0.875 0.1875 2.95
0.875 0.25 2.8875
0.8125 0.25 2.95
0.875 0.1875 2.8875
0.8125 0.1875 2.95
0.8125 0.25 2.8875
0.8125 0.1875 2.8875
1 0.1875 2.95
1 0.25 2.8875
0.9375 0.25 2.95
1 0.1875 2.8875
0.9375 0.1875 2.95
0.9375 0.25 2.8875
0.9375 0.1875 2.8875
1.125 0.1875 2.95
1.125 0.25 2.8875
1.0625 0.25 2.95
1.125 0.1875 2.8875
1.0625 0.1875 2.95
1.0625 0.25 2.8875
1.0625 0.1875 2.8875
1.25 0.1875 2.95
1.25 0.25 2.8875
1.1875 0.25 2.95
1.25 0.1875 2.8875
1.1875 0.1875 2.95
1.1875 0.25 2.8875
1.1875 0.1875 2.8875
1.375 0.1875 2.95
1.375 0.25 2.8875
1.3125 0.25 2.95
1.375 0.1875 2.8875
1.3125 0.1875 2.95
1.3125 0.25 2.8875
1.3125 0.1875 2.8875
1.5 0.1875 2.95
1.5 0.25 2.8875
1.4375 0.25 2.95
1.5 0.1875 2.8875
1.4375 0.1875 2.95
1.4375 0.25 2.8875
1.4375 0.1875 2.8875
1.625 0.1875 2.95
1.625 0.25 2.8875
1.5625 0.25 2.95
1.625 0.1875 2.8875
1.5625 0.1875 2.95
1.5625 0.25 2.8875
1.5625 0.1875 2.8875
1.75 0.1875 2.95
1.75 0.25 2.8875
1.6875 0.25 2.95
1.75 0.1875 2.8875
1.6875 0.1875 2.95
1.6875 0.25 2.8875
1.6875 0.1875 2.8875
1.875 0.1875 2.95
1.875 0.25 2.8875
1.8125 0.25 2.95
1.875 0.1875 2.8875
1.8125 0.1875 2.95
1.8125 0.25 2.8875
1.8125 0.1875 2.8875
2 0.1875 2.95
2 0.25 2.8875
1.9375 0.25 2.95
2 0.1875 2.8875
1.9375 0.1875 2.95
1.9375 0.25 2.8875
1.9375 0.1875 2.8875
2.125 0.1875 2.95
2.125 0.25 2.8875
2.0625 0.25 2.95
2.125 0.1875 2.8875
2.0625 0.1875 2.95
2.0625 0.25 2.8875
2.0625 0.1875 2.8875
2.25 0.1875 2.95
2.25 0.25 2.8875
2.1875 0.25 2.95
2.25 0.1875 2.8875
2.1875 0.1875 2.95
2.1875 0.25 2.8875
2.1875 0.1875 2.8875
2.375 0.1875 2.95
2.375 0.25 2.8875
2.3125 0.25 2.95
2.375 0.1875 2.8875
2.3125 0.1875 2.95
2.3125 0.25 2.8875
2.3125 0.1875 2.8875
2.5 0.1875 2.95
2.5 0.25 2.8875
2.4375 0.25 2.95
2.5 0.1875 2.8875
2.4375 0.1875 2.95
2.4375 0.25 2.8875
2.4375 0.1875 2.8875
2.625 0.1875 2.95
2.625 0.25 2.8875
2.5625 0.25 2.95
2.625 0.1875 2.8875
2.5625 0.1875 2.95
2.5625 0.25 2.8875
2.5625 0.1875 2.8875
2.75 0.1875 2.95
2.75 0.25 2.8875
2.6875 0.25 2.95
2.75 0.1875 2.8875
2.6875 0.1875 2.95
2.6875 0.25 2.8875
2.6875 0.1875 2.8875
2.875 0.1875 2.95
2.875 0.25 2.8875
2.8125 0.25 2.95
2.875 0.1875 2.8875
2.8125 0.1875 2.95
2.8125 0.25 2.8875
2.8125 0.1875 2.8875
3 0.1875 2.95
3 0.25 2.8875
2.9375 0.25 2.95
3 0.1875 2.8875
2.9375 0.1875 2.95
2.9375 0.25 2.8875
2.9375 0.1875 2.8875
0.125 0.3125 2.95
0 0.3125 2.95
0.125 0.375 2.8875
0.0625 0.375 2.95
0 0.375 2.8875
0.125 0.3125 2.8875
0.0625 0.3125 2.95
0 0.3125 2.8875
0.0625 0.375 2.8875
0.0625 0.3125 2.8875
0.25 0.3125 2.95
0.25 0.375 2.8875
0.1875 0.375 2.95
0.25 0.3125 2.8875
0.1875 0.3125 2.95
0.1875 0.375 2.8875
0.1875 0.3125 2.8875
0.375 0.3125 2.95
0.375 0.375 2.8875
0.3125 0.375 2.95
0.375 0.3125 2.8875
0.3125 0.3125 2.95
0.3125 0.375 2.8875
0.3125 0.3125 2.8875
0.5 0.3125 2.95
0.5 0.375 2.8875
0.4375 0.375 2.95
0.5 0.3125 2.8875
0.4375 0.3125 2.95
0.4375 0.375 2.8875
0.4375 0.3125 2.8875
0.625 0.3125 2.95
0.625 0.375 2.8875
0.5625 0.375 2.95
0.625 0.3125 2.8875
0.5625 0.3125 2.95
0.5625 0.375 2.8875
0.5625 0.3125 2.8875
0.75 0.3125 2.95
0.75 0.375 2.8875
0.6875 0.375 2.95
0.75 0.3125 2.8875
0.6875 0.3125 2.95
0.6875 0.375 2.8875
0.6875 0.3125 2.8875
0.875 0.3125 2.95
0.875 0.375 2.8875
0.8125 0.375 2.95
0.875 0.3125 2.8875
0.8125 0.3125 2.95
0.8125 0.375 2.8875
0.8125 0.3125 2.8875
1 0.3125 2.95
1 0.375 2.8875
0.9375 0.375 2.95
1 0.3125 2.8875
0.9375 0.3125 2.95
0.9375 0.375 2.8875
0.9375 0.3125 2.8875
1.125 0.3125 2.95
1.125 0.375 2.8875
1.0625 0.375 2.95
1.125 0.3125 2.8875
1.0625 0.3125 2.95
1.0625 0.375 2.8875
1.0625 0.3125 2.8875
1.25 0.3125 2.95
1.25 0.375 2.8875
1.1875 0.375 2.95
1.25 0.3125 2.8875
1.1875 0.3125 2.95
1.1875 0.375 2.8875
1.1875 0.3125 2.8875
1.375 0.3125 2.95
1.375 0.375 2.8875
1.3125 0.375 2.95
1.375 0.3125 2.8875
1.3125 0.3125 2.95
1.3125 0.375 2.8875
1.3125 0.3125 2.8875
1.5 0.3125 2.95
1.5 0.375 2.8875
1.4375 0.375 2.95
1.5 0.3125 2.8875
1.4375 0.3125 2.95
1.4375 0.375 2.8875
1.4375 0.3125 2.8875
1.625 0.3125 2.95
1.625 0.375 2.8875
1.5625 0.375 2.95
1.625 0.3125 2.8875
1.5625 0.3125 2.95
1.5625 0.375 2.8875
1.5625 0.3125 2.8875
1.75 0.3125 2.95
1.75 0.375 2.8875
1.6875 0.375 2.95
1.75 0.3125 2.8875
1.6875 0.3125 2.95
1.6875 0.375 2.8875
1.6875 0.3125 2.8875
1.875 0.3125 2.95
1.875 0.375 2.8875
1.8125 0.375 2.95
1.875 0.3125 2.8875
1.8125 0.3125 2.95
1.8125 0.375 2.8875
1.8125 0.3125 2.8875
2 0.3125 2.95
2 0.375 2.8875
1.9375 0.375 2.95
2 0.3125 2.8875
1.9375 0.3125 2.95
1.9375 0.375 2.8875
1.9375 0.3125 2.8875
2.125 0.3125 2.95
2.125 0.375 2.8875
2.0625 0.375 2.95
2.125 0.3125 2.8875
2.0625 0.3125 2.95
2.0625 0.375 2.8875
2.0625 0.3125 2.8875
2.25 0.3125 2.95
2.25 0.375 2.8875
2.1875 0.375 2.95
2.25 0.3125 2.8875
2.1875 0.3125 2.95
2.1875 0.375 2.8875
2.1875 0.3125 2.8875
2.375 0.3125 2.95
2.375 0.375 2.8875
2.3125 0.375 2.95
2.375 0.3125 2.8875
2.3125 0.3125 2.95
2.3125 0.375 2.8875
2.3125 0.3125 2.8875
2.5 0.3125 2.95
2.5 0.375 2.8875
2.4375 0.375 2.95
2.5 0.3125 2.8875
2.4375 0.3125 2.95
2.4375 0.375 2.8875
2.4375 0.3125 2.8875
2.625 0.3125 2.95
2.625 0.375 2.8875
2.5625 0.375 2.95
2.625 0.3125 2.8875
2.5625 0.3125 2.95
2.5625 0.375 2.8875
2.5625 0.3125 2.8875
2.75 0.3125 2.95
2.75 0.375 2.8875
2.6875 0.375 2.95
2.75 0.3125 2.8875
2.6875 0.3125 2.95
2.6875 0.375 2.8875
2.6875 0.3125 2.8875
2.875 0.3125 2.95
2.875 0.375 2.8875
2.8125 0.375 2.95
2.875 0.3125 2.8875
2.8125 0.3125 2.95
2.8125 0.375 2.8875
2.8125 0.3125 2.8875
3 0.3125 2.95
3 0.375 2.8875
2.9375 0.375 2.95
3 0.3125 2.8875
2.9375 0.3125 2.95
2.9375 0.375 2.8875
2.9375 0.3125 2.8875
0.125 0.4375 2.95
0 0.4375 2.95
0.125 0.5 2.8875
0.0625 0.5 2.95
0 0.5 2.8875
0.125 0.4375 2.8875
0.0625 0.4375 2.95
0 0.4375 2.8875
0.0625 0.5 2.8875
0.0625 0.4375 2.8875
0.25 0.4375 2.95
0.25 0.5 2.8875
0.1875 0.5 2.95
0.25 0.4375 2.8875
0.1875 0.4375 2.95
0.1875 0.5 2.8875
0.1875 0.4375 2.8875
0.375 0.4375 2.95
0.375 0.5 2.8875
0.3125 0.5 2.95
0.375 0.4375 2.8875
0.3125 0.4375 2.95
0.3125 0.5 2.8875
0.3125 0.4375 2.8875
0.5 0.4375 2.95
0.5 0.5 2.8875
0.4375 0.5 2.95
0.5 0.4375 2.8875
0.4375 0.4375 2.95
0.4375 0.5 2.8875
0.4375 0.4375 2.8875
0.625 0.4375 2.95
0.625 0.5 2.8875
0.5625 0.5 2.95
0.625 0.4375 2.8875
0.5625 0.4375 2.95
0.5625 0.5 2.8875
0.5625 0.4375 2.8875
0.75 0.4375 2.95
0.75 0.5 2.8875
0.6875 0.5 2.95
0.75 0.4375 2.8875
0.6875 0.4375 2.95
0.6875 0.5 2.8875
0.6875 0.4375 2.8875
0.875 0.4375 2.95
0.875 0.5 2.8875
0.8125 0.5 2.95
0.875 0.4375 2.8875
0.8125 0.4375 2.95
0.8125 0.5 2.8875
0.8125 0.4375 2.8875
1 0.4375 2.95
1 0.5 2.8875
0.9375 0.5 2.95
1 0.4375 2.8875
0.9375 0.4375 2.95
0.9375 0.5 2.8875
0.9375 0.4375 2.8875
1.125 0.4375 2.95
1.125 0.5 2.8875
1.0625 0.5 2.95
1.125 0.4375 2.8875
1.0625 0.4375 2.95
1.0625 0.5 2.8875
1.0625 0.4375 2.8875
1.25 0.4375 2.95
1.25 0.5 2.8875
1.1875 0.5 2.95
1.25 0.4375 2.8875
1.1875 0.4375 2.95
1.1875 0.5 2.8875
1.1875 0.4375 2.8875
1.375 0.4375 2.95
1.375 0.5 2.8875
1.3125 0.5 2.95
1.375 0.4375 2.8875
1.3125 0.4375 2.95
1.3125 0.5 2.8875
1.3125 0.4375 2.8875
1.5 0.4375 2.95
1.5 0.5 2.8875
1.4375 0.5 2.95
1.5 0.4375 2.8875
1.4375 0.4375 2.95
1.4375 0.5 2.8875
1.4375 0.4375 2.8875
1.625 0.4375 2.95
1.625 0.5 2.8875
1.5625 0.5 2.95
1.625 0.4375 2.8875
1.5625 0.4375 2.95
1.5625 0.5 2.8875
1.5625 0.4375 2.8875
1.75 0.4375 2.95
1.75 0.5 2.8875
1.6875 0.5 2.95
1.75 0.4375 2.8875
1.6875 0.4375 2.95
1.6875 0.5 2.8875
1.6875 0.4375 2.8875
1.875 0.4375 2.95
1.875 0.5 2.8875
1.8125 0.5 2.95
1.875 0.4375 2.8875
1.8125 0.4375 2.95
1.8125 0.5 2.8875
1.8125 0.4375 2.8875
2 0.4375 2.95
2 0.5 2.8875
1.9375 0.5 2.95
2 0.4375 2.8875
1.9375 0.4375 2.95
1.9375 0.5 2.8875
1.9375 0.4375 2.8875
2.125 0.4375 2.95
2.125 0.5 2.8875
2.0625 0.5 2.95
2.125 0.4375 2.8875
2.0625 0.4375 2.95
2.0625 0.5 2.8875
2.0625 0.4375 2.8875
2.25 0.4375 2.95
2.25 0.5 2.8875
2.1875 0.5 2.95
2.25 0.4375 2.8875
2.1875 0.4375 2.95
2.1875 0.5 2.8875
2.1875 0.4375 2.8875
2.375 0.4375 2.95
2.375 0.5 2.8875
2.3125 0.5 2.95
2.375 0.4375 2.8875
2.3125 0.4375 2.95
2.3125 0.5 2.8875
2.3125 0.4375 2.8875
2.5 0.4375 2.95
2.5 0.5 2.8875
2.4375 0.5 2.95
2.5 0.4375 2.8875
2.4375 0.4375 2.95
2.4375 0.5 2.8875
2.4375 0.4375 2.8875
2.625 0.4375 2.95
2.625 0.5 2.8875
2.5625 0.5 2.95
2.625 0.4375 2.8875
2.5625 0.4375 2.95
2.5625 0.5 2.8875
2.5625 0.4375 2.8875
2.75 0.4375 2.95
2.75 0.5 2.8875
2.6875 0.5 2.95
2.75 0.4375 2.8875
2.6875 0.4375 2.95
2.6875 0.5 2.8875
2.6875 0.4375 2.8875
2.875 0.4375 2.95
2.875 0.5 2.8875
2.8125 0.5 2.95
2.875 0.4375 2.8875
2.8125 0.4375 2.95
2.8125 0.5 2.8875
2.8125 0.4375 2.8875
3 0.4375 2.95
3 0.5 2.8875
2.9375 0.5 2.95
3 0.4375 2.8875
2.9375 0.4375 2.95
2.9375 0.5 2.8875
2.9375 0.4375 2.8875
0.125 0.5625 2.95
0 0.5625 2.95
0.125 0.625 2.8875
0.0625 0.625 2.95
0 0.625 2.8875
0.125 0.5625 2.8875
0.0625 0.5625 2.95
0 0.5625 2.8875
0.0625 0.625 2.8875
0.0625 0.5625 2.8875
0.25 0.5625 2.95
0.25 0.625 2.8875
0.1875 0.625 2.95
0.25 0.5625 2.8875
0.1875 0.5625 2.95
0.1875 0.625 2.8875
0.1875 0.5625 2.8875
0.375 0.5625 2.95
0.375 0.625 2.8875
0.3125 0.625 2.95
0.375 0.5625 2.8875
0.3125 0.5625 2.95
0.3125 0.625 2.8875
0.3125 0.5625 2.8875
0.5 0.5625 2.95
0.5 0.625 2.8875
0.4375 0.625 2.95
0.5 0.5625 2.8875
0.4375 0.5625 2.95
0.4375 0.625 2.8875
0.4375 0.5625 2.8875
0.625 0.5625 2.95
0.625 0.625 2.8875
0.5625 0.625 2.95
0.625 0.5625 2.8875
0.5625 0.5625 2.95
0.5625 0.625 2.8875
0.5625 0.5625 2.8875
0.75 0.5625 2.95
0.75 0.625 2.8875
0.6875 0.625 2.95
0.75 0.5625 2.8875
0.6875 0.5625 2.95
0.6875 0.625 2.8875
0.6875 0.5625 2.8875
0.875 0.5625 2.95
0.875 0.625 2.8875
0.8125 0.625 2.95
0.875 0.5625 2.8875
0.8125 0.5625 2.95
0.8125 0.625 2.8875
0.8125 0.5625 2.8875
1 0.5625 2.95
1 0.625 2.8875
0.9375 0.625 2.95
1 0.5625 2.8875
0.9375 0.5625 2.95
0.9375 0.625 2.8875
0.9375 0.5625 2.8875
1.125 0.5625 2.95
1.125 0.625 2.8875
1.0625 0.625 2.95
1.125 0.5625 2.8875
1.0625 0.5625 2.95
1.0625 0.625 2.8875
1.0625 0.5625 2.8875
1.25 0.5625 2.95
1.25 0.625 2.8875
1.1875 0.625 2.95
1.25 0.5625 2.8875
1.1875 0.5625 2.95
1.1875 0.625 2.8875
1.1875 0.5625 2.8875
1.375 0.5625 2.95
1.375 0.625 2.8875
1.3125 0.625 2.95
1.375 0.5625 2.8875
1.3125 0.5625 2.95
1.3125 0.625 2.8875
1.3125 0.5625 2.8875
1.5 0.5625 2.95
1.5 0.625 2.8875
1.4375 0.625 2.95
1.5 0.5625 2.8875
1.4375 0.5625 2.95
1.4375 0.625 2.8875
1.4375 0.5625 2.8875
1.625 0.5625 2.95
1.625 0.625 2.8875
1.5625 0.625 2.95
1.625 0.5625 2.8875
1.5625 0.5625 2.95
1.5625 0.625 2.8875
1.5625 0.5625 2.8875
1.75 0.5625 2.95
1.75 0.625 2.8875
1.6875 0.625 2.95
1.75 0.5625 2.8875
1.6875 0.5625 2.95
1.6875 0.625 2.8875
1.6875 0.5625 2.8875
1.875 0.5625 2.95
1.875 0.625 2.8875
1.8125 0.625 2.95
1.875 0.5625 2.8875
1.8125 0.5625 2.95
1.8125 0.625 2.8875
1.8125 0.5625 2.8875
2 0.5625 2.95
2 0.625 2.8875
1.9375 0.625 2.95
2 0.5625 2.8875
1.9375 0.5625 2.95
1.9375 0.625 2.8875
1.9375 0.5625 2.8875
2.125 0.5625 2.95
2.125 0.625 2.8875
2.0625 0.625 2.95
2.125 0.5625 2.8875
2.0625 0.5625 2.95
2.0625 0.625 2.8875
2.0625 0.5625 2.8875
2.25 0.5625 2.95
2.25 0.625 2.8875
2.1875 0.625 2.95
2.25 0.5625 2.8875
2.1875 0.5625 2.95
2.1875 0.625 2.8875
2.1875 0.5625 2.8875
2.375 0.5625 2.95
2.375 0.625 2.8875
2.3125 0.625 2.95
2.375 0.5625 2.8875
2.3125 0.5625 2.95
2.3125 0.625 2.8875
2.3125 0.5625 2.8875
2.5 0.5625 2.95
2.5 0.625 2.8875
2.4375 0.625 2.95
2.5 0.5625 2.8875
2.4375 0.5625 2.95
2.4375 0.625 2.8875
2.4375 0.5625 2.8875
2.625 0.5625 2.95
2.625 0.625 2.8875
2.5625 0.625 2.95
2.625 0.5625 2.8875
2.5625 0.5625 2.95
2.5625 0.625 2.8875
2.5625 0.5625 2.8875
2.75 0.5625 2.95
2.75 0.625 2.8875
2.6875 0.625 2.95
2.75 0.5625 2.8875
2.6875 0.5625 2.95
2.6875 0.625 2.8875
2.6875 0.5625 2.8875
2.875 0.5625 2.95
2.875 0.625 2.8875
2.8125 0.625 2.95
2.875 0.5625 2.8875
2.8125 0.5625 2.95
2.8125 0.625 2.8875
2.8125 0.5625 2.8875
3 0.5625 2.95
3 0.625 2.8875
2.9375 0.625 2.95
3 0.5625 2.8875
2.9375 0.5625 2.95
2.9375 0.625 2.8875
2.9375 0.5625 2.8875
0.125 0.6875 2.95
0 0.6875 2.95
0.125 0.75 2.8875
0.0625 0.75 2.95
0 0.75 2.8875
0.125 0.6875 2.8875
0.0625 0.6875 2.95
0 0.6875 2.8875
0.0625 0.75 2.8875
0.0625 0.6875 2.8875
0.25 0.6875 2.95
0.25 0.75 2.8875
0.1875 0.75 2.95
0.25 0.6875 2.8875
0.1875 0.6875 2.95
0.1875 0.75 2.8875
0.1875 0.6875 2.8875
0.375 0.6875 2.95
0.375 0.75 2.8875
0.3125 0.75 2.95
0.375 0.6875 2.8875
0.3125 0.6875 2.95
0.3125 0.75 2.8875
0.3125 0.6875 2.8875
0.5 0.6875 2.95
0.5 0.75 2.8875
0.4375 0.75 2.95
0.5 0.6875 2.8875
0.4375 0.6875 2.95
0.4375 0.75 2.8875
0.4375 0.6875 2.8875
0.625 0.6875 2.95
0.625 0.75 2.8875
0.5625 0.75 2.95
0.625 0.6875 2.8875
0.5625 0.6875 2.95
0.5625 0.75 2.8875
0.5625 0.6875 2.8875
0.75 0.6875 2.95
0.75 0.75 2.8875
0.6875 0.75 2.95
0.75 0.6875 2.8875
0.6875 0.6875 2.95
0.6875 0.75 2.8875
0.6875 0.6875 2.8875
0.875 0.6875 2.95
0.875 0.75 2.8875
0.8125 0.75 2.95
0.875 0.6875 2.8875
0.8125 0.6875 2.95
0.8125 0.75 2.8875
0.8125 0.6875 2.8875
1 0.6875 2.95
1 0.75 2.8875
0.9375 0.75 2.95
1 0.6875 2.8875
0.9375 0.6875 2.95
0.9375 0.75 2.8875
0.9375 0.6875 2.8875
1.125 0.6875 2.95
1.125 0.75 2.8875
1.0625 0.75 2.95
1.125 0.6875 2.8875
1.0625 0.6875 2.95
1.0625 0.75 2.8875
1.0625 0.6875 2.8875
1.25 0.6875 2.95
1.25 0.75 2.8875
1.1875 0.75 2.95
1.25 0.6875 2.8875
1.1875 0.6875 2.95
1.1875 0.75 2.8875
1.1875 0.6875 2.8875
1.375 0.6875 2.95
1.375 0.75 2.8875
1.3125 0.75 2.95
1.375 0.6875 2.8875
1.3125 0.6875 2.95
1.3125 0.75 2.8875
1.3125 0.6875 2.8875
1.5 0.6875 2.95
1.5 0.75 2.8875
1.4375 0.75 2.95
1.5 0.6875 2.8875
1.4375 0.6875 2.95
1.4375 0.75 2.8875
1.4375 0.6875 2.8875
1.625 0.6875 2.95
1.625 0.75 2.8875
1.5625 0.75 2.95
1.625 0.6875 2.8875
1.5625 0.6875 2.95
1.5625 0.75 2.8875
1.5625 0.6875 2.8875
1.75 0.6875 2.95
1.75 0.75 2.8875
1.6875 0.75 2.95
1.75 0.6875 2.8875
1.6875 0.6875 2.95
1.6875 0.75 2.8875
1.6875 0.6875 2.8875
1.875 0.6875 2.95
1.875 0.75 2.8875
1.8125 0.75 2.95
1.875 0.6875 2.8875
1.8125 0.6875 2.95
1.8125 0.75 2.8875
1.8125 0.6875 2.8875
2 0.6875 2.95
2 0.75 2.8875
1.9375 0.75 2.95
2 0.6875 2.8875
1.9375 0.6875 2.95
1.9375 0.75 2.8875
1.9375 0.6875 2.8875
2.125 0.6875 2.95
2.125 0.75 2.8875
2.0625 0.75 2.95
2.125 0.6875 2.8875
2.0625 0.6875 2.95
2.0625 0.75 2.8875
2.0625 0.6875 2.8875
2.25 0.6875 2.95
2.25 0.75 2.8875
2.1875 0.75 2.95
2.25 0.6875 2.8875
2.1875 0.6875 2.95
2.1875 0.75 2.8875
2.1875 0.6875 2.8875
2.375 0.6875 2.95
2.375 0.75 2.8875
2.3125 0.75 2.95
2.375 0.6875 2.8875
2.3125 0.6875 2.95
2.3125 0.75 2.8875
2.3125 0.6875 2.8875
2.5 0.6875 2.95
2.5 0.75 2.8875
2.4375 0.75 2.95
2.5 0.6875 2.8875
2.4375 0.6875 2.95
2.4375 0.75 2.8875
2.4375 0.6875 2.8875
2.625 0.6875 2.95
2.625 0.75 2.8875
2.5625 0.75 2.95
2.625 0.6875 2.8875
2.5625 0.6875 2.95
2.5625 0.75 2.8875
2.5625 0.6875 2.8875
2.75 0.6875 2.95
2.75 0.75 2.8875
2.6875 0.75 2.95
2.75 0.6875 2.8875
2.6875 0.6875 2.95
2.6875 0.75 2.8875
2.6875 0.6875 2.8875
2.875 0.6875 2.95
2.875 0.75 2.8875
2.8125 0.75 2.95
2.875 0.6875 2.8875
2.8125 0.6875 2.95
2.8125 0.75 2.8875
2.8125 0.6875 2.8875
3 0.6875 2.95
3 0.75 2.8875
2.9375 0.75 2.95
3 0.6875 2.8875
2.9375 0.6875 2.95
2.9375 0.75 2.8875
2.9375 0.6875 2.8875
0.125 0.8125 2.95
0 0.8125 2.95
0.125 0.875 2.8875
0.0625 0.875 2.95
0 0.875 2.8875
0.125 0.8125 2.8875
0.0625 0.8125 2.95
0 0.8125 2.8875
0.0625 0.875 2.8875
0.0625 0.8125 2.8875
0.25 0.8125 2.95
0.25 0.875 2.8875
0.1875 0.875 2.95
0.25 0.8125 2.8875
0.1875 0.8125 2.95
0.1875 0.875 2.8875
0.1875 0.8125 2.8875
0.375 0.8125 2.95
0.375 0.875 2.8875
0.3125 0.875 2.95
0.375 0.8125 2.8875
0.3125 0.8125 2.95
0.3125 0.875 2.8875
0.3125 0.8125 2.8875
0.5 0.8125 2.95
0.5 0.875 2.8875
0.4375 0.875 2.95
0.5 0.8125 2.8875
0.4375 0.8125 2.95
0.4375 0.875 2.8875
0.4375 0.8125 2.8875
0.625 0.8125 2.95
0.625 0.875 2.8875
0.5625 0.875 2.95
0.625 0.8125 2.8875
0.5625 0.8125 2.95
0.5625 0.875 2.8875
0.5625 0.8125 2.8875
0.75 0.8125 2.95
0.75 0.875 2.8875
0.6875 0.875 2.95
0.75 0.8125 2.8875
0.6875 0.8125 2.95
0.6875 0.875 2.8875
0.6875 0.8125 2.8875
0.875 0.8125 2.95
0.875 0.875 2.8875
0.8125 0.875 2.95
0.875 0.8125 2.8875
0.8125 0.8125 2.95
0.8125 0.875 2.8875
0.8125 0.8125 2.8875
1 0.8125 2.95
1 0.875 2.8875
0.9375 0.875 2.95
1 0.8125 2.8875
0.9375 0.8125 2.95
0.9375 0.875 2.8875
0.9375 0.8125 2.8875
1.125 0.8125 2.95
1.125 0.875 2.8875
1.0625 0.875 2.95
1.125 0.8125 2.8875
1.0625 0.8125 2.95
1.0625 0.875 2.8875
1.0625 0.8125 2.8875
1.25 0.8125 2.95
1.25 0.875 2.8875
1.1875 0.875 2.95
1.25 0.8125 2.8875
1.1875 0.8125 2.95
1.1875 0.875 2.8875
1.1875 0.8125 2.8875
1.375 0.8125 2.95
1.375 0.875 2.8875
1.3125 0.875 2.95
1.375 0.8125 2.8875
1.3125 0.8125 2.95
1.3125 0.875 2.8875
1.3125 0.8125 2.8875
1.5 0.8125 2.95
1.5 0.875 2.8875
1.4375 0.875 2.95
1.5 0.8125 2.8875
1.4375 0.8125 2.95
1.4375 0.875 2.8875
1.4375 0.8125 2.8875
1.625 0.8125 2.95
1.625 0.875 2.8875
1.5625 0.875 2.95
1.625 0.8125 2.8875
1.5625 0.8125 2.95
1.5625 0.875 2.8875
1.5625 0.8125 2.8875
1.75 0.8125 2.95
1.75 0.875 2.8875
1.6875 0.875 2.95
1.75 0.8125 2.8875
1.6875 0.8125 2.95
1.6875 0.875 2.8875
1.6875 0.8125 2.8875
1.875 0.8125 2.95
1.875 0.875 2.8875
1.8125 0.875 2.95
1.875 0.8125 2.8875
1.8125 0.8125 2.95
1.8125 0.875 2.8875
1.8125 0.8125 2.8875
2 0.8125 2.95
2 0.875 2.8875
1.9375 0.875 2.95
2 0.8125 2.8875
1.9375 0.8125 2.95
1.9375 0.875 2.8875
1.9375 0.8125 2.8875
2.125 0.8125 2.95
2.125 0.875 2.8875
2.0625 0.875 2.95
2.125 0.8125 2.8875
2.0625 0.8125 2.95
2.0625 0.875 2.8875
2.0625 0.8125 2.8875
2.25 0.8125 2.95
2.25 0.875 2.8875
2.1875 0.875 2.95
2.25 0.8125 2.8875
2.1875 0.8125 2.95
2.1875 0.875 2.8875
2.1875 0.8125 2.8875
2.375 0.8125 2.95
2.375 0.875 2.8875
2.3125 0.875 2.95
2.375 0.8125 2.8875
2.3125 0.8125 2.95
2.3125 0.875 2.8875
2.3125 0.8125 2.8875
2.5 0.8125 2.95
2.5 0.875 2.8875
2.4375 0.875 2.95
2.5 0.8125 2.8875
2.4375 0.8125 2.95
2.4375 0.875 2.8875
2.4375 0.8125 2.8875
2.625 0.8125 2.95
2.625 0.875 2.8875
2.5625 0.875 2.95
2.625 0.8125 2.8875
2.5625 0.8125 2.95
2.5625 0.875 2.8875
2.5625 0.8125 2.8875
2.75 0.8125 2.95
2.75 0.875 2.8875
2.6875 0.875 2.95
2.75 0.8125 2.8875
2.6875 0.8125 2.95
2.6875 0.875 2.8875
2.6875 0.8125 2.8875
2.875 0.8125 2.95
2.875 0.875 2.8875
2.8125 0.875 2.95
2.875 0.8125 2.8875
2.8125 0.8125 2.95
2.8125 0.875 2.8875
2.8125 0.8125 2.8875
3 0.8125 2.95
3 0.875 2.8875
2.9375 0.875 2.95
3 0.8125 2.8875
2.9375 0.8125 2.95
2.9375 0.875 2.8875
2.9375 0.8125 2.8875
0.125 0.9375 2.95
0 0.9375 2.95
0.125 1 2.8875
0.0625 1 2.95
0 1 2.8875
0.125 0.9375 2.8875
0.0625 0.9375 2.95
0 0.9375 2.8875
0.0625 1 2.8875
0.0625 0.9375 2.8875
0.25 0.9375 2.95
0.25 1 2.8875
0.1875 1 2.95
0.25 0.9375 2.8875
0.1875 0.9375 2.95
0.1875 1 2.8875
0.1875 0.9375 2.8875
0.375 0.9375 2.95
0.375 1 2.8875
0.3125 1 2.95
0.375 0.9375 2.8875
0.3125 0.9375 2.95
0.3125 1 2.8875
0.3125 0.9375 2.8875
0.5 0.9375 2.95
0.5 1 2.8875
0.4375 1 2.95
0.5 0.9375 2.8875
0.4375 0.9375 2.95
0.4375 1 2.8875
0.4375 0.9375 2.8875
0.625 0.9375 2.95
0.625 1 2.8875
0.5625 1 2.95
0.625 0.9375 2.8875
0.5625 0.9375 2.95
0.5625 1 2.8875
0.5625 0.9375 2.8875
0.75 0.9375 2.95
0.75 1 2.8875
0.6875 1 2.95
0.75 0.9375 2.8875
0.6875 0.9375 2.95
0.6875 1 2.8875
0.6875 0.9375 2.8875
0.875 0.9375 2.95
0.875 1 2.8875
0.8125 1 2.95
0.875 0.9375 2.8875
0.8125 0.9375 2.95
0.8125 1 2.8875
0.8125 0.9375 2.8875
1 0.9375 2.95
1 1 2.8875
0.9375 1 2.95
1 0.9375 2.8875
0.9375 0.9375 2.95
0.9375 1 2.8875
0.9375 0.9375 2.8875
1.125 0.9375 2.95
1.125 1 2.8875
1.0625 1 2.95
1.125 0.9375 2.8875
1.0625 0.9375 2.95
1.0625 1 2.8875
1.0625 0.9375 2.8875
1.25 0.9375 2.95
1.25 1 2.8875
1.1875 1 2.95
1.25 0.9375 2.8875
1.1875 0.9375 2.95
1.1875 1 2.8875
1.1875 0.9375 2.8875
1.375 0.9375 2.95
1.375 1 2.8875
1.3125 1 2.95
1.375 0.9375 2.8875
1.3125 0.9375 2.95
1.3125 1 2.8875
1.3125 0.9375 2.8875
1.5 0.9375 2.95
1.5 1 2.8875
1.4375 1 2.95
1.5 0.9375 2.8875
1.4375 0.9375 2.95
1.4375 1 2.8875
1.4375 0.9375 2.8875
1.625 0.9375 2.95
1.625 1 2.8875
1.5625 1 2.95
1.625 0.9375 2.8875
1.5625 0.9375 2.95
1.5625 1 2.8875
1.5625 0.9375 2.8875
1.75 0.9375 2.95
1.75 1 2.8875
1.6875 1 2.95
1.75 0.9375 2.8875
1.6875 0.9375 2.95
1.6875 1 2.8875
1.6875 0.9375 2.8875
1.875 0.9375 2.95
1.875 1 2.8875
1.8125 1 2.95
1.875 0.9375 2.8875
1.8125 0.9375 2.95
1.8125 1 2.8875
1.8125 0.9375 2.8875
2 0.9375 2.95
2 1 2.8875
1.9375 1 2.95
2 0.9375 2.8875
1.9375 0.9375 2.95
1.9375 1 2.8875
1.9375 0.9375 2.8875
2.125 0.9375 2.95
2.125 1 2.8875
2.0625 1 2.95
2.125 0.9375 2.8875
2.0625 0.9375 2.95
2.0625 1 2.8875
2.0625 0.9375 2.8875
2.25 0.9375 2.95
2.25 1 2.8875
2.1875 1 2.95
2.25 0.9375 2.8875
2.1875 0.9375 2.95
2.1875 1 2.8875
2.1875 0.9375 2.8875
2.375 0.9375 2.95
2.375 1 2.8875
2.3125 1 2.95
2.375 0.9375 2.8875
2.3125 0.9375 2.95
2.3125 1 2.8875
2.3125 0.9375 2.8875
2.5 0.9375 2.95
2.5 1 2.8875
2.4375 1 2.95
2.5 0.9375 2.8875
2.4375 0.9375 2.95
2.4375 1 2.8875
2.4375 0.9375 2.8875
2.625 0.9375 2.95
2.625 1 2.8875
2.5625 1 2.95
2.625 0.9375 2.8875
2.5625 0.9375 2.95
2.5625 1 2.8875
2.5625 0.9375 2.8875
2.75 0.9375 2.95
2.75 1 2.8875
2.6875 1 2.95
2.75 0.9375 2.8875
2.6875 0.9375 2.95
2.6875 1 2.8875
2.6875 0.9375 2.8875
2.875 0.9375 2.95
2.875 1 2.8875
2.8125 1 2.95
2.875 0.9375 2.8875
2.8125 0.9375 2.95
2.8125 1 2.8875
2.8125 0.9375 2.8875
3 0.9375 2.95
3 1 2.8875
2.9375 1 2.95
3 0.9375 2.8875
2.9375 0.9375 2.95
2.9375 1 2.8875
2.9375 0.9375 2.8875
0.125 0 3.0125
0.0625 0 3.075
0 0 3.0125
0.125 0.0625 3.075
0 0.0625 3.075
0.125 0.125 3.0125
0.0625 0.125 3.075
0 0.125 3.0125
0.0625 0 3.0125
0.125 0.0625 3.0125
0.0625 0.0625 3.075
0 0.0625 3.0125
0.0625 0.125 3.0125
0.0625 0.0625 3.0125
0.25 0 3.0125
0.1875 0 3.075
0.25 0.0625 3.075
0.25 0.125 3.0125
0.1875 0.125 3.075
0.1875 0 3.0125
0.25 0.0625 3.0125
0.1875 0.0625 3.075
0.1875 0.125 3.0125
0.1875 0.0625 3.0125
0.375 0 3.0125
0.3125 0 3.075
0.375 0.0625 3.075
0.375 0.125 3.0125
0.3125 0.125 3.075
0.3125 0 3.0125
0.375 0.0625 3.0125
0.3125 0.0625 3.075
0.3125 0.125 3.0125
0.3125 0.0625 3.0125
0.5 0 3.0125
0.4375 0 3.075
0.5 0.0625 3.075
0.5 0.125 3.0125
0.4375 0.125 3.075
0.4375 0 3.0125
0.5 0.0625 3.0125
0.4375 0.0625 3.075
0.4375 0.125 3.0125
0.4375 0.0625 3.0125
0.625 0 3.0125
0.5625 0 3.075
0.625 0.0625 3.075
0.625 0.125 3.0125
0.5625 0.125 3.075
0.5625 0 3.0125
0.625 0.0625 3.0125
0.5625 0.0625 3.075
0.5625 0.125 3.0125
0.5625 0.0625 3.0125
0.75 0 3.0125
0.6875 0 3.075
0.75 0.0625 3.075
0.75 0.125 3.0125
0.6875 0.125 3.075
0.6875 0 3.0125
0.75 0.0625 3.0125
0.6875 0.0625 3.075
0.6875 0.125 3.0125
0.6875 0.0625 3.0125
0.875 0 3.0125
0.8125 0 3.075
0.875 0.0625 3.075
0.875 0.125 3.0125
0.8125 0.125 3.075
0.8125 0 3.0125
0.875 0.0625 3.0125
0.8125 0.0625 3.075
0.8125 0.125 3.0125
0.8125 0.0625 3.0125
1 0 3.0125
0.9375 0 3.075
1 0.0625 3.075
1 0.125 3.0125
0.9375 0.125 3.075
0.9375 0 3.0125
1 0.0625 3.0125
0.9375 0.0625 3.075
0.9375 0.125 3.0125
0.9375 0.0625 3.0125
1.125 0 3.0125
1.0625 0 3.075
1.125 0.0625 3.075
1.125 0.125 3.0125
1.0625 0.125 3.075
1.0625 0 3.0125
1.125 0.0625 3.0125
1.0625 0.0625 3.075
1.0625 0.125 3.0125
1.0625 0.0625 3.0125
1.25 0 3.0125
1.1875 0 3.075
1.25 0.0625 3.075
1.25 0.125 3.0125
1.1875 0.125 3.075
1.1875 0 3.0125
1.25 0.0625 3.0125
1.1875 0.0625 3.075
1.1875 0.125 3.0125
1.1875 0.0625 3.0125
1.375 0 3.0125
1.3125 0 3.075
1.375 0.0625 3.075
1.375 0.125 3.0125
1.3125 0.125 3.075
1.3125 0 3.0125
1.375 0.0625 3.0125
1.3125 0.0625 3.075
1.3125 0.125 3.0125
1.3125 0.0625 3.0125
1.5 0 3.0125
1.4375 0 3.075
1.5 0.0625 3.075
1.5 0.125 3.0125
1.4375 0.125 3.075
1.4375 0 3.0125
1.5 0.0625 3.0125
1.4375 0.0625 3.075
1.4375 0.125 3.0125
1.4375 0.0625 3.0125
1.625 0 3.0125
1.5625 0 3.075
1.625 0.0625 3.075
1.625 0.125 3.0125
1.5625 0.125 3.075
1.5625 0 3.0125
1.625 0.0625 3.0125
1.5625 0.0625 3.075
1.5625 0.125 3.0125
1.5625 0.0625 3.0125
1.75 0 3.0125
1.6875 0 3.075
1.75 0.0625 3.075
1.75 0.125 3.0125
1.6875 0.125 3.075
1.6875 0 3.0125
1.75 0.0625 3.0125
1.6875 0.0625 3.075
1.6875 0.125 3.0125
1.6875 0.0625 3.0125
1.875 0 3.0125
1.8125 0 3.075
1.875 0.0625 3.075
1.875 0.125 3.0125
1.8125 0.125 3.075
1.8125 0 3.0125
1.875 0.0625 3.0125
1.8125 0.0625 3.075
1.8125 0.125 3.0125
1.8125 0.0625 3.0125
2 0 3.0125
1.9375 0 3.075
2 0.0625 3.075
2 0.125 3.0125
1.9375 0.125 3.075
1.9375 0 3.0125
2 0.0625 3.0125
1.9375 0.0625 3.075
1.9375 0.125 3.0125
1.9375 0.0625 3.0125
2.125 0 3.0125
2.0625 0 3.075
2.125 0.0625 3.075
2.125 0.125 3.0125
2.0625 0.125 3.075
2.0625 0 3.0125
2.125 0.0625 3.0125
2.0625 0.0625 3.075
2.0625 0.125 3.0125
2.0625 0.0625 3.0125
2.25 0 3.0125
2.1875 0 3.075
2.25 0.0625 3.075
2.25 0.125 3.0125
2.1875 0.125 3.075
2.1875 0 3.0125
2.25 0.0625 3.0125
2.1875 0.0625 3.075
2.1875 0.125 3.0125
2.1875 0.0625 3.0125
2.375 0 3.0125
2.3125 0 3.075
2.375 0.0625 3.075
2.375 0.125 3.0125
2.3125 0.125 3.075
2.3125 0 3.0125
2.375 0.0625 3.0125
2.3125 0.0625 3.075
2.3125 0.125 3.0125
2.3125 0.0625 3.0125
2.5 0 3.0125
2.4375 0 3.075
2.5 0.0625 3.075
2.5 0.125 3.0125
2.4375 0.125 3.075
2.4375 0 3.0125
2.5 0.0625 3.0125
2.4375 0.0625 3.075
2.4375 0.125 3.0125
2.4375 0.0625 3.0125
2.625 0 3.0125
2.5625 0 3.075
2.625 0.0625 3.075
2.625 0.125 3.0125
2.5625 0.125 3.075
2.5625 0 3.0125
2.625 0.0625 3.0125
2.5625 0.0625 3.075
2.5625 0.125 3.0125
2.5625 0.0625 3.0125
2.75 0 3.0125
2.6875 0 3.075
2.75 0.0625 3.075
2.75 0.125 3.0125
2.6875 0.125 3.075
2.6875 0 3.0125
2.75 0.0625 3.0125
2.6875 0.0625 3.075
2.6875 0.125 3.0125
2.6875 0.0625 3.0125
2.875 0 3.0125
2.8125 0 3.075
2.875 0.0625 3.075
2.875 0.125 3.0125
2.8125 0.125 3.075
2.8125 0 3.0125
2.875 0.0625 3.0125
2.8125 0.0625 3.075
2.8125 0.125 3.0125
2.8125 0.0625 3.0125
3 0 3.0125
2.9375 0 3.075
3 0.0625 3.075
3 0.125 3.0125
2.9375 0.125 3.075
2.9375 0 3.0125
3 0.0625 3.0125
2.9375 0.0625 3.075
2.9375 0.125 3.0125
2.9375 0.0625 3.0125
0.125 0.1875 3.075
0 0.1875 3.075
0.125 0.25 3.0125
0.0625 0.25 3.075
0 0.25 3.0125
0.125 0.1875 3.0125
0.0625 0.1875 3.075
0 0.1875 3.0125
0.0625 0.25 3.0125
0.0625 0.1875 3.0125
0.25 0.1875 3.075
0.25 0.25 3.0125
0.1875 0.25 3.075
0.25 0.1875 3.0125
0.1875 0.1875 3.075
0.1875 0.25 3.0125
0.1875 0.1875 3.0125
0.375 0.1875 3.075
0.375 0.25 3.0125
0.3125 0.25 3.075
0.375 0.1875 3.0125
0.3125 0.1875 3.075
0.3125 0.25 3.0125
0.3125 0.1875 3.0125
0.5 0.1875 3.075
0.5 0.25 3.0125
0.4375 0.25 3.075
0.5 0.1875 3.0125
0.4375 0.1875 3.075
0.4375 0.25 3.0125
0.4375 0.1875 3.0125
0.625 0.1875 3.075
0.625 0.25 3.0125
0.5625 0.25 3.075
0.625 0.1875 3.0125
0.5625 0.1875 3.075
0.5625 0.25 3.0125
0.5625 0.1875 3.0125
0.75 0.1875 3.075
0.75 0.25 3.0125
0.6875 0.25 3.075
0.75 0.1875 3.0125
0.6875 0.1875 3.075
0.6875 0.25 3.0125
0.6875 0.1875 3.0125
0.875 0.1875 3.075
0.875 0.25 3.0125
0.8125 0.25 3.075
0.875 0.1875 3.0125
0.8125 0.1875 3.075
0.8125 0.25 3.0125
0.8125 0.1875 3.0125
1 0.1875 3.075
1 0.25 3.0125
0.9375 0.25 3.075
1 0.1875 3.0125
0.9375 0.1875 3.075
0.9375 0.25 3.0125
0.9375 0.1875 3.0125
1.125 0.1875 3.075
1.125 0.25 3.0125
1.0625 0.25 3.075
1.125 0.1875 3.0125
1.0625 0.1875 3.075
1.0625 0.25 3.0125
1.0625 0.1875 3.0125
1.25 0.1875 3.075
1.25 0.25 3.0125
1.1875 0.25 3.075
1.25 0.1875 3.0125
1.1875 0.1875 3.075
1.1875 0.25 3.0125
1.1875 0.1875 3.0125
1.375 0.1875 3.075
1.375 0.25 3.0125
1.3125 0.25 3.075
1.375 0.1875 3.0125
1.3125 0.1875 3.075
1.3125 0.25 3.0125
1.3125 0.1875 3.0125
1.5 0.1875 3.075
1.5 0.25 3.0125
1.4375 0.25 3.075
1.5 0.1875 3.0125
1.4375 0.1875 3.075
1.4375 0.25 3.0125
1.4375 0.1875 3.0125
1.625 0.1875 3.075
1.625 0.25 3.0125
1.5625 0.25 3.075
1.625 0.1875 3.0125
1.5625 0.1875 3.075
1.5625 0.25 3.0125
1.5625 0.1875 3.0125
1.75 0.1875 3.075
1.75 0.25 3.0125
1.6875 0.25 3.075
1.75 0.1875 3.0125
1.6875 0.1875 3.075
1.6875 0.25 3.0125
1.6875 0.1875 3.0125
1.875 0.1875 3.075
1.875 0.25 3.0125
1.8125 0.25 3.075
1.875 0.1875 3.0125
1.8125 0.1875 3.075
1.8125 0.25 3.0125
1.8125 0.1875 3.0125
2 0.1875 3.075
2 0.25 3.0125
1.9375 0.25 3.075
2 0.1875 3.0125
1.9375 0.1875 3.075
1.9375 0.25 3.0125
1.9375 0.1875 3.0125
2.125 0.1875 3.075
2.125 0.25 3.0125
2.0625 0.25 3.075
2.125 0.1875 3.0125
2.0625 0.1875 3.075
2.0625 0.25 3.0125
2.0625 0.1875 3.0125
2.25 0.1875 3.075
2.25 0.25 3.0125
2.1875 0.25 3.075
2.25 0.1875 3.0125
2.1875 0.1875 3.075
2.1875 0.25 3.0125
2.1875 0.1875 3.0125
2.375 0.1875 3.075
2.375 0.25 3.0125
2.3125 0.25 3.075
2.375 0.1875 3.0125
2.3125 0.1875 3.075
2.3125 0.25 3.0125
2.3125 0.1875 3.0125
2.5 0.1875 3.075
2.5 0.25 3.0125
2.4375 0.25 3.075
2.5 0.1875 3.0125
2.4375 0.1875 3.075
2.4375 0.25 3.0125
2.4375 0.1875 3.0125
2.625 0.1875 3.075
2.625 0.25 3.0125
2.5625 0.25 3.075
2.625 0.1875 3.0125
2.5625 0.1875 3.075
2.5625 0.25 3.0125
2.5625 0.1875 3.0125
2.75 0.1875 3.075
2.75 0.25 3.0125
2.6875 0.25 3.075
2.75 0.1875 3.0125
2.6875 0.1875 3.075
2.6875 0.25 3.0125
2.6875 0.1875 3.0125
2.875 0.1875 3.075
2.875 0.25 3.0125
2.8125 0.25 3.075
2.875 0.1875 3.0125
2.8125 0.1875 3.075
2.8125 0.25 3.0125
2.8125 0.1875 3.0125
3 0.1875 3.075
3 0.25 3.0125
2.9375 0.25 3.075
3 0.1875 3.0125
2.9375 0.1875 3.075
2.9375 0.25 3.0125
2.9375 0.1875 3.0125
0.125 0.3125 3.075
0 0.3125 3.075
0.125 0.375 3.0125
0.0625 0.375 3.075
0 0.375 3.0125
0.125 0.3125 3.0125
0.0625 0.3125 3.075
0 0.3125 3.0125
0.0625 0.375 3.0125
0.0625 0.3125 3.0125
0.25 0.3125 3.075
0.25 0.375 3.0125
0.1875 0.375 3.075
0.25 0.3125 3.0125
0.1875 0.3125 3.075
0.1875 0.375 3.0125
0.1875 0.3125 3.0125
0.375 0.3125 3.075
0.375 0.375 3.0125
0.3125 0.375 3.075
0.375 0.3125 3.0125
0.3125 0.3125 3.075
0.3125 0.375 3.0125
0.3125 0.3125 3.0125
0.5 0.3125 3.075
0.5 0.375 3.0125
0.4375 0.375 3.075
0.5 0.3125 3.0125
0.4375 0.3125 3.075
0.4375 0.375 3.0125
0.4375 0.3125 3.0125
0.625 0.3125 3.075
0.625 0.375 3.0125
0.5625 0.375 3.075
0.625 0.3125 3.0125
0.5625 0.3125 3.075
0.5625 0.375 3.0125
0.5625 0.3125 3.0125
0.75 0.3125 3.075
0.75 0.375 3.0125
0.6875 0.375 3.075
0.75 0.3125 3.0125
0.6875 0.3125 3.075
0.6875 0.375 3.0125
0.6875 0.3125 3.0125
0.875 0.3125 3.075
0.875 0.375 3.0125
0.8125 0.375 3.075
0.875 0.3125 3.0125
0.8125 0.3125 3.075
0.8125 0.375 3.0125
0.8125 0.3125 3.0125
1 0.3125 3.075
1 0.375 3.0125
0.9375 0.375 3.075
1 0.3125 3.0125
0.9375 0.3125 3.075
0.9375 0.375 3.0125
0.9375 0.3125 3.0125
1.125 0.3125 3.075
1.125 0.375 3.0125
1.0625 0.375 3.075
1.125 0.3125 3.0125
1.0625 0.3125 3.075
1.0625 0.375 3.0125
1.0625 0.3125 3.0125
1.25 0.3125 3.075
1.25 0.375 3.0125
1.1875 0.375 3.075
1.25 0.3125 3.0125
1.1875 0.3125 3.075
1.1875 0.375 3.0125
1.1875 0.3125 3.0125
1.375 0.3125 3.075
1.375 0.375 3.0125
1.3125 0.375 3.075
1.375 0.3125 3.0125
1.3125 0.3125 3.075
1.3125 0.375 3.0125
1.3125 0.3125 3.0125
1.5 0.3125 3.075
1.5 0.375 3.0125
1.4375 0.375 3.075
1.5 0.3125 3.0125
1.4375 0.3125 3.075
1.4375 0.375 3.0125
1.4375 0.3125 3.0125
1.625 0.3125 3.075
1.625 0.375 3.0125
1.5625 0.375 3.075
1.625 0.3125 3.0125
1.5625 0.3125 3.075
1.5625 0.375 3.0125
1.5625 0.3125 3.0125
1.75 0.3125 3.075
1.75 0.375 3.0125
1.6875 0.375 3.075
1.75 0.3125 3.0125
1.6875 0.3125 3.075
1.6875 0.375 3.0125
1.6875 0.3125 3.0125
1.875 0.3125 3.075
1.875 0.375 3.0125
1.8125 0.375 3.075
1.875 0.3125 3.0125
1.8125 0.3125 3.075
1.8125 0.375 3.0125
1.8125 0.3125 3.0125
2 0.3125 3.075
2 0.375 3.0125
1.9375 0.375 3.075
2 0.3125 3.0125
1.9375 0.3125 3.075
1.9375 0.375 3.0125
1.9375 0.3125 3.0125
2.125 0.3125 3.075
2.125 0.375 3.0125
2.0625 0.375 3.075
2.125 0.3125 3.0125
2.0625 0.3125 3.075
2.0625 0.375 3.0125
2.0625 0.3125 3.0125
2.25 0.3125 3.075
2.25 0.375 3.0125
2.1875 0.375 3.075
2.25 0.3125 3.0125
2.1875 0.3125 3.075
2.1875 0.375 3.0125
2.1875 0.3125 3.0125
2.375 0.3125 3.075
2.375 0.375 3.0125
2.3125 0.375 3.075
2.375 0.3125 3.0125
2.3125 0.3125 3.075
2.3125 0.375 3.0125
2.3125 0.3125 3.0125
2.5 0.3125 3.075
2.5 0.375 3.0125
2.4375 0.375 3.075
2.5 0.3125 3.0125
2.4375 0.3125 3.075
2.4375 0.375 3.0125
2.4375 0.3125 3.0125
2.625 0.3125 3.075
2.625 0.375 3.0125
2.5625 0.375 3.075
2.625 0.3125 3.0125
2.5625 0.3125 3.075
2.5625 0.375 3.0125
2.5625 0.3125 3.0125
2.75 0.3125 3.075
2.75 0.375 3.0125
2.6875 0.375 3.075
2.75 0.3125 3.0125
2.6875 0.3125 3.075
2.6875 0.375 3.0125
2.6875 0.3125 3.0125
2.875 0.3125 3.075
2.875 0.375 3.0125
2.8125 0.375 3.075
2.875 0.3125 3.0125
2.8125 0.3125 3.075
2.8125 0.375 3.0125
2.8125 0.3125 3.0125
3 0.3125 3.075
3 0.375 3.0125
2.9375 0.375 3.075
3 0.3125 3.0125
2.9375 0.3125 3.075
2.9375 0.375 3.0125
2.9375 0.3125 3.0125
0.125 0.4375 3.075
0 0.4375 3.075
0.125 0.5 3.0125
0.0625 0.5 3.075
0 0.5 3.0125
0.125 0.4375 3.0125
0.0625 0.4375 3.075
0 0.4375 3.0125
0.0625 0.5 3.0125
0.0625 0.4375 3.0125
0.25 0.4375 3.075
0.25 0.5 3.0125
0.1875 0.5 3.075
0.25 0.4375 3.0125
0.1875 0.4375 3.075
0.1875 0.5 3.0125
0.1875 0.4375 3.0125
0.375 0.4375 3.075
0.375 0.5 3.0125
0.3125 0.5 3.075
0.375 0.4375 3.0125
0.3125 0.4375 3.075
0.3125 0.5 3.0125
0.3125 0.4375 3.0125
0.5 0.4375 3.075
0.5 0.5 3.0125
0.4375 0.5 3.075
0.5 0.4375 3.0125
0.4375 0.4375 3.075
0.4375 0.5 3.0125
0.4375 0.4375 3.0125
0.625 0.4375 3.075
0.625 0.5 3.0125
0.5625 0.5 3.075
0.625 0.4375 3.0125
0.5625 0.4375 3.075
0.5625 0.5 3.0125
0.5625 0.4375 3.0125
0.75 0.4375 3.075
0.75 0.5 3.0125
0.6875 0.5 3.075
0.75 0.4375 3.0125
0.6875 0.4375 3.075
0.6875 0.5 3.0125
0.6875 0.4375 3.0125
0.875 0.4375 3.075
0.875 0.5 3.0125
0.8125 0.5 3.075
0.875 0.4375 3.0125
0.8125 0.4375 3.075
0.8125 0.5 3.0125
0.8125 0.4375 3.0125
1 0.4375 3.075
1 0.5 3.0125
0.9375 0.5 3.075
1 0.4375 3.0125
0.9375 0.4375 3.075
0.9375 0.5 3.0125
0.9375 0.4375 3.0125
1.125 0.4375 3.075
1.125 0.5 3.0125
1.0625 0.5 3.075
1.125 0.4375 3.0125
1.0625 0.4375 3.075
1.0625 0.5 3.0125
1.0625 0.4375 3.0125
1.25 0.4375 3.075
1.25 0.5 3.0125
1.1875 0.5 3.075
1.25 0.4375 3.0125
1.1875 0.4375 3.075
1.1875 0.5 3.0125
1.1875 0.4375 3.0125
1.375 0.4375 3.075
1.375 0.5 3.0125
1.3125 0.5 3.075
1.375 0.4375 3.0125
1.3125 0.4375 3.075
1.3125 0.5 3.0125
1.3125 0.4375 3.0125
1.5 0.4375 3.075
1.5 0.5 3.0125
1.4375 0.5 3.075
1.5 0.4375 3.0125
1.4375 0.4375 3.075
1.4375 0.5 3.0125
1.4375 0.4375 3.0125
1.625 0.4375 3.075
1.625 0.5 3.0125
1.5625 0.5 3.075
1.625 0.4375 3.0125
1.5625 0.4375 3.075
1.5625 0.5 3.0125
1.5625 0.4375 3.0125
1.75 0.4375 3.075
1.75 0.5 3.0125
1.6875 0.5 3.075
1.75 0.4375 3.0125
1.6875 0.4375 3.075
1.6875 0.5 3.0125
1.6875 0.4375 3.0125
1.875 0.4375 3.075
1.875 0.5 3.0125
1.8125 0.5 3.075
1.875 0.4375 3.0125
1.8125 0.4375 3.075
1.8125 0.5 3.0125
1.8125 0.4375 3.0125
2 0.4375 3.075
2 0.5 3.0125
1.9375 0.5 3.075
2 0.4375 3.0125
1.9375 0.4375 3.075
1.9375 0.5 3.0125
1.9375 0.4375 3.0125
2.125 0.4375 3.075
2.125 0.5 3.0125
2.0625 0.5 3.075
2.125 0.4375 3.0125
2.0625 0.4375 3.075
2.0625 0.5 3.0125
2.0625 0.4375 3.0125
2.25 0.4375 3.075
2.25 0.5 3.0125
2.1875 0.5 3.075
2.25 0.4375 3.0125
2.1875 0.4375 3.075
2.1875 0.5 3.0125
2.1875 0.4375 3.0125
2.375 0.4375 3.075
2.375 0.5 3.0125
2.3125 0.5 3.075
2.375 0.4375 3.0125
2.3125 0.4375 3.075
2.3125 0.5 3.0125
2.3125 0.4375 3.0125
2.5 0.4375 3.075
2.5 0.5 3.0125
2.4375 0.5 3.075
2.5 0.4375 3.0125
2.4375 0.4375 3.075
2.4375 0.5 3.0125
2.4375 0.4375 3.0125
2.625 0.4375 3.075
2.625 0.5 3.0125
2.5625 0.5 3.075
2.625 0.4375 3.0125
2.5625 0.4375 3.075
2.5625 0.5 3.0125
2.5625 0.4375 3.0125
2.75 0.4375 3.075
2.75 0.5 3.0125
2.6875 0.5 3.075
2.75 0.4375 3.0125
2.6875 0.4375 3.075
2.6875 0.5 3.0125
2.6875 0.4375 3.0125
2.875 0.4375 3.075
2.875 0.5 3.0125
2.8125 0.5 3.075
2.875 0.4375 3.0125
2.8125 0.4375 3.075
2.8125 0.5 3.0125
2.8125 0.4375 3.0125
3 0.4375 3.075
3 0.5 3.0125
2.9375 0.5 3.075
3 0.4375 3.0125
2.9375 0.4375 3.075
2.9375 0.5 3.0125
2.9375 0.4375 3.0125
0.125 0.5625 3.075
0 0.5625 3.075
0.125 0.625 3.0125
0.0625 0.625 3.075
0 0.625 3.0125
0.125 0.5625 3.0125
0.0625 0.5625 3.075
0 0.5625 3.0125
0.0625 0.625 3.0125
0.0625 0.5625 3.0125
0.25 0.5625 3.075
0.25 0.625 3.0125
0.1875 0.625 3.075
0.25 0.5625 3.0125
0.1875 0.5625 3.075
0.1875 0.625 3.0125
0.1875 0.5625 3.0125
0.375 0.5625 3.075
0.375 0.625 3.0125
0.3125 0.625 3.075
0.375 0.5625 3.0125
0.3125 0.5625 3.075
0.3125 0.625 3.0125
0.3125 0.5625 3.0125
0.5 0.5625 3.075
0.5 0.625 3.0125
0.4375 0.625 3.075
0.5 0.5625 3.0125
0.4375 0.5625 3.075
0.4375 0.625 3.0125
0.4375 0.5625 3.0125
0.625 0.5625 3.075
0.625 0.625 3.0125
0.5625 0.625 3.075
0.625 0.5625 3.0125
0.5625 0.5625 3.075
0.5625 0.625 3.0125
0.5625 0.5625 3.0125
0.75 0.5625 3.075
0.75 0.625 3.0125
0.6875 0.625 3.075
0.75 0.5625 3.0125
0.6875 0.5625 3.075
0.6875 0.625 3.0125
0.6875 0.5625 3.0125
0.875 0.5625 3.075
0.875 0.625 3.0125
0.8125 0.625 3.075
0.875 0.5625 3.0125
0.8125 0.5625 3.075
0.8125 0.625 3.0125
0.8125 0.5625 3.0125
1 0.5625 3.075
1 0.625 3.0125
0.9375 0.625 3.075
1 0.5625 3.0125
0.9375 0.5625 3.075
0.9375 0.625 3.0125
0.9375 0.5625 3.0125
1.125 0.5625 3.075
1.125 0.625 3.0125
1.0625 0.625 3.075
1.125 0.5625 3.0125
1.0625 0.5625 3.075
1.0625 0.625 3.0125
1.0625 0.5625 3.0125
1.25 0.5625 3.075
1.25 0.625 3.0125
1.1875 0.625 3.075
1.25 0.5625 3.0125
1.1875 0.5625 3.075
1.1875 0.625 3.0125
1.1875 0.5625 3.0125
1.375 0.5625 3.075
1.375 0.625 3.0125
1.3125 0.625 3.075
1.375 0.5625 3.0125
1.3125 0.5625 3.075
1.3125 0.625 3.0125
1.3125 0.5625 3.0125
1.5 0.5625 3.075
1.5 0.625 3.0125
1.4375 0.625 3.075
1.5 0.5625 3.0125
1.4375 0.5625 3.075
1.4375 0.625 3.0125
1.4375 0.5625 3.0125
1.625 0.5625 3.075
1.625 0.625 3.0125
1.5625 0.625 3.075
1.625 0.5625 3.0125
1.5625 0.5625 3.075
1.5625 0.625 3.0125
1.5625 0.5625 3.0125
1.75 0.5625 3.075
1.75 0.625 3.0125
1.6875 0.625 3.075
1.75 0.5625 3.0125
1.6875 0.5625 3.075
1.6875 0.625 3.0125
1.6875 0.5625 3.0125
1.875 0.5625 3.075
1.875 0.625 3.0125
1.8125 0.625 3.075
1.875 0.5625 3.0125
1.8125 0.5625 3.075
1.8125 0.625 3.0125
1.8125 0.5625 3.0125
2 0.5625 3.075
2 0.625 3.0125
1.9375 0.625 3.075
2 0.5625 3.0125
1.9375 0.5625 3.075
1.9375 0.625 3.0125
1.9375 0.5625 3.0125
2.125 0.5625 3.075
2.125 0.625 3.0125
2.0625 0.625 3.075
2.125 0.5625 3.0125
2.0625 0.5625 3.075
2.0625 0.625 3.0125
2.0625 0.5625 3.0125
2.25 0.5625 3.075
2.25 0.625 3.0125
2.1875 0.625 3.075
2.25 0.5625 3.0125
2.1875 0.5625 3.075
2.1875 0.625 3.0125
2.1875 0.5625 3.0125
2.375 0.5625 3.075
2.375 0.625 3.0125
2.3125 0.625 3.075
2.375 0.5625 3.0125
2.3125 0.5625 3.075
2.3125 0.625 3.0125
2.3125 0.5625 3.0125
2.5 0.5625 3.075
2.5 0.625 3.0125
2.4375 0.625 3.075
2.5 0.5625 3.0125
2.4375 0.5625 3.075
2.4375 0.625 3.0125
2.4375 0.5625 3.0125
2.625 0.5625 3.075
2.625 0.625 3.0125
2.5625 0.625 3.075
2.625 0.5625 3.0125
2.5625 0.5625 3.075
2.5625 0.625 3.0125
2.5625 0.5625 3.0125
2.75 0.5625 3.075
2.75 0.625 3.0125
2.6875 0.625 3.075
2.75 0.5625 3.0125
2.6875 0.5625 3.075
2.6875 0.625 3.0125
2.6875 0.5625 3.0125
2.875 0.5625 3.075
2.875 0.625 3.0125
2.8125 0.625 3.075
2.875 0.5625 3.0125
2.8125 0.5625 3.075
2.8125 0.625 3.0125
2.8125 0.5625 3.0125
3 0.5625 3.075
3 0.625 3.0125
2.9375 0.625 3.075
3 0.5625 3.0125
2.9375 0.5625 3.075
2.9375 0.625 3.0125
2.9375 0.5625 3.0125
0.125 0.6875 3.075
0 0.6875 3.075
0.125 0.75 3.0125
0.0625 0.75 3.075
0 0.75 3.0125
0.125 0.6875 3.0125
0.0625 0.6875 3.075
0 0.6875 3.0125
0.0625 0.75 3.0125
0.0625 0.6875 3.0125
0.25 0.6875 3.075
0.25 0.75 3.0125
0.1875 0.75 3.075
0.25 0.6875 3.0125
0.1875 0.6875 3.075
0.1875 0.75 3.0125
0.1875 0.6875 3.0125
0.375 0.6875 3.075
0.375 0.75 3.0125
0.3125 0.75 3.075
0.375 0.6875 3.0125
0.3125 0.6875 3.075
0.3125 0.75 3.0125
0.3125 0.6875 3.0125
0.5 0.6875 3.075
0.5 0.75 3.0125
0.4375 0.75 3.075
0.5 0.6875 3.0125
0.4375 0.6875 3.075
0.4375 0.75 3.0125
0.4375 0.6875 3.0125
0.625 0.6875 3.075
0.625 0.75 3.0125
0.5625 0.75 3.075
0.625 0.6875 3.0125
0.5625 0.6875 3.075
0.5625 0.75 3.0125
0.5625 0.6875 3.0125
0.75 0.6875 3.075
0.75 0.75 3.0125
0.6875 0.75 3.075
0.75 0.6875 3.0125
0.6875 0.6875 3.075
0.6875 0.75 3.0125
0.6875 0.6875 3.0125
0.875 0.6875 3.075
0.875 0.75 3.0125
0.8125 0.75 3.075
0.875 0.6875 3.0125
0.8125 0.6875 3.075
0.8125 0.75 3.0125
0.8125 0.6875 3.0125
1 0.6875 3.075
1 0.75 3.0125
0.9375 0.75 3.075
1 0.6875 3.0125
0.9375 0.6875 3.075
0.9375 0.75 3.0125
0.9375 0.6875 3.0125
1.125 0.6875 3.075
1.125 0.75 3.0125
1.0625 0.75 3.075
1.125 0.6875 3.0125
1.0625 0.6875 3.075
1.0625 0.75 3.0125
1.0625 0.6875 3.0125
1.25 0.6875 3.075
1.25 0.75 3.0125
1.1875 0.75 3.075
1.25 0.6875 3.0125
1.1875 0.6875 3.075
1.1875 0.75 3.0125
1.1875 0.6875 3.0125
1.375 0.6875 3.075
1.375 0.75 3.0125
1.3125 0.75 3.075
1.375 0.6875 3.0125
1.3125 0.6875 3.075
1.3125 0.75 3.0125
1.3125 0.6875 3.0125
1.5 0.6875 3.075
1.5 0.75 3.0125
1.4375 0.75 3.075
1.5 0.6875 3.0125
1.4375 0.6875 3.075
1.4375 0.75 3.0125
1.4375 0.6875 3.0125
1.625 0.6875 3.075
1.625 0.75 3.0125
1.5625 0.75 3.075
1.625 0.6875 3.0125
1.5625 0.6875 3.075
1.5625 0.75 3.0125
1.5625 0.6875 3.0125
1.75 0.6875 3.075
1.75 0.75 3.0125
1.6875 0.75 3.075
1.75 0.6875 3.0125
1.6875 0.6875 3.075
1.6875 0.75 3.0125
1.6875 0.6875 3.0125
1.875 0.6875 3.075
1.875 0.75 3.0125
1.8125 0.75 3.075
1.875 0.6875 3.0125
1.8125 0.6875 3.075
1.8125 0.75 3.0125
1.8125 0.6875 3.0125
2 0.6875 3.075
2 0.75 3.0125
1.9375 0.75 3.075
2 0.6875 3.0125
1.9375 0.6875 3.075
1.9375 0.75 3.0125
1.9375 0.6875 3.0125
2.125 0.6875 3.075
2.125 0.75 3.0125
2.0625 0.75 3.075
2.125 0.6875 3.0125
2.0625 0.6875 3.075
2.0625 0.75 3.0125
2.0625 0.6875 3.0125
2.25 0.6875 3.075
2.25 0.75 3.0125
2.1875 0.75 3.075
2.25 0.6875 3.0125
2.1875 0.6875 3.075
2.1875 0.75 3.0125
2.1875 0.6875 3.0125
2.375 0.6875 3.075
2.375 0.75 3.0125
2.3125 0.75 3.075
2.375 0.6875 3.0125
2.3125 0.6875 3.075
2.3125 0.75 3.0125
2.3125 0.6875 3.0125
2.5 0.6875 3.075
2.5 0.75 3.0125
2.4375 0.75 3.075
2.5 0.6875 3.0125
2.4375 0.6875 3.075
2.4375 0.75 3.0125
2.4375 0.6875 3.0125
2.625 0.6875 3.075
2.625 0.75 3.0125
2.5625 0.75 3.075
2.625 0.6875 3.0125
2.5625 0.6875 3.075
2.5625 0.75 3.0125
2.5625 0.6875 3.0125
2.75 0.6875 3.075
2.75 0.75 3.0125
2.6875 0.75 3.075
2.75 0.6875 3.0125
2.6875 0.6875 3.075
2.6875 0.75 3.0125
2.6875 0.6875 3.0125
2.875 0.6875 3.075
2.875 0.75 3.0125
2.8125 0.75 3.075
2.875 0.6875 3.0125
2.8125 0.6875 3.075
2.8125 0.75 3.0125
2.8125 0.6875 3.0125
3 0.6875 3.075
3 0.75 3.0125
2.9375 0.75 3.075
3 0.6875 3.0125
2.9375 0.6875 3.075
2.9375 0.75 3.0125
2.9375 0.6875 3.0125
0.125 0.8125 3.075
0 0.8125 3.075
0.125 0.875 3.0125
0.0625 0.875 3.075
0 0.875 3.0125
0.125 0.8125 3.0125
0.0625 0.8125 3.075
0 0.8125 3.0125
0.0625 0.875 3.0125
0.0625 0.8125 3.0125
0.25 0.8125 3.075
0.25 0.875 3.0125
0.1875 0.875 3.075
0.25 0.8125 3.0125
0.1875 0.8125 3.075
0.1875 0.875 3.0125
0.1875 0.8125 3.0125
0.375 0.8125 3.075
0.375 0.875 3.0125
0.3125 0.875 3.075
0.375 0.8125 3.0125
0.3125 0.8125 3.075
0.3125 0.875 3.0125
0.3125 0.8125 3.0125
0.5 0.8125 3.075
0.5 0.875 3.0125
0.4375 0.875 3.075
0.5 0.8125 3.0125
0.4375 0.8125 3.075
0.4375 0.875 3.0125
0.4375 0.8125 3.0125
0.625 0.8125 3.075
0.625 0.875 3.0125
0.5625 0.875 3.075
0.625 0.8125 3.0125
0.5625 0.8125 3.075
0.5625 0.875 3.0125
0.5625 0.8125 3.0125
0.75 0.8125 3.075
0.75 0.875 3.0125
0.6875 0.875 3.075
0.75 0.8125 3.0125
0.6875 0.8125 3.075
0.6875 0.875 3.0125
0.6875 0.8125 3.0125
0.875 0.8125 3.075
0.875 0.875 3.0125
0.8125 0.875 3.075
0.875 0.8125 3.0125
0.8125 0.8125 3.075
0.8125 0.875 3.0125
0.8125 0.8125 3.0125
1 0.8125 3.075
1 0.875 3.0125
0.9375 0.875 3.075
1 0.8125 3.0125
0.9375 0.8125 3.075
0.9375 0.875 3.0125
0.9375 0.8125 3.0125
1.125 0.8125 3.075
1.125 0.875 3.0125
1.0625 0.875 3.075
1.125 0.8125 3.0125
1.0625 0.8125 3.075
1.0625 0.875 3.0125
1.0625 0.8125 3.0125
1.25 0.8125 3.075
1.25 0.875 3.0125
1.1875 0.875 3.075
1.25 0.8125 3.0125
1.1875 0.8125 3.075
1.1875 0.875 3.0125
1.1875 0.8125 3.0125
1.375 0.8125 3.075
1.375 0.875 3.0125
1.3125 0.875 3.075
1.375 0.8125 3.0125
1.3125 0.8125 3.075
1.3125 0.875 3.0125
1.3125 0.8125 3.0125
1.5 0.8125 3.075
1.5 0.875 3.0125
1.4375 0.875 3.075
1.5 0.8125 3.0125
1.4375 0.8125 3.075
1.4375 0.875 3.0125
1.4375 0.8125 3.0125
1.625 0.8125 3.075
1.625 0.875 3.0125
1.5625 0.875 3.075
1.625 0.8125 3.0125
1.5625 0.8125 3.075
1.5625 0.875 3.0125
1.5625 0.8125 3.0125
1.75 0.8125 3.075
1.75 0.875 3.0125
1.6875 0.875 3.075
1.75 0.8125 3.0125
1.6875 0.8125 3.075
1.6875 0.875 3.0125
1.6875 0.8125 3.0125
1.875 0.8125 3.075
1.875 0.875 3.0125
1.8125 0.875 3.075
1.875 0.8125 3.0125
1.8125 0.8125 3.075
1.8125 0.875 3.0125
1.8125 0.8125 3.0125
2 0.8125 3.075
2 0.875 3.0125
1.9375 0.875 3.075
2 0.8125 3.0125
1.9375 0.8125 3.075
1.9375 0.875 3.0125
1.9375 0.8125 3.0125
2.125 0.8125 3.075
2.125 0.875 3.0125
2.0625 0.875 3.075
2.125 0.8125 3.0125
2.0625 0.8125 3.075
2.0625 0.875 3.0125
2.0625 0.8125 3.0125
2.25 0.8125 3.075
2.25 0.875 3.0125
2.1875 0.875 3.075
2.25 0.8125 3.0125
2.1875 0.8125 3.075
2.1875 0.875 3.0125
2.1875 0.8125 3.0125
2.375 0.8125 3.075
2.375 0.875 3.0125
2.3125 0.875 3.075
2.375 0.8125 3.0125
2.3125 0.8125 3.075
2.3125 0.875 3.0125
2.3125 0.8125 3.0125
2.5 0.8125 3.075
2.5 0.875 3.0125
2.4375 0.875 3.075
2.5 0.8125 3.0125
2.4375 0.8125 3.075
2.4375 0.875 3.0125
2.4375 0.8125 3.0125
2.625 0.8125 3.075
2.625 0.875 3.0125
2.5625 0.875 3.075
2.625 0.8125 3.0125
2.5625 0.8125 3.075
2.5625 0.875 3.0125
2.5625 0.8125 3.0125
2.75 0.8125 3.075
2.75 0.875 3.0125
2.6875 0.875 3.075
2.75 0.8125 3.0125
2.6875 0.8125 3.075
2.6875 0.875 3.0125
2.6875 0.8125 3.0125
2.875 0.8125 3.075
2.875 0.875 3.0125
2.8125 0.875 3.075
2.875 0.8125 3.0125
2.8125 0.8125 3.075
2.8125 0.875 3.0125
2.8125 0.8125 3.0125
3 0.8125 3.075
3 0.875 3.0125
2.9375 0.875 3.075
3 0.8125 3.0125
2.9375 0.8125 3.075
2.9375 0.875 3.0125
2.9375 0.8125 3.0125
0.125 0.9375 3.075
0 0.9375 3.075
0.125 1 3.0125
0.0625 1 3.075
0 1 3.0125
0.125 0.9375 3.0125
0.0625 0.9375 3.075
0 0.9375 3.0125
0.0625 1 3.0125
0.0625 0.9375 3.0125
0.25 0.9375 3.075
0.25 1 3.0125
0.1875 1 3.075
0.25 0.9375 3.0125
0.1875 0.9375 3.075
0.1875 1 3.0125
0.1875 0.9375 3.0125
0.375 0.9375 3.075
0.375 1 3.0125
0.3125 1 3.075
0.375 0.9375 3.0125
0.3125 0.9375 3.075
0.3125 1 3.0125
0.3125 0.9375 3.0125
0.5 0.9375 3.075
0.5 1 3.0125
0.4375 1 3.075
0.5 0.9375 3.0125
0.4375 0.9375 3.075
0.4375 1 3.0125
0.4375 0.9375 3.0125
0.625 0.9375 3.075
0.625 1 3.0125
0.5625 1 3.075
0.625 0.9375 3.0125
0.5625 0.9375 3.075
0.5625 1 3.0125
0.5625 0.9375 3.0125
0.75 0.9375 3.075
0.75 1 3.0125
0.6875 1 3.075
0.75 0.9375 3.0125
0.6875 0.9375 3.075
0.6875 1 3.0125
0.6875 0.9375 3.0125
0.875 0.9375 3.075
0.875 1 3.0125
0.8125 1 3.075
0.875 0.9375 3.0125
0.8125 0.9375 3.075
0.8125 1 3.0125
0.8125 0.9375 3.0125
1 0.9375 3.075
1 1 3.0125
0.9375 1 3.075
1 0.9375 3.0125
0.9375 0.9375 3.075
0.9375 1 3.0125
0.9375 0.9375 3.0125
1.125 0.9375 3.075
1.125 1 3.0125
1.0625 1 3.075
1.125 0.9375 3.0125
1.0625 0.9375 3.075
1.0625 1 3.0125
1.0625 0.9375 3.0125
1.25 0.9375 3.075
1.25 1 3.0125
1.1875 1 3.075
1.25 0.9375 3.0125
1.1875 0.9375 3.075
1.1875 1 3.0125
1.1875 0.9375 3.0125
1.375 0.9375 3.075
1.375 1 3.0125
1.3125 1 3.075
1.375 0.9375 3.0125
1.3125 0.9375 3.075
1.3125 1 3.0125
1.3125 0.9375 3.0125
1.5 0.9375 3.075
1.5 1 3.0125
1.4375 1 3.075
1.5 0.9375 3.0125
1.4375 0.9375 3.075
1.4375 1 3.0125
1.4375 0.9375 3.0125
1.625 0.9375 3.075
1.625 1 3.0125
1.5625 1 3.075
1.625 0.9375 3.0125
1.5625 0.9375 3.075
1.5625 1 3.0125
1.5625 0.9375 3.0125
1.75 0.9375 3.075
1.75 1 3.0125
1.6875 1 3.075
1.75 0.9375 3.0125
1.6875 0.9375 3.075
1.6875 1 3.0125
1.6875 0.9375 3.0125
1.875 0.9375 3.075
1.875 1 3.0125
1.8125 1 3.075
1.875 0.9375 3.0125
1.8125 0.9375 3.075
1.8125 1 3.0125
1.8125 0.9375 3.0125
2 0.9375 3.075
2 1 3.0125
1.9375 1 3.075
2 0.9375 3.0125
1.9375 0.9375 3.075
1.9375 1 3.0125
1.9375 0.9375 3.0125
2.125 0.9375 3.075
2.125 1 3.0125
2.0625 1 3.075
2.125 0.9375 3.0125
2.0625 0.9375 3.075
2.0625 1 3.0125
2.0625 0.9375 3.0125
2.25 0.9375 3.075
2.25 1 3.0125
2.1875 1 3.075
2.25 0.9375 3.0125
2.1875 0.9375 3.075
2.1875 1 3.0125
2.1875 0.9375 3.0125
2.375 0.9375 3.075
2.375 1 3.0125
2.3125 1 3.075
2.375 0.9375 3.0125
2.3125 0.9375 3.075
2.3125 1 3.0125
2.3125 0.9375 3.0125
2.5 0.9375 3.075
2.5 1 3.0125
2.4375 1 3.075
2.5 0.9375 3.0125
2.4375 0.9375 3.075
2.4375 1 3.0125
2.4375 0.9375 3.0125
2.625 0.9375 3.075
2.625 1 3.0125
2.5625 1 3.075
2.625 0.9375 3.0125
2.5625 0.9375 3.075
2.5625 1 3.0125
2.5625 0.9375 3.0125
2.75 0.9375 3.075
2.75 1 3.0125
2.6875 1 3.075
2.75 0.9375 3.0125
2.6875 0.9375 3.075
2.6875 1 3.0125
2.6875 0.9375 3.0125
2.875 0.9375 3.075
2.875 1 3.0125
2.8125 1 3.075
2.875 0.9375 3.0125
2.8125 0.9375 3.075
2.8125 1 3.0125
2.8125 0.9375 3.0125
3 0.9375 3.075
3 1 3.0125
2.9375 1 3.075
3 0.9375 3.0125
2.9375 0.9375 3.075
2.9375 1 3.0125
2.9375 0.9375 3.0125
0.125 0 3.1375
0.0625 0 3.2
0 0 3.1375
0.125 0.0625 3.2
0 0.0625 3.2
0.125 0.125 3.1375
0.0625 0.125 3.2
0 0.125 3.1375
0.0625 0 3.1375
0.125 0.0625 3.1375
0.0625 0.0625 3.2
0 0.0625 3.1375
0.0625 0.125 3.1375
0.0625 0.0625 3.1375
0.25 0 3.1375
0.1875 0 3.2
0.25 0.0625 3.2
0.25 0.125 3.1375
0.1875 0.125 3.2
0.1875 0 3.1375
0.25 0.0625 3.1375
0.1875 0.0625 3.2
0.1875 0.125 3.1375
0.1875 0.0625 3.1375
0.375 0 3.1375
0.3125 0 3.2
0.375 0.0625 3.2
0.375 0.125 3.1375
0.3125 0.125 3.2
0.3125 0 3.1375
0.375 0.0625 3.1375
0.3125 0.0625 3.2
0.3125 0.125 3.1375
0.3125 0.0625 3.1375
0.5 0 3.1375
0.4375 0 3.2
0.5 0.0625 3.2
0.5 0.125 3.1375
0.4375 0.125 3.2
0.4375 0 3.1375
0.5 0.0625 3.1375
0.4375 0.0625 3.2
0.4375 0.125 3.1375
0.4375 0.0625 3.1375
0.625 0 3.1375
0.5625 0 3.2
0.625 0.0625 3.2
0.625 0.125 3.1375
0.5625 0.125 3.2
0.5625 0 3.1375
0.625 0.0625 3.1375
0.5625 0.0625 3.2
0.5625 0.125 3.1375
0.5625 0.0625 3.1375
0.75 0 3.1375
0.6875 0 3.2
0.75 0.0625 3.2
0.75 0.125 3.1375
0.6875 0.125 3.2
0.6875 0 3.1375
0.75 0.0625 3.1375
0.6875 0.0625 3.2
0.6875 0.125 3.1375
0.6875 0.0625 3.1375
0.875 0 3.1375
0.8125 0 3.2
0.875 0.0625 3.2
0.875 0.125 3.1375
0.8125 0.125 3.2
0.8125 0 3.1375
0.875 0.0625 3.1375
0.8125 0.0625 3.2
0.8125 0.125 3.1375
0.8125 0.0625 3.1375
1 0 3.1375
0.9375 0 3.2
1 0.0625 3.2
1 0.125 3.1375
0.9375 0.125 3.2
0.9375 0 3.1375
1 0.0625 3.1375
0.9375 0.0625 3.2
0.9375 0.125 3.1375
0.9375 0.0625 3.1375
1.125 0 3.1375
1.0625 0 3.2
1.125 0.0625 3.2
1.125 0.125 3.1375
1.0625 0.125 3.2
1.0625 0 3.1375
1.125 0.0625 3.1375
1.0625 0.0625 3.2
1.0625 0.125 3.1375
1.0625 0.0625 3.1375
1.25 0 3.1375
1.1875 0 3.2
1.25 0.0625 3.2
1.25 0.125 3.1375
1.1875 0.125 3.2
1.1875 0 3.1375
1.25 0.0625 3.1375
1.1875 0.0625 3.2
1.1875 0.125 3.1375
1.1875 0.0625 3.1375
1.375 0 3.1375
1.3125 0 3.2
1.375 0.0625 3.2
1.375 0.125 3.1375
1.3125 0.125 3.2
1.3125 0 3.1375
1.375 0.0625 3.1375
1.3125 0.0625 3.2
1.3125 0.125 3.1375
1.3125 0.0625 3.1375
1.5 0 3.1375
1.4375 0 3.2
1.5 0.0625 3.2
1.5 0.125 3.1375
1.4375 0.125 3.2
1.4375 0 3.1375
1.5 0.0625 3.1375
1.4375 0.0625 3.2
1.4375 0.125 3.1375
1.4375 0.0625 3.1375
1.625 0 3.1375
1.5625 0 3.2
1.625 0.0625 3.2
1.625 0.125 3.1375
1.5625 0.125 3.2
1.5625 0 3.1375
1.625 0.0625 3.1375
1.5625 0.0625 3.2
1.5625 0.125 3.1375
1.5625 0.0625 3.1375
1.75 0 3.1375
1.6875 0 3.2
1.75 0.0625 3.2
1.75 0.125 3.1375
1.6875 0.125 3.2
1.6875 0 3.1375
1.75 0.0625 3.1375
1.6875 0.0625 3.2
1.6875 0.125 3.1375
1.6875 0.0625 3.1375
1.875 0 3.1375
1.8125 0 3.2
1.875 0.0625 3.2
1.875 0.125 3.1375
1.8125 0.125 3.2
1.8125 0 3.1375
1.875 0.0625 3.1375
1.8125 0.0625 3.2
1.8125 0.125 3.1375
1.8125 0.0625 3.1375
2 0 3.1375
1.9375 0 3.2
2 0.0625 3.2
2 0.125 3.1375
1.9375 0.125 3.2
1.9375 0 3.1375
2 0.0625 3.1375
1.9375 0.0625 3.2
1.9375 0.125 3.1375
1.9375 0.0625 3.1375
2.125 0 3.1375
2.0625 0 3.2
2.125 0.0625 3.2
2.125 0.125 3.1375
2.0625 0.125 3.2
2.0625 0 3.1375
2.125 0.0625 3.1375
2.0625 0.0625 3.2
2.0625 0.125 3.1375
2.0625 0.0625 3.1375
2.25 0 3.1375
2.1875 0 3.2
2.25 0.0625 3.2
2.25 0.125 3.1375
2.1875 0.125 3.2
2.1875 0 3.1375
2.25 0.0625 3.1375
2.1875 0.0625 3.2
2.1875 0.125 3.1375
2.1875 0.0625 3.1375
2.375 0 3.1375
2.3125 0 3.2
2.375 0.0625 3.2
2.375 0.125 3.1375
2.3125 0.125 3.2
2.3125 0 3.1375
2.375 0.0625 3.1375
2.3125 0.0625 3.2
2.3125 0.125 3.1375
2.3125 0.0625 3.1375
2.5 0 3.1375
2.4375 0 3.2
2.5 0.0625 3.2
2.5 0.125 3.1375
2.4375 0.125 3.2
2.4375 0 3.1375
2.5 0.0625 3.1375
2.4375 0.0625 3.2
2.4375 0.125 3.1375
2.4375 0.0625 3.1375
2.625 0 3.1375
2.5625 0 3.2
2.625 0.0625 3.2
2.625 0.125 3.1375
2.5625 0.125 3.2
2.5625 0 3.1375
2.625 0.0625 3.1375
2.5625 0.0625 3.2
2.5625 0.125 3.1375
2.5625 0.0625 3.1375
2.75 0 3.1375
2.6875 0 3.2
2.75 0.0625 3.2
2.75 0.125 3.1375
2.6875 0.125 3.2
2.6875 0 3.1375
2.75 0.0625 3.1375
2.6875 0.0625 3.2
2.6875 0.125 3.1375
2.6875 0.0625 3.1375
2.875 0 3.1375
2.8125 0 3.2
2.875 0.0625 3.2
2.875 0.125 3.1375
2.8125 0.125 3.2
2.8125 0 3.1375
2.875 0.0625 3.1375
2.8125 0.0625 3.2
2.8125 0.125 3.1375
2.8125 0.0625 3.1375
3 0 3.1375
2.9375 0 3.2
3 0.0625 3.2
3 0.125 3.1375
2.9375 0.125 3.2
2.9375 0 3.1375
3 0.0625 3.1375
2.9375 0.0625 3.2
2.9375 0.125 3.1375
2.9375 0.0625 3.1375
0.125 0.1875 3.2
0 0.1875 3.2
0.125 0.25 3.1375
0.0625 0.25 3.2
0 0.25 3.1375
0.125 0.1875 3.1375
0.0625 0.1875 3.2
0 0.1875 3.1375
0.0625 0.25 3.1375
0.0625 0.1875 3.1375
0.25 0.1875 3.2
0.25 0.25 3.1375
0.1875 0.25 3.2
0.25 0.1875 3.1375
0.1875 0.1875 3.2
0.1875 0.25 3.1375
0.1875 0.1875 3.1375
0.375 0.1875 3.2
0.375 0.25 3.1375
0.3125 0.25 3.2
0.375 0.1875 3.1375
0.3125 0.1875 3.2
0.3125 0.25 3.1375
0.3125 0.1875 3.1375
0.5 0.1875 3.2
0.5 0.25 3.1375
0.4375 0.25 3.2
0.5 0.1875 3.1375
0.4375 0.1875 3.2
0.4375 0.25 3.1375
0.4375 0.1875 3.1375
0.625 0.1875 3.2
0.625 0.25 3.1375
0.5625 0.25 3.2
0.625 0.1875 3.1375
0.5625 0.1875 3.2
0.5625 0.25 3.1375
0.5625 0.1875 3.1375
0.75 0.1875 3.2
0.75 0.25 3.1375
0.6875 0.25 3.2
0.75 0.1875 3.1375
0.6875 0.1875 3.2
0.6875 0.25 3.1375
0.6875 0.1875 3.1375
0.875 0.1875 3.2
0.875 0.25 3.1375
0.8125 0.25 3.2
0.875 0.1875 3.1375
0.8125 0.1875 3.2
0.8125 0.25 3.1375
0.8125 0.1875 3.1375
1 0.1875 3.2
1 0.25 3.1375
0.9375 0.25 3.2
1 0.1875 3.1375
0.9375 0.1875 3.2
0.9375 0.25 3.1375
0.9375 0.1875 3.1375
1.125 0.1875 3.2
1.125 0.25 3.1375
1.0625 0.25 3.2
1.125 0.1875 3.1375
1.0625 0.1875 3.2
1.0625 0.25 3.1375
1.0625 0.1875 3.1375
1.25 0.1875 3.2
1.25 0.25 3.1375
1.1875 0.25 3.2
1.25 0.1875 3.1375
1.1875 0.1875 3.2
1.1875 0.25 3.1375
1.1875 0.1875 3.1375
1.375 0.1875 3.2
1.375 0.25 3.1375
1.3125 0.25 3.2
1.375 0.1875 3.1375
1.3125 0.1875 3.2
1.3125 0.25 3.1375
1.3125 0.1875 3.1375
1.5 0.1875 3.2
1.5 0.25 3.1375
1.4375 0.25 3.2
1.5 0.1875 3.1375
1.4375 0.1875 3.2
1.4375 0.25 3.1375
1.4375 0.1875 3.1375
1.625 0.1875 3.2
1.625 0.25 3.1375
1.5625 0.25 3.2
1.625 0.1875 3.1375
1.5625 0.1875 3.2
1.5625 0.25 3.1375
1.5625 0.1875 3.1375
1.75 0.1875 3.2
1.75 0.25 3.1375
1.6875 0.25 3.2
1.75 0.1875 3.1375
1.6875 0.1875 3.2
1.6875 0.25 3.1375
1.6875 0.1875 3.1375
1.875 0.1875 3.2
1.875 0.25 3.1375
1.8125 0.25 3.2
1.875 0.1875 3.1375
1.8125 0.1875 3.2
1.8125 0.25 3.1375
1.8125 0.1875 3.1375
2 0.1875 3.2
2 0.25 3.1375
1.9375 0.25 3.2
2 0.1875 3.1375
1.9375 0.1875 3.2
1.9375 0.25 3.1375
1.9375 0.1875 3.1375
2.125 0.1875 3.2
2.125 0.25 3.1375
2.0625 0.25 3.2
2.125 0.1875 3.1375
2.0625 0.1875 3.2
2.0625 0.25 3.1375
2.0625 0.1875 3.1375
2.25 0.1875 3.2
2.25 0.25 3.1375
2.1875 0.25 3.2
2.25 0.1875 3.1375
2.1875 0.1875 3.2
2.1875 0.25 3.1375
2.1875 0.1875 3.1375
2.375 0.1875 3.2
2.375 0.25 3.1375
2.3125 0.25 3.2
2.375 0.1875 3.1375
2.3125 0.1875 3.2
2.3125 0.25 3.1375
2.3125 0.1875 3.1375
2.5 0.1875 3.2
2.5 0.25 3.1375
2.4375 0.25 3.2
2.5 0.1875 3.1375
2.4375 0.1875 3.2
2.4375 0.25 3.1375
2.4375 0.1875 3.1375
2.625 0.1875 3.2
2.625 0.25 3.1375
2.5625 0.25 3.2
2.625 0.1875 3.1375
2.5625 0.1875 3.2
2.5625 0.25 3.1375
2.5625 0.1875 3.1375
2.75 0.1875 3.2
2.75 0.25 3.1375
2.6875 0.25 3.2
2.75 0.1875 3.1375
2.6875 0.1875 3.2
2.6875 0.25 3.1375
2.6875 0.1875 3.1375
2.875 0.1875 3.2
2.875 0.25 3.1375
2.8125 0.25 3.2
2.875 0.1875 3.1375
2.8125 0.1875 3.2
2.8125 0.25 3.1375
2.8125 0.1875 3.1375
3 0.1875 3.2
3 0.25 3.1375
2.9375 0.25 3.2
3 0.1875 3.1375
2.9375 0.1875 3.2
2.9375 0.25 3.1375
2.9375 0.1875 3.1375
0.125 0.3125 3.2
0 0.3125 3.2
0.125 0.375 3.1375
0.0625 0.375 3.2
0 0.375 3.1375
0.125 0.3125 3.1375
0.0625 0.3125 3.2
0 0.3125 3.1375
0.0625 0.375 3.1375
0.0625 0.3125 3.1375
0.25 0.3125 3.2
0.25 0.375 3.1375
0.1875 0.375 3.2
0.25 0.3125 3.1375
0.1875 0.3125 3.2
0.1875 0.375 3.1375
0.1875 0.3125 3.1375
0.375 0.3125 3.2
0.375 0.375 3.1375
0.3125 0.375 3.2
0.375 0.3125 3.1375
0.3125 0.3125 3.2
0.3125 0.375 3.1375
0.3125 0.3125 3.1375
0.5 0.3125 3.2
0.5 0.375 3.1375
0.4375 0.375 3.2
0.5 0.3125 3.1375
0.4375 0.3125 3.2
0.4375 0.375 3.1375
0.4375 0.3125 3.1375
0.625 0.3125 3.2
0.625 0.375 3.1375
0.5625 0.375 3.2
0.625 0.3125 3.1375
0.5625 0.3125 3.2
0.5625 0.375 3.1375
0.5625 0.3125 3.1375
0.75 0.3125 3.2
0.75 0.375 3.1375
0.6875 0.375 3.2
0.75 0.3125 3.1375
0.6875 0.3125 3.2
0.6875 0.375 3.1375
0.6875 0.3125 3.1375
0.875 0.3125 3.2
0.875 0.375 3.1375
0.8125 0.375 3.2
0.875 0.3125 3.1375
0.8125 0.3125 3.2
0.8125 0.375 3.1375
0.8125 0.3125 3.1375
1 0.3125 3.2
1 0.375 3.1375
0.9375 0.375 3.2
1 0.3125 3.1375
0.9375 0.3125 3.2
0.9375 0.375 3.1375
0.9375 0.3125 3.1375
1.125 0.3125 3.2
1.125 0.375 3.1375
1.0625 0.375 3.2
1.125 0.3125 3.1375
1.0625 0.3125 3.2
1.0625 0.375 3.1375
1.0625 0.3125 3.1375
1.25 0.3125 3.2
1.25 0.375 3.1375
1.1875 0.375 3.2
1.25 0.3125 3.1375
1.1875 0.3125 3.2
1.1875 0.375 3.1375
1.1875 0.3125 3.1375
1.375 0.3125 3.2
1.375 0.375 3.1375
1.3125 0.375 3.2
1.375 0.3125 3.1375
1.3125 0.3125 3.2
1.3125 0.375 3.1375
1.3125 0.3125 3.1375
1.5 0.3125 3.2
1.5 0.375 3.1375
1.4375 0.375 3.2
1.5 0.3125 3.1375
1.4375 0.3125 3.2
1.4375 0.375 3.1375
1.4375 0.3125 3.1375
1.625 0.3125 3.2
1.625 0.375 3.1375
1.5625 0.375 3.2
1.625 0.3125 3.1375
1.5625 0.3125 3.2
1.5625 0.375 3.1375
1.5625 0.3125 3.1375
1.75 0.3125 3.2
1.75 0.375 3.1375
1.6875 0.375 3.2
1.75 0.3125 3.1375
1.6875 0.3125 3.2
1.6875 0.375 3.1375
1.6875 0.3125 3.1375
1.875 0.3125 3.2
1.875 0.375 3.1375
1.8125 0.375 3.2
1.875 0.3125 3.1375
1.8125 0.3125 3.2
1.8125 0.375 3.1375
1.8125 0.3125 3.1375
2 0.3125 3.2
2 0.375 3.1375
1.9375 0.375 3.2
2 0.3125 3.1375
1.9375 0.3125 3.2
1.9375 0.375 3.1375
1.9375 0.3125 3.1375
2.125 0.3125 3.2
2.125 0.375 3.1375
2.0625 0.375 3.2
2.125 0.3125 3.1375
2.0625 0.3125 3.2
2.0625 0.375 3.1375
2.0625 0.3125 3.1375
2.25 0.3125 3.2
2.25 0.375 3.1375
2.1875 0.375 3.2
2.25 0.3125 3.1375
2.1875 0.3125 3.2
2.1875 0.375 3.1375
2.1875 0.3125 3.1375
2.375 0.3125 3.2
2.375 0.375 3.1375
2.3125 0.375 3.2
2.375 0.3125 3.1375
2.3125 0.3125 3.2
2.3125 0.375 3.1375
2.3125 0.3125 3.1375
2.5 0.3125 3.2
2.5 0.375 3.1375
2.4375 0.375 3.2
2.5 0.3125 3.1375
2.4375 0.3125 3.2
2.4375 0.375 3.1375
2.4375 0.3125 3.1375
2.625 0.3125 3.2
2.625 0.375 3.1375
2.5625 0.375 3.2
2.625 0.3125 3.1375
2.5625 0.3125 3.2
2.5625 0.375 3.1375
2.5625 0.3125 3.1375
2.75 0.3125 3.2
2.75 0.375 3.1375
2.6875 0.375 3.2
2.75 0.3125 3.1375
2.6875 0.3125 3.2
2.6875 0.375 3.1375
2.6875 0.3125 3.1375
2.875 0.3125 3.2
2.875 0.375 3.1375
2.8125 0.375 3.2
2.875 0.3125 3.1375
2.8125 0.3125 3.2
2.8125 0.375 3.1375
2.8125 0.3125 3.1375
3 0.3125 3.2
3 0.375 3.1375
2.9375 0.375 3.2
3 0.3125 3.1375
2.9375 0.3125 3.2
2.9375 0.375 3.1375
2.9375 0.3125 3.1375
0.125 0.4375 3.2
0 0.4375 3.2
0.125 0.5 3.1375
0.0625 0.5 3.2
0 0.5 3.1375
0.125 0.4375 3.1375
0.0625 0.4375 3.2
0 0.4375 3.1375
0.0625 0.5 3.1375
0.0625 0.4375 3.1375
0.25 0.4375 3.2
0.25 0.5 3.1375
0.1875 0.5 3.2
0.25 0.4375 3.1375
0.1875 0.4375 3.2
0.1875 0.5 3.1375
0.1875 0.4375 3.1375
0.375 0.4375 3.2
0.375 0.5 3.1375
0.3125 0.5 3.2
0.375 0.4375 3.1375
0.3125 0.4375 3.2
0.3125 0.5 3.1375
0.3125 0.4375 3.1375
0.5 0.4375 3.2
0.5 0.5 3.1375
0.4375 0.5 3.2
0.5 0.4375 3.1375
0.4375 0.4375 3.2
0.4375 0.5 3.1375
0.4375 0.4375 3.1375
0.625 0.4375 3.2
0.625 0.5 3.1375
0.5625 0.5 3.2
0.625 0.4375 3.1375
0.5625 0.4375 3.2
0.5625 0.5 3.1375
0.5625 0.4375 3.1375
0.75 0.4375 3.2
0.75 0.5 3.1375
0.6875 0.5 3.2
0.75 0.4375 3.1375
0.6875 0.4375 3.2
0.6875 0.5 3.1375
0.6875 0.4375 3.1375
0.875 0.4375 3.2
0.875 0.5 3.1375
0.8125 0.5 3.2
0.875 0.4375 3.1375
0.8125 0.4375 3.2
0.8125 0.5 3.1375
0.8125 0.4375 3.1375
1 0.4375 3.2
1 0.5 3.1375
0.9375 0.5 3.2
1 0.4375 3.1375
0.9375 0.4375 3.2
0.9375 0.5 3.1375
0.9375 0.4375 3.1375
1.125 0.4375 3.2
1.125 0.5 3.1375
1.0625 0.5 3.2
1.125 0.4375 3.1375
1.0625 0.4375 3.2
1.0625 0.5 3.1375
1.0625 0.4375 3.1375
1.25 0.4375 3.2
1.25 0.5 3.1375
1.1875 0.5 3.2
1.25 0.4375 3.1375
1.1875 0.4375 3.2
1.1875 0.5 3.1375
1.1875 0.4375 3.1375
1.375 0.4375 3.2
1.375 0.5 3.1375
1.3125 0.5 3.2
1.375 0.4375 3.1375
1.3125 0.4375 3.2
1.3125 0.5 3.1375
1.3125 0.4375 3.1375
1.5 0.4375 3.2
1.5 0.5 3.1375
1.4375 0.5 3.2
1.5 0.4375 3.1375
1.4375 0.4375 3.2
1.4375 0.5 3.1375
1.4375 0.4375 3.1375
1.625 0.4375 3.2
1.625 0.5 3.1375
1.5625 0.5 3.2
1.625 0.4375 3.1375
1.5625 0.4375 3.2
1.5625 0.5 3.1375
1.5625 0.4375 3.1375
1.75 0.4375 3.2
1.75 0.5 3.1375
1.6875 0.5 3.2
1.75 0.4375 3.1375
1.6875 0.4375 3.2
1.6875 0.5 3.1375
1.6875 0.4375 3.1375
1.875 0.4375 3.2
1.875 0.5 3.1375
1.8125 0.5 3.2
1.875 0.4375 3.1375
1.8125 0.4375 3.2
1.8125 0.5 3.1375
1.8125 0.4375 3.1375
2 0.4375 3.2
2 0.5 3.1375
1.9375 0.5 3.2
2 0.4375 3.1375
1.9375 0.4375 3.2
1.9375 0.5 3.1375
1.9375 0.4375 3.1375
2.125 0.4375 3.2
2.125 0.5 3.1375
2.0625 0.5 3.2
2.125 0.4375 3.1375
2.0625 0.4375 3.2
2.0625 0.5 3.1375
2.0625 0.4375 3.1375
2.25 0.4375 3.2
2.25 0.5 3.1375
2.1875 0.5 3.2
2.25 0.4375 3.1375
2.1875 0.4375 3.2
2.1875 0.5 3.1375
2.1875 0.4375 3.1375
2.375 0.4375 3.2
2.375 0.5 3.1375
2.3125 0.5 3.2
2.375 0.4375 3.1375
2.3125 0.4375 3.2
2.3125 0.5 3.1375
2.3125 0.4375 3.1375
2.5 0.4375 3.2
2.5 0.5 3.1375
2.4375 0.5 3.2
2.5 0.4375 3.1375
2.4375 0.4375 3.2
2.4375 0.5 3.1375
2.4375 0.4375 3.1375
2.625 0.4375 3.2
2.625 0.5 3.1375
2.5625 0.5 3.2
2.625 0.4375 3.1375
2.5625 0.4375 3.2
2.5625 0.5 3.1375
2.5625 0.4375 3.1375
2.75 0.4375 3.2
2.75 0.5 3.1375
2.6875 0.5 3.2
2.75 0.4375 3.1375
2.6875 0.4375 3.2
2.6875 0.5 3.1375
2.6875 0.4375 3.1375
2.875 0.4375 3.2
2.875 0.5 3.1375
2.8125 0.5 3.2
2.875 0.4375 3.1375
2.8125 0.4375 3.2
2.8125 0.5 3.1375
2.8125 0.4375 3.1375
3 0.4375 3.2
3 0.5 3.1375
2.9375 0.5 3.2
3 0.4375 3.1375
2.9375 0.4375 3.2
2.9375 0.5 3.1375
2.9375 0.4375 3.1375
0.125 0.5625 3.2
0 0.5625 3.2
0.125 0.625 3.1375
0.0625 0.625 3.2
0 0.625 3.1375
0.125 0.5625 3.1375
0.0625 0.5625 3.2
0 0.5625 3.1375
0.0625 0.625 3.1375
0.0625 0.5625 3.1375
0.25 0.5625 3.2
0.25 0.625 3.1375
0.1875 0.625 3.2
0.25 0.5625 3.1375
0.1875 0.5625 3.2
0.1875 0.625 3.1375
0.1875 0.5625 3.1375
0.375 0.5625 3.2
0.375 0.625 3.1375
0.3125 0.625 3.2
0.375 0.5625 3.1375
0.3125 0.5625 3.2
0.3125 0.625 3.1375
0.3125 0.5625 3.1375
0.5 0.5625 3.2
0.5 0.625 3.1375
0.4375 0.625 3.2
0.5 0.5625 3.1375
0.4375 0.5625 3.2
0.4375 0.625 3.1375
0.4375 0.5625 3.1375
0.625 0.5625 3.2
0.625 0.625 3.1375
0.5625 0.625 3.2
0.625 0.5625 3.1375
0.5625 0.5625 3.2
0.5625 0.625 3.1375
0.5625 0.5625 3.1375
0.75 0.5625 3.2
0.75 0.625 3.1375
0.6875 0.625 3.2
0.75 0.5625 3.1375
0.6875 0.5625 3.2
0.6875 0.625 3.1375
0.6875 0.5625 3.1375
0.875 0.5625 3.2
0.875 0.625 3.1375
0.8125 0.625 3.2
0.875 0.5625 3.1375
0.8125 0.5625 3.2
0.8125 0.625 3.1375
0.8125 0.5625 3.1375
1 0.5625 3.2
1 0.625 3.1375
0.9375 0.625 3.2
1 0.5625 3.1375
0.9375 0.5625 3.2
0.9375 0.625 3.1375
0.9375 0.5625 3.1375
1.125 0.5625 3.2
1.125 0.625 3.1375
1.0625 0.625 3.2
1.125 0.5625 3.1375
1.0625 0.5625 3.2
1.0625 0.625 3.1375
1.0625 0.5625 3.1375
1.25 0.5625 3.2
1.25 0.625 3.1375
1.1875 0.625 3.2
1.25 0.5625 3.1375
1.1875 0.5625 3.2
1.1875 0.625 3.1375
1.1875 0.5625 3.1375
1.375 0.5625 3.2
1.375 0.625 3.1375
1.3125 0.625 3.2
1.375 0.5625 3.1375
1.3125 0.5625 3.2
1.3125 0.625 3.1375
1.3125 0.5625 3.1375
1.5 0.5625 3.2
1.5 0.625 3.1375
1.4375 0.625 3.2
1.5 0.5625 3.1375
1.4375 0.5625 3.2
1.4375 0.625 3.1375
1.4375 0.5625 3.1375
1.625 0.5625 3.2
1.625 0.625 3.1375
1.5625 0.625 3.2
1.625 0.5625 3.1375
1.5625 0.5625 3.2
1.5625 0.625 3.1375
1.5625 0.5625 3.1375
1.75 0.5625 3.2
1.75 0.625 3.1375
1.6875 0.625 3.2
1.75 0.5625 3.1375
1.6875 0.5625 3.2
1.6875 0.625 3.1375
1.6875 0.5625 3.1375
1.875 0.5625 3.2
1.875 0.625 3.1375
1.8125 0.625 3.2
1.875 0.5625 3.1375
1.8125 0.5625 3.2
1.8125 0.625 3.1375
1.8125 0.5625 3.1375
2 0.5625 3.2
2 0.625 3.1375
1.9375 0.625 3.2
2 0.5625 3.1375
1.9375 0.5625 3.2
1.9375 0.625 3.1375
1.9375 0.5625 3.1375
2.125 0.5625 3.2
2.125 0.625 3.1375
2.0625 0.625 3.2
2.125 0.5625 3.1375
2.0625 0.5625 3.2
2.0625 0.625 3.1375
2.0625 0.5625 3.1375
2.25 0.5625 3.2
2.25 0.625 3.1375
2.1875 0.625 3.2
2.25 0.5625 3.1375
2.1875 0.5625 3.2
2.1875 0.625 3.1375
2.1875 0.5625 3.1375
2.375 0.5625 3.2
2.375 0.625 3.1375
2.3125 0.625 3.2
2.375 0.5625 3.1375
2.3125 0.5625 3.2
2.3125 0.625 3.1375
2.3125 0.5625 3.1375
2.5 0.5625 3.2
2.5 0.625 3.1375
2.4375 0.625 3.2
2.5 0.5625 3.1375
2.4375 0.5625 3.2
2.4375 0.625 3.1375
2.4375 0.5625 3.1375
2.625 0.5625 3.2
2.625 0.625 3.1375
2.5625 0.625 3.2
2.625 0.5625 3.1375
2.5625 0.5625 3.2
2.5625 0.625 3.1375
2.5625 0.5625 3.1375
2.75 0.5625 3.2
2.75 0.625 3.1375
2.6875 0.625 3.2
2.75 0.5625 3.1375
2.6875 0.5625 3.2
2.6875 0.625 3.1375
2.6875 0.5625 3.1375
2.875 0.5625 3.2
2.875 0.625 3.1375
2.8125 0.625 3.2
2.875 0.5625 3.1375
2.8125 0.5625 3.2
2.8125 0.625 3.1375
2.8125 0.5625 3.1375
3 0.5625 3.2
3 0.625 3.1375
2.9375 0.625 3.2
3 0.5625 3.1375
2.9375 0.5625 3.2
2.9375 0.625 3.1375
2.9375 0.5625 3.1375
0.125 0.6875 3.2
0 0.6875 3.2
0.125 0.75 3.1375
0.0625 0.75 3.2
0 0.75 3.1375
0.125 0.6875 3.1375
0.0625 0.6875 3.2
0 0.6875 3.1375
0.0625 0.75 3.1375
0.0625 0.6875 3.1375
0.25 0.6875 3.2
0.25 0.75 3.1375
0.1875 0.75 3.2
0.25 0.6875 3.1375
0.1875 0.6875 3.2
0.1875 0.75 3.1375
0.1875 0.6875 3.1375
0.375 0.6875 3.2
0.375 0.75 3.1375
0.3125 0.75 3.2
0.375 0.6875 3.1375
0.3125 0.6875 3.2
0.3125 0.75 3.1375
0.3125 0.6875 3.1375
0.5 0.6875 3.2
0.5 0.75 3.1375
0.4375 0.75 3.2
0.5 0.6875 3.1375
0.4375 0.6875 3.2
0.4375 0.75 3.1375
0.4375 0.6875 3.1375
0.625 0.6875 3.2
0.625 0.75 3.1375
0.5625 0.75 3.2
0.625 0.6875 3.1375
0.5625 0.6875 3.2
0.5625 0.75 3.1375
0.5625 0.6875 3.1375
0.75 0.6875 3.2
0.75 0.75 3.1375
0.6875 0.75 3.2
0.75 0.6875 3.1375
0.6875 0.6875 3.2
0.6875 0.75 3.1375
0.6875 0.6875 3.1375
0.875 0.6875 3.2
0.875 0.75 3.1375
0.8125 0.75 3.2
0.875 0.6875 3.1375
0.8125 0.6875 3.2
0.8125 0.75 3.1375
0.8125 0.6875 3.1375
1 0.6875 3.2
1 0.75 3.1375
0.9375 0.75 3.2
1 0.6875 3.1375
0.9375 0.6875 3.2
0.9375 0.75 3.1375
0.9375 0.6875 3.1375
1.125 0.6875 3.2
1.125 0.75 3.1375
1.0625 0.75 3.2
1.125 0.6875 3.1375
1.0625 0.6875 3.2
1.0625 0.75 3.1375
1.0625 0.6875 3.1375
1.25 0.6875 3.2
1.25 0.75 3.1375
1.1875 0.75 3.2
1.25 0.6875 3.1375
1.1875 0.6875 3.2
1.1875 0.75 3.1375
1.1875 0.6875 3.1375
1.375 0.6875 3.2
1.375 0.75 3.1375
1.3125 0.75 3.2
1.375 0.6875 3.1375
1.3125 0.6875 3.2
1.3125 0.75 3.1375
1.3125 0.6875 3.1375
1.5 0.6875 3.2
1.5 0.75 3.1375
1.4375 0.75 3.2
1.5 0.6875 3.1375
1.4375 0.6875 3.2
1.4375 0.75 3.1375
1.4375 0.6875 3.1375
1.625 0.6875 3.2
1.625 0.75 3.1375
1.5625 0.75 3.2
1.625 0.6875 3.1375
1.5625 0.6875 3.2
1.5625 0.75 3.1375
1.5625 0.6875 3.1375
1.75 0.6875 3.2
1.75 0.75 3.1375
1.6875 0.75 3.2
1.75 0.6875 3.1375
1.6875 0.6875 3.2
1.6875 0.75 3.1375
1.6875 0.6875 3.1375
1.875 0.6875 3.2
1.875 0.75 3.1375
1.8125 0.75 3.2
1.875 0.6875 3.1375
1.8125 0.6875 3.2
1.8125 0.75 3.1375
1.8125 0.6875 3.1375
2 0.6875 3.2
2 0.75 3.1375
1.9375 0.75 3.2
2 0.6875 3.1375
1.9375 0.6875 3.2
1.9375 0.75 3.1375
1.9375 0.6875 3.1375
2.125 0.6875 3.2
2.125 0.75 3.1375
2.0625 0.75 3.2
2.125 0.6875 3.1375
2.0625 0.6875 3.2
2.0625 0.75 3.1375
2.0625 0.6875 3.1375
2.25 0.6875 3.2
2.25 0.75 3.1375
2.1875 0.75 3.2
2.25 0.6875 3.1375
2.1875 0.6875 3.2
2.1875 0.75 3.1375
2.1875 0.6875 3.1375
2.375 0.6875 3.2
2.375 0.75 3.1375
2.3125 0.75 3.2
2.375 0.6875 3.1375
2.3125 0.6875 3.2
2.3125 0.75 3.1375
2.3125 0.6875 3.1375
2.5 0.6875 3.2
2.5 0.75 3.1375
2.4375 0.75 3.2
2.5 0.6875 3.1375
2.4375 0.6875 3.2
2.4375 0.75 3.1375
2.4375 0.6875 3.1375
2.625 0.6875 3.2
2.625 0.75 3.1375
2.5625 0.75 3.2
2.625 0.6875 3.1375
2.5625 0.6875 3.2
2.5625 0.75 3.1375
2.5625 0.6875 3.1375
2.75 0.6875 3.2
2.75 0.75 3.1375
2.6875 0.75 3.2
2.75 0.6875 3.1375
2.6875 0.6875 3.2
2.6875 0.75 3.1375
2.6875 0.6875 3.1375
2.875 0.6875 3.2
2.875 0.75 3.1375
2.8125 0.75 3.2
2.875 0.6875 3.1375
2.8125 0.6875 3.2
2.8125 0.75 3.1375
2.8125 0.6875 3.1375
3 0.6875 3.2
3 0.75 3.1375
2.9375 0.75 3.2
3 0.6875 3.1375
2.9375 0.6875 3.2
2.9375 0.75 3.1375
2.9375 0.6875 3.1375
0.125 0.8125 3.2
0 0.8125 3.2
0.125 0.875 3.1375
0.0625 0.875 3.2
0 0.875 3.1375
0.125 0.8125 3.1375
0.0625 0.8125 3.2
0 0.8125 3.1375
0.0625 0.875 3.1375
0.0625 0.8125 3.1375
0.25 0.8125 3.2
0.25 0.875 3.1375
0.1875 0.875 3.2
0.25 0.8125 3.1375
0.1875 0.8125 3.2
0.1875 0.875 3.1375
0.1875 0.8125 3.1375
0.375 0.8125 3.2
0.375 0.875 3.1375
0.3125 0.875 3.2
0.375 0.8125 3.1375
0.3125 0.8125 3.2
0.3125 0.875 3.1375
0.3125 0.8125 3.1375
0.5 0.8125 3.2
0.5 0.875 3.1375
0.4375 0.875 3.2
0.5 0.8125 3.1375
0.4375 0.8125 3.2
0.4375 0.875 3.1375
0.4375 0.8125 3.1375
0.625 0.8125 3.2
0.625 0.875 3.1375
0.5625 0.875 3.2
0.625 0.8125 3.1375
0.5625 0.8125 3.2
0.5625 0.875 3.1375
0.5625 0.8125 3.1375
0.75 0.8125 3.2
0.75 0.875 3.1375
0.6875 0.875 3.2
0.75 0.8125 3.1375
0.6875 0.8125 3.2
0.6875 0.875 3.1375
0.6875 0.8125 3.1375
0.875 0.8125 3.2
0.875 0.875 3.1375
0.8125 0.875 3.2
0.875 0.8125 3.1375
0.8125 0.8125 3.2
0.8125 0.875 3.1375
0.8125 0.8125 3.1375
1 0.8125 3.2
1 0.875 3.1375
0.9375 0.875 3.2
1 0.8125 3.1375
0.9375 0.8125 3.2
0.9375 0.875 3.1375
0.9375 0.8125 3.1375
1.125 0.8125 3.2
1.125 0.875 3.1375
1.0625 0.875 3.2
1.125 0.8125 3.1375
1.0625 0.8125 3.2
1.0625 0.875 3.1375
1.0625 0.8125 3.1375
1.25 0.8125 3.2
1.25 0.875 3.1375
1.1875 0.875 3.2
1.25 0.8125 3.1375
1.1875 0.8125 3.2
1.1875 0.875 3.1375
1.1875 0.8125 3.1375
1.375 0.8125 3.2
1.375 0.875 3.1375
1.3125 0.875 3.2
1.375 0.8125 3.1375
1.3125 0.8125 3.2
1.3125 0.875 3.1375
1.3125 0.8125 3.1375
1.5 0.8125 3.2
1.5 0.875 3.1375
1.4375 0.875 3.2
1.5 0.8125 3.1375
1.4375 0.8125 3.2
1.4375 0.875 3.1375
1.4375 0.8125 3.1375
1.625 0.8125 3.2
1.625 0.875 3.1375
1.5625 0.875 3.2
1.625 0.8125 3.1375
1.5625 0.8125 3.2
1.5625 0.875 3.1375
1.5625 0.8125 3.1375
1.75 0.8125 3.2
1.75 0.875 3.1375
1.6875 0.875 3.2
1.75 0.8125 3.1375
1.6875 0.8125 3.2
1.6875 0.875 3.1375
1.6875 0.8125 3.1375
1.875 0.8125 3.2
1.875 0.875 3.1375
1.8125 0.875 3.2
1.875 0.8125 3.1375
1.8125 0.8125 3.2
1.8125 0.875 3.1375
1.8125 0.8125 3.1375
2 0.8125 3.2
2 0.875 3.1375
1.9375 0.875 3.2
2 0.8125 3.1375
1.9375 0.8125 3.2
1.9375 0.875 3.1375
1.9375 0.8125 3.1375
2.125 0.8125 3.2
2.125 0.875 3.1375
2.0625 0.875 3.2
2.125 0.8125 3.1375
2.0625 0.8125 3.2
2.0625 0.875 3.1375
2.0625 0.8125 3.1375
2.25 0.8125 3.2
2.25 0.875 3.1375
2.1875 0.875 3.2
2.25 0.8125 3.1375
2.1875 0.8125 3.2
2.1875 0.875 3.1375
2.1875 0.8125 3.1375
2.375 0.8125 3.2
2.375 0.875 3.1375
2.3125 0.875 3.2
2.375 0.8125 3.1375
2.3125 0.8125 3.2
2.3125 0.875 3.1375
2.3125 0.8125 3.1375
2.5 0.8125 3.2
2.5 0.875 3.1375
2.4375 0.875 3.2
2.5 0.8125 3.1375
2.4375 0.8125 3.2
2.4375 0.875 3.1375
2.4375 0.8125 3.1375
2.625 0.8125 3.2
2.625 0.875 3.1375
2.5625 0.875 3.2
2.625 0.8125 3.1375
2.5625 0.8125 3.2
2.5625 0.875 3.1375
2.5625 0.8125 3.1375
2.75 0.8125 3.2
2.75 0.875 3.1375
2.6875 0.875 3.2
2.75 0.8125 3.1375
2.6875 0.8125 3.2
2.6875 0.875 3.1375
2.6875 0.8125 3.1375
2.875 0.8125 3.2
2.875 0.875 3.1375
2.8125 0.875 3.2
2.875 0.8125 3.1375
2.8125 0.8125 3.2
2.8125 0.875 3.1375
2.8125 0.8125 3.1375
3 0.8125 3.2
3 0.875 3.1375
2.9375 0.875 3.2
3 0.8125 3.1375
2.9375 0.8125 3.2
2.9375 0.875 3.1375
2.9375 0.8125 3.1375
0.125 0.9375 3.2
0 0.9375 3.2
0.125 1 3.1375
0.0625 1 3.2
0 1 3.1375
0.125 0.9375 3.1375
0.0625 0.9375 3.2
0 0.9375 3.1375
0.0625 1 3.1375
0.0625 0.9375 3.1375
0.25 0.9375 3.2
0.25 1 3.1375
0.1875 1 3.2
0.25 0.9375 3.1375
0.1875 0.9375 3.2
0.1875 1 3.1375
0.1875 0.9375 3.1375
0.375 0.9375 3.2
0.375 1 3.1375
0.3125 1 3.2
0.375 0.9375 3.1375
0.3125 0.9375 3.2
0.3125 1 3.1375
0.3125 0.9375 3.1375
0.5 0.9375 3.2
0.5 1 3.1375
0.4375 1 3.2
0.5 0.9375 3.1375
0.4375 0.9375 3.2
0.4375 1 3.1375
0.4375 0.9375 3.1375
0.625 0.9375 3.2
0.625 1 3.1375
0.5625 1 3.2
0.625 0.9375 3.1375
0.5625 0.9375 3.2
0.5625 1 3.1375
0.5625 0.9375 3.1375
0.75 0.9375 3.2
0.75 1 3.1375
0.6875 1 3.2
0.75 0.9375 3.1375
0.6875 0.9375 3.2
0.6875 1 3.1375
0.6875 0.9375 3.1375
0.875 0.9375 3.2
0.875 1 3.1375
0.8125 1 3.2
0.875 0.9375 3.1375
0.8125 0.9375 3.2
0.8125 1 3.1375
0.8125 0.9375 3.1375
1 0.9375 3.2
1 1 3.1375
0.9375 1 3.2
1 0.9375 3.1375
0.9375 0.9375 3.2
0.9375 1 3.1375
0.9375 0.9375 3.1375
1.125 0.9375 3.2
1.125 1 3.1375
1.0625 1 3.2
1.125 0.9375 3.1375
1.0625 0.9375 3.2
1.0625 1 3.1375
1.0625 0.9375 3.1375
1.25 0.9375 3.2
1.25 1 3.1375
1.1875 1 3.2
1.25 0.9375 3.1375
1.1875 0.9375 3.2
1.1875 1 3.1375
1.1875 0.9375 3.1375
1.375 0.9375 3.2
1.375 1 3.1375
1.3125 1 3.2
1.375 0.9375 3.1375
1.3125 0.9375 3.2
1.3125 1 3.1375
1.3125 0.9375 3.1375
1.5 0.9375 3.2
1.5 1 3.1375
1.4375 1 3.2
1.5 0.9375 3.1375
1.4375 0.9375 3.2
1.4375 1 3.1375
1.4375 0.9375 3.1375
1.625 0.9375 3.2
1.625 1 3.1375
1.5625 1 3.2
1.625 0.9375 3.1375
1.5625 0.9375 3.2
1.5625 1 3.1375
1.5625 0.9375 3.1375
1.75 0.9375 3.2
1.75 1 3.1375
1.6875 1 3.2
1.75 0.9375 3.1375
1.6875 0.9375 3.2
1.6875 1 3.1375
1.6875 0.9375 3.1375
1.875 0.9375 3.2
1.875 1 3.1375
1.8125 1 3.2
1.875 0.9375 3.1375
1.8125 0.9375 3.2
1.8125 1 3.1375
1.8125 0.9375 3.1375
2 0.9375 3.2
2 1 3.1375
1.9375 1 3.2
2 0.9375 3.1375
1.9375 0.9375 3.2
1.9375 1 3.1375
1.9375 0.9375 3.1375
2.125 0.9375 3.2
2.125 1 3.1375
2.0625 1 3.2
2.125 0.9375 3.1375
2.0625 0.9375 3.2
2.0625 1 3.1375
2.0625 0.9375 3.1375
2.25 0.9375 3.2
2.25 1 3.1375
2.1875 1 3.2
2.25 0.9375 3.1375
2.1875 0.9375 3.2
2.1875 1 3.1375
2.1875 0.9375 3.1375
2.375 0.9375 3.2
2.375 1 3.1375
2.3125 1 3.2
2.375 0.9375 3.1375
2.3125 0.9375 3.2
2.3125 1 3.1375
2.3125 0.9375 3.1375
2.5 0.9375 3.2
2.5 1 3.1375
2.4375 1 3.2
2.5 0.9375 3.1375
2.4375 0.9375 3.2
2.4375 1 3.1375
2.4375 0.9375 3.1375
2.625 0.9375 3.2
2.625 1 3.1375
2.5625 1 3.2
2.625 0.9375 3.1375
2.5625 0.9375 3.2
2.5625 1 3.1375
2.5625 0.9375 3.1375
2.75 0.9375 3.2
2.75 1 3.1375
2.6875 1 3.2
2.75 0.9375 3.1375
2.6875 0.9375 3.2
2.6875 1 3.1375
2.6875 0.9375 3.1375
2.875 0.9375 3.2
2.875 1 3.1375
2.8125 1 3.2
2.875 0.9375 3.1375
2.8125 0.9375 3.2
2.8125 1 3.1375
2.8125 0.9375 3.1375
3 0.9375 3.2
3 1 3.1375
2.9375 1 3.2
3 0.9375 3.1375
2.9375 0.9375 3.2
2.9375 1 3.1375
2.9375 0.9375 3.1375

CELLS 1537 41472
OFFSETS vtktypeint64
0 27 54 81 108 135 162 189 216 243 270 297 324 351 378 405 432 459 486 513 540 567 594 621 648 675 702 729 756 783 810 837 864 891 918 945 972 999 1026 1053 1080 1107 1134 1161 1188 1215 1242 1269 1296 1323 1350 1377 1404 1431 1458 1485 1512 1539 1566 1593 1620 1647 1674 1701 1728 1755 1782 1809 1836 1863 1890 1917 1944 1971 1998 2025 2052 2079 2106 2133 2160 2187 2214 2241 2268 2295 2322 2349 2376 2403 2430 2457 2484 2511 2538 2565 2592 2619 2646 2673 2700 2727 2754 2781 2808 2835 2862 2889 2916 2943 2970 2997 3024 3051 3078 3105 3132 3159 3186 3213 3240 3267 3294 3321 3348 3375 3402 3429 3456 3483 3510 3537 3564 3591 3618 3645 3672 3699 3726 3753 3780 3807 3834 3861 3888 3915 3942 3969 3996 4023 4050 4077 4104 4131 4158 4185 4212 4239 4266 4293 4320 4347 4374 4401 4428 4455 4482 4509 4536 4563 4590 4617 4644 4671 4698 4725 4752 4779 4806 4833 4860 4887 4914 4941 4968 4995 5022 5049 5076 5103 5130 5157 5184 5211 5238 5265 5292 5319 5346 5373 5400 5427 5454 5481 5508 5535 5562 5589 5616 5643 5670 5697 5724 5751 5778 5805 5832 5859 5886 5913 5940 5967 5994 6021 6048 6075 6102 6129 6156 6183 6210 6237 6264 6291 6318 6345 6372 6399 6426 6453 6480 6507 6534 6561 6588 6615 6642 6669 6696 6723 6750 6777 6804 6831 6858 6885 6912 6939 6966 6993 7020 7047 7074 7101 7128 7155 7182 7209 7236 7263 7290 7317 7344 7371 7398 7425 7452 7479 7506 7533 7560 7587 7614 7641 7668 7695 7722 7749 7776 7803 7830 7857 7884 7911 7938 7965 7992 8019 8046 8073 8100 8127 8154 8181 8208 8235 8262 8289 8316 8343 8370 8397 8424 8451 8478 8505 8532 8559 8586 8613 8640 8667 8694 8721 8748 8775 8802 8829 8856 8883 8910 8937 8964 8991 9018 9045 9072 9099 9126 9153 9180 9207 9234 9261 9288 9315 9342 9369 9396 9423 9450 9477 9504 9531 9558 9585 9612 9639 9666 9693 9720 9747 9774 9801 9828 9855 9882 9909 9936 9963 9990 10017 10044 10071 10098 10125 10152 10179 10206 10233 10260 10287 10314 10341 10368 10395 10422 10449 10476 10503 10530 10557 10584 10611 10638 10665 10692 10719 10746 10773 10800 10827 10854 10881 10908 10935 10962 10989 11016 11043 11070 11097 11124 11151 11178 11205 11232 11259 11286 11313 11340 11367 11394 11421 11448 11475 11502 11529 11556 11583 11610 11637 11664 11691 11718 11745 11772 11799 11826 11853 11880 11907 11934 11961 11988 12015 12042 12069 12096 12123 12150 12177 12204 12231 12258 12285 12312 12339 12366 12393 12420 12447 12474 12501 12528 12555 12582 12609 12636 12663 12690 12717 12744 12771 12798 12825 12852 12879 12906 12933 12960 12987 13014 13041 13068 13095 13122 13149 13176 13203 13230 13257 13284 13311 13338 13365 13392 13419 13446 13473 13500 13527 13554 13581 13608 13635 13662 13689 13716 13743 13770 13797 13824 13851 13878 13905 13932 13959 13986 14013 14040 14067 14094 14121 14148 14175 14202 14229 14256 14283 14310 14337 14364 14391 14418 14445 14472 14499 14526 14553 14580 14607 14634 14661 14688 14715 14742 14769 14796 14823 14850 14877 14904 14931 14958 14985 15012 15039 15066 15093 15120 15147 15174 15201 15228 15255 15282 15309 15336 15363 15390 15417 15444 15471 15498 15525 15552 15579 15606 15633 15660 15687 15714 15741 15768 15795 15822 15849 15876 15903 15930 15957 15984 16011 16038 16065 16092 16119 16146 16173 16200 16227 16254 16281 16308 16335 16362 16389 16416 16443 16470 16497 16524 16551 16578 16605 16632 16659 16686 16713 16740 16767 16794 16821 16848 16875 16902 16929 16956 16983 17010 17037 17064 17091 17118 17145 17172 17199 17226 17253 17280 17307 17334 17361 17388 17415 17442 17469 17496 17523 17550 17577 17604 17631 17658 17685 17712 17739 17766 17793 17820 17847 17874 17901 17928 17955 17982 18009 18036 18063 18090 18117 18144 18171 18198 18225 18252 18279 18306 18333 18360 18387 18414 18441 18468 18495 18522 18549 18576 18603 18630 18657 18684 18711 18738 18765 18792 18819 18846 18873 18900 18927 18954 18981 19008 19035 19062 19089 19116 19143 19170 19197 19224 19251 19278 19305 19332 19359 19386 19413 19440 19467 19494 19521 19548 19575 19602 19629 19656 19683 19710 19737 19764 19791 19818 19845 19872 19899 19926 19953 19980 20007 20034 20061 20088 20115 20142 20169 20196 20223 20250 20277 20304 20331 20358 20385 20412 20439 20466 20493 20520 20547 20574 20601 20628 20655 20682 20709 20736 20763 20790 20817 20844 20871 20898 20925 20952 20979 21006 21033 21060 21087 21114 21141 21168 21195 21222 21249 21276 21303 21330 21357 21384 21411 21438 21465 21492 21519 21546 21573 21600 21627 21654 21681 21708 21735 21762 21789 21816 21843 21870 21897 21924 21951 21978 22005 22032 22059 22086 22113 22140 22167 22194 22221 22248 22275 22302 22329 22356 22383 22410 22437 22464 22491 22518 22545 22572 22599 22626 22653 22680 22707 22734 22761 22788 22815 22842 22869 22896 22923 22950 22977 23004 23031 23058 23085 23112 23139 23166 23193 23220 23247 23274 23301 23328 23355 23382 23409 23436 23463 23490 23517 23544 23571 23598 23625 23652 23679 23706 23733 23760 23787 23814 23841 23868 23895 23922 23949 23976 24003 24030 24057 24084 24111 24138 24165 24192 24219 24246 24273 24300 24327 24354 24381 24408 24435 24462 24489 24516 24543 24570 24597 24624 24651 24678 24705 24732 24759 24786 24813 24840 24867 24894 24921 24948 24975 25002 25029 25056 25083 25110 25137 25164 25191 25218 25245 25272 25299 25326 25353 25380 25407 25434 25461 25488 25515 25542 25569 25596 25623 25650 25677 25704 25731 25758 25785 25812 25839 25866 25893 25920 25947 25974 26001 26028 26055 26082 26109 26136 26163 26190 26217 26244 26271 26298 26325 26352 26379 26406 26433 26460 26487 26514 26541 26568 26595 26622 26649 26676 26703 26730 26757 26784 26811 26838 26865 26892 26919 26946 26973 27000 27027 27054 27081 27108 27135 27162 27189 27216 27243 27270 27297 27324 27351 27378 27405 27432 27459 27486 27513 27540 27567 27594 27621 27648 27675 27702 27729 27756 27783 27810 27837 27864 27891 27918 27945 27972 27999 28026 28053 28080 28107 28134 28161 28188 28215 28242 28269 28296 28323 28350 28377 28404 28431 28458 28485 28512 28539 28566 28593 28620 28647 28674 28701 28728 28755 28782 28809 28836 28863 28890 28917 28944 28971 28998 29025 29052 29079 29106 29133 29160 29187 29214 29241 29268 29295 29322 29349 29376 29403 29430 29457 29484 29511 29538 29565 29592 29619 29646 29673 29700 29727 29754 29781 29808 29835 29862 29889 29916 29943 29970 29997 30024 30051 30078 30105 30132 30159 30186 30213 30240 30267 30294 30321 30348 30375 30402 30429 30456 30483 30510 30537 30564 30591 30618 30645 30672 30699 30726 30753 30780 30807 30834 30861 30888 30915 30942 30969 30996 31023 31050 31077 31104 31131 31158 31185 31212 31239 31266 31293 31320 31347 31374 31401 31428 31455 31482 31509 31536 31563 31590 31617 31644 31671 31698 31725 31752 31779 31806 31833 31860 31887 31914 31941 31968 31995 32022 32049 32076 32103 32130 32157 32184 32211 32238 32265 32292 32319 32346 32373 32400 32427 32454 32481 32508 32535 32562 32589 32616 32643 32670 32697 32724 32751 32778 32805 32832 32859 32886 32913 32940 32967 32994 33021 33048 33075 33102 33129 33156 33183 33210 33237 33264 33291 33318 33345 33372 33399 33426 33453 33480 33507 33534 33561 33588 33615 33642 33669 33696 33723 33750 33777 33804 33831 33858 33885 33912 33939 33966 33993 34020 34047 34074 34101 34128 34155 34182 34209 34236 34263 34290 34317 34344 34371 34398 34425 34452 34479 34506 34533 34560 34587 34614 34641 34668 34695 34722 34749 34776 34803 34830 34857 34884 34911 34938 34965 34992 35019 35046 35073 35100 35127 35154 35181 35208 35235 35262 35289 35316 35343 35370 35397 35424 35451 35478 35505 35532 35559 35586 35613 35640 35667 35694 35721 35748 35775 35802 35829 35856 35883 35910 35937 35964 35991 36018 36045 36072 36099 36126 36153 36180 36207 36234 36261 36288 36315 36342 36369 36396 36423 36450 36477 36504 36531 36558 36585 36612 36639 36666 36693 36720 36747 36774 36801 36828 36855 36882 36909 36936 36963 36990 37017 37044 37071 37098 37125 37152 37179 37206 37233 37260 37287 37314 37341 37368 37395 37422 37449 37476 37503 37530 37557 37584 37611 37638 37665 37692 37719 37746 37773 37800 37827 37854 37881 37908 37935 37962 37989 38016 38043 38070 38097 38124 38151 38178 38205 38232 38259 38286 38313 38340 38367 38394 38421 38448 38475 38502 38529 38556 38583 38610 38637 38664 38691 38718 38745 38772 38799 38826 38853 38880 38907 38934 38961 38988 39015 39042 39069 39096 39123 39150 39177 39204 39231 39258 39285 39312 39339 39366 39393 39420 39447 39474 39501 39528 39555 39582 39609 39636 39663 39690 39717 39744 39771 39798 39825 39852 39879 39906 39933 39960 39987 40014 40041 40068 40095 40122 40149 40176 40203 40230 40257 40284 40311 40338 40365 40392 40419 40446 40473 40500 40527 40554 40581 40608 40635 40662 40689 40716 40743 40770 40797 40824 40851 40878 40905 40932 40959 40986 41013 41040 41067 41094 41121 41148 41175 41202 41229 41256 41283 41310 41337 41364 41391 41418 41445 41472 
CONNECTIVITY vtktypeint64
0 1 226 225 25 26 251 250 2025 2026 2027 2028 2033 2034 2035 2036 2029 2030 2031 2032 2041 2039 2038 2040 2037 2042 2043 
1 2 227 226 26 27 252 251 2044 2045 2046 2026 2049 2050 2051 2034 2030 2047 2048 2031 2039 2054 2053 2055 2052 2056 2057 
2 3 228 227 27 28 253 252 2058 2059 2060 2045 2063 2064 2065 2050 2047 2061 2062 2048 2054 2068 2067 2069 2066 2070 2071 
3 4 229 228 28 29 254 253 2072 2073 2074 2059 2077 2078 2079 2064 2061 2075 2076 2062 2068 2082 2081 2083 2080 2084 2085 
4 5 230 229 29 30 255 254 2086 2087 2088 2073 2091 2092 2093 2078 2075 2089 2090 2076 2082 2096 2095 2097 2094 2098 2099 
5 6 231 230 30 31 256 255 2100 2101 2102 2087 2105 2106 2107 2092 2089 2103 2104 2090 2096 2110 2109 2111 2108 2112 2113 
6 7 232 231 31 32 257 256 2114 2115 2116 2101 2119 2120 2121 2106 2103 2117 2118 2104 2110 2124 2123 2125 2122 2126 2127 
7 8 233 232 32 33 258 257 2128 2129 2130 2115 2133 2134 2135 2120 2117 2131 2132 2118 2124 2138 2137 2139 2136 2140 2141 
8 9 234 233 33 34 259 258 2142 2143 2144 2129 2147 2148 2149 2134 2131 2145 2146 2132 2138 2152 2151 2153 2150 2154 2155 
9 10 235 234 34 35 260 259 2156 2157 2158 2143 2161 2162 2163 2148 2145 2159 2160 2146 2152 2166 2165 2167 2164 2168 2169 
10 11 236 235 35 36 261 260 2170 2171 2172 2157 2175 2176 2177 2162 2159 2173 2174 2160 2166 2180 2179 2181 2178 2182 2183 
11 12 237 236 36 37 262 261 2184 2185 2186 2171 2189 2190 2191 2176 2173 2187 2188 2174 2180 2194 2193 2195 2192 2196 2197 
12 13 238 237 37 38 263 262 2198 2199 2200 2185 2203 2204 2205 2190 2187 2201 2202 2188 2194 2208 2207 2209 2206 2210 2211 
13 14 239 238 38 39 264 263 2212 2213 2214 2199 2217 2218 2219 2204 2201 2215 2216 2202 2208 2222 2221 2223 2220 2224 2225 
14 15 240 239 39 40 265 264 2226 2227 2228 2213 2231 2232 2233 2218 2215 2229 2230 2216 2222 2236 2235 2237 2234 2238 2239 
15 16 241 240 40 41 266 265 2240 2241 2242 2227 2245 2246 2247 2232 2229 2243 2244 2230 2236 2250 2249 2251 2248 2252 2253 
16 17 242 241 41 42 267 266 2254 2255 2256 2241 2259 2260 2261 2246 2243 2257 2258 2244 2250 2264 2263 2265 2262 2266 2267 
17 18 243 242 42 43 268 267 2268 2269 2270 2255 2273 2274 2275 2260 2257 2271 2272 2258 2264 2278 2277 2279 2276 2280 2281 
18 19 244 243 43 44 269 268 2282 2283 2284 2269 2287 2288 2289 2274 2271 2285 2286 2272 2278 2292 2291 2293 2290 2294 2295 
19 20 245 244 44 45 270 269 2296 2297 2298 2283 2301 2302 2303 2288 2285 2299 2300 2286 2292 2306 2305 2307 2304 2308 2309 
20 21 246 245 45 46 271 270 2310 2311 2312 2297 2315 2316 2317 2302 2299 2313 2314 2300 2306 2320 2319 2321 2318 2322 2323 
21 22 247 246 46 47 272 271 2324 2325 2326 2311 2329 2330 2331 2316 2313 2327 2328 2314 2320 2334 2333 2335 2332 2336 2337 
22 23 248 247 47 48 273 272 2338 2339 2340 2325 2343 2344 2345 2330 2327 2341 2342 2328 2334 2348 2347 2349 2346 2350 2351 
23 24 249 248 48 49 274 273 2352 2353 2354 2339 2357 2358 2359 2344 2341 2355 2356 2342 2348 2362 2361 2363 2360 2364 2365 
25 26 251 250 50 51 276 275 2033 2034 2035 2036 2370 2371 2372 2373 2366 2367 2368 2369 2377 2375 2374 2376 2042 2378 2379 
26 27 252 251 51 52 277 276 2049 2050 2051 2034 2382 2383 2384 2371 2367 2380 2381 2368 2375 2386 2385 2387 2056 2388 2389 
27 28 253 252 52 53 278 277 2063 2064 2065 2050 2392 2393 2394 2383 2380 2390 2391 2381 2386 2396 2395 2397 2070 2398 2399 
28 29 254 253 53 54 279 278 2077 2078 2079 2064 2402 2403 2404 2393 2390 2400 2401 2391 2396 2406 2405 2407 2084 2408 2409 
29 30 255 254 54 55 280 279 2091 2092 2093 2078 2412 2413 2414 2403 2400 2410 2411 2401 2406 2416 2415 2417 2098 2418 2419 
30 31 256 255 55 56 281 280 2105 2106 2107 2092 2422 2423 2424 2413 2410 2420 2421 2411 2416 2426 2425 2427 2112 2428 2429 
31 32 257 256 56 57 282 281 2119 2120 2121 2106 2432 2433 2434 2423 2420 2430 2431 2421 2426 2436 2435 2437 2126 2438 2439 
32 33 258 257 57 58 283 282 2133 2134 2135 2120 2442 2443 2444 2433 2430 2440 2441 2431 2436 2446 2445 2447 2140 2448 2449 
33 34 259 258 58 59 284 283 2147 2148 2149 2134 2452 2453 2454 2443 2440 2450 2451 2441 2446 2456 2455 2457 2154 2458 2459 
34 35 260 259 59 60 285 284 2161 2162 2163 2148 2462 2463 2464 2453 2450 2460 2461 2451 2456 2466 2465 2467 2168 2468 2469 
35 36 261 260 60 61 286 285 2175 2176 2177 2162 2472 2473 2474 2463 2460 2470 2471 2461 2466 2476 2475 2477 2182 2478 2479 
36 37 262 261 61 62 287 286 2189 2190 2191 2176 2482 2483 2484 2473 2470 2480 2481 2471 2476 2486 2485 2487 2196 2488 2489 
37 38 263 262 62 63 288 287 2203 2204 2205 2190 2492 2493 2494 2483 2480 2490 2491 2481 2486 2496 2495 2497 2210 2498 2499 
38 39 264 263 63 64 289 288 2217 2218 2219 2204 2502 2503 2504 2493 2490 2500 2501 2491 2496 2506 2505 2507 2224 2508 2509 
39 40 265 264 64 65 290 289 2231 2232 2233 2218 2512 2513 2514 2503 2500 2510 2511 2501 2506 2516 2515 2517 2238 2518 2519 
40 41 266 265 65 66 291 290 2245 2246 2247 2232 2522 2523 2524 2513 2510 2520 2521 2511 2516 2526 2525 2527 2252 2528 2529 
41 42 267 266 66 67 292 291 2259 2260 2261 2246 2532 2533 2534 2523 2520 2530 2531 2521 2526 2536 2535 2537 2266 2538 2539 
42 43 268 267 67 68 293 292 2273 2274 2275 2260 2542 2543 2544 2533 2530 2540 2541 2531 2536 2546 2545 2547 2280 2548 2549 
43 44 269 268 68 69 294 293 2287 2288 2289 2274 2552 2553 2554 2543 2540 2550 2551 2541 2546 2556 2555 2557 2294 2558 2559 
44 45 270 269 69 70 295 294 2301 2302 2303 2288 2562 2563 2564 2553 2550 2560 2561 2551 2556 2566 2565 2567 2308 2568 2569 
45 46 271 270 70 71 296 295 2315 2316 2317 2302 2572 2573 2574 2563 2560 2570 2571 2561 2566 2576 2575 2577 2322 2578 2579 
46 47 272 271 71 72 297 296 2329 2330 2331 2316 2582 2583 2584 2573 2570 2580 2581 2571 2576 2586 2585 2587 2336 2588 2589 
47 48 273 272 72 73 298 297 2343 2344 2345 2330 2592 2593 2594 2583 2580 2590 2591 2581 2586 2596 2595 2597 2350 2598 2599 
48 49 274 273 73 74 299 298 2357 2358 2359 2344 2602 2603 2604 2593 2590 2600 2601 2591 2596 2606 2605 2607 2364 2608 2609 
50 51 276 275 75 76 301 300 2370 2371 2372 2373 2614 2615 2616 2617 2610 2611 2612 2613 2621 2619 2618 2620 2378 2622 2623 
51 52 277 276 76 77 302 301 2382 2383 2384 2371 2626 2627 2628 2615 2611 2624 2625 2612 2619 2630 2629 2631 2388 2632 2633 
52 53 278 277 77 78 303 302 2392 2393 2394 2383 2636 2637 2638 2627 2624 2634 2635 2625 2630 2640 2639 2641 2398 2642 2643 
53 54 279 278 78 79 304 303 2402 2403 2404 2393 2646 2647 2648 2637 2634 2644 2645 2635 2640 2650 2649 2651 2408 2652 2653 
54 55 280 279 79 80 305 304 2412 2413 2414 2403 2656 2657 2658 2647 2644 2654 2655 2645 2650 2660 2659 2661 2418 2662 2663 
55 56 281 280 80 81 306 305 2422 2423 2424 2413 2666 2667 2668 2657 2654 2664 2665 2655 2660 2670 2669 2671 2428 2672 2673 
56 57 282 281 81 82 307 306 2432 2433 2434 2423 2676 2677 2678 2667 2664 2674 2675 2665 2670 2680 2679 2681 2438 2682 2683 
57 58 283 282 82 83 308 307 2442 2443 2444 2433 2686 2687 2688 2677 2674 2684 2685 2675 2680 2690 2689 2691 2448 2692 2693 
58 59 284 283 83 84 309 308 2452 2453 2454 2443 2696 2697 2698 2687 2684 2694 2695 2685 2690 2700 2699 2701 2458 2702 2703 
59 60 285 284 84 85 310 309 2462 2463 2464 2453 2706 2707 2708 2697 2694 2704 2705 2695 2700 2710 2709 2711 2468 2712 2713 
60 61 286 285 85 86 311 310 2472 2473 2474 2463 2716 2717 2718 2707 2704 2714 2715 2705 2710 2720 2719 2721 2478 2722 2723 
61 62 287 286 86 87 312 311 2482 2483 2484 2473 2726 2727 2728 2717 2714 2724 2725 2715 2720 2730 2729 2731 2488 2732 2733 
62 63 288 287 87 88 313 312 2492 2493 2494 2483 2736 2737 2738 2727 2724 2734 2735 2725 2730 2740 2739 2741 2498 2742 2743 
63 64 289 288 88 89 314 313 2502 2503 2504 2493 2746 2747 2748 2737 2734 2744 2745 2735 2740 2750 2749 2751 2508 2752 2753 
64 65 290 289 89 90 315 314 2512 2513 2514 2503 2756 2757 2758 2747 2744 2754 2755 2745 2750 2760 2759 2761 2518 2762 2763 
65 66 291 290 90 91 316 315 2522 2523 2524 2513 2766 2767 2768 2757 2754 2764 2765 2755 2760 2770 2769 2771 2528 2772 2773 
66 67 292 291 91 92 317 316 2532 2533 2534 2523 2776 2777 2778 2767 2764 2774 2775 2765 2770 2780 2779 2781 2538 2782 2783 
67 68 293 292 92 93 318 317 2542 2543 2544 2533 2786 2787 2788 2777 2774 2784 2785 2775 2780 2790 2789 2791 2548 2792 2793 
68 69 294 293 93 94 319 318 2552 2553 2554 2543 2796 2797 2798 2787 2784 2794 2795 2785 2790 2800 2799 2801 2558 2802 2803 
69 70 295 294 94 95 320 319 2562 2563 2564 2553 2806 2807 2808 2797 2794 2804 2805 2795 2800 2810 2809 2811 2568 2812 2813 
70 71 296 295 95 96 321 320 2572 2573 2574 2563 2816 2817 2818 2807 2804 2814 2815 2805 2810 2820 2819 2821 2578 2822 2823 
71 72 297 296 96 97 322 321 2582 2583 2584 2573 2826 2827 2828 2817 2814 2824 2825 2815 2820 2830 2829 2831 2588 2832 2833 
72 73 298 297 97 98 323 322 2592 2593 2594 2583 2836 2837 2838 2827 2824 2834 2835 2825 2830 2840 2839 2841 2598 2842 2843 
73 74 299 298 98 99 324 323 2602 2603 2604 2593 2846 2847 2848 2837 2834 2844 2845 2835 2840 2850 2849 2851 2608 2852 2853 
75 76 301 300 100 101 326 325 2614 2615 2616 2617 2858 2859 2860 2861 2854 2855 2856 2857 2865 2863 2862 2864 2622 2866 2867 
76 77 302 301 101 102 327 326 2626 2627 2628 2615 2870 2871 2872 2859 2855 2868 2869 2856 2863 2874 2873 2875 2632 2876 2877 
77 78 303 302 102 103 328 327 2636 2637 2638 2627 2880 2881 2882 2871 2868 2878 2879 2869 2874 2884 2883 2885 2642 2886 2887 
78 79 304 303 103 104 329 328 2646 2647 2648 2637 2890 2891 2892 2881 2878 2888 2889 2879 2884 2894 2893 2895 2652 2896 2897 
79 80 305 304 104 105 330 329 2656 2657 2658 2647 2900 2901 2902 2891 2888 2898 2899 2889 2894 2904 2903 2905 2662 2906 2907 
80 81 306 305 105 106 331 330 2666 2667 2668 2657 2910 2911 2912 2901 2898 2908 2909 2899 2904 2914 2913 2915 2672 2916 2917 
81 82 307 306 106 107 332 331 2676 2677 2678 2667 2920 2921 2922 2911 2908 2918 2919 2909 2914 2924 2923 2925 2682 2926 2927 
82 83 308 307 107 108 333 332 2686 2687 2688 2677 2930 2931 2932 2921 2918 2928 2929 2919 2924 2934 2933 2935 2692 2936 2937 
83 84 309 308 108 109 334 333 2696 2697 2698 2687 2940 2941 2942 2931 2928 2938 2939 2929 2934 2944 2943 2945 2702 2946 2947 
84 85 310 309 109 110 335 334 2706 2707 2708 2697 2950 2951 2952 2941 2938 2948 2949 2939 2944 2954 2953 2955 2712 2956 2957 
85 86 311 310 110 111 336 335 2716 2717 2718 2707 2960 2961 2962 2951 2948 2958 2959 2949 2954 2964 2963 2965 2722 2966 2967 
86 87 312 311 111 112 337 336 2726 2727 2728 2717 2970 2971 2972 2961 2958 2968 2969 2959 2964 2974 2973 2975 2732 2976 2977 
87 88 313 312 112 113 338 337 2736 2737 2738 2727 2980 2981 2982 2971 2968 2978 2979 2969 2974 2984 2983 2985 2742 2986 2987 
88 89 314 313 113 114 339 338 2746 2747 2748 2737 2990 2991 2992 2981 2978 2988 2989 2979 2984 2994 2993 2995 2752 2996 2997 
89 90 315 314 114 115 340 339 2756 2757 2758 2747 3000 3001 3002 2991 2988 2998 2999 2989 2994 3004 3003 3005 2762 3006 3007 
90 91 316 315 115 116 341 340 2766 2767 2768 2757 3010 3011 3012 3001 2998 3008 3009 2999 3004 3014 3013 3015 2772 3016 3017 
91 92 317 316 116 117 342 341 2776 2777 2778 2767 3020 3021 3022 3011 3008 3018 3019 3009 3014 3024 3023 3025 2782 3026 3027 
92 93 318 317 117 118 343 342 2786 2787 2788 2777 3030 3031 3032 3021 3018 3028 3029 3019 3024 3034 3033 3035 2792 3036 3037 
93 94 319 318 118 119 344 343 2796 2797 2798 2787 3040 3041 3042 3031 3028 3038 3039 3029 3034 3044 3043 3045 2802 3046 3047 
94 95 320 319 119 120 345 344 2806 2807 2808 2797 3050 3051 3052 3041 3038 3048 3049 3039 3044 3054 3053 3055 2812 3056 3057 
95 96 321 320 120 121 346 345 2816 2817 2818 2807 3060 3061 3062 3051 3048 3058 3059 3049 3054 3064 3063 3065 2822 3066 3067 
96 97 322 321 121 122 347 346 2826 2827 2828 2817 3070 3071 3072 3061 3058 3068 3069 3059 3064 3074 3073 3075 2832 3076 3077 
97 98 323 322 122 123 348 347 2836 2837 2838 2827 3080 3081 3082 3071 3068 3078 3079 3069 3074 3084 3083 3085 2842 3086 3087 
98 99 324 323 123 124 349 348 2846 2847 2848 2837 3090 3091 3092 3081 3078 3088 3089 3079 3084 3094 3093 3095 2852 3096 3097 
100 101 326 325 125 126 351 350 2858 2859 2860 2861 3102 3103 3104 3105 3098 3099 3100 3101 3109 3107 3106 3108 2866 3110 3111 
101 102 327 326 126 127 352 351 2870 2871 2872 2859 3114 3115 3116 3103 3099 3112 3113 3100 3107 3118 3117 3119 2876 3120 3121 
102 103 328 327 127 128 353 352 2880 2881 2882 2871 3124 3125 3126 3115 3112 3122 3123 3113 3118 3128 3127 3129 2886 3130 3131 
103 104 329 328 128 129 354 353 2890 2891 2892 2881 3134 3135 3136 3125 3122 3132 3133 3123 3128 3138 3137 3139 2896 3140 3141 
104 105 330 329 129 130 355 354 2900 2901 2902 2891 3144 3145 3146 3135 3132 3142 3143 3133 3138 3148 3147 3149 2906 3150 3151 
105 106 331 330 130 131 356 355 2910 2911 2912 2901 3154 3155 3156 3145 3142 3152 3153 3143 3148 3158 3157 3159 2916 3160 3161 
106 107 332 331 131 132 357 356 2920 2921 2922 2911 3164 3165 3166 3155 3152 3162 3163 3153 3158 3168 3167 3169 2926 3170 3171 
107 108 333 332 132 133 358 357 2930 2931 2932 2921 3174 3175 3176 3165 3162 3172 3173 3163 3168 3178 3177 3179 2936 3180 3181 
108 109 334 333 133 134 359 358 2940 2941 2942 2931 3184 3185 3186 3175 3172 3182 3183 3173 3178 3188 3187 3189 2946 3190 3191 
109 110 335 334 134 135 360 359 2950 2951 2952 2941 3194 3195 3196 3185 3182 3192 3193 3183 3188 3198 3197 3199 2956 3200 3201 
110 111 336 335 135 136 361 360 2960 2961 2962 2951 3204 3205 3206 3195 3192 3202 3203 3193 3198 3208 3207 3209 2966 3210 3211 
111 112 337 336 136 137 362 361 2970 2971 2972 2961 3214 3215 3216 3205 3202 3212 3213 3203 3208 3218 3217 3219 2976 3220 3221 
112 113 338 337 137 138 363 362 2980 2981 2982 2971 3224 3225 3226 3215 3212 3222 3223 3213 3218 3228 3227 3229 2986 3230 3231 
113 114 339 338 138 139 364 363 2990 2991 2992 2981 3234 3235 3236 3225 3222 3232 3233 3223 3228 3238 3237 3239 2996 3240 3241 
114 115 340 339 139 140 365 364 3000 3001 3002 2991 3244 3245 3246 3235 3232 3242 3243 3233 3238 3248 3247 3249 3006 3250 3251 
115 116 341 340 140 141 366 365 3010 3011 3012 3001 3254 3255 3256 3245 3242 3252 3253 3243 3248 3258 3257 3259 3016 3260 3261 
116 117 342 341 141 142 367 366 3020 3021 3022 3011 3264 3265 3266 3255 3252 3262 3263 3253 3258 3268 3267 3269 3026 3270 3271 
117 118 343 342 142 143 368 367 3030 3031 3032 3021 3274 3275 3276 3265 3262 3272 3273 3263 3268 3278 3277 3279 3036 3280 3281 
118 119 344 343 143 144 369 368 3040 3041 3042 3031 3284 3285 3286 3275 3272 3282 3283 3273 3278 3288 3287 3289 3046 3290 3291 
119 120 345 344 144 145 370 369 3050 3051 3052 3041 3294 3295 3296 3285 3282 3292 3293 3283 3288 3298 3297 3299 3056 3300 3301 
120 121 346 345 145 146 371 370 3060 3061 3062 3051 3304 3305 3306 3295 3292 3302 3303 3293 3298 3308 3307 3309 3066 3310 3311 
121 122 347 346 146 147 372 371 3070 3071 3072 3061 3314 3315 3316 3305 3302 3312 3313 3303 3308 3318 3317 3319 3076 3320 3321 
122 123 348 347 147 148 373 372 3080 3081 3082 3071 3324 3325 3326 3315 3312 3322 3323 3313 3318 3328 3327 3329 3086 3330 3331 
123 124 349 348 148 149 374 373 3090 3091 3092 3081 3334 3335 3336 3325 3322 3332 3333 3323 3328 3338 3337 3339 3096 3340 3341 
125 126 351 350 150 151 376 375 3102 3103 3104 3105 3346 3347 3348 3349 3342 3343 3344 3345 3353 3351 3350 3352 3110 3354 3355 
126 127 352 351 151 152 377 376 3114 3115 3116 3103 3358 3359 3360 3347 3343 3356 3357 3344 3351 3362 3361 3363 3120 3364 3365 
127 128 353 352 152 153 378 377 3124 3125 3126 3115 3368 3369 3370 3359 3356 3366 3367 3357 3362 3372 3371 3373 3130 3374 3375 
128 129 354 353 153 154 379 378 3134 3135 3136 3125 3378 3379 3380 3369 3366 3376 3377 3367 3372 3382 3381 3383 3140 3384 3385 
129 130 355 354 154 155 380 379 3144 3145 3146 3135 3388 3389 3390 3379 3376 3386 3387 3377 3382 3392 3391 3393 3150 3394 3395 
130 131 356 355 155 156 381 380 3154 3155 3156 3145 3398 3399 3400 3389 3386 3396 3397 3387 3392 3402 3401 3403 3160 3404 3405 
131 132 357 356 156 157 382 381 3164 3165 3166 3155 3408 3409 3410 3399 3396 3406 3407 3397 3402 3412 3411 3413 3170 3414 3415 
132 133 358 357 157 158 383 382 3174 3175 3176 3165 3418 3419 3420 3409 3406 3416 3417 3407 3412 3422 3421 3423 3180 3424 3425 
133 134 359 358 158 159 384 383 3184 3185 3186 3175 3428 3429 3430 3419 3416 3426 3427 3417 3422 3432 3431 3433 3190 3434 3435 
134 135 360 359 159 160 385 384 3194 3195 3196 3185 3438 3439 3440 3429 3426 3436 3437 3427 3432 3442 3441 3443 3200 3444 3445 
135 136 361 360 160 161 386 385 3204 3205 3206 3195 3448 3449 3450 3439 3436 3446 3447 3437 3442 3452 3451 3453 3210 3454 3455 
136 137 362 361 161 162 387 386 3214 3215 3216 3205 3458 3459 3460 3449 3446 3456 3457 3447 3452 3462 3461 3463 3220 3464 3465 
137 138 363 362 162 163 388 387 3224 3225 3226 3215 3468 3469 3470 3459 3456 3466 3467 3457 3462 3472 3471 3473 3230 3474 3475 
138 139 364 363 163 164 389 388 3234 3235 3236 3225 3478 3479 3480 3469 3466 3476 3477 3467 3472 3482 3481 3483 3240 3484 3485 
139 140 365 364 164 165 390 389 3244 3245 3246 3235 3488 3489 3490 3479 3476 3486 3487 3477 3482 3492 3491 3493 3250 3494 3495 
140 141 366 365 165 166 391 390 3254 3255 3256 3245 3498 3499 3500 3489 3486 3496 3497 3487 3492 3502 3501 3503 3260 3504 3505 
141 142 367 366 166 167 392 391 3264 3265 3266 3255 3508 3509 3510 3499 3496 3506 3507 3497 3502 3512 3511 3513 3270 3514 3515 
142 143 368 367 167 168 393 392 3274 3275 3276 3265 3518 3519 3520 3509 3506 3516 3517 3507 3512 3522 3521 3523 3280 3524 3525 
143 144 369 368 168 169 394 393 3284 3285 3286 3275 3528 3529 3530 3519 3516 3526 3527 3517 3522 3532 3531 3533 3290 3534 3535 
144 145 370 369 169 170 395 394 3294 3295 3296 3285 3538 3539 3540 3529 3526 3536 3537 3527 3532 3542 3541 3543 3300 3544 3545 
145 146 371 370 170 171 396 395 3304 3305 3306 3295 3548 3549 3550 3539 3536 3546 3547 3537 3542 3552 3551 3553 3310 3554 3555 
146 147 372 371 171 172 397 396 3314 3315 3316 3305 3558 3559 3560 3549 3546 3556 3557 3547 3552 3562 3561 3563 3320 3564 3565 
147 148 373 372 172 173 398 397 3324 3325 3326 3315 3568 3569 3570 3559 3556 3566 3567 3557 3562 3572 3571 3573 3330 3574 3575 
148 149 374 373 173 174 399 398 3334 3335 3336 3325 3578 3579 3580 3569 3566 3576 3577 3567 3572 3582 3581 3583 3340 3584 3585 
150 151 376 375 175 176 401 400 3346 3347 3348 3349 3590 3591 3592 3593 3586 3587 3588 3589 3597 3595 3594 3596 3354 3598 3599 
151 152 377 376 176 177 402 401 3358 3359 3360 3347 3602 3603 3604 3591 3587 3600 3601 3588 3595 3606 3605 3607 3364 3608 3609 
152 153 378 377 177 178 403 402 3368 3369 3370 3359 3612 3613 3614 3603 3600 3610 3611 3601 3606 3616 3615 3617 3374 3618 3619 
153 154 379 378 178 179 404 403 3378 3379 3380 3369 3622 3623 3624 3613 3610 3620 3621 3611 3616 3626 3625 3627 3384 3628 3629 
154 155 380 379 179 180 405 404 3388 3389 3390 3379 3632 3633 3634 3623 3620 3630 3631 3621 3626 3636 3635 3637 3394 3638 3639 
155 156 381 380 180 181 406 405 3398 3399 3400 3389 3642 3643 3644 3633 3630 3640 3641 3631 3636 3646 3645 3647 3404 3648 3649 
156 157 382 381 181 182 407 406 3408 3409 3410 3399 3652 3653 3654 3643 3640 3650 3651 3641 3646 3656 3655 3657 3414 3658 3659 
157 158 383 382 182 183 408 407 3418 3419 3420 3409 3662 3663 3664 3653 3650 3660 3661 3651 3656 3666 3665 3667 3424 3668 3669 
158 159 384 383 183 184 409 408 3428 3429 3430 3419 3672 3673 3674 3663 3660 3670 3671 3661 3666 3676 3675 3677 3434 3678 3679 
159 160 385 384 184 185 410 409 3438 3439 3440 3429 3682 3683 3684 3673 3670 3680 3681 3671 3676 3686 3685 3687 3444 3688 3689 
160 161 386 385 185 186 411 410 3448 3449 3450 3439 3692 3693 3694 3683 3680 3690 3691 3681 3686 3696 3695 3697 3454 3698 3699 
161 162 387 386 186 187 412 411 3458 3459 3460 3449 3702 3703 3704 3693 3690 3700 3701 3691 3696 3706 3705 3707 3464 3708 3709 
162 163 388 387 187 188 413 412 3468 3469 3470 3459 3712 3713 3714 3703 3700 3710 3711 3701 3706 3716 3715 3717 3474 3718 3719 
163 164 389 388 188 189 414 413 3478 3479 3480 3469 3722 3723 3724 3713 3710 3720 3721 3711 3716 3726 3725 3727 3484 3728 3729 
164 165 390 389 189 190 415 414 3488 3489 3490 3479 3732 3733 3734 3723 3720 3730 3731 3721 3726 3736 3735 3737 3494 3738 3739 
165 166 391 390 190 191 416 415 3498 3499 3500 3489 3742 3743 3744 3733 3730 3740 3741 3731 3736 3746 3745 3747 3504 3748 3749 
166 167 392 391 191 192 417 416 3508 3509 3510 3499 3752 3753 3754 3743 3740 3750 3751 3741 3746 3756 3755 3757 3514 3758 3759 
167 168 393 392 192 193 418 417 3518 3519 3520 3509 3762 3763 3764 3753 3750 3760 3761 3751 3756 3766 3765 3767 3524 3768 3769 
168 169 394 393 193 194 419 418 3528 3529 3530 3519 3772 3773 3774 3763 3760 3770 3771 3761 3766 3776 3775 3777 3534 3778 3779 
169 170 395 394 194 195 420 419 3538 3539 3540 3529 3782 3783 3784 3773 3770 3780 3781 3771 3776 3786 3785 3787 3544 3788 3789 
170 171 396 395 195 196 421 420 3548 3549 3550 3539 3792 3793 3794 3783 3780 3790 3791 3781 3786 3796 3795 3797 3554 3798 3799 
171 172 397 396 196 197 422 421 3558 3559 3560 3549 3802 3803 3804 3793 3790 3800 3801 3791 3796 3806 3805 3807 3564 3808 3809 
172 173 398 397 197 198 423 422 3568 3569 3570 3559 3812 3813 3814 3803 3800 3810 3811 3801 3806 3816 3815 3817 3574 3818 3819 
173 174 399 398 198 199 424 423 3578 3579 3580 3569 3822 3823 3824 3813 3810 3820 3821 3811 3816 3826 3825 3827 3584 3828 3829 
175 176 401 400 200 201 426 425 3590 3591 3592 3593 3834 3835 3836 3837 3830 3831 3832 3833 3841 3839 3838 3840 3598 3842 3843 
176 177 402 401 201 202 427 426 3602 3603 3604 3591 3846 3847 3848 3835 3831 3844 3845 3832 3839 3850 3849 3851 3608 3852 3853 
177 178 403 402 202 203 428 427 3612 3613 3614 3603 3856 3857 3858 3847 3844 3854 3855 3845 3850 3860 3859 3861 3618 3862 3863 
178 179 404 403 203 204 429 428 3622 3623 3624 3613 3866 3867 3868 3857 3854 3864 3865 3855 3860 3870 3869 3871 3628 3872 3873 
179 180 405 404 204 205 430 429 3632 3633 3634 3623 3876 3877 3878 3867 3864 3874 3875 3865 3870 3880 3879 3881 3638 3882 3883 
180 181 406 405 205 206 431 430 3642 3643 3644 3633 3886 3887 3888 3877 3874 3884 3885 3875 3880 3890 3889 3891 3648 3892 3893 
181 182 407 406 206 207 432 431 3652 3653 3654 3643 3896 3897 3898 3887 3884 3894 3895 3885 3890 3900 3899 3901 3658 3902 3903 
182 183 408 407 207 208 433 432 3662 3663 3664 3653 3906 3907 3908 3897 3894 3904 3905 3895 3900 3910 3909 3911 3668 3912 3913 
183 184 409 408 208 209 434 433 3672 3673 3674 3663 3916 3917 3918 3907 3904 3914 3915 3905 3910 3920 3919 3921 3678 3922 3923 
184 185 410 409 209 210 435 434 3682 3683 3684 3673 3926 3927 3928 3917 3914 3924 3925 3915 3920 3930 3929 3931 3688 3932 3933 
185 186 411 410 210 211 436 435 3692 3693 3694 3683 3936 3937 3938 3927 3924 3934 3935 3925 3930 3940 3939 3941 3698 3942 3943 
186 187 412 411 211 212 437 436 3702 3703 3704 3693 3946 3947 3948 3937 3934 3944 3945 3935 3940 3950 3949 3951 3708 3952 3953 
187 188 413 412 212 213 438 437 3712 3713 3714 3703 3956 3957 3958 3947 3944 3954 3955 3945 3950 3960 3959 3961 3718 3962 3963 
188 189 414 413 213 214 439 438 3722 3723 3724 3713 3966 3967 3968 3957 3954 3964 3965 3955 3960 3970 3969 3971 3728 3972 3973 
189 190 415 414 214 215 440 439 3732 3733 3734 3723 3976 3977 3978 3967 3964 3974 3975 3965 3970 3980 3979 3981 3738 3982 3983 
190 191 416 415 215 216 441 440 3742 3743 3744 3733 3986 3987 3988 3977 3974 3984 3985 3975 3980 3990 3989 3991 3748 3992 3993 
191 192 417 416 216 217 442 441 3752 3753 3754 3743 3996 3997 3998 3987 3984 3994 3995 3985 3990 4000 3999 4001 3758 4002 4003 
192 193 418 417 217 218 443 442 3762 3763 3764 3753 4006 4007 4008 3997 3994 4004 4005 3995 4000 4010 4009 4011 3768 4012 4013 
193 194 419 418 218 219 444 443 3772 3773 3774 3763 4016 4017 4018 4007 4004 4014 4015 4005 4010 4020 4019 4021 3778 4022 4023 
194 195 420 419 219 220 445 444 3782 3783 3784 3773 4026 4027 4028 4017 4014 4024 4025 4015 4020 4030 4029 4031 3788 4032 4033 
195 196 421 420 220 221 446 445 3792 3793 3794 3783 4036 4037 4038 4027 4024 4034 4035 4025 4030 4040 4039 4041 3798 4042 4043 
196 197 422 421 221 222 447 446 3802 3803 3804 3793 4046 4047 4048 4037 4034 4044 4045 4035 4040 4050 4049 4051 3808 4052 4053 
197 198 423 422 222 223 448 447 3812 3813 3814 3803 4056 4057 4058 4047 4044 4054 4055 4045 4050 4060 4059 4061 3818 4062 4063 
198 199 424 423 223 224 449 448 3822 3823 3824 3813 4066 4067 4068 4057 4054 4064 4065 4055 4060 4070 4069 4071 3828 4072 4073 
225 226 451 450 250 251 476 475 2027 4074 4075 4076 2035 4079 4080 4081 2032 2031 4077 4078 4085 4083 2040 4084 4082 4086 4087 
226 227 452 451 251 252 477 476 2046 4088 4089 4074 2051 4091 4092 4079 2031 2048 4090 4077 4083 4094 2055 4095 4093 4096 4097 
227 228 453 452 252 253 478 477 2060 4098 4099 4088 2065 4101 4102 4091 2048 2062 4100 4090 4094 4104 2069 4105 4103 4106 4107 
228 229 454 453 253 254 479 478 2074 4108 4109 4098 2079 4111 4112 4101 2062 2076 4110 4100 4104 4114 2083 4115 4113 4116 4117 
229 230 455 454 254 255 480 479 2088 4118 4119 4108 2093 4121 4122 4111 2076 2090 4120 4110 4114 4124 2097 4125 4123 4126 4127 
230 231 456 455 255 256 481 480 2102 4128 4129 4118 2107 4131 4132 4121 2090 2104 4130 4120 4124 4134 2111 4135 4133 4136 4137 
231 232 457 456 256 257 482 481 2116 4138 4139 4128 2121 4141 4142 4131 2104 2118 4140 4130 4134 4144 2125 4145 4143 4146 4147 
232 233 458 457 257 258 483 482 2130 4148 4149 4138 2135 4151 4152 4141 2118 2132 4150 4140 4144 4154 2139 4155 4153 4156 4157 
233 234 459 458 258 259 484 483 2144 4158 4159 4148 2149 4161 4162 4151 2132 2146 4160 4150 4154 4164 2153 4165 4163 4166 4167 
234 235 460 459 259 260 485 484 2158 4168 4169 4158 2163 4171 4172 4161 2146 2160 4170 4160 4164 4174 2167 4175 4173 4176 4177 
235 236 461 460 260 261 486 485 2172 4178 4179 4168 2177 4181 4182 4171 2160 2174 4180 4170 4174 4184 2181 4185 4183 4186 4187 
236 237 462 461 261 262 487 486 2186 4188 4189 4178 2191 4191 4192 4181 2174 2188 4190 4180 4184 4194 2195 4195 4193 4196 4197 
237 238 463 462 262 263 488 487 2200 4198 4199 4188 2205 4201 4202 4191 2188 2202 4200 4190 4194 4204 2209 4205 4203 4206 4207 
238 239 464 463 263 264 489 488 2214 4208 4209 4198 2219 4211 4212 4201 2202 2216 4210 4200 4204 4214 2223 4215 4213 4216 4217 
239 240 465 464 264 265 490 489 2228 4218 4219 4208 2233 4221 4222 4211 2216 2230 4220 4210 4214 4224 2237 4225 4223 4226 4227 
240 241 466 465 265 266 491 490 2242 4228 4229 4218 2247 4231 4232 4221 2230 2244 4230 4220 4224 4234 2251 4235 4233 4236 4237 
241 242 467 466 266 267 492 491 2256 4238 4239 4228 2261 4241 4242 4231 2244 2258 4240 4230 4234 4244 2265 4245 4243 4246 4247 
242 243 468 467 267 268 493 492 2270 4248 4249 4238 2275 4251 4252 4241 2258 2272 4250 4240 4244 4254 2279 4255 4253 4256 4257 
243 244 469 468 268 269 494 493 2284 4258 4259 4248 2289 4261 4262 4251 2272 2286 4260 4250 4254 4264 2293 4265 4263 4266 4267 
244 245 470 469 269 270 495 494 2298 4268 4269 4258 2303 4271 4272 4261 2286 2300 4270 4260 4264 4274 2307 4275 4273 4276 4277 
245 246 471 470 270 271 496 495 2312 4278 4279 4268 2317 4281 4282 4271 2300 2314 4280 4270 4274 4284 2321 4285 4283 4286 4287 
246 247 472 471 271 272 497 496 2326 4288 4289 4278 2331 4291 4292 4281 2314 2328 4290 4280 4284 4294 2335 4295 4293 4296 4297 
247 248 473 472 272 273 498 497 2340 4298 4299 4288 2345 4301 4302 4291 2328 2342 4300 4290 4294 4304 2349 4305 4303 4306 4307 
248 249 474 473 273 274 499 498 2354 4308 4309 4298 2359 4311 4312 4301 2342 2356 4310 4300 4304 4314 2363 4315 4313 4316 4317 
250 251 476 475 275 276 501 500 2035 4079 4080 4081 2372 4320 4321 4322 2369 2368 4318 4319 4325 4323 2376 4324 4086 4326 4327 
251 252 477 476 276 277 502 501 2051 4091 4092 4079 2384 4329 4330 4320 2368 2381 4328 4318 4323 4331 2387 4332 4096 4333 4334 
252 253 478 477 277 278 503 502 2065 4101 4102 4091 2394 4336 4337 4329 2381 2391 4335 4328 4331 4338 2397 4339 4106 4340 4341 
253 254 479 478 278 279 504 503 2079 4111 4112 4101 2404 4343 4344 4336 2391 2401 4342 4335 4338 4345 2407 4346 4116 4347 4348 
254 255 480 479 279 280 505 504 2093 4121 4122 4111 2414 4350 4351 4343 2401 2411 4349 4342 4345 4352 2417 4353 4126 4354 4355 
255 256 481 480 280 281 506 505 2107 4131 4132 4121 2424 4357 4358 4350 2411 2421 4356 4349 4352 4359 2427 4360 4136 4361 4362 
256 257 482 481 281 282 507 506 2121 4141 4142 4131 2434 4364 4365 4357 2421 2431 4363 4356 4359 4366 2437 4367 4146 4368 4369 
257 258 483 482 282 283 508 507 2135 4151 4152 4141 2444 4371 4372 4364 2431 2441 4370 4363 4366 4373 2447 4374 4156 4375 4376 
258 259 484 483 283 284 509 508 2149 4161 4162 4151 2454 4378 4379 4371 2441 2451 4377 4370 4373 4380 2457 4381 4166 4382 4383 
259 260 485 484 284 285 510 509 2163 4171 4172 4161 2464 4385 4386 4378 2451 2461 4384 4377 4380 4387 2467 4388 4176 4389 4390 
260 261 486 485 285 286 511 510 2177 4181 4182 4171 2474 4392 4393 4385 2461 2471 4391 4384 4387 4394 2477 4395 4186 4396 4397 
261 262 487 486 286 287 512 511 2191 4191 4192 4181 2484 4399 4400 4392 2471 2481 4398 4391 4394 4401 2487 4402 4196 4403 4404 
262 263 488 487 287 288 513 512 2205 4201 4202 4191 2494 4406 4407 4399 2481 2491 4405 4398 4401 4408 2497 4409 4206 4410 4411 
263 264 489 488 288 289 514 513 2219 4211 4212 4201 2504 4413 4414 4406 2491 2501 4412 4405 4408 4415 2507 4416 4216 4417 4418 
264 265 490 489 289 290 515 514 2233 4221 4222 4211 2514 4420 4421 4413 2501 2511 4419 4412 4415 4422 2517 4423 4226 4424 4425 
265 266 491 490 290 291 516 515 2247 4231 4232 4221 2524 4427 4428 4420 2511 2521 4426 4419 4422 4429 2527 4430 4236 4431 4432 
266 267 492 491 291 292 517 516 2261 4241 4242 4231 2534 4434 4435 4427 2521 2531 4433 4426 4429 4436 2537 4437 4246 4438 4439 
267 268 493 492 292 293 518 517 2275 4251 4252 4241 2544 4441 4442 4434 2531 2541 4440 4433 4436 4443 2547 4444 4256 4445 4446 
268 269 494 493 293 294 519 518 2289 4261 4262 4251 2554 4448 4449 4441 2541 2551 4447 4440 4443 4450 2557 4451 4266 4452 4453 
269 270 495 494 294 295 520 519 2303 4271 4272 4261 2564 4455 4456 4448 2551 2561 4454 4447 4450 4457 2567 4458 4276 4459 4460 
270 271 496 495 295 296 521 520 2317 4281 4282 4271 2574 4462 4463 4455 2561 2571 4461 4454 4457 4464 2577 4465 4286 4466 4467 
271 272 497 496 296 297 522 521 2331 4291 4292 4281 2584 4469 4470 4462 2571 2581 4468 4461 4464 4471 2587 4472 4296 4473 4474 
272 273 498 497 297 298 523 522 2345 4301 4302 4291 2594 4476 4477 4469 2581 2591 4475 4468 4471 4478 2597 4479 4306 4480 4481 
273 274 499 498 298 299 524 523 2359 4311 4312 4301 2604 4483 4484 4476 2591 2601 4482 4475 4478 4485 2607 4486 4316 4487 4488 
275 276 501 500 300 301 526 525 2372 4320 4321 4322 2616 4491 4492 4493 2613 2612 4489 4490 4496 4494 2620 4495 4326 4497 4498 
276 277 502 501 301 302 527 526 2384 4329 4330 4320 2628 4500 4501 4491 2612 2625 4499 4489 4494 4502 2631 4503 4333 4504 4505 
277 278 503 502 302 303 528 527 2394 4336 4337 4329 2638 4507 4508 4500 2625 2635 4506 4499 4502 4509 2641 4510 4340 4511 4512 
278 279 504 503 303 304 529 528 2404 4343 4344 4336 2648 4514 4515 4507 2635 2645 4513 4506 4509 4516 2651 4517 4347 4518 4519 
279 280 505 504 304 305 530 529 2414 4350 4351 4343 2658 4521 4522 4514 2645 2655 4520 4513 4516 4523 2661 4524 4354 4525 4526 
280 281 506 505 305 306 531 530 2424 4357 4358 4350 2668 4528 4529 4521 2655 2665 4527 4520 4523 4530 2671 4531 4361 4532 4533 
281 282 507 506 306 307 532 531 2434 4364 4365 4357 2678 4535 4536 4528 2665 2675 4534 4527 4530 4537 2681 4538 4368 4539 4540 
282 283 508 507 307 308 533 532 2444 4371 4372 4364 2688 4542 4543 4535 2675 2685 4541 4534 4537 4544 2691 4545 4375 4546 4547 
283 284 509 508 308 309 534 533 2454 4378 4379 4371 2698 4549 4550 4542 2685 2695 4548 4541 4544 4551 2701 4552 4382 4553 4554 
284 285 510 509 309 310 535 534 2464 4385 4386 4378 2708 4556 4557 4549 2695 2705 4555 4548 4551 4558 2711 4559 4389 4560 4561 
285 286 511 510 310 311 536 535 2474 4392 4393 4385 2718 4563 4564 4556 2705 2715 4562 4555 4558 4565 2721 4566 4396 4567 4568 
286 287 512 511 311 312 537 536 2484 4399 4400 4392 2728 4570 4571 4563 2715 2725 4569 4562 4565 4572 2731 4573 4403 4574 4575 
287 288 513 512 312 313 538 537 2494 4406 4407 4399 2738 4577 4578 4570 2725 2735 4576 4569 4572 4579 2741 4580 4410 4581 4582 
288 289 514 513 313 314 539 538 2504 4413 4414 4406 2748 4584 4585 4577 2735 2745 4583 4576 4579 4586 2751 4587 4417 4588 4589 
289 290 515 514 314 315 540 539 2514 4420 4421 4413 2758 4591 4592 4584 2745 2755 4590 4583 4586 4593 2761 4594 4424 4595 4596 
290 291 516 515 315 316 541 540 2524 4427 4428 4420 2768 4598 4599 4591 2755 2765 4597 4590 4593 4600 2771 4601 4431 4602 4603 
291 292 517 516 316 317 542 541 2534 4434 4435 4427 2778 4605 4606 4598 2765 2775 4604 4597 4600 4607 2781 4608 4438 4609 4610 
292 293 518 517 317 318 543 542 2544 4441 4442 4434 2788 4612 4613 4605 2775 2785 4611 4604 4607 4614 2791 4615 4445 4616 4617 
293 294 519 518 318 319 544 543 2554 4448 4449 4441 2798 4619 4620 4612 2785 2795 4618 4611 4614 4621 2801 4622 4452 4623 4624 
294 295 520 519 319 320 545 544 2564 4455 4456 4448 2808 4626 4627 4619 2795 2805 4625 4618 4621 4628 2811 4629 4459 4630 4631 
295 296 521 520 320 321 546 545 2574 4462 4463 4455 2818 4633 4634 4626 2805 2815 4632 4625 4628 4635 2821 4636 4466 4637 4638 
296 297 522 521 321 322 547 546 2584 4469 4470 4462 2828 4640 4641 4633 2815 2825 4639 4632 4635 4642 2831 4643 4473 4644 4645 
297 298 523 522 322 323 548 547 2594 4476 4477 4469 2838 4647 4648 4640 2825 2835 4646 4639 4642 4649 2841 4650 4480 4651 4652 
298 299 524 523 323 324 549 548 2604 4483 4484 4476 2848 4654 4655 4647 2835 2845 4653 4646 4649 4656 2851 4657 4487 4658 4659 
300 301 526 525 325 326 551 550 2616 4491 4492 4493 2860 4662 4663 4664 2857 2856 4660 4661 4667 4665 2864 4666 4497 4668 4669 
301 302 527 526 326 327 552 551 2628 4500 4501 4491 2872 4671 4672 4662 2856 2869 4670 4660 4665 4673 2875 4674 4504 4675 4676 
302 303 528 527 327 328 553 552 2638 4507 4508 4500 2882 4678 4679 4671 2869 2879 4677 4670 4673 4680 2885 4681 4511 4682 4683 
303 304 529 528 328 329 554 553 2648 4514 4515 4507 2892 4685 4686 4678 2879 2889 4684 4677 4680 4687 2895 4688 4518 4689 4690 
304 305 530 529 329 330 555 554 2658 4521 4522 4514 2902 4692 4693 4685 2889 2899 4691 4684 4687 4694 2905 4695 4525 4696 4697 
305 306 531 530 330 331 556 555 2668 4528 4529 4521 2912 4699 4700 4692 2899 2909 4698 4691 4694 4701 2915 4702 4532 4703 4704 
306 307 532 531 331 332 557 556 2678 4535 4536 4528 2922 4706 4707 4699 2909 2919 4705 4698 4701 4708 2925 4709 4539 4710 4711 
307 308 533 532 332 333 558 557 2688 4542 4543 4535 2932 4713 4714 4706 2919 2929 4712 4705 4708 4715 2935 4716 4546 4717 4718 
308 309 534 533 333 334 559 558 2698 4549 4550 4542 2942 4720 4721 4713 2929 2939 4719 4712 4715 4722 2945 4723 4553 4724 4725 
309 310 535 534 334 335 560 559 2708 4556 4557 4549 2952 4727 4728 4720 2939 2949 4726 4719 4722 4729 2955 4730 4560 4731 4732 
310 311 536 535 335 336 561 560 2718 4563 4564 4556 2962 4734 4735 4727 2949 2959 4733 4726 4729 4736 2965 4737 4567 4738 4739 
311 312 537 536 336 337 562 561 2728 4570 4571 4563 2972 4741 4742 4734 2959 2969 4740 4733 4736 4743 2975 4744 4574 4745 4746 
312 313 538 537 337 338 563 562 2738 4577 4578 4570 2982 4748 4749 4741 2969 2979 4747 4740 4743 4750 2985 4751 4581 4752 4753 
313 314 539 538 338 339 564 563 2748 4584 4585 4577 2992 4755 4756 4748 2979 2989 4754 4747 4750 4757 2995 4758 4588 4759 4760 
314 315 540 539 339 340 565 564 2758 4591 4592 4584 3002 4762 4763 4755 2989 2999 4761 4754 4757 4764 3005 4765 4595 4766 4767 
315 316 541 540 340 341 566 565 2768 4598 4599 4591 3012 4769 4770 4762 2999 3009 4768 4761 4764 4771 3015 4772 4602 4773 4774 
316 317 542 541 341 342 567 566 2778 4605 4606 4598 3022 4776 4777 4769 3009 3019 4775 4768 4771 4778 3025 4779 4609 4780 4781 
317 318 543 542 342 343 568 567 2788 4612 4613 4605 3032 4783 4784 4776 3019 3029 4782 4775 4778 4785 3035 4786 4616 4787 4788 
318 319 544 543 343 344 569 568 2798 4619 4620 4612 3042 4790 4791 4783 3029 3039 4789 4782 4785 4792 3045 4793 4623 4794 4795 
319 320 545 544 344 345 570 569 2808 4626 4627 4619 3052 4797 4798 4790 3039 3049 4796 4789 4792 4799 3055 4800 4630 4801 4802 
320 321 546 545 345 346 571 570 2818 4633 4634 4626 3062 4804 4805 4797 3049 3059 4803 4796 4799 4806 3065 4807 4637 4808 4809 
321 322 547 546 346 347 572 571 2828 4640 4641 4633 3072 4811 4812 4804 3059 3069 4810 4803 4806 4813 3075 4814 4644 4815 4816 
322 323 548 547 347 348 573 572 2838 4647 4648 4640 3082 4818 4819 4811 3069 3079 4817 4810 4813 4820 3085 4821 4651 4822 4823 
323 324 549 548 348 349 574 573 2848 4654 4655 4647 3092 4825 4826 4818 3079 3089 4824 4817 4820 4827 3095 4828 4658 4829 4830 
325 326 551 550 350 351 576 575 2860 4662 4663 4664 3104 4833 4834 4835 3101 3100 4831 4832 4838 4836 3108 4837 4668 4839 4840 
326 327 552 551 351 352 577 576 2872 4671 4672 4662 3116 4842 4843 4833 3100 3113 4841 4831 4836 4844 3119 4845 4675 4846 4847 
327 328 553 552 352 353 578 577 2882 4678 4679 4671 3126 4849 4850 4842 3113 3123 4848 4841 4844 4851 3129 4852 4682 4853 4854 
328 329 554 553 353 354 579 578 2892 4685 4686 4678 3136 4856 4857 4849 3123 3133 4855 4848 4851 4858 3139 4859 4689 4860 4861 
329 330 555 554 354 355 580 579 2902 4692 4693 4685 3146 4863 4864 4856 3133 3143 4862 4855 4858 4865 3149 4866 4696 4867 4868 
330 331 556 555 355 356 581 580 2912 4699 4700 4692 3156 4870 4871 4863 3143 3153 4869 4862 4865 4872 3159 4873 4703 4874 4875 
331 332 557 556 356 357 582 581 2922 4706 4707 4699 3166 4877 4878 4870 3153 3163 4876 4869 4872 4879 3169 4880 4710 4881 4882 
332 333 558 557 357 358 583 582 2932 4713 4714 4706 3176 4884 4885 4877 3163 3173 4883 4876 4879 4886 3179 4887 4717 4888 4889 
333 334 559 558 358 359 584 583 2942 4720 4721 4713 3186 4891 4892 4884 3173 3183 4890 4883 4886 4893 3189 4894 4724 4895 4896 
334 335 560 559 359 360 585 584 2952 4727 4728 4720 3196 4898 4899 4891 3183 3193 4897 4890 4893 4900 3199 4901 4731 4902 4903 
335 336 561 560 360 361 586 585 2962 4734 4735 4727 3206 4905 4906 4898 3193 3203 4904 4897 4900 4907 3209 4908 4738 4909 4910 
336 337 562 561 361 362 587 586 2972 4741 4742 4734 3216 4912 4913 4905 3203 3213 4911 4904 4907 4914 3219 4915 4745 4916 4917 
337 338 563 562 362 363 588 587 2982 4748 4749 4741 3226 4919 4920 4912 3213 3223 4918 4911 4914 4921 3229 4922 4752 4923 4924 
338 339 564 563 363 364 589 588 2992 4755 4756 4748 3236 4926 4927 4919 3223 3233 4925 4918 4921 4928 3239 4929 4759 4930 4931 
339 340 565 564 364 365 590 589 3002 4762 4763 4755 3246 4933 4934 4926 3233 3243 4932 4925 4928 4935 3249 4936 4766 4937 4938 
340 341 566 565 365 366 591 590 3012 4769 4770 4762 3256 4940 4941 4933 3243 3253 4939 4932 4935 4942 3259 4943 4773 4944 4945 
341 342 567 566 366 367 592 591 3022 4776 4777 4769 3266 4947 4948 4940 3253 3263 4946 4939 4942 4949 3269 4950 4780 4951 4952 
342 343 568 567 367 368 593 592 3032 4783 4784 4776 3276 4954 4955 4947 3263 3273 4953 4946 4949 4956 3279 4957 4787 4958 4959 
343 344 569 568 368 369 594 593 3042 4790 4791 4783 3286 4961 4962 4954 3273 3283 4960 4953 4956 4963 3289 4964 4794 4965 4966 
344 345 570 569 369 370 595 594 3052 4797 4798 4790 3296 4968 4969 4961 3283 3293 4967 4960 4963 4970 3299 4971 4801 4972 4973 
345 346 571 570 370 371 596 595 3062 4804 4805 4797 3306 4975 4976 4968 3293 3303 4974 4967 4970 4977 3309 4978 4808 4979 4980 
346 347 572 571 371 372 597 596 3072 4811 4812 4804 3316 4982 4983 4975 3303 3313 4981 4974 4977 4984 3319 4985 4815 4986 4987 
347 348 573 572 372 373 598 597 3082 4818 4819 4811 3326 4989 4990 4982 3313 3323 4988 4981 4984 4991 3329 4992 4822 4993 4994 
348 349 574 573 373 374 599 598 3092 4825 4826 4818 3336 4996 4997 4989 3323 3333 4995 4988 4991 4998 3339 4999 4829 5000 5001 
350 351 576 575 375 376 601 600 3104 4833 4834 4835 3348 5004 5005 5006 3345 3344 5002 5003 5009 5007 3352 5008 4839 5010 5011 
351 352 577 576 376 377 602 601 3116 4842 4843 4833 3360 5013 5014 5004 3344 3357 5012 5002 5007 5015 3363 5016 4846 5017 5018 
352 353 578 577 377 378 603 602 3126 4849 4850 4842 3370 5020 5021 5013 3357 3367 5019 5012 5015 5022 3373 5023 4853 5024 5025 
353 354 579 578 378 379 604 603 3136 4856 4857 4849 3380 5027 5028 5020 3367 3377 5026 5019 5022 5029 3383 5030 4860 5031 5032 
354 355 580 579 379 380 605 604 3146 4863 4864 4856 3390 5034 5035 5027 3377 3387 5033 5026 5029 5036 3393 5037 4867 5038 5039 
355 356 581 580 380 381 606 605 3156 4870 4871 4863 3400 5041 5042 5034 3387 3397 5040 5033 5036 5043 3403 5044 4874 5045 5046 
356 357 582 581 381 382 607 606 3166 4877 4878 4870 3410 5048 5049 5041 3397 3407 5047 5040 5043 5050 3413 5051 4881 5052 5053 
357 358 583 582 382 383 608 607 3176 4884 4885 4877 3420 5055 5056 5048 3407 3417 5054 5047 5050 5057 3423 5058 4888 5059 5060 
358 359 584 583 383 384 609 608 3186 4891 4892 4884 3430 5062 5063 5055 3417 3427 5061 5054 5057 5064 3433 5065 4895 5066 5067 
359 360 585 584 384 385 610 609 3196 4898 4899 4891 3440 5069 5070 5062 3427 3437 5068 5061 5064 5071 3443 5072 4902 5073 5074 
360 361 586 585 385 386 611 610 3206 4905 4906 4898 3450 5076 5077 5069 3437 3447 5075 5068 5071 5078 3453 5079 4909 5080 5081 
361 362 587 586 386 387 612 611 3216 4912 4913 4905 3460 5083 5084 5076 3447 3457 5082 5075 5078 5085 3463 5086 4916 5087 5088 
362 363 588 587 387 388 613 612 3226 4919 4920 4912 3470 5090 5091 5083 3457 3467 5089 5082 5085 5092 3473 5093 4923 5094 5095 
363 364 589 588 388 389 614 613 3236 4926 4927 4919 3480 5097 5098 5090 3467 3477 5096 5089 5092 5099 3483 5100 4930 5101 5102 
364 365 590 589 389 390 615 614 3246 4933 4934 4926 3490 5104 5105 5097 3477 3487 5103 5096 5099 5106 3493 5107 4937 5108 5109 
365 366 591 590 390 391 616 615 3256 4940 4941 4933 3500 5111 5112 5104 3487 3497 5110 5103 5106 5113 3503 5114 4944 5115 5116 
366 367 592 591 391 392 617 616 3266 4947 4948 4940 3510 5118 5119 5111 3497 3507 5117 5110 5113 5120 3513 5121 4951 5122 5123 
367 368 593 592 392 393 618 617 3276 4954 4955 4947 3520 5125 5126 5118 3507 3517 5124 5117 5120 5127 3523 5128 4958 5129 5130 
368 369 594 593 393 394 619 618 3286 4961 4962 4954 3530 5132 5133 5125 3517 3527 5131 5124 5127 5134 3533 5135 4965 5136 5137 
369 370 595 594 394 395 620 619 3296 4968 4969 4961 3540 5139 5140 5132 3527 3537 5138 5131 5134 5141 3543 5142 4972 5143 5144 
370 371 596 595 395 396 621 620 3306 4975 4976 4968 3550 5146 5147 5139 3537 3547 5145 5138 5141 5148 3553 5149 4979 5150 5151 
371 372 597 596 396 397 622 621 3316 4982 4983 4975 3560 5153 5154 5146 3547 3557 5152 5145 5148 5155 3563 5156 4986 5157 5158 
372 373 598 597 397 398 623 622 3326 4989 4990 4982 3570 5160 5161 5153 3557 3567 5159 5152 5155 5162 3573 5163 4993 5164 5165 
373 374 599 598 398 399 624 623 3336 4996 4997 4989 3580 5167 5168 5160 3567 3577 5166 5159 5162 5169 3583 5170 5000 5171 5172 
375 376 601 600 400 401 626 625 3348 5004 5005 5006 3592 5175 5176 5177 3589 3588 5173 5174 5180 5178 3596 5179 5010 5181 5182 
376 377 602 601 401 402 627 626 3360 5013 5014 5004 3604 5184 5185 5175 3588 3601 5183 5173 5178 5186 3607 5187 5017 5188 5189 
377 378 603 602 402 403 628 627 3370 5020 5021 5013 3614 5191 5192 5184 3601 3611 5190 5183 5186 5193 3617 5194 5024 5195 5196 
378 379 604 603 403 404 629 628 3380 5027 5028 5020 3624 5198 5199 5191 3611 3621 5197 5190 5193 5200 3627 5201 5031 5202 5203 
379 380 605 604 404 405 630 629 3390 5034 5035 5027 3634 5205 5206 5198 3621 3631 5204 5197 5200 5207 3637 5208 5038 5209 5210 
380 381 606 605 405 406 631 630 3400 5041 5042 5034 3644 5212 5213 5205 3631 3641 5211 5204 5207 5214 3647 5215 5045 5216 5217 
381 382 607 606 406 407 632 631 3410 5048 5049 5041 3654 5219 5220 5212 3641 3651 5218 5211 5214 5221 3657 5222 5052 5223 5224 
382 383 608 607 407 408 633 632 3420 5055 5056 5048 3664 5226 5227 5219 3651 3661 5225 5218 5221 5228 3667 5229 5059 5230 5231 
383 384 609 608 408 409 634 633 3430 5062 5063 5055 3674 5233 5234 5226 3661 3671 5232 5225 5228 5235 3677 5236 5066 5237 5238 
384 385 610 609 409 410 635 634 3440 5069 5070 5062 3684 5240 5241 5233 3671 3681 5239 5232 5235 5242 3687 5243 5073 5244 5245 
385 386 611 610 410 411 636 635 3450 5076 5077 5069 3694 5247 5248 5240 3681 3691 5246 5239 5242 5249 3697 5250 5080 5251 5252 
386 387 612 611 411 412 637 636 3460 5083 5084 5076 3704 5254 5255 5247 3691 3701 5253 5246 5249 5256 3707 5257 5087 5258 5259 
387 388 613 612 412 413 638 637 3470 5090 5091 5083 3714 5261 5262 5254 3701 3711 5260 5253 5256 5263 3717 5264 5094 5265 5266 
388 389 614 613 413 414 639 638 3480 5097 5098 5090 3724 5268 5269 5261 3711 3721 5267 5260 5263 5270 3727 5271 5101 5272 5273 
389 390 615 614 414 415 640 639 3490 5104 5105 5097 3734 5275 5276 5268 3721 3731 5274 5267 5270 5277 3737 5278 5108 5279 5280 
390 391 616 615 415 416 641 640 3500 5111 5112 5104 3744 5282 5283 5275 3731 3741 5281 5274 5277 5284 3747 5285 5115 5286 5287 
391 392 617 616 416 417 642 641 3510 5118 5119 5111 3754 5289 5290 5282 3741 3751 5288 5281 5284 5291 3757 5292 5122 5293 5294 
392 393 618 617 417 418 643 642 3520 5125 5126 5118 3764 5296 5297 5289 3751 3761 5295 5288 5291 5298 3767 5299 5129 5300 5301 
393 394 619 618 418 419 644 643 3530 5132 5133 5125 3774 5303 5304 5296 3761 3771 5302 5295 5298 5305 3777 5306 5136 5307 5308 
394 395 620 619 419 420 645 644 3540 5139 5140 5132 3784 5310 5311 5303 3771 3781 5309 5302 5305 5312 3787 5313 5143 5314 5315 
395 396 621 620 420 421 646 645 3550 5146 5147 5139 3794 5317 5318 5310 3781 3791 5316 5309 5312 5319 3797 5320 5150 5321 5322 
396 397 622 621 421 422 647 646 3560 5153 5154 5146 3804 5324 5325 5317 3791 3801 5323 5316 5319 5326 3807 5327 5157 5328 5329 
397 398 623 622 422 423 648 647 3570 5160 5161 5153 3814 5331 5332 5324 3801 3811 5330 5323 5326 5333 3817 5334 5164 5335 5336 
398 399 624 623 423 424 649 648 3580 5167 5168 5160 3824 5338 5339 5331 3811 3821 5337 5330 5333 5340 3827 5341 5171 5342 5343 
400 401 626 625 425 426 651 650 3592 5175 5176 5177 3836 5346 5347 5348 3833 3832 5344 5345 5351 5349 3840 5350 5181 5352 5353 
401 402 627 626 426 427 652 651 3604 5184 5185 5175 3848 5355 5356 5346 3832 3845 5354 5344 5349 5357 3851 5358 5188 5359 5360 
402 403 628 627 427 428 653 652 3614 5191 5192 5184 3858 5362 5363 5355 3845 3855 5361 5354 5357 5364 3861 5365 5195 5366 5367 
403 404 629 628 428 429 654 653 3624 5198 5199 5191 3868 5369 5370 5362 3855 3865 5368 5361 5364 5371 3871 5372 5202 5373 5374 
404 405 630 629 429 430 655 654 3634 5205 5206 5198 3878 5376 5377 5369 3865 3875 5375 5368 5371 5378 3881 5379 5209 5380 5381 
405 406 631 630 430 431 656 655 3644 5212 5213 5205 3888 5383 5384 5376 3875 3885 5382 5375 5378 5385 3891 5386 5216 5387 5388 
406 407 632 631 431 432 657 656 3654 5219 5220 5212 3898 5390 5391 5383 3885 3895 5389 5382 5385 5392 3901 5393 5223 5394 5395 
407 408 633 632 432 433 658 657 3664 5226 5227 5219 3908 5397 5398 5390 3895 3905 5396 5389 5392 5399 3911 5400 5230 5401 5402 
408 409 634 633 433 434 659 658 3674 5233 5234 5226 3918 5404 5405 5397 3905 3915 5403 5396 5399 5406 3921 5407 5237 5408 5409 
409 410 635 634 434 435 660 659 3684 5240 5241 5233 3928 5411 5412 5404 3915 3925 5410 5403 5406 5413 3931 5414 5244 5415 5416 
410 411 636 635 435 436 661 660 3694 5247 5248 5240 3938 5418 5419 5411 3925 3935 5417 5410 5413 5420 3941 5421 5251 5422 5423 
411 412 637 636 436 437 662 661 3704 5254 5255 5247 3948 5425 5426 5418 3935 3945 5424 5417 5420 5427 3951 5428 5258 5429 5430 
412 413 638 637 437 438 663 662 3714 5261 5262 5254 3958 5432 5433 5425 3945 3955 5431 5424 5427 5434 3961 5435 5265 5436 5437 
413 414 639 638 438 439 664 663 3724 5268 5269 5261 3968 5439 5440 5432 3955 3965 5438 5431 5434 5441 3971 5442 5272 5443 5444 
414 415 640 639 439 440 665 664 3734 5275 5276 5268 3978 5446 5447 5439 3965 3975 5445 5438 5441 5448 3981 5449 5279 5450 5451 
415 416 641 640 440 441 666 665 3744 5282 5283 5275 3988 5453 5454 5446 3975 3985 5452 5445 5448 5455 3991 5456 5286 5457 5458 
416 417 642 641 441 442 667 666 3754 5289 5290 5282 3998 5460 5461 5453 3985 3995 5459 5452 5455 5462 4001 5463 5293 5464 5465 
417 418 643 642 442 443 668 667 3764 5296 5297 5289 4008 5467 5468 5460 3995 4005 5466 5459 5462 5469 4011 5470 5300 5471 5472 
418 419 644 643 443 444 669 668 3774 5303 5304 5296 4018 5474 5475 5467 4005 4015 5473 5466 5469 5476 4021 5477 5307 5478 5479 
419 420 645 644 444 445 670 669 3784 5310 5311 5303 4028 5481 5482 5474 4015 4025 5480 5473 5476 5483 4031 5484 5314 5485 5486 
420 421 646 645 445 446 671 670 3794 5317 5318 5310 4038 5488 5489 5481 4025 4035 5487 5480 5483 5490 4041 5491 5321 5492 5493 
421 422 647 646 446 447 672 671 3804 5324 5325 5317 4048 5495 5496 5488 4035 4045 5494 5487 5490 5497 4051 5498 5328 5499 5500 
422 423 648 647 447 448 673 672 3814 5331 5332 5324 4058 5502 5503 5495 4045 4055 5501 5494 5497 5504 4061 5505 5335 5506 5507 
423 424 649 648 448 449 674 673 3824 5338 5339 5331 4068 5509 5510 5502 4055 4065 5508 5501 5504 5511 4071 5512 5342 5513 5514 
450 451 676 675 475 476 701 700 4075 5515 5516 5517 4080 5520 5521 5522 4078 4077 5518 5519 5526 5524 4084 5525 5523 5527 5528 
451 452 677 676 476 477 702 701 4089 5529 5530 5515 4092 5532 5533 5520 4077 4090 5531 5518 5524 5535 4095 5536 5534 5537 5538 
452 453 678 677 477 478 703 702 4099 5539 5540 5529 4102 5542 5543 5532 4090 4100 5541 5531 5535 5545 4105 5546 5544 5547 5548 
453 454 679 678 478 479 704 703 4109 5549 5550 5539 4112 5552 5553 5542 4100 4110 5551 5541 5545 5555 4115 5556 5554 5557 5558 
454 455 680 679 479 480 705 704 4119 5559 5560 5549 4122 5562 5563 5552 4110 4120 5561 5551 5555 5565 4125 5566 5564 5567 5568 
455 456 681 680 480 481 706 705 4129 5569 5570 5559 4132 5572 5573 5562 4120 4130 5571 5561 5565 5575 4135 5576 5574 5577 5578 
456 457 682 681 481 482 707 706 4139 5579 5580 5569 4142 5582 5583 5572 4130 4140 5581 5571 5575 5585 4145 5586 5584 5587 5588 
457 458 683 682 482 483 708 707 4149 5589 5590 5579 4152 5592 5593 5582 4140 4150 5591 5581 5585 5595 4155 5596 5594 5597 5598 
458 459 684 683 483 484 709 708 4159 5599 5600 5589 4162 5602 5603 5592 4150 4160 5601 5591 5595 5605 4165 5606 5604 5607 5608 
459 460 685 684 484 485 710 709 4169 5609 5610 5599 4172 5612 5613 5602 4160 4170 5611 5601 5605 5615 4175 5616 5614 5617 5618 
460 461 686 685 485 486 711 710 4179 5619 5620 5609 4182 5622 5623 5612 4170 4180 5621 5611 5615 5625 4185 5626 5624 5627 5628 
461 462 687 686 486 487 712 711 4189 5629 5630 5619 4192 5632 5633 5622 4180 4190 5631 5621 5625 5635 4195 5636 5634 5637 5638 
462 463 688 687 487 488 713 712 4199 5639 5640 5629 4202 5642 5643 5632 4190 4200 5641 5631 5635 5645 4205 5646 5644 5647 5648 
463 464 689 688 488 489 714 713 4209 5649 5650 5639 4212 5652 5653 5642 4200 4210 5651 5641 5645 5655 4215 5656 5654 5657 5658 
464 465 690 689 489 490 715 714 4219 5659 5660 5649 4222 5662 5663 5652 4210 4220 5661 5651 5655 5665 4225 5666 5664 5667 5668 
465 466 691 690 490 491 716 715 4229 5669 5670 5659 4232 5672 5673 5662 4220 4230 5671 5661 5665 5675 4235 5676 5674 5677 5678 
466 467 692 691 491 492 717 716 4239 5679 5680 5669 4242 5682 5683 5672 4230 4240 5681 5671 5675 5685 4245 5686 5684 5687 5688 
467 468 693 692 492 493 718 717 4249 5689 5690 5679 4252 5692 5693 5682 4240 4250 5691 5681 5685 5695 4255 5696 5694 5697 5698 
468 469 694 693 493 494 719 718 4259 5699 5700 5689 4262 5702 5703 5692 4250 4260 5701 5691 5695 5705 4265 5706 5704 5707 5708 
469 470 695 694 494 495 720 719 4269 5709 5710 5699 4272 5712 5713 5702 4260 4270 5711 5701 5705 5715 4275 5716 5714 5717 5718 
470 471 696 695 495 496 721 720 4279 5719 5720 5709 4282 5722 5723 5712 4270 4280 5721 5711 5715 5725 4285 5726 5724 5727 5728 
471 472 697 696 496 497 722 721 4289 5729 5730 5719 4292 5732 5733 5722 4280 4290 5731 5721 5725 5735 4295 5736 5734 5737 5738 
472 473 698 697 497 498 723 722 4299 5739 5740 5729 4302 5742 5743 5732 4290 4300 5741 5731 5735 5745 4305 5746 5744 5747 5748 
473 474 699 698 498 499 724 723 4309 5749 5750 5739 4312 5752 5753 5742 4300 4310 5751 5741 5745 5755 4315 5756 5754 5757 5758 
475 476 701 700 500 501 726 725 4080 5520 5521 5522 4321 5761 5762 5763 4319 4318 5759 5760 5766 5764 4324 5765 5527 5767 5768 
476 477 702 701 501 502 727 726 4092 5532 5533 5520 4330 5770 5771 5761 4318 4328 5769 5759 5764 5772 4332 5773 5537 5774 5775 
477 478 703 702 502 503 728 727 4102 5542 5543 5532 4337 5777 5778 5770 4328 4335 5776 5769 5772 5779 4339 5780 5547 5781 5782 
478 479 704 703 503 504 729 728 4112 5552 5553 5542 4344 5784 5785 5777 4335 4342 5783 5776 5779 5786 4346 5787 5557 5788 5789 
479 480 705 704 504 505 730 729 4122 5562 5563 5552 4351 5791 5792 5784 4342 4349 5790 5783 5786 5793 4353 5794 5567 5795 5796 
480 481 706 705 505 506 731 730 4132 5572 5573 5562 4358 5798 5799 5791 4349 4356 5797 5790 5793 5800 4360 5801 5577 5802 5803 
481 482 707 706 506 507 732 731 4142 5582 5583 5572 4365 5805 5806 5798 4356 4363 5804 5797 5800 5807 4367 5808 5587 5809 5810 
482 483 708 707 507 508 733 732 4152 5592 5593 5582 4372 5812 5813 5805 4363 4370 5811 5804 5807 5814 4374 5815 5597 5816 5817 
483 484 709 708 508 509 734 733 4162 5602 5603 5592 4379 5819 5820 5812 4370 4377 5818 5811 5814 5821 4381 5822 5607 5823 5824 
484 485 710 709 509 510 735 734 4172 5612 5613 5602 4386 5826 5827 5819 4377 4384 5825 5818 5821 5828 4388 5829 5617 5830 5831 
485 486 711 710 510 511 736 735 4182 5622 5623 5612 4393 5833 5834 5826 4384 4391 5832 5825 5828 5835 4395 5836 5627 5837 5838 
486 487 712 711 511 512 737 736 4192 5632 5633 5622 4400 5840 5841 5833 4391 4398 5839 5832 5835 5842 4402 5843 5637 5844 5845 
487 488 713 712 512 513 738 737 4202 5642 5643 5632 4407 5847 5848 5840 4398 4405 5846 5839 5842 5849 4409 5850 5647 5851 5852 
488 489 714 713 513 514 739 738 4212 5652 5653 5642 4414 5854 5855 5847 4405 4412 5853 5846 5849 5856 4416 5857 5657 5858 5859 
489 490 715 714 514 515 740 739 4222 5662 5663 5652 4421 5861 5862 5854 4412 4419 5860 5853 5856 5863 4423 5864 5667 5865 5866 
490 491 716 715 515 516 741 740 4232 5672 5673 5662 4428 5868 5869 5861 4419 4426 5867 5860 5863 5870 4430 5871 5677 5872 5873 
491 492 717 716 516 517 742 741 4242 5682 5683 5672 4435 5875 5876 5868 4426 4433 5874 5867 5870 5877 4437 5878 5687 5879 5880 
492 493 718 717 517 518 743 742 4252 5692 5693 5682 4442 5882 5883 5875 4433 4440 5881 5874 5877 5884 4444 5885 5697 5886 5887 
493 494 719 718 518 519 744 743 4262 5702 5703 5692 4449 5889 5890 5882 4440 4447 5888 5881 5884 5891 4451 5892 5707 5893 5894 
494 495 720 719 519 520 745 744 4272 5712 5713 5702 4456 5896 5897 5889 4447 4454 5895 5888 5891 5898 4458 5899 5717 5900 5901 
495 496 721 720 520 521 746 745 4282 5722 5723 5712 4463 5903 5904 5896 4454 4461 5902 5895 5898 5905 4465 5906 5727 5907 5908 
496 497 722 721 521 522 747 746 4292 5732 5733 5722 4470 5910 5911 5903 4461 4468 5909 5902 5905 5912 4472 5913 5737 5914 5915 
497 498 723 722 522 523 748 747 4302 5742 5743 5732 4477 5917 5918 5910 4468 4475 5916 5909 5912 5919 4479 5920 5747 5921 5922 
498 499 724 723 523 524 749 748 4312 5752 5753 5742 4484 5924 5925 5917 4475 4482 5923 5916 5919 5926 4486 5927 5757 5928 5929 
500 501 726 725 525 526 751 750 4321 5761 5762 5763 4492 5932 5933 5934 4490 4489 5930 5931 5937 5935 4495 5936 5767 5938 5939 
501 502 727 726 526 527 752 751 4330 5770 5771 5761 4501 5941 5942 5932 4489 4499 5940 5930 5935 5943 4503 5944 5774 5945 5946 
502 503 728 727 527 528 753 752 4337 5777 5778 5770 4508 5948 5949 5941 4499 4506 5947 5940 5943 5950 4510 5951 5781 5952 5953 
503 504 729 728 528 529 754 753 4344 5784 5785 5777 4515 5955 5956 5948 4506 4513 5954 5947 5950 5957 4517 5958 5788 5959 5960 
504 505 730 729 529 530 755 754 4351 5791 5792 5784 4522 5962 5963 5955 4513 4520 5961 5954 5957 5964 4524 5965 5795 5966 5967 
505 506 731 730 530 531 756 755 4358 5798 5799 5791 4529 5969 5970 5962 4520 4527 5968 5961 5964 5971 4531 5972 5802 5973 5974 
506 507 732 731 531 532 757 756 4365 5805 5806 5798 4536 5976 5977 5969 4527 4534 5975 5968 5971 5978 4538 5979 5809 5980 5981 
507 508 733 732 532 533 758 757 4372 5812 5813 5805 4543 5983 5984 5976 4534 4541 5982 5975 5978 5985 4545 5986 5816 5987 5988 
508 509 734 733 533 534 759 758 4379 5819 5820 5812 4550 5990 5991 5983 4541 4548 5989 5982 5985 5992 4552 5993 5823 5994 5995 
509 510 735 734 534 535 760 759 4386 5826 5827 5819 4557 5997 5998 5990 4548 4555 5996 5989 5992 5999 4559 6000 5830 6001 6002 
510 511 736 735 535 536 761 760 4393 5833 5834 5826 4564 6004 6005 5997 4555 4562 6003 5996 5999 6006 4566 6007 5837 6008 6009 
511 512 737 736 536 537 762 761 4400 5840 5841 5833 4571 6011 6012 6004 4562 4569 6010 6003 6006 6013 4573 6014 5844 6015 6016 
512 513 738 737 537 538 763 762 4407 5847 5848 5840 4578 6018 6019 6011 4569 4576 6017 6010 6013 6020 4580 6021 5851 6022 6023 
513 514 739 738 538 539 764 763 4414 5854 5855 5847 4585 6025 6026 6018 4576 4583 6024 6017 6020 6027 4587 6028 5858 6029 6030 
514 515 740 739 539 540 765 764 4421 5861 5862 5854 4592 6032 6033 6025 4583 4590 6031 6024 6027 6034 4594 6035 5865 6036 6037 
515 516 741 740 540 541 766 765 4428 5868 5869 5861 4599 6039 6040 6032 4590 4597 6038 6031 6034 6041 4601 6042 5872 6043 6044 
516 517 742 741 541 542 767 766 4435 5875 5876 5868 4606 6046 6047 6039 4597 4604 6045 6038 6041 6048 4608 6049 5879 6050 6051 
517 518 743 742 542 543 768 767 4442 5882 5883 5875 4613 6053 6054 6046 4604 4611 6052 6045 6048 6055 4615 6056 5886 6057 6058 
518 519 744 743 543 544 769 768 4449 5889 5890 5882 4620 6060 6061 6053 4611 4618 6059 6052 6055 6062 4622 6063 5893 6064 6065 
519 520 745 744 544 545 770 769 4456 5896 5897 5889 4627 6067 6068 6060 4618 4625 6066 6059 6062 6069 4629 6070 5900 6071 6072 
520 521 746 745 545 546 771 770 4463 5903 5904 5896 4634 6074 6075 6067 4625 4632 6073 6066 6069 6076 4636 6077 5907 6078 6079 
521 522 747 746 546 547 772 771 4470 5910 5911 5903 4641 6081 6082 6074 4632 4639 6080 6073 6076 6083 4643 6084 5914 6085 6086 
522 523 748 747 547 548 773 772 4477 5917 5918 5910 4648 6088 6089 6081 4639 4646 6087 6080 6083 6090 4650 6091 5921 6092 6093 
523 524 749 748 548 549 774 773 4484 5924 5925 5917 4655 6095 6096 6088 4646 4653 6094 6087 6090 6097 4657 6098 5928 6099 6100 
525 526 751 750 550 551 776 775 4492 5932 5933 5934 4663 6103 6104 6105 4661 4660 6101 6102 6108 6106 4666 6107 5938 6109 6110 
526 527 752 751 551 552 777 776 4501 5941 5942 5932 4672 6112 6113 6103 4660 4670 6111 6101 6106 6114 4674 6115 5945 6116 6117 
527 528 753 752 552 553 778 777 4508 5948 5949 5941 4679 6119 6120 6112 4670 4677 6118 6111 6114 6121 4681 6122 5952 6123 6124 
528 529 754 753 553 554 779 778 4515 5955 5956 5948 4686 6126 6127 6119 4677 4684 6125 6118 6121 6128 4688 6129 5959 6130 6131 
529 530 755 754 554 555 780 779 4522 5962 5963 5955 4693 6133 6134 6126 4684 4691 6132 6125 6128 6135 4695 6136 5966 6137 6138 
530 531 756 755 555 556 781 780 4529 5969 5970 5962 4700 6140 6141 6133 4691 4698 6139 6132 6135 6142 4702 6143 5973 6144 6145 
531 532 757 756 556 557 782 781 4536 5976 5977 5969 4707 6147 6148 6140 4698 4705 6146 6139 6142 6149 4709 6150 5980 6151 6152 
532 533 758 757 557 558 783 782 4543 5983 5984 5976 4714 6154 6155 6147 4705 4712 6153 6146 6149 6156 4716 6157 5987 6158 6159 
533 534 759 758 558 559 784 783 4550 5990 5991 5983 4721 6161 6162 6154 4712 4719 6160 6153 6156 6163 4723 6164 5994 6165 6166 
534 535 760 759 559 560 785 784 4557 5997 5998 5990 4728 6168 6169 6161 4719 4726 6167 6160 6163 6170 4730 6171 6001 6172 6173 
535 536 761 760 560 561 786 785 4564 6004 6005 5997 4735 6175 6176 6168 4726 4733 6174 6167 6170 6177 4737 6178 6008 6179 6180 
536 537 762 761 561 562 787 786 4571 6011 6012 6004 4742 6182 6183 6175 4733 4740 6181 6174 6177 6184 4744 6185 6015 6186 6187 
537 538 763 762 562 563 788 787 4578 6018 6019 6011 4749 6189 6190 6182 4740 4747 6188 6181 6184 6191 4751 6192 6022 6193 6194 
538 539 764 763 563 564 789 788 4585 6025 6026 6018 4756 6196 6197 6189 4747 4754 6195 6188 6191 6198 4758 6199 6029 6200 6201 
539 540 765 764 564 565 790 789 4592 6032 6033 6025 4763 6203 6204 6196 4754 4761 6202 6195 6198 6205 4765 6206 6036 6207 6208 
540 541 766 765 565 566 791 790 4599 6039 6040 6032 4770 6210 6211 6203 4761 4768 6209 6202 6205 6212 4772 6213 6043 6214 6215 
541 542 767 766 566 567 792 791 4606 6046 6047 6039 4777 6217 6218 6210 4768 4775 6216 6209 6212 6219 4779 6220 6050 6221 6222 
542 543 768 767 567 568 793 792 4613 6053 6054 6046 4784 6224 6225 6217 4775 4782 6223 6216 6219 6226 4786 6227 6057 6228 6229 
543 544 769 768 568 569 794 793 4620 6060 6061 6053 4791 6231 6232 6224 4782 4789 6230 6223 6226 6233 4793 6234 6064 6235 6236 
544 545 770 769 569 570 795 794 4627 6067 6068 6060 4798 6238 6239 6231 4789 4796 6237 6230 6233 6240 4800 6241 6071 6242 6243 
545 546 771 770 570 571 796 795 4634 6074 6075 6067 4805 6245 6246 6238 4796 4803 6244 6237 6240 6247 4807 6248 6078 6249 6250 
546 547 772 771 571 572 797 796 4641 6081 6082 6074 4812 6252 6253 6245 4803 4810 6251 6244 6247 6254 4814 6255 6085 6256 6257 
547 548 773 772 572 573 798 797 4648 6088 6089 6081 4819 6259 6260 6252 4810 4817 6258 6251 6254 6261 4821 6262 6092 6263 6264 
548 549 774 773 573 574 799 798 4655 6095 6096 6088 4826 6266 6267 6259 4817 4824 6265 6258 6261 6268 4828 6269 6099 6270 6271 
550 551 776 775 575 576 801 800 4663 6103 6104 6105 4834 6274 6275 6276 4832 4831 6272 6273 6279 6277 4837 6278 6109 6280 6281 
551 552 777 776 576 577 802 801 4672 6112 6113 6103 4843 6283 6284 6274 4831 4841 6282 6272 6277 6285 4845 6286 6116 6287 6288 
552 553 778 777 577 578 803 802 4679 6119 6120 6112 4850 6290 6291 6283 4841 4848 6289 6282 6285 6292 4852 6293 6123 6294 6295 
553 554 779 778 578 579 804 803 4686 6126 6127 6119 4857 6297 6298 6290 4848 4855 6296 6289 6292 6299 4859 6300 6130 6301 6302 
554 555 780 779 579 580 805 804 4693 6133 6134 6126 4864 6304 6305 6297 4855 4862 6303 6296 6299 6306 4866 6307 6137 6308 6309 
555 556 781 780 580 581 806 805 4700 6140 6141 6133 4871 6311 6312 6304 4862 4869 6310 6303 6306 6313 4873 6314 6144 6315 6316 
556 557 782 781 581 582 807 806 4707 6147 6148 6140 4878 6318 6319 6311 4869 4876 6317 6310 6313 6320 4880 6321 6151 6322 6323 
557 558 783 782 582 583 808 807 4714 6154 6155 6147 4885 6325 6326 6318 4876 4883 6324 6317 6320 6327 4887 6328 6158 6329 6330 
558 559 784 783 583 584 809 808 4721 6161 6162 6154 4892 6332 6333 6325 4883 4890 6331 6324 6327 6334 4894 6335 6165 6336 6337 
559 560 785 784 584 585 810 809 4728 6168 6169 6161 4899 6339 6340 6332 4890 4897 6338 6331 6334 6341 4901 6342 6172 6343 6344 
560 561 786 785 585 586 811 810 4735 6175 6176 6168 4906 6346 6347 6339 4897 4904 6345 6338 6341 6348 4908 6349 6179 6350 6351 
561 562 787 786 586 587 812 811 4742 6182 6183 6175 4913 6353 6354 6346 4904 4911 6352 6345 6348 6355 4915 6356 6186 6357 6358 
562 563 788 787 587 588 813 812 4749 6189 6190 6182 4920 6360 6361 6353 4911 4918 6359 6352 6355 6362 4922 6363 6193 6364 6365 
563 564 789 788 588 589 814 813 4756 6196 6197 6189 4927 6367 6368 6360 4918 4925 6366 6359 6362 6369 4929 6370 6200 6371 6372 
564 565 790 789 589 590 815 814 4763 6203 6204 6196 4934 6374 6375 6367 4925 4932 6373 6366 6369 6376 4936 6377 6207 6378 6379 
565 566 791 790 590 591 816 815 4770 6210 6211 6203 4941 6381 6382 6374 4932 4939 6380 6373 6376 6383 4943 6384 6214 6385 6386 
566 567 792 791 591 592 817 816 4777 6217 6218 6210 4948 6388 6389 6381 4939 4946 6387 6380 6383 6390 4950 6391 6221 6392 6393 
567 568 793 792 592 593 818 817 4784 6224 6225 6217 4955 6395 6396 6388 4946 4953 6394 6387 6390 6397 4957 6398 6228 6399 6400 
568 569 794 793 593 594 819 818 4791 6231 6232 6224 4962 6402 6403 6395 4953 4960 6401 6394 6397 6404 4964 6405 6235 6406 6407 
569 570 795 794 594 595 820 819 4798 6238 6239 6231 4969 6409 6410 6402 4960 4967 6408 6401 6404 6411 4971 6412 6242 6413 6414 
570 571 796 795 595 596 821 820 4805 6245 6246 6238 4976 6416 6417 6409 4967 4974 6415 6408 6411 6418 4978 6419 6249 6420 6421 
571 572 797 796 596 597 822 821 4812 6252 6253 6245 4983 6423 6424 6416 4974 4981 6422 6415 6418 6425 4985 6426 6256 6427 6428 
572 573 798 797 597 598 823 822 4819 6259 6260 6252 4990 6430 6431 6423 4981 4988 6429 6422 6425 6432 4992 6433 6263 6434 6435 
573 574 799 798 598 599 824 823 4826 6266 6267 6259 4997 6437 6438 6430 4988 4995 6436 6429 6432 6439 4999 6440 6270 6441 6442 
575 576 801 800 600 601 826 825 4834 6274 6275 6276 5005 6445 6446 6447 5003 5002 6443 6444 6450 6448 5008 6449 6280 6451 6452 
576 577 802 801 601 602 827 826 4843 6283 6284 6274 5014 6454 6455 6445 5002 5012 6453 6443 6448 6456 5016 6457 6287 6458 6459 
577 578 803 802 602 603 828 827 4850 6290 6291 6283 5021 6461 6462 6454 5012 5019 6460 6453 6456 6463 5023 6464 6294 6465 6466 
578 579 804 803 603 604 829 828 4857 6297 6298 6290 5028 6468 6469 6461 5019 5026 6467 6460 6463 6470 5030 6471 6301 6472 6473 
579 580 805 804 604 605 830 829 4864 6304 6305 6297 5035 6475 6476 6468 5026 5033 6474 6467 6470 6477 5037 6478 6308 6479 6480 
580 581 806 805 605 606 831 830 4871 6311 6312 6304 5042 6482 6483 6475 5033 5040 6481 6474 6477 6484 5044 6485 6315 6486 6487 
581 582 807 806 606 607 832 831 4878 6318 6319 6311 5049 6489 6490 6482 5040 5047 6488 6481 6484 6491 5051 6492 6322 6493 6494 
582 583 808 807 607 608 833 832 4885 6325 6326 6318 5056 6496 6497 6489 5047 5054 6495 6488 6491 6498 5058 6499 6329 6500 6501 
583 584 809 808 608 609 834 833 4892 6332 6333 6325 5063 6503 6504 6496 5054 5061 6502 6495 6498 6505 5065 6506 6336 6507 6508 
584 585 810 809 609 610 835 834 4899 6339 6340 6332 5070 6510 6511 6503 5061 5068 6509 6502 6505 6512 5072 6513 6343 6514 6515 
585 586 811 810 610 611 836 835 4906 6346 6347 6339 5077 6517 6518 6510 5068 5075 6516 6509 6512 6519 5079 6520 6350 6521 6522 
586 587 812 811 611 612 837 836 4913 6353 6354 6346 5084 6524 6525 6517 5075 5082 6523 6516 6519 6526 5086 6527 6357 6528 6529 
587 588 813 812 612 613 838 837 4920 6360 6361 6353 5091 6531 6532 6524 5082 5089 6530 6523 6526 6533 5093 6534 6364 6535 6536 
588 589 814 813 613 614 839 838 4927 6367 6368 6360 5098 6538 6539 6531 5089 5096 6537 6530 6533 6540 5100 6541 6371 6542 6543 
589 590 815 814 614 615 840 839 4934 6374 6375 6367 5105 6545 6546 6538 5096 5103 6544 6537 6540 6547 5107 6548 6378 6549 6550 
590 591 816 815 615 616 841 840 4941 6381 6382 6374 5112 6552 6553 6545 5103 5110 6551 6544 6547 6554 5114 6555 6385 6556 6557 
591 592 817 816 616 617 842 841 4948 6388 6389 6381 5119 6559 6560 6552 5110 5117 6558 6551 6554 6561 5121 6562 6392 6563 6564 
592 593 818 817 617 618 843 842 4955 6395 6396 6388 5126 6566 6567 6559 5117 5124 6565 6558 6561 6568 5128 6569 6399 6570 6571 
593 594 819 818 618 619 844 843 4962 6402 6403 6395 5133 6573 6574 6566 5124 5131 6572 6565 6568 6575 5135 6576 6406 6577 6578 
594 595 820 819 619 620 845 844 4969 6409 6410 6402 5140 6580 6581 6573 5131 5138 6579 6572 6575 6582 5142 6583 6413 6584 6585 
595 596 821 820 620 621 846 845 4976 6416 6417 6409 5147 6587 6588 6580 5138 5145 6586 6579 6582 6589 5149 6590 6420 6591 6592 
596 597 822 821 621 622 847 846 4983 6423 6424 6416 5154 6594 6595 6587 5145 5152 6593 6586 6589 6596 5156 6597 6427 6598 6599 
597 598 823 822 622 623 848 847 4990 6430 6431 6423 5161 6601 6602 6594 5152 5159 6600 6593 6596 6603 5163 6604 6434 6605 6606 
598 599 824 823 623 624 849 848 4997 6437 6438 6430 5168 6608 6609 6601 5159 5166 6607 6600 6603 6610 5170 6611 6441 6612 6613 
600 601 826 825 625 626 851 850 5005 6445 6446 6447 5176 6616 6617 6618 5174 5173 6614 6615 6621 6619 5179 6620 6451 6622 6623 
601 602 827 826 626 627 852 851 5014 6454 6455 6445 5185 6625 6626 6616 5173 5183 6624 6614 6619 6627 5187 6628 6458 6629 6630 
602 603 828 827 627 628 853 852 5021 6461 6462 6454 5192 6632 6633 6625 5183 5190 6631 6624 6627 6634 5194 6635 6465 6636 6637 
603 604 829 828 628 629 854 853 5028 6468 6469 6461 5199 6639 6640 6632 5190 5197 6638 6631 6634 6641 5201 6642 6472 6643 6644 
604 605 830 829 629 630 855 854 5035 6475 6476 6468 5206 6646 6647 6639 5197 5204 6645 6638 6641 6648 5208 6649 6479 6650 6651 
605 606 831 830 630 631 856 855 5042 6482 6483 6475 5213 6653 6654 6646 5204 5211 6652 6645 6648 6655 5215 6656 6486 6657 6658 
606 607 832 831 631 632 857 856 5049 6489 6490 6482 5220 6660 6661 6653 5211 5218 6659 6652 6655 6662 5222 6663 6493 6664 6665 
607 608 833 832 632 633 858 857 5056 6496 6497 6489 5227 6667 6668 6660 5218 5225 6666 6659 6662 6669 5229 6670 6500 6671 6672 
608 609 834 833 633 634 859 858 5063 6503 6504 6496 5234 6674 6675 6667 5225 5232 6673 6666 6669 6676 5236 6677 6507 6678 6679 
609 610 835 834 634 635 860 859 5070 6510 6511 6503 5241 6681 6682 6674 5232 5239 6680 6673 6676 6683 5243 6684 6514 6685 6686 
610 611 836 835 635 636 861 860 5077 6517 6518 6510 5248 6688 6689 6681 5239 5246 6687 6680 6683 6690 5250 6691 6521 6692 6693 
611 612 837 836 636 637 862 861 5084 6524 6525 6517 5255 6695 6696 6688 5246 5253 6694 6687 6690 6697 5257 6698 6528 6699 6700 
612 613 838 837 637 638 863 862 5091 6531 6532 6524 5262 6702 6703 6695 5253 5260 6701 6694 6697 6704 5264 6705 6535 6706 6707 
613 614 839 838 638 639 864 863 5098 6538 6539 6531 5269 6709 6710 6702 5260 5267 6708 6701 6704 6711 5271 6712 6542 6713 6714 
614 615 840 839 639 640 865 864 5105 6545 6546 6538 5276 6716 6717 6709 5267 5274 6715 6708 6711 6718 5278 6719 6549 6720 6721 
615 616 841 840 640 641 866 865 5112 6552 6553 6545 5283 6723 6724 6716 5274 5281 6722 6715 6718 6725 5285 6726 6556 6727 6728 
616 617 842 841 641 642 867 866 5119 6559 6560 6552 5290 6730 6731 6723 5281 5288 6729 6722 6725 6732 5292 6733 6563 6734 6735 
617 618 843 842 642 643 868 867 5126 6566 6567 6559 5297 6737 6738 6730 5288 5295 6736 6729 6732 6739 5299 6740 6570 6741 6742 
618 619 844 843 643 644 869 868 5133 6573 6574 6566 5304 6744 6745 6737 5295 5302 6743 6736 6739 6746 5306 6747 6577 6748 6749 
619 620 845 844 644 645 870 869 5140 6580 6581 6573 5311 6751 6752 6744 5302 5309 6750 6743 6746 6753 5313 6754 6584 6755 6756 
620 621 846 845 645 646 871 870 5147 6587 6588 6580 5318 6758 6759 6751 5309 5316 6757 6750 6753 6760 5320 6761 6591 6762 6763 
621 622 847 846 646 647 872 871 5154 6594 6595 6587 5325 6765 6766 6758 5316 5323 6764 6757 6760 6767 5327 6768 6598 6769 6770 
622 623 848 847 647 648 873 872 5161 6601 6602 6594 5332 6772 6773 6765 5323 5330 6771 6764 6767 6774 5334 6775 6605 6776 6777 
623 624 849 848 648 649 874 873 5168 6608 6609 6601 5339 6779 6780 6772 5330 5337 6778 6771 6774 6781 5341 6782 6612 6783 6784 
625 626 851 850 650 651 876 875 5176 6616 6617 6618 5347 6787 6788 6789 5345 5344 6785 6786 6792 6790 5350 6791 6622 6793 6794 
626 627 852 851 651 652 877 876 5185 6625 6626 6616 5356 6796 6797 6787 5344 5354 6795 6785 6790 6798 5358 6799 6629 6800 6801 
627 628 853 852 652 653 878 877 5192 6632 6633 6625 5363 6803 6804 6796 5354 5361 6802 6795 6798 6805 5365 6806 6636 6807 6808 
628 629 854 853 653 654 879 878 5199 6639 6640 6632 5370 6810 6811 6803 5361 5368 6809 6802 6805 6812 5372 6813 6643 6814 6815 
629 630 855 854 654 655 880 879 5206 6646 6647 6639 5377 6817 6818 6810 5368 5375 6816 6809 6812 6819 5379 6820 6650 6821 6822 
630 631 856 855 655 656 881 880 5213 6653 6654 6646 5384 6824 6825 6817 5375 5382 6823 6816 6819 6826 5386 6827 6657 6828 6829 
631 632 857 856 656 657 882 881 5220 6660 6661 6653 5391 6831 6832 6824 5382 5389 6830 6823 6826 6833 5393 6834 6664 6835 6836 
632 633 858 857 657 658 883 882 5227 6667 6668 6660 5398 6838 6839 6831 5389 5396 6837 6830 6833 6840 5400 6841 6671 6842 6843 
633 634 859 858 658 659 884 883 5234 6674 6675 6667 5405 6845 6846 6838 5396 5403 6844 6837 6840 6847 5407 6848 6678 6849 6850 
634 635 860 859 659 660 885 884 5241 6681 6682 6674 5412 6852 6853 6845 5403 5410 6851 6844 6847 6854 5414 6855 6685 6856 6857 
635 636 861 860 660 661 886 885 5248 6688 6689 6681 5419 6859 6860 6852 5410 5417 6858 6851 6854 6861 5421 6862 6692 6863 6864 
636 637 862 861 661 662 887 886 5255 6695 6696 6688 5426 6866 6867 6859 5417 5424 6865 6858 6861 6868 5428 6869 6699 6870 6871 
637 638 863 862 662 663 888 887 5262 6702 6703 6695 5433 6873 6874 6866 5424 5431 6872 6865 6868 6875 5435 6876 6706 6877 6878 
638 639 864 863 663 664 889 888 5269 6709 6710 6702 5440 6880 6881 6873 5431 5438 6879 6872 6875 6882 5442 6883 6713 6884 6885 
639 640 865 864 664 665 890 889 5276 6716 6717 6709 5447 6887 6888 6880 5438 5445 6886 6879 6882 6889 5449 6890 6720 6891 6892 
640 641 866 865 665 666 891 890 5283 6723 6724 6716 5454 6894 6895 6887 5445 5452 6893 6886 6889 6896 5456 6897 6727 6898 6899 
641 642 867 866 666 667 892 891 5290 6730 6731 6723 5461 6901 6902 6894 5452 5459 6900 6893 6896 6903 5463 6904 6734 6905 6906 
642 643 868 867 667 668 893 892 5297 6737 6738 6730 5468 6908 6909 6901 5459 5466 6907 6900 6903 6910 5470 6911 6741 6912 6913 
643 644 869 868 668 669 894 893 5304 6744 6745 6737 5475 6915 6916 6908 5466 5473 6914 6907 6910 6917 5477 6918 6748 6919 6920 
644 645 870 869 669 670 895 894 5311 6751 6752 6744 5482 6922 6923 6915 5473 5480 6921 6914 6917 6924 5484 6925 6755 6926 6927 
645 646 871 870 670 671 896 895 5318 6758 6759 6751 5489 6929 6930 6922 5480 5487 6928 6921 6924 6931 5491 6932 6762 6933 6934 
646 647 872 871 671 672 897 896 5325 6765 6766 6758 5496 6936 6937 6929 5487 5494 6935 6928 6931 6938 5498 6939 6769 6940 6941 
647 648 873 872 672 673 898 897 5332 6772 6773 6765 5503 6943 6944 6936 5494 5501 6942 6935 6938 6945 5505 6946 6776 6947 6948 
648 649 874 873 673 674 899 898 5339 6779 6780 6772 5510 6950 6951 6943 5501 5508 6949 6942 6945 6952 5512 6953 6783 6954 6955 
675 676 901 900 700 701 926 925 5516 6956 6957 6958 5521 6961 6962 6963 5519 5518 6959 6960 6967 6965 5525 6966 6964 6968 6969 
676 677 902 901 701 702 927 926 5530 6970 6971 6956 5533 6973 6974 6961 5518 5531 6972 6959 6965 6976 5536 6977 6975 6978 6979 
677 678 903 902 702 703 928 927 5540 6980 6981 6970 5543 6983 6984 6973 5531 5541 6982 6972 6976 6986 5546 6987 6985 6988 6989 
678 679 904 903 703 704 929 928 5550 6990 6991 6980 5553 6993 6994 6983 5541 5551 6992 6982 6986 6996 5556 6997 6995 6998 6999 
679 680 905 904 704 705 930 929 5560 7000 7001 6990 5563 7003 7004 6993 5551 5561 7002 6992 6996 7006 5566 7007 7005 7008 7009 
680 681 906 905 705 706 931 930 5570 7010 7011 7000 5573 7013 7014 7003 5561 5571 7012 7002 7006 7016 5576 7017 7015 7018 7019 
681 682 907 906 706 707 932 931 5580 7020 7021 7010 5583 7023 7024 7013 5571 5581 7022 7012 7016 7026 5586 7027 7025 7028 7029 
682 683 908 907 707 708 933 932 5590 7030 7031 7020 5593 7033 7034 7023 5581 5591 7032 7022 7026 7036 5596 7037 7035 7038 7039 
683 684 909 908 708 709 934 933 5600 7040 7041 7030 5603 7043 7044 7033 5591 5601 7042 7032 7036 7046 5606 7047 7045 7048 7049 
684 685 910 909 709 710 935 934 5610 7050 7051 7040 5613 7053 7054 7043 5601 5611 7052 7042 7046 7056 5616 7057 7055 7058 7059 
685 686 911 910 710 711 936 935 5620 7060 7061 7050 5623 7063 7064 7053 5611 5621 7062 7052 7056 7066 5626 7067 7065 7068 7069 
686 687 912 911 711 712 937 936 5630 7070 7071 7060 5633 7073 7074 7063 5621 5631 7072 7062 7066 7076 5636 7077 7075 7078 7079 
687 688 913 912 712 713 938 937 5640 7080 7081 7070 5643 7083 7084 7073 5631 5641 7082 7072 7076 7086 5646 7087 7085 7088 7089 
688 689 914 913 713 714 939 938 5650 7090 7091 7080 5653 7093 7094 7083 5641 5651 7092 7082 7086 7096 5656 7097 7095 7098 7099 
689 690 915 914 714 715 940 939 5660 7100 7101 7090 5663 7103 7104 7093 5651 5661 7102 7092 7096 7106 5666 7107 7105 7108 7109 
690 691 916 915 715 716 941 940 5670 7110 7111 7100 5673 7113 7114 7103 5661 5671 7112 7102 7106 7116 5676 7117 7115 7118 7119 
691 692 917 916 716 717 942 941 5680 7120 7121 7110 5683 7123 7124 7113 5671 5681 7122 7112 7116 7126 5686 7127 7125 7128 7129 
692 693 918 917 717 718 943 942 5690 7130 7131 7120 5693 7133 7134 7123 5681 5691 7132 7122 7126 7136 5696 7137 7135 7138 7139 
693 694 919 918 718 719 944 943 5700 7140 7141 7130 5703 7143 7144 7133 5691 5701 7142 7132 7136 7146 5706 7147 7145 7148 7149 
694 695 920 919 719 720 945 944 5710 7150 7151 7140 5713 7153 7154 7143 5701 5711 7152 7142 7146 7156 5716 7157 7155 7158 7159 
695 696 921 920 720 721 946 945 5720 7160 7161 7150 5723 7163 7164 7153 5711 5721 7162 7152 7156 7166 5726 7167 7165 7168 7169 
696 697 922 921 721 722 947 946 5730 7170 7171 7160 5733 7173 7174 7163 5721 5731 7172 7162 7166 7176 5736 7177 7175 7178 7179 
697 698 923 922 722 723 948 947 5740 7180 7181 7170 5743 7183 7184 7173 5731 5741 7182 7172 7176 7186 5746 7187 7185 7188 7189 
698 699 924 923 723 724 949 948 5750 7190 7191 7180 5753 7193 7194 7183 5741 5751 7192 7182 7186 7196 5756 7197 7195 7198 7199 
700 701 926 925 725 726 951 950 5521 6961 6962 6963 5762 7202 7203 7204 5760 5759 7200 7201 7207 7205 5765 7206 6968 7208 7209 
701 702 927 926 726 727 952 951 5533 6973 6974 6961 5771 7211 7212 7202 5759 5769 7210 7200 7205 7213 5773 7214 6978 7215 7216 
702 703 928 927 727 728 953 952 5543 6983 6984 6973 5778 7218 7219 7211 5769 5776 7217 7210 7213 7220 5780 7221 6988 7222 7223 
703 704 929 928 728 729 954 953 5553 6993 6994 6983 5785 7225 7226 7218 5776 5783 7224 7217 7220 7227 5787 7228 6998 7229 7230 
704 705 930 929 729 730 955 954 5563 7003 7004 6993 5792 7232 7233 7225 5783 5790 7231 7224 7227 7234 5794 7235 7008 7236 7237 
705 706 931 930 730 731 956 955 5573 7013 7014 7003 5799 7239 7240 7232 5790 5797 7238 7231 7234 7241 5801 7242 7018 7243 7244 
706 707 932 931 731 732 957 956 5583 7023 7024 7013 5806 7246 7247 7239 5797 5804 7245 7238 7241 7248 5808 7249 7028 7250 7251 
707 708 933 932 732 733 958 957 5593 7033 7034 7023 5813 7253 7254 7246 5804 5811 7252 7245 7248 7255 5815 7256 7038 7257 7258 
708 709 934 933 733 734 959 958 5603 7043 7044 7033 5820 7260 7261 7253 5811 5818 7259 7252 7255 7262 5822 7263 7048 7264 7265 
709 710 935 934 734 735 960 959 5613 7053 7054 7043 5827 7267 7268 7260 5818 5825 7266 7259 7262 7269 5829 7270 7058 7271 7272 
710 711 936 935 735 736 961 960 5623 7063 7064 7053 5834 7274 7275 7267 5825 5832 7273 7266 7269 7276 5836 7277 7068 7278 7279 
711 712 937 936 736 737 962 961 5633 7073 7074 7063 5841 7281 7282 7274 5832 5839 7280 7273 7276 7283 5843 7284 7078 7285 7286 
712 713 938 937 737 738 963 962 5643 7083 7084 7073 5848 7288 7289 7281 5839 5846 7287 7280 7283 7290 5850 7291 7088 7292 7293 
713 714 939 938 738 739 964 963 5653 7093 7094 7083 5855 7295 7296 7288 5846 5853 7294 7287 7290 7297 5857 7298 7098 7299 7300 
714 715 940 939 739 740 965 964 5663 7103 7104 7093 5862 7302 7303 7295 5853 5860 7301 7294 7297 7304 5864 7305 7108 7306 7307 
715 716 941 940 740 741 966 965 5673 7113 7114 7103 5869 7309 7310 7302 5860 5867 7308 7301 7304 7311 5871 7312 7118 7313 7314 
716 717 942 941 741 742 967 966 5683 7123 7124 7113 5876 7316 7317 7309 5867 5874 7315 7308 7311 7318 5878 7319 7128 7320 7321 
717 718 943 942 742 743 968 967 5693 7133 7134 7123 5883 7323 7324 7316 5874 5881 7322 7315 7318 7325 5885 7326 7138 7327 7328 
718 719 944 943 743 744 969 968 5703 7143 7144 7133 5890 7330 7331 7323 5881 5888 7329 7322 7325 7332 5892 7333 7148 7334 7335 
719 720 945 944 744 745 970 969 5713 7153 7154 7143 5897 7337 7338 7330 5888 5895 7336 7329 7332 7339 5899 7340 7158 7341 7342 
720 721 946 945 745 746 971 970 5723 7163 7164 7153 5904 7344 7345 7337 5895 5902 7343 7336 7339 7346 5906 7347 7168 7348 7349 
721 722 947 946 746 747 972 971 5733 7173 7174 7163 5911 7351 7352 7344 5902 5909 7350 7343 7346 7353 5913 7354 7178 7355 7356 
722 723 948 947 747 748 973 972 5743 7183 7184 7173 5918 7358 7359 7351 5909 5916 7357 7350 7353 7360 5920 7361 7188 7362 7363 
723 724 949 948 748 749 974 973 5753 7193 7194 7183 5925 7365 7366 7358 5916 5923 7364 7357 7360 7367 5927 7368 7198 7369 7370 
725 726 951 950 750 751 976 975 5762 7202 7203 7204 5933 7373 7374 7375 5931 5930 7371 7372 7378 7376 5936 7377 7208 7379 7380 
726 727 952 951 751 752 977 976 5771 7211 7212 7202 5942 7382 7383 7373 5930 5940 7381 7371 7376 7384 5944 7385 7215 7386 7387 
727 728 953 952 752 753 978 977 5778 7218 7219 7211 5949 7389 7390 7382 5940 5947 7388 7381 7384 7391 5951 7392 7222 7393 7394 
728 729 954 953 753 754 979 978 5785 7225 7226 7218 5956 7396 7397 7389 5947 5954 7395 7388 7391 7398 5958 7399 7229 7400 7401 
729 730 955 954 754 755 980 979 5792 7232 7233 7225 5963 7403 7404 7396 5954 5961 7402 7395 7398 7405 5965 7406 7236 7407 7408 
730 731 956 955 755 756 981 980 5799 7239 7240 7232 5970 7410 7411 7403 5961 5968 7409 7402 7405 7412 5972 7413 7243 7414 7415 
731 732 957 956 756 757 982 981 5806 7246 7247 7239 5977 7417 7418 7410 5968 5975 7416 7409 7412 7419 5979 7420 7250 7421 7422 
732 733 958 957 757 758 983 982 5813 7253 7254 7246 5984 7424 7425 7417 5975 5982 7423 7416 7419 7426 5986 7427 7257 7428 7429 
733 734 959 958 758 759 984 983 5820 7260 7261 7253 5991 7431 7432 7424 5982 5989 7430 7423 7426 7433 5993 7434 7264 7435 7436 
734 735 960 959 759 760 985 984 5827 7267 7268 7260 5998 7438 7439 7431 5989 5996 7437 7430 7433 7440 6000 7441 7271 7442 7443 
735 736 961 960 760 761 986 985 5834 7274 7275 7267 6005 7445 7446 7438 5996 6003 7444 7437 7440 7447 6007 7448 7278 7449 7450 
736 737 962 961 761 762 987 986 5841 7281 7282 7274 6012 7452 7453 7445 6003 6010 7451 7444 7447 7454 6014 7455 7285 7456 7457 
737 738 963 962 762 763 988 987 5848 7288 7289 7281 6019 7459 7460 7452 6010 6017 7458 7451 7454 7461 6021 7462 7292 7463 7464 
738 739 964 963 763 764 989 988 5855 7295 7296 7288 6026 7466 7467 7459 6017 6024 7465 7458 7461 7468 6028 7469 7299 7470 7471 
739 740 965 964 764 765 990 989 5862 7302 7303 7295 6033 7473 7474 7466 6024 6031 7472 7465 7468 7475 6035 7476 7306 7477 7478 
740 741 966 965 765 766 991 990 5869 7309 7310 7302 6040 7480 7481 7473 6031 6038 7479 7472 7475 7482 6042 7483 7313 7484 7485 
741 742 967 966 766 767 992 991 5876 7316 7317 7309 6047 7487 7488 7480 6038 6045 7486 7479 7482 7489 6049 7490 7320 7491 7492 
742 743 968 967 767 768 993 992 5883 7323 7324 7316 6054 7494 7495 7487 6045 6052 7493 7486 7489 7496 6056 7497 7327 7498 7499 
743 744 969 968 768 769 994 993 5890 7330 7331 7323 6061 7501 7502 7494 6052 6059 7500 7493 7496 7503 6063 7504 7334 7505 7506 
744 745 970 969 769 770 995 994 5897 7337 7338 7330 6068 7508 7509 7501 6059 6066 7507 7500 7503 7510 6070 7511 7341 7512 7513 
745 746 971 970 770 771 996 995 5904 7344 7345 7337 6075 7515 7516 7508 6066 6073 7514 7507 7510 7517 6077 7518 7348 7519 7520 
746 747 972 971 771 772 997 996 5911 7351 7352 7344 6082 7522 7523 7515 6073 6080 7521 7514 7517 7524 6084 7525 7355 7526 7527 
747 748 973 972 772 773 998 997 5918 7358 7359 7351 6089 7529 7530 7522 6080 6087 7528 7521 7524 7531 6091 7532 7362 7533 7534 
748 749 974 973 773 774 999 998 5925 7365 7366 7358 6096 7536 7537 7529 6087 6094 7535 7528 7531 7538 6098 7539 7369 7540 7541 
750 751 976 975 775 776 1001 1000 5933 7373 7374 7375 6104 7544 7545 7546 6102 6101 7542 7543 7549 7547 6107 7548 7379 7550 7551 
751 752 977 976 776 777 1002 1001 5942 7382 7383 7373 6113 7553 7554 7544 6101 6111 7552 7542 7547 7555 6115 7556 7386 7557 7558 
752 753 978 977 777 778 1003 1002 5949 7389 7390 7382 6120 7560 7561 7553 6111 6118 7559 7552 7555 7562 6122 7563 7393 7564 7565 
753 754 979 978 778 779 1004 1003 5956 7396 7397 7389 6127 7567 7568 7560 6118 6125 7566 7559 7562 7569 6129 7570 7400 7571 7572 
754 755 980 979 779 780 1005 1004 5963 7403 7404 7396 6134 7574 7575 7567 6125 6132 7573 7566 7569 7576 6136 7577 7407 7578 7579 
755 756 981 980 780 781 1006 1005 5970 7410 7411 7403 6141 7581 7582 7574 6132 6139 7580 7573 7576 7583 6143 7584 7414 7585 7586 
756 757 982 981 781 782 1007 1006 5977 7417 7418 7410 6148 7588 7589 7581 6139 6146 7587 7580 7583 7590 6150 7591 7421 7592 7593 
757 758 983 982 782 783 1008 1007 5984 7424 7425 7417 6155 7595 7596 7588 6146 6153 7594 7587 7590 7597 6157 7598 7428 7599 7600 
758 759 984 983 783 784 1009 1008 5991 7431 7432 7424 6162 7602 7603 7595 6153 6160 7601 7594 7597 7604 6164 7605 7435 7606 7607 
759 760 985 984 784 785 1010 1009 5998 7438 7439 7431 6169 7609 7610 7602 6160 6167 7608 7601 7604 7611 6171 7612 7442 7613 7614 
760 761 986 985 785 786 1011 1010 6005 7445 7446 7438 6176 7616 7617 7609 6167 6174 7615 7608 7611 7618 6178 7619 7449 7620 7621 
761 762 987 986 786 787 1012 1011 6012 7452 7453 7445 6183 7623 7624 7616 6174 6181 7622 7615 7618 7625 6185 7626 7456 7627 7628 
762 763 988 987 787 788 1013 1012 6019 7459 7460 7452 6190 7630 7631 7623 6181 6188 7629 7622 7625 7632 6192 7633 7463 7634 7635 
763 764 989 988 788 789 1014 1013 6026 7466 7467 7459 6197 7637 7638 7630 6188 6195 7636 7629 7632 7639 6199 7640 7470 7641 7642 
764 765 990 989 789 790 1015 1014 6033 7473 7474 7466 6204 7644 7645 7637 6195 6202 7643 7636 7639 7646 6206 7647 7477 7648 7649 
765 766 991 990 790 791 1016 1015 6040 7480 7481 7473 6211 7651 7652 7644 6202 6209 7650 7643 7646 7653 6213 7654 7484 7655 7656 
766 767 992 991 791 792 1017 1016 6047 7487 7488 7480 6218 7658 7659 7651 6209 6216 7657 7650 7653 7660 6220 7661 7491 7662 7663 
767 768 993 992 792 793 1018 1017 6054 7494 7495 7487 6225 7665 7666 7658 6216 6223 7664 7657 7660 7667 6227 7668 7498 7669 7670 
768 769 994 993 793 794 1019 1018 6061 7501 7502 7494 6232 7672 7673 7665 6223 6230 7671 7664 7667 7674 6234 7675 7505 7676 7677 
769 770 995 994 794 795 1020 1019 6068 7508 7509 7501 6239 7679 7680 7672 6230 6237 7678 7671 7674 7681 6241 7682 7512 7683 7684 
770 771 996 995 795 796 1021 1020 6075 7515 7516 7508 6246 7686 7687 7679 6237 6244 7685 7678 7681 7688 6248 7689 7519 7690 7691 
771 772 997 996 796 797 1022 1021 6082 7522 7523 7515 6253 7693 7694 7686 6244 6251 7692 7685 7688 7695 6255 7696 7526 7697 7698 
772 773 998 997 797 798 1023 1022 6089 7529 7530 7522 6260 7700 7701 7693 6251 6258 7699 7692 7695 7702 6262 7703 7533 7704 7705 
773 774 999 998 798 799 1024 1023 6096 7536 7537 7529 6267 7707 7708 7700 6258 6265 7706 7699 7702 7709 6269 7710 7540 7711 7712 
775 776 1001 1000 800 801 1026 1025 6104 7544 7545 7546 6275 7715 7716 7717 6273 6272 7713 7714 7720 7718 6278 7719 7550 7721 7722 
776 777 1002 1001 801 802 1027 1026 6113 7553 7554 7544 6284 7724 7725 7715 6272 6282 7723 7713 7718 7726 6286 7727 7557 7728 7729 
777 778 1003 1002 802 803 1028 1027 6120 7560 7561 7553 6291 7731 7732 7724 6282 6289 7730 7723 7726 7733 6293 7734 7564 7735 7736 
778 779 1004 1003 803 804 1029 1028 6127 7567 7568 7560 6298 7738 7739 7731 6289 6296 7737 7730 7733 7740 6300 7741 7571 7742 7743 
779 780 1005 1004 804 805 1030 1029 6134 7574 7575 7567 6305 7745 7746 7738 6296 6303 7744 7737 7740 7747 6307 7748 7578 7749 7750 
780 781 1006 1005 805 806 1031 1030 6141 7581 7582 7574 6312 7752 7753 7745 6303 6310 7751 7744 7747 7754 6314 7755 7585 7756 7757 
781 782 1007 1006 806 807 1032 1031 6148 7588 7589 7581 6319 7759 7760 7752 6310 6317 7758 7751 7754 7761 6321 7762 7592 7763 7764 
782 783 1008 1007 807 808 1033 1032 6155 7595 7596 7588 6326 7766 7767 7759 6317 6324 7765 7758 7761 7768 6328 7769 7599 7770 7771 
783 784 1009 1008 808 809 1034 1033 6162 7602 7603 7595 6333 7773 7774 7766 6324 6331 7772 7765 7768 7775 6335 7776 7606 7777 7778 
784 785 1010 1009 809 810 1035 1034 6169 7609 7610 7602 6340 7780 7781 7773 6331 6338 7779 7772 7775 7782 6342 7783 7613 7784 7785 
785 786 1011 1010 810 811 1036 1035 6176 7616 7617 7609 6347 7787 7788 7780 6338 6345 7786 7779 7782 7789 6349 7790 7620 7791 7792 
786 787 1012 1011 811 812 1037 1036 6183 7623 7624 7616 6354 7794 7795 7787 6345 6352 7793 7786 7789 7796 6356 7797 7627 7798 7799 
787 788 1013 1012 812 813 1038 1037 6190 7630 7631 7623 6361 7801 7802 7794 6352 6359 7800 7793 7796 7803 6363 7804 7634 7805 7806 
788 789 1014 1013 813 814 1039 1038 6197 7637 7638 7630 6368 7808 7809 7801 6359 6366 7807 7800 7803 7810 6370 7811 7641 7812 7813 
789 790 1015 1014 814 815 1040 1039 6204 7644 7645 7637 6375 7815 7816 7808 6366 6373 7814 7807 7810 7817 6377 7818 7648 7819 7820 
790 791 1016 1015 815 816 1041 1040 6211 7651 7652 7644 6382 7822 7823 7815 6373 6380 7821 7814 7817 7824 6384 7825 7655 7826 7827 
791 792 1017 1016 816 817 1042 1041 6218 7658 7659 7651 6389 7829 7830 7822 6380 6387 7828 7821 7824 7831 6391 7832 7662 7833 7834 
792 793 1018 1017 817 818 1043 1042 6225 7665 7666 7658 6396 7836 7837 7829 6387 6394 7835 7828 7831 7838 6398 7839 7669 7840 7841 
793 794 1019 1018 818 819 1044 1043 6232 7672 7673 7665 6403 7843 7844 7836 6394 6401 7842 7835 7838 7845 6405 7846 7676 7847 7848 
794 795 1020 1019 819 820 1045 1044 6239 7679 7680 7672 6410 7850 7851 7843 6401 6408 7849 7842 7845 7852 6412 7853 7683 7854 7855 
795 796 1021 1020 820 821 1046 1045 6246 7686 7687 7679 6417 7857 7858 7850 6408 6415 7856 7849 7852 7859 6419 7860 7690 7861 7862 
796 797 1022 1021 821 822 1047 1046 6253 7693 7694 7686 6424 7864 7865 7857 6415 6422 7863 7856 7859 7866 6426 7867 7697 7868 7869 
797 798 1023 1022 822 823 1048 1047 6260 7700 7701 7693 6431 7871 7872 7864 6422 6429 7870 7863 7866 7873 6433 7874 7704 7875 7876 
798 799 1024 1023 823 824 1049 1048 6267 7707 7708 7700 6438 7878 7879 7871 6429 6436 7877 7870 7873 7880 6440 7881 7711 7882 7883 
800 801 1026 1025 825 826 1051 1050 6275 7715 7716 7717 6446 7886 7887 7888 6444 6443 7884 7885 7891 7889 6449 7890 7721 7892 7893 
801 802 1027 1026 826 827 1052 1051 6284 7724 7725 7715 6455 7895 7896 7886 6443 6453 7894 7884 7889 7897 6457 7898 7728 7899 7900 
802 803 1028 1027 827 828 1053 1052 6291 7731 7732 7724 6462 7902 7903 7895 6453 6460 7901 7894 7897 7904 6464 7905 7735 7906 7907 
803 804 1029 1028 828 829 1054 1053 6298 7738 7739 7731 6469 7909 7910 7902 6460 6467 7908 7901 7904 7911 6471 7912 7742 7913 7914 
804 805 1030 1029 829 830 1055 1054 6305 7745 7746 7738 6476 7916 7917 7909 6467 6474 7915 7908 7911 7918 6478 7919 7749 7920 7921 
805 806 1031 1030 830 831 1056 1055 6312 7752 7753 7745 6483 7923 7924 7916 6474 6481 7922 7915 7918 7925 6485 7926 7756 7927 7928 
806 807 1032 1031 831 832 1057 1056 6319 7759 7760 7752 6490 7930 7931 7923 6481 6488 7929 7922 7925 7932 6492 7933 7763 7934 7935 
807 808 1033 1032 832 833 1058 1057 6326 7766 7767 7759 6497 7937 7938 7930 6488 6495 7936 7929 7932 7939 6499 7940 7770 7941 7942 
808 809 1034 1033 833 834 1059 1058 6333 7773 7774 7766 6504 7944 7945 7937 6495 6502 7943 7936 7939 7946 6506 7947 7777 7948 7949 
809 810 1035 1034 834 835 1060 1059 6340 7780 7781 7773 6511 7951 7952 7944 6502 6509 7950 7943 7946 7953 6513 7954 7784 7955 7956 
810 811 1036 1035 835 836 1061 1060 6347 7787 7788 7780 6518 7958 7959 7951 6509 6516 7957 7950 7953 7960 6520 7961 7791 7962 7963 
811 812 1037 1036 836 837 1062 1061 6354 7794 7795 7787 6525 7965 7966 7958 6516 6523 7964 7957 7960 7967 6527 7968 7798 7969 7970 
812 813 1038 1037 837 838 1063 1062 6361 7801 7802 7794 6532 7972 7973 7965 6523 6530 7971 7964 7967 7974 6534 7975 7805 7976 7977 
813 814 1039 1038 838 839 1064 1063 6368 7808 7809 7801 6539 7979 7980 7972 6530 6537 7978 7971 7974 7981 6541 7982 7812 7983 7984 
814 815 1040 1039 839 840 1065 1064 6375 7815 7816 7808 6546 7986 7987 7979 6537 6544 7985 7978 7981 7988 6548 7989 7819 7990 7991 
815 816 1041 1040 840 841 1066 1065 6382 7822 7823 7815 6553 7993 7994 7986 6544 6551 7992 7985 7988 7995 6555 7996 7826 7997 7998 
816 817 1042 1041 841 842 1067 1066 6389 7829 7830 7822 6560 8000 8001 7993 6551 6558 7999 7992 7995 8002 6562 8003 7833 8004 8005 
817 818 1043 1042 842 843 1068 1067 6396 7836 7837 7829 6567 8007 8008 8000 6558 6565 8006 7999 8002 8009 6569 8010 7840 8011 8012 
818 819 1044 1043 843 844 1069 1068 6403 7843 7844 7836 6574 8014 8015 8007 6565 6572 8013 8006 8009 8016 6576 8017 7847 8018 8019 
819 820 1045 1044 844 845 1070 1069 6410 7850 7851 7843 6581 8021 8022 8014 6572 6579 8020 8013 8016 8023 6583 8024 7854 8025 8026 
820 821 1046 1045 845 846 1071 1070 6417 7857 7858 7850 6588 8028 8029 8021 6579 6586 8027 8020 8023 8030 6590 8031 7861 8032 8033 
821 822 1047 1046 846 847 1072 1071 6424 7864 7865 7857 6595 8035 8036 8028 6586 6593 8034 8027 8030 8037 6597 8038 7868 8039 8040 
822 823 1048 1047 847 848 1073 1072 6431 7871 7872 7864 6602 8042 8043 8035 6593 6600 8041 8034 8037 8044 6604 8045 7875 8046 8047 
823 824 1049 1048 848 849 1074 1073 6438 7878 7879 7871 6609 8049 8050 8042 6600 6607 8048 8041 8044 8051 6611 8052 7882 8053 8054 
825 826 1051 1050 850 851 1076 1075 6446 7886 7887 7888 6617 8057 8058 8059 6615 6614 8055 8056 8062 8060 6620 8061 7892 8063 8064 
826 827 1052 1051 851 852 1077 1076 6455 7895 7896 7886 6626 8066 8067 8057 6614 6624 8065 8055 8060 8068 6628 8069 7899 8070 8071 
827 828 1053 1052 852 853 1078 1077 6462 7902 7903 7895 6633 8073 8074 8066 6624 6631 8072 8065 8068 8075 6635 8076 7906 8077 8078 
828 829 1054 1053 853 854 1079 1078 6469 7909 7910 7902 6640 8080 8081 8073 6631 6638 8079 8072 8075 8082 6642 8083 7913 8084 8085 
829 830 1055 1054 854 855 1080 1079 6476 7916 7917 7909 6647 8087 8088 8080 6638 6645 8086 8079 8082 8089 6649 8090 7920 8091 8092 
830 831 1056 1055 855 856 1081 1080 6483 7923 7924 7916 6654 8094 8095 8087 6645 6652 8093 8086 8089 8096 6656 8097 7927 8098 8099 
831 832 1057 1056 856 857 1082 1081 6490 7930 7931 7923 6661 8101 8102 8094 6652 6659 8100 8093 8096 8103 6663 8104 7934 8105 8106 
832 833 1058 1057 857 858 1083 1082 6497 7937 7938 7930 6668 8108 8109 8101 6659 6666 8107 8100 8103 8110 6670 8111 7941 8112 8113 
833 834 1059 1058 858 859 1084 1083 6504 7944 7945 7937 6675 8115 8116 8108 6666 6673 8114 8107 8110 8117 6677 8118 7948 8119 8120 
834 835 1060 1059 859 860 1085 1084 6511 7951 7952 7944 6682 8122 8123 8115 6673 6680 8121 8114 8117 8124 6684 8125 7955 8126 8127 
835 836 1061 1060 860 861 1086 1085 6518 7958 7959 7951 6689 8129 8130 8122 6680 6687 8128 8121 8124 8131 6691 8132 7962 8133 8134 
836 837 1062 1061 861 862 1087 1086 6525 7965 7966 7958 6696 8136 8137 8129 6687 6694 8135 8128 8131 8138 6698 8139 7969 8140 8141 
837 838 1063 1062 862 863 1088 1087 6532 7972 7973 7965 6703 8143 8144 8136 6694 6701 8142 8135 8138 8145 6705 8146 7976 8147 8148 
838 839 1064 1063 863 864 1089 1088 6539 7979 7980 7972 6710 8150 8151 8143 6701 6708 8149 8142 8145 8152 6712 8153 7983 8154 8155 
839 840 1065 1064 864 865 1090 1089 6546 7986 7987 7979 6717 8157 8158 8150 6708 6715 8156 8149 8152 8159 6719 8160 7990 8161 8162 
840 841 1066 1065 865 866 1091 1090 6553 7993 7994 7986 6724 8164 8165 8157 6715 6722 8163 8156 8159 8166 6726 8167 7997 8168 8169 
841 842 1067 1066 866 867 1092 1091 6560 8000 8001 7993 6731 8171 8172 8164 6722 6729 8170 8163 8166 8173 6733 8174 8004 8175 8176 
842 843 1068 1067 867 868 1093 1092 6567 8007 8008 8000 6738 8178 8179 8171 6729 6736 8177 8170 8173 8180 6740 8181 8011 8182 8183 
843 844 1069 1068 868 869 1094 1093 6574 8014 8015 8007 6745 8185 8186 8178 6736 6743 8184 8177 8180 8187 6747 8188 8018 8189 8190 
844 845 1070 1069 869 870 1095 1094 6581 8021 8022 8014 6752 8192 8193 8185 6743 6750 8191 8184 8187 8194 6754 8195 8025 8196 8197 
845 846 1071 1070 870 871 1096 1095 6588 8028 8029 8021 6759 8199 8200 8192 6750 6757 8198 8191 8194 8201 6761 8202 8032 8203 8204 
846 847 1072 1071 871 872 1097 1096 6595 8035 8036 8028 6766 8206 8207 8199 6757 6764 8205 8198 8201 8208 6768 8209 8039 8210 8211 
847 848 1073 1072 872 873 1098 1097 6602 8042 8043 8035 6773 8213 8214 8206 6764 6771 8212 8205 8208 8215 6775 8216 8046 8217 8218 
848 849 1074 1073 873 874 1099 1098 6609 8049 8050 8042 6780 8220 8221 8213 6771 6778 8219 8212 8215 8222 6782 8223 8053 8224 8225 
850 851 1076 1075 875 876 1101 1100 6617 8057 8058 8059 6788 8228 8229 8230 6786 6785 8226 8227 8233 8231 6791 8232 8063 8234 8235 
851 852 1077 1076 876 877 1102 1101 6626 8066 8067 8057 6797 8237 8238 8228 6785 6795 8236 8226 8231 8239 6799 8240 8070 8241 8242 
852 853 1078 1077 877 878 1103 1102 6633 8073 8074 8066 6804 8244 8245 8237 6795 6802 8243 8236 8239 8246 6806 8247 8077 8248 8249 
853 854 1079 1078 878 879 1104 1103 6640 8080 8081 8073 6811 8251 8252 8244 6802 6809 8250 8243 8246 8253 6813 8254 8084 8255 8256 
854 855 1080 1079 879 880 1105 1104 6647 8087 8088 8080 6818 8258 8259 8251 6809 6816 8257 8250 8253 8260 6820 8261 8091 8262 8263 
855 856 1081 1080 880 881 1106 1105 6654 8094 8095 8087 6825 8265 8266 8258 6816 6823 8264 8257 8260 8267 6827 8268 8098 8269 8270 
856 857 1082 1081 881 882 1107 1106 6661 8101 8102 8094 6832 8272 8273 8265 6823 6830 8271 8264 8267 8274 6834 8275 8105 8276 8277 
857 858 1083 1082 882 883 1108 1107 6668 8108 8109 8101 6839 8279 8280 8272 6830 6837 8278 8271 8274 8281 6841 8282 8112 8283 8284 
858 859 1084 1083 883 884 1109 1108 6675 8115 8116 8108 6846 8286 8287 8279 6837 6844 8285 8278 8281 8288 6848 8289 8119 8290 8291 
859 860 1085 1084 884 885 1110 1109 6682 8122 8123 8115 6853 8293 8294 8286 6844 6851 8292 8285 8288 8295 6855 8296 8126 8297 8298 
860 861 1086 1085 885 886 1111 1110 6689 8129 8130 8122 6860 8300 8301 8293 6851 6858 8299 8292 8295 8302 6862 8303 8133 8304 8305 
861 862 1087 1086 886 887 1112 1111 6696 8136 8137 8129 6867 8307 8308 8300 6858 6865 8306 8299 8302 8309 6869 8310 8140 8311 8312 
862 863 1088 1087 887 888 1113 1112 6703 8143 8144 8136 6874 8314 8315 8307 6865 6872 8313 8306 8309 8316 6876 8317 8147 8318 8319 
863 864 1089 1088 888 889 1114 1113 6710 8150 8151 8143 6881 8321 8322 8314 6872 6879 8320 8313 8316 8323 6883 8324 8154 8325 8326 
864 865 1090 1089 889 890 1115 1114 6717 8157 8158 8150 6888 8328 8329 8321 6879 6886 8327 8320 8323 8330 6890 8331 8161 8332 8333 
865 866 1091 1090 890 891 1116 1115 6724 8164 8165 8157 6895 8335 8336 8328 6886 6893 8334 8327 8330 8337 6897 8338 8168 8339 8340 
866 867 1092 1091 891 892 1117 1116 6731 8171 8172 8164 6902 8342 8343 8335 6893 6900 8341 8334 8337 8344 6904 8345 8175 8346 8347 
867 868 1093 1092 892 893 1118 1117 6738 8178 8179 8171 6909 8349 8350 8342 6900 6907 8348 8341 8344 8351 6911 8352 8182 8353 8354 
868 869 1094 1093 893 894 1119 1118 6745 8185 8186 8178 6916 8356 8357 8349 6907 6914 8355 8348 8351 8358 6918 8359 8189 8360 8361 
869 870 1095 1094 894 895 1120 1119 6752 8192 8193 8185 6923 8363 8364 8356 6914 6921 8362 8355 8358 8365 6925 8366 8196 8367 8368 
870 871 1096 1095 895 896 1121 1120 6759 8199 8200 8192 6930 8370 8371 8363 6921 6928 8369 8362 8365 8372 6932 8373 8203 8374 8375 
871 872 1097 1096 896 897 1122 1121 6766 8206 8207 8199 6937 8377 8378 8370 6928 6935 8376 8369 8372 8379 6939 8380 8210 8381 8382 
872 873 1098 1097 897 898 1123 1122 6773 8213 8214 8206 6944 8384 8385 8377 6935 6942 8383 8376 8379 8386 6946 8387 8217 8388 8389 
873 874 1099 1098 898 899 1124 1123 6780 8220 8221 8213 6951 8391 8392 8384 6942 6949 8390 8383 8386 8393 6953 8394 8224 8395 8396 
900 901 1126 1125 925 926 1151 1150 6957 8397 8398 8399 6962 8402 8403 8404 6960 6959 8400 8401 8408 8406 6966 8407 8405 8409 8410 
901 902 1127 1126 926 927 1152 1151 6971 8411 8412 8397 6974 8414 8415 8402 6959 6972 8413 8400 8406 8417 6977 8418 8416 8419 8420 
902 903 1128 1127 927 928 1153 1152 6981 8421 8422 8411 6984 8424 8425 8414 6972 6982 8423 8413 8417 8427 6987 8428 8426 8429 8430 
903 904 1129 1128 928 929 1154 1153 6991 8431 8432 8421 6994 8434 8435 8424 6982 6992 8433 8423 8427 8437 6997 8438 8436 8439 8440 
904 905 1130 1129 929 930 1155 1154 7001 8441 8442 8431 7004 8444 8445 8434 6992 7002 8443 8433 8437 8447 7007 8448 8446 8449 8450 
905 906 1131 1130 930 931 1156 1155 7011 8451 8452 8441 7014 8454 8455 8444 7002 7012 8453 8443 8447 8457 7017 8458 8456 8459 8460 
906 907 1132 1131 931 932 1157 1156 7021 8461 8462 8451 7024 8464 8465 8454 7012 7022 8463 8453 8457 8467 7027 8468 8466 8469 8470 
907 908 1133 1132 932 933 1158 1157 7031 8471 8472 8461 7034 8474 8475 8464 7022 7032 8473 8463 8467 8477 7037 8478 8476 8479 8480 
908 909 1134 1133 933 934 1159 1158 7041 8481 8482 8471 7044 8484 8485 8474 7032 7042 8483 8473 8477 8487 7047 8488 8486 8489 8490 
909 910 1135 1134 934 935 1160 1159 7051 8491 8492 8481 7054 8494 8495 8484 7042 7052 8493 8483 8487 8497 7057 8498 8496 8499 8500 
910 911 1136 1135 935 936 1161 1160 7061 8501 8502 8491 7064 8504 8505 8494 7052 7062 8503 8493 8497 8507 7067 8508 8506 8509 8510 
911 912 1137 1136 936 937 1162 1161 7071 8511 8512 8501 7074 8514 8515 8504 7062 7072 8513 8503 8507 8517 7077 8518 8516 8519 8520 
912 913 1138 1137 937 938 1163 1162 7081 8521 8522 8511 7084 8524 8525 8514 7072 7082 8523 8513 8517 8527 7087 8528 8526 8529 8530 
913 914 1139 1138 938 939 1164 1163 7091 8531 8532 8521 7094 8534 8535 8524 7082 7092 8533 8523 8527 8537 7097 8538 8536 8539 8540 
914 915 1140 1139 939 940 1165 1164 7101 8541 8542 8531 7104 8544 8545 8534 7092 7102 8543 8533 8537 8547 7107 8548 8546 8549 8550 
915 916 1141 1140 940 941 1166 1165 7111 8551 8552 8541 7114 8554 8555 8544 7102 7112 8553 8543 8547 8557 7117 8558 8556 8559 8560 
916 917 1142 1141 941 942 1167 1166 7121 8561 8562 8551 7124 8564 8565 8554 7112 7122 8563 8553 8557 8567 7127 8568 8566 8569 8570 
917 918 1143 1142 942 943 1168 1167 7131 8571 8572 8561 7134 8574 8575 8564 7122 7132 8573 8563 8567 8577 7137 8578 8576 8579 8580 
918 919 1144 1143 943 944 1169 1168 7141 8581 8582 8571 7144 8584 8585 8574 7132 7142 8583 8573 8577 8587 7147 8588 8586 8589 8590 
919 920 1145 1144 944 945 1170 1169 7151 8591 8592 8581 7154 8594 8595 8584 7142 7152 8593 8583 8587 8597 7157 8598 8596 8599 8600 
920 921 1146 1145 945 946 1171 1170 7161 8601 8602 8591 7164 8604 8605 8594 7152 7162 8603 8593 8597 8607 7167 8608 8606 8609 8610 
921 922 1147 1146 946 947 1172 1171 7171 8611 8612 8601 7174 8614 8615 8604 7162 7172 8613 8603 8607 8617 7177 8618 8616 8619 8620 
922 923 1148 1147 947 948 1173 1172 7181 8621 8622 8611 7184 8624 8625 8614 7172 7182 8623 8613 8617 8627 7187 8628 8626 8629 8630 
923 924 1149 1148 948 949 1174 1173 7191 8631 8632 8621 7194 8634 8635 8624 7182 7192 8633 8623 8627 8637 7197 8638 8636 8639 8640 
925 926 1151 1150 950 951 1176 1175 6962 8402 8403 8404 7203 8643 8644 8645 7201 7200 8641 8642 8648 8646 7206 8647 8409 8649 8650 
926 927 1152 1151 951 952 1177 1176 6974 8414 8415 8402 7212 8652 8653 8643 7200 7210 8651 8641 8646 8654 7214 8655 8419 8656 8657 
927 928 1153 1152 952 953 1178 1177 6984 8424 8425 8414 7219 8659 8660 8652 7210 7217 8658 8651 8654 8661 7221 8662 8429 8663 8664 
928 929 1154 1153 953 954 1179 1178 6994 8434 8435 8424 7226 8666 8667 8659 7217 7224 8665 8658 8661 8668 7228 8669 8439 8670 8671 
929 930 1155 1154 954 955 1180 1179 7004 8444 8445 8434 7233 8673 8674 8666 7224 7231 8672 8665 8668 8675 7235 8676 8449 8677 8678 
930 931 1156 1155 955 956 1181 1180 7014 8454 8455 8444 7240 8680 8681 8673 7231 7238 8679 8672 8675 8682 7242 8683 8459 8684 8685 
931 932 1157 1156 956 957 1182 1181 7024 8464 8465 8454 7247 8687 8688 8680 7238 7245 8686 8679 8682 8689 7249 8690 8469 8691 8692 
932 933 1158 1157 957 958 1183 1182 7034 8474 8475 8464 7254 8694 8695 8687 7245 7252 8693 8686 8689 8696 7256 8697 8479 8698 8699 
933 934 1159 1158 958 959 1184 1183 7044 8484 8485 8474 7261 8701 8702 8694 7252 7259 8700 8693 8696 8703 7263 8704 8489 8705 8706 
934 935 1160 1159 959 960 1185 1184 7054 8494 8495 8484 7268 8708 8709 8701 7259 7266 8707 8700 8703 8710 7270 8711 8499 8712 8713 
935 936 1161 1160 960 961 1186 1185 7064 8504 8505 8494 7275 8715 8716 8708 7266 7273 8714 8707 8710 8717 7277 8718 8509 8719 8720 
936 937 1162 1161 961 962 1187 1186 7074 8514 8515 8504 7282 8722 8723 8715 7273 7280 8721 8714 8717 8724 7284 8725 8519 8726 8727 
937 938 1163 1162 962 963 1188 1187 7084 8524 8525 8514 7289 8729 8730 8722 7280 7287 8728 8721 8724 8731 7291 8732 8529 8733 8734 
938 939 1164 1163 963 964 1189 1188 7094 8534 8535 8524 7296 8736 8737 8729 7287 7294 8735 8728 8731 8738 7298 8739 8539 8740 8741 
939 940 1165 1164 964 965 1190 1189 7104 8544 8545 8534 7303 8743 8744 8736 7294 7301 8742 8735 8738 8745 7305 8746 8549 8747 8748 
940 941 1166 1165 965 966 1191 1190 7114 8554 8555 8544 7310 8750 8751 8743 7301 7308 8749 8742 8745 8752 7312 8753 8559 8754 8755 
941 942 1167 1166 966 967 1192 1191 7124 8564 8565 8554 7317 8757 8758 8750 7308 7315 8756 8749 8752 8759 7319 8760 8569 8761 8762 
942 943 1168 1167 967 968 1193 1192 7134 8574 8575 8564 7324 8764 8765 8757 7315 7322 8763 8756 8759 8766 7326 8767 8579 8768 8769 
943 944 1169 1168 968 969 1194 1193 7144 8584 8585 8574 7331 8771 8772 8764 7322 7329 8770 8763 8766 8773 7333 8774 8589 8775 8776 
944 945 1170 1169 969 970 1195 1194 7154 8594 8595 8584 7338 8778 8779 8771 7329 7336 8777 8770 8773 8780 7340 8781 8599 8782 8783 
945 946 1171 1170 970 971 1196 1195 7164 8604 8605 8594 7345 8785 8786 8778 7336 7343 8784 8777 8780 8787 7347 8788 8609 8789 8790 
946 947 1172 1171 971 972 1197 1196 7174 8614 8615 8604 7352 8792 8793 8785 7343 7350 8791 8784 8787 8794 7354 8795 8619 8796 8797 
947 948 1173 1172 972 973 1198 1197 7184 8624 8625 8614 7359 8799 8800 8792 7350 7357 8798 8791 8794 8801 7361 8802 8629 8803 8804 
948 949 1174 1173 973 974 1199 1198 7194 8634 8635 8624 7366 8806 8807 8799 7357 7364 8805 8798 8801 8808 7368 8809 8639 8810 8811 
950 951 1176 1175 975 976 1201 1200 7203 8643 8644 8645 7374 8814 8815 8816 7372 7371 8812 8813 8819 8817 7377 8818 8649 8820 8821 
951 952 1177 1176 976 977 1202 1201 7212 8652 8653 8643 7383 8823 8824 8814 7371 7381 8822 8812 8817 8825 7385 8826 8656 8827 8828 
952 953 1178 1177 977 978 1203 1202 7219 8659 8660 8652 7390 8830 8831 8823 7381 7388 8829 8822 8825 8832 7392 8833 8663 8834 8835 
953 954 1179 1178 978 979 1204 1203 7226 8666 8667 8659 7397 8837 8838 8830 7388 7395 8836 8829 8832 8839 7399 8840 8670 8841 8842 
954 955 1180 1179 979 980 1205 1204 7233 8673 8674 8666 7404 8844 8845 8837 7395 7402 8843 8836 8839 8846 7406 8847 8677 8848 8849 
955 956 1181 1180 980 981 1206 1205 7240 8680 8681 8673 7411 8851 8852 8844 7402 7409 8850 8843 8846 8853 7413 8854 8684 8855 8856 
956 957 1182 1181 981 982 1207 1206 7247 8687 8688 8680 7418 8858 8859 8851 7409 7416 8857 8850 8853 8860 7420 8861 8691 8862 8863 
957 958 1183 1182 982 983 1208 1207 7254 8694 8695 8687 7425 8865 8866 8858 7416 7423 8864 8857 8860 8867 7427 8868 8698 8869 8870 
958 959 1184 1183 983 984 1209 1208 7261 8701 8702 8694 7432 8872 8873 8865 7423 7430 8871 8864 8867 8874 7434 8875 8705 8876 8877 
959 960 1185 1184 984 985 1210 1209 7268 8708 8709 8701 7439 8879 8880 8872 7430 7437 8878 8871 8874 8881 7441 8882 8712 8883 8884 
960 961 1186 1185 985 986 1211 1210 7275 8715 8716 8708 7446 8886 8887 8879 7437 7444 8885 8878 8881 8888 7448 8889 8719 8890 8891 
961 962 1187 1186 986 987 1212 1211 7282 8722 8723 8715 7453 8893 8894 8886 7444 7451 8892 8885 8888 8895 7455 8896 8726 8897 8898 
962 963 1188 1187 987 988 1213 1212 7289 8729 8730 8722 7460 8900 8901 8893 7451 7458 8899 8892 8895 8902 7462 8903 8733 8904 8905 
963 964 1189 1188 988 989 1214 1213 7296 8736 8737 8729 7467 8907 8908 8900 7458 7465 8906 8899 8902 8909 7469 8910 8740 8911 8912 
964 965 1190 1189 989 990 1215 1214 7303 8743 8744 8736 7474 8914 8915 8907 7465 7472 8913 8906 8909 8916 7476 8917 8747 8918 8919 
965 966 1191 1190 990 991 1216 1215 7310 8750 8751 8743 7481 8921 8922 8914 7472 7479 8920 8913 8916 8923 7483 8924 8754 8925 8926 
966 967 1192 1191 991 992 1217 1216 7317 8757 8758 8750 7488 8928 8929 8921 7479 7486 8927 8920 8923 8930 7490 8931 8761 8932 8933 
967 968 1193 1192 992 993 1218 1217 7324 8764 8765 8757 7495 8935 8936 8928 7486 7493 8934 8927 8930 8937 7497 8938 8768 8939 8940 
968 969 1194 1193 993 994 1219 1218 7331 8771 8772 8764 7502 8942 8943 8935 7493 7500 8941 8934 8937 8944 7504 8945 8775 8946 8947 
969 970 1195 1194 994 995 1220 1219 7338 8778 8779 8771 7509 8949 8950 8942 7500 7507 8948 8941 8944 8951 7511 8952 8782 8953 8954 
970 971 1196 1195 995 996 1221 1220 7345 8785 8786 8778 7516 8956 8957 8949 7507 7514 8955 8948 8951 8958 7518 8959 8789 8960 8961 
971 972 1197 1196 996 997 1222 1221 7352 8792 8793 8785 7523 8963 8964 8956 7514 7521 8962 8955 8958 8965 7525 8966 8796 8967 8968 
972 973 1198 1197 997 998 1223 1222 7359 8799 8800 8792 7530 8970 8971 8963 7521 7528 8969 8962 8965 8972 7532 8973 8803 8974 8975 
973 974 1199 1198 998 999 1224 1223 7366 8806 8807 8799 7537 8977 8978 8970 7528 7535 8976 8969 8972 8979 7539 8980 8810 8981 8982 
975 976 1201 1200 1000 1001 1226 1225 7374 8814 8815 8816 7545 8985 8986 8987 7543 7542 8983 8984 8990 8988 7548 8989 8820 8991 8992 
976 977 1202 1201 1001 1002 1227 1226 7383 8823 8824 8814 7554 8994 8995 8985 7542 7552 8993 8983 8988 8996 7556 8997 8827 8998 8999 
977 978 1203 1202 1002 1003 1228 1227 7390 8830 8831 8823 7561 9001 9002 8994 7552 7559 9000 8993 8996 9003 7563 9004 8834 9005 9006 
978 979 1204 1203 1003 1004 1229 1228 7397 8837 8838 8830 7568 9008 9009 9001 7559 7566 9007 9000 9003 9010 7570 9011 8841 9012 9013 
979 980 1205 1204 1004 1005 1230 1229 7404 8844 8845 8837 7575 9015 9016 9008 7566 7573 9014 9007 9010 9017 7577 9018 8848 9019 9020 
980 981 1206 1205 1005 1006 1231 1230 7411 8851 8852 8844 7582 9022 9023 9015 7573 7580 9021 9014 9017 9024 7584 9025 8855 9026 9027 
981 982 1207 1206 1006 1007 1232 1231 7418 8858 8859 8851 7589 9029 9030 9022 7580 7587 9028 9021 9024 9031 7591 9032 8862 9033 9034 
982 983 1208 1207 1007 1008 1233 1232 7425 8865 8866 8858 7596 9036 9037 9029 7587 7594 9035 9028 9031 9038 7598 9039 8869 9040 9041 
983 984 1209 1208 1008 1009 1234 1233 7432 8872 8873 8865 7603 9043 9044 9036 7594 7601 9042 9035 9038 9045 7605 9046 8876 9047 9048 
984 985 1210 1209 1009 1010 1235 1234 7439 8879 8880 8872 7610 9050 9051 9043 7601 7608 9049 9042 9045 9052 7612 9053 8883 9054 9055 
985 986 1211 1210 1010 1011 1236 1235 7446 8886 8887 8879 7617 9057 9058 9050 7608 7615 9056 9049 9052 9059 7619 9060 8890 9061 9062 
986 987 1212 1211 1011 1012 1237 1236 7453 8893 8894 8886 7624 9064 9065 9057 7615 7622 9063 9056 9059 9066 7626 9067 8897 9068 9069 
987 988 1213 1212 1012 1013 1238 1237 7460 8900 8901 8893 7631 9071 9072 9064 7622 7629 9070 9063 9066 9073 7633 9074 8904 9075 9076 
988 989 1214 1213 1013 1014 1239 1238 7467 8907 8908 8900 7638 9078 9079 9071 7629 7636 9077 9070 9073 9080 7640 9081 8911 9082 9083 
989 990 1215 1214 1014 1015 1240 1239 7474 8914 8915 8907 7645 9085 9086 9078 7636 7643 9084 9077 9080 9087 7647 9088 8918 9089 9090 
990 991 1216 1215 1015 1016 1241 1240 7481 8921 8922 8914 7652 9092 9093 9085 7643 7650 9091 9084 9087 9094 7654 9095 8925 9096 9097 
991 992 1217 1216 1016 1017 1242 1241 7488 8928 8929 8921 7659 9099 9100 9092 7650 7657 9098 9091 9094 9101 7661 9102 8932 9103 9104 
992 993 1218 1217 1017 1018 1243 1242 7495 8935 8936 8928 7666 9106 9107 9099 7657 7664 9105 9098 9101 9108 7668 9109 8939 9110 9111 
993 994 1219 1218 1018 1019 1244 1243 7502 8942 8943 8935 7673 9113 9114 9106 7664 7671 9112 9105 9108 9115 7675 9116 8946 9117 9118 
994 995 1220 1219 1019 1020 1245 1244 7509 8949 8950 8942 7680 9120 9121 9113 7671 7678 9119 9112 9115 9122 7682 9123 8953 9124 9125 
995 996 1221 1220 1020 1021 1246 1245 7516 8956 8957 8949 7687 9127 9128 9120 7678 7685 9126 9119 9122 9129 7689 9130 8960 9131 9132 
996 997 1222 1221 1021 1022 1247 1246 7523 8963 8964 8956 7694 9134 9135 9127 7685 7692 9133 9126 9129 9136 7696 9137 8967 9138 9139 
997 998 1223 1222 1022 1023 1248 1247 7530 8970 8971 8963 7701 9141 9142 9134 7692 7699 9140 9133 9136 9143 7703 9144 8974 9145 9146 
998 999 1224 1223 1023 1024 1249 1248 7537 8977 8978 8970 7708 9148 9149 9141 7699 7706 9147 9140 9143 9150 7710 9151 8981 9152 9153 
1000 1001 1226 1225 1025 1026 1251 1250 7545 8985 8986 8987 7716 9156 9157 9158 7714 7713 9154 9155 9161 9159 7719 9160 8991 9162 9163 
1001 1002 1227 1226 1026 1027 1252 1251 7554 8994 8995 8985 7725 9165 9166 9156 7713 7723 9164 9154 9159 9167 7727 9168 8998 9169 9170 
1002 1003 1228 1227 1027 1028 1253 1252 7561 9001 9002 8994 7732 9172 9173 9165 7723 7730 9171 9164 9167 9174 7734 9175 9005 9176 9177 
1003 1004 1229 1228 1028 1029 1254 1253 7568 9008 9009 9001 7739 9179 9180 9172 7730 7737 9178 9171 9174 9181 7741 9182 9012 9183 9184 
1004 1005 1230 1229 1029 1030 1255 1254 7575 9015 9016 9008 7746 9186 9187 9179 7737 7744 9185 9178 9181 9188 7748 9189 9019 9190 9191 
1005 1006 1231 1230 1030 1031 1256 1255 7582 9022 9023 9015 7753 9193 9194 9186 7744 7751 9192 9185 9188 9195 7755 9196 9026 9197 9198 
1006 1007 1232 1231 1031 1032 1257 1256 7589 9029 9030 9022 7760 9200 9201 9193 7751 7758 9199 9192 9195 9202 7762 9203 9033 9204 9205 
1007 1008 1233 1232 1032 1033 1258 1257 7596 9036 9037 9029 7767 9207 9208 9200 7758 7765 9206 9199 9202 9209 7769 9210 9040 9211 9212 
1008 1009 1234 1233 1033 1034 1259 1258 7603 9043 9044 9036 7774 9214 9215 9207 7765 7772 9213 9206 9209 9216 7776 9217 9047 9218 9219 
1009 1010 1235 1234 1034 1035 1260 1259 7610 9050 9051 9043 7781 9221 9222 9214 7772 7779 9220 9213 9216 9223 7783 9224 9054 9225 9226 
1010 1011 1236 1235 1035 1036 1261 1260 7617 9057 9058 9050 7788 9228 9229 9221 7779 7786 9227 9220 9223 9230 7790 9231 9061 9232 9233 
1011 1012 1237 1236 1036 1037 1262 1261 7624 9064 9065 9057 7795 9235 9236 9228 7786 7793 9234 9227 9230 9237 7797 9238 9068 9239 9240 
1012 1013 1238 1237 1037 1038 1263 1262 7631 9071 9072 9064 7802 9242 9243 9235 7793 7800 9241 9234 9237 9244 7804 9245 9075 9246 9247 
1013 1014 1239 1238 1038 1039 1264 1263 7638 9078 9079 9071 7809 9249 9250 9242 7800 7807 9248 9241 9244 9251 7811 9252 9082 9253 9254 
1014 1015 1240 1239 1039 1040 1265 1264 7645 9085 9086 9078 7816 9256 9257 9249 7807 7814 9255 9248 9251 9258 7818 9259 9089 9260 9261 
1015 1016 1241 1240 1040 1041 1266 1265 7652 9092 9093 9085 7823 9263 9264 9256 7814 7821 9262 9255 9258 9265 7825 9266 9096 9267 9268 
1016 1017 1242 1241 1041 1042 1267 1266 7659 9099 9100 9092 7830 9270 9271 9263 7821 7828 9269 9262 9265 9272 7832 9273 9103 9274 9275 
1017 1018 1243 1242 1042 1043 1268 1267 7666 9106 9107 9099 7837 9277 9278 9270 7828 7835 9276 9269 9272 9279 7839 9280 9110 9281 9282 
1018 1019 1244 1243 1043 1044 1269 1268 7673 9113 9114 9106 7844 9284 9285 9277 7835 7842 9283 9276 9279 9286 7846 9287 9117 9288 9289 
1019 1020 1245 1244 1044 1045 1270 1269 7680 9120 9121 9113 7851 9291 9292 9284 7842 7849 9290 9283 9286 9293 7853 9294 9124 9295 9296 
1020 1021 1246 1245 1045 1046 1271 1270 7687 9127 9128 9120 7858 9298 9299 9291 7849 7856 9297 9290 9293 9300 7860 9301 9131 9302 9303 
1021 1022 1247 1246 1046 1047 1272 1271 7694 9134 9135 9127 7865 9305 9306 9298 7856 7863 9304 9297 9300 9307 7867 9308 9138 9309 9310 
1022 1023 1248 1247 1047 1048 1273 1272 7701 9141 9142 9134 7872 9312 9313 9305 7863 7870 9311 9304 9307 9314 7874 9315 9145 9316 9317 
1023 1024 1249 1248 1048 1049 1274 1273 7708 9148 9149 9141 7879 9319 9320 9312 7870 7877 9318 9311 9314 9321 7881 9322 9152 9323 9324 
1025 1026 1251 1250 1050 1051 1276 1275 7716 9156 9157 9158 7887 9327 9328 9329 7885 7884 9325 9326 9332 9330 7890 9331 9162 9333 9334 
1026 1027 1252 1251 1051 1052 1277 1276 7725 9165 9166 9156 7896 9336 9337 9327 7884 7894 9335 9325 9330 9338 7898 9339 9169 9340 9341 
1027 1028 1253 1252 1052 1053 1278 1277 7732 9172 9173 9165 7903 9343 9344 9336 7894 7901 9342 9335 9338 9345 7905 9346 9176 9347 9348 
1028 1029 1254 1253 1053 1054 1279 1278 7739 9179 9180 9172 7910 9350 9351 9343 7901 7908 9349 9342 9345 9352 7912 9353 9183 9354 9355 
1029 1030 1255 1254 1054 1055 1280 1279 7746 9186 9187 9179 7917 9357 9358 9350 7908 7915 9356 9349 9352 9359 7919 9360 9190 9361 9362 
1030 1031 1256 1255 1055 1056 1281 1280 7753 9193 9194 9186 7924 9364 9365 9357 7915 7922 9363 9356 9359 9366 7926 9367 9197 9368 9369 
1031 1032 1257 1256 1056 1057 1282 1281 7760 9200 9201 9193 7931 9371 9372 9364 7922 7929 9370 9363 9366 9373 7933 9374 9204 9375 9376 
1032 1033 1258 1257 1057 1058 1283 1282 7767 9207 9208 9200 7938 9378 9379 9371 7929 7936 9377 9370 9373 9380 7940 9381 9211 9382 9383 
1033 1034 1259 1258 1058 1059 1284 1283 7774 9214 9215 9207 7945 9385 9386 9378 7936 7943 9384 9377 9380 9387 7947 9388 9218 9389 9390 
1034 1035 1260 1259 1059 1060 1285 1284 7781 9221 9222 9214 7952 9392 9393 9385 7943 7950 9391 9384 9387 9394 7954 9395 9225 9396 9397 
1035 1036 1261 1260 1060 1061 1286 1285 7788 9228 9229 9221 7959 9399 9400 9392 7950 7957 9398 9391 9394 9401 7961 9402 9232 9403 9404 
1036 1037 1262 1261 1061 1062 1287 1286 7795 9235 9236 9228 7966 9406 9407 9399 7957 7964 9405 9398 9401 9408 7968 9409 9239 9410 9411 
1037 1038 1263 1262 1062 1063 1288 1287 7802 9242 9243 9235 7973 9413 9414 9406 7964 7971 9412 9405 9408 9415 7975 9416 9246 9417 9418 
1038 1039 1264 1263 1063 1064 1289 1288 7809 9249 9250 9242 7980 9420 9421 9413 7971 7978 9419 9412 9415 9422 7982 9423 9253 9424 9425 
1039 1040 1265 1264 1064 1065 1290 1289 7816 9256 9257 9249 7987 9427 9428 9420 7978 7985 9426 9419 9422 9429 7989 9430 9260 9431 9432 
1040 1041 1266 1265 1065 1066 1291 1290 7823 9263 9264 9256 7994 9434 9435 9427 7985 7992 9433 9426 9429 9436 7996 9437 9267 9438 9439 
1041 1042 1267 1266 1066 1067 1292 1291 7830 9270 9271 9263 8001 9441 9442 9434 7992 7999 9440 9433 9436 9443 8003 9444 9274 9445 9446 
1042 1043 1268 1267 1067 1068 1293 1292 7837 9277 9278 9270 8008 9448 9449 9441 7999 8006 9447 9440 9443 9450 8010 9451 9281 9452 9453 
1043 1044 1269 1268 1068 1069 1294 1293 7844 9284 9285 9277 8015 9455 9456 9448 8006 8013 9454 9447 9450 9457 8017 9458 9288 9459 9460 
1044 1045 1270 1269 1069 1070 1295 1294 7851 9291 9292 9284 8022 9462 9463 9455 8013 8020 9461 9454 9457 9464 8024 9465 9295 9466 9467 
1045 1046 1271 1270 1070 1071 1296 1295 7858 9298 9299 9291 8029 9469 9470 9462 8020 8027 9468 9461 9464 9471 8031 9472 9302 9473 9474 
1046 1047 1272 1271 1071 1072 1297 1296 7865 9305 9306 9298 8036 9476 9477 9469 8027 8034 9475 9468 9471 9478 8038 9479 9309 9480 9481 
1047 1048 1273 1272 1072 1073 1298 1297 7872 9312 9313 9305 8043 9483 9484 9476 8034 8041 9482 9475 9478 9485 8045 9486 9316 9487 9488 
1048 1049 1274 1273 1073 1074 1299 1298 7879 9319 9320 9312 8050 9490 9491 9483 8041 8048 9489 9482 9485 9492 8052 9493 9323 9494 9495 
1050 1051 1276 1275 1075 1076 1301 1300 7887 9327 9328 9329 8058 9498 9499 9500 8056 8055 9496 9497 9503 9501 8061 9502 9333 9504 9505 
1051 1052 1277 1276 1076 1077 1302 1301 7896 9336 9337 9327 8067 9507 9508 9498 8055 8065 9506 9496 9501 9509 8069 9510 9340 9511 9512 
1052 1053 1278 1277 1077 1078 1303 1302 7903 9343 9344 9336 8074 9514 9515 9507 8065 8072 9513 9506 9509 9516 8076 9517 9347 9518 9519 
1053 1054 1279 1278 1078 1079 1304 1303 7910 9350 9351 9343 8081 9521 9522 9514 8072 8079 9520 9513 9516 9523 8083 9524 9354 9525 9526 
1054 1055 1280 1279 1079 1080 1305 1304 7917 9357 9358 9350 8088 9528 9529 9521 8079 8086 9527 9520 9523 9530 8090 9531 9361 9532 9533 
1055 1056 1281 1280 1080 1081 1306 1305 7924 9364 9365 9357 8095 9535 9536 9528 8086 8093 9534 9527 9530 9537 8097 9538 9368 9539 9540 
1056 1057 1282 1281 1081 1082 1307 1306 7931 9371 9372 9364 8102 9542 9543 9535 8093 8100 9541 9534 9537 9544 8104 9545 9375 9546 9547 
1057 1058 1283 1282 1082 1083 1308 1307 7938 9378 9379 9371 8109 9549 9550 9542 8100 8107 9548 9541 9544 9551 8111 9552 9382 9553 9554 
1058 1059 1284 1283 1083 1084 1309 1308 7945 9385 9386 9378 8116 9556 9557 9549 8107 8114 9555 9548 9551 9558 8118 9559 9389 9560 9561 
1059 1060 1285 1284 1084 1085 1310 1309 7952 9392 9393 9385 8123 9563 9564 9556 8114 8121 9562 9555 9558 9565 8125 9566 9396 9567 9568 
1060 1061 1286 1285 1085 1086 1311 1310 7959 9399 9400 9392 8130 9570 9571 9563 8121 8128 9569 9562 9565 9572 8132 9573 9403 9574 9575 
1061 1062 1287 1286 1086 1087 1312 1311 7966 9406 9407 9399 8137 9577 9578 9570 8128 8135 9576 9569 9572 9579 8139 9580 9410 9581 9582 
1062 1063 1288 1287 1087 1088 1313 1312 7973 9413 9414 9406 8144 9584 9585 9577 8135 8142 9583 9576 9579 9586 8146 9587 9417 9588 9589 
1063 1064 1289 1288 1088 1089 1314 1313 7980 9420 9421 9413 8151 9591 9592 9584 8142 8149 9590 9583 9586 9593 8153 9594 9424 9595 9596 
1064 1065 1290 1289 1089 1090 1315 1314 7987 9427 9428 9420 8158 9598 9599 9591 8149 8156 9597 9590 9593 9600 8160 9601 9431 9602 9603 
1065 1066 1291 1290 1090 1091 1316 1315 7994 9434 9435 9427 8165 9605 9606 9598 8156 8163 9604 9597 9600 9607 8167 9608 9438 9609 9610 
1066 1067 1292 1291 1091 1092 1317 1316 8001 9441 9442 9434 8172 9612 9613 9605 8163 8170 9611 9604 9607 9614 8174 9615 9445 9616 9617 
1067 1068 1293 1292 1092 1093 1318 1317 8008 9448 9449 9441 8179 9619 9620 9612 8170 8177 9618 9611 9614 9621 8181 9622 9452 9623 9624 
1068 1069 1294 1293 1093 1094 1319 1318 8015 9455 9456 9448 8186 9626 9627 9619 8177 8184 9625 9618 9621 9628 8188 9629 9459 9630 9631 
1069 1070 1295 1294 1094 1095 1320 1319 8022 9462 9463 9455 8193 9633 9634 9626 8184 8191 9632 9625 9628 9635 8195 9636 9466 9637 9638 
1070 1071 1296 1295 1095 1096 1321 1320 8029 9469 9470 9462 8200 9640 9641 9633 8191 8198 9639 9632 9635 9642 8202 9643 9473 9644 9645 
1071 1072 1297 1296 1096 1097 1322 1321 8036 9476 9477 9469 8207 9647 9648 9640 8198 8205 9646 9639 9642 9649 8209 9650 9480 9651 9652 
1072 1073 1298 1297 1097 1098 1323 1322 8043 9483 9484 9476 8214 9654 9655 9647 8205 8212 9653 9646 9649 9656 8216 9657 9487 9658 9659 
1073 1074 1299 1298 1098 1099 1324 1323 8050 9490 9491 9483 8221 9661 9662 9654 8212 8219 9660 9653 9656 9663 8223 9664 9494 9665 9666 
1075 1076 1301 1300 1100 1101 1326 1325 8058 9498 9499 9500 8229 9669 9670 9671 8227 8226 9667 9668 9674 9672 8232 9673 9504 9675 9676 
1076 1077 1302 1301 1101 1102 1327 1326 8067 9507 9508 9498 8238 9678 9679 9669 8226 8236 9677 9667 9672 9680 8240 9681 9511 9682 9683 
1077 1078 1303 1302 1102 1103 1328 1327 8074 9514 9515 9507 8245 9685 9686 9678 8236 8243 9684 9677 9680 9687 8247 9688 9518 9689 9690 
1078 1079 1304 1303 1103 1104 1329 1328 8081 9521 9522 9514 8252 9692 9693 9685 8243 8250 9691 9684 9687 9694 8254 9695 9525 9696 9697 
1079 1080 1305 1304 1104 1105 1330 1329 8088 9528 9529 9521 8259 9699 9700 9692 8250 8257 9698 9691 9694 9701 8261 9702 9532 9703 9704 
1080 1081 1306 1305 1105 1106 1331 1330 8095 9535 9536 9528 8266 9706 9707 9699 8257 8264 9705 9698 9701 9708 8268 9709 9539 9710 9711 
1081 1082 1307 1306 1106 1107 1332 1331 8102 9542 9543 9535 8273 9713 9714 9706 8264 8271 9712 9705 9708 9715 8275 9716 9546 9717 9718 
1082 1083 1308 1307 1107 1108 1333 1332 8109 9549 9550 9542 8280 9720 9721 9713 8271 8278 9719 9712 9715 9722 8282 9723 9553 9724 9725 
1083 1084 1309 1308 1108 1109 1334 1333 8116 9556 9557 9549 8287 9727 9728 9720 8278 8285 9726 9719 9722 9729 8289 9730 9560 9731 9732 
1084 1085 1310 1309 1109 1110 1335 1334 8123 9563 9564 9556 8294 9734 9735 9727 8285 8292 9733 9726 9729 9736 8296 9737 9567 9738 9739 
1085 1086 1311 1310 1110 1111 1336 1335 8130 9570 9571 9563 8301 9741 9742 9734 8292 8299 9740 9733 9736 9743 8303 9744 9574 9745 9746 
1086 1087 1312 1311 1111 1112 1337 1336 8137 9577 9578 9570 8308 9748 9749 9741 8299 8306 9747 9740 9743 9750 8310 9751 9581 9752 9753 
1087 1088 1313 1312 1112 1113 1338 1337 8144 9584 9585 9577 8315 9755 9756 9748 8306 8313 9754 9747 9750 9757 8317 9758 9588 9759 9760 
1088 1089 1314 1313 1113 1114 1339 1338 8151 9591 9592 9584 8322 9762 9763 9755 8313 8320 9761 9754 9757 9764 8324 9765 9595 9766 9767 
1089 1090 1315 1314 1114 1115 1340 1339 8158 9598 9599 9591 8329 9769 9770 9762 8320 8327 9768 9761 9764 9771 8331 9772 9602 9773 9774 
1090 1091 1316 1315 1115 1116 1341 1340 8165 9605 9606 9598 8336 9776 9777 9769 8327 8334 9775 9768 9771 9778 8338 9779 9609 9780 9781 
1091 1092 1317 1316 1116 1117 1342 1341 8172 9612 9613 9605 8343 9783 9784 9776 8334 8341 9782 9775 9778 9785 8345 9786 9616 9787 9788 
1092 1093 1318 1317 1117 1118 1343 1342 8179 9619 9620 9612 8350 9790 9791 9783 8341 8348 9789 9782 9785 9792 8352 9793 9623 9794 9795 
1093 1094 1319 1318 1118 1119 1344 1343 8186 9626 9627 9619 8357 9797 9798 9790 8348 8355 9796 9789 9792 9799 8359 9800 9630 9801 9802 
1094 1095 1320 1319 1119 1120 1345 1344 8193 9633 9634 9626 8364 9804 9805 9797 8355 8362 9803 9796 9799 9806 8366 9807 9637 9808 9809 
1095 1096 1321 1320 1120 1121 1346 1345 8200 9640 9641 9633 8371 9811 9812 9804 8362 8369 9810 9803 9806 9813 8373 9814 9644 9815 9816 
1096 1097 1322 1321 1121 1122 1347 1346 8207 9647 9648 9640 8378 9818 9819 9811 8369 8376 9817 9810 9813 9820 8380 9821 9651 9822 9823 
1097 1098 1323 1322 1122 1123 1348 1347 8214 9654 9655 9647 8385 9825 9826 9818 8376 8383 9824 9817 9820 9827 8387 9828 9658 9829 9830 
1098 1099 1324 1323 1123 1124 1349 1348 8221 9661 9662 9654 8392 9832 9833 9825 8383 8390 9831 9824 9827 9834 8394 9835 9665 9836 9837 
1125 1126 1351 1350 1150 1151 1376 1375 8398 9838 9839 9840 8403 9843 9844 9845 8401 8400 9841 9842 9849 9847 8407 9848 9846 9850 9851 
1126 1127 1352 1351 1151 1152 1377 1376 8412 9852 9853 9838 8415 9855 9856 9843 8400 8413 9854 9841 9847 9858 8418 9859 9857 9860 9861 
1127 1128 1353 1352 1152 1153 1378 1377 8422 9862 9863 9852 8425 9865 9866 9855 8413 8423 9864 9854 9858 9868 8428 9869 9867 9870 9871 
1128 1129 1354 1353 1153 1154 1379 1378 8432 9872 9873 9862 8435 9875 9876 9865 8423 8433 9874 9864 9868 9878 8438 9879 9877 9880 9881 
1129 1130 1355 1354 1154 1155 1380 1379 8442 9882 9883 9872 8445 9885 9886 9875 8433 8443 9884 9874 9878 9888 8448 9889 9887 9890 9891 
1130 1131 1356 1355 1155 1156 1381 1380 8452 9892 9893 9882 8455 9895 9896 9885 8443 8453 9894 9884 9888 9898 8458 9899 9897 9900 9901 
1131 1132 1357 1356 1156 1157 1382 1381 8462 9902 9903 9892 8465 9905 9906 9895 8453 8463 9904 9894 9898 9908 8468 9909 9907 9910 9911 
1132 1133 1358 1357 1157 1158 1383 1382 8472 9912 9913 9902 8475 9915 9916 9905 8463 8473 9914 9904 9908 9918 8478 9919 9917 9920 9921 
1133 1134 1359 1358 1158 1159 1384 1383 8482 9922 9923 9912 8485 9925 9926 9915 8473 8483 9924 9914 9918 9928 8488 9929 9927 9930 9931 
1134 1135 1360 1359 1159 1160 1385 1384 8492 9932 9933 9922 8495 9935 9936 9925 8483 8493 9934 9924 9928 9938 8498 9939 9937 9940 9941 
1135 1136 1361 1360 1160 1161 1386 1385 8502 9942 9943 9932 8505 9945 9946 9935 8493 8503 9944 9934 9938 9948 8508 9949 9947 9950 9951 
1136 1137 1362 1361 1161 1162 1387 1386 8512 9952 9953 9942 8515 9955 9956 9945 8503 8513 9954 9944 9948 9958 8518 9959 9957 9960 9961 
1137 1138 1363 1362 1162 1163 1388 1387 8522 9962 9963 9952 8525 9965 9966 9955 8513 8523 9964 9954 9958 9968 8528 9969 9967 9970 9971 
1138 1139 1364 1363 1163 1164 1389 1388 8532 9972 9973 9962 8535 9975 9976 9965 8523 8533 9974 9964 9968 9978 8538 9979 9977 9980 9981 
1139 1140 1365 1364 1164 1165 1390 1389 8542 9982 9983 9972 8545 9985 9986 9975 8533 8543 9984 9974 9978 9988 8548 9989 9987 9990 9991 
1140 1141 1366 1365 1165 1166 1391 1390 8552 9992 9993 9982 8555 9995 9996 9985 8543 8553 9994 9984 9988 9998 8558 9999 9997 10000 10001 
1141 1142 1367 1366 1166 1167 1392 1391 8562 10002 10003 9992 8565 10005 10006 9995 8553 8563 10004 9994 9998 10008 8568 10009 10007 10010 10011 
1142 1143 1368 1367 1167 1168 1393 1392 8572 10012 10013 10002 8575 10015 10016 10005 8563 8573 10014 10004 10008 10018 8578 10019 10017 10020 10021 
1143 1144 1369 1368 1168 1169 1394 1393 8582 10022 10023 10012 8585 10025 10026 10015 8573 8583 10024 10014 10018 10028 8588 10029 10027 10030 10031 
1144 1145 1370 1369 1169 1170 1395 1394 8592 10032 10033 10022 8595 10035 10036 10025 8583 8593 10034 10024 10028 10038 8598 10039 10037 10040 10041 
1145 1146 1371 1370 1170 1171 1396 1395 8602 10042 10043 10032 8605 10045 10046 10035 8593 8603 10044 10034 10038 10048 8608 10049 10047 10050 10051 
1146 1147 1372 1371 1171 1172 1397 1396 8612 10052 10053 10042 8615 10055 10056 10045 8603 8613 10054 10044 10048 10058 8618 10059 10057 10060 10061 
1147 1148 1373 1372 1172 1173 1398 1397 8622 10062 10063 10052 8625 10065 10066 10055 8613 8623 10064 10054 10058 10068 8628 10069 10067 10070 10071 
1148 1149 1374 1373 1173 1174 1399 1398 8632 10072 10073 10062 8635 10075 10076 10065 8623 8633 10074 10064 10068 10078 8638 10079 10077 10080 10081 
1150 1151 1376 1375 1175 1176 1401 1400 8403 9843 9844 9845 8644 10084 10085 10086 8642 8641 10082 10083 10089 10087 8647 10088 9850 10090 10091 
1151 1152 1377 1376 1176 1177 1402 1401 8415 9855 9856 9843 8653 10093 10094 10084 8641 8651 10092 10082 10087 10095 8655 10096 9860 10097 10098 
1152 1153 1378 1377 1177 1178 1403 1402 8425 9865 9866 9855 8660 10100 10101 10093 8651 8658 10099 10092 10095 10102 8662 10103 9870 10104 10105 
1153 1154 1379 1378 1178 1179 1404 1403 8435 9875 9876 9865 8667 10107 10108 10100 8658 8665 10106 10099 10102 10109 8669 10110 9880 10111 10112 
1154 1155 1380 1379 1179 1180 1405 1404 8445 9885 9886 9875 8674 10114 10115 10107 8665 8672 10113 10106 10109 10116 8676 10117 9890 10118 10119 
1155 1156 1381 1380 1180 1181 1406 1405 8455 9895 9896 9885 8681 10121 10122 10114 8672 8679 10120 10113 10116 10123 8683 10124 9900 10125 10126 
1156 1157 1382 1381 1181 1182 1407 1406 8465 9905 9906 9895 8688 10128 10129 10121 8679 8686 10127 10120 10123 10130 8690 10131 9910 10132 10133 
1157 1158 1383 1382 1182 1183 1408 1407 8475 9915 9916 9905 8695 10135 10136 10128 8686 8693 10134 10127 10130 10137 8697 10138 9920 10139 10140 
1158 1159 1384 1383 1183 1184 1409 1408 8485 9925 9926 9915 8702 10142 10143 10135 8693 8700 10141 10134 10137 10144 8704 10145 9930 10146 10147 
1159 1160 1385 1384 1184 1185 1410 1409 8495 9935 9936 9925 8709 10149 10150 10142 8700 8707 10148 10141 10144 10151 8711 10152 9940 10153 10154 
1160 1161 1386 1385 1185 1186 1411 1410 8505 9945 9946 9935 8716 10156 10157 10149 8707 8714 10155 10148 10151 10158 8718 10159 9950 10160 10161 
1161 1162 1387 1386 1186 1187 1412 1411 8515 9955 9956 9945 8723 10163 10164 10156 8714 8721 10162 10155 10158 10165 8725 10166 9960 10167 10168 
1162 1163 1388 1387 1187 1188 1413 1412 8525 9965 9966 9955 8730 10170 10171 10163 8721 8728 10169 10162 10165 10172 8732 10173 9970 10174 10175 
1163 1164 1389 1388 1188 1189 1414 1413 8535 9975 9976 9965 8737 10177 10178 10170 8728 8735 10176 10169 10172 10179 8739 10180 9980 10181 10182 
1164 1165 1390 1389 1189 1190 1415 1414 8545 9985 9986 9975 8744 10184 10185 10177 8735 8742 10183 10176 10179 10186 8746 10187 9990 10188 10189 
1165 1166 1391 1390 1190 1191 1416 1415 8555 9995 9996 9985 8751 10191 10192 10184 8742 8749 10190 10183 10186 10193 8753 10194 10000 10195 10196 
1166 1167 1392 1391 1191 1192 1417 1416 8565 10005 10006 9995 8758 10198 10199 10191 8749 8756 10197 10190 10193 10200 8760 10201 10010 10202 10203 
1167 1168 1393 1392 1192 1193 1418 1417 8575 10015 10016 10005 8765 10205 10206 10198 8756 8763 10204 10197 10200 10207 8767 10208 10020 10209 10210 
1168 1169 1394 1393 1193 1194 1419 1418 8585 10025 10026 10015 8772 10212 10213 10205 8763 8770 10211 10204 10207 10214 8774 10215 10030 10216 10217 
1169 1170 1395 1394 1194 1195 1420 1419 8595 10035 10036 10025 8779 10219 10220 10212 8770 8777 10218 10211 10214 10221 8781 10222 10040 10223 10224 
1170 1171 1396 1395 1195 1196 1421 1420 8605 10045 10046 10035 8786 10226 10227 10219 8777 8784 10225 10218 10221 10228 8788 10229 10050 10230 10231 
1171 1172 1397 1396 1196 1197 1422 1421 8615 10055 10056 10045 8793 10233 10234 10226 8784 8791 10232 10225 10228 10235 8795 10236 10060 10237 10238 
1172 1173 1398 1397 1197 1198 1423 1422 8625 10065 10066 10055 8800 10240 10241 10233 8791 8798 10239 10232 10235 10242 8802 10243 10070 10244 10245 
1173 1174 1399 1398 1198 1199 1424 1423 8635 10075 10076 10065 8807 10247 10248 10240 8798 8805 10246 10239 10242 10249 8809 10250 10080 10251 10252 
1175 1176 1401 1400 1200 1201 1426 1425 8644 10084 10085 10086 8815 10255 10256 10257 8813 8812 10253 10254 10260 10258 8818 10259 10090 10261 10262 
1176 1177 1402 1401 1201 1202 1427 1426 8653 10093 10094 10084 8824 10264 10265 10255 8812 8822 10263 10253 10258 10266 8826 10267 10097 10268 10269 
1177 1178 1403 1402 1202 1203 1428 1427 8660 10100 10101 10093 8831 10271 10272 10264 8822 8829 10270 10263 10266 10273 8833 10274 10104 10275 10276 
1178 1179 1404 1403 1203 1204 1429 1428 8667 10107 10108 10100 8838 10278 10279 10271 8829 8836 10277 10270 10273 10280 8840 10281 10111 10282 10283 
1179 1180 1405 1404 1204 1205 1430 1429 8674 10114 10115 10107 8845 10285 10286 10278 8836 8843 10284 10277 10280 10287 8847 10288 10118 10289 10290 
1180 1181 1406 1405 1205 1206 1431 1430 8681 10121 10122 10114 8852 10292 10293 10285 8843 8850 10291 10284 10287 10294 8854 10295 10125 10296 10297 
1181 1182 1407 1406 1206 1207 1432 1431 8688 10128 10129 10121 8859 10299 10300 10292 8850 8857 10298 10291 10294 10301 8861 10302 10132 10303 10304 
1182 1183 1408 1407 1207 1208 1433 1432 8695 10135 10136 10128 8866 10306 10307 10299 8857 8864 10305 10298 10301 10308 8868 10309 10139 10310 10311 
1183 1184 1409 1408 1208 1209 1434 1433 8702 10142 10143 10135 8873 10313 10314 10306 8864 8871 10312 10305 10308 10315 8875 10316 10146 10317 10318 
1184 1185 1410 1409 1209 1210 1435 1434 8709 10149 10150 10142 8880 10320 10321 10313 8871 8878 10319 10312 10315 10322 8882 10323 10153 10324 10325 
1185 1186 1411 1410 1210 1211 1436 1435 8716 10156 10157 10149 8887 10327 10328 10320 8878 8885 10326 10319 10322 10329 8889 10330 10160 10331 10332 
1186 1187 1412 1411 1211 1212 1437 1436 8723 10163 10164 10156 8894 10334 10335 10327 8885 8892 10333 10326 10329 10336 8896 10337 10167 10338 10339 
1187 1188 1413 1412 1212 1213 1438 1437 8730 10170 10171 10163 8901 10341 10342 10334 8892 8899 10340 10333 10336 10343 8903 10344 10174 10345 10346 
1188 1189 1414 1413 1213 1214 1439 1438 8737 10177 10178 10170 8908 10348 10349 10341 8899 8906 10347 10340 10343 10350 8910 10351 10181 10352 10353 
1189 1190 1415 1414 1214 1215 1440 1439 8744 10184 10185 10177 8915 10355 10356 10348 8906 8913 10354 10347 10350 10357 8917 10358 10188 10359 10360 
1190 1191 1416 1415 1215 1216 1441 1440 8751 10191 10192 10184 8922 10362 10363 10355 8913 8920 10361 10354 10357 10364 8924 10365 10195 10366 10367 
1191 1192 1417 1416 1216 1217 1442 1441 8758 10198 10199 10191 8929 10369 10370 10362 8920 8927 10368 10361 10364 10371 8931 10372 10202 10373 10374 
1192 1193 1418 1417 1217 1218 1443 1442 8765 10205 10206 10198 8936 10376 10377 10369 8927 8934 10375 10368 10371 10378 8938 10379 10209 10380 10381 
1193 1194 1419 1418 1218 1219 1444 1443 8772 10212 10213 10205 8943 10383 10384 10376 8934 8941 10382 10375 10378 10385 8945 10386 10216 10387 10388 
1194 1195 1420 1419 1219 1220 1445 1444 8779 10219 10220 10212 8950 10390 10391 10383 8941 8948 10389 10382 10385 10392 8952 10393 10223 10394 10395 
1195 1196 1421 1420 1220 1221 1446 1445 8786 10226 10227 10219 8957 10397 10398 10390 8948 8955 10396 10389 10392 10399 8959 10400 10230 10401 10402 
1196 1197 1422 1421 1221 1222 1447 1446 8793 10233 10234 10226 8964 10404 10405 10397 8955 8962 10403 10396 10399 10406 8966 10407 10237 10408 10409 
1197 1198 1423 1422 1222 1223 1448 1447 8800 10240 10241 10233 8971 10411 10412 10404 8962 8969 10410 10403 10406 10413 8973 10414 10244 10415 10416 
1198 1199 1424 1423 1223 1224 1449 1448 8807 10247 10248 10240 8978 10418 10419 10411 8969 8976 10417 10410 10413 10420 8980 10421 10251 10422 10423 
1200 1201 1426 1425 1225 1226 1451 1450 8815 10255 10256 10257 8986 10426 10427 10428 8984 8983 10424 10425 10431 10429 8989 10430 10261 10432 10433 
1201 1202 1427 1426 1226 1227 1452 1451 8824 10264 10265 10255 8995 10435 10436 10426 8983 8993 10434 10424 10429 10437 8997 10438 10268 10439 10440 
1202 1203 1428 1427 1227 1228 1453 1452 8831 10271 10272 10264 9002 10442 10443 10435 8993 9000 10441 10434 10437 10444 9004 10445 10275 10446 10447 
1203 1204 1429 1428 1228 1229 1454 1453 8838 10278 10279 10271 9009 10449 10450 10442 9000 9007 10448 10441 10444 10451 9011 10452 10282 10453 10454 
1204 1205 1430 1429 1229 1230 1455 1454 8845 10285 10286 10278 9016 10456 10457 10449 9007 9014 10455 10448 10451 10458 9018 10459 10289 10460 10461 
1205 1206 1431 1430 1230 1231 1456 1455 8852 10292 10293 10285 9023 10463 10464 10456 9014 9021 10462 10455 10458 10465 9025 10466 10296 10467 10468 
1206 1207 1432 1431 1231 1232 1457 1456 8859 10299 10300 10292 9030 10470 10471 10463 9021 9028 10469 10462 10465 10472 9032 10473 10303 10474 10475 
1207 1208 1433 1432 1232 1233 1458 1457 8866 10306 10307 10299 9037 10477 10478 10470 9028 9035 10476 10469 10472 10479 9039 10480 10310 10481 10482 
1208 1209 1434 1433 1233 1234 1459 1458 8873 10313 10314 10306 9044 10484 10485 10477 9035 9042 10483 10476 10479 10486 9046 10487 10317 10488 10489 
1209 1210 1435 1434 1234 1235 1460 1459 8880 10320 10321 10313 9051 10491 10492 10484 9042 9049 10490 10483 10486 10493 9053 10494 10324 10495 10496 
1210 1211 1436 1435 1235 1236 1461 1460 8887 10327 10328 10320 9058 10498 10499 10491 9049 9056 10497 10490 10493 10500 9060 10501 10331 10502 10503 
1211 1212 1437 1436 1236 1237 1462 1461 8894 10334 10335 10327 9065 10505 10506 10498 9056 9063 10504 10497 10500 10507 9067 10508 10338 10509 10510 
1212 1213 1438 1437 1237 1238 1463 1462 8901 10341 10342 10334 9072 10512 10513 10505 9063 9070 10511 10504 10507 10514 9074 10515 10345 10516 10517 
1213 1214 1439 1438 1238 1239 1464 1463 8908 10348 10349 10341 9079 10519 10520 10512 9070 9077 10518 10511 10514 10521 9081 10522 10352 10523 10524 
1214 1215 1440 1439 1239 1240 1465 1464 8915 10355 10356 10348 9086 10526 10527 10519 9077 9084 10525 10518 10521 10528 9088 10529 10359 10530 10531 
1215 1216 1441 1440 1240 1241 1466 1465 8922 10362 10363 10355 9093 10533 10534 10526 9084 9091 10532 10525 10528 10535 9095 10536 10366 10537 10538 
1216 1217 1442 1441 1241 1242 1467 1466 8929 10369 10370 10362 9100 10540 10541 10533 9091 9098 10539 10532 10535 10542 9102 10543 10373 10544 10545 
1217 1218 1443 1442 1242 1243 1468 1467 8936 10376 10377 10369 9107 10547 10548 10540 9098 9105 10546 10539 10542 10549 9109 10550 10380 10551 10552 
1218 1219 1444 1443 1243 1244 1469 1468 8943 10383 10384 10376 9114 10554 10555 10547 9105 9112 10553 10546 10549 10556 9116 10557 10387 10558 10559 
1219 1220 1445 1444 1244 1245 1470 1469 8950 10390 10391 10383 9121 10561 10562 10554 9112 9119 10560 10553 10556 10563 9123 10564 10394 10565 10566 
1220 1221 1446 1445 1245 1246 1471 1470 8957 10397 10398 10390 9128 10568 10569 10561 9119 9126 10567 10560 10563 10570 9130 10571 10401 10572 10573 
1221 1222 1447 1446 1246 1247 1472 1471 8964 10404 10405 10397 9135 10575 10576 10568 9126 9133 10574 10567 10570 10577 9137 10578 10408 10579 10580 
1222 1223 1448 1447 1247 1248 1473 1472 8971 10411 10412 10404 9142 10582 10583 10575 9133 9140 10581 10574 10577 10584 9144 10585 10415 10586 10587 
1223 1224 1449 1448 1248 1249 1474 1473 8978 10418 10419 10411 9149 10589 10590 10582 9140 9147 10588 10581 10584 10591 9151 10592 10422 10593 10594 
1225 1226 1451 1450 1250 1251 1476 1475 8986 10426 10427 10428 9157 10597 10598 10599 9155 9154 10595 10596 10602 10600 9160 10601 10432 10603 10604 
1226 1227 1452 1451 1251 1252 1477 1476 8995 10435 10436 10426 9166 10606 10607 10597 9154 9164 10605 10595 10600 10608 9168 10609 10439 10610 10611 
1227 1228 1453 1452 1252 1253 1478 1477 9002 10442 10443 10435 9173 10613 10614 10606 9164 9171 10612 10605 10608 10615 9175 10616 10446 10617 10618 
1228 1229 1454 1453 1253 1254 1479 1478 9009 10449 10450 10442 9180 10620 10621 10613 9171 9178 10619 10612 10615 10622 9182 10623 10453 10624 10625 
1229 1230 1455 1454 1254 1255 1480 1479 9016 10456 10457 10449 9187 10627 10628 10620 9178 9185 10626 10619 10622 10629 9189 10630 10460 10631 10632 
1230 1231 1456 1455 1255 1256 1481 1480 9023 10463 10464 10456 9194 10634 10635 10627 9185 9192 10633 10626 10629 10636 9196 10637 10467 10638 10639 
1231 1232 1457 1456 1256 1257 1482 1481 9030 10470 10471 10463 9201 10641 10642 10634 9192 9199 10640 10633 10636 10643 9203 10644 10474 10645 10646 
1232 1233 1458 1457 1257 1258 1483 1482 9037 10477 10478 10470 9208 10648 10649 10641 9199 9206 10647 10640 10643 10650 9210 10651 10481 10652 10653 
1233 1234 1459 1458 1258 1259 1484 1483 9044 10484 10485 10477 9215 10655 10656 10648 9206 9213 10654 10647 10650 10657 9217 10658 10488 10659 10660 
1234 1235 1460 1459 1259 1260 1485 1484 9051 10491 10492 10484 9222 10662 10663 10655 9213 9220 10661 10654 10657 10664 9224 10665 10495 10666 10667 
1235 1236 1461 1460 1260 1261 1486 1485 9058 10498 10499 10491 9229 10669 10670 10662 9220 9227 10668 10661 10664 10671 9231 10672 10502 10673 10674 
1236 1237 1462 1461 1261 1262 1487 1486 9065 10505 10506 10498 9236 10676 10677 10669 9227 9234 10675 10668 10671 10678 9238 10679 10509 10680 10681 
1237 1238 1463 1462 1262 1263 1488 1487 9072 10512 10513 10505 9243 10683 10684 10676 9234 9241 10682 10675 10678 10685 9245 10686 10516 10687 10688 
1238 1239 1464 1463 1263 1264 1489 1488 9079 10519 10520 10512 9250 10690 10691 10683 9241 9248 10689 10682 10685 10692 9252 10693 10523 10694 10695 
1239 1240 1465 1464 1264 1265 1490 1489 9086 10526 10527 10519 9257 10697 10698 10690 9248 9255 10696 10689 10692 10699 9259 10700 10530 10701 10702 
1240 1241 1466 1465 1265 1266 1491 1490 9093 10533 10534 10526 9264 10704 10705 10697 9255 9262 10703 10696 10699 10706 9266 10707 10537 10708 10709 
1241 1242 1467 1466 1266 1267 1492 1491 9100 10540 10541 10533 9271 10711 10712 10704 9262 9269 10710 10703 10706 10713 9273 10714 10544 10715 10716 
1242 1243 1468 1467 1267 1268 1493 1492 9107 10547 10548 10540 9278 10718 10719 10711 9269 9276 10717 10710 10713 10720 9280 10721 10551 10722 10723 
1243 1244 1469 1468 1268 1269 1494 1493 9114 10554 10555 10547 9285 10725 10726 10718 9276 9283 10724 10717 10720 10727 9287 10728 10558 10729 10730 
1244 1245 1470 1469 1269 1270 1495 1494 9121 10561 10562 10554 9292 10732 10733 10725 9283 9290 10731 10724 10727 10734 9294 10735 10565 10736 10737 
1245 1246 1471 1470 1270 1271 1496 1495 9128 10568 10569 10561 9299 10739 10740 10732 9290 9297 10738 10731 10734 10741 9301 10742 10572 10743 10744 
1246 1247 1472 1471 1271 1272 1497 1496 9135 10575 10576 10568 9306 10746 10747 10739 9297 9304 10745 10738 10741 10748 9308 10749 10579 10750 10751 
1247 1248 1473 1472 1272 1273 1498 1497 9142 10582 10583 10575 9313 10753 10754 10746 9304 9311 10752 10745 10748 10755 9315 10756 10586 10757 10758 
1248 1249 1474 1473 1273 1274 1499 1498 9149 10589 10590 10582 9320 10760 10761 10753 9311 9318 10759 10752 10755 10762 9322 10763 10593 10764 10765 
1250 1251 1476 1475 1275 1276 1501 1500 9157 10597 10598 10599 9328 10768 10769 10770 9326 9325 10766 10767 10773 10771 9331 10772 10603 10774 10775 
1251 1252 1477 1476 1276 1277 1502 1501 9166 10606 10607 10597 9337 10777 10778 10768 9325 9335 10776 10766 10771 10779 9339 10780 10610 10781 10782 
1252 1253 1478 1477 1277 1278 1503 1502 9173 10613 10614 10606 9344 10784 10785 10777 9335 9342 10783 10776 10779 10786 9346 10787 10617 10788 10789 
1253 1254 1479 1478 1278 1279 1504 1503 9180 10620 10621 10613 9351 10791 10792 10784 9342 9349 10790 10783 10786 10793 9353 10794 10624 10795 10796 
1254 1255 1480 1479 1279 1280 1505 1504 9187 10627 10628 10620 9358 10798 10799 10791 9349 9356 10797 10790 10793 10800 9360 10801 10631 10802 10803 
1255 1256 1481 1480 1280 1281 1506 1505 9194 10634 10635 10627 9365 10805 10806 10798 9356 9363 10804 10797 10800 10807 9367 10808 10638 10809 10810 
1256 1257 1482 1481 1281 1282 1507 1506 9201 10641 10642 10634 9372 10812 10813 10805 9363 9370 10811 10804 10807 10814 9374 10815 10645 10816 10817 
1257 1258 1483 1482 1282 1283 1508 1507 9208 10648 10649 10641 9379 10819 10820 10812 9370 9377 10818 10811 10814 10821 9381 10822 10652 10823 10824 
1258 1259 1484 1483 1283 1284 1509 1508 9215 10655 10656 10648 9386 10826 10827 10819 9377 9384 10825 10818 10821 10828 9388 10829 10659 10830 10831 
1259 1260 1485 1484 1284 1285 1510 1509 9222 10662 10663 10655 9393 10833 10834 10826 9384 9391 10832 10825 10828 10835 9395 10836 10666 10837 10838 
1260 1261 1486 1485 1285 1286 1511 1510 9229 10669 10670 10662 9400 10840 10841 10833 9391 9398 10839 10832 10835 10842 9402 10843 10673 10844 10845 
1261 1262 1487 1486 1286 1287 1512 1511 9236 10676 10677 10669 9407 10847 10848 10840 9398 9405 10846 10839 10842 10849 9409 10850 10680 10851 10852 
1262 1263 1488 1487 1287 1288 1513 1512 9243 10683 10684 10676 9414 10854 10855 10847 9405 9412 10853 10846 10849 10856 9416 10857 10687 10858 10859 
1263 1264 1489 1488 1288 1289 1514 1513 9250 10690 10691 10683 9421 10861 10862 10854 9412 9419 10860 10853 10856 10863 9423 10864 10694 10865 10866 
1264 1265 1490 1489 1289 1290 1515 1514 9257 10697 10698 10690 9428 10868 10869 10861 9419 9426 10867 10860 10863 10870 9430 10871 10701 10872 10873 
1265 1266 1491 1490 1290 1291 1516 1515 9264 10704 10705 10697 9435 10875 10876 10868 9426 9433 10874 10867 10870 10877 9437 10878 10708 10879 10880 
1266 1267 1492 1491 1291 1292 1517 1516 9271 10711 10712 10704 9442 10882 10883 10875 9433 9440 10881 10874 10877 10884 9444 10885 10715 10886 10887 
1267 1268 1493 1492 1292 1293 1518 1517 9278 10718 10719 10711 9449 10889 10890 10882 9440 9447 10888 10881 10884 10891 9451 10892 10722 10893 10894 
1268 1269 1494 1493 1293 1294 1519 1518 9285 10725 10726 10718 9456 10896 10897 10889 9447 9454 10895 10888 10891 10898 9458 10899 10729 10900 10901 
1269 1270 1495 1494 1294 1295 1520 1519 9292 10732 10733 10725 9463 10903 10904 10896 9454 9461 10902 10895 10898 10905 9465 10906 10736 10907 10908 
1270 1271 1496 1495 1295 1296 1521 1520 9299 10739 10740 10732 9470 10910 10911 10903 9461 9468 10909 10902 10905 10912 9472 10913 10743 10914 10915 
1271 1272 1497 1496 1296 1297 1522 1521 9306 10746 10747 10739 9477 10917 10918 10910 9468 9475 10916 10909 10912 10919 9479 10920 10750 10921 10922 
1272 1273 1498 1497 1297 1298 1523 1522 9313 10753 10754 10746 9484 10924 10925 10917 9475 9482 10923 10916 10919 10926 9486 10927 10757 10928 10929 
1273 1274 1499 1498 1298 1299 1524 1523 9320 10760 10761 10753 9491 10931 10932 10924 9482 9489 10930 10923 10926 10933 9493 10934 10764 10935 10936 
1275 1276 1501 1500 1300 1301 1526 1525 9328 10768 10769 10770 9499 10939 10940 10941 9497 9496 10937 10938 10944 10942 9502 10943 10774 10945 10946 
1276 1277 1502 1501 1301 1302 1527 1526 9337 10777 10778 10768 9508 10948 10949 10939 9496 9506 10947 10937 10942 10950 9510 10951 10781 10952 10953 
1277 1278 1503 1502 1302 1303 1528 1527 9344 10784 10785 10777 9515 10955 10956 10948 9506 9513 10954 10947 10950 10957 9517 10958 10788 10959 10960 
1278 1279 1504 1503 1303 1304 1529 1528 9351 10791 10792 10784 9522 10962 10963 10955 9513 9520 10961 10954 10957 10964 9524 10965 10795 10966 10967 
1279 1280 1505 1504 1304 1305 1530 1529 9358 10798 10799 10791 9529 10969 10970 10962 9520 9527 10968 10961 10964 10971 9531 10972 10802 10973 10974 
1280 1281 1506 1505 1305 1306 1531 1530 9365 10805 10806 10798 9536 10976 10977 10969 9527 9534 10975 10968 10971 10978 9538 10979 10809 10980 10981 
1281 1282 1507 1506 1306 1307 1532 1531 9372 10812 10813 10805 9543 10983 10984 10976 9534 9541 10982 10975 10978 10985 9545 10986 10816 10987 10988 
1282 1283 1508 1507 1307 1308 1533 1532 9379 10819 10820 10812 9550 10990 10991 10983 9541 9548 10989 10982 10985 10992 9552 10993 10823 10994 10995 
1283 1284 1509 1508 1308 1309 1534 1533 9386 10826 10827 10819 9557 10997 10998 10990 9548 9555 10996 10989 10992 10999 9559 11000 10830 11001 11002 
1284 1285 1510 1509 1309 1310 1535 1534 9393 10833 10834 10826 9564 11004 11005 10997 9555 9562 11003 10996 10999 11006 9566 11007 10837 11008 11009 
1285 1286 1511 1510 1310 1311 1536 1535 9400 10840 10841 10833 9571 11011 11012 11004 9562 9569 11010 11003 11006 11013 9573 11014 10844 11015 11016 
1286 1287 1512 1511 1311 1312 1537 1536 9407 10847 10848 10840 9578 11018 11019 11011 9569 9576 11017 11010 11013 11020 9580 11021 10851 11022 11023 
1287 1288 1513 1512 1312 1313 1538 1537 9414 10854 10855 10847 9585 11025 11026 11018 9576 9583 11024 11017 11020 11027 9587 11028 10858 11029 11030 
1288 1289 1514 1513 1313 1314 1539 1538 9421 10861 10862 10854 9592 11032 11033 11025 9583 9590 11031 11024 11027 11034 9594 11035 10865 11036 11037 
1289 1290 1515 1514 1314 1315 1540 1539 9428 10868 10869 10861 9599 11039 11040 11032 9590 9597 11038 11031 11034 11041 9601 11042 10872 11043 11044 
1290 1291 1516 1515 1315 1316 1541 1540 9435 10875 10876 10868 9606 11046 11047 11039 9597 9604 11045 11038 11041 11048 9608 11049 10879 11050 11051 
1291 1292 1517 1516 1316 1317 1542 1541 9442 10882 10883 10875 9613 11053 11054 11046 9604 9611 11052 11045 11048 11055 9615 11056 10886 11057 11058 
1292 1293 1518 1517 1317 1318 1543 1542 9449 10889 10890 10882 9620 11060 11061 11053 9611 9618 11059 11052 11055 11062 9622 11063 10893 11064 11065 
1293 1294 1519 1518 1318 1319 1544 1543 9456 10896 10897 10889 9627 11067 11068 11060 9618 9625 11066 11059 11062 11069 9629 11070 10900 11071 11072 
1294 1295 1520 1519 1319 1320 1545 1544 9463 10903 10904 10896 9634 11074 11075 11067 9625 9632 11073 11066 11069 11076 9636 11077 10907 11078 11079 
1295 1296 1521 1520 1320 1321 1546 1545 9470 10910 10911 10903 9641 11081 11082 11074 9632 9639 11080 11073 11076 11083 9643 11084 10914 11085 11086 
1296 1297 1522 1521 1321 1322 1547 1546 9477 10917 10918 10910 9648 11088 11089 11081 9639 9646 11087 11080 11083 11090 9650 11091 10921 11092 11093 
1297 1298 1523 1522 1322 1323 1548 1547 9484 10924 10925 10917 9655 11095 11096 11088 9646 9653 11094 11087 11090 11097 9657 11098 10928 11099 11100 
1298 1299 1524 1523 1323 1324 1549 1548 9491 10931 10932 10924 9662 11102 11103 11095 9653 9660 11101 11094 11097 11104 9664 11105 10935 11106 11107 
1300 1301 1526 1525 1325 1326 1551 1550 9499 10939 10940 10941 9670 11110 11111 11112 9668 9667 11108 11109 11115 11113 9673 11114 10945 11116 11117 
1301 1302 1527 1526 1326 1327 1552 1551 9508 10948 10949 10939 9679 11119 11120 11110 9667 9677 11118 11108 11113 11121 9681 11122 10952 11123 11124 
1302 1303 1528 1527 1327 1328 1553 1552 9515 10955 10956 10948 9686 11126 11127 11119 9677 9684 11125 11118 11121 11128 9688 11129 10959 11130 11131 
1303 1304 1529 1528 1328 1329 1554 1553 9522 10962 10963 10955 9693 11133 11134 11126 9684 9691 11132 11125 11128 11135 9695 11136 10966 11137 11138 
1304 1305 1530 1529 1329 1330 1555 1554 9529 10969 10970 10962 9700 11140 11141 11133 9691 9698 11139 11132 11135 11142 9702 11143 10973 11144 11145 
1305 1306 1531 1530 1330 1331 1556 1555 9536 10976 10977 10969 9707 11147 11148 11140 9698 9705 11146 11139 11142 11149 9709 11150 10980 11151 11152 
1306 1307 1532 1531 1331 1332 1557 1556 9543 10983 10984 10976 9714 11154 11155 11147 9705 9712 11153 11146 11149 11156 9716 11157 10987 11158 11159 
1307 1308 1533 1532 1332 1333 1558 1557 9550 10990 10991 10983 9721 11161 11162 11154 9712 9719 11160 11153 11156 11163 9723 11164 10994 11165 11166 
1308 1309 1534 1533 1333 1334 1559 1558 9557 10997 10998 10990 9728 11168 11169 11161 9719 9726 11167 11160 11163 11170 9730 11171 11001 11172 11173 
1309 1310 1535 1534 1334 1335 1560 1559 9564 11004 11005 10997 9735 11175 11176 11168 9726 9733 11174 11167 11170 11177 9737 11178 11008 11179 11180 
1310 1311 1536 1535 1335 1336 1561 1560 9571 11011 11012 11004 9742 11182 11183 11175 9733 9740 11181 11174 11177 11184 9744 11185 11015 11186 11187 
1311 1312 1537 1536 1336 1337 1562 1561 9578 11018 11019 11011 9749 11189 11190 11182 9740 9747 11188 11181 11184 11191 9751 11192 11022 11193 11194 
1312 1313 1538 1537 1337 1338 1563 1562 9585 11025 11026 11018 9756 11196 11197 11189 9747 9754 11195 11188 11191 11198 9758 11199 11029 11200 11201 
1313 1314 1539 1538 1338 1339 1564 1563 9592 11032 11033 11025 9763 11203 11204 11196 9754 9761 11202 11195 11198 11205 9765 11206 11036 11207 11208 
1314 1315 1540 1539 1339 1340 1565 1564 9599 11039 11040 11032 9770 11210 11211 11203 9761 9768 11209 11202 11205 11212 9772 11213 11043 11214 11215 
1315 1316 1541 1540 1340 1341 1566 1565 9606 11046 11047 11039 9777 11217 11218 11210 9768 9775 11216 11209 11212 11219 9779 11220 11050 11221 11222 
1316 1317 1542 1541 1341 1342 1567 1566 9613 11053 11054 11046 9784 11224 11225 11217 9775 9782 11223 11216 11219 11226 9786 11227 11057 11228 11229 
1317 1318 1543 1542 1342 1343 1568 1567 9620 11060 11061 11053 9791 11231 11232 11224 9782 9789 11230 11223 11226 11233 9793 11234 11064 11235 11236 
1318 1319 1544 1543 1343 1344 1569 1568 9627 11067 11068 11060 9798 11238 11239 11231 9789 9796 11237 11230 11233 11240 9800 11241 11071 11242 11243 
1319 1320 1545 1544 1344 1345 1570 1569 9634 11074 11075 11067 9805 11245 11246 11238 9796 9803 11244 11237 11240 11247 9807 11248 11078 11249 11250 
1320 1321 1546 1545 1345 1346 1571 1570 9641 11081 11082 11074 9812 11252 11253 11245 9803 9810 11251 11244 11247 11254 9814 11255 11085 11256 11257 
1321 1322 1547 1546 1346 1347 1572 1571 9648 11088 11089 11081 9819 11259 11260 11252 9810 9817 11258 11251 11254 11261 9821 11262 11092 11263 11264 
1322 1323 1548 1547 1347 1348 1573 1572 9655 11095 11096 11088 9826 11266 11267 11259 9817 9824 11265 11258 11261 11268 9828 11269 11099 11270 11271 
1323 1324 1549 1548 1348 1349 1574 1573 9662 11102 11103 11095 9833 11273 11274 11266 9824 9831 11272 11265 11268 11275 9835 11276 11106 11277 11278 
1350 1351 1576 1575 1375 1376 1601 1600 9839 11279 11280 11281 9844 11284 11285 11286 9842 9841 11282 11283 11290 11288 9848 11289 11287 11291 11292 
1351 1352 1577 1576 1376 1377 1602 1601 9853 11293 11294 11279 9856 11296 11297 11284 9841 9854 11295 11282 11288 11299 9859 11300 11298 11301 11302 
1352 1353 1578 1577 1377 1378 1603 1602 9863 11303 11304 11293 9866 11306 11307 11296 9854 9864 11305 11295 11299 11309 9869 11310 11308 11311 11312 
1353 1354 1579 1578 1378 1379 1604 1603 9873 11313 11314 11303 9876 11316 11317 11306 9864 9874 11315 11305 11309 11319 9879 11320 11318 11321 11322 
1354 1355 1580 1579 1379 1380 1605 1604 9883 11323 11324 11313 9886 11326 11327 11316 9874 9884 11325 11315 11319 11329 9889 11330 11328 11331 11332 
1355 1356 1581 1580 1380 1381 1606 1605 9893 11333 11334 11323 9896 11336 11337 11326 9884 9894 11335 11325 11329 11339 9899 11340 11338 11341 11342 
1356 1357 1582 1581 1381 1382 1607 1606 9903 11343 11344 11333 9906 11346 11347 11336 9894 9904 11345 11335 11339 11349 9909 11350 11348 11351 11352 
1357 1358 1583 1582 1382 1383 1608 1607 9913 11353 11354 11343 9916 11356 11357 11346 9904 9914 11355 11345 11349 11359 9919 11360 11358 11361 11362 
1358 1359 1584 1583 1383 1384 1609 1608 9923 11363 11364 11353 9926 11366 11367 11356 9914 9924 11365 11355 11359 11369 9929 11370 11368 11371 11372 
1359 1360 1585 1584 1384 1385 1610 1609 9933 11373 11374 11363 9936 11376 11377 11366 9924 9934 11375 11365 11369 11379 9939 11380 11378 11381 11382 
1360 1361 1586 1585 1385 1386 1611 1610 9943 11383 11384 11373 9946 11386 11387 11376 9934 9944 11385 11375 11379 11389 9949 11390 11388 11391 11392 
1361 1362 1587 1586 1386 1387 1612 1611 9953 11393 11394 11383 9956 11396 11397 11386 9944 9954 11395 11385 11389 11399 9959 11400 11398 11401 11402 
1362 1363 1588 1587 1387 1388 1613 1612 9963 11403 11404 11393 9966 11406 11407 11396 9954 9964 11405 11395 11399 11409 9969 11410 11408 11411 11412 
1363 1364 1589 1588 1388 1389 1614 1613 9973 11413 11414 11403 9976 11416 11417 11406 9964 9974 11415 11405 11409 11419 9979 11420 11418 11421 11422 
1364 1365 1590 1589 1389 1390 1615 1614 9983 11423 11424 11413 9986 11426 11427 11416 9974 9984 11425 11415 11419 11429 9989 11430 11428 11431 11432 
1365 1366 1591 1590 1390 1391 1616 1615 9993 11433 11434 11423 9996 11436 11437 11426 9984 9994 11435 11425 11429 11439 9999 11440 11438 11441 11442 
1366 1367 1592 1591 1391 1392 1617 1616 10003 11443 11444 11433 10006 11446 11447 11436 9994 10004 11445 11435 11439 11449 10009 11450 11448 11451 11452 
1367 1368 1593 1592 1392 1393 1618 1617 10013 11453 11454 11443 10016 11456 11457 11446 10004 10014 11455 11445 11449 11459 10019 11460 11458 11461 11462 
1368 1369 1594 1593 1393 1394 1619 1618 10023 11463 11464 11453 10026 11466 11467 11456 10014 10024 11465 11455 11459 11469 10029 11470 11468 11471 11472 
1369 1370 1595 1594 1394 1395 1620 1619 10033 11473 11474 11463 10036 11476 11477 11466 10024 10034 11475 11465 11469 11479 10039 11480 11478 11481 11482 
1370 1371 1596 1595 1395 1396 1621 1620 10043 11483 11484 11473 10046 11486 11487 11476 10034 10044 11485 11475 11479 11489 10049 11490 11488 11491 11492 
1371 1372 1597 1596 1396 1397 1622 1621 10053 11493 11494 11483 10056 11496 11497 11486 10044 10054 11495 11485 11489 11499 10059 11500 11498 11501 11502 
1372 1373 1598 1597 1397 1398 1623 1622 10063 11503 11504 11493 10066 11506 11507 11496 10054 10064 11505 11495 11499 11509 10069 11510 11508 11511 11512 
1373 1374 1599 1598 1398 1399 1624 1623 10073 11513 11514 11503 10076 11516 11517 11506 10064 10074 11515 11505 11509 11519 10079 11520 11518 11521 11522 
1375 1376 1601 1600 1400 1401 1626 1625 9844 11284 11285 11286 10085 11525 11526 11527 10083 10082 11523 11524 11530 11528 10088 11529 11291 11531 11532 
1376 1377 1602 1601 1401 1402 1627 1626 9856 11296 11297 11284 10094 11534 11535 11525 10082 10092 11533 11523 11528 11536 10096 11537 11301 11538 11539 
1377 1378 1603 1602 1402 1403 1628 1627 9866 11306 11307 11296 10101 11541 11542 11534 10092 10099 11540 11533 11536 11543 10103 11544 11311 11545 11546 
1378 1379 1604 1603 1403 1404 1629 1628 9876 11316 11317 11306 10108 11548 11549 11541 10099 10106 11547 11540 11543 11550 10110 11551 11321 11552 11553 
1379 1380 1605 1604 1404 1405 1630 1629 9886 11326 11327 11316 10115 11555 11556 11548 10106 10113 11554 11547 11550 11557 10117 11558 11331 11559 11560 
1380 1381 1606 1605 1405 1406 1631 1630 9896 11336 11337 11326 10122 11562 11563 11555 10113 10120 11561 11554 11557 11564 10124 11565 11341 11566 11567 
1381 1382 1607 1606 1406 1407 1632 1631 9906 11346 11347 11336 10129 11569 11570 11562 10120 10127 11568 11561 11564 11571 10131 11572 11351 11573 11574 
1382 1383 1608 1607 1407 1408 1633 1632 9916 11356 11357 11346 10136 11576 11577 11569 10127 10134 11575 11568 11571 11578 10138 11579 11361 11580 11581 
1383 1384 1609 1608 1408 1409 1634 1633 9926 11366 11367 11356 10143 11583 11584 11576 10134 10141 11582 11575 11578 11585 10145 11586 11371 11587 11588 
1384 1385 1610 1609 1409 1410 1635 1634 9936 11376 11377 11366 10150 11590 11591 11583 10141 10148 11589 11582 11585 11592 10152 11593 11381 11594 11595 
1385 1386 1611 1610 1410 1411 1636 1635 9946 11386 11387 11376 10157 11597 11598 11590 10148 10155 11596 11589 11592 11599 10159 11600 11391 11601 11602 
1386 1387 1612 1611 1411 1412 1637 1636 9956 11396 11397 11386 10164 11604 11605 11597 10155 10162 11603 11596 11599 11606 10166 11607 11401 11608 11609 
1387 1388 1613 1612 1412 1413 1638 1637 9966 11406 11407 11396 10171 11611 11612 11604 10162 10169 11610 11603 11606 11613 10173 11614 11411 11615 11616 
1388 1389 1614 1613 1413 1414 1639 1638 9976 11416 11417 11406 10178 11618 11619 11611 10169 10176 11617 11610 11613 11620 10180 11621 11421 11622 11623 
1389 1390 1615 1614 1414 1415 1640 1639 9986 11426 11427 11416 10185 11625 11626 11618 10176 10183 11624 11617 11620 11627 10187 11628 11431 11629 11630 
1390 1391 1616 1615 1415 1416 1641 1640 9996 11436 11437 11426 10192 11632 11633 11625 10183 10190 11631 11624 11627 11634 10194 11635 11441 11636 11637 
1391 1392 1617 1616 1416 1417 1642 1641 10006 11446 11447 11436 10199 11639 11640 11632 10190 10197 11638 11631 11634 11641 10201 11642 11451 11643 11644 
1392 1393 1618 1617 1417 1418 1643 1642 10016 11456 11457 11446 10206 11646 11647 11639 10197 10204 11645 11638 11641 11648 10208 11649 11461 11650 11651 
1393 1394 1619 1618 1418 1419 1644 1643 10026 11466 11467 11456 10213 11653 11654 11646 10204 10211 11652 11645 11648 11655 10215 11656 11471 11657 11658 
1394 1395 1620 1619 1419 1420 1645 1644 10036 11476 11477 11466 10220 11660 11661 11653 10211 10218 11659 11652 11655 11662 10222 11663 11481 11664 11665 
1395 1396 1621 1620 1420 1421 1646 1645 10046 11486 11487 11476 10227 11667 11668 11660 10218 10225 11666 11659 11662 11669 10229 11670 11491 11671 11672 
1396 1397 1622 1621 1421 1422 1647 1646 10056 11496 11497 11486 10234 11674 11675 11667 10225 10232 11673 11666 11669 11676 10236 11677 11501 11678 11679 
1397 1398 1623 1622 1422 1423 1648 1647 10066 11506 11507 11496 10241 11681 11682 11674 10232 10239 11680 11673 11676 11683 10243 11684 11511 11685 11686 
1398 1399 1624 1623 1423 1424 1649 1648 10076 11516 11517 11506 10248 11688 11689 11681 10239 10246 11687 11680 11683 11690 10250 11691 11521 11692 11693 
1400 1401 1626 1625 1425 1426 1651 1650 10085 11525 11526 11527 10256 11696 11697 11698 10254 10253 11694 11695 11701 11699 10259 11700 11531 11702 11703 
1401 1402 1627 1626 1426 1427 1652 1651 10094 11534 11535 11525 10265 11705 11706 11696 10253 10263 11704 11694 11699 11707 10267 11708 11538 11709 11710 
1402 1403 1628 1627 1427 1428 1653 1652 10101 11541 11542 11534 10272 11712 11713 11705 10263 10270 11711 11704 11707 11714 10274 11715 11545 11716 11717 
1403 1404 1629 1628 1428 1429 1654 1653 10108 11548 11549 11541 10279 11719 11720 11712 10270 10277 11718 11711 11714 11721 10281 11722 11552 11723 11724 
1404 1405 1630 1629 1429 1430 1655 1654 10115 11555 11556 11548 10286 11726 11727 11719 10277 10284 11725 11718 11721 11728 10288 11729 11559 11730 11731 
1405 1406 1631 1630 1430 1431 1656 1655 10122 11562 11563 11555 10293 11733 11734 11726 10284 10291 11732 11725 11728 11735 10295 11736 11566 11737 11738 
1406 1407 1632 1631 1431 1432 1657 1656 10129 11569 11570 11562 10300 11740 11741 11733 10291 10298 11739 11732 11735 11742 10302 11743 11573 11744 11745 
1407 1408 1633 1632 1432 1433 1658 1657 10136 11576 11577 11569 10307 11747 11748 11740 10298 10305 11746 11739 11742 11749 10309 11750 11580 11751 11752 
1408 1409 1634 1633 1433 1434 1659 1658 10143 11583 11584 11576 10314 11754 11755 11747 10305 10312 11753 11746 11749 11756 10316 11757 11587 11758 11759 
1409 1410 1635 1634 1434 1435 1660 1659 10150 11590 11591 11583 10321 11761 11762 11754 10312 10319 11760 11753 11756 11763 10323 11764 11594 11765 11766 
1410 1411 1636 1635 1435 1436 1661 1660 10157 11597 11598 11590 10328 11768 11769 11761 10319 10326 11767 11760 11763 11770 10330 11771 11601 11772 11773 
1411 1412 1637 1636 1436 1437 1662 1661 10164 11604 11605 11597 10335 11775 11776 11768 10326 10333 11774 11767 11770 11777 10337 11778 11608 11779 11780 
1412 1413 1638 1637 1437 1438 1663 1662 10171 11611 11612 11604 10342 11782 11783 11775 10333 10340 11781 11774 11777 11784 10344 11785 11615 11786 11787 
1413 1414 1639 1638 1438 1439 1664 1663 10178 11618 11619 11611 10349 11789 11790 11782 10340 10347 11788 11781 11784 11791 10351 11792 11622 11793 11794 
1414 1415 1640 1639 1439 1440 1665 1664 10185 11625 11626 11618 10356 11796 11797 11789 10347 10354 11795 11788 11791 11798 10358 11799 11629 11800 11801 
1415 1416 1641 1640 1440 1441 1666 1665 10192 11632 11633 11625 10363 11803 11804 11796 10354 10361 11802 11795 11798 11805 10365 11806 11636 11807 11808 
1416 1417 1642 1641 1441 1442 1667 1666 10199 11639 11640 11632 10370 11810 11811 11803 10361 10368 11809 11802 11805 11812 10372 11813 11643 11814 11815 
1417 1418 1643 1642 1442 1443 1668 1667 10206 11646 11647 11639 10377 11817 11818 11810 10368 10375 11816 11809 11812 11819 10379 11820 11650 11821 11822 
1418 1419 1644 1643 1443 1444 1669 1668 10213 11653 11654 11646 10384 11824 11825 11817 10375 10382 11823 11816 11819 11826 10386 11827 11657 11828 11829 
1419 1420 1645 1644 1444 1445 1670 1669 10220 11660 11661 11653 10391 11831 11832 11824 10382 10389 11830 11823 11826 11833 10393 11834 11664 11835 11836 
1420 1421 1646 1645 1445 1446 1671 1670 10227 11667 11668 11660 10398 11838 11839 11831 10389 10396 11837 11830 11833 11840 10400 11841 11671 11842 11843 
1421 1422 1647 1646 1446 1447 1672 1671 10234 11674 11675 11667 10405 11845 11846 11838 10396 10403 11844 11837 11840 11847 10407 11848 11678 11849 11850 
1422 1423 1648 1647 1447 1448 1673 1672 10241 11681 11682 11674 10412 11852 11853 11845 10403 10410 11851 11844 11847 11854 10414 11855 11685 11856 11857 
1423 1424 1649 1648 1448 1449 1674 1673 10248 11688 11689 11681 10419 11859 11860 11852 10410 10417 11858 11851 11854 11861 10421 11862 11692 11863 11864 
1425 1426 1651 1650 1450 1451 1676 1675 10256 11696 11697 11698 10427 11867 11868 11869 10425 10424 11865 11866 11872 11870 10430 11871 11702 11873 11874 
1426 1427 1652 1651 1451 1452 1677 1676 10265 11705 11706 11696 10436 11876 11877 11867 10424 10434 11875 11865 11870 11878 10438 11879 11709 11880 11881 
1427 1428 1653 1652 1452 1453 1678 1677 10272 11712 11713 11705 10443 11883 11884 11876 10434 10441 11882 11875 11878 11885 10445 11886 11716 11887 11888 
1428 1429 1654 1653 1453 1454 1679 1678 10279 11719 11720 11712 10450 11890 11891 11883 10441 10448 11889 11882 11885 11892 10452 11893 11723 11894 11895 
1429 1430 1655 1654 1454 1455 1680 1679 10286 11726 11727 11719 10457 11897 11898 11890 10448 10455 11896 11889 11892 11899 10459 11900 11730 11901 11902 
1430 1431 1656 1655 1455 1456 1681 1680 10293 11733 11734 11726 10464 11904 11905 11897 10455 10462 11903 11896 11899 11906 10466 11907 11737 11908 11909 
1431 1432 1657 1656 1456 1457 1682 1681 10300 11740 11741 11733 10471 11911 11912 11904 10462 10469 11910 11903 11906 11913 10473 11914 11744 11915 11916 
1432 1433 1658 1657 1457 1458 1683 1682 10307 11747 11748 11740 10478 11918 11919 11911 10469 10476 11917 11910 11913 11920 10480 11921 11751 11922 11923 
1433 1434 1659 1658 1458 1459 1684 1683 10314 11754 11755 11747 10485 11925 11926 11918 10476 10483 11924 11917 11920 11927 10487 11928 11758 11929 11930 
1434 1435 1660 1659 1459 1460 1685 1684 10321 11761 11762 11754 10492 11932 11933 11925 10483 10490 11931 11924 11927 11934 10494 11935 11765 11936 11937 
1435 1436 1661 1660 1460 1461 1686 1685 10328 11768 11769 11761 10499 11939 11940 11932 10490 10497 11938 11931 11934 11941 10501 11942 11772 11943 11944 
1436 1437 1662 1661 1461 1462 1687 1686 10335 11775 11776 11768 10506 11946 11947 11939 10497 10504 11945 11938 11941 11948 10508 11949 11779 11950 11951 
1437 1438 1663 1662 1462 1463 1688 1687 10342 11782 11783 11775 10513 11953 11954 11946 10504 10511 11952 11945 11948 11955 10515 11956 11786 11957 11958 
1438 1439 1664 1663 1463 1464 1689 1688 10349 11789 11790 11782 10520 11960 11961 11953 10511 10518 11959 11952 11955 11962 10522 11963 11793 11964 11965 
1439 1440 1665 1664 1464 1465 1690 1689 10356 11796 11797 11789 10527 11967 11968 11960 10518 10525 11966 11959 11962 11969 10529 11970 11800 11971 11972 
1440 1441 1666 1665 1465 1466 1691 1690 10363 11803 11804 11796 10534 11974 11975 11967 10525 10532 11973 11966 11969 11976 10536 11977 11807 11978 11979 
1441 1442 1667 1666 1466 1467 1692 1691 10370 11810 11811 11803 10541 11981 11982 11974 10532 10539 11980 11973 11976 11983 10543 11984 11814 11985 11986 
1442 1443 1668 1667 1467 1468 1693 1692 10377 11817 11818 11810 10548 11988 11989 11981 10539 10546 11987 11980 11983 11990 10550 11991 11821 11992 11993 
1443 1444 1669 1668 1468 1469 1694 1693 10384 11824 11825 11817 10555 11995 11996 11988 10546 10553 11994 11987 11990 11997 10557 11998 11828 11999 12000 
1444 1445 1670 1669 1469 1470 1695 1694 10391 11831 11832 11824 10562 12002 12003 11995 10553 10560 12001 11994 11997 12004 10564 12005 11835 12006 12007 
1445 1446 1671 1670 1470 1471 1696 1695 10398 11838 11839 11831 10569 12009 12010 12002 10560 10567 12008 12001 12004 12011 10571 12012 11842 12013 12014 
1446 1447 1672 1671 1471 1472 1697 1696 10405 11845 11846 11838 10576 12016 12017 12009 10567 10574 12015 12008 12011 12018 10578 12019 11849 12020 12021 
1447 1448 1673 1672 1472 1473 1698 1697 10412 11852 11853 11845 10583 12023 12024 12016 10574 10581 12022 12015 12018 12025 10585 12026 11856 12027 12028 
1448 1449 1674 1673 1473 1474 1699 1698 10419 11859 11860 11852 10590 12030 12031 12023 10581 10588 12029 12022 12025 12032 10592 12033 11863 12034 12035 
1450 1451 1676 1675 1475 1476 1701 1700 10427 11867 11868 11869 10598 12038 12039 12040 10596 10595 12036 12037 12043 12041 10601 12042 11873 12044 12045 
1451 1452 1677 1676 1476 1477 1702 1701 10436 11876 11877 11867 10607 12047 12048 12038 10595 10605 12046 12036 12041 12049 10609 12050 11880 12051 12052 
1452 1453 1678 1677 1477 1478 1703 1702 10443 11883 11884 11876 10614 12054 12055 12047 10605 10612 12053 12046 12049 12056 10616 12057 11887 12058 12059 
1453 1454 1679 1678 1478 1479 1704 1703 10450 11890 11891 11883 10621 12061 12062 12054 10612 10619 12060 12053 12056 12063 10623 12064 11894 12065 12066 
1454 1455 1680 1679 1479 1480 1705 1704 10457 11897 11898 11890 10628 12068 12069 12061 10619 10626 12067 12060 12063 12070 10630 12071 11901 12072 12073 
1455 1456 1681 1680 1480 1481 1706 1705 10464 11904 11905 11897 10635 12075 12076 12068 10626 10633 12074 12067 12070 12077 10637 12078 11908 12079 12080 
1456 1457 1682 1681 1481 1482 1707 1706 10471 11911 11912 11904 10642 12082 12083 12075 10633 10640 12081 12074 12077 12084 10644 12085 11915 12086 12087 
1457 1458 1683 1682 1482 1483 1708 1707 10478 11918 11919 11911 10649 12089 12090 12082 10640 10647 12088 12081 12084 12091 10651 12092 11922 12093 12094 
1458 1459 1684 1683 1483 1484 1709 1708 10485 11925 11926 11918 10656 12096 12097 12089 10647 10654 12095 12088 12091 12098 10658 12099 11929 12100 12101 
1459 1460 1685 1684 1484 1485 1710 1709 10492 11932 11933 11925 10663 12103 12104 12096 10654 10661 12102 12095 12098 12105 10665 12106 11936 12107 12108 
1460 1461 1686 1685 1485 1486 1711 1710 10499 11939 11940 11932 10670 12110 12111 12103 10661 10668 12109 12102 12105 12112 10672 12113 11943 12114 12115 
1461 1462 1687 1686 1486 1487 1712 1711 10506 11946 11947 11939 10677 12117 12118 12110 10668 10675 12116 12109 12112 12119 10679 12120 11950 12121 12122 
1462 1463 1688 1687 1487 1488 1713 1712 10513 11953 11954 11946 10684 12124 12125 12117 10675 10682 12123 12116 12119 12126 10686 12127 11957 12128 12129 
1463 1464 1689 1688 1488 1489 1714 1713 10520 11960 11961 11953 10691 12131 12132 12124 10682 10689 12130 12123 12126 12133 10693 12134 11964 12135 12136 
1464 1465 1690 1689 1489 1490 1715 1714 10527 11967 11968 11960 10698 12138 12139 12131 10689 10696 12137 12130 12133 12140 10700 12141 11971 12142 12143 
1465 1466 1691 1690 1490 1491 1716 1715 10534 11974 11975 11967 10705 12145 12146 12138 10696 10703 12144 12137 12140 12147 10707 12148 11978 12149 12150 
1466 1467 1692 1691 1491 1492 1717 1716 10541 11981 11982 11974 10712 12152 12153 12145 10703 10710 12151 12144 12147 12154 10714 12155 11985 12156 12157 
1467 1468 1693 1692 1492 1493 1718 1717 10548 11988 11989 11981 10719 12159 12160 12152 10710 10717 12158 12151 12154 12161 10721 12162 11992 12163 12164 
1468 1469 1694 1693 1493 1494 1719 1718 10555 11995 11996 11988 10726 12166 12167 12159 10717 10724 12165 12158 12161 12168 10728 12169 11999 12170 12171 
1469 1470 1695 1694 1494 1495 1720 1719 10562 12002 12003 11995 10733 12173 12174 12166 10724 10731 12172 12165 12168 12175 10735 12176 12006 12177 12178 
1470 1471 1696 1695 1495 1496 1721 1720 10569 12009 12010 12002 10740 12180 12181 12173 10731 10738 12179 12172 12175 12182 10742 12183 12013 12184 12185 
1471 1472 1697 1696 1496 1497 1722 1721 10576 12016 12017 12009 10747 12187 12188 12180 10738 10745 12186 12179 12182 12189 10749 12190 12020 12191 12192 
1472 1473 1698 1697 1497 1498 1723 1722 10583 12023 12024 12016 10754 12194 12195 12187 10745 10752 12193 12186 12189 12196 10756 12197 12027 12198 12199 
1473 1474 1699 1698 1498 1499 1724 1723 10590 12030 12031 12023 10761 12201 12202 12194 10752 10759 12200 12193 12196 12203 10763 12204 12034 12205 12206 
1475 1476 1701 1700 1500 1501 1726 1725 10598 12038 12039 12040 10769 12209 12210 12211 10767 10766 12207 12208 12214 12212 10772 12213 12044 12215 12216 
1476 1477 1702 1701 1501 1502 1727 1726 10607 12047 12048 12038 10778 12218 12219 12209 10766 10776 12217 12207 12212 12220 10780 12221 12051 12222 12223 
1477 1478 1703 1702 1502 1503 1728 1727 10614 12054 12055 12047 10785 12225 12226 12218 10776 10783 12224 12217 12220 12227 10787 12228 12058 12229 12230 
1478 1479 1704 1703 1503 1504 1729 1728 10621 12061 12062 12054 10792 12232 12233 12225 10783 10790 12231 12224 12227 12234 10794 12235 12065 12236 12237 
1479 1480 1705 1704 1504 1505 1730 1729 10628 12068 12069 12061 10799 12239 12240 12232 10790 10797 12238 12231 12234 12241 10801 12242 12072 12243 12244 
1480 1481 1706 1705 1505 1506 1731 1730 10635 12075 12076 12068 10806 12246 12247 12239 10797 10804 12245 12238 12241 12248 10808 12249 12079 12250 12251 
1481 1482 1707 1706 1506 1507 1732 1731 10642 12082 12083 12075 10813 12253 12254 12246 10804 10811 12252 12245 12248 12255 10815 12256 12086 12257 12258 
1482 1483 1708 1707 1507 1508 1733 1732 10649 12089 12090 12082 10820 12260 12261 12253 10811 10818 12259 12252 12255 12262 10822 12263 12093 12264 12265 
1483 1484 1709 1708 1508 1509 1734 1733 10656 12096 12097 12089 10827 12267 12268 12260 10818 10825 12266 12259 12262 12269 10829 12270 12100 12271 12272 
1484 1485 1710 1709 1509 1510 1735 1734 10663 12103 12104 12096 10834 12274 12275 12267 10825 10832 12273 12266 12269 12276 10836 12277 12107 12278 12279 
1485 1486 1711 1710 1510 1511 1736 1735 10670 12110 12111 12103 10841 12281 12282 12274 10832 10839 12280 12273 12276 12283 10843 12284 12114 12285 12286 
1486 1487 1712 1711 1511 1512 1737 1736 10677 12117 12118 12110 10848 12288 12289 12281 10839 10846 12287 12280 12283 12290 10850 12291 12121 12292 12293 
1487 1488 1713 1712 1512 1513 1738 1737 10684 12124 12125 12117 10855 12295 12296 12288 10846 10853 12294 12287 12290 12297 10857 12298 12128 12299 12300 
1488 1489 1714 1713 1513 1514 1739 1738 10691 12131 12132 12124 10862 12302 12303 12295 10853 10860 12301 12294 12297 12304 10864 12305 12135 12306 12307 
1489 1490 1715 1714 1514 1515 1740 1739 10698 12138 12139 12131 10869 12309 12310 12302 10860 10867 12308 12301 12304 12311 10871 12312 12142 12313 12314 
1490 1491 1716 1715 1515 1516 1741 1740 10705 12145 12146 12138 10876 12316 12317 12309 10867 10874 12315 12308 12311 12318 10878 12319 12149 12320 12321 
1491 1492 1717 1716 1516 1517 1742 1741 10712 12152 12153 12145 10883 12323 12324 12316 10874 10881 12322 12315 12318 12325 10885 12326 12156 12327 12328 
1492 1493 1718 1717 1517 1518 1743 1742 10719 12159 12160 12152 10890 12330 12331 12323 10881 10888 12329 12322 12325 12332 10892 12333 12163 12334 12335 
1493 1494 1719 1718 1518 1519 1744 1743 10726 12166 12167 12159 10897 12337 12338 12330 10888 10895 12336 12329 12332 12339 10899 12340 12170 12341 12342 
1494 1495 1720 1719 1519 1520 1745 1744 10733 12173 12174 12166 10904 12344 12345 12337 10895 10902 12343 12336 12339 12346 10906 12347 12177 12348 12349 
1495 1496 1721 1720 1520 1521 1746 1745 10740 12180 12181 12173 10911 12351 12352 12344 10902 10909 12350 12343 12346 12353 10913 12354 12184 12355 12356 
1496 1497 1722 1721 1521 1522 1747 1746 10747 12187 12188 12180 10918 12358 12359 12351 10909 10916 12357 12350 12353 12360 10920 12361 12191 12362 12363 
1497 1498 1723 1722 1522 1523 1748 1747 10754 12194 12195 12187 10925 12365 12366 12358 10916 10923 12364 12357 12360 12367 10927 12368 12198 12369 12370 
1498 1499 1724 1723 1523 1524 1749 1748 10761 12201 12202 12194 10932 12372 12373 12365 10923 10930 12371 12364 12367 12374 10934 12375 12205 12376 12377 
1500 1501 1726 1725 1525 1526 1751 1750 10769 12209 12210 12211 10940 12380 12381 12382 10938 10937 12378 12379 12385 12383 10943 12384 12215 12386 12387 
1501 1502 1727 1726 1526 1527 1752 1751 10778 12218 12219 12209 10949 12389 12390 12380 10937 10947 12388 12378 12383 12391 10951 12392 12222 12393 12394 
1502 1503 1728 1727 1527 1528 1753 1752 10785 12225 12226 12218 10956 12396 12397 12389 10947 10954 12395 12388 12391 12398 10958 12399 12229 12400 12401 
1503 1504 1729 1728 1528 1529 1754 1753 10792 12232 12233 12225 10963 12403 12404 12396 10954 10961 12402 12395 12398 12405 10965 12406 12236 12407 12408 
1504 1505 1730 1729 1529 1530 1755 1754 10799 12239 12240 12232 10970 12410 12411 12403 10961 10968 12409 12402 12405 12412 10972 12413 12243 12414 12415 
1505 1506 1731 1730 1530 1531 1756 1755 10806 12246 12247 12239 10977 12417 12418 12410 10968 10975 12416 12409 12412 12419 10979 12420 12250 12421 12422 
1506 1507 1732 1731 1531 1532 1757 1756 10813 12253 12254 12246 10984 12424 12425 12417 10975 10982 12423 12416 12419 12426 10986 12427 12257 12428 12429 
1507 1508 1733 1732 1532 1533 1758 1757 10820 12260 12261 12253 10991 12431 12432 12424 10982 10989 12430 12423 12426 12433 10993 12434 12264 12435 12436 
1508 1509 1734 1733 1533 1534 1759 1758 10827 12267 12268 12260 10998 12438 12439 12431 10989 10996 12437 12430 12433 12440 11000 12441 12271 12442 12443 
1509 1510 1735 1734 1534 1535 1760 1759 10834 12274 12275 12267 11005 12445 12446 12438 10996 11003 12444 12437 12440 12447 11007 12448 12278 12449 12450 
1510 1511 1736 1735 1535 1536 1761 1760 10841 12281 12282 12274 11012 12452 12453 12445 11003 11010 12451 12444 12447 12454 11014 12455 12285 12456 12457 
1511 1512 1737 1736 1536 1537 1762 1761 10848 12288 12289 12281 11019 12459 12460 12452 11010 11017 12458 12451 12454 12461 11021 12462 12292 12463 12464 
1512 1513 1738 1737 1537 1538 1763 1762 10855 12295 12296 12288 11026 12466 12467 12459 11017 11024 12465 12458 12461 12468 11028 12469 12299 12470 12471 
1513 1514 1739 1738 1538 1539 1764 1763 10862 12302 12303 12295 11033 12473 12474 12466 11024 11031 12472 12465 12468 12475 11035 12476 12306 12477 12478 
1514 1515 1740 1739 1539 1540 1765 1764 10869 12309 12310 12302 11040 12480 12481 12473 11031 11038 12479 12472 12475 12482 11042 12483 12313 12484 12485 
1515 1516 1741 1740 1540 1541 1766 1765 10876 12316 12317 12309 11047 12487 12488 12480 11038 11045 12486 12479 12482 12489 11049 12490 12320 12491 12492 
1516 1517 1742 1741 1541 1542 1767 1766 10883 12323 12324 12316 11054 12494 12495 12487 11045 11052 12493 12486 12489 12496 11056 12497 12327 12498 12499 
1517 1518 1743 1742 1542 1543 1768 1767 10890 12330 12331 12323 11061 12501 12502 12494 11052 11059 12500 12493 12496 12503 11063 12504 12334 12505 12506 
1518 1519 1744 1743 1543 1544 1769 1768 10897 12337 12338 12330 11068 12508 12509 12501 11059 11066 12507 12500 12503 12510 11070 12511 12341 12512 12513 
1519 1520 1745 1744 1544 1545 1770 1769 10904 12344 12345 12337 11075 12515 12516 12508 11066 11073 12514 12507 12510 12517 11077 12518 12348 12519 12520 
1520 1521 1746 1745 1545 1546 1771 1770 10911 12351 12352 12344 11082 12522 12523 12515 11073 11080 12521 12514 12517 12524 11084 12525 12355 12526 12527 
1521 1522 1747 1746 1546 1547 1772 1771 10918 12358 12359 12351 11089 12529 12530 12522 11080 11087 12528 12521 12524 12531 11091 12532 12362 12533 12534 
1522 1523 1748 1747 1547 1548 1773 1772 10925 12365 12366 12358 11096 12536 12537 12529 11087 11094 12535 12528 12531 12538 11098 12539 12369 12540 12541 
1523 1524 1749 1748 1548 1549 1774 1773 10932 12372 12373 12365 11103 12543 12544 12536 11094 11101 12542 12535 12538 12545 11105 12546 12376 12547 12548 
1525 1526 1751 1750 1550 1551 1776 1775 10940 12380 12381 12382 11111 12551 12552 12553 11109 11108 12549 12550 12556 12554 11114 12555 12386 12557 12558 
1526 1527 1752 1751 1551 1552 1777 1776 10949 12389 12390 12380 11120 12560 12561 12551 11108 11118 12559 12549 12554 12562 11122 12563 12393 12564 12565 
1527 1528 1753 1752 1552 1553 1778 1777 10956 12396 12397 12389 11127 12567 12568 12560 11118 11125 12566 12559 12562 12569 11129 12570 12400 12571 12572 
1528 1529 1754 1753 1553 1554 1779 1778 10963 12403 12404 12396 11134 12574 12575 12567 11125 11132 12573 12566 12569 12576 11136 12577 12407 12578 12579 
1529 1530 1755 1754 1554 1555 1780 1779 10970 12410 12411 12403 11141 12581 12582 12574 11132 11139 12580 12573 12576 12583 11143 12584 12414 12585 12586 
1530 1531 1756 1755 1555 1556 1781 1780 10977 12417 12418 12410 11148 12588 12589 12581 11139 11146 12587 12580 12583 12590 11150 12591 12421 12592 12593 
1531 1532 1757 1756 1556 1557 1782 1781 10984 12424 12425 12417 11155 12595 12596 12588 11146 11153 12594 12587 12590 12597 11157 12598 12428 12599 12600 
1532 1533 1758 1757 1557 1558 1783 1782 10991 12431 12432 12424 11162 12602 12603 12595 11153 11160 12601 12594 12597 12604 11164 12605 12435 12606 12607 
1533 1534 1759 1758 1558 1559 1784 1783 10998 12438 12439 12431 11169 12609 12610 12602 11160 11167 12608 12601 12604 12611 11171 12612 12442 12613 12614 
1534 1535 1760 1759 1559 1560 1785 1784 11005 12445 12446 12438 11176 12616 12617 12609 11167 11174 12615 12608 12611 12618 11178 12619 12449 12620 12621 
1535 1536 1761 1760 1560 1561 1786 1785 11012 12452 12453 12445 11183 12623 12624 12616 11174 11181 12622 12615 12618 12625 11185 12626 12456 12627 12628 
1536 1537 1762 1761 1561 1562 1787 1786 11019 12459 12460 12452 11190 12630 12631 12623 11181 11188 12629 12622 12625 12632 11192 12633 12463 12634 12635 
1537 1538 1763 1762 1562 1563 1788 1787 11026 12466 12467 12459 11197 12637 12638 12630 11188 11195 12636 12629 12632 12639 11199 12640 12470 12641 12642 
1538 1539 1764 1763 1563 1564 1789 1788 11033 12473 12474 12466 11204 12644 12645 12637 11195 11202 12643 12636 12639 12646 11206 12647 12477 12648 12649 
1539 1540 1765 1764 1564 1565 1790 1789 11040 12480 12481 12473 11211 12651 12652 12644 11202 11209 12650 12643 12646 12653 11213 12654 12484 12655 12656 
1540 1541 1766 1765 1565 1566 1791 1790 11047 12487 12488 12480 11218 12658 12659 12651 11209 11216 12657 12650 12653 12660 11220 12661 12491 12662 12663 
1541 1542 1767 1766 1566 1567 1792 1791 11054 12494 12495 12487 11225 12665 12666 12658 11216 11223 12664 12657 12660 12667 11227 12668 12498 12669 12670 
1542 1543 1768 1767 1567 1568 1793 1792 11061 12501 12502 12494 11232 12672 12673 12665 11223 11230 12671 12664 12667 12674 11234 12675 12505 12676 12677 
1543 1544 1769 1768 1568 1569 1794 1793 11068 12508 12509 12501 11239 12679 12680 12672 11230 11237 12678 12671 12674 12681 11241 12682 12512 12683 12684 
1544 1545 1770 1769 1569 1570 1795 1794 11075 12515 12516 12508 11246 12686 12687 12679 11237 11244 12685 12678 12681 12688 11248 12689 12519 12690 12691 
1545 1546 1771 1770 1570 1571 1796 1795 11082 12522 12523 12515 11253 12693 12694 12686 11244 11251 12692 12685 12688 12695 11255 12696 12526 12697 12698 
1546 1547 1772 1771 1571 1572 1797 1796 11089 12529 12530 12522 11260 12700 12701 12693 11251 11258 12699 12692 12695 12702 11262 12703 12533 12704 12705 
1547 1548 1773 1772 1572 1573 1798 1797 11096 12536 12537 12529 11267 12707 12708 12700 11258 11265 12706 12699 12702 12709 11269 12710 12540 12711 12712 
1548 1549 1774 1773 1573 1574 1799 1798 11103 12543 12544 12536 11274 12714 12715 12707 11265 11272 12713 12706 12709 12716 11276 12717 12547 12718 12719 
1575 1576 1801 1800 1600 1601 1826 1825 11280 12720 12721 12722 11285 12725 12726 12727 11283 11282 12723 12724 12731 12729 11289 12730 12728 12732 12733 
1576 1577 1802 1801 1601 1602 1827 1826 11294 12734 12735 12720 11297 12737 12738 12725 11282 11295 12736 12723 12729 12740 11300 12741 12739 12742 12743 
1577 1578 1803 1802 1602 1603 1828 1827 11304 12744 12745 12734 11307 12747 12748 12737 11295 11305 12746 12736 12740 12750 11310 12751 12749 12752 12753 
1578 1579 1804 1803 1603 1604 1829 1828 11314 12754 12755 12744 11317 12757 12758 12747 11305 11315 12756 12746 12750 12760 11320 12761 12759 12762 12763 
1579 1580 1805 1804 1604 1605 1830 1829 11324 12764 12765 12754 11327 12767 12768 12757 11315 11325 12766 12756 12760 12770 11330 12771 12769 12772 12773 
1580 1581 1806 1805 1605 1606 1831 1830 11334 12774 12775 12764 11337 12777 12778 12767 11325 11335 12776 12766 12770 12780 11340 12781 12779 12782 12783 
1581 1582 1807 1806 1606 1607 1832 1831 11344 12784 12785 12774 11347 12787 12788 12777 11335 11345 12786 12776 12780 12790 11350 12791 12789 12792 12793 
1582 1583 1808 1807 1607 1608 1833 1832 11354 12794 12795 12784 11357 12797 12798 12787 11345 11355 12796 12786 12790 12800 11360 12801 12799 12802 12803 
1583 1584 1809 1808 1608 1609 1834 1833 11364 12804 12805 12794 11367 12807 12808 12797 11355 11365 12806 12796 12800 12810 11370 12811 12809 12812 12813 
1584 1585 1810 1809 1609 1610 1835 1834 11374 12814 12815 12804 11377 12817 12818 12807 11365 11375 12816 12806 12810 12820 11380 12821 12819 12822 12823 
1585 1586 1811 1810 1610 1611 1836 1835 11384 12824 12825 12814 11387 12827 12828 12817 11375 11385 12826 12816 12820 12830 11390 12831 12829 12832 12833 
1586 1587 1812 1811 1611 1612 1837 1836 11394 12834 12835 12824 11397 12837 12838 12827 11385 11395 12836 12826 12830 12840 11400 12841 12839 12842 12843 
1587 1588 1813 1812 1612 1613 1838 1837 11404 12844 12845 12834 11407 12847 12848 12837 11395 11405 12846 12836 12840 12850 11410 12851 12849 12852 12853 
1588 1589 1814 1813 1613 1614 1839 1838 11414 12854 12855 12844 11417 12857 12858 12847 11405 11415 12856 12846 12850 12860 11420 12861 12859 12862 12863 
1589 1590 1815 1814 1614 1615 1840 1839 11424 12864 12865 12854 11427 12867 12868 12857 11415 11425 12866 12856 12860 12870 11430 12871 12869 12872 12873 
1590 1591 1816 1815 1615 1616 1841 1840 11434 12874 12875 12864 11437 12877 12878 12867 11425 11435 12876 12866 12870 12880 11440 12881 12879 12882 12883 
1591 1592 1817 1816 1616 1617 1842 1841 11444 12884 12885 12874 11447 12887 12888 12877 11435 11445 12886 12876 12880 12890 11450 12891 12889 12892 12893 
1592 1593 1818 1817 1617 1618 1843 1842 11454 12894 12895 12884 11457 12897 12898 12887 11445 11455 12896 12886 12890 12900 11460 12901 12899 12902 12903 
1593 1594 1819 1818 1618 1619 1844 1843 11464 12904 12905 12894 11467 12907 12908 12897 11455 11465 12906 12896 12900 12910 11470 12911 12909 12912 12913 
1594 1595 1820 1819 1619 1620 1845 1844 11474 12914 12915 12904 11477 12917 12918 12907 11465 11475 12916 12906 12910 12920 11480 12921 12919 12922 12923 
1595 1596 1821 1820 1620 1621 1846 1845 11484 12924 12925 12914 11487 12927 12928 12917 11475 11485 12926 12916 12920 12930 11490 12931 12929 12932 12933 
1596 1597 1822 1821 1621 1622 1847 1846 11494 12934 12935 12924 11497 12937 12938 12927 11485 11495 12936 12926 12930 12940 11500 12941 12939 12942 12943 
1597 1598 1823 1822 1622 1623 1848 1847 11504 12944 12945 12934 11507 12947 12948 12937 11495 11505 12946 12936 12940 12950 11510 12951 12949 12952 12953 
1598 1599 1824 1823 1623 1624 1849 1848 11514 12954 12955 12944 11517 12957 12958 12947 11505 11515 12956 12946 12950 12960 11520 12961 12959 12962 12963 
1600 1601 1826 1825 1625 1626 1851 1850 11285 12725 12726 12727 11526 12966 12967 12968 11524 11523 12964 12965 12971 12969 11529 12970 12732 12972 12973 
1601 1602 1827 1826 1626 1627 1852 1851 11297 12737 12738 12725 11535 12975 12976 12966 11523 11533 12974 12964 12969 12977 11537 12978 12742 12979 12980 
1602 1603 1828 1827 1627 1628 1853 1852 11307 12747 12748 12737 11542 12982 12983 12975 11533 11540 12981 12974 12977 12984 11544 12985 12752 12986 12987 
1603 1604 1829 1828 1628 1629 1854 1853 11317 12757 12758 12747 11549 12989 12990 12982 11540 11547 12988 12981 12984 12991 11551 12992 12762 12993 12994 
1604 1605 1830 1829 1629 1630 1855 1854 11327 12767 12768 12757 11556 12996 12997 12989 11547 11554 12995 12988 12991 12998 11558 12999 12772 13000 13001 
1605 1606 1831 1830 1630 1631 1856 1855 11337 12777 12778 12767 11563 13003 13004 12996 11554 11561 13002 12995 12998 13005 11565 13006 12782 13007 13008 
1606 1607 1832 1831 1631 1632 1857 1856 11347 12787 12788 12777 11570 13010 13011 13003 11561 11568 13009 13002 13005 13012 11572 13013 12792 13014 13015 
1607 1608 1833 1832 1632 1633 1858 1857 11357 12797 12798 12787 11577 13017 13018 13010 11568 11575 13016 13009 13012 13019 11579 13020 12802 13021 13022 
1608 1609 1834 1833 1633 1634 1859 1858 11367 12807 12808 12797 11584 13024 13025 13017 11575 11582 13023 13016 13019 13026 11586 13027 12812 13028 13029 
1609 1610 1835 1834 1634 1635 1860 1859 11377 12817 12818 12807 11591 13031 13032 13024 11582 11589 13030 13023 13026 13033 11593 13034 12822 13035 13036 
1610 1611 1836 1835 1635 1636 1861 1860 11387 12827 12828 12817 11598 13038 13039 13031 11589 11596 13037 13030 13033 13040 11600 13041 12832 13042 13043 
1611 1612 1837 1836 1636 1637 1862 1861 11397 12837 12838 12827 11605 13045 13046 13038 11596 11603 13044 13037 13040 13047 11607 13048 12842 13049 13050 
1612 1613 1838 1837 1637 1638 1863 1862 11407 12847 12848 12837 11612 13052 13053 13045 11603 11610 13051 13044 13047 13054 11614 13055 12852 13056 13057 
1613 1614 1839 1838 1638 1639 1864 1863 11417 12857 12858 12847 11619 13059 13060 13052 11610 11617 13058 13051 13054 13061 11621 13062 12862 13063 13064 
1614 1615 1840 1839 1639 1640 1865 1864 11427 12867 12868 12857 11626 13066 13067 13059 11617 11624 13065 13058 13061 13068 11628 13069 12872 13070 13071 
1615 1616 1841 1840 1640 1641 1866 1865 11437 12877 12878 12867 11633 13073 13074 13066 11624 11631 13072 13065 13068 13075 11635 13076 12882 13077 13078 
1616 1617 1842 1841 1641 1642 1867 1866 11447 12887 12888 12877 11640 13080 13081 13073 11631 11638 13079 13072 13075 13082 11642 13083 12892 13084 13085 
1617 1618 1843 1842 1642 1643 1868 1867 11457 12897 12898 12887 11647 13087 13088 13080 11638 11645 13086 13079 13082 13089 11649 13090 12902 13091 13092 
1618 1619 1844 1843 1643 1644 1869 1868 11467 12907 12908 12897 11654 13094 13095 13087 11645 11652 13093 13086 13089 13096 11656 13097 12912 13098 13099 
1619 1620 1845 1844 1644 1645 1870 1869 11477 12917 12918 12907 11661 13101 13102 13094 11652 11659 13100 13093 13096 13103 11663 13104 12922 13105 13106 
1620 1621 1846 1845 1645 1646 1871 1870 11487 12927 12928 12917 11668 13108 13109 13101 11659 11666 13107 13100 13103 13110 11670 13111 12932 13112 13113 
1621 1622 1847 1846 1646 1647 1872 1871 11497 12937 12938 12927 11675 13115 13116 13108 11666 11673 13114 13107 13110 13117 11677 13118 12942 13119 13120 
1622 1623 1848 1847 1647 1648 1873 1872 11507 12947 12948 12937 11682 13122 13123 13115 11673 11680 13121 13114 13117 13124 11684 13125 12952 13126 13127 
1623 1624 1849 1848 1648 1649 1874 1873 11517 12957 12958 12947 11689 13129 13130 13122 11680 11687 13128 13121 13124 13131 11691 13132 12962 13133 13134 
1625 1626 1851 1850 1650 1651 1876 1875 11526 12966 12967 12968 11697 13137 13138 13139 11695 11694 13135 13136 13142 13140 11700 13141 12972 13143 13144 
1626 1627 1852 1851 1651 1652 1877 1876 11535 12975 12976 12966 11706 13146 13147 13137 11694 11704 13145 13135 13140 13148 11708 13149 12979 13150 13151 
1627 1628 1853 1852 1652 1653 1878 1877 11542 12982 12983 12975 11713 13153 13154 13146 11704 11711 13152 13145 13148 13155 11715 13156 12986 13157 13158 
1628 1629 1854 1853 1653 1654 1879 1878 11549 12989 12990 12982 11720 13160 13161 13153 11711 11718 13159 13152 13155 13162 11722 13163 12993 13164 13165 
1629 1630 1855 1854 1654 1655 1880 1879 11556 12996 12997 12989 11727 13167 13168 13160 11718 11725 13166 13159 13162 13169 11729 13170 13000 13171 13172 
1630 1631 1856 1855 1655 1656 1881 1880 11563 13003 13004 12996 11734 13174 13175 13167 11725 11732 13173 13166 13169 13176 11736 13177 13007 13178 13179 
1631 1632 1857 1856 1656 1657 1882 1881 11570 13010 13011 13003 11741 13181 13182 13174 11732 11739 13180 13173 13176 13183 11743 13184 13014 13185 13186 
1632 1633 1858 1857 1657 1658 1883 1882 11577 13017 13018 13010 11748 13188 13189 13181 11739 11746 13187 13180 13183 13190 11750 13191 13021 13192 13193 
1633 1634 1859 1858 1658 1659 1884 1883 11584 13024 13025 13017 11755 13195 13196 13188 11746 11753 13194 13187 13190 13197 11757 13198 13028 13199 13200 
1634 1635 1860 1859 1659 1660 1885 1884 11591 13031 13032 13024 11762 13202 13203 13195 11753 11760 13201 13194 13197 13204 11764 13205 13035 13206 13207 
1635 1636 1861 1860 1660 1661 1886 1885 11598 13038 13039 13031 11769 13209 13210 13202 11760 11767 13208 13201 13204 13211 11771 13212 13042 13213 13214 
1636 1637 1862 1861 1661 1662 1887 1886 11605 13045 13046 13038 11776 13216 13217 13209 11767 11774 13215 13208 13211 13218 11778 13219 13049 13220 13221 
1637 1638 1863 1862 1662 1663 1888 1887 11612 13052 13053 13045 11783 13223 13224 13216 11774 11781 13222 13215 13218 13225 11785 13226 13056 13227 13228 
1638 1639 1864 1863 1663 1664 1889 1888 11619 13059 13060 13052 11790 13230 13231 13223 11781 11788 13229 13222 13225 13232 11792 13233 13063 13234 13235 
1639 1640 1865 1864 1664 1665 1890 1889 11626 13066 13067 13059 11797 13237 13238 13230 11788 11795 13236 13229 13232 13239 11799 13240 13070 13241 13242 
1640 1641 1866 1865 1665 1666 1891 1890 11633 13073 13074 13066 11804 13244 13245 13237 11795 11802 13243 13236 13239 13246 11806 13247 13077 13248 13249 
1641 1642 1867 1866 1666 1667 1892 1891 11640 13080 13081 13073 11811 13251 13252 13244 11802 11809 13250 13243 13246 13253 11813 13254 13084 13255 13256 
1642 1643 1868 1867 1667 1668 1893 1892 11647 13087 13088 13080 11818 13258 13259 13251 11809 11816 13257 13250 13253 13260 11820 13261 13091 13262 13263 
1643 1644 1869 1868 1668 1669 1894 1893 11654 13094 13095 13087 11825 13265 13266 13258 11816 11823 13264 13257 13260 13267 11827 13268 13098 13269 13270 
1644 1645 1870 1869 1669 1670 1895 1894 11661 13101 13102 13094 11832 13272 13273 13265 11823 11830 13271 13264 13267 13274 11834 13275 13105 13276 13277 
1645 1646 1871 1870 1670 1671 1896 1895 11668 13108 13109 13101 11839 13279 13280 13272 11830 11837 13278 13271 13274 13281 11841 13282 13112 13283 13284 
1646 1647 1872 1871 1671 1672 1897 1896 11675 13115 13116 13108 11846 13286 13287 13279 11837 11844 13285 13278 13281 13288 11848 13289 13119 13290 13291 
1647 1648 1873 1872 1672 1673 1898 1897 11682 13122 13123 13115 11853 13293 13294 13286 11844 11851 13292 13285 13288 13295 11855 13296 13126 13297 13298 
1648 1649 1874 1873 1673 1674 1899 1898 11689 13129 13130 13122 11860 13300 13301 13293 11851 11858 13299 13292 13295 13302 11862 13303 13133 13304 13305 
1650 1651 1876 1875 1675 1676 1901 1900 11697 13137 13138 13139 11868 13308 13309 13310 11866 11865 13306 13307 13313 13311 11871 13312 13143 13314 13315 
1651 1652 1877 1876 1676 1677 1902 1901 11706 13146 13147 13137 11877 13317 13318 13308 11865 11875 13316 13306 13311 13319 11879 13320 13150 13321 13322 
1652 1653 1878 1877 1677 1678 1903 1902 11713 13153 13154 13146 11884 13324 13325 13317 11875 11882 13323 13316 13319 13326 11886 13327 13157 13328 13329 
1653 1654 1879 1878 1678 1679 1904 1903 11720 13160 13161 13153 11891 13331 13332 13324 11882 11889 13330 13323 13326 13333 11893 13334 13164 13335 13336 
1654 1655 1880 1879 1679 1680 1905 1904 11727 13167 13168 13160 11898 13338 13339 13331 11889 11896 13337 13330 13333 13340 11900 13341 13171 13342 13343 
1655 1656 1881 1880 1680 1681 1906 1905 11734 13174 13175 13167 11905 13345 13346 13338 11896 11903 13344 13337 13340 13347 11907 13348 13178 13349 13350 
1656 1657 1882 1881 1681 1682 1907 1906 11741 13181 13182 13174 11912 13352 13353 13345 11903 11910 13351 13344 13347 13354 11914 13355 13185 13356 13357 
1657 1658 1883 1882 1682 1683 1908 1907 11748 13188 13189 13181 11919 13359 13360 13352 11910 11917 13358 13351 13354 13361 11921 13362 13192 13363 13364 
1658 1659 1884 1883 1683 1684 1909 1908 11755 13195 13196 13188 11926 13366 13367 13359 11917 11924 13365 13358 13361 13368 11928 13369 13199 13370 13371 
1659 1660 1885 1884 1684 1685 1910 1909 11762 13202 13203 13195 11933 13373 13374 13366 11924 11931 13372 13365 13368 13375 11935 13376 13206 13377 13378 
1660 1661 1886 1885 1685 1686 1911 1910 11769 13209 13210 13202 11940 13380 13381 13373 11931 11938 13379 13372 13375 13382 11942 13383 13213 13384 13385 
1661 1662 1887 1886 1686 1687 1912 1911 11776 13216 13217 13209 11947 13387 13388 13380 11938 11945 13386 13379 13382 13389 11949 13390 13220 13391 13392 
1662 1663 1888 1887 1687 1688 1913 1912 11783 13223 13224 13216 11954 13394 13395 13387 11945 11952 13393 13386 13389 13396 11956 13397 13227 13398 13399 
1663 1664 1889 1888 1688 1689 1914 1913 11790 13230 13231 13223 11961 13401 13402 13394 11952 11959 13400 13393 13396 13403 11963 13404 13234 13405 13406 
1664 1665 1890 1889 1689 1690 1915 1914 11797 13237 13238 13230 11968 13408 13409 13401 11959 11966 13407 13400 13403 13410 11970 13411 13241 13412 13413 
1665 1666 1891 1890 1690 1691 1916 1915 11804 13244 13245 13237 11975 13415 13416 13408 11966 11973 13414 13407 13410 13417 11977 13418 13248 13419 13420 
1666 1667 1892 1891 1691 1692 1917 1916 11811 13251 13252 13244 11982 13422 13423 13415 11973 11980 13421 13414 13417 13424 11984 13425 13255 13426 13427 
1667 1668 1893 1892 1692 1693 1918 1917 11818 13258 13259 13251 11989 13429 13430 13422 11980 11987 13428 13421 13424 13431 11991 13432 13262 13433 13434 
1668 1669 1894 1893 1693 1694 1919 1918 11825 13265 13266 13258 11996 13436 13437 13429 11987 11994 13435 13428 13431 13438 11998 13439 13269 13440 13441 
1669 1670 1895 1894 1694 1695 1920 1919 11832 13272 13273 13265 12003 13443 13444 13436 11994 12001 13442 13435 13438 13445 12005 13446 13276 13447 13448 
1670 1671 1896 1895 1695 1696 1921 1920 11839 13279 13280 13272 12010 13450 13451 13443 12001 12008 13449 13442 13445 13452 12012 13453 13283 13454 13455 
1671 1672 1897 1896 1696 1697 1922 1921 11846 13286 13287 13279 12017 13457 13458 13450 12008 12015 13456 13449 13452 13459 12019 13460 13290 13461 13462 
1672 1673 1898 1897 1697 1698 1923 1922 11853 13293 13294 13286 12024 13464 13465 13457 12015 12022 13463 13456 13459 13466 12026 13467 13297 13468 13469 
1673 1674 1899 1898 1698 1699 1924 1923 11860 13300 13301 13293 12031 13471 13472 13464 12022 12029 13470 13463 13466 13473 12033 13474 13304 13475 13476 
1675 1676 1901 1900 1700 1701 1926 1925 11868 13308 13309 13310 12039 13479 13480 13481 12037 12036 13477 13478 13484 13482 12042 13483 13314 13485 13486 
1676 1677 1902 1901 1701 1702 1927 1926 11877 13317 13318 13308 12048 13488 13489 13479 12036 12046 13487 13477 13482 13490 12050 13491 13321 13492 13493 
1677 1678 1903 1902 1702 1703 1928 1927 11884 13324 13325 13317 12055 13495 13496 13488 12046 12053 13494 13487 13490 13497 12057 13498 13328 13499 13500 
1678 1679 1904 1903 1703 1704 1929 1928 11891 13331 13332 13324 12062 13502 13503 13495 12053 12060 13501 13494 13497 13504 12064 13505 13335 13506 13507 
1679 1680 1905 1904 1704 1705 1930 1929 11898 13338 13339 13331 12069 13509 13510 13502 12060 12067 13508 13501 13504 13511 12071 13512 13342 13513 13514 
1680 1681 1906 1905 1705 1706 1931 1930 11905 13345 13346 13338 12076 13516 13517 13509 12067 12074 13515 13508 13511 13518 12078 13519 13349 13520 13521 
1681 1682 1907 1906 1706 1707 1932 1931 11912 13352 13353 13345 12083 13523 13524 13516 12074 12081 13522 13515 13518 13525 12085 13526 13356 13527 13528 
1682 1683 1908 1907 1707 1708 1933 1932 11919 13359 13360 13352 12090 13530 13531 13523 12081 12088 13529 13522 13525 13532 12092 13533 13363 13534 13535 
1683 1684 1909 1908 1708 1709 1934 1933 11926 13366 13367 13359 12097 13537 13538 13530 12088 12095 13536 13529 13532 13539 12099 13540 13370 13541 13542 
1684 1685 1910 1909 1709 1710 1935 1934 11933 13373 13374 13366 12104 13544 13545 13537 12095 12102 13543 13536 13539 13546 12106 13547 13377 13548 13549 
1685 1686 1911 1910 1710 1711 1936 1935 11940 13380 13381 13373 12111 13551 13552 13544 12102 12109 13550 13543 13546 13553 12113 13554 13384 13555 13556 
1686 1687 1912 1911 1711 1712 1937 1936 11947 13387 13388 13380 12118 13558 13559 13551 12109 12116 13557 13550 13553 13560 12120 13561 13391 13562 13563 
1687 1688 1913 1912 1712 1713 1938 1937 11954 13394 13395 13387 12125 13565 13566 13558 12116 12123 13564 13557 13560 13567 12127 13568 13398 13569 13570 
1688 1689 1914 1913 1713 1714 1939 1938 11961 13401 13402 13394 12132 13572 13573 13565 12123 12130 13571 13564 13567 13574 12134 13575 13405 13576 13577 
1689 1690 1915 1914 1714 1715 1940 1939 11968 13408 13409 13401 12139 13579 13580 13572 12130 12137 13578 13571 13574 13581 12141 13582 13412 13583 13584 
1690 1691 1916 1915 1715 1716 1941 1940 11975 13415 13416 13408 12146 13586 13587 13579 12137 12144 13585 13578 13581 13588 12148 13589 13419 13590 13591 
1691 1692 1917 1916 1716 1717 1942 1941 11982 13422 13423 13415 12153 13593 13594 13586 12144 12151 13592 13585 13588 13595 12155 13596 13426 13597 13598 
1692 1693 1918 1917 1717 1718 1943 1942 11989 13429 13430 13422 12160 13600 13601 13593 12151 12158 13599 13592 13595 13602 12162 13603 13433 13604 13605 
1693 1694 1919 1918 1718 1719 1944 1943 11996 13436 13437 13429 12167 13607 13608 13600 12158 12165 13606 13599 13602 13609 12169 13610 13440 13611 13612 
1694 1695 1920 1919 1719 1720 1945 1944 12003 13443 13444 13436 12174 13614 13615 13607 12165 12172 13613 13606 13609 13616 12176 13617 13447 13618 13619 
1695 1696 1921 1920 1720 1721 1946 1945 12010 13450 13451 13443 12181 13621 13622 13614 12172 12179 13620 13613 13616 13623 12183 13624 13454 13625 13626 
1696 1697 1922 1921 1721 1722 1947 1946 12017 13457 13458 13450 12188 13628 13629 13621 12179 12186 13627 13620 13623 13630 12190 13631 13461 13632 13633 
1697 1698 1923 1922 1722 1723 1948 1947 12024 13464 13465 13457 12195 13635 13636 13628 12186 12193 13634 13627 13630 13637 12197 13638 13468 13639 13640 
1698 1699 1924 1923 1723 1724 1949 1948 12031 13471 13472 13464 12202 13642 13643 13635 12193 12200 13641 13634 13637 13644 12204 13645 13475 13646 13647 
1700 1701 1926 1925 1725 1726 1951 1950 12039 13479 13480 13481 12210 13650 13651 13652 12208 12207 13648 13649 13655 13653 12213 13654 13485 13656 13657 
1701 1702 1927 1926 1726 1727 1952 1951 12048 13488 13489 13479 12219 13659 13660 13650 12207 12217 13658 13648 13653 13661 12221 13662 13492 13663 13664 
1702 1703 1928 1927 1727 1728 1953 1952 12055 13495 13496 13488 12226 13666 13667 13659 12217 12224 13665 13658 13661 13668 12228 13669 13499 13670 13671 
1703 1704 1929 1928 1728 1729 1954 1953 12062 13502 13503 13495 12233 13673 13674 13666 12224 12231 13672 13665 13668 13675 12235 13676 13506 13677 13678 
1704 1705 1930 1929 1729 1730 1955 1954 12069 13509 13510 13502 12240 13680 13681 13673 12231 12238 13679 13672 13675 13682 12242 13683 13513 13684 13685 
1705 1706 1931 1930 1730 1731 1956 1955 12076 13516 13517 13509 12247 13687 13688 13680 12238 12245 13686 13679 13682 13689 12249 13690 13520 13691 13692 
1706 1707 1932 1931 1731 1732 1957 1956 12083 13523 13524 13516 12254 13694 13695 13687 12245 12252 13693 13686 13689 13696 12256 13697 13527 13698 13699 
1707 1708 1933 1932 1732 1733 1958 1957 12090 13530 13531 13523 12261 13701 13702 13694 12252 12259 13700 13693 13696 13703 12263 13704 13534 13705 13706 
1708 1709 1934 1933 1733 1734 1959 1958 12097 13537 13538 13530 12268 13708 13709 13701 12259 12266 13707 13700 13703 13710 12270 13711 13541 13712 13713 
1709 1710 1935 1934 1734 1735 1960 1959 12104 13544 13545 13537 12275 13715 13716 13708 12266 12273 13714 13707 13710 13717 12277 13718 13548 13719 13720 
1710 1711 1936 1935 1735 1736 1961 1960 12111 13551 13552 13544 12282 13722 13723 13715 12273 12280 13721 13714 13717 13724 12284 13725 13555 13726 13727 
1711 1712 1937 1936 1736 1737 1962 1961 12118 13558 13559 13551 12289 13729 13730 13722 12280 12287 13728 13721 13724 13731 12291 13732 13562 13733 13734 
1712 1713 1938 1937 1737 1738 1963 1962 12125 13565 13566 13558 12296 13736 13737 13729 12287 12294 13735 13728 13731 13738 12298 13739 13569 13740 13741 
1713 1714 1939 1938 1738 1739 1964 1963 12132 13572 13573 13565 12303 13743 13744 13736 12294 12301 13742 13735 13738 13745 12305 13746 13576 13747 13748 
1714 1715 1940 1939 1739 1740 1965 1964 12139 13579 13580 13572 12310 13750 13751 13743 12301 12308 13749 13742 13745 13752 12312 13753 13583 13754 13755 
1715 1716 1941 1940 1740 1741 1966 1965 12146 13586 13587 13579 12317 13757 13758 13750 12308 12315 13756 13749 13752 13759 12319 13760 13590 13761 13762 
1716 1717 1942 1941 1741 1742 1967 1966 12153 13593 13594 13586 12324 13764 13765 13757 12315 12322 13763 13756 13759 13766 12326 13767 13597 13768 13769 
1717 1718 1943 1942 1742 1743 1968 1967 12160 13600 13601 13593 12331 13771 13772 13764 12322 12329 13770 13763 13766 13773 12333 13774 13604 13775 13776 
1718 1719 1944 1943 1743 1744 1969 1968 12167 13607 13608 13600 12338 13778 13779 13771 12329 12336 13777 13770 13773 13780 12340 13781 13611 13782 13783 
1719 1720 1945 1944 1744 1745 1970 1969 12174 13614 13615 13607 12345 13785 13786 13778 12336 12343 13784 13777 13780 13787 12347 13788 13618 13789 13790 
1720 1721 1946 1945 1745 1746 1971 1970 12181 13621 13622 13614 12352 13792 13793 13785 12343 12350 13791 13784 13787 13794 12354 13795 13625 13796 13797 
1721 1722 1947 1946 1746 1747 1972 1971 12188 13628 13629 13621 12359 13799 13800 13792 12350 12357 13798 13791 13794 13801 12361 13802 13632 13803 13804 
1722 1723 1948 1947 1747 1748 1973 1972 12195 13635 13636 13628 12366 13806 13807 13799 12357 12364 13805 13798 13801 13808 12368 13809 13639 13810 13811 
1723 1724 1949 1948 1748 1749 1974 1973 12202 13642 13643 13635 12373 13813 13814 13806 12364 12371 13812 13805 13808 13815 12375 13816 13646 13817 13818 
1725 1726 1951 1950 1750 1751 1976 1975 12210 13650 13651 13652 12381 13821 13822 13823 12379 12378 13819 13820 13826 13824 12384 13825 13656 13827 13828 
1726 1727 1952 1951 1751 1752 1977 1976 12219 13659 13660 13650 12390 13830 13831 13821 12378 12388 13829 13819 13824 13832 12392 13833 13663 13834 13835 
1727 1728 1953 1952 1752 1753 1978 1977 12226 13666 13667 13659 12397 13837 13838 13830 12388 12395 13836 13829 13832 13839 12399 13840 13670 13841 13842 
1728 1729 1954 1953 1753 1754 1979 1978 12233 13673 13674 13666 12404 13844 13845 13837 12395 12402 13843 13836 13839 13846 12406 13847 13677 13848 13849 
1729 1730 1955 1954 1754 1755 1980 1979 12240 13680 13681 13673 12411 13851 13852 13844 12402 12409 13850 13843 13846 13853 12413 13854 13684 13855 13856 
1730 1731 1956 1955 1755 1756 1981 1980 12247 13687 13688 13680 12418 13858 13859 13851 12409 12416 13857 13850 13853 13860 12420 13861 13691 13862 13863 
1731 1732 1957 1956 1756 1757 1982 1981 12254 13694 13695 13687 12425 13865 13866 13858 12416 12423 13864 13857 13860 13867 12427 13868 13698 13869 13870 
1732 1733 1958 1957 1757 1758 1983 1982 12261 13701 13702 13694 12432 13872 13873 13865 12423 12430 13871 13864 13867 13874 12434 13875 13705 13876 13877 
1733 1734 1959 1958 1758 1759 1984 1983 12268 13708 13709 13701 12439 13879 13880 13872 12430 12437 13878 13871 13874 13881 12441 13882 13712 13883 13884 
1734 1735 1960 1959 1759 1760 1985 1984 12275 13715 13716 13708 12446 13886 13887 13879 12437 12444 13885 13878 13881 13888 12448 13889 13719 13890 13891 
1735 1736 1961 1960 1760 1761 1986 1985 12282 13722 13723 13715 12453 13893 13894 13886 12444 12451 13892 13885 13888 13895 12455 13896 13726 13897 13898 
1736 1737 1962 1961 1761 1762 1987 1986 12289 13729 13730 13722 12460 13900 13901 13893 12451 12458 13899 13892 13895 13902 12462 13903 13733 13904 13905 
1737 1738 1963 1962 1762 1763 1988 1987 12296 13736 13737 13729 12467 13907 13908 13900 12458 12465 13906 13899 13902 13909 12469 13910 13740 13911 13912 
1738 1739 1964 1963 1763 1764 1989 1988 12303 13743 13744 13736 12474 13914 13915 13907 12465 12472 13913 13906 13909 13916 12476 13917 13747 13918 13919 
1739 1740 1965 1964 1764 1765 1990 1989 12310 13750 13751 13743 12481 13921 13922 13914 12472 12479 13920 13913 13916 13923 12483 13924 13754 13925 13926 
1740 1741 1966 1965 1765 1766 1991 1990 12317 13757 13758 13750 12488 13928 13929 13921 12479 12486 13927 13920 13923 13930 12490 13931 13761 13932 13933 
1741 1742 1967 1966 1766 1767 1992 1991 12324 13764 13765 13757 12495 13935 13936 13928 12486 12493 13934 13927 13930 13937 12497 13938 13768 13939 13940 
1742 1743 1968 1967 1767 1768 1993 1992 12331 13771 13772 13764 12502 13942 13943 13935 12493 12500 13941 13934 13937 13944 12504 13945 13775 13946 13947 
1743 1744 1969 1968 1768 1769 1994 1993 12338 13778 13779 13771 12509 13949 13950 13942 12500 12507 13948 13941 13944 13951 12511 13952 13782 13953 13954 
1744 1745 1970 1969 1769 1770 1995 1994 12345 13785 13786 13778 12516 13956 13957 13949 12507 12514 13955 13948 13951 13958 12518 13959 13789 13960 13961 
1745 1746 1971 1970 1770 1771 1996 1995 12352 13792 13793 13785 12523 13963 13964 13956 12514 12521 13962 13955 13958 13965 12525 13966 13796 13967 13968 
1746 1747 1972 1971 1771 1772 1997 1996 12359 13799 13800 13792 12530 13970 13971 13963 12521 12528 13969 13962 13965 13972 12532 13973 13803 13974 13975 
1747 1748 1973 1972 1772 1773 1998 1997 12366 13806 13807 13799 12537 13977 13978 13970 12528 12535 13976 13969 13972 13979 12539 13980 13810 13981 13982 
1748 1749 1974 1973 1773 1774 1999 1998 12373 13813 13814 13806 12544 13984 13985 13977 12535 12542 13983 13976 13979 13986 12546 13987 13817 13988 13989 
1750 1751 1976 1975 1775 1776 2001 2000 12381 13821 13822 13823 12552 13992 13993 13994 12550 12549 13990 13991 13997 13995 12555 13996 13827 13998 13999 
1751 1752 1977 1976 1776 1777 2002 2001 12390 13830 13831 13821 12561 14001 14002 13992 12549 12559 14000 13990 13995 14003 12563 14004 13834 14005 14006 
1752 1753 1978 1977 1777 1778 2003 2002 12397 13837 13838 13830 12568 14008 14009 14001 12559 12566 14007 14000 14003 14010 12570 14011 13841 14012 14013 
1753 1754 1979 1978 1778 1779 2004 2003 12404 13844 13845 13837 12575 14015 14016 14008 12566 12573 14014 14007 14010 14017 12577 14018 13848 14019 14020 
1754 1755 1980 1979 1779 1780 2005 2004 12411 13851 13852 13844 12582 14022 14023 14015 12573 12580 14021 14014 14017 14024 12584 14025 13855 14026 14027 
1755 1756 1981 1980 1780 1781 2006 2005 12418 13858 13859 13851 12589 14029 14030 14022 12580 12587 14028 14021 14024 14031 12591 14032 13862 14033 14034 
1756 1757 1982 1981 1781 1782 2007 2006 12425 13865 13866 13858 12596 14036 14037 14029 12587 12594 14035 14028 14031 14038 12598 14039 13869 14040 14041 
1757 1758 1983 1982 1782 1783 2008 2007 12432 13872 13873 13865 12603 14043 14044 14036 12594 12601 14042 14035 14038 14045 12605 14046 13876 14047 14048 
1758 1759 1984 1983 1783 1784 2009 2008 12439 13879 13880 13872 12610 14050 14051 14043 12601 12608 14049 14042 14045 14052 12612 14053 13883 14054 14055 
1759 1760 1985 1984 1784 1785 2010 2009 12446 13886 13887 13879 12617 14057 14058 14050 12608 12615 14056 14049 14052 14059 12619 14060 13890 14061 14062 
1760 1761 1986 1985 1785 1786 2011 2010 12453 13893 13894 13886 12624 14064 14065 14057 12615 12622 14063 14056 14059 14066 12626 14067 13897 14068 14069 
1761 1762 1987 1986 1786 1787 2012 2011 12460 13900 13901 13893 12631 14071 14072 14064 12622 12629 14070 14063 14066 14073 12633 14074 13904 14075 14076 
1762 1763 1988 1987 1787 1788 2013 2012 12467 13907 13908 13900 12638 14078 14079 14071 12629 12636 14077 14070 14073 14080 12640 14081 13911 14082 14083 
1763 1764 1989 1988 1788 1789 2014 2013 12474 13914 13915 13907 12645 14085 14086 14078 12636 12643 14084 14077 14080 14087 12647 14088 13918 14089 14090 
1764 1765 1990 1989 1789 1790 2015 2014 12481 13921 13922 13914 12652 14092 14093 14085 12643 12650 14091 14084 14087 14094 12654 14095 13925 14096 14097 
1765 1766 1991 1990 1790 1791 2016 2015 12488 13928 13929 13921 12659 14099 14100 14092 12650 12657 14098 14091 14094 14101 12661 14102 13932 14103 14104 
1766 1767 1992 1991 1791 1792 2017 2016 12495 13935 13936 13928 12666 14106 14107 14099 12657 12664 14105 14098 14101 14108 12668 14109 13939 14110 14111 
1767 1768 1993 1992 1792 1793 2018 2017 12502 13942 13943 13935 12673 14113 14114 14106 12664 12671 14112 14105 14108 14115 12675 14116 13946 14117 14118 
1768 1769 1994 1993 1793 1794 2019 2018 12509 13949 13950 13942 12680 14120 14121 14113 12671 12678 14119 14112 14115 14122 12682 14123 13953 14124 14125 
1769 1770 1995 1994 1794 1795 2020 2019 12516 13956 13957 13949 12687 14127 14128 14120 12678 12685 14126 14119 14122 14129 12689 14130 13960 14131 14132 
1770 1771 1996 1995 1795 1796 2021 2020 12523 13963 13964 13956 12694 14134 14135 14127 12685 12692 14133 14126 14129 14136 12696 14137 13967 14138 14139 
1771 1772 1997 1996 1796 1797 2022 2021 12530 13970 13971 13963 12701 14141 14142 14134 12692 12699 14140 14133 14136 14143 12703 14144 13974 14145 14146 
1772 1773 1998 1997 1797 1798 2023 2022 12537 13977 13978 13970 12708 14148 14149 14141 12699 12706 14147 14140 14143 14150 12710 14151 13981 14152 14153 
1773 1774 1999 1998 1798 1799 2024 2023 12544 13984 13985 13977 12715 14155 14156 14148 12706 12713 14154 14147 14150 14157 12717 14158 13988 14159 14160 
CELL_TYPES 1536
29 29 29 29 29 29 29 29 29 29 29 29 29 29 29 29 29 29 29 29 29 29 29 29 29 29 29 29 29 29 29 29 29 29 29 29 29 29 29 29 29 29 29 29 29 29 29 29 29 29 29 29 29 29 29 29 29 29 29 29 29 29 29 29 29 29 29 29 29 29 29 29 29 29 29 29 29 29 29 29 29 29 29 29 29 29 29 29 29 29 29 29 29 29 29 29 29 29 29 29 29 29 29 29 29 29 29 29 29 29 29 29 29 29 29 29 29 29 29 29 29 29 29 29 29 29 29 29 29 29 29 29 29 29 29 29 29 29 29 29 29 29 29 29 29 29 29 29 29 29 29 29 29 29 29 29 29 29 29 29 29 29 29 29 29 29 29 29 29 29 29 29 29 29 29 29 29 29 29 29 29 29 29 29 29 29 29 29 29 29 29 29 29 29 29 29 29 29 29 29 29 29 29 29 29 29 29 29 29 29 29 29 29 29 29 29 29 29 29 29 29 29 29 29 29 29 29 29 29 29 29 29 29 29 29 29 29 29 29 29 29 29 29 29 29 29 29 29 29 29 29 29 29 29 29 29 29 29 29 29 29 29 29 29 29 29 29 29 29 29 29 29 29 29 29 29 29 29 29 29 29 29 29 29 29 29 29 29 29 29 29 29 29 29 29 29 29 29 29 29 29 29 29 29 29 29 29 29 29 29 29 29 29 29 29 29 29 29 29 29 29 29 29 29 29 29 29 29 29 29 29 29 29 29 29 29 29 29 29 29 29 29 29 29 29 29 29 29 29 29 29 29 29 29 29 29 29 29 29 29 29 29 29 29 29 29 29 29 29 29 29 29 29 29 29 29 29 29 29 29 29 29 29 29 29 29 29 29 29 29 29 29 29 29 29 29 29 29 29 29 29 29 29 29 29 29 29 29 29 29 29 29 29 29 29 29 29 29 29 29 29 29 29 29 29 29 29 29 29 29 29 29 29 29 29 29 29 29 29 29 29 29 29 29 29 29 29 29 29 29 29 29 29 29 29 29 29 29 29 29 29 29 29 29 29 29 29 29 29 29 29 29 29 29 29 29 29 29 29 29 29 29 29 29 29 29 29 29 29 29 29 29 29 29 29 29 29 29 29 29 29 29 29 29 29 29 29 29 29 29 29 29 29 29 29 29 29 29 29 29 29 29 29 29 29 29 29 29 29 29 29 29 29 29 29 29 29 29 29 29 29 29 29 29 29 29 29 29 29 29 29 29 29 29 29 29 29 29 29 29 29 29 29 29 29 29 29 29 29 29 29 29 29 29 29 29 29 29 29 29 29 29 29 29 29 29 29 29 29 29 29 29 29 29 29 29 29 29 29 29 29 29 29 29 29 29 29 29 29 29 29 29 29 29 29 29 29 29 29 29 29 29 29 29 29 29 29 29 29 29 29 29 29 29 29 29 29 29 29 29 29 29 29 29 29 29 29 29 29 29 29 29 29 29 29 29 29 29 29 29 29 29 29 29 29 29 29 29 29 29 29 29 29 29 29 29 29 29 29 29 29 29 29 29 29 29 29 29 29 29 29 29 29 29 29 29 29 29 29 29 29 29 29 29 29 29 29 29 29 29 29 29 29 29 29 29 29 29 29 29 29 29 29 29 29 29 29 29 29 29 29 29 29 29 29 29 29 29 29 29 29 29 29 29 29 29 29 29 29 29 29 29 29 29 29 29 29 29 29 29 29 29 29 29 29 29 29 29 29 29 29 29 29 29 29 29 29 29 29 29 29 29 29 29 29 29 29 29 29 29 29 29 29 29 29 29 29 29 29 29 29 29 29 29 29 29 29 29 29 29 29 29 29 29 29 29 29 29 29 29 29 29 29 29 29 29 29 29 29 29 29 29 29 29 29 29 29 29 29 29 29 29 29 29 29 29 29 29 29 29 29 29 29 29 29 29 29 29 29 29 29 29 29 29 29 29 29 29 29 29 29 29 29 29 29 29 29 29 29 29 29 29 29 29 29 29 29 29 29 29 29 29 29 29 29 29 29 29 29 29 29 29 29 29 29 29 29 29 29 29 29 29 29 29 29 29 29 29 29 29 29 29 29 29 29 29 29 29 29 29 29 29 29 29 29 29 29 29 29 29 29 29 29 29 29 29 29 29 29 29 29 29 29 29 29 29 29 29 29 29 29 29 29 29 29 29 29 29 29 29 29 29 29 29 29 29 29 29 29 29 29 29 29 29 29 29 29 29 29 29 29 29 29 29 29 29 29 29 29 29 29 29 29 29 29 29 29 29 29 29 29 29 29 29 29 29 29 29 29 29 29 29 29 29 29 29 29 29 29 29 29 29 29 29 29 29 29 29 29 29 29 29 29 29 29 29 29 29 29 29 29 29 29 29 29 29 29 29 29 29 29 29 29 29 29 29 29 29 29 29 29 29 29 29 29 29 29 29 29 29 29 29 29 29 29 29 29 29 29 29 29 29 29 29 29 29 29 29 29 29 29 29 29 29 29 29 29 29 29 29 29 29 29 29 29 29 29 29 29 29 29 29 29 29 29 29 29 29 29 29 29 29 29 29 29 29 29 29 29 29 29 29 29 29 29 29 29 29 29 29 29 29 29 29 29 29 29 29 29 29 29 29 29 29 29 29 29 29 29 29 29 29 29 29 29 29 29 29 29 29 29 29 29 29 29 29 29 29 29 29 29 29 29 29 29 29 29 29 29 29 29 29 29 29 29 29 29 29 29 29 29 29 29 29 29 29 29 29 29 29 29 29 29 29 29 29 29 29 29 29 29 29 29 29 29 29 29 29 29 29 29 29 29 29 29 29 29 29 29 29 29 29 29 29 29 29 29 29 29 29 29 29 29 29 29 29 29 29 29 29 29 29 29 29 29 29 29 29 29 29 29 29 29 29 29 29 29 29 29 29 29 29 29 29 29 29 29 29 29 29 29 29 29 29 29 29 29 29 29 29 29 29 29 29 29 29 29 29 29 29 29 29 29 29 29 29 29 29 29 29 29 29 29 29 29 29 29 29 29 29 29 29 29 29 29 29 29 29 29 29 29 29 29 29 29 29 29 29 29 29 29 29 29 29 29 29 29 29 29 29 29 29 29 29 29 29 29 29 29 29 29 29 29 29 29 29 29 29 29 29 29 29 29 29 29 29 29 29 29 29 29 29 29 29 29 29 29 29 29 29 29 29 29 29 29 29 29 29 29 29 29 29 29 29 29 29 29 29 29 29 29 29 29 29 29 29 29 29 29 29 29 29 29 29 29 29 29 29 29 29 29 29 29 29 29 29 29 29 29 29 29 29 29 29 29 29 29 29 29 29 29 29 29 29 29 29 29 29 29 29 29 29 29 29 29 29 29 29 29 29 29 29 29 29 29 29 29 29 29 29 29 29 29 29 29 29 29 29 29 29 29 29 29 29 29 29 29 29 29 29 29 29 29 29 29 29 29 29 29 29 29 29 29 29 29 29 

POINT_DATA 14161
SCALARS weights float 1
LOOKUP_TABLE default
0.072338 0.144676 0.144676 0.144676 0.144676 0.144676 0.144676 0.144676 0.144676 0.144676 0.144676 0.144676 0.144676 0.144676 0.144676 0.144676 0.144676 0.144676 0.144676 0.144676 0.144676 0.144676 0.144676 0.144676 0.072338 0.144676 0.289352 0.289352 0.289352 0.289352 0.289352 0.289352 0.289352 0.289352 0.289352 0.289352 0.289352 0.289352 0.289352 0.289352 0.289352 0.289352 0.289352 0.289352 0.289352 0.289352 0.289352 0.289352 0.289352 0.144676 0.144676 0.289352 0.289352 0.289352 0.289352 0.289352 0.289352 0.289352 0.289352 0.289352 0.289352 0.289352 0.289352 0.289352 0.289352 0.289352 0.289352 0.289352 0.289352 0.289352 0.289352 0.289352 0.289352 0.289352 0.144676 0.144676 0.289352 0.289352 0.289352 0.289352 0.289352 0.289352 0.289352 0.289352 0.289352 0.289352 0.289352 0.289352 0.289352 0.289352 0.289352 0.289352 0.289352 0.289352 0.289352 0.289352 0.289352 0.289352 0.289352 0.144676 0.144676 0.289352 0.289352 0.289352 0.289352 0.289352 0.289352 0.289352 0.289352 0.289352 0.289352 0.289352 0.289352 0.289352 0.289352 0.289352 0.289352 0.289352 0.289352 0.289352 0.289352 0.289352 0.289352 0.289352 0.144676 0.144676 0.289352 0.289352 0.289352 0.289352 0.289352 0.289352 0.289352 0.289352 0.289352 0.289352 0.289352 0.289352 0.289352 0.289352 0.289352 0.289352 0.289352 0.289352 0.289352 0.289352 0.289352 0.289352 0.289352 0.144676 0.144676 0.289352 0.289352 0.289352 0.289352 0.289352 0.289352 0.289352 0.289352 0.289352 0.289352 0.289352 0.289352 0.289352 0.289352 0.289352 0.289352 0.289352 0.289352 0.289352 0.289352 0.289352 0.289352 0.289352 0.144676 0.144676 0.289352 0.289352 0.289352 0.289352 0.289352 0.289352 0.289352 0.289352 0.289352 0.289352 0.289352 0.289352 0.289352 0.289352 0.289352 0.289352 0.289352 0.289352 0.289352 0.289352 0.289352 0.289352 0.289352 0.144676 0.072338 0.144676 0.144676 0.144676 0.144676 0.144676 0.144676 0.144676 0.144676 0.144676 0.144676 0.144676 0.144676 0.144676 0.144676 0.144676 0.144676 0.144676 0.144676 0.144676 0.144676 0.144676 0.144676 0.144676 0.072338 0.144676 0.289352 0.289352 0.289352 0.289352 0.289352 0.289352 0.289352 0.289352 0.289352 0.289352 0.289352 0.289352 0.289352 0.289352 0.289352 0.289352 0.289352 0.289352 0.289352 0.289352 0.289352 0.289352 0.289352 0.144676 0.289352 0.578704 0.578704 0.578704 0.578704 0.578704 0.578704 0.578704 0.578704 0.578704 0.578704 0.578704 0.578704 0.578704 0.578704 0.578704 0.578704 0.578704 0.578704 0.578704 0.578704 0.578704 0.578704 0.578704 0.289352 0.289352 0.578704 0.578704 0.578704 0.578704 0.578704 0.578704 0.578704 0.578704 0.578704 0.578704 0.578704 0.578704 0.578704 0.578704 0.578704 0.578704 0.578704 0.578704 0.578704 0.578704 0.578704 0.578704 0.578704 0.289352 0.289352 0.578704 0.578704 0.578704 0.578704 0.578704 0.578704 0.578704 0.578704 0.578704 0.578704 0.578704 0.578704 0.578704 0.578704 0.578704 0.578704 0.578704 0.578704 0.578704 0.578704 0.578704 0.578704 0.578704 0.289352 0.289352 0.578704 0.578704 0.578704 0.578704 0.578704 0.578704 0.578704 0.578704 0.578704 0.578704 0.578704 0.578704 0.578704 0.578704 0.578704 0.578704 0.578704 0.578704 0.578703 0.578704 0.578704 0.578704 0.578704 0.289352 0.289352 0.578704 0.578704 0.578704 0.578704 0.578704 0.578704 0.578704 0.578704 0.578704 0.578704 0.578704 0.578704 0.578704 0.578704 0.578704 0.578704 0.578704 0.578704 0.578704 0.578704 0.578704 0.578704 0.578704 0.289352 0.289352 0.578704 0.578704 0.578704 0.578704 0.578704 0.578704 0.578704 0.578704 0.578704 0.578704 0.578704 0.578704 0.578704 0.578704 0.578704 0.578704 0.578704 0.578704 0.578704 0.578704 0.578704 0.578704 0.578704 0.289352 0.289352 0.578704 0.578704 0.578704 0.578704 0.578704 0.578704 0.578704 0.578704 0.578704 0.578704 0.578704 0.578704 0.578704 0.578704 0.578704 0.578704 0.578704 0.578704 0.578704 0.578704 0.578704 0.578704 0.578704 0.289352 0.144676 0.289352 0.289352 0.289352 0.289352 0.289352 0.289352 0.289352 0.289352 0.289352 0.289352 0.289352 0.289352 0.289352 0.289352 0.289352 0.289352 0.289352 0.289352 0.289352 0.289352 0.289352 0.289352 0.289352 0.144676 0.144676 0.289352 0.289352 0.289352 0.289352 0.289352 0.289352 0.289352 0.289352 0.289352 0.289352 0.289352 0.289352 0.289352 0.289352 0.289352 0.289352 0.289352 0.289352 0.289352 0.289352 0.289352 0.289352 0.289352 0.144676 0.289352 0.578704 0.578704 0.578704 0.578704 0.578704 0.578704 0.578704 0.578704 0.578704 0.578704 0.578704 0.578704 0.578704 0.578704 0.578704 0.578704 0.578704 0.578704 0.578704 0.578704 0.578704 0.578704 0.578704 0.289352 0.289352 0.578704 0.578704 0.578704 0.578704 0.578704 0.578704 0.578704 0.578704 0.578704 0.578704 0.578704 0.578704 0.578704 0.578704 0.578704 0.578704 0.578704 0.578704 0.578704 0.578704 0.578704 0.578704 0.578704 0.289352 0.289352 0.578704 0.578704 0.578704 0.578704 0.578704 0.578704 0.578704 0.578704 0.578704 0.578704 0.578704 0.578704 0.578704 0.578704 0.578704 0.578704 0.578704 0.578704 0.578703 0.578704 0.578704 0.578704 0.578704 0.289352 0.289352 0.578704 0.578704 0.578704 0.578704 0.578704 0.578704 0.578704 0.578704 0.578704 0.578704 0.578704 0.578704 0.578704 0.578704 0.578704 0.578704 0.578704 0.578704 0.578703 0.578704 0.578704 0.578704 0.578704 0.289352 0.289352 0.578704 0.578704 0.578704 0.578704 0.578704 0.578704 0.578704 0.578704 0.578704 0.578704 0.578704 0.578704 0.578704 0.578704 0.578704 0.578704 0.578704 0.578704 0.578704 0.578704 0.578704 0.578704 0.578704 0.289352 0.289352 0.578704 0.578704 0.578704 0.578704 0.578704 0.578704 0.578704 0.578704 0.578704 0.578704 0.578704 0.578704 0.578704 0.578704 0.578704 0.578704 0.578704 0.578704 0.578704 0.578704 0.578704 0.578704 0.578704 0.289352 0.289352 0.578704 0.578704 0.578704 0.578704 0.578704 0.578704 0.578704 0.578704 0.578704 0.578704 0.578704 0.578704 0.578704 0.578704 0.578704 0.578704 0.578704 0.578704 0.578703 0.578704 0.578704 0.578704 0.578704 0.289352 0.144676 0.289352 0.289352 0.289352 0.289352 0.289352 0.289352 0.289352 0.289352 0.289352 0.289352 0.289352 0.289352 0.289352 0.289352 0.289352 0.289352 0.289352 0.289352 0.289352 0.289352 0.289352 0.289352 0.289352 0.144676 0.144676 0.289352 0.289352 0.289352 0.289352 0.289352 0.289352 0.289352 0.289352 0.289352 0.289352 0.289352 0.289352 0.289352 0.289352 0.289352 0.289352 0.289352 0.289352 0.289352 0.289352 0.289352 0.289352 0.289352 0.144676 0.289352 0.578704 0.578704 0.578704 0.578704 0.578704 0.578704 0.578704 0.578704 0.578704 0.578704 0.578704 0.578704 0.578704 0.578704 0.578704 0.578704 0.578704 0.578703 0.578703 0.578704 0.578704 0.578703 0.578704 0.289352 0.289352 0.578704 0.578704 0.578704 0.578704 0.578704 0.578704 0.578704 0.578704 0.578704 0.578703 0.578704 0.578704 0.578704 0.578704 0.578704 0.578704 0.578704 0.578703 0.578703 0.578704 0.578704 0.578703 0.578704 0.289352 0.289352 0.578704 0.578704 0.578704 0.578704 0.578704 0.578704 0.578704 0.578704 0.578704 0.578703 0.578704 0.578704 0.578704 0.578704 0.578704 0.578704 0.578704 0.578703 0.578703 0.578704 0.578704 0.578703 0.578704 0.289352 0.289352 0.578704 0.578704 0.578704 0.578704 0.578704 0.578704 0.578704 0.578704 0.578704 0.578703 0.578704 0.578704 0.578704 0.578704 0.578704 0.578704 0.578704 0.578703 0.578703 0.578703 0.578704 0.578703 0.578704 0.289352 0.289352 0.578704 0.578704 0.578704 0.578704 0.578704 0.578704 0.578704 0.578704 0.578704 0.578704 0.578704 0.578704 0.578704 0.578704 0.578704 0.578704 0.578704 0.578703 0.578703 0.578704 0.578704 0.578703 0.578704 0.289352 0.289352 0.578704 0.578704 0.578704 0.578704 0.578704 0.578704 0.578704 0.578704 0.578704 0.578704 0.578704 0.578704 0.578704 0.578704 0.578704 0.578704 0.578704 0.578703 0.578703 0.578704 0.578704 0.578704 0.578704 0.289352 0.289352 0.578704 0.578704 0.578704 0.578704 0.578704 0.578704 0.578704 0.578704 0.578704 0.578703 0.578704 0.578704 0.578704 0.578704 0.578704 0.578704 0.578704 0.578703 0.578703 0.578704 0.578704 0.578703 0.578704 0.289352 0.144676 0.289352 0.289352 0.289352 0.289352 0.289352 0.289352 0.289352 0.289352 0.289352 0.289352 0.289352 0.289352 0.289352 0.289352 0.289352 0.289352 0.289352 0.289352 0.289352 0.289352 0.289352 0.289352 0.289352 0.144676 0.144676 0.289352 0.289352 0.289352 0.289352 0.289352 0.289352 0.289352 0.289352 0.289352 0.289352 0.289352 0.289352 0.289352 0.289352 0.289352 0.289352 0.289352 0.289352 0.289352 0.289352 0.289352 0.289352 0.289352 0.144676 0.289352 0.578704 0.578704 0.578704 0.578704 0.578704 0.578704 0.578704 0.578704 0.578703 0.578703 0.578703 0.578704 0.578704 0.578703 0.578703 0.578704 0.578703 0.578703 0.578703 0.578703 0.578704 0.578703 0.578703 0.289352 0.289352 0.578704 0.578704 0.578704 0.578703 0.578704 0.578704 0.578704 0.578704 0.578703 0.578703 0.578703 0.578704 0.578704 0.578703 0.578703 0.578704 0.578703 0.578703 0.578703 0.578703 0.578704 0.578703 0.578703 0.289352 0.289352 0.578704 0.578704 0.578704 0.578703 0.578704 0.578704 0.578704 0.578704 0.578703 0.578703 0.578703 0.578704 0.578704 0.578703 0.578703 0.578704 0.578703 0.578703 0.578703 0.578703 0.578704 0.578703 0.578703 0.289352 0.289352 0.578704 0.578704 0.578703 0.578703 0.578704 0.578703 0.578703 0.578703 0.578703 0.578703 0.578703 0.578703 0.578703 0.578703 0.578703 0.578704 0.578703 0.578703 0.578703 0.578703 0.578703 0.578703 0.578703 0.289352 0.289352 0.578704 0.578704 0.578704 0.578703 0.578703 0.578704 0.578703 0.578703 0.578703 0.578703 0.578703 0.578703 0.578704 0.578703 0.578703 0.578704 0.578703 0.578703 0.578703 0.578703 0.578704 0.578703 0.578703 0.289352 0.289352 0.578704 0.578704 0.578704 0.578703 0.578704 0.578704 0.578704 0.578704 0.578703 0.578703 0.578703 0.578704 0.578704 0.578703 0.578703 0.578704 0.578703 0.578703 0.578703 0.578703 0.578704 0.578703 0.578703 0.289352 0.289352 0.578704 0.578704 0.578704 0.578703 0.578704 0.578704 0.578703 0.578704 0.578703 0.578703 0.578703 0.578704 0.578704 0.578703 0.578703 0.578704 0.578703 0.578703 0.578703 0.578703 0.578704 0.578703 0.578703 0.289352 0.144676 0.289352 0.289352 0.289352 0.289352 0.289352 0.289352 0.289352 0.289352 0.289352 0.289352 0.289352 0.289352 0.289352 0.289352 0.289352 0.289352 0.289352 0.289352 0.289352 0.289352 0.289352 0.289352 0.289352 0.144676 0.144676 0.289352 0.289352 0.289352 0.289352 0.289352 0.289352 0.289352 0.289352 0.289352 0.289352 0.289352 0.289352 0.289352 0.289352 0.289352 0.289352 0.289352 0.289352 0.289352 0.289352 0.289352 0.289352 0.289352 0.144676 0.289352 0.578703 0.578703 0.578703 0.578703 0.578703 0.578703 0.578703 0.578703 0.578703 0.578703 0.578703 0.578703 0.578703 0.578703 0.578703 0.578703 0.578703 0.578703 0.578703 0.578703 0.578703 0.578703 0.578703 0.289352 0.289352 0.578703 0.578703 0.578703 0.578703 0.578703 0.578703 0.578703 0.578703 0.578703 0.578703 0.578703 0.578703 0.578703 0.578703 0.578703 0.578703 0.578703 0.578703 0.578703 0.578703 0.578703 0.578703 0.578703 0.289352 0.289352 0.578703 0.578703 0.578703 0.578703 0.578703 0.578703 0.578703 0.578703 0.578703 0.578703 0.578703 0.578703 0.578703 0.578703 0.578703 0.578703 0.578703 0.578703 0.578703 0.578703 0.578703 0.578703 0.578703 0.289352 0.289352 0.578703 0.578703 0.578703 0.578703 0.578703 0.578703 0.578703 0.578703 0.578703 0.578703 0.578703 0.578703 0.578703 0.578703 0.578703 0.578703 0.578703 0.578703 0.578703 0.578703 0.578703 0.578703 0.578703 0.289352 0.289352 0.578703 0.578703 0.578703 0.578703 0.578703 0.578703 0.578703 0.578703 0.578703 0.578703 0.578703 0.578703 0.578703 0.578703 0.578703 0.578703 0.578703 0.578703 0.578703 0.578703 0.578703 0.578703 0.578703 0.289352 0.289352 0.578703 0.578703 0.578703 0.578703 0.578703 0.578703 0.578703 0.578703 0.578703 0.578703 0.578703 0.578703 0.578703 0.578703 0.578703 0.578703 0.578703 0.578703 0.578703 0.578703 0.578703 0.578703 0.578703 0.289352 0.289352 0.578703 0.578703 0.578703 0.578703 0.578703 0.578703 0.578703 0.578703 0.578703 0.578703 0.578703 0.578703 0.578703 0.578703 0.578703 0.578703 0.578703 0.578703 0.578703 0.578703 0.578703 0.578703 0.578703 0.289352 0.144676 0.289352 0.289352 0.289352 0.289352 0.289352 0.289352 0.289352 0.289352 0.289352 0.289352 0.289352 0.289352 0.289352 0.289352 0.289352 0.289352 0.289352 0.289351 0.289351 0.289352 0.289352 0.289352 0.289352 0.144676 0.144676 0.289352 0.289352 0.289352 0.289352 0.289352 0.289352 0.289352 0.289352 0.289352 0.289352 0.289352 0.289352 0.289352 0.289352 0.289352 0.289352 0.289352 0.289352 0.289352 0.289352 0.289352 0.289352 0.289352 0.144676 0.289352 0.578704 0.578704 0.578704 0.578704 0.578704 0.578704 0.578704 0.578704 0.578704 0.578704 0.578704 0.578704 0.578704 0.578704 0.578704 0.578704 0.578704 0.578704 0.578703 0.578704 0.578704 0.578704 0.578704 0.289352 0.289352 0.578704 0.578704 0.578704 0.578704 0.578704 0.578704 0.578704 0.578704 0.578704 0.578704 0.578704 0.578704 0.578704 0.578704 0.578704 0.578704 0.578704 0.578704 0.578703 0.578704 0.578704 0.578704 0.578704 0.289352 0.289352 0.578704 0.578704 0.578704 0.578704 0.578704 0.578704 0.578704 0.578704 0.578704 0.578704 0.578704 0.578704 0.578704 0.578704 0.578704 0.578704 0.578704 0.578704 0.578703 0.578704 0.578704 0.578704 0.578704 0.289352 0.289352 0.578704 0.578704 0.578704 0.578704 0.578704 0.578704 0.578704 0.578704 0.578704 0.578704 0.578704 0.578704 0.578704 0.578704 0.578704 0.578704 0.578704 0.578704 0.578703 0.578704 0.578704 0.578704 0.578704 0.289352 0.289352 0.578704 0.578704 0.578704 0.578704 0.578704 0.578704 0.578704 0.578704 0.578704 0.578704 0.578704 0.578704 0.578704 0.578704 0.578704 0.578704 0.578704 0.578704 0.578703 0.578704 0.578704 0.578704 0.578704 0.289352 0.289352 0.578704 0.578704 0.578704 0.578704 0.578704 0.578704 0.578704 0.578704 0.578704 0.578704 0.578704 0.578704 0.578704 0.578704 0.578704 0.578704 0.578704 0.578704 0.578703 0.578704 0.578704 0.578704 0.578704 0.289352 0.289352 0.578704 0.578704 0.578704 0.578704 0.578704 0.578704 0.578704 0.578704 0.578704 0.578704 0.578704 0.578704 0.578704 0.578704 0.578704 0.578704 0.578704 0.578704 0.578703 0.578704 0.578704 0.578704 0.578704 0.289352 0.144676 0.289352 0.289352 0.289352 0.289352 0.289352 0.289352 0.289352 0.289352 0.289352 0.289352 0.289352 0.289352 0.289352 0.289352 0.289352 0.289352 0.289352 0.289352 0.289352 0.289352 0.289352 0.289352 0.289352 0.144676 0.144676 0.289352 0.289352 0.289352 0.289352 0.289352 0.289352 0.289352 0.289352 0.289352 0.289352 0.289352 0.289352 0.289352 0.289352 0.289352 0.289352 0.289352 0.289352 0.289352 0.289352 0.289352 0.289352 0.289352 0.144676 0.289352 0.578704 0.578704 0.578704 0.578704 0.578704 0.578704 0.578704 0.578704 0.578704 0.578704 0.578704 0.578704 0.578704 0.578704 0.578704 0.578704 0.578704 0.578704 0.578704 0.578704 0.578704 0.578704 0.578704 0.289352 0.289352 0.578704 0.578704 0.578704 0.578704 0.578704 0.578704 0.578704 0.578704 0.578704 0.578704 0.578704 0.578704 0.578704 0.578704 0.578704 0.578704 0.578704 0.578704 0.578704 0.578704 0.578704 0.578704 0.578704 0.289352 0.289352 0.578704 0.578704 0.578704 0.578704 0.578704 0.578704 0.578704 0.578704 0.578704 0.578704 0.578704 0.578704 0.578704 0.578704 0.578704 0.578704 0.578704 0.578704 0.578704 0.578704 0.578704 0.578704 0.578704 0.289352 0.289352 0.578704 0.578704 0.578704 0.578704 0.578704 0.578704 0.578704 0.578704 0.578704 0.578704 0.578704 0.578704 0.578704 0.578704 0.578704 0.578704 0.578704 0.578704 0.578704 0.578704 0.578704 0.578704 0.578704 0.289352 0.289352 0.578704 0.578704 0.578704 0.578704 0.578704 0.578704 0.578704 0.578704 0.578704 0.578704 0.578704 0.578704 0.578704 0.578704 0.578704 0.578704 0.578704 0.578704 0.578704 0.578704 0.578704 0.578704 0.578704 0.289352 0.289352 0.578704 0.578704 0.578704 0.578704 0.578704 0.578704 0.578704 0.578704 0.578704 0.578704 0.578704 0.578704 0.578704 0.578704 0.578704 0.578704 0.578704 0.578704 0.578704 0.578704 0.578704 0.578704 0.578704 0.289352 0.289352 0.578704 0.578704 0.578704 0.578704 0.578704 0.578704 0.578704 0.578704 0.578704 0.578704 0.578704 0.578704 0.578704 0.578704 0.578704 0.578704 0.578704 0.578704 0.578704 0.578704 0.578704 0.578704 0.578704 0.289352 0.144676 0.289352 0.289352 0.289352 0.289352 0.289352 0.289352 0.289352 0.289352 0.289352 0.289352 0.289352 0.289352 0.289352 0.289352 0.289352 0.289352 0.289352 0.289352 0.289352 0.289352 0.289352 0.289352 0.289352 0.144676 0.072338 0.144676 0.144676 0.144676 0.144676 0.144676 0.144676 0.144676 0.144676 0.144676 0.144676 0.144676 0.144676 0.144676 0.144676 0.144676 0.144676 0.144676 0.144676 0.144676 0.144676 0.144676 0.144676 0.144676 0.072338 0.144676 0.289352 0.289352 0.289352 0.289352 0.289352 0.289352 0.289352 0.289352 0.289352 0.289352 0.289352 0.289352 0.289352 0.289352 0.289352 0.289352 0.289352 0.289352 0.289352 0.289352 0.289352 0.289352 0.289352 0.144676 0.144676 0.289352 0.289352 0.289352 0.289352 0.289352 0.289352 0.289352 0.289352 0.289352 0.289352 0.289352 0.289352 0.289352 0.289352 0.289352 0.289352 0.289352 0.289352 0.289352 0.289352 0.289352 0.289352 0.289352 0.144676 0.144676 0.289352 0.289352 0.289352 0.289352 0.289352 0.289352 0.289352 0.289352 0.289352 0.289352 0.289352 0.289352 0.289352 0.289352 0.289352 0.289352 0.289352 0.289352 0.289352 0.289352 0.289352 0.289352 0.289352 0.144676 0.144676 0.289352 0.289352 0.289352 0.289352 0.289352 0.289352 0.289352 0.289352 0.289352 0.289352 0.289352 0.289352 0.289352 0.289352 0.289352 0.289352 0.289352 0.289352 0.289352 0.289352 0.289352 0.289352 0.289352 0.144676 0.144676 0.289352 0.289352 0.289352 0.289352 0.289352 0.289352 0.289352 0.289352 0.289352 0.289352 0.289352 0.289352 0.289352 0.289352 0.289352 0.289352 0.289352 0.289352 0.289352 0.289352 0.289352 0.289352 0.289352 0.144676 0.144676 0.289352 0.289352 0.289352 0.289352 0.289352 0.289352 0.289352 0.289352 0.289352 0.289352 0.289352 0.289352 0.289352 0.289352 0.289352 0.289352 0.289352 0.289352 0.289352 0.289352 0.289352 0.289352 0.289352 0.144676 0.144676 0.289352 0.289352 0.289352 0.289352 0.289352 0.289352 0.289352 0.289352 0.289352 0.289352 0.289352 0.289352 0.289352 0.289352 0.289352 0.289352 0.289352 0.289352 0.289352 0.289352 0.289352 0.289352 0.289352 0.144676 0.072338 0.144676 0.144676 0.144676 0.144676 0.144676 0.144676 0.144676 0.144676 0.144676 0.144676 0.144676 0.144676 0.144676 0.144676 0.144676 0.144676 0.144676 0.144676 0.144676 0.144676 0.144676 0.144676 0.144676 0.072338 0.072338 0.144676 0.144676 0.072338 0.072338 0.144676 0.289352 0.144676 0.144676 0.289352 0.289352 0.144676 0.072338 0.072338 0.144676 0.144676 0.072338 0.144676 0.072338 0.072338 0.144676 0.144676 0.144676 0.289352 0.144676 0.289352 0.289352 0.072338 0.072338 0.144676 0.144676 0.144676 0.072338 0.072338 0.144676 0.144676 0.144676 0.289352 0.144676 0.289352 0.289352 0.072338 0.072338 0.144676 0.144676 0.144676 0.072338 0.072338 0.144676 0.144676 0.144676 0.289352 0.144676 0.289352 0.289352 0.072338 0.072338 0.144676 0.144676 0.144676 0.072338 0.072338 0.144676 0.144676 0.144676 0.289352 0.144676 0.289352 0.289352 0.072338 0.072338 0.144676 0.144676 0.144676 0.072338 0.072338 0.144676 0.144676 0.144676 0.289352 0.144676 0.289352 0.289352 0.072338 0.072338 0.144676 0.144676 0.144676 0.072338 0.072338 0.144676 0.144676 0.144676 0.289352 0.144676 0.289352 0.289352 0.072338 0.072338 0.144676 0.144676 0.144676 0.072338 0.072338 0.144676 0.144676 0.144676 0.289352 0.144676 0.289352 0.289352 0.072338 0.072338 0.144676 0.144676 0.144676 0.072338 0.072338 0.144676 0.144676 0.144676 0.289352 0.144676 0.289352 0.289352 0.072338 0.072338 0.144676 0.144676 0.144676 0.072338 0.0723379 0.144676 0.144676 0.144676 0.289352 0.144676 0.289352 0.289352 0.0723379 0.0723379 0.144676 0.144676 0.144676 0.0723379 0.072338 0.144676 0.144676 0.144676 0.289352 0.144676 0.289352 0.289352 0.072338 0.072338 0.144676 0.144676 0.144676 0.072338 0.072338 0.144676 0.144676 0.144676 0.289352 0.144676 0.289352 0.289352 0.072338 0.072338 0.144676 0.144676 0.144676 0.072338 0.072338 0.144676 0.144676 0.144676 0.289352 0.144676 0.289352 0.289352 0.072338 0.072338 0.144676 0.144676 0.144676 0.072338 0.072338 0.144676 0.144676 0.144676 0.289352 0.144676 0.289352 0.289352 0.072338 0.072338 0.144676 0.144676 0.144676 0.072338 0.0723379 0.144676 0.144676 0.144676 0.289352 0.144676 0.289352 0.289352 0.0723379 0.0723379 0.144676 0.144676 0.144676 0.0723379 0.072338 0.144676 0.144676 0.144676 0.289352 0.144676 0.289352 0.289352 0.072338 0.072338 0.144676 0.144676 0.144676 0.072338 0.072338 0.144676 0.144676 0.144676 0.289352 0.144676 0.289352 0.289352 0.072338 0.072338 0.144676 0.144676 0.144676 0.072338 0.0723379 0.144676 0.144676 0.144676 0.289352 0.144676 0.289352 0.289352 0.0723379 0.0723379 0.144676 0.144676 0.144676 0.0723379 0.0723379 0.144676 0.144676 0.144676 0.289352 0.144676 0.289352 0.289352 0.0723379 0.0723379 0.144676 0.144676 0.144676 0.0723379 0.0723379 0.144676 0.144676 0.144676 0.289352 0.144676 0.289352 0.289352 0.0723379 0.0723379 0.144676 0.144676 0.144676 0.0723379 0.072338 0.144676 0.144676 0.144676 0.289352 0.144676 0.289352 0.289352 0.072338 0.072338 0.144676 0.144676 0.144676 0.072338 0.072338 0.144676 0.144676 0.144676 0.289352 0.144676 0.289352 0.289352 0.072338 0.072338 0.144676 0.144676 0.144676 0.072338 0.0723379 0.144676 0.144676 0.144676 0.289352 0.144676 0.289352 0.289352 0.0723379 0.0723379 0.144676 0.144676 0.144676 0.0723379 0.072338 0.072338 0.144676 0.072338 0.144676 0.144676 0.144676 0.289352 0.072338 0.072338 0.072338 0.144676 0.144676 0.072338 0.072338 0.144676 0.289352 0.144676 0.144676 0.289352 0.289352 0.144676 0.072338 0.144676 0.144676 0.072338 0.144676 0.072338 0.144676 0.289352 0.144676 0.289352 0.289352 0.072338 0.144676 0.144676 0.144676 0.072338 0.144676 0.289352 0.144676 0.289352 0.289352 0.072338 0.144676 0.144676 0.144676 0.072338 0.144676 0.289352 0.144676 0.289352 0.289352 0.072338 0.144676 0.144676 0.144676 0.072338 0.144676 0.289352 0.144676 0.289352 0.289352 0.072338 0.144676 0.144676 0.144676 0.072338 0.144676 0.289352 0.144676 0.289352 0.289352 0.072338 0.144676 0.144676 0.144676 0.072338 0.144676 0.289352 0.144676 0.289352 0.289352 0.072338 0.144676 0.144676 0.144676 0.072338 0.144676 0.289352 0.144676 0.289352 0.289352 0.072338 0.144676 0.144676 0.144676 0.072338 0.144676 0.289352 0.144676 0.289352 0.289352 0.072338 0.144676 0.144676 0.144676 0.072338 0.144676 0.289352 0.144676 0.289352 0.289352 0.0723379 0.144676 0.144676 0.144676 0.0723379 0.144676 0.289352 0.144676 0.289352 0.289352 0.0723379 0.144676 0.144676 0.144676 0.0723379 0.144676 0.289352 0.144676 0.289352 0.289352 0.072338 0.144676 0.144676 0.144676 0.072338 0.144676 0.289352 0.144676 0.289352 0.289352 0.072338 0.144676 0.144676 0.144676 0.072338 0.144676 0.289352 0.144676 0.289352 0.289352 0.072338 0.144676 0.144676 0.144676 0.072338 0.144676 0.289352 0.144676 0.289352 0.289352 0.0723379 0.144676 0.144676 0.144676 0.0723379 0.144676 0.289352 0.144676 0.289352 0.289352 0.072338 0.144676 0.144676 0.144676 0.072338 0.144676 0.289352 0.144676 0.289352 0.289352 0.072338 0.144676 0.144676 0.144676 0.072338 0.144676 0.289352 0.144676 0.289352 0.289352 0.0723379 0.144676 0.144676 0.144676 0.0723379 0.144676 0.289352 0.144676 0.289352 0.289352 0.0723379 0.144676 0.144676 0.144676 0.0723379 0.144676 0.289352 0.144676 0.289352 0.289352 0.0723379 0.144676 0.144676 0.144676 0.0723379 0.144676 0.289352 0.144676 0.289352 0.289352 0.072338 0.144676 0.144676 0.144676 0.072338 0.144676 0.289352 0.144676 0.289352 0.289352 0.072338 0.144676 0.144676 0.144676 0.072338 0.144676 0.289352 0.144676 0.289352 0.289352 0.0723379 0.144676 0.144676 0.144676 0.0723379 0.072338 0.144676 0.144676 0.144676 0.289352 0.072338 0.072338 0.144676 0.144676 0.072338 0.072338 0.144676 0.289352 0.144676 0.144676 0.289352 0.289352 0.144676 0.072338 0.144676 0.144676 0.072338 0.144676 0.072338 0.144676 0.289352 0.144676 0.289352 0.289352 0.072338 0.144676 0.144676 0.144676 0.072338 0.144676 0.289352 0.144676 0.289352 0.289352 0.072338 0.144676 0.144676 0.144676 0.072338 0.144676 0.289352 0.144676 0.289352 0.289352 0.072338 0.144676 0.144676 0.144676 0.072338 0.144676 0.289352 0.144676 0.289352 0.289352 0.072338 0.144676 0.144676 0.144676 0.072338 0.144676 0.289352 0.144676 0.289352 0.289352 0.072338 0.144676 0.144676 0.144676 0.072338 0.144676 0.289352 0.144676 0.289352 0.289352 0.072338 0.144676 0.144676 0.144676 0.072338 0.144676 0.289352 0.144676 0.289352 0.289352 0.072338 0.144676 0.144676 0.144676 0.072338 0.144676 0.289352 0.144676 0.289352 0.289352 0.072338 0.144676 0.144676 0.144676 0.072338 0.144676 0.289352 0.144676 0.289352 0.289352 0.0723379 0.144676 0.144676 0.144676 0.0723379 0.144676 0.289352 0.144676 0.289352 0.289352 0.0723379 0.144676 0.144676 0.144676 0.0723379 0.144676 0.289352 0.144676 0.289352 0.289352 0.072338 0.144676 0.144676 0.144676 0.072338 0.144676 0.289352 0.144676 0.289352 0.289352 0.072338 0.144676 0.144676 0.144676 0.072338 0.144676 0.289352 0.144676 0.289352 0.289352 0.072338 0.144676 0.144676 0.144676 0.072338 0.144676 0.289352 0.144676 0.289352 0.289352 0.0723379 0.144676 0.144676 0.144676 0.0723379 0.144676 0.289352 0.144676 0.289352 0.289352 0.072338 0.144676 0.144676 0.144676 0.072338 0.144676 0.289352 0.144676 0.289352 0.289352 0.072338 0.144676 0.144676 0.144676 0.072338 0.144676 0.289352 0.144676 0.289352 0.289352 0.0723379 0.144676 0.144676 0.144676 0.0723379 0.144676 0.289352 0.144676 0.289352 0.289352 0.0723379 0.144676 0.144676 0.144676 0.0723379 0.144676 0.289352 0.144676 0.289352 0.289352 0.0723379 0.144676 0.144676 0.144676 0.0723379 0.144676 0.289352 0.144676 0.289352 0.289352 0.072338 0.144676 0.144676 0.144676 0.072338 0.144676 0.289352 0.144676 0.289352 0.289352 0.0723379 0.144676 0.144676 0.144676 0.0723379 0.144676 0.289352 0.144676 0.289352 0.289352 0.0723379 0.144676 0.144676 0.144676 0.0723379 0.072338 0.144676 0.144676 0.144676 0.289352 0.072338 0.072338 0.144676 0.144676 0.072338 0.072338 0.144676 0.289352 0.144676 0.144676 0.289352 0.289352 0.144676 0.072338 0.144676 0.144676 0.072338 0.144676 0.072338 0.144676 0.289352 0.144676 0.289352 0.289352 0.072338 0.144676 0.144676 0.144676 0.072338 0.144676 0.289352 0.144676 0.289352 0.289352 0.072338 0.144676 0.144676 0.144676 0.072338 0.144676 0.289352 0.144676 0.289352 0.289352 0.072338 0.144676 0.144676 0.144676 0.072338 0.144676 0.289352 0.144676 0.289352 0.289352 0.072338 0.144676 0.144676 0.144676 0.072338 0.144676 0.289352 0.144676 0.289352 0.289352 0.072338 0.144676 0.144676 0.144676 0.072338 0.144676 0.289352 0.144676 0.289352 0.289352 0.072338 0.144676 0.144676 0.144676 0.072338 0.144676 0.289352 0.144676 0.289352 0.289352 0.0723379 0.144676 0.144676 0.144676 0.0723379 0.144676 0.289352 0.144676 0.289352 0.289352 0.072338 0.144676 0.144676 0.144676 0.072338 0.144676 0.289352 0.144676 0.289352 0.289352 0.0723379 0.144676 0.144676 0.144676 0.0723379 0.144676 0.289352 0.144676 0.289352 0.289352 0.0723379 0.144676 0.144676 0.144676 0.0723379 0.144676 0.289352 0.144676 0.289352 0.289352 0.072338 0.144676 0.144676 0.144676 0.072338 0.144676 0.289352 0.144676 0.289352 0.289352 0.072338 0.144676 0.144676 0.144676 0.072338 0.144676 0.289352 0.144676 0.289352 0.289352 0.072338 0.144676 0.144676 0.144676 0.072338 0.144676 0.289352 0.144676 0.289352 0.289352 0.0723379 0.144676 0.144676 0.144676 0.0723379 0.144676 0.289352 0.144676 0.289352 0.289352 0.072338 0.144676 0.144676 0.144676 0.072338 0.144676 0.289352 0.144676 0.289352 0.289352 0.072338 0.144676 0.144676 0.144676 0.072338 0.144676 0.289352 0.144676 0.289352 0.289352 0.0723379 0.144676 0.144676 0.144676 0.0723379 0.144676 0.289352 0.144676 0.289352 0.289352 0.0723379 0.144676 0.144676 0.144676 0.0723379 0.144676 0.289352 0.144676 0.289352 0.289352 0.0723379 0.144676 0.144676 0.144676 0.0723379 0.144676 0.289352 0.144676 0.289352 0.289352 0.072338 0.144676 0.144676 0.144676 0.072338 0.144676 0.289352 0.144676 0.289352 0.289352 0.0723379 0.144676 0.144676 0.144676 0.0723379 0.144676 0.289352 0.144676 0.289352 0.289352 0.0723379 0.144676 0.144676 0.144676 0.0723379 0.072338 0.144676 0.144676 0.144676 0.289352 0.072338 0.072338 0.144676 0.144676 0.072338 0.072338 0.144676 0.289352 0.144676 0.144676 0.289352 0.289352 0.144676 0.072338 0.144676 0.144676 0.072338 0.144676 0.072338 0.144676 0.289352 0.144676 0.289352 0.289352 0.072338 0.144676 0.144676 0.144676 0.072338 0.144676 0.289352 0.144676 0.289352 0.289352 0.072338 0.144676 0.144676 0.144676 0.072338 0.144676 0.289352 0.144676 0.289352 0.289352 0.072338 0.144676 0.144676 0.144676 0.072338 0.144676 0.289352 0.144676 0.289352 0.289352 0.072338 0.144676 0.144676 0.144676 0.072338 0.144676 0.289352 0.144676 0.289352 0.289352 0.072338 0.144676 0.144676 0.144676 0.072338 0.144676 0.289352 0.144676 0.289352 0.289352 0.072338 0.144676 0.144676 0.144676 0.072338 0.144676 0.289352 0.144676 0.289352 0.289352 0.0723379 0.144676 0.144676 0.144676 0.0723379 0.144676 0.289352 0.144676 0.289352 0.289352 0.072338 0.144676 0.144676 0.144676 0.072338 0.144676 0.289352 0.144676 0.289352 0.289352 0.0723379 0.144676 0.144676 0.144676 0.0723379 0.144676 0.289352 0.144676 0.289352 0.289352 0.0723379 0.144676 0.144676 0.144676 0.0723379 0.144676 0.289352 0.144676 0.289352 0.289352 0.072338 0.144676 0.144676 0.144676 0.072338 0.144676 0.289352 0.144676 0.289352 0.289352 0.072338 0.144676 0.144676 0.144676 0.072338 0.144676 0.289352 0.144676 0.289352 0.289352 0.072338 0.144676 0.144676 0.144676 0.072338 0.144676 0.289352 0.144676 0.289352 0.289352 0.0723379 0.144676 0.144676 0.144676 0.0723379 0.144676 0.289352 0.144676 0.289352 0.289352 0.072338 0.144676 0.144676 0.144676 0.072338 0.144676 0.289352 0.144676 0.289352 0.289352 0.072338 0.144676 0.144676 0.144676 0.072338 0.144676 0.289352 0.144676 0.289352 0.289352 0.0723379 0.144676 0.144676 0.144676 0.0723379 0.144676 0.289352 0.144676 0.289352 0.289352 0.0723379 0.144676 0.144676 0.144676 0.0723379 0.144676 0.289352 0.144676 0.289352 0.289352 0.0723379 0.144676 0.144676 0.144676 0.0723379 0.144676 0.289352 0.144676 0.289352 0.289352 0.072338 0.144676 0.144676 0.144676 0.072338 0.144676 0.289352 0.144676 0.289352 0.289352 0.0723379 0.144676 0.144676 0.144676 0.0723379 0.144676 0.289352 0.144676 0.289352 0.289352 0.0723379 0.144676 0.144676 0.144676 0.0723379 0.072338 0.144676 0.144676 0.144676 0.289352 0.072338 0.072338 0.144676 0.144676 0.072338 0.072338 0.144676 0.289352 0.144676 0.144676 0.289352 0.289352 0.144676 0.072338 0.144676 0.144676 0.072338 0.144676 0.072338 0.144676 0.289352 0.144676 0.289352 0.289352 0.072338 0.144676 0.144676 0.144676 0.072338 0.144676 0.289352 0.144676 0.289352 0.289352 0.072338 0.144676 0.144676 0.144676 0.072338 0.144676 0.289352 0.144676 0.289352 0.289352 0.072338 0.144676 0.144676 0.144676 0.072338 0.144676 0.289352 0.144676 0.289352 0.289352 0.072338 0.144676 0.144676 0.144676 0.072338 0.144676 0.289352 0.144676 0.289352 0.289352 0.072338 0.144676 0.144676 0.144676 0.072338 0.144676 0.289352 0.144676 0.289352 0.289352 0.072338 0.144676 0.144676 0.144676 0.072338 0.144676 0.289352 0.144676 0.289352 0.289352 0.072338 0.144676 0.144676 0.144676 0.072338 0.144676 0.289352 0.144676 0.289352 0.289352 0.072338 0.144676 0.144676 0.144676 0.072338 0.144676 0.289352 0.144676 0.289352 0.289352 0.0723379 0.144676 0.144676 0.144676 0.0723379 0.144676 0.289352 0.144676 0.289352 0.289352 0.0723379 0.144676 0.144676 0.144676 0.0723379 0.144676 0.289352 0.144676 0.289352 0.289352 0.072338 0.144676 0.144676 0.144676 0.072338 0.144676 0.289352 0.144676 0.289352 0.289352 0.072338 0.144676 0.144676 0.144676 0.072338 0.144676 0.289352 0.144676 0.289352 0.289352 0.072338 0.144676 0.144676 0.144676 0.072338 0.144676 0.289352 0.144676 0.289352 0.289352 0.0723379 0.144676 0.144676 0.144676 0.0723379 0.144676 0.289352 0.144676 0.289352 0.289352 0.072338 0.144676 0.144676 0.144676 0.072338 0.144676 0.289352 0.144676 0.289352 0.289352 0.072338 0.144676 0.144676 0.144676 0.072338 0.144676 0.289352 0.144676 0.289352 0.289352 0.0723379 0.144676 0.144676 0.144676 0.0723379 0.144676 0.289352 0.144676 0.289352 0.289352 0.0723379 0.144676 0.144676 0.144676 0.0723379 0.144676 0.289352 0.144676 0.289352 0.289352 0.0723379 0.144676 0.144676 0.144676 0.0723379 0.144676 0.289352 0.144676 0.289352 0.289352 0.072338 0.144676 0.144676 0.144676 0.072338 0.144676 0.289352 0.144676 0.289352 0.289352 0.0723379 0.144676 0.144676 0.144676 0.0723379 0.144676 0.289352 0.144676 0.289352 0.289352 0.0723379 0.144676 0.144676 0.144676 0.0723379 0.072338 0.144676 0.144676 0.144676 0.289352 0.072338 0.072338 0.144676 0.144676 0.072338 0.072338 0.144676 0.289352 0.144676 0.144676 0.289352 0.289352 0.144676 0.072338 0.144676 0.144676 0.072338 0.144676 0.072338 0.144676 0.289352 0.144676 0.289352 0.289352 0.072338 0.144676 0.144676 0.144676 0.072338 0.144676 0.289352 0.144676 0.289352 0.289352 0.072338 0.144676 0.144676 0.144676 0.072338 0.144676 0.289352 0.144676 0.289352 0.289352 0.072338 0.144676 0.144676 0.144676 0.072338 0.144676 0.289352 0.144676 0.289352 0.289352 0.072338 0.144676 0.144676 0.144676 0.072338 0.144676 0.289352 0.144676 0.289352 0.289352 0.072338 0.144676 0.144676 0.144676 0.072338 0.144676 0.289352 0.144676 0.289352 0.289352 0.072338 0.144676 0.144676 0.144676 0.072338 0.144676 0.289352 0.144676 0.289352 0.289352 0.072338 0.144676 0.144676 0.144676 0.072338 0.144676 0.289352 0.144676 0.289352 0.289352 0.072338 0.144676 0.144676 0.144676 0.072338 0.144676 0.289352 0.144676 0.289352 0.289352 0.072338 0.144676 0.144676 0.144676 0.072338 0.144676 0.289352 0.144676 0.289352 0.289352 0.072338 0.144676 0.144676 0.144676 0.072338 0.144676 0.289352 0.144676 0.289352 0.289352 0.072338 0.144676 0.144676 0.144676 0.072338 0.144676 0.289352 0.144676 0.289352 0.289352 0.072338 0.144676 0.144676 0.144676 0.072338 0.144676 0.289352 0.144676 0.289352 0.289352 0.072338 0.144676 0.144676 0.144676 0.072338 0.144676 0.289352 0.144676 0.289352 0.289352 0.0723379 0.144676 0.144676 0.144676 0.0723379 0.144676 0.289352 0.144676 0.289352 0.289352 0.072338 0.144676 0.144676 0.144676 0.072338 0.144676 0.289352 0.144676 0.289352 0.289352 0.072338 0.144676 0.144676 0.144676 0.072338 0.144676 0.289352 0.144676 0.289352 0.289352 0.072338 0.144676 0.144676 0.144676 0.072338 0.144676 0.289352 0.144676 0.289352 0.289352 0.0723379 0.144676 0.144676 0.144676 0.0723379 0.144676 0.289352 0.144676 0.289352 0.289352 0.0723379 0.144676 0.144676 0.144676 0.0723379 0.144676 0.289352 0.144676 0.289352 0.289352 0.072338 0.144676 0.144676 0.144676 0.072338 0.144676 0.289352 0.144676 0.289352 0.289352 0.072338 0.144676 0.144676 0.144676 0.072338 0.144676 0.289352 0.144676 0.289352 0.289352 0.0723379 0.144676 0.144676 0.144676 0.0723379 0.072338 0.144676 0.144676 0.144676 0.289352 0.072338 0.072338 0.144676 0.144676 0.072338 0.072338 0.144676 0.289352 0.144676 0.072338 0.144676 0.144676 0.072338 0.072338 0.144676 0.144676 0.072338 0.072338 0.072338 0.144676 0.289352 0.072338 0.144676 0.144676 0.072338 0.144676 0.144676 0.072338 0.072338 0.144676 0.289352 0.072338 0.144676 0.144676 0.072338 0.144676 0.144676 0.072338 0.072338 0.144676 0.289352 0.0723379 0.144676 0.144676 0.0723379 0.144676 0.144676 0.0723379 0.0723379 0.144676 0.289352 0.0723379 0.144676 0.144676 0.0723379 0.144676 0.144676 0.0723379 0.0723379 0.144676 0.289352 0.0723379 0.144676 0.144676 0.0723379 0.144676 0.144676 0.0723379 0.0723379 0.144676 0.289352 0.0723379 0.144676 0.144676 0.0723379 0.144676 0.144676 0.0723379 0.0723379 0.144676 0.289352 0.0723379 0.144676 0.144676 0.0723379 0.144676 0.144676 0.0723379 0.0723379 0.144676 0.289352 0.072338 0.144676 0.144676 0.072338 0.144676 0.144676 0.072338 0.072338 0.144676 0.289352 0.0723379 0.144676 0.144676 0.0723379 0.144676 0.144676 0.0723379 0.0723379 0.144676 0.289352 0.0723379 0.144676 0.144676 0.0723379 0.144676 0.144676 0.0723379 0.0723379 0.144676 0.289352 0.0723379 0.144676 0.144676 0.0723379 0.144676 0.144676 0.0723379 0.0723379 0.144676 0.289352 0.0723379 0.144676 0.144676 0.0723379 0.144676 0.144676 0.0723379 0.0723379 0.144676 0.289352 0.072338 0.144676 0.144676 0.072338 0.144676 0.144676 0.072338 0.072338 0.144676 0.289352 0.0723379 0.144676 0.144676 0.0723379 0.144676 0.144676 0.0723379 0.0723379 0.144676 0.289352 0.072338 0.144676 0.144676 0.072338 0.144676 0.144676 0.072338 0.072338 0.144676 0.289352 0.072338 0.144676 0.144676 0.072338 0.144676 0.144676 0.072338 0.072338 0.144676 0.289352 0.0723379 0.144676 0.144676 0.0723379 0.144676 0.144676 0.0723379 0.0723379 0.144676 0.289352 0.0723379 0.144676 0.144676 0.0723379 0.144676 0.144676 0.0723379 0.0723379 0.144676 0.289352 0.0723379 0.144676 0.144676 0.0723379 0.144676 0.144676 0.0723379 0.0723379 0.144676 0.289352 0.072338 0.144676 0.144676 0.072338 0.144676 0.144676 0.072338 0.072338 0.144676 0.289352 0.0723379 0.144676 0.144676 0.0723379 0.144676 0.144676 0.0723379 0.0723379 0.144676 0.289352 0.0723379 0.144676 0.144676 0.0723379 0.144676 0.144676 0.0723379 0.0723379 0.072338 0.144676 0.072338 0.072338 0.144676 0.072338 0.072338 0.144676 0.072338 0.072338 0.144676 0.144676 0.072338 0.289352 0.144676 0.289352 0.289352 0.144676 0.072338 0.144676 0.144676 0.072338 0.144676 0.072338 0.144676 0.144676 0.289352 0.289352 0.289352 0.072338 0.144676 0.144676 0.144676 0.072338 0.144676 0.144676 0.289352 0.289352 0.289352 0.072338 0.144676 0.144676 0.144676 0.072338 0.144676 0.144676 0.289352 0.289352 0.289352 0.072338 0.144676 0.144676 0.144676 0.072338 0.144676 0.144676 0.289352 0.289352 0.289352 0.072338 0.144676 0.144676 0.144676 0.072338 0.144676 0.144676 0.289352 0.289352 0.289352 0.072338 0.144676 0.144676 0.144676 0.072338 0.144676 0.144676 0.289352 0.289352 0.289352 0.072338 0.144676 0.144676 0.144676 0.072338 0.144676 0.144676 0.289352 0.289352 0.289352 0.072338 0.144676 0.144676 0.144676 0.072338 0.144676 0.144676 0.289352 0.289352 0.289352 0.072338 0.144676 0.144676 0.144676 0.072338 0.144676 0.144676 0.289352 0.289352 0.289352 0.072338 0.144676 0.144676 0.144676 0.072338 0.144676 0.144676 0.289352 0.289352 0.289352 0.072338 0.144676 0.144676 0.144676 0.072338 0.144676 0.144676 0.289352 0.289352 0.289352 0.072338 0.144676 0.144676 0.144676 0.072338 0.144676 0.144676 0.289352 0.289352 0.289352 0.072338 0.144676 0.144676 0.144676 0.072338 0.144676 0.144676 0.289352 0.289352 0.289352 0.072338 0.144676 0.144676 0.144676 0.072338 0.144676 0.144676 0.289352 0.289352 0.289352 0.072338 0.144676 0.144676 0.144676 0.072338 0.144676 0.144676 0.289352 0.289352 0.289352 0.072338 0.144676 0.144676 0.144676 0.072338 0.144676 0.144676 0.289352 0.289352 0.289352 0.072338 0.144676 0.144676 0.144676 0.072338 0.144676 0.144676 0.289352 0.289352 0.289352 0.072338 0.144676 0.144676 0.144676 0.072338 0.144676 0.144676 0.289352 0.289352 0.289352 0.072338 0.144676 0.144676 0.144676 0.072338 0.144676 0.144676 0.289352 0.289352 0.289352 0.072338 0.144676 0.144676 0.144676 0.072338 0.144676 0.144676 0.289352 0.289352 0.289352 0.072338 0.144676 0.144676 0.144676 0.072338 0.144676 0.144676 0.289352 0.289352 0.289352 0.072338 0.144676 0.144676 0.144676 0.072338 0.144676 0.144676 0.289352 0.289352 0.289352 0.072338 0.144676 0.144676 0.144676 0.072338 0.072338 0.144676 0.144676 0.144676 0.289352 0.072338 0.072338 0.144676 0.144676 0.072338 0.289352 0.144676 0.289352 0.289352 0.144676 0.144676 0.144676 0.072338 0.144676 0.072338 0.289352 0.289352 0.289352 0.144676 0.144676 0.144676 0.072338 0.289352 0.289352 0.289352 0.144676 0.144676 0.144676 0.072338 0.289352 0.289352 0.289352 0.144676 0.144676 0.144676 0.072338 0.289352 0.289352 0.289352 0.144676 0.144676 0.144676 0.072338 0.289352 0.289352 0.289352 0.144676 0.144676 0.144676 0.072338 0.289352 0.289352 0.289352 0.144676 0.144676 0.144676 0.072338 0.289352 0.289352 0.289352 0.144676 0.144676 0.144676 0.072338 0.289352 0.289352 0.289352 0.144676 0.144676 0.144676 0.072338 0.289352 0.289352 0.289352 0.144676 0.144676 0.144676 0.072338 0.289352 0.289352 0.289352 0.144676 0.144676 0.144676 0.072338 0.289352 0.289352 0.289352 0.144676 0.144676 0.144676 0.072338 0.289352 0.289352 0.289352 0.144676 0.144676 0.144676 0.072338 0.289352 0.289352 0.289352 0.144676 0.144676 0.144676 0.072338 0.289352 0.289352 0.289352 0.144676 0.144676 0.144676 0.072338 0.289352 0.289352 0.289352 0.144676 0.144676 0.144676 0.072338 0.289352 0.289352 0.289352 0.144676 0.144676 0.144676 0.072338 0.289352 0.289352 0.289352 0.144676 0.144676 0.144676 0.072338 0.289352 0.289352 0.289352 0.144676 0.144676 0.144676 0.072338 0.289352 0.289352 0.289352 0.144676 0.144676 0.144676 0.072338 0.289352 0.289352 0.289352 0.144676 0.144676 0.144676 0.072338 0.289352 0.289352 0.289352 0.144676 0.144676 0.144676 0.072338 0.289352 0.289352 0.289352 0.144676 0.144676 0.144676 0.072338 0.144676 0.144676 0.289352 0.072338 0.144676 0.144676 0.072338 0.289352 0.144676 0.289352 0.289352 0.144676 0.144676 0.144676 0.072338 0.144676 0.072338 0.289352 0.289352 0.289352 0.144676 0.144676 0.144676 0.072338 0.289352 0.289352 0.289352 0.144676 0.144676 0.144676 0.072338 0.289352 0.289352 0.289352 0.144676 0.144676 0.144676 0.072338 0.289352 0.289352 0.289352 0.144676 0.144676 0.144676 0.072338 0.289352 0.289352 0.289352 0.144676 0.144676 0.144676 0.072338 0.289352 0.289352 0.289352 0.144676 0.144676 0.144676 0.072338 0.289352 0.289352 0.289352 0.144676 0.144676 0.144676 0.072338 0.289352 0.289352 0.289352 0.144676 0.144676 0.144676 0.072338 0.289352 0.289352 0.289352 0.144676 0.144676 0.144676 0.072338 0.289352 0.289352 0.289352 0.144676 0.144676 0.144676 0.072338 0.289352 0.289352 0.289352 0.144676 0.144676 0.144676 0.072338 0.289352 0.289352 0.289352 0.144676 0.144676 0.144676 0.072338 0.289352 0.289352 0.289352 0.144676 0.144676 0.144676 0.072338 0.289352 0.289352 0.289352 0.144676 0.144676 0.144676 0.072338 0.289352 0.289352 0.289352 0.144676 0.144676 0.144676 0.072338 0.289352 0.289352 0.289352 0.144676 0.144676 0.144676 0.072338 0.289352 0.289352 0.289352 0.144676 0.144676 0.144676 0.072338 0.289352 0.289352 0.289352 0.144676 0.144676 0.144676 0.072338 0.289352 0.289352 0.289352 0.144676 0.144676 0.144676 0.072338 0.289352 0.289352 0.289352 0.144676 0.144676 0.144676 0.072338 0.289352 0.289352 0.289352 0.144676 0.144676 0.144676 0.072338 0.289352 0.289352 0.289352 0.144676 0.144676 0.144676 0.072338 0.144676 0.144676 0.289352 0.072338 0.144676 0.144676 0.072338 0.289352 0.144676 0.289352 0.289352 0.144676 0.144676 0.144676 0.072338 0.144676 0.072338 0.289352 0.289352 0.289352 0.144676 0.144676 0.144676 0.072338 0.289352 0.289352 0.289352 0.144676 0.144676 0.144676 0.072338 0.289352 0.289352 0.289352 0.144676 0.144676 0.144676 0.072338 0.289352 0.289352 0.289352 0.144676 0.144676 0.144676 0.072338 0.289352 0.289352 0.289352 0.144676 0.144676 0.144676 0.072338 0.289352 0.289352 0.289352 0.144676 0.144676 0.144676 0.072338 0.289352 0.289352 0.289352 0.144676 0.144676 0.144676 0.072338 0.289352 0.289352 0.289352 0.144676 0.144676 0.144676 0.072338 0.289352 0.289352 0.289352 0.144676 0.144676 0.144676 0.072338 0.289352 0.289352 0.289352 0.144676 0.144676 0.144676 0.072338 0.289352 0.289352 0.289352 0.144676 0.144676 0.144676 0.072338 0.289352 0.289352 0.289352 0.144676 0.144676 0.144676 0.072338 0.289352 0.289352 0.289352 0.144676 0.144676 0.144676 0.072338 0.289352 0.289352 0.289352 0.144676 0.144676 0.144676 0.072338 0.289352 0.289352 0.289352 0.144676 0.144676 0.144676 0.072338 0.289352 0.289352 0.289352 0.144676 0.144676 0.144676 0.072338 0.289352 0.289352 0.289352 0.144676 0.144676 0.144676 0.072338 0.289352 0.289352 0.289352 0.144676 0.144676 0.144676 0.072338 0.289352 0.289352 0.289352 0.144676 0.144676 0.144676 0.072338 0.289352 0.289352 0.289352 0.144676 0.144676 0.144676 0.072338 0.289352 0.289352 0.289352 0.144676 0.144676 0.144676 0.072338 0.289352 0.289352 0.289352 0.144676 0.144676 0.144676 0.072338 0.144676 0.144676 0.289352 0.072338 0.144676 0.144676 0.072338 0.289352 0.144676 0.289352 0.289352 0.144676 0.144676 0.144676 0.072338 0.144676 0.072338 0.289352 0.289352 0.289352 0.144676 0.144676 0.144676 0.072338 0.289352 0.289352 0.289352 0.144676 0.144676 0.144676 0.072338 0.289352 0.289352 0.289352 0.144676 0.144676 0.144676 0.072338 0.289352 0.289352 0.289352 0.144676 0.144676 0.144676 0.072338 0.289352 0.289352 0.289352 0.144676 0.144676 0.144676 0.072338 0.289352 0.289352 0.289352 0.144676 0.144676 0.144676 0.072338 0.289352 0.289352 0.289352 0.144676 0.144676 0.144676 0.072338 0.289352 0.289352 0.289352 0.144676 0.144676 0.144676 0.072338 0.289352 0.289352 0.289352 0.144676 0.144676 0.144676 0.072338 0.289352 0.289352 0.289352 0.144676 0.144676 0.144676 0.072338 0.289352 0.289352 0.289352 0.144676 0.144676 0.144676 0.072338 0.289352 0.289352 0.289352 0.144676 0.144676 0.144676 0.072338 0.289352 0.289352 0.289352 0.144676 0.144676 0.144676 0.072338 0.289352 0.289352 0.289352 0.144676 0.144676 0.144676 0.072338 0.289352 0.289352 0.289352 0.144676 0.144676 0.144676 0.072338 0.289352 0.289352 0.289352 0.144676 0.144676 0.144676 0.072338 0.289352 0.289352 0.289352 0.144676 0.144676 0.144676 0.072338 0.289352 0.289352 0.289352 0.144676 0.144676 0.144676 0.072338 0.289352 0.289352 0.289352 0.144676 0.144676 0.144676 0.0723379 0.289352 0.289352 0.289352 0.144676 0.144676 0.144676 0.072338 0.289352 0.289352 0.289352 0.144676 0.144676 0.144676 0.072338 0.289352 0.289352 0.289352 0.144676 0.144676 0.144676 0.072338 0.144676 0.144676 0.289352 0.072338 0.144676 0.144676 0.072338 0.289352 0.144676 0.289352 0.289352 0.144676 0.144676 0.144676 0.072338 0.144676 0.072338 0.289352 0.289352 0.289352 0.144676 0.144676 0.144676 0.072338 0.289352 0.289352 0.289352 0.144676 0.144676 0.144676 0.072338 0.289352 0.289352 0.289352 0.144676 0.144676 0.144676 0.072338 0.289352 0.289352 0.289352 0.144676 0.144676 0.144676 0.072338 0.289352 0.289352 0.289352 0.144676 0.144676 0.144676 0.072338 0.289352 0.289352 0.289352 0.144676 0.144676 0.144676 0.072338 0.289352 0.289352 0.289352 0.144676 0.144676 0.144676 0.072338 0.289352 0.289352 0.289352 0.144676 0.144676 0.144676 0.072338 0.289352 0.289352 0.289352 0.144676 0.144676 0.144676 0.072338 0.289352 0.289352 0.289352 0.144676 0.144676 0.144676 0.072338 0.289352 0.289352 0.289352 0.144676 0.144676 0.144676 0.072338 0.289352 0.289352 0.289352 0.144676 0.144676 0.144676 0.072338 0.289352 0.289352 0.289352 0.144676 0.144676 0.144676 0.072338 0.289352 0.289352 0.289352 0.144676 0.144676 0.144676 0.072338 0.289352 0.289352 0.289352 0.144676 0.144676 0.144676 0.072338 0.289352 0.289352 0.289352 0.144676 0.144676 0.144676 0.072338 0.289352 0.289352 0.289352 0.144676 0.144676 0.144676 0.072338 0.289352 0.289352 0.289352 0.144676 0.144676 0.144676 0.072338 0.289352 0.289352 0.289352 0.144676 0.144676 0.144676 0.072338 0.289352 0.289352 0.289352 0.144676 0.144676 0.144676 0.072338 0.289352 0.289352 0.289352 0.144676 0.144676 0.144676 0.072338 0.289352 0.289352 0.289352 0.144676 0.144676 0.144676 0.072338 0.144676 0.144676 0.289352 0.072338 0.144676 0.144676 0.072338 0.289352 0.144676 0.289352 0.289352 0.144676 0.144676 0.144676 0.072338 0.144676 0.072338 0.289352 0.289352 0.289352 0.144676 0.144676 0.144676 0.072338 0.289352 0.289352 0.289352 0.144676 0.144676 0.144676 0.072338 0.289352 0.289352 0.289352 0.144676 0.144676 0.144676 0.072338 0.289352 0.289352 0.289352 0.144676 0.144676 0.144676 0.072338 0.289352 0.289352 0.289352 0.144676 0.144676 0.144676 0.072338 0.289352 0.289352 0.289352 0.144676 0.144676 0.144676 0.072338 0.289352 0.289352 0.289352 0.144676 0.144676 0.144676 0.072338 0.289352 0.289352 0.289352 0.144676 0.144676 0.144676 0.072338 0.289352 0.289352 0.289352 0.144676 0.144676 0.144676 0.072338 0.289352 0.289352 0.289352 0.144676 0.144676 0.144676 0.072338 0.289352 0.289352 0.289352 0.144676 0.144676 0.144676 0.072338 0.289352 0.289352 0.289352 0.144676 0.144676 0.144676 0.072338 0.289352 0.289352 0.289352 0.144676 0.144676 0.144676 0.072338 0.289352 0.289352 0.289352 0.144676 0.144676 0.144676 0.072338 0.289352 0.289352 0.289352 0.144676 0.144676 0.144676 0.072338 0.289352 0.289352 0.289352 0.144676 0.144676 0.144676 0.072338 0.289352 0.289352 0.289352 0.144676 0.144676 0.144676 0.072338 0.289352 0.289352 0.289352 0.144676 0.144676 0.144676 0.072338 0.289352 0.289352 0.289352 0.144676 0.144676 0.144676 0.072338 0.289352 0.289352 0.289352 0.144676 0.144676 0.144676 0.0723381 0.289352 0.289352 0.289352 0.144676 0.144676 0.144676 0.072338 0.289352 0.289352 0.289352 0.144676 0.144676 0.144676 0.072338 0.144676 0.144676 0.289352 0.072338 0.144676 0.144676 0.072338 0.289352 0.144676 0.144676 0.144676 0.072338 0.144676 0.144676 0.072338 0.072338 0.072338 0.289352 0.144676 0.144676 0.144676 0.144676 0.072338 0.072338 0.289352 0.144676 0.144676 0.144676 0.144676 0.072338 0.072338 0.289352 0.144676 0.144676 0.144676 0.144676 0.072338 0.072338 0.289352 0.144676 0.144676 0.144676 0.144676 0.072338 0.072338 0.289352 0.144676 0.144676 0.144676 0.144676 0.072338 0.072338 0.289352 0.144676 0.144676 0.144676 0.144676 0.072338 0.072338 0.289352 0.144676 0.144676 0.144676 0.144676 0.072338 0.072338 0.289352 0.144676 0.144676 0.144676 0.144676 0.072338 0.072338 0.289352 0.144676 0.144676 0.144676 0.144676 0.072338 0.072338 0.289352 0.144676 0.144676 0.144676 0.144676 0.072338 0.072338 0.289352 0.144676 0.144676 0.144676 0.144676 0.072338 0.072338 0.289352 0.144676 0.144676 0.144676 0.144676 0.072338 0.072338 0.289352 0.144676 0.144676 0.144676 0.144676 0.072338 0.072338 0.289352 0.144676 0.144676 0.144676 0.144676 0.072338 0.072338 0.289352 0.144676 0.144676 0.144676 0.144676 0.072338 0.072338 0.289352 0.144676 0.144676 0.144676 0.144676 0.072338 0.072338 0.289352 0.144676 0.144676 0.144676 0.144676 0.072338 0.072338 0.289352 0.144676 0.144676 0.144676 0.144676 0.072338 0.072338 0.289352 0.144676 0.144676 0.144676 0.144676 0.0723379 0.0723379 0.289352 0.144676 0.144676 0.144676 0.144676 0.072338 0.072338 0.289352 0.144676 0.144676 0.144676 0.144676 0.072338 0.072338 0.289352 0.144676 0.144676 0.144676 0.144676 0.072338 0.072338 0.144676 0.072338 0.144676 0.072338 0.144676 0.072338 0.072338 0.144676 0.144676 0.072338 0.289352 0.144676 0.289352 0.289352 0.144676 0.072338 0.144676 0.144676 0.072338 0.144676 0.072338 0.144676 0.144676 0.289352 0.289352 0.289352 0.072338 0.144676 0.144676 0.144676 0.072338 0.144676 0.144676 0.289352 0.289352 0.289352 0.072338 0.144676 0.144676 0.144676 0.072338 0.144676 0.144676 0.289352 0.289352 0.289352 0.0723379 0.144676 0.144676 0.144676 0.0723379 0.144676 0.144676 0.289352 0.289352 0.289352 0.072338 0.144676 0.144676 0.144676 0.072338 0.144676 0.144676 0.289352 0.289352 0.289352 0.072338 0.144676 0.144676 0.144676 0.072338 0.144676 0.144676 0.289352 0.289352 0.289352 0.072338 0.144676 0.144676 0.144676 0.072338 0.144676 0.144676 0.289352 0.289352 0.289352 0.072338 0.144676 0.144676 0.144676 0.072338 0.144676 0.144676 0.289352 0.289352 0.289352 0.072338 0.144676 0.144676 0.144676 0.072338 0.144676 0.144676 0.289352 0.289352 0.289352 0.0723379 0.144676 0.144676 0.144676 0.0723379 0.144676 0.144676 0.289352 0.289352 0.289352 0.0723379 0.144676 0.144676 0.144676 0.0723379 0.144676 0.144676 0.289352 0.289352 0.289352 0.072338 0.144676 0.144676 0.144676 0.072338 0.144676 0.144676 0.289352 0.289352 0.289352 0.072338 0.144676 0.144676 0.144676 0.072338 0.144676 0.144676 0.289352 0.289352 0.289352 0.072338 0.144676 0.144676 0.144676 0.072338 0.144676 0.144676 0.289352 0.289352 0.289352 0.0723379 0.144676 0.144676 0.144676 0.0723379 0.144676 0.144676 0.289352 0.289352 0.289352 0.072338 0.144676 0.144676 0.144676 0.072338 0.144676 0.144676 0.289352 0.289352 0.289352 0.072338 0.144676 0.144676 0.144676 0.072338 0.144676 0.144676 0.289352 0.289352 0.289352 0.0723379 0.144676 0.144676 0.144676 0.0723379 0.144676 0.144676 0.289352 0.289352 0.289352 0.0723379 0.144676 0.144676 0.144676 0.0723379 0.144676 0.144676 0.289352 0.289352 0.289352 0.0723379 0.144676 0.144676 0.144676 0.0723379 0.144676 0.144676 0.289352 0.289352 0.289352 0.072338 0.144676 0.144676 0.144676 0.072338 0.144676 0.144676 0.289352 0.289352 0.289352 0.0723379 0.144676 0.144676 0.144676 0.0723379 0.144676 0.144676 0.289352 0.289352 0.289352 0.0723379 0.144676 0.144676 0.144676 0.0723379 0.072338 0.144676 0.144676 0.144676 0.289352 0.072338 0.072338 0.144676 0.144676 0.072338 0.289352 0.144676 0.289352 0.289352 0.144676 0.144676 0.144676 0.072338 0.144676 0.072338 0.289352 0.289352 0.289352 0.144676 0.144676 0.144676 0.072338 0.289352 0.289352 0.289352 0.144676 0.144676 0.144676 0.072338 0.289352 0.289352 0.289352 0.144676 0.144676 0.144676 0.0723379 0.289352 0.289352 0.289352 0.144676 0.144676 0.144676 0.072338 0.289352 0.289352 0.289352 0.144676 0.144676 0.144676 0.072338 0.289352 0.289352 0.289352 0.144676 0.144676 0.144676 0.072338 0.289352 0.289352 0.289352 0.144676 0.144676 0.144676 0.072338 0.289352 0.289352 0.289352 0.144676 0.144676 0.144676 0.072338 0.289352 0.289352 0.289352 0.144676 0.144676 0.144676 0.0723379 0.289352 0.289352 0.289352 0.144676 0.144676 0.144676 0.0723379 0.289352 0.289352 0.289352 0.144676 0.144676 0.144676 0.072338 0.289352 0.289352 0.289352 0.144676 0.144676 0.144676 0.072338 0.289352 0.289352 0.289352 0.144676 0.144676 0.144676 0.072338 0.289352 0.289352 0.289352 0.144676 0.144676 0.144676 0.0723379 0.289352 0.289352 0.289352 0.144676 0.144676 0.144676 0.072338 0.289352 0.289352 0.289352 0.144676 0.144676 0.144676 0.072338 0.289352 0.289352 0.289352 0.144676 0.144676 0.144676 0.0723379 0.289352 0.289352 0.289352 0.144676 0.144676 0.144676 0.0723379 0.289352 0.289352 0.289352 0.144676 0.144676 0.144676 0.0723379 0.289352 0.289352 0.289352 0.144676 0.144676 0.144676 0.072338 0.289352 0.289352 0.289352 0.144676 0.144676 0.144676 0.0723379 0.289352 0.289352 0.289352 0.144676 0.144676 0.144676 0.0723379 0.144676 0.144676 0.289352 0.072338 0.144676 0.144676 0.072338 0.289352 0.144676 0.289352 0.289352 0.144676 0.144676 0.144676 0.072338 0.144676 0.072338 0.289352 0.289352 0.289352 0.144676 0.144676 0.144676 0.072338 0.289352 0.289352 0.289352 0.144676 0.144676 0.144676 0.072338 0.289352 0.289352 0.289352 0.144676 0.144676 0.144676 0.072338 0.289352 0.289352 0.289352 0.144676 0.144676 0.144676 0.072338 0.289352 0.289352 0.289352 0.144676 0.144676 0.144676 0.072338 0.289352 0.289352 0.289352 0.144676 0.144676 0.144676 0.072338 0.289352 0.289352 0.289352 0.144676 0.144676 0.144676 0.072338 0.289352 0.289352 0.289352 0.144676 0.144676 0.144676 0.072338 0.289352 0.289352 0.289352 0.144676 0.144676 0.144676 0.0723379 0.289352 0.289352 0.289352 0.144676 0.144676 0.144676 0.0723379 0.289352 0.289352 0.289352 0.144676 0.144676 0.144676 0.072338 0.289352 0.289352 0.289352 0.144676 0.144676 0.144676 0.072338 0.289352 0.289352 0.289352 0.144676 0.144676 0.144676 0.072338 0.289352 0.289352 0.289352 0.144676 0.144676 0.144676 0.0723379 0.289352 0.289352 0.289352 0.144676 0.144676 0.144676 0.072338 0.289352 0.289352 0.289352 0.144676 0.144676 0.144676 0.072338 0.289352 0.289352 0.289352 0.144676 0.144676 0.144676 0.0723379 0.289352 0.289352 0.289352 0.144676 0.144676 0.144676 0.0723379 0.289352 0.289352 0.289352 0.144676 0.144676 0.144676 0.0723379 0.289352 0.289352 0.289352 0.144676 0.144676 0.144676 0.072338 0.289352 0.289352 0.289352 0.144676 0.144676 0.144676 0.0723379 0.289352 0.289352 0.289352 0.144676 0.144676 0.144676 0.0723379 0.144676 0.144676 0.289352 0.072338 0.144676 0.144676 0.072338 0.289352 0.144676 0.289352 0.289352 0.144676 0.144676 0.144676 0.0723379 0.144676 0.0723379 0.289352 0.289352 0.289352 0.144676 0.144676 0.144676 0.072338 0.289352 0.289352 0.289352 0.144676 0.144676 0.144676 0.072338 0.289352 0.289352 0.289352 0.144676 0.144676 0.144676 0.0723379 0.289352 0.289352 0.289352 0.144676 0.144676 0.144676 0.0723379 0.289352 0.289352 0.289352 0.144676 0.144676 0.144676 0.072338 0.289352 0.289352 0.289352 0.144676 0.144676 0.144676 0.072338 0.289352 0.289352 0.289352 0.144676 0.144676 0.144676 0.0723379 0.289352 0.289352 0.289352 0.144676 0.144676 0.144676 0.0723379 0.289352 0.289352 0.289352 0.144676 0.144676 0.144676 0.0723379 0.289352 0.289352 0.289352 0.144676 0.144676 0.144676 0.0723379 0.289352 0.289352 0.289352 0.144676 0.144676 0.144676 0.072338 0.289352 0.289352 0.289352 0.144676 0.144676 0.144676 0.0723379 0.289352 0.289352 0.289352 0.144676 0.144676 0.144676 0.072338 0.289352 0.289352 0.289352 0.144676 0.144676 0.144676 0.0723379 0.289352 0.289352 0.289352 0.144676 0.144676 0.144676 0.072338 0.289352 0.289352 0.289352 0.144676 0.144676 0.144676 0.072338 0.289352 0.289352 0.289352 0.144676 0.144676 0.144676 0.0723379 0.289352 0.289352 0.289352 0.144676 0.144676 0.144676 0.0723379 0.289352 0.289352 0.289352 0.144676 0.144676 0.144676 0.0723379 0.289352 0.289352 0.289352 0.144676 0.144676 0.144676 0.072338 0.289352 0.289352 0.289352 0.144676 0.144676 0.144676 0.0723379 0.289352 0.289352 0.289352 0.144676 0.144676 0.144676 0.0723379 0.144676 0.144676 0.289352 0.072338 0.144676 0.144676 0.072338 0.289352 0.144676 0.289352 0.289352 0.144676 0.144676 0.144676 0.072338 0.144676 0.072338 0.289352 0.289352 0.289352 0.144676 0.144676 0.144676 0.072338 0.289352 0.289352 0.289352 0.144676 0.144676 0.144676 0.072338 0.289352 0.289352 0.289352 0.144676 0.144676 0.144676 0.0723379 0.289352 0.289352 0.289352 0.144676 0.144676 0.144676 0.0723379 0.289352 0.289352 0.289352 0.144676 0.144676 0.144676 0.072338 0.289352 0.289352 0.289352 0.144676 0.144676 0.144676 0.072338 0.289352 0.289352 0.289352 0.144676 0.144676 0.144676 0.0723379 0.289352 0.289352 0.289352 0.144676 0.144676 0.144676 0.0723379 0.289352 0.289352 0.289352 0.144676 0.144676 0.144676 0.0723379 0.289352 0.289352 0.289352 0.144676 0.144676 0.144676 0.0723379 0.289352 0.289352 0.289352 0.144676 0.144676 0.144676 0.072338 0.289352 0.289352 0.289352 0.144676 0.144676 0.144676 0.0723379 0.289352 0.289352 0.289352 0.144676 0.144676 0.144676 0.072338 0.289352 0.289352 0.289352 0.144676 0.144676 0.144676 0.0723379 0.289352 0.289352 0.289352 0.144676 0.144676 0.144676 0.072338 0.289352 0.289352 0.289352 0.144676 0.144676 0.144676 0.072338 0.289352 0.289352 0.289352 0.144676 0.144676 0.144676 0.0723379 0.289352 0.289352 0.289352 0.144676 0.144676 0.144676 0.0723379 0.289352 0.289352 0.289352 0.144676 0.144676 0.144676 0.0723379 0.289352 0.289352 0.289352 0.144676 0.144676 0.144676 0.072338 0.289352 0.289352 0.289352 0.144676 0.144676 0.144676 0.0723379 0.289352 0.289352 0.289352 0.144676 0.144676 0.144676 0.0723379 0.144676 0.144676 0.289352 0.072338 0.144676 0.144676 0.072338 0.289352 0.144676 0.289352 0.289352 0.144676 0.144676 0.144676 0.072338 0.144676 0.072338 0.289352 0.289352 0.289352 0.144676 0.144676 0.144676 0.072338 0.289352 0.289352 0.289352 0.144676 0.144676 0.144676 0.072338 0.289352 0.289352 0.289352 0.144676 0.144676 0.144676 0.0723379 0.289352 0.289352 0.289352 0.144676 0.144676 0.144676 0.0723379 0.289352 0.289352 0.289352 0.144676 0.144676 0.144676 0.072338 0.289352 0.289352 0.289352 0.144676 0.144676 0.144676 0.072338 0.289352 0.289352 0.289352 0.144676 0.144676 0.144676 0.0723379 0.289352 0.289352 0.289352 0.144676 0.144676 0.144676 0.072338 0.289352 0.289352 0.289352 0.144676 0.144676 0.144676 0.0723379 0.289352 0.289352 0.289352 0.144676 0.144676 0.144676 0.0723379 0.289352 0.289352 0.289352 0.144676 0.144676 0.144676 0.072338 0.289352 0.289352 0.289352 0.144676 0.144676 0.144676 0.072338 0.289352 0.289352 0.289352 0.144676 0.144676 0.144676 0.072338 0.289352 0.289352 0.289352 0.144676 0.144676 0.144676 0.0723379 0.289352 0.289352 0.289352 0.144676 0.144676 0.144676 0.072338 0.289352 0.289352 0.289352 0.144676 0.144676 0.144676 0.072338 0.289352 0.289352 0.289352 0.144676 0.144676 0.144676 0.0723379 0.289352 0.289352 0.289352 0.144676 0.144676 0.144676 0.0723379 0.289352 0.289352 0.289352 0.144676 0.144676 0.144676 0.0723379 0.289352 0.289352 0.289352 0.144676 0.144676 0.144676 0.072338 0.289352 0.289352 0.289352 0.144676 0.144676 0.144676 0.0723379 0.289352 0.289352 0.289352 0.144676 0.144676 0.144676 0.0723379 0.144676 0.144676 0.289352 0.072338 0.144676 0.144676 0.072338 0.289352 0.144676 0.289352 0.289352 0.144676 0.144676 0.144676 0.072338 0.144676 0.072338 0.289352 0.289352 0.289352 0.144676 0.144676 0.144676 0.072338 0.289352 0.289352 0.289352 0.144676 0.144676 0.144676 0.072338 0.289352 0.289352 0.289352 0.144676 0.144676 0.144676 0.072338 0.289352 0.289352 0.289352 0.144676 0.144676 0.144676 0.072338 0.289352 0.289352 0.289352 0.144676 0.144676 0.144676 0.072338 0.289352 0.289352 0.289352 0.144676 0.144676 0.144676 0.072338 0.289352 0.289352 0.289352 0.144676 0.144676 0.144676 0.072338 0.289352 0.289352 0.289352 0.144676 0.144676 0.144676 0.072338 0.289352 0.289352 0.289352 0.144676 0.144676 0.144676 0.0723379 0.289352 0.289352 0.289352 0.144676 0.144676 0.144676 0.0723379 0.289352 0.289352 0.289352 0.144676 0.144676 0.144676 0.072338 0.289352 0.289352 0.289352 0.144676 0.144676 0.144676 0.072338 0.289352 0.289352 0.289352 0.144676 0.144676 0.144676 0.072338 0.289352 0.289352 0.289352 0.144676 0.144676 0.144676 0.0723379 0.289352 0.289352 0.289352 0.144676 0.144676 0.144676 0.072338 0.289352 0.289352 0.289352 0.144676 0.144676 0.144676 0.072338 0.289352 0.289352 0.289352 0.144676 0.144676 0.144676 0.0723379 0.289352 0.289352 0.289352 0.144676 0.144676 0.144676 0.0723379 0.289352 0.289352 0.289352 0.144676 0.144676 0.144676 0.0723379 0.289352 0.289352 0.289352 0.144676 0.144676 0.144676 0.072338 0.289352 0.289352 0.289352 0.144676 0.144676 0.144676 0.0723379 0.289352 0.289352 0.289352 0.144676 0.144676 0.144676 0.0723379 0.144676 0.144676 0.289352 0.072338 0.144676 0.144676 0.072338 0.289352 0.144676 0.144676 0.144676 0.0723379 0.144676 0.144676 0.0723379 0.0723379 0.0723379 0.289352 0.144676 0.144676 0.144676 0.144676 0.0723379 0.0723379 0.289352 0.144676 0.144676 0.144676 0.144676 0.072338 0.072338 0.289352 0.144676 0.144676 0.144676 0.144676 0.0723379 0.0723379 0.289352 0.144676 0.144676 0.144676 0.144676 0.0723379 0.0723379 0.289352 0.144676 0.144676 0.144676 0.144676 0.0723379 0.0723379 0.289352 0.144676 0.144676 0.144676 0.144676 0.0723379 0.0723379 0.289352 0.144676 0.144676 0.144676 0.144676 0.0723379 0.0723379 0.289352 0.144676 0.144676 0.144676 0.144676 0.0723379 0.0723379 0.289352 0.144676 0.144676 0.144676 0.144676 0.0723379 0.0723379 0.289352 0.144676 0.144676 0.144676 0.144676 0.0723379 0.0723379 0.289352 0.144676 0.144676 0.144676 0.144676 0.0723379 0.0723379 0.289352 0.144676 0.144676 0.144676 0.144676 0.0723379 0.0723379 0.289352 0.144676 0.144676 0.144676 0.144676 0.072338 0.072338 0.289352 0.144676 0.144676 0.144676 0.144676 0.0723379 0.0723379 0.289352 0.144676 0.144676 0.144676 0.144676 0.072338 0.072338 0.289352 0.144676 0.144676 0.144676 0.144676 0.0723379 0.0723379 0.289352 0.144676 0.144676 0.144676 0.144676 0.0723379 0.0723379 0.289352 0.144676 0.144676 0.144676 0.144676 0.0723379 0.0723379 0.289352 0.144676 0.144676 0.144676 0.144676 0.0723379 0.0723379 0.289352 0.144676 0.144676 0.144676 0.144676 0.072338 0.072338 0.289352 0.144676 0.144676 0.144676 0.144676 0.0723379 0.0723379 0.289352 0.144676 0.144676 0.144676 0.144676 0.0723379 0.0723379 0.144676 0.072338 0.144676 0.072338 0.144676 0.072338 0.072338 0.144676 0.144676 0.072338 0.289352 0.144676 0.289352 0.289352 0.144676 0.072338 0.144676 0.144676 0.072338 0.144676 0.072338 0.144676 0.144676 0.289352 0.289352 0.289352 0.072338 0.144676 0.144676 0.144676 0.072338 0.144676 0.144676 0.289352 0.289352 0.289352 0.072338 0.144676 0.144676 0.144676 0.072338 0.144676 0.144676 0.289352 0.289352 0.289352 0.072338 0.144676 0.144676 0.144676 0.072338 0.144676 0.144676 0.289352 0.289352 0.289352 0.072338 0.144676 0.144676 0.144676 0.072338 0.144676 0.144676 0.289352 0.289352 0.289352 0.072338 0.144676 0.144676 0.144676 0.072338 0.144676 0.144676 0.289352 0.289352 0.289352 0.072338 0.144676 0.144676 0.144676 0.072338 0.144676 0.144676 0.289352 0.289352 0.289352 0.072338 0.144676 0.144676 0.144676 0.072338 0.144676 0.144676 0.289352 0.289352 0.289352 0.072338 0.144676 0.144676 0.144676 0.072338 0.144676 0.144676 0.289352 0.289352 0.289352 0.0723379 0.144676 0.144676 0.144676 0.0723379 0.144676 0.144676 0.289352 0.289352 0.289352 0.0723379 0.144676 0.144676 0.144676 0.0723379 0.144676 0.144676 0.289352 0.289352 0.289352 0.072338 0.144676 0.144676 0.144676 0.072338 0.144676 0.144676 0.289352 0.289352 0.289352 0.072338 0.144676 0.144676 0.144676 0.072338 0.144676 0.144676 0.289352 0.289352 0.289352 0.072338 0.144676 0.144676 0.144676 0.072338 0.144676 0.144676 0.289352 0.289352 0.289352 0.0723379 0.144676 0.144676 0.144676 0.0723379 0.144676 0.144676 0.289352 0.289352 0.289352 0.072338 0.144676 0.144676 0.144676 0.072338 0.144676 0.144676 0.289352 0.289352 0.289352 0.072338 0.144676 0.144676 0.144676 0.072338 0.144676 0.144676 0.289352 0.289352 0.289352 0.0723379 0.144676 0.144676 0.144676 0.0723379 0.144676 0.144676 0.289352 0.289352 0.289352 0.0723379 0.144676 0.144676 0.144676 0.0723379 0.144676 0.144676 0.289352 0.289352 0.289352 0.0723379 0.144676 0.144676 0.144676 0.0723379 0.144676 0.144676 0.289352 0.289352 0.289352 0.072338 0.144676 0.144676 0.144676 0.072338 0.144676 0.144676 0.289352 0.289352 0.289352 0.072338 0.144676 0.144676 0.144676 0.072338 0.144676 0.144676 0.289352 0.289352 0.289352 0.0723379 0.144676 0.144676 0.144676 0.0723379 0.072338 0.144676 0.144676 0.144676 0.289352 0.072338 0.072338 0.144676 0.144676 0.072338 0.289352 0.144676 0.289352 0.289352 0.144676 0.144676 0.144676 0.072338 0.144676 0.072338 0.289352 0.289352 0.289352 0.144676 0.144676 0.144676 0.072338 0.289352 0.289352 0.289352 0.144676 0.144676 0.144676 0.072338 0.289352 0.289352 0.289352 0.144676 0.144676 0.144676 0.072338 0.289352 0.289352 0.289352 0.144676 0.144676 0.144676 0.072338 0.289352 0.289352 0.289352 0.144676 0.144676 0.144676 0.072338 0.289352 0.289352 0.289352 0.144676 0.144676 0.144676 0.072338 0.289352 0.289352 0.289352 0.144676 0.144676 0.144676 0.072338 0.289352 0.289352 0.289352 0.144676 0.144676 0.144676 0.072338 0.289352 0.289352 0.289352 0.144676 0.144676 0.144676 0.0723379 0.289352 0.289352 0.289352 0.144676 0.144676 0.144676 0.0723379 0.289352 0.289352 0.289352 0.144676 0.144676 0.144676 0.072338 0.289352 0.289352 0.289352 0.144676 0.144676 0.144676 0.072338 0.289352 0.289352 0.289352 0.144676 0.144676 0.144676 0.072338 0.289352 0.289352 0.289352 0.144676 0.144676 0.144676 0.0723379 0.289352 0.289352 0.289352 0.144676 0.144676 0.144676 0.072338 0.289352 0.289352 0.289352 0.144676 0.144676 0.144676 0.072338 0.289352 0.289352 0.289352 0.144676 0.144676 0.144676 0.0723379 0.289352 0.289352 0.289352 0.144676 0.144676 0.144676 0.0723379 0.289352 0.289352 0.289352 0.144676 0.144676 0.144676 0.0723379 0.289352 0.289352 0.289352 0.144676 0.144676 0.144676 0.072338 0.289352 0.289352 0.289352 0.144676 0.144676 0.144676 0.072338 0.289352 0.289352 0.289352 0.144676 0.144676 0.144676 0.0723379 0.144676 0.144676 0.289352 0.072338 0.144676 0.144676 0.072338 0.289352 0.144676 0.289352 0.289352 0.144676 0.144676 0.144676 0.072338 0.144676 0.072338 0.289352 0.289352 0.289352 0.144676 0.144676 0.144676 0.072338 0.289352 0.289352 0.289352 0.144676 0.144676 0.144676 0.072338 0.289352 0.289352 0.289352 0.144676 0.144676 0.144676 0.072338 0.289352 0.289352 0.289352 0.144676 0.144676 0.144676 0.072338 0.289352 0.289352 0.289352 0.144676 0.144676 0.144676 0.072338 0.289352 0.289352 0.289352 0.144676 0.144676 0.144676 0.072338 0.289352 0.289352 0.289352 0.144676 0.144676 0.144676 0.072338 0.289352 0.289352 0.289352 0.144676 0.144676 0.144676 0.072338 0.289352 0.289352 0.289352 0.144676 0.144676 0.144676 0.0723379 0.289352 0.289352 0.289352 0.144676 0.144676 0.144676 0.0723379 0.289352 0.289352 0.289352 0.144676 0.144676 0.144676 0.072338 0.289352 0.289352 0.289352 0.144676 0.144676 0.144676 0.072338 0.289352 0.289352 0.289352 0.144676 0.144676 0.144676 0.072338 0.289352 0.289352 0.289352 0.144676 0.144676 0.144676 0.0723379 0.289352 0.289352 0.289352 0.144676 0.144676 0.144676 0.072338 0.289352 0.289352 0.289352 0.144676 0.144676 0.144676 0.072338 0.289352 0.289352 0.289352 0.144676 0.144676 0.144676 0.0723379 0.289352 0.289352 0.289352 0.144676 0.144676 0.144676 0.0723379 0.289352 0.289352 0.289352 0.144676 0.144676 0.144676 0.0723379 0.289352 0.289352 0.289352 0.144676 0.144676 0.144676 0.072338 0.289352 0.289352 0.289352 0.144676 0.144676 0.144676 0.072338 0.289352 0.289352 0.289352 0.144676 0.144676 0.144676 0.0723379 0.144676 0.144676 0.289352 0.072338 0.144676 0.144676 0.072338 0.289352 0.144676 0.289352 0.289352 0.144676 0.144676 0.144676 0.072338 0.144676 0.072338 0.289352 0.289352 0.289352 0.144676 0.144676 0.144676 0.072338 0.289352 0.289352 0.289352 0.144676 0.144676 0.144676 0.072338 0.289352 0.289352 0.289352 0.144676 0.144676 0.144676 0.0723379 0.289352 0.289352 0.289352 0.144676 0.144676 0.144676 0.0723379 0.289352 0.289352 0.289352 0.144676 0.144676 0.144676 0.072338 0.289352 0.289352 0.289352 0.144676 0.144676 0.144676 0.072338 0.289352 0.289352 0.289352 0.144676 0.144676 0.144676 0.0723379 0.289352 0.289352 0.289352 0.144676 0.144676 0.144676 0.072338 0.289352 0.289352 0.289352 0.144676 0.144676 0.144676 0.0723379 0.289352 0.289352 0.289352 0.144676 0.144676 0.144676 0.0723379 0.289352 0.289352 0.289352 0.144676 0.144676 0.144676 0.072338 0.289352 0.289352 0.289352 0.144676 0.144676 0.144676 0.0723379 0.289352 0.289352 0.289352 0.144676 0.144676 0.144676 0.072338 0.289352 0.289352 0.289352 0.144676 0.144676 0.144676 0.0723379 0.289352 0.289352 0.289352 0.144676 0.144676 0.144676 0.072338 0.289352 0.289352 0.289352 0.144676 0.144676 0.144676 0.072338 0.289352 0.289352 0.289352 0.144676 0.144676 0.144676 0.0723379 0.289352 0.289352 0.289352 0.144676 0.144676 0.144676 0.0723379 0.289352 0.289352 0.289352 0.144676 0.144676 0.144676 0.0723379 0.289352 0.289352 0.289352 0.144676 0.144676 0.144676 0.072338 0.289352 0.289352 0.289352 0.144676 0.144676 0.144676 0.0723379 0.289352 0.289352 0.289352 0.144676 0.144676 0.144676 0.0723379 0.144676 0.144676 0.289352 0.072338 0.144676 0.144676 0.072338 0.289352 0.144676 0.289352 0.289352 0.144676 0.144676 0.144676 0.072338 0.144676 0.072338 0.289352 0.289352 0.289352 0.144676 0.144676 0.144676 0.072338 0.289352 0.289352 0.289352 0.144676 0.144676 0.144676 0.072338 0.289352 0.289352 0.289352 0.144676 0.144676 0.144676 0.0723379 0.289352 0.289352 0.289352 0.144676 0.144676 0.144676 0.072338 0.289352 0.289352 0.289352 0.144676 0.144676 0.144676 0.072338 0.289352 0.289352 0.289352 0.144676 0.144676 0.144676 0.072338 0.289352 0.289352 0.289352 0.144676 0.144676 0.144676 0.072338 0.289352 0.289352 0.289352 0.144676 0.144676 0.144676 0.072338 0.289352 0.289352 0.289352 0.144676 0.144676 0.144676 0.0723379 0.289352 0.289352 0.289352 0.144676 0.144676 0.144676 0.0723379 0.289352 0.289352 0.289352 0.144676 0.144676 0.144676 0.072338 0.289352 0.289352 0.289352 0.144676 0.144676 0.144676 0.0723379 0.289352 0.289352 0.289352 0.144676 0.144676 0.144676 0.072338 0.289352 0.289352 0.289352 0.144676 0.144676 0.144676 0.0723379 0.289352 0.289352 0.289352 0.144676 0.144676 0.144676 0.072338 0.289352 0.289352 0.289352 0.144676 0.144676 0.144676 0.072338 0.289352 0.289352 0.289352 0.144676 0.144676 0.144676 0.0723379 0.289352 0.289352 0.289352 0.144676 0.144676 0.144676 0.0723379 0.289352 0.289352 0.289352 0.144676 0.144676 0.144676 0.0723379 0.289352 0.289352 0.289352 0.144676 0.144676 0.144676 0.072338 0.289352 0.289352 0.289352 0.144676 0.144676 0.144676 0.0723379 0.289352 0.289352 0.289352 0.144676 0.144676 0.144676 0.0723379 0.144676 0.144676 0.289352 0.072338 0.144676 0.144676 0.072338 0.289352 0.144676 0.289352 0.289352 0.144676 0.144676 0.144676 0.072338 0.144676 0.072338 0.289352 0.289352 0.289352 0.144676 0.144676 0.144676 0.072338 0.289352 0.289352 0.289352 0.144676 0.144676 0.144676 0.072338 0.289352 0.289352 0.289352 0.144676 0.144676 0.144676 0.072338 0.289352 0.289352 0.289352 0.144676 0.144676 0.144676 0.072338 0.289352 0.289352 0.289352 0.144676 0.144676 0.144676 0.072338 0.289352 0.289352 0.289352 0.144676 0.144676 0.144676 0.072338 0.289352 0.289352 0.289352 0.144676 0.144676 0.144676 0.072338 0.289352 0.289352 0.289352 0.144676 0.144676 0.144676 0.072338 0.289352 0.289352 0.289352 0.144676 0.144676 0.144676 0.0723379 0.289352 0.289352 0.289352 0.144676 0.144676 0.144676 0.0723379 0.289352 0.289352 0.289352 0.144676 0.144676 0.144676 0.072338 0.289352 0.289352 0.289352 0.144676 0.144676 0.144676 0.072338 0.289352 0.289352 0.289352 0.144676 0.144676 0.144676 0.072338 0.289352 0.289352 0.289352 0.144676 0.144676 0.144676 0.0723379 0.289352 0.289352 0.289352 0.144676 0.144676 0.144676 0.072338 0.289352 0.289352 0.289352 0.144676 0.144676 0.144676 0.072338 0.289352 0.289352 0.289352 0.144676 0.144676 0.144676 0.0723379 0.289352 0.289352 0.289352 0.144676 0.144676 0.144676 0.0723379 0.289352 0.289352 0.289352 0.144676 0.144676 0.144676 0.0723379 0.289352 0.289352 0.289352 0.144676 0.144676 0.144676 0.072338 0.289352 0.289352 0.289352 0.144676 0.144676 0.144676 0.0723379 0.289352 0.289352 0.289352 0.144676 0.144676 0.144676 0.0723379 0.144676 0.144676 0.289352 0.072338 0.144676 0.144676 0.072338 0.289352 0.144676 0.289352 0.289352 0.144676 0.144676 0.144676 0.072338 0.144676 0.072338 0.289352 0.289352 0.289352 0.144676 0.144676 0.144676 0.072338 0.289352 0.289352 0.289352 0.144676 0.144676 0.144676 0.072338 0.289352 0.289352 0.289352 0.144676 0.144676 0.144676 0.072338 0.289352 0.289352 0.289352 0.144676 0.144676 0.144676 0.072338 0.289352 0.289352 0.289352 0.144676 0.144676 0.144676 0.072338 0.289352 0.289352 0.289352 0.144676 0.144676 0.144676 0.072338 0.289352 0.289352 0.289352 0.144676 0.144676 0.144676 0.072338 0.289352 0.289352 0.289352 0.144676 0.144676 0.144676 0.072338 0.289352 0.289352 0.289352 0.144676 0.144676 0.144676 0.0723379 0.289352 0.289352 0.289352 0.144676 0.144676 0.144676 0.0723379 0.289352 0.289352 0.289352 0.144676 0.144676 0.144676 0.072338 0.289352 0.289352 0.289352 0.144676 0.144676 0.144676 0.072338 0.289352 0.289352 0.289352 0.144676 0.144676 0.144676 0.072338 0.289352 0.289352 0.289352 0.144676 0.144676 0.144676 0.0723379 0.289352 0.289352 0.289352 0.144676 0.144676 0.144676 0.072338 0.289352 0.289352 0.289352 0.144676 0.144676 0.144676 0.072338 0.289352 0.289352 0.289352 0.144676 0.144676 0.144676 0.0723379 0.289352 0.289352 0.289352 0.144676 0.144676 0.144676 0.0723379 0.289352 0.289352 0.289352 0.144676 0.144676 0.144676 0.0723379 0.289352 0.289352 0.289352 0.144676 0.144676 0.144676 0.072338 0.289352 0.289352 0.289352 0.144676 0.144676 0.144676 0.0723379 0.289352 0.289352 0.289352 0.144676 0.144676 0.144676 0.0723379 0.144676 0.144676 0.289352 0.072338 0.144676 0.144676 0.072338 0.289352 0.144676 0.144676 0.144676 0.072338 0.144676 0.144676 0.072338 0.072338 0.072338 0.289352 0.144676 0.144676 0.144676 0.144676 0.072338 0.072338 0.289352 0.144676 0.144676 0.144676 0.144676 0.072338 0.072338 0.289352 0.144676 0.144676 0.144676 0.144676 0.0723379 0.0723379 0.289352 0.144676 0.144676 0.144676 0.144676 0.0723379 0.0723379 0.289352 0.144676 0.144676 0.144676 0.144676 0.072338 0.072338 0.289352 0.144676 0.144676 0.144676 0.144676 0.0723379 0.0723379 0.289352 0.144676 0.144676 0.144676 0.144676 0.0723379 0.0723379 0.289352 0.144676 0.144676 0.144676 0.144676 0.072338 0.072338 0.289352 0.144676 0.144676 0.144676 0.144676 0.0723379 0.0723379 0.289352 0.144676 0.144676 0.144676 0.144676 0.0723379 0.0723379 0.289352 0.144676 0.144676 0.144676 0.144676 0.0723379 0.0723379 0.289352 0.144676 0.144676 0.144676 0.144676 0.0723379 0.0723379 0.289352 0.144676 0.144676 0.144676 0.144676 0.072338 0.072338 0.289352 0.144676 0.144676 0.144676 0.144676 0.0723379 0.0723379 0.289352 0.144676 0.144676 0.144676 0.144676 0.072338 0.072338 0.289352 0.144676 0.144676 0.144676 0.144676 0.0723379 0.0723379 0.289352 0.144676 0.144676 0.144676 0.144676 0.0723379 0.0723379 0.289352 0.144676 0.144676 0.144676 0.144676 0.0723379 0.0723379 0.289352 0.144676 0.144676 0.144676 0.144676 0.0723379 0.0723379 0.289352 0.144676 0.144676 0.144676 0.144676 0.072338 0.072338 0.289352 0.144676 0.144676 0.144676 0.144676 0.0723379 0.0723379 0.289352 0.144676 0.144676 0.144676 0.144676 0.0723379 0.0723379 0.144676 0.072338 0.144676 0.072338 0.144676 0.072338 0.072338 0.144676 0.144676 0.0723379 0.289352 0.144676 0.289352 0.289352 0.144676 0.0723379 0.144676 0.144676 0.0723379 0.144676 0.0723379 0.144676 0.144676 0.289352 0.289352 0.289352 0.0723379 0.144676 0.144676 0.144676 0.0723379 0.144676 0.144676 0.289352 0.289352 0.289352 0.0723379 0.144676 0.144676 0.144676 0.0723379 0.144676 0.144676 0.289352 0.289352 0.289352 0.0723379 0.144676 0.144676 0.144676 0.0723379 0.144676 0.144676 0.289352 0.289352 0.289352 0.0723379 0.144676 0.144676 0.144676 0.0723379 0.144676 0.144676 0.289352 0.289352 0.289352 0.0723379 0.144676 0.144676 0.144676 0.0723379 0.144676 0.144676 0.289352 0.289352 0.289352 0.0723379 0.144676 0.144676 0.144676 0.0723379 0.144676 0.144676 0.289352 0.289352 0.289352 0.0723379 0.144676 0.144676 0.144676 0.0723379 0.144676 0.144676 0.289352 0.289352 0.289352 0.0723379 0.144676 0.144676 0.144676 0.0723379 0.144676 0.144676 0.289352 0.289352 0.289352 0.0723379 0.144676 0.144676 0.144676 0.0723379 0.144676 0.144676 0.289352 0.289352 0.289352 0.0723379 0.144676 0.144676 0.144676 0.0723379 0.144676 0.144676 0.289352 0.289352 0.289352 0.0723379 0.144676 0.144676 0.144676 0.0723379 0.144676 0.144676 0.289352 0.289352 0.289352 0.0723379 0.144676 0.144676 0.144676 0.0723379 0.144676 0.144676 0.289352 0.289352 0.289352 0.0723379 0.144676 0.144676 0.144676 0.0723379 0.144676 0.144676 0.289352 0.289352 0.289352 0.0723379 0.144676 0.144676 0.144676 0.0723379 0.144676 0.144676 0.289352 0.289352 0.289352 0.0723379 0.144676 0.144676 0.144676 0.0723379 0.144676 0.144676 0.289352 0.289352 0.289352 0.0723379 0.144676 0.144676 0.144676 0.0723379 0.144676 0.144676 0.289352 0.289352 0.289352 0.0723379 0.144676 0.144676 0.144676 0.0723379 0.144676 0.144676 0.289352 0.289352 0.289352 0.0723379 0.144676 0.144676 0.144676 0.0723379 0.144676 0.144676 0.289352 0.289352 0.289351 0.0723379 0.144676 0.144676 0.144676 0.0723379 0.144676 0.144676 0.289352 0.289352 0.289352 0.0723379 0.144676 0.144676 0.144676 0.0723379 0.144676 0.144676 0.289352 0.289352 0.289352 0.0723379 0.144676 0.144676 0.144676 0.0723379 0.144676 0.144676 0.289352 0.289352 0.289352 0.0723379 0.144676 0.144676 0.144676 0.0723379 0.0723379 0.144676 0.144676 0.144676 0.289352 0.0723379 0.0723379 0.144676 0.144676 0.0723379 0.289352 0.144676 0.289352 0.289352 0.144676 0.144676 0.144676 0.0723379 0.144676 0.0723379 0.289352 0.289352 0.289352 0.144676 0.144676 0.144676 0.0723379 0.289352 0.289352 0.289352 0.144676 0.144676 0.144676 0.0723379 0.289352 0.289352 0.289352 0.144676 0.144676 0.144676 0.0723379 0.289352 0.289352 0.289352 0.144676 0.144676 0.144676 0.0723379 0.289352 0.289352 0.289352 0.144676 0.144676 0.144676 0.0723379 0.289352 0.289352 0.289352 0.144676 0.144676 0.144676 0.0723379 0.289352 0.289352 0.289352 0.144676 0.144676 0.144676 0.0723379 0.289352 0.289352 0.289352 0.144676 0.144676 0.144676 0.0723379 0.289352 0.289352 0.289352 0.144676 0.144676 0.144676 0.0723379 0.289352 0.289352 0.289352 0.144676 0.144676 0.144676 0.0723379 0.289352 0.289352 0.289352 0.144676 0.144676 0.144676 0.0723379 0.289352 0.289352 0.289352 0.144676 0.144676 0.144676 0.0723379 0.289352 0.289352 0.289352 0.144676 0.144676 0.144676 0.0723379 0.289352 0.289352 0.289351 0.144676 0.144676 0.144676 0.0723379 0.289352 0.289352 0.289352 0.144676 0.144676 0.144676 0.0723379 0.289352 0.289352 0.289352 0.144676 0.144676 0.144676 0.0723379 0.289352 0.289352 0.289352 0.144676 0.144676 0.144676 0.0723379 0.289351 0.289351 0.289352 0.144676 0.144676 0.144676 0.0723379 0.289352 0.289352 0.289351 0.144676 0.144676 0.144676 0.0723379 0.289352 0.289352 0.289352 0.144676 0.144676 0.144676 0.0723379 0.289352 0.289352 0.289352 0.144676 0.144676 0.144676 0.0723379 0.289352 0.289352 0.289352 0.144676 0.144676 0.144676 0.0723379 0.144676 0.144676 0.289352 0.0723379 0.144676 0.144676 0.0723379 0.289352 0.144676 0.289352 0.289352 0.144676 0.144676 0.144676 0.0723379 0.144676 0.0723379 0.289352 0.289352 0.289352 0.144676 0.144676 0.144676 0.0723379 0.289352 0.289352 0.289352 0.144676 0.144676 0.144676 0.0723379 0.289352 0.289352 0.289352 0.144676 0.144676 0.144676 0.0723379 0.289352 0.289352 0.289352 0.144676 0.144676 0.144676 0.0723379 0.289352 0.289352 0.289352 0.144676 0.144676 0.144676 0.0723379 0.289352 0.289352 0.289352 0.144676 0.144676 0.144676 0.0723379 0.289352 0.289352 0.289352 0.144676 0.144676 0.144676 0.0723379 0.289352 0.289352 0.289352 0.144676 0.144676 0.144676 0.0723379 0.289352 0.289352 0.289352 0.144676 0.144676 0.144676 0.0723379 0.289352 0.289352 0.289352 0.144676 0.144676 0.144676 0.0723379 0.289352 0.289352 0.289352 0.144676 0.144676 0.144676 0.0723379 0.289352 0.289352 0.289352 0.144676 0.144676 0.144676 0.0723379 0.289352 0.289352 0.289352 0.144676 0.144676 0.144676 0.0723379 0.289352 0.289352 0.289351 0.144676 0.144676 0.144676 0.0723379 0.289352 0.289352 0.289352 0.144676 0.144676 0.144676 0.0723379 0.289352 0.289352 0.289352 0.144676 0.144676 0.144676 0.0723379 0.289352 0.289352 0.289352 0.144676 0.144676 0.144676 0.0723379 0.289351 0.289351 0.289352 0.144676 0.144676 0.144676 0.0723379 0.289352 0.289352 0.289351 0.144676 0.144676 0.144676 0.0723379 0.289352 0.289352 0.289352 0.144676 0.144676 0.144676 0.0723379 0.289352 0.289352 0.289352 0.144676 0.144676 0.144676 0.0723379 0.289352 0.289352 0.289352 0.144676 0.144676 0.144676 0.0723379 0.144676 0.144676 0.289352 0.0723379 0.144676 0.144676 0.0723379 0.289352 0.144676 0.289352 0.289352 0.144676 0.144676 0.144676 0.0723379 0.144676 0.0723379 0.289352 0.289352 0.289352 0.144676 0.144676 0.144676 0.0723379 0.289352 0.289352 0.289352 0.144676 0.144676 0.144676 0.0723379 0.289352 0.289352 0.289352 0.144676 0.144676 0.144676 0.0723379 0.289352 0.289352 0.289352 0.144676 0.144676 0.144676 0.0723379 0.289352 0.289352 0.289352 0.144676 0.144676 0.144676 0.0723379 0.289352 0.289352 0.289352 0.144676 0.144676 0.144676 0.0723379 0.289352 0.289352 0.289352 0.144676 0.144676 0.144676 0.0723379 0.289352 0.289352 0.289352 0.144676 0.144676 0.144676 0.0723379 0.289352 0.289352 0.289352 0.144676 0.144676 0.144676 0.0723379 0.289352 0.289352 0.289352 0.144676 0.144676 0.144676 0.0723379 0.289352 0.289352 0.289352 0.144676 0.144676 0.144676 0.0723379 0.289352 0.289352 0.289352 0.144676 0.144676 0.144676 0.0723379 0.289352 0.289352 0.289352 0.144676 0.144676 0.144676 0.0723379 0.289352 0.289352 0.289351 0.144676 0.144676 0.144676 0.0723379 0.289352 0.289352 0.289352 0.144676 0.144676 0.144676 0.0723379 0.289352 0.289352 0.289352 0.144676 0.144676 0.144676 0.0723379 0.289352 0.289352 0.289352 0.144676 0.144676 0.144676 0.0723379 0.289351 0.289351 0.289351 0.144676 0.144676 0.144676 0.0723379 0.289352 0.289352 0.289351 0.144676 0.144676 0.144676 0.0723379 0.289352 0.289352 0.289352 0.144676 0.144676 0.144676 0.0723379 0.289352 0.289352 0.289352 0.144676 0.144676 0.144676 0.0723379 0.289352 0.289352 0.289352 0.144676 0.144676 0.144676 0.0723379 0.144676 0.144676 0.289352 0.0723379 0.144676 0.144676 0.0723379 0.289352 0.144676 0.289352 0.289352 0.144676 0.144676 0.144676 0.0723379 0.144676 0.0723379 0.289352 0.289352 0.289352 0.144676 0.144676 0.144676 0.0723379 0.289352 0.289352 0.289352 0.144676 0.144676 0.144676 0.0723379 0.289352 0.289352 0.289352 0.144676 0.144676 0.144676 0.0723379 0.289352 0.289352 0.289352 0.144676 0.144676 0.144676 0.0723379 0.289352 0.289352 0.289352 0.144676 0.144676 0.144676 0.0723379 0.289352 0.289352 0.289352 0.144676 0.144676 0.144676 0.0723379 0.289352 0.289352 0.289352 0.144676 0.144676 0.144676 0.0723379 0.289352 0.289352 0.289352 0.144676 0.144676 0.144676 0.0723379 0.289352 0.289352 0.289352 0.144676 0.144676 0.144676 0.0723379 0.289352 0.289352 0.289352 0.144676 0.144676 0.144676 0.0723379 0.289352 0.289352 0.289352 0.144676 0.144676 0.144676 0.0723379 0.289352 0.289352 0.289352 0.144676 0.144676 0.144676 0.0723379 0.289352 0.289352 0.289352 0.144676 0.144676 0.144676 0.0723379 0.289352 0.289352 0.289351 0.144676 0.144676 0.144676 0.0723379 0.289352 0.289352 0.289352 0.144676 0.144676 0.144676 0.0723379 0.289352 0.289352 0.289352 0.144676 0.144676 0.144676 0.0723379 0.289352 0.289352 0.289352 0.144676 0.144676 0.144676 0.0723379 0.289351 0.289351 0.289352 0.144676 0.144676 0.144676 0.0723379 0.289352 0.289352 0.289351 0.144676 0.144676 0.144676 0.0723379 0.289352 0.289352 0.289352 0.144676 0.144676 0.144676 0.0723379 0.289352 0.289352 0.289352 0.144676 0.144676 0.144676 0.0723379 0.289352 0.289352 0.289352 0.144676 0.144676 0.144676 0.0723379 0.144676 0.144676 0.289352 0.0723379 0.144676 0.144676 0.0723379 0.289352 0.144676 0.289352 0.289352 0.144676 0.144676 0.144676 0.0723379 0.144676 0.0723379 0.289352 0.289352 0.289352 0.144676 0.144676 0.144676 0.0723379 0.289352 0.289352 0.289352 0.144676 0.144676 0.144676 0.0723379 0.289352 0.289352 0.289352 0.144676 0.144676 0.144676 0.0723379 0.289352 0.289352 0.289352 0.144676 0.144676 0.144676 0.0723379 0.289352 0.289352 0.289352 0.144676 0.144676 0.144676 0.0723379 0.289352 0.289352 0.289352 0.144676 0.144676 0.144676 0.0723379 0.289352 0.289352 0.289352 0.144676 0.144676 0.144676 0.0723379 0.289352 0.289352 0.289352 0.144676 0.144676 0.144676 0.0723379 0.289352 0.289352 0.289352 0.144676 0.144676 0.144676 0.0723379 0.289352 0.289352 0.289352 0.144676 0.144676 0.144676 0.0723379 0.289352 0.289352 0.289352 0.144676 0.144676 0.144676 0.0723379 0.289352 0.289352 0.289352 0.144676 0.144676 0.144676 0.0723379 0.289352 0.289352 0.289352 0.144676 0.144676 0.144676 0.0723379 0.289352 0.289352 0.289352 0.144676 0.144676 0.144676 0.0723379 0.289352 0.289352 0.289352 0.144676 0.144676 0.144676 0.0723379 0.289352 0.289352 0.289352 0.144676 0.144676 0.144676 0.0723379 0.289352 0.289352 0.289352 0.144676 0.144676 0.144676 0.0723379 0.289351 0.289352 0.289352 0.144676 0.144676 0.144676 0.0723379 0.289352 0.289352 0.289351 0.144676 0.144676 0.144676 0.0723379 0.289352 0.289352 0.289352 0.144676 0.144676 0.144676 0.0723379 0.289352 0.289352 0.289352 0.144676 0.144676 0.144676 0.0723379 0.289352 0.289352 0.289352 0.144676 0.144676 0.144676 0.0723379 0.144676 0.144676 0.289352 0.0723379 0.144676 0.144676 0.0723379 0.289352 0.144676 0.289352 0.289352 0.144676 0.144676 0.144676 0.0723379 0.144676 0.0723379 0.289352 0.289352 0.289352 0.144676 0.144676 0.144676 0.0723379 0.289352 0.289352 0.289352 0.144676 0.144676 0.144676 0.0723379 0.289352 0.289352 0.289352 0.144676 0.144676 0.144676 0.0723379 0.289352 0.289352 0.289352 0.144676 0.144676 0.144676 0.0723379 0.289352 0.289352 0.289352 0.144676 0.144676 0.144676 0.0723379 0.289352 0.289352 0.289352 0.144676 0.144676 0.144676 0.0723379 0.289352 0.289352 0.289352 0.144676 0.144676 0.144676 0.0723379 0.289352 0.289352 0.289352 0.144676 0.144676 0.144676 0.0723379 0.289352 0.289352 0.289352 0.144676 0.144676 0.144676 0.0723379 0.289352 0.289352 0.289352 0.144676 0.144676 0.144676 0.0723379 0.289352 0.289352 0.289352 0.144676 0.144676 0.144676 0.0723379 0.289352 0.289352 0.289352 0.144676 0.144676 0.144676 0.0723379 0.289352 0.289352 0.289352 0.144676 0.144676 0.144676 0.0723379 0.289352 0.289352 0.289351 0.144676 0.144676 0.144676 0.0723379 0.289352 0.289352 0.289352 0.144676 0.144676 0.144676 0.0723379 0.289352 0.289352 0.289352 0.144676 0.144676 0.144676 0.0723379 0.289352 0.289352 0.289352 0.144676 0.144676 0.144676 0.0723379 0.289352 0.289351 0.289352 0.144676 0.144676 0.144676 0.0723379 0.289352 0.289352 0.289351 0.144676 0.144676 0.144676 0.0723379 0.289352 0.289352 0.289352 0.144676 0.144676 0.144676 0.0723379 0.289352 0.289352 0.289352 0.144676 0.144676 0.144676 0.0723379 0.289352 0.289352 0.289352 0.144676 0.144676 0.144676 0.0723379 0.144676 0.144676 0.289352 0.0723379 0.144676 0.144676 0.0723379 0.289352 0.144676 0.144676 0.144676 0.0723379 0.144676 0.144676 0.0723379 0.0723379 0.0723379 0.289352 0.144676 0.144676 0.144676 0.144676 0.0723379 0.0723379 0.289352 0.144676 0.144676 0.144676 0.144676 0.0723379 0.0723379 0.289352 0.144676 0.144676 0.144676 0.144676 0.0723379 0.0723379 0.289352 0.144676 0.144676 0.144676 0.144676 0.0723379 0.0723379 0.289352 0.144676 0.144676 0.144676 0.144676 0.0723379 0.0723379 0.289352 0.144676 0.144676 0.144676 0.144676 0.0723379 0.0723379 0.289352 0.144676 0.144676 0.144676 0.144676 0.0723379 0.0723379 0.289352 0.144676 0.144676 0.144676 0.144676 0.0723379 0.0723379 0.289352 0.144676 0.144676 0.144676 0.144676 0.0723379 0.0723379 0.289352 0.144676 0.144676 0.144676 0.144676 0.0723379 0.0723379 0.289352 0.144676 0.144676 0.144676 0.144676 0.0723379 0.0723379 0.289352 0.144676 0.144676 0.144676 0.144676 0.0723379 0.0723379 0.289352 0.144676 0.144676 0.144676 0.144676 0.0723379 0.0723379 0.289352 0.144676 0.144676 0.144676 0.144676 0.0723379 0.0723379 0.289352 0.144676 0.144676 0.144676 0.144676 0.0723379 0.0723379 0.289352 0.144676 0.144676 0.144676 0.144676 0.0723379 0.0723379 0.289351 0.144676 0.144676 0.144676 0.144676 0.0723379 0.0723379 0.289351 0.144676 0.144676 0.144676 0.144676 0.0723379 0.0723379 0.289352 0.144676 0.144676 0.144676 0.144676 0.0723379 0.0723379 0.289352 0.144676 0.144676 0.144676 0.144676 0.0723379 0.0723379 0.289352 0.144676 0.144676 0.144676 0.144676 0.0723379 0.0723379 0.289352 0.144676 0.144676 0.144676 0.144676 0.0723379 0.0723379 0.144676 0.0723379 0.144676 0.0723379 0.144676 0.0723379 0.0723379 0.144676 0.144676 0.0723379 0.289352 0.144676 0.289352 0.289352 0.144676 0.0723379 0.144676 0.144676 0.0723379 0.144676 0.0723379 0.144676 0.144676 0.289352 0.289352 0.289352 0.0723379 0.144676 0.144676 0.144676 0.0723379 0.144676 0.144676 0.289352 0.289352 0.289352 0.0723379 0.144676 0.144676 0.144676 0.0723379 0.144676 0.144676 0.289352 0.289352 0.289352 0.0723379 0.144676 0.144676 0.144676 0.0723379 0.144676 0.144676 0.289352 0.289352 0.289352 0.0723379 0.144676 0.144676 0.144676 0.0723379 0.144676 0.144676 0.289352 0.289352 0.289352 0.0723379 0.144676 0.144676 0.144676 0.0723379 0.144676 0.144676 0.289352 0.289352 0.289352 0.0723379 0.144676 0.144676 0.144676 0.0723379 0.144676 0.144676 0.289352 0.289352 0.289352 0.0723379 0.144676 0.144676 0.144676 0.0723379 0.144676 0.144676 0.289352 0.289352 0.289352 0.0723379 0.144676 0.144676 0.144676 0.0723379 0.144676 0.144676 0.289352 0.289352 0.289352 0.0723379 0.144676 0.144676 0.144676 0.0723379 0.144676 0.144676 0.289352 0.289352 0.289352 0.0723379 0.144676 0.144676 0.144676 0.0723379 0.144676 0.144676 0.289352 0.289352 0.289352 0.0723379 0.144676 0.144676 0.144676 0.0723379 0.144676 0.144676 0.289352 0.289352 0.289352 0.0723379 0.144676 0.144676 0.144676 0.0723379 0.144676 0.144676 0.289352 0.289352 0.289352 0.0723379 0.144676 0.144676 0.144676 0.0723379 0.144676 0.144676 0.289352 0.289352 0.289352 0.0723379 0.144676 0.144676 0.144676 0.0723379 0.144676 0.144676 0.289352 0.289352 0.289352 0.0723379 0.144676 0.144676 0.144676 0.0723379 0.144676 0.144676 0.289352 0.289352 0.289352 0.0723379 0.144676 0.144676 0.144676 0.0723379 0.144676 0.144676 0.289352 0.289352 0.289352 0.0723379 0.144676 0.144676 0.144676 0.0723379 0.144676 0.144676 0.289352 0.289351 0.289352 0.0723379 0.144676 0.144676 0.144676 0.0723379 0.144676 0.144676 0.289352 0.289352 0.289352 0.0723379 0.144676 0.144676 0.144676 0.0723379 0.144676 0.144676 0.289352 0.289352 0.289352 0.0723379 0.144676 0.144676 0.144676 0.0723379 0.144676 0.144676 0.289352 0.289352 0.289352 0.0723379 0.144676 0.144676 0.144676 0.0723379 0.144676 0.144676 0.289352 0.289352 0.289352 0.0723379 0.144676 0.144676 0.144676 0.0723379 0.0723379 0.144676 0.144676 0.144676 0.289352 0.0723379 0.0723379 0.144676 0.144676 0.0723379 0.289352 0.144676 0.289352 0.289352 0.144676 0.144676 0.144676 0.0723379 0.144676 0.0723379 0.289352 0.289352 0.289352 0.144676 0.144676 0.144676 0.0723379 0.289352 0.289352 0.289352 0.144676 0.144676 0.144676 0.0723379 0.289352 0.289352 0.289352 0.144676 0.144676 0.144676 0.0723379 0.289352 0.289352 0.289352 0.144676 0.144676 0.144676 0.0723379 0.289352 0.289352 0.289352 0.144676 0.144676 0.144676 0.0723379 0.289352 0.289352 0.289352 0.144676 0.144676 0.144676 0.0723379 0.289352 0.289352 0.289352 0.144676 0.144676 0.144676 0.0723379 0.289352 0.289352 0.289352 0.144676 0.144676 0.144676 0.0723379 0.289352 0.289352 0.289352 0.144676 0.144676 0.144676 0.0723379 0.289352 0.289352 0.289352 0.144676 0.144676 0.144676 0.0723379 0.289352 0.289352 0.289352 0.144676 0.144676 0.144676 0.0723379 0.289352 0.289352 0.289352 0.144676 0.144676 0.144676 0.0723379 0.289352 0.289352 0.289352 0.144676 0.144676 0.144676 0.0723379 0.289352 0.289352 0.289352 0.144676 0.144676 0.144676 0.0723379 0.289352 0.289352 0.289352 0.144676 0.144676 0.144676 0.0723379 0.289352 0.289352 0.289352 0.144676 0.144676 0.144676 0.0723379 0.289352 0.289352 0.289352 0.144676 0.144676 0.144676 0.0723379 0.289352 0.289351 0.289352 0.144676 0.144676 0.144676 0.0723379 0.289352 0.289352 0.289352 0.144676 0.144676 0.144676 0.0723379 0.289352 0.289352 0.289352 0.144676 0.144676 0.144676 0.0723379 0.289352 0.289352 0.289352 0.144676 0.144676 0.144676 0.0723379 0.289352 0.289352 0.289352 0.144676 0.144676 0.144676 0.0723379 0.144676 0.144676 0.289352 0.0723379 0.144676 0.144676 0.0723379 0.289352 0.144676 0.289352 0.289352 0.144676 0.144676 0.144676 0.0723379 0.144676 0.0723379 0.289352 0.289352 0.289352 0.144676 0.144676 0.144676 0.0723379 0.289352 0.289352 0.289352 0.144676 0.144676 0.144676 0.0723379 0.289352 0.289352 0.289352 0.144676 0.144676 0.144676 0.0723379 0.289352 0.289352 0.289352 0.144676 0.144676 0.144676 0.0723379 0.289352 0.289352 0.289352 0.144676 0.144676 0.144676 0.0723379 0.289352 0.289352 0.289352 0.144676 0.144676 0.144676 0.0723379 0.289352 0.289352 0.289352 0.144676 0.144676 0.144676 0.0723379 0.289352 0.289352 0.289352 0.144676 0.144676 0.144676 0.0723379 0.289352 0.289352 0.289352 0.144676 0.144676 0.144676 0.0723379 0.289352 0.289352 0.289352 0.144676 0.144676 0.144676 0.0723379 0.289352 0.289352 0.289352 0.144676 0.144676 0.144676 0.0723379 0.289352 0.289352 0.289352 0.144676 0.144676 0.144676 0.0723379 0.289352 0.289352 0.289352 0.144676 0.144676 0.144676 0.0723379 0.289352 0.289352 0.289352 0.144676 0.144676 0.144676 0.0723379 0.289352 0.289352 0.289352 0.144676 0.144676 0.144676 0.0723379 0.289352 0.289352 0.289352 0.144676 0.144676 0.144676 0.0723379 0.289352 0.289352 0.289352 0.144676 0.144676 0.144676 0.0723379 0.289352 0.289351 0.289352 0.144676 0.144676 0.144676 0.0723379 0.289352 0.289352 0.289352 0.144676 0.144676 0.144676 0.0723379 0.289352 0.289352 0.289352 0.144676 0.144676 0.144676 0.0723379 0.289352 0.289352 0.289352 0.144676 0.144676 0.144676 0.0723379 0.289352 0.289352 0.289352 0.144676 0.144676 0.144676 0.0723379 0.144676 0.144676 0.289352 0.0723379 0.144676 0.144676 0.0723379 0.289352 0.144676 0.289352 0.289352 0.144676 0.144676 0.144676 0.0723379 0.144676 0.0723379 0.289352 0.289352 0.289352 0.144676 0.144676 0.144676 0.0723379 0.289352 0.289352 0.289352 0.144676 0.144676 0.144676 0.0723379 0.289352 0.289352 0.289352 0.144676 0.144676 0.144676 0.0723379 0.289352 0.289352 0.289352 0.144676 0.144676 0.144676 0.0723379 0.289352 0.289352 0.289352 0.144676 0.144676 0.144676 0.0723379 0.289352 0.289352 0.289352 0.144676 0.144676 0.144676 0.0723379 0.289352 0.289352 0.289352 0.144676 0.144676 0.144676 0.0723379 0.289352 0.289352 0.289352 0.144676 0.144676 0.144676 0.0723379 0.289352 0.289352 0.289352 0.144676 0.144676 0.144676 0.0723379 0.289352 0.289352 0.289352 0.144676 0.144676 0.144676 0.0723379 0.289352 0.289352 0.289352 0.144676 0.144676 0.144676 0.0723379 0.289352 0.289352 0.289352 0.144676 0.144676 0.144676 0.0723379 0.289352 0.289352 0.289352 0.144676 0.144676 0.144676 0.0723379 0.289352 0.289352 0.289352 0.144676 0.144676 0.144676 0.0723379 0.289352 0.289352 0.289352 0.144676 0.144676 0.144676 0.0723379 0.289352 0.289352 0.289352 0.144676 0.144676 0.144676 0.0723379 0.289352 0.289352 0.289352 0.144676 0.144676 0.144676 0.0723379 0.289352 0.289351 0.289352 0.144676 0.144676 0.144676 0.0723379 0.289352 0.289352 0.289352 0.144676 0.144676 0.144676 0.0723379 0.289352 0.289352 0.289352 0.144676 0.144676 0.144676 0.0723379 0.289352 0.289352 0.289352 0.144676 0.144676 0.144676 0.0723379 0.289352 0.289352 0.289352 0.144676 0.144676 0.144676 0.0723379 0.144676 0.144676 0.289352 0.0723379 0.144676 0.144676 0.0723379 0.289352 0.144676 0.289352 0.289352 0.144676 0.144676 0.144676 0.0723379 0.144676 0.0723379 0.289352 0.289352 0.289352 0.144676 0.144676 0.144676 0.0723379 0.289352 0.289352 0.289352 0.144676 0.144676 0.144676 0.0723379 0.289352 0.289352 0.289352 0.144676 0.144676 0.144676 0.0723379 0.289352 0.289352 0.289352 0.144676 0.144676 0.144676 0.0723379 0.289352 0.289352 0.289352 0.144676 0.144676 0.144676 0.0723379 0.289352 0.289352 0.289352 0.144676 0.144676 0.144676 0.0723379 0.289352 0.289352 0.289352 0.144676 0.144676 0.144676 0.0723379 0.289352 0.289352 0.289352 0.144676 0.144676 0.144676 0.0723379 0.289352 0.289352 0.289352 0.144676 0.144676 0.144676 0.0723379 0.289352 0.289352 0.289352 0.144676 0.144676 0.144676 0.0723379 0.289352 0.289352 0.289352 0.144676 0.144676 0.144676 0.0723379 0.289352 0.289352 0.289352 0.144676 0.144676 0.144676 0.0723379 0.289352 0.289352 0.289352 0.144676 0.144676 0.144676 0.0723379 0.289352 0.289352 0.289352 0.144676 0.144676 0.144676 0.0723379 0.289352 0.289352 0.289352 0.144676 0.144676 0.144676 0.0723379 0.289352 0.289352 0.289352 0.144676 0.144676 0.144676 0.0723379 0.289352 0.289352 0.289352 0.144676 0.144676 0.144676 0.0723379 0.289352 0.289351 0.289352 0.144676 0.144676 0.144676 0.0723379 0.289352 0.289352 0.289352 0.144676 0.144676 0.144676 0.0723379 0.289352 0.289352 0.289352 0.144676 0.144676 0.144676 0.0723379 0.289352 0.289352 0.289352 0.144676 0.144676 0.144676 0.0723379 0.289352 0.289352 0.289352 0.144676 0.144676 0.144676 0.0723379 0.144676 0.144676 0.289352 0.0723379 0.144676 0.144676 0.0723379 0.289352 0.144676 0.289352 0.289352 0.144676 0.144676 0.144676 0.0723379 0.144676 0.0723379 0.289352 0.289352 0.289352 0.144676 0.144676 0.144676 0.0723379 0.289352 0.289352 0.289352 0.144676 0.144676 0.144676 0.0723379 0.289352 0.289352 0.289352 0.144676 0.144676 0.144676 0.0723379 0.289352 0.289352 0.289352 0.144676 0.144676 0.144676 0.0723379 0.289352 0.289352 0.289352 0.144676 0.144676 0.144676 0.0723379 0.289352 0.289352 0.289352 0.144676 0.144676 0.144676 0.0723379 0.289352 0.289352 0.289352 0.144676 0.144676 0.144676 0.0723379 0.289352 0.289352 0.289352 0.144676 0.144676 0.144676 0.0723379 0.289352 0.289352 0.289352 0.144676 0.144676 0.144676 0.0723379 0.289352 0.289352 0.289352 0.144676 0.144676 0.144676 0.0723379 0.289352 0.289352 0.289352 0.144676 0.144676 0.144676 0.0723379 0.289352 0.289352 0.289352 0.144676 0.144676 0.144676 0.0723379 0.289352 0.289352 0.289352 0.144676 0.144676 0.144676 0.0723379 0.289352 0.289352 0.289352 0.144676 0.144676 0.144676 0.0723379 0.289352 0.289352 0.289352 0.144676 0.144676 0.144676 0.0723379 0.289352 0.289352 0.289352 0.144676 0.144676 0.144676 0.0723379 0.289352 0.289352 0.289352 0.144676 0.144676 0.144676 0.0723379 0.289352 0.289351 0.289352 0.144676 0.144676 0.144676 0.0723379 0.289352 0.289352 0.289352 0.144676 0.144676 0.144676 0.0723379 0.289352 0.289352 0.289352 0.144676 0.144676 0.144676 0.0723379 0.289352 0.289352 0.289352 0.144676 0.144676 0.144676 0.0723379 0.289352 0.289352 0.289352 0.144676 0.144676 0.144676 0.0723379 0.144676 0.144676 0.289352 0.0723379 0.144676 0.144676 0.0723379 0.289352 0.144676 0.289352 0.289352 0.144676 0.144676 0.144676 0.0723379 0.144676 0.0723379 0.289352 0.289352 0.289352 0.144676 0.144676 0.144676 0.0723379 0.289352 0.289352 0.289352 0.144676 0.144676 0.144676 0.0723379 0.289352 0.289352 0.289352 0.144676 0.144676 0.144676 0.0723379 0.289352 0.289352 0.289352 0.144676 0.144676 0.144676 0.0723379 0.289352 0.289352 0.289352 0.144676 0.144676 0.144676 0.0723379 0.289352 0.289352 0.289352 0.144676 0.144676 0.144676 0.0723379 0.289352 0.289352 0.289352 0.144676 0.144676 0.144676 0.0723379 0.289352 0.289352 0.289352 0.144676 0.144676 0.144676 0.0723379 0.289352 0.289352 0.289352 0.144676 0.144676 0.144676 0.0723379 0.289352 0.289352 0.289352 0.144676 0.144676 0.144676 0.0723379 0.289352 0.289352 0.289352 0.144676 0.144676 0.144676 0.0723379 0.289352 0.289352 0.289352 0.144676 0.144676 0.144676 0.0723379 0.289352 0.289352 0.289352 0.144676 0.144676 0.144676 0.0723379 0.289352 0.289352 0.289352 0.144676 0.144676 0.144676 0.0723379 0.289352 0.289352 0.289352 0.144676 0.144676 0.144676 0.0723379 0.289352 0.289352 0.289352 0.144676 0.144676 0.144676 0.0723379 0.289352 0.289352 0.289352 0.144676 0.144676 0.144676 0.0723379 0.289352 0.289351 0.289352 0.144676 0.144676 0.144676 0.0723379 0.289352 0.289352 0.289352 0.144676 0.144676 0.144676 0.0723379 0.289352 0.289352 0.289352 0.144676 0.144676 0.144676 0.0723379 0.289352 0.289352 0.289352 0.144676 0.144676 0.144676 0.0723379 0.289352 0.289352 0.289352 0.144676 0.144676 0.144676 0.0723379 0.144676 0.144676 0.289352 0.0723379 0.144676 0.144676 0.0723379 0.289352 0.144676 0.144676 0.144676 0.0723379 0.144676 0.144676 0.0723379 0.0723379 0.0723379 0.289352 0.144676 0.144676 0.144676 0.144676 0.0723379 0.0723379 0.289352 0.144676 0.144676 0.144676 0.144676 0.0723379 0.0723379 0.289352 0.144676 0.144676 0.144676 0.144676 0.0723379 0.0723379 0.289352 0.144676 0.144676 0.144676 0.144676 0.0723379 0.0723379 0.289352 0.144676 0.144676 0.144676 0.144676 0.0723379 0.0723379 0.289352 0.144676 0.144676 0.144676 0.144676 0.0723379 0.0723379 0.289352 0.144676 0.144676 0.144676 0.144676 0.0723379 0.0723379 0.289352 0.144676 0.144676 0.144676 0.144676 0.0723379 0.0723379 0.289352 0.144676 0.144676 0.144676 0.144676 0.0723379 0.0723379 0.289352 0.144676 0.144676 0.144676 0.144676 0.0723379 0.0723379 0.289352 0.144676 0.144676 0.144676 0.144676 0.0723379 0.0723379 0.289352 0.144676 0.144676 0.144676 0.144676 0.0723379 0.0723379 0.289352 0.144676 0.144676 0.144676 0.144676 0.0723379 0.0723379 0.289352 0.144676 0.144676 0.144676 0.144676 0.0723379 0.0723379 0.289352 0.144676 0.144676 0.144676 0.144676 0.0723379 0.0723379 0.289352 0.144676 0.144676 0.144676 0.144676 0.0723379 0.0723379 0.289352 0.144676 0.144676 0.144676 0.144676 0.0723379 0.0723379 0.289352 0.144676 0.144676 0.144676 0.144676 0.0723379 0.0723379 0.289352 0.144676 0.144676 0.144676 0.144676 0.0723379 0.0723379 0.289352 0.144676 0.144676 0.144676 0.144676 0.0723379 0.0723379 0.289352 0.144676 0.144676 0.144676 0.144676 0.0723379 0.0723379 0.289352 0.144676 0.144676 0.144676 0.144676 0.0723379 0.0723379 0.144676 0.0723379 0.144676 0.0723379 0.144676 0.0723379 0.0723379 0.144676 0.144676 0.0723381 0.289352 0.144676 0.289352 0.289352 0.144676 0.0723381 0.144676 0.144676 0.0723381 0.144676 0.0723381 0.144676 0.144676 0.289352 0.289352 0.289352 0.0723381 0.144676 0.144676 0.144676 0.0723381 0.144676 0.144676 0.289352 0.289352 0.289352 0.0723381 0.144676 0.144676 0.144676 0.0723381 0.144676 0.144676 0.289352 0.289352 0.289352 0.072338 0.144676 0.144676 0.144676 0.072338 0.144676 0.144676 0.289352 0.289352 0.289352 0.072338 0.144676 0.144676 0.144676 0.072338 0.144676 0.144676 0.289352 0.289352 0.289352 0.0723381 0.144676 0.144676 0.144676 0.0723381 0.144676 0.144676 0.289352 0.289352 0.289352 0.0723381 0.144676 0.144676 0.144676 0.0723381 0.144676 0.144676 0.289352 0.289352 0.289352 0.0723381 0.144676 0.144676 0.144676 0.0723381 0.144676 0.144676 0.289352 0.289352 0.289352 0.0723381 0.144676 0.144676 0.144676 0.0723381 0.144676 0.144676 0.289352 0.289352 0.289352 0.072338 0.144676 0.144676 0.144676 0.072338 0.144676 0.144676 0.289352 0.289352 0.289352 0.072338 0.144676 0.144676 0.144676 0.072338 0.144676 0.144676 0.289352 0.289352 0.289352 0.0723381 0.144676 0.144676 0.144676 0.0723381 0.144676 0.144676 0.289352 0.289352 0.289352 0.072338 0.144676 0.144676 0.144676 0.072338 0.144676 0.144676 0.289352 0.289352 0.289352 0.0723381 0.144676 0.144676 0.144676 0.0723381 0.144676 0.144676 0.289352 0.289352 0.289352 0.072338 0.144676 0.144676 0.144676 0.072338 0.144676 0.144676 0.289352 0.289352 0.289352 0.0723381 0.144676 0.144676 0.144676 0.0723381 0.144676 0.144676 0.289352 0.289352 0.289352 0.0723381 0.144676 0.144676 0.144676 0.0723381 0.144676 0.144676 0.289352 0.289352 0.289352 0.072338 0.144676 0.144676 0.144676 0.072338 0.144676 0.144676 0.289352 0.289352 0.289352 0.072338 0.144676 0.144676 0.144676 0.072338 0.144676 0.144676 0.289352 0.289352 0.289352 0.072338 0.144676 0.144676 0.144676 0.072338 0.144676 0.144676 0.289352 0.289352 0.289352 0.0723381 0.144676 0.144676 0.144676 0.0723381 0.144676 0.144676 0.289352 0.289352 0.289352 0.072338 0.144676 0.144676 0.144676 0.072338 0.144676 0.144676 0.289352 0.289352 0.289352 0.072338 0.144676 0.144676 0.144676 0.072338 0.0723381 0.144676 0.144676 0.144676 0.289352 0.0723381 0.0723381 0.144676 0.144676 0.0723381 0.289352 0.144676 0.289352 0.289352 0.144676 0.144676 0.144676 0.0723381 0.144676 0.0723381 0.289352 0.289352 0.289352 0.144676 0.144676 0.144676 0.0723381 0.289352 0.289352 0.289352 0.144676 0.144676 0.144676 0.0723381 0.289352 0.289352 0.289352 0.144676 0.144676 0.144676 0.072338 0.289352 0.289352 0.289352 0.144676 0.144676 0.144676 0.072338 0.289352 0.289352 0.289352 0.144676 0.144676 0.144676 0.0723381 0.289352 0.289352 0.289352 0.144676 0.144676 0.144676 0.0723381 0.289352 0.289352 0.289352 0.144676 0.144676 0.144676 0.072338 0.289352 0.289352 0.289352 0.144676 0.144676 0.144676 0.0723381 0.289352 0.289352 0.289352 0.144676 0.144676 0.144676 0.072338 0.289352 0.289352 0.289352 0.144676 0.144676 0.144676 0.072338 0.289352 0.289352 0.289352 0.144676 0.144676 0.144676 0.072338 0.289352 0.289352 0.289352 0.144676 0.144676 0.144676 0.072338 0.289352 0.289352 0.289352 0.144676 0.144676 0.144676 0.0723381 0.289352 0.289352 0.289352 0.144676 0.144676 0.144676 0.072338 0.289352 0.289352 0.289352 0.144676 0.144676 0.144676 0.0723381 0.289352 0.289352 0.289352 0.144676 0.144676 0.144676 0.072338 0.289352 0.289352 0.289352 0.144676 0.144676 0.144676 0.072338 0.289352 0.289352 0.289352 0.144676 0.144676 0.144676 0.072338 0.289352 0.289352 0.289352 0.144676 0.144676 0.144676 0.072338 0.289352 0.289352 0.289352 0.144676 0.144676 0.144676 0.0723381 0.289352 0.289352 0.289352 0.144676 0.144676 0.144676 0.072338 0.289352 0.289352 0.289352 0.144676 0.144676 0.144676 0.072338 0.144676 0.144676 0.289352 0.0723381 0.144676 0.144676 0.0723381 0.289352 0.144676 0.289352 0.289352 0.144676 0.144676 0.144676 0.0723381 0.144676 0.0723381 0.289352 0.289352 0.289352 0.144676 0.144676 0.144676 0.0723381 0.289352 0.289352 0.289352 0.144676 0.144676 0.144676 0.0723381 0.289352 0.289352 0.289352 0.144676 0.144676 0.144676 0.072338 0.289352 0.289352 0.289352 0.144676 0.144676 0.144676 0.0723381 0.289352 0.289352 0.289352 0.144676 0.144676 0.144676 0.0723381 0.289352 0.289352 0.289352 0.144676 0.144676 0.144676 0.0723381 0.289352 0.289352 0.289352 0.144676 0.144676 0.144676 0.072338 0.289352 0.289352 0.289352 0.144676 0.144676 0.144676 0.0723381 0.289352 0.289352 0.289352 0.144676 0.144676 0.144676 0.072338 0.289352 0.289352 0.289352 0.144676 0.144676 0.144676 0.072338 0.289352 0.289352 0.289352 0.144676 0.144676 0.144676 0.072338 0.289352 0.289352 0.289352 0.144676 0.144676 0.144676 0.072338 0.289352 0.289352 0.289352 0.144676 0.144676 0.144676 0.0723381 0.289352 0.289352 0.289352 0.144676 0.144676 0.144676 0.072338 0.289352 0.289352 0.289352 0.144676 0.144676 0.144676 0.0723381 0.289352 0.289352 0.289352 0.144676 0.144676 0.144676 0.072338 0.289352 0.289352 0.289352 0.144676 0.144676 0.144676 0.072338 0.289352 0.289352 0.289352 0.144676 0.144676 0.144676 0.072338 0.289352 0.289352 0.289352 0.144676 0.144676 0.144676 0.072338 0.289352 0.289352 0.289352 0.144676 0.144676 0.144676 0.0723381 0.289352 0.289352 0.289352 0.144676 0.144676 0.144676 0.072338 0.289352 0.289352 0.289352 0.144676 0.144676 0.144676 0.072338 0.144676 0.144676 0.289352 0.0723381 0.144676 0.144676 0.0723381 0.289352 0.144676 0.289352 0.289352 0.144676 0.144676 0.144676 0.072338 0.144676 0.072338 0.289352 0.289352 0.289352 0.144676 0.144676 0.144676 0.0723381 0.289352 0.289352 0.289352 0.144676 0.144676 0.144676 0.0723381 0.289352 0.289352 0.289352 0.144676 0.144676 0.144676 0.072338 0.289352 0.289352 0.289352 0.144676 0.144676 0.144676 0.072338 0.289352 0.289352 0.289352 0.144676 0.144676 0.144676 0.072338 0.289352 0.289352 0.289352 0.144676 0.144676 0.144676 0.072338 0.289352 0.289352 0.289352 0.144676 0.144676 0.144676 0.072338 0.289352 0.289352 0.289352 0.144676 0.144676 0.144676 0.072338 0.289352 0.289352 0.289352 0.144676 0.144676 0.144676 0.072338 0.289352 0.289352 0.289352 0.144676 0.144676 0.144676 0.072338 0.289352 0.289352 0.289352 0.144676 0.144676 0.144676 0.072338 0.289352 0.289352 0.289352 0.144676 0.144676 0.144676 0.072338 0.289352 0.289352 0.289352 0.144676 0.144676 0.144676 0.0723381 0.289352 0.289352 0.289352 0.144676 0.144676 0.144676 0.072338 0.289352 0.289352 0.289352 0.144676 0.144676 0.144676 0.0723381 0.289352 0.289352 0.289352 0.144676 0.144676 0.144676 0.072338 0.289352 0.289352 0.289352 0.144676 0.144676 0.144676 0.072338 0.289352 0.289352 0.289352 0.144676 0.144676 0.144676 0.072338 0.289352 0.289352 0.289352 0.144676 0.144676 0.144676 0.072338 0.289352 0.289352 0.289352 0.144676 0.144676 0.144676 0.0723381 0.289352 0.289352 0.289352 0.144676 0.144676 0.144676 0.072338 0.289352 0.289352 0.289352 0.144676 0.144676 0.144676 0.072338 0.144676 0.144676 0.289352 0.0723381 0.144676 0.144676 0.0723381 0.289352 0.144676 0.289352 0.289352 0.144676 0.144676 0.144676 0.072338 0.144676 0.072338 0.289352 0.289352 0.289352 0.144676 0.144676 0.144676 0.072338 0.289352 0.289352 0.289352 0.144676 0.144676 0.144676 0.0723381 0.289352 0.289352 0.289352 0.144676 0.144676 0.144676 0.072338 0.289352 0.289352 0.289352 0.144676 0.144676 0.144676 0.072338 0.289352 0.289352 0.289352 0.144676 0.144676 0.144676 0.072338 0.289352 0.289352 0.289352 0.144676 0.144676 0.144676 0.072338 0.289352 0.289352 0.289352 0.144676 0.144676 0.144676 0.072338 0.289352 0.289352 0.289352 0.144676 0.144676 0.144676 0.072338 0.289352 0.289352 0.289352 0.144676 0.144676 0.144676 0.072338 0.289352 0.289352 0.289352 0.144676 0.144676 0.144676 0.072338 0.289352 0.289352 0.289352 0.144676 0.144676 0.144676 0.072338 0.289352 0.289352 0.289352 0.144676 0.144676 0.144676 0.072338 0.289352 0.289352 0.289352 0.144676 0.144676 0.144676 0.0723381 0.289352 0.289352 0.289352 0.144676 0.144676 0.144676 0.072338 0.289352 0.289352 0.289352 0.144676 0.144676 0.144676 0.0723381 0.289352 0.289352 0.289352 0.144676 0.144676 0.144676 0.072338 0.289352 0.289352 0.289352 0.144676 0.144676 0.144676 0.072338 0.289352 0.289352 0.289352 0.144676 0.144676 0.144676 0.072338 0.289352 0.289352 0.289352 0.144676 0.144676 0.144676 0.072338 0.289352 0.289352 0.289352 0.144676 0.144676 0.144676 0.0723381 0.289352 0.289352 0.289352 0.144676 0.144676 0.144676 0.072338 0.289352 0.289352 0.289352 0.144676 0.144676 0.144676 0.072338 0.144676 0.144676 0.289352 0.0723381 0.144676 0.144676 0.0723381 0.289352 0.144676 0.289352 0.289352 0.144676 0.144676 0.144676 0.0723381 0.144676 0.0723381 0.289352 0.289352 0.289352 0.144676 0.144676 0.144676 0.0723381 0.289352 0.289352 0.289352 0.144676 0.144676 0.144676 0.0723381 0.289352 0.289352 0.289352 0.144676 0.144676 0.144676 0.072338 0.289352 0.289352 0.289352 0.144676 0.144676 0.144676 0.072338 0.289352 0.289352 0.289352 0.144676 0.144676 0.144676 0.0723381 0.289352 0.289352 0.289352 0.144676 0.144676 0.144676 0.0723381 0.289352 0.289352 0.289352 0.144676 0.144676 0.144676 0.072338 0.289352 0.289352 0.289352 0.144676 0.144676 0.144676 0.0723381 0.289352 0.289352 0.289352 0.144676 0.144676 0.144676 0.072338 0.289352 0.289352 0.289352 0.144676 0.144676 0.144676 0.072338 0.289352 0.289352 0.289352 0.144676 0.144676 0.144676 0.072338 0.289352 0.289352 0.289352 0.144676 0.144676 0.144676 0.072338 0.289352 0.289352 0.289352 0.144676 0.144676 0.144676 0.0723381 0.289352 0.289352 0.289352 0.144676 0.144676 0.144676 0.072338 0.289352 0.289352 0.289352 0.144676 0.144676 0.144676 0.0723381 0.289352 0.289352 0.289352 0.144676 0.144676 0.144676 0.072338 0.289352 0.289352 0.289352 0.144676 0.144676 0.144676 0.072338 0.289352 0.289352 0.289352 0.144676 0.144676 0.144676 0.072338 0.289352 0.289352 0.289352 0.144676 0.144676 0.144676 0.072338 0.289352 0.289352 0.289352 0.144676 0.144676 0.144676 0.0723381 0.289352 0.289352 0.289352 0.144676 0.144676 0.144676 0.072338 0.289352 0.289352 0.289352 0.144676 0.144676 0.144676 0.072338 0.144676 0.144676 0.289352 0.0723381 0.144676 0.144676 0.0723381 0.289352 0.144676 0.289352 0.289352 0.144676 0.144676 0.144676 0.0723381 0.144676 0.0723381 0.289352 0.289352 0.289352 0.144676 0.144676 0.144676 0.0723381 0.289352 0.289352 0.289352 0.144676 0.144676 0.144676 0.0723381 0.289352 0.289352 0.289352 0.144676 0.144676 0.144676 0.072338 0.289352 0.289352 0.289352 0.144676 0.144676 0.144676 0.072338 0.289352 0.289352 0.289352 0.144676 0.144676 0.144676 0.0723381 0.289352 0.289352 0.289352 0.144676 0.144676 0.144676 0.0723381 0.289352 0.289352 0.289352 0.144676 0.144676 0.144676 0.072338 0.289352 0.289352 0.289352 0.144676 0.144676 0.144676 0.0723381 0.289352 0.289352 0.289352 0.144676 0.144676 0.144676 0.072338 0.289352 0.289352 0.289352 0.144676 0.144676 0.144676 0.072338 0.289352 0.289352 0.289352 0.144676 0.144676 0.144676 0.0723381 0.289352 0.289352 0.289352 0.144676 0.144676 0.144676 0.072338 0.289352 0.289352 0.289352 0.144676 0.144676 0.144676 0.0723381 0.289352 0.289352 0.289352 0.144676 0.144676 0.144676 0.072338 0.289352 0.289352 0.289352 0.144676 0.144676 0.144676 0.0723381 0.289352 0.289352 0.289352 0.144676 0.144676 0.144676 0.0723381 0.289352 0.289352 0.289352 0.144676 0.144676 0.144676 0.072338 0.289352 0.289352 0.289352 0.144676 0.144676 0.144676 0.072338 0.289352 0.289352 0.289352 0.144676 0.144676 0.144676 0.072338 0.289352 0.289352 0.289352 0.144676 0.144676 0.144676 0.0723381 0.289352 0.289352 0.289352 0.144676 0.144676 0.144676 0.072338 0.289352 0.289352 0.289352 0.144676 0.144676 0.144676 0.072338 0.144676 0.144676 0.289352 0.0723381 0.144676 0.144676 0.0723381 0.289352 0.144676 0.144676 0.144676 0.072338 0.144676 0.144676 0.072338 0.072338 0.072338 0.289352 0.144676 0.144676 0.144676 0.144676 0.072338 0.072338 0.289352 0.144676 0.144676 0.144676 0.144676 0.072338 0.072338 0.289352 0.144676 0.144676 0.144676 0.144676 0.072338 0.072338 0.289352 0.144676 0.144676 0.144676 0.144676 0.072338 0.072338 0.289352 0.144676 0.144676 0.144676 0.144676 0.072338 0.072338 0.289352 0.144676 0.144676 0.144676 0.144676 0.072338 0.072338 0.289352 0.144676 0.144676 0.144676 0.144676 0.072338 0.072338 0.289352 0.144676 0.144676 0.144676 0.144676 0.072338 0.072338 0.289352 0.144676 0.144676 0.144676 0.144676 0.072338 0.072338 0.289352 0.144676 0.144676 0.144676 0.144676 0.072338 0.072338 0.289352 0.144676 0.144676 0.144676 0.144676 0.072338 0.072338 0.289352 0.144676 0.144676 0.144676 0.144676 0.072338 0.072338 0.289352 0.144676 0.144676 0.144676 0.144676 0.0723381 0.0723381 0.289352 0.144676 0.144676 0.144676 0.144676 0.072338 0.072338 0.289352 0.144676 0.144676 0.144676 0.144676 0.072338 0.072338 0.289352 0.144676 0.144676 0.144676 0.144676 0.072338 0.072338 0.289352 0.144676 0.144676 0.144676 0.144676 0.072338 0.072338 0.289352 0.144676 0.144676 0.144676 0.144676 0.072338 0.072338 0.289352 0.144676 0.144676 0.144676 0.144676 0.072338 0.072338 0.289352 0.144676 0.144676 0.144676 0.144676 0.0723381 0.0723381 0.289352 0.144676 0.144676 0.144676 0.144676 0.072338 0.072338 0.289352 0.144676 0.144676 0.144676 0.144676 0.072338 0.072338 0.144676 0.0723381 0.144676 0.0723381 0.144676 0.0723381 0.0723381 0.144676 0.072338 0.072338 0.144676 0.072338 0.289352 0.144676 0.144676 0.072338 0.144676 0.072338 0.072338 0.144676 0.072338 0.144676 0.072338 0.144676 0.289352 0.144676 0.072338 0.144676 0.072338 0.144676 0.072338 0.144676 0.072338 0.144676 0.289352 0.144676 0.072338 0.144676 0.072338 0.144676 0.072338 0.144676 0.072338 0.144676 0.289352 0.144676 0.072338 0.144676 0.072338 0.144676 0.072338 0.144676 0.072338 0.144676 0.289352 0.144676 0.072338 0.144676 0.072338 0.144676 0.072338 0.144676 0.072338 0.144676 0.289352 0.144676 0.072338 0.144676 0.072338 0.144676 0.072338 0.144676 0.072338 0.144676 0.289352 0.144676 0.072338 0.144676 0.072338 0.144676 0.072338 0.144676 0.072338 0.144676 0.289352 0.144676 0.072338 0.144676 0.072338 0.144676 0.072338 0.144676 0.072338 0.144676 0.289352 0.144676 0.072338 0.144676 0.072338 0.144676 0.072338 0.144676 0.072338 0.144676 0.289352 0.144676 0.072338 0.144676 0.072338 0.144676 0.072338 0.144676 0.072338 0.144676 0.289352 0.144676 0.072338 0.144676 0.072338 0.144676 0.072338 0.144676 0.072338 0.144676 0.289352 0.144676 0.072338 0.144676 0.072338 0.144676 0.072338 0.144676 0.072338 0.144676 0.289352 0.144676 0.072338 0.144676 0.072338 0.144676 0.072338 0.144676 0.072338 0.144676 0.289352 0.144676 0.072338 0.144676 0.072338 0.144676 0.072338 0.144676 0.072338 0.144676 0.289352 0.144676 0.072338 0.144676 0.072338 0.144676 0.072338 0.144676 0.072338 0.144676 0.289352 0.144676 0.072338 0.144676 0.072338 0.144676 0.072338 0.144676 0.072338 0.144676 0.289352 0.144676 0.072338 0.144676 0.072338 0.144676 0.072338 0.144676 0.072338 0.144676 0.289352 0.144676 0.072338 0.144676 0.072338 0.144676 0.072338 0.144676 0.072338 0.144676 0.289352 0.144676 0.072338 0.144676 0.072338 0.144676 0.072338 0.144676 0.072338 0.144676 0.289352 0.144676 0.072338 0.144676 0.072338 0.144676 0.072338 0.144676 0.072338 0.144676 0.289352 0.144676 0.072338 0.144676 0.072338 0.144676 0.072338 0.144676 0.072338 0.144676 0.289352 0.144676 0.072338 0.144676 0.072338 0.144676 0.072338 0.144676 0.072338 0.144676 0.289352 0.144676 0.072338 0.144676 0.072338 0.144676 0.072338 0.072338 0.072338 0.072338 0.144676 0.144676 0.072338 0.072338 0.072338 0.144676 0.072338 0.144676 0.072338 0.289352 0.144676 0.144676 0.144676 0.072338 0.072338 0.144676 0.072338 0.144676 0.289352 0.144676 0.144676 0.072338 0.144676 0.072338 0.144676 0.289352 0.144676 0.144676 0.072338 0.144676 0.072338 0.144676 0.289352 0.144676 0.144676 0.072338 0.144676 0.072338 0.144676 0.289352 0.144676 0.144676 0.072338 0.144676 0.072338 0.144676 0.289352 0.144676 0.144676 0.072338 0.144676 0.072338 0.144676 0.289352 0.144676 0.144676 0.072338 0.144676 0.072338 0.144676 0.289352 0.144676 0.144676 0.072338 0.144676 0.072338 0.144676 0.289352 0.144676 0.144676 0.072338 0.144676 0.072338 0.144676 0.289352 0.144676 0.144676 0.072338 0.144676 0.072338 0.144676 0.289352 0.144676 0.144676 0.072338 0.144676 0.072338 0.144676 0.289352 0.144676 0.144676 0.072338 0.144676 0.072338 0.144676 0.289352 0.144676 0.144676 0.072338 0.144676 0.072338 0.144676 0.289352 0.144676 0.144676 0.072338 0.144676 0.072338 0.144676 0.289352 0.144676 0.144676 0.072338 0.144676 0.072338 0.144676 0.289352 0.144676 0.144676 0.072338 0.144676 0.072338 0.144676 0.289352 0.144676 0.144676 0.072338 0.144676 0.072338 0.144676 0.289352 0.144676 0.144676 0.072338 0.144676 0.072338 0.144676 0.289352 0.144676 0.144676 0.072338 0.144676 0.072338 0.144676 0.289352 0.144676 0.144676 0.072338 0.144676 0.072338 0.144676 0.289352 0.144676 0.144676 0.072338 0.144676 0.072338 0.144676 0.289352 0.144676 0.144676 0.072338 0.144676 0.072338 0.144676 0.289352 0.144676 0.144676 0.072338 0.144676 0.072338 0.072338 0.144676 0.144676 0.072338 0.072338 0.144676 0.072338 0.144676 0.072338 0.289352 0.144676 0.144676 0.144676 0.072338 0.072338 0.144676 0.072338 0.144676 0.289352 0.144676 0.144676 0.072338 0.144676 0.072338 0.144676 0.289352 0.144676 0.144676 0.072338 0.144676 0.072338 0.144676 0.289352 0.144676 0.144676 0.072338 0.144676 0.072338 0.144676 0.289352 0.144676 0.144676 0.072338 0.144676 0.072338 0.144676 0.289352 0.144676 0.144676 0.072338 0.144676 0.072338 0.144676 0.289352 0.144676 0.144676 0.072338 0.144676 0.072338 0.144676 0.289352 0.144676 0.144676 0.072338 0.144676 0.072338 0.144676 0.289352 0.144676 0.144676 0.072338 0.144676 0.072338 0.144676 0.289352 0.144676 0.144676 0.072338 0.144676 0.072338 0.144676 0.289352 0.144676 0.144676 0.072338 0.144676 0.072338 0.144676 0.289352 0.144676 0.144676 0.072338 0.144676 0.072338 0.144676 0.289352 0.144676 0.144676 0.072338 0.144676 0.072338 0.144676 0.289352 0.144676 0.144676 0.072338 0.144676 0.072338 0.144676 0.289352 0.144676 0.144676 0.072338 0.144676 0.072338 0.144676 0.289352 0.144676 0.144676 0.072338 0.144676 0.072338 0.144676 0.289352 0.144676 0.144676 0.072338 0.144676 0.072338 0.144676 0.289352 0.144676 0.144676 0.072338 0.144676 0.072338 0.144676 0.289352 0.144676 0.144676 0.072338 0.144676 0.072338 0.144676 0.289352 0.144676 0.144676 0.072338 0.144676 0.072338 0.144676 0.289352 0.144676 0.144676 0.072338 0.144676 0.072338 0.144676 0.289352 0.144676 0.144676 0.072338 0.144676 0.072338 0.144676 0.289352 0.144676 0.144676 0.072338 0.144676 0.072338 0.072338 0.144676 0.144676 0.072338 0.072338 0.144676 0.072338 0.144676 0.072338 0.289352 0.144676 0.144676 0.144676 0.072338 0.072338 0.144676 0.072338 0.144676 0.289352 0.144676 0.144676 0.072338 0.144676 0.072338 0.144676 0.289352 0.144676 0.144676 0.072338 0.144676 0.072338 0.144676 0.289352 0.144676 0.144676 0.072338 0.144676 0.072338 0.144676 0.289352 0.144676 0.144676 0.072338 0.144676 0.072338 0.144676 0.289352 0.144676 0.144676 0.072338 0.144676 0.072338 0.144676 0.289352 0.144676 0.144676 0.072338 0.144676 0.072338 0.144676 0.289352 0.144676 0.144676 0.072338 0.144676 0.072338 0.144676 0.289352 0.144676 0.144676 0.072338 0.144676 0.072338 0.144676 0.289352 0.144676 0.144676 0.072338 0.144676 0.072338 0.144676 0.289352 0.144676 0.144676 0.072338 0.144676 0.072338 0.144676 0.289352 0.144676 0.144676 0.072338 0.144676 0.072338 0.144676 0.289352 0.144676 0.144676 0.072338 0.144676 0.072338 0.144676 0.289352 0.144676 0.144676 0.072338 0.144676 0.072338 0.144676 0.289352 0.144676 0.144676 0.072338 0.144676 0.072338 0.144676 0.289352 0.144676 0.144676 0.072338 0.144676 0.072338 0.144676 0.289352 0.144676 0.144676 0.072338 0.144676 0.072338 0.144676 0.289352 0.144676 0.144676 0.072338 0.144676 0.072338 0.144676 0.289352 0.144676 0.144676 0.072338 0.144676 0.072338 0.144676 0.289352 0.144676 0.144676 0.072338 0.144676 0.072338 0.144676 0.289352 0.144676 0.144676 0.072338 0.144676 0.072338 0.144676 0.289352 0.144676 0.144676 0.072338 0.144676 0.072338 0.144676 0.289352 0.144676 0.144676 0.072338 0.144676 0.072338 0.072338 0.144676 0.144676 0.072338 0.072338 0.144676 0.072338 0.144676 0.072338 0.289352 0.144676 0.144676 0.144676 0.072338 0.072338 0.144676 0.072338 0.144676 0.289352 0.144676 0.144676 0.072338 0.144676 0.072338 0.144676 0.289352 0.144676 0.144676 0.072338 0.144676 0.072338 0.144676 0.289352 0.144676 0.144676 0.072338 0.144676 0.072338 0.144676 0.289352 0.144676 0.144676 0.072338 0.144676 0.072338 0.144676 0.289352 0.144676 0.144676 0.072338 0.144676 0.072338 0.144676 0.289352 0.144676 0.144676 0.072338 0.144676 0.072338 0.144676 0.289352 0.144676 0.144676 0.072338 0.144676 0.072338 0.144676 0.289352 0.144676 0.144676 0.072338 0.144676 0.072338 0.144676 0.289352 0.144676 0.144676 0.072338 0.144676 0.072338 0.144676 0.289352 0.144676 0.144676 0.072338 0.144676 0.072338 0.144676 0.289352 0.144676 0.144676 0.072338 0.144676 0.072338 0.144676 0.289352 0.144676 0.144676 0.072338 0.144676 0.072338 0.144676 0.289352 0.144676 0.144676 0.072338 0.144676 0.072338 0.144676 0.289352 0.144676 0.144676 0.072338 0.144676 0.072338 0.144676 0.289352 0.144676 0.144676 0.072338 0.144676 0.072338 0.144676 0.289352 0.144676 0.144676 0.072338 0.144676 0.072338 0.144676 0.289352 0.144676 0.144676 0.072338 0.144676 0.072338 0.144676 0.289352 0.144676 0.144676 0.072338 0.144676 0.072338 0.144676 0.289352 0.144676 0.144676 0.072338 0.144676 0.072338 0.144676 0.289352 0.144676 0.144676 0.072338 0.144676 0.072338 0.144676 0.289352 0.144676 0.144676 0.072338 0.144676 0.072338 0.144676 0.289352 0.144676 0.144676 0.072338 0.144676 0.072338 0.072338 0.144676 0.144676 0.072338 0.072338 0.144676 0.072338 0.144676 0.072338 0.289352 0.144676 0.144676 0.144676 0.072338 0.072338 0.144676 0.072338 0.144676 0.289352 0.144676 0.144676 0.072338 0.144676 0.072338 0.144676 0.289352 0.144676 0.144676 0.072338 0.144676 0.072338 0.144676 0.289352 0.144676 0.144676 0.072338 0.144676 0.072338 0.144676 0.289352 0.144676 0.144676 0.072338 0.144676 0.072338 0.144676 0.289352 0.144676 0.144676 0.072338 0.144676 0.072338 0.144676 0.289352 0.144676 0.144676 0.072338 0.144676 0.072338 0.144676 0.289352 0.144676 0.144676 0.072338 0.144676 0.072338 0.144676 0.289352 0.144676 0.144676 0.072338 0.144676 0.072338 0.144676 0.289352 0.144676 0.144676 0.072338 0.144676 0.072338 0.144676 0.289352 0.144676 0.144676 0.072338 0.144676 0.072338 0.144676 0.289352 0.144676 0.144676 0.072338 0.144676 0.072338 0.144676 0.289352 0.144676 0.144676 0.072338 0.144676 0.072338 0.144676 0.289352 0.144676 0.144676 0.072338 0.144676 0.072338 0.144676 0.289352 0.144676 0.144676 0.072338 0.144676 0.072338 0.144676 0.289352 0.144676 0.144676 0.072338 0.144676 0.072338 0.144676 0.289352 0.144676 0.144676 0.072338 0.144676 0.072338 0.144676 0.289352 0.144676 0.144676 0.072338 0.144676 0.072338 0.144676 0.289352 0.144676 0.144676 0.072338 0.144676 0.072338 0.144676 0.289352 0.144676 0.144676 0.072338 0.144676 0.072338 0.144676 0.289352 0.144676 0.144676 0.072338 0.144676 0.072338 0.144676 0.289352 0.144676 0.144676 0.072338 0.144676 0.072338 0.144676 0.289352 0.144676 0.144676 0.072338 0.144676 0.072338 0.072338 0.144676 0.144676 0.072338 0.072338 0.144676 0.072338 0.144676 0.072338 0.289352 0.144676 0.144676 0.144676 0.072338 0.072338 0.144676 0.072338 0.144676 0.289352 0.144676 0.144676 0.072338 0.144676 0.072338 0.144676 0.289352 0.144676 0.144676 0.072338 0.144676 0.072338 0.144676 0.289352 0.144676 0.144676 0.072338 0.144676 0.072338 0.144676 0.289352 0.144676 0.144676 0.072338 0.144676 0.072338 0.144676 0.289352 0.144676 0.144676 0.072338 0.144676 0.072338 0.144676 0.289352 0.144676 0.144676 0.072338 0.144676 0.072338 0.144676 0.289352 0.144676 0.144676 0.072338 0.144676 0.072338 0.144676 0.289352 0.144676 0.144676 0.072338 0.144676 0.072338 0.144676 0.289352 0.144676 0.144676 0.072338 0.144676 0.072338 0.144676 0.289352 0.144676 0.144676 0.072338 0.144676 0.072338 0.144676 0.289352 0.144676 0.144676 0.072338 0.144676 0.072338 0.144676 0.289352 0.144676 0.144676 0.072338 0.144676 0.072338 0.144676 0.289352 0.144676 0.144676 0.072338 0.144676 0.072338 0.144676 0.289352 0.144676 0.144676 0.072338 0.144676 0.072338 0.144676 0.289352 0.144676 0.144676 0.072338 0.144676 0.072338 0.144676 0.289352 0.144676 0.144676 0.072338 0.144676 0.072338 0.144676 0.289352 0.144676 0.144676 0.072338 0.144676 0.072338 0.144676 0.289352 0.144676 0.144676 0.072338 0.144676 0.072338 0.144676 0.289352 0.144676 0.144676 0.072338 0.144676 0.072338 0.144676 0.289352 0.144676 0.144676 0.072338 0.144676 0.072338 0.144676 0.289352 0.144676 0.144676 0.072338 0.144676 0.072338 0.144676 0.289352 0.144676 0.144676 0.072338 0.144676 0.072338 0.072338 0.144676 0.144676 0.072338 0.072338 0.144676 0.072338 0.144676 0.072338 0.144676 0.072338 0.072338 0.144676 0.072338 0.072338 0.072338 0.072338 0.144676 0.144676 0.072338 0.144676 0.072338 0.072338 0.072338 0.144676 0.144676 0.072338 0.144676 0.072338 0.072338 0.072338 0.144676 0.144676 0.072338 0.144676 0.072338 0.072338 0.072338 0.144676 0.144676 0.072338 0.144676 0.072338 0.072338 0.072338 0.144676 0.144676 0.072338 0.144676 0.072338 0.072338 0.072338 0.144676 0.144676 0.072338 0.144676 0.072338 0.072338 0.072338 0.144676 0.144676 0.072338 0.144676 0.072338 0.072338 0.072338 0.144676 0.144676 0.072338 0.144676 0.072338 0.072338 0.072338 0.144676 0.144676 0.072338 0.144676 0.072338 0.072338 0.072338 0.144676 0.144676 0.072338 0.144676 0.072338 0.072338 0.072338 0.144676 0.144676 0.072338 0.144676 0.072338 0.072338 0.072338 0.144676 0.144676 0.072338 0.144676 0.072338 0.072338 0.072338 0.144676 0.144676 0.072338 0.144676 0.072338 0.072338 0.072338 0.144676 0.144676 0.072338 0.144676 0.072338 0.072338 0.072338 0.144676 0.144676 0.072338 0.144676 0.072338 0.072338 0.072338 0.144676 0.144676 0.072338 0.144676 0.072338 0.072338 0.072338 0.144676 0.144676 0.072338 0.144676 0.072338 0.072338 0.072338 0.144676 0.144676 0.072338 0.144676 0.072338 0.072338 0.072338 0.144676 0.144676 0.0723379 0.144676 0.0723379 0.0723379 0.0723379 0.144676 0.144676 0.072338 0.144676 0.072338 0.072338 0.072338 0.144676 0.144676 0.072338 0.144676 0.072338 0.072338 0.072338 0.144676 0.144676 0.072338 0.144676 0.072338 0.072338 0.072338 0.072338 0.072338 0.072338 0.072338 0.072338 0.072338 0.072338 
VECTORS u float
0 0 0  -0.00795479 -0.00495103 -0.00851655  -0.0140439 -0.00868901 -0.0107365  -0.0196905 -0.0145435 -0.0111542  -0.025258 -0.0220561 -0.01069  -0.030607 -0.0310275 -0.00985909  -0.0356695 -0.0412367 -0.00889468  -0.0404041 -0.0525161 -0.00791264  -0.0447941 -0.0647208 -0.00696373  -0.0488406 -0.0777335 -0.00606823  -0.0525498 -0.0914393 -0.00523996  -0.055934 -0.105745 -0.00447297  -0.0590103 -0.120552 -0.00377059  -0.0617959 -0.135778 -0.00312901  -0.0643092 -0.151337 -0.0025456  -0.0665693 -0.167158 -0.00202298  -0.0685965 -0.183168 -0.00155735  -0.0704105 -0.199309 -0.00114822  -0.0720356 -0.215518 -0.000798225  -0.0734942 -0.231752 -0.000501633  -0.074805 -0.247961 -0.000265598  -0.0759928 -0.264115 -8.29697e-05  -0.0770862 -0.280178 3.98159e-05  -0.0781174 -0.296142 0.000115156  -0.0791333 -0.312035 0.000169754  0 0 0  -0.00465813 -0.00215554 -0.00646782  -0.00915834 -0.00645636 -0.00793266  -0.0133081 -0.0124402 -0.00823545  -0.0174093 -0.0201472 -0.00793386  -0.0214254 -0.0293395 -0.00735092  -0.0253048 -0.0398004 -0.00665331  -0.0290026 -0.0513392 -0.00592947  -0.0324926 -0.0638066 -0.00522161  -0.0357615 -0.0770689 -0.00455594  -0.0388067 -0.0910154 -0.003932  -0.0416294 -0.10554 -0.00335884  -0.0442393 -0.120551 -0.00283051  -0.0466437 -0.135957 -0.00235081  -0.0488554 -0.151679 -0.00191331  -0.0508845 -0.16764 -0.00152397  -0.0527442 -0.183775 -0.00117326  -0.0544462 -0.200015 -0.000869274  -0.0560098 -0.216313 -0.00060606  -0.057445 -0.232612 -0.000385046  -0.0587687 -0.248876 -0.000205994  -0.0599937 -0.265064 -7.00951e-05  -0.0611351 -0.281156 3.21865e-05  -0.0622094 -0.297133 0.000109911  -0.0632412 -0.313017 0.000188589  0 0 0  -0.00271527 -0.000700399 -0.0043571  -0.00534348 -0.00476053 -0.005337  -0.00804314 -0.010915 -0.00549221  -0.0107892 -0.018803 -0.00526786  -0.0135187 -0.0281786 -0.00487804  -0.0162031 -0.038827 -0.00441456  -0.0188168 -0.0505599 -0.003932  -0.0213393 -0.0632226 -0.00346136  -0.0237558 -0.0766769 -0.00301528  -0.026059 -0.0908079 -0.00260139  -0.0282426 -0.105506 -0.00221634  -0.0303091 -0.120678 -0.00186253  -0.0322579 -0.13623 -0.00154161  -0.0340931 -0.152083 -0.00125265  -0.0358177 -0.16816 -0.00099206  -0.0374372 -0.184395 -0.000760317  -0.0389581 -0.200722 -0.000558615  -0.0403869 -0.217089 -0.000383377  -0.0417304 -0.233448 -0.000236273  -0.042995 -0.249759 -0.000118017  -0.0441904 -0.265986 -2.59876e-05  -0.0453184 -0.282108 4.72069e-05  -0.0463879 -0.298106 0.000111818  -0.0474167 -0.313964 0.000183821  0 0 0  -0.00120564 -0.000113845 -0.00212741  -0.00234048 -0.00388572 -0.00264692  -0.0035927 -0.0100639 -0.00272608  -0.00495914 -0.0180785 -0.00260806  -0.00638747 -0.0275899 -0.00240922  -0.00786036 -0.0383732 -0.00217223  -0.00936347 -0.05024 -0.00192714  -0.010884 -0.0630388 -0.00168872  -0.0124075 -0.0766284 -0.00146008  -0.0139246 -0.0908917 -0.00125003  -0.0154244 -0.105716 -0.00105405  -0.0169008 -0.121006 -0.000876427  -0.0183471 -0.136666 -0.000715971  -0.0197603 -0.152618 -0.000570536  -0.0211344 -0.16878 -0.000442028  -0.0224705 -0.18509 -0.000328064  -0.0237648 -0.201481 -0.000229359  -0.0250173 -0.217904 -0.000144005  -0.0262263 -0.234307 -7.20024e-05  -0.0273962 -0.250655 -1.54972e-05  -0.0285237 -0.266913 3.02792e-05  -0.0296111 -0.283062 6.79493e-05  -0.0306611 -0.299073 0.000101089  -0.031678 -0.314906 0.000142813  0 0 0  0.000138894 -5.1707e-05 0.000102043  0.000315875 -0.00377181 8.46386e-05  0.000441074 -0.00997072 6.53267e-05  0.000459909 -0.0180456 5.65052e-05  0.000347197 -0.0276271 5.8651e-05  9.84669e-05 -0.0384822 6.93798e-05  -0.000282824 -0.0504253 8.29697e-05  -0.000786543 -0.0633031 9.5129e-05  -0.00139976 -0.0769749 0.000105381  -0.00210977 -0.0913197 0.000112534  -0.00290191 -0.106224 0.000118494  -0.00376511 -0.121589 0.000122547  -0.00468552 -0.137319 0.000122547  -0.005651 -0.153332 0.000122547  -0.00665319 -0.169551 0.00012064  -0.00768089 -0.185909 0.000116587  -0.00872636 -0.202341 0.000112057  -0.00977969 -0.218797 0.000106335  -0.0108345 -0.235228 0.000102997  -0.0118887 -0.251598 9.84669e-05  -0.0129347 -0.267874 9.27448e-05  -0.0139723 -0.284034 8.65459e-05  -0.0149944 -0.300051 8.24928e-05  -0.0159967 -0.315873 7.89165e-05  0 0 0  0.00146478 -0.000422895 0.00231171  0.00295669 -0.00435954 0.00278258  0.0044578 -0.0106345 0.00282645  0.00585407 -0.0187214 0.00270057  0.00705022 -0.0283054 0.00251412  0.00801849 -0.0391712 0.00230503  0.00875491 -0.0511329 0.00208902  0.00926507 -0.0640385 0.00187778  0.00956225 -0.077741 0.00167155  0.00966072 -0.0921206 0.00147724  0.00957847 -0.107058 0.00129533  0.00933254 -0.122456 0.00112391  0.00894284 -0.138216 0.000964403  0.00842631 -0.154257 0.00081706  0.00780213 -0.170498 0.000682592  0.00708675 -0.186874 0.000561714  0.00629497 -0.203321 0.000453949  0.0054431 -0.219789 0.000359058  0.00454354 -0.236226 0.000279903  0.00360703 -0.2526 0.000211239  0.00264549 -0.268875 0.000155449  0.00166249 -0.285033 0.000107527  0.00066781 -0.301047 6.36578e-05  -0.000323534 -0.316878 1.62125e-05  0 0 0  0.00291646 -0.00131768 0.00446701  0.00590295 -0.00569493 0.0053618  0.00884107 -0.0120423 0.0054965  0.0115966 -0.0200834 0.00529122  0.0140712 -0.0296142 0.00493741  0.0162319 -0.0404395 0.00451827  0.0180664 -0.052373 0.00408053  0.0195742 -0.0652573 0.00364685  0.0207654 -0.0789449 0.00323057  0.021656 -0.0933118 0.00283384  0.0222677 -0.10824 0.00246191  0.022624 -0.123628 0.00211763  0.0227488 -0.139377 0.00179648  0.0226678 -0.155407 0.0015049  0.0224059 -0.171637 0.00123906  0.0219851 -0.188001 0.00100017  0.0214314 -0.204435 0.000787497  0.0207658 -0.220888 0.000604153  0.0200076 -0.237311 0.000447273  0.019176 -0.253669 0.000319004  0.0182853 -0.269927 0.000213623  0.0173497 -0.286066 0.000128746  0.0163777 -0.302067 5.4121e-05  0.0153937 -0.317922 -2.43187e-05  0 0 0  0.00475147 -0.00304455 0.00642204  0.00958541 -0.00781471 0.00777292  0.013946 -0.0141014 0.00808668  0.0180184 -0.0220595 0.00784135  0.0217437 -0.0315109 0.00733352  0.0250736 -0.0422665 0.00670981  0.0279816 -0.0541336 0.00605226  0.0304577 -0.0669566 0.00539827  0.0325129 -0.0805842 0.00476813  0.0341624 -0.0948948 0.00417161  0.0354362 -0.109768 0.00361371  0.0363588 -0.125104 0.00309467  0.0369642 -0.140803 0.00261354  0.0372827 -0.156784 0.00217557  0.0373468 -0.172966 0.0017786  0.0371881 -0.189285 0.00141978  0.0368347 -0.205675 0.00110507  0.0363183 -0.222088 0.000830889  0.0356648 -0.238472 0.000598907  0.0349019 -0.254795 0.000408411  0.0340531 -0.271019 0.000258446  0.033139 -0.287127 0.000145912  0.0321767 -0.303105 5.74589e-05  0.0311897 -0.318981 -2.76566e-05  0 0 0  0.00788151 -0.00605083 0.00820398  0.0142438 -0.0104371 0.010299  0.0199895 -0.0167063 0.0107634  0.0254446 -0.0246032 0.0104191  0.0304537 -0.0339845 0.00971675  0.0349529 -0.0446491 0.00887203  0.0389076 -0.0564203 0.00798488  0.0423124 -0.0691406 0.00710917  0.0451812 -0.0826664 0.00626779  0.0475377 -0.0968748 0.0054729  0.0494146 -0.11165 0.0047276  0.0508474 -0.126889 0.00403595  0.0518738 -0.142496 0.00339651  0.0525317 -0.158388 0.00281167  0.052862 -0.174484 0.0022831  0.0529027 -0.190721 0.00180793  0.0526879 -0.207036 0.00138712  0.052258 -0.223376 0.0010252  0.0516465 -0.239697 0.000717163  0.0508871 -0.25596 0.000467777  0.050014 -0.272135 0.000273228  0.0490608 -0.2882 0.000138044  0.0480597 -0.304148 4.91142e-05  0.0470557 -0.320026 -1.23978e-05  0 0 0  -0.00631789 -0.00725525 -0.00525212  -0.013213 -0.011478 -0.00772834  -0.0196323 -0.0172221 -0.00832415  -0.0256296 -0.0245161 -0.0080874  -0.0312031 -0.0332221 -0.00748706  -0.0363619 -0.0431728 -0.00675344  -0.0411198 -0.0542081 -0.00599718  -0.0454933 -0.0661933 -0.00526619  -0.0495009 -0.079003 -0.00458121  -0.0531621 -0.0925286 -0.00394797  -0.0564939 -0.106666 -0.00336671  -0.0595171 -0.121324 -0.00283265  -0.0622493 -0.136411 -0.00234795  -0.0647113 -0.151848 -0.00190759  -0.0669216 -0.167557 -0.00151443  -0.0689008 -0.18347 -0.0011642  -0.0706694 -0.199524 -0.000856161  -0.0722513 -0.215662 -0.000591516  -0.0736678 -0.231834 -0.000369072  -0.07494 -0.247998 -0.000192404  -0.0760958 -0.264117 -5.91278e-05  -0.0771651 -0.280167 3.43323e-05  -0.0781844 -0.296132 9.91821e-05  -0.0791945 -0.312035 0.000154018  0 0 0  -0.00310607 -0.00369869 -0.00391293  -0.00833605 -0.00867642 -0.00579548  -0.0132473 -0.0148184 -0.00622582  -0.0177662 -0.0224462 -0.00604892  -0.021999 -0.0314636 -0.00560355  -0.0259725 -0.0417135 -0.00505519  -0.0296941 -0.0530374 -0.00448966  -0.0331681 -0.065297 -0.00394011  -0.0364008 -0.0783657 -0.00342488  -0.0393993 -0.092132 -0.00294995  -0.0421721 -0.106492 -0.00251198  -0.0447311 -0.121352 -0.00211239  -0.0470847 -0.136621 -0.00174809  -0.0492457 -0.152219 -0.00141978  -0.0512265 -0.16807 -0.00112319  -0.0530404 -0.184106 -0.000861168  -0.0546994 -0.200261 -0.000631332  -0.0562196 -0.216484 -0.000433207  -0.0576155 -0.232724 -0.000267744  -0.0589015 -0.248939 -0.000133991  -0.0600944 -0.265094 -3.21865e-05  -0.061213 -0.281164 4.36306e-05  -0.0622756 -0.297133 0.000102997  -0.0633109 -0.313017 0.000158787  0 0 0  -0.00170132 -0.0020833 -0.0026648  -0.00479396 -0.00674959 -0.00393677  -0.00801724 -0.0131326 -0.00419974  -0.0110672 -0.021011 -0.00405264  -0.0139592 -0.0302621 -0.00374103  -0.0167171 -0.0407327 -0.00336599  -0.0193505 -0.0522699 -0.00298262  -0.0218625 -0.0647351 -0.00261307  -0.0242519 -0.0780014 -0.00226593  -0.0265191 -0.0919551 -0.00194716  -0.0286641 -0.10649 -0.00165367  -0.0306897 -0.12151 -0.00138426  -0.0325979 -0.136925 -0.00114083  -0.0343934 -0.152653 -0.000921488  -0.0360795 -0.168619 -0.000726223  -0.0376626 -0.184753 -0.000551462  -0.0391488 -0.200994 -0.000397444  -0.040544 -0.217286 -0.000265598  -0.0418577 -0.233583 -0.000155687  -0.0430961 -0.249843 -6.69956e-05  -0.0442677 -0.266033 2.86102e-06  -0.0453796 -0.282127 5.74589e-05  -0.0464427 -0.298107 0.000102997  -0.0474806 -0.313961 0.000149488  0 0 0  -0.000726275 -0.0014554 -0.00133276  -0.0021057 -0.00581366 -0.0019803  -0.00363481 -0.0122251 -0.0021112  -0.00516945 -0.0202505 -0.00203085  -0.00669092 -0.0296582 -0.00186563  -0.00820678 -0.0402792 -0.00166702  -0.00972062 -0.051963 -0.00146794  -0.0112334 -0.0645717 -0.00127745  -0.0127386 -0.0779774 -0.00109816  -0.0142304 -0.0920654 -0.000934124  -0.0157028 -0.106727 -0.00078392  -0.0171499 -0.121865 -0.000646591  -0.0185671 -0.137387 -0.000523806  -0.0199522 -0.153213 -0.000413418  -0.0213001 -0.169263 -0.000315428  -0.0226102 -0.185472 -0.000230074  -0.023881 -0.201775 -0.000154972  -0.0251105 -0.21812 -9.01222e-05  -0.0263014 -0.23446 -3.60012e-05  -0.0274534 -0.250755 8.82149e-06  -0.0285673 -0.266972 4.33922e-05  -0.029645 -0.283087 6.96182e-05  -0.0306914 -0.299073 9.46522e-05  -0.031714 -0.314901 0.000120163  0 0 0  9.65595e-05 -0.00136557 3.74317e-05  0.000240415 -0.00566912 2.98023e-05  0.000325978 -0.0121049 1.54972e-05  0.000311077 -0.0201994 1.3113e-05  0.000176549 -0.0296877 2.07424e-05  -8.21352e-05 -0.0403913 3.55244e-05  -0.00046289 -0.0521576 5.14984e-05  -0.000959098 -0.0648507 6.48499e-05  -0.00156021 -0.0783414 7.7486e-05  -0.0022552 -0.092513 8.70228e-05  -0.00303125 -0.107255 9.36985e-05  -0.00387692 -0.122468 9.70364e-05  -0.00478005 -0.138059 0.000100374  -0.00573039 -0.153946 0.000100374  -0.00671613 -0.170051 0.000100613  -0.00773072 -0.186306 9.94205e-05  -0.00876307 -0.202649 9.67979e-05  -0.00980544 -0.219027 9.41753e-05  -0.0108521 -0.235392 9.17912e-05  -0.0118995 -0.251706 8.79765e-05  -0.0129387 -0.267939 8.58307e-05  -0.0139706 -0.284064 8.22544e-05  -0.0149915 -0.300054 7.96318e-05  -0.0159924 -0.31587 7.7486e-05  0 0 0  0.000921175 -0.00170708 0.00139523  0.0025824 -0.00622916 0.00201225  0.00426981 -0.0127491 0.00211716  0.00576127 -0.0208644 0.00203872  0.00700492 -0.0303628 0.00189424  0.00799608 -0.0410823 0.00173211  0.00874585 -0.0528722 0.00156736  0.00926507 -0.0655952 0.00140619  0.00956845 -0.079119 0.00125265  0.00967324 -0.0933257 0.00110817  0.00959706 -0.108101 0.000972271  0.00935721 -0.123348 0.000844717  0.00897324 -0.138969 0.000725508  0.00846148 -0.154881 0.000617981  0.00784063 -0.171007 0.00051713  0.00712609 -0.18728 0.000427246  0.00633621 -0.203636 0.000347853  0.00548434 -0.220024 0.000277519  0.00458312 -0.236394 0.000219584  0.00364494 -0.252712 0.000168562  0.00268078 -0.268944 0.000128031  0.00169683 -0.285067 9.56059e-05  0.000702381 -0.301056 6.55651e-05  -0.000280857 -0.316883 3.57628e-05  0 0 0  0.00190082 -0.00258148 0.00268292  0.0052467 -0.00756204 0.00389028  0.00858328 -0.0141612 0.00412893  0.0115533 -0.0222306 0.00400329  0.0141408 -0.0316746 0.00373292  0.0163575 -0.0423523 0.00340748  0.0182175 -0.0541139 0.00306988  0.0197356 -0.0668169 0.00273848  0.0209286 -0.0803266 0.00242281  0.0218183 -0.0945211 0.00212383  0.0224268 -0.109287 0.00184512  0.022779 -0.124523 0.00158596  0.0228993 -0.140133 0.00134706  0.0228122 -0.156034 0.00112963  0.022543 -0.172148 0.000931025  0.0221148 -0.188407 0.000752449  0.0215495 -0.204749 0.000594854  0.0208728 -0.221121 0.000458002  0.0201025 -0.237477 0.000342131  0.0192578 -0.253778 0.000246048  0.0183566 -0.269994 0.000169754  0.0174112 -0.286101 0.00010848  0.0164378 -0.302084 5.72205e-05  0.0154624 -0.317936 5.96046e-06  0 0 0  0.00330125 -0.00440961 0.00383663  0.00869864 -0.00982261 0.00561023  0.0136384 -0.01631 0.00603795  0.0180203 -0.0242532 0.00590777  0.0219111 -0.0335926 0.00553179  0.0253234 -0.0441854 0.00505495  0.0282663 -0.0558744 0.00455165  0.0307536 -0.0685122 0.00405288  0.0328066 -0.0819613 0.00357676  0.0344496 -0.0960991 0.00312781  0.0357111 -0.110811 0.00270796  0.0366229 -0.125994 0.00231814  0.0372149 -0.141554 0.00195932  0.037519 -0.157405 0.00163174  0.0375676 -0.173471 0.00133443  0.0373902 -0.189683 0.00106716  0.0370188 -0.20598 0.000831127  0.0364816 -0.222311 0.000627279  0.0358078 -0.238627 0.000455618  0.0350225 -0.254893 0.000315428  0.0341523 -0.271076 0.00020504  0.0332205 -0.287157 0.00012207  0.0322504 -0.303125 5.76973e-05  0.0312648 -0.319 -3.09944e-06  0 0 0  0.00636205 -0.00806737 0.00502682  0.0133241 -0.0128489 0.00736499  0.019657 -0.0191074 0.0079658  0.0254376 -0.0268898 0.00780869  0.0306278 -0.0360965 0.00731111  0.0352176 -0.0465695 0.00667906  0.039213 -0.0581443 0.00601053  0.042631 -0.0706736 0.00534868  0.0454984 -0.0840171 0.00471473  0.0478466 -0.0980535 0.00411606  0.0497123 -0.112667 0.00355721  0.0511318 -0.127754 0.00303912  0.0521437 -0.143221 0.00255966  0.0527866 -0.158983 0.00212336  0.0531001 -0.174963 0.00172782  0.0531204 -0.191094 0.00137258  0.0528858 -0.207315 0.00105882  0.0524337 -0.223574 0.000788927  0.0517995 -0.239825 0.00056076  0.0510178 -0.256033 0.000375748  0.0501213 -0.272167 0.000233889  0.0491486 -0.28821 0.000132322  0.0481374 -0.304157 6.27041e-05  0.047123 -0.320043 2.86102e-06  0 0 0  -0.00638079 -0.00848883 -0.00306988  -0.0129757 -0.0132302 -0.00478935  -0.0194285 -0.0190583 -0.00541377  -0.0255868 -0.0262555 -0.00537086  -0.0313028 -0.0348063 -0.00501537  -0.0365586 -0.0445907 -0.00453353  -0.0413705 -0.055458 -0.0040257  -0.0457678 -0.0672899 -0.00352907  -0.0497767 -0.079953 -0.00306463  -0.0534266 -0.0933493 -0.00263476  -0.0567408 -0.107364 -0.00224257  -0.0597421 -0.121914 -0.00188231  -0.0624508 -0.136898 -0.00155735  -0.0648896 -0.152247 -0.00126052  -0.0670758 -0.167873 -0.000994921  -0.0690348 -0.183717 -0.00075984  -0.0707827 -0.199705 -0.000552893  -0.0723464 -0.215793 -0.000374794  -0.073745 -0.231917 -0.00022769  -0.0750062 -0.248049 -0.000108719  -0.0761523 -0.26414 -1.83582e-05  -0.0772178 -0.280178 4.74453e-05  -0.0782394 -0.296136 9.27448e-05  -0.0792513 -0.312045 0.00013566  0 0 0  -0.00288196 -0.00452827 -0.00227261  -0.00792828 -0.0100612 -0.00359988  -0.0130251 -0.0163979 -0.00407386  -0.0177711 -0.0240275 -0.00403786  -0.0221694 -0.0329579 -0.00376678  -0.0262436 -0.0430811 -0.0033989  -0.0300171 -0.0542651 -0.0030148  -0.0335094 -0.0663828 -0.00263786  -0.0367379 -0.0793157 -0.00228572  -0.0397203 -0.0929543 -0.00196242  -0.0424708 -0.107196 -0.00166535  -0.0450034 -0.121947 -0.00139523  -0.0473291 -0.137117 -0.00115037  -0.0494632 -0.152626 -0.00092864  -0.0514166 -0.168396 -0.000728607  -0.0532048 -0.18436 -0.000552416  -0.0548394 -0.200454 -0.000398397  -0.0563362 -0.216624 -0.000263453  -0.0577099 -0.232819 -0.000152826  -0.0589795 -0.248998 -6.27041e-05  -0.060159 -0.265127 6.19888e-06  -0.0612686 -0.281179 5.76973e-05  -0.0623286 -0.29714 9.84669e-05  -0.063364 -0.313025 0.000136614  0 0 0  -0.00153316 -0.00271171 -0.0015347  -0.00447407 -0.00785246 -0.00244379  -0.00783986 -0.0145006 -0.00275612  -0.0110835 -0.0224592 -0.00271606  -0.0141165 -0.0316829 -0.00252056  -0.0169594 -0.0420617 -0.00226855  -0.0196362 -0.0534836 -0.00200415  -0.0221619 -0.0658186 -0.00174713  -0.0245471 -0.0789589 -0.00151014  -0.0267997 -0.0927866 -0.00129199  -0.0289245 -0.107207 -0.00109053  -0.0309262 -0.122117 -0.00090909  -0.0328101 -0.137436 -0.00074482  -0.0345801 -0.153072 -0.000595331  -0.0362428 -0.168959 -0.000462294  -0.0378036 -0.18502 -0.000345707  -0.0392687 -0.2012 -0.000241756  -0.0406435 -0.217437 -0.000153542  -0.0419393 -0.23369 -7.86781e-05  -0.0431604 -0.249911 -1.83582e-05  -0.0443184 -0.266074 2.86102e-05  -0.0454237 -0.282147 6.53267e-05  -0.0464835 -0.298119 9.56059e-05  -0.0475216 -0.313974 0.000126362  0 0 0  -0.000649661 -0.00198373 -0.000774622  -0.00196086 -0.00677353 -0.00123715  -0.00356859 -0.0134654 -0.00139403  -0.00521472 -0.0216135 -0.001369  -0.00682145 -0.0310288 -0.00126266  -0.00838882 -0.0415855 -0.00112677  -0.009929 -0.0531684 -0.000987291  -0.0114485 -0.0656582 -0.000853539  -0.0129489 -0.0789422 -0.000730515  -0.0144284 -0.0929088 -0.000615835  -0.0158854 -0.107457 -0.000512838  -0.0173144 -0.122487 -0.000420094  -0.0187142 -0.137911 -0.000335455  -0.0200799 -0.153646 -0.000259399  -0.02141 -0.169616 -0.000193357  -0.0227035 -0.185751 -0.000134468  -0.0239587 -0.201993 -8.22544e-05  -0.0251737 -0.218282 -3.79086e-05  -0.0263517 -0.234576 -7.15256e-07  -0.027492 -0.250832 2.95639e-05  -0.0285988 -0.267019 5.36442e-05  -0.0296702 -0.283111 7.08103e-05  -0.0307128 -0.299088 8.86917e-05  -0.0317371 -0.314922 0.000104904  0 0 0  7.63535e-05 -0.00185743 1.35899e-05  0.000193 -0.00657529 8.10623e-06  0.000256389 -0.0132964 -7.15256e-07  0.000220239 -0.0215255 -9.53674e-07  6.92606e-05 -0.0310378 5.96046e-06  -0.000199556 -0.0416863 1.88351e-05  -0.00058341 -0.0533625 3.12328e-05  -0.00107735 -0.0659406 4.36306e-05  -0.00167215 -0.0793149 5.48363e-05  -0.0023576 -0.0933654 6.31809e-05  -0.00312269 -0.107996 6.93798e-05  -0.00395668 -0.1231 7.27177e-05  -0.00484872 -0.138595 7.7486e-05  -0.00578737 -0.154389 7.9155e-05  -0.0067637 -0.170415 7.96318e-05  -0.00776744 -0.186595 8.05855e-05  -0.00879097 -0.202876 7.93934e-05  -0.00982594 -0.219195 8.03471e-05  -0.0108664 -0.235515 7.93934e-05  -0.0119076 -0.251788 7.79629e-05  -0.012944 -0.267991 7.82013e-05  -0.0139737 -0.284092 7.72476e-05  -0.014991 -0.300073 7.65324e-05  -0.015995 -0.315895 7.67708e-05  0 0 0  0.000804648 -0.00220752 0.000790596  0.00234452 -0.00715196 0.00123668  0.0040656 -0.0139542 0.00137639  0.00562447 -0.0221999 0.00135303  0.00691849 -0.0317163 0.001266  0.00794154 -0.0423809 0.00115824  0.00870991 -0.0540796 0.0010469  0.00924158 -0.0666903 0.000940561  0.00955343 -0.0800973 0.000838757  0.00966585 -0.0941857 0.000741482  0.00959504 -0.108849 0.000653028  0.00936103 -0.123988 0.000567675  0.00898123 -0.13951 0.000490665  0.00847447 -0.155331 0.00041914  0.00785697 -0.171377 0.000353813  0.0071466 -0.187575 0.000295639  0.00635839 -0.203867 0.000243187  0.00550628 -0.220196 0.000199318  0.00460601 -0.23652 0.00015974  0.00366592 -0.252797 0.000128031  0.00270081 -0.268998 0.000102997  0.00171757 -0.285098 8.32081e-05  0.000724077 -0.301077 6.67572e-05  -0.000258923 -0.31691 4.91142e-05  0 0 0  0.00169361 -0.00315803 0.00152278  0.00483951 -0.00858778 0.00239897  0.00827011 -0.0154522 0.00269127  0.0113823 -0.023617 0.00266242  0.0140735 -0.0330562 0.00249672  0.0163558 -0.0436638 0.00228143  0.0182528 -0.0553279 0.00205326  0.0197916 -0.0679144 0.00183034  0.0209955 -0.081307 0.00161791  0.0218905 -0.0953813 0.0014174  0.0225012 -0.110037 0.00123215  0.0228546 -0.125164 0.00105977  0.0229737 -0.140678 0.000901461  0.0228856 -0.156485 0.000756741  0.0226136 -0.172519 0.00062561  0.0221815 -0.188702 0.000508547  0.0216136 -0.20498 0.000404119  0.020931 -0.221292 0.000314474  0.0201564 -0.237602 0.000239849  0.0193076 -0.253861 0.000176907  0.0184007 -0.270049 0.000128031  0.017453 -0.286131 8.9407e-05  0.0164778 -0.302106 5.84126e-05  0.0155029 -0.31796 2.71797e-05  0 0 0  0.00303575 -0.00517261 0.00220156  0.00820068 -0.0110785 0.00347733  0.0132723 -0.0177568 0.00393581  0.0178285 -0.0257291 0.00392318  0.0218478 -0.0350178 0.00369453  0.0253428 -0.0455167 0.00338054  0.0283341 -0.0570935 0.00304317  0.0308481 -0.0696089 0.00270796  0.0329143 -0.0829366 0.00238848  0.0345619 -0.0969544 0.00208783  0.035825 -0.111554 0.0018065  0.0367346 -0.12663 0.0015471  0.0373236 -0.142091 0.00130987  0.0376235 -0.157851 0.00109172  0.0376669 -0.173835 0.000893831  0.0374842 -0.189972 0.000718355  0.0371053 -0.206204 0.000561953  0.0365613 -0.222476 0.000427008  0.0358784 -0.238745 0.000314951  0.0350859 -0.25497 0.000221729  0.0342095 -0.271125 0.000151873  0.0332744 -0.287185 9.82285e-05  0.0323014 -0.303145 5.67436e-05  0.031317 -0.319022 1.57356e-05  0 0 0  0.00630413 -0.00921416 0.00291371  0.0129362 -0.0144178 0.00456333  0.019286 -0.020747 0.00516963  0.0251949 -0.0284645 0.00516272  0.0305005 -0.0375682 0.00487041  0.0351734 -0.0479133 0.00446153  0.0392205 -0.0593602 0.00401568  0.0426683 -0.0717561 0.00357437  0.045553 -0.0849763 0.00314975  0.0479113 -0.0988885 0.0027504  0.049782 -0.113391 0.00237846  0.0512024 -0.128369 0.002033  0.0522143 -0.14374 0.00171494  0.0528574 -0.159408 0.00142527  0.0531678 -0.175309 0.00116181  0.0531859 -0.191363 0.000926256  0.052949 -0.20752 0.00071907  0.0524931 -0.223721 0.00053978  0.051856 -0.239927 0.000389576  0.0510697 -0.256095 0.000268698  0.0501733 -0.272205 0.000177145  0.0492013 -0.28823 0.000109196  0.0481927 -0.304176 6.24657e-05  0.0471866 -0.320067 2.02656e-05  0 0 0  -0.00650218 -0.00906266 -0.0014286  -0.0129734 -0.0141256 -0.00227523  -0.0193289 -0.0200835 -0.00263596  -0.0255007 -0.0272655 -0.00265813  -0.0312757 -0.0357484 -0.00250149  -0.0365889 -0.0454403 -0.00226593  -0.0414425 -0.0562157 -0.00200915  -0.0458633 -0.0679534 -0.00175667  -0.0498838 -0.0805337 -0.00152087  -0.0535339 -0.093847 -0.00130177  -0.0568434 -0.107791 -0.00110102  -0.0598369 -0.122272 -0.00091815  -0.0625366 -0.137198 -0.000751495  -0.0649643 -0.15249 -0.000601768  -0.0671418 -0.168069 -0.000465155  -0.0690897 -0.183867 -0.000344515  -0.0708303 -0.199819 -0.000239134  -0.0723848 -0.215871 -0.000147581  -0.0737774 -0.231971 -7.31945e-05  -0.0750346 -0.248079 -1.09673e-05  -0.0761819 -0.264157 3.71933e-05  -0.0772498 -0.280181 7.1764e-05  -0.0782743 -0.296139 9.75132e-05  -0.0792933 -0.312049 0.000119686  0 0 0  -0.00282176 -0.00492651 -0.00106049  -0.00779824 -0.0107871 -0.00171494  -0.0128945 -0.017275 -0.00199056  -0.0177106 -0.0249375 -0.00200486  -0.0221911 -0.0338364 -0.00188279  -0.0263302 -0.0438971 -0.00169945  -0.0301448 -0.0550037 -0.00150466  -0.0336581 -0.067041 -0.00131154  -0.0368936 -0.079894 -0.00113082  -0.0398736 -0.093457 -0.000964403  -0.0426157 -0.107628 -0.000814438  -0.0451361 -0.122313 -0.000676155  -0.0474497 -0.137423 -0.000549793  -0.0495707 -0.152878 -0.000436306  -0.0515112 -0.168599 -0.000333786  -0.0532851 -0.18452 -0.000242472  -0.0549083 -0.200576 -0.000164032  -0.0563955 -0.216713 -9.41753e-05  -0.0577588 -0.23288 -3.76701e-05  -0.0590212 -0.249038 1.0252e-05  -0.0601952 -0.26515 4.60148e-05  -0.0613031 -0.281191 7.55787e-05  -0.0623605 -0.297147 9.77516e-05  -0.0633965 -0.313035 0.000118494  0 0 0  -0.00147767 -0.00301099 -0.000710726  -0.00435391 -0.00842133 -0.00115967  -0.00773048 -0.0152408 -0.00134492  -0.0110456 -0.0232763 -0.00135016  -0.0141553 -0.0325038 -0.00126171  -0.0170552 -0.0428469 -0.00113392  -0.0197661 -0.0542067 -0.000998259  -0.0223086 -0.0664723 -0.000867367  -0.0246978 -0.079537 -0.000745058  -0.0269457 -0.0932935 -0.000632048  -0.0290618 -0.107643 -0.000528097  -0.0310527 -0.122491 -0.000433922  -0.0329235 -0.137748 -0.000349522  -0.034681 -0.153332 -0.000272274  -0.0363309 -0.169169 -0.000203848  -0.0378792 -0.185188 -0.000142336  -0.0393322 -0.201328 -8.82149e-05  -0.0406969 -0.217534 -4.07696e-05  -0.0419836 -0.233758 -3.09944e-06  -0.0431991 -0.249958 3.00407e-05  -0.0443518 -0.266102 5.53131e-05  -0.0454509 -0.282164 7.48634e-05  -0.0465105 -0.298129 9.20296e-05  -0.0475492 -0.313991 0.000109673  0 0 0  -0.000624172 -0.00221995 -0.000358343  -0.00190553 -0.00724348 -0.000588179  -0.00352323 -0.0141126 -0.000680923  -0.00521475 -0.022363 -0.000681639  -0.00686967 -0.0318088 -0.000632286  -0.00847244 -0.0423476 -0.000564098  -0.0100332 -0.0538817 -0.000491619  -0.0115622 -0.0663084 -0.000421047  -0.0130631 -0.0795225 -0.000356674  -0.014539 -0.0934195 -0.000296593  -0.015987 -0.107899 -0.000242472  -0.0174075 -0.122866 -0.000193834  -0.0187967 -0.138231 -0.00014925  -0.0201534 -0.153911 -0.00010848  -0.0214731 -0.169832 -7.34329e-05  -0.0227569 -0.185925 -4.12464e-05  -0.0240033 -0.202127 -1.3113e-05  -0.0252116 -0.218384 1.07288e-05  -0.026382 -0.234649 3.14713e-05  -0.027519 -0.250882 4.98295e-05  -0.0286183 -0.267051 6.34193e-05  -0.0296876 -0.283132 7.39098e-05  -0.0307286 -0.299102 8.44002e-05  -0.031754 -0.314943 9.34601e-05  0 0 0  6.65188e-05 -0.00206801 3.09944e-06  0.000168175 -0.00700727 1.90735e-06  0.000218213 -0.0139046 -1.43051e-06  0.00017041 -0.0222458 -9.53674e-07  1.00732e-05 -0.0317981 3.33786e-06  -0.000265777 -0.0424382 1.04904e-05  -0.000653207 -0.0540707 2.00272e-05  -0.00114673 -0.0665911 2.67029e-05  -0.00173891 -0.0798969 3.38554e-05  -0.00241923 -0.0938808 3.98159e-05  -0.00317836 -0.108443 4.60148e-05  -0.00400651 -0.123484 5.10216e-05  -0.00489116 -0.138919 5.36442e-05  -0.00582409 -0.154661 5.76973e-05  -0.00679398 -0.170636 5.88894e-05  -0.00779188 -0.186774 6.27041e-05  -0.00881028 -0.203014 6.34193e-05  -0.00984192 -0.219301 6.62804e-05  -0.0108781 -0.235591 6.62804e-05  -0.0119162 -0.251843 6.93798e-05  -0.0129495 -0.268026 7.12872e-05  -0.0139778 -0.284114 7.1764e-05  -0.0149941 -0.300089 7.48634e-05  -0.0159976 -0.315919 7.60555e-05  0 0 0  0.000759348 -0.00243175 0.000360727  0.00223866 -0.00760168 0.000583172  0.00394401 -0.0145794 0.000669956  0.00552511 -0.0229294 0.00067234  0.00684673 -0.0324812 0.000633717  0.00789148 -0.0431339 0.000581026  0.00867414 -0.0547893 0.000526667  0.00921512 -0.0673413 0.00047493  0.00953448 -0.080682 0.000424385  0.00965166 -0.0947024 0.000377655  0.00958562 -0.109299 0.000335217  0.00935507 -0.124375 0.000294685  0.00897896 -0.139838 0.00025773  0.00847495 -0.155606 0.00022316  0.00786006 -0.171601 0.000192642  0.00715089 -0.187755 0.000164509  0.00636387 -0.204007 0.000141144  0.00551295 -0.220304 0.000119925  0.00461316 -0.236598 0.000102758  0.00367594 -0.252852 8.9407e-05  0.00271058 -0.269034 7.84397e-05  0.0017271 -0.285121 7.05719e-05  0.000735283 -0.301094 6.55651e-05  -0.000249147 -0.316934 5.84126e-05  0 0 0  0.00161821 -0.00343639 0.000699282  0.004668 -0.00911564 0.00113606  0.00808194 -0.0161443 0.00131345  0.0112426 -0.0243914 0.00132227  0.0139903 -0.0338452 0.00124884  0.0163153 -0.0444294 0.00114369  0.0182408 -0.0560425 0.00103068  0.0197967 -0.0685679 0.00091815  0.0210111 -0.0818914 0.000812292  0.021912 -0.0958994 0.000712633  0.0225265 -0.110486 0.000621319  0.0228813 -0.125552 0.00053668  0.0230018 -0.141005 0.000459671  0.0229137 -0.15676 0.000387907  0.0226423 -0.172742 0.000324249  0.0222099 -0.188883 0.000267506  0.0216403 -0.20512 0.000216484  0.0209568 -0.2214 0.000174046  0.0201807 -0.237679 0.000138044  0.0193295 -0.253916 0.00010848  0.0184228 -0.270083 8.74996e-05  0.0174739 -0.286155 7.05719e-05  0.0164995 -0.302122 5.6982e-05  0.0155239 -0.317982 4.31538e-05  0 0 0  0.0029525 -0.00554299 0.00102162  0.00800851 -0.0117405 0.00165343  0.0130547 -0.0185568 0.00192356  0.0176614 -0.0265699 0.00194669  0.021746 -0.0358433 0.00184608  0.0252938 -0.0462981 0.00169253  0.0283209 -0.0578135 0.00152493  0.0308573 -0.0702612 0.00135708  0.0329365 -0.0835181 0.00119638  0.034592 -0.0974674 0.00104618  0.0358588 -0.111999 0.000906706  0.0367702 -0.127012 0.000778437  0.03736 -0.142414 0.000659466  0.0376593 -0.15812 0.000551939  0.0377024 -0.174053 0.000455618  0.0375185 -0.190147 0.000368118  0.0371385 -0.206339 0.000291824  0.0365901 -0.222578 0.000226259  0.035908 -0.238817 0.00017333  0.0351126 -0.255021 0.000129223  0.0342367 -0.271157 9.46522e-05  0.0333023 -0.287206 6.96182e-05  0.032331 -0.30316 5.22137e-05  0.0313456 -0.31904 3.31402e-05  0 0 0  0.00636135 -0.00975466 0.00134873  0.0128347 -0.0152455 0.00216532  0.0190799 -0.0216706 0.00251818  0.0249991 -0.0293798 0.00255442  0.030354 -0.0384304 0.00242615  0.0350752 -0.0487087 0.00222898  0.0391591 -0.0600793 0.00200796  0.0426331 -0.0724015 0.00178742  0.0455333 -0.085546 0.00157571  0.0479025 -0.0993888 0.00137639  0.0497791 -0.113821 0.0011909  0.0512046 -0.128738 0.00101852  0.0522196 -0.144049 0.000861168  0.0528651 -0.159665 0.00071764  0.0531787 -0.175515 0.000586748  0.0531983 -0.191527 0.000470638  0.052963 -0.207644 0.000368595  0.0525086 -0.223812 0.000281572  0.0518725 -0.239989 0.000208616  0.0510888 -0.256136 0.000149965  0.050195 -0.272228 0.000105143  0.0492287 -0.288245 7.39098e-05  0.0482249 -0.304188 5.17368e-05  0.0472167 -0.320081 3.05176e-05  0 0 0  -0.00655027 -0.00923797 3.09944e-06  -0.012987 -0.0144041 5.72205e-06  -0.019304 -0.0204083 9.77516e-06  -0.0254684 -0.0275978 1.54972e-05  -0.031256 -0.0360587 1.83582e-05  -0.0365874 -0.0457252 2.47955e-05  -0.0414553 -0.0564672 2.95639e-05  -0.0458857 -0.0681772 3.43323e-05  -0.0499114 -0.0807256 3.88622e-05  -0.0535635 -0.0940155 4.31538e-05  -0.0568721 -0.107932 4.79221e-05  -0.0598643 -0.122392 5.36442e-05  -0.0625612 -0.137296 5.8651e-05  -0.0649869 -0.152572 6.48499e-05  -0.0671613 -0.168131 6.98566e-05  -0.0691081 -0.183917 7.53403e-05  -0.0708451 -0.199853 8.05855e-05  -0.0723965 -0.215897 8.53539e-05  -0.0737879 -0.231985 8.96454e-05  -0.0750449 -0.248087 9.39369e-05  -0.0761921 -0.264157 9.89437e-05  -0.0772626 -0.280181 0.000104427  -0.0782878 -0.296135 0.00010848  -0.0793061 -0.312048 0.000112534  0 0 0  -0.00280819 -0.00504273 3.09944e-06  -0.00776641 -0.0110084 4.52995e-06  -0.0128557 -0.0175512 9.29832e-06  -0.0176844 -0.0252297 1.21593e-05  -0.0221875 -0.0341219 1.57356e-05  -0.0263481 -0.0441635 2.00272e-05  -0.0301774 -0.0552461 2.38419e-05  -0.0336993 -0.0672566 2.86102e-05  -0.0369389 -0.0800833 3.45707e-05  -0.0399195 -0.0936207 3.83854e-05  -0.04266 -0.107767 4.33922e-05  -0.0451775 -0.12243 4.69685e-05  -0.0474869 -0.137521 5.24521e-05  -0.0496031 -0.152957 5.67436e-05  -0.0515403 -0.168662 6.17504e-05  -0.0533116 -0.184568 6.62804e-05  -0.05493 -0.200611 7.27177e-05  -0.0564137 -0.216737 7.58171e-05  -0.0577755 -0.232895 8.08239e-05  -0.0590339 -0.249045 8.60691e-05  -0.0602083 -0.265151 9.01222e-05  -0.0613146 -0.281188 9.46522e-05  -0.0623736 -0.297144 9.91821e-05  -0.0634112 -0.313033 0.000103712  0 0 0  -0.00146473 -0.0030981 1.66893e-06  -0.00432251 -0.00859264 4.52995e-06  -0.00769734 -0.0154724 6.4373e-06  -0.0110284 -0.0235344 9.29832e-06  -0.0141606 -0.0327689 1.38283e-05  -0.0170795 -0.0430997 1.69277e-05  -0.019803 -0.0544426 2.0504e-05  -0.022352 -0.0666838 2.31266e-05  -0.024744 -0.0797258 2.71797e-05  -0.0269914 -0.0934563 3.14713e-05  -0.0291053 -0.107785 3.67165e-05  -0.0310925 -0.122608 4.07696e-05  -0.0329603 -0.137848 4.52995e-05  -0.0347143 -0.153412 4.98295e-05  -0.03636 -0.169233 5.36442e-05  -0.0379044 -0.185236 5.88894e-05  -0.0393534 -0.201365 6.38962e-05  -0.0407155 -0.217558 6.96182e-05  -0.0419996 -0.233774 7.27177e-05  -0.0432124 -0.249965 7.65324e-05  -0.0443633 -0.266104 8.15392e-05  -0.0454621 -0.282161 8.58307e-05  -0.0465205 -0.298126 9.03606e-05  -0.0475597 -0.313987 9.34601e-05  0 0 0  -0.000618398 -0.00228795 2.38419e-07  -0.00189087 -0.00738272 2.86102e-06  -0.00350943 -0.0143115 4.29153e-06  -0.00521263 -0.0225971 6.4373e-06  -0.00688195 -0.0320576 9.29832e-06  -0.008497 -0.0425923 1.12057e-05  -0.0100655 -0.0541129 1.54972e-05  -0.0115979 -0.0665185 1.88351e-05  -0.0131005 -0.0797105 2.24113e-05  -0.0145748 -0.0935837 2.52724e-05  -0.0160209 -0.108041 2.98023e-05  -0.0174383 -0.122986 3.33786e-05  -0.0188249 -0.138331 3.69549e-05  -0.0201777 -0.153993 4.14848e-05  -0.0214958 -0.169899 4.60148e-05  -0.0227762 -0.185976 5.126e-05  -0.0240202 -0.202165 5.57899e-05  -0.0252256 -0.218411 5.96046e-05  -0.0263937 -0.234666 6.41346e-05  -0.0275264 -0.250892 6.7234e-05  -0.0286269 -0.267055 7.15256e-05  -0.0296946 -0.28313 7.60555e-05  -0.0307355 -0.2991 8.01086e-05  -0.0317621 -0.314942 8.41618e-05  0 0 0  6.3628e-05 -0.00212774 2.38419e-07  0.000160128 -0.00713301 2.6226e-06  0.000205606 -0.0140906 2.38419e-06  0.000154138 -0.0224689 5.24521e-06  -1.00732e-05 -0.0320402 6.19888e-06  -0.00028801 -0.0426784 8.34465e-06  -0.000676692 -0.0543003 1.12057e-05  -0.00117064 -0.0668004 1.26362e-05  -0.00176215 -0.0800859 1.5974e-05  -0.00244093 -0.0940451 1.95503e-05  -0.0031991 -0.108587 2.3365e-05  -0.00402462 -0.123606 2.67029e-05  -0.00490761 -0.139022 3.14713e-05  -0.00583732 -0.154744 3.55244e-05  -0.00680518 -0.170704 3.83854e-05  -0.00780189 -0.186825 4.24385e-05  -0.00881934 -0.203054 4.69685e-05  -0.00984836 -0.219328 5.17368e-05  -0.0108845 -0.23561 5.38826e-05  -0.0119205 -0.251852 5.96046e-05  -0.0129538 -0.268031 6.31809e-05  -0.0139806 -0.284113 6.69956e-05  -0.0149968 -0.300088 7.03335e-05  -0.016001 -0.315919 7.43866e-05  0 0 0  0.000747755 -0.00249606 7.15256e-07  0.00220832 -0.00773507 4.76837e-07  0.00390509 -0.0147704 0  0.00548929 -0.0231569 7.15256e-07  0.00681925 -0.0327247 3.33786e-06  0.00787103 -0.0433756 4.29153e-06  0.00865877 -0.055019 6.4373e-06  0.00920308 -0.0675521 8.58307e-06  0.00952506 -0.080871 1.0252e-05  0.00964344 -0.0948685 1.38283e-05  0.00957918 -0.109444 1.69277e-05  0.00935006 -0.124497 2.12193e-05  0.00897503 -0.139942 2.45571e-05  0.00847208 -0.15569 2.71797e-05  0.0078584 -0.171669 3.0756e-05  0.00715065 -0.187809 3.48091e-05  0.00636458 -0.204048 3.76701e-05  0.00551486 -0.220333 4.31538e-05  0.00461507 -0.236618 4.64916e-05  0.00367737 -0.252863 4.91142e-05  0.00271153 -0.269039 5.43594e-05  0.00172877 -0.285121 5.84126e-05  0.000736237 -0.301093 6.24657e-05  -0.000248671 -0.316934 6.67572e-05  0 0 0  0.00159924 -0.00351763 -2.38419e-07  0.00461984 -0.00927365 -2.86102e-06  0.00802281 -0.0163597 -2.6226e-06  0.011192 -0.0246341 -1.66893e-06  0.0139555 -0.0340976 2.38419e-07  0.0162947 -0.0446746 9.53674e-07  0.0182301 -0.0562747 3.09944e-06  0.0197928 -0.0687783 3.8147e-06  0.0210106 -0.0820815 6.19888e-06  0.0219142 -0.0960647 8.82149e-06  0.0225303 -0.110632 1.12057e-05  0.0228857 -0.125674 1.35899e-05  0.0230068 -0.141109 1.66893e-05  0.0229195 -0.156844 1.95503e-05  0.0226479 -0.172812 2.31266e-05  0.0222154 -0.188935 2.67029e-05  0.021647 -0.20516 2.93255e-05  0.0209622 -0.221427 3.33786e-05  0.0201857 -0.237698 3.76701e-05  0.0193341 -0.253926 4.02927e-05  0.0184262 -0.270088 4.45843e-05  0.0174789 -0.286154 4.88758e-05  0.0165052 -0.302122 5.29289e-05  0.0155289 -0.31798 5.79357e-05  0 0 0  0.00293359 -0.0056513 -1.66893e-06  0.00795722 -0.011941 -3.8147e-06  0.0129866 -0.0188075 -2.86102e-06  0.0175995 -0.0268373 -4.52995e-06  0.021702 -0.0361083 -2.86102e-06  0.0252665 -0.0465496 -3.8147e-06  0.0283065 -0.0580468 -2.6226e-06  0.0308515 -0.0704717 -7.15256e-07  0.0329356 -0.0837061 9.53674e-07  0.0345944 -0.0976312 3.09944e-06  0.035863 -0.112141 4.29153e-06  0.0367756 -0.127133 7.39098e-06  0.0373651 -0.142515 1.00136e-05  0.0376661 -0.158202 1.14441e-05  0.0377086 -0.17412 1.4782e-05  0.0375235 -0.190198 1.85966e-05  0.0371432 -0.206378 2.19345e-05  0.0365963 -0.222604 2.45571e-05  0.0359125 -0.238835 2.81334e-05  0.0351188 -0.255029 3.19481e-05  0.0342433 -0.27116 3.55244e-05  0.0333092 -0.287206 3.98159e-05  0.0323379 -0.30316 4.41074e-05  0.0313532 -0.319039 4.86374e-05  0 0 0  0.00638849 -0.00991905 -2.6226e-06  0.0128157 -0.0154963 -5.48363e-06  0.0190183 -0.0219637 -6.67572e-06  0.0249282 -0.0296738 -6.67572e-06  0.0302941 -0.0387103 -7.39098e-06  0.035031 -0.0489658 -7.39098e-06  0.0391272 -0.0603141 -6.19888e-06  0.04261 -0.0726094 -6.67572e-06  0.0455178 -0.0857307 -5.00679e-06  0.0478904 -0.0995487 -3.57628e-06  0.0497698 -0.11396 -1.66893e-06  0.0511979 -0.128854 -7.15256e-07  0.0522146 -0.144146 3.09944e-06  0.0528613 -0.159743 4.76837e-06  0.0531756 -0.175578 7.62939e-06  0.0531974 -0.191574 9.77516e-06  0.0529618 -0.207679 1.33514e-05  0.0525095 -0.223835 1.66893e-05  0.0518734 -0.240003 2.12193e-05  0.0510921 -0.256142 2.31266e-05  0.0502002 -0.272231 2.67029e-05  0.0492346 -0.288243 3.05176e-05  0.0482326 -0.304186 3.52859e-05  0.0472298 -0.320082 3.8147e-05  0 0 0  -0.00650161 -0.00906169 0.00143504  -0.012973 -0.0141238 0.00228763  -0.0193289 -0.0200801 0.00265551  -0.0255014 -0.0272604 0.00268793  -0.0312765 -0.0357418 0.00253797  -0.0365902 -0.0454322 0.00231433  -0.0414442 -0.0562071 0.00206804  -0.0458652 -0.0679425 0.00182652  -0.0498863 -0.0805214 0.00159907  -0.0535376 -0.0938346 0.00138974  -0.0568476 -0.107778 0.00119972  -0.059841 -0.122258 0.00102711  -0.0625415 -0.137184 0.000871181  -0.0649703 -0.152474 0.000730276  -0.0671468 -0.168053 0.000604868  -0.0690955 -0.18385 0.000495911  -0.0708356 -0.199801 0.000401258  -0.0723901 -0.215853 0.000317812  -0.0737834 -0.231953 0.000252724  -0.0750413 -0.24806 0.000199795  -0.0761864 -0.264137 0.000161648  -0.0772548 -0.280161 0.000136137  -0.0782809 -0.296119 0.000119448  -0.0793023 -0.312031 0.000104666  0 0 0  -0.00282203 -0.00492543 0.00106525  -0.0077986 -0.0107849 0.00172496  -0.0128953 -0.0172711 0.00200844  -0.0177124 -0.024932 0.00202966  -0.0221932 -0.0338295 0.00191474  -0.0263329 -0.0438886 0.00174022  -0.0301479 -0.0549946 0.00155163  -0.0336615 -0.0670304 0.001369  -0.0368975 -0.0798821 0.00119758  -0.039878 -0.0934442 0.00104094  -0.0426208 -0.107614 0.000898123  -0.0451413 -0.122299 0.000770807  -0.0474555 -0.137408 0.000653982  -0.0495756 -0.152862 0.00055027  -0.0515162 -0.168583 0.000457287  -0.0532912 -0.184503 0.000376225  -0.0549152 -0.200558 0.000307083  -0.0564008 -0.216695 0.000247478  -0.057765 -0.232862 0.000198603  -0.0590267 -0.24902 0.000161648  -0.0602016 -0.26513 0.000134468  -0.0613079 -0.281171 0.000115156  -0.0623674 -0.297128 0.000100613  -0.0634029 -0.313016 8.79765e-05  0 0 0  -0.00147828 -0.00300997 0.000715017  -0.00435482 -0.00841872 0.00116897  -0.00773183 -0.0152365 0.00135994  -0.0110479 -0.0232705 0.001369  -0.0141581 -0.0324968 0.00128698  -0.0170584 -0.0428386 0.00116706  -0.0197695 -0.0541975 0.00103807  -0.0223123 -0.0664619 0.000913382  -0.0247023 -0.0795255 0.000798702  -0.0269506 -0.0932808 0.00069499  -0.0290667 -0.10763 0.000599861  -0.0310577 -0.122476 0.000516415  -0.0329288 -0.137733 0.000440359  -0.0346868 -0.153316 0.000371695  -0.0363371 -0.169152 0.000311852  -0.0378851 -0.18517 0.000259399  -0.0393374 -0.20131 0.000216246  -0.0407047 -0.217515 0.000179768  -0.0419893 -0.233739 0.00014782  -0.0432045 -0.249939 0.000124693  -0.0443563 -0.266082 0.000107527  -0.0454562 -0.282144 9.53674e-05  -0.0465155 -0.298109 8.7738e-05  -0.0475545 -0.31397 7.77245e-05  0 0 0  -0.000624783 -0.00221837 0.000359297  -0.00190651 -0.00724065 0.00059104  -0.00352478 -0.0141083 0.000690937  -0.00521716 -0.0223569 0.000695229  -0.00687265 -0.0318016 0.000650883  -0.0084759 -0.0423391 0.000588417  -0.0100371 -0.053872 0.000520706  -0.0115663 -0.0662977 0.000457525  -0.0130681 -0.0795108 0.000400543  -0.0145437 -0.0934069 0.000346422  -0.0159924 -0.107885 0.000300646  -0.0174127 -0.122851 0.000259876  -0.0188029 -0.138215 0.000224113  -0.0201585 -0.153895 0.000192404  -0.0214797 -0.169816 0.000164509  -0.022763 -0.185908 0.000144005  -0.024009 -0.202109 0.000123739  -0.0252182 -0.218366 0.000107527  -0.0263875 -0.23463 9.60827e-05  -0.0275226 -0.250863 8.74996e-05  -0.0286233 -0.267031 8.17776e-05  -0.0296934 -0.283111 7.77245e-05  -0.030735 -0.299082 7.77245e-05  -0.0317605 -0.314923 7.51019e-05  0 0 0  6.56992e-05 -0.00206628 -3.09944e-06  0.000166774 -0.00700381 1.66893e-06  0.000216812 -0.0139 7.15256e-06  0.000168324 -0.0222402 1.12057e-05  7.09295e-06 -0.0317906 9.05991e-06  -0.000269294 -0.0424297 6.19888e-06  -0.000656903 -0.0540608 1.90735e-06  -0.0011512 -0.0665805 -2.38419e-07  -0.00174308 -0.0798852 -7.15256e-07  -0.00242412 -0.0938677 -1.43051e-06  -0.0031842 -0.108429 9.53674e-07  -0.00401163 -0.12347 4.29153e-06  -0.00489724 -0.138904 8.58307e-06  -0.00582945 -0.154645 1.3113e-05  -0.00679934 -0.170619 1.88351e-05  -0.00779772 -0.186756 2.3365e-05  -0.00881577 -0.202996 2.88486e-05  -0.00984669 -0.219283 3.69549e-05  -0.0108833 -0.235572 4.31538e-05  -0.0119226 -0.251824 4.95911e-05  -0.0129566 -0.268006 5.53131e-05  -0.013983 -0.284094 6.17504e-05  -0.0150003 -0.300068 6.79493e-05  -0.0160046 -0.315899 7.43866e-05  0 0 0  0.000758886 -0.00242996 -0.000359535  0.00223786 -0.0075987 -0.000582218  0.00394237 -0.0145745 -0.000668764  0.00552261 -0.0229229 -0.000668287  0.00684381 -0.0324736 -0.000626564  0.00788802 -0.0431254 -0.000573635  0.00867021 -0.0547793 -0.000514269  0.00921118 -0.0673308 -0.00045681  0.00952947 -0.08067 -0.000401974  0.0096463 -0.0946895 -0.000349998  0.00958037 -0.109285 -0.000299692  0.00935006 -0.12436 -0.000252247  0.00897372 -0.139823 -0.000208855  0.0084697 -0.15559 -0.000168562  0.00785482 -0.171585 -0.000130415  0.00714588 -0.187738 -9.65595e-05  0.00635862 -0.20399 -6.4373e-05  0.00550795 -0.220286 -3.62396e-05  0.00460863 -0.236579 -1.12057e-05  0.00367069 -0.252833 1.07288e-05  0.00270438 -0.269015 3.00407e-05  0.00172138 -0.285102 4.52995e-05  0.00072813 -0.301074 5.98431e-05  -0.000255585 -0.316914 7.4625e-05  0 0 0  0.0016178 -0.00343454 -0.000699997  0.00466704 -0.00911206 -0.00113988  0.00808024 -0.0161393 -0.00131631  0.0112402 -0.024385 -0.00132489  0.0139874 -0.0338374 -0.00124931  0.0163115 -0.0444204 -0.00114202  0.018237 -0.0560328 -0.00102544  0.0197924 -0.0685568 -0.000910759  0.0210067 -0.0818799 -0.000800848  0.021907 -0.0958867 -0.000696898  0.0225211 -0.110473 -0.000598431  0.0228758 -0.125537 -0.000508785  0.0229965 -0.14099 -0.000426292  0.0229086 -0.156744 -0.000348806  0.0226364 -0.172725 -0.000278711  0.0222044 -0.188865 -0.000213861  0.0216365 -0.205102 -0.000156879  0.0209517 -0.221381 -0.000106573  0.0201755 -0.23766 -6.41346e-05  0.0193226 -0.253897 -2.7895e-05  0.0184155 -0.270064 3.33786e-06  0.0174675 -0.286136 2.81334e-05  0.0164936 -0.302103 5.03063e-05  0.0155182 -0.317962 7.12872e-05  0 0 0  0.00295207 -0.00554103 -0.0010252  0.00800738 -0.0117368 -0.00166202  0.0130522 -0.0185519 -0.00193048  0.0176578 -0.0265634 -0.00195622  0.0217427 -0.0358352 -0.00185299  0.0252898 -0.0462885 -0.00169849  0.0283167 -0.0578032 -0.00152922  0.0308533 -0.0702499 -0.00135899  0.032932 -0.0835062 -0.00119495  0.0345873 -0.097454 -0.00104117  0.0358539 -0.111985 -0.000897408  0.0367651 -0.126997 -0.00076437  0.037354 -0.142398 -0.000640631  0.0376543 -0.158103 -0.000528574  0.0376959 -0.174036 -0.0004251  0.0375123 -0.19013 -0.000331879  0.0371325 -0.206321 -0.000248909  0.0365849 -0.222559 -0.00017786  0.035902 -0.238799 -0.000116825  0.0351081 -0.255002 -6.55651e-05  0.0342312 -0.271138 -2.36034e-05  0.0332956 -0.287187 8.82149e-06  0.0323248 -0.303141 3.60012e-05  0.0313401 -0.31902 6.27041e-05  0 0 0  0.00635931 -0.00975227 -0.00135422  0.0128321 -0.0152411 -0.00217605  0.0190762 -0.0216654 -0.00253057  0.0249949 -0.0293733 -0.00256896  0.0303497 -0.0384222 -0.00244212  0.0350707 -0.0486994 -0.00224376  0.0391541 -0.0600688 -0.0020225  0.0426273 -0.07239 -0.00180006  0.0455278 -0.0855335 -0.00158596  0.0478964 -0.0993756 -0.00138426  0.0497729 -0.113807 -0.00119424  0.051199 -0.128723 -0.00101924  0.0522143 -0.144032 -0.0008564  0.0528594 -0.159649 -0.00070858  0.0531721 -0.175498 -0.000573635  0.0531931 -0.191509 -0.000451326  0.0529563 -0.207626 -0.000343084  0.0525026 -0.223794 -0.000248909  0.0518661 -0.23997 -0.000168324  0.0510836 -0.256118 -0.000103712  0.050189 -0.272209 -5.14984e-05  0.0492222 -0.288227 -1.35899e-05  0.048218 -0.304169 1.78814e-05  0.0472105 -0.320062 4.48227e-05  0 0 0  -0.00637933 -0.00848718 0.00307584  -0.0129745 -0.0132259 0.00479984  -0.0194288 -0.0190509 0.00543523  -0.0255885 -0.0262454 0.00540066  -0.031305 -0.0347929 0.00505257  -0.0365622 -0.0445751 0.00458407  -0.041375 -0.0554402 0.00408483  -0.045773 -0.0672691 0.00360036  -0.0497826 -0.0799297 0.00314355  -0.0534345 -0.0933238 0.00272536  -0.0567492 -0.107337 0.00234246  -0.0597515 -0.121885 0.00199318  -0.0624608 -0.136868 0.00167608  -0.064899 -0.152216 0.00139117  -0.0670859 -0.16784 0.00113511  -0.0690448 -0.183683 0.000910282  -0.0707939 -0.19967 0.000713587  -0.0723574 -0.215756 0.000546455  -0.0737555 -0.23188 0.000407696  -0.0750153 -0.248011 0.000299215  -0.0761623 -0.264101 0.000217915  -0.07723 -0.280138 0.000162363  -0.0782521 -0.296096 0.000124216  -0.0792642 -0.312006 9.2268e-05  0 0 0  -0.00288209 -0.00452643 0.00227618  -0.00792937 -0.0100568 0.00361013  -0.0130274 -0.0163907 0.00409341  -0.0177749 -0.024017 0.00406337  -0.0221738 -0.0329447 0.00379801  -0.0262491 -0.0430649 0.00343966  -0.0300227 -0.0542462 0.00306273  -0.0335159 -0.0663611 0.00269747  -0.0367463 -0.0792917 0.00235319  -0.039729 -0.0929285 0.00203872  -0.0424806 -0.107169 0.00175118  -0.0450135 -0.121918 0.00149035  -0.0473399 -0.137087 0.00125408  -0.0494745 -0.152594 0.00104141  -0.0514278 -0.168363 0.000852585  -0.0532161 -0.184326 0.00068593  -0.0548511 -0.200419 0.000541925  -0.0563469 -0.216587 0.000417948  -0.0577223 -0.232781 0.000315666  -0.0589905 -0.24896 0.000235081  -0.0601707 -0.265088 0.000175238  -0.06128 -0.281139 0.000132084  -0.0623398 -0.297101 9.9659e-05  -0.063375 -0.312985 7.00951e-05  0 0 0  -0.00153369 -0.00270964 0.00153852  -0.00447533 -0.00784743 0.00245333  -0.00784275 -0.0144925 0.00277066  -0.0110875 -0.0224481 0.00273752  -0.0141222 -0.0316689 0.00254655  -0.0169662 -0.0420451 0.00230026  -0.0196432 -0.0534648 0.00204301  -0.0221698 -0.0657972 0.00179625  -0.024556 -0.0789352 0.00156593  -0.0268087 -0.0927608 0.00135565  -0.0289338 -0.10718 0.00116467  -0.0309365 -0.122088 0.000991821  -0.0328209 -0.137405 0.000835657  -0.0345913 -0.15304 0.00069499  -0.0362549 -0.168926 0.000571966  -0.0378151 -0.184986 0.000463247  -0.039279 -0.201165 0.000369072  -0.0406554 -0.2174 0.000289917  -0.0419507 -0.233653 0.000223637  -0.0431724 -0.249873 0.0001719  -0.0443316 -0.266035 0.000133514  -0.0454345 -0.282107 0.000104666  -0.0464954 -0.298079 8.24928e-05  -0.0475333 -0.313935 6.10352e-05  0 0 0  -0.000650167 -0.00198075 0.000777483  -0.00196229 -0.00676787 0.00124192  -0.00357163 -0.0134567 0.00140476  -0.00521904 -0.0216021 0.00138474  -0.00682747 -0.0310147 0.00128317  -0.00839549 -0.0415688 0.00115252  -0.00993645 -0.0531494 0.001019  -0.0114565 -0.0656372 0.000891447  -0.012958 -0.078919 0.000774384  -0.0144383 -0.0928835 0.000666857  -0.0158944 -0.10743 0.00057292  -0.0173247 -0.122458 0.00048852  -0.0187244 -0.137881 0.000411272  -0.0200909 -0.153614 0.00034523  -0.0214216 -0.169583 0.000286818  -0.022715 -0.185718 0.000236273  -0.0239701 -0.201957 0.000193596  -0.0251868 -0.218246 0.000157595  -0.0263638 -0.234539 0.000128508  -0.0275033 -0.250794 0.000106335  -0.0286083 -0.266981 9.17912e-05  -0.0296819 -0.283073 8.03471e-05  -0.0307245 -0.299049 7.24792e-05  -0.0317497 -0.314883 6.4373e-05  0 0 0  7.55787e-05 -0.001854 -1.14441e-05  0.000191361 -0.0065687 -5.00679e-06  0.000253797 -0.0132869 6.4373e-06  0.000215948 -0.0215133 1.16825e-05  6.3777e-05 -0.0310237 7.86781e-06  -0.000205696 -0.0416697 9.53674e-07  -0.000590861 -0.0533431 -9.77516e-06  -0.00108552 -0.0659192 -1.62125e-05  -0.00168049 -0.0792918 -2.14577e-05  -0.00236654 -0.09334 -2.28882e-05  -0.00313258 -0.107969 -2.21729e-05  -0.00396669 -0.123071 -1.93119e-05  -0.00485861 -0.138565 -1.40667e-05  -0.0057981 -0.154357 -8.58307e-06  -0.00677431 -0.170382 -3.09944e-06  -0.00777841 -0.18656 5.48363e-06  -0.00880194 -0.20284 1.35899e-05  -0.00983715 -0.219159 2.16961e-05  -0.0108795 -0.235478 3.0756e-05  -0.0119202 -0.251751 4.05312e-05  -0.0129557 -0.267953 4.79221e-05  -0.0139842 -0.284052 5.76973e-05  -0.0150034 -0.300033 6.53267e-05  -0.0160067 -0.315856 7.41482e-05  0 0 0  0.000804007 -0.00220388 -0.000791311  0.00234288 -0.00714487 -0.00123715  0.00406319 -0.0139449 -0.00137424  0.00562042 -0.0221874 -0.00134802  0.00691295 -0.0317013 -0.0012579  0.00793517 -0.0423639 -0.00114846  0.00870359 -0.05406 -0.0010345  0.00923371 -0.0666683 -0.000923395  0.00954533 -0.0800737 -0.000815868  0.00965667 -0.0941594 -0.000712872  0.00958598 -0.108822 -0.000616789  0.00935149 -0.123958 -0.000526667  0.00897181 -0.13948 -0.00044322  0.00846434 -0.155299 -0.00036478  0.00784719 -0.171343 -0.000293016  0.00713634 -0.18754 -0.000226259  0.00634694 -0.203831 -0.000167608  0.00549555 -0.22016 -0.000115633  0.00459337 -0.236483 -6.8903e-05  0.00365567 -0.25276 -2.95639e-05  0.00268936 -0.26896 5.48363e-06  0.00170588 -0.285059 3.3617e-05  0.000712872 -0.301037 5.88894e-05  -0.000270844 -0.316871 8.46386e-05  0 0 0  0.00169276 -0.00315452 -0.00152469  0.00483796 -0.00858039 -0.00240088  0.0082666 -0.0154423 -0.00269461  0.0113785 -0.0236036 -0.00266457  0.014068 -0.0330405 -0.00249672  0.0163491 -0.0436459 -0.00227976  0.018246 -0.0553083 -0.00204778  0.0197835 -0.0678914 -0.00182247  0.0209869 -0.0812833 -0.00160575  0.0218817 -0.0953556 -0.00140142  0.0224922 -0.110009 -0.00121069  0.0228446 -0.125134 -0.00103283  0.0229641 -0.140646 -0.000869036  0.0228748 -0.156453 -0.000718355  0.0226036 -0.172485 -0.000580788  0.0221727 -0.188667 -0.000455379  0.0216033 -0.204944 -0.000344992  0.0209219 -0.221256 -0.00024724  0.0201454 -0.237565 -0.000164986  0.019295 -0.253823 -9.46522e-05  0.0183895 -0.27001 -3.74317e-05  0.0174415 -0.286093 8.58307e-06  0.0164666 -0.302067 4.81606e-05  0.0154917 -0.31792 8.79765e-05  0 0 0  0.00303492 -0.00516886 -0.00220561  0.00819823 -0.0110708 -0.0034833  0.0132682 -0.0177463 -0.00394154  0.0178232 -0.0257162 -0.00393033  0.0218419 -0.0350025 -0.00370193  0.0253361 -0.0454985 -0.00338721  0.0283265 -0.0570725 -0.0030477  0.0308397 -0.0695856 -0.00271082  0.0329053 -0.0829125 -0.00238705  0.0345529 -0.0969283 -0.00208211  0.0358152 -0.111526 -0.00179839  0.0367252 -0.1266 -0.0015347  0.037313 -0.142059 -0.00129056  0.0376129 -0.157818 -0.00106692  0.0376559 -0.1738 -0.000864506  0.037473 -0.189937 -0.000681162  0.0370939 -0.206168 -0.000518084  0.0365498 -0.222439 -0.000377417  0.035867 -0.238707 -0.000257969  0.0350749 -0.254933 -0.000159502  0.0341983 -0.271087 -7.9155e-05  0.0332632 -0.287146 -1.83582e-05  0.0322902 -0.303106 3.12328e-05  0.0313051 -0.318981 7.93934e-05  0 0 0  0.00630161 -0.00920886 -0.00292087  0.0129318 -0.0144093 -0.00457358  0.0192801 -0.0207363 -0.00518227  0.0251881 -0.0284507 -0.00517631  0.0304934 -0.0375518 -0.00488472  0.0351647 -0.0478942 -0.00447559  0.0392112 -0.0593386 -0.00403047  0.0426599 -0.0717327 -0.00358653  0.0455437 -0.084951 -0.00316048  0.0479014 -0.0988621 -0.00275898  0.0497705 -0.113362 -0.00238276  0.0511918 -0.128339 -0.002033  0.0522033 -0.143708 -0.00171161  0.0528461 -0.159376 -0.00141597  0.053156 -0.175275 -0.00114775  0.0531745 -0.191329 -0.000907898  0.0529377 -0.207485 -0.000692606  0.0524821 -0.223684 -0.000507355  0.0518441 -0.239889 -0.000350952  0.0510583 -0.256057 -0.000223875  0.0501616 -0.272165 -0.000123501  0.04919 -0.28819 -4.91142e-05  0.0481813 -0.304137 6.67572e-06  0.0471723 -0.320026 5.76973e-05  0 0 0  -0.00631769 -0.00725338 0.00525761  -0.0132132 -0.011471 0.0077424  -0.0196354 -0.0172111 0.00834775  -0.0256339 -0.0245002 0.00811887  -0.0312088 -0.0332027 0.00752568  -0.0363685 -0.0431482 0.00680184  -0.0411284 -0.0541804 0.00605583  -0.0455033 -0.0661609 0.00533652  -0.0495119 -0.0789673 0.00466156  -0.0531737 -0.0924896 0.00403953  -0.0565072 -0.106625 0.00346661  -0.0595309 -0.12128 0.00294423  -0.0622643 -0.136365 0.0024693  -0.0647264 -0.151799 0.00203896  -0.0669372 -0.167507 0.0016551  -0.0689169 -0.183418 0.00131392  -0.0706875 -0.19947 0.00101757  -0.0722682 -0.215606 0.00076437  -0.0736828 -0.231777 0.000552416  -0.0749576 -0.24794 0.000385284  -0.0761127 -0.264059 0.000259161  -0.0771825 -0.280107 0.000174761  -0.0782008 -0.296072 0.00012064  -0.0792117 -0.311974 7.34329e-05  0 0 0  -0.00310723 -0.00369602 0.00391746  -0.00833988 -0.00866946 0.00580597  -0.0132527 -0.014807 0.00624609  -0.0177732 -0.0224305 0.00607467  -0.0220076 -0.0314437 0.00563693  -0.0259823 -0.0416891 0.00509667  -0.029705 -0.0530089 0.00453901  -0.0331802 -0.0652644 0.00400043  -0.0364133 -0.0783295 0.00349426  -0.0394132 -0.0920931 0.00302815  -0.0421873 -0.10645 0.002599  -0.0447462 -0.121308 0.00220847  -0.0471007 -0.136575 0.00185418  -0.0492628 -0.152171 0.0015347  -0.0512446 -0.16802 0.00124812  -0.0530583 -0.184054 0.000996351  -0.0547175 -0.200208 0.000775337  -0.0562372 -0.216429 0.000588179  -0.0576327 -0.232667 0.000431776  -0.0589185 -0.248882 0.000306368  -0.0601115 -0.265036 0.000212431  -0.0612309 -0.281105 0.000145912  -0.0622938 -0.297073 9.56059e-05  -0.0633285 -0.312956 4.86374e-05  0 0 0  -0.00170249 -0.00207993 0.00266886  -0.00479797 -0.00674129 0.00394607  -0.00802353 -0.0131206 0.00421548  -0.0110751 -0.0209944 0.00407505  -0.0139682 -0.030242 0.00376844  -0.0167277 -0.0407076 0.00339985  -0.0193623 -0.0522414 0.00302362  -0.0218754 -0.0647024 0.0026629  -0.024266 -0.0779663 0.00232363  -0.0265341 -0.0919163 0.00201225  -0.0286797 -0.106449 0.00172663  -0.0307056 -0.121466 0.00146675  -0.0326142 -0.136879 0.00123405  -0.03441 -0.152605 0.00102234  -0.0360968 -0.168569 0.00083375  -0.0376804 -0.184701 0.000669479  -0.0391667 -0.200941 0.000525713  -0.0405622 -0.217232 0.000403404  -0.0418742 -0.233527 0.000302553  -0.0431132 -0.249786 0.000222206  -0.0442843 -0.265975 0.000160694  -0.0453961 -0.282068 0.000114441  -0.0464599 -0.298048 7.65324e-05  -0.0474975 -0.313901 3.95775e-05  0 0 0  -0.000727154 -0.00145087 0.00133514  -0.00210926 -0.00580442 0.0019877  -0.0036408 -0.0122121 0.00212336  -0.00517717 -0.0202329 0.00204635  -0.0067001 -0.029637 0.00188565  -0.00821704 -0.0402542 0.00169325  -0.00973254 -0.051934 0.00149989  -0.0112461 -0.064539 0.00131559  -0.0127515 -0.0779421 0.00114417  -0.0142448 -0.0920268 0.000986576  -0.0157176 -0.106686 0.000843287  -0.0171654 -0.121821 0.000716448  -0.0185833 -0.137341 0.000601292  -0.0199685 -0.153165 0.00049901  -0.0213172 -0.169214 0.000410318  -0.0226272 -0.18542 0.000331402  -0.0238984 -0.201722 0.000265121  -0.0251279 -0.218066 0.000209093  -0.0263188 -0.234404 0.000163794  -0.0274696 -0.250698 0.000128269  -0.0285833 -0.266914 0.000102043  -0.0296617 -0.283028 8.24928e-05  -0.0307078 -0.299015 6.65188e-05  -0.0317307 -0.314842 4.86374e-05  0 0 0  9.54717e-05 -0.00136068 -3.74317e-05  0.000237525 -0.00565925 -2.5034e-05  0.00032109 -0.0120916 -7.15256e-06  0.000303686 -0.0201813 -1.90735e-06  0.000167906 -0.0296665 -6.67572e-06  -9.18508e-05 -0.040365 -1.64509e-05  -0.000474095 -0.0521286 -2.88486e-05  -0.000971317 -0.0648177 -3.69549e-05  -0.00157368 -0.0783062 -4.3869e-05  -0.00226831 -0.0924738 -4.50611e-05  -0.00304508 -0.107213 -4.57764e-05  -0.00389183 -0.122423 -4.22001e-05  -0.00479507 -0.138014 -3.67165e-05  -0.00574625 -0.153898 -3.02792e-05  -0.00673306 -0.170002 -2.31266e-05  -0.00774717 -0.186254 -1.35899e-05  -0.00877881 -0.202596 -2.6226e-06  -0.00982261 -0.218971 6.91414e-06  -0.0108702 -0.235336 1.88351e-05  -0.0119166 -0.251649 2.98023e-05  -0.0129564 -0.267881 4.17233e-05  -0.0139883 -0.284005 5.22137e-05  -0.015008 -0.299995 6.31809e-05  -0.0160098 -0.315811 7.4625e-05  0 0 0  0.000920489 -0.00170147 -0.00139475  0.00257978 -0.00621843 -0.00201249  0.00426513 -0.0127344 -0.00211358  0.00575519 -0.0208461 -0.00203347  0.00699687 -0.0303404 -0.00188708  0.0079872 -0.0410556 -0.00172162  0.00873542 -0.0528424 -0.0015533  0.00925291 -0.0655621 -0.00138855  0.00955617 -0.0790835 -0.00123024  0.00966001 -0.0932863 -0.00107837  0.00958312 -0.10806 -0.000936031  0.00934291 -0.123303 -0.000802279  0.00895798 -0.138923 -0.000679016  0.00844646 -0.154832 -0.000562429  0.00782478 -0.170957 -0.000457048  0.00711036 -0.187228 -0.00035882  0.00632071 -0.203583 -0.000270605  0.00546789 -0.219969 -0.000194073  0.00456715 -0.236339 -0.000127077  0.00362825 -0.252655 -6.91414e-05  0.00266385 -0.268886 -2.00272e-05  0.00167918 -0.285008 2.21729e-05  0.000686169 -0.300997 6.00815e-05  -0.00029707 -0.316824 9.77516e-05  0 0 0  0.00189997 -0.00257605 -0.00268269  0.00524431 -0.0075506 -0.00388932  0.00857922 -0.0141461 -0.00413108  0.0115476 -0.0222108 -0.00400591  0.0141335 -0.0316512 -0.00373244  0.0163488 -0.0423248 -0.00340605  0.0182076 -0.0540839 -0.00306559  0.0197245 -0.0667829 -0.00273085  0.0209165 -0.0802903 -0.00240993  0.0218052 -0.0944817 -0.0021069  0.0224134 -0.109246 -0.00182271  0.0227649 -0.124478 -0.0015583  0.0228847 -0.140087 -0.00131416  0.0227975 -0.155986 -0.00109029  0.0225275 -0.172099 -0.00088501  0.022099 -0.188355 -0.000699282  0.0215344 -0.204696 -0.000534534  0.0208573 -0.221066 -0.000390291  0.0200858 -0.237421 -0.000267267  0.0192411 -0.253722 -0.000163555  0.0183403 -0.269937 -7.89165e-05  0.0173957 -0.286042 -1.00136e-05  0.0164213 -0.302025 4.98295e-05  0.0154462 -0.317876 0.000108957  0 0 0  0.00330006 -0.00440371 -0.00383878  0.00869557 -0.00981104 -0.00561619  0.0136331 -0.0162944 -0.00604272  0.0180137 -0.0242336 -0.00591421  0.0219027 -0.0335688 -0.00553799  0.0253137 -0.0441576 -0.00506139  0.0282553 -0.0558432 -0.00455546  0.0307418 -0.0684779 -0.0040555  0.0327942 -0.0819249 -0.00357533  0.0344374 -0.0960593 -0.00312257  0.0356983 -0.110769 -0.00269818  0.0366086 -0.12595 -0.00230384  0.0371997 -0.141507 -0.00194025  0.037504 -0.157356 -0.0016067  0.0375516 -0.173421 -0.00130391  0.037375 -0.189631 -0.00103092  0.0370033 -0.205927 -0.000787258  0.0364664 -0.222255 -0.000576735  0.0357921 -0.238571 -0.000397921  0.0350065 -0.254836 -0.000250578  0.0341361 -0.271019 -0.000132322  0.0332043 -0.287098 -4.26769e-05  0.0322337 -0.303065 3.14713e-05  0.0312479 -0.31894 9.9659e-05  0 0 0  0.00635867 -0.0080604 -0.00503159  0.0133183 -0.0128356 -0.00737309  0.0196491 -0.0190913 -0.00797772  0.0254285 -0.0268682 -0.00782156  0.0306172 -0.0360721 -0.00732517  0.0352055 -0.0465404 -0.00669456  0.0392002 -0.0581129 -0.00602388  0.0426177 -0.0706382 -0.0053618  0.0454838 -0.0839805 -0.00472498  0.0478321 -0.0980127 -0.00412345  0.0496969 -0.112624 -0.00356126  0.0511161 -0.127708 -0.00303888  0.052127 -0.143174 -0.00255752  0.0527701 -0.158934 -0.00211501  0.0530818 -0.174913 -0.00171447  0.0531039 -0.191042 -0.00135279  0.0528708 -0.207261 -0.00103307  0.0524194 -0.223518 -0.000755072  0.0517831 -0.239769 -0.000520229  0.0510004 -0.255975 -0.000330448  0.0501041 -0.272109 -0.000181198  0.0491309 -0.288151 -7.20024e-05  0.0481198 -0.304099 8.58307e-06  0.0471041 -0.31998 7.58171e-05  0 0 0  -0.00795835 -0.00494951 0.00852013  -0.0140505 -0.00868285 0.0107536  -0.0196986 -0.0145301 0.0111744  -0.0252678 -0.0220379 0.0107243  -0.0306188 -0.0310037 0.00989437  -0.0356832 -0.0412072 0.00894761  -0.0404201 -0.0524813 0.00796914  -0.0448125 -0.0646808 0.00703621  -0.0488601 -0.0776884 0.00614572  -0.05257 -0.0913911 0.00533104  -0.0559547 -0.105692 0.00456834  -0.0590315 -0.120496 0.00388241  -0.0618175 -0.135719 0.00324345  -0.064332 -0.151275 0.00267935  -0.0665926 -0.167094 0.00215912  -0.0686198 -0.183102 0.00171041  -0.0704362 -0.19924 0.00130415  -0.0720601 -0.215447 0.000970364  -0.0735164 -0.231678 0.000679493  -0.0748277 -0.247887 0.000458479  -0.0760162 -0.264038 0.000280857  -0.0771101 -0.280101 0.000172377  -0.0781386 -0.296066 9.82285e-05  -0.0791512 -0.311954 5.98431e-05  0 0 0  -0.00466202 -0.00215254 0.00647521  -0.00916663 -0.00644686 0.00794435  -0.013319 -0.0124257 0.00825644  -0.0174218 -0.0201262 0.00796103  -0.0214403 -0.029314 0.00738597  -0.0253211 -0.0397678 0.0066967  -0.0290209 -0.0513021 0.00598168  -0.0325121 -0.0637638 0.00528455  -0.0357823 -0.0770219 0.00462675  -0.0388279 -0.090964 0.0040133  -0.041652 -0.105485 0.00344825  -0.0442617 -0.120492 0.0029285  -0.0466671 -0.135896 0.00245905  -0.0488787 -0.151615 0.00203013  -0.0509087 -0.167575 0.00164914  -0.0527691 -0.183706 0.00130987  -0.054472 -0.199945 0.00101542  -0.0560348 -0.216239 0.000761509  -0.0574691 -0.232538 0.000550985  -0.0587907 -0.248799 0.000380516  -0.0600169 -0.264988 0.000253439  -0.0611584 -0.281076 0.000158548  -0.0622313 -0.297054 9.05991e-05  -0.0632651 -0.312936 2.38419e-05  0 0 0  -0.0027196 -0.000695989 0.00436544  -0.00535111 -0.00474788 0.00534868  -0.00805384 -0.0108994 0.00550795  -0.0108019 -0.0187793 0.00529027  -0.0135331 -0.0281523 0.0049057  -0.0162194 -0.0387922 0.00444937  -0.0188345 -0.0505225 0.00397682  -0.021358 -0.0631773 0.00351262  -0.0237759 -0.0766304 0.0030756  -0.0260797 -0.0907544 0.0026679  -0.0282643 -0.105452 0.00229168  -0.0303311 -0.120617 0.00194645  -0.0322809 -0.136169 0.0016346  -0.0341152 -0.152017 0.00135303  -0.0358409 -0.168095 0.00110197  -0.0374615 -0.184324 0.000878334  -0.0389822 -0.200652 0.000685692  -0.0404115 -0.217014 0.00052166  -0.0417538 -0.233374 0.000384092  -0.0430191 -0.249681 0.00027442  -0.0442131 -0.26591 0.000189781  -0.0453408 -0.282028 0.000123978  -0.0464098 -0.298028 6.91414e-05  -0.0474374 -0.313883 4.76837e-06  0 0 0  -0.00120912 -0.000108302 0.00213242  -0.00234716 -0.00387338 0.00265551  -0.00360221 -0.0100482 0.00274086  -0.00497067 -0.0180556 0.00262594  -0.00640094 -0.0275631 0.00242996  -0.00787532 -0.0383393 0.00219941  -0.0093804 -0.0502026 0.00196171  -0.0109015 -0.0629945 0.0017271  -0.0124269 -0.0765815 0.00150847  -0.0139449 -0.0908401 0.0013032  -0.0154452 -0.105662 0.0011158  -0.0169219 -0.120947 0.000945807  -0.0183693 -0.136605 0.000793934  -0.0197816 -0.152553 0.000656366  -0.021158 -0.168715 0.00053668  -0.0224938 -0.185021 0.000430584  -0.023788 -0.201412 0.000338554  -0.0250392 -0.21783 0.00026226  -0.0262504 -0.234233 0.000199556  -0.0274191 -0.250579 0.000151157  -0.0285468 -0.266838 0.000114679  -0.029635 -0.282984 8.55923e-05  -0.0306833 -0.298996 5.93662e-05  -0.0317004 -0.314827 2.69413e-05  0 0 0  0.000136465 -4.57168e-05 -9.84669e-05  0.000310838 -0.00375694 -7.93934e-05  0.000433683 -0.00995341 -5.62668e-05  0.000450432 -0.01802 -4.55379e-05  0.000335932 -0.0275995 -4.43459e-05  8.54135e-05 -0.0384465 -5.00679e-05  -0.000297904 -0.0503877 -5.8651e-05  -0.000802875 -0.063258 -6.46114e-05  -0.0014174 -0.0769283 -7.00951e-05  -0.00212789 -0.0912668 -7.08103e-05  -0.00292182 -0.10617 -6.98566e-05  -0.00378501 -0.121529 -6.65188e-05  -0.00470614 -0.137258 -5.84126e-05  -0.00567245 -0.153267 -5.05447e-05  -0.00667465 -0.169486 -4.17233e-05  -0.00770319 -0.185838 -3.14713e-05  -0.0087471 -0.202271 -1.85966e-05  -0.0098021 -0.218723 -5.72205e-06  -0.0108578 -0.235155 7.86781e-06  -0.0119112 -0.251521 2.02656e-05  -0.0129578 -0.267798 3.43323e-05  -0.0139928 -0.283955 4.72069e-05  -0.015017 -0.299975 6.07967e-05  -0.0160184 -0.315793 7.36713e-05  0 0 0  0.00146346 -0.000416994 -0.00230932  0.00295332 -0.00434548 -0.00277829  0.00445154 -0.0106163 -0.00282288  0.00584668 -0.018696 -0.00269556  0.00704086 -0.0282767 -0.00250459  0.00800681 -0.0391355 -0.00229192  0.00874144 -0.0510948 -0.00207472  0.00924981 -0.0639939 -0.00185823  0.00954533 -0.0776941 -0.0016489  0.0096432 -0.0920685 -0.00144672  0.00956023 -0.107005 -0.00125909  0.00931311 -0.122397 -0.00108051  0.0089227 -0.138155 -0.000916004  0.008407 -0.154192 -0.000762463  0.00778127 -0.170432 -0.00062108  0.00706434 -0.186805 -0.000492811  0.00627351 -0.203251 -0.000376701  0.00542116 -0.219715 -0.000274181  0.00452161 -0.236153 -0.000186682  0.00358629 -0.252524 -0.000109673  0.0026226 -0.2688 -4.57764e-05  0.00164032 -0.284955 8.82149e-06  0.000643969 -0.300969 6.1512e-05  -0.000344515 -0.316799 0.00011754  0 0 0  0.00291534 -0.00131148 -0.00446749  0.00590056 -0.00567889 -0.00536251  0.00883681 -0.0120239 -0.00549674  0.0115903 -0.0200566 -0.0052917  0.0140626 -0.0295853 -0.00493622  0.0162214 -0.0404022 -0.00451636  0.0180538 -0.0523341 -0.00407505  0.0195601 -0.0652111 -0.00363946  0.0207492 -0.0788976 -0.00321651  0.0216398 -0.0932577 -0.00281596  0.0222507 -0.108186 -0.00243855  0.0226061 -0.123567 -0.00208879  0.0227307 -0.139317 -0.00176382  0.0226487 -0.155342 -0.00146437  0.0223858 -0.171571 -0.00119162  0.021965 -0.18793 -0.00094676  0.0214114 -0.204365 -0.000727892  0.0207455 -0.220813 -0.000535727  0.0199864 -0.237238 -0.00037241  0.0191543 -0.253591 -0.000235081  0.0182636 -0.269851 -0.000123262  0.0173271 -0.285986 -2.95639e-05  0.0163548 -0.30199 5.29289e-05  0.0153747 -0.317841 0.000138521  0 0 0  0.00475061 -0.00303799 -0.00642252  0.00958255 -0.00779873 -0.00777555  0.0139408 -0.0140826 -0.0080905  0.0180111 -0.0220326 -0.00784731  0.0217344 -0.0314812 -0.00734043  0.0250632 -0.0422292 -0.00671697  0.0279688 -0.0540943 -0.00605512  0.0304437 -0.0669106 -0.00540018  0.0324959 -0.0805368 -0.00476718  0.0341464 -0.0948419 -0.00416732  0.0354184 -0.109713 -0.00360394  0.036341 -0.125044 -0.00308108  0.0369453 -0.140742 -0.00259495  0.0372645 -0.156719 -0.00215101  0.0373268 -0.1729 -0.00174689  0.0371668 -0.189215 -0.00138426  0.0368135 -0.205605 -0.00106072  0.0362961 -0.222014 -0.000780582  0.0356441 -0.238399 -0.000540733  0.0348806 -0.254718 -0.000344753  0.0340321 -0.270943 -0.000186443  0.0331166 -0.287049 -6.53267e-05  0.0321558 -0.303029 3.19481e-05  0.0311697 -0.318901 0.000123024  0 0 0  0.00787933 -0.0060426 -0.0082078  0.0142383 -0.0104195 -0.0103059  0.0199831 -0.0166844 -0.0107765  0.0254353 -0.0245751 -0.0104306  0.0304431 -0.0339525 -0.00973201  0.034941 -0.0446107 -0.0088861  0.0388944 -0.0563786 -0.0079999  0.0422982 -0.0690935 -0.0071218  0.0451649 -0.0826181 -0.00627923  0.0475206 -0.0968207 -0.00547957  0.0493969 -0.111594 -0.00473237  0.0508279 -0.126827 -0.00403595  0.0518543 -0.142434 -0.00339365  0.0525126 -0.158321 -0.00280285  0.0528433 -0.174416 -0.00227165  0.0528815 -0.190651 -0.00178599  0.0526669 -0.206964 -0.00136185  0.0522366 -0.223303 -0.000988245  0.0516257 -0.239621 -0.000679493  0.0508664 -0.255881 -0.000420809  0.0499935 -0.272058 -0.000221252  0.0490372 -0.28812 -7.55787e-05  0.0480366 -0.304069 1.97887e-05  0.0470312 -0.319945 9.32217e-05  -0.00374279 -0.00350658 -0.00560284  -0.00665081 -0.00649506 -0.00681233  -0.0026802 -0.00470177 -0.00300694  0 0 0  0 0 0  -0.00613873 -0.00343561 -0.00760031  -0.00438894 -0.00527167 -0.00456429  0 0 0  -0.00205855 -0.000758708 -0.00438046  -0.00362118 -0.00302914 -0.00515223  -0.00108766 -0.00169346 -0.00224543  0 0 0  -0.00267096 -0.00395406 -0.00396633  -0.00263947 -0.00172601 -0.00483537  -0.00486227 -0.00451389 -0.00598001  -0.00151508 -0.00275622 -0.00255299  0 0 0  -0.00125096 -0.00132328 -0.00302434  -0.00163608 -0.00227345 -0.00339532  -0.0111605 -0.00655767 -0.00997376  -0.013537 -0.0102621 -0.00929117  -0.00983569 -0.00915594 -0.00680351  -0.0114835 -0.00753168 -0.00925517  -0.0105909 -0.0100017 -0.00674009  -0.00700116 -0.00408573 -0.00738096  -0.00869779 -0.00766919 -0.00694013  -0.00570343 -0.00605806 -0.00508928  -0.0102741 -0.00811755 -0.00840664  -0.0089916 -0.00526735 -0.00863647  -0.0109699 -0.00889046 -0.00807333  -0.00754479 -0.00750506 -0.00592279  -0.00621851 -0.00518662 -0.00628138  -0.0080888 -0.00653652 -0.00731039  -0.016858 -0.0113816 -0.0111156  -0.0197138 -0.0160037 -0.00977254  -0.0164731 -0.0141421 -0.00817561  -0.0163311 -0.0134176 -0.0096519  -0.0162754 -0.0159318 -0.0072577  -0.0112384 -0.00920808 -0.00819612  -0.0133152 -0.01372 -0.00727177  -0.0108523 -0.0115459 -0.00611424  -0.0166618 -0.0129281 -0.00968862  -0.0138993 -0.0102363 -0.0095973  -0.016349 -0.0147742 -0.00849271  -0.0134962 -0.0127641 -0.00712299  -0.0110512 -0.0104856 -0.00721097  -0.0136997 -0.011622 -0.00841236  -0.0224959 -0.0180834 -0.0109944  -0.0255425 -0.0233668 -0.00941205  -0.0226839 -0.0206697 -0.00827408  -0.0211364 -0.0210276 -0.00928974  -0.0215305 -0.0234005 -0.00705838  -0.0153651 -0.0160794 -0.00813699  -0.0176523 -0.0213739 -0.00701451  -0.0155446 -0.018435 -0.00618672  -0.0226741 -0.01949 -0.00966144  -0.0187468 -0.0170111 -0.00953102  -0.0214153 -0.022294 -0.00819826  -0.0189485 -0.0194704 -0.00721622  -0.0155105 -0.0173535 -0.0071938  -0.0189177 -0.0183402 -0.00840521  -0.0279633 -0.0263555 -0.0103064  -0.0310118 -0.0321827 -0.00868893  -0.0284678 -0.0286905 -0.00781465  -0.0258082 -0.0301168 -0.00859928  -0.0264322 -0.0322725 -0.00654006  -0.0194306 -0.0245581 -0.00766516  -0.0217808 -0.0304659 -0.00649095  -0.019915 -0.0267768 -0.00584722  -0.0283213 -0.0276058 -0.00907874  -0.0234921 -0.025391 -0.00897002  -0.0262077 -0.0312578 -0.00758338  -0.0240229 -0.0276606 -0.00682378  -0.019742 -0.0257501 -0.00677514  -0.0238448 -0.026607 -0.00791574  -0.0331761 -0.0359701 -0.0093894  -0.0361173 -0.042247 -0.00783443  -0.0338329 -0.0380396 -0.007128  -0.0302816 -0.0404611 -0.0077765  -0.0310026 -0.042384 -0.00590229  -0.0233843 -0.0344101 -0.00700927  -0.0257027 -0.0408092 -0.00586128  -0.0240169 -0.0364305 -0.00533605  -0.0336108 -0.0370684 -0.00827026  -0.0280731 -0.0351327 -0.0081954  -0.0307247 -0.0414738 -0.00684714  -0.0287573 -0.037173 -0.00622869  -0.0237678 -0.0354906 -0.00618339  -0.0285016 -0.0362198 -0.00722265  -0.0380778 -0.0467343 -0.00840688  -0.0408546 -0.0533945 -0.00696206  -0.0387887 -0.0485511 -0.00637484  -0.0345069 -0.0518802 -0.00692797  -0.0352501 -0.0535736 -0.0052433  -0.0271779 -0.0454308 -0.00629163  -0.0294063 -0.052231 -0.00521398  -0.0278632 -0.0472361 -0.00477195  -0.0385311 -0.0476938 -0.00739813  -0.0324262 -0.0460348 -0.0073514  -0.0349533 -0.0527677 -0.00608969  -0.0331653 -0.047842 -0.00557232  -0.0275827 -0.0463927 -0.00553775  -0.0328754 -0.0469941 -0.00646734  -0.042641 -0.0584938 -0.0074358  -0.0452273 -0.0654811 -0.00611949  -0.0433527 -0.0600782 -0.00562739  -0.0384595 -0.0642252 -0.00610161  -0.0391836 -0.0657052 -0.00460339  -0.0307736 -0.0574514 -0.00557351  -0.0328819 -0.0645856 -0.00458217  -0.0314609 -0.0590441 -0.0042119  -0.0430863 -0.0593276 -0.00653601  -0.0365174 -0.0579339 -0.00651002  -0.0388883 -0.0649983 -0.00535417  -0.0372546 -0.0595189 -0.00491929  -0.0311725 -0.0582981 -0.00489569  -0.0369575 -0.0587731 -0.00571704  -0.0468591 -0.071117 -0.00651288  -0.049246 -0.0783859 -0.00532842  -0.0475404 -0.07249 -0.0049181  -0.0421301 -0.0773703 -0.00532174  -0.0428141 -0.0786517 -0.00400448  -0.0341545 -0.0703314 -0.00488496  -0.036127 -0.0777438 -0.00399137  -0.0348128 -0.0717229 -0.00367832  -0.0472795 -0.0718379 -0.00571799  -0.0403287 -0.0706934 -0.00570607  -0.0425314 -0.0780363 -0.00466371  -0.0410348 -0.0720726 -0.00429893  -0.0345329 -0.0710696 -0.00428295  -0.0407459 -0.0714222 -0.00500321  -0.0507351 -0.0844896 -0.00565004  -0.0529226 -0.0919957 -0.00459623  -0.051373 -0.0856709 -0.00425816  -0.0455203 -0.091203 -0.00459552  -0.046154 -0.0923047 -0.0034492  -0.037311 -0.0839493 -0.00423932  -0.0391434 -0.0915938 -0.00344038  -0.0379279 -0.0851536 -0.00318289  -0.0511262 -0.0851084 -0.00495553  -0.0438588 -0.0841958 -0.00495267  -0.0458902 -0.0917741 -0.00402212  -0.0445182 -0.0853857 -0.003721  -0.0376631 -0.0845871 -0.00371146  -0.0442458 -0.0848235 -0.00433636  -0.0542797 -0.0985072 -0.00485301  -0.0562748 -0.106212 -0.00392222  -0.0548661 -0.099515 -0.0036509  -0.0486368 -0.105624 -0.00392628  -0.0492169 -0.106559 -0.00294018  -0.0402443 -0.0981972 -0.00364113  -0.0419375 -0.106031 -0.00293541  -0.0408117 -0.0992295 -0.0027256  -0.0546379 -0.0990339 -0.00425291  -0.0471106 -0.0983346 -0.00425506  -0.0489744 -0.106105 -0.00343275  -0.0477179 -0.0993518 -0.00318956  -0.0405676 -0.0987428 -0.00318336  -0.0474656 -0.0988701 -0.00372124  -0.0575076 -0.113075 -0.00411844  -0.0593179 -0.12094 -0.00330329  -0.0580422 -0.113924 -0.00309348  -0.051492 -0.120538 -0.00331092  -0.0520176 -0.121323 -0.00247383  -0.0429592 -0.112976 -0.00309086  -0.0445178 -0.12096 -0.00247097  -0.0434767 -0.113851 -0.00230765  -0.057834 -0.113517 -0.00360632  -0.0500952 -0.113013 -0.00361252  -0.0517976 -0.12094 -0.00289154  -0.0506479 -0.113872 -0.00270152  -0.0432532 -0.113438 -0.00269866  -0.0504178 -0.113465 -0.00315571  -0.0604368 -0.128102 -0.00344634  -0.0620718 -0.136092 -0.00274038  -0.0609169 -0.128807 -0.00258517  -0.0540994 -0.135858 -0.00274968  -0.0545707 -0.136505 -0.00205016  -0.0454654 -0.128195 -0.0025866  -0.046894 -0.136293 -0.00204945  -0.0459312 -0.128926 -0.00192595  -0.0607293 -0.128468 -0.00301576  -0.0528243 -0.128141 -0.0030241  -0.0543729 -0.136186 -0.00239921  -0.0533227 -0.128856 -0.00225639  -0.0457305 -0.12858 -0.00225568  -0.0531151 -0.128516 -0.00263882  -0.0630833 -0.143504 -0.00283432  -0.0645533 -0.151586 -0.00222826  -0.063512 -0.144078 -0.00212336  -0.0564734 -0.151502 -0.00224042  -0.0568916 -0.152027 -0.00166512  -0.0477717 -0.143769 -0.00212836  -0.0490766 -0.15195 -0.00166535  -0.0481877 -0.144369 -0.00158  -0.0633457 -0.143801 -0.00247884  -0.0553132 -0.143633 -0.00249004  -0.0567166 -0.151766 -0.00195169  -0.0557578 -0.144218 -0.00185275  -0.0480082 -0.144084 -0.00185347  -0.0555729 -0.143938 -0.00216985  -0.0654677 -0.159203 -0.00228167  -0.0667838 -0.167348 -0.0017705  -0.0658449 -0.159661 -0.00170612  -0.0586299 -0.167396 -0.00178361  -0.0589966 -0.16781 -0.00132084  -0.0498906 -0.15962 -0.00171447  -0.0510784 -0.167852 -0.00132346  -0.0502561 -0.160103 -0.00126743  -0.0656983 -0.159438 -0.00199389  -0.0575765 -0.159411 -0.00200605  -0.0588429 -0.1676 -0.00155115  -0.0579689 -0.15988 -0.00148797  -0.0500993 -0.159872 -0.00149012  -0.0578054 -0.159654 -0.00174546  -0.0676084 -0.175127 -0.0017879  -0.0687819 -0.183306 -0.00136209  -0.0679376 -0.17548 -0.00133371  -0.0605848 -0.183471 -0.00137591  -0.0609021 -0.183787 -0.00101352  -0.051833 -0.175676 -0.00134492  -0.0529124 -0.183933 -0.00101638  -0.0521525 -0.176054 -0.000988722  -0.0678111 -0.175306 -0.00156069  -0.0596303 -0.175404 -0.00157452  -0.0607692 -0.183623 -0.00119376  -0.059972 -0.175768 -0.00116229  -0.0520152 -0.175872 -0.00116611  -0.0598301 -0.175591 -0.00136685  -0.0695271 -0.19121 -0.00135064  -0.070569 -0.199401 -0.00100398  -0.0698086 -0.191471 -0.00100493  -0.0623553 -0.199664 -0.00101948  -0.0626256 -0.199894 -0.000745296  -0.0536129 -0.191871 -0.00101757  -0.0545905 -0.200129 -0.000750065  -0.0538864 -0.192158 -0.000742435  -0.0696999 -0.19134 -0.00117779  -0.0614901 -0.191545 -0.00119281  -0.0625117 -0.19977 -0.000881672  -0.061784 -0.191817 -0.000875235  -0.0537698 -0.192019 -0.000879526  -0.061662 -0.191684 -0.00103235  -0.0712435 -0.207391 -0.000971079  -0.0721674 -0.215572 -0.000696182  -0.0714812 -0.207574 -0.000718355  -0.0639601 -0.215918 -0.000712633  -0.0641851 -0.216076 -0.000513792  -0.0552433 -0.208146 -0.000733852  -0.0561285 -0.216386 -0.000519037  -0.0554748 -0.208353 -0.000528336  -0.0713906 -0.207479 -0.000844717  -0.0631759 -0.207775 -0.000860691  -0.0640903 -0.215986 -0.00061202  -0.0634234 -0.207968 -0.000624895  -0.0553753 -0.208252 -0.000630379  -0.0633206 -0.207872 -0.000741243  -0.0727828 -0.223619 -0.000647306  -0.0735989 -0.231774 -0.000437021  -0.0729771 -0.223735 -0.000475407  -0.0654173 -0.232186 -0.000454903  -0.0655997 -0.232283 -0.000320673  -0.0567412 -0.22445 -0.000492096  -0.0575409 -0.232654 -0.000326395  -0.0569303 -0.22459 -0.000346661  -0.072902 -0.223672 -0.000561476  -0.0647042 -0.224042 -0.000578403  -0.0655227 -0.232221 -0.000387192  -0.064908 -0.224169 -0.000412464  -0.0568495 -0.22452 -0.000418663  -0.0648234 -0.224103 -0.000494003  -0.0741637 -0.239846 -0.000380516  -0.0748856 -0.247959 -0.000230789  -0.0743189 -0.239907 -0.000276327  -0.0667455 -0.248422 -0.000246763  -0.0668883 -0.248474 -0.000165224  -0.0581181 -0.240737 -0.000292301  -0.0588422 -0.248892 -0.000169516  -0.05827 -0.240822 -0.000196695  -0.074259 -0.23987 -0.000328541  -0.0660951 -0.240299 -0.000345469  -0.0668271 -0.248434 -0.00020504  -0.0662572 -0.240372 -0.00023818  -0.0582037 -0.240777 -0.000243902  -0.0661895 -0.240332 -0.000290394  -0.0754106 -0.256031 -0.000172615  -0.0760527 -0.264095 -7.41482e-05  -0.0755291 -0.256054 -0.000121355  -0.0679646 -0.264593 -8.86917e-05  -0.0680723 -0.264611 -4.72069e-05  -0.0593908 -0.256967 -0.000135422  -0.0600488 -0.265063 -5.126e-05  -0.0595064 -0.257012 -7.93934e-05  -0.0754821 -0.256035 -0.000147343  -0.0673659 -0.256507 -0.000162601  -0.0680242 -0.264586 -6.74725e-05  -0.0674906 -0.25654 -0.000101805  -0.0594566 -0.256986 -0.000106812  -0.0674374 -0.256519 -0.000130892  -0.0765471 -0.272142 -2.09808e-05  -0.0771284 -0.280151 3.40939e-05  -0.0766377 -0.27214 -7.62939e-06  -0.0690944 -0.280668 2.55108e-05  -0.0691757 -0.280669 3.86238e-05  -0.0605717 -0.273109 -1.62125e-05  -0.0611773 -0.281143 3.83854e-05  -0.0606606 -0.273126 9.29832e-06  -0.0766006 -0.272134 -1.50204e-05  -0.0685382 -0.272632 -2.69413e-05  -0.0691371 -0.280655 3.21865e-05  -0.0686314 -0.27264 -4.76837e-07  -0.0606215 -0.273114 -3.57628e-06  -0.0685897 -0.272631 -1.28746e-05  -0.0776052 -0.288156 7.77245e-05  -0.0781503 -0.296119 0.000104904  -0.0776765 -0.288148 6.96182e-05  -0.0701568 -0.296638 0.000105381  -0.070224 -0.296634 0.000100613  -0.0616786 -0.289144 7.08103e-05  -0.0622444 -0.297118 0.000105143  -0.0617485 -0.289147 7.51019e-05  -0.0776427 -0.288146 7.29561e-05  -0.0696309 -0.288655 6.77109e-05  -0.07019 -0.296623 0.000102758  -0.0697033 -0.288652 7.1764e-05  -0.061717 -0.289142 7.27177e-05  -0.069669 -0.288649 7.03335e-05  -0.0786221 -0.304075 0.000136852  -0.0791597 -0.31202 0.000162125  -0.0786877 -0.304077 0.000124693  -0.0711827 -0.312527 0.000174522  -0.0712481 -0.312528 0.000156641  -0.0627255 -0.30507 0.000142813  -0.0632794 -0.313001 0.000172615  -0.062793 -0.30507 0.000130177  -0.0786548 -0.304074 0.000131369  -0.0706701 -0.304576 0.000137329  -0.0712166 -0.312517 0.000165224  -0.0707355 -0.304577 0.000128269  -0.062763 -0.305067 0.000136375  -0.070704 -0.304575 0.000133514  0 0 0  -0.00361601 -0.00127438 -0.00542164  -0.00234023 -0.00271416 -0.00329661  0 0 0  -0.00122547 0.000163168 -0.00292158  -0.00204382 -0.00150134 -0.00349426  -0.000592533 -0.000670239 -0.00152922  0 0 0  -0.0015968 -0.00019899 -0.0036006  -0.0027625 -0.00210068 -0.00432897  -0.000796616 -0.00105864 -0.00188088  0 0 0  -0.000700939 -0.00039129 -0.0020504  -0.000930358 -0.000752702 -0.00252438  -0.00712489 -0.00550754 -0.00664043  -0.00643386 -0.00757684 -0.00487447  -0.00403699 -0.00240889 -0.00497198  -0.00504825 -0.00587371 -0.00470257  -0.00318015 -0.00417244 -0.00346065  -0.00540537 -0.00311431 -0.00616121  -0.00674509 -0.00665137 -0.00582957  -0.00432275 -0.00494669 -0.00427747  -0.00353277 -0.00342312 -0.00426054  -0.00476231 -0.00415158 -0.00526881  -0.0105529 -0.0115996 -0.00686383  -0.0105043 -0.0138791 -0.00521851  -0.00667837 -0.00758818 -0.00547957  -0.00806451 -0.0121282 -0.00488353  -0.00642377 -0.00973158 -0.00413823  -0.00883442 -0.00831573 -0.00684047  -0.010565 -0.012838 -0.00608063  -0.00850785 -0.0105293 -0.00513268  -0.00656626 -0.00878547 -0.00486159  -0.00868228 -0.009537 -0.00604153  -0.0139764 -0.0194 -0.00659895  -0.0142933 -0.0216436 -0.00505328  -0.0094161 -0.0146424 -0.00541091  -0.0109752 -0.019994 -0.00468278  -0.00956336 -0.0168757 -0.00415778  -0.0122679 -0.0152878 -0.00677228  -0.0141901 -0.0206061 -0.00584936  -0.0124283 -0.0175686 -0.00517464  -0.0095337 -0.0158681 -0.00481486  -0.0123981 -0.0165294 -0.00600505  -0.0173496 -0.0286875 -0.00611377  -0.0178592 -0.0307875 -0.00467277  -0.012157 -0.0233038 -0.00508809  -0.0137851 -0.0292922 -0.00432158  -0.0125301 -0.0254597 -0.00391006  -0.0156713 -0.0238606 -0.00637484  -0.0176604 -0.0298088 -0.00540614  -0.0161014 -0.0260417 -0.00487995  -0.0123917 -0.0244742 -0.00451636  -0.0159433 -0.0250384 -0.00564551  -0.0206337 -0.0392483 -0.00553441  -0.0212287 -0.0411562 -0.00421238  -0.0148677 -0.033341 -0.00465131  -0.0165018 -0.0398377 -0.00389695  -0.0153531 -0.0353401 -0.00355721  -0.0190046 -0.0338106 -0.00583076  -0.0209824 -0.0402609 -0.00488043  -0.0195668 -0.0358178 -0.00444794  -0.0151551 -0.0344185 -0.00411391  -0.0193403 -0.0348883 -0.00514936  -0.0237939 -0.0508918 -0.00493431  -0.0244118 -0.0525957 -0.00373721  -0.0175192 -0.0445527 -0.00417328  -0.0191203 -0.0514621 -0.00346041  -0.0180481 -0.0463624 -0.00317454  -0.0222302 -0.0449338 -0.0052352  -0.0241483 -0.0517924 -0.00433898  -0.0228427 -0.0467406 -0.00397444  -0.0178238 -0.0455233 -0.0036788  -0.0225853 -0.0459001 -0.00461006  -0.026806 -0.0634646 -0.00434661  -0.0274106 -0.064966 -0.00327826  -0.0200894 -0.0567684 -0.00369549  -0.021633 -0.0640162 -0.00303864  -0.0206208 -0.0583801 -0.00279498  -0.0253187 -0.0570595 -0.0046382  -0.0271482 -0.0642546 -0.00381374  -0.0259329 -0.058662 -0.00350547  -0.0203905 -0.0576299 -0.00324774  -0.0256694 -0.057914 -0.0040741  -0.0296555 -0.0768303 -0.00379062  -0.0302287 -0.0781412 -0.00284743  -0.0225605 -0.0698428 -0.00323606  -0.0240321 -0.0773694 -0.00264096  -0.0230714 -0.0712608 -0.00243664  -0.0282502 -0.0700445 -0.00406504  -0.029977 -0.0775179 -0.00331879  -0.0288414 -0.0714494 -0.00305915  -0.0228468 -0.0705989 -0.00283742  -0.0285839 -0.070792 -0.00356269  -0.0323364 -0.0908756 -0.00327134  -0.0328681 -0.0920078 -0.00244999  -0.0249207 -0.0836498 -0.00280499  -0.0263135 -0.0914044 -0.00227332  -0.0253998 -0.0848845 -0.00210309  -0.031016 -0.0837638 -0.0035274  -0.0326333 -0.0914666 -0.00286031  -0.0315691 -0.0849839 -0.00264454  -0.0251875 -0.0843069 -0.00245428  -0.0313267 -0.0844117 -0.00308561  -0.0348477 -0.105493 -0.0027926  -0.0353345 -0.106461 -0.00208402  -0.0271645 -0.0980772 -0.00240469  -0.0284758 -0.106015 -0.00193429  -0.0276054 -0.0991415 -0.00179625  -0.0336119 -0.0981077 -0.00302863  -0.0351187 -0.105997 -0.00243735  -0.0341218 -0.0991565 -0.00226307  -0.0274094 -0.0986425 -0.00210047  -0.0338967 -0.0986638 -0.00264502  -0.0371931 -0.120589 -0.00235248  -0.0376337 -0.121406 -0.00175047  -0.0292894 -0.113024 -0.00203681  -0.0305188 -0.121105 -0.00162292  -0.0296905 -0.11393 -0.00151587  -0.0360397 -0.112976 -0.0025692  -0.0374376 -0.121012 -0.0020504  -0.0365031 -0.113867 -0.00191355  -0.0295119 -0.113504 -0.00177598  -0.0362985 -0.113448 -0.00224042  -0.0393771 -0.136073 -0.00195193  -0.0397722 -0.136753 -0.00144649  -0.0312965 -0.128396 -0.00169992  -0.0324453 -0.136584 -0.00134063  -0.0316567 -0.129159 -0.00126004  -0.0383034 -0.128277 -0.00214863  -0.0395961 -0.136423 -0.00169778  -0.0387214 -0.129024 -0.00159478  -0.0314962 -0.1288 -0.00147915  -0.0385361 -0.128671 -0.00187063  -0.0414076 -0.151865 -0.00158787  -0.0417566 -0.15242 -0.0011723  -0.0331881 -0.144109 -0.00139403  -0.034258 -0.152371 -0.001086  -0.0335083 -0.14474 -0.0010283  -0.0404097 -0.143924 -0.00176692  -0.0416012 -0.152147 -0.00137901  -0.0407814 -0.144541 -0.0013063  -0.0333654 -0.144442 -0.00121045  -0.0406173 -0.144249 -0.00153518  -0.0432918 -0.167887 -0.00126266  -0.0435976 -0.168332 -0.000926256  -0.0349671 -0.160083 -0.00111818  -0.035962 -0.168388 -0.00085783  -0.0352482 -0.160596 -0.00082016  -0.0423661 -0.159841 -0.00142241  -0.0434611 -0.168112 -0.00109315  -0.0426935 -0.160339 -0.00104594  -0.0351233 -0.160353 -0.000968456  -0.0425482 -0.160103 -0.00123286  -0.0450386 -0.184075 -0.000972271  -0.0453025 -0.18442 -0.000708103  -0.0366389 -0.176246 -0.000873327  -0.0375615 -0.184569 -0.000654936  -0.0368825 -0.176654 -0.000634909  -0.0441804 -0.175954 -0.00111508  -0.0451847 -0.184245 -0.000838995  -0.0444648 -0.176347 -0.000813961  -0.0367743 -0.176461 -0.000753641  -0.0443393 -0.176159 -0.000963211  -0.0466578 -0.200361 -0.000719309  -0.0468819 -0.200621 -0.000516653  -0.0382082 -0.192534 -0.000656366  -0.0390632 -0.20085 -0.000477076  -0.0384161 -0.192849 -0.00047183  -0.0458622 -0.192198 -0.000843048  -0.0467813 -0.200486 -0.00061655  -0.0461063 -0.192499 -0.000609398  -0.0383239 -0.192699 -0.000563622  -0.0459979 -0.192354 -0.000725031  -0.0481598 -0.216696 -0.000499964  -0.048346 -0.216881 -0.000352144  -0.0396821 -0.208888 -0.000468493  -0.0404737 -0.217177 -0.000324488  -0.0398555 -0.209122 -0.000329733  -0.0474212 -0.208514 -0.000606775  -0.0482621 -0.21678 -0.0004251  -0.0476258 -0.208736 -0.000431061  -0.0397792 -0.209009 -0.000398159  -0.0475357 -0.208628 -0.000517607  -0.0495558 -0.233026 -0.000317097  -0.0497065 -0.23315 -0.000213861  -0.0410671 -0.225257 -0.000308037  -0.0418 -0.233503 -0.000195742  -0.0412095 -0.225422 -0.000209093  -0.0488689 -0.224853 -0.000406265  -0.0496383 -0.233079 -0.000264168  -0.0490372 -0.225006 -0.000279903  -0.0411468 -0.225341 -0.000257969  -0.0489621 -0.22493 -0.000341892  -0.0508566 -0.249314 -0.000168324  -0.0509746 -0.249389 -0.000102282  -0.0423706 -0.241596 -0.000175714  -0.0430503 -0.249787 -9.20296e-05  -0.042484 -0.241705 -0.000108957  -0.0502157 -0.241167 -0.000239611  -0.0509202 -0.24934 -0.00013423  -0.0503497 -0.241265 -0.000154972  -0.042434 -0.241651 -0.000141621  -0.0502901 -0.241215 -0.000196218  -0.0520718 -0.265523 -5.26905e-05  -0.0521629 -0.265562 -1.5974e-05  -0.0435996 -0.257869 -7.03335e-05  -0.0442312 -0.265995 -1.12057e-05  -0.0436883 -0.257934 -3.05176e-05  -0.0514731 -0.257419 -0.000107765  -0.0521202 -0.26553 -3.33786e-05  -0.0515769 -0.257475 -5.65052e-05  -0.0436487 -0.2579 -4.98295e-05  -0.0515296 -0.257445 -8.13007e-05  -0.0532122 -0.281629 3.69549e-05  -0.053283 -0.281644 4.98295e-05  -0.0447605 -0.274046 1.21593e-05  -0.0453501 -0.282101 5.26905e-05  -0.0448284 -0.274078 3.14713e-05  -0.0526497 -0.273579 -6.67572e-06  -0.0532489 -0.281623 4.36306e-05  -0.0527294 -0.273605 1.88351e-05  -0.0447981 -0.27406 2.21729e-05  -0.0526924 -0.273589 6.91414e-06  -0.0542867 -0.297617 0.000109911  -0.0543499 -0.297619 0.000103474  -0.0458584 -0.290108 7.82013e-05  -0.0464168 -0.298089 0.000107288  -0.0459149 -0.290118 8.05855e-05  -0.0537555 -0.289627 7.22408e-05  -0.0543191 -0.297605 0.000106812  -0.0538208 -0.289634 7.72476e-05  -0.0458891 -0.29011 7.96318e-05  -0.0537899 -0.289627 7.51019e-05  -0.0553193 -0.31349 0.000187159  -0.0553875 -0.313488 0.000155926  -0.0469034 -0.306039 0.000140905  -0.0474532 -0.313942 0.000164986  -0.0469608 -0.306036 0.000124931  -0.0548041 -0.305557 0.000142813  -0.0553565 -0.313475 0.000170231  -0.054868 -0.305556 0.000128746  -0.046936 -0.306033 0.000133038  -0.0548391 -0.305552 0.000135899  0 0 0  -0.00192689 -0.000328213 -0.00323057  -0.00118248 -0.0016849 -0.00200343  0 0 0  -0.000554159 0.000492126 -0.00142884  -0.000886351 -0.000909299 -0.0017271  -0.000251986 -0.000311047 -0.000763178  0 0 0  -0.00087259 0.000375777 -0.00216055  -0.00143282 -0.00112808 -0.00261045  -0.000404656 -0.000438213 -0.00114703  0 0 0  -0.000303477 -5.81741e-05 -0.00101304  -0.000485968 -0.000176966 -0.0015285  -0.00377747 -0.00421777 -0.0039916  -0.0033884 -0.00616777 -0.00296617  -0.00177059 -0.00163099 -0.00245476  -0.00221658 -0.00498995 -0.00235176  -0.00137636 -0.00333706 -0.0017364  -0.00285274 -0.00192496 -0.00370312  -0.00356908 -0.00532714 -0.00353241  -0.00222938 -0.00365186 -0.00260377  -0.00153777 -0.00263551 -0.00212193  -0.00248486 -0.0029327 -0.00319195  -0.00574225 -0.0103934 -0.00411367  -0.00575113 -0.0125754 -0.0031631  -0.00294572 -0.0067054 -0.00272036  -0.00363666 -0.0112672 -0.00244236  -0.00286573 -0.00878865 -0.00208306  -0.00473922 -0.0070481 -0.00410128  -0.0057753 -0.011602 -0.0036695  -0.00457346 -0.00915366 -0.00311732  -0.00291836 -0.00789124 -0.00243282  -0.00467062 -0.00823727 -0.00365186  -0.00779969 -0.0183548 -0.00394201  -0.00804338 -0.0205403 -0.00304627  -0.00426602 -0.0138535 -0.00268245  -0.00509337 -0.0192638 -0.00233412  -0.00440326 -0.016039 -0.00208759  -0.00676546 -0.0141603 -0.00404906  -0.00795934 -0.0195445 -0.00351238  -0.00690785 -0.0163645 -0.00312686  -0.00436273 -0.0150683 -0.00240445  -0.0068723 -0.0153788 -0.00361276  -0.00988126 -0.0278059 -0.0036447  -0.0102528 -0.0298793 -0.00280476  -0.00566643 -0.0226493 -0.00251627  -0.00656706 -0.028704 -0.00214601  -0.00593078 -0.0247784 -0.00195432  -0.00883883 -0.0228976 -0.00380325  -0.0101032 -0.0289219 -0.00323534  -0.00915658 -0.0250373 -0.00293446  -0.00582802 -0.0238144 -0.00224686  -0.009036 -0.0240645 -0.00338316  -0.0119624 -0.0385288 -0.00329518  -0.0123925 -0.0404337 -0.00251865  -0.00711846 -0.0328214 -0.00229406  -0.00805825 -0.0393902 -0.00192428  -0.00744855 -0.0348126 -0.00176835  -0.0109223 -0.0330094 -0.00347328  -0.0122096 -0.0395456 -0.00291204  -0.0113303 -0.0350035 -0.00266409  -0.00731021 -0.0339001 -0.00203776  -0.011161 -0.0340875 -0.00307655  -0.0140234 -0.0503359 -0.00293207  -0.0144697 -0.0520521 -0.00222659  -0.00860822 -0.0441672 -0.0020504  -0.00956374 -0.0511533 -0.00170016  -0.00896299 -0.0459829 -0.00156784  -0.0129957 -0.0442955 -0.00311279  -0.0142745 -0.0512468 -0.00258207  -0.0134378 -0.0461079 -0.00237179  -0.00880939 -0.0451444 -0.0018127  -0.0132475 -0.0452696 -0.00274634  -0.0160478 -0.0630738 -0.00257802  -0.0164852 -0.0645968 -0.00194573  -0.0101218 -0.0565185 -0.00180721  -0.0110777 -0.0638467 -0.00148439  -0.0104765 -0.0581454 -0.00137115  -0.0150405 -0.0565864 -0.00275254  -0.0162907 -0.063878 -0.00226307  -0.0154846 -0.058206 -0.00208426  -0.0103202 -0.05739 -0.00159121  -0.015289 -0.0574533 -0.00242019  -0.0180216 -0.0766025 -0.00224113  -0.0184366 -0.0779398 -0.00168347  -0.011645 -0.0697285 -0.00157261  -0.0125898 -0.0773364 -0.00127935  -0.0119865 -0.0711679 -0.00118566  -0.0170407 -0.0697355 -0.0024066  -0.0182499 -0.0773064 -0.00196266  -0.017468 -0.071165 -0.00181222  -0.0118343 -0.0704973 -0.00138021  -0.0172778 -0.0704986 -0.00211  -0.0199351 -0.0908066 -0.00192809  -0.0203196 -0.0919671 -0.00144124  -0.0131665 -0.0836695 -0.00135326  -0.0140918 -0.0915048 -0.00109172  -0.0134854 -0.0849288 -0.00101423  -0.0189853 -0.0836161 -0.00208163  -0.0201457 -0.0914148 -0.00168443  -0.0193857 -0.084864 -0.00155997  -0.0133421 -0.0843406 -0.00118423  -0.0192058 -0.084281 -0.00182056  -0.0217817 -0.105574 -0.00163841  -0.0221328 -0.106571 -0.00121951  -0.0146759 -0.0982263 -0.00115037  -0.0155761 -0.106242 -0.000918865  -0.0149682 -0.0993164 -0.000856638  -0.020866 -0.0981143 -0.00178027  -0.0219733 -0.106094 -0.0014286  -0.0212338 -0.0991924 -0.00132775  -0.0148365 -0.0988062 -0.00100374  -0.0210681 -0.0986877 -0.00155354  -0.0235571 -0.120809 -0.00137377  -0.0238732 -0.121655 -0.00101757  -0.0161649 -0.113295 -0.000964165  -0.0170366 -0.12145 -0.000761747  -0.0164285 -0.114228 -0.000713825  -0.0226772 -0.113128 -0.00150347  -0.0237291 -0.121249 -0.00119472  -0.0230111 -0.114048 -0.00111604  -0.0163094 -0.113791 -0.000838757  -0.0228601 -0.113617 -0.00130892  -0.0252589 -0.136421 -0.00113249  -0.0255406 -0.137129 -0.000834227  -0.0176264 -0.128781 -0.000794649  -0.0184669 -0.137037 -0.000619411  -0.0178612 -0.129569 -0.000584126  -0.024416 -0.128562 -0.00125003  -0.0254118 -0.136786 -0.000982523  -0.0247145 -0.129338 -0.000922918  -0.0177553 -0.129199 -0.00068903  -0.0245795 -0.128973 -0.00108552  -0.0268871 -0.152327 -0.000914812  -0.0271343 -0.15291 -0.000669003  -0.0190569 -0.144597 -0.000641584  -0.0198643 -0.15292 -0.000491619  -0.0192628 -0.145253 -0.000467539  -0.0260808 -0.144331 -0.00102091  -0.0270215 -0.152626 -0.000790834  -0.0263455 -0.144975 -0.000749111  -0.0191696 -0.144944 -0.000554323  -0.0262257 -0.144672 -0.000883818  -0.0284415 -0.168451 -0.000720024  -0.0286564 -0.168922 -0.000521898  -0.0204507 -0.160663 -0.000504732  -0.0212251 -0.169023 -0.000378132  -0.0206296 -0.1612 -0.000363111  -0.0276724 -0.160355 -0.000814676  -0.0285578 -0.16869 -0.000620127  -0.027903 -0.160881 -0.000593185  -0.0205492 -0.160946 -0.000433683  -0.0277984 -0.160632 -0.000702858  -0.0299233 -0.184726 -0.000547886  -0.0301068 -0.185097 -0.000391483  -0.0218068 -0.176907 -0.000383377  -0.0225468 -0.185279 -0.000278473  -0.0219589 -0.177338 -0.000271082  -0.0291899 -0.176563 -0.000631571  -0.0300226 -0.184911 -0.000468731  -0.0293891 -0.176983 -0.000454664  -0.0218906 -0.177134 -0.000326872  -0.0292988 -0.176783 -0.000541925  -0.0313349 -0.201088 -0.000396252  -0.0314887 -0.201371 -0.000277281  -0.0231218 -0.193265 -0.000276804  -0.0238271 -0.201623 -0.000191689  -0.0232491 -0.193601 -0.000190496  -0.0306361 -0.192888 -0.000469446  -0.0314178 -0.201227 -0.00033617  -0.0308046 -0.193215 -0.000332117  -0.0231917 -0.193441 -0.000233412  -0.0307286 -0.193059 -0.00039959  -0.0326793 -0.217485 -0.000267267  -0.0328059 -0.217693 -0.000178814  -0.0243948 -0.209678 -0.000184774  -0.025068 -0.218004 -0.000116587  -0.0244992 -0.209931 -0.000120163  -0.0320137 -0.209274 -0.000329256  -0.032747 -0.217583 -0.000222206  -0.0321541 -0.209519 -0.000225782  -0.0244522 -0.20981 -0.000152111  -0.0320904 -0.209401 -0.000276566  -0.0339596 -0.233868 -0.000158072  -0.0340614 -0.234013 -9.72748e-05  -0.0256257 -0.226096 -0.000106096  -0.0262668 -0.234373 -5.34058e-05  -0.0257096 -0.226279 -6.1512e-05  -0.0333254 -0.22567 -0.000210285  -0.034014 -0.233933 -0.000127077  -0.0334394 -0.225845 -0.000135899  -0.0256722 -0.22619 -8.36849e-05  -0.0333879 -0.22576 -0.000172138  -0.0351808 -0.250199 -6.96182e-05  -0.0352597 -0.250292 -3.02792e-05  -0.0268149 -0.242477 -4.19617e-05  -0.0274267 -0.250693 -2.86102e-06  -0.026881 -0.242601 -1.21593e-05  -0.0345759 -0.242032 -0.000111341  -0.0352223 -0.250236 -4.91142e-05  -0.0346663 -0.242149 -6.17504e-05  -0.0268509 -0.242539 -2.69413e-05  -0.0346248 -0.242091 -8.55923e-05  -0.0363443 -0.266444 9.53674e-07  -0.0364056 -0.266497 2.19345e-05  -0.0279636 -0.258784 9.05991e-06  -0.0285466 -0.26693 3.71933e-05  -0.0280135 -0.25886 2.6226e-05  -0.0357683 -0.258322 -3.26633e-05  -0.036376 -0.266459 1.19209e-05  -0.0358374 -0.258394 -2.38419e-06  -0.0279913 -0.258821 1.78814e-05  -0.0358057 -0.258358 -1.66893e-05  -0.0374548 -0.28258 5.65052e-05  -0.0375028 -0.282602 6.38962e-05  -0.0290709 -0.27499 4.98295e-05  -0.0296295 -0.283059 6.8903e-05  -0.0291088 -0.275029 5.67436e-05  -0.0369048 -0.274516 2.95639e-05  -0.0374792 -0.282579 6.05583e-05  -0.0369587 -0.274552 4.41074e-05  -0.0290926 -0.275007 5.34058e-05  -0.0369332 -0.274532 3.76701e-05  -0.0385151 -0.298586 0.000107527  -0.0385592 -0.298586 9.9659e-05  -0.0301394 -0.291072 8.36849e-05  -0.0306766 -0.299056 9.77516e-05  -0.0301704 -0.291083 8.24928e-05  -0.0379891 -0.29059 8.13007e-05  -0.0385375 -0.298572 0.000103474  -0.0380337 -0.2906 8.22544e-05  -0.0301566 -0.291074 8.32081e-05  -0.0380132 -0.290591 8.22544e-05  -0.0395391 -0.31443 0.000165462  -0.0395894 -0.314426 0.000137568  -0.0311718 -0.307004 0.000118494  -0.0316985 -0.314881 0.000129938  -0.0312026 -0.306996 0.000106812  -0.0390286 -0.306521 0.000132084  -0.0395665 -0.31441 0.000150681  -0.0390747 -0.306515 0.000118017  -0.0311892 -0.306992 0.000112534  -0.0390537 -0.306512 0.000125408  0 0 0  -0.000522919 -2.50936e-05 -0.00100708  -0.000306189 -0.0013521 -0.000647068  0 0 0  5.20721e-05 0.000519574 7.10487e-05  0.000114486 -0.000835329 6.46114e-05  3.24696e-05 -0.000264466 2.76566e-05  0 0 0  -0.00024588 0.000535935 -0.000674486  -0.000376746 -0.000818104 -0.000828981  -0.000105646 -0.000256211 -0.00036788  0 0 0  3.71635e-05 -2.45571e-05 4.36306e-05  -0.000128843 -1.2368e-05 -0.000483513  -0.000992313 -0.00373703 -0.00127554  -0.000914007 -0.00564823 -0.000976086  0.000230178 -0.0015308 9.08375e-05  0.000274867 -0.00486609 5.126e-05  0.000171199 -0.00320718 3.62396e-05  -0.000754386 -0.00150508 -0.00117683  -0.000951216 -0.00484064 -0.00114846  -0.000588253 -0.00319496 -0.000850439  0.000198364 -0.00252685 5.8651e-05  -0.000655025 -0.00250652 -0.00102997  -0.00155041 -0.00991863 -0.00132823  -0.0016298 -0.0120649 -0.0010488  0.000389516 -0.0065932 7.10487e-05  0.00037688 -0.0111655 3.48091e-05  0.000294089 -0.00864831 2.14577e-05  -0.00125483 -0.00655502 -0.00132179  -0.00160438 -0.0111216 -0.00120354  -0.00126353 -0.00862288 -0.00103188  0.000336558 -0.007772 4.02927e-05  -0.00126761 -0.00773847 -0.00119567  -0.00222379 -0.0179699 -0.00127411  -0.0024029 -0.0201315 -0.0010097  0.000466585 -0.0137862 5.81741e-05  0.000376642 -0.0192249 3.05176e-05  0.000333071 -0.015951 1.23978e-05  -0.00187388 -0.0137271 -0.00131083  -0.00233141 -0.0191557 -0.00115156  -0.00200912 -0.0159012 -0.0010376  0.000391483 -0.0149967 3.00407e-05  -0.00195915 -0.0149406 -0.00118661  -0.0029943 -0.0275252 -0.0011735  -0.00323105 -0.0295891 -0.000921726  0.000421226 -0.0226487 5.67436e-05  0.000252903 -0.0287394 3.67165e-05  0.000259876 -0.0247671 1.5974e-05  -0.00259668 -0.0225646 -0.00122929  -0.0031302 -0.0286416 -0.00105333  -0.00280935 -0.0246877 -0.00096941  0.000330985 -0.0238132 3.24249e-05  -0.00272137 -0.0237299 -0.00110722  -0.00385594 -0.0383523 -0.00105  -0.00411886 -0.0402598 -0.000816107  0.000240624 -0.0328923 6.4373e-05  -5.96046e-07 -0.0395018 5.07832e-05  6.31809e-05 -0.0348828 2.83718e-05  -0.00341368 -0.0327809 -0.00111437  -0.00400323 -0.0393741 -0.000936747  -0.0036664 -0.0347716 -0.000869989  0.000142395 -0.0339741 4.33922e-05  -0.0035575 -0.0338616 -0.000997066  -0.00479883 -0.0502644 -0.000922918  -0.00506711 -0.0519926 -0.000708818  -7.53403e-05 -0.0443124 7.62939e-05  -0.000380933 -0.0513443 6.60419e-05  -0.000256777 -0.0461355 4.36306e-05  -0.00431705 -0.0441717 -0.000986576  -0.00494677 -0.0511843 -0.000817537  -0.00458491 -0.0459913 -0.000762224  -0.000175238 -0.045296 5.79357e-05  -0.00446618 -0.0451525 -0.000877142  -0.00581187 -0.0631099 -0.000797272  -0.00607246 -0.0646505 -0.000606775  -0.000519276 -0.056741 8.84533e-05  -0.000879943 -0.0641193 7.89165e-05  -0.000696242 -0.058382 5.8651e-05  -0.00529671 -0.0565685 -0.000859976  -0.00595403 -0.0639255 -0.000703096  -0.00556213 -0.0582032 -0.000656843  -0.000616372 -0.0576223 7.22408e-05  -0.0054431 -0.0574455 -0.000760078  -0.00688112 -0.0767471 -0.000678539  -0.00712669 -0.0781054 -0.000510693  -0.00107896 -0.0700322 0.000100136  -0.0014863 -0.0776924 9.08375e-05  -0.00124633 -0.0714893 7.20024e-05  -0.00633907 -0.0698259 -0.00073719  -0.00701404 -0.0774634 -0.000594854  -0.00659323 -0.0712749 -0.000557899  -0.00117016 -0.0708122 8.51154e-05  -0.00647771 -0.0706008 -0.000648499  -0.00799584 -0.0910575 -0.000569105  -0.00822163 -0.0922413 -0.000424385  -0.00174236 -0.084055 0.000109434  -0.00218773 -0.0919429 9.94205e-05  -0.00189567 -0.0853346 8.24928e-05  -0.0074327 -0.0838138 -0.000623465  -0.00811744 -0.091679 -0.000497103  -0.00766826 -0.0850846 -0.000467062  -0.00182557 -0.0847385 9.53674e-05  -0.00756097 -0.0844919 -0.00054574  -0.00914371 -0.105927 -0.000469208  -0.00934744 -0.106949 -0.000345707  -0.00249493 -0.098693 0.000116825  -0.00297129 -0.10676 0.000106096  -0.00263262 -0.0998041 9.08375e-05  -0.00856507 -0.0984173 -0.000518322  -0.00925303 -0.106462 -0.000406981  -0.00878036 -0.0995189 -0.000384331  -0.00257003 -0.0992854 0.000103235  -0.00868154 -0.0990042 -0.000451326  -0.0103154 -0.12126 -0.000379086  -0.0104954 -0.12213 -0.000276327  -0.00332439 -0.11384 0.00012064  -0.00382471 -0.122043 0.000109673  -0.00344491 -0.114793 9.60827e-05  -0.00972605 -0.113531 -0.000423431  -0.0104115 -0.121713 -0.000327349  -0.00991786 -0.114475 -0.000309944  -0.00338995 -0.114348 0.000108004  -0.00982988 -0.114033 -0.000366449  -0.0115001 -0.13696 -0.000298262  -0.0116578 -0.137692 -0.000212908  -0.00421751 -0.129398 0.000122786  -0.00473583 -0.137699 0.00011158  -0.00432074 -0.130207 9.89437e-05  -0.0109051 -0.129058 -0.000337839  -0.011584 -0.137339 -0.000255108  -0.0110742 -0.129858 -0.000243664  -0.00427341 -0.129828 0.000110626  -0.0109961 -0.129483 -0.000290632  -0.0126914 -0.152947 -0.000225782  -0.0128264 -0.153552 -0.000157833  -0.005162 -0.14528 0.000122309  -0.0056932 -0.153644 0.000111341  -0.00524867 -0.145956 0.000100613  -0.012094 -0.144911 -0.000261545  -0.0127634 -0.153258 -0.00019145  -0.0122403 -0.145579 -0.000184536  -0.00520933 -0.145639 0.000111341  -0.0121733 -0.145265 -0.000222683  -0.0138814 -0.169142 -0.000162601  -0.0139962 -0.169634 -0.000108719  -0.00614691 -0.161405 0.000121355  -0.00668716 -0.169802 0.000110865  -0.00621808 -0.161961 0.000100613  -0.0132858 -0.161011 -0.000193834  -0.0139422 -0.169392 -0.000134945  -0.0134108 -0.161559 -0.000132561  -0.00618625 -0.161699 0.000111103  -0.0133529 -0.161301 -0.00016284  -0.0150648 -0.185479 -0.000106812  -0.0151597 -0.185869 -6.62804e-05  -0.00716317 -0.177701 0.000118256  -0.00770724 -0.186105 0.000108004  -0.00721955 -0.178149 9.94205e-05  -0.0144731 -0.177285 -0.000134468  -0.0151149 -0.185675 -8.63075e-05  -0.0145775 -0.177726 -8.67844e-05  -0.00719416 -0.177938 0.000108957  -0.0145296 -0.177517 -0.000110149  -0.0162354 -0.201894 -5.96046e-05  -0.0163126 -0.202195 -2.93255e-05  -0.00820065 -0.194104 0.000114441  -0.00874519 -0.202489 0.000104666  -0.0082438 -0.194455 9.75132e-05  -0.0156505 -0.193669 -8.32081e-05  -0.0162759 -0.202042 -4.3869e-05  -0.0157368 -0.194013 -4.74453e-05  -0.00822449 -0.194288 0.000106096  -0.0156968 -0.19385 -6.48499e-05  -0.0173898 -0.218335 -1.90735e-05  -0.0174506 -0.218559 7.15256e-07  -0.0092504 -0.210554 0.000109911  -0.0097928 -0.218903 0.000100374  -0.00928164 -0.210822 9.53674e-05  -0.0168135 -0.210103 -3.91006e-05  -0.017421 -0.218442 -9.05991e-06  -0.0168819 -0.210365 -1.35899e-05  -0.00926781 -0.210694 0.000102758  -0.0168507 -0.21024 -2.59876e-05  -0.0185242 -0.234755 1.40667e-05  -0.0185709 -0.234914 2.74181e-05  -0.0103056 -0.227002 0.000105619  -0.010844 -0.235299 9.75132e-05  -0.0103271 -0.227198 9.27448e-05  -0.0179577 -0.226539 -2.38419e-06  -0.0185475 -0.234827 2.12193e-05  -0.0180118 -0.226729 1.4782e-05  -0.010318 -0.227104 9.91821e-05  -0.0179863 -0.226638 6.4373e-06  -0.0196366 -0.251117 4.07696e-05  -0.019671 -0.251221 4.76837e-05  -0.0113609 -0.243407 0.000100613  -0.0118935 -0.251639 9.32217e-05  -0.011375 -0.243543 9.03606e-05  -0.0190818 -0.242934 2.71797e-05  -0.0196533 -0.25116 4.43459e-05  -0.0191216 -0.243065 3.76701e-05  -0.011369 -0.243477 9.5129e-05  -0.0191031 -0.243001 3.26633e-05  -0.020725 -0.267386 6.07967e-05  -0.0207493 -0.267447 6.34193e-05  -0.0124109 -0.259734 9.53674e-05  -0.0129366 -0.267892 8.96454e-05  -0.0124185 -0.25982 8.67844e-05  -0.0201828 -0.259253 5.05447e-05  -0.0207365 -0.267406 6.24657e-05  -0.0202119 -0.259335 5.57899e-05  -0.0124159 -0.259777 9.10759e-05  -0.0201976 -0.259293 5.34058e-05  -0.0217879 -0.283541 7.7486e-05  -0.0218048 -0.283568 7.60555e-05  -0.0134528 -0.275955 8.98838e-05  -0.0139704 -0.284032 8.51154e-05  -0.0134542 -0.276001 8.41618e-05  -0.0212586 -0.275468 6.86646e-05  -0.0217957 -0.283543 7.67708e-05  -0.0212786 -0.275512 7.00951e-05  -0.0134549 -0.275976 8.70228e-05  -0.0212688 -0.275488 6.96182e-05  -0.0228245 -0.299557 9.25064e-05  -0.0228384 -0.299558 8.74996e-05  -0.0144837 -0.292047 8.51154e-05  -0.0149918 -0.300034 8.13007e-05  -0.0144813 -0.292062 8.10623e-05  -0.0223081 -0.291557 8.36849e-05  -0.0228302 -0.299543 9.01222e-05  -0.0223234 -0.29157 8.15392e-05  -0.014483 -0.292051 8.27312e-05  -0.0223157 -0.29156 8.27312e-05  -0.0238352 -0.315382 0.000112057  -0.0238512 -0.315377 9.94205e-05  -0.0154974 -0.307978 8.08239e-05  -0.0159938 -0.315847 7.82013e-05  -0.0154932 -0.307972 7.86781e-05  -0.0233316 -0.307489 9.94205e-05  -0.0238421 -0.315359 0.000105381  -0.023345 -0.307481 9.29832e-05  -0.0154955 -0.307967 7.96318e-05  -0.0233388 -0.307476 9.63211e-05  0 0 0  0.000796363 -0.000179291 0.00120831  0.000500143 -0.0014782 0.000721693  0 0 0  0.000641733 0.000309706 0.00155926  0.00111112 -0.00118744 0.00183916  0.000316545 -0.000454783 0.000813723  0 0 0  0.000345655 0.000445366 0.000813484  0.000605017 -0.000957251 0.00095582  0.000170447 -0.000327885 0.000422239  0 0 0  0.000375204 -0.000218034 0.00109434  0.000202894 -9.20892e-05 0.00056982  0.00161982 -0.0039745 0.00144029  0.00139406 -0.00585693 0.00102925  0.00221416 -0.00203323 0.00260615  0.00275716 -0.00543284 0.00242114  0.0017188 -0.00368035 0.00178742  0.00121069 -0.0017063 0.00135231  0.00149903 -0.00506312 0.00124431  0.000931174 -0.00336719 0.000918388  0.00192836 -0.00300646 0.00221229  0.00105044 -0.00269252 0.00114202  0.00242755 -0.0102051 0.00145555  0.00227681 -0.012328 0.0010736  0.00370917 -0.00723267 0.00282812  0.00437286 -0.0118138 0.00248265  0.00344348 -0.00926191 0.00209665  0.0020293 -0.00681943 0.00145793  0.00235426 -0.0113961 0.00126672  0.00184911 -0.00886095 0.00106692  0.00357878 -0.00839025 0.00248051  0.00193793 -0.00798923 0.00126934  0.00313562 -0.0182918 0.0013864  0.00301582 -0.0204394 0.00103092  0.00517836 -0.0144614 0.00277138  0.00581896 -0.0198933 0.00237465  0.00504544 -0.0166091 0.0020895  0.00280052 -0.0140318 0.0014236  0.00307792 -0.0194711 0.00120878  0.00266787 -0.0161874 0.00105786  0.00512302 -0.0156573 0.00243902  0.00273666 -0.015236 0.00124264  0.00367975 -0.0278828 0.00129271  0.00357229 -0.0299413 0.000962019  0.00648069 -0.0233277 0.00261092  0.00703639 -0.0294158 0.00220633  0.00641543 -0.0254375 0.00197077  0.00343049 -0.0229039 0.0013411  0.00362682 -0.0289976 0.00112605  0.00331843 -0.0250174 0.000998497  0.00645769 -0.0244844 0.0022943  0.00337541 -0.0240651 0.00116944  0.00404131 -0.0387505 0.00119114  0.00394076 -0.0406606 0.000886679  0.00756413 -0.0335768 0.00241065  0.00801367 -0.040193 0.00201917  0.00753212 -0.0355656 0.00181532  0.00388426 -0.033158 0.00124216  0.00399071 -0.0397748 0.00103784  0.00378025 -0.0351477 0.000924826  0.00755513 -0.0346562 0.00211382  0.00383204 -0.0342391 0.00108242  0.00422013 -0.0507095 0.00108886  0.00412649 -0.0524455 0.000810862  0.00841594 -0.0450118 0.00219703  0.00875521 -0.052057 0.00182796  0.00840139 -0.046838 0.00165009  0.00415397 -0.0445922 0.00114036  0.00417262 -0.0516346 0.000948668  0.00405699 -0.0464176 0.000849247  0.00841379 -0.0459964 0.00192356  0.00410414 -0.0455772 0.000993729  0.00422502 -0.0636073 0.00098753  0.00413954 -0.0651603 0.00073719  0.00903839 -0.0574638 0.00198245  0.00926912 -0.0648609 0.00164175  0.00903422 -0.0591115 0.00148702  0.00424445 -0.0570393 0.00103855  0.0041815 -0.0644305 0.000861645  0.00415456 -0.0586842 0.000774145  0.00903976 -0.0583482 0.00173402  0.00419825 -0.0579228 0.000905514  0.00406802 -0.0773006 0.000890493  0.0039916 -0.078674 0.000665903  0.00944054 -0.0707842 0.00177383  0.00956905 -0.0784663 0.00146174  0.00944376 -0.072251 0.00132966  0.00416684 -0.0703513 0.000939369  0.00402939 -0.0780258 0.000777483  0.0040859 -0.0718141 0.000701666  0.00944531 -0.0715691 0.00155091  0.00412476 -0.0711344 0.000819683  0.00376332 -0.0916687 0.000796556  0.0036974 -0.0928687 0.000598192  0.00963652 -0.0848403 0.0015738  0.00967026 -0.0927516 0.00129247  0.00964558 -0.0861305 0.00118017  0.00393426 -0.0843967 0.000843763  0.0037303 -0.0922997 0.000697136  0.00386286 -0.0856825 0.000632048  0.00964367 -0.0855293 0.00137615  0.00389755 -0.0850836 0.000737429  0.00332618 -0.106595 0.000708342  0.0032717 -0.107633 0.000533342  0.00964189 -0.0995123 0.00138545  0.00959063 -0.107602 0.00113297  0.00965798 -0.100635 0.00103951  0.00356138 -0.0990574 0.000752449  0.00329912 -0.107139 0.000620127  0.0035013 -0.100175 0.000565529  0.00965214 -0.100111 0.00121188  0.00353038 -0.0996535 0.000658751  0.00277233 -0.121982 0.000623465  0.00272989 -0.122868 0.000471592  0.00947607 -0.114692 0.00120854  0.00934803 -0.122918 0.000984192  0.00949752 -0.115658 0.000907421  0.00306404 -0.114226 0.000665903  0.00275183 -0.122444 0.000547409  0.00301528 -0.115187 0.00050211  0.00948882 -0.115206 0.00105739  0.00303936 -0.114738 0.000583887  0.00211823 -0.137732 0.000544548  0.00208652 -0.138479 0.000413179  0.00915539 -0.130283 0.00104284  0.00896084 -0.138604 0.000844717  0.00918341 -0.131103 0.000784636  0.00245821 -0.129805 0.000584126  0.00210357 -0.13812 0.000478506  0.00242138 -0.130621 0.000442266  0.00917172 -0.130718 0.000913382  0.0024395 -0.130239 0.000513077  0.00137758 -0.153763 0.000470161  0.0013566 -0.154383 0.000359297  0.00870025 -0.146193 0.00088954  0.00844717 -0.154575 0.000717163  0.00873327 -0.146879 0.000670671  0.00175929 -0.145706 0.000507355  0.0013684 -0.154082 0.000414848  0.00173259 -0.146389 0.000386238  0.00871933 -0.146557 0.000779629  0.00174618 -0.146069 0.000446796  0.00056529 -0.169998 0.000402451  0.000552893 -0.170503 0.000309229  0.00812781 -0.162342 0.000749111  0.00782418 -0.170755 0.000599861  0.00816488 -0.162908 0.000566483  0.000980735 -0.161848 0.000436306  0.000560999 -0.170256 0.000355482  0.000964403 -0.16241 0.000334024  0.00814831 -0.162641 0.00065732  0.000973225 -0.162145 0.000385046  -0.00030601 -0.186369 0.000339985  -0.000309944 -0.186771 0.000263453  0.00745547 -0.178659 0.000621319  0.00710917 -0.187076 0.000494003  0.00749516 -0.179115 0.00047183  0.000137568 -0.178159 0.000370979  -0.000305891 -0.186571 0.000301838  0.000129223 -0.178611 0.000286341  0.00747752 -0.1789 0.000545979  0.000134349 -0.178398 0.000328779  -0.00122285 -0.202811 0.000284433  -0.00122023 -0.203124 0.000222445  0.00670052 -0.195079 0.000507116  0.00631905 -0.203474 0.000400782  0.00674105 -0.195437 0.000386715  -0.000758171 -0.194573 0.000312328  -0.00121951 -0.202966 0.000253201  -0.00075841 -0.194929 0.000243187  0.00672317 -0.195266 0.000446558  -0.000757456 -0.19476 0.000277758  -0.00217509 -0.219276 0.000234604  -0.00216722 -0.219509 0.000186443  0.00587726 -0.211541 0.000405788  0.00546598 -0.219898 0.00031805  0.00591898 -0.211815 0.000311852  -0.00169373 -0.211033 0.000258923  -0.00216866 -0.219388 0.000210524  -0.00168848 -0.211304 0.000204086  0.00589991 -0.211684 0.000358343  -0.00169015 -0.211175 0.000231504  -0.00315189 -0.235713 0.000192404  -0.00314069 -0.23588 0.000155687  0.00500011 -0.227999 0.000318527  0.00456572 -0.236301 0.000249624  0.00504017 -0.228199 0.00024724  -0.00265932 -0.227489 0.000213146  -0.00314379 -0.235789 0.000173807  -0.00264955 -0.227688 0.000170708  0.00502157 -0.228102 0.000282526  -0.00265336 -0.227592 0.000191927  -0.00414586 -0.252088 0.000154972  -0.00413179 -0.252198 0.000128984  0.00408053 -0.244409 0.000244617  0.00362825 -0.252644 0.000189543  0.00411916 -0.244548 0.000193596  -0.00364566 -0.243899 0.000173569  -0.00413656 -0.252134 0.000142097  -0.00363326 -0.244037 0.000142097  0.00410128 -0.24448 0.000218391  -0.00363827 -0.243969 0.000157833  -0.00514936 -0.268365 0.000124454  -0.00513387 -0.268432 0.00010705  0.0031302 -0.260738 0.000181913  0.00266433 -0.268897 0.000141382  0.00316715 -0.260826 0.00014782  -0.00464535 -0.260228 0.000139952  -0.00513959 -0.268389 0.000115395  -0.00463033 -0.260316 0.000118017  0.00314951 -0.260781 0.000164509  -0.004637 -0.260272 0.000128984  -0.00615859 -0.284527 9.77516e-05  -0.00614119 -0.284557 8.89301e-05  0.00215793 -0.276957 0.000131369  0.00168109 -0.285035 0.000101566  0.00219226 -0.277006 0.000111341  -0.00565267 -0.276451 0.000111341  -0.0061481 -0.284529 9.32217e-05  -0.00563645 -0.276499 9.799e-05  0.00217509 -0.276979 0.000120878  -0.00564313 -0.276473 0.000104666  -0.00716758 -0.300543 7.29561e-05  -0.00714779 -0.300548 7.20024e-05  0.00116706 -0.293046 8.67844e-05  0.000686884 -0.301034 6.50883e-05  0.00120163 -0.293065 8.01086e-05  -0.00666237 -0.292543 8.60691e-05  -0.00715518 -0.300531 7.22408e-05  -0.00664353 -0.29256 8.08239e-05  0.00118518 -0.293051 8.27312e-05  -0.00665212 -0.292548 8.34465e-05  -0.00816393 -0.316367 4.57764e-05  -0.00814033 -0.316367 5.57899e-05  0.000170231 -0.308977 4.29153e-05  -0.000298023 -0.316859 2.69413e-05  0.000209093 -0.308978 5.10216e-05  -0.0076673 -0.308474 6.1512e-05  -0.00814795 -0.316347 5.126e-05  -0.00764561 -0.308471 6.46114e-05  0.000191689 -0.30897 4.69685e-05  -0.00765419 -0.308464 6.31809e-05  0 0 0  0.00216334 -0.000791848 0.00338626  0.00138053 -0.00206131 0.00204945  0 0 0  0.00126234 -0.000207841 0.00300837  0.00225411 -0.00205183 0.00354362  0.00065583 -0.00096029 0.00156045  0 0 0  0.00094106 0.000100374 0.00227451  0.00165293 -0.00154346 0.00269842  0.000469752 -0.000654757 0.00119019  0 0 0  0.000763901 -0.00071311 0.00210762  0.000555307 -0.000417471 0.00160098  0.00437087 -0.0049243 0.00408578  0.00385678 -0.00678605 0.0029664  0.0044246 -0.00320512 0.00502586  0.00555247 -0.00674349 0.00467277  0.0035165 -0.00484365 0.00344276  0.00327407 -0.00252599 0.00381756  0.00409675 -0.00598681 0.00356269  0.00257112 -0.00416279 0.00262737  0.00390011 -0.004152 0.00426364  0.00286739 -0.00348538 0.00324845  0.00658068 -0.0112455 0.00417638  0.00635889 -0.0133565 0.0031364  0.00738245 -0.00862777 0.00548291  0.00873208 -0.0132055 0.00483513  0.00695604 -0.0106577 0.00407267  0.00547945 -0.00783461 0.00416899  0.00648549 -0.0124174 0.00367308  0.00513402 -0.00985819 0.00309896  0.00717482 -0.00976574 0.00481319  0.00531191 -0.00898057 0.00366139  0.00865936 -0.0193175 0.00400734  0.00859249 -0.0214593 0.00302935  0.0102519 -0.0158485 0.00541759  0.011602 -0.0212458 0.00465918  0.0101171 -0.018001 0.00409341  0.00764719 -0.0150692 0.004107  0.00864631 -0.0204865 0.00352621  0.00751457 -0.0172151 0.00310206  0.0102095 -0.0170339 0.0047729  0.00760004 -0.0162585 0.00361753  0.0104989 -0.0288804 0.00373387  0.0105122 -0.0309375 0.00282001  0.0128725 -0.0246602 0.00512576  0.0141311 -0.03072 0.00434065  0.0128948 -0.0267747 0.00388002  0.00961292 -0.0239152 0.00387716  0.0105236 -0.0299909 0.0032804  0.00959224 -0.0260248 0.00293231  0.0129096 -0.0258127 0.00451112  0.00962162 -0.0250688 0.0034101  0.0120667 -0.0397309 0.00341797  0.0121204 -0.0416422 0.00257349  0.015193 -0.0348625 0.00473332  0.0163166 -0.0414586 0.00396538  0.0152953 -0.0368545 0.00357461  0.0113182 -0.034146 0.00357771  0.0121084 -0.0407544 0.00299644  0.0113556 -0.0361354 0.00269938  0.0152669 -0.0359404 0.0041573  0.0113525 -0.0352245 0.00314045  0.0133551 -0.0516838 0.00308967  0.013428 -0.0534241 0.00232172  0.0171912 -0.046263 0.00430107  0.0181608 -0.0532963 0.0035758  0.0173323 -0.0480925 0.00323915  0.0127469 -0.0455689 0.00325346  0.0134041 -0.0526107 0.00270581  0.0128115 -0.0473969 0.00244784  0.0172811 -0.0472486 0.00377107  0.0127923 -0.0465543 0.00285077  0.014367 -0.0645841 0.00276661  0.0144495 -0.0661429 0.00207496  0.0188615 -0.0586908 0.00386333  0.0196708 -0.06608 0.00319266  0.0190193 -0.060342 0.0029037  0.0138959 -0.0580141 0.00292659  0.0144191 -0.0654101 0.00241995  0.0139747 -0.0596643 0.00219727  0.0189569 -0.0595773 0.0033834  0.013946 -0.0589001 0.00256133  0.0151141 -0.0782849 0.00245452  0.015201 -0.0796657 0.00183964  0.0202094 -0.0719936 0.00343752  0.0208616 -0.0796714 0.00282645  0.0203722 -0.0734645 0.00257921  0.014774 -0.0713314 0.00260878  0.0151674 -0.0790144 0.00214648  0.0148586 -0.0728009 0.00195575  0.0203054 -0.0727814 0.00300741  0.0148258 -0.0721183 0.00228143  0.0156119 -0.0926637 0.00215936  0.0157009 -0.0938718 0.00161695  0.0212481 -0.086036 0.00303006  0.0217509 -0.0939443 0.00247812  0.0214113 -0.0873312 0.00227118  0.0153941 -0.0853863 0.00230527  0.0156655 -0.0932994 0.00188732  0.0154825 -0.0866801 0.00172687  0.021343 -0.0867284 0.00264978  0.0154465 -0.0860776 0.00201511  0.0158799 -0.107602 0.00188184  0.0159699 -0.108648 0.00141001  0.0219972 -0.100697 0.00264621  0.0223603 -0.108786 0.00215316  0.0221575 -0.101825 0.00198245  0.0157743 -0.100058 0.00201845  0.0159333 -0.108151 0.00164533  0.0158638 -0.101185 0.00151205  0.0220892 -0.101299 0.00231338  0.0158273 -0.100659 0.0017643  0.0159376 -0.123 0.00162363  0.0160295 -0.123894 0.00121641  0.0224779 -0.115867 0.00228763  0.0227135 -0.124091 0.00185132  0.022635 -0.116838 0.00171375  0.0159343 -0.115239 0.00175047  0.0159918 -0.123467 0.00141931  0.0160259 -0.116208 0.00131154  0.0225674 -0.116385 0.00199962  0.0159875 -0.115755 0.00153017  0.0158082 -0.13876 0.00138354  0.0158999 -0.139515 0.00103807  0.0227153 -0.131447 0.00195503  0.0228354 -0.139767 0.00157142  0.0228682 -0.132272 0.00146484  0.0158963 -0.130829 0.00150156  0.0158625 -0.139152 0.00121045  0.015988 -0.131653 0.00112557  0.0228022 -0.131887 0.00170898  0.0159496 -0.131267 0.00131273  0.0155127 -0.1548 0.00116396  0.0156037 -0.155426 0.000873804  0.0227338 -0.147347 0.00164843  0.0227506 -0.155727 0.00131655  0.0228813 -0.148038 0.0012362  0.0156814 -0.146739 0.00127125  0.0155658 -0.155123 0.00101829  0.0157729 -0.147429 0.000954151  0.0228175 -0.147714 0.00144148  0.0157336 -0.147105 0.00111198  0.0150722 -0.17104 0.000963688  0.0151612 -0.171551 0.000724792  0.0225596 -0.163486 0.00136948  0.0224838 -0.171895 0.00108457  0.0227002 -0.164055 0.00102735  0.0153103 -0.162888 0.00106168  0.0151242 -0.171301 0.000844002  0.0154003 -0.163456 0.000797749  0.0226384 -0.163788 0.00119758  0.0153623 -0.163189 0.000928879  0.0145075 -0.187414 0.00078392  0.0145934 -0.187821 0.000590801  0.022215 -0.179791 0.00111651  0.022059 -0.188202 0.000875473  0.0223489 -0.180249 0.000838995  0.0148053 -0.179203 0.000871181  0.0145574 -0.187619 0.000686646  0.0148933 -0.179661 0.000656128  0.0222899 -0.180033 0.000977039  0.0148553 -0.179445 0.000762939  0.0138383 -0.203858 0.000623703  0.0139191 -0.204174 0.000472069  0.0217249 -0.196197 0.000891209  0.0214994 -0.204587 0.000690699  0.0218494 -0.196557 0.000670671  0.0141864 -0.19562 0.000701427  0.0138857 -0.204014 0.000547647  0.0142694 -0.19598 0.000529528  0.0217948 -0.196387 0.000780106  0.0142338 -0.195809 0.000614643  0.0130825 -0.220321 0.000484943  0.0131576 -0.220556 0.000368834  0.0211132 -0.212647 0.000693321  0.0208266 -0.220996 0.000530481  0.0212259 -0.21292 0.000523329  0.0134714 -0.212079 0.000551701  0.0131261 -0.220434 0.000426054  0.01355 -0.212354 0.000418663  0.0211761 -0.21279 0.000607729  0.0135157 -0.212223 0.000484467  0.0122571 -0.236754 0.000366449  0.0123248 -0.236922 0.000281572  0.0203986 -0.22909 0.000523329  0.0200617 -0.237383 0.000394106  0.0204997 -0.229289 0.000397444  0.0126793 -0.228533 0.000422955  0.0122962 -0.236832 0.000323772  0.0127501 -0.228733 0.000323534  0.0204546 -0.229193 0.000459671  0.0127194 -0.228637 0.00037241  0.0113759 -0.253123 0.000267029  0.0114367 -0.253235 0.000208378  0.0196016 -0.245485 0.000380516  0.0192218 -0.253711 0.000282049  0.01969 -0.245622 0.000292063  0.0118239 -0.244938 0.000314236  0.011411 -0.25317 0.000236988  0.0118885 -0.245077 0.000242949  0.0196502 -0.245555 0.000335455  0.0118599 -0.245009 0.000277996  0.0104525 -0.269392 0.000185966  0.0105059 -0.26946 0.000149488  0.018739 -0.261797 0.000263453  0.0183253 -0.269947 0.000191689  0.0188148 -0.261884 0.000205994  0.0109203 -0.26126 0.00022459  0.010483 -0.269416 0.000167608  0.0109768 -0.261349 0.000177383  0.01878 -0.26184 0.000234365  0.0109518 -0.261304 0.000200272  0.0094943 -0.285542 0.000119448  0.00954366 -0.285577 0.000101566  0.0178246 -0.277997 0.000169992  0.0173836 -0.286068 0.000118494  0.0178909 -0.278048 0.000137806  0.00997829 -0.277472 0.000151157  0.00952244 -0.285547 0.000109911  0.0100296 -0.277523 0.000124693  0.0178592 -0.278021 0.000153065  0.0100064 -0.277496 0.000137329  0.00851202 -0.301551 5.8651e-05  0.00856113 -0.301564 6.03199e-05  0.0168688 -0.294069 9.27448e-05  0.0164115 -0.302059 5.60284e-05  0.0169284 -0.294094 8.24928e-05  0.00900722 -0.293554 8.89301e-05  0.00854063 -0.301544 5.93662e-05  0.00905514 -0.293576 8.05855e-05  0.0169008 -0.294079 8.70228e-05  0.00903344 -0.293562 8.41618e-05  0.00752449 -0.317394 -7.62939e-06  0.00758195 -0.317402 1.83582e-05  0.0158868 -0.309999 2.00272e-05  0.0154343 -0.31791 -7.86781e-06  0.0159495 -0.310012 3.24249e-05  0.00801802 -0.309485 2.90871e-05  0.00756001 -0.31738 6.19888e-06  0.00807071 -0.309492 3.98159e-05  0.0159206 -0.310001 2.59876e-05  0.00804782 -0.309483 3.43323e-05  0 0 0  0.00376986 -0.00203711 0.00546837  0.00254214 -0.00332689 0.00327539  0 0 0  0.0020018 -0.00130737 0.00436783  0.0037958 -0.00381285 0.00506902  0.00113995 -0.00212389 0.00222564  0 0 0  0.00159849 -0.000661135 0.00365043  0.00296138 -0.0027765 0.00432539  0.000860021 -0.00142109 0.00189185  0 0 0  0.00129213 -0.00179768 0.00302005  0.000987761 -0.00115299 0.00255728  0.00762922 -0.00666058 0.00658941  0.00685236 -0.00856984 0.0047667  0.00726888 -0.00523412 0.0072577  0.00909752 -0.0089125 0.00674057  0.00600147 -0.00699878 0.00494838  0.00574361 -0.00409538 0.00614309  0.0072085 -0.00771892 0.00572634  0.00464886 -0.00576681 0.00420642  0.00652152 -0.00622094 0.00612736  0.00510633 -0.0050447 0.00520515  0.0112845 -0.0129972 0.00680184  0.0109987 -0.015146 0.00509381  0.0117974 -0.0107305 0.00802851  0.0138135 -0.0152944 0.00708389  0.0112483 -0.0128717 0.00591946  0.00947881 -0.00960153 0.00677109  0.0111641 -0.0141688 0.00597  0.00898564 -0.0116651 0.00500894  0.0115203 -0.0119039 0.0070076  0.00923526 -0.0107442 0.00592518  0.0147013 -0.0209969 0.0065732  0.0146818 -0.0231593 0.00496316  0.0160224 -0.0178682 0.00801039  0.0180594 -0.0232371 0.00688624  0.0158917 -0.0200859 0.00601792  0.0130298 -0.0167869 0.00672245  0.0147263 -0.0221651 0.00577974  0.0128962 -0.0189613 0.00506425  0.0159907 -0.0190734 0.0070312  0.0129939 -0.0179759 0.00591087  0.0178035 -0.0304883 0.0061419  0.0179256 -0.0325562 0.00463724  0.0199285 -0.0265977 0.00760818  0.0218698 -0.0326234 0.00643849  0.0200266 -0.0287436 0.00573945  0.0162956 -0.0255575 0.00637341  0.0178987 -0.0315985 0.0053947  0.0163584 -0.0276828 0.00481582  0.0200195 -0.0277578 0.00668263  0.0163613 -0.026711 0.00560331  0.0205511 -0.0412811 0.00562048  0.0207435 -0.043196 0.00423527  0.0234612 -0.0367254 0.00702977  0.0252384 -0.043287 0.00588489  0.0236772 -0.0387289 0.00530028  0.0192239 -0.0357236 0.00588727  0.0206784 -0.0423034 0.00493002  0.0193873 -0.0377199 0.00444221  0.0236099 -0.0378044 0.00616908  0.0193381 -0.0368015 0.00516844  0.0229249 -0.0531855 0.00507283  0.0231487 -0.0549266 0.00381422  0.0265821 -0.0480579 0.0063827  0.0281597 -0.0550563 0.00530267  0.0268533 -0.0498886 0.00480437  0.0217864 -0.0470935 0.00534797  0.0230645 -0.0541117 0.00444365  0.021998 -0.0489238 0.0040257  0.0267553 -0.0490413 0.00559497  0.0219206 -0.0480782 0.00468802  0.0249209 -0.0660439 0.00452852  0.0251558 -0.0676021 0.00339937  0.0292738 -0.0604219 0.00572371  0.0306383 -0.0677779 0.00472522  0.0295665 -0.0620697 0.00430107  0.0239707 -0.059494 0.0047996  0.0250633 -0.0668696 0.00396347  0.0242015 -0.0611444 0.0036056  0.0294538 -0.0613051 0.00501227  0.0241118 -0.0603794 0.00420237  0.0265489 -0.079707 0.00400567  0.0267833 -0.0810874 0.00300241  0.0315379 -0.0736642 0.00508022  0.0326893 -0.0813093 0.00417209  0.0318341 -0.0751298 0.00381255  0.0257813 -0.0727715 0.00426507  0.0266891 -0.0804363 0.00350285  0.026017 -0.0742412 0.00319886  0.0317166 -0.0744484 0.00444579  0.0259217 -0.0735584 0.00373101  0.0278248 -0.0940511 0.00350857  0.0280548 -0.0952591 0.00262833  0.0333877 -0.0876486 0.00446725  0.0343342 -0.0955264 0.00364923  0.0336785 -0.088938 0.00334907  0.0272307 -0.0867905 0.00375462  0.0279609 -0.0946869 0.00306749  0.0274631 -0.0880842 0.0028131  0.0335615 -0.0883376 0.0039072  0.0273679 -0.087482 0.00328279  0.0287727 -0.108957 0.00304389  0.028995 -0.110004 0.0022788  0.0348462 -0.102254 0.00389004  0.0355997 -0.110313 0.00316048  0.0351274 -0.103376 0.00291443  0.0283391 -0.101429 0.00327349  0.0289032 -0.109506 0.00266004  0.0285658 -0.102556 0.00245094  0.0350127 -0.102853 0.00340104  0.0284718 -0.102031 0.00286102  0.0294179 -0.124324 0.00261092  0.0296322 -0.125218 0.00195479  0.0359404 -0.117371 0.0033505  0.0365152 -0.125566 0.00270581  0.0362102 -0.118336 0.00250983  0.0291327 -0.116578 0.00282478  0.0295433 -0.124791 0.0022819  0.0293509 -0.117548 0.00211406  0.0360994 -0.117885 0.00292921  0.0292597 -0.117095 0.00246835  0.0297886 -0.140054 0.00221133  0.0299929 -0.140808 0.00165582  0.0367007 -0.1329 0.00285101  0.037112 -0.141191 0.0022862  0.036958 -0.133719 0.00213575  0.0296372 -0.132138 0.00240874  0.0299083 -0.140446 0.00193238  0.0298468 -0.132961 0.00180268  0.036852 -0.133336 0.00249243  0.0297586 -0.132576 0.00210452  0.0299131 -0.156064 0.00184512  0.0301074 -0.156689 0.00138211  0.0371585 -0.14875 0.00239134  0.0374217 -0.157102 0.00190306  0.0374019 -0.149434 0.00179219  0.0298811 -0.148018 0.0020256  0.0300262 -0.156387 0.0016129  0.0300804 -0.148707 0.0015161  0.0373012 -0.149113 0.00209069  0.0299965 -0.148384 0.00176978  0.0298198 -0.172275 0.00151324  0.030002 -0.172784 0.00113392  0.0373461 -0.164841 0.00197339  0.0374762 -0.173222 0.00155544  0.0375745 -0.165402 0.00147939  0.0298932 -0.164137 0.00167656  0.0299258 -0.172535 0.00132251  0.0300817 -0.164704 0.00125551  0.0374792 -0.165138 0.00172544  0.0300019 -0.164438 0.00146508  0.0295358 -0.18862 0.00121474  0.0297053 -0.189024 0.000911713  0.0372946 -0.181099 0.00159526  0.0373058 -0.189483 0.00124288  0.0375065 -0.181549 0.00119686  0.0297014 -0.180424 0.00136161  0.0296342 -0.188824 0.00106239  0.0298769 -0.180879 0.00102019  0.0374175 -0.181337 0.00139499  0.0298026 -0.180665 0.00118995  0.0290887 -0.205037 0.00095129  0.0292428 -0.205347 0.000714302  0.0370345 -0.197461 0.00125885  0.036942 -0.205824 0.000967264  0.0372283 -0.197811 0.000945568  0.0293322 -0.196812 0.00108027  0.0291781 -0.205191 0.000831604  0.0294945 -0.197168 0.000810146  0.0371466 -0.197645 0.00110126  0.0294251 -0.196999 0.000944138  0.0285032 -0.221472 0.00072217  0.028641 -0.221702 0.000544548  0.036597 -0.213868 0.000963926  0.0364127 -0.222191 0.000728369  0.0367708 -0.214131 0.000725985  0.0288134 -0.213244 0.000833988  0.0285835 -0.221582 0.000632763  0.0289588 -0.213513 0.000626564  0.0366967 -0.214005 0.000844002  0.0288968 -0.213385 0.000729322  0.0278039 -0.237879 0.000528574  0.0279243 -0.238041 0.000400543  0.0360081 -0.230272 0.000711203  0.0357475 -0.238539 0.000527143  0.0361612 -0.230459 0.000537634  0.028168 -0.229671 0.000622272  0.0278735 -0.237953 0.000463486  0.0282974 -0.229865 0.000469685  0.0360961 -0.230368 0.000623703  0.0282416 -0.229771 0.000545025  0.0270121 -0.254222 0.000368118  0.0271153 -0.254327 0.000282526  0.0352967 -0.24663 0.000500202  0.0349708 -0.254831 0.000361443  0.0354285 -0.246755 0.000382185  0.0274198 -0.24605 0.000445366  0.0270715 -0.254265 0.000324726  0.0275314 -0.246182 0.000338554  0.035372 -0.246692 0.000440359  0.027483 -0.246117 0.000391245  0.0261486 -0.270466 0.000241041  0.0262346 -0.270529 0.000188589  0.0344884 -0.262907 0.000330448  0.0341091 -0.271034 0.000231743  0.0345979 -0.262982 0.000256777  0.0265896 -0.262347 0.000301838  0.0261974 -0.270486 0.0002141  0.0266843 -0.262429 0.000233173  0.0345495 -0.262943 0.000292778  0.0266423 -0.262387 0.00026679  0.025228 -0.28659 0.00014019  0.0253012 -0.286623 0.000116348  0.0336049 -0.279075 0.000199556  0.0331838 -0.287127 0.000133991  0.0336947 -0.279116 0.000161409  0.0256956 -0.278532 0.000188828  0.025269 -0.286595 0.000127792  0.0257742 -0.27858 0.000150681  0.0336528 -0.279093 0.000180006  0.0257394 -0.278554 0.000169277  0.0242643 -0.302582 5.60284e-05  0.024332 -0.3026 5.6982e-05  0.0326645 -0.295118 0.000100851  0.0322165 -0.3031 5.76973e-05  0.0327406 -0.295141 8.86917e-05  0.0247524 -0.294591 9.89437e-05  0.0243025 -0.302579 5.65052e-05  0.0248215 -0.294616 8.60691e-05  0.0327048 -0.295126 9.48906e-05  0.0247896 -0.294601 9.20296e-05  0.0232794 -0.318448 -3.00407e-05  0.0233529 -0.318465 -7.15256e-07  0.0316854 -0.311039 1.90735e-05  0.0312309 -0.318976 -1.43051e-05  0.0317588 -0.311058 2.88486e-05  0.0237734 -0.310518 1.83582e-05  0.0233226 -0.318444 -1.40667e-05  0.0238426 -0.310535 2.93255e-05  0.0317242 -0.311046 2.36034e-05  0.0238118 -0.310524 2.38419e-05  0 0 0  0.00610571 -0.00442398 0.00744271  0.00453264 -0.00604302 0.00441957  0 0 0  0.00350406 -0.0040344 0.00553966  0.00671117 -0.00734389 0.00651288  0.00260094 -0.00515646 0.00291562  0 0 0  0.00250797 -0.00231177 0.00478721  0.00498709 -0.00535595 0.00580788  0.00154171 -0.0032286 0.00250125  0 0 0  0.0026375 -0.00447398 0.00389171  0.00165588 -0.00279409 0.00335288  0.0118028 -0.00908798 0.00898814  0.0108509 -0.011273 0.00646996  0.0112457 -0.00801873 0.00958633  0.0137066 -0.0117754 0.00886178  0.00994834 -0.0102544 0.006495  0.00914948 -0.00657964 0.00840759  0.01127 -0.0102841 0.00777149  0.00777392 -0.00853908 0.00569987  0.0104125 -0.00933194 0.00803113  0.00831731 -0.00768256 0.00705647  0.0168327 -0.0153338 0.00940275  0.0165125 -0.0176305 0.00699019  0.0171329 -0.013347 0.0106864  0.0198514 -0.0180112 0.00937843  0.0165552 -0.0157744 0.00780058  0.0143393 -0.0119861 0.00932264  0.0166988 -0.0165756 0.00821471  0.0137602 -0.014255 0.00684428  0.0168289 -0.0146948 0.00926137  0.014043 -0.0132288 0.00811052  0.0215753 -0.0232554 0.00912237  0.0215933 -0.0254939 0.0068543  0.0227698 -0.0204374 0.0106595  0.0255038 -0.0258285 0.00912428  0.0226201 -0.0227966 0.0079484  0.0192497 -0.0190846 0.00931668  0.0216368 -0.0244571 0.00799918  0.0191218 -0.0213667 0.00697637  0.0227451 -0.0217229 0.00931454  0.0192286 -0.0203232 0.00816178  0.0259326 -0.0326704 0.00852871  0.0261317 -0.0347691 0.00642204  0.0280109 -0.0291021 0.0101016  0.0306114 -0.0351093 0.0085206  0.0281086 -0.0313103 0.007586  0.0238068 -0.0277777 0.00884914  0.0260895 -0.0337921 0.00748062  0.0239304 -0.0299532 0.00666165  0.0281265 -0.030295 0.00884986  0.0239245 -0.0289524 0.00776339  0.0298451 -0.0433831 0.00779986  0.0301339 -0.0453063 0.00586963  0.0327721 -0.0391492 0.00931072  0.0351547 -0.0456669 0.00777984  0.0329984 -0.041171 0.00700474  0.0279483 -0.037866 0.00817204  0.0300451 -0.0444074 0.00683665  0.0282005 -0.0398797 0.00615454  0.032955 -0.0402367 0.00816059  0.0281305 -0.0389495 0.00716686  0.0332798 -0.0552062 0.00702906  0.0336066 -0.0569432 0.00528431  0.0370005 -0.0503888 0.00843573  0.0391253 -0.0573316 0.00700045  0.0372896 -0.052215 0.00634646  0.0316244 -0.0491555 0.00741506  0.0334949 -0.0561285 0.0061574  0.0319365 -0.0509862 0.00557828  0.037211 -0.0513685 0.00739193  0.0318337 -0.0501383 0.00649762  0.0362267 -0.0679828 0.00626564  0.0365649 -0.0695325 0.00470376  0.0406798 -0.0626531 0.00755024  0.0425324 -0.0699474 0.00623155  0.0409932 -0.0642855 0.00567746  0.034815 -0.061474 0.00664449  0.0364437 -0.0688031 0.0054841  0.0351499 -0.0631172 0.00499201  0.0408986 -0.0635276 0.00661373  0.0350311 -0.0623547 0.00581789  0.0386966 -0.0815652 0.00553012  0.0390316 -0.0829346 0.00414848  0.0438138 -0.075793 0.0066905  0.0453961 -0.0833763 0.00549316  0.0441329 -0.077239 0.00502729  0.0375214 -0.0746707 0.00589323  0.0389084 -0.0822886 0.00483847  0.0378591 -0.0761294 0.00442266  0.0440303 -0.0765669 0.00585794  0.0377355 -0.0754517 0.00515676  0.0407084 -0.0958301 0.00483465  0.0410346 -0.0970272 0.00362468  0.0464234 -0.0896755 0.00587082  0.0477446 -0.097491 0.00479722  0.0467358 -0.0909437 0.00441098  0.0397593 -0.0886094 0.00517702  0.0409129 -0.0964606 0.00422835  0.0400906 -0.0898917 0.00388217  0.0466332 -0.090354 0.00513983  0.0399665 -0.0892952 0.00452828  0.0422925 -0.11066 0.00418305  0.0426054 -0.111695 0.00313497  0.0485351 -0.104181 0.00510097  0.0496125 -0.11218 0.00414443  0.0488387 -0.105282 0.00383162  0.041553 -0.103171 0.00450349  0.0424876 -0.111203 0.00365806  0.0418727 -0.104285 0.00337553  0.0487361 -0.104769 0.00446534  0.0417522 -0.103766 0.00393796  0.0434802 -0.125953 0.00357652  0.0437788 -0.126836 0.00268054  0.0501859 -0.119201 0.00438237  0.0510352 -0.127337 0.00353885  0.0504766 -0.120145 0.00329351  0.042935 -0.118244 0.0038743  0.0436653 -0.126415 0.00312734  0.0432411 -0.119202 0.00290322  0.0503777 -0.119705 0.00383687  0.0431242 -0.118756 0.00338745  0.044305 -0.141612 0.00301671  0.0445879 -0.142354 0.00226235  0.0514113 -0.134635 0.00371695  0.0520506 -0.142869 0.00298023  0.0516874 -0.135433 0.00279498  0.0439368 -0.133732 0.00329113  0.0444802 -0.141998 0.00263858  0.0442277 -0.134543 0.00246692  0.0515908 -0.135061 0.00325489  0.0441161 -0.134164 0.00287747  0.0448037 -0.157554 0.0025053  0.0450692 -0.158166 0.00187922  0.0522481 -0.150394 0.00310493  0.0526987 -0.15869 0.00246954  0.05251 -0.151058 0.00233722  0.0445943 -0.149542 0.00275517  0.0449673 -0.15787 0.00219107  0.0448688 -0.150219 0.00206614  0.0524189 -0.150748 0.00272012  0.0447624 -0.149902 0.00240922  0.0450106 -0.173697 0.0020411  0.0452573 -0.174194 0.00153232  0.0527378 -0.166397 0.00254822  0.0530163 -0.174725 0.00200748  0.0529832 -0.166938 0.00192094  0.0449425 -0.165594 0.00226808  0.0451624 -0.173951 0.00178623  0.0451984 -0.166147 0.00170159  0.0528957 -0.166684 0.00223374  0.0450995 -0.165888 0.0019834  0.0449605 -0.189981 0.00162482  0.0451872 -0.19037 0.0012207  0.0529182 -0.182572 0.00204563  0.0530434 -0.190904 0.00159168  0.0531455 -0.183002 0.00154495  0.0450165 -0.181815 0.001827  0.0450995 -0.190177 0.00142169  0.0452539 -0.182257 0.0013721  0.0530645 -0.182799 0.00179434  0.0451611 -0.182049 0.00159812  0.044687 -0.206337 0.0012567  0.0448925 -0.206633 0.000946522  0.0528262 -0.198855 0.00159764  0.0528159 -0.207168 0.00122499  0.0530343 -0.199184 0.00121069  0.0448508 -0.198142 0.00143528  0.0448132 -0.206483 0.00110078  0.0450668 -0.198484 0.00107932  0.0529585 -0.199028 0.00140357  0.0449824 -0.198322 0.00125599  0.0442238 -0.222717 0.000938654  0.0444062 -0.222932 0.000709295  0.0525002 -0.215189 0.00120616  0.0523708 -0.223463 0.000908852  0.0526862 -0.21543 0.000919104  0.0444789 -0.214517 0.00109196  0.0443351 -0.222819 0.000823021  0.044673 -0.214771 0.000823259  0.0526187 -0.215314 0.00106192  0.044596 -0.214649 0.000956297  0.043602 -0.239074 0.000668764  0.0437598 -0.239219 0.000509739  0.0519743 -0.231524 0.000871181  0.051744 -0.239747 0.000640869  0.0521386 -0.23169 0.000669241  0.0439324 -0.23089 0.000798225  0.0436981 -0.239138 0.000588655  0.0441022 -0.231069 0.000604868  0.0520775 -0.231609 0.000769854  0.0440347 -0.230982 0.000700235  0.0428517 -0.25537 0.000448942  0.0429852 -0.255458 0.000346661  0.0512853 -0.247821 0.000591993  0.0509682 -0.255979 0.000423908  0.0514259 -0.247924 0.000463247  0.0432427 -0.247221 0.00055337  0.0429318 -0.255404 0.000397205  0.0433884 -0.247337 0.00042367  0.0513732 -0.247871 0.000527382  0.0433292 -0.247279 0.000487566  0.0420027 -0.271572 0.000277042  0.0421107 -0.27162 0.000220537  0.0504646 -0.264043 0.000370026  0.0500786 -0.272133 0.0002563  0.0505829 -0.264098 0.000299692  0.042439 -0.263474 0.000357628  0.0420663 -0.271583 0.000248671  0.0425594 -0.26354 0.000279427  0.050535 -0.264067 0.000334501  0.0425098 -0.263505 0.000317335  0.041081 -0.28766 0.000152111  0.041168 -0.287683 0.000128269  0.0495479 -0.280165 0.000205755  0.0491102 -0.288185 0.000138521  0.0496435 -0.280189 0.000178814  0.0415506 -0.279621 0.000210047  0.0411301 -0.287658 0.000139952  0.0416474 -0.279654 0.000170708  0.049602 -0.280171 0.000192642  0.0416055 -0.279634 0.000189543  0.0401103 -0.303624 6.05583e-05  0.0401838 -0.303641 6.03199e-05  0.0485654 -0.29617 9.63211e-05  0.0481002 -0.304136 5.88894e-05  0.0486465 -0.296182 9.53674e-05  0.0406015 -0.295646 0.000104189  0.0401504 -0.30362 6.07967e-05  0.0406804 -0.295664 9.2268e-05  0.0486073 -0.296171 9.63211e-05  0.0406442 -0.295651 9.77516e-05  0.0391154 -0.319502 -1.71661e-05  0.0391858 -0.319521 -1.66893e-06  0.0475581 -0.312073 2.57492e-05  0.047087 -0.320017 -4.76837e-06  0.0476296 -0.312092 3.31402e-05  0.0396154 -0.311559 2.28882e-05  0.0391536 -0.319501 -9.29832e-06  0.0396864 -0.311578 3.00407e-05  0.0475931 -0.31208 2.7895e-05  0.0396521 -0.311566 2.59876e-05  -0.00631886 -0.00797729 -0.00405717  -0.00276758 -0.00533782 -0.00172806  0 0 0  -0.00422733 -0.00627318 -0.00266218  0 0 0  -0.00297341 -0.00417179 -0.00300932  -0.00101177 -0.00213786 -0.00126457  0 0 0  -0.00268739 -0.00501399 -0.00231433  -0.0042739 -0.00584486 -0.00351787  -0.0014478 -0.00326979 -0.00146413  0 0 0  -0.00102814 -0.00195354 -0.00169754  -0.00144652 -0.00304501 -0.00195813  -0.0130493 -0.0124732 -0.00619912  -0.00971869 -0.0107028 -0.00409031  -0.0102286 -0.0115741 -0.00418591  -0.00809017 -0.00945153 -0.00465965  -0.00532329 -0.00721321 -0.00306249  -0.00972794 -0.0100317 -0.00535059  -0.0103621 -0.0108891 -0.00541282  -0.00723702 -0.00884805 -0.0035665  -0.00546266 -0.00672051 -0.00400352  -0.00733703 -0.00826866 -0.00465941  -0.0195227 -0.0182444 -0.00686073  -0.0162171 -0.0159586 -0.00521064  -0.0160564 -0.0176401 -0.00473785  -0.0131299 -0.015691 -0.00515008  -0.0105163 -0.0130609 -0.00391841  -0.0163197 -0.0151758 -0.00666523  -0.0161592 -0.0168797 -0.00599408  -0.013179 -0.014435 -0.00455737  -0.0106614 -0.0123993 -0.00500107  -0.0133117 -0.0137074 -0.00581884  -0.0256261 -0.0254698 -0.00673342  -0.0225586 -0.0224623 -0.00544763  -0.0215211 -0.0250588 -0.00470114  -0.017787 -0.0233115 -0.00505185  -0.0154417 -0.0200319 -0.00409651  -0.0226287 -0.0216738 -0.00686216  -0.0215448 -0.0243112 -0.00588655  -0.0188387 -0.0211675 -0.00476813  -0.015501 -0.0193247 -0.00514698  -0.0189023 -0.0204164 -0.00599551  -0.0312832 -0.0340824 -0.0062592  -0.0285022 -0.0303535 -0.00521636  -0.0265832 -0.0338112 -0.00438833  -0.0221141 -0.0322762 -0.00469279  -0.0200116 -0.0283226 -0.0039196  -0.0285115 -0.0296118 -0.00652432  -0.0265391 -0.033111 -0.0054729  -0.0241017 -0.0292657 -0.00456643  -0.0199898 -0.0276316 -0.00489211  -0.0240895 -0.028548 -0.00570369  -0.0364947 -0.0439367 -0.00565052  -0.0339863 -0.0395401 -0.00478196  -0.0312551 -0.043775 -0.00396562  -0.0261418 -0.0424526 -0.00423408  -0.0242445 -0.0378657 -0.00358844  -0.0339432 -0.038865 -0.00596452  -0.031164 -0.0431381 -0.00494099  -0.028966 -0.038641 -0.00418425  -0.0241633 -0.0372203 -0.00446963  -0.0288963 -0.0379802 -0.00521493  -0.0412799 -0.0548783 -0.00501752  -0.0390179 -0.0498835 -0.00427938  -0.0355561 -0.0548123 -0.00351906  -0.0298891 -0.0536982 -0.00375581  -0.028166 -0.0485354 -0.00320649  -0.0389394 -0.0492806 -0.00533557  -0.0354382 -0.0542417 -0.00438643  -0.0334501 -0.0491583 -0.00374269  -0.0280498 -0.0479486 -0.00399446  -0.0333439 -0.0485631 -0.00466394  -0.0456633 -0.0667776 -0.00440168  -0.0436175 -0.0612489 -0.0037744  -0.0395097 -0.0667944 -0.00308251  -0.0333705 -0.0658783 -0.00329208  -0.031796 -0.0602016 -0.00282335  -0.0435199 -0.0607173 -0.00470781  -0.0393797 -0.0662906 -0.00384641  -0.0375738 -0.0606833 -0.00329852  -0.0316616 -0.0596772 -0.00352097  -0.0374491 -0.0601553 -0.00411367  -0.0496694 -0.0795065 -0.00382614  -0.0478183 -0.0735102 -0.00329256  -0.0431383 -0.0796012 -0.0026741  -0.0365989 -0.0788721 -0.00285625  -0.0351547 -0.0727409 -0.00245833  -0.0477122 -0.0730455 -0.00411057  -0.0430064 -0.0791595 -0.00334144  -0.0413626 -0.0730921 -0.00287461  -0.0350157 -0.0722786 -0.00307012  -0.0412313 -0.0726286 -0.00358987  -0.0533221 -0.0929608 -0.00329304  -0.0516434 -0.0865532 -0.00284505  -0.0464635 -0.0931241 -0.00229764  -0.0395869 -0.0925676 -0.0024569  -0.0382578 -0.0860398 -0.00212002  -0.051538 -0.0861507 -0.00355554  -0.0463362 -0.0927413 -0.00287485  -0.0448362 -0.0862703 -0.00248194  -0.0381215 -0.0856367 -0.00265241  -0.0447072 -0.0858672 -0.00310349  -0.0566427 -0.107032 -0.00280619  -0.0551234 -0.100271 -0.00243402  -0.049505 -0.10726 -0.00195289  -0.0423462 -0.106863 -0.00208831  -0.0411227 -0.0999927 -0.00181007  -0.055023 -0.0999251 -0.0030458  -0.0493859 -0.10693 -0.00244713  -0.048018 -0.100112 -0.00212121  -0.0409945 -0.0996445 -0.00226808  -0.047895 -0.0997649 -0.0026567  -0.0596521 -0.12163 -0.00235844  -0.0582772 -0.114565 -0.00205803  -0.0522802 -0.121914 -0.00163817  -0.0448891 -0.121663 -0.00175381  -0.0437623 -0.1145 -0.00152683  -0.0581847 -0.114271 -0.00257874  -0.0521712 -0.121634 -0.00205636  -0.0509233 -0.114518 -0.00179219  -0.0436434 -0.114203 -0.00191712  -0.0508105 -0.114223 -0.00224757  -0.0623705 -0.136661 -0.0019536  -0.0611308 -0.129343 -0.00171542  -0.0548064 -0.136997 -0.00135231  -0.0472271 -0.136878 -0.00144815  -0.0461901 -0.129472 -0.0012691  -0.0610468 -0.129096 -0.00215268  -0.0547081 -0.136762 -0.00170135  -0.0535724 -0.129397 -0.00149179  -0.0460831 -0.129222 -0.00159717  -0.0534697 -0.129149 -0.00187469  -0.064818 -0.15205 -0.00158477  -0.0637009 -0.14452 -0.00140452  -0.0571005 -0.152428 -0.0010941  -0.049372 -0.152426 -0.00117469  -0.048418 -0.144821 -0.00103641  -0.0636264 -0.144316 -0.00176597  -0.0570136 -0.152234 -0.00137973  -0.0559798 -0.144665 -0.00121975  -0.048322 -0.144613 -0.00130773  -0.0558888 -0.144459 -0.00153661  -0.0670146 -0.167713 -0.00125575  -0.0660118 -0.160015 -0.00112367  -0.0591795 -0.168131 -0.000861883  -0.0513374 -0.168234 -0.000925303  -0.0504606 -0.160469 -0.000825882  -0.0659468 -0.159851 -0.00141692  -0.0591031 -0.167973 -0.00109124  -0.0581653 -0.16024 -0.000974417  -0.0503764 -0.1603 -0.00104618  -0.0580841 -0.160074 -0.00123143  -0.0689811 -0.183588 -0.000962257  -0.0680808 -0.175759 -0.000873327  -0.06106 -0.184037 -0.000655413  -0.0531359 -0.184229 -0.000706911  -0.0523294 -0.176345 -0.00063777  -0.068025 -0.175629 -0.00110579  -0.0609944 -0.183911 -0.000834227  -0.060142 -0.176053 -0.000755072  -0.052256 -0.17621 -0.000812531  -0.0600723 -0.175921 -0.00095892  -0.0707383 -0.199606 -0.000705481  -0.0699326 -0.191682 -0.000652552  -0.0627601 -0.200081 -0.000474691  -0.054781 -0.200352 -0.000513554  -0.0540392 -0.192381 -0.000472069  -0.0698849 -0.191583 -0.000830889  -0.0627041 -0.199984 -0.000609875  -0.0619307 -0.192035 -0.000561953  -0.0539768 -0.192277 -0.000606537  -0.0618708 -0.191933 -0.000718832  -0.0723081 -0.215716 -0.000483751  -0.0715842 -0.207727 -0.000460386  -0.0642974 -0.21621 -0.000319481  -0.0562875 -0.216545 -0.000348568  -0.0556021 -0.208519 -0.000328064  -0.0715444 -0.207653 -0.000591516  -0.06425 -0.216137 -0.000416517  -0.0635462 -0.208129 -0.000394344  -0.0555499 -0.208441 -0.000427723  -0.0634961 -0.208053 -0.000509977  -0.0737128 -0.231863 -0.000299454  -0.0730641 -0.223839 -0.00029707  -0.0656919 -0.232373 -0.000189304  -0.0576706 -0.232761 -0.000209332  -0.0570364 -0.224707 -0.000205517  -0.07303 -0.223788 -0.000388145  -0.0656524 -0.232319 -0.000254869  -0.0650103 -0.22428 -0.000250816  -0.0569935 -0.224651 -0.000275373  -0.0649679 -0.224226 -0.000331879  -0.0749774 -0.248009 -0.000151396  -0.0743887 -0.239972 -0.000163794  -0.0669637 -0.248528 -8.53539e-05  -0.0589459 -0.248956 -9.89437e-05  -0.0583556 -0.240899 -0.000105143  -0.0743606 -0.239939 -0.000222683  -0.066931 -0.248491 -0.000125647  -0.0663402 -0.240444 -0.00013423  -0.0583198 -0.240861 -0.000150681  -0.0663056 -0.240408 -0.000186682  -0.0761275 -0.264114 -4.00543e-05  -0.0755901 -0.256087 -5.93662e-05  -0.068136 -0.26464 -5.72205e-06  -0.0601308 -0.265097 -1.21593e-05  -0.0595779 -0.257057 -2.59876e-05  -0.0755653 -0.256068 -9.29832e-05  -0.0681076 -0.264613 -2.67029e-05  -0.0675604 -0.256581 -4.26769e-05  -0.0595486 -0.257033 -5.22137e-05  -0.0675306 -0.256559 -7.29561e-05  -0.0771945 -0.280156 4.00543e-05  -0.0766907 -0.272154 1.71661e-05  -0.0692317 -0.280681 5.31673e-05  -0.0612442 -0.281157 5.00679e-05  -0.0607193 -0.27315 3.40939e-05  -0.0766697 -0.272145 2.14577e-06  -0.0692065 -0.280664 4.52995e-05  -0.0686905 -0.272661 2.6226e-05  -0.0606947 -0.273136 2.19345e-05  -0.0686648 -0.272648 1.21593e-05  -0.0782137 -0.296118 9.53674e-05  -0.0777311 -0.288152 7.20024e-05  -0.0702784 -0.29664 9.72748e-05  -0.0623045 -0.297123 0.000101089  -0.0618024 -0.289157 7.96318e-05  -0.0777082 -0.288147 6.81877e-05  -0.0702519 -0.296626 9.84669e-05  -0.0697587 -0.288661 7.62939e-05  -0.0617797 -0.28915 7.72476e-05  -0.0697339 -0.288654 7.34329e-05  -0.0792215 -0.312024 0.000145197  -0.0787425 -0.304081 0.000113964  -0.0713019 -0.312536 0.000138283  -0.0633388 -0.313006 0.000146866  -0.0628455 -0.305078 0.00011754  -0.078717 -0.304077 0.000118256  -0.0712767 -0.31252 0.00014782  -0.0707896 -0.304584 0.00011754  -0.0628216 -0.305071 0.000123978  -0.0707648 -0.304579 0.000122547  -0.00213423 -0.00342818 -0.00190401  0 0 0  -0.00160467 -0.00244012 -0.0020442  -0.00053433 -0.00100045 -0.000849485  0 0 0  -0.00221764 -0.00312185 -0.00252914  -0.000722017 -0.00143924 -0.00105286  0 0 0  -0.000549529 -0.000872493 -0.00114942  -0.000739001 -0.00128861 -0.00141907  -0.00605413 -0.0088024 -0.0030272  -0.00460704 -0.00736855 -0.00316596  -0.00289157 -0.00506815 -0.00207663  -0.0062087 -0.00826491 -0.00391936  -0.00397357 -0.00595208 -0.00257087  -0.00300454 -0.00469531 -0.00272131  -0.00410752 -0.00552844 -0.00336432  -0.0102952 -0.0153438 -0.00341964  -0.00792444 -0.0138904 -0.0034821  -0.00615352 -0.0109951 -0.00265551  -0.0103939 -0.0146921 -0.00432205  -0.00819066 -0.0119045 -0.00329232  -0.00627312 -0.0104489 -0.00338984  -0.00832883 -0.0113063 -0.00420141  -0.0143028 -0.0231541 -0.00338101  -0.0110889 -0.0218062 -0.00339293  -0.00948751 -0.0183017 -0.00276208  -0.0143136 -0.0224741 -0.00422549  -0.0123344 -0.0190731 -0.00343323  -0.00953194 -0.017675 -0.00346708  -0.0123885 -0.018409 -0.00431061  -0.0180274 -0.0322421 -0.00314498  -0.0140596 -0.0310362 -0.0031383  -0.0126246 -0.0269039 -0.00263047  -0.0179687 -0.0315825 -0.00391722  -0.0161988 -0.0275326 -0.0032773  -0.0125964 -0.0262626 -0.00327849  -0.016172 -0.0268685 -0.00408745  -0.0214931 -0.0425036 -0.00283456  -0.0168629 -0.0414529 -0.00282288  -0.0155593 -0.0367196 -0.00239754  -0.0213895 -0.0418883 -0.00352931  -0.0197899 -0.0372223 -0.00299454  -0.0154808 -0.0361027 -0.00298405  -0.0197067 -0.0365927 -0.00372839  -0.0247242 -0.0538154 -0.00250912  -0.0195181 -0.0529238 -0.00249696  -0.0183166 -0.0476353 -0.00213575  -0.0245966 -0.053256 -0.00312734  -0.023136 -0.0480246 -0.00267172  -0.0182081 -0.0470633 -0.00266004  -0.0230188 -0.0474466 -0.00332785  -0.0277396 -0.0660509 -0.00219297  -0.0220354 -0.0653166 -0.00218177  -0.0209161 -0.0595288 -0.00187373  -0.0276022 -0.0655502 -0.00273776  -0.0262568 -0.0598135 -0.00234938  -0.0207933 -0.0590109 -0.00233722  -0.0261236 -0.0592934 -0.0029304  -0.0305533 -0.0790945 -0.00189805  -0.0244215 -0.0785122 -0.00188851  -0.0233706 -0.0722805 -0.00162625  -0.030416 -0.0786532 -0.00237417  -0.02917 -0.072467 -0.00204301  -0.0232446 -0.0718195 -0.002033  -0.0290325 -0.0720064 -0.00255251  -0.0331775 -0.0928349 -0.00162649  -0.026679 -0.0923968 -0.00161958  -0.0256882 -0.0857776 -0.00139761  -0.0330454 -0.0924495 -0.00203872  -0.0318871 -0.0858722 -0.00175953  -0.0255656 -0.0853731 -0.00175118  -0.0317529 -0.0854694 -0.00220275  -0.0356218 -0.107172 -0.00137854  -0.0288119 -0.106868 -0.00137162  -0.0278766 -0.0999141 -0.00118852  -0.0354985 -0.106839 -0.0017314  -0.0344207 -0.0999232 -0.00149965  -0.0277606 -0.0995636 -0.00149298  -0.0342934 -0.0995749 -0.00188136  -0.0378951 -0.122008 -0.00115252  -0.0308237 -0.121828 -0.00114632  -0.0299389 -0.114591 -0.000997543  -0.0377824 -0.121724 -0.00145102  -0.0367777 -0.114521 -0.00126266  -0.0298327 -0.114291 -0.00125647  -0.0366608 -0.114224 -0.00158763  -0.0400066 -0.137257 -0.000947475  -0.0327183 -0.137189 -0.000941992  -0.0318815 -0.129716 -0.000824213  -0.0399052 -0.137018 -0.00119662  -0.0389694 -0.129574 -0.00104761  -0.0317852 -0.129462 -0.00104213  -0.0388633 -0.129323 -0.0013206  -0.041965 -0.152834 -0.000762463  -0.034499 -0.152868 -0.000757933  -0.0337076 -0.145204 -0.000668049  -0.0418749 -0.152635 -0.000966787  -0.0410028 -0.144997 -0.000852823  -0.033622 -0.144992 -0.000847816  -0.0409086 -0.144789 -0.00107884  -0.0437795 -0.168665 -0.000596523  -0.0361724 -0.16879 -0.000593662  -0.0354235 -0.160974 -0.000527143  -0.0437006 -0.168503 -0.000760794  -0.0428888 -0.160711 -0.000677109  -0.0353488 -0.160801 -0.000673294  -0.042805 -0.160541 -0.000860691  -0.0454594 -0.184681 -0.000449419  -0.0377425 -0.184884 -0.00044775  -0.0370343 -0.176956 -0.000402212  -0.0453913 -0.184551 -0.000577927  -0.0446342 -0.176643 -0.000520468  -0.0369698 -0.176818 -0.000518084  -0.044562 -0.176507 -0.00066638  -0.0470152 -0.200821 -0.000320435  -0.0392163 -0.201091 -0.000318766  -0.0385461 -0.193084 -0.000292063  -0.046957 -0.200718 -0.000418186  -0.0462511 -0.192727 -0.0003829  -0.038491 -0.192976 -0.00038147  -0.0461891 -0.192622 -0.000495434  -0.0484576 -0.217026 -0.000209093  -0.0406005 -0.217354 -0.000208855  -0.0399649 -0.209299 -0.000195742  -0.0484083 -0.216948 -0.000279903  -0.0477481 -0.208906 -0.000262737  -0.0399187 -0.209217 -0.00026226  -0.0476961 -0.208827 -0.000346184  -0.0497978 -0.233251 -0.00011611  -0.0419035 -0.233626 -0.000116587  -0.0412993 -0.225549 -0.000114202  -0.0497577 -0.233194 -0.000164747  -0.0491385 -0.225128 -0.000160456  -0.0412614 -0.22549 -0.000161171  -0.0490949 -0.22507 -0.000219584  -0.0510485 -0.249453 -4.07696e-05  -0.0431321 -0.249865 -4.24385e-05  -0.042557 -0.241791 -4.673e-05  -0.0510154 -0.249412 -7.10487e-05  -0.0504317 -0.241346 -7.65324e-05  -0.042526 -0.24175 -7.7486e-05  -0.0503967 -0.241307 -0.000115156  -0.052223 -0.265599 1.71661e-05  -0.044296 -0.26604 1.5974e-05  -0.0437455 -0.257987 6.67572e-06  -0.0521953 -0.265571 9.53674e-07  -0.0516434 -0.257523 -1.00136e-05  -0.0437214 -0.257961 -1.16825e-05  -0.0516143 -0.257499 -3.29018e-05  -0.0533342 -0.281662 6.19888e-05  -0.0454032 -0.282123 6.17504e-05  -0.0448751 -0.274107 4.86374e-05  -0.0533104 -0.281642 5.62668e-05  -0.0527842 -0.27363 4.12464e-05  -0.0448561 -0.274092 3.98159e-05  -0.0527596 -0.273616 3.02792e-05  -0.0543973 -0.297628 9.82285e-05  -0.0464649 -0.298098 9.94205e-05  -0.0459566 -0.290131 8.2016e-05  -0.0543745 -0.297612 0.000100613  -0.0538695 -0.289646 8.08239e-05  -0.0459387 -0.290123 8.10623e-05  -0.0538476 -0.289638 7.9155e-05  -0.0554359 -0.3135 0.000133038  -0.0475035 -0.313953 0.000137091  -0.0470009 -0.306046 0.000111341  -0.0554123 -0.313482 0.000144005  -0.0549152 -0.305563 0.000115395  -0.0469842 -0.306039 0.00011754  -0.0548937 -0.305558 0.000121832  -0.00105862 -0.00225347 -0.00115848  0 0 0  -0.000682928 -0.00176084 -0.00102878  -0.000225503 -0.000581324 -0.000427485  0 0 0  -0.0011112 -0.00201321 -0.0015409  -0.000361104 -0.000731558 -0.000640154  0 0 0  -0.000232533 -0.00048086 -0.000577688  -0.000372767 -0.000621736 -0.000865698  -0.00315222 -0.00718519 -0.00184536  -0.002022 -0.00635785 -0.00159931  -0.00124465 -0.00410381 -0.00104904  -0.00325075 -0.00674459 -0.00238967  -0.00201596 -0.00446942 -0.00156784  -0.00129712 -0.00379184 -0.00137234  -0.00209978 -0.00413364 -0.00205278  -0.00562516 -0.013869 -0.0020802  -0.00360206 -0.0129191 -0.00175667  -0.00274849 -0.00991309 -0.00134349  -0.00568593 -0.0132988 -0.00262618  -0.00437534 -0.0103339 -0.00200558  -0.00280157 -0.00943336 -0.00171256  -0.00446364 -0.00982735 -0.00255799  -0.00807187 -0.0219401 -0.00204659  -0.00520164 -0.0210029 -0.00170636  -0.00439447 -0.0173596 -0.00139451  -0.00806859 -0.021314 -0.00255394  -0.00686204 -0.0177286 -0.0020833  -0.00440466 -0.0167843 -0.00174713  -0.00689051 -0.0171322 -0.00261211  -0.0103968 -0.031272 -0.00189471  -0.00677037 -0.0304092 -0.00156927  -0.00602305 -0.0261571 -0.00132179  -0.0103421 -0.0306437 -0.00235581  -0.00924915 -0.0264434 -0.00197864  -0.00598961 -0.025548 -0.00164413  -0.00921839 -0.0258211 -0.00246406  -0.0126066 -0.0417502 -0.00169945  -0.00831336 -0.0409891 -0.00140071  -0.00760865 -0.0361577 -0.0011971  -0.0125189 -0.0411511 -0.00211358  -0.0115143 -0.0363629 -0.00179887  -0.00754434 -0.035558 -0.00148726  -0.0114413 -0.0357565 -0.00223732  -0.0147191 -0.0532617 -0.00149632  -0.00984073 -0.0526155 -0.00123  -0.00916106 -0.0472422 -0.00105739  -0.0146137 -0.0527085 -0.00186419  -0.0136732 -0.0473728 -0.0015974  -0.00907844 -0.0466774 -0.00131583  -0.0135758 -0.0468054 -0.00198865  -0.0167453 -0.0656821 -0.00130129  -0.0113556 -0.0651557 -0.00106668  -0.0106903 -0.059293 -0.000920057  -0.0166333 -0.0651827 -0.0016253  -0.0157417 -0.0593533 -0.00139785  -0.0105994 -0.0587761 -0.00114751  -0.0156324 -0.0588367 -0.00174356  -0.0186923 -0.0789014 -0.00112033  -0.0128576 -0.0784947 -0.000914574  -0.0122005 -0.0721942 -0.000789881  -0.0185809 -0.0784574 -0.00140262  -0.0177274 -0.0721874 -0.00120878  -0.0121083 -0.0717306 -0.00098896  -0.017616 -0.0717257 -0.00151181  -0.0205622 -0.0928052 -0.000953913  -0.0143418 -0.0925145 -0.00077486  -0.0136902 -0.0858331 -0.000671387  -0.020456 -0.0924159 -0.00119805  -0.0196356 -0.0857623 -0.00103545  -0.0136015 -0.0854235 -0.000843287  -0.0195273 -0.0853558 -0.00129843  -0.0223569 -0.107296 -0.000802279  -0.015805 -0.107114 -0.00064826  -0.0151589 -0.100103 -0.000562668  -0.0222584 -0.106958 -0.00101066  -0.0214678 -0.0999719 -0.000876427  -0.0150762 -0.0997458 -0.000710011  -0.021366 -0.0996185 -0.00110221  -0.0240763 -0.122271 -0.000664711  -0.017242 -0.122192 -0.000533104  -0.0166023 -0.114903 -0.000464916  -0.0239869 -0.121982 -0.000840902  -0.0232247 -0.114716 -0.000731945  -0.0165268 -0.114596 -0.000589371  -0.0231316 -0.114413 -0.000923872  -0.0257223 -0.137647 -0.000540257  -0.0186496 -0.137662 -0.000429392  -0.0180172 -0.130142 -0.000375986  -0.0256418 -0.137402 -0.000686646  -0.0249072 -0.129903 -0.000601053  -0.0179493 -0.129881 -0.000479937  -0.0248234 -0.129646 -0.000761747  -0.0272943 -0.153337 -0.0004282  -0.0200233 -0.153436 -0.000335932  -0.0194004 -0.145731 -0.000296354  -0.0272235 -0.153133 -0.000548124  -0.0265161 -0.145446 -0.000482798  -0.0193403 -0.145513 -0.00038147  -0.0264415 -0.145232 -0.000615597  -0.0287955 -0.16927 -0.000328779  -0.0213621 -0.169444 -0.000253916  -0.0207483 -0.161592 -0.000225306  -0.0287335 -0.169102 -0.000424623  -0.0280524 -0.161266 -0.00037694  -0.0206971 -0.161413 -0.00029397  -0.0279871 -0.16109 -0.000484705  -0.0302258 -0.185371 -0.000240326  -0.0226623 -0.185611 -0.000181437  -0.0220604 -0.177654 -0.00016284  -0.0301727 -0.185235 -0.000315428  -0.0295178 -0.177291 -0.000283241  -0.0220166 -0.177508 -0.000216722  -0.0294615 -0.17715 -0.000368595  -0.031589 -0.201584 -0.000163078  -0.0239241 -0.201881 -0.00011754  -0.0233347 -0.193849 -0.000107527  -0.0315442 -0.201477 -0.000219345  -0.0309143 -0.193456 -0.000200272  -0.0232978 -0.193734 -0.000148773  -0.0308666 -0.193345 -0.000265837  -0.0328887 -0.21785 -9.63211e-05  -0.0251458 -0.218194 -6.34193e-05  -0.0245693 -0.21012 -5.93662e-05  -0.0328507 -0.217767 -0.000137329  -0.0322452 -0.209702 -0.000128269  -0.0245395 -0.210032 -8.96454e-05  -0.0322053 -0.209617 -0.000176668  -0.0341284 -0.234125 -4.02927e-05  -0.0263293 -0.23451 -1.7643e-05  -0.0257664 -0.226417 -1.88351e-05  -0.0340977 -0.234063 -6.81877e-05  -0.033514 -0.225978 -6.69956e-05  -0.0257421 -0.226352 -3.98159e-05  -0.0334811 -0.225915 -0.000101089  -0.0353129 -0.250366 4.76837e-06  -0.0274749 -0.250782 1.95503e-05  -0.0269251 -0.242697 1.4782e-05  -0.0352881 -0.25032 -1.26362e-05  -0.0347257 -0.24224 -1.66893e-05  -0.0269063 -0.242651 1.43051e-06  -0.0346994 -0.242197 -3.88622e-05  -0.0364482 -0.266542 4.07696e-05  -0.028584 -0.266984 4.8399e-05  -0.0280485 -0.258922 4.17233e-05  -0.036428 -0.26651 3.17097e-05  -0.0358851 -0.258452 2.38419e-05  -0.0280337 -0.258891 3.40939e-05  -0.0358639 -0.258424 1.07288e-05  -0.0375378 -0.282625 6.91414e-05  -0.0296586 -0.283085 7.03335e-05  -0.0291367 -0.275065 6.34193e-05  -0.0375211 -0.282602 6.65188e-05  -0.0369973 -0.274584 5.55515e-05  -0.0291255 -0.275046 6.00815e-05  -0.0369797 -0.274568 4.98295e-05  -0.0385914 -0.2986 9.32217e-05  -0.0307033 -0.299067 9.15527e-05  -0.0301938 -0.291102 8.03471e-05  -0.0385756 -0.298582 9.65595e-05  -0.0380671 -0.290615 8.15392e-05  -0.0301838 -0.29109 8.15392e-05  -0.0380523 -0.290606 8.17776e-05  -0.0396233 -0.314443 0.000117064  -0.0317273 -0.314896 0.000112057  -0.0312247 -0.307011 9.67979e-05  -0.0396075 -0.314422 0.000126123  -0.0391068 -0.306527 0.000104904  -0.0312161 -0.307 0.000101566  -0.0390923 -0.306519 0.000110865  -0.000277452 -0.00185671 -0.000381708  0 0 0  8.45343e-05 -0.00164968 2.31266e-05  2.58163e-05 -0.000511885 1.00136e-05  0 0 0  -0.000289902 -0.00164673 -0.000504017  -9.51104e-05 -0.000511616 -0.000209808  0 0 0  2.83718e-05 -0.000422776 1.69277e-05  -9.73344e-05 -0.000419527 -0.000280857  -0.000864998 -0.00657272 -0.000615597  0.000213176 -0.00618535 1.66893e-05  0.000135958 -0.00392538 1.23978e-05  -0.000885203 -0.0061771 -0.000792503  -0.000539497 -0.00392881 -0.000519276  0.000150323 -0.00363749 2.14577e-05  -0.000558555 -0.00363368 -0.000676155  -0.00163063 -0.0132726 -0.000697374  0.000286639 -0.0127725 5.24521e-06  0.000235051 -0.00971889 3.8147e-06  -0.00163227 -0.0127447 -0.000876904  -0.00123388 -0.00971106 -0.000671625  0.000260442 -0.00926653 1.00136e-05  -0.0012475 -0.00925004 -0.000852585  -0.00246984 -0.0214708 -0.000685692  0.000259757 -0.0209336 3.8147e-06  0.000252485 -0.0172273 -2.14577e-06  -0.00244352 -0.0208752 -0.000852108  -0.00204396 -0.0171923 -0.000699043  0.000287175 -0.0166747 2.38419e-06  -0.00203195 -0.0166323 -0.000872612  -0.00334954 -0.0309464 -0.000628948  0.000115871 -0.0304277 1.14441e-05  0.000160098 -0.0261163 1.43051e-06  -0.00330001 -0.0303363 -0.00077939  -0.00290453 -0.0260467 -0.000660658  0.000203013 -0.025523 6.19888e-06  -0.00286603 -0.0254484 -0.000819206  -0.00426877 -0.0415593 -0.000554562  -0.000147879 -0.0410962 2.57492e-05  -4.99487e-05 -0.0362116 1.16825e-05  -0.00420415 -0.0409696 -0.000687599  -0.00380319 -0.0361059 -0.000592709  -8.34465e-07 -0.0356215 1.81198e-05  -0.00374568 -0.0355127 -0.000734568  -0.00523192 -0.0531973 -0.000478506  -0.000530243 -0.0528091 4.02927e-05  -0.000376523 -0.0473887 2.5034e-05  -0.00515997 -0.0526477 -0.00059557  -0.00474381 -0.0472459 -0.000516415  -0.000324547 -0.0468284 3.29018e-05  -0.00467539 -0.0466845 -0.000641584  -0.00623941 -0.0657392 -0.000405312  -0.0010246 -0.0654375 5.36442e-05  -0.000816286 -0.0595302 3.8147e-05  -0.00616562 -0.0652393 -0.000506878  -0.00572932 -0.0593503 -0.000441313  -0.000763714 -0.0590144 4.72069e-05  -0.0056566 -0.0588347 -0.00055027  -0.00728846 -0.0790751 -0.000337839  -0.00162208 -0.0788624 6.58035e-05  -0.00136161 -0.0725207 4.95911e-05  -0.00721645 -0.0786281 -0.0004251  -0.00675833 -0.0723033 -0.000370979  -0.00131106 -0.0720561 6.00815e-05  -0.00668561 -0.0718398 -0.000465155  -0.00837278 -0.0930902 -0.000276804  -0.00231159 -0.0929672 7.53403e-05  -0.00200319 -0.0862464 5.93662e-05  -0.00830495 -0.0926966 -0.000350714  -0.00782537 -0.0859923 -0.000306845  -0.00195575 -0.0858348 7.03335e-05  -0.00775623 -0.0855822 -0.000387192  -0.00948524 -0.107685 -0.000222206  -0.00308156 -0.107647 8.17776e-05  -0.00272942 -0.1006 6.65188e-05  -0.00942326 -0.107343 -0.000284195  -0.00892496 -0.10031 -0.000248671  -0.0026871 -0.10024 7.82013e-05  -0.00886071 -0.099952 -0.000316381  -0.0106186 -0.122758 -0.00017333  -0.00392067 -0.1228 8.51154e-05  -0.0035305 -0.115479 7.20024e-05  -0.0105628 -0.122463 -0.00022459  -0.0100484 -0.115156 -0.000197411  -0.00349295 -0.115168 8.36849e-05  -0.00999057 -0.114847 -0.000253439  -0.0117663 -0.138222 -0.0001297  -0.00481772 -0.138338 8.91685e-05  -0.00439501 -0.130789 7.58171e-05  -0.0117168 -0.137972 -0.000171185  -0.0111898 -0.130435 -0.000150681  -0.00436223 -0.130525 8.70228e-05  -0.0111383 -0.130173 -0.000196934  -0.0129199 -0.153991 -9.08375e-05  -0.00576127 -0.154175 9.01222e-05  -0.00531125 -0.146444 7.79629e-05  -0.0128775 -0.153781 -0.000123978  -0.012341 -0.146062 -0.000109911  -0.00528395 -0.146222 8.91685e-05  -0.0122966 -0.145842 -0.000146866  -0.0140753 -0.169993 -5.6982e-05  -0.00674272 -0.170236 9.05991e-05  -0.00627017 -0.162363 8.01086e-05  -0.0140392 -0.16982 -8.27312e-05  -0.0134969 -0.161956 -7.31945e-05  -0.00624788 -0.16218 9.01222e-05  -0.0134583 -0.161775 -0.00010252  -0.0152251 -0.186154 -2.71797e-05  -0.00775075 -0.18645 9.03606e-05  -0.00726128 -0.178474 8.08239e-05  -0.015195 -0.186014 -4.64916e-05  -0.0146496 -0.178046 -4.17233e-05  -0.00724351 -0.178326 9.01222e-05  -0.0146178 -0.177899 -6.38962e-05  -0.016366 -0.202418 -1.43051e-06  -0.00877786 -0.202758 8.82149e-05  -0.00827575 -0.194711 8.05855e-05  -0.0163412 -0.202307 -1.52588e-05  -0.0157959 -0.194266 -1.38283e-05  -0.0082624 -0.194594 8.91685e-05  -0.0157695 -0.19415 -3.02792e-05  -0.0174928 -0.218725 2.00272e-05  -0.00981641 -0.219104 8.72612e-05  -0.00930572 -0.211018 8.03471e-05  -0.017473 -0.218639 1.12057e-05  -0.0169299 -0.210557 1.00136e-05  -0.0092957 -0.210928 8.7738e-05  -0.0169089 -0.210469 -1.43051e-06  -0.0186038 -0.235035 3.91006e-05  -0.0108604 -0.235444 8.60691e-05  -0.0103447 -0.227343 7.96318e-05  -0.0185876 -0.234969 3.31402e-05  -0.018049 -0.226871 3.00407e-05  -0.0103381 -0.227276 8.60691e-05  -0.0180323 -0.226805 2.26498e-05  -0.0196953 -0.251301 5.36442e-05  -0.0119033 -0.251736 8.34465e-05  -0.0113862 -0.243644 7.96318e-05  -0.0196831 -0.251253 5.10216e-05  -0.0191505 -0.243164 4.673e-05  -0.0113816 -0.243596 8.4877e-05  -0.0191376 -0.243117 4.24385e-05  -0.0207679 -0.267499 6.58035e-05  -0.0129418 -0.267953 8.17776e-05  -0.0124249 -0.259886 7.86781e-05  -0.0207582 -0.267464 6.46114e-05  -0.0202329 -0.259399 5.98431e-05  -0.0124233 -0.259854 8.24928e-05  -0.0202231 -0.259368 5.79357e-05  -0.0218186 -0.283596 7.48634e-05  -0.0139718 -0.284064 7.98702e-05  -0.0134585 -0.27604 7.84397e-05  -0.0218115 -0.283571 7.55787e-05  -0.0212948 -0.275549 7.00951e-05  -0.013458 -0.27602 8.10623e-05  -0.0212872 -0.27553 7.03335e-05  -0.0228503 -0.299575 8.34465e-05  -0.0149906 -0.300048 7.84397e-05  -0.0144825 -0.292084 7.7486e-05  -0.0228434 -0.299555 8.51154e-05  -0.0223355 -0.29159 7.89165e-05  -0.0144825 -0.292071 7.93934e-05  -0.0223296 -0.291578 8.03471e-05  -0.0238647 -0.315401 9.15527e-05  -0.0159941 -0.315868 7.72476e-05  -0.0154934 -0.30799 7.7486e-05  -0.0238566 -0.315377 9.5129e-05  -0.0233572 -0.307497 8.74996e-05  -0.0154941 -0.307979 7.77245e-05  -0.0233517 -0.307486 9.01222e-05  0.000431016 -0.00196832 0.000405073  0 0 0  0.000854179 -0.0019961 0.00106311  0.000277773 -0.000705898 0.000443697  0 0 0  0.00046058 -0.0017646 0.000546932  0.00014732 -0.000573277 0.000227928  0 0 0  0.000289448 -0.000612617 0.000607014  0.000154287 -0.000485063 0.00031352  0.00125039 -0.00676304 0.000628471  0.0024457 -0.00675285 0.00161123  0.00151759 -0.00441349 0.00106049  0.00131208 -0.00637573 0.000820637  0.000812337 -0.00408447 0.000540972  0.00159894 -0.00411588 0.00139856  0.000861093 -0.0037964 0.000715733  0.00213885 -0.0135188 0.00069356  0.00415897 -0.0134246 0.00174594  0.00321057 -0.0103496 0.00133395  0.00220183 -0.0129991 0.000882149  0.00170198 -0.00993067 0.000674009  0.00331363 -0.00988668 0.00170922  0.00176707 -0.00947803 0.000866175  0.00290161 -0.0217653 0.000679493  0.00569052 -0.021603 0.0016973  0.0048759 -0.0178974 0.00137591  0.00295526 -0.0211763 0.000854492  0.00254214 -0.0174624 0.000691652  0.00495541 -0.0173373 0.00173306  0.00260043 -0.0169101 0.000873566  0.00347561 -0.0312904 0.000638247  0.00696176 -0.0311057 0.00158119  0.00630647 -0.0267935 0.00131345  0.00352156 -0.0306845 0.000799656  0.00321388 -0.0263656 0.000661373  0.00635988 -0.0261957 0.00164318  0.00326264 -0.0257726 0.00082922  0.00385541 -0.0419564 0.000589848  0.00797009 -0.0417892 0.00144553  0.00746346 -0.0368987 0.00121331  0.00389582 -0.0413691 0.000737429  0.00369006 -0.036476 0.000614882  0.0074982 -0.0363054 0.00151491  0.0037325 -0.035886 0.0007689  0.00404924 -0.0536519 0.000540733  0.00872892 -0.0535271 0.00130773  0.00835699 -0.0480949 0.00110316  0.00408608 -0.053102 0.00067544  0.00397563 -0.0476714 0.000565052  0.00837982 -0.0475323 0.00137687  0.00401348 -0.047111 0.000706434  0.00406945 -0.0662535 0.000492811  0.00925469 -0.0661852 0.0011735  0.00900513 -0.0602645 0.000993729  0.00410283 -0.0657519 0.000614405  0.00408107 -0.0598344 0.000516653  0.00902039 -0.0597462 0.00124025  0.00411552 -0.0593181 0.000644684  0.00392926 -0.0796504 0.000447035  0.00956237 -0.0796452 0.00104594  0.00942457 -0.073288 0.00088954  0.00395906 -0.0792009 0.000556231  0.00401962 -0.0728481 0.000469685  0.00943494 -0.0728203 0.00110912  0.00405025 -0.0723825 0.000585079  0.00364339 -0.0937259 0.000402927  0.00967133 -0.0937843 0.000925303  0.00963449 -0.0870492 0.000789881  0.00366938 -0.0933288 0.000499964  0.00380468 -0.086598 0.000424623  0.00964093 -0.086634 0.000984669  0.00383174 -0.0861849 0.000527859  0.00322568 -0.108379 0.000361204  0.00959778 -0.1085 0.000812769  0.00965357 -0.101438 0.000697136  0.00324821 -0.108032 0.000447273  0.00345111 -0.100975 0.000381947  0.00965643 -0.101075 0.000867605  0.00347447 -0.100614 0.000473261  0.00269234 -0.123505 0.000321388  0.00936115 -0.123685 0.000706196  0.0094986 -0.116351 0.000610113  0.00271106 -0.123207 0.000396013  0.00297379 -0.115877 0.000341177  0.00949895 -0.116037 0.000758171  0.00299346 -0.115564 0.000421286  0.00205684 -0.139019 0.000284195  0.00897908 -0.139253 0.000608206  0.00918925 -0.131693 0.000529289  0.00207222 -0.138765 0.000348806  0.00238764 -0.131208 0.000302315  0.0091877 -0.131424 0.000656366  0.00240362 -0.130942 0.000371933  0.00133479 -0.154831 0.000249624  0.00847018 -0.155114 0.000518322  0.00874388 -0.147375 0.000454664  0.00134623 -0.154618 0.000304222  0.0017072 -0.146881 0.000266552  0.00873971 -0.147149 0.000562429  0.00171947 -0.146657 0.000326157  0.00053823 -0.170871 0.000217438  0.00785077 -0.171197 0.000435591  0.00817955 -0.163317 0.000386477  0.000546694 -0.170694 0.000263453  0.000946045 -0.162816 0.000233412  0.00817347 -0.16313 0.000476122  0.000955105 -0.162631 0.00028348  -0.00031805 -0.187063 0.000188351  0.00713873 -0.187427 0.000361204  0.00751388 -0.179447 0.000324249  -0.000312686 -0.18692 0.000225782  0.000118017 -0.17894 0.000202417  0.00750566 -0.179295 0.000397682  0.000123978 -0.17879 0.000244141  -0.00122333 -0.203353 0.000162125  0.0063498 -0.203749 0.000295639  0.0067625 -0.195699 0.000268936  -0.00122023 -0.203238 0.000192404  -0.000763893 -0.195188 0.000174999  0.00675321 -0.195578 0.000327349  -0.000761032 -0.19507 0.000208855  -0.00216603 -0.219681 0.000139475  0.00549722 -0.220104 0.00023818  0.00594115 -0.212016 0.000220537  -0.0021646 -0.219592 0.00016284  -0.00168943 -0.211503 0.000150204  0.0059309 -0.211923 0.000265837  -0.00168848 -0.211412 0.000176907  -0.00313663 -0.236005 0.000120401  0.00459599 -0.23645 0.000189781  0.00506234 -0.228348 0.000178814  -0.00313663 -0.235937 0.000138283  -0.00264668 -0.227834 0.0001297  0.00505209 -0.228278 0.000212908  -0.0026474 -0.227766 0.000149965  -0.00412512 -0.252283 0.000103951  0.00365758 -0.252744 0.000148296  0.00414109 -0.244653 0.000144482  -0.00412655 -0.252233 0.000115871  -0.0036273 -0.24414 0.000111818  0.00413156 -0.244603 0.000168562  -0.00362968 -0.244092 0.000126839  -0.005126 -0.268487 9.10759e-05  0.00269246 -0.26896 0.000115871  0.00318766 -0.260896 0.000115871  -0.00512815 -0.268451 9.91821e-05  -0.00462317 -0.260385 9.72748e-05  0.00317788 -0.260862 0.000131607  -0.00462604 -0.260352 0.000107288  -0.00613165 -0.284588 8.03471e-05  0.00170851 -0.285069 8.96454e-05  0.00221276 -0.277048 9.32217e-05  -0.00613475 -0.284562 8.44002e-05  -0.00562739 -0.27654 8.58307e-05  0.00220251 -0.277026 0.000102282  -0.00563097 -0.276519 9.17912e-05  -0.00713706 -0.300568 7.15256e-05  0.000715017 -0.301053 6.65188e-05  0.00122261 -0.29309 7.51019e-05  -0.00714016 -0.300547 7.20024e-05  -0.00663328 -0.292583 7.58171e-05  0.0012126 -0.293075 7.77245e-05  -0.00663781 -0.29257 7.82013e-05  -0.0081296 -0.316395 6.27041e-05  -0.000269175 -0.316882 4.31538e-05  0.000231028 -0.308999 5.76973e-05  -0.00813317 -0.316369 5.96046e-05  -0.00763464 -0.30849 6.7234e-05  0.000220299 -0.308985 5.45979e-05  -0.00763893 -0.308478 6.60419e-05  0.00121713 -0.00258899 0.00116372  0 0 0  0.00178136 -0.00290716 0.00204229  0.000587203 -0.00125825 0.000849724  0 0 0  0.00128677 -0.00236529 0.00156116  0.000414878 -0.000921428 0.000649929  0 0 0  0.000607036 -0.00114208 0.00116062  0.000431359 -0.000821412 0.000888109  0.00353059 -0.00774759 0.00182891  0.00501111 -0.008138 0.00311828  0.00316159 -0.00567305 0.00204873  0.00366914 -0.00733203 0.00237799  0.00229013 -0.00493044 0.00156307  0.00330326 -0.00532794 0.00269556  0.0024033 -0.00461566 0.00205803  0.00609642 -0.0145952 0.00204372  0.00841442 -0.0148776 0.00340891  0.00657573 -0.0118411 0.00259805  0.00621772 -0.0140504 0.00258923  0.0048233 -0.0109816 0.00197577  0.00674346 -0.011331 0.00332379  0.00496125 -0.010501 0.00252938  0.0084368 -0.0228151 0.00201464  0.011469 -0.0229936 0.00333571  0.0098787 -0.0193561 0.00270128  0.00851458 -0.0222102 0.00252438  0.00730756 -0.0185292 0.00204659  0.00999314 -0.0187626 0.00339866  0.0074065 -0.0179563 0.00257564  0.0104359 -0.0323027 0.00188589  0.0141141 -0.0324293 0.00311804  0.0127809 -0.028168 0.00258994  0.0104784 -0.0316884 0.00235462  0.00948042 -0.0273952 0.00195718  0.012842 -0.0275515 0.00323796  0.00953859 -0.0267905 0.00244713  0.0120937 -0.0429468 0.00172281  0.0163658 -0.0430653 0.00284624  0.0152651 -0.0382057 0.00239325  0.012113 -0.042355 0.00214958  0.011307 -0.0374754 0.00180626  0.0152881 -0.0376037 0.00298619  0.0113361 -0.0368791 0.00225449  0.0134304 -0.054635 0.00155258  0.018245 -0.0547706 0.00256276  0.0173516 -0.0493575 0.00216794  0.0134355 -0.0540831 0.00193739  0.0128016 -0.0486568 0.0016377  0.0173506 -0.0487913 0.00270486  0.0128123 -0.0480931 0.00204372  0.0144688 -0.0672404 0.00138688  0.019773 -0.0674083 0.00228524  0.0190665 -0.0614985 0.00194144  0.0144657 -0.0667372 0.00173116  0.0139866 -0.0608187 0.0014689  0.0190518 -0.0609793 0.00242281  0.0139862 -0.0603005 0.00183344  0.0152299 -0.080646 0.00122929  0.0209713 -0.0808522 0.0020206  0.0204347 -0.0745031 0.00172305  0.0152216 -0.0801953 0.00153422  0.0148835 -0.0738389 0.00130725  0.0204121 -0.0740356 0.00215101  0.0148768 -0.0733718 0.0016315  0.0157365 -0.0947331 0.00108099  0.0218635 -0.0949805 0.00177097  0.0214812 -0.0882508 0.00151634  0.0157247 -0.0943346 0.00134897  0.015515 -0.0875995 0.00115395  0.0214543 -0.0878361 0.00189352  0.0155036 -0.0871847 0.00144029  0.0160092 -0.109398 0.000943184  0.0224727 -0.109685 0.00153875  0.0222311 -0.102629 0.00132394  0.0159955 -0.10905 0.00117588  0.0159014 -0.101989 0.00101066  0.0222021 -0.102266 0.00165272  0.015888 -0.101626 0.00126123  0.0160711 -0.124536 0.000815153  0.0228249 -0.124861 0.00132275  0.02271 -0.117532 0.00114512  0.0160562 -0.124236 0.00101542  0.0160666 -0.116902 0.000877857  0.0226797 -0.117218 0.00142884  0.0160511 -0.116588 0.00109434  0.0159435 -0.140059 0.000697136  0.0229441 -0.140418 0.00112414  0.022943 -0.132864 0.000980139  0.0159277 -0.139804 0.00086689  0.0160309 -0.132244 0.000754833  0.0229123 -0.132596 0.0012219  0.0160145 -0.131976 0.000939846  0.0156487 -0.155879 0.000589132  0.0228564 -0.156268 0.000942945  0.0229553 -0.148534 0.000828505  0.0156318 -0.155664 0.00073123  0.0158172 -0.147925 0.000641584  0.0229248 -0.148309 0.00103188  0.0157995 -0.1477 0.00079751  0.0152067 -0.171922 0.000490665  0.0225847 -0.172337 0.000778198  0.0227724 -0.164464 0.000690699  0.0151895 -0.171744 0.000607252  0.0154459 -0.163865 0.000538588  0.022742 -0.164278 0.000858307  0.0154281 -0.163679 0.00066781  0.0146387 -0.188117 0.000402689  0.0221548 -0.188555 0.000630379  0.0224177 -0.18058 0.000566006  0.0146213 -0.187972 0.000496626  0.0149386 -0.179993 0.000445366  0.0223885 -0.180429 0.000702143  0.0149201 -0.179841 0.000550508  0.0139632 -0.204405 0.000324488  0.0215881 -0.204861 0.000499249  0.0219147 -0.196818 0.000454903  0.0139463 -0.20429 0.000397682  0.0143144 -0.196241 0.000362158  0.0218871 -0.196698 0.000562429  0.0142961 -0.196122 0.000445604  0.0131991 -0.22073 0.000257492  0.0209079 -0.221201 0.000386238  0.021287 -0.213119 0.000357866  0.0131834 -0.22064 0.000313044  0.0135927 -0.212554 0.000289679  0.0212612 -0.213028 0.000440121  0.0135748 -0.212462 0.000353813  0.0123637 -0.237049 0.000200748  0.0201344 -0.23753 0.000290871  0.020556 -0.229435 0.00027585  0.0123489 -0.23698 0.000240564  0.0127909 -0.228881 0.00022769  0.0205319 -0.229367 0.000336409  0.0127742 -0.228812 0.000275373  0.0114727 -0.25332 0.000153542  0.0192869 -0.253809 0.000211477  0.0197413 -0.245724 0.000206947  0.0114584 -0.25327 0.000180721  0.0119259 -0.24518 0.000175714  0.0197191 -0.245676 0.000249147  0.01191 -0.245132 0.000209093  0.0105391 -0.269516 0.00011611  0.0183814 -0.270009 0.000148773  0.0188618 -0.261951 0.000151873  0.0105257 -0.26948 0.000132322  0.0110116 -0.261418 0.000133753  0.0188403 -0.261919 0.000178576  0.0109968 -0.261385 0.000155449  0.00957513 -0.285608 8.65459e-05  0.0174351 -0.286103 9.94205e-05  0.0179331 -0.278088 0.000108242  0.00956249 -0.285582 9.41753e-05  0.0100615 -0.277564 0.000100851  0.0179126 -0.278068 0.000122786  0.0100477 -0.277543 0.000112772  0.00859284 -0.301586 6.17504e-05  0.0164604 -0.30208 5.81741e-05  0.0169694 -0.294118 7.41482e-05  0.00858021 -0.301564 6.10352e-05  0.00908661 -0.293601 7.39098e-05  0.0169504 -0.294105 7.82013e-05  0.00907302 -0.293587 7.7486e-05  0.00761271 -0.317428 3.69549e-05  0.0154855 -0.317933 1.78814e-05  0.0159895 -0.310032 4.36306e-05  0.0076015 -0.317404 2.83718e-05  0.00810218 -0.309513 4.95911e-05  0.0159705 -0.31002 3.83854e-05  0.00808859 -0.3095 4.50611e-05  0.00229794 -0.00398082 0.00186706  0 0 0  0.00314501 -0.00484169 0.00293303  0.00105292 -0.00253844 0.00122881  0 0 0  0.00239888 -0.00369781 0.002496  0.000776589 -0.00176781 0.0010376  0 0 0  0.00107548 -0.00236404 0.00166392  0.00079865 -0.00162888 0.00141168  0.00638673 -0.00969434 0.00294805  0.00840461 -0.0105234 0.00450563  0.00555426 -0.00805026 0.00296402  0.00658131 -0.00920075 0.00382447  0.00423543 -0.00668871 0.00251198  0.00572632 -0.00760007 0.00388455  0.004399 -0.00629956 0.00329828  0.0106509 -0.0165082 0.00332212  0.0134406 -0.0171106 0.00498247  0.0107965 -0.0142499 0.0037837  0.0108118 -0.0159032 0.0042057  0.00855786 -0.0129343 0.00319886  0.0109931 -0.0136484 0.00483322  0.00874588 -0.0123834 0.00408912  0.0144995 -0.0245878 0.003299  0.0179285 -0.0250629 0.00491786  0.0156174 -0.0215613 0.00396705  0.0145943 -0.0239469 0.00413346  0.0126358 -0.020371 0.0033412  0.0157507 -0.0209096 0.00499177  0.0127625 -0.019751 0.00420332  0.0178639 -0.0339586 0.00310063  0.0218926 -0.0343716 0.00461626  0.0199053 -0.0302017 0.00382566  0.0179057 -0.0333253 0.00387216  0.0162425 -0.0291057 0.00321293  0.019975 -0.0295527 0.0047853  0.0163079 -0.0284744 0.00401735  0.0207585 -0.0445178 0.00283432  0.0253493 -0.0449087 0.00422025  0.0236601 -0.0401116 0.00354409  0.0207648 -0.0439172 0.0035367  0.0193691 -0.0390857 0.00297213  0.0236835 -0.0394931 0.00442457  0.0193906 -0.0384763 0.00370955  0.0232075 -0.0561439 0.00255084  0.0283172 -0.0565352 0.00379848  0.0269004 -0.0511663 0.00321341  0.0231926 -0.0555888 0.00318384  0.0220378 -0.0501947 0.00269318  0.0268933 -0.050593 0.00401044  0.0220314 -0.0496255 0.00336075  0.0252385 -0.0687006 0.00227118  0.0308179 -0.0691031 0.00338101  0.0296499 -0.063229 0.00287485  0.0252116 -0.0681971 0.00283551  0.0242745 -0.0623025 0.0024097  0.0296248 -0.0627073 0.00358868  0.024252 -0.0617822 0.00300813  0.0268779 -0.0820667 0.00200438  0.0328761 -0.082486 0.00298309  0.0319359 -0.076166 0.00254631  0.0268445 -0.0816163 0.00250363  0.0261066 -0.0752789 0.00213623  0.0319009 -0.0756989 0.00317931  0.0260748 -0.0748118 0.00266743  0.0281543 -0.0961186 0.00175381  0.0345213 -0.0965561 0.00260806  0.0337894 -0.0898531 0.00223541  0.0281179 -0.0957211 0.00219059  0.0275608 -0.0890023 0.00187707  0.0337491 -0.0894399 0.00279188  0.0275247 -0.0885883 0.00234461  0.0290956 -0.110752 0.00152087  0.0357825 -0.111207 0.00225735  0.0352409 -0.104175 0.00194502  0.0290581 -0.110404 0.00189948  0.0286663 -0.103358 0.00163531  0.0351979 -0.103814 0.00242925  0.028628 -0.102996 0.00204253  0.0297318 -0.125858 0.0013051  0.0366926 -0.12633 0.00193262  0.0363232 -0.119025 0.00167537  0.0296941 -0.125559 0.00162911  0.0294514 -0.11824 0.00141048  0.03628 -0.118713 0.00209188  0.0294126 -0.117927 0.00176144  0.0300903 -0.141351 0.00110674  0.0372818 -0.141836 0.0016346  0.0370684 -0.134304 0.0014267  0.0300533 -0.141096 0.00138092  0.0299454 -0.133551 0.00120378  0.0370257 -0.134039 0.00178051  0.0299066 -0.133284 0.00150251  0.0302017 -0.157139 0.000925541  0.0375834 -0.157636 0.00136161  0.0375088 -0.149925 0.00119829  0.0301651 -0.156925 0.00115299  0.0301766 -0.149201 0.00101376  0.0374669 -0.149702 0.00149488  0.0301386 -0.148977 0.00126433  0.0300919 -0.173153 0.000761032  0.0376278 -0.173658 0.00111413  0.0376763 -0.165806 0.000991106  0.030057 -0.172976 0.000947237  0.0301738 -0.165111 0.000840902  0.0376358 -0.165622 0.00123453  0.0301369 -0.164926 0.00104737  0.0297897 -0.189316 0.000613928  0.037447 -0.189827 0.000892401  0.0376029 -0.181875 0.000803709  0.0297568 -0.189173 0.000762224  0.0299646 -0.181208 0.000685215  0.0375644 -0.181726 0.000999928  0.0299295 -0.181058 0.00085187  0.0293212 -0.205575 0.000483751  0.0370708 -0.20609 0.000696659  0.0373182 -0.198066 0.000637531  0.0292904 -0.205461 0.000598669  0.0295758 -0.197426 0.000546694  0.0372815 -0.197949 0.000790834  0.0295429 -0.197308 0.000677824  0.028713 -0.221871 0.000371933  0.0365291 -0.222387 0.000527382  0.0368536 -0.214324 0.000492334  0.0286849 -0.221783 0.000457525  0.0290346 -0.21371 0.000425577  0.0368192 -0.214235 0.000608921  0.0290036 -0.213619 0.000525475  0.0279891 -0.238163 0.000277758  0.0358493 -0.238678 0.000385761  0.0362363 -0.2306 0.000368834  0.0279636 -0.238097 0.000339031  0.0283656 -0.230009 0.00032258  0.0362051 -0.230534 0.000452757  0.0283375 -0.229942 0.000395536  0.0271735 -0.254408 0.000200987  0.0350597 -0.254921 0.000268698  0.0354955 -0.246852 0.000267029  0.0271504 -0.25436 0.000241518  0.0275929 -0.246282 0.000236988  0.0354671 -0.246805 0.000324249  0.0275674 -0.246235 0.000287294  0.0262868 -0.270582 0.00014019  0.0341852 -0.271089 0.000178814  0.034658 -0.263045 0.000185728  0.0262654 -0.270546 0.000164509  0.0267394 -0.262494 0.0001688  0.0346317 -0.263014 0.000221014  0.0267158 -0.262463 0.00020051  0.0253499 -0.286654 9.41753e-05  0.0332513 -0.287157 0.000110865  0.0337498 -0.279154 0.000123501  0.0253294 -0.286628 0.000105143  0.0258245 -0.278619 0.000115871  0.0337245 -0.279134 0.000142574  0.0258031 -0.278599 0.000133038  0.0243788 -0.302622 5.72205e-05  0.0322785 -0.303122 5.79357e-05  0.0327928 -0.295164 7.67708e-05  0.0243592 -0.3026 5.74589e-05  0.0248687 -0.29464 7.4625e-05  0.0327687 -0.29515 8.27312e-05  0.0248475 -0.294627 8.03471e-05  0.0233998 -0.318488 2.07424e-05  0.0312929 -0.318996 6.91414e-06  0.0318103 -0.311078 3.74317e-05  0.0233798 -0.318465 1.04904e-05  0.0238895 -0.310555 3.91006e-05  0.0317857 -0.311066 3.33786e-05  0.0238686 -0.310543 3.43323e-05  0.00431168 -0.00696981 0.00255132  0 0 0  0.00629978 -0.00872368 0.00386643  0.00263783 -0.00579375 0.00164223  0 0 0  0.00438811 -0.00656873 0.00338864  0.00146159 -0.00372374 0.00140452  0 0 0  0.00259195 -0.00547439 0.00221705  0.00147073 -0.0035041 0.00189424  0.0103775 -0.0126872 0.00401402  0.0130807 -0.0137322 0.00591016  0.00968766 -0.0116658 0.00389647  0.0105646 -0.0120667 0.00519466  0.00737377 -0.00975895 0.00342011  0.00976633 -0.0110476 0.00510621  0.00751907 -0.00923008 0.00447798  0.01614 -0.0191734 0.00454998  0.0194548 -0.0200161 0.00655556  0.0161439 -0.0173928 0.0049684  0.0163117 -0.0184867 0.00576138  0.0133138 -0.0157558 0.00437093  0.016317 -0.0166912 0.00635672  0.0135061 -0.0151015 0.00558424  0.0213835 -0.0270198 0.00454354  0.0253204 -0.0277542 0.00648403  0.0223133 -0.0244074 0.00521708  0.0214943 -0.0263334 0.00569963  0.0188339 -0.0229115 0.00459099  0.0224611 -0.0236982 0.00657797  0.0189746 -0.0222293 0.00578094  0.0260493 -0.0362192 0.0042851  0.0305783 -0.0368982 0.00609303  0.0279272 -0.0328356 0.00503945  0.0261061 -0.0355632 0.00535607  0.0237898 -0.0314464 0.00443387  0.0280275 -0.0321574 0.00631452  0.0238714 -0.0307819 0.00554991  0.0301362 -0.0466458 0.00392342  0.0352129 -0.0472984 0.00557256  0.0329169 -0.0425789 0.0046742  0.0301542 -0.0460362 0.00489902  0.0281654 -0.0412768 0.00411129  0.0329731 -0.0419492 0.00584269  0.0282 -0.0406519 0.00513577  0.0336603 -0.0581635 0.00353169  0.0392349 -0.0588005 0.00501513  0.0372744 -0.0534946 0.00424027  0.0336534 -0.0576066 0.00440955  0.031968 -0.052267 0.00372887  0.0372994 -0.0529204 0.00529647  0.0319715 -0.0516927 0.00465584  0.0366472 -0.0706248 0.0031426  0.0426681 -0.0712563 0.00446296  0.0410182 -0.0654333 0.00379419  0.0366259 -0.0701236 0.00392437  0.03522 -0.0642734 0.00333595  0.0410228 -0.0649171 0.00473833  0.0352041 -0.0637537 0.00416541  0.0391282 -0.0839043 0.00277019  0.0455431 -0.0845307 0.00393343  0.0441799 -0.0782575 0.00335956  0.039099 -0.0834585 0.00345945  0.0379498 -0.0771597 0.00295401  0.0441734 -0.0777988 0.00419545  0.0379231 -0.0766958 0.00368905  0.0411382 -0.0978748 0.00241947  0.0478956 -0.0984989 0.00343394  0.0467966 -0.0918389 0.00294733  0.0411042 -0.0974827 0.00302267  0.0401912 -0.0907995 0.00259209  0.0467821 -0.0914351 0.00368094  0.040158 -0.0903903 0.00323749  0.0427105 -0.112431 0.00209308  0.0497619 -0.11305 0.00296855  0.0489063 -0.106059 0.00256085  0.0426749 -0.11209 0.00261378  0.0419778 -0.105076 0.00225329  0.0488874 -0.105708 0.00319791  0.041942 -0.104719 0.00281453  0.0438827 -0.127464 0.00179052  0.0511819 -0.128079 0.00253677  0.0505468 -0.120812 0.00220251  0.0438466 -0.12717 0.00223589  0.0433456 -0.119883 0.00193882  0.0505252 -0.120511 0.00274944  0.0433086 -0.119576 0.00242114  0.0446895 -0.142885 0.00151277  0.0521929 -0.143492 0.00213838  0.0517583 -0.135998 0.00187111  0.044654 -0.142636 0.00188732  0.0443308 -0.135121 0.00164843  0.0517364 -0.135742 0.00233459  0.0442939 -0.13486 0.00205779  0.0451674 -0.158604 0.00125837  0.0528349 -0.159203 0.00177526  0.052581 -0.151528 0.00156689  0.0451323 -0.158396 0.00156927  0.0449687 -0.150701 0.00138259  0.0525575 -0.151315 0.0019536  0.0449321 -0.150483 0.00172448  0.045351 -0.174551 0.00102782  0.0531454 -0.175138 0.00144577  0.0530527 -0.167321 0.00129032  0.0453173 -0.17438 0.00128007  0.0452948 -0.166544 0.00114036  0.0530292 -0.167147 0.00160694  0.0452596 -0.166364 0.00142121  0.0452757 -0.190651 0.000822067  0.0531642 -0.191228 0.00115013  0.0532125 -0.183306 0.00104094  0.0452437 -0.190513 0.00102186  0.0453449 -0.182575 0.000921726  0.0531889 -0.183168 0.00129461  0.045311 -0.18243 0.00114727  0.0449746 -0.20685 0.000640154  0.0529275 -0.207413 0.000890017  0.0530982 -0.199419 0.000819445  0.0449445 -0.206742 0.000793457  0.0451522 -0.198732 0.000727892  0.0530756 -0.199312 0.00101686  0.0451202 -0.198618 0.000903845  0.0444815 -0.22309 0.000483513  0.0524731 -0.22364 0.000665188  0.0527475 -0.215604 0.000626326  0.0444539 -0.223007 0.000597  0.0447514 -0.214957 0.000558615  0.0527246 -0.215524 0.000774384  0.0447211 -0.214871 0.000691175  0.0438287 -0.239331 0.000352383  0.0518353 -0.239865 0.000476599  0.0521965 -0.231812 0.000461817  0.043803 -0.239269 0.000431299  0.0441744 -0.231202 0.000414848  0.052175 -0.231755 0.000567675  0.0441468 -0.23114 0.000510454  0.0430472 -0.25553 0.000246048  0.0510502 -0.256051 0.000324249  0.0514805 -0.248003 0.000326157  0.0430236 -0.255486 0.00029707  0.0434535 -0.247427 0.000296116  0.0514588 -0.247965 0.000396729  0.0434277 -0.247384 0.000360489  0.0421686 -0.271665 0.000163794  0.0501523 -0.272172 0.000207186  0.0506346 -0.264145 0.000219822  0.0421455 -0.271633 0.000192881  0.0426192 -0.263597 0.000201941  0.0506134 -0.264121 0.00026226  0.0425951 -0.263569 0.000241756  0.0412228 -0.287708 0.000103474  0.0491791 -0.288206 0.000122309  0.0496962 -0.280214 0.00014019  0.0411999 -0.287685 0.000116825  0.0417032 -0.279688 0.000131607  0.0496724 -0.2802 0.000162125  0.0416794 -0.27967 0.000151873  0.0402389 -0.303661 5.8651e-05  0.0481684 -0.304153 6.36578e-05  0.0487008 -0.296199 8.46386e-05  0.0402153 -0.303641 5.98431e-05  0.0407352 -0.295685 7.96318e-05  0.0486763 -0.296189 9.20296e-05  0.0407109 -0.295673 8.67844e-05  0.0392401 -0.319542 1.62125e-05  0.0471504 -0.320037 1.16825e-05  0.0476887 -0.31211 4.17233e-05  0.039217 -0.31952 7.39098e-06  0.0397413 -0.311596 3.79086e-05  0.0476592 -0.312099 3.93391e-05  0.0397165 -0.311586 3.43323e-05  -0.00644415 -0.00880986 -0.00220966  -0.00285693 -0.00568459 -0.000795364  0 0 0  -0.00421687 -0.00674755 -0.00124359  0 0 0  -0.00284179 -0.0047573 -0.00163794  -0.000993934 -0.00233451 -0.000582933  0 0 0  -0.00281321 -0.00553194 -0.00123477  -0.00421462 -0.00654587 -0.00192046  -0.00144512 -0.00351199 -0.000676394  0 0 0  -0.000995342 -0.00225375 -0.000903368  -0.00143972 -0.00341097 -0.00104785  -0.0129669 -0.0137424 -0.00348854  -0.00979301 -0.0114652 -0.00192189  -0.0101399 -0.0123902 -0.00199485  -0.00784931 -0.010481 -0.00262547  -0.00522335 -0.0077965 -0.0014441  -0.00975384 -0.0111432 -0.00295997  -0.0101706 -0.0120489 -0.0030539  -0.00719169 -0.00951753 -0.00168157  -0.00525868 -0.00756179 -0.00222015  -0.00720312 -0.00924427 -0.00258613  -0.0193684 -0.0196483 -0.00400257  -0.0161485 -0.0169422 -0.00250864  -0.0159346 -0.0185917 -0.0023129  -0.01295 -0.0169035 -0.00301909  -0.0103731 -0.0138789 -0.00189352  -0.0161721 -0.0165352 -0.00382519  -0.0159843 -0.0181914 -0.00350833  -0.0130595 -0.0153364 -0.00220013  -0.0104322 -0.0135451 -0.00288391  -0.0131055 -0.0149673 -0.00335145  -0.0255406 -0.0268351 -0.0040102  -0.0224559 -0.023489 -0.00267839  -0.0214495 -0.0260196 -0.00233197  -0.0177409 -0.0245488 -0.00302005  -0.0153418 -0.0209353 -0.00202131  -0.0225006 -0.0230655 -0.00404978  -0.0214835 -0.0256131 -0.00351405  -0.0187352 -0.0221318 -0.00234938  -0.0153866 -0.0205633 -0.00305319  -0.0187808 -0.0217345 -0.00354981  -0.0312935 -0.0353444 -0.00376034  -0.0284435 -0.0313343 -0.00259352  -0.0265864 -0.0347206 -0.00219107  -0.0221886 -0.0334594 -0.0028286  -0.0199928 -0.0292217 -0.00195408  -0.0284744 -0.0309282 -0.00390363  -0.0265914 -0.0343329 -0.00329304  -0.0240671 -0.030204 -0.0022738  -0.0200078 -0.0288487 -0.00293922  -0.0240878 -0.029815 -0.00342083  -0.0365835 -0.0450736 -0.00340462  -0.0339903 -0.0404386 -0.00238752  -0.0313211 -0.0446084 -0.00198269  -0.0263008 -0.0435441 -0.00255275  -0.0243024 -0.0387145 -0.00179434  -0.0339965 -0.0400653 -0.00358772  -0.0312998 -0.0442513 -0.0029788  -0.0290032 -0.0395129 -0.00209141  -0.024285 -0.0383607 -0.00269604  -0.0289948 -0.03915 -0.00314164  -0.041419 -0.0558866 -0.00302196  -0.0390707 -0.0506896 -0.0021379  -0.0356641 -0.0555596 -0.00175667  -0.0300973 -0.0546827 -0.00226355  -0.0282753 -0.049313 -0.00160241  -0.0390565 -0.0503533 -0.00321245  -0.0356246 -0.0552372 -0.00264215  -0.0335392 -0.0499482 -0.00187016  -0.0282371 -0.0489876 -0.00240898  -0.0335088 -0.0496181 -0.00281048  -0.0458293 -0.0676625 -0.00264716  -0.0437042 -0.0619609 -0.0018816  -0.0396407 -0.067456 -0.00153422  -0.0336011 -0.0667526 -0.00197649  -0.0319372 -0.0608992 -0.00140667  -0.0436752 -0.0616631 -0.00283146  -0.0395907 -0.0671692 -0.00231171  -0.0376958 -0.0613866 -0.0016439  -0.031884 -0.0606067 -0.00211859  -0.0376508 -0.0610921 -0.00247478  -0.049844 -0.0802768 -0.00229549  -0.0479205 -0.0741339 -0.00163698  -0.0432777 -0.0801802 -0.00132537  -0.0368334 -0.0796389 -0.00171065  -0.0353078 -0.0733583 -0.00121975  -0.0478843 -0.0738724 -0.00246739  -0.0432233 -0.0799272 -0.00200248  -0.0414985 -0.0737108 -0.00142741  -0.0352499 -0.0730987 -0.00184178  -0.0414472 -0.0734512 -0.00215364  -0.0534939 -0.0936246 -0.00197101  -0.0517526 -0.0870937 -0.00140929  -0.046602 -0.0936252 -0.00113273  -0.0398135 -0.0932329 -0.00146389  -0.038414 -0.0865787 -0.00104642  -0.0517125 -0.0868669 -0.00212908  -0.0465473 -0.0934051 -0.00171709  -0.0449764 -0.0868085 -0.0012269  -0.038353 -0.0863521 -0.00158548  -0.0449224 -0.0865822 -0.00185633  -0.0568044 -0.107598 -0.0016737  -0.0552286 -0.100735 -0.00119925  -0.0496359 -0.107689 -0.000957012  -0.0425587 -0.107434 -0.00124097  -0.0412716 -0.100458 -0.000887632  -0.0551902 -0.10054 -0.00181794  -0.0495839 -0.107498 -0.0014565  -0.0481526 -0.100575 -0.0010426  -0.0412148 -0.100262 -0.0013504  -0.0481002 -0.10038 -0.0015831  -0.0598006 -0.122108 -0.00140238  -0.0583771 -0.114959 -0.00100803  -0.0524012 -0.122277 -0.00079608  -0.0450834 -0.122146 -0.00103521  -0.043902 -0.114897 -0.000742912  -0.0583403 -0.114793 -0.00153399  -0.0523527 -0.122115 -0.00121856  -0.0510496 -0.114912 -0.000874758  -0.043847 -0.11473 -0.00113606  -0.0510004 -0.114746 -0.00133443  -0.0625038 -0.137058 -0.00115585  -0.0612206 -0.129673 -0.000833035  -0.0549155 -0.1373 -0.000650406  -0.0474021 -0.137282 -0.000850677  -0.046316 -0.129806 -0.00061059  -0.0611876 -0.129533 -0.00127506  -0.0548716 -0.137162 -0.00100255  -0.0536871 -0.129729 -0.000721455  -0.0462676 -0.129664 -0.000941038  -0.0536423 -0.129589 -0.00110745  -0.0649356 -0.152374 -0.000933647  -0.063782 -0.144792 -0.000675201  -0.0571975 -0.152677 -0.00051856  -0.0495278 -0.152758 -0.000681877  -0.0485326 -0.145098 -0.000491619  -0.0637521 -0.144676 -0.00104046  -0.0571584 -0.152562 -0.000807285  -0.0560833 -0.144938 -0.000582695  -0.0484875 -0.14498 -0.000764847  -0.0560428 -0.144822 -0.000901937  -0.0671169 -0.167972 -0.000731468  -0.0660818 -0.160236 -0.000531673  -0.0592641 -0.16833 -0.00039959  -0.0514739 -0.168501 -0.00053215  -0.0505606 -0.160696 -0.000383615  -0.0660565 -0.160142 -0.000828505  -0.0592297 -0.168236 -0.000631571  -0.0582554 -0.160463 -0.000457048  -0.0505227 -0.160599 -0.000605583  -0.0582198 -0.160368 -0.000716448  -0.0690686 -0.18379 -0.000554562  -0.0681419 -0.175933 -0.000403881  -0.0611329 -0.184193 -0.00029397  -0.0532534 -0.184439 -0.000396967  -0.0524175 -0.176524 -0.000287294  -0.0681196 -0.175859 -0.000638962  -0.0611031 -0.184116 -0.000475645  -0.0602208 -0.176229 -0.000344992  -0.0523827 -0.176448 -0.000463247  -0.0601898 -0.176154 -0.000550508  -0.0708125 -0.199757 -0.000396967  -0.0699835 -0.191816 -0.000290155  -0.0628221 -0.200199 -0.000200987  -0.0548806 -0.200511 -0.000282049  -0.0541127 -0.19252 -0.000201702  -0.0699654 -0.191758 -0.000472069  -0.0627961 -0.200139 -0.000339031  -0.0619972 -0.192171 -0.000245571  -0.0540853 -0.19246 -0.000337839  -0.0619709 -0.192112 -0.000404358  -0.0723701 -0.215823 -0.000263453  -0.0716283 -0.207824 -0.000192165  -0.0643504 -0.216296 -0.000120878  -0.0563715 -0.216662 -0.000178099  -0.0556672 -0.208623 -0.000127316  -0.0716126 -0.207782 -0.000326633  -0.064328 -0.216249 -0.000221014  -0.0636039 -0.208229 -0.000159502  -0.0556417 -0.208578 -0.000228882  -0.063581 -0.208185 -0.000277519  -0.073765 -0.231934 -0.000151873  -0.0730984 -0.223906 -0.000108242  -0.0657363 -0.23243 -5.38826e-05  -0.05774 -0.232841 -9.58443e-05  -0.0570893 -0.224781 -6.4373e-05  -0.0730863 -0.223876 -0.000203371  -0.065717 -0.232395 -0.000122786  -0.065058 -0.22435 -8.58307e-05  -0.05707 -0.224748 -0.000135899  -0.0650389 -0.22432 -0.000169039  -0.0750222 -0.248052 -6.22272e-05  -0.0744202 -0.240015 -3.95775e-05  -0.0670021 -0.248565 2.38419e-07  -0.0590038 -0.249008 -2.59876e-05  -0.0584011 -0.240949 -1.19209e-05  -0.0744085 -0.239996 -0.000102282  -0.0669856 -0.248538 -4.3869e-05  -0.0663812 -0.240489 -2.52724e-05  -0.058383 -0.240926 -5.96046e-05  -0.0663648 -0.240469 -8.05855e-05  -0.0761688 -0.264135 8.10623e-06  -0.0756185 -0.256111 1.4782e-05  -0.0681705 -0.264659 4.24385e-05  -0.0601802 -0.265127 2.5034e-05  -0.0596159 -0.257088 3.00407e-05  -0.075608 -0.2561 -2.31266e-05  -0.0681551 -0.26464 1.69277e-05  -0.0675957 -0.256607 2.26498e-05  -0.059602 -0.257073 9.53674e-07  -0.0675812 -0.256595 -1.07288e-05  -0.0772367 -0.280165 5.72205e-05  -0.0767219 -0.272165 5.62668e-05  -0.0692656 -0.280691 7.43866e-05  -0.0612886 -0.281172 6.69956e-05  -0.060755 -0.273166 6.22272e-05  -0.0767107 -0.272159 3.60012e-05  -0.0692506 -0.280676 6.24657e-05  -0.0687246 -0.272673 5.96046e-05  -0.0607412 -0.273158 4.69685e-05  -0.0687101 -0.272667 4.19617e-05  -0.078259 -0.296123 9.41753e-05  -0.077764 -0.288156 8.58307e-05  -0.070313 -0.296645 9.87053e-05  -0.0623472 -0.297131 9.72748e-05  -0.0618348 -0.289166 8.70228e-05  -0.0777512 -0.288153 7.84397e-05  -0.070297 -0.296632 9.70364e-05  -0.069792 -0.288667 8.72612e-05  -0.0618227 -0.28916 8.24928e-05  -0.0697782 -0.288663 8.10623e-05  -0.0792704 -0.312032 0.000125885  -0.0787809 -0.304085 0.000109434  -0.0713391 -0.312544 0.000121832  -0.0633824 -0.313017 0.000128031  -0.0628781 -0.305084 0.000108242  -0.0787647 -0.304082 0.000111103  -0.0713227 -0.31253 0.000129461  -0.0708253 -0.304588 0.000109911  -0.0628645 -0.30508 0.000111818  -0.0708103 -0.304586 0.00011301  -0.0020713 -0.00377248 -0.000885487  0 0 0  -0.00149801 -0.00288071 -0.0011003  -0.0005164 -0.00114395 -0.000386953  0 0 0  -0.00209258 -0.00362755 -0.00136876  -0.000699833 -0.00160718 -0.000482321  0 0 0  -0.00051992 -0.00108786 -0.000602722  -0.000703458 -0.00154133 -0.000749826  -0.00591961 -0.00944239 -0.00144029  -0.00440243 -0.00817987 -0.00177932  -0.00279765 -0.00551294 -0.000973701  -0.00597262 -0.00917415 -0.00220656  -0.00386773 -0.0064598 -0.00120878  -0.00283341 -0.00533645 -0.00150061  -0.0039072 -0.00625698 -0.00186062  -0.0101689 -0.016149 -0.00167084  -0.00777739 -0.0149253 -0.00204134  -0.00602743 -0.011664 -0.00128055  -0.0102222 -0.0158102 -0.00253391  -0.00804791 -0.0126439 -0.0015893  -0.00607961 -0.0113931 -0.00195241  -0.00810593 -0.0123434 -0.00242186  -0.0142523 -0.0240155 -0.00168037  -0.011065 -0.0229266 -0.002033  -0.00941023 -0.0190915 -0.00136328  -0.0142772 -0.0236501 -0.00253057  -0.0122413 -0.0199179 -0.00169444  -0.00944567 -0.0187674 -0.00205922  -0.0122833 -0.0195706 -0.00255919  -0.0180597 -0.0330907 -0.00157237  -0.0141436 -0.0321499 -0.001894  -0.0126269 -0.0277303 -0.00131226  -0.0180511 -0.0327294 -0.00236201  -0.0161914 -0.0283946 -0.00163507  -0.0126308 -0.0273884 -0.00197363  -0.0161994 -0.0280376 -0.00245833  -0.021588 -0.0433029 -0.00141764  -0.0170196 -0.042507 -0.00170445  -0.0156295 -0.037527 -0.00119925  -0.021553 -0.0429598 -0.00213027  -0.0198566 -0.0380503 -0.00149798  -0.0156052 -0.0371914 -0.00180197  -0.0198345 -0.0377058 -0.00225019  -0.0248581 -0.0545457 -0.0012517  -0.0197158 -0.0538913 -0.00150371  -0.0184321 -0.0483916 -0.00106645  -0.0248063 -0.0542313 -0.00188351  -0.0232533 -0.0487919 -0.00133467  -0.0183886 -0.0480762 -0.00160408  -0.0232092 -0.0484715 -0.00200677  -0.0278926 -0.0667061 -0.00108933  -0.0222505 -0.0661859 -0.00130892  -0.0210565 -0.0602182 -0.00093174  -0.0278319 -0.0664218 -0.00164366  -0.0264022 -0.0605075 -0.00116992  -0.0210024 -0.0599298 -0.001405  -0.0263461 -0.060217 -0.00176239  -0.0307119 -0.0796726 -0.0009377  -0.0246375 -0.0792811 -0.0011282  -0.0235205 -0.0728967 -0.000804424  -0.0306481 -0.0794208 -0.00141931  -0.0293272 -0.0730843 -0.00101209  -0.0234615 -0.0726386 -0.00121689  -0.029265 -0.0728255 -0.00152946  -0.033332 -0.0933391 -0.000798225  -0.0268868 -0.0930676 -0.000961781  -0.0258377 -0.0863202 -0.000686169  -0.0332694 -0.0931174 -0.00121355  -0.0320443 -0.0864137 -0.000866413  -0.0257784 -0.0860924 -0.00104284  -0.0319821 -0.0861863 -0.00131416  -0.0357673 -0.107606 -0.000670671  -0.029006 -0.107447 -0.000809431  -0.0280186 -0.100386 -0.000578165  -0.0357081 -0.107414 -0.00102496  -0.0345712 -0.100392 -0.000733137  -0.0279622 -0.100187 -0.000883818  -0.0345106 -0.100195 -0.00111723  -0.0380287 -0.122377 -0.0005548  -0.031001 -0.122321 -0.000671387  -0.0300713 -0.114996 -0.000479937  -0.0379741 -0.122212 -0.000854254  -0.0369176 -0.114923 -0.000611305  -0.0300183 -0.114825 -0.000739098  -0.0368618 -0.114754 -0.000937462  -0.0401275 -0.137566 -0.000449657  -0.0328776 -0.137603 -0.000546932  -0.0320015 -0.130059 -0.00039053  -0.0400778 -0.137426 -0.000698805  -0.039097 -0.129914 -0.000500917  -0.0319536 -0.129914 -0.000607491  -0.0390456 -0.129771 -0.000774622  -0.0420727 -0.153089 -0.00035429  -0.0346402 -0.153209 -0.000433445  -0.0338148 -0.145489 -0.000309944  -0.0420283 -0.152971 -0.000558853  -0.041117 -0.145279 -0.000400782  -0.0337723 -0.145369 -0.000489235  -0.0410714 -0.14516 -0.000627041  -0.043874 -0.168872 -0.000269175  -0.0362954 -0.169067 -0.000332832  -0.0355176 -0.161209 -0.000237226  -0.0438347 -0.168775 -0.00043273  -0.04299 -0.160942 -0.000310659  -0.0354809 -0.16111 -0.000381947  -0.0429486 -0.160844 -0.000494003  -0.0455406 -0.184845 -0.000193119  -0.0378481 -0.185103 -0.000243664  -0.0371162 -0.177145 -0.000172377  -0.0455067 -0.184765 -0.000321627  -0.0447216 -0.176828 -0.000229836  -0.0370837 -0.177065 -0.000287056  -0.0446866 -0.176749 -0.000375271  -0.0470841 -0.200945 -0.000126123  -0.0393057 -0.20126 -0.000164986  -0.0386157 -0.193232 -0.000114918  -0.0470552 -0.200882 -0.000223398  -0.0463262 -0.192872 -0.000158787  -0.0385885 -0.193168 -0.000203371  -0.0462956 -0.19281 -0.000270844  -0.0485156 -0.217119 -6.86646e-05  -0.0406754 -0.217479 -9.67979e-05  -0.0400238 -0.209411 -6.46114e-05  -0.0484908 -0.217069 -0.000139236  -0.0478113 -0.209015 -9.60827e-05  -0.0400007 -0.209363 -0.000130177  -0.0477862 -0.208968 -0.000179529  -0.0498459 -0.233316 -2.00272e-05  -0.0419648 -0.233715 -4.05312e-05  -0.0413482 -0.225631 -2.16961e-05  -0.0498254 -0.233278 -6.81877e-05  -0.0491917 -0.225207 -4.31538e-05  -0.0413294 -0.225596 -6.79493e-05  -0.0491698 -0.225172 -0.000102043  -0.0510895 -0.249496 1.97887e-05  -0.0431826 -0.249924 5.96046e-06  -0.0425982 -0.241848 1.43051e-05  -0.0510714 -0.249467 -1.09673e-05  -0.0504761 -0.2414 1.19209e-06  -0.0425816 -0.241823 -1.64509e-05  -0.0504584 -0.241376 -3.79086e-05  -0.0522578 -0.265625 5.10216e-05  -0.0443373 -0.266076 4.19617e-05  -0.0437806 -0.258024 4.29153e-05  -0.0522425 -0.265604 3.38554e-05  -0.0516813 -0.257558 3.6478e-05  -0.0437672 -0.258007 2.47955e-05  -0.0516653 -0.257542 1.28746e-05  -0.0533657 -0.281676 7.55787e-05  -0.0454392 -0.282142 7.00951e-05  -0.0449054 -0.274129 6.58035e-05  -0.0533512 -0.281659 6.81877e-05  -0.0528169 -0.27365 6.38962e-05  -0.0448942 -0.274119 5.72205e-05  -0.0528033 -0.273641 5.22137e-05  -0.0544274 -0.297637 9.56059e-05  -0.0464983 -0.29811 9.39369e-05  -0.0459836 -0.290144 8.39233e-05  -0.0544128 -0.297623 9.65595e-05  -0.0539002 -0.289657 8.58307e-05  -0.0459728 -0.290137 8.24928e-05  -0.0538867 -0.289651 8.29697e-05  -0.0554657 -0.313512 0.000114679  -0.0475376 -0.313969 0.000117779  -0.0470283 -0.306058 0.000101089  -0.0554512 -0.313495 0.000123262  -0.054945 -0.305574 0.000105143  -0.0470176 -0.306052 0.000105619  -0.0549324 -0.305568 0.000109673  -0.00101634 -0.00251633 -0.000535727  0 0 0  -0.000633731 -0.00211766 -0.000555038  -0.000217207 -0.000689685 -0.000194073  0 0 0  -0.00103139 -0.00240457 -0.00083065  -0.000346594 -0.000855327 -0.000291348  0 0 0  -0.000218872 -0.000647157 -0.00030303  -0.00034992 -0.00080806 -0.000453711  -0.00306147 -0.00769684 -0.00087595  -0.00192834 -0.00704303 -0.000900984  -0.00120121 -0.00446135 -0.000491142  -0.00309791 -0.00748193 -0.00134373  -0.00194515 -0.00486413 -0.000734568  -0.00121818 -0.00432056 -0.000758171  -0.00197175 -0.0047085 -0.00113249  -0.00554436 -0.0145555 -0.00101662  -0.00354326 -0.0138383 -0.00103331  -0.00269172 -0.0104814 -0.00064826  -0.00557864 -0.0142667 -0.00154209  -0.00428012 -0.0109453 -0.000967741  -0.00271562 -0.0102524 -0.000988483  -0.00431967 -0.0106987 -0.00147486  -0.00805119 -0.0227186 -0.00101805  -0.00521687 -0.0220422 -0.00102592  -0.00436977 -0.0180683 -0.000688791  -0.00806227 -0.0223884 -0.00153279  -0.00680831 -0.0184729 -0.0010283  -0.00438216 -0.0177783 -0.00104046  -0.00683251 -0.0181681 -0.00155354  -0.0104405 -0.0320699 -0.000947475  -0.00685203 -0.0314745 -0.000949383  -0.00604838 -0.0269291 -0.000660181  -0.010425 -0.03173 -0.00142407  -0.00926179 -0.0272398 -0.000988007  -0.00604069 -0.0266102 -0.000992775  -0.00926 -0.0269109 -0.00148535  -0.0126976 -0.0425223 -0.000849724  -0.00843996 -0.0420181 -0.000847578  -0.00767648 -0.0369329 -0.000598192  -0.0126621 -0.0421914 -0.00127721  -0.0115842 -0.0371529 -0.00090003  -0.00765109 -0.0366108 -0.00090003  -0.0115581 -0.0368248 -0.00135231  -0.0148384 -0.0539789 -0.00074482  -0.00999188 -0.0535726 -0.000740767  -0.00925672 -0.0479819 -0.000526428  -0.0147905 -0.0536703 -0.00112295  -0.0137804 -0.0481201 -0.000797272  -0.00921947 -0.0476732 -0.000793934  -0.0137388 -0.0478086 -0.00119972  -0.0168778 -0.0663334 -0.000644207  -0.0115162 -0.0660238 -0.000638247  -0.0108004 -0.0599755 -0.000454426  -0.0168239 -0.0660511 -0.00097394  -0.0158693 -0.060039 -0.000694036  -0.010757 -0.0596899 -0.000688791  -0.0158182 -0.0597525 -0.00104761  -0.018827 -0.0794802 -0.000550032  -0.0130168 -0.0792678 -0.000544071  -0.012315 -0.0728092 -0.000386953  -0.0187716 -0.0792284 -0.000836372  -0.0178616 -0.0728033 -0.000596046  -0.012269 -0.0725513 -0.000589371  -0.017808 -0.0725454 -0.000903368  -0.0206927 -0.0933137 -0.000463724  -0.0144937 -0.0931924 -0.000456095  -0.0138034 -0.0863776 -0.000324249  -0.0206386 -0.0930905 -0.000709057  -0.0197692 -0.0863063 -0.000505924  -0.0137579 -0.0861488 -0.000498533  -0.0197147 -0.086078 -0.000771046  -0.0224788 -0.107734 -0.000385046  -0.0159452 -0.107702 -0.000377417  -0.015265 -0.100578 -0.000268221  -0.0224282 -0.107541 -0.000594139  -0.0215939 -0.100446 -0.000423431  -0.0152225 -0.100378 -0.000415802  -0.0215427 -0.100247 -0.000649929  -0.0241883 -0.122647 -0.000313759  -0.017369 -0.122694 -0.000306606  -0.0166998 -0.115313 -0.000216484  -0.0241414 -0.122479 -0.000489235  -0.023342 -0.115124 -0.000348568  -0.0166605 -0.11514 -0.000340939  -0.0232939 -0.114952 -0.000540257  -0.0258225 -0.137963 -0.000249147  -0.0187628 -0.138085 -0.000241756  -0.018105 -0.130489 -0.000169992  -0.0257806 -0.137821 -0.000394821  -0.0250131 -0.130249 -0.00028038  -0.0180696 -0.130342 -0.000272989  -0.0249701 -0.130103 -0.000440359  -0.0273832 -0.1536 -0.000190735  -0.0201228 -0.153787 -0.000183344  -0.0194782 -0.146022 -0.000127792  -0.0273458 -0.153479 -0.00030899  -0.026611 -0.145735 -0.000219345  -0.0194467 -0.145899 -0.000212193  -0.0265721 -0.145613 -0.000350714  -0.0288724 -0.169482 -0.00013876  -0.0214475 -0.16973 -0.000133038  -0.0208166 -0.161832 -9.01222e-05  -0.0288395 -0.169383 -0.00023365  -0.0281351 -0.161504 -0.000164032  -0.0207895 -0.16173 -0.000157595  -0.0281012 -0.161403 -0.000270128  -0.0302918 -0.185541 -9.2268e-05  -0.022735 -0.185839 -8.72612e-05  -0.0221187 -0.177847 -5.65052e-05  -0.0302634 -0.185459 -0.000165939  -0.0295894 -0.177483 -0.000114679  -0.0220956 -0.177765 -0.000109673  -0.0295597 -0.177402 -0.000198603  -0.0316451 -0.201715 -5.126e-05  -0.0239844 -0.202058 -4.74453e-05  -0.0233836 -0.194002 -2.6226e-05  -0.0316207 -0.20165 -0.00010705  -0.0309751 -0.193607 -7.08103e-05  -0.0233643 -0.193936 -6.67572e-05  -0.0309501 -0.193542 -0.000135422  -0.0329351 -0.217949 -1.62125e-05  -0.0251963 -0.218327 -1.3113e-05  -0.024611 -0.210237 -7.15256e-07  -0.0329144 -0.217897 -5.60284e-05  -0.0322964 -0.209817 -3.29018e-05  -0.0245945 -0.210187 -3.00407e-05  -0.0322752 -0.209767 -8.03471e-05  -0.0341671 -0.234195 1.43051e-05  -0.0263698 -0.234606 1.57356e-05  -0.0258002 -0.226504 2.16961e-05  -0.0341496 -0.234156 -1.3113e-05  -0.0335562 -0.226062 2.38419e-07  -0.0257874 -0.226466 1.43051e-06  -0.0335388 -0.226026 -3.31402e-05  -0.0353448 -0.250414 3.88622e-05  -0.0275068 -0.250847 3.98159e-05  -0.0269535 -0.242758 4.07696e-05  -0.0353305 -0.250383 2.19345e-05  -0.0347612 -0.242299 2.71797e-05  -0.026942 -0.24273 2.74181e-05  -0.0347462 -0.242273 5.48363e-06  -0.0364745 -0.266572 5.8651e-05  -0.0286098 -0.267025 5.88894e-05  -0.0280714 -0.258962 5.55515e-05  -0.0364625 -0.266549 4.95911e-05  -0.0359142 -0.258491 4.93526e-05  -0.0280623 -0.258944 4.88758e-05  -0.0359023 -0.258474 3.67165e-05  -0.0375612 -0.282643 7.43866e-05  -0.0296795 -0.283109 7.24792e-05  -0.0291545 -0.27509 6.86646e-05  -0.0375504 -0.282625 7.1764e-05  -0.0370219 -0.274608 6.69956e-05  -0.0291481 -0.275078 6.60419e-05  -0.0370111 -0.274597 6.12736e-05  -0.0386131 -0.298612 8.84533e-05  -0.0307221 -0.299084 8.60691e-05  -0.03021 -0.291118 7.9155e-05  -0.0386026 -0.298596 9.03606e-05  -0.038089 -0.29063 8.17776e-05  -0.0302036 -0.291109 7.96318e-05  -0.03808 -0.290623 8.15392e-05  -0.0396457 -0.314461 0.000101805  -0.0317476 -0.31492 9.87053e-05  -0.0312405 -0.307026 8.91685e-05  -0.0396349 -0.314443 0.000109196  -0.0391288 -0.306541 9.48906e-05  -0.0312352 -0.307018 9.25064e-05  -0.039119 -0.306534 9.9659e-05  -0.000269912 -0.00207499 -0.000177622  0 0 0  7.01249e-05 -0.00197428 7.15256e-06  2.27913e-05 -0.000605673 2.6226e-06  0 0 0  -0.000272267 -0.00198188 -0.000274658  -9.26033e-05 -0.000609994 -9.63211e-05  0 0 0  2.37226e-05 -0.000570148 5.24521e-06  -9.25027e-05 -0.000572979 -0.000149727  -0.000849009 -0.00701588 -0.000292778  0.000177562 -0.00682294 3.8147e-06  0.000118583 -0.00424975 3.8147e-06  -0.000855327 -0.00682977 -0.000449419  -0.000525907 -0.00426382 -0.000244141  0.000125229 -0.00412354 6.67572e-06  -0.000531167 -0.00413322 -0.000376225  -0.00162625 -0.013893 -0.000341654  0.00023362 -0.0136451 -1.90735e-06  0.000203043 -0.0102485 2.38419e-07  -0.00162828 -0.0136324 -0.000518084  -0.00122055 -0.0102528 -0.000325203  0.000215739 -0.0100364 4.76837e-07  -0.00122607 -0.0100356 -0.000495434  -0.00249428 -0.0222004 -0.000341177  0.000190973 -0.0219378 -1.90735e-06  0.00020811 -0.0179023 -1.90735e-06  -0.00248468 -0.0218912 -0.000514507  -0.00205275 -0.0178783 -0.000345945  0.000225931 -0.0176275 -3.33786e-06  -0.00205007 -0.0175986 -0.000522614  -0.00340319 -0.0317132 -0.000314236  3.42131e-05 -0.0314708 4.05312e-06  0.000105143 -0.0268652 1.19209e-06  -0.00338137 -0.0313869 -0.000473261  -0.00294429 -0.0268034 -0.000329971  0.000127256 -0.026557 0  -0.00292867 -0.0264918 -0.000496864  -0.00434381 -0.0423142 -0.000276327  -0.000238717 -0.0421132 1.40667e-05  -0.00011307 -0.0369731 7.39098e-06  -0.00431293 -0.0419908 -0.000416994  -0.00386846 -0.0368725 -0.000295639  -8.77976e-05 -0.0366577 8.34465e-06  -0.00384253 -0.0365547 -0.000446081  -0.00531924 -0.053907 -0.000235796  -0.000624478 -0.0537622 2.52724e-05  -0.000444949 -0.0481218 1.4782e-05  -0.00528306 -0.0536017 -0.000358105  -0.00482637 -0.0479816 -0.000255823  -0.000417352 -0.0478168 1.88351e-05  -0.00479275 -0.0476755 -0.000387669  -0.00633162 -0.0663889 -0.000196457  -0.00111806 -0.0663067 3.50475e-05  -0.000886321 -0.0602113 2.3365e-05  -0.00629324 -0.0661075 -0.000301838  -0.00581974 -0.060032 -0.000216007  -0.000858307 -0.059927 3.00407e-05  -0.00578308 -0.0597476 -0.000329733  -0.00737977 -0.0796561 -0.000160456  -0.00171101 -0.0796399 4.43459e-05  -0.00143015 -0.0731375 3.12328e-05  -0.00734127 -0.0794037 -0.000249624  -0.0068506 -0.0729197 -0.000178337  -0.0014025 -0.0728798 3.98159e-05  -0.00681257 -0.0726619 -0.000275373  -0.00845909 -0.0936029 -0.000127316  -0.00239336 -0.0936517 5.17368e-05  -0.00206769 -0.0867952 3.8147e-05  -0.00842249 -0.0933781 -0.000202656  -0.0079143 -0.0865395 -0.000144005  -0.00204134 -0.0865654 4.8399e-05  -0.00787795 -0.0863103 -0.000225782  -0.00956476 -0.10813 -9.799e-05  -0.00315523 -0.108242 5.79357e-05  -0.00278842 -0.101081 4.3869e-05  -0.00953102 -0.107934 -0.000160217  -0.00900817 -0.100789 -0.000112295  -0.00276482 -0.100879 5.48363e-05  -0.00897348 -0.100588 -0.000180721  -0.0106905 -0.123139 -7.15256e-05  -0.00398552 -0.12331 6.17504e-05  -0.00358319 -0.115894 4.88758e-05  -0.0106596 -0.122969 -0.000122547  -0.010124 -0.115569 -8.46386e-05  -0.00356209 -0.11572 6.00815e-05  -0.010093 -0.115395 -0.000141144  -0.0118294 -0.138544 -4.72069e-05  -0.00487363 -0.138769 6.58035e-05  -0.00444126 -0.131143 5.26905e-05  -0.011802 -0.138399 -8.82149e-05  -0.0112576 -0.130786 -5.91278e-05  -0.00442302 -0.130994 6.4373e-05  -0.0112293 -0.130638 -0.000104904  -0.0129752 -0.154259 -2.57492e-05  -0.00580847 -0.154533 6.86646e-05  -0.00535119 -0.146741 5.60284e-05  -0.0129514 -0.154136 -5.84126e-05  -0.0124003 -0.146356 -3.6478e-05  -0.00533533 -0.146616 6.67572e-05  -0.0123761 -0.146232 -7.31945e-05  -0.0141224 -0.170211 -6.91414e-06  -0.00678122 -0.170529 6.93798e-05  -0.00630355 -0.162609 5.8651e-05  -0.0141015 -0.17011 -3.17097e-05  -0.0135481 -0.162199 -1.5974e-05  -0.00629079 -0.162505 6.93798e-05  -0.0135263 -0.162097 -4.45843e-05  -0.0152644 -0.18633 1.00136e-05  -0.00778139 -0.186685 7.15256e-05  -0.00728858 -0.178673 6.05583e-05  -0.015247 -0.186246 -8.58307e-06  -0.0146928 -0.178243 1.66893e-06  -0.00727797 -0.178589 7.05719e-05  -0.014675 -0.178159 -1.97887e-05  -0.0163984 -0.202554 2.5034e-05  -0.00880194 -0.202941 7.1764e-05  -0.00829768 -0.19487 6.24657e-05  -0.0163836 -0.202487 1.19209e-05  -0.0158317 -0.194422 1.78814e-05  -0.00828958 -0.194802 7.12872e-05  -0.0158165 -0.194355 1.90735e-06  -0.0175197 -0.218829 3.83854e-05  -0.00983477 -0.219243 7.34329e-05  -0.00932336 -0.21114 6.50883e-05  -0.0175071 -0.218775 2.90871e-05  -0.0169592 -0.210677 3.19481e-05  -0.00931692 -0.211087 7.24792e-05  -0.016947 -0.210626 2.09808e-05  -0.0186245 -0.235109 4.95911e-05  -0.0108736 -0.235545 7.29561e-05  -0.0103581 -0.227434 6.65188e-05  -0.0186148 -0.235067 4.45843e-05  -0.0180731 -0.22696 4.41074e-05  -0.0103536 -0.227394 7.29561e-05  -0.0180628 -0.226922 3.71933e-05  -0.019712 -0.251353 5.88894e-05  -0.0119121 -0.251806 7.39098e-05  -0.0113962 -0.243709 6.79493e-05  -0.0197039 -0.25132 5.60284e-05  -0.0191689 -0.243227 5.43594e-05  -0.0113924 -0.243681 7.36713e-05  -0.0191615 -0.243199 5.05447e-05  -0.0207806 -0.267531 6.67572e-05  -0.0129471 -0.267997 7.51019e-05  -0.0124319 -0.25993 7.03335e-05  -0.0207739 -0.267507 6.65188e-05  -0.0202477 -0.259441 6.31809e-05  -0.0124302 -0.25991 7.43866e-05  -0.020241 -0.259422 6.1512e-05  -0.0218294 -0.283617 7.34329e-05  -0.0139749 -0.284091 7.48634e-05  -0.0134625 -0.276068 7.20024e-05  -0.0218236 -0.283597 7.39098e-05  -0.0213058 -0.275576 7.03335e-05  -0.0134621 -0.276056 7.51019e-05  -0.021301 -0.275564 7.00951e-05  -0.0228598 -0.29959 7.9155e-05  -0.0149925 -0.300067 7.60555e-05  -0.0144861 -0.292102 7.36713e-05  -0.0228539 -0.299573 8.13007e-05  -0.0223455 -0.291608 7.62939e-05  -0.0144846 -0.292093 7.55787e-05  -0.0223408 -0.291599 7.7486e-05  -0.0238743 -0.315423 8.53539e-05  -0.015996 -0.315895 7.67708e-05  -0.0154965 -0.308009 7.55787e-05  -0.0238683 -0.315403 8.82149e-05  -0.0233662 -0.307515 8.27312e-05  -0.015496 -0.307999 7.65324e-05  -0.0233624 -0.307506 8.4877e-05  0.000403538 -0.00218052 0.000183344  0 0 0  0.000776201 -0.0023343 0.000562429  0.000263147 -0.000807703 0.000197172  0 0 0  0.00041391 -0.00208968 0.000286579  0.000138782 -0.000668347 0.000100851  0 0 0  0.000267148 -0.000767887 0.000310421  0.000140712 -0.000632703 0.000159025  0.00118431 -0.00719631 0.000295162  0.00228122 -0.00741011 0.000896931  0.00143921 -0.0047543 0.000491858  0.00121132 -0.00701451 0.000454664  0.000763863 -0.00441092 0.000249624  0.00146945 -0.00462019 0.000761509  0.000783071 -0.00428361 0.00038743  0.00205794 -0.0141286 0.000336885  0.00399446 -0.0143145 0.00101757  0.0030897 -0.0108962 0.000640154  0.00209197 -0.0138724 0.000511408  0.00162482 -0.010462 0.000322819  0.00313869 -0.0106759 0.000977278  0.00165623 -0.0102491 0.000493288  0.00282604 -0.0224849 0.000337124  0.00556767 -0.0226176 0.00101113  0.00476271 -0.0185844 0.000677824  0.00285864 -0.0221802 0.000507116  0.00246242 -0.0181381 0.000339985  0.00481045 -0.0183037 0.00102353  0.00249633 -0.0178629 0.000513792  0.00341016 -0.0320497 0.000320435  0.00687796 -0.0321538 0.000950098  0.00622123 -0.0275481 0.00065589  0.00343871 -0.031727 0.000478506  0.00314367 -0.027114 0.00033021  0.00625777 -0.0272367 0.000983953  0.00317347 -0.0268059 0.000495195  0.00379771 -0.0427071 0.000297546  0.00791371 -0.0428089 0.000870228  0.00740361 -0.0376618 0.000609159  0.00382304 -0.0423858 0.000443459  0.00362855 -0.0372366 0.000309229  0.00742954 -0.0373451 0.000911236  0.00365508 -0.0369216 0.000461817  0.00399697 -0.0543597 0.000273943  0.00869024 -0.0544823 0.00078702  0.00831515 -0.0488288 0.000554562  0.00402004 -0.0540556 0.000406742  0.00392109 -0.0484042 0.000285387  0.00833356 -0.0485229 0.000828743  0.00394428 -0.0480993 0.000424862  0.00402212 -0.0669037 0.000251293  0.00922692 -0.0670572 0.000707865  0.00897437 -0.060946 0.000501156  0.0040431 -0.0666223 0.000371933  0.004031 -0.0605156 0.000262737  0.00898749 -0.0606611 0.000747204  0.0040527 -0.0602314 0.000389576  0.00388682 -0.0802335 0.000229836  0.0095433 -0.080426 0.000632048  0.00940192 -0.073906 0.000449419  0.00390589 -0.0799803 0.000337839  0.00397491 -0.0734659 0.000240326  0.00941181 -0.0736471 0.000669479  0.00399375 -0.0732078 0.000354767  0.00360596 -0.0942419 0.000209332  0.00965834 -0.094473 0.000559807  0.00961816 -0.0875995 0.00040102  0.00362289 -0.0940156 0.000306129  0.00376463 -0.087148 0.000219584  0.00962532 -0.0873687 0.000595093  0.00378191 -0.0869178 0.000322104  0.0031935 -0.108827 0.000190496  0.00959027 -0.109099 0.000494242  0.00964141 -0.101921 0.000356197  0.0032084 -0.10863 0.000275612  0.00341654 -0.101458 0.000200272  0.00964618 -0.101718 0.000526428  0.00343132 -0.101255 0.000291109  0.00266528 -0.123891 0.000172377  0.00935829 -0.1242 0.000431299  0.00949085 -0.116769 0.000314474  0.00267804 -0.123719 0.000246763  0.00294399 -0.116294 0.000181437  0.00949407 -0.116593 0.000461817  0.00295711 -0.116119 0.000261307  0.00203454 -0.139345 0.000155926  0.00898039 -0.139689 0.000374079  0.00918519 -0.13205 0.000275373  0.00204563 -0.139199 0.000219584  0.0023632 -0.131564 0.00016427  0.00918674 -0.131899 0.000401974  0.00237381 -0.131414 0.000233173  0.00131726 -0.155104 0.00014019  0.00847542 -0.155477 0.00032115  0.00874293 -0.147675 0.000239849  0.00132596 -0.154979 0.000195026  0.00168705 -0.14718 0.00014782  0.00874329 -0.147548 0.000346899  0.00169599 -0.147054 0.000207186  0.000525117 -0.171093 0.000125885  0.00785935 -0.171495 0.000273228  0.00818157 -0.163565 0.000207901  0.00053215 -0.17099 0.000171423  0.000931144 -0.163063 0.000133276  0.00818038 -0.16346 0.000296831  0.000937819 -0.162959 0.000183344  -0.000327468 -0.187243 0.00011301  0.00714993 -0.187666 0.000230074  0.00751758 -0.179648 0.000178337  -0.000321984 -0.187157 0.000150919  0.000106692 -0.179141 0.000119209  0.00751555 -0.179562 0.000250816  0.000112176 -0.179056 0.000160933  -0.00122952 -0.203493 0.000102043  0.0063622 -0.203936 0.000191927  0.00676751 -0.195858 0.000152349  -0.00122523 -0.203424 0.000131845  -0.000771523 -0.195348 0.000107527  0.00676537 -0.19579 0.000210524  -0.000767946 -0.19528 0.000141382  -0.00216937 -0.219788 9.29832e-05  0.00551152 -0.220245 0.00015974  0.00594687 -0.212139 0.000130177  -0.00216651 -0.219732 0.000116348  -0.0016942 -0.211626 9.75132e-05  0.00594425 -0.212086 0.000174999  -0.00169158 -0.211574 0.000123978  -0.00313783 -0.236082 8.53539e-05  0.0046103 -0.236553 0.000131369  0.00506997 -0.22844 0.00011158  -0.00313544 -0.236039 0.00010252  -0.00264907 -0.227927 8.89301e-05  0.00506687 -0.2284 0.000144958  -0.00264788 -0.227887 0.000109196  -0.00412464 -0.252337 7.93934e-05  0.00367212 -0.252816 0.000108719  0.00414968 -0.244718 9.60827e-05  -0.00412321 -0.252304 9.17912e-05  -0.00362802 -0.244206 8.22544e-05  0.0041461 -0.244689 0.000120401  -0.0036273 -0.244177 9.70364e-05  -0.00512362 -0.268522 7.51019e-05  0.002707 -0.269007 9.13143e-05  0.00319719 -0.26094 8.34465e-05  -0.00512314 -0.268497 8.27312e-05  -0.00462151 -0.260429 7.70092e-05  0.00319266 -0.26092 9.94205e-05  -0.00462198 -0.260409 8.72612e-05  -0.00612855 -0.284611 7.1764e-05  0.00172353 -0.285097 7.70092e-05  0.00222254 -0.277077 7.48634e-05  -0.00612831 -0.284591 7.60555e-05  -0.00562477 -0.276568 7.31945e-05  0.00221729 -0.277063 8.36849e-05  -0.00562501 -0.276555 7.96318e-05  -0.00713325 -0.300585 6.96182e-05  0.000730753 -0.301074 6.65188e-05  0.00123286 -0.293109 6.79493e-05  -0.00713325 -0.300567 7.05719e-05  -0.00662971 -0.292603 7.05719e-05  0.00122786 -0.293099 7.1764e-05  -0.00663114 -0.292593 7.34329e-05  -0.00812697 -0.316418 6.69956e-05  -0.000253439 -0.316909 5.43594e-05  0.000241518 -0.309018 6.24657e-05  -0.00812697 -0.316397 6.50883e-05  -0.00763106 -0.30851 6.84261e-05  0.000236511 -0.309007 6.03199e-05  -0.00763202 -0.3085 6.79493e-05  0.00115548 -0.00283486 0.000532389  0 0 0  0.00164573 -0.00331432 0.00108671  0.00056278 -0.00139189 0.000381947  0 0 0  0.00117847 -0.00272995 0.000828743  0.000394866 -0.00103623 0.000290871  0 0 0  0.000568785 -0.00133932 0.000597715  0.000400186 -0.00099206 0.000456333  0.00338897 -0.00822848 0.000863552  0.00473699 -0.00889099 0.00174356  0.00303227 -0.00608557 0.000955343  0.00344652 -0.00802642 0.00132704  0.00218414 -0.00530058 0.000727415  0.00308183 -0.00592166 0.00147533  0.00222504 -0.00515455 0.00112414  0.00593817 -0.0152475 0.000996351  0.00816068 -0.0158492 0.0019927  0.00638339 -0.0124635 0.00125098  0.00600478 -0.0149731 0.00151205  0.00466305 -0.0115595 0.000950575  0.00646171 -0.0122119 0.00190735  0.00472915 -0.0113264 0.00144982  0.00831532 -0.023563 0.00100064  0.0113038 -0.0240601 0.0019908  0.00971055 -0.0200995 0.00133181  0.00836867 -0.0232462 0.00150585  0.0071646 -0.0192401 0.00100899  0.00978199 -0.0197952 0.00201082  0.00722542 -0.0189496 0.00152349  0.0103583 -0.0330774 0.000944138  0.0140285 -0.0335054 0.00187373  0.0126706 -0.0289567 0.00129199  0.010394 -0.0327478 0.00141549  0.00938147 -0.0281644 0.000976801  0.0127195 -0.0286313 0.00194049  0.0094257 -0.0278474 0.00146651  0.0120499 -0.0437049 0.000864506  0.0163355 -0.0440986 0.00171399  0.015205 -0.0389875 0.00119877  0.0120713 -0.0433803 0.0012939  0.0112482 -0.0382468 0.000905514  0.015233 -0.0386634 0.00179672  0.0112752 -0.0379272 0.00135636  0.0134084 -0.0553466 0.000779629  0.018249 -0.055732 0.00154281  0.0173271 -0.0501001 0.00108743  0.0134205 -0.0550411 0.00116658  0.0127696 -0.0493947 0.000822067  0.0173398 -0.0497911 0.0016284  0.0127856 -0.0490877 0.00123048  0.0144603 -0.0678922 0.000697374  0.0197971 -0.0682825 0.00137496  0.0190641 -0.062184 0.000974178  0.0144666 -0.0676104 0.00104213  0.0139723 -0.0615026 0.000738144  0.019067 -0.0618982 0.00145817  0.0139802 -0.0612174 0.00110388  0.0152303 -0.0812303 0.000619173  0.0210068 -0.0816339 0.00121522  0.0204457 -0.0751228 0.000864983  0.0152328 -0.0809769 0.000924349  0.0148799 -0.0744584 0.000657797  0.0204427 -0.0748638 0.00129414  0.0148835 -0.0741996 0.000982523  0.0157419 -0.0952507 0.000545979  0.0219049 -0.0956698 0.00106549  0.0214999 -0.088802 0.000762463  0.0157421 -0.0950242 0.000813007  0.0155184 -0.0881511 0.00058198  0.0214937 -0.0885714 0.0011394  0.0155182 -0.0879201 0.000867844  0.0160189 -0.109848 0.000478506  0.0225179 -0.110285 0.000926971  0.0222546 -0.103113 0.000666618  0.016017 -0.10965 0.000710726  0.0159093 -0.102473 0.000511408  0.0222456 -0.10291 0.000994921  0.0159076 -0.10227 0.000760794  0.0160836 -0.124924 0.000415802  0.0228721 -0.125376 0.000798225  0.022736 -0.117951 0.000578165  0.0160807 -0.124752 0.00061512  0.0160776 -0.117321 0.00044632  0.0227261 -0.117775 0.000861406  0.0160742 -0.117145 0.00066185  0.0159582 -0.140387 0.000358343  0.0229917 -0.140854 0.000680923  0.0229704 -0.133221 0.000497341  0.0159545 -0.14024 0.00052762  0.0160444 -0.132602 0.000386238  0.0229597 -0.133071 0.000738382  0.0160402 -0.132451 0.000570297  0.0156649 -0.156153 0.000306129  0.0229037 -0.156632 0.000572443  0.0229834 -0.148835 0.000422955  0.0156602 -0.156028 0.000447035  0.015833 -0.148226 0.00033164  0.0229725 -0.148708 0.000625372  0.0158271 -0.148099 0.000486374  0.0152242 -0.172146 0.000258207  0.0226315 -0.172635 0.000474691  0.0228008 -0.164713 0.000355482  0.0152189 -0.172043 0.000374317  0.0154625 -0.164115 0.000281811  0.0227892 -0.164608 0.000522852  0.015457 -0.16401 0.000409842  0.0146565 -0.188298 0.000216007  0.0221999 -0.188793 0.000388145  0.0224459 -0.180782 0.000294924  0.0146511 -0.188211 0.00030899  0.0149565 -0.180195 0.00023675  0.0224345 -0.180697 0.000430107  0.0149497 -0.18011 0.0003407  0.0139811 -0.204546 0.000178814  0.0216308 -0.205047 0.000310659  0.0219426 -0.196978 0.000241518  0.0139756 -0.204477 0.00025177  0.0143321 -0.196402 0.000196934  0.0219312 -0.19691 0.000347614  0.0143259 -0.196334 0.000279188  0.013217 -0.220837 0.000147581  0.0209479 -0.221341 0.000244617  0.0213132 -0.213242 0.000194788  0.0132115 -0.220781 0.000202179  0.0136108 -0.212678 0.000162601  0.0213027 -0.21319 0.000276089  0.0136037 -0.212625 0.000226021  0.0123808 -0.237127 0.000121355  0.0201709 -0.237632 0.000189304  0.0205808 -0.229527 0.000155687  0.0123754 -0.237084 0.000160933  0.0128081 -0.228974 0.000133753  0.02057 -0.229488 0.00021553  0.0128016 -0.228934 0.000180483  0.0114889 -0.253375 9.94205e-05  0.019321 -0.253879 0.000142813  0.0197647 -0.24579 0.000123262  0.0114839 -0.253341 0.000126123  0.0119426 -0.245247 0.000109434  0.0197546 -0.245761 0.000164747  0.0119359 -0.245218 0.000142336  0.010555 -0.269551 8.29697e-05  0.018414 -0.270054 0.000108004  0.0188837 -0.261995 9.75132e-05  0.0105498 -0.269526 9.9659e-05  0.0110276 -0.261462 9.05991e-05  0.0188737 -0.261975 0.000124693  0.0110216 -0.261442 0.000112057  0.00959158 -0.285632 7.05719e-05  0.0174658 -0.286131 8.03471e-05  0.0179543 -0.278117 7.84397e-05  0.00958586 -0.285611 7.84397e-05  0.010078 -0.277593 7.65324e-05  0.0179443 -0.278104 9.32217e-05  0.0100713 -0.27758 8.86917e-05  0.00860929 -0.301603 6.03199e-05  0.0164914 -0.302101 5.84126e-05  0.0169904 -0.294138 6.34193e-05  0.00860381 -0.301585 6.1512e-05  0.00910282 -0.293621 6.55651e-05  0.0169811 -0.294128 6.8903e-05  0.00909638 -0.293611 6.96182e-05  0.00762987 -0.317451 5.07832e-05  0.0155158 -0.317958 3.55244e-05  0.0160115 -0.31005 5.05447e-05  0.00762463 -0.31743 4.41074e-05  0.00811934 -0.309532 5.55515e-05  0.0160015 -0.310041 4.72069e-05  0.00811219 -0.309522 5.29289e-05  0.0022144 -0.00430059 0.000861168  0 0 0  0.00298159 -0.0053848 0.00158072  0.00102764 -0.00272769 0.000560045  0 0 0  0.00224458 -0.00416481 0.00133538  0.000749417 -0.00192654 0.000469685  0 0 0  0.00103246 -0.00264931 0.000871658  0.000754952 -0.00186378 0.000733137  0.00619695 -0.0102828 0.00139832  0.00808483 -0.0114598 0.00253415  0.00541061 -0.00858563 0.00139213  0.00627345 -0.0100356 0.00214505  0.0040915 -0.00715631 0.00117588  0.00546414 -0.00836939 0.00214338  0.00414678 -0.00696939 0.00181293  0.0104425 -0.0172505 0.0016222  0.0131455 -0.018218 0.00291586  0.010578 -0.0149954 0.00182748  0.0105303 -0.0169381 0.00245976  0.0083454 -0.0136141 0.00154305  0.0106667 -0.0146909 0.00278306  0.00843194 -0.0133381 0.00235105  0.0143447 -0.0253934 0.00163841  0.0177348 -0.0262105 0.00293231  0.0154197 -0.0223897 0.0019567  0.0144134 -0.0250518 0.00246644  0.0124493 -0.0211552 0.00164795  0.0155039 -0.0220485 0.00295401  0.0125297 -0.0208334 0.00248837  0.0177731 -0.0347647 0.0015502  0.0217936 -0.0354903 0.00277138  0.0197715 -0.0310392 0.00190711  0.0178161 -0.0344217 0.00232577  0.0161211 -0.0299184 0.00160217  0.0198317 -0.0306923 0.00286555  0.0161757 -0.0295826 0.00240707  0.0207172 -0.0452906 0.00142002  0.025319 -0.0459608 0.00253844  0.023587 -0.0409171 0.00177312  0.0207395 -0.0449596 0.0021286  0.0193051 -0.0398794 0.00148773  0.0236222 -0.0405821 0.00265956  0.0193366 -0.03955 0.00223112  0.0231993 -0.0568613 0.0012784  0.0283309 -0.0575022 0.00228548  0.0268717 -0.0519177 0.00160909  0.0232075 -0.0565532 0.00191522  0.0220154 -0.0509424 0.00134969  0.0268878 -0.0516044 0.00241256  0.0220287 -0.0506312 0.00202274  0.0252504 -0.0693542 0.00113821  0.0308577 -0.0699767 0.00203371  0.0296491 -0.0639151 0.00143957  0.0252498 -0.0690716 0.00170541  0.0242774 -0.0629891 0.00120783  0.0296533 -0.0636284 0.00215816  0.0242803 -0.0627028 0.00180984  0.0269017 -0.08265 0.00100493  0.0329305 -0.0832639 0.00179291  0.0319526 -0.0767828 0.0012753  0.0268959 -0.082397 0.00150466  0.0261256 -0.0758983 0.00107098  0.0319488 -0.0765245 0.0019114  0.0261207 -0.0756395 0.00160408  0.0281845 -0.0966344 0.000880003  0.034583 -0.0972402 0.00156784  0.0338159 -0.0904 0.00112009  0.0281757 -0.0964088 0.00131702  0.0275882 -0.0895525 0.000941515  0.0338078 -0.0901707 0.00167799  0.0275799 -0.0893223 0.00140953  0.0291294 -0.111199 0.00076437  0.0358477 -0.111801 0.00135708  0.0352731 -0.104653 0.000975132  0.029119 -0.111003 0.00114226  0.0286987 -0.10384 0.000821114  0.035262 -0.104452 0.00146008  0.0286877 -0.103638 0.00122833  0.0297669 -0.126244 0.000657558  0.0367582 -0.126839 0.00116324  0.0363575 -0.119438 0.000841141  0.0297558 -0.126072 0.000981331  0.0294859 -0.118657 0.000709772  0.0363456 -0.119264 0.00125813  0.0294741 -0.118482 0.00106025  0.0301266 -0.141676 0.000559568  0.0373472 -0.142267 0.000985146  0.037104 -0.134656 0.000718117  0.0301148 -0.141531 0.000832796  0.0299813 -0.133906 0.000607729  0.037091 -0.134508 0.00107241  0.0299684 -0.133757 0.000905752  0.0302371 -0.157412 0.0004704  0.037647 -0.157994 0.000822306  0.037545 -0.15022 0.000605106  0.0302253 -0.157287 0.000697851  0.0302122 -0.1495 0.00051403  0.0375317 -0.150096 0.000901461  0.0301995 -0.149375 0.000763893  0.0301267 -0.173375 0.000389814  0.0376892 -0.17395 0.000674963  0.0377122 -0.166049 0.000502586  0.030115 -0.173272 0.000575066  0.0302092 -0.165359 0.000429153  0.0376986 -0.165946 0.000746965  0.0301962 -0.165254 0.000635147  0.0298235 -0.189495 0.00031805  0.0375059 -0.19006 0.000543594  0.0376377 -0.182071 0.000411034  0.0298121 -0.18941 0.000466108  0.0299988 -0.181408 0.000352859  0.0376241 -0.181987 0.000607491  0.0299863 -0.181323 0.000519037  0.0293531 -0.205713 0.000254869  0.0371263 -0.20627 0.000427246  0.0373521 -0.198221 0.000329256  0.0293427 -0.205646 0.000368834  0.0296092 -0.197585 0.000285387  0.037339 -0.198155 0.000483513  0.0295968 -0.197518 0.00041604  0.028743 -0.221976 0.000200748  0.0365798 -0.222522 0.00032711  0.0368845 -0.214442 0.000258684  0.0287333 -0.221922 0.000286579  0.0290651 -0.213832 0.000226736  0.0368726 -0.214391 0.000375271  0.0290539 -0.21378 0.000326157  0.0280173 -0.238238 0.000155687  0.0358958 -0.238774 0.000244379  0.0362656 -0.230686 0.000198841  0.028008 -0.238197 0.000216722  0.0283949 -0.230099 0.000177145  0.0362537 -0.230649 0.000284195  0.028384 -0.230061 0.000249863  0.0271997 -0.254461 0.000119209  0.0351028 -0.254986 0.00017643  0.0355232 -0.246912 0.000149727  0.0271907 -0.254428 0.000160217  0.0276198 -0.246346 0.000136375  0.0355122 -0.246885 0.000208378  0.0276096 -0.246318 0.00018692  0.0263126 -0.270615 9.10759e-05  0.0342267 -0.271131 0.000123739  0.0346849 -0.263085 0.000111103  0.0263035 -0.27059 0.000115871  0.0267653 -0.262537 0.000104189  0.0346735 -0.263066 0.000148773  0.0267549 -0.262518 0.000136852  0.0253751 -0.286676 7.03335e-05  0.0332913 -0.287183 8.4877e-05  0.033777 -0.27918 8.22544e-05  0.0253658 -0.286656 8.27312e-05  0.0258498 -0.278647 8.01086e-05  0.0337651 -0.279167 0.000103235  0.02584 -0.278634 9.82285e-05  0.0244048 -0.302638 5.4121e-05  0.0323193 -0.303142 5.50747e-05  0.0328212 -0.295181 6.07967e-05  0.0243955 -0.30262 5.55515e-05  0.0248945 -0.294659 6.17504e-05  0.032809 -0.295172 6.91414e-05  0.0248837 -0.29465 6.86646e-05  0.0234249 -0.318508 3.79086e-05  0.0313337 -0.319018 2.5034e-05  0.0318398 -0.311095 4.31538e-05  0.023416 -0.318488 2.98023e-05  0.0239151 -0.310572 4.62532e-05  0.0318267 -0.311085 4.02927e-05  0.023905 -0.310564 4.29153e-05  0.00426686 -0.0074119 0.0011847  0 0 0  0.00633214 -0.00951201 0.00209141  0.00269235 -0.00613111 0.000747681  0 0 0  0.00427985 -0.00722247 0.00183344  0.00144982 -0.00395852 0.000642061  0 0 0  0.00266594 -0.0059821 0.00116587  0.00144925 -0.00385982 0.000998735  0.0102126 -0.0134315 0.00190949  0.0128698 -0.0148885 0.00332212  0.00967534 -0.0123801 0.00182533  0.0102757 -0.0131174 0.00292516  0.00727014 -0.0103769 0.00160718  0.00967249 -0.0120762 0.00281453  0.0073057 -0.0101232 0.00247478  0.0159232 -0.0200341 0.00222158  0.0191638 -0.0212754 0.00382304  0.0159708 -0.0182864 0.00239182  0.0160132 -0.0196712 0.00336862  0.0131073 -0.0165738 0.00210953  0.0160378 -0.0179151 0.00364709  0.0131899 -0.0162379 0.00321341  0.0212033 -0.0278973 0.00225306  0.0250841 -0.0289887 0.00385237  0.0221032 -0.0253327 0.00256562  0.021283 -0.0275248 0.00339317  0.0186291 -0.0237877 0.00226212  0.0221907 -0.0249501 0.00387716  0.0187162 -0.0234264 0.00341654  0.0259299 -0.0370629 0.00213838  0.0304206 -0.0380593 0.00364804  0.0277543 -0.0337272 0.00250459  0.0259858 -0.0367041 0.00321174  0.0236399 -0.0323106 0.00220704  0.0278311 -0.0333581 0.00376773  0.0237076 -0.0319532 0.00331855  0.030069 -0.0474346 0.00196218  0.0351219 -0.0483657 0.0033462  0.0327961 -0.0434105 0.00233293  0.0301036 -0.0470971 0.00294399  0.028074 -0.0420954 0.00205445  0.0328511 -0.0430654 0.00350285  0.0281176 -0.0417556 0.00308347  0.0336301 -0.0588834 0.00176692  0.0391901 -0.0597667 0.00301361  0.037196 -0.0542536 0.00211978  0.0336487 -0.0585745 0.00265098  0.031921 -0.0530225 0.00186563  0.0372341 -0.0539379 0.0031805  0.0319465 -0.0527081 0.00279856  0.0366411 -0.0712746 0.00157261  0.042653 -0.0721199 0.00268316  0.0409708 -0.0661177 0.0018971  0.0366491 -0.0709938 0.00235844  0.0352035 -0.0649592 0.00166965  0.0409945 -0.0658323 0.00284624  0.0352151 -0.0646731 0.00250387  0.039137 -0.0844812 0.0013864  0.0455464 -0.0852948 0.00236487  0.0441529 -0.0788667 0.00168061  0.0391384 -0.0842311 0.00207925  0.0379519 -0.0777735 0.00147843  0.0441688 -0.0786126 0.00252056  0.0379556 -0.0775171 0.00221705  0.0411552 -0.0983829 0.0012114  0.04791 -0.0991675 0.00206518  0.0467829 -0.0923756 0.00147462  0.0411528 -0.0981607 0.0018158  0.040205 -0.0913422 0.00129747  0.0467916 -0.0921509 0.00221133  0.0402029 -0.0911152 0.00194526  0.0427325 -0.11287 0.0010488  0.0497835 -0.113628 0.00178623  0.0489004 -0.106526 0.00128222  0.0427277 -0.112678 0.00157142  0.0419974 -0.10555 0.00112844  0.0489058 -0.106331 0.00192165  0.041993 -0.105352 0.00169134  0.0439068 -0.127841 0.000898361  0.0512073 -0.128571 0.00152731  0.0505461 -0.121213 0.0011034  0.0439013 -0.127673 0.00134444  0.0433693 -0.120291 0.000972033  0.0505489 -0.121045 0.00165296  0.0433626 -0.12012 0.00145555  0.0447158 -0.143202 0.000760555  0.0522211 -0.143905 0.00128984  0.0517614 -0.136338 0.000938892  0.044709 -0.14306 0.00113726  0.044356 -0.135468 0.000828028  0.0517631 -0.136195 0.001405  0.0443487 -0.135322 0.00123858  0.0451947 -0.158868 0.00063467  0.0528647 -0.159545 0.00107288  0.0525875 -0.151812 0.000788689  0.045187 -0.158747 0.00094676  0.0449958 -0.150992 0.000696421  0.0525863 -0.151692 0.00117803  0.044987 -0.150869 0.00103974  0.0453786 -0.174765 0.000520945  0.053177 -0.175415 0.00087595  0.0530612 -0.167553 0.000650644  0.0453707 -0.174666 0.00077486  0.0453223 -0.166782 0.000576258  0.0530601 -0.167456 0.000970602  0.0453138 -0.166682 0.000858545  0.0453029 -0.190822 0.000419378  0.053196 -0.191445 0.000700474  0.0532238 -0.183492 0.00052762  0.0452952 -0.19074 0.000620842  0.0453726 -0.182767 0.000468493  0.0532204 -0.183414 0.000784397  0.0453633 -0.182686 0.000695467  0.0450013 -0.20698 0.00033021  0.0529594 -0.207578 0.000545263  0.0531111 -0.199564 0.000418663  0.0449936 -0.206916 0.000485659  0.0451794 -0.198881 0.000373363  0.0531075 -0.199503 0.000619173  0.0451708 -0.198818 0.000550985  0.0445075 -0.223187 0.000253677  0.0525048 -0.22376 0.000412226  0.0527623 -0.215712 0.000323534  0.0444996 -0.223136 0.000368834  0.0447781 -0.21507 0.000290394  0.052757 -0.215666 0.000475168  0.0447686 -0.215022 0.000424862  0.0438538 -0.239399 0.000190258  0.0518672 -0.239949 0.000300884  0.052212 -0.23189 0.000243187  0.0438457 -0.23936 0.000272036  0.0441997 -0.231285 0.000220299  0.0522068 -0.231856 0.000353098  0.0441909 -0.231249 0.00031805  0.0430727 -0.255577 0.000139236  0.0510826 -0.256105 0.000211477  0.0514977 -0.248055 0.00017786  0.0430641 -0.255547 0.000192881  0.0434792 -0.247483 0.000163078  0.0514908 -0.248033 0.000252485  0.0434692 -0.247459 0.000230312  0.0421946 -0.271693 0.000100136  0.0501873 -0.272204 0.00014329  0.0506544 -0.264178 0.0001266  0.0421855 -0.271671 0.000133038  0.0426445 -0.263634 0.000118256  0.0506463 -0.264164 0.000173569  0.0426352 -0.263617 0.000160694  0.0412514 -0.287727 7.1764e-05  0.0492179 -0.288225 9.34601e-05  0.0497205 -0.280235 8.89301e-05  0.0412412 -0.287708 8.82149e-05  0.0417309 -0.279711 8.4877e-05  0.0497093 -0.280225 0.000115395  0.0417202 -0.2797 0.000108957  0.0402694 -0.303675 5.10216e-05  0.0482118 -0.304169 5.8651e-05  0.0487301 -0.296213 6.19888e-05  0.0402577 -0.303659 5.55515e-05  0.0407646 -0.295701 6.07967e-05  0.0487175 -0.296206 7.39098e-05  0.0407526 -0.295693 7.08103e-05  0.0392723 -0.31956 3.12328e-05  0.0471971 -0.320056 2.64645e-05  0.0477207 -0.312125 4.26769e-05  0.0392604 -0.319541 2.40803e-05  0.039773 -0.311612 4.14848e-05  0.0477045 -0.312117 4.19617e-05  0.0397599 -0.311605 4.00543e-05  -0.00653554 -0.00917293 -0.000700712  -0.00288993 -0.00579024 1.43051e-06  0 0 0  -0.00422192 -0.0068894 3.33786e-06  0 0 0  -0.00281011 -0.00500212 -0.000519991  -0.00099083 -0.00239124 1.43051e-06  0 0 0  -0.0028801 -0.00575442 -0.000389099  -0.00421873 -0.00684192 -0.000609636  -0.00144904 -0.00358237 1.43051e-06  0 0 0  -0.000989612 -0.0023743 -0.000285625  -0.00144591 -0.00356124 -0.000331402  -0.0129829 -0.0143097 -0.00111985  -0.00982833 -0.0116991 5.00679e-06  -0.010123 -0.0126397 5.96046e-06  -0.00777507 -0.0109402 -0.000846386  -0.00519915 -0.00797167 4.05312e-06  -0.00981849 -0.0116292 -0.000944138  -0.0101269 -0.0125651 -0.000982523  -0.00718777 -0.00972164 4.52995e-06  -0.00520438 -0.00792687 -0.000709295  -0.00718769 -0.00966662 -0.000826597  -0.0193112 -0.0203069 -0.00130296  -0.0161404 -0.0172487 8.58307e-06  -0.0159 -0.0188924 9.53674e-06  -0.0128675 -0.0174697 -0.000983953  -0.0103365 -0.0141338 6.67572e-06  -0.0161428 -0.0171631 -0.00123835  -0.0159093 -0.0188052 -0.00114393  -0.0130317 -0.0156188 7.39098e-06  -0.0103477 -0.0140693 -0.000934601  -0.0130392 -0.015545 -0.00108671  -0.0254777 -0.0274975 -0.00131702  -0.0224225 -0.0238184 1.26362e-05  -0.0214198 -0.0263301 1.38283e-05  -0.017693 -0.0251438 -0.000995159  -0.0153064 -0.0212238 1.04904e-05  -0.022433 -0.0237314 -0.00132728  -0.021428 -0.026242 -0.00115633  -0.0186999 -0.022442 1.12057e-05  -0.0153175 -0.021151 -0.00100136  -0.0187102 -0.0223624 -0.00116444  -0.0312617 -0.0359674 -0.00124121  -0.0284163 -0.0316545 1.71661e-05  -0.0265759 -0.0350182 1.81198e-05  -0.0221899 -0.0340383 -0.000933647  -0.0199779 -0.0295132 1.43051e-05  -0.0284247 -0.0315731 -0.00128698  -0.0265787 -0.0349337 -0.00108647  -0.0240468 -0.0305109 1.57356e-05  -0.0199842 -0.0294396 -0.000969172  -0.0240529 -0.0304331 -0.0011282  -0.0365884 -0.0456399 -0.00112057  -0.0339788 -0.0407345 2.19345e-05  -0.0313306 -0.0448823 2.26498e-05  -0.0263444 -0.0440842 -0.000841379  -0.0243096 -0.0389923 1.85966e-05  -0.0339834 -0.0406609 -0.00118399  -0.0313283 -0.0448045 -0.000981092  -0.029003 -0.039801 2.00272e-05  -0.024309 -0.0389223 -0.000888348  -0.0290039 -0.0397283 -0.00103664  -0.0414526 -0.056392 -0.000990629  -0.0390777 -0.0509551 2.67029e-05  -0.0356891 -0.0558064 2.69413e-05  -0.0301697 -0.0551735 -0.000741005  -0.0283018 -0.0495686 2.19345e-05  -0.0390773 -0.0508897 -0.00105762  -0.0356825 -0.0557351 -0.000865698  -0.0335578 -0.0502099 2.43187e-05  -0.0282969 -0.049504 -0.000791073  -0.0335536 -0.0501441 -0.000924349  -0.0458804 -0.0681076 -0.000861645  -0.0437217 -0.0621964 3.19481e-05  -0.0396746 -0.0676742 3.17097e-05  -0.0336893 -0.0671903 -0.000642776  -0.0319743 -0.0611291 2.67029e-05  -0.0437189 -0.0621386 -0.000926495  -0.0396655 -0.0676104 -0.000751972  -0.0377256 -0.0616204 2.90871e-05  -0.0319656 -0.0610712 -0.00069046  -0.0377185 -0.0615616 -0.000808716  -0.0499045 -0.0806646 -0.00074172  -0.0479467 -0.0743394 3.74317e-05  -0.0433165 -0.0803709 3.67165e-05  -0.0369278 -0.0800238 -0.000548124  -0.035352 -0.0735611 3.14713e-05  -0.047941 -0.0742887 -0.000801563  -0.0433056 -0.0803135 -0.000644684  -0.0415362 -0.0739164 3.43323e-05  -0.0353421 -0.0735099 -0.000594378  -0.0415267 -0.0738646 -0.000697613  -0.0535564 -0.0939593 -0.000629425  -0.0517805 -0.0872716 4.14848e-05  -0.0466415 -0.0937899 4.14848e-05  -0.0399079 -0.0935671 -0.000463963  -0.0384592 -0.086756 3.57628e-05  -0.0517749 -0.0872279 -0.000685215  -0.0466305 -0.0937395 -0.000545979  -0.0450155 -0.0869874 3.88622e-05  -0.0384483 -0.0867114 -0.000505209  -0.0450058 -0.0869422 -0.000594854  -0.056865 -0.107884 -0.000527143  -0.0552584 -0.100887 4.62532e-05  -0.0496743 -0.107829 4.62532e-05  -0.0426484 -0.107721 -0.000385046  -0.0413175 -0.10061 4.05312e-05  -0.0552523 -0.10085 -0.000577688  -0.0496634 -0.107784 -0.000455379  -0.0481923 -0.100728 4.36306e-05  -0.041307 -0.100572 -0.000423431  -0.0481819 -0.10069 -0.000500202  -0.0598571 -0.122349 -0.000431538  -0.0584044 -0.115087 5.17368e-05  -0.0524369 -0.122394 5.126e-05  -0.0451669 -0.122389 -0.000315666  -0.0439441 -0.115027 4.50611e-05  -0.0583988 -0.115056 -0.000479221  -0.0524265 -0.122356 -0.00037241  -0.0510868 -0.115042 4.86374e-05  -0.0439339 -0.114994 -0.000348568  -0.0510772 -0.11501 -0.000413656  -0.0625548 -0.137259 -0.000346422  -0.0612472 -0.129779 5.72205e-05  -0.0549486 -0.137397 5.62668e-05  -0.0474776 -0.137485 -0.000248194  -0.0463562 -0.129914 4.98295e-05  -0.0612416 -0.129754 -0.000388861  -0.0549386 -0.137363 -0.000296831  -0.053722 -0.129837 5.34058e-05  -0.0463473 -0.129887 -0.000280142  -0.0537128 -0.12981 -0.000334501  -0.0649809 -0.152537 -0.000267982  -0.0638047 -0.144879 6.22272e-05  -0.0572267 -0.152756 6.12736e-05  -0.0495949 -0.152925 -0.000190258  -0.0485671 -0.145187 5.48363e-05  -0.0638 -0.144858 -0.000307322  -0.0572183 -0.152727 -0.000228643  -0.056114 -0.145027 5.8651e-05  -0.0485588 -0.145165 -0.000218153  -0.0561063 -0.145005 -0.00026226  -0.0671561 -0.168103 -0.000197649  -0.0661032 -0.160306 6.74725e-05  -0.0592901 -0.168393 6.62804e-05  -0.0515326 -0.168635 -0.000135422  -0.0505918 -0.160767 5.98431e-05  -0.0660992 -0.160289 -0.000232935  -0.0592819 -0.168368 -0.000166416  -0.0582837 -0.160534 6.36578e-05  -0.0505856 -0.160749 -0.000161409  -0.0582758 -0.160516 -0.000196934  -0.0691022 -0.183891 -0.000134468  -0.0681598 -0.175987 7.29561e-05  -0.0611556 -0.18424 7.12872e-05  -0.0533042 -0.184544 -8.89301e-05  -0.0524442 -0.17658 6.46114e-05  -0.0681561 -0.175974 -0.000166416  -0.0611483 -0.18422 -0.000111103  -0.0602449 -0.176285 6.86646e-05  -0.0524377 -0.176567 -0.000110865  -0.0602385 -0.176271 -0.000138521  -0.0708406 -0.199832 -7.96318e-05  -0.0700003 -0.191855 7.79629e-05  -0.0628414 -0.200234 7.62939e-05  -0.0549242 -0.200591 -4.50611e-05  -0.0541375 -0.192562 6.93798e-05  -0.0699962 -0.191846 -0.000106812  -0.0628347 -0.200216 -6.19888e-05  -0.0620191 -0.192213 7.39098e-05  -0.054132 -0.192552 -6.55651e-05  -0.0620129 -0.192202 -8.60691e-05  -0.0723937 -0.215877 -3.09944e-05  -0.0716403 -0.207852 8.29697e-05  -0.0643661 -0.216319 8.15392e-05  -0.0564079 -0.216719 -1.00136e-05  -0.0556862 -0.208653 7.4625e-05  -0.0716383 -0.207846 -5.53131e-05  -0.0643601 -0.216304 -1.95503e-05  -0.063621 -0.208259 7.84397e-05  -0.0556817 -0.208646 -2.57492e-05  -0.0636163 -0.208251 -4.07696e-05  -0.0737853 -0.231969 8.10623e-06  -0.0731103 -0.223923 8.79765e-05  -0.0657504 -0.232445 8.60691e-05  -0.057771 -0.23288 2.19345e-05  -0.0571072 -0.224801 7.89165e-05  -0.073108 -0.22392 -1.09673e-05  -0.0657446 -0.232432 1.62125e-05  -0.0650735 -0.22437 8.34465e-05  -0.0571034 -0.224796 7.62939e-06  -0.0650687 -0.224365 -1.43051e-06  -0.0750415 -0.248072 4.22001e-05  -0.0744298 -0.240024 9.32217e-05  -0.0670149 -0.248571 9.08375e-05  -0.0590303 -0.249032 4.72069e-05  -0.0584149 -0.24096 8.41618e-05  -0.0744286 -0.240022 2.57492e-05  -0.0670102 -0.248561 4.55379e-05  -0.0663943 -0.240501 8.84533e-05  -0.0584116 -0.240958 3.67165e-05  -0.0663908 -0.240498 3.12328e-05  -0.0761888 -0.264145 6.77109e-05  -0.0756295 -0.256113 9.799e-05  -0.0681829 -0.26466 9.56059e-05  -0.0602043 -0.26514 6.84261e-05  -0.0596294 -0.257092 8.86917e-05  -0.0756273 -0.256114 5.53131e-05  -0.0681784 -0.264651 6.91414e-05  -0.0676086 -0.256612 9.32217e-05  -0.0596271 -0.257091 5.96046e-05  -0.067605 -0.256611 5.74589e-05  -0.0772576 -0.280167 8.84533e-05  -0.0767329 -0.272163 0.000102282  -0.0692785 -0.280688 0.000100136  -0.0613117 -0.281178 8.44002e-05  -0.0607667 -0.273166 9.32217e-05  -0.076731 -0.272164 7.82013e-05  -0.0692737 -0.28068 8.72612e-05  -0.068737 -0.272673 9.77516e-05  -0.0607648 -0.273167 7.82013e-05  -0.0687335 -0.272674 7.84397e-05  -0.0782833 -0.296123 0.000102758  -0.0777771 -0.288151 0.000106573  -0.0703261 -0.296642 0.000104189  -0.0623701 -0.297134 9.89437e-05  -0.0618477 -0.289163 9.70364e-05  -0.0777738 -0.288154 9.53674e-05  -0.0703206 -0.296634 0.000101566  -0.0698056 -0.288664 0.000101805  -0.0618455 -0.289164 9.2268e-05  -0.0698013 -0.288665 9.41753e-05  -0.0792992 -0.312035 0.000117064  -0.0787942 -0.304081 0.000111103  -0.071353 -0.312541 0.000108719  -0.0634062 -0.313021 0.000110388  -0.0628915 -0.305082 0.000101805  -0.0787907 -0.304083 0.000109673  -0.0713482 -0.312533 0.000115156  -0.0708387 -0.304586 0.000106096  -0.0628877 -0.305083 0.000105381  -0.0708349 -0.304587 0.000107765  -0.00205622 -0.00387245 2.86102e-06  0 0 0  -0.00146697 -0.00306429 -0.000348568  -0.000512313 -0.00118564 1.19209e-06  0 0 0  -0.00205819 -0.00383891 -0.000433922  -0.000695419 -0.0016558 1.43051e-06  0 0 0  -0.000511743 -0.00117448 -0.000189066  -0.000694077 -0.00164291 -0.000235558  -0.00588472 -0.00963734 4.52995e-06  -0.00433092 -0.0085384 -0.000570536  -0.00277413 -0.00564386 2.86102e-06  -0.00589362 -0.00957939 -0.000709057  -0.00384128 -0.0066098 3.8147e-06  -0.00277956 -0.00561263 -0.000478029  -0.00384735 -0.00657323 -0.000593662  -0.0101309 -0.016402 8.10623e-06  -0.00770721 -0.0154015 -0.000665188  -0.0059925 -0.0118685 5.48363e-06  -0.0101416 -0.0163299 -0.00082612  -0.00800914 -0.0128718 6.19888e-06  -0.00600275 -0.0118189 -0.000631571  -0.00801969 -0.0128156 -0.000784397  -0.01423 -0.0242903 1.14441e-05  -0.0110343 -0.0234576 -0.000669479  -0.00938326 -0.0193394 8.82149e-06  -0.0142365 -0.024212 -0.000832796  -0.0122093 -0.0201847 9.05991e-06  -0.00939208 -0.0192784 -0.000674725  -0.0122191 -0.0201185 -0.000839472  -0.0180612 -0.0333653 1.4782e-05  -0.0141602 -0.0326886 -0.000624657  -0.0126209 -0.0279935 1.14441e-05  -0.018061 -0.0332872 -0.000779629  -0.0161806 -0.0286708 1.26362e-05  -0.012624 -0.0279283 -0.000650406  -0.0161844 -0.028602 -0.000810862  -0.0216104 -0.0435626 1.83582e-05  -0.0170738 -0.0430238 -0.000559568  -0.0156451 -0.0377869 1.50204e-05  -0.0216044 -0.0434877 -0.000700474  -0.0198693 -0.0383182 1.66893e-05  -0.0156425 -0.0377221 -0.000593185  -0.0198669 -0.0382513 -0.000741482  -0.0248942 -0.0547847 2.19345e-05  -0.0197938 -0.0543699 -0.00048995  -0.0184634 -0.0486363 1.7643e-05  -0.0248847 -0.0547157 -0.000615835  -0.0232834 -0.0490411 2.02656e-05  -0.0184565 -0.0485754 -0.000525475  -0.0232759 -0.0489789 -0.000658035  -0.0279368 -0.0669198 2.6226e-05  -0.0223409 -0.0666184 -0.000422478  -0.0210971 -0.0604418 2.12193e-05  -0.0279248 -0.0668566 -0.00053215  -0.0264433 -0.0607333 2.38419e-05  -0.0210876 -0.0603862 -0.000456095  -0.0264332 -0.0606771 -0.000573874  -0.0307591 -0.0798612 3.0756e-05  -0.024732 -0.079665 -0.000359297  -0.0235655 -0.0730962 2.55108e-05  -0.0307461 -0.0798049 -0.000454187  -0.0293734 -0.0732848 2.83718e-05  -0.0235548 -0.0730468 -0.000390053  -0.0293615 -0.073235 -0.000492334  -0.0333794 -0.0935026 3.52859e-05  -0.0269798 -0.0934032 -0.000300169  -0.0258838 -0.0864952 2.98023e-05  -0.0333661 -0.0934521 -0.000381708  -0.032092 -0.0865889 3.29018e-05  -0.0258728 -0.0864521 -0.000328541  -0.0320801 -0.0865456 -0.000416994  -0.0358126 -0.107746 3.98159e-05  -0.029094 -0.107736 -0.000245571  -0.0280632 -0.100537 3.40939e-05  -0.0358 -0.107702 -0.000315905  -0.0346178 -0.100544 3.74317e-05  -0.0280529 -0.1005 -0.000272274  -0.0346054 -0.100506 -0.000347853  -0.0380712 -0.122495 4.43459e-05  -0.031082 -0.122567 -0.000196695  -0.0301126 -0.115125 3.86238e-05  -0.038059 -0.122456 -0.000255108  -0.0369616 -0.115051 4.19617e-05  -0.0301031 -0.115093 -0.000220537  -0.0369503 -0.11502 -0.000284672  -0.0401659 -0.137664 4.91142e-05  -0.0329505 -0.13781 -0.000152349  -0.0320396 -0.130167 4.31538e-05  -0.0401547 -0.137631 -0.000200272  -0.0391372 -0.130021 4.673e-05  -0.0320307 -0.130141 -0.000173807  -0.0391265 -0.129995 -0.000226974  -0.0421066 -0.153169 5.4121e-05  -0.0347053 -0.15338 -0.000111341  -0.0338497 -0.145578 4.79221e-05  -0.0420967 -0.15314 -0.000149727  -0.0411533 -0.145368 5.126e-05  -0.0338414 -0.145557 -0.000130892  -0.0411441 -0.145346 -0.000174522  -0.0439039 -0.168935 5.84126e-05  -0.0363524 -0.169205 -7.51019e-05  -0.0355487 -0.16128 5.17368e-05  -0.0438949 -0.168911 -0.000105381  -0.0430218 -0.161012 5.57899e-05  -0.0355419 -0.161263 -9.27448e-05  -0.043013 -0.160996 -0.000127316  -0.045567 -0.184893 6.31809e-05  -0.0378975 -0.185212 -4.22001e-05  -0.037143 -0.177201 5.67436e-05  -0.0455588 -0.184872 -6.46114e-05  -0.0447501 -0.176883 6.05583e-05  -0.0371369 -0.177188 -5.76973e-05  -0.0447427 -0.17687 -8.44002e-05  -0.0471072 -0.200982 6.77109e-05  -0.0393476 -0.201343 -1.23978e-05  -0.0386388 -0.193274 6.12736e-05  -0.0470998 -0.200964 -2.90871e-05  -0.0463507 -0.192913 6.53267e-05  -0.0386338 -0.193264 -2.67029e-05  -0.0463438 -0.192904 -4.64916e-05  -0.0485349 -0.217143 7.22408e-05  -0.0407109 -0.21754 1.43051e-05  -0.0400431 -0.209441 6.60419e-05  -0.048528 -0.217128 2.14577e-06  -0.0478325 -0.209045 7.00951e-05  -0.0400393 -0.209435 7.15256e-07  -0.047827 -0.209038 -1.26362e-05  -0.0498629 -0.233332 7.72476e-05  -0.0419943 -0.233757 3.48091e-05  -0.0413654 -0.225651 7.05719e-05  -0.0498569 -0.23332 2.86102e-05  -0.0492094 -0.225225 7.48634e-05  -0.0413616 -0.225647 2.43187e-05  -0.0492039 -0.225222 1.5974e-05  -0.0511036 -0.249504 8.17776e-05  -0.0432076 -0.249952 5.29289e-05  -0.0426123 -0.241859 7.48634e-05  -0.0510983 -0.249493 5.10216e-05  -0.0504916 -0.241411 7.93934e-05  -0.042609 -0.241858 4.45843e-05  -0.0504875 -0.241409 4.05312e-05  -0.0522707 -0.265627 8.65459e-05  -0.0443592 -0.266092 6.81877e-05  -0.0437932 -0.258028 7.9155e-05  -0.0522659 -0.265618 6.86646e-05  -0.0516944 -0.257561 8.36849e-05  -0.0437903 -0.258029 6.10352e-05  -0.0516903 -0.257562 6.00815e-05  -0.0533779 -0.281674 9.05991e-05  -0.0454583 -0.28215 8.01086e-05  -0.0449159 -0.274129 8.36849e-05  -0.0533733 -0.281666 8.32081e-05  -0.0528295 -0.273649 8.84533e-05  -0.0449147 -0.27413 7.4625e-05  -0.0528259 -0.273651 7.62939e-05  -0.0544391 -0.297633 9.48906e-05  -0.0465174 -0.298115 9.10759e-05  -0.045994 -0.290141 8.7738e-05  -0.0544343 -0.297626 9.5129e-05  -0.0539117 -0.289653 9.27448e-05  -0.0459919 -0.290143 8.58307e-05  -0.0539083 -0.289656 8.9407e-05  -0.0554786 -0.31351 9.91821e-05  -0.0475562 -0.313977 0.000101089  -0.0470381 -0.306054 9.2268e-05  -0.0554731 -0.313501 0.000107288  -0.0549572 -0.30557 9.70364e-05  -0.0470366 -0.306057 9.63211e-05  -0.0549538 -0.305572 0.000101089  -0.00100685 -0.00259301 2.14577e-06  0 0 0  -0.000619382 -0.00226128 -0.000175714  -0.000215214 -0.000720799 9.53674e-07  0 0 0  -0.00100791 -0.00256556 -0.000261784  -0.000344146 -0.000891447 9.53674e-07  0 0 0  -0.000215054 -0.000712126 -9.44138e-05  -0.000343494 -0.000882417 -0.000142097  -0.00303708 -0.00784987 3.8147e-06  -0.00189507 -0.00733706 -0.000288963  -0.00119047 -0.00456548 2.14577e-06  -0.00304322 -0.00780323 -0.000430584  -0.00192675 -0.00497991 2.6226e-06  -0.00119288 -0.00454065 -0.000240564  -0.00193058 -0.00495246 -0.00036025  -0.00551999 -0.0147689 6.19888e-06  -0.00351411 -0.0142514 -0.00033617  -0.00267586 -0.0106538 3.8147e-06  -0.00552681 -0.0147069 -0.000501871  -0.00425377 -0.0111313 4.76837e-06  -0.00268117 -0.0106118 -0.000319242  -0.00426129 -0.0110863 -0.000477314  -0.00804085 -0.0229636 8.58307e-06  -0.00521389 -0.0225264 -0.000337362  -0.00436065 -0.0182885 6.4373e-06  -0.00804403 -0.022893 -0.000504255  -0.00678936 -0.0187049 7.62939e-06  -0.00436416 -0.0182338 -0.000340223  -0.00679508 -0.0186477 -0.000508785  -0.0104493 -0.0323261 1.14441e-05  -0.00687933 -0.0319838 -0.000311852  -0.00605369 -0.0271737 8.10623e-06  -0.0104467 -0.0322524 -0.000468254  -0.00926125 -0.0274923 9.53674e-06  -0.00605321 -0.0271122 -0.000326157  -0.00926232 -0.0274295 -0.000489473  -0.0127223 -0.0427708 1.4782e-05  -0.00849092 -0.0425182 -0.000277281  -0.0076952 -0.0371816 1.14441e-05  -0.0127155 -0.0426988 -0.000418425  -0.0116014 -0.0374062 1.33514e-05  -0.00769132 -0.037119 -0.00029397  -0.011597 -0.037343 -0.000444174  -0.0148735 -0.0542123 1.78814e-05  -0.0100575 -0.054043 -0.000238895  -0.00928545 -0.0482208 1.38283e-05  -0.0148638 -0.0541441 -0.000363827  -0.0138113 -0.0483614 1.62125e-05  -0.00927877 -0.0481605 -0.000257015  -0.0138036 -0.0483011 -0.000391483  -0.0169183 -0.0665444 2.09808e-05  -0.0115886 -0.0664535 -0.000201225  -0.010835 -0.0601968 1.69277e-05  -0.016907 -0.0664819 -0.000312328  -0.0159073 -0.0602614 1.90735e-05  -0.0108268 -0.060141 -0.000219107  -0.0158975 -0.0602058 -0.000338316  -0.0188696 -0.079669 2.5034e-05  -0.0130907 -0.0796522 -0.00016737  -0.0123518 -0.073009 2.0504e-05  -0.0188575 -0.0796123 -0.000262499  -0.017904 -0.0730026 2.31266e-05  -0.0123427 -0.0729584 -0.000183582  -0.0178932 -0.072953 -0.000287056  -0.0207344 -0.0934772 2.88486e-05  -0.014565 -0.0935303 -0.000135422  -0.0138402 -0.0865541 2.43187e-05  -0.0207225 -0.0934272 -0.000217915  -0.0198113 -0.0864819 2.69413e-05  -0.013831 -0.0865096 -0.000150204  -0.0198001 -0.0864383 -0.000239849  -0.0225184 -0.107876 3.33786e-05  -0.0160124 -0.107994 -0.000106096  -0.0153 -0.100732 2.7895e-05  -0.0225072 -0.107832 -0.000175476  -0.0216352 -0.100598 3.09944e-05  -0.0152919 -0.100693 -0.000120401  -0.0216244 -0.10056 -0.000196457  -0.0242245 -0.122766 3.74317e-05  -0.0174305 -0.122944 -8.03471e-05  -0.0167321 -0.115444 3.19481e-05  -0.0242141 -0.122727 -0.000138283  -0.0233799 -0.115254 3.55244e-05  -0.0167248 -0.115411 -9.2268e-05  -0.02337 -0.115222 -0.000156641  -0.0258557 -0.138063 4.22001e-05  -0.0188178 -0.138295 -5.60284e-05  -0.0181345 -0.1306 3.57628e-05  -0.0258458 -0.13803 -0.000103235  -0.025048 -0.130358 3.93391e-05  -0.0181277 -0.130572 -6.7234e-05  -0.025039 -0.130331 -0.00012064  -0.0274127 -0.153681 4.60148e-05  -0.020171 -0.153961 -3.3617e-05  -0.0195044 -0.146114 4.00543e-05  -0.027404 -0.153652 -7.24792e-05  -0.0266418 -0.145825 4.41074e-05  -0.0194983 -0.146091 -4.3869e-05  -0.0266337 -0.145803 -8.7738e-05  -0.0288985 -0.169548 5.05447e-05  -0.0214897 -0.169871 -1.38283e-05  -0.02084 -0.161906 4.48227e-05  -0.0288903 -0.169523 -4.3869e-05  -0.0281633 -0.161576 4.79221e-05  -0.0208347 -0.161888 -2.26498e-05  -0.0281556 -0.161559 -5.81741e-05  -0.0303144 -0.185591 5.53131e-05  -0.022771 -0.185951 4.76837e-06  -0.0221394 -0.177906 4.86374e-05  -0.0303072 -0.18557 -1.83582e-05  -0.0296136 -0.17754 5.26905e-05  -0.0221347 -0.177891 -3.8147e-06  -0.0296069 -0.177526 -3.09944e-05  -0.0316644 -0.201753 5.96046e-05  -0.0240149 -0.202145 2.14577e-05  -0.0234017 -0.194046 5.31673e-05  -0.0316582 -0.201735 4.52995e-06  -0.0309961 -0.19365 5.74589e-05  -0.0233974 -0.194035 1.35899e-05  -0.0309906 -0.19364 -6.67572e-06  -0.0329514 -0.217974 6.41346e-05  -0.0252213 -0.218392 3.52859e-05  -0.0246258 -0.21027 5.76973e-05  -0.0329459 -0.21796 2.38419e-05  -0.0323138 -0.209848 6.17504e-05  -0.0246222 -0.210262 2.88486e-05  -0.0323095 -0.209841 1.43051e-05  -0.0341806 -0.234212 6.86646e-05  -0.0263908 -0.234651 4.79221e-05  -0.0258126 -0.226526 6.17504e-05  -0.0341756 -0.2342 4.17233e-05  -0.0335712 -0.226083 6.62804e-05  -0.0258102 -0.226521 4.17233e-05  -0.0335674 -0.226079 3.31402e-05  -0.0353568 -0.250422 7.27177e-05  -0.0275242 -0.250878 5.81741e-05  -0.0269628 -0.242771 6.62804e-05  -0.035352 -0.250412 5.57899e-05  -0.0347738 -0.242311 7.05719e-05  -0.0269613 -0.242768 5.38826e-05  -0.0347698 -0.242309 4.86374e-05  -0.0364847 -0.266575 7.65324e-05  -0.0286238 -0.267044 6.7234e-05  -0.0280793 -0.258969 6.96182e-05  -0.0364804 -0.266566 6.77109e-05  -0.0359249 -0.258496 7.4625e-05  -0.0280778 -0.258968 6.24657e-05  -0.0359216 -0.258496 6.17504e-05  -0.03757 -0.282642 8.10623e-05  -0.0296915 -0.283119 7.53403e-05  -0.0291626 -0.275091 7.41482e-05  -0.0375662 -0.282634 7.77245e-05  -0.0370314 -0.274608 7.9155e-05  -0.0291612 -0.275091 7.15256e-05  -0.0370278 -0.27461 7.29561e-05  -0.0386221 -0.29861 8.51154e-05  -0.0307338 -0.29909 8.2016e-05  -0.0302162 -0.291116 7.86781e-05  -0.0386178 -0.298602 8.70228e-05  -0.0380981 -0.290628 8.34465e-05  -0.0302153 -0.291117 7.89165e-05  -0.0380955 -0.29063 8.24928e-05  -0.039655 -0.31446 8.9407e-05  -0.0317593 -0.31493 8.86917e-05  -0.0312479 -0.307024 8.24928e-05  -0.0396512 -0.314452 9.53674e-05  -0.0391378 -0.306538 8.72612e-05  -0.0312467 -0.307025 8.55923e-05  -0.0391347 -0.306541 9.08375e-05  -0.000267707 -0.0021373 9.53674e-07  0 0 0  6.39856e-05 -0.00210121 1.43051e-06  2.20686e-05 -0.000632554 0  0 0 0  -0.000267923 -0.00211388 -8.70228e-05  -9.18508e-05 -0.000638217 4.76837e-07  0 0 0  2.20016e-05 -0.000626057 9.53674e-07  -9.14149e-05 -0.000631601 -4.673e-05  -0.000845328 -0.00714648 2.38419e-06  0.000161618 -0.00709075 1.90735e-06  0.000113264 -0.00434145 1.43051e-06  -0.000846028 -0.00710604 -0.00014329  -0.000523031 -0.00435936 1.90735e-06  0.000114277 -0.00432098 2.14577e-06  -0.000523761 -0.00433755 -0.000119209  -0.00162515 -0.0140836 4.05312e-06  0.000208706 -0.0140317 7.15256e-07  0.000192881 -0.0104059 2.38419e-06  -0.00162542 -0.0140277 -0.000168085  -0.00121725 -0.0104151 3.09944e-06  0.000194937 -0.0103689 9.53674e-07  -0.00121817 -0.0103765 -0.000159502  -0.00250086 -0.0224277 6.19888e-06  0.00015831 -0.0224011 1.66893e-06  0.000194162 -0.0181095 3.8147e-06  -0.00249901 -0.0223615 -0.000167608  -0.0020552 -0.0180897 5.00679e-06  0.000197113 -0.0180591 7.15256e-07  -0.00205508 -0.0180379 -0.000169992  -0.00341916 -0.0319577 8.10623e-06  -4.88758e-06 -0.031966 4.29153e-06  8.70228e-05 -0.0270998 5.72205e-06  -0.00341451 -0.0318873 -0.000153542  -0.00295562 -0.0270415 7.15256e-06  9.11355e-05 -0.0270418 3.33786e-06  -0.00295275 -0.0269825 -0.000161648  -0.00436711 -0.0425565 1.04904e-05  -0.000282049 -0.0426056 9.05991e-06  -0.00013423 -0.0372154 7.62939e-06  -0.00436026 -0.0424861 -0.000133276  -0.00388837 -0.0371169 9.29832e-06  -0.000129163 -0.0371552 7.15256e-06  -0.00388342 -0.0370558 -0.000143528  -0.00534743 -0.0541373 1.33514e-05  -0.000670493 -0.054229 1.52588e-05  -0.000467896 -0.0483569 9.77516e-06  -0.00533926 -0.0540703 -0.00011158  -0.00485241 -0.0482182 1.21593e-05  -0.000462532 -0.0482984 1.21593e-05  -0.0048452 -0.0481589 -0.000122309  -0.00636148 -0.0665988 1.66893e-05  -0.0011642 -0.0667355 1.95503e-05  -0.000909984 -0.0604304 1.23978e-05  -0.00635302 -0.0665368 -9.01222e-05  -0.00584912 -0.0602517 1.4782e-05  -0.0009045 -0.060376 1.7643e-05  -0.00584155 -0.0601969 -0.000100851  -0.00740981 -0.0798448 1.95503e-05  -0.0017556 -0.0800251 2.47955e-05  -0.00145376 -0.0733362 1.52588e-05  -0.00740087 -0.0797884 -7.08103e-05  -0.00688064 -0.0731184 1.7643e-05  -0.00144804 -0.0732871 2.28882e-05  -0.00687253 -0.0730689 -8.03471e-05  -0.00848842 -0.0937675 2.31266e-05  -0.00243509 -0.0939916 2.95639e-05  -0.00208986 -0.0869717 1.83582e-05  -0.0084796 -0.093717 -5.22137e-05  -0.00794423 -0.0867157 2.14577e-05  -0.00208461 -0.0869283 2.81334e-05  -0.0079366 -0.0866721 -6.12736e-05  -0.00959218 -0.108273 2.64645e-05  -0.00319326 -0.108537 3.48091e-05  -0.00280941 -0.101234 2.19345e-05  -0.00958371 -0.108228 -3.60012e-05  -0.00903642 -0.100942 2.5034e-05  -0.00280499 -0.101197 3.26633e-05  -0.00902843 -0.100904 -4.36306e-05  -0.0107154 -0.12326 3.05176e-05  -0.00401914 -0.123563 3.91006e-05  -0.00360262 -0.116026 2.57492e-05  -0.0107075 -0.123221 -2.02656e-05  -0.0101504 -0.1157 2.86102e-05  -0.00359821 -0.115994 3.71933e-05  -0.0101434 -0.115668 -2.7895e-05  -0.0118519 -0.138646 3.48091e-05  -0.00490296 -0.138983 4.26769e-05  -0.00445819 -0.131255 2.93255e-05  -0.0118444 -0.138612 -6.4373e-06  -0.0112811 -0.130897 3.26633e-05  -0.00445414 -0.131228 4.1008e-05  -0.0112745 -0.13087 -1.3113e-05  -0.0129949 -0.154342 3.86238e-05  -0.00583351 -0.154711 4.673e-05  -0.00536585 -0.146834 3.3617e-05  -0.0129884 -0.154313 6.67572e-06  -0.0124215 -0.146448 3.6478e-05  -0.00536263 -0.146811 4.48227e-05  -0.0124159 -0.146426 2.38419e-07  -0.0141392 -0.170279 4.26769e-05  -0.00680208 -0.170674 4.86374e-05  -0.00631571 -0.162684 3.69549e-05  -0.0141336 -0.170254 1.78814e-05  -0.013566 -0.162274 4.07696e-05  -0.00631356 -0.162666 4.76837e-05  -0.0135608 -0.162256 1.26362e-05  -0.0152794 -0.186382 4.69685e-05  -0.00779867 -0.1868 5.22137e-05  -0.00729895 -0.178732 4.07696e-05  -0.015274 -0.18636 2.86102e-05  -0.0147088 -0.178302 4.43459e-05  -0.00729728 -0.178719 5.05447e-05  -0.0147043 -0.178288 2.31266e-05  -0.0164111 -0.202594 5.126e-05  -0.008816 -0.203031 5.53131e-05  -0.00830722 -0.194915 4.45843e-05  -0.0164063 -0.202576 3.8147e-05  -0.0158455 -0.194466 4.95911e-05  -0.00830507 -0.194905 5.34058e-05  -0.0158412 -0.194456 3.38554e-05  -0.0175292 -0.218857 5.57899e-05  -0.0098455 -0.21931 5.8651e-05  -0.00933075 -0.211172 4.88758e-05  -0.0175254 -0.218841 4.74453e-05  -0.0169704 -0.21071 5.34058e-05  -0.00932932 -0.211166 5.72205e-05  -0.0169675 -0.210703 4.29153e-05  -0.0186331 -0.235128 5.98431e-05  -0.0108821 -0.235593 6.03199e-05  -0.0103643 -0.227456 5.34058e-05  -0.0186296 -0.235115 5.43594e-05  -0.0180819 -0.226983 5.74589e-05  -0.0103631 -0.227452 5.98431e-05  -0.0180793 -0.226978 5.07832e-05  -0.0197191 -0.251363 6.38962e-05  -0.0119188 -0.251838 6.46114e-05  -0.0114012 -0.243722 5.72205e-05  -0.0197155 -0.251352 6.1512e-05  -0.0191767 -0.24324 6.1512e-05  -0.0114002 -0.24372 6.24657e-05  -0.0191746 -0.243238 5.81741e-05  -0.020787 -0.267536 6.79493e-05  -0.0129519 -0.268017 6.69956e-05  -0.0124362 -0.259936 6.1512e-05  -0.0207834 -0.267526 6.7234e-05  -0.0202541 -0.259447 6.55651e-05  -0.0124357 -0.259936 6.60419e-05  -0.0202518 -0.259447 6.4373e-05  -0.0218349 -0.283616 7.22408e-05  -0.0139785 -0.284102 6.98566e-05  -0.0134661 -0.276069 6.55651e-05  -0.0218318 -0.283608 7.29561e-05  -0.0213122 -0.275577 6.96182e-05  -0.0134661 -0.27607 6.86646e-05  -0.0213096 -0.275578 7.00951e-05  -0.0228646 -0.299588 7.60555e-05  -0.0149956 -0.300076 7.24792e-05  -0.0144882 -0.2921 6.93798e-05  -0.0228615 -0.299581 7.7486e-05  -0.0223503 -0.291606 7.41482e-05  -0.0144882 -0.292102 7.15256e-05  -0.0223486 -0.291607 7.53403e-05  -0.02388 -0.315423 8.03471e-05  -0.0159993 -0.315908 7.53403e-05  -0.0154991 -0.308007 7.34329e-05  -0.0238757 -0.315415 8.27312e-05  -0.0233717 -0.307513 7.79629e-05  -0.0154989 -0.308009 7.43866e-05  -0.0233698 -0.307515 8.03471e-05  0.000395775 -0.00224108 2.38419e-07  0 0 0  0.000749543 -0.00247073 0.00017643  0.000260085 -0.000837326 -4.76837e-07  0 0 0  0.000397593 -0.00221825 8.98838e-05  0.00013604 -0.000695586 0  0 0 0  0.000259601 -0.000829101 9.56059e-05  0.000135981 -0.000689268 4.88758e-05  0.00116482 -0.00732356 9.53674e-07  0.00221586 -0.00769097 0.000287533  0.00141749 -0.00485307 2.38419e-07  0.00117022 -0.00728399 0.000145435  0.000750288 -0.00450373 4.76837e-07  0.00142226 -0.00482982 0.00024128  0.000753716 -0.00448263 0.000122547  0.00203219 -0.0143149 1.90735e-06  0.00391528 -0.0147124 0.000332594  0.00305328 -0.011061 2.38419e-07  0.00203949 -0.01426 0.000168085  0.00160104 -0.0106203 1.19209e-06  0.00306258 -0.011021 0.00031662  0.00160736 -0.0105829 0.000159979  0.00280005 -0.0227087 3.57628e-06  0.00549906 -0.023088 0.000335932  0.00472441 -0.0187973 1.19209e-06  0.00280762 -0.0226438 0.000169516  0.00243604 -0.0183458 2.14577e-06  0.00473443 -0.0187444 0.000337601  0.00244346 -0.018295 0.000169992  0.00338644 -0.0322917 5.24521e-06  0.00682658 -0.0326523 0.000318527  0.00618976 -0.0277862 2.86102e-06  0.00339347 -0.0322219 0.00016284  0.0031184 -0.0273486 4.29153e-06  0.00619805 -0.0277263 0.000328779  0.00312507 -0.0272903 0.000166655  0.00377643 -0.0429477 6.91414e-06  0.00787681 -0.0433025 0.000293016  0.00737995 -0.0379058 4.29153e-06  0.00378305 -0.0428777 0.000151873  0.00360638 -0.0374789 5.96046e-06  0.00738603 -0.0378445 0.000306606  0.0036127 -0.0374185 0.000157356  0.00397795 -0.0545893 9.29832e-06  0.00866276 -0.0549499 0.000266552  0.0082975 -0.0490654 5.72205e-06  0.00398386 -0.0545222 0.000141621  0.00390089 -0.0486394 7.86781e-06  0.00830173 -0.0490056 0.000280142  0.00390631 -0.0485808 0.000146389  0.0040046 -0.0671138 1.14441e-05  0.00920641 -0.0674868 0.000241995  0.00896078 -0.0611665 7.86781e-06  0.00401032 -0.0670515 0.00013113  0.00401306 -0.060735 1.00136e-05  0.00896382 -0.0611109 0.000254393  0.00401825 -0.0606805 0.000136137  0.00387073 -0.0804228 1.40667e-05  0.00952756 -0.0808124 0.000217199  0.00939155 -0.0741062 1.0252e-05  0.00387621 -0.0803663 0.00012207  0.00395799 -0.0736652 1.23978e-05  0.00939393 -0.0740557 0.000229836  0.00396252 -0.0736156 0.000126123  0.00359142 -0.0944075 1.71661e-05  0.0096463 -0.0948148 0.00019598  0.00960958 -0.0877773 1.26362e-05  0.00359643 -0.094357 0.00011301  0.00374937 -0.0873252 1.52588e-05  0.00961149 -0.0877328 0.000206709  0.00375378 -0.0872813 0.000117302  0.00318074 -0.108972 2.09808e-05  0.00958097 -0.109397 0.000176191  0.00963426 -0.102076 1.5974e-05  0.00318539 -0.108927 0.000105858  0.00340259 -0.101612 1.88351e-05  0.00963557 -0.102037 0.000185966  0.00340664 -0.101574 0.000109434  0.00265384 -0.124013 2.43187e-05  0.00935197 -0.124455 0.000157833  0.00948536 -0.116903 1.90735e-05  0.00265849 -0.123974 9.82285e-05  0.00293207 -0.116427 2.24113e-05  0.00948632 -0.116869 0.000166893  0.00293577 -0.116394 0.000101805  0.00202501 -0.139449 2.81334e-05  0.00897646 -0.139905 0.000141144  0.00918078 -0.132163 2.26498e-05  0.0020293 -0.139414 9.2268e-05  0.0023526 -0.131676 2.6226e-05  0.00918174 -0.132134 0.000149012  0.00235581 -0.131649 9.5129e-05  0.00130939 -0.155188 3.14713e-05  0.00847363 -0.155657 0.00012517  0.00873971 -0.147769 2.59876e-05  0.00131297 -0.155158 8.55923e-05  0.00167859 -0.147273 2.95639e-05  0.00874043 -0.147745 0.000133038  0.00168145 -0.147251 8.86917e-05  0.00051868 -0.171162 3.50475e-05  0.00785947 -0.171641 0.000111818  0.00817943 -0.163641 2.95639e-05  0.000522137 -0.171136 8.08239e-05  0.000923634 -0.163139 3.33786e-05  0.00817955 -0.163623 0.000118732  0.000926375 -0.163121 8.32081e-05  -0.000332475 -0.187296 3.86238e-05  0.0071516 -0.187783 9.91821e-05  0.00751662 -0.179709 3.29018e-05  -0.000329614 -0.187274 7.58171e-05  0.000101209 -0.179201 3.6478e-05  0.00751674 -0.179694 0.000105619  0.000103474 -0.179187 7.77245e-05  -0.00123358 -0.203533 4.26769e-05  0.0063653 -0.204027 8.96454e-05  0.00676751 -0.195905 3.60012e-05  -0.00123072 -0.203515 7.27177e-05  -0.000776291 -0.195394 4.05312e-05  0.00676727 -0.195894 9.41753e-05  -0.000774622 -0.195383 7.39098e-05  -0.00217247 -0.219816 4.69685e-05  0.00551558 -0.220314 8.13007e-05  0.00594854 -0.212174 4.02927e-05  -0.00216985 -0.2198 7.00951e-05  -0.00169754 -0.21166 4.45843e-05  0.00594831 -0.212165 8.53539e-05  -0.00169611 -0.211653 7.08103e-05  -0.00313973 -0.236102 5.05447e-05  0.00461507 -0.236602 7.51019e-05  0.00507164 -0.228463 4.45843e-05  -0.00313759 -0.236088 6.81877e-05  -0.00265169 -0.22795 4.88758e-05  0.00507092 -0.228458 7.79629e-05  -0.0026505 -0.227945 6.8903e-05  -0.00412631 -0.252347 5.48363e-05  0.00367713 -0.252849 6.91414e-05  0.00415158 -0.244733 4.81606e-05  -0.00412416 -0.252337 6.67572e-05  -0.00362968 -0.24422 5.24521e-05  0.00415063 -0.24473 7.20024e-05  -0.00362873 -0.244218 6.7234e-05  -0.00512505 -0.268527 5.88894e-05  0.00271225 -0.269027 6.62804e-05  0.00319862 -0.260947 5.22137e-05  -0.0051229 -0.268517 6.74725e-05  -0.00462341 -0.260436 5.6982e-05  0.00319791 -0.260946 6.77109e-05  -0.00462222 -0.260435 6.69956e-05  -0.00612926 -0.284611 6.29425e-05  0.00172901 -0.28511 6.46114e-05  0.00222373 -0.277079 5.65052e-05  -0.0061276 -0.284602 6.7234e-05  -0.00562572 -0.27657 6.10352e-05  0.00222254 -0.277079 6.58035e-05  -0.00562453 -0.276571 6.69956e-05  -0.00713396 -0.300584 6.69956e-05  0.000736237 -0.301083 6.36578e-05  0.00123429 -0.293108 6.03199e-05  -0.00713158 -0.300576 6.86646e-05  -0.00663066 -0.292601 6.46114e-05  0.00123334 -0.293109 6.41346e-05  -0.00662994 -0.292603 6.74725e-05  -0.00812745 -0.316419 7.15256e-05  -0.000247955 -0.316922 6.22272e-05  0.00024271 -0.309017 6.50883e-05  -0.00812578 -0.31641 6.91414e-05  -0.0076313 -0.308508 6.8903e-05  0.000242472 -0.309017 6.38962e-05  -0.00763035 -0.30851 6.86646e-05  0.00113986 -0.00290674 -2.38419e-07  0 0 0  0.00160246 -0.00348526 0.000342131  0.000557609 -0.00143135 -2.38419e-07  0 0 0  0.00114268 -0.00288075 0.000260353  0.000390142 -0.0010702 0  0 0 0  0.000556909 -0.00142086 0.000186205  0.00039006 -0.00106168 0.000141859  0.00334886 -0.00837243 -7.15256e-07  0.00463209 -0.00922334 0.000558853  0.00299752 -0.00620633 -1.19209e-06  0.00335962 -0.00832874 0.000425577  0.00215526 -0.00540841 -7.15256e-07  0.00300506 -0.00617748 0.000468731  0.00216174 -0.00538313 0.000356913  0.0058881 -0.0154491 -4.76837e-07  0.00803915 -0.0162934 0.000650883  0.00632694 -0.0126533 -1.90735e-06  0.00590235 -0.0153903 0.000494242  0.00461572 -0.0117345 -4.76837e-07  0.00634181 -0.0126075 0.000618458  0.00462878 -0.0116922 0.000470161  0.00827152 -0.0237969 2.38419e-07  0.0112059 -0.0245615 0.000659227  0.00965366 -0.0203313 -1.43051e-06  0.00828427 -0.0237293 0.000499725  0.00711584 -0.0194606 0  0.00966921 -0.0202746 0.000662327  0.00712922 -0.0194063 0.000502348  0.0103274 -0.0333248 1.90735e-06  0.0139651 -0.0340213 0.000624657  0.0126279 -0.029206 -4.76837e-07  0.0103365 -0.0332536 0.000472784  0.00934446 -0.0284072 1.19209e-06  0.0126392 -0.0291445 0.000645161  0.00935477 -0.0283467 0.000488758  0.0120296 -0.0439481 2.86102e-06  0.0163006 -0.0446009 0.000572681  0.0151779 -0.039237 2.38419e-07  0.0120361 -0.0438778 0.000433922  0.0112228 -0.0384931 2.38419e-06  0.0151849 -0.0391752 0.000599623  0.0112297 -0.0384318 0.000454187  0.013396 -0.0555776 4.76837e-06  0.0182337 -0.0562032 0.000517368  0.0173119 -0.0503388 1.66893e-06  0.0134006 -0.0555106 0.000392199  0.012754 -0.0496323 3.57628e-06  0.0173158 -0.0502796 0.000544786  0.0127589 -0.0495729 0.000413179  0.0144529 -0.0681031 6.91414e-06  0.0197941 -0.0687136 0.00046134  0.0190573 -0.062405 3.33786e-06  0.0144564 -0.0680407 0.000352383  0.0139626 -0.0617231 5.72205e-06  0.0190586 -0.0623502 0.000488997  0.0139655 -0.0616681 0.000372171  0.0152259 -0.0814205 8.82149e-06  0.0210114 -0.0820209 0.000409126  0.0204439 -0.0753224 5.24521e-06  0.0152287 -0.0813638 0.000313997  0.0148743 -0.0746583 7.62939e-06  0.0204442 -0.075273 0.000435352  0.0148766 -0.0746085 0.000332832  0.0157402 -0.0954168 1.16825e-05  0.0219144 -0.0960113 0.000360489  0.0215013 -0.0889792 7.15256e-06  0.0157422 -0.095366 0.00027895  0.0155153 -0.0883285 1.00136e-05  0.0215008 -0.0889354 0.000385046  0.0155165 -0.0882844 0.000296116  0.0160184 -0.109993 1.45435e-05  0.0225298 -0.110582 0.000316143  0.0222577 -0.103267 1.00136e-05  0.0160201 -0.109948 0.000246286  0.0159084 -0.102627 1.28746e-05  0.0222563 -0.103229 0.000338316  0.0159093 -0.102589 0.00026226  0.0160843 -0.125046 1.74046e-05  0.0228853 -0.125631 0.000274658  0.0227405 -0.118083 1.26362e-05  0.0160859 -0.125007 0.000216722  0.0160778 -0.117454 1.57356e-05  0.0227388 -0.118051 0.000295401  0.0160782 -0.117422 0.000231028  0.0159595 -0.140491 2.09808e-05  0.0230061 -0.14107 0.000237942  0.0229752 -0.133333 1.52588e-05  0.0159611 -0.140457 0.000189543  0.0160455 -0.132715 1.90735e-05  0.0229737 -0.133306 0.0002563  0.0160462 -0.132687 0.000202656  0.0156671 -0.156238 2.38419e-05  0.0229189 -0.156811 0.000203609  0.0229892 -0.148928 1.83582e-05  0.0156682 -0.156208 0.000165224  0.0158345 -0.14832 2.21729e-05  0.0229874 -0.148906 0.000220776  0.0158343 -0.148297 0.000176907  0.0152268 -0.172215 2.74181e-05  0.0226468 -0.172782 0.000173807  0.0228065 -0.164788 2.14577e-05  0.0152279 -0.17219 0.000142574  0.0154653 -0.164191 2.52724e-05  0.0228046 -0.164771 0.000188351  0.0154656 -0.164173 0.00015378  0.0146596 -0.188351 3.05176e-05  0.0222156 -0.18891 0.000147104  0.0224518 -0.180842 2.47955e-05  0.0146606 -0.188329 0.000123501  0.0149591 -0.180255 2.86102e-05  0.0224501 -0.180828 0.00015974  0.0149591 -0.180241 0.000132799  0.0139842 -0.204587 3.40939e-05  0.0216463 -0.205138 0.000123024  0.0219486 -0.197023 2.81334e-05  0.0139854 -0.204568 0.000106335  0.0143354 -0.196448 3.21865e-05  0.0219467 -0.197013 0.000134945  0.0143354 -0.196438 0.000114679  0.0132205 -0.220865 3.83854e-05  0.0209627 -0.221409 0.000103474  0.0213194 -0.213276 3.17097e-05  0.0132217 -0.22085 9.32217e-05  0.0136139 -0.212712 3.60012e-05  0.0213177 -0.213269 0.00011301  0.0136137 -0.212705 9.94205e-05  0.0123844 -0.237146 4.19617e-05  0.0201852 -0.23768 8.7738e-05  0.0205863 -0.22955 3.55244e-05  0.0123854 -0.237133 8.15392e-05  0.0128119 -0.228997 4.00543e-05  0.0205848 -0.229546 9.56059e-05  0.0128119 -0.228992 8.70228e-05  0.0114925 -0.253385 4.57764e-05  0.0193338 -0.253912 7.43866e-05  0.0197697 -0.245803 3.95775e-05  0.0114937 -0.253374 7.27177e-05  0.0119462 -0.245261 4.36306e-05  0.019768 -0.245801 8.13007e-05  0.011946 -0.245258 7.67708e-05  0.0105581 -0.269556 5.00679e-05  0.0184267 -0.270074 6.60419e-05  0.0188878 -0.262002 4.29153e-05  0.0105593 -0.269547 6.65188e-05  0.0110309 -0.261469 4.76837e-05  0.0188863 -0.262002 7.00951e-05  0.0110312 -0.261469 6.91414e-05  0.00959444 -0.285632 5.43594e-05  0.0174785 -0.286143 5.98431e-05  0.0179589 -0.278118 4.74453e-05  0.00959539 -0.285623 6.27041e-05  0.0100806 -0.277595 5.22137e-05  0.017957 -0.27812 6.31809e-05  0.0100808 -0.277596 6.46114e-05  0.00861263 -0.301602 5.81741e-05  0.016505 -0.30211 5.48363e-05  0.0169959 -0.294136 5.14984e-05  0.00861406 -0.301594 5.91278e-05  0.0091064 -0.293619 5.57899e-05  0.016994 -0.294138 5.76973e-05  0.00910616 -0.293621 6.07967e-05  0.00763202 -0.317451 6.27041e-05  0.0155284 -0.31797 5.07832e-05  0.0160167 -0.310049 5.57899e-05  0.00763416 -0.317443 5.6982e-05  0.00812197 -0.30953 6.03199e-05  0.0160151 -0.310051 5.31673e-05  0.00812221 -0.309532 5.79357e-05  0.00219405 -0.00439417 -9.53674e-07  0 0 0  0.00293626 -0.00561333 0.000500679  0.00102371 -0.00278223 -4.76837e-07  0 0 0  0.00219774 -0.00436181 0.000422478  0.000743017 -0.00197273 -4.76837e-07  0 0 0  0.00102206 -0.00276554 0.000273943  0.000742167 -0.00196028 0.000229359  0.00614464 -0.0104606 -2.38419e-06  0.00797057 -0.0118784 0.000814915  0.0053747 -0.00874507 -2.86102e-06  0.00615874 -0.0104071 0.00068903  0.00405416 -0.00729442 -1.90735e-06  0.00538275 -0.00870401 0.000684261  0.00406305 -0.00726038 0.00057745  0.010377 -0.0174829 -2.38419e-06  0.0130054 -0.0187336 0.00095439  0.0105153 -0.0152255 -3.57628e-06  0.0103957 -0.0174158 0.000804901  0.0082832 -0.0138224 -2.6226e-06  0.0105323 -0.0151674 0.000903606  0.00829992 -0.0137712 0.000762939  0.0142879 -0.0256482 -2.14577e-06  0.0176165 -0.0267579 0.00096941  0.0153525 -0.0226523 -3.8147e-06  0.0143045 -0.0255751 0.000816107  0.0123863 -0.0214014 -3.09944e-06  0.0153707 -0.022586 0.000972509  0.0124041 -0.0213405 0.000818968  0.0177341 -0.0350233 -1.43051e-06  0.0217144 -0.0360311 0.000921488  0.0197182 -0.0313072 -3.57628e-06  0.0177459 -0.0349497 0.000774384  0.0160728 -0.0301764 -2.14577e-06  0.0197326 -0.0312398 0.000950575  0.0160861 -0.0301123 0.000799179  0.0206944 -0.0455393 -9.53674e-07  0.0252743 -0.0464747 0.000844479  0.0235521 -0.0411767 -2.86102e-06  0.0207018 -0.0454678 0.000709772  0.0192749 -0.0401336 -1.19209e-06  0.0235612 -0.0411115 0.000885248  0.0192837 -0.0400704 0.000743389  0.0231886 -0.0570942 7.15256e-07  0.0283109 -0.0579771 0.000761509  0.026851 -0.0521612 -2.38419e-06  0.0231927 -0.0570267 0.000640392  0.0219987 -0.0511831 -2.38419e-07  0.0268566 -0.0520999 0.000803709  0.0220037 -0.0511231 0.000675201  0.025247 -0.0695648 1.90735e-06  0.0308536 -0.0704074 0.000678301  0.02964 -0.0641375 -1.43051e-06  0.0252494 -0.0695031 0.000570297  0.024271 -0.0632107 9.53674e-07  0.0296422 -0.0640817 0.000719547  0.0242735 -0.0631555 0.00060463  0.026903 -0.0828395 3.33786e-06  0.0329363 -0.0836484 0.000598669  0.0319498 -0.0769824 0  0.0269043 -0.0827834 0.000504732  0.0261246 -0.0760979 2.6226e-06  0.0319507 -0.0769323 0.000638008  0.0261252 -0.0760484 0.000536919  0.0281886 -0.0967996 5.48363e-06  0.0345948 -0.0975785 0.000524521  0.0338169 -0.0905762 1.66893e-06  0.0281893 -0.0967494 0.000442743  0.0275913 -0.0897292 4.52995e-06  0.0338171 -0.0905319 0.000560999  0.0275913 -0.0896853 0.000473022  0.0291349 -0.111344 8.10623e-06  0.0358624 -0.112095 0.000455618  0.0352765 -0.104807 3.8147e-06  0.0291352 -0.111299 0.000386477  0.0287033 -0.103994 6.67572e-06  0.0352753 -0.104768 0.000489473  0.0287027 -0.103956 0.000413895  0.0297734 -0.126366 1.07288e-05  0.0367748 -0.127091 0.000392914  0.036363 -0.11957 5.96046e-06  0.0297736 -0.126326 0.000334024  0.029492 -0.118789 9.05991e-06  0.0363615 -0.119537 0.00042367  0.0294913 -0.118757 0.000359297  0.0301331 -0.141779 1.33514e-05  0.0373647 -0.142479 0.00033474  0.0371097 -0.134767 8.10623e-06  0.0301336 -0.141745 0.000286818  0.0299877 -0.134018 1.16825e-05  0.0371084 -0.13474 0.000363111  0.0299866 -0.133991 0.000309467  0.0302447 -0.157495 1.5974e-05  0.0376652 -0.15817 0.000282049  0.037551 -0.150312 1.09673e-05  0.0302442 -0.157466 0.000243187  0.0302194 -0.149593 1.4782e-05  0.0375495 -0.150289 0.000308037  0.0302185 -0.149571 0.000264406  0.0301337 -0.173442 1.90735e-05  0.0377074 -0.174093 0.000235081  0.0377187 -0.166123 1.35899e-05  0.0301341 -0.173417 0.000204802  0.0302163 -0.165433 1.7643e-05  0.0377167 -0.166105 0.000257969  0.0302153 -0.165416 0.00022316  0.0298305 -0.189547 2.26498e-05  0.0375237 -0.190174 0.000193357  0.037644 -0.18213 1.69277e-05  0.0298307 -0.189526 0.000170231  0.0300058 -0.181467 2.07424e-05  0.0376425 -0.182115 0.000213861  0.0300051 -0.181454 0.000186682  0.0293601 -0.205753 2.59876e-05  0.0371428 -0.206358 0.000157118  0.0373571 -0.198265 2.00272e-05  0.0293605 -0.205735 0.000140667  0.0296159 -0.19763 2.43187e-05  0.0373561 -0.198254 0.000174522  0.0296149 -0.19762 0.000154734  0.0287497 -0.222004 2.95639e-05  0.0365963 -0.222586 0.000125408  0.0368905 -0.214474 2.31266e-05  0.0287499 -0.221988 0.000114918  0.0290723 -0.213865 2.74181e-05  0.0368891 -0.214467 0.000141144  0.0290713 -0.213857 0.000127077  0.0280235 -0.238257 3.31402e-05  0.035912 -0.23882 0.000100851  0.0362716 -0.230708 2.67029e-05  0.028024 -0.238244 9.46522e-05  0.0284009 -0.230122 3.12328e-05  0.0362697 -0.230703 0.000112534  0.0284002 -0.230117 0.000104189  0.0272059 -0.254471 3.69549e-05  0.0351191 -0.255016 8.08239e-05  0.0355291 -0.246925 2.98023e-05  0.0272062 -0.25446 7.79629e-05  0.0276263 -0.246359 3.48091e-05  0.0355284 -0.246922 8.98838e-05  0.0276256 -0.246357 8.55923e-05  0.0263183 -0.27062 4.07696e-05  0.0342429 -0.27115 6.53267e-05  0.0346913 -0.263091 3.38554e-05  0.0263188 -0.27061 6.62804e-05  0.0267708 -0.262544 3.83854e-05  0.0346899 -0.26309 7.24792e-05  0.0267701 -0.262543 7.12872e-05  0.0253811 -0.286676 4.48227e-05  0.0333083 -0.287194 5.53131e-05  0.0337839 -0.279181 3.8147e-05  0.0253813 -0.286668 5.74589e-05  0.025856 -0.278648 4.29153e-05  0.0337818 -0.279181 6.00815e-05  0.0258555 -0.278649 6.1512e-05  0.0244112 -0.302637 4.91142e-05  0.032337 -0.303149 4.81606e-05  0.0328283 -0.29518 4.24385e-05  0.0244114 -0.302629 5.17368e-05  0.0249007 -0.294657 4.673e-05  0.0328262 -0.295181 5.17368e-05  0.0248995 -0.294659 5.43594e-05  0.0234318 -0.318507 5.34058e-05  0.0313518 -0.319028 4.14848e-05  0.031847 -0.311093 4.64916e-05  0.0234318 -0.318499 4.55379e-05  0.023922 -0.31057 5.126e-05  0.0318449 -0.311094 4.48227e-05  0.023921 -0.310572 4.88758e-05  0.00426236 -0.00754291 -2.38419e-06  0 0 0  0.0063815 -0.00985575 0.000659704  0.00271448 -0.00623298 -1.43051e-06  0 0 0  0.00426237 -0.00749856 0.000580788  0.00145078 -0.00402731 -1.19209e-06  0 0 0  0.00270861 -0.00619841 0.00036478  0.00144895 -0.00400633 0.000314236  0.0101717 -0.0136565 -4.05312e-06  0.0128208 -0.0154112 0.00106502  0.00968421 -0.012596 -4.05312e-06  0.0101827 -0.0135878 0.000941515  0.00724857 -0.0105618 -3.57628e-06  0.00968102 -0.0125307 0.000896454  0.00725318 -0.010512 0.000789881  0.0158563 -0.0203052 -5.00679e-06  0.0190353 -0.0218701 0.00124598  0.0159267 -0.0185634 -5.96046e-06  0.015875 -0.0202262 0.00110078  0.0130503 -0.0168267 -4.76837e-06  0.0159389 -0.0184854 0.0011816  0.0130657 -0.0167608 0.00104284  0.0211373 -0.0281772 -5.24521e-06  0.0249476 -0.0295855 0.00126982  0.022033 -0.0256271 -6.67572e-06  0.0211561 -0.0280967 0.00112128  0.0185592 -0.0240659 -5.24521e-06  0.0220514 -0.0255492 0.00127363  0.0185783 -0.023995 0.00112391  0.0258792 -0.037335 -5.48363e-06  0.0303109 -0.0386264 0.00120783  0.0276883 -0.0340135 -7.15256e-06  0.0258939 -0.037258 0.00106597  0.0235808 -0.032588 -5.48363e-06  0.0277063 -0.033941 0.00124693  0.0235974 -0.0325184 0.00109959  0.0300353 -0.0476892 -5.24521e-06  0.0350434 -0.04889 0.00111032  0.0327442 -0.0436782 -8.10623e-06  0.0300455 -0.0476164 0.000979185  0.0280319 -0.0423593 -5.00679e-06  0.0327574 -0.0436119 0.00116277  0.0280436 -0.0422937 0.00102496  0.0336093 -0.0591177 -4.52995e-06  0.0391367 -0.060243 0.00100088  0.037159 -0.0544984 -7.39098e-06  0.0336162 -0.0590501 0.000881672  0.0318945 -0.0532672 -5.00679e-06  0.0371692 -0.0544386 0.00105691  0.0319023 -0.0532066 0.000931025  0.0366294 -0.0714839 -3.57628e-06  0.0426173 -0.0725465 0.000890255  0.0409443 -0.0663374 -6.91414e-06  0.0366341 -0.0714228 0.000785351  0.0351874 -0.0651808 -4.05312e-06  0.0409509 -0.0662838 0.000946283  0.0351922 -0.0651259 0.000833511  0.0391308 -0.0846679 -2.38419e-06  0.0455228 -0.0856724 0.000785112  0.0441349 -0.0790621 -5.72205e-06  0.0391343 -0.0846128 0.000692368  0.0379436 -0.0779712 -2.6226e-06  0.0441399 -0.0790145 0.00083828  0.0379466 -0.0779225 0.000738382  0.0411527 -0.0985451 0  0.0478941 -0.0994976 0.000686407  0.0467693 -0.092546 -4.76837e-06  0.0411551 -0.0984958 0.000606298  0.0402006 -0.0915163 -1.19209e-06  0.0467724 -0.0925044 0.000735998  0.0402024 -0.0914733 0.000648737  0.0427325 -0.113012 1.66893e-06  0.0497729 -0.113913 0.000594378  0.0488905 -0.106674 -2.86102e-06  0.0427339 -0.112968 0.000525475  0.0419964 -0.105701 7.15256e-07  0.048893 -0.106638 0.000640631  0.0419976 -0.105664 0.000565052  0.0439085 -0.12796 3.57628e-06  0.0512002 -0.128814 0.000508785  0.0505389 -0.121339 -7.15256e-07  0.0439101 -0.127921 0.000451565  0.0433698 -0.12042 2.6226e-06  0.0505401 -0.121309 0.000551939  0.0433702 -0.120389 0.000487804  0.0447177 -0.143302 5.96046e-06  0.0522166 -0.144109 0.000432014  0.0517561 -0.136443 4.76837e-07  0.0447192 -0.143269 0.000383377  0.0443578 -0.135576 5.00679e-06  0.0517577 -0.136418 0.0004704  0.0443584 -0.13555 0.000416756  0.0451977 -0.158949 8.58307e-06  0.0528632 -0.159713 0.000360966  0.052583 -0.151898 3.8147e-06  0.0451986 -0.15892 0.000322104  0.0449979 -0.151082 7.62939e-06  0.0525832 -0.151877 0.000396967  0.0449979 -0.15106 0.000352383  0.0453824 -0.17483 1.12057e-05  0.0531776 -0.17555 0.000296831  0.0530591 -0.167622 5.72205e-06  0.0453831 -0.174805 0.000266314  0.0453258 -0.166854 9.53674e-06  0.0530596 -0.167606 0.000329494  0.0453259 -0.166837 0.000293255  0.0453072 -0.190871 1.45435e-05  0.0531986 -0.191551 0.000239849  0.0532223 -0.183545 8.58307e-06  0.0453079 -0.19085 0.000217438  0.0453763 -0.182823 1.26362e-05  0.0532219 -0.183534 0.000269175  0.0453759 -0.18281 0.000241041  0.0450056 -0.207018 1.74046e-05  0.0529635 -0.207658 0.000190735  0.0531106 -0.199603 1.16825e-05  0.0450063 -0.207 0.000174046  0.0451837 -0.198924 1.5974e-05  0.0531108 -0.199595 0.000216007  0.0451834 -0.198915 0.000195026  0.044512 -0.223212 2.0504e-05  0.0525098 -0.223818 0.000148773  0.0527625 -0.21574 1.45435e-05  0.0445127 -0.223198 0.000137806  0.0447822 -0.215101 1.88351e-05  0.0527613 -0.215734 0.000170231  0.0447814 -0.215094 0.000154972  0.0438583 -0.239415 2.43187e-05  0.0518742 -0.239988 0.000114441  0.0522134 -0.231907 1.7643e-05  0.0438592 -0.239403 0.000107527  0.0442045 -0.231305 2.24113e-05  0.0522127 -0.231904 0.000131369  0.0442042 -0.231301 0.000121832  0.0430782 -0.255585 2.7895e-05  0.0510921 -0.25613 8.67844e-05  0.0514998 -0.248065 2.14577e-05  0.0430784 -0.255574 8.41618e-05  0.0434837 -0.247495 2.59876e-05  0.0514989 -0.248064 0.000100851  0.043483 -0.247493 9.48906e-05  0.0422008 -0.271697 3.14713e-05  0.0501997 -0.272218 6.55651e-05  0.0506592 -0.264181 2.5034e-05  0.042201 -0.271688 6.60419e-05  0.0426507 -0.263639 2.95639e-05  0.0506577 -0.264182 7.67708e-05  0.04265 -0.263639 7.43866e-05  0.0412588 -0.287726 3.57628e-05  0.0492346 -0.288233 5.19753e-05  0.0497267 -0.280233 2.90871e-05  0.0412586 -0.287718 5.43594e-05  0.0417373 -0.279711 3.33786e-05  0.0497231 -0.280235 5.98431e-05  0.0417366 -0.279712 5.96046e-05  0.0402775 -0.303674 3.98159e-05  0.0482316 -0.304175 4.29153e-05  0.0487378 -0.29621 3.24249e-05  0.0402777 -0.303666 4.57764e-05  0.0407727 -0.295699 3.74317e-05  0.0487359 -0.296213 4.8399e-05  0.0407712 -0.295701 4.93526e-05  0.0392807 -0.319559 4.41074e-05  0.0472207 -0.320066 3.48091e-05  0.0477312 -0.312121 3.67165e-05  0.0392811 -0.319551 3.79086e-05  0.0397813 -0.31161 4.19617e-05  0.0477264 -0.312123 4.1008e-05  0.0397801 -0.311612 4.19617e-05  -0.00653534 -0.00917276 0.00070715  -0.00285641 -0.00568439 0.000798464  0 0 0  -0.00421681 -0.00674671 0.00124979  0 0 0  -0.00281004 -0.0050019 0.000525713  -0.000993695 -0.00233436 0.000585318  0 0 0  -0.0028801 -0.00575435 0.00039196  -0.00421882 -0.00684183 0.000616074  -0.00144522 -0.00351189 0.000679493  0 0 0  -0.000989709 -0.00237433 0.000288248  -0.00144597 -0.00356138 0.000334501  -0.0129825 -0.014309 0.00113225  -0.00979215 -0.0114641 0.00193119  -0.0101396 -0.0123883 0.00200582  -0.00777514 -0.0109391 0.000856161  -0.00522318 -0.00779514 0.00145197  -0.00981812 -0.0116289 0.000953913  -0.0101268 -0.0125642 0.000993967  -0.00719149 -0.00951626 0.00169015  -0.00520416 -0.00792622 0.000717402  -0.00718762 -0.00966612 0.000835419  -0.019311 -0.0203055 0.00132346  -0.0161478 -0.0169396 0.00252461  -0.0159349 -0.018588 0.0023315  -0.012868 -0.0174679 0.00100255  -0.0103736 -0.013876 0.00190735  -0.0161425 -0.017162 0.0012548  -0.0159093 -0.0188035 0.00116253  -0.0130596 -0.0153336 0.00221491  -0.0103481 -0.0140677 0.000948429  -0.0130391 -0.0155436 0.00110149  -0.0254776 -0.0274953 0.00134802  -0.0224562 -0.0234847 0.00270367  -0.0214505 -0.0260142 0.00235939  -0.0176937 -0.0251413 0.00101972  -0.0153427 -0.0209306 0.00204229  -0.0224329 -0.0237292 0.00135231  -0.0214285 -0.0262394 0.00118375  -0.0187361 -0.0221272 0.0023725  -0.015318 -0.0211487 0.0010221  -0.0187105 -0.0223602 0.00118732  -0.0312622 -0.0359643 0.00127864  -0.0284438 -0.0313284 0.00262785  -0.0265878 -0.0347138 0.00222683  -0.0221909 -0.0340349 0.000965595  -0.0199947 -0.0292155 0.00198293  -0.0284249 -0.0315701 0.00132155  -0.0265793 -0.0349302 0.00112224  -0.0240685 -0.0301979 0.00230551  -0.0199851 -0.0294366 0.000997782  -0.0240535 -0.0304301 0.00115991  -0.036589 -0.0456362 0.0011704  -0.033991 -0.0404313 0.00243187  -0.0313228 -0.0446001 0.00202751  -0.0263454 -0.0440802 0.000882149  -0.0243045 -0.0387072 0.00183153  -0.033984 -0.0406573 0.00122809  -0.0313291 -0.0448003 0.00102568  -0.0290048 -0.0395056 0.0021317  -0.02431 -0.0389185 0.000925541  -0.0290046 -0.0397246 0.0010767  -0.0414533 -0.0563874 0.00105047  -0.0390721 -0.0506805 0.00219178  -0.0356665 -0.0555507 0.00181079  -0.030171 -0.0551689 0.000788689  -0.0282776 -0.0493044 0.00164723  -0.039078 -0.0508851 0.00111103  -0.0356836 -0.0557304 0.00091958  -0.0335414 -0.0499392 0.00191951  -0.0282981 -0.0494996 0.00083518  -0.0335545 -0.0501397 0.000973225  -0.0458815 -0.0681023 0.000931263  -0.0437059 -0.0619511 0.00194573  -0.0396434 -0.0674454 0.00159788  -0.033691 -0.0671851 0.000700712  -0.0319403 -0.0608893 0.00146055  -0.0437198 -0.0621336 0.000990391  -0.039667 -0.0676051 0.000815392  -0.0376983 -0.0613766 0.00170255  -0.0319671 -0.0610661 0.000744104  -0.0377197 -0.0615566 0.000867128  -0.0499052 -0.0806589 0.00082016  -0.0479228 -0.0741227 0.00171089  -0.043281 -0.0801685 0.00139856  -0.0369295 -0.0800181 0.000616789  -0.0353111 -0.0733469 0.00128222  -0.0479422 -0.0742833 0.000875711  -0.0433072 -0.0803079 0.000717878  -0.0415018 -0.0736996 0.00149632  -0.0353441 -0.0735043 0.000657082  -0.0415282 -0.0738591 0.000766277  -0.053558 -0.0939533 0.000716925  -0.0517552 -0.0870813 0.00149322  -0.0466053 -0.093613 0.0012157  -0.0399098 -0.093561 0.00054121  -0.0384176 -0.0865667 0.00111818  -0.0517758 -0.087222 0.000768661  -0.0466323 -0.0937335 0.00062871  -0.0449796 -0.0867963 0.00130486  -0.03845 -0.0867054 0.000576973  -0.0450073 -0.0869363 0.000672579  -0.0568671 -0.107877 0.000624657  -0.055232 -0.100722 0.00129342  -0.0496401 -0.107675 0.00104952  -0.0426508 -0.107714 0.000470638  -0.0412756 -0.100445 0.00096941  -0.0552541 -0.100843 0.000671148  -0.0496656 -0.107778 0.000547886  -0.0481565 -0.100562 0.00113058  -0.0413095 -0.100565 0.000504971  -0.0481839 -0.100683 0.000587702  -0.0598595 -0.122342 0.000540733  -0.0583811 -0.114945 0.00111175  -0.0524058 -0.122263 0.0008986  -0.0451695 -0.122382 0.000409842  -0.0439067 -0.114884 0.000833511  -0.0584011 -0.115049 0.000582933  -0.0524291 -0.122349 0.000474691  -0.0510542 -0.114898 0.000972033  -0.043936 -0.114987 0.000439167  -0.0510796 -0.115003 0.000510693  -0.0625575 -0.137251 0.00046587  -0.0612254 -0.129658 0.000947475  -0.0549207 -0.137285 0.000762463  -0.0474803 -0.137477 0.000353098  -0.0463214 -0.129791 0.000710964  -0.0612441 -0.129746 0.000503063  -0.0549413 -0.137356 0.000409126  -0.053692 -0.129714 0.000828743  -0.04635 -0.12988 0.000380039  -0.0537155 -0.129802 0.000441551  -0.0649836 -0.15253 0.000397921  -0.0637873 -0.144776 0.000799417  -0.0572027 -0.152661 0.000640392  -0.0495975 -0.152917 0.000304461  -0.0485377 -0.145083 0.000601053  -0.063803 -0.14485 0.000431538  -0.0572208 -0.152719 0.000350714  -0.0560884 -0.144923 0.000699759  -0.0485615 -0.145157 0.000327587  -0.0561088 -0.144997 0.000379562  -0.0671588 -0.168095 0.000338316  -0.0660868 -0.16022 0.000666857  -0.0592693 -0.168314 0.000531435  -0.0515352 -0.168627 0.000259399  -0.0505651 -0.160679 0.000503063  -0.0661017 -0.160281 0.000368118  -0.0592847 -0.16836 0.0002985  -0.0582608 -0.160447 0.000584126  -0.0505883 -0.160741 0.000281096  -0.0582784 -0.160508 0.000324249  -0.0691046 -0.183883 0.000285625  -0.0681472 -0.175916 0.000549078  -0.0611384 -0.184176 0.000436068  -0.0533072 -0.184535 0.000222206  -0.0524226 -0.176508 0.000416517  -0.0681586 -0.175966 0.000311852  -0.061151 -0.184211 0.000253439  -0.0602262 -0.176212 0.000482082  -0.0524404 -0.176558 0.000240088  -0.0602412 -0.176263 0.000275612  -0.0708427 -0.199824 0.00024128  -0.0699884 -0.191798 0.00044632  -0.0628269 -0.200181 0.000353336  -0.0549276 -0.200582 0.000189543  -0.0541189 -0.192503 0.000341415  -0.0699985 -0.191837 0.000262976  -0.0628374 -0.200207 0.000214577  -0.0620029 -0.192153 0.000393391  -0.0541356 -0.192543 0.000204563  -0.0620155 -0.192194 0.000233889  -0.0723963 -0.215868 0.000201702  -0.0716331 -0.207806 0.000357866  -0.0643551 -0.216277 0.000283003  -0.0564106 -0.21671 0.000162601  -0.0556726 -0.208605 0.000276566  -0.071641 -0.207837 0.000221491  -0.064363 -0.216295 0.000181913  -0.0636086 -0.208211 0.000316858  -0.0556843 -0.208637 0.000175238  -0.0636191 -0.208242 0.000197887  -0.0737884 -0.23196 0.000172377  -0.0731039 -0.223888 0.000284433  -0.0657415 -0.232412 0.000226021  -0.0577741 -0.232871 0.000139952  -0.0570948 -0.224763 0.000222921  -0.0731108 -0.223911 0.00018692  -0.0657477 -0.232423 0.000155926  -0.0650635 -0.224332 0.000252962  -0.0571065 -0.224787 0.000150442  -0.0650716 -0.224356 0.000168562  -0.0750442 -0.248063 0.000147581  -0.0744264 -0.239996 0.000225306  -0.0670083 -0.248545 0.00018096  -0.0590334 -0.249023 0.00012517  -0.0584064 -0.24093 0.000179529  -0.0744309 -0.240013 0.000159979  -0.0670133 -0.248551 0.000135899  -0.0663874 -0.24047 0.000202179  -0.0584147 -0.240948 0.000131369  -0.0663939 -0.240489 0.000145674  -0.0761914 -0.264135 0.000131845  -0.0756242 -0.256092 0.000180244  -0.0681765 -0.264639 0.000148296  -0.0602074 -0.26513 0.000112057  -0.0596218 -0.257068 0.000147104  -0.0756299 -0.256105 0.00014019  -0.0681813 -0.264641 0.00012207  -0.0676019 -0.256588 0.000163317  -0.0596299 -0.257081 0.000117779  -0.0676079 -0.256602 0.000128746  -0.077261 -0.280158 0.000120401  -0.0767267 -0.272145 0.000148296  -0.0692711 -0.280671 0.000125408  -0.0613139 -0.281168 0.000105858  -0.0607605 -0.273147 0.000123978  -0.0767338 -0.272155 0.000126362  -0.0692766 -0.28067 0.000112534  -0.0687304 -0.272653 0.000135422  -0.0607674 -0.273157 0.00010848  -0.0687361 -0.272664 0.000117064  -0.0782866 -0.296114 0.000115156  -0.0777698 -0.288137 0.000127792  -0.0703185 -0.296626 0.000109196  -0.0623732 -0.297124 9.9659e-05  -0.0618403 -0.289146 0.000107527  -0.0777771 -0.288144 0.000117779  -0.0703239 -0.296624 0.000106335  -0.0697978 -0.288647 0.000116825  -0.0618484 -0.289154 0.000101805  -0.0698047 -0.288656 0.000109673  -0.0793014 -0.312025 0.000108242  -0.078788 -0.304066 0.000112057  -0.0713451 -0.312525 9.53674e-05  -0.0634089 -0.313012 9.75132e-05  -0.0628846 -0.305065 9.41753e-05  -0.0787935 -0.304073 0.000112057  -0.0713513 -0.312524 0.000101805  -0.0708311 -0.304569 0.00010252  -0.0628908 -0.305073 9.799e-05  -0.070838 -0.304578 0.000104666  -0.00207127 -0.00377156 0.000890017  0 0 0  -0.00146692 -0.00306371 0.000352621  -0.00051596 -0.00114331 0.000389099  0 0 0  -0.00205825 -0.00383827 0.000438929  -0.000699949 -0.00160679 0.000484705  0 0 0  -0.000511669 -0.0011742 0.000191212  -0.000694182 -0.00164275 0.000238419  -0.00591986 -0.0094403 0.00144982  -0.00433117 -0.00853735 0.000579834  -0.00279808 -0.00551119 0.000979662  -0.00589372 -0.0095782 0.000718594  -0.00386795 -0.00645816 0.00121593  -0.00277977 -0.00561173 0.00048399  -0.00384724 -0.00657246 0.000601053  -0.01017 -0.0161452 0.00168657  -0.00770798 -0.0153997 0.000679255  -0.00602809 -0.0116608 0.00129175  -0.0101421 -0.0163278 0.000842094  -0.00804856 -0.0126407 0.00160217  -0.00600302 -0.0118174 0.000642776  -0.00802007 -0.0128142 0.000796795  -0.0142539 -0.0240102 0.00170207  -0.0110353 -0.0234548 0.00068903  -0.00941181 -0.019087 0.00138068  -0.0142374 -0.0242093 0.000854969  -0.0122429 -0.0199133 0.00171328  -0.00939313 -0.0192761 0.000692129  -0.0122199 -0.0201162 0.000858068  -0.0180622 -0.0330839 0.00160217  -0.0141613 -0.0326853 0.000651598  -0.0126292 -0.0277238 0.00133514  -0.0180623 -0.033284 0.000809193  -0.0161935 -0.0283883 0.00166059  -0.0126252 -0.027925 0.000673294  -0.0161853 -0.0285989 0.000836372  -0.0215905 -0.043295 0.00145459  -0.017075 -0.04302 0.000593424  -0.0156323 -0.0375195 0.00122952  -0.0216057 -0.0434838 0.00073719  -0.0198591 -0.0380429 0.0015316  -0.0156435 -0.0377184 0.000623226  -0.0198681 -0.0382476 0.000775099  -0.0248612 -0.0545369 0.00129604  -0.0197954 -0.0543654 0.000530481  -0.018435 -0.0483831 0.00110269  -0.0248862 -0.054711 0.000659943  -0.0232562 -0.0487832 0.00137544  -0.018458 -0.0485712 0.000561237  -0.0232772 -0.0489746 0.000698566  -0.0278962 -0.0666956 0.00114226  -0.022343 -0.0666132 0.000469446  -0.0210596 -0.0602083 0.000976086  -0.0279267 -0.0668513 0.000584602  -0.0264058 -0.0604975 0.00121808  -0.0210894 -0.0603812 0.000499487  -0.0264348 -0.0606719 0.000621796  -0.0307158 -0.0796608 0.000999451  -0.0247343 -0.0796592 0.000414133  -0.0235245 -0.0728858 0.000855923  -0.030748 -0.0797989 0.000515461  -0.0293311 -0.0730731 0.00106907  -0.0235571 -0.0730413 0.000441074  -0.0293634 -0.0732294 0.000549078  -0.0333362 -0.0933264 0.000868559  -0.0269821 -0.0933969 0.000363827  -0.0258418 -0.086308 0.00074625  -0.0333685 -0.0934457 0.000451803  -0.0320485 -0.0864015 0.000932455  -0.0258751 -0.086446 0.000388384  -0.0320822 -0.0865395 0.000483036  -0.0357721 -0.107592 0.000750542  -0.0290964 -0.107729 0.000318766  -0.028023 -0.100373 0.000647068  -0.0358025 -0.107695 0.000395298  -0.0345758 -0.100379 0.000808001  -0.0280554 -0.100493 0.0003407  -0.0346078 -0.1005 0.000422716  -0.0380342 -0.122363 0.000643492  -0.0310845 -0.12256 0.000279188  -0.0300758 -0.114982 0.000557661  -0.0380617 -0.122449 0.0003438  -0.0369226 -0.114909 0.000695705  -0.0301054 -0.115086 0.000298262  -0.036953 -0.115013 0.000368834  -0.040133 -0.137551 0.000547409  -0.0329534 -0.137802 0.000242949  -0.0320063 -0.130044 0.000477314  -0.0401574 -0.137623 0.000298262  -0.0391024 -0.129899 0.000594139  -0.0320333 -0.130133 0.000260353  -0.0391293 -0.129988 0.000320435  -0.0420775 -0.153073 0.00046134  -0.0347079 -0.153372 0.000211  -0.03382 -0.145474 0.000405312  -0.0420994 -0.153132 0.000257254  -0.0411223 -0.145264 0.000503063  -0.0338441 -0.145549 0.000226498  -0.0411469 -0.145339 0.000277042  -0.0438793 -0.168855 0.000385761  -0.0363553 -0.169196 0.000183105  -0.0355232 -0.161193 0.000341892  -0.0438976 -0.168903 0.000221968  -0.0429951 -0.160925 0.000422239  -0.0355446 -0.161255 0.000196695  -0.0430155 -0.160987 0.000238895  -0.0455463 -0.184828 0.000319004  -0.0379003 -0.185204 0.000159502  -0.0371218 -0.177128 0.000286102  -0.0455619 -0.184864 0.000190496  -0.0447273 -0.176811 0.000351191  -0.0371399 -0.177179 0.000171185  -0.0447456 -0.176861 0.000205755  -0.0470903 -0.200928 0.000261784  -0.039351 -0.201335 0.000139952  -0.0386212 -0.193214 0.000237703  -0.0471025 -0.200955 0.000164986  -0.0463324 -0.192854 0.000289202  -0.0386369 -0.193256 0.000149488  -0.0463467 -0.192895 0.000177145  -0.0485213 -0.217101 0.000213385  -0.0407138 -0.217531 0.000124693  -0.0400295 -0.209393 0.000196934  -0.0485311 -0.217119 0.000142574  -0.0478175 -0.208998 0.000236511  -0.0400424 -0.209426 0.00013113  -0.0478299 -0.20903 0.000153065  -0.0498521 -0.233298 0.000174046  -0.0419972 -0.233748 0.000111103  -0.0413549 -0.225613 0.00016284  -0.0498598 -0.23331 0.000125408  -0.0491972 -0.225188 0.000192404  -0.0413644 -0.225638 0.000117064  -0.049207 -0.225213 0.000133514  -0.051095 -0.249477 0.000143528  -0.0432105 -0.249942 0.000100851  -0.0426033 -0.241829 0.00013566  -0.0511014 -0.249484 0.000112295  -0.050482 -0.241381 0.000157595  -0.0426116 -0.241848 0.000105381  -0.0504904 -0.2414 0.000118494  -0.0522635 -0.265606 0.000121117  -0.0443618 -0.266082 9.46522e-05  -0.043786 -0.258005 0.000115633  -0.0522687 -0.265608 0.000103951  -0.0516868 -0.257538 0.00013113  -0.0437932 -0.258019 9.75132e-05  -0.0516934 -0.257552 0.000107288  -0.0533707 -0.281657 0.000105381  -0.0454605 -0.282141 9.08375e-05  -0.0449102 -0.27411 0.000101328  -0.0533755 -0.281656 9.77516e-05  -0.0528226 -0.273631 0.000112772  -0.0449171 -0.274121 9.27448e-05  -0.0528283 -0.273641 0.000100613  -0.0544326 -0.297618 9.36985e-05  -0.0465198 -0.298105 8.9407e-05  -0.0459883 -0.290125 9.17912e-05  -0.0544367 -0.297617 9.44138e-05  -0.0539052 -0.289638 9.91821e-05  -0.045994 -0.290133 8.98838e-05  -0.0539107 -0.289646 9.58443e-05  -0.0554717 -0.313493 8.24928e-05  -0.047559 -0.313967 8.67844e-05  -0.0470331 -0.306039 8.32081e-05  -0.0554757 -0.313492 9.05991e-05  -0.0549507 -0.305554 8.82149e-05  -0.047039 -0.306047 8.79765e-05  -0.0549564 -0.305563 9.27448e-05  -0.00101674 -0.00251514 0.000539303  0 0 0  -0.000619516 -0.00226051 0.000177145  -0.000216946 -0.00068897 0.000195503  0 0 0  -0.00100806 -0.00256491 0.000265598  -0.000346951 -0.00085476 0.000293016  0 0 0  -0.00021508 -0.000711679 9.60827e-05  -0.000343602 -0.000882119 0.000144005  -0.00306183 -0.0076941 0.000883579  -0.00189543 -0.00733575 0.000293493  -0.00120164 -0.00445929 0.000495672  -0.00304362 -0.00780219 0.000437975  -0.00194561 -0.00486234 0.000739574  -0.00119345 -0.00453949 0.000244856  -0.00193076 -0.00495151 0.000365496  -0.00554562 -0.0145515 0.0010283  -0.0035148 -0.0142493 0.000346184  -0.00269264 -0.0104781 0.00065589  -0.00552744 -0.0147049 0.000513554  -0.00428098 -0.010942 0.000977039  -0.00268126 -0.01061 0.000326872  -0.00426179 -0.0110847 0.000486612  -0.00805321 -0.0227126 0.00103474  -0.00521487 -0.0225236 0.000351191  -0.00437132 -0.0180633 0.000701904  -0.00804505 -0.0228901 0.000520945  -0.00681013 -0.0184679 0.0010438  -0.00436515 -0.0182313 0.000352859  -0.00679588 -0.0186453 0.000524044  -0.0104432 -0.0320625 0.000970602  -0.00688064 -0.0319801 0.000330687  -0.00605065 -0.0269228 0.000677109  -0.0104482 -0.0322486 0.000491381  -0.00926441 -0.0272332 0.00100756  -0.0060544 -0.0271091 0.000342607  -0.00926346 -0.0274262 0.000508785  -0.0127006 -0.0425139 0.000878334  -0.00849235 -0.042514 0.000300646  -0.00767922 -0.0369252 0.000621319  -0.0127169 -0.0426944 0.000447512  -0.0115873 -0.037145 0.000926256  -0.00769252 -0.0371151 0.000317097  -0.0115985 -0.0373392 0.000470638  -0.0148417 -0.0539694 0.000780582  -0.0100593 -0.0540383 0.000268936  -0.00926012 -0.0479729 0.000555038  -0.0148654 -0.0541394 0.00039959  -0.0137835 -0.0481114 0.000829697  -0.00928074 -0.0481561 0.000285149  -0.013805 -0.0482968 0.000423908  -0.0168814 -0.0663228 0.000686407  -0.0115905 -0.0664482 0.000239134  -0.010804 -0.0599655 0.000489235  -0.0169091 -0.0664767 0.00035429  -0.0158728 -0.0600291 0.000732422  -0.0108287 -0.0601359 0.000253439  -0.0158992 -0.0602009 0.000376463  -0.0188313 -0.0794688 0.000600338  -0.0130929 -0.0796464 0.000211954  -0.0123191 -0.0727981 0.000428438  -0.0188597 -0.0796065 0.000312567  -0.0178659 -0.0727922 0.0006423  -0.0123447 -0.0729529 0.00022459  -0.0178953 -0.0729474 0.000333309  -0.0206971 -0.0933011 0.000521898  -0.0145675 -0.093524 0.000186443  -0.0138078 -0.0863657 0.000373602  -0.0207248 -0.093421 0.000275612  -0.0197735 -0.0862942 0.000559807  -0.0138333 -0.0865036 0.00019908  -0.0198023 -0.0864322 0.000293732  -0.0224837 -0.107721 0.000451565  -0.0160146 -0.107988 0.000165701  -0.01527 -0.100565 0.000323772  -0.0225096 -0.107825 0.000242233  -0.0215989 -0.100433 0.000485659  -0.0152943 -0.100687 0.000175953  -0.0216268 -0.100554 0.000258446  -0.0241933 -0.122633 0.000389099  -0.0174329 -0.122937 0.000147104  -0.0167046 -0.115299 0.000280857  -0.0242167 -0.12272 0.000213146  -0.023347 -0.11511 0.000419378  -0.016727 -0.115404 0.000156403  -0.0233723 -0.115215 0.000227451  -0.0258278 -0.137948 0.000332832  -0.0188205 -0.138288 0.000130892  -0.0181102 -0.130475 0.000241995  -0.0258485 -0.138022 0.000187159  -0.0250185 -0.130234 0.000359774  -0.0181303 -0.130565 0.00013876  -0.0250418 -0.130324 0.000199556  -0.0273886 -0.153584 0.000283003  -0.0201739 -0.153953 0.000117302  -0.0194833 -0.146007 0.000208378  -0.0274066 -0.153643 0.000164509  -0.0266162 -0.145719 0.000307083  -0.0195011 -0.146083 0.000124216  -0.0266364 -0.145795 0.000175714  -0.028878 -0.169466 0.000239611  -0.0214925 -0.169863 0.000105381  -0.020822 -0.161816 0.000179291  -0.0288931 -0.169515 0.00014472  -0.0281408 -0.161487 0.000260353  -0.0208375 -0.16188 0.000111818  -0.0281584 -0.161551 0.000154257  -0.0302975 -0.185524 0.000202179  -0.0227737 -0.185943 9.77516e-05  -0.0221246 -0.177831 0.000154018  -0.03031 -0.185561 0.000128984  -0.0295954 -0.177466 0.00022006  -0.0221373 -0.177883 0.000101328  -0.0296098 -0.177518 0.000136375  -0.031651 -0.201698 0.000169754  -0.0240176 -0.202136 8.98838e-05  -0.0233893 -0.193984 0.000133038  -0.0316608 -0.201726 0.000114441  -0.0309806 -0.193589 0.00018549  -0.0234003 -0.194027 9.32217e-05  -0.0309932 -0.193631 0.000121593  -0.0329411 -0.217931 0.000143766  -0.0252233 -0.218383 8.36849e-05  -0.0246162 -0.21022 0.000115395  -0.0329485 -0.217951 0.000104189  -0.0323026 -0.209799 0.000156164  -0.0246246 -0.210253 8.63075e-05  -0.0323122 -0.209832 0.000109196  -0.0341725 -0.234177 0.000122786  -0.0263927 -0.234642 8.05855e-05  -0.0258055 -0.226486 0.000101805  -0.0341783 -0.234191 9.56059e-05  -0.0335624 -0.226044 0.000132561  -0.0258121 -0.226512 8.2016e-05  -0.0335701 -0.22607 9.9659e-05  -0.0353501 -0.250395 0.000106573  -0.0275264 -0.250868 7.79629e-05  -0.0269578 -0.242739 9.20296e-05  -0.0353546 -0.250402 8.96454e-05  -0.0347664 -0.24228 0.000113964  -0.0269632 -0.242759 7.89165e-05  -0.0347724 -0.2423 9.25064e-05  -0.0364799 -0.266552 9.48906e-05  -0.0286267 -0.267034 7.72476e-05  -0.0280755 -0.258944 8.44002e-05  -0.0364833 -0.266556 8.55923e-05  -0.0359192 -0.258472 9.98974e-05  -0.0280802 -0.258958 7.70092e-05  -0.0359244 -0.258487 8.74996e-05  -0.0375664 -0.282623 8.70228e-05  -0.029695 -0.283109 7.72476e-05  -0.02916 -0.27507 8.01086e-05  -0.037569 -0.282624 8.44002e-05  -0.0370274 -0.274589 9.05991e-05  -0.0291646 -0.275081 7.70092e-05  -0.0370307 -0.2746 8.51154e-05  -0.0386186 -0.298592 8.22544e-05  -0.0307367 -0.29908 7.9155e-05  -0.0302153 -0.291098 7.79629e-05  -0.0386205 -0.298592 8.34465e-05  -0.0380945 -0.29061 8.4877e-05  -0.0302181 -0.291107 7.82013e-05  -0.0380981 -0.29062 8.44002e-05  -0.0396514 -0.314442 7.62939e-05  -0.0317621 -0.31492 8.08239e-05  -0.0312464 -0.307006 7.65324e-05  -0.039654 -0.314442 8.29697e-05  -0.0391345 -0.306521 7.93934e-05  -0.0312498 -0.307015 7.93934e-05  -0.0391376 -0.30653 8.36849e-05  -0.000270009 -0.00207338 0.000179529  0 0 0  6.38664e-05 -0.00210038 -7.15256e-07  2.28062e-05 -0.000604898 -2.38419e-06  0 0 0  -0.000268117 -0.00211301 8.86917e-05  -9.28119e-05 -0.00060913 9.70364e-05  0 0 0  2.18302e-05 -0.000625461 -9.53674e-07  -9.15118e-05 -0.000631005 4.76837e-05  -0.000849769 -0.00701329 0.000297546  0.000161231 -0.00708926 2.6226e-06  0.000118196 -0.00424743 -7.15256e-07  -0.00084649 -0.00710437 0.000148058  -0.000526458 -0.00426152 0.000247955  0.00011386 -0.00431961 7.15256e-07  -0.000524089 -0.00433639 0.000123024  -0.00162756 -0.0138888 0.000349998  0.000207931 -0.0140297 5.48363e-06  0.00020206 -0.0102448 4.76837e-06  -0.00162616 -0.0140255 0.000176191  -0.00122169 -0.0102493 0.000331163  0.000194579 -0.0103668 3.8147e-06  -0.00121874 -0.0103745 0.000165701  -0.00249609 -0.0221948 0.000353575  0.000157356 -0.0223981 8.82149e-06  0.000206798 -0.0178975 9.53674e-06  -0.00250003 -0.0223586 0.000179529  -0.00205439 -0.0178734 0.000355959  0.000196159 -0.0180565 6.91414e-06  -0.00205597 -0.0180355 0.000180006  -0.00340557 -0.0317063 0.000330687  -6.07967e-06 -0.0319625 8.58307e-06  0.000102997 -0.0268584 1.09673e-05  -0.0034157 -0.0318836 0.000169992  -0.00294667 -0.0267971 0.0003438  9.00626e-05 -0.0270383 8.58307e-06  -0.00295383 -0.0269793 0.000175714  -0.00434667 -0.0423059 0.000297546  -0.000283778 -0.0426015 7.62939e-06  -0.000115693 -0.0369653 8.58307e-06  -0.00436193 -0.042482 0.000154257  -0.00387108 -0.0368645 0.000314474  -0.000130713 -0.0371511 8.34465e-06  -0.00388479 -0.0370519 0.000162363  -0.00532252 -0.0538975 0.00026226  -0.00067246 -0.0542243 7.15256e-06  -0.000448346 -0.0481127 5.00679e-06  -0.00534105 -0.0540653 0.000138283  -0.00482965 -0.0479724 0.000279903  -0.000464559 -0.0482938 7.62939e-06  -0.00484693 -0.0481546 0.000146389  -0.00633538 -0.0663784 0.000229359  -0.00116611 -0.0667301 6.91414e-06  -0.000889957 -0.0602011 1.66893e-06  -0.00635481 -0.0665312 0.000122786  -0.00582331 -0.0600219 0.000245333  -0.000906289 -0.0603709 7.15256e-06  -0.0058434 -0.0601919 0.000130177  -0.00738382 -0.0796445 0.000200033  -0.00175774 -0.0800195 8.10623e-06  -0.00143421 -0.0731267 -2.38419e-07  -0.00740314 -0.0797824 0.000109911  -0.00685477 -0.0729086 0.000213861  -0.00144994 -0.0732815 7.62939e-06  -0.00687456 -0.0730635 0.000115871  -0.00846386 -0.0935904 0.000173807  -0.00243747 -0.0939852 9.53674e-06  -0.0020715 -0.0867832 -9.53674e-07  -0.00848174 -0.0937105 9.82285e-05  -0.00791883 -0.0865276 0.000186443  -0.002087 -0.086922 8.82149e-06  -0.00793886 -0.0866659 0.000103951  -0.00956988 -0.108116 0.000151634  -0.00319576 -0.10853 1.26362e-05  -0.00279331 -0.101067 2.38419e-07  -0.00958633 -0.108221 8.91685e-05  -0.0090133 -0.100775 0.000162125  -0.00280714 -0.10119 1.12057e-05  -0.00903082 -0.100898 9.36985e-05  -0.0106956 -0.123125 0.000132561  -0.00402188 -0.123556 1.5974e-05  -0.00358856 -0.11588 2.6226e-06  -0.0107101 -0.123214 8.13007e-05  -0.0101292 -0.115555 0.000141621  -0.0036006 -0.115987 1.43051e-05  -0.010146 -0.115661 8.51154e-05  -0.0118347 -0.138529 0.000116587  -0.00490582 -0.138976 2.0504e-05  -0.00444639 -0.131129 6.4373e-06  -0.0118473 -0.138604 7.58171e-05  -0.011263 -0.130772 0.000124454  -0.00445712 -0.131221 1.78814e-05  -0.0112772 -0.130863 7.84397e-05  -0.0129805 -0.154244 0.000102997  -0.00583577 -0.154703 2.43187e-05  -0.00535631 -0.146726 1.04904e-05  -0.0129912 -0.154305 7.05719e-05  -0.0124055 -0.146341 0.000109673  -0.00536513 -0.146804 2.19345e-05  -0.0124185 -0.146418 7.29561e-05  -0.0141277 -0.170195 9.20296e-05  -0.00680482 -0.170666 2.86102e-05  -0.00630856 -0.162593 1.57356e-05  -0.0141362 -0.170245 6.74725e-05  -0.0135537 -0.162183 9.75132e-05  -0.00631607 -0.162658 2.64645e-05  -0.0135635 -0.162248 6.91414e-05  -0.0152702 -0.186313 8.36849e-05  -0.00780141 -0.186792 3.33786e-05  -0.00729406 -0.178657 2.0504e-05  -0.0152769 -0.186352 6.50883e-05  -0.0146984 -0.178226 8.74996e-05  -0.0072999 -0.17871 3.0756e-05  -0.0147071 -0.17828 6.58035e-05  -0.0164042 -0.202537 7.72476e-05  -0.00881886 -0.203022 3.8147e-05  -0.00830293 -0.194852 2.71797e-05  -0.0164087 -0.202567 6.41346e-05  -0.0158377 -0.194404 8.05855e-05  -0.00830817 -0.194896 3.57628e-05  -0.0158439 -0.194447 6.50883e-05  -0.0175247 -0.218812 7.24792e-05  -0.00984836 -0.219301 4.45843e-05  -0.00932837 -0.211122 3.29018e-05  -0.0175281 -0.218832 6.36578e-05  -0.0169644 -0.21066 7.48634e-05  -0.00933194 -0.211157 4.07696e-05  -0.0169702 -0.210694 6.41346e-05  -0.0186296 -0.23509 6.93798e-05  -0.010884 -0.235584 4.88758e-05  -0.0103631 -0.227415 3.95775e-05  -0.0186322 -0.235105 6.48499e-05  -0.0180783 -0.226942 7.08103e-05  -0.0103652 -0.227443 4.64916e-05  -0.0180819 -0.226969 6.41346e-05  -0.0197175 -0.251334 6.86646e-05  -0.0119216 -0.251829 5.48363e-05  -0.0114014 -0.24369 4.60148e-05  -0.0197184 -0.251343 6.58035e-05  -0.0191741 -0.243208 6.8903e-05  -0.0114028 -0.243711 5.14984e-05  -0.0191772 -0.243229 6.50883e-05  -0.0207863 -0.267512 6.8903e-05  -0.0129545 -0.268007 6.00815e-05  -0.0124385 -0.259911 5.29289e-05  -0.020786 -0.267517 6.81877e-05  -0.0202534 -0.259422 6.84261e-05  -0.0124385 -0.259926 5.72205e-05  -0.0202544 -0.259438 6.69956e-05  -0.0218351 -0.283597 7.03335e-05  -0.0139811 -0.284092 6.46114e-05  -0.0134687 -0.276049 5.91278e-05  -0.0218346 -0.283598 7.08103e-05  -0.0213115 -0.275556 6.93798e-05  -0.0134687 -0.276061 6.22272e-05  -0.0213125 -0.275568 6.93798e-05  -0.0228655 -0.29957 7.27177e-05  -0.0149984 -0.300066 6.98566e-05  -0.0144911 -0.292082 6.50883e-05  -0.0228641 -0.299571 7.43866e-05  -0.0223513 -0.291588 7.12872e-05  -0.0144908 -0.292092 6.69956e-05  -0.0223513 -0.291598 7.27177e-05  -0.0238802 -0.315403 7.51019e-05  -0.0160029 -0.315898 7.51019e-05  -0.0155025 -0.307989 7.1764e-05  -0.0238788 -0.315405 7.72476e-05  -0.0233722 -0.307495 7.39098e-05  -0.0155022 -0.307999 7.24792e-05  -0.0233727 -0.307505 7.60555e-05  0.000403404 -0.00217891 -0.000182867  0 0 0  0.000749171 -0.00246996 -0.000174999  0.000263274 -0.000807226 -0.000196934  0 0 0  0.000397384 -0.00221729 -8.9407e-05  0.000138536 -0.000667572 -0.000100613  0 0 0  0.00025937 -0.000828683 -9.60827e-05  0.000135913 -0.000688732 -4.86374e-05  0.00118375 -0.00719315 -0.000293016  0.00221553 -0.0076893 -0.000286579  0.00143893 -0.0047521 -0.000491858  0.0011698 -0.00728226 -0.000143528  0.000763118 -0.00440854 -0.000248432  0.00142203 -0.00482857 -0.000241041  0.000753477 -0.00448143 -0.000121355  0.00205651 -0.014124 -0.000333548  0.00391471 -0.0147102 -0.000331402  0.00308868 -0.0108922 -0.000639915  0.00203872 -0.0142578 -0.000164747  0.00162387 -0.0104583 -0.000319958  0.00306225 -0.0110191 -0.000316143  0.0016067 -0.0105808 -0.000157356  0.00282407 -0.0224789 -0.000330687  0.00549787 -0.0230848 -0.000332832  0.00476119 -0.0185792 -0.000675201  0.00280654 -0.0226405 -0.00016284  0.00246069 -0.0181329 -0.000335217  0.00473362 -0.0187419 -0.000335693  0.00244257 -0.0182925 -0.000165224  0.00340754 -0.0320424 -0.000309706  0.00682533 -0.0326487 -0.000311136  0.00621891 -0.0275412 -0.000650167  0.0033921 -0.032218 -0.000152349  0.00314116 -0.0271072 -0.000321388  0.00619662 -0.027723 -0.000323296  0.00312388 -0.0272871 -0.000158072  0.00379443 -0.0426989 -0.00028348  0.00787503 -0.0432983 -0.000284433  0.00740093 -0.0376542 -0.000599861  0.0037812 -0.0428734 -0.000138283  0.00362551 -0.0372288 -0.000296831  0.0073843 -0.0378405 -0.000297785  0.00361109 -0.0374146 -0.000145197  0.00399375 -0.0543502 -0.0002563  0.00866103 -0.0549451 -0.000253677  0.00831181 -0.0488197 -0.000543118  0.00398207 -0.0545174 -0.000123739  0.00391763 -0.0483951 -0.00026989  0.00830001 -0.0490009 -0.000268698  0.00390446 -0.0485762 -0.000130653  0.00401831 -0.0668935 -0.000228405  0.00920451 -0.0674816 -0.000223875  0.0089708 -0.0609359 -0.000485659  0.00400829 -0.0670463 -0.000108242  0.00402749 -0.0605054 -0.000242233  0.00896221 -0.0611058 -0.000238895  0.0040164 -0.0606755 -0.000115871  0.00388253 -0.0802222 -0.000202179  0.00952518 -0.0808066 -0.000195503  0.00939798 -0.0738949 -0.000429153  0.00387394 -0.0803605 -9.41753e-05  0.00397086 -0.073455 -0.000215054  0.00939178 -0.0740502 -0.00020957  0.00396037 -0.0736102 -0.000101089  0.00360131 -0.0942292 -0.000174999  0.00964367 -0.0948085 -0.000167847  0.00961339 -0.0875877 -0.000375271  0.00359416 -0.0943505 -7.89165e-05  0.00375998 -0.0871361 -0.000188589  0.00960886 -0.0877269 -0.000181198  0.00375164 -0.0872753 -8.65459e-05  0.00318873 -0.108813 -0.000149012  0.00957859 -0.10939 -0.000141144  0.00963652 -0.101908 -0.000323772  0.00318289 -0.108919 -6.4373e-05  0.00341165 -0.101444 -0.000162125  0.0096333 -0.102031 -0.000154018  0.00340414 -0.101567 -7.15256e-05  0.00265992 -0.123877 -0.000124216  0.00934947 -0.124448 -0.000115156  0.00948596 -0.116755 -0.00027585  0.00265574 -0.123967 -4.98295e-05  0.00293899 -0.11628 -0.000136614  0.00948381 -0.116862 -0.000128269  0.00293326 -0.116387 -5.67436e-05  0.00202978 -0.13933 -0.000100374  0.00897384 -0.139898 -9.17912e-05  0.00918031 -0.132035 -0.000230312  0.0020268 -0.139407 -3.6478e-05  0.00235796 -0.131549 -0.000112057  0.00917912 -0.132127 -0.000103712  0.00235319 -0.131641 -4.26769e-05  0.00131238 -0.155088 -7.7486e-05  0.00847089 -0.155649 -7.00951e-05  0.00873792 -0.147659 -0.000187874  0.00131023 -0.15515 -2.28882e-05  0.00168204 -0.147165 -8.86917e-05  0.0087378 -0.147738 -8.08239e-05  0.00167894 -0.147243 -2.93255e-05  0.00052011 -0.171077 -5.62668e-05  0.00785661 -0.171633 -4.95911e-05  0.00817657 -0.163549 -0.000149012  0.000519395 -0.171128 -1.09673e-05  0.000926018 -0.163047 -6.67572e-05  0.00817692 -0.163614 -5.98431e-05  0.000923634 -0.163113 -1.64509e-05  -0.000332832 -0.187226 -3.60012e-05  0.0071485 -0.187775 -3.02792e-05  0.00751269 -0.179631 -0.000112772  -0.000332475 -0.187265 1.19209e-06  0.000101447 -0.179124 -4.60148e-05  0.00751364 -0.179685 -3.98159e-05  0.000100613 -0.179179 -4.52995e-06  -0.00123525 -0.203475 -1.74046e-05  0.00636172 -0.204018 -1.3113e-05  0.00676274 -0.195841 -7.93934e-05  -0.00123382 -0.203506 1.23978e-05  -0.000777245 -0.19533 -2.64645e-05  0.00676441 -0.195885 -2.16961e-05  -0.000777483 -0.195375 7.15256e-06  -0.00217485 -0.219769 0  0.00551248 -0.220304 3.8147e-06  0.00594211 -0.212121 -5.00679e-05  -0.00217271 -0.219791 2.36034e-05  -0.00169992 -0.211609 -8.34465e-06  0.00594449 -0.212156 -5.00679e-06  -0.00169897 -0.211644 1.83582e-05  -0.00314283 -0.236064 1.57356e-05  0.00461221 -0.236593 1.78814e-05  0.00506568 -0.228421 -2.24113e-05  -0.00314021 -0.236079 3.29018e-05  -0.00265431 -0.227908 8.10623e-06  0.0050683 -0.228449 1.12057e-05  -0.00265312 -0.227936 2.86102e-05  -0.00413036 -0.252318 3.02792e-05  0.00367427 -0.252839 3.05176e-05  0.00414491 -0.2447 4.76837e-07  -0.00412703 -0.252327 4.26769e-05  -0.0036335 -0.244187 2.3365e-05  0.00414801 -0.244721 2.40803e-05  -0.00363135 -0.244208 3.8147e-05  -0.00512958 -0.268503 4.26769e-05  0.00270939 -0.269018 4.29153e-05  0.00319219 -0.260921 2.07424e-05  -0.00512624 -0.268508 5.05447e-05  -0.0046277 -0.26041 3.67165e-05  0.00319481 -0.260936 3.67165e-05  -0.00462532 -0.260426 4.69685e-05  -0.00613403 -0.284592 5.38826e-05  0.00172567 -0.2851 5.22137e-05  0.00221682 -0.277057 3.83854e-05  -0.00613046 -0.284592 5.84126e-05  -0.00563049 -0.276549 4.86374e-05  0.00221944 -0.277069 4.72069e-05  -0.00562763 -0.276561 5.50747e-05  -0.00713897 -0.300565 6.46114e-05  0.000733376 -0.301073 6.1512e-05  0.00122666 -0.293089 5.34058e-05  -0.00713491 -0.300566 6.53267e-05  -0.00663543 -0.292583 5.91278e-05  0.00123048 -0.293099 5.67436e-05  -0.0066328 -0.292593 6.19888e-05  -0.00813341 -0.316399 7.51019e-05  -0.000251532 -0.316913 7.10487e-05  0.000235796 -0.308998 6.79493e-05  -0.00812912 -0.3164 7.31945e-05  -0.00763726 -0.30849 6.98566e-05  0.000239134 -0.309008 6.62804e-05  -0.00763392 -0.3085 6.93798e-05  0.00115529 -0.00283337 -0.000533104  0 0 0  0.00160229 -0.00348461 -0.000343084  0.000563115 -0.00139123 -0.000382423  0 0 0  0.00114273 -0.00287992 -0.000261068  0.000394687 -0.00103563 -0.000291348  0 0 0  0.00055673 -0.00142044 -0.000186682  0.000389993 -0.00106144 -0.000141859  0.00338849 -0.00822544 -0.000864983  0.00463182 -0.00922173 -0.000563622  0.00303201 -0.00608271 -0.000957489  0.0033592 -0.00832677 -0.000427008  0.00218375 -0.00529796 -0.000728369  0.00300506 -0.00617629 -0.000471354  0.00216162 -0.00538188 -0.000357866  0.00593698 -0.0152428 -0.000997305  0.00803837 -0.0162911 -0.000654697  0.00638241 -0.0124596 -0.00125408  0.0059016 -0.0153879 -0.000495195  0.00466198 -0.0115552 -0.000951529  0.0063414 -0.0126053 -0.000622034  0.0046283 -0.0116902 -0.000471115  0.0083133 -0.0235568 -0.00100017  0.0112048 -0.0245585 -0.000661373  0.009709 -0.0200943 -0.00133467  0.00828326 -0.0237263 -0.000499249  0.00716266 -0.0192348 -0.00100946  0.00966811 -0.0202717 -0.000665426  0.00712833 -0.0194036 -0.000502586  0.0103557 -0.0330698 -0.000940323  0.0139639 -0.0340176 -0.00062418  0.0126681 -0.0289499 -0.00129271  0.0103353 -0.0332501 -0.000469208  0.00937909 -0.0281575 -0.000974417  0.0126379 -0.0291411 -0.000646114  0.0093537 -0.0283434 -0.000486374  0.0120468 -0.0436963 -0.000858307  0.0162988 -0.0445965 -0.000570536  0.0152021 -0.0389793 -0.00119734  0.0120345 -0.0438733 -0.0004282  0.0112451 -0.038239 -0.000900507  0.0151835 -0.0391712 -0.000598907  0.0112283 -0.0384278 -0.000449181  0.013405 -0.0553369 -0.000770569  0.0182316 -0.0561984 -0.000511169  0.0173236 -0.0500908 -0.00108314  0.0133987 -0.0555056 -0.0003829  0.0127661 -0.0493855 -0.000814676  0.0173138 -0.050275 -0.00054121  0.0127571 -0.0495682 -0.000405788  0.0144567 -0.0678815 -0.000684261  0.0197923 -0.0687081 -0.000453472  0.0190603 -0.0621737 -0.000967503  0.0144545 -0.0680355 -0.000339031  0.0139688 -0.0614924 -0.000727177  0.0190569 -0.0623448 -0.000482082  0.0139637 -0.0616629 -0.000360966  0.015226 -0.0812188 -0.00060153  0.0210093 -0.082015 -0.000397205  0.0204418 -0.0751114 -0.000854731  0.0152265 -0.0813582 -0.000296354  0.0148758 -0.074447 -0.000642538  0.0204421 -0.0752674 -0.0004251  0.0148746 -0.0746031 -0.000317574  0.0157375 -0.0952381 -0.00052309  0.0219119 -0.0960051 -0.000344038  0.0214958 -0.0887899 -0.000747681  0.0157398 -0.0953599 -0.000256062  0.0155138 -0.0881391 -0.000561953  0.0214984 -0.0889296 -0.000370502  0.0155141 -0.0882787 -0.000276089  0.016014 -0.109834 -0.000449657  0.0225275 -0.110575 -0.000293493  0.0222498 -0.103099 -0.000647068  0.0160177 -0.109941 -0.000217438  0.0159044 -0.102459 -0.000485659  0.0222542 -0.103223 -0.000318527  0.0159069 -0.102583 -0.000236511  0.0160787 -0.124909 -0.000380993  0.0228827 -0.125624 -0.000247478  0.0227308 -0.117936 -0.00055337  0.0160832 -0.125 -0.000181913  0.016073 -0.117307 -0.00041461  0.0227363 -0.118044 -0.000270128  0.0160757 -0.117415 -0.000199318  0.0159531 -0.140372 -0.000317574  0.0230038 -0.141062 -0.000204563  0.0229656 -0.133206 -0.000466585  0.0159585 -0.140449 -0.000148296  0.0160391 -0.132587 -0.000348568  0.0229712 -0.133298 -0.000225782  0.0160435 -0.13268 -0.000164747  0.0156602 -0.156137 -0.000258684  0.0229164 -0.156803 -0.000164509  0.0229788 -0.148819 -0.000386477  0.0156658 -0.1562 -0.000117779  0.0158279 -0.148211 -0.000287533  0.0229851 -0.148898 -0.000184059  0.0158319 -0.14829 -0.000132561  0.015219 -0.17213 -0.000204563  0.0226444 -0.172773 -0.000127554  0.0227954 -0.164696 -0.000312567  0.0152252 -0.172181 -8.84533e-05  0.0154575 -0.164098 -0.000230789  0.0228021 -0.164762 -0.000145674  0.015463 -0.164165 -0.000102758  0.0146515 -0.18828 -0.00015521  0.0222125 -0.188901 -9.34601e-05  0.0224406 -0.180765 -0.000245094  0.014658 -0.18832 -6.27041e-05  0.0149512 -0.180178 -0.000179291  0.0224472 -0.18082 -0.000109911  0.0149565 -0.180233 -7.53403e-05  0.0139756 -0.204528 -0.000111103  0.0216434 -0.205129 -6.36578e-05  0.0219381 -0.19696 -0.000184774  0.0139825 -0.204559 -3.86238e-05  0.0143268 -0.196384 -0.000132322  0.0219438 -0.197004 -7.82013e-05  0.0143328 -0.196429 -5.00679e-05  0.0132115 -0.220819 -7.15256e-05  0.0209599 -0.2214 -3.6478e-05  0.0213087 -0.213225 -0.000131369  0.0132186 -0.220841 -1.66893e-05  0.0136051 -0.21266 -9.08375e-05  0.0213149 -0.21326 -4.98295e-05  0.0136106 -0.212695 -2.74181e-05  0.0123754 -0.237108 -3.71933e-05  0.0201824 -0.237671 -1.28746e-05  0.0205758 -0.229509 -8.44002e-05  0.0123827 -0.237123 2.38419e-06  0.0128026 -0.228955 -5.36442e-05  0.0205815 -0.229536 -2.43187e-05  0.012809 -0.228983 -6.91414e-06  0.0114834 -0.253356 -8.10623e-06  0.0193312 -0.253902 6.67572e-06  0.0197592 -0.245771 -4.41074e-05  0.0114908 -0.253365 1.83582e-05  0.0119371 -0.245228 -2.24113e-05  0.0197654 -0.245792 -2.6226e-06  0.0119431 -0.245249 1.07288e-05  0.0105493 -0.269532 1.66893e-05  0.0184236 -0.270065 2.45571e-05  0.0188773 -0.261976 -1.12057e-05  0.0105565 -0.269537 3.33786e-05  0.0110219 -0.261443 4.76837e-06  0.0188835 -0.261992 1.57356e-05  0.0110283 -0.261459 2.6226e-05  0.00958538 -0.285613 3.74317e-05  0.0174756 -0.286134 3.91006e-05  0.0179482 -0.278098 1.66893e-05  0.00959229 -0.285614 4.52995e-05  0.0100718 -0.277574 2.74181e-05  0.0179539 -0.27811 3.19481e-05  0.0100777 -0.277586 3.95775e-05  0.00860333 -0.301583 5.57899e-05  0.0165014 -0.3021 5.19753e-05  0.0169847 -0.294118 3.98159e-05  0.00861073 -0.301584 5.72205e-05  0.00909662 -0.293601 4.64916e-05  0.0169911 -0.294128 4.52995e-05  0.00910306 -0.293611 5.10216e-05  0.0076232 -0.317432 7.34329e-05  0.0155253 -0.31796 6.50883e-05  0.0160055 -0.310031 6.10352e-05  0.00763106 -0.317433 6.74725e-05  0.00811315 -0.309512 6.48499e-05  0.0160117 -0.310041 5.84126e-05  0.00811887 -0.309522 6.24657e-05  0.00221436 -0.00429881 -0.000863791  0 0 0  0.00293626 -0.00561237 -0.000504494  0.00102798 -0.0027265 -0.000561237  0 0 0  0.00219777 -0.00436103 -0.000424385  0.000748932 -0.00192559 -0.000470877  0 0 0  0.00102206 -0.00276512 -0.000275135  0.000742152 -0.00195992 -0.000230312  0.00619638 -0.0102795 -0.00140309  0.00796992 -0.0118765 -0.000822783  0.00541025 -0.00858277 -0.00139713  0.00615817 -0.0104057 -0.000693798  0.00409125 -0.00715357 -0.00117898  0.00538243 -0.0087027 -0.000689507  0.00406291 -0.00725919 -0.000581026  0.0104409 -0.0172458 -0.00162792  0.0130042 -0.0187311 -0.00096035  0.0105763 -0.0149912 -0.00183392  0.0103948 -0.0174137 -0.000810146  0.00834394 -0.0136102 -0.00154805  0.0105313 -0.0151652 -0.000910521  0.00829914 -0.0137691 -0.000768185  0.0143421 -0.025387 -0.00164294  0.0176153 -0.0267548 -0.000977993  0.0154172 -0.0223843 -0.00196385  0.0143032 -0.0255721 -0.000820875  0.012447 -0.0211499 -0.00165319  0.0153695 -0.0225833 -0.000980139  0.0124032 -0.0213376 -0.00082469  0.0177701 -0.0347571 -0.00155354  0.0217127 -0.0360272 -0.00092721  0.0197683 -0.0310317 -0.00191379  0.0177442 -0.0349459 -0.000777721  0.0161181 -0.0299112 -0.00160623  0.0197311 -0.0312362 -0.000957727  0.0160847 -0.0301088 -0.000803232  0.0207139 -0.0452817 -0.00142145  0.0252724 -0.04647 -0.000850916  0.0235836 -0.0409083 -0.00177932  0.0207 -0.045463 -0.000711441  0.0193017 -0.0398708 -0.00149035  0.0235596 -0.0411069 -0.000891209  0.0192822 -0.0400662 -0.000745773  0.0231957 -0.0568513 -0.00127792  0.0283087 -0.057972 -0.000766277  0.0268679 -0.0519081 -0.00161409  0.0231907 -0.0570216 -0.000639439  0.0220116 -0.0509329 -0.0013504  0.0268544 -0.0520951 -0.000808716  0.0220016 -0.0511186 -0.000675678  0.0252465 -0.069343 -0.00113511  0.0308517 -0.0704015 -0.000679731  0.0296454 -0.0639042 -0.00144267  0.0252473 -0.0694973 -0.000566959  0.0242736 -0.0629784 -0.00120616  0.0296402 -0.0640761 -0.000722408  0.0242715 -0.0631502 -0.000602722  0.0268975 -0.0826385 -0.00099802  0.0329342 -0.0836423 -0.000597  0.0319483 -0.0767711 -0.00127554  0.0269022 -0.0827773 -0.000498056  0.0261214 -0.075887 -0.00106597  0.0319486 -0.0769263 -0.000638008  0.0261232 -0.0760426 -0.000531673  0.0281801 -0.0966215 -0.000869036  0.0345922 -0.097572 -0.000519037  0.0338117 -0.0903875 -0.00111651  0.0281868 -0.0967429 -0.000431776  0.0275837 -0.0895401 -0.000932455  0.0338145 -0.0905257 -0.000557661  0.027589 -0.0896794 -0.000463963  0.0291247 -0.111186 -0.000748634  0.0358599 -0.112088 -0.00044632  0.0352682 -0.10464 -0.000967741  0.0291327 -0.111292 -0.000370502  0.028694 -0.103827 -0.000808001  0.0352731 -0.104762 -0.000482082  0.0287002 -0.103949 -0.000400543  0.0297621 -0.126229 -0.000636816  0.0367726 -0.127083 -0.000377893  0.0363529 -0.119423 -0.000829697  0.0297712 -0.126319 -0.000313044  0.0294809 -0.118643 -0.000691652  0.0363592 -0.119529 -0.000411987  0.0294888 -0.11875 -0.000341177  0.0301214 -0.141661 -0.000533581  0.037362 -0.142471 -0.000314951  0.0370994 -0.134641 -0.000700951  0.0301309 -0.141737 -0.000260353  0.0299762 -0.133891 -0.000584364  0.0371059 -0.134732 -0.000346422  0.0299842 -0.133983 -0.000286102  0.0302321 -0.157396 -0.000438452  0.0376626 -0.158162 -0.000258446  0.0375398 -0.150204 -0.00058341  0.0302417 -0.157457 -0.000211239  0.0302073 -0.149484 -0.000484943  0.037547 -0.150281 -0.000286341  0.0302159 -0.149563 -0.000235081  0.0301218 -0.173358 -0.000351667  0.0377046 -0.174085 -0.00020504  0.0377066 -0.166032 -0.000475168  0.0301312 -0.173409 -0.000166416  0.0302041 -0.165342 -0.000393867  0.037714 -0.166097 -0.000230789  0.0302126 -0.165407 -0.000187874  0.0298183 -0.189478 -0.000273466  0.0375206 -0.190165 -0.000156403  0.037632 -0.182054 -0.00037694  0.0298276 -0.189517 -0.000125408  0.0299934 -0.181391 -0.000311136  0.0376394 -0.182107 -0.000180006  0.0300021 -0.181445 -0.000144958  0.0293481 -0.205696 -0.000203371  0.0371401 -0.206349 -0.000113249  0.0373466 -0.198203 -0.000289202  0.0293577 -0.205726 -8.89301e-05  0.0296037 -0.197567 -0.000237226  0.0373533 -0.198246 -0.000134706  0.0296121 -0.197611 -0.000106335  0.0287378 -0.221958 -0.000142097  0.0365934 -0.222577 -7.65324e-05  0.0368793 -0.214424 -0.000211716  0.0287471 -0.221979 -5.62668e-05  0.0290599 -0.213813 -0.000171661  0.0368862 -0.214458 -9.44138e-05  0.0290685 -0.213848 -7.20024e-05  0.0280118 -0.238219 -8.9407e-05  0.0359094 -0.238811 -4.3869e-05  0.0362606 -0.230668 -0.000144958  0.0280209 -0.238235 -2.86102e-05  0.0283895 -0.230081 -0.000114918  0.036267 -0.230694 -5.91278e-05  0.0283973 -0.230108 -4.17233e-05  0.0271947 -0.254442 -4.57764e-05  0.035116 -0.255006 -1.66893e-05  0.0355184 -0.246893 -8.91685e-05  0.0272036 -0.254451 -4.52995e-06  0.0276146 -0.246327 -6.67572e-05  0.0355253 -0.246913 -3.00407e-05  0.0276225 -0.246348 -1.57356e-05  0.0263069 -0.270596 -9.77516e-06  0.0342395 -0.27114 6.19888e-06  0.0346801 -0.263066 -4.29153e-05  0.0263157 -0.2706 1.4782e-05  0.0267596 -0.262518 -2.69413e-05  0.0346868 -0.263081 -4.52995e-06  0.0267673 -0.262534 5.72205e-06  0.0253692 -0.286657 1.90735e-05  0.0333054 -0.287185 2.47955e-05  0.0337715 -0.279161 -5.72205e-06  0.0253782 -0.286658 3.19481e-05  0.0258436 -0.278628 5.48363e-06  0.0337784 -0.279172 1.57356e-05  0.0258524 -0.278639 2.43187e-05  0.0243988 -0.302618 4.41074e-05  0.0323341 -0.303139 4.02927e-05  0.0328152 -0.295162 2.40803e-05  0.0244083 -0.302619 4.62532e-05  0.0248883 -0.294639 3.19481e-05  0.0328236 -0.295171 3.31402e-05  0.0248964 -0.294649 3.93391e-05  0.0234189 -0.318488 6.84261e-05  0.0313487 -0.319018 5.65052e-05  0.0318334 -0.311074 5.00679e-05  0.0234284 -0.318489 6.07967e-05  0.0239091 -0.310552 5.62668e-05  0.0318418 -0.311084 4.79221e-05  0.0239179 -0.310562 5.36442e-05  0.00426625 -0.00740987 -0.00118923  0 0 0  0.00638075 -0.0098545 -0.000665665  0.00269207 -0.00612932 -0.000751019  0 0 0  0.00426209 -0.00749749 -0.000585318  0.00144951 -0.00395721 -0.000644684  0 0 0  0.00270832 -0.00619745 -0.00036788  0.00144891 -0.00400579 -0.00031662  0.0102112 -0.0134275 -0.00191808  0.0128197 -0.0154089 -0.00107598  0.00967348 -0.0123767 -0.0018332  0.0101819 -0.0135854 -0.00094986  0.007269 -0.0103737 -0.00161409  0.00968 -0.012529 -0.00090456  0.00725253 -0.0105106 -0.000796795  0.0159207 -0.0200292 -0.00223088  0.0190336 -0.0218681 -0.00125885  0.0159684 -0.0182821 -0.00240302  0.0158737 -0.0202237 -0.00111055  0.0131052 -0.0165693 -0.00211859  0.0159376 -0.0184832 -0.00119328  0.0130648 -0.0167586 -0.00105214  0.0212002 -0.0278907 -0.00226355  0.0249453 -0.0295821 -0.00128365  0.0220995 -0.0253271 -0.00257778  0.0211543 -0.0280935 -0.00113201  0.0186261 -0.0237821 -0.00227213  0.0220493 -0.0255465 -0.00128651  0.0185767 -0.0239924 -0.00113416  0.0259262 -0.0370545 -0.00214911  0.030309 -0.0386221 -0.00122333  0.0277507 -0.0337196 -0.00251842  0.0258918 -0.0372537 -0.0010767  0.0236362 -0.0323032 -0.00221801  0.0277041 -0.0339372 -0.00126123  0.0235956 -0.0325146 -0.00111055  0.0300653 -0.0474254 -0.00197268  0.0350409 -0.0488851 -0.00112581  0.0327922 -0.0434017 -0.00234747  0.0300435 -0.0476117 -0.000989437  0.0280701 -0.0420864 -0.00206494  0.0327553 -0.0436071 -0.00117779  0.0280415 -0.0422888 -0.00103521  0.0336257 -0.0588733 -0.0017767  0.0391344 -0.0602375 -0.00101447  0.0371919 -0.0542438 -0.00213408  0.0336139 -0.0590452 -0.00089097  0.0319169 -0.0530127 -0.00187564  0.0371666 -0.0544336 -0.00107169  0.0319002 -0.0532016 -0.000941038  0.0366364 -0.071263 -0.00157976  0.0426149 -0.0725408 -0.00090313  0.040966 -0.066106 -0.00191045  0.0366317 -0.0714167 -0.000792503  0.0351987 -0.064948 -0.00167775  0.0409486 -0.0662783 -0.000959635  0.0351899 -0.0651203 -0.000841379  0.039132 -0.0844689 -0.0013907  0.0455204 -0.085666 -0.000795603  0.0441481 -0.0788544 -0.00169182  0.0391318 -0.0846065 -0.000696659  0.0379472 -0.0777613 -0.00148416  0.0441375 -0.0790083 -0.000849724  0.0379443 -0.0779164 -0.000743866  0.0411499 -0.0983696 -0.0012126  0.0478915 -0.0994906 -0.000694036  0.0467776 -0.0923622 -0.0014832  0.0411527 -0.098489 -0.000606775  0.0401998 -0.0913292 -0.00130033  0.0467699 -0.0924979 -0.00074482  0.0401998 -0.0914668 -0.000651121  0.0427274 -0.112856 -0.00104618  0.0497702 -0.113906 -0.000598192  0.048895 -0.106512 -0.00128818  0.0427319 -0.112961 -0.000522375  0.0419921 -0.105536 -0.00112772  0.0488902 -0.106631 -0.000646114  0.0419953 -0.105657 -0.00056386  0.0439024 -0.127826 -0.000891209  0.0511975 -0.128806 -0.000510216  0.0505414 -0.121199 -0.00110507  0.0439076 -0.127913 -0.000444412  0.0433644 -0.120277 -0.000967264  0.0505375 -0.121301 -0.000553846  0.043368 -0.120381 -0.000482559  0.0447103 -0.143186 -0.000748634  0.0522138 -0.144101 -0.000427008  0.0517563 -0.136322 -0.00093627  0.0447167 -0.143261 -0.000371218  0.0443505 -0.135452 -0.000818491  0.0517548 -0.13641 -0.000468254  0.0443559 -0.135542 -0.000406981  0.0451896 -0.158852 -0.000617743  0.0528604 -0.159704 -0.000351906  0.0525818 -0.151795 -0.000781059  0.0451961 -0.158912 -0.000305176  0.0449904 -0.150976 -0.000681877  0.0525808 -0.151869 -0.000389338  0.0449954 -0.151052 -0.000337362  0.045373 -0.174748 -0.000498772  0.0531752 -0.175541 -0.000282764  0.0530564 -0.167536 -0.000638962  0.0453805 -0.174797 -0.000243902  0.0453167 -0.166765 -0.000556946  0.0530571 -0.167598 -0.000317574  0.0453233 -0.166829 -0.000274181  0.0452976 -0.190805 -0.000391245  0.0531957 -0.191542 -0.000220776  0.0532185 -0.183476 -0.000510216  0.045305 -0.190841 -0.000188828  0.0453671 -0.18275 -0.000443459  0.0532194 -0.183525 -0.00025177  0.0453731 -0.182802 -0.000215769  0.0449958 -0.206963 -0.000295639  0.0529609 -0.207649 -0.000164986  0.0531058 -0.199546 -0.00039506  0.0450037 -0.206991 -0.000139236  0.0451736 -0.198864 -0.000341654  0.053108 -0.199586 -0.000192404  0.0451808 -0.198906 -0.000163078  0.044502 -0.223169 -0.000212431  0.0525072 -0.223809 -0.000116348  0.0527565 -0.215694 -0.000294209  0.0445101 -0.223188 -9.63211e-05  0.0447726 -0.215052 -0.000252485  0.0527585 -0.215725 -0.000140667  0.0447788 -0.215085 -0.000117064  0.0438483 -0.23938 -0.000141859  0.0518711 -0.239978 -7.39098e-05  0.0522063 -0.231871 -0.000206947  0.0438564 -0.239394 -5.88894e-05  0.0441942 -0.231266 -0.000175476  0.0522099 -0.231895 -9.5129e-05  0.0442014 -0.231292 -7.67708e-05  0.0430672 -0.255558 -8.34465e-05  0.051089 -0.25612 -4.05312e-05  0.0514925 -0.248037 -0.000134468  0.0430758 -0.255565 -2.83718e-05  0.0434735 -0.247465 -0.000111103  0.051496 -0.248055 -5.72205e-05  0.0434802 -0.247484 -4.29153e-05  0.0421898 -0.271674 -3.69549e-05  0.0501974 -0.272208 -1.28746e-05  0.0506494 -0.264159 -7.60555e-05  0.0421984 -0.271678 -3.09944e-06  0.0426395 -0.263615 -5.88894e-05  0.0506549 -0.264173 -2.64645e-05  0.0426474 -0.263629 -1.50204e-05  0.0412455 -0.287708 -7.15256e-07  0.0492311 -0.288223 8.82149e-06  0.0497155 -0.280216 -3.05176e-05  0.0412555 -0.287708 1.66893e-05  0.0417252 -0.279692 -1.7643e-05  0.0497203 -0.280226 -1.66893e-06  0.0417335 -0.279703 7.39098e-06  0.0402637 -0.303655 2.86102e-05  0.0482287 -0.304165 2.64645e-05  0.0487237 -0.296194 3.09944e-06  0.0402744 -0.303656 3.38554e-05  0.0407586 -0.295682 1.43051e-05  0.0487325 -0.296203 1.66893e-05  0.0407684 -0.295691 2.55108e-05  0.0392666 -0.31954 5.57899e-05  0.0472174 -0.320055 4.22001e-05  0.0477147 -0.312105 3.21865e-05  0.0392778 -0.31954 4.98295e-05  0.039767 -0.311592 4.22001e-05  0.0477231 -0.312113 3.31402e-05  0.0397768 -0.311602 4.19617e-05  -0.00644335 -0.00880884 0.00221634  -0.00276693 -0.00533733 0.00173068  0 0 0  -0.0042273 -0.00627154 0.00266743  0 0 0  -0.00284196 -0.00475577 0.0016427  -0.0010117 -0.00213711 0.00126743  0 0 0  -0.0028129 -0.00553158 0.00123787  -0.0042144 -0.00654473 0.00192595  -0.00144767 -0.00326939 0.00146651  0 0 0  -0.000995476 -0.00225314 0.000905991  -0.00143968 -0.00341047 0.00105047  -0.0129658 -0.0137393 0.00350046  -0.00971726 -0.0107002 0.00409961  -0.0102288 -0.0115697 0.00419784  -0.00784987 -0.0104776 0.00263619  -0.00532404 -0.00720992 0.00307035  -0.0097529 -0.0111413 0.00296903  -0.0101705 -0.0120455 0.00306535  -0.00723691 -0.00884523 0.00357461  -0.00525898 -0.0075594 0.00222778  -0.0072028 -0.00924212 0.00259423  -0.0193683 -0.0196429 0.00402331  -0.0162164 -0.0159527 0.00522757  -0.0160582 -0.0176326 0.0047574  -0.0129513 -0.0168978 0.00303793  -0.010518 -0.0130548 0.00393295  -0.0161711 -0.0165311 0.0038414  -0.015985 -0.0181857 0.0035274  -0.0131799 -0.0144292 0.00457263  -0.010433 -0.0135406 0.00289798  -0.0131058 -0.0149629 0.00336599  -0.0255416 -0.0268274 0.00404  -0.0225599 -0.0224537 0.00547361  -0.0215241 -0.0250486 0.00472927  -0.0177436 -0.0245409 0.0030458  -0.0154452 -0.0200231 0.00411892  -0.0225012 -0.023059 0.00407553  -0.0214854 -0.0256052 0.00354171  -0.0188411 -0.0211587 0.00479198  -0.0153886 -0.0205563 0.00307488  -0.0187822 -0.0217277 0.00357294  -0.0312951 -0.0353344 0.00379753  -0.0285041 -0.0303421 0.00525093  -0.0265872 -0.033798 0.00442505  -0.0221921 -0.0334492 0.00286055  -0.0200158 -0.0283106 0.00394917  -0.0284757 -0.0309198 0.00393796  -0.0265937 -0.0343231 0.0033288  -0.0241051 -0.0292541 0.00459766  -0.0200111 -0.0288395 0.00296831  -0.02409 -0.0298061 0.00345206  -0.0365855 -0.0450613 0.00345445  -0.0339894 -0.0395257 0.00482655  -0.0312596 -0.0437587 0.00401163  -0.0263045 -0.0435319 0.00259376  -0.0242498 -0.0378504 0.00362635  -0.0339981 -0.0400544 0.00363183  -0.0313029 -0.0442391 0.0030241  -0.0289701 -0.0386265 0.00422502  -0.0242885 -0.0383495 0.00273347  -0.0289975 -0.0391389 0.00318217  -0.0414221 -0.0558729 0.00308108  -0.0390221 -0.0498664 0.00433421  -0.0355617 -0.0547935 0.00357246  -0.0301017 -0.0546685 0.00231171  -0.0281718 -0.0485176 0.00325227  -0.0390592 -0.0503404 0.00326681  -0.0356284 -0.0552232 0.00269604  -0.0334551 -0.0491407 0.00379229  -0.0282411 -0.0489744 0.00245404  -0.0335124 -0.0496049 0.00285983  -0.0458329 -0.0676466 0.00271821  -0.0436224 -0.0612292 0.00383854  -0.0395162 -0.0667727 0.00314713  -0.0336061 -0.0667364 0.00203514  -0.0318023 -0.0601812 0.00287771  -0.0436783 -0.0616485 0.00289536  -0.0395952 -0.0671531 0.00237608  -0.0375798 -0.0606634 0.00335741  -0.0318885 -0.0605916 0.00217271  -0.0376548 -0.0610772 0.0025332  -0.0498486 -0.0802591 0.00237465  -0.0478241 -0.0734879 0.00336766  -0.0431459 -0.0795775 0.00274825  -0.0368392 -0.0796212 0.00177789  -0.0351624 -0.0727181 0.00252199  -0.0478885 -0.0738556 0.00254178  -0.0432285 -0.0799096 0.00207591  -0.0413694 -0.0730696 0.00294399  -0.0352556 -0.0730817 0.00190473  -0.0414521 -0.0734342 0.00222254  -0.0534989 -0.0936054 0.00206089  -0.0516503 -0.0865287 0.0029304  -0.0464718 -0.0930984 0.00238109  -0.0398198 -0.0932137 0.00154066  -0.0382665 -0.086015 0.0021925  -0.0517172 -0.0868484 0.00221348  -0.0465533 -0.093386 0.0018003  -0.044844 -0.0862456 0.00256085  -0.0383592 -0.0863336 0.00165749  -0.044928 -0.0865638 0.00193453  -0.0568106 -0.107578 0.0017736  -0.0551316 -0.100244 0.00252962  -0.0495139 -0.107232 0.00204635  -0.0425657 -0.107413 0.00132656  -0.0411321 -0.0999657 0.00189233  -0.055196 -0.10052 0.00191283  -0.0495903 -0.107478 0.00154948  -0.0480266 -0.100085 0.00220966  -0.0412214 -0.100242 0.00143218  -0.0481064 -0.10036 0.00167131  -0.0598074 -0.122086 0.001513  -0.0582861 -0.114537 0.00216317  -0.05229 -0.121885 0.00174093  -0.0450912 -0.122124 0.00113082  -0.0437721 -0.114472 0.00161839  -0.0583467 -0.114772 0.00163841  -0.0523597 -0.122093 0.00132108  -0.0509326 -0.11449 0.00188971  -0.0438546 -0.114709 0.0012269  -0.0510072 -0.114725 0.0014317  -0.0625111 -0.137036 0.0012753  -0.0611405 -0.129313 0.00183034  -0.0548168 -0.136967 0.00146437  -0.0474101 -0.137259 0.000955343  -0.0462008 -0.129441 0.00136971  -0.0611947 -0.129511 0.00138974  -0.0548792 -0.137139 0.00111461  -0.0535824 -0.129368 0.00159955  -0.0462756 -0.129642 0.00104117  -0.0536497 -0.129566 0.00121474  -0.0649431 -0.15235 0.00106287  -0.0637108 -0.144488 0.00152946  -0.0571113 -0.152396 0.0012157  -0.0495358 -0.152734 0.000795841  -0.0484293 -0.144789 0.0011456  -0.0637593 -0.144653 0.00116515  -0.0571662 -0.152538 0.000928879  -0.0559903 -0.144634 0.00133681  -0.0484955 -0.144957 0.000874043  -0.0560507 -0.144799 0.00101876  -0.0671246 -0.167948 0.000872135  -0.0660218 -0.159983 0.00125957  -0.0591905 -0.168098 0.000993729  -0.051482 -0.168476 0.000656128  -0.0504718 -0.160437 0.000944853  -0.0660644 -0.160118 0.000963688  -0.0592377 -0.168211 0.000763416  -0.0581759 -0.160208 0.00110149  -0.0505307 -0.160575 0.000724554  -0.0582277 -0.160344 0.000843048  -0.0690763 -0.183764 0.000705242  -0.0680909 -0.175725 0.00101924  -0.061071 -0.184002 0.00079751  -0.053262 -0.184413 0.000530958  -0.0523406 -0.176311 0.000766993  -0.0681275 -0.175834 0.000784636  -0.0611115 -0.184091 0.000617743  -0.0601529 -0.176019 0.000892401  -0.0523912 -0.176422 0.000592232  -0.0601981 -0.176129 0.000687599  -0.0708199 -0.199731 0.000558853  -0.0699433 -0.191648 0.000808239  -0.0627713 -0.200046 0.000626802  -0.0548892 -0.200485 0.000425577  -0.0540504 -0.192346 0.000611067  -0.0699731 -0.191732 0.000627995  -0.0628042 -0.200112 0.000491142  -0.0619419 -0.192001 0.000709057  -0.0540938 -0.192434 0.000476837  -0.0619793 -0.192086 0.000551462  -0.0723779 -0.215796 0.000434399  -0.0715954 -0.207691 0.000627041  -0.0643089 -0.216173 0.000482082  -0.0563796 -0.216634 0.000332832  -0.0556138 -0.208483 0.000476837  -0.07162 -0.207755 0.00049305  -0.0643361 -0.216222 0.000383615  -0.0635574 -0.208093 0.000551462  -0.05565 -0.208551 0.000377417  -0.0635891 -0.208159 0.000434637  -0.0737734 -0.231906 0.000331879  -0.0730746 -0.223801 0.000474453  -0.0657036 -0.232335 0.000361681  -0.0577486 -0.232813 0.000258207  -0.0570478 -0.22467 0.000364065  -0.0730948 -0.223849 0.000380039  -0.065726 -0.232367 0.000294924  -0.0650218 -0.224243 0.000418901  -0.0570781 -0.224721 0.00029397  -0.0650475 -0.224292 0.00033617  -0.0750308 -0.248023 0.00025177  -0.0743995 -0.239934 0.000350475  -0.0669758 -0.24849 0.000266552  -0.0590127 -0.248979 0.000198364  -0.0583673 -0.240862 0.000272989  -0.0744171 -0.239967 0.000288725  -0.0669944 -0.24851 0.000224829  -0.0663519 -0.240406 0.000311136  -0.0583918 -0.240898 0.000227213  -0.0663738 -0.240441 0.000257254  -0.0761776 -0.264106 0.00019145  -0.0756009 -0.256048 0.000255108  -0.0681477 -0.2646 0.00019598  -0.0601888 -0.265098 0.000156164  -0.0595896 -0.257019 0.000202656  -0.0756166 -0.256071 0.000218153  -0.0681639 -0.26461 0.00017333  -0.0675719 -0.256543 0.000228643  -0.0596106 -0.257044 0.000175714  -0.06759 -0.256566 0.000196457  -0.0772452 -0.280135 0.000151873  -0.0767024 -0.272115 0.000187159  -0.0692437 -0.280642 0.000146627  -0.0612969 -0.281142 0.000123978  -0.0607309 -0.273111 0.000151873  -0.0767193 -0.27213 0.000168562  -0.0692596 -0.280647 0.000137329  -0.0687022 -0.272621 0.000169039  -0.0607498 -0.273128 0.000138998  -0.0687191 -0.272637 0.000152826  -0.0782681 -0.296094 0.000123262  -0.0777435 -0.288112 0.000141859  -0.0702901 -0.296601 0.000111103  -0.0623555 -0.297102 0.000101328  -0.0618138 -0.289118 0.000114918  -0.07776 -0.288123 0.000135422  -0.0703056 -0.296603 0.000111103  -0.0697703 -0.288622 0.000127316  -0.0618312 -0.289131 0.000112295  -0.069787 -0.288634 0.000122547  -0.0792809 -0.312004 0.000100136  -0.0787549 -0.304041 0.000109196  -0.0713136 -0.312496 7.82013e-05  -0.0633919 -0.312987 7.89165e-05  -0.0628562 -0.305038 8.51154e-05  -0.078774 -0.304053 0.00011158  -0.0713317 -0.312501 8.7738e-05  -0.0708013 -0.304545 9.48906e-05  -0.0628736 -0.30505 9.05991e-05  -0.0708191 -0.304556 9.89437e-05  -0.00213479 -0.00342622 0.00190854  0 0 0  -0.00149833 -0.00287896 0.00110507  -0.000534534 -0.000999317 0.000851631  0 0 0  -0.00209285 -0.00362585 0.00137329  -0.00072217 -0.00143847 0.001055  0 0 0  -0.000520036 -0.00108689 0.000604868  -0.000703588 -0.00154062 0.000751734  -0.00605577 -0.00879757 0.00303721  -0.0044034 -0.00817597 0.00178862  -0.00289229 -0.00506425 0.00208378  -0.00597347 -0.00917056 0.0022161  -0.00397432 -0.0059486 0.00257802  -0.00283401 -0.00533363 0.00150704  -0.00390767 -0.00625426 0.00186753  -0.0102979 -0.015336 0.00343609  -0.00777936 -0.0149191 0.00205636  -0.006156 -0.0109885 0.00266695  -0.0102238 -0.0158045 0.00255013  -0.00819281 -0.0118983 0.0033052  -0.00608119 -0.011388 0.00196362  -0.00810719 -0.0123386 0.00243425  -0.0143073 -0.0231432 0.00340343  -0.0110682 -0.0229182 0.00205326  -0.00949109 -0.0182917 0.00278044  -0.0142803 -0.0236417 0.00255275  -0.0123378 -0.0190637 0.00345349  -0.00944796 -0.0187604 0.00207686  -0.0122856 -0.0195635 0.0025785  -0.0180327 -0.0322282 0.00317454  -0.0141479 -0.0321393 0.00191998  -0.0126297 -0.0268909 0.00265408  -0.0180551 -0.0327189 0.00239158  -0.0162036 -0.0275203 0.00330329  -0.0126348 -0.0273789 0.00199676  -0.016203 -0.0280282 0.00248408  -0.021499 -0.0424871 0.00287223  -0.0170242 -0.0424947 0.00173664  -0.0155654 -0.0367042 0.00242782  -0.0215573 -0.0429476 0.00216746  -0.0197955 -0.0372072 0.00302815  -0.0156097 -0.03718 0.00183177  -0.0198386 -0.0376945 0.00228333  -0.0247312 -0.0537964 0.00255442  -0.0197209 -0.0538771 0.00154328  -0.0183237 -0.0476174 0.00217247  -0.024811 -0.0542172 0.00192833  -0.0231425 -0.048007 0.00271297  -0.0183935 -0.048063 0.00164056  -0.0232137 -0.0484584 0.00204754  -0.0277475 -0.0660292 0.00224686  -0.0222562 -0.0661699 0.00135636  -0.0209236 -0.0595083 0.00191855  -0.0278375 -0.0664056 0.00169683  -0.0262641 -0.0597931 0.00239849  -0.0210075 -0.0599147 0.00144911  -0.0263513 -0.0602018 0.00181079  -0.030562 -0.0790706 0.00196004  -0.0246441 -0.0792635 0.00118351  -0.0233793 -0.0722578 0.00167871  -0.0306544 -0.079403 0.00148106  -0.0291781 -0.0724443 0.00210094  -0.0234678 -0.0726217 0.00126863  -0.0292711 -0.0728086 0.00158668  -0.0331867 -0.092809 0.00169802  -0.0268937 -0.0930485 0.00102592  -0.0256976 -0.0857529 0.00145817  -0.0332761 -0.0930981 0.00128436  -0.0318959 -0.0858477 0.00182629  -0.0257854 -0.0860742 0.00110292  -0.0319885 -0.0861679 0.00138021  -0.0356315 -0.107144 0.00145841  -0.0290134 -0.107426 0.000882626  -0.0278858 -0.0998875 0.0012579  -0.0357153 -0.107393 0.00110483  -0.0344301 -0.0998963 0.00157547  -0.0279691 -0.100168 0.000952721  -0.0345178 -0.100175 0.00119233  -0.0379053 -0.121979 0.00124168  -0.0310088 -0.122299 0.000754118  -0.0299489 -0.114563 0.00107574  -0.0379817 -0.12219 0.000943184  -0.0367876 -0.114493 0.00134754  -0.0300262 -0.114804 0.000816822  -0.0368692 -0.114733 0.00102186  -0.0400175 -0.137226 0.00104547  -0.0328857 -0.13758 0.00063777  -0.0318918 -0.129686 0.000911474  -0.0400858 -0.137403 0.000796556  -0.0389799 -0.129545 0.00114107  -0.0319616 -0.129892 0.000694513  -0.0390534 -0.129748 0.000867605  -0.0419762 -0.152802 0.000869751  -0.0346485 -0.153185 0.000533581  -0.0337188 -0.145172 0.000763655  -0.0420364 -0.152947 0.000665665  -0.0410135 -0.144966 0.000954866  -0.0337806 -0.145345 0.000584364  -0.0410795 -0.145137 0.000728846  -0.0437911 -0.168632 0.00071311  -0.0363039 -0.169042 0.000442266  -0.0354351 -0.160942 0.000632048  -0.0438432 -0.16875 0.000549316  -0.0429001 -0.160678 0.000788927  -0.0354893 -0.161085 0.000486612  -0.0429569 -0.160819 0.000605583  -0.0454711 -0.184647 0.000575066  -0.0378568 -0.185078 0.000361443  -0.037046 -0.176923 0.000515938  -0.0455154 -0.184739 0.000447273  -0.0446457 -0.176609 0.000642061  -0.0370926 -0.177039 0.000400782  -0.0446953 -0.176724 0.000496387  -0.0470269 -0.200785 0.000455618  -0.039315 -0.201233 0.00029254  -0.0385573 -0.193049 0.000414371  -0.0470641 -0.200856 0.000358582  -0.0462627 -0.192692 0.000513315  -0.0385973 -0.193142 0.000325918  -0.0463045 -0.192784 0.000401258  -0.0484691 -0.21699 0.000354052  -0.0406842 -0.217452 0.000234842  -0.0399761 -0.209263 0.000327826  -0.0484993 -0.217042 0.000283957  -0.0477598 -0.208871 0.000402689  -0.0400097 -0.209336 0.00026226  -0.0477951 -0.208942 0.000319481  -0.049809 -0.233214 0.000270605  -0.0419734 -0.233687 0.000186205  -0.0413115 -0.225513 0.000255346  -0.049834 -0.233251 0.000222206  -0.0491495 -0.225091 0.000310183  -0.0413382 -0.225568 0.000208855  -0.0491784 -0.225144 0.000251293  -0.0510602 -0.249415 0.000204563  -0.0431907 -0.249896 0.000148535  -0.0425684 -0.241753 0.000196695  -0.0510802 -0.249439 0.000174284  -0.0504432 -0.241308 0.000235081  -0.0425901 -0.241795 0.000166178  -0.050467 -0.241348 0.000196457  -0.0522349 -0.26556 0.000154495  -0.0443459 -0.266047 0.000120878  -0.0437582 -0.257948 0.000151873  -0.0522511 -0.265574 0.000138283  -0.0516553 -0.257485 0.000177622  -0.0437756 -0.257978 0.000133753  -0.0516741 -0.257513 0.000154495  -0.0533454 -0.281622 0.000118494  -0.0454476 -0.282113 0.000100374  -0.0448871 -0.274068 0.000118971  -0.0533597 -0.281629 0.000112295  -0.0527959 -0.273591 0.000135183  -0.0449028 -0.27409 0.000110149  -0.0528119 -0.273611 0.000124216  -0.0544086 -0.297589 9.13143e-05  -0.0465066 -0.29808 8.55923e-05  -0.0459678 -0.290092 9.36985e-05  -0.0544214 -0.297593 9.27448e-05  -0.0538809 -0.289606 0.000103951  -0.0459812 -0.290108 9.29832e-05  -0.0538952 -0.289622 0.000101805  -0.0554471 -0.31346 6.46114e-05  -0.0475459 -0.31394 6.98566e-05  -0.0470128 -0.306006 7.27177e-05  -0.0554602 -0.313466 7.41482e-05  -0.0549264 -0.305524 7.82013e-05  -0.0470259 -0.306022 7.84397e-05  -0.0549409 -0.305539 8.36849e-05  -0.00105917 -0.00225049 0.00116158  0 0 0  -0.00063429 -0.00211537 0.000557184  -0.000225432 -0.000579417 0.000429392  0 0 0  -0.00103196 -0.00240231 0.000833988  -0.000361294 -0.000730276 0.0006423  0 0 0  -0.000218946 -0.000646085 0.000304699  -0.000350233 -0.000806928 0.000455618  -0.00315383 -0.00717968 0.00185299  -0.00192925 -0.00703877 0.000905514  -0.00124557 -0.00409961 0.00105286  -0.00309885 -0.00747764 0.00135088  -0.00201677 -0.00446543 0.00157285  -0.00121899 -0.00431755 0.000761986  -0.0019725 -0.00470573 0.00113726  -0.00562826 -0.0138606 0.00209284  -0.00354552 -0.0138317 0.00104403  -0.00275105 -0.00990579 0.00135255  -0.00558081 -0.0142603 0.00155449  -0.00437778 -0.010327 0.00201583  -0.00271729 -0.010247 0.00099659  -0.00432116 -0.0106933 0.00148439  -0.00807652 -0.0219288 0.00206399  -0.00522014 -0.0220336 0.00104117  -0.00439867 -0.0173494 0.00140786  -0.00806543 -0.0223798 0.00154972  -0.00686577 -0.0177188 0.0020988  -0.00438476 -0.0177707 0.00105381  -0.00683522 -0.0181608 0.00156856  -0.0104026 -0.0312581 0.00191736  -0.00685632 -0.0314638 0.000969648  -0.00602818 -0.0261442 0.0013392  -0.0104293 -0.0317192 0.00144672  -0.00925434 -0.0264307 0.00199938  -0.00604457 -0.0266005 0.00100994  -0.00926387 -0.0269013 0.00150514  -0.0126134 -0.0417337 0.0017283  -0.00844485 -0.0420053 0.000872612  -0.00761497 -0.0361422 0.00121975  -0.012667 -0.0421785 0.00130582  -0.0115206 -0.0363477 0.00182557  -0.0076558 -0.0365991 0.00092268  -0.0115626 -0.0368133 0.0013783  -0.0147265 -0.0532424 0.00153208  -0.00999737 -0.0535582 0.000771284  -0.00916815 -0.0472243 0.00108552  -0.0147958 -0.0536557 0.00115871  -0.0136805 -0.047355 0.00162983  -0.00922459 -0.0476597 0.000822067  -0.0137439 -0.0477953 0.00123191  -0.0167537 -0.0656608 0.00134444  -0.0115222 -0.0660079 0.000675678  -0.010698 -0.0592729 0.000954151  -0.0168299 -0.0660353 0.00101662  -0.0157494 -0.0593332 0.00143671  -0.0107626 -0.0596748 0.000723124  -0.0158238 -0.0597374 0.001086  -0.0187014 -0.078878 0.00117087  -0.0130235 -0.0792504 0.000588179  -0.0122091 -0.0721718 0.000832081  -0.0187782 -0.079211 0.00088644  -0.0177362 -0.0721651 0.00125599  -0.0122756 -0.0725345 0.000631094  -0.0178143 -0.0725286 0.00094986  -0.0205717 -0.0927798 0.00101256  -0.0145006 -0.0931736 0.000507355  -0.0137 -0.0858083 0.000720263  -0.0206456 -0.0930715 0.000767469  -0.0196449 -0.0857378 0.00108981  -0.0137647 -0.0861306 0.000547409  -0.0197216 -0.0860599 0.000825167  -0.0223668 -0.107268 0.000869036  -0.0159529 -0.107681 0.00043726  -0.0151685 -0.100076 0.000619173  -0.0224357 -0.10752 0.000660658  -0.0214773 -0.0999452 0.000939369  -0.0152298 -0.100358 0.000471592  -0.0215501 -0.100227 0.000712395  -0.024087 -0.122242 0.00074029  -0.0173769 -0.122672 0.000374556  -0.0166119 -0.114875 0.000529051  -0.0241493 -0.122457 0.000564575  -0.023235 -0.114688 0.000802994  -0.0166681 -0.115119 0.000404835  -0.0233016 -0.114931 0.000610828  -0.025733 -0.137617 0.00062418  -0.0187709 -0.138062 0.000317574  -0.0180274 -0.130112 0.000448942  -0.0257885 -0.137798 0.000478506  -0.0249177 -0.129873 0.000680447  -0.0180777 -0.13032 0.000345469  -0.024978 -0.130081 0.000519753  -0.0273056 -0.153305 0.000520945  -0.020131 -0.153763 0.000268936  -0.0194111 -0.1457 0.000377417  -0.0273541 -0.153455 0.000401497  -0.026527 -0.145415 0.000571012  -0.0194547 -0.145875 0.000292778  -0.0265802 -0.145589 0.000438452  -0.0288064 -0.169236 0.000430107  -0.0214561 -0.169705 0.000225782  -0.0207597 -0.16156 0.000314951  -0.0288483 -0.169358 0.00033474  -0.0280637 -0.161234 0.000473738  -0.0207978 -0.161706 0.000247002  -0.0281097 -0.161379 0.000366449  -0.0302374 -0.185337 0.000350237  -0.0227437 -0.185813 0.00019002  -0.022072 -0.17762 0.00026083  -0.0302724 -0.185434 0.00027585  -0.0295292 -0.177258 0.000388622  -0.0221045 -0.177739 0.000207186  -0.0295687 -0.177376 0.000303745  -0.031601 -0.201549 0.000281811  -0.0239933 -0.202031 0.000158787  -0.0233462 -0.193814 0.000213861  -0.0316298 -0.201623 0.000226021  -0.030926 -0.193421 0.000314951  -0.0233729 -0.19391 0.000173092  -0.0309589 -0.193516 0.000249624  -0.0329001 -0.217813 0.000223875  -0.0252044 -0.2183 0.000132799  -0.0245817 -0.210084 0.000174522  -0.0329237 -0.217869 0.000183582  -0.0322568 -0.209666 0.000252008  -0.0246034 -0.21016 0.000144958  -0.0322845 -0.20974 0.000203609  -0.0341401 -0.234088 0.000177145  -0.0263782 -0.234578 0.000112534  -0.0257788 -0.226381 0.000142574  -0.0341585 -0.234128 0.000149965  -0.0335257 -0.225941 0.000199318  -0.0257957 -0.226439 0.00012207  -0.0335479 -0.225998 0.000165462  -0.0353248 -0.250327 0.000140429  -0.0275152 -0.250819 9.70364e-05  -0.0269368 -0.242659 0.000117779  -0.0353386 -0.250354 0.000123262  -0.0347376 -0.242203 0.000157833  -0.0269506 -0.242703 0.000104904  -0.0347548 -0.242245 0.000135422  -0.0364594 -0.266504 0.00011301  -0.0286176 -0.266997 8.70228e-05  -0.0280592 -0.258884 9.87053e-05  -0.0364704 -0.26652 0.000104189  -0.0358965 -0.258414 0.000125647  -0.0280702 -0.258915 9.17912e-05  -0.0359101 -0.258445 0.000112534  -0.0375493 -0.282586 9.29832e-05  -0.0296881 -0.283079 7.96318e-05  -0.0291479 -0.275026 8.60691e-05  -0.0375588 -0.282595 8.98838e-05  -0.0370085 -0.274546 0.000102282  -0.0291564 -0.275048 8.32081e-05  -0.0370193 -0.274568 9.60827e-05  -0.0386028 -0.29856 7.72476e-05  -0.0307307 -0.299054 7.53403e-05  -0.0302048 -0.291062 7.62939e-05  -0.0386109 -0.298566 8.03471e-05  -0.0380783 -0.290576 8.4877e-05  -0.0302122 -0.291079 7.72476e-05  -0.0380886 -0.290593 8.46386e-05  -0.0396347 -0.314404 6.1512e-05  -0.0317562 -0.31489 7.03335e-05  -0.0312364 -0.306971 6.84261e-05  -0.0396435 -0.314413 6.93798e-05  -0.0391181 -0.306488 6.96182e-05  -0.0312436 -0.306988 7.29561e-05  -0.0391276 -0.306504 7.43866e-05  -0.000278123 -0.00185338 0.000383615  0 0 0  6.95884e-05 -0.0019719 -5.96046e-06  2.57865e-05 -0.000510246 -9.05991e-06  0 0 0  -0.000272743 -0.00197947 0.000276566  -9.54308e-05 -0.000509769 0.000210524  0 0 0  2.36556e-05 -0.000568837 -4.76837e-06  -9.27113e-05 -0.000571758 0.000150204  -0.000866711 -0.00656652 0.000619888  0.000176549 -0.00681815 -4.76837e-07  0.000134826 -0.00392026 -9.53674e-06  -0.000856459 -0.00682548 0.000454187  -0.000540569 -0.00392452 0.000522852  0.000124276 -0.00411984 -3.8147e-06  -0.000532046 -0.0041298 0.000379801  -0.00163391 -0.0132635 0.000706673  0.000231445 -0.0136383 7.86781e-06  0.000232905 -0.00971094 2.14577e-06  -0.00163034 -0.0136259 0.000526667  -0.00123599 -0.00970352 0.000677824  0.000214189 -0.0100306 4.52995e-06  -0.00122756 -0.01003 0.000501156  -0.00247437 -0.0214588 0.000698328  0.000187874 -0.0219289 1.21593e-05  0.00024873 -0.0172164 1.0252e-05  -0.00248787 -0.0218826 0.000527143  -0.00204775 -0.0171818 0.000709772  0.000223339 -0.0176195 1.09673e-05  -0.00205281 -0.0175907 0.000532866  -0.00335515 -0.0309319 0.000645399  3.02792e-05 -0.0314599 9.53674e-06  0.000155151 -0.026103 1.0252e-05  -0.00338554 -0.0313762 0.000489473  -0.0029096 -0.0260337 0.000675201  0.00012368 -0.026547 1.14441e-05  -0.00293237 -0.0264821 0.000510693  -0.00427538 -0.0415426 0.000576735  -0.000243366 -0.0421005 4.76837e-06  -5.57899e-05 -0.0361958 4.52995e-06  -0.00431782 -0.041978 0.000438929  -0.00380921 -0.0360902 0.000612259  -9.197e-05 -0.0366459 7.62939e-06  -0.003847 -0.0365428 0.000464916  -0.00523949 -0.0531784 0.000505447  -0.000629961 -0.0537477 -2.38419e-06  -0.000383615 -0.0473701 -4.76837e-06  -0.00528854 -0.0535876 0.000384808  -0.00475085 -0.0472279 0.000540733  -0.000422657 -0.0478031 9.53674e-07  -0.00479794 -0.0476618 0.00041151  -0.00624782 -0.0657179 0.000437975  -0.00112385 -0.0662905 -7.15256e-06  -0.000824034 -0.0595096 -1.28746e-05  -0.00629914 -0.0660915 0.00033474  -0.00573725 -0.0593302 0.000471115  -0.00086391 -0.0599118 -5.00679e-06  -0.00578886 -0.0597322 0.000359058  -0.0072974 -0.0790518 0.000377417  -0.00171733 -0.0796223 -1.04904e-05  -0.00137007 -0.0724979 -1.85966e-05  -0.00734794 -0.0793861 0.000288963  -0.0067668 -0.0722809 0.000407219  -0.0014087 -0.0728629 -9.05991e-06  -0.00681877 -0.0726452 0.000311136  -0.00838196 -0.0930646 0.000323296  -0.00240016 -0.0936325 -1.14441e-05  -0.00201178 -0.0862216 -2.21729e-05  -0.00842941 -0.0933591 0.000248909  -0.00783432 -0.0859678 0.000349522  -0.00204778 -0.0865472 -1.14441e-05  -0.00788474 -0.086292 0.000268221  -0.00949502 -0.107658 0.000275612  -0.0031625 -0.108221 -1.0252e-05  -0.00273907 -0.100573 -2.24113e-05  -0.00953829 -0.107913 0.000213385  -0.00893426 -0.100284 0.0002985  -0.00277197 -0.100859 -1.09673e-05  -0.00898063 -0.100568 0.000230312  -0.0106287 -0.122728 0.000234842  -0.00399303 -0.123288 -7.39098e-06  -0.00354052 -0.11545 -2.09808e-05  -0.0106672 -0.122948 0.000184059  -0.0100583 -0.115127 0.000254154  -0.0035696 -0.115699 -9.05991e-06  -0.0101004 -0.115374 0.000197649  -0.0117767 -0.138192 0.000198841  -0.00488126 -0.138746 -2.86102e-06  -0.00440502 -0.130759 -1.69277e-05  -0.0118099 -0.138376 0.000157595  -0.0112001 -0.130405 0.000216484  -0.00443029 -0.130972 -5.24521e-06  -0.0112371 -0.130616 0.000170231  -0.012931 -0.153959 0.000168324  -0.0058161 -0.154509 2.38419e-06  -0.00532186 -0.146413 -1.21593e-05  -0.0129595 -0.154113 0.000135899  -0.0123518 -0.14603 0.000183105  -0.00534308 -0.146593 -7.15256e-07  -0.0123841 -0.146209 0.000146151  -0.0140864 -0.16996 0.000142574  -0.00678897 -0.170504 7.62939e-06  -0.00628066 -0.16233 -5.96046e-06  -0.0141101 -0.170085 0.000117064  -0.0135078 -0.161924 0.000154972  -0.00629866 -0.162481 5.00679e-06  -0.0135345 -0.162072 0.000126123  -0.0152366 -0.18612 0.000121117  -0.00778961 -0.186659 1.4782e-05  -0.00727212 -0.17844 1.19209e-06  -0.0152557 -0.18622 0.000102282  -0.0146608 -0.178012 0.000130892  -0.00728595 -0.178564 1.09673e-05  -0.0146836 -0.178134 0.000108957  -0.0163777 -0.202383 0.000103712  -0.00881004 -0.202915 2.14577e-05  -0.00828695 -0.194676 9.29832e-06  -0.0163922 -0.20246 9.03606e-05  -0.0158074 -0.194231 0.000111818  -0.00829768 -0.194776 1.81198e-05  -0.0158253 -0.194329 9.58443e-05  -0.0175047 -0.218689 8.98838e-05  -0.00984287 -0.219215 2.93255e-05  -0.00931668 -0.210981 1.74046e-05  -0.0175154 -0.218748 8.15392e-05  -0.0169415 -0.210521 9.63211e-05  -0.00932527 -0.21106 2.52724e-05  -0.0169556 -0.210599 8.53539e-05  -0.0186155 -0.234998 8.01086e-05  -0.0108819 -0.235517 3.69549e-05  -0.0103567 -0.227306 2.6226e-05  -0.0186229 -0.23504 7.4625e-05  -0.0180609 -0.226835 8.44002e-05  -0.0103617 -0.227367 3.26633e-05  -0.0180709 -0.226894 7.7486e-05  -0.0197072 -0.251263 7.36713e-05  -0.0119209 -0.251777 4.52995e-05  -0.0113988 -0.243606 3.52859e-05  -0.0197124 -0.251292 7.15256e-05  -0.0191622 -0.243126 7.67708e-05  -0.0114014 -0.243652 4.1008e-05  -0.0191698 -0.243171 7.27177e-05  -0.0207789 -0.26746 6.98566e-05  -0.0129561 -0.267968 5.17368e-05  -0.0124371 -0.259847 4.36306e-05  -0.0207825 -0.267478 6.91414e-05  -0.0202441 -0.259361 7.15256e-05  -0.0124393 -0.259881 4.8399e-05  -0.0202498 -0.259394 6.98566e-05  -0.0218301 -0.283557 6.8903e-05  -0.0139832 -0.284061 5.98431e-05  -0.0134692 -0.276001 5.31673e-05  -0.0218322 -0.283567 6.98566e-05  -0.0213056 -0.27551 6.93798e-05  -0.0134706 -0.276026 5.60284e-05  -0.0213096 -0.275534 6.93798e-05  -0.0228617 -0.299536 6.8903e-05  -0.0150013 -0.300037 6.69956e-05  -0.0144939 -0.292044 6.12736e-05  -0.0228627 -0.299543 7.08103e-05  -0.022347 -0.291551 6.8903e-05  -0.0144935 -0.292063 6.31809e-05  -0.0223496 -0.291569 7.00951e-05  -0.023876 -0.315361 6.91414e-05  -0.0160048 -0.315865 7.43866e-05  -0.0155056 -0.30795 7.03335e-05  -0.0238767 -0.315373 7.24792e-05  -0.0233684 -0.307458 6.8903e-05  -0.0155046 -0.30797 7.10487e-05  -0.023371 -0.307476 7.15256e-05  0.00043036 -0.00196493 -0.000404596  0 0 0  0.000775695 -0.00233173 -0.000561953  0.000277795 -0.00070411 -0.000442982  0 0 0  0.000413463 -0.00208747 -0.000286102  0.000147104 -0.000571609 -0.000227451  0 0 0  0.00026679 -0.000766575 -0.000310183  0.000140466 -0.000631452 -0.000159025  0.00124881 -0.00675625 -0.000625849  0.00228021 -0.0074048 -0.000896454  0.00151657 -0.0044083 -0.00106049  0.00121021 -0.00700951 -0.00045228  0.000811249 -0.00407928 -0.000539303  0.00146876 -0.00461638 -0.000761509  0.000782326 -0.00427979 -0.000386238  0.00213614 -0.0135092 -0.000689268  0.00399244 -0.0143074 -0.0010159  0.0032084 -0.0103412 -0.00133276  0.00208995 -0.0138654 -0.000507593  0.00169995 -0.0099228 -0.000670671  0.00313744 -0.0106698 -0.000976801  0.00165471 -0.0102431 -0.000490427  0.00289714 -0.0217529 -0.00067234  0.00556439 -0.0226083 -0.00100684  0.00487259 -0.0178866 -0.00137234  0.00285548 -0.022171 -0.000500441  0.00253862 -0.0174516 -0.00068593  0.00480771 -0.0182956 -0.00102043  0.00249374 -0.0178549 -0.000509024  0.00347024 -0.0312756 -0.000627995  0.00687414 -0.0321426 -0.000941992  0.00630128 -0.0267799 -0.00130773  0.00343454 -0.031716 -0.000468016  0.00320888 -0.0263525 -0.000651598  0.00625414 -0.0272266 -0.000978231  0.00316966 -0.0267957 -0.000486135  0.00384891 -0.0419393 -0.000575781  0.00790912 -0.0427962 -0.000861168  0.00745749 -0.0368822 -0.00120425  0.00381821 -0.0423731 -0.000429392  0.0036841 -0.03646 -0.000602007  0.00742549 -0.0373332 -0.000902176  0.00365061 -0.0369098 -0.000449419  0.00404197 -0.0536318 -0.000522614  0.00868481 -0.0544675 -0.000774384  0.00835061 -0.0480763 -0.00109124  0.00401485 -0.0540409 -0.000389099  0.00396901 -0.047653 -0.000549316  0.00832826 -0.0485092 -0.000817299  0.00393933 -0.0480856 -0.000409603  0.00406146 -0.0662315 -0.000469685  0.0092212 -0.0670406 -0.000690222  0.00899774 -0.0602437 -0.000977993  0.00403726 -0.0666062 -0.000349045  0.0040735 -0.0598137 -0.000496149  0.00898188 -0.0606456 -0.000732183  0.00404721 -0.060216 -0.00036931  0.00392056 -0.0796266 -0.000418663  0.00953686 -0.0804082 -0.000608921  0.00941658 -0.0732648 -0.000868797  0.00389957 -0.0799626 -0.000309944  0.00401139 -0.0728254 -0.000444174  0.00940573 -0.07363 -0.000648975  0.00398767 -0.0731908 -0.000329733  0.00363398 -0.0937 -0.000368357  0.00965154 -0.0944539 -0.000530958  0.00962567 -0.0870246 -0.000763893  0.00361598 -0.0939965 -0.000271797  0.00379586 -0.0865734 -0.000393152  0.00961864 -0.0873503 -0.000569344  0.00377512 -0.0868994 -0.000291109  0.00321615 -0.108351 -0.000319719  0.00958323 -0.109078 -0.000457764  0.00964391 -0.101411 -0.000664949  0.00320137 -0.108609 -0.000234127  0.00344181 -0.100948 -0.000344038  0.00963926 -0.101698 -0.000494242  0.00342429 -0.101235 -0.000253201  0.00268245 -0.123476 -0.000273228  0.00935102 -0.124178 -0.000389099  0.00948918 -0.116323 -0.000571251  0.00267053 -0.123697 -0.000198603  0.00296414 -0.115848 -0.000296116  0.00948679 -0.116572 -0.000423431  0.00294983 -0.116097 -0.000216722  0.00204659 -0.138989 -0.000228882  0.008973 -0.139666 -0.000325918  0.00917971 -0.131663 -0.00048399  0.00203788 -0.139176 -0.00016427  0.00237775 -0.131178 -0.000250578  0.00917947 -0.131876 -0.000356913  0.00236619 -0.131392 -0.000181675  0.00132442 -0.154799 -0.00018692  0.00846803 -0.155453 -0.000266314  0.00873375 -0.147343 -0.000402927  0.00131834 -0.154955 -0.000132322  0.00169706 -0.146849 -0.000207663  0.0087359 -0.147524 -0.000295162  0.00168836 -0.147031 -0.000148535  0.000527859 -0.170837 -0.00014782  0.0078516 -0.17147 -0.000211239  0.00816941 -0.163284 -0.000328064  0.000524521 -0.170965 -0.000101566  0.000935674 -0.162783 -0.000166893  0.00817263 -0.163435 -0.000238419  0.00093019 -0.162934 -0.000117064  -0.000328898 -0.187029 -0.000111103  0.00714207 -0.18764 -0.000161409  0.00750387 -0.179412 -0.000259399  -0.000329971 -0.187131 -7.34329e-05  0.000107527 -0.178906 -0.000128984  0.00750816 -0.179537 -0.000185966  0.000104308 -0.179031 -8.7738e-05  -0.00123477 -0.203318 -7.70092e-05  0.00635433 -0.203909 -0.000115633  0.0067513 -0.195664 -0.000195742  -0.00123358 -0.203397 -4.673e-05  -0.000775099 -0.195153 -9.34601e-05  0.00675702 -0.195764 -0.000137568  -0.000776052 -0.195254 -6.00815e-05  -0.00217748 -0.219644 -4.64916e-05  0.00550294 -0.220217 -7.55787e-05  0.00592947 -0.211979 -0.000139952  -0.00217462 -0.219705 -2.31266e-05  -0.00170064 -0.211467 -6.1512e-05  0.00593591 -0.212059 -9.48906e-05  -0.00169992 -0.211547 -3.52859e-05  -0.00314832 -0.235968 -1.90735e-05  0.00460243 -0.236525 -3.93391e-05  0.0050509 -0.228311 -9.03606e-05  -0.00314426 -0.236012 -1.43051e-06  -0.00265837 -0.227798 -3.21865e-05  0.00505853 -0.228372 -5.67436e-05  -0.00265622 -0.227859 -1.23978e-05  -0.00413704 -0.252245 5.24521e-06  0.00366378 -0.252787 -8.82149e-06  0.00412965 -0.244615 -4.74453e-05  -0.00413227 -0.252275 1.78814e-05  -0.00363946 -0.244102 -6.4373e-06  0.00413775 -0.244661 -2.3365e-05  -0.00363612 -0.244149 8.10623e-06  -0.00513744 -0.268449 2.64645e-05  0.00269842 -0.268978 1.81198e-05  0.00317669 -0.260857 -1.12057e-05  -0.00513196 -0.268468 3.48091e-05  -0.00463486 -0.260346 1.66893e-05  0.00318432 -0.260891 5.00679e-06  -0.0046308 -0.26038 2.6226e-05  -0.00614333 -0.284549 4.55379e-05  0.00171494 -0.285068 3.95775e-05  0.00220132 -0.27701 1.97887e-05  -0.00613689 -0.284561 4.98295e-05  -0.00563908 -0.276501 3.6478e-05  0.00220847 -0.277034 2.90871e-05  -0.00563359 -0.276526 4.19617e-05  -0.00714874 -0.300529 6.24657e-05  0.00072217 -0.301044 5.93662e-05  0.00121093 -0.29305 4.64916e-05  -0.00714183 -0.300537 6.38962e-05  -0.00664496 -0.292544 5.43594e-05  0.00121903 -0.293069 4.98295e-05  -0.00663972 -0.292563 5.65052e-05  -0.00814104 -0.316355 8.01086e-05  -0.000262022 -0.31688 7.96318e-05  0.000219345 -0.308959 7.1764e-05  -0.00813556 -0.316367 7.7486e-05  -0.00764608 -0.308451 7.10487e-05  0.00022769 -0.308978 6.96182e-05  -0.0076406 -0.30847 7.00951e-05  0.00121658 -0.00258529 -0.00116444  0 0 0  0.00164543 -0.00331151 -0.0010879  0.000587054 -0.00125653 -0.000850201  0 0 0  0.001178 -0.00272703 -0.000829458  0.000414565 -0.0009197 -0.000649929  0 0 0  0.000568479 -0.00133806 -0.000598192  0.000399932 -0.000990808 -0.00045681  0.00352913 -0.00774026 -0.00182986  0.0047358 -0.00888556 -0.00174642  0.00316054 -0.00566745 -0.0020504  0.00344554 -0.00802082 -0.00132847  0.00228921 -0.00492513 -0.00156403  0.00308149 -0.00591737 -0.001477  0.00222433 -0.00515038 -0.00112557  0.0060932 -0.0145855 -0.00204396  0.00815839 -0.0158418 -0.00199533  0.00657317 -0.0118323 -0.00260019  0.00600269 -0.014966 -0.00151277  0.00482094 -0.010973 -0.00197649  0.00645989 -0.0122053 -0.00190997  0.0047276 -0.0113201 -0.00145102  0.00843221 -0.0228022 -0.00201321  0.0113002 -0.0240508 -0.0019927  0.00987467 -0.0193445 -0.00270319  0.00836527 -0.0232369 -0.0015049  0.00730374 -0.0185182 -0.00204611  0.00977913 -0.0197868 -0.00201344  0.00722265 -0.0189413 -0.00152373  0.0104302 -0.0322873 -0.00188208  0.0140245 -0.0334939 -0.00187349  0.012776 -0.0281535 -0.00259089  0.0103898 -0.0327365 -0.00141168  0.00947535 -0.0273814 -0.00195479  0.0127156 -0.0286207 -0.00194144  0.00942183 -0.027837 -0.00146437  0.0120875 -0.0429295 -0.00171661  0.0163305 -0.0440856 -0.00171161  0.015259 -0.0381889 -0.00239158  0.0120666 -0.0433676 -0.00128794  0.0113013 -0.037459 -0.00180173  0.0152285 -0.0386509 -0.00179553  0.0112708 -0.037915 -0.00135183  0.0134233 -0.0546153 -0.00154328  0.0182437 -0.0557168 -0.00153732  0.0173447 -0.0493385 -0.00216436  0.0134152 -0.0550261 -0.00115752  0.012795 -0.0486382 -0.00163007  0.0173346 -0.0497771 -0.00162482  0.0127806 -0.0490739 -0.00122309  0.0144609 -0.0672176 -0.00137401  0.0197911 -0.0682656 -0.00136685  0.0190587 -0.0614769 -0.00193477  0.0144608 -0.0675936 -0.00102901  0.0139792 -0.0607977 -0.00145817  0.0190613 -0.0618821 -0.00145173  0.0139745 -0.0612016 -0.00109315  0.0152215 -0.0806221 -0.0012114  0.0210005 -0.0816161 -0.0012033  0.0204265 -0.0744794 -0.0017128  0.0152265 -0.080959 -0.000906706  0.0148754 -0.0738157 -0.00129199  0.0204366 -0.0748463 -0.00128412  0.0148774 -0.0741822 -0.000967503  0.0157272 -0.0947071 -0.0010581  0.0218984 -0.0956503 -0.00104904  0.0214726 -0.0882254 -0.00150204  0.0157351 -0.095005 -0.000790358  0.015506 -0.0875747 -0.00113344  0.0214871 -0.0885529 -0.00112486  0.0155115 -0.0879017 -0.000847816  0.0159997 -0.10937 -0.000914335  0.022511 -0.110264 -0.000904322  0.022222 -0.102602 -0.00130391  0.0160099 -0.10963 -0.000681877  0.0158921 -0.101962 -0.000985146  0.0222387 -0.10289 -0.00097537  0.0159007 -0.10225 -0.000735283  0.0160615 -0.124507 -0.000780344  0.0228646 -0.125354 -0.000771046  0.0227004 -0.117503 -0.00111985  0.0160735 -0.124729 -0.000580072  0.0160568 -0.116874 -0.000846148  0.0227189 -0.117753 -0.000836372  0.0160669 -0.117124 -0.000630379  0.0159339 -0.140028 -0.000656605  0.0229841 -0.140831 -0.000647545  0.0229332 -0.132833 -0.000949144  0.0159471 -0.140217 -0.000487089  0.0160214 -0.132214 -0.000717402  0.0229523 -0.133048 -0.000707626  0.0160328 -0.132429 -0.000532866  0.0156388 -0.155846 -0.000541925  0.0228963 -0.156607 -0.000533104  0.0229452 -0.148502 -0.000792027  0.0156527 -0.156004 -0.000399828  0.0158074 -0.147893 -0.000598192  0.022965 -0.148684 -0.000589132  0.0158197 -0.148076 -0.000442982  0.0151966 -0.171889 -0.000437021  0.0226238 -0.17261 -0.000429392  0.0227622 -0.164431 -0.000647545  0.0152113 -0.172017 -0.000320673  0.0154356 -0.163833 -0.00048852  0.0227815 -0.164583 -0.000479698  0.0154495 -0.163985 -0.000359535  0.0146284 -0.188082 -0.000341892  0.0221922 -0.188767 -0.00033474  0.022408 -0.180546 -0.000516415  0.0146434 -0.188185 -0.000248194  0.0149286 -0.179959 -0.000388145  0.0224267 -0.180671 -0.000380516  0.0149422 -0.180084 -0.000283718  0.0139527 -0.204369 -0.000256538  0.0216234 -0.20502 -0.000250578  0.0219047 -0.196782 -0.000398636  0.0139678 -0.20445 -0.000183821  0.0143042 -0.196206 -0.000297546  0.0219235 -0.196883 -0.000291824  0.014318 -0.196308 -0.000214815  0.0131884 -0.220693 -0.000181437  0.0209401 -0.221313 -0.000176907  0.0212772 -0.213083 -0.000294447  0.0132036 -0.220754 -0.000126123  0.013582 -0.212518 -0.000217676  0.0212951 -0.213163 -0.000212431  0.0135958 -0.212598 -0.000154257  0.0123527 -0.237012 -0.000116825  0.0201635 -0.237604 -0.000114441  0.0205455 -0.229398 -0.000204325  0.0123675 -0.237056 -7.70092e-05  0.01278 -0.228844 -0.000148058  0.0205624 -0.22946 -0.000144243  0.0127938 -0.228906 -0.000100851  0.0114613 -0.253282 -6.22272e-05  0.0193129 -0.253851 -6.12736e-05  0.0197296 -0.245686 -0.000128031  0.0114756 -0.253312 -3.48091e-05  0.0119147 -0.245143 -8.84533e-05  0.0197468 -0.245733 -8.60691e-05  0.0119278 -0.24519 -5.55515e-05  0.0105276 -0.269477 -1.62125e-05  0.0184057 -0.270025 -1.69277e-05  0.0188501 -0.261913 -6.50883e-05  0.0105414 -0.269497 0  0.0110002 -0.261379 -3.83854e-05  0.0188651 -0.261947 -3.8147e-05  0.0110133 -0.261414 -1.69277e-05  0.00956392 -0.285569 2.14577e-05  0.0174572 -0.286102 1.83582e-05  0.0179222 -0.27805 -1.33514e-05  0.00957751 -0.285582 2.95639e-05  0.0100501 -0.277526 3.09944e-06  0.0179358 -0.278075 1.66893e-06  0.0100629 -0.277551 1.52588e-05  0.00858116 -0.301546 5.48363e-05  0.0164826 -0.302071 4.91142e-05  0.016958 -0.294079 2.93255e-05  0.00859523 -0.301555 5.48363e-05  0.00907516 -0.293562 3.83854e-05  0.0169723 -0.294099 3.43323e-05  0.0090878 -0.293581 4.22001e-05  0.00760198 -0.317389 8.72612e-05  0.015507 -0.317928 7.93934e-05  0.0159781 -0.309992 6.79493e-05  0.00761604 -0.317401 8.05855e-05  0.00809097 -0.309473 7.08103e-05  0.0159931 -0.310012 6.41346e-05  0.00810361 -0.309492 6.74725e-05  0.00229731 -0.00397754 -0.0018692  0 0 0  0.00298104 -0.00538206 -0.00158429  0.00105285 -0.00253654 -0.00123024  0 0 0  0.00224416 -0.00416201 -0.00133801  0.00077638 -0.00176609 -0.00103879  0 0 0  0.0010321 -0.00264782 -0.000873089  0.000754774 -0.00186241 -0.000734568  0.0063847 -0.00968695 -0.00295186  0.00808293 -0.0114542 -0.00254107  0.00555262 -0.00804424 -0.00296831  0.00627199 -0.01003 -0.00214911  0.00423418 -0.00668305 -0.0025146  0.00546333 -0.00836462 -0.00214839  0.00414595 -0.0069648 -0.00181627  0.0106472 -0.0164976 -0.00332618  0.0131423 -0.0182105 -0.00292206  0.010793 -0.0142408 -0.00378966  0.0105275 -0.0169304 -0.00246453  0.00855497 -0.0129254 -0.00320315  0.0106639 -0.0146841 -0.00278926  0.00842988 -0.0133315 -0.00235605  0.0144947 -0.0245747 -0.00330305  0.0177307 -0.0262008 -0.00293994  0.0156125 -0.0215493 -0.00397348  0.0144096 -0.0250421 -0.00247073  0.0126314 -0.0203594 -0.00334549  0.0155005 -0.0220401 -0.00296116  0.0125263 -0.020825 -0.00249314  0.0178583 -0.0339429 -0.00310397  0.0217888 -0.0354781 -0.00277781  0.0198994 -0.0301866 -0.00383258  0.0178116 -0.0344099 -0.00232935  0.0162375 -0.029091 -0.00321674  0.0198271 -0.0306811 -0.00287247  0.0161716 -0.0295717 -0.00241137  0.0207518 -0.0444995 -0.00283647  0.0253139 -0.0459467 -0.00254416  0.0236539 -0.040094 -0.00355077  0.0207345 -0.0449461 -0.00213051  0.0193632 -0.0390687 -0.00297523  0.0236172 -0.0405689 -0.00266623  0.0193318 -0.0395372 -0.00223422  0.0232005 -0.0561234 -0.00255036  0.0283251 -0.0574865 -0.00228953  0.0268933 -0.0511462 -0.00321841  0.0232019 -0.0565378 -0.00191498  0.0220311 -0.0501754 -0.00269437  0.0268823 -0.0515895 -0.0024178  0.0220234 -0.0506167 -0.00202394  0.0252306 -0.0686776 -0.00226784  0.0308514 -0.0699593 -0.00203562  0.0296417 -0.0632066 -0.00287795  0.0252438 -0.0690545 -0.00170231  0.0242671 -0.0622805 -0.0024085  0.0296471 -0.0636118 -0.0021615  0.0242745 -0.0626864 -0.00180864  0.0268694 -0.0820426 -0.00199747  0.0329237 -0.0832458 -0.00179148  0.0319272 -0.0761421 -0.00254679  0.0268893 -0.0823792 -0.00149798  0.0260984 -0.0752555 -0.00213099  0.0319424 -0.0765069 -0.00191188  0.0261143 -0.075622 -0.00159931  0.0281451 -0.0960923 -0.00174284  0.0345758 -0.0972205 -0.00156164  0.03378 -0.0898278 -0.00223231  0.0281689 -0.0963892 -0.00130653  0.0275522 -0.0889772 -0.00186825  0.0338007 -0.0901517 -0.00167489  0.0275732 -0.0893035 -0.00140095  0.0290862 -0.110723 -0.00150514  0.0358403 -0.11178 -0.00134802  0.0352312 -0.104148 -0.00193787  0.0291119 -0.110981 -0.00112677  0.0286568 -0.103331 -0.00162196  0.0352546 -0.104432 -0.00145316  0.0286807 -0.103618 -0.00121522  0.029722 -0.125829 -0.00128412  0.0367507 -0.126817 -0.00114965  0.0363132 -0.118996 -0.00166368  0.0297483 -0.12605 -0.00096035  0.0294418 -0.118211 -0.00139236  0.0363382 -0.119242 -0.00124669  0.0294669 -0.11846 -0.00104237  0.0300804 -0.141319 -0.00108051  0.0373392 -0.142243 -0.000965834  0.0370581 -0.134274 -0.00141001  0.0301071 -0.141507 -0.00080657  0.0299356 -0.13352 -0.00118017  0.0370835 -0.134485 -0.00105572  0.0299608 -0.133734 -0.000882626  0.0301911 -0.157106 -0.000893354  0.0376393 -0.157969 -0.000797749  0.0374982 -0.149893 -0.0011766  0.0302176 -0.157263 -0.000665903  0.0301663 -0.149169 -0.000984669  0.0375239 -0.150072 -0.000880003  0.0301919 -0.14935 -0.000735044  0.0300813 -0.173119 -0.000722647  0.0376809 -0.173925 -0.000644445  0.0376656 -0.165773 -0.000962496  0.0301074 -0.173246 -0.00053668  0.0301633 -0.165078 -0.000805855  0.0376903 -0.165921 -0.00071907  0.0301887 -0.165229 -0.0006001  0.0297792 -0.189282 -0.000569105  0.0374975 -0.190034 -0.000506639  0.0375917 -0.18184 -0.000770092  0.0298045 -0.189384 -0.000421286  0.0299541 -0.181174 -0.000643969  0.037616 -0.181961 -0.000573874  0.0299786 -0.181298 -0.000477791  0.0293109 -0.20554 -0.000432253  0.037118 -0.206243 -0.000383615  0.0373068 -0.198031 -0.000597477  0.0293348 -0.205619 -0.000317574  0.0295656 -0.197391 -0.000498295  0.0373304 -0.198128 -0.000443697  0.0295889 -0.197491 -0.00036788  0.0287023 -0.221834 -0.000313282  0.0365717 -0.222494 -0.000277996  0.0368423 -0.214288 -0.000445604  0.0287254 -0.221894 -0.00022769  0.0290241 -0.213674 -0.000370502  0.0368643 -0.214364 -0.000328779  0.0290461 -0.213752 -0.000271559  0.0279784 -0.238126 -0.000211716  0.035888 -0.238746 -0.000187159  0.0362248 -0.230563 -0.000314951  0.0279999 -0.238169 -0.000150442  0.0283549 -0.229972 -0.000260115  0.0362453 -0.230621 -0.000230551  0.0283759 -0.230033 -0.000187874  0.0271623 -0.254371 -0.000127554  0.0350947 -0.254957 -0.000112534  0.0354843 -0.246814 -0.000205517  0.0271826 -0.2544 -8.67844e-05  0.0275822 -0.246244 -0.00016737  0.0355041 -0.246857 -0.00014782  0.0276015 -0.24629 -0.00011754  0.0262754 -0.270543 -5.88894e-05  0.0342178 -0.271102 -5.14984e-05  0.0346467 -0.263007 -0.000116825  0.0262949 -0.270562 -3.40939e-05  0.0267277 -0.262456 -9.13143e-05  0.0346656 -0.263038 -8.03471e-05  0.0267465 -0.262489 -5.96046e-05  0.0253384 -0.286615 -4.52995e-06  0.0332828 -0.287154 -4.76837e-06  0.0337381 -0.279115 -4.69685e-05  0.025357 -0.286627 6.91414e-06  0.0258133 -0.27858 -3.00407e-05  0.0337563 -0.279138 -2.69413e-05  0.0258315 -0.278605 -1.28746e-05  0.0243671 -0.302582 4.1008e-05  0.0323105 -0.303112 3.3617e-05  0.0327814 -0.295125 8.10623e-06  0.0243869 -0.302591 4.22001e-05  0.0248573 -0.2946 1.88351e-05  0.0328002 -0.295143 1.52588e-05  0.0248752 -0.29462 2.47955e-05  0.0233884 -0.318448 8.51154e-05  0.0313246 -0.318988 7.05719e-05  0.0317988 -0.311038 5.57899e-05  0.0234072 -0.318459 7.62939e-05  0.0238781 -0.310515 6.27041e-05  0.0318177 -0.311055 5.24521e-05  0.0238962 -0.310534 5.88894e-05  0.00431018 -0.00696534 -0.00255585  0 0 0  0.00633022 -0.00950789 -0.00209713  0.00263706 -0.00579047 -0.00164509  0 0 0  0.0042787 -0.00721925 -0.00183821  0.00146115 -0.00372148 -0.00140667  0 0 0  0.00266483 -0.00597972 -0.00116897  0.00144883 -0.00385797 -0.00100136  0.0103741 -0.0126793 -0.00402188  0.0128664 -0.0148822 -0.00333238  0.00968426 -0.011659 -0.00390458  0.0102733 -0.0131115 -0.00293326  0.00737134 -0.00975257 -0.00342631  0.00966999 -0.0120709 -0.00282264  0.00730392 -0.0101182 -0.0024817  0.0161352 -0.0191631 -0.0045588  0.0191593 -0.0212675 -0.0038352  0.0161385 -0.017383 -0.00497961  0.0160095 -0.0196635 -0.00337768  0.0133096 -0.0157464 -0.00437903  0.0160337 -0.0179079 -0.00365806  0.0131868 -0.016231 -0.00322223  0.0213774 -0.0270064 -0.00455379  0.0250788 -0.0289786 -0.00386572  0.0223067 -0.0243951 -0.00523019  0.0212783 -0.0275151 -0.00340366  0.0188285 -0.0228994 -0.004601  0.0221859 -0.024941 -0.00389028  0.018712 -0.0234178 -0.00342679  0.0260423 -0.036203 -0.00429583  0.0304147 -0.0380468 -0.00366282  0.0279203 -0.03282 -0.00505376  0.0259804 -0.0366914 -0.00322247  0.0237833 -0.0314311 -0.0044446  0.0278254 -0.0333464 -0.0037818  0.0237026 -0.0319417 -0.00332952  0.0301285 -0.0466269 -0.00393391  0.0351154 -0.0483512 -0.00336099  0.0329089 -0.042561 -0.00468898  0.0300978 -0.0470827 -0.00295424  0.028158 -0.0412592 -0.00412202  0.0328448 -0.0430517 -0.00351763  0.0281121 -0.041742 -0.00309443  0.0336518 -0.0581419 -0.00354099  0.0391833 -0.0597504 -0.00302839  0.0372656 -0.0534739 -0.00425506  0.0336424 -0.0585585 -0.00266027  0.0319601 -0.0522468 -0.00373888  0.0372273 -0.0539225 -0.00319505  0.0319405 -0.0526931 -0.00280881  0.0366385 -0.0706011 -0.00315022  0.0426462 -0.0721021 -0.00269508  0.041009 -0.0654108 -0.00380802  0.0366426 -0.070976 -0.00236583  0.0352113 -0.0642508 -0.0033443  0.0409876 -0.0658153 -0.00286007  0.0352085 -0.0646563 -0.00251245  0.0391188 -0.0838795 -0.00277472  0.0455389 -0.0852759 -0.00237465  0.044171 -0.0782331 -0.00337148  0.0391315 -0.0842127 -0.00208378  0.0379411 -0.0771357 -0.00296021  0.0441616 -0.0785941 -0.00253201  0.037949 -0.0774991 -0.00222325  0.0411277 -0.0978487 -0.00242114  0.0479025 -0.0991471 -0.00207281  0.0467868 -0.0918127 -0.00295687  0.0411453 -0.0981409 -0.00181723  0.0401814 -0.0907739 -0.00259519  0.046784 -0.0921313 -0.00222039  0.0401956 -0.0910958 -0.0019486  0.0426998 -0.112403 -0.00209045  0.0497752 -0.113606 -0.00178981  0.0488957 -0.106032 -0.00256658  0.0427201 -0.112656 -0.00156903  0.0419674 -0.105049 -0.00225282  0.0488975 -0.10631 -0.00192738  0.0419855 -0.105331 -0.00169086  0.0438716 -0.127434 -0.00178409  0.0511986 -0.128548 -0.00152731  0.0505354 -0.120783 -0.00220466  0.0438935 -0.12765 -0.00133777  0.043335 -0.119854 -0.00193429  0.0505404 -0.121023 -0.0016551  0.0433547 -0.120098 -0.00145149  0.0446786 -0.142853 -0.00150084  0.0522126 -0.143882 -0.00128555  0.051747 -0.135966 -0.00186872  0.0447009 -0.143036 -0.00112534  0.0443197 -0.13509 -0.00163913  0.0517545 -0.136172 -0.00140285  0.0443408 -0.135299 -0.00122929  0.0451565 -0.158571 -0.00124168  0.0528567 -0.15952 -0.00106382  0.0525697 -0.151495 -0.00156069  0.0451789 -0.158723 -0.000929832  0.0449578 -0.150669 -0.00136828  0.0525783 -0.151668 -0.00117111  0.0449789 -0.150845 -0.00102568  0.0453397 -0.174517 -0.00100589  0.0531685 -0.175389 -0.000862122  0.0530411 -0.167288 -0.0012784  0.0453624 -0.17464 -0.000752926  0.0452838 -0.16651 -0.00112033  0.0530516 -0.167431 -0.00095892  0.0453056 -0.166657 -0.000838995  0.0452645 -0.190616 -0.000793457  0.0531876 -0.191419 -0.000681162  0.0532006 -0.183272 -0.00102401  0.0452867 -0.190714 -0.00059247  0.0453336 -0.182541 -0.000896454  0.0532117 -0.183388 -0.000767469  0.045355 -0.18266 -0.000670433  0.0449629 -0.206815 -0.000605583  0.0529509 -0.207551 -0.000519037  0.0530872 -0.199384 -0.000796318  0.0449851 -0.206889 -0.000451088  0.0451412 -0.198696 -0.000696659  0.0530994 -0.199476 -0.000596285  0.0451622 -0.198792 -0.000519753  0.0444698 -0.223053 -0.000442028  0.052496 -0.223733 -0.000379324  0.0527358 -0.215568 -0.000597  0.0444915 -0.223108 -0.000327587  0.04474 -0.214921 -0.000520468  0.052748 -0.215639 -0.000445843  0.0447602 -0.214995 -0.000387192  0.0438175 -0.239293 -0.000303745  0.0518587 -0.239921 -0.000261068  0.0521851 -0.231775 -0.000425339  0.0438375 -0.239332 -0.000223637  0.0441635 -0.231165 -0.000369787  0.0521979 -0.231829 -0.000316858  0.0441828 -0.231221 -0.000273228  0.043036 -0.255492 -0.000190496  0.0510743 -0.256077 -0.000164986  0.0514688 -0.247966 -0.000283241  0.0430562 -0.255518 -0.000137568  0.0434422 -0.247389 -0.000244379  0.0514822 -0.248005 -0.000209808  0.0434611 -0.247431 -0.000178576  0.0421572 -0.271626 -0.000100613  0.050179 -0.272175 -8.91685e-05  0.0506232 -0.264107 -0.000169754  0.0421772 -0.271642 -6.98566e-05  0.042608 -0.263559 -0.000142813  0.0506384 -0.264135 -0.000123739  0.0426271 -0.263589 -0.000101805  0.0412116 -0.287669 -3.26633e-05  0.0492096 -0.288196 -3.24249e-05  0.0496848 -0.280175 -8.27312e-05  0.0412323 -0.287679 -1.71661e-05  0.0416918 -0.279649 -6.41346e-05  0.0497005 -0.280196 -5.74589e-05  0.0417116 -0.279671 -4.17233e-05  0.0402274 -0.303622 2.12193e-05  0.0482032 -0.304139 1.14441e-05  0.0486896 -0.296159 -1.88351e-05  0.0402496 -0.303629 2.40803e-05  0.040724 -0.295646 -4.29153e-06  0.0487087 -0.296177 -8.34465e-06  0.0407443 -0.295664 4.29153e-06  0.0392282 -0.319502 7.15256e-05  0.0471892 -0.320027 5.10216e-05  0.0476763 -0.31207 3.24249e-05  0.039252 -0.319511 6.31809e-05  0.0397298 -0.311557 4.57764e-05  0.0476964 -0.312087 3.21865e-05  0.0397515 -0.311575 4.31538e-05  -0.00631785 -0.00797553 0.00406337  -0.00268018 -0.00470169 0.00300908  0 0 0  -0.00438967 -0.00526952 0.00456905  0 0 0  -0.00297397 -0.00416962 0.00301409  -0.00108821 -0.00169246 0.00224805  0 0 0  -0.00268687 -0.00501333 0.00231671  -0.00427405 -0.00584297 0.00352311  -0.00151549 -0.00275597 0.00255537  0 0 0  -0.00102825 -0.00195274 0.00170016  -0.0014466 -0.00304442 0.00196052  -0.0130489 -0.0124679 0.00621176  -0.00983521 -0.00915149 0.00681376  -0.0105933 -0.00999485 0.00675344  -0.00809236 -0.00944589 0.0046711  -0.005706 -0.0060533 0.00509834  -0.00972681 -0.0100282 0.00535989  -0.0103631 -0.0108839 0.00542521  -0.0075461 -0.0075006 0.00593138  -0.00546408 -0.00671659 0.00401139  -0.00733741 -0.00826506 0.00466752  -0.019524 -0.0182353 0.00688386  -0.0164752 -0.0141334 0.00819445  -0.01628 -0.015921 0.00727916  -0.0131337 -0.0156817 0.00517058  -0.0108568 -0.0115367 0.00613046  -0.0163202 -0.0151684 0.00668311  -0.016162 -0.0168706 0.00601482  -0.0134998 -0.0127549 0.0071404  -0.0106645 -0.0123918 0.00501609  -0.0133135 -0.0137 0.00583506  -0.0256289 -0.0254575 0.00676465  -0.0226873 -0.0206567 0.00830126  -0.0215364 -0.0233847 0.00708652  -0.017792 -0.0232981 0.00507832  -0.015551 -0.0184212 0.00620985  -0.0226307 -0.021663 0.00688863  -0.021549 -0.0242985 0.00591469  -0.0189537 -0.0194571 0.00724125  -0.0155054 -0.0193134 0.00516939  -0.018906 -0.0204054 0.00601983  -0.0312873 -0.0340665 0.00629878  -0.0284731 -0.0286733 0.00785017  -0.0264398 -0.0322528 0.00657701  -0.0221205 -0.0322593 0.00472593  -0.0199226 -0.0267586 0.00587749  -0.0285147 -0.0295974 0.00655913  -0.0265445 -0.0330945 0.00550961  -0.0240296 -0.0276428 0.0068562  -0.0199953 -0.0276167 0.00492167  -0.0240943 -0.0285333 0.00573564  -0.0364997 -0.0439172 0.00570107  -0.033839 -0.0380179 0.00717306  -0.0310112 -0.0423593 0.00594831  -0.0261492 -0.0424322 0.0042758  -0.0240265 -0.0364081 0.00537419  -0.0339479 -0.0388469 0.00600934  -0.0311703 -0.0431177 0.004987  -0.0287656 -0.0371507 0.00627017  -0.0241704 -0.0372017 0.00450754  -0.0289022 -0.0379618 0.00525594  -0.0412858 -0.0548554 0.00507712  -0.0387965 -0.0485253 0.00642967  -0.03526 -0.0535456 0.0052979  -0.0298973 -0.0536744 0.00380516  -0.0278733 -0.0472094 0.00481892  -0.0389447 -0.0492591 0.00538993  -0.0354456 -0.0542181 0.00444031  -0.0331744 -0.0478157 0.00562263  -0.0280575 -0.0479264 0.00404072  -0.0333506 -0.0485411 0.00471401  -0.0456707 -0.0667513 0.00447273  -0.0433618 -0.0600479 0.00569296  -0.0391949 -0.0656727 0.00466895  -0.03338 -0.0658512 0.00335264  -0.0314729 -0.0590134 0.00426769  -0.0435266 -0.0606923 0.00477219  -0.0393884 -0.0662636 0.0039115  -0.0372652 -0.0594885 0.00497937  -0.0316705 -0.0596518 0.00357604  -0.0374573 -0.06013 0.00417304  -0.0496781 -0.0794775 0.00390673  -0.0475512 -0.0724562 0.00499368  -0.0428264 -0.0786158 0.00407887  -0.0366094 -0.0788421 0.0029254  -0.0348251 -0.0716888 0.00374365  -0.0477201 -0.0730178 0.00418544  -0.0430163 -0.0791298 0.00341558  -0.0410466 -0.0720384 0.00436878  -0.0350256 -0.0722501 0.00313473  -0.0412406 -0.0726002 0.00365949  -0.0533321 -0.0929285 0.00338459  -0.0513843 -0.0856336 0.00434446  -0.0461674 -0.0922655 0.00353432  -0.0395983 -0.0925353 0.0025351  -0.0379413 -0.0851162 0.0032568  -0.0515475 -0.0861199 0.00364137  -0.046347 -0.0927089 0.00295901  -0.0445313 -0.0853482 0.00380087  -0.0381324 -0.0856057 0.00272536  -0.0447176 -0.0858362 0.00318265  -0.0566533 -0.106998 0.0029068  -0.0548792 -0.0994748 0.00374675  -0.0492313 -0.106518 0.00303364  -0.0423584 -0.106829 0.00217509  -0.0408262 -0.0991892 0.00280929  -0.0550332 -0.0998919 0.0031414  -0.0493973 -0.106896 0.00254059  -0.0477319 -0.0993114 0.00327873  -0.0410064 -0.0996111 0.00235081  -0.0479063 -0.0997314 0.00274539  -0.0596634 -0.121593 0.00246978  -0.0580555 -0.113881 0.0031991  -0.0520326 -0.121279 0.0025773  -0.0449017 -0.121626 0.00185061  -0.0434923 -0.113808 0.00239968  -0.0581956 -0.114236 0.00268388  -0.0521833 -0.121598 0.00215936  -0.0506624 -0.11383 0.00279999  -0.0436556 -0.114168 0.00200844  -0.050822 -0.114187 0.00234556  -0.0623826 -0.136623 0.00207424  -0.0609313 -0.128762 0.00270057  -0.0545862 -0.136459 0.00216222  -0.0472404 -0.136839 0.00155377  -0.0459462 -0.128881 0.00202751  -0.0610582 -0.129059 0.00226784  -0.0547209 -0.136723 0.00181341  -0.0533379 -0.128811 0.00236511  -0.0460958 -0.129184 0.00169802  -0.0534822 -0.129112 0.00198269  -0.0648305 -0.152009 0.00171614  -0.0635271 -0.144031 0.00224853  -0.0569079 -0.151979 0.00178838  -0.0493859 -0.152387 0.00128889  -0.0482048 -0.144322 0.00169015  -0.0636389 -0.144277 0.00189114  -0.0570271 -0.152194 0.00150204  -0.0557737 -0.14417 0.00197029  -0.0483356 -0.144574 0.00141716  -0.0559019 -0.14442 0.00165367  -0.0670276 -0.167672 0.00139666  -0.0658605 -0.159612 0.00184202  -0.0590135 -0.16776 0.00145292  -0.0513518 -0.168192 0.00104976  -0.0502733 -0.160054 0.00138783  -0.0659596 -0.15981 0.00155282  -0.0591171 -0.167931 0.00122333  -0.0579855 -0.15983 0.001616  -0.050391 -0.160259 0.00116539  -0.0580978 -0.160033 0.00135899  -0.0689946 -0.183545 0.0011127  -0.0679537 -0.175429 0.00147963  -0.0609195 -0.183735 0.00115657  -0.0531501 -0.184186 0.000841379  -0.0521708 -0.176003 0.00111866  -0.0680383 -0.175587 0.00125146  -0.0610083 -0.183868 0.000977039  -0.0599891 -0.175717 0.00129986  -0.0522703 -0.176168 0.00094223  -0.0600861 -0.175878 0.00109625  -0.0707519 -0.199561 0.00086689  -0.0698259 -0.191418 0.00116086  -0.0626435 -0.19984 0.000897884  -0.054795 -0.200308 0.000657797  -0.0539041 -0.192105 0.00088191  -0.0698984 -0.191539 0.000986338  -0.0627179 -0.199939 0.000762224  -0.0618017 -0.191764 0.00102258  -0.0539911 -0.192233 0.000745773  -0.0618846 -0.191889 0.000865936  -0.0723217 -0.21567 0.00065589  -0.0714989 -0.207519 0.000885487  -0.064203 -0.216021 0.000677109  -0.0563016 -0.216499 0.000503302  -0.0554926 -0.208299 0.000677824  -0.0715582 -0.207608 0.00075841  -0.0642645 -0.216091 0.000579834  -0.0634413 -0.207914 0.000783205  -0.0555639 -0.208396 0.000576496  -0.0635104 -0.208007 0.000667334  -0.0737267 -0.231815 0.000481606  -0.0729935 -0.223678 0.00065279  -0.0656171 -0.232226 0.000493526  -0.0576847 -0.232714 0.000373363  -0.0569479 -0.224535 0.000505924  -0.0730436 -0.223741 0.000565529  -0.0656667 -0.232272 0.000427961  -0.0649254 -0.224113 0.000580788  -0.0570076 -0.224605 0.000434399  -0.0649824 -0.22418 0.000499964  -0.0749917 -0.247961 0.000343561  -0.0743356 -0.23985 0.000463724  -0.0669057 -0.248416 0.000347376  -0.0589602 -0.248908 0.000271797  -0.0582874 -0.240765 0.000365496  -0.0743747 -0.239891 0.000409126  -0.0669456 -0.248443 0.000307322  -0.0662744 -0.240314 0.000415802  -0.0583341 -0.240814 0.000318766  -0.0663199 -0.240361 0.000363827  -0.0761421 -0.264064 0.000241041  -0.0755467 -0.255995 0.000317335  -0.06809 -0.264552 0.000237942  -0.0601454 -0.265049 0.000193834  -0.0595233 -0.256954 0.000256777  -0.0755799 -0.25602 0.000288963  -0.0681219 -0.264565 0.000217438  -0.0675082 -0.256481 0.000288248  -0.0595632 -0.256985 0.000229597  -0.0675452 -0.256511 0.000258923  -0.077209 -0.280106 0.000169992  -0.0766547 -0.272081 0.000213146  -0.0691926 -0.28061 0.000161409  -0.0612586 -0.281108 0.000140429  -0.060678 -0.273067 0.000177145  -0.0766838 -0.272095 0.000202894  -0.0692205 -0.280614 0.000154495  -0.0686488 -0.272581 0.000196218  -0.0607092 -0.273087 0.000164032  -0.0686791 -0.272599 0.000183344  -0.0782278 -0.296068 0.000123501  -0.0776937 -0.288088 0.000144958  -0.0702407 -0.296575 0.000108242  -0.062319 -0.297073 9.799e-05  -0.0617657 -0.289088 0.000119925  -0.0777221 -0.288097 0.000145674  -0.0702667 -0.296576 0.000109911  -0.0697203 -0.288593 0.000132799  -0.0617943 -0.2891 0.000117302  -0.0697482 -0.288605 0.000130653  -0.0792351 -0.311973 8.24928e-05  -0.0787036 -0.304016 9.77516e-05  -0.0712643 -0.312467 6.03199e-05  -0.0633535 -0.312955 6.05583e-05  -0.0628109 -0.30501 7.34329e-05  -0.0787313 -0.304026 0.000104666  -0.0712912 -0.31247 6.8903e-05  -0.0707519 -0.304517 8.4877e-05  -0.0628364 -0.305022 7.9155e-05  -0.0707793 -0.304529 9.01222e-05  -0.00234166 -0.00271079 0.00330138  0 0 0  -0.00160551 -0.00243703 0.00204802  -0.00059304 -0.000668824 0.0015316  0 0 0  -0.00221863 -0.00311932 0.00253367  -0.000797074 -0.00105742 0.00188375  0 0 0  -0.000549842 -0.000871316 0.00115156  -0.000739343 -0.00128752 0.00142121  -0.00643779 -0.00756928 0.00488496  -0.00460967 -0.00736172 0.00317621  -0.00318293 -0.00416604 0.00346851  -0.00621121 -0.00825879 0.00392962  -0.00432548 -0.00494125 0.00428486  -0.00300629 -0.0046903 0.0027287  -0.00410919 -0.00552402 0.00337172  -0.0105101 -0.0138671 0.00523543  -0.00792906 -0.0138801 0.00349736  -0.00642881 -0.00972122 0.00415063  -0.0103982 -0.0146822 0.00433898  -0.00851294 -0.0105199 0.0051465  -0.00627661 -0.0104405 0.00340176  -0.00833222 -0.0112984 0.00421476  -0.0143009 -0.0216272 0.00507712  -0.0110947 -0.0217923 0.00341487  -0.00957051 -0.0168611 0.00417566  -0.0143192 -0.0224604 0.00424886  -0.012435 -0.0175549 0.00519562  -0.00953722 -0.0176629 0.00348544  -0.0123934 -0.0183974 0.00433087  -0.0178685 -0.030767 0.00470328  -0.0140669 -0.0310189 0.00316548  -0.0125388 -0.025441 0.00393462  -0.0179757 -0.0315653 0.00394702  -0.0161099 -0.0260236 0.00490689  -0.0126029 -0.026247 0.00330281  -0.0161784 -0.0268531 0.00411367  -0.0212393 -0.0411316 0.00425053  -0.0168713 -0.0414321 0.00285625  -0.0153631 -0.0353172 0.0035882  -0.0213976 -0.0418676 0.00356698  -0.0195766 -0.0357954 0.00448227  -0.0154886 -0.0360837 0.0030148  -0.0197142 -0.0365738 0.00376225  -0.0244232 -0.052567 0.00378346  -0.0195275 -0.0528997 0.00253701  -0.0180592 -0.0463351 0.00321198  -0.0246056 -0.053232 0.00317287  -0.0228537 -0.0467137 0.0040164  -0.018217 -0.0470408 0.00269675  -0.0230273 -0.0474242 0.00336957  -0.0274236 -0.0649336 0.00333285  -0.0220459 -0.0652894 0.00223207  -0.0206333 -0.0583492 0.00284147  -0.0276123 -0.065523 0.00279212  -0.0259452 -0.0586313 0.0035553  -0.0208033 -0.0589851 0.00238276  -0.0261332 -0.0592677 0.00297976  -0.0302423 -0.0781054 0.00291085  -0.0244327 -0.0784827 0.00194597  -0.0230851 -0.0712265 0.00249028  -0.0304269 -0.0786235 0.00243688  -0.0288547 -0.0714154 0.00311828  -0.0232553 -0.0717911 0.00208616  -0.0290428 -0.0719779 0.00261116  -0.0328829 -0.0919691 0.00252199  -0.0266911 -0.0923645 0.00168514  -0.0254145 -0.0848473 0.0021646  -0.0330572 -0.0924173 0.00211024  -0.0315832 -0.0849468 0.00271249  -0.0255773 -0.0853422 0.00181222  -0.0317644 -0.0854384 0.00226998  -0.0353502 -0.10642 0.00216484  -0.0288248 -0.106834 0.00144577  -0.0276207 -0.0991012 0.00186634  -0.035511 -0.106805 0.00181174  -0.0341371 -0.0991164 0.0023396  -0.0277733 -0.0995302 0.00156236  -0.0343056 -0.0995416 0.00195742  -0.0376494 -0.121362 0.00183988  -0.0308368 -0.121792 0.00122952  -0.0297061 -0.113887 0.00159431  -0.0377953 -0.121687 0.00154018  -0.0365188 -0.113825 0.0019989  -0.0298455 -0.114255 0.00133491  -0.0366735 -0.114188 0.00167274  -0.0397882 -0.136707 0.00154543  -0.0327317 -0.137151 0.00103474  -0.0316728 -0.129113 0.00134754  -0.0399187 -0.136979 0.00129509  -0.0387373 -0.128979 0.00168943  -0.0317982 -0.129425 0.00112915  -0.0388764 -0.129286 0.00141454  -0.041774 -0.152372 0.00127959  -0.0345132 -0.152828 0.000858545  -0.0335249 -0.144693 0.00112486  -0.0418891 -0.152594 0.00107384  -0.0407981 -0.144494 0.00140905  -0.033636 -0.144953 0.000943899  -0.0409223 -0.144749 0.00118113  -0.0436152 -0.168282 0.00104308  -0.0361868 -0.168748 0.000702858  -0.0352653 -0.160547 0.000925541  -0.0437152 -0.168462 0.000877619  -0.0427114 -0.16029 0.00115824  -0.0353633 -0.16076 0.000778437  -0.0428193 -0.1605 0.000972748  -0.0453202 -0.184368 0.000834227  -0.0377568 -0.184841 0.000566006  -0.0368999 -0.176603 0.000748873  -0.045406 -0.184508 0.00070405  -0.0444825 -0.176297 0.000935555  -0.0369838 -0.176775 0.000632048  -0.0445764 -0.176464 0.000787973  -0.0468996 -0.200568 0.000652313  -0.0392311 -0.201047 0.000447035  -0.0384336 -0.192797 0.000594616  -0.0469716 -0.200674 0.000553608  -0.046124 -0.192447 0.000739813  -0.0385056 -0.192932 0.000504255  -0.0462036 -0.192578 0.00062561  -0.0483634 -0.216826 0.000497341  -0.0406151 -0.217308 0.000346661  -0.0398734 -0.209068 0.000461817  -0.0484228 -0.216902 0.0004251  -0.0476434 -0.208682 0.000571728  -0.0399334 -0.209172 0.000394583  -0.0477107 -0.208782 0.000486374  -0.0497239 -0.233094 0.000368595  -0.0419173 -0.233579 0.000263214  -0.0412266 -0.225367 0.000350475  -0.049772 -0.233147 0.000319242  -0.0490549 -0.224951 0.000429869  -0.0412755 -0.225444 0.000302553  -0.0491092 -0.225024 0.00036931  -0.0509923 -0.249332 0.000266075  -0.0431466 -0.249818 0.000197411  -0.0425012 -0.241649 0.000259876  -0.0510302 -0.249364 0.000234842  -0.0503671 -0.241208 0.000314236  -0.0425403 -0.241703 0.000227928  -0.0504112 -0.24126 0.000274181  -0.0521801 -0.265504 0.000187635  -0.0443103 -0.265992 0.000147343  -0.0437052 -0.257876 0.000189066  -0.0522099 -0.265522 0.000171185  -0.0515945 -0.257417 0.000224352  -0.0437362 -0.257913 0.000170469  -0.0516288 -0.257451 0.00020051  -0.0533004 -0.281585 0.000130653  -0.0454173 -0.282074 0.000110149  -0.0448451 -0.27402 0.000136137  -0.0533247 -0.281592 0.000124454  -0.0527465 -0.273546 0.000157833  -0.0448704 -0.274043 0.000127554  -0.0527742 -0.273567 0.000146151  -0.0543666 -0.29756 8.58307e-05  -0.0464792 -0.298048 8.05855e-05  -0.0459313 -0.290058 9.53674e-05  -0.0543888 -0.297563 8.86917e-05  -0.053838 -0.289575 0.000107527  -0.0459528 -0.290073 9.46522e-05  -0.0538619 -0.289589 0.000105619  -0.0554047 -0.313428 4.24385e-05  -0.0475175 -0.313903 5.19753e-05  -0.046978 -0.305977 5.88894e-05  -0.0554264 -0.313432 5.4121e-05  -0.0548847 -0.305496 6.50883e-05  -0.0469983 -0.305989 6.62804e-05  -0.054908 -0.305508 7.15256e-05  -0.0011837 -0.00168088 0.00200725  0 0 0  -0.000683486 -0.00175712 0.00103188  -0.000252269 -0.000308931 0.000764608  0 0 0  -0.00111185 -0.00200987 0.00154424  -0.000405096 -0.000436604 0.00114894  0 0 0  -0.000232775 -0.000479013 0.000579357  -0.000372928 -0.000620216 0.000867605  -0.00339252 -0.00615886 0.00297499  -0.0020247 -0.00635031 0.00160623  -0.00137883 -0.00333008 0.00174189  -0.00325353 -0.00673714 0.00239801  -0.00223209 -0.00364521 0.00261068  -0.0012985 -0.00378633 0.00137687  -0.00210139 -0.00412831 0.00205851  -0.00575712 -0.012563 0.00317669  -0.00360653 -0.0129083 0.00176883  -0.00287056 -0.00877729 0.0020926  -0.0056904 -0.0132882 0.00263929  -0.00457853 -0.00914285 0.00312877  -0.0028052 -0.00942421 0.00172162  -0.00446728 -0.00981861 0.00256872  -0.00805125 -0.0205231 0.00306535  -0.00520751 -0.0209886 0.0017221  -0.00441 -0.0160237 0.00210142  -0.00807473 -0.0213 0.00257277  -0.00691491 -0.0163494 0.00314379  -0.00441003 -0.0167716 0.00176048  -0.00689569 -0.0171197 0.00262809  -0.010262 -0.0298586 0.0028286  -0.00677764 -0.0303916 0.00159001  -0.00593942 -0.024759 0.00197291  -0.0103496 -0.0306263 0.00237942  -0.00916523 -0.0250183 0.00295615  -0.00599629 -0.025532 0.00166225  -0.00922531 -0.0258052 0.00248528  -0.012403 -0.0404087 0.00254846  -0.00832182 -0.0409681 0.00142741  -0.00745821 -0.034789 0.00179195  -0.0125274 -0.0411305 0.00214314  -0.0113401 -0.0349804 0.00269151  -0.00755221 -0.0355387 0.00151038  -0.0114493 -0.0357373 0.00226426  -0.0144817 -0.0520235 0.00226378  -0.00985014 -0.0525916 0.00126243  -0.00897402 -0.0459557 0.00159693  -0.0146232 -0.0526847 0.00190043  -0.0134489 -0.0460811 0.00240564  -0.00908738 -0.0466549 0.00134444  -0.0135848 -0.0467829 0.00202155  -0.0164982 -0.0645641 0.00199032  -0.0113661 -0.065129 0.00110531  -0.010489 -0.0581146 0.00140667  -0.0166439 -0.0651558 0.00166941  -0.0154973 -0.0581752 0.00212502  -0.0106094 -0.0587508 0.00118232  -0.0156425 -0.0588112 0.00178337  -0.0184503 -0.0779045 0.00173521  -0.0128688 -0.0784654 0.00096035  -0.0119992 -0.0711338 0.00122809  -0.0185924 -0.0784279 0.00145364  -0.0174811 -0.071131 0.00186062  -0.0121191 -0.0717024 0.0010314  -0.017627 -0.0716975 0.0015595  -0.0203345 -0.0919284 0.00150061  -0.0143539 -0.0924823 0.000827551  -0.0134994 -0.0848916 0.00106311  -0.020468 -0.0923837 0.00125694  -0.0194001 -0.084827 0.00161552  -0.0136132 -0.0853928 0.000892162  -0.0195391 -0.0853251 0.00135326  -0.0221481 -0.10653 0.00128698  -0.0158173 -0.10708 0.00070858  -0.0149828 -0.0992762 0.000913382  -0.0222708 -0.106923 0.00107765  -0.0212488 -0.0991525 0.00139141  -0.0150886 -0.0997126 0.000766277  -0.0213783 -0.0995852 0.00116563  -0.0238888 -0.121612 0.00109339  -0.0172548 -0.122155 0.000602484  -0.0164436 -0.114185 0.000778198  -0.0239996 -0.121945 0.000916719  -0.0230267 -0.114006 0.00118756  -0.0165392 -0.114561 0.000653505  -0.0231442 -0.114378 0.000995159  -0.0255568 -0.137083 0.000918865  -0.0186627 -0.137624 0.000506401  -0.0178771 -0.129524 0.00065732  -0.0256552 -0.137364 0.000771046  -0.0247304 -0.129293 0.0010035  -0.0179621 -0.129844 0.000552893  -0.0248363 -0.129609 0.000841618  -0.0271511 -0.152862 0.000762224  -0.0200372 -0.153396 0.000422239  -0.0192791 -0.145206 0.00054884  -0.0272375 -0.153093 0.000641346  -0.0263621 -0.144928 0.00083828  -0.019354 -0.145474 0.00046277  -0.0264553 -0.145192 0.000704288  -0.0286734 -0.168873 0.000623465  -0.0213761 -0.169402 0.000349045  -0.0206462 -0.161151 0.000452757  -0.0287477 -0.16906 0.000525951  -0.0279199 -0.160832 0.000690699  -0.0207111 -0.161372 0.000383377  -0.0280012 -0.161049 0.000581741  -0.0301239 -0.185045 0.000501633  -0.0226767 -0.185568 0.000284195  -0.021976 -0.177287 0.000369549  -0.030187 -0.185193 0.000425816  -0.0294064 -0.176931 0.00056076  -0.0220308 -0.177466 0.000314713  -0.0294757 -0.177108 0.000474215  -0.0315065 -0.201319 0.000396013  -0.0239387 -0.201836 0.000229359  -0.0232666 -0.193549 0.00029707  -0.0315588 -0.201433 0.000338554  -0.0308223 -0.193162 0.000447273  -0.0233121 -0.193691 0.000255346  -0.0308809 -0.193301 0.000380516  -0.0328233 -0.217638 0.000307083  -0.025161 -0.218149 0.000183582  -0.0245166 -0.209878 0.000235319  -0.0328655 -0.217722 0.000265598  -0.0321717 -0.209465 0.00034976  -0.0245543 -0.209988 0.000204802  -0.0322199 -0.209572 0.000300407  -0.0340788 -0.233957 0.000234127  -0.0263441 -0.234464 0.000146151  -0.025727 -0.226224 0.000184536  -0.0341125 -0.234017 0.000205278  -0.0334568 -0.22579 0.000268936  -0.0257568 -0.226307 0.000163317  -0.0334959 -0.22587 0.00023365  -0.0352771 -0.250235 0.000175953  -0.0274892 -0.250735 0.000117779  -0.0268977 -0.242544 0.00014472  -0.0353026 -0.250273 0.000158072  -0.0346835 -0.242092 0.000203609  -0.0269208 -0.242604 0.000130892  -0.034714 -0.24215 0.000180483  -0.0364225 -0.266439 0.000131845  -0.0285985 -0.266936 9.72748e-05  -0.0280297 -0.258803 0.000114202  -0.0364423 -0.266462 0.000122309  -0.0358546 -0.258337 0.000152588  -0.028048 -0.258844 0.000106335  -0.0358784 -0.258376 0.000138998  -0.0375197 -0.282543 9.84669e-05  -0.0296726 -0.283036 8.17776e-05  -0.029125 -0.274971 9.20296e-05  -0.0375354 -0.282554 9.58443e-05  -0.0369759 -0.274494 0.000114441  -0.0291395 -0.274997 8.91685e-05  -0.0369937 -0.274519 0.000108242  -0.0385764 -0.298527 7.05719e-05  -0.0307171 -0.299018 7.00951e-05  -0.0301871 -0.291025 7.4625e-05  -0.03859 -0.298533 7.39098e-05  -0.0380509 -0.290541 8.4877e-05  -0.0301979 -0.291041 7.55787e-05  -0.0380666 -0.290557 8.4877e-05  -0.0396066 -0.314367 4.1008e-05  -0.0317416 -0.314847 5.76973e-05  -0.0312192 -0.306937 5.81741e-05  -0.0396218 -0.314373 5.24521e-05  -0.0390918 -0.306456 5.6982e-05  -0.0312302 -0.306951 6.38962e-05  -0.0391066 -0.306469 6.36578e-05  -0.000307135 -0.00134718 0.000649929  0 0 0  8.38786e-05 -0.00164542 -2.09808e-05  3.19928e-05 -0.000261992 -2.6226e-05  0 0 0  -0.000290729 -0.00164282 0.000506401  -0.00010616 -0.000254005 0.000369072  0 0 0  2.7813e-05 -0.00042069 -1.5974e-05  -9.75914e-05 -0.000417441 0.000281811  -0.000917569 -0.00563851 0.000981808  0.000210881 -0.0061774 -1.21593e-05  0.000169411 -0.00319952 -3.24249e-05  -0.000887662 -0.00616947 0.00079751  -0.000590324 -0.00318766 0.000854969  0.00014919 -0.00363138 -1.83582e-05  -0.00056006 -0.00362781 0.00067997  -0.00163558 -0.0120517 0.00105858  0.000282615 -0.0127611 2.86102e-06  0.000289887 -0.0086365 -1.4782e-05  -0.00163645 -0.0127335 0.00088644  -0.00126833 -0.00861135 0.00103903  0.000257283 -0.0092566 -3.8147e-06  -0.00125089 -0.00924045 0.000859261  -0.0024102 -0.0201137 0.00102258  0.000254154 -0.0209185 7.62939e-06  0.000326872 -0.015935 -3.09944e-06  -0.00244939 -0.0208604 0.000864744  -0.00201547 -0.0158858 0.00104952  0.000282198 -0.0166615 6.19888e-06  -0.00203699 -0.0166193 0.000883818  -0.00323987 -0.0295675 0.000939131  0.000109196 -0.0304093 2.86102e-06  0.000251889 -0.0247471 -3.33786e-06  -0.00330716 -0.0303182 0.000796318  -0.00281757 -0.0246681 0.00098443  0.000196815 -0.0255064 6.19888e-06  -0.00287241 -0.025432 0.000833988  -0.00412869 -0.0402341 0.00083828  -0.000155985 -0.0410745 -5.48363e-06  5.41806e-05 -0.0348586 -1.14441e-05  -0.0042125 -0.0409484 0.000710249  -0.00367582 -0.0347479 0.000889778  -8.28505e-06 -0.0356014 -1.43051e-06  -0.00375354 -0.035493 0.000754118  -0.00507855 -0.0519634 0.000736475  -0.000539362 -0.0527847 -1.78814e-05  -0.000267088 -0.0461076 -2.31266e-05  -0.00516933 -0.0526234 0.000622749  -0.00459564 -0.0459638 0.00078702  -0.000333071 -0.0468053 -1.23978e-05  -0.00468409 -0.0466618 0.000665903  -0.00608468 -0.0646176 0.000639439  -0.00103486 -0.0654103 -2.55108e-05  -0.000708044 -0.0583507 -3.26633e-05  -0.00617611 -0.0652123 0.000539541  -0.00557393 -0.0581723 0.000687361  -0.000773489 -0.0589887 -2.16961e-05  -0.00566661 -0.0588091 0.000580549  -0.00714028 -0.07807 0.000550508  -0.00163293 -0.0788328 -3.17097e-05  -0.00125909 -0.0714548 -4.05312e-05  -0.00722742 -0.0785987 0.000464678  -0.00660622 -0.0712408 0.000594139  -0.00132155 -0.0720276 -2.90871e-05  -0.00669634 -0.0718115 0.000501156  -0.00823534 -0.0922025 0.000470877  -0.00232279 -0.0929349 -3.31402e-05  -0.00190902 -0.085297 -4.48227e-05  -0.0083164 -0.0926644 0.000396967  -0.00768173 -0.0850472 0.000509501  -0.00196671 -0.0858037 -3.29018e-05  -0.00776756 -0.0855512 0.000429869  -0.00936222 -0.106907 0.000399828  -0.0030936 -0.107613 -3.33786e-05  -0.00264609 -0.0997638 -4.60148e-05  -0.0094353 -0.107308 0.000338078  -0.0087949 -0.0994788 0.00043416  -0.00269878 -0.100206 -3.38554e-05  -0.00887239 -0.0999187 0.000366211  -0.0105108 -0.122086 0.000337124  -0.00393295 -0.122764 -3.02792e-05  -0.00345945 -0.114751 -4.45843e-05  -0.0105755 -0.122427 0.000285625  -0.00993288 -0.114433 0.000367641  -0.00350511 -0.115133 -3.26633e-05  -0.0100031 -0.114812 0.000310659  -0.0116735 -0.137646 0.000282764  -0.0048306 -0.1383 -2.5034e-05  -0.00433564 -0.130162 -3.98159e-05  -0.01173 -0.137934 0.000240803  -0.0110898 -0.129812 0.000309467  -0.00437498 -0.130488 -2.83718e-05  -0.0111511 -0.130135 0.000262737  -0.0128429 -0.153504 0.000234842  -0.0057745 -0.154135 -1.90735e-05  -0.00526416 -0.145909 -3.40939e-05  -0.0128911 -0.153741 0.000201225  -0.0122561 -0.145531 0.000258207  -0.00529706 -0.146183 -2.31266e-05  -0.01231 -0.145803 0.000220299  -0.0140127 -0.169584 0.000194311  -0.00675595 -0.170194 -1.26362e-05  -0.00623417 -0.161912 -2.64645e-05  -0.0140526 -0.169779 0.000168324  -0.0134275 -0.16151 0.0002141  -0.00626123 -0.162139 -1.62125e-05  -0.0134717 -0.161734 0.000184059  -0.0151764 -0.185817 0.000159979  -0.00776446 -0.186406 -3.57628e-06  -0.00723588 -0.178098 -1.78814e-05  -0.0152091 -0.185971 0.00014019  -0.0145941 -0.177675 0.00017643  -0.00725722 -0.178283 -8.58307e-06  -0.0146316 -0.177857 0.000153303  -0.0163295 -0.202142 0.000131607  -0.00879216 -0.202713 5.72205e-06  -0.00825977 -0.194402 -7.62939e-06  -0.0163553 -0.202262 0.000117779  -0.0157537 -0.193961 0.000145435  -0.00827622 -0.19455 9.53674e-07  -0.0157835 -0.194106 0.000128269  -0.0174675 -0.218504 0.000108719  -0.00983095 -0.219058 1.50204e-05  -0.00929809 -0.210767 2.38419e-06  -0.0174873 -0.218593 9.89437e-05  -0.0168989 -0.210311 0.000119448  -0.00931025 -0.210882 9.77516e-06  -0.0169232 -0.210423 0.000107527  -0.0185881 -0.234858 9.15527e-05  -0.0108745 -0.235398 2.55108e-05  -0.0103445 -0.227143 1.3113e-05  -0.0186021 -0.234923 8.60691e-05  -0.018029 -0.226674 9.9659e-05  -0.0103521 -0.22723 1.97887e-05  -0.0180466 -0.226759 9.15527e-05  -0.0196879 -0.251164 7.93934e-05  -0.0119181 -0.251689 3.55244e-05  -0.0113921 -0.243486 2.45571e-05  -0.0196977 -0.251206 7.62939e-05  -0.0191388 -0.243008 8.53539e-05  -0.0113964 -0.243549 2.98023e-05  -0.0191522 -0.24307 8.08239e-05  -0.0207663 -0.26739 7.20024e-05  -0.0129561 -0.267904 4.57764e-05  -0.0124357 -0.259763 3.55244e-05  -0.0207725 -0.267416 7.10487e-05  -0.0202289 -0.259278 7.53403e-05  -0.0124376 -0.259806 3.98159e-05  -0.0202374 -0.25932 7.29561e-05  -0.0218217 -0.28351 6.77109e-05  -0.0139863 -0.284014 5.57899e-05  -0.0134716 -0.275943 4.74453e-05  -0.0218256 -0.283522 6.81877e-05  -0.0212955 -0.275454 6.98566e-05  -0.0134723 -0.275972 5.03063e-05  -0.0213013 -0.275481 6.93798e-05  -0.022855 -0.299499 6.48499e-05  -0.0150051 -0.299998 6.48499e-05  -0.0144982 -0.292003 5.76973e-05  -0.0228574 -0.299506 6.69956e-05  -0.0223398 -0.291512 6.62804e-05  -0.014497 -0.292022 5.98431e-05  -0.0223439 -0.291529 6.74725e-05  -0.0238674 -0.315317 6.03199e-05  -0.0160077 -0.315818 7.53403e-05  -0.0155101 -0.307912 6.86646e-05  -0.0238707 -0.315327 6.48499e-05  -0.0233614 -0.307422 6.29425e-05  -0.0155084 -0.307929 6.96182e-05  -0.0233657 -0.307437 6.60419e-05  0.000499308 -0.00147271 -0.000719547  0 0 0  0.000853822 -0.00199193 -0.00106239  0.000316165 -0.000452161 -0.000813484  0 0 0  0.00045985 -0.00176013 -0.00054574  0.000170246 -0.000325441 -0.000421286  0 0 0  0.000289343 -0.000610411 -0.000606537  0.000154108 -0.000482917 -0.000312805  0.0013912 -0.00584656 -0.00102568  0.00244355 -0.00674433 -0.00161076  0.00171734 -0.00367236 -0.00178599  0.0013099 -0.0063675 -0.000817537  0.000929222 -0.00335944 -0.000915766  0.00159766 -0.00410926 -0.00139809  0.000859708 -0.00378996 -0.000713825  0.00227204 -0.0123141 -0.00106812  0.00415525 -0.0134128 -0.0017426  0.00343975 -0.00924951 -0.00209522  0.00219801 -0.0129875 -0.000877142  0.00184545 -0.00884885 -0.00106215  0.00331065 -0.00987649 -0.00170803  0.00176412 -0.00946802 -0.00086236  0.00300926 -0.0204211 -0.00102258  0.00568539 -0.0215876 -0.0016911  0.00503999 -0.0165924 -0.00208521  0.00294966 -0.0211611 -0.000846386  0.00266182 -0.0161712 -0.00105071  0.00495094 -0.0173236 -0.00172901  0.00259569 -0.0168966 -0.000867128  0.00356448 -0.0299194 -0.000950098  0.00695515 -0.0310871 -0.00157309  0.00640845 -0.0254169 -0.00196457  0.00351471 -0.0306661 -0.000788689  0.00331134 -0.0249975 -0.000988007  0.00635386 -0.0261787 -0.00163722  0.0032565 -0.0257559 -0.000819206  0.00393122 -0.0406339 -0.00087142  0.00796241 -0.0417673 -0.00143504  0.00752378 -0.0355409 -0.00180578  0.00388813 -0.0413471 -0.000722885  0.00377154 -0.0351233 -0.000911236  0.00749099 -0.036285 -0.00150561  0.00372517 -0.0358658 -0.000756025  0.00411588 -0.0524163 -0.000792265  0.0087204 -0.0535026 -0.00129342  0.00839174 -0.0468102 -0.0016377  0.0040769 -0.0530775 -0.000657082  0.0040468 -0.0463899 -0.000831842  0.00837177 -0.0475091 -0.00136471  0.00400501 -0.0470878 -0.000689983  0.00412738 -0.0651274 -0.000713587  0.0092448 -0.0661579 -0.00115514  0.00902307 -0.0590801 -0.00147057  0.00409281 -0.0657246 -0.00059104  0.00414306 -0.0586531 -0.000752926  0.00901109 -0.0597201 -0.00122428  0.00410599 -0.0592921 -0.000623941  0.00397885 -0.0786384 -0.000637531  0.00955212 -0.0796153 -0.00102234  0.00943124 -0.0722163 -0.00130892  0.00394833 -0.0791712 -0.000528097  0.00407374 -0.0717798 -0.00067544  0.00942481 -0.0727917 -0.00108838  0.00403988 -0.0723539 -0.00055933  0.00368428 -0.0928296 -0.000562906  0.00966001 -0.0937523 -0.000894785  0.00963283 -0.0860929 -0.00115395  0.00365818 -0.0932968 -0.000465155  0.00384974 -0.0856451 -0.000599861  0.00963032 -0.086603 -0.000958681  0.00382078 -0.0861538 -0.000495911  0.00325775 -0.107592 -0.000491619  0.0095861 -0.108465 -0.000776052  0.00964439 -0.100595 -0.00100684  0.00323641 -0.107998 -0.00040555  0.00348783 -0.100135 -0.000526667  0.00964475 -0.101041 -0.000835419  0.00346303 -0.10058 -0.000435114  0.00271499 -0.122824 -0.000422955  0.00934899 -0.123648 -0.000663757  0.00948346 -0.115615 -0.000868797  0.0026989 -0.12317 -0.000347614  0.00300074 -0.115144 -0.000456572  0.00948727 -0.116001 -0.000719786  0.00298154 -0.115529 -0.000376225  0.00207138 -0.138433 -0.000358105  0.00896657 -0.139214 -0.000560284  0.00916862 -0.131057 -0.000739336  0.00205958 -0.138726 -0.000293493  0.00240648 -0.130576 -0.000389814  0.00917518 -0.131387 -0.000611544  0.0023911 -0.130904 -0.000319958  0.0013411 -0.154335 -0.000296831  0.00845742 -0.155074 -0.000463009  0.00871825 -0.146832 -0.000619411  0.00133324 -0.154578 -0.000241518  0.00171721 -0.146341 -0.000326872  0.00872731 -0.14711 -0.000510931  0.0017066 -0.146618 -0.000267029  0.000537276 -0.170454 -0.000239611  0.00783789 -0.171155 -0.000374317  0.00814974 -0.162858 -0.00050807  0.000533581 -0.170652 -0.000193834  0.000948787 -0.162361 -0.000267744  0.00816047 -0.163089 -0.000417709  0.000942111 -0.16259 -0.000217199  -0.000325799 -0.186719 -0.000186205  0.00712538 -0.187384 -0.000291824  0.00747955 -0.179064 -0.000406265  -0.000326037 -0.186877 -0.000148296  0.000113249 -0.178561 -0.000212431  0.00749266 -0.179252 -0.000332594  0.000110745 -0.178748 -0.000170708  -0.00123644 -0.20307 -0.000137329  0.00633574 -0.203704 -0.000218391  0.00672555 -0.195384 -0.000313759  -0.00123382 -0.203194 -0.000107288  -0.000774384 -0.194876 -0.000160933  0.00673962 -0.195534 -0.000254393  -0.000774384 -0.195026 -0.000127077  -0.00218368 -0.219454 -9.32217e-05  0.00548339 -0.220058 -0.00015378  0.00590277 -0.21176 -0.000231266  -0.00217867 -0.219546 -6.96182e-05  -0.00170493 -0.21125 -0.000114679  0.00591707 -0.211877 -0.00018549  -0.00170207 -0.211366 -8.79765e-05  -0.00315714 -0.235824 -5.38826e-05  0.00458217 -0.236403 -9.70364e-05  0.00502419 -0.228144 -0.000159025  -0.00315094 -0.235891 -3.6478e-05  -0.002666 -0.227632 -7.29561e-05  0.0050385 -0.228232 -0.000124216  -0.00266171 -0.22772 -5.24521e-05  -0.00414848 -0.252141 -1.97887e-05  0.00364351 -0.252697 -4.86374e-05  0.00410318 -0.244491 -9.63211e-05  -0.00414109 -0.252185 -6.91414e-06  -0.00365019 -0.24398 -3.60012e-05  0.00411725 -0.244556 -7.1764e-05  -0.00364399 -0.244044 -2.09808e-05  -0.00515103 -0.268375 1.07288e-05  0.00267792 -0.268913 -6.67572e-06  0.00314999 -0.260769 -4.33922e-05  -0.00514269 -0.268403 1.88351e-05  -0.00464725 -0.26026 -3.57628e-06  0.00316381 -0.260814 -2.69413e-05  -0.00464058 -0.260304 6.67572e-06  -0.00615835 -0.284499 3.71933e-05  0.00169396 -0.28502 2.83718e-05  0.00217533 -0.276948 1.90735e-06  -0.00614905 -0.284513 4.17233e-05  -0.00565362 -0.276441 2.47955e-05  0.00218797 -0.276978 1.09673e-05  -0.00564528 -0.276471 3.0756e-05  -0.00716424 -0.300489 6.19888e-05  0.000700474 -0.301004 5.96046e-05  0.00118494 -0.293006 4.1008e-05  -0.0071547 -0.300498 6.19888e-05  -0.00666046 -0.292502 4.95911e-05  0.00119805 -0.293026 4.41074e-05  -0.00665236 -0.292521 5.19753e-05  -0.00815725 -0.316308 8.70228e-05  -0.000283241 -0.316832 9.10759e-05  0.000192404 -0.308918 7.89165e-05  -0.00814772 -0.31632 8.32081e-05  -0.0076623 -0.308412 7.43866e-05  0.000206232 -0.308936 7.51019e-05  -0.00765347 -0.308429 7.24792e-05  0.00138007 -0.002056 -0.00204968  0 0 0  0.00178066 -0.00290287 -0.00204229  0.000655539 -0.000957549 -0.00156021  0 0 0  0.00128606 -0.00236094 -0.00156164  0.00046958 -0.000652075 -0.00118971  0 0 0  0.000606857 -0.00113982 -0.00116086  0.000431083 -0.000819027 -0.000887871  0.00385419 -0.00677532 -0.0029664  0.00500894 -0.00812894 -0.00311852  0.00351512 -0.00483519 -0.00344348  0.00366715 -0.00732285 -0.00237846  0.00256963 -0.00415468 -0.00262737  0.00330189 -0.00532109 -0.00269675  0.00240205 -0.00460893 -0.00205874  0.00635466 -0.0133414 -0.00313544  0.00841054 -0.0148653 -0.00341129  0.00695249 -0.0106443 -0.00407386  0.0062139 -0.0140383 -0.00258875  0.00513053 -0.00984526 -0.00309873  0.00674036 -0.0113201 -0.00332546  0.00495839 -0.0104904 -0.00252962  0.00858641 -0.02144 -0.00302792  0.0114638 -0.0229774 -0.00333738  0.010112 -0.0179834 -0.00409484  0.0085094 -0.0221943 -0.00252295  0.00750944 -0.0171981 -0.00310111  0.00998837 -0.0187482 -0.00340056  0.00740188 -0.0179422 -0.00257492  0.0105048 -0.0309147 -0.00281549  0.0141078 -0.03241 -0.00311685  0.0128881 -0.0267531 -0.00388026  0.0104719 -0.0316693 -0.00235057  0.00958538 -0.0260037 -0.00292969  0.0128363 -0.0275337 -0.00323868  0.00953287 -0.0267729 -0.00244474  0.0121117 -0.0416155 -0.00256753  0.0163582 -0.0430429 -0.0028441  0.0152875 -0.0368291 -0.00357294  0.0121055 -0.0423329 -0.00214338  0.0113475 -0.0361106 -0.00269413  0.015281 -0.0375827 -0.00298452  0.0113289 -0.0368585 -0.00224972  0.0134179 -0.0533944 -0.00231171  0.0182362 -0.0547456 -0.00255704  0.017323 -0.0480637 -0.00323582  0.013427 -0.0540587 -0.00192785  0.0128019 -0.0473685 -0.00243974  0.0173424 -0.0487676 -0.00270152  0.0128043 -0.0480698 -0.00203586  0.0144383 -0.0661095 -0.00206208  0.0197635 -0.0673803 -0.00227666  0.0190086 -0.06031 -0.00289702  0.0144559 -0.0667096 -0.00171828  0.013964 -0.0596327 -0.00218606  0.0190427 -0.0609525 -0.00241637  0.013977 -0.060274 -0.00182247  0.0151885 -0.0796299 -0.00182199  0.0209609 -0.080822 -0.00200725  0.0203606 -0.0734295 -0.00256872  0.0152112 -0.0801651 -0.00151634  0.0148466 -0.0727663 -0.00194073  0.0204021 -0.0740062 -0.00214076  0.0148667 -0.0733427 -0.00161648  0.0156879 -0.0938325 -0.00159454  0.0218521 -0.0949477 -0.00175333  0.0213985 -0.087293 -0.00225639  0.0157138 -0.0943022 -0.00132608  0.0154698 -0.0866424 -0.00170636  0.0214437 -0.0878046 -0.00187898  0.015493 -0.0871534 -0.00141978  0.0159563 -0.108607 -0.00138116  0.0224611 -0.10965 -0.00151587  0.0221444 -0.101785 -0.0019629  0.0159839 -0.109015 -0.00114703  0.0158503 -0.101144 -0.00148582  0.0221906 -0.102232 -0.00163269  0.0158769 -0.101592 -0.00123549  0.0160152 -0.12385 -0.00118208  0.0228128 -0.124824 -0.00129461  0.022621 -0.116795 -0.00168872  0.0160443 -0.124199 -0.000981092  0.0160121 -0.116165 -0.00127983  0.0226679 -0.117182 -0.00140381  0.0160393 -0.116552 -0.00106287  0.0158851 -0.139469 -0.000997782  0.0229317 -0.140379 -0.00109076  0.0228536 -0.132227 -0.00143409  0.0159154 -0.139765 -0.000826359  0.0159733 -0.131607 -0.0010879  0.0229001 -0.132558 -0.00119114  0.0160023 -0.131938 -0.000902414  0.0155886 -0.155378 -0.000827312  0.0228437 -0.156227 -0.000903606  0.0228667 -0.14799 -0.00119972  0.0156193 -0.155623 -0.000684261  0.015758 -0.147382 -0.000910759  0.0229123 -0.148269 -0.000995159  0.015787 -0.14766 -0.000754356  0.015146 -0.171501 -0.000671387  0.022572 -0.172295 -0.000732183  0.0226852 -0.164005 -0.000984669  0.0151768 -0.171702 -0.000553846  0.0153853 -0.163406 -0.000747681  0.0227293 -0.164237 -0.00081563  0.0154154 -0.163638 -0.000617981  0.0145781 -0.187769 -0.000530005  0.0221419 -0.188511 -0.000576496  0.022333 -0.180198 -0.000789404  0.0146084 -0.187929 -0.000435829  0.0148779 -0.17961 -0.000598907  0.0223757 -0.180387 -0.000652552  0.0149074 -0.179799 -0.000493288  0.0139036 -0.20412 -0.000403881  0.0215752 -0.204816 -0.000439167  0.0218339 -0.196504 -0.000614405  0.0139332 -0.204245 -0.000329494  0.0142536 -0.195927 -0.000465155  0.0218744 -0.196654 -0.000505924  0.0142832 -0.196078 -0.000381231  0.0131419 -0.220501 -0.000293255  0.0208945 -0.221155 -0.00031805  0.0212104 -0.212865 -0.000459433  0.0131698 -0.220594 -0.000237226  0.0135345 -0.212299 -0.000346422  0.0212481 -0.212982 -0.000376463  0.0135615 -0.212416 -0.000281811  0.0123088 -0.236867 -0.000197887  0.0201206 -0.237483 -0.000215292  0.0204835 -0.229233 -0.000326157  0.0123348 -0.236934 -0.000156879  0.0127342 -0.228678 -0.000243664  0.0205183 -0.229321 -0.000265121  0.0127606 -0.228766 -0.000195742  0.01142 -0.253178 -0.000117064  0.0192728 -0.253762 -0.000128746  0.0196733 -0.245565 -0.000212908  0.0114446 -0.253222 -8.96454e-05  0.0118723 -0.24502 -0.000155926  0.0197051 -0.245629 -0.000170231  0.0118961 -0.245085 -0.00012207  0.010489 -0.269403 -5.03063e-05  0.018368 -0.269961 -5.76973e-05  0.0187984 -0.261826 -0.000119448  0.0105116 -0.269431 -3.29018e-05  0.0109601 -0.261291 -8.2016e-05  0.0188267 -0.261871 -9.17912e-05  0.0109828 -0.261337 -6.00815e-05  0.00952721 -0.285518 5.96046e-06  0.0174212 -0.286054 -2.38419e-07  0.0178745 -0.277989 -4.31538e-05  0.00954819 -0.285533 1.38283e-05  0.0100129 -0.277465 -2.09808e-05  0.017899 -0.278019 -2.81334e-05  0.0100336 -0.277495 -8.82149e-06  0.00854492 -0.301505 5.60284e-05  0.0164471 -0.302031 4.88758e-05  0.0169129 -0.294035 2.0504e-05  0.00856614 -0.301515 5.55515e-05  0.00903845 -0.293518 3.12328e-05  0.0169368 -0.294056 2.5034e-05  0.00905895 -0.293538 3.45707e-05  0.00756574 -0.317343 0.000105619  0.0154707 -0.317883 9.82285e-05  0.0159326 -0.309952 7.82013e-05  0.00758719 -0.317354 9.56059e-05  0.00805473 -0.309433 8.03471e-05  0.0159566 -0.309971 7.22408e-05  0.00807428 -0.309451 7.48634e-05  0.00254108 -0.00332105 -0.00327682  0 0 0  0.00314394 -0.00483716 -0.00293589  0.00113935 -0.00212145 -0.00222683  0 0 0  0.00239801 -0.00369352 -0.00249767  0.000859484 -0.00141853 -0.00189233  0 0 0  0.00107519 -0.00236171 -0.00166535  0.000798367 -0.00162667 -0.00141263  0.00684974 -0.00855821 -0.00476861  0.00840142 -0.0105143 -0.00451088  0.00599933 -0.00698996 -0.00495172  0.00657877 -0.00919193 -0.00382686  0.00464696 -0.00575811 -0.00420761  0.00572403 -0.00759292 -0.00388837  0.00439747 -0.00629264 -0.00330043  0.0109939 -0.0151309 -0.00509739  0.0134358 -0.0170974 -0.004987  0.0112439 -0.0128576 -0.0059247  0.0108074 -0.0158904 -0.00420928  0.00898194 -0.0116517 -0.00501132  0.0109891 -0.0136372 -0.00483871  0.00874239 -0.0123724 -0.00409269  0.0146759 -0.0231398 -0.00496721  0.0179225 -0.0250461 -0.00492382  0.0158859 -0.0200678 -0.00602365  0.0145888 -0.0239303 -0.00413775  0.0128909 -0.0189436 -0.00506783  0.0157453 -0.0208948 -0.00499797  0.0127575 -0.0197363 -0.00420737  0.0179181 -0.0325326 -0.0046401  0.0218853 -0.0343516 -0.0046227  0.0200193 -0.0287212 -0.00574613  0.0178993 -0.0333057 -0.00387526  0.0163518 -0.027661 -0.00481915  0.0199685 -0.0295343 -0.00479198  0.016302 -0.0284563 -0.00402117  0.0207346 -0.0431683 -0.00423741  0.0253412 -0.0448854 -0.00422621  0.0236682 -0.0387027 -0.00530648  0.0207571 -0.0438942 -0.00353885  0.0193793 -0.0376941 -0.00444436  0.0236757 -0.0394717 -0.00443125  0.0193835 -0.038455 -0.00371242  0.0231386 -0.0548958 -0.00381374  0.028308 -0.056509 -0.00380254  0.0268436 -0.049859 -0.00480962  0.0231839 -0.0555629 -0.00318336  0.0219884 -0.0488946 -0.00402641  0.0268846 -0.0505685 -0.00401568  0.0220232 -0.0496013 -0.00336194  0.0251443 -0.0675682 -0.00339627  0.0308079 -0.0690745 -0.0033834  0.0295551 -0.062037 -0.00430417  0.0252017 -0.0681686 -0.00283217  0.0241906 -0.061112 -0.00360346  0.0296151 -0.0626801 -0.00359178  0.0242427 -0.0617551 -0.0030067  0.0267713 -0.0810511 -0.00299549  0.0328655 -0.0824556 -0.00298095  0.031822 -0.0750939 -0.00381303  0.0268342 -0.0815861 -0.00249648  0.0260053 -0.0742057 -0.00319338  0.0318905 -0.0756692 -0.00318003  0.0260648 -0.0747823 -0.00266218  0.0280422 -0.0952196 -0.00261712  0.0345101 -0.096523 -0.00260186  0.0336663 -0.0888995 -0.00334597  0.028107 -0.0956882 -0.00217938  0.0274508 -0.0880459 -0.00280333  0.033738 -0.0894083 -0.00278878  0.0275142 -0.0885567 -0.00233531  0.0289816 -0.109962 -0.00226283  0.035771 -0.111172 -0.00224757  0.0351149 -0.103335 -0.00290728  0.0290465 -0.11037 -0.00188375  0.0285529 -0.102515 -0.00243711  0.0351869 -0.10378 -0.00242209  0.0286168 -0.102962 -0.00202894  0.0296179 -0.125173 -0.00193334  0.0366802 -0.126293 -0.00191903  0.0361967 -0.118292 -0.00249863  0.029682 -0.125522 -0.00160789  0.0293369 -0.117505 -0.00209522  0.0362681 -0.118677 -0.00208068  0.0294008 -0.117891 -0.00174308  0.0299785 -0.140762 -0.00162935  0.0372692 -0.141797 -0.00161481  0.0369431 -0.133673 -0.0021193  0.0300407 -0.141057 -0.00135446  0.0298326 -0.132916 -0.00177813  0.0370131 -0.134001 -0.00176382  0.0298942 -0.133246 -0.00147843  0.0300922 -0.15664 -0.0013504  0.0375701 -0.157595 -0.0013361  0.037387 -0.149386 -0.00177002  0.0301521 -0.156885 -0.00112104  0.0300655 -0.148659 -0.00148654  0.037454 -0.149662 -0.00147271  0.0301259 -0.148937 -0.00123501  0.0299866 -0.172734 -0.00109577  0.0376145 -0.173616 -0.00108337  0.0375589 -0.165352 -0.00145149  0.0300441 -0.172934 -0.000908852  0.0300665 -0.164655 -0.00122023  0.0376226 -0.16558 -0.00120664  0.0301242 -0.164885 -0.00101233  0.0296896 -0.188972 -0.000866413  0.0374336 -0.189784 -0.000855207  0.0374908 -0.181498 -0.00116348  0.0297437 -0.18913 -0.000717163  0.0298615 -0.180828 -0.000977993  0.0375508 -0.181683 -0.000966311  0.0299165 -0.181015 -0.000810385  0.029227 -0.205294 -0.000662804  0.0370576 -0.206045 -0.000652075  0.0372126 -0.197758 -0.000905514  0.0292776 -0.205417 -0.000547171  0.0294788 -0.197115 -0.000761509  0.0372684 -0.197905 -0.00075078  0.0295298 -0.197264 -0.000629425  0.0286252 -0.221646 -0.000484943  0.036516 -0.222341 -0.00047636  0.0367548 -0.214077 -0.000678778  0.0286717 -0.221737 -0.000398159  0.0289431 -0.213459 -0.000570774  0.0368061 -0.214189 -0.000561714  0.0289907 -0.213574 -0.000470161  0.0279083 -0.237985 -0.000334024  0.035836 -0.238631 -0.000327349  0.0361462 -0.230404 -0.000483513  0.02795 -0.23805 -0.000272751  0.0282815 -0.229809 -0.000406742  0.0361917 -0.230488 -0.000398874  0.0283241 -0.229896 -0.000333071  0.0270989 -0.25427 -0.000208616  0.0350461 -0.254873 -0.000204802  0.0354125 -0.246698 -0.000320911  0.0271366 -0.254313 -0.00016737  0.0275149 -0.246125 -0.000268221  0.0354538 -0.246758 -0.000263214  0.0275538 -0.246188 -0.000217438  0.0262179 -0.270471 -0.000107527  0.0341713 -0.271041 -0.000105619  0.0345817 -0.262925 -0.000188589  0.0262518 -0.270498 -8.29697e-05  0.0266674 -0.262372 -0.00015521  0.0346179 -0.262966 -0.000152349  0.0267019 -0.262415 -0.000123024  0.0252852 -0.286565 -2.64645e-05  0.0332375 -0.287108 -3.02792e-05  0.0336785 -0.279058 -8.46386e-05  0.0253155 -0.286579 -1.52588e-05  0.025758 -0.278521 -6.46114e-05  0.0337107 -0.279086 -6.58035e-05  0.0257895 -0.278551 -4.72069e-05  0.0243156 -0.302541 4.05312e-05  0.0322647 -0.303072 3.17097e-05  0.0327244 -0.295081 -3.57628e-06  0.0243454 -0.302551 4.05312e-05  0.0248055 -0.294557 8.10623e-06  0.0327549 -0.295101 2.14577e-06  0.0248337 -0.294577 1.35899e-05  0.0233359 -0.318405 0.000107288  0.0312791 -0.318946 9.01222e-05  0.0317416 -0.310999 6.50883e-05  0.0233657 -0.318415 9.56059e-05  0.0238256 -0.310476 7.34329e-05  0.0317719 -0.311016 6.00815e-05  0.023855 -0.310493 6.77109e-05  0.00453074 -0.006037 -0.00442314  0 0 0  0.00629678 -0.00871789 -0.00387168  0.0025997 -0.00515294 -0.00291824  0 0 0  0.00438626 -0.0065636 -0.0033927  0.00154117 -0.00322592 -0.00250244  0 0 0  0.0025907 -0.00547099 -0.00221968  0.00147013 -0.00350153 -0.00189614  0.0108466 -0.0112611 -0.00647616  0.0130749 -0.0137223 -0.00591874  0.00994401 -0.0102445 -0.0065012  0.0105606 -0.0120569 -0.00520158  0.00777076 -0.00852984 -0.00570536  0.00976171 -0.0110393 -0.00511312  0.00751616 -0.00922233 -0.00448394  0.0165062 -0.0176145 -0.00699878  0.0194475 -0.0200024 -0.00656676  0.0165475 -0.0157598 -0.00781012  0.0163059 -0.0184733 -0.00576997  0.0137545 -0.0142408 -0.00685167  0.0163104 -0.0166791 -0.00636649  0.013501 -0.0150898 -0.00559235  0.0215856 -0.0254732 -0.00686479  0.0253118 -0.0277367 -0.00649714  0.0226122 -0.0227777 -0.00796127  0.0214874 -0.0263163 -0.00571012  0.019115 -0.0213483 -0.0069859  0.0224532 -0.0236827 -0.0065906  0.0189682 -0.0222142 -0.00579071  0.0261225 -0.0347449 -0.00643253  0.0305687 -0.0368773 -0.00610662  0.0280982 -0.031287 -0.00759959  0.0260978 -0.0355429 -0.00536656  0.0239218 -0.0299304 -0.00667191  0.0280185 -0.0321382 -0.00632811  0.0238639 -0.030763 -0.00556064  0.0301237 -0.0452778 -0.00587988  0.0352025 -0.0472744 -0.0055871  0.0329875 -0.0411438 -0.00701904  0.030145 -0.0460127 -0.00490952  0.028191 -0.039853 -0.00616479  0.0329627 -0.0419275 -0.00585723  0.0281913 -0.0406303 -0.00514627  0.0335954 -0.0569121 -0.00529313  0.039224 -0.0587741 -0.00502896  0.0372775 -0.0521843 -0.00636101  0.0336432 -0.0575802 -0.00441837  0.0319256 -0.0509561 -0.00558782  0.0372889 -0.0528953 -0.00531077  0.0319618 -0.0516677 -0.00466561  0.0365529 -0.0694978 -0.00471187  0.0426562 -0.0712268 -0.00447536  0.040981 -0.0642521 -0.00569057  0.0366151 -0.0700946 -0.003932  0.0351384 -0.0630842 -0.00500035  0.0410113 -0.0648891 -0.00475144  0.0351934 -0.0637259 -0.00417399  0.0390184 -0.082898 -0.00415325  0.0455309 -0.0844993 -0.00394344  0.0441185 -0.077202 -0.00503945  0.0390877 -0.0834277 -0.00346422  0.0378464 -0.0760933 -0.0044291  0.0441616 -0.0777685 -0.00420737  0.0379122 -0.0766658 -0.00369549  0.041021 -0.0969868 -0.00362587  0.0478832 -0.0984657 -0.00344157  0.0467217 -0.0909048 -0.00442004  0.0410924 -0.0974494 -0.00302386  0.0400772 -0.0898529 -0.00388551  0.0467697 -0.0914027 -0.00369  0.0401465 -0.0903581 -0.00324082  0.0425911 -0.111653 -0.00313234  0.0497491 -0.113015 -0.00297213  0.0488238 -0.10524 -0.00383711  0.0426625 -0.112055 -0.00261116  0.0418588 -0.104244 -0.00337458  0.0488747 -0.105674 -0.00320363  0.04193 -0.104685 -0.00281405  0.0437634 -0.126791 -0.00267458  0.0511678 -0.12804 -0.00253654  0.0504612 -0.1201 -0.00329566  0.0438336 -0.127133 -0.00222945  0.0432262 -0.119158 -0.00289893  0.0505116 -0.120474 -0.00275159  0.043296 -0.119539 -0.00241685  0.0445721 -0.142307 -0.00225091  0.052179 -0.143452 -0.00213504  0.0516709 -0.135386 -0.00279379  0.0446405 -0.142596 -0.00187564  0.044212 -0.134497 -0.00245786  0.0517222 -0.135704 -0.00233269  0.0442806 -0.134821 -0.00204897  0.0450535 -0.158117 -0.00186276  0.0528208 -0.159162 -0.00176549  0.0524933 -0.15101 -0.00233126  0.0451188 -0.158355 -0.00155234  0.0448531 -0.15017 -0.00205255  0.0525434 -0.151274 -0.00194764  0.0449187 -0.150442 -0.00171065  0.0452415 -0.174144 -0.0015099  0.0531319 -0.175096 -0.00143147  0.0529662 -0.166887 -0.00190949  0.0453036 -0.174337 -0.00125766  0.0451827 -0.166097 -0.00168204  0.0530152 -0.167105 -0.0015955  0.0452462 -0.166322 -0.00140142  0.0451715 -0.190318 -0.00119305  0.0531507 -0.191185 -0.00113082  0.0531286 -0.18295 -0.00152826  0.0452302 -0.19047 -0.000993729  0.0452383 -0.182206 -0.00134706  0.0531751 -0.183125 -0.00127745  0.045297 -0.182387 -0.00112224  0.0448766 -0.20658 -0.000911713  0.0529141 -0.207368 -0.000863552  0.0530183 -0.199131 -0.0011878  0.0449309 -0.206697 -0.00075841  0.0450509 -0.198431 -0.00104785  0.0530617 -0.199268 -0.000993729  0.0451069 -0.198574 -0.000872612  0.0443904 -0.222876 -0.000667572  0.052459 -0.223594 -0.000632048  0.0526717 -0.215375 -0.000889301  0.0444405 -0.222961 -0.000555277  0.0446572 -0.214716 -0.000785351  0.0527112 -0.215478 -0.00074482  0.0447075 -0.214826 -0.000653267  0.0437438 -0.239163 -0.000460625  0.051821 -0.239819 -0.000436068  0.0521226 -0.231634 -0.000632524  0.0437891 -0.239223 -0.000382185  0.0440862 -0.231013 -0.00055933  0.052161 -0.231709 -0.00053072  0.0441332 -0.231094 -0.000465155  0.0429685 -0.255402 -0.000291348  0.0510359 -0.256004 -0.000277519  0.0514095 -0.247867 -0.000419855  0.0430093 -0.255439 -0.000241756  0.0433722 -0.24728 -0.000371456  0.0514443 -0.247918 -0.000353813  0.0434136 -0.247337 -0.000308514  0.0420942 -0.271563 -0.000158072  0.0501382 -0.272124 -0.000153303  0.0505652 -0.26404 -0.00025034  0.0421314 -0.271585 -0.0001297  0.0425427 -0.263483 -0.000220537  0.0505991 -0.264074 -0.000212431  0.0425808 -0.263521 -0.000182629  0.0411513 -0.287625 -5.72205e-05  0.0491652 -0.288157 -6.10352e-05  0.0496271 -0.28013 -0.000120878  0.0411861 -0.287636 -4.60148e-05  0.0416307 -0.279596 -0.000103951  0.0496581 -0.280151 -0.000104189  0.0416658 -0.279622 -8.51154e-05  0.0401671 -0.303582 1.97887e-05  0.0481536 -0.304103 7.62939e-06  0.048629 -0.296124 -2.90871e-05  0.0402014 -0.303591 2.00272e-05  0.0406635 -0.295605 -1.66893e-05  0.0486622 -0.29614 -2.6226e-05  0.0406973 -0.295624 -1.16825e-05  0.0391686 -0.319459 8.91685e-05  0.0471356 -0.319986 6.7234e-05  0.047612 -0.312032 4.07696e-05  0.0392025 -0.31947 8.05855e-05  0.0396698 -0.311518 5.38826e-05  0.0476441 -0.312049 3.50475e-05  0.0397022 -0.311536 4.95911e-05  -0.00665072 -0.00649299 0.0068171  -0.00374482 -0.00350863 0.00560617  0 0 0  -0.00614324 -0.00343288 0.00760698  0 0 0  -0.00362355 -0.00302631 0.00515795  -0.00206025 -0.00075791 0.00438333  0 0 0  -0.00267129 -0.00395424 0.00396895  -0.00486389 -0.00451151 0.0059855  -0.00264161 -0.00172618 0.00483775  0 0 0  -0.00125171 -0.00132217 0.00302672  -0.00163655 -0.00227337 0.0033977  -0.0135395 -0.0102562 0.00930762  -0.0111651 -0.00655385 0.00998616  -0.0114914 -0.00752319 0.00927091  -0.00870326 -0.00766114 0.00695205  -0.00700869 -0.0040802 0.00739169  -0.0102742 -0.00811376 0.00841689  -0.0109746 -0.00888282 0.00808811  -0.00899799 -0.00526352 0.00864649  -0.00622258 -0.00518122 0.00629115  -0.00809181 -0.00653197 0.00731993  -0.0197184 -0.0159909 0.00979567  -0.0168665 -0.0113717 0.0111368  -0.0163411 -0.013403 0.00967479  -0.013323 -0.0137074 0.00729227  -0.011248 -0.00919613 0.00821424  -0.0166669 -0.012919 0.00970817  -0.0163558 -0.0147615 0.00851512  -0.0139091 -0.0102263 0.00961518  -0.0110582 -0.010475 0.00722837  -0.0137057 -0.0116121 0.00843048  -0.0255491 -0.0233506 0.00944519  -0.0225043 -0.0180675 0.011023  -0.0211482 -0.0210077 0.00932026  -0.0176619 -0.0213557 0.00704098  -0.0153771 -0.0160618 0.00816202  -0.0226784 -0.019476 0.00968909  -0.0214237 -0.0222761 0.00822783  -0.0187575 -0.0169951 0.00955606  -0.015519 -0.0173378 0.00721812  -0.018925 -0.0183252 0.00843048  -0.03102 -0.0321599 0.00872731  -0.0279756 -0.0263345 0.0103433  -0.0258223 -0.0300915 0.00863719  -0.0217922 -0.0304433 0.00652575  -0.0194449 -0.024535 0.00769734  -0.02833 -0.0275864 0.00911427  -0.0262179 -0.0312351 0.00762105  -0.0235057 -0.0253695 0.00900292  -0.0197526 -0.0257296 0.00680637  -0.0238545 -0.0265869 0.00794864  -0.0361271 -0.0422207 0.00788546  -0.0331879 -0.0359434 0.00943565  -0.030297 -0.0404296 0.00782371  -0.0257156 -0.0407809 0.00590372  -0.0234001 -0.0343811 0.00704932  -0.0336184 -0.0370444 0.00831509  -0.0307364 -0.0414458 0.00689363  -0.0280876 -0.0351055 0.00823712  -0.0237797 -0.035465 0.00622249  -0.0285123 -0.0361947 0.00726461  -0.040866 -0.0533618 0.00702024  -0.0380931 -0.0467015 0.00846267  -0.0345243 -0.0518434 0.00698376  -0.0294204 -0.0521984 0.00526452  -0.0271953 -0.0453961 0.00633931  -0.0385431 -0.0476646 0.00745273  -0.0349665 -0.052735 0.00614524  -0.0324431 -0.0460016 0.00740194  -0.0275962 -0.0463621 0.00558496  -0.0328881 -0.0469641 0.00651813  -0.0452405 -0.0654454 0.00619173  -0.0426576 -0.0584556 0.00750232  -0.0384783 -0.0641828 0.00616813  -0.0328974 -0.0645479 0.00464368  -0.0307928 -0.0574117 0.00563025  -0.0430975 -0.0592939 0.00660133  -0.0389031 -0.0649609 0.00542045  -0.0365358 -0.0578953 0.00657058  -0.0311874 -0.0582628 0.00495195  -0.0369714 -0.0587384 0.00577784  -0.0492603 -0.0783443 0.00540853  -0.0468786 -0.0710736 0.00658941  -0.0421499 -0.0773233 0.00539756  -0.0361437 -0.0777028 0.00406146  -0.0341747 -0.0702868 0.00495148  -0.0472945 -0.0717996 0.00579333  -0.0425473 -0.0779949 0.00473905  -0.0403486 -0.0706502 0.00577569  -0.0345492 -0.0710299 0.00434899  -0.0407615 -0.0713831 0.00507331  -0.0529385 -0.0919524 0.00468874  -0.0507544 -0.0844419 0.0057373  -0.0455408 -0.0911518 0.00468206  -0.0391612 -0.0915485 0.00352049  -0.0373322 -0.0839003 0.00431514  -0.0511403 -0.0850663 0.0050416  -0.0459071 -0.0917287 0.00410819  -0.0438793 -0.0841481 0.00503254  -0.0376801 -0.0845438 0.0037868  -0.0442621 -0.0847804 0.0044167  -0.056291 -0.106164 0.00402117  -0.054301 -0.0984559 0.00494909  -0.0486583 -0.105569 0.00402069  -0.0419561 -0.105983 0.00302362  -0.0402659 -0.0981443 0.00372624  -0.0546551 -0.098988 0.00434828  -0.048992 -0.106057 0.00352693  -0.047132 -0.0982832 0.00434399  -0.040586 -0.098696 0.00326777  -0.0474831 -0.0988236 0.00381088  -0.0593356 -0.12089 0.00341582  -0.0575281 -0.11302 0.00422478  -0.0515141 -0.120479 0.00341558  -0.0445367 -0.120909 0.00256753  -0.0429822 -0.11292 0.00318384  -0.0578499 -0.113469 0.0037117  -0.051816 -0.120889 0.00299597  -0.0501171 -0.112958 0.00371099  -0.043272 -0.113388 0.00279164  -0.0504357 -0.113415 0.00325465  -0.0620894 -0.136039 0.00285912  -0.0604585 -0.128044 0.00356245  -0.0541223 -0.135797 0.00286341  -0.0469134 -0.13624 0.00215626  -0.0454884 -0.128136 0.00268936  -0.0607485 -0.128416 0.00313115  -0.054392 -0.136132 0.00251222  -0.0528473 -0.128083 0.00313258  -0.0457498 -0.128527 0.00235796  -0.053134 -0.128464 0.00274777  -0.0645723 -0.151532 0.00236082  -0.0631053 -0.143443 0.00296044  -0.0564966 -0.151439 0.0023644  -0.0490968 -0.151894 0.00178099  -0.0477957 -0.143707 0.00224018  -0.0633625 -0.143747 0.00260377  -0.0567362 -0.15171 0.00207543  -0.0553365 -0.143572 0.00260711  -0.048028 -0.144029 0.00196481  -0.0555921 -0.143884 0.00228763  -0.066803 -0.16729 0.00190973  -0.0654911 -0.15914 0.0024178  -0.0586536 -0.167331 0.00191617  -0.0510995 -0.167795 0.00144863  -0.0499145 -0.159556 0.00183582  -0.065719 -0.159381 0.00212908  -0.058863 -0.167542 0.00168395  -0.0576005 -0.159348 0.00213361  -0.0501201 -0.159815 0.00161123  -0.0578257 -0.159598 0.00187349  -0.0688019 -0.183248 0.00151443  -0.0676316 -0.175062 0.00193405  -0.0606086 -0.183402 0.00151968  -0.0529332 -0.183873 0.00115204  -0.0518577 -0.175609 0.00147557  -0.0678291 -0.175248 0.00170588  -0.0607898 -0.183563 0.00133729  -0.0596542 -0.175338 0.00171161  -0.0520362 -0.175814 0.00129652  -0.0598502 -0.175533 0.00150466  -0.0705898 -0.199338 0.0011642  -0.0695523 -0.191142 0.00150728  -0.0623803 -0.199593 0.00117278  -0.0546119 -0.200068 0.000895262  -0.053638 -0.191802 0.00115871  -0.0697219 -0.191279 0.00133324  -0.0625331 -0.199707 0.00103474  -0.0615151 -0.191477 0.00133991  -0.053791 -0.191957 0.00101995  -0.0616832 -0.191623 0.00118017  -0.0721879 -0.215509 0.000869513  -0.0712683 -0.207321 0.00113773  -0.0639846 -0.215845 0.000876188  -0.05615 -0.216322 0.000673771  -0.0552688 -0.208075 0.000884295  -0.0714102 -0.207417 0.00101089  -0.0641112 -0.215922 0.000776052  -0.0632012 -0.207705 0.00101805  -0.055397 -0.208189 0.000780582  -0.0633416 -0.207809 0.000899553  -0.0736189 -0.231707 0.000619173  -0.0728073 -0.223546 0.000825167  -0.0654414 -0.232111 0.000627995  -0.0575619 -0.232589 0.000490904  -0.0567653 -0.224377 0.000652313  -0.0729232 -0.223607 0.000738621  -0.0655429 -0.232155 0.000560045  -0.0647292 -0.223969 0.000745773  -0.0568707 -0.224455 0.000579119  -0.0648441 -0.224039 0.000662088  -0.0749056 -0.247893 0.000424385  -0.0741863 -0.239772 0.000568151  -0.0667698 -0.248345 0.000430107  -0.0588632 -0.248825 0.000342846  -0.0581424 -0.240662 0.000461817  -0.0742776 -0.239804 0.000515699  -0.0668473 -0.248367 0.000388145  -0.0661194 -0.240224 0.000522614  -0.0582244 -0.240711 0.000413418  -0.0662096 -0.240266 0.000468254  -0.0760727 -0.264026 0.000273943  -0.0754349 -0.255954 0.000369072  -0.0679882 -0.264516 0.000279665  -0.0600696 -0.264996 0.000233412  -0.0594137 -0.25689 0.000313997  -0.0755033 -0.255967 0.000343084  -0.0680447 -0.264518 0.000258446  -0.0673902 -0.256431 0.000348568  -0.0594771 -0.256918 0.000285149  -0.0674582 -0.256451 0.000317574  -0.0771482 -0.280083 0.000176668  -0.0765705 -0.272065 0.000226021  -0.0691173 -0.28059 0.000174761  -0.0611973 -0.281075 0.000152111  -0.0605953 -0.273032 0.000203371  -0.0766194 -0.272066 0.00022006  -0.0691571 -0.280585 0.000168324  -0.0685618 -0.272556 0.000221729  -0.060642 -0.273046 0.000190496  -0.0686097 -0.272563 0.000208378  -0.0781693 -0.296049 0.00011301  -0.0776289 -0.288078 0.000137091  -0.0701802 -0.296559 0.000103951  -0.0622647 -0.297049 9.41753e-05  -0.0617015 -0.289066 0.000124454  -0.0776639 -0.288077 0.000141621  -0.0702097 -0.296553 0.000106573  -0.0696542 -0.288577 0.000135899  -0.0617371 -0.289073 0.000122786  -0.069689 -0.288581 0.000133991  -0.0791767 -0.311949 6.69956e-05  -0.0786419 -0.303998 8.51154e-05  -0.0712061 -0.312446 4.36306e-05  -0.0632999 -0.312931 3.71933e-05  -0.0627496 -0.304991 6.19888e-05  -0.0786715 -0.304004 9.08375e-05  -0.0712354 -0.312445 5.22137e-05  -0.0706935 -0.304499 7.48634e-05  -0.0627828 -0.304997 6.79493e-05  -0.0707235 -0.304505 7.96318e-05  -0.00362034 -0.00127074 0.00542831  0 0 0  -0.00204611 -0.00149684 0.00350022  -0.00122752 0.000164807 0.00292563  0 0 0  -0.00276488 -0.00209704 0.00433493  -0.00159914 -0.000197425 0.00360513  0 0 0  -0.000701528 -0.000389338 0.00205326  -0.00093114 -0.000750989 0.00252771  -0.00713338 -0.00549714 0.00665307  -0.00505388 -0.0058641 0.0047133  -0.00404346 -0.00240095 0.00498152  -0.00675085 -0.00664236 0.00584126  -0.00541145 -0.00310723 0.00617003  -0.00353685 -0.00341615 0.00426912  -0.0047663 -0.00414544 0.00527692  -0.010564 -0.011585 0.00688124  -0.00807276 -0.0121141 0.00489974  -0.00668818 -0.00757486 0.00549388  -0.0105733 -0.012825 0.00609803  -0.0088447 -0.00830261 0.00685525  -0.00657356 -0.00877373 0.00487471  -0.00868964 -0.00952585 0.00605583  -0.0139896 -0.0193779 0.00662374  -0.0109853 -0.0199745 0.00470495  -0.00942799 -0.0146236 0.00543022  -0.0142 -0.0205873 0.00587392  -0.01228 -0.0152692 0.00679374  -0.00954291 -0.0158513 0.00483322  -0.0124071 -0.0165132 0.00602651  -0.0173649 -0.0286615 0.00614524  -0.0137969 -0.0292685 0.00434947  -0.012171 -0.0232792 0.0051136  -0.0176724 -0.029786 0.00543737  -0.0156856 -0.0238366 0.00640297  -0.0124027 -0.0244528 0.00454116  -0.0159544 -0.0250175 0.00567341  -0.02065 -0.0392155 0.00557351  -0.016515 -0.0398085 0.00393105  -0.0148829 -0.0333111 0.00468302  -0.0209957 -0.0402321 0.00491929  -0.0190203 -0.0337807 0.00586557  -0.0151674 -0.0343921 0.00414491  -0.0193529 -0.0348624 0.00518417  -0.0238122 -0.0508548 0.00498128  -0.0191351 -0.0514289 0.00350356  -0.0175366 -0.0445173 0.00421262  -0.0241629 -0.0517596 0.00438571  -0.0222479 -0.0448982 0.00527763  -0.0178376 -0.0454921 0.00371718  -0.0225993 -0.0458691 0.00465226  -0.0268254 -0.0634212 0.00440264  -0.0216488 -0.0639782 0.00308943  -0.0201082 -0.0567277 0.00374269  -0.0271643 -0.0642166 0.0038693  -0.0253373 -0.057019 0.00468946  -0.020406 -0.0575942 0.00329447  -0.0256845 -0.0578784 0.00412488  -0.0296763 -0.0767835 0.00385499  -0.0240493 -0.0773281 0.00270009  -0.0225799 -0.0697975 0.00329113  -0.0299941 -0.0774769 0.00338316  -0.0282712 -0.0699987 0.00412512  -0.0228633 -0.0705593 0.00289154  -0.0286006 -0.0707523 0.00362253  -0.0323578 -0.0908235 0.00334477  -0.0263313 -0.0913589 0.00234008  -0.0249416 -0.0835997 0.00286746  -0.0326512 -0.0914213 0.00293326  -0.0310369 -0.0837138 0.00359607  -0.025205 -0.0842635 0.00251627  -0.0313441 -0.0843683 0.00315428  -0.0348697 -0.105438 0.0028739  -0.0284944 -0.105967 0.00200844  -0.0271856 -0.0980236 0.00247574  -0.0351375 -0.105949 0.00251865  -0.0336339 -0.0980539 0.00310588  -0.0274277 -0.0985959 0.0021708  -0.0339153 -0.0986171 0.00272226  -0.0372158 -0.120531 0.00244308  -0.030538 -0.121054 0.00170636  -0.0293115 -0.112967 0.00211573  -0.0374568 -0.12096 0.00214076  -0.0360618 -0.112919 0.00265455  -0.0295308 -0.113455 0.00185418  -0.0363173 -0.113398 0.00232577  -0.0394005 -0.136013 0.00205112  -0.032465 -0.136531 0.00143361  -0.0313193 -0.128336 0.0017879  -0.0396158 -0.13637 0.00179744  -0.0383269 -0.128217 0.00224352  -0.0315158 -0.128747 0.00156713  -0.0385557 -0.128619 0.00196552  -0.0414314 -0.151801 0.00169683  -0.034278 -0.152314 0.00118709  -0.0332111 -0.144046 0.00149059  -0.0416214 -0.152091 0.00148749  -0.040433 -0.143862 0.00187039  -0.0333852 -0.144387 0.00130701  -0.040637 -0.144194 0.00163865  -0.0433155 -0.167822 0.00137997  -0.0359826 -0.16833 0.000967264  -0.0349905 -0.160018 0.00122452  -0.0434819 -0.168054 0.00121045  -0.0423903 -0.159775 0.00153518  -0.0351435 -0.160296 0.00107431  -0.042569 -0.160046 0.00134587  -0.0450631 -0.184006 0.00109935  -0.0375823 -0.184508 0.000772953  -0.0366626 -0.176179 0.00098753  -0.0452057 -0.184185 0.000965834  -0.0442046 -0.175886 0.00123644  -0.0367951 -0.176401 0.000867367  -0.04436 -0.1761 0.0010848  -0.0466824 -0.200291 0.000854969  -0.0390837 -0.200789 0.000604868  -0.0382326 -0.192465 0.00077939  -0.0468028 -0.200425 0.000752449  -0.0458872 -0.192128 0.000974178  -0.0383449 -0.192638 0.000686169  -0.0460193 -0.192293 0.000855923  -0.0481842 -0.216622 0.000645876  -0.040494 -0.217113 0.000461578  -0.0397062 -0.208816 0.000600338  -0.0482831 -0.216716 0.000571251  -0.0474458 -0.208443 0.000747442  -0.0397995 -0.208947 0.000530005  -0.0475566 -0.208566 0.000658512  -0.0495799 -0.232952 0.000472069  -0.0418208 -0.233438 0.000342369  -0.0410914 -0.225183 0.000449657  -0.0496593 -0.233014 0.000419617  -0.0488935 -0.224778 0.000556231  -0.0411673 -0.225277 0.000399351  -0.0489833 -0.224866 0.000492096  -0.0508802 -0.249237 0.000332117  -0.0430706 -0.24972 0.000247717  -0.0423944 -0.241521 0.000326395  -0.0509412 -0.249274 0.0002985  -0.0502396 -0.241091 0.000399351  -0.0424545 -0.241585 0.000292778  -0.0503109 -0.241149 0.000355959  -0.0520952 -0.265447 0.000224829  -0.0442517 -0.265927 0.000174999  -0.0436234 -0.257793 0.00022912  -0.052141 -0.265464 0.000205517  -0.0514967 -0.257342 0.00027585  -0.0436692 -0.257833 0.000208616  -0.0515504 -0.257378 0.000249386  -0.0532348 -0.281551 0.000144243  -0.0453703 -0.282033 0.000118732  -0.0447829 -0.273969 0.000155926  -0.0532689 -0.281555 0.000137568  -0.0526731 -0.273501 0.000182867  -0.0448184 -0.273992 0.000145674  -0.0527127 -0.273521 0.000169754  -0.0543101 -0.297539 7.9155e-05  -0.0464368 -0.298021 7.29561e-05  -0.0458803 -0.29003 9.75132e-05  -0.0543389 -0.297537 8.27312e-05  -0.0537786 -0.289548 0.000112772  -0.0459092 -0.290041 9.60827e-05  -0.0538101 -0.289559 0.000109911  -0.0553432 -0.31341 1.19209e-05  -0.0474727 -0.313873 2.43187e-05  -0.0469258 -0.30596 4.36306e-05  -0.0553758 -0.313405 2.86102e-05  -0.0548272 -0.305477 5.14984e-05  -0.0469558 -0.305964 5.14984e-05  -0.0548587 -0.305483 5.84126e-05  -0.00193143 -0.000323355 0.00323677  0 0 0  -0.000888586 -0.00090456 0.00173092  -0.000555754 0.000495195 0.00143218  0 0 0  -0.00143524 -0.00112379 0.00261545  -0.000874683 0.000378549 0.00216389  0 0 0  -0.000304069 -5.55813e-05 0.00101495  -0.000486821 -0.000174671 0.00153089  -0.00378469 -0.00420544 0.00400209  -0.00222151 -0.00497884 0.00235963  -0.00177608 -0.00162187 0.00246191  -0.00357458 -0.0053167 0.00354171  -0.00285882 -0.00191626 0.00371194  -0.00154164 -0.00262752 0.00212812  -0.00248888 -0.00292516 0.00320005  -0.00575256 -0.0103777 0.00412941  -0.0036442 -0.0112531 0.00245547  -0.00295395 -0.00669098 0.00273204  -0.00578335 -0.0115878 0.00368404  -0.00474808 -0.00703385 0.00411367  -0.00292465 -0.00787842 0.00244331  -0.00467741 -0.00822493 0.00366378  -0.00781187 -0.0183317 0.0039618  -0.00510299 -0.0192431 0.00235128  -0.00427708 -0.0138336 0.00269818  -0.00796926 -0.019524 0.00353146  -0.00677693 -0.0141407 0.00406694  -0.00437137 -0.0150508 0.00241923  -0.00688142 -0.0153616 0.0036304  -0.00989556 -0.0277793 0.00367022  -0.00657833 -0.0286803 0.00216675  -0.00567937 -0.0226239 0.00253606  -0.010115 -0.0288984 0.0032599  -0.00885212 -0.0228723 0.00382566  -0.00583851 -0.0237921 0.00226593  -0.00904673 -0.0240426 0.00340533  -0.0119779 -0.0384948 0.00332618  -0.00807065 -0.0393601 0.00195098  -0.00713277 -0.0327906 0.00231838  -0.0122226 -0.0395159 0.00294256  -0.0109376 -0.0329788 0.00350118  -0.00732201 -0.0338731 0.00206161  -0.0111734 -0.0340607 0.00310445  -0.0140411 -0.0502989 0.0029707  -0.00957805 -0.0511205 0.0017333  -0.00862449 -0.0441315 0.00208092  -0.0142891 -0.0512141 0.00262022  -0.0130125 -0.0442596 0.00314784  -0.00882268 -0.045113 0.00184226  -0.0132613 -0.0452383 0.00278091  -0.0160666 -0.0630293 0.00262308  -0.0110927 -0.0638079 0.00152254  -0.0101393 -0.0564774 0.00184345  -0.0163064 -0.0638397 0.00230789  -0.0150588 -0.0565449 0.0027945  -0.010335 -0.0573542 0.00162697  -0.0153042 -0.0574175 0.00246191  -0.0180416 -0.076556 0.0022943  -0.012606 -0.0772957 0.00132656  -0.0116639 -0.0696829 0.00161624  -0.0182667 -0.0772657 0.00201535  -0.01706 -0.0696897 0.00245595  -0.0118498 -0.0704576 0.00142312  -0.0172939 -0.0704589 0.00215912  -0.0199559 -0.0907539 0.00198841  -0.0141088 -0.091459 0.00114512  -0.0131866 -0.0836199 0.00140357  -0.0201633 -0.0913692 0.00174403  -0.0190057 -0.0835659 0.00213814  -0.0133588 -0.0842972 0.00123358  -0.0192231 -0.0842376 0.00187683  -0.0218031 -0.10552 0.00170684  -0.0155942 -0.106195 0.000979185  -0.0146962 -0.0981732 0.00120783  -0.0219917 -0.106047 0.00149655  -0.020887 -0.0980608 0.00184464  -0.014854 -0.0987596 0.00106049  -0.0210861 -0.0986411 0.00161767  -0.0235792 -0.12075 0.0014503  -0.0170548 -0.121398 0.000831127  -0.0161865 -0.113239 0.00102901  -0.0237479 -0.121197 0.00127077  -0.0226991 -0.113071 0.00157523  -0.0163279 -0.113741 0.000903368  -0.0228786 -0.113567 0.00138068  -0.0252818 -0.13636 0.00121808  -0.0184863 -0.136984 0.000697136  -0.0176482 -0.128721 0.00086832  -0.0254314 -0.136733 0.00106788  -0.0244385 -0.128502 0.00133109  -0.0177741 -0.129146 0.000762224  -0.0245987 -0.128921 0.00116658  -0.0269101 -0.152262 0.00100875  -0.0198835 -0.152863 0.000577211  -0.0190792 -0.144534 0.000723124  -0.0270412 -0.152569 0.000884533  -0.0261039 -0.144268 0.00111032  -0.019189 -0.144889 0.000635624  -0.0262454 -0.144617 0.000973463  -0.0284649 -0.168386 0.000822544  -0.0212451 -0.168966 0.000473022  -0.0204737 -0.160598 0.000594854  -0.0285784 -0.168633 0.000722408  -0.0276955 -0.160289 0.000912905  -0.020569 -0.160889 0.000523329  -0.0278186 -0.160575 0.000800848  -0.0299467 -0.184657 0.000657797  -0.0225664 -0.185218 0.000380516  -0.0218298 -0.17684 0.000481606  -0.0300429 -0.18485 0.00057888  -0.0292137 -0.176495 0.000737667  -0.0219105 -0.177075 0.0004251  -0.0293193 -0.176724 0.00064826  -0.0313585 -0.201019 0.000516176  -0.0238478 -0.201562 0.0003016  -0.0231447 -0.193196 0.000383377  -0.0314384 -0.201166 0.000455379  -0.0306599 -0.192819 0.000584364  -0.0232122 -0.19338 0.000339746  -0.0307488 -0.192998 0.000514984  -0.0327024 -0.217412 0.000394821  -0.0250876 -0.21794 0.000235081  -0.0244169 -0.209607 0.000299215  -0.0327675 -0.217519 0.000350237  -0.0320375 -0.209202 0.000452995  -0.0244725 -0.209747 0.00026679  -0.0321109 -0.209339 0.000400543  -0.0339832 -0.233795 0.000295877  -0.0262873 -0.234309 0.000181437  -0.0256486 -0.226023 0.000230551  -0.0340345 -0.233869 0.000264406  -0.0333493 -0.225596 0.000343084  -0.0256922 -0.226126 0.000207424  -0.0334082 -0.225695 0.000305176  -0.0352037 -0.250122 0.00021553  -0.0274467 -0.250626 0.000139236  -0.0268388 -0.242401 0.000174284  -0.0352426 -0.250169 0.000195026  -0.0345995 -0.241956 0.000253439  -0.0268714 -0.242474 0.000159025  -0.0346453 -0.242025 0.00022769  -0.0363679 -0.266368 0.000154257  -0.0285671 -0.266863 0.000108004  -0.0279868 -0.258708 0.000132084  -0.0363963 -0.266393 0.000142574  -0.0357914 -0.258246 0.000183105  -0.0280116 -0.258754 0.000122786  -0.0358257 -0.258291 0.000167131  -0.037477 -0.282502 0.000106096  -0.029649 -0.28299 8.39233e-05  -0.0290942 -0.274912 9.94205e-05  -0.0374992 -0.28251 0.000101805  -0.0369284 -0.274438 0.000129223  -0.0291126 -0.274939 9.53674e-05  -0.0369534 -0.274464 0.000121355  -0.0385373 -0.298508 6.38962e-05  -0.0306959 -0.298989 6.31809e-05  -0.0301623 -0.290995 7.36713e-05  -0.0385573 -0.298504 6.74725e-05  -0.0380118 -0.290511 8.58307e-05  -0.0301762 -0.291005 7.43866e-05  -0.038033 -0.290522 8.4877e-05  -0.0395603 -0.314351 1.33514e-05  -0.0317175 -0.314811 3.88622e-05  -0.0311937 -0.306926 4.74453e-05  -0.0395863 -0.31434 2.83718e-05  -0.0390506 -0.306442 4.29153e-05  -0.0312083 -0.306923 5.29289e-05  -0.0390735 -0.306443 4.98295e-05  -0.000525981 -1.91331e-05 0.00101113  0 0 0  0.000112697 -0.000829339 -6.27041e-05  5.05298e-05 0.000522137 -6.84261e-05  0 0 0  -0.000378527 -0.000812739 0.000832319  -0.000247259 0.000539035 0.000677347  0 0 0  3.67835e-05 -2.16961e-05 -4.19617e-05  -0.000129439 -9.65595e-06 0.00048542  -0.000998035 -0.00372371 0.00128412  0.000270814 -0.00485444 -4.57764e-05  0.00022617 -0.00152078 -8.55923e-05  -0.00095582 -0.00482929 0.00115609  -0.000758931 -0.00149518 0.00118327  0.000195324 -0.00251806 -5.43594e-05  -0.00065802 -0.00249815 0.00103569  -0.00155914 -0.00990254 0.00133896  0.000370651 -0.0111498 -2.57492e-05  0.000383079 -0.0065777 -6.34193e-05  -0.00161153 -0.0111071 0.00121403  -0.0012624 -0.00653982 0.00133038  0.000331372 -0.0077585 -3.33786e-05  -0.00127357 -0.00772539 0.00120378  -0.00223446 -0.0179459 0.00128865  0.000368357 -0.0192039 -1.90735e-05  0.000457525 -0.0137656 -4.74453e-05  -0.00234047 -0.019135 0.00116563  -0.00188363 -0.0137067 0.00132322  0.000384092 -0.0149783 -2.00272e-05  -0.00196722 -0.0149227 0.00119877  -0.00300729 -0.0274979 0.00119114  0.000242889 -0.0287145 -2.21729e-05  0.000410438 -0.0226229 -4.26769e-05  -0.00314111 -0.0286176 0.00107098  -0.00260866 -0.0225388 0.00124502  0.000321805 -0.0237902 -1.90735e-05  -0.0027315 -0.0237072 0.00112271  -0.00387031 -0.0383178 0.00107384  -1.2219e-05 -0.0394716 -3.14713e-05  0.000228286 -0.0328609 -4.62532e-05  -0.00401533 -0.039344 0.000959635  -0.00342721 -0.0327498 0.00113463  0.000131607 -0.0339465 -2.59876e-05  -0.00356889 -0.0338343 0.00101709  -0.0048148 -0.0502272 0.000950813  -0.000394166 -0.0513107 -4.19617e-05  -9.01222e-05 -0.0442762 -5.43594e-05  -0.00496048 -0.0511514 0.000845671  -0.00433278 -0.0441356 0.00101233  -0.000187635 -0.0452641 -3.67165e-05  -0.00447923 -0.0451208 0.000902653  -0.00582874 -0.0630653 0.000831604  -0.00089407 -0.0640807 -4.98295e-05  -0.000535011 -0.0567 -6.17504e-05  -0.00596863 -0.0638867 0.000736952  -0.0053131 -0.0565274 0.00089097  -0.000629902 -0.0575862 -4.60148e-05  -0.0054571 -0.0574096 0.000790834  -0.00689983 -0.0767004 0.00071907  -0.00150156 -0.0776511 -5.65052e-05  -0.00109637 -0.0699867 -6.77109e-05  -0.00703013 -0.0774226 0.000635147  -0.00635695 -0.0697798 0.000774384  -0.00118506 -0.0707723 -5.34058e-05  -0.00649321 -0.070561 0.000685215  -0.00801528 -0.0910048 0.00061655  -0.0022037 -0.0918975 -5.76973e-05  -0.0017606 -0.0840058 -7.12872e-05  -0.00813401 -0.0916335 0.000544071  -0.00745142 -0.0837641 0.00066638  -0.00184143 -0.0846951 -5.79357e-05  -0.0075773 -0.0844486 0.000588417  -0.00916421 -0.105874 0.000523806  -0.00298822 -0.106712 -5.74589e-05  -0.00251424 -0.0986403 -7.10487e-05  -0.00927067 -0.106414 0.000461578  -0.00858533 -0.0983642 0.000569344  -0.00258636 -0.099239 -5.84126e-05  -0.00869858 -0.0989577 0.00050211  -0.0103358 -0.121201 0.000441074  -0.00384235 -0.121991 -5.4121e-05  -0.00334418 -0.113783 -6.84261e-05  -0.0104296 -0.121661 0.000389338  -0.00974643 -0.113474 0.000481606  -0.00340712 -0.114298 -5.62668e-05  -0.00984764 -0.113983 0.000424623  -0.0115218 -0.136899 0.000368118  -0.00475383 -0.137646 -4.76837e-05  -0.00423777 -0.129338 -6.29425e-05  -0.0116028 -0.137286 0.000325203  -0.0109265 -0.128998 0.000403881  -0.00429142 -0.129776 -5.14984e-05  -0.0110147 -0.12943 0.000356436  -0.012713 -0.152882 0.000303984  -0.00571167 -0.153588 -4.05312e-05  -0.00518322 -0.145217 -5.57899e-05  -0.0127825 -0.153201 0.000269413  -0.0121157 -0.144848 0.000335693  -0.00522733 -0.145584 -4.48227e-05  -0.0121921 -0.14521 0.000296831  -0.0139039 -0.169077 0.000248194  -0.00670588 -0.169745 -3.19481e-05  -0.00616884 -0.16134 -4.673e-05  -0.0139617 -0.169335 0.000220776  -0.013308 -0.160946 0.000275373  -0.00620484 -0.161642 -3.67165e-05  -0.0133722 -0.161244 0.000244617  -0.0150868 -0.185409 0.000200987  -0.00772619 -0.186044 -2.24113e-05  -0.00718474 -0.177634 -3.62396e-05  -0.0151345 -0.185614 0.000180483  -0.0144953 -0.177218 0.000224352  -0.00721323 -0.177879 -2.71797e-05  -0.014549 -0.177458 0.000200272  -0.016258 -0.201824 0.000161409  -0.00876427 -0.202427 -1.0252e-05  -0.00822234 -0.194034 -2.43187e-05  -0.0162957 -0.201981 0.000145912  -0.0156732 -0.193599 0.000180721  -0.00824356 -0.194227 -1.62125e-05  -0.0157166 -0.193789 0.00016284  -0.0174124 -0.218262 0.0001297  -0.00981188 -0.218839 7.15256e-07  -0.0092721 -0.210482 -1.21593e-05  -0.0174408 -0.218378 0.000119209  -0.0168362 -0.210032 0.00014472  -0.00928712 -0.210631 -5.00679e-06  -0.0168703 -0.210177 0.000131845  -0.0185475 -0.234681 0.000104904  -0.010864 -0.235234 1.35899e-05  -0.0103285 -0.226929 9.53674e-07  -0.0185683 -0.234763 9.799e-05  -0.0179813 -0.226465 0.000117064  -0.0103376 -0.22704 7.15256e-06  -0.0180068 -0.226573 0.000108004  -0.01966 -0.25104 8.70228e-05  -0.0119133 -0.251573 2.5034e-05  -0.0113838 -0.243332 1.38283e-05  -0.0196738 -0.251093 8.32081e-05  -0.0191052 -0.242859 9.53674e-05  -0.011389 -0.243411 1.93119e-05  -0.0191236 -0.242935 9.01222e-05  -0.0207484 -0.267311 7.43866e-05  -0.0129569 -0.267825 3.8147e-05  -0.012434 -0.259658 2.76566e-05  -0.020757 -0.26734 7.31945e-05  -0.0202062 -0.259176 8.05855e-05  -0.0124362 -0.25971 3.14713e-05  -0.0202181 -0.259227 7.79629e-05  -0.0218103 -0.283463 6.65188e-05  -0.0139899 -0.283964 4.98295e-05  -0.0134749 -0.275878 4.1008e-05  -0.0218155 -0.283474 6.7234e-05  -0.0212815 -0.275391 7.05719e-05  -0.0134749 -0.275909 4.43459e-05  -0.0212889 -0.27542 7.00951e-05  -0.0228469 -0.29948 5.93662e-05  -0.0150115 -0.299966 6.22272e-05  -0.0145051 -0.29197 5.43594e-05  -0.0228498 -0.299475 6.19888e-05  -0.022331 -0.29148 6.38962e-05  -0.0145023 -0.291983 5.60284e-05  -0.0223355 -0.291492 6.50883e-05  -0.0238569 -0.315302 4.79221e-05  -0.0160131 -0.315778 7.41482e-05  -0.0155196 -0.3079 6.65188e-05  -0.0238607 -0.315289 5.45979e-05  -0.0233533 -0.30741 5.60284e-05  -0.0155151 -0.307898 6.79493e-05  -0.0233576 -0.307408 5.93662e-05  0.000793785 -0.000173509 -0.00120473  0 0 0  0.00111002 -0.00118166 -0.00183749  0.000640482 0.000313222 -0.00155807  0 0 0  0.000603601 -0.000951588 -0.000952959  0.000344351 0.000448704 -0.000811577  0 0 0  0.000374876 -0.000214994 -0.00109386  0.00020238 -8.90493e-05 -0.00056839  0.00161543 -0.00396007 -0.00143528  0.00275403 -0.00542057 -0.00241899  0.00221163 -0.00202304 -0.00260329  0.00149548 -0.00505072 -0.00124049  0.00120719 -0.00169569 -0.00134802  0.00192648 -0.0029974 -0.00221038  0.00104789 -0.00268358 -0.00113845  0.00242087 -0.0101875 -0.00144744  0.00436744 -0.0117983 -0.00247908  0.00370398 -0.00721657 -0.00282454  0.00234845 -0.0113806 -0.00126004  0.00202373 -0.00680315 -0.00145245  0.00357422 -0.00837576 -0.00247836  0.0019334 -0.0079751 -0.0012641  0.00312686 -0.0182667 -0.00137711  0.00581187 -0.0198709 -0.0023694  0.00517142 -0.0144396 -0.00276589  0.00307018 -0.0194495 -0.0012002  0.00279257 -0.0140101 -0.00141549  0.00511676 -0.0156381 -0.00243449  0.0027298 -0.0152172 -0.00123477  0.0036689 -0.0278547 -0.00127983  0.00702745 -0.0293907 -0.0021975  0.00647169 -0.0233008 -0.00260401  0.00361729 -0.0289726 -0.00111389  0.00342071 -0.0228769 -0.00132966  0.00644976 -0.0244607 -0.00228786  0.00336677 -0.0240418 -0.00115824  0.00402868 -0.038715 -0.00117517  0.00800323 -0.0401616 -0.00200701  0.00755346 -0.0335445 -0.00240016  0.00397962 -0.0397437 -0.0010221  0.00387222 -0.0331258 -0.00122786  0.00754535 -0.0346279 -0.00210404  0.00382173 -0.0342112 -0.00106835  0.004206 -0.0506721 -0.00106835  0.00874275 -0.0520238 -0.00181341  0.00840294 -0.0449751 -0.00218368  0.00415999 -0.0516014 -0.000929117  0.00414056 -0.0445557 -0.001122  0.00840223 -0.0459641 -0.00191069  0.00409222 -0.0455451 -0.000975609  0.00420916 -0.063563 -0.000962973  0.00925565 -0.064822 -0.00162292  0.00902402 -0.0574225 -0.00196552  0.00416768 -0.0643919 -0.000837564  0.00422931 -0.0569978 -0.00101638  0.009027 -0.058312 -0.00171757  0.0041849 -0.0578867 -0.000883579  0.00405061 -0.0772545 -0.000860453  0.00955427 -0.0784256 -0.00143886  0.00942385 -0.0707387 -0.00175261  0.00401425 -0.077985 -0.000748158  0.00415051 -0.0703055 -0.000912189  0.009431 -0.071529 -0.00153017  0.00411034 -0.0710946 -0.00079298  0.00374484 -0.0916164 -0.000761032  0.009655 -0.0927057 -0.00126219  0.00961888 -0.0847909 -0.00154734  0.00371444 -0.0922541 -0.000661612  0.00391626 -0.0843473 -0.0008111  0.00962877 -0.0854856 -0.00134993  0.00388193 -0.0850401 -0.000704765  0.0033071 -0.106542 -0.000664949  0.00957417 -0.107555 -0.00109696  0.009624 -0.0994592 -0.00135255  0.00328243 -0.107092 -0.000577927  0.00354254 -0.0990042 -0.000712872  0.00963616 -0.100064 -0.00117898  0.00351429 -0.099607 -0.000619173  0.00275326 -0.121922 -0.00057435  0.00933123 -0.122866 -0.000941277  0.00945687 -0.114636 -0.00116897  0.00273478 -0.122392 -0.000498533  0.00304484 -0.11417 -0.000619888  0.00947225 -0.115156 -0.00101829  0.00302243 -0.114688 -0.000537872  0.00209808 -0.137671 -0.000487804  0.00894356 -0.138551 -0.000797033  0.00913548 -0.130223 -0.000997305  0.0020858 -0.138067 -0.000422478  0.00243843 -0.129746 -0.000531435  0.00915468 -0.130666 -0.000867844  0.00242221 -0.130187 -0.000460386  0.0013572 -0.153699 -0.000407457  0.00842988 -0.154518 -0.000662088  0.00868058 -0.14613 -0.000837803  0.00135052 -0.154026 -0.000352144  0.00173855 -0.145643 -0.00044775  0.00870168 -0.146502 -0.00072813  0.00172818 -0.146014 -0.000387192  0.000543714 -0.169933 -0.00033164  0.00780606 -0.170698 -0.000538349  0.0081073 -0.162277 -0.000690222  0.000542283 -0.170198 -0.000285387  0.000959635 -0.161783 -0.000369549  0.00813091 -0.162584 -0.000598907  0.000954986 -0.162089 -0.000318527  -0.00032711 -0.186299 -0.000262022  0.00709105 -0.187015 -0.000425339  0.00743461 -0.178592 -0.000555992  -0.000324726 -0.18651 -0.000224113  0.000115752 -0.178091 -0.00029707  0.00745916 -0.178841 -0.00048089  0.000115633 -0.178339 -0.000254631  -0.00124454 -0.202742 -0.000197887  0.00629973 -0.203413 -0.000323296  0.00667882 -0.195009 -0.000433207  -0.00123835 -0.202904 -0.000167131  -0.00077939 -0.194503 -0.000229836  0.00670409 -0.195205 -0.000373363  -0.000776291 -0.194699 -0.000195265  -0.00219655 -0.219202 -0.000140905  0.00544739 -0.219834 -0.000233889  0.00585532 -0.21147 -0.000324726  -0.00218797 -0.219323 -0.000117064  -0.00171542 -0.210961 -0.000169277  0.00588107 -0.211621 -0.000277758  -0.00170922 -0.211112 -0.000141859  -0.00317407 -0.235639 -8.98838e-05  0.00454617 -0.236237 -0.000156641  0.00497746 -0.227926 -0.000229597  -0.00316358 -0.235725 -7.15256e-05  -0.00268149 -0.227415 -0.000115156  0.00500226 -0.228038 -0.000194073  -0.00267267 -0.227527 -9.39369e-05  -0.00416756 -0.252011 -4.52995e-05  0.00360942 -0.252577 -8.89301e-05  0.0040586 -0.244334 -0.00014782  -0.00415611 -0.252067 -3.26633e-05  -0.00366807 -0.243824 -6.74725e-05  0.0040822 -0.244414 -0.000121593  -0.00365782 -0.243904 -5.14984e-05  -0.00517178 -0.26829 -5.96046e-06  0.00264454 -0.268831 -3.31402e-05  0.00310874 -0.260661 -7.72476e-05  -0.00515962 -0.268322 3.09944e-06  -0.00466776 -0.260152 -2.52724e-05  0.0031302 -0.260715 -6.00815e-05  -0.00465679 -0.260206 -1.43051e-05  -0.00618076 -0.284448 2.86102e-05  0.00166178 -0.284966 1.5974e-05  0.00213528 -0.27688 -1.83582e-05  -0.00616765 -0.284461 3.29018e-05  -0.0056746 -0.276374 1.14441e-05  0.00215507 -0.276912 -7.62939e-06  -0.00566292 -0.276406 1.83582e-05  -0.00719047 -0.300466 6.19888e-05  0.000667572 -0.300967 6.07967e-05  0.00114489 -0.292968 3.43323e-05  -0.00717497 -0.300463 6.22272e-05  -0.00668478 -0.292465 4.41074e-05  0.00116563 -0.292983 3.76701e-05  -0.00667167 -0.29248 4.69685e-05  -0.00818634 -0.316288 9.75132e-05  -0.000317335 -0.316789 0.000107527  0.000148058 -0.308899 8.63075e-05  -0.00816774 -0.316278 9.17912e-05  -0.00769043 -0.308396 7.7486e-05  0.000172377 -0.308901 8.29697e-05  -0.00767398 -0.308396 7.60555e-05  0.00216232 -0.000786066 -0.00338483  0 0 0  0.00225316 -0.00204545 -0.00354338  0.00126161 -0.000205159 -0.00300694  0 0 0  0.00165221 -0.0015378 -0.00269771  0.000940494 0.000103712 -0.00227356  0 0 0  0.000763498 -0.000710011 -0.0021069  0.000555165 -0.000414371 -0.00160027  0.00436831 -0.00491041 -0.00408435  0.00554982 -0.00673056 -0.00467205  0.00442286 -0.00319427 -0.00502491  0.0040938 -0.00597465 -0.00356174  0.00327219 -0.00251532 -0.00381589  0.00389829 -0.00414234 -0.00426364  0.00286569 -0.00347602 -0.00324726  0.00657544 -0.0112273 -0.00417519  0.00872758 -0.013188 -0.00483656  0.0073792 -0.00861096 -0.00548315  0.00648066 -0.012401 -0.00367188  0.0054751 -0.00781786 -0.0041678  0.00717133 -0.00975066 -0.00481391  0.00530794 -0.00896591 -0.00366068  0.00865221 -0.0192915 -0.00400448  0.0115955 -0.0212231 -0.00466037  0.0102459 -0.0158261 -0.00541782  0.00863957 -0.0204638 -0.00352407  0.00764123 -0.015047 -0.00410509  0.0102041 -0.0170141 -0.00477409  0.00759438 -0.016239 -0.00361586  0.0104892 -0.0288518 -0.0037291  0.0141229 -0.0306934 -0.00433969  0.0128649 -0.0246328 -0.00512505  0.010515 -0.0299653 -0.00327563  0.0096041 -0.0238874 -0.00387406  0.0129021 -0.025788 -0.00451112  0.00961381 -0.0250446 -0.00340724  0.0120558 -0.0396949 -0.00341058  0.0163069 -0.0414271 -0.00396323  0.0151833 -0.0348297 -0.00473046  0.0120983 -0.040723 -0.00298977  0.0113081 -0.034113 -0.00357223  0.0152579 -0.0359114 -0.0041554  0.0113433 -0.0351958 -0.00313497  0.013342 -0.0516457 -0.00307989  0.0181494 -0.0532615 -0.00357127  0.0171797 -0.0462258 -0.00429678  0.0133924 -0.0525768 -0.0026958  0.0127345 -0.0455315 -0.00324512  0.0172706 -0.0472153 -0.00376749  0.0127813 -0.0465215 -0.00284243  0.0143526 -0.0645393 -0.00275278  0.0196584 -0.0660409 -0.0031848  0.018848 -0.0586488 -0.00385618  0.0144061 -0.0653712 -0.0024066  0.0138822 -0.0579721 -0.00291514  0.0189448 -0.0595403 -0.00337672  0.0139337 -0.0588635 -0.00254989  0.015098 -0.0782382 -0.00243664  0.0208479 -0.0796295 -0.00281262  0.0201943 -0.0719478 -0.00342607  0.0151529 -0.0789732 -0.0021286  0.0147582 -0.0712855 -0.00259328  0.0202923 -0.0727408 -0.00299692  0.0148121 -0.0720779 -0.00226593  0.0155947 -0.0926111 -0.00213599  0.0217365 -0.0938985 -0.00246072  0.0212319 -0.0859863 -0.0030148  0.0156506 -0.0932534 -0.00186396  0.0153775 -0.0853364 -0.00228453  0.0213287 -0.0866846 -0.00263476  0.015432 -0.0860338 -0.00199437  0.0158615 -0.107548 -0.00185275  0.0223449 -0.108737 -0.00213003  0.0219796 -0.100643 -0.0026257  0.0159178 -0.108103 -0.00161624  0.0157566 -0.100005 -0.00199223  0.0220742 -0.101252 -0.00229335  0.015812 -0.100612 -0.00173783  0.0159196 -0.12294 -0.00158763  0.0226977 -0.124039 -0.00182319  0.02246 -0.11581 -0.00226188  0.0159755 -0.123415 -0.00138402  0.0159169 -0.115182 -0.00171804  0.0225518 -0.116335 -0.00197434  0.0159717 -0.115705 -0.00149775  0.0157892 -0.1387 -0.00134301  0.0228187 -0.139713 -0.00153852  0.022697 -0.131387 -0.0019238  0.0158452 -0.139099 -0.00116992  0.0158776 -0.130769 -0.00146389  0.0227859 -0.131834 -0.00167823  0.0159327 -0.131215 -0.00127482  0.0154935 -0.154735 -0.00111699  0.0227337 -0.15567 -0.00127673  0.0227151 -0.147284 -0.00161219  0.0155487 -0.155066 -0.000971317  0.015662 -0.146676 -0.00122809  0.0228008 -0.147659 -0.00140548  0.0157164 -0.14705 -0.00106835  0.0150523 -0.170974 -0.000910044  0.0224663 -0.171837 -0.00103784  0.0225395 -0.163421 -0.00132632  0.0151063 -0.171244 -0.000790119  0.0152906 -0.162822 -0.00101089  0.0226213 -0.16373 -0.00115466  0.0153447 -0.163132 -0.000878334  0.014487 -0.187344 -0.00072217  0.0220413 -0.188141 -0.000822544  0.0221947 -0.179724 -0.00106668  0.0145392 -0.187558 -0.000625372  0.0147851 -0.179135 -0.000814199  0.0222722 -0.179974 -0.000927448  0.0148374 -0.179386 -0.000705719  0.0138171 -0.203788 -0.000555992  0.021481 -0.204525 -0.000630856  0.0217049 -0.196127 -0.000834465  0.0138671 -0.203953 -0.00047946  0.0141649 -0.195549 -0.000637293  0.0217767 -0.196325 -0.0007236  0.0142152 -0.195748 -0.00055027  0.0130615 -0.220247 -0.000408411  0.0208085 -0.220932 -0.000462294  0.0210927 -0.212575 -0.000629187  0.0131078 -0.22037 -0.00034976  0.0134506 -0.212007 -0.000479698  0.021158 -0.212727 -0.000543594  0.0134974 -0.21216 -0.000412226  0.0122356 -0.236682 -0.000282526  0.0200429 -0.237319 -0.000319242  0.0203779 -0.229017 -0.000451088  0.0122774 -0.236768 -0.000239611  0.0126576 -0.228459 -0.000343323  0.0204363 -0.229129 -0.000387907  0.0127008 -0.228572 -0.00029254  0.0113544 -0.253047 -0.000175714  0.0192034 -0.253644 -0.000198603  0.0195794 -0.24541 -0.000300884  0.0113919 -0.253103 -0.000145435  0.0118024 -0.244863 -0.000226736  0.0196316 -0.245489 -0.0002563  0.0118411 -0.244943 -0.000190496  0.0104303 -0.269317 -8.74996e-05  0.0183055 -0.26988 -0.000100851  0.0187171 -0.261721 -0.00017643  0.0104637 -0.26935 -6.81877e-05  0.0108984 -0.261184 -0.000128984  0.0187609 -0.261773 -0.000147343  0.0109327 -0.261238 -0.000104904  0.00947261 -0.285464 -1.12057e-05  0.0173647 -0.285999 -1.95503e-05  0.0178022 -0.277921 -7.48634e-05  0.00950313 -0.285479 -1.90735e-06  0.00995636 -0.277395 -4.74453e-05  0.0178399 -0.277954 -5.84126e-05  0.00998735 -0.277428 -3.3617e-05  0.00848913 -0.301474 5.74589e-05  0.0163922 -0.301991 5.126e-05  0.0168459 -0.293991 1.04904e-05  0.00852084 -0.301476 5.6982e-05  0.00898457 -0.293476 2.26498e-05  0.0168815 -0.29401 1.5974e-05  0.00901389 -0.293494 2.76566e-05  0.00750232 -0.317313 0.000132561  0.0154154 -0.317841 0.000123024  0.0158646 -0.309921 9.08375e-05  0.0075407 -0.317311 0.000118256  0.00799561 -0.309406 9.13143e-05  0.0159016 -0.309933 8.51154e-05  0.00802851 -0.309414 8.60691e-05  0.00376876 -0.00203091 -0.00546789  0 0 0  0.00379457 -0.00380671 -0.00507021  0.002001 -0.00130367 -0.00436759  0 0 0  0.00296015 -0.00277025 -0.00432587  0.00159801 -0.000657678 -0.00365019  0 0 0  0.00129169 -0.00179452 -0.00302052  0.000987403 -0.00114989 -0.00255704  0.00762665 -0.00664449 -0.00659037  0.00909421 -0.00889844 -0.00674462  0.00726685 -0.0052228 -0.00725961  0.00720575 -0.00770497 -0.00572777  0.00574161 -0.00408405 -0.00614357  0.00651948 -0.00621068 -0.00612998  0.00510427 -0.0050348 -0.00520587  0.0112801 -0.0129787 -0.00680327  0.0138082 -0.0152772 -0.00708866  0.0117934 -0.0107129 -0.00803232  0.0111595 -0.0141518 -0.00597239  0.00947511 -0.00958389 -0.00677252  0.0115158 -0.0118881 -0.00701213  0.00923175 -0.0107287 -0.00592685  0.0146946 -0.0209702 -0.00657606  0.0180523 -0.0232131 -0.00689244  0.0160159 -0.017845 -0.00801516  0.0147198 -0.022142 -0.00578332  0.0130243 -0.0167642 -0.00672483  0.0159846 -0.0190528 -0.00703669  0.0129884 -0.0179557 -0.00591373  0.0177947 -0.0304593 -0.00614333  0.0218611 -0.0325967 -0.00644469  0.0199202 -0.0265692 -0.00761414  0.0178904 -0.0315722 -0.00539684  0.0162878 -0.0255293 -0.00637579  0.0200113 -0.0277324 -0.00668907  0.016354 -0.026686 -0.00560594  0.0205408 -0.0412443 -0.00562143  0.0252282 -0.0432541 -0.00589132  0.0234509 -0.0366914 -0.00703526  0.0206686 -0.0422714 -0.00493169  0.0192145 -0.0356901 -0.0058887  0.0236006 -0.0377746 -0.00617528  0.019329 -0.0367721 -0.00517011  0.0229126 -0.0531467 -0.0050714  0.028148 -0.0550218 -0.00530601  0.0265704 -0.0480198 -0.00638723  0.023053 -0.054077 -0.00444245  0.0217747 -0.0470555 -0.00534773  0.0267442 -0.0490074 -0.00559998  0.0219098 -0.0480446 -0.00468802  0.0249071 -0.0659983 -0.00452495  0.0306261 -0.0677374 -0.00472736  0.0292605 -0.0603796 -0.00572586  0.0250506 -0.0668297 -0.00396037  0.0239577 -0.0594516 -0.00479698  0.0294418 -0.0612675 -0.00501513  0.0240998 -0.060342 -0.00419998  0.0265331 -0.0796598 -0.00399709  0.0326756 -0.0812677 -0.00417066  0.0315222 -0.0736175 -0.00508022  0.0266749 -0.0803948 -0.00349522  0.0257665 -0.0727251 -0.00425911  0.0317032 -0.0744071 -0.00444627  0.0259085 -0.0735175 -0.00372529  0.0278088 -0.0939979 -0.00349665  0.0343196 -0.0954797 -0.00364447  0.0333713 -0.0875988 -0.00446343  0.0279465 -0.0946408 -0.00305581  0.0272146 -0.0867401 -0.00374508  0.0335472 -0.0882933 -0.0039041  0.0273536 -0.087438 -0.00327301  0.0287552 -0.108903 -0.00302625  0.0355841 -0.110265 -0.00315046  0.0348289 -0.102201 -0.00388241  0.0288879 -0.109459 -0.00264335  0.0283229 -0.101375 -0.00325918  0.0349978 -0.102805 -0.00339389  0.028457 -0.101983 -0.00284696  0.0293999 -0.124265 -0.00258899  0.0364987 -0.125514 -0.00269175  0.0359224 -0.117314 -0.00333881  0.0295272 -0.124739 -0.00226021  0.029115 -0.116521 -0.00280595  0.0360833 -0.117835 -0.002918  0.0292438 -0.117045 -0.00244927  0.0297699 -0.139993 -0.00218463  0.0370948 -0.141137 -0.00226712  0.0366818 -0.132839 -0.00283408  0.0298915 -0.140393 -0.00190568  0.0296186 -0.132077 -0.00238419  0.0368351 -0.133282 -0.00247574  0.0297421 -0.132523 -0.00207996  0.0298939 -0.155999 -0.00181293  0.0374044 -0.157044 -0.00187802  0.0371395 -0.148687 -0.00236988  0.030009 -0.15633 -0.00158095  0.0298623 -0.147954 -0.00199604  0.037284 -0.149058 -0.002069  0.0299796 -0.148329 -0.00173998  0.0297998 -0.172209 -0.0014739  0.0374581 -0.173164 -0.00152516  0.0373263 -0.164775 -0.00194573  0.0299077 -0.172478 -0.00128365  0.0298735 -0.164072 -0.00164104  0.0374614 -0.16508 -0.00169802  0.0299842 -0.16438 -0.00142956  0.0295157 -0.18855 -0.0011692  0.0372877 -0.189422 -0.00120664  0.0372738 -0.181031 -0.00156188  0.0296164 -0.188763 -0.00101709  0.0296811 -0.180356 -0.00131917  0.0373994 -0.181277 -0.00136185  0.0297844 -0.180605 -0.00114751  0.0290678 -0.204966 -0.000898838  0.0369234 -0.205762 -0.000923634  0.0370138 -0.197391 -0.00121808  0.02916 -0.205129 -0.000779629  0.0293117 -0.196742 -0.0010314  0.0371282 -0.197583 -0.0010612  0.0294073 -0.196938 -0.000895262  0.0284824 -0.221398 -0.000662804  0.0363946 -0.222127 -0.000678062  0.0365746 -0.213797 -0.000916958  0.0285649 -0.221518 -0.00057292  0.0287919 -0.213172 -0.000777721  0.0366783 -0.213942 -0.000797272  0.0288785 -0.213322 -0.000673294  0.0277829 -0.237806 -0.000461102  0.0357287 -0.238475 -0.000468731  0.0359867 -0.230199 -0.000657082  0.0278547 -0.237889 -0.00039649  0.028147 -0.229597 -0.00055933  0.0360775 -0.230304 -0.000569344  0.0282233 -0.229707 -0.000481844  0.0269911 -0.254145 -0.000293493  0.0349519 -0.254764 -0.000296831  0.0352755 -0.246554 -0.000438929  0.0270519 -0.254198 -0.000250578  0.0273983 -0.245975 -0.000374317  0.0353529 -0.246626 -0.000379086  0.0274639 -0.246051 -0.000320196  0.0261264 -0.27039 -0.00015831  0.0340896 -0.270968 -0.000159025  0.034467 -0.262831 -0.000261784  0.0261776 -0.27042 -0.000131845  0.0265677 -0.26227 -0.000223637  0.0345299 -0.262876 -0.000224829  0.026623 -0.26232 -0.000188589  0.0252059 -0.286512 -4.98295e-05  0.033165 -0.287058 -5.34058e-05  0.0335827 -0.278999 -0.000122309  0.0252497 -0.286526 -3.79086e-05  0.0256734 -0.278456 -0.000102997  0.0336339 -0.279026 -0.000103474  0.0257199 -0.278487 -8.32081e-05  0.0242429 -0.302505 4.22001e-05  0.0321968 -0.303033 3.12328e-05  0.0326424 -0.295041 -1.57356e-05  0.0242829 -0.302511 4.14848e-05  0.0247302 -0.294513 -4.52995e-06  0.0326853 -0.295058 -9.53674e-06  0.0247703 -0.294533 2.38419e-06  0.0232596 -0.318368 0.000135183  0.0312123 -0.318905 0.000111103  0.0316641 -0.310961 7.43866e-05  0.0233035 -0.318374 0.000120163  0.023752 -0.31044 8.39233e-05  0.0317049 -0.310977 6.98566e-05  0.0237925 -0.310455 7.89165e-05  0.00610444 -0.00441742 -0.0074451  0 0 0  0.00670739 -0.00733578 -0.0065167  0.00350339 -0.00403064 -0.00554109  0 0 0  0.00498535 -0.00534958 -0.0058105  0.00250755 -0.00230789 -0.00478768  0 0 0  0.00263618 -0.00446981 -0.00389361  0.00165536 -0.00279075 -0.0033536  0.0117992 -0.00907159 -0.00899267  0.0137002 -0.0117613 -0.00886893  0.0112406 -0.00800765 -0.00958943  0.0112656 -0.0102699 -0.00777674  0.0091472 -0.00656796 -0.00841117  0.0104067 -0.00932103 -0.00803638  0.00831422 -0.00767189 -0.007061  0.0168267 -0.0153141 -0.00941086  0.019843 -0.0179917 -0.00939083  0.0171269 -0.0133291 -0.0106933  0.0166923 -0.016558 -0.00822258  0.0143346 -0.0119675 -0.00932908  0.016822 -0.0146781 -0.00926971  0.0140375 -0.0132124 -0.0081172  0.0215675 -0.0232281 -0.00913119  0.0254939 -0.0258047 -0.00913596  0.0227607 -0.0204134 -0.0106697  0.0216288 -0.0244327 -0.00800848  0.0192425 -0.0190605 -0.0093255  0.0227354 -0.0217016 -0.00932622  0.0192214 -0.0203021 -0.00817084  0.0259224 -0.0326399 -0.00853848  0.0306004 -0.0350806 -0.00853467  0.0280004 -0.0290733 -0.0101125  0.0260798 -0.033765 -0.00749063  0.0237979 -0.0277483 -0.00885892  0.0281167 -0.0302687 -0.0088625  0.0239155 -0.0289263 -0.0077734  0.0298339 -0.0433456 -0.00780869  0.0351422 -0.0456335 -0.00779366  0.0327596 -0.0391157 -0.00932169  0.0300342 -0.0443736 -0.00684619  0.0279378 -0.0378317 -0.00818229  0.0329426 -0.0402058 -0.0081737  0.0281202 -0.038919 -0.00717711  0.0332671 -0.0551662 -0.00703835  0.0391117 -0.0572947 -0.00701451  0.0369875 -0.0503502 -0.00844741  0.0334826 -0.0560936 -0.00616598  0.0316123 -0.0491166 -0.00742459  0.0371985 -0.0513338 -0.00740528  0.031822 -0.0501038 -0.00650716  0.0362128 -0.0679365 -0.00627208  0.0425181 -0.0699069 -0.00624347  0.0406651 -0.0626102 -0.00756216  0.0364306 -0.0687622 -0.00549126  0.0348016 -0.0614308 -0.00665259  0.0408841 -0.0634893 -0.00662637  0.0350186 -0.0623168 -0.005826  0.0386804 -0.0815179 -0.00553393  0.0453801 -0.0833328 -0.00550365  0.0437988 -0.0757467 -0.00669909  0.0388938 -0.0822466 -0.00484276  0.0375063 -0.0746231 -0.00589895  0.0440156 -0.0765253 -0.00586939  0.0377216 -0.0754099 -0.00516295  0.0406921 -0.0957773 -0.00483489  0.0477282 -0.0974444 -0.00480318  0.0464058 -0.0896261 -0.00587773  0.0408977 -0.0964136 -0.00422883  0.0397429 -0.0885595 -0.00517988  0.0466163 -0.0903092 -0.00514817  0.0399516 -0.0892505 -0.00453115  0.0422747 -0.110605 -0.00417972  0.049595 -0.11213 -0.00414872  0.0485173 -0.104128 -0.00510335  0.0424713 -0.111155 -0.00365472  0.0415361 -0.103117 -0.00450158  0.0487196 -0.104722 -0.00446963  0.0417365 -0.103719 -0.00393653  0.0434614 -0.125893 -0.00356913  0.0510176 -0.127284 -0.00353932  0.0501664 -0.119143 -0.00438285  0.0436484 -0.126361 -0.00312042  0.0429169 -0.118187 -0.00386977  0.0503595 -0.119654 -0.00383854  0.0431076 -0.118705 -0.00338268  0.0442858 -0.14155 -0.00300574  0.0520322 -0.142814 -0.00297761  0.0513906 -0.134575 -0.00371337  0.0444624 -0.141944 -0.00262713  0.0439179 -0.13367 -0.00328231  0.0515738 -0.135007 -0.00325274  0.0440986 -0.134111 -0.00286865  0.0447847 -0.157487 -0.00248861  0.0526797 -0.158633 -0.00246119  0.0522281 -0.150331 -0.00309706  0.0449495 -0.157812 -0.00217438  0.0445752 -0.149478 -0.00274205  0.0523994 -0.150691 -0.00271368  0.0447447 -0.149846 -0.00239563  0.0449901 -0.173631 -0.00201917  0.0529982 -0.174666 -0.00199437  0.0527176 -0.166331 -0.00253606  0.045144 -0.173893 -0.00176358  0.0449227 -0.165527 -0.00224853  0.0528777 -0.166626 -0.00222206  0.0450815 -0.16583 -0.00196385  0.0449393 -0.18991 -0.00159621  0.0530243 -0.190843 -0.00157166  0.0528973 -0.182505 -0.0020268  0.0450811 -0.190115 -0.00139308  0.0449958 -0.181747 -0.00180244  0.0530452 -0.182739 -0.00177717  0.0451428 -0.181989 -0.00157356  0.0446658 -0.206267 -0.0012219  0.0527966 -0.207106 -0.00119901  0.0528045 -0.198786 -0.00157309  0.0447941 -0.206421 -0.00106597  0.0448296 -0.198072 -0.00140357  0.0529399 -0.198967 -0.00137973  0.0449636 -0.19826 -0.00122428  0.0442026 -0.222644 -0.000895977  0.0523517 -0.2234 -0.000874043  0.0524781 -0.215118 -0.00117517  0.0443165 -0.222754 -0.000780821  0.044457 -0.214445 -0.00105405  0.0525992 -0.215251 -0.00103164  0.0445771 -0.214586 -0.000918388  0.0435805 -0.239 -0.000619888  0.0517244 -0.239681 -0.000600815  0.0519528 -0.231451 -0.000832319  0.043679 -0.239073 -0.000539541  0.043911 -0.230817 -0.000752687  0.0520585 -0.231544 -0.000731945  0.0440161 -0.230917 -0.000654697  0.0428312 -0.255293 -0.000393391  0.0509496 -0.255913 -0.000377417  0.051264 -0.247746 -0.000546932  0.0429127 -0.255336 -0.000341177  0.0432212 -0.247145 -0.000500917  0.0513532 -0.247805 -0.000483274  0.0433104 -0.247212 -0.000434875  0.0419803 -0.271496 -0.000214577  0.0500593 -0.272065 -0.000203848  0.0504434 -0.263966 -0.000319242  0.0420465 -0.271517 -0.000185966  0.0424175 -0.263397 -0.000298738  0.0505168 -0.264 -0.000284433  0.0424907 -0.263438 -0.000258446  0.0410583 -0.287582 -8.05855e-05  0.0490894 -0.288117 -7.70092e-05  0.0495257 -0.280089 -0.000146151  0.04111 -0.28759 -6.84261e-05  0.0415277 -0.279544 -0.00014329  0.0495815 -0.280104 -0.000134468  0.0415857 -0.279567 -0.000122786  0.0400872 -0.303548 1.83582e-05  0.048079 -0.304067 1.19209e-05  0.0485415 -0.296093 -2.7895e-05  0.0401299 -0.303553 1.90735e-05  0.0405786 -0.295568 -2.83718e-05  0.0485868 -0.296103 -2.90871e-05  0.0406239 -0.295583 -2.19345e-05  0.0390921 -0.319422 0.000105858  0.0470619 -0.319944 8.46386e-05  0.047533 -0.311996 5.31673e-05  0.0391338 -0.31943 9.77516e-05  0.0395923 -0.31148 6.05583e-05  0.04757 -0.312011 4.79221e-05  0.0396326 -0.311497 5.76973e-05  
SCALARS smooth_stress float 1
LOOKUP_TABLE default
87.2315 157.779 143.776 143.822 132.182 124.382 119.655 115.4 117.816 116.619 110.902 104.574 94.4389 89.7328 91.4534 90.3348 88.7913 86.0688 76.5296 78.5667 83.0049 70.7358 66.375 75.3787 41.237 163.387 297.875 263.248 272.331 264.179 234.17 224.582 215.869 219.599 233.577 218.346 208.416 204.163 177.052 175.001 172.572 171.931 175.881 155.769 158.055 170.81 150.005 132.639 159.508 91.6597 139.948 266.302 238.346 254.574 247.952 206.527 221.184 227.475 210.822 210.983 203.415 204.934 217.647 186.78 170.643 176.986 181.257 177.929 163.24 171.298 177.708 164.838 143.123 153.293 86.6338 106.877 222.946 224.953 225.434 213.716 201.061 222.278 223.645 204.897 202.349 201.217 193.514 190.606 185.511 172.205 181.342 191.694 181.713 180.981 179.789 179.11 172.392 149.922 137.742 68.9821 81.9861 178.385 198.971 203.551 213.668 206.044 190.929 198.762 198.239 220.961 233.608 221.343 194.909 172.38 176.963 191.369 193.093 190.683 192.736 177.049 176.717 169.476 155.34 153.801 76.6463 89.1236 197.382 215.237 215.251 216.961 208.21 197.178 207.975 199.897 213.182 239.427 246.371 224.799 179.243 179.698 193.063 181.658 176.486 172.661 175.074 177.694 163.324 168.345 174.236 87.1201 111.389 254.651 265.756 244.924 234.375 243.575 246.68 223.527 199.136 184.763 187.044 197.053 208.774 199.763 194.905 200.018 190.199 174.796 158.534 172.469 166.859 142.377 169.311 171.43 76.385 126.464 266.758 279.967 287.59 285.367 267.255 255.515 249.592 227.155 195.285 181.51 174.198 200.023 214.863 208.438 211.688 188.863 171.835 180.435 192.93 169.412 137.199 155.153 154.901 65.7906 65.2977 127.845 136.557 153.734 152.044 130.169 121.106 131.917 125.536 111.067 105.531 94.5943 103.822 108.013 101.377 99.9578 80.8049 76.4381 98.8059 106.466 92.7373 75.4939 71.9093 72.4845 32.6503 158.744 315.31 303.115 289.801 282.331 258.88 248.005 250.781 237.138 232.877 219.236 193.176 191.708 189.742 184.175 183.113 169.537 160.877 151.031 163.003 160.114 136.916 140.222 138.449 67.5672 289.881 584.42 558.315 538.316 545.405 495.278 457.092 453.918 440.405 472.879 453.025 396.203 403.053 389.935 371.029 359.321 333.49 320.832 316.369 336.641 329.225 294.12 290.116 303.865 158.323 242.828 493.807 487.67 499.236 493.941 440.551 432.549 442.708 417.227 427.224 424.738 388.281 394.869 388.403 365.201 351.239 349.881 330.537 321.868 341.274 334.072 314.595 297.82 324.136 179.328 192.499 403.899 440.347 462.954 432.161 404.824 428.169 437.425 403.868 397.862 411.135 384.018 364.872 361.166 347.038 354.741 371.96 351.666 343.791 334.246 324.537 326.106 314.882 312.069 155.716 165.727 349.356 406.075 435.469 419.866 395.985 380.617 395.664 392.244 419.387 437.589 414.833 381.488 353.072 363.793 381.826 379.967 357.158 365.969 344.47 315.997 342.783 344.359 309.939 146.248 188.369 396.947 426.5 431.22 426.832 410.943 389.658 400.146 403.469 416.37 424.642 428.259 404.218 350.917 360.426 376.183 354.901 331.133 337.745 343.963 325.706 339.571 348.251 327.77 162.707 230.621 500.707 509.192 464.893 449.162 460.769 465.648 430.906 403.915 402.843 385.573 387.396 414.018 383.365 351.359 370.36 366.675 351.591 331.147 339.437 327.607 303.295 335.128 322.39 147.908 268.555 560.909 568.686 547.371 532.603 513.957 505.385 490.202 461.641 422.826 378.541 354.749 402.577 416.069 371.315 379.771 374.059 352.501 357.833 375.218 341.077 303.266 316.918 302.582 140.23 141.384 286.994 287.795 290.461 291.701 268.818 253.485 261.633 258.858 227.608 200.206 179.544 192.637 203.506 185.28 183.477 168.349 155.97 185.723 201.884 182.756 165.472 152.638 151.371 75.9251 145.172 315.083 314.247 287.734 283.336 249.96 243.247 258.337 240.22 224.848 197.611 177.525 195.268 197.607 182.138 173.389 163.921 161.771 163.398 176.792 158.957 144.624 152.338 133.338 61.1555 257.244 581.092 602.817 539.924 532.077 497.224 467.245 472.594 446.477 458.38 430.768 380.654 416.888 439.387 397.963 364.342 327.095 309.707 344.84 367.203 323.528 301.614 318.738 283.373 129.813 204.188 464.405 516.942 482.129 455.941 447.323 440.166 438.734 406.083 422.504 424.72 379.375 392.572 421.678 387.698 360.058 343.035 329.356 355.981 360.789 337.29 319.229 310.471 304.006 154.497 179.537 391.608 449.385 445.073 410.423 408.323 420.259 432.465 394.134 383.157 402.462 382.313 359.903 346.245 356.286 373.428 354.51 343.57 356.602 336.556 320.47 323.343 321.225 319.03 159.917 173.181 372.274 428.241 428.48 413.531 423.613 409.292 406.09 387.481 391.17 410.579 403.912 395.674 364.327 369.983 386.963 340.849 318.491 343.957 322.848 292.421 323.158 341.039 315.995 151.09 181.231 374.135 418.895 408.524 402.038 434.203 431.519 408.171 417.474 426.564 390.803 380.733 385.59 365.317 363.254 388.422 352.841 322.945 333.41 318.41 307.388 333.654 330.227 311.182 157.59 222.175 447.777 472.172 453.974 430.356 448.341 467.127 434.403 428.248 440.694 380.035 360.501 388.076 374.073 352.889 375.391 361.599 345.078 341.834 332.633 325.06 325.801 322.203 305.91 152.804 268.09 537.239 536.268 539.808 524.19 502.994 508.319 483.754 448.1 429.266 394.187 374.776 388.995 379.109 342.586 332.259 334.613 332.05 334.515 340.902 333.573 333.459 308.639 300.938 164.479 141.386 284.537 275.763 281.012 285.564 273.506 267.51 259.42 244.153 218.152 205.274 197.163 179.786 172.374 167.381 162.651 159.654 153.576 164.197 170.008 171.231 179.259 152.778 155.273 92.2532 147.745 300.8 294.531 305.308 298.305 243.738 240.334 255.268 239.557 228.225 208.271 184.917 187.747 202.108 182.816 162.112 172.725 176.683 171.071 170.033 161.878 150.518 151.683 153.399 76.4473 274.001 569.597 582.245 573.691 544.477 491.728 477.998 473.438 449.673 444.679 422.718 389.708 402.124 414.907 376.116 353.667 339.181 319.22 336.397 344.468 324.18 314.395 308.357 287.798 139.827 217.169 466.996 510.568 476.46 445.204 462.331 467.738 439.633 421.793 425.725 406.071 388.722 396.574 380.911 353.319 376.076 340.039 313.325 352.709 357.206 343.288 338.552 306.789 266.383 131.058 193.039 426.8 461.43 423.026 415.225 428.529 432.086 429.093 406.428 379.814 368.583 375.358 356.281 350.939 373.653 388.907 349.358 341.086 371.115 345.861 318.202 316.785 307.81 282.16 135.147 183.103 416.419 446.293 412.685 426.931 428.702 407.792 394.294 376.191 388.116 388.536 374.697 371.812 373.545 372.006 362.846 327.111 334.674 349.808 318.516 302.71 286.104 294.954 297.363 140.712 172.656 374.546 436.411 423.938 397.804 426.002 448.857 409.667 396.343 432.22 405.253 374.202 378.615 374.921 344.461 362.435 352.451 336.402 344.698 320.236 321.03 322.091 315.209 307.889 150.761 206.094 413.775 474.281 485.186 424.04 439.082 482.3 446.447 419.159 403.339 365.514 372.099 362.552 355.202 365.054 387.501 376.776 343.544 352.683 324.645 299.434 314.832 313.321 305.563 150.006 254.213 495.83 501.517 542.58 535.787 504.863 494.144 459.752 422.111 397.859 411.808 421.591 376.344 345.395 342.145 337.306 327.402 318.763 310.906 293.801 282.115 297.624 297.148 301.586 161.311 139.798 268.783 255.929 283.595 298.813 277.269 254.921 236.309 217.856 209.166 239.97 240.424 194.679 174.396 163.179 153.779 151.741 147.246 136.845 133.967 138.216 160.888 161.777 156.725 88.8233 161.512 301.235 269.475 296.264 308.24 264.46 259.429 273.886 250.102 225.115 231.096 206.419 173.998 190.967 200.729 177.464 183.66 186.312 157.404 159.409 153.643 130.462 137.414 151.052 76.3443 287.894 561.408 545.828 567.174 557.485 508.526 501.345 504.137 460.156 426.255 435.779 398.569 356.947 359.09 376.737 373.613 374.028 346.297 309.418 325.198 307.125 296.491 299.019 301.484 156.481 222.604 469.837 508.821 505.983 482.722 483.016 472.14 425.494 418.012 424.759 397.082 377.366 372.764 338.585 346.274 392.617 364.277 310.589 326.663 362.342 340.558 326.039 306.806 291.09 148.995 184.281 412.095 447.116 441.749 450.489 446.24 426.302 392.951 401.985 402.183 359.258 367.425 370.164 354.469 361.115 370.132 342.022 311.313 336.898 353.202 336.643 302.599 287.52 291.077 141.644 166.871 403.758 449.529 432.044 435.658 403.651 383.742 370.748 360.261 374.576 351.724 340.971 352.071 358.213 342.968 334.301 327.64 313.672 319.399 315.711 317.974 294.084 277.689 283.89 140.094 180.54 422.414 485.154 468.27 426.229 408.259 417.24 379.951 353.136 374.305 363.253 340.54 343.646 357.255 328.187 335.689 352.54 339.126 337.901 323.869 323.626 322.945 309.137 278.655 130.688 211.326 446.07 485.859 489.578 446.941 434.808 463.818 436.924 382.234 369.283 378.473 385.876 355.883 330.57 334.259 359.765 372.773 345.44 342.88 325.608 303.141 312.032 313.398 279.249 124.218 252.288 512.805 523.911 531.346 520.298 493.172 481.494 454.917 413.72 404.432 426.802 444.949 401.812 335.755 310.505 328.454 349.074 327.06 307.631 304.984 292.315 303.431 309.786 291.139 142.809 142.69 287.822 288.326 284.672 280.94 270.262 247.252 224.905 218.387 213.442 226.717 240.849 217.854 188.235 152.314 143.741 169.314 167.783 145.502 144.185 144.395 162.85 170.156 157.074 81.9718 167.249 305.615 282.235 280.375 280.5 277.817 288.35 287.971 245.791 212.024 209.829 203.252 188.504 192.651 191.084 174.15 181.154 189.279 157.135 152.148 152.021 144.702 136.751 139.9 79.2818 284.816 548.483 540.965 541.568 541.569 523.818 515.953 521.081 460.578 417.22 415.672 391.941 368.49 364.662 377.046 353.094 362.113 366.421 317.084 327.128 312.356 293.999 292.227 309.983 170.529 215.36 461.524 504.804 517.331 506.112 468.116 434.345 421.368 408.381 411.402 402.305 386.764 380.01 347.784 363.931 374.833 360.565 345.679 335.183 363.406 345.142 302.072 304.874 313.831 153.097 178.823 403.435 457.267 459.9 450.055 432.504 406.066 382.439 397.716 410.409 377.049 380.953 390.947 347.249 352.634 366.087 335.774 322.393 331.123 348.083 349.082 315.225 303.112 300.704 139.732 157.791 385.651 450.237 433.895 421.372 417.095 412.681 400.444 375.134 378.925 371.404 358.692 368.846 359.254 348.054 341.69 311.561 292.802 307.261 313.175 318.17 310.808 300.45 306.356 155.827 166.251 425.768 493.401 458.567 434.714 426.9 445.216 427.575 375.981 362.286 367.27 355.142 348.852 356.855 356.221 366.274 345.988 328.744 330.883 331.09 353.077 335.517 309.511 292.077 139.43 204.654 454.042 493.268 487.025 486.852 476.497 475.586 459.52 415.387 407.144 411.337 377.841 348.749 351.886 356.287 365.55 372.076 345.637 319.156 344.138 363.855 337.451 303.625 285.071 140.97 256.059 518.602 535.336 542.899 548.809 514.853 476.621 467.66 431.099 423.082 426.006 411.453 399.234 373.712 338.308 352.24 375.529 348.863 337.368 346.444 332.09 314.293 297.333 291.608 151.917 140.896 289.458 296.425 284.308 280.31 258.551 232.895 229.452 220.681 203.503 191.123 212.939 221.414 190.902 164.854 181.471 194.048 193.025 197.722 179.878 167.417 164 156.485 149.214 72.4322 167.06 312.3 290.951 276.024 275.258 276.702 277.185 250.53 233.431 243.7 213.638 183.294 183.944 189.966 168.051 170.676 178.857 173.451 154.066 134.235 157.59 170.565 155.895 165.499 91.0181 279.144 553.928 559.557 540.405 545.022 539.154 501.89 467.222 448.836 456.846 424.818 382.259 363.497 356.506 341.405 335.816 351.237 358.188 321.302 307.082 342.434 320.771 292.051 340.566 187.548 215.469 464.287 517.304 515.881 517.896 481.075 413.186 409.97 407.598 396.385 401.629 395.878 354.754 329.328 352.62 360.531 362.958 367.73 331.855 335.612 363.592 329.594 305.986 309.881 151.303 201.645 431.062 458.466 450.603 455.842 431.27 407.794 397.63 390.882 384.413 387.2 378.753 356.267 357.871 360.776 361.156 345.34 331.853 324.554 320.999 326.196 328.481 305.541 266.42 120.009 188.964 403.428 424.552 422.889 410.366 419.041 436.549 416.137 402.893 404.014 396.932 356.788 348.369 380.317 363.563 328.919 317.366 301.743 307.388 312.648 306.446 302.223 283.227 294.383 155.914 182.608 404.562 456.887 452.658 418.088 429.536 449.601 442.049 410.455 388.877 389.77 371.66 345.862 340.175 355.265 354.592 339.309 314.816 320.487 326.056 344.271 334.945 306.204 331.259 172.377 205.974 435.065 502.232 489.299 465.841 488.649 484.758 467.361 427.905 402.9 402.969 405.155 373.04 353.073 358.342 364.835 375.739 347.675 342.381 351.719 350.041 322.411 300.2 333.374 172.093 257.701 508.423 540.986 534.326 529.327 538.565 494.848 467.552 438.994 411.484 426.529 438.915 405.634 396.678 374.57 369.565 382.471 364.02 368.341 371.073 329.049 299.265 317.888 344.761 178.29 143.631 282.896 280.857 273.899 278.917 273.057 242.457 230.455 217.34 194.622 213.149 230.472 211.152 198.546 189.441 196.168 183.437 178.279 198.995 190.995 164.28 158.669 176.376 179.868 87.8964 170.88 319.323 284.859 266.128 272.182 270.086 249.744 225.905 237.88 251.14 218.566 192.112 191.813 191.038 175.77 195.311 196.157 176.426 168.543 167.761 192.512 177.652 162.489 166.395 77.884 286.497 579.471 582.285 536.811 515.67 513.169 473.874 425.392 443.716 469.578 418.376 386.815 377.659 365.74 347.492 365.474 374.905 369.231 354.175 339.678 381.889 353.118 311.837 328.062 164.163 226.081 473.409 523.558 505.897 480.63 473.26 434.629 407.134 407.746 409.389 380.912 378.661 366.985 350.62 342.611 341.245 375.31 390.898 346.384 346.389 378.251 358.307 322.624 307.867 157.354 207.458 412.866 421.183 425.419 426.107 435.841 442.031 406.605 390.948 402.405 390.499 371.844 364.03 364.712 348.497 340.236 346.014 337.457 313.85 322.159 349.261 341.767 305.406 298.081 154.106 181.859 367.32 390.991 412.098 386.278 402.466 421.685 386.053 395.059 408.369 407.912 377.83 349.055 360.849 345.648 316.867 324.788 313.811 303.323 308.512 343.012 338.87 297.644 317.811 163.605 175.063 363.492 419.841 436.602 402.874 415.304 412.592 409.165 422.347 402.115 388.257 379.561 351.699 346.534 349.986 324.14 349.048 341.707 317.833 309.061 337.669 363.903 330.329 326.993 161.037 221.351 450.718 489.411 470.91 449.507 462.152 471.398 467.356 423.255 405.675 403.621 411.837 412.408 387.422 374.6 354.724 355.57 352.289 355.113 334.297 326.312 335.486 316.013 315.133 149.437 271.391 543.46 575.37 541.785 509.193 524.497 514.098 487.26 430.39 426.236 454.859 453.673 428.846 405.317 374.231 348.583 351.578 353.523 366.328 373.955 343.291 310.86 322.879 348.741 175.435 140.237 288.518 309.861 285.584 265.247 280.847 265.14 241.973 223.463 225.761 240.98 231.453 201.972 192.375 181.577 170.285 169.72 168.493 178.823 187.893 172.022 159.333 171.682 194.669 106.46 83.6428 154.651 146.292 137.769 134.303 135.016 126.917 121.772 118.797 113.985 102.654 101.644 112.123 107.266 91.4733 102.823 104.344 95.6613 96.3819 103.941 113.329 93.4021 79.1242 72.8749 31.4253 147.526 287.668 292.359 270.552 248.359 244.919 229.856 214.007 219.304 229.297 200.08 194.769 209.83 203.209 180.578 185.213 185.398 185.631 192.695 190.377 203.752 186.75 160.092 144.777 67.3398 119.229 230.906 245.186 240.358 221.376 226.317 222.587 209.17 212.631 219.108 187.18 184.876 200.702 191.347 167.829 153.201 174.268 194.835 178.404 178.234 181.606 173.827 165.72 153.948 79.4086 99.4801 189.288 200.306 208.439 193.079 214.805 231.719 208.87 207.062 218.388 197.132 190.169 199.192 179.969 171.44 163.912 169.54 184.152 160.845 159.803 178.662 173.066 167.002 178.744 94.1485 77.4776 160.901 192.303 207.182 181.224 191.898 202.264 184.718 189.754 204.077 212.597 203.038 180.177 171.482 176.023 161.678 164.479 173.856 162.883 156.417 186.33 189.625 180.113 183.4 82.6478 68.8372 162.259 199.98 205.624 198.908 198.94 200.785 208.407 217.179 210.064 202.168 197.86 183.487 187.237 184.69 157.264 176.04 184.613 166.699 160.94 184.503 206.215 189.386 159.397 66.16 111.858 235.678 240.132 230.24 232.048 223.127 232.549 242.013 224.193 221.36 217.524 200.586 211.956 220.396 206.905 178.127 170.787 180.071 172.47 160.089 172.109 188.444 162.974 138.194 62.8213 145.675 293.575 299.776 281.565 267.212 256.184 250.073 249.059 217.272 229.537 242.185 208.628 210.535 214.088 189.901 175.932 173.547 178.685 181.513 179.53 174.223 152.688 142.812 152.777 77.5237 69.311 150.653 168.508 150.632 138.606 138.49 128.115 122.67 115.442 128.756 121.609 101.282 98.087 94.0119 84.3783 86.4925 90.6475 88.6593 91.6129 91.9686 87.7666 73.4215 71.3615 87.2784 48.8691 87.2315 157.779 158.744 87.2315 87.2315 157.779 315.31 158.744 163.387 297.875 289.881 163.387 87.2315 87.2315 157.779 158.744 87.2315 163.387 87.2315 70.5474 143.776 156.565 143.776 303.115 134.488 263.248 294.539 70.5474 70.5474 143.776 156.565 134.488 70.5474 73.2288 143.822 146.55 143.822 289.801 128.76 272.331 263.776 73.2288 73.2288 143.822 146.55 128.76 73.2288 70.5936 132.182 143.252 132.182 282.331 143.571 264.179 274.54 70.5936 70.5936 132.182 143.252 143.571 70.5936 61.5887 124.382 139.08 124.382 258.88 120.608 234.17 270.866 61.5887 61.5887 124.382 139.08 120.608 61.5887 62.7929 119.655 119.8 119.655 248.005 113.562 224.582 224.413 62.7929 62.7929 119.655 119.8 113.562 62.7929 56.8623 115.4 128.205 115.4 250.781 111.02 215.869 232.68 56.8623 56.8623 115.4 128.205 111.02 56.8623 58.5378 117.816 122.575 117.816 237.138 104.849 219.599 221.239 58.5378 58.5378 117.816 122.575 104.849 58.5378 59.2779 116.619 114.562 116.619 232.877 114.75 233.577 219.166 59.2779 59.2779 116.619 114.562 114.75 59.2779 57.3408 110.902 118.314 110.902 219.236 118.827 218.346 253.713 57.3408 57.3408 110.902 118.314 118.827 57.3408 53.5614 104.574 100.922 104.574 193.176 99.5187 208.416 199.312 53.5614 53.5614 104.574 100.922 99.5187 53.5614 51.0124 94.4389 92.2541 94.4389 191.708 108.897 204.163 196.891 51.0124 51.0124 94.4389 92.2541 108.897 51.0124 43.4265 89.7328 99.4541 89.7328 189.742 95.2654 177.052 206.162 43.4265 43.4265 89.7328 99.4541 95.2654 43.4265 46.3064 91.4534 90.2878 91.4534 184.175 81.7865 175.001 183.773 46.3064 46.3064 91.4534 90.2878 81.7865 46.3064 45.1471 90.3348 93.8873 90.3348 183.113 93.2145 172.572 187.256 45.1471 45.1471 90.3348 93.8873 93.2145 45.1471 45.1878 88.7913 89.226 88.7913 169.537 79.3572 171.931 172.065 45.1878 45.1878 88.7913 89.226 79.3572 45.1878 43.6035 86.0688 80.3113 86.0688 160.877 92.5734 175.881 161.425 43.6035 43.6035 86.0688 80.3113 92.5734 43.6035 42.4653 76.5296 80.5656 76.5296 151.031 83.308 155.769 159.408 42.4653 42.4653 76.5296 80.5656 83.308 42.4653 34.0644 78.5667 70.4656 78.5667 163.003 72.4605 158.055 156.962 34.0644 34.0644 78.5667 70.4656 72.4605 34.0644 44.5023 83.0049 92.537 83.0049 160.114 85.5945 170.81 179.679 44.5023 44.5023 83.0049 92.537 85.5945 44.5023 38.5026 70.7358 67.5765 70.7358 136.916 85.2155 150.005 149.546 38.5026 38.5026 70.7358 67.5765 85.2155 38.5026 32.2332 66.375 69.34 66.375 140.222 64.7897 132.639 144.574 32.2332 32.2332 66.375 69.34 64.7897 32.2332 34.1418 75.3787 70.8823 75.3787 138.449 67.8488 159.508 145.542 34.1418 34.1418 75.3787 70.8823 67.8488 34.1418 41.237 41.237 67.5672 41.237 67.5672 91.6597 91.6597 158.323 41.237 41.237 41.237 67.5672 91.6597 41.237 76.1559 140.096 269.11 131.137 139.948 266.302 242.828 139.948 76.1559 140.096 131.137 76.1559 139.948 76.1559 119.471 255.2 126.354 238.346 250.98 63.9402 119.471 137.974 126.354 63.9402 128.508 248.514 111.992 254.574 236.691 55.5313 128.508 117.226 111.992 55.5313 131.997 263.074 142.582 247.952 262.545 72.9771 131.997 131.288 142.582 72.9771 109.789 236.399 105.371 206.527 231.397 59.0196 109.789 131.786 105.371 59.0196 104.927 209.087 101.157 221.184 209.154 50.7691 104.927 104.613 101.157 50.7691 100.469 203.138 120.027 227.475 223.394 54.1575 100.469 104.475 120.027 54.1575 101.783 203.267 107.448 210.822 219.314 46.3112 101.783 98.6632 107.448 46.3112 116.958 240.002 103.374 210.983 197.913 55.4718 116.958 104.604 103.374 55.4718 107.444 233.789 107.61 203.415 229.311 61.4865 107.444 135.399 107.61 61.4865 103.842 203.027 95.8052 204.934 195.428 45.9574 103.842 98.3905 95.8052 45.9574 109.724 211.344 109.129 217.647 192.854 57.8851 109.724 104.637 109.129 57.8851 87.319 200.193 108.518 186.78 202.015 51.8389 87.319 106.708 108.518 51.8389 83.5476 186.854 78.2619 170.643 186.388 35.4801 83.5476 93.4856 78.2619 35.4801 82.2369 176.208 92.3815 176.986 178.813 48.0674 82.2369 93.3683 92.3815 48.0674 83.1394 163.953 84.6041 181.257 172.426 34.1695 83.1394 82.8394 84.6041 34.1695 89.8126 159.956 96.6531 177.929 177.455 48.9699 89.8126 81.1135 96.6531 48.9699 79.2389 165.338 81.2762 163.24 153.081 40.8428 79.2389 78.842 81.2762 40.8428 79.4883 173.638 81.9636 171.298 168.786 38.3961 79.4883 86.4961 81.9636 38.3961 87.8051 169.112 89.3343 177.708 172.488 41.0922 87.8051 87.142 89.3343 41.0922 79.2694 157.203 88.3733 164.838 161.584 46.7129 79.2694 81.9695 88.3733 46.7129 66.2636 149.894 76.4644 143.123 153.011 32.5565 66.2636 75.2338 76.4644 32.5565 84.1297 165.416 66.6587 153.293 144.809 33.7071 84.1297 74.66 66.6587 33.7071 50.4227 90.7557 86.6338 86.6338 179.328 50.4227 50.4227 90.7557 86.6338 50.4227 63.7921 126.205 224.697 111.691 106.877 222.946 192.499 106.877 63.7921 126.205 111.691 63.7921 106.877 63.7921 118.874 232.471 116.069 224.953 211.399 62.4133 118.874 113.006 116.069 62.4133 126.065 250.721 108.885 225.434 228.948 56.4609 126.065 119.464 108.885 56.4609 115.956 230.867 116.549 213.716 234.006 69.6045 115.956 131.257 116.549 69.6045 96.7386 204.152 97.1665 201.061 198.155 46.3512 96.7386 99.6107 97.1665 46.3512 116.257 223.461 103.895 222.278 206.669 50.3874 116.257 104.542 103.895 50.3874 127.006 239.57 118.384 223.645 221.5 65.8696 127.006 118.92 118.384 65.8696 109.039 213.96 105.261 204.897 215.925 61.1369 109.039 120.65 105.261 61.1369 94.0251 187.221 99.636 202.349 187.943 47.9019 94.0251 93.3094 99.636 47.9019 95.971 190.949 102.713 201.217 209.919 46.1232 95.971 93.912 102.713 46.1232 101.092 185.254 98.504 193.514 201.216 49.8478 101.092 97.037 98.504 49.8478 107.923 183.524 95.0096 190.606 182.802 51.2439 107.923 88.217 95.0096 51.2439 99.4606 188.21 95.5964 185.511 182.07 56.6789 99.4606 95.3075 95.5964 56.6789 87.0958 178.347 89.9151 172.205 179.096 42.7817 87.0958 92.9024 89.9151 42.7817 94.7487 175.032 82.2898 181.342 167.942 44.3141 94.7487 85.4451 82.2898 44.3141 98.1179 185.928 99.0523 191.694 186.799 50.4346 98.1179 89.5866 99.0523 50.4346 88.1167 170.581 92.6419 181.713 185.161 47.6833 88.1167 96.3418 92.6419 47.6833 84.0009 156.53 89.071 180.981 166.505 40.4334 84.0009 74.2394 89.071 40.4334 91.8095 167.636 91.9096 179.789 177.286 43.5675 91.8095 82.2903 91.9096 43.5675 89.9025 164.961 87.8796 179.11 156.96 48.2421 89.9025 85.346 87.8796 48.2421 85.5683 157.392 91.2301 172.392 167.576 41.6605 85.5683 79.6148 91.2301 41.6605 76.8595 147.926 81.1621 149.922 158.529 43.9078 76.8595 77.7771 81.1621 43.9078 69.1628 158.72 68.7598 137.742 156.353 32.9517 69.1628 70.1487 68.7598 32.9517 36.2111 88.5718 68.9821 68.9821 155.716 36.2111 36.2111 88.5718 68.9821 36.2111 43.0849 96.7405 179.202 80.8084 81.9861 178.385 165.727 81.9861 43.0849 96.7405 80.8084 43.0849 81.9861 43.0849 106.079 207.877 96.3992 198.971 183.629 53.6556 106.079 98.3932 96.3992 53.6556 99.3685 212.233 102.571 203.551 222.447 52.4236 99.3685 109.484 102.571 52.4236 97.7601 201.293 100.98 213.668 213.022 46.9449 97.7601 102.749 100.98 46.9449 104.322 200.672 112.688 206.044 206.844 50.8153 104.322 98.5443 112.688 50.8153 106.021 204.707 93.3561 190.929 189.141 53.5071 106.021 102.128 93.3561 53.5071 96.6387 197.854 97.573 198.762 191.475 52.5142 96.6387 102.58 97.573 52.5142 95.8586 189.908 101.189 198.239 204.188 44.1245 95.8586 95.2746 101.189 44.1245 108.324 210.64 97.0497 220.961 188.056 51.7341 108.324 94.6331 97.0497 51.7341 105.246 220.186 123.911 233.608 231.331 56.5895 105.246 116.007 123.911 56.5895 92.4218 198.764 109.697 221.343 206.259 48.6561 92.4218 104.179 109.697 48.6561 82.6832 181.348 111.646 194.909 208.574 43.7657 82.6832 94.5854 111.646 43.7657 86.0509 172.956 83.2627 172.38 172.914 38.9175 86.0509 86.7625 83.2627 38.9175 85.1091 168.691 89.1171 176.963 180.157 47.1334 85.1091 86.1939 89.1171 47.1334 86.5935 179.709 87.8462 191.369 183.635 37.9758 86.5935 82.4966 87.8462 37.9758 93.5763 186.031 103.523 193.093 198.19 48.6177 93.5763 97.2126 103.523 48.6177 93.5961 181.085 89.5699 190.683 181.777 44.9586 93.5961 88.8189 89.5699 44.9586 96.9796 187.261 101.113 192.736 175.381 48.6375 96.9796 92.2658 101.113 48.6375 87.9797 166.61 91.6226 177.049 190.588 48.3421 87.9797 94.9957 91.6226 48.3421 89.2072 159.576 85.4264 176.717 153.882 39.6376 89.2072 71.6143 85.4264 39.6376 86.8239 168.714 91.2906 169.476 162.115 49.5696 86.8239 87.9616 91.2906 49.5696 73.0625 166.956 78.1852 155.34 180.668 37.2543 73.0625 80.7523 78.1852 37.2543 68.5791 153.348 77.1548 153.801 163.691 35.8082 68.5791 86.2041 77.1548 35.8082 32.771 67.1441 76.6463 76.6463 146.248 32.771 32.771 67.1441 76.6463 32.771 38.9012 81.6447 170.154 84.9184 89.1236 197.382 188.369 89.1236 38.9012 81.6447 84.9184 38.9012 89.1236 38.9012 92.8913 198.199 108.259 215.237 208.578 42.7436 92.8913 85.2357 108.259 42.7436 104.183 223.236 106.979 215.251 217.922 50.1478 104.183 112.963 106.979 50.1478 115.908 218.572 108.272 216.961 213.298 54.035 115.908 110.273 108.272 54.035 101.722 195.313 108.689 208.21 213.534 61.8726 101.722 108.299 108.689 61.8726 84.9077 175.909 99.5216 197.178 197.409 39.849 84.9077 87.0138 99.5216 39.849 102.123 197.81 97.6562 207.975 192.249 45.0587 102.123 88.8956 97.6562 45.0587 102.38 202.337 110.319 199.897 207.898 57.0645 102.38 108.914 110.319 57.0645 112.637 208.746 89.5779 213.182 195.571 45.3156 112.637 93.4229 89.5779 45.3156 128.362 217.403 123.604 239.427 220.799 67.3215 128.362 115.323 123.604 67.3215 128.921 216.068 115.823 246.371 203.843 61.0407 128.921 102.08 115.823 61.0407 112.226 200.14 130.548 224.799 224.416 67.8803 112.226 113.988 130.548 67.8803 86.3289 180.115 94.2509 179.243 179.801 44.3452 86.3289 86.1517 94.2509 44.3452 91.8542 195.102 84.9918 179.698 171.116 41.9837 91.8542 93.9635 84.9918 41.9837 104.776 202.116 94.7064 193.063 189.311 49.8705 104.776 101.139 94.7064 49.8705 99.5165 193.936 98.3569 181.658 186.872 54.9052 99.5165 100.978 98.3569 54.9052 97.0871 176.073 83.3006 176.486 168.029 44.6113 97.0871 92.958 83.3006 44.6113 95.7562 178.708 93.1857 172.661 163.105 52.4758 95.7562 83.1151 93.1857 52.4758 89.0693 177.86 79.475 175.074 174.64 43.2804 89.0693 95.5925 79.475 43.2804 87.5098 156.421 95.5993 177.694 169.323 45.7888 87.5098 82.2673 95.5993 45.7888 82.6519 174.069 82.0946 163.324 156.383 41.721 82.6519 74.1535 82.0946 41.721 82.2776 177.403 81.2292 168.345 183.188 40.9309 82.2776 99.9159 81.2292 40.9309 85.222 156.591 87.1155 174.236 165.063 41.3467 85.222 77.4871 87.1155 41.3467 43.8753 79.1037 87.1201 87.1201 162.707 43.8753 43.8753 79.1037 87.1201 43.8753 50.2225 115.738 226.793 103.451 111.389 254.651 230.621 111.389 50.2225 115.738 103.451 50.2225 111.389 50.2225 122.346 228.301 143.262 265.756 270.086 65.5152 122.346 123.342 143.262 65.5152 111.068 207.984 122.494 244.924 239.106 56.8309 111.068 104.959 122.494 56.8309 101.053 208.26 122.43 234.375 225.788 54.237 101.053 103.025 122.43 54.237 106.489 215.63 111.945 243.575 223.374 46.8162 106.489 105.235 111.945 46.8162 112.27 213.748 131.629 246.68 237.395 59.6726 112.27 110.395 131.629 59.6726 105.852 202.337 115.05 223.527 228.253 52.5975 105.852 103.353 115.05 52.5975 97.5171 201.132 108.477 199.136 202.653 53.2547 97.5171 98.9838 108.477 53.2547 100.545 207.624 90.6595 184.763 201.262 44.2624 100.545 102.148 90.6595 44.2624 111.065 207.239 94.104 187.044 201.58 56.2829 111.065 105.476 94.104 56.2829 117.45 212.191 92.94 197.053 183.993 54.7819 117.45 101.763 92.94 54.7819 112.574 204.078 104.113 208.774 203.403 62.6679 112.574 110.428 104.113 62.6679 92.9137 170.802 104.661 199.763 210.615 49.9057 92.9137 93.6498 104.661 49.9057 87.844 165.324 95.1025 194.905 172.75 43.0081 87.844 77.152 95.1025 43.0081 88.2877 174.066 99.8027 200.018 178.609 44.836 88.2877 88.1721 99.8027 44.836 82.141 160.965 100.216 190.199 191.751 43.4517 82.141 85.8943 100.216 43.4517 79.3992 155.06 89.9837 174.796 174.924 38.6893 79.3992 75.0709 89.9837 38.6893 76.9045 159.037 84.8128 158.534 176.668 40.7099 76.9045 79.9895 84.8128 40.7099 86.0051 166.103 73.7209 172.469 154.479 36.1946 86.0051 79.0476 73.7209 36.1946 90.1841 169.285 98.748 166.859 184.958 49.8105 90.1841 87.0553 98.748 49.8105 80.672 165.502 68.1111 142.377 142.649 40.3736 80.672 82.2299 68.1111 40.3736 86.0672 170.848 74.266 169.311 160.646 40.2983 86.0672 83.2718 74.266 40.2983 89.0136 171.179 95.0449 171.43 174.482 45.7689 89.0136 87.5758 95.0449 45.7689 43.2447 83.6032 76.385 76.385 147.908 43.2447 43.2447 83.6032 76.385 43.2447 61.1661 138.913 273.914 127.17 126.464 266.758 268.555 126.464 61.1661 138.913 127.17 61.1661 126.464 61.1661 143.41 280.89 140.294 279.967 292.354 77.7473 143.41 146.744 140.294 77.7473 133.856 256.909 139.672 287.59 276.332 65.6628 133.856 134.147 139.672 65.6628 133.322 240.902 147.917 285.367 271.039 68.193 133.322 122.763 147.917 68.193 137.086 245.139 137.449 267.255 261.565 65.1293 137.086 118.139 137.449 65.1293 134.41 251.9 129.806 255.515 252.392 71.9567 134.41 127 129.806 71.9567 117.675 228.569 125.71 249.592 252.993 62.4529 117.675 124.9 125.71 62.4529 101.619 202.783 123.882 227.155 237.209 55.2219 101.619 103.669 123.882 55.2219 84.2182 195.218 103.273 195.285 224.432 46.3971 84.2182 99.114 103.273 46.3971 75.9791 178.335 92.0117 181.51 198.394 37.8211 75.9791 96.1044 92.0117 37.8211 79.6035 175.205 89.4986 174.198 180.147 38.1581 79.6035 82.2303 89.4986 38.1581 96.2008 209.941 84.6992 200.023 174.603 41.4455 96.2008 92.9751 84.6992 41.4455 106.85 212.563 115.324 214.863 227.975 54.7554 106.85 116.965 115.324 54.7554 107.061 186.035 99.5386 208.438 188.095 52.0944 107.061 95.5976 99.5386 52.0944 111.731 196.294 108.899 211.688 183.22 54.9667 111.731 90.4369 108.899 54.9667 108.058 205.71 102.789 188.863 196.55 56.7638 108.058 105.857 102.789 56.7638 95.3972 196.531 86.074 171.835 177.509 51.2944 95.3972 99.8528 86.074 51.2944 81.6292 172.11 85.7613 180.435 174.992 44.1028 81.6292 96.6782 85.7613 44.1028 86.4638 173.334 94.6737 192.93 182.84 37.5263 86.4638 75.4316 94.6737 37.5263 76.6749 158.321 98.256 169.412 192.378 48.9375 76.6749 97.9024 98.256 48.9375 61.7051 137.794 71.1563 137.199 148.699 27.7375 61.7051 60.419 71.1563 27.7375 83.2437 164.281 66.0428 155.153 154.566 33.9677 83.2437 77.3745 66.0428 33.9677 82.4163 151.211 89.1102 154.901 162.352 49.2761 82.4163 86.9063 89.1102 49.2761 33.1403 64.3048 65.7906 65.7906 140.23 33.1403 33.1403 64.3048 65.7906 33.1403 65.2977 127.845 286.994 141.384 65.2977 127.845 141.384 65.2977 65.2977 127.845 141.384 65.2977 65.2977 65.2977 136.557 287.795 62.5469 136.557 145.61 62.5469 136.557 145.61 62.5469 62.5469 153.734 290.461 74.0096 153.734 142.185 74.0096 153.734 142.185 74.0096 74.0096 152.044 291.701 79.7243 152.044 148.276 79.7243 152.044 148.276 79.7243 79.7243 130.169 268.818 72.3201 130.169 143.425 72.3201 130.169 143.425 72.3201 72.3201 121.106 253.485 57.8491 121.106 125.393 57.8491 121.106 125.393 57.8491 57.8491 131.917 261.633 63.2567 131.917 128.093 63.2567 131.917 128.093 63.2567 63.2567 125.536 258.858 68.6601 125.536 133.54 68.6601 125.536 133.54 68.6601 68.6601 111.067 227.608 56.8761 111.067 125.318 56.8761 111.067 125.318 56.8761 56.8761 105.531 200.206 54.1906 105.531 102.29 54.1906 105.531 102.29 54.1906 54.1906 94.5943 179.544 51.3405 94.5943 97.9163 51.3405 94.5943 97.9163 51.3405 51.3405 103.822 192.637 43.2537 103.822 81.6277 43.2537 103.822 81.6277 43.2537 43.2537 108.013 203.506 60.5687 108.013 111.009 60.5687 108.013 111.009 60.5687 60.5687 101.377 185.28 47.4442 101.377 92.4973 47.4442 101.377 92.4973 47.4442 47.4442 99.9578 183.477 53.9325 99.9578 92.7831 53.9325 99.9578 92.7831 53.9325 53.9325 80.8049 168.349 46.0253 80.8049 90.6935 46.0253 80.8049 90.6935 46.0253 46.0253 76.4381 155.97 34.7796 76.4381 77.6559 34.7796 76.4381 77.6559 34.7796 34.7796 98.8059 185.723 41.6585 98.8059 78.3142 41.6585 98.8059 78.3142 41.6585 41.6585 106.466 201.884 57.1474 106.466 107.409 57.1474 106.466 107.409 57.1474 57.1474 92.7373 182.756 49.3185 92.7373 94.4756 49.3185 92.7373 94.4756 49.3185 49.3185 75.4939 165.472 43.4188 75.4939 88.28 43.4188 75.4939 88.28 43.4188 43.4188 71.9093 152.638 32.0751 71.9093 77.192 32.0751 71.9093 77.192 32.0751 32.0751 72.4845 151.371 39.8342 72.4845 75.4456 39.8342 72.4845 75.4456 39.8342 39.8342 32.6503 75.9251 32.6503 32.6503 75.9251 32.6503 32.6503 75.9251 32.6503 32.6503 157.531 145.172 71.5126 315.083 145.172 286.545 257.244 126.493 71.5126 157.531 145.172 71.5126 126.493 71.5126 159.339 169.911 314.247 295.067 323.848 86.018 159.339 169.911 160.051 86.018 145.979 144.336 287.734 265.985 278.969 73.3211 145.979 144.336 135.016 73.3211 150.149 143.398 283.336 281.226 260.954 72.6579 150.149 143.398 130.969 72.6579 134.498 139.938 249.96 261.108 271.123 77.4912 134.498 139.938 150.257 77.4912 128.35 110.022 243.247 232.51 226.101 57.007 128.35 110.022 110.85 57.007 135.38 133.225 258.337 238.05 241.144 71.3428 135.38 133.225 121.66 71.3428 119.322 125.112 240.22 220.806 231.45 64.0376 119.322 125.112 116.39 64.0376 116.258 115.108 224.848 239.302 215.026 55.2846 116.258 115.108 104.416 55.2846 108.334 109.739 197.611 234.679 243.354 60.9735 108.334 109.739 134.886 60.9735 88.6022 87.8714 177.525 187.787 187.414 47.3606 88.6022 87.8714 99.7938 47.3606 97.2692 89.6538 195.268 198.89 193.24 41.2417 97.2692 89.6538 87.9935 41.2417 100.009 105.614 197.607 212.883 223.648 56.0276 100.009 105.614 110.896 56.0276 92.7216 91.9922 182.138 196.028 215.738 43.9815 92.7216 91.9922 101.987 43.9815 92.7784 90.1455 173.389 186.749 182.224 48.7402 92.7784 90.1455 94.041 48.7402 80.746 83.2437 163.921 161.56 182.118 44.0382 80.746 83.2437 92.7081 44.0382 74.8082 80.6776 161.771 144.951 144.977 36.7078 74.8082 80.6776 68.8515 36.7078 74.5015 81.0939 163.398 160.601 164.73 38.1003 74.5015 81.0939 76.0996 38.1003 84.4359 82.3037 176.792 178.586 180.11 36.4012 84.4359 82.3037 84.5012 36.4012 77.1086 94.4887 158.957 158.415 187.093 48.0347 77.1086 94.4887 94.0846 48.0347 66.1806 64.4684 144.624 144.115 136.435 29.0739 66.1806 64.4684 64.3305 29.0739 73.8472 80.1552 152.338 157.477 165.178 37.1067 73.8472 80.1552 79.784 37.1067 63.0707 72.1828 133.338 144.357 153.559 36.7405 63.0707 72.1828 77.6935 36.7405 26.3302 61.1555 61.1555 66.6632 129.813 26.3302 26.3302 61.1555 66.6632 26.3302 266.009 112.073 227.506 204.188 102.88 129.014 112.073 54.9808 102.88 54.9808 288.57 249.325 260.216 135.728 153.937 124.626 74.0334 252.19 244.662 256.726 120.006 134.634 124.698 61.695 248.741 245.989 225.403 131.077 117.556 119.963 58.3111 247.264 234.023 230.539 126.61 131.185 126.026 72.7662 223.998 211.365 216.785 104.161 116.079 107.998 53.8435 214.258 215.233 223.381 102.669 107.919 103.367 50.3171 206.256 206.405 215.352 101.484 106.338 111.865 52.352 233.533 216.24 190.731 123.044 99.9179 94.5394 49.1318 233.157 221.323 231.774 126.345 133.615 121.701 73.912 203.129 183.347 192.947 99.185 99.5422 99.6224 52.4332 221.62 177.222 186.429 101.62 103.586 83.7249 46.7518 241.78 201.623 206.144 112.874 118.034 93.4973 54.8687 215.825 194.558 215.534 103.306 123.746 108.126 58.0055 190.953 174.254 172.164 93.9707 92.0787 86.4318 45.3008 163.174 168.624 187.894 80.8135 98.8741 87.8218 48.6699 147.936 152.607 155.141 70.1429 64.2998 80.8022 32.1436 181.442 158.628 174.215 86.0992 83.6357 71.8052 37.9992 190.411 169.977 181.767 94.1499 97.8067 86.8229 48.1 164.571 156.365 179.022 81.3065 92.604 83.1538 46.0498 156.99 149.757 158.268 77.9339 71.9671 73.211 35.2566 166.4 154.697 160.962 83.6302 85.0231 76.5465 42.6772 150.034 170.844 149.509 81.286 81.3764 78.15 40.953 68.658 92.6937 154.497 40.333 68.658 92.6937 40.333 198.395 92.1154 180.953 179.537 85.6223 98.4917 92.1154 47.8989 85.6223 47.8989 228.372 215.394 212.072 113.596 106.28 95.3304 50.5928 229.939 237.52 237.313 124.656 122.092 120.063 63.0035 207.2 218.445 207.76 114.912 107.846 117.456 61.6523 200.059 203.763 202.663 107.414 99.3536 100.988 53.2594 216.168 205.891 205.66 107.204 100.706 102.775 54.1541 224.476 213.78 214.6 112.564 115.462 103.116 53.0503 199.827 198.97 217.866 104.921 109.014 110.664 59.5135 188.971 195.513 176.269 93.1964 90.8127 88.3066 45.4076 191.563 209.919 206.888 94.978 98.1588 107.207 47.7888 176.247 190.505 195.573 84.1623 93.4045 102.712 47.1892 170.952 174.266 186.74 75.6017 82.8422 87.7928 36.9731 179.898 175.655 173.163 88.7492 88.11 86.4736 38.6286 171.873 174.833 173.082 91.2516 91.7876 89.1812 50.1206 169.105 173.399 183.204 80.283 80.0853 85.6519 41.131 179.861 180.266 190.225 87.8105 89.0198 87.7468 39.152 181.42 169.953 164.286 82.4645 90.8412 92.5188 48.6586 174.539 162.811 179.284 72.5288 90.579 77.4342 33.8059 170.378 154.457 177.318 75.8268 83.9598 85.3764 38.7229 172.719 145.427 159.239 75.0583 86.4185 69.0807 37.1039 162.239 153.714 161.232 71.8236 86.3004 76.3464 37.9544 144.072 164.96 162.112 71.0663 75.9387 77.3672 33.8692 153.972 174.327 159.113 89.5577 68.1328 87.593 37.197 85.8389 86.7338 159.917 52.3607 85.8389 86.7338 52.3607 193.213 87.4211 170.97 173.181 83.7407 82.461 87.4211 37.7234 83.7407 37.7234 221.013 207.105 199.093 101.797 105.792 87.2297 44.7376 215.135 231.917 229.148 112.864 115.221 119.875 57.0599 203.223 206.198 199.332 103.533 99.9137 112.042 55.8042 208.264 189.941 214.199 96.3495 103.31 94.1557 47.729 204.092 189.688 209.413 98.6861 104.954 95.7853 48.6205 207.989 196.902 199.878 101.216 99.1376 93.9025 50.0656 194.308 194.006 206.212 94.0492 108.852 103 51.1501 194.186 198.426 181.269 102.317 85.456 91.0064 42.899 210.899 203.982 209.9 114.941 108.73 107.42 59.4178 206.066 193.49 200.679 106.343 102.169 96.5621 55.5229 188.951 186.579 203.233 98.6647 103.898 96.9276 50.8197 166.347 180.692 192.441 86.9055 85.053 89.6515 47.845 184.413 186.829 171.886 83.5814 81.2941 91.0403 39.0606 204.323 190.456 198.097 93.1157 103.119 95.7889 44.5209 174.649 186.875 188.865 92.4551 101.205 94.6675 48.5948 162.149 166.475 151.984 87.4885 73.4443 92.207 43.8603 182.063 173.233 166.506 90.2818 88.705 74.2675 43.6283 166.178 167.421 177.45 78.6303 93.3578 98.9656 46.6535 147.752 139.28 145.398 70.3688 72.8202 68.4552 31.9768 161.104 173.307 147.023 81.8901 74.9314 70.8245 38.392 177.153 189.019 176.135 93.894 86.1729 102.483 43.498 165.058 156.138 164.905 84.7691 90.9804 86.5364 50.396 74.078 69.6015 151.09 34.3731 74.078 69.6015 34.3731 179.061 85.7597 199.565 181.231 99.2453 88.5094 85.7597 46.0173 99.2453 46.0173 207.228 211.263 192.904 105.307 93.3011 100.319 42.4921 213.345 215.969 225.99 119.053 113.927 110.943 62.8153 210.308 209.871 182.534 102.665 99.4181 105.026 56.238 215.349 202.733 219.504 93.5915 110.89 104.845 46.4267 205.2 192.48 214.698 91.0017 104.459 97.8873 47.1648 198.101 192.171 216.821 95.6863 100.741 94.5924 43.8369 193.174 203.572 191.35 99.9567 97.3605 97.5784 51.8494 196.984 203.188 226.124 96.1091 95.8133 105.993 48.1073 199.681 185.215 200.44 89.041 101.171 97.1947 48.0017 197.846 181.888 190.363 87.1472 98.5103 88.0202 41.0393 206.723 179.418 190.371 87.9144 99.3355 93.8679 46.1079 197.98 171.674 195.219 93.7862 107.388 85.5506 41.8065 185.571 180.728 170.098 103.248 90.592 86.1237 51.9798 182.639 183.119 193.156 97.3407 94.9788 94.6041 51.268 166.2 173.244 195.266 94.4194 87.6604 88.5153 46.0727 156.341 154.647 157.575 78.986 78.5399 84.7283 48.3467 161.894 165.084 165.37 82.9514 77.8014 69.9189 30.6393 156.67 168.888 168.04 88.7905 84.0924 95.1652 52.3121 144.67 148.012 150.37 68.9109 72.578 73.7233 36.4785 162.054 176.247 157.018 91.4174 72.0919 74.2888 32.4325 163.886 179.906 176.636 95.1254 89.9616 101.958 58.985 150.936 153.534 153.591 71.3688 73.9241 77.9473 36.1404 77.0121 75.5869 157.59 35.2284 77.0121 75.5869 35.2284 195.075 95.4712 246.056 222.175 119.232 111.055 95.4712 53.2281 119.232 53.2281 211.667 243.435 225.602 105.955 99.6034 126.823 57.8271 195.179 219.969 246.57 96.9158 112.063 116.612 48.128 191.73 214.786 207.405 107.206 83.1156 103.358 48.7878 218.854 217.194 222.951 109.141 108.615 111.429 58.4186 226.319 218.969 225.391 101.478 110.239 105.766 50.7225 210.07 207.379 241.737 96.4846 116.08 113.203 50.7555 224.3 204.779 192.666 103.615 93.9899 94.1761 45.729 229.58 218.079 235.581 107.079 130.31 110.603 57.8861 191.122 198.529 205.113 96.1739 99.2696 107.476 49.193 182.888 190.343 174.922 94.7409 91.8522 91.0531 46.9809 178.866 205.244 185.579 91.5041 91.0355 99.2896 47.76 167.337 183.601 202.497 77.8881 87.8309 105.954 43.7441 177.684 156.453 171.576 77.4801 79.5061 77.6472 34.144 205.783 170.342 181.313 85.7787 98.1774 78.8063 43.3361 186.641 176.476 194.078 78.8242 107.605 91.5357 42.4426 166.604 176.795 167.521 75.6612 79.0352 84.94 36.3816 171.516 172.613 177.557 82.1326 87.5688 91.8549 39.2796 161.74 166.968 164.277 80.0979 83.9473 80.7584 42.8531 162.718 160.748 168.356 79.1012 77.7922 86.2098 37.2448 171.6 160.918 156.703 84.8298 84.9258 74.5379 41.8563 166.342 165.817 169.097 84.7804 86.6745 86.3803 42.9735 160.245 150.96 153.106 82.1654 79.6671 79.4371 41.8069 80.5783 71.523 152.804 40.3585 80.5783 71.523 40.3585 252.702 126.703 294.151 268.09 142.091 135.001 126.703 66.0044 142.091 66.0044 260.505 288.719 269.15 137.48 125.999 152.06 68.9964 258.796 259.781 267.119 123.054 134.506 136.66 68.4838 238.625 247.236 272.689 107.58 124.289 123.121 54.5698 229.487 246.702 251.501 108.053 114.336 124.115 53.0099 240.808 249.87 251.493 117.491 115.151 122.587 55.0431 224.334 240.611 256.826 110.895 125.657 127.284 62.4475 203.947 234.486 226.928 101.164 98.6765 113.327 48.4471 211.114 227.541 221.172 111 105.271 121.159 52.7169 188.913 197.031 208.094 102.356 105.843 106.383 58.2834 177.614 180.552 186.094 95.6018 83.0701 90.6479 44.0722 209.209 202.554 188.683 113.74 94.5435 89.9037 51.5296 206.736 201.207 200.312 105.713 114.666 112.65 62.2101 175.205 162.877 178.797 78.9734 92.07 88.5563 43.5032 169.608 168.082 163.789 84.5633 83.1352 74.3208 35.4702 174.958 185.196 168.47 97.6515 86.4724 93.7614 49.0931 178.475 180.666 166.143 101.134 88.486 91.4347 48.5584 170.318 177.398 165.908 90.4807 89.9886 89.2311 52.5754 170.893 182.288 168.607 86.8703 80.3294 88.1665 37.9053 162.341 171.665 172.294 81.6465 90.5639 94.122 48.965 154.2 166.066 161.279 76.0884 71.7776 77.5428 32.6816 155.861 161.765 172.181 81.0371 82.4228 88.5237 43.4068 145.665 147.681 136.459 68.7947 73.4386 73.2417 37.6302 72.2262 74.4393 164.479 31.1645 72.2262 74.4393 31.1645 284.537 141.386 159.15 141.386 76.0867 159.15 141.386 76.0867 76.0867 76.0867 275.763 151.239 143.151 151.239 143.151 83.0632 83.0632 281.012 136.727 132.612 136.727 132.612 68.1758 68.1758 285.564 139.657 148.4 139.657 148.4 68.5515 68.5515 273.506 138.649 137.165 138.649 137.165 71.1052 71.1052 267.51 132.38 136.342 132.38 136.342 67.5435 67.5435 259.42 129.716 131.169 129.716 131.169 64.8361 64.8361 244.153 133.322 128.252 133.322 128.252 64.8801 64.8801 218.152 116.541 115.901 116.541 115.901 68.4417 68.4417 205.274 94.6751 102.25 94.6751 102.25 48.0994 48.0994 197.163 84.9498 103.023 84.9498 103.023 46.5757 46.5757 179.786 88.8144 94.1394 88.8144 94.1394 38.374 38.374 172.374 95.4935 85.6467 95.4935 85.6467 50.4404 50.4404 167.381 83.9036 86.7269 83.9036 86.7269 45.0531 45.0531 162.651 83.5188 80.6537 83.5188 80.6537 38.8506 38.8506 159.654 87.5445 81.9977 87.5445 81.9977 44.6683 44.6683 153.576 79.532 77.6566 79.532 77.6566 42.8763 42.8763 164.197 86.9169 75.919 86.9169 75.919 36.6557 36.6557 170.008 95.4182 88.2781 95.4182 88.2781 50.2612 50.2612 171.231 90.0182 81.7304 90.0182 81.7304 45.157 45.157 179.259 89.9781 89.501 89.9781 89.501 44.8612 44.8612 152.778 80.7283 89.7579 80.7283 89.7579 45.1169 45.1169 155.273 78.8862 63.02 78.8862 63.02 35.6114 35.6114 92.2532 43.2748 92.2532 43.2748 92.2532 43.2748 43.2748 157.552 147.745 73.6589 300.8 147.745 294.547 274.001 130.751 73.6589 157.552 147.745 73.6589 130.751 73.6589 154.908 153.056 294.531 307.75 295.596 83.8934 154.908 153.056 163.797 83.8934 141.755 141.476 305.308 273.939 286.649 71.0146 141.755 141.476 143.953 71.0146 133.187 163.832 298.305 250.851 287.042 70.74 133.187 163.832 129.985 70.74 115.462 134.473 243.738 236.116 257.435 62.4468 115.462 134.473 120.866 62.4468 114.897 109.265 240.334 234.734 234.292 53.0148 114.897 109.265 115.25 53.0148 122.956 131.069 255.268 234.545 243.705 61.8819 122.956 131.069 119.484 61.8819 120.898 124.2 239.557 225.671 229.732 61.0742 120.898 124.2 115.061 61.0742 108.59 115.357 228.225 219.079 219.941 59.8239 108.59 115.357 110.61 59.8239 89.2766 112.868 208.271 196.088 224.738 48.7658 89.2766 112.868 108.469 48.7658 88.923 95.4028 184.917 192.867 197.98 40.5108 88.923 95.4028 87.6198 40.5108 97.9991 89.514 187.747 217.999 191.728 48.4122 97.9991 89.514 105.247 48.4122 97.5977 98.2331 202.108 226.503 210.396 49.5869 97.5977 98.2331 112.752 49.5869 89.4161 103.875 182.816 201.935 204.511 48.0108 89.4161 103.875 113.751 48.0108 80.6108 78.9406 162.112 177.593 171.606 41.4053 80.6108 78.9406 88.1832 41.4053 83.1752 83.1718 172.725 165.536 182.061 39.2055 83.1752 83.1718 89.4097 39.2055 86.9633 89.5533 176.683 164.756 157.12 43.9697 86.9633 89.5533 76.1259 43.9697 88.8961 87.1292 171.071 184.239 162.1 42.9936 88.8961 87.1292 88.6301 42.9936 92.3566 83.9416 170.033 188.617 174.296 45.9025 92.3566 83.9416 95.6093 45.9025 81.8485 86.0912 161.878 165.113 170.171 46.454 81.8485 86.0912 93.0082 46.454 78.443 75.7867 150.518 157.499 154.008 35.3945 78.443 75.7867 72.1049 35.3945 78.4908 74.7314 151.683 161.26 160.387 43.0485 78.4908 74.7314 85.3944 43.0485 70.2676 76.9514 153.399 139.016 147.971 35.4423 70.2676 76.9514 75.8657 35.4423 34.8253 76.4473 76.4473 63.1502 139.827 34.8253 34.8253 76.4473 63.1502 34.8253 268.796 126.256 236.899 217.169 101.309 136.995 126.256 57.0921 101.309 57.0921 287.713 267.618 249.826 152.842 142.54 135.59 79.9031 268.383 237.467 260.742 132.184 145.173 132.028 72.9387 246.172 209.952 215.719 117.664 123.21 105.439 59.2453 247.99 213.3 229.485 120.654 122.962 104.513 58.4187 237.664 228.801 232.846 119.838 125.027 108.787 62.2355 218.169 223.501 234.892 111.588 112.637 120.014 57.6021 210.117 199.678 204.741 104.772 105.533 103.487 53.9863 216.454 206.264 217.052 110.489 104.584 96.1913 50.7861 214.447 203.397 208.672 106.812 111.87 110.073 59.7028 204.791 196.028 197.399 103.944 102.577 93.3243 47.109 214.377 215.35 191.323 120 102.214 102.704 56.8346 212.799 220.054 205.25 128.906 112.163 112.647 63.1651 193.301 193.14 175.66 112.519 100.636 107.408 65.7407 191.555 185.804 177.659 96.982 92.6651 85.7322 46.7779 166.456 174.411 198.417 82.3603 98.8895 100.072 50.2042 142.538 176.748 141.622 77.7926 67.5666 74.3388 32.1562 165.326 197.353 171.702 95.3432 74.9713 102.41 45.6365 174.435 190.812 181.007 96.2609 90.3548 94.9436 49.7067 162.302 180.925 176.199 83.2646 84.08 95.8687 46.5542 163.877 169.472 167.089 79.0564 78.2216 85.0565 36.7105 156.675 155.775 171.463 82.7693 85.6552 84.4154 42.3459 134.399 133.162 135.326 68.7484 71.0194 71.3593 40.4235 63.3798 61.8032 131.058 28.3249 63.3798 61.8032 28.3249 198.199 90.9131 210.656 193.039 93.9142 99.9034 90.9131 44.2165 93.9142 44.2165 222.855 233.991 233.76 114.776 107.286 116.741 55.6869 208.078 207.553 227.669 105.283 115.569 117.25 59.0889 199.032 191.978 195.357 92.2882 92.5088 90.3035 46.194 214.342 204.56 219.868 92.6457 106.523 101.675 46.0942 230.074 214.369 208.661 108.963 107.819 102.885 46.5514 221.463 218.686 223.425 111.912 122.255 111.484 62.4117 211.676 195.164 205.668 94.9058 99.2079 107.202 49.5007 209.271 187.644 200.76 95.7751 112.469 87.9621 45.4052 191.624 192.543 179.053 96.5853 96.8026 99.6818 50.3699 183.931 191.808 189.53 92.0844 94.8215 92.8613 46.2153 182.197 185.636 185.828 95.3505 89.1098 98.9469 45.8691 168.112 170.59 170.453 91.1484 93.0869 86.6895 49.4814 160.019 181.452 180.485 80.6213 75.0248 83.9005 41.667 184.521 200.03 193.167 88.8221 84.9938 97.552 38.9543 173.583 174.244 195.74 92.0505 99.5271 102.478 49.8678 170.787 173.617 153.619 98.9557 74.0558 71.7667 42.1827 187.383 193.791 187.467 102.01 96.7309 101.85 56.773 182.771 182.099 183.649 94.5514 90.6525 91.9411 45.2369 180.986 175.043 162.213 97.6606 92.1185 90.1579 49.3145 174.676 169.63 155.989 90.4155 88.8676 84.8854 48.3461 150.114 156.265 160.797 73.0053 85.8081 84.7443 42.0695 131.984 144.703 147.013 64.4141 64.3064 71.5203 30.9358 67.6779 73.1831 135.147 33.4783 67.6779 73.1831 33.4783 228.6 102.126 201.304 183.103 89.4401 110.752 102.126 49.6977 89.4401 49.6977 238.575 221.136 233.317 119.216 126.474 111.864 61.0546 214.949 196.562 212.976 102.27 112.101 109.273 58.1609 216.193 207.333 199.709 99.6901 102.848 87.2896 44.1095 214.188 233.672 227.222 111.914 113.345 120.044 55.5806 202.012 219.604 201.48 105.406 100.842 113.628 56.3337 207.63 209.188 206.312 106.773 101.17 105.976 49.072 194.752 193.475 187.981 100.258 106.46 103.213 57.7015 170.542 192.744 188.21 91.8688 88.2915 90.2629 42.5569 176.959 206.598 199.906 95.9579 82.2509 102.481 49.3119 191.427 210.422 188.63 99.7238 94.7083 104.117 46.646 174.085 209.095 186.067 90.2859 96.7184 106.305 53.0778 182.827 183.635 185.745 79.4416 77.3663 102.79 37.208 213.634 183.154 187.8 100.831 105.461 80.8458 42.2335 204.386 196.506 184.206 111.208 108.173 102.308 58.5977 175.776 153.975 178.64 82.1939 96.2126 94.1977 52.6099 170.299 152.016 148.471 74.6608 79.563 59.7772 29.584 183.732 170.724 186.203 91.7811 90.7358 92.2389 45.0768 163.09 155.428 163.605 87.5477 92.9962 78.4846 46.7043 137.216 153.142 154.91 77.3828 70.0942 76.943 40.8434 142.11 149.85 147.8 79.2142 67.1213 76.1988 36.5394 157.695 152.02 138.304 83.2593 74.9885 73.6516 42.6749 150.176 159.857 156.65 80.2894 82.7066 78.3682 40.5845 67.4689 81.4886 140.712 39.7049 67.4689 81.4886 39.7049 187.819 80.9763 174.571 172.656 81.9855 90.5514 80.9763 39.7424 81.9855 39.7424 207.718 207.632 201.89 101.921 106.843 92.5853 50.809 197.736 192.555 234.521 94.2917 100.875 115.047 51.1117 210.738 192.167 189.417 107.643 96.8611 77.5078 43.18 214.514 231.47 208.386 121.757 113.877 114.659 64.463 205.78 239.039 217.615 114.198 100.637 116.811 57.2945 186.664 216 231.242 102.415 105.143 122.228 56.9038 181.44 213.902 178.425 93.217 81.5212 93.772 45.5111 217.574 223.376 217.918 100.875 99.9185 120.13 47.7059 211.577 205.588 214.302 110.64 117.655 103.246 53.1689 183.27 198.845 190.951 110.699 93.922 102.342 57.471 197.727 206.171 183.252 118.809 89.3484 96.5031 53.2276 190.718 193.643 195.364 104.194 108.378 109.668 65.5815 158.372 182.526 179.558 82.323 82.3394 83.9743 38.6123 158.46 205.303 164.903 85.2985 76.0329 98.552 43.7107 151.336 179.597 197.531 71.7809 82.4274 106.751 41.5877 164.375 168.298 154.92 77.3553 68.9082 72.8468 30.1932 166.076 168.326 181.483 78.9424 95.4669 95.4513 47.1621 155.425 149.522 163.215 67.8799 70.6092 72.8745 31.7803 165.494 159.376 157.021 75.759 84.8159 76.647 36.0996 143.994 157.407 164.009 70.6361 80.6782 82.7289 39.6594 137.259 150.322 158.081 68.7604 63.3159 74.6777 30.9767 147.187 157.647 157.128 79.5675 73.9434 75.6438 37.7837 73.2436 82.0035 150.761 41.7838 73.2436 82.0035 41.7838 186.727 91.6796 201.721 206.094 102.942 84.0194 91.6796 42.2431 102.942 42.2431 228.693 228.736 207.68 105.712 95.0475 98.7786 41.7763 226.202 234.005 266.601 98.263 133.646 129.958 63.9352 187.066 215.569 218.585 84.5239 92.5562 104.047 34.3278 211.488 231.147 205.455 109.713 94.51 111.522 50.1961 243.077 248.159 233.627 124.841 116.978 119.625 59.5166 223.004 227.024 248.673 113.585 126.099 128.534 65.3244 214.904 223.468 197.774 120.685 96.9042 98.4903 48.2609 214.647 222.615 221.385 122.501 117.999 124.978 72.4241 193.676 181.506 181.954 94.948 96.6472 97.6365 50.0767 190.932 170.159 183.559 88.1468 97.0288 83.8693 44.8713 180.888 182.832 188.539 87.3623 93.9031 86.2893 43.2755 184.203 190.471 174.013 89.4489 86.985 96.5425 44.0868 186.089 196.435 181.189 100.203 97.2182 93.9289 45.3621 203.974 205.049 183.865 120.004 88.8704 102.506 54.8413 201.115 185.123 203.636 107.816 115.104 102.542 65.1629 172.027 168.284 173.14 90.9428 86.0114 82.5811 42.6536 178.621 169.221 170.403 89.3834 86.0158 85.7024 48.2892 164.81 165.665 182.28 81.6416 92.6057 83.5183 41.0942 155.536 164.312 142.365 83.6169 72.2047 82.1463 40.5474 178.097 164.883 157.069 86.7705 83.3313 82.1656 43.0695 177.949 156.386 157.763 81.5612 94.7654 82.717 43.701 160.702 154.95 155.558 78.0799 83.1841 73.6685 37.8601 77.5179 81.2815 150.006 40.2198 77.5179 81.2815 40.2198 227.047 114.415 243.089 254.213 125.999 117.701 114.415 60.699 125.999 60.699 245.588 247.549 241.618 123.025 112.633 117.09 57.0023 258.985 280.027 259.899 135.742 132.955 130.459 66.0225 236.974 276.953 282.681 131.045 126.029 149.568 69.7195 227.594 256.292 253.106 121.434 110.945 127.385 61.326 239.223 258.449 251.757 123.318 116.65 128.907 60.1083 223.443 243.143 242.387 113.439 122.574 129.542 63.2095 204.255 213.615 217.365 102.783 100.87 113.601 50.2294 188.693 201.725 204.746 100.114 103.386 100.014 52.554 171.838 197.157 193.113 86.5578 85.3073 101.711 47.5598 181.167 194.225 218.695 82.0118 86.5304 95.4456 38.9979 181.664 186.441 202.895 95.4695 94.6362 98.7793 43.0138 170.999 177.903 173.448 101.022 87.028 87.662 52.4557 178.966 179.709 171.947 96.2318 83.9708 90.2406 48.5668 183.527 164.177 170.198 85.0443 94.995 89.4681 47.665 175.661 149.417 167.108 77.3069 88.5319 74.7088 37.3793 171.517 151.384 160.294 77.3407 87.129 74.7079 39.9276 174.061 157.117 158.469 79.8372 84.3876 76.6764 37.4132 159.834 158.613 152.437 84.023 89.6738 80.441 42.4241 143.898 161.908 141.364 80.695 70.1603 78.1723 41.5989 136.736 167.393 140.751 78.112 73.738 83.7359 39.0961 135.371 146.874 156.873 74.8243 62.9978 83.657 39.016 144.861 153.257 140.275 76.8701 72.3735 63.2169 35.8084 72.4878 90.0401 161.311 41.0617 72.4878 90.0401 41.0617 268.783 139.798 125.387 139.798 65.2995 125.387 139.798 65.2995 65.2995 65.2995 255.929 124.524 128.985 124.524 128.985 60.0879 60.0879 283.595 144.285 126.944 144.285 126.944 64.4366 64.4366 298.813 145.908 156.651 145.908 156.651 79.8483 79.8483 277.269 134.858 142.162 134.858 142.162 66.0593 66.0593 254.921 135.131 135.107 135.131 135.107 68.7982 68.7982 236.309 129.704 119.813 129.704 119.813 66.3327 66.3327 217.856 110.831 116.495 110.831 116.495 63.3716 63.3716 209.166 101.611 101.361 101.611 101.361 47.4595 47.4595 239.97 110.599 107.805 110.599 107.805 54.1511 54.1511 240.424 112.213 132.165 112.213 132.165 56.4476 56.4476 194.679 90.9717 108.259 90.9717 108.259 55.7654 55.7654 174.396 76.8801 86.4203 76.8801 86.4203 35.2063 35.2063 163.179 83.477 87.9758 83.477 87.9758 41.6739 41.6739 153.779 79.1326 75.2031 79.1326 75.2031 41.8031 41.8031 151.741 72.1098 78.5757 72.1098 78.5757 37.3294 37.3294 147.246 74.0435 73.1649 74.0435 73.1649 34.7803 34.7803 136.845 77.2801 74.0814 77.2801 74.0814 39.2632 39.2632 133.967 74.5902 62.7635 74.5902 62.7635 38.0169 38.0169 138.216 81.2132 71.2037 81.2132 71.2037 36.5733 36.5733 160.888 89.2809 67.0127 89.2809 67.0127 44.6399 44.6399 161.777 72.0496 93.8757 72.0496 93.8757 44.6411 44.6411 156.725 76.3869 67.9013 76.3869 67.9013 27.4085 27.4085 88.8233 48.9784 88.8233 48.9784 88.8233 48.9784 48.9784 143.248 161.512 74.0858 301.235 161.512 275.049 287.894 143.25 74.0858 143.248 161.512 74.0858 143.25 74.0858 139.623 139.723 269.475 274.495 273.514 69.1623 139.623 139.723 131.799 69.1623 163.553 129.751 296.264 299.752 272.314 70.4611 163.553 129.751 142.695 70.4611 165.118 166.512 308.24 293.626 294.86 93.092 165.118 166.512 157.057 93.092 128.276 141.728 264.46 255.612 262.625 72.0262 128.276 141.728 136.57 72.0262 125.437 122.733 259.429 243.264 245.901 56.2501 125.437 122.733 119.042 56.2501 132.312 136.696 273.886 238.893 255.444 69.1869 132.312 136.696 124.221 69.1869 118.659 137.19 250.102 224.003 248.693 63.1254 118.659 137.19 114.672 63.1254 119.635 112.912 225.115 225.6 211.463 55.5331 119.635 112.912 109.331 55.5331 118.994 112.203 231.096 226.63 214.793 64.1021 118.994 112.203 116.269 64.1021 95.9938 118.893 206.419 196.841 220.986 54.892 95.9938 118.893 110.36 54.892 89.748 87.5265 173.998 184.125 177.582 41.1019 89.748 87.5265 86.4808 41.1019 104.51 86.4712 190.967 188.404 179.365 48.6462 104.51 86.4712 97.6444 48.6462 93.3995 104.495 200.729 174.182 179.725 55.8642 93.3995 104.495 90.7592 55.8642 81.5016 96.2334 177.464 176.074 197.012 37.5353 81.5016 96.2334 83.4225 37.5353 89.55 81.2307 183.66 173.646 176.601 43.9664 89.55 81.2307 92.6517 43.9664 89.7192 102.43 186.312 154.464 197.427 45.5836 89.7192 102.43 80.9941 45.5836 82.1746 83.8818 157.404 152.157 148.87 44.1356 82.1746 83.8818 73.4704 44.1356 77.6761 73.5226 159.409 155.85 160.549 38.039 77.6761 73.5226 78.6871 38.039 80.0294 85.8861 153.643 159.066 164.649 39.6371 80.0294 85.8861 77.163 39.6371 72.0751 67.7568 130.462 156.896 142.476 40.3922 72.0751 67.7568 81.9034 40.3922 73.192 62.7055 137.414 147.097 154.016 31.6829 73.192 62.7055 74.9921 31.6829 83.1311 74.7082 151.052 148.782 145.004 41.5091 83.1311 74.7082 72.1051 41.5091 41.622 76.3443 76.3443 76.6768 156.481 41.622 41.622 76.3443 76.6768 41.622 260.173 126.382 230.097 222.604 115.861 131.801 126.382 69.1643 115.861 69.1643 276.353 242.95 247.234 134.871 133.791 114.236 62.637 270.91 238.994 261.588 136.199 142.562 128.714 72.2344 249.245 235.252 244.395 128.508 128.348 110.279 63.9646 244.066 249.032 238.327 127.336 120.897 124.972 64.5436 241.916 238.937 244.689 117.826 123.169 124.059 62.792 230.251 216.132 227.451 106.581 118.748 114.878 55.0345 210.054 222.115 198.043 105.344 111.503 101.254 51.5463 201.14 219.461 219.969 105.965 98.5509 120.861 53.7978 204.683 202.674 204.79 107.636 102.589 98.5997 52.1671 192.149 192.694 192.292 100.847 102.093 104.075 55.4685 182.949 181.223 185.074 94.3772 90.0557 88.6197 45.379 168.123 160.857 187.69 83.8932 92.8935 92.6038 48.9982 176.008 160.18 150.895 80.7822 75.2298 68.2528 34.895 196.149 190.271 195.379 94.5726 100.778 91.9267 45.8872 190.368 165.628 197.238 84.0958 95.3704 98.3446 48.6853 159.986 136.576 167.038 64.7453 94.9976 67.2836 35.4105 152.014 155.356 143.551 69.9829 64.988 69.2927 29.3348 165.789 166.394 183.112 78.174 87.026 86.0636 40.6481 153.482 162.363 179.23 79.037 78.7632 80.3299 37.5259 166.029 169.081 161.327 84.8204 74.7189 82.0327 41.5111 161.605 151.014 164.711 73.9052 91.3101 87.0478 43.3093 150.432 133.221 142.095 65.6508 70.2953 63.9665 30.5959 80.1364 69.2545 148.995 35.0548 80.1364 69.2545 35.0548 209.665 96.2216 216.144 184.281 99.1252 98.2958 96.2216 46.6966 99.1252 46.6966 232.468 227.438 227.814 108.079 113.443 117.019 51.5992 235.072 215.473 219.301 102.795 119.025 110.42 56.4798 233.477 223.247 222.447 106.743 116.047 105.053 46.3148 238.95 223.969 228.041 121.696 117.43 118.193 60.4286 230.224 217.718 218.199 121.111 121.52 105.776 61.2673 195.243 210.407 208.103 109.551 108.703 111.941 59.8437 207.958 211.264 184.848 116.771 86.5397 98.4659 49.7072 223.619 192.17 217.137 113.496 121.419 112.798 67.0634 192.399 176.04 185.046 95.0388 102.2 79.3717 46.4327 185.217 183.55 174.211 91.8469 90.1987 96.6684 48.6062 189.814 170.645 193.214 86.8463 95.0184 86.8814 43.2407 170.461 180.349 176.95 76.9634 94.796 83.7638 43.6055 170.266 192.2 177.519 79.3974 75.6651 96.5849 33.3579 196.468 188.877 183.596 95.6988 94.6005 95.6152 46.0395 173.909 175.114 186.536 81.5324 101.868 93.2619 49.6593 150.604 167.469 155.486 71.831 72.0407 81.8521 31.8731 174.649 177.324 155.827 85.3735 78.5631 85.6169 39.9579 196.553 163.762 181.071 88.2196 96.0859 91.7075 45.4156 187.075 143.158 172.131 83.3256 100.467 72.0548 42.804 160.01 147.156 164.512 84.2601 86.6085 71.1035 40.5216 145.201 151.545 138.087 77.1091 73.4011 76.0522 43.7386 140.658 137.456 149.433 67.5702 71.7996 75.4928 33.3706 68.8583 61.9637 141.644 34.1997 68.8583 61.9637 34.1997 202.431 88.0591 215.116 166.871 93.6625 117.848 88.0591 52.4286 93.6625 52.4286 214.648 225.157 236.887 119.359 114.371 121.453 65.4195 206.677 216.123 212.642 112.678 100.276 103.703 53.9398 217.011 219.598 219.402 116.503 106.4 112.419 58.7384 207.289 195.03 216.256 102.274 110.611 107.178 57.7648 196.078 188.188 187.396 96.6066 96.6784 87.8518 44.5088 197.708 185.105 196.346 100.856 99.4 100.337 52.0978 194.026 182.716 174.402 94.4933 98.3081 84.7688 48.7587 178.564 195.372 185.859 78.6737 95.7182 97.9472 45.7346 166.859 181.938 188.716 81.0013 82.8461 97.4252 32.939 182.208 164.275 163.008 91.7029 84.0126 84.5132 48.0622 180.349 162.717 177.963 83.7989 98.1953 79.7615 43.6406 184.008 189.909 174.108 103.385 82.154 82.9552 40.1582 190.85 188.852 184.105 112.803 101.854 106.954 63.227 173.663 166.34 158.863 93.1784 88.9953 81.8979 49.5757 168.113 173.136 175.438 93.5816 84.6681 84.4423 43.6026 160.709 182.658 152.202 95.638 83.4453 88.6941 49.979 162.249 179.085 161.47 91.951 77.2641 93.9639 45.659 156.649 163.088 157.928 75.5428 84.9853 85.1208 46.292 149.568 149.568 157.782 59.8328 71.6639 77.9672 29.2508 142.59 136.254 160.192 62.8955 77.9037 71.6007 30.5819 142.319 142.935 133.893 74.4358 64.6861 64.6528 32.3136 150.419 137.506 143.796 69.8862 77.6333 78.2819 42.1222 72.786 59.2239 140.094 27.764 72.786 59.2239 27.764 201.327 78.812 199.975 180.54 90.6703 97.2677 78.812 41.2338 90.6703 41.2338 234.881 228.779 241.874 105.797 122.515 109.305 56.0338 225.367 231.383 243.281 103.445 112.366 119.474 49.7635 218.646 205.637 224.99 103.095 113.001 111.91 53.6811 196.362 194.531 201.24 92.7565 105.645 93.7274 49.4135 187.663 209.818 207.02 91.5818 90.7172 100.804 43.343 173.04 193.667 210.22 84.249 96.946 109.014 48.2388 166.235 182.441 169.731 88.2227 76.0939 84.6535 36.0102 196.012 208.845 183.405 116.699 90.1413 97.7879 52.2126 184.866 199.665 190.9 100.937 105.87 111.057 64.4861 158.763 175.357 172.354 72.5718 78.9952 88.6084 36.4509 171.722 172.444 168.187 78.9178 79.7678 86.7485 36.1208 174.205 181.279 175.459 86.5241 91.9537 85.6952 42.797 152.118 161.935 181.796 76.0493 82.2511 95.5833 43.7272 160.637 157.132 146.391 73.1618 69.8673 66.3513 32.3222 159.527 172.854 189.298 79.5548 90.7701 90.7807 40.8397 152.963 168.104 163.242 87.0199 68.7568 82.0729 38.7151 157.149 176.372 175.884 87.1337 84.2062 86.0314 48.3048 159.061 170.714 162.017 87.5453 72.9432 90.3404 38.8289 168.406 161.654 161.852 89.7352 86.1181 80.3737 48.7164 151.495 164.684 161.774 73.358 82.288 81.2805 41.0188 135.369 164.887 161.17 68.4989 69.2066 83.4035 32.3392 133.471 150.242 147.967 67.6196 66.1625 81.4837 36.1597 67.3082 68.7579 130.688 31.4598 67.3082 68.7579 31.4598 221.087 101.728 212.054 211.326 103.152 102.708 101.728 49.4365 103.152 49.4365 250.273 245.545 234.744 122.982 119.359 108.901 53.2712 242.903 251.182 251.115 127.939 130.914 136.643 69.7105 207.583 208.471 238.462 102.542 111.988 114.538 58.2285 211.897 207.935 208.479 101.775 95.5948 93.9325 44.3139 229.576 234.142 226.329 118.236 116.302 114.003 57.461 206.911 219.423 237.489 109.418 113.274 120.139 60.7749 186.901 195.69 199.435 94.2186 93.6375 99.2835 48.6433 178.293 180.725 182.8 92.1458 93.2635 96.4068 45.5753 178.388 184.008 186.483 98.728 85.0294 84.318 46.5705 181.777 201.94 191.99 102.785 93.3584 99.6899 52.1575 171.924 179.721 193.887 93.5259 88.4188 102.25 50.6276 183.05 164.731 161.996 94.7544 83.5057 77.4706 42.8983 176.068 168.619 168.575 85.8852 99.5444 87.2601 51.8561 175.052 182.453 165.685 83.9701 76.5241 81.3592 34.0291 193.013 191.653 194.08 93.2988 98.5279 101.094 49.941 186.163 175.26 178.692 81.0843 94.485 90.5592 43.3578 180.752 183.462 166.748 89.238 91.6778 84.701 37.7265 164.808 158.98 176.132 83.1688 89.0741 98.7612 51.5115 155.22 135.122 149.475 71.9191 75.734 60.2188 31.6573 171.45 149.95 153.665 91.3261 79.4865 74.9036 40.2617 173.768 156.935 158.366 96.3883 91.9637 75.0462 51.0644 145.184 150.613 155.032 82.622 81.8043 81.8891 45.3239 63.3801 68.7242 124.218 37.2981 63.3801 68.7242 37.2981 224.983 109.598 252.742 252.288 128.214 109.346 109.598 53.7159 128.214 53.7159 235.586 253.968 260.517 122.563 115.385 124.528 55.6303 246.675 262.553 263.394 123.243 120.201 129.44 66.933 239.358 258.834 267.952 105.928 126.474 133.113 56.3097 222.911 248.571 252.345 106.16 112.884 125.721 49.6187 234.242 235.695 240.827 115.906 110.027 122.85 56.5415 230.012 216.609 240.667 110.004 124.215 112.845 59.3642 195.333 208.497 214.251 101.472 105.797 103.764 50.6402 190.99 196.134 199.469 88.5789 89.5361 104.733 50.8315 200.085 214.652 204.962 85.2799 101.454 91.4017 37.7474 204.099 227.366 221.84 99.1548 98.6312 123.25 47.5324 183.958 189.902 223.109 86.1947 105.468 104.116 51.6224 147.52 167.492 178.703 69.9763 78.49 85.7863 34.5723 158.191 162.436 157.052 82.734 69.0303 81.7059 35.404 184.713 173.129 153.453 98.4827 89.1606 80.7301 47.3301 179.76 177.985 175.001 98.3541 95.5525 92.3989 51.1526 159.277 167.379 174.073 94.1759 84.2071 85.5861 47.2015 162.128 153.789 152.987 94.2242 75.0701 81.7926 46.9744 160.799 135.188 154.644 75.8111 87.0582 71.9963 47.2497 147.92 120.206 150.34 63.2033 73.7413 63.1918 28.5614 140.582 130.231 141.975 58.6237 74.1789 57.0147 34.6419 139.63 150.274 161.456 60.547 66.4027 73.2164 23.9818 134.065 148.329 148.33 67.9913 73.2273 77.0579 36.5652 60.8375 71.2711 142.809 31.4261 60.8375 71.2711 31.4261 287.822 142.69 143.395 142.69 74.4982 143.395 142.69 74.4982 74.4982 74.4982 288.326 131.404 145.132 131.404 145.132 68.8973 68.8973 284.672 139.31 143.193 139.31 143.193 62.5071 62.5071 280.94 152.905 141.478 152.905 141.478 76.8031 76.8031 270.262 142.411 139.461 142.411 139.461 76.1022 76.1022 247.252 119.79 130.8 119.79 130.8 66.3089 66.3089 224.905 106.605 116.452 106.605 116.452 53.4808 53.4808 218.387 107.025 108.453 107.025 108.453 53.1238 53.1238 213.442 107.555 109.933 107.555 109.933 53.9012 53.9012 226.717 129.372 103.508 129.372 103.508 53.6543 53.6543 240.849 128.211 123.208 128.211 123.208 75.7174 75.7174 217.854 103.708 117.641 103.708 117.641 52.4937 52.4937 188.235 97.5159 100.213 97.5159 100.213 51.214 51.214 152.314 79.7019 88.0215 79.7019 88.0215 46.3019 46.3019 143.741 74.6462 64.2928 74.6462 64.2928 33.4 33.4 169.314 79.6309 79.4484 79.6309 79.4484 41.2462 41.2462 167.783 73.2028 89.8658 73.2028 89.8658 38.3846 38.3846 145.502 59.5648 77.9169 59.5648 77.9169 34.8182 34.8182 144.185 59.377 67.5856 59.377 67.5856 24.7466 24.7466 144.395 57.0032 76.5991 57.0032 76.5991 34.6304 34.6304 162.85 71.6074 67.7959 71.6074 67.7959 22.3728 22.3728 170.156 89.7274 95.0536 89.7274 95.0536 49.2346 49.2346 157.074 80.3377 75.1027 80.3377 75.1027 40.4928 40.4928 81.9718 39.845 81.9718 39.845 81.9718 39.845 39.845 157.987 167.249 87.4257 305.615 167.249 286.358 284.816 144.644 87.4257 157.987 167.249 87.4257 144.644 87.4257 129.851 138.366 282.235 271.333 263.667 70.561 129.851 138.366 141.715 70.561 132.711 143.869 280.375 267.422 277.298 59.2903 132.711 143.869 129.618 59.2903 143.122 136.506 280.5 263.859 264.27 73.4203 143.122 136.506 137.804 73.4203 136.184 143.994 277.817 252.914 277.298 69.7017 136.184 143.994 126.055 69.7017 133.992 133.822 288.35 258.081 246.519 66.4824 133.992 133.822 126.859 66.4824 141.574 154.527 287.971 265.244 269.434 67.5094 141.574 154.527 131.222 67.5094 131.443 133.444 245.791 236.153 251.647 74.0645 131.443 133.444 134.021 74.0645 105.48 112.347 212.024 200.655 208.931 57.3789 105.48 112.347 102.132 57.3789 112.102 99.6768 209.829 209.149 208.29 48.101 112.102 99.6768 98.5234 48.101 110.426 110.152 203.252 201.727 207.382 64.0009 110.426 110.152 110.626 64.0009 84.2497 93.1002 188.504 172.822 184.558 46.4247 84.2497 93.1002 91.1014 46.4247 86.4563 95.4035 192.651 170.686 183.932 37.825 86.4563 95.4035 81.7203 37.825 107.329 97.2479 191.084 202.555 180.73 48.6313 107.329 97.2479 88.9661 48.6313 95.9625 93.8362 174.15 197.538 196.316 58.6981 95.9625 93.8362 113.589 58.6981 94.1105 80.3138 181.154 200.383 156.777 37.2644 94.1105 80.3138 83.9494 37.2644 96.5924 100.84 189.279 191.833 205.335 56.8461 96.5924 100.84 116.433 56.8461 75.2299 88.4384 157.135 157.261 161.086 39.7462 75.2299 88.4384 75.3994 39.7462 81.7326 68.6962 152.148 169.348 155.998 35.4836 81.7326 68.6962 81.8616 35.4836 73.6136 83.4517 152.021 148.059 171.13 46.249 73.6136 83.4517 87.4863 46.249 58.3872 68.5688 144.702 139.596 141.226 27.3646 58.3872 68.5688 60.5724 27.3646 64.2216 76.1332 136.751 151.922 152.773 31.0226 64.2216 76.1332 79.0234 31.0226 67.9214 60.618 139.9 152.702 139.454 33.199 67.9214 60.618 72.8984 33.199 34.7224 79.2818 79.2818 79.8039 170.529 34.7224 34.7224 79.2818 79.8039 34.7224 242.869 117.567 239.741 215.36 106.743 128.372 117.567 57.218 106.743 57.218 258.729 265.871 246.164 141.482 125.301 132.997 71.1536 261.193 266.989 258.639 134.711 133.428 132.873 70.3281 261.068 247.471 258.692 120.737 127.764 134.116 64.3833 246.001 233.985 247.42 116.73 133.304 113.355 56.3534 227.604 233.202 220.695 124.09 112.697 120.63 60.3765 233.11 209.362 213.65 123.67 114.907 112.573 63.7131 214.786 195.898 207.718 104.71 118.203 96.7894 59.9568 205.196 205.298 200.663 95.1755 96.5835 99.1083 44.7531 205.843 194.408 210.739 97.0474 108.613 106.19 50.4224 188.689 184.672 191.566 91.3018 97.2306 88.2175 46.625 179.986 191.54 195.198 88.5721 91.4579 96.4545 44.6768 172.01 177.728 184.812 84.2302 88.5285 95.0858 43.8953 185.962 186.094 162.972 95.2258 83.482 82.6421 40.3349 178.943 202.346 200.96 101.576 102.48 103.452 54.8909 180.959 198.648 173.873 106.272 76.4636 98.8936 46.6851 177.142 174.013 186.692 95.2403 104.495 99.7548 59.5871 159.949 171.307 158.988 82.0311 72.6472 74.2584 35.6532 174.98 195.949 176.195 87.6153 87.3017 97.0483 46.3779 160.335 178.195 187.211 74.4451 87.6785 98.9002 41.2373 149.297 156.958 157.932 81.2086 72.657 79.2947 33.2078 155.476 155.792 144.14 87.7002 76.64 77.6634 48.0008 170.083 157.869 160.733 84.781 78.8361 78.1284 39.6994 91.247 79.7402 153.097 45.0816 91.247 79.7402 45.0816 218.656 97.7923 195.951 178.823 85.1555 111.369 97.7923 49.525 85.1555 49.525 246.074 219.678 224.612 124.389 120.863 110.796 61.8439 256.138 226.276 232.655 132.278 125.211 108.882 62.5453 245.044 227.242 227.245 126.734 130.927 117.394 69.7323 222.115 222.27 222.81 117.255 114.116 109.848 57.0016 206.742 208.584 209.693 109.113 107.998 112.423 60.253 188.258 182.544 196.373 85.6921 98.7432 96.1618 48.8596 193.594 190.721 186.066 91.1878 89.5147 86.3819 36.8325 206.206 210.014 211.65 110.123 104.08 104.339 54.3552 196.462 183.218 198.76 97.3602 102.126 105.675 55.7677 198.076 183.875 178.29 93.3702 94.3354 77.5429 41.5925 200.024 199.519 202.664 102.968 103.74 106.332 51.7777 175.773 174.121 188.283 93.4977 96.2837 93.1863 51.1905 177.969 168.915 158.966 90.8683 79.4896 80.9345 42.3072 195.889 181.255 193.669 100.77 98.4799 87.9806 48.5611 179.606 166.908 172.419 92.3762 97.4095 93.2741 52.2086 168.537 143.844 163.356 78.7728 82.1965 73.634 40.1676 175.234 159.574 159.037 89.2756 86.3404 70.2103 38.6052 188.426 189.44 172.086 108.333 88.8934 89.3637 50.6704 184.807 193.485 175.997 103.75 99.5322 100.076 57.6629 152.775 155.444 173.084 75.7494 85.2746 93.4087 46.0869 149.398 135.975 142.14 68.0915 67.5002 62.035 29.6625 143.748 153.621 160.972 73.0877 81.8973 73.9402 38.429 61.8502 79.6807 139.732 34.6587 61.8502 79.6807 34.6587 184.78 81.0307 188.642 157.791 73.2087 84.5824 81.0307 35.6305 73.2087 35.6305 211.193 224.372 227.86 95.2885 103.749 115.433 48.9519 203.761 215.921 222.378 93.9986 107.444 108.939 46.3366 205.011 216.06 211.517 100.508 96.3174 106.982 47.6619 210.389 208.621 209.854 105.016 108.694 109.077 52.8462 199.325 195.553 207.24 99.4718 101.695 99.5437 52.1696 194.181 185.643 205.44 96.8516 97.6297 96.0094 47.3022 204.122 177.545 195.004 99.533 96.5516 89.6332 49.5494 204.204 179.204 180.13 99.8907 107.57 87.9123 49.9836 180.588 169.786 198.795 85.8574 96.6335 91.2913 49.9071 182.878 176.696 172.609 90.505 83.9544 78.4947 35.9504 190.923 189.354 186.083 96.5505 98.9233 98.2017 54.5547 171.475 168.304 182.762 80.623 91.9995 91.1526 41.9958 174.665 154.116 176.491 78.0468 79.476 77.1512 38.6272 170.198 167.961 171.562 80.4851 95.1889 76.9647 39.4196 156.168 154.504 170.128 74.5318 75.009 90.9959 41.0655 153.856 131.014 141.434 65.0714 81.1592 63.508 33.4663 155.889 140.314 151.368 70.2984 72.6968 67.5064 31.6051 159.657 152.622 155.893 81.1065 83.1921 72.8076 38.6934 164.275 168.406 157.282 89.7349 76.4653 79.8148 42.4131 162.45 157.831 160.888 79.6943 87.8095 88.5909 47.3218 153.715 134.754 149.921 67.8837 74.6402 69.2399 32.3725 156.957 146.384 150.529 80.5332 79.0747 65.5139 35.5112 77.8821 80.8704 155.827 45.022 77.8821 80.8704 45.022 200.871 76.7606 222.439 166.251 89.87 104.059 76.7606 37.5782 89.87 37.5782 239.044 256.375 259.517 129.084 124.111 132.569 66.4813 230.133 236.887 233.884 121.923 114.934 123.807 62.6026 216.36 220.592 224.683 115.552 115.2 113.08 59.3203 206.706 213.728 210.031 103.605 101.161 107.512 56.2312 213.356 207.422 216.869 96.0813 105.545 106.216 47.3742 206.263 186.284 228.347 88.7909 107.811 101.206 48.7072 171.013 170.695 199.228 78.0125 98.4524 85.0779 40.0838 174.721 165.46 176.753 79.3129 72.5603 85.6169 37.9287 190.816 163.588 185.533 83.9285 102.161 79.8431 41.3842 175.814 165.183 181.737 86.1913 88.6547 83.7452 42.5443 177.923 171.202 173.405 92.8038 87.1598 81.4381 43.647 187.778 175.976 175.447 87.6807 90.763 89.7642 49.1568 173.389 166.252 181.408 76.0691 97.0152 86.2122 38.5239 171.492 178.558 174.814 87.4756 76.3734 80.0402 37.5452 155.393 179.686 191.46 79.9721 95.1187 98.5173 49.9304 138.946 171.022 154.527 65.943 60.2745 81.1689 30.0417 151.373 161.53 174.217 70.0156 78.6713 89.8527 35.9014 153.518 153.155 156.666 71.516 72.7013 71.6769 34.1143 153.895 161.972 174.424 78.6709 80.8166 81.4784 37.4017 148.359 158.261 178.653 78.1366 73.0784 80.4939 41.2691 146.735 144.25 156.864 66.8702 75.2803 77.7668 36.8674 149.4 128.413 152.647 65.8511 71.4548 66.4831 30.0028 77.9447 61.9304 139.43 35.8484 77.9447 61.9304 35.8484 224.897 89.4909 234.016 204.654 108.174 118.379 89.4909 52.2918 108.174 52.2918 254.357 240.314 249.387 127.291 135.406 125.842 66.0873 228.433 238.396 243.88 114.964 118.95 114.472 61.204 218.353 238.47 243.144 105.041 109.483 123.924 53.76 220.195 226.873 243.708 110.122 108.87 114.546 51.281 231.86 229.677 232.789 111.341 111.324 112.327 58.8414 221.312 217.501 242.797 97.4932 120.536 117.35 52.4991 204.969 186.544 216.723 92.6824 100.776 100.151 44.9941 187.565 188.558 198.664 86.1471 104.193 86.3929 47.6883 176.454 194.465 208.48 79.6597 83.3718 102.165 38.4588 179.327 183.937 202.857 78.992 93.082 92.2997 41.2009 170.93 176.162 174.984 78.3986 86.2453 91.6368 37.7911 169.077 165.84 173.766 88.2957 84.6844 84.5251 40.6074 182.833 165.64 178.12 90.1833 84.3924 81.3146 47.6883 194.782 177.312 178.166 91.0819 98.4403 84.3256 42.495 190.595 181.12 187.384 99.7142 96.3417 92.9868 48.5869 189.798 170.18 184.692 105.079 94.2529 88.1329 51.1272 179.51 159.418 160.945 91.5139 95.5455 82.0469 53.9513 177.572 166.628 158.211 81.6393 83.9645 77.3711 37.5626 199.182 168.018 185.927 83.3014 93.6077 89.2565 44.0766 187.158 162.082 177.928 80.1241 105.575 78.7617 39.2247 162.776 156.463 159.524 77.3797 81.5838 83.3203 40.8994 142.677 128.636 144.101 62.5624 81.1923 73.1425 36.4804 61.4849 55.4934 140.97 26.082 61.4849 55.4934 26.082 229.144 115.163 260.064 256.059 124.074 115.637 115.163 55.882 124.074 55.882 238.911 269.944 262.543 113.023 113.981 135.99 59.7548 258.591 268.793 272.793 123.432 124.93 133.954 53.2678 268.499 261.464 270.107 133.429 133.661 134.84 70.1642 256.302 244.601 278.702 116.75 134.837 126.624 63.2652 243.725 245.799 236.151 118.336 121.465 117.977 53.4852 238.208 238.308 240.47 120.008 122.261 127.822 64.8508 210.418 205.223 227.19 93.8616 115.947 110.487 55.157 219.579 208.297 203.909 102.411 94.4711 94.7367 38.7046 234.883 212.15 219.173 114.805 125.108 113.56 63.7063 198.514 217.583 206.833 104.944 109.775 98.5899 51.0988 177.82 211.91 204.62 97.7634 88.7382 118.993 53.8457 182.809 168.263 194.614 77.544 89.0815 92.917 43.9177 173.454 148.069 179.098 75.4569 93.728 75.3458 33.6263 170.768 155.326 159.21 86.2305 79.726 72.7234 41.8306 181.481 171.089 193.029 81.4056 91.0424 82.6021 44.3999 155.838 159.681 182.5 65.1013 90.4387 88.4868 37.0057 139.646 153.842 166.364 67.9041 65.3997 71.1943 28.0956 166.566 169.796 171.004 84.9884 74.2463 82.6475 39.8085 164.673 172.109 175.44 84.7168 92.3198 87.1486 45.1799 150.293 173.2 156.65 81.9579 72.353 84.9601 39.537 140.848 159.512 157.643 79.0831 77.9399 88.24 42.4209 142.394 142.81 139.691 66.0735 62.9086 71.2721 36.6622 79.4851 71.5382 151.917 29.4114 79.4851 71.5382 29.4114 289.458 140.896 144.427 140.896 68.1917 144.427 140.896 68.1917 68.1917 68.1917 296.425 156.921 148.562 156.921 148.562 76.2351 76.2351 284.308 145.361 147.863 145.361 147.863 80.686 80.686 280.31 128.034 136.445 128.034 136.445 64.6753 64.6753 258.551 127.851 143.865 127.851 143.865 63.3591 63.3591 232.895 127.462 114.686 127.462 114.686 64.4915 64.4915 229.452 118.301 118.21 118.301 118.21 62.971 62.971 220.681 111.362 111.242 111.362 111.242 55.3296 55.3296 203.503 105.886 109.438 105.886 109.438 56.0321 56.0321 191.123 97.3452 94.0652 97.3452 94.0652 49.8541 49.8541 212.939 112.638 97.0577 112.638 97.0577 47.4911 47.4911 221.414 114.147 115.882 114.147 115.882 65.1473 65.1473 190.902 90.7189 105.532 90.7189 105.532 48.9993 48.9993 164.854 72.6124 85.3698 72.6124 85.3698 41.7196 41.7196 181.471 69.095 79.4844 69.095 79.4844 30.8928 30.8928 194.048 89.6834 101.987 89.6834 101.987 38.2022 38.2022 193.025 94.5799 92.0611 94.5799 92.0611 51.4812 51.4812 197.722 85.9377 100.964 85.9377 100.964 43.0987 43.0987 179.878 84.8078 96.7582 84.8078 96.7582 42.839 42.839 167.417 87.3919 83.1198 87.3919 83.1198 41.9688 41.9688 164 91.2421 84.297 91.2421 84.297 45.4231 45.4231 156.485 80.429 79.7026 80.429 79.7026 45.819 45.819 149.214 76.7367 76.782 76.7367 76.782 34.6099 34.6099 72.4322 42.1268 72.4322 42.1268 72.4322 42.1268 42.1268 147.628 167.06 79.823 312.3 167.06 262.125 279.144 140.172 79.823 147.628 167.06 79.823 140.172 79.823 152.384 145.24 290.951 269.631 274.784 67.8048 152.384 145.24 121.952 67.8048 147.665 145.711 276.024 274.146 284.773 84.5789 147.665 145.711 147.679 84.5789 137.378 130.313 275.258 277.71 255.632 63.0856 137.378 130.313 126.467 63.0856 141.633 144.944 276.702 270.903 289.39 74.2927 141.633 144.944 151.243 74.2927 154.358 131.758 277.185 257.872 249.764 67.3398 154.358 131.758 119.66 67.3398 146.397 145.427 250.53 255.837 252.127 87.018 146.397 145.427 138.212 87.018 114.348 105.104 233.431 224.424 215.096 59.3793 114.348 105.104 117.625 59.3793 106.544 128.327 243.7 216.565 233.741 54.9685 106.544 128.327 106.799 54.9685 97.7267 115.373 213.638 206.523 223.105 51.5758 97.7267 115.373 109.766 51.5758 92.8264 98.2653 183.294 190.213 201.713 46.1509 92.8264 98.2653 96.7565 46.1509 104.254 85.0287 183.944 195.668 180.546 46.6755 104.254 85.0287 93.4567 46.6755 106.195 98.9158 189.966 193.975 182.951 57.5785 106.195 98.9158 102.212 57.5785 83.7547 91.0507 168.051 174.491 173.555 48.6166 83.7547 91.0507 91.7637 48.6166 78.1875 77.0005 170.676 155.555 167.85 35.138 78.1875 77.0005 82.7271 35.138 87.0437 93.6756 178.857 161.73 167.966 43.0494 87.0437 93.6756 72.8279 43.0494 92.6865 85.1813 173.451 174.588 183.27 43.9943 92.6865 85.1813 88.9022 43.9943 81.9048 88.2699 154.066 159.823 174.918 48.6922 81.9048 88.2699 85.6862 48.6922 70.4154 65.7959 134.235 157.78 146.385 33.2126 70.4154 65.7959 74.1364 33.2126 78.407 68.4393 157.59 164.297 160.697 37.2028 78.407 68.4393 83.6439 37.2028 86.3148 89.1511 170.565 154.403 181.738 41.2042 86.3148 89.1511 80.6534 41.2042 72.5295 81.4139 155.895 140.305 139.033 45.1106 72.5295 81.4139 73.7497 45.1106 71.9784 74.4807 165.499 157.281 153.018 27.419 71.9784 74.4807 66.5557 27.419 44.5594 91.0181 91.0181 90.7249 187.548 44.5594 44.5594 91.0181 90.7249 44.5594 241.628 112.084 221.784 215.469 108.617 114.497 112.084 60.3494 108.617 60.3494 268.607 238.933 248.819 117.248 129.544 113.167 54.1476 264.381 250.342 268.485 126.481 139.062 125.766 63.1001 269.764 258.641 247.395 140.332 125.319 124.576 63.3811 262.451 234.131 270.501 129.271 144.445 134.065 76.9506 224.706 201.143 210.574 103.514 118.006 100.066 52.3203 216.692 212.006 202.612 109.44 106.7 101.077 51.1938 215.406 212.483 207.358 110.076 109.992 110.928 58.2461 213.146 206.104 200.24 110.021 105.414 101.555 51.8304 211.18 207.897 196.145 108.796 107.733 104.549 58.1904 198.965 202.092 205.485 97.3868 103.448 103.348 50.6056 179.553 188.47 190.393 91.4143 95.5174 98.7438 46.7812 166.539 170.056 164.361 87.7802 84.0351 89.7263 44.6332 173.353 177.837 164.967 90.7361 82.5043 80.3294 43.1471 165.14 172.487 187.652 77.3675 90.8491 97.5078 47.589 172.38 161.916 172.879 74.6864 74.2909 74.9794 29.7785 184.737 171.666 190.08 81.9019 98.0891 86.9368 44.9079 167.236 163.876 177.65 77.9178 86.6478 84.7292 36.994 172.846 167.457 154.205 87.3649 80.5887 79.1469 40.9238 184.844 166.947 181.407 85.8904 92.2576 88.3104 46.4411 150.206 145.114 182.186 68.0884 92.5864 78.637 39.4492 136.156 149.082 147.408 67.7759 57.6193 66.4768 28.6392 175.067 155.962 158.578 85.3022 78.5368 82.6051 39.1367 96.53 73.357 151.303 46.1655 96.53 73.357 46.1655 222.659 103.385 207.484 201.645 93.6675 107.287 103.385 48.2673 93.6675 48.2673 248.698 237.59 229.417 121.685 119.274 113.817 59.0194 251.5 233.624 229.049 123.861 129.423 123.773 62.6657 248.132 222.813 221.554 118.31 122.077 109.85 61.195 218.623 210.233 234.288 104.86 126.055 112.962 57.1147 188.48 197.482 196.982 97.6292 92.5679 97.2709 47.7455 193.278 199.896 210.812 102.566 95.9122 100.211 49.8837 192.192 206.995 186.818 102.406 97.3657 99.6844 52.6822 183.238 200.396 204.064 96.0827 94.8266 107.311 49.7243 190.449 193.832 180.349 99.1013 88.4119 93.0849 46.3584 196.913 197.078 206.85 104.706 102.037 100.747 52.7429 175.201 191.428 171.902 97.0558 94.8756 96.3312 51.9626 162.789 173.128 184.364 82.2755 80.3257 95.0968 45.0932 179.267 183.719 173.507 87.1011 82.4632 78.0311 37.1823 195.391 184.833 187.27 95.1198 96.8034 105.688 49.9188 190.578 168.866 173.886 87.2298 98.5876 79.1445 45.2009 182.993 178.549 171.453 89.7641 91.9905 89.7217 42.0289 164.619 171.549 160.4 85.9583 91.0024 88.8269 47.7352 162.765 158.643 164.154 80.0924 73.6165 82.7218 38.2231 178.748 155.597 156.845 81.057 89.1489 75.9215 41.8693 179.388 159.781 169.351 77.0254 89.5993 79.6755 39.1877 169.83 167.137 159.13 81.306 89.7887 80.1054 37.8376 134.814 147.083 146.411 70.6599 80.0413 87.0319 43.4683 54.7727 60.0516 120.009 27.1916 54.7727 60.0516 27.1916 208.403 98.2605 197.009 188.964 84.5826 100.197 98.2605 45.4002 84.5826 45.4002 209.769 225.865 214.464 115.905 110.142 112.426 54.7972 199.103 217.973 210.089 109.763 99.6263 113.438 61.1073 207.709 205.312 212.8 104.503 99.477 104.535 48.6554 212.646 208.473 197.566 105.373 108.232 100.777 55.8476 219.314 217.127 221.476 99.8529 104.414 107.696 49.5254 204.352 214.802 215.073 97.3297 114.9 109.431 50.3275 198.689 197.589 201.064 104.589 89.4519 105.371 47.0022 201.175 199.721 201.83 104.313 109.238 92.2182 57.5866 196.751 201.618 202.184 94.7305 91.9372 107.503 46.7264 181.84 181.996 194.748 92.3726 104.813 94.1144 48.004 181.065 179.491 162.04 94.3723 77.0267 87.8814 44.3686 195.082 190.95 186.33 90.8524 104.039 91.6099 50.0037 181.51 193.938 193.987 96.6181 91.0433 99.34 40.8487 165.765 173.729 169.576 89.7129 90.4665 94.5976 55.7694 154.761 157.057 159.344 81.6364 75.2988 79.1318 33.9436 148.86 161.787 158.022 88.7845 79.4627 77.9257 47.6928 159.935 166.947 143.721 85.5904 69.3976 83.8616 41.0917 158.233 160.553 163.667 78.5509 90.5375 83.0858 44.4987 147.447 149.764 148.981 74.5399 67.6958 77.4671 34.0522 149.093 152.978 157.465 82.7555 79.7515 72.2969 40.4877 135.711 165.696 144.758 85.8313 69.3415 80.6806 42.2677 131.606 159.972 138.47 76.4236 66.37 85.0156 43.5635 65.2363 74.9565 155.914 32.8601 65.2363 74.9565 32.8601 195.025 90.7036 203.33 182.608 76.3815 96.8116 90.7036 39.1824 76.3815 39.1824 214.784 237.026 221.955 109.96 104.321 126.948 57.6292 223.786 221.68 234.932 108.211 110.462 110.077 52.331 202.657 214.121 217.726 100.809 113.323 111.602 55.8795 206.395 213.173 200.362 103.1 89.3333 102.519 44.9294 217.235 237.794 229.175 117.275 117.062 110.654 58.171 211.785 241.291 220.427 117.472 100.173 127.14 59.1035 204.204 205.287 221.622 93.0002 111.612 114.151 58.3686 202.839 196.826 188.834 95.4084 92.5921 91.1361 34.6316 200.182 203.681 200.044 106.887 110.247 105.69 60.7768 174.948 189.958 189.727 89.6232 89.9347 97.9915 46.1104 167.304 177.65 181.933 85.119 85.0132 91.9669 43.5128 185.235 180.879 163.929 100.097 82.2909 85.6832 41.6062 182.053 189.969 176.246 97.3195 102.944 95.1953 58.4912 163.154 187.717 179.019 84.0165 79.1091 94.7735 38.8283 162.604 166.301 175.573 75.4211 84.0449 92.943 45.1883 152.882 157.722 163.736 73.0027 78.5593 73.3584 30.2328 147.453 169.353 151.08 81.357 74.323 84.3641 42.7699 154.415 177.935 169.408 82.002 73.1296 84.989 38.5871 158.999 191.105 156.648 75.2241 81.2857 92.946 43.4149 153.13 177.256 187.623 70.2221 77.7134 98.1591 31.8092 147.516 165.261 147.322 79.8649 75.4162 79.0973 38.4129 162.777 163.663 158.882 83.5484 72.0996 86.164 41.452 90.6776 77.4993 172.377 42.0964 90.6776 77.4993 42.0964 209.537 91.9041 220.026 205.974 96.4803 106.518 91.9041 37.1991 96.4803 37.1991 242.103 252.954 229.091 127.066 117.633 123.545 69.3191 228.872 248.629 273.141 113.469 124.469 129.409 57.7464 215.431 248.382 216.158 113.312 104.403 119.22 55.7228 223.141 249.624 249.683 110.072 111.028 129.162 57.5894 232.367 245.909 238.966 120.52 112.113 120.462 52.4827 230.264 242.019 245.792 123.819 120.254 125.447 68.0369 206.251 228.843 221.569 112.286 110.01 116.572 55.7819 186.038 218.585 206.336 101.418 96.2415 112.271 56.5046 189.588 216.872 196.563 96.7941 89.7965 106.314 44.913 196.712 193.904 206.406 100.335 99.7919 110.558 51.8811 178.558 172.587 198.749 92.5311 96.9199 83.3467 48.4541 154.941 186.047 174.291 80.7811 81.6383 89.2408 44.077 173.212 190.646 178.782 92.6494 73.3024 96.8058 36.7041 191.438 188.238 179.56 103.7 99.9099 93.8407 55.9453 176.705 190.956 185.275 90.8804 91.5283 94.3972 47.7548 161.933 175.457 190.464 84.7198 85.1765 96.5586 43.1256 173.035 159.738 157.211 87.9961 76.7569 78.8983 41.5942 171.641 177.511 185.17 95.933 96.2779 80.8397 46.4019 185.272 195.837 166.549 115.881 75.3628 96.671 49.5311 181.815 175.369 183.492 107.034 109.909 99.166 66.3499 158.688 147.162 138.919 85.3964 71.9058 76.2034 40.6844 168.482 156.435 161.282 80.1149 86.7824 70.9584 44.712 81.6992 85.4767 172.093 35.4029 81.6992 85.4767 35.4029 225.528 114.07 258.539 257.701 131.985 113.507 114.07 59.2812 131.985 59.2812 260.13 265.392 250.723 125.889 111.458 126.553 54.2263 260.427 274.106 290.264 135.159 148.672 138.839 71.6622 250.41 287.345 244.062 135.07 111.755 135.267 63.4973 265.508 270.252 285.264 139.552 138.655 152.078 71.5723 252.391 230.822 253.301 125.389 126.853 118.174 67.9797 237.097 229.351 241.547 118.2 125.538 112.649 57.4098 221.654 225.876 226.005 116.557 111.559 116.703 60.7901 216.862 214.785 212.989 117.168 110.095 109.173 55.7665 213.381 213.856 198.495 120.078 106.767 105.612 61.4014 208.443 193.87 228.034 93.5691 106.614 108.243 58.6766 194.482 187.324 210.881 80.0564 101.829 85.6269 34.8925 198.132 205.449 194.753 105.265 92.6525 101.697 45.1638 185.129 190.239 201.925 97.9971 105.479 103.752 60.1017 173.397 196.914 172.645 84.5379 79.6499 86.487 37.8954 199.035 204.44 196.92 100.075 93.7469 110.427 46.6424 185.741 189.182 185.551 90.7371 105.288 94.0129 53.433 169.346 183.526 178.469 71.7419 80.4537 95.1694 37.3041 180.078 176.648 189.872 81.5777 88.8923 88.357 34.4378 164.769 159.981 181.201 79.956 91.1861 88.2909 47.1399 140.596 141.093 147.848 68.3351 73.5825 71.69 32.8161 141.512 137.821 151.417 61.7654 67.0131 69.4026 35.519 164.893 148.798 166.471 76.3202 74.4991 68.4185 26.2464 90.3936 80.3791 178.29 50.0738 90.3936 80.3791 50.0738 282.896 143.631 145.031 143.631 72.7043 145.031 143.631 72.7043 72.7043 72.7043 280.857 139.504 139.265 139.504 139.265 72.327 72.327 273.899 138.947 141.591 138.947 141.591 67.1767 67.1767 278.917 152.276 132.307 152.276 132.307 71.7698 71.7698 273.057 130.7 146.609 130.7 146.609 80.5058 80.5058 242.457 105.433 126.448 105.433 126.448 50.1942 50.1942 230.455 111.152 116.009 111.152 116.009 55.2387 55.2387 217.34 109.319 114.446 109.319 114.446 55.9129 55.9129 194.622 97.6173 102.894 97.6173 102.894 53.4062 53.4062 213.149 93.7777 91.7285 93.7777 91.7285 44.211 44.211 230.472 100.301 121.42 100.301 121.42 49.5666 49.5666 211.152 107.267 109.052 107.267 109.052 50.7343 50.7343 198.546 100.183 102.101 100.183 102.101 56.533 56.533 189.441 92.2419 96.4454 92.2419 96.4454 43.6503 43.6503 196.168 112.376 92.9953 112.376 92.9953 48.5916 48.5916 183.437 104.364 103.173 104.364 103.173 63.7846 63.7846 178.279 98.4452 80.2634 98.4452 80.2634 40.5799 40.5799 198.995 111.785 98.0153 111.785 98.0153 57.8653 57.8653 190.995 95.0702 100.98 95.0702 100.98 53.9192 53.9192 164.28 80.0249 90.0153 80.0249 90.0153 41.151 41.151 158.669 72.7575 74.2652 72.7575 74.2652 38.8739 38.8739 176.376 76.0557 84.4041 76.0557 84.4041 33.8836 33.8836 179.868 72.4775 91.972 72.4775 91.972 42.1721 42.1721 87.8964 30.3054 87.8964 30.3054 87.8964 30.3054 30.3054 164.672 170.88 87.2373 319.323 170.88 291.803 286.497 138.972 87.2373 164.672 170.88 87.2373 138.972 87.2373 138.567 148.443 284.859 289.926 292.974 77.435 138.567 148.443 152.832 77.435 128.36 136.416 266.128 266.259 289.311 61.1321 128.36 136.416 137.094 61.1321 137.879 129.712 272.182 267.312 247.5 67.2277 137.879 129.712 129.165 67.2277 135.07 142.469 270.086 268.25 268.17 70.6515 135.07 142.469 138.146 70.6515 122.827 127.617 249.744 244.019 244.999 64.4183 122.827 127.617 130.104 64.4183 104.133 122.127 225.905 211.385 228.875 58.4085 104.133 122.127 113.915 58.4085 119.083 103.778 237.88 224.412 196.516 45.7244 119.083 103.778 97.4702 45.7244 137.156 134.101 251.14 240.281 247.2 73.3584 137.156 134.101 126.942 73.3584 115.911 117.039 218.566 218.296 222.379 63.7971 115.911 117.039 113.339 63.7971 90.4676 101.527 192.112 192.046 195.997 52.1144 90.4676 101.527 104.956 52.1144 79.6905 90.5847 191.813 167.829 190.817 38.3532 79.6905 90.5847 87.0894 38.3532 83.7714 101.228 191.038 162.531 186.841 41.3373 83.7714 101.228 80.7393 41.3373 84.2966 89.8094 175.77 166.914 178.898 42.4341 84.2966 89.8094 81.7913 42.4341 92.4886 85.9604 195.311 180.261 168.593 41.8625 92.4886 85.9604 85.1225 41.8625 91.8132 109.351 196.157 189.507 196.88 50.6261 91.8132 109.351 95.1385 50.6261 80.7647 86.8062 176.426 183.6 178.024 41.187 80.7647 86.8062 94.3683 41.187 72.1609 89.6198 168.543 161.48 191.206 39.5777 72.1609 89.6198 89.2314 39.5777 63.8198 78.9231 167.761 149.301 162.969 32.5833 63.8198 78.9231 72.2482 32.5833 79.1834 88.8378 192.512 178.137 176.709 31.2365 79.1834 88.8378 77.053 31.2365 84.2502 103.674 177.652 166.368 205.18 47.9469 84.2502 103.674 101.084 47.9469 83.365 73.9779 162.489 151.745 147.938 36.3033 83.365 73.9779 65.2835 36.3033 93.5204 88.5113 166.395 183.285 163.899 47.0617 93.5204 88.5113 86.4618 47.0617 46.4587 77.884 77.884 96.8232 164.163 46.4587 46.4587 77.884 96.8232 46.4587 260.148 115.617 242.504 226.081 106.852 127.131 115.617 51.7344 106.852 51.7344 297.426 278.371 247.328 151.359 144.531 135.652 75.3967 270.683 265.539 276.229 137.9 152.895 142.72 75.9621 243.488 259.255 229.667 129.432 117.788 122.819 61.9376 243.083 246.943 250.963 133.18 125.701 136.435 67.4947 224.13 212.043 222.297 121.192 117.382 110.508 65.6855 199.486 197.964 212.332 107.252 106.748 101.535 55.5062 205.837 195.115 194.801 105.329 92.7383 96.4293 51.7458 218.438 190.281 212.944 103.126 113.098 98.6856 53.5834 199.81 193.732 196.445 102.384 105.34 91.5957 49.5422 194.703 193.785 184.467 101.578 94.4705 102.136 52.8419 185.845 166.284 194.195 88.1382 100.232 91.6492 48.7362 174.702 159.273 172.791 78.7592 85.613 74.6345 39.402 171.722 174.783 177.829 82.6172 89.0889 84.6381 39.3572 170.162 188.044 164.782 87.7724 82.6329 90.1446 43.26 178.748 201.042 176.462 97.6936 87.5295 97.8991 44.5124 192.805 196.064 198.848 102.835 91.2182 103.143 53.1812 185.632 167.979 192.051 89.3187 101.586 92.921 49.6538 171.917 168.154 154.333 85.4814 84.0454 75.0583 39.6649 189.377 196.645 192.056 98.9537 87.8714 93.0961 45.8165 175.466 184.48 186.195 82.1173 101.505 103.549 53.1372 149.348 156.904 172.111 68.3802 73.9603 80.9312 28.9802 161.667 153.919 150.513 89.7646 75.3879 75.9731 39.4001 86.279 77.9457 157.354 50.3645 86.279 77.9457 50.3645 213.262 110.464 223.578 207.458 107.978 115.373 110.464 55.1175 107.978 55.1175 226.132 220.877 205.408 127.013 102.798 115.6 60.2551 235.214 216.98 215.775 127.639 123.334 105.276 66.7575 237.142 233.029 209.644 129.822 111.879 111.703 60.8817 230.177 221.036 216.463 113.763 125.262 121.326 68.9407 210.499 210.312 219.378 90.8509 104.915 99.7109 44.8224 207.647 197.734 222.652 90.7121 105.584 110.601 46.0285 201.909 183.886 183.952 89.7858 102.063 87.1332 44.6836 190.951 184.017 206.996 87.1557 99.8461 96.7532 45.1022 181.102 193.368 195.409 91.3478 91.1053 87.2643 42.0535 183.958 181.675 195.09 92.2072 89.9962 106.104 49.2943 181.14 164.839 176.754 78.1455 93.9622 75.571 42.9129 175.918 184.743 187.276 80.5134 87.1777 89.2675 35.2325 170.89 177.057 177.436 92.1655 88.7401 95.4754 45.2809 171.082 176.324 171.062 100.271 82.1496 81.5818 46.8846 196.562 176.473 169.174 103.348 88.9329 94.7419 53.3867 198.094 153.305 176.84 93.2288 107.629 81.7315 49.9616 160.752 153.005 160.617 78.6606 90.4644 71.5731 43.2672 174.472 162.355 153.233 82.673 70.2875 81.4321 35.3934 188.874 170.599 168.926 97.6912 104.184 80.9232 47.2796 182.841 168.7 180.335 102.363 84.6897 89.6754 50.4116 173.276 138.404 161.432 88.524 98.1512 79.0248 51.951 146.2 119.337 143.975 64.1541 75.1248 59.3794 36.573 71.0752 59.9573 154.106 27.5812 71.0752 59.9573 27.5812 199.604 96.9939 206.419 181.859 104.381 108.206 96.9939 52.8603 104.381 52.8603 195.051 198.688 185.461 93.8642 102.61 102.037 55.3453 190.205 204.916 205.529 89.3405 92.4405 96.6504 38.5189 188.966 205.054 206.569 103.206 97.765 108.265 50.8215 205.664 210.568 179.71 107.273 91.2006 96.7888 52.3848 231.532 219.421 222.756 119.461 114.463 113.779 54.8886 198.957 201.335 198.928 107.022 117.068 105.642 64.5726 189.039 205.304 187.125 94.1006 81.8891 95.6929 42.4497 211.454 204.293 207.934 96.8617 107.15 109.611 51.6509 209.398 195.315 200.435 102.02 104.304 94.6811 45.2108 187.886 174.792 207.477 89.4673 105.094 100.634 56.8092 182.89 168.878 170.353 86.6931 82.7917 74.1586 32.6581 188.794 189.367 178.702 104.23 100.099 94.7197 54.035 177.608 169.625 182.147 84.8917 88.6957 94.6471 50.1945 169.153 155.19 163.5 76.0524 88.9121 74.978 34.6972 149.452 160.308 153.367 73.1251 80.2411 80.2118 41.3552 139.363 139.955 171.42 60.0758 69.2104 80.0964 31.7699 153.098 140.44 142.391 74.3446 70.1529 59.859 28.3059 147.687 152.096 160.933 79.6823 82.9456 80.5813 46.0387 160.387 156.682 147.58 72.9074 64.7414 71.5143 33.6436 158.926 149.245 195.432 66.3376 95.6453 85.168 39.2638 132.13 117.531 143.438 49.8802 63.2804 64.0771 27.0738 151.881 134.411 154.206 55.1826 68.85 53.454 22.8064 83.0306 80.9574 163.605 32.3762 83.0306 80.9574 32.3762 167.716 84.8652 201.233 175.063 106.226 98.2132 84.8652 51.5212 106.226 51.5212 195.94 219.861 188.429 104.824 82.8506 95.0064 46.6921 221.893 230.978 231.413 115.575 113.089 124.854 58.1314 197.313 203.966 205.189 101.848 108.804 106.124 57.4438 196.802 216.364 197.685 103.295 88.5091 97.8429 44.404 190.153 211.807 217.619 99.96 108.293 118.521 58.8906 187.096 200.758 194.973 94.3127 81.8602 93.2865 41.0695 206.019 205.169 214.192 111.204 105.235 107.471 53.2433 196.915 192.051 208.156 107.431 100.784 97.6974 57.9605 198.514 186.089 193.959 93.2946 96.1312 94.3538 49.4703 189.944 181.701 194.298 85.3248 102.383 91.735 43.8243 166.165 168.212 185.263 82.1852 87.5615 89.9662 41.5005 172.055 159.297 166.436 85.1372 78.6031 78.246 40.6847 168.04 165.296 180.098 84.7334 93.4517 81.0509 44.4525 147.714 166.876 169.887 79.1375 74.5882 84.2454 40.2808 175.336 173.008 154.253 87.1832 73.1261 82.6302 38.8566 174.448 157.093 194.795 79.8796 102.21 90.3774 48.3265 150.225 151.134 146.912 66.0957 72.2378 66.7159 31.5531 160.826 148.121 170.922 72.4133 77.9871 84.4185 34.5425 182.625 153.166 138.139 83.7749 82.8384 63.7024 37.8708 179.944 157.688 199.53 82.9075 99.787 89.4637 45.9041 165.513 140.943 164.374 67.6509 80.1571 68.2247 37.0033 165.931 167.595 165.955 79.2288 85.3562 72.718 30.6476 80.5746 94.8775 161.037 48.5812 80.5746 94.8775 48.5812 195.776 90.1982 215.039 221.351 109.494 103.019 90.1982 54.705 109.494 54.705 223.901 249.278 229.366 115.037 105.578 105.546 48.3143 214.709 240.671 260.044 115.403 118.324 143.733 66.7229 205.561 217.459 210.866 102.119 96.3853 96.9377 48.6797 218.502 239.025 238.642 113.069 109.176 120.522 53.439 222.439 238.849 223.511 111.847 109.326 118.503 59.6302 222.069 225.342 247.887 106.445 113.113 120.345 52.2171 216.328 199.062 219.468 93.9648 108.956 104.997 54.2279 205.199 184.314 203.787 84.6204 107.372 94.0654 39.7369 189.743 186.097 201.888 92.7942 97.8277 90.249 44.8835 189.617 211.251 201.733 96.3765 91.9149 95.8479 47.9107 185.535 200.453 210.104 86.027 97.7018 115.403 48.4657 174.48 167.026 202.304 74.1596 87.8328 85.05 37.5613 181.946 167.695 185.118 80.563 86.6468 81.9761 36.5983 176.426 176.597 189.483 87.7382 95.2992 85.7191 43.9646 173.712 184.784 165.241 85.8245 81.1266 90.878 43.7735 167.259 172.218 190.329 77.2137 92.585 93.9056 42.0509 167.608 182.643 161.96 85.0387 74.6737 78.3123 35.1627 148.235 174.208 193.153 75.7076 92.9346 104.33 49.876 155.043 154.204 141.144 69.3912 55.3005 69.8779 25.8317 183.959 147.041 185.168 74.7809 99.7428 84.326 43.5595 164.816 153.039 150.317 73.2918 84.2166 62.7155 31.2214 161.062 176.939 165.696 88.3667 80.5989 90.3232 42.0704 80.4629 86.6161 149.437 46.2962 80.4629 86.6161 46.2962 254.942 131.153 249.885 271.391 125.715 112.02 131.153 54.7888 125.715 54.7888 265.509 275.594 272.069 134.241 123.789 124.17 57.2314 256.201 260.22 303.301 125.268 141.721 151.425 77.0099 243.946 241.982 238.484 115.341 114.48 108.795 48.258 243.65 268.313 270.71 125.956 129.466 133.186 67.0827 248.959 264.026 253.788 127.001 114.185 135.127 58.8732 245.286 238.201 260.311 118.897 134.774 128.899 68.1282 206.927 213.118 226.949 105.098 110.512 109.302 50.7692 200.475 196.699 203.441 99.694 96.4151 103.816 54.3284 213.878 212.674 222.796 93.3027 104.06 92.8829 45.3655 222.22 245.045 232.063 114.874 109.818 119.791 47.9371 226.874 218.311 221.61 114.426 112.402 125.254 66.9369 212.942 191.229 207.236 92.8664 114.472 93.0563 47.4887 192.654 184.331 198.081 87.1322 98.4708 98.1729 45.3777 178.298 172.651 176.15 88.8589 94.1836 86.1581 41.7545 181.859 178.031 172.433 98.9591 84.1145 86.4931 47.1045 185.03 174.838 179.146 95.0042 97.7443 91.5382 51.8547 187.504 184.814 174.377 97.604 87.2858 83.2995 43.1496 186.062 194.425 191.95 98.5007 100.218 101.515 54.4545 171.269 169.068 182.005 84.8126 85.8436 92.9105 44.0462 151.526 158.172 161.286 72.2605 85.4257 76.1577 40.7664 151.197 180.067 149.574 79.7468 66.1008 82.0146 31.4941 154.071 195.964 173.306 88.5726 85.0967 98.0527 48.2527 68.9745 97.9109 175.435 40.3198 68.9745 97.9109 40.3198 288.518 140.237 137.865 140.237 70.9263 137.865 140.237 70.9263 70.9263 70.9263 309.861 141.353 148.281 141.353 148.281 66.9382 66.9382 285.584 134.952 161.581 134.952 161.581 74.4148 74.4148 265.247 126.641 124.003 126.641 124.003 60.5373 60.5373 280.847 142.357 141.244 142.357 141.244 66.1036 66.1036 265.14 137.024 139.603 137.024 139.603 76.2537 76.2537 241.973 119.304 125.536 119.304 125.536 60.7706 60.7706 223.463 108.02 116.437 108.02 116.437 58.533 58.533 225.761 97.0049 107.026 97.0049 107.026 49.4875 49.4875 240.98 119.371 118.735 119.371 118.735 47.5174 47.5174 231.453 130.171 122.245 130.171 122.245 71.8535 71.8535 201.972 103.885 109.208 103.885 109.208 58.3174 58.3174 192.375 98.3628 92.764 98.3628 92.764 45.5676 45.5676 181.577 97.1988 99.6106 97.1988 99.6106 52.7951 52.7951 170.285 83.7922 81.9665 83.7922 81.9665 44.4036 44.4036 169.72 79.0721 88.3182 79.0721 88.3182 39.3886 39.3886 168.493 79.8335 81.4014 79.8335 81.4014 39.6835 39.6835 178.823 87.2104 87.0914 87.2104 87.0914 40.15 40.15 187.893 95.9247 91.7318 95.9247 91.7318 47.0604 47.0604 172.022 84.2556 96.1615 84.2556 96.1615 48.8643 48.8643 159.333 85.9118 75.8606 85.9118 75.8606 35.3913 35.3913 171.682 100.32 83.4727 100.32 83.4727 50.5205 50.5205 194.669 107.391 88.2093 107.391 88.2093 49.7999 49.7999 106.46 57.591 106.46 57.591 106.46 57.591 57.591 154.651 83.6428 83.6428 154.651 83.6428 287.668 147.526 147.526 83.6428 154.651 83.6428 83.6428 147.526 83.6428 146.292 71.0082 146.292 292.359 140.142 71.0082 146.292 71.0082 140.142 71.0082 137.769 75.2837 137.769 270.552 152.217 75.2837 137.769 75.2837 152.217 75.2837 134.303 62.4848 134.303 248.359 118.335 62.4848 134.303 62.4848 118.335 62.4848 135.016 71.8178 135.016 244.919 130.024 71.8178 135.016 71.8178 130.024 71.8178 126.917 63.1983 126.917 229.856 114.895 63.1983 126.917 63.1983 114.895 63.1983 121.772 63.7188 121.772 214.007 114.961 63.7188 121.772 63.7188 114.961 63.7188 118.797 58.0537 118.797 219.304 99.0462 58.0537 118.797 58.0537 99.0462 58.0537 113.985 60.7431 113.985 229.297 120.258 60.7431 113.985 60.7431 120.258 60.7431 102.654 53.2418 102.654 200.08 109.039 53.2418 102.654 53.2418 109.039 53.2418 101.644 49.4125 101.644 194.769 91.0411 49.4125 101.644 49.4125 91.0411 49.4125 112.123 52.2316 112.123 209.83 103.728 52.2316 112.123 52.2316 103.728 52.2316 107.266 59.8911 107.266 203.209 106.102 59.8911 107.266 59.8911 106.102 59.8911 91.4733 47.3753 91.4733 180.578 97.107 47.3753 91.4733 47.3753 97.107 47.3753 102.823 44.0979 102.823 185.213 83.4708 44.0979 102.823 44.0979 83.4708 44.0979 104.344 58.7247 104.344 185.398 101.742 58.7247 104.344 58.7247 101.742 58.7247 95.6613 45.6192 95.6613 185.631 83.6561 45.6192 95.6613 45.6192 83.6561 45.6192 96.3819 50.0421 96.3819 192.695 101.975 50.0421 96.3819 50.0421 101.975 50.0421 103.941 46.3398 103.941 190.377 90.7203 46.3398 103.941 46.3398 90.7203 46.3398 113.329 57.6013 113.329 203.752 99.6562 57.6013 113.329 57.6013 99.6562 57.6013 93.4021 55.7275 93.4021 186.75 104.096 55.7275 93.4021 55.7275 104.096 55.7275 79.1242 37.6746 79.1242 160.092 82.6548 37.6746 79.1242 37.6746 82.6548 37.6746 72.8749 41.4496 72.8749 144.777 77.4374 41.4496 72.8749 41.4496 77.4374 41.4496 31.4253 31.4253 31.4253 67.3398 67.3398 31.4253 31.4253 31.4253 67.3398 31.4253 133.016 63.8827 230.906 119.229 119.229 133.016 63.8827 63.8827 119.229 63.8827 146.067 245.186 111.677 146.067 69.1338 111.677 69.1338 132.783 240.358 133.51 132.783 76.9331 133.51 76.9331 114.056 221.376 106.848 114.056 55.8503 106.848 55.8503 109.902 226.317 114.528 109.902 58.2059 114.528 58.2059 102.939 222.587 111.789 102.939 51.6966 111.789 51.6966 92.2345 209.17 110.798 92.2345 51.242 110.798 51.242 100.507 212.631 98.372 100.507 40.9925 98.372 40.9925 115.312 219.108 114.259 115.312 59.5149 114.259 59.5149 97.4261 187.18 104.849 97.4261 55.7975 104.849 55.7975 93.1248 184.876 82.3306 93.1248 41.6286 82.3306 41.6286 97.7073 200.702 102.545 97.7073 51.4962 102.545 51.4962 95.9427 191.347 98.1562 95.9427 46.211 98.1562 46.211 89.1046 167.829 93.1909 89.1046 49.7317 93.1909 49.7317 82.39 153.201 74.6378 82.39 39.3729 74.6378 39.3729 81.0541 174.268 78.5634 81.0541 43.0171 78.5634 43.0171 89.9696 194.835 95.7047 89.9696 38.0369 95.7047 38.0369 96.3132 178.404 99.1298 96.3132 51.9327 99.1298 51.9327 86.4354 178.234 79.2746 86.4354 44.3805 79.2746 44.3805 90.4231 181.606 98.9595 90.4231 42.0549 98.9595 42.0549 93.3484 173.827 82.6464 93.3484 48.3682 82.6464 48.3682 80.968 165.72 91.1803 80.968 44.9802 91.1803 44.9802 71.9023 153.948 74.5397 71.9023 35.9878 74.5397 35.9878 35.9145 79.4086 79.4086 35.9145 35.9145 79.4086 35.9145 97.8893 55.3465 189.288 99.4801 99.4801 97.8893 55.3465 55.3465 99.4801 55.3465 99.1195 200.306 89.808 99.1195 42.5428 89.808 42.5428 107.574 208.439 110.498 107.574 56.5767 110.498 56.5767 107.319 193.079 97.9411 107.319 50.9977 97.9411 50.9977 116.414 214.805 95.1375 116.414 56.3218 95.1375 56.3218 119.648 231.719 119.667 119.648 60.0925 119.667 60.0925 116.935 208.87 112.051 116.935 59.5558 112.051 59.5558 112.123 207.062 96.819 112.123 57.3795 96.819 57.3795 103.796 218.388 110.243 103.796 54.7438 110.243 54.7438 89.7538 197.132 108.145 89.7538 49.0518 108.145 49.0518 91.7512 190.169 88.9866 91.7512 40.702 88.9866 40.702 102.994 199.192 101.183 102.994 51.0493 101.183 51.0493 95.4044 179.969 98.0088 95.4044 51.9451 98.0088 51.9451 78.7242 171.44 81.9604 78.7242 43.4592 81.9604 43.4592 70.8112 163.912 89.4799 70.8112 35.2649 89.4799 35.2649 93.214 169.54 74.4322 93.214 35.5463 74.4322 35.5463 104.865 184.152 95.1082 104.865 57.6677 95.1082 57.6677 82.0913 160.845 89.0442 82.0913 47.1972 89.0442 47.1972 91.7988 159.803 71.801 91.7988 34.8941 71.801 34.8941 91.1828 178.662 88.0024 91.1828 56.9046 88.0024 56.9046 80.4782 173.066 90.6597 80.4782 34.2781 90.6597 34.2781 84.752 167.002 82.4067 84.752 46.2001 82.4067 46.2001 82.0459 178.744 84.5954 82.0459 38.5519 84.5954 38.5519 43.4941 94.1485 94.1485 43.4941 43.4941 94.1485 43.4941 91.3988 44.1336 160.901 77.4776 77.4776 91.3988 44.1336 44.1336 77.4776 44.1336 101.187 192.303 83.4238 101.187 47.2652 83.4238 47.2652 100.865 207.182 108.879 100.865 53.9215 108.879 53.9215 85.7592 181.224 98.3033 85.7592 46.9434 98.3033 46.9434 98.3906 191.898 82.9209 98.3906 38.8158 82.9209 38.8158 112.07 202.264 108.977 112.07 59.5749 108.977 59.5749 91.935 184.718 93.2863 91.935 52.4955 93.2863 52.4955 94.9386 189.754 91.4316 94.9386 39.4395 91.4316 39.4395 114.592 204.077 98.3227 114.592 55.4991 98.3227 55.4991 107.378 212.597 105.754 107.378 59.0933 105.754 59.0933 98.4182 203.038 106.843 98.4182 48.2846 106.843 48.2846 96.1972 180.177 96.1946 96.1972 50.1336 96.1946 50.1336 84.5648 171.482 83.982 84.5648 46.0636 83.982 46.0636 92.7161 176.023 87.5003 92.7161 38.5012 87.5003 38.5012 93.1008 161.678 88.5223 93.1008 54.2149 88.5223 54.2149 76.3264 164.479 73.1553 76.3264 38.8859 73.1553 38.8859 79.2875 173.856 91.324 79.2875 37.4405 91.324 37.4405 78.7539 162.883 82.5317 78.7539 41.847 82.5317 41.847 68.0046 156.417 80.3514 68.0046 36.9068 80.3514 36.9068 87.4793 186.33 76.0654 87.4793 31.0978 76.0654 31.0978 92.5882 189.625 110.264 92.5882 56.3815 110.264 56.3815 82.2501 180.113 79.3604 82.2501 36.2066 79.3604 36.2066 96.6979 183.4 100.752 96.6979 46.0435 100.752 46.0435 50.6544 82.6478 82.6478 50.6544 50.6544 82.6478 50.6544 69.5025 33.344 162.259 68.8372 68.8372 69.5025 33.344 33.344 68.8372 33.344 91.1162 199.98 93.4221 91.1162 36.1585 93.4221 36.1585 106.317 205.624 106.558 106.317 54.9576 106.558 54.9576 95.465 198.908 99.0654 95.465 51.3599 99.0654 51.3599 93.5076 198.94 99.8423 93.5076 44.1052 99.8423 44.1052 90.1932 200.785 99.0981 90.1932 49.4024 99.0981 49.4024 92.7829 208.407 101.687 92.7829 40.7908 101.687 40.7908 94.8157 217.179 106.72 94.8157 51.9921 106.72 51.9921 89.4845 210.064 110.458 89.4845 42.8236 110.458 42.8236 105.22 202.168 99.6051 105.22 46.6609 99.6051 46.6609 104.62 197.86 102.563 104.62 58.5586 102.563 58.5586 83.9794 183.487 95.297 83.9794 46.061 95.297 46.061 86.9175 187.237 88.1899 86.9175 37.9184 88.1899 37.9184 83.3065 184.69 99.0476 83.3065 48.9991 99.0476 48.9991 68.5768 157.264 85.642 68.5768 34.3073 85.642 34.3073 88.153 176.04 71.6225 88.153 34.2694 71.6225 34.2694 94.5682 184.613 104.418 94.5682 53.8835 104.418 53.8835 84.1292 166.699 80.1956 84.1292 40.6846 80.1956 40.6846 88.4122 160.94 86.5032 88.4122 43.4446 86.5032 43.4446 98.8505 184.503 74.4364 98.8505 44.9676 74.4364 44.9676 97.0366 206.215 110.066 97.0366 53.8828 110.066 53.8828 97.8624 189.386 96.149 97.8624 43.1538 96.149 43.1538 86.702 159.397 93.2371 86.702 54.7086 93.2371 54.7086 31.9934 66.16 66.16 31.9934 31.9934 66.16 31.9934 92.7568 35.4932 235.678 111.858 111.858 92.7568 35.4932 35.4932 111.858 35.4932 108.864 240.132 123.821 108.864 57.2636 123.821 57.2636 99.3062 230.24 116.312 99.3062 51.6006 116.312 51.6006 103.443 232.048 113.928 103.443 47.7056 113.928 47.7056 105.433 223.127 118.12 105.433 55.7372 118.12 55.7372 110.592 232.549 105.007 110.592 49.6957 105.007 49.6957 115.624 242.013 127.542 115.624 60.8959 127.542 60.8959 122.363 224.193 114.471 122.363 54.7283 114.471 54.7283 120.579 221.36 109.722 120.579 67.6349 109.722 67.6349 96.9483 217.524 111.639 96.9483 52.9442 111.639 52.9442 93.2402 200.586 105.885 93.2402 44.0042 105.885 44.0042 99.5076 211.956 94.7014 99.5076 49.2361 94.7014 49.2361 100.32 220.396 117.254 100.32 50.2715 117.254 50.2715 101.383 206.905 103.142 101.383 50.0485 103.142 50.0485 88.6876 178.127 103.764 88.6876 51.3346 103.764 51.3346 87.8871 170.787 74.363 87.8871 37.353 74.363 37.353 90.0451 180.071 96.4237 90.0451 50.5341 96.4237 50.5341 82.5697 172.47 83.6473 82.5697 39.511 83.6473 39.511 72.5275 160.089 88.8227 72.5275 43.0587 88.8227 43.0587 85.652 172.109 71.2662 85.652 29.4688 71.2662 29.4688 109.178 188.444 100.842 109.178 56.1832 100.842 56.1832 91.5237 162.974 87.602 91.5237 52.9952 87.602 52.9952 72.6951 138.194 75.3725 72.6951 38.5285 75.3725 38.5285 34.1666 62.8213 62.8213 34.1666 34.1666 62.8213 34.1666 142.922 76.3645 293.575 145.675 145.675 142.922 76.3645 76.3645 145.675 76.3645 131.268 299.776 147.9 131.268 66.5572 147.9 66.5572 130.933 281.565 151.877 130.933 64.7109 151.877 64.7109 128.605 267.212 129.688 128.605 66.2225 129.688 66.2225 117.694 256.184 137.523 117.694 62.3828 137.523 62.3828 121.958 250.073 118.661 121.958 55.3114 118.661 55.3114 126.389 249.059 131.412 126.389 66.6461 131.412 66.6461 101.83 217.272 117.647 101.83 59.743 117.647 59.743 100.781 229.537 99.6247 100.781 42.0867 99.6247 42.0867 120.576 242.185 129.913 120.576 58.6947 129.913 58.6947 107.346 208.628 112.272 107.346 61.881 112.272 61.881 112.448 210.535 96.3559 112.448 45.4653 96.3559 45.4653 120.076 214.088 114.179 120.076 66.9829 114.179 66.9829 105.522 189.901 99.9085 105.522 53.093 99.9085 53.093 89.4391 175.932 89.992 89.4391 52.4291 89.992 52.4291 82.8996 173.547 85.9396 82.8996 37.01 85.9396 37.01 90.0259 178.685 87.6075 90.0259 45.8896 87.6075 45.8896 89.9003 181.513 91.0777 89.9003 44.1363 91.0777 44.1363 87.5614 179.53 90.4354 87.5614 45.764 90.4354 45.764 86.4566 174.223 89.0946 86.4566 41.7974 89.0946 41.7974 79.266 152.688 85.1286 79.266 44.6592 85.1286 44.6592 71.4507 142.812 67.5589 71.4507 34.6067 67.5589 34.6067 65.4986 152.777 75.2533 65.4986 36.8439 75.2533 36.8439 28.6547 77.5237 77.5237 28.6547 28.6547 77.5237 28.6547 150.653 69.311 150.653 69.311 69.311 150.653 69.311 69.311 69.311 69.311 168.508 168.508 81.3424 168.508 81.3424 81.3424 81.3424 150.632 150.632 87.1658 150.632 87.1658 87.1658 87.1658 138.606 138.606 63.466 138.606 63.466 63.466 63.466 138.49 138.49 75.1404 138.49 75.1404 75.1404 75.1404 128.115 128.115 63.3496 128.115 63.3496 63.3496 63.3496 122.67 122.67 64.7656 122.67 64.7656 64.7656 64.7656 115.442 115.442 57.9041 115.442 57.9041 57.9041 57.9041 128.756 128.756 57.538 128.756 57.538 57.538 57.538 121.609 121.609 71.2178 121.609 71.2178 71.2178 71.2178 101.282 101.282 50.3915 101.282 50.3915 50.3915 50.3915 98.087 98.087 50.8906 98.087 50.8906 50.8906 50.8906 94.0119 94.0119 47.1964 94.0119 47.1964 47.1964 47.1964 84.3783 84.3783 46.8155 84.3783 46.8155 46.8155 46.8155 86.4925 86.4925 37.5629 86.4925 37.5629 37.5629 37.5629 90.6475 90.6475 48.9296 90.6475 48.9296 48.9296 48.9296 88.6593 88.6593 41.7178 88.6593 41.7178 41.7178 41.7178 91.6129 91.6129 46.9414 91.6129 46.9414 46.9414 46.9414 91.9686 91.9686 44.6714 91.9686 44.6714 44.6714 44.6714 87.7666 87.7666 47.2972 87.7666 47.2972 47.2972 47.2972 73.4215 73.4215 40.4694 73.4215 40.4694 40.4694 40.4694 71.3615 71.3615 32.9521 71.3615 32.9521 32.9521 32.9521 87.2784 87.2784 38.4094 87.2784 38.4094 38.4094 38.4094 48.8691 48.8691 48.8691 48.8691 48.8691 48.8691 48.8691 
CELL_DATA 1536
SCALARS stress float 1
LOOKUP_TABLE default
87.2315 70.5474 73.2288 70.5936 61.5887 62.7929 56.8623 58.5378 59.2779 57.3408 53.5614 51.0124 43.4265 46.3064 45.1471 45.1878 43.6035 42.4653 34.0644 44.5023 38.5026 32.2332 34.1418 41.237 76.1559 63.9402 55.5313 72.9771 59.0196 50.7691 54.1575 46.3112 55.4718 61.4865 45.9574 57.8851 51.8389 35.4801 48.0674 34.1695 48.9699 40.8428 38.3961 41.0922 46.7129 32.5565 33.7071 50.4227 63.7921 62.4133 56.4609 69.6045 46.3512 50.3874 65.8696 61.1369 47.9019 46.1232 49.8478 51.2439 56.6789 42.7817 44.3141 50.4346 47.6833 40.4334 43.5675 48.2421 41.6605 43.9078 32.9517 36.2111 43.0849 53.6556 52.4236 46.9449 50.8153 53.5071 52.5142 44.1245 51.7341 56.5895 48.6561 43.7657 38.9175 47.1334 37.9758 48.6177 44.9586 48.6375 48.3421 39.6376 49.5696 37.2543 35.8082 32.771 38.9012 42.7436 50.1478 54.035 61.8726 39.849 45.0587 57.0645 45.3156 67.3215 61.0407 67.8803 44.3452 41.9837 49.8705 54.9052 44.6113 52.4758 43.2804 45.7888 41.721 40.9309 41.3467 43.8753 50.2225 65.5152 56.8309 54.237 46.8162 59.6726 52.5975 53.2547 44.2624 56.2829 54.7819 62.6679 49.9057 43.0081 44.836 43.4517 38.6893 40.7099 36.1946 49.8105 40.3736 40.2983 45.7689 43.2447 61.1661 77.7473 65.6628 68.193 65.1293 71.9567 62.4529 55.2219 46.3971 37.8211 38.1581 41.4455 54.7554 52.0944 54.9667 56.7638 51.2944 44.1028 37.5263 48.9375 27.7375 33.9677 49.2761 33.1403 65.2977 62.5469 74.0096 79.7243 72.3201 57.8491 63.2567 68.6601 56.8761 54.1906 51.3405 43.2537 60.5687 47.4442 53.9325 46.0253 34.7796 41.6585 57.1474 49.3185 43.4188 32.0751 39.8342 32.6503 71.5126 86.018 73.3211 72.6579 77.4912 57.007 71.3428 64.0376 55.2846 60.9735 47.3606 41.2417 56.0276 43.9815 48.7402 44.0382 36.7078 38.1003 36.4012 48.0347 29.0739 37.1067 36.7405 26.3302 54.9808 74.0334 61.695 58.3111 72.7662 53.8435 50.3171 52.352 49.1318 73.912 52.4332 46.7518 54.8687 58.0055 45.3008 48.6699 32.1436 37.9992 48.1 46.0498 35.2566 42.6772 40.953 40.333 47.8989 50.5928 63.0035 61.6523 53.2594 54.1541 53.0503 59.5135 45.4076 47.7888 47.1892 36.9731 38.6286 50.1206 41.131 39.152 48.6586 33.8059 38.7229 37.1039 37.9544 33.8692 37.197 52.3607 37.7234 44.7376 57.0599 55.8042 47.729 48.6205 50.0656 51.1501 42.899 59.4178 55.5229 50.8197 47.845 39.0606 44.5209 48.5948 43.8603 43.6283 46.6535 31.9768 38.392 43.498 50.396 34.3731 46.0173 42.4921 62.8153 56.238 46.4267 47.1648 43.8369 51.8494 48.1073 48.0017 41.0393 46.1079 41.8065 51.9798 51.268 46.0727 48.3467 30.6393 52.3121 36.4785 32.4325 58.985 36.1404 35.2284 53.2281 57.8271 48.128 48.7878 58.4186 50.7225 50.7555 45.729 57.8861 49.193 46.9809 47.76 43.7441 34.144 43.3361 42.4426 36.3816 39.2796 42.8531 37.2448 41.8563 42.9735 41.8069 40.3585 66.0044 68.9964 68.4838 54.5698 53.0099 55.0431 62.4475 48.4471 52.7169 58.2834 44.0722 51.5296 62.2101 43.5032 35.4702 49.0931 48.5584 52.5754 37.9053 48.965 32.6816 43.4068 37.6302 31.1645 76.0867 83.0632 68.1758 68.5515 71.1052 67.5435 64.8361 64.8801 68.4417 48.0994 46.5757 38.374 50.4404 45.0531 38.8506 44.6683 42.8763 36.6557 50.2612 45.157 44.8612 45.1169 35.6114 43.2748 73.6589 83.8934 71.0146 70.74 62.4468 53.0148 61.8819 61.0742 59.8239 48.7658 40.5108 48.4122 49.5869 48.0108 41.4053 39.2055 43.9697 42.9936 45.9025 46.454 35.3945 43.0485 35.4423 34.8253 57.0921 79.9031 72.9387 59.2453 58.4187 62.2355 57.6021 53.9863 50.7861 59.7028 47.109 56.8346 63.1651 65.7407 46.7779 50.2042 32.1562 45.6365 49.7067 46.5542 36.7105 42.3459 40.4235 28.3249 44.2165 55.6869 59.0889 46.194 46.0942 46.5514 62.4117 49.5007 45.4052 50.3699 46.2153 45.8691 49.4814 41.667 38.9543 49.8678 42.1827 56.773 45.2369 49.3145 48.3461 42.0695 30.9358 33.4783 49.6977 61.0546 58.1609 44.1095 55.5806 56.3337 49.072 57.7015 42.5569 49.3119 46.646 53.0778 37.208 42.2335 58.5977 52.6099 29.584 45.0768 46.7043 40.8434 36.5394 42.6749 40.5845 39.7049 39.7424 50.809 51.1117 43.18 64.463 57.2945 56.9038 45.5111 47.7059 53.1689 57.471 53.2276 65.5815 38.6123 43.7107 41.5877 30.1932 47.1621 31.7803 36.0996 39.6594 30.9767 37.7837 41.7838 42.2431 41.7763 63.9352 34.3278 50.1961 59.5166 65.3244 48.2609 72.4241 50.0767 44.8713 43.2755 44.0868 45.3621 54.8413 65.1629 42.6536 48.2892 41.0942 40.5474 43.0695 43.701 37.8601 40.2198 60.699 57.0023 66.0225 69.7195 61.326 60.1083 63.2095 50.2294 52.554 47.5598 38.9979 43.0138 52.4557 48.5668 47.665 37.3793 39.9276 37.4132 42.4241 41.5989 39.0961 39.016 35.8084 41.0617 65.2995 60.0879 64.4366 79.8483 66.0593 68.7982 66.3327 63.3716 47.4595 54.1511 56.4476 55.7654 35.2063 41.6739 41.8031 37.3294 34.7803 39.2632 38.0169 36.5733 44.6399 44.6411 27.4085 48.9784 74.0858 69.1623 70.4611 93.092 72.0262 56.2501 69.1869 63.1254 55.5331 64.1021 54.892 41.1019 48.6462 55.8642 37.5353 43.9664 45.5836 44.1356 38.039 39.6371 40.3922 31.6829 41.5091 41.622 69.1643 62.637 72.2344 63.9646 64.5436 62.792 55.0345 51.5463 53.7978 52.1671 55.4685 45.379 48.9982 34.895 45.8872 48.6853 35.4105 29.3348 40.6481 37.5259 41.5111 43.3093 30.5959 35.0548 46.6966 51.5992 56.4798 46.3148 60.4286 61.2673 59.8437 49.7072 67.0634 46.4327 48.6062 43.2407 43.6055 33.3579 46.0395 49.6593 31.8731 39.9579 45.4156 42.804 40.5216 43.7386 33.3706 34.1997 52.4286 65.4195 53.9398 58.7384 57.7648 44.5088 52.0978 48.7587 45.7346 32.939 48.0622 43.6406 40.1582 63.227 49.5757 43.6026 49.979 45.659 46.292 29.2508 30.5819 32.3136 42.1222 27.764 41.2338 56.0338 49.7635 53.6811 49.4135 43.343 48.2388 36.0102 52.2126 64.4861 36.4509 36.1208 42.797 43.7272 32.3222 40.8397 38.7151 48.3048 38.8289 48.7164 41.0188 32.3392 36.1597 31.4598 49.4365 53.2712 69.7105 58.2285 44.3139 57.461 60.7749 48.6433 45.5753 46.5705 52.1575 50.6276 42.8983 51.8561 34.0291 49.941 43.3578 37.7265 51.5115 31.6573 40.2617 51.0644 45.3239 37.2981 53.7159 55.6303 66.933 56.3097 49.6187 56.5415 59.3642 50.6402 50.8315 37.7474 47.5324 51.6224 34.5723 35.404 47.3301 51.1526 47.2015 46.9744 47.2497 28.5614 34.6419 23.9818 36.5652 31.4261 74.4982 68.8973 62.5071 76.8031 76.1022 66.3089 53.4808 53.1238 53.9012 53.6543 75.7174 52.4937 51.214 46.3019 33.4 41.2462 38.3846 34.8182 24.7466 34.6304 22.3728 49.2346 40.4928 39.845 87.4257 70.561 59.2903 73.4203 69.7017 66.4824 67.5094 74.0645 57.3789 48.101 64.0009 46.4247 37.825 48.6313 58.6981 37.2644 56.8461 39.7462 35.4836 46.249 27.3646 31.0226 33.199 34.7224 57.218 71.1536 70.3281 64.3833 56.3534 60.3765 63.7131 59.9568 44.7531 50.4224 46.625 44.6768 43.8953 40.3349 54.8909 46.6851 59.5871 35.6532 46.3779 41.2373 33.2078 48.0008 39.6994 45.0816 49.525 61.8439 62.5453 69.7323 57.0016 60.253 48.8596 36.8325 54.3552 55.7677 41.5925 51.7777 51.1905 42.3072 48.5611 52.2086 40.1676 38.6052 50.6704 57.6629 46.0869 29.6625 38.429 34.6587 35.6305 48.9519 46.3366 47.6619 52.8462 52.1696 47.3022 49.5494 49.9836 49.9071 35.9504 54.5547 41.9958 38.6272 39.4196 41.0655 33.4663 31.6051 38.6934 42.4131 47.3218 32.3725 35.5112 45.022 37.5782 66.4813 62.6026 59.3203 56.2312 47.3742 48.7072 40.0838 37.9287 41.3842 42.5443 43.647 49.1568 38.5239 37.5452 49.9304 30.0417 35.9014 34.1143 37.4017 41.2691 36.8674 30.0028 35.8484 52.2918 66.0873 61.204 53.76 51.281 58.8414 52.4991 44.9941 47.6883 38.4588 41.2009 37.7911 40.6074 47.6883 42.495 48.5869 51.1272 53.9513 37.5626 44.0766 39.2247 40.8994 36.4804 26.082 55.882 59.7548 53.2678 70.1642 63.2652 53.4852 64.8508 55.157 38.7046 63.7063 51.0988 53.8457 43.9177 33.6263 41.8306 44.3999 37.0057 28.0956 39.8085 45.1799 39.537 42.4209 36.6622 29.4114 68.1917 76.2351 80.686 64.6753 63.3591 64.4915 62.971 55.3296 56.0321 49.8541 47.4911 65.1473 48.9993 41.7196 30.8928 38.2022 51.4812 43.0987 42.839 41.9688 45.4231 45.819 34.6099 42.1268 79.823 67.8048 84.5789 63.0856 74.2927 67.3398 87.018 59.3793 54.9685 51.5758 46.1509 46.6755 57.5785 48.6166 35.138 43.0494 43.9943 48.6922 33.2126 37.2028 41.2042 45.1106 27.419 44.5594 60.3494 54.1476 63.1001 63.3811 76.9506 52.3203 51.1938 58.2461 51.8304 58.1904 50.6056 46.7812 44.6332 43.1471 47.589 29.7785 44.9079 36.994 40.9238 46.4411 39.4492 28.6392 39.1367 46.1655 48.2673 59.0194 62.6657 61.195 57.1147 47.7455 49.8837 52.6822 49.7243 46.3584 52.7429 51.9626 45.0932 37.1823 49.9188 45.2009 42.0289 47.7352 38.2231 41.8693 39.1877 37.8376 43.4683 27.1916 45.4002 54.7972 61.1073 48.6554 55.8476 49.5254 50.3275 47.0022 57.5866 46.7264 48.004 44.3686 50.0037 40.8487 55.7694 33.9436 47.6928 41.0917 44.4987 34.0522 40.4877 42.2677 43.5635 32.8601 39.1824 57.6292 52.331 55.8795 44.9294 58.171 59.1035 58.3686 34.6316 60.7768 46.1104 43.5128 41.6062 58.4912 38.8283 45.1883 30.2328 42.7699 38.5871 43.4149 31.8092 38.4129 41.452 42.0964 37.1991 69.3191 57.7464 55.7228 57.5894 52.4827 68.0369 55.7819 56.5046 44.913 51.8811 48.4541 44.077 36.7041 55.9453 47.7548 43.1256 41.5942 46.4019 49.5311 66.3499 40.6844 44.712 35.4029 59.2812 54.2263 71.6622 63.4973 71.5723 67.9797 57.4098 60.7901 55.7665 61.4014 58.6766 34.8925 45.1638 60.1017 37.8954 46.6424 53.433 37.3041 34.4378 47.1399 32.8161 35.519 26.2464 50.0738 72.7043 72.327 67.1767 71.7698 80.5058 50.1942 55.2387 55.9129 53.4062 44.211 49.5666 50.7343 56.533 43.6503 48.5916 63.7846 40.5799 57.8653 53.9192 41.151 38.8739 33.8836 42.1721 30.3054 87.2373 77.435 61.1321 67.2277 70.6515 64.4183 58.4085 45.7244 73.3584 63.7971 52.1144 38.3532 41.3373 42.4341 41.8625 50.6261 41.187 39.5777 32.5833 31.2365 47.9469 36.3033 47.0617 46.4587 51.7344 75.3967 75.9621 61.9376 67.4947 65.6855 55.5062 51.7458 53.5834 49.5422 52.8419 48.7362 39.402 39.3572 43.26 44.5124 53.1812 49.6538 39.6649 45.8165 53.1372 28.9802 39.4001 50.3645 55.1175 60.2551 66.7575 60.8817 68.9407 44.8224 46.0285 44.6836 45.1022 42.0535 49.2943 42.9129 35.2325 45.2809 46.8846 53.3867 49.9616 43.2672 35.3934 47.2796 50.4116 51.951 36.573 27.5812 52.8603 55.3453 38.5189 50.8215 52.3848 54.8886 64.5726 42.4497 51.6509 45.2108 56.8092 32.6581 54.035 50.1945 34.6972 41.3552 31.7699 28.3059 46.0387 33.6436 39.2638 27.0738 22.8064 32.3762 51.5212 46.6921 58.1314 57.4438 44.404 58.8906 41.0695 53.2433 57.9605 49.4703 43.8243 41.5005 40.6847 44.4525 40.2808 38.8566 48.3265 31.5531 34.5425 37.8708 45.9041 37.0033 30.6476 48.5812 54.705 48.3143 66.7229 48.6797 53.439 59.6302 52.2171 54.2279 39.7369 44.8835 47.9107 48.4657 37.5613 36.5983 43.9646 43.7735 42.0509 35.1627 49.876 25.8317 43.5595 31.2214 42.0704 46.2962 54.7888 57.2314 77.0099 48.258 67.0827 58.8732 68.1282 50.7692 54.3284 45.3655 47.9371 66.9369 47.4887 45.3777 41.7545 47.1045 51.8547 43.1496 54.4545 44.0462 40.7664 31.4941 48.2527 40.3198 70.9263 66.9382 74.4148 60.5373 66.1036 76.2537 60.7706 58.533 49.4875 47.5174 71.8535 58.3174 45.5676 52.7951 44.4036 39.3886 39.6835 40.15 47.0604 48.8643 35.3913 50.5205 49.7999 57.591 83.6428 71.0082 75.2837 62.4848 71.8178 63.1983 63.7188 58.0537 60.7431 53.2418 49.4125 52.2316 59.8911 47.3753 44.0979 58.7247 45.6192 50.0421 46.3398 57.6013 55.7275 37.6746 41.4496 31.4253 63.8827 69.1338 76.9331 55.8503 58.2059 51.6966 51.242 40.9925 59.5149 55.7975 41.6286 51.4962 46.211 49.7317 39.3729 43.0171 38.0369 51.9327 44.3805 42.0549 48.3682 44.9802 35.9878 35.9145 55.3465 42.5428 56.5767 50.9977 56.3218 60.0925 59.5558 57.3795 54.7438 49.0518 40.702 51.0493 51.9451 43.4592 35.2649 35.5463 57.6677 47.1972 34.8941 56.9046 34.2781 46.2001 38.5519 43.4941 44.1336 47.2652 53.9215 46.9434 38.8158 59.5749 52.4955 39.4395 55.4991 59.0933 48.2846 50.1336 46.0636 38.5012 54.2149 38.8859 37.4405 41.847 36.9068 31.0978 56.3815 36.2066 46.0435 50.6544 33.344 36.1585 54.9576 51.3599 44.1052 49.4024 40.7908 51.9921 42.8236 46.6609 58.5586 46.061 37.9184 48.9991 34.3073 34.2694 53.8835 40.6846 43.4446 44.9676 53.8828 43.1538 54.7086 31.9934 35.4932 57.2636 51.6006 47.7056 55.7372 49.6957 60.8959 54.7283 67.6349 52.9442 44.0042 49.2361 50.2715 50.0485 51.3346 37.353 50.5341 39.511 43.0587 29.4688 56.1832 52.9952 38.5285 34.1666 76.3645 66.5572 64.7109 66.2225 62.3828 55.3114 66.6461 59.743 42.0867 58.6947 61.881 45.4653 66.9829 53.093 52.4291 37.01 45.8896 44.1363 45.764 41.7974 44.6592 34.6067 36.8439 28.6547 69.311 81.3424 87.1658 63.466 75.1404 63.3496 64.7656 57.9041 57.538 71.2178 50.3915 50.8906 47.1964 46.8155 37.5629 48.9296 41.7178 46.9414 44.6714 47.2972 40.4694 32.9521 38.4094 48.8691 
SCALARS volume float 1
LOOKUP_TABLE default
14.6604 14.741 14.7399 14.7421 14.7443 14.7468 14.7494 14.752 14.7545 14.7569 14.7591 14.7612 14.7631 14.7649 14.7665 14.7679 14.7691 14.7702 14.7711 14.7719 14.7726 14.773 14.7733 14.7734 14.7049 14.7451 14.7507 14.752 14.7532 14.7546 14.7563 14.7581 14.7598 14.7615 14.7631 14.7646 14.766 14.7672 14.7683 14.7694 14.7702 14.771 14.7717 14.7722 14.7727 14.773 14.7732 14.7736 14.7342 14.7572 14.7597 14.7608 14.7614 14.7622 14.7632 14.7642 14.7652 14.7662 14.7672 14.7681 14.7689 14.7697 14.7703 14.771 14.7715 14.7719 14.7723 14.7726 14.7729 14.7732 14.7733 14.7736 14.7612 14.7681 14.7689 14.7692 14.7694 14.7696 14.7699 14.7703 14.7706 14.771 14.7713 14.7717 14.7719 14.7722 14.7724 14.7726 14.7728 14.7729 14.7731 14.7731 14.7732 14.7733 14.7733 14.7734 14.7872 14.7787 14.7779 14.7775 14.7772 14.7769 14.7767 14.7764 14.7761 14.7758 14.7755 14.7753 14.775 14.7748 14.7745 14.7743 14.7741 14.774 14.7738 14.7736 14.7736 14.7735 14.7733 14.7732 14.8136 14.7892 14.7869 14.7857 14.785 14.7842 14.7834 14.7824 14.7815 14.7806 14.7797 14.7788 14.778 14.7773 14.7766 14.776 14.7755 14.775 14.7745 14.7742 14.7739 14.7736 14.7734 14.773 14.842 14.8005 14.7955 14.7942 14.793 14.7916 14.7901 14.7885 14.7869 14.7853 14.7838 14.7824 14.781 14.7798 14.7787 14.7777 14.7767 14.7759 14.7752 14.7746 14.7741 14.7737 14.7734 14.773 14.8848 14.8041 14.8052 14.8032 14.8013 14.7991 14.7968 14.7945 14.7921 14.7899 14.7878 14.7858 14.7839 14.7822 14.7806 14.7792 14.7779 14.7767 14.7757 14.7749 14.7742 14.7737 14.7734 14.7732 14.6699 14.7261 14.7347 14.7392 14.7429 14.7462 14.7493 14.7521 14.7548 14.7572 14.7594 14.7615 14.7634 14.7652 14.7667 14.7682 14.7694 14.7705 14.7714 14.7722 14.7728 14.7733 14.7734 14.7734 14.7128 14.7294 14.7438 14.7487 14.7516 14.7539 14.756 14.758 14.7599 14.7616 14.7633 14.7648 14.7662 14.7674 14.7685 14.7696 14.7704 14.7712 14.7719 14.7724 14.7729 14.7731 14.7734 14.7737 14.7387 14.7472 14.7546 14.7583 14.7602 14.7616 14.7628 14.7641 14.7652 14.7662 14.7672 14.7682 14.769 14.7698 14.7704 14.7711 14.7716 14.7721 14.7724 14.7727 14.773 14.7732 14.7733 14.7737 14.7628 14.7649 14.767 14.7681 14.7688 14.7693 14.7698 14.7702 14.7706 14.771 14.7714 14.7717 14.7719 14.7722 14.7724 14.7727 14.7728 14.773 14.7731 14.7732 14.7733 14.7733 14.7733 14.7735 14.7859 14.7822 14.7794 14.778 14.7774 14.7769 14.7766 14.7763 14.776 14.7757 14.7755 14.7752 14.7749 14.7748 14.7745 14.7743 14.7741 14.7739 14.7738 14.7736 14.7736 14.7734 14.7733 14.7732 14.8097 14.7992 14.7912 14.7876 14.7858 14.7845 14.7834 14.7824 14.7814 14.7805 14.7796 14.7788 14.778 14.7772 14.7766 14.7759 14.7754 14.7749 14.7745 14.7741 14.7738 14.7736 14.7733 14.773 14.8355 14.8154 14.8012 14.7967 14.7941 14.7921 14.7902 14.7884 14.7868 14.7852 14.7836 14.7822 14.7809 14.7796 14.7785 14.7775 14.7765 14.7758 14.775 14.7745 14.774 14.7736 14.7733 14.773 14.8774 14.8172 14.8094 14.8054 14.8024 14.7996 14.7969 14.7944 14.792 14.7897 14.7876 14.7856 14.7837 14.782 14.7804 14.7789 14.7776 14.7765 14.7755 14.7747 14.774 14.7736 14.7733 14.7732 14.6637 14.7241 14.7314 14.7371 14.7416 14.7456 14.749 14.752 14.7548 14.7573 14.7596 14.7617 14.7636 14.7654 14.7669 14.7684 14.7696 14.7707 14.7716 14.7724 14.773 14.7733 14.7735 14.7734 14.7107 14.7264 14.7401 14.7465 14.7504 14.7533 14.7558 14.7579 14.7599 14.7617 14.7633 14.7649 14.7663 14.7675 14.7686 14.7697 14.7706 14.7713 14.7719 14.7725 14.7729 14.7732 14.7734 14.7736 14.7373 14.7451 14.7519 14.7566 14.7593 14.7611 14.7626 14.7639 14.7651 14.7663 14.7672 14.7682 14.769 14.7698 14.7704 14.7711 14.7716 14.7721 14.7725 14.7728 14.773 14.7732 14.7734 14.7737 14.7622 14.7641 14.766 14.7674 14.7684 14.769 14.7696 14.7701 14.7705 14.7709 14.7713 14.7716 14.772 14.7722 14.7724 14.7727 14.7729 14.773 14.7731 14.7732 14.7733 14.7733 14.7734 14.7734 14.7863 14.783 14.7802 14.7784 14.7775 14.7769 14.7765 14.7763 14.7759 14.7757 14.7754 14.7752 14.7749 14.7747 14.7745 14.7743 14.7741 14.7739 14.7738 14.7736 14.7735 14.7734 14.7733 14.7732 14.8111 14.8014 14.7937 14.7889 14.7864 14.7848 14.7835 14.7824 14.7814 14.7804 14.7795 14.7787 14.7779 14.7772 14.7765 14.7759 14.7753 14.7748 14.7744 14.774 14.7737 14.7735 14.7732 14.773 14.8373 14.8184 14.8045 14.7984 14.795 14.7925 14.7903 14.7884 14.7867 14.7851 14.7835 14.7821 14.7808 14.7795 14.7784 14.7774 14.7764 14.7756 14.7749 14.7743 14.7739 14.7735 14.7732 14.7729 14.8826 14.8195 14.8124 14.8071 14.8033 14.8 14.7971 14.7944 14.7919 14.7896 14.7874 14.7854 14.7835 14.7817 14.7802 14.7787 14.7774 14.7763 14.7753 14.7745 14.7739 14.7734 14.7732 14.7732 14.6607 14.7226 14.7301 14.7361 14.741 14.7452 14.7488 14.752 14.7548 14.7573 14.7597 14.7618 14.7637 14.7654 14.767 14.7685 14.7697 14.7708 14.7717 14.7725 14.773 14.7734 14.7735 14.7735 14.7097 14.725 14.7389 14.7455 14.7498 14.753 14.7556 14.7578 14.7599 14.7617 14.7634 14.7649 14.7663 14.7676 14.7687 14.7697 14.7706 14.7714 14.772 14.7725 14.773 14.7732 14.7734 14.7737 14.7367 14.7442 14.751 14.7558 14.7588 14.7609 14.7625 14.7639 14.7651 14.7663 14.7673 14.7682 14.769 14.7698 14.7705 14.7711 14.7717 14.7721 14.7725 14.7728 14.773 14.7733 14.7734 14.7736 14.762 14.7638 14.7656 14.7671 14.7682 14.7689 14.7695 14.77 14.7705 14.7709 14.7713 14.7717 14.7719 14.7723 14.7725 14.7727 14.7729 14.773 14.7731 14.7732 14.7733 14.7733 14.7734 14.7734 14.7865 14.7833 14.7805 14.7786 14.7776 14.777 14.7765 14.7762 14.7759 14.7757 14.7754 14.7752 14.7749 14.7747 14.7744 14.7743 14.7741 14.7739 14.7738 14.7736 14.7735 14.7734 14.7733 14.7732 14.8116 14.8022 14.7945 14.7896 14.7867 14.7849 14.7835 14.7824 14.7814 14.7804 14.7795 14.7786 14.7779 14.7772 14.7765 14.7758 14.7753 14.7748 14.7744 14.774 14.7737 14.7735 14.7732 14.773 14.8382 14.8196 14.8056 14.7993 14.7954 14.7927 14.7904 14.7884 14.7867 14.785 14.7835 14.782 14.7807 14.7795 14.7783 14.7773 14.7764 14.7755 14.7749 14.7743 14.7738 14.7735 14.7732 14.7729 14.8851 14.8209 14.8136 14.8081 14.8039 14.8003 14.7972 14.7944 14.7919 14.7895 14.7873 14.7853 14.7834 14.7817 14.7801 14.7786 14.7773 14.7762 14.7752 14.7744 14.7738 14.7733 14.7731 14.7731 14.6607 14.7226 14.7301 14.736 14.7409 14.7452 14.7488 14.752 14.7548 14.7573 14.7597 14.7618 14.7637 14.7655 14.767 14.7684 14.7697 14.7708 14.7717 14.7724 14.773 14.7734 14.7735 14.7735 14.7096 14.725 14.7389 14.7455 14.7498 14.753 14.7556 14.7578 14.7599 14.7617 14.7634 14.7649 14.7663 14.7676 14.7687 14.7697 14.7706 14.7714 14.772 14.7725 14.773 14.7732 14.7734 14.7737 14.7367 14.7442 14.751 14.7558 14.7588 14.7609 14.7625 14.7639 14.7651 14.7663 14.7673 14.7682 14.7691 14.7698 14.7705 14.7711 14.7716 14.7721 14.7725 14.7728 14.7731 14.7733 14.7734 14.7737 14.762 14.7637 14.7656 14.7671 14.7682 14.7689 14.7695 14.77 14.7705 14.7709 14.7713 14.7717 14.772 14.7722 14.7724 14.7727 14.7728 14.773 14.7731 14.7732 14.7733 14.7733 14.7734 14.7735 14.7865 14.7832 14.7805 14.7786 14.7776 14.7769 14.7765 14.7762 14.776 14.7757 14.7754 14.7752 14.7749 14.7747 14.7744 14.7743 14.774 14.7739 14.7737 14.7736 14.7735 14.7734 14.7733 14.7732 14.8116 14.8022 14.7945 14.7895 14.7867 14.7849 14.7835 14.7824 14.7813 14.7804 14.7795 14.7786 14.7778 14.7771 14.7764 14.7758 14.7753 14.7748 14.7744 14.774 14.7737 14.7735 14.7733 14.773 14.8381 14.8196 14.8056 14.7993 14.7954 14.7927 14.7904 14.7884 14.7866 14.785 14.7835 14.782 14.7807 14.7795 14.7783 14.7773 14.7764 14.7756 14.7749 14.7743 14.7738 14.7735 14.7732 14.7729 14.8851 14.8209 14.8136 14.8081 14.8038 14.8003 14.7972 14.7944 14.7919 14.7895 14.7873 14.7853 14.7834 14.7816 14.78 14.7786 14.7773 14.7762 14.7752 14.7744 14.7738 14.7734 14.7731 14.7731 14.6637 14.724 14.7313 14.7371 14.7416 14.7455 14.749 14.752 14.7548 14.7573 14.7596 14.7617 14.7636 14.7654 14.767 14.7683 14.7696 14.7707 14.7716 14.7724 14.773 14.7734 14.7735 14.7734 14.7106 14.7263 14.7401 14.7465 14.7504 14.7533 14.7558 14.7579 14.7599 14.7617 14.7633 14.7649 14.7662 14.7675 14.7686 14.7696 14.7705 14.7713 14.772 14.7725 14.7729 14.7732 14.7734 14.7737 14.7373 14.745 14.7519 14.7566 14.7593 14.7611 14.7626 14.7639 14.7652 14.7662 14.7673 14.7682 14.769 14.7698 14.7705 14.7711 14.7717 14.7721 14.7725 14.7728 14.773 14.7732 14.7733 14.7736 14.7622 14.7641 14.766 14.7674 14.7684 14.769 14.7696 14.7701 14.7705 14.7709 14.7713 14.7717 14.7719 14.7722 14.7725 14.7727 14.7728 14.773 14.7731 14.7732 14.7733 14.7733 14.7733 14.7734 14.7863 14.7829 14.7802 14.7784 14.7775 14.7769 14.7766 14.7762 14.7759 14.7757 14.7754 14.7752 14.7749 14.7747 14.7745 14.7743 14.7741 14.7739 14.7737 14.7736 14.7735 14.7734 14.7733 14.7732 14.8111 14.8014 14.7937 14.7889 14.7864 14.7848 14.7835 14.7824 14.7813 14.7804 14.7795 14.7787 14.7779 14.7771 14.7765 14.7759 14.7753 14.7748 14.7744 14.774 14.7738 14.7735 14.7732 14.773 14.8374 14.8184 14.8045 14.7984 14.795 14.7924 14.7903 14.7884 14.7867 14.785 14.7835 14.7821 14.7807 14.7795 14.7784 14.7774 14.7764 14.7756 14.7749 14.7743 14.7739 14.7735 14.7732 14.7729 14.8825 14.8195 14.8124 14.8071 14.8033 14.8 14.797 14.7944 14.7919 14.7895 14.7874 14.7853 14.7835 14.7817 14.7801 14.7787 14.7774 14.7763 14.7753 14.7745 14.7738 14.7734 14.7731 14.7731 14.6699 14.7261 14.7346 14.7392 14.7429 14.7462 14.7492 14.7521 14.7547 14.7572 14.7594 14.7615 14.7635 14.7652 14.7668 14.7682 14.7695 14.7706 14.7715 14.7722 14.7728 14.7733 14.7734 14.7734 14.7128 14.7293 14.7437 14.7487 14.7516 14.7539 14.756 14.758 14.7599 14.7616 14.7633 14.7648 14.7662 14.7674 14.7685 14.7696 14.7705 14.7712 14.7719 14.7724 14.7729 14.7732 14.7734 14.7737 14.7387 14.7472 14.7546 14.7582 14.7602 14.7616 14.7628 14.7641 14.7652 14.7662 14.7673 14.7681 14.769 14.7698 14.7704 14.7711 14.7715 14.7721 14.7724 14.7728 14.773 14.7732 14.7734 14.7736 14.7627 14.7649 14.767 14.7681 14.7688 14.7693 14.7697 14.7702 14.7706 14.771 14.7713 14.7716 14.772 14.7722 14.7724 14.7727 14.7728 14.773 14.7731 14.7732 14.7733 14.7733 14.7734 14.7735 14.7859 14.7822 14.7794 14.7781 14.7774 14.777 14.7766 14.7763 14.776 14.7757 14.7755 14.7752 14.775 14.7747 14.7745 14.7743 14.7741 14.7739 14.7738 14.7736 14.7735 14.7734 14.7733 14.7732 14.8098 14.7992 14.7912 14.7876 14.7858 14.7845 14.7834 14.7824 14.7814 14.7805 14.7796 14.7788 14.778 14.7772 14.7766 14.7759 14.7754 14.7749 14.7745 14.7741 14.7738 14.7735 14.7733 14.773 14.8356 14.8154 14.8013 14.7967 14.7941 14.7921 14.7902 14.7884 14.7867 14.7852 14.7836 14.7822 14.7809 14.7796 14.7785 14.7775 14.7766 14.7758 14.775 14.7745 14.774 14.7736 14.7733 14.773 14.8775 14.8173 14.8094 14.8054 14.8024 14.7995 14.7969 14.7944 14.792 14.7897 14.7876 14.7855 14.7836 14.7819 14.7803 14.7789 14.7776 14.7765 14.7755 14.7746 14.774 14.7735 14.7733 14.7732 14.6603 14.7408 14.7399 14.7421 14.7443 14.7468 14.7494 14.752 14.7545 14.7569 14.7591 14.7612 14.7632 14.7649 14.7665 14.7679 14.7691 14.7703 14.7712 14.7719 14.7726 14.773 14.7733 14.7734 14.7048 14.745 14.7506 14.7519 14.7532 14.7547 14.7563 14.7581 14.7599 14.7615 14.7631 14.7646 14.766 14.7673 14.7684 14.7694 14.7703 14.771 14.7717 14.7723 14.7727 14.7731 14.7733 14.7736 14.734 14.7571 14.7597 14.7607 14.7614 14.7622 14.7631 14.7642 14.7652 14.7662 14.7672 14.7681 14.7689 14.7697 14.7703 14.7709 14.7714 14.772 14.7723 14.7727 14.7729 14.7731 14.7733 14.7736 14.7611 14.7681 14.7689 14.7692 14.7694 14.7696 14.7699 14.7703 14.7707 14.771 14.7713 14.7717 14.7719 14.7722 14.7724 14.7726 14.7728 14.773 14.7731 14.7731 14.7732 14.7733 14.7733 14.7734 14.7872 14.7787 14.7779 14.7775 14.7772 14.7769 14.7767 14.7764 14.7761 14.7758 14.7755 14.7753 14.775 14.7748 14.7745 14.7743 14.7742 14.774 14.7738 14.7737 14.7736 14.7735 14.7733 14.7732 14.8137 14.7893 14.7869 14.7857 14.7851 14.7843 14.7834 14.7824 14.7815 14.7806 14.7797 14.7789 14.7781 14.7773 14.7767 14.776 14.7755 14.775 14.7746 14.7742 14.7739 14.7736 14.7734 14.7731 14.8421 14.8006 14.7955 14.7942 14.793 14.7916 14.7901 14.7885 14.7869 14.7853 14.7838 14.7823 14.781 14.7798 14.7787 14.7777 14.7767 14.7759 14.7752 14.7746 14.7741 14.7737 14.7734 14.773 14.8848 14.8042 14.8053 14.8032 14.8013 14.7991 14.7968 14.7945 14.7922 14.7899 14.7878 14.7858 14.7839 14.7822 14.7806 14.7792 14.7779 14.7768 14.7758 14.7749 14.7743 14.7738 14.7734 14.7732 
SCALARS volume_diff float 1
LOOKUP_TABLE default
14.6585 14.7391 14.738 14.7402 14.7424 14.7449 14.7475 14.7501 14.7526 14.7549 14.7572 14.7593 14.7612 14.7629 14.7645 14.7659 14.7672 14.7683 14.7692 14.77 14.7706 14.771 14.7713 14.7714 14.703 14.7432 14.7487 14.75 14.7512 14.7527 14.7544 14.7561 14.7579 14.7595 14.7612 14.7626 14.764 14.7653 14.7664 14.7674 14.7683 14.7691 14.7697 14.7703 14.7707 14.7711 14.7713 14.7716 14.7322 14.7553 14.7578 14.7588 14.7595 14.7603 14.7612 14.7622 14.7632 14.7642 14.7652 14.7661 14.767 14.7677 14.7684 14.769 14.7695 14.77 14.7704 14.7707 14.771 14.7712 14.7713 14.7716 14.7592 14.7661 14.767 14.7672 14.7674 14.7677 14.768 14.7683 14.7687 14.769 14.7694 14.7697 14.77 14.7702 14.7705 14.7707 14.7708 14.771 14.7711 14.7712 14.7713 14.7713 14.7713 14.7715 14.7852 14.7767 14.776 14.7756 14.7752 14.775 14.7747 14.7744 14.7741 14.7739 14.7736 14.7733 14.773 14.7728 14.7726 14.7724 14.7722 14.772 14.7719 14.7717 14.7716 14.7715 14.7714 14.7712 14.8117 14.7873 14.7849 14.7838 14.7831 14.7823 14.7814 14.7805 14.7796 14.7786 14.7777 14.7769 14.7761 14.7754 14.7747 14.7741 14.7735 14.773 14.7726 14.7722 14.7719 14.7716 14.7714 14.7711 14.84 14.7985 14.7935 14.7922 14.791 14.7897 14.7881 14.7865 14.7849 14.7834 14.7818 14.7804 14.7791 14.7779 14.7767 14.7757 14.7748 14.774 14.7733 14.7726 14.7722 14.7718 14.7715 14.7711 14.8828 14.8021 14.8032 14.8012 14.7993 14.7972 14.7948 14.7925 14.7902 14.788 14.7858 14.7838 14.782 14.7803 14.7786 14.7772 14.7759 14.7748 14.7738 14.773 14.7723 14.7718 14.7714 14.7712 14.668 14.7242 14.7327 14.7373 14.7409 14.7443 14.7473 14.7502 14.7528 14.7552 14.7575 14.7596 14.7615 14.7632 14.7648 14.7662 14.7675 14.7686 14.7695 14.7702 14.7709 14.7713 14.7715 14.7715 14.7109 14.7274 14.7418 14.7468 14.7496 14.752 14.7541 14.7561 14.7579 14.7597 14.7613 14.7628 14.7642 14.7655 14.7666 14.7676 14.7685 14.7693 14.7699 14.7705 14.7709 14.7712 14.7714 14.7717 14.7368 14.7453 14.7526 14.7563 14.7582 14.7597 14.7609 14.7621 14.7632 14.7643 14.7653 14.7662 14.7671 14.7678 14.7685 14.7691 14.7696 14.7701 14.7705 14.7708 14.771 14.7713 14.7714 14.7717 14.7608 14.7629 14.765 14.7662 14.7669 14.7674 14.7678 14.7682 14.7686 14.769 14.7694 14.7697 14.77 14.7703 14.7705 14.7707 14.7709 14.771 14.7711 14.7712 14.7713 14.7714 14.7714 14.7715 14.7839 14.7802 14.7774 14.7761 14.7754 14.775 14.7746 14.7744 14.7741 14.7738 14.7735 14.7733 14.773 14.7728 14.7725 14.7724 14.7722 14.772 14.7718 14.7717 14.7716 14.7715 14.7713 14.7712 14.8078 14.7973 14.7893 14.7857 14.7839 14.7826 14.7815 14.7805 14.7795 14.7785 14.7776 14.7768 14.776 14.7753 14.7746 14.774 14.7735 14.7729 14.7725 14.7722 14.7719 14.7716 14.7714 14.771 14.8335 14.8135 14.7993 14.7947 14.7922 14.7901 14.7883 14.7865 14.7848 14.7832 14.7817 14.7803 14.7789 14.7777 14.7765 14.7755 14.7746 14.7738 14.7731 14.7725 14.772 14.7717 14.7714 14.771 14.8755 14.8153 14.8074 14.8035 14.8004 14.7976 14.795 14.7924 14.79 14.7877 14.7856 14.7836 14.7817 14.78 14.7784 14.7769 14.7757 14.7745 14.7735 14.7727 14.7721 14.7716 14.7713 14.7713 14.6618 14.7221 14.7294 14.7352 14.7397 14.7436 14.747 14.7501 14.7528 14.7553 14.7576 14.7597 14.7617 14.7634 14.765 14.7664 14.7677 14.7687 14.7697 14.7704 14.771 14.7714 14.7716 14.7715 14.7087 14.7244 14.7382 14.7446 14.7484 14.7513 14.7538 14.756 14.7579 14.7597 14.7614 14.7629 14.7643 14.7656 14.7667 14.7677 14.7686 14.7694 14.77 14.7705 14.771 14.7712 14.7715 14.7717 14.7353 14.7431 14.75 14.7546 14.7573 14.7592 14.7607 14.762 14.7632 14.7643 14.7653 14.7662 14.7671 14.7678 14.7685 14.7692 14.7697 14.7701 14.7705 14.7708 14.7711 14.7713 14.7714 14.7717 14.7603 14.7622 14.764 14.7655 14.7664 14.7671 14.7676 14.7681 14.7686 14.769 14.7694 14.7697 14.77 14.7703 14.7705 14.7707 14.7709 14.771 14.7712 14.7712 14.7713 14.7714 14.7714 14.7715 14.7844 14.781 14.7783 14.7765 14.7755 14.775 14.7746 14.7743 14.774 14.7737 14.7734 14.7732 14.773 14.7727 14.7725 14.7723 14.7721 14.772 14.7718 14.7717 14.7716 14.7715 14.7713 14.7712 14.8091 14.7994 14.7917 14.787 14.7845 14.7828 14.7816 14.7804 14.7794 14.7785 14.7775 14.7767 14.7759 14.7752 14.7746 14.7739 14.7734 14.7729 14.7725 14.7721 14.7718 14.7715 14.7713 14.771 14.8354 14.8164 14.8025 14.7965 14.793 14.7905 14.7884 14.7865 14.7847 14.7831 14.7816 14.7801 14.7788 14.7776 14.7764 14.7754 14.7745 14.7737 14.773 14.7724 14.7719 14.7716 14.7713 14.771 14.8806 14.8175 14.8104 14.8052 14.8013 14.7981 14.7951 14.7924 14.7899 14.7876 14.7855 14.7834 14.7815 14.7798 14.7782 14.7768 14.7755 14.7743 14.7733 14.7725 14.7719 14.7715 14.7712 14.7712 14.6587 14.7207 14.7282 14.7341 14.739 14.7432 14.7469 14.75 14.7529 14.7554 14.7577 14.7598 14.7618 14.7635 14.7651 14.7665 14.7677 14.7688 14.7697 14.7705 14.7711 14.7714 14.7716 14.7715 14.7078 14.7231 14.7369 14.7436 14.7478 14.751 14.7536 14.7559 14.7579 14.7598 14.7614 14.763 14.7644 14.7656 14.7667 14.7677 14.7687 14.7694 14.7701 14.7706 14.771 14.7713 14.7715 14.7717 14.7348 14.7422 14.749 14.7539 14.7568 14.759 14.7605 14.762 14.7632 14.7643 14.7653 14.7663 14.7671 14.7679 14.7686 14.7692 14.7697 14.7702 14.7706 14.7708 14.7711 14.7713 14.7715 14.7717 14.7601 14.7618 14.7637 14.7652 14.7662 14.767 14.7676 14.7681 14.7686 14.769 14.7694 14.7697 14.77 14.7703 14.7705 14.7707 14.7709 14.7711 14.7712 14.7712 14.7713 14.7714 14.7714 14.7715 14.7846 14.7813 14.7785 14.7767 14.7756 14.775 14.7746 14.7743 14.774 14.7737 14.7734 14.7732 14.7729 14.7727 14.7725 14.7723 14.7721 14.772 14.7718 14.7717 14.7716 14.7715 14.7713 14.7712 14.8096 14.8002 14.7925 14.7876 14.7848 14.783 14.7816 14.7804 14.7794 14.7784 14.7775 14.7767 14.7759 14.7752 14.7745 14.7739 14.7733 14.7729 14.7724 14.7721 14.7718 14.7716 14.7713 14.771 14.8362 14.8177 14.8037 14.7973 14.7935 14.7907 14.7885 14.7865 14.7847 14.783 14.7815 14.7801 14.7787 14.7775 14.7764 14.7754 14.7744 14.7736 14.7729 14.7723 14.7719 14.7715 14.7713 14.771 14.8831 14.819 14.8116 14.8061 14.8019 14.7983 14.7952 14.7925 14.7899 14.7876 14.7854 14.7833 14.7814 14.7797 14.7781 14.7767 14.7754 14.7742 14.7733 14.7725 14.7718 14.7714 14.7712 14.7712 14.6587 14.7206 14.7281 14.7341 14.739 14.7432 14.7468 14.75 14.7529 14.7554 14.7577 14.7598 14.7617 14.7635 14.765 14.7665 14.7677 14.7688 14.7697 14.7705 14.7711 14.7715 14.7716 14.7715 14.7077 14.723 14.7369 14.7436 14.7478 14.751 14.7536 14.7559 14.7579 14.7598 14.7614 14.7629 14.7643 14.7656 14.7667 14.7678 14.7686 14.7694 14.7701 14.7706 14.771 14.7713 14.7715 14.7717 14.7347 14.7422 14.749 14.7539 14.7568 14.7589 14.7605 14.7619 14.7632 14.7643 14.7653 14.7663 14.7671 14.7679 14.7685 14.7691 14.7697 14.7701 14.7705 14.7709 14.7711 14.7713 14.7714 14.7717 14.7601 14.7618 14.7636 14.7652 14.7662 14.767 14.7676 14.7681 14.7685 14.769 14.7694 14.7697 14.77 14.7703 14.7705 14.7707 14.7709 14.771 14.7711 14.7712 14.7713 14.7714 14.7714 14.7715 14.7845 14.7813 14.7785 14.7767 14.7756 14.775 14.7746 14.7743 14.774 14.7737 14.7734 14.7732 14.773 14.7727 14.7725 14.7723 14.7721 14.7719 14.7718 14.7717 14.7715 14.7714 14.7713 14.7712 14.8096 14.8002 14.7926 14.7876 14.7848 14.783 14.7816 14.7804 14.7794 14.7784 14.7775 14.7767 14.7759 14.7752 14.7745 14.7739 14.7733 14.7728 14.7724 14.772 14.7718 14.7715 14.7713 14.771 14.8362 14.8177 14.8036 14.7973 14.7935 14.7907 14.7885 14.7865 14.7847 14.783 14.7815 14.7801 14.7787 14.7775 14.7764 14.7753 14.7744 14.7736 14.7729 14.7723 14.7719 14.7715 14.7713 14.771 14.8831 14.819 14.8116 14.8061 14.8019 14.7983 14.7952 14.7924 14.7899 14.7875 14.7853 14.7833 14.7814 14.7797 14.7781 14.7767 14.7754 14.7742 14.7733 14.7725 14.7718 14.7714 14.7711 14.7712 14.6617 14.7221 14.7294 14.7352 14.7397 14.7436 14.747 14.7501 14.7528 14.7553 14.7576 14.7597 14.7617 14.7634 14.765 14.7664 14.7677 14.7687 14.7697 14.7704 14.771 14.7714 14.7715 14.7715 14.7087 14.7244 14.7381 14.7446 14.7484 14.7513 14.7538 14.756 14.758 14.7597 14.7614 14.7629 14.7643 14.7656 14.7667 14.7677 14.7686 14.7693 14.77 14.7705 14.771 14.7713 14.7714 14.7717 14.7353 14.7431 14.7499 14.7546 14.7573 14.7592 14.7607 14.762 14.7632 14.7643 14.7653 14.7663 14.7671 14.7678 14.7685 14.7692 14.7697 14.7701 14.7705 14.7708 14.7711 14.7713 14.7714 14.7717 14.7603 14.7621 14.764 14.7655 14.7664 14.7671 14.7676 14.7681 14.7686 14.769 14.7694 14.7697 14.77 14.7703 14.7705 14.7707 14.7709 14.771 14.7711 14.7712 14.7713 14.7714 14.7714 14.7715 14.7844 14.781 14.7782 14.7765 14.7755 14.775 14.7746 14.7743 14.774 14.7737 14.7735 14.7732 14.7729 14.7727 14.7725 14.7723 14.7721 14.772 14.7718 14.7716 14.7716 14.7715 14.7713 14.7712 14.8091 14.7994 14.7917 14.787 14.7844 14.7828 14.7815 14.7804 14.7794 14.7785 14.7776 14.7767 14.7759 14.7752 14.7745 14.7739 14.7733 14.7729 14.7724 14.772 14.7718 14.7715 14.7713 14.771 14.8354 14.8164 14.8025 14.7965 14.793 14.7905 14.7884 14.7865 14.7847 14.7831 14.7815 14.7801 14.7788 14.7776 14.7764 14.7754 14.7745 14.7737 14.773 14.7724 14.7719 14.7716 14.7713 14.771 14.8806 14.8176 14.8104 14.8052 14.8013 14.7981 14.7951 14.7924 14.7899 14.7876 14.7854 14.7834 14.7815 14.7798 14.7782 14.7768 14.7755 14.7743 14.7734 14.7725 14.7719 14.7714 14.7712 14.7712 14.6679 14.7241 14.7326 14.7372 14.7409 14.7442 14.7473 14.7501 14.7528 14.7552 14.7575 14.7596 14.7615 14.7632 14.7648 14.7663 14.7675 14.7686 14.7695 14.7703 14.7709 14.7713 14.7715 14.7715 14.7108 14.7274 14.7418 14.7467 14.7496 14.752 14.7541 14.7561 14.758 14.7597 14.7613 14.7628 14.7642 14.7655 14.7666 14.7676 14.7685 14.7693 14.77 14.7704 14.7709 14.7712 14.7714 14.7717 14.7367 14.7452 14.7526 14.7562 14.7582 14.7597 14.7609 14.7621 14.7632 14.7643 14.7653 14.7662 14.767 14.7678 14.7685 14.7691 14.7696 14.7701 14.7705 14.7708 14.7711 14.7712 14.7714 14.7717 14.7608 14.7629 14.765 14.7662 14.7669 14.7673 14.7678 14.7682 14.7686 14.7691 14.7694 14.7697 14.77 14.7703 14.7705 14.7707 14.7709 14.771 14.7711 14.7712 14.7713 14.7714 14.7714 14.7715 14.7839 14.7802 14.7774 14.7761 14.7754 14.775 14.7747 14.7743 14.7741 14.7738 14.7735 14.7733 14.773 14.7728 14.7725 14.7723 14.7722 14.772 14.7718 14.7717 14.7716 14.7715 14.7713 14.7712 14.8078 14.7973 14.7893 14.7857 14.7839 14.7826 14.7815 14.7805 14.7795 14.7785 14.7776 14.7768 14.776 14.7753 14.7746 14.774 14.7734 14.773 14.7725 14.7721 14.7719 14.7716 14.7714 14.7711 14.8336 14.8135 14.7993 14.7947 14.7921 14.7901 14.7883 14.7865 14.7848 14.7832 14.7817 14.7803 14.7789 14.7777 14.7766 14.7755 14.7746 14.7738 14.7731 14.7725 14.772 14.7717 14.7714 14.7711 14.8755 14.8153 14.8075 14.8035 14.8004 14.7976 14.7949 14.7924 14.79 14.7878 14.7856 14.7836 14.7817 14.78 14.7784 14.777 14.7757 14.7745 14.7736 14.7727 14.772 14.7716 14.7713 14.7712 14.6584 14.7389 14.7379 14.7401 14.7423 14.7449 14.7475 14.7501 14.7526 14.7549 14.7572 14.7593 14.7612 14.763 14.7645 14.766 14.7672 14.7683 14.7692 14.77 14.7706 14.7711 14.7713 14.7715 14.7028 14.7431 14.7486 14.75 14.7512 14.7527 14.7544 14.7561 14.7579 14.7596 14.7611 14.7627 14.764 14.7653 14.7664 14.7674 14.7683 14.7691 14.7698 14.7703 14.7708 14.7711 14.7714 14.7717 14.7321 14.7552 14.7577 14.7588 14.7594 14.7603 14.7612 14.7622 14.7633 14.7643 14.7652 14.7661 14.7669 14.7677 14.7684 14.769 14.7695 14.77 14.7704 14.7707 14.771 14.7712 14.7713 14.7716 14.7592 14.7661 14.7669 14.7672 14.7674 14.7677 14.768 14.7684 14.7687 14.7691 14.7694 14.7697 14.77 14.7703 14.7705 14.7707 14.7709 14.771 14.7711 14.7712 14.7713 14.7713 14.7714 14.7715 14.7852 14.7767 14.776 14.7756 14.7753 14.775 14.7747 14.7744 14.7741 14.7739 14.7736 14.7733 14.7731 14.7728 14.7726 14.7724 14.7722 14.772 14.7718 14.7717 14.7716 14.7715 14.7714 14.7713 14.8117 14.7874 14.785 14.7838 14.7831 14.7823 14.7814 14.7805 14.7796 14.7786 14.7778 14.7769 14.7761 14.7754 14.7747 14.7741 14.7735 14.7731 14.7726 14.7722 14.7719 14.7717 14.7714 14.7711 14.8402 14.7987 14.7936 14.7922 14.791 14.7897 14.7881 14.7865 14.7849 14.7834 14.7818 14.7804 14.7791 14.7779 14.7767 14.7757 14.7748 14.7739 14.7733 14.7727 14.7722 14.7718 14.7714 14.7711 14.8829 14.8023 14.8034 14.8013 14.7994 14.7972 14.7949 14.7925 14.7902 14.788 14.7858 14.7838 14.782 14.7802 14.7786 14.7772 14.7759 14.7748 14.7738 14.773 14.7723 14.7718 14.7715 14.7713 
