# vtk DataFile Version 5.1
vtk output
ASCII

DATASET UNSTRUCTURED_GRID
POINTS 14161 float
0 0 0
0.125 0 0
0.25 0 0
0.375 0 0
0.5 0 0
0.625 0 0
0.75 0 0
0.875 0 0
1 0 0
1.125 0 0
1.25 0 0
1.375 0 0
1.5 0 0
1.625 0 0
1.75 0 0
1.875 0 0
2 0 0
2.125 0 0
2.25 0 0
2.375 0 0
2.5 0 0
2.625 0 0
2.75 0 0
2.875 0 0
3 0 0
0 0.125 0
0.125 0.125 0
0.25 0.125 0
0.375 0.125 0
0.5 0.125 0
0.625 0.125 0
0.75 0.125 0
0.875 0.125 0
1 0.125 0
1.125 0.125 0
1.25 0.125 0
1.375 0.125 0
1.5 0.125 0
1.625 0.125 0
1.75 0.125 0
1.875 0.125 0
2 0.125 0
2.125 0.125 0
2.25 0.125 0
2.375 0.125 0
2.5 0.125 0
2.625 0.125 0
2.75 0.125 0
2.875 0.125 0
3 0.125 0
0 0.25 0
0.125 0.25 0
0.25 0.25 0
0.375 0.25 0
0.5 0.25 0
0.625 0.25 0
0.75 0.25 0
0.875 0.25 0
1 0.25 0
1.125 0.25 0
1.25 0.25 0
1.375 0.25 0
1.5 0.25 0
1.625 0.25 0
1.75 0.25 0
1.875 0.25 0
2 0.25 0
2.125 0.25 0
2.25 0.25 0
2.375 0.25 0
2.5 0.25 0
2.625 0.25 0
2.75 0.25 0
2.875 0.25 0
3 0.25 0
0 0.375 0
0.125 0.375 0
0.25 0.375 0
0.375 0.375 0
0.5 0.375 0
0.625 0.375 0
0.75 0.375 0
0.875 0.375 0
1 0.375 0
1.125 0.375 0
1.25 0.375 0
1.375 0.375 0
1.5 0.375 0
1.625 0.375 0
1.75 0.375 0
1.875 0.375 0
2 0.375 0
2.125 0.375 0
2.25 0.375 0
2.375 0.375 0
2.5 0.375 0
2.625 0.375 0
2.75 0.375 0
2.875 0.375 0
3 0.375 0
0 0.5 0
0.125 0.5 0
0.25 0.5 0
0.375 0.5 0
0.5 0.5 0
0.625 0.5 0
0.75 0.5 0
0.875 0.5 0
1 0.5 0
1.125 0.5 0
1.25 0.5 0
1.375 0.5 0
1.5 0.5 0
1.625 0.5 0
1.75 0.5 0
1.875 0.5 0
2 0.5 0
2.125 0.5 0
2.25 0.5 0
2.375 0.5 0
2.5 0.5 0
2.625 0.5 0
2.75 0.5 0
2.875 0.5 0
3 0.5 0
0 0.625 0
0.125 0.625 0
0.25 0.625 0
0.375 0.625 0
0.5 0.625 0
0.625 0.625 0
0.75 0.625 0
0.875 0.625 0
1 0.625 0
1.125 0.625 0
1.25 0.625 0
1.375 0.625 0
1.5 0.625 0
1.625 0.625 0
1.75 0.625 0
1.875 0.625 0
2 0.625 0
2.125 0.625 0
2.25 0.625 0
2.375 0.625 0
2.5 0.625 0
2.625 0.625 0
2.75 0.625 0
2.875 0.625 0
3 0.625 0
0 0.75 0
0.125 0.75 0
0.25 0.75 0
0.375 0.75 0
0.5 0.75 0
0.625 0.75 0
0.75 0.75 0
0.875 0.75 0
1 0.75 0
1.125 0.75 0
1.25 0.75 0
1.375 0.75 0
1.5 0.75 0
1.625 0.75 0
1.75 0.75 0
1.875 0.75 0
2 0.75 0
2.125 0.75 0
2.25 0.75 0
2.375 0.75 0
2.5 0.75 0
2.625 0.75 0
2.75 0.75 0
2.875 0.75 0
3 0.75 0
0 0.875 0
0.125 0.875 0
0.25 0.875 0
0.375 0.875 0
0.5 0.875 0
0.625 0.875 0
0.75 0.875 0
0.875 0.875 0
1 0.875 0
1.125 0.875 0
1.25 0.875 0
1.375 0.875 0
1.5 0.875 0
1.625 0.875 0
1.75 0.875 0
1.875 0.875 0
2 0.875 0
2.125 0.875 0
2.25 0.875 0
2.375 0.875 0
2.5 0.875 0
2.625 0.875 0
2.75 0.875 0
2.875 0.875 0
3 0.875 0
0 1 0
0.125 1 0
0.25 1 0
0.375 1 0
0.5 1 0
0.625 1 0
0.75 1 0
0.875 1 0
1 1 0
1.125 1 0
1.25 1 0
1.375 1 0
1.5 1 0
1.625 1 0
1.75 1 0
1.875 1 0
2 1 0
2.125 1 0
2.25 1 0
2.375 1 0
2.5 1 0
2.625 1 0
2.75 1 0
2.875 1 0
3 1 0
0 0 0.125
0.125 0 0.125
0.25 0 0.125
0.375 0 0.125
0.5 0 0.125
0.625 0 0.125
0.75 0 0.125
0.875 0 0.125
1 0 0.125
1.125 0 0.125
1.25 0 0.125
1.375 0 0.125
1.5 0 0.125
1.625 0 0.125
1.75 0 0.125
1.875 0 0.125
2 0 0.125
2.125 0 0.125
2.25 0 0.125
2.375 0 0.125
2.5 0 0.125
2.625 0 0.125
2.75 0 0.125
2.875 0 0.125
3 0 0.125
0 0.125 0.125
0.125 0.125 0.125
0.25 0.125 0.125
0.375 0.125 0.125
0.5 0.125 0.125
0.625 0.125 0.125
0.75 0.125 0.125
0.875 0.125 0.125
1 0.125 0.125
1.125 0.125 0.125
1.25 0.125 0.125
1.375 0.125 0.125
1.5 0.125 0.125
1.625 0.125 0.125
1.75 0.125 0.125
1.875 0.125 0.125
2 0.125 0.125
2.125 0.125 0.125
2.25 0.125 0.125
2.375 0.125 0.125
2.5 0.125 0.125
2.625 0.125 0.125
2.75 0.125 0.125
2.875 0.125 0.125
3 0.125 0.125
0 0.25 0.125
0.125 0.25 0.125
0.25 0.25 0.125
0.375 0.25 0.125
0.5 0.25 0.125
0.625 0.25 0.125
0.75 0.25 0.125
0.875 0.25 0.125
1 0.25 0.125
1.125 0.25 0.125
1.25 0.25 0.125
1.375 0.25 0.125
1.5 0.25 0.125
1.625 0.25 0.125
1.75 0.25 0.125
1.875 0.25 0.125
2 0.25 0.125
2.125 0.25 0.125
2.25 0.25 0.125
2.375 0.25 0.125
2.5 0.25 0.125
2.625 0.25 0.125
2.75 0.25 0.125
2.875 0.25 0.125
3 0.25 0.125
0 0.375 0.125
0.125 0.375 0.125
0.25 0.375 0.125
0.375 0.375 0.125
0.5 0.375 0.125
0.625 0.375 0.125
0.75 0.375 0.125
0.875 0.375 0.125
1 0.375 0.125
1.125 0.375 0.125
1.25 0.375 0.125
1.375 0.375 0.125
1.5 0.375 0.125
1.625 0.375 0.125
1.75 0.375 0.125
1.875 0.375 0.125
2 0.375 0.125
2.125 0.375 0.125
2.25 0.375 0.125
2.375 0.375 0.125
2.5 0.375 0.125
2.625 0.375 0.125
2.75 0.375 0.125
2.875 0.375 0.125
3 0.375 0.125
0 0.5 0.125
0.125 0.5 0.125
0.25 0.5 0.125
0.375 0.5 0.125
0.5 0.5 0.125
0.625 0.5 0.125
0.75 0.5 0.125
0.875 0.5 0.125
1 0.5 0.125
1.125 0.5 0.125
1.25 0.5 0.125
1.375 0.5 0.125
1.5 0.5 0.125
1.625 0.5 0.125
1.75 0.5 0.125
1.875 0.5 0.125
2 0.5 0.125
2.125 0.5 0.125
2.25 0.5 0.125
2.375 0.5 0.125
2.5 0.5 0.125
2.625 0.5 0.125
2.75 0.5 0.125
2.875 0.5 0.125
3 0.5 0.125
0 0.625 0.125
0.125 0.625 0.125
0.25 0.625 0.125
0.375 0.625 0.125
0.5 0.625 0.125
0.625 0.625 0.125
0.75 0.625 0.125
0.875 0.625 0.125
1 0.625 0.125
1.125 0.625 0.125
1.25 0.625 0.125
1.375 0.625 0.125
1.5 0.625 0.125
1.625 0.625 0.125
1.75 0.625 0.125
1.875 0.625 0.125
2 0.625 0.125
2.125 0.625 0.125
2.25 0.625 0.125
2.375 0.625 0.125
2.5 0.625 0.125
2.625 0.625 0.125
2.75 0.625 0.125
2.875 0.625 0.125
3 0.625 0.125
0 0.75 0.125
0.125 0.75 0.125
0.25 0.75 0.125
0.375 0.75 0.125
0.5 0.75 0.125
0.625 0.75 0.125
0.75 0.75 0.125
0.875 0.75 0.125
1 0.75 0.125
1.125 0.75 0.125
1.25 0.75 0.125
1.375 0.75 0.125
1.5 0.75 0.125
1.625 0.75 0.125
1.75 0.75 0.125
1.875 0.75 0.125
2 0.75 0.125
2.125 0.75 0.125
2.25 0.75 0.125
2.375 0.75 0.125
2.5 0.75 0.125
2.625 0.75 0.125
2.75 0.75 0.125
2.875 0.75 0.125
3 0.75 0.125
0 0.875 0.125
0.125 0.875 0.125
0.25 0.875 0.125
0.375 0.875 0.125
0.5 0.875 0.125
0.625 0.875 0.125
0.75 0.875 0.125
0.875 0.875 0.125
1 0.875 0.125
1.125 0.875 0.125
1.25 0.875 0.125
1.375 0.875 0.125
1.5 0.875 0.125
1.625 0.875 0.125
1.75 0.875 0.125
1.875 0.875 0.125
2 0.875 0.125
2.125 0.875 0.125
2.25 0.875 0.125
2.375 0.875 0.125
2.5 0.875 0.125
2.625 0.875 0.125
2.75 0.875 0.125
2.875 0.875 0.125
3 0.875 0.125
0 1 0.125
0.125 1 0.125
0.25 1 0.125
0.375 1 0.125
0.5 1 0.125
0.625 1 0.125
0.75 1 0.125
0.875 1 0.125
1 1 0.125
1.125 1 0.125
1.25 1 0.125
1.375 1 0.125
1.5 1 0.125
1.625 1 0.125
1.75 1 0.125
1.875 1 0.125
2 1 0.125
2.125 1 0.125
2.25 1 0.125
2.375 1 0.125
2.5 1 0.125
2.625 1 0.125
2.75 1 0.125
2.875 1 0.125
3 1 0.125
0 0 0.25
0.125 0 0.25
0.25 0 0.25
0.375 0 0.25
0.5 0 0.25
0.625 0 0.25
0.75 0 0.25
0.875 0 0.25
1 0 0.25
1.125 0 0.25
1.25 0 0.25
1.375 0 0.25
1.5 0 0.25
1.625 0 0.25
1.75 0 0.25
1.875 0 0.25
2 0 0.25
2.125 0 0.25
2.25 0 0.25
2.375 0 0.25
2.5 0 0.25
2.625 0 0.25
2.75 0 0.25
2.875 0 0.25
3 0 0.25
0 0.125 0.25
0.125 0.125 0.25
0.25 0.125 0.25
0.375 0.125 0.25
0.5 0.125 0.25
0.625 0.125 0.25
0.75 0.125 0.25
0.875 0.125 0.25
1 0.125 0.25
1.125 0.125 0.25
1.25 0.125 0.25
1.375 0.125 0.25
1.5 0.125 0.25
1.625 0.125 0.25
1.75 0.125 0.25
1.875 0.125 0.25
2 0.125 0.25
2.125 0.125 0.25
2.25 0.125 0.25
2.375 0.125 0.25
2.5 0.125 0.25
2.625 0.125 0.25
2.75 0.125 0.25
2.875 0.125 0.25
3 0.125 0.25
0 0.25 0.25
0.125 0.25 0.25
0.25 0.25 0.25
0.375 0.25 0.25
0.5 0.25 0.25
0.625 0.25 0.25
0.75 0.25 0.25
0.875 0.25 0.25
1 0.25 0.25
1.125 0.25 0.25
1.25 0.25 0.25
1.375 0.25 0.25
1.5 0.25 0.25
1.625 0.25 0.25
1.75 0.25 0.25
1.875 0.25 0.25
2 0.25 0.25
2.125 0.25 0.25
2.25 0.25 0.25
2.375 0.25 0.25
2.5 0.25 0.25
2.625 0.25 0.25
2.75 0.25 0.25
2.875 0.25 0.25
3 0.25 0.25
0 0.375 0.25
0.125 0.375 0.25
0.25 0.375 0.25
0.375 0.375 0.25
0.5 0.375 0.25
0.625 0.375 0.25
0.75 0.375 0.25
0.875 0.375 0.25
1 0.375 0.25
1.125 0.375 0.25
1.25 0.375 0.25
1.375 0.375 0.25
1.5 0.375 0.25
1.625 0.375 0.25
1.75 0.375 0.25
1.875 0.375 0.25
2 0.375 0.25
2.125 0.375 0.25
2.25 0.375 0.25
2.375 0.375 0.25
2.5 0.375 0.25
2.625 0.375 0.25
2.75 0.375 0.25
2.875 0.375 0.25
3 0.375 0.25
0 0.5 0.25
0.125 0.5 0.25
0.25 0.5 0.25
0.375 0.5 0.25
0.5 0.5 0.25
0.625 0.5 0.25
0.75 0.5 0.25
0.875 0.5 0.25
1 0.5 0.25
1.125 0.5 0.25
1.25 0.5 0.25
1.375 0.5 0.25
1.5 0.5 0.25
1.625 0.5 0.25
1.75 0.5 0.25
1.875 0.5 0.25
2 0.5 0.25
2.125 0.5 0.25
2.25 0.5 0.25
2.375 0.5 0.25
2.5 0.5 0.25
2.625 0.5 0.25
2.75 0.5 0.25
2.875 0.5 0.25
3 0.5 0.25
0 0.625 0.25
0.125 0.625 0.25
0.25 0.625 0.25
0.375 0.625 0.25
0.5 0.625 0.25
0.625 0.625 0.25
0.75 0.625 0.25
0.875 0.625 0.25
1 0.625 0.25
1.125 0.625 0.25
1.25 0.625 0.25
1.375 0.625 0.25
1.5 0.625 0.25
1.625 0.625 0.25
1.75 0.625 0.25
1.875 0.625 0.25
2 0.625 0.25
2.125 0.625 0.25
2.25 0.625 0.25
2.375 0.625 0.25
2.5 0.625 0.25
2.625 0.625 0.25
2.75 0.625 0.25
2.875 0.625 0.25
3 0.625 0.25
0 0.75 0.25
0.125 0.75 0.25
0.25 0.75 0.25
0.375 0.75 0.25
0.5 0.75 0.25
0.625 0.75 0.25
0.75 0.75 0.25
0.875 0.75 0.25
1 0.75 0.25
1.125 0.75 0.25
1.25 0.75 0.25
1.375 0.75 0.25
1.5 0.75 0.25
1.625 0.75 0.25
1.75 0.75 0.25
1.875 0.75 0.25
2 0.75 0.25
2.125 0.75 0.25
2.25 0.75 0.25
2.375 0.75 0.25
2.5 0.75 0.25
2.625 0.75 0.25
2.75 0.75 0.25
2.875 0.75 0.25
3 0.75 0.25
0 0.875 0.25
0.125 0.875 0.25
0.25 0.875 0.25
0.375 0.875 0.25
0.5 0.875 0.25
0.625 0.875 0.25
0.75 0.875 0.25
0.875 0.875 0.25
1 0.875 0.25
1.125 0.875 0.25
1.25 0.875 0.25
1.375 0.875 0.25
1.5 0.875 0.25
1.625 0.875 0.25
1.75 0.875 0.25
1.875 0.875 0.25
2 0.875 0.25
2.125 0.875 0.25
2.25 0.875 0.25
2.375 0.875 0.25
2.5 0.875 0.25
2.625 0.875 0.25
2.75 0.875 0.25
2.875 0.875 0.25
3 0.875 0.25
0 1 0.25
0.125 1 0.25
0.25 1 0.25
0.375 1 0.25
0.5 1 0.25
0.625 1 0.25
0.75 1 0.25
0.875 1 0.25
1 1 0.25
1.125 1 0.25
1.25 1 0.25
1.375 1 0.25
1.5 1 0.25
1.625 1 0.25
1.75 1 0.25
1.875 1 0.25
2 1 0.25
2.125 1 0.25
2.25 1 0.25
2.375 1 0.25
2.5 1 0.25
2.625 1 0.25
2.75 1 0.25
2.875 1 0.25
3 1 0.25
0 0 0.375
0.125 0 0.375
0.25 0 0.375
0.375 0 0.375
0.5 0 0.375
0.625 0 0.375
0.75 0 0.375
0.875 0 0.375
1 0 0.375
1.125 0 0.375
1.25 0 0.375
1.375 0 0.375
1.5 0 0.375
1.625 0 0.375
1.75 0 0.375
1.875 0 0.375
2 0 0.375
2.125 0 0.375
2.25 0 0.375
2.375 0 0.375
2.5 0 0.375
2.625 0 0.375
2.75 0 0.375
2.875 0 0.375
3 0 0.375
0 0.125 0.375
0.125 0.125 0.375
0.25 0.125 0.375
0.375 0.125 0.375
0.5 0.125 0.375
0.625 0.125 0.375
0.75 0.125 0.375
0.875 0.125 0.375
1 0.125 0.375
1.125 0.125 0.375
1.25 0.125 0.375
1.375 0.125 0.375
1.5 0.125 0.375
1.625 0.125 0.375
1.75 0.125 0.375
1.875 0.125 0.375
2 0.125 0.375
2.125 0.125 0.375
2.25 0.125 0.375
2.375 0.125 0.375
2.5 0.125 0.375
2.625 0.125 0.375
2.75 0.125 0.375
2.875 0.125 0.375
3 0.125 0.375
0 0.25 0.375
0.125 0.25 0.375
0.25 0.25 0.375
0.375 0.25 0.375
0.5 0.25 0.375
0.625 0.25 0.375
0.75 0.25 0.375
0.875 0.25 0.375
1 0.25 0.375
1.125 0.25 0.375
1.25 0.25 0.375
1.375 0.25 0.375
1.5 0.25 0.375
1.625 0.25 0.375
1.75 0.25 0.375
1.875 0.25 0.375
2 0.25 0.375
2.125 0.25 0.375
2.25 0.25 0.375
2.375 0.25 0.375
2.5 0.25 0.375
2.625 0.25 0.375
2.75 0.25 0.375
2.875 0.25 0.375
3 0.25 0.375
0 0.375 0.375
0.125 0.375 0.375
0.25 0.375 0.375
0.375 0.375 0.375
0.5 0.375 0.375
0.625 0.375 0.375
0.75 0.375 0.375
0.875 0.375 0.375
1 0.375 0.375
1.125 0.375 0.375
1.25 0.375 0.375
1.375 0.375 0.375
1.5 0.375 0.375
1.625 0.375 0.375
1.75 0.375 0.375
1.875 0.375 0.375
2 0.375 0.375
2.125 0.375 0.375
2.25 0.375 0.375
2.375 0.375 0.375
2.5 0.375 0.375
2.625 0.375 0.375
2.75 0.375 0.375
2.875 0.375 0.375
3 0.375 0.375
0 0.5 0.375
0.125 0.5 0.375
0.25 0.5 0.375
0.375 0.5 0.375
0.5 0.5 0.375
0.625 0.5 0.375
0.75 0.5 0.375
0.875 0.5 0.375
1 0.5 0.375
1.125 0.5 0.375
1.25 0.5 0.375
1.375 0.5 0.375
1.5 0.5 0.375
1.625 0.5 0.375
1.75 0.5 0.375
1.875 0.5 0.375
2 0.5 0.375
2.125 0.5 0.375
2.25 0.5 0.375
2.375 0.5 0.375
2.5 0.5 0.375
2.625 0.5 0.375
2.75 0.5 0.375
2.875 0.5 0.375
3 0.5 0.375
0 0.625 0.375
0.125 0.625 0.375
0.25 0.625 0.375
0.375 0.625 0.375
0.5 0.625 0.375
0.625 0.625 0.375
0.75 0.625 0.375
0.875 0.625 0.375
1 0.625 0.375
1.125 0.625 0.375
1.25 0.625 0.375
1.375 0.625 0.375
1.5 0.625 0.375
1.625 0.625 0.375
1.75 0.625 0.375
1.875 0.625 0.375
2 0.625 0.375
2.125 0.625 0.375
2.25 0.625 0.375
2.375 0.625 0.375
2.5 0.625 0.375
2.625 0.625 0.375
2.75 0.625 0.375
2.875 0.625 0.375
3 0.625 0.375
0 0.75 0.375
0.125 0.75 0.375
0.25 0.75 0.375
0.375 0.75 0.375
0.5 0.75 0.375
0.625 0.75 0.375
0.75 0.75 0.375
0.875 0.75 0.375
1 0.75 0.375
1.125 0.75 0.375
1.25 0.75 0.375
1.375 0.75 0.375
1.5 0.75 0.375
1.625 0.75 0.375
1.75 0.75 0.375
1.875 0.75 0.375
2 0.75 0.375
2.125 0.75 0.375
2.25 0.75 0.375
2.375 0.75 0.375
2.5 0.75 0.375
2.625 0.75 0.375
2.75 0.75 0.375
2.875 0.75 0.375
3 0.75 0.375
0 0.875 0.375
0.125 0.875 0.375
0.25 0.875 0.375
0.375 0.875 0.375
0.5 0.875 0.375
0.625 0.875 0.375
0.75 0.875 0.375
0.875 0.875 0.375
1 0.875 0.375
1.125 0.875 0.375
1.25 0.875 0.375
1.375 0.875 0.375
1.5 0.875 0.375
1.625 0.875 0.375
1.75 0.875 0.375
1.875 0.875 0.375
2 0.875 0.375
2.125 0.875 0.375
2.25 0.875 0.375
2.375 0.875 0.375
2.5 0.875 0.375
2.625 0.875 0.375
2.75 0.875 0.375
2.875 0.875 0.375
3 0.875 0.375
0 1 0.375
0.125 1 0.375
0.25 1 0.375
0.375 1 0.375
0.5 1 0.375
0.625 1 0.375
0.75 1 0.375
0.875 1 0.375
1 1 0.375
1.125 1 0.375
1.25 1 0.375
1.375 1 0.375
1.5 1 0.375
1.625 1 0.375
1.75 1 0.375
1.875 1 0.375
2 1 0.375
2.125 1 0.375
2.25 1 0.375
2.375 1 0.375
2.5 1 0.375
2.625 1 0.375
2.75 1 0.375
2.875 1 0.375
3 1 0.375
0 0 0.5
0.125 0 0.5
0.25 0 0.5
0.375 0 0.5
0.5 0 0.5
0.625 0 0.5
0.75 0 0.5
0.875 0 0.5
1 0 0.5
1.125 0 0.5
1.25 0 0.5
1.375 0 0.5
1.5 0 0.5
1.625 0 0.5
1.75 0 0.5
1.875 0 0.5
2 0 0.5
2.125 0 0.5
2.25 0 0.5
2.375 0 0.5
2.5 0 0.5
2.625 0 0.5
2.75 0 0.5
2.875 0 0.5
3 0 0.5
0 0.125 0.5
0.125 0.125 0.5
0.25 0.125 0.5
0.375 0.125 0.5
0.5 0.125 0.5
0.625 0.125 0.5
0.75 0.125 0.5
0.875 0.125 0.5
1 0.125 0.5
1.125 0.125 0.5
1.25 0.125 0.5
1.375 0.125 0.5
1.5 0.125 0.5
1.625 0.125 0.5
1.75 0.125 0.5
1.875 0.125 0.5
2 0.125 0.5
2.125 0.125 0.5
2.25 0.125 0.5
2.375 0.125 0.5
2.5 0.125 0.5
2.625 0.125 0.5
2.75 0.125 0.5
2.875 0.125 0.5
3 0.125 0.5
0 0.25 0.5
0.125 0.25 0.5
0.25 0.25 0.5
0.375 0.25 0.5
0.5 0.25 0.5
0.625 0.25 0.5
0.75 0.25 0.5
0.875 0.25 0.5
1 0.25 0.5
1.125 0.25 0.5
1.25 0.25 0.5
1.375 0.25 0.5
1.5 0.25 0.5
1.625 0.25 0.5
1.75 0.25 0.5
1.875 0.25 0.5
2 0.25 0.5
2.125 0.25 0.5
2.25 0.25 0.5
2.375 0.25 0.5
2.5 0.25 0.5
2.625 0.25 0.5
2.75 0.25 0.5
2.875 0.25 0.5
3 0.25 0.5
0 0.375 0.5
0.125 0.375 0.5
0.25 0.375 0.5
0.375 0.375 0.5
0.5 0.375 0.5
0.625 0.375 0.5
0.75 0.375 0.5
0.875 0.375 0.5
1 0.375 0.5
1.125 0.375 0.5
1.25 0.375 0.5
1.375 0.375 0.5
1.5 0.375 0.5
1.625 0.375 0.5
1.75 0.375 0.5
1.875 0.375 0.5
2 0.375 0.5
2.125 0.375 0.5
2.25 0.375 0.5
2.375 0.375 0.5
2.5 0.375 0.5
2.625 0.375 0.5
2.75 0.375 0.5
2.875 0.375 0.5
3 0.375 0.5
0 0.5 0.5
0.125 0.5 0.5
0.25 0.5 0.5
0.375 0.5 0.5
0.5 0.5 0.5
0.625 0.5 0.5
0.75 0.5 0.5
0.875 0.5 0.5
1 0.5 0.5
1.125 0.5 0.5
1.25 0.5 0.5
1.375 0.5 0.5
1.5 0.5 0.5
1.625 0.5 0.5
1.75 0.5 0.5
1.875 0.5 0.5
2 0.5 0.5
2.125 0.5 0.5
2.25 0.5 0.5
2.375 0.5 0.5
2.5 0.5 0.5
2.625 0.5 0.5
2.75 0.5 0.5
2.875 0.5 0.5
3 0.5 0.5
0 0.625 0.5
0.125 0.625 0.5
0.25 0.625 0.5
0.375 0.625 0.5
0.5 0.625 0.5
0.625 0.625 0.5
0.75 0.625 0.5
0.875 0.625 0.5
1 0.625 0.5
1.125 0.625 0.5
1.25 0.625 0.5
1.375 0.625 0.5
1.5 0.625 0.5
1.625 0.625 0.5
1.75 0.625 0.5
1.875 0.625 0.5
2 0.625 0.5
2.125 0.625 0.5
2.25 0.625 0.5
2.375 0.625 0.5
2.5 0.625 0.5
2.625 0.625 0.5
2.75 0.625 0.5
2.875 0.625 0.5
3 0.625 0.5
0 0.75 0.5
0.125 0.75 0.5
0.25 0.75 0.5
0.375 0.75 0.5
0.5 0.75 0.5
0.625 0.75 0.5
0.75 0.75 0.5
0.875 0.75 0.5
1 0.75 0.5
1.125 0.75 0.5
1.25 0.75 0.5
1.375 0.75 0.5
1.5 0.75 0.5
1.625 0.75 0.5
1.75 0.75 0.5
1.875 0.75 0.5
2 0.75 0.5
2.125 0.75 0.5
2.25 0.75 0.5
2.375 0.75 0.5
2.5 0.75 0.5
2.625 0.75 0.5
2.75 0.75 0.5
2.875 0.75 0.5
3 0.75 0.5
0 0.875 0.5
0.125 0.875 0.5
0.25 0.875 0.5
0.375 0.875 0.5
0.5 0.875 0.5
0.625 0.875 0.5
0.75 0.875 0.5
0.875 0.875 0.5
1 0.875 0.5
1.125 0.875 0.5
1.25 0.875 0.5
1.375 0.875 0.5
1.5 0.875 0.5
1.625 0.875 0.5
1.75 0.875 0.5
1.875 0.875 0.5
2 0.875 0.5
2.125 0.875 0.5
2.25 0.875 0.5
2.375 0.875 0.5
2.5 0.875 0.5
2.625 0.875 0.5
2.75 0.875 0.5
2.875 0.875 0.5
3 0.875 0.5
0 1 0.5
0.125 1 0.5
0.25 1 0.5
0.375 1 0.5
0.5 1 0.5
0.625 1 0.5
0.75 1 0.5
0.875 1 0.5
1 1 0.5
1.125 1 0.5
1.25 1 0.5
1.375 1 0.5
1.5 1 0.5
1.625 1 0.5
1.75 1 0.5
1.875 1 0.5
2 1 0.5
2.125 1 0.5
2.25 1 0.5
2.375 1 0.5
2.5 1 0.5
2.625 1 0.5
2.75 1 0.5
2.875 1 0.5
3 1 0.5
0 0 0.625
0.125 0 0.625
0.25 0 0.625
0.375 0 0.625
0.5 0 0.625
0.625 0 0.625
0.75 0 0.625
0.875 0 0.625
1 0 0.625
1.125 0 0.625
1.25 0 0.625
1.375 0 0.625
1.5 0 0.625
1.625 0 0.625
1.75 0 0.625
1.875 0 0.625
2 0 0.625
2.125 0 0.625
2.25 0 0.625
2.375 0 0.625
2.5 0 0.625
2.625 0 0.625
2.75 0 0.625
2.875 0 0.625
3 0 0.625
0 0.125 0.625
0.125 0.125 0.625
0.25 0.125 0.625
0.375 0.125 0.625
0.5 0.125 0.625
0.625 0.125 0.625
0.75 0.125 0.625
0.875 0.125 0.625
1 0.125 0.625
1.125 0.125 0.625
1.25 0.125 0.625
1.375 0.125 0.625
1.5 0.125 0.625
1.625 0.125 0.625
1.75 0.125 0.625
1.875 0.125 0.625
2 0.125 0.625
2.125 0.125 0.625
2.25 0.125 0.625
2.375 0.125 0.625
2.5 0.125 0.625
2.625 0.125 0.625
2.75 0.125 0.625
2.875 0.125 0.625
3 0.125 0.625
0 0.25 0.625
0.125 0.25 0.625
0.25 0.25 0.625
0.375 0.25 0.625
0.5 0.25 0.625
0.625 0.25 0.625
0.75 0.25 0.625
0.875 0.25 0.625
1 0.25 0.625
1.125 0.25 0.625
1.25 0.25 0.625
1.375 0.25 0.625
1.5 0.25 0.625
1.625 0.25 0.625
1.75 0.25 0.625
1.875 0.25 0.625
2 0.25 0.625
2.125 0.25 0.625
2.25 0.25 0.625
2.375 0.25 0.625
2.5 0.25 0.625
2.625 0.25 0.625
2.75 0.25 0.625
2.875 0.25 0.625
3 0.25 0.625
0 0.375 0.625
0.125 0.375 0.625
0.25 0.375 0.625
0.375 0.375 0.625
0.5 0.375 0.625
0.625 0.375 0.625
0.75 0.375 0.625
0.875 0.375 0.625
1 0.375 0.625
1.125 0.375 0.625
1.25 0.375 0.625
1.375 0.375 0.625
1.5 0.375 0.625
1.625 0.375 0.625
1.75 0.375 0.625
1.875 0.375 0.625
2 0.375 0.625
2.125 0.375 0.625
2.25 0.375 0.625
2.375 0.375 0.625
2.5 0.375 0.625
2.625 0.375 0.625
2.75 0.375 0.625
2.875 0.375 0.625
3 0.375 0.625
0 0.5 0.625
0.125 0.5 0.625
0.25 0.5 0.625
0.375 0.5 0.625
0.5 0.5 0.625
0.625 0.5 0.625
0.75 0.5 0.625
0.875 0.5 0.625
1 0.5 0.625
1.125 0.5 0.625
1.25 0.5 0.625
1.375 0.5 0.625
1.5 0.5 0.625
1.625 0.5 0.625
1.75 0.5 0.625
1.875 0.5 0.625
2 0.5 0.625
2.125 0.5 0.625
2.25 0.5 0.625
2.375 0.5 0.625
2.5 0.5 0.625
2.625 0.5 0.625
2.75 0.5 0.625
2.875 0.5 0.625
3 0.5 0.625
0 0.625 0.625
0.125 0.625 0.625
0.25 0.625 0.625
0.375 0.625 0.625
0.5 0.625 0.625
0.625 0.625 0.625
0.75 0.625 0.625
0.875 0.625 0.625
1 0.625 0.625
1.125 0.625 0.625
1.25 0.625 0.625
1.375 0.625 0.625
1.5 0.625 0.625
1.625 0.625 0.625
1.75 0.625 0.625
1.875 0.625 0.625
2 0.625 0.625
2.125 0.625 0.625
2.25 0.625 0.625
2.375 0.625 0.625
2.5 0.625 0.625
2.625 0.625 0.625
2.75 0.625 0.625
2.875 0.625 0.625
3 0.625 0.625
0 0.75 0.625
0.125 0.75 0.625
0.25 0.75 0.625
0.375 0.75 0.625
0.5 0.75 0.625
0.625 0.75 0.625
0.75 0.75 0.625
0.875 0.75 0.625
1 0.75 0.625
1.125 0.75 0.625
1.25 0.75 0.625
1.375 0.75 0.625
1.5 0.75 0.625
1.625 0.75 0.625
1.75 0.75 0.625
1.875 0.75 0.625
2 0.75 0.625
2.125 0.75 0.625
2.25 0.75 0.625
2.375 0.75 0.625
2.5 0.75 0.625
2.625 0.75 0.625
2.75 0.75 0.625
2.875 0.75 0.625
3 0.75 0.625
0 0.875 0.625
0.125 0.875 0.625
0.25 0.875 0.625
0.375 0.875 0.625
0.5 0.875 0.625
0.625 0.875 0.625
0.75 0.875 0.625
0.875 0.875 0.625
1 0.875 0.625
1.125 0.875 0.625
1.25 0.875 0.625
1.375 0.875 0.625
1.5 0.875 0.625
1.625 0.875 0.625
1.75 0.875 0.625
1.875 0.875 0.625
2 0.875 0.625
2.125 0.875 0.625
2.25 0.875 0.625
2.375 0.875 0.625
2.5 0.875 0.625
2.625 0.875 0.625
2.75 0.875 0.625
2.875 0.875 0.625
3 0.875 0.625
0 1 0.625
0.125 1 0.625
0.25 1 0.625
0.375 1 0.625
0.5 1 0.625
0.625 1 0.625
0.75 1 0.625
0.875 1 0.625
1 1 0.625
1.125 1 0.625
1.25 1 0.625
1.375 1 0.625
1.5 1 0.625
1.625 1 0.625
1.75 1 0.625
1.875 1 0.625
2 1 0.625
2.125 1 0.625
2.25 1 0.625
2.375 1 0.625
2.5 1 0.625
2.625 1 0.625
2.75 1 0.625
2.875 1 0.625
3 1 0.625
0 0 0.75
0.125 0 0.75
0.25 0 0.75
0.375 0 0.75
0.5 0 0.75
0.625 0 0.75
0.75 0 0.75
0.875 0 0.75
1 0 0.75
1.125 0 0.75
1.25 0 0.75
1.375 0 0.75
1.5 0 0.75
1.625 0 0.75
1.75 0 0.75
1.875 0 0.75
2 0 0.75
2.125 0 0.75
2.25 0 0.75
2.375 0 0.75
2.5 0 0.75
2.625 0 0.75
2.75 0 0.75
2.875 0 0.75
3 0 0.75
0 0.125 0.75
0.125 0.125 0.75
0.25 0.125 0.75
0.375 0.125 0.75
0.5 0.125 0.75
0.625 0.125 0.75
0.75 0.125 0.75
0.875 0.125 0.75
1 0.125 0.75
1.125 0.125 0.75
1.25 0.125 0.75
1.375 0.125 0.75
1.5 0.125 0.75
1.625 0.125 0.75
1.75 0.125 0.75
1.875 0.125 0.75
2 0.125 0.75
2.125 0.125 0.75
2.25 0.125 0.75
2.375 0.125 0.75
2.5 0.125 0.75
2.625 0.125 0.75
2.75 0.125 0.75
2.875 0.125 0.75
3 0.125 0.75
0 0.25 0.75
0.125 0.25 0.75
0.25 0.25 0.75
0.375 0.25 0.75
0.5 0.25 0.75
0.625 0.25 0.75
0.75 0.25 0.75
0.875 0.25 0.75
1 0.25 0.75
1.125 0.25 0.75
1.25 0.25 0.75
1.375 0.25 0.75
1.5 0.25 0.75
1.625 0.25 0.75
1.75 0.25 0.75
1.875 0.25 0.75
2 0.25 0.75
2.125 0.25 0.75
2.25 0.25 0.75
2.375 0.25 0.75
2.5 0.25 0.75
2.625 0.25 0.75
2.75 0.25 0.75
2.875 0.25 0.75
3 0.25 0.75
0 0.375 0.75
0.125 0.375 0.75
0.25 0.375 0.75
0.375 0.375 0.75
0.5 0.375 0.75
0.625 0.375 0.75
0.75 0.375 0.75
0.875 0.375 0.75
1 0.375 0.75
1.125 0.375 0.75
1.25 0.375 0.75
1.375 0.375 0.75
1.5 0.375 0.75
1.625 0.375 0.75
1.75 0.375 0.75
1.875 0.375 0.75
2 0.375 0.75
2.125 0.375 0.75
2.25 0.375 0.75
2.375 0.375 0.75
2.5 0.375 0.75
2.625 0.375 0.75
2.75 0.375 0.75
2.875 0.375 0.75
3 0.375 0.75
0 0.5 0.75
0.125 0.5 0.75
0.25 0.5 0.75
0.375 0.5 0.75
0.5 0.5 0.75
0.625 0.5 0.75
0.75 0.5 0.75
0.875 0.5 0.75
1 0.5 0.75
1.125 0.5 0.75
1.25 0.5 0.75
1.375 0.5 0.75
1.5 0.5 0.75
1.625 0.5 0.75
1.75 0.5 0.75
1.875 0.5 0.75
2 0.5 0.75
2.125 0.5 0.75
2.25 0.5 0.75
2.375 0.5 0.75
2.5 0.5 0.75
2.625 0.5 0.75
2.75 0.5 0.75
2.875 0.5 0.75
3 0.5 0.75
0 0.625 0.75
0.125 0.625 0.75
0.25 0.625 0.75
0.375 0.625 0.75
0.5 0.625 0.75
0.625 0.625 0.75
0.75 0.625 0.75
0.875 0.625 0.75
1 0.625 0.75
1.125 0.625 0.75
1.25 0.625 0.75
1.375 0.625 0.75
1.5 0.625 0.75
1.625 0.625 0.75
1.75 0.625 0.75
1.875 0.625 0.75
2 0.625 0.75
2.125 0.625 0.75
2.25 0.625 0.75
2.375 0.625 0.75
2.5 0.625 0.75
2.625 0.625 0.75
2.75 0.625 0.75
2.875 0.625 0.75
3 0.625 0.75
0 0.75 0.75
0.125 0.75 0.75
0.25 0.75 0.75
0.375 0.75 0.75
0.5 0.75 0.75
0.625 0.75 0.75
0.75 0.75 0.75
0.875 0.75 0.75
1 0.75 0.75
1.125 0.75 0.75
1.25 0.75 0.75
1.375 0.75 0.75
1.5 0.75 0.75
1.625 0.75 0.75
1.75 0.75 0.75
1.875 0.75 0.75
2 0.75 0.75
2.125 0.75 0.75
2.25 0.75 0.75
2.375 0.75 0.75
2.5 0.75 0.75
2.625 0.75 0.75
2.75 0.75 0.75
2.875 0.75 0.75
3 0.75 0.75
0 0.875 0.75
0.125 0.875 0.75
0.25 0.875 0.75
0.375 0.875 0.75
0.5 0.875 0.75
0.625 0.875 0.75
0.75 0.875 0.75
0.875 0.875 0.75
1 0.875 0.75
1.125 0.875 0.75
1.25 0.875 0.75
1.375 0.875 0.75
1.5 0.875 0.75
1.625 0.875 0.75
1.75 0.875 0.75
1.875 0.875 0.75
2 0.875 0.75
2.125 0.875 0.75
2.25 0.875 0.75
2.375 0.875 0.75
2.5 0.875 0.75
2.625 0.875 0.75
2.75 0.875 0.75
2.875 0.875 0.75
3 0.875 0.75
0 1 0.75
0.125 1 0.75
0.25 1 0.75
0.375 1 0.75
0.5 1 0.75
0.625 1 0.75
0.75 1 0.75
0.875 1 0.75
1 1 0.75
1.125 1 0.75
1.25 1 0.75
1.375 1 0.75
1.5 1 0.75
1.625 1 0.75
1.75 1 0.75
1.875 1 0.75
2 1 0.75
2.125 1 0.75
2.25 1 0.75
2.375 1 0.75
2.5 1 0.75
2.625 1 0.75
2.75 1 0.75
2.875 1 0.75
3 1 0.75
0 0 0.875
0.125 0 0.875
0.25 0 0.875
0.375 0 0.875
0.5 0 0.875
0.625 0 0.875
0.75 0 0.875
0.875 0 0.875
1 0 0.875
1.125 0 0.875
1.25 0 0.875
1.375 0 0.875
1.5 0 0.875
1.625 0 0.875
1.75 0 0.875
1.875 0 0.875
2 0 0.875
2.125 0 0.875
2.25 0 0.875
2.375 0 0.875
2.5 0 0.875
2.625 0 0.875
2.75 0 0.875
2.875 0 0.875
3 0 0.875
0 0.125 0.875
0.125 0.125 0.875
0.25 0.125 0.875
0.375 0.125 0.875
0.5 0.125 0.875
0.625 0.125 0.875
0.75 0.125 0.875
0.875 0.125 0.875
1 0.125 0.875
1.125 0.125 0.875
1.25 0.125 0.875
1.375 0.125 0.875
1.5 0.125 0.875
1.625 0.125 0.875
1.75 0.125 0.875
1.875 0.125 0.875
2 0.125 0.875
2.125 0.125 0.875
2.25 0.125 0.875
2.375 0.125 0.875
2.5 0.125 0.875
2.625 0.125 0.875
2.75 0.125 0.875
2.875 0.125 0.875
3 0.125 0.875
0 0.25 0.875
0.125 0.25 0.875
0.25 0.25 0.875
0.375 0.25 0.875
0.5 0.25 0.875
0.625 0.25 0.875
0.75 0.25 0.875
0.875 0.25 0.875
1 0.25 0.875
1.125 0.25 0.875
1.25 0.25 0.875
1.375 0.25 0.875
1.5 0.25 0.875
1.625 0.25 0.875
1.75 0.25 0.875
1.875 0.25 0.875
2 0.25 0.875
2.125 0.25 0.875
2.25 0.25 0.875
2.375 0.25 0.875
2.5 0.25 0.875
2.625 0.25 0.875
2.75 0.25 0.875
2.875 0.25 0.875
3 0.25 0.875
0 0.375 0.875
0.125 0.375 0.875
0.25 0.375 0.875
0.375 0.375 0.875
0.5 0.375 0.875
0.625 0.375 0.875
0.75 0.375 0.875
0.875 0.375 0.875
1 0.375 0.875
1.125 0.375 0.875
1.25 0.375 0.875
1.375 0.375 0.875
1.5 0.375 0.875
1.625 0.375 0.875
1.75 0.375 0.875
1.875 0.375 0.875
2 0.375 0.875
2.125 0.375 0.875
2.25 0.375 0.875
2.375 0.375 0.875
2.5 0.375 0.875
2.625 0.375 0.875
2.75 0.375 0.875
2.875 0.375 0.875
3 0.375 0.875
0 0.5 0.875
0.125 0.5 0.875
0.25 0.5 0.875
0.375 0.5 0.875
0.5 0.5 0.875
0.625 0.5 0.875
0.75 0.5 0.875
0.875 0.5 0.875
1 0.5 0.875
1.125 0.5 0.875
1.25 0.5 0.875
1.375 0.5 0.875
1.5 0.5 0.875
1.625 0.5 0.875
1.75 0.5 0.875
1.875 0.5 0.875
2 0.5 0.875
2.125 0.5 0.875
2.25 0.5 0.875
2.375 0.5 0.875
2.5 0.5 0.875
2.625 0.5 0.875
2.75 0.5 0.875
2.875 0.5 0.875
3 0.5 0.875
0 0.625 0.875
0.125 0.625 0.875
0.25 0.625 0.875
0.375 0.625 0.875
0.5 0.625 0.875
0.625 0.625 0.875
0.75 0.625 0.875
0.875 0.625 0.875
1 0.625 0.875
1.125 0.625 0.875
1.25 0.625 0.875
1.375 0.625 0.875
1.5 0.625 0.875
1.625 0.625 0.875
1.75 0.625 0.875
1.875 0.625 0.875
2 0.625 0.875
2.125 0.625 0.875
2.25 0.625 0.875
2.375 0.625 0.875
2.5 0.625 0.875
2.625 0.625 0.875
2.75 0.625 0.875
2.875 0.625 0.875
3 0.625 0.875
0 0.75 0.875
0.125 0.75 0.875
0.25 0.75 0.875
0.375 0.75 0.875
0.5 0.75 0.875
0.625 0.75 0.875
0.75 0.75 0.875
0.875 0.75 0.875
1 0.75 0.875
1.125 0.75 0.875
1.25 0.75 0.875
1.375 0.75 0.875
1.5 0.75 0.875
1.625 0.75 0.875
1.75 0.75 0.875
1.875 0.75 0.875
2 0.75 0.875
2.125 0.75 0.875
2.25 0.75 0.875
2.375 0.75 0.875
2.5 0.75 0.875
2.625 0.75 0.875
2.75 0.75 0.875
2.875 0.75 0.875
3 0.75 0.875
0 0.875 0.875
0.125 0.875 0.875
0.25 0.875 0.875
0.375 0.875 0.875
0.5 0.875 0.875
0.625 0.875 0.875
0.75 0.875 0.875
0.875 0.875 0.875
1 0.875 0.875
1.125 0.875 0.875
1.25 0.875 0.875
1.375 0.875 0.875
1.5 0.875 0.875
1.625 0.875 0.875
1.75 0.875 0.875
1.875 0.875 0.875
2 0.875 0.875
2.125 0.875 0.875
2.25 0.875 0.875
2.375 0.875 0.875
2.5 0.875 0.875
2.625 0.875 0.875
2.75 0.875 0.875
2.875 0.875 0.875
3 0.875 0.875
0 1 0.875
0.125 1 0.875
0.25 1 0.875
0.375 1 0.875
0.5 1 0.875
0.625 1 0.875
0.75 1 0.875
0.875 1 0.875
1 1 0.875
1.125 1 0.875
1.25 1 0.875
1.375 1 0.875
1.5 1 0.875
1.625 1 0.875
1.75 1 0.875
1.875 1 0.875
2 1 0.875
2.125 1 0.875
2.25 1 0.875
2.375 1 0.875
2.5 1 0.875
2.625 1 0.875
2.75 1 0.875
2.875 1 0.875
3 1 0.875
0 0 1
0.125 0 1
0.25 0 1
0.375 0 1
0.5 0 1
0.625 0 1
0.75 0 1
0.875 0 1
1 0 1
1.125 0 1
1.25 0 1
1.375 0 1
1.5 0 1
1.625 0 1
1.75 0 1
1.875 0 1
2 0 1
2.125 0 1
2.25 0 1
2.375 0 1
2.5 0 1
2.625 0 1
2.75 0 1
2.875 0 1
3 0 1
0 0.125 1
0.125 0.125 1
0.25 0.125 1
0.375 0.125 1
0.5 0.125 1
0.625 0.125 1
0.75 0.125 1
0.875 0.125 1
1 0.125 1
1.125 0.125 1
1.25 0.125 1
1.375 0.125 1
1.5 0.125 1
1.625 0.125 1
1.75 0.125 1
1.875 0.125 1
2 0.125 1
2.125 0.125 1
2.25 0.125 1
2.375 0.125 1
2.5 0.125 1
2.625 0.125 1
2.75 0.125 1
2.875 0.125 1
3 0.125 1
0 0.25 1
0.125 0.25 1
0.25 0.25 1
0.375 0.25 1
0.5 0.25 1
0.625 0.25 1
0.75 0.25 1
0.875 0.25 1
1 0.25 1
1.125 0.25 1
1.25 0.25 1
1.375 0.25 1
1.5 0.25 1
1.625 0.25 1
1.75 0.25 1
1.875 0.25 1
2 0.25 1
2.125 0.25 1
2.25 0.25 1
2.375 0.25 1
2.5 0.25 1
2.625 0.25 1
2.75 0.25 1
2.875 0.25 1
3 0.25 1
0 0.375 1
0.125 0.375 1
0.25 0.375 1
0.375 0.375 1
0.5 0.375 1
0.625 0.375 1
0.75 0.375 1
0.875 0.375 1
1 0.375 1
1.125 0.375 1
1.25 0.375 1
1.375 0.375 1
1.5 0.375 1
1.625 0.375 1
1.75 0.375 1
1.875 0.375 1
2 0.375 1
2.125 0.375 1
2.25 0.375 1
2.375 0.375 1
2.5 0.375 1
2.625 0.375 1
2.75 0.375 1
2.875 0.375 1
3 0.375 1
0 0.5 1
0.125 0.5 1
0.25 0.5 1
0.375 0.5 1
0.5 0.5 1
0.625 0.5 1
0.75 0.5 1
0.875 0.5 1
1 0.5 1
1.125 0.5 1
1.25 0.5 1
1.375 0.5 1
1.5 0.5 1
1.625 0.5 1
1.75 0.5 1
1.875 0.5 1
2 0.5 1
2.125 0.5 1
2.25 0.5 1
2.375 0.5 1
2.5 0.5 1
2.625 0.5 1
2.75 0.5 1
2.875 0.5 1
3 0.5 1
0 0.625 1
0.125 0.625 1
0.25 0.625 1
0.375 0.625 1
0.5 0.625 1
0.625 0.625 1
0.75 0.625 1
0.875 0.625 1
1 0.625 1
1.125 0.625 1
1.25 0.625 1
1.375 0.625 1
1.5 0.625 1
1.625 0.625 1
1.75 0.625 1
1.875 0.625 1
2 0.625 1
2.125 0.625 1
2.25 0.625 1
2.375 0.625 1
2.5 0.625 1
2.625 0.625 1
2.75 0.625 1
2.875 0.625 1
3 0.625 1
0 0.75 1
0.125 0.75 1
0.25 0.75 1
0.375 0.75 1
0.5 0.75 1
0.625 0.75 1
0.75 0.75 1
0.875 0.75 1
1 0.75 1
1.125 0.75 1
1.25 0.75 1
1.375 0.75 1
1.5 0.75 1
1.625 0.75 1
1.75 0.75 1
1.875 0.75 1
2 0.75 1
2.125 0.75 1
2.25 0.75 1
2.375 0.75 1
2.5 0.75 1
2.625 0.75 1
2.75 0.75 1
2.875 0.75 1
3 0.75 1
0 0.875 1
0.125 0.875 1
0.25 0.875 1
0.375 0.875 1
0.5 0.875 1
0.625 0.875 1
0.75 0.875 1
0.875 0.875 1
1 0.875 1
1.125 0.875 1
1.25 0.875 1
1.375 0.875 1
1.5 0.875 1
1.625 0.875 1
1.75 0.875 1
1.875 0.875 1
2 0.875 1
2.125 0.875 1
2.25 0.875 1
2.375 0.875 1
2.5 0.875 1
2.625 0.875 1
2.75 0.875 1
2.875 0.875 1
3 0.875 1
0 1 1
0.125 1 1
0.25 1 1
0.375 1 1
0.5 1 1
0.625 1 1
0.75 1 1
0.875 1 1
1 1 1
1.125 1 1
1.25 1 1
1.375 1 1
1.5 1 1
1.625 1 1
1.75 1 1
1.875 1 1
2 1 1
2.125 1 1
2.25 1 1
2.375 1 1
2.5 1 1
2.625 1 1
2.75 1 1
2.875 1 1
3 1 1
0.0625 0 0
0.125 0 0.0625
0.0625 0 0.125
0 0 0.0625
0 0.0625 0
0.125 0.0625 0
0.125 0.0625 0.125
0 0.0625 0.125
0.0625 0.125 0
0.125 0.125 0.0625
0.0625 0.125 0.125
0 0.125 0.0625
0.0625 0 0.0625
0.0625 0.0625 0
0.125 0.0625 0.0625
0.0625 0.0625 0.125
0 0.0625 0.0625
0.0625 0.125 0.0625
0.0625 0.0625 0.0625
0.1875 0 0
0.25 0 0.0625
0.1875 0 0.125
0.25 0.0625 0
0.25 0.0625 0.125
0.1875 0.125 0
0.25 0.125 0.0625
0.1875 0.125 0.125
0.1875 0 0.0625
0.1875 0.0625 0
0.25 0.0625 0.0625
0.1875 0.0625 0.125
0.1875 0.125 0.0625
0.1875 0.0625 0.0625
0.3125 0 0
0.375 0 0.0625
0.3125 0 0.125
0.375 0.0625 0
0.375 0.0625 0.125
0.3125 0.125 0
0.375 0.125 0.0625
0.3125 0.125 0.125
0.3125 0 0.0625
0.3125 0.0625 0
0.375 0.0625 0.0625
0.3125 0.0625 0.125
0.3125 0.125 0.0625
0.3125 0.0625 0.0625
0.4375 0 0
0.5 0 0.0625
0.4375 0 0.125
0.5 0.0625 0
0.5 0.0625 0.125
0.4375 0.125 0
0.5 0.125 0.0625
0.4375 0.125 0.125
0.4375 0 0.0625
0.4375 0.0625 0
0.5 0.0625 0.0625
0.4375 0.0625 0.125
0.4375 0.125 0.0625
0.4375 0.0625 0.0625
0.5625 0 0
0.625 0 0.0625
0.5625 0 0.125
0.625 0.0625 0
0.625 0.0625 0.125
0.5625 0.125 0
0.625 0.125 0.0625
0.5625 0.125 0.125
0.5625 0 0.0625
0.5625 0.0625 0
0.625 0.0625 0.0625
0.5625 0.0625 0.125
0.5625 0.125 0.0625
0.5625 0.0625 0.0625
0.6875 0 0
0.75 0 0.0625
0.6875 0 0.125
0.75 0.0625 0
0.75 0.0625 0.125
0.6875 0.125 0
0.75 0.125 0.0625
0.6875 0.125 0.125
0.6875 0 0.0625
0.6875 0.0625 0
0.75 0.0625 0.0625
0.6875 0.0625 0.125
0.6875 0.125 0.0625
0.6875 0.0625 0.0625
0.8125 0 0
0.875 0 0.0625
0.8125 0 0.125
0.875 0.0625 0
0.875 0.0625 0.125
0.8125 0.125 0
0.875 0.125 0.0625
0.8125 0.125 0.125
0.8125 0 0.0625
0.8125 0.0625 0
0.875 0.0625 0.0625
0.8125 0.0625 0.125
0.8125 0.125 0.0625
0.8125 0.0625 0.0625
0.9375 0 0
1 0 0.0625
0.9375 0 0.125
1 0.0625 0
1 0.0625 0.125
0.9375 0.125 0
1 0.125 0.0625
0.9375 0.125 0.125
0.9375 0 0.0625
0.9375 0.0625 0
1 0.0625 0.0625
0.9375 0.0625 0.125
0.9375 0.125 0.0625
0.9375 0.0625 0.0625
1.0625 0 0
1.125 0 0.0625
1.0625 0 0.125
1.125 0.0625 0
1.125 0.0625 0.125
1.0625 0.125 0
1.125 0.125 0.0625
1.0625 0.125 0.125
1.0625 0 0.0625
1.0625 0.0625 0
1.125 0.0625 0.0625
1.0625 0.0625 0.125
1.0625 0.125 0.0625
1.0625 0.0625 0.0625
1.1875 0 0
1.25 0 0.0625
1.1875 0 0.125
1.25 0.0625 0
1.25 0.0625 0.125
1.1875 0.125 0
1.25 0.125 0.0625
1.1875 0.125 0.125
1.1875 0 0.0625
1.1875 0.0625 0
1.25 0.0625 0.0625
1.1875 0.0625 0.125
1.1875 0.125 0.0625
1.1875 0.0625 0.0625
1.3125 0 0
1.375 0 0.0625
1.3125 0 0.125
1.375 0.0625 0
1.375 0.0625 0.125
1.3125 0.125 0
1.375 0.125 0.0625
1.3125 0.125 0.125
1.3125 0 0.0625
1.3125 0.0625 0
1.375 0.0625 0.0625
1.3125 0.0625 0.125
1.3125 0.125 0.0625
1.3125 0.0625 0.0625
1.4375 0 0
1.5 0 0.0625
1.4375 0 0.125
1.5 0.0625 0
1.5 0.0625 0.125
1.4375 0.125 0
1.5 0.125 0.0625
1.4375 0.125 0.125
1.4375 0 0.0625
1.4375 0.0625 0
1.5 0.0625 0.0625
1.4375 0.0625 0.125
1.4375 0.125 0.0625
1.4375 0.0625 0.0625
1.5625 0 0
1.625 0 0.0625
1.5625 0 0.125
1.625 0.0625 0
1.625 0.0625 0.125
1.5625 0.125 0
1.625 0.125 0.0625
1.5625 0.125 0.125
1.5625 0 0.0625
1.5625 0.0625 0
1.625 0.0625 0.0625
1.5625 0.0625 0.125
1.5625 0.125 0.0625
1.5625 0.0625 0.0625
1.6875 0 0
1.75 0 0.0625
1.6875 0 0.125
1.75 0.0625 0
1.75 0.0625 0.125
1.6875 0.125 0
1.75 0.125 0.0625
1.6875 0.125 0.125
1.6875 0 0.0625
1.6875 0.0625 0
1.75 0.0625 0.0625
1.6875 0.0625 0.125
1.6875 0.125 0.0625
1.6875 0.0625 0.0625
1.8125 0 0
1.875 0 0.0625
1.8125 0 0.125
1.875 0.0625 0
1.875 0.0625 0.125
1.8125 0.125 0
1.875 0.125 0.0625
1.8125 0.125 0.125
1.8125 0 0.0625
1.8125 0.0625 0
1.875 0.0625 0.0625
1.8125 0.0625 0.125
1.8125 0.125 0.0625
1.8125 0.0625 0.0625
1.9375 0 0
2 0 0.0625
1.9375 0 0.125
2 0.0625 0
2 0.0625 0.125
1.9375 0.125 0
2 0.125 0.0625
1.9375 0.125 0.125
1.9375 0 0.0625
1.9375 0.0625 0
2 0.0625 0.0625
1.9375 0.0625 0.125
1.9375 0.125 0.0625
1.9375 0.0625 0.0625
2.0625 0 0
2.125 0 0.0625
2.0625 0 0.125
2.125 0.0625 0
2.125 0.0625 0.125
2.0625 0.125 0
2.125 0.125 0.0625
2.0625 0.125 0.125
2.0625 0 0.0625
2.0625 0.0625 0
2.125 0.0625 0.0625
2.0625 0.0625 0.125
2.0625 0.125 0.0625
2.0625 0.0625 0.0625
2.1875 0 0
2.25 0 0.0625
2.1875 0 0.125
2.25 0.0625 0
2.25 0.0625 0.125
2.1875 0.125 0
2.25 0.125 0.0625
2.1875 0.125 0.125
2.1875 0 0.0625
2.1875 0.0625 0
2.25 0.0625 0.0625
2.1875 0.0625 0.125
2.1875 0.125 0.0625
2.1875 0.0625 0.0625
2.3125 0 0
2.375 0 0.0625
2.3125 0 0.125
2.375 0.0625 0
2.375 0.0625 0.125
2.3125 0.125 0
2.375 0.125 0.0625
2.3125 0.125 0.125
2.3125 0 0.0625
2.3125 0.0625 0
2.375 0.0625 0.0625
2.3125 0.0625 0.125
2.3125 0.125 0.0625
2.3125 0.0625 0.0625
2.4375 0 0
2.5 0 0.0625
2.4375 0 0.125
2.5 0.0625 0
2.5 0.0625 0.125
2.4375 0.125 0
2.5 0.125 0.0625
2.4375 0.125 0.125
2.4375 0 0.0625
2.4375 0.0625 0
2.5 0.0625 0.0625
2.4375 0.0625 0.125
2.4375 0.125 0.0625
2.4375 0.0625 0.0625
2.5625 0 0
2.625 0 0.0625
2.5625 0 0.125
2.625 0.0625 0
2.625 0.0625 0.125
2.5625 0.125 0
2.625 0.125 0.0625
2.5625 0.125 0.125
2.5625 0 0.0625
2.5625 0.0625 0
2.625 0.0625 0.0625
2.5625 0.0625 0.125
2.5625 0.125 0.0625
2.5625 0.0625 0.0625
2.6875 0 0
2.75 0 0.0625
2.6875 0 0.125
2.75 0.0625 0
2.75 0.0625 0.125
2.6875 0.125 0
2.75 0.125 0.0625
2.6875 0.125 0.125
2.6875 0 0.0625
2.6875 0.0625 0
2.75 0.0625 0.0625
2.6875 0.0625 0.125
2.6875 0.125 0.0625
2.6875 0.0625 0.0625
2.8125 0 0
2.875 0 0.0625
2.8125 0 0.125
2.875 0.0625 0
2.875 0.0625 0.125
2.8125 0.125 0
2.875 0.125 0.0625
2.8125 0.125 0.125
2.8125 0 0.0625
2.8125 0.0625 0
2.875 0.0625 0.0625
2.8125 0.0625 0.125
2.8125 0.125 0.0625
2.8125 0.0625 0.0625
2.9375 0 0
3 0 0.0625
2.9375 0 0.125
3 0.0625 0
3 0.0625 0.125
2.9375 0.125 0
3 0.125 0.0625
2.9375 0.125 0.125
2.9375 0 0.0625
2.9375 0.0625 0
3 0.0625 0.0625
2.9375 0.0625 0.125
2.9375 0.125 0.0625
2.9375 0.0625 0.0625
0 0.1875 0
0.125 0.1875 0
0.125 0.1875 0.125
0 0.1875 0.125
0.0625 0.25 0
0.125 0.25 0.0625
0.0625 0.25 0.125
0 0.25 0.0625
0.0625 0.1875 0
0.125 0.1875 0.0625
0.0625 0.1875 0.125
0 0.1875 0.0625
0.0625 0.25 0.0625
0.0625 0.1875 0.0625
0.25 0.1875 0
0.25 0.1875 0.125
0.1875 0.25 0
0.25 0.25 0.0625
0.1875 0.25 0.125
0.1875 0.1875 0
0.25 0.1875 0.0625
0.1875 0.1875 0.125
0.1875 0.25 0.0625
0.1875 0.1875 0.0625
0.375 0.1875 0
0.375 0.1875 0.125
0.3125 0.25 0
0.375 0.25 0.0625
0.3125 0.25 0.125
0.3125 0.1875 0
0.375 0.1875 0.0625
0.3125 0.1875 0.125
0.3125 0.25 0.0625
0.3125 0.1875 0.0625
0.5 0.1875 0
0.5 0.1875 0.125
0.4375 0.25 0
0.5 0.25 0.0625
0.4375 0.25 0.125
0.4375 0.1875 0
0.5 0.1875 0.0625
0.4375 0.1875 0.125
0.4375 0.25 0.0625
0.4375 0.1875 0.0625
0.625 0.1875 0
0.625 0.1875 0.125
0.5625 0.25 0
0.625 0.25 0.0625
0.5625 0.25 0.125
0.5625 0.1875 0
0.625 0.1875 0.0625
0.5625 0.1875 0.125
0.5625 0.25 0.0625
0.5625 0.1875 0.0625
0.75 0.1875 0
0.75 0.1875 0.125
0.6875 0.25 0
0.75 0.25 0.0625
0.6875 0.25 0.125
0.6875 0.1875 0
0.75 0.1875 0.0625
0.6875 0.1875 0.125
0.6875 0.25 0.0625
0.6875 0.1875 0.0625
0.875 0.1875 0
0.875 0.1875 0.125
0.8125 0.25 0
0.875 0.25 0.0625
0.8125 0.25 0.125
0.8125 0.1875 0
0.875 0.1875 0.0625
0.8125 0.1875 0.125
0.8125 0.25 0.0625
0.8125 0.1875 0.0625
1 0.1875 0
1 0.1875 0.125
0.9375 0.25 0
1 0.25 0.0625
0.9375 0.25 0.125
0.9375 0.1875 0
1 0.1875 0.0625
0.9375 0.1875 0.125
0.9375 0.25 0.0625
0.9375 0.1875 0.0625
1.125 0.1875 0
1.125 0.1875 0.125
1.0625 0.25 0
1.125 0.25 0.0625
1.0625 0.25 0.125
1.0625 0.1875 0
1.125 0.1875 0.0625
1.0625 0.1875 0.125
1.0625 0.25 0.0625
1.0625 0.1875 0.0625
1.25 0.1875 0
1.25 0.1875 0.125
1.1875 0.25 0
1.25 0.25 0.0625
1.1875 0.25 0.125
1.1875 0.1875 0
1.25 0.1875 0.0625
1.1875 0.1875 0.125
1.1875 0.25 0.0625
1.1875 0.1875 0.0625
1.375 0.1875 0
1.375 0.1875 0.125
1.3125 0.25 0
1.375 0.25 0.0625
1.3125 0.25 0.125
1.3125 0.1875 0
1.375 0.1875 0.0625
1.3125 0.1875 0.125
1.3125 0.25 0.0625
1.3125 0.1875 0.0625
1.5 0.1875 0
1.5 0.1875 0.125
1.4375 0.25 0
1.5 0.25 0.0625
1.4375 0.25 0.125
1.4375 0.1875 0
1.5 0.1875 0.0625
1.4375 0.1875 0.125
1.4375 0.25 0.0625
1.4375 0.1875 0.0625
1.625 0.1875 0
1.625 0.1875 0.125
1.5625 0.25 0
1.625 0.25 0.0625
1.5625 0.25 0.125
1.5625 0.1875 0
1.625 0.1875 0.0625
1.5625 0.1875 0.125
1.5625 0.25 0.0625
1.5625 0.1875 0.0625
1.75 0.1875 0
1.75 0.1875 0.125
1.6875 0.25 0
1.75 0.25 0.0625
1.6875 0.25 0.125
1.6875 0.1875 0
1.75 0.1875 0.0625
1.6875 0.1875 0.125
1.6875 0.25 0.0625
1.6875 0.1875 0.0625
1.875 0.1875 0
1.875 0.1875 0.125
1.8125 0.25 0
1.875 0.25 0.0625
1.8125 0.25 0.125
1.8125 0.1875 0
1.875 0.1875 0.0625
1.8125 0.1875 0.125
1.8125 0.25 0.0625
1.8125 0.1875 0.0625
2 0.1875 0
2 0.1875 0.125
1.9375 0.25 0
2 0.25 0.0625
1.9375 0.25 0.125
1.9375 0.1875 0
2 0.1875 0.0625
1.9375 0.1875 0.125
1.9375 0.25 0.0625
1.9375 0.1875 0.0625
2.125 0.1875 0
2.125 0.1875 0.125
2.0625 0.25 0
2.125 0.25 0.0625
2.0625 0.25 0.125
2.0625 0.1875 0
2.125 0.1875 0.0625
2.0625 0.1875 0.125
2.0625 0.25 0.0625
2.0625 0.1875 0.0625
2.25 0.1875 0
2.25 0.1875 0.125
2.1875 0.25 0
2.25 0.25 0.0625
2.1875 0.25 0.125
2.1875 0.1875 0
2.25 0.1875 0.0625
2.1875 0.1875 0.125
2.1875 0.25 0.0625
2.1875 0.1875 0.0625
2.375 0.1875 0
2.375 0.1875 0.125
2.3125 0.25 0
2.375 0.25 0.0625
2.3125 0.25 0.125
2.3125 0.1875 0
2.375 0.1875 0.0625
2.3125 0.1875 0.125
2.3125 0.25 0.0625
2.3125 0.1875 0.0625
2.5 0.1875 0
2.5 0.1875 0.125
2.4375 0.25 0
2.5 0.25 0.0625
2.4375 0.25 0.125
2.4375 0.1875 0
2.5 0.1875 0.0625
2.4375 0.1875 0.125
2.4375 0.25 0.0625
2.4375 0.1875 0.0625
2.625 0.1875 0
2.625 0.1875 0.125
2.5625 0.25 0
2.625 0.25 0.0625
2.5625 0.25 0.125
2.5625 0.1875 0
2.625 0.1875 0.0625
2.5625 0.1875 0.125
2.5625 0.25 0.0625
2.5625 0.1875 0.0625
2.75 0.1875 0
2.75 0.1875 0.125
2.6875 0.25 0
2.75 0.25 0.0625
2.6875 0.25 0.125
2.6875 0.1875 0
2.75 0.1875 0.0625
2.6875 0.1875 0.125
2.6875 0.25 0.0625
2.6875 0.1875 0.0625
2.875 0.1875 0
2.875 0.1875 0.125
2.8125 0.25 0
2.875 0.25 0.0625
2.8125 0.25 0.125
2.8125 0.1875 0
2.875 0.1875 0.0625
2.8125 0.1875 0.125
2.8125 0.25 0.0625
2.8125 0.1875 0.0625
3 0.1875 0
3 0.1875 0.125
2.9375 0.25 0
3 0.25 0.0625
2.9375 0.25 0.125
2.9375 0.1875 0
3 0.1875 0.0625
2.9375 0.1875 0.125
2.9375 0.25 0.0625
2.9375 0.1875 0.0625
0 0.3125 0
0.125 0.3125 0
0.125 0.3125 0.125
0 0.3125 0.125
0.0625 0.375 0
0.125 0.375 0.0625
0.0625 0.375 0.125
0 0.375 0.0625
0.0625 0.3125 0
0.125 0.3125 0.0625
0.0625 0.3125 0.125
0 0.3125 0.0625
0.0625 0.375 0.0625
0.0625 0.3125 0.0625
0.25 0.3125 0
0.25 0.3125 0.125
0.1875 0.375 0
0.25 0.375 0.0625
0.1875 0.375 0.125
0.1875 0.3125 0
0.25 0.3125 0.0625
0.1875 0.3125 0.125
0.1875 0.375 0.0625
0.1875 0.3125 0.0625
0.375 0.3125 0
0.375 0.3125 0.125
0.3125 0.375 0
0.375 0.375 0.0625
0.3125 0.375 0.125
0.3125 0.3125 0
0.375 0.3125 0.0625
0.3125 0.3125 0.125
0.3125 0.375 0.0625
0.3125 0.3125 0.0625
0.5 0.3125 0
0.5 0.3125 0.125
0.4375 0.375 0
0.5 0.375 0.0625
0.4375 0.375 0.125
0.4375 0.3125 0
0.5 0.3125 0.0625
0.4375 0.3125 0.125
0.4375 0.375 0.0625
0.4375 0.3125 0.0625
0.625 0.3125 0
0.625 0.3125 0.125
0.5625 0.375 0
0.625 0.375 0.0625
0.5625 0.375 0.125
0.5625 0.3125 0
0.625 0.3125 0.0625
0.5625 0.3125 0.125
0.5625 0.375 0.0625
0.5625 0.3125 0.0625
0.75 0.3125 0
0.75 0.3125 0.125
0.6875 0.375 0
0.75 0.375 0.0625
0.6875 0.375 0.125
0.6875 0.3125 0
0.75 0.3125 0.0625
0.6875 0.3125 0.125
0.6875 0.375 0.0625
0.6875 0.3125 0.0625
0.875 0.3125 0
0.875 0.3125 0.125
0.8125 0.375 0
0.875 0.375 0.0625
0.8125 0.375 0.125
0.8125 0.3125 0
0.875 0.3125 0.0625
0.8125 0.3125 0.125
0.8125 0.375 0.0625
0.8125 0.3125 0.0625
1 0.3125 0
1 0.3125 0.125
0.9375 0.375 0
1 0.375 0.0625
0.9375 0.375 0.125
0.9375 0.3125 0
1 0.3125 0.0625
0.9375 0.3125 0.125
0.9375 0.375 0.0625
0.9375 0.3125 0.0625
1.125 0.3125 0
1.125 0.3125 0.125
1.0625 0.375 0
1.125 0.375 0.0625
1.0625 0.375 0.125
1.0625 0.3125 0
1.125 0.3125 0.0625
1.0625 0.3125 0.125
1.0625 0.375 0.0625
1.0625 0.3125 0.0625
1.25 0.3125 0
1.25 0.3125 0.125
1.1875 0.375 0
1.25 0.375 0.0625
1.1875 0.375 0.125
1.1875 0.3125 0
1.25 0.3125 0.0625
1.1875 0.3125 0.125
1.1875 0.375 0.0625
1.1875 0.3125 0.0625
1.375 0.3125 0
1.375 0.3125 0.125
1.3125 0.375 0
1.375 0.375 0.0625
1.3125 0.375 0.125
1.3125 0.3125 0
1.375 0.3125 0.0625
1.3125 0.3125 0.125
1.3125 0.375 0.0625
1.3125 0.3125 0.0625
1.5 0.3125 0
1.5 0.3125 0.125
1.4375 0.375 0
1.5 0.375 0.0625
1.4375 0.375 0.125
1.4375 0.3125 0
1.5 0.3125 0.0625
1.4375 0.3125 0.125
1.4375 0.375 0.0625
1.4375 0.3125 0.0625
1.625 0.3125 0
1.625 0.3125 0.125
1.5625 0.375 0
1.625 0.375 0.0625
1.5625 0.375 0.125
1.5625 0.3125 0
1.625 0.3125 0.0625
1.5625 0.3125 0.125
1.5625 0.375 0.0625
1.5625 0.3125 0.0625
1.75 0.3125 0
1.75 0.3125 0.125
1.6875 0.375 0
1.75 0.375 0.0625
1.6875 0.375 0.125
1.6875 0.3125 0
1.75 0.3125 0.0625
1.6875 0.3125 0.125
1.6875 0.375 0.0625
1.6875 0.3125 0.0625
1.875 0.3125 0
1.875 0.3125 0.125
1.8125 0.375 0
1.875 0.375 0.0625
1.8125 0.375 0.125
1.8125 0.3125 0
1.875 0.3125 0.0625
1.8125 0.3125 0.125
1.8125 0.375 0.0625
1.8125 0.3125 0.0625
2 0.3125 0
2 0.3125 0.125
1.9375 0.375 0
2 0.375 0.0625
1.9375 0.375 0.125
1.9375 0.3125 0
2 0.3125 0.0625
1.9375 0.3125 0.125
1.9375 0.375 0.0625
1.9375 0.3125 0.0625
2.125 0.3125 0
2.125 0.3125 0.125
2.0625 0.375 0
2.125 0.375 0.0625
2.0625 0.375 0.125
2.0625 0.3125 0
2.125 0.3125 0.0625
2.0625 0.3125 0.125
2.0625 0.375 0.0625
2.0625 0.3125 0.0625
2.25 0.3125 0
2.25 0.3125 0.125
2.1875 0.375 0
2.25 0.375 0.0625
2.1875 0.375 0.125
2.1875 0.3125 0
2.25 0.3125 0.0625
2.1875 0.3125 0.125
2.1875 0.375 0.0625
2.1875 0.3125 0.0625
2.375 0.3125 0
2.375 0.3125 0.125
2.3125 0.375 0
2.375 0.375 0.0625
2.3125 0.375 0.125
2.3125 0.3125 0
2.375 0.3125 0.0625
2.3125 0.3125 0.125
2.3125 0.375 0.0625
2.3125 0.3125 0.0625
2.5 0.3125 0
2.5 0.3125 0.125
2.4375 0.375 0
2.5 0.375 0.0625
2.4375 0.375 0.125
2.4375 0.3125 0
2.5 0.3125 0.0625
2.4375 0.3125 0.125
2.4375 0.375 0.0625
2.4375 0.3125 0.0625
2.625 0.3125 0
2.625 0.3125 0.125
2.5625 0.375 0
2.625 0.375 0.0625
2.5625 0.375 0.125
2.5625 0.3125 0
2.625 0.3125 0.0625
2.5625 0.3125 0.125
2.5625 0.375 0.0625
2.5625 0.3125 0.0625
2.75 0.3125 0
2.75 0.3125 0.125
2.6875 0.375 0
2.75 0.375 0.0625
2.6875 0.375 0.125
2.6875 0.3125 0
2.75 0.3125 0.0625
2.6875 0.3125 0.125
2.6875 0.375 0.0625
2.6875 0.3125 0.0625
2.875 0.3125 0
2.875 0.3125 0.125
2.8125 0.375 0
2.875 0.375 0.0625
2.8125 0.375 0.125
2.8125 0.3125 0
2.875 0.3125 0.0625
2.8125 0.3125 0.125
2.8125 0.375 0.0625
2.8125 0.3125 0.0625
3 0.3125 0
3 0.3125 0.125
2.9375 0.375 0
3 0.375 0.0625
2.9375 0.375 0.125
2.9375 0.3125 0
3 0.3125 0.0625
2.9375 0.3125 0.125
2.9375 0.375 0.0625
2.9375 0.3125 0.0625
0 0.4375 0
0.125 0.4375 0
0.125 0.4375 0.125
0 0.4375 0.125
0.0625 0.5 0
0.125 0.5 0.0625
0.0625 0.5 0.125
0 0.5 0.0625
0.0625 0.4375 0
0.125 0.4375 0.0625
0.0625 0.4375 0.125
0 0.4375 0.0625
0.0625 0.5 0.0625
0.0625 0.4375 0.0625
0.25 0.4375 0
0.25 0.4375 0.125
0.1875 0.5 0
0.25 0.5 0.0625
0.1875 0.5 0.125
0.1875 0.4375 0
0.25 0.4375 0.0625
0.1875 0.4375 0.125
0.1875 0.5 0.0625
0.1875 0.4375 0.0625
0.375 0.4375 0
0.375 0.4375 0.125
0.3125 0.5 0
0.375 0.5 0.0625
0.3125 0.5 0.125
0.3125 0.4375 0
0.375 0.4375 0.0625
0.3125 0.4375 0.125
0.3125 0.5 0.0625
0.3125 0.4375 0.0625
0.5 0.4375 0
0.5 0.4375 0.125
0.4375 0.5 0
0.5 0.5 0.0625
0.4375 0.5 0.125
0.4375 0.4375 0
0.5 0.4375 0.0625
0.4375 0.4375 0.125
0.4375 0.5 0.0625
0.4375 0.4375 0.0625
0.625 0.4375 0
0.625 0.4375 0.125
0.5625 0.5 0
0.625 0.5 0.0625
0.5625 0.5 0.125
0.5625 0.4375 0
0.625 0.4375 0.0625
0.5625 0.4375 0.125
0.5625 0.5 0.0625
0.5625 0.4375 0.0625
0.75 0.4375 0
0.75 0.4375 0.125
0.6875 0.5 0
0.75 0.5 0.0625
0.6875 0.5 0.125
0.6875 0.4375 0
0.75 0.4375 0.0625
0.6875 0.4375 0.125
0.6875 0.5 0.0625
0.6875 0.4375 0.0625
0.875 0.4375 0
0.875 0.4375 0.125
0.8125 0.5 0
0.875 0.5 0.0625
0.8125 0.5 0.125
0.8125 0.4375 0
0.875 0.4375 0.0625
0.8125 0.4375 0.125
0.8125 0.5 0.0625
0.8125 0.4375 0.0625
1 0.4375 0
1 0.4375 0.125
0.9375 0.5 0
1 0.5 0.0625
0.9375 0.5 0.125
0.9375 0.4375 0
1 0.4375 0.0625
0.9375 0.4375 0.125
0.9375 0.5 0.0625
0.9375 0.4375 0.0625
1.125 0.4375 0
1.125 0.4375 0.125
1.0625 0.5 0
1.125 0.5 0.0625
1.0625 0.5 0.125
1.0625 0.4375 0
1.125 0.4375 0.0625
1.0625 0.4375 0.125
1.0625 0.5 0.0625
1.0625 0.4375 0.0625
1.25 0.4375 0
1.25 0.4375 0.125
1.1875 0.5 0
1.25 0.5 0.0625
1.1875 0.5 0.125
1.1875 0.4375 0
1.25 0.4375 0.0625
1.1875 0.4375 0.125
1.1875 0.5 0.0625
1.1875 0.4375 0.0625
1.375 0.4375 0
1.375 0.4375 0.125
1.3125 0.5 0
1.375 0.5 0.0625
1.3125 0.5 0.125
1.3125 0.4375 0
1.375 0.4375 0.0625
1.3125 0.4375 0.125
1.3125 0.5 0.0625
1.3125 0.4375 0.0625
1.5 0.4375 0
1.5 0.4375 0.125
1.4375 0.5 0
1.5 0.5 0.0625
1.4375 0.5 0.125
1.4375 0.4375 0
1.5 0.4375 0.0625
1.4375 0.4375 0.125
1.4375 0.5 0.0625
1.4375 0.4375 0.0625
1.625 0.4375 0
1.625 0.4375 0.125
1.5625 0.5 0
1.625 0.5 0.0625
1.5625 0.5 0.125
1.5625 0.4375 0
1.625 0.4375 0.0625
1.5625 0.4375 0.125
1.5625 0.5 0.0625
1.5625 0.4375 0.0625
1.75 0.4375 0
1.75 0.4375 0.125
1.6875 0.5 0
1.75 0.5 0.0625
1.6875 0.5 0.125
1.6875 0.4375 0
1.75 0.4375 0.0625
1.6875 0.4375 0.125
1.6875 0.5 0.0625
1.6875 0.4375 0.0625
1.875 0.4375 0
1.875 0.4375 0.125
1.8125 0.5 0
1.875 0.5 0.0625
1.8125 0.5 0.125
1.8125 0.4375 0
1.875 0.4375 0.0625
1.8125 0.4375 0.125
1.8125 0.5 0.0625
1.8125 0.4375 0.0625
2 0.4375 0
2 0.4375 0.125
1.9375 0.5 0
2 0.5 0.0625
1.9375 0.5 0.125
1.9375 0.4375 0
2 0.4375 0.0625
1.9375 0.4375 0.125
1.9375 0.5 0.0625
1.9375 0.4375 0.0625
2.125 0.4375 0
2.125 0.4375 0.125
2.0625 0.5 0
2.125 0.5 0.0625
2.0625 0.5 0.125
2.0625 0.4375 0
2.125 0.4375 0.0625
2.0625 0.4375 0.125
2.0625 0.5 0.0625
2.0625 0.4375 0.0625
2.25 0.4375 0
2.25 0.4375 0.125
2.1875 0.5 0
2.25 0.5 0.0625
2.1875 0.5 0.125
2.1875 0.4375 0
2.25 0.4375 0.0625
2.1875 0.4375 0.125
2.1875 0.5 0.0625
2.1875 0.4375 0.0625
2.375 0.4375 0
2.375 0.4375 0.125
2.3125 0.5 0
2.375 0.5 0.0625
2.3125 0.5 0.125
2.3125 0.4375 0
2.375 0.4375 0.0625
2.3125 0.4375 0.125
2.3125 0.5 0.0625
2.3125 0.4375 0.0625
2.5 0.4375 0
2.5 0.4375 0.125
2.4375 0.5 0
2.5 0.5 0.0625
2.4375 0.5 0.125
2.4375 0.4375 0
2.5 0.4375 0.0625
2.4375 0.4375 0.125
2.4375 0.5 0.0625
2.4375 0.4375 0.0625
2.625 0.4375 0
2.625 0.4375 0.125
2.5625 0.5 0
2.625 0.5 0.0625
2.5625 0.5 0.125
2.5625 0.4375 0
2.625 0.4375 0.0625
2.5625 0.4375 0.125
2.5625 0.5 0.0625
2.5625 0.4375 0.0625
2.75 0.4375 0
2.75 0.4375 0.125
2.6875 0.5 0
2.75 0.5 0.0625
2.6875 0.5 0.125
2.6875 0.4375 0
2.75 0.4375 0.0625
2.6875 0.4375 0.125
2.6875 0.5 0.0625
2.6875 0.4375 0.0625
2.875 0.4375 0
2.875 0.4375 0.125
2.8125 0.5 0
2.875 0.5 0.0625
2.8125 0.5 0.125
2.8125 0.4375 0
2.875 0.4375 0.0625
2.8125 0.4375 0.125
2.8125 0.5 0.0625
2.8125 0.4375 0.0625
3 0.4375 0
3 0.4375 0.125
2.9375 0.5 0
3 0.5 0.0625
2.9375 0.5 0.125
2.9375 0.4375 0
3 0.4375 0.0625
2.9375 0.4375 0.125
2.9375 0.5 0.0625
2.9375 0.4375 0.0625
0 0.5625 0
0.125 0.5625 0
0.125 0.5625 0.125
0 0.5625 0.125
0.0625 0.625 0
0.125 0.625 0.0625
0.0625 0.625 0.125
0 0.625 0.0625
0.0625 0.5625 0
0.125 0.5625 0.0625
0.0625 0.5625 0.125
0 0.5625 0.0625
0.0625 0.625 0.0625
0.0625 0.5625 0.0625
0.25 0.5625 0
0.25 0.5625 0.125
0.1875 0.625 0
0.25 0.625 0.0625
0.1875 0.625 0.125
0.1875 0.5625 0
0.25 0.5625 0.0625
0.1875 0.5625 0.125
0.1875 0.625 0.0625
0.1875 0.5625 0.0625
0.375 0.5625 0
0.375 0.5625 0.125
0.3125 0.625 0
0.375 0.625 0.0625
0.3125 0.625 0.125
0.3125 0.5625 0
0.375 0.5625 0.0625
0.3125 0.5625 0.125
0.3125 0.625 0.0625
0.3125 0.5625 0.0625
0.5 0.5625 0
0.5 0.5625 0.125
0.4375 0.625 0
0.5 0.625 0.0625
0.4375 0.625 0.125
0.4375 0.5625 0
0.5 0.5625 0.0625
0.4375 0.5625 0.125
0.4375 0.625 0.0625
0.4375 0.5625 0.0625
0.625 0.5625 0
0.625 0.5625 0.125
0.5625 0.625 0
0.625 0.625 0.0625
0.5625 0.625 0.125
0.5625 0.5625 0
0.625 0.5625 0.0625
0.5625 0.5625 0.125
0.5625 0.625 0.0625
0.5625 0.5625 0.0625
0.75 0.5625 0
0.75 0.5625 0.125
0.6875 0.625 0
0.75 0.625 0.0625
0.6875 0.625 0.125
0.6875 0.5625 0
0.75 0.5625 0.0625
0.6875 0.5625 0.125
0.6875 0.625 0.0625
0.6875 0.5625 0.0625
0.875 0.5625 0
0.875 0.5625 0.125
0.8125 0.625 0
0.875 0.625 0.0625
0.8125 0.625 0.125
0.8125 0.5625 0
0.875 0.5625 0.0625
0.8125 0.5625 0.125
0.8125 0.625 0.0625
0.8125 0.5625 0.0625
1 0.5625 0
1 0.5625 0.125
0.9375 0.625 0
1 0.625 0.0625
0.9375 0.625 0.125
0.9375 0.5625 0
1 0.5625 0.0625
0.9375 0.5625 0.125
0.9375 0.625 0.0625
0.9375 0.5625 0.0625
1.125 0.5625 0
1.125 0.5625 0.125
1.0625 0.625 0
1.125 0.625 0.0625
1.0625 0.625 0.125
1.0625 0.5625 0
1.125 0.5625 0.0625
1.0625 0.5625 0.125
1.0625 0.625 0.0625
1.0625 0.5625 0.0625
1.25 0.5625 0
1.25 0.5625 0.125
1.1875 0.625 0
1.25 0.625 0.0625
1.1875 0.625 0.125
1.1875 0.5625 0
1.25 0.5625 0.0625
1.1875 0.5625 0.125
1.1875 0.625 0.0625
1.1875 0.5625 0.0625
1.375 0.5625 0
1.375 0.5625 0.125
1.3125 0.625 0
1.375 0.625 0.0625
1.3125 0.625 0.125
1.3125 0.5625 0
1.375 0.5625 0.0625
1.3125 0.5625 0.125
1.3125 0.625 0.0625
1.3125 0.5625 0.0625
1.5 0.5625 0
1.5 0.5625 0.125
1.4375 0.625 0
1.5 0.625 0.0625
1.4375 0.625 0.125
1.4375 0.5625 0
1.5 0.5625 0.0625
1.4375 0.5625 0.125
1.4375 0.625 0.0625
1.4375 0.5625 0.0625
1.625 0.5625 0
1.625 0.5625 0.125
1.5625 0.625 0
1.625 0.625 0.0625
1.5625 0.625 0.125
1.5625 0.5625 0
1.625 0.5625 0.0625
1.5625 0.5625 0.125
1.5625 0.625 0.0625
1.5625 0.5625 0.0625
1.75 0.5625 0
1.75 0.5625 0.125
1.6875 0.625 0
1.75 0.625 0.0625
1.6875 0.625 0.125
1.6875 0.5625 0
1.75 0.5625 0.0625
1.6875 0.5625 0.125
1.6875 0.625 0.0625
1.6875 0.5625 0.0625
1.875 0.5625 0
1.875 0.5625 0.125
1.8125 0.625 0
1.875 0.625 0.0625
1.8125 0.625 0.125
1.8125 0.5625 0
1.875 0.5625 0.0625
1.8125 0.5625 0.125
1.8125 0.625 0.0625
1.8125 0.5625 0.0625
2 0.5625 0
2 0.5625 0.125
1.9375 0.625 0
2 0.625 0.0625
1.9375 0.625 0.125
1.9375 0.5625 0
2 0.5625 0.0625
1.9375 0.5625 0.125
1.9375 0.625 0.0625
1.9375 0.5625 0.0625
2.125 0.5625 0
2.125 0.5625 0.125
2.0625 0.625 0
2.125 0.625 0.0625
2.0625 0.625 0.125
2.0625 0.5625 0
2.125 0.5625 0.0625
2.0625 0.5625 0.125
2.0625 0.625 0.0625
2.0625 0.5625 0.0625
2.25 0.5625 0
2.25 0.5625 0.125
2.1875 0.625 0
2.25 0.625 0.0625
2.1875 0.625 0.125
2.1875 0.5625 0
2.25 0.5625 0.0625
2.1875 0.5625 0.125
2.1875 0.625 0.0625
2.1875 0.5625 0.0625
2.375 0.5625 0
2.375 0.5625 0.125
2.3125 0.625 0
2.375 0.625 0.0625
2.3125 0.625 0.125
2.3125 0.5625 0
2.375 0.5625 0.0625
2.3125 0.5625 0.125
2.3125 0.625 0.0625
2.3125 0.5625 0.0625
2.5 0.5625 0
2.5 0.5625 0.125
2.4375 0.625 0
2.5 0.625 0.0625
2.4375 0.625 0.125
2.4375 0.5625 0
2.5 0.5625 0.0625
2.4375 0.5625 0.125
2.4375 0.625 0.0625
2.4375 0.5625 0.0625
2.625 0.5625 0
2.625 0.5625 0.125
2.5625 0.625 0
2.625 0.625 0.0625
2.5625 0.625 0.125
2.5625 0.5625 0
2.625 0.5625 0.0625
2.5625 0.5625 0.125
2.5625 0.625 0.0625
2.5625 0.5625 0.0625
2.75 0.5625 0
2.75 0.5625 0.125
2.6875 0.625 0
2.75 0.625 0.0625
2.6875 0.625 0.125
2.6875 0.5625 0
2.75 0.5625 0.0625
2.6875 0.5625 0.125
2.6875 0.625 0.0625
2.6875 0.5625 0.0625
2.875 0.5625 0
2.875 0.5625 0.125
2.8125 0.625 0
2.875 0.625 0.0625
2.8125 0.625 0.125
2.8125 0.5625 0
2.875 0.5625 0.0625
2.8125 0.5625 0.125
2.8125 0.625 0.0625
2.8125 0.5625 0.0625
3 0.5625 0
3 0.5625 0.125
2.9375 0.625 0
3 0.625 0.0625
2.9375 0.625 0.125
2.9375 0.5625 0
3 0.5625 0.0625
2.9375 0.5625 0.125
2.9375 0.625 0.0625
2.9375 0.5625 0.0625
0 0.6875 0
0.125 0.6875 0
0.125 0.6875 0.125
0 0.6875 0.125
0.0625 0.75 0
0.125 0.75 0.0625
0.0625 0.75 0.125
0 0.75 0.0625
0.0625 0.6875 0
0.125 0.6875 0.0625
0.0625 0.6875 0.125
0 0.6875 0.0625
0.0625 0.75 0.0625
0.0625 0.6875 0.0625
0.25 0.6875 0
0.25 0.6875 0.125
0.1875 0.75 0
0.25 0.75 0.0625
0.1875 0.75 0.125
0.1875 0.6875 0
0.25 0.6875 0.0625
0.1875 0.6875 0.125
0.1875 0.75 0.0625
0.1875 0.6875 0.0625
0.375 0.6875 0
0.375 0.6875 0.125
0.3125 0.75 0
0.375 0.75 0.0625
0.3125 0.75 0.125
0.3125 0.6875 0
0.375 0.6875 0.0625
0.3125 0.6875 0.125
0.3125 0.75 0.0625
0.3125 0.6875 0.0625
0.5 0.6875 0
0.5 0.6875 0.125
0.4375 0.75 0
0.5 0.75 0.0625
0.4375 0.75 0.125
0.4375 0.6875 0
0.5 0.6875 0.0625
0.4375 0.6875 0.125
0.4375 0.75 0.0625
0.4375 0.6875 0.0625
0.625 0.6875 0
0.625 0.6875 0.125
0.5625 0.75 0
0.625 0.75 0.0625
0.5625 0.75 0.125
0.5625 0.6875 0
0.625 0.6875 0.0625
0.5625 0.6875 0.125
0.5625 0.75 0.0625
0.5625 0.6875 0.0625
0.75 0.6875 0
0.75 0.6875 0.125
0.6875 0.75 0
0.75 0.75 0.0625
0.6875 0.75 0.125
0.6875 0.6875 0
0.75 0.6875 0.0625
0.6875 0.6875 0.125
0.6875 0.75 0.0625
0.6875 0.6875 0.0625
0.875 0.6875 0
0.875 0.6875 0.125
0.8125 0.75 0
0.875 0.75 0.0625
0.8125 0.75 0.125
0.8125 0.6875 0
0.875 0.6875 0.0625
0.8125 0.6875 0.125
0.8125 0.75 0.0625
0.8125 0.6875 0.0625
1 0.6875 0
1 0.6875 0.125
0.9375 0.75 0
1 0.75 0.0625
0.9375 0.75 0.125
0.9375 0.6875 0
1 0.6875 0.0625
0.9375 0.6875 0.125
0.9375 0.75 0.0625
0.9375 0.6875 0.0625
1.125 0.6875 0
1.125 0.6875 0.125
1.0625 0.75 0
1.125 0.75 0.0625
1.0625 0.75 0.125
1.0625 0.6875 0
1.125 0.6875 0.0625
1.0625 0.6875 0.125
1.0625 0.75 0.0625
1.0625 0.6875 0.0625
1.25 0.6875 0
1.25 0.6875 0.125
1.1875 0.75 0
1.25 0.75 0.0625
1.1875 0.75 0.125
1.1875 0.6875 0
1.25 0.6875 0.0625
1.1875 0.6875 0.125
1.1875 0.75 0.0625
1.1875 0.6875 0.0625
1.375 0.6875 0
1.375 0.6875 0.125
1.3125 0.75 0
1.375 0.75 0.0625
1.3125 0.75 0.125
1.3125 0.6875 0
1.375 0.6875 0.0625
1.3125 0.6875 0.125
1.3125 0.75 0.0625
1.3125 0.6875 0.0625
1.5 0.6875 0
1.5 0.6875 0.125
1.4375 0.75 0
1.5 0.75 0.0625
1.4375 0.75 0.125
1.4375 0.6875 0
1.5 0.6875 0.0625
1.4375 0.6875 0.125
1.4375 0.75 0.0625
1.4375 0.6875 0.0625
1.625 0.6875 0
1.625 0.6875 0.125
1.5625 0.75 0
1.625 0.75 0.0625
1.5625 0.75 0.125
1.5625 0.6875 0
1.625 0.6875 0.0625
1.5625 0.6875 0.125
1.5625 0.75 0.0625
1.5625 0.6875 0.0625
1.75 0.6875 0
1.75 0.6875 0.125
1.6875 0.75 0
1.75 0.75 0.0625
1.6875 0.75 0.125
1.6875 0.6875 0
1.75 0.6875 0.0625
1.6875 0.6875 0.125
1.6875 0.75 0.0625
1.6875 0.6875 0.0625
1.875 0.6875 0
1.875 0.6875 0.125
1.8125 0.75 0
1.875 0.75 0.0625
1.8125 0.75 0.125
1.8125 0.6875 0
1.875 0.6875 0.0625
1.8125 0.6875 0.125
1.8125 0.75 0.0625
1.8125 0.6875 0.0625
2 0.6875 0
2 0.6875 0.125
1.9375 0.75 0
2 0.75 0.0625
1.9375 0.75 0.125
1.9375 0.6875 0
2 0.6875 0.0625
1.9375 0.6875 0.125
1.9375 0.75 0.0625
1.9375 0.6875 0.0625
2.125 0.6875 0
2.125 0.6875 0.125
2.0625 0.75 0
2.125 0.75 0.0625
2.0625 0.75 0.125
2.0625 0.6875 0
2.125 0.6875 0.0625
2.0625 0.6875 0.125
2.0625 0.75 0.0625
2.0625 0.6875 0.0625
2.25 0.6875 0
2.25 0.6875 0.125
2.1875 0.75 0
2.25 0.75 0.0625
2.1875 0.75 0.125
2.1875 0.6875 0
2.25 0.6875 0.0625
2.1875 0.6875 0.125
2.1875 0.75 0.0625
2.1875 0.6875 0.0625
2.375 0.6875 0
2.375 0.6875 0.125
2.3125 0.75 0
2.375 0.75 0.0625
2.3125 0.75 0.125
2.3125 0.6875 0
2.375 0.6875 0.0625
2.3125 0.6875 0.125
2.3125 0.75 0.0625
2.3125 0.6875 0.0625
2.5 0.6875 0
2.5 0.6875 0.125
2.4375 0.75 0
2.5 0.75 0.0625
2.4375 0.75 0.125
2.4375 0.6875 0
2.5 0.6875 0.0625
2.4375 0.6875 0.125
2.4375 0.75 0.0625
2.4375 0.6875 0.0625
2.625 0.6875 0
2.625 0.6875 0.125
2.5625 0.75 0
2.625 0.75 0.0625
2.5625 0.75 0.125
2.5625 0.6875 0
2.625 0.6875 0.0625
2.5625 0.6875 0.125
2.5625 0.75 0.0625
2.5625 0.6875 0.0625
2.75 0.6875 0
2.75 0.6875 0.125
2.6875 0.75 0
2.75 0.75 0.0625
2.6875 0.75 0.125
2.6875 0.6875 0
2.75 0.6875 0.0625
2.6875 0.6875 0.125
2.6875 0.75 0.0625
2.6875 0.6875 0.0625
2.875 0.6875 0
2.875 0.6875 0.125
2.8125 0.75 0
2.875 0.75 0.0625
2.8125 0.75 0.125
2.8125 0.6875 0
2.875 0.6875 0.0625
2.8125 0.6875 0.125
2.8125 0.75 0.0625
2.8125 0.6875 0.0625
3 0.6875 0
3 0.6875 0.125
2.9375 0.75 0
3 0.75 0.0625
2.9375 0.75 0.125
2.9375 0.6875 0
3 0.6875 0.0625
2.9375 0.6875 0.125
2.9375 0.75 0.0625
2.9375 0.6875 0.0625
0 0.8125 0
0.125 0.8125 0
0.125 0.8125 0.125
0 0.8125 0.125
0.0625 0.875 0
0.125 0.875 0.0625
0.0625 0.875 0.125
0 0.875 0.0625
0.0625 0.8125 0
0.125 0.8125 0.0625
0.0625 0.8125 0.125
0 0.8125 0.0625
0.0625 0.875 0.0625
0.0625 0.8125 0.0625
0.25 0.8125 0
0.25 0.8125 0.125
0.1875 0.875 0
0.25 0.875 0.0625
0.1875 0.875 0.125
0.1875 0.8125 0
0.25 0.8125 0.0625
0.1875 0.8125 0.125
0.1875 0.875 0.0625
0.1875 0.8125 0.0625
0.375 0.8125 0
0.375 0.8125 0.125
0.3125 0.875 0
0.375 0.875 0.0625
0.3125 0.875 0.125
0.3125 0.8125 0
0.375 0.8125 0.0625
0.3125 0.8125 0.125
0.3125 0.875 0.0625
0.3125 0.8125 0.0625
0.5 0.8125 0
0.5 0.8125 0.125
0.4375 0.875 0
0.5 0.875 0.0625
0.4375 0.875 0.125
0.4375 0.8125 0
0.5 0.8125 0.0625
0.4375 0.8125 0.125
0.4375 0.875 0.0625
0.4375 0.8125 0.0625
0.625 0.8125 0
0.625 0.8125 0.125
0.5625 0.875 0
0.625 0.875 0.0625
0.5625 0.875 0.125
0.5625 0.8125 0
0.625 0.8125 0.0625
0.5625 0.8125 0.125
0.5625 0.875 0.0625
0.5625 0.8125 0.0625
0.75 0.8125 0
0.75 0.8125 0.125
0.6875 0.875 0
0.75 0.875 0.0625
0.6875 0.875 0.125
0.6875 0.8125 0
0.75 0.8125 0.0625
0.6875 0.8125 0.125
0.6875 0.875 0.0625
0.6875 0.8125 0.0625
0.875 0.8125 0
0.875 0.8125 0.125
0.8125 0.875 0
0.875 0.875 0.0625
0.8125 0.875 0.125
0.8125 0.8125 0
0.875 0.8125 0.0625
0.8125 0.8125 0.125
0.8125 0.875 0.0625
0.8125 0.8125 0.0625
1 0.8125 0
1 0.8125 0.125
0.9375 0.875 0
1 0.875 0.0625
0.9375 0.875 0.125
0.9375 0.8125 0
1 0.8125 0.0625
0.9375 0.8125 0.125
0.9375 0.875 0.0625
0.9375 0.8125 0.0625
1.125 0.8125 0
1.125 0.8125 0.125
1.0625 0.875 0
1.125 0.875 0.0625
1.0625 0.875 0.125
1.0625 0.8125 0
1.125 0.8125 0.0625
1.0625 0.8125 0.125
1.0625 0.875 0.0625
1.0625 0.8125 0.0625
1.25 0.8125 0
1.25 0.8125 0.125
1.1875 0.875 0
1.25 0.875 0.0625
1.1875 0.875 0.125
1.1875 0.8125 0
1.25 0.8125 0.0625
1.1875 0.8125 0.125
1.1875 0.875 0.0625
1.1875 0.8125 0.0625
1.375 0.8125 0
1.375 0.8125 0.125
1.3125 0.875 0
1.375 0.875 0.0625
1.3125 0.875 0.125
1.3125 0.8125 0
1.375 0.8125 0.0625
1.3125 0.8125 0.125
1.3125 0.875 0.0625
1.3125 0.8125 0.0625
1.5 0.8125 0
1.5 0.8125 0.125
1.4375 0.875 0
1.5 0.875 0.0625
1.4375 0.875 0.125
1.4375 0.8125 0
1.5 0.8125 0.0625
1.4375 0.8125 0.125
1.4375 0.875 0.0625
1.4375 0.8125 0.0625
1.625 0.8125 0
1.625 0.8125 0.125
1.5625 0.875 0
1.625 0.875 0.0625
1.5625 0.875 0.125
1.5625 0.8125 0
1.625 0.8125 0.0625
1.5625 0.8125 0.125
1.5625 0.875 0.0625
1.5625 0.8125 0.0625
1.75 0.8125 0
1.75 0.8125 0.125
1.6875 0.875 0
1.75 0.875 0.0625
1.6875 0.875 0.125
1.6875 0.8125 0
1.75 0.8125 0.0625
1.6875 0.8125 0.125
1.6875 0.875 0.0625
1.6875 0.8125 0.0625
1.875 0.8125 0
1.875 0.8125 0.125
1.8125 0.875 0
1.875 0.875 0.0625
1.8125 0.875 0.125
1.8125 0.8125 0
1.875 0.8125 0.0625
1.8125 0.8125 0.125
1.8125 0.875 0.0625
1.8125 0.8125 0.0625
2 0.8125 0
2 0.8125 0.125
1.9375 0.875 0
2 0.875 0.0625
1.9375 0.875 0.125
1.9375 0.8125 0
2 0.8125 0.0625
1.9375 0.8125 0.125
1.9375 0.875 0.0625
1.9375 0.8125 0.0625
2.125 0.8125 0
2.125 0.8125 0.125
2.0625 0.875 0
2.125 0.875 0.0625
2.0625 0.875 0.125
2.0625 0.8125 0
2.125 0.8125 0.0625
2.0625 0.8125 0.125
2.0625 0.875 0.0625
2.0625 0.8125 0.0625
2.25 0.8125 0
2.25 0.8125 0.125
2.1875 0.875 0
2.25 0.875 0.0625
2.1875 0.875 0.125
2.1875 0.8125 0
2.25 0.8125 0.0625
2.1875 0.8125 0.125
2.1875 0.875 0.0625
2.1875 0.8125 0.0625
2.375 0.8125 0
2.375 0.8125 0.125
2.3125 0.875 0
2.375 0.875 0.0625
2.3125 0.875 0.125
2.3125 0.8125 0
2.375 0.8125 0.0625
2.3125 0.8125 0.125
2.3125 0.875 0.0625
2.3125 0.8125 0.0625
2.5 0.8125 0
2.5 0.8125 0.125
2.4375 0.875 0
2.5 0.875 0.0625
2.4375 0.875 0.125
2.4375 0.8125 0
2.5 0.8125 0.0625
2.4375 0.8125 0.125
2.4375 0.875 0.0625
2.4375 0.8125 0.0625
2.625 0.8125 0
2.625 0.8125 0.125
2.5625 0.875 0
2.625 0.875 0.0625
2.5625 0.875 0.125
2.5625 0.8125 0
2.625 0.8125 0.0625
2.5625 0.8125 0.125
2.5625 0.875 0.0625
2.5625 0.8125 0.0625
2.75 0.8125 0
2.75 0.8125 0.125
2.6875 0.875 0
2.75 0.875 0.0625
2.6875 0.875 0.125
2.6875 0.8125 0
2.75 0.8125 0.0625
2.6875 0.8125 0.125
2.6875 0.875 0.0625
2.6875 0.8125 0.0625
2.875 0.8125 0
2.875 0.8125 0.125
2.8125 0.875 0
2.875 0.875 0.0625
2.8125 0.875 0.125
2.8125 0.8125 0
2.875 0.8125 0.0625
2.8125 0.8125 0.125
2.8125 0.875 0.0625
2.8125 0.8125 0.0625
3 0.8125 0
3 0.8125 0.125
2.9375 0.875 0
3 0.875 0.0625
2.9375 0.875 0.125
2.9375 0.8125 0
3 0.8125 0.0625
2.9375 0.8125 0.125
2.9375 0.875 0.0625
2.9375 0.8125 0.0625
0 0.9375 0
0.125 0.9375 0
0.125 0.9375 0.125
0 0.9375 0.125
0.0625 1 0
0.125 1 0.0625
0.0625 1 0.125
0 1 0.0625
0.0625 0.9375 0
0.125 0.9375 0.0625
0.0625 0.9375 0.125
0 0.9375 0.0625
0.0625 1 0.0625
0.0625 0.9375 0.0625
0.25 0.9375 0
0.25 0.9375 0.125
0.1875 1 0
0.25 1 0.0625
0.1875 1 0.125
0.1875 0.9375 0
0.25 0.9375 0.0625
0.1875 0.9375 0.125
0.1875 1 0.0625
0.1875 0.9375 0.0625
0.375 0.9375 0
0.375 0.9375 0.125
0.3125 1 0
0.375 1 0.0625
0.3125 1 0.125
0.3125 0.9375 0
0.375 0.9375 0.0625
0.3125 0.9375 0.125
0.3125 1 0.0625
0.3125 0.9375 0.0625
0.5 0.9375 0
0.5 0.9375 0.125
0.4375 1 0
0.5 1 0.0625
0.4375 1 0.125
0.4375 0.9375 0
0.5 0.9375 0.0625
0.4375 0.9375 0.125
0.4375 1 0.0625
0.4375 0.9375 0.0625
0.625 0.9375 0
0.625 0.9375 0.125
0.5625 1 0
0.625 1 0.0625
0.5625 1 0.125
0.5625 0.9375 0
0.625 0.9375 0.0625
0.5625 0.9375 0.125
0.5625 1 0.0625
0.5625 0.9375 0.0625
0.75 0.9375 0
0.75 0.9375 0.125
0.6875 1 0
0.75 1 0.0625
0.6875 1 0.125
0.6875 0.9375 0
0.75 0.9375 0.0625
0.6875 0.9375 0.125
0.6875 1 0.0625
0.6875 0.9375 0.0625
0.875 0.9375 0
0.875 0.9375 0.125
0.8125 1 0
0.875 1 0.0625
0.8125 1 0.125
0.8125 0.9375 0
0.875 0.9375 0.0625
0.8125 0.9375 0.125
0.8125 1 0.0625
0.8125 0.9375 0.0625
1 0.9375 0
1 0.9375 0.125
0.9375 1 0
1 1 0.0625
0.9375 1 0.125
0.9375 0.9375 0
1 0.9375 0.0625
0.9375 0.9375 0.125
0.9375 1 0.0625
0.9375 0.9375 0.0625
1.125 0.9375 0
1.125 0.9375 0.125
1.0625 1 0
1.125 1 0.0625
1.0625 1 0.125
1.0625 0.9375 0
1.125 0.9375 0.0625
1.0625 0.9375 0.125
1.0625 1 0.0625
1.0625 0.9375 0.0625
1.25 0.9375 0
1.25 0.9375 0.125
1.1875 1 0
1.25 1 0.0625
1.1875 1 0.125
1.1875 0.9375 0
1.25 0.9375 0.0625
1.1875 0.9375 0.125
1.1875 1 0.0625
1.1875 0.9375 0.0625
1.375 0.9375 0
1.375 0.9375 0.125
1.3125 1 0
1.375 1 0.0625
1.3125 1 0.125
1.3125 0.9375 0
1.375 0.9375 0.0625
1.3125 0.9375 0.125
1.3125 1 0.0625
1.3125 0.9375 0.0625
1.5 0.9375 0
1.5 0.9375 0.125
1.4375 1 0
1.5 1 0.0625
1.4375 1 0.125
1.4375 0.9375 0
1.5 0.9375 0.0625
1.4375 0.9375 0.125
1.4375 1 0.0625
1.4375 0.9375 0.0625
1.625 0.9375 0
1.625 0.9375 0.125
1.5625 1 0
1.625 1 0.0625
1.5625 1 0.125
1.5625 0.9375 0
1.625 0.9375 0.0625
1.5625 0.9375 0.125
1.5625 1 0.0625
1.5625 0.9375 0.0625
1.75 0.9375 0
1.75 0.9375 0.125
1.6875 1 0
1.75 1 0.0625
1.6875 1 0.125
1.6875 0.9375 0
1.75 0.9375 0.0625
1.6875 0.9375 0.125
1.6875 1 0.0625
1.6875 0.9375 0.0625
1.875 0.9375 0
1.875 0.9375 0.125
1.8125 1 0
1.875 1 0.0625
1.8125 1 0.125
1.8125 0.9375 0
1.875 0.9375 0.0625
1.8125 0.9375 0.125
1.8125 1 0.0625
1.8125 0.9375 0.0625
2 0.9375 0
2 0.9375 0.125
1.9375 1 0
2 1 0.0625
1.9375 1 0.125
1.9375 0.9375 0
2 0.9375 0.0625
1.9375 0.9375 0.125
1.9375 1 0.0625
1.9375 0.9375 0.0625
2.125 0.9375 0
2.125 0.9375 0.125
2.0625 1 0
2.125 1 0.0625
2.0625 1 0.125
2.0625 0.9375 0
2.125 0.9375 0.0625
2.0625 0.9375 0.125
2.0625 1 0.0625
2.0625 0.9375 0.0625
2.25 0.9375 0
2.25 0.9375 0.125
2.1875 1 0
2.25 1 0.0625
2.1875 1 0.125
2.1875 0.9375 0
2.25 0.9375 0.0625
2.1875 0.9375 0.125
2.1875 1 0.0625
2.1875 0.9375 0.0625
2.375 0.9375 0
2.375 0.9375 0.125
2.3125 1 0
2.375 1 0.0625
2.3125 1 0.125
2.3125 0.9375 0
2.375 0.9375 0.0625
2.3125 0.9375 0.125
2.3125 1 0.0625
2.3125 0.9375 0.0625
2.5 0.9375 0
2.5 0.9375 0.125
2.4375 1 0
2.5 1 0.0625
2.4375 1 0.125
2.4375 0.9375 0
2.5 0.9375 0.0625
2.4375 0.9375 0.125
2.4375 1 0.0625
2.4375 0.9375 0.0625
2.625 0.9375 0
2.625 0.9375 0.125
2.5625 1 0
2.625 1 0.0625
2.5625 1 0.125
2.5625 0.9375 0
2.625 0.9375 0.0625
2.5625 0.9375 0.125
2.5625 1 0.0625
2.5625 0.9375 0.0625
2.75 0.9375 0
2.75 0.9375 0.125
2.6875 1 0
2.75 1 0.0625
2.6875 1 0.125
2.6875 0.9375 0
2.75 0.9375 0.0625
2.6875 0.9375 0.125
2.6875 1 0.0625
2.6875 0.9375 0.0625
2.875 0.9375 0
2.875 0.9375 0.125
2.8125 1 0
2.875 1 0.0625
2.8125 1 0.125
2.8125 0.9375 0
2.875 0.9375 0.0625
2.8125 0.9375 0.125
2.8125 1 0.0625
2.8125 0.9375 0.0625
3 0.9375 0
3 0.9375 0.125
2.9375 1 0
3 1 0.0625
2.9375 1 0.125
2.9375 0.9375 0
3 0.9375 0.0625
2.9375 0.9375 0.125
2.9375 1 0.0625
2.9375 0.9375 0.0625
0.125 0 0.1875
0.0625 0 0.25
0 0 0.1875
0.125 0.0625 0.25
0 0.0625 0.25
0.125 0.125 0.1875
0.0625 0.125 0.25
0 0.125 0.1875
0.0625 0 0.1875
0.125 0.0625 0.1875
0.0625 0.0625 0.25
0 0.0625 0.1875
0.0625 0.125 0.1875
0.0625 0.0625 0.1875
0.25 0 0.1875
0.1875 0 0.25
0.25 0.0625 0.25
0.25 0.125 0.1875
0.1875 0.125 0.25
0.1875 0 0.1875
0.25 0.0625 0.1875
0.1875 0.0625 0.25
0.1875 0.125 0.1875
0.1875 0.0625 0.1875
0.375 0 0.1875
0.3125 0 0.25
0.375 0.0625 0.25
0.375 0.125 0.1875
0.3125 0.125 0.25
0.3125 0 0.1875
0.375 0.0625 0.1875
0.3125 0.0625 0.25
0.3125 0.125 0.1875
0.3125 0.0625 0.1875
0.5 0 0.1875
0.4375 0 0.25
0.5 0.0625 0.25
0.5 0.125 0.1875
0.4375 0.125 0.25
0.4375 0 0.1875
0.5 0.0625 0.1875
0.4375 0.0625 0.25
0.4375 0.125 0.1875
0.4375 0.0625 0.1875
0.625 0 0.1875
0.5625 0 0.25
0.625 0.0625 0.25
0.625 0.125 0.1875
0.5625 0.125 0.25
0.5625 0 0.1875
0.625 0.0625 0.1875
0.5625 0.0625 0.25
0.5625 0.125 0.1875
0.5625 0.0625 0.1875
0.75 0 0.1875
0.6875 0 0.25
0.75 0.0625 0.25
0.75 0.125 0.1875
0.6875 0.125 0.25
0.6875 0 0.1875
0.75 0.0625 0.1875
0.6875 0.0625 0.25
0.6875 0.125 0.1875
0.6875 0.0625 0.1875
0.875 0 0.1875
0.8125 0 0.25
0.875 0.0625 0.25
0.875 0.125 0.1875
0.8125 0.125 0.25
0.8125 0 0.1875
0.875 0.0625 0.1875
0.8125 0.0625 0.25
0.8125 0.125 0.1875
0.8125 0.0625 0.1875
1 0 0.1875
0.9375 0 0.25
1 0.0625 0.25
1 0.125 0.1875
0.9375 0.125 0.25
0.9375 0 0.1875
1 0.0625 0.1875
0.9375 0.0625 0.25
0.9375 0.125 0.1875
0.9375 0.0625 0.1875
1.125 0 0.1875
1.0625 0 0.25
1.125 0.0625 0.25
1.125 0.125 0.1875
1.0625 0.125 0.25
1.0625 0 0.1875
1.125 0.0625 0.1875
1.0625 0.0625 0.25
1.0625 0.125 0.1875
1.0625 0.0625 0.1875
1.25 0 0.1875
1.1875 0 0.25
1.25 0.0625 0.25
1.25 0.125 0.1875
1.1875 0.125 0.25
1.1875 0 0.1875
1.25 0.0625 0.1875
1.1875 0.0625 0.25
1.1875 0.125 0.1875
1.1875 0.0625 0.1875
1.375 0 0.1875
1.3125 0 0.25
1.375 0.0625 0.25
1.375 0.125 0.1875
1.3125 0.125 0.25
1.3125 0 0.1875
1.375 0.0625 0.1875
1.3125 0.0625 0.25
1.3125 0.125 0.1875
1.3125 0.0625 0.1875
1.5 0 0.1875
1.4375 0 0.25
1.5 0.0625 0.25
1.5 0.125 0.1875
1.4375 0.125 0.25
1.4375 0 0.1875
1.5 0.0625 0.1875
1.4375 0.0625 0.25
1.4375 0.125 0.1875
1.4375 0.0625 0.1875
1.625 0 0.1875
1.5625 0 0.25
1.625 0.0625 0.25
1.625 0.125 0.1875
1.5625 0.125 0.25
1.5625 0 0.1875
1.625 0.0625 0.1875
1.5625 0.0625 0.25
1.5625 0.125 0.1875
1.5625 0.0625 0.1875
1.75 0 0.1875
1.6875 0 0.25
1.75 0.0625 0.25
1.75 0.125 0.1875
1.6875 0.125 0.25
1.6875 0 0.1875
1.75 0.0625 0.1875
1.6875 0.0625 0.25
1.6875 0.125 0.1875
1.6875 0.0625 0.1875
1.875 0 0.1875
1.8125 0 0.25
1.875 0.0625 0.25
1.875 0.125 0.1875
1.8125 0.125 0.25
1.8125 0 0.1875
1.875 0.0625 0.1875
1.8125 0.0625 0.25
1.8125 0.125 0.1875
1.8125 0.0625 0.1875
2 0 0.1875
1.9375 0 0.25
2 0.0625 0.25
2 0.125 0.1875
1.9375 0.125 0.25
1.9375 0 0.1875
2 0.0625 0.1875
1.9375 0.0625 0.25
1.9375 0.125 0.1875
1.9375 0.0625 0.1875
2.125 0 0.1875
2.0625 0 0.25
2.125 0.0625 0.25
2.125 0.125 0.1875
2.0625 0.125 0.25
2.0625 0 0.1875
2.125 0.0625 0.1875
2.0625 0.0625 0.25
2.0625 0.125 0.1875
2.0625 0.0625 0.1875
2.25 0 0.1875
2.1875 0 0.25
2.25 0.0625 0.25
2.25 0.125 0.1875
2.1875 0.125 0.25
2.1875 0 0.1875
2.25 0.0625 0.1875
2.1875 0.0625 0.25
2.1875 0.125 0.1875
2.1875 0.0625 0.1875
2.375 0 0.1875
2.3125 0 0.25
2.375 0.0625 0.25
2.375 0.125 0.1875
2.3125 0.125 0.25
2.3125 0 0.1875
2.375 0.0625 0.1875
2.3125 0.0625 0.25
2.3125 0.125 0.1875
2.3125 0.0625 0.1875
2.5 0 0.1875
2.4375 0 0.25
2.5 0.0625 0.25
2.5 0.125 0.1875
2.4375 0.125 0.25
2.4375 0 0.1875
2.5 0.0625 0.1875
2.4375 0.0625 0.25
2.4375 0.125 0.1875
2.4375 0.0625 0.1875
2.625 0 0.1875
2.5625 0 0.25
2.625 0.0625 0.25
2.625 0.125 0.1875
2.5625 0.125 0.25
2.5625 0 0.1875
2.625 0.0625 0.1875
2.5625 0.0625 0.25
2.5625 0.125 0.1875
2.5625 0.0625 0.1875
2.75 0 0.1875
2.6875 0 0.25
2.75 0.0625 0.25
2.75 0.125 0.1875
2.6875 0.125 0.25
2.6875 0 0.1875
2.75 0.0625 0.1875
2.6875 0.0625 0.25
2.6875 0.125 0.1875
2.6875 0.0625 0.1875
2.875 0 0.1875
2.8125 0 0.25
2.875 0.0625 0.25
2.875 0.125 0.1875
2.8125 0.125 0.25
2.8125 0 0.1875
2.875 0.0625 0.1875
2.8125 0.0625 0.25
2.8125 0.125 0.1875
2.8125 0.0625 0.1875
3 0 0.1875
2.9375 0 0.25
3 0.0625 0.25
3 0.125 0.1875
2.9375 0.125 0.25
2.9375 0 0.1875
3 0.0625 0.1875
2.9375 0.0625 0.25
2.9375 0.125 0.1875
2.9375 0.0625 0.1875
0.125 0.1875 0.25
0 0.1875 0.25
0.125 0.25 0.1875
0.0625 0.25 0.25
0 0.25 0.1875
0.125 0.1875 0.1875
0.0625 0.1875 0.25
0 0.1875 0.1875
0.0625 0.25 0.1875
0.0625 0.1875 0.1875
0.25 0.1875 0.25
0.25 0.25 0.1875
0.1875 0.25 0.25
0.25 0.1875 0.1875
0.1875 0.1875 0.25
0.1875 0.25 0.1875
0.1875 0.1875 0.1875
0.375 0.1875 0.25
0.375 0.25 0.1875
0.3125 0.25 0.25
0.375 0.1875 0.1875
0.3125 0.1875 0.25
0.3125 0.25 0.1875
0.3125 0.1875 0.1875
0.5 0.1875 0.25
0.5 0.25 0.1875
0.4375 0.25 0.25
0.5 0.1875 0.1875
0.4375 0.1875 0.25
0.4375 0.25 0.1875
0.4375 0.1875 0.1875
0.625 0.1875 0.25
0.625 0.25 0.1875
0.5625 0.25 0.25
0.625 0.1875 0.1875
0.5625 0.1875 0.25
0.5625 0.25 0.1875
0.5625 0.1875 0.1875
0.75 0.1875 0.25
0.75 0.25 0.1875
0.6875 0.25 0.25
0.75 0.1875 0.1875
0.6875 0.1875 0.25
0.6875 0.25 0.1875
0.6875 0.1875 0.1875
0.875 0.1875 0.25
0.875 0.25 0.1875
0.8125 0.25 0.25
0.875 0.1875 0.1875
0.8125 0.1875 0.25
0.8125 0.25 0.1875
0.8125 0.1875 0.1875
1 0.1875 0.25
1 0.25 0.1875
0.9375 0.25 0.25
1 0.1875 0.1875
0.9375 0.1875 0.25
0.9375 0.25 0.1875
0.9375 0.1875 0.1875
1.125 0.1875 0.25
1.125 0.25 0.1875
1.0625 0.25 0.25
1.125 0.1875 0.1875
1.0625 0.1875 0.25
1.0625 0.25 0.1875
1.0625 0.1875 0.1875
1.25 0.1875 0.25
1.25 0.25 0.1875
1.1875 0.25 0.25
1.25 0.1875 0.1875
1.1875 0.1875 0.25
1.1875 0.25 0.1875
1.1875 0.1875 0.1875
1.375 0.1875 0.25
1.375 0.25 0.1875
1.3125 0.25 0.25
1.375 0.1875 0.1875
1.3125 0.1875 0.25
1.3125 0.25 0.1875
1.3125 0.1875 0.1875
1.5 0.1875 0.25
1.5 0.25 0.1875
1.4375 0.25 0.25
1.5 0.1875 0.1875
1.4375 0.1875 0.25
1.4375 0.25 0.1875
1.4375 0.1875 0.1875
1.625 0.1875 0.25
1.625 0.25 0.1875
1.5625 0.25 0.25
1.625 0.1875 0.1875
1.5625 0.1875 0.25
1.5625 0.25 0.1875
1.5625 0.1875 0.1875
1.75 0.1875 0.25
1.75 0.25 0.1875
1.6875 0.25 0.25
1.75 0.1875 0.1875
1.6875 0.1875 0.25
1.6875 0.25 0.1875
1.6875 0.1875 0.1875
1.875 0.1875 0.25
1.875 0.25 0.1875
1.8125 0.25 0.25
1.875 0.1875 0.1875
1.8125 0.1875 0.25
1.8125 0.25 0.1875
1.8125 0.1875 0.1875
2 0.1875 0.25
2 0.25 0.1875
1.9375 0.25 0.25
2 0.1875 0.1875
1.9375 0.1875 0.25
1.9375 0.25 0.1875
1.9375 0.1875 0.1875
2.125 0.1875 0.25
2.125 0.25 0.1875
2.0625 0.25 0.25
2.125 0.1875 0.1875
2.0625 0.1875 0.25
2.0625 0.25 0.1875
2.0625 0.1875 0.1875
2.25 0.1875 0.25
2.25 0.25 0.1875
2.1875 0.25 0.25
2.25 0.1875 0.1875
2.1875 0.1875 0.25
2.1875 0.25 0.1875
2.1875 0.1875 0.1875
2.375 0.1875 0.25
2.375 0.25 0.1875
2.3125 0.25 0.25
2.375 0.1875 0.1875
2.3125 0.1875 0.25
2.3125 0.25 0.1875
2.3125 0.1875 0.1875
2.5 0.1875 0.25
2.5 0.25 0.1875
2.4375 0.25 0.25
2.5 0.1875 0.1875
2.4375 0.1875 0.25
2.4375 0.25 0.1875
2.4375 0.1875 0.1875
2.625 0.1875 0.25
2.625 0.25 0.1875
2.5625 0.25 0.25
2.625 0.1875 0.1875
2.5625 0.1875 0.25
2.5625 0.25 0.1875
2.5625 0.1875 0.1875
2.75 0.1875 0.25
2.75 0.25 0.1875
2.6875 0.25 0.25
2.75 0.1875 0.1875
2.6875 0.1875 0.25
2.6875 0.25 0.1875
2.6875 0.1875 0.1875
2.875 0.1875 0.25
2.875 0.25 0.1875
2.8125 0.25 0.25
2.875 0.1875 0.1875
2.8125 0.1875 0.25
2.8125 0.25 0.1875
2.8125 0.1875 0.1875
3 0.1875 0.25
3 0.25 0.1875
2.9375 0.25 0.25
3 0.1875 0.1875
2.9375 0.1875 0.25
2.9375 0.25 0.1875
2.9375 0.1875 0.1875
0.125 0.3125 0.25
0 0.3125 0.25
0.125 0.375 0.1875
0.0625 0.375 0.25
0 0.375 0.1875
0.125 0.3125 0.1875
0.0625 0.3125 0.25
0 0.3125 0.1875
0.0625 0.375 0.1875
0.0625 0.3125 0.1875
0.25 0.3125 0.25
0.25 0.375 0.1875
0.1875 0.375 0.25
0.25 0.3125 0.1875
0.1875 0.3125 0.25
0.1875 0.375 0.1875
0.1875 0.3125 0.1875
0.375 0.3125 0.25
0.375 0.375 0.1875
0.3125 0.375 0.25
0.375 0.3125 0.1875
0.3125 0.3125 0.25
0.3125 0.375 0.1875
0.3125 0.3125 0.1875
0.5 0.3125 0.25
0.5 0.375 0.1875
0.4375 0.375 0.25
0.5 0.3125 0.1875
0.4375 0.3125 0.25
0.4375 0.375 0.1875
0.4375 0.3125 0.1875
0.625 0.3125 0.25
0.625 0.375 0.1875
0.5625 0.375 0.25
0.625 0.3125 0.1875
0.5625 0.3125 0.25
0.5625 0.375 0.1875
0.5625 0.3125 0.1875
0.75 0.3125 0.25
0.75 0.375 0.1875
0.6875 0.375 0.25
0.75 0.3125 0.1875
0.6875 0.3125 0.25
0.6875 0.375 0.1875
0.6875 0.3125 0.1875
0.875 0.3125 0.25
0.875 0.375 0.1875
0.8125 0.375 0.25
0.875 0.3125 0.1875
0.8125 0.3125 0.25
0.8125 0.375 0.1875
0.8125 0.3125 0.1875
1 0.3125 0.25
1 0.375 0.1875
0.9375 0.375 0.25
1 0.3125 0.1875
0.9375 0.3125 0.25
0.9375 0.375 0.1875
0.9375 0.3125 0.1875
1.125 0.3125 0.25
1.125 0.375 0.1875
1.0625 0.375 0.25
1.125 0.3125 0.1875
1.0625 0.3125 0.25
1.0625 0.375 0.1875
1.0625 0.3125 0.1875
1.25 0.3125 0.25
1.25 0.375 0.1875
1.1875 0.375 0.25
1.25 0.3125 0.1875
1.1875 0.3125 0.25
1.1875 0.375 0.1875
1.1875 0.3125 0.1875
1.375 0.3125 0.25
1.375 0.375 0.1875
1.3125 0.375 0.25
1.375 0.3125 0.1875
1.3125 0.3125 0.25
1.3125 0.375 0.1875
1.3125 0.3125 0.1875
1.5 0.3125 0.25
1.5 0.375 0.1875
1.4375 0.375 0.25
1.5 0.3125 0.1875
1.4375 0.3125 0.25
1.4375 0.375 0.1875
1.4375 0.3125 0.1875
1.625 0.3125 0.25
1.625 0.375 0.1875
1.5625 0.375 0.25
1.625 0.3125 0.1875
1.5625 0.3125 0.25
1.5625 0.375 0.1875
1.5625 0.3125 0.1875
1.75 0.3125 0.25
1.75 0.375 0.1875
1.6875 0.375 0.25
1.75 0.3125 0.1875
1.6875 0.3125 0.25
1.6875 0.375 0.1875
1.6875 0.3125 0.1875
1.875 0.3125 0.25
1.875 0.375 0.1875
1.8125 0.375 0.25
1.875 0.3125 0.1875
1.8125 0.3125 0.25
1.8125 0.375 0.1875
1.8125 0.3125 0.1875
2 0.3125 0.25
2 0.375 0.1875
1.9375 0.375 0.25
2 0.3125 0.1875
1.9375 0.3125 0.25
1.9375 0.375 0.1875
1.9375 0.3125 0.1875
2.125 0.3125 0.25
2.125 0.375 0.1875
2.0625 0.375 0.25
2.125 0.3125 0.1875
2.0625 0.3125 0.25
2.0625 0.375 0.1875
2.0625 0.3125 0.1875
2.25 0.3125 0.25
2.25 0.375 0.1875
2.1875 0.375 0.25
2.25 0.3125 0.1875
2.1875 0.3125 0.25
2.1875 0.375 0.1875
2.1875 0.3125 0.1875
2.375 0.3125 0.25
2.375 0.375 0.1875
2.3125 0.375 0.25
2.375 0.3125 0.1875
2.3125 0.3125 0.25
2.3125 0.375 0.1875
2.3125 0.3125 0.1875
2.5 0.3125 0.25
2.5 0.375 0.1875
2.4375 0.375 0.25
2.5 0.3125 0.1875
2.4375 0.3125 0.25
2.4375 0.375 0.1875
2.4375 0.3125 0.1875
2.625 0.3125 0.25
2.625 0.375 0.1875
2.5625 0.375 0.25
2.625 0.3125 0.1875
2.5625 0.3125 0.25
2.5625 0.375 0.1875
2.5625 0.3125 0.1875
2.75 0.3125 0.25
2.75 0.375 0.1875
2.6875 0.375 0.25
2.75 0.3125 0.1875
2.6875 0.3125 0.25
2.6875 0.375 0.1875
2.6875 0.3125 0.1875
2.875 0.3125 0.25
2.875 0.375 0.1875
2.8125 0.375 0.25
2.875 0.3125 0.1875
2.8125 0.3125 0.25
2.8125 0.375 0.1875
2.8125 0.3125 0.1875
3 0.3125 0.25
3 0.375 0.1875
2.9375 0.375 0.25
3 0.3125 0.1875
2.9375 0.3125 0.25
2.9375 0.375 0.1875
2.9375 0.3125 0.1875
0.125 0.4375 0.25
0 0.4375 0.25
0.125 0.5 0.1875
0.0625 0.5 0.25
0 0.5 0.1875
0.125 0.4375 0.1875
0.0625 0.4375 0.25
0 0.4375 0.1875
0.0625 0.5 0.1875
0.0625 0.4375 0.1875
0.25 0.4375 0.25
0.25 0.5 0.1875
0.1875 0.5 0.25
0.25 0.4375 0.1875
0.1875 0.4375 0.25
0.1875 0.5 0.1875
0.1875 0.4375 0.1875
0.375 0.4375 0.25
0.375 0.5 0.1875
0.3125 0.5 0.25
0.375 0.4375 0.1875
0.3125 0.4375 0.25
0.3125 0.5 0.1875
0.3125 0.4375 0.1875
0.5 0.4375 0.25
0.5 0.5 0.1875
0.4375 0.5 0.25
0.5 0.4375 0.1875
0.4375 0.4375 0.25
0.4375 0.5 0.1875
0.4375 0.4375 0.1875
0.625 0.4375 0.25
0.625 0.5 0.1875
0.5625 0.5 0.25
0.625 0.4375 0.1875
0.5625 0.4375 0.25
0.5625 0.5 0.1875
0.5625 0.4375 0.1875
0.75 0.4375 0.25
0.75 0.5 0.1875
0.6875 0.5 0.25
0.75 0.4375 0.1875
0.6875 0.4375 0.25
0.6875 0.5 0.1875
0.6875 0.4375 0.1875
0.875 0.4375 0.25
0.875 0.5 0.1875
0.8125 0.5 0.25
0.875 0.4375 0.1875
0.8125 0.4375 0.25
0.8125 0.5 0.1875
0.8125 0.4375 0.1875
1 0.4375 0.25
1 0.5 0.1875
0.9375 0.5 0.25
1 0.4375 0.1875
0.9375 0.4375 0.25
0.9375 0.5 0.1875
0.9375 0.4375 0.1875
1.125 0.4375 0.25
1.125 0.5 0.1875
1.0625 0.5 0.25
1.125 0.4375 0.1875
1.0625 0.4375 0.25
1.0625 0.5 0.1875
1.0625 0.4375 0.1875
1.25 0.4375 0.25
1.25 0.5 0.1875
1.1875 0.5 0.25
1.25 0.4375 0.1875
1.1875 0.4375 0.25
1.1875 0.5 0.1875
1.1875 0.4375 0.1875
1.375 0.4375 0.25
1.375 0.5 0.1875
1.3125 0.5 0.25
1.375 0.4375 0.1875
1.3125 0.4375 0.25
1.3125 0.5 0.1875
1.3125 0.4375 0.1875
1.5 0.4375 0.25
1.5 0.5 0.1875
1.4375 0.5 0.25
1.5 0.4375 0.1875
1.4375 0.4375 0.25
1.4375 0.5 0.1875
1.4375 0.4375 0.1875
1.625 0.4375 0.25
1.625 0.5 0.1875
1.5625 0.5 0.25
1.625 0.4375 0.1875
1.5625 0.4375 0.25
1.5625 0.5 0.1875
1.5625 0.4375 0.1875
1.75 0.4375 0.25
1.75 0.5 0.1875
1.6875 0.5 0.25
1.75 0.4375 0.1875
1.6875 0.4375 0.25
1.6875 0.5 0.1875
1.6875 0.4375 0.1875
1.875 0.4375 0.25
1.875 0.5 0.1875
1.8125 0.5 0.25
1.875 0.4375 0.1875
1.8125 0.4375 0.25
1.8125 0.5 0.1875
1.8125 0.4375 0.1875
2 0.4375 0.25
2 0.5 0.1875
1.9375 0.5 0.25
2 0.4375 0.1875
1.9375 0.4375 0.25
1.9375 0.5 0.1875
1.9375 0.4375 0.1875
2.125 0.4375 0.25
2.125 0.5 0.1875
2.0625 0.5 0.25
2.125 0.4375 0.1875
2.0625 0.4375 0.25
2.0625 0.5 0.1875
2.0625 0.4375 0.1875
2.25 0.4375 0.25
2.25 0.5 0.1875
2.1875 0.5 0.25
2.25 0.4375 0.1875
2.1875 0.4375 0.25
2.1875 0.5 0.1875
2.1875 0.4375 0.1875
2.375 0.4375 0.25
2.375 0.5 0.1875
2.3125 0.5 0.25
2.375 0.4375 0.1875
2.3125 0.4375 0.25
2.3125 0.5 0.1875
2.3125 0.4375 0.1875
2.5 0.4375 0.25
2.5 0.5 0.1875
2.4375 0.5 0.25
2.5 0.4375 0.1875
2.4375 0.4375 0.25
2.4375 0.5 0.1875
2.4375 0.4375 0.1875
2.625 0.4375 0.25
2.625 0.5 0.1875
2.5625 0.5 0.25
2.625 0.4375 0.1875
2.5625 0.4375 0.25
2.5625 0.5 0.1875
2.5625 0.4375 0.1875
2.75 0.4375 0.25
2.75 0.5 0.1875
2.6875 0.5 0.25
2.75 0.4375 0.1875
2.6875 0.4375 0.25
2.6875 0.5 0.1875
2.6875 0.4375 0.1875
2.875 0.4375 0.25
2.875 0.5 0.1875
2.8125 0.5 0.25
2.875 0.4375 0.1875
2.8125 0.4375 0.25
2.8125 0.5 0.1875
2.8125 0.4375 0.1875
3 0.4375 0.25
3 0.5 0.1875
2.9375 0.5 0.25
3 0.4375 0.1875
2.9375 0.4375 0.25
2.9375 0.5 0.1875
2.9375 0.4375 0.1875
0.125 0.5625 0.25
0 0.5625 0.25
0.125 0.625 0.1875
0.0625 0.625 0.25
0 0.625 0.1875
0.125 0.5625 0.1875
0.0625 0.5625 0.25
0 0.5625 0.1875
0.0625 0.625 0.1875
0.0625 0.5625 0.1875
0.25 0.5625 0.25
0.25 0.625 0.1875
0.1875 0.625 0.25
0.25 0.5625 0.1875
0.1875 0.5625 0.25
0.1875 0.625 0.1875
0.1875 0.5625 0.1875
0.375 0.5625 0.25
0.375 0.625 0.1875
0.3125 0.625 0.25
0.375 0.5625 0.1875
0.3125 0.5625 0.25
0.3125 0.625 0.1875
0.3125 0.5625 0.1875
0.5 0.5625 0.25
0.5 0.625 0.1875
0.4375 0.625 0.25
0.5 0.5625 0.1875
0.4375 0.5625 0.25
0.4375 0.625 0.1875
0.4375 0.5625 0.1875
0.625 0.5625 0.25
0.625 0.625 0.1875
0.5625 0.625 0.25
0.625 0.5625 0.1875
0.5625 0.5625 0.25
0.5625 0.625 0.1875
0.5625 0.5625 0.1875
0.75 0.5625 0.25
0.75 0.625 0.1875
0.6875 0.625 0.25
0.75 0.5625 0.1875
0.6875 0.5625 0.25
0.6875 0.625 0.1875
0.6875 0.5625 0.1875
0.875 0.5625 0.25
0.875 0.625 0.1875
0.8125 0.625 0.25
0.875 0.5625 0.1875
0.8125 0.5625 0.25
0.8125 0.625 0.1875
0.8125 0.5625 0.1875
1 0.5625 0.25
1 0.625 0.1875
0.9375 0.625 0.25
1 0.5625 0.1875
0.9375 0.5625 0.25
0.9375 0.625 0.1875
0.9375 0.5625 0.1875
1.125 0.5625 0.25
1.125 0.625 0.1875
1.0625 0.625 0.25
1.125 0.5625 0.1875
1.0625 0.5625 0.25
1.0625 0.625 0.1875
1.0625 0.5625 0.1875
1.25 0.5625 0.25
1.25 0.625 0.1875
1.1875 0.625 0.25
1.25 0.5625 0.1875
1.1875 0.5625 0.25
1.1875 0.625 0.1875
1.1875 0.5625 0.1875
1.375 0.5625 0.25
1.375 0.625 0.1875
1.3125 0.625 0.25
1.375 0.5625 0.1875
1.3125 0.5625 0.25
1.3125 0.625 0.1875
1.3125 0.5625 0.1875
1.5 0.5625 0.25
1.5 0.625 0.1875
1.4375 0.625 0.25
1.5 0.5625 0.1875
1.4375 0.5625 0.25
1.4375 0.625 0.1875
1.4375 0.5625 0.1875
1.625 0.5625 0.25
1.625 0.625 0.1875
1.5625 0.625 0.25
1.625 0.5625 0.1875
1.5625 0.5625 0.25
1.5625 0.625 0.1875
1.5625 0.5625 0.1875
1.75 0.5625 0.25
1.75 0.625 0.1875
1.6875 0.625 0.25
1.75 0.5625 0.1875
1.6875 0.5625 0.25
1.6875 0.625 0.1875
1.6875 0.5625 0.1875
1.875 0.5625 0.25
1.875 0.625 0.1875
1.8125 0.625 0.25
1.875 0.5625 0.1875
1.8125 0.5625 0.25
1.8125 0.625 0.1875
1.8125 0.5625 0.1875
2 0.5625 0.25
2 0.625 0.1875
1.9375 0.625 0.25
2 0.5625 0.1875
1.9375 0.5625 0.25
1.9375 0.625 0.1875
1.9375 0.5625 0.1875
2.125 0.5625 0.25
2.125 0.625 0.1875
2.0625 0.625 0.25
2.125 0.5625 0.1875
2.0625 0.5625 0.25
2.0625 0.625 0.1875
2.0625 0.5625 0.1875
2.25 0.5625 0.25
2.25 0.625 0.1875
2.1875 0.625 0.25
2.25 0.5625 0.1875
2.1875 0.5625 0.25
2.1875 0.625 0.1875
2.1875 0.5625 0.1875
2.375 0.5625 0.25
2.375 0.625 0.1875
2.3125 0.625 0.25
2.375 0.5625 0.1875
2.3125 0.5625 0.25
2.3125 0.625 0.1875
2.3125 0.5625 0.1875
2.5 0.5625 0.25
2.5 0.625 0.1875
2.4375 0.625 0.25
2.5 0.5625 0.1875
2.4375 0.5625 0.25
2.4375 0.625 0.1875
2.4375 0.5625 0.1875
2.625 0.5625 0.25
2.625 0.625 0.1875
2.5625 0.625 0.25
2.625 0.5625 0.1875
2.5625 0.5625 0.25
2.5625 0.625 0.1875
2.5625 0.5625 0.1875
2.75 0.5625 0.25
2.75 0.625 0.1875
2.6875 0.625 0.25
2.75 0.5625 0.1875
2.6875 0.5625 0.25
2.6875 0.625 0.1875
2.6875 0.5625 0.1875
2.875 0.5625 0.25
2.875 0.625 0.1875
2.8125 0.625 0.25
2.875 0.5625 0.1875
2.8125 0.5625 0.25
2.8125 0.625 0.1875
2.8125 0.5625 0.1875
3 0.5625 0.25
3 0.625 0.1875
2.9375 0.625 0.25
3 0.5625 0.1875
2.9375 0.5625 0.25
2.9375 0.625 0.1875
2.9375 0.5625 0.1875
0.125 0.6875 0.25
0 0.6875 0.25
0.125 0.75 0.1875
0.0625 0.75 0.25
0 0.75 0.1875
0.125 0.6875 0.1875
0.0625 0.6875 0.25
0 0.6875 0.1875
0.0625 0.75 0.1875
0.0625 0.6875 0.1875
0.25 0.6875 0.25
0.25 0.75 0.1875
0.1875 0.75 0.25
0.25 0.6875 0.1875
0.1875 0.6875 0.25
0.1875 0.75 0.1875
0.1875 0.6875 0.1875
0.375 0.6875 0.25
0.375 0.75 0.1875
0.3125 0.75 0.25
0.375 0.6875 0.1875
0.3125 0.6875 0.25
0.3125 0.75 0.1875
0.3125 0.6875 0.1875
0.5 0.6875 0.25
0.5 0.75 0.1875
0.4375 0.75 0.25
0.5 0.6875 0.1875
0.4375 0.6875 0.25
0.4375 0.75 0.1875
0.4375 0.6875 0.1875
0.625 0.6875 0.25
0.625 0.75 0.1875
0.5625 0.75 0.25
0.625 0.6875 0.1875
0.5625 0.6875 0.25
0.5625 0.75 0.1875
0.5625 0.6875 0.1875
0.75 0.6875 0.25
0.75 0.75 0.1875
0.6875 0.75 0.25
0.75 0.6875 0.1875
0.6875 0.6875 0.25
0.6875 0.75 0.1875
0.6875 0.6875 0.1875
0.875 0.6875 0.25
0.875 0.75 0.1875
0.8125 0.75 0.25
0.875 0.6875 0.1875
0.8125 0.6875 0.25
0.8125 0.75 0.1875
0.8125 0.6875 0.1875
1 0.6875 0.25
1 0.75 0.1875
0.9375 0.75 0.25
1 0.6875 0.1875
0.9375 0.6875 0.25
0.9375 0.75 0.1875
0.9375 0.6875 0.1875
1.125 0.6875 0.25
1.125 0.75 0.1875
1.0625 0.75 0.25
1.125 0.6875 0.1875
1.0625 0.6875 0.25
1.0625 0.75 0.1875
1.0625 0.6875 0.1875
1.25 0.6875 0.25
1.25 0.75 0.1875
1.1875 0.75 0.25
1.25 0.6875 0.1875
1.1875 0.6875 0.25
1.1875 0.75 0.1875
1.1875 0.6875 0.1875
1.375 0.6875 0.25
1.375 0.75 0.1875
1.3125 0.75 0.25
1.375 0.6875 0.1875
1.3125 0.6875 0.25
1.3125 0.75 0.1875
1.3125 0.6875 0.1875
1.5 0.6875 0.25
1.5 0.75 0.1875
1.4375 0.75 0.25
1.5 0.6875 0.1875
1.4375 0.6875 0.25
1.4375 0.75 0.1875
1.4375 0.6875 0.1875
1.625 0.6875 0.25
1.625 0.75 0.1875
1.5625 0.75 0.25
1.625 0.6875 0.1875
1.5625 0.6875 0.25
1.5625 0.75 0.1875
1.5625 0.6875 0.1875
1.75 0.6875 0.25
1.75 0.75 0.1875
1.6875 0.75 0.25
1.75 0.6875 0.1875
1.6875 0.6875 0.25
1.6875 0.75 0.1875
1.6875 0.6875 0.1875
1.875 0.6875 0.25
1.875 0.75 0.1875
1.8125 0.75 0.25
1.875 0.6875 0.1875
1.8125 0.6875 0.25
1.8125 0.75 0.1875
1.8125 0.6875 0.1875
2 0.6875 0.25
2 0.75 0.1875
1.9375 0.75 0.25
2 0.6875 0.1875
1.9375 0.6875 0.25
1.9375 0.75 0.1875
1.9375 0.6875 0.1875
2.125 0.6875 0.25
2.125 0.75 0.1875
2.0625 0.75 0.25
2.125 0.6875 0.1875
2.0625 0.6875 0.25
2.0625 0.75 0.1875
2.0625 0.6875 0.1875
2.25 0.6875 0.25
2.25 0.75 0.1875
2.1875 0.75 0.25
2.25 0.6875 0.1875
2.1875 0.6875 0.25
2.1875 0.75 0.1875
2.1875 0.6875 0.1875
2.375 0.6875 0.25
2.375 0.75 0.1875
2.3125 0.75 0.25
2.375 0.6875 0.1875
2.3125 0.6875 0.25
2.3125 0.75 0.1875
2.3125 0.6875 0.1875
2.5 0.6875 0.25
2.5 0.75 0.1875
2.4375 0.75 0.25
2.5 0.6875 0.1875
2.4375 0.6875 0.25
2.4375 0.75 0.1875
2.4375 0.6875 0.1875
2.625 0.6875 0.25
2.625 0.75 0.1875
2.5625 0.75 0.25
2.625 0.6875 0.1875
2.5625 0.6875 0.25
2.5625 0.75 0.1875
2.5625 0.6875 0.1875
2.75 0.6875 0.25
2.75 0.75 0.1875
2.6875 0.75 0.25
2.75 0.6875 0.1875
2.6875 0.6875 0.25
2.6875 0.75 0.1875
2.6875 0.6875 0.1875
2.875 0.6875 0.25
2.875 0.75 0.1875
2.8125 0.75 0.25
2.875 0.6875 0.1875
2.8125 0.6875 0.25
2.8125 0.75 0.1875
2.8125 0.6875 0.1875
3 0.6875 0.25
3 0.75 0.1875
2.9375 0.75 0.25
3 0.6875 0.1875
2.9375 0.6875 0.25
2.9375 0.75 0.1875
2.9375 0.6875 0.1875
0.125 0.8125 0.25
0 0.8125 0.25
0.125 0.875 0.1875
0.0625 0.875 0.25
0 0.875 0.1875
0.125 0.8125 0.1875
0.0625 0.8125 0.25
0 0.8125 0.1875
0.0625 0.875 0.1875
0.0625 0.8125 0.1875
0.25 0.8125 0.25
0.25 0.875 0.1875
0.1875 0.875 0.25
0.25 0.8125 0.1875
0.1875 0.8125 0.25
0.1875 0.875 0.1875
0.1875 0.8125 0.1875
0.375 0.8125 0.25
0.375 0.875 0.1875
0.3125 0.875 0.25
0.375 0.8125 0.1875
0.3125 0.8125 0.25
0.3125 0.875 0.1875
0.3125 0.8125 0.1875
0.5 0.8125 0.25
0.5 0.875 0.1875
0.4375 0.875 0.25
0.5 0.8125 0.1875
0.4375 0.8125 0.25
0.4375 0.875 0.1875
0.4375 0.8125 0.1875
0.625 0.8125 0.25
0.625 0.875 0.1875
0.5625 0.875 0.25
0.625 0.8125 0.1875
0.5625 0.8125 0.25
0.5625 0.875 0.1875
0.5625 0.8125 0.1875
0.75 0.8125 0.25
0.75 0.875 0.1875
0.6875 0.875 0.25
0.75 0.8125 0.1875
0.6875 0.8125 0.25
0.6875 0.875 0.1875
0.6875 0.8125 0.1875
0.875 0.8125 0.25
0.875 0.875 0.1875
0.8125 0.875 0.25
0.875 0.8125 0.1875
0.8125 0.8125 0.25
0.8125 0.875 0.1875
0.8125 0.8125 0.1875
1 0.8125 0.25
1 0.875 0.1875
0.9375 0.875 0.25
1 0.8125 0.1875
0.9375 0.8125 0.25
0.9375 0.875 0.1875
0.9375 0.8125 0.1875
1.125 0.8125 0.25
1.125 0.875 0.1875
1.0625 0.875 0.25
1.125 0.8125 0.1875
1.0625 0.8125 0.25
1.0625 0.875 0.1875
1.0625 0.8125 0.1875
1.25 0.8125 0.25
1.25 0.875 0.1875
1.1875 0.875 0.25
1.25 0.8125 0.1875
1.1875 0.8125 0.25
1.1875 0.875 0.1875
1.1875 0.8125 0.1875
1.375 0.8125 0.25
1.375 0.875 0.1875
1.3125 0.875 0.25
1.375 0.8125 0.1875
1.3125 0.8125 0.25
1.3125 0.875 0.1875
1.3125 0.8125 0.1875
1.5 0.8125 0.25
1.5 0.875 0.1875
1.4375 0.875 0.25
1.5 0.8125 0.1875
1.4375 0.8125 0.25
1.4375 0.875 0.1875
1.4375 0.8125 0.1875
1.625 0.8125 0.25
1.625 0.875 0.1875
1.5625 0.875 0.25
1.625 0.8125 0.1875
1.5625 0.8125 0.25
1.5625 0.875 0.1875
1.5625 0.8125 0.1875
1.75 0.8125 0.25
1.75 0.875 0.1875
1.6875 0.875 0.25
1.75 0.8125 0.1875
1.6875 0.8125 0.25
1.6875 0.875 0.1875
1.6875 0.8125 0.1875
1.875 0.8125 0.25
1.875 0.875 0.1875
1.8125 0.875 0.25
1.875 0.8125 0.1875
1.8125 0.8125 0.25
1.8125 0.875 0.1875
1.8125 0.8125 0.1875
2 0.8125 0.25
2 0.875 0.1875
1.9375 0.875 0.25
2 0.8125 0.1875
1.9375 0.8125 0.25
1.9375 0.875 0.1875
1.9375 0.8125 0.1875
2.125 0.8125 0.25
2.125 0.875 0.1875
2.0625 0.875 0.25
2.125 0.8125 0.1875
2.0625 0.8125 0.25
2.0625 0.875 0.1875
2.0625 0.8125 0.1875
2.25 0.8125 0.25
2.25 0.875 0.1875
2.1875 0.875 0.25
2.25 0.8125 0.1875
2.1875 0.8125 0.25
2.1875 0.875 0.1875
2.1875 0.8125 0.1875
2.375 0.8125 0.25
2.375 0.875 0.1875
2.3125 0.875 0.25
2.375 0.8125 0.1875
2.3125 0.8125 0.25
2.3125 0.875 0.1875
2.3125 0.8125 0.1875
2.5 0.8125 0.25
2.5 0.875 0.1875
2.4375 0.875 0.25
2.5 0.8125 0.1875
2.4375 0.8125 0.25
2.4375 0.875 0.1875
2.4375 0.8125 0.1875
2.625 0.8125 0.25
2.625 0.875 0.1875
2.5625 0.875 0.25
2.625 0.8125 0.1875
2.5625 0.8125 0.25
2.5625 0.875 0.1875
2.5625 0.8125 0.1875
2.75 0.8125 0.25
2.75 0.875 0.1875
2.6875 0.875 0.25
2.75 0.8125 0.1875
2.6875 0.8125 0.25
2.6875 0.875 0.1875
2.6875 0.8125 0.1875
2.875 0.8125 0.25
2.875 0.875 0.1875
2.8125 0.875 0.25
2.875 0.8125 0.1875
2.8125 0.8125 0.25
2.8125 0.875 0.1875
2.8125 0.8125 0.1875
3 0.8125 0.25
3 0.875 0.1875
2.9375 0.875 0.25
3 0.8125 0.1875
2.9375 0.8125 0.25
2.9375 0.875 0.1875
2.9375 0.8125 0.1875
0.125 0.9375 0.25
0 0.9375 0.25
0.125 1 0.1875
0.0625 1 0.25
0 1 0.1875
0.125 0.9375 0.1875
0.0625 0.9375 0.25
0 0.9375 0.1875
0.0625 1 0.1875
0.0625 0.9375 0.1875
0.25 0.9375 0.25
0.25 1 0.1875
0.1875 1 0.25
0.25 0.9375 0.1875
0.1875 0.9375 0.25
0.1875 1 0.1875
0.1875 0.9375 0.1875
0.375 0.9375 0.25
0.375 1 0.1875
0.3125 1 0.25
0.375 0.9375 0.1875
0.3125 0.9375 0.25
0.3125 1 0.1875
0.3125 0.9375 0.1875
0.5 0.9375 0.25
0.5 1 0.1875
0.4375 1 0.25
0.5 0.9375 0.1875
0.4375 0.9375 0.25
0.4375 1 0.1875
0.4375 0.9375 0.1875
0.625 0.9375 0.25
0.625 1 0.1875
0.5625 1 0.25
0.625 0.9375 0.1875
0.5625 0.9375 0.25
0.5625 1 0.1875
0.5625 0.9375 0.1875
0.75 0.9375 0.25
0.75 1 0.1875
0.6875 1 0.25
0.75 0.9375 0.1875
0.6875 0.9375 0.25
0.6875 1 0.1875
0.6875 0.9375 0.1875
0.875 0.9375 0.25
0.875 1 0.1875
0.8125 1 0.25
0.875 0.9375 0.1875
0.8125 0.9375 0.25
0.8125 1 0.1875
0.8125 0.9375 0.1875
1 0.9375 0.25
1 1 0.1875
0.9375 1 0.25
1 0.9375 0.1875
0.9375 0.9375 0.25
0.9375 1 0.1875
0.9375 0.9375 0.1875
1.125 0.9375 0.25
1.125 1 0.1875
1.0625 1 0.25
1.125 0.9375 0.1875
1.0625 0.9375 0.25
1.0625 1 0.1875
1.0625 0.9375 0.1875
1.25 0.9375 0.25
1.25 1 0.1875
1.1875 1 0.25
1.25 0.9375 0.1875
1.1875 0.9375 0.25
1.1875 1 0.1875
1.1875 0.9375 0.1875
1.375 0.9375 0.25
1.375 1 0.1875
1.3125 1 0.25
1.375 0.9375 0.1875
1.3125 0.9375 0.25
1.3125 1 0.1875
1.3125 0.9375 0.1875
1.5 0.9375 0.25
1.5 1 0.1875
1.4375 1 0.25
1.5 0.9375 0.1875
1.4375 0.9375 0.25
1.4375 1 0.1875
1.4375 0.9375 0.1875
1.625 0.9375 0.25
1.625 1 0.1875
1.5625 1 0.25
1.625 0.9375 0.1875
1.5625 0.9375 0.25
1.5625 1 0.1875
1.5625 0.9375 0.1875
1.75 0.9375 0.25
1.75 1 0.1875
1.6875 1 0.25
1.75 0.9375 0.1875
1.6875 0.9375 0.25
1.6875 1 0.1875
1.6875 0.9375 0.1875
1.875 0.9375 0.25
1.875 1 0.1875
1.8125 1 0.25
1.875 0.9375 0.1875
1.8125 0.9375 0.25
1.8125 1 0.1875
1.8125 0.9375 0.1875
2 0.9375 0.25
2 1 0.1875
1.9375 1 0.25
2 0.9375 0.1875
1.9375 0.9375 0.25
1.9375 1 0.1875
1.9375 0.9375 0.1875
2.125 0.9375 0.25
2.125 1 0.1875
2.0625 1 0.25
2.125 0.9375 0.1875
2.0625 0.9375 0.25
2.0625 1 0.1875
2.0625 0.9375 0.1875
2.25 0.9375 0.25
2.25 1 0.1875
2.1875 1 0.25
2.25 0.9375 0.1875
2.1875 0.9375 0.25
2.1875 1 0.1875
2.1875 0.9375 0.1875
2.375 0.9375 0.25
2.375 1 0.1875
2.3125 1 0.25
2.375 0.9375 0.1875
2.3125 0.9375 0.25
2.3125 1 0.1875
2.3125 0.9375 0.1875
2.5 0.9375 0.25
2.5 1 0.1875
2.4375 1 0.25
2.5 0.9375 0.1875
2.4375 0.9375 0.25
2.4375 1 0.1875
2.4375 0.9375 0.1875
2.625 0.9375 0.25
2.625 1 0.1875
2.5625 1 0.25
2.625 0.9375 0.1875
2.5625 0.9375 0.25
2.5625 1 0.1875
2.5625 0.9375 0.1875
2.75 0.9375 0.25
2.75 1 0.1875
2.6875 1 0.25
2.75 0.9375 0.1875
2.6875 0.9375 0.25
2.6875 1 0.1875
2.6875 0.9375 0.1875
2.875 0.9375 0.25
2.875 1 0.1875
2.8125 1 0.25
2.875 0.9375 0.1875
2.8125 0.9375 0.25
2.8125 1 0.1875
2.8125 0.9375 0.1875
3 0.9375 0.25
3 1 0.1875
2.9375 1 0.25
3 0.9375 0.1875
2.9375 0.9375 0.25
2.9375 1 0.1875
2.9375 0.9375 0.1875
0.125 0 0.3125
0.0625 0 0.375
0 0 0.3125
0.125 0.0625 0.375
0 0.0625 0.375
0.125 0.125 0.3125
0.0625 0.125 0.375
0 0.125 0.3125
0.0625 0 0.3125
0.125 0.0625 0.3125
0.0625 0.0625 0.375
0 0.0625 0.3125
0.0625 0.125 0.3125
0.0625 0.0625 0.3125
0.25 0 0.3125
0.1875 0 0.375
0.25 0.0625 0.375
0.25 0.125 0.3125
0.1875 0.125 0.375
0.1875 0 0.3125
0.25 0.0625 0.3125
0.1875 0.0625 0.375
0.1875 0.125 0.3125
0.1875 0.0625 0.3125
0.375 0 0.3125
0.3125 0 0.375
0.375 0.0625 0.375
0.375 0.125 0.3125
0.3125 0.125 0.375
0.3125 0 0.3125
0.375 0.0625 0.3125
0.3125 0.0625 0.375
0.3125 0.125 0.3125
0.3125 0.0625 0.3125
0.5 0 0.3125
0.4375 0 0.375
0.5 0.0625 0.375
0.5 0.125 0.3125
0.4375 0.125 0.375
0.4375 0 0.3125
0.5 0.0625 0.3125
0.4375 0.0625 0.375
0.4375 0.125 0.3125
0.4375 0.0625 0.3125
0.625 0 0.3125
0.5625 0 0.375
0.625 0.0625 0.375
0.625 0.125 0.3125
0.5625 0.125 0.375
0.5625 0 0.3125
0.625 0.0625 0.3125
0.5625 0.0625 0.375
0.5625 0.125 0.3125
0.5625 0.0625 0.3125
0.75 0 0.3125
0.6875 0 0.375
0.75 0.0625 0.375
0.75 0.125 0.3125
0.6875 0.125 0.375
0.6875 0 0.3125
0.75 0.0625 0.3125
0.6875 0.0625 0.375
0.6875 0.125 0.3125
0.6875 0.0625 0.3125
0.875 0 0.3125
0.8125 0 0.375
0.875 0.0625 0.375
0.875 0.125 0.3125
0.8125 0.125 0.375
0.8125 0 0.3125
0.875 0.0625 0.3125
0.8125 0.0625 0.375
0.8125 0.125 0.3125
0.8125 0.0625 0.3125
1 0 0.3125
0.9375 0 0.375
1 0.0625 0.375
1 0.125 0.3125
0.9375 0.125 0.375
0.9375 0 0.3125
1 0.0625 0.3125
0.9375 0.0625 0.375
0.9375 0.125 0.3125
0.9375 0.0625 0.3125
1.125 0 0.3125
1.0625 0 0.375
1.125 0.0625 0.375
1.125 0.125 0.3125
1.0625 0.125 0.375
1.0625 0 0.3125
1.125 0.0625 0.3125
1.0625 0.0625 0.375
1.0625 0.125 0.3125
1.0625 0.0625 0.3125
1.25 0 0.3125
1.1875 0 0.375
1.25 0.0625 0.375
1.25 0.125 0.3125
1.1875 0.125 0.375
1.1875 0 0.3125
1.25 0.0625 0.3125
1.1875 0.0625 0.375
1.1875 0.125 0.3125
1.1875 0.0625 0.3125
1.375 0 0.3125
1.3125 0 0.375
1.375 0.0625 0.375
1.375 0.125 0.3125
1.3125 0.125 0.375
1.3125 0 0.3125
1.375 0.0625 0.3125
1.3125 0.0625 0.375
1.3125 0.125 0.3125
1.3125 0.0625 0.3125
1.5 0 0.3125
1.4375 0 0.375
1.5 0.0625 0.375
1.5 0.125 0.3125
1.4375 0.125 0.375
1.4375 0 0.3125
1.5 0.0625 0.3125
1.4375 0.0625 0.375
1.4375 0.125 0.3125
1.4375 0.0625 0.3125
1.625 0 0.3125
1.5625 0 0.375
1.625 0.0625 0.375
1.625 0.125 0.3125
1.5625 0.125 0.375
1.5625 0 0.3125
1.625 0.0625 0.3125
1.5625 0.0625 0.375
1.5625 0.125 0.3125
1.5625 0.0625 0.3125
1.75 0 0.3125
1.6875 0 0.375
1.75 0.0625 0.375
1.75 0.125 0.3125
1.6875 0.125 0.375
1.6875 0 0.3125
1.75 0.0625 0.3125
1.6875 0.0625 0.375
1.6875 0.125 0.3125
1.6875 0.0625 0.3125
1.875 0 0.3125
1.8125 0 0.375
1.875 0.0625 0.375
1.875 0.125 0.3125
1.8125 0.125 0.375
1.8125 0 0.3125
1.875 0.0625 0.3125
1.8125 0.0625 0.375
1.8125 0.125 0.3125
1.8125 0.0625 0.3125
2 0 0.3125
1.9375 0 0.375
2 0.0625 0.375
2 0.125 0.3125
1.9375 0.125 0.375
1.9375 0 0.3125
2 0.0625 0.3125
1.9375 0.0625 0.375
1.9375 0.125 0.3125
1.9375 0.0625 0.3125
2.125 0 0.3125
2.0625 0 0.375
2.125 0.0625 0.375
2.125 0.125 0.3125
2.0625 0.125 0.375
2.0625 0 0.3125
2.125 0.0625 0.3125
2.0625 0.0625 0.375
2.0625 0.125 0.3125
2.0625 0.0625 0.3125
2.25 0 0.3125
2.1875 0 0.375
2.25 0.0625 0.375
2.25 0.125 0.3125
2.1875 0.125 0.375
2.1875 0 0.3125
2.25 0.0625 0.3125
2.1875 0.0625 0.375
2.1875 0.125 0.3125
2.1875 0.0625 0.3125
2.375 0 0.3125
2.3125 0 0.375
2.375 0.0625 0.375
2.375 0.125 0.3125
2.3125 0.125 0.375
2.3125 0 0.3125
2.375 0.0625 0.3125
2.3125 0.0625 0.375
2.3125 0.125 0.3125
2.3125 0.0625 0.3125
2.5 0 0.3125
2.4375 0 0.375
2.5 0.0625 0.375
2.5 0.125 0.3125
2.4375 0.125 0.375
2.4375 0 0.3125
2.5 0.0625 0.3125
2.4375 0.0625 0.375
2.4375 0.125 0.3125
2.4375 0.0625 0.3125
2.625 0 0.3125
2.5625 0 0.375
2.625 0.0625 0.375
2.625 0.125 0.3125
2.5625 0.125 0.375
2.5625 0 0.3125
2.625 0.0625 0.3125
2.5625 0.0625 0.375
2.5625 0.125 0.3125
2.5625 0.0625 0.3125
2.75 0 0.3125
2.6875 0 0.375
2.75 0.0625 0.375
2.75 0.125 0.3125
2.6875 0.125 0.375
2.6875 0 0.3125
2.75 0.0625 0.3125
2.6875 0.0625 0.375
2.6875 0.125 0.3125
2.6875 0.0625 0.3125
2.875 0 0.3125
2.8125 0 0.375
2.875 0.0625 0.375
2.875 0.125 0.3125
2.8125 0.125 0.375
2.8125 0 0.3125
2.875 0.0625 0.3125
2.8125 0.0625 0.375
2.8125 0.125 0.3125
2.8125 0.0625 0.3125
3 0 0.3125
2.9375 0 0.375
3 0.0625 0.375
3 0.125 0.3125
2.9375 0.125 0.375
2.9375 0 0.3125
3 0.0625 0.3125
2.9375 0.0625 0.375
2.9375 0.125 0.3125
2.9375 0.0625 0.3125
0.125 0.1875 0.375
0 0.1875 0.375
0.125 0.25 0.3125
0.0625 0.25 0.375
0 0.25 0.3125
0.125 0.1875 0.3125
0.0625 0.1875 0.375
0 0.1875 0.3125
0.0625 0.25 0.3125
0.0625 0.1875 0.3125
0.25 0.1875 0.375
0.25 0.25 0.3125
0.1875 0.25 0.375
0.25 0.1875 0.3125
0.1875 0.1875 0.375
0.1875 0.25 0.3125
0.1875 0.1875 0.3125
0.375 0.1875 0.375
0.375 0.25 0.3125
0.3125 0.25 0.375
0.375 0.1875 0.3125
0.3125 0.1875 0.375
0.3125 0.25 0.3125
0.3125 0.1875 0.3125
0.5 0.1875 0.375
0.5 0.25 0.3125
0.4375 0.25 0.375
0.5 0.1875 0.3125
0.4375 0.1875 0.375
0.4375 0.25 0.3125
0.4375 0.1875 0.3125
0.625 0.1875 0.375
0.625 0.25 0.3125
0.5625 0.25 0.375
0.625 0.1875 0.3125
0.5625 0.1875 0.375
0.5625 0.25 0.3125
0.5625 0.1875 0.3125
0.75 0.1875 0.375
0.75 0.25 0.3125
0.6875 0.25 0.375
0.75 0.1875 0.3125
0.6875 0.1875 0.375
0.6875 0.25 0.3125
0.6875 0.1875 0.3125
0.875 0.1875 0.375
0.875 0.25 0.3125
0.8125 0.25 0.375
0.875 0.1875 0.3125
0.8125 0.1875 0.375
0.8125 0.25 0.3125
0.8125 0.1875 0.3125
1 0.1875 0.375
1 0.25 0.3125
0.9375 0.25 0.375
1 0.1875 0.3125
0.9375 0.1875 0.375
0.9375 0.25 0.3125
0.9375 0.1875 0.3125
1.125 0.1875 0.375
1.125 0.25 0.3125
1.0625 0.25 0.375
1.125 0.1875 0.3125
1.0625 0.1875 0.375
1.0625 0.25 0.3125
1.0625 0.1875 0.3125
1.25 0.1875 0.375
1.25 0.25 0.3125
1.1875 0.25 0.375
1.25 0.1875 0.3125
1.1875 0.1875 0.375
1.1875 0.25 0.3125
1.1875 0.1875 0.3125
1.375 0.1875 0.375
1.375 0.25 0.3125
1.3125 0.25 0.375
1.375 0.1875 0.3125
1.3125 0.1875 0.375
1.3125 0.25 0.3125
1.3125 0.1875 0.3125
1.5 0.1875 0.375
1.5 0.25 0.3125
1.4375 0.25 0.375
1.5 0.1875 0.3125
1.4375 0.1875 0.375
1.4375 0.25 0.3125
1.4375 0.1875 0.3125
1.625 0.1875 0.375
1.625 0.25 0.3125
1.5625 0.25 0.375
1.625 0.1875 0.3125
1.5625 0.1875 0.375
1.5625 0.25 0.3125
1.5625 0.1875 0.3125
1.75 0.1875 0.375
1.75 0.25 0.3125
1.6875 0.25 0.375
1.75 0.1875 0.3125
1.6875 0.1875 0.375
1.6875 0.25 0.3125
1.6875 0.1875 0.3125
1.875 0.1875 0.375
1.875 0.25 0.3125
1.8125 0.25 0.375
1.875 0.1875 0.3125
1.8125 0.1875 0.375
1.8125 0.25 0.3125
1.8125 0.1875 0.3125
2 0.1875 0.375
2 0.25 0.3125
1.9375 0.25 0.375
2 0.1875 0.3125
1.9375 0.1875 0.375
1.9375 0.25 0.3125
1.9375 0.1875 0.3125
2.125 0.1875 0.375
2.125 0.25 0.3125
2.0625 0.25 0.375
2.125 0.1875 0.3125
2.0625 0.1875 0.375
2.0625 0.25 0.3125
2.0625 0.1875 0.3125
2.25 0.1875 0.375
2.25 0.25 0.3125
2.1875 0.25 0.375
2.25 0.1875 0.3125
2.1875 0.1875 0.375
2.1875 0.25 0.3125
2.1875 0.1875 0.3125
2.375 0.1875 0.375
2.375 0.25 0.3125
2.3125 0.25 0.375
2.375 0.1875 0.3125
2.3125 0.1875 0.375
2.3125 0.25 0.3125
2.3125 0.1875 0.3125
2.5 0.1875 0.375
2.5 0.25 0.3125
2.4375 0.25 0.375
2.5 0.1875 0.3125
2.4375 0.1875 0.375
2.4375 0.25 0.3125
2.4375 0.1875 0.3125
2.625 0.1875 0.375
2.625 0.25 0.3125
2.5625 0.25 0.375
2.625 0.1875 0.3125
2.5625 0.1875 0.375
2.5625 0.25 0.3125
2.5625 0.1875 0.3125
2.75 0.1875 0.375
2.75 0.25 0.3125
2.6875 0.25 0.375
2.75 0.1875 0.3125
2.6875 0.1875 0.375
2.6875 0.25 0.3125
2.6875 0.1875 0.3125
2.875 0.1875 0.375
2.875 0.25 0.3125
2.8125 0.25 0.375
2.875 0.1875 0.3125
2.8125 0.1875 0.375
2.8125 0.25 0.3125
2.8125 0.1875 0.3125
3 0.1875 0.375
3 0.25 0.3125
2.9375 0.25 0.375
3 0.1875 0.3125
2.9375 0.1875 0.375
2.9375 0.25 0.3125
2.9375 0.1875 0.3125
0.125 0.3125 0.375
0 0.3125 0.375
0.125 0.375 0.3125
0.0625 0.375 0.375
0 0.375 0.3125
0.125 0.3125 0.3125
0.0625 0.3125 0.375
0 0.3125 0.3125
0.0625 0.375 0.3125
0.0625 0.3125 0.3125
0.25 0.3125 0.375
0.25 0.375 0.3125
0.1875 0.375 0.375
0.25 0.3125 0.3125
0.1875 0.3125 0.375
0.1875 0.375 0.3125
0.1875 0.3125 0.3125
0.375 0.3125 0.375
0.375 0.375 0.3125
0.3125 0.375 0.375
0.375 0.3125 0.3125
0.3125 0.3125 0.375
0.3125 0.375 0.3125
0.3125 0.3125 0.3125
0.5 0.3125 0.375
0.5 0.375 0.3125
0.4375 0.375 0.375
0.5 0.3125 0.3125
0.4375 0.3125 0.375
0.4375 0.375 0.3125
0.4375 0.3125 0.3125
0.625 0.3125 0.375
0.625 0.375 0.3125
0.5625 0.375 0.375
0.625 0.3125 0.3125
0.5625 0.3125 0.375
0.5625 0.375 0.3125
0.5625 0.3125 0.3125
0.75 0.3125 0.375
0.75 0.375 0.3125
0.6875 0.375 0.375
0.75 0.3125 0.3125
0.6875 0.3125 0.375
0.6875 0.375 0.3125
0.6875 0.3125 0.3125
0.875 0.3125 0.375
0.875 0.375 0.3125
0.8125 0.375 0.375
0.875 0.3125 0.3125
0.8125 0.3125 0.375
0.8125 0.375 0.3125
0.8125 0.3125 0.3125
1 0.3125 0.375
1 0.375 0.3125
0.9375 0.375 0.375
1 0.3125 0.3125
0.9375 0.3125 0.375
0.9375 0.375 0.3125
0.9375 0.3125 0.3125
1.125 0.3125 0.375
1.125 0.375 0.3125
1.0625 0.375 0.375
1.125 0.3125 0.3125
1.0625 0.3125 0.375
1.0625 0.375 0.3125
1.0625 0.3125 0.3125
1.25 0.3125 0.375
1.25 0.375 0.3125
1.1875 0.375 0.375
1.25 0.3125 0.3125
1.1875 0.3125 0.375
1.1875 0.375 0.3125
1.1875 0.3125 0.3125
1.375 0.3125 0.375
1.375 0.375 0.3125
1.3125 0.375 0.375
1.375 0.3125 0.3125
1.3125 0.3125 0.375
1.3125 0.375 0.3125
1.3125 0.3125 0.3125
1.5 0.3125 0.375
1.5 0.375 0.3125
1.4375 0.375 0.375
1.5 0.3125 0.3125
1.4375 0.3125 0.375
1.4375 0.375 0.3125
1.4375 0.3125 0.3125
1.625 0.3125 0.375
1.625 0.375 0.3125
1.5625 0.375 0.375
1.625 0.3125 0.3125
1.5625 0.3125 0.375
1.5625 0.375 0.3125
1.5625 0.3125 0.3125
1.75 0.3125 0.375
1.75 0.375 0.3125
1.6875 0.375 0.375
1.75 0.3125 0.3125
1.6875 0.3125 0.375
1.6875 0.375 0.3125
1.6875 0.3125 0.3125
1.875 0.3125 0.375
1.875 0.375 0.3125
1.8125 0.375 0.375
1.875 0.3125 0.3125
1.8125 0.3125 0.375
1.8125 0.375 0.3125
1.8125 0.3125 0.3125
2 0.3125 0.375
2 0.375 0.3125
1.9375 0.375 0.375
2 0.3125 0.3125
1.9375 0.3125 0.375
1.9375 0.375 0.3125
1.9375 0.3125 0.3125
2.125 0.3125 0.375
2.125 0.375 0.3125
2.0625 0.375 0.375
2.125 0.3125 0.3125
2.0625 0.3125 0.375
2.0625 0.375 0.3125
2.0625 0.3125 0.3125
2.25 0.3125 0.375
2.25 0.375 0.3125
2.1875 0.375 0.375
2.25 0.3125 0.3125
2.1875 0.3125 0.375
2.1875 0.375 0.3125
2.1875 0.3125 0.3125
2.375 0.3125 0.375
2.375 0.375 0.3125
2.3125 0.375 0.375
2.375 0.3125 0.3125
2.3125 0.3125 0.375
2.3125 0.375 0.3125
2.3125 0.3125 0.3125
2.5 0.3125 0.375
2.5 0.375 0.3125
2.4375 0.375 0.375
2.5 0.3125 0.3125
2.4375 0.3125 0.375
2.4375 0.375 0.3125
2.4375 0.3125 0.3125
2.625 0.3125 0.375
2.625 0.375 0.3125
2.5625 0.375 0.375
2.625 0.3125 0.3125
2.5625 0.3125 0.375
2.5625 0.375 0.3125
2.5625 0.3125 0.3125
2.75 0.3125 0.375
2.75 0.375 0.3125
2.6875 0.375 0.375
2.75 0.3125 0.3125
2.6875 0.3125 0.375
2.6875 0.375 0.3125
2.6875 0.3125 0.3125
2.875 0.3125 0.375
2.875 0.375 0.3125
2.8125 0.375 0.375
2.875 0.3125 0.3125
2.8125 0.3125 0.375
2.8125 0.375 0.3125
2.8125 0.3125 0.3125
3 0.3125 0.375
3 0.375 0.3125
2.9375 0.375 0.375
3 0.3125 0.3125
2.9375 0.3125 0.375
2.9375 0.375 0.3125
2.9375 0.3125 0.3125
0.125 0.4375 0.375
0 0.4375 0.375
0.125 0.5 0.3125
0.0625 0.5 0.375
0 0.5 0.3125
0.125 0.4375 0.3125
0.0625 0.4375 0.375
0 0.4375 0.3125
0.0625 0.5 0.3125
0.0625 0.4375 0.3125
0.25 0.4375 0.375
0.25 0.5 0.3125
0.1875 0.5 0.375
0.25 0.4375 0.3125
0.1875 0.4375 0.375
0.1875 0.5 0.3125
0.1875 0.4375 0.3125
0.375 0.4375 0.375
0.375 0.5 0.3125
0.3125 0.5 0.375
0.375 0.4375 0.3125
0.3125 0.4375 0.375
0.3125 0.5 0.3125
0.3125 0.4375 0.3125
0.5 0.4375 0.375
0.5 0.5 0.3125
0.4375 0.5 0.375
0.5 0.4375 0.3125
0.4375 0.4375 0.375
0.4375 0.5 0.3125
0.4375 0.4375 0.3125
0.625 0.4375 0.375
0.625 0.5 0.3125
0.5625 0.5 0.375
0.625 0.4375 0.3125
0.5625 0.4375 0.375
0.5625 0.5 0.3125
0.5625 0.4375 0.3125
0.75 0.4375 0.375
0.75 0.5 0.3125
0.6875 0.5 0.375
0.75 0.4375 0.3125
0.6875 0.4375 0.375
0.6875 0.5 0.3125
0.6875 0.4375 0.3125
0.875 0.4375 0.375
0.875 0.5 0.3125
0.8125 0.5 0.375
0.875 0.4375 0.3125
0.8125 0.4375 0.375
0.8125 0.5 0.3125
0.8125 0.4375 0.3125
1 0.4375 0.375
1 0.5 0.3125
0.9375 0.5 0.375
1 0.4375 0.3125
0.9375 0.4375 0.375
0.9375 0.5 0.3125
0.9375 0.4375 0.3125
1.125 0.4375 0.375
1.125 0.5 0.3125
1.0625 0.5 0.375
1.125 0.4375 0.3125
1.0625 0.4375 0.375
1.0625 0.5 0.3125
1.0625 0.4375 0.3125
1.25 0.4375 0.375
1.25 0.5 0.3125
1.1875 0.5 0.375
1.25 0.4375 0.3125
1.1875 0.4375 0.375
1.1875 0.5 0.3125
1.1875 0.4375 0.3125
1.375 0.4375 0.375
1.375 0.5 0.3125
1.3125 0.5 0.375
1.375 0.4375 0.3125
1.3125 0.4375 0.375
1.3125 0.5 0.3125
1.3125 0.4375 0.3125
1.5 0.4375 0.375
1.5 0.5 0.3125
1.4375 0.5 0.375
1.5 0.4375 0.3125
1.4375 0.4375 0.375
1.4375 0.5 0.3125
1.4375 0.4375 0.3125
1.625 0.4375 0.375
1.625 0.5 0.3125
1.5625 0.5 0.375
1.625 0.4375 0.3125
1.5625 0.4375 0.375
1.5625 0.5 0.3125
1.5625 0.4375 0.3125
1.75 0.4375 0.375
1.75 0.5 0.3125
1.6875 0.5 0.375
1.75 0.4375 0.3125
1.6875 0.4375 0.375
1.6875 0.5 0.3125
1.6875 0.4375 0.3125
1.875 0.4375 0.375
1.875 0.5 0.3125
1.8125 0.5 0.375
1.875 0.4375 0.3125
1.8125 0.4375 0.375
1.8125 0.5 0.3125
1.8125 0.4375 0.3125
2 0.4375 0.375
2 0.5 0.3125
1.9375 0.5 0.375
2 0.4375 0.3125
1.9375 0.4375 0.375
1.9375 0.5 0.3125
1.9375 0.4375 0.3125
2.125 0.4375 0.375
2.125 0.5 0.3125
2.0625 0.5 0.375
2.125 0.4375 0.3125
2.0625 0.4375 0.375
2.0625 0.5 0.3125
2.0625 0.4375 0.3125
2.25 0.4375 0.375
2.25 0.5 0.3125
2.1875 0.5 0.375
2.25 0.4375 0.3125
2.1875 0.4375 0.375
2.1875 0.5 0.3125
2.1875 0.4375 0.3125
2.375 0.4375 0.375
2.375 0.5 0.3125
2.3125 0.5 0.375
2.375 0.4375 0.3125
2.3125 0.4375 0.375
2.3125 0.5 0.3125
2.3125 0.4375 0.3125
2.5 0.4375 0.375
2.5 0.5 0.3125
2.4375 0.5 0.375
2.5 0.4375 0.3125
2.4375 0.4375 0.375
2.4375 0.5 0.3125
2.4375 0.4375 0.3125
2.625 0.4375 0.375
2.625 0.5 0.3125
2.5625 0.5 0.375
2.625 0.4375 0.3125
2.5625 0.4375 0.375
2.5625 0.5 0.3125
2.5625 0.4375 0.3125
2.75 0.4375 0.375
2.75 0.5 0.3125
2.6875 0.5 0.375
2.75 0.4375 0.3125
2.6875 0.4375 0.375
2.6875 0.5 0.3125
2.6875 0.4375 0.3125
2.875 0.4375 0.375
2.875 0.5 0.3125
2.8125 0.5 0.375
2.875 0.4375 0.3125
2.8125 0.4375 0.375
2.8125 0.5 0.3125
2.8125 0.4375 0.3125
3 0.4375 0.375
3 0.5 0.3125
2.9375 0.5 0.375
3 0.4375 0.3125
2.9375 0.4375 0.375
2.9375 0.5 0.3125
2.9375 0.4375 0.3125
0.125 0.5625 0.375
0 0.5625 0.375
0.125 0.625 0.3125
0.0625 0.625 0.375
0 0.625 0.3125
0.125 0.5625 0.3125
0.0625 0.5625 0.375
0 0.5625 0.3125
0.0625 0.625 0.3125
0.0625 0.5625 0.3125
0.25 0.5625 0.375
0.25 0.625 0.3125
0.1875 0.625 0.375
0.25 0.5625 0.3125
0.1875 0.5625 0.375
0.1875 0.625 0.3125
0.1875 0.5625 0.3125
0.375 0.5625 0.375
0.375 0.625 0.3125
0.3125 0.625 0.375
0.375 0.5625 0.3125
0.3125 0.5625 0.375
0.3125 0.625 0.3125
0.3125 0.5625 0.3125
0.5 0.5625 0.375
0.5 0.625 0.3125
0.4375 0.625 0.375
0.5 0.5625 0.3125
0.4375 0.5625 0.375
0.4375 0.625 0.3125
0.4375 0.5625 0.3125
0.625 0.5625 0.375
0.625 0.625 0.3125
0.5625 0.625 0.375
0.625 0.5625 0.3125
0.5625 0.5625 0.375
0.5625 0.625 0.3125
0.5625 0.5625 0.3125
0.75 0.5625 0.375
0.75 0.625 0.3125
0.6875 0.625 0.375
0.75 0.5625 0.3125
0.6875 0.5625 0.375
0.6875 0.625 0.3125
0.6875 0.5625 0.3125
0.875 0.5625 0.375
0.875 0.625 0.3125
0.8125 0.625 0.375
0.875 0.5625 0.3125
0.8125 0.5625 0.375
0.8125 0.625 0.3125
0.8125 0.5625 0.3125
1 0.5625 0.375
1 0.625 0.3125
0.9375 0.625 0.375
1 0.5625 0.3125
0.9375 0.5625 0.375
0.9375 0.625 0.3125
0.9375 0.5625 0.3125
1.125 0.5625 0.375
1.125 0.625 0.3125
1.0625 0.625 0.375
1.125 0.5625 0.3125
1.0625 0.5625 0.375
1.0625 0.625 0.3125
1.0625 0.5625 0.3125
1.25 0.5625 0.375
1.25 0.625 0.3125
1.1875 0.625 0.375
1.25 0.5625 0.3125
1.1875 0.5625 0.375
1.1875 0.625 0.3125
1.1875 0.5625 0.3125
1.375 0.5625 0.375
1.375 0.625 0.3125
1.3125 0.625 0.375
1.375 0.5625 0.3125
1.3125 0.5625 0.375
1.3125 0.625 0.3125
1.3125 0.5625 0.3125
1.5 0.5625 0.375
1.5 0.625 0.3125
1.4375 0.625 0.375
1.5 0.5625 0.3125
1.4375 0.5625 0.375
1.4375 0.625 0.3125
1.4375 0.5625 0.3125
1.625 0.5625 0.375
1.625 0.625 0.3125
1.5625 0.625 0.375
1.625 0.5625 0.3125
1.5625 0.5625 0.375
1.5625 0.625 0.3125
1.5625 0.5625 0.3125
1.75 0.5625 0.375
1.75 0.625 0.3125
1.6875 0.625 0.375
1.75 0.5625 0.3125
1.6875 0.5625 0.375
1.6875 0.625 0.3125
1.6875 0.5625 0.3125
1.875 0.5625 0.375
1.875 0.625 0.3125
1.8125 0.625 0.375
1.875 0.5625 0.3125
1.8125 0.5625 0.375
1.8125 0.625 0.3125
1.8125 0.5625 0.3125
2 0.5625 0.375
2 0.625 0.3125
1.9375 0.625 0.375
2 0.5625 0.3125
1.9375 0.5625 0.375
1.9375 0.625 0.3125
1.9375 0.5625 0.3125
2.125 0.5625 0.375
2.125 0.625 0.3125
2.0625 0.625 0.375
2.125 0.5625 0.3125
2.0625 0.5625 0.375
2.0625 0.625 0.3125
2.0625 0.5625 0.3125
2.25 0.5625 0.375
2.25 0.625 0.3125
2.1875 0.625 0.375
2.25 0.5625 0.3125
2.1875 0.5625 0.375
2.1875 0.625 0.3125
2.1875 0.5625 0.3125
2.375 0.5625 0.375
2.375 0.625 0.3125
2.3125 0.625 0.375
2.375 0.5625 0.3125
2.3125 0.5625 0.375
2.3125 0.625 0.3125
2.3125 0.5625 0.3125
2.5 0.5625 0.375
2.5 0.625 0.3125
2.4375 0.625 0.375
2.5 0.5625 0.3125
2.4375 0.5625 0.375
2.4375 0.625 0.3125
2.4375 0.5625 0.3125
2.625 0.5625 0.375
2.625 0.625 0.3125
2.5625 0.625 0.375
2.625 0.5625 0.3125
2.5625 0.5625 0.375
2.5625 0.625 0.3125
2.5625 0.5625 0.3125
2.75 0.5625 0.375
2.75 0.625 0.3125
2.6875 0.625 0.375
2.75 0.5625 0.3125
2.6875 0.5625 0.375
2.6875 0.625 0.3125
2.6875 0.5625 0.3125
2.875 0.5625 0.375
2.875 0.625 0.3125
2.8125 0.625 0.375
2.875 0.5625 0.3125
2.8125 0.5625 0.375
2.8125 0.625 0.3125
2.8125 0.5625 0.3125
3 0.5625 0.375
3 0.625 0.3125
2.9375 0.625 0.375
3 0.5625 0.3125
2.9375 0.5625 0.375
2.9375 0.625 0.3125
2.9375 0.5625 0.3125
0.125 0.6875 0.375
0 0.6875 0.375
0.125 0.75 0.3125
0.0625 0.75 0.375
0 0.75 0.3125
0.125 0.6875 0.3125
0.0625 0.6875 0.375
0 0.6875 0.3125
0.0625 0.75 0.3125
0.0625 0.6875 0.3125
0.25 0.6875 0.375
0.25 0.75 0.3125
0.1875 0.75 0.375
0.25 0.6875 0.3125
0.1875 0.6875 0.375
0.1875 0.75 0.3125
0.1875 0.6875 0.3125
0.375 0.6875 0.375
0.375 0.75 0.3125
0.3125 0.75 0.375
0.375 0.6875 0.3125
0.3125 0.6875 0.375
0.3125 0.75 0.3125
0.3125 0.6875 0.3125
0.5 0.6875 0.375
0.5 0.75 0.3125
0.4375 0.75 0.375
0.5 0.6875 0.3125
0.4375 0.6875 0.375
0.4375 0.75 0.3125
0.4375 0.6875 0.3125
0.625 0.6875 0.375
0.625 0.75 0.3125
0.5625 0.75 0.375
0.625 0.6875 0.3125
0.5625 0.6875 0.375
0.5625 0.75 0.3125
0.5625 0.6875 0.3125
0.75 0.6875 0.375
0.75 0.75 0.3125
0.6875 0.75 0.375
0.75 0.6875 0.3125
0.6875 0.6875 0.375
0.6875 0.75 0.3125
0.6875 0.6875 0.3125
0.875 0.6875 0.375
0.875 0.75 0.3125
0.8125 0.75 0.375
0.875 0.6875 0.3125
0.8125 0.6875 0.375
0.8125 0.75 0.3125
0.8125 0.6875 0.3125
1 0.6875 0.375
1 0.75 0.3125
0.9375 0.75 0.375
1 0.6875 0.3125
0.9375 0.6875 0.375
0.9375 0.75 0.3125
0.9375 0.6875 0.3125
1.125 0.6875 0.375
1.125 0.75 0.3125
1.0625 0.75 0.375
1.125 0.6875 0.3125
1.0625 0.6875 0.375
1.0625 0.75 0.3125
1.0625 0.6875 0.3125
1.25 0.6875 0.375
1.25 0.75 0.3125
1.1875 0.75 0.375
1.25 0.6875 0.3125
1.1875 0.6875 0.375
1.1875 0.75 0.3125
1.1875 0.6875 0.3125
1.375 0.6875 0.375
1.375 0.75 0.3125
1.3125 0.75 0.375
1.375 0.6875 0.3125
1.3125 0.6875 0.375
1.3125 0.75 0.3125
1.3125 0.6875 0.3125
1.5 0.6875 0.375
1.5 0.75 0.3125
1.4375 0.75 0.375
1.5 0.6875 0.3125
1.4375 0.6875 0.375
1.4375 0.75 0.3125
1.4375 0.6875 0.3125
1.625 0.6875 0.375
1.625 0.75 0.3125
1.5625 0.75 0.375
1.625 0.6875 0.3125
1.5625 0.6875 0.375
1.5625 0.75 0.3125
1.5625 0.6875 0.3125
1.75 0.6875 0.375
1.75 0.75 0.3125
1.6875 0.75 0.375
1.75 0.6875 0.3125
1.6875 0.6875 0.375
1.6875 0.75 0.3125
1.6875 0.6875 0.3125
1.875 0.6875 0.375
1.875 0.75 0.3125
1.8125 0.75 0.375
1.875 0.6875 0.3125
1.8125 0.6875 0.375
1.8125 0.75 0.3125
1.8125 0.6875 0.3125
2 0.6875 0.375
2 0.75 0.3125
1.9375 0.75 0.375
2 0.6875 0.3125
1.9375 0.6875 0.375
1.9375 0.75 0.3125
1.9375 0.6875 0.3125
2.125 0.6875 0.375
2.125 0.75 0.3125
2.0625 0.75 0.375
2.125 0.6875 0.3125
2.0625 0.6875 0.375
2.0625 0.75 0.3125
2.0625 0.6875 0.3125
2.25 0.6875 0.375
2.25 0.75 0.3125
2.1875 0.75 0.375
2.25 0.6875 0.3125
2.1875 0.6875 0.375
2.1875 0.75 0.3125
2.1875 0.6875 0.3125
2.375 0.6875 0.375
2.375 0.75 0.3125
2.3125 0.75 0.375
2.375 0.6875 0.3125
2.3125 0.6875 0.375
2.3125 0.75 0.3125
2.3125 0.6875 0.3125
2.5 0.6875 0.375
2.5 0.75 0.3125
2.4375 0.75 0.375
2.5 0.6875 0.3125
2.4375 0.6875 0.375
2.4375 0.75 0.3125
2.4375 0.6875 0.3125
2.625 0.6875 0.375
2.625 0.75 0.3125
2.5625 0.75 0.375
2.625 0.6875 0.3125
2.5625 0.6875 0.375
2.5625 0.75 0.3125
2.5625 0.6875 0.3125
2.75 0.6875 0.375
2.75 0.75 0.3125
2.6875 0.75 0.375
2.75 0.6875 0.3125
2.6875 0.6875 0.375
2.6875 0.75 0.3125
2.6875 0.6875 0.3125
2.875 0.6875 0.375
2.875 0.75 0.3125
2.8125 0.75 0.375
2.875 0.6875 0.3125
2.8125 0.6875 0.375
2.8125 0.75 0.3125
2.8125 0.6875 0.3125
3 0.6875 0.375
3 0.75 0.3125
2.9375 0.75 0.375
3 0.6875 0.3125
2.9375 0.6875 0.375
2.9375 0.75 0.3125
2.9375 0.6875 0.3125
0.125 0.8125 0.375
0 0.8125 0.375
0.125 0.875 0.3125
0.0625 0.875 0.375
0 0.875 0.3125
0.125 0.8125 0.3125
0.0625 0.8125 0.375
0 0.8125 0.3125
0.0625 0.875 0.3125
0.0625 0.8125 0.3125
0.25 0.8125 0.375
0.25 0.875 0.3125
0.1875 0.875 0.375
0.25 0.8125 0.3125
0.1875 0.8125 0.375
0.1875 0.875 0.3125
0.1875 0.8125 0.3125
0.375 0.8125 0.375
0.375 0.875 0.3125
0.3125 0.875 0.375
0.375 0.8125 0.3125
0.3125 0.8125 0.375
0.3125 0.875 0.3125
0.3125 0.8125 0.3125
0.5 0.8125 0.375
0.5 0.875 0.3125
0.4375 0.875 0.375
0.5 0.8125 0.3125
0.4375 0.8125 0.375
0.4375 0.875 0.3125
0.4375 0.8125 0.3125
0.625 0.8125 0.375
0.625 0.875 0.3125
0.5625 0.875 0.375
0.625 0.8125 0.3125
0.5625 0.8125 0.375
0.5625 0.875 0.3125
0.5625 0.8125 0.3125
0.75 0.8125 0.375
0.75 0.875 0.3125
0.6875 0.875 0.375
0.75 0.8125 0.3125
0.6875 0.8125 0.375
0.6875 0.875 0.3125
0.6875 0.8125 0.3125
0.875 0.8125 0.375
0.875 0.875 0.3125
0.8125 0.875 0.375
0.875 0.8125 0.3125
0.8125 0.8125 0.375
0.8125 0.875 0.3125
0.8125 0.8125 0.3125
1 0.8125 0.375
1 0.875 0.3125
0.9375 0.875 0.375
1 0.8125 0.3125
0.9375 0.8125 0.375
0.9375 0.875 0.3125
0.9375 0.8125 0.3125
1.125 0.8125 0.375
1.125 0.875 0.3125
1.0625 0.875 0.375
1.125 0.8125 0.3125
1.0625 0.8125 0.375
1.0625 0.875 0.3125
1.0625 0.8125 0.3125
1.25 0.8125 0.375
1.25 0.875 0.3125
1.1875 0.875 0.375
1.25 0.8125 0.3125
1.1875 0.8125 0.375
1.1875 0.875 0.3125
1.1875 0.8125 0.3125
1.375 0.8125 0.375
1.375 0.875 0.3125
1.3125 0.875 0.375
1.375 0.8125 0.3125
1.3125 0.8125 0.375
1.3125 0.875 0.3125
1.3125 0.8125 0.3125
1.5 0.8125 0.375
1.5 0.875 0.3125
1.4375 0.875 0.375
1.5 0.8125 0.3125
1.4375 0.8125 0.375
1.4375 0.875 0.3125
1.4375 0.8125 0.3125
1.625 0.8125 0.375
1.625 0.875 0.3125
1.5625 0.875 0.375
1.625 0.8125 0.3125
1.5625 0.8125 0.375
1.5625 0.875 0.3125
1.5625 0.8125 0.3125
1.75 0.8125 0.375
1.75 0.875 0.3125
1.6875 0.875 0.375
1.75 0.8125 0.3125
1.6875 0.8125 0.375
1.6875 0.875 0.3125
1.6875 0.8125 0.3125
1.875 0.8125 0.375
1.875 0.875 0.3125
1.8125 0.875 0.375
1.875 0.8125 0.3125
1.8125 0.8125 0.375
1.8125 0.875 0.3125
1.8125 0.8125 0.3125
2 0.8125 0.375
2 0.875 0.3125
1.9375 0.875 0.375
2 0.8125 0.3125
1.9375 0.8125 0.375
1.9375 0.875 0.3125
1.9375 0.8125 0.3125
2.125 0.8125 0.375
2.125 0.875 0.3125
2.0625 0.875 0.375
2.125 0.8125 0.3125
2.0625 0.8125 0.375
2.0625 0.875 0.3125
2.0625 0.8125 0.3125
2.25 0.8125 0.375
2.25 0.875 0.3125
2.1875 0.875 0.375
2.25 0.8125 0.3125
2.1875 0.8125 0.375
2.1875 0.875 0.3125
2.1875 0.8125 0.3125
2.375 0.8125 0.375
2.375 0.875 0.3125
2.3125 0.875 0.375
2.375 0.8125 0.3125
2.3125 0.8125 0.375
2.3125 0.875 0.3125
2.3125 0.8125 0.3125
2.5 0.8125 0.375
2.5 0.875 0.3125
2.4375 0.875 0.375
2.5 0.8125 0.3125
2.4375 0.8125 0.375
2.4375 0.875 0.3125
2.4375 0.8125 0.3125
2.625 0.8125 0.375
2.625 0.875 0.3125
2.5625 0.875 0.375
2.625 0.8125 0.3125
2.5625 0.8125 0.375
2.5625 0.875 0.3125
2.5625 0.8125 0.3125
2.75 0.8125 0.375
2.75 0.875 0.3125
2.6875 0.875 0.375
2.75 0.8125 0.3125
2.6875 0.8125 0.375
2.6875 0.875 0.3125
2.6875 0.8125 0.3125
2.875 0.8125 0.375
2.875 0.875 0.3125
2.8125 0.875 0.375
2.875 0.8125 0.3125
2.8125 0.8125 0.375
2.8125 0.875 0.3125
2.8125 0.8125 0.3125
3 0.8125 0.375
3 0.875 0.3125
2.9375 0.875 0.375
3 0.8125 0.3125
2.9375 0.8125 0.375
2.9375 0.875 0.3125
2.9375 0.8125 0.3125
0.125 0.9375 0.375
0 0.9375 0.375
0.125 1 0.3125
0.0625 1 0.375
0 1 0.3125
0.125 0.9375 0.3125
0.0625 0.9375 0.375
0 0.9375 0.3125
0.0625 1 0.3125
0.0625 0.9375 0.3125
0.25 0.9375 0.375
0.25 1 0.3125
0.1875 1 0.375
0.25 0.9375 0.3125
0.1875 0.9375 0.375
0.1875 1 0.3125
0.1875 0.9375 0.3125
0.375 0.9375 0.375
0.375 1 0.3125
0.3125 1 0.375
0.375 0.9375 0.3125
0.3125 0.9375 0.375
0.3125 1 0.3125
0.3125 0.9375 0.3125
0.5 0.9375 0.375
0.5 1 0.3125
0.4375 1 0.375
0.5 0.9375 0.3125
0.4375 0.9375 0.375
0.4375 1 0.3125
0.4375 0.9375 0.3125
0.625 0.9375 0.375
0.625 1 0.3125
0.5625 1 0.375
0.625 0.9375 0.3125
0.5625 0.9375 0.375
0.5625 1 0.3125
0.5625 0.9375 0.3125
0.75 0.9375 0.375
0.75 1 0.3125
0.6875 1 0.375
0.75 0.9375 0.3125
0.6875 0.9375 0.375
0.6875 1 0.3125
0.6875 0.9375 0.3125
0.875 0.9375 0.375
0.875 1 0.3125
0.8125 1 0.375
0.875 0.9375 0.3125
0.8125 0.9375 0.375
0.8125 1 0.3125
0.8125 0.9375 0.3125
1 0.9375 0.375
1 1 0.3125
0.9375 1 0.375
1 0.9375 0.3125
0.9375 0.9375 0.375
0.9375 1 0.3125
0.9375 0.9375 0.3125
1.125 0.9375 0.375
1.125 1 0.3125
1.0625 1 0.375
1.125 0.9375 0.3125
1.0625 0.9375 0.375
1.0625 1 0.3125
1.0625 0.9375 0.3125
1.25 0.9375 0.375
1.25 1 0.3125
1.1875 1 0.375
1.25 0.9375 0.3125
1.1875 0.9375 0.375
1.1875 1 0.3125
1.1875 0.9375 0.3125
1.375 0.9375 0.375
1.375 1 0.3125
1.3125 1 0.375
1.375 0.9375 0.3125
1.3125 0.9375 0.375
1.3125 1 0.3125
1.3125 0.9375 0.3125
1.5 0.9375 0.375
1.5 1 0.3125
1.4375 1 0.375
1.5 0.9375 0.3125
1.4375 0.9375 0.375
1.4375 1 0.3125
1.4375 0.9375 0.3125
1.625 0.9375 0.375
1.625 1 0.3125
1.5625 1 0.375
1.625 0.9375 0.3125
1.5625 0.9375 0.375
1.5625 1 0.3125
1.5625 0.9375 0.3125
1.75 0.9375 0.375
1.75 1 0.3125
1.6875 1 0.375
1.75 0.9375 0.3125
1.6875 0.9375 0.375
1.6875 1 0.3125
1.6875 0.9375 0.3125
1.875 0.9375 0.375
1.875 1 0.3125
1.8125 1 0.375
1.875 0.9375 0.3125
1.8125 0.9375 0.375
1.8125 1 0.3125
1.8125 0.9375 0.3125
2 0.9375 0.375
2 1 0.3125
1.9375 1 0.375
2 0.9375 0.3125
1.9375 0.9375 0.375
1.9375 1 0.3125
1.9375 0.9375 0.3125
2.125 0.9375 0.375
2.125 1 0.3125
2.0625 1 0.375
2.125 0.9375 0.3125
2.0625 0.9375 0.375
2.0625 1 0.3125
2.0625 0.9375 0.3125
2.25 0.9375 0.375
2.25 1 0.3125
2.1875 1 0.375
2.25 0.9375 0.3125
2.1875 0.9375 0.375
2.1875 1 0.3125
2.1875 0.9375 0.3125
2.375 0.9375 0.375
2.375 1 0.3125
2.3125 1 0.375
2.375 0.9375 0.3125
2.3125 0.9375 0.375
2.3125 1 0.3125
2.3125 0.9375 0.3125
2.5 0.9375 0.375
2.5 1 0.3125
2.4375 1 0.375
2.5 0.9375 0.3125
2.4375 0.9375 0.375
2.4375 1 0.3125
2.4375 0.9375 0.3125
2.625 0.9375 0.375
2.625 1 0.3125
2.5625 1 0.375
2.625 0.9375 0.3125
2.5625 0.9375 0.375
2.5625 1 0.3125
2.5625 0.9375 0.3125
2.75 0.9375 0.375
2.75 1 0.3125
2.6875 1 0.375
2.75 0.9375 0.3125
2.6875 0.9375 0.375
2.6875 1 0.3125
2.6875 0.9375 0.3125
2.875 0.9375 0.375
2.875 1 0.3125
2.8125 1 0.375
2.875 0.9375 0.3125
2.8125 0.9375 0.375
2.8125 1 0.3125
2.8125 0.9375 0.3125
3 0.9375 0.375
3 1 0.3125
2.9375 1 0.375
3 0.9375 0.3125
2.9375 0.9375 0.375
2.9375 1 0.3125
2.9375 0.9375 0.3125
0.125 0 0.4375
0.0625 0 0.5
0 0 0.4375
0.125 0.0625 0.5
0 0.0625 0.5
0.125 0.125 0.4375
0.0625 0.125 0.5
0 0.125 0.4375
0.0625 0 0.4375
0.125 0.0625 0.4375
0.0625 0.0625 0.5
0 0.0625 0.4375
0.0625 0.125 0.4375
0.0625 0.0625 0.4375
0.25 0 0.4375
0.1875 0 0.5
0.25 0.0625 0.5
0.25 0.125 0.4375
0.1875 0.125 0.5
0.1875 0 0.4375
0.25 0.0625 0.4375
0.1875 0.0625 0.5
0.1875 0.125 0.4375
0.1875 0.0625 0.4375
0.375 0 0.4375
0.3125 0 0.5
0.375 0.0625 0.5
0.375 0.125 0.4375
0.3125 0.125 0.5
0.3125 0 0.4375
0.375 0.0625 0.4375
0.3125 0.0625 0.5
0.3125 0.125 0.4375
0.3125 0.0625 0.4375
0.5 0 0.4375
0.4375 0 0.5
0.5 0.0625 0.5
0.5 0.125 0.4375
0.4375 0.125 0.5
0.4375 0 0.4375
0.5 0.0625 0.4375
0.4375 0.0625 0.5
0.4375 0.125 0.4375
0.4375 0.0625 0.4375
0.625 0 0.4375
0.5625 0 0.5
0.625 0.0625 0.5
0.625 0.125 0.4375
0.5625 0.125 0.5
0.5625 0 0.4375
0.625 0.0625 0.4375
0.5625 0.0625 0.5
0.5625 0.125 0.4375
0.5625 0.0625 0.4375
0.75 0 0.4375
0.6875 0 0.5
0.75 0.0625 0.5
0.75 0.125 0.4375
0.6875 0.125 0.5
0.6875 0 0.4375
0.75 0.0625 0.4375
0.6875 0.0625 0.5
0.6875 0.125 0.4375
0.6875 0.0625 0.4375
0.875 0 0.4375
0.8125 0 0.5
0.875 0.0625 0.5
0.875 0.125 0.4375
0.8125 0.125 0.5
0.8125 0 0.4375
0.875 0.0625 0.4375
0.8125 0.0625 0.5
0.8125 0.125 0.4375
0.8125 0.0625 0.4375
1 0 0.4375
0.9375 0 0.5
1 0.0625 0.5
1 0.125 0.4375
0.9375 0.125 0.5
0.9375 0 0.4375
1 0.0625 0.4375
0.9375 0.0625 0.5
0.9375 0.125 0.4375
0.9375 0.0625 0.4375
1.125 0 0.4375
1.0625 0 0.5
1.125 0.0625 0.5
1.125 0.125 0.4375
1.0625 0.125 0.5
1.0625 0 0.4375
1.125 0.0625 0.4375
1.0625 0.0625 0.5
1.0625 0.125 0.4375
1.0625 0.0625 0.4375
1.25 0 0.4375
1.1875 0 0.5
1.25 0.0625 0.5
1.25 0.125 0.4375
1.1875 0.125 0.5
1.1875 0 0.4375
1.25 0.0625 0.4375
1.1875 0.0625 0.5
1.1875 0.125 0.4375
1.1875 0.0625 0.4375
1.375 0 0.4375
1.3125 0 0.5
1.375 0.0625 0.5
1.375 0.125 0.4375
1.3125 0.125 0.5
1.3125 0 0.4375
1.375 0.0625 0.4375
1.3125 0.0625 0.5
1.3125 0.125 0.4375
1.3125 0.0625 0.4375
1.5 0 0.4375
1.4375 0 0.5
1.5 0.0625 0.5
1.5 0.125 0.4375
1.4375 0.125 0.5
1.4375 0 0.4375
1.5 0.0625 0.4375
1.4375 0.0625 0.5
1.4375 0.125 0.4375
1.4375 0.0625 0.4375
1.625 0 0.4375
1.5625 0 0.5
1.625 0.0625 0.5
1.625 0.125 0.4375
1.5625 0.125 0.5
1.5625 0 0.4375
1.625 0.0625 0.4375
1.5625 0.0625 0.5
1.5625 0.125 0.4375
1.5625 0.0625 0.4375
1.75 0 0.4375
1.6875 0 0.5
1.75 0.0625 0.5
1.75 0.125 0.4375
1.6875 0.125 0.5
1.6875 0 0.4375
1.75 0.0625 0.4375
1.6875 0.0625 0.5
1.6875 0.125 0.4375
1.6875 0.0625 0.4375
1.875 0 0.4375
1.8125 0 0.5
1.875 0.0625 0.5
1.875 0.125 0.4375
1.8125 0.125 0.5
1.8125 0 0.4375
1.875 0.0625 0.4375
1.8125 0.0625 0.5
1.8125 0.125 0.4375
1.8125 0.0625 0.4375
2 0 0.4375
1.9375 0 0.5
2 0.0625 0.5
2 0.125 0.4375
1.9375 0.125 0.5
1.9375 0 0.4375
2 0.0625 0.4375
1.9375 0.0625 0.5
1.9375 0.125 0.4375
1.9375 0.0625 0.4375
2.125 0 0.4375
2.0625 0 0.5
2.125 0.0625 0.5
2.125 0.125 0.4375
2.0625 0.125 0.5
2.0625 0 0.4375
2.125 0.0625 0.4375
2.0625 0.0625 0.5
2.0625 0.125 0.4375
2.0625 0.0625 0.4375
2.25 0 0.4375
2.1875 0 0.5
2.25 0.0625 0.5
2.25 0.125 0.4375
2.1875 0.125 0.5
2.1875 0 0.4375
2.25 0.0625 0.4375
2.1875 0.0625 0.5
2.1875 0.125 0.4375
2.1875 0.0625 0.4375
2.375 0 0.4375
2.3125 0 0.5
2.375 0.0625 0.5
2.375 0.125 0.4375
2.3125 0.125 0.5
2.3125 0 0.4375
2.375 0.0625 0.4375
2.3125 0.0625 0.5
2.3125 0.125 0.4375
2.3125 0.0625 0.4375
2.5 0 0.4375
2.4375 0 0.5
2.5 0.0625 0.5
2.5 0.125 0.4375
2.4375 0.125 0.5
2.4375 0 0.4375
2.5 0.0625 0.4375
2.4375 0.0625 0.5
2.4375 0.125 0.4375
2.4375 0.0625 0.4375
2.625 0 0.4375
2.5625 0 0.5
2.625 0.0625 0.5
2.625 0.125 0.4375
2.5625 0.125 0.5
2.5625 0 0.4375
2.625 0.0625 0.4375
2.5625 0.0625 0.5
2.5625 0.125 0.4375
2.5625 0.0625 0.4375
2.75 0 0.4375
2.6875 0 0.5
2.75 0.0625 0.5
2.75 0.125 0.4375
2.6875 0.125 0.5
2.6875 0 0.4375
2.75 0.0625 0.4375
2.6875 0.0625 0.5
2.6875 0.125 0.4375
2.6875 0.0625 0.4375
2.875 0 0.4375
2.8125 0 0.5
2.875 0.0625 0.5
2.875 0.125 0.4375
2.8125 0.125 0.5
2.8125 0 0.4375
2.875 0.0625 0.4375
2.8125 0.0625 0.5
2.8125 0.125 0.4375
2.8125 0.0625 0.4375
3 0 0.4375
2.9375 0 0.5
3 0.0625 0.5
3 0.125 0.4375
2.9375 0.125 0.5
2.9375 0 0.4375
3 0.0625 0.4375
2.9375 0.0625 0.5
2.9375 0.125 0.4375
2.9375 0.0625 0.4375
0.125 0.1875 0.5
0 0.1875 0.5
0.125 0.25 0.4375
0.0625 0.25 0.5
0 0.25 0.4375
0.125 0.1875 0.4375
0.0625 0.1875 0.5
0 0.1875 0.4375
0.0625 0.25 0.4375
0.0625 0.1875 0.4375
0.25 0.1875 0.5
0.25 0.25 0.4375
0.1875 0.25 0.5
0.25 0.1875 0.4375
0.1875 0.1875 0.5
0.1875 0.25 0.4375
0.1875 0.1875 0.4375
0.375 0.1875 0.5
0.375 0.25 0.4375
0.3125 0.25 0.5
0.375 0.1875 0.4375
0.3125 0.1875 0.5
0.3125 0.25 0.4375
0.3125 0.1875 0.4375
0.5 0.1875 0.5
0.5 0.25 0.4375
0.4375 0.25 0.5
0.5 0.1875 0.4375
0.4375 0.1875 0.5
0.4375 0.25 0.4375
0.4375 0.1875 0.4375
0.625 0.1875 0.5
0.625 0.25 0.4375
0.5625 0.25 0.5
0.625 0.1875 0.4375
0.5625 0.1875 0.5
0.5625 0.25 0.4375
0.5625 0.1875 0.4375
0.75 0.1875 0.5
0.75 0.25 0.4375
0.6875 0.25 0.5
0.75 0.1875 0.4375
0.6875 0.1875 0.5
0.6875 0.25 0.4375
0.6875 0.1875 0.4375
0.875 0.1875 0.5
0.875 0.25 0.4375
0.8125 0.25 0.5
0.875 0.1875 0.4375
0.8125 0.1875 0.5
0.8125 0.25 0.4375
0.8125 0.1875 0.4375
1 0.1875 0.5
1 0.25 0.4375
0.9375 0.25 0.5
1 0.1875 0.4375
0.9375 0.1875 0.5
0.9375 0.25 0.4375
0.9375 0.1875 0.4375
1.125 0.1875 0.5
1.125 0.25 0.4375
1.0625 0.25 0.5
1.125 0.1875 0.4375
1.0625 0.1875 0.5
1.0625 0.25 0.4375
1.0625 0.1875 0.4375
1.25 0.1875 0.5
1.25 0.25 0.4375
1.1875 0.25 0.5
1.25 0.1875 0.4375
1.1875 0.1875 0.5
1.1875 0.25 0.4375
1.1875 0.1875 0.4375
1.375 0.1875 0.5
1.375 0.25 0.4375
1.3125 0.25 0.5
1.375 0.1875 0.4375
1.3125 0.1875 0.5
1.3125 0.25 0.4375
1.3125 0.1875 0.4375
1.5 0.1875 0.5
1.5 0.25 0.4375
1.4375 0.25 0.5
1.5 0.1875 0.4375
1.4375 0.1875 0.5
1.4375 0.25 0.4375
1.4375 0.1875 0.4375
1.625 0.1875 0.5
1.625 0.25 0.4375
1.5625 0.25 0.5
1.625 0.1875 0.4375
1.5625 0.1875 0.5
1.5625 0.25 0.4375
1.5625 0.1875 0.4375
1.75 0.1875 0.5
1.75 0.25 0.4375
1.6875 0.25 0.5
1.75 0.1875 0.4375
1.6875 0.1875 0.5
1.6875 0.25 0.4375
1.6875 0.1875 0.4375
1.875 0.1875 0.5
1.875 0.25 0.4375
1.8125 0.25 0.5
1.875 0.1875 0.4375
1.8125 0.1875 0.5
1.8125 0.25 0.4375
1.8125 0.1875 0.4375
2 0.1875 0.5
2 0.25 0.4375
1.9375 0.25 0.5
2 0.1875 0.4375
1.9375 0.1875 0.5
1.9375 0.25 0.4375
1.9375 0.1875 0.4375
2.125 0.1875 0.5
2.125 0.25 0.4375
2.0625 0.25 0.5
2.125 0.1875 0.4375
2.0625 0.1875 0.5
2.0625 0.25 0.4375
2.0625 0.1875 0.4375
2.25 0.1875 0.5
2.25 0.25 0.4375
2.1875 0.25 0.5
2.25 0.1875 0.4375
2.1875 0.1875 0.5
2.1875 0.25 0.4375
2.1875 0.1875 0.4375
2.375 0.1875 0.5
2.375 0.25 0.4375
2.3125 0.25 0.5
2.375 0.1875 0.4375
2.3125 0.1875 0.5
2.3125 0.25 0.4375
2.3125 0.1875 0.4375
2.5 0.1875 0.5
2.5 0.25 0.4375
2.4375 0.25 0.5
2.5 0.1875 0.4375
2.4375 0.1875 0.5
2.4375 0.25 0.4375
2.4375 0.1875 0.4375
2.625 0.1875 0.5
2.625 0.25 0.4375
2.5625 0.25 0.5
2.625 0.1875 0.4375
2.5625 0.1875 0.5
2.5625 0.25 0.4375
2.5625 0.1875 0.4375
2.75 0.1875 0.5
2.75 0.25 0.4375
2.6875 0.25 0.5
2.75 0.1875 0.4375
2.6875 0.1875 0.5
2.6875 0.25 0.4375
2.6875 0.1875 0.4375
2.875 0.1875 0.5
2.875 0.25 0.4375
2.8125 0.25 0.5
2.875 0.1875 0.4375
2.8125 0.1875 0.5
2.8125 0.25 0.4375
2.8125 0.1875 0.4375
3 0.1875 0.5
3 0.25 0.4375
2.9375 0.25 0.5
3 0.1875 0.4375
2.9375 0.1875 0.5
2.9375 0.25 0.4375
2.9375 0.1875 0.4375
0.125 0.3125 0.5
0 0.3125 0.5
0.125 0.375 0.4375
0.0625 0.375 0.5
0 0.375 0.4375
0.125 0.3125 0.4375
0.0625 0.3125 0.5
0 0.3125 0.4375
0.0625 0.375 0.4375
0.0625 0.3125 0.4375
0.25 0.3125 0.5
0.25 0.375 0.4375
0.1875 0.375 0.5
0.25 0.3125 0.4375
0.1875 0.3125 0.5
0.1875 0.375 0.4375
0.1875 0.3125 0.4375
0.375 0.3125 0.5
0.375 0.375 0.4375
0.3125 0.375 0.5
0.375 0.3125 0.4375
0.3125 0.3125 0.5
0.3125 0.375 0.4375
0.3125 0.3125 0.4375
0.5 0.3125 0.5
0.5 0.375 0.4375
0.4375 0.375 0.5
0.5 0.3125 0.4375
0.4375 0.3125 0.5
0.4375 0.375 0.4375
0.4375 0.3125 0.4375
0.625 0.3125 0.5
0.625 0.375 0.4375
0.5625 0.375 0.5
0.625 0.3125 0.4375
0.5625 0.3125 0.5
0.5625 0.375 0.4375
0.5625 0.3125 0.4375
0.75 0.3125 0.5
0.75 0.375 0.4375
0.6875 0.375 0.5
0.75 0.3125 0.4375
0.6875 0.3125 0.5
0.6875 0.375 0.4375
0.6875 0.3125 0.4375
0.875 0.3125 0.5
0.875 0.375 0.4375
0.8125 0.375 0.5
0.875 0.3125 0.4375
0.8125 0.3125 0.5
0.8125 0.375 0.4375
0.8125 0.3125 0.4375
1 0.3125 0.5
1 0.375 0.4375
0.9375 0.375 0.5
1 0.3125 0.4375
0.9375 0.3125 0.5
0.9375 0.375 0.4375
0.9375 0.3125 0.4375
1.125 0.3125 0.5
1.125 0.375 0.4375
1.0625 0.375 0.5
1.125 0.3125 0.4375
1.0625 0.3125 0.5
1.0625 0.375 0.4375
1.0625 0.3125 0.4375
1.25 0.3125 0.5
1.25 0.375 0.4375
1.1875 0.375 0.5
1.25 0.3125 0.4375
1.1875 0.3125 0.5
1.1875 0.375 0.4375
1.1875 0.3125 0.4375
1.375 0.3125 0.5
1.375 0.375 0.4375
1.3125 0.375 0.5
1.375 0.3125 0.4375
1.3125 0.3125 0.5
1.3125 0.375 0.4375
1.3125 0.3125 0.4375
1.5 0.3125 0.5
1.5 0.375 0.4375
1.4375 0.375 0.5
1.5 0.3125 0.4375
1.4375 0.3125 0.5
1.4375 0.375 0.4375
1.4375 0.3125 0.4375
1.625 0.3125 0.5
1.625 0.375 0.4375
1.5625 0.375 0.5
1.625 0.3125 0.4375
1.5625 0.3125 0.5
1.5625 0.375 0.4375
1.5625 0.3125 0.4375
1.75 0.3125 0.5
1.75 0.375 0.4375
1.6875 0.375 0.5
1.75 0.3125 0.4375
1.6875 0.3125 0.5
1.6875 0.375 0.4375
1.6875 0.3125 0.4375
1.875 0.3125 0.5
1.875 0.375 0.4375
1.8125 0.375 0.5
1.875 0.3125 0.4375
1.8125 0.3125 0.5
1.8125 0.375 0.4375
1.8125 0.3125 0.4375
2 0.3125 0.5
2 0.375 0.4375
1.9375 0.375 0.5
2 0.3125 0.4375
1.9375 0.3125 0.5
1.9375 0.375 0.4375
1.9375 0.3125 0.4375
2.125 0.3125 0.5
2.125 0.375 0.4375
2.0625 0.375 0.5
2.125 0.3125 0.4375
2.0625 0.3125 0.5
2.0625 0.375 0.4375
2.0625 0.3125 0.4375
2.25 0.3125 0.5
2.25 0.375 0.4375
2.1875 0.375 0.5
2.25 0.3125 0.4375
2.1875 0.3125 0.5
2.1875 0.375 0.4375
2.1875 0.3125 0.4375
2.375 0.3125 0.5
2.375 0.375 0.4375
2.3125 0.375 0.5
2.375 0.3125 0.4375
2.3125 0.3125 0.5
2.3125 0.375 0.4375
2.3125 0.3125 0.4375
2.5 0.3125 0.5
2.5 0.375 0.4375
2.4375 0.375 0.5
2.5 0.3125 0.4375
2.4375 0.3125 0.5
2.4375 0.375 0.4375
2.4375 0.3125 0.4375
2.625 0.3125 0.5
2.625 0.375 0.4375
2.5625 0.375 0.5
2.625 0.3125 0.4375
2.5625 0.3125 0.5
2.5625 0.375 0.4375
2.5625 0.3125 0.4375
2.75 0.3125 0.5
2.75 0.375 0.4375
2.6875 0.375 0.5
2.75 0.3125 0.4375
2.6875 0.3125 0.5
2.6875 0.375 0.4375
2.6875 0.3125 0.4375
2.875 0.3125 0.5
2.875 0.375 0.4375
2.8125 0.375 0.5
2.875 0.3125 0.4375
2.8125 0.3125 0.5
2.8125 0.375 0.4375
2.8125 0.3125 0.4375
3 0.3125 0.5
3 0.375 0.4375
2.9375 0.375 0.5
3 0.3125 0.4375
2.9375 0.3125 0.5
2.9375 0.375 0.4375
2.9375 0.3125 0.4375
0.125 0.4375 0.5
0 0.4375 0.5
0.125 0.5 0.4375
0.0625 0.5 0.5
0 0.5 0.4375
0.125 0.4375 0.4375
0.0625 0.4375 0.5
0 0.4375 0.4375
0.0625 0.5 0.4375
0.0625 0.4375 0.4375
0.25 0.4375 0.5
0.25 0.5 0.4375
0.1875 0.5 0.5
0.25 0.4375 0.4375
0.1875 0.4375 0.5
0.1875 0.5 0.4375
0.1875 0.4375 0.4375
0.375 0.4375 0.5
0.375 0.5 0.4375
0.3125 0.5 0.5
0.375 0.4375 0.4375
0.3125 0.4375 0.5
0.3125 0.5 0.4375
0.3125 0.4375 0.4375
0.5 0.4375 0.5
0.5 0.5 0.4375
0.4375 0.5 0.5
0.5 0.4375 0.4375
0.4375 0.4375 0.5
0.4375 0.5 0.4375
0.4375 0.4375 0.4375
0.625 0.4375 0.5
0.625 0.5 0.4375
0.5625 0.5 0.5
0.625 0.4375 0.4375
0.5625 0.4375 0.5
0.5625 0.5 0.4375
0.5625 0.4375 0.4375
0.75 0.4375 0.5
0.75 0.5 0.4375
0.6875 0.5 0.5
0.75 0.4375 0.4375
0.6875 0.4375 0.5
0.6875 0.5 0.4375
0.6875 0.4375 0.4375
0.875 0.4375 0.5
0.875 0.5 0.4375
0.8125 0.5 0.5
0.875 0.4375 0.4375
0.8125 0.4375 0.5
0.8125 0.5 0.4375
0.8125 0.4375 0.4375
1 0.4375 0.5
1 0.5 0.4375
0.9375 0.5 0.5
1 0.4375 0.4375
0.9375 0.4375 0.5
0.9375 0.5 0.4375
0.9375 0.4375 0.4375
1.125 0.4375 0.5
1.125 0.5 0.4375
1.0625 0.5 0.5
1.125 0.4375 0.4375
1.0625 0.4375 0.5
1.0625 0.5 0.4375
1.0625 0.4375 0.4375
1.25 0.4375 0.5
1.25 0.5 0.4375
1.1875 0.5 0.5
1.25 0.4375 0.4375
1.1875 0.4375 0.5
1.1875 0.5 0.4375
1.1875 0.4375 0.4375
1.375 0.4375 0.5
1.375 0.5 0.4375
1.3125 0.5 0.5
1.375 0.4375 0.4375
1.3125 0.4375 0.5
1.3125 0.5 0.4375
1.3125 0.4375 0.4375
1.5 0.4375 0.5
1.5 0.5 0.4375
1.4375 0.5 0.5
1.5 0.4375 0.4375
1.4375 0.4375 0.5
1.4375 0.5 0.4375
1.4375 0.4375 0.4375
1.625 0.4375 0.5
1.625 0.5 0.4375
1.5625 0.5 0.5
1.625 0.4375 0.4375
1.5625 0.4375 0.5
1.5625 0.5 0.4375
1.5625 0.4375 0.4375
1.75 0.4375 0.5
1.75 0.5 0.4375
1.6875 0.5 0.5
1.75 0.4375 0.4375
1.6875 0.4375 0.5
1.6875 0.5 0.4375
1.6875 0.4375 0.4375
1.875 0.4375 0.5
1.875 0.5 0.4375
1.8125 0.5 0.5
1.875 0.4375 0.4375
1.8125 0.4375 0.5
1.8125 0.5 0.4375
1.8125 0.4375 0.4375
2 0.4375 0.5
2 0.5 0.4375
1.9375 0.5 0.5
2 0.4375 0.4375
1.9375 0.4375 0.5
1.9375 0.5 0.4375
1.9375 0.4375 0.4375
2.125 0.4375 0.5
2.125 0.5 0.4375
2.0625 0.5 0.5
2.125 0.4375 0.4375
2.0625 0.4375 0.5
2.0625 0.5 0.4375
2.0625 0.4375 0.4375
2.25 0.4375 0.5
2.25 0.5 0.4375
2.1875 0.5 0.5
2.25 0.4375 0.4375
2.1875 0.4375 0.5
2.1875 0.5 0.4375
2.1875 0.4375 0.4375
2.375 0.4375 0.5
2.375 0.5 0.4375
2.3125 0.5 0.5
2.375 0.4375 0.4375
2.3125 0.4375 0.5
2.3125 0.5 0.4375
2.3125 0.4375 0.4375
2.5 0.4375 0.5
2.5 0.5 0.4375
2.4375 0.5 0.5
2.5 0.4375 0.4375
2.4375 0.4375 0.5
2.4375 0.5 0.4375
2.4375 0.4375 0.4375
2.625 0.4375 0.5
2.625 0.5 0.4375
2.5625 0.5 0.5
2.625 0.4375 0.4375
2.5625 0.4375 0.5
2.5625 0.5 0.4375
2.5625 0.4375 0.4375
2.75 0.4375 0.5
2.75 0.5 0.4375
2.6875 0.5 0.5
2.75 0.4375 0.4375
2.6875 0.4375 0.5
2.6875 0.5 0.4375
2.6875 0.4375 0.4375
2.875 0.4375 0.5
2.875 0.5 0.4375
2.8125 0.5 0.5
2.875 0.4375 0.4375
2.8125 0.4375 0.5
2.8125 0.5 0.4375
2.8125 0.4375 0.4375
3 0.4375 0.5
3 0.5 0.4375
2.9375 0.5 0.5
3 0.4375 0.4375
2.9375 0.4375 0.5
2.9375 0.5 0.4375
2.9375 0.4375 0.4375
0.125 0.5625 0.5
0 0.5625 0.5
0.125 0.625 0.4375
0.0625 0.625 0.5
0 0.625 0.4375
0.125 0.5625 0.4375
0.0625 0.5625 0.5
0 0.5625 0.4375
0.0625 0.625 0.4375
0.0625 0.5625 0.4375
0.25 0.5625 0.5
0.25 0.625 0.4375
0.1875 0.625 0.5
0.25 0.5625 0.4375
0.1875 0.5625 0.5
0.1875 0.625 0.4375
0.1875 0.5625 0.4375
0.375 0.5625 0.5
0.375 0.625 0.4375
0.3125 0.625 0.5
0.375 0.5625 0.4375
0.3125 0.5625 0.5
0.3125 0.625 0.4375
0.3125 0.5625 0.4375
0.5 0.5625 0.5
0.5 0.625 0.4375
0.4375 0.625 0.5
0.5 0.5625 0.4375
0.4375 0.5625 0.5
0.4375 0.625 0.4375
0.4375 0.5625 0.4375
0.625 0.5625 0.5
0.625 0.625 0.4375
0.5625 0.625 0.5
0.625 0.5625 0.4375
0.5625 0.5625 0.5
0.5625 0.625 0.4375
0.5625 0.5625 0.4375
0.75 0.5625 0.5
0.75 0.625 0.4375
0.6875 0.625 0.5
0.75 0.5625 0.4375
0.6875 0.5625 0.5
0.6875 0.625 0.4375
0.6875 0.5625 0.4375
0.875 0.5625 0.5
0.875 0.625 0.4375
0.8125 0.625 0.5
0.875 0.5625 0.4375
0.8125 0.5625 0.5
0.8125 0.625 0.4375
0.8125 0.5625 0.4375
1 0.5625 0.5
1 0.625 0.4375
0.9375 0.625 0.5
1 0.5625 0.4375
0.9375 0.5625 0.5
0.9375 0.625 0.4375
0.9375 0.5625 0.4375
1.125 0.5625 0.5
1.125 0.625 0.4375
1.0625 0.625 0.5
1.125 0.5625 0.4375
1.0625 0.5625 0.5
1.0625 0.625 0.4375
1.0625 0.5625 0.4375
1.25 0.5625 0.5
1.25 0.625 0.4375
1.1875 0.625 0.5
1.25 0.5625 0.4375
1.1875 0.5625 0.5
1.1875 0.625 0.4375
1.1875 0.5625 0.4375
1.375 0.5625 0.5
1.375 0.625 0.4375
1.3125 0.625 0.5
1.375 0.5625 0.4375
1.3125 0.5625 0.5
1.3125 0.625 0.4375
1.3125 0.5625 0.4375
1.5 0.5625 0.5
1.5 0.625 0.4375
1.4375 0.625 0.5
1.5 0.5625 0.4375
1.4375 0.5625 0.5
1.4375 0.625 0.4375
1.4375 0.5625 0.4375
1.625 0.5625 0.5
1.625 0.625 0.4375
1.5625 0.625 0.5
1.625 0.5625 0.4375
1.5625 0.5625 0.5
1.5625 0.625 0.4375
1.5625 0.5625 0.4375
1.75 0.5625 0.5
1.75 0.625 0.4375
1.6875 0.625 0.5
1.75 0.5625 0.4375
1.6875 0.5625 0.5
1.6875 0.625 0.4375
1.6875 0.5625 0.4375
1.875 0.5625 0.5
1.875 0.625 0.4375
1.8125 0.625 0.5
1.875 0.5625 0.4375
1.8125 0.5625 0.5
1.8125 0.625 0.4375
1.8125 0.5625 0.4375
2 0.5625 0.5
2 0.625 0.4375
1.9375 0.625 0.5
2 0.5625 0.4375
1.9375 0.5625 0.5
1.9375 0.625 0.4375
1.9375 0.5625 0.4375
2.125 0.5625 0.5
2.125 0.625 0.4375
2.0625 0.625 0.5
2.125 0.5625 0.4375
2.0625 0.5625 0.5
2.0625 0.625 0.4375
2.0625 0.5625 0.4375
2.25 0.5625 0.5
2.25 0.625 0.4375
2.1875 0.625 0.5
2.25 0.5625 0.4375
2.1875 0.5625 0.5
2.1875 0.625 0.4375
2.1875 0.5625 0.4375
2.375 0.5625 0.5
2.375 0.625 0.4375
2.3125 0.625 0.5
2.375 0.5625 0.4375
2.3125 0.5625 0.5
2.3125 0.625 0.4375
2.3125 0.5625 0.4375
2.5 0.5625 0.5
2.5 0.625 0.4375
2.4375 0.625 0.5
2.5 0.5625 0.4375
2.4375 0.5625 0.5
2.4375 0.625 0.4375
2.4375 0.5625 0.4375
2.625 0.5625 0.5
2.625 0.625 0.4375
2.5625 0.625 0.5
2.625 0.5625 0.4375
2.5625 0.5625 0.5
2.5625 0.625 0.4375
2.5625 0.5625 0.4375
2.75 0.5625 0.5
2.75 0.625 0.4375
2.6875 0.625 0.5
2.75 0.5625 0.4375
2.6875 0.5625 0.5
2.6875 0.625 0.4375
2.6875 0.5625 0.4375
2.875 0.5625 0.5
2.875 0.625 0.4375
2.8125 0.625 0.5
2.875 0.5625 0.4375
2.8125 0.5625 0.5
2.8125 0.625 0.4375
2.8125 0.5625 0.4375
3 0.5625 0.5
3 0.625 0.4375
2.9375 0.625 0.5
3 0.5625 0.4375
2.9375 0.5625 0.5
2.9375 0.625 0.4375
2.9375 0.5625 0.4375
0.125 0.6875 0.5
0 0.6875 0.5
0.125 0.75 0.4375
0.0625 0.75 0.5
0 0.75 0.4375
0.125 0.6875 0.4375
0.0625 0.6875 0.5
0 0.6875 0.4375
0.0625 0.75 0.4375
0.0625 0.6875 0.4375
0.25 0.6875 0.5
0.25 0.75 0.4375
0.1875 0.75 0.5
0.25 0.6875 0.4375
0.1875 0.6875 0.5
0.1875 0.75 0.4375
0.1875 0.6875 0.4375
0.375 0.6875 0.5
0.375 0.75 0.4375
0.3125 0.75 0.5
0.375 0.6875 0.4375
0.3125 0.6875 0.5
0.3125 0.75 0.4375
0.3125 0.6875 0.4375
0.5 0.6875 0.5
0.5 0.75 0.4375
0.4375 0.75 0.5
0.5 0.6875 0.4375
0.4375 0.6875 0.5
0.4375 0.75 0.4375
0.4375 0.6875 0.4375
0.625 0.6875 0.5
0.625 0.75 0.4375
0.5625 0.75 0.5
0.625 0.6875 0.4375
0.5625 0.6875 0.5
0.5625 0.75 0.4375
0.5625 0.6875 0.4375
0.75 0.6875 0.5
0.75 0.75 0.4375
0.6875 0.75 0.5
0.75 0.6875 0.4375
0.6875 0.6875 0.5
0.6875 0.75 0.4375
0.6875 0.6875 0.4375
0.875 0.6875 0.5
0.875 0.75 0.4375
0.8125 0.75 0.5
0.875 0.6875 0.4375
0.8125 0.6875 0.5
0.8125 0.75 0.4375
0.8125 0.6875 0.4375
1 0.6875 0.5
1 0.75 0.4375
0.9375 0.75 0.5
1 0.6875 0.4375
0.9375 0.6875 0.5
0.9375 0.75 0.4375
0.9375 0.6875 0.4375
1.125 0.6875 0.5
1.125 0.75 0.4375
1.0625 0.75 0.5
1.125 0.6875 0.4375
1.0625 0.6875 0.5
1.0625 0.75 0.4375
1.0625 0.6875 0.4375
1.25 0.6875 0.5
1.25 0.75 0.4375
1.1875 0.75 0.5
1.25 0.6875 0.4375
1.1875 0.6875 0.5
1.1875 0.75 0.4375
1.1875 0.6875 0.4375
1.375 0.6875 0.5
1.375 0.75 0.4375
1.3125 0.75 0.5
1.375 0.6875 0.4375
1.3125 0.6875 0.5
1.3125 0.75 0.4375
1.3125 0.6875 0.4375
1.5 0.6875 0.5
1.5 0.75 0.4375
1.4375 0.75 0.5
1.5 0.6875 0.4375
1.4375 0.6875 0.5
1.4375 0.75 0.4375
1.4375 0.6875 0.4375
1.625 0.6875 0.5
1.625 0.75 0.4375
1.5625 0.75 0.5
1.625 0.6875 0.4375
1.5625 0.6875 0.5
1.5625 0.75 0.4375
1.5625 0.6875 0.4375
1.75 0.6875 0.5
1.75 0.75 0.4375
1.6875 0.75 0.5
1.75 0.6875 0.4375
1.6875 0.6875 0.5
1.6875 0.75 0.4375
1.6875 0.6875 0.4375
1.875 0.6875 0.5
1.875 0.75 0.4375
1.8125 0.75 0.5
1.875 0.6875 0.4375
1.8125 0.6875 0.5
1.8125 0.75 0.4375
1.8125 0.6875 0.4375
2 0.6875 0.5
2 0.75 0.4375
1.9375 0.75 0.5
2 0.6875 0.4375
1.9375 0.6875 0.5
1.9375 0.75 0.4375
1.9375 0.6875 0.4375
2.125 0.6875 0.5
2.125 0.75 0.4375
2.0625 0.75 0.5
2.125 0.6875 0.4375
2.0625 0.6875 0.5
2.0625 0.75 0.4375
2.0625 0.6875 0.4375
2.25 0.6875 0.5
2.25 0.75 0.4375
2.1875 0.75 0.5
2.25 0.6875 0.4375
2.1875 0.6875 0.5
2.1875 0.75 0.4375
2.1875 0.6875 0.4375
2.375 0.6875 0.5
2.375 0.75 0.4375
2.3125 0.75 0.5
2.375 0.6875 0.4375
2.3125 0.6875 0.5
2.3125 0.75 0.4375
2.3125 0.6875 0.4375
2.5 0.6875 0.5
2.5 0.75 0.4375
2.4375 0.75 0.5
2.5 0.6875 0.4375
2.4375 0.6875 0.5
2.4375 0.75 0.4375
2.4375 0.6875 0.4375
2.625 0.6875 0.5
2.625 0.75 0.4375
2.5625 0.75 0.5
2.625 0.6875 0.4375
2.5625 0.6875 0.5
2.5625 0.75 0.4375
2.5625 0.6875 0.4375
2.75 0.6875 0.5
2.75 0.75 0.4375
2.6875 0.75 0.5
2.75 0.6875 0.4375
2.6875 0.6875 0.5
2.6875 0.75 0.4375
2.6875 0.6875 0.4375
2.875 0.6875 0.5
2.875 0.75 0.4375
2.8125 0.75 0.5
2.875 0.6875 0.4375
2.8125 0.6875 0.5
2.8125 0.75 0.4375
2.8125 0.6875 0.4375
3 0.6875 0.5
3 0.75 0.4375
2.9375 0.75 0.5
3 0.6875 0.4375
2.9375 0.6875 0.5
2.9375 0.75 0.4375
2.9375 0.6875 0.4375
0.125 0.8125 0.5
0 0.8125 0.5
0.125 0.875 0.4375
0.0625 0.875 0.5
0 0.875 0.4375
0.125 0.8125 0.4375
0.0625 0.8125 0.5
0 0.8125 0.4375
0.0625 0.875 0.4375
0.0625 0.8125 0.4375
0.25 0.8125 0.5
0.25 0.875 0.4375
0.1875 0.875 0.5
0.25 0.8125 0.4375
0.1875 0.8125 0.5
0.1875 0.875 0.4375
0.1875 0.8125 0.4375
0.375 0.8125 0.5
0.375 0.875 0.4375
0.3125 0.875 0.5
0.375 0.8125 0.4375
0.3125 0.8125 0.5
0.3125 0.875 0.4375
0.3125 0.8125 0.4375
0.5 0.8125 0.5
0.5 0.875 0.4375
0.4375 0.875 0.5
0.5 0.8125 0.4375
0.4375 0.8125 0.5
0.4375 0.875 0.4375
0.4375 0.8125 0.4375
0.625 0.8125 0.5
0.625 0.875 0.4375
0.5625 0.875 0.5
0.625 0.8125 0.4375
0.5625 0.8125 0.5
0.5625 0.875 0.4375
0.5625 0.8125 0.4375
0.75 0.8125 0.5
0.75 0.875 0.4375
0.6875 0.875 0.5
0.75 0.8125 0.4375
0.6875 0.8125 0.5
0.6875 0.875 0.4375
0.6875 0.8125 0.4375
0.875 0.8125 0.5
0.875 0.875 0.4375
0.8125 0.875 0.5
0.875 0.8125 0.4375
0.8125 0.8125 0.5
0.8125 0.875 0.4375
0.8125 0.8125 0.4375
1 0.8125 0.5
1 0.875 0.4375
0.9375 0.875 0.5
1 0.8125 0.4375
0.9375 0.8125 0.5
0.9375 0.875 0.4375
0.9375 0.8125 0.4375
1.125 0.8125 0.5
1.125 0.875 0.4375
1.0625 0.875 0.5
1.125 0.8125 0.4375
1.0625 0.8125 0.5
1.0625 0.875 0.4375
1.0625 0.8125 0.4375
1.25 0.8125 0.5
1.25 0.875 0.4375
1.1875 0.875 0.5
1.25 0.8125 0.4375
1.1875 0.8125 0.5
1.1875 0.875 0.4375
1.1875 0.8125 0.4375
1.375 0.8125 0.5
1.375 0.875 0.4375
1.3125 0.875 0.5
1.375 0.8125 0.4375
1.3125 0.8125 0.5
1.3125 0.875 0.4375
1.3125 0.8125 0.4375
1.5 0.8125 0.5
1.5 0.875 0.4375
1.4375 0.875 0.5
1.5 0.8125 0.4375
1.4375 0.8125 0.5
1.4375 0.875 0.4375
1.4375 0.8125 0.4375
1.625 0.8125 0.5
1.625 0.875 0.4375
1.5625 0.875 0.5
1.625 0.8125 0.4375
1.5625 0.8125 0.5
1.5625 0.875 0.4375
1.5625 0.8125 0.4375
1.75 0.8125 0.5
1.75 0.875 0.4375
1.6875 0.875 0.5
1.75 0.8125 0.4375
1.6875 0.8125 0.5
1.6875 0.875 0.4375
1.6875 0.8125 0.4375
1.875 0.8125 0.5
1.875 0.875 0.4375
1.8125 0.875 0.5
1.875 0.8125 0.4375
1.8125 0.8125 0.5
1.8125 0.875 0.4375
1.8125 0.8125 0.4375
2 0.8125 0.5
2 0.875 0.4375
1.9375 0.875 0.5
2 0.8125 0.4375
1.9375 0.8125 0.5
1.9375 0.875 0.4375
1.9375 0.8125 0.4375
2.125 0.8125 0.5
2.125 0.875 0.4375
2.0625 0.875 0.5
2.125 0.8125 0.4375
2.0625 0.8125 0.5
2.0625 0.875 0.4375
2.0625 0.8125 0.4375
2.25 0.8125 0.5
2.25 0.875 0.4375
2.1875 0.875 0.5
2.25 0.8125 0.4375
2.1875 0.8125 0.5
2.1875 0.875 0.4375
2.1875 0.8125 0.4375
2.375 0.8125 0.5
2.375 0.875 0.4375
2.3125 0.875 0.5
2.375 0.8125 0.4375
2.3125 0.8125 0.5
2.3125 0.875 0.4375
2.3125 0.8125 0.4375
2.5 0.8125 0.5
2.5 0.875 0.4375
2.4375 0.875 0.5
2.5 0.8125 0.4375
2.4375 0.8125 0.5
2.4375 0.875 0.4375
2.4375 0.8125 0.4375
2.625 0.8125 0.5
2.625 0.875 0.4375
2.5625 0.875 0.5
2.625 0.8125 0.4375
2.5625 0.8125 0.5
2.5625 0.875 0.4375
2.5625 0.8125 0.4375
2.75 0.8125 0.5
2.75 0.875 0.4375
2.6875 0.875 0.5
2.75 0.8125 0.4375
2.6875 0.8125 0.5
2.6875 0.875 0.4375
2.6875 0.8125 0.4375
2.875 0.8125 0.5
2.875 0.875 0.4375
2.8125 0.875 0.5
2.875 0.8125 0.4375
2.8125 0.8125 0.5
2.8125 0.875 0.4375
2.8125 0.8125 0.4375
3 0.8125 0.5
3 0.875 0.4375
2.9375 0.875 0.5
3 0.8125 0.4375
2.9375 0.8125 0.5
2.9375 0.875 0.4375
2.9375 0.8125 0.4375
0.125 0.9375 0.5
0 0.9375 0.5
0.125 1 0.4375
0.0625 1 0.5
0 1 0.4375
0.125 0.9375 0.4375
0.0625 0.9375 0.5
0 0.9375 0.4375
0.0625 1 0.4375
0.0625 0.9375 0.4375
0.25 0.9375 0.5
0.25 1 0.4375
0.1875 1 0.5
0.25 0.9375 0.4375
0.1875 0.9375 0.5
0.1875 1 0.4375
0.1875 0.9375 0.4375
0.375 0.9375 0.5
0.375 1 0.4375
0.3125 1 0.5
0.375 0.9375 0.4375
0.3125 0.9375 0.5
0.3125 1 0.4375
0.3125 0.9375 0.4375
0.5 0.9375 0.5
0.5 1 0.4375
0.4375 1 0.5
0.5 0.9375 0.4375
0.4375 0.9375 0.5
0.4375 1 0.4375
0.4375 0.9375 0.4375
0.625 0.9375 0.5
0.625 1 0.4375
0.5625 1 0.5
0.625 0.9375 0.4375
0.5625 0.9375 0.5
0.5625 1 0.4375
0.5625 0.9375 0.4375
0.75 0.9375 0.5
0.75 1 0.4375
0.6875 1 0.5
0.75 0.9375 0.4375
0.6875 0.9375 0.5
0.6875 1 0.4375
0.6875 0.9375 0.4375
0.875 0.9375 0.5
0.875 1 0.4375
0.8125 1 0.5
0.875 0.9375 0.4375
0.8125 0.9375 0.5
0.8125 1 0.4375
0.8125 0.9375 0.4375
1 0.9375 0.5
1 1 0.4375
0.9375 1 0.5
1 0.9375 0.4375
0.9375 0.9375 0.5
0.9375 1 0.4375
0.9375 0.9375 0.4375
1.125 0.9375 0.5
1.125 1 0.4375
1.0625 1 0.5
1.125 0.9375 0.4375
1.0625 0.9375 0.5
1.0625 1 0.4375
1.0625 0.9375 0.4375
1.25 0.9375 0.5
1.25 1 0.4375
1.1875 1 0.5
1.25 0.9375 0.4375
1.1875 0.9375 0.5
1.1875 1 0.4375
1.1875 0.9375 0.4375
1.375 0.9375 0.5
1.375 1 0.4375
1.3125 1 0.5
1.375 0.9375 0.4375
1.3125 0.9375 0.5
1.3125 1 0.4375
1.3125 0.9375 0.4375
1.5 0.9375 0.5
1.5 1 0.4375
1.4375 1 0.5
1.5 0.9375 0.4375
1.4375 0.9375 0.5
1.4375 1 0.4375
1.4375 0.9375 0.4375
1.625 0.9375 0.5
1.625 1 0.4375
1.5625 1 0.5
1.625 0.9375 0.4375
1.5625 0.9375 0.5
1.5625 1 0.4375
1.5625 0.9375 0.4375
1.75 0.9375 0.5
1.75 1 0.4375
1.6875 1 0.5
1.75 0.9375 0.4375
1.6875 0.9375 0.5
1.6875 1 0.4375
1.6875 0.9375 0.4375
1.875 0.9375 0.5
1.875 1 0.4375
1.8125 1 0.5
1.875 0.9375 0.4375
1.8125 0.9375 0.5
1.8125 1 0.4375
1.8125 0.9375 0.4375
2 0.9375 0.5
2 1 0.4375
1.9375 1 0.5
2 0.9375 0.4375
1.9375 0.9375 0.5
1.9375 1 0.4375
1.9375 0.9375 0.4375
2.125 0.9375 0.5
2.125 1 0.4375
2.0625 1 0.5
2.125 0.9375 0.4375
2.0625 0.9375 0.5
2.0625 1 0.4375
2.0625 0.9375 0.4375
2.25 0.9375 0.5
2.25 1 0.4375
2.1875 1 0.5
2.25 0.9375 0.4375
2.1875 0.9375 0.5
2.1875 1 0.4375
2.1875 0.9375 0.4375
2.375 0.9375 0.5
2.375 1 0.4375
2.3125 1 0.5
2.375 0.9375 0.4375
2.3125 0.9375 0.5
2.3125 1 0.4375
2.3125 0.9375 0.4375
2.5 0.9375 0.5
2.5 1 0.4375
2.4375 1 0.5
2.5 0.9375 0.4375
2.4375 0.9375 0.5
2.4375 1 0.4375
2.4375 0.9375 0.4375
2.625 0.9375 0.5
2.625 1 0.4375
2.5625 1 0.5
2.625 0.9375 0.4375
2.5625 0.9375 0.5
2.5625 1 0.4375
2.5625 0.9375 0.4375
2.75 0.9375 0.5
2.75 1 0.4375
2.6875 1 0.5
2.75 0.9375 0.4375
2.6875 0.9375 0.5
2.6875 1 0.4375
2.6875 0.9375 0.4375
2.875 0.9375 0.5
2.875 1 0.4375
2.8125 1 0.5
2.875 0.9375 0.4375
2.8125 0.9375 0.5
2.8125 1 0.4375
2.8125 0.9375 0.4375
3 0.9375 0.5
3 1 0.4375
2.9375 1 0.5
3 0.9375 0.4375
2.9375 0.9375 0.5
2.9375 1 0.4375
2.9375 0.9375 0.4375
0.125 0 0.5625
0.0625 0 0.625
0 0 0.5625
0.125 0.0625 0.625
0 0.0625 0.625
0.125 0.125 0.5625
0.0625 0.125 0.625
0 0.125 0.5625
0.0625 0 0.5625
0.125 0.0625 0.5625
0.0625 0.0625 0.625
0 0.0625 0.5625
0.0625 0.125 0.5625
0.0625 0.0625 0.5625
0.25 0 0.5625
0.1875 0 0.625
0.25 0.0625 0.625
0.25 0.125 0.5625
0.1875 0.125 0.625
0.1875 0 0.5625
0.25 0.0625 0.5625
0.1875 0.0625 0.625
0.1875 0.125 0.5625
0.1875 0.0625 0.5625
0.375 0 0.5625
0.3125 0 0.625
0.375 0.0625 0.625
0.375 0.125 0.5625
0.3125 0.125 0.625
0.3125 0 0.5625
0.375 0.0625 0.5625
0.3125 0.0625 0.625
0.3125 0.125 0.5625
0.3125 0.0625 0.5625
0.5 0 0.5625
0.4375 0 0.625
0.5 0.0625 0.625
0.5 0.125 0.5625
0.4375 0.125 0.625
0.4375 0 0.5625
0.5 0.0625 0.5625
0.4375 0.0625 0.625
0.4375 0.125 0.5625
0.4375 0.0625 0.5625
0.625 0 0.5625
0.5625 0 0.625
0.625 0.0625 0.625
0.625 0.125 0.5625
0.5625 0.125 0.625
0.5625 0 0.5625
0.625 0.0625 0.5625
0.5625 0.0625 0.625
0.5625 0.125 0.5625
0.5625 0.0625 0.5625
0.75 0 0.5625
0.6875 0 0.625
0.75 0.0625 0.625
0.75 0.125 0.5625
0.6875 0.125 0.625
0.6875 0 0.5625
0.75 0.0625 0.5625
0.6875 0.0625 0.625
0.6875 0.125 0.5625
0.6875 0.0625 0.5625
0.875 0 0.5625
0.8125 0 0.625
0.875 0.0625 0.625
0.875 0.125 0.5625
0.8125 0.125 0.625
0.8125 0 0.5625
0.875 0.0625 0.5625
0.8125 0.0625 0.625
0.8125 0.125 0.5625
0.8125 0.0625 0.5625
1 0 0.5625
0.9375 0 0.625
1 0.0625 0.625
1 0.125 0.5625
0.9375 0.125 0.625
0.9375 0 0.5625
1 0.0625 0.5625
0.9375 0.0625 0.625
0.9375 0.125 0.5625
0.9375 0.0625 0.5625
1.125 0 0.5625
1.0625 0 0.625
1.125 0.0625 0.625
1.125 0.125 0.5625
1.0625 0.125 0.625
1.0625 0 0.5625
1.125 0.0625 0.5625
1.0625 0.0625 0.625
1.0625 0.125 0.5625
1.0625 0.0625 0.5625
1.25 0 0.5625
1.1875 0 0.625
1.25 0.0625 0.625
1.25 0.125 0.5625
1.1875 0.125 0.625
1.1875 0 0.5625
1.25 0.0625 0.5625
1.1875 0.0625 0.625
1.1875 0.125 0.5625
1.1875 0.0625 0.5625
1.375 0 0.5625
1.3125 0 0.625
1.375 0.0625 0.625
1.375 0.125 0.5625
1.3125 0.125 0.625
1.3125 0 0.5625
1.375 0.0625 0.5625
1.3125 0.0625 0.625
1.3125 0.125 0.5625
1.3125 0.0625 0.5625
1.5 0 0.5625
1.4375 0 0.625
1.5 0.0625 0.625
1.5 0.125 0.5625
1.4375 0.125 0.625
1.4375 0 0.5625
1.5 0.0625 0.5625
1.4375 0.0625 0.625
1.4375 0.125 0.5625
1.4375 0.0625 0.5625
1.625 0 0.5625
1.5625 0 0.625
1.625 0.0625 0.625
1.625 0.125 0.5625
1.5625 0.125 0.625
1.5625 0 0.5625
1.625 0.0625 0.5625
1.5625 0.0625 0.625
1.5625 0.125 0.5625
1.5625 0.0625 0.5625
1.75 0 0.5625
1.6875 0 0.625
1.75 0.0625 0.625
1.75 0.125 0.5625
1.6875 0.125 0.625
1.6875 0 0.5625
1.75 0.0625 0.5625
1.6875 0.0625 0.625
1.6875 0.125 0.5625
1.6875 0.0625 0.5625
1.875 0 0.5625
1.8125 0 0.625
1.875 0.0625 0.625
1.875 0.125 0.5625
1.8125 0.125 0.625
1.8125 0 0.5625
1.875 0.0625 0.5625
1.8125 0.0625 0.625
1.8125 0.125 0.5625
1.8125 0.0625 0.5625
2 0 0.5625
1.9375 0 0.625
2 0.0625 0.625
2 0.125 0.5625
1.9375 0.125 0.625
1.9375 0 0.5625
2 0.0625 0.5625
1.9375 0.0625 0.625
1.9375 0.125 0.5625
1.9375 0.0625 0.5625
2.125 0 0.5625
2.0625 0 0.625
2.125 0.0625 0.625
2.125 0.125 0.5625
2.0625 0.125 0.625
2.0625 0 0.5625
2.125 0.0625 0.5625
2.0625 0.0625 0.625
2.0625 0.125 0.5625
2.0625 0.0625 0.5625
2.25 0 0.5625
2.1875 0 0.625
2.25 0.0625 0.625
2.25 0.125 0.5625
2.1875 0.125 0.625
2.1875 0 0.5625
2.25 0.0625 0.5625
2.1875 0.0625 0.625
2.1875 0.125 0.5625
2.1875 0.0625 0.5625
2.375 0 0.5625
2.3125 0 0.625
2.375 0.0625 0.625
2.375 0.125 0.5625
2.3125 0.125 0.625
2.3125 0 0.5625
2.375 0.0625 0.5625
2.3125 0.0625 0.625
2.3125 0.125 0.5625
2.3125 0.0625 0.5625
2.5 0 0.5625
2.4375 0 0.625
2.5 0.0625 0.625
2.5 0.125 0.5625
2.4375 0.125 0.625
2.4375 0 0.5625
2.5 0.0625 0.5625
2.4375 0.0625 0.625
2.4375 0.125 0.5625
2.4375 0.0625 0.5625
2.625 0 0.5625
2.5625 0 0.625
2.625 0.0625 0.625
2.625 0.125 0.5625
2.5625 0.125 0.625
2.5625 0 0.5625
2.625 0.0625 0.5625
2.5625 0.0625 0.625
2.5625 0.125 0.5625
2.5625 0.0625 0.5625
2.75 0 0.5625
2.6875 0 0.625
2.75 0.0625 0.625
2.75 0.125 0.5625
2.6875 0.125 0.625
2.6875 0 0.5625
2.75 0.0625 0.5625
2.6875 0.0625 0.625
2.6875 0.125 0.5625
2.6875 0.0625 0.5625
2.875 0 0.5625
2.8125 0 0.625
2.875 0.0625 0.625
2.875 0.125 0.5625
2.8125 0.125 0.625
2.8125 0 0.5625
2.875 0.0625 0.5625
2.8125 0.0625 0.625
2.8125 0.125 0.5625
2.8125 0.0625 0.5625
3 0 0.5625
2.9375 0 0.625
3 0.0625 0.625
3 0.125 0.5625
2.9375 0.125 0.625
2.9375 0 0.5625
3 0.0625 0.5625
2.9375 0.0625 0.625
2.9375 0.125 0.5625
2.9375 0.0625 0.5625
0.125 0.1875 0.625
0 0.1875 0.625
0.125 0.25 0.5625
0.0625 0.25 0.625
0 0.25 0.5625
0.125 0.1875 0.5625
0.0625 0.1875 0.625
0 0.1875 0.5625
0.0625 0.25 0.5625
0.0625 0.1875 0.5625
0.25 0.1875 0.625
0.25 0.25 0.5625
0.1875 0.25 0.625
0.25 0.1875 0.5625
0.1875 0.1875 0.625
0.1875 0.25 0.5625
0.1875 0.1875 0.5625
0.375 0.1875 0.625
0.375 0.25 0.5625
0.3125 0.25 0.625
0.375 0.1875 0.5625
0.3125 0.1875 0.625
0.3125 0.25 0.5625
0.3125 0.1875 0.5625
0.5 0.1875 0.625
0.5 0.25 0.5625
0.4375 0.25 0.625
0.5 0.1875 0.5625
0.4375 0.1875 0.625
0.4375 0.25 0.5625
0.4375 0.1875 0.5625
0.625 0.1875 0.625
0.625 0.25 0.5625
0.5625 0.25 0.625
0.625 0.1875 0.5625
0.5625 0.1875 0.625
0.5625 0.25 0.5625
0.5625 0.1875 0.5625
0.75 0.1875 0.625
0.75 0.25 0.5625
0.6875 0.25 0.625
0.75 0.1875 0.5625
0.6875 0.1875 0.625
0.6875 0.25 0.5625
0.6875 0.1875 0.5625
0.875 0.1875 0.625
0.875 0.25 0.5625
0.8125 0.25 0.625
0.875 0.1875 0.5625
0.8125 0.1875 0.625
0.8125 0.25 0.5625
0.8125 0.1875 0.5625
1 0.1875 0.625
1 0.25 0.5625
0.9375 0.25 0.625
1 0.1875 0.5625
0.9375 0.1875 0.625
0.9375 0.25 0.5625
0.9375 0.1875 0.5625
1.125 0.1875 0.625
1.125 0.25 0.5625
1.0625 0.25 0.625
1.125 0.1875 0.5625
1.0625 0.1875 0.625
1.0625 0.25 0.5625
1.0625 0.1875 0.5625
1.25 0.1875 0.625
1.25 0.25 0.5625
1.1875 0.25 0.625
1.25 0.1875 0.5625
1.1875 0.1875 0.625
1.1875 0.25 0.5625
1.1875 0.1875 0.5625
1.375 0.1875 0.625
1.375 0.25 0.5625
1.3125 0.25 0.625
1.375 0.1875 0.5625
1.3125 0.1875 0.625
1.3125 0.25 0.5625
1.3125 0.1875 0.5625
1.5 0.1875 0.625
1.5 0.25 0.5625
1.4375 0.25 0.625
1.5 0.1875 0.5625
1.4375 0.1875 0.625
1.4375 0.25 0.5625
1.4375 0.1875 0.5625
1.625 0.1875 0.625
1.625 0.25 0.5625
1.5625 0.25 0.625
1.625 0.1875 0.5625
1.5625 0.1875 0.625
1.5625 0.25 0.5625
1.5625 0.1875 0.5625
1.75 0.1875 0.625
1.75 0.25 0.5625
1.6875 0.25 0.625
1.75 0.1875 0.5625
1.6875 0.1875 0.625
1.6875 0.25 0.5625
1.6875 0.1875 0.5625
1.875 0.1875 0.625
1.875 0.25 0.5625
1.8125 0.25 0.625
1.875 0.1875 0.5625
1.8125 0.1875 0.625
1.8125 0.25 0.5625
1.8125 0.1875 0.5625
2 0.1875 0.625
2 0.25 0.5625
1.9375 0.25 0.625
2 0.1875 0.5625
1.9375 0.1875 0.625
1.9375 0.25 0.5625
1.9375 0.1875 0.5625
2.125 0.1875 0.625
2.125 0.25 0.5625
2.0625 0.25 0.625
2.125 0.1875 0.5625
2.0625 0.1875 0.625
2.0625 0.25 0.5625
2.0625 0.1875 0.5625
2.25 0.1875 0.625
2.25 0.25 0.5625
2.1875 0.25 0.625
2.25 0.1875 0.5625
2.1875 0.1875 0.625
2.1875 0.25 0.5625
2.1875 0.1875 0.5625
2.375 0.1875 0.625
2.375 0.25 0.5625
2.3125 0.25 0.625
2.375 0.1875 0.5625
2.3125 0.1875 0.625
2.3125 0.25 0.5625
2.3125 0.1875 0.5625
2.5 0.1875 0.625
2.5 0.25 0.5625
2.4375 0.25 0.625
2.5 0.1875 0.5625
2.4375 0.1875 0.625
2.4375 0.25 0.5625
2.4375 0.1875 0.5625
2.625 0.1875 0.625
2.625 0.25 0.5625
2.5625 0.25 0.625
2.625 0.1875 0.5625
2.5625 0.1875 0.625
2.5625 0.25 0.5625
2.5625 0.1875 0.5625
2.75 0.1875 0.625
2.75 0.25 0.5625
2.6875 0.25 0.625
2.75 0.1875 0.5625
2.6875 0.1875 0.625
2.6875 0.25 0.5625
2.6875 0.1875 0.5625
2.875 0.1875 0.625
2.875 0.25 0.5625
2.8125 0.25 0.625
2.875 0.1875 0.5625
2.8125 0.1875 0.625
2.8125 0.25 0.5625
2.8125 0.1875 0.5625
3 0.1875 0.625
3 0.25 0.5625
2.9375 0.25 0.625
3 0.1875 0.5625
2.9375 0.1875 0.625
2.9375 0.25 0.5625
2.9375 0.1875 0.5625
0.125 0.3125 0.625
0 0.3125 0.625
0.125 0.375 0.5625
0.0625 0.375 0.625
0 0.375 0.5625
0.125 0.3125 0.5625
0.0625 0.3125 0.625
0 0.3125 0.5625
0.0625 0.375 0.5625
0.0625 0.3125 0.5625
0.25 0.3125 0.625
0.25 0.375 0.5625
0.1875 0.375 0.625
0.25 0.3125 0.5625
0.1875 0.3125 0.625
0.1875 0.375 0.5625
0.1875 0.3125 0.5625
0.375 0.3125 0.625
0.375 0.375 0.5625
0.3125 0.375 0.625
0.375 0.3125 0.5625
0.3125 0.3125 0.625
0.3125 0.375 0.5625
0.3125 0.3125 0.5625
0.5 0.3125 0.625
0.5 0.375 0.5625
0.4375 0.375 0.625
0.5 0.3125 0.5625
0.4375 0.3125 0.625
0.4375 0.375 0.5625
0.4375 0.3125 0.5625
0.625 0.3125 0.625
0.625 0.375 0.5625
0.5625 0.375 0.625
0.625 0.3125 0.5625
0.5625 0.3125 0.625
0.5625 0.375 0.5625
0.5625 0.3125 0.5625
0.75 0.3125 0.625
0.75 0.375 0.5625
0.6875 0.375 0.625
0.75 0.3125 0.5625
0.6875 0.3125 0.625
0.6875 0.375 0.5625
0.6875 0.3125 0.5625
0.875 0.3125 0.625
0.875 0.375 0.5625
0.8125 0.375 0.625
0.875 0.3125 0.5625
0.8125 0.3125 0.625
0.8125 0.375 0.5625
0.8125 0.3125 0.5625
1 0.3125 0.625
1 0.375 0.5625
0.9375 0.375 0.625
1 0.3125 0.5625
0.9375 0.3125 0.625
0.9375 0.375 0.5625
0.9375 0.3125 0.5625
1.125 0.3125 0.625
1.125 0.375 0.5625
1.0625 0.375 0.625
1.125 0.3125 0.5625
1.0625 0.3125 0.625
1.0625 0.375 0.5625
1.0625 0.3125 0.5625
1.25 0.3125 0.625
1.25 0.375 0.5625
1.1875 0.375 0.625
1.25 0.3125 0.5625
1.1875 0.3125 0.625
1.1875 0.375 0.5625
1.1875 0.3125 0.5625
1.375 0.3125 0.625
1.375 0.375 0.5625
1.3125 0.375 0.625
1.375 0.3125 0.5625
1.3125 0.3125 0.625
1.3125 0.375 0.5625
1.3125 0.3125 0.5625
1.5 0.3125 0.625
1.5 0.375 0.5625
1.4375 0.375 0.625
1.5 0.3125 0.5625
1.4375 0.3125 0.625
1.4375 0.375 0.5625
1.4375 0.3125 0.5625
1.625 0.3125 0.625
1.625 0.375 0.5625
1.5625 0.375 0.625
1.625 0.3125 0.5625
1.5625 0.3125 0.625
1.5625 0.375 0.5625
1.5625 0.3125 0.5625
1.75 0.3125 0.625
1.75 0.375 0.5625
1.6875 0.375 0.625
1.75 0.3125 0.5625
1.6875 0.3125 0.625
1.6875 0.375 0.5625
1.6875 0.3125 0.5625
1.875 0.3125 0.625
1.875 0.375 0.5625
1.8125 0.375 0.625
1.875 0.3125 0.5625
1.8125 0.3125 0.625
1.8125 0.375 0.5625
1.8125 0.3125 0.5625
2 0.3125 0.625
2 0.375 0.5625
1.9375 0.375 0.625
2 0.3125 0.5625
1.9375 0.3125 0.625
1.9375 0.375 0.5625
1.9375 0.3125 0.5625
2.125 0.3125 0.625
2.125 0.375 0.5625
2.0625 0.375 0.625
2.125 0.3125 0.5625
2.0625 0.3125 0.625
2.0625 0.375 0.5625
2.0625 0.3125 0.5625
2.25 0.3125 0.625
2.25 0.375 0.5625
2.1875 0.375 0.625
2.25 0.3125 0.5625
2.1875 0.3125 0.625
2.1875 0.375 0.5625
2.1875 0.3125 0.5625
2.375 0.3125 0.625
2.375 0.375 0.5625
2.3125 0.375 0.625
2.375 0.3125 0.5625
2.3125 0.3125 0.625
2.3125 0.375 0.5625
2.3125 0.3125 0.5625
2.5 0.3125 0.625
2.5 0.375 0.5625
2.4375 0.375 0.625
2.5 0.3125 0.5625
2.4375 0.3125 0.625
2.4375 0.375 0.5625
2.4375 0.3125 0.5625
2.625 0.3125 0.625
2.625 0.375 0.5625
2.5625 0.375 0.625
2.625 0.3125 0.5625
2.5625 0.3125 0.625
2.5625 0.375 0.5625
2.5625 0.3125 0.5625
2.75 0.3125 0.625
2.75 0.375 0.5625
2.6875 0.375 0.625
2.75 0.3125 0.5625
2.6875 0.3125 0.625
2.6875 0.375 0.5625
2.6875 0.3125 0.5625
2.875 0.3125 0.625
2.875 0.375 0.5625
2.8125 0.375 0.625
2.875 0.3125 0.5625
2.8125 0.3125 0.625
2.8125 0.375 0.5625
2.8125 0.3125 0.5625
3 0.3125 0.625
3 0.375 0.5625
2.9375 0.375 0.625
3 0.3125 0.5625
2.9375 0.3125 0.625
2.9375 0.375 0.5625
2.9375 0.3125 0.5625
0.125 0.4375 0.625
0 0.4375 0.625
0.125 0.5 0.5625
0.0625 0.5 0.625
0 0.5 0.5625
0.125 0.4375 0.5625
0.0625 0.4375 0.625
0 0.4375 0.5625
0.0625 0.5 0.5625
0.0625 0.4375 0.5625
0.25 0.4375 0.625
0.25 0.5 0.5625
0.1875 0.5 0.625
0.25 0.4375 0.5625
0.1875 0.4375 0.625
0.1875 0.5 0.5625
0.1875 0.4375 0.5625
0.375 0.4375 0.625
0.375 0.5 0.5625
0.3125 0.5 0.625
0.375 0.4375 0.5625
0.3125 0.4375 0.625
0.3125 0.5 0.5625
0.3125 0.4375 0.5625
0.5 0.4375 0.625
0.5 0.5 0.5625
0.4375 0.5 0.625
0.5 0.4375 0.5625
0.4375 0.4375 0.625
0.4375 0.5 0.5625
0.4375 0.4375 0.5625
0.625 0.4375 0.625
0.625 0.5 0.5625
0.5625 0.5 0.625
0.625 0.4375 0.5625
0.5625 0.4375 0.625
0.5625 0.5 0.5625
0.5625 0.4375 0.5625
0.75 0.4375 0.625
0.75 0.5 0.5625
0.6875 0.5 0.625
0.75 0.4375 0.5625
0.6875 0.4375 0.625
0.6875 0.5 0.5625
0.6875 0.4375 0.5625
0.875 0.4375 0.625
0.875 0.5 0.5625
0.8125 0.5 0.625
0.875 0.4375 0.5625
0.8125 0.4375 0.625
0.8125 0.5 0.5625
0.8125 0.4375 0.5625
1 0.4375 0.625
1 0.5 0.5625
0.9375 0.5 0.625
1 0.4375 0.5625
0.9375 0.4375 0.625
0.9375 0.5 0.5625
0.9375 0.4375 0.5625
1.125 0.4375 0.625
1.125 0.5 0.5625
1.0625 0.5 0.625
1.125 0.4375 0.5625
1.0625 0.4375 0.625
1.0625 0.5 0.5625
1.0625 0.4375 0.5625
1.25 0.4375 0.625
1.25 0.5 0.5625
1.1875 0.5 0.625
1.25 0.4375 0.5625
1.1875 0.4375 0.625
1.1875 0.5 0.5625
1.1875 0.4375 0.5625
1.375 0.4375 0.625
1.375 0.5 0.5625
1.3125 0.5 0.625
1.375 0.4375 0.5625
1.3125 0.4375 0.625
1.3125 0.5 0.5625
1.3125 0.4375 0.5625
1.5 0.4375 0.625
1.5 0.5 0.5625
1.4375 0.5 0.625
1.5 0.4375 0.5625
1.4375 0.4375 0.625
1.4375 0.5 0.5625
1.4375 0.4375 0.5625
1.625 0.4375 0.625
1.625 0.5 0.5625
1.5625 0.5 0.625
1.625 0.4375 0.5625
1.5625 0.4375 0.625
1.5625 0.5 0.5625
1.5625 0.4375 0.5625
1.75 0.4375 0.625
1.75 0.5 0.5625
1.6875 0.5 0.625
1.75 0.4375 0.5625
1.6875 0.4375 0.625
1.6875 0.5 0.5625
1.6875 0.4375 0.5625
1.875 0.4375 0.625
1.875 0.5 0.5625
1.8125 0.5 0.625
1.875 0.4375 0.5625
1.8125 0.4375 0.625
1.8125 0.5 0.5625
1.8125 0.4375 0.5625
2 0.4375 0.625
2 0.5 0.5625
1.9375 0.5 0.625
2 0.4375 0.5625
1.9375 0.4375 0.625
1.9375 0.5 0.5625
1.9375 0.4375 0.5625
2.125 0.4375 0.625
2.125 0.5 0.5625
2.0625 0.5 0.625
2.125 0.4375 0.5625
2.0625 0.4375 0.625
2.0625 0.5 0.5625
2.0625 0.4375 0.5625
2.25 0.4375 0.625
2.25 0.5 0.5625
2.1875 0.5 0.625
2.25 0.4375 0.5625
2.1875 0.4375 0.625
2.1875 0.5 0.5625
2.1875 0.4375 0.5625
2.375 0.4375 0.625
2.375 0.5 0.5625
2.3125 0.5 0.625
2.375 0.4375 0.5625
2.3125 0.4375 0.625
2.3125 0.5 0.5625
2.3125 0.4375 0.5625
2.5 0.4375 0.625
2.5 0.5 0.5625
2.4375 0.5 0.625
2.5 0.4375 0.5625
2.4375 0.4375 0.625
2.4375 0.5 0.5625
2.4375 0.4375 0.5625
2.625 0.4375 0.625
2.625 0.5 0.5625
2.5625 0.5 0.625
2.625 0.4375 0.5625
2.5625 0.4375 0.625
2.5625 0.5 0.5625
2.5625 0.4375 0.5625
2.75 0.4375 0.625
2.75 0.5 0.5625
2.6875 0.5 0.625
2.75 0.4375 0.5625
2.6875 0.4375 0.625
2.6875 0.5 0.5625
2.6875 0.4375 0.5625
2.875 0.4375 0.625
2.875 0.5 0.5625
2.8125 0.5 0.625
2.875 0.4375 0.5625
2.8125 0.4375 0.625
2.8125 0.5 0.5625
2.8125 0.4375 0.5625
3 0.4375 0.625
3 0.5 0.5625
2.9375 0.5 0.625
3 0.4375 0.5625
2.9375 0.4375 0.625
2.9375 0.5 0.5625
2.9375 0.4375 0.5625
0.125 0.5625 0.625
0 0.5625 0.625
0.125 0.625 0.5625
0.0625 0.625 0.625
0 0.625 0.5625
0.125 0.5625 0.5625
0.0625 0.5625 0.625
0 0.5625 0.5625
0.0625 0.625 0.5625
0.0625 0.5625 0.5625
0.25 0.5625 0.625
0.25 0.625 0.5625
0.1875 0.625 0.625
0.25 0.5625 0.5625
0.1875 0.5625 0.625
0.1875 0.625 0.5625
0.1875 0.5625 0.5625
0.375 0.5625 0.625
0.375 0.625 0.5625
0.3125 0.625 0.625
0.375 0.5625 0.5625
0.3125 0.5625 0.625
0.3125 0.625 0.5625
0.3125 0.5625 0.5625
0.5 0.5625 0.625
0.5 0.625 0.5625
0.4375 0.625 0.625
0.5 0.5625 0.5625
0.4375 0.5625 0.625
0.4375 0.625 0.5625
0.4375 0.5625 0.5625
0.625 0.5625 0.625
0.625 0.625 0.5625
0.5625 0.625 0.625
0.625 0.5625 0.5625
0.5625 0.5625 0.625
0.5625 0.625 0.5625
0.5625 0.5625 0.5625
0.75 0.5625 0.625
0.75 0.625 0.5625
0.6875 0.625 0.625
0.75 0.5625 0.5625
0.6875 0.5625 0.625
0.6875 0.625 0.5625
0.6875 0.5625 0.5625
0.875 0.5625 0.625
0.875 0.625 0.5625
0.8125 0.625 0.625
0.875 0.5625 0.5625
0.8125 0.5625 0.625
0.8125 0.625 0.5625
0.8125 0.5625 0.5625
1 0.5625 0.625
1 0.625 0.5625
0.9375 0.625 0.625
1 0.5625 0.5625
0.9375 0.5625 0.625
0.9375 0.625 0.5625
0.9375 0.5625 0.5625
1.125 0.5625 0.625
1.125 0.625 0.5625
1.0625 0.625 0.625
1.125 0.5625 0.5625
1.0625 0.5625 0.625
1.0625 0.625 0.5625
1.0625 0.5625 0.5625
1.25 0.5625 0.625
1.25 0.625 0.5625
1.1875 0.625 0.625
1.25 0.5625 0.5625
1.1875 0.5625 0.625
1.1875 0.625 0.5625
1.1875 0.5625 0.5625
1.375 0.5625 0.625
1.375 0.625 0.5625
1.3125 0.625 0.625
1.375 0.5625 0.5625
1.3125 0.5625 0.625
1.3125 0.625 0.5625
1.3125 0.5625 0.5625
1.5 0.5625 0.625
1.5 0.625 0.5625
1.4375 0.625 0.625
1.5 0.5625 0.5625
1.4375 0.5625 0.625
1.4375 0.625 0.5625
1.4375 0.5625 0.5625
1.625 0.5625 0.625
1.625 0.625 0.5625
1.5625 0.625 0.625
1.625 0.5625 0.5625
1.5625 0.5625 0.625
1.5625 0.625 0.5625
1.5625 0.5625 0.5625
1.75 0.5625 0.625
1.75 0.625 0.5625
1.6875 0.625 0.625
1.75 0.5625 0.5625
1.6875 0.5625 0.625
1.6875 0.625 0.5625
1.6875 0.5625 0.5625
1.875 0.5625 0.625
1.875 0.625 0.5625
1.8125 0.625 0.625
1.875 0.5625 0.5625
1.8125 0.5625 0.625
1.8125 0.625 0.5625
1.8125 0.5625 0.5625
2 0.5625 0.625
2 0.625 0.5625
1.9375 0.625 0.625
2 0.5625 0.5625
1.9375 0.5625 0.625
1.9375 0.625 0.5625
1.9375 0.5625 0.5625
2.125 0.5625 0.625
2.125 0.625 0.5625
2.0625 0.625 0.625
2.125 0.5625 0.5625
2.0625 0.5625 0.625
2.0625 0.625 0.5625
2.0625 0.5625 0.5625
2.25 0.5625 0.625
2.25 0.625 0.5625
2.1875 0.625 0.625
2.25 0.5625 0.5625
2.1875 0.5625 0.625
2.1875 0.625 0.5625
2.1875 0.5625 0.5625
2.375 0.5625 0.625
2.375 0.625 0.5625
2.3125 0.625 0.625
2.375 0.5625 0.5625
2.3125 0.5625 0.625
2.3125 0.625 0.5625
2.3125 0.5625 0.5625
2.5 0.5625 0.625
2.5 0.625 0.5625
2.4375 0.625 0.625
2.5 0.5625 0.5625
2.4375 0.5625 0.625
2.4375 0.625 0.5625
2.4375 0.5625 0.5625
2.625 0.5625 0.625
2.625 0.625 0.5625
2.5625 0.625 0.625
2.625 0.5625 0.5625
2.5625 0.5625 0.625
2.5625 0.625 0.5625
2.5625 0.5625 0.5625
2.75 0.5625 0.625
2.75 0.625 0.5625
2.6875 0.625 0.625
2.75 0.5625 0.5625
2.6875 0.5625 0.625
2.6875 0.625 0.5625
2.6875 0.5625 0.5625
2.875 0.5625 0.625
2.875 0.625 0.5625
2.8125 0.625 0.625
2.875 0.5625 0.5625
2.8125 0.5625 0.625
2.8125 0.625 0.5625
2.8125 0.5625 0.5625
3 0.5625 0.625
3 0.625 0.5625
2.9375 0.625 0.625
3 0.5625 0.5625
2.9375 0.5625 0.625
2.9375 0.625 0.5625
2.9375 0.5625 0.5625
0.125 0.6875 0.625
0 0.6875 0.625
0.125 0.75 0.5625
0.0625 0.75 0.625
0 0.75 0.5625
0.125 0.6875 0.5625
0.0625 0.6875 0.625
0 0.6875 0.5625
0.0625 0.75 0.5625
0.0625 0.6875 0.5625
0.25 0.6875 0.625
0.25 0.75 0.5625
0.1875 0.75 0.625
0.25 0.6875 0.5625
0.1875 0.6875 0.625
0.1875 0.75 0.5625
0.1875 0.6875 0.5625
0.375 0.6875 0.625
0.375 0.75 0.5625
0.3125 0.75 0.625
0.375 0.6875 0.5625
0.3125 0.6875 0.625
0.3125 0.75 0.5625
0.3125 0.6875 0.5625
0.5 0.6875 0.625
0.5 0.75 0.5625
0.4375 0.75 0.625
0.5 0.6875 0.5625
0.4375 0.6875 0.625
0.4375 0.75 0.5625
0.4375 0.6875 0.5625
0.625 0.6875 0.625
0.625 0.75 0.5625
0.5625 0.75 0.625
0.625 0.6875 0.5625
0.5625 0.6875 0.625
0.5625 0.75 0.5625
0.5625 0.6875 0.5625
0.75 0.6875 0.625
0.75 0.75 0.5625
0.6875 0.75 0.625
0.75 0.6875 0.5625
0.6875 0.6875 0.625
0.6875 0.75 0.5625
0.6875 0.6875 0.5625
0.875 0.6875 0.625
0.875 0.75 0.5625
0.8125 0.75 0.625
0.875 0.6875 0.5625
0.8125 0.6875 0.625
0.8125 0.75 0.5625
0.8125 0.6875 0.5625
1 0.6875 0.625
1 0.75 0.5625
0.9375 0.75 0.625
1 0.6875 0.5625
0.9375 0.6875 0.625
0.9375 0.75 0.5625
0.9375 0.6875 0.5625
1.125 0.6875 0.625
1.125 0.75 0.5625
1.0625 0.75 0.625
1.125 0.6875 0.5625
1.0625 0.6875 0.625
1.0625 0.75 0.5625
1.0625 0.6875 0.5625
1.25 0.6875 0.625
1.25 0.75 0.5625
1.1875 0.75 0.625
1.25 0.6875 0.5625
1.1875 0.6875 0.625
1.1875 0.75 0.5625
1.1875 0.6875 0.5625
1.375 0.6875 0.625
1.375 0.75 0.5625
1.3125 0.75 0.625
1.375 0.6875 0.5625
1.3125 0.6875 0.625
1.3125 0.75 0.5625
1.3125 0.6875 0.5625
1.5 0.6875 0.625
1.5 0.75 0.5625
1.4375 0.75 0.625
1.5 0.6875 0.5625
1.4375 0.6875 0.625
1.4375 0.75 0.5625
1.4375 0.6875 0.5625
1.625 0.6875 0.625
1.625 0.75 0.5625
1.5625 0.75 0.625
1.625 0.6875 0.5625
1.5625 0.6875 0.625
1.5625 0.75 0.5625
1.5625 0.6875 0.5625
1.75 0.6875 0.625
1.75 0.75 0.5625
1.6875 0.75 0.625
1.75 0.6875 0.5625
1.6875 0.6875 0.625
1.6875 0.75 0.5625
1.6875 0.6875 0.5625
1.875 0.6875 0.625
1.875 0.75 0.5625
1.8125 0.75 0.625
1.875 0.6875 0.5625
1.8125 0.6875 0.625
1.8125 0.75 0.5625
1.8125 0.6875 0.5625
2 0.6875 0.625
2 0.75 0.5625
1.9375 0.75 0.625
2 0.6875 0.5625
1.9375 0.6875 0.625
1.9375 0.75 0.5625
1.9375 0.6875 0.5625
2.125 0.6875 0.625
2.125 0.75 0.5625
2.0625 0.75 0.625
2.125 0.6875 0.5625
2.0625 0.6875 0.625
2.0625 0.75 0.5625
2.0625 0.6875 0.5625
2.25 0.6875 0.625
2.25 0.75 0.5625
2.1875 0.75 0.625
2.25 0.6875 0.5625
2.1875 0.6875 0.625
2.1875 0.75 0.5625
2.1875 0.6875 0.5625
2.375 0.6875 0.625
2.375 0.75 0.5625
2.3125 0.75 0.625
2.375 0.6875 0.5625
2.3125 0.6875 0.625
2.3125 0.75 0.5625
2.3125 0.6875 0.5625
2.5 0.6875 0.625
2.5 0.75 0.5625
2.4375 0.75 0.625
2.5 0.6875 0.5625
2.4375 0.6875 0.625
2.4375 0.75 0.5625
2.4375 0.6875 0.5625
2.625 0.6875 0.625
2.625 0.75 0.5625
2.5625 0.75 0.625
2.625 0.6875 0.5625
2.5625 0.6875 0.625
2.5625 0.75 0.5625
2.5625 0.6875 0.5625
2.75 0.6875 0.625
2.75 0.75 0.5625
2.6875 0.75 0.625
2.75 0.6875 0.5625
2.6875 0.6875 0.625
2.6875 0.75 0.5625
2.6875 0.6875 0.5625
2.875 0.6875 0.625
2.875 0.75 0.5625
2.8125 0.75 0.625
2.875 0.6875 0.5625
2.8125 0.6875 0.625
2.8125 0.75 0.5625
2.8125 0.6875 0.5625
3 0.6875 0.625
3 0.75 0.5625
2.9375 0.75 0.625
3 0.6875 0.5625
2.9375 0.6875 0.625
2.9375 0.75 0.5625
2.9375 0.6875 0.5625
0.125 0.8125 0.625
0 0.8125 0.625
0.125 0.875 0.5625
0.0625 0.875 0.625
0 0.875 0.5625
0.125 0.8125 0.5625
0.0625 0.8125 0.625
0 0.8125 0.5625
0.0625 0.875 0.5625
0.0625 0.8125 0.5625
0.25 0.8125 0.625
0.25 0.875 0.5625
0.1875 0.875 0.625
0.25 0.8125 0.5625
0.1875 0.8125 0.625
0.1875 0.875 0.5625
0.1875 0.8125 0.5625
0.375 0.8125 0.625
0.375 0.875 0.5625
0.3125 0.875 0.625
0.375 0.8125 0.5625
0.3125 0.8125 0.625
0.3125 0.875 0.5625
0.3125 0.8125 0.5625
0.5 0.8125 0.625
0.5 0.875 0.5625
0.4375 0.875 0.625
0.5 0.8125 0.5625
0.4375 0.8125 0.625
0.4375 0.875 0.5625
0.4375 0.8125 0.5625
0.625 0.8125 0.625
0.625 0.875 0.5625
0.5625 0.875 0.625
0.625 0.8125 0.5625
0.5625 0.8125 0.625
0.5625 0.875 0.5625
0.5625 0.8125 0.5625
0.75 0.8125 0.625
0.75 0.875 0.5625
0.6875 0.875 0.625
0.75 0.8125 0.5625
0.6875 0.8125 0.625
0.6875 0.875 0.5625
0.6875 0.8125 0.5625
0.875 0.8125 0.625
0.875 0.875 0.5625
0.8125 0.875 0.625
0.875 0.8125 0.5625
0.8125 0.8125 0.625
0.8125 0.875 0.5625
0.8125 0.8125 0.5625
1 0.8125 0.625
1 0.875 0.5625
0.9375 0.875 0.625
1 0.8125 0.5625
0.9375 0.8125 0.625
0.9375 0.875 0.5625
0.9375 0.8125 0.5625
1.125 0.8125 0.625
1.125 0.875 0.5625
1.0625 0.875 0.625
1.125 0.8125 0.5625
1.0625 0.8125 0.625
1.0625 0.875 0.5625
1.0625 0.8125 0.5625
1.25 0.8125 0.625
1.25 0.875 0.5625
1.1875 0.875 0.625
1.25 0.8125 0.5625
1.1875 0.8125 0.625
1.1875 0.875 0.5625
1.1875 0.8125 0.5625
1.375 0.8125 0.625
1.375 0.875 0.5625
1.3125 0.875 0.625
1.375 0.8125 0.5625
1.3125 0.8125 0.625
1.3125 0.875 0.5625
1.3125 0.8125 0.5625
1.5 0.8125 0.625
1.5 0.875 0.5625
1.4375 0.875 0.625
1.5 0.8125 0.5625
1.4375 0.8125 0.625
1.4375 0.875 0.5625
1.4375 0.8125 0.5625
1.625 0.8125 0.625
1.625 0.875 0.5625
1.5625 0.875 0.625
1.625 0.8125 0.5625
1.5625 0.8125 0.625
1.5625 0.875 0.5625
1.5625 0.8125 0.5625
1.75 0.8125 0.625
1.75 0.875 0.5625
1.6875 0.875 0.625
1.75 0.8125 0.5625
1.6875 0.8125 0.625
1.6875 0.875 0.5625
1.6875 0.8125 0.5625
1.875 0.8125 0.625
1.875 0.875 0.5625
1.8125 0.875 0.625
1.875 0.8125 0.5625
1.8125 0.8125 0.625
1.8125 0.875 0.5625
1.8125 0.8125 0.5625
2 0.8125 0.625
2 0.875 0.5625
1.9375 0.875 0.625
2 0.8125 0.5625
1.9375 0.8125 0.625
1.9375 0.875 0.5625
1.9375 0.8125 0.5625
2.125 0.8125 0.625
2.125 0.875 0.5625
2.0625 0.875 0.625
2.125 0.8125 0.5625
2.0625 0.8125 0.625
2.0625 0.875 0.5625
2.0625 0.8125 0.5625
2.25 0.8125 0.625
2.25 0.875 0.5625
2.1875 0.875 0.625
2.25 0.8125 0.5625
2.1875 0.8125 0.625
2.1875 0.875 0.5625
2.1875 0.8125 0.5625
2.375 0.8125 0.625
2.375 0.875 0.5625
2.3125 0.875 0.625
2.375 0.8125 0.5625
2.3125 0.8125 0.625
2.3125 0.875 0.5625
2.3125 0.8125 0.5625
2.5 0.8125 0.625
2.5 0.875 0.5625
2.4375 0.875 0.625
2.5 0.8125 0.5625
2.4375 0.8125 0.625
2.4375 0.875 0.5625
2.4375 0.8125 0.5625
2.625 0.8125 0.625
2.625 0.875 0.5625
2.5625 0.875 0.625
2.625 0.8125 0.5625
2.5625 0.8125 0.625
2.5625 0.875 0.5625
2.5625 0.8125 0.5625
2.75 0.8125 0.625
2.75 0.875 0.5625
2.6875 0.875 0.625
2.75 0.8125 0.5625
2.6875 0.8125 0.625
2.6875 0.875 0.5625
2.6875 0.8125 0.5625
2.875 0.8125 0.625
2.875 0.875 0.5625
2.8125 0.875 0.625
2.875 0.8125 0.5625
2.8125 0.8125 0.625
2.8125 0.875 0.5625
2.8125 0.8125 0.5625
3 0.8125 0.625
3 0.875 0.5625
2.9375 0.875 0.625
3 0.8125 0.5625
2.9375 0.8125 0.625
2.9375 0.875 0.5625
2.9375 0.8125 0.5625
0.125 0.9375 0.625
0 0.9375 0.625
0.125 1 0.5625
0.0625 1 0.625
0 1 0.5625
0.125 0.9375 0.5625
0.0625 0.9375 0.625
0 0.9375 0.5625
0.0625 1 0.5625
0.0625 0.9375 0.5625
0.25 0.9375 0.625
0.25 1 0.5625
0.1875 1 0.625
0.25 0.9375 0.5625
0.1875 0.9375 0.625
0.1875 1 0.5625
0.1875 0.9375 0.5625
0.375 0.9375 0.625
0.375 1 0.5625
0.3125 1 0.625
0.375 0.9375 0.5625
0.3125 0.9375 0.625
0.3125 1 0.5625
0.3125 0.9375 0.5625
0.5 0.9375 0.625
0.5 1 0.5625
0.4375 1 0.625
0.5 0.9375 0.5625
0.4375 0.9375 0.625
0.4375 1 0.5625
0.4375 0.9375 0.5625
0.625 0.9375 0.625
0.625 1 0.5625
0.5625 1 0.625
0.625 0.9375 0.5625
0.5625 0.9375 0.625
0.5625 1 0.5625
0.5625 0.9375 0.5625
0.75 0.9375 0.625
0.75 1 0.5625
0.6875 1 0.625
0.75 0.9375 0.5625
0.6875 0.9375 0.625
0.6875 1 0.5625
0.6875 0.9375 0.5625
0.875 0.9375 0.625
0.875 1 0.5625
0.8125 1 0.625
0.875 0.9375 0.5625
0.8125 0.9375 0.625
0.8125 1 0.5625
0.8125 0.9375 0.5625
1 0.9375 0.625
1 1 0.5625
0.9375 1 0.625
1 0.9375 0.5625
0.9375 0.9375 0.625
0.9375 1 0.5625
0.9375 0.9375 0.5625
1.125 0.9375 0.625
1.125 1 0.5625
1.0625 1 0.625
1.125 0.9375 0.5625
1.0625 0.9375 0.625
1.0625 1 0.5625
1.0625 0.9375 0.5625
1.25 0.9375 0.625
1.25 1 0.5625
1.1875 1 0.625
1.25 0.9375 0.5625
1.1875 0.9375 0.625
1.1875 1 0.5625
1.1875 0.9375 0.5625
1.375 0.9375 0.625
1.375 1 0.5625
1.3125 1 0.625
1.375 0.9375 0.5625
1.3125 0.9375 0.625
1.3125 1 0.5625
1.3125 0.9375 0.5625
1.5 0.9375 0.625
1.5 1 0.5625
1.4375 1 0.625
1.5 0.9375 0.5625
1.4375 0.9375 0.625
1.4375 1 0.5625
1.4375 0.9375 0.5625
1.625 0.9375 0.625
1.625 1 0.5625
1.5625 1 0.625
1.625 0.9375 0.5625
1.5625 0.9375 0.625
1.5625 1 0.5625
1.5625 0.9375 0.5625
1.75 0.9375 0.625
1.75 1 0.5625
1.6875 1 0.625
1.75 0.9375 0.5625
1.6875 0.9375 0.625
1.6875 1 0.5625
1.6875 0.9375 0.5625
1.875 0.9375 0.625
1.875 1 0.5625
1.8125 1 0.625
1.875 0.9375 0.5625
1.8125 0.9375 0.625
1.8125 1 0.5625
1.8125 0.9375 0.5625
2 0.9375 0.625
2 1 0.5625
1.9375 1 0.625
2 0.9375 0.5625
1.9375 0.9375 0.625
1.9375 1 0.5625
1.9375 0.9375 0.5625
2.125 0.9375 0.625
2.125 1 0.5625
2.0625 1 0.625
2.125 0.9375 0.5625
2.0625 0.9375 0.625
2.0625 1 0.5625
2.0625 0.9375 0.5625
2.25 0.9375 0.625
2.25 1 0.5625
2.1875 1 0.625
2.25 0.9375 0.5625
2.1875 0.9375 0.625
2.1875 1 0.5625
2.1875 0.9375 0.5625
2.375 0.9375 0.625
2.375 1 0.5625
2.3125 1 0.625
2.375 0.9375 0.5625
2.3125 0.9375 0.625
2.3125 1 0.5625
2.3125 0.9375 0.5625
2.5 0.9375 0.625
2.5 1 0.5625
2.4375 1 0.625
2.5 0.9375 0.5625
2.4375 0.9375 0.625
2.4375 1 0.5625
2.4375 0.9375 0.5625
2.625 0.9375 0.625
2.625 1 0.5625
2.5625 1 0.625
2.625 0.9375 0.5625
2.5625 0.9375 0.625
2.5625 1 0.5625
2.5625 0.9375 0.5625
2.75 0.9375 0.625
2.75 1 0.5625
2.6875 1 0.625
2.75 0.9375 0.5625
2.6875 0.9375 0.625
2.6875 1 0.5625
2.6875 0.9375 0.5625
2.875 0.9375 0.625
2.875 1 0.5625
2.8125 1 0.625
2.875 0.9375 0.5625
2.8125 0.9375 0.625
2.8125 1 0.5625
2.8125 0.9375 0.5625
3 0.9375 0.625
3 1 0.5625
2.9375 1 0.625
3 0.9375 0.5625
2.9375 0.9375 0.625
2.9375 1 0.5625
2.9375 0.9375 0.5625
0.125 0 0.6875
0.0625 0 0.75
0 0 0.6875
0.125 0.0625 0.75
0 0.0625 0.75
0.125 0.125 0.6875
0.0625 0.125 0.75
0 0.125 0.6875
0.0625 0 0.6875
0.125 0.0625 0.6875
0.0625 0.0625 0.75
0 0.0625 0.6875
0.0625 0.125 0.6875
0.0625 0.0625 0.6875
0.25 0 0.6875
0.1875 0 0.75
0.25 0.0625 0.75
0.25 0.125 0.6875
0.1875 0.125 0.75
0.1875 0 0.6875
0.25 0.0625 0.6875
0.1875 0.0625 0.75
0.1875 0.125 0.6875
0.1875 0.0625 0.6875
0.375 0 0.6875
0.3125 0 0.75
0.375 0.0625 0.75
0.375 0.125 0.6875
0.3125 0.125 0.75
0.3125 0 0.6875
0.375 0.0625 0.6875
0.3125 0.0625 0.75
0.3125 0.125 0.6875
0.3125 0.0625 0.6875
0.5 0 0.6875
0.4375 0 0.75
0.5 0.0625 0.75
0.5 0.125 0.6875
0.4375 0.125 0.75
0.4375 0 0.6875
0.5 0.0625 0.6875
0.4375 0.0625 0.75
0.4375 0.125 0.6875
0.4375 0.0625 0.6875
0.625 0 0.6875
0.5625 0 0.75
0.625 0.0625 0.75
0.625 0.125 0.6875
0.5625 0.125 0.75
0.5625 0 0.6875
0.625 0.0625 0.6875
0.5625 0.0625 0.75
0.5625 0.125 0.6875
0.5625 0.0625 0.6875
0.75 0 0.6875
0.6875 0 0.75
0.75 0.0625 0.75
0.75 0.125 0.6875
0.6875 0.125 0.75
0.6875 0 0.6875
0.75 0.0625 0.6875
0.6875 0.0625 0.75
0.6875 0.125 0.6875
0.6875 0.0625 0.6875
0.875 0 0.6875
0.8125 0 0.75
0.875 0.0625 0.75
0.875 0.125 0.6875
0.8125 0.125 0.75
0.8125 0 0.6875
0.875 0.0625 0.6875
0.8125 0.0625 0.75
0.8125 0.125 0.6875
0.8125 0.0625 0.6875
1 0 0.6875
0.9375 0 0.75
1 0.0625 0.75
1 0.125 0.6875
0.9375 0.125 0.75
0.9375 0 0.6875
1 0.0625 0.6875
0.9375 0.0625 0.75
0.9375 0.125 0.6875
0.9375 0.0625 0.6875
1.125 0 0.6875
1.0625 0 0.75
1.125 0.0625 0.75
1.125 0.125 0.6875
1.0625 0.125 0.75
1.0625 0 0.6875
1.125 0.0625 0.6875
1.0625 0.0625 0.75
1.0625 0.125 0.6875
1.0625 0.0625 0.6875
1.25 0 0.6875
1.1875 0 0.75
1.25 0.0625 0.75
1.25 0.125 0.6875
1.1875 0.125 0.75
1.1875 0 0.6875
1.25 0.0625 0.6875
1.1875 0.0625 0.75
1.1875 0.125 0.6875
1.1875 0.0625 0.6875
1.375 0 0.6875
1.3125 0 0.75
1.375 0.0625 0.75
1.375 0.125 0.6875
1.3125 0.125 0.75
1.3125 0 0.6875
1.375 0.0625 0.6875
1.3125 0.0625 0.75
1.3125 0.125 0.6875
1.3125 0.0625 0.6875
1.5 0 0.6875
1.4375 0 0.75
1.5 0.0625 0.75
1.5 0.125 0.6875
1.4375 0.125 0.75
1.4375 0 0.6875
1.5 0.0625 0.6875
1.4375 0.0625 0.75
1.4375 0.125 0.6875
1.4375 0.0625 0.6875
1.625 0 0.6875
1.5625 0 0.75
1.625 0.0625 0.75
1.625 0.125 0.6875
1.5625 0.125 0.75
1.5625 0 0.6875
1.625 0.0625 0.6875
1.5625 0.0625 0.75
1.5625 0.125 0.6875
1.5625 0.0625 0.6875
1.75 0 0.6875
1.6875 0 0.75
1.75 0.0625 0.75
1.75 0.125 0.6875
1.6875 0.125 0.75
1.6875 0 0.6875
1.75 0.0625 0.6875
1.6875 0.0625 0.75
1.6875 0.125 0.6875
1.6875 0.0625 0.6875
1.875 0 0.6875
1.8125 0 0.75
1.875 0.0625 0.75
1.875 0.125 0.6875
1.8125 0.125 0.75
1.8125 0 0.6875
1.875 0.0625 0.6875
1.8125 0.0625 0.75
1.8125 0.125 0.6875
1.8125 0.0625 0.6875
2 0 0.6875
1.9375 0 0.75
2 0.0625 0.75
2 0.125 0.6875
1.9375 0.125 0.75
1.9375 0 0.6875
2 0.0625 0.6875
1.9375 0.0625 0.75
1.9375 0.125 0.6875
1.9375 0.0625 0.6875
2.125 0 0.6875
2.0625 0 0.75
2.125 0.0625 0.75
2.125 0.125 0.6875
2.0625 0.125 0.75
2.0625 0 0.6875
2.125 0.0625 0.6875
2.0625 0.0625 0.75
2.0625 0.125 0.6875
2.0625 0.0625 0.6875
2.25 0 0.6875
2.1875 0 0.75
2.25 0.0625 0.75
2.25 0.125 0.6875
2.1875 0.125 0.75
2.1875 0 0.6875
2.25 0.0625 0.6875
2.1875 0.0625 0.75
2.1875 0.125 0.6875
2.1875 0.0625 0.6875
2.375 0 0.6875
2.3125 0 0.75
2.375 0.0625 0.75
2.375 0.125 0.6875
2.3125 0.125 0.75
2.3125 0 0.6875
2.375 0.0625 0.6875
2.3125 0.0625 0.75
2.3125 0.125 0.6875
2.3125 0.0625 0.6875
2.5 0 0.6875
2.4375 0 0.75
2.5 0.0625 0.75
2.5 0.125 0.6875
2.4375 0.125 0.75
2.4375 0 0.6875
2.5 0.0625 0.6875
2.4375 0.0625 0.75
2.4375 0.125 0.6875
2.4375 0.0625 0.6875
2.625 0 0.6875
2.5625 0 0.75
2.625 0.0625 0.75
2.625 0.125 0.6875
2.5625 0.125 0.75
2.5625 0 0.6875
2.625 0.0625 0.6875
2.5625 0.0625 0.75
2.5625 0.125 0.6875
2.5625 0.0625 0.6875
2.75 0 0.6875
2.6875 0 0.75
2.75 0.0625 0.75
2.75 0.125 0.6875
2.6875 0.125 0.75
2.6875 0 0.6875
2.75 0.0625 0.6875
2.6875 0.0625 0.75
2.6875 0.125 0.6875
2.6875 0.0625 0.6875
2.875 0 0.6875
2.8125 0 0.75
2.875 0.0625 0.75
2.875 0.125 0.6875
2.8125 0.125 0.75
2.8125 0 0.6875
2.875 0.0625 0.6875
2.8125 0.0625 0.75
2.8125 0.125 0.6875
2.8125 0.0625 0.6875
3 0 0.6875
2.9375 0 0.75
3 0.0625 0.75
3 0.125 0.6875
2.9375 0.125 0.75
2.9375 0 0.6875
3 0.0625 0.6875
2.9375 0.0625 0.75
2.9375 0.125 0.6875
2.9375 0.0625 0.6875
0.125 0.1875 0.75
0 0.1875 0.75
0.125 0.25 0.6875
0.0625 0.25 0.75
0 0.25 0.6875
0.125 0.1875 0.6875
0.0625 0.1875 0.75
0 0.1875 0.6875
0.0625 0.25 0.6875
0.0625 0.1875 0.6875
0.25 0.1875 0.75
0.25 0.25 0.6875
0.1875 0.25 0.75
0.25 0.1875 0.6875
0.1875 0.1875 0.75
0.1875 0.25 0.6875
0.1875 0.1875 0.6875
0.375 0.1875 0.75
0.375 0.25 0.6875
0.3125 0.25 0.75
0.375 0.1875 0.6875
0.3125 0.1875 0.75
0.3125 0.25 0.6875
0.3125 0.1875 0.6875
0.5 0.1875 0.75
0.5 0.25 0.6875
0.4375 0.25 0.75
0.5 0.1875 0.6875
0.4375 0.1875 0.75
0.4375 0.25 0.6875
0.4375 0.1875 0.6875
0.625 0.1875 0.75
0.625 0.25 0.6875
0.5625 0.25 0.75
0.625 0.1875 0.6875
0.5625 0.1875 0.75
0.5625 0.25 0.6875
0.5625 0.1875 0.6875
0.75 0.1875 0.75
0.75 0.25 0.6875
0.6875 0.25 0.75
0.75 0.1875 0.6875
0.6875 0.1875 0.75
0.6875 0.25 0.6875
0.6875 0.1875 0.6875
0.875 0.1875 0.75
0.875 0.25 0.6875
0.8125 0.25 0.75
0.875 0.1875 0.6875
0.8125 0.1875 0.75
0.8125 0.25 0.6875
0.8125 0.1875 0.6875
1 0.1875 0.75
1 0.25 0.6875
0.9375 0.25 0.75
1 0.1875 0.6875
0.9375 0.1875 0.75
0.9375 0.25 0.6875
0.9375 0.1875 0.6875
1.125 0.1875 0.75
1.125 0.25 0.6875
1.0625 0.25 0.75
1.125 0.1875 0.6875
1.0625 0.1875 0.75
1.0625 0.25 0.6875
1.0625 0.1875 0.6875
1.25 0.1875 0.75
1.25 0.25 0.6875
1.1875 0.25 0.75
1.25 0.1875 0.6875
1.1875 0.1875 0.75
1.1875 0.25 0.6875
1.1875 0.1875 0.6875
1.375 0.1875 0.75
1.375 0.25 0.6875
1.3125 0.25 0.75
1.375 0.1875 0.6875
1.3125 0.1875 0.75
1.3125 0.25 0.6875
1.3125 0.1875 0.6875
1.5 0.1875 0.75
1.5 0.25 0.6875
1.4375 0.25 0.75
1.5 0.1875 0.6875
1.4375 0.1875 0.75
1.4375 0.25 0.6875
1.4375 0.1875 0.6875
1.625 0.1875 0.75
1.625 0.25 0.6875
1.5625 0.25 0.75
1.625 0.1875 0.6875
1.5625 0.1875 0.75
1.5625 0.25 0.6875
1.5625 0.1875 0.6875
1.75 0.1875 0.75
1.75 0.25 0.6875
1.6875 0.25 0.75
1.75 0.1875 0.6875
1.6875 0.1875 0.75
1.6875 0.25 0.6875
1.6875 0.1875 0.6875
1.875 0.1875 0.75
1.875 0.25 0.6875
1.8125 0.25 0.75
1.875 0.1875 0.6875
1.8125 0.1875 0.75
1.8125 0.25 0.6875
1.8125 0.1875 0.6875
2 0.1875 0.75
2 0.25 0.6875
1.9375 0.25 0.75
2 0.1875 0.6875
1.9375 0.1875 0.75
1.9375 0.25 0.6875
1.9375 0.1875 0.6875
2.125 0.1875 0.75
2.125 0.25 0.6875
2.0625 0.25 0.75
2.125 0.1875 0.6875
2.0625 0.1875 0.75
2.0625 0.25 0.6875
2.0625 0.1875 0.6875
2.25 0.1875 0.75
2.25 0.25 0.6875
2.1875 0.25 0.75
2.25 0.1875 0.6875
2.1875 0.1875 0.75
2.1875 0.25 0.6875
2.1875 0.1875 0.6875
2.375 0.1875 0.75
2.375 0.25 0.6875
2.3125 0.25 0.75
2.375 0.1875 0.6875
2.3125 0.1875 0.75
2.3125 0.25 0.6875
2.3125 0.1875 0.6875
2.5 0.1875 0.75
2.5 0.25 0.6875
2.4375 0.25 0.75
2.5 0.1875 0.6875
2.4375 0.1875 0.75
2.4375 0.25 0.6875
2.4375 0.1875 0.6875
2.625 0.1875 0.75
2.625 0.25 0.6875
2.5625 0.25 0.75
2.625 0.1875 0.6875
2.5625 0.1875 0.75
2.5625 0.25 0.6875
2.5625 0.1875 0.6875
2.75 0.1875 0.75
2.75 0.25 0.6875
2.6875 0.25 0.75
2.75 0.1875 0.6875
2.6875 0.1875 0.75
2.6875 0.25 0.6875
2.6875 0.1875 0.6875
2.875 0.1875 0.75
2.875 0.25 0.6875
2.8125 0.25 0.75
2.875 0.1875 0.6875
2.8125 0.1875 0.75
2.8125 0.25 0.6875
2.8125 0.1875 0.6875
3 0.1875 0.75
3 0.25 0.6875
2.9375 0.25 0.75
3 0.1875 0.6875
2.9375 0.1875 0.75
2.9375 0.25 0.6875
2.9375 0.1875 0.6875
0.125 0.3125 0.75
0 0.3125 0.75
0.125 0.375 0.6875
0.0625 0.375 0.75
0 0.375 0.6875
0.125 0.3125 0.6875
0.0625 0.3125 0.75
0 0.3125 0.6875
0.0625 0.375 0.6875
0.0625 0.3125 0.6875
0.25 0.3125 0.75
0.25 0.375 0.6875
0.1875 0.375 0.75
0.25 0.3125 0.6875
0.1875 0.3125 0.75
0.1875 0.375 0.6875
0.1875 0.3125 0.6875
0.375 0.3125 0.75
0.375 0.375 0.6875
0.3125 0.375 0.75
0.375 0.3125 0.6875
0.3125 0.3125 0.75
0.3125 0.375 0.6875
0.3125 0.3125 0.6875
0.5 0.3125 0.75
0.5 0.375 0.6875
0.4375 0.375 0.75
0.5 0.3125 0.6875
0.4375 0.3125 0.75
0.4375 0.375 0.6875
0.4375 0.3125 0.6875
0.625 0.3125 0.75
0.625 0.375 0.6875
0.5625 0.375 0.75
0.625 0.3125 0.6875
0.5625 0.3125 0.75
0.5625 0.375 0.6875
0.5625 0.3125 0.6875
0.75 0.3125 0.75
0.75 0.375 0.6875
0.6875 0.375 0.75
0.75 0.3125 0.6875
0.6875 0.3125 0.75
0.6875 0.375 0.6875
0.6875 0.3125 0.6875
0.875 0.3125 0.75
0.875 0.375 0.6875
0.8125 0.375 0.75
0.875 0.3125 0.6875
0.8125 0.3125 0.75
0.8125 0.375 0.6875
0.8125 0.3125 0.6875
1 0.3125 0.75
1 0.375 0.6875
0.9375 0.375 0.75
1 0.3125 0.6875
0.9375 0.3125 0.75
0.9375 0.375 0.6875
0.9375 0.3125 0.6875
1.125 0.3125 0.75
1.125 0.375 0.6875
1.0625 0.375 0.75
1.125 0.3125 0.6875
1.0625 0.3125 0.75
1.0625 0.375 0.6875
1.0625 0.3125 0.6875
1.25 0.3125 0.75
1.25 0.375 0.6875
1.1875 0.375 0.75
1.25 0.3125 0.6875
1.1875 0.3125 0.75
1.1875 0.375 0.6875
1.1875 0.3125 0.6875
1.375 0.3125 0.75
1.375 0.375 0.6875
1.3125 0.375 0.75
1.375 0.3125 0.6875
1.3125 0.3125 0.75
1.3125 0.375 0.6875
1.3125 0.3125 0.6875
1.5 0.3125 0.75
1.5 0.375 0.6875
1.4375 0.375 0.75
1.5 0.3125 0.6875
1.4375 0.3125 0.75
1.4375 0.375 0.6875
1.4375 0.3125 0.6875
1.625 0.3125 0.75
1.625 0.375 0.6875
1.5625 0.375 0.75
1.625 0.3125 0.6875
1.5625 0.3125 0.75
1.5625 0.375 0.6875
1.5625 0.3125 0.6875
1.75 0.3125 0.75
1.75 0.375 0.6875
1.6875 0.375 0.75
1.75 0.3125 0.6875
1.6875 0.3125 0.75
1.6875 0.375 0.6875
1.6875 0.3125 0.6875
1.875 0.3125 0.75
1.875 0.375 0.6875
1.8125 0.375 0.75
1.875 0.3125 0.6875
1.8125 0.3125 0.75
1.8125 0.375 0.6875
1.8125 0.3125 0.6875
2 0.3125 0.75
2 0.375 0.6875
1.9375 0.375 0.75
2 0.3125 0.6875
1.9375 0.3125 0.75
1.9375 0.375 0.6875
1.9375 0.3125 0.6875
2.125 0.3125 0.75
2.125 0.375 0.6875
2.0625 0.375 0.75
2.125 0.3125 0.6875
2.0625 0.3125 0.75
2.0625 0.375 0.6875
2.0625 0.3125 0.6875
2.25 0.3125 0.75
2.25 0.375 0.6875
2.1875 0.375 0.75
2.25 0.3125 0.6875
2.1875 0.3125 0.75
2.1875 0.375 0.6875
2.1875 0.3125 0.6875
2.375 0.3125 0.75
2.375 0.375 0.6875
2.3125 0.375 0.75
2.375 0.3125 0.6875
2.3125 0.3125 0.75
2.3125 0.375 0.6875
2.3125 0.3125 0.6875
2.5 0.3125 0.75
2.5 0.375 0.6875
2.4375 0.375 0.75
2.5 0.3125 0.6875
2.4375 0.3125 0.75
2.4375 0.375 0.6875
2.4375 0.3125 0.6875
2.625 0.3125 0.75
2.625 0.375 0.6875
2.5625 0.375 0.75
2.625 0.3125 0.6875
2.5625 0.3125 0.75
2.5625 0.375 0.6875
2.5625 0.3125 0.6875
2.75 0.3125 0.75
2.75 0.375 0.6875
2.6875 0.375 0.75
2.75 0.3125 0.6875
2.6875 0.3125 0.75
2.6875 0.375 0.6875
2.6875 0.3125 0.6875
2.875 0.3125 0.75
2.875 0.375 0.6875
2.8125 0.375 0.75
2.875 0.3125 0.6875
2.8125 0.3125 0.75
2.8125 0.375 0.6875
2.8125 0.3125 0.6875
3 0.3125 0.75
3 0.375 0.6875
2.9375 0.375 0.75
3 0.3125 0.6875
2.9375 0.3125 0.75
2.9375 0.375 0.6875
2.9375 0.3125 0.6875
0.125 0.4375 0.75
0 0.4375 0.75
0.125 0.5 0.6875
0.0625 0.5 0.75
0 0.5 0.6875
0.125 0.4375 0.6875
0.0625 0.4375 0.75
0 0.4375 0.6875
0.0625 0.5 0.6875
0.0625 0.4375 0.6875
0.25 0.4375 0.75
0.25 0.5 0.6875
0.1875 0.5 0.75
0.25 0.4375 0.6875
0.1875 0.4375 0.75
0.1875 0.5 0.6875
0.1875 0.4375 0.6875
0.375 0.4375 0.75
0.375 0.5 0.6875
0.3125 0.5 0.75
0.375 0.4375 0.6875
0.3125 0.4375 0.75
0.3125 0.5 0.6875
0.3125 0.4375 0.6875
0.5 0.4375 0.75
0.5 0.5 0.6875
0.4375 0.5 0.75
0.5 0.4375 0.6875
0.4375 0.4375 0.75
0.4375 0.5 0.6875
0.4375 0.4375 0.6875
0.625 0.4375 0.75
0.625 0.5 0.6875
0.5625 0.5 0.75
0.625 0.4375 0.6875
0.5625 0.4375 0.75
0.5625 0.5 0.6875
0.5625 0.4375 0.6875
0.75 0.4375 0.75
0.75 0.5 0.6875
0.6875 0.5 0.75
0.75 0.4375 0.6875
0.6875 0.4375 0.75
0.6875 0.5 0.6875
0.6875 0.4375 0.6875
0.875 0.4375 0.75
0.875 0.5 0.6875
0.8125 0.5 0.75
0.875 0.4375 0.6875
0.8125 0.4375 0.75
0.8125 0.5 0.6875
0.8125 0.4375 0.6875
1 0.4375 0.75
1 0.5 0.6875
0.9375 0.5 0.75
1 0.4375 0.6875
0.9375 0.4375 0.75
0.9375 0.5 0.6875
0.9375 0.4375 0.6875
1.125 0.4375 0.75
1.125 0.5 0.6875
1.0625 0.5 0.75
1.125 0.4375 0.6875
1.0625 0.4375 0.75
1.0625 0.5 0.6875
1.0625 0.4375 0.6875
1.25 0.4375 0.75
1.25 0.5 0.6875
1.1875 0.5 0.75
1.25 0.4375 0.6875
1.1875 0.4375 0.75
1.1875 0.5 0.6875
1.1875 0.4375 0.6875
1.375 0.4375 0.75
1.375 0.5 0.6875
1.3125 0.5 0.75
1.375 0.4375 0.6875
1.3125 0.4375 0.75
1.3125 0.5 0.6875
1.3125 0.4375 0.6875
1.5 0.4375 0.75
1.5 0.5 0.6875
1.4375 0.5 0.75
1.5 0.4375 0.6875
1.4375 0.4375 0.75
1.4375 0.5 0.6875
1.4375 0.4375 0.6875
1.625 0.4375 0.75
1.625 0.5 0.6875
1.5625 0.5 0.75
1.625 0.4375 0.6875
1.5625 0.4375 0.75
1.5625 0.5 0.6875
1.5625 0.4375 0.6875
1.75 0.4375 0.75
1.75 0.5 0.6875
1.6875 0.5 0.75
1.75 0.4375 0.6875
1.6875 0.4375 0.75
1.6875 0.5 0.6875
1.6875 0.4375 0.6875
1.875 0.4375 0.75
1.875 0.5 0.6875
1.8125 0.5 0.75
1.875 0.4375 0.6875
1.8125 0.4375 0.75
1.8125 0.5 0.6875
1.8125 0.4375 0.6875
2 0.4375 0.75
2 0.5 0.6875
1.9375 0.5 0.75
2 0.4375 0.6875
1.9375 0.4375 0.75
1.9375 0.5 0.6875
1.9375 0.4375 0.6875
2.125 0.4375 0.75
2.125 0.5 0.6875
2.0625 0.5 0.75
2.125 0.4375 0.6875
2.0625 0.4375 0.75
2.0625 0.5 0.6875
2.0625 0.4375 0.6875
2.25 0.4375 0.75
2.25 0.5 0.6875
2.1875 0.5 0.75
2.25 0.4375 0.6875
2.1875 0.4375 0.75
2.1875 0.5 0.6875
2.1875 0.4375 0.6875
2.375 0.4375 0.75
2.375 0.5 0.6875
2.3125 0.5 0.75
2.375 0.4375 0.6875
2.3125 0.4375 0.75
2.3125 0.5 0.6875
2.3125 0.4375 0.6875
2.5 0.4375 0.75
2.5 0.5 0.6875
2.4375 0.5 0.75
2.5 0.4375 0.6875
2.4375 0.4375 0.75
2.4375 0.5 0.6875
2.4375 0.4375 0.6875
2.625 0.4375 0.75
2.625 0.5 0.6875
2.5625 0.5 0.75
2.625 0.4375 0.6875
2.5625 0.4375 0.75
2.5625 0.5 0.6875
2.5625 0.4375 0.6875
2.75 0.4375 0.75
2.75 0.5 0.6875
2.6875 0.5 0.75
2.75 0.4375 0.6875
2.6875 0.4375 0.75
2.6875 0.5 0.6875
2.6875 0.4375 0.6875
2.875 0.4375 0.75
2.875 0.5 0.6875
2.8125 0.5 0.75
2.875 0.4375 0.6875
2.8125 0.4375 0.75
2.8125 0.5 0.6875
2.8125 0.4375 0.6875
3 0.4375 0.75
3 0.5 0.6875
2.9375 0.5 0.75
3 0.4375 0.6875
2.9375 0.4375 0.75
2.9375 0.5 0.6875
2.9375 0.4375 0.6875
0.125 0.5625 0.75
0 0.5625 0.75
0.125 0.625 0.6875
0.0625 0.625 0.75
0 0.625 0.6875
0.125 0.5625 0.6875
0.0625 0.5625 0.75
0 0.5625 0.6875
0.0625 0.625 0.6875
0.0625 0.5625 0.6875
0.25 0.5625 0.75
0.25 0.625 0.6875
0.1875 0.625 0.75
0.25 0.5625 0.6875
0.1875 0.5625 0.75
0.1875 0.625 0.6875
0.1875 0.5625 0.6875
0.375 0.5625 0.75
0.375 0.625 0.6875
0.3125 0.625 0.75
0.375 0.5625 0.6875
0.3125 0.5625 0.75
0.3125 0.625 0.6875
0.3125 0.5625 0.6875
0.5 0.5625 0.75
0.5 0.625 0.6875
0.4375 0.625 0.75
0.5 0.5625 0.6875
0.4375 0.5625 0.75
0.4375 0.625 0.6875
0.4375 0.5625 0.6875
0.625 0.5625 0.75
0.625 0.625 0.6875
0.5625 0.625 0.75
0.625 0.5625 0.6875
0.5625 0.5625 0.75
0.5625 0.625 0.6875
0.5625 0.5625 0.6875
0.75 0.5625 0.75
0.75 0.625 0.6875
0.6875 0.625 0.75
0.75 0.5625 0.6875
0.6875 0.5625 0.75
0.6875 0.625 0.6875
0.6875 0.5625 0.6875
0.875 0.5625 0.75
0.875 0.625 0.6875
0.8125 0.625 0.75
0.875 0.5625 0.6875
0.8125 0.5625 0.75
0.8125 0.625 0.6875
0.8125 0.5625 0.6875
1 0.5625 0.75
1 0.625 0.6875
0.9375 0.625 0.75
1 0.5625 0.6875
0.9375 0.5625 0.75
0.9375 0.625 0.6875
0.9375 0.5625 0.6875
1.125 0.5625 0.75
1.125 0.625 0.6875
1.0625 0.625 0.75
1.125 0.5625 0.6875
1.0625 0.5625 0.75
1.0625 0.625 0.6875
1.0625 0.5625 0.6875
1.25 0.5625 0.75
1.25 0.625 0.6875
1.1875 0.625 0.75
1.25 0.5625 0.6875
1.1875 0.5625 0.75
1.1875 0.625 0.6875
1.1875 0.5625 0.6875
1.375 0.5625 0.75
1.375 0.625 0.6875
1.3125 0.625 0.75
1.375 0.5625 0.6875
1.3125 0.5625 0.75
1.3125 0.625 0.6875
1.3125 0.5625 0.6875
1.5 0.5625 0.75
1.5 0.625 0.6875
1.4375 0.625 0.75
1.5 0.5625 0.6875
1.4375 0.5625 0.75
1.4375 0.625 0.6875
1.4375 0.5625 0.6875
1.625 0.5625 0.75
1.625 0.625 0.6875
1.5625 0.625 0.75
1.625 0.5625 0.6875
1.5625 0.5625 0.75
1.5625 0.625 0.6875
1.5625 0.5625 0.6875
1.75 0.5625 0.75
1.75 0.625 0.6875
1.6875 0.625 0.75
1.75 0.5625 0.6875
1.6875 0.5625 0.75
1.6875 0.625 0.6875
1.6875 0.5625 0.6875
1.875 0.5625 0.75
1.875 0.625 0.6875
1.8125 0.625 0.75
1.875 0.5625 0.6875
1.8125 0.5625 0.75
1.8125 0.625 0.6875
1.8125 0.5625 0.6875
2 0.5625 0.75
2 0.625 0.6875
1.9375 0.625 0.75
2 0.5625 0.6875
1.9375 0.5625 0.75
1.9375 0.625 0.6875
1.9375 0.5625 0.6875
2.125 0.5625 0.75
2.125 0.625 0.6875
2.0625 0.625 0.75
2.125 0.5625 0.6875
2.0625 0.5625 0.75
2.0625 0.625 0.6875
2.0625 0.5625 0.6875
2.25 0.5625 0.75
2.25 0.625 0.6875
2.1875 0.625 0.75
2.25 0.5625 0.6875
2.1875 0.5625 0.75
2.1875 0.625 0.6875
2.1875 0.5625 0.6875
2.375 0.5625 0.75
2.375 0.625 0.6875
2.3125 0.625 0.75
2.375 0.5625 0.6875
2.3125 0.5625 0.75
2.3125 0.625 0.6875
2.3125 0.5625 0.6875
2.5 0.5625 0.75
2.5 0.625 0.6875
2.4375 0.625 0.75
2.5 0.5625 0.6875
2.4375 0.5625 0.75
2.4375 0.625 0.6875
2.4375 0.5625 0.6875
2.625 0.5625 0.75
2.625 0.625 0.6875
2.5625 0.625 0.75
2.625 0.5625 0.6875
2.5625 0.5625 0.75
2.5625 0.625 0.6875
2.5625 0.5625 0.6875
2.75 0.5625 0.75
2.75 0.625 0.6875
2.6875 0.625 0.75
2.75 0.5625 0.6875
2.6875 0.5625 0.75
2.6875 0.625 0.6875
2.6875 0.5625 0.6875
2.875 0.5625 0.75
2.875 0.625 0.6875
2.8125 0.625 0.75
2.875 0.5625 0.6875
2.8125 0.5625 0.75
2.8125 0.625 0.6875
2.8125 0.5625 0.6875
3 0.5625 0.75
3 0.625 0.6875
2.9375 0.625 0.75
3 0.5625 0.6875
2.9375 0.5625 0.75
2.9375 0.625 0.6875
2.9375 0.5625 0.6875
0.125 0.6875 0.75
0 0.6875 0.75
0.125 0.75 0.6875
0.0625 0.75 0.75
0 0.75 0.6875
0.125 0.6875 0.6875
0.0625 0.6875 0.75
0 0.6875 0.6875
0.0625 0.75 0.6875
0.0625 0.6875 0.6875
0.25 0.6875 0.75
0.25 0.75 0.6875
0.1875 0.75 0.75
0.25 0.6875 0.6875
0.1875 0.6875 0.75
0.1875 0.75 0.6875
0.1875 0.6875 0.6875
0.375 0.6875 0.75
0.375 0.75 0.6875
0.3125 0.75 0.75
0.375 0.6875 0.6875
0.3125 0.6875 0.75
0.3125 0.75 0.6875
0.3125 0.6875 0.6875
0.5 0.6875 0.75
0.5 0.75 0.6875
0.4375 0.75 0.75
0.5 0.6875 0.6875
0.4375 0.6875 0.75
0.4375 0.75 0.6875
0.4375 0.6875 0.6875
0.625 0.6875 0.75
0.625 0.75 0.6875
0.5625 0.75 0.75
0.625 0.6875 0.6875
0.5625 0.6875 0.75
0.5625 0.75 0.6875
0.5625 0.6875 0.6875
0.75 0.6875 0.75
0.75 0.75 0.6875
0.6875 0.75 0.75
0.75 0.6875 0.6875
0.6875 0.6875 0.75
0.6875 0.75 0.6875
0.6875 0.6875 0.6875
0.875 0.6875 0.75
0.875 0.75 0.6875
0.8125 0.75 0.75
0.875 0.6875 0.6875
0.8125 0.6875 0.75
0.8125 0.75 0.6875
0.8125 0.6875 0.6875
1 0.6875 0.75
1 0.75 0.6875
0.9375 0.75 0.75
1 0.6875 0.6875
0.9375 0.6875 0.75
0.9375 0.75 0.6875
0.9375 0.6875 0.6875
1.125 0.6875 0.75
1.125 0.75 0.6875
1.0625 0.75 0.75
1.125 0.6875 0.6875
1.0625 0.6875 0.75
1.0625 0.75 0.6875
1.0625 0.6875 0.6875
1.25 0.6875 0.75
1.25 0.75 0.6875
1.1875 0.75 0.75
1.25 0.6875 0.6875
1.1875 0.6875 0.75
1.1875 0.75 0.6875
1.1875 0.6875 0.6875
1.375 0.6875 0.75
1.375 0.75 0.6875
1.3125 0.75 0.75
1.375 0.6875 0.6875
1.3125 0.6875 0.75
1.3125 0.75 0.6875
1.3125 0.6875 0.6875
1.5 0.6875 0.75
1.5 0.75 0.6875
1.4375 0.75 0.75
1.5 0.6875 0.6875
1.4375 0.6875 0.75
1.4375 0.75 0.6875
1.4375 0.6875 0.6875
1.625 0.6875 0.75
1.625 0.75 0.6875
1.5625 0.75 0.75
1.625 0.6875 0.6875
1.5625 0.6875 0.75
1.5625 0.75 0.6875
1.5625 0.6875 0.6875
1.75 0.6875 0.75
1.75 0.75 0.6875
1.6875 0.75 0.75
1.75 0.6875 0.6875
1.6875 0.6875 0.75
1.6875 0.75 0.6875
1.6875 0.6875 0.6875
1.875 0.6875 0.75
1.875 0.75 0.6875
1.8125 0.75 0.75
1.875 0.6875 0.6875
1.8125 0.6875 0.75
1.8125 0.75 0.6875
1.8125 0.6875 0.6875
2 0.6875 0.75
2 0.75 0.6875
1.9375 0.75 0.75
2 0.6875 0.6875
1.9375 0.6875 0.75
1.9375 0.75 0.6875
1.9375 0.6875 0.6875
2.125 0.6875 0.75
2.125 0.75 0.6875
2.0625 0.75 0.75
2.125 0.6875 0.6875
2.0625 0.6875 0.75
2.0625 0.75 0.6875
2.0625 0.6875 0.6875
2.25 0.6875 0.75
2.25 0.75 0.6875
2.1875 0.75 0.75
2.25 0.6875 0.6875
2.1875 0.6875 0.75
2.1875 0.75 0.6875
2.1875 0.6875 0.6875
2.375 0.6875 0.75
2.375 0.75 0.6875
2.3125 0.75 0.75
2.375 0.6875 0.6875
2.3125 0.6875 0.75
2.3125 0.75 0.6875
2.3125 0.6875 0.6875
2.5 0.6875 0.75
2.5 0.75 0.6875
2.4375 0.75 0.75
2.5 0.6875 0.6875
2.4375 0.6875 0.75
2.4375 0.75 0.6875
2.4375 0.6875 0.6875
2.625 0.6875 0.75
2.625 0.75 0.6875
2.5625 0.75 0.75
2.625 0.6875 0.6875
2.5625 0.6875 0.75
2.5625 0.75 0.6875
2.5625 0.6875 0.6875
2.75 0.6875 0.75
2.75 0.75 0.6875
2.6875 0.75 0.75
2.75 0.6875 0.6875
2.6875 0.6875 0.75
2.6875 0.75 0.6875
2.6875 0.6875 0.6875
2.875 0.6875 0.75
2.875 0.75 0.6875
2.8125 0.75 0.75
2.875 0.6875 0.6875
2.8125 0.6875 0.75
2.8125 0.75 0.6875
2.8125 0.6875 0.6875
3 0.6875 0.75
3 0.75 0.6875
2.9375 0.75 0.75
3 0.6875 0.6875
2.9375 0.6875 0.75
2.9375 0.75 0.6875
2.9375 0.6875 0.6875
0.125 0.8125 0.75
0 0.8125 0.75
0.125 0.875 0.6875
0.0625 0.875 0.75
0 0.875 0.6875
0.125 0.8125 0.6875
0.0625 0.8125 0.75
0 0.8125 0.6875
0.0625 0.875 0.6875
0.0625 0.8125 0.6875
0.25 0.8125 0.75
0.25 0.875 0.6875
0.1875 0.875 0.75
0.25 0.8125 0.6875
0.1875 0.8125 0.75
0.1875 0.875 0.6875
0.1875 0.8125 0.6875
0.375 0.8125 0.75
0.375 0.875 0.6875
0.3125 0.875 0.75
0.375 0.8125 0.6875
0.3125 0.8125 0.75
0.3125 0.875 0.6875
0.3125 0.8125 0.6875
0.5 0.8125 0.75
0.5 0.875 0.6875
0.4375 0.875 0.75
0.5 0.8125 0.6875
0.4375 0.8125 0.75
0.4375 0.875 0.6875
0.4375 0.8125 0.6875
0.625 0.8125 0.75
0.625 0.875 0.6875
0.5625 0.875 0.75
0.625 0.8125 0.6875
0.5625 0.8125 0.75
0.5625 0.875 0.6875
0.5625 0.8125 0.6875
0.75 0.8125 0.75
0.75 0.875 0.6875
0.6875 0.875 0.75
0.75 0.8125 0.6875
0.6875 0.8125 0.75
0.6875 0.875 0.6875
0.6875 0.8125 0.6875
0.875 0.8125 0.75
0.875 0.875 0.6875
0.8125 0.875 0.75
0.875 0.8125 0.6875
0.8125 0.8125 0.75
0.8125 0.875 0.6875
0.8125 0.8125 0.6875
1 0.8125 0.75
1 0.875 0.6875
0.9375 0.875 0.75
1 0.8125 0.6875
0.9375 0.8125 0.75
0.9375 0.875 0.6875
0.9375 0.8125 0.6875
1.125 0.8125 0.75
1.125 0.875 0.6875
1.0625 0.875 0.75
1.125 0.8125 0.6875
1.0625 0.8125 0.75
1.0625 0.875 0.6875
1.0625 0.8125 0.6875
1.25 0.8125 0.75
1.25 0.875 0.6875
1.1875 0.875 0.75
1.25 0.8125 0.6875
1.1875 0.8125 0.75
1.1875 0.875 0.6875
1.1875 0.8125 0.6875
1.375 0.8125 0.75
1.375 0.875 0.6875
1.3125 0.875 0.75
1.375 0.8125 0.6875
1.3125 0.8125 0.75
1.3125 0.875 0.6875
1.3125 0.8125 0.6875
1.5 0.8125 0.75
1.5 0.875 0.6875
1.4375 0.875 0.75
1.5 0.8125 0.6875
1.4375 0.8125 0.75
1.4375 0.875 0.6875
1.4375 0.8125 0.6875
1.625 0.8125 0.75
1.625 0.875 0.6875
1.5625 0.875 0.75
1.625 0.8125 0.6875
1.5625 0.8125 0.75
1.5625 0.875 0.6875
1.5625 0.8125 0.6875
1.75 0.8125 0.75
1.75 0.875 0.6875
1.6875 0.875 0.75
1.75 0.8125 0.6875
1.6875 0.8125 0.75
1.6875 0.875 0.6875
1.6875 0.8125 0.6875
1.875 0.8125 0.75
1.875 0.875 0.6875
1.8125 0.875 0.75
1.875 0.8125 0.6875
1.8125 0.8125 0.75
1.8125 0.875 0.6875
1.8125 0.8125 0.6875
2 0.8125 0.75
2 0.875 0.6875
1.9375 0.875 0.75
2 0.8125 0.6875
1.9375 0.8125 0.75
1.9375 0.875 0.6875
1.9375 0.8125 0.6875
2.125 0.8125 0.75
2.125 0.875 0.6875
2.0625 0.875 0.75
2.125 0.8125 0.6875
2.0625 0.8125 0.75
2.0625 0.875 0.6875
2.0625 0.8125 0.6875
2.25 0.8125 0.75
2.25 0.875 0.6875
2.1875 0.875 0.75
2.25 0.8125 0.6875
2.1875 0.8125 0.75
2.1875 0.875 0.6875
2.1875 0.8125 0.6875
2.375 0.8125 0.75
2.375 0.875 0.6875
2.3125 0.875 0.75
2.375 0.8125 0.6875
2.3125 0.8125 0.75
2.3125 0.875 0.6875
2.3125 0.8125 0.6875
2.5 0.8125 0.75
2.5 0.875 0.6875
2.4375 0.875 0.75
2.5 0.8125 0.6875
2.4375 0.8125 0.75
2.4375 0.875 0.6875
2.4375 0.8125 0.6875
2.625 0.8125 0.75
2.625 0.875 0.6875
2.5625 0.875 0.75
2.625 0.8125 0.6875
2.5625 0.8125 0.75
2.5625 0.875 0.6875
2.5625 0.8125 0.6875
2.75 0.8125 0.75
2.75 0.875 0.6875
2.6875 0.875 0.75
2.75 0.8125 0.6875
2.6875 0.8125 0.75
2.6875 0.875 0.6875
2.6875 0.8125 0.6875
2.875 0.8125 0.75
2.875 0.875 0.6875
2.8125 0.875 0.75
2.875 0.8125 0.6875
2.8125 0.8125 0.75
2.8125 0.875 0.6875
2.8125 0.8125 0.6875
3 0.8125 0.75
3 0.875 0.6875
2.9375 0.875 0.75
3 0.8125 0.6875
2.9375 0.8125 0.75
2.9375 0.875 0.6875
2.9375 0.8125 0.6875
0.125 0.9375 0.75
0 0.9375 0.75
0.125 1 0.6875
0.0625 1 0.75
0 1 0.6875
0.125 0.9375 0.6875
0.0625 0.9375 0.75
0 0.9375 0.6875
0.0625 1 0.6875
0.0625 0.9375 0.6875
0.25 0.9375 0.75
0.25 1 0.6875
0.1875 1 0.75
0.25 0.9375 0.6875
0.1875 0.9375 0.75
0.1875 1 0.6875
0.1875 0.9375 0.6875
0.375 0.9375 0.75
0.375 1 0.6875
0.3125 1 0.75
0.375 0.9375 0.6875
0.3125 0.9375 0.75
0.3125 1 0.6875
0.3125 0.9375 0.6875
0.5 0.9375 0.75
0.5 1 0.6875
0.4375 1 0.75
0.5 0.9375 0.6875
0.4375 0.9375 0.75
0.4375 1 0.6875
0.4375 0.9375 0.6875
0.625 0.9375 0.75
0.625 1 0.6875
0.5625 1 0.75
0.625 0.9375 0.6875
0.5625 0.9375 0.75
0.5625 1 0.6875
0.5625 0.9375 0.6875
0.75 0.9375 0.75
0.75 1 0.6875
0.6875 1 0.75
0.75 0.9375 0.6875
0.6875 0.9375 0.75
0.6875 1 0.6875
0.6875 0.9375 0.6875
0.875 0.9375 0.75
0.875 1 0.6875
0.8125 1 0.75
0.875 0.9375 0.6875
0.8125 0.9375 0.75
0.8125 1 0.6875
0.8125 0.9375 0.6875
1 0.9375 0.75
1 1 0.6875
0.9375 1 0.75
1 0.9375 0.6875
0.9375 0.9375 0.75
0.9375 1 0.6875
0.9375 0.9375 0.6875
1.125 0.9375 0.75
1.125 1 0.6875
1.0625 1 0.75
1.125 0.9375 0.6875
1.0625 0.9375 0.75
1.0625 1 0.6875
1.0625 0.9375 0.6875
1.25 0.9375 0.75
1.25 1 0.6875
1.1875 1 0.75
1.25 0.9375 0.6875
1.1875 0.9375 0.75
1.1875 1 0.6875
1.1875 0.9375 0.6875
1.375 0.9375 0.75
1.375 1 0.6875
1.3125 1 0.75
1.375 0.9375 0.6875
1.3125 0.9375 0.75
1.3125 1 0.6875
1.3125 0.9375 0.6875
1.5 0.9375 0.75
1.5 1 0.6875
1.4375 1 0.75
1.5 0.9375 0.6875
1.4375 0.9375 0.75
1.4375 1 0.6875
1.4375 0.9375 0.6875
1.625 0.9375 0.75
1.625 1 0.6875
1.5625 1 0.75
1.625 0.9375 0.6875
1.5625 0.9375 0.75
1.5625 1 0.6875
1.5625 0.9375 0.6875
1.75 0.9375 0.75
1.75 1 0.6875
1.6875 1 0.75
1.75 0.9375 0.6875
1.6875 0.9375 0.75
1.6875 1 0.6875
1.6875 0.9375 0.6875
1.875 0.9375 0.75
1.875 1 0.6875
1.8125 1 0.75
1.875 0.9375 0.6875
1.8125 0.9375 0.75
1.8125 1 0.6875
1.8125 0.9375 0.6875
2 0.9375 0.75
2 1 0.6875
1.9375 1 0.75
2 0.9375 0.6875
1.9375 0.9375 0.75
1.9375 1 0.6875
1.9375 0.9375 0.6875
2.125 0.9375 0.75
2.125 1 0.6875
2.0625 1 0.75
2.125 0.9375 0.6875
2.0625 0.9375 0.75
2.0625 1 0.6875
2.0625 0.9375 0.6875
2.25 0.9375 0.75
2.25 1 0.6875
2.1875 1 0.75
2.25 0.9375 0.6875
2.1875 0.9375 0.75
2.1875 1 0.6875
2.1875 0.9375 0.6875
2.375 0.9375 0.75
2.375 1 0.6875
2.3125 1 0.75
2.375 0.9375 0.6875
2.3125 0.9375 0.75
2.3125 1 0.6875
2.3125 0.9375 0.6875
2.5 0.9375 0.75
2.5 1 0.6875
2.4375 1 0.75
2.5 0.9375 0.6875
2.4375 0.9375 0.75
2.4375 1 0.6875
2.4375 0.9375 0.6875
2.625 0.9375 0.75
2.625 1 0.6875
2.5625 1 0.75
2.625 0.9375 0.6875
2.5625 0.9375 0.75
2.5625 1 0.6875
2.5625 0.9375 0.6875
2.75 0.9375 0.75
2.75 1 0.6875
2.6875 1 0.75
2.75 0.9375 0.6875
2.6875 0.9375 0.75
2.6875 1 0.6875
2.6875 0.9375 0.6875
2.875 0.9375 0.75
2.875 1 0.6875
2.8125 1 0.75
2.875 0.9375 0.6875
2.8125 0.9375 0.75
2.8125 1 0.6875
2.8125 0.9375 0.6875
3 0.9375 0.75
3 1 0.6875
2.9375 1 0.75
3 0.9375 0.6875
2.9375 0.9375 0.75
2.9375 1 0.6875
2.9375 0.9375 0.6875
0.125 0 0.8125
0.0625 0 0.875
0 0 0.8125
0.125 0.0625 0.875
0 0.0625 0.875
0.125 0.125 0.8125
0.0625 0.125 0.875
0 0.125 0.8125
0.0625 0 0.8125
0.125 0.0625 0.8125
0.0625 0.0625 0.875
0 0.0625 0.8125
0.0625 0.125 0.8125
0.0625 0.0625 0.8125
0.25 0 0.8125
0.1875 0 0.875
0.25 0.0625 0.875
0.25 0.125 0.8125
0.1875 0.125 0.875
0.1875 0 0.8125
0.25 0.0625 0.8125
0.1875 0.0625 0.875
0.1875 0.125 0.8125
0.1875 0.0625 0.8125
0.375 0 0.8125
0.3125 0 0.875
0.375 0.0625 0.875
0.375 0.125 0.8125
0.3125 0.125 0.875
0.3125 0 0.8125
0.375 0.0625 0.8125
0.3125 0.0625 0.875
0.3125 0.125 0.8125
0.3125 0.0625 0.8125
0.5 0 0.8125
0.4375 0 0.875
0.5 0.0625 0.875
0.5 0.125 0.8125
0.4375 0.125 0.875
0.4375 0 0.8125
0.5 0.0625 0.8125
0.4375 0.0625 0.875
0.4375 0.125 0.8125
0.4375 0.0625 0.8125
0.625 0 0.8125
0.5625 0 0.875
0.625 0.0625 0.875
0.625 0.125 0.8125
0.5625 0.125 0.875
0.5625 0 0.8125
0.625 0.0625 0.8125
0.5625 0.0625 0.875
0.5625 0.125 0.8125
0.5625 0.0625 0.8125
0.75 0 0.8125
0.6875 0 0.875
0.75 0.0625 0.875
0.75 0.125 0.8125
0.6875 0.125 0.875
0.6875 0 0.8125
0.75 0.0625 0.8125
0.6875 0.0625 0.875
0.6875 0.125 0.8125
0.6875 0.0625 0.8125
0.875 0 0.8125
0.8125 0 0.875
0.875 0.0625 0.875
0.875 0.125 0.8125
0.8125 0.125 0.875
0.8125 0 0.8125
0.875 0.0625 0.8125
0.8125 0.0625 0.875
0.8125 0.125 0.8125
0.8125 0.0625 0.8125
1 0 0.8125
0.9375 0 0.875
1 0.0625 0.875
1 0.125 0.8125
0.9375 0.125 0.875
0.9375 0 0.8125
1 0.0625 0.8125
0.9375 0.0625 0.875
0.9375 0.125 0.8125
0.9375 0.0625 0.8125
1.125 0 0.8125
1.0625 0 0.875
1.125 0.0625 0.875
1.125 0.125 0.8125
1.0625 0.125 0.875
1.0625 0 0.8125
1.125 0.0625 0.8125
1.0625 0.0625 0.875
1.0625 0.125 0.8125
1.0625 0.0625 0.8125
1.25 0 0.8125
1.1875 0 0.875
1.25 0.0625 0.875
1.25 0.125 0.8125
1.1875 0.125 0.875
1.1875 0 0.8125
1.25 0.0625 0.8125
1.1875 0.0625 0.875
1.1875 0.125 0.8125
1.1875 0.0625 0.8125
1.375 0 0.8125
1.3125 0 0.875
1.375 0.0625 0.875
1.375 0.125 0.8125
1.3125 0.125 0.875
1.3125 0 0.8125
1.375 0.0625 0.8125
1.3125 0.0625 0.875
1.3125 0.125 0.8125
1.3125 0.0625 0.8125
1.5 0 0.8125
1.4375 0 0.875
1.5 0.0625 0.875
1.5 0.125 0.8125
1.4375 0.125 0.875
1.4375 0 0.8125
1.5 0.0625 0.8125
1.4375 0.0625 0.875
1.4375 0.125 0.8125
1.4375 0.0625 0.8125
1.625 0 0.8125
1.5625 0 0.875
1.625 0.0625 0.875
1.625 0.125 0.8125
1.5625 0.125 0.875
1.5625 0 0.8125
1.625 0.0625 0.8125
1.5625 0.0625 0.875
1.5625 0.125 0.8125
1.5625 0.0625 0.8125
1.75 0 0.8125
1.6875 0 0.875
1.75 0.0625 0.875
1.75 0.125 0.8125
1.6875 0.125 0.875
1.6875 0 0.8125
1.75 0.0625 0.8125
1.6875 0.0625 0.875
1.6875 0.125 0.8125
1.6875 0.0625 0.8125
1.875 0 0.8125
1.8125 0 0.875
1.875 0.0625 0.875
1.875 0.125 0.8125
1.8125 0.125 0.875
1.8125 0 0.8125
1.875 0.0625 0.8125
1.8125 0.0625 0.875
1.8125 0.125 0.8125
1.8125 0.0625 0.8125
2 0 0.8125
1.9375 0 0.875
2 0.0625 0.875
2 0.125 0.8125
1.9375 0.125 0.875
1.9375 0 0.8125
2 0.0625 0.8125
1.9375 0.0625 0.875
1.9375 0.125 0.8125
1.9375 0.0625 0.8125
2.125 0 0.8125
2.0625 0 0.875
2.125 0.0625 0.875
2.125 0.125 0.8125
2.0625 0.125 0.875
2.0625 0 0.8125
2.125 0.0625 0.8125
2.0625 0.0625 0.875
2.0625 0.125 0.8125
2.0625 0.0625 0.8125
2.25 0 0.8125
2.1875 0 0.875
2.25 0.0625 0.875
2.25 0.125 0.8125
2.1875 0.125 0.875
2.1875 0 0.8125
2.25 0.0625 0.8125
2.1875 0.0625 0.875
2.1875 0.125 0.8125
2.1875 0.0625 0.8125
2.375 0 0.8125
2.3125 0 0.875
2.375 0.0625 0.875
2.375 0.125 0.8125
2.3125 0.125 0.875
2.3125 0 0.8125
2.375 0.0625 0.8125
2.3125 0.0625 0.875
2.3125 0.125 0.8125
2.3125 0.0625 0.8125
2.5 0 0.8125
2.4375 0 0.875
2.5 0.0625 0.875
2.5 0.125 0.8125
2.4375 0.125 0.875
2.4375 0 0.8125
2.5 0.0625 0.8125
2.4375 0.0625 0.875
2.4375 0.125 0.8125
2.4375 0.0625 0.8125
2.625 0 0.8125
2.5625 0 0.875
2.625 0.0625 0.875
2.625 0.125 0.8125
2.5625 0.125 0.875
2.5625 0 0.8125
2.625 0.0625 0.8125
2.5625 0.0625 0.875
2.5625 0.125 0.8125
2.5625 0.0625 0.8125
2.75 0 0.8125
2.6875 0 0.875
2.75 0.0625 0.875
2.75 0.125 0.8125
2.6875 0.125 0.875
2.6875 0 0.8125
2.75 0.0625 0.8125
2.6875 0.0625 0.875
2.6875 0.125 0.8125
2.6875 0.0625 0.8125
2.875 0 0.8125
2.8125 0 0.875
2.875 0.0625 0.875
2.875 0.125 0.8125
2.8125 0.125 0.875
2.8125 0 0.8125
2.875 0.0625 0.8125
2.8125 0.0625 0.875
2.8125 0.125 0.8125
2.8125 0.0625 0.8125
3 0 0.8125
2.9375 0 0.875
3 0.0625 0.875
3 0.125 0.8125
2.9375 0.125 0.875
2.9375 0 0.8125
3 0.0625 0.8125
2.9375 0.0625 0.875
2.9375 0.125 0.8125
2.9375 0.0625 0.8125
0.125 0.1875 0.875
0 0.1875 0.875
0.125 0.25 0.8125
0.0625 0.25 0.875
0 0.25 0.8125
0.125 0.1875 0.8125
0.0625 0.1875 0.875
0 0.1875 0.8125
0.0625 0.25 0.8125
0.0625 0.1875 0.8125
0.25 0.1875 0.875
0.25 0.25 0.8125
0.1875 0.25 0.875
0.25 0.1875 0.8125
0.1875 0.1875 0.875
0.1875 0.25 0.8125
0.1875 0.1875 0.8125
0.375 0.1875 0.875
0.375 0.25 0.8125
0.3125 0.25 0.875
0.375 0.1875 0.8125
0.3125 0.1875 0.875
0.3125 0.25 0.8125
0.3125 0.1875 0.8125
0.5 0.1875 0.875
0.5 0.25 0.8125
0.4375 0.25 0.875
0.5 0.1875 0.8125
0.4375 0.1875 0.875
0.4375 0.25 0.8125
0.4375 0.1875 0.8125
0.625 0.1875 0.875
0.625 0.25 0.8125
0.5625 0.25 0.875
0.625 0.1875 0.8125
0.5625 0.1875 0.875
0.5625 0.25 0.8125
0.5625 0.1875 0.8125
0.75 0.1875 0.875
0.75 0.25 0.8125
0.6875 0.25 0.875
0.75 0.1875 0.8125
0.6875 0.1875 0.875
0.6875 0.25 0.8125
0.6875 0.1875 0.8125
0.875 0.1875 0.875
0.875 0.25 0.8125
0.8125 0.25 0.875
0.875 0.1875 0.8125
0.8125 0.1875 0.875
0.8125 0.25 0.8125
0.8125 0.1875 0.8125
1 0.1875 0.875
1 0.25 0.8125
0.9375 0.25 0.875
1 0.1875 0.8125
0.9375 0.1875 0.875
0.9375 0.25 0.8125
0.9375 0.1875 0.8125
1.125 0.1875 0.875
1.125 0.25 0.8125
1.0625 0.25 0.875
1.125 0.1875 0.8125
1.0625 0.1875 0.875
1.0625 0.25 0.8125
1.0625 0.1875 0.8125
1.25 0.1875 0.875
1.25 0.25 0.8125
1.1875 0.25 0.875
1.25 0.1875 0.8125
1.1875 0.1875 0.875
1.1875 0.25 0.8125
1.1875 0.1875 0.8125
1.375 0.1875 0.875
1.375 0.25 0.8125
1.3125 0.25 0.875
1.375 0.1875 0.8125
1.3125 0.1875 0.875
1.3125 0.25 0.8125
1.3125 0.1875 0.8125
1.5 0.1875 0.875
1.5 0.25 0.8125
1.4375 0.25 0.875
1.5 0.1875 0.8125
1.4375 0.1875 0.875
1.4375 0.25 0.8125
1.4375 0.1875 0.8125
1.625 0.1875 0.875
1.625 0.25 0.8125
1.5625 0.25 0.875
1.625 0.1875 0.8125
1.5625 0.1875 0.875
1.5625 0.25 0.8125
1.5625 0.1875 0.8125
1.75 0.1875 0.875
1.75 0.25 0.8125
1.6875 0.25 0.875
1.75 0.1875 0.8125
1.6875 0.1875 0.875
1.6875 0.25 0.8125
1.6875 0.1875 0.8125
1.875 0.1875 0.875
1.875 0.25 0.8125
1.8125 0.25 0.875
1.875 0.1875 0.8125
1.8125 0.1875 0.875
1.8125 0.25 0.8125
1.8125 0.1875 0.8125
2 0.1875 0.875
2 0.25 0.8125
1.9375 0.25 0.875
2 0.1875 0.8125
1.9375 0.1875 0.875
1.9375 0.25 0.8125
1.9375 0.1875 0.8125
2.125 0.1875 0.875
2.125 0.25 0.8125
2.0625 0.25 0.875
2.125 0.1875 0.8125
2.0625 0.1875 0.875
2.0625 0.25 0.8125
2.0625 0.1875 0.8125
2.25 0.1875 0.875
2.25 0.25 0.8125
2.1875 0.25 0.875
2.25 0.1875 0.8125
2.1875 0.1875 0.875
2.1875 0.25 0.8125
2.1875 0.1875 0.8125
2.375 0.1875 0.875
2.375 0.25 0.8125
2.3125 0.25 0.875
2.375 0.1875 0.8125
2.3125 0.1875 0.875
2.3125 0.25 0.8125
2.3125 0.1875 0.8125
2.5 0.1875 0.875
2.5 0.25 0.8125
2.4375 0.25 0.875
2.5 0.1875 0.8125
2.4375 0.1875 0.875
2.4375 0.25 0.8125
2.4375 0.1875 0.8125
2.625 0.1875 0.875
2.625 0.25 0.8125
2.5625 0.25 0.875
2.625 0.1875 0.8125
2.5625 0.1875 0.875
2.5625 0.25 0.8125
2.5625 0.1875 0.8125
2.75 0.1875 0.875
2.75 0.25 0.8125
2.6875 0.25 0.875
2.75 0.1875 0.8125
2.6875 0.1875 0.875
2.6875 0.25 0.8125
2.6875 0.1875 0.8125
2.875 0.1875 0.875
2.875 0.25 0.8125
2.8125 0.25 0.875
2.875 0.1875 0.8125
2.8125 0.1875 0.875
2.8125 0.25 0.8125
2.8125 0.1875 0.8125
3 0.1875 0.875
3 0.25 0.8125
2.9375 0.25 0.875
3 0.1875 0.8125
2.9375 0.1875 0.875
2.9375 0.25 0.8125
2.9375 0.1875 0.8125
0.125 0.3125 0.875
0 0.3125 0.875
0.125 0.375 0.8125
0.0625 0.375 0.875
0 0.375 0.8125
0.125 0.3125 0.8125
0.0625 0.3125 0.875
0 0.3125 0.8125
0.0625 0.375 0.8125
0.0625 0.3125 0.8125
0.25 0.3125 0.875
0.25 0.375 0.8125
0.1875 0.375 0.875
0.25 0.3125 0.8125
0.1875 0.3125 0.875
0.1875 0.375 0.8125
0.1875 0.3125 0.8125
0.375 0.3125 0.875
0.375 0.375 0.8125
0.3125 0.375 0.875
0.375 0.3125 0.8125
0.3125 0.3125 0.875
0.3125 0.375 0.8125
0.3125 0.3125 0.8125
0.5 0.3125 0.875
0.5 0.375 0.8125
0.4375 0.375 0.875
0.5 0.3125 0.8125
0.4375 0.3125 0.875
0.4375 0.375 0.8125
0.4375 0.3125 0.8125
0.625 0.3125 0.875
0.625 0.375 0.8125
0.5625 0.375 0.875
0.625 0.3125 0.8125
0.5625 0.3125 0.875
0.5625 0.375 0.8125
0.5625 0.3125 0.8125
0.75 0.3125 0.875
0.75 0.375 0.8125
0.6875 0.375 0.875
0.75 0.3125 0.8125
0.6875 0.3125 0.875
0.6875 0.375 0.8125
0.6875 0.3125 0.8125
0.875 0.3125 0.875
0.875 0.375 0.8125
0.8125 0.375 0.875
0.875 0.3125 0.8125
0.8125 0.3125 0.875
0.8125 0.375 0.8125
0.8125 0.3125 0.8125
1 0.3125 0.875
1 0.375 0.8125
0.9375 0.375 0.875
1 0.3125 0.8125
0.9375 0.3125 0.875
0.9375 0.375 0.8125
0.9375 0.3125 0.8125
1.125 0.3125 0.875
1.125 0.375 0.8125
1.0625 0.375 0.875
1.125 0.3125 0.8125
1.0625 0.3125 0.875
1.0625 0.375 0.8125
1.0625 0.3125 0.8125
1.25 0.3125 0.875
1.25 0.375 0.8125
1.1875 0.375 0.875
1.25 0.3125 0.8125
1.1875 0.3125 0.875
1.1875 0.375 0.8125
1.1875 0.3125 0.8125
1.375 0.3125 0.875
1.375 0.375 0.8125
1.3125 0.375 0.875
1.375 0.3125 0.8125
1.3125 0.3125 0.875
1.3125 0.375 0.8125
1.3125 0.3125 0.8125
1.5 0.3125 0.875
1.5 0.375 0.8125
1.4375 0.375 0.875
1.5 0.3125 0.8125
1.4375 0.3125 0.875
1.4375 0.375 0.8125
1.4375 0.3125 0.8125
1.625 0.3125 0.875
1.625 0.375 0.8125
1.5625 0.375 0.875
1.625 0.3125 0.8125
1.5625 0.3125 0.875
1.5625 0.375 0.8125
1.5625 0.3125 0.8125
1.75 0.3125 0.875
1.75 0.375 0.8125
1.6875 0.375 0.875
1.75 0.3125 0.8125
1.6875 0.3125 0.875
1.6875 0.375 0.8125
1.6875 0.3125 0.8125
1.875 0.3125 0.875
1.875 0.375 0.8125
1.8125 0.375 0.875
1.875 0.3125 0.8125
1.8125 0.3125 0.875
1.8125 0.375 0.8125
1.8125 0.3125 0.8125
2 0.3125 0.875
2 0.375 0.8125
1.9375 0.375 0.875
2 0.3125 0.8125
1.9375 0.3125 0.875
1.9375 0.375 0.8125
1.9375 0.3125 0.8125
2.125 0.3125 0.875
2.125 0.375 0.8125
2.0625 0.375 0.875
2.125 0.3125 0.8125
2.0625 0.3125 0.875
2.0625 0.375 0.8125
2.0625 0.3125 0.8125
2.25 0.3125 0.875
2.25 0.375 0.8125
2.1875 0.375 0.875
2.25 0.3125 0.8125
2.1875 0.3125 0.875
2.1875 0.375 0.8125
2.1875 0.3125 0.8125
2.375 0.3125 0.875
2.375 0.375 0.8125
2.3125 0.375 0.875
2.375 0.3125 0.8125
2.3125 0.3125 0.875
2.3125 0.375 0.8125
2.3125 0.3125 0.8125
2.5 0.3125 0.875
2.5 0.375 0.8125
2.4375 0.375 0.875
2.5 0.3125 0.8125
2.4375 0.3125 0.875
2.4375 0.375 0.8125
2.4375 0.3125 0.8125
2.625 0.3125 0.875
2.625 0.375 0.8125
2.5625 0.375 0.875
2.625 0.3125 0.8125
2.5625 0.3125 0.875
2.5625 0.375 0.8125
2.5625 0.3125 0.8125
2.75 0.3125 0.875
2.75 0.375 0.8125
2.6875 0.375 0.875
2.75 0.3125 0.8125
2.6875 0.3125 0.875
2.6875 0.375 0.8125
2.6875 0.3125 0.8125
2.875 0.3125 0.875
2.875 0.375 0.8125
2.8125 0.375 0.875
2.875 0.3125 0.8125
2.8125 0.3125 0.875
2.8125 0.375 0.8125
2.8125 0.3125 0.8125
3 0.3125 0.875
3 0.375 0.8125
2.9375 0.375 0.875
3 0.3125 0.8125
2.9375 0.3125 0.875
2.9375 0.375 0.8125
2.9375 0.3125 0.8125
0.125 0.4375 0.875
0 0.4375 0.875
0.125 0.5 0.8125
0.0625 0.5 0.875
0 0.5 0.8125
0.125 0.4375 0.8125
0.0625 0.4375 0.875
0 0.4375 0.8125
0.0625 0.5 0.8125
0.0625 0.4375 0.8125
0.25 0.4375 0.875
0.25 0.5 0.8125
0.1875 0.5 0.875
0.25 0.4375 0.8125
0.1875 0.4375 0.875
0.1875 0.5 0.8125
0.1875 0.4375 0.8125
0.375 0.4375 0.875
0.375 0.5 0.8125
0.3125 0.5 0.875
0.375 0.4375 0.8125
0.3125 0.4375 0.875
0.3125 0.5 0.8125
0.3125 0.4375 0.8125
0.5 0.4375 0.875
0.5 0.5 0.8125
0.4375 0.5 0.875
0.5 0.4375 0.8125
0.4375 0.4375 0.875
0.4375 0.5 0.8125
0.4375 0.4375 0.8125
0.625 0.4375 0.875
0.625 0.5 0.8125
0.5625 0.5 0.875
0.625 0.4375 0.8125
0.5625 0.4375 0.875
0.5625 0.5 0.8125
0.5625 0.4375 0.8125
0.75 0.4375 0.875
0.75 0.5 0.8125
0.6875 0.5 0.875
0.75 0.4375 0.8125
0.6875 0.4375 0.875
0.6875 0.5 0.8125
0.6875 0.4375 0.8125
0.875 0.4375 0.875
0.875 0.5 0.8125
0.8125 0.5 0.875
0.875 0.4375 0.8125
0.8125 0.4375 0.875
0.8125 0.5 0.8125
0.8125 0.4375 0.8125
1 0.4375 0.875
1 0.5 0.8125
0.9375 0.5 0.875
1 0.4375 0.8125
0.9375 0.4375 0.875
0.9375 0.5 0.8125
0.9375 0.4375 0.8125
1.125 0.4375 0.875
1.125 0.5 0.8125
1.0625 0.5 0.875
1.125 0.4375 0.8125
1.0625 0.4375 0.875
1.0625 0.5 0.8125
1.0625 0.4375 0.8125
1.25 0.4375 0.875
1.25 0.5 0.8125
1.1875 0.5 0.875
1.25 0.4375 0.8125
1.1875 0.4375 0.875
1.1875 0.5 0.8125
1.1875 0.4375 0.8125
1.375 0.4375 0.875
1.375 0.5 0.8125
1.3125 0.5 0.875
1.375 0.4375 0.8125
1.3125 0.4375 0.875
1.3125 0.5 0.8125
1.3125 0.4375 0.8125
1.5 0.4375 0.875
1.5 0.5 0.8125
1.4375 0.5 0.875
1.5 0.4375 0.8125
1.4375 0.4375 0.875
1.4375 0.5 0.8125
1.4375 0.4375 0.8125
1.625 0.4375 0.875
1.625 0.5 0.8125
1.5625 0.5 0.875
1.625 0.4375 0.8125
1.5625 0.4375 0.875
1.5625 0.5 0.8125
1.5625 0.4375 0.8125
1.75 0.4375 0.875
1.75 0.5 0.8125
1.6875 0.5 0.875
1.75 0.4375 0.8125
1.6875 0.4375 0.875
1.6875 0.5 0.8125
1.6875 0.4375 0.8125
1.875 0.4375 0.875
1.875 0.5 0.8125
1.8125 0.5 0.875
1.875 0.4375 0.8125
1.8125 0.4375 0.875
1.8125 0.5 0.8125
1.8125 0.4375 0.8125
2 0.4375 0.875
2 0.5 0.8125
1.9375 0.5 0.875
2 0.4375 0.8125
1.9375 0.4375 0.875
1.9375 0.5 0.8125
1.9375 0.4375 0.8125
2.125 0.4375 0.875
2.125 0.5 0.8125
2.0625 0.5 0.875
2.125 0.4375 0.8125
2.0625 0.4375 0.875
2.0625 0.5 0.8125
2.0625 0.4375 0.8125
2.25 0.4375 0.875
2.25 0.5 0.8125
2.1875 0.5 0.875
2.25 0.4375 0.8125
2.1875 0.4375 0.875
2.1875 0.5 0.8125
2.1875 0.4375 0.8125
2.375 0.4375 0.875
2.375 0.5 0.8125
2.3125 0.5 0.875
2.375 0.4375 0.8125
2.3125 0.4375 0.875
2.3125 0.5 0.8125
2.3125 0.4375 0.8125
2.5 0.4375 0.875
2.5 0.5 0.8125
2.4375 0.5 0.875
2.5 0.4375 0.8125
2.4375 0.4375 0.875
2.4375 0.5 0.8125
2.4375 0.4375 0.8125
2.625 0.4375 0.875
2.625 0.5 0.8125
2.5625 0.5 0.875
2.625 0.4375 0.8125
2.5625 0.4375 0.875
2.5625 0.5 0.8125
2.5625 0.4375 0.8125
2.75 0.4375 0.875
2.75 0.5 0.8125
2.6875 0.5 0.875
2.75 0.4375 0.8125
2.6875 0.4375 0.875
2.6875 0.5 0.8125
2.6875 0.4375 0.8125
2.875 0.4375 0.875
2.875 0.5 0.8125
2.8125 0.5 0.875
2.875 0.4375 0.8125
2.8125 0.4375 0.875
2.8125 0.5 0.8125
2.8125 0.4375 0.8125
3 0.4375 0.875
3 0.5 0.8125
2.9375 0.5 0.875
3 0.4375 0.8125
2.9375 0.4375 0.875
2.9375 0.5 0.8125
2.9375 0.4375 0.8125
0.125 0.5625 0.875
0 0.5625 0.875
0.125 0.625 0.8125
0.0625 0.625 0.875
0 0.625 0.8125
0.125 0.5625 0.8125
0.0625 0.5625 0.875
0 0.5625 0.8125
0.0625 0.625 0.8125
0.0625 0.5625 0.8125
0.25 0.5625 0.875
0.25 0.625 0.8125
0.1875 0.625 0.875
0.25 0.5625 0.8125
0.1875 0.5625 0.875
0.1875 0.625 0.8125
0.1875 0.5625 0.8125
0.375 0.5625 0.875
0.375 0.625 0.8125
0.3125 0.625 0.875
0.375 0.5625 0.8125
0.3125 0.5625 0.875
0.3125 0.625 0.8125
0.3125 0.5625 0.8125
0.5 0.5625 0.875
0.5 0.625 0.8125
0.4375 0.625 0.875
0.5 0.5625 0.8125
0.4375 0.5625 0.875
0.4375 0.625 0.8125
0.4375 0.5625 0.8125
0.625 0.5625 0.875
0.625 0.625 0.8125
0.5625 0.625 0.875
0.625 0.5625 0.8125
0.5625 0.5625 0.875
0.5625 0.625 0.8125
0.5625 0.5625 0.8125
0.75 0.5625 0.875
0.75 0.625 0.8125
0.6875 0.625 0.875
0.75 0.5625 0.8125
0.6875 0.5625 0.875
0.6875 0.625 0.8125
0.6875 0.5625 0.8125
0.875 0.5625 0.875
0.875 0.625 0.8125
0.8125 0.625 0.875
0.875 0.5625 0.8125
0.8125 0.5625 0.875
0.8125 0.625 0.8125
0.8125 0.5625 0.8125
1 0.5625 0.875
1 0.625 0.8125
0.9375 0.625 0.875
1 0.5625 0.8125
0.9375 0.5625 0.875
0.9375 0.625 0.8125
0.9375 0.5625 0.8125
1.125 0.5625 0.875
1.125 0.625 0.8125
1.0625 0.625 0.875
1.125 0.5625 0.8125
1.0625 0.5625 0.875
1.0625 0.625 0.8125
1.0625 0.5625 0.8125
1.25 0.5625 0.875
1.25 0.625 0.8125
1.1875 0.625 0.875
1.25 0.5625 0.8125
1.1875 0.5625 0.875
1.1875 0.625 0.8125
1.1875 0.5625 0.8125
1.375 0.5625 0.875
1.375 0.625 0.8125
1.3125 0.625 0.875
1.375 0.5625 0.8125
1.3125 0.5625 0.875
1.3125 0.625 0.8125
1.3125 0.5625 0.8125
1.5 0.5625 0.875
1.5 0.625 0.8125
1.4375 0.625 0.875
1.5 0.5625 0.8125
1.4375 0.5625 0.875
1.4375 0.625 0.8125
1.4375 0.5625 0.8125
1.625 0.5625 0.875
1.625 0.625 0.8125
1.5625 0.625 0.875
1.625 0.5625 0.8125
1.5625 0.5625 0.875
1.5625 0.625 0.8125
1.5625 0.5625 0.8125
1.75 0.5625 0.875
1.75 0.625 0.8125
1.6875 0.625 0.875
1.75 0.5625 0.8125
1.6875 0.5625 0.875
1.6875 0.625 0.8125
1.6875 0.5625 0.8125
1.875 0.5625 0.875
1.875 0.625 0.8125
1.8125 0.625 0.875
1.875 0.5625 0.8125
1.8125 0.5625 0.875
1.8125 0.625 0.8125
1.8125 0.5625 0.8125
2 0.5625 0.875
2 0.625 0.8125
1.9375 0.625 0.875
2 0.5625 0.8125
1.9375 0.5625 0.875
1.9375 0.625 0.8125
1.9375 0.5625 0.8125
2.125 0.5625 0.875
2.125 0.625 0.8125
2.0625 0.625 0.875
2.125 0.5625 0.8125
2.0625 0.5625 0.875
2.0625 0.625 0.8125
2.0625 0.5625 0.8125
2.25 0.5625 0.875
2.25 0.625 0.8125
2.1875 0.625 0.875
2.25 0.5625 0.8125
2.1875 0.5625 0.875
2.1875 0.625 0.8125
2.1875 0.5625 0.8125
2.375 0.5625 0.875
2.375 0.625 0.8125
2.3125 0.625 0.875
2.375 0.5625 0.8125
2.3125 0.5625 0.875
2.3125 0.625 0.8125
2.3125 0.5625 0.8125
2.5 0.5625 0.875
2.5 0.625 0.8125
2.4375 0.625 0.875
2.5 0.5625 0.8125
2.4375 0.5625 0.875
2.4375 0.625 0.8125
2.4375 0.5625 0.8125
2.625 0.5625 0.875
2.625 0.625 0.8125
2.5625 0.625 0.875
2.625 0.5625 0.8125
2.5625 0.5625 0.875
2.5625 0.625 0.8125
2.5625 0.5625 0.8125
2.75 0.5625 0.875
2.75 0.625 0.8125
2.6875 0.625 0.875
2.75 0.5625 0.8125
2.6875 0.5625 0.875
2.6875 0.625 0.8125
2.6875 0.5625 0.8125
2.875 0.5625 0.875
2.875 0.625 0.8125
2.8125 0.625 0.875
2.875 0.5625 0.8125
2.8125 0.5625 0.875
2.8125 0.625 0.8125
2.8125 0.5625 0.8125
3 0.5625 0.875
3 0.625 0.8125
2.9375 0.625 0.875
3 0.5625 0.8125
2.9375 0.5625 0.875
2.9375 0.625 0.8125
2.9375 0.5625 0.8125
0.125 0.6875 0.875
0 0.6875 0.875
0.125 0.75 0.8125
0.0625 0.75 0.875
0 0.75 0.8125
0.125 0.6875 0.8125
0.0625 0.6875 0.875
0 0.6875 0.8125
0.0625 0.75 0.8125
0.0625 0.6875 0.8125
0.25 0.6875 0.875
0.25 0.75 0.8125
0.1875 0.75 0.875
0.25 0.6875 0.8125
0.1875 0.6875 0.875
0.1875 0.75 0.8125
0.1875 0.6875 0.8125
0.375 0.6875 0.875
0.375 0.75 0.8125
0.3125 0.75 0.875
0.375 0.6875 0.8125
0.3125 0.6875 0.875
0.3125 0.75 0.8125
0.3125 0.6875 0.8125
0.5 0.6875 0.875
0.5 0.75 0.8125
0.4375 0.75 0.875
0.5 0.6875 0.8125
0.4375 0.6875 0.875
0.4375 0.75 0.8125
0.4375 0.6875 0.8125
0.625 0.6875 0.875
0.625 0.75 0.8125
0.5625 0.75 0.875
0.625 0.6875 0.8125
0.5625 0.6875 0.875
0.5625 0.75 0.8125
0.5625 0.6875 0.8125
0.75 0.6875 0.875
0.75 0.75 0.8125
0.6875 0.75 0.875
0.75 0.6875 0.8125
0.6875 0.6875 0.875
0.6875 0.75 0.8125
0.6875 0.6875 0.8125
0.875 0.6875 0.875
0.875 0.75 0.8125
0.8125 0.75 0.875
0.875 0.6875 0.8125
0.8125 0.6875 0.875
0.8125 0.75 0.8125
0.8125 0.6875 0.8125
1 0.6875 0.875
1 0.75 0.8125
0.9375 0.75 0.875
1 0.6875 0.8125
0.9375 0.6875 0.875
0.9375 0.75 0.8125
0.9375 0.6875 0.8125
1.125 0.6875 0.875
1.125 0.75 0.8125
1.0625 0.75 0.875
1.125 0.6875 0.8125
1.0625 0.6875 0.875
1.0625 0.75 0.8125
1.0625 0.6875 0.8125
1.25 0.6875 0.875
1.25 0.75 0.8125
1.1875 0.75 0.875
1.25 0.6875 0.8125
1.1875 0.6875 0.875
1.1875 0.75 0.8125
1.1875 0.6875 0.8125
1.375 0.6875 0.875
1.375 0.75 0.8125
1.3125 0.75 0.875
1.375 0.6875 0.8125
1.3125 0.6875 0.875
1.3125 0.75 0.8125
1.3125 0.6875 0.8125
1.5 0.6875 0.875
1.5 0.75 0.8125
1.4375 0.75 0.875
1.5 0.6875 0.8125
1.4375 0.6875 0.875
1.4375 0.75 0.8125
1.4375 0.6875 0.8125
1.625 0.6875 0.875
1.625 0.75 0.8125
1.5625 0.75 0.875
1.625 0.6875 0.8125
1.5625 0.6875 0.875
1.5625 0.75 0.8125
1.5625 0.6875 0.8125
1.75 0.6875 0.875
1.75 0.75 0.8125
1.6875 0.75 0.875
1.75 0.6875 0.8125
1.6875 0.6875 0.875
1.6875 0.75 0.8125
1.6875 0.6875 0.8125
1.875 0.6875 0.875
1.875 0.75 0.8125
1.8125 0.75 0.875
1.875 0.6875 0.8125
1.8125 0.6875 0.875
1.8125 0.75 0.8125
1.8125 0.6875 0.8125
2 0.6875 0.875
2 0.75 0.8125
1.9375 0.75 0.875
2 0.6875 0.8125
1.9375 0.6875 0.875
1.9375 0.75 0.8125
1.9375 0.6875 0.8125
2.125 0.6875 0.875
2.125 0.75 0.8125
2.0625 0.75 0.875
2.125 0.6875 0.8125
2.0625 0.6875 0.875
2.0625 0.75 0.8125
2.0625 0.6875 0.8125
2.25 0.6875 0.875
2.25 0.75 0.8125
2.1875 0.75 0.875
2.25 0.6875 0.8125
2.1875 0.6875 0.875
2.1875 0.75 0.8125
2.1875 0.6875 0.8125
2.375 0.6875 0.875
2.375 0.75 0.8125
2.3125 0.75 0.875
2.375 0.6875 0.8125
2.3125 0.6875 0.875
2.3125 0.75 0.8125
2.3125 0.6875 0.8125
2.5 0.6875 0.875
2.5 0.75 0.8125
2.4375 0.75 0.875
2.5 0.6875 0.8125
2.4375 0.6875 0.875
2.4375 0.75 0.8125
2.4375 0.6875 0.8125
2.625 0.6875 0.875
2.625 0.75 0.8125
2.5625 0.75 0.875
2.625 0.6875 0.8125
2.5625 0.6875 0.875
2.5625 0.75 0.8125
2.5625 0.6875 0.8125
2.75 0.6875 0.875
2.75 0.75 0.8125
2.6875 0.75 0.875
2.75 0.6875 0.8125
2.6875 0.6875 0.875
2.6875 0.75 0.8125
2.6875 0.6875 0.8125
2.875 0.6875 0.875
2.875 0.75 0.8125
2.8125 0.75 0.875
2.875 0.6875 0.8125
2.8125 0.6875 0.875
2.8125 0.75 0.8125
2.8125 0.6875 0.8125
3 0.6875 0.875
3 0.75 0.8125
2.9375 0.75 0.875
3 0.6875 0.8125
2.9375 0.6875 0.875
2.9375 0.75 0.8125
2.9375 0.6875 0.8125
0.125 0.8125 0.875
0 0.8125 0.875
0.125 0.875 0.8125
0.0625 0.875 0.875
0 0.875 0.8125
0.125 0.8125 0.8125
0.0625 0.8125 0.875
0 0.8125 0.8125
0.0625 0.875 0.8125
0.0625 0.8125 0.8125
0.25 0.8125 0.875
0.25 0.875 0.8125
0.1875 0.875 0.875
0.25 0.8125 0.8125
0.1875 0.8125 0.875
0.1875 0.875 0.8125
0.1875 0.8125 0.8125
0.375 0.8125 0.875
0.375 0.875 0.8125
0.3125 0.875 0.875
0.375 0.8125 0.8125
0.3125 0.8125 0.875
0.3125 0.875 0.8125
0.3125 0.8125 0.8125
0.5 0.8125 0.875
0.5 0.875 0.8125
0.4375 0.875 0.875
0.5 0.8125 0.8125
0.4375 0.8125 0.875
0.4375 0.875 0.8125
0.4375 0.8125 0.8125
0.625 0.8125 0.875
0.625 0.875 0.8125
0.5625 0.875 0.875
0.625 0.8125 0.8125
0.5625 0.8125 0.875
0.5625 0.875 0.8125
0.5625 0.8125 0.8125
0.75 0.8125 0.875
0.75 0.875 0.8125
0.6875 0.875 0.875
0.75 0.8125 0.8125
0.6875 0.8125 0.875
0.6875 0.875 0.8125
0.6875 0.8125 0.8125
0.875 0.8125 0.875
0.875 0.875 0.8125
0.8125 0.875 0.875
0.875 0.8125 0.8125
0.8125 0.8125 0.875
0.8125 0.875 0.8125
0.8125 0.8125 0.8125
1 0.8125 0.875
1 0.875 0.8125
0.9375 0.875 0.875
1 0.8125 0.8125
0.9375 0.8125 0.875
0.9375 0.875 0.8125
0.9375 0.8125 0.8125
1.125 0.8125 0.875
1.125 0.875 0.8125
1.0625 0.875 0.875
1.125 0.8125 0.8125
1.0625 0.8125 0.875
1.0625 0.875 0.8125
1.0625 0.8125 0.8125
1.25 0.8125 0.875
1.25 0.875 0.8125
1.1875 0.875 0.875
1.25 0.8125 0.8125
1.1875 0.8125 0.875
1.1875 0.875 0.8125
1.1875 0.8125 0.8125
1.375 0.8125 0.875
1.375 0.875 0.8125
1.3125 0.875 0.875
1.375 0.8125 0.8125
1.3125 0.8125 0.875
1.3125 0.875 0.8125
1.3125 0.8125 0.8125
1.5 0.8125 0.875
1.5 0.875 0.8125
1.4375 0.875 0.875
1.5 0.8125 0.8125
1.4375 0.8125 0.875
1.4375 0.875 0.8125
1.4375 0.8125 0.8125
1.625 0.8125 0.875
1.625 0.875 0.8125
1.5625 0.875 0.875
1.625 0.8125 0.8125
1.5625 0.8125 0.875
1.5625 0.875 0.8125
1.5625 0.8125 0.8125
1.75 0.8125 0.875
1.75 0.875 0.8125
1.6875 0.875 0.875
1.75 0.8125 0.8125
1.6875 0.8125 0.875
1.6875 0.875 0.8125
1.6875 0.8125 0.8125
1.875 0.8125 0.875
1.875 0.875 0.8125
1.8125 0.875 0.875
1.875 0.8125 0.8125
1.8125 0.8125 0.875
1.8125 0.875 0.8125
1.8125 0.8125 0.8125
2 0.8125 0.875
2 0.875 0.8125
1.9375 0.875 0.875
2 0.8125 0.8125
1.9375 0.8125 0.875
1.9375 0.875 0.8125
1.9375 0.8125 0.8125
2.125 0.8125 0.875
2.125 0.875 0.8125
2.0625 0.875 0.875
2.125 0.8125 0.8125
2.0625 0.8125 0.875
2.0625 0.875 0.8125
2.0625 0.8125 0.8125
2.25 0.8125 0.875
2.25 0.875 0.8125
2.1875 0.875 0.875
2.25 0.8125 0.8125
2.1875 0.8125 0.875
2.1875 0.875 0.8125
2.1875 0.8125 0.8125
2.375 0.8125 0.875
2.375 0.875 0.8125
2.3125 0.875 0.875
2.375 0.8125 0.8125
2.3125 0.8125 0.875
2.3125 0.875 0.8125
2.3125 0.8125 0.8125
2.5 0.8125 0.875
2.5 0.875 0.8125
2.4375 0.875 0.875
2.5 0.8125 0.8125
2.4375 0.8125 0.875
2.4375 0.875 0.8125
2.4375 0.8125 0.8125
2.625 0.8125 0.875
2.625 0.875 0.8125
2.5625 0.875 0.875
2.625 0.8125 0.8125
2.5625 0.8125 0.875
2.5625 0.875 0.8125
2.5625 0.8125 0.8125
2.75 0.8125 0.875
2.75 0.875 0.8125
2.6875 0.875 0.875
2.75 0.8125 0.8125
2.6875 0.8125 0.875
2.6875 0.875 0.8125
2.6875 0.8125 0.8125
2.875 0.8125 0.875
2.875 0.875 0.8125
2.8125 0.875 0.875
2.875 0.8125 0.8125
2.8125 0.8125 0.875
2.8125 0.875 0.8125
2.8125 0.8125 0.8125
3 0.8125 0.875
3 0.875 0.8125
2.9375 0.875 0.875
3 0.8125 0.8125
2.9375 0.8125 0.875
2.9375 0.875 0.8125
2.9375 0.8125 0.8125
0.125 0.9375 0.875
0 0.9375 0.875
0.125 1 0.8125
0.0625 1 0.875
0 1 0.8125
0.125 0.9375 0.8125
0.0625 0.9375 0.875
0 0.9375 0.8125
0.0625 1 0.8125
0.0625 0.9375 0.8125
0.25 0.9375 0.875
0.25 1 0.8125
0.1875 1 0.875
0.25 0.9375 0.8125
0.1875 0.9375 0.875
0.1875 1 0.8125
0.1875 0.9375 0.8125
0.375 0.9375 0.875
0.375 1 0.8125
0.3125 1 0.875
0.375 0.9375 0.8125
0.3125 0.9375 0.875
0.3125 1 0.8125
0.3125 0.9375 0.8125
0.5 0.9375 0.875
0.5 1 0.8125
0.4375 1 0.875
0.5 0.9375 0.8125
0.4375 0.9375 0.875
0.4375 1 0.8125
0.4375 0.9375 0.8125
0.625 0.9375 0.875
0.625 1 0.8125
0.5625 1 0.875
0.625 0.9375 0.8125
0.5625 0.9375 0.875
0.5625 1 0.8125
0.5625 0.9375 0.8125
0.75 0.9375 0.875
0.75 1 0.8125
0.6875 1 0.875
0.75 0.9375 0.8125
0.6875 0.9375 0.875
0.6875 1 0.8125
0.6875 0.9375 0.8125
0.875 0.9375 0.875
0.875 1 0.8125
0.8125 1 0.875
0.875 0.9375 0.8125
0.8125 0.9375 0.875
0.8125 1 0.8125
0.8125 0.9375 0.8125
1 0.9375 0.875
1 1 0.8125
0.9375 1 0.875
1 0.9375 0.8125
0.9375 0.9375 0.875
0.9375 1 0.8125
0.9375 0.9375 0.8125
1.125 0.9375 0.875
1.125 1 0.8125
1.0625 1 0.875
1.125 0.9375 0.8125
1.0625 0.9375 0.875
1.0625 1 0.8125
1.0625 0.9375 0.8125
1.25 0.9375 0.875
1.25 1 0.8125
1.1875 1 0.875
1.25 0.9375 0.8125
1.1875 0.9375 0.875
1.1875 1 0.8125
1.1875 0.9375 0.8125
1.375 0.9375 0.875
1.375 1 0.8125
1.3125 1 0.875
1.375 0.9375 0.8125
1.3125 0.9375 0.875
1.3125 1 0.8125
1.3125 0.9375 0.8125
1.5 0.9375 0.875
1.5 1 0.8125
1.4375 1 0.875
1.5 0.9375 0.8125
1.4375 0.9375 0.875
1.4375 1 0.8125
1.4375 0.9375 0.8125
1.625 0.9375 0.875
1.625 1 0.8125
1.5625 1 0.875
1.625 0.9375 0.8125
1.5625 0.9375 0.875
1.5625 1 0.8125
1.5625 0.9375 0.8125
1.75 0.9375 0.875
1.75 1 0.8125
1.6875 1 0.875
1.75 0.9375 0.8125
1.6875 0.9375 0.875
1.6875 1 0.8125
1.6875 0.9375 0.8125
1.875 0.9375 0.875
1.875 1 0.8125
1.8125 1 0.875
1.875 0.9375 0.8125
1.8125 0.9375 0.875
1.8125 1 0.8125
1.8125 0.9375 0.8125
2 0.9375 0.875
2 1 0.8125
1.9375 1 0.875
2 0.9375 0.8125
1.9375 0.9375 0.875
1.9375 1 0.8125
1.9375 0.9375 0.8125
2.125 0.9375 0.875
2.125 1 0.8125
2.0625 1 0.875
2.125 0.9375 0.8125
2.0625 0.9375 0.875
2.0625 1 0.8125
2.0625 0.9375 0.8125
2.25 0.9375 0.875
2.25 1 0.8125
2.1875 1 0.875
2.25 0.9375 0.8125
2.1875 0.9375 0.875
2.1875 1 0.8125
2.1875 0.9375 0.8125
2.375 0.9375 0.875
2.375 1 0.8125
2.3125 1 0.875
2.375 0.9375 0.8125
2.3125 0.9375 0.875
2.3125 1 0.8125
2.3125 0.9375 0.8125
2.5 0.9375 0.875
2.5 1 0.8125
2.4375 1 0.875
2.5 0.9375 0.8125
2.4375 0.9375 0.875
2.4375 1 0.8125
2.4375 0.9375 0.8125
2.625 0.9375 0.875
2.625 1 0.8125
2.5625 1 0.875
2.625 0.9375 0.8125
2.5625 0.9375 0.875
2.5625 1 0.8125
2.5625 0.9375 0.8125
2.75 0.9375 0.875
2.75 1 0.8125
2.6875 1 0.875
2.75 0.9375 0.8125
2.6875 0.9375 0.875
2.6875 1 0.8125
2.6875 0.9375 0.8125
2.875 0.9375 0.875
2.875 1 0.8125
2.8125 1 0.875
2.875 0.9375 0.8125
2.8125 0.9375 0.875
2.8125 1 0.8125
2.8125 0.9375 0.8125
3 0.9375 0.875
3 1 0.8125
2.9375 1 0.875
3 0.9375 0.8125
2.9375 0.9375 0.875
2.9375 1 0.8125
2.9375 0.9375 0.8125
0.125 0 0.9375
0.0625 0 1
0 0 0.9375
0.125 0.0625 1
0 0.0625 1
0.125 0.125 0.9375
0.0625 0.125 1
0 0.125 0.9375
0.0625 0 0.9375
0.125 0.0625 0.9375
0.0625 0.0625 1
0 0.0625 0.9375
0.0625 0.125 0.9375
0.0625 0.0625 0.9375
0.25 0 0.9375
0.1875 0 1
0.25 0.0625 1
0.25 0.125 0.9375
0.1875 0.125 1
0.1875 0 0.9375
0.25 0.0625 0.9375
0.1875 0.0625 1
0.1875 0.125 0.9375
0.1875 0.0625 0.9375
0.375 0 0.9375
0.3125 0 1
0.375 0.0625 1
0.375 0.125 0.9375
0.3125 0.125 1
0.3125 0 0.9375
0.375 0.0625 0.9375
0.3125 0.0625 1
0.3125 0.125 0.9375
0.3125 0.0625 0.9375
0.5 0 0.9375
0.4375 0 1
0.5 0.0625 1
0.5 0.125 0.9375
0.4375 0.125 1
0.4375 0 0.9375
0.5 0.0625 0.9375
0.4375 0.0625 1
0.4375 0.125 0.9375
0.4375 0.0625 0.9375
0.625 0 0.9375
0.5625 0 1
0.625 0.0625 1
0.625 0.125 0.9375
0.5625 0.125 1
0.5625 0 0.9375
0.625 0.0625 0.9375
0.5625 0.0625 1
0.5625 0.125 0.9375
0.5625 0.0625 0.9375
0.75 0 0.9375
0.6875 0 1
0.75 0.0625 1
0.75 0.125 0.9375
0.6875 0.125 1
0.6875 0 0.9375
0.75 0.0625 0.9375
0.6875 0.0625 1
0.6875 0.125 0.9375
0.6875 0.0625 0.9375
0.875 0 0.9375
0.8125 0 1
0.875 0.0625 1
0.875 0.125 0.9375
0.8125 0.125 1
0.8125 0 0.9375
0.875 0.0625 0.9375
0.8125 0.0625 1
0.8125 0.125 0.9375
0.8125 0.0625 0.9375
1 0 0.9375
0.9375 0 1
1 0.0625 1
1 0.125 0.9375
0.9375 0.125 1
0.9375 0 0.9375
1 0.0625 0.9375
0.9375 0.0625 1
0.9375 0.125 0.9375
0.9375 0.0625 0.9375
1.125 0 0.9375
1.0625 0 1
1.125 0.0625 1
1.125 0.125 0.9375
1.0625 0.125 1
1.0625 0 0.9375
1.125 0.0625 0.9375
1.0625 0.0625 1
1.0625 0.125 0.9375
1.0625 0.0625 0.9375
1.25 0 0.9375
1.1875 0 1
1.25 0.0625 1
1.25 0.125 0.9375
1.1875 0.125 1
1.1875 0 0.9375
1.25 0.0625 0.9375
1.1875 0.0625 1
1.1875 0.125 0.9375
1.1875 0.0625 0.9375
1.375 0 0.9375
1.3125 0 1
1.375 0.0625 1
1.375 0.125 0.9375
1.3125 0.125 1
1.3125 0 0.9375
1.375 0.0625 0.9375
1.3125 0.0625 1
1.3125 0.125 0.9375
1.3125 0.0625 0.9375
1.5 0 0.9375
1.4375 0 1
1.5 0.0625 1
1.5 0.125 0.9375
1.4375 0.125 1
1.4375 0 0.9375
1.5 0.0625 0.9375
1.4375 0.0625 1
1.4375 0.125 0.9375
1.4375 0.0625 0.9375
1.625 0 0.9375
1.5625 0 1
1.625 0.0625 1
1.625 0.125 0.9375
1.5625 0.125 1
1.5625 0 0.9375
1.625 0.0625 0.9375
1.5625 0.0625 1
1.5625 0.125 0.9375
1.5625 0.0625 0.9375
1.75 0 0.9375
1.6875 0 1
1.75 0.0625 1
1.75 0.125 0.9375
1.6875 0.125 1
1.6875 0 0.9375
1.75 0.0625 0.9375
1.6875 0.0625 1
1.6875 0.125 0.9375
1.6875 0.0625 0.9375
1.875 0 0.9375
1.8125 0 1
1.875 0.0625 1
1.875 0.125 0.9375
1.8125 0.125 1
1.8125 0 0.9375
1.875 0.0625 0.9375
1.8125 0.0625 1
1.8125 0.125 0.9375
1.8125 0.0625 0.9375
2 0 0.9375
1.9375 0 1
2 0.0625 1
2 0.125 0.9375
1.9375 0.125 1
1.9375 0 0.9375
2 0.0625 0.9375
1.9375 0.0625 1
1.9375 0.125 0.9375
1.9375 0.0625 0.9375
2.125 0 0.9375
2.0625 0 1
2.125 0.0625 1
2.125 0.125 0.9375
2.0625 0.125 1
2.0625 0 0.9375
2.125 0.0625 0.9375
2.0625 0.0625 1
2.0625 0.125 0.9375
2.0625 0.0625 0.9375
2.25 0 0.9375
2.1875 0 1
2.25 0.0625 1
2.25 0.125 0.9375
2.1875 0.125 1
2.1875 0 0.9375
2.25 0.0625 0.9375
2.1875 0.0625 1
2.1875 0.125 0.9375
2.1875 0.0625 0.9375
2.375 0 0.9375
2.3125 0 1
2.375 0.0625 1
2.375 0.125 0.9375
2.3125 0.125 1
2.3125 0 0.9375
2.375 0.0625 0.9375
2.3125 0.0625 1
2.3125 0.125 0.9375
2.3125 0.0625 0.9375
2.5 0 0.9375
2.4375 0 1
2.5 0.0625 1
2.5 0.125 0.9375
2.4375 0.125 1
2.4375 0 0.9375
2.5 0.0625 0.9375
2.4375 0.0625 1
2.4375 0.125 0.9375
2.4375 0.0625 0.9375
2.625 0 0.9375
2.5625 0 1
2.625 0.0625 1
2.625 0.125 0.9375
2.5625 0.125 1
2.5625 0 0.9375
2.625 0.0625 0.9375
2.5625 0.0625 1
2.5625 0.125 0.9375
2.5625 0.0625 0.9375
2.75 0 0.9375
2.6875 0 1
2.75 0.0625 1
2.75 0.125 0.9375
2.6875 0.125 1
2.6875 0 0.9375
2.75 0.0625 0.9375
2.6875 0.0625 1
2.6875 0.125 0.9375
2.6875 0.0625 0.9375
2.875 0 0.9375
2.8125 0 1
2.875 0.0625 1
2.875 0.125 0.9375
2.8125 0.125 1
2.8125 0 0.9375
2.875 0.0625 0.9375
2.8125 0.0625 1
2.8125 0.125 0.9375
2.8125 0.0625 0.9375
3 0 0.9375
2.9375 0 1
3 0.0625 1
3 0.125 0.9375
2.9375 0.125 1
2.9375 0 0.9375
3 0.0625 0.9375
2.9375 0.0625 1
2.9375 0.125 0.9375
2.9375 0.0625 0.9375
0.125 0.1875 1
0 0.1875 1
0.125 0.25 0.9375
0.0625 0.25 1
0 0.25 0.9375
0.125 0.1875 0.9375
0.0625 0.1875 1
0 0.1875 0.9375
0.0625 0.25 0.9375
0.0625 0.1875 0.9375
0.25 0.1875 1
0.25 0.25 0.9375
0.1875 0.25 1
0.25 0.1875 0.9375
0.1875 0.1875 1
0.1875 0.25 0.9375
0.1875 0.1875 0.9375
0.375 0.1875 1
0.375 0.25 0.9375
0.3125 0.25 1
0.375 0.1875 0.9375
0.3125 0.1875 1
0.3125 0.25 0.9375
0.3125 0.1875 0.9375
0.5 0.1875 1
0.5 0.25 0.9375
0.4375 0.25 1
0.5 0.1875 0.9375
0.4375 0.1875 1
0.4375 0.25 0.9375
0.4375 0.1875 0.9375
0.625 0.1875 1
0.625 0.25 0.9375
0.5625 0.25 1
0.625 0.1875 0.9375
0.5625 0.1875 1
0.5625 0.25 0.9375
0.5625 0.1875 0.9375
0.75 0.1875 1
0.75 0.25 0.9375
0.6875 0.25 1
0.75 0.1875 0.9375
0.6875 0.1875 1
0.6875 0.25 0.9375
0.6875 0.1875 0.9375
0.875 0.1875 1
0.875 0.25 0.9375
0.8125 0.25 1
0.875 0.1875 0.9375
0.8125 0.1875 1
0.8125 0.25 0.9375
0.8125 0.1875 0.9375
1 0.1875 1
1 0.25 0.9375
0.9375 0.25 1
1 0.1875 0.9375
0.9375 0.1875 1
0.9375 0.25 0.9375
0.9375 0.1875 0.9375
1.125 0.1875 1
1.125 0.25 0.9375
1.0625 0.25 1
1.125 0.1875 0.9375
1.0625 0.1875 1
1.0625 0.25 0.9375
1.0625 0.1875 0.9375
1.25 0.1875 1
1.25 0.25 0.9375
1.1875 0.25 1
1.25 0.1875 0.9375
1.1875 0.1875 1
1.1875 0.25 0.9375
1.1875 0.1875 0.9375
1.375 0.1875 1
1.375 0.25 0.9375
1.3125 0.25 1
1.375 0.1875 0.9375
1.3125 0.1875 1
1.3125 0.25 0.9375
1.3125 0.1875 0.9375
1.5 0.1875 1
1.5 0.25 0.9375
1.4375 0.25 1
1.5 0.1875 0.9375
1.4375 0.1875 1
1.4375 0.25 0.9375
1.4375 0.1875 0.9375
1.625 0.1875 1
1.625 0.25 0.9375
1.5625 0.25 1
1.625 0.1875 0.9375
1.5625 0.1875 1
1.5625 0.25 0.9375
1.5625 0.1875 0.9375
1.75 0.1875 1
1.75 0.25 0.9375
1.6875 0.25 1
1.75 0.1875 0.9375
1.6875 0.1875 1
1.6875 0.25 0.9375
1.6875 0.1875 0.9375
1.875 0.1875 1
1.875 0.25 0.9375
1.8125 0.25 1
1.875 0.1875 0.9375
1.8125 0.1875 1
1.8125 0.25 0.9375
1.8125 0.1875 0.9375
2 0.1875 1
2 0.25 0.9375
1.9375 0.25 1
2 0.1875 0.9375
1.9375 0.1875 1
1.9375 0.25 0.9375
1.9375 0.1875 0.9375
2.125 0.1875 1
2.125 0.25 0.9375
2.0625 0.25 1
2.125 0.1875 0.9375
2.0625 0.1875 1
2.0625 0.25 0.9375
2.0625 0.1875 0.9375
2.25 0.1875 1
2.25 0.25 0.9375
2.1875 0.25 1
2.25 0.1875 0.9375
2.1875 0.1875 1
2.1875 0.25 0.9375
2.1875 0.1875 0.9375
2.375 0.1875 1
2.375 0.25 0.9375
2.3125 0.25 1
2.375 0.1875 0.9375
2.3125 0.1875 1
2.3125 0.25 0.9375
2.3125 0.1875 0.9375
2.5 0.1875 1
2.5 0.25 0.9375
2.4375 0.25 1
2.5 0.1875 0.9375
2.4375 0.1875 1
2.4375 0.25 0.9375
2.4375 0.1875 0.9375
2.625 0.1875 1
2.625 0.25 0.9375
2.5625 0.25 1
2.625 0.1875 0.9375
2.5625 0.1875 1
2.5625 0.25 0.9375
2.5625 0.1875 0.9375
2.75 0.1875 1
2.75 0.25 0.9375
2.6875 0.25 1
2.75 0.1875 0.9375
2.6875 0.1875 1
2.6875 0.25 0.9375
2.6875 0.1875 0.9375
2.875 0.1875 1
2.875 0.25 0.9375
2.8125 0.25 1
2.875 0.1875 0.9375
2.8125 0.1875 1
2.8125 0.25 0.9375
2.8125 0.1875 0.9375
3 0.1875 1
3 0.25 0.9375
2.9375 0.25 1
3 0.1875 0.9375
2.9375 0.1875 1
2.9375 0.25 0.9375
2.9375 0.1875 0.9375
0.125 0.3125 1
0 0.3125 1
0.125 0.375 0.9375
0.0625 0.375 1
0 0.375 0.9375
0.125 0.3125 0.9375
0.0625 0.3125 1
0 0.3125 0.9375
0.0625 0.375 0.9375
0.0625 0.3125 0.9375
0.25 0.3125 1
0.25 0.375 0.9375
0.1875 0.375 1
0.25 0.3125 0.9375
0.1875 0.3125 1
0.1875 0.375 0.9375
0.1875 0.3125 0.9375
0.375 0.3125 1
0.375 0.375 0.9375
0.3125 0.375 1
0.375 0.3125 0.9375
0.3125 0.3125 1
0.3125 0.375 0.9375
0.3125 0.3125 0.9375
0.5 0.3125 1
0.5 0.375 0.9375
0.4375 0.375 1
0.5 0.3125 0.9375
0.4375 0.3125 1
0.4375 0.375 0.9375
0.4375 0.3125 0.9375
0.625 0.3125 1
0.625 0.375 0.9375
0.5625 0.375 1
0.625 0.3125 0.9375
0.5625 0.3125 1
0.5625 0.375 0.9375
0.5625 0.3125 0.9375
0.75 0.3125 1
0.75 0.375 0.9375
0.6875 0.375 1
0.75 0.3125 0.9375
0.6875 0.3125 1
0.6875 0.375 0.9375
0.6875 0.3125 0.9375
0.875 0.3125 1
0.875 0.375 0.9375
0.8125 0.375 1
0.875 0.3125 0.9375
0.8125 0.3125 1
0.8125 0.375 0.9375
0.8125 0.3125 0.9375
1 0.3125 1
1 0.375 0.9375
0.9375 0.375 1
1 0.3125 0.9375
0.9375 0.3125 1
0.9375 0.375 0.9375
0.9375 0.3125 0.9375
1.125 0.3125 1
1.125 0.375 0.9375
1.0625 0.375 1
1.125 0.3125 0.9375
1.0625 0.3125 1
1.0625 0.375 0.9375
1.0625 0.3125 0.9375
1.25 0.3125 1
1.25 0.375 0.9375
1.1875 0.375 1
1.25 0.3125 0.9375
1.1875 0.3125 1
1.1875 0.375 0.9375
1.1875 0.3125 0.9375
1.375 0.3125 1
1.375 0.375 0.9375
1.3125 0.375 1
1.375 0.3125 0.9375
1.3125 0.3125 1
1.3125 0.375 0.9375
1.3125 0.3125 0.9375
1.5 0.3125 1
1.5 0.375 0.9375
1.4375 0.375 1
1.5 0.3125 0.9375
1.4375 0.3125 1
1.4375 0.375 0.9375
1.4375 0.3125 0.9375
1.625 0.3125 1
1.625 0.375 0.9375
1.5625 0.375 1
1.625 0.3125 0.9375
1.5625 0.3125 1
1.5625 0.375 0.9375
1.5625 0.3125 0.9375
1.75 0.3125 1
1.75 0.375 0.9375
1.6875 0.375 1
1.75 0.3125 0.9375
1.6875 0.3125 1
1.6875 0.375 0.9375
1.6875 0.3125 0.9375
1.875 0.3125 1
1.875 0.375 0.9375
1.8125 0.375 1
1.875 0.3125 0.9375
1.8125 0.3125 1
1.8125 0.375 0.9375
1.8125 0.3125 0.9375
2 0.3125 1
2 0.375 0.9375
1.9375 0.375 1
2 0.3125 0.9375
1.9375 0.3125 1
1.9375 0.375 0.9375
1.9375 0.3125 0.9375
2.125 0.3125 1
2.125 0.375 0.9375
2.0625 0.375 1
2.125 0.3125 0.9375
2.0625 0.3125 1
2.0625 0.375 0.9375
2.0625 0.3125 0.9375
2.25 0.3125 1
2.25 0.375 0.9375
2.1875 0.375 1
2.25 0.3125 0.9375
2.1875 0.3125 1
2.1875 0.375 0.9375
2.1875 0.3125 0.9375
2.375 0.3125 1
2.375 0.375 0.9375
2.3125 0.375 1
2.375 0.3125 0.9375
2.3125 0.3125 1
2.3125 0.375 0.9375
2.3125 0.3125 0.9375
2.5 0.3125 1
2.5 0.375 0.9375
2.4375 0.375 1
2.5 0.3125 0.9375
2.4375 0.3125 1
2.4375 0.375 0.9375
2.4375 0.3125 0.9375
2.625 0.3125 1
2.625 0.375 0.9375
2.5625 0.375 1
2.625 0.3125 0.9375
2.5625 0.3125 1
2.5625 0.375 0.9375
2.5625 0.3125 0.9375
2.75 0.3125 1
2.75 0.375 0.9375
2.6875 0.375 1
2.75 0.3125 0.9375
2.6875 0.3125 1
2.6875 0.375 0.9375
2.6875 0.3125 0.9375
2.875 0.3125 1
2.875 0.375 0.9375
2.8125 0.375 1
2.875 0.3125 0.9375
2.8125 0.3125 1
2.8125 0.375 0.9375
2.8125 0.3125 0.9375
3 0.3125 1
3 0.375 0.9375
2.9375 0.375 1
3 0.3125 0.9375
2.9375 0.3125 1
2.9375 0.375 0.9375
2.9375 0.3125 0.9375
0.125 0.4375 1
0 0.4375 1
0.125 0.5 0.9375
0.0625 0.5 1
0 0.5 0.9375
0.125 0.4375 0.9375
0.0625 0.4375 1
0 0.4375 0.9375
0.0625 0.5 0.9375
0.0625 0.4375 0.9375
0.25 0.4375 1
0.25 0.5 0.9375
0.1875 0.5 1
0.25 0.4375 0.9375
0.1875 0.4375 1
0.1875 0.5 0.9375
0.1875 0.4375 0.9375
0.375 0.4375 1
0.375 0.5 0.9375
0.3125 0.5 1
0.375 0.4375 0.9375
0.3125 0.4375 1
0.3125 0.5 0.9375
0.3125 0.4375 0.9375
0.5 0.4375 1
0.5 0.5 0.9375
0.4375 0.5 1
0.5 0.4375 0.9375
0.4375 0.4375 1
0.4375 0.5 0.9375
0.4375 0.4375 0.9375
0.625 0.4375 1
0.625 0.5 0.9375
0.5625 0.5 1
0.625 0.4375 0.9375
0.5625 0.4375 1
0.5625 0.5 0.9375
0.5625 0.4375 0.9375
0.75 0.4375 1
0.75 0.5 0.9375
0.6875 0.5 1
0.75 0.4375 0.9375
0.6875 0.4375 1
0.6875 0.5 0.9375
0.6875 0.4375 0.9375
0.875 0.4375 1
0.875 0.5 0.9375
0.8125 0.5 1
0.875 0.4375 0.9375
0.8125 0.4375 1
0.8125 0.5 0.9375
0.8125 0.4375 0.9375
1 0.4375 1
1 0.5 0.9375
0.9375 0.5 1
1 0.4375 0.9375
0.9375 0.4375 1
0.9375 0.5 0.9375
0.9375 0.4375 0.9375
1.125 0.4375 1
1.125 0.5 0.9375
1.0625 0.5 1
1.125 0.4375 0.9375
1.0625 0.4375 1
1.0625 0.5 0.9375
1.0625 0.4375 0.9375
1.25 0.4375 1
1.25 0.5 0.9375
1.1875 0.5 1
1.25 0.4375 0.9375
1.1875 0.4375 1
1.1875 0.5 0.9375
1.1875 0.4375 0.9375
1.375 0.4375 1
1.375 0.5 0.9375
1.3125 0.5 1
1.375 0.4375 0.9375
1.3125 0.4375 1
1.3125 0.5 0.9375
1.3125 0.4375 0.9375
1.5 0.4375 1
1.5 0.5 0.9375
1.4375 0.5 1
1.5 0.4375 0.9375
1.4375 0.4375 1
1.4375 0.5 0.9375
1.4375 0.4375 0.9375
1.625 0.4375 1
1.625 0.5 0.9375
1.5625 0.5 1
1.625 0.4375 0.9375
1.5625 0.4375 1
1.5625 0.5 0.9375
1.5625 0.4375 0.9375
1.75 0.4375 1
1.75 0.5 0.9375
1.6875 0.5 1
1.75 0.4375 0.9375
1.6875 0.4375 1
1.6875 0.5 0.9375
1.6875 0.4375 0.9375
1.875 0.4375 1
1.875 0.5 0.9375
1.8125 0.5 1
1.875 0.4375 0.9375
1.8125 0.4375 1
1.8125 0.5 0.9375
1.8125 0.4375 0.9375
2 0.4375 1
2 0.5 0.9375
1.9375 0.5 1
2 0.4375 0.9375
1.9375 0.4375 1
1.9375 0.5 0.9375
1.9375 0.4375 0.9375
2.125 0.4375 1
2.125 0.5 0.9375
2.0625 0.5 1
2.125 0.4375 0.9375
2.0625 0.4375 1
2.0625 0.5 0.9375
2.0625 0.4375 0.9375
2.25 0.4375 1
2.25 0.5 0.9375
2.1875 0.5 1
2.25 0.4375 0.9375
2.1875 0.4375 1
2.1875 0.5 0.9375
2.1875 0.4375 0.9375
2.375 0.4375 1
2.375 0.5 0.9375
2.3125 0.5 1
2.375 0.4375 0.9375
2.3125 0.4375 1
2.3125 0.5 0.9375
2.3125 0.4375 0.9375
2.5 0.4375 1
2.5 0.5 0.9375
2.4375 0.5 1
2.5 0.4375 0.9375
2.4375 0.4375 1
2.4375 0.5 0.9375
2.4375 0.4375 0.9375
2.625 0.4375 1
2.625 0.5 0.9375
2.5625 0.5 1
2.625 0.4375 0.9375
2.5625 0.4375 1
2.5625 0.5 0.9375
2.5625 0.4375 0.9375
2.75 0.4375 1
2.75 0.5 0.9375
2.6875 0.5 1
2.75 0.4375 0.9375
2.6875 0.4375 1
2.6875 0.5 0.9375
2.6875 0.4375 0.9375
2.875 0.4375 1
2.875 0.5 0.9375
2.8125 0.5 1
2.875 0.4375 0.9375
2.8125 0.4375 1
2.8125 0.5 0.9375
2.8125 0.4375 0.9375
3 0.4375 1
3 0.5 0.9375
2.9375 0.5 1
3 0.4375 0.9375
2.9375 0.4375 1
2.9375 0.5 0.9375
2.9375 0.4375 0.9375
0.125 0.5625 1
0 0.5625 1
0.125 0.625 0.9375
0.0625 0.625 1
0 0.625 0.9375
0.125 0.5625 0.9375
0.0625 0.5625 1
0 0.5625 0.9375
0.0625 0.625 0.9375
0.0625 0.5625 0.9375
0.25 0.5625 1
0.25 0.625 0.9375
0.1875 0.625 1
0.25 0.5625 0.9375
0.1875 0.5625 1
0.1875 0.625 0.9375
0.1875 0.5625 0.9375
0.375 0.5625 1
0.375 0.625 0.9375
0.3125 0.625 1
0.375 0.5625 0.9375
0.3125 0.5625 1
0.3125 0.625 0.9375
0.3125 0.5625 0.9375
0.5 0.5625 1
0.5 0.625 0.9375
0.4375 0.625 1
0.5 0.5625 0.9375
0.4375 0.5625 1
0.4375 0.625 0.9375
0.4375 0.5625 0.9375
0.625 0.5625 1
0.625 0.625 0.9375
0.5625 0.625 1
0.625 0.5625 0.9375
0.5625 0.5625 1
0.5625 0.625 0.9375
0.5625 0.5625 0.9375
0.75 0.5625 1
0.75 0.625 0.9375
0.6875 0.625 1
0.75 0.5625 0.9375
0.6875 0.5625 1
0.6875 0.625 0.9375
0.6875 0.5625 0.9375
0.875 0.5625 1
0.875 0.625 0.9375
0.8125 0.625 1
0.875 0.5625 0.9375
0.8125 0.5625 1
0.8125 0.625 0.9375
0.8125 0.5625 0.9375
1 0.5625 1
1 0.625 0.9375
0.9375 0.625 1
1 0.5625 0.9375
0.9375 0.5625 1
0.9375 0.625 0.9375
0.9375 0.5625 0.9375
1.125 0.5625 1
1.125 0.625 0.9375
1.0625 0.625 1
1.125 0.5625 0.9375
1.0625 0.5625 1
1.0625 0.625 0.9375
1.0625 0.5625 0.9375
1.25 0.5625 1
1.25 0.625 0.9375
1.1875 0.625 1
1.25 0.5625 0.9375
1.1875 0.5625 1
1.1875 0.625 0.9375
1.1875 0.5625 0.9375
1.375 0.5625 1
1.375 0.625 0.9375
1.3125 0.625 1
1.375 0.5625 0.9375
1.3125 0.5625 1
1.3125 0.625 0.9375
1.3125 0.5625 0.9375
1.5 0.5625 1
1.5 0.625 0.9375
1.4375 0.625 1
1.5 0.5625 0.9375
1.4375 0.5625 1
1.4375 0.625 0.9375
1.4375 0.5625 0.9375
1.625 0.5625 1
1.625 0.625 0.9375
1.5625 0.625 1
1.625 0.5625 0.9375
1.5625 0.5625 1
1.5625 0.625 0.9375
1.5625 0.5625 0.9375
1.75 0.5625 1
1.75 0.625 0.9375
1.6875 0.625 1
1.75 0.5625 0.9375
1.6875 0.5625 1
1.6875 0.625 0.9375
1.6875 0.5625 0.9375
1.875 0.5625 1
1.875 0.625 0.9375
1.8125 0.625 1
1.875 0.5625 0.9375
1.8125 0.5625 1
1.8125 0.625 0.9375
1.8125 0.5625 0.9375
2 0.5625 1
2 0.625 0.9375
1.9375 0.625 1
2 0.5625 0.9375
1.9375 0.5625 1
1.9375 0.625 0.9375
1.9375 0.5625 0.9375
2.125 0.5625 1
2.125 0.625 0.9375
2.0625 0.625 1
2.125 0.5625 0.9375
2.0625 0.5625 1
2.0625 0.625 0.9375
2.0625 0.5625 0.9375
2.25 0.5625 1
2.25 0.625 0.9375
2.1875 0.625 1
2.25 0.5625 0.9375
2.1875 0.5625 1
2.1875 0.625 0.9375
2.1875 0.5625 0.9375
2.375 0.5625 1
2.375 0.625 0.9375
2.3125 0.625 1
2.375 0.5625 0.9375
2.3125 0.5625 1
2.3125 0.625 0.9375
2.3125 0.5625 0.9375
2.5 0.5625 1
2.5 0.625 0.9375
2.4375 0.625 1
2.5 0.5625 0.9375
2.4375 0.5625 1
2.4375 0.625 0.9375
2.4375 0.5625 0.9375
2.625 0.5625 1
2.625 0.625 0.9375
2.5625 0.625 1
2.625 0.5625 0.9375
2.5625 0.5625 1
2.5625 0.625 0.9375
2.5625 0.5625 0.9375
2.75 0.5625 1
2.75 0.625 0.9375
2.6875 0.625 1
2.75 0.5625 0.9375
2.6875 0.5625 1
2.6875 0.625 0.9375
2.6875 0.5625 0.9375
2.875 0.5625 1
2.875 0.625 0.9375
2.8125 0.625 1
2.875 0.5625 0.9375
2.8125 0.5625 1
2.8125 0.625 0.9375
2.8125 0.5625 0.9375
3 0.5625 1
3 0.625 0.9375
2.9375 0.625 1
3 0.5625 0.9375
2.9375 0.5625 1
2.9375 0.625 0.9375
2.9375 0.5625 0.9375
0.125 0.6875 1
0 0.6875 1
0.125 0.75 0.9375
0.0625 0.75 1
0 0.75 0.9375
0.125 0.6875 0.9375
0.0625 0.6875 1
0 0.6875 0.9375
0.0625 0.75 0.9375
0.0625 0.6875 0.9375
0.25 0.6875 1
0.25 0.75 0.9375
0.1875 0.75 1
0.25 0.6875 0.9375
0.1875 0.6875 1
0.1875 0.75 0.9375
0.1875 0.6875 0.9375
0.375 0.6875 1
0.375 0.75 0.9375
0.3125 0.75 1
0.375 0.6875 0.9375
0.3125 0.6875 1
0.3125 0.75 0.9375
0.3125 0.6875 0.9375
0.5 0.6875 1
0.5 0.75 0.9375
0.4375 0.75 1
0.5 0.6875 0.9375
0.4375 0.6875 1
0.4375 0.75 0.9375
0.4375 0.6875 0.9375
0.625 0.6875 1
0.625 0.75 0.9375
0.5625 0.75 1
0.625 0.6875 0.9375
0.5625 0.6875 1
0.5625 0.75 0.9375
0.5625 0.6875 0.9375
0.75 0.6875 1
0.75 0.75 0.9375
0.6875 0.75 1
0.75 0.6875 0.9375
0.6875 0.6875 1
0.6875 0.75 0.9375
0.6875 0.6875 0.9375
0.875 0.6875 1
0.875 0.75 0.9375
0.8125 0.75 1
0.875 0.6875 0.9375
0.8125 0.6875 1
0.8125 0.75 0.9375
0.8125 0.6875 0.9375
1 0.6875 1
1 0.75 0.9375
0.9375 0.75 1
1 0.6875 0.9375
0.9375 0.6875 1
0.9375 0.75 0.9375
0.9375 0.6875 0.9375
1.125 0.6875 1
1.125 0.75 0.9375
1.0625 0.75 1
1.125 0.6875 0.9375
1.0625 0.6875 1
1.0625 0.75 0.9375
1.0625 0.6875 0.9375
1.25 0.6875 1
1.25 0.75 0.9375
1.1875 0.75 1
1.25 0.6875 0.9375
1.1875 0.6875 1
1.1875 0.75 0.9375
1.1875 0.6875 0.9375
1.375 0.6875 1
1.375 0.75 0.9375
1.3125 0.75 1
1.375 0.6875 0.9375
1.3125 0.6875 1
1.3125 0.75 0.9375
1.3125 0.6875 0.9375
1.5 0.6875 1
1.5 0.75 0.9375
1.4375 0.75 1
1.5 0.6875 0.9375
1.4375 0.6875 1
1.4375 0.75 0.9375
1.4375 0.6875 0.9375
1.625 0.6875 1
1.625 0.75 0.9375
1.5625 0.75 1
1.625 0.6875 0.9375
1.5625 0.6875 1
1.5625 0.75 0.9375
1.5625 0.6875 0.9375
1.75 0.6875 1
1.75 0.75 0.9375
1.6875 0.75 1
1.75 0.6875 0.9375
1.6875 0.6875 1
1.6875 0.75 0.9375
1.6875 0.6875 0.9375
1.875 0.6875 1
1.875 0.75 0.9375
1.8125 0.75 1
1.875 0.6875 0.9375
1.8125 0.6875 1
1.8125 0.75 0.9375
1.8125 0.6875 0.9375
2 0.6875 1
2 0.75 0.9375
1.9375 0.75 1
2 0.6875 0.9375
1.9375 0.6875 1
1.9375 0.75 0.9375
1.9375 0.6875 0.9375
2.125 0.6875 1
2.125 0.75 0.9375
2.0625 0.75 1
2.125 0.6875 0.9375
2.0625 0.6875 1
2.0625 0.75 0.9375
2.0625 0.6875 0.9375
2.25 0.6875 1
2.25 0.75 0.9375
2.1875 0.75 1
2.25 0.6875 0.9375
2.1875 0.6875 1
2.1875 0.75 0.9375
2.1875 0.6875 0.9375
2.375 0.6875 1
2.375 0.75 0.9375
2.3125 0.75 1
2.375 0.6875 0.9375
2.3125 0.6875 1
2.3125 0.75 0.9375
2.3125 0.6875 0.9375
2.5 0.6875 1
2.5 0.75 0.9375
2.4375 0.75 1
2.5 0.6875 0.9375
2.4375 0.6875 1
2.4375 0.75 0.9375
2.4375 0.6875 0.9375
2.625 0.6875 1
2.625 0.75 0.9375
2.5625 0.75 1
2.625 0.6875 0.9375
2.5625 0.6875 1
2.5625 0.75 0.9375
2.5625 0.6875 0.9375
2.75 0.6875 1
2.75 0.75 0.9375
2.6875 0.75 1
2.75 0.6875 0.9375
2.6875 0.6875 1
2.6875 0.75 0.9375
2.6875 0.6875 0.9375
2.875 0.6875 1
2.875 0.75 0.9375
2.8125 0.75 1
2.875 0.6875 0.9375
2.8125 0.6875 1
2.8125 0.75 0.9375
2.8125 0.6875 0.9375
3 0.6875 1
3 0.75 0.9375
2.9375 0.75 1
3 0.6875 0.9375
2.9375 0.6875 1
2.9375 0.75 0.9375
2.9375 0.6875 0.9375
0.125 0.8125 1
0 0.8125 1
0.125 0.875 0.9375
0.0625 0.875 1
0 0.875 0.9375
0.125 0.8125 0.9375
0.0625 0.8125 1
0 0.8125 0.9375
0.0625 0.875 0.9375
0.0625 0.8125 0.9375
0.25 0.8125 1
0.25 0.875 0.9375
0.1875 0.875 1
0.25 0.8125 0.9375
0.1875 0.8125 1
0.1875 0.875 0.9375
0.1875 0.8125 0.9375
0.375 0.8125 1
0.375 0.875 0.9375
0.3125 0.875 1
0.375 0.8125 0.9375
0.3125 0.8125 1
0.3125 0.875 0.9375
0.3125 0.8125 0.9375
0.5 0.8125 1
0.5 0.875 0.9375
0.4375 0.875 1
0.5 0.8125 0.9375
0.4375 0.8125 1
0.4375 0.875 0.9375
0.4375 0.8125 0.9375
0.625 0.8125 1
0.625 0.875 0.9375
0.5625 0.875 1
0.625 0.8125 0.9375
0.5625 0.8125 1
0.5625 0.875 0.9375
0.5625 0.8125 0.9375
0.75 0.8125 1
0.75 0.875 0.9375
0.6875 0.875 1
0.75 0.8125 0.9375
0.6875 0.8125 1
0.6875 0.875 0.9375
0.6875 0.8125 0.9375
0.875 0.8125 1
0.875 0.875 0.9375
0.8125 0.875 1
0.875 0.8125 0.9375
0.8125 0.8125 1
0.8125 0.875 0.9375
0.8125 0.8125 0.9375
1 0.8125 1
1 0.875 0.9375
0.9375 0.875 1
1 0.8125 0.9375
0.9375 0.8125 1
0.9375 0.875 0.9375
0.9375 0.8125 0.9375
1.125 0.8125 1
1.125 0.875 0.9375
1.0625 0.875 1
1.125 0.8125 0.9375
1.0625 0.8125 1
1.0625 0.875 0.9375
1.0625 0.8125 0.9375
1.25 0.8125 1
1.25 0.875 0.9375
1.1875 0.875 1
1.25 0.8125 0.9375
1.1875 0.8125 1
1.1875 0.875 0.9375
1.1875 0.8125 0.9375
1.375 0.8125 1
1.375 0.875 0.9375
1.3125 0.875 1
1.375 0.8125 0.9375
1.3125 0.8125 1
1.3125 0.875 0.9375
1.3125 0.8125 0.9375
1.5 0.8125 1
1.5 0.875 0.9375
1.4375 0.875 1
1.5 0.8125 0.9375
1.4375 0.8125 1
1.4375 0.875 0.9375
1.4375 0.8125 0.9375
1.625 0.8125 1
1.625 0.875 0.9375
1.5625 0.875 1
1.625 0.8125 0.9375
1.5625 0.8125 1
1.5625 0.875 0.9375
1.5625 0.8125 0.9375
1.75 0.8125 1
1.75 0.875 0.9375
1.6875 0.875 1
1.75 0.8125 0.9375
1.6875 0.8125 1
1.6875 0.875 0.9375
1.6875 0.8125 0.9375
1.875 0.8125 1
1.875 0.875 0.9375
1.8125 0.875 1
1.875 0.8125 0.9375
1.8125 0.8125 1
1.8125 0.875 0.9375
1.8125 0.8125 0.9375
2 0.8125 1
2 0.875 0.9375
1.9375 0.875 1
2 0.8125 0.9375
1.9375 0.8125 1
1.9375 0.875 0.9375
1.9375 0.8125 0.9375
2.125 0.8125 1
2.125 0.875 0.9375
2.0625 0.875 1
2.125 0.8125 0.9375
2.0625 0.8125 1
2.0625 0.875 0.9375
2.0625 0.8125 0.9375
2.25 0.8125 1
2.25 0.875 0.9375
2.1875 0.875 1
2.25 0.8125 0.9375
2.1875 0.8125 1
2.1875 0.875 0.9375
2.1875 0.8125 0.9375
2.375 0.8125 1
2.375 0.875 0.9375
2.3125 0.875 1
2.375 0.8125 0.9375
2.3125 0.8125 1
2.3125 0.875 0.9375
2.3125 0.8125 0.9375
2.5 0.8125 1
2.5 0.875 0.9375
2.4375 0.875 1
2.5 0.8125 0.9375
2.4375 0.8125 1
2.4375 0.875 0.9375
2.4375 0.8125 0.9375
2.625 0.8125 1
2.625 0.875 0.9375
2.5625 0.875 1
2.625 0.8125 0.9375
2.5625 0.8125 1
2.5625 0.875 0.9375
2.5625 0.8125 0.9375
2.75 0.8125 1
2.75 0.875 0.9375
2.6875 0.875 1
2.75 0.8125 0.9375
2.6875 0.8125 1
2.6875 0.875 0.9375
2.6875 0.8125 0.9375
2.875 0.8125 1
2.875 0.875 0.9375
2.8125 0.875 1
2.875 0.8125 0.9375
2.8125 0.8125 1
2.8125 0.875 0.9375
2.8125 0.8125 0.9375
3 0.8125 1
3 0.875 0.9375
2.9375 0.875 1
3 0.8125 0.9375
2.9375 0.8125 1
2.9375 0.875 0.9375
2.9375 0.8125 0.9375
0.125 0.9375 1
0 0.9375 1
0.125 1 0.9375
0.0625 1 1
0 1 0.9375
0.125 0.9375 0.9375
0.0625 0.9375 1
0 0.9375 0.9375
0.0625 1 0.9375
0.0625 0.9375 0.9375
0.25 0.9375 1
0.25 1 0.9375
0.1875 1 1
0.25 0.9375 0.9375
0.1875 0.9375 1
0.1875 1 0.9375
0.1875 0.9375 0.9375
0.375 0.9375 1
0.375 1 0.9375
0.3125 1 1
0.375 0.9375 0.9375
0.3125 0.9375 1
0.3125 1 0.9375
0.3125 0.9375 0.9375
0.5 0.9375 1
0.5 1 0.9375
0.4375 1 1
0.5 0.9375 0.9375
0.4375 0.9375 1
0.4375 1 0.9375
0.4375 0.9375 0.9375
0.625 0.9375 1
0.625 1 0.9375
0.5625 1 1
0.625 0.9375 0.9375
0.5625 0.9375 1
0.5625 1 0.9375
0.5625 0.9375 0.9375
0.75 0.9375 1
0.75 1 0.9375
0.6875 1 1
0.75 0.9375 0.9375
0.6875 0.9375 1
0.6875 1 0.9375
0.6875 0.9375 0.9375
0.875 0.9375 1
0.875 1 0.9375
0.8125 1 1
0.875 0.9375 0.9375
0.8125 0.9375 1
0.8125 1 0.9375
0.8125 0.9375 0.9375
1 0.9375 1
1 1 0.9375
0.9375 1 1
1 0.9375 0.9375
0.9375 0.9375 1
0.9375 1 0.9375
0.9375 0.9375 0.9375
1.125 0.9375 1
1.125 1 0.9375
1.0625 1 1
1.125 0.9375 0.9375
1.0625 0.9375 1
1.0625 1 0.9375
1.0625 0.9375 0.9375
1.25 0.9375 1
1.25 1 0.9375
1.1875 1 1
1.25 0.9375 0.9375
1.1875 0.9375 1
1.1875 1 0.9375
1.1875 0.9375 0.9375
1.375 0.9375 1
1.375 1 0.9375
1.3125 1 1
1.375 0.9375 0.9375
1.3125 0.9375 1
1.3125 1 0.9375
1.3125 0.9375 0.9375
1.5 0.9375 1
1.5 1 0.9375
1.4375 1 1
1.5 0.9375 0.9375
1.4375 0.9375 1
1.4375 1 0.9375
1.4375 0.9375 0.9375
1.625 0.9375 1
1.625 1 0.9375
1.5625 1 1
1.625 0.9375 0.9375
1.5625 0.9375 1
1.5625 1 0.9375
1.5625 0.9375 0.9375
1.75 0.9375 1
1.75 1 0.9375
1.6875 1 1
1.75 0.9375 0.9375
1.6875 0.9375 1
1.6875 1 0.9375
1.6875 0.9375 0.9375
1.875 0.9375 1
1.875 1 0.9375
1.8125 1 1
1.875 0.9375 0.9375
1.8125 0.9375 1
1.8125 1 0.9375
1.8125 0.9375 0.9375
2 0.9375 1
2 1 0.9375
1.9375 1 1
2 0.9375 0.9375
1.9375 0.9375 1
1.9375 1 0.9375
1.9375 0.9375 0.9375
2.125 0.9375 1
2.125 1 0.9375
2.0625 1 1
2.125 0.9375 0.9375
2.0625 0.9375 1
2.0625 1 0.9375
2.0625 0.9375 0.9375
2.25 0.9375 1
2.25 1 0.9375
2.1875 1 1
2.25 0.9375 0.9375
2.1875 0.9375 1
2.1875 1 0.9375
2.1875 0.9375 0.9375
2.375 0.9375 1
2.375 1 0.9375
2.3125 1 1
2.375 0.9375 0.9375
2.3125 0.9375 1
2.3125 1 0.9375
2.3125 0.9375 0.9375
2.5 0.9375 1
2.5 1 0.9375
2.4375 1 1
2.5 0.9375 0.9375
2.4375 0.9375 1
2.4375 1 0.9375
2.4375 0.9375 0.9375
2.625 0.9375 1
2.625 1 0.9375
2.5625 1 1
2.625 0.9375 0.9375
2.5625 0.9375 1
2.5625 1 0.9375
2.5625 0.9375 0.9375
2.75 0.9375 1
2.75 1 0.9375
2.6875 1 1
2.75 0.9375 0.9375
2.6875 0.9375 1
2.6875 1 0.9375
2.6875 0.9375 0.9375
2.875 0.9375 1
2.875 1 0.9375
2.8125 1 1
2.875 0.9375 0.9375
2.8125 0.9375 1
2.8125 1 0.9375
2.8125 0.9375 0.9375
3 0.9375 1
3 1 0.9375
2.9375 1 1
3 0.9375 0.9375
2.9375 0.9375 1
2.9375 1 0.9375
2.9375 0.9375 0.9375

CELLS 1537 41472
OFFSETS vtktypeint64
0 27 54 81 108 135 162 189 216 243 270 297 324 351 378 405 432 459 486 513 540 567 594 621 648 675 702 729 756 783 810 837 864 891 918 945 972 999 1026 1053 1080 1107 1134 1161 1188 1215 1242 1269 1296 1323 1350 1377 1404 1431 1458 1485 1512 1539 1566 1593 1620 1647 1674 1701 1728 1755 1782 1809 1836 1863 1890 1917 1944 1971 1998 2025 2052 2079 2106 2133 2160 2187 2214 2241 2268 2295 2322 2349 2376 2403 2430 2457 2484 2511 2538 2565 2592 2619 2646 2673 2700 2727 2754 2781 2808 2835 2862 2889 2916 2943 2970 2997 3024 3051 3078 3105 3132 3159 3186 3213 3240 3267 3294 3321 3348 3375 3402 3429 3456 3483 3510 3537 3564 3591 3618 3645 3672 3699 3726 3753 3780 3807 3834 3861 3888 3915 3942 3969 3996 4023 4050 4077 4104 4131 4158 4185 4212 4239 4266 4293 4320 4347 4374 4401 4428 4455 4482 4509 4536 4563 4590 4617 4644 4671 4698 4725 4752 4779 4806 4833 4860 4887 4914 4941 4968 4995 5022 5049 5076 5103 5130 5157 5184 5211 5238 5265 5292 5319 5346 5373 5400 5427 5454 5481 5508 5535 5562 5589 5616 5643 5670 5697 5724 5751 5778 5805 5832 5859 5886 5913 5940 5967 5994 6021 6048 6075 6102 6129 6156 6183 6210 6237 6264 6291 6318 6345 6372 6399 6426 6453 6480 6507 6534 6561 6588 6615 6642 6669 6696 6723 6750 6777 6804 6831 6858 6885 6912 6939 6966 6993 7020 7047 7074 7101 7128 7155 7182 7209 7236 7263 7290 7317 7344 7371 7398 7425 7452 7479 7506 7533 7560 7587 7614 7641 7668 7695 7722 7749 7776 7803 7830 7857 7884 7911 7938 7965 7992 8019 8046 8073 8100 8127 8154 8181 8208 8235 8262 8289 8316 8343 8370 8397 8424 8451 8478 8505 8532 8559 8586 8613 8640 8667 8694 8721 8748 8775 8802 8829 8856 8883 8910 8937 8964 8991 9018 9045 9072 9099 9126 9153 9180 9207 9234 9261 9288 9315 9342 9369 9396 9423 9450 9477 9504 9531 9558 9585 9612 9639 9666 9693 9720 9747 9774 9801 9828 9855 9882 9909 9936 9963 9990 10017 10044 10071 10098 10125 10152 10179 10206 10233 10260 10287 10314 10341 10368 10395 10422 10449 10476 10503 10530 10557 10584 10611 10638 10665 10692 10719 10746 10773 10800 10827 10854 10881 10908 10935 10962 10989 11016 11043 11070 11097 11124 11151 11178 11205 11232 11259 11286 11313 11340 11367 11394 11421 11448 11475 11502 11529 11556 11583 11610 11637 11664 11691 11718 11745 11772 11799 11826 11853 11880 11907 11934 11961 11988 12015 12042 12069 12096 12123 12150 12177 12204 12231 12258 12285 12312 12339 12366 12393 12420 12447 12474 12501 12528 12555 12582 12609 12636 12663 12690 12717 12744 12771 12798 12825 12852 12879 12906 12933 12960 12987 13014 13041 13068 13095 13122 13149 13176 13203 13230 13257 13284 13311 13338 13365 13392 13419 13446 13473 13500 13527 13554 13581 13608 13635 13662 13689 13716 13743 13770 13797 13824 13851 13878 13905 13932 13959 13986 14013 14040 14067 14094 14121 14148 14175 14202 14229 14256 14283 14310 14337 14364 14391 14418 14445 14472 14499 14526 14553 14580 14607 14634 14661 14688 14715 14742 14769 14796 14823 14850 14877 14904 14931 14958 14985 15012 15039 15066 15093 15120 15147 15174 15201 15228 15255 15282 15309 15336 15363 15390 15417 15444 15471 15498 15525 15552 15579 15606 15633 15660 15687 15714 15741 15768 15795 15822 15849 15876 15903 15930 15957 15984 16011 16038 16065 16092 16119 16146 16173 16200 16227 16254 16281 16308 16335 16362 16389 16416 16443 16470 16497 16524 16551 16578 16605 16632 16659 16686 16713 16740 16767 16794 16821 16848 16875 16902 16929 16956 16983 17010 17037 17064 17091 17118 17145 17172 17199 17226 17253 17280 17307 17334 17361 17388 17415 17442 17469 17496 17523 17550 17577 17604 17631 17658 17685 17712 17739 17766 17793 17820 17847 17874 17901 17928 17955 17982 18009 18036 18063 18090 18117 18144 18171 18198 18225 18252 18279 18306 18333 18360 18387 18414 18441 18468 18495 18522 18549 18576 18603 18630 18657 18684 18711 18738 18765 18792 18819 18846 18873 18900 18927 18954 18981 19008 19035 19062 19089 19116 19143 19170 19197 19224 19251 19278 19305 19332 19359 19386 19413 19440 19467 19494 19521 19548 19575 19602 19629 19656 19683 19710 19737 19764 19791 19818 19845 19872 19899 19926 19953 19980 20007 20034 20061 20088 20115 20142 20169 20196 20223 20250 20277 20304 20331 20358 20385 20412 20439 20466 20493 20520 20547 20574 20601 20628 20655 20682 20709 20736 20763 20790 20817 20844 20871 20898 20925 20952 20979 21006 21033 21060 21087 21114 21141 21168 21195 21222 21249 21276 21303 21330 21357 21384 21411 21438 21465 21492 21519 21546 21573 21600 21627 21654 21681 21708 21735 21762 21789 21816 21843 21870 21897 21924 21951 21978 22005 22032 22059 22086 22113 22140 22167 22194 22221 22248 22275 22302 22329 22356 22383 22410 22437 22464 22491 22518 22545 22572 22599 22626 22653 22680 22707 22734 22761 22788 22815 22842 22869 22896 22923 22950 22977 23004 23031 23058 23085 23112 23139 23166 23193 23220 23247 23274 23301 23328 23355 23382 23409 23436 23463 23490 23517 23544 23571 23598 23625 23652 23679 23706 23733 23760 23787 23814 23841 23868 23895 23922 23949 23976 24003 24030 24057 24084 24111 24138 24165 24192 24219 24246 24273 24300 24327 24354 24381 24408 24435 24462 24489 24516 24543 24570 24597 24624 24651 24678 24705 24732 24759 24786 24813 24840 24867 24894 24921 24948 24975 25002 25029 25056 25083 25110 25137 25164 25191 25218 25245 25272 25299 25326 25353 25380 25407 25434 25461 25488 25515 25542 25569 25596 25623 25650 25677 25704 25731 25758 25785 25812 25839 25866 25893 25920 25947 25974 26001 26028 26055 26082 26109 26136 26163 26190 26217 26244 26271 26298 26325 26352 26379 26406 26433 26460 26487 26514 26541 26568 26595 26622 26649 26676 26703 26730 26757 26784 26811 26838 26865 26892 26919 26946 26973 27000 27027 27054 27081 27108 27135 27162 27189 27216 27243 27270 27297 27324 27351 27378 27405 27432 27459 27486 27513 27540 27567 27594 27621 27648 27675 27702 27729 27756 27783 27810 27837 27864 27891 27918 27945 27972 27999 28026 28053 28080 28107 28134 28161 28188 28215 28242 28269 28296 28323 28350 28377 28404 28431 28458 28485 28512 28539 28566 28593 28620 28647 28674 28701 28728 28755 28782 28809 28836 28863 28890 28917 28944 28971 28998 29025 29052 29079 29106 29133 29160 29187 29214 29241 29268 29295 29322 29349 29376 29403 29430 29457 29484 29511 29538 29565 29592 29619 29646 29673 29700 29727 29754 29781 29808 29835 29862 29889 29916 29943 29970 29997 30024 30051 30078 30105 30132 30159 30186 30213 30240 30267 30294 30321 30348 30375 30402 30429 30456 30483 30510 30537 30564 30591 30618 30645 30672 30699 30726 30753 30780 30807 30834 30861 30888 30915 30942 30969 30996 31023 31050 31077 31104 31131 31158 31185 31212 31239 31266 31293 31320 31347 31374 31401 31428 31455 31482 31509 31536 31563 31590 31617 31644 31671 31698 31725 31752 31779 31806 31833 31860 31887 31914 31941 31968 31995 32022 32049 32076 32103 32130 32157 32184 32211 32238 32265 32292 32319 32346 32373 32400 32427 32454 32481 32508 32535 32562 32589 32616 32643 32670 32697 32724 32751 32778 32805 32832 32859 32886 32913 32940 32967 32994 33021 33048 33075 33102 33129 33156 33183 33210 33237 33264 33291 33318 33345 33372 33399 33426 33453 33480 33507 33534 33561 33588 33615 33642 33669 33696 33723 33750 33777 33804 33831 33858 33885 33912 33939 33966 33993 34020 34047 34074 34101 34128 34155 34182 34209 34236 34263 34290 34317 34344 34371 34398 34425 34452 34479 34506 34533 34560 34587 34614 34641 34668 34695 34722 34749 34776 34803 34830 34857 34884 34911 34938 34965 34992 35019 35046 35073 35100 35127 35154 35181 35208 35235 35262 35289 35316 35343 35370 35397 35424 35451 35478 35505 35532 35559 35586 35613 35640 35667 35694 35721 35748 35775 35802 35829 35856 35883 35910 35937 35964 35991 36018 36045 36072 36099 36126 36153 36180 36207 36234 36261 36288 36315 36342 36369 36396 36423 36450 36477 36504 36531 36558 36585 36612 36639 36666 36693 36720 36747 36774 36801 36828 36855 36882 36909 36936 36963 36990 37017 37044 37071 37098 37125 37152 37179 37206 37233 37260 37287 37314 37341 37368 37395 37422 37449 37476 37503 37530 37557 37584 37611 37638 37665 37692 37719 37746 37773 37800 37827 37854 37881 37908 37935 37962 37989 38016 38043 38070 38097 38124 38151 38178 38205 38232 38259 38286 38313 38340 38367 38394 38421 38448 38475 38502 38529 38556 38583 38610 38637 38664 38691 38718 38745 38772 38799 38826 38853 38880 38907 38934 38961 38988 39015 39042 39069 39096 39123 39150 39177 39204 39231 39258 39285 39312 39339 39366 39393 39420 39447 39474 39501 39528 39555 39582 39609 39636 39663 39690 39717 39744 39771 39798 39825 39852 39879 39906 39933 39960 39987 40014 40041 40068 40095 40122 40149 40176 40203 40230 40257 40284 40311 40338 40365 40392 40419 40446 40473 40500 40527 40554 40581 40608 40635 40662 40689 40716 40743 40770 40797 40824 40851 40878 40905 40932 40959 40986 41013 41040 41067 41094 41121 41148 41175 41202 41229 41256 41283 41310 41337 41364 41391 41418 41445 41472 
CONNECTIVITY vtktypeint64
0 1 226 225 25 26 251 250 2025 2026 2027 2028 2033 2034 2035 2036 2029 2030 2031 2032 2041 2039 2038 2040 2037 2042 2043 
1 2 227 226 26 27 252 251 2044 2045 2046 2026 2049 2050 2051 2034 2030 2047 2048 2031 2039 2054 2053 2055 2052 2056 2057 
2 3 228 227 27 28 253 252 2058 2059 2060 2045 2063 2064 2065 2050 2047 2061 2062 2048 2054 2068 2067 2069 2066 2070 2071 
3 4 229 228 28 29 254 253 2072 2073 2074 2059 2077 2078 2079 2064 2061 2075 2076 2062 2068 2082 2081 2083 2080 2084 2085 
4 5 230 229 29 30 255 254 2086 2087 2088 2073 2091 2092 2093 2078 2075 2089 2090 2076 2082 2096 2095 2097 2094 2098 2099 
5 6 231 230 30 31 256 255 2100 2101 2102 2087 2105 2106 2107 2092 2089 2103 2104 2090 2096 2110 2109 2111 2108 2112 2113 
6 7 232 231 31 32 257 256 2114 2115 2116 2101 2119 2120 2121 2106 2103 2117 2118 2104 2110 2124 2123 2125 2122 2126 2127 
7 8 233 232 32 33 258 257 2128 2129 2130 2115 2133 2134 2135 2120 2117 2131 2132 2118 2124 2138 2137 2139 2136 2140 2141 
8 9 234 233 33 34 259 258 2142 2143 2144 2129 2147 2148 2149 2134 2131 2145 2146 2132 2138 2152 2151 2153 2150 2154 2155 
9 10 235 234 34 35 260 259 2156 2157 2158 2143 2161 2162 2163 2148 2145 2159 2160 2146 2152 2166 2165 2167 2164 2168 2169 
10 11 236 235 35 36 261 260 2170 2171 2172 2157 2175 2176 2177 2162 2159 2173 2174 2160 2166 2180 2179 2181 2178 2182 2183 
11 12 237 236 36 37 262 261 2184 2185 2186 2171 2189 2190 2191 2176 2173 2187 2188 2174 2180 2194 2193 2195 2192 2196 2197 
12 13 238 237 37 38 263 262 2198 2199 2200 2185 2203 2204 2205 2190 2187 2201 2202 2188 2194 2208 2207 2209 2206 2210 2211 
13 14 239 238 38 39 264 263 2212 2213 2214 2199 2217 2218 2219 2204 2201 2215 2216 2202 2208 2222 2221 2223 2220 2224 2225 
14 15 240 239 39 40 265 264 2226 2227 2228 2213 2231 2232 2233 2218 2215 2229 2230 2216 2222 2236 2235 2237 2234 2238 2239 
15 16 241 240 40 41 266 265 2240 2241 2242 2227 2245 2246 2247 2232 2229 2243 2244 2230 2236 2250 2249 2251 2248 2252 2253 
16 17 242 241 41 42 267 266 2254 2255 2256 2241 2259 2260 2261 2246 2243 2257 2258 2244 2250 2264 2263 2265 2262 2266 2267 
17 18 243 242 42 43 268 267 2268 2269 2270 2255 2273 2274 2275 2260 2257 2271 2272 2258 2264 2278 2277 2279 2276 2280 2281 
18 19 244 243 43 44 269 268 2282 2283 2284 2269 2287 2288 2289 2274 2271 2285 2286 2272 2278 2292 2291 2293 2290 2294 2295 
19 20 245 244 44 45 270 269 2296 2297 2298 2283 2301 2302 2303 2288 2285 2299 2300 2286 2292 2306 2305 2307 2304 2308 2309 
20 21 246 245 45 46 271 270 2310 2311 2312 2297 2315 2316 2317 2302 2299 2313 2314 2300 2306 2320 2319 2321 2318 2322 2323 
21 22 247 246 46 47 272 271 2324 2325 2326 2311 2329 2330 2331 2316 2313 2327 2328 2314 2320 2334 2333 2335 2332 2336 2337 
22 23 248 247 47 48 273 272 2338 2339 2340 2325 2343 2344 2345 2330 2327 2341 2342 2328 2334 2348 2347 2349 2346 2350 2351 
23 24 249 248 48 49 274 273 2352 2353 2354 2339 2357 2358 2359 2344 2341 2355 2356 2342 2348 2362 2361 2363 2360 2364 2365 
25 26 251 250 50 51 276 275 2033 2034 2035 2036 2370 2371 2372 2373 2366 2367 2368 2369 2377 2375 2374 2376 2042 2378 2379 
26 27 252 251 51 52 277 276 2049 2050 2051 2034 2382 2383 2384 2371 2367 2380 2381 2368 2375 2386 2385 2387 2056 2388 2389 
27 28 253 252 52 53 278 277 2063 2064 2065 2050 2392 2393 2394 2383 2380 2390 2391 2381 2386 2396 2395 2397 2070 2398 2399 
28 29 254 253 53 54 279 278 2077 2078 2079 2064 2402 2403 2404 2393 2390 2400 2401 2391 2396 2406 2405 2407 2084 2408 2409 
29 30 255 254 54 55 280 279 2091 2092 2093 2078 2412 2413 2414 2403 2400 2410 2411 2401 2406 2416 2415 2417 2098 2418 2419 
30 31 256 255 55 56 281 280 2105 2106 2107 2092 2422 2423 2424 2413 2410 2420 2421 2411 2416 2426 2425 2427 2112 2428 2429 
31 32 257 256 56 57 282 281 2119 2120 2121 2106 2432 2433 2434 2423 2420 2430 2431 2421 2426 2436 2435 2437 2126 2438 2439 
32 33 258 257 57 58 283 282 2133 2134 2135 2120 2442 2443 2444 2433 2430 2440 2441 2431 2436 2446 2445 2447 2140 2448 2449 
33 34 259 258 58 59 284 283 2147 2148 2149 2134 2452 2453 2454 2443 2440 2450 2451 2441 2446 2456 2455 2457 2154 2458 2459 
34 35 260 259 59 60 285 284 2161 2162 2163 2148 2462 2463 2464 2453 2450 2460 2461 2451 2456 2466 2465 2467 2168 2468 2469 
35 36 261 260 60 61 286 285 2175 2176 2177 2162 2472 2473 2474 2463 2460 2470 2471 2461 2466 2476 2475 2477 2182 2478 2479 
36 37 262 261 61 62 287 286 2189 2190 2191 2176 2482 2483 2484 2473 2470 2480 2481 2471 2476 2486 2485 2487 2196 2488 2489 
37 38 263 262 62 63 288 287 2203 2204 2205 2190 2492 2493 2494 2483 2480 2490 2491 2481 2486 2496 2495 2497 2210 2498 2499 
38 39 264 263 63 64 289 288 2217 2218 2219 2204 2502 2503 2504 2493 2490 2500 2501 2491 2496 2506 2505 2507 2224 2508 2509 
39 40 265 264 64 65 290 289 2231 2232 2233 2218 2512 2513 2514 2503 2500 2510 2511 2501 2506 2516 2515 2517 2238 2518 2519 
40 41 266 265 65 66 291 290 2245 2246 2247 2232 2522 2523 2524 2513 2510 2520 2521 2511 2516 2526 2525 2527 2252 2528 2529 
41 42 267 266 66 67 292 291 2259 2260 2261 2246 2532 2533 2534 2523 2520 2530 2531 2521 2526 2536 2535 2537 2266 2538 2539 
42 43 268 267 67 68 293 292 2273 2274 2275 2260 2542 2543 2544 2533 2530 2540 2541 2531 2536 2546 2545 2547 2280 2548 2549 
43 44 269 268 68 69 294 293 2287 2288 2289 2274 2552 2553 2554 2543 2540 2550 2551 2541 2546 2556 2555 2557 2294 2558 2559 
44 45 270 269 69 70 295 294 2301 2302 2303 2288 2562 2563 2564 2553 2550 2560 2561 2551 2556 2566 2565 2567 2308 2568 2569 
45 46 271 270 70 71 296 295 2315 2316 2317 2302 2572 2573 2574 2563 2560 2570 2571 2561 2566 2576 2575 2577 2322 2578 2579 
46 47 272 271 71 72 297 296 2329 2330 2331 2316 2582 2583 2584 2573 2570 2580 2581 2571 2576 2586 2585 2587 2336 2588 2589 
47 48 273 272 72 73 298 297 2343 2344 2345 2330 2592 2593 2594 2583 2580 2590 2591 2581 2586 2596 2595 2597 2350 2598 2599 
48 49 274 273 73 74 299 298 2357 2358 2359 2344 2602 2603 2604 2593 2590 2600 2601 2591 2596 2606 2605 2607 2364 2608 2609 
50 51 276 275 75 76 301 300 2370 2371 2372 2373 2614 2615 2616 2617 2610 2611 2612 2613 2621 2619 2618 2620 2378 2622 2623 
51 52 277 276 76 77 302 301 2382 2383 2384 2371 2626 2627 2628 2615 2611 2624 2625 2612 2619 2630 2629 2631 2388 2632 2633 
52 53 278 277 77 78 303 302 2392 2393 2394 2383 2636 2637 2638 2627 2624 2634 2635 2625 2630 2640 2639 2641 2398 2642 2643 
53 54 279 278 78 79 304 303 2402 2403 2404 2393 2646 2647 2648 2637 2634 2644 2645 2635 2640 2650 2649 2651 2408 2652 2653 
54 55 280 279 79 80 305 304 2412 2413 2414 2403 2656 2657 2658 2647 2644 2654 2655 2645 2650 2660 2659 2661 2418 2662 2663 
55 56 281 280 80 81 306 305 2422 2423 2424 2413 2666 2667 2668 2657 2654 2664 2665 2655 2660 2670 2669 2671 2428 2672 2673 
56 57 282 281 81 82 307 306 2432 2433 2434 2423 2676 2677 2678 2667 2664 2674 2675 2665 2670 2680 2679 2681 2438 2682 2683 
57 58 283 282 82 83 308 307 2442 2443 2444 2433 2686 2687 2688 2677 2674 2684 2685 2675 2680 2690 2689 2691 2448 2692 2693 
58 59 284 283 83 84 309 308 2452 2453 2454 2443 2696 2697 2698 2687 2684 2694 2695 2685 2690 2700 2699 2701 2458 2702 2703 
59 60 285 284 84 85 310 309 2462 2463 2464 2453 2706 2707 2708 2697 2694 2704 2705 2695 2700 2710 2709 2711 2468 2712 2713 
60 61 286 285 85 86 311 310 2472 2473 2474 2463 2716 2717 2718 2707 2704 2714 2715 2705 2710 2720 2719 2721 2478 2722 2723 
61 62 287 286 86 87 312 311 2482 2483 2484 2473 2726 2727 2728 2717 2714 2724 2725 2715 2720 2730 2729 2731 2488 2732 2733 
62 63 288 287 87 88 313 312 2492 2493 2494 2483 2736 2737 2738 2727 2724 2734 2735 2725 2730 2740 2739 2741 2498 2742 2743 
63 64 289 288 88 89 314 313 2502 2503 2504 2493 2746 2747 2748 2737 2734 2744 2745 2735 2740 2750 2749 2751 2508 2752 2753 
64 65 290 289 89 90 315 314 2512 2513 2514 2503 2756 2757 2758 2747 2744 2754 2755 2745 2750 2760 2759 2761 2518 2762 2763 
65 66 291 290 90 91 316 315 2522 2523 2524 2513 2766 2767 2768 2757 2754 2764 2765 2755 2760 2770 2769 2771 2528 2772 2773 
66 67 292 291 91 92 317 316 2532 2533 2534 2523 2776 2777 2778 2767 2764 2774 2775 2765 2770 2780 2779 2781 2538 2782 2783 
67 68 293 292 92 93 318 317 2542 2543 2544 2533 2786 2787 2788 2777 2774 2784 2785 2775 2780 2790 2789 2791 2548 2792 2793 
68 69 294 293 93 94 319 318 2552 2553 2554 2543 2796 2797 2798 2787 2784 2794 2795 2785 2790 2800 2799 2801 2558 2802 2803 
69 70 295 294 94 95 320 319 2562 2563 2564 2553 2806 2807 2808 2797 2794 2804 2805 2795 2800 2810 2809 2811 2568 2812 2813 
70 71 296 295 95 96 321 320 2572 2573 2574 2563 2816 2817 2818 2807 2804 2814 2815 2805 2810 2820 2819 2821 2578 2822 2823 
71 72 297 296 96 97 322 321 2582 2583 2584 2573 2826 2827 2828 2817 2814 2824 2825 2815 2820 2830 2829 2831 2588 2832 2833 
72 73 298 297 97 98 323 322 2592 2593 2594 2583 2836 2837 2838 2827 2824 2834 2835 2825 2830 2840 2839 2841 2598 2842 2843 
73 74 299 298 98 99 324 323 2602 2603 2604 2593 2846 2847 2848 2837 2834 2844 2845 2835 2840 2850 2849 2851 2608 2852 2853 
75 76 301 300 100 101 326 325 2614 2615 2616 2617 2858 2859 2860 2861 2854 2855 2856 2857 2865 2863 2862 2864 2622 2866 2867 
76 77 302 301 101 102 327 326 2626 2627 2628 2615 2870 2871 2872 2859 2855 2868 2869 2856 2863 2874 2873 2875 2632 2876 2877 
77 78 303 302 102 103 328 327 2636 2637 2638 2627 2880 2881 2882 2871 2868 2878 2879 2869 2874 2884 2883 2885 2642 2886 2887 
78 79 304 303 103 104 329 328 2646 2647 2648 2637 2890 2891 2892 2881 2878 2888 2889 2879 2884 2894 2893 2895 2652 2896 2897 
79 80 305 304 104 105 330 329 2656 2657 2658 2647 2900 2901 2902 2891 2888 2898 2899 2889 2894 2904 2903 2905 2662 2906 2907 
80 81 306 305 105 106 331 330 2666 2667 2668 2657 2910 2911 2912 2901 2898 2908 2909 2899 2904 2914 2913 2915 2672 2916 2917 
81 82 307 306 106 107 332 331 2676 2677 2678 2667 2920 2921 2922 2911 2908 2918 2919 2909 2914 2924 2923 2925 2682 2926 2927 
82 83 308 307 107 108 333 332 2686 2687 2688 2677 2930 2931 2932 2921 2918 2928 2929 2919 2924 2934 2933 2935 2692 2936 2937 
83 84 309 308 108 109 334 333 2696 2697 2698 2687 2940 2941 2942 2931 2928 2938 2939 2929 2934 2944 2943 2945 2702 2946 2947 
84 85 310 309 109 110 335 334 2706 2707 2708 2697 2950 2951 2952 2941 2938 2948 2949 2939 2944 2954 2953 2955 2712 2956 2957 
85 86 311 310 110 111 336 335 2716 2717 2718 2707 2960 2961 2962 2951 2948 2958 2959 2949 2954 2964 2963 2965 2722 2966 2967 
86 87 312 311 111 112 337 336 2726 2727 2728 2717 2970 2971 2972 2961 2958 2968 2969 2959 2964 2974 2973 2975 2732 2976 2977 
87 88 313 312 112 113 338 337 2736 2737 2738 2727 2980 2981 2982 2971 2968 2978 2979 2969 2974 2984 2983 2985 2742 2986 2987 
88 89 314 313 113 114 339 338 2746 2747 2748 2737 2990 2991 2992 2981 2978 2988 2989 2979 2984 2994 2993 2995 2752 2996 2997 
89 90 315 314 114 115 340 339 2756 2757 2758 2747 3000 3001 3002 2991 2988 2998 2999 2989 2994 3004 3003 3005 2762 3006 3007 
90 91 316 315 115 116 341 340 2766 2767 2768 2757 3010 3011 3012 3001 2998 3008 3009 2999 3004 3014 3013 3015 2772 3016 3017 
91 92 317 316 116 117 342 341 2776 2777 2778 2767 3020 3021 3022 3011 3008 3018 3019 3009 3014 3024 3023 3025 2782 3026 3027 
92 93 318 317 117 118 343 342 2786 2787 2788 2777 3030 3031 3032 3021 3018 3028 3029 3019 3024 3034 3033 3035 2792 3036 3037 
93 94 319 318 118 119 344 343 2796 2797 2798 2787 3040 3041 3042 3031 3028 3038 3039 3029 3034 3044 3043 3045 2802 3046 3047 
94 95 320 319 119 120 345 344 2806 2807 2808 2797 3050 3051 3052 3041 3038 3048 3049 3039 3044 3054 3053 3055 2812 3056 3057 
95 96 321 320 120 121 346 345 2816 2817 2818 2807 3060 3061 3062 3051 3048 3058 3059 3049 3054 3064 3063 3065 2822 3066 3067 
96 97 322 321 121 122 347 346 2826 2827 2828 2817 3070 3071 3072 3061 3058 3068 3069 3059 3064 3074 3073 3075 2832 3076 3077 
97 98 323 322 122 123 348 347 2836 2837 2838 2827 3080 3081 3082 3071 3068 3078 3079 3069 3074 3084 3083 3085 2842 3086 3087 
98 99 324 323 123 124 349 348 2846 2847 2848 2837 3090 3091 3092 3081 3078 3088 3089 3079 3084 3094 3093 3095 2852 3096 3097 
100 101 326 325 125 126 351 350 2858 2859 2860 2861 3102 3103 3104 3105 3098 3099 3100 3101 3109 3107 3106 3108 2866 3110 3111 
101 102 327 326 126 127 352 351 2870 2871 2872 2859 3114 3115 3116 3103 3099 3112 3113 3100 3107 3118 3117 3119 2876 3120 3121 
102 103 328 327 127 128 353 352 2880 2881 2882 2871 3124 3125 3126 3115 3112 3122 3123 3113 3118 3128 3127 3129 2886 3130 3131 
103 104 329 328 128 129 354 353 2890 2891 2892 2881 3134 3135 3136 3125 3122 3132 3133 3123 3128 3138 3137 3139 2896 3140 3141 
104 105 330 329 129 130 355 354 2900 2901 2902 2891 3144 3145 3146 3135 3132 3142 3143 3133 3138 3148 3147 3149 2906 3150 3151 
105 106 331 330 130 131 356 355 2910 2911 2912 2901 3154 3155 3156 3145 3142 3152 3153 3143 3148 3158 3157 3159 2916 3160 3161 
106 107 332 331 131 132 357 356 2920 2921 2922 2911 3164 3165 3166 3155 3152 3162 3163 3153 3158 3168 3167 3169 2926 3170 3171 
107 108 333 332 132 133 358 357 2930 2931 2932 2921 3174 3175 3176 3165 3162 3172 3173 3163 3168 3178 3177 3179 2936 3180 3181 
108 109 334 333 133 134 359 358 2940 2941 2942 2931 3184 3185 3186 3175 3172 3182 3183 3173 3178 3188 3187 3189 2946 3190 3191 
109 110 335 334 134 135 360 359 2950 2951 2952 2941 3194 3195 3196 3185 3182 3192 3193 3183 3188 3198 3197 3199 2956 3200 3201 
110 111 336 335 135 136 361 360 2960 2961 2962 2951 3204 3205 3206 3195 3192 3202 3203 3193 3198 3208 3207 3209 2966 3210 3211 
111 112 337 336 136 137 362 361 2970 2971 2972 2961 3214 3215 3216 3205 3202 3212 3213 3203 3208 3218 3217 3219 2976 3220 3221 
112 113 338 337 137 138 363 362 2980 2981 2982 2971 3224 3225 3226 3215 3212 3222 3223 3213 3218 3228 3227 3229 2986 3230 3231 
113 114 339 338 138 139 364 363 2990 2991 2992 2981 3234 3235 3236 3225 3222 3232 3233 3223 3228 3238 3237 3239 2996 3240 3241 
114 115 340 339 139 140 365 364 3000 3001 3002 2991 3244 3245 3246 3235 3232 3242 3243 3233 3238 3248 3247 3249 3006 3250 3251 
115 116 341 340 140 141 366 365 3010 3011 3012 3001 3254 3255 3256 3245 3242 3252 3253 3243 3248 3258 3257 3259 3016 3260 3261 
116 117 342 341 141 142 367 366 3020 3021 3022 3011 3264 3265 3266 3255 3252 3262 3263 3253 3258 3268 3267 3269 3026 3270 3271 
117 118 343 342 142 143 368 367 3030 3031 3032 3021 3274 3275 3276 3265 3262 3272 3273 3263 3268 3278 3277 3279 3036 3280 3281 
118 119 344 343 143 144 369 368 3040 3041 3042 3031 3284 3285 3286 3275 3272 3282 3283 3273 3278 3288 3287 3289 3046 3290 3291 
119 120 345 344 144 145 370 369 3050 3051 3052 3041 3294 3295 3296 3285 3282 3292 3293 3283 3288 3298 3297 3299 3056 3300 3301 
120 121 346 345 145 146 371 370 3060 3061 3062 3051 3304 3305 3306 3295 3292 3302 3303 3293 3298 3308 3307 3309 3066 3310 3311 
121 122 347 346 146 147 372 371 3070 3071 3072 3061 3314 3315 3316 3305 3302 3312 3313 3303 3308 3318 3317 3319 3076 3320 3321 
122 123 348 347 147 148 373 372 3080 3081 3082 3071 3324 3325 3326 3315 3312 3322 3323 3313 3318 3328 3327 3329 3086 3330 3331 
123 124 349 348 148 149 374 373 3090 3091 3092 3081 3334 3335 3336 3325 3322 3332 3333 3323 3328 3338 3337 3339 3096 3340 3341 
125 126 351 350 150 151 376 375 3102 3103 3104 3105 3346 3347 3348 3349 3342 3343 3344 3345 3353 3351 3350 3352 3110 3354 3355 
126 127 352 351 151 152 377 376 3114 3115 3116 3103 3358 3359 3360 3347 3343 3356 3357 3344 3351 3362 3361 3363 3120 3364 3365 
127 128 353 352 152 153 378 377 3124 3125 3126 3115 3368 3369 3370 3359 3356 3366 3367 3357 3362 3372 3371 3373 3130 3374 3375 
128 129 354 353 153 154 379 378 3134 3135 3136 3125 3378 3379 3380 3369 3366 3376 3377 3367 3372 3382 3381 3383 3140 3384 3385 
129 130 355 354 154 155 380 379 3144 3145 3146 3135 3388 3389 3390 3379 3376 3386 3387 3377 3382 3392 3391 3393 3150 3394 3395 
130 131 356 355 155 156 381 380 3154 3155 3156 3145 3398 3399 3400 3389 3386 3396 3397 3387 3392 3402 3401 3403 3160 3404 3405 
131 132 357 356 156 157 382 381 3164 3165 3166 3155 3408 3409 3410 3399 3396 3406 3407 3397 3402 3412 3411 3413 3170 3414 3415 
132 133 358 357 157 158 383 382 3174 3175 3176 3165 3418 3419 3420 3409 3406 3416 3417 3407 3412 3422 3421 3423 3180 3424 3425 
133 134 359 358 158 159 384 383 3184 3185 3186 3175 3428 3429 3430 3419 3416 3426 3427 3417 3422 3432 3431 3433 3190 3434 3435 
134 135 360 359 159 160 385 384 3194 3195 3196 3185 3438 3439 3440 3429 3426 3436 3437 3427 3432 3442 3441 3443 3200 3444 3445 
135 136 361 360 160 161 386 385 3204 3205 3206 3195 3448 3449 3450 3439 3436 3446 3447 3437 3442 3452 3451 3453 3210 3454 3455 
136 137 362 361 161 162 387 386 3214 3215 3216 3205 3458 3459 3460 3449 3446 3456 3457 3447 3452 3462 3461 3463 3220 3464 3465 
137 138 363 362 162 163 388 387 3224 3225 3226 3215 3468 3469 3470 3459 3456 3466 3467 3457 3462 3472 3471 3473 3230 3474 3475 
138 139 364 363 163 164 389 388 3234 3235 3236 3225 3478 3479 3480 3469 3466 3476 3477 3467 3472 3482 3481 3483 3240 3484 3485 
139 140 365 364 164 165 390 389 3244 3245 3246 3235 3488 3489 3490 3479 3476 3486 3487 3477 3482 3492 3491 3493 3250 3494 3495 
140 141 366 365 165 166 391 390 3254 3255 3256 3245 3498 3499 3500 3489 3486 3496 3497 3487 3492 3502 3501 3503 3260 3504 3505 
141 142 367 366 166 167 392 391 3264 3265 3266 3255 3508 3509 3510 3499 3496 3506 3507 3497 3502 3512 3511 3513 3270 3514 3515 
142 143 368 367 167 168 393 392 3274 3275 3276 3265 3518 3519 3520 3509 3506 3516 3517 3507 3512 3522 3521 3523 3280 3524 3525 
143 144 369 368 168 169 394 393 3284 3285 3286 3275 3528 3529 3530 3519 3516 3526 3527 3517 3522 3532 3531 3533 3290 3534 3535 
144 145 370 369 169 170 395 394 3294 3295 3296 3285 3538 3539 3540 3529 3526 3536 3537 3527 3532 3542 3541 3543 3300 3544 3545 
145 146 371 370 170 171 396 395 3304 3305 3306 3295 3548 3549 3550 3539 3536 3546 3547 3537 3542 3552 3551 3553 3310 3554 3555 
146 147 372 371 171 172 397 396 3314 3315 3316 3305 3558 3559 3560 3549 3546 3556 3557 3547 3552 3562 3561 3563 3320 3564 3565 
147 148 373 372 172 173 398 397 3324 3325 3326 3315 3568 3569 3570 3559 3556 3566 3567 3557 3562 3572 3571 3573 3330 3574 3575 
148 149 374 373 173 174 399 398 3334 3335 3336 3325 3578 3579 3580 3569 3566 3576 3577 3567 3572 3582 3581 3583 3340 3584 3585 
150 151 376 375 175 176 401 400 3346 3347 3348 3349 3590 3591 3592 3593 3586 3587 3588 3589 3597 3595 3594 3596 3354 3598 3599 
151 152 377 376 176 177 402 401 3358 3359 3360 3347 3602 3603 3604 3591 3587 3600 3601 3588 3595 3606 3605 3607 3364 3608 3609 
152 153 378 377 177 178 403 402 3368 3369 3370 3359 3612 3613 3614 3603 3600 3610 3611 3601 3606 3616 3615 3617 3374 3618 3619 
153 154 379 378 178 179 404 403 3378 3379 3380 3369 3622 3623 3624 3613 3610 3620 3621 3611 3616 3626 3625 3627 3384 3628 3629 
154 155 380 379 179 180 405 404 3388 3389 3390 3379 3632 3633 3634 3623 3620 3630 3631 3621 3626 3636 3635 3637 3394 3638 3639 
155 156 381 380 180 181 406 405 3398 3399 3400 3389 3642 3643 3644 3633 3630 3640 3641 3631 3636 3646 3645 3647 3404 3648 3649 
156 157 382 381 181 182 407 406 3408 3409 3410 3399 3652 3653 3654 3643 3640 3650 3651 3641 3646 3656 3655 3657 3414 3658 3659 
157 158 383 382 182 183 408 407 3418 3419 3420 3409 3662 3663 3664 3653 3650 3660 3661 3651 3656 3666 3665 3667 3424 3668 3669 
158 159 384 383 183 184 409 408 3428 3429 3430 3419 3672 3673 3674 3663 3660 3670 3671 3661 3666 3676 3675 3677 3434 3678 3679 
159 160 385 384 184 185 410 409 3438 3439 3440 3429 3682 3683 3684 3673 3670 3680 3681 3671 3676 3686 3685 3687 3444 3688 3689 
160 161 386 385 185 186 411 410 3448 3449 3450 3439 3692 3693 3694 3683 3680 3690 3691 3681 3686 3696 3695 3697 3454 3698 3699 
161 162 387 386 186 187 412 411 3458 3459 3460 3449 3702 3703 3704 3693 3690 3700 3701 3691 3696 3706 3705 3707 3464 3708 3709 
162 163 388 387 187 188 413 412 3468 3469 3470 3459 3712 3713 3714 3703 3700 3710 3711 3701 3706 3716 3715 3717 3474 3718 3719 
163 164 389 388 188 189 414 413 3478 3479 3480 3469 3722 3723 3724 3713 3710 3720 3721 3711 3716 3726 3725 3727 3484 3728 3729 
164 165 390 389 189 190 415 414 3488 3489 3490 3479 3732 3733 3734 3723 3720 3730 3731 3721 3726 3736 3735 3737 3494 3738 3739 
165 166 391 390 190 191 416 415 3498 3499 3500 3489 3742 3743 3744 3733 3730 3740 3741 3731 3736 3746 3745 3747 3504 3748 3749 
166 167 392 391 191 192 417 416 3508 3509 3510 3499 3752 3753 3754 3743 3740 3750 3751 3741 3746 3756 3755 3757 3514 3758 3759 
167 168 393 392 192 193 418 417 3518 3519 3520 3509 3762 3763 3764 3753 3750 3760 3761 3751 3756 3766 3765 3767 3524 3768 3769 
168 169 394 393 193 194 419 418 3528 3529 3530 3519 3772 3773 3774 3763 3760 3770 3771 3761 3766 3776 3775 3777 3534 3778 3779 
169 170 395 394 194 195 420 419 3538 3539 3540 3529 3782 3783 3784 3773 3770 3780 3781 3771 3776 3786 3785 3787 3544 3788 3789 
170 171 396 395 195 196 421 420 3548 3549 3550 3539 3792 3793 3794 3783 3780 3790 3791 3781 3786 3796 3795 3797 3554 3798 3799 
171 172 397 396 196 197 422 421 3558 3559 3560 3549 3802 3803 3804 3793 3790 3800 3801 3791 3796 3806 3805 3807 3564 3808 3809 
172 173 398 397 197 198 423 422 3568 3569 3570 3559 3812 3813 3814 3803 3800 3810 3811 3801 3806 3816 3815 3817 3574 3818 3819 
173 174 399 398 198 199 424 423 3578 3579 3580 3569 3822 3823 3824 3813 3810 3820 3821 3811 3816 3826 3825 3827 3584 3828 3829 
175 176 401 400 200 201 426 425 3590 3591 3592 3593 3834 3835 3836 3837 3830 3831 3832 3833 3841 3839 3838 3840 3598 3842 3843 
176 177 402 401 201 202 427 426 3602 3603 3604 3591 3846 3847 3848 3835 3831 3844 3845 3832 3839 3850 3849 3851 3608 3852 3853 
177 178 403 402 202 203 428 427 3612 3613 3614 3603 3856 3857 3858 3847 3844 3854 3855 3845 3850 3860 3859 3861 3618 3862 3863 
178 179 404 403 203 204 429 428 3622 3623 3624 3613 3866 3867 3868 3857 3854 3864 3865 3855 3860 3870 3869 3871 3628 3872 3873 
179 180 405 404 204 205 430 429 3632 3633 3634 3623 3876 3877 3878 3867 3864 3874 3875 3865 3870 3880 3879 3881 3638 3882 3883 
180 181 406 405 205 206 431 430 3642 3643 3644 3633 3886 3887 3888 3877 3874 3884 3885 3875 3880 3890 3889 3891 3648 3892 3893 
181 182 407 406 206 207 432 431 3652 3653 3654 3643 3896 3897 3898 3887 3884 3894 3895 3885 3890 3900 3899 3901 3658 3902 3903 
182 183 408 407 207 208 433 432 3662 3663 3664 3653 3906 3907 3908 3897 3894 3904 3905 3895 3900 3910 3909 3911 3668 3912 3913 
183 184 409 408 208 209 434 433 3672 3673 3674 3663 3916 3917 3918 3907 3904 3914 3915 3905 3910 3920 3919 3921 3678 3922 3923 
184 185 410 409 209 210 435 434 3682 3683 3684 3673 3926 3927 3928 3917 3914 3924 3925 3915 3920 3930 3929 3931 3688 3932 3933 
185 186 411 410 210 211 436 435 3692 3693 3694 3683 3936 3937 3938 3927 3924 3934 3935 3925 3930 3940 3939 3941 3698 3942 3943 
186 187 412 411 211 212 437 436 3702 3703 3704 3693 3946 3947 3948 3937 3934 3944 3945 3935 3940 3950 3949 3951 3708 3952 3953 
187 188 413 412 212 213 438 437 3712 3713 3714 3703 3956 3957 3958 3947 3944 3954 3955 3945 3950 3960 3959 3961 3718 3962 3963 
188 189 414 413 213 214 439 438 3722 3723 3724 3713 3966 3967 3968 3957 3954 3964 3965 3955 3960 3970 3969 3971 3728 3972 3973 
189 190 415 414 214 215 440 439 3732 3733 3734 3723 3976 3977 3978 3967 3964 3974 3975 3965 3970 3980 3979 3981 3738 3982 3983 
190 191 416 415 215 216 441 440 3742 3743 3744 3733 3986 3987 3988 3977 3974 3984 3985 3975 3980 3990 3989 3991 3748 3992 3993 
191 192 417 416 216 217 442 441 3752 3753 3754 3743 3996 3997 3998 3987 3984 3994 3995 3985 3990 4000 3999 4001 3758 4002 4003 
192 193 418 417 217 218 443 442 3762 3763 3764 3753 4006 4007 4008 3997 3994 4004 4005 3995 4000 4010 4009 4011 3768 4012 4013 
193 194 419 418 218 219 444 443 3772 3773 3774 3763 4016 4017 4018 4007 4004 4014 4015 4005 4010 4020 4019 4021 3778 4022 4023 
194 195 420 419 219 220 445 444 3782 3783 3784 3773 4026 4027 4028 4017 4014 4024 4025 4015 4020 4030 4029 4031 3788 4032 4033 
195 196 421 420 220 221 446 445 3792 3793 3794 3783 4036 4037 4038 4027 4024 4034 4035 4025 4030 4040 4039 4041 3798 4042 4043 
196 197 422 421 221 222 447 446 3802 3803 3804 3793 4046 4047 4048 4037 4034 4044 4045 4035 4040 4050 4049 4051 3808 4052 4053 
197 198 423 422 222 223 448 447 3812 3813 3814 3803 4056 4057 4058 4047 4044 4054 4055 4045 4050 4060 4059 4061 3818 4062 4063 
198 199 424 423 223 224 449 448 3822 3823 3824 3813 4066 4067 4068 4057 4054 4064 4065 4055 4060 4070 4069 4071 3828 4072 4073 
225 226 451 450 250 251 476 475 2027 4074 4075 4076 2035 4079 4080 4081 2032 2031 4077 4078 4085 4083 2040 4084 4082 4086 4087 
226 227 452 451 251 252 477 476 2046 4088 4089 4074 2051 4091 4092 4079 2031 2048 4090 4077 4083 4094 2055 4095 4093 4096 4097 
227 228 453 452 252 253 478 477 2060 4098 4099 4088 2065 4101 4102 4091 2048 2062 4100 4090 4094 4104 2069 4105 4103 4106 4107 
228 229 454 453 253 254 479 478 2074 4108 4109 4098 2079 4111 4112 4101 2062 2076 4110 4100 4104 4114 2083 4115 4113 4116 4117 
229 230 455 454 254 255 480 479 2088 4118 4119 4108 2093 4121 4122 4111 2076 2090 4120 4110 4114 4124 2097 4125 4123 4126 4127 
230 231 456 455 255 256 481 480 2102 4128 4129 4118 2107 4131 4132 4121 2090 2104 4130 4120 4124 4134 2111 4135 4133 4136 4137 
231 232 457 456 256 257 482 481 2116 4138 4139 4128 2121 4141 4142 4131 2104 2118 4140 4130 4134 4144 2125 4145 4143 4146 4147 
232 233 458 457 257 258 483 482 2130 4148 4149 4138 2135 4151 4152 4141 2118 2132 4150 4140 4144 4154 2139 4155 4153 4156 4157 
233 234 459 458 258 259 484 483 2144 4158 4159 4148 2149 4161 4162 4151 2132 2146 4160 4150 4154 4164 2153 4165 4163 4166 4167 
234 235 460 459 259 260 485 484 2158 4168 4169 4158 2163 4171 4172 4161 2146 2160 4170 4160 4164 4174 2167 4175 4173 4176 4177 
235 236 461 460 260 261 486 485 2172 4178 4179 4168 2177 4181 4182 4171 2160 2174 4180 4170 4174 4184 2181 4185 4183 4186 4187 
236 237 462 461 261 262 487 486 2186 4188 4189 4178 2191 4191 4192 4181 2174 2188 4190 4180 4184 4194 2195 4195 4193 4196 4197 
237 238 463 462 262 263 488 487 2200 4198 4199 4188 2205 4201 4202 4191 2188 2202 4200 4190 4194 4204 2209 4205 4203 4206 4207 
238 239 464 463 263 264 489 488 2214 4208 4209 4198 2219 4211 4212 4201 2202 2216 4210 4200 4204 4214 2223 4215 4213 4216 4217 
239 240 465 464 264 265 490 489 2228 4218 4219 4208 2233 4221 4222 4211 2216 2230 4220 4210 4214 4224 2237 4225 4223 4226 4227 
240 241 466 465 265 266 491 490 2242 4228 4229 4218 2247 4231 4232 4221 2230 2244 4230 4220 4224 4234 2251 4235 4233 4236 4237 
241 242 467 466 266 267 492 491 2256 4238 4239 4228 2261 4241 4242 4231 2244 2258 4240 4230 4234 4244 2265 4245 4243 4246 4247 
242 243 468 467 267 268 493 492 2270 4248 4249 4238 2275 4251 4252 4241 2258 2272 4250 4240 4244 4254 2279 4255 4253 4256 4257 
243 244 469 468 268 269 494 493 2284 4258 4259 4248 2289 4261 4262 4251 2272 2286 4260 4250 4254 4264 2293 4265 4263 4266 4267 
244 245 470 469 269 270 495 494 2298 4268 4269 4258 2303 4271 4272 4261 2286 2300 4270 4260 4264 4274 2307 4275 4273 4276 4277 
245 246 471 470 270 271 496 495 2312 4278 4279 4268 2317 4281 4282 4271 2300 2314 4280 4270 4274 4284 2321 4285 4283 4286 4287 
246 247 472 471 271 272 497 496 2326 4288 4289 4278 2331 4291 4292 4281 2314 2328 4290 4280 4284 4294 2335 4295 4293 4296 4297 
247 248 473 472 272 273 498 497 2340 4298 4299 4288 2345 4301 4302 4291 2328 2342 4300 4290 4294 4304 2349 4305 4303 4306 4307 
248 249 474 473 273 274 499 498 2354 4308 4309 4298 2359 4311 4312 4301 2342 2356 4310 4300 4304 4314 2363 4315 4313 4316 4317 
250 251 476 475 275 276 501 500 2035 4079 4080 4081 2372 4320 4321 4322 2369 2368 4318 4319 4325 4323 2376 4324 4086 4326 4327 
251 252 477 476 276 277 502 501 2051 4091 4092 4079 2384 4329 4330 4320 2368 2381 4328 4318 4323 4331 2387 4332 4096 4333 4334 
252 253 478 477 277 278 503 502 2065 4101 4102 4091 2394 4336 4337 4329 2381 2391 4335 4328 4331 4338 2397 4339 4106 4340 4341 
253 254 479 478 278 279 504 503 2079 4111 4112 4101 2404 4343 4344 4336 2391 2401 4342 4335 4338 4345 2407 4346 4116 4347 4348 
254 255 480 479 279 280 505 504 2093 4121 4122 4111 2414 4350 4351 4343 2401 2411 4349 4342 4345 4352 2417 4353 4126 4354 4355 
255 256 481 480 280 281 506 505 2107 4131 4132 4121 2424 4357 4358 4350 2411 2421 4356 4349 4352 4359 2427 4360 4136 4361 4362 
256 257 482 481 281 282 507 506 2121 4141 4142 4131 2434 4364 4365 4357 2421 2431 4363 4356 4359 4366 2437 4367 4146 4368 4369 
257 258 483 482 282 283 508 507 2135 4151 4152 4141 2444 4371 4372 4364 2431 2441 4370 4363 4366 4373 2447 4374 4156 4375 4376 
258 259 484 483 283 284 509 508 2149 4161 4162 4151 2454 4378 4379 4371 2441 2451 4377 4370 4373 4380 2457 4381 4166 4382 4383 
259 260 485 484 284 285 510 509 2163 4171 4172 4161 2464 4385 4386 4378 2451 2461 4384 4377 4380 4387 2467 4388 4176 4389 4390 
260 261 486 485 285 286 511 510 2177 4181 4182 4171 2474 4392 4393 4385 2461 2471 4391 4384 4387 4394 2477 4395 4186 4396 4397 
261 262 487 486 286 287 512 511 2191 4191 4192 4181 2484 4399 4400 4392 2471 2481 4398 4391 4394 4401 2487 4402 4196 4403 4404 
262 263 488 487 287 288 513 512 2205 4201 4202 4191 2494 4406 4407 4399 2481 2491 4405 4398 4401 4408 2497 4409 4206 4410 4411 
263 264 489 488 288 289 514 513 2219 4211 4212 4201 2504 4413 4414 4406 2491 2501 4412 4405 4408 4415 2507 4416 4216 4417 4418 
264 265 490 489 289 290 515 514 2233 4221 4222 4211 2514 4420 4421 4413 2501 2511 4419 4412 4415 4422 2517 4423 4226 4424 4425 
265 266 491 490 290 291 516 515 2247 4231 4232 4221 2524 4427 4428 4420 2511 2521 4426 4419 4422 4429 2527 4430 4236 4431 4432 
266 267 492 491 291 292 517 516 2261 4241 4242 4231 2534 4434 4435 4427 2521 2531 4433 4426 4429 4436 2537 4437 4246 4438 4439 
267 268 493 492 292 293 518 517 2275 4251 4252 4241 2544 4441 4442 4434 2531 2541 4440 4433 4436 4443 2547 4444 4256 4445 4446 
268 269 494 493 293 294 519 518 2289 4261 4262 4251 2554 4448 4449 4441 2541 2551 4447 4440 4443 4450 2557 4451 4266 4452 4453 
269 270 495 494 294 295 520 519 2303 4271 4272 4261 2564 4455 4456 4448 2551 2561 4454 4447 4450 4457 2567 4458 4276 4459 4460 
270 271 496 495 295 296 521 520 2317 4281 4282 4271 2574 4462 4463 4455 2561 2571 4461 4454 4457 4464 2577 4465 4286 4466 4467 
271 272 497 496 296 297 522 521 2331 4291 4292 4281 2584 4469 4470 4462 2571 2581 4468 4461 4464 4471 2587 4472 4296 4473 4474 
272 273 498 497 297 298 523 522 2345 4301 4302 4291 2594 4476 4477 4469 2581 2591 4475 4468 4471 4478 2597 4479 4306 4480 4481 
273 274 499 498 298 299 524 523 2359 4311 4312 4301 2604 4483 4484 4476 2591 2601 4482 4475 4478 4485 2607 4486 4316 4487 4488 
275 276 501 500 300 301 526 525 2372 4320 4321 4322 2616 4491 4492 4493 2613 2612 4489 4490 4496 4494 2620 4495 4326 4497 4498 
276 277 502 501 301 302 527 526 2384 4329 4330 4320 2628 4500 4501 4491 2612 2625 4499 4489 4494 4502 2631 4503 4333 4504 4505 
277 278 503 502 302 303 528 527 2394 4336 4337 4329 2638 4507 4508 4500 2625 2635 4506 4499 4502 4509 2641 4510 4340 4511 4512 
278 279 504 503 303 304 529 528 2404 4343 4344 4336 2648 4514 4515 4507 2635 2645 4513 4506 4509 4516 2651 4517 4347 4518 4519 
279 280 505 504 304 305 530 529 2414 4350 4351 4343 2658 4521 4522 4514 2645 2655 4520 4513 4516 4523 2661 4524 4354 4525 4526 
280 281 506 505 305 306 531 530 2424 4357 4358 4350 2668 4528 4529 4521 2655 2665 4527 4520 4523 4530 2671 4531 4361 4532 4533 
281 282 507 506 306 307 532 531 2434 4364 4365 4357 2678 4535 4536 4528 2665 2675 4534 4527 4530 4537 2681 4538 4368 4539 4540 
282 283 508 507 307 308 533 532 2444 4371 4372 4364 2688 4542 4543 4535 2675 2685 4541 4534 4537 4544 2691 4545 4375 4546 4547 
283 284 509 508 308 309 534 533 2454 4378 4379 4371 2698 4549 4550 4542 2685 2695 4548 4541 4544 4551 2701 4552 4382 4553 4554 
284 285 510 509 309 310 535 534 2464 4385 4386 4378 2708 4556 4557 4549 2695 2705 4555 4548 4551 4558 2711 4559 4389 4560 4561 
285 286 511 510 310 311 536 535 2474 4392 4393 4385 2718 4563 4564 4556 2705 2715 4562 4555 4558 4565 2721 4566 4396 4567 4568 
286 287 512 511 311 312 537 536 2484 4399 4400 4392 2728 4570 4571 4563 2715 2725 4569 4562 4565 4572 2731 4573 4403 4574 4575 
287 288 513 512 312 313 538 537 2494 4406 4407 4399 2738 4577 4578 4570 2725 2735 4576 4569 4572 4579 2741 4580 4410 4581 4582 
288 289 514 513 313 314 539 538 2504 4413 4414 4406 2748 4584 4585 4577 2735 2745 4583 4576 4579 4586 2751 4587 4417 4588 4589 
289 290 515 514 314 315 540 539 2514 4420 4421 4413 2758 4591 4592 4584 2745 2755 4590 4583 4586 4593 2761 4594 4424 4595 4596 
290 291 516 515 315 316 541 540 2524 4427 4428 4420 2768 4598 4599 4591 2755 2765 4597 4590 4593 4600 2771 4601 4431 4602 4603 
291 292 517 516 316 317 542 541 2534 4434 4435 4427 2778 4605 4606 4598 2765 2775 4604 4597 4600 4607 2781 4608 4438 4609 4610 
292 293 518 517 317 318 543 542 2544 4441 4442 4434 2788 4612 4613 4605 2775 2785 4611 4604 4607 4614 2791 4615 4445 4616 4617 
293 294 519 518 318 319 544 543 2554 4448 4449 4441 2798 4619 4620 4612 2785 2795 4618 4611 4614 4621 2801 4622 4452 4623 4624 
294 295 520 519 319 320 545 544 2564 4455 4456 4448 2808 4626 4627 4619 2795 2805 4625 4618 4621 4628 2811 4629 4459 4630 4631 
295 296 521 520 320 321 546 545 2574 4462 4463 4455 2818 4633 4634 4626 2805 2815 4632 4625 4628 4635 2821 4636 4466 4637 4638 
296 297 522 521 321 322 547 546 2584 4469 4470 4462 2828 4640 4641 4633 2815 2825 4639 4632 4635 4642 2831 4643 4473 4644 4645 
297 298 523 522 322 323 548 547 2594 4476 4477 4469 2838 4647 4648 4640 2825 2835 4646 4639 4642 4649 2841 4650 4480 4651 4652 
298 299 524 523 323 324 549 548 2604 4483 4484 4476 2848 4654 4655 4647 2835 2845 4653 4646 4649 4656 2851 4657 4487 4658 4659 
300 301 526 525 325 326 551 550 2616 4491 4492 4493 2860 4662 4663 4664 2857 2856 4660 4661 4667 4665 2864 4666 4497 4668 4669 
301 302 527 526 326 327 552 551 2628 4500 4501 4491 2872 4671 4672 4662 2856 2869 4670 4660 4665 4673 2875 4674 4504 4675 4676 
302 303 528 527 327 328 553 552 2638 4507 4508 4500 2882 4678 4679 4671 2869 2879 4677 4670 4673 4680 2885 4681 4511 4682 4683 
303 304 529 528 328 329 554 553 2648 4514 4515 4507 2892 4685 4686 4678 2879 2889 4684 4677 4680 4687 2895 4688 4518 4689 4690 
304 305 530 529 329 330 555 554 2658 4521 4522 4514 2902 4692 4693 4685 2889 2899 4691 4684 4687 4694 2905 4695 4525 4696 4697 
305 306 531 530 330 331 556 555 2668 4528 4529 4521 2912 4699 4700 4692 2899 2909 4698 4691 4694 4701 2915 4702 4532 4703 4704 
306 307 532 531 331 332 557 556 2678 4535 4536 4528 2922 4706 4707 4699 2909 2919 4705 4698 4701 4708 2925 4709 4539 4710 4711 
307 308 533 532 332 333 558 557 2688 4542 4543 4535 2932 4713 4714 4706 2919 2929 4712 4705 4708 4715 2935 4716 4546 4717 4718 
308 309 534 533 333 334 559 558 2698 4549 4550 4542 2942 4720 4721 4713 2929 2939 4719 4712 4715 4722 2945 4723 4553 4724 4725 
309 310 535 534 334 335 560 559 2708 4556 4557 4549 2952 4727 4728 4720 2939 2949 4726 4719 4722 4729 2955 4730 4560 4731 4732 
310 311 536 535 335 336 561 560 2718 4563 4564 4556 2962 4734 4735 4727 2949 2959 4733 4726 4729 4736 2965 4737 4567 4738 4739 
311 312 537 536 336 337 562 561 2728 4570 4571 4563 2972 4741 4742 4734 2959 2969 4740 4733 4736 4743 2975 4744 4574 4745 4746 
312 313 538 537 337 338 563 562 2738 4577 4578 4570 2982 4748 4749 4741 2969 2979 4747 4740 4743 4750 2985 4751 4581 4752 4753 
313 314 539 538 338 339 564 563 2748 4584 4585 4577 2992 4755 4756 4748 2979 2989 4754 4747 4750 4757 2995 4758 4588 4759 4760 
314 315 540 539 339 340 565 564 2758 4591 4592 4584 3002 4762 4763 4755 2989 2999 4761 4754 4757 4764 3005 4765 4595 4766 4767 
315 316 541 540 340 341 566 565 2768 4598 4599 4591 3012 4769 4770 4762 2999 3009 4768 4761 4764 4771 3015 4772 4602 4773 4774 
316 317 542 541 341 342 567 566 2778 4605 4606 4598 3022 4776 4777 4769 3009 3019 4775 4768 4771 4778 3025 4779 4609 4780 4781 
317 318 543 542 342 343 568 567 2788 4612 4613 4605 3032 4783 4784 4776 3019 3029 4782 4775 4778 4785 3035 4786 4616 4787 4788 
318 319 544 543 343 344 569 568 2798 4619 4620 4612 3042 4790 4791 4783 3029 3039 4789 4782 4785 4792 3045 4793 4623 4794 4795 
319 320 545 544 344 345 570 569 2808 4626 4627 4619 3052 4797 4798 4790 3039 3049 4796 4789 4792 4799 3055 4800 4630 4801 4802 
320 321 546 545 345 346 571 570 2818 4633 4634 4626 3062 4804 4805 4797 3049 3059 4803 4796 4799 4806 3065 4807 4637 4808 4809 
321 322 547 546 346 347 572 571 2828 4640 4641 4633 3072 4811 4812 4804 3059 3069 4810 4803 4806 4813 3075 4814 4644 4815 4816 
322 323 548 547 347 348 573 572 2838 4647 4648 4640 3082 4818 4819 4811 3069 3079 4817 4810 4813 4820 3085 4821 4651 4822 4823 
323 324 549 548 348 349 574 573 2848 4654 4655 4647 3092 4825 4826 4818 3079 3089 4824 4817 4820 4827 3095 4828 4658 4829 4830 
325 326 551 550 350 351 576 575 2860 4662 4663 4664 3104 4833 4834 4835 3101 3100 4831 4832 4838 4836 3108 4837 4668 4839 4840 
326 327 552 551 351 352 577 576 2872 4671 4672 4662 3116 4842 4843 4833 3100 3113 4841 4831 4836 4844 3119 4845 4675 4846 4847 
327 328 553 552 352 353 578 577 2882 4678 4679 4671 3126 4849 4850 4842 3113 3123 4848 4841 4844 4851 3129 4852 4682 4853 4854 
328 329 554 553 353 354 579 578 2892 4685 4686 4678 3136 4856 4857 4849 3123 3133 4855 4848 4851 4858 3139 4859 4689 4860 4861 
329 330 555 554 354 355 580 579 2902 4692 4693 4685 3146 4863 4864 4856 3133 3143 4862 4855 4858 4865 3149 4866 4696 4867 4868 
330 331 556 555 355 356 581 580 2912 4699 4700 4692 3156 4870 4871 4863 3143 3153 4869 4862 4865 4872 3159 4873 4703 4874 4875 
331 332 557 556 356 357 582 581 2922 4706 4707 4699 3166 4877 4878 4870 3153 3163 4876 4869 4872 4879 3169 4880 4710 4881 4882 
332 333 558 557 357 358 583 582 2932 4713 4714 4706 3176 4884 4885 4877 3163 3173 4883 4876 4879 4886 3179 4887 4717 4888 4889 
333 334 559 558 358 359 584 583 2942 4720 4721 4713 3186 4891 4892 4884 3173 3183 4890 4883 4886 4893 3189 4894 4724 4895 4896 
334 335 560 559 359 360 585 584 2952 4727 4728 4720 3196 4898 4899 4891 3183 3193 4897 4890 4893 4900 3199 4901 4731 4902 4903 
335 336 561 560 360 361 586 585 2962 4734 4735 4727 3206 4905 4906 4898 3193 3203 4904 4897 4900 4907 3209 4908 4738 4909 4910 
336 337 562 561 361 362 587 586 2972 4741 4742 4734 3216 4912 4913 4905 3203 3213 4911 4904 4907 4914 3219 4915 4745 4916 4917 
337 338 563 562 362 363 588 587 2982 4748 4749 4741 3226 4919 4920 4912 3213 3223 4918 4911 4914 4921 3229 4922 4752 4923 4924 
338 339 564 563 363 364 589 588 2992 4755 4756 4748 3236 4926 4927 4919 3223 3233 4925 4918 4921 4928 3239 4929 4759 4930 4931 
339 340 565 564 364 365 590 589 3002 4762 4763 4755 3246 4933 4934 4926 3233 3243 4932 4925 4928 4935 3249 4936 4766 4937 4938 
340 341 566 565 365 366 591 590 3012 4769 4770 4762 3256 4940 4941 4933 3243 3253 4939 4932 4935 4942 3259 4943 4773 4944 4945 
341 342 567 566 366 367 592 591 3022 4776 4777 4769 3266 4947 4948 4940 3253 3263 4946 4939 4942 4949 3269 4950 4780 4951 4952 
342 343 568 567 367 368 593 592 3032 4783 4784 4776 3276 4954 4955 4947 3263 3273 4953 4946 4949 4956 3279 4957 4787 4958 4959 
343 344 569 568 368 369 594 593 3042 4790 4791 4783 3286 4961 4962 4954 3273 3283 4960 4953 4956 4963 3289 4964 4794 4965 4966 
344 345 570 569 369 370 595 594 3052 4797 4798 4790 3296 4968 4969 4961 3283 3293 4967 4960 4963 4970 3299 4971 4801 4972 4973 
345 346 571 570 370 371 596 595 3062 4804 4805 4797 3306 4975 4976 4968 3293 3303 4974 4967 4970 4977 3309 4978 4808 4979 4980 
346 347 572 571 371 372 597 596 3072 4811 4812 4804 3316 4982 4983 4975 3303 3313 4981 4974 4977 4984 3319 4985 4815 4986 4987 
347 348 573 572 372 373 598 597 3082 4818 4819 4811 3326 4989 4990 4982 3313 3323 4988 4981 4984 4991 3329 4992 4822 4993 4994 
348 349 574 573 373 374 599 598 3092 4825 4826 4818 3336 4996 4997 4989 3323 3333 4995 4988 4991 4998 3339 4999 4829 5000 5001 
350 351 576 575 375 376 601 600 3104 4833 4834 4835 3348 5004 5005 5006 3345 3344 5002 5003 5009 5007 3352 5008 4839 5010 5011 
351 352 577 576 376 377 602 601 3116 4842 4843 4833 3360 5013 5014 5004 3344 3357 5012 5002 5007 5015 3363 5016 4846 5017 5018 
352 353 578 577 377 378 603 602 3126 4849 4850 4842 3370 5020 5021 5013 3357 3367 5019 5012 5015 5022 3373 5023 4853 5024 5025 
353 354 579 578 378 379 604 603 3136 4856 4857 4849 3380 5027 5028 5020 3367 3377 5026 5019 5022 5029 3383 5030 4860 5031 5032 
354 355 580 579 379 380 605 604 3146 4863 4864 4856 3390 5034 5035 5027 3377 3387 5033 5026 5029 5036 3393 5037 4867 5038 5039 
355 356 581 580 380 381 606 605 3156 4870 4871 4863 3400 5041 5042 5034 3387 3397 5040 5033 5036 5043 3403 5044 4874 5045 5046 
356 357 582 581 381 382 607 606 3166 4877 4878 4870 3410 5048 5049 5041 3397 3407 5047 5040 5043 5050 3413 5051 4881 5052 5053 
357 358 583 582 382 383 608 607 3176 4884 4885 4877 3420 5055 5056 5048 3407 3417 5054 5047 5050 5057 3423 5058 4888 5059 5060 
358 359 584 583 383 384 609 608 3186 4891 4892 4884 3430 5062 5063 5055 3417 3427 5061 5054 5057 5064 3433 5065 4895 5066 5067 
359 360 585 584 384 385 610 609 3196 4898 4899 4891 3440 5069 5070 5062 3427 3437 5068 5061 5064 5071 3443 5072 4902 5073 5074 
360 361 586 585 385 386 611 610 3206 4905 4906 4898 3450 5076 5077 5069 3437 3447 5075 5068 5071 5078 3453 5079 4909 5080 5081 
361 362 587 586 386 387 612 611 3216 4912 4913 4905 3460 5083 5084 5076 3447 3457 5082 5075 5078 5085 3463 5086 4916 5087 5088 
362 363 588 587 387 388 613 612 3226 4919 4920 4912 3470 5090 5091 5083 3457 3467 5089 5082 5085 5092 3473 5093 4923 5094 5095 
363 364 589 588 388 389 614 613 3236 4926 4927 4919 3480 5097 5098 5090 3467 3477 5096 5089 5092 5099 3483 5100 4930 5101 5102 
364 365 590 589 389 390 615 614 3246 4933 4934 4926 3490 5104 5105 5097 3477 3487 5103 5096 5099 5106 3493 5107 4937 5108 5109 
365 366 591 590 390 391 616 615 3256 4940 4941 4933 3500 5111 5112 5104 3487 3497 5110 5103 5106 5113 3503 5114 4944 5115 5116 
366 367 592 591 391 392 617 616 3266 4947 4948 4940 3510 5118 5119 5111 3497 3507 5117 5110 5113 5120 3513 5121 4951 5122 5123 
367 368 593 592 392 393 618 617 3276 4954 4955 4947 3520 5125 5126 5118 3507 3517 5124 5117 5120 5127 3523 5128 4958 5129 5130 
368 369 594 593 393 394 619 618 3286 4961 4962 4954 3530 5132 5133 5125 3517 3527 5131 5124 5127 5134 3533 5135 4965 5136 5137 
369 370 595 594 394 395 620 619 3296 4968 4969 4961 3540 5139 5140 5132 3527 3537 5138 5131 5134 5141 3543 5142 4972 5143 5144 
370 371 596 595 395 396 621 620 3306 4975 4976 4968 3550 5146 5147 5139 3537 3547 5145 5138 5141 5148 3553 5149 4979 5150 5151 
371 372 597 596 396 397 622 621 3316 4982 4983 4975 3560 5153 5154 5146 3547 3557 5152 5145 5148 5155 3563 5156 4986 5157 5158 
372 373 598 597 397 398 623 622 3326 4989 4990 4982 3570 5160 5161 5153 3557 3567 5159 5152 5155 5162 3573 5163 4993 5164 5165 
373 374 599 598 398 399 624 623 3336 4996 4997 4989 3580 5167 5168 5160 3567 3577 5166 5159 5162 5169 3583 5170 5000 5171 5172 
375 376 601 600 400 401 626 625 3348 5004 5005 5006 3592 5175 5176 5177 3589 3588 5173 5174 5180 5178 3596 5179 5010 5181 5182 
376 377 602 601 401 402 627 626 3360 5013 5014 5004 3604 5184 5185 5175 3588 3601 5183 5173 5178 5186 3607 5187 5017 5188 5189 
377 378 603 602 402 403 628 627 3370 5020 5021 5013 3614 5191 5192 5184 3601 3611 5190 5183 5186 5193 3617 5194 5024 5195 5196 
378 379 604 603 403 404 629 628 3380 5027 5028 5020 3624 5198 5199 5191 3611 3621 5197 5190 5193 5200 3627 5201 5031 5202 5203 
379 380 605 604 404 405 630 629 3390 5034 5035 5027 3634 5205 5206 5198 3621 3631 5204 5197 5200 5207 3637 5208 5038 5209 5210 
380 381 606 605 405 406 631 630 3400 5041 5042 5034 3644 5212 5213 5205 3631 3641 5211 5204 5207 5214 3647 5215 5045 5216 5217 
381 382 607 606 406 407 632 631 3410 5048 5049 5041 3654 5219 5220 5212 3641 3651 5218 5211 5214 5221 3657 5222 5052 5223 5224 
382 383 608 607 407 408 633 632 3420 5055 5056 5048 3664 5226 5227 5219 3651 3661 5225 5218 5221 5228 3667 5229 5059 5230 5231 
383 384 609 608 408 409 634 633 3430 5062 5063 5055 3674 5233 5234 5226 3661 3671 5232 5225 5228 5235 3677 5236 5066 5237 5238 
384 385 610 609 409 410 635 634 3440 5069 5070 5062 3684 5240 5241 5233 3671 3681 5239 5232 5235 5242 3687 5243 5073 5244 5245 
385 386 611 610 410 411 636 635 3450 5076 5077 5069 3694 5247 5248 5240 3681 3691 5246 5239 5242 5249 3697 5250 5080 5251 5252 
386 387 612 611 411 412 637 636 3460 5083 5084 5076 3704 5254 5255 5247 3691 3701 5253 5246 5249 5256 3707 5257 5087 5258 5259 
387 388 613 612 412 413 638 637 3470 5090 5091 5083 3714 5261 5262 5254 3701 3711 5260 5253 5256 5263 3717 5264 5094 5265 5266 
388 389 614 613 413 414 639 638 3480 5097 5098 5090 3724 5268 5269 5261 3711 3721 5267 5260 5263 5270 3727 5271 5101 5272 5273 
389 390 615 614 414 415 640 639 3490 5104 5105 5097 3734 5275 5276 5268 3721 3731 5274 5267 5270 5277 3737 5278 5108 5279 5280 
390 391 616 615 415 416 641 640 3500 5111 5112 5104 3744 5282 5283 5275 3731 3741 5281 5274 5277 5284 3747 5285 5115 5286 5287 
391 392 617 616 416 417 642 641 3510 5118 5119 5111 3754 5289 5290 5282 3741 3751 5288 5281 5284 5291 3757 5292 5122 5293 5294 
392 393 618 617 417 418 643 642 3520 5125 5126 5118 3764 5296 5297 5289 3751 3761 5295 5288 5291 5298 3767 5299 5129 5300 5301 
393 394 619 618 418 419 644 643 3530 5132 5133 5125 3774 5303 5304 5296 3761 3771 5302 5295 5298 5305 3777 5306 5136 5307 5308 
394 395 620 619 419 420 645 644 3540 5139 5140 5132 3784 5310 5311 5303 3771 3781 5309 5302 5305 5312 3787 5313 5143 5314 5315 
395 396 621 620 420 421 646 645 3550 5146 5147 5139 3794 5317 5318 5310 3781 3791 5316 5309 5312 5319 3797 5320 5150 5321 5322 
396 397 622 621 421 422 647 646 3560 5153 5154 5146 3804 5324 5325 5317 3791 3801 5323 5316 5319 5326 3807 5327 5157 5328 5329 
397 398 623 622 422 423 648 647 3570 5160 5161 5153 3814 5331 5332 5324 3801 3811 5330 5323 5326 5333 3817 5334 5164 5335 5336 
398 399 624 623 423 424 649 648 3580 5167 5168 5160 3824 5338 5339 5331 3811 3821 5337 5330 5333 5340 3827 5341 5171 5342 5343 
400 401 626 625 425 426 651 650 3592 5175 5176 5177 3836 5346 5347 5348 3833 3832 5344 5345 5351 5349 3840 5350 5181 5352 5353 
401 402 627 626 426 427 652 651 3604 5184 5185 5175 3848 5355 5356 5346 3832 3845 5354 5344 5349 5357 3851 5358 5188 5359 5360 
402 403 628 627 427 428 653 652 3614 5191 5192 5184 3858 5362 5363 5355 3845 3855 5361 5354 5357 5364 3861 5365 5195 5366 5367 
403 404 629 628 428 429 654 653 3624 5198 5199 5191 3868 5369 5370 5362 3855 3865 5368 5361 5364 5371 3871 5372 5202 5373 5374 
404 405 630 629 429 430 655 654 3634 5205 5206 5198 3878 5376 5377 5369 3865 3875 5375 5368 5371 5378 3881 5379 5209 5380 5381 
405 406 631 630 430 431 656 655 3644 5212 5213 5205 3888 5383 5384 5376 3875 3885 5382 5375 5378 5385 3891 5386 5216 5387 5388 
406 407 632 631 431 432 657 656 3654 5219 5220 5212 3898 5390 5391 5383 3885 3895 5389 5382 5385 5392 3901 5393 5223 5394 5395 
407 408 633 632 432 433 658 657 3664 5226 5227 5219 3908 5397 5398 5390 3895 3905 5396 5389 5392 5399 3911 5400 5230 5401 5402 
408 409 634 633 433 434 659 658 3674 5233 5234 5226 3918 5404 5405 5397 3905 3915 5403 5396 5399 5406 3921 5407 5237 5408 5409 
409 410 635 634 434 435 660 659 3684 5240 5241 5233 3928 5411 5412 5404 3915 3925 5410 5403 5406 5413 3931 5414 5244 5415 5416 
410 411 636 635 435 436 661 660 3694 5247 5248 5240 3938 5418 5419 5411 3925 3935 5417 5410 5413 5420 3941 5421 5251 5422 5423 
411 412 637 636 436 437 662 661 3704 5254 5255 5247 3948 5425 5426 5418 3935 3945 5424 5417 5420 5427 3951 5428 5258 5429 5430 
412 413 638 637 437 438 663 662 3714 5261 5262 5254 3958 5432 5433 5425 3945 3955 5431 5424 5427 5434 3961 5435 5265 5436 5437 
413 414 639 638 438 439 664 663 3724 5268 5269 5261 3968 5439 5440 5432 3955 3965 5438 5431 5434 5441 3971 5442 5272 5443 5444 
414 415 640 639 439 440 665 664 3734 5275 5276 5268 3978 5446 5447 5439 3965 3975 5445 5438 5441 5448 3981 5449 5279 5450 5451 
415 416 641 640 440 441 666 665 3744 5282 5283 5275 3988 5453 5454 5446 3975 3985 5452 5445 5448 5455 3991 5456 5286 5457 5458 
416 417 642 641 441 442 667 666 3754 5289 5290 5282 3998 5460 5461 5453 3985 3995 5459 5452 5455 5462 4001 5463 5293 5464 5465 
417 418 643 642 442 443 668 667 3764 5296 5297 5289 4008 5467 5468 5460 3995 4005 5466 5459 5462 5469 4011 5470 5300 5471 5472 
418 419 644 643 443 444 669 668 3774 5303 5304 5296 4018 5474 5475 5467 4005 4015 5473 5466 5469 5476 4021 5477 5307 5478 5479 
419 420 645 644 444 445 670 669 3784 5310 5311 5303 4028 5481 5482 5474 4015 4025 5480 5473 5476 5483 4031 5484 5314 5485 5486 
420 421 646 645 445 446 671 670 3794 5317 5318 5310 4038 5488 5489 5481 4025 4035 5487 5480 5483 5490 4041 5491 5321 5492 5493 
421 422 647 646 446 447 672 671 3804 5324 5325 5317 4048 5495 5496 5488 4035 4045 5494 5487 5490 5497 4051 5498 5328 5499 5500 
422 423 648 647 447 448 673 672 3814 5331 5332 5324 4058 5502 5503 5495 4045 4055 5501 5494 5497 5504 4061 5505 5335 5506 5507 
423 424 649 648 448 449 674 673 3824 5338 5339 5331 4068 5509 5510 5502 4055 4065 5508 5501 5504 5511 4071 5512 5342 5513 5514 
450 451 676 675 475 476 701 700 4075 5515 5516 5517 4080 5520 5521 5522 4078 4077 5518 5519 5526 5524 4084 5525 5523 5527 5528 
451 452 677 676 476 477 702 701 4089 5529 5530 5515 4092 5532 5533 5520 4077 4090 5531 5518 5524 5535 4095 5536 5534 5537 5538 
452 453 678 677 477 478 703 702 4099 5539 5540 5529 4102 5542 5543 5532 4090 4100 5541 5531 5535 5545 4105 5546 5544 5547 5548 
453 454 679 678 478 479 704 703 4109 5549 5550 5539 4112 5552 5553 5542 4100 4110 5551 5541 5545 5555 4115 5556 5554 5557 5558 
454 455 680 679 479 480 705 704 4119 5559 5560 5549 4122 5562 5563 5552 4110 4120 5561 5551 5555 5565 4125 5566 5564 5567 5568 
455 456 681 680 480 481 706 705 4129 5569 5570 5559 4132 5572 5573 5562 4120 4130 5571 5561 5565 5575 4135 5576 5574 5577 5578 
456 457 682 681 481 482 707 706 4139 5579 5580 5569 4142 5582 5583 5572 4130 4140 5581 5571 5575 5585 4145 5586 5584 5587 5588 
457 458 683 682 482 483 708 707 4149 5589 5590 5579 4152 5592 5593 5582 4140 4150 5591 5581 5585 5595 4155 5596 5594 5597 5598 
458 459 684 683 483 484 709 708 4159 5599 5600 5589 4162 5602 5603 5592 4150 4160 5601 5591 5595 5605 4165 5606 5604 5607 5608 
459 460 685 684 484 485 710 709 4169 5609 5610 5599 4172 5612 5613 5602 4160 4170 5611 5601 5605 5615 4175 5616 5614 5617 5618 
460 461 686 685 485 486 711 710 4179 5619 5620 5609 4182 5622 5623 5612 4170 4180 5621 5611 5615 5625 4185 5626 5624 5627 5628 
461 462 687 686 486 487 712 711 4189 5629 5630 5619 4192 5632 5633 5622 4180 4190 5631 5621 5625 5635 4195 5636 5634 5637 5638 
462 463 688 687 487 488 713 712 4199 5639 5640 5629 4202 5642 5643 5632 4190 4200 5641 5631 5635 5645 4205 5646 5644 5647 5648 
463 464 689 688 488 489 714 713 4209 5649 5650 5639 4212 5652 5653 5642 4200 4210 5651 5641 5645 5655 4215 5656 5654 5657 5658 
464 465 690 689 489 490 715 714 4219 5659 5660 5649 4222 5662 5663 5652 4210 4220 5661 5651 5655 5665 4225 5666 5664 5667 5668 
465 466 691 690 490 491 716 715 4229 5669 5670 5659 4232 5672 5673 5662 4220 4230 5671 5661 5665 5675 4235 5676 5674 5677 5678 
466 467 692 691 491 492 717 716 4239 5679 5680 5669 4242 5682 5683 5672 4230 4240 5681 5671 5675 5685 4245 5686 5684 5687 5688 
467 468 693 692 492 493 718 717 4249 5689 5690 5679 4252 5692 5693 5682 4240 4250 5691 5681 5685 5695 4255 5696 5694 5697 5698 
468 469 694 693 493 494 719 718 4259 5699 5700 5689 4262 5702 5703 5692 4250 4260 5701 5691 5695 5705 4265 5706 5704 5707 5708 
469 470 695 694 494 495 720 719 4269 5709 5710 5699 4272 5712 5713 5702 4260 4270 5711 5701 5705 5715 4275 5716 5714 5717 5718 
470 471 696 695 495 496 721 720 4279 5719 5720 5709 4282 5722 5723 5712 4270 4280 5721 5711 5715 5725 4285 5726 5724 5727 5728 
471 472 697 696 496 497 722 721 4289 5729 5730 5719 4292 5732 5733 5722 4280 4290 5731 5721 5725 5735 4295 5736 5734 5737 5738 
472 473 698 697 497 498 723 722 4299 5739 5740 5729 4302 5742 5743 5732 4290 4300 5741 5731 5735 5745 4305 5746 5744 5747 5748 
473 474 699 698 498 499 724 723 4309 5749 5750 5739 4312 5752 5753 5742 4300 4310 5751 5741 5745 5755 4315 5756 5754 5757 5758 
475 476 701 700 500 501 726 725 4080 5520 5521 5522 4321 5761 5762 5763 4319 4318 5759 5760 5766 5764 4324 5765 5527 5767 5768 
476 477 702 701 501 502 727 726 4092 5532 5533 5520 4330 5770 5771 5761 4318 4328 5769 5759 5764 5772 4332 5773 5537 5774 5775 
477 478 703 702 502 503 728 727 4102 5542 5543 5532 4337 5777 5778 5770 4328 4335 5776 5769 5772 5779 4339 5780 5547 5781 5782 
478 479 704 703 503 504 729 728 4112 5552 5553 5542 4344 5784 5785 5777 4335 4342 5783 5776 5779 5786 4346 5787 5557 5788 5789 
479 480 705 704 504 505 730 729 4122 5562 5563 5552 4351 5791 5792 5784 4342 4349 5790 5783 5786 5793 4353 5794 5567 5795 5796 
480 481 706 705 505 506 731 730 4132 5572 5573 5562 4358 5798 5799 5791 4349 4356 5797 5790 5793 5800 4360 5801 5577 5802 5803 
481 482 707 706 506 507 732 731 4142 5582 5583 5572 4365 5805 5806 5798 4356 4363 5804 5797 5800 5807 4367 5808 5587 5809 5810 
482 483 708 707 507 508 733 732 4152 5592 5593 5582 4372 5812 5813 5805 4363 4370 5811 5804 5807 5814 4374 5815 5597 5816 5817 
483 484 709 708 508 509 734 733 4162 5602 5603 5592 4379 5819 5820 5812 4370 4377 5818 5811 5814 5821 4381 5822 5607 5823 5824 
484 485 710 709 509 510 735 734 4172 5612 5613 5602 4386 5826 5827 5819 4377 4384 5825 5818 5821 5828 4388 5829 5617 5830 5831 
485 486 711 710 510 511 736 735 4182 5622 5623 5612 4393 5833 5834 5826 4384 4391 5832 5825 5828 5835 4395 5836 5627 5837 5838 
486 487 712 711 511 512 737 736 4192 5632 5633 5622 4400 5840 5841 5833 4391 4398 5839 5832 5835 5842 4402 5843 5637 5844 5845 
487 488 713 712 512 513 738 737 4202 5642 5643 5632 4407 5847 5848 5840 4398 4405 5846 5839 5842 5849 4409 5850 5647 5851 5852 
488 489 714 713 513 514 739 738 4212 5652 5653 5642 4414 5854 5855 5847 4405 4412 5853 5846 5849 5856 4416 5857 5657 5858 5859 
489 490 715 714 514 515 740 739 4222 5662 5663 5652 4421 5861 5862 5854 4412 4419 5860 5853 5856 5863 4423 5864 5667 5865 5866 
490 491 716 715 515 516 741 740 4232 5672 5673 5662 4428 5868 5869 5861 4419 4426 5867 5860 5863 5870 4430 5871 5677 5872 5873 
491 492 717 716 516 517 742 741 4242 5682 5683 5672 4435 5875 5876 5868 4426 4433 5874 5867 5870 5877 4437 5878 5687 5879 5880 
492 493 718 717 517 518 743 742 4252 5692 5693 5682 4442 5882 5883 5875 4433 4440 5881 5874 5877 5884 4444 5885 5697 5886 5887 
493 494 719 718 518 519 744 743 4262 5702 5703 5692 4449 5889 5890 5882 4440 4447 5888 5881 5884 5891 4451 5892 5707 5893 5894 
494 495 720 719 519 520 745 744 4272 5712 5713 5702 4456 5896 5897 5889 4447 4454 5895 5888 5891 5898 4458 5899 5717 5900 5901 
495 496 721 720 520 521 746 745 4282 5722 5723 5712 4463 5903 5904 5896 4454 4461 5902 5895 5898 5905 4465 5906 5727 5907 5908 
496 497 722 721 521 522 747 746 4292 5732 5733 5722 4470 5910 5911 5903 4461 4468 5909 5902 5905 5912 4472 5913 5737 5914 5915 
497 498 723 722 522 523 748 747 4302 5742 5743 5732 4477 5917 5918 5910 4468 4475 5916 5909 5912 5919 4479 5920 5747 5921 5922 
498 499 724 723 523 524 749 748 4312 5752 5753 5742 4484 5924 5925 5917 4475 4482 5923 5916 5919 5926 4486 5927 5757 5928 5929 
500 501 726 725 525 526 751 750 4321 5761 5762 5763 4492 5932 5933 5934 4490 4489 5930 5931 5937 5935 4495 5936 5767 5938 5939 
501 502 727 726 526 527 752 751 4330 5770 5771 5761 4501 5941 5942 5932 4489 4499 5940 5930 5935 5943 4503 5944 5774 5945 5946 
502 503 728 727 527 528 753 752 4337 5777 5778 5770 4508 5948 5949 5941 4499 4506 5947 5940 5943 5950 4510 5951 5781 5952 5953 
503 504 729 728 528 529 754 753 4344 5784 5785 5777 4515 5955 5956 5948 4506 4513 5954 5947 5950 5957 4517 5958 5788 5959 5960 
504 505 730 729 529 530 755 754 4351 5791 5792 5784 4522 5962 5963 5955 4513 4520 5961 5954 5957 5964 4524 5965 5795 5966 5967 
505 506 731 730 530 531 756 755 4358 5798 5799 5791 4529 5969 5970 5962 4520 4527 5968 5961 5964 5971 4531 5972 5802 5973 5974 
506 507 732 731 531 532 757 756 4365 5805 5806 5798 4536 5976 5977 5969 4527 4534 5975 5968 5971 5978 4538 5979 5809 5980 5981 
507 508 733 732 532 533 758 757 4372 5812 5813 5805 4543 5983 5984 5976 4534 4541 5982 5975 5978 5985 4545 5986 5816 5987 5988 
508 509 734 733 533 534 759 758 4379 5819 5820 5812 4550 5990 5991 5983 4541 4548 5989 5982 5985 5992 4552 5993 5823 5994 5995 
509 510 735 734 534 535 760 759 4386 5826 5827 5819 4557 5997 5998 5990 4548 4555 5996 5989 5992 5999 4559 6000 5830 6001 6002 
510 511 736 735 535 536 761 760 4393 5833 5834 5826 4564 6004 6005 5997 4555 4562 6003 5996 5999 6006 4566 6007 5837 6008 6009 
511 512 737 736 536 537 762 761 4400 5840 5841 5833 4571 6011 6012 6004 4562 4569 6010 6003 6006 6013 4573 6014 5844 6015 6016 
512 513 738 737 537 538 763 762 4407 5847 5848 5840 4578 6018 6019 6011 4569 4576 6017 6010 6013 6020 4580 6021 5851 6022 6023 
513 514 739 738 538 539 764 763 4414 5854 5855 5847 4585 6025 6026 6018 4576 4583 6024 6017 6020 6027 4587 6028 5858 6029 6030 
514 515 740 739 539 540 765 764 4421 5861 5862 5854 4592 6032 6033 6025 4583 4590 6031 6024 6027 6034 4594 6035 5865 6036 6037 
515 516 741 740 540 541 766 765 4428 5868 5869 5861 4599 6039 6040 6032 4590 4597 6038 6031 6034 6041 4601 6042 5872 6043 6044 
516 517 742 741 541 542 767 766 4435 5875 5876 5868 4606 6046 6047 6039 4597 4604 6045 6038 6041 6048 4608 6049 5879 6050 6051 
517 518 743 742 542 543 768 767 4442 5882 5883 5875 4613 6053 6054 6046 4604 4611 6052 6045 6048 6055 4615 6056 5886 6057 6058 
518 519 744 743 543 544 769 768 4449 5889 5890 5882 4620 6060 6061 6053 4611 4618 6059 6052 6055 6062 4622 6063 5893 6064 6065 
519 520 745 744 544 545 770 769 4456 5896 5897 5889 4627 6067 6068 6060 4618 4625 6066 6059 6062 6069 4629 6070 5900 6071 6072 
520 521 746 745 545 546 771 770 4463 5903 5904 5896 4634 6074 6075 6067 4625 4632 6073 6066 6069 6076 4636 6077 5907 6078 6079 
521 522 747 746 546 547 772 771 4470 5910 5911 5903 4641 6081 6082 6074 4632 4639 6080 6073 6076 6083 4643 6084 5914 6085 6086 
522 523 748 747 547 548 773 772 4477 5917 5918 5910 4648 6088 6089 6081 4639 4646 6087 6080 6083 6090 4650 6091 5921 6092 6093 
523 524 749 748 548 549 774 773 4484 5924 5925 5917 4655 6095 6096 6088 4646 4653 6094 6087 6090 6097 4657 6098 5928 6099 6100 
525 526 751 750 550 551 776 775 4492 5932 5933 5934 4663 6103 6104 6105 4661 4660 6101 6102 6108 6106 4666 6107 5938 6109 6110 
526 527 752 751 551 552 777 776 4501 5941 5942 5932 4672 6112 6113 6103 4660 4670 6111 6101 6106 6114 4674 6115 5945 6116 6117 
527 528 753 752 552 553 778 777 4508 5948 5949 5941 4679 6119 6120 6112 4670 4677 6118 6111 6114 6121 4681 6122 5952 6123 6124 
528 529 754 753 553 554 779 778 4515 5955 5956 5948 4686 6126 6127 6119 4677 4684 6125 6118 6121 6128 4688 6129 5959 6130 6131 
529 530 755 754 554 555 780 779 4522 5962 5963 5955 4693 6133 6134 6126 4684 4691 6132 6125 6128 6135 4695 6136 5966 6137 6138 
530 531 756 755 555 556 781 780 4529 5969 5970 5962 4700 6140 6141 6133 4691 4698 6139 6132 6135 6142 4702 6143 5973 6144 6145 
531 532 757 756 556 557 782 781 4536 5976 5977 5969 4707 6147 6148 6140 4698 4705 6146 6139 6142 6149 4709 6150 5980 6151 6152 
532 533 758 757 557 558 783 782 4543 5983 5984 5976 4714 6154 6155 6147 4705 4712 6153 6146 6149 6156 4716 6157 5987 6158 6159 
533 534 759 758 558 559 784 783 4550 5990 5991 5983 4721 6161 6162 6154 4712 4719 6160 6153 6156 6163 4723 6164 5994 6165 6166 
534 535 760 759 559 560 785 784 4557 5997 5998 5990 4728 6168 6169 6161 4719 4726 6167 6160 6163 6170 4730 6171 6001 6172 6173 
535 536 761 760 560 561 786 785 4564 6004 6005 5997 4735 6175 6176 6168 4726 4733 6174 6167 6170 6177 4737 6178 6008 6179 6180 
536 537 762 761 561 562 787 786 4571 6011 6012 6004 4742 6182 6183 6175 4733 4740 6181 6174 6177 6184 4744 6185 6015 6186 6187 
537 538 763 762 562 563 788 787 4578 6018 6019 6011 4749 6189 6190 6182 4740 4747 6188 6181 6184 6191 4751 6192 6022 6193 6194 
538 539 764 763 563 564 789 788 4585 6025 6026 6018 4756 6196 6197 6189 4747 4754 6195 6188 6191 6198 4758 6199 6029 6200 6201 
539 540 765 764 564 565 790 789 4592 6032 6033 6025 4763 6203 6204 6196 4754 4761 6202 6195 6198 6205 4765 6206 6036 6207 6208 
540 541 766 765 565 566 791 790 4599 6039 6040 6032 4770 6210 6211 6203 4761 4768 6209 6202 6205 6212 4772 6213 6043 6214 6215 
541 542 767 766 566 567 792 791 4606 6046 6047 6039 4777 6217 6218 6210 4768 4775 6216 6209 6212 6219 4779 6220 6050 6221 6222 
542 543 768 767 567 568 793 792 4613 6053 6054 6046 4784 6224 6225 6217 4775 4782 6223 6216 6219 6226 4786 6227 6057 6228 6229 
543 544 769 768 568 569 794 793 4620 6060 6061 6053 4791 6231 6232 6224 4782 4789 6230 6223 6226 6233 4793 6234 6064 6235 6236 
544 545 770 769 569 570 795 794 4627 6067 6068 6060 4798 6238 6239 6231 4789 4796 6237 6230 6233 6240 4800 6241 6071 6242 6243 
545 546 771 770 570 571 796 795 4634 6074 6075 6067 4805 6245 6246 6238 4796 4803 6244 6237 6240 6247 4807 6248 6078 6249 6250 
546 547 772 771 571 572 797 796 4641 6081 6082 6074 4812 6252 6253 6245 4803 4810 6251 6244 6247 6254 4814 6255 6085 6256 6257 
547 548 773 772 572 573 798 797 4648 6088 6089 6081 4819 6259 6260 6252 4810 4817 6258 6251 6254 6261 4821 6262 6092 6263 6264 
548 549 774 773 573 574 799 798 4655 6095 6096 6088 4826 6266 6267 6259 4817 4824 6265 6258 6261 6268 4828 6269 6099 6270 6271 
550 551 776 775 575 576 801 800 4663 6103 6104 6105 4834 6274 6275 6276 4832 4831 6272 6273 6279 6277 4837 6278 6109 6280 6281 
551 552 777 776 576 577 802 801 4672 6112 6113 6103 4843 6283 6284 6274 4831 4841 6282 6272 6277 6285 4845 6286 6116 6287 6288 
552 553 778 777 577 578 803 802 4679 6119 6120 6112 4850 6290 6291 6283 4841 4848 6289 6282 6285 6292 4852 6293 6123 6294 6295 
553 554 779 778 578 579 804 803 4686 6126 6127 6119 4857 6297 6298 6290 4848 4855 6296 6289 6292 6299 4859 6300 6130 6301 6302 
554 555 780 779 579 580 805 804 4693 6133 6134 6126 4864 6304 6305 6297 4855 4862 6303 6296 6299 6306 4866 6307 6137 6308 6309 
555 556 781 780 580 581 806 805 4700 6140 6141 6133 4871 6311 6312 6304 4862 4869 6310 6303 6306 6313 4873 6314 6144 6315 6316 
556 557 782 781 581 582 807 806 4707 6147 6148 6140 4878 6318 6319 6311 4869 4876 6317 6310 6313 6320 4880 6321 6151 6322 6323 
557 558 783 782 582 583 808 807 4714 6154 6155 6147 4885 6325 6326 6318 4876 4883 6324 6317 6320 6327 4887 6328 6158 6329 6330 
558 559 784 783 583 584 809 808 4721 6161 6162 6154 4892 6332 6333 6325 4883 4890 6331 6324 6327 6334 4894 6335 6165 6336 6337 
559 560 785 784 584 585 810 809 4728 6168 6169 6161 4899 6339 6340 6332 4890 4897 6338 6331 6334 6341 4901 6342 6172 6343 6344 
560 561 786 785 585 586 811 810 4735 6175 6176 6168 4906 6346 6347 6339 4897 4904 6345 6338 6341 6348 4908 6349 6179 6350 6351 
561 562 787 786 586 587 812 811 4742 6182 6183 6175 4913 6353 6354 6346 4904 4911 6352 6345 6348 6355 4915 6356 6186 6357 6358 
562 563 788 787 587 588 813 812 4749 6189 6190 6182 4920 6360 6361 6353 4911 4918 6359 6352 6355 6362 4922 6363 6193 6364 6365 
563 564 789 788 588 589 814 813 4756 6196 6197 6189 4927 6367 6368 6360 4918 4925 6366 6359 6362 6369 4929 6370 6200 6371 6372 
564 565 790 789 589 590 815 814 4763 6203 6204 6196 4934 6374 6375 6367 4925 4932 6373 6366 6369 6376 4936 6377 6207 6378 6379 
565 566 791 790 590 591 816 815 4770 6210 6211 6203 4941 6381 6382 6374 4932 4939 6380 6373 6376 6383 4943 6384 6214 6385 6386 
566 567 792 791 591 592 817 816 4777 6217 6218 6210 4948 6388 6389 6381 4939 4946 6387 6380 6383 6390 4950 6391 6221 6392 6393 
567 568 793 792 592 593 818 817 4784 6224 6225 6217 4955 6395 6396 6388 4946 4953 6394 6387 6390 6397 4957 6398 6228 6399 6400 
568 569 794 793 593 594 819 818 4791 6231 6232 6224 4962 6402 6403 6395 4953 4960 6401 6394 6397 6404 4964 6405 6235 6406 6407 
569 570 795 794 594 595 820 819 4798 6238 6239 6231 4969 6409 6410 6402 4960 4967 6408 6401 6404 6411 4971 6412 6242 6413 6414 
570 571 796 795 595 596 821 820 4805 6245 6246 6238 4976 6416 6417 6409 4967 4974 6415 6408 6411 6418 4978 6419 6249 6420 6421 
571 572 797 796 596 597 822 821 4812 6252 6253 6245 4983 6423 6424 6416 4974 4981 6422 6415 6418 6425 4985 6426 6256 6427 6428 
572 573 798 797 597 598 823 822 4819 6259 6260 6252 4990 6430 6431 6423 4981 4988 6429 6422 6425 6432 4992 6433 6263 6434 6435 
573 574 799 798 598 599 824 823 4826 6266 6267 6259 4997 6437 6438 6430 4988 4995 6436 6429 6432 6439 4999 6440 6270 6441 6442 
575 576 801 800 600 601 826 825 4834 6274 6275 6276 5005 6445 6446 6447 5003 5002 6443 6444 6450 6448 5008 6449 6280 6451 6452 
576 577 802 801 601 602 827 826 4843 6283 6284 6274 5014 6454 6455 6445 5002 5012 6453 6443 6448 6456 5016 6457 6287 6458 6459 
577 578 803 802 602 603 828 827 4850 6290 6291 6283 5021 6461 6462 6454 5012 5019 6460 6453 6456 6463 5023 6464 6294 6465 6466 
578 579 804 803 603 604 829 828 4857 6297 6298 6290 5028 6468 6469 6461 5019 5026 6467 6460 6463 6470 5030 6471 6301 6472 6473 
579 580 805 804 604 605 830 829 4864 6304 6305 6297 5035 6475 6476 6468 5026 5033 6474 6467 6470 6477 5037 6478 6308 6479 6480 
580 581 806 805 605 606 831 830 4871 6311 6312 6304 5042 6482 6483 6475 5033 5040 6481 6474 6477 6484 5044 6485 6315 6486 6487 
581 582 807 806 606 607 832 831 4878 6318 6319 6311 5049 6489 6490 6482 5040 5047 6488 6481 6484 6491 5051 6492 6322 6493 6494 
582 583 808 807 607 608 833 832 4885 6325 6326 6318 5056 6496 6497 6489 5047 5054 6495 6488 6491 6498 5058 6499 6329 6500 6501 
583 584 809 808 608 609 834 833 4892 6332 6333 6325 5063 6503 6504 6496 5054 5061 6502 6495 6498 6505 5065 6506 6336 6507 6508 
584 585 810 809 609 610 835 834 4899 6339 6340 6332 5070 6510 6511 6503 5061 5068 6509 6502 6505 6512 5072 6513 6343 6514 6515 
585 586 811 810 610 611 836 835 4906 6346 6347 6339 5077 6517 6518 6510 5068 5075 6516 6509 6512 6519 5079 6520 6350 6521 6522 
586 587 812 811 611 612 837 836 4913 6353 6354 6346 5084 6524 6525 6517 5075 5082 6523 6516 6519 6526 5086 6527 6357 6528 6529 
587 588 813 812 612 613 838 837 4920 6360 6361 6353 5091 6531 6532 6524 5082 5089 6530 6523 6526 6533 5093 6534 6364 6535 6536 
588 589 814 813 613 614 839 838 4927 6367 6368 6360 5098 6538 6539 6531 5089 5096 6537 6530 6533 6540 5100 6541 6371 6542 6543 
589 590 815 814 614 615 840 839 4934 6374 6375 6367 5105 6545 6546 6538 5096 5103 6544 6537 6540 6547 5107 6548 6378 6549 6550 
590 591 816 815 615 616 841 840 4941 6381 6382 6374 5112 6552 6553 6545 5103 5110 6551 6544 6547 6554 5114 6555 6385 6556 6557 
591 592 817 816 616 617 842 841 4948 6388 6389 6381 5119 6559 6560 6552 5110 5117 6558 6551 6554 6561 5121 6562 6392 6563 6564 
592 593 818 817 617 618 843 842 4955 6395 6396 6388 5126 6566 6567 6559 5117 5124 6565 6558 6561 6568 5128 6569 6399 6570 6571 
593 594 819 818 618 619 844 843 4962 6402 6403 6395 5133 6573 6574 6566 5124 5131 6572 6565 6568 6575 5135 6576 6406 6577 6578 
594 595 820 819 619 620 845 844 4969 6409 6410 6402 5140 6580 6581 6573 5131 5138 6579 6572 6575 6582 5142 6583 6413 6584 6585 
595 596 821 820 620 621 846 845 4976 6416 6417 6409 5147 6587 6588 6580 5138 5145 6586 6579 6582 6589 5149 6590 6420 6591 6592 
596 597 822 821 621 622 847 846 4983 6423 6424 6416 5154 6594 6595 6587 5145 5152 6593 6586 6589 6596 5156 6597 6427 6598 6599 
597 598 823 822 622 623 848 847 4990 6430 6431 6423 5161 6601 6602 6594 5152 5159 6600 6593 6596 6603 5163 6604 6434 6605 6606 
598 599 824 823 623 624 849 848 4997 6437 6438 6430 5168 6608 6609 6601 5159 5166 6607 6600 6603 6610 5170 6611 6441 6612 6613 
600 601 826 825 625 626 851 850 5005 6445 6446 6447 5176 6616 6617 6618 5174 5173 6614 6615 6621 6619 5179 6620 6451 6622 6623 
601 602 827 826 626 627 852 851 5014 6454 6455 6445 5185 6625 6626 6616 5173 5183 6624 6614 6619 6627 5187 6628 6458 6629 6630 
602 603 828 827 627 628 853 852 5021 6461 6462 6454 5192 6632 6633 6625 5183 5190 6631 6624 6627 6634 5194 6635 6465 6636 6637 
603 604 829 828 628 629 854 853 5028 6468 6469 6461 5199 6639 6640 6632 5190 5197 6638 6631 6634 6641 5201 6642 6472 6643 6644 
604 605 830 829 629 630 855 854 5035 6475 6476 6468 5206 6646 6647 6639 5197 5204 6645 6638 6641 6648 5208 6649 6479 6650 6651 
605 606 831 830 630 631 856 855 5042 6482 6483 6475 5213 6653 6654 6646 5204 5211 6652 6645 6648 6655 5215 6656 6486 6657 6658 
606 607 832 831 631 632 857 856 5049 6489 6490 6482 5220 6660 6661 6653 5211 5218 6659 6652 6655 6662 5222 6663 6493 6664 6665 
607 608 833 832 632 633 858 857 5056 6496 6497 6489 5227 6667 6668 6660 5218 5225 6666 6659 6662 6669 5229 6670 6500 6671 6672 
608 609 834 833 633 634 859 858 5063 6503 6504 6496 5234 6674 6675 6667 5225 5232 6673 6666 6669 6676 5236 6677 6507 6678 6679 
609 610 835 834 634 635 860 859 5070 6510 6511 6503 5241 6681 6682 6674 5232 5239 6680 6673 6676 6683 5243 6684 6514 6685 6686 
610 611 836 835 635 636 861 860 5077 6517 6518 6510 5248 6688 6689 6681 5239 5246 6687 6680 6683 6690 5250 6691 6521 6692 6693 
611 612 837 836 636 637 862 861 5084 6524 6525 6517 5255 6695 6696 6688 5246 5253 6694 6687 6690 6697 5257 6698 6528 6699 6700 
612 613 838 837 637 638 863 862 5091 6531 6532 6524 5262 6702 6703 6695 5253 5260 6701 6694 6697 6704 5264 6705 6535 6706 6707 
613 614 839 838 638 639 864 863 5098 6538 6539 6531 5269 6709 6710 6702 5260 5267 6708 6701 6704 6711 5271 6712 6542 6713 6714 
614 615 840 839 639 640 865 864 5105 6545 6546 6538 5276 6716 6717 6709 5267 5274 6715 6708 6711 6718 5278 6719 6549 6720 6721 
615 616 841 840 640 641 866 865 5112 6552 6553 6545 5283 6723 6724 6716 5274 5281 6722 6715 6718 6725 5285 6726 6556 6727 6728 
616 617 842 841 641 642 867 866 5119 6559 6560 6552 5290 6730 6731 6723 5281 5288 6729 6722 6725 6732 5292 6733 6563 6734 6735 
617 618 843 842 642 643 868 867 5126 6566 6567 6559 5297 6737 6738 6730 5288 5295 6736 6729 6732 6739 5299 6740 6570 6741 6742 
618 619 844 843 643 644 869 868 5133 6573 6574 6566 5304 6744 6745 6737 5295 5302 6743 6736 6739 6746 5306 6747 6577 6748 6749 
619 620 845 844 644 645 870 869 5140 6580 6581 6573 5311 6751 6752 6744 5302 5309 6750 6743 6746 6753 5313 6754 6584 6755 6756 
620 621 846 845 645 646 871 870 5147 6587 6588 6580 5318 6758 6759 6751 5309 5316 6757 6750 6753 6760 5320 6761 6591 6762 6763 
621 622 847 846 646 647 872 871 5154 6594 6595 6587 5325 6765 6766 6758 5316 5323 6764 6757 6760 6767 5327 6768 6598 6769 6770 
622 623 848 847 647 648 873 872 5161 6601 6602 6594 5332 6772 6773 6765 5323 5330 6771 6764 6767 6774 5334 6775 6605 6776 6777 
623 624 849 848 648 649 874 873 5168 6608 6609 6601 5339 6779 6780 6772 5330 5337 6778 6771 6774 6781 5341 6782 6612 6783 6784 
625 626 851 850 650 651 876 875 5176 6616 6617 6618 5347 6787 6788 6789 5345 5344 6785 6786 6792 6790 5350 6791 6622 6793 6794 
626 627 852 851 651 652 877 876 5185 6625 6626 6616 5356 6796 6797 6787 5344 5354 6795 6785 6790 6798 5358 6799 6629 6800 6801 
627 628 853 852 652 653 878 877 5192 6632 6633 6625 5363 6803 6804 6796 5354 5361 6802 6795 6798 6805 5365 6806 6636 6807 6808 
628 629 854 853 653 654 879 878 5199 6639 6640 6632 5370 6810 6811 6803 5361 5368 6809 6802 6805 6812 5372 6813 6643 6814 6815 
629 630 855 854 654 655 880 879 5206 6646 6647 6639 5377 6817 6818 6810 5368 5375 6816 6809 6812 6819 5379 6820 6650 6821 6822 
630 631 856 855 655 656 881 880 5213 6653 6654 6646 5384 6824 6825 6817 5375 5382 6823 6816 6819 6826 5386 6827 6657 6828 6829 
631 632 857 856 656 657 882 881 5220 6660 6661 6653 5391 6831 6832 6824 5382 5389 6830 6823 6826 6833 5393 6834 6664 6835 6836 
632 633 858 857 657 658 883 882 5227 6667 6668 6660 5398 6838 6839 6831 5389 5396 6837 6830 6833 6840 5400 6841 6671 6842 6843 
633 634 859 858 658 659 884 883 5234 6674 6675 6667 5405 6845 6846 6838 5396 5403 6844 6837 6840 6847 5407 6848 6678 6849 6850 
634 635 860 859 659 660 885 884 5241 6681 6682 6674 5412 6852 6853 6845 5403 5410 6851 6844 6847 6854 5414 6855 6685 6856 6857 
635 636 861 860 660 661 886 885 5248 6688 6689 6681 5419 6859 6860 6852 5410 5417 6858 6851 6854 6861 5421 6862 6692 6863 6864 
636 637 862 861 661 662 887 886 5255 6695 6696 6688 5426 6866 6867 6859 5417 5424 6865 6858 6861 6868 5428 6869 6699 6870 6871 
637 638 863 862 662 663 888 887 5262 6702 6703 6695 5433 6873 6874 6866 5424 5431 6872 6865 6868 6875 5435 6876 6706 6877 6878 
638 639 864 863 663 664 889 888 5269 6709 6710 6702 5440 6880 6881 6873 5431 5438 6879 6872 6875 6882 5442 6883 6713 6884 6885 
639 640 865 864 664 665 890 889 5276 6716 6717 6709 5447 6887 6888 6880 5438 5445 6886 6879 6882 6889 5449 6890 6720 6891 6892 
640 641 866 865 665 666 891 890 5283 6723 6724 6716 5454 6894 6895 6887 5445 5452 6893 6886 6889 6896 5456 6897 6727 6898 6899 
641 642 867 866 666 667 892 891 5290 6730 6731 6723 5461 6901 6902 6894 5452 5459 6900 6893 6896 6903 5463 6904 6734 6905 6906 
642 643 868 867 667 668 893 892 5297 6737 6738 6730 5468 6908 6909 6901 5459 5466 6907 6900 6903 6910 5470 6911 6741 6912 6913 
643 644 869 868 668 669 894 893 5304 6744 6745 6737 5475 6915 6916 6908 5466 5473 6914 6907 6910 6917 5477 6918 6748 6919 6920 
644 645 870 869 669 670 895 894 5311 6751 6752 6744 5482 6922 6923 6915 5473 5480 6921 6914 6917 6924 5484 6925 6755 6926 6927 
645 646 871 870 670 671 896 895 5318 6758 6759 6751 5489 6929 6930 6922 5480 5487 6928 6921 6924 6931 5491 6932 6762 6933 6934 
646 647 872 871 671 672 897 896 5325 6765 6766 6758 5496 6936 6937 6929 5487 5494 6935 6928 6931 6938 5498 6939 6769 6940 6941 
647 648 873 872 672 673 898 897 5332 6772 6773 6765 5503 6943 6944 6936 5494 5501 6942 6935 6938 6945 5505 6946 6776 6947 6948 
648 649 874 873 673 674 899 898 5339 6779 6780 6772 5510 6950 6951 6943 5501 5508 6949 6942 6945 6952 5512 6953 6783 6954 6955 
675 676 901 900 700 701 926 925 5516 6956 6957 6958 5521 6961 6962 6963 5519 5518 6959 6960 6967 6965 5525 6966 6964 6968 6969 
676 677 902 901 701 702 927 926 5530 6970 6971 6956 5533 6973 6974 6961 5518 5531 6972 6959 6965 6976 5536 6977 6975 6978 6979 
677 678 903 902 702 703 928 927 5540 6980 6981 6970 5543 6983 6984 6973 5531 5541 6982 6972 6976 6986 5546 6987 6985 6988 6989 
678 679 904 903 703 704 929 928 5550 6990 6991 6980 5553 6993 6994 6983 5541 5551 6992 6982 6986 6996 5556 6997 6995 6998 6999 
679 680 905 904 704 705 930 929 5560 7000 7001 6990 5563 7003 7004 6993 5551 5561 7002 6992 6996 7006 5566 7007 7005 7008 7009 
680 681 906 905 705 706 931 930 5570 7010 7011 7000 5573 7013 7014 7003 5561 5571 7012 7002 7006 7016 5576 7017 7015 7018 7019 
681 682 907 906 706 707 932 931 5580 7020 7021 7010 5583 7023 7024 7013 5571 5581 7022 7012 7016 7026 5586 7027 7025 7028 7029 
682 683 908 907 707 708 933 932 5590 7030 7031 7020 5593 7033 7034 7023 5581 5591 7032 7022 7026 7036 5596 7037 7035 7038 7039 
683 684 909 908 708 709 934 933 5600 7040 7041 7030 5603 7043 7044 7033 5591 5601 7042 7032 7036 7046 5606 7047 7045 7048 7049 
684 685 910 909 709 710 935 934 5610 7050 7051 7040 5613 7053 7054 7043 5601 5611 7052 7042 7046 7056 5616 7057 7055 7058 7059 
685 686 911 910 710 711 936 935 5620 7060 7061 7050 5623 7063 7064 7053 5611 5621 7062 7052 7056 7066 5626 7067 7065 7068 7069 
686 687 912 911 711 712 937 936 5630 7070 7071 7060 5633 7073 7074 7063 5621 5631 7072 7062 7066 7076 5636 7077 7075 7078 7079 
687 688 913 912 712 713 938 937 5640 7080 7081 7070 5643 7083 7084 7073 5631 5641 7082 7072 7076 7086 5646 7087 7085 7088 7089 
688 689 914 913 713 714 939 938 5650 7090 7091 7080 5653 7093 7094 7083 5641 5651 7092 7082 7086 7096 5656 7097 7095 7098 7099 
689 690 915 914 714 715 940 939 5660 7100 7101 7090 5663 7103 7104 7093 5651 5661 7102 7092 7096 7106 5666 7107 7105 7108 7109 
690 691 916 915 715 716 941 940 5670 7110 7111 7100 5673 7113 7114 7103 5661 5671 7112 7102 7106 7116 5676 7117 7115 7118 7119 
691 692 917 916 716 717 942 941 5680 7120 7121 7110 5683 7123 7124 7113 5671 5681 7122 7112 7116 7126 5686 7127 7125 7128 7129 
692 693 918 917 717 718 943 942 5690 7130 7131 7120 5693 7133 7134 7123 5681 5691 7132 7122 7126 7136 5696 7137 7135 7138 7139 
693 694 919 918 718 719 944 943 5700 7140 7141 7130 5703 7143 7144 7133 5691 5701 7142 7132 7136 7146 5706 7147 7145 7148 7149 
694 695 920 919 719 720 945 944 5710 7150 7151 7140 5713 7153 7154 7143 5701 5711 7152 7142 7146 7156 5716 7157 7155 7158 7159 
695 696 921 920 720 721 946 945 5720 7160 7161 7150 5723 7163 7164 7153 5711 5721 7162 7152 7156 7166 5726 7167 7165 7168 7169 
696 697 922 921 721 722 947 946 5730 7170 7171 7160 5733 7173 7174 7163 5721 5731 7172 7162 7166 7176 5736 7177 7175 7178 7179 
697 698 923 922 722 723 948 947 5740 7180 7181 7170 5743 7183 7184 7173 5731 5741 7182 7172 7176 7186 5746 7187 7185 7188 7189 
698 699 924 923 723 724 949 948 5750 7190 7191 7180 5753 7193 7194 7183 5741 5751 7192 7182 7186 7196 5756 7197 7195 7198 7199 
700 701 926 925 725 726 951 950 5521 6961 6962 6963 5762 7202 7203 7204 5760 5759 7200 7201 7207 7205 5765 7206 6968 7208 7209 
701 702 927 926 726 727 952 951 5533 6973 6974 6961 5771 7211 7212 7202 5759 5769 7210 7200 7205 7213 5773 7214 6978 7215 7216 
702 703 928 927 727 728 953 952 5543 6983 6984 6973 5778 7218 7219 7211 5769 5776 7217 7210 7213 7220 5780 7221 6988 7222 7223 
703 704 929 928 728 729 954 953 5553 6993 6994 6983 5785 7225 7226 7218 5776 5783 7224 7217 7220 7227 5787 7228 6998 7229 7230 
704 705 930 929 729 730 955 954 5563 7003 7004 6993 5792 7232 7233 7225 5783 5790 7231 7224 7227 7234 5794 7235 7008 7236 7237 
705 706 931 930 730 731 956 955 5573 7013 7014 7003 5799 7239 7240 7232 5790 5797 7238 7231 7234 7241 5801 7242 7018 7243 7244 
706 707 932 931 731 732 957 956 5583 7023 7024 7013 5806 7246 7247 7239 5797 5804 7245 7238 7241 7248 5808 7249 7028 7250 7251 
707 708 933 932 732 733 958 957 5593 7033 7034 7023 5813 7253 7254 7246 5804 5811 7252 7245 7248 7255 5815 7256 7038 7257 7258 
708 709 934 933 733 734 959 958 5603 7043 7044 7033 5820 7260 7261 7253 5811 5818 7259 7252 7255 7262 5822 7263 7048 7264 7265 
709 710 935 934 734 735 960 959 5613 7053 7054 7043 5827 7267 7268 7260 5818 5825 7266 7259 7262 7269 5829 7270 7058 7271 7272 
710 711 936 935 735 736 961 960 5623 7063 7064 7053 5834 7274 7275 7267 5825 5832 7273 7266 7269 7276 5836 7277 7068 7278 7279 
711 712 937 936 736 737 962 961 5633 7073 7074 7063 5841 7281 7282 7274 5832 5839 7280 7273 7276 7283 5843 7284 7078 7285 7286 
712 713 938 937 737 738 963 962 5643 7083 7084 7073 5848 7288 7289 7281 5839 5846 7287 7280 7283 7290 5850 7291 7088 7292 7293 
713 714 939 938 738 739 964 963 5653 7093 7094 7083 5855 7295 7296 7288 5846 5853 7294 7287 7290 7297 5857 7298 7098 7299 7300 
714 715 940 939 739 740 965 964 5663 7103 7104 7093 5862 7302 7303 7295 5853 5860 7301 7294 7297 7304 5864 7305 7108 7306 7307 
715 716 941 940 740 741 966 965 5673 7113 7114 7103 5869 7309 7310 7302 5860 5867 7308 7301 7304 7311 5871 7312 7118 7313 7314 
716 717 942 941 741 742 967 966 5683 7123 7124 7113 5876 7316 7317 7309 5867 5874 7315 7308 7311 7318 5878 7319 7128 7320 7321 
717 718 943 942 742 743 968 967 5693 7133 7134 7123 5883 7323 7324 7316 5874 5881 7322 7315 7318 7325 5885 7326 7138 7327 7328 
718 719 944 943 743 744 969 968 5703 7143 7144 7133 5890 7330 7331 7323 5881 5888 7329 7322 7325 7332 5892 7333 7148 7334 7335 
719 720 945 944 744 745 970 969 5713 7153 7154 7143 5897 7337 7338 7330 5888 5895 7336 7329 7332 7339 5899 7340 7158 7341 7342 
720 721 946 945 745 746 971 970 5723 7163 7164 7153 5904 7344 7345 7337 5895 5902 7343 7336 7339 7346 5906 7347 7168 7348 7349 
721 722 947 946 746 747 972 971 5733 7173 7174 7163 5911 7351 7352 7344 5902 5909 7350 7343 7346 7353 5913 7354 7178 7355 7356 
722 723 948 947 747 748 973 972 5743 7183 7184 7173 5918 7358 7359 7351 5909 5916 7357 7350 7353 7360 5920 7361 7188 7362 7363 
723 724 949 948 748 749 974 973 5753 7193 7194 7183 5925 7365 7366 7358 5916 5923 7364 7357 7360 7367 5927 7368 7198 7369 7370 
725 726 951 950 750 751 976 975 5762 7202 7203 7204 5933 7373 7374 7375 5931 5930 7371 7372 7378 7376 5936 7377 7208 7379 7380 
726 727 952 951 751 752 977 976 5771 7211 7212 7202 5942 7382 7383 7373 5930 5940 7381 7371 7376 7384 5944 7385 7215 7386 7387 
727 728 953 952 752 753 978 977 5778 7218 7219 7211 5949 7389 7390 7382 5940 5947 7388 7381 7384 7391 5951 7392 7222 7393 7394 
728 729 954 953 753 754 979 978 5785 7225 7226 7218 5956 7396 7397 7389 5947 5954 7395 7388 7391 7398 5958 7399 7229 7400 7401 
729 730 955 954 754 755 980 979 5792 7232 7233 7225 5963 7403 7404 7396 5954 5961 7402 7395 7398 7405 5965 7406 7236 7407 7408 
730 731 956 955 755 756 981 980 5799 7239 7240 7232 5970 7410 7411 7403 5961 5968 7409 7402 7405 7412 5972 7413 7243 7414 7415 
731 732 957 956 756 757 982 981 5806 7246 7247 7239 5977 7417 7418 7410 5968 5975 7416 7409 7412 7419 5979 7420 7250 7421 7422 
732 733 958 957 757 758 983 982 5813 7253 7254 7246 5984 7424 7425 7417 5975 5982 7423 7416 7419 7426 5986 7427 7257 7428 7429 
733 734 959 958 758 759 984 983 5820 7260 7261 7253 5991 7431 7432 7424 5982 5989 7430 7423 7426 7433 5993 7434 7264 7435 7436 
734 735 960 959 759 760 985 984 5827 7267 7268 7260 5998 7438 7439 7431 5989 5996 7437 7430 7433 7440 6000 7441 7271 7442 7443 
735 736 961 960 760 761 986 985 5834 7274 7275 7267 6005 7445 7446 7438 5996 6003 7444 7437 7440 7447 6007 7448 7278 7449 7450 
736 737 962 961 761 762 987 986 5841 7281 7282 7274 6012 7452 7453 7445 6003 6010 7451 7444 7447 7454 6014 7455 7285 7456 7457 
737 738 963 962 762 763 988 987 5848 7288 7289 7281 6019 7459 7460 7452 6010 6017 7458 7451 7454 7461 6021 7462 7292 7463 7464 
738 739 964 963 763 764 989 988 5855 7295 7296 7288 6026 7466 7467 7459 6017 6024 7465 7458 7461 7468 6028 7469 7299 7470 7471 
739 740 965 964 764 765 990 989 5862 7302 7303 7295 6033 7473 7474 7466 6024 6031 7472 7465 7468 7475 6035 7476 7306 7477 7478 
740 741 966 965 765 766 991 990 5869 7309 7310 7302 6040 7480 7481 7473 6031 6038 7479 7472 7475 7482 6042 7483 7313 7484 7485 
741 742 967 966 766 767 992 991 5876 7316 7317 7309 6047 7487 7488 7480 6038 6045 7486 7479 7482 7489 6049 7490 7320 7491 7492 
742 743 968 967 767 768 993 992 5883 7323 7324 7316 6054 7494 7495 7487 6045 6052 7493 7486 7489 7496 6056 7497 7327 7498 7499 
743 744 969 968 768 769 994 993 5890 7330 7331 7323 6061 7501 7502 7494 6052 6059 7500 7493 7496 7503 6063 7504 7334 7505 7506 
744 745 970 969 769 770 995 994 5897 7337 7338 7330 6068 7508 7509 7501 6059 6066 7507 7500 7503 7510 6070 7511 7341 7512 7513 
745 746 971 970 770 771 996 995 5904 7344 7345 7337 6075 7515 7516 7508 6066 6073 7514 7507 7510 7517 6077 7518 7348 7519 7520 
746 747 972 971 771 772 997 996 5911 7351 7352 7344 6082 7522 7523 7515 6073 6080 7521 7514 7517 7524 6084 7525 7355 7526 7527 
747 748 973 972 772 773 998 997 5918 7358 7359 7351 6089 7529 7530 7522 6080 6087 7528 7521 7524 7531 6091 7532 7362 7533 7534 
748 749 974 973 773 774 999 998 5925 7365 7366 7358 6096 7536 7537 7529 6087 6094 7535 7528 7531 7538 6098 7539 7369 7540 7541 
750 751 976 975 775 776 1001 1000 5933 7373 7374 7375 6104 7544 7545 7546 6102 6101 7542 7543 7549 7547 6107 7548 7379 7550 7551 
751 752 977 976 776 777 1002 1001 5942 7382 7383 7373 6113 7553 7554 7544 6101 6111 7552 7542 7547 7555 6115 7556 7386 7557 7558 
752 753 978 977 777 778 1003 1002 5949 7389 7390 7382 6120 7560 7561 7553 6111 6118 7559 7552 7555 7562 6122 7563 7393 7564 7565 
753 754 979 978 778 779 1004 1003 5956 7396 7397 7389 6127 7567 7568 7560 6118 6125 7566 7559 7562 7569 6129 7570 7400 7571 7572 
754 755 980 979 779 780 1005 1004 5963 7403 7404 7396 6134 7574 7575 7567 6125 6132 7573 7566 7569 7576 6136 7577 7407 7578 7579 
755 756 981 980 780 781 1006 1005 5970 7410 7411 7403 6141 7581 7582 7574 6132 6139 7580 7573 7576 7583 6143 7584 7414 7585 7586 
756 757 982 981 781 782 1007 1006 5977 7417 7418 7410 6148 7588 7589 7581 6139 6146 7587 7580 7583 7590 6150 7591 7421 7592 7593 
757 758 983 982 782 783 1008 1007 5984 7424 7425 7417 6155 7595 7596 7588 6146 6153 7594 7587 7590 7597 6157 7598 7428 7599 7600 
758 759 984 983 783 784 1009 1008 5991 7431 7432 7424 6162 7602 7603 7595 6153 6160 7601 7594 7597 7604 6164 7605 7435 7606 7607 
759 760 985 984 784 785 1010 1009 5998 7438 7439 7431 6169 7609 7610 7602 6160 6167 7608 7601 7604 7611 6171 7612 7442 7613 7614 
760 761 986 985 785 786 1011 1010 6005 7445 7446 7438 6176 7616 7617 7609 6167 6174 7615 7608 7611 7618 6178 7619 7449 7620 7621 
761 762 987 986 786 787 1012 1011 6012 7452 7453 7445 6183 7623 7624 7616 6174 6181 7622 7615 7618 7625 6185 7626 7456 7627 7628 
762 763 988 987 787 788 1013 1012 6019 7459 7460 7452 6190 7630 7631 7623 6181 6188 7629 7622 7625 7632 6192 7633 7463 7634 7635 
763 764 989 988 788 789 1014 1013 6026 7466 7467 7459 6197 7637 7638 7630 6188 6195 7636 7629 7632 7639 6199 7640 7470 7641 7642 
764 765 990 989 789 790 1015 1014 6033 7473 7474 7466 6204 7644 7645 7637 6195 6202 7643 7636 7639 7646 6206 7647 7477 7648 7649 
765 766 991 990 790 791 1016 1015 6040 7480 7481 7473 6211 7651 7652 7644 6202 6209 7650 7643 7646 7653 6213 7654 7484 7655 7656 
766 767 992 991 791 792 1017 1016 6047 7487 7488 7480 6218 7658 7659 7651 6209 6216 7657 7650 7653 7660 6220 7661 7491 7662 7663 
767 768 993 992 792 793 1018 1017 6054 7494 7495 7487 6225 7665 7666 7658 6216 6223 7664 7657 7660 7667 6227 7668 7498 7669 7670 
768 769 994 993 793 794 1019 1018 6061 7501 7502 7494 6232 7672 7673 7665 6223 6230 7671 7664 7667 7674 6234 7675 7505 7676 7677 
769 770 995 994 794 795 1020 1019 6068 7508 7509 7501 6239 7679 7680 7672 6230 6237 7678 7671 7674 7681 6241 7682 7512 7683 7684 
770 771 996 995 795 796 1021 1020 6075 7515 7516 7508 6246 7686 7687 7679 6237 6244 7685 7678 7681 7688 6248 7689 7519 7690 7691 
771 772 997 996 796 797 1022 1021 6082 7522 7523 7515 6253 7693 7694 7686 6244 6251 7692 7685 7688 7695 6255 7696 7526 7697 7698 
772 773 998 997 797 798 1023 1022 6089 7529 7530 7522 6260 7700 7701 7693 6251 6258 7699 7692 7695 7702 6262 7703 7533 7704 7705 
773 774 999 998 798 799 1024 1023 6096 7536 7537 7529 6267 7707 7708 7700 6258 6265 7706 7699 7702 7709 6269 7710 7540 7711 7712 
775 776 1001 1000 800 801 1026 1025 6104 7544 7545 7546 6275 7715 7716 7717 6273 6272 7713 7714 7720 7718 6278 7719 7550 7721 7722 
776 777 1002 1001 801 802 1027 1026 6113 7553 7554 7544 6284 7724 7725 7715 6272 6282 7723 7713 7718 7726 6286 7727 7557 7728 7729 
777 778 1003 1002 802 803 1028 1027 6120 7560 7561 7553 6291 7731 7732 7724 6282 6289 7730 7723 7726 7733 6293 7734 7564 7735 7736 
778 779 1004 1003 803 804 1029 1028 6127 7567 7568 7560 6298 7738 7739 7731 6289 6296 7737 7730 7733 7740 6300 7741 7571 7742 7743 
779 780 1005 1004 804 805 1030 1029 6134 7574 7575 7567 6305 7745 7746 7738 6296 6303 7744 7737 7740 7747 6307 7748 7578 7749 7750 
780 781 1006 1005 805 806 1031 1030 6141 7581 7582 7574 6312 7752 7753 7745 6303 6310 7751 7744 7747 7754 6314 7755 7585 7756 7757 
781 782 1007 1006 806 807 1032 1031 6148 7588 7589 7581 6319 7759 7760 7752 6310 6317 7758 7751 7754 7761 6321 7762 7592 7763 7764 
782 783 1008 1007 807 808 1033 1032 6155 7595 7596 7588 6326 7766 7767 7759 6317 6324 7765 7758 7761 7768 6328 7769 7599 7770 7771 
783 784 1009 1008 808 809 1034 1033 6162 7602 7603 7595 6333 7773 7774 7766 6324 6331 7772 7765 7768 7775 6335 7776 7606 7777 7778 
784 785 1010 1009 809 810 1035 1034 6169 7609 7610 7602 6340 7780 7781 7773 6331 6338 7779 7772 7775 7782 6342 7783 7613 7784 7785 
785 786 1011 1010 810 811 1036 1035 6176 7616 7617 7609 6347 7787 7788 7780 6338 6345 7786 7779 7782 7789 6349 7790 7620 7791 7792 
786 787 1012 1011 811 812 1037 1036 6183 7623 7624 7616 6354 7794 7795 7787 6345 6352 7793 7786 7789 7796 6356 7797 7627 7798 7799 
787 788 1013 1012 812 813 1038 1037 6190 7630 7631 7623 6361 7801 7802 7794 6352 6359 7800 7793 7796 7803 6363 7804 7634 7805 7806 
788 789 1014 1013 813 814 1039 1038 6197 7637 7638 7630 6368 7808 7809 7801 6359 6366 7807 7800 7803 7810 6370 7811 7641 7812 7813 
789 790 1015 1014 814 815 1040 1039 6204 7644 7645 7637 6375 7815 7816 7808 6366 6373 7814 7807 7810 7817 6377 7818 7648 7819 7820 
790 791 1016 1015 815 816 1041 1040 6211 7651 7652 7644 6382 7822 7823 7815 6373 6380 7821 7814 7817 7824 6384 7825 7655 7826 7827 
791 792 1017 1016 816 817 1042 1041 6218 7658 7659 7651 6389 7829 7830 7822 6380 6387 7828 7821 7824 7831 6391 7832 7662 7833 7834 
792 793 1018 1017 817 818 1043 1042 6225 7665 7666 7658 6396 7836 7837 7829 6387 6394 7835 7828 7831 7838 6398 7839 7669 7840 7841 
793 794 1019 1018 818 819 1044 1043 6232 7672 7673 7665 6403 7843 7844 7836 6394 6401 7842 7835 7838 7845 6405 7846 7676 7847 7848 
794 795 1020 1019 819 820 1045 1044 6239 7679 7680 7672 6410 7850 7851 7843 6401 6408 7849 7842 7845 7852 6412 7853 7683 7854 7855 
795 796 1021 1020 820 821 1046 1045 6246 7686 7687 7679 6417 7857 7858 7850 6408 6415 7856 7849 7852 7859 6419 7860 7690 7861 7862 
796 797 1022 1021 821 822 1047 1046 6253 7693 7694 7686 6424 7864 7865 7857 6415 6422 7863 7856 7859 7866 6426 7867 7697 7868 7869 
797 798 1023 1022 822 823 1048 1047 6260 7700 7701 7693 6431 7871 7872 7864 6422 6429 7870 7863 7866 7873 6433 7874 7704 7875 7876 
798 799 1024 1023 823 824 1049 1048 6267 7707 7708 7700 6438 7878 7879 7871 6429 6436 7877 7870 7873 7880 6440 7881 7711 7882 7883 
800 801 1026 1025 825 826 1051 1050 6275 7715 7716 7717 6446 7886 7887 7888 6444 6443 7884 7885 7891 7889 6449 7890 7721 7892 7893 
801 802 1027 1026 826 827 1052 1051 6284 7724 7725 7715 6455 7895 7896 7886 6443 6453 7894 7884 7889 7897 6457 7898 7728 7899 7900 
802 803 1028 1027 827 828 1053 1052 6291 7731 7732 7724 6462 7902 7903 7895 6453 6460 7901 7894 7897 7904 6464 7905 7735 7906 7907 
803 804 1029 1028 828 829 1054 1053 6298 7738 7739 7731 6469 7909 7910 7902 6460 6467 7908 7901 7904 7911 6471 7912 7742 7913 7914 
804 805 1030 1029 829 830 1055 1054 6305 7745 7746 7738 6476 7916 7917 7909 6467 6474 7915 7908 7911 7918 6478 7919 7749 7920 7921 
805 806 1031 1030 830 831 1056 1055 6312 7752 7753 7745 6483 7923 7924 7916 6474 6481 7922 7915 7918 7925 6485 7926 7756 7927 7928 
806 807 1032 1031 831 832 1057 1056 6319 7759 7760 7752 6490 7930 7931 7923 6481 6488 7929 7922 7925 7932 6492 7933 7763 7934 7935 
807 808 1033 1032 832 833 1058 1057 6326 7766 7767 7759 6497 7937 7938 7930 6488 6495 7936 7929 7932 7939 6499 7940 7770 7941 7942 
808 809 1034 1033 833 834 1059 1058 6333 7773 7774 7766 6504 7944 7945 7937 6495 6502 7943 7936 7939 7946 6506 7947 7777 7948 7949 
809 810 1035 1034 834 835 1060 1059 6340 7780 7781 7773 6511 7951 7952 7944 6502 6509 7950 7943 7946 7953 6513 7954 7784 7955 7956 
810 811 1036 1035 835 836 1061 1060 6347 7787 7788 7780 6518 7958 7959 7951 6509 6516 7957 7950 7953 7960 6520 7961 7791 7962 7963 
811 812 1037 1036 836 837 1062 1061 6354 7794 7795 7787 6525 7965 7966 7958 6516 6523 7964 7957 7960 7967 6527 7968 7798 7969 7970 
812 813 1038 1037 837 838 1063 1062 6361 7801 7802 7794 6532 7972 7973 7965 6523 6530 7971 7964 7967 7974 6534 7975 7805 7976 7977 
813 814 1039 1038 838 839 1064 1063 6368 7808 7809 7801 6539 7979 7980 7972 6530 6537 7978 7971 7974 7981 6541 7982 7812 7983 7984 
814 815 1040 1039 839 840 1065 1064 6375 7815 7816 7808 6546 7986 7987 7979 6537 6544 7985 7978 7981 7988 6548 7989 7819 7990 7991 
815 816 1041 1040 840 841 1066 1065 6382 7822 7823 7815 6553 7993 7994 7986 6544 6551 7992 7985 7988 7995 6555 7996 7826 7997 7998 
816 817 1042 1041 841 842 1067 1066 6389 7829 7830 7822 6560 8000 8001 7993 6551 6558 7999 7992 7995 8002 6562 8003 7833 8004 8005 
817 818 1043 1042 842 843 1068 1067 6396 7836 7837 7829 6567 8007 8008 8000 6558 6565 8006 7999 8002 8009 6569 8010 7840 8011 8012 
818 819 1044 1043 843 844 1069 1068 6403 7843 7844 7836 6574 8014 8015 8007 6565 6572 8013 8006 8009 8016 6576 8017 7847 8018 8019 
819 820 1045 1044 844 845 1070 1069 6410 7850 7851 7843 6581 8021 8022 8014 6572 6579 8020 8013 8016 8023 6583 8024 7854 8025 8026 
820 821 1046 1045 845 846 1071 1070 6417 7857 7858 7850 6588 8028 8029 8021 6579 6586 8027 8020 8023 8030 6590 8031 7861 8032 8033 
821 822 1047 1046 846 847 1072 1071 6424 7864 7865 7857 6595 8035 8036 8028 6586 6593 8034 8027 8030 8037 6597 8038 7868 8039 8040 
822 823 1048 1047 847 848 1073 1072 6431 7871 7872 7864 6602 8042 8043 8035 6593 6600 8041 8034 8037 8044 6604 8045 7875 8046 8047 
823 824 1049 1048 848 849 1074 1073 6438 7878 7879 7871 6609 8049 8050 8042 6600 6607 8048 8041 8044 8051 6611 8052 7882 8053 8054 
825 826 1051 1050 850 851 1076 1075 6446 7886 7887 7888 6617 8057 8058 8059 6615 6614 8055 8056 8062 8060 6620 8061 7892 8063 8064 
826 827 1052 1051 851 852 1077 1076 6455 7895 7896 7886 6626 8066 8067 8057 6614 6624 8065 8055 8060 8068 6628 8069 7899 8070 8071 
827 828 1053 1052 852 853 1078 1077 6462 7902 7903 7895 6633 8073 8074 8066 6624 6631 8072 8065 8068 8075 6635 8076 7906 8077 8078 
828 829 1054 1053 853 854 1079 1078 6469 7909 7910 7902 6640 8080 8081 8073 6631 6638 8079 8072 8075 8082 6642 8083 7913 8084 8085 
829 830 1055 1054 854 855 1080 1079 6476 7916 7917 7909 6647 8087 8088 8080 6638 6645 8086 8079 8082 8089 6649 8090 7920 8091 8092 
830 831 1056 1055 855 856 1081 1080 6483 7923 7924 7916 6654 8094 8095 8087 6645 6652 8093 8086 8089 8096 6656 8097 7927 8098 8099 
831 832 1057 1056 856 857 1082 1081 6490 7930 7931 7923 6661 8101 8102 8094 6652 6659 8100 8093 8096 8103 6663 8104 7934 8105 8106 
832 833 1058 1057 857 858 1083 1082 6497 7937 7938 7930 6668 8108 8109 8101 6659 6666 8107 8100 8103 8110 6670 8111 7941 8112 8113 
833 834 1059 1058 858 859 1084 1083 6504 7944 7945 7937 6675 8115 8116 8108 6666 6673 8114 8107 8110 8117 6677 8118 7948 8119 8120 
834 835 1060 1059 859 860 1085 1084 6511 7951 7952 7944 6682 8122 8123 8115 6673 6680 8121 8114 8117 8124 6684 8125 7955 8126 8127 
835 836 1061 1060 860 861 1086 1085 6518 7958 7959 7951 6689 8129 8130 8122 6680 6687 8128 8121 8124 8131 6691 8132 7962 8133 8134 
836 837 1062 1061 861 862 1087 1086 6525 7965 7966 7958 6696 8136 8137 8129 6687 6694 8135 8128 8131 8138 6698 8139 7969 8140 8141 
837 838 1063 1062 862 863 1088 1087 6532 7972 7973 7965 6703 8143 8144 8136 6694 6701 8142 8135 8138 8145 6705 8146 7976 8147 8148 
838 839 1064 1063 863 864 1089 1088 6539 7979 7980 7972 6710 8150 8151 8143 6701 6708 8149 8142 8145 8152 6712 8153 7983 8154 8155 
839 840 1065 1064 864 865 1090 1089 6546 7986 7987 7979 6717 8157 8158 8150 6708 6715 8156 8149 8152 8159 6719 8160 7990 8161 8162 
840 841 1066 1065 865 866 1091 1090 6553 7993 7994 7986 6724 8164 8165 8157 6715 6722 8163 8156 8159 8166 6726 8167 7997 8168 8169 
841 842 1067 1066 866 867 1092 1091 6560 8000 8001 7993 6731 8171 8172 8164 6722 6729 8170 8163 8166 8173 6733 8174 8004 8175 8176 
842 843 1068 1067 867 868 1093 1092 6567 8007 8008 8000 6738 8178 8179 8171 6729 6736 8177 8170 8173 8180 6740 8181 8011 8182 8183 
843 844 1069 1068 868 869 1094 1093 6574 8014 8015 8007 6745 8185 8186 8178 6736 6743 8184 8177 8180 8187 6747 8188 8018 8189 8190 
844 845 1070 1069 869 870 1095 1094 6581 8021 8022 8014 6752 8192 8193 8185 6743 6750 8191 8184 8187 8194 6754 8195 8025 8196 8197 
845 846 1071 1070 870 871 1096 1095 6588 8028 8029 8021 6759 8199 8200 8192 6750 6757 8198 8191 8194 8201 6761 8202 8032 8203 8204 
846 847 1072 1071 871 872 1097 1096 6595 8035 8036 8028 6766 8206 8207 8199 6757 6764 8205 8198 8201 8208 6768 8209 8039 8210 8211 
847 848 1073 1072 872 873 1098 1097 6602 8042 8043 8035 6773 8213 8214 8206 6764 6771 8212 8205 8208 8215 6775 8216 8046 8217 8218 
848 849 1074 1073 873 874 1099 1098 6609 8049 8050 8042 6780 8220 8221 8213 6771 6778 8219 8212 8215 8222 6782 8223 8053 8224 8225 
850 851 1076 1075 875 876 1101 1100 6617 8057 8058 8059 6788 8228 8229 8230 6786 6785 8226 8227 8233 8231 6791 8232 8063 8234 8235 
851 852 1077 1076 876 877 1102 1101 6626 8066 8067 8057 6797 8237 8238 8228 6785 6795 8236 8226 8231 8239 6799 8240 8070 8241 8242 
852 853 1078 1077 877 878 1103 1102 6633 8073 8074 8066 6804 8244 8245 8237 6795 6802 8243 8236 8239 8246 6806 8247 8077 8248 8249 
853 854 1079 1078 878 879 1104 1103 6640 8080 8081 8073 6811 8251 8252 8244 6802 6809 8250 8243 8246 8253 6813 8254 8084 8255 8256 
854 855 1080 1079 879 880 1105 1104 6647 8087 8088 8080 6818 8258 8259 8251 6809 6816 8257 8250 8253 8260 6820 8261 8091 8262 8263 
855 856 1081 1080 880 881 1106 1105 6654 8094 8095 8087 6825 8265 8266 8258 6816 6823 8264 8257 8260 8267 6827 8268 8098 8269 8270 
856 857 1082 1081 881 882 1107 1106 6661 8101 8102 8094 6832 8272 8273 8265 6823 6830 8271 8264 8267 8274 6834 8275 8105 8276 8277 
857 858 1083 1082 882 883 1108 1107 6668 8108 8109 8101 6839 8279 8280 8272 6830 6837 8278 8271 8274 8281 6841 8282 8112 8283 8284 
858 859 1084 1083 883 884 1109 1108 6675 8115 8116 8108 6846 8286 8287 8279 6837 6844 8285 8278 8281 8288 6848 8289 8119 8290 8291 
859 860 1085 1084 884 885 1110 1109 6682 8122 8123 8115 6853 8293 8294 8286 6844 6851 8292 8285 8288 8295 6855 8296 8126 8297 8298 
860 861 1086 1085 885 886 1111 1110 6689 8129 8130 8122 6860 8300 8301 8293 6851 6858 8299 8292 8295 8302 6862 8303 8133 8304 8305 
861 862 1087 1086 886 887 1112 1111 6696 8136 8137 8129 6867 8307 8308 8300 6858 6865 8306 8299 8302 8309 6869 8310 8140 8311 8312 
862 863 1088 1087 887 888 1113 1112 6703 8143 8144 8136 6874 8314 8315 8307 6865 6872 8313 8306 8309 8316 6876 8317 8147 8318 8319 
863 864 1089 1088 888 889 1114 1113 6710 8150 8151 8143 6881 8321 8322 8314 6872 6879 8320 8313 8316 8323 6883 8324 8154 8325 8326 
864 865 1090 1089 889 890 1115 1114 6717 8157 8158 8150 6888 8328 8329 8321 6879 6886 8327 8320 8323 8330 6890 8331 8161 8332 8333 
865 866 1091 1090 890 891 1116 1115 6724 8164 8165 8157 6895 8335 8336 8328 6886 6893 8334 8327 8330 8337 6897 8338 8168 8339 8340 
866 867 1092 1091 891 892 1117 1116 6731 8171 8172 8164 6902 8342 8343 8335 6893 6900 8341 8334 8337 8344 6904 8345 8175 8346 8347 
867 868 1093 1092 892 893 1118 1117 6738 8178 8179 8171 6909 8349 8350 8342 6900 6907 8348 8341 8344 8351 6911 8352 8182 8353 8354 
868 869 1094 1093 893 894 1119 1118 6745 8185 8186 8178 6916 8356 8357 8349 6907 6914 8355 8348 8351 8358 6918 8359 8189 8360 8361 
869 870 1095 1094 894 895 1120 1119 6752 8192 8193 8185 6923 8363 8364 8356 6914 6921 8362 8355 8358 8365 6925 8366 8196 8367 8368 
870 871 1096 1095 895 896 1121 1120 6759 8199 8200 8192 6930 8370 8371 8363 6921 6928 8369 8362 8365 8372 6932 8373 8203 8374 8375 
871 872 1097 1096 896 897 1122 1121 6766 8206 8207 8199 6937 8377 8378 8370 6928 6935 8376 8369 8372 8379 6939 8380 8210 8381 8382 
872 873 1098 1097 897 898 1123 1122 6773 8213 8214 8206 6944 8384 8385 8377 6935 6942 8383 8376 8379 8386 6946 8387 8217 8388 8389 
873 874 1099 1098 898 899 1124 1123 6780 8220 8221 8213 6951 8391 8392 8384 6942 6949 8390 8383 8386 8393 6953 8394 8224 8395 8396 
900 901 1126 1125 925 926 1151 1150 6957 8397 8398 8399 6962 8402 8403 8404 6960 6959 8400 8401 8408 8406 6966 8407 8405 8409 8410 
901 902 1127 1126 926 927 1152 1151 6971 8411 8412 8397 6974 8414 8415 8402 6959 6972 8413 8400 8406 8417 6977 8418 8416 8419 8420 
902 903 1128 1127 927 928 1153 1152 6981 8421 8422 8411 6984 8424 8425 8414 6972 6982 8423 8413 8417 8427 6987 8428 8426 8429 8430 
903 904 1129 1128 928 929 1154 1153 6991 8431 8432 8421 6994 8434 8435 8424 6982 6992 8433 8423 8427 8437 6997 8438 8436 8439 8440 
904 905 1130 1129 929 930 1155 1154 7001 8441 8442 8431 7004 8444 8445 8434 6992 7002 8443 8433 8437 8447 7007 8448 8446 8449 8450 
905 906 1131 1130 930 931 1156 1155 7011 8451 8452 8441 7014 8454 8455 8444 7002 7012 8453 8443 8447 8457 7017 8458 8456 8459 8460 
906 907 1132 1131 931 932 1157 1156 7021 8461 8462 8451 7024 8464 8465 8454 7012 7022 8463 8453 8457 8467 7027 8468 8466 8469 8470 
907 908 1133 1132 932 933 1158 1157 7031 8471 8472 8461 7034 8474 8475 8464 7022 7032 8473 8463 8467 8477 7037 8478 8476 8479 8480 
908 909 1134 1133 933 934 1159 1158 7041 8481 8482 8471 7044 8484 8485 8474 7032 7042 8483 8473 8477 8487 7047 8488 8486 8489 8490 
909 910 1135 1134 934 935 1160 1159 7051 8491 8492 8481 7054 8494 8495 8484 7042 7052 8493 8483 8487 8497 7057 8498 8496 8499 8500 
910 911 1136 1135 935 936 1161 1160 7061 8501 8502 8491 7064 8504 8505 8494 7052 7062 8503 8493 8497 8507 7067 8508 8506 8509 8510 
911 912 1137 1136 936 937 1162 1161 7071 8511 8512 8501 7074 8514 8515 8504 7062 7072 8513 8503 8507 8517 7077 8518 8516 8519 8520 
912 913 1138 1137 937 938 1163 1162 7081 8521 8522 8511 7084 8524 8525 8514 7072 7082 8523 8513 8517 8527 7087 8528 8526 8529 8530 
913 914 1139 1138 938 939 1164 1163 7091 8531 8532 8521 7094 8534 8535 8524 7082 7092 8533 8523 8527 8537 7097 8538 8536 8539 8540 
914 915 1140 1139 939 940 1165 1164 7101 8541 8542 8531 7104 8544 8545 8534 7092 7102 8543 8533 8537 8547 7107 8548 8546 8549 8550 
915 916 1141 1140 940 941 1166 1165 7111 8551 8552 8541 7114 8554 8555 8544 7102 7112 8553 8543 8547 8557 7117 8558 8556 8559 8560 
916 917 1142 1141 941 942 1167 1166 7121 8561 8562 8551 7124 8564 8565 8554 7112 7122 8563 8553 8557 8567 7127 8568 8566 8569 8570 
917 918 1143 1142 942 943 1168 1167 7131 8571 8572 8561 7134 8574 8575 8564 7122 7132 8573 8563 8567 8577 7137 8578 8576 8579 8580 
918 919 1144 1143 943 944 1169 1168 7141 8581 8582 8571 7144 8584 8585 8574 7132 7142 8583 8573 8577 8587 7147 8588 8586 8589 8590 
919 920 1145 1144 944 945 1170 1169 7151 8591 8592 8581 7154 8594 8595 8584 7142 7152 8593 8583 8587 8597 7157 8598 8596 8599 8600 
920 921 1146 1145 945 946 1171 1170 7161 8601 8602 8591 7164 8604 8605 8594 7152 7162 8603 8593 8597 8607 7167 8608 8606 8609 8610 
921 922 1147 1146 946 947 1172 1171 7171 8611 8612 8601 7174 8614 8615 8604 7162 7172 8613 8603 8607 8617 7177 8618 8616 8619 8620 
922 923 1148 1147 947 948 1173 1172 7181 8621 8622 8611 7184 8624 8625 8614 7172 7182 8623 8613 8617 8627 7187 8628 8626 8629 8630 
923 924 1149 1148 948 949 1174 1173 7191 8631 8632 8621 7194 8634 8635 8624 7182 7192 8633 8623 8627 8637 7197 8638 8636 8639 8640 
925 926 1151 1150 950 951 1176 1175 6962 8402 8403 8404 7203 8643 8644 8645 7201 7200 8641 8642 8648 8646 7206 8647 8409 8649 8650 
926 927 1152 1151 951 952 1177 1176 6974 8414 8415 8402 7212 8652 8653 8643 7200 7210 8651 8641 8646 8654 7214 8655 8419 8656 8657 
927 928 1153 1152 952 953 1178 1177 6984 8424 8425 8414 7219 8659 8660 8652 7210 7217 8658 8651 8654 8661 7221 8662 8429 8663 8664 
928 929 1154 1153 953 954 1179 1178 6994 8434 8435 8424 7226 8666 8667 8659 7217 7224 8665 8658 8661 8668 7228 8669 8439 8670 8671 
929 930 1155 1154 954 955 1180 1179 7004 8444 8445 8434 7233 8673 8674 8666 7224 7231 8672 8665 8668 8675 7235 8676 8449 8677 8678 
930 931 1156 1155 955 956 1181 1180 7014 8454 8455 8444 7240 8680 8681 8673 7231 7238 8679 8672 8675 8682 7242 8683 8459 8684 8685 
931 932 1157 1156 956 957 1182 1181 7024 8464 8465 8454 7247 8687 8688 8680 7238 7245 8686 8679 8682 8689 7249 8690 8469 8691 8692 
932 933 1158 1157 957 958 1183 1182 7034 8474 8475 8464 7254 8694 8695 8687 7245 7252 8693 8686 8689 8696 7256 8697 8479 8698 8699 
933 934 1159 1158 958 959 1184 1183 7044 8484 8485 8474 7261 8701 8702 8694 7252 7259 8700 8693 8696 8703 7263 8704 8489 8705 8706 
934 935 1160 1159 959 960 1185 1184 7054 8494 8495 8484 7268 8708 8709 8701 7259 7266 8707 8700 8703 8710 7270 8711 8499 8712 8713 
935 936 1161 1160 960 961 1186 1185 7064 8504 8505 8494 7275 8715 8716 8708 7266 7273 8714 8707 8710 8717 7277 8718 8509 8719 8720 
936 937 1162 1161 961 962 1187 1186 7074 8514 8515 8504 7282 8722 8723 8715 7273 7280 8721 8714 8717 8724 7284 8725 8519 8726 8727 
937 938 1163 1162 962 963 1188 1187 7084 8524 8525 8514 7289 8729 8730 8722 7280 7287 8728 8721 8724 8731 7291 8732 8529 8733 8734 
938 939 1164 1163 963 964 1189 1188 7094 8534 8535 8524 7296 8736 8737 8729 7287 7294 8735 8728 8731 8738 7298 8739 8539 8740 8741 
939 940 1165 1164 964 965 1190 1189 7104 8544 8545 8534 7303 8743 8744 8736 7294 7301 8742 8735 8738 8745 7305 8746 8549 8747 8748 
940 941 1166 1165 965 966 1191 1190 7114 8554 8555 8544 7310 8750 8751 8743 7301 7308 8749 8742 8745 8752 7312 8753 8559 8754 8755 
941 942 1167 1166 966 967 1192 1191 7124 8564 8565 8554 7317 8757 8758 8750 7308 7315 8756 8749 8752 8759 7319 8760 8569 8761 8762 
942 943 1168 1167 967 968 1193 1192 7134 8574 8575 8564 7324 8764 8765 8757 7315 7322 8763 8756 8759 8766 7326 8767 8579 8768 8769 
943 944 1169 1168 968 969 1194 1193 7144 8584 8585 8574 7331 8771 8772 8764 7322 7329 8770 8763 8766 8773 7333 8774 8589 8775 8776 
944 945 1170 1169 969 970 1195 1194 7154 8594 8595 8584 7338 8778 8779 8771 7329 7336 8777 8770 8773 8780 7340 8781 8599 8782 8783 
945 946 1171 1170 970 971 1196 1195 7164 8604 8605 8594 7345 8785 8786 8778 7336 7343 8784 8777 8780 8787 7347 8788 8609 8789 8790 
946 947 1172 1171 971 972 1197 1196 7174 8614 8615 8604 7352 8792 8793 8785 7343 7350 8791 8784 8787 8794 7354 8795 8619 8796 8797 
947 948 1173 1172 972 973 1198 1197 7184 8624 8625 8614 7359 8799 8800 8792 7350 7357 8798 8791 8794 8801 7361 8802 8629 8803 8804 
948 949 1174 1173 973 974 1199 1198 7194 8634 8635 8624 7366 8806 8807 8799 7357 7364 8805 8798 8801 8808 7368 8809 8639 8810 8811 
950 951 1176 1175 975 976 1201 1200 7203 8643 8644 8645 7374 8814 8815 8816 7372 7371 8812 8813 8819 8817 7377 8818 8649 8820 8821 
951 952 1177 1176 976 977 1202 1201 7212 8652 8653 8643 7383 8823 8824 8814 7371 7381 8822 8812 8817 8825 7385 8826 8656 8827 8828 
952 953 1178 1177 977 978 1203 1202 7219 8659 8660 8652 7390 8830 8831 8823 7381 7388 8829 8822 8825 8832 7392 8833 8663 8834 8835 
953 954 1179 1178 978 979 1204 1203 7226 8666 8667 8659 7397 8837 8838 8830 7388 7395 8836 8829 8832 8839 7399 8840 8670 8841 8842 
954 955 1180 1179 979 980 1205 1204 7233 8673 8674 8666 7404 8844 8845 8837 7395 7402 8843 8836 8839 8846 7406 8847 8677 8848 8849 
955 956 1181 1180 980 981 1206 1205 7240 8680 8681 8673 7411 8851 8852 8844 7402 7409 8850 8843 8846 8853 7413 8854 8684 8855 8856 
956 957 1182 1181 981 982 1207 1206 7247 8687 8688 8680 7418 8858 8859 8851 7409 7416 8857 8850 8853 8860 7420 8861 8691 8862 8863 
957 958 1183 1182 982 983 1208 1207 7254 8694 8695 8687 7425 8865 8866 8858 7416 7423 8864 8857 8860 8867 7427 8868 8698 8869 8870 
958 959 1184 1183 983 984 1209 1208 7261 8701 8702 8694 7432 8872 8873 8865 7423 7430 8871 8864 8867 8874 7434 8875 8705 8876 8877 
959 960 1185 1184 984 985 1210 1209 7268 8708 8709 8701 7439 8879 8880 8872 7430 7437 8878 8871 8874 8881 7441 8882 8712 8883 8884 
960 961 1186 1185 985 986 1211 1210 7275 8715 8716 8708 7446 8886 8887 8879 7437 7444 8885 8878 8881 8888 7448 8889 8719 8890 8891 
961 962 1187 1186 986 987 1212 1211 7282 8722 8723 8715 7453 8893 8894 8886 7444 7451 8892 8885 8888 8895 7455 8896 8726 8897 8898 
962 963 1188 1187 987 988 1213 1212 7289 8729 8730 8722 7460 8900 8901 8893 7451 7458 8899 8892 8895 8902 7462 8903 8733 8904 8905 
963 964 1189 1188 988 989 1214 1213 7296 8736 8737 8729 7467 8907 8908 8900 7458 7465 8906 8899 8902 8909 7469 8910 8740 8911 8912 
964 965 1190 1189 989 990 1215 1214 7303 8743 8744 8736 7474 8914 8915 8907 7465 7472 8913 8906 8909 8916 7476 8917 8747 8918 8919 
965 966 1191 1190 990 991 1216 1215 7310 8750 8751 8743 7481 8921 8922 8914 7472 7479 8920 8913 8916 8923 7483 8924 8754 8925 8926 
966 967 1192 1191 991 992 1217 1216 7317 8757 8758 8750 7488 8928 8929 8921 7479 7486 8927 8920 8923 8930 7490 8931 8761 8932 8933 
967 968 1193 1192 992 993 1218 1217 7324 8764 8765 8757 7495 8935 8936 8928 7486 7493 8934 8927 8930 8937 7497 8938 8768 8939 8940 
968 969 1194 1193 993 994 1219 1218 7331 8771 8772 8764 7502 8942 8943 8935 7493 7500 8941 8934 8937 8944 7504 8945 8775 8946 8947 
969 970 1195 1194 994 995 1220 1219 7338 8778 8779 8771 7509 8949 8950 8942 7500 7507 8948 8941 8944 8951 7511 8952 8782 8953 8954 
970 971 1196 1195 995 996 1221 1220 7345 8785 8786 8778 7516 8956 8957 8949 7507 7514 8955 8948 8951 8958 7518 8959 8789 8960 8961 
971 972 1197 1196 996 997 1222 1221 7352 8792 8793 8785 7523 8963 8964 8956 7514 7521 8962 8955 8958 8965 7525 8966 8796 8967 8968 
972 973 1198 1197 997 998 1223 1222 7359 8799 8800 8792 7530 8970 8971 8963 7521 7528 8969 8962 8965 8972 7532 8973 8803 8974 8975 
973 974 1199 1198 998 999 1224 1223 7366 8806 8807 8799 7537 8977 8978 8970 7528 7535 8976 8969 8972 8979 7539 8980 8810 8981 8982 
975 976 1201 1200 1000 1001 1226 1225 7374 8814 8815 8816 7545 8985 8986 8987 7543 7542 8983 8984 8990 8988 7548 8989 8820 8991 8992 
976 977 1202 1201 1001 1002 1227 1226 7383 8823 8824 8814 7554 8994 8995 8985 7542 7552 8993 8983 8988 8996 7556 8997 8827 8998 8999 
977 978 1203 1202 1002 1003 1228 1227 7390 8830 8831 8823 7561 9001 9002 8994 7552 7559 9000 8993 8996 9003 7563 9004 8834 9005 9006 
978 979 1204 1203 1003 1004 1229 1228 7397 8837 8838 8830 7568 9008 9009 9001 7559 7566 9007 9000 9003 9010 7570 9011 8841 9012 9013 
979 980 1205 1204 1004 1005 1230 1229 7404 8844 8845 8837 7575 9015 9016 9008 7566 7573 9014 9007 9010 9017 7577 9018 8848 9019 9020 
980 981 1206 1205 1005 1006 1231 1230 7411 8851 8852 8844 7582 9022 9023 9015 7573 7580 9021 9014 9017 9024 7584 9025 8855 9026 9027 
981 982 1207 1206 1006 1007 1232 1231 7418 8858 8859 8851 7589 9029 9030 9022 7580 7587 9028 9021 9024 9031 7591 9032 8862 9033 9034 
982 983 1208 1207 1007 1008 1233 1232 7425 8865 8866 8858 7596 9036 9037 9029 7587 7594 9035 9028 9031 9038 7598 9039 8869 9040 9041 
983 984 1209 1208 1008 1009 1234 1233 7432 8872 8873 8865 7603 9043 9044 9036 7594 7601 9042 9035 9038 9045 7605 9046 8876 9047 9048 
984 985 1210 1209 1009 1010 1235 1234 7439 8879 8880 8872 7610 9050 9051 9043 7601 7608 9049 9042 9045 9052 7612 9053 8883 9054 9055 
985 986 1211 1210 1010 1011 1236 1235 7446 8886 8887 8879 7617 9057 9058 9050 7608 7615 9056 9049 9052 9059 7619 9060 8890 9061 9062 
986 987 1212 1211 1011 1012 1237 1236 7453 8893 8894 8886 7624 9064 9065 9057 7615 7622 9063 9056 9059 9066 7626 9067 8897 9068 9069 
987 988 1213 1212 1012 1013 1238 1237 7460 8900 8901 8893 7631 9071 9072 9064 7622 7629 9070 9063 9066 9073 7633 9074 8904 9075 9076 
988 989 1214 1213 1013 1014 1239 1238 7467 8907 8908 8900 7638 9078 9079 9071 7629 7636 9077 9070 9073 9080 7640 9081 8911 9082 9083 
989 990 1215 1214 1014 1015 1240 1239 7474 8914 8915 8907 7645 9085 9086 9078 7636 7643 9084 9077 9080 9087 7647 9088 8918 9089 9090 
990 991 1216 1215 1015 1016 1241 1240 7481 8921 8922 8914 7652 9092 9093 9085 7643 7650 9091 9084 9087 9094 7654 9095 8925 9096 9097 
991 992 1217 1216 1016 1017 1242 1241 7488 8928 8929 8921 7659 9099 9100 9092 7650 7657 9098 9091 9094 9101 7661 9102 8932 9103 9104 
992 993 1218 1217 1017 1018 1243 1242 7495 8935 8936 8928 7666 9106 9107 9099 7657 7664 9105 9098 9101 9108 7668 9109 8939 9110 9111 
993 994 1219 1218 1018 1019 1244 1243 7502 8942 8943 8935 7673 9113 9114 9106 7664 7671 9112 9105 9108 9115 7675 9116 8946 9117 9118 
994 995 1220 1219 1019 1020 1245 1244 7509 8949 8950 8942 7680 9120 9121 9113 7671 7678 9119 9112 9115 9122 7682 9123 8953 9124 9125 
995 996 1221 1220 1020 1021 1246 1245 7516 8956 8957 8949 7687 9127 9128 9120 7678 7685 9126 9119 9122 9129 7689 9130 8960 9131 9132 
996 997 1222 1221 1021 1022 1247 1246 7523 8963 8964 8956 7694 9134 9135 9127 7685 7692 9133 9126 9129 9136 7696 9137 8967 9138 9139 
997 998 1223 1222 1022 1023 1248 1247 7530 8970 8971 8963 7701 9141 9142 9134 7692 7699 9140 9133 9136 9143 7703 9144 8974 9145 9146 
998 999 1224 1223 1023 1024 1249 1248 7537 8977 8978 8970 7708 9148 9149 9141 7699 7706 9147 9140 9143 9150 7710 9151 8981 9152 9153 
1000 1001 1226 1225 1025 1026 1251 1250 7545 8985 8986 8987 7716 9156 9157 9158 7714 7713 9154 9155 9161 9159 7719 9160 8991 9162 9163 
1001 1002 1227 1226 1026 1027 1252 1251 7554 8994 8995 8985 7725 9165 9166 9156 7713 7723 9164 9154 9159 9167 7727 9168 8998 9169 9170 
1002 1003 1228 1227 1027 1028 1253 1252 7561 9001 9002 8994 7732 9172 9173 9165 7723 7730 9171 9164 9167 9174 7734 9175 9005 9176 9177 
1003 1004 1229 1228 1028 1029 1254 1253 7568 9008 9009 9001 7739 9179 9180 9172 7730 7737 9178 9171 9174 9181 7741 9182 9012 9183 9184 
1004 1005 1230 1229 1029 1030 1255 1254 7575 9015 9016 9008 7746 9186 9187 9179 7737 7744 9185 9178 9181 9188 7748 9189 9019 9190 9191 
1005 1006 1231 1230 1030 1031 1256 1255 7582 9022 9023 9015 7753 9193 9194 9186 7744 7751 9192 9185 9188 9195 7755 9196 9026 9197 9198 
1006 1007 1232 1231 1031 1032 1257 1256 7589 9029 9030 9022 7760 9200 9201 9193 7751 7758 9199 9192 9195 9202 7762 9203 9033 9204 9205 
1007 1008 1233 1232 1032 1033 1258 1257 7596 9036 9037 9029 7767 9207 9208 9200 7758 7765 9206 9199 9202 9209 7769 9210 9040 9211 9212 
1008 1009 1234 1233 1033 1034 1259 1258 7603 9043 9044 9036 7774 9214 9215 9207 7765 7772 9213 9206 9209 9216 7776 9217 9047 9218 9219 
1009 1010 1235 1234 1034 1035 1260 1259 7610 9050 9051 9043 7781 9221 9222 9214 7772 7779 9220 9213 9216 9223 7783 9224 9054 9225 9226 
1010 1011 1236 1235 1035 1036 1261 1260 7617 9057 9058 9050 7788 9228 9229 9221 7779 7786 9227 9220 9223 9230 7790 9231 9061 9232 9233 
1011 1012 1237 1236 1036 1037 1262 1261 7624 9064 9065 9057 7795 9235 9236 9228 7786 7793 9234 9227 9230 9237 7797 9238 9068 9239 9240 
1012 1013 1238 1237 1037 1038 1263 1262 7631 9071 9072 9064 7802 9242 9243 9235 7793 7800 9241 9234 9237 9244 7804 9245 9075 9246 9247 
1013 1014 1239 1238 1038 1039 1264 1263 7638 9078 9079 9071 7809 9249 9250 9242 7800 7807 9248 9241 9244 9251 7811 9252 9082 9253 9254 
1014 1015 1240 1239 1039 1040 1265 1264 7645 9085 9086 9078 7816 9256 9257 9249 7807 7814 9255 9248 9251 9258 7818 9259 9089 9260 9261 
1015 1016 1241 1240 1040 1041 1266 1265 7652 9092 9093 9085 7823 9263 9264 9256 7814 7821 9262 9255 9258 9265 7825 9266 9096 9267 9268 
1016 1017 1242 1241 1041 1042 1267 1266 7659 9099 9100 9092 7830 9270 9271 9263 7821 7828 9269 9262 9265 9272 7832 9273 9103 9274 9275 
1017 1018 1243 1242 1042 1043 1268 1267 7666 9106 9107 9099 7837 9277 9278 9270 7828 7835 9276 9269 9272 9279 7839 9280 9110 9281 9282 
1018 1019 1244 1243 1043 1044 1269 1268 7673 9113 9114 9106 7844 9284 9285 9277 7835 7842 9283 9276 9279 9286 7846 9287 9117 9288 9289 
1019 1020 1245 1244 1044 1045 1270 1269 7680 9120 9121 9113 7851 9291 9292 9284 7842 7849 9290 9283 9286 9293 7853 9294 9124 9295 9296 
1020 1021 1246 1245 1045 1046 1271 1270 7687 9127 9128 9120 7858 9298 9299 9291 7849 7856 9297 9290 9293 9300 7860 9301 9131 9302 9303 
1021 1022 1247 1246 1046 1047 1272 1271 7694 9134 9135 9127 7865 9305 9306 9298 7856 7863 9304 9297 9300 9307 7867 9308 9138 9309 9310 
1022 1023 1248 1247 1047 1048 1273 1272 7701 9141 9142 9134 7872 9312 9313 9305 7863 7870 9311 9304 9307 9314 7874 9315 9145 9316 9317 
1023 1024 1249 1248 1048 1049 1274 1273 7708 9148 9149 9141 7879 9319 9320 9312 7870 7877 9318 9311 9314 9321 7881 9322 9152 9323 9324 
1025 1026 1251 1250 1050 1051 1276 1275 7716 9156 9157 9158 7887 9327 9328 9329 7885 7884 9325 9326 9332 9330 7890 9331 9162 9333 9334 
1026 1027 1252 1251 1051 1052 1277 1276 7725 9165 9166 9156 7896 9336 9337 9327 7884 7894 9335 9325 9330 9338 7898 9339 9169 9340 9341 
1027 1028 1253 1252 1052 1053 1278 1277 7732 9172 9173 9165 7903 9343 9344 9336 7894 7901 9342 9335 9338 9345 7905 9346 9176 9347 9348 
1028 1029 1254 1253 1053 1054 1279 1278 7739 9179 9180 9172 7910 9350 9351 9343 7901 7908 9349 9342 9345 9352 7912 9353 9183 9354 9355 
1029 1030 1255 1254 1054 1055 1280 1279 7746 9186 9187 9179 7917 9357 9358 9350 7908 7915 9356 9349 9352 9359 7919 9360 9190 9361 9362 
1030 1031 1256 1255 1055 1056 1281 1280 7753 9193 9194 9186 7924 9364 9365 9357 7915 7922 9363 9356 9359 9366 7926 9367 9197 9368 9369 
1031 1032 1257 1256 1056 1057 1282 1281 7760 9200 9201 9193 7931 9371 9372 9364 7922 7929 9370 9363 9366 9373 7933 9374 9204 9375 9376 
1032 1033 1258 1257 1057 1058 1283 1282 7767 9207 9208 9200 7938 9378 9379 9371 7929 7936 9377 9370 9373 9380 7940 9381 9211 9382 9383 
1033 1034 1259 1258 1058 1059 1284 1283 7774 9214 9215 9207 7945 9385 9386 9378 7936 7943 9384 9377 9380 9387 7947 9388 9218 9389 9390 
1034 1035 1260 1259 1059 1060 1285 1284 7781 9221 9222 9214 7952 9392 9393 9385 7943 7950 9391 9384 9387 9394 7954 9395 9225 9396 9397 
1035 1036 1261 1260 1060 1061 1286 1285 7788 9228 9229 9221 7959 9399 9400 9392 7950 7957 9398 9391 9394 9401 7961 9402 9232 9403 9404 
1036 1037 1262 1261 1061 1062 1287 1286 7795 9235 9236 9228 7966 9406 9407 9399 7957 7964 9405 9398 9401 9408 7968 9409 9239 9410 9411 
1037 1038 1263 1262 1062 1063 1288 1287 7802 9242 9243 9235 7973 9413 9414 9406 7964 7971 9412 9405 9408 9415 7975 9416 9246 9417 9418 
1038 1039 1264 1263 1063 1064 1289 1288 7809 9249 9250 9242 7980 9420 9421 9413 7971 7978 9419 9412 9415 9422 7982 9423 9253 9424 9425 
1039 1040 1265 1264 1064 1065 1290 1289 7816 9256 9257 9249 7987 9427 9428 9420 7978 7985 9426 9419 9422 9429 7989 9430 9260 9431 9432 
1040 1041 1266 1265 1065 1066 1291 1290 7823 9263 9264 9256 7994 9434 9435 9427 7985 7992 9433 9426 9429 9436 7996 9437 9267 9438 9439 
1041 1042 1267 1266 1066 1067 1292 1291 7830 9270 9271 9263 8001 9441 9442 9434 7992 7999 9440 9433 9436 9443 8003 9444 9274 9445 9446 
1042 1043 1268 1267 1067 1068 1293 1292 7837 9277 9278 9270 8008 9448 9449 9441 7999 8006 9447 9440 9443 9450 8010 9451 9281 9452 9453 
1043 1044 1269 1268 1068 1069 1294 1293 7844 9284 9285 9277 8015 9455 9456 9448 8006 8013 9454 9447 9450 9457 8017 9458 9288 9459 9460 
1044 1045 1270 1269 1069 1070 1295 1294 7851 9291 9292 9284 8022 9462 9463 9455 8013 8020 9461 9454 9457 9464 8024 9465 9295 9466 9467 
1045 1046 1271 1270 1070 1071 1296 1295 7858 9298 9299 9291 8029 9469 9470 9462 8020 8027 9468 9461 9464 9471 8031 9472 9302 9473 9474 
1046 1047 1272 1271 1071 1072 1297 1296 7865 9305 9306 9298 8036 9476 9477 9469 8027 8034 9475 9468 9471 9478 8038 9479 9309 9480 9481 
1047 1048 1273 1272 1072 1073 1298 1297 7872 9312 9313 9305 8043 9483 9484 9476 8034 8041 9482 9475 9478 9485 8045 9486 9316 9487 9488 
1048 1049 1274 1273 1073 1074 1299 1298 7879 9319 9320 9312 8050 9490 9491 9483 8041 8048 9489 9482 9485 9492 8052 9493 9323 9494 9495 
1050 1051 1276 1275 1075 1076 1301 1300 7887 9327 9328 9329 8058 9498 9499 9500 8056 8055 9496 9497 9503 9501 8061 9502 9333 9504 9505 
1051 1052 1277 1276 1076 1077 1302 1301 7896 9336 9337 9327 8067 9507 9508 9498 8055 8065 9506 9496 9501 9509 8069 9510 9340 9511 9512 
1052 1053 1278 1277 1077 1078 1303 1302 7903 9343 9344 9336 8074 9514 9515 9507 8065 8072 9513 9506 9509 9516 8076 9517 9347 9518 9519 
1053 1054 1279 1278 1078 1079 1304 1303 7910 9350 9351 9343 8081 9521 9522 9514 8072 8079 9520 9513 9516 9523 8083 9524 9354 9525 9526 
1054 1055 1280 1279 1079 1080 1305 1304 7917 9357 9358 9350 8088 9528 9529 9521 8079 8086 9527 9520 9523 9530 8090 9531 9361 9532 9533 
1055 1056 1281 1280 1080 1081 1306 1305 7924 9364 9365 9357 8095 9535 9536 9528 8086 8093 9534 9527 9530 9537 8097 9538 9368 9539 9540 
1056 1057 1282 1281 1081 1082 1307 1306 7931 9371 9372 9364 8102 9542 9543 9535 8093 8100 9541 9534 9537 9544 8104 9545 9375 9546 9547 
1057 1058 1283 1282 1082 1083 1308 1307 7938 9378 9379 9371 8109 9549 9550 9542 8100 8107 9548 9541 9544 9551 8111 9552 9382 9553 9554 
1058 1059 1284 1283 1083 1084 1309 1308 7945 9385 9386 9378 8116 9556 9557 9549 8107 8114 9555 9548 9551 9558 8118 9559 9389 9560 9561 
1059 1060 1285 1284 1084 1085 1310 1309 7952 9392 9393 9385 8123 9563 9564 9556 8114 8121 9562 9555 9558 9565 8125 9566 9396 9567 9568 
1060 1061 1286 1285 1085 1086 1311 1310 7959 9399 9400 9392 8130 9570 9571 9563 8121 8128 9569 9562 9565 9572 8132 9573 9403 9574 9575 
1061 1062 1287 1286 1086 1087 1312 1311 7966 9406 9407 9399 8137 9577 9578 9570 8128 8135 9576 9569 9572 9579 8139 9580 9410 9581 9582 
1062 1063 1288 1287 1087 1088 1313 1312 7973 9413 9414 9406 8144 9584 9585 9577 8135 8142 9583 9576 9579 9586 8146 9587 9417 9588 9589 
1063 1064 1289 1288 1088 1089 1314 1313 7980 9420 9421 9413 8151 9591 9592 9584 8142 8149 9590 9583 9586 9593 8153 9594 9424 9595 9596 
1064 1065 1290 1289 1089 1090 1315 1314 7987 9427 9428 9420 8158 9598 9599 9591 8149 8156 9597 9590 9593 9600 8160 9601 9431 9602 9603 
1065 1066 1291 1290 1090 1091 1316 1315 7994 9434 9435 9427 8165 9605 9606 9598 8156 8163 9604 9597 9600 9607 8167 9608 9438 9609 9610 
1066 1067 1292 1291 1091 1092 1317 1316 8001 9441 9442 9434 8172 9612 9613 9605 8163 8170 9611 9604 9607 9614 8174 9615 9445 9616 9617 
1067 1068 1293 1292 1092 1093 1318 1317 8008 9448 9449 9441 8179 9619 9620 9612 8170 8177 9618 9611 9614 9621 8181 9622 9452 9623 9624 
1068 1069 1294 1293 1093 1094 1319 1318 8015 9455 9456 9448 8186 9626 9627 9619 8177 8184 9625 9618 9621 9628 8188 9629 9459 9630 9631 
1069 1070 1295 1294 1094 1095 1320 1319 8022 9462 9463 9455 8193 9633 9634 9626 8184 8191 9632 9625 9628 9635 8195 9636 9466 9637 9638 
1070 1071 1296 1295 1095 1096 1321 1320 8029 9469 9470 9462 8200 9640 9641 9633 8191 8198 9639 9632 9635 9642 8202 9643 9473 9644 9645 
1071 1072 1297 1296 1096 1097 1322 1321 8036 9476 9477 9469 8207 9647 9648 9640 8198 8205 9646 9639 9642 9649 8209 9650 9480 9651 9652 
1072 1073 1298 1297 1097 1098 1323 1322 8043 9483 9484 9476 8214 9654 9655 9647 8205 8212 9653 9646 9649 9656 8216 9657 9487 9658 9659 
1073 1074 1299 1298 1098 1099 1324 1323 8050 9490 9491 9483 8221 9661 9662 9654 8212 8219 9660 9653 9656 9663 8223 9664 9494 9665 9666 
1075 1076 1301 1300 1100 1101 1326 1325 8058 9498 9499 9500 8229 9669 9670 9671 8227 8226 9667 9668 9674 9672 8232 9673 9504 9675 9676 
1076 1077 1302 1301 1101 1102 1327 1326 8067 9507 9508 9498 8238 9678 9679 9669 8226 8236 9677 9667 9672 9680 8240 9681 9511 9682 9683 
1077 1078 1303 1302 1102 1103 1328 1327 8074 9514 9515 9507 8245 9685 9686 9678 8236 8243 9684 9677 9680 9687 8247 9688 9518 9689 9690 
1078 1079 1304 1303 1103 1104 1329 1328 8081 9521 9522 9514 8252 9692 9693 9685 8243 8250 9691 9684 9687 9694 8254 9695 9525 9696 9697 
1079 1080 1305 1304 1104 1105 1330 1329 8088 9528 9529 9521 8259 9699 9700 9692 8250 8257 9698 9691 9694 9701 8261 9702 9532 9703 9704 
1080 1081 1306 1305 1105 1106 1331 1330 8095 9535 9536 9528 8266 9706 9707 9699 8257 8264 9705 9698 9701 9708 8268 9709 9539 9710 9711 
1081 1082 1307 1306 1106 1107 1332 1331 8102 9542 9543 9535 8273 9713 9714 9706 8264 8271 9712 9705 9708 9715 8275 9716 9546 9717 9718 
1082 1083 1308 1307 1107 1108 1333 1332 8109 9549 9550 9542 8280 9720 9721 9713 8271 8278 9719 9712 9715 9722 8282 9723 9553 9724 9725 
1083 1084 1309 1308 1108 1109 1334 1333 8116 9556 9557 9549 8287 9727 9728 9720 8278 8285 9726 9719 9722 9729 8289 9730 9560 9731 9732 
1084 1085 1310 1309 1109 1110 1335 1334 8123 9563 9564 9556 8294 9734 9735 9727 8285 8292 9733 9726 9729 9736 8296 9737 9567 9738 9739 
1085 1086 1311 1310 1110 1111 1336 1335 8130 9570 9571 9563 8301 9741 9742 9734 8292 8299 9740 9733 9736 9743 8303 9744 9574 9745 9746 
1086 1087 1312 1311 1111 1112 1337 1336 8137 9577 9578 9570 8308 9748 9749 9741 8299 8306 9747 9740 9743 9750 8310 9751 9581 9752 9753 
1087 1088 1313 1312 1112 1113 1338 1337 8144 9584 9585 9577 8315 9755 9756 9748 8306 8313 9754 9747 9750 9757 8317 9758 9588 9759 9760 
1088 1089 1314 1313 1113 1114 1339 1338 8151 9591 9592 9584 8322 9762 9763 9755 8313 8320 9761 9754 9757 9764 8324 9765 9595 9766 9767 
1089 1090 1315 1314 1114 1115 1340 1339 8158 9598 9599 9591 8329 9769 9770 9762 8320 8327 9768 9761 9764 9771 8331 9772 9602 9773 9774 
1090 1091 1316 1315 1115 1116 1341 1340 8165 9605 9606 9598 8336 9776 9777 9769 8327 8334 9775 9768 9771 9778 8338 9779 9609 9780 9781 
1091 1092 1317 1316 1116 1117 1342 1341 8172 9612 9613 9605 8343 9783 9784 9776 8334 8341 9782 9775 9778 9785 8345 9786 9616 9787 9788 
1092 1093 1318 1317 1117 1118 1343 1342 8179 9619 9620 9612 8350 9790 9791 9783 8341 8348 9789 9782 9785 9792 8352 9793 9623 9794 9795 
1093 1094 1319 1318 1118 1119 1344 1343 8186 9626 9627 9619 8357 9797 9798 9790 8348 8355 9796 9789 9792 9799 8359 9800 9630 9801 9802 
1094 1095 1320 1319 1119 1120 1345 1344 8193 9633 9634 9626 8364 9804 9805 9797 8355 8362 9803 9796 9799 9806 8366 9807 9637 9808 9809 
1095 1096 1321 1320 1120 1121 1346 1345 8200 9640 9641 9633 8371 9811 9812 9804 8362 8369 9810 9803 9806 9813 8373 9814 9644 9815 9816 
1096 1097 1322 1321 1121 1122 1347 1346 8207 9647 9648 9640 8378 9818 9819 9811 8369 8376 9817 9810 9813 9820 8380 9821 9651 9822 9823 
1097 1098 1323 1322 1122 1123 1348 1347 8214 9654 9655 9647 8385 9825 9826 9818 8376 8383 9824 9817 9820 9827 8387 9828 9658 9829 9830 
1098 1099 1324 1323 1123 1124 1349 1348 8221 9661 9662 9654 8392 9832 9833 9825 8383 8390 9831 9824 9827 9834 8394 9835 9665 9836 9837 
1125 1126 1351 1350 1150 1151 1376 1375 8398 9838 9839 9840 8403 9843 9844 9845 8401 8400 9841 9842 9849 9847 8407 9848 9846 9850 9851 
1126 1127 1352 1351 1151 1152 1377 1376 8412 9852 9853 9838 8415 9855 9856 9843 8400 8413 9854 9841 9847 9858 8418 9859 9857 9860 9861 
1127 1128 1353 1352 1152 1153 1378 1377 8422 9862 9863 9852 8425 9865 9866 9855 8413 8423 9864 9854 9858 9868 8428 9869 9867 9870 9871 
1128 1129 1354 1353 1153 1154 1379 1378 8432 9872 9873 9862 8435 9875 9876 9865 8423 8433 9874 9864 9868 9878 8438 9879 9877 9880 9881 
1129 1130 1355 1354 1154 1155 1380 1379 8442 9882 9883 9872 8445 9885 9886 9875 8433 8443 9884 9874 9878 9888 8448 9889 9887 9890 9891 
1130 1131 1356 1355 1155 1156 1381 1380 8452 9892 9893 9882 8455 9895 9896 9885 8443 8453 9894 9884 9888 9898 8458 9899 9897 9900 9901 
1131 1132 1357 1356 1156 1157 1382 1381 8462 9902 9903 9892 8465 9905 9906 9895 8453 8463 9904 9894 9898 9908 8468 9909 9907 9910 9911 
1132 1133 1358 1357 1157 1158 1383 1382 8472 9912 9913 9902 8475 9915 9916 9905 8463 8473 9914 9904 9908 9918 8478 9919 9917 9920 9921 
1133 1134 1359 1358 1158 1159 1384 1383 8482 9922 9923 9912 8485 9925 9926 9915 8473 8483 9924 9914 9918 9928 8488 9929 9927 9930 9931 
1134 1135 1360 1359 1159 1160 1385 1384 8492 9932 9933 9922 8495 9935 9936 9925 8483 8493 9934 9924 9928 9938 8498 9939 9937 9940 9941 
1135 1136 1361 1360 1160 1161 1386 1385 8502 9942 9943 9932 8505 9945 9946 9935 8493 8503 9944 9934 9938 9948 8508 9949 9947 9950 9951 
1136 1137 1362 1361 1161 1162 1387 1386 8512 9952 9953 9942 8515 9955 9956 9945 8503 8513 9954 9944 9948 9958 8518 9959 9957 9960 9961 
1137 1138 1363 1362 1162 1163 1388 1387 8522 9962 9963 9952 8525 9965 9966 9955 8513 8523 9964 9954 9958 9968 8528 9969 9967 9970 9971 
1138 1139 1364 1363 1163 1164 1389 1388 8532 9972 9973 9962 8535 9975 9976 9965 8523 8533 9974 9964 9968 9978 8538 9979 9977 9980 9981 
1139 1140 1365 1364 1164 1165 1390 1389 8542 9982 9983 9972 8545 9985 9986 9975 8533 8543 9984 9974 9978 9988 8548 9989 9987 9990 9991 
1140 1141 1366 1365 1165 1166 1391 1390 8552 9992 9993 9982 8555 9995 9996 9985 8543 8553 9994 9984 9988 9998 8558 9999 9997 10000 10001 
1141 1142 1367 1366 1166 1167 1392 1391 8562 10002 10003 9992 8565 10005 10006 9995 8553 8563 10004 9994 9998 10008 8568 10009 10007 10010 10011 
1142 1143 1368 1367 1167 1168 1393 1392 8572 10012 10013 10002 8575 10015 10016 10005 8563 8573 10014 10004 10008 10018 8578 10019 10017 10020 10021 
1143 1144 1369 1368 1168 1169 1394 1393 8582 10022 10023 10012 8585 10025 10026 10015 8573 8583 10024 10014 10018 10028 8588 10029 10027 10030 10031 
1144 1145 1370 1369 1169 1170 1395 1394 8592 10032 10033 10022 8595 10035 10036 10025 8583 8593 10034 10024 10028 10038 8598 10039 10037 10040 10041 
1145 1146 1371 1370 1170 1171 1396 1395 8602 10042 10043 10032 8605 10045 10046 10035 8593 8603 10044 10034 10038 10048 8608 10049 10047 10050 10051 
1146 1147 1372 1371 1171 1172 1397 1396 8612 10052 10053 10042 8615 10055 10056 10045 8603 8613 10054 10044 10048 10058 8618 10059 10057 10060 10061 
1147 1148 1373 1372 1172 1173 1398 1397 8622 10062 10063 10052 8625 10065 10066 10055 8613 8623 10064 10054 10058 10068 8628 10069 10067 10070 10071 
1148 1149 1374 1373 1173 1174 1399 1398 8632 10072 10073 10062 8635 10075 10076 10065 8623 8633 10074 10064 10068 10078 8638 10079 10077 10080 10081 
1150 1151 1376 1375 1175 1176 1401 1400 8403 9843 9844 9845 8644 10084 10085 10086 8642 8641 10082 10083 10089 10087 8647 10088 9850 10090 10091 
1151 1152 1377 1376 1176 1177 1402 1401 8415 9855 9856 9843 8653 10093 10094 10084 8641 8651 10092 10082 10087 10095 8655 10096 9860 10097 10098 
1152 1153 1378 1377 1177 1178 1403 1402 8425 9865 9866 9855 8660 10100 10101 10093 8651 8658 10099 10092 10095 10102 8662 10103 9870 10104 10105 
1153 1154 1379 1378 1178 1179 1404 1403 8435 9875 9876 9865 8667 10107 10108 10100 8658 8665 10106 10099 10102 10109 8669 10110 9880 10111 10112 
1154 1155 1380 1379 1179 1180 1405 1404 8445 9885 9886 9875 8674 10114 10115 10107 8665 8672 10113 10106 10109 10116 8676 10117 9890 10118 10119 
1155 1156 1381 1380 1180 1181 1406 1405 8455 9895 9896 9885 8681 10121 10122 10114 8672 8679 10120 10113 10116 10123 8683 10124 9900 10125 10126 
1156 1157 1382 1381 1181 1182 1407 1406 8465 9905 9906 9895 8688 10128 10129 10121 8679 8686 10127 10120 10123 10130 8690 10131 9910 10132 10133 
1157 1158 1383 1382 1182 1183 1408 1407 8475 9915 9916 9905 8695 10135 10136 10128 8686 8693 10134 10127 10130 10137 8697 10138 9920 10139 10140 
1158 1159 1384 1383 1183 1184 1409 1408 8485 9925 9926 9915 8702 10142 10143 10135 8693 8700 10141 10134 10137 10144 8704 10145 9930 10146 10147 
1159 1160 1385 1384 1184 1185 1410 1409 8495 9935 9936 9925 8709 10149 10150 10142 8700 8707 10148 10141 10144 10151 8711 10152 9940 10153 10154 
1160 1161 1386 1385 1185 1186 1411 1410 8505 9945 9946 9935 8716 10156 10157 10149 8707 8714 10155 10148 10151 10158 8718 10159 9950 10160 10161 
1161 1162 1387 1386 1186 1187 1412 1411 8515 9955 9956 9945 8723 10163 10164 10156 8714 8721 10162 10155 10158 10165 8725 10166 9960 10167 10168 
1162 1163 1388 1387 1187 1188 1413 1412 8525 9965 9966 9955 8730 10170 10171 10163 8721 8728 10169 10162 10165 10172 8732 10173 9970 10174 10175 
1163 1164 1389 1388 1188 1189 1414 1413 8535 9975 9976 9965 8737 10177 10178 10170 8728 8735 10176 10169 10172 10179 8739 10180 9980 10181 10182 
1164 1165 1390 1389 1189 1190 1415 1414 8545 9985 9986 9975 8744 10184 10185 10177 8735 8742 10183 10176 10179 10186 8746 10187 9990 10188 10189 
1165 1166 1391 1390 1190 1191 1416 1415 8555 9995 9996 9985 8751 10191 10192 10184 8742 8749 10190 10183 10186 10193 8753 10194 10000 10195 10196 
1166 1167 1392 1391 1191 1192 1417 1416 8565 10005 10006 9995 8758 10198 10199 10191 8749 8756 10197 10190 10193 10200 8760 10201 10010 10202 10203 
1167 1168 1393 1392 1192 1193 1418 1417 8575 10015 10016 10005 8765 10205 10206 10198 8756 8763 10204 10197 10200 10207 8767 10208 10020 10209 10210 
1168 1169 1394 1393 1193 1194 1419 1418 8585 10025 10026 10015 8772 10212 10213 10205 8763 8770 10211 10204 10207 10214 8774 10215 10030 10216 10217 
1169 1170 1395 1394 1194 1195 1420 1419 8595 10035 10036 10025 8779 10219 10220 10212 8770 8777 10218 10211 10214 10221 8781 10222 10040 10223 10224 
1170 1171 1396 1395 1195 1196 1421 1420 8605 10045 10046 10035 8786 10226 10227 10219 8777 8784 10225 10218 10221 10228 8788 10229 10050 10230 10231 
1171 1172 1397 1396 1196 1197 1422 1421 8615 10055 10056 10045 8793 10233 10234 10226 8784 8791 10232 10225 10228 10235 8795 10236 10060 10237 10238 
1172 1173 1398 1397 1197 1198 1423 1422 8625 10065 10066 10055 8800 10240 10241 10233 8791 8798 10239 10232 10235 10242 8802 10243 10070 10244 10245 
1173 1174 1399 1398 1198 1199 1424 1423 8635 10075 10076 10065 8807 10247 10248 10240 8798 8805 10246 10239 10242 10249 8809 10250 10080 10251 10252 
1175 1176 1401 1400 1200 1201 1426 1425 8644 10084 10085 10086 8815 10255 10256 10257 8813 8812 10253 10254 10260 10258 8818 10259 10090 10261 10262 
1176 1177 1402 1401 1201 1202 1427 1426 8653 10093 10094 10084 8824 10264 10265 10255 8812 8822 10263 10253 10258 10266 8826 10267 10097 10268 10269 
1177 1178 1403 1402 1202 1203 1428 1427 8660 10100 10101 10093 8831 10271 10272 10264 8822 8829 10270 10263 10266 10273 8833 10274 10104 10275 10276 
1178 1179 1404 1403 1203 1204 1429 1428 8667 10107 10108 10100 8838 10278 10279 10271 8829 8836 10277 10270 10273 10280 8840 10281 10111 10282 10283 
1179 1180 1405 1404 1204 1205 1430 1429 8674 10114 10115 10107 8845 10285 10286 10278 8836 8843 10284 10277 10280 10287 8847 10288 10118 10289 10290 
1180 1181 1406 1405 1205 1206 1431 1430 8681 10121 10122 10114 8852 10292 10293 10285 8843 8850 10291 10284 10287 10294 8854 10295 10125 10296 10297 
1181 1182 1407 1406 1206 1207 1432 1431 8688 10128 10129 10121 8859 10299 10300 10292 8850 8857 10298 10291 10294 10301 8861 10302 10132 10303 10304 
1182 1183 1408 1407 1207 1208 1433 1432 8695 10135 10136 10128 8866 10306 10307 10299 8857 8864 10305 10298 10301 10308 8868 10309 10139 10310 10311 
1183 1184 1409 1408 1208 1209 1434 1433 8702 10142 10143 10135 8873 10313 10314 10306 8864 8871 10312 10305 10308 10315 8875 10316 10146 10317 10318 
1184 1185 1410 1409 1209 1210 1435 1434 8709 10149 10150 10142 8880 10320 10321 10313 8871 8878 10319 10312 10315 10322 8882 10323 10153 10324 10325 
1185 1186 1411 1410 1210 1211 1436 1435 8716 10156 10157 10149 8887 10327 10328 10320 8878 8885 10326 10319 10322 10329 8889 10330 10160 10331 10332 
1186 1187 1412 1411 1211 1212 1437 1436 8723 10163 10164 10156 8894 10334 10335 10327 8885 8892 10333 10326 10329 10336 8896 10337 10167 10338 10339 
1187 1188 1413 1412 1212 1213 1438 1437 8730 10170 10171 10163 8901 10341 10342 10334 8892 8899 10340 10333 10336 10343 8903 10344 10174 10345 10346 
1188 1189 1414 1413 1213 1214 1439 1438 8737 10177 10178 10170 8908 10348 10349 10341 8899 8906 10347 10340 10343 10350 8910 10351 10181 10352 10353 
1189 1190 1415 1414 1214 1215 1440 1439 8744 10184 10185 10177 8915 10355 10356 10348 8906 8913 10354 10347 10350 10357 8917 10358 10188 10359 10360 
1190 1191 1416 1415 1215 1216 1441 1440 8751 10191 10192 10184 8922 10362 10363 10355 8913 8920 10361 10354 10357 10364 8924 10365 10195 10366 10367 
1191 1192 1417 1416 1216 1217 1442 1441 8758 10198 10199 10191 8929 10369 10370 10362 8920 8927 10368 10361 10364 10371 8931 10372 10202 10373 10374 
1192 1193 1418 1417 1217 1218 1443 1442 8765 10205 10206 10198 8936 10376 10377 10369 8927 8934 10375 10368 10371 10378 8938 10379 10209 10380 10381 
1193 1194 1419 1418 1218 1219 1444 1443 8772 10212 10213 10205 8943 10383 10384 10376 8934 8941 10382 10375 10378 10385 8945 10386 10216 10387 10388 
1194 1195 1420 1419 1219 1220 1445 1444 8779 10219 10220 10212 8950 10390 10391 10383 8941 8948 10389 10382 10385 10392 8952 10393 10223 10394 10395 
1195 1196 1421 1420 1220 1221 1446 1445 8786 10226 10227 10219 8957 10397 10398 10390 8948 8955 10396 10389 10392 10399 8959 10400 10230 10401 10402 
1196 1197 1422 1421 1221 1222 1447 1446 8793 10233 10234 10226 8964 10404 10405 10397 8955 8962 10403 10396 10399 10406 8966 10407 10237 10408 10409 
1197 1198 1423 1422 1222 1223 1448 1447 8800 10240 10241 10233 8971 10411 10412 10404 8962 8969 10410 10403 10406 10413 8973 10414 10244 10415 10416 
1198 1199 1424 1423 1223 1224 1449 1448 8807 10247 10248 10240 8978 10418 10419 10411 8969 8976 10417 10410 10413 10420 8980 10421 10251 10422 10423 
1200 1201 1426 1425 1225 1226 1451 1450 8815 10255 10256 10257 8986 10426 10427 10428 8984 8983 10424 10425 10431 10429 8989 10430 10261 10432 10433 
1201 1202 1427 1426 1226 1227 1452 1451 8824 10264 10265 10255 8995 10435 10436 10426 8983 8993 10434 10424 10429 10437 8997 10438 10268 10439 10440 
1202 1203 1428 1427 1227 1228 1453 1452 8831 10271 10272 10264 9002 10442 10443 10435 8993 9000 10441 10434 10437 10444 9004 10445 10275 10446 10447 
1203 1204 1429 1428 1228 1229 1454 1453 8838 10278 10279 10271 9009 10449 10450 10442 9000 9007 10448 10441 10444 10451 9011 10452 10282 10453 10454 
1204 1205 1430 1429 1229 1230 1455 1454 8845 10285 10286 10278 9016 10456 10457 10449 9007 9014 10455 10448 10451 10458 9018 10459 10289 10460 10461 
1205 1206 1431 1430 1230 1231 1456 1455 8852 10292 10293 10285 9023 10463 10464 10456 9014 9021 10462 10455 10458 10465 9025 10466 10296 10467 10468 
1206 1207 1432 1431 1231 1232 1457 1456 8859 10299 10300 10292 9030 10470 10471 10463 9021 9028 10469 10462 10465 10472 9032 10473 10303 10474 10475 
1207 1208 1433 1432 1232 1233 1458 1457 8866 10306 10307 10299 9037 10477 10478 10470 9028 9035 10476 10469 10472 10479 9039 10480 10310 10481 10482 
1208 1209 1434 1433 1233 1234 1459 1458 8873 10313 10314 10306 9044 10484 10485 10477 9035 9042 10483 10476 10479 10486 9046 10487 10317 10488 10489 
1209 1210 1435 1434 1234 1235 1460 1459 8880 10320 10321 10313 9051 10491 10492 10484 9042 9049 10490 10483 10486 10493 9053 10494 10324 10495 10496 
1210 1211 1436 1435 1235 1236 1461 1460 8887 10327 10328 10320 9058 10498 10499 10491 9049 9056 10497 10490 10493 10500 9060 10501 10331 10502 10503 
1211 1212 1437 1436 1236 1237 1462 1461 8894 10334 10335 10327 9065 10505 10506 10498 9056 9063 10504 10497 10500 10507 9067 10508 10338 10509 10510 
1212 1213 1438 1437 1237 1238 1463 1462 8901 10341 10342 10334 9072 10512 10513 10505 9063 9070 10511 10504 10507 10514 9074 10515 10345 10516 10517 
1213 1214 1439 1438 1238 1239 1464 1463 8908 10348 10349 10341 9079 10519 10520 10512 9070 9077 10518 10511 10514 10521 9081 10522 10352 10523 10524 
1214 1215 1440 1439 1239 1240 1465 1464 8915 10355 10356 10348 9086 10526 10527 10519 9077 9084 10525 10518 10521 10528 9088 10529 10359 10530 10531 
1215 1216 1441 1440 1240 1241 1466 1465 8922 10362 10363 10355 9093 10533 10534 10526 9084 9091 10532 10525 10528 10535 9095 10536 10366 10537 10538 
1216 1217 1442 1441 1241 1242 1467 1466 8929 10369 10370 10362 9100 10540 10541 10533 9091 9098 10539 10532 10535 10542 9102 10543 10373 10544 10545 
1217 1218 1443 1442 1242 1243 1468 1467 8936 10376 10377 10369 9107 10547 10548 10540 9098 9105 10546 10539 10542 10549 9109 10550 10380 10551 10552 
1218 1219 1444 1443 1243 1244 1469 1468 8943 10383 10384 10376 9114 10554 10555 10547 9105 9112 10553 10546 10549 10556 9116 10557 10387 10558 10559 
1219 1220 1445 1444 1244 1245 1470 1469 8950 10390 10391 10383 9121 10561 10562 10554 9112 9119 10560 10553 10556 10563 9123 10564 10394 10565 10566 
1220 1221 1446 1445 1245 1246 1471 1470 8957 10397 10398 10390 9128 10568 10569 10561 9119 9126 10567 10560 10563 10570 9130 10571 10401 10572 10573 
1221 1222 1447 1446 1246 1247 1472 1471 8964 10404 10405 10397 9135 10575 10576 10568 9126 9133 10574 10567 10570 10577 9137 10578 10408 10579 10580 
1222 1223 1448 1447 1247 1248 1473 1472 8971 10411 10412 10404 9142 10582 10583 10575 9133 9140 10581 10574 10577 10584 9144 10585 10415 10586 10587 
1223 1224 1449 1448 1248 1249 1474 1473 8978 10418 10419 10411 9149 10589 10590 10582 9140 9147 10588 10581 10584 10591 9151 10592 10422 10593 10594 
1225 1226 1451 1450 1250 1251 1476 1475 8986 10426 10427 10428 9157 10597 10598 10599 9155 9154 10595 10596 10602 10600 9160 10601 10432 10603 10604 
1226 1227 1452 1451 1251 1252 1477 1476 8995 10435 10436 10426 9166 10606 10607 10597 9154 9164 10605 10595 10600 10608 9168 10609 10439 10610 10611 
1227 1228 1453 1452 1252 1253 1478 1477 9002 10442 10443 10435 9173 10613 10614 10606 9164 9171 10612 10605 10608 10615 9175 10616 10446 10617 10618 
1228 1229 1454 1453 1253 1254 1479 1478 9009 10449 10450 10442 9180 10620 10621 10613 9171 9178 10619 10612 10615 10622 9182 10623 10453 10624 10625 
1229 1230 1455 1454 1254 1255 1480 1479 9016 10456 10457 10449 9187 10627 10628 10620 9178 9185 10626 10619 10622 10629 9189 10630 10460 10631 10632 
1230 1231 1456 1455 1255 1256 1481 1480 9023 10463 10464 10456 9194 10634 10635 10627 9185 9192 10633 10626 10629 10636 9196 10637 10467 10638 10639 
1231 1232 1457 1456 1256 1257 1482 1481 9030 10470 10471 10463 9201 10641 10642 10634 9192 9199 10640 10633 10636 10643 9203 10644 10474 10645 10646 
1232 1233 1458 1457 1257 1258 1483 1482 9037 10477 10478 10470 9208 10648 10649 10641 9199 9206 10647 10640 10643 10650 9210 10651 10481 10652 10653 
1233 1234 1459 1458 1258 1259 1484 1483 9044 10484 10485 10477 9215 10655 10656 10648 9206 9213 10654 10647 10650 10657 9217 10658 10488 10659 10660 
1234 1235 1460 1459 1259 1260 1485 1484 9051 10491 10492 10484 9222 10662 10663 10655 9213 9220 10661 10654 10657 10664 9224 10665 10495 10666 10667 
1235 1236 1461 1460 1260 1261 1486 1485 9058 10498 10499 10491 9229 10669 10670 10662 9220 9227 10668 10661 10664 10671 9231 10672 10502 10673 10674 
1236 1237 1462 1461 1261 1262 1487 1486 9065 10505 10506 10498 9236 10676 10677 10669 9227 9234 10675 10668 10671 10678 9238 10679 10509 10680 10681 
1237 1238 1463 1462 1262 1263 1488 1487 9072 10512 10513 10505 9243 10683 10684 10676 9234 9241 10682 10675 10678 10685 9245 10686 10516 10687 10688 
1238 1239 1464 1463 1263 1264 1489 1488 9079 10519 10520 10512 9250 10690 10691 10683 9241 9248 10689 10682 10685 10692 9252 10693 10523 10694 10695 
1239 1240 1465 1464 1264 1265 1490 1489 9086 10526 10527 10519 9257 10697 10698 10690 9248 9255 10696 10689 10692 10699 9259 10700 10530 10701 10702 
1240 1241 1466 1465 1265 1266 1491 1490 9093 10533 10534 10526 9264 10704 10705 10697 9255 9262 10703 10696 10699 10706 9266 10707 10537 10708 10709 
1241 1242 1467 1466 1266 1267 1492 1491 9100 10540 10541 10533 9271 10711 10712 10704 9262 9269 10710 10703 10706 10713 9273 10714 10544 10715 10716 
1242 1243 1468 1467 1267 1268 1493 1492 9107 10547 10548 10540 9278 10718 10719 10711 9269 9276 10717 10710 10713 10720 9280 10721 10551 10722 10723 
1243 1244 1469 1468 1268 1269 1494 1493 9114 10554 10555 10547 9285 10725 10726 10718 9276 9283 10724 10717 10720 10727 9287 10728 10558 10729 10730 
1244 1245 1470 1469 1269 1270 1495 1494 9121 10561 10562 10554 9292 10732 10733 10725 9283 9290 10731 10724 10727 10734 9294 10735 10565 10736 10737 
1245 1246 1471 1470 1270 1271 1496 1495 9128 10568 10569 10561 9299 10739 10740 10732 9290 9297 10738 10731 10734 10741 9301 10742 10572 10743 10744 
1246 1247 1472 1471 1271 1272 1497 1496 9135 10575 10576 10568 9306 10746 10747 10739 9297 9304 10745 10738 10741 10748 9308 10749 10579 10750 10751 
1247 1248 1473 1472 1272 1273 1498 1497 9142 10582 10583 10575 9313 10753 10754 10746 9304 9311 10752 10745 10748 10755 9315 10756 10586 10757 10758 
1248 1249 1474 1473 1273 1274 1499 1498 9149 10589 10590 10582 9320 10760 10761 10753 9311 9318 10759 10752 10755 10762 9322 10763 10593 10764 10765 
1250 1251 1476 1475 1275 1276 1501 1500 9157 10597 10598 10599 9328 10768 10769 10770 9326 9325 10766 10767 10773 10771 9331 10772 10603 10774 10775 
1251 1252 1477 1476 1276 1277 1502 1501 9166 10606 10607 10597 9337 10777 10778 10768 9325 9335 10776 10766 10771 10779 9339 10780 10610 10781 10782 
1252 1253 1478 1477 1277 1278 1503 1502 9173 10613 10614 10606 9344 10784 10785 10777 9335 9342 10783 10776 10779 10786 9346 10787 10617 10788 10789 
1253 1254 1479 1478 1278 1279 1504 1503 9180 10620 10621 10613 9351 10791 10792 10784 9342 9349 10790 10783 10786 10793 9353 10794 10624 10795 10796 
1254 1255 1480 1479 1279 1280 1505 1504 9187 10627 10628 10620 9358 10798 10799 10791 9349 9356 10797 10790 10793 10800 9360 10801 10631 10802 10803 
1255 1256 1481 1480 1280 1281 1506 1505 9194 10634 10635 10627 9365 10805 10806 10798 9356 9363 10804 10797 10800 10807 9367 10808 10638 10809 10810 
1256 1257 1482 1481 1281 1282 1507 1506 9201 10641 10642 10634 9372 10812 10813 10805 9363 9370 10811 10804 10807 10814 9374 10815 10645 10816 10817 
1257 1258 1483 1482 1282 1283 1508 1507 9208 10648 10649 10641 9379 10819 10820 10812 9370 9377 10818 10811 10814 10821 9381 10822 10652 10823 10824 
1258 1259 1484 1483 1283 1284 1509 1508 9215 10655 10656 10648 9386 10826 10827 10819 9377 9384 10825 10818 10821 10828 9388 10829 10659 10830 10831 
1259 1260 1485 1484 1284 1285 1510 1509 9222 10662 10663 10655 9393 10833 10834 10826 9384 9391 10832 10825 10828 10835 9395 10836 10666 10837 10838 
1260 1261 1486 1485 1285 1286 1511 1510 9229 10669 10670 10662 9400 10840 10841 10833 9391 9398 10839 10832 10835 10842 9402 10843 10673 10844 10845 
1261 1262 1487 1486 1286 1287 1512 1511 9236 10676 10677 10669 9407 10847 10848 10840 9398 9405 10846 10839 10842 10849 9409 10850 10680 10851 10852 
1262 1263 1488 1487 1287 1288 1513 1512 9243 10683 10684 10676 9414 10854 10855 10847 9405 9412 10853 10846 10849 10856 9416 10857 10687 10858 10859 
1263 1264 1489 1488 1288 1289 1514 1513 9250 10690 10691 10683 9421 10861 10862 10854 9412 9419 10860 10853 10856 10863 9423 10864 10694 10865 10866 
1264 1265 1490 1489 1289 1290 1515 1514 9257 10697 10698 10690 9428 10868 10869 10861 9419 9426 10867 10860 10863 10870 9430 10871 10701 10872 10873 
1265 1266 1491 1490 1290 1291 1516 1515 9264 10704 10705 10697 9435 10875 10876 10868 9426 9433 10874 10867 10870 10877 9437 10878 10708 10879 10880 
1266 1267 1492 1491 1291 1292 1517 1516 9271 10711 10712 10704 9442 10882 10883 10875 9433 9440 10881 10874 10877 10884 9444 10885 10715 10886 10887 
1267 1268 1493 1492 1292 1293 1518 1517 9278 10718 10719 10711 9449 10889 10890 10882 9440 9447 10888 10881 10884 10891 9451 10892 10722 10893 10894 
1268 1269 1494 1493 1293 1294 1519 1518 9285 10725 10726 10718 9456 10896 10897 10889 9447 9454 10895 10888 10891 10898 9458 10899 10729 10900 10901 
1269 1270 1495 1494 1294 1295 1520 1519 9292 10732 10733 10725 9463 10903 10904 10896 9454 9461 10902 10895 10898 10905 9465 10906 10736 10907 10908 
1270 1271 1496 1495 1295 1296 1521 1520 9299 10739 10740 10732 9470 10910 10911 10903 9461 9468 10909 10902 10905 10912 9472 10913 10743 10914 10915 
1271 1272 1497 1496 1296 1297 1522 1521 9306 10746 10747 10739 9477 10917 10918 10910 9468 9475 10916 10909 10912 10919 9479 10920 10750 10921 10922 
1272 1273 1498 1497 1297 1298 1523 1522 9313 10753 10754 10746 9484 10924 10925 10917 9475 9482 10923 10916 10919 10926 9486 10927 10757 10928 10929 
1273 1274 1499 1498 1298 1299 1524 1523 9320 10760 10761 10753 9491 10931 10932 10924 9482 9489 10930 10923 10926 10933 9493 10934 10764 10935 10936 
1275 1276 1501 1500 1300 1301 1526 1525 9328 10768 10769 10770 9499 10939 10940 10941 9497 9496 10937 10938 10944 10942 9502 10943 10774 10945 10946 
1276 1277 1502 1501 1301 1302 1527 1526 9337 10777 10778 10768 9508 10948 10949 10939 9496 9506 10947 10937 10942 10950 9510 10951 10781 10952 10953 
1277 1278 1503 1502 1302 1303 1528 1527 9344 10784 10785 10777 9515 10955 10956 10948 9506 9513 10954 10947 10950 10957 9517 10958 10788 10959 10960 
1278 1279 1504 1503 1303 1304 1529 1528 9351 10791 10792 10784 9522 10962 10963 10955 9513 9520 10961 10954 10957 10964 9524 10965 10795 10966 10967 
1279 1280 1505 1504 1304 1305 1530 1529 9358 10798 10799 10791 9529 10969 10970 10962 9520 9527 10968 10961 10964 10971 9531 10972 10802 10973 10974 
1280 1281 1506 1505 1305 1306 1531 1530 9365 10805 10806 10798 9536 10976 10977 10969 9527 9534 10975 10968 10971 10978 9538 10979 10809 10980 10981 
1281 1282 1507 1506 1306 1307 1532 1531 9372 10812 10813 10805 9543 10983 10984 10976 9534 9541 10982 10975 10978 10985 9545 10986 10816 10987 10988 
1282 1283 1508 1507 1307 1308 1533 1532 9379 10819 10820 10812 9550 10990 10991 10983 9541 9548 10989 10982 10985 10992 9552 10993 10823 10994 10995 
1283 1284 1509 1508 1308 1309 1534 1533 9386 10826 10827 10819 9557 10997 10998 10990 9548 9555 10996 10989 10992 10999 9559 11000 10830 11001 11002 
1284 1285 1510 1509 1309 1310 1535 1534 9393 10833 10834 10826 9564 11004 11005 10997 9555 9562 11003 10996 10999 11006 9566 11007 10837 11008 11009 
1285 1286 1511 1510 1310 1311 1536 1535 9400 10840 10841 10833 9571 11011 11012 11004 9562 9569 11010 11003 11006 11013 9573 11014 10844 11015 11016 
1286 1287 1512 1511 1311 1312 1537 1536 9407 10847 10848 10840 9578 11018 11019 11011 9569 9576 11017 11010 11013 11020 9580 11021 10851 11022 11023 
1287 1288 1513 1512 1312 1313 1538 1537 9414 10854 10855 10847 9585 11025 11026 11018 9576 9583 11024 11017 11020 11027 9587 11028 10858 11029 11030 
1288 1289 1514 1513 1313 1314 1539 1538 9421 10861 10862 10854 9592 11032 11033 11025 9583 9590 11031 11024 11027 11034 9594 11035 10865 11036 11037 
1289 1290 1515 1514 1314 1315 1540 1539 9428 10868 10869 10861 9599 11039 11040 11032 9590 9597 11038 11031 11034 11041 9601 11042 10872 11043 11044 
1290 1291 1516 1515 1315 1316 1541 1540 9435 10875 10876 10868 9606 11046 11047 11039 9597 9604 11045 11038 11041 11048 9608 11049 10879 11050 11051 
1291 1292 1517 1516 1316 1317 1542 1541 9442 10882 10883 10875 9613 11053 11054 11046 9604 9611 11052 11045 11048 11055 9615 11056 10886 11057 11058 
1292 1293 1518 1517 1317 1318 1543 1542 9449 10889 10890 10882 9620 11060 11061 11053 9611 9618 11059 11052 11055 11062 9622 11063 10893 11064 11065 
1293 1294 1519 1518 1318 1319 1544 1543 9456 10896 10897 10889 9627 11067 11068 11060 9618 9625 11066 11059 11062 11069 9629 11070 10900 11071 11072 
1294 1295 1520 1519 1319 1320 1545 1544 9463 10903 10904 10896 9634 11074 11075 11067 9625 9632 11073 11066 11069 11076 9636 11077 10907 11078 11079 
1295 1296 1521 1520 1320 1321 1546 1545 9470 10910 10911 10903 9641 11081 11082 11074 9632 9639 11080 11073 11076 11083 9643 11084 10914 11085 11086 
1296 1297 1522 1521 1321 1322 1547 1546 9477 10917 10918 10910 9648 11088 11089 11081 9639 9646 11087 11080 11083 11090 9650 11091 10921 11092 11093 
1297 1298 1523 1522 1322 1323 1548 1547 9484 10924 10925 10917 9655 11095 11096 11088 9646 9653 11094 11087 11090 11097 9657 11098 10928 11099 11100 
1298 1299 1524 1523 1323 1324 1549 1548 9491 10931 10932 10924 9662 11102 11103 11095 9653 9660 11101 11094 11097 11104 9664 11105 10935 11106 11107 
1300 1301 1526 1525 1325 1326 1551 1550 9499 10939 10940 10941 9670 11110 11111 11112 9668 9667 11108 11109 11115 11113 9673 11114 10945 11116 11117 
1301 1302 1527 1526 1326 1327 1552 1551 9508 10948 10949 10939 9679 11119 11120 11110 9667 9677 11118 11108 11113 11121 9681 11122 10952 11123 11124 
1302 1303 1528 1527 1327 1328 1553 1552 9515 10955 10956 10948 9686 11126 11127 11119 9677 9684 11125 11118 11121 11128 9688 11129 10959 11130 11131 
1303 1304 1529 1528 1328 1329 1554 1553 9522 10962 10963 10955 9693 11133 11134 11126 9684 9691 11132 11125 11128 11135 9695 11136 10966 11137 11138 
1304 1305 1530 1529 1329 1330 1555 1554 9529 10969 10970 10962 9700 11140 11141 11133 9691 9698 11139 11132 11135 11142 9702 11143 10973 11144 11145 
1305 1306 1531 1530 1330 1331 1556 1555 9536 10976 10977 10969 9707 11147 11148 11140 9698 9705 11146 11139 11142 11149 9709 11150 10980 11151 11152 
1306 1307 1532 1531 1331 1332 1557 1556 9543 10983 10984 10976 9714 11154 11155 11147 9705 9712 11153 11146 11149 11156 9716 11157 10987 11158 11159 
1307 1308 1533 1532 1332 1333 1558 1557 9550 10990 10991 10983 9721 11161 11162 11154 9712 9719 11160 11153 11156 11163 9723 11164 10994 11165 11166 
1308 1309 1534 1533 1333 1334 1559 1558 9557 10997 10998 10990 9728 11168 11169 11161 9719 9726 11167 11160 11163 11170 9730 11171 11001 11172 11173 
1309 1310 1535 1534 1334 1335 1560 1559 9564 11004 11005 10997 9735 11175 11176 11168 9726 9733 11174 11167 11170 11177 9737 11178 11008 11179 11180 
1310 1311 1536 1535 1335 1336 1561 1560 9571 11011 11012 11004 9742 11182 11183 11175 9733 9740 11181 11174 11177 11184 9744 11185 11015 11186 11187 
1311 1312 1537 1536 1336 1337 1562 1561 9578 11018 11019 11011 9749 11189 11190 11182 9740 9747 11188 11181 11184 11191 9751 11192 11022 11193 11194 
1312 1313 1538 1537 1337 1338 1563 1562 9585 11025 11026 11018 9756 11196 11197 11189 9747 9754 11195 11188 11191 11198 9758 11199 11029 11200 11201 
1313 1314 1539 1538 1338 1339 1564 1563 9592 11032 11033 11025 9763 11203 11204 11196 9754 9761 11202 11195 11198 11205 9765 11206 11036 11207 11208 
1314 1315 1540 1539 1339 1340 1565 1564 9599 11039 11040 11032 9770 11210 11211 11203 9761 9768 11209 11202 11205 11212 9772 11213 11043 11214 11215 
1315 1316 1541 1540 1340 1341 1566 1565 9606 11046 11047 11039 9777 11217 11218 11210 9768 9775 11216 11209 11212 11219 9779 11220 11050 11221 11222 
1316 1317 1542 1541 1341 1342 1567 1566 9613 11053 11054 11046 9784 11224 11225 11217 9775 9782 11223 11216 11219 11226 9786 11227 11057 11228 11229 
1317 1318 1543 1542 1342 1343 1568 1567 9620 11060 11061 11053 9791 11231 11232 11224 9782 9789 11230 11223 11226 11233 9793 11234 11064 11235 11236 
1318 1319 1544 1543 1343 1344 1569 1568 9627 11067 11068 11060 9798 11238 11239 11231 9789 9796 11237 11230 11233 11240 9800 11241 11071 11242 11243 
1319 1320 1545 1544 1344 1345 1570 1569 9634 11074 11075 11067 9805 11245 11246 11238 9796 9803 11244 11237 11240 11247 9807 11248 11078 11249 11250 
1320 1321 1546 1545 1345 1346 1571 1570 9641 11081 11082 11074 9812 11252 11253 11245 9803 9810 11251 11244 11247 11254 9814 11255 11085 11256 11257 
1321 1322 1547 1546 1346 1347 1572 1571 9648 11088 11089 11081 9819 11259 11260 11252 9810 9817 11258 11251 11254 11261 9821 11262 11092 11263 11264 
1322 1323 1548 1547 1347 1348 1573 1572 9655 11095 11096 11088 9826 11266 11267 11259 9817 9824 11265 11258 11261 11268 9828 11269 11099 11270 11271 
1323 1324 1549 1548 1348 1349 1574 1573 9662 11102 11103 11095 9833 11273 11274 11266 9824 9831 11272 11265 11268 11275 9835 11276 11106 11277 11278 
1350 1351 1576 1575 1375 1376 1601 1600 9839 11279 11280 11281 9844 11284 11285 11286 9842 9841 11282 11283 11290 11288 9848 11289 11287 11291 11292 
1351 1352 1577 1576 1376 1377 1602 1601 9853 11293 11294 11279 9856 11296 11297 11284 9841 9854 11295 11282 11288 11299 9859 11300 11298 11301 11302 
1352 1353 1578 1577 1377 1378 1603 1602 9863 11303 11304 11293 9866 11306 11307 11296 9854 9864 11305 11295 11299 11309 9869 11310 11308 11311 11312 
1353 1354 1579 1578 1378 1379 1604 1603 9873 11313 11314 11303 9876 11316 11317 11306 9864 9874 11315 11305 11309 11319 9879 11320 11318 11321 11322 
1354 1355 1580 1579 1379 1380 1605 1604 9883 11323 11324 11313 9886 11326 11327 11316 9874 9884 11325 11315 11319 11329 9889 11330 11328 11331 11332 
1355 1356 1581 1580 1380 1381 1606 1605 9893 11333 11334 11323 9896 11336 11337 11326 9884 9894 11335 11325 11329 11339 9899 11340 11338 11341 11342 
1356 1357 1582 1581 1381 1382 1607 1606 9903 11343 11344 11333 9906 11346 11347 11336 9894 9904 11345 11335 11339 11349 9909 11350 11348 11351 11352 
1357 1358 1583 1582 1382 1383 1608 1607 9913 11353 11354 11343 9916 11356 11357 11346 9904 9914 11355 11345 11349 11359 9919 11360 11358 11361 11362 
1358 1359 1584 1583 1383 1384 1609 1608 9923 11363 11364 11353 9926 11366 11367 11356 9914 9924 11365 11355 11359 11369 9929 11370 11368 11371 11372 
1359 1360 1585 1584 1384 1385 1610 1609 9933 11373 11374 11363 9936 11376 11377 11366 9924 9934 11375 11365 11369 11379 9939 11380 11378 11381 11382 
1360 1361 1586 1585 1385 1386 1611 1610 9943 11383 11384 11373 9946 11386 11387 11376 9934 9944 11385 11375 11379 11389 9949 11390 11388 11391 11392 
1361 1362 1587 1586 1386 1387 1612 1611 9953 11393 11394 11383 9956 11396 11397 11386 9944 9954 11395 11385 11389 11399 9959 11400 11398 11401 11402 
1362 1363 1588 1587 1387 1388 1613 1612 9963 11403 11404 11393 9966 11406 11407 11396 9954 9964 11405 11395 11399 11409 9969 11410 11408 11411 11412 
1363 1364 1589 1588 1388 1389 1614 1613 9973 11413 11414 11403 9976 11416 11417 11406 9964 9974 11415 11405 11409 11419 9979 11420 11418 11421 11422 
1364 1365 1590 1589 1389 1390 1615 1614 9983 11423 11424 11413 9986 11426 11427 11416 9974 9984 11425 11415 11419 11429 9989 11430 11428 11431 11432 
1365 1366 1591 1590 1390 1391 1616 1615 9993 11433 11434 11423 9996 11436 11437 11426 9984 9994 11435 11425 11429 11439 9999 11440 11438 11441 11442 
1366 1367 1592 1591 1391 1392 1617 1616 10003 11443 11444 11433 10006 11446 11447 11436 9994 10004 11445 11435 11439 11449 10009 11450 11448 11451 11452 
1367 1368 1593 1592 1392 1393 1618 1617 10013 11453 11454 11443 10016 11456 11457 11446 10004 10014 11455 11445 11449 11459 10019 11460 11458 11461 11462 
1368 1369 1594 1593 1393 1394 1619 1618 10023 11463 11464 11453 10026 11466 11467 11456 10014 10024 11465 11455 11459 11469 10029 11470 11468 11471 11472 
1369 1370 1595 1594 1394 1395 1620 1619 10033 11473 11474 11463 10036 11476 11477 11466 10024 10034 11475 11465 11469 11479 10039 11480 11478 11481 11482 
1370 1371 1596 1595 1395 1396 1621 1620 10043 11483 11484 11473 10046 11486 11487 11476 10034 10044 11485 11475 11479 11489 10049 11490 11488 11491 11492 
1371 1372 1597 1596 1396 1397 1622 1621 10053 11493 11494 11483 10056 11496 11497 11486 10044 10054 11495 11485 11489 11499 10059 11500 11498 11501 11502 
1372 1373 1598 1597 1397 1398 1623 1622 10063 11503 11504 11493 10066 11506 11507 11496 10054 10064 11505 11495 11499 11509 10069 11510 11508 11511 11512 
1373 1374 1599 1598 1398 1399 1624 1623 10073 11513 11514 11503 10076 11516 11517 11506 10064 10074 11515 11505 11509 11519 10079 11520 11518 11521 11522 
1375 1376 1601 1600 1400 1401 1626 1625 9844 11284 11285 11286 10085 11525 11526 11527 10083 10082 11523 11524 11530 11528 10088 11529 11291 11531 11532 
1376 1377 1602 1601 1401 1402 1627 1626 9856 11296 11297 11284 10094 11534 11535 11525 10082 10092 11533 11523 11528 11536 10096 11537 11301 11538 11539 
1377 1378 1603 1602 1402 1403 1628 1627 9866 11306 11307 11296 10101 11541 11542 11534 10092 10099 11540 11533 11536 11543 10103 11544 11311 11545 11546 
1378 1379 1604 1603 1403 1404 1629 1628 9876 11316 11317 11306 10108 11548 11549 11541 10099 10106 11547 11540 11543 11550 10110 11551 11321 11552 11553 
1379 1380 1605 1604 1404 1405 1630 1629 9886 11326 11327 11316 10115 11555 11556 11548 10106 10113 11554 11547 11550 11557 10117 11558 11331 11559 11560 
1380 1381 1606 1605 1405 1406 1631 1630 9896 11336 11337 11326 10122 11562 11563 11555 10113 10120 11561 11554 11557 11564 10124 11565 11341 11566 11567 
1381 1382 1607 1606 1406 1407 1632 1631 9906 11346 11347 11336 10129 11569 11570 11562 10120 10127 11568 11561 11564 11571 10131 11572 11351 11573 11574 
1382 1383 1608 1607 1407 1408 1633 1632 9916 11356 11357 11346 10136 11576 11577 11569 10127 10134 11575 11568 11571 11578 10138 11579 11361 11580 11581 
1383 1384 1609 1608 1408 1409 1634 1633 9926 11366 11367 11356 10143 11583 11584 11576 10134 10141 11582 11575 11578 11585 10145 11586 11371 11587 11588 
1384 1385 1610 1609 1409 1410 1635 1634 9936 11376 11377 11366 10150 11590 11591 11583 10141 10148 11589 11582 11585 11592 10152 11593 11381 11594 11595 
1385 1386 1611 1610 1410 1411 1636 1635 9946 11386 11387 11376 10157 11597 11598 11590 10148 10155 11596 11589 11592 11599 10159 11600 11391 11601 11602 
1386 1387 1612 1611 1411 1412 1637 1636 9956 11396 11397 11386 10164 11604 11605 11597 10155 10162 11603 11596 11599 11606 10166 11607 11401 11608 11609 
1387 1388 1613 1612 1412 1413 1638 1637 9966 11406 11407 11396 10171 11611 11612 11604 10162 10169 11610 11603 11606 11613 10173 11614 11411 11615 11616 
1388 1389 1614 1613 1413 1414 1639 1638 9976 11416 11417 11406 10178 11618 11619 11611 10169 10176 11617 11610 11613 11620 10180 11621 11421 11622 11623 
1389 1390 1615 1614 1414 1415 1640 1639 9986 11426 11427 11416 10185 11625 11626 11618 10176 10183 11624 11617 11620 11627 10187 11628 11431 11629 11630 
1390 1391 1616 1615 1415 1416 1641 1640 9996 11436 11437 11426 10192 11632 11633 11625 10183 10190 11631 11624 11627 11634 10194 11635 11441 11636 11637 
1391 1392 1617 1616 1416 1417 1642 1641 10006 11446 11447 11436 10199 11639 11640 11632 10190 10197 11638 11631 11634 11641 10201 11642 11451 11643 11644 
1392 1393 1618 1617 1417 1418 1643 1642 10016 11456 11457 11446 10206 11646 11647 11639 10197 10204 11645 11638 11641 11648 10208 11649 11461 11650 11651 
1393 1394 1619 1618 1418 1419 1644 1643 10026 11466 11467 11456 10213 11653 11654 11646 10204 10211 11652 11645 11648 11655 10215 11656 11471 11657 11658 
1394 1395 1620 1619 1419 1420 1645 1644 10036 11476 11477 11466 10220 11660 11661 11653 10211 10218 11659 11652 11655 11662 10222 11663 11481 11664 11665 
1395 1396 1621 1620 1420 1421 1646 1645 10046 11486 11487 11476 10227 11667 11668 11660 10218 10225 11666 11659 11662 11669 10229 11670 11491 11671 11672 
1396 1397 1622 1621 1421 1422 1647 1646 10056 11496 11497 11486 10234 11674 11675 11667 10225 10232 11673 11666 11669 11676 10236 11677 11501 11678 11679 
1397 1398 1623 1622 1422 1423 1648 1647 10066 11506 11507 11496 10241 11681 11682 11674 10232 10239 11680 11673 11676 11683 10243 11684 11511 11685 11686 
1398 1399 1624 1623 1423 1424 1649 1648 10076 11516 11517 11506 10248 11688 11689 11681 10239 10246 11687 11680 11683 11690 10250 11691 11521 11692 11693 
1400 1401 1626 1625 1425 1426 1651 1650 10085 11525 11526 11527 10256 11696 11697 11698 10254 10253 11694 11695 11701 11699 10259 11700 11531 11702 11703 
1401 1402 1627 1626 1426 1427 1652 1651 10094 11534 11535 11525 10265 11705 11706 11696 10253 10263 11704 11694 11699 11707 10267 11708 11538 11709 11710 
1402 1403 1628 1627 1427 1428 1653 1652 10101 11541 11542 11534 10272 11712 11713 11705 10263 10270 11711 11704 11707 11714 10274 11715 11545 11716 11717 
1403 1404 1629 1628 1428 1429 1654 1653 10108 11548 11549 11541 10279 11719 11720 11712 10270 10277 11718 11711 11714 11721 10281 11722 11552 11723 11724 
1404 1405 1630 1629 1429 1430 1655 1654 10115 11555 11556 11548 10286 11726 11727 11719 10277 10284 11725 11718 11721 11728 10288 11729 11559 11730 11731 
1405 1406 1631 1630 1430 1431 1656 1655 10122 11562 11563 11555 10293 11733 11734 11726 10284 10291 11732 11725 11728 11735 10295 11736 11566 11737 11738 
1406 1407 1632 1631 1431 1432 1657 1656 10129 11569 11570 11562 10300 11740 11741 11733 10291 10298 11739 11732 11735 11742 10302 11743 11573 11744 11745 
1407 1408 1633 1632 1432 1433 1658 1657 10136 11576 11577 11569 10307 11747 11748 11740 10298 10305 11746 11739 11742 11749 10309 11750 11580 11751 11752 
1408 1409 1634 1633 1433 1434 1659 1658 10143 11583 11584 11576 10314 11754 11755 11747 10305 10312 11753 11746 11749 11756 10316 11757 11587 11758 11759 
1409 1410 1635 1634 1434 1435 1660 1659 10150 11590 11591 11583 10321 11761 11762 11754 10312 10319 11760 11753 11756 11763 10323 11764 11594 11765 11766 
1410 1411 1636 1635 1435 1436 1661 1660 10157 11597 11598 11590 10328 11768 11769 11761 10319 10326 11767 11760 11763 11770 10330 11771 11601 11772 11773 
1411 1412 1637 1636 1436 1437 1662 1661 10164 11604 11605 11597 10335 11775 11776 11768 10326 10333 11774 11767 11770 11777 10337 11778 11608 11779 11780 
1412 1413 1638 1637 1437 1438 1663 1662 10171 11611 11612 11604 10342 11782 11783 11775 10333 10340 11781 11774 11777 11784 10344 11785 11615 11786 11787 
1413 1414 1639 1638 1438 1439 1664 1663 10178 11618 11619 11611 10349 11789 11790 11782 10340 10347 11788 11781 11784 11791 10351 11792 11622 11793 11794 
1414 1415 1640 1639 1439 1440 1665 1664 10185 11625 11626 11618 10356 11796 11797 11789 10347 10354 11795 11788 11791 11798 10358 11799 11629 11800 11801 
1415 1416 1641 1640 1440 1441 1666 1665 10192 11632 11633 11625 10363 11803 11804 11796 10354 10361 11802 11795 11798 11805 10365 11806 11636 11807 11808 
1416 1417 1642 1641 1441 1442 1667 1666 10199 11639 11640 11632 10370 11810 11811 11803 10361 10368 11809 11802 11805 11812 10372 11813 11643 11814 11815 
1417 1418 1643 1642 1442 1443 1668 1667 10206 11646 11647 11639 10377 11817 11818 11810 10368 10375 11816 11809 11812 11819 10379 11820 11650 11821 11822 
1418 1419 1644 1643 1443 1444 1669 1668 10213 11653 11654 11646 10384 11824 11825 11817 10375 10382 11823 11816 11819 11826 10386 11827 11657 11828 11829 
1419 1420 1645 1644 1444 1445 1670 1669 10220 11660 11661 11653 10391 11831 11832 11824 10382 10389 11830 11823 11826 11833 10393 11834 11664 11835 11836 
1420 1421 1646 1645 1445 1446 1671 1670 10227 11667 11668 11660 10398 11838 11839 11831 10389 10396 11837 11830 11833 11840 10400 11841 11671 11842 11843 
1421 1422 1647 1646 1446 1447 1672 1671 10234 11674 11675 11667 10405 11845 11846 11838 10396 10403 11844 11837 11840 11847 10407 11848 11678 11849 11850 
1422 1423 1648 1647 1447 1448 1673 1672 10241 11681 11682 11674 10412 11852 11853 11845 10403 10410 11851 11844 11847 11854 10414 11855 11685 11856 11857 
1423 1424 1649 1648 1448 1449 1674 1673 10248 11688 11689 11681 10419 11859 11860 11852 10410 10417 11858 11851 11854 11861 10421 11862 11692 11863 11864 
1425 1426 1651 1650 1450 1451 1676 1675 10256 11696 11697 11698 10427 11867 11868 11869 10425 10424 11865 11866 11872 11870 10430 11871 11702 11873 11874 
1426 1427 1652 1651 1451 1452 1677 1676 10265 11705 11706 11696 10436 11876 11877 11867 10424 10434 11875 11865 11870 11878 10438 11879 11709 11880 11881 
1427 1428 1653 1652 1452 1453 1678 1677 10272 11712 11713 11705 10443 11883 11884 11876 10434 10441 11882 11875 11878 11885 10445 11886 11716 11887 11888 
1428 1429 1654 1653 1453 1454 1679 1678 10279 11719 11720 11712 10450 11890 11891 11883 10441 10448 11889 11882 11885 11892 10452 11893 11723 11894 11895 
1429 1430 1655 1654 1454 1455 1680 1679 10286 11726 11727 11719 10457 11897 11898 11890 10448 10455 11896 11889 11892 11899 10459 11900 11730 11901 11902 
1430 1431 1656 1655 1455 1456 1681 1680 10293 11733 11734 11726 10464 11904 11905 11897 10455 10462 11903 11896 11899 11906 10466 11907 11737 11908 11909 
1431 1432 1657 1656 1456 1457 1682 1681 10300 11740 11741 11733 10471 11911 11912 11904 10462 10469 11910 11903 11906 11913 10473 11914 11744 11915 11916 
1432 1433 1658 1657 1457 1458 1683 1682 10307 11747 11748 11740 10478 11918 11919 11911 10469 10476 11917 11910 11913 11920 10480 11921 11751 11922 11923 
1433 1434 1659 1658 1458 1459 1684 1683 10314 11754 11755 11747 10485 11925 11926 11918 10476 10483 11924 11917 11920 11927 10487 11928 11758 11929 11930 
1434 1435 1660 1659 1459 1460 1685 1684 10321 11761 11762 11754 10492 11932 11933 11925 10483 10490 11931 11924 11927 11934 10494 11935 11765 11936 11937 
1435 1436 1661 1660 1460 1461 1686 1685 10328 11768 11769 11761 10499 11939 11940 11932 10490 10497 11938 11931 11934 11941 10501 11942 11772 11943 11944 
1436 1437 1662 1661 1461 1462 1687 1686 10335 11775 11776 11768 10506 11946 11947 11939 10497 10504 11945 11938 11941 11948 10508 11949 11779 11950 11951 
1437 1438 1663 1662 1462 1463 1688 1687 10342 11782 11783 11775 10513 11953 11954 11946 10504 10511 11952 11945 11948 11955 10515 11956 11786 11957 11958 
1438 1439 1664 1663 1463 1464 1689 1688 10349 11789 11790 11782 10520 11960 11961 11953 10511 10518 11959 11952 11955 11962 10522 11963 11793 11964 11965 
1439 1440 1665 1664 1464 1465 1690 1689 10356 11796 11797 11789 10527 11967 11968 11960 10518 10525 11966 11959 11962 11969 10529 11970 11800 11971 11972 
1440 1441 1666 1665 1465 1466 1691 1690 10363 11803 11804 11796 10534 11974 11975 11967 10525 10532 11973 11966 11969 11976 10536 11977 11807 11978 11979 
1441 1442 1667 1666 1466 1467 1692 1691 10370 11810 11811 11803 10541 11981 11982 11974 10532 10539 11980 11973 11976 11983 10543 11984 11814 11985 11986 
1442 1443 1668 1667 1467 1468 1693 1692 10377 11817 11818 11810 10548 11988 11989 11981 10539 10546 11987 11980 11983 11990 10550 11991 11821 11992 11993 
1443 1444 1669 1668 1468 1469 1694 1693 10384 11824 11825 11817 10555 11995 11996 11988 10546 10553 11994 11987 11990 11997 10557 11998 11828 11999 12000 
1444 1445 1670 1669 1469 1470 1695 1694 10391 11831 11832 11824 10562 12002 12003 11995 10553 10560 12001 11994 11997 12004 10564 12005 11835 12006 12007 
1445 1446 1671 1670 1470 1471 1696 1695 10398 11838 11839 11831 10569 12009 12010 12002 10560 10567 12008 12001 12004 12011 10571 12012 11842 12013 12014 
1446 1447 1672 1671 1471 1472 1697 1696 10405 11845 11846 11838 10576 12016 12017 12009 10567 10574 12015 12008 12011 12018 10578 12019 11849 12020 12021 
1447 1448 1673 1672 1472 1473 1698 1697 10412 11852 11853 11845 10583 12023 12024 12016 10574 10581 12022 12015 12018 12025 10585 12026 11856 12027 12028 
1448 1449 1674 1673 1473 1474 1699 1698 10419 11859 11860 11852 10590 12030 12031 12023 10581 10588 12029 12022 12025 12032 10592 12033 11863 12034 12035 
1450 1451 1676 1675 1475 1476 1701 1700 10427 11867 11868 11869 10598 12038 12039 12040 10596 10595 12036 12037 12043 12041 10601 12042 11873 12044 12045 
1451 1452 1677 1676 1476 1477 1702 1701 10436 11876 11877 11867 10607 12047 12048 12038 10595 10605 12046 12036 12041 12049 10609 12050 11880 12051 12052 
1452 1453 1678 1677 1477 1478 1703 1702 10443 11883 11884 11876 10614 12054 12055 12047 10605 10612 12053 12046 12049 12056 10616 12057 11887 12058 12059 
1453 1454 1679 1678 1478 1479 1704 1703 10450 11890 11891 11883 10621 12061 12062 12054 10612 10619 12060 12053 12056 12063 10623 12064 11894 12065 12066 
1454 1455 1680 1679 1479 1480 1705 1704 10457 11897 11898 11890 10628 12068 12069 12061 10619 10626 12067 12060 12063 12070 10630 12071 11901 12072 12073 
1455 1456 1681 1680 1480 1481 1706 1705 10464 11904 11905 11897 10635 12075 12076 12068 10626 10633 12074 12067 12070 12077 10637 12078 11908 12079 12080 
1456 1457 1682 1681 1481 1482 1707 1706 10471 11911 11912 11904 10642 12082 12083 12075 10633 10640 12081 12074 12077 12084 10644 12085 11915 12086 12087 
1457 1458 1683 1682 1482 1483 1708 1707 10478 11918 11919 11911 10649 12089 12090 12082 10640 10647 12088 12081 12084 12091 10651 12092 11922 12093 12094 
1458 1459 1684 1683 1483 1484 1709 1708 10485 11925 11926 11918 10656 12096 12097 12089 10647 10654 12095 12088 12091 12098 10658 12099 11929 12100 12101 
1459 1460 1685 1684 1484 1485 1710 1709 10492 11932 11933 11925 10663 12103 12104 12096 10654 10661 12102 12095 12098 12105 10665 12106 11936 12107 12108 
1460 1461 1686 1685 1485 1486 1711 1710 10499 11939 11940 11932 10670 12110 12111 12103 10661 10668 12109 12102 12105 12112 10672 12113 11943 12114 12115 
1461 1462 1687 1686 1486 1487 1712 1711 10506 11946 11947 11939 10677 12117 12118 12110 10668 10675 12116 12109 12112 12119 10679 12120 11950 12121 12122 
1462 1463 1688 1687 1487 1488 1713 1712 10513 11953 11954 11946 10684 12124 12125 12117 10675 10682 12123 12116 12119 12126 10686 12127 11957 12128 12129 
1463 1464 1689 1688 1488 1489 1714 1713 10520 11960 11961 11953 10691 12131 12132 12124 10682 10689 12130 12123 12126 12133 10693 12134 11964 12135 12136 
1464 1465 1690 1689 1489 1490 1715 1714 10527 11967 11968 11960 10698 12138 12139 12131 10689 10696 12137 12130 12133 12140 10700 12141 11971 12142 12143 
1465 1466 1691 1690 1490 1491 1716 1715 10534 11974 11975 11967 10705 12145 12146 12138 10696 10703 12144 12137 12140 12147 10707 12148 11978 12149 12150 
1466 1467 1692 1691 1491 1492 1717 1716 10541 11981 11982 11974 10712 12152 12153 12145 10703 10710 12151 12144 12147 12154 10714 12155 11985 12156 12157 
1467 1468 1693 1692 1492 1493 1718 1717 10548 11988 11989 11981 10719 12159 12160 12152 10710 10717 12158 12151 12154 12161 10721 12162 11992 12163 12164 
1468 1469 1694 1693 1493 1494 1719 1718 10555 11995 11996 11988 10726 12166 12167 12159 10717 10724 12165 12158 12161 12168 10728 12169 11999 12170 12171 
1469 1470 1695 1694 1494 1495 1720 1719 10562 12002 12003 11995 10733 12173 12174 12166 10724 10731 12172 12165 12168 12175 10735 12176 12006 12177 12178 
1470 1471 1696 1695 1495 1496 1721 1720 10569 12009 12010 12002 10740 12180 12181 12173 10731 10738 12179 12172 12175 12182 10742 12183 12013 12184 12185 
1471 1472 1697 1696 1496 1497 1722 1721 10576 12016 12017 12009 10747 12187 12188 12180 10738 10745 12186 12179 12182 12189 10749 12190 12020 12191 12192 
1472 1473 1698 1697 1497 1498 1723 1722 10583 12023 12024 12016 10754 12194 12195 12187 10745 10752 12193 12186 12189 12196 10756 12197 12027 12198 12199 
1473 1474 1699 1698 1498 1499 1724 1723 10590 12030 12031 12023 10761 12201 12202 12194 10752 10759 12200 12193 12196 12203 10763 12204 12034 12205 12206 
1475 1476 1701 1700 1500 1501 1726 1725 10598 12038 12039 12040 10769 12209 12210 12211 10767 10766 12207 12208 12214 12212 10772 12213 12044 12215 12216 
1476 1477 1702 1701 1501 1502 1727 1726 10607 12047 12048 12038 10778 12218 12219 12209 10766 10776 12217 12207 12212 12220 10780 12221 12051 12222 12223 
1477 1478 1703 1702 1502 1503 1728 1727 10614 12054 12055 12047 10785 12225 12226 12218 10776 10783 12224 12217 12220 12227 10787 12228 12058 12229 12230 
1478 1479 1704 1703 1503 1504 1729 1728 10621 12061 12062 12054 10792 12232 12233 12225 10783 10790 12231 12224 12227 12234 10794 12235 12065 12236 12237 
1479 1480 1705 1704 1504 1505 1730 1729 10628 12068 12069 12061 10799 12239 12240 12232 10790 10797 12238 12231 12234 12241 10801 12242 12072 12243 12244 
1480 1481 1706 1705 1505 1506 1731 1730 10635 12075 12076 12068 10806 12246 12247 12239 10797 10804 12245 12238 12241 12248 10808 12249 12079 12250 12251 
1481 1482 1707 1706 1506 1507 1732 1731 10642 12082 12083 12075 10813 12253 12254 12246 10804 10811 12252 12245 12248 12255 10815 12256 12086 12257 12258 
1482 1483 1708 1707 1507 1508 1733 1732 10649 12089 12090 12082 10820 12260 12261 12253 10811 10818 12259 12252 12255 12262 10822 12263 12093 12264 12265 
1483 1484 1709 1708 1508 1509 1734 1733 10656 12096 12097 12089 10827 12267 12268 12260 10818 10825 12266 12259 12262 12269 10829 12270 12100 12271 12272 
1484 1485 1710 1709 1509 1510 1735 1734 10663 12103 12104 12096 10834 12274 12275 12267 10825 10832 12273 12266 12269 12276 10836 12277 12107 12278 12279 
1485 1486 1711 1710 1510 1511 1736 1735 10670 12110 12111 12103 10841 12281 12282 12274 10832 10839 12280 12273 12276 12283 10843 12284 12114 12285 12286 
1486 1487 1712 1711 1511 1512 1737 1736 10677 12117 12118 12110 10848 12288 12289 12281 10839 10846 12287 12280 12283 12290 10850 12291 12121 12292 12293 
1487 1488 1713 1712 1512 1513 1738 1737 10684 12124 12125 12117 10855 12295 12296 12288 10846 10853 12294 12287 12290 12297 10857 12298 12128 12299 12300 
1488 1489 1714 1713 1513 1514 1739 1738 10691 12131 12132 12124 10862 12302 12303 12295 10853 10860 12301 12294 12297 12304 10864 12305 12135 12306 12307 
1489 1490 1715 1714 1514 1515 1740 1739 10698 12138 12139 12131 10869 12309 12310 12302 10860 10867 12308 12301 12304 12311 10871 12312 12142 12313 12314 
1490 1491 1716 1715 1515 1516 1741 1740 10705 12145 12146 12138 10876 12316 12317 12309 10867 10874 12315 12308 12311 12318 10878 12319 12149 12320 12321 
1491 1492 1717 1716 1516 1517 1742 1741 10712 12152 12153 12145 10883 12323 12324 12316 10874 10881 12322 12315 12318 12325 10885 12326 12156 12327 12328 
1492 1493 1718 1717 1517 1518 1743 1742 10719 12159 12160 12152 10890 12330 12331 12323 10881 10888 12329 12322 12325 12332 10892 12333 12163 12334 12335 
1493 1494 1719 1718 1518 1519 1744 1743 10726 12166 12167 12159 10897 12337 12338 12330 10888 10895 12336 12329 12332 12339 10899 12340 12170 12341 12342 
1494 1495 1720 1719 1519 1520 1745 1744 10733 12173 12174 12166 10904 12344 12345 12337 10895 10902 12343 12336 12339 12346 10906 12347 12177 12348 12349 
1495 1496 1721 1720 1520 1521 1746 1745 10740 12180 12181 12173 10911 12351 12352 12344 10902 10909 12350 12343 12346 12353 10913 12354 12184 12355 12356 
1496 1497 1722 1721 1521 1522 1747 1746 10747 12187 12188 12180 10918 12358 12359 12351 10909 10916 12357 12350 12353 12360 10920 12361 12191 12362 12363 
1497 1498 1723 1722 1522 1523 1748 1747 10754 12194 12195 12187 10925 12365 12366 12358 10916 10923 12364 12357 12360 12367 10927 12368 12198 12369 12370 
1498 1499 1724 1723 1523 1524 1749 1748 10761 12201 12202 12194 10932 12372 12373 12365 10923 10930 12371 12364 12367 12374 10934 12375 12205 12376 12377 
1500 1501 1726 1725 1525 1526 1751 1750 10769 12209 12210 12211 10940 12380 12381 12382 10938 10937 12378 12379 12385 12383 10943 12384 12215 12386 12387 
1501 1502 1727 1726 1526 1527 1752 1751 10778 12218 12219 12209 10949 12389 12390 12380 10937 10947 12388 12378 12383 12391 10951 12392 12222 12393 12394 
1502 1503 1728 1727 1527 1528 1753 1752 10785 12225 12226 12218 10956 12396 12397 12389 10947 10954 12395 12388 12391 12398 10958 12399 12229 12400 12401 
1503 1504 1729 1728 1528 1529 1754 1753 10792 12232 12233 12225 10963 12403 12404 12396 10954 10961 12402 12395 12398 12405 10965 12406 12236 12407 12408 
1504 1505 1730 1729 1529 1530 1755 1754 10799 12239 12240 12232 10970 12410 12411 12403 10961 10968 12409 12402 12405 12412 10972 12413 12243 12414 12415 
1505 1506 1731 1730 1530 1531 1756 1755 10806 12246 12247 12239 10977 12417 12418 12410 10968 10975 12416 12409 12412 12419 10979 12420 12250 12421 12422 
1506 1507 1732 1731 1531 1532 1757 1756 10813 12253 12254 12246 10984 12424 12425 12417 10975 10982 12423 12416 12419 12426 10986 12427 12257 12428 12429 
1507 1508 1733 1732 1532 1533 1758 1757 10820 12260 12261 12253 10991 12431 12432 12424 10982 10989 12430 12423 12426 12433 10993 12434 12264 12435 12436 
1508 1509 1734 1733 1533 1534 1759 1758 10827 12267 12268 12260 10998 12438 12439 12431 10989 10996 12437 12430 12433 12440 11000 12441 12271 12442 12443 
1509 1510 1735 1734 1534 1535 1760 1759 10834 12274 12275 12267 11005 12445 12446 12438 10996 11003 12444 12437 12440 12447 11007 12448 12278 12449 12450 
1510 1511 1736 1735 1535 1536 1761 1760 10841 12281 12282 12274 11012 12452 12453 12445 11003 11010 12451 12444 12447 12454 11014 12455 12285 12456 12457 
1511 1512 1737 1736 1536 1537 1762 1761 10848 12288 12289 12281 11019 12459 12460 12452 11010 11017 12458 12451 12454 12461 11021 12462 12292 12463 12464 
1512 1513 1738 1737 1537 1538 1763 1762 10855 12295 12296 12288 11026 12466 12467 12459 11017 11024 12465 12458 12461 12468 11028 12469 12299 12470 12471 
1513 1514 1739 1738 1538 1539 1764 1763 10862 12302 12303 12295 11033 12473 12474 12466 11024 11031 12472 12465 12468 12475 11035 12476 12306 12477 12478 
1514 1515 1740 1739 1539 1540 1765 1764 10869 12309 12310 12302 11040 12480 12481 12473 11031 11038 12479 12472 12475 12482 11042 12483 12313 12484 12485 
1515 1516 1741 1740 1540 1541 1766 1765 10876 12316 12317 12309 11047 12487 12488 12480 11038 11045 12486 12479 12482 12489 11049 12490 12320 12491 12492 
1516 1517 1742 1741 1541 1542 1767 1766 10883 12323 12324 12316 11054 12494 12495 12487 11045 11052 12493 12486 12489 12496 11056 12497 12327 12498 12499 
1517 1518 1743 1742 1542 1543 1768 1767 10890 12330 12331 12323 11061 12501 12502 12494 11052 11059 12500 12493 12496 12503 11063 12504 12334 12505 12506 
1518 1519 1744 1743 1543 1544 1769 1768 10897 12337 12338 12330 11068 12508 12509 12501 11059 11066 12507 12500 12503 12510 11070 12511 12341 12512 12513 
1519 1520 1745 1744 1544 1545 1770 1769 10904 12344 12345 12337 11075 12515 12516 12508 11066 11073 12514 12507 12510 12517 11077 12518 12348 12519 12520 
1520 1521 1746 1745 1545 1546 1771 1770 10911 12351 12352 12344 11082 12522 12523 12515 11073 11080 12521 12514 12517 12524 11084 12525 12355 12526 12527 
1521 1522 1747 1746 1546 1547 1772 1771 10918 12358 12359 12351 11089 12529 12530 12522 11080 11087 12528 12521 12524 12531 11091 12532 12362 12533 12534 
1522 1523 1748 1747 1547 1548 1773 1772 10925 12365 12366 12358 11096 12536 12537 12529 11087 11094 12535 12528 12531 12538 11098 12539 12369 12540 12541 
1523 1524 1749 1748 1548 1549 1774 1773 10932 12372 12373 12365 11103 12543 12544 12536 11094 11101 12542 12535 12538 12545 11105 12546 12376 12547 12548 
1525 1526 1751 1750 1550 1551 1776 1775 10940 12380 12381 12382 11111 12551 12552 12553 11109 11108 12549 12550 12556 12554 11114 12555 12386 12557 12558 
1526 1527 1752 1751 1551 1552 1777 1776 10949 12389 12390 12380 11120 12560 12561 12551 11108 11118 12559 12549 12554 12562 11122 12563 12393 12564 12565 
1527 1528 1753 1752 1552 1553 1778 1777 10956 12396 12397 12389 11127 12567 12568 12560 11118 11125 12566 12559 12562 12569 11129 12570 12400 12571 12572 
1528 1529 1754 1753 1553 1554 1779 1778 10963 12403 12404 12396 11134 12574 12575 12567 11125 11132 12573 12566 12569 12576 11136 12577 12407 12578 12579 
1529 1530 1755 1754 1554 1555 1780 1779 10970 12410 12411 12403 11141 12581 12582 12574 11132 11139 12580 12573 12576 12583 11143 12584 12414 12585 12586 
1530 1531 1756 1755 1555 1556 1781 1780 10977 12417 12418 12410 11148 12588 12589 12581 11139 11146 12587 12580 12583 12590 11150 12591 12421 12592 12593 
1531 1532 1757 1756 1556 1557 1782 1781 10984 12424 12425 12417 11155 12595 12596 12588 11146 11153 12594 12587 12590 12597 11157 12598 12428 12599 12600 
1532 1533 1758 1757 1557 1558 1783 1782 10991 12431 12432 12424 11162 12602 12603 12595 11153 11160 12601 12594 12597 12604 11164 12605 12435 12606 12607 
1533 1534 1759 1758 1558 1559 1784 1783 10998 12438 12439 12431 11169 12609 12610 12602 11160 11167 12608 12601 12604 12611 11171 12612 12442 12613 12614 
1534 1535 1760 1759 1559 1560 1785 1784 11005 12445 12446 12438 11176 12616 12617 12609 11167 11174 12615 12608 12611 12618 11178 12619 12449 12620 12621 
1535 1536 1761 1760 1560 1561 1786 1785 11012 12452 12453 12445 11183 12623 12624 12616 11174 11181 12622 12615 12618 12625 11185 12626 12456 12627 12628 
1536 1537 1762 1761 1561 1562 1787 1786 11019 12459 12460 12452 11190 12630 12631 12623 11181 11188 12629 12622 12625 12632 11192 12633 12463 12634 12635 
1537 1538 1763 1762 1562 1563 1788 1787 11026 12466 12467 12459 11197 12637 12638 12630 11188 11195 12636 12629 12632 12639 11199 12640 12470 12641 12642 
1538 1539 1764 1763 1563 1564 1789 1788 11033 12473 12474 12466 11204 12644 12645 12637 11195 11202 12643 12636 12639 12646 11206 12647 12477 12648 12649 
1539 1540 1765 1764 1564 1565 1790 1789 11040 12480 12481 12473 11211 12651 12652 12644 11202 11209 12650 12643 12646 12653 11213 12654 12484 12655 12656 
1540 1541 1766 1765 1565 1566 1791 1790 11047 12487 12488 12480 11218 12658 12659 12651 11209 11216 12657 12650 12653 12660 11220 12661 12491 12662 12663 
1541 1542 1767 1766 1566 1567 1792 1791 11054 12494 12495 12487 11225 12665 12666 12658 11216 11223 12664 12657 12660 12667 11227 12668 12498 12669 12670 
1542 1543 1768 1767 1567 1568 1793 1792 11061 12501 12502 12494 11232 12672 12673 12665 11223 11230 12671 12664 12667 12674 11234 12675 12505 12676 12677 
1543 1544 1769 1768 1568 1569 1794 1793 11068 12508 12509 12501 11239 12679 12680 12672 11230 11237 12678 12671 12674 12681 11241 12682 12512 12683 12684 
1544 1545 1770 1769 1569 1570 1795 1794 11075 12515 12516 12508 11246 12686 12687 12679 11237 11244 12685 12678 12681 12688 11248 12689 12519 12690 12691 
1545 1546 1771 1770 1570 1571 1796 1795 11082 12522 12523 12515 11253 12693 12694 12686 11244 11251 12692 12685 12688 12695 11255 12696 12526 12697 12698 
1546 1547 1772 1771 1571 1572 1797 1796 11089 12529 12530 12522 11260 12700 12701 12693 11251 11258 12699 12692 12695 12702 11262 12703 12533 12704 12705 
1547 1548 1773 1772 1572 1573 1798 1797 11096 12536 12537 12529 11267 12707 12708 12700 11258 11265 12706 12699 12702 12709 11269 12710 12540 12711 12712 
1548 1549 1774 1773 1573 1574 1799 1798 11103 12543 12544 12536 11274 12714 12715 12707 11265 11272 12713 12706 12709 12716 11276 12717 12547 12718 12719 
1575 1576 1801 1800 1600 1601 1826 1825 11280 12720 12721 12722 11285 12725 12726 12727 11283 11282 12723 12724 12731 12729 11289 12730 12728 12732 12733 
1576 1577 1802 1801 1601 1602 1827 1826 11294 12734 12735 12720 11297 12737 12738 12725 11282 11295 12736 12723 12729 12740 11300 12741 12739 12742 12743 
1577 1578 1803 1802 1602 1603 1828 1827 11304 12744 12745 12734 11307 12747 12748 12737 11295 11305 12746 12736 12740 12750 11310 12751 12749 12752 12753 
1578 1579 1804 1803 1603 1604 1829 1828 11314 12754 12755 12744 11317 12757 12758 12747 11305 11315 12756 12746 12750 12760 11320 12761 12759 12762 12763 
1579 1580 1805 1804 1604 1605 1830 1829 11324 12764 12765 12754 11327 12767 12768 12757 11315 11325 12766 12756 12760 12770 11330 12771 12769 12772 12773 
1580 1581 1806 1805 1605 1606 1831 1830 11334 12774 12775 12764 11337 12777 12778 12767 11325 11335 12776 12766 12770 12780 11340 12781 12779 12782 12783 
1581 1582 1807 1806 1606 1607 1832 1831 11344 12784 12785 12774 11347 12787 12788 12777 11335 11345 12786 12776 12780 12790 11350 12791 12789 12792 12793 
1582 1583 1808 1807 1607 1608 1833 1832 11354 12794 12795 12784 11357 12797 12798 12787 11345 11355 12796 12786 12790 12800 11360 12801 12799 12802 12803 
1583 1584 1809 1808 1608 1609 1834 1833 11364 12804 12805 12794 11367 12807 12808 12797 11355 11365 12806 12796 12800 12810 11370 12811 12809 12812 12813 
1584 1585 1810 1809 1609 1610 1835 1834 11374 12814 12815 12804 11377 12817 12818 12807 11365 11375 12816 12806 12810 12820 11380 12821 12819 12822 12823 
1585 1586 1811 1810 1610 1611 1836 1835 11384 12824 12825 12814 11387 12827 12828 12817 11375 11385 12826 12816 12820 12830 11390 12831 12829 12832 12833 
1586 1587 1812 1811 1611 1612 1837 1836 11394 12834 12835 12824 11397 12837 12838 12827 11385 11395 12836 12826 12830 12840 11400 12841 12839 12842 12843 
1587 1588 1813 1812 1612 1613 1838 1837 11404 12844 12845 12834 11407 12847 12848 12837 11395 11405 12846 12836 12840 12850 11410 12851 12849 12852 12853 
1588 1589 1814 1813 1613 1614 1839 1838 11414 12854 12855 12844 11417 12857 12858 12847 11405 11415 12856 12846 12850 12860 11420 12861 12859 12862 12863 
1589 1590 1815 1814 1614 1615 1840 1839 11424 12864 12865 12854 11427 12867 12868 12857 11415 11425 12866 12856 12860 12870 11430 12871 12869 12872 12873 
1590 1591 1816 1815 1615 1616 1841 1840 11434 12874 12875 12864 11437 12877 12878 12867 11425 11435 12876 12866 12870 12880 11440 12881 12879 12882 12883 
1591 1592 1817 1816 1616 1617 1842 1841 11444 12884 12885 12874 11447 12887 12888 12877 11435 11445 12886 12876 12880 12890 11450 12891 12889 12892 12893 
1592 1593 1818 1817 1617 1618 1843 1842 11454 12894 12895 12884 11457 12897 12898 12887 11445 11455 12896 12886 12890 12900 11460 12901 12899 12902 12903 
1593 1594 1819 1818 1618 1619 1844 1843 11464 12904 12905 12894 11467 12907 12908 12897 11455 11465 12906 12896 12900 12910 11470 12911 12909 12912 12913 
1594 1595 1820 1819 1619 1620 1845 1844 11474 12914 12915 12904 11477 12917 12918 12907 11465 11475 12916 12906 12910 12920 11480 12921 12919 12922 12923 
1595 1596 1821 1820 1620 1621 1846 1845 11484 12924 12925 12914 11487 12927 12928 12917 11475 11485 12926 12916 12920 12930 11490 12931 12929 12932 12933 
1596 1597 1822 1821 1621 1622 1847 1846 11494 12934 12935 12924 11497 12937 12938 12927 11485 11495 12936 12926 12930 12940 11500 12941 12939 12942 12943 
1597 1598 1823 1822 1622 1623 1848 1847 11504 12944 12945 12934 11507 12947 12948 12937 11495 11505 12946 12936 12940 12950 11510 12951 12949 12952 12953 
1598 1599 1824 1823 1623 1624 1849 1848 11514 12954 12955 12944 11517 12957 12958 12947 11505 11515 12956 12946 12950 12960 11520 12961 12959 12962 12963 
1600 1601 1826 1825 1625 1626 1851 1850 11285 12725 12726 12727 11526 12966 12967 12968 11524 11523 12964 12965 12971 12969 11529 12970 12732 12972 12973 
1601 1602 1827 1826 1626 1627 1852 1851 11297 12737 12738 12725 11535 12975 12976 12966 11523 11533 12974 12964 12969 12977 11537 12978 12742 12979 12980 
1602 1603 1828 1827 1627 1628 1853 1852 11307 12747 12748 12737 11542 12982 12983 12975 11533 11540 12981 12974 12977 12984 11544 12985 12752 12986 12987 
1603 1604 1829 1828 1628 1629 1854 1853 11317 12757 12758 12747 11549 12989 12990 12982 11540 11547 12988 12981 12984 12991 11551 12992 12762 12993 12994 
1604 1605 1830 1829 1629 1630 1855 1854 11327 12767 12768 12757 11556 12996 12997 12989 11547 11554 12995 12988 12991 12998 11558 12999 12772 13000 13001 
1605 1606 1831 1830 1630 1631 1856 1855 11337 12777 12778 12767 11563 13003 13004 12996 11554 11561 13002 12995 12998 13005 11565 13006 12782 13007 13008 
1606 1607 1832 1831 1631 1632 1857 1856 11347 12787 12788 12777 11570 13010 13011 13003 11561 11568 13009 13002 13005 13012 11572 13013 12792 13014 13015 
1607 1608 1833 1832 1632 1633 1858 1857 11357 12797 12798 12787 11577 13017 13018 13010 11568 11575 13016 13009 13012 13019 11579 13020 12802 13021 13022 
1608 1609 1834 1833 1633 1634 1859 1858 11367 12807 12808 12797 11584 13024 13025 13017 11575 11582 13023 13016 13019 13026 11586 13027 12812 13028 13029 
1609 1610 1835 1834 1634 1635 1860 1859 11377 12817 12818 12807 11591 13031 13032 13024 11582 11589 13030 13023 13026 13033 11593 13034 12822 13035 13036 
1610 1611 1836 1835 1635 1636 1861 1860 11387 12827 12828 12817 11598 13038 13039 13031 11589 11596 13037 13030 13033 13040 11600 13041 12832 13042 13043 
1611 1612 1837 1836 1636 1637 1862 1861 11397 12837 12838 12827 11605 13045 13046 13038 11596 11603 13044 13037 13040 13047 11607 13048 12842 13049 13050 
1612 1613 1838 1837 1637 1638 1863 1862 11407 12847 12848 12837 11612 13052 13053 13045 11603 11610 13051 13044 13047 13054 11614 13055 12852 13056 13057 
1613 1614 1839 1838 1638 1639 1864 1863 11417 12857 12858 12847 11619 13059 13060 13052 11610 11617 13058 13051 13054 13061 11621 13062 12862 13063 13064 
1614 1615 1840 1839 1639 1640 1865 1864 11427 12867 12868 12857 11626 13066 13067 13059 11617 11624 13065 13058 13061 13068 11628 13069 12872 13070 13071 
1615 1616 1841 1840 1640 1641 1866 1865 11437 12877 12878 12867 11633 13073 13074 13066 11624 11631 13072 13065 13068 13075 11635 13076 12882 13077 13078 
1616 1617 1842 1841 1641 1642 1867 1866 11447 12887 12888 12877 11640 13080 13081 13073 11631 11638 13079 13072 13075 13082 11642 13083 12892 13084 13085 
1617 1618 1843 1842 1642 1643 1868 1867 11457 12897 12898 12887 11647 13087 13088 13080 11638 11645 13086 13079 13082 13089 11649 13090 12902 13091 13092 
1618 1619 1844 1843 1643 1644 1869 1868 11467 12907 12908 12897 11654 13094 13095 13087 11645 11652 13093 13086 13089 13096 11656 13097 12912 13098 13099 
1619 1620 1845 1844 1644 1645 1870 1869 11477 12917 12918 12907 11661 13101 13102 13094 11652 11659 13100 13093 13096 13103 11663 13104 12922 13105 13106 
1620 1621 1846 1845 1645 1646 1871 1870 11487 12927 12928 12917 11668 13108 13109 13101 11659 11666 13107 13100 13103 13110 11670 13111 12932 13112 13113 
1621 1622 1847 1846 1646 1647 1872 1871 11497 12937 12938 12927 11675 13115 13116 13108 11666 11673 13114 13107 13110 13117 11677 13118 12942 13119 13120 
1622 1623 1848 1847 1647 1648 1873 1872 11507 12947 12948 12937 11682 13122 13123 13115 11673 11680 13121 13114 13117 13124 11684 13125 12952 13126 13127 
1623 1624 1849 1848 1648 1649 1874 1873 11517 12957 12958 12947 11689 13129 13130 13122 11680 11687 13128 13121 13124 13131 11691 13132 12962 13133 13134 
1625 1626 1851 1850 1650 1651 1876 1875 11526 12966 12967 12968 11697 13137 13138 13139 11695 11694 13135 13136 13142 13140 11700 13141 12972 13143 13144 
1626 1627 1852 1851 1651 1652 1877 1876 11535 12975 12976 12966 11706 13146 13147 13137 11694 11704 13145 13135 13140 13148 11708 13149 12979 13150 13151 
1627 1628 1853 1852 1652 1653 1878 1877 11542 12982 12983 12975 11713 13153 13154 13146 11704 11711 13152 13145 13148 13155 11715 13156 12986 13157 13158 
1628 1629 1854 1853 1653 1654 1879 1878 11549 12989 12990 12982 11720 13160 13161 13153 11711 11718 13159 13152 13155 13162 11722 13163 12993 13164 13165 
1629 1630 1855 1854 1654 1655 1880 1879 11556 12996 12997 12989 11727 13167 13168 13160 11718 11725 13166 13159 13162 13169 11729 13170 13000 13171 13172 
1630 1631 1856 1855 1655 1656 1881 1880 11563 13003 13004 12996 11734 13174 13175 13167 11725 11732 13173 13166 13169 13176 11736 13177 13007 13178 13179 
1631 1632 1857 1856 1656 1657 1882 1881 11570 13010 13011 13003 11741 13181 13182 13174 11732 11739 13180 13173 13176 13183 11743 13184 13014 13185 13186 
1632 1633 1858 1857 1657 1658 1883 1882 11577 13017 13018 13010 11748 13188 13189 13181 11739 11746 13187 13180 13183 13190 11750 13191 13021 13192 13193 
1633 1634 1859 1858 1658 1659 1884 1883 11584 13024 13025 13017 11755 13195 13196 13188 11746 11753 13194 13187 13190 13197 11757 13198 13028 13199 13200 
1634 1635 1860 1859 1659 1660 1885 1884 11591 13031 13032 13024 11762 13202 13203 13195 11753 11760 13201 13194 13197 13204 11764 13205 13035 13206 13207 
1635 1636 1861 1860 1660 1661 1886 1885 11598 13038 13039 13031 11769 13209 13210 13202 11760 11767 13208 13201 13204 13211 11771 13212 13042 13213 13214 
1636 1637 1862 1861 1661 1662 1887 1886 11605 13045 13046 13038 11776 13216 13217 13209 11767 11774 13215 13208 13211 13218 11778 13219 13049 13220 13221 
1637 1638 1863 1862 1662 1663 1888 1887 11612 13052 13053 13045 11783 13223 13224 13216 11774 11781 13222 13215 13218 13225 11785 13226 13056 13227 13228 
1638 1639 1864 1863 1663 1664 1889 1888 11619 13059 13060 13052 11790 13230 13231 13223 11781 11788 13229 13222 13225 13232 11792 13233 13063 13234 13235 
1639 1640 1865 1864 1664 1665 1890 1889 11626 13066 13067 13059 11797 13237 13238 13230 11788 11795 13236 13229 13232 13239 11799 13240 13070 13241 13242 
1640 1641 1866 1865 1665 1666 1891 1890 11633 13073 13074 13066 11804 13244 13245 13237 11795 11802 13243 13236 13239 13246 11806 13247 13077 13248 13249 
1641 1642 1867 1866 1666 1667 1892 1891 11640 13080 13081 13073 11811 13251 13252 13244 11802 11809 13250 13243 13246 13253 11813 13254 13084 13255 13256 
1642 1643 1868 1867 1667 1668 1893 1892 11647 13087 13088 13080 11818 13258 13259 13251 11809 11816 13257 13250 13253 13260 11820 13261 13091 13262 13263 
1643 1644 1869 1868 1668 1669 1894 1893 11654 13094 13095 13087 11825 13265 13266 13258 11816 11823 13264 13257 13260 13267 11827 13268 13098 13269 13270 
1644 1645 1870 1869 1669 1670 1895 1894 11661 13101 13102 13094 11832 13272 13273 13265 11823 11830 13271 13264 13267 13274 11834 13275 13105 13276 13277 
1645 1646 1871 1870 1670 1671 1896 1895 11668 13108 13109 13101 11839 13279 13280 13272 11830 11837 13278 13271 13274 13281 11841 13282 13112 13283 13284 
1646 1647 1872 1871 1671 1672 1897 1896 11675 13115 13116 13108 11846 13286 13287 13279 11837 11844 13285 13278 13281 13288 11848 13289 13119 13290 13291 
1647 1648 1873 1872 1672 1673 1898 1897 11682 13122 13123 13115 11853 13293 13294 13286 11844 11851 13292 13285 13288 13295 11855 13296 13126 13297 13298 
1648 1649 1874 1873 1673 1674 1899 1898 11689 13129 13130 13122 11860 13300 13301 13293 11851 11858 13299 13292 13295 13302 11862 13303 13133 13304 13305 
1650 1651 1876 1875 1675 1676 1901 1900 11697 13137 13138 13139 11868 13308 13309 13310 11866 11865 13306 13307 13313 13311 11871 13312 13143 13314 13315 
1651 1652 1877 1876 1676 1677 1902 1901 11706 13146 13147 13137 11877 13317 13318 13308 11865 11875 13316 13306 13311 13319 11879 13320 13150 13321 13322 
1652 1653 1878 1877 1677 1678 1903 1902 11713 13153 13154 13146 11884 13324 13325 13317 11875 11882 13323 13316 13319 13326 11886 13327 13157 13328 13329 
1653 1654 1879 1878 1678 1679 1904 1903 11720 13160 13161 13153 11891 13331 13332 13324 11882 11889 13330 13323 13326 13333 11893 13334 13164 13335 13336 
1654 1655 1880 1879 1679 1680 1905 1904 11727 13167 13168 13160 11898 13338 13339 13331 11889 11896 13337 13330 13333 13340 11900 13341 13171 13342 13343 
1655 1656 1881 1880 1680 1681 1906 1905 11734 13174 13175 13167 11905 13345 13346 13338 11896 11903 13344 13337 13340 13347 11907 13348 13178 13349 13350 
1656 1657 1882 1881 1681 1682 1907 1906 11741 13181 13182 13174 11912 13352 13353 13345 11903 11910 13351 13344 13347 13354 11914 13355 13185 13356 13357 
1657 1658 1883 1882 1682 1683 1908 1907 11748 13188 13189 13181 11919 13359 13360 13352 11910 11917 13358 13351 13354 13361 11921 13362 13192 13363 13364 
1658 1659 1884 1883 1683 1684 1909 1908 11755 13195 13196 13188 11926 13366 13367 13359 11917 11924 13365 13358 13361 13368 11928 13369 13199 13370 13371 
1659 1660 1885 1884 1684 1685 1910 1909 11762 13202 13203 13195 11933 13373 13374 13366 11924 11931 13372 13365 13368 13375 11935 13376 13206 13377 13378 
1660 1661 1886 1885 1685 1686 1911 1910 11769 13209 13210 13202 11940 13380 13381 13373 11931 11938 13379 13372 13375 13382 11942 13383 13213 13384 13385 
1661 1662 1887 1886 1686 1687 1912 1911 11776 13216 13217 13209 11947 13387 13388 13380 11938 11945 13386 13379 13382 13389 11949 13390 13220 13391 13392 
1662 1663 1888 1887 1687 1688 1913 1912 11783 13223 13224 13216 11954 13394 13395 13387 11945 11952 13393 13386 13389 13396 11956 13397 13227 13398 13399 
1663 1664 1889 1888 1688 1689 1914 1913 11790 13230 13231 13223 11961 13401 13402 13394 11952 11959 13400 13393 13396 13403 11963 13404 13234 13405 13406 
1664 1665 1890 1889 1689 1690 1915 1914 11797 13237 13238 13230 11968 13408 13409 13401 11959 11966 13407 13400 13403 13410 11970 13411 13241 13412 13413 
1665 1666 1891 1890 1690 1691 1916 1915 11804 13244 13245 13237 11975 13415 13416 13408 11966 11973 13414 13407 13410 13417 11977 13418 13248 13419 13420 
1666 1667 1892 1891 1691 1692 1917 1916 11811 13251 13252 13244 11982 13422 13423 13415 11973 11980 13421 13414 13417 13424 11984 13425 13255 13426 13427 
1667 1668 1893 1892 1692 1693 1918 1917 11818 13258 13259 13251 11989 13429 13430 13422 11980 11987 13428 13421 13424 13431 11991 13432 13262 13433 13434 
1668 1669 1894 1893 1693 1694 1919 1918 11825 13265 13266 13258 11996 13436 13437 13429 11987 11994 13435 13428 13431 13438 11998 13439 13269 13440 13441 
1669 1670 1895 1894 1694 1695 1920 1919 11832 13272 13273 13265 12003 13443 13444 13436 11994 12001 13442 13435 13438 13445 12005 13446 13276 13447 13448 
1670 1671 1896 1895 1695 1696 1921 1920 11839 13279 13280 13272 12010 13450 13451 13443 12001 12008 13449 13442 13445 13452 12012 13453 13283 13454 13455 
1671 1672 1897 1896 1696 1697 1922 1921 11846 13286 13287 13279 12017 13457 13458 13450 12008 12015 13456 13449 13452 13459 12019 13460 13290 13461 13462 
1672 1673 1898 1897 1697 1698 1923 1922 11853 13293 13294 13286 12024 13464 13465 13457 12015 12022 13463 13456 13459 13466 12026 13467 13297 13468 13469 
1673 1674 1899 1898 1698 1699 1924 1923 11860 13300 13301 13293 12031 13471 13472 13464 12022 12029 13470 13463 13466 13473 12033 13474 13304 13475 13476 
1675 1676 1901 1900 1700 1701 1926 1925 11868 13308 13309 13310 12039 13479 13480 13481 12037 12036 13477 13478 13484 13482 12042 13483 13314 13485 13486 
1676 1677 1902 1901 1701 1702 1927 1926 11877 13317 13318 13308 12048 13488 13489 13479 12036 12046 13487 13477 13482 13490 12050 13491 13321 13492 13493 
1677 1678 1903 1902 1702 1703 1928 1927 11884 13324 13325 13317 12055 13495 13496 13488 12046 12053 13494 13487 13490 13497 12057 13498 13328 13499 13500 
1678 1679 1904 1903 1703 1704 1929 1928 11891 13331 13332 13324 12062 13502 13503 13495 12053 12060 13501 13494 13497 13504 12064 13505 13335 13506 13507 
1679 1680 1905 1904 1704 1705 1930 1929 11898 13338 13339 13331 12069 13509 13510 13502 12060 12067 13508 13501 13504 13511 12071 13512 13342 13513 13514 
1680 1681 1906 1905 1705 1706 1931 1930 11905 13345 13346 13338 12076 13516 13517 13509 12067 12074 13515 13508 13511 13518 12078 13519 13349 13520 13521 
1681 1682 1907 1906 1706 1707 1932 1931 11912 13352 13353 13345 12083 13523 13524 13516 12074 12081 13522 13515 13518 13525 12085 13526 13356 13527 13528 
1682 1683 1908 1907 1707 1708 1933 1932 11919 13359 13360 13352 12090 13530 13531 13523 12081 12088 13529 13522 13525 13532 12092 13533 13363 13534 13535 
1683 1684 1909 1908 1708 1709 1934 1933 11926 13366 13367 13359 12097 13537 13538 13530 12088 12095 13536 13529 13532 13539 12099 13540 13370 13541 13542 
1684 1685 1910 1909 1709 1710 1935 1934 11933 13373 13374 13366 12104 13544 13545 13537 12095 12102 13543 13536 13539 13546 12106 13547 13377 13548 13549 
1685 1686 1911 1910 1710 1711 1936 1935 11940 13380 13381 13373 12111 13551 13552 13544 12102 12109 13550 13543 13546 13553 12113 13554 13384 13555 13556 
1686 1687 1912 1911 1711 1712 1937 1936 11947 13387 13388 13380 12118 13558 13559 13551 12109 12116 13557 13550 13553 13560 12120 13561 13391 13562 13563 
1687 1688 1913 1912 1712 1713 1938 1937 11954 13394 13395 13387 12125 13565 13566 13558 12116 12123 13564 13557 13560 13567 12127 13568 13398 13569 13570 
1688 1689 1914 1913 1713 1714 1939 1938 11961 13401 13402 13394 12132 13572 13573 13565 12123 12130 13571 13564 13567 13574 12134 13575 13405 13576 13577 
1689 1690 1915 1914 1714 1715 1940 1939 11968 13408 13409 13401 12139 13579 13580 13572 12130 12137 13578 13571 13574 13581 12141 13582 13412 13583 13584 
1690 1691 1916 1915 1715 1716 1941 1940 11975 13415 13416 13408 12146 13586 13587 13579 12137 12144 13585 13578 13581 13588 12148 13589 13419 13590 13591 
1691 1692 1917 1916 1716 1717 1942 1941 11982 13422 13423 13415 12153 13593 13594 13586 12144 12151 13592 13585 13588 13595 12155 13596 13426 13597 13598 
1692 1693 1918 1917 1717 1718 1943 1942 11989 13429 13430 13422 12160 13600 13601 13593 12151 12158 13599 13592 13595 13602 12162 13603 13433 13604 13605 
1693 1694 1919 1918 1718 1719 1944 1943 11996 13436 13437 13429 12167 13607 13608 13600 12158 12165 13606 13599 13602 13609 12169 13610 13440 13611 13612 
1694 1695 1920 1919 1719 1720 1945 1944 12003 13443 13444 13436 12174 13614 13615 13607 12165 12172 13613 13606 13609 13616 12176 13617 13447 13618 13619 
1695 1696 1921 1920 1720 1721 1946 1945 12010 13450 13451 13443 12181 13621 13622 13614 12172 12179 13620 13613 13616 13623 12183 13624 13454 13625 13626 
1696 1697 1922 1921 1721 1722 1947 1946 12017 13457 13458 13450 12188 13628 13629 13621 12179 12186 13627 13620 13623 13630 12190 13631 13461 13632 13633 
1697 1698 1923 1922 1722 1723 1948 1947 12024 13464 13465 13457 12195 13635 13636 13628 12186 12193 13634 13627 13630 13637 12197 13638 13468 13639 13640 
1698 1699 1924 1923 1723 1724 1949 1948 12031 13471 13472 13464 12202 13642 13643 13635 12193 12200 13641 13634 13637 13644 12204 13645 13475 13646 13647 
1700 1701 1926 1925 1725 1726 1951 1950 12039 13479 13480 13481 12210 13650 13651 13652 12208 12207 13648 13649 13655 13653 12213 13654 13485 13656 13657 
1701 1702 1927 1926 1726 1727 1952 1951 12048 13488 13489 13479 12219 13659 13660 13650 12207 12217 13658 13648 13653 13661 12221 13662 13492 13663 13664 
1702 1703 1928 1927 1727 1728 1953 1952 12055 13495 13496 13488 12226 13666 13667 13659 12217 12224 13665 13658 13661 13668 12228 13669 13499 13670 13671 
1703 1704 1929 1928 1728 1729 1954 1953 12062 13502 13503 13495 12233 13673 13674 13666 12224 12231 13672 13665 13668 13675 12235 13676 13506 13677 13678 
1704 1705 1930 1929 1729 1730 1955 1954 12069 13509 13510 13502 12240 13680 13681 13673 12231 12238 13679 13672 13675 13682 12242 13683 13513 13684 13685 
1705 1706 1931 1930 1730 1731 1956 1955 12076 13516 13517 13509 12247 13687 13688 13680 12238 12245 13686 13679 13682 13689 12249 13690 13520 13691 13692 
1706 1707 1932 1931 1731 1732 1957 1956 12083 13523 13524 13516 12254 13694 13695 13687 12245 12252 13693 13686 13689 13696 12256 13697 13527 13698 13699 
1707 1708 1933 1932 1732 1733 1958 1957 12090 13530 13531 13523 12261 13701 13702 13694 12252 12259 13700 13693 13696 13703 12263 13704 13534 13705 13706 
1708 1709 1934 1933 1733 1734 1959 1958 12097 13537 13538 13530 12268 13708 13709 13701 12259 12266 13707 13700 13703 13710 12270 13711 13541 13712 13713 
1709 1710 1935 1934 1734 1735 1960 1959 12104 13544 13545 13537 12275 13715 13716 13708 12266 12273 13714 13707 13710 13717 12277 13718 13548 13719 13720 
1710 1711 1936 1935 1735 1736 1961 1960 12111 13551 13552 13544 12282 13722 13723 13715 12273 12280 13721 13714 13717 13724 12284 13725 13555 13726 13727 
1711 1712 1937 1936 1736 1737 1962 1961 12118 13558 13559 13551 12289 13729 13730 13722 12280 12287 13728 13721 13724 13731 12291 13732 13562 13733 13734 
1712 1713 1938 1937 1737 1738 1963 1962 12125 13565 13566 13558 12296 13736 13737 13729 12287 12294 13735 13728 13731 13738 12298 13739 13569 13740 13741 
1713 1714 1939 1938 1738 1739 1964 1963 12132 13572 13573 13565 12303 13743 13744 13736 12294 12301 13742 13735 13738 13745 12305 13746 13576 13747 13748 
1714 1715 1940 1939 1739 1740 1965 1964 12139 13579 13580 13572 12310 13750 13751 13743 12301 12308 13749 13742 13745 13752 12312 13753 13583 13754 13755 
1715 1716 1941 1940 1740 1741 1966 1965 12146 13586 13587 13579 12317 13757 13758 13750 12308 12315 13756 13749 13752 13759 12319 13760 13590 13761 13762 
1716 1717 1942 1941 1741 1742 1967 1966 12153 13593 13594 13586 12324 13764 13765 13757 12315 12322 13763 13756 13759 13766 12326 13767 13597 13768 13769 
1717 1718 1943 1942 1742 1743 1968 1967 12160 13600 13601 13593 12331 13771 13772 13764 12322 12329 13770 13763 13766 13773 12333 13774 13604 13775 13776 
1718 1719 1944 1943 1743 1744 1969 1968 12167 13607 13608 13600 12338 13778 13779 13771 12329 12336 13777 13770 13773 13780 12340 13781 13611 13782 13783 
1719 1720 1945 1944 1744 1745 1970 1969 12174 13614 13615 13607 12345 13785 13786 13778 12336 12343 13784 13777 13780 13787 12347 13788 13618 13789 13790 
1720 1721 1946 1945 1745 1746 1971 1970 12181 13621 13622 13614 12352 13792 13793 13785 12343 12350 13791 13784 13787 13794 12354 13795 13625 13796 13797 
1721 1722 1947 1946 1746 1747 1972 1971 12188 13628 13629 13621 12359 13799 13800 13792 12350 12357 13798 13791 13794 13801 12361 13802 13632 13803 13804 
1722 1723 1948 1947 1747 1748 1973 1972 12195 13635 13636 13628 12366 13806 13807 13799 12357 12364 13805 13798 13801 13808 12368 13809 13639 13810 13811 
1723 1724 1949 1948 1748 1749 1974 1973 12202 13642 13643 13635 12373 13813 13814 13806 12364 12371 13812 13805 13808 13815 12375 13816 13646 13817 13818 
1725 1726 1951 1950 1750 1751 1976 1975 12210 13650 13651 13652 12381 13821 13822 13823 12379 12378 13819 13820 13826 13824 12384 13825 13656 13827 13828 
1726 1727 1952 1951 1751 1752 1977 1976 12219 13659 13660 13650 12390 13830 13831 13821 12378 12388 13829 13819 13824 13832 12392 13833 13663 13834 13835 
1727 1728 1953 1952 1752 1753 1978 1977 12226 13666 13667 13659 12397 13837 13838 13830 12388 12395 13836 13829 13832 13839 12399 13840 13670 13841 13842 
1728 1729 1954 1953 1753 1754 1979 1978 12233 13673 13674 13666 12404 13844 13845 13837 12395 12402 13843 13836 13839 13846 12406 13847 13677 13848 13849 
1729 1730 1955 1954 1754 1755 1980 1979 12240 13680 13681 13673 12411 13851 13852 13844 12402 12409 13850 13843 13846 13853 12413 13854 13684 13855 13856 
1730 1731 1956 1955 1755 1756 1981 1980 12247 13687 13688 13680 12418 13858 13859 13851 12409 12416 13857 13850 13853 13860 12420 13861 13691 13862 13863 
1731 1732 1957 1956 1756 1757 1982 1981 12254 13694 13695 13687 12425 13865 13866 13858 12416 12423 13864 13857 13860 13867 12427 13868 13698 13869 13870 
1732 1733 1958 1957 1757 1758 1983 1982 12261 13701 13702 13694 12432 13872 13873 13865 12423 12430 13871 13864 13867 13874 12434 13875 13705 13876 13877 
1733 1734 1959 1958 1758 1759 1984 1983 12268 13708 13709 13701 12439 13879 13880 13872 12430 12437 13878 13871 13874 13881 12441 13882 13712 13883 13884 
1734 1735 1960 1959 1759 1760 1985 1984 12275 13715 13716 13708 12446 13886 13887 13879 12437 12444 13885 13878 13881 13888 12448 13889 13719 13890 13891 
1735 1736 1961 1960 1760 1761 1986 1985 12282 13722 13723 13715 12453 13893 13894 13886 12444 12451 13892 13885 13888 13895 12455 13896 13726 13897 13898 
1736 1737 1962 1961 1761 1762 1987 1986 12289 13729 13730 13722 12460 13900 13901 13893 12451 12458 13899 13892 13895 13902 12462 13903 13733 13904 13905 
1737 1738 1963 1962 1762 1763 1988 1987 12296 13736 13737 13729 12467 13907 13908 13900 12458 12465 13906 13899 13902 13909 12469 13910 13740 13911 13912 
1738 1739 1964 1963 1763 1764 1989 1988 12303 13743 13744 13736 12474 13914 13915 13907 12465 12472 13913 13906 13909 13916 12476 13917 13747 13918 13919 
1739 1740 1965 1964 1764 1765 1990 1989 12310 13750 13751 13743 12481 13921 13922 13914 12472 12479 13920 13913 13916 13923 12483 13924 13754 13925 13926 
1740 1741 1966 1965 1765 1766 1991 1990 12317 13757 13758 13750 12488 13928 13929 13921 12479 12486 13927 13920 13923 13930 12490 13931 13761 13932 13933 
1741 1742 1967 1966 1766 1767 1992 1991 12324 13764 13765 13757 12495 13935 13936 13928 12486 12493 13934 13927 13930 13937 12497 13938 13768 13939 13940 
1742 1743 1968 1967 1767 1768 1993 1992 12331 13771 13772 13764 12502 13942 13943 13935 12493 12500 13941 13934 13937 13944 12504 13945 13775 13946 13947 
1743 1744 1969 1968 1768 1769 1994 1993 12338 13778 13779 13771 12509 13949 13950 13942 12500 12507 13948 13941 13944 13951 12511 13952 13782 13953 13954 
1744 1745 1970 1969 1769 1770 1995 1994 12345 13785 13786 13778 12516 13956 13957 13949 12507 12514 13955 13948 13951 13958 12518 13959 13789 13960 13961 
1745 1746 1971 1970 1770 1771 1996 1995 12352 13792 13793 13785 12523 13963 13964 13956 12514 12521 13962 13955 13958 13965 12525 13966 13796 13967 13968 
1746 1747 1972 1971 1771 1772 1997 1996 12359 13799 13800 13792 12530 13970 13971 13963 12521 12528 13969 13962 13965 13972 12532 13973 13803 13974 13975 
1747 1748 1973 1972 1772 1773 1998 1997 12366 13806 13807 13799 12537 13977 13978 13970 12528 12535 13976 13969 13972 13979 12539 13980 13810 13981 13982 
1748 1749 1974 1973 1773 1774 1999 1998 12373 13813 13814 13806 12544 13984 13985 13977 12535 12542 13983 13976 13979 13986 12546 13987 13817 13988 13989 
1750 1751 1976 1975 1775 1776 2001 2000 12381 13821 13822 13823 12552 13992 13993 13994 12550 12549 13990 13991 13997 13995 12555 13996 13827 13998 13999 
1751 1752 1977 1976 1776 1777 2002 2001 12390 13830 13831 13821 12561 14001 14002 13992 12549 12559 14000 13990 13995 14003 12563 14004 13834 14005 14006 
1752 1753 1978 1977 1777 1778 2003 2002 12397 13837 13838 13830 12568 14008 14009 14001 12559 12566 14007 14000 14003 14010 12570 14011 13841 14012 14013 
1753 1754 1979 1978 1778 1779 2004 2003 12404 13844 13845 13837 12575 14015 14016 14008 12566 12573 14014 14007 14010 14017 12577 14018 13848 14019 14020 
1754 1755 1980 1979 1779 1780 2005 2004 12411 13851 13852 13844 12582 14022 14023 14015 12573 12580 14021 14014 14017 14024 12584 14025 13855 14026 14027 
1755 1756 1981 1980 1780 1781 2006 2005 12418 13858 13859 13851 12589 14029 14030 14022 12580 12587 14028 14021 14024 14031 12591 14032 13862 14033 14034 
1756 1757 1982 1981 1781 1782 2007 2006 12425 13865 13866 13858 12596 14036 14037 14029 12587 12594 14035 14028 14031 14038 12598 14039 13869 14040 14041 
1757 1758 1983 1982 1782 1783 2008 2007 12432 13872 13873 13865 12603 14043 14044 14036 12594 12601 14042 14035 14038 14045 12605 14046 13876 14047 14048 
1758 1759 1984 1983 1783 1784 2009 2008 12439 13879 13880 13872 12610 14050 14051 14043 12601 12608 14049 14042 14045 14052 12612 14053 13883 14054 14055 
1759 1760 1985 1984 1784 1785 2010 2009 12446 13886 13887 13879 12617 14057 14058 14050 12608 12615 14056 14049 14052 14059 12619 14060 13890 14061 14062 
1760 1761 1986 1985 1785 1786 2011 2010 12453 13893 13894 13886 12624 14064 14065 14057 12615 12622 14063 14056 14059 14066 12626 14067 13897 14068 14069 
1761 1762 1987 1986 1786 1787 2012 2011 12460 13900 13901 13893 12631 14071 14072 14064 12622 12629 14070 14063 14066 14073 12633 14074 13904 14075 14076 
1762 1763 1988 1987 1787 1788 2013 2012 12467 13907 13908 13900 12638 14078 14079 14071 12629 12636 14077 14070 14073 14080 12640 14081 13911 14082 14083 
1763 1764 1989 1988 1788 1789 2014 2013 12474 13914 13915 13907 12645 14085 14086 14078 12636 12643 14084 14077 14080 14087 12647 14088 13918 14089 14090 
1764 1765 1990 1989 1789 1790 2015 2014 12481 13921 13922 13914 12652 14092 14093 14085 12643 12650 14091 14084 14087 14094 12654 14095 13925 14096 14097 
1765 1766 1991 1990 1790 1791 2016 2015 12488 13928 13929 13921 12659 14099 14100 14092 12650 12657 14098 14091 14094 14101 12661 14102 13932 14103 14104 
1766 1767 1992 1991 1791 1792 2017 2016 12495 13935 13936 13928 12666 14106 14107 14099 12657 12664 14105 14098 14101 14108 12668 14109 13939 14110 14111 
1767 1768 1993 1992 1792 1793 2018 2017 12502 13942 13943 13935 12673 14113 14114 14106 12664 12671 14112 14105 14108 14115 12675 14116 13946 14117 14118 
1768 1769 1994 1993 1793 1794 2019 2018 12509 13949 13950 13942 12680 14120 14121 14113 12671 12678 14119 14112 14115 14122 12682 14123 13953 14124 14125 
1769 1770 1995 1994 1794 1795 2020 2019 12516 13956 13957 13949 12687 14127 14128 14120 12678 12685 14126 14119 14122 14129 12689 14130 13960 14131 14132 
1770 1771 1996 1995 1795 1796 2021 2020 12523 13963 13964 13956 12694 14134 14135 14127 12685 12692 14133 14126 14129 14136 12696 14137 13967 14138 14139 
1771 1772 1997 1996 1796 1797 2022 2021 12530 13970 13971 13963 12701 14141 14142 14134 12692 12699 14140 14133 14136 14143 12703 14144 13974 14145 14146 
1772 1773 1998 1997 1797 1798 2023 2022 12537 13977 13978 13970 12708 14148 14149 14141 12699 12706 14147 14140 14143 14150 12710 14151 13981 14152 14153 
1773 1774 1999 1998 1798 1799 2024 2023 12544 13984 13985 13977 12715 14155 14156 14148 12706 12713 14154 14147 14150 14157 12717 14158 13988 14159 14160 
CELL_TYPES 1536
29 29 29 29 29 29 29 29 29 29 29 29 29 29 29 29 29 29 29 29 29 29 29 29 29 29 29 29 29 29 29 29 29 29 29 29 29 29 29 29 29 29 29 29 29 29 29 29 29 29 29 29 29 29 29 29 29 29 29 29 29 29 29 29 29 29 29 29 29 29 29 29 29 29 29 29 29 29 29 29 29 29 29 29 29 29 29 29 29 29 29 29 29 29 29 29 29 29 29 29 29 29 29 29 29 29 29 29 29 29 29 29 29 29 29 29 29 29 29 29 29 29 29 29 29 29 29 29 29 29 29 29 29 29 29 29 29 29 29 29 29 29 29 29 29 29 29 29 29 29 29 29 29 29 29 29 29 29 29 29 29 29 29 29 29 29 29 29 29 29 29 29 29 29 29 29 29 29 29 29 29 29 29 29 29 29 29 29 29 29 29 29 29 29 29 29 29 29 29 29 29 29 29 29 29 29 29 29 29 29 29 29 29 29 29 29 29 29 29 29 29 29 29 29 29 29 29 29 29 29 29 29 29 29 29 29 29 29 29 29 29 29 29 29 29 29 29 29 29 29 29 29 29 29 29 29 29 29 29 29 29 29 29 29 29 29 29 29 29 29 29 29 29 29 29 29 29 29 29 29 29 29 29 29 29 29 29 29 29 29 29 29 29 29 29 29 29 29 29 29 29 29 29 29 29 29 29 29 29 29 29 29 29 29 29 29 29 29 29 29 29 29 29 29 29 29 29 29 29 29 29 29 29 29 29 29 29 29 29 29 29 29 29 29 29 29 29 29 29 29 29 29 29 29 29 29 29 29 29 29 29 29 29 29 29 29 29 29 29 29 29 29 29 29 29 29 29 29 29 29 29 29 29 29 29 29 29 29 29 29 29 29 29 29 29 29 29 29 29 29 29 29 29 29 29 29 29 29 29 29 29 29 29 29 29 29 29 29 29 29 29 29 29 29 29 29 29 29 29 29 29 29 29 29 29 29 29 29 29 29 29 29 29 29 29 29 29 29 29 29 29 29 29 29 29 29 29 29 29 29 29 29 29 29 29 29 29 29 29 29 29 29 29 29 29 29 29 29 29 29 29 29 29 29 29 29 29 29 29 29 29 29 29 29 29 29 29 29 29 29 29 29 29 29 29 29 29 29 29 29 29 29 29 29 29 29 29 29 29 29 29 29 29 29 29 29 29 29 29 29 29 29 29 29 29 29 29 29 29 29 29 29 29 29 29 29 29 29 29 29 29 29 29 29 29 29 29 29 29 29 29 29 29 29 29 29 29 29 29 29 29 29 29 29 29 29 29 29 29 29 29 29 29 29 29 29 29 29 29 29 29 29 29 29 29 29 29 29 29 29 29 29 29 29 29 29 29 29 29 29 29 29 29 29 29 29 29 29 29 29 29 29 29 29 29 29 29 29 29 29 29 29 29 29 29 29 29 29 29 29 29 29 29 29 29 29 29 29 29 29 29 29 29 29 29 29 29 29 29 29 29 29 29 29 29 29 29 29 29 29 29 29 29 29 29 29 29 29 29 29 29 29 29 29 29 29 29 29 29 29 29 29 29 29 29 29 29 29 29 29 29 29 29 29 29 29 29 29 29 29 29 29 29 29 29 29 29 29 29 29 29 29 29 29 29 29 29 29 29 29 29 29 29 29 29 29 29 29 29 29 29 29 29 29 29 29 29 29 29 29 29 29 29 29 29 29 29 29 29 29 29 29 29 29 29 29 29 29 29 29 29 29 29 29 29 29 29 29 29 29 29 29 29 29 29 29 29 29 29 29 29 29 29 29 29 29 29 29 29 29 29 29 29 29 29 29 29 29 29 29 29 29 29 29 29 29 29 29 29 29 29 29 29 29 29 29 29 29 29 29 29 29 29 29 29 29 29 29 29 29 29 29 29 29 29 29 29 29 29 29 29 29 29 29 29 29 29 29 29 29 29 29 29 29 29 29 29 29 29 29 29 29 29 29 29 29 29 29 29 29 29 29 29 29 29 29 29 29 29 29 29 29 29 29 29 29 29 29 29 29 29 29 29 29 29 29 29 29 29 29 29 29 29 29 29 29 29 29 29 29 29 29 29 29 29 29 29 29 29 29 29 29 29 29 29 29 29 29 29 29 29 29 29 29 29 29 29 29 29 29 29 29 29 29 29 29 29 29 29 29 29 29 29 29 29 29 29 29 29 29 29 29 29 29 29 29 29 29 29 29 29 29 29 29 29 29 29 29 29 29 29 29 29 29 29 29 29 29 29 29 29 29 29 29 29 29 29 29 29 29 29 29 29 29 29 29 29 29 29 29 29 29 29 29 29 29 29 29 29 29 29 29 29 29 29 29 29 29 29 29 29 29 29 29 29 29 29 29 29 29 29 29 29 29 29 29 29 29 29 29 29 29 29 29 29 29 29 29 29 29 29 29 29 29 29 29 29 29 29 29 29 29 29 29 29 29 29 29 29 29 29 29 29 29 29 29 29 29 29 29 29 29 29 29 29 29 29 29 29 29 29 29 29 29 29 29 29 29 29 29 29 29 29 29 29 29 29 29 29 29 29 29 29 29 29 29 29 29 29 29 29 29 29 29 29 29 29 29 29 29 29 29 29 29 29 29 29 29 29 29 29 29 29 29 29 29 29 29 29 29 29 29 29 29 29 29 29 29 29 29 29 29 29 29 29 29 29 29 29 29 29 29 29 29 29 29 29 29 29 29 29 29 29 29 29 29 29 29 29 29 29 29 29 29 29 29 29 29 29 29 29 29 29 29 29 29 29 29 29 29 29 29 29 29 29 29 29 29 29 29 29 29 29 29 29 29 29 29 29 29 29 29 29 29 29 29 29 29 29 29 29 29 29 29 29 29 29 29 29 29 29 29 29 29 29 29 29 29 29 29 29 29 29 29 29 29 29 29 29 29 29 29 29 29 29 29 29 29 29 29 29 29 29 29 29 29 29 29 29 29 29 29 29 29 29 29 29 29 29 29 29 29 29 29 29 29 29 29 29 29 29 29 29 29 29 29 29 29 29 29 29 29 29 29 29 29 29 29 29 29 29 29 29 29 29 29 29 29 29 29 29 29 29 29 29 29 29 29 29 29 29 29 29 29 29 29 29 29 29 29 29 29 29 29 29 29 29 29 29 29 29 29 29 29 29 29 29 29 29 29 29 29 29 29 29 29 29 29 29 29 29 29 29 29 29 29 29 29 29 29 29 29 29 29 29 29 29 29 29 29 29 29 29 29 29 29 29 29 29 29 29 29 29 29 29 29 29 29 29 29 29 29 29 29 29 29 29 29 29 29 29 29 29 29 29 29 29 29 29 29 29 29 29 29 29 29 29 29 29 29 29 29 29 29 29 29 29 29 29 29 29 29 29 29 29 29 29 29 29 29 29 29 29 29 29 29 29 29 29 29 29 29 29 29 29 29 29 29 29 29 29 29 29 29 29 29 29 29 29 29 29 29 29 29 29 29 

POINT_DATA 14161
SCALARS weights float 1
LOOKUP_TABLE default
0.072338 0.144676 0.144676 0.144676 0.144676 0.144676 0.144676 0.144676 0.144676 0.144676 0.144676 0.144676 0.144676 0.144676 0.144676 0.144676 0.144676 0.144676 0.144676 0.144676 0.144676 0.144676 0.144676 0.144676 0.072338 0.144676 0.289352 0.289352 0.289352 0.289352 0.289352 0.289352 0.289352 0.289352 0.289352 0.289352 0.289352 0.289352 0.289352 0.289352 0.289352 0.289352 0.289352 0.289352 0.289352 0.289352 0.289352 0.289352 0.289352 0.144676 0.144676 0.289352 0.289352 0.289352 0.289352 0.289352 0.289352 0.289352 0.289352 0.289352 0.289352 0.289352 0.289352 0.289352 0.289352 0.289352 0.289352 0.289352 0.289352 0.289352 0.289352 0.289352 0.289352 0.289352 0.144676 0.144676 0.289352 0.289352 0.289352 0.289352 0.289352 0.289352 0.289352 0.289352 0.289352 0.289352 0.289352 0.289352 0.289352 0.289352 0.289352 0.289352 0.289352 0.289352 0.289352 0.289352 0.289352 0.289352 0.289352 0.144676 0.144676 0.289352 0.289352 0.289352 0.289352 0.289352 0.289352 0.289352 0.289352 0.289352 0.289352 0.289352 0.289352 0.289352 0.289352 0.289352 0.289352 0.289352 0.289352 0.289352 0.289352 0.289352 0.289352 0.289352 0.144676 0.144676 0.289352 0.289352 0.289352 0.289352 0.289352 0.289352 0.289352 0.289352 0.289352 0.289352 0.289352 0.289352 0.289352 0.289352 0.289352 0.289352 0.289352 0.289352 0.289352 0.289352 0.289352 0.289352 0.289352 0.144676 0.144676 0.289352 0.289352 0.289352 0.289352 0.289352 0.289352 0.289352 0.289352 0.289352 0.289352 0.289352 0.289352 0.289352 0.289352 0.289352 0.289352 0.289352 0.289352 0.289352 0.289352 0.289352 0.289352 0.289352 0.144676 0.144676 0.289352 0.289352 0.289352 0.289352 0.289352 0.289352 0.289352 0.289352 0.289352 0.289352 0.289352 0.289352 0.289352 0.289352 0.289352 0.289352 0.289352 0.289352 0.289352 0.289352 0.289352 0.289352 0.289352 0.144676 0.072338 0.144676 0.144676 0.144676 0.144676 0.144676 0.144676 0.144676 0.144676 0.144676 0.144676 0.144676 0.144676 0.144676 0.144676 0.144676 0.144676 0.144676 0.144676 0.144676 0.144676 0.144676 0.144676 0.144676 0.072338 0.144676 0.289352 0.289352 0.289352 0.289352 0.289352 0.289352 0.289352 0.289352 0.289352 0.289352 0.289352 0.289352 0.289352 0.289352 0.289352 0.289352 0.289352 0.289352 0.289352 0.289352 0.289352 0.289352 0.289352 0.144676 0.289352 0.578704 0.578704 0.578704 0.578704 0.578704 0.578704 0.578704 0.578704 0.578704 0.578704 0.578704 0.578704 0.578704 0.578704 0.578704 0.578704 0.578704 0.578704 0.578703 0.578704 0.578704 0.578704 0.578704 0.289352 0.289352 0.578704 0.578704 0.578704 0.578704 0.578704 0.578704 0.578704 0.578704 0.578704 0.578704 0.578704 0.578704 0.578704 0.578704 0.578704 0.578704 0.578704 0.578703 0.578703 0.578704 0.578704 0.578704 0.578704 0.289352 0.289352 0.578704 0.578704 0.578704 0.578704 0.578704 0.578704 0.578704 0.578704 0.578704 0.578704 0.578704 0.578704 0.578704 0.578704 0.578704 0.578704 0.578704 0.578703 0.578703 0.578704 0.578704 0.578704 0.578704 0.289352 0.289352 0.578704 0.578704 0.578704 0.578704 0.578704 0.578704 0.578704 0.578704 0.578704 0.578703 0.578704 0.578704 0.578704 0.578704 0.578704 0.578704 0.578704 0.578703 0.578703 0.578704 0.578704 0.578704 0.578704 0.289352 0.289352 0.578704 0.578704 0.578704 0.578704 0.578704 0.578704 0.578704 0.578704 0.578704 0.578704 0.578704 0.578704 0.578704 0.578704 0.578704 0.578704 0.578704 0.578703 0.578703 0.578704 0.578704 0.578704 0.578704 0.289352 0.289352 0.578704 0.578704 0.578704 0.578704 0.578704 0.578704 0.578704 0.578704 0.578704 0.578704 0.578704 0.578704 0.578704 0.578704 0.578704 0.578704 0.578704 0.578704 0.578703 0.578704 0.578704 0.578704 0.578704 0.289352 0.289352 0.578704 0.578704 0.578704 0.578704 0.578704 0.578704 0.578704 0.578704 0.578704 0.578704 0.578704 0.578704 0.578704 0.578704 0.578704 0.578704 0.578704 0.578703 0.578703 0.578704 0.578704 0.578704 0.578704 0.289352 0.144676 0.289352 0.289352 0.289352 0.289352 0.289352 0.289352 0.289352 0.289352 0.289352 0.289352 0.289352 0.289352 0.289352 0.289352 0.289352 0.289352 0.289352 0.289352 0.289352 0.289352 0.289352 0.289352 0.289352 0.144676 0.144676 0.289352 0.289352 0.289352 0.289352 0.289352 0.289352 0.289352 0.289352 0.289352 0.289352 0.289352 0.289352 0.289352 0.289352 0.289352 0.289352 0.289352 0.289352 0.289352 0.289352 0.289352 0.289352 0.289352 0.144676 0.289352 0.578704 0.578704 0.578704 0.578704 0.578704 0.578704 0.578704 0.578704 0.578704 0.578704 0.578704 0.578704 0.578704 0.578704 0.578704 0.578704 0.578704 0.578704 0.578703 0.578704 0.578704 0.578704 0.578704 0.289352 0.289352 0.578704 0.578704 0.578704 0.578704 0.578704 0.578704 0.578704 0.578704 0.578704 0.578704 0.578704 0.578704 0.578704 0.578704 0.578704 0.578704 0.578704 0.578703 0.578703 0.578704 0.578704 0.578704 0.578704 0.289352 0.289352 0.578704 0.578704 0.578704 0.578704 0.578704 0.578704 0.578704 0.578704 0.578704 0.578704 0.578704 0.578704 0.578704 0.578704 0.578704 0.578704 0.578704 0.578703 0.578703 0.578704 0.578704 0.578704 0.578704 0.289352 0.289352 0.578704 0.578704 0.578704 0.578704 0.578704 0.578704 0.578704 0.578704 0.578704 0.578703 0.578704 0.578704 0.578704 0.578704 0.578704 0.578704 0.578704 0.578703 0.578703 0.578704 0.578704 0.578704 0.578704 0.289352 0.289352 0.578704 0.578704 0.578704 0.578704 0.578704 0.578704 0.578704 0.578704 0.578704 0.578704 0.578704 0.578704 0.578704 0.578704 0.578704 0.578704 0.578704 0.578703 0.578703 0.578704 0.578704 0.578704 0.578704 0.289352 0.289352 0.578704 0.578704 0.578704 0.578704 0.578704 0.578704 0.578704 0.578704 0.578704 0.578704 0.578704 0.578704 0.578704 0.578704 0.578704 0.578704 0.578704 0.578704 0.578703 0.578704 0.578704 0.578704 0.578704 0.289352 0.289352 0.578704 0.578704 0.578704 0.578704 0.578704 0.578704 0.578704 0.578704 0.578704 0.578704 0.578704 0.578704 0.578704 0.578704 0.578704 0.578704 0.578704 0.578703 0.578703 0.578704 0.578704 0.578704 0.578704 0.289352 0.144676 0.289352 0.289352 0.289352 0.289352 0.289352 0.289352 0.289352 0.289352 0.289352 0.289352 0.289352 0.289352 0.289352 0.289352 0.289352 0.289352 0.289352 0.289352 0.289352 0.289352 0.289352 0.289352 0.289352 0.144676 0.144676 0.289352 0.289352 0.289352 0.289352 0.289352 0.289352 0.289352 0.289352 0.289352 0.289352 0.289352 0.289352 0.289352 0.289352 0.289352 0.289352 0.289352 0.289352 0.289352 0.289352 0.289352 0.289352 0.289352 0.144676 0.289352 0.578704 0.578704 0.578704 0.578704 0.578704 0.578704 0.578704 0.578704 0.578704 0.578704 0.578704 0.578704 0.578704 0.578704 0.578704 0.578704 0.578704 0.578703 0.578703 0.578704 0.578704 0.578704 0.578704 0.289352 0.289352 0.578704 0.578704 0.578704 0.578704 0.578704 0.578704 0.578704 0.578704 0.578704 0.578704 0.578704 0.578704 0.578704 0.578704 0.578704 0.578704 0.578704 0.578703 0.578703 0.578704 0.578704 0.578704 0.578704 0.289352 0.289352 0.578704 0.578704 0.578704 0.578704 0.578704 0.578704 0.578704 0.578704 0.578704 0.578703 0.578704 0.578704 0.578704 0.578704 0.578704 0.578704 0.578704 0.578703 0.578703 0.578704 0.578704 0.578704 0.578704 0.289352 0.289352 0.578704 0.578704 0.578704 0.578704 0.578704 0.578704 0.578704 0.578704 0.578704 0.578703 0.578704 0.578704 0.578704 0.578704 0.578704 0.578704 0.578704 0.578703 0.578703 0.578704 0.578704 0.578703 0.578704 0.289352 0.289352 0.578704 0.578704 0.578704 0.578704 0.578704 0.578704 0.578704 0.578704 0.578704 0.578704 0.578704 0.578704 0.578704 0.578704 0.578704 0.578704 0.578704 0.578703 0.578703 0.578704 0.578704 0.578703 0.578704 0.289352 0.289352 0.578704 0.578704 0.578704 0.578704 0.578704 0.578704 0.578704 0.578704 0.578704 0.578704 0.578704 0.578704 0.578704 0.578704 0.578704 0.578704 0.578704 0.578703 0.578703 0.578704 0.578704 0.578704 0.578704 0.289352 0.289352 0.578704 0.578704 0.578704 0.578704 0.578704 0.578704 0.578704 0.578704 0.578704 0.578704 0.578704 0.578704 0.578704 0.578704 0.578704 0.578704 0.578704 0.578703 0.578703 0.578704 0.578704 0.578703 0.578704 0.289352 0.144676 0.289352 0.289352 0.289352 0.289352 0.289352 0.289352 0.289352 0.289352 0.289352 0.289352 0.289352 0.289352 0.289352 0.289352 0.289352 0.289352 0.289352 0.289352 0.289352 0.289352 0.289352 0.289352 0.289352 0.144676 0.144676 0.289352 0.289352 0.289352 0.289352 0.289352 0.289352 0.289352 0.289352 0.289352 0.289352 0.289352 0.289352 0.289352 0.289352 0.289352 0.289352 0.289352 0.289352 0.289352 0.289352 0.289352 0.289352 0.289352 0.144676 0.289352 0.578704 0.578704 0.578704 0.578704 0.578704 0.578704 0.578704 0.578704 0.578704 0.578704 0.578704 0.578704 0.578704 0.578704 0.578704 0.578704 0.578704 0.578703 0.578703 0.578704 0.578704 0.578703 0.578704 0.289352 0.289352 0.578704 0.578704 0.578704 0.578704 0.578704 0.578704 0.578704 0.578704 0.578704 0.578703 0.578704 0.578704 0.578704 0.578704 0.578704 0.578704 0.578704 0.578703 0.578703 0.578704 0.578704 0.578703 0.578704 0.289352 0.289352 0.578704 0.578704 0.578704 0.578704 0.578704 0.578704 0.578704 0.578704 0.578704 0.578703 0.578704 0.578704 0.578704 0.578704 0.578704 0.578704 0.578704 0.578703 0.578703 0.578704 0.578704 0.578703 0.578704 0.289352 0.289352 0.578704 0.578704 0.578704 0.578703 0.578704 0.578704 0.578704 0.578704 0.578704 0.578703 0.578703 0.578704 0.578704 0.578704 0.578704 0.578704 0.578704 0.578703 0.578703 0.578703 0.578704 0.578703 0.578703 0.289352 0.289352 0.578704 0.578704 0.578704 0.578704 0.578704 0.578704 0.578704 0.578704 0.578704 0.578703 0.578704 0.578704 0.578704 0.578704 0.578704 0.578704 0.578704 0.578703 0.578703 0.578704 0.578704 0.578703 0.578704 0.289352 0.289352 0.578704 0.578704 0.578704 0.578704 0.578704 0.578704 0.578704 0.578704 0.578704 0.578704 0.578704 0.578704 0.578704 0.578704 0.578704 0.578704 0.578704 0.578703 0.578703 0.578704 0.578704 0.578704 0.578704 0.289352 0.289352 0.578704 0.578704 0.578704 0.578704 0.578704 0.578704 0.578704 0.578704 0.578704 0.578703 0.578704 0.578704 0.578704 0.578704 0.578704 0.578704 0.578704 0.578703 0.578703 0.578704 0.578704 0.578703 0.578704 0.289352 0.144676 0.289352 0.289352 0.289352 0.289352 0.289352 0.289352 0.289352 0.289352 0.289352 0.289352 0.289352 0.289352 0.289352 0.289352 0.289352 0.289352 0.289352 0.289352 0.289352 0.289352 0.289352 0.289352 0.289352 0.144676 0.144676 0.289352 0.289352 0.289352 0.289352 0.289352 0.289352 0.289352 0.289352 0.289352 0.289352 0.289352 0.289352 0.289352 0.289352 0.289352 0.289352 0.289352 0.289352 0.289352 0.289352 0.289352 0.289352 0.289352 0.144676 0.289352 0.578704 0.578704 0.578704 0.578704 0.578704 0.578704 0.578704 0.578704 0.578704 0.578704 0.578704 0.578704 0.578704 0.578704 0.578704 0.578704 0.578704 0.578703 0.578703 0.578704 0.578704 0.578704 0.578704 0.289352 0.289352 0.578704 0.578704 0.578704 0.578704 0.578704 0.578704 0.578704 0.578704 0.578704 0.578704 0.578704 0.578704 0.578704 0.578704 0.578704 0.578704 0.578704 0.578703 0.578703 0.578704 0.578704 0.578704 0.578704 0.289352 0.289352 0.578704 0.578704 0.578704 0.578704 0.578704 0.578704 0.578704 0.578704 0.578704 0.578704 0.578704 0.578704 0.578704 0.578704 0.578704 0.578704 0.578704 0.578703 0.578703 0.578704 0.578704 0.578703 0.578704 0.289352 0.289352 0.578704 0.578704 0.578704 0.578704 0.578704 0.578704 0.578704 0.578704 0.578704 0.578703 0.578704 0.578704 0.578704 0.578704 0.578704 0.578704 0.578704 0.578703 0.578703 0.578704 0.578704 0.578703 0.578704 0.289352 0.289352 0.578704 0.578704 0.578704 0.578704 0.578704 0.578704 0.578704 0.578704 0.578704 0.578704 0.578704 0.578704 0.578704 0.578704 0.578704 0.578704 0.578704 0.578703 0.578703 0.578704 0.578704 0.578703 0.578704 0.289352 0.289352 0.578704 0.578704 0.578704 0.578704 0.578704 0.578704 0.578704 0.578704 0.578704 0.578704 0.578704 0.578704 0.578704 0.578704 0.578704 0.578704 0.578704 0.578704 0.578703 0.578704 0.578704 0.578704 0.578704 0.289352 0.289352 0.578704 0.578704 0.578704 0.578704 0.578704 0.578704 0.578704 0.578704 0.578704 0.578704 0.578704 0.578704 0.578704 0.578704 0.578704 0.578704 0.578704 0.578703 0.578703 0.578704 0.578704 0.578703 0.578704 0.289352 0.144676 0.289352 0.289352 0.289352 0.289352 0.289352 0.289352 0.289352 0.289352 0.289352 0.289352 0.289352 0.289352 0.289352 0.289352 0.289352 0.289352 0.289352 0.289352 0.289352 0.289352 0.289352 0.289352 0.289352 0.144676 0.144676 0.289352 0.289352 0.289352 0.289352 0.289352 0.289352 0.289352 0.289352 0.289352 0.289352 0.289352 0.289352 0.289352 0.289352 0.289352 0.289352 0.289352 0.289352 0.289352 0.289352 0.289352 0.289352 0.289352 0.144676 0.289352 0.578704 0.578704 0.578704 0.578704 0.578704 0.578704 0.578704 0.578704 0.578704 0.578704 0.578704 0.578704 0.578704 0.578704 0.578704 0.578704 0.578704 0.578704 0.578703 0.578704 0.578704 0.578704 0.578704 0.289352 0.289352 0.578704 0.578704 0.578704 0.578704 0.578704 0.578704 0.578704 0.578704 0.578704 0.578704 0.578704 0.578704 0.578704 0.578704 0.578704 0.578704 0.578704 0.578704 0.578703 0.578704 0.578704 0.578704 0.578704 0.289352 0.289352 0.578704 0.578704 0.578704 0.578704 0.578704 0.578704 0.578704 0.578704 0.578704 0.578704 0.578704 0.578704 0.578704 0.578704 0.578704 0.578704 0.578704 0.578704 0.578703 0.578704 0.578704 0.578704 0.578704 0.289352 0.289352 0.578704 0.578704 0.578704 0.578704 0.578704 0.578704 0.578704 0.578704 0.578704 0.578704 0.578704 0.578704 0.578704 0.578704 0.578704 0.578704 0.578704 0.578703 0.578703 0.578704 0.578704 0.578704 0.578704 0.289352 0.289352 0.578704 0.578704 0.578704 0.578704 0.578704 0.578704 0.578704 0.578704 0.578704 0.578704 0.578704 0.578704 0.578704 0.578704 0.578704 0.578704 0.578704 0.578704 0.578703 0.578704 0.578704 0.578704 0.578704 0.289352 0.289352 0.578704 0.578704 0.578704 0.578704 0.578704 0.578704 0.578704 0.578704 0.578704 0.578704 0.578704 0.578704 0.578704 0.578704 0.578704 0.578704 0.578704 0.578704 0.578703 0.578704 0.578704 0.578704 0.578704 0.289352 0.289352 0.578704 0.578704 0.578704 0.578704 0.578704 0.578704 0.578704 0.578704 0.578704 0.578704 0.578704 0.578704 0.578704 0.578704 0.578704 0.578704 0.578704 0.578704 0.578703 0.578704 0.578704 0.578704 0.578704 0.289352 0.144676 0.289352 0.289352 0.289352 0.289352 0.289352 0.289352 0.289352 0.289352 0.289352 0.289352 0.289352 0.289352 0.289352 0.289352 0.289352 0.289352 0.289352 0.289352 0.289352 0.289352 0.289352 0.289352 0.289352 0.144676 0.144676 0.289352 0.289352 0.289352 0.289352 0.289352 0.289352 0.289352 0.289352 0.289352 0.289352 0.289352 0.289352 0.289352 0.289352 0.289352 0.289352 0.289352 0.289352 0.289352 0.289352 0.289352 0.289352 0.289352 0.144676 0.289352 0.578704 0.578704 0.578704 0.578704 0.578704 0.578704 0.578704 0.578704 0.578704 0.578704 0.578704 0.578704 0.578704 0.578704 0.578704 0.578704 0.578704 0.578704 0.578703 0.578704 0.578704 0.578704 0.578704 0.289352 0.289352 0.578704 0.578704 0.578704 0.578704 0.578704 0.578704 0.578704 0.578704 0.578704 0.578704 0.578704 0.578704 0.578704 0.578704 0.578704 0.578704 0.578704 0.578704 0.578703 0.578704 0.578704 0.578704 0.578704 0.289352 0.289352 0.578704 0.578704 0.578704 0.578704 0.578704 0.578704 0.578704 0.578704 0.578704 0.578704 0.578704 0.578704 0.578704 0.578704 0.578704 0.578704 0.578704 0.578703 0.578703 0.578704 0.578704 0.578704 0.578704 0.289352 0.289352 0.578704 0.578704 0.578704 0.578704 0.578704 0.578704 0.578704 0.578704 0.578704 0.578703 0.578704 0.578704 0.578704 0.578704 0.578704 0.578704 0.578704 0.578703 0.578703 0.578704 0.578704 0.578703 0.578704 0.289352 0.289352 0.578704 0.578704 0.578704 0.578704 0.578704 0.578704 0.578704 0.578704 0.578704 0.578704 0.578704 0.578704 0.578704 0.578704 0.578704 0.578704 0.578704 0.578703 0.578703 0.578704 0.578704 0.578704 0.578704 0.289352 0.289352 0.578704 0.578704 0.578704 0.578704 0.578704 0.578704 0.578704 0.578704 0.578704 0.578704 0.578704 0.578704 0.578704 0.578704 0.578704 0.578704 0.578704 0.578704 0.578703 0.578704 0.578704 0.578704 0.578704 0.289352 0.289352 0.578704 0.578704 0.578704 0.578704 0.578704 0.578704 0.578704 0.578704 0.578704 0.578704 0.578704 0.578704 0.578704 0.578704 0.578704 0.578704 0.578704 0.578704 0.578703 0.578704 0.578704 0.578704 0.578704 0.289352 0.144676 0.289352 0.289352 0.289352 0.289352 0.289352 0.289352 0.289352 0.289352 0.289352 0.289352 0.289352 0.289352 0.289352 0.289352 0.289352 0.289352 0.289352 0.289352 0.289352 0.289352 0.289352 0.289352 0.289352 0.144676 0.072338 0.144676 0.144676 0.144676 0.144676 0.144676 0.144676 0.144676 0.144676 0.144676 0.144676 0.144676 0.144676 0.144676 0.144676 0.144676 0.144676 0.144676 0.144676 0.144676 0.144676 0.144676 0.144676 0.144676 0.072338 0.144676 0.289352 0.289352 0.289352 0.289352 0.289352 0.289352 0.289352 0.289352 0.289352 0.289352 0.289352 0.289352 0.289352 0.289352 0.289352 0.289352 0.289352 0.289352 0.289352 0.289352 0.289352 0.289352 0.289352 0.144676 0.144676 0.289352 0.289352 0.289352 0.289352 0.289352 0.289352 0.289352 0.289352 0.289352 0.289352 0.289352 0.289352 0.289352 0.289352 0.289352 0.289352 0.289352 0.289352 0.289352 0.289352 0.289352 0.289352 0.289352 0.144676 0.144676 0.289352 0.289352 0.289352 0.289352 0.289352 0.289352 0.289352 0.289352 0.289352 0.289352 0.289352 0.289352 0.289352 0.289352 0.289352 0.289352 0.289352 0.289352 0.289352 0.289352 0.289352 0.289352 0.289352 0.144676 0.144676 0.289352 0.289352 0.289352 0.289352 0.289352 0.289352 0.289352 0.289352 0.289352 0.289352 0.289352 0.289352 0.289352 0.289352 0.289352 0.289352 0.289352 0.289352 0.289352 0.289352 0.289352 0.289352 0.289352 0.144676 0.144676 0.289352 0.289352 0.289352 0.289352 0.289352 0.289352 0.289352 0.289352 0.289352 0.289352 0.289352 0.289352 0.289352 0.289352 0.289352 0.289352 0.289352 0.289352 0.289352 0.289352 0.289352 0.289352 0.289352 0.144676 0.144676 0.289352 0.289352 0.289352 0.289352 0.289352 0.289352 0.289352 0.289352 0.289352 0.289352 0.289352 0.289352 0.289352 0.289352 0.289352 0.289352 0.289352 0.289352 0.289352 0.289352 0.289352 0.289352 0.289352 0.144676 0.144676 0.289352 0.289352 0.289352 0.289352 0.289352 0.289352 0.289352 0.289352 0.289352 0.289352 0.289352 0.289352 0.289352 0.289352 0.289352 0.289352 0.289352 0.289352 0.289352 0.289352 0.289352 0.289352 0.289352 0.144676 0.0723379 0.144676 0.144676 0.144676 0.144676 0.144676 0.144676 0.144676 0.144676 0.144676 0.144676 0.144676 0.144676 0.144676 0.144676 0.144676 0.144676 0.144676 0.144676 0.144676 0.144676 0.144676 0.144676 0.144676 0.0723379 0.072338 0.144676 0.144676 0.072338 0.072338 0.144676 0.289352 0.144676 0.144676 0.289352 0.289352 0.144676 0.072338 0.072338 0.144676 0.144676 0.072338 0.144676 0.072338 0.072338 0.144676 0.144676 0.144676 0.289352 0.144676 0.289352 0.289352 0.072338 0.072338 0.144676 0.144676 0.144676 0.072338 0.072338 0.144676 0.144676 0.144676 0.289352 0.144676 0.289352 0.289352 0.072338 0.072338 0.144676 0.144676 0.144676 0.072338 0.072338 0.144676 0.144676 0.144676 0.289352 0.144676 0.289352 0.289352 0.072338 0.072338 0.144676 0.144676 0.144676 0.072338 0.072338 0.144676 0.144676 0.144676 0.289352 0.144676 0.289352 0.289352 0.072338 0.072338 0.144676 0.144676 0.144676 0.072338 0.072338 0.144676 0.144676 0.144676 0.289352 0.144676 0.289352 0.289352 0.072338 0.072338 0.144676 0.144676 0.144676 0.072338 0.072338 0.144676 0.144676 0.144676 0.289352 0.144676 0.289352 0.289352 0.072338 0.072338 0.144676 0.144676 0.144676 0.072338 0.072338 0.144676 0.144676 0.144676 0.289352 0.144676 0.289352 0.289352 0.072338 0.072338 0.144676 0.144676 0.144676 0.072338 0.072338 0.144676 0.144676 0.144676 0.289352 0.144676 0.289352 0.289352 0.072338 0.072338 0.144676 0.144676 0.144676 0.072338 0.0723379 0.144676 0.144676 0.144676 0.289352 0.144676 0.289352 0.289352 0.0723379 0.0723379 0.144676 0.144676 0.144676 0.0723379 0.0723379 0.144676 0.144676 0.144676 0.289352 0.144676 0.289352 0.289352 0.0723379 0.0723379 0.144676 0.144676 0.144676 0.0723379 0.072338 0.144676 0.144676 0.144676 0.289352 0.144676 0.289352 0.289352 0.072338 0.072338 0.144676 0.144676 0.144676 0.072338 0.072338 0.144676 0.144676 0.144676 0.289352 0.144676 0.289352 0.289352 0.072338 0.072338 0.144676 0.144676 0.144676 0.072338 0.072338 0.144676 0.144676 0.144676 0.289352 0.144676 0.289352 0.289352 0.072338 0.072338 0.144676 0.144676 0.144676 0.072338 0.0723379 0.144676 0.144676 0.144676 0.289352 0.144676 0.289352 0.289352 0.0723379 0.0723379 0.144676 0.144676 0.144676 0.0723379 0.072338 0.144676 0.144676 0.144676 0.289352 0.144676 0.289352 0.289352 0.072338 0.072338 0.144676 0.144676 0.144676 0.072338 0.072338 0.144676 0.144676 0.144676 0.289352 0.144676 0.289352 0.289352 0.072338 0.072338 0.144676 0.144676 0.144676 0.072338 0.0723379 0.144676 0.144676 0.144676 0.289352 0.144676 0.289352 0.289352 0.0723379 0.0723379 0.144676 0.144676 0.144676 0.0723379 0.0723379 0.144676 0.144676 0.144676 0.289352 0.144676 0.289352 0.289352 0.0723379 0.0723379 0.144676 0.144676 0.144676 0.0723379 0.0723379 0.144676 0.144676 0.144676 0.289352 0.144676 0.289352 0.289352 0.0723379 0.0723379 0.144676 0.144676 0.144676 0.0723379 0.072338 0.144676 0.144676 0.144676 0.289352 0.144676 0.289352 0.289352 0.072338 0.072338 0.144676 0.144676 0.144676 0.072338 0.072338 0.144676 0.144676 0.144676 0.289352 0.144676 0.289352 0.289352 0.072338 0.072338 0.144676 0.144676 0.144676 0.072338 0.0723379 0.144676 0.144676 0.144676 0.289352 0.144676 0.289352 0.289352 0.0723379 0.0723379 0.144676 0.144676 0.144676 0.0723379 0.072338 0.072338 0.144676 0.072338 0.144676 0.144676 0.144676 0.289352 0.072338 0.072338 0.072338 0.144676 0.144676 0.072338 0.072338 0.144676 0.289352 0.144676 0.144676 0.289352 0.289352 0.144676 0.072338 0.144676 0.144676 0.072338 0.144676 0.072338 0.144676 0.289352 0.144676 0.289352 0.289352 0.072338 0.144676 0.144676 0.144676 0.072338 0.144676 0.289352 0.144676 0.289352 0.289352 0.072338 0.144676 0.144676 0.144676 0.072338 0.144676 0.289352 0.144676 0.289352 0.289352 0.072338 0.144676 0.144676 0.144676 0.072338 0.144676 0.289352 0.144676 0.289352 0.289352 0.072338 0.144676 0.144676 0.144676 0.072338 0.144676 0.289352 0.144676 0.289352 0.289352 0.072338 0.144676 0.144676 0.144676 0.072338 0.144676 0.289352 0.144676 0.289352 0.289352 0.072338 0.144676 0.144676 0.144676 0.072338 0.144676 0.289352 0.144676 0.289352 0.289352 0.072338 0.144676 0.144676 0.144676 0.072338 0.144676 0.289352 0.144676 0.289352 0.289352 0.072338 0.144676 0.144676 0.144676 0.072338 0.144676 0.289352 0.144676 0.289352 0.289352 0.0723379 0.144676 0.144676 0.144676 0.0723379 0.144676 0.289352 0.144676 0.289352 0.289352 0.0723379 0.144676 0.144676 0.144676 0.0723379 0.144676 0.289352 0.144676 0.289352 0.289352 0.072338 0.144676 0.144676 0.144676 0.072338 0.144676 0.289352 0.144676 0.289352 0.289352 0.072338 0.144676 0.144676 0.144676 0.072338 0.144676 0.289352 0.144676 0.289352 0.289352 0.072338 0.144676 0.144676 0.144676 0.072338 0.144676 0.289352 0.144676 0.289352 0.289352 0.0723379 0.144676 0.144676 0.144676 0.0723379 0.144676 0.289352 0.144676 0.289352 0.289352 0.072338 0.144676 0.144676 0.144676 0.072338 0.144676 0.289352 0.144676 0.289352 0.289352 0.072338 0.144676 0.144676 0.144676 0.072338 0.144676 0.289352 0.144676 0.289352 0.289352 0.0723379 0.144676 0.144676 0.144676 0.0723379 0.144676 0.289352 0.144676 0.289352 0.289352 0.0723379 0.144676 0.144676 0.144676 0.0723379 0.144676 0.289352 0.144676 0.289352 0.289352 0.0723379 0.144676 0.144676 0.144676 0.0723379 0.144676 0.289352 0.144676 0.289352 0.289352 0.072338 0.144676 0.144676 0.144676 0.072338 0.144676 0.289352 0.144676 0.289352 0.289352 0.072338 0.144676 0.144676 0.144676 0.072338 0.144676 0.289352 0.144676 0.289352 0.289352 0.0723379 0.144676 0.144676 0.144676 0.0723379 0.072338 0.144676 0.144676 0.144676 0.289352 0.072338 0.072338 0.144676 0.144676 0.072338 0.072338 0.144676 0.289352 0.144676 0.144676 0.289352 0.289352 0.144676 0.072338 0.144676 0.144676 0.072338 0.144676 0.072338 0.144676 0.289352 0.144676 0.289352 0.289352 0.072338 0.144676 0.144676 0.144676 0.072338 0.144676 0.289352 0.144676 0.289352 0.289352 0.072338 0.144676 0.144676 0.144676 0.072338 0.144676 0.289352 0.144676 0.289352 0.289352 0.072338 0.144676 0.144676 0.144676 0.072338 0.144676 0.289352 0.144676 0.289352 0.289352 0.072338 0.144676 0.144676 0.144676 0.072338 0.144676 0.289352 0.144676 0.289352 0.289352 0.072338 0.144676 0.144676 0.144676 0.072338 0.144676 0.289352 0.144676 0.289352 0.289352 0.072338 0.144676 0.144676 0.144676 0.072338 0.144676 0.289352 0.144676 0.289352 0.289352 0.072338 0.144676 0.144676 0.144676 0.072338 0.144676 0.289352 0.144676 0.289352 0.289352 0.072338 0.144676 0.144676 0.144676 0.072338 0.144676 0.289352 0.144676 0.289352 0.289352 0.0723379 0.144676 0.144676 0.144676 0.0723379 0.144676 0.289352 0.144676 0.289352 0.289352 0.0723379 0.144676 0.144676 0.144676 0.0723379 0.144676 0.289352 0.144676 0.289352 0.289352 0.072338 0.144676 0.144676 0.144676 0.072338 0.144676 0.289352 0.144676 0.289352 0.289352 0.072338 0.144676 0.144676 0.144676 0.072338 0.144676 0.289352 0.144676 0.289352 0.289352 0.072338 0.144676 0.144676 0.144676 0.072338 0.144676 0.289352 0.144676 0.289352 0.289352 0.0723379 0.144676 0.144676 0.144676 0.0723379 0.144676 0.289352 0.144676 0.289352 0.289352 0.072338 0.144676 0.144676 0.144676 0.072338 0.144676 0.289352 0.144676 0.289352 0.289352 0.072338 0.144676 0.144676 0.144676 0.072338 0.144676 0.289352 0.144676 0.289352 0.289352 0.0723379 0.144676 0.144676 0.144676 0.0723379 0.144676 0.289352 0.144676 0.289352 0.289352 0.0723379 0.144676 0.144676 0.144676 0.0723379 0.144676 0.289352 0.144676 0.289352 0.289352 0.0723379 0.144676 0.144676 0.144676 0.0723379 0.144676 0.289352 0.144676 0.289352 0.289352 0.072338 0.144676 0.144676 0.144676 0.072338 0.144676 0.289352 0.144676 0.289352 0.289352 0.072338 0.144676 0.144676 0.144676 0.072338 0.144676 0.289352 0.144676 0.289352 0.289352 0.0723379 0.144676 0.144676 0.144676 0.0723379 0.072338 0.144676 0.144676 0.144676 0.289352 0.072338 0.072338 0.144676 0.144676 0.072338 0.072338 0.144676 0.289352 0.144676 0.144676 0.289352 0.289352 0.144676 0.072338 0.144676 0.144676 0.072338 0.144676 0.072338 0.144676 0.289352 0.144676 0.289352 0.289352 0.072338 0.144676 0.144676 0.144676 0.072338 0.144676 0.289352 0.144676 0.289352 0.289352 0.072338 0.144676 0.144676 0.144676 0.072338 0.144676 0.289352 0.144676 0.289352 0.289352 0.0723379 0.144676 0.144676 0.144676 0.0723379 0.144676 0.289352 0.144676 0.289352 0.289352 0.072338 0.144676 0.144676 0.144676 0.072338 0.144676 0.289352 0.144676 0.289352 0.289352 0.072338 0.144676 0.144676 0.144676 0.072338 0.144676 0.289352 0.144676 0.289352 0.289352 0.072338 0.144676 0.144676 0.144676 0.072338 0.144676 0.289352 0.144676 0.289352 0.289352 0.0723379 0.144676 0.144676 0.144676 0.0723379 0.144676 0.289352 0.144676 0.289352 0.289352 0.072338 0.144676 0.144676 0.144676 0.072338 0.144676 0.289352 0.144676 0.289352 0.289352 0.0723379 0.144676 0.144676 0.144676 0.0723379 0.144676 0.289352 0.144676 0.289352 0.289352 0.0723379 0.144676 0.144676 0.144676 0.0723379 0.144676 0.289352 0.144676 0.289352 0.289352 0.072338 0.144676 0.144676 0.144676 0.072338 0.144676 0.289352 0.144676 0.289352 0.289352 0.0723379 0.144676 0.144676 0.144676 0.0723379 0.144676 0.289352 0.144676 0.289352 0.289352 0.072338 0.144676 0.144676 0.144676 0.072338 0.144676 0.289352 0.144676 0.289352 0.289352 0.0723379 0.144676 0.144676 0.144676 0.0723379 0.144676 0.289352 0.144676 0.289352 0.289352 0.072338 0.144676 0.144676 0.144676 0.072338 0.144676 0.289352 0.144676 0.289352 0.289352 0.072338 0.144676 0.144676 0.144676 0.072338 0.144676 0.289352 0.144676 0.289352 0.289352 0.0723379 0.144676 0.144676 0.144676 0.0723379 0.144676 0.289352 0.144676 0.289352 0.289352 0.0723379 0.144676 0.144676 0.144676 0.0723379 0.144676 0.289352 0.144676 0.289352 0.289352 0.0723379 0.144676 0.144676 0.144676 0.0723379 0.144676 0.289352 0.144676 0.289352 0.289352 0.072338 0.144676 0.144676 0.144676 0.072338 0.144676 0.289352 0.144676 0.289352 0.289352 0.0723379 0.144676 0.144676 0.144676 0.0723379 0.144676 0.289352 0.144676 0.289352 0.289352 0.0723379 0.144676 0.144676 0.144676 0.0723379 0.072338 0.144676 0.144676 0.144676 0.289352 0.072338 0.072338 0.144676 0.144676 0.072338 0.072338 0.144676 0.289352 0.144676 0.144676 0.289352 0.289352 0.144676 0.072338 0.144676 0.144676 0.072338 0.144676 0.072338 0.144676 0.289352 0.144676 0.289352 0.289352 0.072338 0.144676 0.144676 0.144676 0.072338 0.144676 0.289352 0.144676 0.289352 0.289352 0.072338 0.144676 0.144676 0.144676 0.072338 0.144676 0.289352 0.144676 0.289352 0.289352 0.0723379 0.144676 0.144676 0.144676 0.0723379 0.144676 0.289352 0.144676 0.289352 0.289352 0.072338 0.144676 0.144676 0.144676 0.072338 0.144676 0.289352 0.144676 0.289352 0.289352 0.072338 0.144676 0.144676 0.144676 0.072338 0.144676 0.289352 0.144676 0.289352 0.289352 0.072338 0.144676 0.144676 0.144676 0.072338 0.144676 0.289352 0.144676 0.289352 0.289352 0.072338 0.144676 0.144676 0.144676 0.072338 0.144676 0.289352 0.144676 0.289352 0.289352 0.072338 0.144676 0.144676 0.144676 0.072338 0.144676 0.289352 0.144676 0.289352 0.289352 0.0723379 0.144676 0.144676 0.144676 0.0723379 0.144676 0.289352 0.144676 0.289352 0.289352 0.0723379 0.144676 0.144676 0.144676 0.0723379 0.144676 0.289352 0.144676 0.289352 0.289352 0.072338 0.144676 0.144676 0.144676 0.072338 0.144676 0.289352 0.144676 0.289352 0.289352 0.072338 0.144676 0.144676 0.144676 0.072338 0.144676 0.289352 0.144676 0.289352 0.289352 0.072338 0.144676 0.144676 0.144676 0.072338 0.144676 0.289352 0.144676 0.289352 0.289352 0.0723379 0.144676 0.144676 0.144676 0.0723379 0.144676 0.289352 0.144676 0.289352 0.289352 0.072338 0.144676 0.144676 0.144676 0.072338 0.144676 0.289352 0.144676 0.289352 0.289352 0.072338 0.144676 0.144676 0.144676 0.072338 0.144676 0.289352 0.144676 0.289352 0.289352 0.0723379 0.144676 0.144676 0.144676 0.0723379 0.144676 0.289352 0.144676 0.289352 0.289352 0.0723379 0.144676 0.144676 0.144676 0.0723379 0.144676 0.289352 0.144676 0.289352 0.289352 0.0723379 0.144676 0.144676 0.144676 0.0723379 0.144676 0.289352 0.144676 0.289352 0.289352 0.072338 0.144676 0.144676 0.144676 0.072338 0.144676 0.289352 0.144676 0.289352 0.289352 0.0723379 0.144676 0.144676 0.144676 0.0723379 0.144676 0.289352 0.144676 0.289352 0.289352 0.0723379 0.144676 0.144676 0.144676 0.0723379 0.072338 0.144676 0.144676 0.144676 0.289352 0.072338 0.072338 0.144676 0.144676 0.072338 0.072338 0.144676 0.289352 0.144676 0.144676 0.289352 0.289352 0.144676 0.072338 0.144676 0.144676 0.072338 0.144676 0.072338 0.144676 0.289352 0.144676 0.289352 0.289352 0.072338 0.144676 0.144676 0.144676 0.072338 0.144676 0.289352 0.144676 0.289352 0.289352 0.072338 0.144676 0.144676 0.144676 0.072338 0.144676 0.289352 0.144676 0.289352 0.289352 0.072338 0.144676 0.144676 0.144676 0.072338 0.144676 0.289352 0.144676 0.289352 0.289352 0.072338 0.144676 0.144676 0.144676 0.072338 0.144676 0.289352 0.144676 0.289352 0.289352 0.072338 0.144676 0.144676 0.144676 0.072338 0.144676 0.289352 0.144676 0.289352 0.289352 0.072338 0.144676 0.144676 0.144676 0.072338 0.144676 0.289352 0.144676 0.289352 0.289352 0.072338 0.144676 0.144676 0.144676 0.072338 0.144676 0.289352 0.144676 0.289352 0.289352 0.072338 0.144676 0.144676 0.144676 0.072338 0.144676 0.289352 0.144676 0.289352 0.289352 0.072338 0.144676 0.144676 0.144676 0.072338 0.144676 0.289352 0.144676 0.289352 0.289352 0.072338 0.144676 0.144676 0.144676 0.072338 0.144676 0.289352 0.144676 0.289352 0.289352 0.072338 0.144676 0.144676 0.144676 0.072338 0.144676 0.289352 0.144676 0.289352 0.289352 0.072338 0.144676 0.144676 0.144676 0.072338 0.144676 0.289352 0.144676 0.289352 0.289352 0.072338 0.144676 0.144676 0.144676 0.072338 0.144676 0.289352 0.144676 0.289352 0.289352 0.0723379 0.144676 0.144676 0.144676 0.0723379 0.144676 0.289352 0.144676 0.289352 0.289352 0.072338 0.144676 0.144676 0.144676 0.072338 0.144676 0.289352 0.144676 0.289352 0.289352 0.072338 0.144676 0.144676 0.144676 0.072338 0.144676 0.289352 0.144676 0.289352 0.289352 0.0723379 0.144676 0.144676 0.144676 0.0723379 0.144676 0.289352 0.144676 0.289352 0.289352 0.0723379 0.144676 0.144676 0.144676 0.0723379 0.144676 0.289352 0.144676 0.289352 0.289352 0.0723379 0.144676 0.144676 0.144676 0.0723379 0.144676 0.289352 0.144676 0.289352 0.289352 0.072338 0.144676 0.144676 0.144676 0.072338 0.144676 0.289352 0.144676 0.289352 0.289352 0.072338 0.144676 0.144676 0.144676 0.072338 0.144676 0.289352 0.144676 0.289352 0.289352 0.0723379 0.144676 0.144676 0.144676 0.0723379 0.072338 0.144676 0.144676 0.144676 0.289352 0.072338 0.072338 0.144676 0.144676 0.072338 0.072338 0.144676 0.289352 0.144676 0.144676 0.289352 0.289352 0.144676 0.072338 0.144676 0.144676 0.072338 0.144676 0.072338 0.144676 0.289352 0.144676 0.289352 0.289352 0.072338 0.144676 0.144676 0.144676 0.072338 0.144676 0.289352 0.144676 0.289352 0.289352 0.072338 0.144676 0.144676 0.144676 0.072338 0.144676 0.289352 0.144676 0.289352 0.289352 0.072338 0.144676 0.144676 0.144676 0.072338 0.144676 0.289352 0.144676 0.289352 0.289352 0.072338 0.144676 0.144676 0.144676 0.072338 0.144676 0.289352 0.144676 0.289352 0.289352 0.072338 0.144676 0.144676 0.144676 0.072338 0.144676 0.289352 0.144676 0.289352 0.289352 0.072338 0.144676 0.144676 0.144676 0.072338 0.144676 0.289352 0.144676 0.289352 0.289352 0.072338 0.144676 0.144676 0.144676 0.072338 0.144676 0.289352 0.144676 0.289352 0.289352 0.072338 0.144676 0.144676 0.144676 0.072338 0.144676 0.289352 0.144676 0.289352 0.289352 0.072338 0.144676 0.144676 0.144676 0.072338 0.144676 0.289352 0.144676 0.289352 0.289352 0.072338 0.144676 0.144676 0.144676 0.072338 0.144676 0.289352 0.144676 0.289352 0.289352 0.072338 0.144676 0.144676 0.144676 0.072338 0.144676 0.289352 0.144676 0.289352 0.289352 0.072338 0.144676 0.144676 0.144676 0.072338 0.144676 0.289352 0.144676 0.289352 0.289352 0.072338 0.144676 0.144676 0.144676 0.072338 0.144676 0.289352 0.144676 0.289352 0.289352 0.0723379 0.144676 0.144676 0.144676 0.0723379 0.144676 0.289352 0.144676 0.289352 0.289352 0.072338 0.144676 0.144676 0.144676 0.072338 0.144676 0.289352 0.144676 0.289352 0.289352 0.072338 0.144676 0.144676 0.144676 0.072338 0.144676 0.289352 0.144676 0.289352 0.289352 0.072338 0.144676 0.144676 0.144676 0.072338 0.144676 0.289352 0.144676 0.289352 0.289352 0.0723379 0.144676 0.144676 0.144676 0.0723379 0.144676 0.289352 0.144676 0.289352 0.289352 0.0723379 0.144676 0.144676 0.144676 0.0723379 0.144676 0.289352 0.144676 0.289352 0.289352 0.072338 0.144676 0.144676 0.144676 0.072338 0.144676 0.289352 0.144676 0.289352 0.289352 0.0723379 0.144676 0.144676 0.144676 0.0723379 0.144676 0.289352 0.144676 0.289352 0.289352 0.0723379 0.144676 0.144676 0.144676 0.0723379 0.072338 0.144676 0.144676 0.144676 0.289352 0.072338 0.072338 0.144676 0.144676 0.072338 0.072338 0.144676 0.289352 0.144676 0.072338 0.144676 0.144676 0.072338 0.072338 0.144676 0.144676 0.072338 0.072338 0.072338 0.144676 0.289352 0.072338 0.144676 0.144676 0.072338 0.144676 0.144676 0.072338 0.072338 0.144676 0.289352 0.072338 0.144676 0.144676 0.072338 0.144676 0.144676 0.072338 0.072338 0.144676 0.289352 0.0723379 0.144676 0.144676 0.0723379 0.144676 0.144676 0.0723379 0.0723379 0.144676 0.289352 0.072338 0.144676 0.144676 0.072338 0.144676 0.144676 0.072338 0.072338 0.144676 0.289352 0.072338 0.144676 0.144676 0.072338 0.144676 0.144676 0.072338 0.072338 0.144676 0.289352 0.0723379 0.144676 0.144676 0.0723379 0.144676 0.144676 0.0723379 0.0723379 0.144676 0.289352 0.072338 0.144676 0.144676 0.072338 0.144676 0.144676 0.072338 0.072338 0.144676 0.289352 0.072338 0.144676 0.144676 0.072338 0.144676 0.144676 0.072338 0.072338 0.144676 0.289352 0.0723379 0.144676 0.144676 0.0723379 0.144676 0.144676 0.0723379 0.0723379 0.144676 0.289352 0.0723379 0.144676 0.144676 0.0723379 0.144676 0.144676 0.0723379 0.0723379 0.144676 0.289352 0.072338 0.144676 0.144676 0.072338 0.144676 0.144676 0.072338 0.072338 0.144676 0.289352 0.0723379 0.144676 0.144676 0.0723379 0.144676 0.144676 0.0723379 0.0723379 0.144676 0.289352 0.072338 0.144676 0.144676 0.072338 0.144676 0.144676 0.072338 0.072338 0.144676 0.289352 0.0723379 0.144676 0.144676 0.0723379 0.144676 0.144676 0.0723379 0.0723379 0.144676 0.289352 0.072338 0.144676 0.144676 0.072338 0.144676 0.144676 0.072338 0.072338 0.144676 0.289352 0.072338 0.144676 0.144676 0.072338 0.144676 0.144676 0.072338 0.072338 0.144676 0.289352 0.0723379 0.144676 0.144676 0.0723379 0.144676 0.144676 0.0723379 0.0723379 0.144676 0.289352 0.0723379 0.144676 0.144676 0.0723379 0.144676 0.144676 0.0723379 0.0723379 0.144676 0.289352 0.0723379 0.144676 0.144676 0.0723379 0.144676 0.144676 0.0723379 0.0723379 0.144676 0.289352 0.072338 0.144676 0.144676 0.072338 0.144676 0.144676 0.072338 0.072338 0.144676 0.289352 0.0723379 0.144676 0.144676 0.0723379 0.144676 0.144676 0.0723379 0.0723379 0.144676 0.289352 0.0723379 0.144676 0.144676 0.0723379 0.144676 0.144676 0.0723379 0.0723379 0.072338 0.144676 0.072338 0.072338 0.144676 0.072338 0.072338 0.144676 0.072338 0.072338 0.144676 0.144676 0.072338 0.289352 0.144676 0.289352 0.289352 0.144676 0.072338 0.144676 0.144676 0.072338 0.144676 0.072338 0.144676 0.144676 0.289352 0.289352 0.289352 0.072338 0.144676 0.144676 0.144676 0.072338 0.144676 0.144676 0.289352 0.289352 0.289352 0.072338 0.144676 0.144676 0.144676 0.072338 0.144676 0.144676 0.289352 0.289352 0.289352 0.072338 0.144676 0.144676 0.144676 0.072338 0.144676 0.144676 0.289352 0.289352 0.289352 0.072338 0.144676 0.144676 0.144676 0.072338 0.144676 0.144676 0.289352 0.289352 0.289352 0.072338 0.144676 0.144676 0.144676 0.072338 0.144676 0.144676 0.289352 0.289352 0.289352 0.072338 0.144676 0.144676 0.144676 0.072338 0.144676 0.144676 0.289352 0.289352 0.289352 0.072338 0.144676 0.144676 0.144676 0.072338 0.144676 0.144676 0.289352 0.289352 0.289352 0.072338 0.144676 0.144676 0.144676 0.072338 0.144676 0.144676 0.289352 0.289352 0.289352 0.0723379 0.144676 0.144676 0.144676 0.0723379 0.144676 0.144676 0.289352 0.289352 0.289352 0.0723379 0.144676 0.144676 0.144676 0.0723379 0.144676 0.144676 0.289352 0.289352 0.289352 0.072338 0.144676 0.144676 0.144676 0.072338 0.144676 0.144676 0.289352 0.289352 0.289352 0.072338 0.144676 0.144676 0.144676 0.072338 0.144676 0.144676 0.289352 0.289352 0.289352 0.072338 0.144676 0.144676 0.144676 0.072338 0.144676 0.144676 0.289352 0.289352 0.289352 0.0723379 0.144676 0.144676 0.144676 0.0723379 0.144676 0.144676 0.289352 0.289352 0.289352 0.072338 0.144676 0.144676 0.144676 0.072338 0.144676 0.144676 0.289352 0.289352 0.289352 0.072338 0.144676 0.144676 0.144676 0.072338 0.144676 0.144676 0.289352 0.289352 0.289352 0.0723379 0.144676 0.144676 0.144676 0.0723379 0.144676 0.144676 0.289352 0.289352 0.289352 0.0723379 0.144676 0.144676 0.144676 0.0723379 0.144676 0.144676 0.289352 0.289352 0.289352 0.0723379 0.144676 0.144676 0.144676 0.0723379 0.144676 0.144676 0.289352 0.289352 0.289352 0.072338 0.144676 0.144676 0.144676 0.072338 0.144676 0.144676 0.289352 0.289352 0.289352 0.072338 0.144676 0.144676 0.144676 0.072338 0.144676 0.144676 0.289352 0.289352 0.289352 0.0723379 0.144676 0.144676 0.144676 0.0723379 0.072338 0.144676 0.144676 0.144676 0.289352 0.072338 0.072338 0.144676 0.144676 0.072338 0.289352 0.144676 0.289352 0.289352 0.144676 0.144676 0.144676 0.072338 0.144676 0.072338 0.289352 0.289352 0.289352 0.144676 0.144676 0.144676 0.072338 0.289352 0.289352 0.289352 0.144676 0.144676 0.144676 0.072338 0.289352 0.289352 0.289352 0.144676 0.144676 0.144676 0.072338 0.289352 0.289352 0.289352 0.144676 0.144676 0.144676 0.072338 0.289352 0.289352 0.289352 0.144676 0.144676 0.144676 0.072338 0.289352 0.289352 0.289352 0.144676 0.144676 0.144676 0.072338 0.289352 0.289352 0.289352 0.144676 0.144676 0.144676 0.072338 0.289352 0.289352 0.289352 0.144676 0.144676 0.144676 0.072338 0.289352 0.289352 0.289352 0.144676 0.144676 0.144676 0.0723379 0.289352 0.289352 0.289352 0.144676 0.144676 0.144676 0.0723379 0.289352 0.289352 0.289352 0.144676 0.144676 0.144676 0.072338 0.289352 0.289352 0.289352 0.144676 0.144676 0.144676 0.072338 0.289352 0.289352 0.289352 0.144676 0.144676 0.144676 0.072338 0.289352 0.289352 0.289352 0.144676 0.144676 0.144676 0.0723379 0.289352 0.289352 0.289352 0.144676 0.144676 0.144676 0.072338 0.289352 0.289352 0.289352 0.144676 0.144676 0.144676 0.072338 0.289352 0.289352 0.289352 0.144676 0.144676 0.144676 0.0723379 0.289352 0.289352 0.289352 0.144676 0.144676 0.144676 0.0723379 0.289352 0.289352 0.289352 0.144676 0.144676 0.144676 0.0723379 0.289352 0.289352 0.289352 0.144676 0.144676 0.144676 0.072338 0.289352 0.289352 0.289352 0.144676 0.144676 0.144676 0.072338 0.289352 0.289352 0.289352 0.144676 0.144676 0.144676 0.0723379 0.144676 0.144676 0.289352 0.072338 0.144676 0.144676 0.072338 0.289352 0.144676 0.289352 0.289352 0.144676 0.144676 0.144676 0.072338 0.144676 0.072338 0.289352 0.289352 0.289352 0.144676 0.144676 0.144676 0.072338 0.289352 0.289352 0.289352 0.144676 0.144676 0.144676 0.072338 0.289352 0.289352 0.289352 0.144676 0.144676 0.144676 0.072338 0.289352 0.289352 0.289352 0.144676 0.144676 0.144676 0.072338 0.289352 0.289352 0.289352 0.144676 0.144676 0.144676 0.072338 0.289352 0.289352 0.289352 0.144676 0.144676 0.144676 0.072338 0.289352 0.289352 0.289352 0.144676 0.144676 0.144676 0.072338 0.289352 0.289352 0.289352 0.144676 0.144676 0.144676 0.072338 0.289352 0.289352 0.289352 0.144676 0.144676 0.144676 0.0723379 0.289352 0.289352 0.289352 0.144676 0.144676 0.144676 0.0723379 0.289352 0.289352 0.289352 0.144676 0.144676 0.144676 0.072338 0.289352 0.289352 0.289352 0.144676 0.144676 0.144676 0.072338 0.289352 0.289352 0.289352 0.144676 0.144676 0.144676 0.072338 0.289352 0.289352 0.289352 0.144676 0.144676 0.144676 0.0723379 0.289352 0.289352 0.289352 0.144676 0.144676 0.144676 0.072338 0.289352 0.289352 0.289352 0.144676 0.144676 0.144676 0.072338 0.289352 0.289352 0.289352 0.144676 0.144676 0.144676 0.0723379 0.289352 0.289352 0.289352 0.144676 0.144676 0.144676 0.0723379 0.289352 0.289352 0.289352 0.144676 0.144676 0.144676 0.0723379 0.289352 0.289352 0.289352 0.144676 0.144676 0.144676 0.072338 0.289352 0.289352 0.289352 0.144676 0.144676 0.144676 0.072338 0.289352 0.289352 0.289352 0.144676 0.144676 0.144676 0.0723379 0.144676 0.144676 0.289352 0.072338 0.144676 0.144676 0.072338 0.289352 0.144676 0.289352 0.289352 0.144676 0.144676 0.144676 0.072338 0.144676 0.072338 0.289352 0.289352 0.289352 0.144676 0.144676 0.144676 0.072338 0.289352 0.289352 0.289352 0.144676 0.144676 0.144676 0.072338 0.289352 0.289352 0.289352 0.144676 0.144676 0.144676 0.0723379 0.289352 0.289352 0.289352 0.144676 0.144676 0.144676 0.072338 0.289352 0.289352 0.289352 0.144676 0.144676 0.144676 0.072338 0.289352 0.289352 0.289352 0.144676 0.144676 0.144676 0.072338 0.289352 0.289352 0.289352 0.144676 0.144676 0.144676 0.0723379 0.289352 0.289352 0.289352 0.144676 0.144676 0.144676 0.072338 0.289352 0.289352 0.289352 0.144676 0.144676 0.144676 0.0723379 0.289352 0.289352 0.289352 0.144676 0.144676 0.144676 0.0723379 0.289352 0.289352 0.289352 0.144676 0.144676 0.144676 0.072338 0.289352 0.289352 0.289352 0.144676 0.144676 0.144676 0.0723379 0.289352 0.289352 0.289352 0.144676 0.144676 0.144676 0.072338 0.289352 0.289352 0.289352 0.144676 0.144676 0.144676 0.0723379 0.289352 0.289352 0.289352 0.144676 0.144676 0.144676 0.072338 0.289352 0.289352 0.289352 0.144676 0.144676 0.144676 0.072338 0.289352 0.289352 0.289352 0.144676 0.144676 0.144676 0.0723379 0.289352 0.289352 0.289352 0.144676 0.144676 0.144676 0.0723379 0.289352 0.289352 0.289352 0.144676 0.144676 0.144676 0.0723379 0.289352 0.289352 0.289352 0.144676 0.144676 0.144676 0.072338 0.289352 0.289352 0.289352 0.144676 0.144676 0.144676 0.0723379 0.289352 0.289352 0.289352 0.144676 0.144676 0.144676 0.0723379 0.144676 0.144676 0.289352 0.072338 0.144676 0.144676 0.072338 0.289352 0.144676 0.289352 0.289352 0.144676 0.144676 0.144676 0.072338 0.144676 0.072338 0.289352 0.289352 0.289352 0.144676 0.144676 0.144676 0.072338 0.289352 0.289352 0.289352 0.144676 0.144676 0.144676 0.072338 0.289352 0.289352 0.289352 0.144676 0.144676 0.144676 0.0723379 0.289352 0.289352 0.289352 0.144676 0.144676 0.144676 0.072338 0.289352 0.289352 0.289352 0.144676 0.144676 0.144676 0.072338 0.289352 0.289352 0.289352 0.144676 0.144676 0.144676 0.072338 0.289352 0.289352 0.289352 0.144676 0.144676 0.144676 0.072338 0.289352 0.289352 0.289352 0.144676 0.144676 0.144676 0.072338 0.289352 0.289352 0.289352 0.144676 0.144676 0.144676 0.0723379 0.289352 0.289352 0.289352 0.144676 0.144676 0.144676 0.0723379 0.289352 0.289352 0.289352 0.144676 0.144676 0.144676 0.072338 0.289352 0.289352 0.289352 0.144676 0.144676 0.144676 0.072338 0.289352 0.289352 0.289352 0.144676 0.144676 0.144676 0.072338 0.289352 0.289352 0.289352 0.144676 0.144676 0.144676 0.0723379 0.289352 0.289352 0.289352 0.144676 0.144676 0.144676 0.072338 0.289352 0.289352 0.289352 0.144676 0.144676 0.144676 0.072338 0.289352 0.289352 0.289352 0.144676 0.144676 0.144676 0.0723379 0.289352 0.289352 0.289352 0.144676 0.144676 0.144676 0.0723379 0.289352 0.289352 0.289352 0.144676 0.144676 0.144676 0.0723379 0.289352 0.289352 0.289352 0.144676 0.144676 0.144676 0.072338 0.289352 0.289352 0.289352 0.144676 0.144676 0.144676 0.0723379 0.289352 0.289352 0.289352 0.144676 0.144676 0.144676 0.0723379 0.144676 0.144676 0.289352 0.072338 0.144676 0.144676 0.072338 0.289352 0.144676 0.289352 0.289352 0.144676 0.144676 0.144676 0.072338 0.144676 0.072338 0.289352 0.289352 0.289352 0.144676 0.144676 0.144676 0.072338 0.289352 0.289352 0.289352 0.144676 0.144676 0.144676 0.072338 0.289352 0.289352 0.289352 0.144676 0.144676 0.144676 0.072338 0.289352 0.289352 0.289352 0.144676 0.144676 0.144676 0.072338 0.289352 0.289352 0.289352 0.144676 0.144676 0.144676 0.072338 0.289352 0.289352 0.289352 0.144676 0.144676 0.144676 0.072338 0.289352 0.289352 0.289352 0.144676 0.144676 0.144676 0.072338 0.289352 0.289352 0.289352 0.144676 0.144676 0.144676 0.072338 0.289352 0.289352 0.289352 0.144676 0.144676 0.144676 0.0723379 0.289352 0.289352 0.289352 0.144676 0.144676 0.144676 0.0723379 0.289352 0.289352 0.289352 0.144676 0.144676 0.144676 0.072338 0.289352 0.289352 0.289352 0.144676 0.144676 0.144676 0.072338 0.289352 0.289352 0.289352 0.144676 0.144676 0.144676 0.072338 0.289352 0.289352 0.289352 0.144676 0.144676 0.144676 0.0723379 0.289352 0.289352 0.289352 0.144676 0.144676 0.144676 0.072338 0.289352 0.289352 0.289352 0.144676 0.144676 0.144676 0.072338 0.289352 0.289352 0.289352 0.144676 0.144676 0.144676 0.0723379 0.289352 0.289352 0.289352 0.144676 0.144676 0.144676 0.0723379 0.289352 0.289352 0.289352 0.144676 0.144676 0.144676 0.0723379 0.289352 0.289352 0.289352 0.144676 0.144676 0.144676 0.072338 0.289352 0.289352 0.289352 0.144676 0.144676 0.144676 0.072338 0.289352 0.289352 0.289352 0.144676 0.144676 0.144676 0.0723379 0.144676 0.144676 0.289352 0.072338 0.144676 0.144676 0.072338 0.289352 0.144676 0.289352 0.289352 0.144676 0.144676 0.144676 0.072338 0.144676 0.072338 0.289352 0.289352 0.289352 0.144676 0.144676 0.144676 0.072338 0.289352 0.289352 0.289352 0.144676 0.144676 0.144676 0.072338 0.289352 0.289352 0.289352 0.144676 0.144676 0.144676 0.072338 0.289352 0.289352 0.289352 0.144676 0.144676 0.144676 0.072338 0.289352 0.289352 0.289352 0.144676 0.144676 0.144676 0.072338 0.289352 0.289352 0.289352 0.144676 0.144676 0.144676 0.072338 0.289352 0.289352 0.289352 0.144676 0.144676 0.144676 0.072338 0.289352 0.289352 0.289352 0.144676 0.144676 0.144676 0.072338 0.289352 0.289352 0.289352 0.144676 0.144676 0.144676 0.0723379 0.289352 0.289352 0.289352 0.144676 0.144676 0.144676 0.072338 0.289352 0.289352 0.289352 0.144676 0.144676 0.144676 0.072338 0.289352 0.289352 0.289352 0.144676 0.144676 0.144676 0.072338 0.289352 0.289352 0.289352 0.144676 0.144676 0.144676 0.072338 0.289352 0.289352 0.289352 0.144676 0.144676 0.144676 0.0723379 0.289352 0.289352 0.289352 0.144676 0.144676 0.144676 0.072338 0.289352 0.289352 0.289352 0.144676 0.144676 0.144676 0.072338 0.289352 0.289352 0.289352 0.144676 0.144676 0.144676 0.072338 0.289352 0.289352 0.289352 0.144676 0.144676 0.144676 0.0723379 0.289352 0.289352 0.289352 0.144676 0.144676 0.144676 0.0723379 0.289352 0.289352 0.289352 0.144676 0.144676 0.144676 0.072338 0.289352 0.289352 0.289352 0.144676 0.144676 0.144676 0.072338 0.289352 0.289352 0.289352 0.144676 0.144676 0.144676 0.0723379 0.144676 0.144676 0.289352 0.072338 0.144676 0.144676 0.072338 0.289352 0.144676 0.144676 0.144676 0.072338 0.144676 0.144676 0.072338 0.072338 0.072338 0.289352 0.144676 0.144676 0.144676 0.144676 0.072338 0.072338 0.289352 0.144676 0.144676 0.144676 0.144676 0.072338 0.072338 0.289352 0.144676 0.144676 0.144676 0.144676 0.0723379 0.0723379 0.289352 0.144676 0.144676 0.144676 0.144676 0.072338 0.072338 0.289352 0.144676 0.144676 0.144676 0.144676 0.072338 0.072338 0.289352 0.144676 0.144676 0.144676 0.144676 0.072338 0.072338 0.289352 0.144676 0.144676 0.144676 0.144676 0.072338 0.072338 0.289352 0.144676 0.144676 0.144676 0.144676 0.072338 0.072338 0.289352 0.144676 0.144676 0.144676 0.144676 0.0723379 0.0723379 0.289352 0.144676 0.144676 0.144676 0.144676 0.0723379 0.0723379 0.289352 0.144676 0.144676 0.144676 0.144676 0.072338 0.072338 0.289352 0.144676 0.144676 0.144676 0.144676 0.0723379 0.0723379 0.289352 0.144676 0.144676 0.144676 0.144676 0.072338 0.072338 0.289352 0.144676 0.144676 0.144676 0.144676 0.0723379 0.0723379 0.289352 0.144676 0.144676 0.144676 0.144676 0.072338 0.072338 0.289352 0.144676 0.144676 0.144676 0.144676 0.072338 0.072338 0.289352 0.144676 0.144676 0.144676 0.144676 0.0723379 0.0723379 0.289352 0.144676 0.144676 0.144676 0.144676 0.0723379 0.0723379 0.289352 0.144676 0.144676 0.144676 0.144676 0.0723379 0.0723379 0.289352 0.144676 0.144676 0.144676 0.144676 0.072338 0.072338 0.289352 0.144676 0.144676 0.144676 0.144676 0.0723379 0.0723379 0.289352 0.144676 0.144676 0.144676 0.144676 0.0723379 0.0723379 0.144676 0.072338 0.144676 0.072338 0.144676 0.072338 0.072338 0.144676 0.144676 0.072338 0.289352 0.144676 0.289352 0.289352 0.144676 0.072338 0.144676 0.144676 0.072338 0.144676 0.072338 0.144676 0.144676 0.289352 0.289352 0.289352 0.072338 0.144676 0.144676 0.144676 0.072338 0.144676 0.144676 0.289352 0.289352 0.289352 0.072338 0.144676 0.144676 0.144676 0.072338 0.144676 0.144676 0.289352 0.289352 0.289352 0.072338 0.144676 0.144676 0.144676 0.072338 0.144676 0.144676 0.289352 0.289352 0.289352 0.072338 0.144676 0.144676 0.144676 0.072338 0.144676 0.144676 0.289352 0.289352 0.289352 0.072338 0.144676 0.144676 0.144676 0.072338 0.144676 0.144676 0.289352 0.289352 0.289352 0.072338 0.144676 0.144676 0.144676 0.072338 0.144676 0.144676 0.289352 0.289352 0.289352 0.072338 0.144676 0.144676 0.144676 0.072338 0.144676 0.144676 0.289352 0.289352 0.289352 0.072338 0.144676 0.144676 0.144676 0.072338 0.144676 0.144676 0.289352 0.289352 0.289352 0.0723379 0.144676 0.144676 0.144676 0.0723379 0.144676 0.144676 0.289352 0.289352 0.289352 0.0723379 0.144676 0.144676 0.144676 0.0723379 0.144676 0.144676 0.289352 0.289352 0.289352 0.072338 0.144676 0.144676 0.144676 0.072338 0.144676 0.144676 0.289352 0.289352 0.289352 0.072338 0.144676 0.144676 0.144676 0.072338 0.144676 0.144676 0.289352 0.289352 0.289352 0.072338 0.144676 0.144676 0.144676 0.072338 0.144676 0.144676 0.289352 0.289352 0.289352 0.0723379 0.144676 0.144676 0.144676 0.0723379 0.144676 0.144676 0.289352 0.289352 0.289352 0.072338 0.144676 0.144676 0.144676 0.072338 0.144676 0.144676 0.289352 0.289352 0.289352 0.072338 0.144676 0.144676 0.144676 0.072338 0.144676 0.144676 0.289352 0.289352 0.289352 0.0723379 0.144676 0.144676 0.144676 0.0723379 0.144676 0.144676 0.289352 0.289352 0.289352 0.0723379 0.144676 0.144676 0.144676 0.0723379 0.144676 0.144676 0.289352 0.289352 0.289352 0.0723379 0.144676 0.144676 0.144676 0.0723379 0.144676 0.144676 0.289352 0.289352 0.289352 0.072338 0.144676 0.144676 0.144676 0.072338 0.144676 0.144676 0.289352 0.289352 0.289352 0.072338 0.144676 0.144676 0.144676 0.072338 0.144676 0.144676 0.289352 0.289352 0.289352 0.0723379 0.144676 0.144676 0.144676 0.0723379 0.072338 0.144676 0.144676 0.144676 0.289352 0.072338 0.072338 0.144676 0.144676 0.072338 0.289352 0.144676 0.289352 0.289352 0.144676 0.144676 0.144676 0.072338 0.144676 0.072338 0.289352 0.289352 0.289352 0.144676 0.144676 0.144676 0.072338 0.289352 0.289352 0.289352 0.144676 0.144676 0.144676 0.072338 0.289352 0.289352 0.289352 0.144676 0.144676 0.144676 0.072338 0.289352 0.289352 0.289352 0.144676 0.144676 0.144676 0.072338 0.289352 0.289352 0.289352 0.144676 0.144676 0.144676 0.072338 0.289352 0.289352 0.289352 0.144676 0.144676 0.144676 0.072338 0.289352 0.289352 0.289352 0.144676 0.144676 0.144676 0.072338 0.289352 0.289352 0.289352 0.144676 0.144676 0.144676 0.072338 0.289352 0.289352 0.289352 0.144676 0.144676 0.144676 0.0723379 0.289352 0.289352 0.289352 0.144676 0.144676 0.144676 0.0723379 0.289352 0.289352 0.289352 0.144676 0.144676 0.144676 0.072338 0.289352 0.289352 0.289352 0.144676 0.144676 0.144676 0.072338 0.289352 0.289352 0.289352 0.144676 0.144676 0.144676 0.072338 0.289352 0.289352 0.289352 0.144676 0.144676 0.144676 0.0723379 0.289352 0.289352 0.289352 0.144676 0.144676 0.144676 0.072338 0.289352 0.289352 0.289352 0.144676 0.144676 0.144676 0.072338 0.289352 0.289352 0.289352 0.144676 0.144676 0.144676 0.0723379 0.289352 0.289352 0.289352 0.144676 0.144676 0.144676 0.0723379 0.289352 0.289352 0.289352 0.144676 0.144676 0.144676 0.0723379 0.289352 0.289352 0.289352 0.144676 0.144676 0.144676 0.072338 0.289352 0.289352 0.289352 0.144676 0.144676 0.144676 0.072338 0.289352 0.289352 0.289352 0.144676 0.144676 0.144676 0.0723379 0.144676 0.144676 0.289352 0.072338 0.144676 0.144676 0.072338 0.289352 0.144676 0.289352 0.289352 0.144676 0.144676 0.144676 0.072338 0.144676 0.072338 0.289352 0.289352 0.289352 0.144676 0.144676 0.144676 0.072338 0.289352 0.289352 0.289352 0.144676 0.144676 0.144676 0.072338 0.289352 0.289352 0.289352 0.144676 0.144676 0.144676 0.072338 0.289352 0.289352 0.289352 0.144676 0.144676 0.144676 0.072338 0.289352 0.289352 0.289352 0.144676 0.144676 0.144676 0.072338 0.289352 0.289352 0.289352 0.144676 0.144676 0.144676 0.072338 0.289352 0.289352 0.289352 0.144676 0.144676 0.144676 0.072338 0.289352 0.289352 0.289352 0.144676 0.144676 0.144676 0.072338 0.289352 0.289352 0.289352 0.144676 0.144676 0.144676 0.0723379 0.289352 0.289352 0.289352 0.144676 0.144676 0.144676 0.0723379 0.289352 0.289352 0.289352 0.144676 0.144676 0.144676 0.072338 0.289352 0.289352 0.289352 0.144676 0.144676 0.144676 0.072338 0.289352 0.289352 0.289352 0.144676 0.144676 0.144676 0.072338 0.289352 0.289352 0.289352 0.144676 0.144676 0.144676 0.0723379 0.289352 0.289352 0.289352 0.144676 0.144676 0.144676 0.072338 0.289352 0.289352 0.289352 0.144676 0.144676 0.144676 0.072338 0.289352 0.289352 0.289352 0.144676 0.144676 0.144676 0.0723379 0.289352 0.289352 0.289352 0.144676 0.144676 0.144676 0.0723379 0.289352 0.289352 0.289352 0.144676 0.144676 0.144676 0.0723379 0.289352 0.289352 0.289352 0.144676 0.144676 0.144676 0.072338 0.289352 0.289352 0.289352 0.144676 0.144676 0.144676 0.072338 0.289352 0.289352 0.289352 0.144676 0.144676 0.144676 0.0723379 0.144676 0.144676 0.289352 0.072338 0.144676 0.144676 0.072338 0.289352 0.144676 0.289352 0.289352 0.144676 0.144676 0.144676 0.072338 0.144676 0.072338 0.289352 0.289352 0.289352 0.144676 0.144676 0.144676 0.072338 0.289352 0.289352 0.289352 0.144676 0.144676 0.144676 0.072338 0.289352 0.289352 0.289352 0.144676 0.144676 0.144676 0.0723379 0.289352 0.289352 0.289352 0.144676 0.144676 0.144676 0.072338 0.289352 0.289352 0.289352 0.144676 0.144676 0.144676 0.072338 0.289352 0.289352 0.289352 0.144676 0.144676 0.144676 0.072338 0.289352 0.289352 0.289352 0.144676 0.144676 0.144676 0.072338 0.289352 0.289352 0.289352 0.144676 0.144676 0.144676 0.072338 0.289352 0.289352 0.289352 0.144676 0.144676 0.144676 0.0723379 0.289352 0.289352 0.289352 0.144676 0.144676 0.144676 0.0723379 0.289352 0.289352 0.289352 0.144676 0.144676 0.144676 0.072338 0.289352 0.289352 0.289352 0.144676 0.144676 0.144676 0.072338 0.289352 0.289352 0.289352 0.144676 0.144676 0.144676 0.072338 0.289352 0.289352 0.289352 0.144676 0.144676 0.144676 0.0723379 0.289352 0.289352 0.289352 0.144676 0.144676 0.144676 0.072338 0.289352 0.289352 0.289352 0.144676 0.144676 0.144676 0.072338 0.289352 0.289352 0.289352 0.144676 0.144676 0.144676 0.0723379 0.289352 0.289352 0.289352 0.144676 0.144676 0.144676 0.0723379 0.289352 0.289352 0.289352 0.144676 0.144676 0.144676 0.0723379 0.289352 0.289352 0.289352 0.144676 0.144676 0.144676 0.072338 0.289352 0.289352 0.289352 0.144676 0.144676 0.144676 0.0723379 0.289352 0.289352 0.289352 0.144676 0.144676 0.144676 0.0723379 0.144676 0.144676 0.289352 0.072338 0.144676 0.144676 0.072338 0.289352 0.144676 0.289352 0.289352 0.144676 0.144676 0.144676 0.072338 0.144676 0.072338 0.289352 0.289352 0.289352 0.144676 0.144676 0.144676 0.072338 0.289352 0.289352 0.289352 0.144676 0.144676 0.144676 0.072338 0.289352 0.289352 0.289352 0.144676 0.144676 0.144676 0.072338 0.289352 0.289352 0.289352 0.144676 0.144676 0.144676 0.072338 0.289352 0.289352 0.289352 0.144676 0.144676 0.144676 0.072338 0.289352 0.289352 0.289352 0.144676 0.144676 0.144676 0.072338 0.289352 0.289352 0.289352 0.144676 0.144676 0.144676 0.072338 0.289352 0.289352 0.289352 0.144676 0.144676 0.144676 0.072338 0.289352 0.289352 0.289352 0.144676 0.144676 0.144676 0.0723379 0.289352 0.289352 0.289352 0.144676 0.144676 0.144676 0.0723379 0.289352 0.289352 0.289352 0.144676 0.144676 0.144676 0.072338 0.289352 0.289352 0.289352 0.144676 0.144676 0.144676 0.072338 0.289352 0.289352 0.289352 0.144676 0.144676 0.144676 0.072338 0.289352 0.289352 0.289352 0.144676 0.144676 0.144676 0.0723379 0.289352 0.289352 0.289352 0.144676 0.144676 0.144676 0.072338 0.289352 0.289352 0.289352 0.144676 0.144676 0.144676 0.072338 0.289352 0.289352 0.289352 0.144676 0.144676 0.144676 0.0723379 0.289352 0.289352 0.289352 0.144676 0.144676 0.144676 0.0723379 0.289352 0.289352 0.289352 0.144676 0.144676 0.144676 0.0723379 0.289352 0.289352 0.289352 0.144676 0.144676 0.144676 0.072338 0.289352 0.289352 0.289352 0.144676 0.144676 0.144676 0.0723379 0.289352 0.289352 0.289352 0.144676 0.144676 0.144676 0.0723379 0.144676 0.144676 0.289352 0.072338 0.144676 0.144676 0.072338 0.289352 0.144676 0.289352 0.289352 0.144676 0.144676 0.144676 0.072338 0.144676 0.072338 0.289352 0.289352 0.289352 0.144676 0.144676 0.144676 0.072338 0.289352 0.289352 0.289352 0.144676 0.144676 0.144676 0.072338 0.289352 0.289352 0.289352 0.144676 0.144676 0.144676 0.072338 0.289352 0.289352 0.289352 0.144676 0.144676 0.144676 0.072338 0.289352 0.289352 0.289352 0.144676 0.144676 0.144676 0.072338 0.289352 0.289352 0.289352 0.144676 0.144676 0.144676 0.072338 0.289352 0.289352 0.289352 0.144676 0.144676 0.144676 0.072338 0.289352 0.289352 0.289352 0.144676 0.144676 0.144676 0.072338 0.289352 0.289352 0.289352 0.144676 0.144676 0.144676 0.0723379 0.289352 0.289352 0.289352 0.144676 0.144676 0.144676 0.0723379 0.289352 0.289352 0.289352 0.144676 0.144676 0.144676 0.072338 0.289352 0.289352 0.289352 0.144676 0.144676 0.144676 0.072338 0.289352 0.289352 0.289352 0.144676 0.144676 0.144676 0.072338 0.289352 0.289352 0.289352 0.144676 0.144676 0.144676 0.0723379 0.289352 0.289352 0.289352 0.144676 0.144676 0.144676 0.072338 0.289352 0.289352 0.289352 0.144676 0.144676 0.144676 0.072338 0.289352 0.289352 0.289352 0.144676 0.144676 0.144676 0.0723379 0.289352 0.289352 0.289352 0.144676 0.144676 0.144676 0.0723379 0.289352 0.289352 0.289352 0.144676 0.144676 0.144676 0.0723379 0.289352 0.289352 0.289352 0.144676 0.144676 0.144676 0.072338 0.289352 0.289352 0.289352 0.144676 0.144676 0.144676 0.072338 0.289352 0.289352 0.289352 0.144676 0.144676 0.144676 0.0723379 0.144676 0.144676 0.289352 0.072338 0.144676 0.144676 0.072338 0.289352 0.144676 0.289352 0.289352 0.144676 0.144676 0.144676 0.072338 0.144676 0.072338 0.289352 0.289352 0.289352 0.144676 0.144676 0.144676 0.072338 0.289352 0.289352 0.289352 0.144676 0.144676 0.144676 0.072338 0.289352 0.289352 0.289352 0.144676 0.144676 0.144676 0.072338 0.289352 0.289352 0.289352 0.144676 0.144676 0.144676 0.072338 0.289352 0.289352 0.289352 0.144676 0.144676 0.144676 0.072338 0.289352 0.289352 0.289352 0.144676 0.144676 0.144676 0.072338 0.289352 0.289352 0.289352 0.144676 0.144676 0.144676 0.072338 0.289352 0.289352 0.289352 0.144676 0.144676 0.144676 0.072338 0.289352 0.289352 0.289352 0.144676 0.144676 0.144676 0.0723379 0.289352 0.289352 0.289352 0.144676 0.144676 0.144676 0.072338 0.289352 0.289352 0.289352 0.144676 0.144676 0.144676 0.072338 0.289352 0.289352 0.289352 0.144676 0.144676 0.144676 0.072338 0.289352 0.289352 0.289352 0.144676 0.144676 0.144676 0.072338 0.289352 0.289352 0.289352 0.144676 0.144676 0.144676 0.0723379 0.289352 0.289352 0.289352 0.144676 0.144676 0.144676 0.072338 0.289352 0.289352 0.289352 0.144676 0.144676 0.144676 0.072338 0.289352 0.289352 0.289352 0.144676 0.144676 0.144676 0.072338 0.289352 0.289352 0.289352 0.144676 0.144676 0.144676 0.0723379 0.289352 0.289352 0.289352 0.144676 0.144676 0.144676 0.0723379 0.289352 0.289352 0.289352 0.144676 0.144676 0.144676 0.072338 0.289352 0.289352 0.289352 0.144676 0.144676 0.144676 0.072338 0.289352 0.289352 0.289352 0.144676 0.144676 0.144676 0.0723379 0.144676 0.144676 0.289352 0.072338 0.144676 0.144676 0.072338 0.289352 0.144676 0.144676 0.144676 0.072338 0.144676 0.144676 0.072338 0.072338 0.072338 0.289352 0.144676 0.144676 0.144676 0.144676 0.072338 0.072338 0.289352 0.144676 0.144676 0.144676 0.144676 0.072338 0.072338 0.289352 0.144676 0.144676 0.144676 0.144676 0.0723379 0.0723379 0.289352 0.144676 0.144676 0.144676 0.144676 0.072338 0.072338 0.289352 0.144676 0.144676 0.144676 0.144676 0.072338 0.072338 0.289352 0.144676 0.144676 0.144676 0.144676 0.0723379 0.0723379 0.289352 0.144676 0.144676 0.144676 0.144676 0.072338 0.072338 0.289352 0.144676 0.144676 0.144676 0.144676 0.072338 0.072338 0.289352 0.144676 0.144676 0.144676 0.144676 0.0723379 0.0723379 0.289352 0.144676 0.144676 0.144676 0.144676 0.0723379 0.0723379 0.289352 0.144676 0.144676 0.144676 0.144676 0.072338 0.072338 0.289352 0.144676 0.144676 0.144676 0.144676 0.0723379 0.0723379 0.289352 0.144676 0.144676 0.144676 0.144676 0.072338 0.072338 0.289352 0.144676 0.144676 0.144676 0.144676 0.0723379 0.0723379 0.289352 0.144676 0.144676 0.144676 0.144676 0.072338 0.072338 0.289352 0.144676 0.144676 0.144676 0.144676 0.072338 0.072338 0.289352 0.144676 0.144676 0.144676 0.144676 0.0723379 0.0723379 0.289352 0.144676 0.144676 0.144676 0.144676 0.0723379 0.0723379 0.289352 0.144676 0.144676 0.144676 0.144676 0.0723379 0.0723379 0.289352 0.144676 0.144676 0.144676 0.144676 0.072338 0.072338 0.289352 0.144676 0.144676 0.144676 0.144676 0.0723379 0.0723379 0.289352 0.144676 0.144676 0.144676 0.144676 0.0723379 0.0723379 0.144676 0.072338 0.144676 0.072338 0.144676 0.072338 0.072338 0.144676 0.144676 0.072338 0.289352 0.144676 0.289352 0.289352 0.144676 0.072338 0.144676 0.144676 0.072338 0.144676 0.072338 0.144676 0.144676 0.289352 0.289352 0.289352 0.072338 0.144676 0.144676 0.144676 0.072338 0.144676 0.144676 0.289352 0.289352 0.289352 0.072338 0.144676 0.144676 0.144676 0.072338 0.144676 0.144676 0.289352 0.289352 0.289352 0.0723379 0.144676 0.144676 0.144676 0.0723379 0.144676 0.144676 0.289352 0.289352 0.289352 0.072338 0.144676 0.144676 0.144676 0.072338 0.144676 0.144676 0.289352 0.289352 0.289352 0.072338 0.144676 0.144676 0.144676 0.072338 0.144676 0.144676 0.289352 0.289352 0.289352 0.072338 0.144676 0.144676 0.144676 0.072338 0.144676 0.144676 0.289352 0.289352 0.289352 0.072338 0.144676 0.144676 0.144676 0.072338 0.144676 0.144676 0.289352 0.289352 0.289352 0.072338 0.144676 0.144676 0.144676 0.072338 0.144676 0.144676 0.289352 0.289352 0.289352 0.0723379 0.144676 0.144676 0.144676 0.0723379 0.144676 0.144676 0.289352 0.289352 0.289352 0.0723379 0.144676 0.144676 0.144676 0.0723379 0.144676 0.144676 0.289352 0.289352 0.289352 0.072338 0.144676 0.144676 0.144676 0.072338 0.144676 0.144676 0.289352 0.289352 0.289352 0.072338 0.144676 0.144676 0.144676 0.072338 0.144676 0.144676 0.289352 0.289352 0.289352 0.072338 0.144676 0.144676 0.144676 0.072338 0.144676 0.144676 0.289352 0.289352 0.289352 0.0723379 0.144676 0.144676 0.144676 0.0723379 0.144676 0.144676 0.289352 0.289352 0.289352 0.072338 0.144676 0.144676 0.144676 0.072338 0.144676 0.144676 0.289352 0.289352 0.289352 0.072338 0.144676 0.144676 0.144676 0.072338 0.144676 0.144676 0.289352 0.289352 0.289352 0.0723379 0.144676 0.144676 0.144676 0.0723379 0.144676 0.144676 0.289352 0.289352 0.289352 0.0723379 0.144676 0.144676 0.144676 0.0723379 0.144676 0.144676 0.289352 0.289352 0.289352 0.0723379 0.144676 0.144676 0.144676 0.0723379 0.144676 0.144676 0.289352 0.289352 0.289352 0.072338 0.144676 0.144676 0.144676 0.072338 0.144676 0.144676 0.289352 0.289352 0.289352 0.0723379 0.144676 0.144676 0.144676 0.0723379 0.144676 0.144676 0.289352 0.289352 0.289352 0.0723379 0.144676 0.144676 0.144676 0.0723379 0.072338 0.144676 0.144676 0.144676 0.289352 0.072338 0.072338 0.144676 0.144676 0.072338 0.289352 0.144676 0.289352 0.289352 0.144676 0.144676 0.144676 0.072338 0.144676 0.072338 0.289352 0.289352 0.289352 0.144676 0.144676 0.144676 0.072338 0.289352 0.289352 0.289352 0.144676 0.144676 0.144676 0.072338 0.289352 0.289352 0.289352 0.144676 0.144676 0.144676 0.0723379 0.289352 0.289352 0.289352 0.144676 0.144676 0.144676 0.072338 0.289352 0.289352 0.289352 0.144676 0.144676 0.144676 0.072338 0.289352 0.289352 0.289352 0.144676 0.144676 0.144676 0.0723379 0.289352 0.289352 0.289352 0.144676 0.144676 0.144676 0.072338 0.289352 0.289352 0.289352 0.144676 0.144676 0.144676 0.072338 0.289352 0.289352 0.289352 0.144676 0.144676 0.144676 0.0723379 0.289352 0.289352 0.289352 0.144676 0.144676 0.144676 0.0723379 0.289352 0.289352 0.289352 0.144676 0.144676 0.144676 0.072338 0.289352 0.289352 0.289352 0.144676 0.144676 0.144676 0.0723379 0.289352 0.289352 0.289352 0.144676 0.144676 0.144676 0.072338 0.289352 0.289352 0.289352 0.144676 0.144676 0.144676 0.0723379 0.289352 0.289352 0.289352 0.144676 0.144676 0.144676 0.072338 0.289352 0.289352 0.289352 0.144676 0.144676 0.144676 0.072338 0.289352 0.289352 0.289352 0.144676 0.144676 0.144676 0.0723379 0.289352 0.289352 0.289352 0.144676 0.144676 0.144676 0.0723379 0.289352 0.289352 0.289352 0.144676 0.144676 0.144676 0.0723379 0.289352 0.289352 0.289352 0.144676 0.144676 0.144676 0.072338 0.289352 0.289352 0.289352 0.144676 0.144676 0.144676 0.0723379 0.289352 0.289352 0.289352 0.144676 0.144676 0.144676 0.0723379 0.144676 0.144676 0.289352 0.072338 0.144676 0.144676 0.072338 0.289352 0.144676 0.289352 0.289352 0.144676 0.144676 0.144676 0.072338 0.144676 0.072338 0.289352 0.289352 0.289352 0.144676 0.144676 0.144676 0.072338 0.289352 0.289352 0.289352 0.144676 0.144676 0.144676 0.072338 0.289352 0.289352 0.289352 0.144676 0.144676 0.144676 0.072338 0.289352 0.289352 0.289352 0.144676 0.144676 0.144676 0.072338 0.289352 0.289352 0.289352 0.144676 0.144676 0.144676 0.072338 0.289352 0.289352 0.289352 0.144676 0.144676 0.144676 0.072338 0.289352 0.289352 0.289352 0.144676 0.144676 0.144676 0.072338 0.289352 0.289352 0.289352 0.144676 0.144676 0.144676 0.072338 0.289352 0.289352 0.289352 0.144676 0.144676 0.144676 0.0723379 0.289352 0.289352 0.289352 0.144676 0.144676 0.144676 0.0723379 0.289352 0.289352 0.289352 0.144676 0.144676 0.144676 0.072338 0.289352 0.289352 0.289352 0.144676 0.144676 0.144676 0.072338 0.289352 0.289352 0.289352 0.144676 0.144676 0.144676 0.072338 0.289352 0.289352 0.289352 0.144676 0.144676 0.144676 0.0723379 0.289352 0.289352 0.289352 0.144676 0.144676 0.144676 0.072338 0.289352 0.289352 0.289352 0.144676 0.144676 0.144676 0.072338 0.289352 0.289352 0.289352 0.144676 0.144676 0.144676 0.0723379 0.289352 0.289352 0.289352 0.144676 0.144676 0.144676 0.0723379 0.289352 0.289352 0.289352 0.144676 0.144676 0.144676 0.0723379 0.289352 0.289352 0.289352 0.144676 0.144676 0.144676 0.072338 0.289352 0.289352 0.289352 0.144676 0.144676 0.144676 0.0723379 0.289352 0.289352 0.289352 0.144676 0.144676 0.144676 0.0723379 0.144676 0.144676 0.289352 0.072338 0.144676 0.144676 0.072338 0.289352 0.144676 0.289352 0.289352 0.144676 0.144676 0.144676 0.0723379 0.144676 0.0723379 0.289352 0.289352 0.289352 0.144676 0.144676 0.144676 0.0723379 0.289352 0.289352 0.289352 0.144676 0.144676 0.144676 0.072338 0.289352 0.289352 0.289352 0.144676 0.144676 0.144676 0.0723379 0.289352 0.289352 0.289352 0.144676 0.144676 0.144676 0.0723379 0.289352 0.289352 0.289352 0.144676 0.144676 0.144676 0.0723379 0.289352 0.289352 0.289352 0.144676 0.144676 0.144676 0.0723379 0.289352 0.289352 0.289352 0.144676 0.144676 0.144676 0.0723379 0.289352 0.289352 0.289352 0.144676 0.144676 0.144676 0.0723379 0.289352 0.289352 0.289352 0.144676 0.144676 0.144676 0.0723379 0.289352 0.289352 0.289352 0.144676 0.144676 0.144676 0.0723379 0.289352 0.289352 0.289352 0.144676 0.144676 0.144676 0.0723379 0.289352 0.289352 0.289352 0.144676 0.144676 0.144676 0.0723379 0.289352 0.289352 0.289352 0.144676 0.144676 0.144676 0.072338 0.289352 0.289352 0.289352 0.144676 0.144676 0.144676 0.0723379 0.289352 0.289352 0.289352 0.144676 0.144676 0.144676 0.072338 0.289352 0.289352 0.289352 0.144676 0.144676 0.144676 0.0723379 0.289352 0.289352 0.289352 0.144676 0.144676 0.144676 0.0723379 0.289352 0.289352 0.289352 0.144676 0.144676 0.144676 0.0723379 0.289352 0.289352 0.289352 0.144676 0.144676 0.144676 0.0723379 0.289352 0.289352 0.289352 0.144676 0.144676 0.144676 0.072338 0.289352 0.289352 0.289352 0.144676 0.144676 0.144676 0.0723379 0.289352 0.289352 0.289352 0.144676 0.144676 0.144676 0.0723379 0.144676 0.144676 0.289352 0.0723379 0.144676 0.144676 0.0723379 0.289352 0.144676 0.289352 0.289352 0.144676 0.144676 0.144676 0.0723379 0.144676 0.0723379 0.289352 0.289352 0.289352 0.144676 0.144676 0.144676 0.072338 0.289352 0.289352 0.289352 0.144676 0.144676 0.144676 0.072338 0.289352 0.289352 0.289352 0.144676 0.144676 0.144676 0.0723379 0.289352 0.289352 0.289352 0.144676 0.144676 0.144676 0.0723379 0.289352 0.289352 0.289352 0.144676 0.144676 0.144676 0.072338 0.289352 0.289352 0.289352 0.144676 0.144676 0.144676 0.0723379 0.289352 0.289352 0.289352 0.144676 0.144676 0.144676 0.0723379 0.289352 0.289352 0.289352 0.144676 0.144676 0.144676 0.072338 0.289352 0.289352 0.289352 0.144676 0.144676 0.144676 0.0723379 0.289352 0.289352 0.289352 0.144676 0.144676 0.144676 0.0723379 0.289352 0.289352 0.289352 0.144676 0.144676 0.144676 0.0723379 0.289352 0.289352 0.289352 0.144676 0.144676 0.144676 0.0723379 0.289352 0.289352 0.289352 0.144676 0.144676 0.144676 0.072338 0.289352 0.289352 0.289352 0.144676 0.144676 0.144676 0.0723379 0.289352 0.289352 0.289352 0.144676 0.144676 0.144676 0.072338 0.289352 0.289352 0.289352 0.144676 0.144676 0.144676 0.0723379 0.289352 0.289352 0.289352 0.144676 0.144676 0.144676 0.0723379 0.289352 0.289352 0.289352 0.144676 0.144676 0.144676 0.0723379 0.289352 0.289352 0.289352 0.144676 0.144676 0.144676 0.0723379 0.289352 0.289352 0.289352 0.144676 0.144676 0.144676 0.072338 0.289352 0.289352 0.289352 0.144676 0.144676 0.144676 0.0723379 0.289352 0.289352 0.289352 0.144676 0.144676 0.144676 0.0723379 0.144676 0.144676 0.289352 0.072338 0.144676 0.144676 0.072338 0.289352 0.144676 0.289352 0.289352 0.144676 0.144676 0.144676 0.072338 0.144676 0.072338 0.289352 0.289352 0.289352 0.144676 0.144676 0.144676 0.072338 0.289352 0.289352 0.289352 0.144676 0.144676 0.144676 0.072338 0.289352 0.289352 0.289352 0.144676 0.144676 0.144676 0.0723379 0.289352 0.289352 0.289352 0.144676 0.144676 0.144676 0.0723379 0.289352 0.289352 0.289352 0.144676 0.144676 0.144676 0.072338 0.289352 0.289352 0.289352 0.144676 0.144676 0.144676 0.072338 0.289352 0.289352 0.289352 0.144676 0.144676 0.144676 0.0723379 0.289352 0.289352 0.289352 0.144676 0.144676 0.144676 0.072338 0.289352 0.289352 0.289352 0.144676 0.144676 0.144676 0.0723379 0.289352 0.289352 0.289352 0.144676 0.144676 0.144676 0.0723379 0.289352 0.289352 0.289352 0.144676 0.144676 0.144676 0.072338 0.289352 0.289352 0.289352 0.144676 0.144676 0.144676 0.072338 0.289352 0.289352 0.289352 0.144676 0.144676 0.144676 0.072338 0.289352 0.289352 0.289352 0.144676 0.144676 0.144676 0.0723379 0.289352 0.289352 0.289352 0.144676 0.144676 0.144676 0.072338 0.289352 0.289352 0.289352 0.144676 0.144676 0.144676 0.072338 0.289352 0.289352 0.289352 0.144676 0.144676 0.144676 0.0723379 0.289352 0.289352 0.289352 0.144676 0.144676 0.144676 0.0723379 0.289352 0.289352 0.289352 0.144676 0.144676 0.144676 0.0723379 0.289352 0.289352 0.289352 0.144676 0.144676 0.144676 0.072338 0.289352 0.289352 0.289352 0.144676 0.144676 0.144676 0.0723379 0.289352 0.289352 0.289352 0.144676 0.144676 0.144676 0.0723379 0.144676 0.144676 0.289352 0.072338 0.144676 0.144676 0.072338 0.289352 0.144676 0.289352 0.289352 0.144676 0.144676 0.144676 0.072338 0.144676 0.072338 0.289352 0.289352 0.289352 0.144676 0.144676 0.144676 0.072338 0.289352 0.289352 0.289352 0.144676 0.144676 0.144676 0.072338 0.289352 0.289352 0.289352 0.144676 0.144676 0.144676 0.0723379 0.289352 0.289352 0.289352 0.144676 0.144676 0.144676 0.072338 0.289352 0.289352 0.289352 0.144676 0.144676 0.144676 0.072338 0.289352 0.289352 0.289352 0.144676 0.144676 0.144676 0.072338 0.289352 0.289352 0.289352 0.144676 0.144676 0.144676 0.072338 0.289352 0.289352 0.289352 0.144676 0.144676 0.144676 0.072338 0.289352 0.289352 0.289352 0.144676 0.144676 0.144676 0.0723379 0.289352 0.289352 0.289352 0.144676 0.144676 0.144676 0.0723379 0.289352 0.289352 0.289352 0.144676 0.144676 0.144676 0.072338 0.289352 0.289352 0.289352 0.144676 0.144676 0.144676 0.072338 0.289352 0.289352 0.289352 0.144676 0.144676 0.144676 0.072338 0.289352 0.289352 0.289352 0.144676 0.144676 0.144676 0.0723379 0.289352 0.289352 0.289352 0.144676 0.144676 0.144676 0.072338 0.289352 0.289352 0.289352 0.144676 0.144676 0.144676 0.072338 0.289352 0.289352 0.289352 0.144676 0.144676 0.144676 0.0723379 0.289352 0.289352 0.289352 0.144676 0.144676 0.144676 0.0723379 0.289352 0.289352 0.289352 0.144676 0.144676 0.144676 0.0723379 0.289352 0.289352 0.289352 0.144676 0.144676 0.144676 0.072338 0.289352 0.289352 0.289352 0.144676 0.144676 0.144676 0.0723379 0.289352 0.289352 0.289352 0.144676 0.144676 0.144676 0.0723379 0.144676 0.144676 0.289352 0.072338 0.144676 0.144676 0.072338 0.289352 0.144676 0.144676 0.144676 0.0723379 0.144676 0.144676 0.0723379 0.0723379 0.0723379 0.289352 0.144676 0.144676 0.144676 0.144676 0.072338 0.072338 0.289352 0.144676 0.144676 0.144676 0.144676 0.072338 0.072338 0.289352 0.144676 0.144676 0.144676 0.144676 0.0723379 0.0723379 0.289352 0.144676 0.144676 0.144676 0.144676 0.0723379 0.0723379 0.289352 0.144676 0.144676 0.144676 0.144676 0.072338 0.072338 0.289352 0.144676 0.144676 0.144676 0.144676 0.0723379 0.0723379 0.289352 0.144676 0.144676 0.144676 0.144676 0.0723379 0.0723379 0.289352 0.144676 0.144676 0.144676 0.144676 0.0723379 0.0723379 0.289352 0.144676 0.144676 0.144676 0.144676 0.0723379 0.0723379 0.289352 0.144676 0.144676 0.144676 0.144676 0.0723379 0.0723379 0.289352 0.144676 0.144676 0.144676 0.144676 0.0723379 0.0723379 0.289352 0.144676 0.144676 0.144676 0.144676 0.0723379 0.0723379 0.289352 0.144676 0.144676 0.144676 0.144676 0.072338 0.072338 0.289352 0.144676 0.144676 0.144676 0.144676 0.0723379 0.0723379 0.289352 0.144676 0.144676 0.144676 0.144676 0.072338 0.072338 0.289352 0.144676 0.144676 0.144676 0.144676 0.0723379 0.0723379 0.289352 0.144676 0.144676 0.144676 0.144676 0.0723379 0.0723379 0.289352 0.144676 0.144676 0.144676 0.144676 0.0723379 0.0723379 0.289352 0.144676 0.144676 0.144676 0.144676 0.0723379 0.0723379 0.289352 0.144676 0.144676 0.144676 0.144676 0.072338 0.072338 0.289352 0.144676 0.144676 0.144676 0.144676 0.0723379 0.0723379 0.289352 0.144676 0.144676 0.144676 0.144676 0.0723379 0.0723379 0.144676 0.072338 0.144676 0.072338 0.144676 0.072338 0.072338 0.144676 0.144676 0.072338 0.289352 0.144676 0.289352 0.289352 0.144676 0.072338 0.144676 0.144676 0.072338 0.144676 0.072338 0.144676 0.144676 0.289352 0.289352 0.289352 0.072338 0.144676 0.144676 0.144676 0.072338 0.144676 0.144676 0.289352 0.289352 0.289352 0.072338 0.144676 0.144676 0.144676 0.072338 0.144676 0.144676 0.289352 0.289352 0.289352 0.0723379 0.144676 0.144676 0.144676 0.0723379 0.144676 0.144676 0.289352 0.289352 0.289352 0.072338 0.144676 0.144676 0.144676 0.072338 0.144676 0.144676 0.289352 0.289352 0.289352 0.072338 0.144676 0.144676 0.144676 0.072338 0.144676 0.144676 0.289352 0.289352 0.289352 0.072338 0.144676 0.144676 0.144676 0.072338 0.144676 0.144676 0.289352 0.289352 0.289352 0.072338 0.144676 0.144676 0.144676 0.072338 0.144676 0.144676 0.289352 0.289352 0.289352 0.072338 0.144676 0.144676 0.144676 0.072338 0.144676 0.144676 0.289352 0.289352 0.289352 0.0723379 0.144676 0.144676 0.144676 0.0723379 0.144676 0.144676 0.289352 0.289352 0.289352 0.0723379 0.144676 0.144676 0.144676 0.0723379 0.144676 0.144676 0.289352 0.289352 0.289352 0.072338 0.144676 0.144676 0.144676 0.072338 0.144676 0.144676 0.289352 0.289352 0.289352 0.072338 0.144676 0.144676 0.144676 0.072338 0.144676 0.144676 0.289352 0.289352 0.289352 0.072338 0.144676 0.144676 0.144676 0.072338 0.144676 0.144676 0.289352 0.289352 0.289352 0.0723379 0.144676 0.144676 0.144676 0.0723379 0.144676 0.144676 0.289352 0.289352 0.289352 0.072338 0.144676 0.144676 0.144676 0.072338 0.144676 0.144676 0.289352 0.289352 0.289352 0.072338 0.144676 0.144676 0.144676 0.072338 0.144676 0.144676 0.289352 0.289352 0.289352 0.0723379 0.144676 0.144676 0.144676 0.0723379 0.144676 0.144676 0.289352 0.289352 0.289352 0.0723379 0.144676 0.144676 0.144676 0.0723379 0.144676 0.144676 0.289352 0.289352 0.289352 0.0723379 0.144676 0.144676 0.144676 0.0723379 0.144676 0.144676 0.289352 0.289352 0.289352 0.072338 0.144676 0.144676 0.144676 0.072338 0.144676 0.144676 0.289352 0.289352 0.289352 0.0723379 0.144676 0.144676 0.144676 0.0723379 0.144676 0.144676 0.289352 0.289352 0.289352 0.0723379 0.144676 0.144676 0.144676 0.0723379 0.072338 0.144676 0.144676 0.144676 0.289352 0.072338 0.072338 0.144676 0.144676 0.072338 0.289352 0.144676 0.289352 0.289352 0.144676 0.144676 0.144676 0.072338 0.144676 0.072338 0.289352 0.289352 0.289352 0.144676 0.144676 0.144676 0.072338 0.289352 0.289352 0.289352 0.144676 0.144676 0.144676 0.072338 0.289352 0.289352 0.289352 0.144676 0.144676 0.144676 0.0723379 0.289352 0.289352 0.289352 0.144676 0.144676 0.144676 0.072338 0.289352 0.289352 0.289352 0.144676 0.144676 0.144676 0.072338 0.289352 0.289352 0.289352 0.144676 0.144676 0.144676 0.072338 0.289352 0.289352 0.289352 0.144676 0.144676 0.144676 0.0723379 0.289352 0.289352 0.289352 0.144676 0.144676 0.144676 0.072338 0.289352 0.289352 0.289352 0.144676 0.144676 0.144676 0.0723379 0.289352 0.289352 0.289352 0.144676 0.144676 0.144676 0.0723379 0.289352 0.289352 0.289352 0.144676 0.144676 0.144676 0.072338 0.289352 0.289352 0.289352 0.144676 0.144676 0.144676 0.0723379 0.289352 0.289352 0.289352 0.144676 0.144676 0.144676 0.072338 0.289352 0.289352 0.289352 0.144676 0.144676 0.144676 0.0723379 0.289352 0.289352 0.289352 0.144676 0.144676 0.144676 0.072338 0.289352 0.289352 0.289352 0.144676 0.144676 0.144676 0.072338 0.289352 0.289352 0.289352 0.144676 0.144676 0.144676 0.0723379 0.289352 0.289352 0.289352 0.144676 0.144676 0.144676 0.0723379 0.289352 0.289352 0.289352 0.144676 0.144676 0.144676 0.0723379 0.289352 0.289352 0.289352 0.144676 0.144676 0.144676 0.072338 0.289352 0.289352 0.289352 0.144676 0.144676 0.144676 0.0723379 0.289352 0.289352 0.289352 0.144676 0.144676 0.144676 0.0723379 0.144676 0.144676 0.289352 0.072338 0.144676 0.144676 0.072338 0.289352 0.144676 0.289352 0.289352 0.144676 0.144676 0.144676 0.072338 0.144676 0.072338 0.289352 0.289352 0.289352 0.144676 0.144676 0.144676 0.072338 0.289352 0.289352 0.289352 0.144676 0.144676 0.144676 0.072338 0.289352 0.289352 0.289352 0.144676 0.144676 0.144676 0.0723379 0.289352 0.289352 0.289352 0.144676 0.144676 0.144676 0.072338 0.289352 0.289352 0.289352 0.144676 0.144676 0.144676 0.072338 0.289352 0.289352 0.289352 0.144676 0.144676 0.144676 0.072338 0.289352 0.289352 0.289352 0.144676 0.144676 0.144676 0.072338 0.289352 0.289352 0.289352 0.144676 0.144676 0.144676 0.072338 0.289352 0.289352 0.289352 0.144676 0.144676 0.144676 0.0723379 0.289352 0.289352 0.289352 0.144676 0.144676 0.144676 0.0723379 0.289352 0.289352 0.289352 0.144676 0.144676 0.144676 0.072338 0.289352 0.289352 0.289352 0.144676 0.144676 0.144676 0.072338 0.289352 0.289352 0.289352 0.144676 0.144676 0.144676 0.072338 0.289352 0.289352 0.289352 0.144676 0.144676 0.144676 0.0723379 0.289352 0.289352 0.289352 0.144676 0.144676 0.144676 0.072338 0.289352 0.289352 0.289352 0.144676 0.144676 0.144676 0.072338 0.289352 0.289352 0.289352 0.144676 0.144676 0.144676 0.0723379 0.289352 0.289352 0.289352 0.144676 0.144676 0.144676 0.0723379 0.289352 0.289352 0.289352 0.144676 0.144676 0.144676 0.0723379 0.289352 0.289352 0.289352 0.144676 0.144676 0.144676 0.072338 0.289352 0.289352 0.289352 0.144676 0.144676 0.144676 0.0723379 0.289352 0.289352 0.289352 0.144676 0.144676 0.144676 0.0723379 0.144676 0.144676 0.289352 0.072338 0.144676 0.144676 0.072338 0.289352 0.144676 0.289352 0.289352 0.144676 0.144676 0.144676 0.0723379 0.144676 0.0723379 0.289352 0.289352 0.289352 0.144676 0.144676 0.144676 0.0723379 0.289352 0.289352 0.289352 0.144676 0.144676 0.144676 0.072338 0.289352 0.289352 0.289352 0.144676 0.144676 0.144676 0.0723379 0.289352 0.289352 0.289352 0.144676 0.144676 0.144676 0.0723379 0.289352 0.289352 0.289352 0.144676 0.144676 0.144676 0.072338 0.289352 0.289352 0.289352 0.144676 0.144676 0.144676 0.0723379 0.289352 0.289352 0.289352 0.144676 0.144676 0.144676 0.0723379 0.289352 0.289352 0.289352 0.144676 0.144676 0.144676 0.0723379 0.289352 0.289352 0.289352 0.144676 0.144676 0.144676 0.0723379 0.289352 0.289352 0.289352 0.144676 0.144676 0.144676 0.0723379 0.289352 0.289352 0.289352 0.144676 0.144676 0.144676 0.0723379 0.289352 0.289352 0.289352 0.144676 0.144676 0.144676 0.0723379 0.289352 0.289352 0.289352 0.144676 0.144676 0.144676 0.072338 0.289352 0.289352 0.289352 0.144676 0.144676 0.144676 0.0723379 0.289352 0.289352 0.289352 0.144676 0.144676 0.144676 0.072338 0.289352 0.289352 0.289352 0.144676 0.144676 0.144676 0.0723379 0.289352 0.289352 0.289352 0.144676 0.144676 0.144676 0.0723379 0.289352 0.289352 0.289352 0.144676 0.144676 0.144676 0.0723379 0.289352 0.289352 0.289352 0.144676 0.144676 0.144676 0.0723379 0.289352 0.289352 0.289352 0.144676 0.144676 0.144676 0.072338 0.289352 0.289352 0.289352 0.144676 0.144676 0.144676 0.0723379 0.289352 0.289352 0.289352 0.144676 0.144676 0.144676 0.0723379 0.144676 0.144676 0.289352 0.072338 0.144676 0.144676 0.072338 0.289352 0.144676 0.289352 0.289352 0.144676 0.144676 0.144676 0.072338 0.144676 0.072338 0.289352 0.289352 0.289352 0.144676 0.144676 0.144676 0.072338 0.289352 0.289352 0.289352 0.144676 0.144676 0.144676 0.072338 0.289352 0.289352 0.289352 0.144676 0.144676 0.144676 0.0723379 0.289352 0.289352 0.289352 0.144676 0.144676 0.144676 0.0723379 0.289352 0.289352 0.289352 0.144676 0.144676 0.144676 0.072338 0.289352 0.289352 0.289352 0.144676 0.144676 0.144676 0.0723379 0.289352 0.289352 0.289352 0.144676 0.144676 0.144676 0.0723379 0.289352 0.289352 0.289352 0.144676 0.144676 0.144676 0.072338 0.289352 0.289352 0.289352 0.144676 0.144676 0.144676 0.0723379 0.289352 0.289352 0.289352 0.144676 0.144676 0.144676 0.0723379 0.289352 0.289352 0.289352 0.144676 0.144676 0.144676 0.0723379 0.289352 0.289352 0.289352 0.144676 0.144676 0.144676 0.0723379 0.289352 0.289352 0.289352 0.144676 0.144676 0.144676 0.072338 0.289352 0.289352 0.289352 0.144676 0.144676 0.144676 0.0723379 0.289352 0.289352 0.289352 0.144676 0.144676 0.144676 0.072338 0.289352 0.289352 0.289352 0.144676 0.144676 0.144676 0.0723379 0.289352 0.289352 0.289352 0.144676 0.144676 0.144676 0.0723379 0.289352 0.289352 0.289352 0.144676 0.144676 0.144676 0.0723379 0.289352 0.289352 0.289352 0.144676 0.144676 0.144676 0.0723379 0.289352 0.289352 0.289352 0.144676 0.144676 0.144676 0.072338 0.289352 0.289352 0.289352 0.144676 0.144676 0.144676 0.0723379 0.289352 0.289352 0.289352 0.144676 0.144676 0.144676 0.0723379 0.144676 0.144676 0.289352 0.072338 0.144676 0.144676 0.072338 0.289352 0.144676 0.289352 0.289352 0.144676 0.144676 0.144676 0.072338 0.144676 0.072338 0.289352 0.289352 0.289352 0.144676 0.144676 0.144676 0.072338 0.289352 0.289352 0.289352 0.144676 0.144676 0.144676 0.072338 0.289352 0.289352 0.289352 0.144676 0.144676 0.144676 0.0723379 0.289352 0.289352 0.289352 0.144676 0.144676 0.144676 0.072338 0.289352 0.289352 0.289352 0.144676 0.144676 0.144676 0.072338 0.289352 0.289352 0.289352 0.144676 0.144676 0.144676 0.072338 0.289352 0.289352 0.289352 0.144676 0.144676 0.144676 0.072338 0.289352 0.289352 0.289352 0.144676 0.144676 0.144676 0.072338 0.289352 0.289352 0.289352 0.144676 0.144676 0.144676 0.0723379 0.289352 0.289352 0.289352 0.144676 0.144676 0.144676 0.0723379 0.289352 0.289352 0.289352 0.144676 0.144676 0.144676 0.072338 0.289352 0.289352 0.289352 0.144676 0.144676 0.144676 0.072338 0.289352 0.289352 0.289352 0.144676 0.144676 0.144676 0.072338 0.289352 0.289352 0.289352 0.144676 0.144676 0.144676 0.0723379 0.289352 0.289352 0.289352 0.144676 0.144676 0.144676 0.072338 0.289352 0.289352 0.289352 0.144676 0.144676 0.144676 0.072338 0.289352 0.289352 0.289352 0.144676 0.144676 0.144676 0.0723379 0.289352 0.289352 0.289352 0.144676 0.144676 0.144676 0.0723379 0.289352 0.289352 0.289352 0.144676 0.144676 0.144676 0.0723379 0.289352 0.289352 0.289352 0.144676 0.144676 0.144676 0.072338 0.289352 0.289352 0.289352 0.144676 0.144676 0.144676 0.072338 0.289352 0.289352 0.289352 0.144676 0.144676 0.144676 0.0723379 0.144676 0.144676 0.289352 0.072338 0.144676 0.144676 0.072338 0.289352 0.144676 0.289352 0.289352 0.144676 0.144676 0.144676 0.072338 0.144676 0.072338 0.289352 0.289352 0.289352 0.144676 0.144676 0.144676 0.072338 0.289352 0.289352 0.289352 0.144676 0.144676 0.144676 0.072338 0.289352 0.289352 0.289352 0.144676 0.144676 0.144676 0.072338 0.289352 0.289352 0.289352 0.144676 0.144676 0.144676 0.072338 0.289352 0.289352 0.289352 0.144676 0.144676 0.144676 0.072338 0.289352 0.289352 0.289352 0.144676 0.144676 0.144676 0.072338 0.289352 0.289352 0.289352 0.144676 0.144676 0.144676 0.072338 0.289352 0.289352 0.289352 0.144676 0.144676 0.144676 0.072338 0.289352 0.289352 0.289352 0.144676 0.144676 0.144676 0.0723379 0.289352 0.289352 0.289352 0.144676 0.144676 0.144676 0.0723379 0.289352 0.289352 0.289352 0.144676 0.144676 0.144676 0.072338 0.289352 0.289352 0.289352 0.144676 0.144676 0.144676 0.072338 0.289352 0.289352 0.289352 0.144676 0.144676 0.144676 0.072338 0.289352 0.289352 0.289352 0.144676 0.144676 0.144676 0.0723379 0.289352 0.289352 0.289352 0.144676 0.144676 0.144676 0.072338 0.289352 0.289352 0.289352 0.144676 0.144676 0.144676 0.072338 0.289352 0.289352 0.289352 0.144676 0.144676 0.144676 0.0723379 0.289352 0.289352 0.289352 0.144676 0.144676 0.144676 0.0723379 0.289352 0.289352 0.289352 0.144676 0.144676 0.144676 0.0723379 0.289352 0.289352 0.289352 0.144676 0.144676 0.144676 0.072338 0.289352 0.289352 0.289352 0.144676 0.144676 0.144676 0.0723379 0.289352 0.289352 0.289352 0.144676 0.144676 0.144676 0.0723379 0.144676 0.144676 0.289352 0.072338 0.144676 0.144676 0.072338 0.289352 0.144676 0.144676 0.144676 0.0723379 0.144676 0.144676 0.0723379 0.0723379 0.0723379 0.289352 0.144676 0.144676 0.144676 0.144676 0.072338 0.072338 0.289352 0.144676 0.144676 0.144676 0.144676 0.072338 0.072338 0.289352 0.144676 0.144676 0.144676 0.144676 0.0723379 0.0723379 0.289352 0.144676 0.144676 0.144676 0.144676 0.0723379 0.0723379 0.289352 0.144676 0.144676 0.144676 0.144676 0.072338 0.072338 0.289352 0.144676 0.144676 0.144676 0.144676 0.0723379 0.0723379 0.289352 0.144676 0.144676 0.144676 0.144676 0.0723379 0.0723379 0.289352 0.144676 0.144676 0.144676 0.144676 0.0723379 0.0723379 0.289352 0.144676 0.144676 0.144676 0.144676 0.0723379 0.0723379 0.289352 0.144676 0.144676 0.144676 0.144676 0.0723379 0.0723379 0.289352 0.144676 0.144676 0.144676 0.144676 0.072338 0.072338 0.289352 0.144676 0.144676 0.144676 0.144676 0.0723379 0.0723379 0.289352 0.144676 0.144676 0.144676 0.144676 0.072338 0.072338 0.289352 0.144676 0.144676 0.144676 0.144676 0.0723379 0.0723379 0.289352 0.144676 0.144676 0.144676 0.144676 0.072338 0.072338 0.289352 0.144676 0.144676 0.144676 0.144676 0.0723379 0.0723379 0.289352 0.144676 0.144676 0.144676 0.144676 0.0723379 0.0723379 0.289352 0.144676 0.144676 0.144676 0.144676 0.0723379 0.0723379 0.289352 0.144676 0.144676 0.144676 0.144676 0.0723379 0.0723379 0.289352 0.144676 0.144676 0.144676 0.144676 0.072338 0.072338 0.289352 0.144676 0.144676 0.144676 0.144676 0.0723379 0.0723379 0.289352 0.144676 0.144676 0.144676 0.144676 0.0723379 0.0723379 0.144676 0.072338 0.144676 0.072338 0.144676 0.072338 0.072338 0.144676 0.144676 0.072338 0.289352 0.144676 0.289352 0.289352 0.144676 0.072338 0.144676 0.144676 0.072338 0.144676 0.072338 0.144676 0.144676 0.289352 0.289352 0.289352 0.072338 0.144676 0.144676 0.144676 0.072338 0.144676 0.144676 0.289352 0.289352 0.289352 0.072338 0.144676 0.144676 0.144676 0.072338 0.144676 0.144676 0.289352 0.289352 0.289352 0.072338 0.144676 0.144676 0.144676 0.072338 0.144676 0.144676 0.289352 0.289352 0.289352 0.072338 0.144676 0.144676 0.144676 0.072338 0.144676 0.144676 0.289352 0.289352 0.289352 0.072338 0.144676 0.144676 0.144676 0.072338 0.144676 0.144676 0.289352 0.289352 0.289352 0.072338 0.144676 0.144676 0.144676 0.072338 0.144676 0.144676 0.289352 0.289352 0.289352 0.072338 0.144676 0.144676 0.144676 0.072338 0.144676 0.144676 0.289352 0.289352 0.289352 0.072338 0.144676 0.144676 0.144676 0.072338 0.144676 0.144676 0.289352 0.289352 0.289352 0.0723379 0.144676 0.144676 0.144676 0.0723379 0.144676 0.144676 0.289352 0.289352 0.289352 0.0723379 0.144676 0.144676 0.144676 0.0723379 0.144676 0.144676 0.289352 0.289352 0.289352 0.072338 0.144676 0.144676 0.144676 0.072338 0.144676 0.144676 0.289352 0.289352 0.289352 0.072338 0.144676 0.144676 0.144676 0.072338 0.144676 0.144676 0.289352 0.289352 0.289352 0.072338 0.144676 0.144676 0.144676 0.072338 0.144676 0.144676 0.289352 0.289352 0.289352 0.0723379 0.144676 0.144676 0.144676 0.0723379 0.144676 0.144676 0.289352 0.289352 0.289352 0.072338 0.144676 0.144676 0.144676 0.072338 0.144676 0.144676 0.289352 0.289352 0.289352 0.072338 0.144676 0.144676 0.144676 0.072338 0.144676 0.144676 0.289352 0.289352 0.289352 0.0723379 0.144676 0.144676 0.144676 0.0723379 0.144676 0.144676 0.289352 0.289352 0.289352 0.0723379 0.144676 0.144676 0.144676 0.0723379 0.144676 0.144676 0.289352 0.289352 0.289352 0.0723379 0.144676 0.144676 0.144676 0.0723379 0.144676 0.144676 0.289352 0.289352 0.289352 0.072338 0.144676 0.144676 0.144676 0.072338 0.144676 0.144676 0.289352 0.289352 0.289352 0.072338 0.144676 0.144676 0.144676 0.072338 0.144676 0.144676 0.289352 0.289352 0.289352 0.0723379 0.144676 0.144676 0.144676 0.0723379 0.072338 0.144676 0.144676 0.144676 0.289352 0.072338 0.072338 0.144676 0.144676 0.072338 0.289352 0.144676 0.289352 0.289352 0.144676 0.144676 0.144676 0.072338 0.144676 0.072338 0.289352 0.289352 0.289352 0.144676 0.144676 0.144676 0.072338 0.289352 0.289352 0.289352 0.144676 0.144676 0.144676 0.072338 0.289352 0.289352 0.289352 0.144676 0.144676 0.144676 0.072338 0.289352 0.289352 0.289352 0.144676 0.144676 0.144676 0.072338 0.289352 0.289352 0.289352 0.144676 0.144676 0.144676 0.072338 0.289352 0.289352 0.289352 0.144676 0.144676 0.144676 0.072338 0.289352 0.289352 0.289352 0.144676 0.144676 0.144676 0.072338 0.289352 0.289352 0.289352 0.144676 0.144676 0.144676 0.072338 0.289352 0.289352 0.289352 0.144676 0.144676 0.144676 0.0723379 0.289352 0.289352 0.289352 0.144676 0.144676 0.144676 0.0723379 0.289352 0.289352 0.289352 0.144676 0.144676 0.144676 0.072338 0.289352 0.289352 0.289352 0.144676 0.144676 0.144676 0.072338 0.289352 0.289352 0.289352 0.144676 0.144676 0.144676 0.072338 0.289352 0.289352 0.289352 0.144676 0.144676 0.144676 0.0723379 0.289352 0.289352 0.289352 0.144676 0.144676 0.144676 0.072338 0.289352 0.289352 0.289352 0.144676 0.144676 0.144676 0.072338 0.289352 0.289352 0.289352 0.144676 0.144676 0.144676 0.0723379 0.289352 0.289352 0.289352 0.144676 0.144676 0.144676 0.0723379 0.289352 0.289352 0.289352 0.144676 0.144676 0.144676 0.0723379 0.289352 0.289352 0.289352 0.144676 0.144676 0.144676 0.072338 0.289352 0.289352 0.289352 0.144676 0.144676 0.144676 0.072338 0.289352 0.289352 0.289352 0.144676 0.144676 0.144676 0.0723379 0.144676 0.144676 0.289352 0.072338 0.144676 0.144676 0.072338 0.289352 0.144676 0.289352 0.289352 0.144676 0.144676 0.144676 0.072338 0.144676 0.072338 0.289352 0.289352 0.289352 0.144676 0.144676 0.144676 0.072338 0.289352 0.289352 0.289352 0.144676 0.144676 0.144676 0.072338 0.289352 0.289352 0.289352 0.144676 0.144676 0.144676 0.072338 0.289352 0.289352 0.289352 0.144676 0.144676 0.144676 0.072338 0.289352 0.289352 0.289352 0.144676 0.144676 0.144676 0.072338 0.289352 0.289352 0.289352 0.144676 0.144676 0.144676 0.072338 0.289352 0.289352 0.289352 0.144676 0.144676 0.144676 0.072338 0.289352 0.289352 0.289352 0.144676 0.144676 0.144676 0.072338 0.289352 0.289352 0.289352 0.144676 0.144676 0.144676 0.0723379 0.289352 0.289352 0.289352 0.144676 0.144676 0.144676 0.0723379 0.289352 0.289352 0.289352 0.144676 0.144676 0.144676 0.072338 0.289352 0.289352 0.289352 0.144676 0.144676 0.144676 0.072338 0.289352 0.289352 0.289352 0.144676 0.144676 0.144676 0.072338 0.289352 0.289352 0.289352 0.144676 0.144676 0.144676 0.0723379 0.289352 0.289352 0.289352 0.144676 0.144676 0.144676 0.072338 0.289352 0.289352 0.289352 0.144676 0.144676 0.144676 0.072338 0.289352 0.289352 0.289352 0.144676 0.144676 0.144676 0.0723379 0.289352 0.289352 0.289352 0.144676 0.144676 0.144676 0.0723379 0.289352 0.289352 0.289352 0.144676 0.144676 0.144676 0.0723379 0.289352 0.289352 0.289352 0.144676 0.144676 0.144676 0.072338 0.289352 0.289352 0.289352 0.144676 0.144676 0.144676 0.0723379 0.289352 0.289352 0.289352 0.144676 0.144676 0.144676 0.0723379 0.144676 0.144676 0.289352 0.072338 0.144676 0.144676 0.072338 0.289352 0.144676 0.289352 0.289352 0.144676 0.144676 0.144676 0.072338 0.144676 0.072338 0.289352 0.289352 0.289352 0.144676 0.144676 0.144676 0.072338 0.289352 0.289352 0.289352 0.144676 0.144676 0.144676 0.072338 0.289352 0.289352 0.289352 0.144676 0.144676 0.144676 0.072338 0.289352 0.289352 0.289352 0.144676 0.144676 0.144676 0.072338 0.289352 0.289352 0.289352 0.144676 0.144676 0.144676 0.072338 0.289352 0.289352 0.289352 0.144676 0.144676 0.144676 0.072338 0.289352 0.289352 0.289352 0.144676 0.144676 0.144676 0.072338 0.289352 0.289352 0.289352 0.144676 0.144676 0.144676 0.072338 0.289352 0.289352 0.289352 0.144676 0.144676 0.144676 0.0723379 0.289352 0.289352 0.289352 0.144676 0.144676 0.144676 0.0723379 0.289352 0.289352 0.289352 0.144676 0.144676 0.144676 0.072338 0.289352 0.289352 0.289352 0.144676 0.144676 0.144676 0.072338 0.289352 0.289352 0.289352 0.144676 0.144676 0.144676 0.072338 0.289352 0.289352 0.289352 0.144676 0.144676 0.144676 0.0723379 0.289352 0.289352 0.289352 0.144676 0.144676 0.144676 0.072338 0.289352 0.289352 0.289352 0.144676 0.144676 0.144676 0.072338 0.289352 0.289352 0.289352 0.144676 0.144676 0.144676 0.0723379 0.289352 0.289352 0.289352 0.144676 0.144676 0.144676 0.0723379 0.289352 0.289352 0.289352 0.144676 0.144676 0.144676 0.0723379 0.289352 0.289352 0.289352 0.144676 0.144676 0.144676 0.072338 0.289352 0.289352 0.289352 0.144676 0.144676 0.144676 0.0723379 0.289352 0.289352 0.289352 0.144676 0.144676 0.144676 0.0723379 0.144676 0.144676 0.289352 0.072338 0.144676 0.144676 0.072338 0.289352 0.144676 0.289352 0.289352 0.144676 0.144676 0.144676 0.072338 0.144676 0.072338 0.289352 0.289352 0.289352 0.144676 0.144676 0.144676 0.072338 0.289352 0.289352 0.289352 0.144676 0.144676 0.144676 0.072338 0.289352 0.289352 0.289352 0.144676 0.144676 0.144676 0.0723379 0.289352 0.289352 0.289352 0.144676 0.144676 0.144676 0.072338 0.289352 0.289352 0.289352 0.144676 0.144676 0.144676 0.072338 0.289352 0.289352 0.289352 0.144676 0.144676 0.144676 0.072338 0.289352 0.289352 0.289352 0.144676 0.144676 0.144676 0.0723379 0.289352 0.289352 0.289352 0.144676 0.144676 0.144676 0.072338 0.289352 0.289352 0.289352 0.144676 0.144676 0.144676 0.0723379 0.289352 0.289352 0.289352 0.144676 0.144676 0.144676 0.0723379 0.289352 0.289352 0.289352 0.144676 0.144676 0.144676 0.072338 0.289352 0.289352 0.289352 0.144676 0.144676 0.144676 0.072338 0.289352 0.289352 0.289352 0.144676 0.144676 0.144676 0.072338 0.289352 0.289352 0.289352 0.144676 0.144676 0.144676 0.0723379 0.289352 0.289352 0.289352 0.144676 0.144676 0.144676 0.072338 0.289352 0.289352 0.289352 0.144676 0.144676 0.144676 0.072338 0.289352 0.289352 0.289352 0.144676 0.144676 0.144676 0.0723379 0.289352 0.289352 0.289352 0.144676 0.144676 0.144676 0.0723379 0.289352 0.289352 0.289352 0.144676 0.144676 0.144676 0.0723379 0.289352 0.289352 0.289352 0.144676 0.144676 0.144676 0.072338 0.289352 0.289352 0.289352 0.144676 0.144676 0.144676 0.0723379 0.289352 0.289352 0.289352 0.144676 0.144676 0.144676 0.0723379 0.144676 0.144676 0.289352 0.072338 0.144676 0.144676 0.072338 0.289352 0.144676 0.289352 0.289352 0.144676 0.144676 0.144676 0.072338 0.144676 0.072338 0.289352 0.289352 0.289352 0.144676 0.144676 0.144676 0.072338 0.289352 0.289352 0.289352 0.144676 0.144676 0.144676 0.072338 0.289352 0.289352 0.289352 0.144676 0.144676 0.144676 0.072338 0.289352 0.289352 0.289352 0.144676 0.144676 0.144676 0.072338 0.289352 0.289352 0.289352 0.144676 0.144676 0.144676 0.072338 0.289352 0.289352 0.289352 0.144676 0.144676 0.144676 0.072338 0.289352 0.289352 0.289352 0.144676 0.144676 0.144676 0.072338 0.289352 0.289352 0.289352 0.144676 0.144676 0.144676 0.072338 0.289352 0.289352 0.289352 0.144676 0.144676 0.144676 0.0723379 0.289352 0.289352 0.289352 0.144676 0.144676 0.144676 0.072338 0.289352 0.289352 0.289352 0.144676 0.144676 0.144676 0.072338 0.289352 0.289352 0.289352 0.144676 0.144676 0.144676 0.072338 0.289352 0.289352 0.289352 0.144676 0.144676 0.144676 0.072338 0.289352 0.289352 0.289352 0.144676 0.144676 0.144676 0.0723379 0.289352 0.289352 0.289352 0.144676 0.144676 0.144676 0.072338 0.289352 0.289352 0.289352 0.144676 0.144676 0.144676 0.072338 0.289352 0.289352 0.289352 0.144676 0.144676 0.144676 0.0723379 0.289352 0.289352 0.289352 0.144676 0.144676 0.144676 0.0723379 0.289352 0.289352 0.289352 0.144676 0.144676 0.144676 0.0723379 0.289352 0.289352 0.289352 0.144676 0.144676 0.144676 0.072338 0.289352 0.289352 0.289352 0.144676 0.144676 0.144676 0.072338 0.289352 0.289352 0.289352 0.144676 0.144676 0.144676 0.0723379 0.144676 0.144676 0.289352 0.072338 0.144676 0.144676 0.072338 0.289352 0.144676 0.289352 0.289352 0.144676 0.144676 0.144676 0.072338 0.144676 0.072338 0.289352 0.289352 0.289352 0.144676 0.144676 0.144676 0.072338 0.289352 0.289352 0.289352 0.144676 0.144676 0.144676 0.072338 0.289352 0.289352 0.289352 0.144676 0.144676 0.144676 0.072338 0.289352 0.289352 0.289352 0.144676 0.144676 0.144676 0.072338 0.289352 0.289352 0.289352 0.144676 0.144676 0.144676 0.072338 0.289352 0.289352 0.289352 0.144676 0.144676 0.144676 0.072338 0.289352 0.289352 0.289352 0.144676 0.144676 0.144676 0.072338 0.289352 0.289352 0.289352 0.144676 0.144676 0.144676 0.072338 0.289352 0.289352 0.289352 0.144676 0.144676 0.144676 0.072338 0.289352 0.289352 0.289352 0.144676 0.144676 0.144676 0.072338 0.289352 0.289352 0.289352 0.144676 0.144676 0.144676 0.072338 0.289352 0.289352 0.289352 0.144676 0.144676 0.144676 0.072338 0.289352 0.289352 0.289352 0.144676 0.144676 0.144676 0.072338 0.289352 0.289352 0.289352 0.144676 0.144676 0.144676 0.0723379 0.289352 0.289352 0.289352 0.144676 0.144676 0.144676 0.072338 0.289352 0.289352 0.289352 0.144676 0.144676 0.144676 0.072338 0.289352 0.289352 0.289352 0.144676 0.144676 0.144676 0.072338 0.289352 0.289352 0.289352 0.144676 0.144676 0.144676 0.0723379 0.289352 0.289352 0.289352 0.144676 0.144676 0.144676 0.0723379 0.289352 0.289352 0.289352 0.144676 0.144676 0.144676 0.072338 0.289352 0.289352 0.289352 0.144676 0.144676 0.144676 0.072338 0.289352 0.289352 0.289352 0.144676 0.144676 0.144676 0.0723379 0.144676 0.144676 0.289352 0.072338 0.144676 0.144676 0.072338 0.289352 0.144676 0.144676 0.144676 0.072338 0.144676 0.144676 0.072338 0.072338 0.072338 0.289352 0.144676 0.144676 0.144676 0.144676 0.072338 0.072338 0.289352 0.144676 0.144676 0.144676 0.144676 0.072338 0.072338 0.289352 0.144676 0.144676 0.144676 0.144676 0.0723379 0.0723379 0.289352 0.144676 0.144676 0.144676 0.144676 0.072338 0.072338 0.289352 0.144676 0.144676 0.144676 0.144676 0.072338 0.072338 0.289352 0.144676 0.144676 0.144676 0.144676 0.0723379 0.0723379 0.289352 0.144676 0.144676 0.144676 0.144676 0.0723379 0.0723379 0.289352 0.144676 0.144676 0.144676 0.144676 0.072338 0.072338 0.289352 0.144676 0.144676 0.144676 0.144676 0.0723379 0.0723379 0.289352 0.144676 0.144676 0.144676 0.144676 0.0723379 0.0723379 0.289352 0.144676 0.144676 0.144676 0.144676 0.072338 0.072338 0.289352 0.144676 0.144676 0.144676 0.144676 0.0723379 0.0723379 0.289352 0.144676 0.144676 0.144676 0.144676 0.072338 0.072338 0.289352 0.144676 0.144676 0.144676 0.144676 0.0723379 0.0723379 0.289352 0.144676 0.144676 0.144676 0.144676 0.072338 0.072338 0.289352 0.144676 0.144676 0.144676 0.144676 0.0723379 0.0723379 0.289352 0.144676 0.144676 0.144676 0.144676 0.0723379 0.0723379 0.289352 0.144676 0.144676 0.144676 0.144676 0.0723379 0.0723379 0.289352 0.144676 0.144676 0.144676 0.144676 0.0723379 0.0723379 0.289352 0.144676 0.144676 0.144676 0.144676 0.072338 0.072338 0.289352 0.144676 0.144676 0.144676 0.144676 0.0723379 0.0723379 0.289352 0.144676 0.144676 0.144676 0.144676 0.0723379 0.0723379 0.144676 0.072338 0.144676 0.072338 0.144676 0.072338 0.072338 0.144676 0.144676 0.072338 0.289352 0.144676 0.289352 0.289352 0.144676 0.072338 0.144676 0.144676 0.072338 0.144676 0.072338 0.144676 0.144676 0.289352 0.289352 0.289352 0.072338 0.144676 0.144676 0.144676 0.072338 0.144676 0.144676 0.289352 0.289352 0.289352 0.072338 0.144676 0.144676 0.144676 0.072338 0.144676 0.144676 0.289352 0.289352 0.289352 0.072338 0.144676 0.144676 0.144676 0.072338 0.144676 0.144676 0.289352 0.289352 0.289352 0.072338 0.144676 0.144676 0.144676 0.072338 0.144676 0.144676 0.289352 0.289352 0.289352 0.072338 0.144676 0.144676 0.144676 0.072338 0.144676 0.144676 0.289352 0.289352 0.289352 0.072338 0.144676 0.144676 0.144676 0.072338 0.144676 0.144676 0.289352 0.289352 0.289352 0.072338 0.144676 0.144676 0.144676 0.072338 0.144676 0.144676 0.289352 0.289352 0.289352 0.072338 0.144676 0.144676 0.144676 0.072338 0.144676 0.144676 0.289352 0.289352 0.289352 0.072338 0.144676 0.144676 0.144676 0.072338 0.144676 0.144676 0.289352 0.289352 0.289352 0.072338 0.144676 0.144676 0.144676 0.072338 0.144676 0.144676 0.289352 0.289352 0.289352 0.072338 0.144676 0.144676 0.144676 0.072338 0.144676 0.144676 0.289352 0.289352 0.289352 0.072338 0.144676 0.144676 0.144676 0.072338 0.144676 0.144676 0.289352 0.289352 0.289352 0.072338 0.144676 0.144676 0.144676 0.072338 0.144676 0.144676 0.289352 0.289352 0.289352 0.0723379 0.144676 0.144676 0.144676 0.0723379 0.144676 0.144676 0.289352 0.289352 0.289352 0.072338 0.144676 0.144676 0.144676 0.072338 0.144676 0.144676 0.289352 0.289352 0.289352 0.072338 0.144676 0.144676 0.144676 0.072338 0.144676 0.144676 0.289352 0.289352 0.289352 0.072338 0.144676 0.144676 0.144676 0.072338 0.144676 0.144676 0.289352 0.289352 0.289352 0.0723379 0.144676 0.144676 0.144676 0.0723379 0.144676 0.144676 0.289352 0.289352 0.289352 0.0723379 0.144676 0.144676 0.144676 0.0723379 0.144676 0.144676 0.289352 0.289352 0.289352 0.072338 0.144676 0.144676 0.144676 0.072338 0.144676 0.144676 0.289352 0.289352 0.289352 0.072338 0.144676 0.144676 0.144676 0.072338 0.144676 0.144676 0.289352 0.289352 0.289352 0.072338 0.144676 0.144676 0.144676 0.072338 0.072338 0.144676 0.144676 0.144676 0.289352 0.072338 0.072338 0.144676 0.144676 0.072338 0.289352 0.144676 0.289352 0.289352 0.144676 0.144676 0.144676 0.072338 0.144676 0.072338 0.289352 0.289352 0.289352 0.144676 0.144676 0.144676 0.072338 0.289352 0.289352 0.289352 0.144676 0.144676 0.144676 0.072338 0.289352 0.289352 0.289352 0.144676 0.144676 0.144676 0.072338 0.289352 0.289352 0.289352 0.144676 0.144676 0.144676 0.072338 0.289352 0.289352 0.289352 0.144676 0.144676 0.144676 0.072338 0.289352 0.289352 0.289352 0.144676 0.144676 0.144676 0.072338 0.289352 0.289352 0.289352 0.144676 0.144676 0.144676 0.072338 0.289352 0.289352 0.289352 0.144676 0.144676 0.144676 0.072338 0.289352 0.289352 0.289352 0.144676 0.144676 0.144676 0.072338 0.289352 0.289352 0.289352 0.144676 0.144676 0.144676 0.072338 0.289352 0.289352 0.289352 0.144676 0.144676 0.144676 0.072338 0.289352 0.289352 0.289352 0.144676 0.144676 0.144676 0.072338 0.289352 0.289352 0.289352 0.144676 0.144676 0.144676 0.072338 0.289352 0.289352 0.289352 0.144676 0.144676 0.144676 0.0723379 0.289352 0.289352 0.289352 0.144676 0.144676 0.144676 0.072338 0.289352 0.289352 0.289352 0.144676 0.144676 0.144676 0.072338 0.289352 0.289352 0.289352 0.144676 0.144676 0.144676 0.072338 0.289352 0.289352 0.289352 0.144676 0.144676 0.144676 0.0723379 0.289352 0.289352 0.289352 0.144676 0.144676 0.144676 0.0723379 0.289352 0.289352 0.289352 0.144676 0.144676 0.144676 0.072338 0.289352 0.289352 0.289352 0.144676 0.144676 0.144676 0.072338 0.289352 0.289352 0.289352 0.144676 0.144676 0.144676 0.0723379 0.144676 0.144676 0.289352 0.072338 0.144676 0.144676 0.072338 0.289352 0.144676 0.289352 0.289352 0.144676 0.144676 0.144676 0.072338 0.144676 0.072338 0.289352 0.289352 0.289352 0.144676 0.144676 0.144676 0.072338 0.289352 0.289352 0.289352 0.144676 0.144676 0.144676 0.072338 0.289352 0.289352 0.289352 0.144676 0.144676 0.144676 0.072338 0.289352 0.289352 0.289352 0.144676 0.144676 0.144676 0.072338 0.289352 0.289352 0.289352 0.144676 0.144676 0.144676 0.072338 0.289352 0.289352 0.289352 0.144676 0.144676 0.144676 0.072338 0.289352 0.289352 0.289352 0.144676 0.144676 0.144676 0.072338 0.289352 0.289352 0.289352 0.144676 0.144676 0.144676 0.072338 0.289352 0.289352 0.289352 0.144676 0.144676 0.144676 0.072338 0.289352 0.289352 0.289352 0.144676 0.144676 0.144676 0.072338 0.289352 0.289352 0.289352 0.144676 0.144676 0.144676 0.072338 0.289352 0.289352 0.289352 0.144676 0.144676 0.144676 0.072338 0.289352 0.289352 0.289352 0.144676 0.144676 0.144676 0.072338 0.289352 0.289352 0.289352 0.144676 0.144676 0.144676 0.072338 0.289352 0.289352 0.289352 0.144676 0.144676 0.144676 0.072338 0.289352 0.289352 0.289352 0.144676 0.144676 0.144676 0.072338 0.289352 0.289352 0.289352 0.144676 0.144676 0.144676 0.072338 0.289352 0.289352 0.289352 0.144676 0.144676 0.144676 0.0723379 0.289352 0.289352 0.289352 0.144676 0.144676 0.144676 0.0723379 0.289352 0.289352 0.289352 0.144676 0.144676 0.144676 0.072338 0.289352 0.289352 0.289352 0.144676 0.144676 0.144676 0.072338 0.289352 0.289352 0.289352 0.144676 0.144676 0.144676 0.072338 0.144676 0.144676 0.289352 0.072338 0.144676 0.144676 0.072338 0.289352 0.144676 0.289352 0.289352 0.144676 0.144676 0.144676 0.072338 0.144676 0.072338 0.289352 0.289352 0.289352 0.144676 0.144676 0.144676 0.072338 0.289352 0.289352 0.289352 0.144676 0.144676 0.144676 0.072338 0.289352 0.289352 0.289352 0.144676 0.144676 0.144676 0.072338 0.289352 0.289352 0.289352 0.144676 0.144676 0.144676 0.072338 0.289352 0.289352 0.289352 0.144676 0.144676 0.144676 0.072338 0.289352 0.289352 0.289352 0.144676 0.144676 0.144676 0.072338 0.289352 0.289352 0.289352 0.144676 0.144676 0.144676 0.072338 0.289352 0.289352 0.289352 0.144676 0.144676 0.144676 0.072338 0.289352 0.289352 0.289352 0.144676 0.144676 0.144676 0.072338 0.289352 0.289352 0.289352 0.144676 0.144676 0.144676 0.072338 0.289352 0.289352 0.289352 0.144676 0.144676 0.144676 0.072338 0.289352 0.289352 0.289352 0.144676 0.144676 0.144676 0.072338 0.289352 0.289352 0.289352 0.144676 0.144676 0.144676 0.072338 0.289352 0.289352 0.289352 0.144676 0.144676 0.144676 0.0723379 0.289352 0.289352 0.289352 0.144676 0.144676 0.144676 0.072338 0.289352 0.289352 0.289352 0.144676 0.144676 0.144676 0.072338 0.289352 0.289352 0.289352 0.144676 0.144676 0.144676 0.072338 0.289352 0.289352 0.289352 0.144676 0.144676 0.144676 0.0723379 0.289352 0.289352 0.289352 0.144676 0.144676 0.144676 0.0723379 0.289352 0.289352 0.289352 0.144676 0.144676 0.144676 0.072338 0.289352 0.289352 0.289352 0.144676 0.144676 0.144676 0.0723379 0.289352 0.289352 0.289352 0.144676 0.144676 0.144676 0.0723379 0.144676 0.144676 0.289352 0.072338 0.144676 0.144676 0.072338 0.289352 0.144676 0.289352 0.289352 0.144676 0.144676 0.144676 0.072338 0.144676 0.072338 0.289352 0.289352 0.289352 0.144676 0.144676 0.144676 0.072338 0.289352 0.289352 0.289352 0.144676 0.144676 0.144676 0.072338 0.289352 0.289352 0.289352 0.144676 0.144676 0.144676 0.072338 0.289352 0.289352 0.289352 0.144676 0.144676 0.144676 0.072338 0.289352 0.289352 0.289352 0.144676 0.144676 0.144676 0.072338 0.289352 0.289352 0.289352 0.144676 0.144676 0.144676 0.072338 0.289352 0.289352 0.289352 0.144676 0.144676 0.144676 0.072338 0.289352 0.289352 0.289352 0.144676 0.144676 0.144676 0.072338 0.289352 0.289352 0.289352 0.144676 0.144676 0.144676 0.072338 0.289352 0.289352 0.289352 0.144676 0.144676 0.144676 0.072338 0.289352 0.289352 0.289352 0.144676 0.144676 0.144676 0.072338 0.289352 0.289352 0.289352 0.144676 0.144676 0.144676 0.072338 0.289352 0.289352 0.289352 0.144676 0.144676 0.144676 0.072338 0.289352 0.289352 0.289352 0.144676 0.144676 0.144676 0.0723379 0.289352 0.289352 0.289352 0.144676 0.144676 0.144676 0.072338 0.289352 0.289352 0.289352 0.144676 0.144676 0.144676 0.072338 0.289352 0.289352 0.289352 0.144676 0.144676 0.144676 0.072338 0.289352 0.289352 0.289352 0.144676 0.144676 0.144676 0.0723379 0.289352 0.289352 0.289352 0.144676 0.144676 0.144676 0.0723379 0.289352 0.289352 0.289352 0.144676 0.144676 0.144676 0.072338 0.289352 0.289352 0.289352 0.144676 0.144676 0.144676 0.0723379 0.289352 0.289352 0.289352 0.144676 0.144676 0.144676 0.0723379 0.144676 0.144676 0.289352 0.072338 0.144676 0.144676 0.072338 0.289352 0.144676 0.289352 0.289352 0.144676 0.144676 0.144676 0.072338 0.144676 0.072338 0.289352 0.289352 0.289352 0.144676 0.144676 0.144676 0.072338 0.289352 0.289352 0.289352 0.144676 0.144676 0.144676 0.072338 0.289352 0.289352 0.289352 0.144676 0.144676 0.144676 0.072338 0.289352 0.289352 0.289352 0.144676 0.144676 0.144676 0.072338 0.289352 0.289352 0.289352 0.144676 0.144676 0.144676 0.072338 0.289352 0.289352 0.289352 0.144676 0.144676 0.144676 0.072338 0.289352 0.289352 0.289352 0.144676 0.144676 0.144676 0.072338 0.289352 0.289352 0.289352 0.144676 0.144676 0.144676 0.072338 0.289352 0.289352 0.289352 0.144676 0.144676 0.144676 0.072338 0.289352 0.289352 0.289352 0.144676 0.144676 0.144676 0.072338 0.289352 0.289352 0.289352 0.144676 0.144676 0.144676 0.072338 0.289352 0.289352 0.289352 0.144676 0.144676 0.144676 0.072338 0.289352 0.289352 0.289352 0.144676 0.144676 0.144676 0.072338 0.289352 0.289352 0.289352 0.144676 0.144676 0.144676 0.0723379 0.289352 0.289352 0.289352 0.144676 0.144676 0.144676 0.072338 0.289352 0.289352 0.289352 0.144676 0.144676 0.144676 0.072338 0.289352 0.289352 0.289352 0.144676 0.144676 0.144676 0.072338 0.289352 0.289352 0.289352 0.144676 0.144676 0.144676 0.0723379 0.289352 0.289352 0.289352 0.144676 0.144676 0.144676 0.0723379 0.289352 0.289352 0.289352 0.144676 0.144676 0.144676 0.072338 0.289352 0.289352 0.289352 0.144676 0.144676 0.144676 0.072338 0.289352 0.289352 0.289352 0.144676 0.144676 0.144676 0.072338 0.144676 0.144676 0.289352 0.072338 0.144676 0.144676 0.072338 0.289352 0.144676 0.289352 0.289352 0.144676 0.144676 0.144676 0.072338 0.144676 0.072338 0.289352 0.289352 0.289352 0.144676 0.144676 0.144676 0.072338 0.289352 0.289352 0.289352 0.144676 0.144676 0.144676 0.072338 0.289352 0.289352 0.289352 0.144676 0.144676 0.144676 0.072338 0.289352 0.289352 0.289352 0.144676 0.144676 0.144676 0.072338 0.289352 0.289352 0.289352 0.144676 0.144676 0.144676 0.072338 0.289352 0.289352 0.289352 0.144676 0.144676 0.144676 0.072338 0.289352 0.289352 0.289352 0.144676 0.144676 0.144676 0.072338 0.289352 0.289352 0.289352 0.144676 0.144676 0.144676 0.072338 0.289352 0.289352 0.289352 0.144676 0.144676 0.144676 0.072338 0.289352 0.289352 0.289352 0.144676 0.144676 0.144676 0.072338 0.289352 0.289352 0.289352 0.144676 0.144676 0.144676 0.072338 0.289352 0.289352 0.289352 0.144676 0.144676 0.144676 0.072338 0.289352 0.289352 0.289352 0.144676 0.144676 0.144676 0.072338 0.289352 0.289352 0.289352 0.144676 0.144676 0.144676 0.072338 0.289352 0.289352 0.289352 0.144676 0.144676 0.144676 0.072338 0.289352 0.289352 0.289352 0.144676 0.144676 0.144676 0.072338 0.289352 0.289352 0.289352 0.144676 0.144676 0.144676 0.072338 0.289352 0.289352 0.289352 0.144676 0.144676 0.144676 0.072338 0.289352 0.289352 0.289352 0.144676 0.144676 0.144676 0.0723379 0.289352 0.289352 0.289352 0.144676 0.144676 0.144676 0.072338 0.289352 0.289352 0.289352 0.144676 0.144676 0.144676 0.072338 0.289352 0.289352 0.289352 0.144676 0.144676 0.144676 0.072338 0.144676 0.144676 0.289352 0.072338 0.144676 0.144676 0.072338 0.289352 0.144676 0.144676 0.144676 0.072338 0.144676 0.144676 0.072338 0.072338 0.072338 0.289352 0.144676 0.144676 0.144676 0.144676 0.072338 0.072338 0.289352 0.144676 0.144676 0.144676 0.144676 0.072338 0.072338 0.289352 0.144676 0.144676 0.144676 0.144676 0.072338 0.072338 0.289352 0.144676 0.144676 0.144676 0.144676 0.072338 0.072338 0.289352 0.144676 0.144676 0.144676 0.144676 0.072338 0.072338 0.289352 0.144676 0.144676 0.144676 0.144676 0.072338 0.072338 0.289352 0.144676 0.144676 0.144676 0.144676 0.072338 0.072338 0.289352 0.144676 0.144676 0.144676 0.144676 0.072338 0.072338 0.289352 0.144676 0.144676 0.144676 0.144676 0.0723379 0.0723379 0.289352 0.144676 0.144676 0.144676 0.144676 0.0723379 0.0723379 0.289352 0.144676 0.144676 0.144676 0.144676 0.072338 0.072338 0.289352 0.144676 0.144676 0.144676 0.144676 0.072338 0.072338 0.289352 0.144676 0.144676 0.144676 0.144676 0.072338 0.072338 0.289352 0.144676 0.144676 0.144676 0.144676 0.0723379 0.0723379 0.289352 0.144676 0.144676 0.144676 0.144676 0.072338 0.072338 0.289352 0.144676 0.144676 0.144676 0.144676 0.072338 0.072338 0.289352 0.144676 0.144676 0.144676 0.144676 0.0723379 0.0723379 0.289352 0.144676 0.144676 0.144676 0.144676 0.0723379 0.0723379 0.289352 0.144676 0.144676 0.144676 0.144676 0.0723379 0.0723379 0.289352 0.144676 0.144676 0.144676 0.144676 0.072338 0.072338 0.289352 0.144676 0.144676 0.144676 0.144676 0.0723379 0.0723379 0.289352 0.144676 0.144676 0.144676 0.144676 0.0723379 0.0723379 0.144676 0.072338 0.144676 0.072338 0.144676 0.072338 0.072338 0.144676 0.072338 0.072338 0.144676 0.072338 0.289352 0.144676 0.144676 0.072338 0.144676 0.072338 0.072338 0.144676 0.072338 0.144676 0.072338 0.144676 0.289352 0.144676 0.072338 0.144676 0.072338 0.144676 0.072338 0.144676 0.072338 0.144676 0.289352 0.144676 0.072338 0.144676 0.072338 0.144676 0.072338 0.144676 0.0723379 0.144676 0.289352 0.144676 0.0723379 0.144676 0.0723379 0.144676 0.0723379 0.144676 0.072338 0.144676 0.289352 0.144676 0.072338 0.144676 0.072338 0.144676 0.072338 0.144676 0.072338 0.144676 0.289352 0.144676 0.072338 0.144676 0.072338 0.144676 0.072338 0.144676 0.0723379 0.144676 0.289352 0.144676 0.0723379 0.144676 0.0723379 0.144676 0.0723379 0.144676 0.072338 0.144676 0.289352 0.144676 0.072338 0.144676 0.072338 0.144676 0.072338 0.144676 0.072338 0.144676 0.289352 0.144676 0.072338 0.144676 0.072338 0.144676 0.072338 0.144676 0.0723379 0.144676 0.289352 0.144676 0.0723379 0.144676 0.0723379 0.144676 0.0723379 0.144676 0.0723379 0.144676 0.289352 0.144676 0.0723379 0.144676 0.0723379 0.144676 0.0723379 0.144676 0.072338 0.144676 0.289352 0.144676 0.072338 0.144676 0.072338 0.144676 0.072338 0.144676 0.0723379 0.144676 0.289352 0.144676 0.0723379 0.144676 0.0723379 0.144676 0.0723379 0.144676 0.072338 0.144676 0.289352 0.144676 0.072338 0.144676 0.072338 0.144676 0.072338 0.144676 0.0723379 0.144676 0.289352 0.144676 0.0723379 0.144676 0.0723379 0.144676 0.0723379 0.144676 0.072338 0.144676 0.289352 0.144676 0.072338 0.144676 0.072338 0.144676 0.072338 0.144676 0.072338 0.144676 0.289352 0.144676 0.072338 0.144676 0.072338 0.144676 0.072338 0.144676 0.0723379 0.144676 0.289352 0.144676 0.0723379 0.144676 0.0723379 0.144676 0.0723379 0.144676 0.0723379 0.144676 0.289352 0.144676 0.0723379 0.144676 0.0723379 0.144676 0.0723379 0.144676 0.0723379 0.144676 0.289352 0.144676 0.0723379 0.144676 0.0723379 0.144676 0.0723379 0.144676 0.072338 0.144676 0.289352 0.144676 0.072338 0.144676 0.072338 0.144676 0.072338 0.144676 0.0723379 0.144676 0.289352 0.144676 0.0723379 0.144676 0.0723379 0.144676 0.0723379 0.144676 0.0723379 0.144676 0.289352 0.144676 0.0723379 0.144676 0.0723379 0.144676 0.0723379 0.072338 0.072338 0.072338 0.144676 0.144676 0.072338 0.072338 0.072338 0.144676 0.072338 0.144676 0.072338 0.289352 0.144676 0.144676 0.144676 0.072338 0.072338 0.144676 0.072338 0.144676 0.289352 0.144676 0.144676 0.072338 0.144676 0.072338 0.144676 0.289352 0.144676 0.144676 0.072338 0.144676 0.072338 0.144676 0.289352 0.144676 0.144676 0.0723379 0.144676 0.0723379 0.144676 0.289352 0.144676 0.144676 0.0723379 0.144676 0.0723379 0.144676 0.289352 0.144676 0.144676 0.072338 0.144676 0.072338 0.144676 0.289352 0.144676 0.144676 0.0723379 0.144676 0.0723379 0.144676 0.289352 0.144676 0.144676 0.0723379 0.144676 0.0723379 0.144676 0.289352 0.144676 0.144676 0.072338 0.144676 0.072338 0.144676 0.289352 0.144676 0.144676 0.0723379 0.144676 0.0723379 0.144676 0.289352 0.144676 0.144676 0.0723379 0.144676 0.0723379 0.144676 0.289352 0.144676 0.144676 0.072338 0.144676 0.072338 0.144676 0.289352 0.144676 0.144676 0.0723379 0.144676 0.0723379 0.144676 0.289352 0.144676 0.144676 0.072338 0.144676 0.072338 0.144676 0.289352 0.144676 0.144676 0.0723379 0.144676 0.0723379 0.144676 0.289352 0.144676 0.144676 0.072338 0.144676 0.072338 0.144676 0.289352 0.144676 0.144676 0.0723379 0.144676 0.0723379 0.144676 0.289352 0.144676 0.144676 0.0723379 0.144676 0.0723379 0.144676 0.289352 0.144676 0.144676 0.0723379 0.144676 0.0723379 0.144676 0.289352 0.144676 0.144676 0.0723379 0.144676 0.0723379 0.144676 0.289352 0.144676 0.144676 0.072338 0.144676 0.072338 0.144676 0.289352 0.144676 0.144676 0.0723379 0.144676 0.0723379 0.144676 0.289352 0.144676 0.144676 0.0723379 0.144676 0.0723379 0.072338 0.144676 0.144676 0.072338 0.072338 0.144676 0.072338 0.144676 0.072338 0.289352 0.144676 0.144676 0.144676 0.072338 0.072338 0.144676 0.072338 0.144676 0.289352 0.144676 0.144676 0.072338 0.144676 0.072338 0.144676 0.289352 0.144676 0.144676 0.072338 0.144676 0.072338 0.144676 0.289352 0.144676 0.144676 0.0723379 0.144676 0.0723379 0.144676 0.289352 0.144676 0.144676 0.0723379 0.144676 0.0723379 0.144676 0.289352 0.144676 0.144676 0.072338 0.144676 0.072338 0.144676 0.289352 0.144676 0.144676 0.072338 0.144676 0.072338 0.144676 0.289352 0.144676 0.144676 0.0723379 0.144676 0.0723379 0.144676 0.289352 0.144676 0.144676 0.072338 0.144676 0.072338 0.144676 0.289352 0.144676 0.144676 0.0723379 0.144676 0.0723379 0.144676 0.289352 0.144676 0.144676 0.0723379 0.144676 0.0723379 0.144676 0.289352 0.144676 0.144676 0.072338 0.144676 0.072338 0.144676 0.289352 0.144676 0.144676 0.0723379 0.144676 0.0723379 0.144676 0.289352 0.144676 0.144676 0.072338 0.144676 0.072338 0.144676 0.289352 0.144676 0.144676 0.0723379 0.144676 0.0723379 0.144676 0.289352 0.144676 0.144676 0.072338 0.144676 0.072338 0.144676 0.289352 0.144676 0.144676 0.0723379 0.144676 0.0723379 0.144676 0.289352 0.144676 0.144676 0.0723379 0.144676 0.0723379 0.144676 0.289352 0.144676 0.144676 0.0723379 0.144676 0.0723379 0.144676 0.289352 0.144676 0.144676 0.0723379 0.144676 0.0723379 0.144676 0.289352 0.144676 0.144676 0.072338 0.144676 0.072338 0.144676 0.289352 0.144676 0.144676 0.0723379 0.144676 0.0723379 0.144676 0.289352 0.144676 0.144676 0.0723379 0.144676 0.0723379 0.072338 0.144676 0.144676 0.072338 0.072338 0.144676 0.072338 0.144676 0.0723379 0.289352 0.144676 0.144676 0.144676 0.0723379 0.0723379 0.144676 0.0723379 0.144676 0.289352 0.144676 0.144676 0.0723379 0.144676 0.0723379 0.144676 0.289352 0.144676 0.144676 0.072338 0.144676 0.072338 0.144676 0.289352 0.144676 0.144676 0.0723379 0.144676 0.0723379 0.144676 0.289352 0.144676 0.144676 0.0723379 0.144676 0.0723379 0.144676 0.289352 0.144676 0.144676 0.0723379 0.144676 0.0723379 0.144676 0.289352 0.144676 0.144676 0.0723379 0.144676 0.0723379 0.144676 0.289352 0.144676 0.144676 0.0723379 0.144676 0.0723379 0.144676 0.289352 0.144676 0.144676 0.0723379 0.144676 0.0723379 0.144676 0.289352 0.144676 0.144676 0.0723379 0.144676 0.0723379 0.144676 0.289352 0.144676 0.144676 0.0723379 0.144676 0.0723379 0.144676 0.289352 0.144676 0.144676 0.0723379 0.144676 0.0723379 0.144676 0.289352 0.144676 0.144676 0.0723379 0.144676 0.0723379 0.144676 0.289352 0.144676 0.144676 0.072338 0.144676 0.072338 0.144676 0.289352 0.144676 0.144676 0.0723379 0.144676 0.0723379 0.144676 0.289352 0.144676 0.144676 0.072338 0.144676 0.072338 0.144676 0.289352 0.144676 0.144676 0.0723379 0.144676 0.0723379 0.144676 0.289352 0.144676 0.144676 0.0723379 0.144676 0.0723379 0.144676 0.289352 0.144676 0.144676 0.0723379 0.144676 0.0723379 0.144676 0.289352 0.144676 0.144676 0.0723379 0.144676 0.0723379 0.144676 0.289352 0.144676 0.144676 0.072338 0.144676 0.072338 0.144676 0.289352 0.144676 0.144676 0.0723379 0.144676 0.0723379 0.144676 0.289352 0.144676 0.144676 0.0723379 0.144676 0.0723379 0.072338 0.144676 0.144676 0.072338 0.072338 0.144676 0.072338 0.144676 0.0723379 0.289352 0.144676 0.144676 0.144676 0.0723379 0.0723379 0.144676 0.0723379 0.144676 0.289352 0.144676 0.144676 0.072338 0.144676 0.072338 0.144676 0.289352 0.144676 0.144676 0.072338 0.144676 0.072338 0.144676 0.289352 0.144676 0.144676 0.0723379 0.144676 0.0723379 0.144676 0.289352 0.144676 0.144676 0.0723379 0.144676 0.0723379 0.144676 0.289352 0.144676 0.144676 0.0723379 0.144676 0.0723379 0.144676 0.289352 0.144676 0.144676 0.0723379 0.144676 0.0723379 0.144676 0.289352 0.144676 0.144676 0.0723379 0.144676 0.0723379 0.144676 0.289352 0.144676 0.144676 0.0723379 0.144676 0.0723379 0.144676 0.289352 0.144676 0.144676 0.0723379 0.144676 0.0723379 0.144676 0.289352 0.144676 0.144676 0.0723379 0.144676 0.0723379 0.144676 0.289352 0.144676 0.144676 0.0723379 0.144676 0.0723379 0.144676 0.289352 0.144676 0.144676 0.0723379 0.144676 0.0723379 0.144676 0.289352 0.144676 0.144676 0.072338 0.144676 0.072338 0.144676 0.289352 0.144676 0.144676 0.0723379 0.144676 0.0723379 0.144676 0.289352 0.144676 0.144676 0.072338 0.144676 0.072338 0.144676 0.289352 0.144676 0.144676 0.0723379 0.144676 0.0723379 0.144676 0.289352 0.144676 0.144676 0.0723379 0.144676 0.0723379 0.144676 0.289352 0.144676 0.144676 0.0723379 0.144676 0.0723379 0.144676 0.289352 0.144676 0.144676 0.0723379 0.144676 0.0723379 0.144676 0.289352 0.144676 0.144676 0.072338 0.144676 0.072338 0.144676 0.289352 0.144676 0.144676 0.0723379 0.144676 0.0723379 0.144676 0.289352 0.144676 0.144676 0.0723379 0.144676 0.0723379 0.072338 0.144676 0.144676 0.072338 0.072338 0.144676 0.072338 0.144676 0.072338 0.289352 0.144676 0.144676 0.144676 0.072338 0.072338 0.144676 0.072338 0.144676 0.289352 0.144676 0.144676 0.072338 0.144676 0.072338 0.144676 0.289352 0.144676 0.144676 0.072338 0.144676 0.072338 0.144676 0.289352 0.144676 0.144676 0.0723379 0.144676 0.0723379 0.144676 0.289352 0.144676 0.144676 0.0723379 0.144676 0.0723379 0.144676 0.289352 0.144676 0.144676 0.0723379 0.144676 0.0723379 0.144676 0.289352 0.144676 0.144676 0.0723379 0.144676 0.0723379 0.144676 0.289352 0.144676 0.144676 0.0723379 0.144676 0.0723379 0.144676 0.289352 0.144676 0.144676 0.072338 0.144676 0.072338 0.144676 0.289352 0.144676 0.144676 0.0723379 0.144676 0.0723379 0.144676 0.289352 0.144676 0.144676 0.0723379 0.144676 0.0723379 0.144676 0.289352 0.144676 0.144676 0.0723379 0.144676 0.0723379 0.144676 0.289352 0.144676 0.144676 0.0723379 0.144676 0.0723379 0.144676 0.289352 0.144676 0.144676 0.072338 0.144676 0.072338 0.144676 0.289352 0.144676 0.144676 0.0723379 0.144676 0.0723379 0.144676 0.289352 0.144676 0.144676 0.072338 0.144676 0.072338 0.144676 0.289352 0.144676 0.144676 0.0723379 0.144676 0.0723379 0.144676 0.289352 0.144676 0.144676 0.0723379 0.144676 0.0723379 0.144676 0.289352 0.144676 0.144676 0.0723379 0.144676 0.0723379 0.144676 0.289352 0.144676 0.144676 0.0723379 0.144676 0.0723379 0.144676 0.289352 0.144676 0.144676 0.072338 0.144676 0.072338 0.144676 0.289352 0.144676 0.144676 0.0723379 0.144676 0.0723379 0.144676 0.289352 0.144676 0.144676 0.0723379 0.144676 0.0723379 0.072338 0.144676 0.144676 0.072338 0.072338 0.144676 0.072338 0.144676 0.0723379 0.289352 0.144676 0.144676 0.144676 0.0723379 0.0723379 0.144676 0.0723379 0.144676 0.289352 0.144676 0.144676 0.072338 0.144676 0.072338 0.144676 0.289352 0.144676 0.144676 0.072338 0.144676 0.072338 0.144676 0.289352 0.144676 0.144676 0.0723379 0.144676 0.0723379 0.144676 0.289352 0.144676 0.144676 0.0723379 0.144676 0.0723379 0.144676 0.289352 0.144676 0.144676 0.0723379 0.144676 0.0723379 0.144676 0.289352 0.144676 0.144676 0.072338 0.144676 0.072338 0.144676 0.289352 0.144676 0.144676 0.0723379 0.144676 0.0723379 0.144676 0.289352 0.144676 0.144676 0.072338 0.144676 0.072338 0.144676 0.289352 0.144676 0.144676 0.0723379 0.144676 0.0723379 0.144676 0.289352 0.144676 0.144676 0.0723379 0.144676 0.0723379 0.144676 0.289352 0.144676 0.144676 0.072338 0.144676 0.072338 0.144676 0.289352 0.144676 0.144676 0.0723379 0.144676 0.0723379 0.144676 0.289352 0.144676 0.144676 0.072338 0.144676 0.072338 0.144676 0.289352 0.144676 0.144676 0.0723379 0.144676 0.0723379 0.144676 0.289352 0.144676 0.144676 0.072338 0.144676 0.072338 0.144676 0.289352 0.144676 0.144676 0.072338 0.144676 0.072338 0.144676 0.289352 0.144676 0.144676 0.0723379 0.144676 0.0723379 0.144676 0.289352 0.144676 0.144676 0.0723379 0.144676 0.0723379 0.144676 0.289352 0.144676 0.144676 0.0723379 0.144676 0.0723379 0.144676 0.289352 0.144676 0.144676 0.072338 0.144676 0.072338 0.144676 0.289352 0.144676 0.144676 0.0723379 0.144676 0.0723379 0.144676 0.289352 0.144676 0.144676 0.0723379 0.144676 0.0723379 0.072338 0.144676 0.144676 0.072338 0.072338 0.144676 0.072338 0.144676 0.0723379 0.144676 0.0723379 0.0723379 0.144676 0.0723379 0.0723379 0.0723379 0.0723379 0.144676 0.144676 0.0723379 0.144676 0.0723379 0.0723379 0.0723379 0.144676 0.144676 0.0723379 0.144676 0.0723379 0.0723379 0.0723379 0.144676 0.144676 0.0723379 0.144676 0.0723379 0.0723379 0.0723379 0.144676 0.144676 0.0723379 0.144676 0.0723379 0.0723379 0.0723379 0.144676 0.144676 0.0723379 0.144676 0.0723379 0.0723379 0.0723379 0.144676 0.144676 0.0723379 0.144676 0.0723379 0.0723379 0.0723379 0.144676 0.144676 0.0723379 0.144676 0.0723379 0.0723379 0.0723379 0.144676 0.144676 0.0723379 0.144676 0.0723379 0.0723379 0.0723379 0.144676 0.144676 0.0723379 0.144676 0.0723379 0.0723379 0.0723379 0.144676 0.144676 0.0723379 0.144676 0.0723379 0.0723379 0.0723379 0.144676 0.144676 0.0723379 0.144676 0.0723379 0.0723379 0.0723379 0.144676 0.144676 0.0723379 0.144676 0.0723379 0.0723379 0.0723379 0.144676 0.144676 0.072338 0.144676 0.072338 0.072338 0.072338 0.144676 0.144676 0.0723379 0.144676 0.0723379 0.0723379 0.0723379 0.144676 0.144676 0.0723379 0.144676 0.0723379 0.0723379 0.0723379 0.144676 0.144676 0.0723379 0.144676 0.0723379 0.0723379 0.0723379 0.144676 0.144676 0.0723379 0.144676 0.0723379 0.0723379 0.0723379 0.144676 0.144676 0.0723379 0.144676 0.0723379 0.0723379 0.0723379 0.144676 0.144676 0.0723379 0.144676 0.0723379 0.0723379 0.0723379 0.144676 0.144676 0.072338 0.144676 0.072338 0.072338 0.072338 0.144676 0.144676 0.0723379 0.144676 0.0723379 0.0723379 0.0723379 0.144676 0.144676 0.0723379 0.144676 0.0723379 0.0723379 0.0723379 0.0723379 0.0723379 0.0723379 0.0723379 0.0723379 0.0723379 0.0723379 
VECTORS u float
0 0 0  -0.00623477 -0.00398133 -0.00665573  -0.0110377 -0.00696691 -0.00838725  -0.0154797 -0.0115849 -0.0087254  -0.019841 -0.0175026 -0.00837434  -0.0240088 -0.0245679 -0.0077391  -0.027934 -0.0326099 -0.00699583  -0.0315883 -0.0414973 -0.00623705  -0.0349494 -0.0511137 -0.00550011  -0.0380334 -0.0613653 -0.00481382  -0.0408332 -0.0721642 -0.00416241  -0.0433651 -0.0834313 -0.00356767  -0.0456414 -0.0950916 -0.00302055  -0.0476866 -0.107077 -0.00251955  -0.0495046 -0.119323 -0.00206523  -0.0511181 -0.131767 -0.00165754  -0.0525435 -0.144356 -0.00129384  -0.0537987 -0.157046 -0.00097479  -0.0549035 -0.169791 -0.000702833  -0.055871 -0.182544 -0.000471399  -0.0567298 -0.195281 -0.000287798  -0.0574903 -0.207971 -0.000149198  -0.058177 -0.220589 -5.47183e-05  -0.0588114 -0.233127 3.43925e-06  -0.0594401 -0.245609 4.59286e-05  0 0 0  -0.00366463 -0.00176879 -0.00507323  -0.00722657 -0.00517561 -0.00621494  -0.0105037 -0.00988675 -0.00645756  -0.0137202 -0.0159465 -0.00622871  -0.0168462 -0.0231716 -0.00578053  -0.0198451 -0.0313966 -0.00524607  -0.0226805 -0.0404741 -0.00468574  -0.0253362 -0.0502809 -0.00413883  -0.0277984 -0.0607192 -0.00362094  -0.0300729 -0.0716948 -0.00313748  -0.0321603 -0.0831226 -0.00269057  -0.0340675 -0.0949346 -0.00228093  -0.0358062 -0.107054 -0.00190476  -0.0373828 -0.11942 -0.00156523  -0.0388149 -0.131973 -0.00126156  -0.0401068 -0.144659 -0.000989173  -0.0412712 -0.157426 -0.000752453  -0.0423243 -0.170232 -0.000547363  -0.0432725 -0.183044 -0.000378052  -0.0441363 -0.195821 -0.000237609  -0.0449245 -0.208542 -0.00013162  -0.0456462 -0.221181 -5.33809e-05  -0.0463204 -0.23373 4.21873e-06  -0.0469587 -0.246206 6.47272e-05  0 0 0  -0.00214769 -0.000597268 -0.0034324  -0.00424461 -0.00380374 -0.00419453  -0.00638467 -0.00864173 -0.00431697  -0.00853932 -0.0148341 -0.00414443  -0.0106606 -0.0221937 -0.00384272  -0.0127236 -0.0305562 -0.0034867  -0.0147079 -0.0397757 -0.00311503  -0.016601 -0.0497251 -0.00275284  -0.0183949 -0.0603016 -0.00240517  -0.0200833 -0.0714113 -0.00208565  -0.0216665 -0.0829689 -0.0017869  -0.0231465 -0.0948955 -0.00151218  -0.0245246 -0.107123 -0.00126461  -0.0258048 -0.119585 -0.00103703  -0.0269917 -0.132223 -0.000836547  -0.0280889 -0.144981 -0.000658407  -0.0291097 -0.157813 -0.000498961  -0.0300581 -0.170675 -0.000363527  -0.0309355 -0.183528 -0.000253354  -0.0317552 -0.196345 -0.000161646  -0.032515 -0.209093 -9.10875e-05  -0.033226 -0.221757 -3.29396e-05  -0.0338902 -0.234323 1.55119e-05  -0.0345321 -0.246781 7.02518e-05  0 0 0  -0.000970796 -0.0001086 -0.00168674  -0.0018899 -0.00307697 -0.00208975  -0.00289562 -0.00792634 -0.00215399  -0.00396973 -0.0142108 -0.00205857  -0.00507116 -0.0216723 -0.0019074  -0.00618517 -0.0301319 -0.00172487  -0.00729966 -0.0394448 -0.00153771  -0.00840563 -0.0494929 -0.0013559  -0.00949931 -0.0601651 -0.00118266  -0.010568 -0.0713693 -0.00101919  -0.0116147 -0.0830147 -0.000868126  -0.0126268 -0.0950253 -0.000732284  -0.0136077 -0.107331 -0.000608955  -0.0145519 -0.119861 -0.000496527  -0.0154665 -0.132559 -0.000398665  -0.01634 -0.145373 -0.000309662  -0.0171828 -0.158251 -0.000235715  -0.0179875 -0.17115 -0.000169028  -0.0187626 -0.184042 -0.000114801  -0.0194998 -0.196881 -7.29402e-05  -0.0202134 -0.209652 -3.83019e-05  -0.0208933 -0.222339 -1.47002e-05  -0.0215402 -0.234917 1.65965e-05  -0.0221701 -0.247352 4.97073e-05  0 0 0  8.62479e-05 -3.44813e-05 6.44665e-05  0.000194728 -0.00294551 5.32654e-05  0.00026983 -0.0078018 3.99982e-05  0.000284016 -0.0141281 3.27245e-05  0.000213802 -0.0216378 3.27793e-05  6.04987e-05 -0.0301484 3.82152e-05  -0.000174761 -0.0395157 4.4553e-05  -0.000484407 -0.0496148 4.90154e-05  -0.00086081 -0.0603433 5.3716e-05  -0.00129807 -0.0715993 5.79509e-05  -0.00178468 -0.0832988 5.76303e-05  -0.00231719 -0.0953581 5.77976e-05  -0.00288367 -0.10771 5.40145e-05  -0.00347996 -0.120282 5.35022e-05  -0.0040952 -0.133019 4.73352e-05  -0.00472677 -0.145865 4.31222e-05  -0.00537133 -0.158771 4.02936e-05  -0.00602126 -0.171695 3.42094e-05  -0.00667167 -0.184599 2.92103e-05  -0.00732112 -0.197456 2.47271e-05  -0.00796771 -0.210243 1.715e-05  -0.00860453 -0.222932 1.17088e-05  -0.00923586 -0.235517 9.17877e-06  -0.00984883 -0.247948 4.0396e-06  0 0 0  0.00112851 -0.000300825 0.00180076  0.00227025 -0.00336754 0.00217348  0.00342628 -0.00827807 0.00221197  0.0045197 -0.0146068 0.00211001  0.00548029 -0.022114 0.0019642  0.00628185 -0.030623 0.00179695  0.00692457 -0.0399982 0.00162404  0.00741005 -0.050111 0.00145301  0.00774968 -0.0608525 0.00128762  0.00794506 -0.0721248 0.00113325  0.00801837 -0.0838416 0.000987808  0.00796926 -0.0959201 0.000846676  0.00782144 -0.108284 0.000721688  0.00757897 -0.12087 0.000604089  0.00725818 -0.133616 0.000496399  0.00687003 -0.146471 0.000402423  0.0064261 -0.159384 0.0003139  0.00593734 -0.172314 0.000240676  0.00541019 -0.185221 0.000175182  0.00485396 -0.198081 0.000119019  0.00427413 -0.210863 7.45769e-05  0.00367737 -0.223554 3.46134e-05  0.00306773 -0.236134 1.82761e-07  0.00246096 -0.248567 -4.05955e-05  0 0 0  0.0022728 -0.000979245 0.00349859  0.00458738 -0.00438017 0.00420741  0.00687331 -0.00933659 0.0043156  0.00903708 -0.0156224 0.00415327  0.0110008 -0.0230803 0.00387378  0.0127387 -0.031552 0.00354108  0.0142454 -0.0408924 0.00319294  0.0155149 -0.0509809 0.00284858  0.0165563 -0.0616995 0.00251753  0.0173776 -0.0729538 0.0022032  0.0179918 -0.0846512 0.00190767  0.0184138 -0.0967103 0.00163527  0.0186739 -0.109061 0.00138076  0.0187706 -0.121633 0.00114811  0.0187341 -0.134365 0.000941054  0.0185819 -0.147203 0.000749869  0.0183208 -0.160101 0.000581433  0.0179782 -0.173016 0.000437832  0.0175579 -0.185909 0.000310874  0.0170853 -0.198753 0.000209557  0.0165627 -0.21152 0.000125275  0.0160043 -0.224196 6.04816e-05  0.0154114 -0.236765 -1.11987e-06  0.0148079 -0.249218 -6.53052e-05  0 0 0  0.00372045 -0.00231504 0.0050468  0.00748891 -0.00601065 0.00611727  0.0108931 -0.0109096 0.00636187  0.0140926 -0.0171235 0.00616656  0.0170414 -0.0245114 0.00576246  0.0197032 -0.0329157 0.00526742  0.0220523 -0.0421958 0.00474523  0.0240833 -0.0522212 0.00422632  0.0257988 -0.0628865 0.00373151  0.0272132 -0.0740848 0.0032588  0.0283462 -0.0857286 0.00281652  0.0292183 -0.0977393 0.00240783  0.029851 -0.11004 0.00202902  0.0302573 -0.122566 0.00168247  0.03048 -0.135255 0.00136779  0.0305231 -0.148053 0.00108881  0.0304248 -0.16091 0.000838118  0.0301967 -0.173792 0.000620867  0.0298622 -0.186657 0.000439345  0.0294421 -0.19947 0.000288167  0.0289488 -0.21221 0.000169318  0.0284066 -0.224859 7.94553e-05  0.0278268 -0.237413 8.76576e-06  0.0272195 -0.249884 -5.8605e-05  0 0 0  0.00619186 -0.00465894 0.00646307  0.0111602 -0.00803941 0.00811864  0.0156607 -0.0129152 0.00848053  0.0199515 -0.0190712 0.00820277  0.0239142 -0.026387 0.00764469  0.0274923 -0.0347118 0.0069726  0.0306674 -0.0439007 0.00626668  0.0334249 -0.0538349 0.00557637  0.0357798 -0.0644039 0.00490996  0.0377468 -0.0755096 0.00428198  0.0393513 -0.0870712 0.00369455  0.0406142 -0.0989949 0.00314731  0.0415761 -0.111215 0.00264451  0.0422503 -0.123661 0.0021867  0.042681 -0.136278 0.00177211  0.0428851 -0.14901 0.00139497  0.0428846 -0.161807 0.0010675  0.042727 -0.17463 0.000779775  0.0424199 -0.18744 0.000536448  0.0419998 -0.200209 0.000338406  0.0414929 -0.212912 0.000187813  0.0409181 -0.22553 7.94456e-05  0.0403013 -0.23806 6.50585e-06  0.0396888 -0.250538 -3.9143e-05  0 0 0  -0.00495951 -0.00576229 -0.00410236  -0.0103766 -0.00911552 -0.00603626  -0.0154057 -0.0136624 -0.00650982  -0.0200942 -0.0194181 -0.00633354  -0.0244382 -0.0262859 -0.00587571  -0.0284383 -0.0341334 -0.00531245  -0.0321119 -0.0428325 -0.00473155  -0.0354654 -0.0522813 -0.00416818  -0.0385175 -0.0623771 -0.00363816  -0.0412852 -0.0730334 -0.00314662  -0.0437802 -0.0841692 -0.00269465  -0.0460204 -0.0957111 -0.00228177  -0.0480248 -0.107589 -0.00190561  -0.0498068 -0.119734 -0.00156325  -0.051384 -0.132091 -0.00125697  -0.0527774 -0.144606 -0.000983499  -0.0539978 -0.157228 -0.000741974  -0.0550666 -0.169913 -0.000539422  -0.0560062 -0.182621 -0.000368722  -0.0568345 -0.195319 -0.000231981  -0.0575697 -0.207981 -0.00012996  -0.0582373 -0.220585 -5.85169e-05  -0.058866 -0.233126 -8.71718e-06  -0.0594914 -0.245618 3.05921e-05  0 0 0  -0.00245333 -0.00296159 -0.00306479  -0.00657302 -0.00689731 -0.00453492  -0.0104302 -0.0117388 -0.00487638  -0.0139639 -0.0177427 -0.00474333  -0.0172591 -0.024838 -0.00440288  -0.0203303 -0.032904 -0.00398296  -0.0231854 -0.0418162 -0.00354832  -0.02583 -0.051464 -0.00312605  -0.0282704 -0.0617497 -0.00272752  -0.0305104 -0.0725847 -0.00235941  -0.0325626 -0.0838858 -0.00202074  -0.0344343 -0.0955776 -0.00171069  -0.0361344 -0.10759 -0.00142825  -0.0376768 -0.119857 -0.00117196  -0.0390705 -0.132324 -0.000943296  -0.0403268 -0.144931 -0.000739209  -0.0414605 -0.157631 -0.000561595  -0.0424807 -0.170379 -0.000408091  -0.043402 -0.183141 -0.000281051  -0.0442376 -0.195881 -0.000179499  -0.0450015 -0.208571 -0.000100911  -0.0457063 -0.221196 -4.32581e-05  -0.0463705 -0.23374 2.13087e-06  -0.0470116 -0.246216 4.24981e-05  0 0 0  -0.00135155 -0.00167273 -0.00209386  -0.00380217 -0.00535412 -0.00308863  -0.00634041 -0.0103746 -0.0032944  -0.00872931 -0.0165642 -0.00318519  -0.0109705 -0.023831 -0.00294565  -0.0130904 -0.0320586 -0.00265843  -0.0150911 -0.041125 -0.00236437  -0.0169795 -0.0509237 -0.00208032  -0.0187546 -0.0613547 -0.00181214  -0.02042 -0.0723236 -0.00156707  -0.0219753 -0.0837526 -0.00134014  -0.0234239 -0.0955612 -0.00113421  -0.0247726 -0.107679 -0.000945099  -0.0260237 -0.120044 -0.000775121  -0.0271845 -0.132593 -0.000623532  -0.0282576 -0.145274 -0.000488445  -0.0292547 -0.158037 -0.000370376  -0.0301745 -0.170839 -0.000268318  -0.0310299 -0.183644 -0.000185139  -0.0318284 -0.196418 -0.000119008  -0.0325725 -0.209137 -6.57141e-05  -0.0332713 -0.22178 -2.58163e-05  -0.0339351 -0.234332 8.85129e-06  -0.0345776 -0.246788 4.47929e-05  0 0 0  -0.000586115 -0.00115815 -0.00105154  -0.00169387 -0.00458473 -0.00155798  -0.00290671 -0.00961813 -0.00166228  -0.00410834 -0.0159155 -0.00159931  -0.00527716 -0.0232974 -0.001471  -0.00642502 -0.0316325 -0.00132419  -0.00754684 -0.0408037 -0.00117178  -0.00864959 -0.0507061 -0.00102631  -0.00972962 -0.0612335 -0.000890829  -0.0107828 -0.072299 -0.000765398  -0.0118099 -0.0838171 -0.000650622  -0.012803 -0.0957097 -0.000547402  -0.013763 -0.107905 -0.000454754  -0.0146929 -0.120338 -0.000370517  -0.0155821 -0.132948 -0.000295281  -0.0164428 -0.145681 -0.000228718  -0.0172648 -0.158492 -0.000172161  -0.0180552 -0.17133 -0.000123911  -0.0188131 -0.184165 -8.41394e-05  -0.0195415 -0.196968 -5.27576e-05  -0.0202403 -0.209704 -2.78428e-05  -0.0209122 -0.222365 -8.32975e-06  -0.0215626 -0.234924 9.80496e-06  -0.0221989 -0.247355 2.54512e-05  0 0 0  5.98729e-05 -0.00106567 2.33948e-05  0.000147402 -0.00443685 1.82241e-05  0.000202537 -0.0094783 8.37445e-06  0.000192523 -0.015823 6.16908e-06  0.000108659 -0.0232604 9.62615e-06  -4.88758e-05 -0.0316523 1.72257e-05  -0.000282824 -0.0408798 2.57492e-05  -0.000588 -0.0508367 3.18885e-05  -0.000957727 -0.0614219 3.71635e-05  -0.00138569 -0.0725428 4.0397e-05  -0.00186324 -0.0841146 4.20213e-05  -0.00238359 -0.0960562 4.17978e-05  -0.00293982 -0.108298 4.16487e-05  -0.00352585 -0.120772 3.9354e-05  -0.00413239 -0.133417 3.80278e-05  -0.00475681 -0.14618 3.46452e-05  -0.00539351 -0.159017 3.19034e-05  -0.0060358 -0.171881 2.64347e-05  -0.00668097 -0.184734 2.10702e-05  -0.00732327 -0.197548 1.77473e-05  -0.00796676 -0.210298 1.25915e-05  -0.00860071 -0.222963 8.65757e-06  -0.00922966 -0.235526 4.36604e-06  -0.00984979 -0.247952 2.10106e-06  0 0 0  0.000707179 -0.00131363 0.00109209  0.00198624 -0.00484157 0.00157924  0.00330013 -0.00994158 0.00166214  0.00447226 -0.0162933 0.00159942  0.00547504 -0.0237324 0.00148351  0.0062955 -0.0321276 0.0013539  0.00694931 -0.041365 0.0012206  0.00744236 -0.0513349 0.00108908  0.00778341 -0.0619383 0.000965238  0.00798476 -0.0730761 0.0008481  0.00805473 -0.0846633 0.000737086  0.00800836 -0.0966231 0.00063391  0.00786328 -0.108879 0.000538737  0.0076226 -0.121365 0.000452816  0.00730109 -0.134021 0.000372037  0.00691485 -0.146796 0.000299051  0.00646877 -0.159636 0.00023447  0.00597596 -0.172502 0.000177577  0.00544405 -0.185358 0.000129327  0.00488377 -0.198174 8.76039e-05  0.00430441 -0.210922 5.3972e-05  0.00370669 -0.223585 2.57194e-05  0.00309587 -0.236144 3.72529e-07  0.0024941 -0.248576 -2.58535e-05  0 0 0  0.00147417 -0.00197971 0.00210634  0.00408125 -0.00585616 0.00305794  0.00669098 -0.0110087 0.00324823  0.00902921 -0.0173156 0.00314903  0.0110841 -0.0247012 0.0029327  0.0128731 -0.0330566 0.00267337  0.0143978 -0.0422624 0.00240494  0.0156742 -0.0522069 0.00214002  0.0167149 -0.0627863 0.00188741  0.0175291 -0.0739048 0.00165056  0.01814 -0.0854765 0.00142844  0.0185596 -0.0974184 0.00122209  0.0188074 -0.109657 0.00103265  0.0188997 -0.122127 0.000859216  0.0188571 -0.134767 0.000702471  0.0186884 -0.147525 0.000559926  0.0184216 -0.160351 0.000434682  0.0180674 -0.173202 0.00032571  0.0176373 -0.186043 0.000231996  0.0171521 -0.198845 0.000155672  0.0166192 -0.211579 9.39816e-05  0.0160544 -0.224229 4.38988e-05  0.0154607 -0.236783 7.89762e-07  0.0148664 -0.249237 -4.06802e-05  0 0 0  0.00257455 -0.00339866 0.00301795  0.0067949 -0.00760424 0.00442092  0.0106737 -0.0126581 0.00475615  0.0141228 -0.0188554 0.00465389  0.0172067 -0.0261503 0.00435057  0.019931 -0.0344254 0.00397338  0.0223075 -0.0435636 0.00357299  0.0243479 -0.0534436 0.00317597  0.0260602 -0.0639659 0.00279941  0.0274659 -0.0750292 0.00244288  0.0285892 -0.0865457 0.00211023  0.0294443 -0.098438 0.0018021  0.0300615 -0.110628 0.00151893  0.0304619 -0.123053 0.00125971  0.0306654 -0.13565 0.0010255  0.0306952 -0.148367 0.000813276  0.0305793 -0.161153 0.00062643  0.0303326 -0.173968 0.000465378  0.0299792 -0.186777 0.000328764  0.029536 -0.199548 0.000216156  0.0290298 -0.21226 0.000128686  0.0284734 -0.224889 6.16312e-05  0.027884 -0.237433 8.88109e-06  0.0272789 -0.249905 -4.18574e-05  0 0 0  0.00498845 -0.00626248 0.00396369  0.0104452 -0.00996047 0.0058108  0.0154203 -0.0148218 0.00628521  0.0199786 -0.0208802 0.00615644  0.0240834 -0.0280563 0.00576039  0.0277347 -0.0362233 0.00525826  0.0309405 -0.0452566 0.00472547  0.0337051 -0.055039 0.0041991  0.0360557 -0.0654635 0.00369838  0.0380152 -0.0764359 0.00322397  0.0396065 -0.0878649 0.00278392  0.0408632 -0.099672 0.002373  0.0418072 -0.111782 0.00199676  0.0424688 -0.124131 0.00165209  0.042877 -0.136655 0.00134067  0.043062 -0.149303 0.0010594  0.0430501 -0.162028 0.00081259  0.0428662 -0.174786 0.000599101  0.0425429 -0.187542 0.000416607  0.0421045 -0.200269 0.000269398  0.0415783 -0.212942 0.000158489  0.0409877 -0.225544 7.72178e-05  0.0403666 -0.238073 1.99676e-05  0.0397441 -0.250556 -3.14787e-05  0 0 0  -0.00499681 -0.00672101 -0.00239795  -0.0101747 -0.0104749 -0.00374185  -0.0152283 -0.0150871 -0.00423574  -0.020041 -0.0207696 -0.00420839  -0.024495 -0.0275234 -0.00393726  -0.0285703 -0.0352434 -0.00357006  -0.0322854 -0.0438183 -0.00318187  -0.035658 -0.0531449 -0.00280124  -0.0387151 -0.0631305 -0.002444  -0.0414757 -0.0736836 -0.00211146  -0.0439574 -0.0847266 -0.00180846  -0.0461829 -0.0961826 -0.00153096  -0.048173 -0.107981 -0.00127989  -0.0499359 -0.120057 -0.00104918  -0.0514957 -0.132349 -0.000845313  -0.0528747 -0.14481 -0.000665158  -0.0540807 -0.157383 -0.000501797  -0.0551383 -0.170023 -0.000365272  -0.0560653 -0.182696 -0.000254244  -0.0568838 -0.195366 -0.000162005  -0.0576103 -0.20801 -9.39071e-05  -0.0582798 -0.220602 -4.6283e-05  -0.0589073 -0.233137 -1.43051e-05  -0.0595367 -0.245634 1.68979e-05  0 0 0  -0.00227342 -0.00360707 -0.00177962  -0.00624332 -0.00797543 -0.00281759  -0.0102423 -0.0129698 -0.0031919  -0.0139516 -0.0189791 -0.00316858  -0.0173699 -0.0260106 -0.00296111  -0.0205196 -0.0339802 -0.00268175  -0.0234157 -0.0427849 -0.0023867  -0.0260754 -0.052326 -0.00209808  -0.0285122 -0.0625061 -0.00182831  -0.0307448 -0.073241 -0.0015783  -0.0327806 -0.0844495 -0.00135027  -0.0346344 -0.0960577 -0.00114323  -0.0363142 -0.107992 -0.000953436  -0.0378379 -0.12019 -0.00078319  -0.0392103 -0.132592 -0.000629291  -0.0404495 -0.145142 -0.000491723  -0.0415645 -0.157792 -0.000373796  -0.0425673 -0.1705 -0.000273898  -0.0434759 -0.183225 -0.000188485  -0.0442989 -0.195938 -0.000119597  -0.0450523 -0.208607 -6.8754e-05  -0.0457494 -0.221216 -3.08007e-05  -0.0464101 -0.233756 -1.63913e-06  -0.047055 -0.246233 2.61664e-05  0 0 0  -0.00121751 -0.00216272 -0.00120479  -0.00354172 -0.00621693 -0.00191776  -0.00618991 -0.0114429 -0.00216338  -0.00872248 -0.0177002 -0.00213426  -0.0110743 -0.0249483 -0.00198632  -0.013258 -0.0331065 -0.00179411  -0.0152935 -0.042085 -0.00159052  -0.0171925 -0.0517835 -0.00139737  -0.0189648 -0.0621145 -0.00121422  -0.0206214 -0.0729888 -0.00104643  -0.0221614 -0.0843259 -0.000894025  -0.0235959 -0.0960497 -0.000754669  -0.0249264 -0.108092 -0.000629321  -0.0261601 -0.120385 -0.000515729  -0.0273038 -0.132872 -0.000414938  -0.0283608 -0.145495 -0.000323981  -0.0293424 -0.158209 -0.000246331  -0.0302482 -0.170968 -0.000179201  -0.0310915 -0.183738 -0.000122517  -0.0318766 -0.196481 -7.9155e-05  -0.0326128 -0.209178 -4.34965e-05  -0.0333059 -0.221807 -1.81496e-05  -0.0339644 -0.234352 4.02331e-06  -0.0346093 -0.246807 2.29478e-05  0 0 0  -0.000522636 -0.00157201 -0.000610754  -0.00157106 -0.0053387 -0.000971526  -0.0028429 -0.0105928 -0.00109589  -0.00412765 -0.0169876 -0.00107718  -0.00536108 -0.0243776 -0.000997633  -0.00654411 -0.0326642 -0.000897422  -0.00768894 -0.0417577 -0.000791579  -0.00879639 -0.051566 -0.000689983  -0.00987446 -0.0619998 -0.000596285  -0.0109206 -0.0729718 -0.000512242  -0.011933 -0.0843996 -0.000435129  -0.0129168 -0.0962082 -0.000364468  -0.0138657 -0.108326 -0.00030233  -0.0147787 -0.12069 -0.000245675  -0.0156623 -0.133235 -0.000195444  -0.0165058 -0.145913 -0.000151351  -0.0173223 -0.15867 -0.000114202  -0.0180984 -0.171468 -8.21352e-05  -0.0188508 -0.184267 -5.47469e-05  -0.0195699 -0.197039 -3.44664e-05  -0.0202632 -0.209752 -1.90288e-05  -0.0209303 -0.222394 -4.82798e-06  -0.0215774 -0.234944 5.21541e-06  -0.0222135 -0.247384 1.57654e-05  0 0 0  4.72665e-05 -0.00145349 8.31485e-06  0.000118852 -0.00515035 5.0962e-06  0.000158519 -0.0104168 -1.01328e-06  0.000137568 -0.016868 -3.30806e-06  4.56572e-05 -0.0243242 -1.16229e-06  -0.000120223 -0.0326765 5.63264e-06  -0.000356972 -0.0418313 1.2964e-05  -0.000659883 -0.0517012 1.809e-05  -0.00102472 -0.062193 2.34842e-05  -0.0014472 -0.0732229 2.67029e-05  -0.00191867 -0.0847042 2.72989e-05  -0.00243282 -0.096562 2.88486e-05  -0.00298166 -0.108727 2.79546e-05  -0.00355875 -0.121129 2.73287e-05  -0.00416052 -0.133711 2.50638e-05  -0.00477743 -0.146417 2.29478e-05  -0.00541091 -0.159202 2.16067e-05  -0.00604701 -0.172023 1.79112e-05  -0.00668812 -0.184839 1.58846e-05  -0.00733018 -0.197623 1.18911e-05  -0.00797009 -0.210349 9.86457e-06  -0.00860405 -0.222995 7.27177e-06  -0.00923085 -0.235548 3.03984e-06  -0.00984597 -0.24798 2.38419e-07  0 0 0  0.000619009 -0.00171161 0.000621587  0.00180975 -0.00557256 0.000972688  0.00315014 -0.0108944 0.00108278  0.00438178 -0.0173489 0.00106367  0.00542331 -0.0247996 0.000992298  0.00627536 -0.0331563 0.000905186  0.00694305 -0.0423195 0.000814229  0.0074439 -0.0522033 0.000726879  0.00779235 -0.0627118 0.00064373  0.00799584 -0.0737573 0.000563473  0.00806963 -0.0852583 0.000490576  0.00802815 -0.0971329 0.000422984  0.00788164 -0.109311 0.000357538  0.00764215 -0.121727 0.000299662  0.00732672 -0.134318 0.000247926  0.00693822 -0.147036 0.000198364  0.00649142 -0.159825 0.000154644  0.0059967 -0.172647 0.000117302  0.00546527 -0.185464 8.38339e-05  0.00490713 -0.198247 5.80847e-05  0.00432396 -0.210973 3.60906e-05  0.00372434 -0.223618 1.82986e-05  0.00311756 -0.236168 5.36442e-07  0.00251436 -0.248606 -1.34706e-05  0 0 0  0.00131626 -0.00243819 0.00119743  0.003768 -0.00667036 0.00188917  0.0064548 -0.0120291 0.00212067  0.00891 -0.0184144 0.00209638  0.0110519 -0.0257947 0.00196454  0.0128909 -0.0340935 0.00179157  0.0144473 -0.0432222 0.00160792  0.0157384 -0.0530761 0.00142905  0.0167872 -0.0635611 0.00125873  0.0176042 -0.0745878 0.00109988  0.0182135 -0.086068 0.000951022  0.0186321 -0.0979272 0.000814438  0.0188782 -0.110088 0.000687689  0.0189676 -0.122488 0.000572264  0.0189197 -0.135065 0.000466615  0.0187511 -0.147765 0.000371575  0.0184793 -0.160538 0.000289023  0.0181174 -0.173344 0.000215977  0.0176842 -0.186148 0.000154942  0.0171921 -0.198916 0.000104338  0.01666 -0.211627 6.09159e-05  0.0160871 -0.224262 3.05474e-05  0.0154936 -0.236806 2.17557e-06  0.0148969 -0.249262 -2.30372e-05  0 0 0  0.00237025 -0.004004 0.00173452  0.00641254 -0.00860125 0.00274357  0.0103961 -0.0138057 0.00310495  0.0139876 -0.0200281 0.00309217  0.0171755 -0.027279 0.00290993  0.0199695 -0.0354814 0.00266105  0.0223826 -0.0445277 0.00239033  0.0244434 -0.0543143 0.00212383  0.0261648 -0.0647372 0.00186905  0.0275745 -0.0757066 0.00162944  0.0286946 -0.087134 0.00140849  0.029551 -0.0989416 0.00120261  0.0301597 -0.111054 0.00101253  0.0305556 -0.123409 0.000840843  0.0307498 -0.135941 0.000682533  0.0307767 -0.148598 0.0005413  0.030653 -0.161335 0.000418216  0.0303984 -0.174106 0.000309706  0.0300391 -0.186876 0.000221252  0.0295918 -0.199618 0.000147223  0.0290768 -0.212304 8.74102e-05  0.028518 -0.224918 4.17531e-05  0.0279248 -0.237455 6.4373e-06  0.0273244 -0.249931 -2.58237e-05  0 0 0  0.0049521 -0.00716949 0.00229993  0.0101529 -0.0112085 0.00360399  0.0151411 -0.0161265 0.0040811  0.0198025 -0.0221349 0.00407523  0.024002 -0.0292236 0.00384101  0.0277239 -0.0372911 0.00351712  0.0309652 -0.0462213 0.00316271  0.0337547 -0.0558975 0.00281027  0.0361196 -0.0662239 0.0024727  0.0380844 -0.0770981 0.0021584  0.0396777 -0.0884356 0.00186303  0.040931 -0.100162 0.00158867  0.0418752 -0.112194 0.00133598  0.0425348 -0.124472 0.00110841  0.0429399 -0.136932 0.000900358  0.0431237 -0.149519 0.000712037  0.0431063 -0.162194 0.000548571  0.0429196 -0.174909 0.000406861  0.0425923 -0.18763 0.000285298  0.0421481 -0.200328 0.000189662  0.0416188 -0.212976 0.000114143  0.0410302 -0.225565 5.92768e-05  0.04041 -0.238095 2.19345e-05  0.0397956 -0.25058 -9.56655e-06  0 0 0  -0.00508742 -0.00717015 -0.00111669  -0.0101651 -0.0111736 -0.00177994  -0.0151418 -0.0158857 -0.00206727  -0.0199651 -0.0215589 -0.00208926  -0.0244588 -0.0282599 -0.00197035  -0.0285828 -0.0359112 -0.00179172  -0.0323294 -0.0444128 -0.00159749  -0.0357209 -0.0536714 -0.0014078  -0.0387871 -0.0635893 -0.0012264  -0.0415472 -0.0740844 -0.00106123  -0.0440294 -0.0850699 -0.000907362  -0.0462505 -0.096473 -0.000768751  -0.0482302 -0.108224 -0.000641644  -0.0499883 -0.120258 -0.000526607  -0.051541 -0.132512 -0.000425696  -0.0529099 -0.144938 -0.000333041  -0.0541134 -0.157479 -0.000255227  -0.0551655 -0.170094 -0.00018838  -0.0560877 -0.182745 -0.000129879  -0.0569043 -0.195398 -8.63373e-05  -0.0576327 -0.20803 -4.82202e-05  -0.0582993 -0.220618 -2.58684e-05  -0.058933 -0.233148 -8.31485e-06  -0.0595627 -0.24565 8.64267e-06  0 0 0  -0.00222527 -0.00391793 -0.000830323  -0.00613691 -0.00853925 -0.00134566  -0.0101302 -0.0136524 -0.0015628  -0.0138931 -0.0196892 -0.00157845  -0.0173762 -0.026698 -0.00148609  -0.0205736 -0.0346207 -0.00134963  -0.0235023 -0.0433679 -0.00120091  -0.0261797 -0.0528454 -0.0010536  -0.0286233 -0.0629661 -0.000917286  -0.0308532 -0.0736429 -0.000791341  -0.0328823 -0.0847956 -0.000677347  -0.0347277 -0.0963528 -0.00057146  -0.0364004 -0.10824 -0.00047645  -0.0379136 -0.120394 -0.000391573  -0.0392803 -0.132757 -0.00031504  -0.0405079 -0.145275 -0.000247329  -0.0416145 -0.157897 -0.000186354  -0.0426099 -0.170578 -0.000137627  -0.0435104 -0.183281 -9.45628e-05  -0.0443275 -0.195977 -6.24359e-05  -0.0450768 -0.208634 -3.53456e-05  -0.045773 -0.221235 -1.62721e-05  -0.0464332 -0.233768 -1.37091e-06  -0.0470757 -0.246248 1.13845e-05  0 0 0  -0.00117043 -0.002396 -0.00055936  -0.003445 -0.00665948 -0.000911504  -0.00609583 -0.0120225 -0.00105798  -0.00868416 -0.0183398 -0.00106555  -0.0110946 -0.0255932 -0.000997931  -0.0133201 -0.0337258 -0.000903428  -0.0153822 -0.0426556 -0.000800282  -0.017294 -0.0523012 -0.000702322  -0.0190725 -0.0625745 -0.000610083  -0.0207248 -0.0733912 -0.000523746  -0.0222583 -0.0846752 -0.000447989  -0.0236841 -0.0963497 -0.000376552  -0.0250077 -0.108343 -0.000313312  -0.0262322 -0.120597 -0.000257343  -0.0273669 -0.133045 -0.000206739  -0.0284162 -0.145634 -0.000161827  -0.0293853 -0.158316 -0.00012207  -0.0302868 -0.171052 -8.82149e-05  -0.031122 -0.183799 -6.25253e-05  -0.0319026 -0.196527 -3.84748e-05  -0.0326314 -0.20921 -2.18451e-05  -0.0333226 -0.221826 -9.05991e-06  -0.0339832 -0.234367 2.563e-06  -0.0346291 -0.246826 1.15633e-05  0 0 0  -0.000500925 -0.00175667 -0.00028193  -0.00152324 -0.00570682 -0.000462651  -0.00280043 -0.0111 -0.000536948  -0.00411686 -0.0175748 -0.000538498  -0.00538599 -0.0249909 -0.000501633  -0.00659955 -0.0332649 -0.000451714  -0.00775778 -0.0423212 -0.000399232  -0.00887126 -0.0520819 -0.00034672  -0.00995219 -0.0624606 -0.000299752  -0.010994 -0.073377 -0.000256777  -0.0120041 -0.0847525 -0.000216812  -0.0129808 -0.096512 -0.000183016  -0.013921 -0.108584 -0.000149429  -0.0148299 -0.120903 -0.000121087  -0.0157026 -0.133413 -9.91821e-05  -0.0165441 -0.146053 -7.50124e-05  -0.0173521 -0.158783 -5.6237e-05  -0.0181251 -0.171554 -4.06206e-05  -0.018873 -0.184332 -2.91467e-05  -0.0195885 -0.197084 -1.63615e-05  -0.0202754 -0.209784 -7.92742e-06  -0.0209417 -0.222416 -9.23872e-07  -0.0215871 -0.234961 2.80142e-06  -0.0222235 -0.247405 6.97374e-06  0 0 0  4.25577e-05 -0.00161821 2.38419e-06  0.000103056 -0.00549045 6.85453e-07  0.000135511 -0.0108967 -1.54972e-06  0.000106037 -0.0174354 -3.12924e-06  8.76188e-06 -0.0249239 -1.49012e-06  -0.00015986 -0.0332696 1.66893e-06  -0.000398755 -0.0423932 4.55976e-06  -0.000700891 -0.0522153 8.55327e-06  -0.00106621 -0.0626545 1.19805e-05  -0.00148284 -0.0736306 1.2964e-05  -0.0019505 -0.0850601 1.45733e-05  -0.00246143 -0.0968695 1.46031e-05  -0.00300443 -0.108988 1.47223e-05  -0.00358057 -0.121347 1.35303e-05  -0.00417733 -0.133892 1.30236e-05  -0.00479281 -0.146565 1.20997e-05  -0.00541997 -0.159319 1.02222e-05  -0.0060544 -0.172111 8.82149e-06  -0.00669456 -0.184906 7.77841e-06  -0.00732994 -0.19767 5.69224e-06  -0.0079689 -0.210382 5.03659e-06  -0.00860357 -0.223019 3.45707e-06  -0.00922799 -0.235567 3.57628e-06  -0.00984883 -0.248005 -4.17233e-07  0 0 0  0.000584871 -0.00188869 0.000282705  0.00172782 -0.00592804 0.000458539  0.00306141 -0.0113855 0.000528306  0.00431281 -0.0179246 0.000527442  0.00537938 -0.0254056 0.000496715  0.00624621 -0.0337501 0.000452578  0.00692832 -0.0428817 0.000406921  0.00743639 -0.0527184 0.000363588  0.00778866 -0.0631753 0.000322044  0.00799465 -0.0741681 0.00028193  0.00807333 -0.0856168 0.000245064  0.0080328 -0.0974418 0.000210375  0.00789213 -0.109573 0.000179201  0.00765109 -0.121946 0.000149697  0.00733531 -0.1345 0.000122666  0.00694776 -0.147181 9.88245e-05  0.00650191 -0.159941 7.60555e-05  0.00600863 -0.172737 5.69224e-05  0.00547695 -0.185531 4.26471e-05  0.00491548 -0.198297 2.88486e-05  0.0043323 -0.211007 1.84774e-05  0.00373483 -0.223642 8.34465e-06  0.00312591 -0.23619 3.27826e-06  0.00252771 -0.248631 -7.15256e-06  0 0 0  0.0012583 -0.00265819 0.000550807  0.00363719 -0.00708699 0.000895023  0.00631458 -0.0125787 0.00103655  0.0088107 -0.0190264 0.00104254  0.0109962 -0.0264203 0.000982344  0.012872 -0.0347 0.000897735  0.0144502 -0.0437875 0.000805497  0.0157566 -0.0535923 0.000715613  0.0168116 -0.0640245 0.000630111  0.017633 -0.0749971 0.00055021  0.0182451 -0.0864274 0.000476301  0.018664 -0.0982366 0.000407398  0.0189083 -0.110352 0.000342637  0.0189976 -0.122708 0.000285029  0.0189503 -0.135244 0.000232875  0.0187802 -0.147909 0.00018391  0.0185053 -0.160653 0.000143826  0.0181408 -0.173435 0.000108093  0.0177088 -0.186214 7.73668e-05  0.0172117 -0.198964 5.00977e-05  0.0166757 -0.211662 3.15011e-05  0.0161045 -0.224284 1.5825e-05  0.015511 -0.236829 2.41399e-06  0.0149167 -0.249284 -9.71556e-06  0 0 0  0.00230645 -0.00429833 0.000805885  0.00626633 -0.00912768 0.00130665  0.0102326 -0.014443 0.00151926  0.0138662 -0.0206934 0.0015375  0.0171065 -0.0279345 0.00145605  0.0199411 -0.0360999 0.00133336  0.0223864 -0.0450975 0.00119826  0.0244622 -0.0548298 0.00106424  0.0261943 -0.0651987 0.000935584  0.0276098 -0.0761142 0.000815541  0.0287302 -0.0874888 0.00070411  0.029585 -0.0992459 0.000602961  0.0301991 -0.111313 0.000508726  0.0305907 -0.123625 0.000419527  0.0307844 -0.136118 0.000339538  0.0308106 -0.148741 0.000273138  0.0306833 -0.161448 0.000209391  0.0304258 -0.174191 0.00015685  0.0300632 -0.186939 0.000109822  0.0296154 -0.199663 7.28369e-05  0.0291042 -0.212334 4.63426e-05  0.0285394 -0.224939 2.42889e-05  0.0279503 -0.237473 4.23193e-06  0.0273478 -0.249948 -1.27256e-05  0 0 0  0.00500292 -0.0075953 0.00106654  0.0100825 -0.0118642 0.00171191  0.0149915 -0.0168635 0.00199223  0.0196597 -0.0228627 0.00202146  0.0238975 -0.0299099 0.0019187  0.027657 -0.0379233 0.00175899  0.0309321 -0.0467937 0.0015845  0.0337408 -0.0564114 0.0014075  0.0361149 -0.0666759 0.00123996  0.0380889 -0.0774966 0.00108111  0.0396867 -0.0887842 0.000934303  0.0409443 -0.100456 0.000796765  0.0418895 -0.112444 0.000670373  0.0425469 -0.124678 0.000557095  0.0429554 -0.137098 0.000451356  0.0431349 -0.149655 0.00035733  0.0431216 -0.162299 0.000278264  0.0429368 -0.174988 0.000204474  0.0426118 -0.187683 0.000144571  0.0421696 -0.200362 9.80198e-05  0.0416391 -0.213001 6.07669e-05  0.0410562 -0.225586 3.42131e-05  0.0404384 -0.23811 1.08778e-05  0.0398219 -0.250598 -6.88434e-06  0 0 0  -0.00512458 -0.00730739 3.57628e-07  -0.0101726 -0.0113893 5.36442e-07  -0.0151179 -0.0161366 7.7486e-07  -0.0199347 -0.0218178 -1.19209e-07  -0.0244417 -0.0285041 -7.7486e-07  -0.0285777 -0.0361322 -8.9407e-08  -0.0323358 -0.0446122 9.53674e-07  -0.0357366 -0.0538482 -6.85453e-07  -0.0388014 -0.0637439 -1.07288e-06  -0.0415666 -0.0742142 0  -0.0440475 -0.0851825 -4.17233e-07  -0.0462666 -0.0965718 -8.9407e-07  -0.0482454 -0.108307 7.15256e-07  -0.0500023 -0.120325 -2.08616e-07  -0.0515544 -0.132571 -3.8743e-07  -0.0529208 -0.144981 -3.57628e-07  -0.0541205 -0.157511 2.38419e-07  -0.0551705 -0.170121 1.49012e-06  -0.0560954 -0.182765 -1.96695e-06  -0.05691 -0.195413 5.96046e-08  -0.0576365 -0.208039 4.17233e-07  -0.0583045 -0.220617 5.96046e-08  -0.0589433 -0.233154 1.2517e-06  -0.0595727 -0.245655 -2.41399e-06  0 0 0  -0.00221435 -0.0040093 1.13249e-06  -0.00610989 -0.00871233 -2.38419e-07  -0.0100986 -0.0138685 -7.15256e-07  -0.0138694 -0.0199185 5.96046e-08  -0.0173687 -0.0269242 -9.83477e-07  -0.020583 -0.0348333 -3.27826e-07  -0.0235242 -0.0435609 1.07288e-06  -0.0262055 -0.0530198 -2.38419e-07  -0.0286522 -0.0631194 1.19209e-07  -0.0308831 -0.0737773 -1.40071e-06  -0.0329133 -0.0849111 1.19209e-07  -0.0347538 -0.0964505 5.96046e-07  -0.0364257 -0.108323 8.9407e-07  -0.0379343 -0.120466 0  -0.039299 -0.132816 5.36442e-07  -0.0405253 -0.145321 -5.96046e-08  -0.0416286 -0.157931 -2.98023e-07  -0.0426233 -0.170604 1.01328e-06  -0.0435219 -0.183301 -4.47035e-07  -0.0443377 -0.195989 1.3113e-06  -0.0450859 -0.208644 7.7486e-07  -0.0457811 -0.221242 -9.23872e-07  -0.0464427 -0.233775 -5.96046e-08  -0.047085 -0.246257 1.54972e-06  0 0 0  -0.00116035 -0.00246388 2.38419e-07  -0.00341624 -0.00679626 -8.9407e-07  -0.00606641 -0.0122044 -4.47035e-07  -0.00866809 -0.0185454 -2.98023e-07  -0.0110947 -0.0258025 1.19209e-07  -0.0133335 -0.0339293 6.55651e-07  -0.0154043 -0.042846 -3.8743e-07  -0.0173243 -0.0524727 -8.04663e-07  -0.0191026 -0.0627288 4.76837e-07  -0.0207548 -0.0735274 -2.98023e-08  -0.0222886 -0.0847924 -1.46031e-06  -0.0237113 -0.096451 3.57628e-07  -0.0250317 -0.10843 1.78814e-06  -0.0262532 -0.120667 1.07288e-06  -0.027385 -0.133102 5.36442e-07  -0.0284313 -0.145678 -3.8743e-07  -0.0294011 -0.158354 7.7486e-07  -0.0303004 -0.17108 8.9407e-07  -0.031132 -0.18382 -1.13249e-06  -0.0319097 -0.196542 7.7486e-07  -0.0326407 -0.20922 1.13249e-06  -0.0333304 -0.221834 -3.57628e-07  -0.0339913 -0.234372 4.17233e-07  -0.034632 -0.246835 6.55651e-07  0 0 0  -0.00049527 -0.00181064 0  -0.00151163 -0.00581798 -6.25849e-07  -0.00278705 -0.0112574 -3.27826e-07  -0.00411072 -0.0177621 2.98023e-07  -0.00539225 -0.0251894 1.49012e-06  -0.00661105 -0.0334607 2.98023e-07  -0.0077762 -0.0425085 -1.78814e-07  -0.00889552 -0.0522518 -5.66244e-07  -0.00997519 -0.0626149 8.9407e-07  -0.0110186 -0.0735143 2.02656e-06  -0.0120269 -0.0848715 -6.25849e-07  -0.0129988 -0.0966147 -8.9407e-08  -0.0139419 -0.10867 1.96695e-06  -0.0148466 -0.120976 -1.04308e-06  -0.015717 -0.133472 -1.04308e-06  -0.0165576 -0.146102 -8.9407e-08  -0.017365 -0.158821 8.34465e-07  -0.0181344 -0.171584 8.9407e-07  -0.0188777 -0.184352 6.55651e-07  -0.0195935 -0.197101 1.60933e-06  -0.0202792 -0.209796 7.15256e-07  -0.0209472 -0.222425 -1.78814e-06  -0.0215914 -0.234968 -5.36442e-07  -0.0222266 -0.247414 2.02656e-06  0 0 0  3.90261e-05 -0.00166529 -2.98023e-08  9.85265e-05 -0.00559324 1.66893e-06  0.000129104 -0.011044 5.96046e-08  9.76324e-05 -0.0176154 1.78814e-07  -2.38419e-06 -0.0251176 5.96046e-08  -0.000172675 -0.0334628 1.19209e-07  -0.000410557 -0.0425779 -2.08616e-07  -0.000715494 -0.0523867 -3.57628e-07  -0.00107789 -0.0628103 5.96046e-08  -0.00149548 -0.073767 -1.19209e-07  -0.00196183 -0.08518 1.19209e-07  -0.00247002 -0.0969725 -5.66244e-07  -0.00301433 -0.109075 1.19209e-06  -0.00358689 -0.121421 5.96046e-07  -0.00418293 -0.133952 6.55651e-07  -0.00479698 -0.146616 2.98023e-07  -0.00542212 -0.159357 -7.45058e-07  -0.00605726 -0.172141 -7.7486e-07  -0.00669527 -0.184928 5.96046e-08  -0.00733423 -0.197688 7.7486e-07  -0.00797129 -0.210395 7.7486e-07  -0.00860262 -0.223029 -1.04308e-06  -0.00922942 -0.235574 9.53674e-07  -0.0098443 -0.248013 -2.68221e-07  0 0 0  0.000576511 -0.00194126 5.36442e-07  0.00170878 -0.00603509 -8.9407e-08  0.00303403 -0.0115415 -5.96046e-08  0.00428861 -0.0181065 1.43051e-06  0.00536197 -0.025601 3.57628e-07  0.00623506 -0.0339441 2.98023e-07  0.00691879 -0.0430668 -1.07288e-06  0.00743282 -0.05289 0  0.00778544 -0.0633295 -3.27826e-07  0.00799417 -0.0743039 4.76837e-07  0.00807297 -0.0857362 2.98023e-07  0.00803399 -0.0975459 -5.06639e-07  0.00789177 -0.109663 5.36442e-07  0.00765336 -0.12202 -2.08616e-07  0.00733674 -0.134562 -3.8743e-07  0.0069499 -0.14723 -5.96046e-07  0.00650501 -0.15998 9.53674e-07  0.00601006 -0.172768 1.13249e-06  0.00548124 -0.185556 -8.34465e-07  0.00491834 -0.198314 -1.78814e-07  0.00433755 -0.211018 0  0.00373721 -0.223653 3.57628e-07  0.00313115 -0.236195 -8.9407e-08  0.00252604 -0.248641 8.9407e-07  0 0 0  0.00124501 -0.00272453 -6.55651e-07  0.00360224 -0.00721681 -9.23872e-07  0.00627217 -0.0127515 2.98023e-07  0.00877243 -0.0192224 1.37091e-06  0.0109741 -0.0266223 1.13249e-06  0.0128611 -0.0348982 -9.53674e-07  0.0144472 -0.0439739 -2.38419e-07  0.0157585 -0.053764 1.19209e-06  0.0168151 -0.0641803 3.57628e-07  0.0176407 -0.0751343 1.19209e-07  0.0182515 -0.0865464 -3.8743e-07  0.0186713 -0.0983375 4.17233e-07  0.0189186 -0.110438 1.19209e-06  0.0190065 -0.122783 -1.69873e-06  0.018959 -0.135305 -1.04308e-06  0.018784 -0.147959 6.55651e-07  0.0185122 -0.160692 9.53674e-07  0.0181501 -0.173464 9.53674e-07  0.0177124 -0.186237 -2.68221e-07  0.0172203 -0.19898 1.78814e-07  0.0166826 -0.211673 -2.98023e-08  0.0161119 -0.224293 -1.40071e-06  0.0155191 -0.236837 1.78814e-07  0.0149198 -0.249294 -2.47359e-06  0 0 0  0.00229292 -0.00438559 -1.37091e-06  0.00622994 -0.00928944 7.15256e-07  0.0101822 -0.0146444 -7.7486e-07  0.0138207 -0.0209099 7.7486e-07  0.0170771 -0.0281482 8.34465e-07  0.019926 -0.0363052 -1.2815e-06  0.0223798 -0.0452871 -2.98023e-07  0.0244628 -0.0550029 -7.7486e-07  0.0261981 -0.0653514 -5.96046e-08  0.0276176 -0.0762479 -4.76837e-07  0.028741 -0.0876069 1.37091e-06  0.0295962 -0.0993472 -9.83477e-07  0.0302076 -0.111401 -1.2815e-06  0.0305997 -0.123697 -6.25849e-07  0.0307958 -0.136178 -5.66244e-07  0.0308173 -0.14879 4.17233e-07  0.0306909 -0.161485 1.01328e-06  0.0304375 -0.17422 -6.55651e-07  0.0300708 -0.186961 -3.8743e-07  0.0296242 -0.199678 5.96046e-08  0.0291097 -0.212345 1.78814e-07  0.028548 -0.224949 -7.45058e-07  0.0279577 -0.237481 -7.15256e-07  0.0273583 -0.249957 7.15256e-07  0 0 0  0.00502582 -0.00772732 1.2517e-06  0.0100698 -0.0120661 -8.34465e-07  0.0149473 -0.0170971 8.9407e-07  0.019607 -0.0230993 -1.16229e-06  0.0238551 -0.0301362 -6.25849e-07  0.0276275 -0.038131 1.13249e-06  0.0309086 -0.0469838 -1.19209e-07  0.0337286 -0.0565819 -1.01328e-06  0.0361085 -0.0668277 -6.85453e-07  0.038084 -0.0776286 1.13249e-06  0.0396839 -0.0888982 -1.78814e-07  0.0409417 -0.100556 -5.96046e-07  0.0418878 -0.112525 -2.71201e-06  0.0425507 -0.124747 -8.9407e-07  0.0429533 -0.137155 2.98023e-07  0.0431392 -0.149701 -4.47035e-07  0.0431256 -0.162335 1.07288e-06  0.0429389 -0.175012 4.17233e-07  0.0426135 -0.187702 1.49012e-06  0.042171 -0.200377 -4.17233e-07  0.0416496 -0.213012 1.54972e-06  0.0410614 -0.225593 -2.563e-06  0.0404487 -0.238114 -1.57952e-06  0.0398304 -0.250605 8.34465e-07  0 0 0  -0.00508685 -0.00716929 0.00111729  -0.0101634 -0.0111753 0.00177991  -0.0151427 -0.0158854 0.00206596  -0.0199632 -0.0215598 0.00208795  -0.0244592 -0.0282587 0.00197101  -0.0285823 -0.0359101 0.00179309  -0.0323288 -0.0444127 0.00159788  -0.0357206 -0.053671 0.0014075  -0.0387858 -0.06359 0.00122583  -0.0415467 -0.0740815 0.00106186  -0.0440296 -0.0850689 0.000907302  -0.0462507 -0.0964734 0.000768065  -0.0482302 -0.108225 0.000642061  -0.049988 -0.120257 0.000526667  -0.0515428 -0.132511 0.000424922  -0.0529103 -0.144935 0.000334203  -0.0541131 -0.157477 0.000256062  -0.055166 -0.170094 0.000186145  -0.0560877 -0.182746 0.000130177  -0.0569043 -0.195399 8.58307e-05  -0.0576305 -0.208031 5.1558e-05  -0.0582998 -0.220615 2.64049e-05  -0.0589302 -0.233149 6.85453e-06  -0.0595663 -0.245652 -6.19888e-06  0 0 0  -0.00222502 -0.00391655 0.000830472  -0.00613751 -0.00853918 0.0013454  -0.01013 -0.0136533 0.00156301  -0.013893 -0.019689 0.00157672  -0.0173757 -0.0266973 0.00148535  -0.0205741 -0.0346214 0.00134885  -0.0235024 -0.0433679 0.00119913  -0.0261801 -0.0528452 0.00105333  -0.0286231 -0.062967 0.000917375  -0.0308514 -0.0736423 0.000793159  -0.0328844 -0.084796 0.000676215  -0.0347279 -0.0963525 0.000573337  -0.0364007 -0.108241 0.00047636  -0.0379128 -0.120394 0.000391245  -0.0392792 -0.132758 0.000315487  -0.0405086 -0.145275 0.00024718  -0.0416148 -0.157895 0.000187576  -0.0426104 -0.170578 0.000137687  -0.0435095 -0.183283 9.57251e-05  -0.0443277 -0.195977 6.1512e-05  -0.0450783 -0.208633 3.69549e-05  -0.0457747 -0.221234 1.59144e-05  -0.0464325 -0.233768 1.3113e-06  -0.0470769 -0.246248 -9.59635e-06  0 0 0  -0.00117139 -0.00239593 0.000558436  -0.003443 -0.00666042 0.000910759  -0.00609574 -0.0120224 0.00105882  -0.00868359 -0.0183401 0.00106382  -0.0110928 -0.0255939 0.000997484  -0.01332 -0.0337249 0.000903249  -0.0153806 -0.0426562 0.000801504  -0.0172952 -0.052302 0.000701249  -0.0190707 -0.0625736 0.000607014  -0.0207243 -0.0733926 0.000523329  -0.0222592 -0.0846751 0.000448346  -0.0236852 -0.0963503 0.000377834  -0.0250084 -0.108343 0.000313044  -0.0262308 -0.120597 0.00025773  -0.0273657 -0.133045 0.000208974  -0.0284156 -0.145633 0.000162125  -0.0293846 -0.158318 0.000121713  -0.0302854 -0.171051 8.76188e-05  -0.0311224 -0.183799 6.18696e-05  -0.0319021 -0.196527 3.86834e-05  -0.0326312 -0.209208 2.10404e-05  -0.0333233 -0.221826 9.47714e-06  -0.0339813 -0.234367 -1.54972e-06  -0.0346291 -0.246826 -1.12653e-05  0 0 0  -0.000502497 -0.00175783 0.000283122  -0.00152384 -0.00570574 0.000462055  -0.00279966 -0.0111004 0.00053668  -0.00411656 -0.0175758 0.000537753  -0.00538778 -0.0249892 0.000502467  -0.00659728 -0.0332646 0.000451565  -0.00775594 -0.0423218 0.000398874  -0.00887269 -0.0520817 0.00034672  -0.00995064 -0.0624605 0.000299156  -0.0109943 -0.0733765 0.000256538  -0.0120051 -0.084753 0.000216961  -0.0129811 -0.096512 0.000183165  -0.0139223 -0.108584 0.000151038  -0.0148319 -0.120903 0.000121653  -0.0157032 -0.133411 9.69768e-05  -0.0165446 -0.146055 7.54595e-05  -0.01735 -0.158782 5.53131e-05  -0.0181272 -0.171556 4.08888e-05  -0.0188708 -0.18433 2.86102e-05  -0.0195878 -0.197082 1.72257e-05  -0.020277 -0.209785 8.34465e-06  -0.0209415 -0.222416 2.32458e-06  -0.0215881 -0.234961 -2.20537e-06  -0.0222235 -0.247403 -7.98702e-06  0 0 0  4.09931e-05 -0.00161955 -3.27826e-06  0.000103623 -0.00548896 -1.2517e-06  0.000136554 -0.0108951 2.38419e-06  0.000108302 -0.0174353 3.8743e-06  8.58307e-06 -0.0249261 2.26498e-06  -0.00015974 -0.0332684 -2.98023e-07  -0.000398099 -0.0423931 -4.94719e-06  -0.000701308 -0.0522165 -8.70228e-06  -0.00106573 -0.0626548 -1.15633e-05  -0.00148356 -0.0736305 -1.23978e-05  -0.00195372 -0.0850603 -1.33514e-05  -0.00245881 -0.09687 -1.43051e-05  -0.00300634 -0.108987 -1.38879e-05  -0.003582 -0.121347 -1.41859e-05  -0.00417602 -0.133893 -1.2517e-05  -0.0047909 -0.146565 -1.32918e-05  -0.00541973 -0.159319 -1.0848e-05  -0.00605512 -0.172111 -7.80821e-06  -0.00669479 -0.184904 -7.39098e-06  -0.0073328 -0.197671 -6.73532e-06  -0.00796914 -0.210383 -4.76837e-06  -0.00860167 -0.22302 -3.99351e-06  -0.00922918 -0.235568 -2.08616e-06  -0.00984883 -0.248005 -8.34465e-07  0 0 0  0.000585139 -0.00188774 -0.000282466  0.00172967 -0.00592685 -0.000458479  0.00306141 -0.0113868 -0.000526249  0.00431222 -0.0179243 -0.000527501  0.00537777 -0.0254052 -0.000497639  0.00624532 -0.0337502 -0.000453234  0.00692827 -0.0428813 -0.0004071  0.00743771 -0.052719 -0.000364363  0.00778842 -0.0631757 -0.000321388  0.00799453 -0.0741689 -0.000282049  0.00807285 -0.0856156 -0.000245214  0.0080353 -0.0974403 -0.000210345  0.00789034 -0.109573 -0.000180125  0.00765264 -0.121947 -0.000149667  0.00733304 -0.134501 -0.000123382  0.0069468 -0.147181 -9.95994e-05  0.0065012 -0.15994 -7.75456e-05  0.00600839 -0.172737 -5.85914e-05  0.00547695 -0.185533 -4.3571e-05  0.00491643 -0.198298 -2.86698e-05  0.00433159 -0.211007 -1.68085e-05  0.0037334 -0.223642 -1.04308e-05  0.00312829 -0.236189 -2.08616e-06  0.00252485 -0.248632 7.689e-06  0 0 0  0.00125942 -0.00265789 -0.000550687  0.00363734 -0.00708783 -0.000895202  0.00631553 -0.0125784 -0.00103515  0.00880945 -0.0190274 -0.00104237  0.0109953 -0.0264195 -0.000982702  0.0128714 -0.0347009 -0.000898421  0.0144507 -0.0437883 -0.000806272  0.0157568 -0.0535934 -0.000715971  0.0168099 -0.0640259 -0.000629246  0.0176334 -0.0749975 -0.000550866  0.0182452 -0.0864264 -0.000475943  0.0186638 -0.0982354 -0.000406086  0.0189086 -0.110352 -0.000345111  0.0189972 -0.122707 -0.000285149  0.0189483 -0.135244 -0.000232399  0.0187793 -0.147909 -0.000185251  0.0185022 -0.160653 -0.000142992  0.0181429 -0.173434 -0.0001086  0.0177052 -0.186215 -7.689e-05  0.0172143 -0.198964 -5.13196e-05  0.016675 -0.211661 -3.05176e-05  0.0161059 -0.224286 -1.5378e-05  0.0155129 -0.236827 -3.15905e-06  0.0149157 -0.249287 8.58307e-06  0 0 0  0.00230715 -0.00429821 -0.000805974  0.00626642 -0.00912803 -0.00130612  0.0102321 -0.0144435 -0.00151849  0.0138646 -0.0206951 -0.00153714  0.0171065 -0.0279338 -0.00145614  0.0199429 -0.0361003 -0.00133228  0.022386 -0.0450976 -0.00119972  0.0244626 -0.0548289 -0.00106496  0.0261943 -0.0651988 -0.00093621  0.0276084 -0.0761143 -0.000816107  0.0287309 -0.0874893 -0.000704229  0.0295849 -0.0992454 -0.000602365  0.0301977 -0.111314 -0.000507414  0.030589 -0.123623 -0.000419676  0.0307866 -0.136119 -0.000342131  0.0308089 -0.148741 -0.000272334  0.0306814 -0.161448 -0.000209093  0.030426 -0.174191 -0.000155509  0.0300663 -0.186939 -0.000110209  0.0296175 -0.199661 -7.35521e-05  0.0291033 -0.212334 -4.61936e-05  0.0285418 -0.22494 -2.39015e-05  0.0279491 -0.237473 -4.94719e-06  0.0273468 -0.249951 1.20997e-05  0 0 0  0.00500453 -0.00759721 -0.0010671  0.0100801 -0.0118662 -0.00171232  0.0149889 -0.0168632 -0.00199115  0.0196594 -0.0228627 -0.0020197  0.0238996 -0.0299112 -0.00191748  0.0276554 -0.0379223 -0.00176013  0.0309299 -0.0467907 -0.00158554  0.0337394 -0.0564103 -0.00140756  0.0361189 -0.066677 -0.00123996  0.0380886 -0.0774963 -0.00108123  0.0396878 -0.0887815 -0.000932336  0.0409431 -0.100456 -0.000797629  0.0418869 -0.112444 -0.000670671  0.0425484 -0.124678 -0.000555456  0.0429556 -0.137099 -0.000452399  0.0431361 -0.149657 -0.000356019  0.0431194 -0.1623 -0.000276685  0.0429349 -0.174986 -0.000205219  0.0426083 -0.187684 -0.000145972  0.0421679 -0.200366 -9.68575e-05  0.0416427 -0.213001 -6.04987e-05  0.0410564 -0.225582 -3.16501e-05  0.0404363 -0.238113 -1.23978e-05  0.0398233 -0.250602 4.70877e-06  0 0 0  -0.0049962 -0.00672256 0.00239849  -0.0101755 -0.0104751 0.00374365  -0.0152284 -0.0150869 0.00423503  -0.0200421 -0.0207706 0.00420886  -0.0244935 -0.0275259 0.00393701  -0.0285701 -0.0352431 0.00357056  -0.0322865 -0.0438167 0.00318062  -0.0356607 -0.0531443 0.00280041  -0.0387141 -0.0631298 0.0024426  -0.0414741 -0.0736827 0.00211078  -0.0439558 -0.0847253 0.0018087  -0.0461828 -0.0961823 0.00153047  -0.0481726 -0.107982 0.00127929  -0.0499355 -0.120057 0.00105095  -0.0514977 -0.132351 0.000843525  -0.0528708 -0.144807 0.0006634  -0.0540812 -0.15738 0.000503063  -0.0551376 -0.170021 0.000366271  -0.0560648 -0.182695 0.000255585  -0.0568821 -0.195365 0.000163138  -0.0576093 -0.20801 9.29236e-05  -0.0582774 -0.220602 4.78625e-05  -0.0589063 -0.233139 1.58548e-05  -0.059536 -0.245632 -1.54972e-05  0 0 0  -0.00227509 -0.00360623 0.00177914  -0.0062443 -0.00797538 0.00281847  -0.0102426 -0.0129686 0.00319254  -0.01395 -0.0189791 0.00316954  -0.0173715 -0.0260108 0.00296116  -0.0205192 -0.0339809 0.00268263  -0.0234158 -0.0427854 0.00238651  -0.0260755 -0.0523239 0.00209767  -0.0285131 -0.0625065 0.00182801  -0.030745 -0.0732421 0.00157887  -0.032779 -0.0844496 0.0013507  -0.0346332 -0.0960571 0.00114107  -0.0363148 -0.107991 0.000952542  -0.0378381 -0.12019 0.000781476  -0.0392126 -0.132591 0.000628173  -0.0404509 -0.145141 0.000493467  -0.0415645 -0.157792 0.000374854  -0.0425692 -0.170501 0.000273407  -0.0434752 -0.183224 0.00018698  -0.0442991 -0.195937 0.000120878  -0.0450497 -0.208609 6.92606e-05  -0.0457485 -0.221218 3.16501e-05  -0.0464089 -0.233754 1.43051e-06  -0.0470512 -0.246232 -2.78354e-05  0 0 0  -0.00121628 -0.00216283 0.0012058  -0.00354014 -0.00621793 0.00191796  -0.00618997 -0.0114436 0.00216115  -0.00872299 -0.0176999 0.00213498  -0.0110744 -0.0249476 0.00198543  -0.0132579 -0.0331071 0.00179297  -0.0152936 -0.0420858 0.00159138  -0.0171924 -0.0517841 0.00139618  -0.0189651 -0.0621145 0.00121415  -0.0206207 -0.072989 0.00104588  -0.0221626 -0.0843257 0.000895083  -0.0235951 -0.0960513 0.000754774  -0.0249271 -0.108092 0.000627756  -0.0261604 -0.120385 0.000514865  -0.0273046 -0.132872 0.000415325  -0.0283619 -0.145495 0.000324428  -0.029341 -0.158209 0.000244856  -0.0302479 -0.170969 0.000180006  -0.0310881 -0.183739 0.000124216  -0.0318768 -0.196482 7.83801e-05  -0.0326121 -0.209179 4.42863e-05  -0.0333056 -0.221805 1.66893e-05  -0.033963 -0.23435 -4.11272e-06  -0.0346127 -0.246808 -2.56896e-05  0 0 0  -0.000521578 -0.00157273 0.000610173  -0.00157195 -0.00533891 0.000971615  -0.00284263 -0.0105923 0.00109655  -0.00412723 -0.0169867 0.00107867  -0.00536114 -0.024377 0.000997365  -0.00654429 -0.0326634 0.000896811  -0.00768667 -0.0417581 0.000790298  -0.00879765 -0.0515664 0.000690758  -0.00987399 -0.061999 0.000597894  -0.0109191 -0.0729713 0.000513256  -0.0119358 -0.0844002 0.000434637  -0.0129175 -0.0962084 0.000363767  -0.0138665 -0.108328 0.000301361  -0.0147811 -0.120688 0.000246167  -0.0156614 -0.133234 0.000195801  -0.016507 -0.145913 0.00015223  -0.0173202 -0.15867 0.000113785  -0.0181017 -0.171468 8.16584e-05  -0.0188484 -0.184267 5.53727e-05  -0.0195687 -0.197039 3.3319e-05  -0.0202622 -0.209754 1.88351e-05  -0.0209303 -0.222394 5.24521e-06  -0.0215774 -0.234944 -3.93391e-06  -0.0222149 -0.247383 -1.50204e-05  0 0 0  4.5374e-05 -0.00145307 -7.45058e-06  0.000120938 -0.00515229 -4.70877e-06  0.000159979 -0.0104155 1.2517e-06  0.000136673 -0.0168688 3.8147e-06  4.45843e-05 -0.0243238 -1.19209e-07  -0.000120044 -0.0326768 -6.49691e-06  -0.000354946 -0.041831 -1.28746e-05  -0.000657856 -0.0517004 -1.94311e-05  -0.00102568 -0.0621937 -2.24113e-05  -0.00144804 -0.0732228 -2.64645e-05  -0.00191689 -0.0847041 -2.8491e-05  -0.00243068 -0.0965628 -2.8193e-05  -0.00297928 -0.108725 -2.85506e-05  -0.00356007 -0.12113 -2.72989e-05  -0.00415993 -0.133712 -2.55704e-05  -0.0047791 -0.146418 -2.2471e-05  -0.00541115 -0.159202 -2.06232e-05  -0.0060482 -0.172022 -1.77026e-05  -0.00668836 -0.184839 -1.5378e-05  -0.00732946 -0.197622 -1.29342e-05  -0.0079689 -0.210348 -8.04663e-06  -0.0086031 -0.222997 -6.61612e-06  -0.00922799 -0.235549 -1.78814e-06  -0.00984907 -0.24798 2.44379e-06  0 0 0  0.0006181 -0.00171131 -0.000619769  0.00180882 -0.00557172 -0.000972271  0.00315082 -0.010892 -0.00108194  0.00438136 -0.0173491 -0.00106394  0.00542349 -0.0248008 -0.000993669  0.00627398 -0.0331553 -0.000904799  0.00694305 -0.0423197 -0.000815034  0.00744522 -0.0522035 -0.000725985  0.00779104 -0.0627126 -0.000642896  0.00799596 -0.0737572 -0.000563264  0.00806952 -0.085258 -0.000491261  0.00802803 -0.0971326 -0.000422359  0.007882 -0.109312 -0.000357568  0.00764215 -0.121726 -0.000300765  0.00732362 -0.134319 -0.00024581  0.00693631 -0.147035 -0.00019747  0.00649095 -0.159824 -0.000155032  0.00599813 -0.172647 -0.00011915  0.00546479 -0.185465 -8.52942e-05  0.0049057 -0.198248 -5.91874e-05  0.00432372 -0.210973 -3.55244e-05  0.00372362 -0.223616 -1.78814e-05  0.00311518 -0.236169 -2.32458e-06  0.00251484 -0.248609 1.5974e-05  0 0 0  0.00131582 -0.00243741 -0.00119853  0.0037694 -0.00667036 -0.00188959  0.00645536 -0.0120297 -0.00212038  0.00890964 -0.018415 -0.00209713  0.0110523 -0.0257943 -0.00196391  0.01289 -0.0340937 -0.00179094  0.0144491 -0.0432218 -0.00160766  0.0157405 -0.0530764 -0.00142884  0.0167866 -0.0635603 -0.00125951  0.0176047 -0.0745872 -0.00109911  0.018214 -0.0860689 -0.000949979  0.0186323 -0.0979269 -0.000815094  0.0188785 -0.11009 -0.000687659  0.0189694 -0.122489 -0.000571251  0.0189204 -0.135064 -0.000465333  0.0187485 -0.147764 -0.000372052  0.0184805 -0.160537 -0.000288606  0.0181179 -0.173346 -0.000214696  0.0176861 -0.186146 -0.000152409  0.0171933 -0.198917 -0.000103533  0.0166557 -0.211629 -6.4075e-05  0.0160861 -0.224262 -2.96235e-05  0.0154946 -0.236808 -3.21865e-06  0.0148957 -0.249265 2.45571e-05  0 0 0  0.00237069 -0.0040043 -0.00173539  0.00641254 -0.00860161 -0.00274277  0.0103975 -0.013807 -0.00310266  0.0139867 -0.0200276 -0.00309259  0.0171752 -0.0272792 -0.00291038  0.0199689 -0.0354806 -0.00265962  0.0223829 -0.0445279 -0.00238991  0.0244424 -0.0543141 -0.0021227  0.0261648 -0.0647365 -0.00187021  0.0275744 -0.0757058 -0.00163066  0.0286947 -0.0871348 -0.00140727  0.0295486 -0.0989421 -0.00120175  0.0301601 -0.111054 -0.00101256  0.0305537 -0.123408 -0.000840008  0.0307536 -0.13594 -0.000681996  0.0307767 -0.148599 -0.000541866  0.0306509 -0.161336 -0.00041908  0.0303988 -0.174106 -0.0003106  0.0300395 -0.186877 -0.000219703  0.0295904 -0.199616 -0.000147641  0.0290782 -0.212303 -8.79169e-05  0.0285172 -0.22492 -4.44055e-05  0.0279264 -0.237456 -8.52346e-06  0.0273232 -0.249931 2.60472e-05  0 0 0  0.00495362 -0.00716925 -0.00230134  0.0101518 -0.0112106 -0.00360185  0.0151422 -0.0161275 -0.00408322  0.0198035 -0.0221342 -0.00407434  0.0240037 -0.0292248 -0.00384194  0.0277226 -0.0372904 -0.00351614  0.0309659 -0.0462196 -0.00316131  0.0337547 -0.0558981 -0.00280958  0.0361184 -0.0662224 -0.00247294  0.0380845 -0.0770991 -0.00215638  0.0396779 -0.0884371 -0.00186318  0.0409297 -0.10016 -0.00158721  0.0418755 -0.112192 -0.00133818  0.0425338 -0.12447 -0.00110716  0.0429404 -0.136933 -0.000899673  0.0431223 -0.149523 -0.000712872  0.0431049 -0.162194 -0.000546575  0.0429211 -0.174908 -0.00040561  0.0425949 -0.18763 -0.000285387  0.04215 -0.200331 -0.000190437  0.0416198 -0.212976 -0.000115931  0.0410306 -0.225565 -5.9545e-05  0.0404115 -0.238093 -2.03252e-05  0.0397916 -0.25058 1.63317e-05  0 0 0  -0.00495856 -0.0057621 0.00410414  -0.0103759 -0.00911673 0.00603586  -0.015405 -0.0136618 0.00651062  -0.0200962 -0.0194197 0.00633329  -0.0244351 -0.0262867 0.00587624  -0.0284407 -0.0341325 0.00531363  -0.032112 -0.042835 0.00473011  -0.0354652 -0.0522821 0.00416726  -0.0385168 -0.0623758 0.00363594  -0.0412838 -0.0730333 0.00314939  -0.0437791 -0.0841701 0.00269359  -0.0460212 -0.0957098 0.00228214  -0.0480241 -0.107589 0.00190693  -0.0498073 -0.119735 0.00156367  -0.0513827 -0.132092 0.001257  -0.0527767 -0.144606 0.000982404  -0.053998 -0.157228 0.000745893  -0.0550714 -0.169913 0.000540793  -0.0560076 -0.182621 0.00036943  -0.0568345 -0.195319 0.000231624  -0.0575678 -0.207979 0.000128627  -0.0582349 -0.220586 5.75185e-05  -0.0588682 -0.233127 1.06096e-05  -0.0594893 -0.245617 -3.55244e-05  0 0 0  -0.00245339 -0.00296065 0.00306636  -0.00657301 -0.00689739 0.00453526  -0.0104309 -0.0117401 0.00487685  -0.0139653 -0.0177432 0.00474453  -0.0172592 -0.0248379 0.00440401  -0.02033 -0.0329043 0.00398439  -0.0231858 -0.0418158 0.00354832  -0.0258304 -0.0514641 0.00312495  -0.0282686 -0.0617511 0.00272715  -0.0305104 -0.0725854 0.00235933  -0.0325626 -0.0838854 0.00202084  -0.0344344 -0.0955767 0.0017097  -0.0361353 -0.10759 0.00142813  -0.0376765 -0.119857 0.0011732  -0.0390699 -0.132323 0.00094372  -0.0403295 -0.14493 0.000739217  -0.0414615 -0.157632 0.000561357  -0.0424833 -0.17038 0.000409067  -0.0434039 -0.183142 0.000281513  -0.0442381 -0.19588 0.000178516  -0.0450032 -0.208573 0.000100911  -0.0457082 -0.221196 4.22597e-05  -0.0463717 -0.23374 -1.2517e-06  -0.0470078 -0.246215 -4.23789e-05  0 0 0  -0.00135264 -0.00167227 0.00209427  -0.00380154 -0.0053547 0.00308943  -0.00634003 -0.0103742 0.00329721  -0.00872824 -0.0165637 0.00318301  -0.010972 -0.0238326 0.00294399  -0.0130901 -0.0320583 0.00265908  -0.0150921 -0.041125 0.00236481  -0.0169803 -0.0509234 0.00207943  -0.0187557 -0.0613537 0.00181425  -0.0204198 -0.072325 0.00156659  -0.0219749 -0.0837518 0.00133932  -0.0234262 -0.0955619 0.00113392  -0.024772 -0.10768 0.000945807  -0.0260249 -0.120043 0.00077498  -0.0271844 -0.132594 0.000622034  -0.0282601 -0.145274 0.000488698  -0.0292547 -0.158038 0.000370383  -0.0301754 -0.17084 0.000270367  -0.0310323 -0.183644 0.000187635  -0.0318263 -0.19642 0.000117838  -0.0325718 -0.209137 6.51479e-05  -0.0332689 -0.221779 2.53916e-05  -0.0339353 -0.234332 -8.04663e-06  -0.034575 -0.246787 -4.45247e-05  0 0 0  -0.000586808 -0.00116038 0.0010519  -0.00169291 -0.00458559 0.00155902  -0.00290811 -0.00961703 0.00166219  -0.00410876 -0.0159141 0.00159967  -0.00527775 -0.0232975 0.00147295  -0.00642329 -0.0316331 0.00132585  -0.00754607 -0.0408033 0.00117266  -0.00865042 -0.0507054 0.00102657  -0.00972748 -0.0612335 0.00089103  -0.0107839 -0.0722983 0.000764906  -0.0118073 -0.0838179 0.000651002  -0.0128014 -0.0957101 0.000548482  -0.0137645 -0.107904 0.000453353  -0.0146908 -0.120337 0.000369012  -0.0155842 -0.132947 0.000296295  -0.0164398 -0.145681 0.000229836  -0.0172672 -0.158491 0.00017333  -0.0180569 -0.171331 0.000125051  -0.0188143 -0.184166 8.35657e-05  -0.0195415 -0.196968 5.16176e-05  -0.0202405 -0.209707 2.5928e-05  -0.0209119 -0.222366 8.16584e-06  -0.0215623 -0.234923 -8.82149e-06  -0.0221982 -0.247355 -2.68221e-05  0 0 0  6.01262e-05 -0.00106585 -2.25902e-05  0.000148475 -0.00443643 -1.89543e-05  0.000201344 -0.0094786 -8.46386e-06  0.000191867 -0.0158215 -6.07967e-06  0.000108182 -0.023259 -9.23872e-06  -4.88162e-05 -0.0316521 -1.78218e-05  -0.000284195 -0.0408802 -2.42591e-05  -0.000588059 -0.0508365 -3.12924e-05  -0.000958085 -0.0614213 -3.79682e-05  -0.00138545 -0.0725439 -4.07696e-05  -0.00186503 -0.0841143 -4.16636e-05  -0.00238335 -0.0960568 -4.17829e-05  -0.00293863 -0.108297 -4.26173e-05  -0.00352561 -0.120771 -4.05908e-05  -0.00413394 -0.133416 -3.71337e-05  -0.00475609 -0.146183 -3.31402e-05  -0.00539255 -0.159018 -3.00407e-05  -0.0060358 -0.171882 -2.64645e-05  -0.00668335 -0.184734 -2.28882e-05  -0.00732398 -0.197549 -1.75238e-05  -0.00796485 -0.210299 -1.40667e-05  -0.00860143 -0.222963 -1.16229e-05  -0.0092299 -0.235525 -5.78165e-06  -0.00984859 -0.24795 -1.49012e-06  0 0 0  0.000706404 -0.00131428 -0.0010922  0.00198814 -0.00484145 -0.00157905  0.00329912 -0.00994152 -0.00166386  0.00447267 -0.0162932 -0.00159806  0.00547278 -0.0237318 -0.0014841  0.00629598 -0.0321282 -0.00135362  0.0069496 -0.041365 -0.00121993  0.00744176 -0.051336 -0.00108963  0.00778222 -0.0619372 -0.00096494  0.00798309 -0.0730773 -0.000847936  0.00805593 -0.0846632 -0.000736117  0.0080117 -0.0966232 -0.000634611  0.00786245 -0.108879 -0.00053972  0.00762057 -0.121366 -0.00045073  0.0073005 -0.134021 -0.000371397  0.00691319 -0.146795 -0.000298083  0.0064683 -0.159636 -0.000233471  0.00597453 -0.172501 -0.000178695  0.005445 -0.185358 -0.000128448  0.00488472 -0.198174 -8.86917e-05  0.00430465 -0.210921 -5.52535e-05  0.00370455 -0.223584 -2.53916e-05  0.0030973 -0.236145 1.54972e-06  0.00249457 -0.248577 2.52724e-05  0 0 0  0.00147636 -0.00198042 -0.00210536  0.00407991 -0.00585479 -0.00305873  0.00668997 -0.0110081 -0.00324911  0.00902981 -0.0173154 -0.00315058  0.0110861 -0.0247033 -0.00293404  0.0128722 -0.0330576 -0.00267208  0.014399 -0.0422613 -0.00240415  0.0156738 -0.0522065 -0.00213897  0.0167146 -0.0627861 -0.0018875  0.0175289 -0.0739047 -0.00164968  0.0181392 -0.0854761 -0.0014292  0.018558 -0.097416 -0.00122327  0.0188067 -0.109658 -0.00103384  0.0188971 -0.122127 -0.000858545  0.0188565 -0.134769 -0.000700831  0.0186889 -0.147526 -0.000559509  0.0184214 -0.160349 -0.00043571  0.0180669 -0.173203 -0.000323057  0.0176392 -0.186043 -0.000231504  0.0171516 -0.198844 -0.000155449  0.0166197 -0.211577 -9.33409e-05  0.0160499 -0.224229 -4.3869e-05  0.015461 -0.236784 -1.72853e-06  0.0148633 -0.249236 4.02331e-05  0 0 0  0.00257424 -0.00339848 -0.00301921  0.0067963 -0.00760287 -0.00442111  0.0106715 -0.0126581 -0.00475729  0.0141219 -0.018856 -0.0046522  0.0172055 -0.0261492 -0.00435179  0.0199317 -0.0344273 -0.00397348  0.0223094 -0.0435625 -0.00357133  0.0243469 -0.0534447 -0.00317657  0.0260597 -0.0639641 -0.0027985  0.0274669 -0.0750276 -0.00244236  0.0285871 -0.0865457 -0.00211018  0.0294445 -0.0984376 -0.00180298  0.0300627 -0.110629 -0.00151807  0.0304617 -0.123053 -0.00125945  0.030664 -0.13565 -0.00102437  0.030695 -0.148366 -0.000813365  0.0305791 -0.161153 -0.000625789  0.0303333 -0.173969 -0.000465393  0.0299821 -0.186777 -0.000327229  0.0295382 -0.199549 -0.00021565  0.029031 -0.212258 -0.000128686  0.0284722 -0.224887 -5.94854e-05  0.0278831 -0.237431 -9.11951e-06  0.027281 -0.249904 4.33326e-05  0 0 0  0.00498696 -0.00626177 -0.00396365  0.0104456 -0.00996017 -0.0058136  0.0154226 -0.014821 -0.00628501  0.0199778 -0.020881 -0.00615686  0.0240848 -0.0280585 -0.00575906  0.027737 -0.0362222 -0.00525594  0.0309394 -0.0452588 -0.00472337  0.0337062 -0.0550381 -0.00419921  0.0360579 -0.0654621 -0.00369775  0.0380163 -0.0764342 -0.0032239  0.039609 -0.0878642 -0.0027833  0.0408615 -0.0996712 -0.00237465  0.0418048 -0.111781 -0.00199789  0.0424685 -0.12413 -0.00165188  0.0428771 -0.136655 -0.00133914  0.0430634 -0.149305 -0.0010609  0.0430486 -0.162025 -0.000812292  0.0428705 -0.174786 -0.000597179  0.0425451 -0.187543 -0.000418425  0.0421062 -0.200271 -0.00027138  0.0415757 -0.212939 -0.000156581  0.0409865 -0.225543 -7.83205e-05  0.040365 -0.238075 -1.85966e-05  0.0397489 -0.250556 2.80738e-05  0 0 0  -0.00623336 -0.00398208 0.00665677  -0.0110409 -0.00696696 0.00838649  -0.0154791 -0.011584 0.00872433  -0.0198404 -0.0175021 0.0083735  -0.0240101 -0.0245679 0.00773835  -0.0279384 -0.0326103 0.00699663  -0.0315879 -0.0414968 0.0062387  -0.0349542 -0.051112 0.00550401  -0.0380318 -0.0613658 0.00481212  -0.0408335 -0.0721636 0.00416303  -0.0433643 -0.0834298 0.00356722  -0.0456424 -0.0950925 0.00301778  -0.0476855 -0.107075 0.00251818  -0.0495051 -0.119322 0.00206637  -0.0511181 -0.131766 0.00166011  -0.0525433 -0.144359 0.00129449  -0.0537999 -0.157048 0.00097692  -0.0549023 -0.169788 0.000701547  -0.0558758 -0.182543 0.000472546  -0.0567312 -0.195281 0.000286818  -0.0574872 -0.20797 0.000149608  -0.0581734 -0.220588 5.44786e-05  -0.0588129 -0.233126 -6.4373e-06  -0.0594318 -0.245604 -4.91738e-05  0 0 0  -0.0036621 -0.00176781 0.00507486  -0.00722735 -0.00517462 0.00621748  -0.0105045 -0.00988678 0.00645769  -0.0137196 -0.0159452 0.0062294  -0.0168483 -0.0231699 0.00578213  -0.0198449 -0.031397 0.00524294  -0.022681 -0.0404742 0.00468373  -0.0253337 -0.0502819 0.00413835  -0.0277994 -0.0607183 0.00362134  -0.0300735 -0.0716935 0.00313711  -0.0321615 -0.0831236 0.00269043  -0.034067 -0.0949336 0.00228107  -0.0358084 -0.107054 0.00190556  -0.0373836 -0.11942 0.00156534  -0.0388144 -0.131974 0.00126243  -0.0401051 -0.144658 0.000990152  -0.0412719 -0.157426 0.000752091  -0.0423226 -0.170234 0.000546575  -0.043273 -0.183043 0.000375152  -0.044137 -0.195823 0.000238776  -0.0449233 -0.208541 0.000130177  -0.0456467 -0.22118 5.17368e-05  -0.0463192 -0.233733 -4.94719e-06  -0.0469568 -0.246205 -6.47902e-05  0 0 0  -0.00214875 -0.000597015 0.00343108  -0.00424379 -0.00380453 0.00419235  -0.00638363 -0.00864227 0.00431585  -0.00854179 -0.0148322 0.00414562  -0.0106615 -0.0221944 0.003842  -0.0127241 -0.0305587 0.00348794  -0.0147055 -0.039774 0.00311649  -0.0166016 -0.0497263 0.0027535  -0.0183951 -0.0603015 0.00240815  -0.0200861 -0.0714105 0.00208402  -0.0216691 -0.0829675 0.00178432  -0.0231458 -0.0948956 0.00151408  -0.0245252 -0.107122 0.00126398  -0.0258049 -0.119586 0.00103986  -0.0269899 -0.132223 0.000834346  -0.0280911 -0.144981 0.000655174  -0.0291111 -0.157813 0.000500679  -0.0300555 -0.170674 0.000363827  -0.0309367 -0.18353 0.000252724  -0.0317495 -0.196345 0.000162125  -0.0325148 -0.209093 9.11951e-05  -0.0332255 -0.221756 3.39746e-05  -0.0338926 -0.234324 -1.34706e-05  -0.0345316 -0.246781 -6.96778e-05  0 0 0  -0.000969641 -0.000110894 0.00168633  -0.0018921 -0.00307921 0.00209033  -0.00289431 -0.00792658 0.0021503  -0.0039703 -0.0142089 0.00206161  -0.00507236 -0.0216708 0.00190771  -0.00618464 -0.0301298 0.00172484  -0.00729895 -0.039446 0.00154066  -0.00840569 -0.0494925 0.00135553  -0.00949955 -0.0601655 0.00118053  -0.0105691 -0.0713676 0.00101769  -0.0116148 -0.0830143 0.000869274  -0.0126294 -0.0950258 0.000732064  -0.0136081 -0.10733 0.000607729  -0.0145552 -0.119862 0.000497341  -0.0154665 -0.132558 0.000397921  -0.0163428 -0.145374 0.000310183  -0.0171814 -0.15825 0.000233293  -0.0179865 -0.171151 0.000167966  -0.0187635 -0.18404 0.000117183  -0.0194993 -0.196882 7.47442e-05  -0.0202146 -0.209654 3.8743e-05  -0.0208907 -0.222339 1.12057e-05  -0.0215406 -0.234914 -1.41859e-05  -0.0221682 -0.247351 -4.63724e-05  0 0 0  8.61436e-05 -3.57032e-05 -6.28233e-05  0.000192046 -0.00294548 -5.10216e-05  0.000271946 -0.0078015 -4.05908e-05  0.00028038 -0.0141298 -3.22461e-05  0.000213444 -0.0216405 -3.31402e-05  6.24061e-05 -0.030148 -3.71337e-05  -0.000173569 -0.039515 -4.52995e-05  -0.000484288 -0.0496174 -4.84586e-05  -0.000859499 -0.0603421 -5.25117e-05  -0.00129855 -0.0715978 -5.61476e-05  -0.00178766 -0.0832986 -5.81741e-05  -0.002316 -0.0953599 -5.81145e-05  -0.00288224 -0.107711 -5.79953e-05  -0.00347686 -0.120282 -5.14388e-05  -0.00409603 -0.133018 -4.91142e-05  -0.00472963 -0.145863 -4.48227e-05  -0.00537062 -0.158771 -3.96967e-05  -0.00602198 -0.171697 -3.52859e-05  -0.00666904 -0.1846 -2.85506e-05  -0.00731945 -0.197457 -2.39015e-05  -0.00796628 -0.210241 -1.82986e-05  -0.00860453 -0.222934 -1.18017e-05  -0.00923419 -0.235519 -9.23872e-06  -0.00985146 -0.247941 -3.09944e-06  0 0 0  0.00112817 -0.000300407 -0.0018006  0.00226992 -0.00336963 -0.00217259  0.00342691 -0.00827622 -0.00221318  0.00451964 -0.0146051 -0.00211281  0.00548071 -0.0221121 -0.00196302  0.00628036 -0.0306239 -0.00179529  0.00692272 -0.0399955 -0.00162375  0.00741291 -0.0501097 -0.00145137  0.00774598 -0.0608518 -0.00128937  0.0079478 -0.0721266 -0.00113225  0.00801635 -0.0838425 -0.000986457  0.00797188 -0.0959167 -0.000848711  0.00781941 -0.108283 -0.000720382  0.00758147 -0.12087 -0.000605464  0.00725961 -0.133618 -0.000496209  0.00687075 -0.146473 -0.000403643  0.0064261 -0.159384 -0.000317216  0.00593662 -0.172312 -0.000238299  0.00541019 -0.185221 -0.000175834  0.00485134 -0.198081 -0.000118911  0.00427389 -0.210861 -7.30753e-05  0.00367546 -0.223553 -3.6478e-05  0.00306845 -0.236133 1.07288e-06  0.00246 -0.248569 3.96967e-05  0 0 0  0.00227474 -0.000979125 -0.00349879  0.00458828 -0.00437945 -0.00420958  0.00687417 -0.0093354 -0.00431591  0.00903416 -0.0156236 -0.00415349  0.0109996 -0.0230799 -0.00387311  0.0127411 -0.0315502 -0.00354058  0.0142455 -0.0408943 -0.00319278  0.0155162 -0.0509795 -0.00284922  0.0165569 -0.0617005 -0.00251609  0.0173753 -0.0729557 -0.00220215  0.0179902 -0.0846499 -0.00190908  0.0184151 -0.0967126 -0.00163388  0.0186707 -0.10906 -0.00138211  0.0187713 -0.121633 -0.00114912  0.0187354 -0.134364 -0.000937581  0.0185776 -0.147202 -0.00075078  0.0183208 -0.160102 -0.000581503  0.0179734 -0.173014 -0.000439465  0.017561 -0.185909 -0.000312865  0.0170863 -0.198752 -0.000207722  0.0165625 -0.211521 -0.00012666  0.0160019 -0.224196 -6.09756e-05  0.0154128 -0.236766 3.45707e-06  0.0148089 -0.249221 6.6638e-05  0 0 0  0.00372164 -0.00231522 -0.00504607  0.00748885 -0.00601274 -0.00611615  0.0108946 -0.0109116 -0.00636172  0.0140932 -0.0171233 -0.00616652  0.0170423 -0.0245098 -0.00576216  0.0197009 -0.032914 -0.00526702  0.02205 -0.042196 -0.00474775  0.0240809 -0.052223 -0.00422835  0.0257993 -0.0628862 -0.00373042  0.0272136 -0.0740834 -0.00325835  0.028348 -0.0857283 -0.00281644  0.0292128 -0.0977382 -0.00240636  0.0298452 -0.110039 -0.00203007  0.0302625 -0.122566 -0.00168246  0.030479 -0.135256 -0.00136995  0.0305264 -0.148052 -0.00108802  0.0304263 -0.160914 -0.000838935  0.0301986 -0.173792 -0.000622213  0.0298607 -0.186657 -0.000437975  0.029444 -0.19947 -0.0002864  0.0289528 -0.212212 -0.000170648  0.0284092 -0.224859 -8.02875e-05  0.0278256 -0.237413 -7.7486e-06  0.0272202 -0.249883 5.94854e-05  0 0 0  0.00618997 -0.00465888 -0.00646234  0.0111617 -0.00804156 -0.00811905  0.0156626 -0.0129177 -0.00848228  0.0199519 -0.0190724 -0.00820082  0.0239155 -0.0263886 -0.00764245  0.0274934 -0.0347129 -0.00696892  0.0306643 -0.0439016 -0.00627041  0.033427 -0.0538348 -0.00557411  0.0357789 -0.0644045 -0.00490862  0.0377469 -0.0755119 -0.00428277  0.0393492 -0.0870689 -0.00369292  0.0406191 -0.0989925 -0.00315285  0.0415781 -0.111213 -0.0026471  0.0422518 -0.123662 -0.00218594  0.0426804 -0.136279 -0.00176829  0.0428813 -0.149009 -0.00139594  0.0428867 -0.161807 -0.00106722  0.0427213 -0.174628 -0.000777364  0.0424185 -0.187441 -0.000537395  0.0420027 -0.200211 -0.000340044  0.0414877 -0.212913 -0.000186622  0.0409119 -0.225531 -7.55191e-05  0.0402989 -0.238061 -6.61612e-06  0.0396845 -0.250536 4.29153e-05  -0.00291504 -0.00279718 -0.00439192  -0.00522215 -0.00516528 -0.0053172  -0.00209536 -0.00372583 -0.00235148  0 0 0  0 0 0  -0.00481398 -0.00278154 -0.00595238  -0.00345609 -0.00420015 -0.00357068  0 0 0  -0.00161102 -0.00064002 -0.00343738  -0.00285733 -0.00243814 -0.00403787  -0.000858538 -0.00136213 -0.00176135  0 0 0  -0.00209325 -0.0031444 -0.00310543  -0.00205978 -0.0014043 -0.00379171  -0.00382624 -0.00361047 -0.00467907  -0.00119147 -0.00220032 -0.00199988  0 0 0  -0.00098493 -0.00107557 -0.00237316  -0.00128608 -0.00182571 -0.0026615  -0.00876431 -0.00526853 -0.00779544  -0.0106358 -0.00817272 -0.00725607  -0.00772551 -0.00727016 -0.00531408  -0.00904207 -0.0060379 -0.00724646  -0.00833322 -0.00794833 -0.00527015  -0.00551999 -0.00329696 -0.00578599  -0.00686099 -0.00611223 -0.00543278  -0.00450195 -0.00482542 -0.00398456  -0.00807317 -0.00646635 -0.00656618  -0.00706932 -0.00424055 -0.00676127  -0.00863467 -0.00708529 -0.00631366  -0.00593996 -0.00597013 -0.00463056  -0.0049064 -0.00414933 -0.00491938  -0.00636712 -0.00521848 -0.00571749  -0.0132533 -0.00908875 -0.00869242  -0.0154819 -0.0127132 -0.00764205  -0.012933 -0.0112227 -0.00638825  -0.0128634 -0.0106772 -0.00756121  -0.0127929 -0.0126319 -0.0056795  -0.00887141 -0.00733995 -0.006424  -0.010495 -0.0108806 -0.00569597  -0.0085524 -0.00915673 -0.00478671  -0.0130885 -0.0102824 -0.00757093  -0.0109491 -0.00816943 -0.00751403  -0.012862 -0.0117284 -0.00664818  -0.0106137 -0.0101288 -0.00557134  -0.00871563 -0.00833245 -0.00564694  -0.0107819 -0.00924151 -0.00658134  -0.0176803 -0.0143683 -0.00860875  -0.0200404 -0.0185218 -0.00737189  -0.0177937 -0.0163799 -0.00647446  -0.0166301 -0.0166641 -0.0072869  -0.0169015 -0.0185177 -0.00553213  -0.012121 -0.0127431 -0.00638393  -0.0138914 -0.016901 -0.00550367  -0.0122296 -0.0145826 -0.00484896  -0.0177981 -0.0154628 -0.00756158  -0.0147598 -0.0135011 -0.00747076  -0.0168269 -0.0176505 -0.00642683  -0.0148846 -0.0154178 -0.00565087  -0.0122167 -0.0137388 -0.00564025  -0.014874 -0.014537 -0.00658384  -0.0219513 -0.0208842 -0.00808591  -0.0243037 -0.0254707 -0.00681986  -0.0223076 -0.022709 -0.00612692  -0.0202693 -0.0238144 -0.00675665  -0.0207191 -0.0255062 -0.00513615  -0.0152971 -0.0194088 -0.00602293  -0.0171043 -0.0240519 -0.00510239  -0.0156394 -0.0211471 -0.00459012  -0.0222099 -0.0218606 -0.00711922  -0.0184681 -0.020094 -0.00704222  -0.0205598 -0.0247086 -0.00595716  -0.0188442 -0.0218701 -0.00535342  -0.0155198 -0.0203428 -0.00532069  -0.0187213 -0.0210449 -0.00621198  -0.0260043 -0.0284578 -0.00737939  -0.0282657 -0.0334029 -0.00616354  -0.0264778 -0.0300823 -0.00560091  -0.0237336 -0.0319551 -0.00612328  -0.0242587 -0.0334692 -0.00464771  -0.0183629 -0.027154 -0.00551849  -0.0201355 -0.0321883 -0.00462012  -0.0188211 -0.0287435 -0.00419916  -0.0263212 -0.0293204 -0.0064991  -0.0220248 -0.0277589 -0.00644712  -0.024058 -0.0327502 -0.00539096  -0.0225229 -0.0293636 -0.00489761  -0.0186426 -0.0280034 -0.004866  -0.0223393 -0.028613 -0.00567981  -0.0297961 -0.0369374 -0.00662164  -0.0319195 -0.0421872 -0.00549074  -0.0303136 -0.0383695 -0.00502162  -0.0269828 -0.0409438 -0.00546747  -0.027527 -0.0422827 -0.00413962  -0.021285 -0.0358206 -0.00496428  -0.0229766 -0.0411742 -0.00411961  -0.0217835 -0.0372458 -0.00376586  -0.0301303 -0.0376941 -0.00582682  -0.0253851 -0.0363386 -0.00579532  -0.0273123 -0.0416436 -0.00480634  -0.0259258 -0.0377658 -0.00439361  -0.0215804 -0.0365802 -0.00436933  -0.0257158 -0.0370963 -0.00509847  -0.0333056 -0.0462033 -0.00587026  -0.0352724 -0.051714 -0.00483859  -0.0338258 -0.0474553 -0.0044464  -0.0300021 -0.0506636 -0.00482944  -0.0305337 -0.051838 -0.0036476  -0.0240295 -0.0452784 -0.00440924  -0.0256208 -0.0508966 -0.00363346  -0.0245318 -0.0465394 -0.00333403  -0.0336332 -0.0468626 -0.00516131  -0.0285202 -0.0457079 -0.00514495  -0.0303175 -0.0512755 -0.0042395  -0.0290623 -0.0469632 -0.00389002  -0.024324 -0.0459481 -0.00387352  -0.0288452 -0.0463713 -0.00451921  -0.0365255 -0.0561499 -0.0051554  -0.0383303 -0.0618817 -0.00422607  -0.0370283 -0.0572395 -0.00389845  -0.0327829 -0.0610111 -0.0042229  -0.0332867 -0.0620334 -0.00318326  -0.0265914 -0.055413 -0.00387606  -0.0280688 -0.0612517 -0.00317475  -0.0270751 -0.0565188 -0.00292455  -0.0368361 -0.0567217 -0.00452877  -0.0314196 -0.055754 -0.00452147  -0.0330805 -0.0615429 -0.00370379  -0.0319415 -0.0568509 -0.00341118  -0.0268683 -0.055999 -0.00340139  -0.0317297 -0.0563328 -0.00396659  -0.0394663 -0.066683 -0.00448601  -0.0411084 -0.0726057 -0.00365796  -0.0399345 -0.0676258 -0.00338851  -0.0353297 -0.0719066 -0.00365997  -0.0357983 -0.0727856 -0.00275411  -0.0289574 -0.0661293 -0.003375  -0.0303217 -0.0721516 -0.00274842  -0.0294131 -0.0670895 -0.00253893  -0.0397534 -0.0671786 -0.00393932  -0.0340832 -0.0663854 -0.00393654  -0.0356048 -0.0723584 -0.00320636  -0.0345728 -0.0673345 -0.00296478  -0.0292192 -0.0666375 -0.00295709  -0.0343723 -0.0668855 -0.00345019  -0.0421298 -0.0777257 -0.0038665  -0.0436174 -0.0838041 -0.00313439  -0.0425633 -0.078532 -0.00291602  -0.0376483 -0.083257 -0.00313766  -0.0380797 -0.0840083 -0.00235884  -0.0311379 -0.0773405 -0.0029115  -0.0323889 -0.0835136 -0.00235517  -0.0315584 -0.0781671 -0.00218618  -0.0423948 -0.0781474 -0.00339147  -0.0365155 -0.0775181 -0.00339495  -0.0379012 -0.0836435 -0.00274844  -0.0369669 -0.078332 -0.002552  -0.0313787 -0.0777777 -0.00254833  -0.0367811 -0.0779461 -0.00297298  -0.0445313 -0.0892001 -0.00329386  -0.0458745 -0.0953999 -0.00265312  -0.0449282 -0.0898807 -0.00248424  -0.0397519 -0.0949982 -0.00266043  -0.0401436 -0.0956304 -0.00199709  -0.0331336 -0.0889716 -0.00248211  -0.0342759 -0.09526 -0.00199428  -0.0335193 -0.0896722 -0.00186198  -0.0447751 -0.0895558 -0.00288903  -0.0387264 -0.0890744 -0.00289422  -0.0399811 -0.0953183 -0.00232819  -0.0391377 -0.0897632 -0.00217431  -0.0333542 -0.089341 -0.00217277  -0.0389677 -0.0894354 -0.00253326  -0.04669 -0.101031 -0.00277088  -0.0478919 -0.107327 -0.00221347  -0.0470487 -0.101599 -0.00208915  -0.0416515 -0.107054 -0.0022223  -0.0420041 -0.107578 -0.0016674  -0.0349585 -0.100944 -0.00208983  -0.0359935 -0.107322 -0.00166652  -0.0353041 -0.101533 -0.00156552  -0.0469108 -0.101325 -0.00243034  -0.0407256 -0.100979 -0.00243653  -0.0418575 -0.107316 -0.00194405  -0.0410976 -0.101555 -0.00182834  -0.0351555 -0.101254 -0.00182647  -0.0409433 -0.101281 -0.00213158  -0.0486182 -0.113152 -0.0022948  -0.0496889 -0.11952 -0.00181682  -0.0489402 -0.113618 -0.00173  -0.0433609 -0.119362 -0.00182623  -0.043674 -0.119787 -0.00136932  -0.0366138 -0.113196 -0.0017323  -0.0375507 -0.119637 -0.00136943  -0.0369231 -0.113681 -0.00129726  -0.0488175 -0.113392 -0.00201223  -0.0425286 -0.113169 -0.00201951  -0.0435429 -0.119575 -0.00159705  -0.0428613 -0.113643 -0.00151489  -0.0367907 -0.11345 -0.00151368  -0.0427223 -0.113415 -0.00176576  -0.0503335 -0.125504 -0.00186128  -0.0512815 -0.131919 -0.00145932  -0.0506191 -0.125877 -0.00140596  -0.0448891 -0.131864 -0.00146881  -0.0451682 -0.132203 -0.00110134  -0.0381165 -0.125663 -0.00141068  -0.0389578 -0.132143 -0.00110151  -0.0383916 -0.126056 -0.00105512  -0.0505086 -0.125697 -0.00163358  -0.0441449 -0.125582 -0.00164338  -0.0450513 -0.132029 -0.00128432  -0.0444416 -0.125963 -0.00123201  -0.038273 -0.125866 -0.00123223  -0.0443181 -0.125778 -0.00143691  -0.0518532 -0.13803 -0.0014775  -0.0526862 -0.144469 -0.00114039  -0.0521002 -0.13832 -0.00111676  -0.0462573 -0.144505 -0.00115107  -0.0464989 -0.144766 -0.000862472  -0.0394764 -0.138286 -0.00112265  -0.0402318 -0.144784 -0.000864938  -0.0397129 -0.138597 -0.000837862  -0.0520048 -0.138176 -0.00129642  -0.0455941 -0.138157 -0.00130658  -0.0463972 -0.144628 -0.00100639  -0.0458525 -0.138457 -0.000977874  -0.039611 -0.138448 -0.000978626  -0.0457441 -0.138311 -0.00114099  -0.0531924 -0.150678 -0.00113591  -0.0539215 -0.157124 -0.000862438  -0.0534053 -0.150893 -0.000861242  -0.0474784 -0.157236 -0.000872197  -0.0476832 -0.157428 -0.000653982  -0.0407019 -0.151019 -0.00086662  -0.0413785 -0.157517 -0.00065529  -0.0409074 -0.151257 -0.000648238  -0.0533218 -0.150785 -0.000999127  -0.0468841 -0.15085 -0.00100749  -0.0475953 -0.157322 -0.000762872  -0.047107 -0.151077 -0.000755154  -0.0408204 -0.151141 -0.000756513  -0.0470138 -0.150964 -0.000880063  -0.0543678 -0.163397 -0.000839655  -0.0550056 -0.169832 -0.000623368  -0.054548 -0.163552 -0.000638112  -0.0485632 -0.170011 -0.000634793  -0.0487359 -0.170146 -0.000476047  -0.0418112 -0.163813 -0.000646914  -0.0424128 -0.170294 -0.000477336  -0.0419829 -0.163986 -0.000481471  -0.0544808 -0.163472 -0.000736631  -0.0480337 -0.16361 -0.000749381  -0.0486631 -0.170067 -0.000553772  -0.048224 -0.163773 -0.000560611  -0.0419097 -0.1639 -0.000563495  -0.048146 -0.163689 -0.00065393  -0.0554004 -0.176152 -0.000586436  -0.0559554 -0.182566 -0.000420906  -0.0555513 -0.176252 -0.00045117  -0.0495348 -0.182793 -0.000434509  -0.0496736 -0.182882 -0.000327215  -0.0428085 -0.176626 -0.00045889  -0.0433476 -0.183078 -0.000328969  -0.0429521 -0.176747 -0.000342265  -0.0554943 -0.176197 -0.000519656  -0.0490618 -0.176393 -0.00053081  -0.0496147 -0.182826 -0.000378825  -0.049217 -0.176503 -0.000397891  -0.042891 -0.176685 -0.000400271  -0.049154 -0.176445 -0.000463359  -0.0563128 -0.188904 -0.000381955  -0.0567925 -0.195282 -0.000263195  -0.0564313 -0.188959 -0.000296347  -0.0504019 -0.195552 -0.000271543  -0.0505114 -0.195603 -0.000205971  -0.043714 -0.189424 -0.000305378  -0.0441937 -0.195837 -0.000208866  -0.0438278 -0.189501 -0.000226974  -0.0563858 -0.188926 -0.000339407  -0.049978 -0.189167 -0.000348165  -0.0504646 -0.195564 -0.000237871  -0.0501025 -0.189235 -0.000262521  -0.0437806 -0.18946 -0.000266038  -0.0500515 -0.189198 -0.000304881  -0.057117 -0.201616 -0.000219025  -0.0575345 -0.207954 -0.000142779  -0.0572102 -0.201642 -0.000177003  -0.0511849 -0.208257 -0.000150306  -0.0512664 -0.208279 -0.00011719  -0.0445375 -0.202176 -0.000182885  -0.0449672 -0.208539 -0.000116091  -0.0446253 -0.202219 -0.0001361  -0.0571742 -0.201623 -0.000197653  -0.0508006 -0.201902 -0.000207701  -0.0512302 -0.208253 -0.000133287  -0.0508978 -0.201936 -0.000158258  -0.0445893 -0.202195 -0.000158936  -0.0508564 -0.201914 -0.000182077  -0.0578389 -0.214272 -0.000105203  -0.0582082 -0.220567 -5.91576e-05  -0.0579093 -0.214278 -9.27746e-05  -0.051897 -0.220885 -6.24843e-05  -0.0519619 -0.220893 -5.16251e-05  -0.0452886 -0.214857 -9.06792e-05  -0.0456789 -0.221171 -4.85554e-05  -0.0453594 -0.214878 -7.12648e-05  -0.057878 -0.214268 -9.89549e-05  -0.0515473 -0.214569 -0.000103224  -0.0519314 -0.220873 -5.70118e-05  -0.0516205 -0.214583 -8.2083e-05  -0.0453305 -0.214863 -8.06563e-05  -0.0515873 -0.21457 -9.24692e-05  -0.058495 -0.22685 -2.77163e-05  -0.0588398 -0.233108 -5.39795e-06  -0.058552 -0.226851 -3.25218e-05  -0.0525625 -0.233427 -1.67734e-06  -0.0526137 -0.233433 -4.20213e-06  -0.0459881 -0.227451 -2.39354e-05  -0.0463459 -0.233719 3.64333e-06  -0.0460398 -0.227463 -1.97813e-05  -0.0585263 -0.226846 -3.0566e-05  -0.0522337 -0.227154 -3.13771e-05  -0.052587 -0.233418 -2.65986e-06  -0.0522916 -0.227161 -2.62111e-05  -0.0460186 -0.227455 -2.18377e-05  -0.0522623 -0.227154 -2.83793e-05  -0.0591209 -0.239355 1.98354e-05  -0.0594587 -0.245594 3.72007e-05  -0.059175 -0.239363 8.59797e-06  -0.053194 -0.245905 5.25636e-05  -0.0532472 -0.245916 3.92199e-05  -0.0466409 -0.239963 2.98164e-05  -0.0469871 -0.246196 5.27576e-05  -0.0466928 -0.239971 2.18302e-05  -0.0591495 -0.239355 1.4253e-05  -0.0528803 -0.239659 2.37179e-05  -0.053221 -0.245901 4.30942e-05  -0.0529282 -0.239669 1.71065e-05  -0.0466678 -0.239963 2.6226e-05  -0.0529056 -0.239662 2.05189e-05  0 0 0  -0.00285254 -0.00106174 -0.00426087  -0.00185419 -0.0021777 -0.00258662  0 0 0  -0.000964057 0.000100017 -0.00230057  -0.00162241 -0.00121799 -0.00274797  -0.000470418 -0.000547096 -0.00120331  0 0 0  -0.00125331 -0.000193372 -0.00283146  -0.00218523 -0.00170046 -0.00339833  -0.000629786 -0.000858337 -0.00147771  0 0 0  -0.000555191 -0.000329554 -0.00161447  -0.000736058 -0.000620231 -0.00198469  -0.00563788 -0.00441054 -0.00521247  -0.0050858 -0.00601952 -0.00381911  -0.00320314 -0.00194813 -0.00391019  -0.00400628 -0.0046691 -0.00369037  -0.00252554 -0.00332049 -0.00271695  -0.00427218 -0.00251864 -0.00483651  -0.00533445 -0.00529785 -0.00456994  -0.0034216 -0.00394249 -0.00335299  -0.00280471 -0.00273627 -0.00334708  -0.00376725 -0.00332353 -0.00413193  -0.00834814 -0.0092006 -0.00538825  -0.00828737 -0.0109819 -0.00409172  -0.00530562 -0.00602446 -0.00430514  -0.0063886 -0.00958574 -0.00383384  -0.00508821 -0.0076973 -0.00324686  -0.00699234 -0.00661807 -0.00536689  -0.00834522 -0.0101654 -0.00476833  -0.0067201 -0.00834212 -0.00402158  -0.00520694 -0.0069586 -0.00381537  -0.0068627 -0.00756851 -0.00473591  -0.0110345 -0.01533 -0.0051859  -0.0112512 -0.0170867 -0.00396702  -0.00746515 -0.0115646 -0.00425438  -0.00866938 -0.0157636 -0.00368214  -0.00755343 -0.0133117 -0.00326385  -0.00969678 -0.0120974 -0.00531845  -0.0111848 -0.0162728 -0.00459348  -0.0097945 -0.0138797 -0.00405924  -0.00754169 -0.0125228 -0.00378196  -0.00978372 -0.0130666 -0.00471231  -0.0136602 -0.022625 -0.00481233  -0.0140232 -0.0242741 -0.00367589  -0.00960594 -0.0183636 -0.00400573  -0.010851 -0.0230661 -0.00340414  -0.00986546 -0.0200555 -0.00307456  -0.0123565 -0.0188312 -0.00501352  -0.0138832 -0.0235038 -0.0042536  -0.0126591 -0.0205404 -0.00383413  -0.00977236 -0.0192819 -0.00355265  -0.0125508 -0.0197547 -0.00443714  -0.0161914 -0.0309229 -0.00436557  -0.0166212 -0.0324277 -0.00332223  -0.0117005 -0.026246 -0.00366952  -0.0129378 -0.0313508 -0.00307717  -0.012045 -0.027818 -0.00280526  -0.0149389 -0.0266478 -0.00459426  -0.0164449 -0.0317194 -0.00384951  -0.0153428 -0.0282271 -0.00350337  -0.0119057 -0.0270922 -0.00324422  -0.0151813 -0.0274954 -0.00405605  -0.0186058 -0.0400787 -0.00390268  -0.0190534 -0.0414243 -0.0029569  -0.0137249 -0.0350524 -0.00330098  -0.0149261 -0.0404848 -0.00274289  -0.0141044 -0.0364793 -0.00251093  -0.017413 -0.0353904 -0.00413479  -0.0188629 -0.0407865 -0.00343203  -0.0178565 -0.0368154 -0.00313928  -0.013944 -0.0358168 -0.00290925  -0.0176714 -0.0361517 -0.0036405  -0.0208837 -0.0499613 -0.00344851  -0.0213248 -0.0511541 -0.00260435  -0.0156659 -0.0446514 -0.00293183  -0.0168143 -0.0503519 -0.00241799  -0.0160488 -0.0459246 -0.00222071  -0.0197613 -0.0449232 -0.00367326  -0.021134 -0.0505869 -0.00302685  -0.0202078 -0.0461912 -0.00277846  -0.0158831 -0.045331 -0.00257839  -0.0200171 -0.0455989 -0.00322731  -0.0230175 -0.0604746 -0.00301758  -0.0234363 -0.0615165 -0.00227153  -0.0175096 -0.0549267 -0.00257776  -0.0185962 -0.0608479 -0.00210972  -0.0178804 -0.0560502 -0.00194429  -0.0219676 -0.0551355 -0.00322966  -0.0232525 -0.0610187 -0.00264445  -0.0223987 -0.0562498 -0.00243546  -0.0177174 -0.0555252 -0.00226132  -0.0222123 -0.0557272 -0.00283285  -0.0250043 -0.071522 -0.002615  -0.0253946 -0.0724239 -0.00196402  -0.019251 -0.06578 -0.00224294  -0.0202696 -0.071883 -0.00182522  -0.0195994 -0.0667617 -0.00168684  -0.0240284 -0.0659248 -0.00281325  -0.0252227 -0.0719909 -0.00228888  -0.0244331 -0.0668965 -0.0021148  -0.0194455 -0.0663023 -0.00196507  -0.0242561 -0.0664409 -0.00246371  -0.026844 -0.0830191 -0.00224325  -0.0272038 -0.0837937 -0.00168144  -0.0208887 -0.0771231 -0.00193399  -0.021837 -0.08337 -0.00156383  -0.0212088 -0.0779709 -0.00145096  -0.0259411 -0.077208 -0.00242605  -0.027045 -0.0834204 -0.0019613  -0.0263178 -0.0780445 -0.00182028  -0.021067 -0.0775728 -0.00169244  -0.0261506 -0.0776503 -0.00212229  -0.0285431 -0.0948947 -0.00190253  -0.0288703 -0.0955485 -0.00142333  -0.0224185 -0.0888746 -0.00164854  -0.0233005 -0.095235 -0.00132382  -0.0227109 -0.0895993 -0.00123374  -0.0277104 -0.0889033 -0.00206921  -0.0287256 -0.0952286 -0.00166198  -0.0280544 -0.0896158 -0.0015492  -0.022581 -0.089258 -0.00144  -0.0279027 -0.0892797 -0.00180866  -0.0301079 -0.107071 -0.00158829  -0.0303998 -0.107618 -0.00118697  -0.0238465 -0.10096 -0.00138611  -0.0246615 -0.107404 -0.00110346  -0.0241096 -0.101571 -0.00103653  -0.0293411 -0.100936 -0.00174184  -0.0302696 -0.107348 -0.00138672  -0.0296506 -0.101536 -0.0013021  -0.0239921 -0.101283 -0.00121029  -0.0295144 -0.101252 -0.00152095  -0.0315423 -0.119487 -0.00130675  -0.0318015 -0.119937 -0.000975795  -0.0251771 -0.113313 -0.00114913  -0.0259243 -0.119814 -0.000904988  -0.0254093 -0.11382 -0.000858173  -0.03084 -0.113242 -0.00144392  -0.0316862 -0.119714 -0.00113957  -0.0311152 -0.113738 -0.00107903  -0.0253042 -0.113581 -0.00100332  -0.0309936 -0.113503 -0.00126049  -0.0328562 -0.132086 -0.00105254  -0.0330853 -0.132447 -0.000784755  -0.026409 -0.12587 -0.000935544  -0.0270972 -0.132404 -0.000729382  -0.0266154 -0.126284 -0.000696734  -0.0322126 -0.125755 -0.00117569  -0.0329828 -0.132265 -0.000918597  -0.0324563 -0.126161 -0.000877835  -0.0265214 -0.126087 -0.000815041  -0.0323485 -0.125968 -0.001026  -0.0340563 -0.14481 -0.000827917  -0.0342563 -0.145093 -0.000615694  -0.0275472 -0.138576 -0.000743755  -0.0281841 -0.145121 -0.000573013  -0.0277302 -0.138905 -0.000553362  -0.0334691 -0.138423 -0.000938098  -0.0341667 -0.144947 -0.000721067  -0.0336819 -0.138744 -0.000697277  -0.027651 -0.138748 -0.000648223  -0.0335885 -0.138591 -0.000816606  -0.0351558 -0.157614 -0.000629757  -0.0353253 -0.157828 -0.000467256  -0.028609 -0.151377 -0.000576403  -0.0291901 -0.157916 -0.000434324  -0.0287654 -0.151633 -0.00042738  -0.0346172 -0.151193 -0.000725197  -0.0352485 -0.157713 -0.000548191  -0.0348001 -0.15144 -0.000539161  -0.0286958 -0.151509 -0.000501256  -0.0347207 -0.15132 -0.000630982  -0.03616 -0.170447 -0.000462077  -0.0362997 -0.170603 -0.000340581  -0.0295913 -0.164228 -0.000429509  -0.0301211 -0.170747 -0.000316646  -0.0297225 -0.16442 -0.000318542  -0.0356674 -0.164017 -0.000542052  -0.036237 -0.170519 -0.000399388  -0.0358222 -0.164201 -0.000402018  -0.0296652 -0.164326 -0.000373121  -0.0357544 -0.164111 -0.000470728  -0.0370817 -0.183285 -0.000319489  -0.037194 -0.183389 -0.000235505  -0.0305026 -0.17709 -0.000307737  -0.0309873 -0.183573 -0.000219081  -0.0306087 -0.177229 -0.000226893  -0.0366292 -0.176857 -0.000387577  -0.037143 -0.183325 -0.00027686  -0.0367539 -0.176986 -0.000285223  -0.0305614 -0.17716 -0.000266228  -0.0366995 -0.176921 -0.000334959  -0.0379238 -0.196081 -0.000203665  -0.0380161 -0.196147 -0.000149764  -0.0313532 -0.189928 -0.00020523  -0.0317948 -0.196368 -0.000139099  -0.0314353 -0.190022 -0.00015001  -0.0375104 -0.189676 -0.000258747  -0.0379746 -0.196102 -0.000175036  -0.0376122 -0.189762 -0.000191048  -0.0313985 -0.189975 -0.00017719  -0.0375667 -0.189717 -0.00022427  -0.0387022 -0.208813 -0.000113676  -0.0387735 -0.208853 -8.38414e-05  -0.0321417 -0.202714 -0.000124021  -0.0325468 -0.209099 -7.75643e-05  -0.0322037 -0.202772 -8.99881e-05  -0.0383208 -0.202444 -0.000157789  -0.0387409 -0.20882 -9.85339e-05  -0.0384011 -0.202496 -0.00011494  -0.0321765 -0.202741 -0.000107195  -0.0383651 -0.202468 -0.000135787  -0.0394263 -0.221465 -4.5757e-05  -0.039479 -0.221487 -3.56585e-05  -0.0328748 -0.215421 -5.94616e-05  -0.0332496 -0.221753 -3.07672e-05  -0.0329244 -0.215454 -4.58583e-05  -0.0390697 -0.21514 -7.8472e-05  -0.039453 -0.221462 -3.97265e-05  -0.0391312 -0.215167 -5.71236e-05  -0.0329046 -0.215434 -5.27874e-05  -0.039103 -0.215149 -6.71446e-05  -0.0400972 -0.234024 8.61549e-06  -0.0401428 -0.234033 5.20051e-06  -0.0335639 -0.228039 -9.83634e-06  -0.0339136 -0.234312 1.28672e-05  -0.0336063 -0.228054 -7.6741e-06  -0.0397649 -0.227745 -1.79079e-05  -0.0401208 -0.234018 7.31647e-06  -0.0398138 -0.227759 -1.39996e-05  -0.0335858 -0.228042 -8.37073e-06  -0.0397911 -0.227749 -1.56946e-05  -0.0407393 -0.246492 6.93253e-05  -0.0407887 -0.246501 4.49717e-05  -0.0342095 -0.240554 3.82359e-05  -0.0345566 -0.246766 5.52386e-05  -0.0342555 -0.240558 2.55257e-05  -0.0404189 -0.24026 3.54454e-05  -0.0407643 -0.246483 5.804e-05  -0.0404658 -0.240266 2.56151e-05  -0.0342352 -0.240551 3.21269e-05  -0.0404446 -0.240259 3.04058e-05  0 0 0  -0.00153361 -0.000290543 -0.00255007  -0.000945143 -0.00134861 -0.00157779  0 0 0  -0.000442598 0.000375479 -0.00113348  -0.000715546 -0.000728786 -0.00136563  -0.000202555 -0.000252277 -0.000603691  0 0 0  -0.000691827 0.000275612 -0.00170555  -0.00114425 -0.00091204 -0.00205743  -0.000323642 -0.000359207 -0.000904426  0 0 0  -0.0002448 -5.34654e-05 -0.000801414  -0.000387967 -0.00015381 -0.00120636  -0.00301692 -0.00335526 -0.00314286  -0.00270072 -0.00487944 -0.00233038  -0.0014305 -0.00130031 -0.00194128  -0.00178631 -0.00393611 -0.00185342  -0.00110936 -0.002635 -0.00136821  -0.00227679 -0.00154996 -0.00291891  -0.00284734 -0.00422144 -0.002778  -0.00177899 -0.00289726 -0.00204762  -0.00124051 -0.002087 -0.0016748  -0.00198393 -0.00233543 -0.00251224  -0.00458121 -0.00820717 -0.00323891  -0.00456697 -0.00991449 -0.00248448  -0.00237703 -0.0052858 -0.00214676  -0.00291836 -0.00886363 -0.00192471  -0.00229794 -0.00691622 -0.00163868  -0.00378442 -0.00557762 -0.00322823  -0.0045951 -0.00915003 -0.00288485  -0.00363815 -0.00722373 -0.00244816  -0.00234735 -0.00621361 -0.0019161  -0.00372189 -0.00650653 -0.00286942  -0.00619814 -0.0144531 -0.00310637  -0.0063605 -0.0161686 -0.00239591  -0.00342846 -0.010893 -0.00211714  -0.00405994 -0.0151367 -0.00184045  -0.00351191 -0.012607 -0.00164279  -0.00538698 -0.0111599 -0.00318923  -0.00630739 -0.0153831 -0.00276422  -0.00547436 -0.0128863 -0.00245788  -0.00348988 -0.0118453 -0.00189424  -0.00545818 -0.012114 -0.00284193  -0.00781131 -0.0218697 -0.00287658  -0.00807017 -0.0235007 -0.00221045  -0.00451821 -0.0177904 -0.00198901  -0.00519478 -0.0225429 -0.00169552  -0.00469637 -0.019464 -0.00154034  -0.00700599 -0.0180155 -0.00299914  -0.00796705 -0.0227449 -0.00255225  -0.0072242 -0.0196955 -0.00230993  -0.00462699 -0.0187059 -0.00177235  -0.00714403 -0.0189306 -0.00266489  -0.00940007 -0.0302868 -0.00260723  -0.00970334 -0.0317878 -0.00199231  -0.00562602 -0.0257714 -0.00181816  -0.00632221 -0.0309285 -0.00152679  -0.00585306 -0.0273377 -0.00139971  -0.00860906 -0.0259515 -0.0027448  -0.00957537 -0.0310862 -0.00230358  -0.00889498 -0.027521 -0.00210376  -0.00575948 -0.0266196 -0.00161395  -0.0087772 -0.0267997 -0.0024299  -0.0109524 -0.0395599 -0.00232763  -0.011268 -0.0409136 -0.00176886  -0.0067454 -0.0346752 -0.00163207  -0.00743848 -0.0401622 -0.0013571  -0.006989 -0.0361059 -0.00124776  -0.0101796 -0.0348128 -0.00246774  -0.0111302 -0.0402754 -0.00205008  -0.010494 -0.0362414 -0.00188074  -0.00688088 -0.035445 -0.00144266  -0.0103596 -0.0355797 -0.00217713  -0.0124555 -0.0495642 -0.00205519  -0.0127676 -0.0507693 -0.00155444  -0.0078547 -0.0443701 -0.00144592  -0.00854141 -0.0501278 -0.00119219  -0.00809997 -0.0456543 -0.00109791  -0.0117099 -0.0444637 -0.00219056  -0.0126284 -0.0501972 -0.00180515  -0.0120259 -0.0457442 -0.00166053  -0.00799191 -0.045058 -0.00127311  -0.0118872 -0.0451486 -0.00192728  -0.0139009 -0.0601925 -0.00179568  -0.0141971 -0.061253 -0.00135231  -0.00895512 -0.0547423 -0.00126719  -0.00962615 -0.0607221 -0.00103657  -0.00919163 -0.0558811 -0.000958025  -0.0131848 -0.0547949 -0.00192371  -0.0140642 -0.0607483 -0.00157391  -0.0134898 -0.0559264 -0.00145175  -0.00908661 -0.0553501 -0.00111333  -0.0133536 -0.055398 -0.00168793  -0.0152832 -0.0713539 -0.00155364  -0.0155586 -0.0722759 -0.00116643  -0.0100362 -0.0656928 -0.00109772  -0.0106874 -0.0718505 -0.000891544  -0.0102593 -0.0666896 -0.000826575  -0.0145987 -0.0657015 -0.00167341  -0.0154352 -0.0718344 -0.00135996  -0.0148863 -0.0666919 -0.00125793  -0.0101591 -0.0662232 -0.000962742  -0.0147579 -0.0662279 -0.00146494  -0.0166004 -0.0829605 -0.00132942  -0.0168529 -0.0837528 -0.000997007  -0.0110954 -0.0771263 -0.000942328  -0.0117203 -0.083427 -0.000759892  -0.0112987 -0.0779909 -0.000706978  -0.01595 -0.0770944 -0.00143964  -0.0167387 -0.083372 -0.00116247  -0.0162147 -0.0779516 -0.00108013  -0.0112071 -0.0775861 -0.000824247  -0.0160942 -0.0775497 -0.00125924  -0.0178494 -0.0949333 -0.00112521  -0.0180783 -0.0956089 -0.000840932  -0.0121232 -0.0889634 -0.000798754  -0.0127228 -0.0953752 -0.000639535  -0.0123099 -0.0897051 -0.000599012  -0.0172335 -0.088893 -0.00122485  -0.0179743 -0.0952807 -0.000982694  -0.0174736 -0.0896273 -0.000916861  -0.0122259 -0.0893567 -0.000698175  -0.0173638 -0.0892817 -0.0010702  -0.0190325 -0.107203 -0.000938623  -0.0192356 -0.10777 -0.000700153  -0.0131203 -0.101131 -0.000669039  -0.0136926 -0.107621 -0.000531077  -0.0132871 -0.101759 -0.000499949  -0.0184478 -0.101024 -0.00103043  -0.0191423 -0.107492 -0.000819206  -0.0186629 -0.101643 -0.00076893  -0.013212 -0.101463 -0.000584424  -0.0185673 -0.101352 -0.000898786  -0.020148 -0.119703 -0.000769849  -0.0203283 -0.120172 -0.000574037  -0.014084 -0.113555 -0.000551471  -0.0146284 -0.120099 -0.00043356  -0.0142312 -0.11408 -0.000410892  -0.019595 -0.113416 -0.000853098  -0.0202461 -0.11994 -0.000671089  -0.0197878 -0.113933 -0.000635877  -0.0141647 -0.113833 -0.000481695  -0.0197026 -0.113689 -0.000744008  -0.0211999 -0.132377 -0.000620843  -0.0213578 -0.132754 -0.000460908  -0.0150121 -0.126178 -0.000446009  -0.0155295 -0.132751 -0.000345733  -0.0151426 -0.126608 -0.000331074  -0.0206805 -0.126009 -0.000693102  -0.0212858 -0.132565 -0.000540011  -0.0208502 -0.126432 -0.000515722  -0.0150818 -0.126404 -0.00038724  -0.0207725 -0.126231 -0.000604127  -0.0221922 -0.145164 -0.000487163  -0.0223269 -0.145465 -0.000360258  -0.0159072 -0.138941 -0.000351908  -0.0163963 -0.145523 -0.000269417  -0.0160168 -0.139287 -0.000261664  -0.0217029 -0.138746 -0.000551128  -0.0222654 -0.145312 -0.000422981  -0.0218489 -0.139085 -0.000408836  -0.0159669 -0.139123 -0.000306457  -0.0217835 -0.138924 -0.00047956  -0.0231264 -0.158021 -0.000369114  -0.0232399 -0.158251 -0.000273556  -0.0167651 -0.151793 -0.000270689  -0.0172269 -0.158363 -0.000203181  -0.0168581 -0.152063 -0.000200287  -0.0226645 -0.151575 -0.000427545  -0.0231874 -0.158131 -0.000321057  -0.0227902 -0.151839 -0.000314571  -0.0168173 -0.151934 -0.00023457  -0.022732 -0.151713 -0.000370391  -0.0240083 -0.170904 -0.000269216  -0.0240979 -0.171076 -0.000197984  -0.01759 -0.164686 -0.000201984  -0.0180252 -0.17123 -0.000147138  -0.0176618 -0.164894 -0.000147  -0.0235715 -0.164449 -0.000317814  -0.0240552 -0.170983 -0.000233442  -0.0236747 -0.16465 -0.000234134  -0.0176296 -0.164793 -0.000173613  -0.0236263 -0.164553 -0.00027477  -0.0248332 -0.183775 -0.000187984  -0.0249083 -0.183897 -0.000135988  -0.0183792 -0.177585 -0.00014147  -0.0187905 -0.184091 -9.86494e-05  -0.0184367 -0.177737 -0.000104316  -0.0244255 -0.177332 -0.000225752  -0.0248725 -0.183828 -0.000161286  -0.0245078 -0.177478 -0.000166297  -0.0184116 -0.177662 -0.000122115  -0.0244699 -0.177405 -0.000195902  -0.0256159 -0.196607 -0.000117683  -0.0256729 -0.196687 -8.57934e-05  -0.0191326 -0.190453 -9.12601e-05  -0.0195236 -0.196911 -6.20894e-05  -0.0191803 -0.190558 -6.71968e-05  -0.025229 -0.190186 -0.000150996  -0.025645 -0.196636 -0.000101991  -0.0252941 -0.190286 -0.000109389  -0.0191607 -0.190506 -7.91401e-05  -0.0252645 -0.190237 -0.00012916  -0.026355 -0.209368 -6.45297e-05  -0.0263972 -0.209415 -4.68493e-05  -0.0198603 -0.203263 -5.48275e-05  -0.0202267 -0.209666 -3.22796e-05  -0.0198946 -0.203331 -3.80427e-05  -0.0259898 -0.202986 -9.01126e-05  -0.026377 -0.209381 -5.52051e-05  -0.0260391 -0.203049 -6.58557e-05  -0.0198803 -0.203294 -4.58993e-05  -0.0260165 -0.203015 -7.72923e-05  -0.0270493 -0.222041 -2.3008e-05  -0.0270855 -0.22207 -1.59591e-05  -0.0205553 -0.215993 -2.28266e-05  -0.0209022 -0.222335 -9.41381e-06  -0.0205784 -0.216032 -1.73151e-05  -0.0267086 -0.215705 -4.42042e-05  -0.0270696 -0.222042 -1.95503e-05  -0.0267448 -0.215742 -3.02643e-05  -0.0205696 -0.216011 -1.93752e-05  -0.026727 -0.215721 -3.70741e-05  -0.0277102 -0.234616 1.56732e-05  -0.027745 -0.234624 9.80496e-06  -0.0212169 -0.228626 1.89983e-06  -0.0215514 -0.234902 1.31577e-05  -0.0212379 -0.228643 1.46031e-06  -0.0273845 -0.228333 -4.87968e-06  -0.0277267 -0.234607 1.37612e-05  -0.0274169 -0.228347 -3.86685e-06  -0.0212302 -0.228631 7.89762e-07  -0.0274012 -0.228336 -4.44427e-06  -0.0283434 -0.247061 6.05957e-05  -0.028384 -0.247069 3.90708e-05  -0.0218561 -0.241143 2.71106e-05  -0.0221844 -0.247334 3.7007e-05  -0.0218804 -0.241142 1.89692e-05  -0.0280263 -0.240847 3.47812e-05  -0.0283644 -0.247049 4.93601e-05  -0.0280628 -0.240849 2.29627e-05  -0.0218704 -0.241135 2.38195e-05  -0.0280459 -0.240843 2.85134e-05  0 0 0  -0.000434123 -2.76268e-05 -0.000807654  -0.000257172 -0.00106633 -0.000514403  0 0 0  3.18587e-05 0.000414014 4.3304e-05  6.99759e-05 -0.000646502 4.02853e-05  1.98483e-05 -0.000202924 1.72853e-05  0 0 0  -0.000202507 0.00041905 -0.000540286  -0.000315204 -0.000644743 -0.000660624  -8.85129e-05 -0.000203282 -0.000293404  0 0 0  2.30744e-05 -1.2964e-05 2.71946e-05  -0.000107791 -1.02818e-05 -0.00038689  -0.00083217 -0.00293812 -0.00101689  -0.000758871 -0.00443706 -0.000771374  0.000141636 -0.00118929 5.60953e-05  0.000169694 -0.00380221 3.30135e-05  0.000104308 -0.00250411 2.20984e-05  -0.000630453 -0.00118545 -0.000939066  -0.000792891 -0.00380087 -0.000911009  -0.000491366 -0.00250965 -0.000673488  0.000122592 -0.00196925 3.56734e-05  -0.000548095 -0.00196919 -0.000818312  -0.00129235 -0.00778618 -0.00105541  -0.00133443 -0.00946856 -0.000827268  0.0002397 -0.00515261 4.28223e-05  0.000231802 -0.00873733 2.00942e-05  0.000181198 -0.00676653 1.28597e-05  -0.00105152 -0.00514558 -0.00105061  -0.00132346 -0.00872529 -0.000953466  -0.00104105 -0.00676638 -0.000813439  0.00020662 -0.00607759 2.45422e-05  -0.00105244 -0.00607198 -0.000945196  -0.00182456 -0.0140968 -0.00101365  -0.00193799 -0.0157961 -0.000797324  0.00028643 -0.010789 3.48013e-05  0.0002321 -0.0150522 1.61156e-05  0.000206172 -0.0124893 6.03497e-06  -0.00155041 -0.0107677 -0.00104097  -0.00189349 -0.0150252 -0.000912495  -0.00163296 -0.0124747 -0.000818953  0.000240743 -0.0117381 1.66818e-05  -0.00160402 -0.0117195 -0.00093871  -0.00241017 -0.0215883 -0.000935333  -0.00256538 -0.023212 -0.000731654  0.000259936 -0.0177346 3.155e-05  0.000156283 -0.0225103 1.95429e-05  0.00016135 -0.0193987 6.79493e-06  -0.00210929 -0.0176957 -0.000978074  -0.0024994 -0.0224637 -0.000837978  -0.00224799 -0.0193649 -0.000766769  0.000203967 -0.0186478 1.73524e-05  -0.00219244 -0.0186112 -0.000877753  -0.00304395 -0.0300792 -0.00084355  -0.00321692 -0.031583 -0.000654146  0.000148416 -0.0257632 3.38167e-05  2.38419e-07 -0.0309478 2.62484e-05  3.99351e-05 -0.0273291 1.24276e-05  -0.00272083 -0.025707 -0.000891406  -0.00314081 -0.0308821 -0.000751495  -0.00288731 -0.027273 -0.000693254  8.85725e-05 -0.0266132 2.14204e-05  -0.00281572 -0.0265568 -0.000795476  -0.00371861 -0.0394275 -0.000747312  -0.00389624 -0.0407893 -0.000574037  -4.60744e-05 -0.0347169 4.09609e-05  -0.000233054 -0.0402358 3.43695e-05  -0.000157058 -0.0361528 2.10702e-05  -0.00337684 -0.034642 -0.000794681  -0.00381684 -0.0401485 -0.000661902  -0.00355202 -0.0360755 -0.000613473  -0.000106335 -0.0354911 3.00258e-05  -0.00347459 -0.0354146 -0.000706367  -0.00442749 -0.0495048 -0.000654286  -0.00460166 -0.0507221 -0.000497989  -0.000319898 -0.0444657 4.73527e-05  -0.000540078 -0.0502569 3.98979e-05  -0.000426531 -0.0457587 2.81334e-05  -0.00406832 -0.0443702 -0.000700369  -0.00452185 -0.0501468 -0.000576444  -0.00424397 -0.0456598 -0.00053478  -0.000378191 -0.0451592 3.65824e-05  -0.00416583 -0.045061 -0.000618812  -0.00516367 -0.0602115 -0.0005636  -0.00532782 -0.0612852 -0.000427231  -0.000663519 -0.0548927 5.11869e-05  -0.000913024 -0.0609063 4.50984e-05  -0.000764847 -0.0560418 3.46303e-05  -0.00479162 -0.0547735 -0.000608017  -0.00525236 -0.0607743 -0.000495702  -0.00496078 -0.0559196 -0.000462197  -0.000718594 -0.0555073 4.2446e-05  -0.0048846 -0.0553855 -0.000535291  -0.0059185 -0.0714442 -0.000481573  -0.00606823 -0.0723817 -0.000362746  -0.00107181 -0.0658968 5.57044e-05  -0.0013448 -0.0720891 4.77508e-05  -0.00116396 -0.0669061 3.86983e-05  -0.00553846 -0.0657566 -0.000521998  -0.00599897 -0.0719354 -0.000421826  -0.00569487 -0.0667604 -0.000394166  -0.00112367 -0.0664344 4.77061e-05  -0.00562406 -0.066291 -0.000458587  -0.0066849 -0.0831219 -0.000405416  -0.00682187 -0.0839305 -0.000304408  -0.00153387 -0.0773846 5.66012e-05  -0.00182784 -0.0837189 4.9077e-05  -0.00161731 -0.0782623 4.22001e-05  -0.006302 -0.0772213 -0.000443206  -0.00675857 -0.0835425 -0.000355925  -0.00644362 -0.0780936 -0.000333063  -0.00157952 -0.0778512 4.92632e-05  -0.00637746 -0.0776856 -0.000388633  -0.00745964 -0.0951633 -0.000337145  -0.00757921 -0.0958528 -0.000253119  -0.00204623 -0.0892738 5.80758e-05  -0.00235224 -0.0957161 4.98146e-05  -0.0021162 -0.0900285 4.29749e-05  -0.00707185 -0.089089 -0.00037055  -0.00752366 -0.0955181 -0.000295561  -0.00719988 -0.089838 -0.000278369  -0.00208461 -0.0896736 5.03659e-05  -0.00714076 -0.0894863 -0.000323698  -0.00823438 -0.107493 -0.000277555  -0.00833929 -0.108076 -0.000206694  -0.00259626 -0.101488 5.65793e-05  -0.00291348 -0.108008 5.00232e-05  -0.00265718 -0.102129 4.27365e-05  -0.00784647 -0.101283 -0.000307082  -0.00829053 -0.107792 -0.000241809  -0.00795925 -0.10192 -0.000228897  -0.00262821 -0.101828 4.90695e-05  -0.00790679 -0.10162 -0.000267547  -0.00900364 -0.120049 -0.000223244  -0.00909746 -0.120533 -0.000166565  -0.00317836 -0.113957 5.38148e-05  -0.00350368 -0.120529 4.62607e-05  -0.00322855 -0.114495 4.13507e-05  -0.00861788 -0.113735 -0.000249888  -0.00905371 -0.120295 -0.000193916  -0.00871861 -0.114266 -0.000185385  -0.00320554 -0.114241 4.79147e-05  -0.00867367 -0.114016 -0.000218034  -0.0097692 -0.13277 -0.000174961  -0.00984931 -0.133163 -0.00012929  -0.00378263 -0.126619 5.1965e-05  -0.00411534 -0.133216 4.21628e-05  -0.00382507 -0.12706 3.85791e-05  -0.00938654 -0.12638 -0.000198764  -0.00981188 -0.132967 -0.000151381  -0.00947344 -0.126818 -0.000147052  -0.00380671 -0.126852 4.59701e-05  -0.00943458 -0.126611 -0.000172362  -0.0105273 -0.145603 -0.000133328  -0.0105922 -0.145914 -9.80347e-05  -0.00440788 -0.139416 4.73561e-05  -0.00474381 -0.146018 3.85568e-05  -0.00444365 -0.139773 3.62545e-05  -0.0101489 -0.139163 -0.000154187  -0.0105605 -0.145756 -0.00011405  -0.0102208 -0.139515 -0.000113346  -0.00442719 -0.139604 4.09633e-05  -0.010187 -0.139348 -0.0001336  -0.011272 -0.158496 -9.78175e-05  -0.0113223 -0.15874 -7.09519e-05  -0.0050478 -0.152297 4.40821e-05  -0.0053823 -0.158885 3.66047e-05  -0.00507355 -0.152579 3.22461e-05  -0.0108998 -0.152032 -0.000113841  -0.0112979 -0.158613 -8.26903e-05  -0.0109591 -0.152309 -8.42065e-05  -0.00506163 -0.152444 3.80427e-05  -0.0109305 -0.152178 -9.86271e-05  -0.0120001 -0.171411 -6.66432e-05  -0.0120409 -0.171594 -4.83766e-05  -0.00569487 -0.165217 3.68233e-05  -0.00602937 -0.171776 3.13669e-05  -0.00571227 -0.165432 2.93106e-05  -0.0116372 -0.16494 -8.20381e-05  -0.0120203 -0.171494 -5.82896e-05  -0.0116823 -0.165155 -5.90235e-05  -0.00570488 -0.165329 3.34382e-05  -0.0116608 -0.165052 -7.03037e-05  -0.012713 -0.184308 -4.39803e-05  -0.0127432 -0.184441 -3.11658e-05  -0.00634432 -0.178134 3.21221e-05  -0.00667667 -0.184655 2.65986e-05  -0.00635624 -0.178295 2.51681e-05  -0.0123572 -0.177852 -5.51278e-05  -0.0127287 -0.184365 -3.76143e-05  -0.0123932 -0.178008 -3.98606e-05  -0.00635266 -0.178218 2.83569e-05  -0.0123765 -0.177931 -4.73373e-05  -0.0134084 -0.19716 -2.49113e-05  -0.0134296 -0.19725 -1.76653e-05  -0.00699639 -0.191021 2.84325e-05  -0.00732327 -0.197489 2.05263e-05  -0.00700259 -0.191134 2.02358e-05  -0.013061 -0.190732 -3.25484e-05  -0.0134189 -0.197195 -2.03997e-05  -0.0130866 -0.19084 -2.35289e-05  -0.00700092 -0.191076 2.38121e-05  -0.0130756 -0.190785 -2.81706e-05  -0.0140858 -0.209939 -1.07289e-05  -0.0141008 -0.209996 -7.33882e-06  -0.00764537 -0.203843 2.03195e-05  -0.0079639 -0.210255 1.45659e-05  -0.00764489 -0.203917 1.57654e-05  -0.0137482 -0.203548 -1.76784e-05  -0.0140924 -0.209956 -8.55327e-06  -0.0137665 -0.20362 -1.23903e-05  -0.00764346 -0.203879 1.90213e-05  -0.0137589 -0.203583 -1.56052e-05  -0.0147448 -0.222631 1.20704e-06  -0.0147557 -0.222657 8.04663e-07  -0.00828552 -0.216585 1.3988e-05  -0.00860214 -0.222934 9.33558e-06  -0.00828433 -0.216628 1.2055e-05  -0.0144153 -0.216287 -4.34431e-06  -0.0147493 -0.222633 7.97212e-07  -0.0144274 -0.216326 -3.15905e-06  -0.00828362 -0.216605 1.30907e-05  -0.0144241 -0.216304 -3.43844e-06  -0.0153844 -0.235212 1.06181e-05  -0.0153952 -0.235219 8.55327e-06  -0.00891829 -0.229226 8.00641e-06  -0.00923204 -0.235503 5.46128e-06  -0.00891399 -0.229244 6.83963e-06  -0.0150683 -0.228924 5.0848e-06  -0.0153894 -0.235202 9.35793e-06  -0.0150764 -0.228941 3.96371e-06  -0.00891948 -0.229231 7.68155e-06  -0.0150719 -0.228929 4.91738e-06  -0.0160096 -0.247639 2.13525e-05  -0.0160196 -0.247647 1.53035e-05  -0.009547 -0.24174 4.72986e-06  -0.00984812 -0.247924 2.13832e-06  -0.00953746 -0.241741 3.91901e-06  -0.0156977 -0.24144 1.54014e-05  -0.0160139 -0.247625 1.82465e-05  -0.015708 -0.241438 1.16974e-05  -0.0095408 -0.241733 3.49432e-06  -0.0157044 -0.241432 1.40443e-05  0 0 0  0.000602543 -0.000121534 0.00093165  0.000375867 -0.00114328 0.000560477  0 0 0  0.000496306 0.000264168 0.00121292  0.00085327 -0.000899792 0.00143574  0.000242546 -0.000340223 0.000634938  0 0 0  0.000261776 0.000362575 0.000626453  0.000456974 -0.000731111 0.000739612  0.000128858 -0.000246227 0.000327274  0 0 0  0.000289246 -0.000152051 0.000852823  0.000153646 -5.90086e-05 0.000439405  0.00121787 -0.00308478 0.00111707  0.00105423 -0.00456601 0.000804082  0.00170234 -0.00155044 0.00203305  0.00211883 -0.00420958 0.00189673  0.00132135 -0.00284654 0.00140056  0.00091213 -0.00130922 0.00104699  0.00113049 -0.00393748 0.000969075  0.000701576 -0.00261509 0.000715598  0.0014814 -0.0023157 0.00173002  0.000791296 -0.00208414 0.000888065  0.00183162 -0.00796115 0.00113123  0.00173259 -0.0096314 0.000841126  0.00284719 -0.0056107 0.00221258  0.00337052 -0.00920045 0.00194607  0.00265473 -0.00720841 0.00164619  0.00152716 -0.00530803 0.0011335  0.00178501 -0.00889581 0.000989541  0.00140154 -0.00691336 0.00083527  0.00275409 -0.00652134 0.00194585  0.00146478 -0.00622684 0.000990793  0.00238377 -0.0142952 0.00107773  0.00231624 -0.0159839 0.000806466  0.00398758 -0.0112669 0.00216761  0.00450706 -0.0155244 0.00186051  0.0039075 -0.0129579 0.00164111  0.00211996 -0.0109563 0.00110737  0.00235283 -0.0152206 0.000943601  0.00203997 -0.012651 0.000828028  0.00395733 -0.0122079 0.00191184  0.0020825 -0.0119007 0.000970274  0.00282949 -0.0218092 0.00100223  0.00277609 -0.0234303 0.000749424  0.00501972 -0.0182094 0.00204202  0.00548398 -0.0229816 0.00172617  0.0049963 -0.0198698 0.00154619  0.00262249 -0.0179045 0.0010406  0.00280571 -0.0226827 0.000874668  0.00256306 -0.0195675 0.00077939  0.0050174 -0.019119 0.00179665  0.00259459 -0.0188177 0.000910647  0.00315678 -0.0303267 0.000919656  0.00310868 -0.0318308 0.000686392  0.00590181 -0.0262368 0.00188083  0.00629514 -0.031423 0.00157646  0.00590587 -0.0278019 0.00141977  0.00300944 -0.0259401 0.000960814  0.00313473 -0.0311278 0.00080286  0.00295871 -0.0275061 0.000718027  0.00591016 -0.0270858 0.00165179  0.00298613 -0.0267898 0.000838809  0.00336194 -0.039701 0.000835035  0.00332129 -0.0410669 0.000622928  0.00662482 -0.0351953 0.00170919  0.00694293 -0.0407193 0.00142279  0.00664413 -0.0366331 0.00128676  0.00327665 -0.0349017 0.000877635  0.00334287 -0.040426 0.000729628  0.00323081 -0.0363389 0.000655085  0.00663906 -0.0359701 0.00149856  0.00325364 -0.0356765 0.000765577  0.00345254 -0.0498118 0.000752137  0.00341487 -0.0510361 0.000560269  0.00718766 -0.0449527 0.00153868  0.00743151 -0.0507535 0.00127096  0.00721592 -0.0462508 0.00115395  0.00342071 -0.0446603 0.000794138  0.00343466 -0.0504588 0.000656128  0.00338334 -0.0459564 0.000592172  0.0072062 -0.0456489 0.00134545  0.00340229 -0.0453553 0.000692122  0.00343227 -0.0605523 0.00067122  0.00340176 -0.061636 0.000501618  0.007599 -0.0553941 0.00137017  0.00776947 -0.0614191 0.00112676  0.00763083 -0.056549 0.00102611  0.00345659 -0.0550985 0.000712154  0.00341773 -0.0611209 0.000586301  0.00342262 -0.0562519 0.000531226  0.00761938 -0.0560114 0.00119749  0.00343978 -0.0557153 0.000621229  0.00331354 -0.0718218 0.000595935  0.0032897 -0.0727696 0.000444099  0.00786364 -0.0664133 0.00120922  0.00796735 -0.0726187 0.000989981  0.00790238 -0.0674305 0.000905082  0.00338638 -0.0661159 0.000634041  0.00330222 -0.0723172 0.000520073  0.00335753 -0.0671295 0.000473365  0.00788605 -0.0669559 0.00105707  0.00337148 -0.0666555 0.000552505  0.00310612 -0.0835336 0.000522957  0.00308585 -0.084354 0.000390649  0.00799632 -0.0779185 0.00105781  0.00803995 -0.0842666 0.00086239  0.00803602 -0.0788039 0.000792459  0.00322163 -0.0776155 0.000559237  0.00309694 -0.0839599 0.00045564  0.00319922 -0.0784989 0.000417426  0.00801992 -0.0783898 0.000925116  0.00321007 -0.0780849 0.000487432  0.00281799 -0.0956067 0.000453315  0.00280404 -0.0963067 0.000339195  0.00800788 -0.0898248 0.0009166  0.00799263 -0.0962794 0.000740528  0.00804675 -0.0905865 0.000685036  0.00297248 -0.0895188 0.00048803  0.00281215 -0.0959698 0.000396609  0.00295389 -0.0902773 0.000364512  0.00803125 -0.0902296 0.00080087  0.00296414 -0.089921 0.000425994  0.00245869 -0.107968 0.00039037  0.00245261 -0.10856 0.000291258  0.00790858 -0.102054 0.000783897  0.00784385 -0.108586 0.000629432  0.00794876 -0.102703 0.000585943  0.00264716 -0.101744 0.000420976  0.00245738 -0.108272 0.000340104  0.00263774 -0.102389 0.000314429  0.00793231 -0.102398 0.000684828  0.00264299 -0.102086 0.000367701  0.00204217 -0.120551 0.000329578  0.0020411 -0.121045 0.000245363  0.00771213 -0.114538 0.00066254  0.00760341 -0.121119 0.000528209  0.00775433 -0.115082 0.000495076  0.00225937 -0.114224 0.000360196  0.00204253 -0.120802 0.000287175  0.00225544 -0.114766 0.00026764  0.00773549 -0.114826 0.00057818  0.00225711 -0.114511 0.000313833  0.0015738 -0.133299 0.000274539  0.00157821 -0.133699 0.0002051  0.00743008 -0.127213 0.000550973  0.00728226 -0.133818 0.000435166  0.00747204 -0.127661 0.000410303  0.00181508 -0.126896 0.000301359  0.00157762 -0.133499 0.00023976  0.00181639 -0.127341 0.000225395  0.00745189 -0.12745 0.000480063  0.00181496 -0.127131 0.000262976  0.00106335 -0.14615 0.000224946  0.00107169 -0.146471 0.000166163  0.00707173 -0.14002 0.000448241  0.00689411 -0.146628 0.000351205  0.00711679 -0.140382 0.00033392  0.00132501 -0.139701 0.000247586  0.00106955 -0.146309 0.000195503  0.00132906 -0.140062 0.000185519  0.00709677 -0.14021 0.000391103  0.00132918 -0.139891 0.000216641  0.000519753 -0.159061 0.000177427  0.000533342 -0.15931 0.000132531  0.00665569 -0.152907 0.000357365  0.00644922 -0.159503 0.000274122  0.00670075 -0.153195 0.000265837  0.00079608 -0.152588 0.000201259  0.000526905 -0.159182 0.000155538  0.000807047 -0.152874 0.000149071  0.00667858 -0.153058 0.000311166  0.000802755 -0.152738 0.000175215  -4.98295e-05 -0.171991 0.000136668  -3.50475e-05 -0.172178 0.000102639  0.00618887 -0.165834 0.000274996  0.00595713 -0.172398 0.000210047  0.00622964 -0.166053 0.000205547  0.000239372 -0.165514 0.000156992  -4.00543e-05 -0.172077 0.000119269  0.00025177 -0.165732 0.000116855  0.00620818 -0.165948 0.000239313  0.000247717 -0.165627 0.000136681  -0.00063467 -0.1849 0.000102658  -0.000622511 -0.185036 7.61896e-05  0.00567913 -0.178757 0.000207758  0.00542974 -0.185277 0.000150621  0.00571585 -0.178919 0.000153124  -0.000338316 -0.178437 0.000120557  -0.000627518 -0.184958 8.83266e-05  -0.000326633 -0.178598 8.92878e-05  0.00569868 -0.17884 0.000179321  -0.000329733 -0.17852 0.000104718  -0.00123763 -0.197758 7.35504e-05  -0.00122523 -0.197852 5.35995e-05  0.00513744 -0.191642 0.000147052  0.00487041 -0.198114 0.000102349  0.00516772 -0.191757 0.000107303  -0.000932932 -0.191325 8.70138e-05  -0.00122929 -0.197795 6.31586e-05  -0.000921249 -0.191439 6.41942e-05  0.00515413 -0.191701 0.000127874  -0.000926495 -0.191381 7.53924e-05  -0.00184941 -0.210545 4.63579e-05  -0.00183511 -0.210604 3.49134e-05  0.00456619 -0.204468 9.42811e-05  0.00428939 -0.210879 6.53863e-05  0.00459671 -0.204543 7.14511e-05  -0.00153995 -0.20415 5.86165e-05  -0.00184059 -0.210561 4.1008e-05  -0.00152898 -0.204224 4.32879e-05  0.00458264 -0.204503 8.32975e-05  -0.00153446 -0.204186 5.088e-05  -0.00246501 -0.223237 2.18274e-05  -0.00245142 -0.223268 1.7494e-05  0.00397897 -0.217206 5.48252e-05  0.00369263 -0.223553 3.08082e-05  0.00400877 -0.217251 3.91155e-05  -0.00215626 -0.216892 3.5635e-05  -0.00245762 -0.223241 2.03103e-05  -0.00214171 -0.216936 2.53767e-05  0.00399256 -0.217226 4.75049e-05  -0.0021472 -0.216913 2.99215e-05  -0.00308466 -0.235818 3.23535e-06  -0.00306964 -0.235829 2.23517e-06  0.00337386 -0.229844 1.74742e-05  0.00308466 -0.236122 -6.14673e-07  0.00340176 -0.229863 1.21891e-05  -0.00277352 -0.229534 1.28384e-05  -0.00307465 -0.235809 3.05474e-06  -0.00275874 -0.229551 9.35793e-06  0.00339031 -0.22985 1.41263e-05  -0.00276637 -0.229538 1.10939e-05  -0.00369668 -0.248247 -2.03851e-05  -0.00367856 -0.248256 -1.27181e-05  0.00276518 -0.242357 -1.91931e-05  0.00248051 -0.24855 -3.40305e-05  0.0027957 -0.242364 -1.25021e-05  -0.00339246 -0.242047 -7.33196e-06  -0.00368357 -0.248237 -1.62572e-05  -0.00337577 -0.242049 -4.83543e-06  0.00278139 -0.242355 -1.52588e-05  -0.00338149 -0.242041 -6.26221e-06  0 0 0  0.00167979 -0.000577986 0.00264593  0.00106728 -0.0015797 0.00160666  0 0 0  0.000988171 -0.000128806 0.00235405  0.00175123 -0.00155759 0.00277893  0.000508763 -0.000725687 0.00122322  0 0 0  0.000733845 0.000106692 0.00177644  0.001279 -0.00116915 0.00211238  0.000363693 -0.000492036 0.000931337  0 0 0  0.000594653 -0.000527978 0.00164974  0.000430055 -0.00030154 0.00125123  0.00338235 -0.00379193 0.0032001  0.00298905 -0.00526053 0.00233027  0.0034426 -0.0024398 0.00394191  0.00431609 -0.00520444 0.00367041  0.00273202 -0.00373328 0.00270528  0.0025347 -0.00192183 0.00298828  0.00317144 -0.00462788 0.00279588  0.00198933 -0.00321198 0.00206225  0.00303051 -0.00318575 0.00334797  0.00221922 -0.00267696 0.00254688  0.00509605 -0.00873291 0.0032745  0.00494048 -0.0103961 0.0024659  0.00573635 -0.00666469 0.0043051  0.00679874 -0.010249 0.0037999  0.00541663 -0.00826675 0.00320436  0.00423938 -0.00606215 0.00326903  0.00503197 -0.00965214 0.00288531  0.00398418 -0.00765765 0.00243604  0.00558126 -0.0075621 0.00378414  0.00411642 -0.00696439 0.00287504  0.00672615 -0.015048 0.00314253  0.00669897 -0.0167343 0.00238134  0.00797921 -0.0123076 0.00425387  0.00905538 -0.016535 0.00366132  0.00789663 -0.0140048 0.00322098  0.00592914 -0.01172 0.00322091  0.00673002 -0.0159649 0.00276794  0.00584823 -0.01341 0.00243916  0.00795823 -0.0132408 0.00375147  0.00590545 -0.0126556 0.00284116  0.00819057 -0.0225341 0.00292375  0.00823075 -0.0241524 0.00221248  0.010046 -0.0192008 0.00402316  0.0110645 -0.0239462 0.0034086  0.0100921 -0.0208656 0.00305055  0.0074814 -0.0186435 0.00303875  0.00822663 -0.0234041 0.00257079  0.00749445 -0.0203041 0.00230312  0.0100908 -0.0201068 0.00354351  0.00750411 -0.0195498 0.00267659  0.00946492 -0.0310289 0.0026717  0.00953794 -0.0325335 0.00201584  0.0119005 -0.0271838 0.00370971  0.0128249 -0.0323497 0.00310807  0.0120116 -0.0287507 0.0028065  0.00885206 -0.0266519 0.00280097  0.00951397 -0.0318313 0.00234551  0.00891328 -0.0282174 0.00211637  0.0119753 -0.0280311 0.00326174  0.00889671 -0.0275006 0.00246086  0.010541 -0.0403901 0.00241168  0.0106302 -0.041759 0.00181393  0.0135233 -0.0361067 0.00336738  0.0143379 -0.0416152 0.00279924  0.0136673 -0.037546 0.00253944  0.0100274 -0.0355983 0.00254188  0.0105966 -0.0411155 0.00211256  0.0101112 -0.037036 0.00191478  0.013612 -0.03688 0.00295433  0.0100811 -0.036372 0.00222887  0.0114216 -0.0504948 0.00215427  0.0115167 -0.0517204 0.00161617  0.0149097 -0.0458358 0.00302002  0.0156091 -0.0516229 0.00249499  0.0150678 -0.0471337 0.00227064  0.0110047 -0.0453449 0.00228138  0.0114793 -0.0511417 0.001884  0.0111006 -0.0466437 0.00171426  0.0150037 -0.0465311 0.00264654  0.0110626 -0.0460414 0.00199787  0.0121127 -0.0612295 0.00190487  0.0122094 -0.0623168 0.00142708  0.0160638 -0.0562525 0.00268031  0.0166469 -0.0622674 0.00220182  0.0162234 -0.0574085 0.00201145  0.0117905 -0.0557793 0.00202761  0.0121702 -0.0618017 0.00166576  0.0118872 -0.0569351 0.0015204  0.0161568 -0.0568708 0.00234539  0.0118482 -0.0563964 0.00177311  0.012625 -0.0724973 0.00167001  0.0127203 -0.0734499 0.00124967  0.0169942 -0.0672512 0.00235696  0.0174642 -0.0734481 0.00192569  0.0171499 -0.0682687 0.00176677  0.0123901 -0.0667919 0.00178732  0.0126802 -0.0729966 0.00146082  0.0124866 -0.0678106 0.00133722  0.0170832 -0.0677941 0.00206116  0.0124474 -0.0673347 0.00156122  0.0129675 -0.0842112 0.00144865  0.0130631 -0.085034 0.00108343  0.0177087 -0.0787377 0.00205412  0.0180757 -0.0850773 0.00166768  0.0178604 -0.0796244 0.00153776  0.0128183 -0.0782927 0.0015588  0.0130241 -0.0846383 0.00126597  0.0129126 -0.0791787 0.00116523  0.017795 -0.0792096 0.00179531  0.0128722 -0.078765 0.00136066  0.0131605 -0.0962843 0.00124454  0.0132536 -0.0969889 0.000929505  0.0182279 -0.0906265 0.00176979  0.0184985 -0.097074 0.00142816  0.0183728 -0.0913897 0.00132363  0.0130838 -0.0901937 0.00134505  0.013214 -0.0966477 0.00108571  0.0131769 -0.0909578 0.00100558  0.0183094 -0.0910321 0.0015461  0.0131372 -0.0905997 0.0011742  0.0132143 -0.108643 0.0010536  0.0133058 -0.109239 0.000787124  0.0185636 -0.102841 0.0015067  0.018748 -0.109365 0.00120738  0.0187055 -0.10349 0.00112605  0.0132048 -0.102419 0.00114808  0.0132674 -0.108949 0.000919923  0.0132966 -0.10307 0.000857309  0.0186439 -0.103184 0.00131487  0.0132568 -0.102764 0.00100206  0.0131489 -0.121227 0.00087941  0.0132333 -0.121721 0.000656381  0.0187409 -0.115308 0.0012632  0.018844 -0.121881 0.00100441  0.018873 -0.115852 0.000945032  0.0131978 -0.1149 0.00096603  0.0131972 -0.121478 0.000766806  0.0132852 -0.115444 0.00071983  0.0188146 -0.115596 0.00110319  0.0132467 -0.115187 0.000841901  0.012972 -0.13397 0.000721772  0.0130543 -0.134375 0.000537291  0.01877 -0.127966 0.00104318  0.0188029 -0.134563 0.000820078  0.0188953 -0.128414 0.000778407  0.0130728 -0.127569 0.000799411  0.0130191 -0.134174 0.000628501  0.0131575 -0.128018 0.000595212  0.0188395 -0.128204 0.000911102  0.0131211 -0.127807 0.000696965  0.0127029 -0.146819 0.000577664  0.0127792 -0.147144 0.000430167  0.0186746 -0.14076 0.0008431  0.0186424 -0.147359 0.000655226  0.0187874 -0.14112 0.000628471  0.0128492 -0.140372 0.000648505  0.0127463 -0.146978 0.000503279  0.0129292 -0.140735 0.000482395  0.0187372 -0.140948 0.000734344  0.0128938 -0.140563 0.000564866  0.0123546 -0.159729 0.00045089  0.0124276 -0.159978 0.00033395  0.0184655 -0.153632 0.000663535  0.0183778 -0.160218 0.000509292  0.0185664 -0.153917 0.000495672  0.0125387 -0.153256 0.000512218  0.0123951 -0.159848 0.000391737  0.0126135 -0.153543 0.00038147  0.0185213 -0.153781 0.00057935  0.0125813 -0.153406 0.000446156  0.0119383 -0.172652 0.000340118  0.0120044 -0.172839 0.000251785  0.0181613 -0.166543 0.000509204  0.0180271 -0.173099 0.000381686  0.0182574 -0.16676 0.00037764  0.0121534 -0.166177 0.000392772  0.0119758 -0.172739 0.000295721  0.012224 -0.166395 0.000292227  0.0182126 -0.166656 0.000442006  0.0121942 -0.166291 0.000341669  0.0114703 -0.185552 0.000244792  0.0115268 -0.18569 0.000181869  0.0177774 -0.179451 0.000371685  0.0176032 -0.185964 0.00027138  0.0178623 -0.179611 0.000276253  0.0117095 -0.179096 0.000291692  0.0115027 -0.185614 0.00021296  0.0117726 -0.179257 0.000215188  0.0178237 -0.179533 0.000323594  0.0117459 -0.179178 0.000252388  0.0109568 -0.198408 0.0001665  0.0110068 -0.198502 0.000122964  0.0173299 -0.192323 0.00025962  0.0171242 -0.198785 0.000182018  0.0174026 -0.192435 0.000190929  0.0112219 -0.191976 0.000203978  0.0109856 -0.198443 0.00014402  0.0112743 -0.19209 0.00015077  0.0173709 -0.19238 0.000224262  0.0112498 -0.192033 0.000176989  0.0104086 -0.211183 0.000102057  0.0104518 -0.211243 7.42674e-05  0.0168276 -0.205133 0.000167377  0.0165946 -0.211536 0.000110641  0.0168917 -0.205205 0.000123814  0.0106881 -0.204796 0.000133701  0.0104339 -0.211202 8.77902e-05  0.0107338 -0.20487 9.79006e-05  0.0168638 -0.205169 0.000144914  0.0107138 -0.204832 0.000115357  0.00982881 -0.223869 4.83356e-05  0.00986934 -0.2239 3.58969e-05  0.016288 -0.217856 9.11188e-05  0.0160286 -0.224198 5.05149e-05  0.0163412 -0.217899 6.62953e-05  0.0101221 -0.217527 7.39645e-05  0.00985265 -0.223873 4.12166e-05  0.0101643 -0.217571 5.41359e-05  0.0163162 -0.217875 7.87601e-05  0.0101459 -0.217547 6.37546e-05  0.0092299 -0.236443 -2.73488e-06  0.00927067 -0.236458 -6.55651e-07  0.015712 -0.230481 2.65807e-05  0.0154371 -0.236758 -7.0408e-07  0.0157611 -0.230503 2.13236e-05  0.00953364 -0.23016 2.14984e-05  0.00925446 -0.236438 -1.07288e-06  0.00957155 -0.230182 1.76579e-05  0.0157371 -0.230488 2.3447e-05  0.00955462 -0.230166 1.89096e-05  0.00862432 -0.248886 -5.58311e-05  0.008672 -0.2489 -3.4906e-05  0.0151105 -0.242994 -3.04194e-05  0.0148413 -0.249208 -5.17368e-05  0.0151613 -0.243008 -2.00346e-05  0.00892758 -0.242674 -2.50626e-05  0.00865507 -0.248877 -4.42006e-05  0.0089705 -0.242684 -1.80528e-05  0.0151372 -0.242996 -2.5101e-05  0.00895238 -0.242672 -2.24821e-05  0 0 0  0.00294636 -0.00153464 0.00429036  0.00197819 -0.00255454 0.00257404  0 0 0  0.00157376 -0.000977457 0.0034297  0.00296372 -0.00292033 0.00398687  0.00089056 -0.00162739 0.00174887  0 0 0  0.00125461 -0.000477612 0.00286136  0.00230691 -0.00211573 0.00339684  0.000669114 -0.00108206 0.00148474  0 0 0  0.00101083 -0.00136817 0.0023708  0.000770777 -0.000867248 0.00200477  0.00594631 -0.00511914 0.00517801  0.00534299 -0.00663173 0.00375222  0.00568154 -0.00400406 0.00570816  0.00710765 -0.00687802 0.00530893  0.00468406 -0.00540435 0.00389659  0.00447971 -0.00312304 0.00482431  0.00561881 -0.00595534 0.00450496  0.00362156 -0.00444686 0.00330864  0.00509259 -0.00478637 0.00482352  0.00397919 -0.00387329 0.0040914  0.00879791 -0.0100638 0.00534653  0.00859168 -0.0117605 0.00401169  0.00921446 -0.00827771 0.00631746  0.0108008 -0.0118488 0.00557858  0.00879523 -0.00997347 0.00466476  0.00738761 -0.00740933 0.00532268  0.00871328 -0.0109855 0.00469776  0.0070132 -0.00904131 0.00394385  0.00900358 -0.00920624 0.00551981  0.00720307 -0.00831217 0.00466204  0.0114801 -0.0163131 0.00516543  0.0114913 -0.0180205 0.00390624  0.012523 -0.0138463 0.00630254  0.0141411 -0.0180488 0.00542121  0.0124448 -0.0155992 0.0047415  0.010165 -0.0130213 0.00528345  0.0115146 -0.017231 0.00454549  0.0100833 -0.0147378 0.00398673  0.0125108 -0.014797 0.00553528  0.0101504 -0.0139575 0.00465  0.0139377 -0.023738 0.00482205  0.014065 -0.0253635 0.00364612  0.0156013 -0.0206652 0.00598181  0.0171595 -0.0253806 0.00506331  0.0157099 -0.0223579 0.00451806  0.0127391 -0.019876 0.00500626  0.0140309 -0.0246076 0.00423833  0.0128189 -0.0215513 0.00378866  0.0156907 -0.0215794 0.00525782  0.012809 -0.0207849 0.00440513  0.0161397 -0.0321773 0.00440869  0.0163239 -0.0336844 0.00332657  0.0184095 -0.0285804 0.00552146  0.0198501 -0.0337143 0.00462296  0.0186142 -0.0301581 0.0041678  0.0150719 -0.0278267 0.00461986  0.0162577 -0.0329774 0.00387054  0.0152341 -0.0293989 0.0034904  0.0185469 -0.029429 0.00484724  0.0151799 -0.0286746 0.00405833  0.0180699 -0.0414889 0.00397388  0.0182787 -0.0428586 0.00298972  0.0209159 -0.0374398 0.00500672  0.0222105 -0.0429147 0.00415934  0.0211631 -0.0388795 0.00377291  0.0171391 -0.0367203 0.00419179  0.0181969 -0.0422152 0.00348348  0.0173391 -0.0381607 0.00315899  0.0210719 -0.0382122 0.00439177  0.0172636 -0.0374944 0.00367657  0.0197228 -0.0515535 0.00354177  0.0199385 -0.0527765 0.00265995  0.0231091 -0.0471076 0.00448556  0.0242422 -0.0528622 0.00370098  0.02337 -0.0484024 0.00337218  0.0189313 -0.0464236 0.00375757  0.0198524 -0.052197 0.00310123  0.0191453 -0.0477209 0.00282463  0.0232666 -0.0478004 0.00392933  0.01906 -0.047118 0.00329056  0.0211051 -0.062247 0.00312754  0.0213184 -0.0633317 0.0023444  0.0249792 -0.0574654 0.00397677  0.0259553 -0.0634491 0.00326448  0.0252442 -0.0586162 0.00298539  0.0204493 -0.056815 0.00333264  0.0212317 -0.0628169 0.00273506  0.0206635 -0.0579702 0.00250065  0.0251377 -0.0580806 0.00348057  0.0205747 -0.0574319 0.00291596  0.0222274 -0.0734779 0.00273471  0.0224364 -0.0744265 0.00204809  0.0265439 -0.068408 0.00349144  0.0273638 -0.0745742 0.00285003  0.0268002 -0.0694193 0.0026183  0.0216999 -0.0677906 0.00292936  0.0223491 -0.0739755 0.00239068  0.0219102 -0.0688061 0.00219437  0.0266967 -0.0689478 0.00305469  0.0218214 -0.0683327 0.00256079  0.0231057 -0.0851528 0.00236644  0.0233045 -0.0859755 0.00177139  0.0278162 -0.0798404 0.00303437  0.0284888 -0.0861506 0.00246339  0.0280628 -0.0807202 0.00227468  0.0226979 -0.0792543 0.00254877  0.0232215 -0.0855808 0.00206895  0.0229009 -0.0801386 0.00190699  0.0279605 -0.0803088 0.00265449  0.0228153 -0.0797247 0.00222691  0.0237577 -0.0971931 0.0020244  0.0239472 -0.0978971 0.00151426  0.0288124 -0.0916777 0.00260914  0.0293518 -0.0980971 0.00210609  0.0290511 -0.0924346 0.00195406  0.0234596 -0.0911204 0.00219303  0.0238682 -0.0975568 0.00176834  0.0236541 -0.0918837 0.00164036  0.0289519 -0.092081 0.00228085  0.0235718 -0.0915262 0.00191579  0.0242044 -0.109523 0.00171027  0.0243829 -0.110115 0.00127755  0.0295639 -0.103843 0.00221544  0.0299724 -0.110339 0.00177355  0.0297822 -0.104486 0.00165911  0.0240073 -0.103315 0.00186515  0.0243075 -0.109828 0.00149328  0.0241919 -0.103962 0.00139375  0.0296907 -0.104184 0.00193598  0.0241126 -0.103658 0.00162837  0.024465 -0.122075 0.00142034  0.0246333 -0.122566 0.0010612  0.0300802 -0.116264 0.00185337  0.0303768 -0.12281 0.00147153  0.0302873 -0.116801 0.00138696  0.0243571 -0.115763 0.00156204  0.0245622 -0.122326 0.00123972  0.0245321 -0.116304 0.00116719  0.0302 -0.116547 0.00162013  0.0244579 -0.11605 0.00136384  0.0245614 -0.134789 0.00115806  0.0247164 -0.135189 0.000864193  0.0303924 -0.128878 0.00152259  0.0305877 -0.135449 0.00119711  0.0305855 -0.129319 0.00113794  0.0245351 -0.128404 0.00128605  0.0246514 -0.13499 0.00101031  0.0246956 -0.128849 0.000959665  0.0305052 -0.129111 0.00132894  0.0246264 -0.128638 0.00112137  0.0245121 -0.14761 0.00092264  0.0246551 -0.14793 0.000687465  0.0305225 -0.141627 0.00122424  0.0306249 -0.148205 0.000949688  0.0307006 -0.141981 0.000914395  0.0245559 -0.141179 0.00103757  0.0245948 -0.147769 0.000805102  0.0247037 -0.141536 0.000773892  0.0306255 -0.141813 0.00106886  0.0246392 -0.141366 0.000904843  0.024338 -0.160491 0.000714277  0.024467 -0.160738 0.000531346  0.030493 -0.154463 0.000960065  0.0305145 -0.161025 0.000731856  0.0306549 -0.154739 0.000717729  0.0244401 -0.154035 0.000816722  0.0244119 -0.160612 0.000622369  0.0245759 -0.154317 0.000607982  0.0305867 -0.154607 0.000838734  0.0245187 -0.154182 0.000711687  0.0240552 -0.173391 0.00053402  0.0241706 -0.173575 0.000396356  0.0303249 -0.167337 0.000726808  0.0302749 -0.173869 0.00054308  0.0304723 -0.167545 0.000541776  0.0242107 -0.166932 0.000621413  0.0241227 -0.173477 0.000464745  0.0243323 -0.167144 0.000461444  0.0304089 -0.167445 0.000633433  0.0242801 -0.167041 0.000540651  0.0236852 -0.186273 0.000380157  0.0237846 -0.186402 0.000280619  0.0300405 -0.180211 0.000528157  0.0299294 -0.186704 0.000385061  0.0301681 -0.180361 0.000394985  0.0238831 -0.179823 0.000454688  0.0237415 -0.186328 0.000329815  0.0239875 -0.179979 0.000336751  0.0301144 -0.180288 0.00046096  0.023942 -0.179903 0.000395164  0.0232406 -0.199103 0.000253707  0.0233264 -0.199189 0.00018698  0.0296633 -0.193055 0.000361665  0.029496 -0.199495 0.000251107  0.0297694 -0.193155 0.000269458  0.0234721 -0.192685 0.000314668  0.0232897 -0.199137 0.000219844  0.023566 -0.192792 0.000232309  0.0297213 -0.193104 0.000314876  0.023524 -0.192738 0.000273392  0.0227394 -0.211859 0.000151383  0.0228088 -0.211912 0.00011088  0.0292029 -0.205834 0.000224667  0.0289934 -0.212218 0.000149235  0.0292912 -0.205897 0.00016959  0.022999 -0.205481 0.000200104  0.0227785 -0.211875 0.000131249  0.0230746 -0.205547 0.000147432  0.0292511 -0.205865 0.000196934  0.0230405 -0.205513 0.000172496  0.0221922 -0.22452 7.23836e-05  0.0222507 -0.224554 5.33015e-05  0.0286839 -0.218532 0.00012351  0.0284417 -0.224859 7.13319e-05  0.0287583 -0.218568 9.30279e-05  0.0224724 -0.218193 0.000109394  0.0222237 -0.224527 6.27711e-05  0.0225346 -0.218233 8.18372e-05  0.028722 -0.218548 0.000107467  0.0225058 -0.218209 9.49502e-05  0.0216067 -0.237086 1.58184e-06  0.021661 -0.237103 4.48525e-06  0.0281191 -0.231132 4.33858e-05  0.0278525 -0.237404 8.67248e-06  0.0281823 -0.231155 3.40343e-05  0.0219042 -0.230805 3.72184e-05  0.0216374 -0.237081 2.63005e-06  0.02196 -0.230829 2.7895e-05  0.0281513 -0.231141 3.89367e-05  0.0219352 -0.230814 3.16203e-05  0.0210025 -0.249547 -6.64583e-05  0.0210617 -0.249569 -4.32506e-05  0.0275245 -0.24364 -2.39213e-05  0.0272539 -0.249878 -4.98332e-05  0.0275853 -0.24366 -1.50874e-05  0.0213058 -0.243318 -2.84798e-05  0.0210395 -0.249546 -5.37746e-05  0.0213623 -0.243334 -1.96323e-05  0.0275526 -0.243648 -1.98931e-05  0.0213375 -0.243321 -2.38828e-05  0 0 0  0.00479345 -0.00338906 0.00585544  0.00354587 -0.00467515 0.0034813  0 0 0  0.00276873 -0.00312191 0.00435199  0.00526011 -0.00568718 0.00513458  0.00204743 -0.00400621 0.0022954  0 0 0  0.00197738 -0.0017637 0.00376228  0.00390315 -0.00412726 0.00457203  0.00120794 -0.00249153 0.00196759  0 0 0  0.00207217 -0.00346416 0.00305943  0.00129831 -0.00214595 0.00263549  0.00923654 -0.00699455 0.00707759  0.0084925 -0.00873077 0.0051015  0.00881641 -0.00616622 0.00755476  0.0107401 -0.00910467 0.00698975  0.00779727 -0.00794727 0.00512305  0.00716835 -0.00504839 0.00661932  0.00881946 -0.00794446 0.00612631  0.0060823 -0.00660604 0.00449325  0.008159 -0.00721389 0.0063336  0.00650765 -0.00592458 0.00556016  0.0131702 -0.0118563 0.00740283  0.0129395 -0.0136774 0.00551209  0.0134208 -0.0102996 0.00842289  0.015565 -0.013948 0.00739682  0.0129818 -0.0122277 0.00615494  0.0112185 -0.00924605 0.00734215  0.0130759 -0.0128369 0.00647354  0.0107759 -0.011048 0.0053975  0.0131916 -0.0113693 0.00730576  0.0109921 -0.0102308 0.00639312  0.0168976 -0.0180364 0.00717877  0.016941 -0.0198044 0.00540151  0.0178449 -0.015819 0.0083981  0.0200163 -0.020036 0.00718733  0.0177546 -0.0176891 0.00627016  0.0150667 -0.0147786 0.00733434  0.0169625 -0.0189823 0.00630019  0.0149913 -0.0165845 0.00549948  0.0178427 -0.0168372 0.00734416  0.0150649 -0.0157576 0.00643038  0.0203429 -0.0253862 0.00670583  0.0205341 -0.0270429 0.0050558  0.0219809 -0.0225783 0.00794874  0.0240558 -0.027271 0.00670795  0.0220881 -0.024321 0.00597896  0.0186613 -0.021565 0.00696089  0.0204871 -0.0262687 0.00588489  0.0187898 -0.0232813 0.00524741  0.0220889 -0.0235172 0.00696897  0.0187696 -0.0224897 0.00611155  0.0234632 -0.033755 0.00612678  0.023725 -0.0352681 0.0046168  0.0257542 -0.0304157 0.0073205  0.0276716 -0.0355083 0.00611912  0.0259671 -0.0320089 0.00551599  0.0219462 -0.0294421 0.00642224  0.023639 -0.034557 0.00537379  0.0221793 -0.0310288 0.00484301  0.0259174 -0.0312704 0.00642183  0.0221099 -0.0302939 0.00563619  0.0262264 -0.0429916 0.00551509  0.0265183 -0.0443582 0.0041506  0.0291322 -0.0391892 0.0066271  0.0308556 -0.0446122 0.0054981  0.0293937 -0.0406243 0.00499131  0.0248908 -0.0382622 0.00582182  0.0264146 -0.0437143 0.00483461  0.0251709 -0.0397015 0.00438485  0.0293174 -0.0399564 0.00581115  0.0250745 -0.0390326 0.00510477  0.0286272 -0.0529781 0.00491046  0.0289247 -0.0541937 0.00368977  0.0321004 -0.0487637 0.00592452  0.0336154 -0.0544618 0.00489022  0.0323759 -0.0500466 0.00445963  0.0274722 -0.0478879 0.00521174  0.0288161 -0.0536174 0.00429919  0.0277698 -0.0491791 0.00391862  0.0322859 -0.0494488 0.00519341  0.027662 -0.0485775 0.00456452  0.0306692 -0.0635982 0.00432943  0.0309614 -0.0646721 0.00324993  0.0346531 -0.0590277 0.00524519  0.0359634 -0.0649552 0.00430571  0.0349321 -0.060163 0.00394604  0.0296936 -0.0582027 0.00461683  0.0308516 -0.0641616 0.00378934  0.0299898 -0.0593489 0.00346711  0.0348395 -0.0596338 0.00459526  0.0298774 -0.0588148 0.00404143  0.0323669 -0.0747551 0.00378077  0.0326507 -0.075694 0.00283603  0.0368099 -0.0698798 0.00459674  0.0379233 -0.07599 0.00375512  0.0370846 -0.070873 0.00345781  0.0315605 -0.069104 0.00405131  0.0325431 -0.0752454 0.0033067  0.0318502 -0.0701098 0.00303932  0.0369897 -0.0704081 0.00402648  0.0317392 -0.0696397 0.00354487  0.033743 -0.0863618 0.003266  0.0340132 -0.0871727 0.00244947  0.0385946 -0.0812219 0.00399007  0.0395193 -0.0874788 0.00324206  0.0388575 -0.082084 0.00299929  0.0330931 -0.0804965 0.00351867  0.0339098 -0.0867831 0.00285716  0.0333713 -0.0813707 0.00263904  0.0387654 -0.0816815 0.00349481  0.0332659 -0.0809625 0.00307769  0.0348198 -0.0983353 0.00278853  0.0350751 -0.0990249 0.0020905  0.0400254 -0.0929735 0.00342333  0.0407763 -0.0993403 0.00276334  0.0402756 -0.0937118 0.00257567  0.0343183 -0.0922957 0.00302326  0.034977 -0.0986918 0.00243784  0.0345812 -0.0930452 0.0022662  0.0401884 -0.0933661 0.00299965  0.0344793 -0.0926939 0.00264367  0.0356212 -0.110596 0.00234715  0.0358601 -0.111179 0.00175904  0.0411336 -0.105056 0.00289855  0.0417231 -0.1115 0.00232339  0.0413728 -0.105679 0.0021808  0.0352522 -0.104423 0.00256388  0.0357671 -0.110897 0.00205303  0.0355011 -0.105058 0.00192127  0.0412883 -0.105386 0.00253989  0.0354044 -0.10476 0.00224184  0.0361736 -0.123089 0.00194411  0.0363975 -0.123571 0.00145638  0.0419468 -0.117394 0.00241772  0.0423915 -0.123897 0.0019217  0.0421702 -0.117917 0.00182082  0.035929 -0.116808 0.00214261  0.0363096 -0.123334 0.0016991  0.0361594 -0.117339 0.00160512  0.0420907 -0.117671 0.00211969  0.0360696 -0.117088 0.00187293  0.036505 -0.135747 0.00157968  0.0367101 -0.136137 0.00118317  0.0424966 -0.129938 0.0019812  0.0428051 -0.136462 0.0015589  0.0427021 -0.13036 0.00149256  0.0363661 -0.12939 0.00175674  0.0366302 -0.13594 0.00138033  0.0365815 -0.129824 0.00131609  0.0426289 -0.130158 0.00173449  0.0364972 -0.129618 0.00153525  0.0366371 -0.148515 0.00125102  0.0368249 -0.148821 0.000938281  0.0428095 -0.142618 0.00158353  0.0429966 -0.14915 0.00122951  0.0429969 -0.142953 0.00119436  0.0365958 -0.142107 0.00141025  0.036751 -0.148665 0.00109329  0.0367926 -0.142454 0.00105716  0.0429275 -0.142793 0.00138931  0.0367148 -0.14229 0.00123297  0.0365956 -0.161345 0.000960359  0.0367661 -0.161579 0.00072068  0.0429072 -0.155385 0.00123157  0.0429897 -0.161909 0.00094039  0.0430787 -0.155645 0.000932634  0.0366371 -0.154915 0.00110252  0.0367002 -0.161459 0.000839211  0.0368156 -0.155183 0.00082548  0.0430171 -0.15552 0.00108269  0.0367448 -0.155054 0.000962824  0.0364113 -0.174198 0.000709567  0.0365584 -0.174369 0.000533357  0.0428259 -0.168201 0.000923562  0.0428164 -0.174696 0.000690989  0.0429776 -0.16839 0.000701234  0.0365222 -0.167761 0.00083165  0.0365005 -0.174278 0.000621095  0.0366797 -0.167962 0.000622809  0.0429227 -0.168298 0.000813603  0.0366182 -0.167864 0.000726335  0.0361011 -0.18704 0.00049699  0.0362277 -0.187154 0.000373915  0.0425913 -0.181021 0.000658911  0.0424993 -0.187477 0.000479408  0.0427232 -0.181153 0.000503317  0.0362709 -0.180613 0.000599632  0.0361774 -0.187086 0.000435114  0.0364079 -0.180753 0.000450328  0.0426729 -0.181087 0.000580639  0.0363533 -0.180683 0.000523895  0.0356882 -0.199834 0.000324048  0.0357943 -0.199907 0.00024505  0.0422268 -0.193814 0.0004381  0.0420654 -0.200222 0.000305928  0.0423384 -0.193897 0.000339568  0.0359063 -0.193432 0.000405984  0.0357516 -0.199858 0.000283107  0.0360231 -0.193524 0.000305548  0.0422971 -0.193854 0.000388525  0.0359747 -0.193477 0.000354804  0.0351973 -0.212557 0.000186821  0.0352831 -0.212599 0.000143975  0.0417564 -0.206555 0.000262593  0.0415449 -0.212907 0.000175737  0.0418501 -0.2066 0.000211  0.0354517 -0.206194 0.000250522  0.0352471 -0.212563 0.000164449  0.0355494 -0.20625 0.000191689  0.041815 -0.206573 0.000237986  0.0355089 -0.206218 0.000220478  0.0346475 -0.225192 8.82972e-05  0.0347164 -0.225217 7.00206e-05  0.041213 -0.219217 0.000133391  0.0409551 -0.225518 8.32453e-05  0.0412898 -0.219237 0.000114471  0.0349286 -0.218876 0.000133925  0.0346868 -0.22519 7.77543e-05  0.0350063 -0.218905 0.000103921  0.041256 -0.219221 0.000124268  0.0349727 -0.218886 0.000118822  0.0340571 -0.237732 1.40292e-05  0.0341167 -0.237751 1.43498e-05  0.0406129 -0.231789 4.70093e-05  0.0403359 -0.238046 1.63093e-05  0.0406802 -0.231802 4.54336e-05  0.0343561 -0.231463 4.93795e-05  0.0340903 -0.237729 1.48639e-05  0.0344205 -0.231481 4.17531e-05  0.0406487 -0.231791 4.57764e-05  0.0343904 -0.231467 4.56125e-05  0.0334473 -0.250208 -5.2428e-05  0.033504 -0.250226 -3.59789e-05  0.039994 -0.244282 -1.26769e-05  0.03971 -0.250526 -3.7875e-05  0.040056 -0.244304 -4.20213e-06  0.0337517 -0.243962 -1.53276e-05  0.033478 -0.250207 -4.29004e-05  0.0338101 -0.243983 -1.00955e-05  0.0400229 -0.244288 -9.08226e-06  0.0337844 -0.243971 -1.39102e-05  -0.00495405 -0.00631942 -0.00317012  -0.0021605 -0.00422386 -0.00134978  0 0 0  -0.00332443 -0.0049792 -0.00208187  0 0 0  -0.00234809 -0.00332516 -0.00235733  -0.000796981 -0.0017084 -0.000990584  0 0 0  -0.00209948 -0.00396982 -0.00180882  -0.00336274 -0.00464394 -0.00275032  -0.00113712 -0.00260193 -0.0011449  0 0 0  -0.000810727 -0.00156428 -0.00132966  -0.00113678 -0.00242477 -0.00153241  -0.0102392 -0.00988362 -0.00484386  -0.00762054 -0.00847283 -0.00319551  -0.00803778 -0.00917025 -0.00327323  -0.00637531 -0.00749664 -0.00364622  -0.00419413 -0.00572369 -0.00239761  -0.00763382 -0.00795002 -0.00417934  -0.0081474 -0.00863441 -0.00423311  -0.00568984 -0.00701259 -0.00278884  -0.00430952 -0.00534009 -0.0031343  -0.00577161 -0.00656166 -0.00364307  -0.0153105 -0.0144525 -0.00536619  -0.0127139 -0.0126327 -0.00407319  -0.0126049 -0.0139599 -0.00370878  -0.01033 -0.0124147 -0.00403559  -0.00827482 -0.0103362 -0.00306825  -0.012803 -0.0120241 -0.00520796  -0.0126924 -0.0133652 -0.00469133  -0.0103519 -0.0114265 -0.00356537  -0.00839499 -0.00982052 -0.00391565  -0.0104614 -0.0108606 -0.00455111  -0.0200803 -0.0201585 -0.00527373  -0.0176772 -0.0177736 -0.00426458  -0.0168744 -0.0198102 -0.00368609  -0.0139708 -0.0184147 -0.00396223  -0.0121333 -0.0158278 -0.00321199  -0.0177397 -0.0171596 -0.00536929  -0.0169021 -0.0192242 -0.00461301  -0.014782 -0.0167383 -0.00373501  -0.0121858 -0.015276 -0.00403422  -0.0148382 -0.0161533 -0.00469525  -0.0244876 -0.026956 -0.00491308  -0.0223135 -0.0240056 -0.00409091  -0.0208145 -0.0267102 -0.00344847  -0.017336 -0.0254714 -0.00368915  -0.0156946 -0.0223565 -0.00307855  -0.02233 -0.0234256 -0.00511405  -0.0207895 -0.0261601 -0.00429884  -0.018885 -0.0231229 -0.00358386  -0.015686 -0.0218157 -0.00384054  -0.018885 -0.0225624 -0.00447504  -0.0285312 -0.0347278 -0.00444841  -0.0265774 -0.031257 -0.00376001  -0.0244329 -0.0345632 -0.00312608  -0.0204493 -0.0334821 -0.0033371  -0.0189765 -0.0298698 -0.00282624  -0.0265529 -0.0307273 -0.00468709  -0.0243718 -0.0340592 -0.00389251  -0.0226628 -0.0305139 -0.00329314  -0.0189232 -0.0293631 -0.0035187  -0.0226185 -0.0299949 -0.0041012  -0.0322241 -0.0433575 -0.00396152  -0.0304706 -0.0394164 -0.00337648  -0.0277448 -0.0432599 -0.00278401  -0.0233246 -0.0423327 -0.0029707  -0.0219983 -0.0382691 -0.00253515  -0.0304195 -0.0389423 -0.00420505  -0.0276621 -0.0428071 -0.00346491  -0.0261257 -0.0388009 -0.00295497  -0.0219149 -0.0378067 -0.00315484  -0.0260529 -0.0383326 -0.00367878  -0.0355864 -0.0527391 -0.00348763  -0.0340105 -0.0483794 -0.00298771  -0.0307679 -0.0527011 -0.0024496  -0.0259758 -0.051921 -0.00261369  -0.024774 -0.0474548 -0.00224155  -0.0339457 -0.0479595 -0.00372176  -0.0306752 -0.0522991 -0.00305142  -0.0292904 -0.0478826 -0.0026145  -0.0246773 -0.0470395 -0.00279027  -0.0292014 -0.0474653 -0.00325535  -0.0386405 -0.0627729 -0.00304347  -0.0372245 -0.0580476 -0.00261828  -0.033522 -0.0627888 -0.0021351  -0.0284138 -0.0621486 -0.00227922  -0.0273205 -0.0573257 -0.00196035  -0.0371511 -0.0576781 -0.00326172  -0.033428 -0.0624352 -0.00266163  -0.0321752 -0.0576579 -0.00228943  -0.0272202 -0.056959 -0.00244381  -0.0320835 -0.0572901 -0.00285208  -0.0414002 -0.0733732 -0.00263081  -0.040131 -0.0683262 -0.0022736  -0.0360243 -0.0734391 -0.00184429  -0.0306474 -0.0729291 -0.00196968  -0.0296525 -0.067794 -0.00170073  -0.0400546 -0.0680063 -0.00283402  -0.0359322 -0.0731312 -0.00229931  -0.0348024 -0.0680376 -0.00198716  -0.0295545 -0.0674733 -0.00212073  -0.0347105 -0.067717 -0.00247779  -0.0438883 -0.0844571 -0.00225402  -0.0427496 -0.0791345 -0.00195609  -0.0382904 -0.0845694 -0.00157888  -0.0326891 -0.0841791 -0.00168651  -0.0317842 -0.0787759 -0.00146142  -0.042677 -0.0788589 -0.0024385  -0.038204 -0.0843037 -0.00196929  -0.0371861 -0.0789375 -0.00170863  -0.0316912 -0.0784981 -0.00182438  -0.0370964 -0.07866 -0.00213094  -0.0461189 -0.0959527 -0.00190854  -0.0451005 -0.0903932 -0.00166593  -0.0403363 -0.0961052 -0.0013358  -0.0345494 -0.0958237 -0.00142691  -0.0337286 -0.0901928 -0.00124425  -0.0450325 -0.0901583 -0.00207609  -0.0402572 -0.0958776 -0.00166667  -0.0393395 -0.0902798 -0.00145453  -0.0336419 -0.0899541 -0.00155288  -0.0392566 -0.0900426 -0.00181517  -0.0481141 -0.107788 -0.00159337  -0.0472041 -0.102029 -0.00140168  -0.0421766 -0.107975 -0.00111516  -0.0362395 -0.107793 -0.00119005  -0.0354937 -0.101972 -0.00104567  -0.0471457 -0.10183 -0.00174743  -0.042106 -0.107782 -0.00139299  -0.0412803 -0.101991 -0.00122337  -0.0354165 -0.101771 -0.00130475  -0.0412054 -0.101791 -0.00152594  -0.0498844 -0.119895 -0.00130711  -0.0490808 -0.113974 -0.00116166  -0.0438279 -0.120114 -0.000915423  -0.0377699 -0.120024 -0.000976533  -0.0370932 -0.114046 -0.000866413  -0.0490235 -0.113809 -0.0014471  -0.0437642 -0.119956 -0.00114268  -0.0430243 -0.114005 -0.00101358  -0.0370237 -0.113878 -0.00108187  -0.0429592 -0.113838 -0.00126462  -0.051455 -0.132218 -0.00105081  -0.0507398 -0.126167 -0.000943631  -0.045303 -0.132466 -0.000736132  -0.0391541 -0.132454 -0.000785679  -0.0385411 -0.126353 -0.000702813  -0.0506951 -0.126032 -0.00117557  -0.0452458 -0.132334 -0.000919521  -0.0445853 -0.126257 -0.000823006  -0.0384798 -0.126215 -0.000878647  -0.0445246 -0.126121 -0.00102746  -0.052835 -0.144701 -0.00082618  -0.0522076 -0.138549 -0.000751048  -0.0466158 -0.144974 -0.000577673  -0.0403987 -0.14503 -0.00061518  -0.0398448 -0.138836 -0.00055927  -0.0521646 -0.138441 -0.000935942  -0.0465661 -0.144865 -0.00071992  -0.0459776 -0.138691 -0.00065425  -0.0397927 -0.138725 -0.00069806  -0.045925 -0.138582 -0.000816107  -0.0540469 -0.157294 -0.000624523  -0.0534945 -0.15107 -0.000580728  -0.0477829 -0.157585 -0.000438705  -0.0415211 -0.157702 -0.000467569  -0.0410199 -0.151444 -0.000432208  -0.0534606 -0.150986 -0.000722051  -0.0477407 -0.157501 -0.000545651  -0.047215 -0.151258 -0.000505611  -0.0409751 -0.151355 -0.000539735  -0.0471714 -0.151172 -0.000630453  -0.0551109 -0.169955 -0.000453085  -0.0546253 -0.163681 -0.000432581  -0.0488198 -0.17026 -0.000320032  -0.0425317 -0.17043 -0.000342205  -0.0420783 -0.164127 -0.000321209  -0.0545955 -0.16362 -0.00053665  -0.0487838 -0.170197 -0.000398561  -0.0483143 -0.163907 -0.000376895  -0.0420401 -0.16406 -0.000401527  -0.0482779 -0.163842 -0.000469416  -0.0560431 -0.182644 -0.000312984  -0.0556149 -0.176345 -0.000307783  -0.0497425 -0.182963 -0.000220865  -0.043443 -0.183171 -0.000234842  -0.04303 -0.176848 -0.00022909  -0.0555921 -0.176298 -0.000380203  -0.0497131 -0.182914 -0.000273898  -0.0492928 -0.176601 -0.000268206  -0.0429995 -0.176799 -0.000285819  -0.0492613 -0.176552 -0.000332743  -0.0568621 -0.195329 -0.00019756  -0.0564842 -0.189021 -0.000205591  -0.0505679 -0.195655 -0.000142887  -0.0442715 -0.195896 -0.000149161  -0.0438936 -0.189571 -0.000152931  -0.0564651 -0.188988 -0.000253022  -0.0505435 -0.195618 -0.000175744  -0.0501654 -0.1893 -0.000179484  -0.0438678 -0.189536 -0.000190035  -0.0501394 -0.189267 -0.00022088  -0.0575917 -0.207978 -0.00011389  -0.0572541 -0.201678 -0.000127167  -0.0513155 -0.208311 -8.32677e-05  -0.0450277 -0.208577 -8.50111e-05  -0.0446813 -0.202264 -9.37879e-05  -0.0572383 -0.20166 -0.000153571  -0.0512943 -0.208284 -9.97037e-05  -0.0509496 -0.201978 -0.000110224  -0.044657 -0.20224 -0.000114769  -0.0509272 -0.201956 -0.000134766  -0.0582583 -0.220577 -5.40465e-05  -0.0579493 -0.214297 -6.98566e-05  -0.0520046 -0.220911 -3.89665e-05  -0.0457299 -0.221191 -3.7387e-05  -0.045404 -0.214906 -4.78774e-05  -0.0579321 -0.214285 -8.32379e-05  -0.0519841 -0.220889 -4.53442e-05  -0.0516663 -0.214607 -5.82337e-05  -0.0453856 -0.214891 -5.99921e-05  -0.051645 -0.214593 -7.04825e-05  -0.0588884 -0.233118 -1.16527e-05  -0.0585966 -0.226863 -2.89977e-05  -0.0526543 -0.233448 -6.10948e-06  -0.0463912 -0.233732 1.2368e-06  -0.0460813 -0.227481 -1.58548e-05  -0.0585778 -0.226855 -3.09795e-05  -0.0526338 -0.233429 -6.4373e-06  -0.0523326 -0.227177 -2.09659e-05  -0.0460649 -0.227469 -1.8239e-05  -0.0523124 -0.227167 -2.38866e-05  -0.0595112 -0.245611 2.563e-05  -0.0592217 -0.239377 9.23872e-07  -0.0532887 -0.245932 2.15471e-05  -0.0470328 -0.24621 3.16948e-05  -0.0467303 -0.239985 1.09971e-05  -0.0591989 -0.239367 4.35114e-06  -0.053268 -0.245914 3.04729e-05  -0.0529706 -0.239684 8.43406e-06  -0.0467141 -0.239976 1.57952e-05  -0.0529506 -0.239675 1.27405e-05  -0.00168955 -0.00273323 -0.00149241  0 0 0  -0.00127503 -0.00194797 -0.00160564  -0.000423614 -0.000803292 -0.000667304  0 0 0  -0.00175674 -0.00249302 -0.00198354  -0.000571553 -0.00115359 -0.000825375  0 0 0  -0.000435472 -0.000702783 -0.000903472  -0.000585668 -0.00103612 -0.00111367  -0.00477989 -0.00697452 -0.00237228  -0.00365083 -0.00583512 -0.00248373  -0.00229163 -0.00402071 -0.00162962  -0.00490476 -0.00655372 -0.00307065  -0.0031414 -0.00472572 -0.00201489  -0.00238347 -0.00372761 -0.0021356  -0.00324866 -0.00439428 -0.00263682  -0.00810879 -0.0121234 -0.00268111  -0.00626144 -0.0109636 -0.00273222  -0.00486532 -0.00868529 -0.00208357  -0.00819296 -0.0116125 -0.00338717  -0.00645855 -0.0094151 -0.00257999  -0.00496376 -0.00825699 -0.00265989  -0.00657189 -0.00894701 -0.00329201  -0.0112414 -0.0182686 -0.0026547  -0.00873479 -0.0171843 -0.00266567  -0.0074783 -0.014429 -0.00216934  -0.0112571 -0.0177336 -0.00331712  -0.00970551 -0.0150558 -0.00269379  -0.00752026 -0.013937 -0.00272138  -0.00975502 -0.014535 -0.00338182  -0.014134 -0.0254173 -0.00247569  -0.0110387 -0.0244373 -0.0024717  -0.00992 -0.0211896 -0.00206888  -0.0140967 -0.0248958 -0.00308165  -0.0127151 -0.0217104 -0.0025762  -0.00990707 -0.0206853 -0.00257808  -0.0127031 -0.0211885 -0.00321142  -0.0168055 -0.0334876 -0.00223942  -0.0131927 -0.0326235 -0.00222988  -0.0121869 -0.0289048 -0.00189179  -0.0167343 -0.0330013 -0.00278501  -0.0154951 -0.0293318 -0.00236088  -0.0121322 -0.0284175 -0.00235294  -0.0154395 -0.0288362 -0.00293753  -0.0192757 -0.042387 -0.00198989  -0.0152103 -0.0416393 -0.00198089  -0.0142931 -0.0374849 -0.00169235  -0.0191853 -0.0419416 -0.00247681  -0.0180644 -0.0378288 -0.00211506  -0.0142165 -0.0370318 -0.00210507  -0.0179821 -0.0373719 -0.00263073  -0.0215598 -0.0520134 -0.00174752  -0.0171033 -0.0513813 -0.00173824  -0.0162584 -0.0468347 -0.0014926  -0.0214623 -0.0516142 -0.00217751  -0.0204387 -0.0471033 -0.00186765  -0.0161719 -0.0464232 -0.00185889  -0.0203446 -0.0466901 -0.00232534  -0.023671 -0.0622742 -0.00152171  -0.018876 -0.061756 -0.00151354  -0.0180937 -0.056861 -0.00130458  -0.0235716 -0.061921 -0.00189763  -0.0226363 -0.0570586 -0.00163306  -0.0180038 -0.0564936 -0.00162579  -0.0225374 -0.0566913 -0.00203544  -0.0256182 -0.0730852 -0.00131261  -0.0205344 -0.0726732 -0.00130661  -0.019807 -0.0674741 -0.00112829  -0.0255231 -0.0727751 -0.00163886  -0.0246637 -0.0676051 -0.00141506  -0.0197186 -0.0671503 -0.00140809  -0.0245668 -0.0672824 -0.0017654  -0.0274113 -0.0843622 -0.00112244  -0.0220817 -0.0840516 -0.00111704  -0.0214034 -0.0785889 -0.000967696  -0.0273234 -0.0840939 -0.00140154  -0.0265317 -0.0786581 -0.00121571  -0.0213203 -0.0783076 -0.00120944  -0.0264421 -0.0783779 -0.00151788  -0.0290599 -0.0960316 -0.000948459  -0.0235225 -0.0958141 -0.000943273  -0.0228889 -0.0901291 -0.000823006  -0.0289786 -0.0957996 -0.0011856  -0.0282525 -0.0901412 -0.00103313  -0.0228133 -0.0898872 -0.00102836  -0.0281681 -0.0899009 -0.00129138  -0.0305716 -0.108025 -0.000791937  -0.0248612 -0.10789 -0.000785857  -0.0242741 -0.102021 -0.00068973  -0.0304973 -0.107827 -0.000989184  -0.0298312 -0.101981 -0.000867635  -0.0242026 -0.101815 -0.000863418  -0.0297536 -0.101777 -0.001085  -0.0319558 -0.120273 -0.000648901  -0.0261021 -0.120215 -0.000644222  -0.0255535 -0.114196 -0.000570506  -0.031889 -0.120109 -0.00081192  -0.031278 -0.114109 -0.000718847  -0.0254927 -0.114023 -0.00071384  -0.0312077 -0.113938 -0.000898659  -0.0332186 -0.132721 -0.000521705  -0.0272536 -0.13273 -0.000518844  -0.0267415 -0.126592 -0.000463158  -0.0331602 -0.132584 -0.000652805  -0.0326014 -0.126464 -0.000583902  -0.0266894 -0.12645 -0.00057961  -0.0325381 -0.126323 -0.000729918  -0.034372 -0.14531 -0.000409305  -0.0283169 -0.14538 -0.000404403  -0.0278428 -0.139154 -0.00036791  -0.0343205 -0.145199 -0.000512183  -0.0338086 -0.138988 -0.000464261  -0.0277942 -0.13904 -0.000460491  -0.0337534 -0.138875 -0.000580385  -0.0354235 -0.157994 -0.000310019  -0.0293021 -0.158115 -0.000308216  -0.0288608 -0.151829 -0.000283033  -0.0353806 -0.157906 -0.00038828  -0.034909 -0.151632 -0.000357777  -0.0288193 -0.151737 -0.000354528  -0.034863 -0.151542 -0.000448078  -0.0363839 -0.17073 -0.000226378  -0.0302174 -0.170895 -0.000224382  -0.029804 -0.16457 -0.000210524  -0.0363462 -0.170662 -0.000283122  -0.0359139 -0.164346 -0.000267029  -0.029767 -0.1645 -0.00026466  -0.0358741 -0.164278 -0.000333652  -0.0372639 -0.183478 -0.000156388  -0.0310647 -0.183679 -0.000152901  -0.0306766 -0.177339 -0.000149533  -0.0372314 -0.183426 -0.000194967  -0.0368323 -0.177092 -0.000189066  -0.0306478 -0.177286 -0.000187963  -0.036799 -0.177042 -0.000236645  -0.0380709 -0.196207 -0.000100434  -0.0318537 -0.196439 -9.89586e-05  -0.0314896 -0.190099 -9.95547e-05  -0.0380461 -0.196168 -0.000125065  -0.0376742 -0.189836 -0.000126183  -0.031466 -0.190062 -0.000124633  -0.0376475 -0.189799 -0.000158042  -0.0388196 -0.208892 -5.66542e-05  -0.0325921 -0.209145 -5.35697e-05  -0.0322478 -0.202824 -6.02305e-05  -0.0387979 -0.208861 -7.03484e-05  -0.0384521 -0.202545 -7.6741e-05  -0.0322299 -0.202797 -7.52211e-05  -0.0384281 -0.202519 -9.574e-05  -0.0395188 -0.221511 -2.37077e-05  -0.0332904 -0.221779 -2.12491e-05  -0.0329626 -0.215487 -2.91765e-05  -0.039499 -0.221487 -3.05176e-05  -0.0391748 -0.215197 -3.95775e-05  -0.0329461 -0.215469 -3.7834e-05  -0.0391538 -0.215181 -4.81904e-05  -0.0401809 -0.234052 1.37091e-06  -0.0339506 -0.234326 5.23031e-06  -0.0336359 -0.228075 -7.88271e-06  -0.040163 -0.234031 3.36766e-06  -0.0398536 -0.227778 -1.03414e-05  -0.0336242 -0.228062 -7.52509e-06  -0.0398347 -0.227767 -1.29491e-05  -0.0408256 -0.246518 2.73585e-05  -0.034596 -0.246782 3.29465e-05  -0.0342848 -0.240576 1.49608e-05  -0.040808 -0.246498 3.53605e-05  -0.0405011 -0.240283 1.39773e-05  -0.0342736 -0.240563 1.9744e-05  -0.0404844 -0.240271 1.91629e-05  -0.000844046 -0.00179154 -0.000911221  0 0 0  -0.000550583 -0.00139382 -0.000810355  -0.000182632 -0.000462323 -0.000336975  0 0 0  -0.000886641 -0.00160182 -0.00121178  -0.000287853 -0.000586987 -0.000503913  0 0 0  -0.000186659 -0.000383198 -0.00045605  -0.000297416 -0.000499696 -0.000681981  -0.00250648 -0.00567731 -0.00144956  -0.00162268 -0.00500807 -0.00125736  -0.000999719 -0.00323689 -0.000825077  -0.00258747 -0.00532967 -0.00187698  -0.00160584 -0.00353801 -0.0012317  -0.00104348 -0.00299186 -0.00107996  -0.00167388 -0.00327328 -0.00161366  -0.00445521 -0.0109285 -0.00163417  -0.00287393 -0.0101582 -0.00138175  -0.00219679 -0.00779989 -0.00105658  -0.0045079 -0.0104779 -0.00206193  -0.00347203 -0.00814894 -0.00157505  -0.00224251 -0.00742239 -0.0013469  -0.00354594 -0.00775048 -0.00200878  -0.00636584 -0.0172679 -0.00160953  -0.0041239 -0.0165029 -0.00134236  -0.00349054 -0.0136439 -0.00109695  -0.00637072 -0.0167732 -0.00200835  -0.00542271 -0.0139571 -0.00163719  -0.00350329 -0.0131918 -0.00137332  -0.00545204 -0.0134879 -0.00205266  -0.00816178 -0.0245965 -0.0014933  -0.00532967 -0.0238841 -0.00123821  -0.00475204 -0.0205491 -0.0010418  -0.00812823 -0.0240983 -0.00185727  -0.00727808 -0.0208012 -0.00155787  -0.00473249 -0.0200692 -0.0012951  -0.00726247 -0.020311 -0.00193913  -0.00984973 -0.0328258 -0.00134632  -0.00649452 -0.0321894 -0.00111294  -0.00595635 -0.028399 -0.000948146  -0.00979078 -0.0323511 -0.00167419  -0.00901759 -0.028592 -0.00142156  -0.00591743 -0.0279253 -0.00117689  -0.00897074 -0.0281129 -0.00176667  -0.0114405 -0.0418698 -0.00119227  -0.00762838 -0.0413158 -0.000983387  -0.00712007 -0.0371008 -0.000843659  -0.0113695 -0.0414295 -0.00148258  -0.0106558 -0.0372404 -0.00126949  -0.00706434 -0.0366541 -0.00104879  -0.0105894 -0.0367918 -0.00157773  -0.0129486 -0.0516296 -0.00104451  -0.00873357 -0.0511652 -0.000859529  -0.00824636 -0.0465642 -0.000740483  -0.0128707 -0.0512304 -0.00130004  -0.0122033 -0.0466541 -0.00111727  -0.00818586 -0.0461536 -0.000920847  -0.0121294 -0.0462434 -0.00139044  -0.0143776 -0.0620167 -0.000907332  -0.00981128 -0.0616389 -0.00074476  -0.00933826 -0.0566956 -0.000643224  -0.0142989 -0.0616615 -0.00113054  -0.0136725 -0.0567383 -0.000974283  -0.00927615 -0.0563268 -0.000800774  -0.0135939 -0.0563704 -0.001214  -0.0157305 -0.0729456 -0.000779822  -0.0108606 -0.0726533 -0.000638247  -0.0104011 -0.0674084 -0.000553474  -0.0156553 -0.0726314 -0.000972971  -0.0150629 -0.0674067 -0.000841945  -0.0103399 -0.0670821 -0.00069046  -0.0149857 -0.0670814 -0.00105034  -0.0170112 -0.0843315 -0.000665143  -0.0118799 -0.0841216 -0.000542715  -0.0114305 -0.0786179 -0.000471622  -0.0169423 -0.084059 -0.000830293  -0.0163792 -0.0785744 -0.000720665  -0.0113759 -0.0783332 -0.000589237  -0.0163071 -0.0782915 -0.000900522  -0.0182225 -0.0961033 -0.000559852  -0.0128663 -0.0959678 -0.000456199  -0.0124279 -0.0902462 -0.000398248  -0.0181584 -0.0958686 -0.000701204  -0.0176252 -0.0901628 -0.00061132  -0.0123768 -0.0899996 -0.000498205  -0.0175583 -0.0899178 -0.000764385  -0.0193645 -0.108187 -0.000465319  -0.0138214 -0.108121 -0.000377908  -0.0133946 -0.102218 -0.000333026  -0.0193075 -0.107986 -0.000581756  -0.0188011 -0.102099 -0.000511959  -0.0133481 -0.102008 -0.000416651  -0.018742 -0.10189 -0.00063993  -0.020443 -0.120518 -0.000381067  -0.0147412 -0.120515 -0.000307992  -0.0143256 -0.114465 -0.00027281  -0.0203922 -0.12035 -0.000476837  -0.0199112 -0.114314 -0.000422195  -0.0142853 -0.114289 -0.000341415  -0.0198584 -0.114139 -0.000528574  -0.0214585 -0.133038 -0.00030458  -0.0156273 -0.13309 -0.000245243  -0.0152247 -0.126927 -0.000219792  -0.0214143 -0.132898 -0.000382915  -0.0209575 -0.126746 -0.000342086  -0.015188 -0.126781 -0.000275671  -0.0209103 -0.126601 -0.000429243  -0.0224135 -0.145691 -0.000238463  -0.0164771 -0.145792 -0.000190184  -0.0160873 -0.139545 -0.000172958  -0.0223745 -0.145575 -0.000298977  -0.0219429 -0.139338 -0.000271007  -0.0160558 -0.139426 -0.000216082  -0.021901 -0.139221 -0.000339597  -0.0233114 -0.158429 -0.000180289  -0.0172973 -0.158573 -0.000144109  -0.0169172 -0.152267 -0.000130728  -0.0232794 -0.158337 -0.000225559  -0.0228677 -0.15204 -0.000207484  -0.0168912 -0.152173 -0.000165284  -0.0228343 -0.151946 -0.000260651  -0.0241587 -0.17121 -0.000129893  -0.0180812 -0.17139 -0.000101492  -0.0177135 -0.165051 -9.72748e-05  -0.0241311 -0.171138 -0.000164106  -0.0237408 -0.164804 -0.000154004  -0.0176926 -0.164978 -0.000120968  -0.0237119 -0.164732 -0.000193566  -0.0249584 -0.183995 -8.96007e-05  -0.0188348 -0.184206 -7.00504e-05  -0.0184767 -0.177854 -6.7398e-05  -0.0249352 -0.18394 -0.000112548  -0.0245621 -0.177592 -0.00010936  -0.0184612 -0.177797 -8.55178e-05  -0.0245392 -0.177537 -0.000137627  -0.0257123 -0.196754 -5.69373e-05  -0.0195572 -0.19699 -4.27961e-05  -0.019213 -0.190644 -4.46141e-05  -0.0256944 -0.196712 -7.13021e-05  -0.0253386 -0.190368 -7.32392e-05  -0.0191994 -0.190602 -5.50747e-05  -0.0253196 -0.190328 -9.15378e-05  -0.0264277 -0.20946 -3.11881e-05  -0.0202527 -0.209717 -2.27541e-05  -0.0199184 -0.203388 -2.48551e-05  -0.0264134 -0.209429 -3.94434e-05  -0.0260742 -0.203105 -4.23044e-05  -0.0199087 -0.203359 -3.17693e-05  -0.0260589 -0.203076 -5.33462e-05  -0.0271111 -0.222097 -1.16378e-05  -0.0209212 -0.222365 -6.34789e-06  -0.0205996 -0.216069 -1.20103e-05  -0.0270991 -0.222071 -1.24723e-05  -0.0267715 -0.215777 -2.07126e-05  -0.0205894 -0.216049 -1.45435e-05  -0.0267608 -0.215757 -2.55257e-05  -0.0277662 -0.234644 4.85778e-06  -0.0215709 -0.234919 7.7337e-06  -0.0212548 -0.228668 6.25849e-07  -0.0277543 -0.234621 8.40425e-06  -0.0274413 -0.22837 -2.6226e-06  -0.0212493 -0.228652 1.35601e-06  -0.0274296 -0.228357 -3.62098e-06  -0.0284052 -0.247089 2.21431e-05  -0.0222046 -0.247352 2.04891e-05  -0.0218942 -0.241163 1.01328e-05  -0.0283937 -0.247066 2.83569e-05  -0.0280843 -0.240869 1.40369e-05  -0.0218875 -0.241151 1.47521e-05  -0.0280738 -0.240856 1.809e-05  -0.000231192 -0.00146186 -0.000301778  0 0 0  5.18709e-05 -0.00128677 1.40071e-05  1.67638e-05 -0.000397295 6.07967e-06  0 0 0  -0.000241809 -0.00129429 -0.000398591  -7.91848e-05 -0.000402719 -0.000166014  0 0 0  1.69054e-05 -0.000326097 1.04755e-05  -8.11629e-05 -0.000329137 -0.000223637  -0.000711814 -0.00516373 -0.00048469  0.000130951 -0.00483972 9.81987e-06  8.48174e-05 -0.00307149 7.53999e-06  -0.000730753 -0.00485042 -0.000624344  -0.00044632 -0.00308701 -0.00041008  9.27895e-05 -0.00284261 1.32769e-05  -0.000464588 -0.00285327 -0.00053443  -0.00132245 -0.0104197 -0.000549331  0.000176996 -0.0100007 1.2815e-06  0.000146329 -0.00761124 1.75834e-06  -0.00132948 -0.0100003 -0.000690639  -0.00100803 -0.00762266 -0.000528663  0.000160515 -0.0072529 5.81145e-06  -0.00102308 -0.00725901 -0.000671521  -0.00197393 -0.01685 -0.000540659  0.00016129 -0.0163975 3.27826e-07  0.000157118 -0.0134954 -3.69549e-06  -0.00196052 -0.0163783 -0.000672713  -0.00164583 -0.0134898 -0.000550821  0.000178307 -0.0130585 1.49012e-07  -0.0016425 -0.0130485 -0.000687629  -0.00263858 -0.0242814 -0.000499219  7.236e-05 -0.0238392 3.62098e-06  0.000100732 -0.0204641 -2.22027e-06  -0.00260854 -0.0237976 -0.000617847  -0.00230533 -0.0204365 -0.000522733  0.000125825 -0.0199944 9.53674e-07  -0.00228238 -0.019963 -0.000647515  -0.00331414 -0.0326098 -0.000445858  -8.94666e-05 -0.0322053 1.09822e-05  -2.78354e-05 -0.0283791 3.21865e-06  -0.00327212 -0.0321401 -0.000551164  -0.00297374 -0.0283267 -0.000472948  1.19209e-06 -0.0279113 6.83963e-06  -0.00293732 -0.0278574 -0.00058572  -0.0040037 -0.0417393 -0.000389084  -0.000322878 -0.0413916 1.80006e-05  -0.000229597 -0.0371439 9.29832e-06  -0.00395733 -0.0413021 -0.000481978  -0.00365561 -0.0370682 -0.00041759  -0.000196576 -0.0366997 1.44094e-05  -0.0036124 -0.0366223 -0.000516579  -0.00471103 -0.0515848 -0.000336275  -0.000627935 -0.0512988 2.47061e-05  -0.000500381 -0.0466681 1.5676e-05  -0.00466257 -0.0511864 -0.000417933  -0.00435489 -0.0465682 -0.000362232  -0.000467539 -0.0462589 2.15471e-05  -0.00430721 -0.0461588 -0.000449464  -0.00543392 -0.0620534 -0.000287086  -0.000995398 -0.0618316 3.01301e-05  -0.000833869 -0.0568598 2.04146e-05  -0.00538576 -0.0616965 -0.000358239  -0.00507033 -0.0567351 -0.000311017  -0.000803351 -0.0564902 2.69115e-05  -0.00502181 -0.0563661 -0.000387281  -0.00616932 -0.0730595 -0.000242919  -0.00142026 -0.072901 3.38256e-05  -0.00122893 -0.0676308 2.563e-05  -0.00612354 -0.0727415 -0.00030224  -0.00579989 -0.0674825 -0.00026457  -0.0012008 -0.0673031 3.23504e-05  -0.00575328 -0.0671551 -0.000329971  -0.00691271 -0.084519 -0.000202477  -0.00189376 -0.0844232 3.46005e-05  -0.00167537 -0.0788966 2.71201e-05  -0.00687122 -0.0842416 -0.000255048  -0.00653958 -0.0787247 -0.000222772  -0.00165045 -0.078608 3.47644e-05  -0.00649595 -0.0784388 -0.000277475  -0.00766277 -0.0963554 -0.0001681  -0.00241113 -0.0963177 3.58522e-05  -0.00216961 -0.0905748 2.90871e-05  -0.00762463 -0.0961173 -0.000211552  -0.00728548 -0.0903823 -0.000185102  -0.0021466 -0.0903268 3.51518e-05  -0.00724792 -0.0901353 -0.000231922  -0.008412 -0.1085 -0.000137329  -0.00296259 -0.108518 3.44664e-05  -0.00270176 -0.102595 2.82526e-05  -0.00837886 -0.108297 -0.000172064  -0.00803804 -0.102383 -0.000152677  -0.00268352 -0.102382 3.48389e-05  -0.00800157 -0.10217 -0.000190988  -0.00915968 -0.120887 -0.000109404  -0.0035435 -0.120953 3.34829e-05  -0.00326586 -0.114886 2.78056e-05  -0.00913012 -0.120715 -0.000137433  -0.00878572 -0.114656 -0.000123188  -0.00325 -0.114708 3.49134e-05  -0.00875533 -0.114477 -0.000153452  -0.00990236 -0.133454 -8.59648e-05  -0.00414693 -0.133563 3.28273e-05  -0.00385582 -0.127386 2.58982e-05  -0.00987685 -0.13331 -0.000106707  -0.00953114 -0.12714 -9.72301e-05  -0.00384223 -0.127237 3.21418e-05  -0.00950444 -0.126991 -0.000122383  -0.0106359 -0.146149 -6.41495e-05  -0.00476789 -0.146296 2.864e-05  -0.00446737 -0.140038 2.47061e-05  -0.0106152 -0.14603 -8.05557e-05  -0.0102689 -0.139777 -7.51317e-05  -0.00445712 -0.139915 2.99066e-05  -0.0102475 -0.139656 -9.33111e-05  -0.0113592 -0.158921 -4.64916e-05  -0.00540233 -0.159104 2.61068e-05  -0.00509167 -0.152788 2.22623e-05  -0.0113423 -0.158828 -5.88298e-05  -0.0109985 -0.152516 -5.50896e-05  -0.00508428 -0.152691 2.71201e-05  -0.0109799 -0.152421 -7.02888e-05  -0.0120685 -0.171735 -3.16501e-05  -0.00604129 -0.171942 2.20537e-05  -0.00572586 -0.165596 1.88053e-05  -0.0120542 -0.171659 -4.00394e-05  -0.0117147 -0.165315 -3.91752e-05  -0.00572157 -0.165519 2.4572e-05  -0.0117009 -0.165238 -4.87864e-05  -0.0127647 -0.184544 -1.94758e-05  -0.00668383 -0.184775 1.84923e-05  -0.00636506 -0.178417 1.63317e-05  -0.0127537 -0.184484 -2.61515e-05  -0.0124164 -0.178128 -2.64049e-05  -0.00636363 -0.178359 2.09659e-05  -0.0124047 -0.178071 -3.29316e-05  -0.0134463 -0.197324 -1.15931e-05  -0.00732827 -0.197573 1.29938e-05  -0.00700855 -0.191222 1.38581e-05  -0.0134377 -0.197277 -1.53184e-05  -0.0131063 -0.190927 -1.5676e-05  -0.00700665 -0.191179 1.78367e-05  -0.0130973 -0.190885 -1.89841e-05  -0.0141132 -0.210044 -4.66406e-06  -0.00796676 -0.210309 1.07288e-05  -0.00764894 -0.203979 1.01328e-05  -0.014106 -0.210011 -6.79493e-06  -0.0137811 -0.20368 -7.33137e-06  -0.00764847 -0.203948 1.23978e-05  -0.0137734 -0.203649 -9.83477e-06  -0.0147648 -0.222688 8.9407e-08  -0.0086019 -0.222965 7.58469e-06  -0.00828576 -0.216669 7.6592e-06  -0.0147586 -0.222663 8.34465e-07  -0.0144393 -0.216367 -1.72853e-06  -0.00828624 -0.216646 1.00583e-05  -0.0144355 -0.216345 -2.5779e-06  -0.0154028 -0.23524 4.64916e-06  -0.00922823 -0.235521 3.96371e-06  -0.00891638 -0.22927 4.11272e-06  -0.0153973 -0.235218 6.51181e-06  -0.0150836 -0.228967 3.12924e-06  -0.00891662 -0.229255 6.67572e-06  -0.015079 -0.228951 3.57628e-06  -0.0160279 -0.247676 8.37445e-06  -0.00984693 -0.247948 4.12762e-06  -0.0095396 -0.241765 2.65241e-06  -0.0160246 -0.247646 1.1161e-05  -0.0157156 -0.241461 7.27177e-06  -0.00953889 -0.24175 2.23517e-06  -0.0157113 -0.241448 9.68575e-06  0.000325769 -0.00153244 0.000316739  0 0 0  0.000656754 -0.00153905 0.000833943  0.000213742 -0.000539303 0.000347167  0 0 0  0.000347033 -0.00136644 0.000426054  0.000111751 -0.000440717 0.000177711  0 0 0  0.000221767 -0.000464916 0.000474468  0.000115961 -0.000369608 0.000243858  0.000949472 -0.00528127 0.000492811  0.00188476 -0.00525224 0.00126532  0.00116967 -0.00342786 0.000832766  0.000994503 -0.0049724 0.00064294  0.000615105 -0.00318342 0.00042361  0.00122985 -0.00319129 0.00109696  0.000650883 -0.00295407 0.000558749  0.0016377 -0.0105702 0.000544548  0.00321862 -0.0104698 0.00137204  0.00248244 -0.0080688 0.00104916  0.00168085 -0.0101579 0.000691906  0.00129655 -0.00775898 0.00052911  0.00255919 -0.00770158 0.00134361  0.00134417 -0.00739962 0.00067924  0.00224215 -0.0170306 0.000532955  0.00442696 -0.0168728 0.00133315  0.00378689 -0.0139756 0.00108221  0.00227743 -0.0165624 0.000669718  0.00195485 -0.0136567 0.000543058  0.00384516 -0.0135328 0.00136247  0.00199392 -0.0132195 0.000684947  0.00271881 -0.0244928 0.000498295  0.00544947 -0.0243125 0.00123899  0.0049274 -0.0209404 0.00103152  0.0027476 -0.024012 0.000623494  0.00249857 -0.0206322 0.000517398  0.00496179 -0.0204676 0.0012894  0.00252891 -0.0201625 0.000648409  0.00306326 -0.0328538 0.000456393  0.0062865 -0.0326825 0.00113052  0.00587285 -0.0288548 0.0009498  0.00308627 -0.0323863 0.000571445  0.0029071 -0.0285542 0.000477999  0.0058921 -0.0283858 0.0011856  0.00293255 -0.0280874 0.000598222  0.00328147 -0.0420201 0.000414789  0.00694823 -0.0418781 0.00101815  0.00663018 -0.0376263 0.000859857  0.00330067 -0.0415833 0.000518933  0.00318855 -0.0373313 0.000435442  0.00663996 -0.0371814 0.00107381  0.00320858 -0.036886 0.000544712  0.00338101 -0.0519037 0.000372887  0.00744557 -0.0517996 0.000907943  0.00721484 -0.047163 0.000770092  0.00339854 -0.0515022 0.000466809  0.00334615 -0.0468659 0.000393271  0.00721711 -0.0467516 0.000962228  0.00336319 -0.046456 0.0004922  0.00337279 -0.0624074 0.000333339  0.00778925 -0.0623488 0.000803903  0.00763774 -0.0573691 0.000683993  0.00338733 -0.0620488 0.000417933  0.00339127 -0.0570709 0.000353128  0.00763524 -0.0569985 0.000855148  0.00340593 -0.0567011 0.00044176  0.00326383 -0.0734495 0.000295103  0.00799108 -0.0734357 0.000705704  0.00791073 -0.068158 0.000603646  0.00327694 -0.0731325 0.000368923  0.0033319 -0.0678561 0.000314027  0.00790751 -0.0678281 0.00075376  0.00334394 -0.0675267 0.000393435  0.0030669 -0.0849454 0.000259876  0.00806415 -0.0849746 0.000614077  0.00804853 -0.0794405 0.000527352  0.0030762 -0.084667 0.00032495  0.00317633 -0.0791348 0.000277221  0.00804305 -0.0791523 0.000660136  0.00318789 -0.0788455 0.000347495  0.00278842 -0.0968164 0.000226408  0.00802171 -0.0968874 0.00052999  0.0080657 -0.0911372 0.000456512  0.00279748 -0.0965743 0.000283122  0.00293744 -0.0908256 0.000242203  0.008057 -0.0908869 0.000570089  0.00294626 -0.0905765 0.000303119  0.00244141 -0.108991 0.000193566  0.00787389 -0.1091 0.000446931  0.007967 -0.103173 0.000389844  0.00244808 -0.108786 0.000242233  0.00262439 -0.102859 0.000209421  0.0079596 -0.102958 0.000487924  0.00263071 -0.102644 0.000261709  0.00203466 -0.121403 0.000163287  0.00763524 -0.121548 0.000376388  0.00777495 -0.115478 0.00032869  0.00203788 -0.121231 0.000204518  0.00224626 -0.115161 0.000178337  0.00776517 -0.115297 0.000411183  0.00225055 -0.11498 0.000222951  0.00157535 -0.133994 0.000135809  0.00731468 -0.13417 0.0003113  0.00749564 -0.127989 0.000273108  0.00157762 -0.133849 0.000169963  0.00181186 -0.127669 0.000149101  0.0074836 -0.127838 0.000341058  0.00181389 -0.127519 0.000187889  0.00107455 -0.146708 0.000112444  0.00692701 -0.14691 0.000249013  0.00714147 -0.140649 0.000222266  0.0010736 -0.146589 0.000139534  0.00133026 -0.140328 0.000123173  0.00712764 -0.140526 0.00027816  0.00133133 -0.140205 0.00015448  0.000535488 -0.159499 8.85427e-05  0.00648117 -0.159723 0.000195324  0.00672174 -0.153408 0.000175953  0.000534534 -0.159402 0.000108942  0.000808954 -0.153086 9.86755e-05  0.00671172 -0.153309 0.000220031  0.000808239 -0.152987 0.000123754  -2.95639e-05 -0.172323 6.75023e-05  0.00598741 -0.172566 0.000149265  0.0062499 -0.16622 0.000136018  -3.05176e-05 -0.172245 8.44449e-05  0.00025773 -0.165898 7.85291e-05  0.00624084 -0.166141 0.000170335  0.000254869 -0.16582 9.78559e-05  -0.000614405 -0.18514 5.09024e-05  0.0054574 -0.185401 0.000106588  0.00573611 -0.179043 0.000100285  -0.000617504 -0.18508 6.41346e-05  -0.000318766 -0.178722 5.8949e-05  0.00572562 -0.178985 0.000126854  -0.000321627 -0.178664 7.42376e-05  -0.00121474 -0.197927 3.45111e-05  0.00489616 -0.198199 7.29561e-05  0.0051899 -0.191847 7.236e-05  -0.0012176 -0.197881 4.54932e-05  -0.000911951 -0.191528 4.24981e-05  0.00518131 -0.191803 8.9854e-05  -0.000916481 -0.191485 5.29885e-05  -0.00182509 -0.210654 2.2769e-05  0.00431371 -0.210933 4.41521e-05  0.00461888 -0.204604 4.67598e-05  -0.0018301 -0.210617 2.83271e-05  -0.00151849 -0.204287 2.864e-05  0.00460792 -0.204574 5.91427e-05  -0.0015223 -0.204257 3.63737e-05  -0.00244117 -0.2233 1.17719e-05  0.0037148 -0.223587 2.24113e-05  0.00402641 -0.217292 2.5332e-05  -0.00244427 -0.223274 1.56462e-05  -0.00213289 -0.216976 1.69873e-05  0.00401568 -0.21727 3.1963e-05  -0.00213671 -0.216954 2.13683e-05  -0.0030601 -0.235851 1.96695e-06  0.00310659 -0.236141 -9.68575e-07  0.00342321 -0.229891 8.76188e-06  -0.00306249 -0.235829 2.45869e-06  -0.00274897 -0.229579 7.89762e-06  0.00341082 -0.229876 1.0848e-05  -0.00275493 -0.229563 8.31485e-06  -0.00367045 -0.248286 -9.0003e-06  0.00250578 -0.248577 -1.8239e-05  0.00281453 -0.242388 -7.31647e-06  -0.0036726 -0.248257 -1.14441e-05  -0.00336695 -0.242074 -2.35438e-06  0.00280523 -0.242373 -1.00136e-05  -0.00336885 -0.242058 -3.69549e-06  0.000942484 -0.00200033 0.00091368  0 0 0  0.00138327 -0.00223535 0.00160369  0.000456057 -0.000962496 0.000667781  0 0 0  0.00099507 -0.00182134 0.00122444  0.00032147 -0.000703871 0.00050959  0 0 0  0.000471957 -0.000869036 0.000911832  0.000333555 -0.000622511 0.000696018  0.0027405 -0.00602502 0.00143823  0.00390038 -0.00630873 0.00245239  0.00246033 -0.00439316 0.00161213  0.00284556 -0.00569081 0.00186914  0.00177453 -0.00382179 0.00122872  0.00256857 -0.00411755 0.00211959  0.0018619 -0.00357026 0.00161685  0.00474569 -0.0113753 0.00160944  0.00656465 -0.0115711 0.00268421  0.00512555 -0.0092054 0.00204614  0.00483656 -0.0109403 0.00203653  0.00374928 -0.00854719 0.00155526  0.00525492 -0.00880009 0.00261694  0.00385296 -0.00816572 0.00198998  0.00659209 -0.0178056 0.00158536  0.00897056 -0.017916 0.00262709  0.00772274 -0.0150784 0.00212809  0.00664663 -0.0173254 0.00198442  0.00569925 -0.0144508 0.00161132  0.00780582 -0.0146073 0.00267647  0.00577077 -0.0139954 0.002027  0.00819081 -0.0252296 0.00148109  0.0110754 -0.0252947 0.00245091  0.0100208 -0.0219685 0.00203803  0.00821465 -0.0247416 0.0018492  0.00742328 -0.0213875 0.00153893  0.0100607 -0.0214791 0.002547  0.00746149 -0.0209073 0.00192347  0.00953829 -0.0335636 0.00134972  0.0128888 -0.0336167 0.00223362  0.012009 -0.0298198 0.00188011  0.0095439 -0.0330927 0.00168429  0.00889522 -0.029278 0.00141758  0.0120175 -0.0293421 0.0023447  0.00890827 -0.0288047 0.00176859  0.0106534 -0.0427163 0.00121254  0.0144318 -0.0427771 0.0020076  0.0137051 -0.0385466 0.00169927  0.0106485 -0.042277 0.00151302  0.0101254 -0.0380321 0.00128117  0.0136934 -0.0380969 0.00212118  0.0101233 -0.0375852 0.001599  0.0115535 -0.0525902 0.00107872  0.0157152 -0.0526705 0.00178565  0.015125 -0.0480487 0.00151759  0.0115411 -0.0521889 0.00134823  0.0111307 -0.0475568 0.00114536  0.0151051 -0.0476362 0.00189503  0.011121 -0.0471457 0.00142999  0.0122534 -0.0630912 0.000951439  0.0167577 -0.0631979 0.00157316  0.0162923 -0.0582304 0.00134373  0.0122373 -0.0627316 0.00118865  0.0119277 -0.0577561 0.00101456  0.0162655 -0.0578594 0.00167771  0.0119138 -0.0573851 0.00126773  0.0127662 -0.0741322 0.000833124  0.0175765 -0.0742647 0.00137427  0.0172238 -0.0689968 0.00117838  0.0127491 -0.0738136 0.00104092  0.0125343 -0.0685391 0.000891268  0.0171933 -0.0686675 0.00147276  0.0125157 -0.0682083 0.00111347  0.0131108 -0.0856285 0.000721663  0.0181849 -0.0857868 0.00118892  0.0179352 -0.0802611 0.00102425  0.0130925 -0.0853482 0.00090383  0.0129598 -0.0798166 0.00077635  0.0179051 -0.0799723 0.00128035  0.0129406 -0.0795276 0.000970587  0.0133003 -0.0974988 0.000618517  0.0186023 -0.0976821 0.00101732  0.0184486 -0.0919408 0.000881612  0.0132828 -0.0972562 0.000773251  0.0132256 -0.0915094 0.000668913  0.0184166 -0.0916902 0.00110191  0.013206 -0.091258 0.000837147  0.0133516 -0.109673 0.000522852  0.0188488 -0.109879 0.000860468  0.0187768 -0.103959 0.000749528  0.013334 -0.109466 0.000654787  0.0133435 -0.10354 0.000570029  0.0187471 -0.103745 0.000937134  0.0133246 -0.103326 0.000713229  0.0132806 -0.122084 0.000435859  0.01894 -0.122309 0.000715166  0.0189428 -0.116248 0.000627279  0.0132619 -0.121908 0.000545517  0.0133317 -0.115841 0.000478864  0.0189136 -0.116066 0.000785798  0.0133121 -0.115659 0.000599042  0.0130996 -0.134672 0.000355989  0.0188926 -0.134915 0.000583902  0.0189612 -0.128742 0.000518203  0.0130814 -0.134525 0.000446677  0.0132029 -0.128347 0.000395387  0.0189325 -0.128592 0.000647217  0.0131848 -0.128196 0.000494957  0.0128236 -0.147383 0.000285238  0.0187244 -0.147641 0.000465691  0.0188485 -0.141386 0.000416994  0.0128052 -0.147262 0.000356197  0.0129732 -0.141003 0.000320345  0.0188231 -0.141263 0.000522524  0.0129544 -0.140878 0.000401035  0.0124669 -0.160167 0.000222355  0.0184531 -0.160437 0.000360832  0.0186284 -0.154129 0.000328928  0.0124505 -0.160069 0.000278801  0.0126555 -0.153755 0.000252098  0.0186026 -0.15403 0.000412405  0.0126379 -0.153657 0.000316694  0.0120425 -0.172983 0.000168383  0.0180962 -0.173264 0.000270978  0.0183098 -0.166925 0.000250429  0.012027 -0.172906 0.000209942  0.0122643 -0.166562 0.000194162  0.0182846 -0.166848 0.000313804  0.0122459 -0.166484 0.000243008  0.0115607 -0.185795 0.000121117  0.0176656 -0.186085 0.00019294  0.0179105 -0.179733 0.00018397  0.0115485 -0.185735 0.000150904  0.0118103 -0.179381 0.000143051  0.0178893 -0.179675 0.000229463  0.0117936 -0.179322 0.000178769  0.0110388 -0.198573 8.13901e-05  0.0171745 -0.198869 0.000128746  0.0174475 -0.192522 0.000126809  0.011025 -0.198528 0.000103652  0.0113058 -0.19218 0.000100225  0.0174279 -0.19248 0.000159144  0.011291 -0.192135 0.000125423  0.0104806 -0.211292 4.89652e-05  0.0166407 -0.21159 7.67708e-05  0.0169301 -0.205265 8.1569e-05  0.0104682 -0.211257 6.17355e-05  0.0107644 -0.204931 6.46114e-05  0.0169139 -0.205236 0.000102744  0.0107505 -0.204901 8.03918e-05  0.00989747 -0.223935 2.35438e-05  0.0160706 -0.22423 3.68506e-05  0.0163782 -0.21794 4.53591e-05  0.00988698 -0.223907 2.94e-05  0.0101917 -0.217613 3.56436e-05  0.0163608 -0.217919 5.59688e-05  0.0101814 -0.217591 4.48227e-05  0.00929737 -0.236483 1.63913e-06  0.0154793 -0.236781 1.96695e-06  0.0157919 -0.230531 1.55866e-05  0.00928712 -0.23646 3.27826e-07  0.00959945 -0.230209 1.2964e-05  0.0157773 -0.230515 1.9297e-05  0.009588 -0.230193 1.51992e-05  0.00869942 -0.24893 -2.02507e-05  0.0148821 -0.249233 -3.24398e-05  0.0151944 -0.243032 -1.07288e-05  0.00868988 -0.248902 -2.8342e-05  0.00899744 -0.242709 -1.01477e-05  0.0151806 -0.243018 -1.53631e-05  0.00898576 -0.242694 -1.37985e-05  0.00178993 -0.00307429 0.00146928  0 0 0  0.00245371 -0.00373662 0.00230919  0.000823304 -0.00195563 0.000967741  0 0 0  0.00186773 -0.00284791 0.00196327  0.000605077 -0.00135684 0.000815958  0 0 0  0.00084012 -0.00181705 0.00131008  0.000621907 -0.0012455 0.00110908  0.00498515 -0.00752449 0.00232282  0.00656977 -0.00815713 0.00355169  0.00433931 -0.00623941 0.002336  0.00513464 -0.00712979 0.00301105  0.00330171 -0.0051797 0.00197804  0.00447185 -0.00588077 0.00306101  0.00342895 -0.00486875 0.00259592  0.00832939 -0.012841 0.00261822  0.0105229 -0.0132886 0.00392711  0.00844964 -0.0110688 0.00298345  0.00845096 -0.0123583 0.00331336  0.00668576 -0.0100492 0.0025214  0.00860015 -0.0105903 0.00380994  0.00683001 -0.00961012 0.00322124  0.0113643 -0.0191529 0.00259861  0.0140598 -0.0194943 0.00387527  0.0122418 -0.0167702 0.00312778  0.0114321 -0.0186408 0.00325483  0.00989306 -0.0158556 0.00263345  0.0123409 -0.0162522 0.0039345  0.00998613 -0.0153627 0.00331149  0.0140364 -0.0264735 0.00243995  0.0172017 -0.0267622 0.00363369  0.0156321 -0.023514 0.0030145  0.0140599 -0.0259702 0.00304624  0.012746 -0.0226795 0.00252983  0.0156792 -0.0229989 0.00376889  0.012789 -0.0221777 0.00316212  0.0163578 -0.0347301 0.00222781  0.0199646 -0.0349944 0.00331895  0.0186201 -0.0312533 0.00278986  0.0163524 -0.0342519 0.00277968  0.0152405 -0.0304801 0.00233802  0.0186293 -0.030763 0.00348245  0.0152478 -0.0299953 0.00291671  0.0183467 -0.0438217 0.00200045  0.0223612 -0.0440804 0.00298207  0.0212229 -0.0398912 0.0025261  0.018325 -0.0433784 0.00249603  0.0173941 -0.0391663 0.00211507  0.0212067 -0.0394362 0.00315104  0.017378 -0.0387146 0.00263838  0.0200258 -0.0536475 0.00177726  0.0244079 -0.0539078 0.00265129  0.0234565 -0.0493199 0.0022555  0.019995 -0.0532445 0.00221956  0.0192245 -0.0486366 0.00188801  0.0234275 -0.0489062 0.00281483  0.0191973 -0.0482234 0.0023569  0.0214143 -0.0641053 0.00156495  0.0261261 -0.0643746 0.00233495  0.0253452 -0.0594352 0.00199509  0.0213788 -0.0637467 0.00195593  0.0207559 -0.058791 0.00166994  0.0253075 -0.0590659 0.00249009  0.0207217 -0.0584195 0.00208543  0.0225327 -0.0751082 0.00136539  0.0275334 -0.0753862 0.00203662  0.0269085 -0.0701439 0.00174806  0.022495 -0.0747892 0.00170647  0.0220063 -0.0695328 0.00146383  0.0268683 -0.0698159 0.00218268  0.0219687 -0.0692035 0.00182895  0.0234013 -0.0865672 0.0011799  0.0286529 -0.0868541 0.00176035  0.0281695 -0.0813535 0.00151679  0.0233638 -0.0862889 0.00147568  0.0229977 -0.0807742 0.00127137  0.0281289 -0.0810659 0.00189562  0.0229591 -0.0804853 0.00158903  0.0240407 -0.0984043 0.00100937  0.0295084 -0.0987007 0.00150184  0.0291544 -0.0929809 0.00130311  0.0240041 -0.0981636 0.00126155  0.0237497 -0.0924321 0.00109267  0.0291123 -0.092733 0.00162803  0.0237119 -0.0921822 0.00136539  0.0244738 -0.110544 0.000850856  0.0301208 -0.110847 0.00126638  0.0298839 -0.10495 0.00110602  0.024438 -0.11034 0.0010632  0.0242826 -0.10443 0.00092867  0.0298437 -0.104738 0.00138123  0.0242453 -0.104217 0.00116178  0.0247188 -0.122927 0.000706136  0.0305176 -0.123232 0.00104965  0.0303856 -0.11719 0.000923693  0.0246851 -0.122751 0.000882342  0.0246195 -0.116697 0.000776291  0.0303454 -0.117013 0.00115426  0.0245827 -0.116518 0.000971481  0.0247982 -0.135483 0.000574827  0.0307174 -0.135795 0.000854313  0.0306762 -0.129641 0.000759304  0.0247661 -0.135338 0.000719175  0.0247786 -0.129174 0.000638634  0.0306405 -0.129494 0.000947833  0.0247457 -0.129025 0.000799522  0.0247288 -0.148166 0.00045678  0.0307448 -0.148478 0.000678048  0.0307854 -0.142242 0.000610411  0.0246997 -0.148048 0.000571698  0.0247824 -0.141801 0.000514865  0.0307515 -0.142123 0.00076288  0.024749 -0.141678 0.000643581  0.0245345 -0.160923 0.000353545  0.0306208 -0.161237 0.000521511  0.0307343 -0.154946 0.000478894  0.024509 -0.160828 0.000441432  0.0246465 -0.154526 0.000403076  0.0307004 -0.154849 0.000597447  0.0246186 -0.154429 0.000504956  0.0242326 -0.173716 0.000263482  0.0303707 -0.174028 0.000387818  0.0305433 -0.167704 0.000362009  0.0242074 -0.173638 0.000330731  0.0243971 -0.167307 0.000307322  0.0305109 -0.167629 0.00045231  0.0243697 -0.16723 0.000384301  0.02384 -0.186504 0.000187814  0.030014 -0.186816 0.000274077  0.0302322 -0.180479 0.000262946  0.0238175 -0.186445 0.000234559  0.0240467 -0.1801 0.000223309  0.0302045 -0.180423 0.000329003  0.0240219 -0.180043 0.000279576  0.0233746 -0.199261 0.000124723  0.0295694 -0.199571 0.000180006  0.0298254 -0.193237 0.000181526  0.0233543 -0.199216 0.000156611  0.0236158 -0.192877 0.000154495  0.0298021 -0.193197 0.000225306  0.0235944 -0.192834 0.000192031  0.0228536 -0.211961 7.45356e-05  0.029058 -0.212267 0.00010851  0.0293422 -0.205954 0.000115365  0.0228348 -0.211926 9.25064e-05  0.0231221 -0.205609 9.78708e-05  0.0293195 -0.205925 0.000142395  0.0231013 -0.205578 0.000122368  0.0222902 -0.224586 3.62992e-05  0.0284963 -0.224888 5.13941e-05  0.0288038 -0.218606 6.38664e-05  0.022274 -0.224558 4.49121e-05  0.0225756 -0.218272 5.50151e-05  0.0287814 -0.218586 7.87228e-05  0.0225592 -0.218252 6.79046e-05  0.0216992 -0.237127 5.0962e-06  0.0279064 -0.237428 7.80821e-06  0.0282257 -0.231181 2.50936e-05  0.0216842 -0.237105 3.91901e-06  0.0219982 -0.230855 2.0653e-05  0.0282054 -0.231166 2.97129e-05  0.0219805 -0.230841 2.43634e-05  0.0211015 -0.249594 -2.45571e-05  0.0273039 -0.249901 -3.33339e-05  0.0276258 -0.243683 -8.64267e-06  0.0210869 -0.249571 -3.46899e-05  0.0214009 -0.243357 -1.07884e-05  0.0276048 -0.243669 -1.12057e-05  0.021383 -0.243343 -1.38581e-05  0.00337505 -0.00541008 0.00201303  0 0 0  0.00494355 -0.0067789 0.00305019  0.00207902 -0.00450611 0.00129578  0 0 0  0.00343397 -0.0050891 0.00267155  0.00114695 -0.002882 0.00110787  0 0 0  0.00204059 -0.00425315 0.00174859  0.00115214 -0.00270784 0.00149183  0.00813076 -0.00985628 0.00316727  0.0102597 -0.0106598 0.00466403  0.00760329 -0.00906748 0.0030762  0.00827274 -0.00936097 0.00409736  0.00577396 -0.0075748 0.00269848  0.0076606 -0.00857657 0.00402933  0.00588508 -0.00715423 0.00353129  0.0126577 -0.0149034 0.00359026  0.0152695 -0.0155414 0.00517382  0.0126717 -0.0135179 0.00392261  0.0127879 -0.0143544 0.00454476  0.010436 -0.0122418 0.00344875  0.0128013 -0.0129573 0.00501642  0.0105818 -0.0117192 0.00440402  0.0167931 -0.0210192 0.00358418  0.0198941 -0.0215643 0.00511485  0.0175279 -0.0189722 0.00411871  0.0168723 -0.0204704 0.0044933  0.0147803 -0.0178133 0.00362229  0.017637 -0.0184051 0.00519125  0.014884 -0.0172693 0.00455907  0.0204887 -0.0281929 0.00337708  0.0240549 -0.028688 0.00480436  0.0219627 -0.0255338 0.00397599  0.0205248 -0.0276697 0.00421952  0.0186963 -0.0244678 0.00349608  0.0220343 -0.0249939 0.0049794  0.0187524 -0.0239387 0.00437433  0.0237475 -0.036332 0.00308987  0.0277436 -0.0367984 0.00438941  0.0259245 -0.0331286 0.00368536  0.023753 -0.0358439 0.00385673  0.0221723 -0.0321375 0.00323862  0.0259588 -0.032626 0.00460362  0.0221918 -0.0316407 0.00404291  0.0265813 -0.0453249 0.00277731  0.030968 -0.0457736 0.00394504  0.0294032 -0.0416401 0.00333953  0.0265664 -0.044879 0.00346445  0.0252178 -0.0407167 0.00293422  0.0294136 -0.0411831 0.00416744  0.0252102 -0.0402598 0.00366196  0.0290096 -0.0550615 0.00246748  0.0337466 -0.0554957 0.00350647  0.0324145 -0.0509576 0.0029844  0.0289841 -0.0546597 0.00308082  0.0278449 -0.0500948 0.00262147  0.0324112 -0.0505462 0.00372387  0.0278242 -0.0496809 0.00327161  0.0310581 -0.0654395 0.00217247  0.0361029 -0.0658661 0.00308688  0.0349889 -0.0609716 0.00263956  0.031027 -0.065083 0.00271142  0.0300813 -0.0601645 0.00231743  0.034977 -0.0606059 0.00329386  0.0300504 -0.059795 0.00289331  0.0327505 -0.076366 0.00189435  0.0380623 -0.0767841 0.00269189  0.0371513 -0.0715831 0.00231338  0.0327156 -0.0760513 0.00236537  0.0319484 -0.0708286 0.0020307  0.0371319 -0.0712612 0.00288633  0.0319136 -0.0705027 0.00253572  0.034113 -0.0877549 0.00163445  0.0396553 -0.0881642 0.00232415  0.0389274 -0.082701 0.00200632  0.0340774 -0.0874802 0.00204176  0.0334715 -0.0819964 0.00176233  0.0389023 -0.0824209 0.00250472  0.0334351 -0.0817118 0.0022009  0.0351707 -0.0995236 0.00139561  0.0409087 -0.0999244 0.00198108  0.0403463 -0.0942423 0.00172243  0.0351369 -0.0992879 0.00174263  0.0346798 -0.0935857 0.00151238  0.0403223 -0.0940003 0.00215015  0.0346435 -0.0933399 0.00188957  0.0359541 -0.111602 0.00117451  0.0418513 -0.111994 0.00166795  0.0414411 -0.10613 0.00146058  0.0359198 -0.1114 0.00146826  0.0355961 -0.105517 0.00128296  0.0414169 -0.105924 0.00182211  0.0355607 -0.105308 0.00160208  0.0364867 -0.12392 0.000973016  0.0425119 -0.124301 0.00138152  0.0422382 -0.118293 0.00121975  0.036454 -0.12375 0.00121517  0.0362518 -0.117724 0.00107163  0.0422156 -0.11812 0.0015211  0.0362157 -0.117548 0.00133817  0.0367942 -0.136421 0.000790954  0.0429188 -0.136792 0.00112107  0.0427701 -0.130668 0.000999689  0.0367631 -0.13628 0.000987709  0.0366687 -0.13014 0.000879258  0.0427454 -0.130527 0.00124657  0.0366355 -0.129995 0.00109765  0.0369034 -0.149047 0.000627309  0.0431006 -0.149407 0.00088799  0.0430616 -0.1432 0.000803918  0.0368717 -0.148934 0.000782445  0.0368726 -0.142711 0.000707477  0.0430362 -0.143086 0.00100084  0.0368403 -0.142592 0.000881985  0.0368376 -0.161755 0.000482947  0.0430861 -0.162103 0.000680909  0.0431378 -0.155836 0.000629187  0.0368114 -0.161665 0.000601918  0.0368917 -0.155384 0.000552565  0.0431161 -0.155748 0.000781104  0.0368624 -0.15529 0.000689447  0.0366247 -0.174502 0.000357807  0.0429027 -0.174838 0.000503495  0.0430362 -0.168534 0.000473917  0.0365994 -0.174429 0.000446796  0.0367494 -0.168114 0.000417471  0.0430133 -0.168467 0.00058879  0.0367219 -0.168043 0.000520393  0.0362852 -0.187247 0.000251919  0.0425756 -0.187574 0.000352308  0.042774 -0.181256 0.000343651  0.036263 -0.187194 0.000312731  0.0364716 -0.180865 0.000302911  0.0427573 -0.181207 0.000425249  0.0364456 -0.180813 0.000376731  0.0358462 -0.199971 0.000166267  0.0421324 -0.200283 0.000229731  0.0423861 -0.193969 0.000234753  0.0358269 -0.199928 0.000206813  0.0360773 -0.193603 0.00020802  0.042367 -0.193934 0.000289068  0.0360565 -0.193565 0.00025712  0.0353303 -0.212639 0.00010094  0.0416031 -0.212946 0.000138104  0.0418947 -0.206644 0.000149578  0.0353117 -0.212608 0.000122204  0.035598 -0.206302 0.000131965  0.041878 -0.20662 0.000181496  0.0355778 -0.206274 0.000162199  0.034761 -0.225242 5.21839e-05  0.0410132 -0.225539 6.88583e-05  0.0413337 -0.219266 8.52048e-05  0.0347428 -0.225217 6.18994e-05  0.0350523 -0.21894 7.44164e-05  0.0413129 -0.219252 0.000101492  0.0350325 -0.218921 8.92729e-05  0.0341611 -0.237774 1.35601e-05  0.0403895 -0.238068 2.26349e-05  0.0407231 -0.231824 3.83854e-05  0.0341425 -0.237751 1.42008e-05  0.0344644 -0.231504 3.1203e-05  0.0407038 -0.231809 4.30793e-05  0.0344443 -0.231491 3.6478e-05  0.0335493 -0.250252 -2.17557e-05  0.0397656 -0.25055 -1.7181e-05  0.0401001 -0.244325 3.09944e-06  0.03353 -0.250228 -2.85655e-05  0.0338564 -0.244007 -3.02494e-06  0.0400784 -0.244312 1.78814e-06  0.0338359 -0.243992 -5.33462e-06  -0.00504489 -0.00696809 -0.00172713  -0.00222553 -0.00449743 -0.000621974  0 0 0  -0.0033127 -0.00534903 -0.000972539  0 0 0  -0.00224195 -0.00378116 -0.00128159  -0.000782132 -0.0018632 -0.000456125  0 0 0  -0.00219424 -0.00437604 -0.000963032  -0.00331252 -0.00519023 -0.00150177  -0.0011347 -0.00279134 -0.000528902  0 0 0  -0.00078392 -0.00179867 -0.000707984  -0.00113084 -0.00271169 -0.000819027  -0.0101634 -0.0108715 -0.00272572  -0.00767235 -0.00906769 -0.00150228  -0.00796184 -0.00980385 -0.00156179  -0.00617895 -0.00829714 -0.00205636  -0.00411272 -0.00617801 -0.00113136  -0.00764304 -0.00881512 -0.0023129  -0.00798811 -0.00953583 -0.00238955  -0.00564952 -0.00753501 -0.00131616  -0.00414549 -0.0059943 -0.00173771  -0.00565976 -0.00732007 -0.00202271  -0.0151755 -0.015543 -0.00313425  -0.0126511 -0.0133968 -0.00196457  -0.0125006 -0.0146999 -0.00181442  -0.0101778 -0.0133587 -0.00236717  -0.0081574 -0.010973 -0.00148523  -0.012675 -0.0130796 -0.00299263  -0.0125433 -0.0143854 -0.00274724  -0.0102496 -0.0121277 -0.00172448  -0.00820503 -0.0107127 -0.00225917  -0.010288 -0.0118395 -0.0026232  -0.0199987 -0.021221 -0.00314388  -0.0175878 -0.0185718 -0.00210109  -0.0168087 -0.0205578 -0.00183341  -0.013921 -0.0193822 -0.00237364  -0.0120441 -0.0165325 -0.00158852  -0.0176256 -0.0182416 -0.00317296  -0.0168397 -0.0202386 -0.00275713  -0.0146902 -0.0174906 -0.00184423  -0.0120843 -0.0162418 -0.00239497  -0.0147299 -0.0171794 -0.0027827  -0.0244791 -0.0279415 -0.00295535  -0.0222577 -0.0247688 -0.00203985  -0.0208055 -0.0274205 -0.00172856  -0.0173786 -0.0263987 -0.00222653  -0.0156698 -0.02306 -0.00154015  -0.0222852 -0.0244527 -0.00306338  -0.0208139 -0.0271156 -0.00258982  -0.018847 -0.0238577 -0.00179049  -0.0156853 -0.0227673 -0.00231043  -0.0188687 -0.0235526 -0.00268766  -0.0285826 -0.0356185 -0.00268447  -0.0265684 -0.0319585 -0.00188598  -0.0244728 -0.0352157 -0.00157049  -0.0205551 -0.0343404 -0.00201878  -0.0190093 -0.030536 -0.0014208  -0.0265793 -0.031666 -0.00282604  -0.0244603 -0.0349332 -0.00235167  -0.0226781 -0.0311975 -0.00165325  -0.0190011 -0.030258 -0.00212669  -0.0226778 -0.0309119 -0.00247604  -0.0323164 -0.0441496 -0.00239173  -0.0305027 -0.0400485 -0.00169587  -0.0278165 -0.0438486 -0.00139916  -0.0234703 -0.0431106 -0.00179693  -0.0220695 -0.0388823 -0.00127521  -0.0304947 -0.039784 -0.00253978  -0.027791 -0.0435919 -0.00209445  -0.0261828 -0.0394231 -0.00148574  -0.0220445 -0.0386253 -0.00190744  -0.0261639 -0.0391624 -0.00222313  -0.0357007 -0.0534357 -0.00210634  -0.0340663 -0.0489406 -0.0015021  -0.0308581 -0.0532236 -0.00123036  -0.0261394 -0.0526138 -0.00157949  -0.0248702 -0.0480062 -0.00112668  -0.0340508 -0.0487053 -0.00224784  -0.0308238 -0.052994 -0.00184214  -0.0293729 -0.0484377 -0.00131395  -0.0248339 -0.0477742 -0.00168654  -0.0293429 -0.0482043 -0.00196657  -0.0387617 -0.0633839 -0.00183791  -0.037292 -0.0585393 -0.00131604  -0.0336187 -0.0632493 -0.00107211  -0.0285804 -0.0627589 -0.00137407  -0.0274284 -0.0578159 -0.000984728  -0.0372692 -0.0583324 -0.00196886  -0.0335814 -0.0630455 -0.00160554  -0.032271 -0.0581485 -0.00114998  -0.0273881 -0.0576096 -0.00147411  -0.032236 -0.0579421 -0.00172171  -0.0415212 -0.073902 -0.00158688  -0.0402021 -0.0687577 -0.00114208  -0.0361203 -0.0738399 -0.000926346  -0.0308106 -0.0734593 -0.00118604  -0.029763 -0.0682242 -0.000853598  -0.0401771 -0.0685756 -0.0017097  -0.0360829 -0.0736607 -0.0013867  -0.0348991 -0.0684684 -0.000997514  -0.0297203 -0.0680434 -0.00127766  -0.034863 -0.0682864 -0.00149319  -0.0440027 -0.0849107 -0.00135851  -0.042821 -0.0795064 -0.000981569  -0.0383834 -0.0849139 -0.00079152  -0.0328419 -0.0846363 -0.00101325  -0.0318899 -0.0791498 -0.000732988  -0.0427953 -0.0793495 -0.00147146  -0.0383468 -0.0847573 -0.00118613  -0.0372802 -0.07931 -0.000857413  -0.0318509 -0.0789911 -0.00109786  -0.037244 -0.0791523 -0.00128448  -0.0462257 -0.0963357 -0.00115052  -0.0451691 -0.0907102 -0.000837028  -0.0404222 -0.0963986 -0.000670016  -0.0346897 -0.0962128 -0.000858247  -0.0338264 -0.0905133 -0.000622958  -0.0451446 -0.0905747 -0.00125247  -0.0403882 -0.0962629 -0.00100344  -0.0394279 -0.0905977 -0.000730008  -0.0337882 -0.0903766 -0.000933826  -0.0393941 -0.0904613 -0.00109309  -0.0482069 -0.108107 -0.000961214  -0.0472661 -0.102296 -0.000703901  -0.0422548 -0.108219 -0.000559568  -0.0363666 -0.108121 -0.000715494  -0.0355841 -0.102243 -0.000523627  -0.0472451 -0.102182 -0.00105327  -0.042224 -0.108105 -0.000837147  -0.0413629 -0.102259 -0.000613302  -0.0355489 -0.102127 -0.000784427  -0.0413308 -0.102145 -0.000919104  -0.0499692 -0.120157 -0.00078842  -0.0491338 -0.114195 -0.000583202  -0.0438969 -0.120318 -0.00045839  -0.037883 -0.120294 -0.000587136  -0.0371743 -0.114273 -0.000433147  -0.0491154 -0.1141 -0.000873327  -0.0438703 -0.120222 -0.000687391  -0.0430967 -0.114228 -0.000507474  -0.0371433 -0.114176 -0.00064975  -0.0430701 -0.114132 -0.000761479  -0.0515252 -0.13243 -0.000635386  -0.0507898 -0.126348 -0.000475854  -0.0453626 -0.13263 -0.000368923  -0.0392517 -0.132673 -0.000472426  -0.0386143 -0.126539 -0.000352174  -0.050771 -0.126269 -0.000710398  -0.0453379 -0.13255 -0.00055328  -0.0446497 -0.12644 -0.000413269  -0.0385852 -0.126459 -0.000528365  -0.0446246 -0.12636 -0.000618577  -0.0528985 -0.144869 -0.000498384  -0.0522461 -0.138693 -0.000377744  -0.0466681 -0.145103 -0.000289708  -0.0404849 -0.145204 -0.000371724  -0.0399088 -0.138985 -0.000279605  -0.0522345 -0.13863 -0.000564933  -0.0466454 -0.145038 -0.000433922  -0.046034 -0.138838 -0.000328481  -0.0398843 -0.138921 -0.000419229  -0.0460109 -0.138774 -0.000491887  -0.0541015 -0.157423 -0.000379145  -0.0535297 -0.151184 -0.000294119  -0.0478282 -0.157688 -0.000220448  -0.0415964 -0.157838 -0.000279874  -0.0410733 -0.15156 -0.000216275  -0.0535207 -0.151134 -0.000437677  -0.0478091 -0.157632 -0.000330389  -0.0472641 -0.151373 -0.00025323  -0.0410545 -0.151509 -0.000323176  -0.047246 -0.151323 -0.00037998  -0.0551553 -0.170048 -0.000279158  -0.0546565 -0.163765 -0.000217378  -0.0488565 -0.170336 -0.000161201  -0.0425935 -0.170529 -0.000205487  -0.042124 -0.164217 -0.000161588  -0.0546458 -0.163727 -0.000326365  -0.0488408 -0.170292 -0.000240773  -0.0483558 -0.163995 -0.000189841  -0.0421064 -0.164177 -0.000241727  -0.048341 -0.163955 -0.000282854  -0.0560806 -0.182709 -0.000193238  -0.0556421 -0.176404 -0.000155628  -0.0497732 -0.183016 -0.00011155  -0.0434966 -0.183244 -0.000141412  -0.0430706 -0.176914 -0.00011459  -0.0556309 -0.176376 -0.000232309  -0.0497615 -0.182981 -0.000167698  -0.0493264 -0.176663 -0.000135362  -0.043056 -0.176884 -0.000172138  -0.049315 -0.176635 -0.000202119  -0.0568955 -0.195371 -0.00012511  -0.0565076 -0.18906 -0.000105113  -0.0505967 -0.195689 -7.31349e-05  -0.0443151 -0.195945 -9.10461e-05  -0.043927 -0.189618 -7.77543e-05  -0.0565007 -0.18904 -0.000157028  -0.0505857 -0.195664 -0.000108659  -0.050194 -0.189345 -9.14037e-05  -0.0439157 -0.189596 -0.000115722  -0.0501835 -0.189323 -0.000136286  -0.0576243 -0.208005 -7.20322e-05  -0.0572762 -0.201705 -6.68764e-05  -0.0513413 -0.208336 -4.27365e-05  -0.0450668 -0.208608 -5.33164e-05  -0.0447075 -0.202297 -4.77731e-05  -0.0572677 -0.201693 -9.80198e-05  -0.0513308 -0.208313 -6.30617e-05  -0.0509758 -0.202007 -5.70118e-05  -0.0446978 -0.202281 -7.11977e-05  -0.050966 -0.201993 -8.41916e-05  -0.058291 -0.220596 -3.62098e-05  -0.0579693 -0.214314 -3.65376e-05  -0.0520277 -0.220928 -2.08914e-05  -0.0457635 -0.221211 -2.34842e-05  -0.0454292 -0.214927 -2.58982e-05  -0.0579641 -0.214306 -5.43594e-05  -0.0520175 -0.22091 -2.99215e-05  -0.0516899 -0.214627 -3.18885e-05  -0.0454197 -0.214917 -3.69251e-05  -0.0516794 -0.214617 -4.53293e-05  -0.058923 -0.23313 -1.13845e-05  -0.0586157 -0.226877 -1.64807e-05  -0.0526795 -0.233459 -6.4373e-06  -0.0464237 -0.233747 -1.78814e-06  -0.0461051 -0.227495 -9.47714e-06  -0.0586088 -0.226869 -2.37525e-05  -0.0526683 -0.233442 -7.89762e-06  -0.0523553 -0.227191 -1.2219e-05  -0.0460978 -0.227486 -1.30534e-05  -0.0523469 -0.227182 -1.75834e-05  -0.0595462 -0.245624 1.15931e-05  -0.0592442 -0.239388 -1.81794e-06  -0.0533147 -0.245947 1.18613e-05  -0.0470679 -0.246225 2.0355e-05  -0.0467536 -0.239999 5.84126e-06  -0.0592351 -0.239379 -5.66244e-07  -0.0533028 -0.245932 1.74344e-05  -0.0529957 -0.239696 1.93715e-06  -0.0467465 -0.23999 8.43406e-06  -0.0529847 -0.239688 4.97699e-06  -0.00163751 -0.00300376 -0.000694185  0 0 0  -0.0011887 -0.0022916 -0.000864506  -0.000408206 -0.000916004 -0.000303984  0 0 0  -0.00165532 -0.00288744 -0.0010727  -0.000553381 -0.00128637 -0.00037846  0 0 0  -0.000412717 -0.000870615 -0.000473589  -0.000557151 -0.00123267 -0.000587046  -0.00466909 -0.00747208 -0.00113001  -0.00348286 -0.00646755 -0.00139681  -0.00221631 -0.00436625 -0.0007644  -0.00471289 -0.00726181 -0.00172934  -0.00305511 -0.0051204 -0.000948071  -0.00224522 -0.00422803 -0.00117812  -0.00308658 -0.00496165 -0.00145823  -0.00800252 -0.0127524 -0.00131303  -0.00613588 -0.0117718 -0.00160512  -0.00476053 -0.00920667 -0.00100705  -0.00804755 -0.0124849 -0.00198781  -0.00634035 -0.00999111 -0.00124824  -0.00480348 -0.00899431 -0.00153223  -0.00638813 -0.00975557 -0.00189909  -0.0111911 -0.0189414 -0.00132367  -0.00870356 -0.0180621 -0.00159875  -0.00740904 -0.0150457 -0.00107345  -0.0112152 -0.018654 -0.00198856  -0.00962231 -0.0157145 -0.00133267  -0.00744072 -0.0147916 -0.0016183  -0.00966033 -0.0154423 -0.00200927  -0.014147 -0.0260813 -0.00124326  -0.0110886 -0.0253117 -0.00149423  -0.00991249 -0.0218373 -0.00103647  -0.0141451 -0.0257953 -0.00186163  -0.0126982 -0.0223843 -0.00129026  -0.00991887 -0.0215684 -0.00155446  -0.0127103 -0.0221039 -0.00193483  -0.0168664 -0.0341178 -0.00112656  -0.0132983 -0.0334532 -0.00135085  -0.0122282 -0.0295391 -0.00095138  -0.0168447 -0.0338449 -0.00168654  -0.0155352 -0.0299817 -0.00118747  -0.0122141 -0.0292744 -0.0014236  -0.015522 -0.0297104 -0.00177678  -0.0193681 -0.0429646 -0.00100163  -0.015348 -0.0424039 -0.00119731  -0.0143703 -0.0380804 -0.000852525  -0.0193318 -0.042712 -0.00149715  -0.018143 -0.0384325 -0.00106418  -0.0143416 -0.0378308 -0.00127435  -0.018114 -0.0381797 -0.00159213  -0.0216666 -0.0525306 -0.000878394  -0.0172545 -0.0520709 -0.00105074  -0.0163557 -0.0473792 -0.000750512  -0.0216246 -0.0523053 -0.001315  -0.0205414 -0.0476518 -0.000939369  -0.0163181 -0.0471512 -0.00112298  -0.0205017 -0.0474218 -0.00140551  -0.0237832 -0.0627354 -0.000763446  -0.0190303 -0.0623672 -0.000913382  -0.0181979 -0.0573492 -0.000654191  -0.0237384 -0.0625316 -0.00114343  -0.0227464 -0.0575477 -0.000819981  -0.0181582 -0.0571437 -0.000980824  -0.0227027 -0.057341 -0.00122756  -0.0257274 -0.0734855 -0.000658453  -0.020682 -0.0732085 -0.000785172  -0.0199121 -0.0679054 -0.000566363  -0.0256841 -0.0733065 -0.000985265  -0.0247748 -0.0680351 -0.000709742  -0.0198708 -0.0677227 -0.000847816  -0.0247308 -0.0678533 -0.0010629  -0.0275156 -0.0847099 -0.000561684  -0.0222191 -0.084514 -0.00067094  -0.0215036 -0.0789652 -0.000485688  -0.0274734 -0.0845531 -0.000842422  -0.0266402 -0.0790328 -0.000608981  -0.0214659 -0.0788059 -0.000726938  -0.0265973 -0.0788743 -0.000912458  -0.0291545 -0.0963294 -0.000475168  -0.0236496 -0.0962097 -0.000565231  -0.0229845 -0.0904528 -0.00041157  -0.0291167 -0.0961936 -0.000710785  -0.0283509 -0.0904636 -0.00051713  -0.0229466 -0.0903157 -0.000617325  -0.0283122 -0.0903266 -0.00077489  -0.0306573 -0.108274 -0.000395715  -0.0249746 -0.108224 -0.000470787  -0.0243576 -0.102297 -0.000345051  -0.0306227 -0.108159 -0.000593483  -0.0299212 -0.102255 -0.000434458  -0.0243239 -0.102179 -0.000517637  -0.0298866 -0.102137 -0.00065133  -0.0320312 -0.12048 -0.000324279  -0.0262036 -0.120493 -0.000387043  -0.0256296 -0.114427 -0.000285178  -0.0320002 -0.120383 -0.000487506  -0.0313592 -0.114337 -0.000358641  -0.0256009 -0.114328 -0.000427961  -0.0313278 -0.114239 -0.000538856  -0.0332862 -0.13289 -0.000261068  -0.0273409 -0.132957 -0.000308752  -0.0268089 -0.126784 -0.000230938  -0.0332584 -0.132806 -0.00039205  -0.032672 -0.126653 -0.000292182  -0.0267835 -0.126702 -0.000347257  -0.0326433 -0.126571 -0.000438094  -0.0344294 -0.145445 -0.000204325  -0.0283947 -0.145561 -0.000244021  -0.0279002 -0.139309 -0.000183761  -0.0344059 -0.145376 -0.000306606  -0.03387 -0.139141 -0.000232011  -0.0278784 -0.139242 -0.000276446  -0.033844 -0.139075 -0.000347793  -0.0354722 -0.158099 -0.000154883  -0.0293684 -0.158256 -0.000183702  -0.0289097 -0.151951 -0.000140965  -0.0354517 -0.158044 -0.000232279  -0.0349615 -0.151751 -0.000178546  -0.0288923 -0.151898 -0.000212163  -0.034941 -0.151699 -0.000267833  -0.0364249 -0.170809 -0.000112861  -0.0302727 -0.171002 -0.000133485  -0.0298414 -0.164666 -0.000104964  -0.0364077 -0.170765 -0.000169516  -0.0359576 -0.16444 -0.00013268  -0.0298276 -0.164624 -0.000157475  -0.0359409 -0.164398 -0.000199825  -0.037297 -0.183538 -7.81417e-05  -0.0311098 -0.183758 -9.17912e-05  -0.0307105 -0.177411 -7.36117e-05  -0.0372829 -0.183499 -0.000117362  -0.0368676 -0.177162 -9.48608e-05  -0.030699 -0.177378 -0.000111401  -0.0368536 -0.17713 -0.000141978  -0.0380988 -0.19625 -5.05149e-05  -0.0318911 -0.196492 -5.80549e-05  -0.0315168 -0.190151 -5.01871e-05  -0.0380864 -0.196219 -7.63535e-05  -0.037703 -0.189885 -6.31809e-05  -0.0315068 -0.190128 -7.59661e-05  -0.0376923 -0.189863 -9.47714e-05  -0.0388441 -0.208919 -2.91765e-05  -0.0326233 -0.209181 -3.21269e-05  -0.0322726 -0.202859 -3.05772e-05  -0.0388329 -0.208895 -4.40478e-05  -0.0384777 -0.202579 -3.83258e-05  -0.0322618 -0.202842 -4.53889e-05  -0.0384667 -0.202561 -5.77271e-05  -0.0395398 -0.221529 -1.2517e-05  -0.0333164 -0.221802 -1.37389e-05  -0.03298 -0.215512 -1.51694e-05  -0.0395308 -0.221508 -1.74344e-05  -0.0391955 -0.215221 -1.98185e-05  -0.0329735 -0.215499 -2.18749e-05  -0.0391889 -0.215209 -2.98917e-05  -0.0402026 -0.234065 9.83477e-07  -0.0339763 -0.234345 2.26498e-06  -0.0336547 -0.228092 -3.24845e-06  -0.0401921 -0.234048 2.98023e-07  -0.0398736 -0.227795 -5.96046e-06  -0.0336485 -0.228082 -5.93066e-06  -0.039866 -0.227785 -8.55327e-06  -0.0408475 -0.246534 1.21295e-05  -0.0346208 -0.246801 1.62125e-05  -0.0343046 -0.240592 5.27501e-06  -0.0408373 -0.246517 1.95205e-05  -0.0405228 -0.240297 6.79493e-06  -0.0342982 -0.240582 1.09375e-05  -0.0405147 -0.240287 9.71556e-06  -0.000810072 -0.00199842 -0.000421673  0 0 0  -0.000509925 -0.00167274 -0.000436962  -0.000172839 -0.000547528 -0.000153244  0 0 0  -0.000821158 -0.00190869 -0.000653207  -0.000276968 -0.000683576 -0.000229567  0 0 0  -0.000175957 -0.000513852 -0.000238895  -0.000278655 -0.000644654 -0.000357091  -0.00243041 -0.00607711 -0.000689059  -0.00154337 -0.00554574 -0.000707895  -0.000962749 -0.00351644 -0.000387192  -0.00246067 -0.00590566 -0.00105602  -0.00154644 -0.0038453 -0.00057745  -0.000977576 -0.00340614 -0.000596315  -0.00156906 -0.00372353 -0.000889748  -0.00438407 -0.0114661 -0.000800073  -0.00281829 -0.0108797 -0.000814199  -0.00214675 -0.00824496 -0.000510901  -0.00441396 -0.011236 -0.00121146  -0.00339124 -0.0086261 -0.000761271  -0.00216669 -0.00806463 -0.000777841  -0.00342378 -0.00843254 -0.00115877  -0.00633922 -0.0178771 -0.000803411  -0.00412232 -0.0173195 -0.000807226  -0.00346181 -0.0142008 -0.000543028  -0.00635272 -0.0176166 -0.00120655  -0.00537214 -0.0145392 -0.000810623  -0.00347593 -0.013972 -0.000819206  -0.00539511 -0.0143 -0.00122181  -0.00818443 -0.0252231 -0.00075075  -0.00537884 -0.0247226 -0.000751555  -0.00475866 -0.0211566 -0.000522882  -0.00817746 -0.0249525 -0.00112414  -0.00727677 -0.0214258 -0.000780821  -0.00475824 -0.0209049 -0.000783145  -0.00727999 -0.0211677 -0.00117075  -0.00990891 -0.0334352 -0.000678271  -0.0065769 -0.0330013 -0.000675559  -0.00599843 -0.0290094 -0.000477582  -0.00988597 -0.0331718 -0.0010151  -0.00906014 -0.0292142 -0.000715703  -0.00598413 -0.028755 -0.000715166  -0.00904542 -0.0289541 -0.00107071  -0.0115227 -0.0424363 -0.000600398  -0.00772929 -0.0420731 -0.000597268  -0.00718349 -0.0376842 -0.000425577  -0.011491 -0.0421889 -0.000898898  -0.0107286 -0.0378296 -0.000639409  -0.00715899 -0.0374408 -0.000636399  -0.0107002 -0.0375835 -0.00095582  -0.0130398 -0.0521449 -0.000525653  -0.00884271 -0.0518527 -0.000519723  -0.0083192 -0.0471042 -0.000373453  -0.0130026 -0.0519195 -0.000785917  -0.0122926 -0.0471961 -0.000561774  -0.00828975 -0.0468775 -0.000557035  -0.0122578 -0.0469688 -0.000840724  -0.0144696 -0.0624782 -0.000455201  -0.00991988 -0.0622534 -0.00044927  -0.00941491 -0.0571847 -0.000322878  -0.0144328 -0.0622735 -0.000681221  -0.0137644 -0.0572271 -0.000489116  -0.00938499 -0.0569781 -0.000483334  -0.0137277 -0.0570213 -0.00073269  -0.0158205 -0.0733496 -0.00039053  -0.0109644 -0.073193 -0.000384241  -0.0104766 -0.067842 -0.00027737  -0.0157843 -0.0731691 -0.000585467  -0.0151541 -0.067839 -0.000421852  -0.0104463 -0.0676587 -0.000415117  -0.0151173 -0.0676562 -0.000632256  -0.0170966 -0.0846827 -0.000332236  -0.0119767 -0.0845911 -0.00032568  -0.0115014 -0.078998 -0.000236601  -0.0170617 -0.084525 -0.000498354  -0.016467 -0.0789527 -0.000361234  -0.0114743 -0.0788372 -0.000355035  -0.016431 -0.078792 -0.00054121  -0.0183009 -0.0964047 -0.000279337  -0.0129547 -0.0963698 -0.000273526  -0.0124969 -0.0905735 -0.000198871  -0.0182679 -0.0962674 -0.000420183  -0.0177054 -0.0904888 -0.000305384  -0.0124705 -0.0904348 -0.000298172  -0.0176733 -0.0903506 -0.000458479  -0.0194352 -0.108441 -0.000233442  -0.0138987 -0.108461 -0.000226229  -0.0134547 -0.102498 -0.000167012  -0.0194068 -0.108323 -0.000349045  -0.0188755 -0.102377 -0.000256151  -0.0134305 -0.102379 -0.000249326  -0.0188454 -0.102258 -0.000383586  -0.0205053 -0.120733 -0.000189781  -0.0148102 -0.120798 -0.000182807  -0.0143805 -0.114701 -0.000136733  -0.0204797 -0.12063 -0.000285953  -0.0199767 -0.114548 -0.000210911  -0.0143584 -0.114601 -0.000204831  -0.0199503 -0.114447 -0.000316143  -0.0215126 -0.133213 -0.00015223  -0.015686 -0.133323 -0.000147194  -0.0152696 -0.127122 -0.000109702  -0.0214894 -0.133128 -0.000227988  -0.0210148 -0.12694 -0.000170767  -0.0152527 -0.127039 -0.000164449  -0.0209918 -0.126856 -0.000255644  -0.0224602 -0.145831 -0.000119776  -0.016529 -0.145979 -0.000112206  -0.016126 -0.139704 -8.7291e-05  -0.0224404 -0.14576 -0.000178248  -0.0219933 -0.139496 -0.000135094  -0.0161102 -0.139635 -0.000130981  -0.021973 -0.139428 -0.000202715  -0.0233517 -0.158539 -9.0301e-05  -0.0173378 -0.15872 -8.55923e-05  -0.0169513 -0.152395 -6.55055e-05  -0.0233343 -0.158481 -0.000134796  -0.0229101 -0.152165 -0.000103682  -0.0169373 -0.15234 -9.7841e-05  -0.0228946 -0.15211 -0.000156134  -0.0241909 -0.171294 -6.47902e-05  -0.018116 -0.171502 -6.27935e-05  -0.0177402 -0.16515 -4.83692e-05  -0.0241766 -0.171247 -9.64999e-05  -0.0237761 -0.1649 -7.689e-05  -0.0177302 -0.165107 -7.21812e-05  -0.0237613 -0.164858 -0.000115246  -0.0249844 -0.184058 -4.372e-05  -0.0188608 -0.18429 -4.09782e-05  -0.0185018 -0.17793 -3.3468e-05  -0.0249727 -0.18402 -6.6489e-05  -0.0245926 -0.177665 -5.38826e-05  -0.0184925 -0.177896 -4.99785e-05  -0.0245795 -0.177633 -8.1569e-05  -0.0257344 -0.196799 -2.93851e-05  -0.0195796 -0.197049 -2.51532e-05  -0.0192325 -0.190697 -2.262e-05  -0.0257244 -0.19677 -4.28259e-05  -0.0253632 -0.190421 -3.58522e-05  -0.0192237 -0.190672 -3.3766e-05  -0.0253544 -0.190397 -5.43594e-05  -0.0264471 -0.209492 -1.5527e-05  -0.0202689 -0.209757 -1.23978e-05  -0.0199344 -0.203428 -1.29938e-05  -0.0264375 -0.209467 -2.25306e-05  -0.0260947 -0.203142 -2.18749e-05  -0.0199282 -0.203409 -1.88649e-05  -0.0260856 -0.203123 -3.23355e-05  -0.0271266 -0.222116 -6.55651e-06  -0.020937 -0.222393 -4.26173e-06  -0.0206091 -0.216095 -4.79817e-06  -0.0271194 -0.222096 -8.79169e-06  -0.0267904 -0.215802 -1.09375e-05  -0.0206046 -0.216082 -8.19564e-06  -0.0267823 -0.215788 -1.56164e-05  -0.0277817 -0.234661 1.3113e-06  -0.0215831 -0.234939 3.63588e-06  -0.0212657 -0.228688 -5.06639e-07  -0.0277724 -0.234643 2.92063e-06  -0.0274553 -0.228389 -1.84774e-06  -0.0212624 -0.228675 3.27826e-07  -0.0274491 -0.228379 -2.83122e-06  -0.0284219 -0.247111 1.0252e-05  -0.0222204 -0.247381 1.31726e-05  -0.0219042 -0.241182 4.82798e-06  -0.0284145 -0.247091 1.55568e-05  -0.0281012 -0.240886 6.76513e-06  -0.0219018 -0.241172 6.55651e-06  -0.0280957 -0.240877 9.95398e-06  -0.000223041 -0.00163347 -0.000140131  0 0 0  4.28855e-05 -0.00154319 4.08292e-06  1.42977e-05 -0.000472128 1.60933e-06  0 0 0  -0.00022617 -0.00155798 -0.000217587  -7.59177e-05 -0.000480652 -7.62343e-05  0 0 0  1.40443e-05 -0.000443131 3.30806e-06  -7.74302e-05 -0.000449598 -0.000117749  -0.000693783 -0.00551227 -0.000231117  0.000109911 -0.00534216 2.32458e-06  7.39694e-05 -0.00332636 1.81794e-06  -0.000700444 -0.00536254 -0.000353962  -0.000432655 -0.00335005 -0.00019303  7.72625e-05 -0.00322568 4.23193e-06  -0.000438347 -0.00324595 -0.00029704  -0.00131106 -0.0109075 -0.000270218  0.000144541 -0.010688 -1.3411e-06  0.00012663 -0.00802705 -8.34465e-07  -0.00131676 -0.0106987 -0.000408679  -0.000991166 -0.00804815 -0.000256211  0.000134289 -0.00785923 1.19209e-07  -0.000997603 -0.00787681 -0.000389665  -0.00198358 -0.0174235 -0.000271291  0.000118673 -0.0171887 -3.69549e-06  0.000130057 -0.0140259 -2.80142e-06  -0.0019803 -0.0171779 -0.000406861  -0.00164491 -0.0140292 -0.000273854  0.000140667 -0.0138094 -3.78489e-06  -0.00164524 -0.013809 -0.000411808  -0.00267005 -0.0248852 -0.000252038  2.30074e-05 -0.0246625 -1.57952e-06  6.75917e-05 -0.0210534 -2.35438e-06  -0.00265676 -0.0246248 -0.000377208  -0.00232548 -0.0210316 -0.000263363  8.04067e-05 -0.0208096 -3.12924e-06  -0.00231749 -0.0207848 -0.000393748  -0.00336093 -0.033206 -0.000225157  -0.000143886 -0.0330089 3.03984e-06  -6.56843e-05 -0.0289788 -1.19209e-07  -0.00334156 -0.0329461 -0.000336081  -0.00301343 -0.0289306 -0.000239223  -5.10216e-05 -0.0287288 3.27826e-07  -0.00299817 -0.0286798 -0.000356913  -0.0040589 -0.0423025 -0.000196517  -0.000380397 -0.0421451 8.19564e-06  -0.000270069 -0.0377229 3.12924e-06  -0.00403684 -0.0420581 -0.000294477  -0.00370789 -0.0376483 -0.000211567  -0.000253856 -0.0374815 6.16908e-06  -0.00368762 -0.037406 -0.000315696  -0.00477064 -0.0520983 -0.000169396  -0.00068444 -0.0519866 1.35899e-05  -0.000541925 -0.0472063 6.34789e-06  -0.00474542 -0.051875 -0.000253201  -0.00441241 -0.0471072 -0.00018239  -0.000524938 -0.0469813 1.03712e-05  -0.00438941 -0.0468811 -0.000273108  -0.00549316 -0.0625152 -0.000144541  -0.00104797 -0.0624475 1.7941e-05  -0.000875592 -0.0573487 9.86457e-06  -0.00546813 -0.0623118 -0.000215769  -0.00512981 -0.057224 -0.000156939  -0.000860095 -0.0571426 1.43051e-05  -0.00510478 -0.0570179 -0.000234127  -0.00622523 -0.073466 -0.000121683  -0.00146818 -0.0734449 2.0206e-05  -0.00126731 -0.0680664 1.19507e-05  -0.00620127 -0.0732844 -0.000182241  -0.00585675 -0.067917 -0.000133157  -0.00125158 -0.0678824 1.86861e-05  -0.00583339 -0.0677339 -0.000198841  -0.00696528 -0.0848739 -0.000102133  -0.00193834 -0.084896 2.17259e-05  -0.0017097 -0.0792779 1.35899e-05  -0.00694287 -0.0847135 -0.000153184  -0.00659299 -0.0791053 -0.000111222  -0.00169694 -0.0791168 2.13087e-05  -0.00657153 -0.0789444 -0.000166893  -0.00770831 -0.0966614 -8.4281e-05  -0.00244868 -0.096726 2.2471e-05  -0.00219905 -0.0909069 1.43647e-05  -0.00768816 -0.0965218 -0.000125676  -0.0073359 -0.0907119 -9.25958e-05  -0.00218892 -0.0907668 2.13981e-05  -0.00731492 -0.0905727 -0.000138789  -0.00845242 -0.108761 -6.85155e-05  -0.00299478 -0.108864 2.18749e-05  -0.00272751 -0.102879 1.42455e-05  -0.00843465 -0.10864 -0.000103325  -0.00807858 -0.102665 -7.61151e-05  -0.00271738 -0.102757 2.17855e-05  -0.00806165 -0.102544 -0.000114322  -0.0091958 -0.121104 -5.49257e-05  -0.0035708 -0.121241 1.99676e-05  -0.00328839 -0.115125 1.34408e-05  -0.00917959 -0.121001 -8.19266e-05  -0.00882411 -0.114892 -6.11544e-05  -0.00327992 -0.115024 2.0504e-05  -0.00880861 -0.114792 -9.25958e-05  -0.00993192 -0.133632 -4.24385e-05  -0.00417042 -0.133801 1.86563e-05  -0.00387418 -0.127585 1.35899e-05  -0.00991881 -0.133547 -6.3777e-05  -0.00956392 -0.127337 -4.79221e-05  -0.00386798 -0.127499 1.92523e-05  -0.00955117 -0.127252 -7.26581e-05  -0.010661 -0.146293 -3.31104e-05  -0.00478649 -0.146489 1.80304e-05  -0.00448203 -0.1402 1.19209e-05  -0.0106499 -0.146221 -4.84586e-05  -0.0102968 -0.139938 -3.71635e-05  -0.00447583 -0.14013 1.7792e-05  -0.0102854 -0.139869 -5.6088e-05  -0.011378 -0.159038 -2.40207e-05  -0.00541449 -0.159256 1.60933e-05  -0.00510383 -0.152919 1.26064e-05  -0.0113704 -0.158977 -3.50177e-05  -0.0110195 -0.152645 -2.71499e-05  -0.00510025 -0.152862 1.78516e-05  -0.0110109 -0.15259 -4.04418e-05  -0.0120862 -0.17182 -1.63317e-05  -0.00605011 -0.172059 1.23382e-05  -0.00573444 -0.165698 9.23872e-06  -0.0120769 -0.171773 -2.39611e-05  -0.0117323 -0.165415 -2.01464e-05  -0.00573111 -0.165653 1.43051e-05  -0.0117254 -0.16537 -3.03984e-05  -0.0127776 -0.18461 -9.83477e-06  -0.00669026 -0.184862 1.16229e-05  -0.00637126 -0.178496 7.689e-06  -0.0127711 -0.18457 -1.41859e-05  -0.0124316 -0.178205 -1.28746e-05  -0.00637007 -0.178461 1.23978e-05  -0.0124245 -0.178172 -1.94609e-05  -0.0134559 -0.197371 -5.00679e-06  -0.00733042 -0.197636 8.22544e-06  -0.00701189 -0.191279 6.10948e-06  -0.0134513 -0.197339 -7.77841e-06  -0.0131173 -0.190984 -7.48038e-06  -0.00701022 -0.191253 1.03414e-05  -0.0131123 -0.190957 -1.2368e-05  -0.0141199 -0.210077 -1.66893e-06  -0.0079689 -0.210354 7.24196e-06  -0.00764728 -0.204019 4.82798e-06  -0.0141156 -0.210053 -3.18885e-06  -0.0137889 -0.20372 -3.69549e-06  -0.00765061 -0.203999 7.92742e-06  -0.0137846 -0.203701 -4.55976e-06  -0.01477 -0.222712 -8.04663e-07  -0.00860143 -0.222994 4.11272e-06  -0.00828528 -0.216695 2.38419e-06  -0.0147672 -0.222692 -5.36442e-07  -0.0144453 -0.216394 -1.16229e-06  -0.00828552 -0.216682 5.0962e-06  -0.0144434 -0.216379 -1.3411e-06  -0.0154078 -0.23526 1.2517e-06  -0.00922894 -0.235545 3.51667e-06  -0.00891566 -0.229291 3.66569e-06  -0.0154045 -0.235239 3.01003e-06  -0.0150898 -0.228987 1.19209e-06  -0.00891519 -0.229279 3.8445e-06  -0.0150869 -0.228974 1.69873e-06  -0.0160356 -0.247698 2.86102e-06  -0.00984693 -0.247977 -2.68221e-07  -0.00953698 -0.241786 4.47035e-07  -0.0160296 -0.247675 3.99351e-06  -0.0157216 -0.241481 3.01003e-06  -0.00953913 -0.241774 6.25849e-07  -0.0157175 -0.241471 4.67896e-06  0.000305668 -0.00169981 0.000143647  0 0 0  0.000597119 -0.00180715 0.000441521  0.00020276 -0.000620723 0.000155181  0 0 0  0.000313625 -0.00162512 0.000225127  0.000103831 -0.000516474 7.87973e-05  0 0 0  0.000205785 -0.000587821 0.000243455  0.000106283 -0.000486851 0.000124693  0.000902265 -0.00562328 0.000231415  0.00176173 -0.00577223 0.000705689  0.00111087 -0.00369686 0.000386834  0.000921667 -0.00547832 0.000357896  0.000581175 -0.00344026 0.000195861  0.00113215 -0.00359088 0.000597864  0.00059396 -0.00333875 0.000303417  0.00157982 -0.0110516 0.000264883  0.00309873 -0.0111724 0.000801176  0.00239235 -0.00850016 0.000503778  0.00160411 -0.0108458 0.00040251  0.00124234 -0.00817674 0.000253856  0.00242811 -0.00832599 0.000769824  0.00126508 -0.00800782 0.000387341  0.00219208 -0.0175989 0.00026381  0.0043419 -0.0176746 0.000794649  0.00370651 -0.0145189 0.00053367  0.00221354 -0.0173556 0.000397474  0.00189987 -0.01419 0.00026679  0.00374079 -0.0142963 0.00080508  0.00192279 -0.013972 0.000403792  0.00267875 -0.0250934 0.000247687  0.00539887 -0.0251409 0.000744343  0.00487167 -0.0215374 0.000514388  0.00269651 -0.0248359 0.000372946  0.00245219 -0.0212229 0.000256479  0.00489551 -0.0212907 0.000772923  0.00247276 -0.0209787 0.00038588  0.00303 -0.0334465 0.000228435  0.00625944 -0.0334882 0.000680357  0.00583863 -0.0294585 0.000475109  0.00304526 -0.0331896 0.000341773  0.00287127 -0.0291557 0.000238508  0.00585359 -0.0292078 0.000712305  0.00288785 -0.0289056 0.000357985  0.00325334 -0.0425817 0.000206739  0.00693482 -0.0426337 0.00061202  0.00661016 -0.0382071 0.000431001  0.00326592 -0.042338 0.000310242  0.00315809 -0.0379093 0.000217825  0.00661963 -0.0379644 0.000645429  0.00317091 -0.0376676 0.000326574  0.00335741 -0.052417 0.000185668  0.00744069 -0.0524892 0.000544608  0.00720263 -0.0477025 0.000385612  0.00336814 -0.0521911 0.000279278  0.00332129 -0.0474052 0.000196636  0.00720835 -0.0474761 0.000577331  0.00333118 -0.0471792 0.000295013  0.00335205 -0.0628704 0.000166893  0.00779045 -0.0629675 0.000483125  0.00763261 -0.0578592 0.000342488  0.00336111 -0.0626669 0.000249296  0.00336897 -0.05756 0.000175893  0.00763404 -0.0576537 0.000513196  0.00337803 -0.0573549 0.000264138  0.00324738 -0.0738589 0.000147611  0.00799632 -0.0739822 0.000422925  0.00790966 -0.0685947 0.000302434  0.00325525 -0.0736783 0.000221342  0.00331259 -0.0682923 0.000157177  0.00791025 -0.068411 0.000453144  0.00332046 -0.0681081 0.000235856  0.00305212 -0.0853022 0.000129282  0.00807202 -0.0854513 0.000368387  0.00805008 -0.079825 0.000263155  0.00305939 -0.0851421 0.000194997  0.00316215 -0.0795175 0.000138491  0.00804949 -0.0796628 0.000394911  0.00316763 -0.0793557 0.000207394  0.00277936 -0.0971248 0.000112474  0.00803161 -0.0972972 0.000316024  0.00806856 -0.0914707 0.000227451  0.00278461 -0.0969846 0.000170112  0.00292647 -0.091159 0.000121593  0.00806582 -0.0913297 0.00034225  0.00293159 -0.0910186 0.000181973  0.00243497 -0.109254 9.56953e-05  0.00788558 -0.109449 0.000269026  0.00797725 -0.103459 0.000194222  0.00243926 -0.109132 0.000146002  0.00261486 -0.103143 0.000104219  0.00797117 -0.103338 0.000291735  0.0026207 -0.103022 0.000156403  0.00202978 -0.121624 8.18968e-05  0.00764942 -0.12184 0.000224948  0.00778365 -0.11572 0.000163913  0.0020318 -0.12152 0.000122935  0.00224078 -0.115401 8.89897e-05  0.00777924 -0.115616 0.000245839  0.00224209 -0.115298 0.000133038  0.00157106 -0.134177 6.80089e-05  0.0073303 -0.13441 0.000184417  0.0075016 -0.12819 0.000136435  0.00157392 -0.134087 0.000102401  0.0018065 -0.127868 7.53999e-05  0.0074991 -0.128104 0.000204593  0.00180852 -0.127783 0.000111997  0.00107145 -0.146857 5.53131e-05  0.0069437 -0.147105 0.000149548  0.00715113 -0.140814 0.000110805  0.00107336 -0.146782 8.29101e-05  0.00132656 -0.140491 6.13928e-05  0.00714469 -0.140743 0.000167221  0.00132716 -0.140421 9.20296e-05  0.000535727 -0.159614 4.38392e-05  0.00649738 -0.159878 0.000115782  0.00673389 -0.153539 8.89599e-05  0.000536203 -0.159557 6.59525e-05  0.000808477 -0.153216 4.97699e-05  0.0067277 -0.153482 0.000131488  0.000809431 -0.15316 7.51615e-05  -2.6226e-05 -0.172413 3.45707e-05  0.00600433 -0.172684 8.79169e-05  0.00626206 -0.166322 6.80387e-05  -2.69413e-05 -0.172363 5.13196e-05  0.000258684 -0.166 3.86834e-05  0.00625706 -0.166277 0.000102073  0.00025773 -0.165954 5.88894e-05  -0.000611544 -0.185208 2.54214e-05  0.0054729 -0.18549 6.38366e-05  0.00574803 -0.179122 5.05447e-05  -0.000612736 -0.18517 3.81172e-05  -0.000314474 -0.178801 2.91169e-05  0.00574374 -0.179087 7.58171e-05  -0.000317335 -0.178765 4.36902e-05  -0.00121164 -0.197975 1.67191e-05  0.0049119 -0.198261 4.39584e-05  0.00519991 -0.191905 3.5435e-05  -0.00121379 -0.197943 2.63453e-05  -0.00090909 -0.191587 2.09212e-05  0.00519753 -0.191879 5.29289e-05  -0.000910521 -0.19156 3.16501e-05  -0.00182128 -0.210688 1.14441e-05  0.00432968 -0.210975 2.7746e-05  0.00462914 -0.204646 2.21729e-05  -0.00182247 -0.210661 1.62721e-05  -0.00151372 -0.204327 1.38879e-05  0.00462341 -0.204626 3.44217e-05  -0.00151563 -0.204308 2.11895e-05  -0.0024364 -0.223325 5.63264e-06  0.00373077 -0.223616 1.13249e-05  0.00403881 -0.217319 1.40369e-05  -0.00243783 -0.223302 1.00136e-05  -0.00212884 -0.217003 8.67248e-06  0.0040307 -0.217304 1.99378e-05  -0.00213003 -0.21699 1.26362e-05  -0.00305319 -0.235873 1.2517e-06  0.00312448 -0.236165 1.2815e-06  0.00343227 -0.229912 5.51343e-06  -0.0030539 -0.235852 1.04308e-06  -0.00274372 -0.229599 3.27826e-06  0.00342751 -0.229902 6.91414e-06  -0.00274634 -0.229587 6.52671e-06  -0.00366449 -0.248308 -3.8147e-06  0.00251961 -0.248606 -9.83477e-06  0.00282621 -0.24241 -1.3113e-06  -0.00366569 -0.248289 -5.78165e-06  -0.00335979 -0.242095 -8.9407e-07  0.00282001 -0.242397 -3.06964e-06  -0.0033617 -0.242082 -2.17557e-06  0.000894397 -0.00219643 0.00041914  0 0 0  0.00127953 -0.00255936 0.000854999  0.000438116 -0.00106871 0.000300825  0 0 0  0.00091283 -0.00210869 0.000651598  0.000305332 -0.00079459 0.00022912  0 0 0  0.000442713 -0.00102526 0.000469774  0.000309594 -0.000758767 0.000358284  0.00263312 -0.00640398 0.000680178  0.00369033 -0.00690621 0.00137305  0.00236011 -0.00471932 0.000752598  0.00267702 -0.00624138 0.00104475  0.00169475 -0.00411415 0.000573039  0.00239803 -0.00458866 0.00116163  0.001726 -0.0039978 0.000884593  0.00462893 -0.0118906 0.000785649  0.00637409 -0.0123404 0.00157008  0.00498047 -0.00969899 0.000986457  0.00467819 -0.0116706 0.00119182  0.00362888 -0.00900531 0.000748724  0.0050402 -0.00949866 0.00150359  0.0036785 -0.00881922 0.00114146  0.00650579 -0.0183983 0.000787616  0.00885338 -0.0187607 0.00156841  0.00759855 -0.0156671 0.0010502  0.00654411 -0.0181447 0.00118575  0.00559461 -0.015013 0.000794768  0.00765023 -0.0154254 0.00158542  0.00563899 -0.0147817 0.00119978  0.00813967 -0.0258445 0.000742406  0.011023 -0.0261467 0.00147441  0.0099439 -0.0225925 0.00101766  0.00816286 -0.0255804 0.00111213  0.00735557 -0.021996 0.000768244  0.00997752 -0.0223343 0.00152728  0.00738597 -0.0217441 0.00115311  0.00951618 -0.0341628 0.000676721  0.0128826 -0.0344353 0.00134528  0.0119727 -0.0304388 0.000942051  0.00952798 -0.0339043 0.00101244  0.00886059 -0.0298876 0.000710309  0.0119898 -0.0301816 0.00141287  0.0088768 -0.0296337 0.00106463  0.0106497 -0.0432811 0.000607401  0.0144514 -0.0435376 0.00120825  0.0136973 -0.0391337 0.000851333  0.0106541 -0.0430347 0.000910521  0.0101124 -0.0386161 0.000642538  0.013702 -0.0388883 0.00127688  0.0101199 -0.0383722 0.000962853  0.0115601 -0.0531059 0.000539929  0.0157503 -0.0533623 0.00107244  0.0151379 -0.0485921 0.000760972  0.0115591 -0.0528803 0.000810057  0.0111318 -0.0480983 0.000573725  0.0151334 -0.0483636 0.00113964  0.0111328 -0.0478711 0.000859737  0.0122646 -0.0635566 0.000476629  0.0168022 -0.0638175 0.000943899  0.0163161 -0.058721 0.000672728  0.0122616 -0.0633516 0.0007146  0.0119371 -0.0582461 0.000507474  0.016308 -0.0585151 0.00100815  0.0119351 -0.0580402 0.000761062  0.0127831 -0.0745431 0.0004161  0.0176241 -0.0748122 0.000825793  0.0172509 -0.0694343 0.00058946  0.0127776 -0.0743608 0.000624061  0.012548 -0.0689753 0.000445843  0.0172396 -0.0692503 0.000884175  0.0125413 -0.0687922 0.00066933  0.0131298 -0.0859866 0.000360638  0.0182338 -0.0862629 0.000713974  0.0179662 -0.0806447 0.000512749  0.013123 -0.0858248 0.000541598  0.0129772 -0.0802007 0.000388116  0.0179539 -0.0804828 0.000768781  0.0129708 -0.080039 0.000582159  0.0133204 -0.0978097 0.000308931  0.0186523 -0.0980922 0.00061053  0.0184791 -0.0922731 0.000440806  0.0133138 -0.0976665 0.000463635  0.0132449 -0.0918414 0.000334561  0.0184661 -0.0921317 0.000661314  0.0132362 -0.091701 0.000501782  0.0133734 -0.109935 0.000260562  0.0188963 -0.110227 0.000514179  0.0188094 -0.104245 0.000375032  0.0133662 -0.109814 0.000391155  0.013365 -0.103826 0.000284582  0.018795 -0.104124 0.000562996  0.0133556 -0.103705 0.000427246  0.0133021 -0.122303 0.000218481  0.0189871 -0.122602 0.000428319  0.0189722 -0.116488 0.000313461  0.0132943 -0.1222 0.00032568  0.0133542 -0.116081 0.000238866  0.0189606 -0.116386 0.000469953  0.0133445 -0.115978 0.00035882  0.0131195 -0.134853 0.000178427  0.0189377 -0.135155 0.000349104  0.0189917 -0.128943 0.000257403  0.0131124 -0.134765 0.000266522  0.0132245 -0.128547 0.000197738  0.018978 -0.128857 0.00038746  0.0132159 -0.128462 0.000296205  0.0128438 -0.147527 0.000142485  0.0187669 -0.147833 0.000277698  0.0188811 -0.14155 0.000208199  0.0128372 -0.147457 0.000213832  0.0129929 -0.141167 0.000159383  0.0188674 -0.141479 0.000313193  0.0129856 -0.141096 0.000239998  0.0124846 -0.160283 0.000110179  0.0184944 -0.16059 0.000216097  0.0186558 -0.154259 0.000164419  0.0124793 -0.160222 0.000167221  0.0126755 -0.153887 0.000125945  0.0186408 -0.154203 0.000246167  0.0126667 -0.15383 0.00018841  0.0120614 -0.173074 8.42512e-05  0.0181332 -0.17338 0.000162721  0.0183346 -0.167027 0.0001266  0.0120533 -0.173025 0.000125796  0.0122805 -0.166665 9.71258e-05  0.0183258 -0.166982 0.000188649  0.0122745 -0.166619 0.00014627  0.0115798 -0.185863 5.97239e-05  0.0176983 -0.18617 0.000115663  0.0179348 -0.179811 9.16421e-05  0.0115728 -0.185824 9.02712e-05  0.0118272 -0.179458 7.14362e-05  0.0179243 -0.179775 0.000137776  0.0118198 -0.179424 0.000107467  0.0110528 -0.198624 4.09782e-05  0.0172055 -0.198929 7.83503e-05  0.017468 -0.192578 6.4522e-05  0.0110493 -0.198591 6.11246e-05  0.011323 -0.192237 4.87566e-05  0.0174572 -0.192553 9.56953e-05  0.0113163 -0.19221 7.39694e-05  0.0104954 -0.211327 2.53618e-05  0.0166667 -0.21163 4.66704e-05  0.0169497 -0.205305 4.10676e-05  0.0104897 -0.2113 3.79086e-05  0.010778 -0.204972 3.31402e-05  0.0169423 -0.205286 6.13928e-05  0.0107732 -0.204952 4.92036e-05  0.00991297 -0.223957 1.17123e-05  0.0160973 -0.224259 2.0951e-05  0.016396 -0.217967 2.41697e-05  0.00990653 -0.223936 1.79112e-05  0.0102072 -0.217641 1.80602e-05  0.0163856 -0.217954 3.49283e-05  0.0102017 -0.217626 2.67923e-05  0.00931358 -0.236506 9.83477e-07  0.0155029 -0.236803 2.23517e-06  0.0158114 -0.230552 7.56979e-06  0.00930715 -0.236483 1.66893e-06  0.00961375 -0.230229 6.4373e-06  0.0158021 -0.23054 1.23978e-05  0.00960827 -0.230219 1.03414e-05  0.00871468 -0.248952 -8.25524e-06  0.0149086 -0.249262 -1.71065e-05  0.015213 -0.243052 -4.26173e-06  0.00870967 -0.248928 -1.25468e-05  0.00901294 -0.24273 -3.78489e-06  0.0152054 -0.243041 -6.79493e-06  0.00900745 -0.242717 -5.87106e-06  0.0017262 -0.00332814 0.000679106  0 0 0  0.00232799 -0.00416702 0.00124598  0.000804916 -0.00210476 0.000441909  0 0 0  0.00174893 -0.00321877 0.00105172  0.000583947 -0.00148267 0.000369698  0 0 0  0.000806615 -0.00204217 0.000687599  0.000589155 -0.00143105 0.000577003  0.00484046 -0.0079909 0.0011037  0.00632513 -0.00890028 0.00199994  0.00422873 -0.00666332 0.00109881  0.00489879 -0.00779206 0.0016917  0.00319298 -0.00554949 0.00092715  0.00427133 -0.0064919 0.00169066  0.00323479 -0.00540024 0.0014284  0.0081735 -0.0134317 0.00128078  0.0103007 -0.0141687 0.00230113  0.008284 -0.0116608 0.00144356  0.00823972 -0.0131791 0.00194058  0.00652489 -0.0105887 0.00121734  0.00835243 -0.0114187 0.00219581  0.00659066 -0.0103682 0.00185382  0.0112526 -0.019791 0.00129223  0.0139189 -0.0204062 0.00231186  0.0120955 -0.0174299 0.0015448  0.0113026 -0.0195166 0.00194508  0.00975534 -0.0164775 0.00130031  0.0121588 -0.017157 0.00233075  0.00981447 -0.0162213 0.00196159  0.0139759 -0.0271139 0.00122097  0.0171393 -0.0276485 0.00218341  0.0155364 -0.0241793 0.00150481  0.0140049 -0.0268395 0.00183213  0.0126611 -0.0233225 0.00126344  0.01558 -0.0239025 0.00225896  0.0126992 -0.0230559 0.00189611  0.0163366 -0.0353428 0.00111628  0.0199568 -0.0358288 0.00199705  0.0185742 -0.0318929 0.00139785  0.01635 -0.0350772 0.00167301  0.0152014 -0.0311092 0.00117147  0.0185972 -0.0316261 0.00209537  0.0152205 -0.0308462 0.00175574  0.0183542 -0.0443897 0.00100338  0.0223892 -0.044847 0.00179598  0.0212131 -0.0404869 0.0012657  0.018355 -0.0441434 0.00150383  0.0173874 -0.0397582 0.00105995  0.0212205 -0.0402371 0.00189754  0.0173937 -0.0395107 0.00158876  0.0200474 -0.0541626 0.000890732  0.0244571 -0.0545998 0.00159496  0.0234687 -0.0498639 0.00113091  0.0200418 -0.0539377 0.00133485  0.019241 -0.049181 0.000946403  0.0234678 -0.0496361 0.00169334  0.0192364 -0.0489523 0.00141776  0.0214448 -0.0645691 0.000783384  0.0261848 -0.0649914 0.00140312  0.0253702 -0.0599253 0.000999451  0.0214351 -0.064364 0.00117463  0.0207827 -0.0592817 0.000836223  0.0253618 -0.05972 0.00149828  0.0207735 -0.0590752 0.0012536  0.0225674 -0.0755166 0.000683129  0.0275967 -0.0759286 0.00122407  0.0269417 -0.0705777 0.000875205  0.0225554 -0.075337 0.00102443  0.0220393 -0.0699686 0.00073272  0.0269296 -0.0703951 0.00131181  0.0220287 -0.0697854 0.00109884  0.0234385 -0.0869242 0.000590384  0.0287174 -0.087326 0.00105685  0.0282058 -0.0817336 0.000759214  0.0234247 -0.0867637 0.000885218  0.0230331 -0.0811566 0.000635862  0.0281925 -0.0815727 0.00113726  0.0230206 -0.080995 0.000953645  0.0240785 -0.0987116 0.000505388  0.0295721 -0.0991051 0.000902027  0.0291904 -0.0933103 0.000653088  0.024065 -0.0985719 0.000757188  0.0237861 -0.0927638 0.0005472  0.0291783 -0.09317 0.000977367  0.0237733 -0.0926225 0.00082016  0.0245104 -0.110807 0.000426352  0.030183 -0.111191 0.000760585  0.0299217 -0.105231 0.000553608  0.0244969 -0.110687 0.000638604  0.0243211 -0.104713 0.000464052  0.0299076 -0.105112 0.000830173  0.0243064 -0.104593 0.000696301  0.0247535 -0.123144 0.000353247  0.0305756 -0.123519 0.000630826  0.0304217 -0.117427 0.000462055  0.0247419 -0.123041 0.000528306  0.024655 -0.116937 0.000387877  0.030406 -0.117327 0.00069344  0.0246421 -0.116835 0.000582099  0.0248322 -0.135664 0.000286341  0.0307741 -0.136029 0.000513047  0.030713 -0.129837 0.000379711  0.0248196 -0.135576 0.000430524  0.0248127 -0.129374 0.000318736  0.030697 -0.129753 0.000569791  0.0248005 -0.129287 0.000478774  0.0247636 -0.148311 0.000227958  0.030797 -0.148667 0.000407338  0.0308187 -0.142402 0.000306457  0.0247502 -0.148238 0.000343084  0.0248166 -0.141963 0.000256747  0.0308068 -0.142333 0.000459045  0.0248009 -0.141892 0.000386029  0.0245662 -0.161037 0.000177413  0.0306706 -0.161385 0.000314564  0.0307653 -0.155073 0.000240386  0.0245547 -0.160979 0.000265002  0.0246813 -0.154655 0.000201523  0.0307524 -0.155017 0.000359118  0.024667 -0.1546 0.00030154  0.0242605 -0.173801 0.000131637  0.030416 -0.17414 0.000234187  0.0305696 -0.1678 0.000182152  0.0242491 -0.173754 0.000197619  0.0244269 -0.167406 0.00015384  0.0305591 -0.167759 0.00027135  0.0244148 -0.167362 0.00023061  0.0238662 -0.186569 9.37283e-05  0.030056 -0.186898 0.000165075  0.0302587 -0.180552 0.00013113  0.0238559 -0.18653 0.000140578  0.0240748 -0.180177 0.000111908  0.030247 -0.18052 0.000197738  0.0240633 -0.180141 0.000167578  0.0233986 -0.199308 6.27041e-05  0.0296087 -0.199628 0.000111729  0.0298505 -0.193291 9.17912e-05  0.0233891 -0.199277 9.37581e-05  0.0236413 -0.19293 7.7188e-05  0.0298414 -0.193266 0.000136405  0.0236313 -0.192906 0.000115901  0.0228753 -0.211995 3.82662e-05  0.0290942 -0.212307 6.68764e-05  0.0293682 -0.205992 5.8949e-05  0.0228682 -0.211967 5.64754e-05  0.0231442 -0.205647 5.06043e-05  0.0293598 -0.205974 8.78274e-05  0.0231333 -0.205627 7.48336e-05  0.0223119 -0.224609 1.89245e-05  0.0285318 -0.224915 3.35574e-05  0.0288262 -0.218632 3.27229e-05  0.0223043 -0.224586 2.85208e-05  0.022599 -0.218298 2.81036e-05  0.0288172 -0.218618 4.87268e-05  0.0225916 -0.218286 4.19319e-05  0.0217226 -0.237146 3.18885e-06  0.0279417 -0.23745 7.15256e-06  0.0282505 -0.2312 1.33514e-05  0.0217142 -0.237126 4.41074e-06  0.022023 -0.230876 1.06394e-05  0.0282388 -0.23119 1.94311e-05  0.0220113 -0.230864 1.56164e-05  0.0211248 -0.249615 -1.30832e-05  0.0273371 -0.249925 -1.74046e-05  0.0276508 -0.243703 -2.38419e-06  0.021117 -0.249594 -1.82688e-05  0.021425 -0.243378 -4.02331e-06  0.0276384 -0.243692 -5.69224e-06  0.0214133 -0.243367 -6.97374e-06  0.00334366 -0.00575858 0.000936687  0 0 0  0.00497541 -0.00740236 0.00165206  0.00212681 -0.00477254 0.000591725  0 0 0  0.00335236 -0.00560695 0.00144732  0.00113846 -0.00306708 0.000507444  0 0 0  0.00210178 -0.00465375 0.0009211  0.00113606 -0.00298798 0.000789136  0.00800663 -0.0104468 0.00150916  0.0101037 -0.011578 0.00262442  0.00760093 -0.00963181 0.00144371  0.00805461 -0.0101953 0.00231123  0.00569712 -0.00806433 0.00126997  0.00759451 -0.00939143 0.00222358  0.00572421 -0.00786257 0.00195348  0.0124963 -0.0155891 0.0017556  0.0150526 -0.0165446 0.00301942  0.012547 -0.0142257 0.00189114  0.0125636 -0.0152961 0.00265941  0.0102802 -0.0128897 0.00166765  0.0125934 -0.01393 0.00288188  0.0103433 -0.0126225 0.00253776  0.0166607 -0.0217153 0.0017795  0.0197214 -0.0225472 0.00304198  0.0173745 -0.0197074 0.00202763  0.0167189 -0.0214179 0.00267848  0.0146277 -0.0185097 0.00178713  0.0174387 -0.0194021 0.00306264  0.0146926 -0.0182219 0.00269732  0.0204059 -0.0288627 0.00168824  0.0239459 -0.0296121 0.00287989  0.0218385 -0.0262437 0.00197932  0.0204453 -0.0285757 0.00253338  0.0185889 -0.0251555 0.00174287  0.0218929 -0.0259485 0.00297514  0.0186377 -0.0248691 0.00261882  0.0237063 -0.0369571 0.00154737  0.027688 -0.0376452 0.00263861  0.0258372 -0.0337892 0.00184265  0.0237288 -0.036687 0.00231922  0.022113 -0.0327876 0.00162154  0.0258773 -0.0335125 0.00276408  0.0221424 -0.0325157 0.00243101  0.0265706 -0.0458961 0.00139222  0.0309498 -0.0465403 0.00237486  0.029355 -0.0422434 0.00167295  0.0265799 -0.0456474 0.00208631  0.025193 -0.0413167 0.00147083  0.0293785 -0.0419926 0.00250778  0.0252074 -0.0410656 0.00220376  0.0290184 -0.0555753 0.00123644  0.033751 -0.0561815 0.00210974  0.0323919 -0.0514997 0.00149575  0.0290197 -0.0553495 0.00185281  0.0278457 -0.0506389 0.00131357  0.0324057 -0.0512731 0.00224158  0.0278494 -0.0504104 0.00196925  0.0310774 -0.0658987 0.00108799  0.0361212 -0.0664728 0.00185812  0.0349824 -0.0614554 0.00132251  0.0310732 -0.065695 0.00163069  0.0300946 -0.0606514 0.00116187  0.0349889 -0.0612517 0.00198159  0.0300924 -0.0604466 0.00174066  0.032776 -0.0767704 0.000948131  0.0380892 -0.0773149 0.0016191  0.0371512 -0.0720088 0.00115934  0.0327685 -0.0765896 0.00142181  0.0319718 -0.0712589 0.00101724  0.0371544 -0.0718302 0.00173736  0.0319631 -0.0710781 0.00152484  0.03414 -0.088106 0.000819206  0.0396854 -0.0886236 0.00139922  0.0389327 -0.0830733 0.00100636  0.0341316 -0.0879474 0.0012269  0.0334991 -0.0823734 0.000882745  0.0389316 -0.0829154 0.00150776  0.0334897 -0.0822139 0.00132257  0.0352006 -0.0998248 0.000698656  0.0409416 -0.100319 0.00119546  0.0403546 -0.0945625 0.000862598  0.0351917 -0.0996881 0.00104824  0.0347072 -0.0939112 0.000757635  0.0403516 -0.094427 0.00129396  0.0346982 -0.0937728 0.0011358  0.0359837 -0.111856 0.00058794  0.0418841 -0.112324 0.0010052  0.0414555 -0.106401 0.000731111  0.0359752 -0.111738 0.000880688  0.0356258 -0.105795 0.000642717  0.0414495 -0.106285 0.00109607  0.0356174 -0.105677 0.000962853  0.0365164 -0.124133 0.000488251  0.0425457 -0.124576 0.000833809  0.0422531 -0.118519 0.000611991  0.0365062 -0.124031 0.000732034  0.0362802 -0.117957 0.000537187  0.0422463 -0.118422 0.000916272  0.0362703 -0.117857 0.000804663  0.0368211 -0.136594 0.000396192  0.0429502 -0.137015 0.000676394  0.0427835 -0.130853 0.000502288  0.0368134 -0.136509 0.000594527  0.0366958 -0.130331 0.000441551  0.0427738 -0.130773 0.00075376  0.0366864 -0.13025 0.000660598  0.0369291 -0.149186 0.000314504  0.0431316 -0.149584 0.000536412  0.0430733 -0.143348 0.000404209  0.0369213 -0.149118 0.000471294  0.0368992 -0.142865 0.000353783  0.0430673 -0.143286 0.000604719  0.0368909 -0.142798 0.000530988  0.0368629 -0.161864 0.000241935  0.0431168 -0.162241 0.000412881  0.0431502 -0.155955 0.000315309  0.036855 -0.161808 0.000363141  0.0369163 -0.155508 0.000277668  0.0431452 -0.155904 0.000473082  0.0369089 -0.155453 0.000415325  0.0366495 -0.174583 0.000179887  0.0429306 -0.174939 0.000307709  0.0430489 -0.168626 0.000238746  0.0366395 -0.174537 0.000269085  0.0367732 -0.168209 0.000210136  0.0430446 -0.168586 0.000358045  0.0367651 -0.168168 0.000313461  0.0363104 -0.187309 0.000127524  0.0426035 -0.187646 0.000216782  0.0427935 -0.181322 0.000174105  0.0363014 -0.187271 0.000191092  0.0364952 -0.180935 0.000152737  0.042784 -0.181292 0.000259995  0.036484 -0.180905 0.000228524  0.0358698 -0.200013 8.62181e-05  0.0421603 -0.200336 0.000146002  0.0424042 -0.194015 0.000121653  0.035862 -0.199983 0.000127286  0.0361023 -0.193653 0.000105947  0.0423951 -0.193992 0.000178963  0.036092 -0.193629 0.000157446  0.0353539 -0.212667 5.27799e-05  0.0416329 -0.212977 8.77678e-05  0.0419137 -0.206676 7.7635e-05  0.035346 -0.212645 7.68602e-05  0.0356228 -0.206337 6.78897e-05  0.0419064 -0.206661 0.000114292  0.0356116 -0.20632 0.000100255  0.034786 -0.225264 2.82526e-05  0.0410457 -0.225561 4.60148e-05  0.0413568 -0.219288 4.55678e-05  0.0347779 -0.225243 4.08888e-05  0.0350766 -0.218962 3.91603e-05  0.0413446 -0.219276 6.76215e-05  0.0350678 -0.218949 5.76675e-05  0.0341902 -0.237791 9.71556e-06  0.0404255 -0.238087 1.7792e-05  0.0407498 -0.231843 2.36332e-05  0.034178 -0.237773 1.14143e-05  0.0344903 -0.231525 1.7643e-05  0.0407364 -0.231831 3.22759e-05  0.0344808 -0.231514 2.48551e-05  0.033577 -0.250272 -8.91089e-06  0.0398042 -0.25057 -8.85129e-06  0.0401309 -0.244342 4.44055e-06  0.0335662 -0.250253 -1.68681e-05  0.0338843 -0.244026 3.57628e-07  0.0401146 -0.244333 4.58956e-06  0.0338738 -0.244015 -1.13249e-06  -0.00511363 -0.00725269 -0.000547826  -0.00225217 -0.00457931 -5.96046e-08  0 0 0  -0.00331614 -0.00546181 1.78814e-07  0 0 0  -0.00221681 -0.0039729 -0.000407785  -0.00077932 -0.00190681 3.57628e-07  0 0 0  -0.00224387 -0.00455047 -0.000306189  -0.00331391 -0.00542126 -0.000478655  -0.00113774 -0.00284731 2.38419e-07  0 0 0  -0.000779897 -0.00189351 -0.000223398  -0.00113462 -0.00282959 -0.000259489  -0.0101695 -0.0113125 -0.0008789  -0.00769643 -0.00925131 -5.96046e-07  -0.007946 -0.00999849 0  -0.00611724 -0.008655 -0.000665635  -0.00409529 -0.00631494 -1.78814e-07  -0.00768967 -0.00919499 -0.000739992  -0.00794919 -0.00993822 -0.000771195  -0.00564323 -0.00769367 2.38419e-07  -0.00409891 -0.00627868 -0.000557512  -0.0056444 -0.00764992 -0.000648141  -0.0151253 -0.0160551 -0.00102687  -0.0126408 -0.0136373 0  -0.0124703 -0.0149342 0  -0.0101076 -0.0138005 -0.000776708  -0.00812531 -0.0111718 5.96046e-07  -0.0126446 -0.0135683 -0.00097242  -0.012478 -0.014864 -0.000900775  -0.0102248 -0.0123479 1.19209e-07  -0.00813419 -0.0111209 -0.000736594  -0.0102315 -0.012289 -0.000854671  -0.0199424 -0.0217364 -0.00104076  -0.0175574 -0.0188292 -2.38419e-07  -0.016782 -0.0208024 5.96046e-08  -0.0138762 -0.0198469 -0.000788748  -0.0120142 -0.0167587 1.78814e-07  -0.0175658 -0.01876 -0.00104627  -0.0167892 -0.0207305 -0.000913739  -0.0146598 -0.0177322 -2.98023e-08  -0.0120239 -0.0167001 -0.000791013  -0.0146679 -0.0176687 -0.000918716  -0.0244468 -0.0284266 -0.000985146  -0.0222305 -0.0250204 5.96046e-08  -0.0207931 -0.0276553 -2.98023e-08  -0.017371 -0.0268528 -0.000743628  -0.0156529 -0.0232892 1.19209e-07  -0.0222395 -0.0249555 -0.00101858  -0.0207967 -0.0275857 -0.000864387  -0.0188273 -0.0240971 0  -0.0156595 -0.0232305 -0.000769913  -0.0188338 -0.0240354 -0.000894457  -0.0285795 -0.0360631 -0.000896633  -0.0265555 -0.0321906 7.7486e-07  -0.0244753 -0.0354331 -7.15256e-07  -0.0205819 -0.0347657 -0.000675946  -0.0190115 -0.0307561 -2.98023e-07  -0.0265611 -0.0321316 -0.00094226  -0.0244747 -0.0353681 -0.000787675  -0.0226763 -0.0314237 -1.49012e-07  -0.019011 -0.0306993 -0.000710905  -0.0226771 -0.0313651 -0.000827193  -0.0323333 -0.0445487 -0.000799328  -0.030503 -0.0402592 -2.08616e-07  -0.0278315 -0.0440451 -1.19209e-07  -0.0235181 -0.0434979 -0.000600457  -0.0220867 -0.0390855 -5.96046e-07  -0.0305027 -0.0402051 -0.000849366  -0.0278267 -0.0439842 -0.000700295  -0.0261918 -0.0396301 -8.9407e-08  -0.0220828 -0.0390325 -0.000638396  -0.0261906 -0.0395757 -0.000743985  -0.035732 -0.053789 -0.000705063  -0.0340784 -0.0491289 -6.85453e-07  -0.0308798 -0.0533982 5.96046e-08  -0.0261992 -0.0529612 -0.000526339  -0.0248948 -0.0481906 7.15256e-07  -0.0340765 -0.0490804 -0.0007523  -0.0308741 -0.0533436 -0.000616252  -0.0293915 -0.0486239 2.38419e-07  -0.0248886 -0.0481423 -0.000563651  -0.0293871 -0.0485754 -0.000657499  -0.0388 -0.0636919 -0.000616074  -0.0373081 -0.0587059 -8.9407e-08  -0.0336443 -0.063403 -6.25849e-07  -0.028646 -0.0630659 -0.000460625  -0.0274564 -0.0579806 2.98023e-07  -0.0373054 -0.0586629 -0.000657916  -0.0336378 -0.0633529 -0.000536561  -0.0322959 -0.0583145 -3.27826e-07  -0.0274503 -0.0579372 -0.000492841  -0.0322903 -0.0582708 -0.000576049  -0.0415614 -0.0741692 -0.000530094  -0.0402212 -0.0689007 1.19209e-07  -0.0361474 -0.0739727 1.19209e-07  -0.0308748 -0.0737286 -0.000396878  -0.0297918 -0.0683692 -7.7486e-07  -0.0402172 -0.068863 -0.000572503  -0.0361401 -0.0739285 -0.000464499  -0.034927 -0.0686113 -3.57628e-07  -0.0297877 -0.0683309 -0.000427604  -0.0349193 -0.068574 -0.000499874  -0.0440425 -0.085141 -0.000452071  -0.0428385 -0.0796308 2.98023e-07  -0.0384088 -0.0850288 -3.8743e-07  -0.0329044 -0.084868 -0.000339508  -0.0319216 -0.0792749 -8.9407e-08  -0.0428367 -0.0795985 -0.000491709  -0.0384009 -0.0849882 -0.000396162  -0.0373061 -0.0794344 -5.96046e-08  -0.031914 -0.079241 -0.000366867  -0.0372993 -0.0794017 -0.000429273  -0.0462629 -0.0965318 -0.000384629  -0.0451852 -0.0908161 -4.17233e-07  -0.0404457 -0.0964955 -3.27826e-07  -0.034748 -0.0964108 -0.000285059  -0.0338557 -0.09062 4.17233e-07  -0.0451845 -0.0907882 -0.000418961  -0.040439 -0.0964601 -0.000335008  -0.039452 -0.0907039 -1.49012e-07  -0.0338483 -0.0905915 -0.000311196  -0.0394467 -0.0906758 -0.000364929  -0.0482407 -0.108271 -0.000321448  -0.047284 -0.102385 -6.25849e-07  -0.0422754 -0.108304 1.19209e-07  -0.0364199 -0.108287 -0.00023973  -0.0356095 -0.102335 2.98023e-07  -0.0472817 -0.10236 -0.000352532  -0.0422703 -0.108271 -0.000279725  -0.0413846 -0.10235 -8.9407e-08  -0.0356039 -0.10231 -0.000262439  -0.0413791 -0.102325 -0.000306755  -0.0499982 -0.120294 -0.000264257  -0.0491502 -0.114271 4.17233e-07  -0.043916 -0.120387 2.38419e-07  -0.0379304 -0.120432 -0.000195175  -0.0371988 -0.114349 9.53674e-07  -0.0491452 -0.11425 -0.000291288  -0.0439103 -0.120358 -0.000228822  -0.0431181 -0.114303 2.38419e-07  -0.0371939 -0.114328 -0.000215739  -0.043113 -0.114282 -0.000254035  -0.0515525 -0.132538 -0.000213683  -0.050801 -0.126409 5.36442e-07  -0.045379 -0.132687 -2.38419e-07  -0.0392932 -0.132786 -0.000158519  -0.0386332 -0.126602 2.38419e-07  -0.0508003 -0.126391 -0.000237733  -0.0453739 -0.132662 -0.000184864  -0.0446677 -0.126503 5.36442e-07  -0.0386302 -0.126584 -0.000175655  -0.0446632 -0.126484 -0.000206858  -0.0529197 -0.144956 -0.000166535  -0.0522597 -0.138744 -5.96046e-08  -0.0466821 -0.145149 2.38419e-07  -0.0405208 -0.145293 -0.000123233  -0.0399281 -0.139036 5.96046e-08  -0.0522577 -0.138729 -0.000189334  -0.0466781 -0.145125 -0.000144899  -0.0460488 -0.138889 4.17233e-07  -0.0399249 -0.139021 -0.000140518  -0.0460446 -0.138874 -0.000164241  -0.0541217 -0.157489 -0.000127882  -0.053539 -0.151221 7.15256e-07  -0.0478392 -0.15772 1.19209e-07  -0.0416265 -0.157908 -9.28938e-05  -0.0410907 -0.151601 -1.78814e-07  -0.0535426 -0.151209 -0.000146717  -0.0478363 -0.157701 -0.000110567  -0.047277 -0.151413 -8.9407e-08  -0.0410895 -0.151589 -0.000107765  -0.0472751 -0.151401 -0.000127792  -0.055172 -0.170097 -9.37581e-05  -0.0546625 -0.163795 -5.66244e-07  -0.0488663 -0.170364 -5.96046e-07  -0.0426199 -0.170583 -6.76811e-05  -0.0421395 -0.164248 -2.98023e-07  -0.0546632 -0.163786 -0.000109136  -0.0488632 -0.170346 -8.01086e-05  -0.0483661 -0.164026 1.78814e-07  -0.042135 -0.164238 -8.10623e-05  -0.0483649 -0.164015 -9.498e-05  -0.0560935 -0.182746 -6.75619e-05  -0.0556471 -0.176425 4.76837e-07  -0.0497839 -0.183035 -3.27826e-07  -0.0435178 -0.183281 -4.80115e-05  -0.0430822 -0.176936 1.19209e-07  -0.0556474 -0.176417 -7.89762e-05  -0.0497794 -0.183019 -5.65648e-05  -0.0493381 -0.176686 2.38419e-07  -0.0430806 -0.176929 -5.72801e-05  -0.049335 -0.176678 -6.80387e-05  -0.0569074 -0.195393 -4.22895e-05  -0.0565126 -0.189077 -5.06639e-07  -0.0506036 -0.195704 5.96046e-07  -0.0443335 -0.195972 -3.17395e-05  -0.0439358 -0.189635 5.96046e-08  -0.0565121 -0.18907 -5.27203e-05  -0.0506005 -0.195689 -3.58522e-05  -0.0502024 -0.189362 2.98023e-07  -0.0439353 -0.189628 -3.85642e-05  -0.0502007 -0.189354 -4.55379e-05  -0.0576375 -0.208021 -2.25902e-05  -0.0572803 -0.201715 4.17233e-07  -0.051348 -0.208346 -1.19209e-07  -0.0450826 -0.208626 -1.79708e-05  -0.0447185 -0.202309 -7.15256e-07  -0.0572829 -0.201711 -3.3766e-05  -0.0513442 -0.20833 -2.07424e-05  -0.0509851 -0.202017 4.76837e-07  -0.0447142 -0.202303 -2.42591e-05  -0.0509808 -0.202013 -2.79248e-05  -0.0583026 -0.220605 -1.38581e-05  -0.0579734 -0.214323 7.7486e-07  -0.0520358 -0.220932 -7.7486e-07  -0.0457809 -0.221225 -9.62615e-06  -0.0454371 -0.214934 5.36442e-07  -0.0579751 -0.214318 -1.809e-05  -0.0520327 -0.22092 -1.12951e-05  -0.0516977 -0.214633 6.55651e-07  -0.0454371 -0.21493 -1.24276e-05  -0.0516939 -0.214631 -1.508e-05  -0.058939 -0.23314 -4.97699e-06  -0.0586262 -0.226879 -3.27826e-07  -0.0526867 -0.233464 -6.25849e-07  -0.0464401 -0.233759 -1.16229e-06  -0.0461154 -0.227501 -1.49012e-07  -0.0586228 -0.226878 -9.95398e-06  -0.0526836 -0.233453 -3.45707e-06  -0.0523636 -0.227195 -5.96046e-07  -0.046113 -0.227498 -5.39422e-06  -0.0523605 -0.227192 -6.94394e-06  -0.0595675 -0.245633 3.72529e-06  -0.0592558 -0.239392 2.98023e-07  -0.0533254 -0.245957 2.38419e-07  -0.0470808 -0.246237 6.82473e-06  -0.0467627 -0.240006 4.17233e-07  -0.0592537 -0.239388 -1.2517e-06  -0.0533199 -0.245939 3.96371e-06  -0.0530047 -0.239702 -5.36442e-07  -0.0467603 -0.240001 2.47359e-06  -0.0530026 -0.239698 5.36442e-07  -0.00162616 -0.00308193 -8.9407e-08  0 0 0  -0.00116294 -0.00243519 -0.000275284  -0.000405487 -0.000947624 -1.49012e-07  0 0 0  -0.00162733 -0.00305186 -0.000341415  -0.00055049 -0.0013231 -5.36442e-07  0 0 0  -0.000405837 -0.000938207 -0.000148624  -0.000549261 -0.00131223 -0.000185817  -0.00463983 -0.00762632 -4.76837e-07  -0.003424 -0.00674853 -0.000451386  -0.00219476 -0.00447063 -2.38419e-07  -0.00464682 -0.0075781 -0.000557631  -0.00303261 -0.00523932 2.38419e-07  -0.00220081 -0.00444381 -0.000376314  -0.00303805 -0.00520873 -0.000467032  -0.00796971 -0.0129503 -5.96046e-08  -0.00607544 -0.0121449 -0.000527114  -0.00472927 -0.00936826 3.57628e-07  -0.00797909 -0.0128907 -0.00065279  -0.00630718 -0.0101702 1.19209e-07  -0.00473827 -0.00932734 -0.000498623  -0.00631604 -0.0101243 -0.000618368  -0.0111704 -0.0191581 -8.64267e-07  -0.00867295 -0.0184794 -0.000531524  -0.00738567 -0.0152429 -2.98023e-07  -0.0111765 -0.0190949 -0.000660866  -0.00959447 -0.0159258 -3.27826e-07  -0.00739223 -0.0151924 -0.000534683  -0.00960392 -0.015871 -0.000664413  -0.0141438 -0.0262999 -3.57628e-07  -0.0110941 -0.0257367 -0.000497639  -0.00990206 -0.0220471 5.96046e-08  -0.0141457 -0.0262352 -0.00062272  -0.0126864 -0.022604 -2.68221e-07  -0.00990754 -0.0219929 -0.00051856  -0.0126903 -0.0225472 -0.000645012  -0.0168794 -0.0343247 -3.57628e-07  -0.0133322 -0.0338619 -0.000452995  -0.0122356 -0.0297471 -9.23872e-07  -0.0168765 -0.0342611 -0.000564218  -0.0155405 -0.0301952 -2.68221e-07  -0.0122352 -0.0296929 -0.000477433  -0.0155393 -0.0301404 -0.000594556  -0.019392 -0.0431558 4.17233e-07  -0.0154005 -0.0427834 -0.000400364  -0.0143886 -0.0382777 2.98023e-07  -0.0193847 -0.043097 -0.000501156  -0.0181615 -0.038633 1.78814e-07  -0.0143848 -0.0382266 -0.000426352  -0.018158 -0.0385808 -0.000533015  -0.0216961 -0.0527055 3.57628e-07  -0.0173163 -0.0524158 -0.000350982  -0.0163827 -0.0475608 2.98023e-07  -0.0216885 -0.0526505 -0.000440359  -0.0205665 -0.0478346 -2.98023e-08  -0.0163757 -0.0475141 -0.000376642  -0.0205607 -0.0477862 -0.0004704  -0.0238138 -0.0628887 -2.98023e-08  -0.0190951 -0.0626744 -0.000305921  -0.0182303 -0.0575121 -1.49012e-07  -0.0238062 -0.0628389 -0.000382364  -0.0227778 -0.0577112 2.38419e-07  -0.0182223 -0.0574694 -0.000326991  -0.0227692 -0.0576681 -0.00041002  -0.0257595 -0.0736216 1.19209e-07  -0.0207472 -0.0734783 -0.000261247  -0.0199422 -0.0680497 4.76837e-07  -0.0257522 -0.073577 -0.000329077  -0.0248072 -0.0681801 -2.38419e-07  -0.0199364 -0.068011 -0.000283092  -0.0247985 -0.0681416 -0.000355184  -0.0275468 -0.0848276 -5.36442e-07  -0.0222816 -0.0847489 -0.00022465  -0.0215348 -0.0790915 -1.10269e-06  -0.0275379 -0.0847862 -0.000281692  -0.0266724 -0.0791585 -2.38419e-07  -0.0215287 -0.0790576 -0.000244647  -0.0266632 -0.0791246 -0.000304878  -0.0291836 -0.0964283 1.78814e-07  -0.0237055 -0.0964109 -0.000189781  -0.0230116 -0.0905627 -1.49012e-07  -0.0291759 -0.0963933 -0.000236869  -0.0283831 -0.0905722 -1.19209e-07  -0.0230058 -0.0905325 -0.000206232  -0.0283746 -0.0905419 -0.000259429  -0.0306824 -0.10836 3.57628e-07  -0.0250247 -0.108394 -0.000155896  -0.0243829 -0.10239 3.57628e-07  -0.0306761 -0.108327 -0.000197887  -0.0299484 -0.102346 9.53674e-07  -0.0243764 -0.102364 -0.000172049  -0.029943 -0.10232 -0.000216961  -0.0320539 -0.120552 7.15256e-07  -0.0262483 -0.120634 -0.000127792  -0.025653 -0.114506 5.96046e-07  -0.0320472 -0.120522 -0.000162363  -0.031382 -0.114415 3.57628e-07  -0.0256482 -0.114483 -0.000142455  -0.0313781 -0.114393 -0.000178605  -0.033307 -0.132948 -5.96046e-07  -0.0273811 -0.133072 -0.000102967  -0.0268286 -0.126848 -1.49012e-07  -0.0333011 -0.13292 -0.000129968  -0.0326926 -0.126716 8.9407e-07  -0.0268251 -0.12683 -0.000115514  -0.0326887 -0.126698 -0.000145137  -0.0344485 -0.14549 -5.96046e-07  -0.0284283 -0.145653 -8.09431e-05  -0.0279173 -0.139361 -5.06639e-07  -0.0344419 -0.145468 -0.000101626  -0.0338885 -0.139192 0  -0.027915 -0.139345 -9.25958e-05  -0.0338837 -0.139177 -0.000116169  -0.0354893 -0.158136 2.98023e-07  -0.029398 -0.158329 -6.09756e-05  -0.0289247 -0.151993 1.2517e-06  -0.0354831 -0.158116 -7.77245e-05  -0.0349798 -0.151792 -3.8743e-07  -0.0289221 -0.151981 -6.97076e-05  -0.0349739 -0.15178 -8.94666e-05  -0.0364375 -0.170837 -2.38419e-07  -0.0302966 -0.171057 -4.39882e-05  -0.0298574 -0.164697 -3.57628e-07  -0.0364332 -0.170819 -5.53727e-05  -0.0359721 -0.164471 1.19209e-07  -0.0298557 -0.164687 -5.28991e-05  -0.0359685 -0.164461 -6.66082e-05  -0.0373085 -0.183557 5.96046e-08  -0.0311286 -0.183799 -3.26931e-05  -0.0307214 -0.177435 -2.68221e-07  -0.0373032 -0.18354 -3.87132e-05  -0.03688 -0.177186 4.76837e-07  -0.0307207 -0.177427 -3.68059e-05  -0.0368769 -0.177177 -4.81308e-05  -0.0381086 -0.196264 -4.17233e-07  -0.0319071 -0.196523 -1.77622e-05  -0.0315268 -0.190168 -1.78814e-07  -0.0381052 -0.196249 -2.55406e-05  -0.0377173 -0.189901 1.78814e-07  -0.0315239 -0.190162 -2.45869e-05  -0.0377121 -0.189896 -3.13222e-05  -0.0388513 -0.208929 -2.08616e-07  -0.0326381 -0.209201 -1.29044e-05  -0.0322788 -0.202873 5.36442e-07  -0.0388482 -0.208915 -1.5676e-05  -0.0384846 -0.202592 1.78814e-07  -0.032279 -0.202867 -1.48118e-05  -0.0384839 -0.202586 -1.92225e-05  -0.0395486 -0.221534 8.9407e-07  -0.0333283 -0.221817 -3.75509e-06  -0.0329883 -0.215521 -2.98023e-07  -0.0395443 -0.221521 -5.72205e-06  -0.0392044 -0.215229 -3.27826e-07  -0.0329881 -0.215516 -8.10623e-06  -0.0392008 -0.215225 -1.05798e-05  -0.0402088 -0.234073 -5.06639e-07  -0.0339875 -0.234357 1.78814e-06  -0.0336626 -0.228099 -3.57628e-07  -0.0402064 -0.234059 -7.15256e-07  -0.0398808 -0.227802 1.78814e-07  -0.0336599 -0.228094 -1.90735e-06  -0.0398781 -0.227798 -2.5332e-06  -0.0408554 -0.246541 5.96046e-07  -0.0346332 -0.246817 6.61612e-06  -0.0343113 -0.240599 -4.17233e-07  -0.0408521 -0.24653 7.06315e-06  -0.0405295 -0.240304 -1.3113e-06  -0.0343103 -0.240595 2.5034e-06  -0.0405283 -0.2403 2.89083e-06  -0.000801086 -0.00205851 -1.49012e-07  0 0 0  -0.000497229 -0.00178599 -0.000138402  -0.000172351 -0.000572741 2.98023e-07  0 0 0  -0.000802353 -0.00203398 -0.000207186  -0.000273939 -0.000711292 2.38419e-07  0 0 0  -0.000173524 -0.000564277 -7.48038e-05  -0.000273176 -0.000702977 -0.000112325  -0.00240898 -0.00619897 0  -0.0015135 -0.00577685 -0.00022772  -0.000953764 -0.00359944 -1.49012e-07  -0.00241496 -0.00615767 -0.000339955  -0.00153041 -0.00393763 1.19209e-07  -0.000955477 -0.00357908 -0.000191092  -0.00153485 -0.00391385 -0.000284195  -0.00436178 -0.0116336 4.17233e-07  -0.00279 -0.0112044 -0.000266194  -0.00213224 -0.00838241 3.57628e-07  -0.00436729 -0.0115813 -0.000397563  -0.00336698 -0.00877452 3.57628e-07  -0.00213456 -0.00834745 -0.000252783  -0.00337428 -0.00873697 -0.000377119  -0.00632823 -0.0180726 -4.76837e-07  -0.00411367 -0.017702 -0.000269681  -0.00345027 -0.0143755 1.78814e-07  -0.00633177 -0.0180126 -0.000401378  -0.00535405 -0.0147234 -1.19209e-07  -0.00345406 -0.014331 -0.000270367  -0.00536022 -0.0146772 -0.00040406  -0.00818783 -0.0254276 1.19209e-07  -0.00539154 -0.0251249 -0.000251025  -0.00475818 -0.0213516 1.19209e-07  -0.00818706 -0.0253641 -0.000376135  -0.00727296 -0.0216278 0  -0.00475943 -0.0213009 -0.000261247  -0.00727463 -0.021576 -0.00039041  -0.00992346 -0.0336351 6.55651e-07  -0.00660884 -0.033397 -0.000226796  -0.00600773 -0.0292093 5.96046e-08  -0.00991911 -0.0335734 -0.000339568  -0.00906909 -0.0294175 -2.38419e-07  -0.00600791 -0.0291567 -0.000238836  -0.00906706 -0.0293635 -0.000358045  -0.0115445 -0.0426253 -1.78814e-07  -0.00777262 -0.0424469 -0.000200093  -0.00719959 -0.0378774 -2.68221e-07  -0.0115388 -0.0425656 -0.000301093  -0.0107455 -0.0380247 2.38419e-07  -0.00719708 -0.0378274 -0.000213504  -0.010743 -0.0379741 -0.000320405  -0.0130663 -0.0523169 -1.01328e-06  -0.00889027 -0.052195 -0.000174582  -0.00834185 -0.0472828 4.17233e-07  -0.0130583 -0.0522627 -0.000262946  -0.0123162 -0.0473758 -4.17233e-07  -0.00833601 -0.0472361 -0.000186831  -0.0123109 -0.0473287 -0.000281721  -0.0144986 -0.0626317 7.15256e-07  -0.00996983 -0.0625619 -0.000149846  -0.00943947 -0.0573466 1.19209e-07  -0.0144908 -0.062582 -0.000227332  -0.0137926 -0.0573901 1.19209e-07  -0.00943363 -0.0573034 -0.00016129  -0.0137849 -0.0573466 -0.000245184  -0.0158494 -0.0734858 -5.96046e-08  -0.0110112 -0.0734653 -0.000129312  -0.0105004 -0.0679868 -8.9407e-08  -0.0158415 -0.0734392 -0.00019595  -0.0151827 -0.0679839 3.57628e-07  -0.0104942 -0.0679491 -0.000139147  -0.0151757 -0.0679453 -0.000210971  -0.0171235 -0.0848027 1.78814e-07  -0.0120208 -0.084827 -0.000108093  -0.011525 -0.0791255 -1.19209e-07  -0.0171156 -0.0847603 -0.00016591  -0.0164949 -0.079079 -1.01328e-06  -0.0115218 -0.0790914 -0.000118643  -0.0164865 -0.0790458 -0.000181049  -0.0183251 -0.0965065 -5.66244e-07  -0.0129946 -0.0965732 -9.17017e-05  -0.0125163 -0.0906839 7.15256e-07  -0.0183179 -0.0964694 -0.000139952  -0.0177315 -0.0905982 1.19209e-07  -0.0125113 -0.0906541 -9.90033e-05  -0.0177257 -0.090569 -0.000152528  -0.0194585 -0.108528 -5.96046e-08  -0.0139369 -0.108634 -7.56085e-05  -0.0134734 -0.102593 -2.98023e-08  -0.0194513 -0.108494 -0.000116885  -0.0188985 -0.10247 7.15256e-07  -0.0134701 -0.102567 -8.31783e-05  -0.0188926 -0.102445 -0.00012809  -0.0205246 -0.120803 -3.27826e-07  -0.0148419 -0.120942 -6.03199e-05  -0.0143971 -0.114781 -1.13249e-06  -0.0205193 -0.120773 -9.41455e-05  -0.0199984 -0.114626 7.15256e-07  -0.0143933 -0.114759 -6.79195e-05  -0.0199935 -0.114604 -0.000105143  -0.0215297 -0.13327 1.19209e-07  -0.0157145 -0.133441 -4.8995e-05  -0.0152839 -0.127189 -5.66244e-07  -0.0215243 -0.133244 -7.52509e-05  -0.0210332 -0.127003 -1.49012e-07  -0.0152828 -0.127169 -5.50151e-05  -0.0210286 -0.126986 -8.59499e-05  -0.022475 -0.145877 -1.19209e-07  -0.0165534 -0.146075 -3.78788e-05  -0.0161391 -0.139758 -8.34465e-07  -0.02247 -0.145855 -6.05285e-05  -0.0220079 -0.139549 -5.96046e-08  -0.0161383 -0.139742 -4.44353e-05  -0.0220041 -0.139533 -6.73831e-05  -0.0233653 -0.158577 2.38419e-07  -0.017359 -0.158796 -2.80142e-05  -0.0169637 -0.152437 3.57628e-07  -0.02336 -0.158555 -4.40478e-05  -0.0229251 -0.152205 5.36442e-07  -0.0169601 -0.152425 -3.2872e-05  -0.0229218 -0.152194 -5.11706e-05  -0.0242019 -0.171323 7.15256e-07  -0.0181308 -0.171561 -1.99974e-05  -0.0177517 -0.165184 -9.53674e-07  -0.0241983 -0.171304 -3.16203e-05  -0.0237887 -0.164934 4.17233e-07  -0.0177488 -0.165173 -2.41399e-05  -0.0237861 -0.164924 -3.83258e-05  -0.0249932 -0.184079 1.78814e-07  -0.0188754 -0.184334 -1.50204e-05  -0.0185077 -0.177955 1.2517e-06  -0.0249896 -0.184062 -2.262e-05  -0.0246003 -0.17769 2.98023e-07  -0.0185068 -0.177947 -1.59144e-05  -0.0246 -0.177682 -2.70009e-05  -0.0257416 -0.196814 5.36442e-07  -0.0195911 -0.197081 -7.45058e-06  -0.0192385 -0.190716 -8.34465e-07  -0.0257385 -0.196799 -1.33514e-05  -0.0253718 -0.190439 8.9407e-07  -0.0192358 -0.190709 -1.18017e-05  -0.0253699 -0.190433 -1.74642e-05  -0.0264528 -0.209503 -6.85453e-07  -0.0202806 -0.20978 -5.39422e-06  -0.0199368 -0.203441 4.76837e-07  -0.0264516 -0.20949 -8.10623e-06  -0.0261002 -0.203155 -8.9407e-08  -0.0199385 -0.203436 -6.76513e-06  -0.0260999 -0.203149 -1.07288e-05  -0.027133 -0.222124 -8.9407e-07  -0.0209453 -0.222408 8.9407e-08  -0.0206149 -0.216105 -6.85453e-07  -0.0271294 -0.222111 -2.86102e-06  -0.0267954 -0.215813 -8.9407e-08  -0.0206153 -0.216101 -2.32458e-06  -0.026794 -0.215808 -5.87106e-06  -0.0277858 -0.234668 -3.8743e-07  -0.0215919 -0.234952 1.40071e-06  -0.0212703 -0.228693 4.76837e-07  -0.0277836 -0.234654 7.45058e-07  -0.0274615 -0.228395 -1.2517e-06  -0.0212717 -0.228689 -1.04308e-06  -0.0274589 -0.228391 -1.01328e-06  -0.0284283 -0.24712 -4.47035e-07  -0.0222275 -0.247397 5.36442e-06  -0.0219078 -0.24119 5.96046e-07  -0.0284255 -0.247105 4.44055e-06  -0.0281031 -0.240895 -1.49012e-07  -0.02191 -0.241186 2.29478e-06  -0.0281043 -0.24089 3.03984e-06  -0.000220545 -0.00168347 -4.17233e-07  0 0 0  4.00692e-05 -0.00164315 1.72853e-06  1.34334e-05 -0.000493377 0  0 0 0  -0.000221208 -0.00166157 -6.89626e-05  -7.52322e-05 -0.000502914 2.98023e-07  0 0 0  1.42083e-05 -0.000487208 1.49012e-07  -7.61896e-05 -0.000496 -3.70145e-05  -0.000688478 -0.0056169 2.38419e-07  0.000100225 -0.00555405 1.01328e-06  6.91563e-05 -0.00340062 1.78814e-07  -0.000690311 -0.00558123 -0.000114381  -0.000428617 -0.00342643 6.55651e-07  7.10189e-05 -0.00338143 6.85453e-07  -0.000430256 -0.003407 -9.45628e-05  -0.0013085 -0.0110577 -2.68221e-07  0.000130057 -0.0109937 -8.64267e-07  0.000118762 -0.00815356 6.55651e-07  -0.00130937 -0.0110101 -0.000134259  -0.000986427 -0.00817809 4.76837e-07  0.000121802 -0.00812215 -5.96046e-07  -0.000987589 -0.00814497 -0.000126749  -0.00198606 -0.0176055 -8.9407e-08  9.95994e-05 -0.0175552 -1.72853e-06  0.000120699 -0.0141931 0  -0.00198534 -0.0175484 -0.00013575  -0.00164253 -0.0141988 4.76837e-07  0.000123113 -0.0141503 -1.84774e-06  -0.00164345 -0.0141555 -0.000136286  -0.00267774 -0.0250814 1.19209e-07  1.78814e-07 -0.0250543 -1.3411e-06  5.54323e-05 -0.0212418 0  -0.00267464 -0.0250211 -0.000125885  -0.00232923 -0.0212217 5.36442e-07  5.85318e-05 -0.0211931 -1.51992e-06  -0.00232995 -0.0211726 -0.000131726  -0.0033738 -0.0333984 -1.49012e-07  -0.000169992 -0.0333992 6.55651e-07  -7.78437e-05 -0.0291742 2.98023e-07  -0.00336975 -0.033339 -0.000113219  -0.00302351 -0.0291274 -8.9407e-08  -7.59363e-05 -0.0291232 5.96046e-08  -0.00302184 -0.0290757 -0.000120133  -0.00407743 -0.042486 -2.08616e-07  -0.000408471 -0.0425161 2.35438e-06  -0.000282705 -0.0379125 -5.06639e-07  -0.0040713 -0.0424297 -9.91225e-05  -0.0037235 -0.0378403 -2.68221e-07  -0.000280321 -0.0378633 1.60933e-06  -0.00371915 -0.0377898 -0.000106633  -0.00478888 -0.0522706 2.38419e-07  -0.000712395 -0.0523284 4.14252e-06  -0.000554502 -0.0473848 5.96046e-08  -0.00478423 -0.0522164 -8.52644e-05  -0.00443035 -0.0472859 2.38419e-07  -0.000552654 -0.0473383 3.21865e-06  -0.0044266 -0.0472389 -9.10759e-05  -0.00551152 -0.0626693 2.38419e-07  -0.00107527 -0.0627571 6.22869e-06  -0.000888467 -0.0575104 1.78814e-07  -0.00550592 -0.062619 -7.30753e-05  -0.00514901 -0.057386 -2.68221e-07  -0.000886559 -0.0574681 4.76837e-06  -0.00514352 -0.0573429 -7.84397e-05  -0.00624239 -0.0736032 -1.78814e-07  -0.00149298 -0.0737188 6.52671e-06  -0.00127959 -0.0682116 -8.64267e-07  -0.00623739 -0.0735572 -6.04987e-05  -0.00587451 -0.068063 4.17233e-07  -0.00127709 -0.0681729 5.30481e-06  -0.00587094 -0.0680246 -6.61016e-05  -0.0069809 -0.0849929 -1.19209e-07  -0.00196064 -0.0851341 7.03335e-06  -0.00172412 -0.0794061 -2.98023e-07  -0.00697601 -0.084951 -5.10216e-05  -0.00661123 -0.0792338 5.36442e-07  -0.00172031 -0.0793722 6.58631e-06  -0.00660563 -0.0791993 -5.49853e-05  -0.00772393 -0.0967649 -2.68221e-07  -0.00246847 -0.0969317 6.49691e-06  -0.0022105 -0.0910185 5.96046e-07  -0.00771904 -0.0967264 -4.19319e-05  -0.00735092 -0.0908238 -6.25849e-07  -0.00220823 -0.0909881 7.92742e-06  -0.00734758 -0.0907932 -4.63724e-05  -0.00846636 -0.108848 5.96046e-08  -0.00301123 -0.109038 8.04663e-06  -0.00273788 -0.102975 -4.76837e-07  -0.00846291 -0.108814 -3.42131e-05  -0.0080936 -0.102759 -2.38419e-07  -0.00273597 -0.102948 6.82473e-06  -0.00809157 -0.102733 -3.84152e-05  -0.00920701 -0.121177 5.96046e-08  -0.0035851 -0.121387 7.15256e-06  -0.00329649 -0.115207 -8.9407e-08  -0.00920391 -0.121147 -2.77162e-05  -0.00883663 -0.114974 -4.76837e-07  -0.00329447 -0.115184 5.99027e-06  -0.00883365 -0.114952 -3.09944e-05  -0.00994194 -0.133692 -8.9407e-08  -0.00418198 -0.133921 8.31485e-06  -0.0038805 -0.127652 5.36442e-07  -0.0099386 -0.133667 -2.17557e-05  -0.00957406 -0.127404 -2.08616e-07  -0.00387979 -0.127632 6.88434e-06  -0.00957072 -0.127384 -2.42591e-05  -0.0106699 -0.146341 -2.98023e-07  -0.00479591 -0.146587 5.81145e-06  -0.00448716 -0.140254 5.36442e-07  -0.0106665 -0.146318 -1.60635e-05  -0.010307 -0.139992 -8.9407e-08  -0.00448728 -0.140239 6.13928e-06  -0.0103028 -0.139977 -1.88053e-05  -0.011385 -0.159078 -6.25849e-07  -0.00542188 -0.159333 5.00679e-06  -0.00510621 -0.152963 1.19209e-06  -0.0113835 -0.159054 -1.15037e-05  -0.0110269 -0.152689 -1.19209e-07  -0.00510836 -0.15295 6.58631e-06  -0.0110264 -0.152676 -1.37985e-05  -0.0120912 -0.171852 -5.36442e-07  -0.00605679 -0.172118 3.21865e-06  -0.00573707 -0.165731 0  -0.0120876 -0.171832 -8.16584e-06  -0.0117385 -0.16545 2.98023e-07  -0.00573754 -0.165722 4.44055e-06  -0.0117364 -0.165438 -9.59635e-06  -0.0127826 -0.184631 -2.98023e-08  -0.00669408 -0.184908 2.92063e-06  -0.0063746 -0.178522 -1.2219e-06  -0.01278 -0.184614 -5.51343e-06  -0.0124376 -0.178231 4.17233e-07  -0.00637531 -0.178514 3.30806e-06  -0.0124345 -0.178223 -7.03335e-06  -0.0134604 -0.197386 -5.06639e-07  -0.00733328 -0.197669 1.96695e-06  -0.00701261 -0.191299 -1.78814e-07  -0.013458 -0.19737 -2.29478e-06  -0.0131218 -0.191002 1.19209e-07  -0.0070138 -0.19129 1.93715e-06  -0.0131202 -0.190994 -3.15905e-06  -0.0141239 -0.210087 2.38419e-07  -0.00796866 -0.210376 1.90735e-06  -0.00765252 -0.204033 -3.57628e-07  -0.0141211 -0.210074 -2.05636e-06  -0.013793 -0.203734 -1.19209e-07  -0.00765157 -0.204027 2.77162e-06  -0.013792 -0.203728 -1.57952e-06  -0.0147727 -0.22272 1.49012e-06  -0.00860286 -0.223011 2.20537e-06  -0.008286 -0.216705 6.55651e-07  -0.0147719 -0.222706 2.68221e-07  -0.0144477 -0.216402 5.96046e-08  -0.00828624 -0.216701 1.63913e-06  -0.0144486 -0.216399 0  -0.0154099 -0.235266 6.55651e-07  -0.00922942 -0.235558 4.47035e-07  -0.00891471 -0.229298 -5.96046e-08  -0.0154083 -0.235254 1.13249e-06  -0.0150914 -0.228994 -1.04308e-06  -0.00891685 -0.229294 1.2815e-06  -0.0150919 -0.228989 -3.57628e-07  -0.0160365 -0.247707 1.07288e-06  -0.00984907 -0.247994 2.5928e-06  -0.00953817 -0.241794 7.15256e-07  -0.0160358 -0.247694 2.05636e-06  -0.0157228 -0.241489 -5.96046e-08  -0.0095408 -0.241789 1.16229e-06  -0.0157228 -0.241485 1.81794e-06  0.000300825 -0.00174814 -5.96046e-08  0 0 0  0.000577435 -0.00191551 0.000138491  0.000200532 -0.000644088 5.96046e-08  0 0 0  0.000301942 -0.00172538 7.07805e-05  0.000102952 -0.000537694 2.98023e-07  0 0 0  0.000199385 -0.000636637 7.48336e-05  0.000103436 -0.000532091 3.8594e-05  0.000888407 -0.00572556 1.78814e-07  0.00171319 -0.00599539 0.000226736  0.00109456 -0.00377762 -1.19209e-07  0.000892431 -0.00569153 0.000113815  0.000571772 -0.00351602 -2.98023e-08  0.00109722 -0.00375783 0.000189692  0.000573471 -0.00349623 9.59635e-05  0.00156283 -0.0112007 0  0.0030418 -0.0114888 0.000261754  0.00236681 -0.00863278 0  0.00156766 -0.0111529 0.000131041  0.00122622 -0.00830483 3.57628e-07  0.00237292 -0.0085994 0.000248462  0.00122958 -0.00827241 0.000125587  0.00217521 -0.0177788 -2.98023e-08  0.00429487 -0.0180478 0.000264764  0.00368026 -0.0146894 2.98023e-07  0.00217938 -0.0177228 0.000131965  0.00188318 -0.0143571 -2.98023e-08  0.00368771 -0.0146462 0.000265092  0.00188658 -0.0143144 0.00013271  0.00266331 -0.0252872 4.76837e-07  0.00536585 -0.0255365 0.000247806  0.00485104 -0.0217289 -1.49012e-07  0.00266838 -0.0252277 0.00012359  0.00243688 -0.0214114 5.36442e-07  0.00485516 -0.0216794 0.000256568  0.00244141 -0.0213621 0.000128001  0.00301808 -0.0336397 -2.08616e-07  0.00623834 -0.0338809 0.000227034  0.00582403 -0.0296546 5.96046e-08  0.00302154 -0.0335802 0.000114173  0.00285751 -0.02935 -5.96046e-08  0.00582665 -0.0296042 0.000237674  0.0028618 -0.0292997 0.000119299  0.00324368 -0.0427654 -2.08616e-07  0.00692189 -0.0430051 0.000204951  0.00660032 -0.0383977 4.76837e-07  0.00324589 -0.0427077 0.000103265  0.00314695 -0.0380993 -2.08616e-07  0.00660181 -0.038348 0.000215113  0.00315052 -0.0380496 0.000108629  0.00334859 -0.0525892 -1.49012e-07  0.00743341 -0.0528315 0.000180542  0.00719762 -0.0478796 1.19209e-07  0.00335121 -0.052533 9.26554e-05  0.00331068 -0.0475823 1.19209e-07  0.00719899 -0.047833 0.000193566  0.00331312 -0.0475366 9.84967e-05  0.00334489 -0.0630253 -3.57628e-07  0.00778639 -0.0632761 0.000162393  0.0076288 -0.0580226 -2.98023e-08  0.00334692 -0.0629756 8.32975e-05  0.00336111 -0.0577229 -1.78814e-07  0.00762808 -0.0579801 0.000170887  0.0033617 -0.0576802 8.78572e-05  0.00323951 -0.073997 -6.25849e-07  0.00799608 -0.0742559 0.000140995  0.00790906 -0.0687405 -2.98023e-08  0.00324357 -0.0739514 7.32839e-05  0.00330579 -0.068438 5.96046e-08  0.00790906 -0.0687023 0.0001508  0.0033077 -0.068399 7.81715e-05  0.00304711 -0.0854233 5.96046e-08  0.00807381 -0.0856914 0.000121742  0.00805259 -0.0799531 1.19209e-07  0.00304902 -0.0853814 6.54459e-05  0.00315487 -0.0796459 2.38419e-07  0.00805008 -0.0799188 0.000131756  0.00315642 -0.0796111 6.99759e-05  0.00277376 -0.0972294 -1.2219e-06  0.00803411 -0.0975046 0.000105441  0.00806904 -0.0915831 -3.57628e-07  0.00277638 -0.0971898 5.64456e-05  0.00292134 -0.0912711 1.19209e-07  0.00806677 -0.0915522 0.000113845  0.00292158 -0.0912404 6.06179e-05  0.00243104 -0.109342 -5.96046e-08  0.00788987 -0.109625 9.04799e-05  0.00797653 -0.103555 -8.04663e-07  0.0024327 -0.109308 4.72963e-05  0.00261104 -0.103239 -3.27826e-07  0.00797522 -0.103529 9.67979e-05  0.00261378 -0.103213 5.1707e-05  0.00202549 -0.121696 1.78814e-07  0.00765336 -0.121988 7.52509e-05  0.00778377 -0.1158 -2.98023e-07  0.00202703 -0.121667 4.10676e-05  0.00223577 -0.115482 0  0.00778222 -0.115777 8.19266e-05  0.0022372 -0.115459 4.44353e-05  0.00157046 -0.134237 4.76837e-07  0.00733495 -0.134532 6.12438e-05  0.00750685 -0.128257 4.76837e-07  0.00157106 -0.13421 3.49581e-05  0.00180495 -0.127936 5.96046e-07  0.00750172 -0.128238 6.84559e-05  0.0018059 -0.127917 3.79682e-05  0.00107098 -0.146908 -7.15256e-07  0.00694847 -0.147205 4.85182e-05  0.00715327 -0.140869 -3.57628e-07  0.0010705 -0.146882 2.85506e-05  0.00132573 -0.140546 -1.49012e-07  0.00714982 -0.140853 5.48363e-05  0.00132596 -0.140531 3.0607e-05  0.000535488 -0.159653 0  0.0065043 -0.159956 3.85344e-05  0.00673628 -0.153584 7.7486e-07  0.00053525 -0.159634 2.27392e-05  0.000807762 -0.153261 4.17233e-07  0.00673199 -0.15357 4.49121e-05  0.000808239 -0.153247 2.47061e-05  -2.64645e-05 -0.172441 7.7486e-07  0.00601077 -0.172745 2.864e-05  0.00626326 -0.166357 -2.98023e-08  -2.57492e-05 -0.172423 1.66893e-05  0.000257969 -0.166034 6.55651e-07  0.00626278 -0.166346 3.35872e-05  0.000258207 -0.166024 1.92821e-05  -0.00061202 -0.185232 1.78814e-07  0.00547838 -0.185535 2.29478e-05  0.00575089 -0.179148 -6.25849e-07  -0.000611067 -0.185215 1.24872e-05  -0.000314951 -0.178828 -6.25849e-07  0.00574875 -0.17914 2.51234e-05  -0.00031662 -0.178818 1.42157e-05  -0.00121117 -0.197992 0  0.00491786 -0.198294 1.43647e-05  0.00520396 -0.191925 2.38419e-07  -0.0012114 -0.197977 9.11951e-06  -0.000910044 -0.191607 0  0.00520158 -0.191918 1.74642e-05  -0.000910282 -0.191598 1.08182e-05  -0.00182152 -0.210699 -8.9407e-08  0.00433517 -0.211001 8.76188e-06  0.004632 -0.204659 5.96046e-07  -0.00182009 -0.210685 7.86781e-06  -0.0015142 -0.204341 0  0.00462914 -0.204654 1.19209e-05  -0.00151467 -0.204336 6.28829e-06  -0.00243521 -0.223335 1.78814e-07  0.00373578 -0.223634 3.99351e-06  0.00404239 -0.217331 1.19209e-07  -0.00243545 -0.22332 2.71201e-06  -0.0021255 -0.217015 -1.49012e-07  0.00403643 -0.217326 7.56979e-06  -0.00212812 -0.21701 4.26173e-06  -0.00305152 -0.23588 -4.47035e-07  0.00312853 -0.23618 2.14577e-06  0.00343633 -0.229921 1.01328e-06  -0.00305176 -0.235866 2.68221e-07  -0.00274038 -0.229607 1.78814e-07  0.00343323 -0.229916 3.30806e-06  -0.00274324 -0.229603 1.75834e-06  -0.00366139 -0.24832 1.43051e-06  0.00252676 -0.248626 -2.35438e-06  0.00282788 -0.242418 -9.53674e-07  -0.00366092 -0.248305 -1.19209e-06  -0.0033567 -0.242104 -2.08616e-07  0.00282693 -0.242413 -2.14577e-06  -0.00335884 -0.242098 -9.83477e-07  0.000883356 -0.00225431 5.96046e-08  0 0 0  0.00124615 -0.00269544 0.000270069  0.00043495 -0.00110024 1.78814e-07  0 0 0  0.000886276 -0.00222933 0.000205696  0.000302352 -0.000822067 4.76837e-07  0 0 0  0.000433482 -0.00109005 0.000147223  0.000302367 -0.000813425 0.000111878  0.00260341 -0.0065195 -3.57628e-07  0.00361064 -0.0071708 0.000440568  0.00233436 -0.00481796 5.96046e-08  0.0026111 -0.0064832 0.000335753  0.00167297 -0.00420207 -5.96046e-08  0.00233942 -0.00479257 0.000369668  0.00167708 -0.00417966 0.000281245  0.00459266 -0.0120542 5.96046e-08  0.00628355 -0.0126954 0.000514746  0.00493923 -0.00985283 2.98023e-07  0.0046027 -0.0120037 0.000390083  0.00359431 -0.00914592 -2.98023e-08  0.00495005 -0.00981379 0.00048849  0.00360298 -0.00911003 0.000370324  0.00647622 -0.0185877 1.19209e-07  0.00878298 -0.0191596 0.000520468  0.00755611 -0.0158539 -2.98023e-08  0.00648415 -0.0185287 0.000393033  0.00555974 -0.0151899 3.57628e-07  0.00756815 -0.015807 0.000522494  0.00556976 -0.015145 0.000396162  0.00811929 -0.0260431 2.38419e-07  0.0109805 -0.0265572 0.000491977  0.00991344 -0.0227937 -3.8743e-07  0.00812566 -0.0259823 0.000370562  0.00733066 -0.0221907 2.38419e-07  0.00992167 -0.0227422 0.00050807  0.00733751 -0.0221406 0.000384003  0.0095045 -0.0343597 6.55651e-07  0.0128629 -0.0348346 0.000448644  0.0119573 -0.0306411 1.19209e-07  0.00950807 -0.0343 0.000338435  0.00884342 -0.0300864 5.96046e-08  0.0119604 -0.0305884 0.000471473  0.00884926 -0.0300351 0.000354886  0.010645 -0.0434651 -4.47035e-07  0.0144486 -0.0439132 0.000403047  0.0136908 -0.0393274 -2.68221e-07  0.0106466 -0.0434073 0.000303268  0.0101055 -0.0388077 -3.57628e-07  0.0136915 -0.0392774 0.000425249  0.0101069 -0.0387578 0.000321776  0.0115597 -0.0532766 -8.9407e-08  0.0157584 -0.0537062 0.000357658  0.0151364 -0.048771 -4.17233e-07  0.0115606 -0.053223 0.000270605  0.0111299 -0.0482774 -5.36442e-07  0.0151367 -0.0487237 0.00037989  0.0111304 -0.0482296 0.000286728  0.0122677 -0.0637101 -1.19209e-07  0.0168146 -0.0641254 0.000315309  0.0163186 -0.0588834 -3.8743e-07  0.0122672 -0.0636597 0.000238299  0.01194 -0.05841 4.17233e-07  0.0163165 -0.0588413 0.000335932  0.0119392 -0.058367 0.000254214  0.0127857 -0.0746815 0  0.0176388 -0.075085 0.000275761  0.0172572 -0.069579 6.55651e-07  0.0127857 -0.0746339 0.000207543  0.0125506 -0.0691208 4.17233e-07  0.0172536 -0.0695412 0.000295192  0.0125489 -0.0690832 0.000223011  0.0131335 -0.0861067 -8.9407e-08  0.0182519 -0.0865015 0.000237793  0.0179721 -0.0807729 2.98023e-07  0.013133 -0.0860655 0.000179768  0.0129803 -0.0803288 -3.8743e-07  0.0179701 -0.0807384 0.000256598  0.01298 -0.0802941 0.000193954  0.0133256 -0.097913 -6.25849e-07  0.0186696 -0.0982985 0.000202477  0.0184864 -0.0923855 4.17233e-07  0.0133257 -0.0978743 0.000154376  0.0132492 -0.0919546 -2.38419e-07  0.0184834 -0.0923548 0.000221133  0.0132478 -0.0919237 0.000167429  0.0133768 -0.110022 -7.15256e-07  0.0189141 -0.110402 0.000172704  0.0188148 -0.104339 -3.57628e-07  0.0133779 -0.10999 0.000131279  0.0133691 -0.103922 -4.47035e-07  0.0188122 -0.104314 0.000187576  0.0133688 -0.103895 0.00014177  0.0133063 -0.122378 3.57628e-07  0.0190049 -0.122748 0.00014174  0.0189816 -0.116569 6.55651e-07  0.0133058 -0.122348 0.000108629  0.0133564 -0.116162 1.78814e-07  0.018978 -0.116547 0.000156492  0.0133566 -0.11614 0.000119239  0.0131258 -0.134915 7.15256e-07  0.0189542 -0.135275 0.000115514  0.0189997 -0.129009 -5.96046e-08  0.0131243 -0.134888 8.97944e-05  0.0132306 -0.128615 3.57628e-07  0.0189959 -0.128991 0.000128865  0.0132285 -0.128596 9.94503e-05  0.0128489 -0.147577 4.76837e-07  0.018785 -0.147932 9.2119e-05  0.0188859 -0.141604 -9.53674e-07  0.0128479 -0.147554 7.10189e-05  0.0129993 -0.141222 -3.57628e-07  0.0188839 -0.141589 0.00010258  0.0129979 -0.141205 7.98404e-05  0.012491 -0.160322 2.98023e-07  0.0185106 -0.160667 7.25687e-05  0.0186615 -0.154304 3.57628e-07  0.0124903 -0.160301 5.53727e-05  0.0126805 -0.153932 5.96046e-07  0.0186605 -0.15429 8.26418e-05  0.0126786 -0.153918 6.33597e-05  0.0120659 -0.173104 -3.57628e-07  0.0181479 -0.17344 5.39124e-05  0.018342 -0.167061 -4.17233e-07  0.0120647 -0.173085 4.17829e-05  0.0122879 -0.166699 6.55651e-07  0.0183392 -0.16705 6.33299e-05  0.0122848 -0.166688 4.82798e-05  0.0115843 -0.185887 9.53674e-07  0.0177133 -0.186216 3.8743e-05  0.0179415 -0.179838 6.55651e-07  0.0115836 -0.185869 3.03686e-05  0.0118327 -0.179485 -5.36442e-07  0.0179374 -0.179828 4.61936e-05  0.0118306 -0.179476 3.5435e-05  0.0110583 -0.19864 1.07288e-06  0.0172191 -0.198963 2.43783e-05  0.0174739 -0.192598 1.07288e-06  0.0110593 -0.198624 2.02954e-05  0.0113273 -0.192257 4.76837e-07  0.0174732 -0.192593 3.31998e-05  0.0113258 -0.19225 2.50936e-05  0.0105011 -0.21134 -2.38419e-07  0.0166817 -0.211655 1.68085e-05  0.0169566 -0.20532 -1.49012e-07  0.0104995 -0.211325 1.31726e-05  0.0107832 -0.204985 1.19209e-07  0.0169547 -0.205314 2.02656e-05  0.0107822 -0.20498 1.5974e-05  0.00991726 -0.223966 -1.19209e-07  0.0161109 -0.224276 7.45058e-06  0.0164027 -0.217979 4.17233e-07  0.00991678 -0.223954 6.19888e-06  0.0102117 -0.217652 -3.8743e-07  0.0164001 -0.217973 1.15931e-05  0.0102117 -0.217646 9.14931e-06  0.00931716 -0.236511 -1.3411e-06  0.0155175 -0.236818 1.10269e-06  0.0158193 -0.23056 1.19209e-07  0.00931716 -0.236498 -2.68221e-07  0.009619 -0.230238 -2.38419e-07  0.0158167 -0.230556 4.61936e-06  0.00961733 -0.230234 3.15905e-06  0.00871992 -0.248963 -2.38419e-07  0.0149217 -0.249277 -6.97374e-06  0.015218 -0.24306 -7.7486e-07  0.00871873 -0.24895 -3.48687e-06  0.00901961 -0.242737 -1.49012e-07  0.0152173 -0.243056 -3.30806e-06  0.00901723 -0.242733 -2.14577e-06  0.00171071 -0.00340402 2.98023e-07  0 0 0  0.00229351 -0.00434911 0.000396311  0.000801235 -0.00214803 2.98023e-07  0 0 0  0.00171356 -0.00337487 0.000333339  0.000579327 -0.00151879 -8.9407e-08  0 0 0  0.000799239 -0.00213438 0.000215977  0.000579089 -0.00150746 0.000180781  0.00480101 -0.00813389 -1.19209e-07  0.00623912 -0.00923371 0.000646561  0.00420414 -0.00679266 -5.06639e-07  0.00481194 -0.0080893 0.000544578  0.00316472 -0.00566196 1.78814e-07  0.00420916 -0.00675833 0.000541598  0.00317106 -0.00563186 0.000456244  0.00812495 -0.0136181 1.19209e-07  0.0101955 -0.0145797 0.000755429  0.00823867 -0.0118461 4.17233e-07  0.00813869 -0.0135606 0.000636131  0.006479 -0.0107576 -5.96046e-08  0.00825015 -0.0117982 0.000715762  0.00649065 -0.0107137 0.000603318  0.0112106 -0.0199961 0  0.0138336 -0.0208425 0.000767648  0.0120462 -0.0176399 2.38419e-07  0.011223 -0.0199336 0.000645161  0.0097082 -0.0166752 1.19209e-07  0.0120599 -0.0175855 0.000769347  0.00972128 -0.0166253 0.000647992  0.0139493 -0.0273229 -1.78814e-07  0.0170844 -0.0280803 0.000727654  0.0155006 -0.0243957 0  0.0139573 -0.0272585 0.000610769  0.012627 -0.0235317 -2.98023e-07  0.0155099 -0.0243401 0.000751525  0.0126358 -0.023478 0.000631124  0.016324 -0.0355453 -9.23872e-07  0.019931 -0.0362387 0.000665784  0.0185528 -0.0321028 2.38419e-07  0.0163277 -0.0354826 0.000557482  0.0151817 -0.0313144 -3.57628e-07  0.0185586 -0.0320486 0.00069961  0.0151882 -0.0312613 0.000585824  0.0183498 -0.0445771 -1.19209e-07  0.0223818 -0.0452253 0.00060001  0.0212017 -0.0406843 -4.17233e-07  0.0183511 -0.0445199 0.000501335  0.0173792 -0.0399548 -1.78814e-07  0.0212038 -0.0406327 0.000632405  0.017382 -0.0399029 0.000529975  0.0200499 -0.054336 2.98023e-07  0.0244622 -0.0549435 0.000532478  0.0234671 -0.0500447 -2.98023e-08  0.0200511 -0.0542812 0.000445843  0.0192391 -0.0493611 -2.98023e-08  0.0234663 -0.0499977 0.000565618  0.0192399 -0.0493141 0.000473678  0.0214518 -0.0647237 1.78814e-07  0.0261993 -0.0652987 0.000468642  0.0253737 -0.0600888 -8.9407e-08  0.0214505 -0.0646715 0.000392407  0.0207876 -0.0594447 2.98023e-07  0.0253716 -0.0600458 0.000499874  0.0207877 -0.0594018 0.000418663  0.0225751 -0.0756534 -2.98023e-08  0.0276154 -0.0761996 0.000408709  0.0269462 -0.0707222 -4.76837e-07  0.0225747 -0.0756074 0.000342458  0.0220469 -0.0701135 -4.47035e-07  0.0269461 -0.0706837 0.000437528  0.0220455 -0.0700753 0.000365734  0.0234476 -0.0870432 4.76837e-07  0.0287378 -0.0875626 0.000353783  0.0282167 -0.0818596 8.34465e-07  0.0234454 -0.0870014 0.000294983  0.0230408 -0.0812837 1.78814e-07  0.0282117 -0.0818266 0.000380248  0.0230401 -0.0812498 0.000318587  0.024087 -0.0988136 3.57628e-07  0.0295932 -0.0993075 0.000301689  0.0292014 -0.0934197 6.55651e-07  0.0240865 -0.098777 0.000252515  0.0237955 -0.0928743 -2.08616e-07  0.0291972 -0.0933899 0.000326991  0.0237938 -0.092844 0.000273705  0.02452 -0.110893 3.57628e-07  0.0302051 -0.111363 0.000254095  0.0299313 -0.105326 5.36442e-07  0.0245186 -0.110861 0.000213027  0.0243295 -0.104809 1.78814e-07  0.0299292 -0.1053 0.000276774  0.0243272 -0.104782 0.000231922  0.0247644 -0.123217 4.76837e-07  0.0305972 -0.123664 0.000209481  0.0304313 -0.117506 8.9407e-07  0.0247624 -0.123187 0.000177145  0.0246665 -0.117018 2.38419e-07  0.030427 -0.117485 0.0002321  0.0246629 -0.116996 0.000194103  0.0248404 -0.135724 1.78814e-07  0.0307949 -0.136148 0.000170887  0.0307221 -0.129904 -7.7486e-07  0.02484 -0.135696 0.000142694  0.0248234 -0.12944 1.19209e-07  0.0307182 -0.129885 0.000189751  0.024823 -0.129421 0.000159442  0.0247695 -0.14836 -9.83477e-07  0.0308173 -0.148762 0.00013566  0.0308285 -0.142456 -3.8743e-07  0.0247707 -0.148335 0.000113785  0.0248241 -0.142017 -5.36442e-07  0.0308247 -0.14244 0.000151098  0.0248234 -0.142002 0.000127882  0.0245726 -0.161075 -4.17233e-07  0.03069 -0.161459 0.000104964  0.0307734 -0.155114 8.9407e-07  0.0245736 -0.161054 8.91984e-05  0.0246868 -0.154698 2.98023e-07  0.0307705 -0.155101 0.000120729  0.0246861 -0.154685 0.000101805  0.0242684 -0.173832 5.96046e-08  0.0304348 -0.174198 7.82609e-05  0.0305815 -0.167834 2.98023e-07  0.0242667 -0.173814 6.53267e-05  0.0244346 -0.16744 2.98023e-07  0.0305765 -0.167824 9.17315e-05  0.0244339 -0.16743 7.69198e-05  0.0238726 -0.186592 -9.53674e-07  0.030071 -0.186941 5.48959e-05  0.0302672 -0.180577 1.78814e-07  0.0238726 -0.186576 4.6134e-05  0.024081 -0.180202 2.98023e-07  0.0302634 -0.180569 6.57439e-05  0.0240805 -0.180193 5.58197e-05  0.0234056 -0.199323 5.96046e-07  0.0296209 -0.199659 3.88026e-05  0.0298569 -0.19331 4.17233e-07  0.0234039 -0.199306 3.12924e-05  0.0236485 -0.192951 5.36442e-07  0.0298557 -0.193304 4.57466e-05  0.0236454 -0.192945 3.96371e-05  0.0228832 -0.212007 7.7486e-07  0.0291073 -0.212329 2.35438e-05  0.0293758 -0.206005 -2.68221e-07  0.0228815 -0.211991 1.91629e-05  0.0231524 -0.205661 5.96046e-08  0.0293722 -0.205999 2.90573e-05  0.0231502 -0.205654 2.56896e-05  0.0223207 -0.224617 4.76837e-07  0.0285466 -0.224932 1.12951e-05  0.0288339 -0.218641 4.17233e-07  0.0223186 -0.224603 9.11951e-06  0.0226068 -0.218309 2.98023e-07  0.0288332 -0.218637 1.71363e-05  0.0226049 -0.218304 1.42157e-05  0.0217297 -0.237154 3.57628e-07  0.0279562 -0.237464 2.80142e-06  0.0282562 -0.231207 -1.49012e-07  0.0217288 -0.237142 1.63913e-06  0.0220284 -0.230883 -2.08616e-07  0.0282547 -0.231204 7.00355e-06  0.0220256 -0.230879 5.42402e-06  0.0211301 -0.249622 -1.87755e-06  0.0273559 -0.249939 -4.76837e-06  0.0276587 -0.24371 -5.36442e-07  0.0211306 -0.249609 -5.51343e-06  0.0214314 -0.243384 -9.23872e-07  0.0276575 -0.243707 -1.2815e-06  0.0214274 -0.24338 -2.563e-06  0.00334093 -0.00586694 -2.08616e-07  0 0 0  0.00501843 -0.00767374 0.000522912  0.00214559 -0.00485289 2.98023e-07  0 0 0  0.00334029 -0.00582522 0.000460029  0.00113782 -0.0031215 -4.47035e-07  0 0 0  0.00213798 -0.00482458 0.000289917  0.00113666 -0.00310409 0.000248641  0.00797719 -0.0106279 -2.98023e-08  0.0100718 -0.0119931 0.000844061  0.00760962 -0.00980514 1.19209e-07  0.00798592 -0.0105692 0.000745535  0.00568257 -0.00821239 -2.98023e-07  0.007606 -0.00975114 0.00071013  0.00568643 -0.0081718 0.000625879  0.0124462 -0.0158055 -5.36442e-07  0.0149579 -0.0170178 0.000988305  0.0125139 -0.0144485 -1.49012e-07  0.0124606 -0.0157391 0.000872225  0.0102396 -0.0130935 -1.78814e-07  0.0125219 -0.0143843 0.000935972  0.010251 -0.0130388 0.000825942  0.0166125 -0.0219427 -2.98023e-08  0.0196202 -0.0230226 0.0010078  0.0173216 -0.0199459 -8.9407e-08  0.0166261 -0.0218749 0.000887722  0.0145763 -0.0187345 3.57628e-07  0.0173345 -0.0198817 0.00100857  0.0145912 -0.0186762 0.000889599  0.020371 -0.0290825 -1.19209e-07  0.0238681 -0.0300654 0.000957817  0.0217884 -0.0264756 5.96046e-08  0.0203806 -0.0290174 0.000843436  0.0185474 -0.0253791 -2.38419e-07  0.021803 -0.0264151 0.000987977  0.0185581 -0.0253208 0.000870347  0.0236843 -0.0371633 4.17233e-07  0.027634 -0.0380657 0.000881702  0.0258046 -0.0340063 -8.9407e-08  0.0236912 -0.0371003 0.000774473  0.0220847 -0.0330011 3.57628e-07  0.0258126 -0.0339497 0.000921249  0.0220921 -0.0329461 0.00081104  0.0265592 -0.0460856 4.76837e-07  0.0309163 -0.0469218 0.000792533  0.0293276 -0.0424432 7.15256e-07  0.0265628 -0.0460259 0.000696123  0.0251772 -0.0415157 -2.08616e-07  0.0293338 -0.042392 0.000835687  0.0251802 -0.0414631 0.000735521  0.029013 -0.0557493 -1.78814e-07  0.0337324 -0.0565237 0.000703871  0.0323775 -0.0516808 2.38419e-07  0.0290167 -0.055692 0.000619888  0.0278378 -0.0508187 -1.19209e-07  0.032382 -0.0516336 0.00074926  0.0278401 -0.0507727 0.000656933  0.0310768 -0.0660512 -2.68221e-07  0.0361102 -0.0667747 0.000621885  0.0349718 -0.0616159 1.78814e-07  0.0310775 -0.0660008 0.00054422  0.0300928 -0.0608132 2.38419e-07  0.0349748 -0.0615742 0.000662357  0.0300945 -0.0607719 0.000581354  0.0327784 -0.0769044 0  0.0380837 -0.0775809 0.000540912  0.0371468 -0.0721517 -2.68221e-07  0.0327792 -0.0768584 0.000474781  0.0319723 -0.071403 1.78814e-07  0.0371456 -0.0721138 0.000579238  0.0319719 -0.0713646 0.000508964  0.0341444 -0.0882226 4.17233e-07  0.039686 -0.0888548 0.000466168  0.0389301 -0.0831951 -2.68221e-07  0.0341449 -0.0881816 0.000409663  0.0335026 -0.0824986 -8.9407e-08  0.0389305 -0.0831637 0.000504524  0.0335017 -0.0824657 0.00044167  0.0352061 -0.0999261 7.15256e-07  0.0409436 -0.100515 0.000397891  0.0403533 -0.0946667 -6.55651e-07  0.0352066 -0.099889 0.000349462  0.0347135 -0.094018 -2.08616e-07  0.0403569 -0.0946406 0.00043118  0.034712 -0.0939893 0.000379652  0.0359893 -0.11194 6.55651e-07  0.041886 -0.11249 0.000335366  0.0414525 -0.106491 5.96046e-08  0.0359895 -0.111908 0.000294775  0.0356338 -0.105888 -8.04663e-07  0.0414529 -0.106466 0.000365853  0.0356306 -0.105862 0.000321239  0.0365224 -0.124203 4.17233e-07  0.0425481 -0.124715 0.000276357  0.0422525 -0.118596 7.7486e-07  0.0365216 -0.124175 0.000244439  0.036287 -0.118034 3.57628e-07  0.0422512 -0.118574 0.000307083  0.0362856 -0.118013 0.000268281  0.0368278 -0.136652 -8.9407e-08  0.0429561 -0.137126 0.000227422  0.0427833 -0.130917 -7.15256e-07  0.0368279 -0.136626 0.000198752  0.0367007 -0.130398 5.96046e-08  0.0427803 -0.1309 0.000251293  0.0367023 -0.130379 0.000220299  0.036937 -0.149235 -4.17233e-07  0.0431385 -0.149676 0.000180572  0.0430738 -0.143402 -2.98023e-07  0.0369351 -0.149211 0.000157356  0.0369064 -0.142919 2.38419e-07  0.0430733 -0.143387 0.000202298  0.0369045 -0.142903 0.000177205  0.0368707 -0.161901 -6.55651e-07  0.0431235 -0.162309 0.00014028  0.0431569 -0.155995 8.34465e-07  0.0368702 -0.161879 0.000120789  0.0369244 -0.155547 6.55651e-07  0.0431547 -0.155983 0.000158519  0.0369217 -0.155535 0.000139683  0.0366569 -0.17461 5.96046e-08  0.0429399 -0.174991 0.000102699  0.0430524 -0.168654 -8.9407e-08  0.0366552 -0.174592 8.89003e-05  0.0367827 -0.168241 6.55651e-07  0.0430532 -0.168647 0.000120312  0.0367799 -0.168231 0.000106186  0.0363152 -0.187329 -1.78814e-07  0.0426149 -0.187684 7.41184e-05  0.0427947 -0.181345 5.96046e-07  0.036315 -0.187312 6.44326e-05  0.0365002 -0.180959 -2.68221e-07  0.0427918 -0.181337 8.80063e-05  0.0364997 -0.18095 7.51317e-05  0.0358756 -0.200027 2.98023e-07  0.0421729 -0.20036 4.96507e-05  0.0424061 -0.19403 -4.47035e-07  0.0358753 -0.200012 4.19617e-05  0.0361078 -0.193671 1.19209e-07  0.0424056 -0.194024 6.05285e-05  0.036108 -0.193665 5.36442e-05  0.0353625 -0.212678 -9.83477e-07  0.0416439 -0.212994 3.00407e-05  0.0419195 -0.206689 1.01328e-06  0.0353608 -0.212664 2.70009e-05  0.0356286 -0.206349 1.01328e-06  0.0419149 -0.206684 3.99947e-05  0.0356264 -0.206344 3.48389e-05  0.0347948 -0.225271 -5.96046e-08  0.0410602 -0.225574 1.75238e-05  0.0413628 -0.219293 1.19209e-07  0.0347924 -0.225257 1.38581e-05  0.0350857 -0.218971 -1.19209e-07  0.0413566 -0.21929 2.31266e-05  0.0350831 -0.218967 1.99676e-05  0.0341964 -0.237797 1.90735e-06  0.0404444 -0.238101 7.21216e-06  0.0407572 -0.231846 -6.85453e-07  0.0341957 -0.237786 5.90086e-06  0.0345006 -0.23153 -1.19209e-07  0.040756 -0.231843 1.24276e-05  0.0344975 -0.231528 9.11951e-06  0.0335875 -0.250279 1.43051e-06  0.0398235 -0.250585 -3.51667e-06  0.0401397 -0.244348 1.2517e-06  0.0335855 -0.250267 -4.67896e-06  0.0338924 -0.244032 2.38419e-07  0.040134 -0.244343 2.32458e-06  0.0338922 -0.244027 1.2517e-06  -0.00511281 -0.00725247 0.000548363  -0.00222578 -0.00449725 0.000621915  0 0 0  -0.00331271 -0.0053483 0.000972986  0 0 0  -0.00221608 -0.00397295 0.000409424  -0.000783429 -0.00186239 0.000456572  0 0 0  -0.00224368 -0.00455062 0.000305653  -0.00331394 -0.0054207 0.0004794  -0.00113501 -0.00279145 0.00052917  0 0 0  -0.000779983 -0.00189295 0.000223875  -0.00113504 -0.00282935 0.000259817  -0.0101694 -0.0113134 0.000879884  -0.00767168 -0.00906713 0.00150299  -0.00796165 -0.00980422 0.00156224  -0.00611624 -0.00865544 0.000664592  -0.00411409 -0.00617786 0.00113082  -0.00769012 -0.00919507 0.00074023  -0.00794902 -0.00993719 0.000771642  -0.00564851 -0.00753483 0.00131643  -0.00409843 -0.0062789 0.000557363  -0.00564449 -0.00765013 0.000648558  -0.0151243 -0.0160555 0.00102663  -0.0126533 -0.0133972 0.00196427  -0.0125006 -0.0147006 0.00181437  -0.0101078 -0.013801 0.000776649  -0.0081566 -0.010973 0.001486  -0.012644 -0.0135682 0.000971854  -0.0124785 -0.0148632 0.000901997  -0.0102496 -0.0121283 0.00172466  -0.00813371 -0.0111207 0.000737011  -0.010231 -0.0122888 0.000854671  -0.0199426 -0.0217362 0.00104135  -0.0175868 -0.0185719 0.00210154  -0.016809 -0.0205582 0.0018335  -0.0138763 -0.0198463 0.000786722  -0.0120431 -0.0165328 0.00158924  -0.0175653 -0.0187602 0.00104648  -0.0167888 -0.0207308 0.000914335  -0.0146897 -0.0174903 0.00184488  -0.0120229 -0.0167009 0.000791848  -0.0146684 -0.0176687 0.000918686  -0.0244483 -0.0284268 0.000985503  -0.022257 -0.024768 0.00203985  -0.0208046 -0.0274196 0.00172877  -0.0173711 -0.026853 0.000742793  -0.0156702 -0.0230592 0.00154036  -0.0222402 -0.0249555 0.00101894  -0.0207971 -0.0275863 0.000864208  -0.0188473 -0.0238571 0.00179034  -0.0156583 -0.0232301 0.000769913  -0.0188338 -0.0240348 0.000894308  -0.0285794 -0.0360631 0.000898957  -0.026569 -0.0319592 0.00188702  -0.0244724 -0.0352168 0.00157076  -0.0205821 -0.0347656 0.00067538  -0.0190083 -0.0305357 0.00142008  -0.0265614 -0.0321312 0.000943601  -0.0244746 -0.0353675 0.000785649  -0.0226796 -0.0311963 0.00165296  -0.0190113 -0.0306996 0.000709474  -0.0226766 -0.0313654 0.000827432  -0.0323323 -0.0445478 0.000801742  -0.0305005 -0.0400482 0.00169569  -0.027816 -0.0438476 0.0013994  -0.0235186 -0.0434981 0.000600874  -0.0220696 -0.0388827 0.0012747  -0.030503 -0.0402048 0.000847876  -0.0278271 -0.0439847 0.000699878  -0.0261831 -0.0394234 0.00148517  -0.0220837 -0.0390328 0.000638247  -0.0261903 -0.0395763 0.000743866  -0.0357313 -0.0537889 0.000703633  -0.0340665 -0.0489409 0.00150228  -0.0308572 -0.0532228 0.00123096  -0.0261995 -0.0529619 0.000527084  -0.0248698 -0.0480071 0.00112635  -0.0340763 -0.0490803 0.000751257  -0.0308737 -0.0533449 0.000616074  -0.0293729 -0.0484389 0.00131369  -0.0248895 -0.0481421 0.000563681  -0.0293866 -0.0485758 0.000658333  -0.0387999 -0.0636918 0.000614107  -0.037294 -0.0585404 0.00131583  -0.0336187 -0.0632496 0.001073  -0.0286455 -0.0630662 0.000459492  -0.0274279 -0.057816 0.000985026  -0.0373061 -0.0586629 0.000658333  -0.0336372 -0.0633531 0.000536203  -0.0322708 -0.0581496 0.00114971  -0.0274502 -0.0579377 0.000493288  -0.0322893 -0.0582708 0.000575244  -0.0415611 -0.0741687 0.000531018  -0.0402018 -0.0687553 0.00114262  -0.0361212 -0.0738385 0.000926435  -0.0308763 -0.073728 0.000397265  -0.0297635 -0.0682242 0.000853717  -0.0402166 -0.0688628 0.000572741  -0.0361407 -0.0739273 0.000463903  -0.0349008 -0.0684666 0.000997543  -0.0297873 -0.0683308 0.000427127  -0.0349202 -0.0685733 0.00049901  -0.0440429 -0.0851416 0.000453413  -0.0428201 -0.0795061 0.000982821  -0.0383825 -0.0849132 0.00079143  -0.0329047 -0.0848682 0.000339687  -0.03189 -0.0791489 0.000732899  -0.0428374 -0.0795971 0.00049156  -0.0384016 -0.0849881 0.000395715  -0.0372807 -0.0793092 0.000857651  -0.0319159 -0.0792407 0.00036633  -0.0372992 -0.0794005 0.000429928  -0.0462619 -0.0965314 0.000384808  -0.0451701 -0.0907098 0.000835776  -0.040423 -0.0963982 0.000670612  -0.034749 -0.0964109 0.00028801  -0.0338268 -0.0905132 0.000623286  -0.045186 -0.0907872 0.00041765  -0.0404397 -0.0964595 0.000333607  -0.0394285 -0.0905982 0.000729561  -0.03385 -0.0905913 0.000311911  -0.0394471 -0.090676 0.000364959  -0.0482436 -0.10827 0.000321567  -0.0472686 -0.102296 0.000702918  -0.0422556 -0.108222 0.000559449  -0.0364201 -0.108287 0.000237942  -0.0355841 -0.102244 0.000523508  -0.0472811 -0.102362 0.000351787  -0.0422708 -0.108272 0.000279844  -0.0413637 -0.10226 0.000613153  -0.0356051 -0.10231 0.000262201  -0.0413797 -0.102326 0.000307262  -0.049999 -0.120294 0.000263035  -0.0491339 -0.114197 0.000583589  -0.0438964 -0.120319 0.000459075  -0.0379298 -0.120432 0.000194848  -0.037176 -0.114273 0.000433862  -0.0491462 -0.11425 0.000293076  -0.0439109 -0.120358 0.000229418  -0.0430973 -0.114228 0.000508189  -0.0371931 -0.114328 0.000217557  -0.0431137 -0.114283 0.000254631  -0.0515511 -0.132541 0.00021404  -0.0507902 -0.126348 0.000474453  -0.0453627 -0.132629 0.000368595  -0.0392927 -0.132785 0.000157297  -0.0386131 -0.126539 0.000352502  -0.0507996 -0.126392 0.000238359  -0.0453739 -0.132661 0.000184715  -0.044651 -0.12644 0.000412703  -0.0386289 -0.126584 0.000176609  -0.0446632 -0.126485 0.000206292  -0.0529175 -0.144956 0.000166655  -0.0522466 -0.138693 0.000378013  -0.0466667 -0.145103 0.000290334  -0.0405222 -0.145293 0.00012213  -0.0399071 -0.138986 0.000279486  -0.0522557 -0.138729 0.000189006  -0.0466764 -0.145125 0.000146389  -0.0460329 -0.138839 0.00032872  -0.0399232 -0.139022 0.000140488  -0.0460441 -0.138875 0.000164986  -0.0541189 -0.157489 0.000129819  -0.0535307 -0.151183 0.000292957  -0.0478263 -0.157685 0.000221074  -0.0416253 -0.157908 9.39965e-05  -0.0410762 -0.151559 0.000216007  -0.0535369 -0.15121 0.000146925  -0.0478351 -0.157701 0.000110447  -0.0472622 -0.151372 0.000254095  -0.0410891 -0.151588 0.000107884  -0.0472734 -0.1514 0.000126839  -0.0551703 -0.170098 9.31621e-05  -0.0546556 -0.163766 0.000218928  -0.0488572 -0.170337 0.000161409  -0.0426199 -0.170583 6.81281e-05  -0.0421259 -0.164217 0.000162005  -0.0546618 -0.163786 0.000109076  -0.0488636 -0.170344 8.05855e-05  -0.0483561 -0.163995 0.000190139  -0.0421362 -0.164238 8.05259e-05  -0.0483639 -0.164016 9.49502e-05  -0.0560927 -0.182744 6.24061e-05  -0.0556393 -0.176405 0.000156522  -0.049773 -0.183015 0.000111401  -0.0435174 -0.183281 4.71473e-05  -0.0430708 -0.176915 0.000115037  -0.055645 -0.176418 7.9155e-05  -0.0497794 -0.18302 5.6982e-05  -0.0493274 -0.176665 0.00013572  -0.0430796 -0.17693 5.8651e-05  -0.0493338 -0.176678 6.79493e-05  -0.0569062 -0.195396 4.30346e-05  -0.0565064 -0.189062 0.000105143  -0.0505953 -0.195692 7.25985e-05  -0.0443344 -0.195973 3.0756e-05  -0.0439277 -0.189617 7.64132e-05  -0.0565097 -0.189071 5.22137e-05  -0.0506001 -0.195691 3.64184e-05  -0.050194 -0.189345 9.03606e-05  -0.0439343 -0.189627 3.8743e-05  -0.0502005 -0.189355 4.50611e-05  -0.0576336 -0.20802 2.53916e-05  -0.0572762 -0.201706 6.634e-05  -0.0513403 -0.208335 4.28557e-05  -0.0450838 -0.208626 1.75238e-05  -0.0447094 -0.202297 4.78029e-05  -0.0572801 -0.20171 3.3915e-05  -0.0513446 -0.208331 2.19345e-05  -0.0509753 -0.202008 5.6982e-05  -0.0447171 -0.202304 2.36034e-05  -0.0509803 -0.202014 2.95639e-05  -0.0583036 -0.220605 1.508e-05  -0.0579689 -0.214317 3.77893e-05  -0.0520279 -0.220927 2.18749e-05  -0.0457795 -0.221224 7.62939e-06  -0.0454319 -0.214926 2.5034e-05  -0.0579765 -0.214318 1.99676e-05  -0.052032 -0.22092 1.10269e-05  -0.0516891 -0.214627 3.15905e-05  -0.0454373 -0.21493 1.3411e-05  -0.0516944 -0.21463 1.61529e-05  -0.058939 -0.233139 4.41074e-06  -0.0586166 -0.226875 1.69277e-05  -0.0526791 -0.233459 4.64916e-06  -0.0464394 -0.233758 1.60933e-06  -0.0461059 -0.227494 8.76188e-06  -0.0586231 -0.226877 8.64267e-06  -0.0526848 -0.233452 2.44379e-06  -0.0523555 -0.227189 1.2219e-05  -0.046113 -0.227498 4.82798e-06  -0.0523629 -0.227192 6.91414e-06  -0.0595646 -0.245637 -5.60284e-06  -0.0592432 -0.239387 1.54972e-06  -0.0533149 -0.245948 -1.13249e-05  -0.0470839 -0.246238 -6.25849e-06  -0.0467553 -0.24 -4.64916e-06  -0.0592513 -0.239389 3.57628e-07  -0.0533187 -0.245942 -5.30481e-06  -0.0529954 -0.239696 -3.27826e-06  -0.0467596 -0.240002 -3.69549e-06  -0.0530021 -0.239699 -1.49012e-06  -0.00163744 -0.00300223 0.000693977  0 0 0  -0.00116224 -0.00243527 0.000273347  -0.000408545 -0.000915781 0.000304163  0 0 0  -0.00162738 -0.00305222 0.000340641  -0.000553127 -0.00128618 0.000378072  0 0 0  -0.000405237 -0.00093849 0.000148594  -0.00054843 -0.0013119 0.00018549  -0.0046691 -0.00747438 0.00112993  -0.00342327 -0.00674899 0.000450313  -0.00221509 -0.00436625 0.000764906  -0.00464623 -0.00757861 0.000557542  -0.0030545 -0.00511979 0.00094831  -0.00219932 -0.00444393 0.000376523  -0.00303735 -0.00520799 0.000467241  -0.00800219 -0.0127521 0.00131363  -0.00607523 -0.0121447 0.00052613  -0.00475913 -0.00920621 0.00100613  -0.00797912 -0.0128898 0.000653625  -0.00634101 -0.00999036 0.00124818  -0.00473824 -0.00932741 0.000498533  -0.00631636 -0.0101241 0.000618815  -0.0111912 -0.018942 0.00132298  -0.00867176 -0.0184796 0.00053066  -0.00740951 -0.0150459 0.00107336  -0.0111767 -0.0190935 0.000660777  -0.00962317 -0.015715 0.00133336  -0.00739244 -0.0151926 0.000535309  -0.00960356 -0.0158716 0.000664055  -0.0141469 -0.026083 0.00124341  -0.0110942 -0.0257355 0.000498235  -0.00991052 -0.0218369 0.0010367  -0.0141455 -0.0262354 0.000622451  -0.0126993 -0.0223848 0.00128949  -0.00990701 -0.0219933 0.00051868  -0.0126913 -0.0225473 0.000644147  -0.0168669 -0.0341182 0.00112635  -0.0133327 -0.0338623 0.000452876  -0.0122276 -0.0295385 0.000951648  -0.0168767 -0.0342613 0.000563979  -0.0155345 -0.0299818 0.00118691  -0.0122358 -0.0296929 0.000476182  -0.0155402 -0.0301403 0.00059396  -0.0193674 -0.0429635 0.001001  -0.0154001 -0.0427835 0.000400484  -0.0143703 -0.0380806 0.00085181  -0.0193846 -0.0430956 0.000501692  -0.0181426 -0.0384333 0.00106376  -0.0143861 -0.0382265 0.00042671  -0.0181572 -0.0385814 0.000532985  -0.0216667 -0.0525324 0.000878334  -0.017316 -0.0524148 0.000351131  -0.0163547 -0.0473799 0.000750065  -0.0216893 -0.0526507 0.000439227  -0.020541 -0.0476522 0.000938833  -0.0163757 -0.0475136 0.000376284  -0.020561 -0.0477864 0.000469863  -0.0237827 -0.0627338 0.000763774  -0.0190957 -0.0626747 0.000304461  -0.0181985 -0.0573494 0.000654638  -0.0238062 -0.0628384 0.000382483  -0.0227463 -0.0575477 0.000820041  -0.0182233 -0.0574691 0.000327468  -0.0227689 -0.0576678 0.000410736  -0.0257281 -0.0734868 0.000658751  -0.0207462 -0.0734776 0.000262916  -0.0199112 -0.0679051 0.000565648  -0.0257515 -0.0735769 0.000329137  -0.0247757 -0.0680355 0.000709832  -0.019936 -0.0680112 0.000282884  -0.0247988 -0.068141 0.000354707  -0.0275159 -0.0847096 0.000562072  -0.0222821 -0.0847483 0.000222504  -0.0215034 -0.078965 0.000485301  -0.0275377 -0.0847861 0.000280261  -0.0266398 -0.0790323 0.00060904  -0.0215275 -0.0790576 0.000241697  -0.0266637 -0.0791245 0.000304878  -0.0291561 -0.0963288 0.000474095  -0.0237054 -0.0964108 0.000188768  -0.0229857 -0.0904528 0.000411928  -0.0291775 -0.0963932 0.000237703  -0.0283531 -0.090463 0.000517547  -0.0230069 -0.0905327 0.000205755  -0.0283749 -0.0905411 0.000258923  -0.0306582 -0.108274 0.000395954  -0.0250243 -0.108394 0.000157237  -0.0243573 -0.102297 0.000344336  -0.0306753 -0.108327 0.00019896  -0.029923 -0.102254 0.000434697  -0.0243789 -0.102363 0.000172913  -0.0299422 -0.102321 0.000217795  -0.0320325 -0.120482 0.000324428  -0.0262483 -0.120634 0.000129402  -0.0256298 -0.114427 0.000286102  -0.0320475 -0.120521 0.000162661  -0.0313593 -0.114337 0.00035882  -0.0256476 -0.114483 0.00014323  -0.0313765 -0.114394 0.000180066  -0.033285 -0.132889 0.000261009  -0.0273811 -0.133072 0.000102878  -0.0268079 -0.126784 0.000231922  -0.0332998 -0.132922 0.000130713  -0.0326715 -0.126652 0.000292301  -0.0268261 -0.12683 0.000116348  -0.0326881 -0.126697 0.000146449  -0.0344294 -0.145445 0.000204146  -0.0284289 -0.145654 8.09431e-05  -0.0278991 -0.139309 0.000183642  -0.0344417 -0.145468 0.000101686  -0.0338701 -0.13914 0.0002321  -0.0279145 -0.139346 9.14931e-05  -0.0338842 -0.139177 0.000116348  -0.0354726 -0.1581 0.000154257  -0.0293972 -0.158329 6.08563e-05  -0.0289087 -0.151952 0.000141919  -0.0354834 -0.158116 7.81417e-05  -0.0349631 -0.151752 0.000178933  -0.0289226 -0.15198 7.13468e-05  -0.0349739 -0.151781 8.86321e-05  -0.0364239 -0.17081 0.000112891  -0.0302961 -0.171058 4.3273e-05  -0.0298429 -0.164667 0.0001055  -0.0364335 -0.17082 5.56111e-05  -0.0359585 -0.16444 0.000133157  -0.029855 -0.164688 5.22733e-05  -0.0359685 -0.16446 6.65188e-05  -0.0372963 -0.183537 7.79629e-05  -0.0311294 -0.183799 3.23653e-05  -0.03071 -0.17741 7.44462e-05  -0.0373032 -0.183541 3.95179e-05  -0.0368679 -0.177161 9.50098e-05  -0.0307198 -0.177427 3.68357e-05  -0.0368781 -0.177178 4.79221e-05  -0.0380988 -0.19625 5.07236e-05  -0.031908 -0.196522 1.93715e-05  -0.031517 -0.190151 5.01275e-05  -0.0381036 -0.196248 2.57492e-05  -0.0377038 -0.189884 6.33597e-05  -0.0315242 -0.190163 2.43783e-05  -0.0377123 -0.189896 3.11732e-05  -0.0388446 -0.208919 2.99811e-05  -0.032639 -0.209202 1.16825e-05  -0.0322711 -0.20286 3.0756e-05  -0.038847 -0.208916 1.49012e-05  -0.038476 -0.202579 3.85642e-05  -0.0322785 -0.202867 1.49608e-05  -0.0384829 -0.202587 1.90735e-05  -0.0395405 -0.221527 1.20401e-05  -0.033329 -0.221817 3.63588e-06  -0.0329819 -0.215511 1.60336e-05  -0.0395441 -0.221522 6.3777e-06  -0.039197 -0.215221 2.01464e-05  -0.0329881 -0.215515 8.16584e-06  -0.0392017 -0.215225 1.0252e-05  -0.0402019 -0.234066 -5.96046e-07  -0.0339875 -0.234356 -8.34465e-07  -0.0336547 -0.228091 3.27826e-06  -0.040206 -0.234058 0  -0.0398734 -0.227794 5.96046e-06  -0.0336618 -0.228094 1.84774e-06  -0.0398772 -0.227798 3.21865e-06  -0.0408471 -0.246537 -1.24574e-05  -0.0346334 -0.246818 -5.54323e-06  -0.0343027 -0.240592 -6.85453e-06  -0.0408494 -0.246529 -6.79493e-06  -0.0405242 -0.240299 -7.03335e-06  -0.0343087 -0.240597 -3.99351e-06  -0.0405297 -0.240301 -3.21865e-06  -0.000810198 -0.00199977 0.000421405  0 0 0  -0.000497356 -0.00178567 0.000138521  -0.000174187 -0.000548333 0.000153065  0 0 0  -0.000801936 -0.00203481 0.000207305  -0.000276193 -0.000683993 0.00022912  0 0 0  -0.000172913 -0.000564486 7.53999e-05  -0.000273202 -0.000703692 0.000111938  -0.00242943 -0.00607702 0.00068897  -0.00151293 -0.005777 0.000228405  -0.000963405 -0.00351691 0.000387609  -0.00241439 -0.00615779 0.000339746  -0.00154631 -0.00384453 0.00057745  -0.000955433 -0.00357932 0.000190914  -0.00153415 -0.00391394 0.000284076  -0.00438404 -0.0114659 0.000800073  -0.00279048 -0.0112046 0.00026685  -0.00214598 -0.0082444 0.000510812  -0.00436765 -0.0115816 0.00039804  -0.00339231 -0.00862563 0.000760615  -0.00213477 -0.00834769 0.00025332  -0.00337473 -0.00873682 0.00037694  -0.00633943 -0.0178781 0.000802994  -0.00411424 -0.0177019 0.000268579  -0.00345987 -0.0142005 0.000543773  -0.00633165 -0.0180134 0.000400722  -0.00537235 -0.0145398 0.000810921  -0.00345406 -0.014331 0.000271201  -0.00535935 -0.0146774 0.000403821  -0.00818455 -0.025223 0.000751734  -0.00539142 -0.0251251 0.000251472  -0.00475925 -0.0211561 0.00052321  -0.00818646 -0.0253654 0.000376225  -0.00727743 -0.0214258 0.000781596  -0.00476038 -0.0213009 0.000261307  -0.00727427 -0.0215758 0.000391006  -0.00990832 -0.0334341 0.000677526  -0.00660789 -0.0333973 0.000226557  -0.00599974 -0.0290089 0.000477314  -0.00991899 -0.0335734 0.000340044  -0.0090608 -0.0292128 0.000715792  -0.00600827 -0.0291567 0.000239611  -0.0090676 -0.0293635 0.000358641  -0.0115221 -0.042436 0.000599504  -0.00777173 -0.0424466 0.000200272  -0.00718135 -0.0376849 0.000425518  -0.0115385 -0.0425652 0.000300288  -0.010727 -0.0378299 0.0006392  -0.00719696 -0.0378273 0.00021261  -0.0107415 -0.0379738 0.000320077  -0.0130401 -0.0521449 0.000525534  -0.00888956 -0.0521957 0.000173688  -0.00831902 -0.047104 0.000372648  -0.0130591 -0.0522619 0.000263393  -0.0122914 -0.0471961 0.000562131  -0.00833637 -0.0472356 0.000186563  -0.0123104 -0.0473286 0.000281096  -0.0144702 -0.0624775 0.000454426  -0.00996864 -0.0625613 0.000149727  -0.00941503 -0.0571844 0.00032407  -0.0144907 -0.0625816 0.000227869  -0.013765 -0.057227 0.000488818  -0.00943339 -0.0573029 0.000162303  -0.0137852 -0.057346 0.000244796  -0.0158216 -0.0733498 0.000391126  -0.0110122 -0.0734644 0.00012964  -0.0104761 -0.0678422 0.000278115  -0.0158415 -0.0734397 0.000196218  -0.015155 -0.0678391 0.00042206  -0.0104946 -0.0679487 0.000139594  -0.0151756 -0.0679454 0.000211179  -0.0170968 -0.0846838 0.000333488  -0.0120206 -0.0848273 0.000108361  -0.011503 -0.0789978 0.000237107  -0.0171158 -0.0847609 0.000165761  -0.0164683 -0.0789517 0.000361264  -0.0115206 -0.0790909 0.000117898  -0.0164884 -0.079045 0.000180364  -0.018302 -0.0964044 0.000280261  -0.0129951 -0.0965738 9.14931e-05  -0.0124953 -0.0905737 0.000199318  -0.0183173 -0.0964701 0.000139713  -0.017707 -0.0904895 0.000305355  -0.0125123 -0.0906547 9.95398e-05  -0.0177252 -0.0905688 0.000153482  -0.0194354 -0.108441 0.000232875  -0.0139359 -0.108633 7.59959e-05  -0.0134552 -0.102497 0.000165701  -0.019452 -0.108495 0.000116229  -0.0188766 -0.102376 0.000255764  -0.0134697 -0.102566 8.34465e-05  -0.0188926 -0.102444 0.000128329  -0.0205047 -0.12073 0.000190616  -0.0148424 -0.120942 6.1214e-05  -0.0143803 -0.114702 0.000135481  -0.0205188 -0.120773 9.50098e-05  -0.0199777 -0.114547 0.000210643  -0.014393 -0.114759 6.6936e-05  -0.0199937 -0.114604 0.000105202  -0.0215126 -0.133212 0.000151634  -0.0157137 -0.133441 4.88162e-05  -0.0152711 -0.127122 0.000108838  -0.0215229 -0.133245 7.56383e-05  -0.0210153 -0.126938 0.00017029  -0.0152813 -0.12717 5.4121e-05  -0.0210289 -0.126986 8.54135e-05  -0.0224607 -0.145829 0.000118911  -0.0165527 -0.146074 3.83258e-05  -0.0161288 -0.139704 8.64267e-05  -0.0224705 -0.145855 5.97239e-05  -0.0219929 -0.139496 0.000135243  -0.0161386 -0.139743 4.28557e-05  -0.0220028 -0.139534 6.7234e-05  -0.0233517 -0.158539 9.12547e-05  -0.0173583 -0.158797 2.67625e-05  -0.0169511 -0.152395 6.634e-05  -0.0233593 -0.158555 4.64916e-05  -0.0229108 -0.152165 0.000104368  -0.0169592 -0.152425 3.3617e-05  -0.0229204 -0.152194 5.25713e-05  -0.0241911 -0.171295 6.50287e-05  -0.0181324 -0.171561 1.90139e-05  -0.0177417 -0.165149 4.75049e-05  -0.0241971 -0.171304 3.28422e-05  -0.0237763 -0.164902 7.67708e-05  -0.0177491 -0.165173 2.36034e-05  -0.0237849 -0.164924 3.92795e-05  -0.0249832 -0.184058 4.50611e-05  -0.0188751 -0.184333 1.44839e-05  -0.0185022 -0.17793 3.3915e-05  -0.0249887 -0.184062 2.22921e-05  -0.0245898 -0.177666 5.4419e-05  -0.018507 -0.177946 1.77026e-05  -0.0245988 -0.177682 2.71797e-05  -0.0257313 -0.196798 2.86698e-05  -0.0195913 -0.197082 9.05991e-06  -0.0192316 -0.190697 2.34246e-05  -0.025737 -0.1968 1.37687e-05  -0.0253608 -0.190421 3.64184e-05  -0.0192354 -0.190709 1.15633e-05  -0.0253687 -0.190433 1.87755e-05  -0.0264463 -0.209493 1.49012e-05  -0.0202804 -0.209779 5.24521e-06  -0.0199342 -0.203427 1.24574e-05  -0.0264506 -0.209489 9.0003e-06  -0.026094 -0.203142 2.15769e-05  -0.0199389 -0.203435 5.90086e-06  -0.0260978 -0.20315 1.03712e-05  -0.027127 -0.222117 5.84126e-06  -0.0209453 -0.222409 4.76837e-07  -0.0206108 -0.216096 5.36442e-06  -0.0271292 -0.222112 2.92063e-06  -0.0267894 -0.215802 1.06096e-05  -0.0206158 -0.216101 2.08616e-06  -0.026793 -0.215807 4.94719e-06  -0.0277817 -0.23466 -2.20537e-06  -0.0215914 -0.234952 -3.09944e-06  -0.0212653 -0.228686 0  -0.0277836 -0.234653 -1.54972e-06  -0.0274568 -0.228388 1.72853e-06  -0.0212691 -0.22869 -1.78814e-07  -0.0274591 -0.228391 2.38419e-07  -0.0284228 -0.247109 -1.12653e-05  -0.0222263 -0.247396 -4.17233e-06  -0.0219049 -0.241181 -4.82798e-06  -0.0284238 -0.247108 -5.42402e-06  -0.0281019 -0.240885 -6.07967e-06  -0.0219097 -0.241187 -2.92063e-06  -0.0281034 -0.240891 -3.33786e-06  -0.000222415 -0.00163415 0.000140667  0 0 0  3.95626e-05 -0.00164357 -1.13249e-06  1.26138e-05 -0.000472814 -2.26498e-06  0 0 0  -0.000221051 -0.00166264 6.90222e-05  -7.5981e-05 -0.000480533 7.56979e-05  0 0 0  1.42828e-05 -0.000486642 -1.01328e-06  -7.54371e-05 -0.000495732 3.67165e-05  -0.000693604 -0.0055114 0.000231385  0.00010097 -0.00555345 -5.96046e-08  7.31051e-05 -0.00332588 -1.37091e-06  -0.000690371 -0.00558144 0.000113666  -0.000432447 -0.00334984 0.000193059  7.06911e-05 -0.00338131 -4.76837e-07  -0.000429943 -0.00340718 9.57251e-05  -0.001311 -0.0109064 0.000270307  0.000130266 -0.010994 1.60933e-06  0.000126392 -0.00802654 1.07288e-06  -0.00130931 -0.0110097 0.000134289  -0.000990421 -0.00804776 0.000256419  0.000121832 -0.00812188 1.37091e-06  -0.000987649 -0.00814515 0.000127554  -0.00198403 -0.0174226 0.000271559  9.97186e-05 -0.0175556 1.49012e-06  0.000131071 -0.0140266 3.03984e-06  -0.0019854 -0.0175489 0.000136316  -0.0016444 -0.0140296 0.00027436  0.000124276 -0.0141503 1.54972e-06  -0.00164419 -0.0141557 0.000137389  -0.0026691 -0.0248858 0.000252008  4.17233e-07 -0.0250548 1.19209e-07  6.78301e-05 -0.0210531 2.98023e-06  -0.00267512 -0.0250208 0.000126362  -0.00232595 -0.0210312 0.000263095  5.87702e-05 -0.0211929 2.02656e-06  -0.00232983 -0.0211726 0.000132024  -0.00336045 -0.0332035 0.000225306  -0.000169694 -0.0333993 -1.37091e-06  -6.54459e-05 -0.0289789 3.57628e-07  -0.00336957 -0.0333385 0.00011301  -0.00301313 -0.0289304 0.000239193  -7.58171e-05 -0.029123 7.7486e-07  -0.00302106 -0.0290758 0.000119567  -0.00405908 -0.0423021 0.000196934  -0.00040859 -0.0425155 -3.8147e-06  -0.000269651 -0.0377235 -3.69549e-06  -0.00407124 -0.0424299 9.90033e-05  -0.00370717 -0.0376485 0.000210941  -0.000280321 -0.0378633 -1.66893e-06  -0.00371879 -0.0377898 0.000105858  -0.00476968 -0.0521019 0.000168741  -0.000712931 -0.0523286 -5.126e-06  -0.000542402 -0.0472068 -6.31809e-06  -0.00478357 -0.0522163 8.46386e-05  -0.00441253 -0.0471064 0.000182927  -0.000552893 -0.0473382 -2.68221e-06  -0.0044263 -0.0472381 9.20296e-05  -0.00549293 -0.0625147 0.00014478  -0.00107503 -0.0627556 -4.88758e-06  -0.000876307 -0.0573482 -9.35793e-06  -0.00550556 -0.0626193 7.26581e-05  -0.00512862 -0.0572237 0.000156283  -0.000886798 -0.0574683 -4.41074e-06  -0.00514269 -0.0573427 7.80821e-05  -0.00622511 -0.0734658 0.00012207  -0.0014931 -0.0737177 -6.02007e-06  -0.00126839 -0.0680656 -1.19209e-05  -0.00623751 -0.0735559 6.14524e-05  -0.0058558 -0.0679165 0.000133634  -0.00127769 -0.0681729 -6.19888e-06  -0.0058707 -0.0680225 6.68764e-05  -0.00696492 -0.0848741 0.000101626  -0.00196111 -0.0851344 -7.27177e-06  -0.0017122 -0.0792781 -1.28746e-05  -0.00697577 -0.084952 5.05447e-05  -0.00659311 -0.0791056 0.00011152  -0.00172198 -0.0793723 -7.45058e-06  -0.00660634 -0.0791992 5.62072e-05  -0.00770867 -0.0966613 8.33273e-05  -0.00246847 -0.0969315 -7.7486e-06  -0.00220084 -0.0909067 -1.51992e-05  -0.00771892 -0.0967262 4.17829e-05  -0.00733519 -0.090712 9.28044e-05  -0.00220942 -0.0909882 -6.25849e-06  -0.00734711 -0.0907938 4.6134e-05  -0.00845158 -0.10876 6.75917e-05  -0.00301218 -0.109038 -6.49691e-06  -0.00272703 -0.102879 -1.45435e-05  -0.00846195 -0.108813 3.36766e-05  -0.00808096 -0.102664 7.59363e-05  -0.00273681 -0.102948 -8.22544e-06  -0.00809014 -0.102733 3.83258e-05  -0.00919473 -0.121104 5.48959e-05  -0.00358617 -0.121388 -5.84126e-06  -0.00328898 -0.115125 -1.3411e-05  -0.00920343 -0.121148 2.74777e-05  -0.00882375 -0.114893 6.06775e-05  -0.00329566 -0.115183 -6.85453e-06  -0.00883257 -0.114951 2.98023e-05  -0.00993299 -0.133632 4.22001e-05  -0.00418198 -0.133922 -5.96046e-06  -0.00387549 -0.127584 -1.29938e-05  -0.0099386 -0.133667 2.15173e-05  -0.00956261 -0.127336 4.87566e-05  -0.00388193 -0.127633 -6.73532e-06  -0.00957203 -0.127385 2.36034e-05  -0.0106606 -0.146294 3.20673e-05  -0.00479531 -0.146586 -4.82798e-06  -0.00448 -0.1402 -1.14441e-05  -0.0106668 -0.146318 1.56164e-05  -0.0102973 -0.139939 3.75509e-05  -0.00448704 -0.140238 -5.72205e-06  -0.0103036 -0.139977 1.91331e-05  -0.0113778 -0.159038 2.29478e-05  -0.00542092 -0.159333 -5.42402e-06  -0.00510406 -0.152919 -1.13845e-05  -0.0113828 -0.159055 1.19805e-05  -0.0110183 -0.152647 2.77758e-05  -0.00510621 -0.15295 -5.24521e-06  -0.0110264 -0.152676 1.36495e-05  -0.0120857 -0.171821 1.51992e-05  -0.00605607 -0.172118 -3.93391e-06  -0.00573468 -0.165697 -9.65595e-06  -0.0120885 -0.171831 8.52346e-06  -0.0117321 -0.165415 1.95503e-05  -0.00573778 -0.165721 -4.94719e-06  -0.0117366 -0.165439 9.23872e-06  -0.0127778 -0.18461 9.95398e-06  -0.00669503 -0.184909 -3.8147e-06  -0.00637293 -0.178495 -7.56979e-06  -0.01278 -0.184615 4.29153e-06  -0.0124323 -0.178205 1.26958e-05  -0.00637627 -0.178513 -4.64916e-06  -0.0124357 -0.178222 7.09295e-06  -0.0134554 -0.19737 5.72205e-06  -0.00733376 -0.197668 -3.39746e-06  -0.00701237 -0.191278 -6.79493e-06  -0.0134587 -0.197371 2.20537e-06  -0.0131173 -0.190982 7.56979e-06  -0.00701404 -0.191291 -3.33786e-06  -0.0131207 -0.190995 4.41074e-06  -0.0141208 -0.210077 2.68221e-06  -0.00796962 -0.210376 -2.14577e-06  -0.00764966 -0.204019 -5.24521e-06  -0.0141203 -0.210074 7.15256e-07  -0.0137887 -0.203719 3.33786e-06  -0.00765157 -0.204028 -2.98023e-06  -0.0137904 -0.203728 2.02656e-06  -0.0147722 -0.222714 -1.07288e-06  -0.00860238 -0.223011 -5.96046e-07  -0.00828457 -0.216696 -3.39746e-06  -0.0147707 -0.222707 -3.57628e-07  -0.0144486 -0.216393 1.37091e-06  -0.00828743 -0.216702 -1.01328e-06  -0.0144467 -0.2164 4.76837e-07  -0.0154088 -0.235259 -2.80142e-06  -0.00922918 -0.235557 -2.26498e-06  -0.00891495 -0.22929 -2.5034e-06  -0.015408 -0.235254 -1.66893e-06  -0.0150914 -0.228987 -1.37091e-06  -0.00891662 -0.229294 -1.3113e-06  -0.0150905 -0.22899 -8.9407e-07  -0.0160351 -0.247697 -4.82798e-06  -0.00984716 -0.247995 -2.02656e-06  -0.00953698 -0.241786 -9.53674e-07  -0.0160353 -0.247693 -1.60933e-06  -0.015722 -0.241481 -3.15905e-06  -0.0095408 -0.241789 0  -0.015722 -0.241485 -2.44379e-06  0.000305802 -0.00169754 -0.000143945  0 0 0  0.000577495 -0.00191551 -0.000138998  0.000202745 -0.000620365 -0.000154972  0 0 0  0.000302345 -0.00172532 -6.95586e-05  0.000105314 -0.000516713 -7.88569e-05  0 0 0  0.000199385 -0.000636697 -7.4327e-05  0.000103675 -0.000531733 -3.83854e-05  0.000902325 -0.0056231 -0.000231683  0.00171331 -0.0059945 -0.000226259  0.00111051 -0.00369692 -0.000386477  0.000891954 -0.00569057 -0.000113904  0.0005804 -0.0034399 -0.00019592  0.00109814 -0.0037576 -0.000189841  0.00057362 -0.00349647 -9.60827e-05  0.00157994 -0.0110502 -0.000264823  0.00304088 -0.0114892 -0.00026238  0.00239217 -0.00850052 -0.000504076  0.00156766 -0.0111534 -0.00013113  0.0012424 -0.0081768 -0.00025332  0.00237292 -0.00860012 -0.000249088  0.00123027 -0.00827253 -0.000125229  0.0021922 -0.0175982 -0.000264108  0.00429481 -0.0180475 -0.000262856  0.00370669 -0.0145187 -0.000532806  0.0021804 -0.0177215 -0.000132442  0.00189963 -0.0141896 -0.000266552  0.00368628 -0.0146459 -0.000264287  0.00188768 -0.0143143 -0.00013262  0.00267911 -0.0250944 -0.000248313  0.00536579 -0.0255365 -0.000248194  0.0048722 -0.0215373 -0.000513613  0.00266826 -0.0252278 -0.000123858  0.00245339 -0.0212225 -0.000257134  0.0048545 -0.0216791 -0.000257075  0.00244099 -0.0213625 -0.000127912  0.00302929 -0.0334466 -0.00022769  0.00623792 -0.0338805 -0.000225544  0.00583678 -0.0294591 -0.00047493  0.00302166 -0.033581 -0.000113785  0.00287193 -0.0291559 -0.000238419  0.00582552 -0.0296041 -0.00023818  0.00286227 -0.0292994 -0.000119388  0.0032528 -0.0425819 -0.000207305  0.00692308 -0.0430046 -0.000203669  0.00660992 -0.0382063 -0.000430226  0.00324583 -0.0427083 -0.000102699  0.00315779 -0.0379092 -0.00021714  0.00660276 -0.0383474 -0.000215232  0.00314975 -0.0380486 -0.0001086  0.00335765 -0.0524176 -0.000186205  0.00743318 -0.0528316 -0.000182152  0.00720328 -0.0477024 -0.000385821  0.00335157 -0.0525335 -9.33409e-05  0.00332057 -0.0474048 -0.000196874  0.00719827 -0.0478337 -0.000193119  0.0033133 -0.0475364 -9.79304e-05  0.00335205 -0.0628703 -0.000166178  0.00778723 -0.0632762 -0.000160098  0.00763381 -0.0578601 -0.000341773  0.00334716 -0.0629762 -8.39233e-05  0.00336778 -0.0575604 -0.000176728  0.00763047 -0.0579802 -0.000171661  0.00336194 -0.05768 -8.81553e-05  0.00324702 -0.0738602 -0.000147045  0.00799549 -0.0742564 -0.000141501  0.00791061 -0.0685946 -0.000300825  0.00324333 -0.0739509 -7.4029e-05  0.00331175 -0.0682922 -0.000156522  0.00790799 -0.0687019 -0.000151336  0.00330698 -0.0683982 -7.80821e-05  0.00305307 -0.0853037 -0.000129998  0.00807452 -0.0856909 -0.000122666  0.00805163 -0.0798249 -0.000263691  0.0030489 -0.0853816 -6.53863e-05  0.00316179 -0.079517 -0.00013864  0.00805116 -0.0799196 -0.000131667  0.0031569 -0.0796113 -6.93798e-05  0.00277841 -0.0971248 -0.000113666  0.00803447 -0.0975056 -0.000104785  0.0080694 -0.0914713 -0.000228047  0.00277579 -0.0971907 -5.74589e-05  0.0029254 -0.0911594 -0.000121236  0.00806773 -0.0915529 -0.000113726  0.00292146 -0.0912407 -6.13332e-05  0.00243437 -0.109254 -9.74536e-05  0.00789022 -0.109625 -9.00626e-05  0.00797486 -0.103459 -0.00019443  0.00243258 -0.109308 -4.82798e-05  0.00261486 -0.103143 -0.000104547  0.00797498 -0.103528 -9.84669e-05  0.00261259 -0.103213 -5.19753e-05  0.00202858 -0.121624 -8.10623e-05  0.00765252 -0.121986 -7.52807e-05  0.00778282 -0.115719 -0.00016427  0.00202799 -0.121666 -4.06504e-05  0.00223911 -0.1154 -8.91089e-05  0.00778282 -0.115778 -8.14199e-05  0.00223756 -0.115459 -4.43459e-05  0.00157058 -0.134177 -6.74725e-05  0.00733626 -0.134532 -6.16908e-05  0.00750303 -0.128189 -0.000135958  0.00157118 -0.134209 -3.34382e-05  0.00180709 -0.127869 -7.48634e-05  0.00750387 -0.128238 -6.75321e-05  0.00180507 -0.127917 -3.76105e-05  0.00107098 -0.146856 -5.54323e-05  0.00694871 -0.147204 -4.95911e-05  0.0071497 -0.140813 -0.000110626  0.00107121 -0.146883 -2.83718e-05  0.00132728 -0.140491 -6.11544e-05  0.00714993 -0.140852 -5.50747e-05  0.00132596 -0.14053 -3.0458e-05  0.00053525 -0.159616 -4.41074e-05  0.0065043 -0.159956 -3.9041e-05  0.00673032 -0.153538 -8.85129e-05  0.000537634 -0.159632 -2.17557e-05  0.000807762 -0.153216 -5.00083e-05  0.00673342 -0.153571 -4.45843e-05  0.000808001 -0.153248 -2.47359e-05  -2.81334e-05 -0.172412 -3.37362e-05  0.00600886 -0.172745 -2.94447e-05  0.00626302 -0.166322 -6.71744e-05  -2.69413e-05 -0.172423 -1.57952e-05  0.00025773 -0.165999 -3.8445e-05  0.00626183 -0.166345 -3.26037e-05  0.000257015 -0.166023 -1.87755e-05  -0.000613689 -0.185208 -2.55108e-05  0.00547767 -0.185536 -2.13385e-05  0.00574613 -0.179121 -5.12004e-05  -0.000611544 -0.185215 -1.32322e-05  -0.000316381 -0.1788 -2.95043e-05  0.00574708 -0.17914 -2.64049e-05  -0.000316381 -0.178819 -1.4782e-05  -0.00121331 -0.197975 -1.80006e-05  0.00491714 -0.198295 -1.38283e-05  0.00520158 -0.191905 -3.50475e-05  -0.00120997 -0.197977 -9.47714e-06  -0.000910521 -0.191586 -2.11e-05  0.00520205 -0.191918 -1.8239e-05  -0.00090909 -0.191598 -1.07884e-05  -0.00182223 -0.210686 -1.13845e-05  0.00433469 -0.211 -9.71556e-06  0.00462937 -0.204646 -2.29478e-05  -0.00182009 -0.210685 -6.55651e-06  -0.00151467 -0.204328 -1.51396e-05  0.00462794 -0.204654 -1.14441e-05  -0.00151348 -0.204336 -7.62939e-06  -0.00243688 -0.223325 -5.84126e-06  0.00373673 -0.223633 -3.8147e-06  0.00403643 -0.21732 -1.37687e-05  -0.00243568 -0.22332 -2.02656e-06  -0.00212979 -0.217004 -8.88109e-06  0.00403666 -0.217325 -6.4373e-06  -0.00212669 -0.21701 -4.82798e-06  -0.0030539 -0.235873 -8.34465e-07  0.00312924 -0.236181 -2.38419e-07  0.00343394 -0.229913 -5.06639e-06  -0.00305223 -0.235866 -1.01328e-06  -0.00274515 -0.2296 -3.8147e-06  0.00343442 -0.229917 -2.5034e-06  -0.00274324 -0.229603 -2.68221e-06  -0.00366378 -0.248313 3.39746e-06  0.00252509 -0.248624 5.48363e-06  0.00282454 -0.242409 2.68221e-06  -0.00366187 -0.248307 3.03984e-06  -0.00335884 -0.242094 1.13249e-06  0.00282764 -0.242413 8.9407e-07  -0.00335789 -0.242099 5.96046e-07  0.000895441 -0.0021944 -0.00041914  0 0 0  0.00124635 -0.00269568 -0.000270128  0.000438064 -0.00106889 -0.000301123  0 0 0  0.000885949 -0.0022288 -0.000204682  0.000305489 -0.00079459 -0.000228941  0 0 0  0.000432931 -0.00109011 -0.000147343  0.000302225 -0.000814259 -0.000111461  0.00263318 -0.00640446 -0.000680745  0.00361052 -0.00717098 -0.000442266  0.00236109 -0.00471884 -0.000752449  0.00261125 -0.00648129 -0.000334799  0.00169425 -0.00411433 -0.00057286  0.00234023 -0.00479281 -0.000370026  0.00167792 -0.00418001 -0.000281751  0.00462851 -0.0118911 -0.000785232  0.00628355 -0.0126953 -0.000515282  0.0049814 -0.00969917 -0.000986278  0.00460282 -0.0120033 -0.000389457  0.00362989 -0.00900501 -0.000748575  0.00495052 -0.00981367 -0.000488043  0.00360352 -0.00911045 -0.000370622  0.00650555 -0.0183978 -0.000788093  0.0087831 -0.0191593 -0.000519753  0.00759739 -0.015667 -0.00105017  0.00648427 -0.0185285 -0.000392675  0.005595 -0.0150128 -0.000794649  0.00756633 -0.0158061 -0.000522316  0.00556949 -0.0151448 -0.000395834  0.00813931 -0.0258424 -0.000741959  0.0109798 -0.0265565 -0.000490785  0.00994271 -0.0225924 -0.00101721  0.00812554 -0.0259825 -0.000370562  0.00735557 -0.0219961 -0.000768006  0.00992161 -0.022742 -0.000508904  0.00733739 -0.0221403 -0.000383198  0.00951505 -0.0341645 -0.000676811  0.0128627 -0.0348343 -0.000449836  0.0119733 -0.0304383 -0.000942767  0.00950825 -0.0343005 -0.000338793  0.00885856 -0.029888 -0.000710547  0.0119607 -0.030588 -0.000471294  0.00884891 -0.0300342 -0.000354767  0.0106497 -0.0432802 -0.000607908  0.014448 -0.0439132 -0.000403821  0.0136967 -0.0391341 -0.000851691  0.0106463 -0.0434083 -0.000305355  0.0101125 -0.0386158 -0.000642359  0.013691 -0.039277 -0.00042665  0.010107 -0.0387574 -0.000321507  0.0115596 -0.0531062 -0.000540495  0.0157574 -0.0537059 -0.00035876  0.0151374 -0.0485909 -0.000760853  0.0115604 -0.0532233 -0.000270844  0.0111321 -0.0480985 -0.000573695  0.0151357 -0.0487241 -0.000380576  0.0111306 -0.0482293 -0.000287354  0.0122647 -0.0635567 -0.000475705  0.016814 -0.0641259 -0.000313938  0.0163139 -0.058721 -0.00067246  0.012267 -0.0636597 -0.000237942  0.011937 -0.0582473 -0.000507712  0.016317 -0.0588413 -0.000335753  0.0119389 -0.0583671 -0.00025332  0.0127825 -0.0745439 -0.000416517  0.0176377 -0.0750849 -0.000273883  0.0172495 -0.0694341 -0.000588775  0.0127861 -0.0746347 -0.000208318  0.012548 -0.0689758 -0.000445247  0.0172544 -0.0695415 -0.000294566  0.0125487 -0.0690832 -0.000222504  0.0131299 -0.0859864 -0.000361025  0.0182512 -0.0865019 -0.000238776  0.0179653 -0.0806453 -0.000512838  0.0131334 -0.0860639 -0.000181258  0.0129786 -0.0802009 -0.000388324  0.0179706 -0.0807387 -0.000256538  0.0129799 -0.0802953 -0.000194073  0.0133206 -0.0978065 -0.000309169  0.01867 -0.0982984 -0.000202239  0.0184773 -0.0922736 -0.000440538  0.0133256 -0.0978743 -0.000154316  0.0132444 -0.0918429 -0.000335038  0.0184845 -0.0923551 -0.000220656  0.0132475 -0.0919247 -0.00016737  0.013373 -0.109937 -0.000261128  0.0189148 -0.110402 -0.000171304  0.0188082 -0.104245 -0.000374258  0.0133775 -0.109991 -0.000130415  0.0133637 -0.103826 -0.000284672  0.0188137 -0.104314 -0.000187099  0.0133677 -0.103896 -0.000142574  0.0133004 -0.122304 -0.000217438  0.0190037 -0.122748 -0.000142932  0.018972 -0.116488 -0.000312567  0.0133061 -0.122348 -0.000109196  0.0133526 -0.116081 -0.000238955  0.0189784 -0.116546 -0.000156403  0.0133562 -0.11614 -0.000119925  0.0131197 -0.134852 -0.000178337  0.0189545 -0.135274 -0.000116527  0.0189893 -0.128943 -0.000258386  0.0131239 -0.134887 -8.69036e-05  0.0132234 -0.128548 -0.000197113  0.0189959 -0.12899 -0.000129223  0.0132283 -0.128596 -9.87649e-05  0.0128429 -0.147529 -0.000142276  0.018784 -0.147933 -9.28044e-05  0.0188804 -0.141549 -0.000208437  0.0128479 -0.147555 -7.14064e-05  0.012993 -0.141165 -0.000160217  0.0188838 -0.141588 -0.00010401  0.0129987 -0.141205 -8.01086e-05  0.0124853 -0.160283 -0.000110328  0.0185091 -0.160667 -7.33137e-05  0.0186541 -0.154259 -0.000163913  0.0124905 -0.160302 -5.45382e-05  0.0126731 -0.153886 -0.000125647  0.0186574 -0.154291 -8.23736e-05  0.0126796 -0.153919 -6.24657e-05  0.0120595 -0.173073 -8.39829e-05  0.018147 -0.173441 -5.45979e-05  0.0183344 -0.167026 -0.000125587  0.0120654 -0.173086 -4.23789e-05  0.0122809 -0.166664 -9.62615e-05  0.0183384 -0.167049 -6.30617e-05  0.0122859 -0.166687 -4.78625e-05  0.0115793 -0.185863 -5.93662e-05  0.0177116 -0.186216 -3.89218e-05  0.0179322 -0.179811 -9.08375e-05  0.0115831 -0.185869 -2.95043e-05  0.0118275 -0.179459 -7.13468e-05  0.0179374 -0.179828 -4.51207e-05  0.0118322 -0.179477 -3.63588e-05  0.011055 -0.198624 -4.04119e-05  0.0172186 -0.198962 -2.65241e-05  0.0174689 -0.19258 -6.30021e-05  0.0110571 -0.198624 -1.93119e-05  0.011322 -0.192236 -4.8995e-05  0.0174725 -0.192593 -3.11732e-05  0.0113258 -0.192249 -2.39015e-05  0.0104959 -0.211327 -2.45571e-05  0.0166807 -0.211656 -1.5974e-05  0.0169494 -0.205305 -4.12464e-05  0.0105004 -0.211325 -1.18017e-05  0.0107803 -0.204971 -3.29018e-05  0.0169549 -0.205314 -2.03848e-05  0.0107832 -0.204979 -1.63913e-05  0.00991154 -0.223958 -1.16229e-05  0.0161109 -0.224276 -7.86781e-06  0.0163951 -0.217969 -2.33054e-05  0.00991583 -0.223953 -7.62939e-06  0.0102072 -0.217642 -1.87159e-05  0.0163987 -0.217973 -1.13845e-05  0.0102119 -0.217646 -9.47714e-06  0.00931263 -0.236504 -1.96695e-06  0.0155165 -0.236819 -5.96046e-07  0.0158129 -0.230552 -8.46386e-06  0.00931764 -0.236498 -1.60933e-06  0.00961447 -0.23023 -6.73532e-06  0.0158157 -0.230556 -4.17233e-06  0.00961757 -0.230234 -3.09944e-06  0.00871515 -0.248956 7.92742e-06  0.0149224 -0.249278 4.88758e-06  0.015214 -0.243053 3.99351e-06  0.00871778 -0.248949 3.75509e-06  0.00901365 -0.242729 3.33786e-06  0.0152175 -0.243057 1.96695e-06  0.00901794 -0.242734 1.3113e-06  0.00172594 -0.00332844 -0.000679493  0 0 0  0.0022939 -0.00434959 -0.000397861  0.000804245 -0.0021047 -0.000441909  0 0 0  0.00171393 -0.00337338 -0.00033319  0.000583306 -0.00148296 -0.000370204  0 0 0  0.000799552 -0.00213474 -0.000216067  0.0005785 -0.00150836 -0.000181258  0.00484058 -0.00799161 -0.00110388  0.00623912 -0.00923377 -0.000645101  0.00422896 -0.00666398 -0.00109923  0.00481167 -0.00808948 -0.000545442  0.00319353 -0.00555003 -0.000927031  0.00420897 -0.00675881 -0.000541627  0.00317019 -0.0056327 -0.000456154  0.0081735 -0.0134296 -0.00128061  0.0101958 -0.0145799 -0.000753999  0.00828472 -0.0116612 -0.00144339  0.00813836 -0.0135601 -0.000636458  0.00652504 -0.0105887 -0.00121784  0.00824949 -0.0117983 -0.000714839  0.00649121 -0.0107138 -0.000603259  0.0112518 -0.0197906 -0.00129187  0.0138338 -0.020842 -0.00076741  0.012096 -0.0174289 -0.00154471  0.0112225 -0.0199341 -0.000644624  0.00975502 -0.0164776 -0.00130016  0.0120592 -0.0175853 -0.000769913  0.00972226 -0.0166244 -0.000647366  0.013976 -0.027113 -0.00122041  0.0170845 -0.0280799 -0.000727713  0.0155369 -0.0241791 -0.00150424  0.0139568 -0.0272577 -0.000611067  0.0126603 -0.0233227 -0.00126296  0.0155098 -0.0243393 -0.000751257  0.0126364 -0.0234774 -0.000631034  0.0163361 -0.0353425 -0.00111699  0.0199304 -0.0362397 -0.000666678  0.0185739 -0.0318928 -0.00139743  0.0163281 -0.0354819 -0.00055939  0.0152006 -0.0311092 -0.00117165  0.0185588 -0.0320485 -0.000698626  0.015187 -0.0312608 -0.000586271  0.0183531 -0.04439 -0.00100261  0.0223822 -0.0452262 -0.000600338  0.0212134 -0.0404869 -0.00126672  0.0183508 -0.0445204 -0.000502169  0.0173872 -0.039759 -0.00106066  0.0212035 -0.0406331 -0.000633895  0.0173812 -0.0399027 -0.000530005  0.0200484 -0.0541641 -0.000890911  0.0244625 -0.0549447 -0.000533104  0.0234697 -0.049864 -0.00113046  0.0200503 -0.0542819 -0.000445604  0.0192403 -0.0491806 -0.000946462  0.0234668 -0.0499973 -0.000566185  0.0192398 -0.0493134 -0.00047344  0.021445 -0.064569 -0.000783563  0.026198 -0.0652981 -0.000467777  0.0253701 -0.0599257 -0.00099957  0.0214505 -0.0646732 -0.000391245  0.0207827 -0.0592809 -0.000836253  0.0253721 -0.0600455 -0.000500739  0.020787 -0.0594015 -0.000418246  0.0225674 -0.0755184 -0.000683188  0.0276152 -0.0761998 -0.000407636  0.0269411 -0.0705785 -0.000874996  0.0225749 -0.0756073 -0.000342011  0.0220393 -0.0699692 -0.000732601  0.0269446 -0.0706844 -0.000438333  0.0220454 -0.0700758 -0.000366271  0.0234375 -0.0869233 -0.000589788  0.0287379 -0.0875618 -0.00035125  0.0282053 -0.0817326 -0.000759602  0.0234449 -0.0870024 -0.000296474  0.0230336 -0.0811568 -0.00063616  0.0282115 -0.0818256 -0.00037986  0.0230404 -0.0812495 -0.000317872  0.024078 -0.0987108 -0.000504076  0.0295929 -0.0993075 -0.000300348  0.0291903 -0.0933093 -0.000652254  0.0240862 -0.0987768 -0.000251889  0.0237869 -0.0927637 -0.000546634  0.0291972 -0.0933899 -0.000325978  0.0237936 -0.0928443 -0.00027281  0.0245094 -0.110807 -0.000425398  0.0302051 -0.111364 -0.000254095  0.0299207 -0.105231 -0.00055331  0.0245183 -0.11086 -0.000212908  0.0243194 -0.104714 -0.000463545  0.0299275 -0.105299 -0.000276685  0.0243266 -0.104783 -0.000231981  0.024753 -0.123144 -0.000353277  0.0305974 -0.123664 -0.000210643  0.0304197 -0.117427 -0.000462055  0.0247626 -0.123188 -0.000176311  0.0246542 -0.116937 -0.000387192  0.0304277 -0.117485 -0.000229836  0.0246631 -0.116996 -0.000193834  0.0248305 -0.135663 -0.000285983  0.0307933 -0.136149 -0.000170469  0.0307117 -0.129838 -0.000379562  0.0248395 -0.135696 -0.000142932  0.0248121 -0.129373 -0.000318408  0.0307177 -0.129884 -0.000190616  0.0248213 -0.12942 -0.000158906  0.0247629 -0.14831 -0.000228941  0.0308161 -0.148762 -0.000135005  0.0308186 -0.142402 -0.000305176  0.0247688 -0.148336 -0.000114024  0.0248146 -0.141963 -0.000257671  0.0308237 -0.14244 -0.000153065  0.024822 -0.142 -0.000128388  0.0245657 -0.161038 -0.000176609  0.0306907 -0.16146 -0.000106037  0.0307655 -0.155071 -0.000240564  0.0245717 -0.161054 -8.89301e-05  0.0246789 -0.154655 -0.000202298  0.0307696 -0.1551 -0.000120163  0.0246856 -0.154685 -0.000101507  0.0242598 -0.173803 -0.000130832  0.0304334 -0.174197 -7.86185e-05  0.03057 -0.167801 -0.000180662  0.0242679 -0.173813 -6.55651e-05  0.0244269 -0.167406 -0.000154078  0.0305767 -0.167825 -8.95858e-05  0.0244319 -0.167429 -7.73668e-05  0.0238643 -0.18657 -9.38177e-05  0.0300703 -0.186941 -5.40018e-05  0.0302579 -0.180551 -0.000132084  0.0238719 -0.186575 -4.60148e-05  0.0240734 -0.180175 -0.00011158  0.0302641 -0.180568 -6.53267e-05  0.0240796 -0.180192 -5.56111e-05  0.0233994 -0.199307 -6.27041e-05  0.0296206 -0.199658 -3.70741e-05  0.0298512 -0.193292 -9.15527e-05  0.0234051 -0.199309 -3.15309e-05  0.0236418 -0.192932 -7.76649e-05  0.0298553 -0.193303 -4.59552e-05  0.0236464 -0.192944 -3.80874e-05  0.022877 -0.211994 -3.83258e-05  0.0291076 -0.212327 -2.40803e-05  0.0293679 -0.20599 -5.78761e-05  0.0228827 -0.211991 -1.88351e-05  0.023144 -0.205647 -5.03063e-05  0.029372 -0.205998 -2.95043e-05  0.0231497 -0.205654 -2.48551e-05  0.0223117 -0.22461 -1.86563e-05  0.0285461 -0.224932 -1.22786e-05  0.0288277 -0.218633 -3.41535e-05  0.0223188 -0.224605 -9.35793e-06  0.0225997 -0.2183 -2.79546e-05  0.0288317 -0.218637 -1.64509e-05  0.0226047 -0.218304 -1.44243e-05  0.0217235 -0.237146 -2.80142e-06  0.0279553 -0.237463 -2.44379e-06  0.0282512 -0.231201 -1.35303e-05  0.0217302 -0.23714 -7.15256e-07  0.0220215 -0.230876 -1.0848e-05  0.028255 -0.231204 -7.39098e-06  0.0220275 -0.230879 -5.36442e-06  0.0211265 -0.249618 1.34706e-05  0.0273528 -0.249941 7.27177e-06  0.0276494 -0.243704 3.93391e-06  0.0211291 -0.24961 6.25849e-06  0.0214248 -0.243378 3.8147e-06  0.0276554 -0.243705 1.54972e-06  0.0214298 -0.243381 1.54972e-06  0.00334382 -0.00576073 -0.000936806  0 0 0  0.00501852 -0.00767398 -0.000524223  0.00212626 -0.00477278 -0.000591636  0 0 0  0.00334077 -0.00582653 -0.000460088  0.00113795 -0.00306678 -0.000507474  0 0 0  0.00213889 -0.00482476 -0.000288904  0.00113685 -0.00310451 -0.000249445  0.00800633 -0.010448 -0.00150859  0.0100717 -0.0119935 -0.000845551  0.00760104 -0.0096308 -0.00144368  0.00798473 -0.0105683 -0.00074476  0.00569715 -0.00806439 -0.00126982  0.00760594 -0.00975138 -0.00071007  0.00568566 -0.0081718 -0.000625908  0.0124959 -0.0155891 -0.00175542  0.0149579 -0.0170193 -0.000989377  0.0125442 -0.0142263 -0.00189197  0.0124609 -0.0157388 -0.000871897  0.0102813 -0.0128911 -0.00166726  0.0125216 -0.0143843 -0.0009377  0.0102502 -0.0130398 -0.000825822  0.0166608 -0.0217165 -0.0017795  0.0196204 -0.0230249 -0.00100791  0.0173737 -0.0197078 -0.0020287  0.0166257 -0.0218736 -0.000887454  0.0146284 -0.0185091 -0.00178748  0.0173335 -0.0198811 -0.00100905  0.0145906 -0.018676 -0.000889719  0.0204058 -0.0288631 -0.00168771  0.0238689 -0.0300646 -0.000959992  0.0218388 -0.0262434 -0.00197977  0.0203804 -0.0290168 -0.000842929  0.0185882 -0.0251541 -0.00174254  0.0218027 -0.0264136 -0.00098747  0.0185581 -0.0253195 -0.000870943  0.0237066 -0.0369577 -0.00154835  0.0276349 -0.0380655 -0.000878572  0.0258384 -0.0337873 -0.00184315  0.0236909 -0.0371011 -0.000774443  0.0221127 -0.0327877 -0.00162148  0.0258119 -0.0339494 -0.000922084  0.0220922 -0.0329456 -0.000810742  0.0265703 -0.0458952 -0.00139201  0.030917 -0.0469211 -0.000793755  0.0293526 -0.0422429 -0.00167352  0.0265619 -0.0460274 -0.000696599  0.0251933 -0.0413167 -0.00147063  0.0293337 -0.0423917 -0.00083667  0.0251806 -0.041464 -0.000735819  0.029018 -0.0555758 -0.0012368  0.0337319 -0.0565244 -0.000703812  0.0323915 -0.0515013 -0.00149584  0.0290159 -0.0556938 -0.000618935  0.0278459 -0.0506388 -0.00131387  0.0323805 -0.0516343 -0.000748456  0.0278404 -0.0507723 -0.00065738  0.0310774 -0.0658985 -0.00108808  0.0361122 -0.0667755 -0.000619948  0.0349838 -0.0614558 -0.0013231  0.0310786 -0.0660009 -0.000543952  0.0300961 -0.0606515 -0.00116158  0.0349743 -0.0615754 -0.00066191  0.0300946 -0.0607713 -0.000581622  0.0327759 -0.0767701 -0.000947952  0.0380847 -0.0775799 -0.000540078  0.0371526 -0.0720099 -0.00115919  0.0327787 -0.0768591 -0.000475049  0.0319713 -0.07126 -0.00101745  0.0371475 -0.0721139 -0.000580132  0.0319726 -0.0713658 -0.000508904  0.0341409 -0.0881048 -0.000818729  0.0396845 -0.0888538 -0.00046581  0.038934 -0.0830725 -0.00100529  0.0341449 -0.0881808 -0.000409424  0.0334996 -0.0823731 -0.000882745  0.0389295 -0.0831628 -0.000503123  0.0335019 -0.0824639 -0.000441611  0.0352021 -0.0998245 -0.000698984  0.0409424 -0.100516 -0.000400543  0.0403575 -0.0945603 -0.000863254  0.0352056 -0.0998888 -0.000349939  0.034708 -0.0939096 -0.000757515  0.040354 -0.0946398 -0.000431299  0.0347128 -0.093989 -0.000379205  0.0359831 -0.111857 -0.000588834  0.0418878 -0.11249 -0.000335217  0.0414522 -0.106402 -0.000731587  0.0359894 -0.111909 -0.000294685  0.0356269 -0.105795 -0.000642121  0.0414546 -0.106467 -0.000366807  0.0356303 -0.105862 -0.000321746  0.0365154 -0.124132 -0.00048697  0.0425479 -0.124715 -0.000278652  0.0422512 -0.118519 -0.000611722  0.0365208 -0.124174 -0.000243485  0.0362799 -0.117956 -0.00053674  0.0422506 -0.118573 -0.000306487  0.0362849 -0.118013 -0.000267982  0.0368217 -0.136594 -0.000397086  0.0429547 -0.137127 -0.0002262  0.0427822 -0.130855 -0.000502706  0.0368271 -0.136626 -0.000199139  0.0366956 -0.130333 -0.000440776  0.0427811 -0.1309 -0.000250638  0.0367005 -0.130379 -0.000221491  0.0369308 -0.149188 -0.00031513  0.0431366 -0.149676 -0.000178814  0.0430743 -0.143349 -0.000404418  0.0369344 -0.14921 -0.000158429  0.0369012 -0.142865 -0.000354528  0.0430737 -0.143386 -0.000202835  0.0369041 -0.142903 -0.000177383  0.0368645 -0.161863 -0.000242829  0.0431242 -0.162309 -0.000137627  0.0431499 -0.155954 -0.000316739  0.0368695 -0.161879 -0.000122011  0.0369179 -0.155507 -0.000277221  0.043154 -0.155983 -0.00015831  0.0369241 -0.155535 -0.000137925  0.0366499 -0.174583 -0.000179052  0.0429397 -0.17499 -0.000103891  0.0430484 -0.168625 -0.000238299  0.0366542 -0.174592 -8.83937e-05  0.0367744 -0.16821 -0.000210702  0.0430512 -0.168648 -0.000119925  0.0367785 -0.168231 -0.000105619  0.0363088 -0.187307 -0.000127554  0.0426118 -0.187683 -7.36117e-05  0.0427885 -0.181321 -0.000174046  0.0363145 -0.187312 -6.3777e-05  0.0364947 -0.180935 -0.000152528  0.0427918 -0.181336 -8.7142e-05  0.0364993 -0.180951 -7.66516e-05  0.0358698 -0.200012 -8.63671e-05  0.0421715 -0.200359 -4.90546e-05  0.0424008 -0.194013 -0.000119925  0.0358751 -0.200011 -4.3571e-05  0.0361006 -0.193653 -0.000105798  0.0424051 -0.194024 -5.87106e-05  0.0361052 -0.193664 -5.32866e-05  0.0353544 -0.212667 -5.26309e-05  0.041646 -0.212994 -3.11732e-05  0.0419161 -0.206677 -7.9751e-05  0.0353627 -0.212664 -2.56896e-05  0.0356212 -0.206335 -6.78301e-05  0.0419164 -0.206683 -4.04716e-05  0.0356269 -0.206343 -3.39746e-05  0.034786 -0.225264 -2.75373e-05  0.0410597 -0.225574 -1.7643e-05  0.0413556 -0.219288 -4.50611e-05  0.0347934 -0.225257 -1.30534e-05  0.0350771 -0.218963 -3.77893e-05  0.0413587 -0.21929 -2.26498e-05  0.0350816 -0.218966 -2.03848e-05  0.0341871 -0.237791 -6.85453e-06  0.0404449 -0.238099 -6.79493e-06  0.0407488 -0.231841 -2.29478e-05  0.0341949 -0.237785 -3.75509e-06  0.0344899 -0.231524 -1.75834e-05  0.0407538 -0.231843 -1.27554e-05  0.0344958 -0.231527 -8.82149e-06  0.033577 -0.250273 1.06692e-05  0.039824 -0.250587 1.84774e-06  0.0401282 -0.244342 -2.80142e-06  0.0335848 -0.250268 4.88758e-06  0.0338829 -0.244026 5.96046e-08  0.0401368 -0.244344 -1.19209e-07  0.0338895 -0.244027 2.98023e-07  -0.00504544 -0.00696857 0.00172555  -0.00215935 -0.00422451 0.00134951  0 0 0  -0.00332478 -0.00497987 0.00208122  0 0 0  -0.00224189 -0.00378076 0.00128263  -0.000797808 -0.00170828 0.000990152  0 0 0  -0.00219401 -0.00437676 0.000963449  -0.00331229 -0.0051892 0.0015018  -0.00113761 -0.00260287 0.00114465  0 0 0  -0.000783663 -0.0017984 0.000707567  -0.00113065 -0.00271143 0.000818729  -0.0101629 -0.0108722 0.00272739  -0.00762086 -0.00847407 0.00319546  -0.00803892 -0.0091709 0.00327432  -0.00617962 -0.00829785 0.00205725  -0.00419706 -0.00572374 0.00239778  -0.00764249 -0.00881558 0.0023132  -0.00798802 -0.00953712 0.00238925  -0.0056909 -0.00701277 0.0027892  -0.00414461 -0.00599385 0.00173837  -0.00566001 -0.00732027 0.00202262  -0.0151766 -0.0155423 0.00313312  -0.0127159 -0.0126328 0.00407416  -0.012606 -0.0139586 0.0037092  -0.0101777 -0.0133591 0.00236732  -0.00827542 -0.0103365 0.00306833  -0.0126745 -0.0130798 0.00299287  -0.0125439 -0.0143853 0.00274855  -0.0103515 -0.0114264 0.00356591  -0.00820512 -0.0107126 0.00225908  -0.010289 -0.0118397 0.00262403  -0.0199978 -0.0212198 0.00314456  -0.0176778 -0.0177743 0.00426418  -0.0168757 -0.019812 0.00368679  -0.0139211 -0.0193814 0.0023731  -0.012132 -0.0158281 0.00321281  -0.0176271 -0.0182421 0.00317234  -0.0168394 -0.0202394 0.00275695  -0.0147815 -0.0167379 0.00373465  -0.0120831 -0.0162418 0.00239623  -0.0147303 -0.0171799 0.00278306  -0.0244795 -0.0279398 0.00295568  -0.0223117 -0.0240047 0.00409108  -0.0208146 -0.0267108 0.00344855  -0.0173789 -0.0263983 0.00222588  -0.0156959 -0.0223562 0.00307888  -0.0222855 -0.0244521 0.00306392  -0.0208145 -0.0271144 0.00259036  -0.0188855 -0.0231234 0.00358391  -0.0156847 -0.0227677 0.00231034  -0.0188684 -0.0235516 0.00268751  -0.0285822 -0.035618 0.00268507  -0.026579 -0.0312556 0.00376052  -0.0244331 -0.0345622 0.00312704  -0.0205564 -0.0343399 0.00201857  -0.018977 -0.0298699 0.00282663  -0.0265772 -0.0316651 0.00282633  -0.02446 -0.0349333 0.00235224  -0.0226619 -0.0305128 0.00329351  -0.0190004 -0.030257 0.00212628  -0.0226778 -0.0309108 0.00247592  -0.0323164 -0.0441508 0.00239408  -0.030472 -0.0394157 0.00337726  -0.0277446 -0.0432608 0.002783  -0.0234697 -0.0431106 0.00179529  -0.0219964 -0.0382702 0.00253481  -0.0304947 -0.039784 0.00253958  -0.0277909 -0.0435924 0.00209379  -0.0261247 -0.0388004 0.00295556  -0.0220457 -0.0386258 0.00190759  -0.0261638 -0.039162 0.00222313  -0.0357003 -0.0534364 0.00210726  -0.0340127 -0.0483791 0.00298858  -0.030768 -0.0526995 0.00244862  -0.0261394 -0.0526134 0.00157887  -0.0247723 -0.0474543 0.00224048  -0.0340496 -0.0487046 0.00224787  -0.0308242 -0.0529928 0.00184268  -0.0292912 -0.047882 0.00261414  -0.024834 -0.0477739 0.00168622  -0.0293428 -0.0482044 0.00196636  -0.0387609 -0.0633843 0.00183725  -0.0372231 -0.0580473 0.00261861  -0.0335214 -0.062789 0.00213569  -0.0285805 -0.062758 0.00137371  -0.0273205 -0.0573257 0.0019604  -0.0372694 -0.0583328 0.00197017  -0.0335814 -0.0630461 0.00160557  -0.0321763 -0.0576585 0.00228959  -0.0273874 -0.0576093 0.00147408  -0.0322355 -0.0579426 0.00172186  -0.04152 -0.0739006 0.00158626  -0.0401282 -0.068327 0.00227481  -0.0360231 -0.073438 0.00184488  -0.0308107 -0.0734593 0.00118577  -0.0296534 -0.0677942 0.00170118  -0.0401773 -0.0685753 0.0017091  -0.0360825 -0.073661 0.0013867  -0.0348021 -0.0680375 0.0019868  -0.0297215 -0.0680427 0.00127822  -0.0348617 -0.0682863 0.00149423  -0.0440019 -0.0849095 0.00136125  -0.0427482 -0.0791347 0.00195676  -0.0382891 -0.0845696 0.00157851  -0.0328428 -0.0846366 0.00101441  -0.0317841 -0.0787767 0.00146198  -0.0427926 -0.0793479 0.00147176  -0.0383458 -0.0847569 0.00118637  -0.0371839 -0.0789381 0.00170904  -0.0318496 -0.0789909 0.00109947  -0.0372423 -0.0791507 0.00128388  -0.0462248 -0.0963379 0.00115097  -0.0450983 -0.0903949 0.00166631  -0.0403366 -0.0961043 0.0013364  -0.03469 -0.0962129 0.000857115  -0.0337269 -0.0901928 0.00124395  -0.0451453 -0.090575 0.00125217  -0.0403886 -0.0962634 0.00100404  -0.0393376 -0.09028 0.00145441  -0.0337893 -0.0903766 0.000933945  -0.0393939 -0.0904625 0.00109285  -0.0482087 -0.108107 0.000961304  -0.0472035 -0.102029 0.00140059  -0.0421774 -0.107975 0.00111479  -0.0363671 -0.108119 0.000715375  -0.0354934 -0.101972 0.00104523  -0.0472463 -0.102183 0.00105256  -0.0422246 -0.108106 0.000837147  -0.0412794 -0.101991 0.00122249  -0.0355495 -0.102128 0.000784636  -0.0413308 -0.102145 0.000918865  -0.0499678 -0.120157 0.000791073  -0.0490818 -0.113973 0.00116122  -0.0438287 -0.120116 0.000915647  -0.0378839 -0.120293 0.000588417  -0.0370951 -0.114047 0.000865638  -0.0491143 -0.114101 0.000873268  -0.0438693 -0.120221 0.000688076  -0.0430256 -0.114004 0.00101262  -0.0371441 -0.114176 0.000649512  -0.04307 -0.114132 0.000760436  -0.0515268 -0.132429 0.00063473  -0.0507414 -0.126166 0.000943363  -0.0453032 -0.132467 0.000737011  -0.0392524 -0.132673 0.000471294  -0.0385414 -0.126354 0.000702798  -0.0507706 -0.126269 0.000709474  -0.0453377 -0.132549 0.000552535  -0.0445861 -0.126256 0.000823081  -0.0385877 -0.126459 0.000527859  -0.0446234 -0.12636 0.000617921  -0.0528959 -0.144868 0.000500083  -0.0522046 -0.138549 0.000751555  -0.046615 -0.144971 0.000577867  -0.0404854 -0.145204 0.000369906  -0.0398471 -0.138837 0.000558853  -0.0522323 -0.13863 0.000566363  -0.0466466 -0.145036 0.000434875  -0.0459793 -0.138692 0.000654876  -0.0398833 -0.13892 0.000419259  -0.0460113 -0.138775 0.000492156  -0.0541015 -0.157423 0.000379205  -0.0534947 -0.151071 0.000580668  -0.0477824 -0.157584 0.000439227  -0.0415943 -0.157837 0.000281632  -0.0410209 -0.151443 0.000432312  -0.0535166 -0.151132 0.000437319  -0.0478075 -0.157632 0.000330985  -0.0472138 -0.151257 0.000505805  -0.0410545 -0.151509 0.000324786  -0.0472448 -0.151321 0.000380635  -0.0551522 -0.170051 0.000276029  -0.0546253 -0.163681 0.000433147  -0.04882 -0.170263 0.000319898  -0.0425942 -0.170529 0.000204265  -0.0420785 -0.164127 0.000321388  -0.0546422 -0.163728 0.000326514  -0.0488403 -0.170294 0.000240505  -0.0483153 -0.163907 0.000377119  -0.0421064 -0.164178 0.000242114  -0.048341 -0.163956 0.000283659  -0.0560789 -0.18271 0.000194192  -0.0556171 -0.176344 0.000308335  -0.0497427 -0.18296 0.000220299  -0.0434961 -0.183243 0.000141263  -0.0430326 -0.176848 0.000228226  -0.0556297 -0.176377 0.000234127  -0.0497603 -0.182983 0.000167966  -0.0492933 -0.176601 0.000267446  -0.0430567 -0.176884 0.000172257  -0.0493126 -0.176635 0.000201702  -0.0568962 -0.195372 0.000125706  -0.0564857 -0.189019 0.000206232  -0.0505686 -0.195653 0.000141144  -0.0443168 -0.195945 9.13143e-05  -0.043896 -0.189571 0.000152707  -0.0564976 -0.189041 0.000156343  -0.0505838 -0.195665 0.000108302  -0.0501657 -0.189301 0.000179589  -0.0439141 -0.189595 0.000115097  -0.0501828 -0.189323 0.000135541  -0.0576234 -0.208007 7.41482e-05  -0.0572548 -0.20168 0.0001266  -0.051317 -0.208311 8.23736e-05  -0.0450668 -0.208608 5.42998e-05  -0.0446804 -0.202264 9.39369e-05  -0.0572689 -0.201692 9.84669e-05  -0.0513299 -0.208314 6.27637e-05  -0.0509508 -0.201978 0.000109613  -0.0446994 -0.20228 7.11083e-05  -0.0509646 -0.201993 8.35061e-05  -0.0582905 -0.220595 3.80874e-05  -0.0579507 -0.214299 7.08103e-05  -0.0520053 -0.220914 3.88622e-05  -0.0457647 -0.221211 2.43187e-05  -0.0454035 -0.214906 4.83394e-05  -0.0579627 -0.214306 5.48959e-05  -0.0520182 -0.220909 3.11732e-05  -0.0516665 -0.214608 5.8949e-05  -0.0454216 -0.214917 3.76701e-05  -0.0516789 -0.214616 4.55379e-05  -0.0589213 -0.233129 1.23978e-05  -0.0585923 -0.226863 2.85506e-05  -0.0526552 -0.233446 6.4373e-06  -0.0464253 -0.233747 1.90735e-06  -0.0460825 -0.227479 1.48416e-05  -0.0586083 -0.226868 2.3663e-05  -0.0526686 -0.233443 5.48363e-06  -0.0523319 -0.227176 2.18749e-05  -0.0460973 -0.227485 1.20997e-05  -0.0523465 -0.227181 1.71661e-05  -0.0595474 -0.245626 -9.47714e-06  -0.0592189 -0.239377 -2.98023e-07  -0.0532897 -0.245932 -2.29478e-05  -0.0470648 -0.246225 -1.78218e-05  -0.0467308 -0.239985 -1.19805e-05  -0.0592346 -0.23938 1.78814e-06  -0.0533006 -0.24593 -1.71065e-05  -0.0529726 -0.239682 -8.76188e-06  -0.0467453 -0.23999 -7.86781e-06  -0.0529854 -0.239688 -5.36442e-06  -0.00168952 -0.00273354 0.00149256  0 0 0  -0.00118817 -0.00229219 0.000864744  -0.000423826 -0.000803098 0.000667751  0 0 0  -0.00165465 -0.00288722 0.001073  -0.00057146 -0.00115375 0.000825405  0 0 0  -0.00041198 -0.000870794 0.000473261  -0.000556767 -0.00123258 0.000587404  -0.00477952 -0.00697455 0.00237232  -0.0034827 -0.00646809 0.00139707  -0.00229099 -0.0040208 0.00162923  -0.00471209 -0.00726171 0.00172955  -0.00314158 -0.00472619 0.00201464  -0.00224432 -0.00422807 0.00117791  -0.00308621 -0.00496186 0.00145805  -0.00810918 -0.0121235 0.00268143  -0.00613555 -0.0117727 0.00160205  -0.00486445 -0.00868528 0.00208312  -0.00804749 -0.0124848 0.00198823  -0.0064584 -0.00941542 0.00258011  -0.00480372 -0.00899431 0.00153196  -0.00638807 -0.00975637 0.00189912  -0.011241 -0.0182695 0.00265467  -0.00870308 -0.0180616 0.00159925  -0.00747973 -0.0144287 0.00216913  -0.0112154 -0.0186538 0.00198853  -0.00970572 -0.0150557 0.00269377  -0.00744081 -0.0147917 0.00161839  -0.00965917 -0.0154428 0.00200963  -0.0141323 -0.0254165 0.00247538  -0.011088 -0.0253111 0.00149351  -0.00991911 -0.0211897 0.00206876  -0.014145 -0.0257959 0.00186187  -0.0127143 -0.0217108 0.00257641  -0.00991958 -0.0215679 0.00155395  -0.0127102 -0.0221036 0.00193465  -0.0168049 -0.03349 0.00223887  -0.013298 -0.0334535 0.00135022  -0.0121844 -0.0289039 0.00189257  -0.0168445 -0.0338451 0.00168592  -0.015494 -0.0293325 0.00236094  -0.0122132 -0.0292743 0.00142461  -0.0155231 -0.02971 0.0017764  -0.0192759 -0.0423885 0.00198972  -0.0153486 -0.0424033 0.00119758  -0.0142941 -0.0374854 0.00169253  -0.0193322 -0.0427122 0.00149709  -0.0180647 -0.0378294 0.00211418  -0.014341 -0.0378309 0.00127435  -0.0181139 -0.0381805 0.00159127  -0.0215601 -0.0520121 0.00174773  -0.0172544 -0.0520718 0.00105011  -0.0162597 -0.0468347 0.0014925  -0.0216247 -0.0523047 0.00131488  -0.0204402 -0.0471032 0.00186765  -0.0163177 -0.0471508 0.00112325  -0.0205023 -0.0474207 0.00140512  -0.0236716 -0.0622747 0.00152171  -0.0190305 -0.062367 0.000912309  -0.0180932 -0.0568604 0.00130391  -0.0237379 -0.0625305 0.00114274  -0.0226359 -0.0570581 0.00163269  -0.0181569 -0.0571434 0.00097996  -0.0227029 -0.0573411 0.0012278  -0.0256188 -0.0730843 0.00131309  -0.0206828 -0.0732079 0.000784814  -0.0198069 -0.0674735 0.00112832  -0.0256835 -0.0733064 0.000986755  -0.0246638 -0.0676046 0.00141495  -0.0198718 -0.0677217 0.000847101  -0.0247304 -0.0678527 0.00106275  -0.0274134 -0.0843622 0.00112283  -0.0222199 -0.084514 0.000672221  -0.0214033 -0.0785892 0.000968456  -0.027474 -0.0845523 0.000841975  -0.0265329 -0.0786591 0.00121611  -0.0214653 -0.0788062 0.000727177  -0.0265981 -0.0788744 0.000912786  -0.0290604 -0.0960333 0.000949502  -0.0236491 -0.09621 0.000565529  -0.0228896 -0.090129 0.000823259  -0.0291176 -0.0961938 0.000712693  -0.0282533 -0.0901411 0.00103438  -0.0229479 -0.0903158 0.000617743  -0.0283136 -0.0903261 0.000776231  -0.0305717 -0.108023 0.000791132  -0.024974 -0.108225 0.000469983  -0.0242717 -0.102021 0.00069046  -0.0306226 -0.108157 0.000592768  -0.0298306 -0.101981 0.000868022  -0.0243239 -0.102179 0.000516891  -0.0298867 -0.102137 0.000651598  -0.0319543 -0.120275 0.000649512  -0.0262035 -0.120492 0.000387073  -0.0255551 -0.114196 0.000570476  -0.0320002 -0.120382 0.000487149  -0.0312768 -0.114108 0.000718117  -0.0256 -0.114328 0.000427842  -0.0313261 -0.11424 0.000538826  -0.0332184 -0.13272 0.000522554  -0.0273404 -0.132956 0.000311434  -0.0267415 -0.126593 0.000463605  -0.033258 -0.132807 0.000391841  -0.0326004 -0.126464 0.00058347  -0.0267831 -0.126701 0.000347257  -0.0326422 -0.126571 0.000437498  -0.034371 -0.14531 0.000408947  -0.0283936 -0.14556 0.000241876  -0.0278414 -0.139155 0.000368059  -0.0344052 -0.145376 0.000307262  -0.0338079 -0.138989 0.000463426  -0.0278777 -0.139242 0.000276625  -0.0338446 -0.139074 0.000347316  -0.035423 -0.157994 0.000309408  -0.0293691 -0.158258 0.000184298  -0.0288596 -0.151829 0.000283778  -0.03545 -0.158045 0.000232577  -0.0349076 -0.151631 0.000357807  -0.0288904 -0.151898 0.000212431  -0.0349405 -0.1517 0.000268221  -0.0363836 -0.170729 0.000226736  -0.0302706 -0.171002 0.000133097  -0.0298011 -0.164571 0.000210822  -0.036406 -0.170763 0.000169933  -0.0359125 -0.164347 0.000267029  -0.0298278 -0.164623 0.000157893  -0.0359404 -0.164398 0.000199437  -0.0372624 -0.183478 0.000156999  -0.0311108 -0.183757 9.32813e-05  -0.0306745 -0.177339 0.000149846  -0.0372815 -0.183501 0.000117064  -0.0368299 -0.177093 0.000189304  -0.0306988 -0.177378 0.000112295  -0.0368543 -0.17713 0.000142694  -0.03807 -0.196208 9.97782e-05  -0.0318902 -0.196493 5.87106e-05  -0.0314889 -0.1901 0.000100672  -0.038085 -0.196219 7.51019e-05  -0.0376742 -0.189835 0.000126898  -0.0315058 -0.190127 7.40886e-05  -0.0376911 -0.189861 9.46522e-05  -0.0388184 -0.208892 5.66244e-05  -0.032625 -0.209181 3.27229e-05  -0.0322487 -0.202824 6.00219e-05  -0.0388319 -0.208897 4.36902e-05  -0.0384493 -0.202545 7.67708e-05  -0.0322633 -0.202842 4.44651e-05  -0.0384657 -0.202562 5.82337e-05  -0.0395167 -0.221509 2.44379e-05  -0.0333149 -0.221803 1.43051e-05  -0.0329638 -0.215488 2.96831e-05  -0.0395303 -0.221508 1.80006e-05  -0.0391719 -0.215199 3.92795e-05  -0.0329752 -0.215498 2.21133e-05  -0.0391867 -0.215209 2.94447e-05  -0.0401804 -0.234049 -1.54972e-06  -0.0339751 -0.234345 -3.39746e-06  -0.0336366 -0.228073 5.90086e-06  -0.0401926 -0.234048 5.96046e-08  -0.0398512 -0.227778 1.06692e-05  -0.0336485 -0.22808 5.00679e-06  -0.039865 -0.227784 8.46386e-06  -0.0408263 -0.246519 -2.70605e-05  -0.0346212 -0.246803 -1.83582e-05  -0.0342853 -0.240575 -1.54972e-05  -0.0408385 -0.246517 -2.04444e-05  -0.0405021 -0.240282 -1.38283e-05  -0.0342977 -0.240583 -1.10269e-05  -0.0405145 -0.240289 -1.00732e-05  -0.000844434 -0.00179273 0.000910401  0 0 0  -0.00050994 -0.00167364 0.000435829  -0.00018093 -0.000462443 0.000336707  0 0 0  -0.000821099 -0.00190842 0.000653386  -0.000287712 -0.000586629 0.000504076  0 0 0  -0.00017526 -0.000513613 0.000239253  -0.000278823 -0.000645816 0.000356793  -0.00250578 -0.00567749 0.00144958  -0.00154297 -0.00554579 0.000708401  -0.000999898 -0.00323671 0.000824928  -0.00246057 -0.00590602 0.00105643  -0.00160511 -0.00353834 0.00123191  -0.000977144 -0.00340617 0.000595927  -0.00156868 -0.00372365 0.000889421  -0.0044544 -0.0109282 0.00163329  -0.00281772 -0.0108793 0.000812232  -0.00219622 -0.00779995 0.00105619  -0.00441366 -0.0112362 0.0012117  -0.00347117 -0.00814873 0.00157475  -0.00216669 -0.00806496 0.000777602  -0.00342408 -0.00843245 0.00115812  -0.00636539 -0.0172668 0.00160903  -0.00412196 -0.0173203 0.000807643  -0.00349054 -0.0136443 0.00109702  -0.00635284 -0.0176161 0.00120664  -0.00542191 -0.0139568 0.00163716  -0.00347415 -0.0139723 0.000819266  -0.00539446 -0.0142999 0.00122195  -0.00816166 -0.0245951 0.00149411  -0.00537837 -0.0247227 0.000751078  -0.00474972 -0.0205486 0.00104201  -0.00817728 -0.0249534 0.00112432  -0.00727874 -0.0208009 0.00155759  -0.00475818 -0.0209045 0.000784039  -0.00727975 -0.0211668 0.00117129  -0.00984985 -0.0328267 0.00134605  -0.00657749 -0.0330011 0.000674307  -0.00595713 -0.0283992 0.000948787  -0.00988561 -0.0331706 0.00101364  -0.00901806 -0.0285918 0.00142175  -0.00598502 -0.0287546 0.000714362  -0.00904489 -0.0289542 0.00107104  -0.0114416 -0.0418699 0.00119174  -0.00772953 -0.042072 0.000595808  -0.00712037 -0.0371012 0.000843763  -0.0114903 -0.042189 0.00089711  -0.0106558 -0.0372405 0.00126886  -0.00715888 -0.0374401 0.000635564  -0.0107 -0.0375834 0.00095588  -0.0129488 -0.0516302 0.00104445  -0.00884271 -0.0518526 0.000520229  -0.00824517 -0.0465633 0.000740528  -0.0130029 -0.0519201 0.000786006  -0.0122056 -0.0466539 0.00111741  -0.00829035 -0.0468778 0.00055778  -0.0122581 -0.0469688 0.000840783  -0.0143772 -0.0620163 0.00090611  -0.00992036 -0.0622537 0.000448406  -0.00933826 -0.0566963 0.000643551  -0.0144323 -0.0622728 0.000679851  -0.013672 -0.0567388 0.000974536  -0.00938499 -0.0569782 0.000483871  -0.0137281 -0.0570209 0.000732541  -0.0157313 -0.0729451 0.000779986  -0.0109648 -0.0731938 0.00038439  -0.0103991 -0.0674091 0.000554204  -0.0157838 -0.0731692 0.000584722  -0.0150623 -0.0674066 0.000840783  -0.0104469 -0.0676592 0.000416458  -0.015117 -0.0676567 0.000632048  -0.0170124 -0.0843334 0.000664711  -0.011975 -0.0845901 0.000325382  -0.0114286 -0.0786182 0.00047183  -0.0170617 -0.0845253 0.000498652  -0.0163797 -0.0785749 0.000721455  -0.0114725 -0.0788372 0.000354648  -0.0164315 -0.0787925 0.000541925  -0.0182232 -0.0961022 0.000559866  -0.0129542 -0.0963701 0.000273287  -0.0124288 -0.0902456 0.000398517  -0.018268 -0.0962671 0.000420272  -0.0176246 -0.0901626 0.000611007  -0.0124689 -0.0904346 0.000298917  -0.0176737 -0.0903502 0.000458717  -0.0193659 -0.108186 0.000466287  -0.0138987 -0.108461 0.000226676  -0.0133951 -0.102218 0.000332594  -0.019407 -0.108323 0.000349522  -0.018801 -0.102098 0.000511467  -0.0134313 -0.102378 0.000248909  -0.0188459 -0.102259 0.000383377  -0.0204424 -0.120517 0.000380635  -0.0148093 -0.120798 0.000183344  -0.0143272 -0.114465 0.000272512  -0.0204791 -0.12063 0.000285208  -0.0199116 -0.114315 0.000421941  -0.0143591 -0.114601 0.000204146  -0.0199509 -0.114447 0.000316083  -0.0214585 -0.133039 0.000306129  -0.0156875 -0.133323 0.000146091  -0.015223 -0.126927 0.000220478  -0.0214893 -0.133128 0.000228465  -0.0209565 -0.126745 0.000342786  -0.0152522 -0.127038 0.000163794  -0.0209917 -0.126856 0.000256658  -0.0224133 -0.145691 0.000238657  -0.0165294 -0.14598 0.000113368  -0.0160881 -0.139546 0.000173032  -0.0224406 -0.14576 0.00017786  -0.0219424 -0.139339 0.000271559  -0.0161123 -0.139636 0.000130236  -0.0219725 -0.139428 0.000203729  -0.0233116 -0.158428 0.000180304  -0.0173368 -0.15872 8.41618e-05  -0.0169165 -0.152268 0.000131726  -0.0233333 -0.158482 0.000135601  -0.0228677 -0.15204 0.00020802  -0.0169384 -0.15234 9.90629e-05  -0.0228932 -0.15211 0.000156462  -0.0241582 -0.171209 0.000130951  -0.018115 -0.171503 6.05583e-05  -0.0177133 -0.165051 9.7692e-05  -0.0241759 -0.171247 9.81688e-05  -0.0237396 -0.164805 0.00015378  -0.01773 -0.165106 7.30753e-05  -0.0237606 -0.164859 0.000114739  -0.0249567 -0.183996 8.96454e-05  -0.0188622 -0.184289 4.23193e-05  -0.0184784 -0.177856 6.67572e-05  -0.0249722 -0.18402 6.67572e-05  -0.0245624 -0.177593 0.000109673  -0.0184937 -0.177895 5.06043e-05  -0.0245793 -0.177633 8.19564e-05  -0.0257113 -0.196755 5.6386e-05  -0.0195799 -0.197049 2.43783e-05  -0.0192111 -0.190642 4.4167e-05  -0.0257235 -0.196768 4.27961e-05  -0.0253386 -0.190368 7.28369e-05  -0.0192239 -0.190672 3.34978e-05  -0.0253532 -0.190396 5.42402e-05  -0.026428 -0.209462 3.15905e-05  -0.0202694 -0.209757 1.32322e-05  -0.019918 -0.203389 2.58088e-05  -0.0264373 -0.209467 2.40207e-05  -0.0260742 -0.203105 4.32134e-05  -0.0199287 -0.203409 1.94907e-05  -0.0260847 -0.203123 3.16501e-05  -0.0271113 -0.222097 1.12057e-05  -0.0209374 -0.222391 5.06639e-06  -0.0205989 -0.21607 1.19209e-05  -0.0271196 -0.222096 8.52346e-06  -0.0267725 -0.215777 2.14577e-05  -0.020606 -0.216082 8.40425e-06  -0.026783 -0.215789 1.62721e-05  -0.0277667 -0.234643 -5.96046e-06  -0.021585 -0.234939 -2.38419e-06  -0.0212555 -0.228667 4.17233e-07  -0.0277731 -0.234641 -4.11272e-06  -0.0274408 -0.22837 2.98023e-06  -0.0212622 -0.228676 5.96046e-08  -0.0274494 -0.228377 2.32458e-06  -0.0284088 -0.247088 -2.13981e-05  -0.0222187 -0.247379 -1.0252e-05  -0.0218952 -0.241164 -1.11461e-05  -0.0284152 -0.247089 -1.46627e-05  -0.0280857 -0.240868 -1.28746e-05  -0.0219011 -0.241172 -8.64267e-06  -0.0280938 -0.240877 -9.83477e-06  -0.000231214 -0.00146237 0.000301719  0 0 0  4.36306e-05 -0.00154287 -5.42402e-06  1.58176e-05 -0.000397891 -6.02007e-06  0 0 0  -0.000225745 -0.00155738 0.000217259  -7.85738e-05 -0.000403136 0.000166595  0 0 0  1.50576e-05 -0.000442594 -3.15905e-06  -7.689e-05 -0.000449538 0.000118136  -0.000711724 -0.00516284 0.000484526  0.000109613 -0.00534165 -1.96695e-06  8.35508e-05 -0.0030711 -7.62939e-06  -0.000700817 -0.00536206 0.000355124  -0.000447914 -0.00308639 0.000409663  7.76649e-05 -0.00322568 -3.75509e-06  -0.000438109 -0.00324646 0.000296712  -0.00132239 -0.0104188 0.000549734  0.000146061 -0.0106884 2.32458e-06  0.000145495 -0.00761035 -1.37091e-06  -0.00131643 -0.0106983 0.000407934  -0.00100669 -0.00762376 0.000528514  0.00013414 -0.00785923 5.36442e-07  -0.000997871 -0.00787634 0.000390232  -0.0019739 -0.0168504 0.000540793  0.000119269 -0.0171894 3.99351e-06  0.00015682 -0.013496 3.27826e-06  -0.00198027 -0.0171779 0.000406325  -0.00164488 -0.0134911 0.000550449  0.000140429 -0.0138088 3.57628e-06  -0.00164557 -0.0138087 0.000412226  -0.00263721 -0.024281 0.000499725  2.31862e-05 -0.0246626 1.96695e-06  0.00010103 -0.0204637 2.26498e-06  -0.00265718 -0.024625 0.000377774  -0.00230455 -0.0204356 0.000522733  8.04067e-05 -0.0208094 3.15905e-06  -0.00231779 -0.0207851 0.000394523  -0.00331432 -0.0326096 0.000445843  -0.00014323 -0.0330087 -2.98023e-06  -2.8491e-05 -0.0283785 -2.26498e-06  -0.0033415 -0.0329467 0.00033617  -0.00297409 -0.0283277 0.000473022  -5.13196e-05 -0.0287293 0  -0.00299782 -0.0286793 0.000357151  -0.00400376 -0.0417404 0.000389338  -0.000381529 -0.0421448 -8.58307e-06  -0.000229537 -0.0371443 -8.9407e-06  -0.00403577 -0.042058 0.000293076  -0.00365585 -0.0370682 0.000417709  -0.000254333 -0.0374813 -5.78165e-06  -0.00368601 -0.0374064 0.000315785  -0.00471139 -0.0515846 0.000335753  -0.000683725 -0.0519869 -1.2815e-05  -0.000498295 -0.0466676 -1.57356e-05  -0.00474536 -0.0518743 0.000253201  -0.00435501 -0.0465672 0.000362635  -0.00052458 -0.046981 -1.07288e-05  -0.00438839 -0.0468813 0.000273407  -0.00543439 -0.0620537 0.000287533  -0.00104904 -0.0624483 -1.68681e-05  -0.00083375 -0.0568608 -2.14577e-05  -0.00546753 -0.0623119 0.000216246  -0.00507069 -0.0567364 0.000312388  -0.000858784 -0.057143 -1.55568e-05  -0.00510609 -0.0570183 0.000234544  -0.00616896 -0.0730593 0.000243008  -0.0014689 -0.0734453 -1.88351e-05  -0.00122941 -0.0676315 -2.52128e-05  -0.00620115 -0.073285 0.000182748  -0.00579953 -0.0674831 0.000264406  -0.00125194 -0.067883 -1.81198e-05  -0.00583291 -0.0677339 0.00019908  -0.00691235 -0.0845179 0.000203311  -0.00193739 -0.0848969 -2.07424e-05  -0.00167513 -0.0788959 -2.7597e-05  -0.00694299 -0.0847132 0.000152111  -0.00653923 -0.0787239 0.000222683  -0.0016973 -0.0791163 -2.01464e-05  -0.00657105 -0.0789447 0.000167251  -0.00766218 -0.0963548 0.000168324  -0.0024488 -0.0967261 -2.19941e-05  -0.00216937 -0.0905749 -2.93851e-05  -0.00768793 -0.0965208 0.000126243  -0.00728512 -0.0903822 0.000185788  -0.00218713 -0.090767 -2.2769e-05  -0.00731456 -0.0905729 0.000138581  -0.00841272 -0.1085 0.000136495  -0.00299573 -0.108863 -2.25306e-05  -0.00270021 -0.102595 -2.86698e-05  -0.00843465 -0.10864 0.000102818  -0.00803673 -0.102383 0.000151694  -0.00271702 -0.102758 -2.13385e-05  -0.00806117 -0.102544 0.000113308  -0.00915933 -0.120888 0.000109792  -0.00357139 -0.121241 -1.97291e-05  -0.00326622 -0.114886 -2.72393e-05  -0.00918007 -0.121002 8.24332e-05  -0.00878537 -0.114656 0.000123262  -0.00327921 -0.115024 -2.06828e-05  -0.00880778 -0.114792 9.197e-05  -0.00990129 -0.133453 8.58307e-05  -0.00416875 -0.133801 -1.87159e-05  -0.0038563 -0.127386 -2.59876e-05  -0.00991929 -0.133546 6.41346e-05  -0.00953078 -0.12714 9.69172e-05  -0.00386751 -0.1275 -1.98483e-05  -0.00954914 -0.127251 7.27773e-05  -0.0106345 -0.14615 6.47902e-05  -0.00478649 -0.14649 -1.84178e-05  -0.00446486 -0.140037 -2.48551e-05  -0.0106496 -0.146223 4.81009e-05  -0.0102689 -0.139778 7.4327e-05  -0.00447559 -0.14013 -1.80006e-05  -0.0102853 -0.13987 5.57899e-05  -0.0113578 -0.158923 4.76837e-05  -0.00541377 -0.159254 -1.57952e-05  -0.00509357 -0.152789 -2.12789e-05  -0.011369 -0.158976 3.61204e-05  -0.0109963 -0.152518 5.54919e-05  -0.00509906 -0.152863 -1.65701e-05  -0.0110111 -0.15259 4.09484e-05  -0.0120687 -0.171732 3.14713e-05  -0.0060513 -0.172058 -1.26362e-05  -0.00572729 -0.165596 -1.91331e-05  -0.0120776 -0.171773 2.33054e-05  -0.011713 -0.165314 3.95179e-05  -0.00573158 -0.165652 -1.38879e-05  -0.0117242 -0.165371 2.94447e-05  -0.0127642 -0.184543 1.94907e-05  -0.00668955 -0.184863 -1.09673e-05  -0.00636625 -0.178418 -1.5974e-05  -0.0127718 -0.184569 1.44839e-05  -0.0124154 -0.17813 2.56896e-05  -0.00637007 -0.17846 -1.18613e-05  -0.0124259 -0.17817 1.89543e-05  -0.0134473 -0.197323 1.10865e-05  -0.00733018 -0.197634 -9.59635e-06  -0.00700784 -0.191221 -1.37687e-05  -0.0134504 -0.197338 8.16584e-06  -0.0131047 -0.190926 1.44839e-05  -0.00700951 -0.191252 -1.055e-05  -0.0131125 -0.190957 1.15037e-05  -0.0141129 -0.210046 4.64916e-06  -0.00796747 -0.210352 -6.49691e-06  -0.00764894 -0.203979 -1.03712e-05  -0.0141163 -0.210051 3.8743e-06  -0.0137811 -0.203679 7.03335e-06  -0.00765014 -0.204 -8.9407e-06  -0.0137858 -0.203701 5.30481e-06  -0.0147648 -0.222691 4.76837e-07  -0.00860143 -0.222994 -4.88758e-06  -0.00828385 -0.216667 -7.15256e-06  -0.0147676 -0.222689 -4.17233e-07  -0.0144391 -0.216366 2.02656e-06  -0.00828576 -0.216681 -5.60284e-06  -0.0144417 -0.216379 1.3113e-06  -0.0154033 -0.235241 -3.93391e-06  -0.00922918 -0.235543 -2.5034e-06  -0.00891542 -0.229269 -4.94719e-06  -0.0154052 -0.235239 -3.63588e-06  -0.0150833 -0.228966 -1.66893e-06  -0.00891495 -0.22928 -2.92063e-06  -0.0150864 -0.228976 -1.3113e-06  -0.016031 -0.247673 -1.01924e-05  -0.00984955 -0.247976 3.57628e-07  -0.00953698 -0.241765 -1.84774e-06  -0.0160306 -0.247675 -7.80821e-06  -0.015717 -0.241462 -6.13928e-06  -0.00953984 -0.241774 -1.72853e-06  -0.0157182 -0.241471 -4.23193e-06  0.000325873 -0.0015319 -0.000316083  0 0 0  0.000597388 -0.00180727 -0.000441194  0.000212379 -0.000539184 -0.000347435  0 0 0  0.000313297 -0.00162476 -0.000225067  0.000111267 -0.000440657 -0.000178039  0 0 0  0.000205196 -0.000588417 -0.000243783  0.000106789 -0.000487149 -0.000124276  0.000949055 -0.00528181 -0.000492215  0.00176114 -0.00577205 -0.000706315  0.00116894 -0.00342828 -0.000832379  0.000921428 -0.00547749 -0.00035578  0.00061512 -0.00318348 -0.000422835  0.00113301 -0.00359106 -0.000597715  0.000594065 -0.00333828 -0.000303507  0.00163752 -0.01057 -0.000544131  0.00309858 -0.0111724 -0.000801146  0.00248161 -0.00806785 -0.00104916  0.00160474 -0.010846 -0.000400722  0.00129741 -0.00775784 -0.000528872  0.00242934 -0.00832593 -0.00076896  0.00126535 -0.00800794 -0.000386715  0.00224268 -0.0170311 -0.000532925  0.00434184 -0.0176746 -0.000794053  0.00378728 -0.0139758 -0.00108129  0.00221461 -0.0173556 -0.000397623  0.00195545 -0.0136574 -0.000542819  0.0037412 -0.0142962 -0.000804842  0.00192374 -0.0139718 -0.000403166  0.0027194 -0.0244929 -0.000497997  0.00539929 -0.0251414 -0.000744641  0.00492626 -0.0209409 -0.00103056  0.00269622 -0.0248353 -0.000373542  0.00249863 -0.0206326 -0.000516534  0.00489509 -0.0212904 -0.000772297  0.00247222 -0.020978 -0.000386357  0.0030638 -0.0328531 -0.000456631  0.00625914 -0.0334887 -0.000679195  0.0058744 -0.0288556 -0.000949562  0.00304502 -0.0331896 -0.000341535  0.00290763 -0.0285555 -0.00047785  0.00585252 -0.029208 -0.000712872  0.00288689 -0.0289059 -0.000357628  0.00328124 -0.0420205 -0.000414491  0.0069356 -0.0426335 -0.000611067  0.00663096 -0.0376264 -0.000860393  0.00326627 -0.0423374 -0.000310779  0.00318891 -0.0373305 -0.000435352  0.00661987 -0.0379642 -0.000646114  0.00317115 -0.0376674 -0.000326276  0.00338113 -0.051902 -0.000372767  0.00744128 -0.0524898 -0.000545621  0.00721508 -0.0471628 -0.000769794  0.00336814 -0.0521915 -0.000280082  0.00334692 -0.0468657 -0.00039351  0.00720817 -0.0474755 -0.000578105  0.00333172 -0.0471791 -0.000295639  0.00337327 -0.0624091 -0.000334084  0.00778949 -0.0629672 -0.00048238  0.00763714 -0.0573699 -0.000683486  0.00336194 -0.062667 -0.000249982  0.00339103 -0.0570716 -0.00035274  0.00763333 -0.0576538 -0.000512779  0.00337851 -0.0573545 -0.000263929  0.00326431 -0.0734503 -0.00029546  0.00799704 -0.0739824 -0.000423849  0.00791252 -0.0681568 -0.000602961  0.00325501 -0.0736774 -0.00022161  0.00333118 -0.0678552 -0.000314534  0.00791013 -0.0684108 -0.000451386  0.00332153 -0.0681081 -0.000235438  0.00306678 -0.0849452 -0.000259638  0.00807273 -0.0854512 -0.000368416  0.00804913 -0.0794407 -0.000527859  0.00305915 -0.0851413 -0.000194967  0.00317597 -0.0791347 -0.000277281  0.0080508 -0.0796629 -0.000395775  0.00316727 -0.0793557 -0.000207782  0.0027895 -0.0968167 -0.000225842  0.00803232 -0.0972988 -0.000315666  0.00806379 -0.0911383 -0.000456572  0.00278509 -0.0969845 -0.000170052  0.00293875 -0.0908279 -0.000241697  0.00806689 -0.0913301 -0.000342667  0.00293112 -0.0910188 -0.000181794  0.00244188 -0.108992 -0.000193894  0.00788713 -0.109449 -0.000269949  0.00796974 -0.103173 -0.000389457  0.00243795 -0.109132 -0.000145495  0.00262487 -0.102858 -0.000209808  0.0079726 -0.103337 -0.000292301  0.00262046 -0.103022 -0.000157237  0.00203347 -0.121404 -0.000163376  0.00764894 -0.12184 -0.00022614  0.00777364 -0.115478 -0.000329018  0.0020324 -0.121522 -0.000123143  0.0022465 -0.11516 -0.000178218  0.00778031 -0.115617 -0.000246167  0.00224173 -0.115298 -0.000133395  0.00157523 -0.133994 -0.000136256  0.00733113 -0.13441 -0.000185013  0.00749385 -0.127989 -0.000273108  0.00157392 -0.134089 -0.000101805  0.00181186 -0.127669 -0.000150442  0.00749946 -0.128104 -0.000204146  0.00180912 -0.127784 -0.000112414  0.00107241 -0.146708 -0.000111222  0.00694323 -0.147105 -0.000147581  0.00713873 -0.14065 -0.000222027  0.0010736 -0.146784 -8.29101e-05  0.00132942 -0.140328 -0.000123024  0.00714564 -0.140743 -0.000166893  0.00132871 -0.14042 -9.2566e-05  0.000534058 -0.159498 -8.67248e-05  0.00649834 -0.159877 -0.00011605  0.00672221 -0.153408 -0.000176609  0.000535727 -0.159555 -6.4671e-05  0.000807524 -0.153086 -9.88245e-05  0.00672793 -0.153482 -0.000132859  0.000808239 -0.15316 -7.49826e-05  -2.98023e-05 -0.172322 -6.81281e-05  0.00600457 -0.172683 -8.83937e-05  0.00625086 -0.166218 -0.000135839  -2.57492e-05 -0.172361 -5.19156e-05  0.000257492 -0.165896 -7.82609e-05  0.00625682 -0.166276 -0.000101388  0.000257254 -0.165954 -5.81145e-05  -0.000615358 -0.185142 -5.10812e-05  0.00547409 -0.185489 -6.3777e-05  0.00573587 -0.179043 -9.9957e-05  -0.000613213 -0.18517 -3.82066e-05  -0.000318527 -0.178723 -5.85914e-05  0.00574398 -0.179087 -7.55787e-05  -0.000317097 -0.178765 -4.37498e-05  -0.00121641 -0.197926 -3.63588e-05  0.00491142 -0.198262 -4.30942e-05  0.00518918 -0.191847 -7.12872e-05  -0.00121188 -0.197943 -2.71797e-05  -0.000913858 -0.191528 -4.29153e-05  0.00519562 -0.191879 -5.25713e-05  -0.000910521 -0.191559 -3.20077e-05  -0.00182605 -0.210653 -2.24113e-05  0.00432754 -0.210977 -2.58684e-05  0.00461698 -0.204604 -4.57764e-05  -0.00182366 -0.210662 -1.74046e-05  -0.0015192 -0.204286 -2.7895e-05  0.00462103 -0.204625 -3.38554e-05  -0.00151706 -0.204308 -2.08616e-05  -0.00244236 -0.2233 -1.23978e-05  0.00373077 -0.223617 -1.24574e-05  0.00402784 -0.217291 -2.70009e-05  -0.00243783 -0.223304 -9.0003e-06  -0.00213218 -0.216975 -1.65105e-05  0.00403166 -0.217306 -2.07424e-05  -0.00213051 -0.21699 -1.25766e-05  -0.00305986 -0.235852 -3.03984e-06  0.00312138 -0.236166 -2.563e-06  0.00342202 -0.229892 -1.055e-05  -0.00305581 -0.235852 -2.74181e-06  -0.00274968 -0.229578 -6.61612e-06  0.0034287 -0.229902 -8.28505e-06  -0.00274754 -0.229588 -6.02007e-06  -0.00366902 -0.248286 8.40425e-06  0.0025208 -0.248607 1.10865e-05  0.00281477 -0.242388 6.97374e-06  -0.00366497 -0.248286 4.82798e-06  -0.00336504 -0.242073 2.563e-06  0.00282097 -0.242399 4.41074e-06  -0.00336146 -0.242083 1.54972e-06  0.000941798 -0.00199932 -0.000914633  0 0 0  0.00127997 -0.0025593 -0.000855327  0.000456966 -0.000962317 -0.00066787  0 0 0  0.000913247 -0.00210941 -0.00065279  0.000322185 -0.000703156 -0.000509858  0 0 0  0.000442185 -0.00102502 -0.000470996  0.000310265 -0.00075829 -0.000358641  0.00274011 -0.00602388 -0.0014388  0.00369048 -0.00690633 -0.00137341  0.00245894 -0.00439298 -0.00161254  0.00267732 -0.0062415 -0.00104523  0.00177531 -0.00382233 -0.00122917  0.00239827 -0.00458896 -0.00116128  0.00172634 -0.00399822 -0.000884712  0.00474676 -0.0113751 -0.00160837  0.00637394 -0.0123405 -0.00157022  0.0051266 -0.00920624 -0.00204611  0.00467858 -0.0116719 -0.00119108  0.00374803 -0.00854671 -0.00155562  0.00504148 -0.00949836 -0.00150341  0.00367802 -0.00881946 -0.00114185  0.00659239 -0.0178073 -0.0015853  0.00885326 -0.0187606 -0.00156921  0.00772053 -0.0150779 -0.00212717  0.00654417 -0.018145 -0.00118589  0.00569856 -0.0144498 -0.00161117  0.00765049 -0.0154249 -0.00158501  0.00563982 -0.0147816 -0.00119984  0.00819016 -0.0252315 -0.00148195  0.0110219 -0.0261466 -0.00147444  0.0100201 -0.021969 -0.0020383  0.00816232 -0.0255804 -0.00111175  0.0074237 -0.021388 -0.00153852  0.00997752 -0.0223341 -0.00152749  0.00738573 -0.0217444 -0.00115311  0.00953788 -0.0335649 -0.00135028  0.0128815 -0.0344355 -0.0013451  0.0120085 -0.0298205 -0.00188082  0.00952792 -0.0339041 -0.00101358  0.00889468 -0.0292778 -0.00141817  0.01199 -0.0301809 -0.00141329  0.00887555 -0.0296335 -0.00106508  0.0106541 -0.0427152 -0.00121307  0.0144511 -0.0435386 -0.00120819  0.0137044 -0.0385455 -0.00169992  0.0106535 -0.0430334 -0.00091207  0.0101238 -0.0380318 -0.00128156  0.0137021 -0.0388882 -0.00127667  0.01012 -0.0383719 -0.000962019  0.0115532 -0.0525905 -0.00107872  0.0157512 -0.0533624 -0.0010727  0.0151272 -0.0480495 -0.00151813  0.0115596 -0.0528803 -0.000810087  0.0111305 -0.0475578 -0.00114554  0.0151335 -0.048364 -0.00113958  0.011133 -0.047871 -0.000859737  0.0122521 -0.0630921 -0.000951767  0.0168021 -0.0638165 -0.000944853  0.0162926 -0.0582297 -0.00134331  0.0122612 -0.0633502 -0.000714362  0.011928 -0.057756 -0.00101447  0.0163064 -0.0585144 -0.00100803  0.0119344 -0.0580406 -0.00076133  0.0127661 -0.0741333 -0.000832915  0.0176237 -0.0748121 -0.000824273  0.0172238 -0.068997 -0.00117803  0.0127776 -0.0743611 -0.000624061  0.012532 -0.0685381 -0.000891507  0.0172418 -0.06925 -0.000884295  0.012542 -0.0687917 -0.000668406  0.0131111 -0.0856279 -0.000722468  0.0182344 -0.0862621 -0.000711799  0.017936 -0.0802609 -0.00102526  0.013123 -0.0858244 -0.000541508  0.0129603 -0.0798165 -0.000776112  0.017954 -0.0804828 -0.000769079  0.0129714 -0.0800387 -0.000581682  0.0133016 -0.0974991 -0.000618994  0.0186524 -0.0980915 -0.000610828  0.0184474 -0.0919408 -0.000881553  0.0133146 -0.097667 -0.000463486  0.0132254 -0.0915102 -0.00066942  0.0184665 -0.0921332 -0.000661194  0.0132381 -0.0917015 -0.000501931  0.0133537 -0.109672 -0.000523329  0.0188963 -0.110227 -0.000514507  0.0187762 -0.10396 -0.00074935  0.0133663 -0.109814 -0.000391662  0.0133448 -0.103541 -0.00056994  0.0187961 -0.104123 -0.000560999  0.0133576 -0.103705 -0.000427067  0.0132802 -0.122083 -0.000436485  0.0189856 -0.122601 -0.000427544  0.0189433 -0.116247 -0.00062716  0.0132943 -0.1222 -0.000326812  0.0133319 -0.11584 -0.000478625  0.0189593 -0.116385 -0.000469863  0.0133438 -0.115979 -0.00035876  0.013099 -0.13467 -0.000357628  0.0189382 -0.135154 -0.000348985  0.0189612 -0.128743 -0.00051719  0.0131119 -0.134766 -0.000267446  0.0132031 -0.128348 -0.000395358  0.0189782 -0.128856 -0.000387549  0.013216 -0.128462 -0.000296354  0.0128241 -0.147382 -0.000286281  0.0187683 -0.147834 -0.000278652  0.0188503 -0.141387 -0.000418544  0.0128365 -0.147456 -0.000213802  0.0129739 -0.141003 -0.000320256  0.0188676 -0.141479 -0.000313044  0.0129861 -0.141095 -0.000240147  0.0124671 -0.160165 -0.000221431  0.0184941 -0.16059 -0.000215948  0.0186279 -0.154129 -0.000327945  0.0124788 -0.160223 -0.000166476  0.0126569 -0.153756 -0.000252843  0.0186424 -0.154202 -0.000244856  0.0126679 -0.15383 -0.000189424  0.0120425 -0.172984 -0.000167251  0.0181317 -0.173381 -0.000161946  0.0183096 -0.166924 -0.000249982  0.0120542 -0.173023 -0.000125051  0.0122643 -0.166561 -0.00019443  0.0183232 -0.166981 -0.00018841  0.0122736 -0.166618 -0.000145495  0.0115616 -0.185797 -0.000119805  0.017699 -0.186171 -0.000115931  0.0179119 -0.179733 -0.000183105  0.0115728 -0.185823 -8.91685e-05  0.0118101 -0.17938 -0.000142276  0.0179248 -0.179776 -0.00013715  0.0118206 -0.179424 -0.000106752  0.0110381 -0.198574 -8.05259e-05  0.0172064 -0.198929 -7.76649e-05  0.0174477 -0.192522 -0.000127673  0.0110493 -0.198592 -6.19888e-05  0.0113049 -0.19218 -9.93609e-05  0.0174611 -0.192554 -9.5427e-05  0.0113163 -0.19221 -7.42674e-05  0.010479 -0.211294 -4.86374e-05  0.0166681 -0.211633 -4.68493e-05  0.0169313 -0.205266 -8.02279e-05  0.0104895 -0.211301 -3.67761e-05  0.0107636 -0.204931 -6.49095e-05  0.0169427 -0.205286 -6.13332e-05  0.0107732 -0.204952 -4.89354e-05  0.00989723 -0.223933 -2.43783e-05  0.0160964 -0.22426 -2.3365e-05  0.0163779 -0.21794 -4.62532e-05  0.00990605 -0.223936 -1.80602e-05  0.0101917 -0.217612 -3.48091e-05  0.016386 -0.217954 -3.43323e-05  0.0102003 -0.217627 -2.66433e-05  0.00929642 -0.236482 -1.60933e-06  0.0155039 -0.236804 -2.563e-06  0.0157928 -0.230531 -1.52588e-05  0.00930691 -0.236484 -1.78814e-06  0.00960064 -0.23021 -1.35303e-05  0.0158024 -0.230541 -1.24574e-05  0.00960898 -0.230219 -1.03712e-05  0.00869799 -0.248932 2.06828e-05  0.0149071 -0.249264 1.59144e-05  0.0151956 -0.243032 9.77516e-06  0.008708 -0.248932 1.26362e-05  0.00899649 -0.24271 8.70228e-06  0.0152035 -0.243041 6.73532e-06  0.00900626 -0.242719 5.66244e-06  0.00179021 -0.00307459 -0.00146985  0 0 0  0.00232849 -0.00416744 -0.00124681  0.000822723 -0.00195563 -0.000967741  0 0 0  0.00174943 -0.00321776 -0.00105256  0.000605635 -0.0013563 -0.000816047  0 0 0  0.000807464 -0.00204235 -0.000687063  0.000588156 -0.00143105 -0.000577569  0.00498539 -0.00752586 -0.00232261  0.00632569 -0.00890076 -0.00199991  0.00434051 -0.00623959 -0.00233632  0.00489923 -0.00779194 -0.00169051  0.00330313 -0.00517988 -0.0019778  0.00427109 -0.00649184 -0.00169033  0.0032348 -0.0054003 -0.00142825  0.00832978 -0.0128409 -0.00261801  0.0103011 -0.0141681 -0.00230002  0.00844982 -0.0110686 -0.00298309  0.00823933 -0.013179 -0.00194031  0.00668594 -0.0100489 -0.00252098  0.0083521 -0.0114188 -0.0021956  0.00659138 -0.0103685 -0.00185388  0.011364 -0.0191529 -0.0025984  0.0139197 -0.0204059 -0.00231141  0.0122427 -0.0167699 -0.0031271  0.0113014 -0.0195173 -0.00194442  0.00989348 -0.0158551 -0.00263292  0.0121584 -0.0171569 -0.00233024  0.00981361 -0.0162209 -0.00196153  0.0140357 -0.0264742 -0.00244045  0.0171394 -0.0276485 -0.00218344  0.0156316 -0.0235142 -0.00301409  0.014005 -0.0268388 -0.00183147  0.012746 -0.0226797 -0.00252986  0.0155794 -0.023903 -0.00225919  0.012699 -0.0230555 -0.00189579  0.0163569 -0.0347292 -0.0022282  0.0199574 -0.0358288 -0.00199795  0.0186204 -0.031253 -0.00279033  0.0163495 -0.0350779 -0.00167394  0.0152388 -0.0304801 -0.00233805  0.0185982 -0.0316266 -0.0020954  0.0152214 -0.0308461 -0.00175524  0.0183466 -0.0438222 -0.00200075  0.0223888 -0.0448472 -0.00179505  0.0212233 -0.0398903 -0.00252593  0.0183535 -0.0441432 -0.0015043  0.0173921 -0.0391661 -0.00211465  0.0212205 -0.0402372 -0.00189799  0.0173922 -0.0395107 -0.001589  0.0200251 -0.0536462 -0.00177795  0.0244575 -0.0546004 -0.00159413  0.0234565 -0.049319 -0.00225621  0.0200411 -0.0539366 -0.00133497  0.0192229 -0.0486371 -0.00188875  0.0234671 -0.0496355 -0.0016942  0.0192358 -0.0489529 -0.00141853  0.0214137 -0.0641053 -0.00156504  0.0261849 -0.0649911 -0.00140411  0.0253456 -0.0594364 -0.00199479  0.021435 -0.0643647 -0.00117445  0.0207555 -0.0587907 -0.00166994  0.0253615 -0.0597198 -0.00149792  0.020774 -0.0590751 -0.00125384  0.0225319 -0.0751085 -0.00136566  0.0275973 -0.0759287 -0.00122362  0.0269098 -0.0701446 -0.00174725  0.0225561 -0.0753348 -0.00102419  0.0220059 -0.0695327 -0.00146377  0.0269293 -0.0703957 -0.00131142  0.0220288 -0.0697851 -0.00109816  0.0234007 -0.0865678 -0.00117993  0.0287178 -0.0873258 -0.00105625  0.0281696 -0.0813534 -0.00151694  0.0234253 -0.0867644 -0.000884771  0.022997 -0.0807737 -0.00127113  0.0281929 -0.0815729 -0.00113875  0.0230207 -0.0809947 -0.000953555  0.0240411 -0.0984058 -0.00100881  0.029573 -0.0991041 -0.00090158  0.0291531 -0.0929813 -0.00130302  0.0240647 -0.0985703 -0.000757039  0.0237498 -0.0924325 -0.00109297  0.0291774 -0.0931699 -0.000977993  0.0237721 -0.092623 -0.000819862  0.0244728 -0.110545 -0.000849724  0.0301838 -0.111191 -0.000760555  0.0298843 -0.104949 -0.00110531  0.0244974 -0.110685 -0.000638247  0.0242831 -0.10443 -0.000927925  0.0299077 -0.105112 -0.000829577  0.0243061 -0.104593 -0.000695884  0.0247185 -0.122926 -0.000706136  0.0305756 -0.123519 -0.000630438  0.0303836 -0.117191 -0.000923634  0.0247412 -0.123042 -0.000529587  0.0246191 -0.116698 -0.000776172  0.0304066 -0.117327 -0.000693321  0.0246408 -0.116835 -0.000580907  0.0247967 -0.135484 -0.000575364  0.0307732 -0.136028 -0.000511765  0.0306764 -0.129641 -0.000759184  0.0248191 -0.135576 -0.000430226  0.0247774 -0.129174 -0.000638306  0.0306978 -0.129753 -0.000569224  0.0248001 -0.129288 -0.000478625  0.0247285 -0.148166 -0.000457346  0.0307975 -0.148667 -0.000406504  0.0307853 -0.142242 -0.000610411  0.0247509 -0.148238 -0.000342131  0.0247805 -0.1418 -0.000514507  0.0308057 -0.142333 -0.000458241  0.0248021 -0.141892 -0.000386477  0.0245354 -0.160922 -0.000353813  0.0306718 -0.161385 -0.000314534  0.0307324 -0.154945 -0.000477195  0.0245531 -0.160977 -0.000265062  0.0246472 -0.154526 -0.000403583  0.0307522 -0.155016 -0.000359535  0.0246673 -0.154599 -0.000302792  0.024231 -0.173714 -0.000263631  0.0304165 -0.174141 -0.000234008  0.0305424 -0.167703 -0.000361919  0.02425 -0.173754 -0.000196993  0.0243969 -0.167305 -0.000306129  0.0305583 -0.167759 -0.00027138  0.0244145 -0.167362 -0.000230491  0.0238395 -0.186504 -0.000186861  0.0300536 -0.186898 -0.000164747  0.0302312 -0.180479 -0.000264108  0.0238552 -0.186531 -0.000140369  0.0240457 -0.180099 -0.000223637  0.0302484 -0.180519 -0.000197947  0.0240636 -0.180143 -0.000167906  0.0233753 -0.199261 -0.000124872  0.0296066 -0.199629 -0.000110626  0.029824 -0.193237 -0.000181139  0.0233893 -0.199276 -9.38773e-05  0.0236173 -0.192876 -0.000154793  0.029839 -0.193266 -0.000136673  0.0236311 -0.192906 -0.000115752  0.0228531 -0.211961 -7.61747e-05  0.0290928 -0.212307 -6.77109e-05  0.0293431 -0.205954 -0.000115454  0.0228674 -0.211969 -5.73397e-05  0.0231209 -0.205608 -9.84073e-05  0.0293572 -0.205972 -8.74996e-05  0.0231349 -0.205627 -7.40886e-05  0.0222909 -0.224587 -3.5882e-05  0.0285308 -0.224916 -3.40939e-05  0.0288041 -0.218606 -6.34193e-05  0.0223043 -0.224588 -2.73585e-05  0.0225763 -0.218272 -5.44786e-05  0.0288177 -0.21862 -4.88758e-05  0.0225906 -0.218286 -4.1008e-05  0.0217001 -0.237127 -4.76837e-06  0.0279379 -0.237451 -5.90086e-06  0.0282242 -0.231181 -2.43783e-05  0.0217149 -0.237127 -4.23193e-06  0.0220003 -0.230856 -2.03252e-05  0.0282371 -0.23119 -1.87159e-05  0.022011 -0.230866 -1.63913e-05  0.0211015 -0.249596 2.54512e-05  0.0273356 -0.249925 1.65105e-05  0.0276275 -0.243684 8.28505e-06  0.021117 -0.249596 1.86563e-05  0.0214012 -0.243358 1.055e-05  0.0276365 -0.243691 6.19888e-06  0.0214157 -0.243367 6.79493e-06  0.00337526 -0.00541043 -0.00201321  0 0 0  0.00497696 -0.0074017 -0.00165176  0.00208131 -0.00450575 -0.00129598  0 0 0  0.00335321 -0.00560731 -0.00144804  0.00114595 -0.00288194 -0.00110775  0 0 0  0.00210349 -0.00465351 -0.000921667  0.0011368 -0.0029875 -0.000788093  0.00813001 -0.009857 -0.00316733  0.0101046 -0.0115784 -0.00262398  0.00760159 -0.009067 -0.0030762  0.00805444 -0.010195 -0.00230974  0.00577404 -0.00757462 -0.00269818  0.00759542 -0.00939047 -0.00222433  0.00572509 -0.00786221 -0.00195354  0.0126577 -0.0149048 -0.00359046  0.015053 -0.0165443 -0.00302124  0.0126704 -0.0135173 -0.00392354  0.0125629 -0.015296 -0.00266039  0.0104353 -0.0122416 -0.00344878  0.0125932 -0.0139305 -0.00288242  0.0103425 -0.0126228 -0.00253731  0.016793 -0.021019 -0.00358468  0.0197216 -0.0225475 -0.00304288  0.0175274 -0.0189727 -0.00411916  0.0167187 -0.0214173 -0.00267822  0.0147808 -0.017813 -0.00362223  0.0174376 -0.019403 -0.00306273  0.014692 -0.0182216 -0.00269753  0.0204896 -0.0281925 -0.00337791  0.023946 -0.0296117 -0.00288069  0.0219641 -0.0255347 -0.00397706  0.0204451 -0.0285757 -0.00253278  0.0186953 -0.0244671 -0.00349617  0.0218926 -0.025949 -0.00297469  0.0186381 -0.0248693 -0.00261831  0.0237481 -0.0363296 -0.00308919  0.0276887 -0.0376459 -0.00263911  0.0259251 -0.0331268 -0.00368518  0.0237288 -0.0366861 -0.00231981  0.022173 -0.0321373 -0.00323915  0.0258777 -0.0335121 -0.00276411  0.0221428 -0.0325158 -0.00243133  0.0265808 -0.0453238 -0.00277734  0.0309491 -0.0465394 -0.0023734  0.0294041 -0.0416401 -0.00333875  0.0265791 -0.0456459 -0.00208646  0.0252163 -0.0407169 -0.0029338  0.0293789 -0.0419916 -0.00250798  0.0252063 -0.0410656 -0.00220376  0.0290103 -0.0550616 -0.00246865  0.0337502 -0.0561826 -0.00211084  0.0324163 -0.0509585 -0.00298464  0.0290195 -0.0553505 -0.00185329  0.0278451 -0.0500944 -0.00262153  0.0324047 -0.051273 -0.00224149  0.0278486 -0.0504108 -0.00196898  0.0310578 -0.0654392 -0.00217205  0.0361217 -0.0664743 -0.0018568  0.0349895 -0.0609718 -0.002639  0.0310735 -0.065695 -0.00163078  0.0300816 -0.0601646 -0.00231755  0.0349871 -0.0612523 -0.00198197  0.0300933 -0.0604467 -0.00174093  0.0327505 -0.0763669 -0.00189346  0.0380887 -0.0773158 -0.00162125  0.0371491 -0.0715845 -0.00231147  0.0327685 -0.0765904 -0.00142252  0.0319487 -0.0708296 -0.0020299  0.0371542 -0.0718299 -0.00173616  0.0319645 -0.0710785 -0.00152427  0.0341125 -0.087755 -0.00163466  0.039686 -0.088623 -0.00139797  0.038927 -0.0827025 -0.00200671  0.0341326 -0.0879465 -0.00122803  0.0334727 -0.0819975 -0.00176221  0.0389317 -0.0829153 -0.00150692  0.0334902 -0.0822142 -0.00132334  0.0351712 -0.0995255 -0.00139588  0.0409408 -0.100319 -0.00119352  0.0403459 -0.094243 -0.00172329  0.035192 -0.0996886 -0.00104821  0.0346794 -0.0935858 -0.001513  0.0403557 -0.0944265 -0.00129426  0.0346977 -0.0937729 -0.00113577  0.035954 -0.111601 -0.00117463  0.0418838 -0.112324 -0.00100523  0.0414398 -0.106129 -0.00146013  0.0359738 -0.111737 -0.000880957  0.0355966 -0.105516 -0.00128168  0.0414482 -0.106286 -0.00109512  0.0356165 -0.105677 -0.000962138  0.0364848 -0.12392 -0.000972688  0.0425447 -0.124575 -0.000831544  0.0422409 -0.118292 -0.00121993  0.0365055 -0.124032 -0.000731111  0.0362511 -0.117724 -0.00107169  0.0422474 -0.118422 -0.000916958  0.0362689 -0.117857 -0.00080508  0.0367929 -0.136421 -0.000792146  0.042951 -0.137013 -0.000676155  0.0427692 -0.130666 -0.0010013  0.0368133 -0.136509 -0.000593901  0.0366659 -0.13014 -0.000880659  0.0427773 -0.130774 -0.000753403  0.0366844 -0.13025 -0.000660598  0.0369015 -0.149048 -0.000626862  0.0431345 -0.149584 -0.000534058  0.0430585 -0.143198 -0.000802696  0.0369205 -0.149118 -0.000470102  0.0368716 -0.14271 -0.000706315  0.0430667 -0.143286 -0.000604033  0.0368903 -0.142798 -0.000531554  0.0368369 -0.161756 -0.000481725  0.0431144 -0.16224 -0.000411808  0.0431402 -0.155838 -0.000626266  0.0368545 -0.161807 -0.000362873  0.036891 -0.155384 -0.000552416  0.0431466 -0.155904 -0.000471652  0.0369081 -0.155454 -0.000415862  0.0366237 -0.1745 -0.000357509  0.0429282 -0.174939 -0.000307143  0.0430346 -0.168536 -0.000474572  0.0366392 -0.174537 -0.000269175  0.0367482 -0.168116 -0.000417948  0.0430412 -0.168585 -0.000357389  0.0367646 -0.168167 -0.000315189  0.0362842 -0.187248 -0.00025326  0.0426035 -0.187644 -0.000217736  0.042773 -0.181255 -0.000343919  0.0363021 -0.187271 -0.000190675  0.0364699 -0.180865 -0.00030303  0.0427825 -0.181293 -0.000259519  0.0364854 -0.180903 -0.000227451  0.0358474 -0.19997 -0.000167668  0.04216 -0.200333 -0.000145435  0.0423856 -0.193969 -0.00023526  0.0358613 -0.199984 -0.000128031  0.036078 -0.193604 -0.000208139  0.0423954 -0.193993 -0.000180483  0.0360923 -0.19363 -0.000157893  0.0353308 -0.21264 -0.000100195  0.041631 -0.212976 -8.85725e-05  0.041894 -0.206644 -0.000148892  0.0353456 -0.212645 -7.70092e-05  0.0355985 -0.206301 -0.000131965  0.0419056 -0.206661 -0.000113964  0.0356131 -0.206319 -0.000100791  0.0347633 -0.225242 -5.07832e-05  0.0410459 -0.225561 -4.76241e-05  0.0413327 -0.219267 -8.54135e-05  0.0347772 -0.225243 -3.95179e-05  0.0350537 -0.218938 -7.45654e-05  0.0413451 -0.219276 -6.75917e-05  0.0350676 -0.218951 -5.73993e-05  0.034162 -0.237774 -1.38879e-05  0.0404265 -0.238087 -1.74046e-05  0.0407238 -0.231823 -3.70145e-05  0.0341773 -0.237772 -1.07288e-05  0.034466 -0.231506 -3.08752e-05  0.0407367 -0.231831 -2.96831e-05  0.0344796 -0.231514 -2.50936e-05  0.0335488 -0.250254 2.19345e-05  0.0398016 -0.250571 7.98702e-06  0.0401013 -0.244323 -2.26498e-06  0.033565 -0.250252 1.61529e-05  0.0338578 -0.244006 4.11272e-06  0.0401165 -0.244331 -3.27826e-06  0.0338721 -0.244016 2.38419e-06  -0.00495398 -0.00631876 0.00316834  -0.00209473 -0.00372612 0.00235152  0 0 0  -0.00345686 -0.00420076 0.00357014  0 0 0  -0.00234865 -0.0033251 0.00235796  -0.000857469 -0.00136213 0.00176197  0 0 0  -0.0021001 -0.00397033 0.0018087  -0.00336352 -0.00464415 0.00275153  -0.00119115 -0.00220035 0.00200033  0 0 0  -0.000810895 -0.0015641 0.00132996  -0.00113731 -0.00242517 0.00153238  -0.0102394 -0.009885 0.00484347  -0.00772603 -0.00727025 0.00531435  -0.00833391 -0.0079481 0.00526965  -0.00637631 -0.0074963 0.00364679  -0.00450012 -0.00482496 0.00398487  -0.00763538 -0.00794968 0.004179  -0.0081479 -0.00863543 0.0042333  -0.00594045 -0.00596911 0.00463068  -0.00430997 -0.00533959 0.00313401  -0.00577204 -0.00656135 0.0036431  -0.0153108 -0.0144518 0.00536478  -0.0129324 -0.0112231 0.00638866  -0.0127927 -0.0126319 0.00567877  -0.0103305 -0.0124147 0.00403523  -0.00855237 -0.00915708 0.00478631  -0.012802 -0.0120237 0.00520933  -0.0126933 -0.0133656 0.00469023  -0.0106139 -0.0101289 0.00557131  -0.00839481 -0.00982073 0.00391507  -0.0104621 -0.0108603 0.00455213  -0.02008 -0.020158 0.00527501  -0.0177934 -0.0163801 0.00647509  -0.0169021 -0.0185163 0.00553191  -0.0139712 -0.0184156 0.00396413  -0.0122291 -0.0145825 0.00484866  -0.0177416 -0.0171593 0.00536931  -0.0169013 -0.0192245 0.00461394  -0.0148847 -0.0154179 0.00565124  -0.0121862 -0.0152755 0.00403422  -0.0148388 -0.0161534 0.00469476  -0.0244875 -0.0269555 0.0049113  -0.0223084 -0.0227075 0.00612658  -0.0207184 -0.0255063 0.00513631  -0.0173356 -0.025472 0.00368929  -0.0156401 -0.0211467 0.00459087  -0.022328 -0.0234264 0.00511461  -0.0207899 -0.0261589 0.0042994  -0.0188446 -0.0218698 0.00535345  -0.0156851 -0.0218156 0.0038411  -0.0188844 -0.0225626 0.00447506  -0.0285305 -0.0347287 0.00444877  -0.0264771 -0.0300823 0.00560111  -0.0242579 -0.0334712 0.00464833  -0.0204491 -0.0334822 0.00333804  -0.0188196 -0.0287432 0.00420058  -0.0265527 -0.0307266 0.0046863  -0.024371 -0.034059 0.00389266  -0.0225222 -0.0293622 0.00489867  -0.0189232 -0.0293628 0.003519  -0.0226182 -0.0299949 0.00410265  -0.0322232 -0.0433578 0.00396127  -0.0303139 -0.03837 0.00502205  -0.0275271 -0.0422832 0.00414008  -0.0233245 -0.0423336 0.00297153  -0.0217832 -0.0372464 0.00376648  -0.0304185 -0.0389421 0.00420511  -0.0276616 -0.0428082 0.003465  -0.0259245 -0.0377673 0.0043937  -0.0219162 -0.0378074 0.00315511  -0.0260518 -0.0383328 0.00367951  -0.0355874 -0.0527389 0.00348753  -0.033825 -0.0474566 0.00444651  -0.0305346 -0.0518385 0.00364679  -0.0259753 -0.0519208 0.00261384  -0.0245322 -0.0465393 0.00333476  -0.0339445 -0.0479612 0.00372112  -0.030676 -0.0522987 0.0030511  -0.0290622 -0.0469633 0.00389016  -0.0246785 -0.0470394 0.00278991  -0.029202 -0.047465 0.00325561  -0.0386399 -0.0627723 0.00304258  -0.0370275 -0.0572394 0.00389874  -0.0332878 -0.0620351 0.0031842  -0.0284131 -0.0621494 0.00227863  -0.0270728 -0.0565196 0.0029242  -0.0371511 -0.0576779 0.00326103  -0.0334276 -0.0624353 0.00266129  -0.0319414 -0.0568509 0.003411  -0.027221 -0.0569592 0.00244355  -0.0320835 -0.05729 0.00285286  -0.0413997 -0.0733727 0.00263208  -0.0399336 -0.0676259 0.00338817  -0.0357985 -0.0727861 0.00275397  -0.0306474 -0.0729287 0.0019682  -0.0294125 -0.0670889 0.00253958  -0.0400546 -0.0680061 0.00283432  -0.0359321 -0.0731316 0.00230122  -0.0345719 -0.0673344 0.00296479  -0.0295542 -0.0674737 0.00212133  -0.0347098 -0.0677174 0.00247699  -0.0438887 -0.0844586 0.00225234  -0.0425617 -0.0785325 0.00291598  -0.0380802 -0.0840087 0.00235915  -0.0326878 -0.0841789 0.00168622  -0.0315589 -0.0781664 0.00218594  -0.0426769 -0.0788598 0.00243771  -0.0382031 -0.0843036 0.00196928  -0.0369669 -0.0783317 0.00255221  -0.0316913 -0.0784978 0.0018248  -0.0370948 -0.0786606 0.00213158  -0.0461179 -0.095953 0.00190735  -0.0449287 -0.0898813 0.00248486  -0.0401446 -0.0956281 0.00199741  -0.0345494 -0.0958243 0.00142634  -0.0335184 -0.0896719 0.00186288  -0.0450346 -0.0901577 0.00207704  -0.0402561 -0.0958784 0.00166684  -0.0391378 -0.0897628 0.00217432  -0.0336412 -0.0899546 0.0015527  -0.0392566 -0.0900428 0.0018152  -0.0481117 -0.107786 0.00159442  -0.0470506 -0.101598 0.00208879  -0.0420042 -0.107578 0.0016672  -0.0362397 -0.107794 0.0011903  -0.0353053 -0.101532 0.00156564  -0.0471425 -0.101831 0.00174707  -0.0421058 -0.107782 0.00139159  -0.041098 -0.101556 0.00182813  -0.0354143 -0.10177 0.00130481  -0.0412061 -0.10179 0.0015257  -0.049885 -0.119894 0.00130767  -0.0489428 -0.113617 0.00172973  -0.0436727 -0.119789 0.00136906  -0.0377704 -0.120023 0.000977218  -0.0369245 -0.113681 0.00129688  -0.0490251 -0.113811 0.00144541  -0.0437646 -0.119954 0.00114238  -0.0428606 -0.113642 0.00151449  -0.0370245 -0.113878 0.00108093  -0.0429575 -0.113838 0.00126386  -0.051453 -0.132217 0.0010522  -0.05062 -0.125877 0.00140637  -0.045167 -0.132202 0.00110155  -0.0391538 -0.132454 0.000786006  -0.0383914 -0.126055 0.00105536  -0.0506924 -0.126032 0.0011763  -0.0452464 -0.132334 0.000919104  -0.0444392 -0.125962 0.00123215  -0.0384804 -0.126215 0.000879467  -0.0445265 -0.12612 0.00102806  -0.0528345 -0.144702 0.000823975  -0.0520991 -0.138321 0.00111675  -0.0464989 -0.144766 0.000863016  -0.0403998 -0.14503 0.000615776  -0.0397139 -0.138598 0.000837922  -0.0521656 -0.13844 0.000934541  -0.0465661 -0.144866 0.000720561  -0.0458512 -0.138458 0.000978053  -0.0397931 -0.138725 0.000698268  -0.0459251 -0.138582 0.000816762  -0.054049 -0.157295 0.000625253  -0.053407 -0.150894 0.000861168  -0.0476835 -0.157429 0.000654101  -0.0415196 -0.157703 0.000468373  -0.0409107 -0.151256 0.000647604  -0.0534625 -0.150987 0.000721574  -0.0477409 -0.157502 0.000547409  -0.0471082 -0.151077 0.000755489  -0.0409746 -0.151355 0.000539124  -0.0471702 -0.151172 0.000630975  -0.0551112 -0.169955 0.000455916  -0.0545492 -0.163552 0.000638843  -0.0487378 -0.170146 0.000475705  -0.042532 -0.170429 0.000340879  -0.0419846 -0.163985 0.000482202  -0.0545969 -0.163619 0.000537515  -0.0487843 -0.170197 0.000398397  -0.0482249 -0.163771 0.000561655  -0.0420382 -0.16406 0.000402212  -0.048279 -0.163842 0.000469267  -0.056042 -0.182643 0.000312805  -0.0555551 -0.176252 0.000449359  -0.0496757 -0.182882 0.000325978  -0.0434451 -0.183171 0.000234187  -0.042953 -0.176747 0.000342607  -0.055593 -0.176298 0.000379801  -0.0497131 -0.182914 0.000273108  -0.0492198 -0.176504 0.00039804  -0.0430005 -0.176799 0.000285625  -0.0492616 -0.176553 0.00033313  -0.0568607 -0.195329 0.000200212  -0.056433 -0.188959 0.000296295  -0.0505111 -0.195601 0.000206828  -0.0442729 -0.195896 0.000149846  -0.0438323 -0.189501 0.000226974  -0.0564635 -0.188988 0.000252903  -0.0505428 -0.195617 0.000174701  -0.0501044 -0.189235 0.000262558  -0.0438695 -0.189535 0.000189841  -0.0501399 -0.189267 0.000221074  -0.0575943 -0.207981 0.000113189  -0.0572093 -0.201641 0.000176728  -0.0512683 -0.208278 0.000115514  -0.0450301 -0.208576 8.54731e-05  -0.0446267 -0.202219 0.000137866  -0.0572371 -0.201659 0.000152707  -0.0512934 -0.208284 0.000100136  -0.0508983 -0.201936 0.000157654  -0.0446603 -0.20224 0.000115335  -0.0509262 -0.201956 0.000133574  -0.0582597 -0.220577 5.53727e-05  -0.0579071 -0.21428 9.11355e-05  -0.0519609 -0.220893 5.10812e-05  -0.0457304 -0.221191 3.85046e-05  -0.0453615 -0.214879 6.84261e-05  -0.0579331 -0.214287 8.2016e-05  -0.051985 -0.22089 4.52995e-05  -0.0516207 -0.214585 8.13007e-05  -0.0453866 -0.21489 5.79953e-05  -0.0516455 -0.214594 7.09295e-05  -0.0588894 -0.233118 1.38283e-05  -0.0585535 -0.226851 3.37362e-05  -0.0526135 -0.233435 5.48363e-06  -0.046392 -0.233732 -2.98023e-07  -0.0460413 -0.227463 1.9908e-05  -0.0585766 -0.226854 3.22461e-05  -0.0526347 -0.233428 6.97374e-06  -0.0522892 -0.227161 2.62856e-05  -0.0460658 -0.227469 1.75834e-05  -0.0523124 -0.227167 2.43187e-05  -0.0595114 -0.245609 -2.64049e-05  -0.0591774 -0.239362 -9.71556e-06  -0.0532463 -0.245916 -3.83854e-05  -0.0470314 -0.246207 -3.31998e-05  -0.0466905 -0.23997 -2.06232e-05  -0.0592017 -0.239366 -4.35114e-06  -0.0532672 -0.245912 -3.1352e-05  -0.0529299 -0.23967 -1.54972e-05  -0.0467138 -0.239975 -1.49608e-05  -0.0529518 -0.239673 -1.2219e-05  -0.0018549 -0.0021784 0.00258684  0 0 0  -0.00127465 -0.00194797 0.00160581  -0.000471145 -0.000547498 0.00120354  0 0 0  -0.00175687 -0.00249343 0.0019837  -0.000631079 -0.000858471 0.00147814  0 0 0  -0.000436589 -0.000703156 0.000904143  -0.000585269 -0.00103574 0.00111318  -0.00508668 -0.00602011 0.00381941  -0.00364961 -0.00583489 0.0024839  -0.00252493 -0.00332029 0.00271666  -0.0049042 -0.00655377 0.00307059  -0.00342125 -0.00394168 0.00335276  -0.00238304 -0.00372787 0.00213581  -0.00324872 -0.0043938 0.00263739  -0.00828725 -0.0109819 0.00409067  -0.00626066 -0.0109635 0.00273132  -0.00508711 -0.00769722 0.00324667  -0.00819317 -0.0116121 0.00338852  -0.00671858 -0.00834224 0.00402135  -0.00496244 -0.00825714 0.0026592  -0.00657266 -0.00894739 0.00329179  -0.0112521 -0.0170873 0.00396603  -0.00873581 -0.0171838 0.00266469  -0.00755301 -0.0133119 0.00326413  -0.011257 -0.017734 0.00331664  -0.0097948 -0.013879 0.00405824  -0.00752047 -0.013937 0.00272131  -0.0097543 -0.0145351 0.00338072  -0.014023 -0.0242758 0.0036754  -0.0110386 -0.0244366 0.00247121  -0.00986606 -0.0200553 0.00307387  -0.0140969 -0.0248963 0.00308108  -0.0126594 -0.020541 0.00383389  -0.00990629 -0.0206851 0.00257778  -0.0127037 -0.0211884 0.0032115  -0.0166212 -0.0324279 0.0033226  -0.0131923 -0.0326237 0.00222939  -0.0120449 -0.0278179 0.00280482  -0.0167335 -0.0330021 0.00278491  -0.0153423 -0.0282268 0.00350332  -0.0121322 -0.0284174 0.00235319  -0.015439 -0.0288357 0.00293744  -0.0190542 -0.0414236 0.00295818  -0.015211 -0.041639 0.00197893  -0.0141047 -0.0364783 0.00251162  -0.019186 -0.041942 0.00247812  -0.0178582 -0.0368152 0.00313991  -0.0142186 -0.0370318 0.00210524  -0.0179818 -0.037372 0.00263089  -0.0213237 -0.0511548 0.00260431  -0.0171035 -0.0513829 0.00173879  -0.0160493 -0.0459252 0.00222117  -0.0214627 -0.051614 0.00217688  -0.0202075 -0.0461912 0.00277901  -0.0161722 -0.0464236 0.00185961  -0.0203459 -0.0466906 0.00232601  -0.0234364 -0.0615171 0.00227135  -0.018877 -0.0617553 0.00151485  -0.017881 -0.05605 0.00194454  -0.0235729 -0.0619211 0.00189716  -0.0223989 -0.0562497 0.00243443  -0.0180042 -0.0564938 0.00162578  -0.0225372 -0.0566923 0.00203514  -0.0253949 -0.0724237 0.00196379  -0.0205345 -0.0726728 0.00130707  -0.0195997 -0.066762 0.00168675  -0.0255238 -0.072775 0.00163859  -0.0244337 -0.0668969 0.00211495  -0.0197198 -0.0671503 0.00140798  -0.0245681 -0.0672821 0.00176543  -0.0272039 -0.0837932 0.00168204  -0.0220814 -0.0840513 0.00111663  -0.0212089 -0.0779712 0.00145054  -0.0273234 -0.0840932 0.00140291  -0.0263169 -0.0780446 0.00181991  -0.0213226 -0.0783074 0.00121003  -0.0264417 -0.0783777 0.00151813  -0.0288705 -0.0955482 0.00142407  -0.0235204 -0.0958138 0.00094378  -0.0227118 -0.0895989 0.00123429  -0.0289776 -0.0958014 0.00118703  -0.0280523 -0.0896153 0.00154954  -0.0228136 -0.0898871 0.00102794  -0.0281672 -0.0899002 0.00129175  -0.0304002 -0.107617 0.00118756  -0.0248605 -0.10789 0.000786841  -0.0241097 -0.101571 0.00103718  -0.0304978 -0.107828 0.000989258  -0.0296515 -0.101535 0.00130254  -0.0242021 -0.101815 0.00086385  -0.0297548 -0.101777 0.00108504  -0.0318004 -0.119936 0.000974894  -0.0261022 -0.120215 0.000644207  -0.0254086 -0.11382 0.000857711  -0.0318888 -0.120108 0.000812054  -0.031116 -0.113739 0.00107878  -0.025492 -0.114023 0.000713646  -0.0312085 -0.113938 0.000898421  -0.033085 -0.132446 0.00078392  -0.0272527 -0.13273 0.000517786  -0.0266145 -0.126283 0.000696778  -0.0331608 -0.132585 0.000652492  -0.0324554 -0.12616 0.000877738  -0.026687 -0.12645 0.000580132  -0.0325398 -0.126323 0.000730038  -0.0342562 -0.145095 0.000615656  -0.0283173 -0.14538 0.0004071  -0.0277313 -0.138906 0.000554085  -0.0343208 -0.1452 0.000512302  -0.0336822 -0.138745 0.000697851  -0.027794 -0.139039 0.000460267  -0.0337549 -0.138875 0.000580013  -0.0353239 -0.157827 0.000466883  -0.0293028 -0.158115 0.000307143  -0.028765 -0.151632 0.000426173  -0.0353804 -0.157907 0.00038743  -0.0347998 -0.15144 0.000538707  -0.0288203 -0.151738 0.000355184  -0.0348628 -0.151543 0.000448227  -0.0363007 -0.170605 0.000340939  -0.0302155 -0.170895 0.000224233  -0.0297203 -0.164421 0.000318885  -0.0363474 -0.170661 0.000283599  -0.0358205 -0.1642 0.000401914  -0.0297675 -0.164499 0.000264168  -0.0358746 -0.164277 0.000334382  -0.0371943 -0.183389 0.000235677  -0.0310647 -0.183679 0.000155509  -0.0306103 -0.177228 0.000227392  -0.0372319 -0.183427 0.00019598  -0.0367551 -0.176987 0.000285804  -0.0306478 -0.177287 0.000188351  -0.0367975 -0.177042 0.000237226  -0.0380163 -0.196148 0.000150681  -0.0318553 -0.196438 9.91225e-05  -0.0314357 -0.190022 0.000151277  -0.0380454 -0.196167 0.000124156  -0.0376117 -0.189761 0.000191152  -0.0314674 -0.190061 0.000125706  -0.0376463 -0.189799 0.000159025  -0.0387743 -0.208852 8.41022e-05  -0.0325944 -0.209145 5.57303e-05  -0.032203 -0.202773 9.10163e-05  -0.0387971 -0.208862 6.96182e-05  -0.0384009 -0.202497 0.000114143  -0.0322311 -0.202797 7.47442e-05  -0.0384285 -0.20252 9.52482e-05  -0.0394778 -0.221486 3.57032e-05  -0.0332901 -0.221779 2.11596e-05  -0.0329247 -0.215455 4.50611e-05  -0.039499 -0.221486 3.03388e-05  -0.0391304 -0.215168 5.85318e-05  -0.0329456 -0.21547 3.76701e-05  -0.0391548 -0.215181 4.9293e-05  -0.0401444 -0.234033 -4.47035e-06  -0.0339503 -0.234327 -5.60284e-06  -0.0336044 -0.228054 8.88109e-06  -0.0401628 -0.234032 -2.14577e-06  -0.0398152 -0.22776 1.38879e-05  -0.0336223 -0.228061 6.61612e-06  -0.0398347 -0.227765 1.24574e-05  -0.0407882 -0.2465 -4.60148e-05  -0.0345974 -0.24678 -3.47495e-05  -0.0342555 -0.240559 -2.5034e-05  -0.0408068 -0.246498 -3.58224e-05  -0.0404649 -0.240266 -2.39015e-05  -0.0342739 -0.240565 -1.83582e-05  -0.0404847 -0.240272 -1.74046e-05  -0.000945248 -0.00134879 0.00157726  0 0 0  -0.000551023 -0.001394 0.000810862  -0.000203606 -0.000252336 0.000603437  0 0 0  -0.000886731 -0.0016025 0.00121206  -0.000323813 -0.000358999 0.000904262  0 0 0  -0.000187341 -0.000383407 0.000455737  -0.000297219 -0.000500113 0.000681758  -0.00269996 -0.00487974 0.0023303  -0.00162308 -0.00500894 0.00125682  -0.00110862 -0.00263527 0.00136793  -0.0025869 -0.0053294 0.00187671  -0.00177887 -0.00289783 0.00204748  -0.00104453 -0.00299218 0.00108021  -0.00167355 -0.00327432 0.00161332  -0.0045667 -0.00991455 0.0024848  -0.00287473 -0.0101584 0.00138295  -0.00229865 -0.00691709 0.001638  -0.00450745 -0.0104778 0.00206238  -0.00363779 -0.00722378 0.0024491  -0.00224259 -0.00742266 0.00134546  -0.00354519 -0.00775123 0.00200874  -0.00636056 -0.0161681 0.00239521  -0.00412399 -0.0165027 0.00134391  -0.00351179 -0.0126064 0.00164354  -0.0063709 -0.0167727 0.00200814  -0.00547376 -0.0128863 0.00245762  -0.00350305 -0.013192 0.00137442  -0.00545233 -0.0134878 0.00205225  -0.00807029 -0.0235011 0.00221068  -0.00532854 -0.0238836 0.00123912  -0.00469607 -0.0194632 0.00154102  -0.00812811 -0.0240989 0.00185722  -0.00722504 -0.0196953 0.0023098  -0.00473171 -0.0200693 0.00129551  -0.00726265 -0.0203105 0.00193912  -0.00970274 -0.0317879 0.00199294  -0.00649422 -0.0321893 0.00111359  -0.00585288 -0.0273381 0.00139916  -0.00978982 -0.0323512 0.00167292  -0.00889486 -0.0275214 0.00210321  -0.00591797 -0.0279256 0.00117761  -0.00896955 -0.0281133 0.00176698  -0.011269 -0.040912 0.00176895  -0.00762802 -0.0413157 0.000983298  -0.0069865 -0.0361058 0.0012483  -0.0113692 -0.0414289 0.00148249  -0.0104934 -0.0362408 0.00188065  -0.00706524 -0.0366543 0.00104839  -0.0105894 -0.0367919 0.0015769  -0.012767 -0.0507679 0.00155461  -0.00873411 -0.0511653 0.000860453  -0.00810081 -0.0456548 0.00109959  -0.0128715 -0.0512324 0.00130016  -0.0120266 -0.0457453 0.00166059  -0.00818443 -0.046154 0.000920475  -0.0121292 -0.0462434 0.00139117  -0.014196 -0.0612533 0.00135285  -0.00981188 -0.0616398 0.000744581  -0.0091902 -0.0558817 0.000957847  -0.0142987 -0.0616613 0.00112975  -0.0134894 -0.0559263 0.00145143  -0.00927615 -0.0563276 0.000801563  -0.0135938 -0.0563709 0.00121456  -0.0155578 -0.0722769 0.00116581  -0.0108604 -0.0726539 0.000638723  -0.0102583 -0.0666904 0.000826359  -0.0156559 -0.0726328 0.000973523  -0.0148839 -0.0666914 0.00125796  -0.0103399 -0.0670819 0.000690222  -0.0149856 -0.0670818 0.0010494  -0.0168514 -0.0837549 0.000996411  -0.0118785 -0.0841213 0.000542581  -0.0112975 -0.0779916 0.000706732  -0.0169415 -0.0840589 0.000830829  -0.0162127 -0.0779515 0.00107938  -0.0113729 -0.0783333 0.000589788  -0.0163074 -0.0782911 0.000900507  -0.0180764 -0.0956098 0.000841379  -0.0128654 -0.0959667 0.000455379  -0.0123069 -0.0897059 0.000597596  -0.0181582 -0.0958677 0.000700474  -0.0174704 -0.0896271 0.000916719  -0.0123762 -0.0899996 0.000498116  -0.0175576 -0.089919 0.000763476  -0.0192345 -0.107769 0.000700474  -0.013822 -0.10812 0.000377774  -0.0132866 -0.101758 0.000500023  -0.0193075 -0.107987 0.000582993  -0.0186641 -0.101644 0.000770032  -0.0133485 -0.102007 0.0004161  -0.018741 -0.101891 0.000640571  -0.0203297 -0.120172 0.000573575  -0.0147414 -0.120514 0.000307202  -0.014231 -0.114079 0.000410914  -0.0203929 -0.120349 0.000476003  -0.0197899 -0.113932 0.000635982  -0.0142865 -0.114289 0.000341952  -0.0198585 -0.114138 0.000528812  -0.0213579 -0.132753 0.000459969  -0.0156267 -0.133089 0.00024575  -0.0151407 -0.126609 0.000332236  -0.0214132 -0.132897 0.000382543  -0.0208504 -0.126432 0.000515819  -0.0151889 -0.12678 0.000276089  -0.0209111 -0.1266 0.000428736  -0.0223279 -0.145464 0.000360608  -0.0164806 -0.145792 0.000189304  -0.0160158 -0.139286 0.000261724  -0.0223753 -0.145576 0.000299156  -0.0218489 -0.139084 0.000408649  -0.0160575 -0.139426 0.000217021  -0.0219009 -0.139222 0.000340164  -0.0232387 -0.158253 0.000272989  -0.0172956 -0.158572 0.000143051  -0.0168564 -0.152064 0.000199258  -0.0232787 -0.158337 0.000225723  -0.0227878 -0.151839 0.000313938  -0.0168939 -0.152173 0.000165641  -0.0228341 -0.151946 0.000261009  -0.0240979 -0.171076 0.000198662  -0.0180809 -0.171389 0.000102699  -0.017664 -0.164893 0.000146925  -0.0241313 -0.171137 0.000164866  -0.0236738 -0.164651 0.000234306  -0.0176926 -0.164977 0.000122368  -0.0237114 -0.164732 0.000194073  -0.0249083 -0.183897 0.000138104  -0.0188344 -0.184207 6.77705e-05  -0.0184388 -0.177737 0.000103116  -0.0249348 -0.183939 0.000113904  -0.024508 -0.177477 0.000166297  -0.0184615 -0.177798 8.36849e-05  -0.024538 -0.177538 0.00013721  -0.0256751 -0.19669 8.59499e-05  -0.0195577 -0.196989 4.29153e-05  -0.0191817 -0.190557 6.61016e-05  -0.0256939 -0.196711 7.13468e-05  -0.0252955 -0.190286 0.000110149  -0.0191991 -0.190601 5.54323e-05  -0.0253193 -0.190328 9.08375e-05  -0.0263972 -0.209417 4.76241e-05  -0.0202537 -0.209716 2.2769e-05  -0.0198944 -0.203331 3.91006e-05  -0.0264139 -0.209428 3.98755e-05  -0.0260403 -0.203049 6.55651e-05  -0.0199099 -0.20336 3.26037e-05  -0.0260594 -0.203077 5.4419e-05  -0.0270851 -0.222069 1.72257e-05  -0.0209248 -0.222365 7.39098e-06  -0.0205784 -0.216031 1.80602e-05  -0.0270996 -0.222071 1.44243e-05  -0.0267451 -0.215741 3.1352e-05  -0.0205905 -0.216049 1.4782e-05  -0.0267606 -0.215758 2.61664e-05  -0.0277424 -0.234624 -8.76188e-06  -0.0215707 -0.234919 -5.54323e-06  -0.0212395 -0.228643 -4.17233e-07  -0.0277553 -0.234622 -6.91414e-06  -0.027415 -0.228347 4.29153e-06  -0.0212498 -0.228653 -2.98023e-07  -0.0274296 -0.228356 3.57628e-06  -0.0283844 -0.247065 -3.51071e-05  -0.0222054 -0.247353 -2.03252e-05  -0.0218782 -0.241142 -1.61529e-05  -0.0283949 -0.247067 -2.87294e-05  -0.0280623 -0.240851 -2.30074e-05  -0.0218894 -0.241149 -1.33514e-05  -0.0280771 -0.240855 -1.72257e-05  -0.000257269 -0.00106645 0.000514567  0 0 0  5.21541e-05 -0.00128672 -1.35899e-05  2.00048e-05 -0.00020358 -1.72257e-05  0 0 0  -0.000242159 -0.00129506 0.000399947  -8.81068e-05 -0.000203222 0.000293314  0 0 0  1.75536e-05 -0.000326484 -1.00732e-05  -8.16956e-05 -0.000329286 0.000223458  -0.000758305 -0.00443673 0.000770807  0.000132084 -0.00483972 -1.00136e-05  0.000105396 -0.00250491 -2.2769e-05  -0.000730678 -0.00485054 0.00062418  -0.000490606 -0.00250944 0.000673056  9.24021e-05 -0.00284296 -1.37091e-05  -0.000464469 -0.00285387 0.000534654  -0.00133422 -0.00946873 0.000827909  0.000177503 -0.0100005 -2.20537e-06  0.000180811 -0.00676677 -1.23978e-05  -0.00132886 -0.0100007 0.000691056  -0.00104266 -0.00676697 0.00081414  0.000161797 -0.00725275 -5.42402e-06  -0.00102279 -0.00725874 0.000671327  -0.00193751 -0.0157939 0.000796914  0.000161111 -0.0163974 -7.15256e-07  0.000205696 -0.0124893 -5.60284e-06  -0.00196084 -0.0163772 0.000672698  -0.00163391 -0.0124744 0.000819385  0.000177741 -0.0130588 5.96046e-08  -0.00164247 -0.0130487 0.000688016  -0.00256455 -0.0232107 0.000731349  7.26581e-05 -0.0238402 -3.69549e-06  0.0001598 -0.0193987 -6.49691e-06  -0.00260836 -0.0237974 0.000618279  -0.00224727 -0.019365 0.000766993  0.000125766 -0.0199939 -1.2517e-06  -0.00228232 -0.0199627 0.000647843  -0.00321728 -0.0315827 0.000653803  -9.01222e-05 -0.0322059 -1.09076e-05  3.97563e-05 -0.0273288 -1.3411e-05  -0.00327212 -0.0321413 0.000551403  -0.00288624 -0.0272734 0.000693679  1.07288e-06 -0.0279117 -6.73532e-06  -0.00293791 -0.0278577 0.000585973  -0.00389713 -0.0407879 0.000574529  -0.000324011 -0.0413918 -1.81794e-05  -0.000155866 -0.0361539 -2.0504e-05  -0.00395709 -0.041303 0.000482738  -0.00355268 -0.0360769 0.00061357  -0.000197709 -0.0367005 -1.41859e-05  -0.00361162 -0.0366231 0.000517011  -0.00460237 -0.050724 0.000498116  -0.000628114 -0.0512988 -2.54512e-05  -0.000426412 -0.0457589 -2.84314e-05  -0.00466287 -0.0511871 0.000418484  -0.00424534 -0.0456582 0.000535369  -0.000468016 -0.0462583 -2.18749e-05  -0.00430751 -0.0461583 0.000449479  -0.00532722 -0.061285 0.000427604  -0.000994921 -0.0618323 -3.01003e-05  -0.000764251 -0.0560423 -3.49283e-05  -0.00538576 -0.0616964 0.00035727  -0.00496185 -0.0559198 0.00046134  -0.000804067 -0.0564906 -2.81334e-05  -0.00502312 -0.0563664 0.000387967  -0.00606835 -0.0723825 0.000362813  -0.0014205 -0.0729009 -3.45707e-05  -0.0011636 -0.0669065 -3.88622e-05  -0.00612438 -0.0727428 0.000302672  -0.00569558 -0.0667605 0.000393867  -0.00120091 -0.0673029 -3.17693e-05  -0.0057528 -0.0671548 0.000329554  -0.00682223 -0.083932 0.000304222  -0.00189447 -0.0844223 -3.3617e-05  -0.00161874 -0.0782615 -4.17233e-05  -0.00687122 -0.0842414 0.000253975  -0.00644362 -0.0780938 0.000332534  -0.00165057 -0.0786082 -3.46899e-05  -0.00649643 -0.0784378 0.000277221  -0.00757992 -0.0958533 0.000253797  -0.00241041 -0.0963194 -3.618e-05  -0.00211859 -0.0900284 -4.29153e-05  -0.00762486 -0.096117 0.000211  -0.00719941 -0.0898387 0.000278413  -0.0021466 -0.0903268 -3.54648e-05  -0.00724721 -0.0901346 0.00023216  -0.00834048 -0.108075 0.000206769  -0.00296378 -0.108517 -3.49879e-05  -0.0026561 -0.102129 -4.22001e-05  -0.0083797 -0.108297 0.000170827  -0.00795937 -0.101919 0.000229239  -0.0026834 -0.102382 -3.59416e-05  -0.00800169 -0.102171 0.000190556  -0.0090977 -0.12053 0.000164747  -0.00354445 -0.120952 -3.42727e-05  -0.00322819 -0.114494 -4.11272e-05  -0.00913203 -0.120715 0.000137627  -0.00871933 -0.114266 0.000184953  -0.00325048 -0.114707 -3.46303e-05  -0.00875568 -0.114477 0.000153661  -0.00984991 -0.133162 0.000130117  -0.0041486 -0.133563 -3.12924e-05  -0.00382495 -0.127061 -3.95775e-05  -0.0098778 -0.133311 0.000108778  -0.00947297 -0.126817 0.000146687  -0.00384402 -0.127237 -3.31402e-05  -0.0095042 -0.126991 0.000120997  -0.0105934 -0.145916 9.98378e-05  -0.00476933 -0.146297 -2.79546e-05  -0.00444162 -0.139774 -3.57032e-05  -0.0106159 -0.146033 8.18968e-05  -0.0102229 -0.139515 0.000113904  -0.00445533 -0.139916 -3.03388e-05  -0.0102481 -0.139656 9.36985e-05  -0.0113235 -0.15874 7.11083e-05  -0.00540257 -0.159104 -2.70009e-05  -0.00507331 -0.152579 -3.26633e-05  -0.0113416 -0.158827 5.93662e-05  -0.0109577 -0.15231 8.41022e-05  -0.00508356 -0.152691 -2.75373e-05  -0.0109799 -0.152421 6.9499e-05  -0.0120404 -0.171594 4.9293e-05  -0.00604248 -0.171941 -2.17557e-05  -0.0057137 -0.165433 -2.88486e-05  -0.0120542 -0.171658 4.03523e-05  -0.0116811 -0.165154 6.01411e-05  -0.00572181 -0.16552 -2.37823e-05  -0.0116999 -0.165239 4.95911e-05  -0.0127447 -0.18444 3.20077e-05  -0.0066843 -0.184774 -1.75834e-05  -0.00635839 -0.178294 -2.33054e-05  -0.0127535 -0.184484 2.55108e-05  -0.0123925 -0.178009 3.99947e-05  -0.00636268 -0.17836 -2.05636e-05  -0.0124066 -0.178071 3.20673e-05  -0.013432 -0.19725 1.72853e-05  -0.00732708 -0.197571 -1.45435e-05  -0.00700283 -0.191133 -1.97887e-05  -0.0134382 -0.197276 1.3411e-05  -0.0130882 -0.190839 2.3365e-05  -0.00700545 -0.191179 -1.65105e-05  -0.0130975 -0.190884 1.93119e-05  -0.0141013 -0.209996 6.79493e-06  -0.00796652 -0.210309 -1.04308e-05  -0.00764346 -0.203918 -1.56164e-05  -0.014107 -0.21001 6.31809e-06  -0.013767 -0.20362 1.18613e-05  -0.00764775 -0.203948 -1.26362e-05  -0.0137742 -0.20365 9.23872e-06  -0.014755 -0.222659 -4.17233e-07  -0.0086019 -0.222965 -7.98702e-06  -0.00828242 -0.216628 -1.19209e-05  -0.0147607 -0.222663 -4.17233e-07  -0.0144277 -0.216327 2.32458e-06  -0.00828576 -0.216646 -1.06692e-05  -0.0144336 -0.216345 2.14577e-06  -0.0153942 -0.235219 -7.27177e-06  -0.00923014 -0.23552 -3.8147e-06  -0.00891614 -0.229244 -6.67572e-06  -0.0153973 -0.235217 -5.126e-06  -0.0150762 -0.228941 -4.11272e-06  -0.00891685 -0.229255 -5.90086e-06  -0.0150797 -0.228953 -3.03984e-06  -0.0160179 -0.247644 -1.45435e-05  -0.00984669 -0.247949 -1.19209e-07  -0.00953913 -0.241741 -3.09944e-06  -0.0160241 -0.247649 -1.03116e-05  -0.0157089 -0.241439 -1.06692e-05  -0.0095408 -0.24175 -1.96695e-06  -0.0157123 -0.241448 -8.10623e-06  0.000375852 -0.00114357 -0.000560045  0 0 0  0.000656202 -0.00153899 -0.000833273  0.000242911 -0.000340104 -0.000635266  0 0 0  0.000347197 -0.00136763 -0.000426173  0.000128202 -0.000247002 -0.000326931  0 0 0  0.000221729 -0.000465095 -0.000474095  0.000116631 -0.000370085 -0.000243306  0.00105447 -0.0045681 -0.000804007  0.00188377 -0.00525188 -0.00126636  0.00132045 -0.00284803 -0.00140035  0.000994414 -0.00497228 -0.000643194  0.000702366 -0.00261551 -0.000715733  0.00123058 -0.00319135 -0.00109708  0.000650421 -0.00295413 -0.000558257  0.0017328 -0.00963205 -0.000840425  0.00321844 -0.0104696 -0.0013712  0.00265515 -0.00720841 -0.00164634  0.00168127 -0.0101562 -0.000691712  0.00140253 -0.00691366 -0.000835121  0.00255862 -0.00770175 -0.00134349  0.001344 -0.00739944 -0.000679314  0.00231588 -0.0159842 -0.000806153  0.00442749 -0.0168727 -0.00133163  0.00390756 -0.0129575 -0.0016402  0.00227731 -0.0165626 -0.000668705  0.00203925 -0.0126505 -0.000828147  0.00384429 -0.0135322 -0.00136167  0.00199455 -0.0132198 -0.000684798  0.00277609 -0.0234289 -0.000748754  0.00545049 -0.0243139 -0.00123972  0.0049969 -0.0198703 -0.00154483  0.0027464 -0.0240123 -0.000623167  0.00256264 -0.0195673 -0.000778973  0.00496185 -0.0204679 -0.00128925  0.00252891 -0.0201625 -0.000647962  0.00310951 -0.0318289 -0.000687003  0.00628686 -0.0326825 -0.00112981  0.0059073 -0.027803 -0.00142026  0.00308573 -0.0323864 -0.000571847  0.00295919 -0.0275061 -0.000717998  0.0058912 -0.0283864 -0.00118589  0.00293231 -0.0280878 -0.000598073  0.00332022 -0.0410689 -0.00062269  0.00694823 -0.0418782 -0.00101876  0.00664496 -0.0366331 -0.00128627  0.00330067 -0.041583 -0.000519097  0.00323099 -0.0363387 -0.000655353  0.00663918 -0.0371812 -0.00107408  0.0032081 -0.0368863 -0.000544786  0.00341487 -0.0510374 -0.000561059  0.00744569 -0.0517985 -0.000908017  0.0072161 -0.0462509 -0.00115407  0.00339818 -0.051502 -0.000466406  0.00338161 -0.0459555 -0.000592709  0.0072158 -0.0467522 -0.00096184  0.00336391 -0.0464565 -0.000492752  0.00340116 -0.0616348 -0.000501037  0.00778878 -0.0623488 -0.000804007  0.00763166 -0.0565491 -0.00102639  0.00338709 -0.0620496 -0.000417233  0.00342226 -0.0562516 -0.000531137  0.00763667 -0.0569989 -0.00085479  0.00340557 -0.0567011 -0.000441432  0.00328887 -0.0727697 -0.00044471  0.00799119 -0.0734356 -0.000705957  0.00790048 -0.0674295 -0.000905812  0.00327718 -0.0731325 -0.000368893  0.00335789 -0.0671287 -0.000473499  0.00790608 -0.0678281 -0.000754058  0.00334406 -0.0675264 -0.00039351  0.00308549 -0.0843537 -0.000390112  0.00806546 -0.0849755 -0.000613689  0.00803423 -0.0788043 -0.000791609  0.00307715 -0.0846674 -0.00032568  0.00320017 -0.0784987 -0.000417471  0.00804436 -0.0791525 -0.000659704  0.00318766 -0.0788455 -0.000347495  0.00280404 -0.0963095 -0.000338733  0.00802112 -0.0968881 -0.000528097  0.00804818 -0.0905873 -0.000685096  0.00279713 -0.0965765 -0.000282407  0.00295591 -0.0902781 -0.000364184  0.00805736 -0.0908881 -0.000570655  0.0029465 -0.0905775 -0.000302672  0.00245166 -0.10856 -0.000290155  0.00787425 -0.109101 -0.000446677  0.00794864 -0.102703 -0.000585258  0.00244844 -0.108785 -0.000242412  0.00263798 -0.10239 -0.000314116  0.00796044 -0.102959 -0.000487506  0.00263155 -0.102645 -0.000261605  0.00204074 -0.121044 -0.000246406  0.00763452 -0.121549 -0.000375867  0.00775492 -0.115083 -0.000493824  0.0020386 -0.121229 -0.000204742  0.00225449 -0.114765 -0.000268877  0.00776565 -0.115296 -0.000411808  0.00224984 -0.114979 -0.000223339  0.00157797 -0.133699 -0.000205219  0.00731409 -0.134169 -0.000307977  0.00747144 -0.127661 -0.000410318  0.00157797 -0.13385 -0.00017029  0.00181687 -0.127341 -0.000224888  0.00748312 -0.127838 -0.000341594  0.00181472 -0.127519 -0.000187814  0.00107169 -0.146469 -0.000166118  0.00692558 -0.146911 -0.000248432  0.00711489 -0.140383 -0.000333607  0.00107265 -0.14659 -0.000138283  0.00133002 -0.140062 -0.00018537  0.00712872 -0.140526 -0.000277936  0.00132918 -0.140205 -0.000154257  0.000532866 -0.159312 -0.000133038  0.00648141 -0.159723 -0.000193357  0.0066967 -0.153194 -0.000265658  0.000534058 -0.159402 -0.000109434  0.000807524 -0.152875 -0.000148654  0.00670934 -0.153309 -0.000220478  0.000806808 -0.152986 -0.000123143  -3.67165e-05 -0.172179 -0.000102699  0.00598645 -0.172566 -0.000147879  0.00622821 -0.166053 -0.000205219  -3.17097e-05 -0.172244 -8.60691e-05  0.000253677 -0.165733 -0.0001176  0.00623941 -0.166141 -0.000170767  0.000253677 -0.16582 -9.77516e-05  -0.000623941 -0.185034 -7.49826e-05  0.00545621 -0.185401 -0.00010705  0.0057137 -0.178919 -0.00015229  -0.000618696 -0.185081 -6.31213e-05  -0.000326395 -0.178598 -8.89897e-05  0.00572515 -0.178983 -0.000126243  -0.000322819 -0.178663 -7.35521e-05  -0.00122499 -0.197852 -5.31077e-05  0.00489521 -0.198199 -7.44462e-05  0.00516939 -0.191758 -0.0001086  -0.00121951 -0.197881 -4.34518e-05  -0.000923395 -0.191438 -6.44326e-05  0.00518012 -0.191805 -8.9705e-05  -0.000916243 -0.191485 -5.32269e-05  -0.00183463 -0.210604 -3.50475e-05  0.00431442 -0.210933 -4.46439e-05  0.00459743 -0.204541 -7.11679e-05  -0.00182867 -0.210617 -2.8491e-05  -0.00152755 -0.204223 -4.32134e-05  0.00460768 -0.204572 -5.73397e-05  -0.00152326 -0.204255 -3.6478e-05  -0.00245142 -0.223267 -1.70469e-05  0.00371647 -0.223587 -2.01464e-05  0.00400734 -0.21725 -3.89218e-05  -0.00244522 -0.223271 -1.508e-05  -0.00214171 -0.216936 -2.5928e-05  0.00401664 -0.217269 -3.31998e-05  -0.00213695 -0.216954 -2.07424e-05  -0.00307012 -0.235829 -2.563e-06  0.0031085 -0.236141 -5.96046e-08  0.00340319 -0.229864 -1.26958e-05  -0.00306296 -0.235828 -3.27826e-06  -0.0027597 -0.229551 -1.07288e-05  0.00341415 -0.229875 -1.2219e-05  -0.00275421 -0.229564 -8.16584e-06  -0.00367904 -0.248256 1.15633e-05  0.00250602 -0.248576 1.91331e-05  0.00279689 -0.242364 1.29342e-05  -0.00367403 -0.248257 1.13845e-05  -0.00337577 -0.242048 5.36442e-06  0.00280452 -0.242373 9.23872e-06  -0.00336814 -0.242059 4.05312e-06  0.001067 -0.00158209 -0.00160557  0 0 0  0.00138327 -0.00223583 -0.00160354  0.00050994 -0.000725627 -0.00122243  0 0 0  0.000995502 -0.00182015 -0.00122511  0.000363693 -0.000492036 -0.000931144  0 0 0  0.000472099 -0.000868678 -0.00091064  0.000333279 -0.000622451 -0.000696063  0.00298756 -0.00526166 -0.00232989  0.00389922 -0.00630844 -0.00245386  0.00273216 -0.00373411 -0.00270492  0.00284499 -0.00569177 -0.0018698  0.00198823 -0.00321287 -0.00206167  0.00256769 -0.00411844 -0.00212026  0.00186029 -0.00357062 -0.00161642  0.0049406 -0.0103959 -0.00246561  0.00656375 -0.0115711 -0.00268382  0.00541466 -0.00826705 -0.00320441  0.00483602 -0.0109408 -0.00203753  0.00398317 -0.00765836 -0.00243652  0.00525394 -0.00879979 -0.00261593  0.0038527 -0.00816524 -0.00198984  0.00669974 -0.0167345 -0.00238127  0.00897038 -0.0179165 -0.00262594  0.00789675 -0.0140045 -0.00322109  0.00664717 -0.0173241 -0.00198424  0.00584832 -0.0134099 -0.00243938  0.00780559 -0.0146071 -0.00267535  0.00577182 -0.0139961 -0.0020265  0.00823128 -0.0241531 -0.0022127  0.0110758 -0.0252956 -0.0024513  0.0100927 -0.0208657 -0.00305092  0.00821483 -0.0247421 -0.00184947  0.00749487 -0.0203039 -0.00230318  0.0100608 -0.0214793 -0.0025472  0.00746167 -0.0209081 -0.00192326  0.0095374 -0.0325335 -0.00201565  0.0128908 -0.0336173 -0.00223345  0.0120137 -0.0287511 -0.00280637  0.00954437 -0.0330939 -0.00168419  0.00891262 -0.0282186 -0.0021162  0.012019 -0.0293424 -0.00234497  0.00890851 -0.0288052 -0.00176853  0.0106294 -0.0417587 -0.00181395  0.0144309 -0.0427768 -0.00200599  0.013668 -0.0375452 -0.0025382  0.0106481 -0.0422766 -0.00151461  0.0101104 -0.0370355 -0.00191516  0.0136935 -0.0380968 -0.00212014  0.0101234 -0.0375851 -0.00159955  0.0115168 -0.0517216 -0.00161606  0.0157149 -0.0526704 -0.0017845  0.0150672 -0.0471342 -0.00227028  0.0115417 -0.0521888 -0.00134754  0.0110992 -0.0466437 -0.00171405  0.0151044 -0.0476365 -0.00189561  0.01112 -0.0471454 -0.00142986  0.0122087 -0.0623164 -0.00142795  0.0167577 -0.0631974 -0.00157332  0.0162237 -0.0574082 -0.002011  0.0122365 -0.062731 -0.00118995  0.0118862 -0.0569347 -0.00152004  0.0162667 -0.0578585 -0.00167739  0.0119133 -0.0573843 -0.00126731  0.0127206 -0.0734509 -0.00124997  0.0175756 -0.0742654 -0.00137484  0.0171497 -0.0682687 -0.00176668  0.0127493 -0.0738142 -0.00104105  0.0124873 -0.0678105 -0.00133783  0.0171945 -0.0686671 -0.00147218  0.0125151 -0.0682083 -0.00111413  0.013063 -0.0850344 -0.00108379  0.0181849 -0.0857868 -0.00118864  0.0178605 -0.0796245 -0.0015375  0.013093 -0.0853485 -0.00090307  0.0129138 -0.0791796 -0.00116575  0.0179058 -0.0799725 -0.00128061  0.0129416 -0.0795276 -0.000970602  0.0132535 -0.0969877 -0.000928879  0.0186036 -0.0976833 -0.00101835  0.0183723 -0.0913898 -0.00132424  0.0132817 -0.0972581 -0.000773609  0.0131779 -0.090958 -0.00100577  0.0184168 -0.09169 -0.00110292  0.0132064 -0.091259 -0.000837207  0.0133046 -0.10924 -0.000786602  0.0188483 -0.109879 -0.000860333  0.0187039 -0.103489 -0.00112653  0.0133346 -0.109465 -0.000654578  0.0132965 -0.103069 -0.000857353  0.0187469 -0.103745 -0.000937998  0.0133245 -0.103326 -0.000713408  0.0132334 -0.121722 -0.000656426  0.0189399 -0.12231 -0.000715256  0.0188717 -0.115853 -0.000943601  0.0132619 -0.121909 -0.00054574  0.0132846 -0.115445 -0.000719786  0.0189124 -0.116067 -0.000785172  0.0133128 -0.115659 -0.000598907  0.0130528 -0.134374 -0.000536621  0.0188929 -0.134915 -0.000583053  0.0188943 -0.128415 -0.000777304  0.0130811 -0.134526 -0.000446558  0.0131574 -0.128019 -0.00059551  0.0189329 -0.128592 -0.000646651  0.0131844 -0.128196 -0.000495076  0.0127795 -0.147142 -0.00042963  0.0187259 -0.14764 -0.000465989  0.0187876 -0.14112 -0.000628531  0.0128059 -0.14726 -0.000357926  0.0129292 -0.140736 -0.000482261  0.018823 -0.141263 -0.000522852  0.0129546 -0.140879 -0.000400901  0.0124259 -0.159978 -0.000336051  0.018455 -0.160437 -0.00036025  0.0185685 -0.153917 -0.000495672  0.0124509 -0.160069 -0.000279307  0.0126128 -0.153542 -0.000381589  0.0186031 -0.15403 -0.00041157  0.0126369 -0.153657 -0.000316918  0.0120041 -0.17284 -0.000251651  0.0180974 -0.173264 -0.000268936  0.0182557 -0.166759 -0.000377178  0.0120275 -0.172906 -0.000209808  0.0122249 -0.166397 -0.000292301  0.0182869 -0.166847 -0.000312448  0.0122478 -0.166483 -0.000243247  0.0115283 -0.18569 -0.000181615  0.0176668 -0.186083 -0.000192463  0.0178623 -0.179611 -0.000276208  0.0115478 -0.185736 -0.000150144  0.0117724 -0.179256 -0.000214458  0.0178907 -0.179675 -0.00022912  0.0117948 -0.179321 -0.000177264  0.0110059 -0.198501 -0.000122547  0.017175 -0.198868 -0.000129282  0.0174041 -0.192433 -0.000192583  0.011025 -0.198529 -0.000101268  0.0112724 -0.19209 -0.000151575  0.0174277 -0.19248 -0.000160158  0.0112917 -0.192136 -0.000125051  0.0104518 -0.211243 -7.33733e-05  0.0166416 -0.21159 -7.7188e-05  0.0168924 -0.205205 -0.000122666  0.0104678 -0.211258 -6.18696e-05  0.0107338 -0.204869 -9.66191e-05  0.0169146 -0.205235 -9.9957e-05  0.0107508 -0.2049 -8.05259e-05  0.00987029 -0.223901 -3.48091e-05  0.0160716 -0.224231 -3.65376e-05  0.0163395 -0.217899 -6.62208e-05  0.00988603 -0.223905 -2.92063e-05  0.0101647 -0.217571 -5.37634e-05  0.0163593 -0.217919 -5.63264e-05  0.010181 -0.217592 -4.36902e-05  0.00927138 -0.23646 -2.98023e-07  0.0154765 -0.23678 -1.37091e-06  0.0157595 -0.230503 -2.2471e-05  0.00928712 -0.23646 -1.2517e-06  0.00957394 -0.230181 -1.65105e-05  0.0157769 -0.230515 -1.93715e-05  0.00958681 -0.230193 -1.48416e-05  0.00867176 -0.248901 3.45707e-05  0.014883 -0.249234 3.23653e-05  0.0151596 -0.243009 1.84774e-05  0.00868797 -0.248904 2.66433e-05  0.00896978 -0.242684 1.68681e-05  0.0151772 -0.243018 1.3411e-05  0.0089848 -0.242694 1.25766e-05  0.00197883 -0.00255567 -0.00257409  0 0 0  0.00245386 -0.00373739 -0.00231069  0.000889435 -0.00162762 -0.00174904  0 0 0  0.0018682 -0.00284821 -0.00196266  0.000669844 -0.00108171 -0.00148451  0 0 0  0.000840858 -0.00181705 -0.00130963  0.000621848 -0.00124562 -0.00110888  0.00534329 -0.00663114 -0.00375134  0.00656953 -0.00815696 -0.00355124  0.00468406 -0.00540423 -0.0038963  0.00513476 -0.00712961 -0.00301164  0.00362104 -0.00444621 -0.00330871  0.00447159 -0.00588125 -0.00306016  0.00342861 -0.00486922 -0.0025959  0.00859103 -0.0117616 -0.00401145  0.0105225 -0.0132889 -0.00392669  0.00879502 -0.00997341 -0.00466454  0.00845084 -0.0123573 -0.00331348  0.00701222 -0.00904131 -0.00394344  0.00859928 -0.0105901 -0.00380987  0.00682932 -0.00961065 -0.00322127  0.0114922 -0.0180201 -0.00390637  0.0140586 -0.0194942 -0.00387424  0.0124439 -0.0155995 -0.00473994  0.0114316 -0.018641 -0.00325555  0.0100838 -0.0147373 -0.00398707  0.0123412 -0.0162524 -0.00393414  0.00998619 -0.015362 -0.00331068  0.0140659 -0.0253637 -0.00364661  0.0172015 -0.0267614 -0.00363445  0.0157099 -0.0223579 -0.00451809  0.0140603 -0.0259703 -0.00304705  0.012819 -0.0215513 -0.00378913  0.0156791 -0.022999 -0.0037688  0.01279 -0.0221779 -0.00316197  0.0163232 -0.0336848 -0.0033251  0.0199643 -0.0349954 -0.00331813  0.0186126 -0.0301579 -0.00416887  0.016353 -0.0342517 -0.00277889  0.0152324 -0.0293983 -0.00349116  0.0186298 -0.0307631 -0.00348222  0.0152476 -0.0299957 -0.00291723  0.0182782 -0.042859 -0.00298977  0.0223607 -0.0440797 -0.00298214  0.0211651 -0.0388796 -0.00377226  0.018325 -0.0433784 -0.002496  0.0173388 -0.0381606 -0.00315905  0.021207 -0.0394357 -0.0031513  0.0173784 -0.038714 -0.00263876  0.0199378 -0.0527773 -0.00265944  0.0244086 -0.0539085 -0.00265104  0.0233698 -0.0484033 -0.00337195  0.0199946 -0.0532448 -0.00221854  0.0191454 -0.0477205 -0.00282371  0.0234256 -0.0489063 -0.00281477  0.0191975 -0.0482237 -0.00235724  0.0213182 -0.0633322 -0.0023455  0.0261256 -0.0643746 -0.00233531  0.0252433 -0.058616 -0.00298423  0.0213788 -0.0637454 -0.00195467  0.0206645 -0.0579693 -0.00250083  0.0253072 -0.0590653 -0.00249052  0.0207214 -0.0584192 -0.00208509  0.0224352 -0.0744279 -0.00204796  0.0275332 -0.0753857 -0.00203758  0.0268011 -0.0694197 -0.00261903  0.0224947 -0.0747896 -0.00170672  0.021909 -0.0688057 -0.00219423  0.0268692 -0.0698162 -0.0021826  0.021969 -0.0692034 -0.00182825  0.0233048 -0.0859751 -0.00177181  0.0286548 -0.086854 -0.00175792  0.0280617 -0.0807204 -0.00227475  0.0233637 -0.086289 -0.00147551  0.0228993 -0.0801387 -0.00190789  0.0281281 -0.0810661 -0.00189483  0.0229586 -0.080485 -0.00158936  0.0239477 -0.0978963 -0.00151402  0.0295087 -0.0986997 -0.0015021  0.0290499 -0.0924355 -0.00195372  0.0240047 -0.0981638 -0.00126106  0.023653 -0.0918832 -0.00164008  0.0291138 -0.0927324 -0.00162762  0.0237116 -0.092182 -0.00136584  0.0243827 -0.110117 -0.00127769  0.0301219 -0.110848 -0.00126523  0.0297836 -0.104485 -0.00165796  0.0244374 -0.11034 -0.00106269  0.0241917 -0.103962 -0.00139421  0.0298446 -0.104739 -0.0013808  0.0242451 -0.104216 -0.00116134  0.0246332 -0.122568 -0.00105995  0.0305164 -0.123232 -0.00104928  0.0302883 -0.1168 -0.00138557  0.0246844 -0.122753 -0.000883341  0.0245329 -0.116305 -0.00116682  0.0303457 -0.117013 -0.00115466  0.0245837 -0.116518 -0.00097096  0.0247171 -0.135189 -0.000864208  0.0307151 -0.135795 -0.000852168  0.030586 -0.129319 -0.00113899  0.0247655 -0.135338 -0.000719726  0.0246958 -0.128849 -0.000959516  0.0306392 -0.129494 -0.000948846  0.0247446 -0.129026 -0.000798047  0.0246556 -0.147929 -0.000687361  0.0307434 -0.148478 -0.000676513  0.0307012 -0.141982 -0.000915587  0.0247002 -0.148046 -0.000572681  0.0247047 -0.141536 -0.000773966  0.0307505 -0.142122 -0.00076288  0.02475 -0.141678 -0.000644088  0.0244675 -0.160738 -0.00053215  0.0306237 -0.161237 -0.000522554  0.0306561 -0.154738 -0.000716865  0.0245082 -0.160827 -0.000442088  0.0245776 -0.154315 -0.000607729  0.0307014 -0.154849 -0.000597  0.0246184 -0.154428 -0.00050503  0.0241721 -0.173574 -0.000396907  0.0303719 -0.174028 -0.000386834  0.0304728 -0.167545 -0.000541925  0.0242083 -0.173638 -0.00033021  0.0243335 -0.167143 -0.000461519  0.0305114 -0.167629 -0.000451684  0.0243707 -0.167229 -0.000383198  0.0237837 -0.186401 -0.000280559  0.030015 -0.186815 -0.00027436  0.0301709 -0.180361 -0.000393093  0.0238175 -0.186445 -0.000233948  0.0239887 -0.179979 -0.000336468  0.0302055 -0.180422 -0.000329018  0.0240231 -0.180043 -0.000280142  0.0233252 -0.199191 -0.000187337  0.0295696 -0.199571 -0.000182509  0.0297697 -0.193155 -0.000269711  0.0233541 -0.199217 -0.000155866  0.0235639 -0.19279 -0.000232458  0.0298018 -0.193197 -0.000225127  0.0235946 -0.192834 -0.000193357  0.022809 -0.211912 -0.000111699  0.029058 -0.212267 -0.000107706  0.0292916 -0.205899 -0.00016892  0.0228357 -0.211927 -9.41157e-05  0.0230744 -0.205549 -0.000147641  0.0293214 -0.205926 -0.000142336  0.0231013 -0.205578 -0.000122547  0.0222507 -0.224555 -5.29289e-05  0.0284975 -0.224889 -5.40614e-05  0.028759 -0.218568 -9.24468e-05  0.0222728 -0.22456 -4.39286e-05  0.0225348 -0.218233 -8.10027e-05  0.0287821 -0.218586 -7.80821e-05  0.0225599 -0.218252 -6.83069e-05  0.0216615 -0.237105 -4.76837e-06  0.0279059 -0.237427 -8.34465e-06  0.0281818 -0.231155 -3.44515e-05  0.0216835 -0.237103 -4.94719e-06  0.02196 -0.230829 -2.85506e-05  0.0282052 -0.231167 -3.02196e-05  0.0219824 -0.23084 -2.42591e-05  0.0210643 -0.249569 4.25577e-05  0.0273025 -0.2499 3.31402e-05  0.0275831 -0.24366 1.51992e-05  0.0210855 -0.24957 3.44515e-05  0.0213635 -0.243335 1.88947e-05  0.027606 -0.243669 1.19209e-05  0.0213835 -0.243344 1.51992e-05  0.00354479 -0.00467557 -0.00348145  0 0 0  0.00494333 -0.00677752 -0.00305122  0.00204645 -0.00400603 -0.00229621  0 0 0  0.0034332 -0.00508869 -0.00267172  0.00120778 -0.00249159 -0.00196737  0 0 0  0.00204112 -0.00425422 -0.0017488  0.00115171 -0.00270796 -0.00149232  0.00849321 -0.00873142 -0.0051018  0.0102594 -0.0106601 -0.00466514  0.00779569 -0.00794637 -0.00512338  0.00827256 -0.00936103 -0.00409651  0.00608073 -0.00660574 -0.00449342  0.00765952 -0.00857687 -0.00402778  0.00588366 -0.00715417 -0.00353134  0.0129388 -0.0136783 -0.00551152  0.01527 -0.0155419 -0.0051744  0.0129822 -0.0122275 -0.00615436  0.0127877 -0.0143536 -0.00454444  0.0107766 -0.0110461 -0.00539708  0.0128018 -0.0129566 -0.00501686  0.010582 -0.011718 -0.00440472  0.0169408 -0.0198059 -0.00540239  0.0198931 -0.0215638 -0.00511587  0.0177565 -0.017689 -0.00626975  0.0168724 -0.0204705 -0.00449425  0.0149911 -0.0165846 -0.00549912  0.0176387 -0.0184055 -0.00519013  0.0148843 -0.0172698 -0.00455922  0.020533 -0.0270441 -0.00505584  0.0240555 -0.0286888 -0.00480503  0.0220887 -0.0243208 -0.00597876  0.0205255 -0.0276694 -0.0042206  0.0187886 -0.0232815 -0.00524765  0.0220339 -0.0249942 -0.00497955  0.0187528 -0.023939 -0.00437438  0.0237237 -0.0352694 -0.00461739  0.0277436 -0.0367976 -0.00438839  0.0259665 -0.0320082 -0.00551569  0.0237527 -0.0358445 -0.00385505  0.02218 -0.031029 -0.00484335  0.0259594 -0.0326269 -0.00460255  0.0221918 -0.0316404 -0.00404364  0.0265179 -0.0443578 -0.00415027  0.0309676 -0.0457723 -0.00394595  0.0293948 -0.0406246 -0.00499189  0.0265663 -0.0448781 -0.00346488  0.0251707 -0.0397009 -0.00438464  0.029413 -0.041182 -0.00416684  0.0252092 -0.0402598 -0.00366157  0.0289245 -0.0541952 -0.00369048  0.0337461 -0.0554971 -0.00350559  0.0323777 -0.0500454 -0.00445968  0.0289834 -0.0546609 -0.00308019  0.0277701 -0.0491785 -0.00391924  0.0324108 -0.0505456 -0.00372475  0.0278239 -0.0496811 -0.00327104  0.0309634 -0.0646703 -0.00325024  0.0361029 -0.0658669 -0.00308603  0.0349334 -0.0601635 -0.00394481  0.0310259 -0.0650824 -0.00271082  0.029989 -0.0593479 -0.00346708  0.0349731 -0.0606067 -0.00329274  0.030051 -0.0597961 -0.00289273  0.0326509 -0.075694 -0.00283545  0.0380646 -0.0767849 -0.00269145  0.0370862 -0.0708724 -0.00345802  0.0327168 -0.0760518 -0.00236487  0.0318503 -0.0701091 -0.00303972  0.0371313 -0.07126 -0.00288659  0.0319134 -0.0705025 -0.00253516  0.0340145 -0.0871724 -0.00244975  0.0396575 -0.0881644 -0.002325  0.0388559 -0.0820842 -0.00300139  0.034078 -0.0874802 -0.00204176  0.0333726 -0.0813699 -0.00263894  0.0389056 -0.0824207 -0.00250453  0.0334355 -0.0817122 -0.00220102  0.0350752 -0.0990259 -0.00208914  0.0409105 -0.0999246 -0.00198108  0.0402762 -0.0937126 -0.00257367  0.0351365 -0.099287 -0.00174272  0.0345808 -0.093046 -0.00226492  0.0403208 -0.0940008 -0.0021494  0.0346434 -0.0933398 -0.00188923  0.0358609 -0.111181 -0.00175858  0.0418515 -0.111994 -0.00166821  0.0413718 -0.105679 -0.00218099  0.0359201 -0.1114 -0.00146598  0.0355026 -0.105059 -0.00192088  0.041417 -0.105924 -0.00182235  0.035561 -0.105309 -0.00160128  0.0363982 -0.12357 -0.00145668  0.0425116 -0.124302 -0.00138068  0.0421727 -0.117916 -0.00182188  0.036453 -0.123751 -0.00121588  0.0361621 -0.117339 -0.00160491  0.0422132 -0.118119 -0.0015223  0.0362152 -0.117547 -0.00133771  0.0367093 -0.136137 -0.00118357  0.0429173 -0.136792 -0.00112063  0.0427017 -0.13036 -0.00149173  0.0367618 -0.136281 -0.000987947  0.0365809 -0.129823 -0.00131613  0.0427426 -0.130526 -0.001248  0.0366353 -0.129994 -0.00109869  0.0368257 -0.14882 -0.000937879  0.0430989 -0.149408 -0.000889421  0.0429982 -0.142953 -0.00119543  0.0368726 -0.148935 -0.000782669  0.0367914 -0.142455 -0.00105703  0.043035 -0.143086 -0.000999868  0.0368421 -0.142592 -0.000881732  0.0367668 -0.16158 -0.000720561  0.0430868 -0.162104 -0.000680864  0.0430806 -0.155645 -0.00093174  0.0368111 -0.161664 -0.000600398  0.0368173 -0.155184 -0.000825524  0.0431151 -0.155748 -0.000780702  0.0368624 -0.15529 -0.000689387  0.0365601 -0.174369 -0.00053364  0.0429003 -0.174835 -0.00050348  0.0429807 -0.16839 -0.000699878  0.0365992 -0.174429 -0.000445783  0.0366821 -0.167961 -0.000622034  0.0430126 -0.168466 -0.000587761  0.0367236 -0.168042 -0.000520229  0.036227 -0.187155 -0.000373721  0.0425751 -0.187572 -0.000352442  0.0427248 -0.181152 -0.00050354  0.0362642 -0.187194 -0.000313342  0.0364084 -0.180755 -0.000450432  0.042753 -0.181207 -0.000425696  0.0364478 -0.180813 -0.000376523  0.0357957 -0.199905 -0.000244319  0.0421329 -0.200285 -0.000230134  0.0423393 -0.193897 -0.000340819  0.0358264 -0.199929 -0.000205934  0.0360236 -0.193525 -0.000305951  0.0423675 -0.193933 -0.000290036  0.0360575 -0.193565 -0.000257313  0.0352843 -0.212598 -0.000144184  0.0416024 -0.212945 -0.000138521  0.0418515 -0.206599 -0.000210047  0.0353119 -0.212609 -0.000123203  0.0355504 -0.206251 -0.000191212  0.0418773 -0.206623 -0.00018096  0.0355766 -0.206275 -0.000161946  0.0347147 -0.225215 -7.04527e-05  0.0410104 -0.225539 -7.1764e-05  0.0412908 -0.219236 -0.000112295  0.0347424 -0.225218 -6.15716e-05  0.0350049 -0.218904 -0.000103295  0.0413115 -0.219249 -0.000100374  0.0350337 -0.218919 -8.94666e-05  0.0341158 -0.237752 -1.40071e-05  0.04039 -0.238068 -1.90735e-05  0.040678 -0.231803 -4.67896e-05  0.0341425 -0.237751 -1.40071e-05  0.0344214 -0.231482 -4.01735e-05  0.0407028 -0.23181 -4.29153e-05  0.0344436 -0.231491 -3.5882e-05  0.0335052 -0.250228 3.71933e-05  0.0397651 -0.250549 2.17557e-05  0.0400562 -0.244304 3.15905e-06  0.0335302 -0.250228 3.01003e-05  0.0338116 -0.243984 1.00136e-05  0.0400798 -0.244311 1.78814e-07  0.0338359 -0.243992 7.03335e-06  -0.00522391 -0.00516581 0.00531965  -0.00291594 -0.00279904 0.00439048  0 0 0  -0.00481456 -0.00278115 0.005952  0 0 0  -0.00285729 -0.00243844 0.00403708  -0.00161013 -0.000641115 0.00343788  0 0 0  -0.00209242 -0.00314512 0.00310475  -0.00382606 -0.00361041 0.00467914  -0.00206063 -0.00140459 0.00379169  0 0 0  -0.000985634 -0.00107592 0.00237453  -0.00128626 -0.00182583 0.00266182  -0.0106362 -0.00817468 0.00725412  -0.00876434 -0.00526881 0.0077945  -0.00904152 -0.006038 0.00724459  -0.00686146 -0.00611177 0.00543338  -0.00551918 -0.00329743 0.00578523  -0.00807309 -0.00646706 0.00656563  -0.00863513 -0.00708491 0.0063141  -0.00707044 -0.00424068 0.00676119  -0.00490651 -0.00414949 0.00491893  -0.00636704 -0.00521939 0.00571734  -0.0154816 -0.0127126 0.0076431  -0.0132562 -0.00908782 0.00869226  -0.0128646 -0.0106764 0.00756061  -0.0104952 -0.0108803 0.00569516  -0.0088715 -0.00733946 0.00642502  -0.0130889 -0.0102825 0.00757122  -0.0128621 -0.0117284 0.00664872  -0.0109499 -0.00816808 0.00751436  -0.00871408 -0.00833309 0.00564742  -0.0107822 -0.00924196 0.00658089  -0.0200404 -0.0185206 0.00737047  -0.0176792 -0.0143673 0.00861037  -0.0166291 -0.016663 0.0072881  -0.0138913 -0.0169007 0.00550401  -0.0121209 -0.0127427 0.00638354  -0.0177988 -0.0154621 0.0075621  -0.0168268 -0.0176496 0.00642651  -0.0147602 -0.0135002 0.00747049  -0.0122152 -0.0137379 0.00563955  -0.0148739 -0.0145363 0.00658393  -0.0243031 -0.0254701 0.00682014  -0.0219513 -0.0208851 0.00808322  -0.0202689 -0.0238141 0.0067575  -0.0171037 -0.0240519 0.00510222  -0.0152958 -0.0194077 0.00602269  -0.0222093 -0.0218611 0.00711787  -0.0205593 -0.0247079 0.0059576  -0.0184683 -0.0200938 0.00704169  -0.0155197 -0.0203422 0.00532025  -0.0187212 -0.0210452 0.00621188  -0.0282633 -0.0334036 0.00616348  -0.0260044 -0.0284583 0.0073818  -0.0237323 -0.0319555 0.00612378  -0.0201346 -0.0321882 0.00461859  -0.018365 -0.0271535 0.00551903  -0.0263227 -0.0293195 0.00649965  -0.0240577 -0.0327506 0.00539201  -0.022027 -0.0277586 0.00644732  -0.0186436 -0.0280037 0.00486773  -0.0223382 -0.0286137 0.00568074  -0.0319188 -0.0421882 0.00548941  -0.0297967 -0.0369378 0.00662112  -0.0269834 -0.0409443 0.00546801  -0.0229753 -0.041175 0.00411975  -0.0212837 -0.0358208 0.00496471  -0.030129 -0.0376944 0.00582701  -0.0273122 -0.0416443 0.00480634  -0.0253849 -0.0363398 0.00579536  -0.021579 -0.0365805 0.0043692  -0.0257158 -0.0370963 0.00509858  -0.0352722 -0.0517141 0.0048371  -0.0333048 -0.0462029 0.00587213  -0.0300011 -0.050662 0.00482988  -0.0256205 -0.0508974 0.00363255  -0.0240303 -0.0452776 0.00440931  -0.0336353 -0.0468632 0.00516242  -0.0303185 -0.051275 0.00423896  -0.0285212 -0.0457067 0.00514495  -0.0243226 -0.0459489 0.00387371  -0.0288461 -0.0463723 0.0045194  -0.0383315 -0.0618826 0.00422943  -0.0365269 -0.0561486 0.00515664  -0.032782 -0.061014 0.0042243  -0.0280677 -0.0612521 0.00317556  -0.0265895 -0.0554126 0.00387645  -0.0368379 -0.0567217 0.00452894  -0.0330803 -0.0615432 0.00370389  -0.0314206 -0.055754 0.00452089  -0.0268679 -0.0559994 0.00340056  -0.0317293 -0.0563329 0.00396639  -0.0411105 -0.072606 0.00365895  -0.0394657 -0.0666831 0.00448847  -0.035331 -0.0719051 0.00365973  -0.0303229 -0.0721506 0.00274915  -0.0289603 -0.0661285 0.00337517  -0.0397558 -0.0671783 0.00393796  -0.0356058 -0.0723593 0.00320637  -0.0340842 -0.0663851 0.00393784  -0.02922 -0.0666369 0.00295746  -0.0343721 -0.0668857 0.00345087  -0.0436195 -0.0838025 0.00313365  -0.0421288 -0.0777276 0.00386584  -0.0376499 -0.0832586 0.00313807  -0.0323889 -0.0835128 0.0023554  -0.0311387 -0.0773414 0.00291193  -0.0423968 -0.078147 0.0033915  -0.0379008 -0.0836419 0.00274801  -0.0365163 -0.0775169 0.00339413  -0.0313792 -0.0777777 0.00254881  -0.0367818 -0.0779451 0.0029729  -0.045874 -0.0954013 0.00265265  -0.044535 -0.0892003 0.00329435  -0.039752 -0.0949987 0.00265825  -0.0342755 -0.0952599 0.00199556  -0.0331349 -0.0889724 0.00248158  -0.0447774 -0.0895546 0.00288945  -0.0399809 -0.0953202 0.00232667  -0.0387262 -0.0890729 0.00289428  -0.0333532 -0.0893411 0.00217122  -0.0389677 -0.0894355 0.00253385  -0.0478915 -0.107328 0.00221568  -0.0466913 -0.101032 0.00276911  -0.0416498 -0.107054 0.00222099  -0.0359927 -0.107323 0.00166613  -0.0349565 -0.100945 0.0020901  -0.0469099 -0.101325 0.00242895  -0.0418572 -0.107317 0.00194371  -0.0407252 -0.100979 0.00243556  -0.0351554 -0.101253 0.00182676  -0.0409437 -0.10128 0.0021314  -0.0496874 -0.11952 0.00181478  -0.0486193 -0.113154 0.00229394  -0.0433592 -0.119363 0.00182498  -0.0375508 -0.119637 0.00136888  -0.0366145 -0.113195 0.0017333  -0.0488147 -0.113393 0.00201339  -0.0435419 -0.119574 0.00159687  -0.0425265 -0.113168 0.00201976  -0.0367901 -0.11345 0.0015142  -0.0427216 -0.113416 0.00176525  -0.0512811 -0.131919 0.00145936  -0.0503349 -0.125504 0.0018636  -0.0448898 -0.131865 0.00146937  -0.0389594 -0.132143 0.00110197  -0.0381171 -0.125663 0.00141037  -0.0505105 -0.125696 0.00163531  -0.0450518 -0.13203 0.00128478  -0.0441437 -0.125583 0.00164294  -0.0382732 -0.125867 0.00123227  -0.0443178 -0.125778 0.00143605  -0.052685 -0.144469 0.00114274  -0.0518527 -0.138031 0.00147593  -0.0462575 -0.144504 0.00115156  -0.0402329 -0.144785 0.000863671  -0.0394729 -0.138289 0.00112236  -0.0520048 -0.138177 0.00129652  -0.0463986 -0.144628 0.00100529  -0.0455921 -0.138158 0.00130606  -0.0396137 -0.138447 0.000979722  -0.045743 -0.138312 0.00114125  -0.0539215 -0.157123 0.000860333  -0.0531902 -0.150677 0.00113773  -0.0474799 -0.157235 0.000873327  -0.0413795 -0.157517 0.000655234  -0.0407014 -0.151018 0.000865817  -0.0533242 -0.150786 0.000999331  -0.0475984 -0.157322 0.000762939  -0.0468848 -0.15085 0.00100923  -0.0408194 -0.151142 0.000756443  -0.047015 -0.150965 0.000880599  -0.0550063 -0.169835 0.000624895  -0.054369 -0.163397 0.000840664  -0.0485663 -0.170011 0.000633359  -0.0424135 -0.170295 0.000476956  -0.0418115 -0.163812 0.000646472  -0.0544813 -0.163471 0.000739038  -0.0486648 -0.170068 0.000553191  -0.0480363 -0.163608 0.000749707  -0.0419095 -0.1639 0.000564039  -0.0481462 -0.163689 0.00065434  -0.0559561 -0.182565 0.000424445  -0.0554016 -0.176152 0.000587225  -0.0495343 -0.182793 0.000432968  -0.0433469 -0.183078 0.00032866  -0.0428088 -0.176626 0.000458717  -0.0554953 -0.176198 0.000518382  -0.0496142 -0.182826 0.000378549  -0.0490618 -0.176393 0.00052917  -0.0428925 -0.176686 0.000399709  -0.0491531 -0.176446 0.000462532  -0.056792 -0.19528 0.000262856  -0.0563173 -0.188902 0.000380397  -0.0504012 -0.195553 0.000273466  -0.0441945 -0.195836 0.000208557  -0.043714 -0.189424 0.000305414  -0.0563848 -0.188925 0.000338197  -0.0504649 -0.195563 0.000239551  -0.0499783 -0.189168 0.000348091  -0.043781 -0.189459 0.000265002  -0.050051 -0.189197 0.000304043  -0.0575356 -0.207956 0.000140786  -0.0571198 -0.201617 0.000219584  -0.0511832 -0.208256 0.000150084  -0.0449657 -0.208541 0.000114858  -0.0445371 -0.202178 0.000181079  -0.0571737 -0.201624 0.000197589  -0.0512311 -0.208254 0.00013262  -0.0508008 -0.201903 0.000208378  -0.044589 -0.202194 0.000159442  -0.0508573 -0.201915 0.000183225  -0.0582094 -0.220567 5.85914e-05  -0.057837 -0.214273 0.000103593  -0.051899 -0.220884 6.22272e-05  -0.0456774 -0.221172 4.69685e-05  -0.0452914 -0.214855 9.14335e-05  -0.0578806 -0.214269 9.7096e-05  -0.0519314 -0.220876 5.66244e-05  -0.0515466 -0.214569 0.000102043  -0.0453267 -0.214865 7.95126e-05  -0.0515885 -0.214572 9.02414e-05  -0.0588396 -0.233109 3.75509e-06  -0.0584941 -0.226849 2.82526e-05  -0.0525615 -0.233425 2.6226e-06  -0.0463462 -0.23372 -4.47035e-06  -0.0459864 -0.227452 2.46763e-05  -0.0585277 -0.226844 3.25441e-05  -0.0525854 -0.233417 4.23193e-06  -0.0522332 -0.227155 3.06368e-05  -0.0460174 -0.227453 2.33054e-05  -0.0522628 -0.227153 2.74777e-05  -0.0594602 -0.245599 -3.96967e-05  -0.0591247 -0.239356 -2.0802e-05  -0.0531991 -0.245906 -5.1558e-05  -0.0469856 -0.246195 -5.23925e-05  -0.0466413 -0.239962 -3.17693e-05  -0.0591493 -0.239356 -1.62721e-05  -0.0532229 -0.245901 -4.45843e-05  -0.05288 -0.239662 -2.5034e-05  -0.0466664 -0.239964 -2.64049e-05  -0.0529037 -0.239663 -2.12789e-05  -0.00285274 -0.00106108 0.00426114  0 0 0  -0.00162263 -0.00121798 0.00274765  -0.000966266 9.9957e-05 0.00230086  0 0 0  -0.00218553 -0.00169955 0.00339931  -0.00125354 -0.000193372 0.00283158  0 0 0  -0.000556219 -0.000329584 0.00161481  -0.000735495 -0.000620574 0.00198549  -0.00563782 -0.00441 0.00521195  -0.00400616 -0.00466906 0.00369138  -0.00320341 -0.00194794 0.00391054  -0.00533511 -0.00529698 0.00457054  -0.00427413 -0.00251752 0.00483608  -0.00280426 -0.00273682 0.00334603  -0.00376795 -0.00332333 0.00413156  -0.0083487 -0.00920293 0.00538719  -0.00638771 -0.00958578 0.00383437  -0.00530568 -0.00602457 0.00430572  -0.00834569 -0.0101667 0.00476867  -0.00699249 -0.0066177 0.00536656  -0.00520658 -0.00695759 0.00381488  -0.00686386 -0.00756854 0.00473523  -0.0110352 -0.0153293 0.0051862  -0.00866979 -0.0157636 0.00368005  -0.00746408 -0.0115647 0.00425482  -0.0111845 -0.0162712 0.00459361  -0.00969747 -0.0120975 0.00531852  -0.00754139 -0.0125226 0.0037815  -0.00978351 -0.0130664 0.00471151  -0.0136599 -0.0226259 0.00481141  -0.0108512 -0.0230664 0.00340307  -0.00960618 -0.0183638 0.00400412  -0.0138832 -0.0235022 0.00425255  -0.0123565 -0.0188302 0.00501275  -0.00977206 -0.0192816 0.0035516  -0.0125514 -0.019754 0.00443703  -0.016192 -0.0309248 0.00436759  -0.0129376 -0.0313504 0.00307786  -0.0116994 -0.0262451 0.0036689  -0.0164446 -0.0317202 0.00384933  -0.0149391 -0.0266479 0.00459349  -0.0119057 -0.0270927 0.00324273  -0.0151814 -0.0274957 0.00405645  -0.0186049 -0.0400762 0.00390172  -0.0149279 -0.0404843 0.00274116  -0.0137251 -0.0350526 0.00330162  -0.0188628 -0.0407872 0.00343186  -0.0174133 -0.0353905 0.00413489  -0.0139433 -0.035817 0.00291073  -0.0176722 -0.0361519 0.00364143  -0.0208823 -0.0499632 0.00344801  -0.0168146 -0.050352 0.00241637  -0.015666 -0.044651 0.00293255  -0.0211333 -0.0505866 0.00302666  -0.0197602 -0.0449246 0.00367248  -0.0158833 -0.0453309 0.00257921  -0.0200178 -0.0455987 0.00322741  -0.0230166 -0.0604733 0.00301766  -0.0185952 -0.0608485 0.0021106  -0.0175108 -0.0549261 0.00257719  -0.0232534 -0.0610183 0.00264502  -0.0219676 -0.0551338 0.00322974  -0.0177196 -0.0555253 0.0022614  -0.022212 -0.055728 0.00283247  -0.0250053 -0.0715216 0.0026145  -0.0202705 -0.0718824 0.00182587  -0.0192529 -0.0657797 0.002244  -0.0252231 -0.0719903 0.00228876  -0.0240295 -0.0659247 0.00281274  -0.0194464 -0.0663009 0.00196481  -0.0242565 -0.0664396 0.002464  -0.0268455 -0.0830216 0.0022434  -0.0218376 -0.0833701 0.00156146  -0.0208901 -0.0771234 0.00193274  -0.0270456 -0.0834195 0.00196159  -0.0259415 -0.0772067 0.00242639  -0.0210673 -0.0775728 0.00169158  -0.0261531 -0.0776506 0.00212288  -0.028546 -0.0948928 0.00190139  -0.0232996 -0.0952345 0.00132322  -0.0224189 -0.0888739 0.00164902  -0.0287257 -0.0952287 0.00166202  -0.027712 -0.0889025 0.00206888  -0.0225816 -0.0892587 0.00144124  -0.0279022 -0.0892797 0.0018084  -0.0301079 -0.107072 0.0015893  -0.0246601 -0.107404 0.00110543  -0.0238457 -0.10096 0.00138712  -0.0302701 -0.107349 0.00138724  -0.0293413 -0.100936 0.00174224  -0.0239933 -0.101283 0.00121105  -0.029514 -0.101253 0.00152177  -0.0315429 -0.119487 0.00130606  -0.0259265 -0.119813 0.00090611  -0.0251734 -0.113313 0.00114918  -0.0316864 -0.119713 0.00114012  -0.0308397 -0.113241 0.00144577  -0.0253042 -0.11358 0.00100374  -0.0309947 -0.113502 0.0012604  -0.0328569 -0.132088 0.00105298  -0.0270977 -0.132403 0.000727952  -0.0264077 -0.125869 0.000934243  -0.0329828 -0.132265 0.000917733  -0.0322119 -0.125755 0.00117576  -0.0265223 -0.126087 0.000815332  -0.0323495 -0.125968 0.00102627  -0.0340562 -0.14481 0.000826478  -0.0281843 -0.145122 0.000571012  -0.0275503 -0.138576 0.000745416  -0.0341668 -0.144948 0.000719726  -0.0334693 -0.138425 0.000936508  -0.0276506 -0.138747 0.000648975  -0.033589 -0.13859 0.000816762  -0.0351553 -0.157612 0.000629663  -0.0291903 -0.157915 0.000435412  -0.028609 -0.151377 0.000575662  -0.0352502 -0.157712 0.000548303  -0.0346167 -0.151193 0.000725389  -0.0286965 -0.151509 0.000500262  -0.0347204 -0.15132 0.00063014  -0.0361612 -0.17045 0.000460625  -0.0301225 -0.170746 0.000317931  -0.0295918 -0.164227 0.000430107  -0.036238 -0.170518 0.000400245  -0.0356677 -0.164017 0.000542283  -0.0296652 -0.164328 0.000374079  -0.0357544 -0.164111 0.000471056  -0.0370786 -0.183282 0.000319362  -0.0309873 -0.183574 0.000218153  -0.0305014 -0.177092 0.000307322  -0.0371428 -0.183326 0.000276148  -0.0366275 -0.176857 0.000387311  -0.0305631 -0.177161 0.000266373  -0.0367005 -0.176923 0.000335276  -0.0379238 -0.19608 0.000203609  -0.0317934 -0.196367 0.000139832  -0.0313501 -0.189927 0.000204802  -0.0379732 -0.196102 0.000176549  -0.0375104 -0.189675 0.000257492  -0.0313966 -0.189974 0.000177681  -0.0375667 -0.189717 0.000223815  -0.0387039 -0.208814 0.000113964  -0.0325444 -0.209101 7.689e-05  -0.0321379 -0.202713 0.000122786  -0.0387414 -0.208822 9.87649e-05  -0.0383198 -0.202445 0.000157833  -0.0321753 -0.202741 0.000106752  -0.0383642 -0.202468 0.000135303  -0.0394251 -0.221465 4.62532e-05  -0.0332501 -0.221754 2.98619e-05  -0.0328741 -0.215421 6.11544e-05  -0.039453 -0.221462 3.97563e-05  -0.039072 -0.215139 7.64132e-05  -0.0329039 -0.215435 5.28693e-05  -0.0391035 -0.215151 6.69956e-05  -0.0400956 -0.234025 -1.07288e-05  -0.0339153 -0.234312 -1.16825e-05  -0.0335634 -0.228039 1.07288e-05  -0.0401204 -0.234018 -7.56979e-06  -0.0397651 -0.227746 1.83582e-05  -0.0335886 -0.228042 9.89437e-06  -0.0397911 -0.227749 1.57356e-05  -0.0407379 -0.246492 -6.84857e-05  -0.0345578 -0.246764 -5.53131e-05  -0.0342116 -0.240555 -3.70741e-05  -0.0407641 -0.246482 -5.82337e-05  -0.040417 -0.24026 -3.55244e-05  -0.034236 -0.240551 -3.21865e-05  -0.0404449 -0.240259 -2.93851e-05  -0.00153518 -0.00029093 0.00254989  0 0 0  -0.000715204 -0.000728279 0.00136477  -0.000441626 0.000376344 0.00113273  0 0 0  -0.00114419 -0.000912845 0.00205809  -0.000691254 0.000276029 0.00170636  0 0 0  -0.000244424 -5.38528e-05 0.00080204  -0.000387926 -0.000153661 0.0012064  -0.00301686 -0.0033572 0.00314319  -0.00178669 -0.00393704 0.00185186  -0.00142853 -0.00130168 0.00194085  -0.00284718 -0.0042212 0.00277692  -0.00227737 -0.00154987 0.00291836  -0.00124057 -0.00208727 0.00167394  -0.00198425 -0.00233635 0.0025124  -0.00457984 -0.00820902 0.00323963  -0.00291786 -0.00886321 0.00192446  -0.00237685 -0.00528598 0.0021472  -0.00459525 -0.00915048 0.00288475  -0.00378442 -0.00557825 0.00322819  -0.00234827 -0.00621405 0.00191605  -0.00372189 -0.00650665 0.0028705  -0.00619745 -0.0144523 0.00310659  -0.00406021 -0.0151363 0.00184089  -0.00342667 -0.0108921 0.00211859  -0.00630748 -0.0153832 0.00276434  -0.00538784 -0.0111601 0.00318933  -0.00349048 -0.0118448 0.00189453  -0.00545752 -0.0121133 0.00284201  -0.00781101 -0.02187 0.00287557  -0.0051949 -0.0225429 0.00169545  -0.00451797 -0.0177914 0.00198865  -0.00796652 -0.022745 0.00255066  -0.00700563 -0.0180151 0.00299835  -0.00462884 -0.0187058 0.00177306  -0.00714362 -0.0189309 0.0026648  -0.00940073 -0.0302869 0.00260806  -0.00632137 -0.0309285 0.00152898  -0.00562644 -0.0257706 0.00181842  -0.00957584 -0.0310874 0.00230443  -0.00860852 -0.0259518 0.00274396  -0.00576043 -0.0266199 0.00161332  -0.0087775 -0.0267991 0.00242978  -0.0109524 -0.0395594 0.00232804  -0.00743806 -0.0401627 0.00135809  -0.00674319 -0.0346743 0.00163209  -0.0111311 -0.0402751 0.00205112  -0.0101815 -0.0348129 0.00246978  -0.00688142 -0.0354448 0.00144309  -0.0103604 -0.0355795 0.00217789  -0.0124552 -0.0495631 0.00205517  -0.008542 -0.0501279 0.00119036  -0.00785249 -0.0443705 0.00144625  -0.0126284 -0.0501977 0.00180477  -0.011709 -0.0444648 0.00219083  -0.00799251 -0.0450572 0.00127405  -0.0118872 -0.0451493 0.00192755  -0.0139011 -0.0601926 0.00179589  -0.00962532 -0.060722 0.00103474  -0.00895488 -0.0547431 0.0012666  -0.014065 -0.0607485 0.00157523  -0.0131843 -0.0547956 0.00192428  -0.00908661 -0.0553508 0.0011124  -0.0133543 -0.0553978 0.00168848  -0.0152836 -0.0713524 0.00155377  -0.0106874 -0.0718499 0.000891626  -0.0100384 -0.0656906 0.00109804  -0.0154343 -0.0718339 0.00135958  -0.0145996 -0.0657012 0.00167346  -0.0101588 -0.0662231 0.000963092  -0.0147575 -0.0662273 0.00146586  -0.0166013 -0.0829609 0.00133002  -0.0117209 -0.0834273 0.000759125  -0.0110945 -0.0771257 0.000942826  -0.0167385 -0.0833715 0.00116289  -0.0159514 -0.0770937 0.00143909  -0.0112059 -0.0775861 0.000823557  -0.0160954 -0.0775494 0.00125843  -0.0178517 -0.0949339 0.00112557  -0.0127225 -0.0953751 0.000638962  -0.0121255 -0.0889634 0.000797749  -0.0179749 -0.0952824 0.000983  -0.0172337 -0.0888941 0.00122631  -0.0122253 -0.0893573 0.000698209  -0.017365 -0.0892824 0.00107074  -0.0190333 -0.107203 0.000939131  -0.0136931 -0.107621 0.000530839  -0.0131232 -0.10113 0.000668645  -0.0191426 -0.107493 0.000820339  -0.0184491 -0.101023 0.00103116  -0.0132115 -0.101463 0.000584424  -0.0185664 -0.101352 0.000899374  -0.0201489 -0.119704 0.00077033  -0.0146297 -0.120098 0.000433087  -0.0140866 -0.113555 0.00055325  -0.0202471 -0.11994 0.000671804  -0.0195969 -0.113416 0.000853062  -0.0141641 -0.113833 0.000481665  -0.0197029 -0.113689 0.000743687  -0.0212011 -0.132375 0.000618458  -0.0155302 -0.132751 0.000346482  -0.0150135 -0.126179 0.000445366  -0.0212878 -0.132564 0.00053972  -0.0206813 -0.126008 0.000693083  -0.0150857 -0.126404 0.000388563  -0.0207747 -0.126231 0.000602782  -0.0221913 -0.145162 0.000484586  -0.0163964 -0.145521 0.000270188  -0.0159068 -0.13894 0.000353456  -0.0222651 -0.145311 0.000421643  -0.0217031 -0.138746 0.000550747  -0.0159681 -0.139122 0.000307024  -0.0217841 -0.138923 0.000479102  -0.0231254 -0.158022 0.000368953  -0.0172276 -0.158363 0.000203907  -0.0167634 -0.151793 0.000269413  -0.0231867 -0.158131 0.000320196  -0.0226641 -0.151576 0.000425935  -0.0168171 -0.151933 0.000235558  -0.0227339 -0.151712 0.000369728  -0.0240059 -0.170903 0.000269771  -0.0180242 -0.171232 0.00014627  -0.017586 -0.164687 0.000200033  -0.024055 -0.170983 0.000233889  -0.0235722 -0.16445 0.000318408  -0.0176301 -0.164794 0.000173092  -0.023628 -0.164553 0.000274956  -0.0248327 -0.183777 0.000187159  -0.0187895 -0.184091 9.86457e-05  -0.018378 -0.177585 0.00014019  -0.0248744 -0.183828 0.000161588  -0.0244248 -0.177333 0.000227571  -0.0184116 -0.177662 0.000121653  -0.0244708 -0.177406 0.000196755  -0.0256162 -0.196606 0.000118017  -0.0195251 -0.19691 6.03795e-05  -0.0191371 -0.190453 9.25064e-05  -0.0256457 -0.196635 0.000102639  -0.0252278 -0.190186 0.0001508  -0.0191607 -0.190506 7.93934e-05  -0.0252638 -0.190237 0.000129521  -0.0263529 -0.209369 6.49691e-05  -0.0202274 -0.209665 3.1054e-05  -0.0198584 -0.203261 5.45979e-05  -0.0263762 -0.209382 5.56707e-05  -0.0259883 -0.202984 9.0003e-05  -0.0198803 -0.203296 4.62532e-05  -0.0260162 -0.203015 7.73072e-05  -0.0270505 -0.222042 2.22921e-05  -0.0209012 -0.222334 9.35793e-06  -0.0205534 -0.215993 2.34842e-05  -0.0270679 -0.222042 1.9908e-05  -0.0267062 -0.215704 4.36306e-05  -0.0205679 -0.21601 2.07424e-05  -0.026727 -0.215721 3.66569e-05  -0.0277085 -0.234617 -1.43647e-05  -0.0215521 -0.234902 -1.0848e-05  -0.0212197 -0.228627 1.19209e-07  -0.0277264 -0.234606 -1.12653e-05  -0.0273831 -0.228333 5.60284e-06  -0.0212305 -0.228631 -2.38419e-07  -0.0274005 -0.228336 4.64916e-06  -0.0283463 -0.247063 -5.47767e-05  -0.0221853 -0.247333 -3.20673e-05  -0.0218558 -0.241142 -2.72989e-05  -0.0283649 -0.247047 -4.44651e-05  -0.0280259 -0.240848 -3.17693e-05  -0.0218697 -0.241134 -2.12789e-05  -0.0280471 -0.240843 -2.74181e-05  -0.000434846 -2.7597e-05 0.000808358  0 0 0  7.06911e-05 -0.000647038 -4.08292e-05  3.3766e-05 0.000412524 -4.45247e-05  0 0 0  -0.000315368 -0.000645787 0.000661194  -0.000202142 0.000417858 0.000540495  0 0 0  2.39909e-05 -1.35899e-05 -2.73585e-05  -0.000107516 -1.06096e-05 0.000386655  -0.000833184 -0.00293839 0.00101578  0.000169426 -0.0038026 -3.20673e-05  0.000142604 -0.00118849 -5.55515e-05  -0.000793561 -0.0038003 0.000911653  -0.00063163 -0.00118542 0.000939488  0.000122532 -0.00196928 -3.618e-05  -0.00054802 -0.0019694 0.000818789  -0.00129348 -0.00778356 0.00105596  0.000231832 -0.00873691 -2.04444e-05  0.000237763 -0.00515312 -4.31538e-05  -0.00132409 -0.00872579 0.000952542  -0.00105166 -0.00514531 0.00105  0.000205725 -0.00607744 -2.39015e-05  -0.00105268 -0.006073 0.000946105  -0.00182426 -0.0140969 0.00101292  0.00023216 -0.015052 -1.67489e-05  0.000287086 -0.0107889 -3.35574e-05  -0.00189373 -0.015025 0.000911832  -0.00155166 -0.0107684 0.00104141  0.000240505 -0.0117385 -1.70469e-05  -0.0016036 -0.0117192 0.000939369  -0.00241041 -0.021589 0.000935435  0.000156045 -0.0225107 -2.0206e-05  0.000258327 -0.0177341 -3.14713e-05  -0.00249934 -0.0224639 0.000837862  -0.00211054 -0.0176964 0.000978112  0.000203073 -0.0186479 -1.63317e-05  -0.00219184 -0.0186108 0.000877857  -0.00304246 -0.0300787 0.000843167  3.57628e-07 -0.030948 -2.65837e-05  0.000148773 -0.0257631 -3.51667e-05  -0.00314063 -0.0308813 0.000750244  -0.00271976 -0.0257076 0.00089097  8.79169e-05 -0.026613 -2.24113e-05  -0.00281531 -0.0265571 0.000795782  -0.0037179 -0.0394249 0.000748754  -0.000234008 -0.0402362 -3.32594e-05  -4.61936e-05 -0.034717 -4.02927e-05  -0.00381738 -0.0401491 0.000662327  -0.00337577 -0.034643 0.000795484  -0.000107706 -0.0354912 -2.98619e-05  -0.00347465 -0.0354145 0.000706792  -0.00442809 -0.049504 0.000653863  -0.000540555 -0.0502564 -3.91006e-05  -0.0003196 -0.0444649 -4.72665e-05  -0.00452232 -0.0501468 0.000576377  -0.00406861 -0.0443709 0.000700116  -0.000377595 -0.0451593 -3.62992e-05  -0.00416636 -0.0450605 0.000618696  -0.00516403 -0.0602103 0.000564337  -0.000913382 -0.0609061 -4.57764e-05  -0.000662565 -0.0548919 -5.27501e-05  -0.005252 -0.0607735 0.000495493  -0.00479341 -0.0547742 0.000608325  -0.000718713 -0.0555065 -4.29749e-05  -0.00488508 -0.0553853 0.000535846  -0.00591993 -0.0714442 0.000481725  -0.00134528 -0.0720887 -4.88758e-05  -0.00107205 -0.0658962 -5.47171e-05  -0.0059998 -0.0719348 0.000422835  -0.00553739 -0.0657558 0.000522137  -0.00112283 -0.0664341 -4.73857e-05  -0.00562429 -0.0662903 0.000457585  -0.00668585 -0.083123 0.000406265  -0.00182748 -0.0837192 -4.98891e-05  -0.00153565 -0.0773842 -5.73397e-05  -0.00675857 -0.0835427 0.000355363  -0.00629818 -0.077222 0.000443339  -0.00158143 -0.077851 -4.92334e-05  -0.00637853 -0.0776853 0.000388682  -0.00745881 -0.0951622 0.000338197  -0.00235271 -0.0957161 -4.99487e-05  -0.00204825 -0.0892734 -5.73397e-05  -0.00752389 -0.0955188 0.00029552  -0.00707066 -0.0890897 0.000371218  -0.00208437 -0.089674 -4.95315e-05  -0.00714087 -0.0894865 0.000324547  -0.00823343 -0.107494 0.000277877  -0.00291383 -0.108008 -4.95911e-05  -0.00259674 -0.101487 -5.6982e-05  -0.00829017 -0.107792 0.000241697  -0.00784457 -0.101284 0.000306964  -0.00262928 -0.101827 -4.95911e-05  -0.00790715 -0.10162 0.0002684  -0.00900555 -0.120047 0.000223875  -0.00350344 -0.120528 -4.76837e-05  -0.00317526 -0.113958 -5.46575e-05  -0.00905597 -0.120293 0.000195026  -0.00861812 -0.113736 0.000249505  -0.00320494 -0.114241 -4.81009e-05  -0.00867391 -0.114016 0.000216901  -0.00977242 -0.132771 0.000174046  -0.00411558 -0.133216 -4.19617e-05  -0.00378239 -0.12662 -5.1856e-05  -0.00981271 -0.132966 0.000151515  -0.00939155 -0.126382 0.000198483  -0.00380731 -0.126852 -4.55976e-05  -0.0094353 -0.12661 0.000172317  -0.0105258 -0.145601 0.000132918  -0.00474346 -0.146018 -3.99351e-05  -0.00441122 -0.139416 -4.66704e-05  -0.0105613 -0.145757 0.000116467  -0.0101497 -0.139163 0.000154138  -0.00442708 -0.139604 -4.20213e-05  -0.010188 -0.139348 0.000133514  -0.0112696 -0.158493 9.83477e-05  -0.00538349 -0.158886 -3.51667e-05  -0.00504756 -0.152296 -4.29749e-05  -0.0112982 -0.158613 8.45194e-05  -0.0108988 -0.152031 0.000115156  -0.00506282 -0.152444 -3.79086e-05  -0.0109305 -0.152176 9.97186e-05  -0.0119989 -0.17141 6.90222e-05  -0.00602841 -0.171777 -3.0756e-05  -0.00569558 -0.165219 -3.69549e-05  -0.0120196 -0.171495 5.82337e-05  -0.0116346 -0.164944 8.15392e-05  -0.00570321 -0.165329 -3.3021e-05  -0.0116608 -0.165052 7.03931e-05  -0.0127106 -0.18431 4.39882e-05  -0.00667596 -0.184655 -2.60472e-05  -0.00634408 -0.178135 -3.15309e-05  -0.0127273 -0.184366 3.78489e-05  -0.0123563 -0.177851 5.61476e-05  -0.00635242 -0.178217 -2.75373e-05  -0.0123742 -0.177931 4.78029e-05  -0.0134082 -0.19716 2.39611e-05  -0.00732422 -0.197489 -2.12193e-05  -0.00699353 -0.191021 -2.72393e-05  -0.0134189 -0.197196 2.05636e-05  -0.0130599 -0.190732 3.32594e-05  -0.00699878 -0.191077 -2.41399e-05  -0.0130751 -0.190786 2.80738e-05  -0.0140829 -0.209941 9.41753e-06  -0.00796628 -0.210255 -1.51992e-05  -0.00764298 -0.203843 -2.06232e-05  -0.0140934 -0.209957 8.04663e-06  -0.0137477 -0.203548 1.75238e-05  -0.00764465 -0.20388 -1.89543e-05  -0.0137575 -0.203584 1.44839e-05  -0.0147462 -0.222632 -8.9407e-07  -0.0086031 -0.222934 -1.12653e-05  -0.00828457 -0.216586 -1.66893e-05  -0.01475 -0.222632 -1.78814e-06  -0.0144186 -0.216286 5.96046e-06  -0.00828576 -0.216604 -1.43051e-05  -0.0144241 -0.216303 2.98023e-06  -0.0153856 -0.235211 -8.76188e-06  -0.00923204 -0.235503 -7.21216e-06  -0.00892091 -0.229228 -9.11951e-06  -0.0153894 -0.235199 -9.11951e-06  -0.0150692 -0.228925 -5.42402e-06  -0.00891972 -0.229232 -7.98702e-06  -0.0150712 -0.22893 -4.52995e-06  -0.0160079 -0.24764 -2.63453e-05  -0.00984979 -0.247922 -1.54972e-06  -0.0095439 -0.24174 -5.66244e-06  -0.0160131 -0.247625 -1.84178e-05  -0.0156987 -0.241438 -1.72257e-05  -0.0095427 -0.241733 -4.47035e-06  -0.0157025 -0.241431 -1.44839e-05  0.000601947 -0.000122666 -0.00093174  0 0 0  0.000853837 -0.000900209 -0.00143629  0.000496514 0.000262856 -0.00121313  0 0 0  0.000456229 -0.000731587 -0.000739813  0.000263676 0.000362039 -0.000626266  0 0 0  0.000288658 -0.000152469 -0.000852287  0.000153221 -5.97239e-05 -0.000439823  0.00121906 -0.00308353 -0.00111783  0.00211915 -0.00421023 -0.00189662  0.00169998 -0.0015502 -0.00203425  0.00113076 -0.00393808 -0.000969172  0.000910327 -0.00130951 -0.00104684  0.00148153 -0.00231564 -0.0017305  0.000791699 -0.00208384 -0.000887811  0.00183159 -0.00796056 -0.00113016  0.00337103 -0.00920016 -0.00194716  0.00284874 -0.00561082 -0.00221235  0.0017851 -0.00889575 -0.000989139  0.00152686 -0.00530881 -0.00113297  0.00275427 -0.00652075 -0.0019455  0.00146565 -0.00622678 -0.00099051  0.00238353 -0.0142947 -0.00107807  0.00450742 -0.0155237 -0.00186008  0.00398913 -0.0112671 -0.00216842  0.00235313 -0.0152197 -0.000942826  0.00212061 -0.0109559 -0.00110656  0.0039582 -0.0122077 -0.00191271  0.00208265 -0.0119013 -0.00096941  0.00283051 -0.0218088 -0.00100207  0.005485 -0.0229817 -0.00172454  0.00502068 -0.0182095 -0.00204146  0.00280547 -0.0226833 -0.000873804  0.00262254 -0.0179057 -0.00104046  0.00501734 -0.019119 -0.00179619  0.00259548 -0.0188174 -0.000909686  0.00315636 -0.0303245 -0.000920057  0.00629479 -0.0314239 -0.00157624  0.00590128 -0.0262371 -0.00187945  0.00313449 -0.0311285 -0.000802755  0.00301009 -0.0259405 -0.000961185  0.00591087 -0.0270857 -0.001652  0.00298506 -0.0267889 -0.000839353  0.00336272 -0.0397002 -0.000835955  0.00694203 -0.0407187 -0.00142157  0.00662071 -0.0351958 -0.00170958  0.00334191 -0.0404258 -0.000730097  0.00327563 -0.0349026 -0.00087738  0.00663859 -0.03597 -0.00149816  0.00325346 -0.0356764 -0.0007658  0.00345159 -0.0498121 -0.00075376  0.00743055 -0.0507534 -0.00127161  0.00718921 -0.044953 -0.00153989  0.00343359 -0.0504585 -0.000656486  0.00341988 -0.0446588 -0.000794113  0.00720614 -0.045649 -0.00134695  0.00340265 -0.045355 -0.000693202  0.00343335 -0.0605511 -0.00067246  0.00777006 -0.0614192 -0.00112778  0.00759673 -0.0553937 -0.00136989  0.00341797 -0.0611209 -0.000587285  0.00345623 -0.0550994 -0.000712276  0.00761867 -0.0560111 -0.00119847  0.00343883 -0.0557141 -0.00062114  0.00331104 -0.0718214 -0.000594914  0.00796807 -0.0726185 -0.00099057  0.007864 -0.0664133 -0.00120926  0.0033015 -0.0723176 -0.000520051  0.00338626 -0.0661141 -0.000633776  0.00788617 -0.0669563 -0.00105691  0.0033716 -0.0666556 -0.00055325  0.0031054 -0.0835346 -0.000522435  0.00804007 -0.0842662 -0.000861764  0.00799906 -0.0779189 -0.00105941  0.00309658 -0.0839596 -0.000456572  0.00322056 -0.0776159 -0.000559509  0.00801933 -0.0783892 -0.000925004  0.00320935 -0.0780846 -0.00048697  0.0028162 -0.0956059 -0.000454426  0.00799465 -0.0962798 -0.000740826  0.00800908 -0.0898249 -0.000917137  0.0028125 -0.0959701 -0.000396073  0.00297081 -0.0895193 -0.000488043  0.00803125 -0.0902293 -0.000800192  0.00296366 -0.0899212 -0.000426471  0.00246012 -0.107968 -0.000389755  0.00784421 -0.108586 -0.000629425  0.00790942 -0.102054 -0.000783563  0.00245833 -0.108273 -0.000339627  0.00264752 -0.101744 -0.000421941  0.00793278 -0.102398 -0.000685096  0.00264323 -0.102086 -0.000367165  0.00204313 -0.120551 -0.000328779  0.00760329 -0.12112 -0.000527918  0.00771201 -0.11454 -0.000661373  0.00204325 -0.120802 -0.000287652  0.00226021 -0.114225 -0.000358641  0.00773585 -0.114826 -0.000576258  0.00225723 -0.114511 -0.000314116  0.00157356 -0.133298 -0.000273049  0.00728166 -0.133818 -0.000433326  0.00743186 -0.127213 -0.000550985  0.00157702 -0.133498 -0.000238299  0.00181484 -0.126895 -0.000301123  0.00745273 -0.127449 -0.000480652  0.00181592 -0.127131 -0.000262916  0.00106549 -0.146149 -0.000224292  0.00689483 -0.146628 -0.000350237  0.00707495 -0.140019 -0.000446379  0.00106978 -0.146308 -0.000196159  0.0013243 -0.139701 -0.000248432  0.00709641 -0.14021 -0.000390112  0.00132859 -0.13989 -0.000216067  0.000524282 -0.159062 -0.000178218  0.0064497 -0.159502 -0.000273466  0.00665522 -0.15291 -0.000355422  0.000528812 -0.159183 -0.000155687  0.000799417 -0.152589 -0.000200391  0.00667953 -0.153059 -0.000310421  0.000803471 -0.152737 -0.000174224  -4.60148e-05 -0.171991 -0.000137925  0.00595856 -0.172399 -0.00020808  0.00618887 -0.165834 -0.00027591  -3.88622e-05 -0.172077 -0.000121415  0.000242949 -0.165515 -0.00015837  0.00620866 -0.165948 -0.000240743  0.000247955 -0.165628 -0.000136614  -0.000634432 -0.184899 -0.000102818  0.00542831 -0.185277 -0.000152051  0.00567937 -0.178757 -0.000205755  -0.00062871 -0.184958 -8.83937e-05  -0.00033617 -0.178437 -0.000119388  0.00569701 -0.178839 -0.000178456  -0.00033164 -0.178519 -0.000103831  -0.00123763 -0.197759 -7.34329e-05  0.00487065 -0.198114 -0.000102758  0.00513577 -0.191644 -0.000145972  -0.00123 -0.197796 -6.27637e-05  -0.000932932 -0.191325 -8.74996e-05  0.00515366 -0.191701 -0.000127196  -0.000926971 -0.191382 -7.58767e-05  -0.00185251 -0.210542 -4.66704e-05  0.00428987 -0.210878 -6.35386e-05  0.0045681 -0.204467 -9.78112e-05  -0.00184035 -0.210562 -3.92795e-05  -0.00154352 -0.204149 -5.8651e-05  0.00458241 -0.204503 -8.44002e-05  -0.0015347 -0.204185 -5.20945e-05  -0.00246644 -0.223237 -2.48551e-05  0.0036943 -0.223553 -2.99811e-05  0.00397825 -0.217206 -5.44786e-05  -0.00245881 -0.223242 -2.01464e-05  -0.00215769 -0.216893 -3.54648e-05  0.00399375 -0.217226 -4.52995e-05  -0.00214887 -0.216911 -2.96235e-05  -0.00308633 -0.235822 -2.14577e-06  0.00308347 -0.236121 2.26498e-06  0.00337434 -0.229843 -1.78218e-05  -0.00307703 -0.235809 -2.74181e-06  -0.002774 -0.229532 -1.38283e-05  0.0033884 -0.22985 -1.43647e-05  -0.00276637 -0.229539 -1.15037e-05  -0.00369811 -0.248251 2.03848e-05  0.00248194 -0.248549 3.22461e-05  0.00276256 -0.242358 1.88351e-05  -0.00368619 -0.248231 1.54376e-05  -0.00339484 -0.242045 7.7486e-06  0.0027802 -0.242354 1.5974e-05  -0.00338292 -0.24204 6.4373e-06  0.00167899 -0.000577211 -0.00264513  0 0 0  0.0017519 -0.00155741 -0.00277871  0.00098975 -0.000128388 -0.00235498  0 0 0  0.00127894 -0.00116819 -0.00211149  0.000732273 0.000106037 -0.00177699  0 0 0  0.000594661 -0.000527561 -0.00165009  0.000430167 -0.000302434 -0.00125122  0.00338179 -0.00379336 -0.00320148  0.00431609 -0.00520533 -0.00367224  0.00344202 -0.00243866 -0.00394166  0.00317186 -0.0046289 -0.00279498  0.00253552 -0.00192189 -0.0029884  0.00303064 -0.00318593 -0.00334781  0.00221896 -0.0026769 -0.00254637  0.00509545 -0.00873137 -0.00327581  0.00679812 -0.0102487 -0.00380272  0.00573766 -0.00666541 -0.00430566  0.00503156 -0.00965208 -0.00288463  0.0042401 -0.00606257 -0.00326902  0.00558057 -0.0075618 -0.00378484  0.00411639 -0.0069645 -0.0028758  0.00672519 -0.0150456 -0.00314099  0.00905502 -0.016535 -0.00366241  0.00797838 -0.0123076 -0.0042541  0.00672996 -0.0159642 -0.00276852  0.00592923 -0.0117204 -0.00322169  0.00795823 -0.0132412 -0.00375235  0.00590536 -0.0126551 -0.00284159  0.00819021 -0.0225329 -0.00292307  0.0110635 -0.0239471 -0.00340867  0.0100443 -0.0192004 -0.00402284  0.00822645 -0.0234035 -0.00257182  0.00748068 -0.0186426 -0.003039  0.0100915 -0.0201067 -0.00354421  0.00750411 -0.01955 -0.00267589  0.00946379 -0.0310283 -0.00267339  0.0128239 -0.0323498 -0.00310856  0.0118994 -0.0271832 -0.00370896  0.00951421 -0.0318311 -0.00234616  0.00885344 -0.0266527 -0.00280088  0.0119755 -0.0280303 -0.00326115  0.00889599 -0.0275006 -0.00245976  0.0105407 -0.0403921 -0.00241196  0.0143372 -0.0416147 -0.00279903  0.0135247 -0.0361071 -0.00336719  0.0105964 -0.0411157 -0.00211364  0.0100282 -0.0355977 -0.00254166  0.013612 -0.0368803 -0.0029543  0.0100806 -0.036372 -0.00222903  0.0114214 -0.0504953 -0.00215399  0.015609 -0.0516235 -0.00249404  0.0149116 -0.0458362 -0.00302029  0.0114785 -0.051142 -0.00188428  0.0110056 -0.0453453 -0.00228149  0.0150031 -0.046531 -0.00264543  0.0110628 -0.0460413 -0.00199801  0.0121126 -0.0612305 -0.00190526  0.0166478 -0.0622669 -0.00220114  0.0160671 -0.0562527 -0.00268066  0.0121696 -0.061802 -0.00166595  0.011791 -0.055778 -0.00202894  0.0161562 -0.0568703 -0.00234556  0.011848 -0.0563965 -0.00177383  0.0126235 -0.0724989 -0.00167  0.0174644 -0.0734484 -0.00192541  0.016992 -0.0672515 -0.00235748  0.0126796 -0.0729958 -0.00145996  0.0123898 -0.0667934 -0.0017873  0.0170823 -0.0677942 -0.00206149  0.0124463 -0.067335 -0.00156194  0.0129688 -0.0842077 -0.0014497  0.0180762 -0.0850765 -0.00166786  0.0177075 -0.0787372 -0.00205421  0.0130236 -0.0846389 -0.00126594  0.0128186 -0.0782919 -0.00155926  0.0177951 -0.0792096 -0.00179565  0.0128725 -0.078764 -0.00136107  0.01316 -0.0962813 -0.00124401  0.0184983 -0.0970736 -0.00142837  0.0182297 -0.0906262 -0.00176913  0.013213 -0.0966474 -0.00108713  0.0130831 -0.0901943 -0.00134617  0.0183092 -0.0910317 -0.00154686  0.0131376 -0.0905994 -0.00117517  0.0132151 -0.108644 -0.00105423  0.0187476 -0.109364 -0.00120741  0.0185633 -0.10284 -0.00150704  0.013267 -0.108951 -0.000919282  0.0132055 -0.10242 -0.00114882  0.0186436 -0.103184 -0.00131613  0.0132567 -0.102764 -0.00100237  0.0131478 -0.121224 -0.000879407  0.018844 -0.12188 -0.00100338  0.0187395 -0.115307 -0.00126439  0.0131968 -0.121477 -0.000767231  0.0131983 -0.1149 -0.000964522  0.0188131 -0.115596 -0.00110352  0.0132467 -0.115188 -0.000841439  0.0129703 -0.13397 -0.000720441  0.0188024 -0.134564 -0.00082016  0.0187721 -0.127966 -0.00104183  0.0130184 -0.134173 -0.000629008  0.0130721 -0.127568 -0.000798881  0.0188389 -0.128203 -0.000909626  0.0131193 -0.127806 -0.00069648  0.0127013 -0.14682 -0.000577867  0.0186422 -0.147359 -0.000655055  0.0186704 -0.140758 -0.000841558  0.0127463 -0.146978 -0.000503004  0.0128478 -0.140371 -0.00064677  0.0187368 -0.140949 -0.00073427  0.0128917 -0.140563 -0.000564098  0.0123522 -0.159727 -0.000452399  0.0183783 -0.160218 -0.00050807  0.0184634 -0.153633 -0.000666678  0.0123951 -0.159847 -0.000393212  0.0125365 -0.153257 -0.000514507  0.0185213 -0.153781 -0.000581324  0.0125799 -0.153407 -0.000447929  0.0119383 -0.172651 -0.000340998  0.018028 -0.173097 -0.000382245  0.0181603 -0.166544 -0.000508189  0.0119758 -0.172738 -0.000295162  0.0121543 -0.166179 -0.000394166  0.0182118 -0.166656 -0.000441849  0.0121942 -0.166291 -0.000343025  0.0114682 -0.185554 -0.000244796  0.0176039 -0.185965 -0.000271738  0.0177765 -0.179453 -0.000373006  0.0115025 -0.185613 -0.000212908  0.0117102 -0.179095 -0.000291407  0.0178232 -0.179532 -0.00032413  0.0117469 -0.179178 -0.000252426  0.0109565 -0.198408 -0.000167727  0.017122 -0.198786 -0.000181496  0.0173318 -0.192324 -0.000260293  0.0109847 -0.198444 -0.000144064  0.0112185 -0.191977 -0.000205636  0.0173712 -0.192379 -0.000225544  0.0112498 -0.192033 -0.000177622  0.0104053 -0.211183 -0.000100911  0.0165939 -0.211536 -0.000109255  0.0168302 -0.205132 -0.000164628  0.0104327 -0.211203 -8.72612e-05  0.0106833 -0.204794 -0.000131726  0.0168631 -0.205168 -0.000144064  0.0107133 -0.20483 -0.000113666  0.00982976 -0.223867 -4.6134e-05  0.0160296 -0.224197 -5.22137e-05  0.0162899 -0.217855 -9.16123e-05  0.00985265 -0.223872 -4.01139e-05  0.0101223 -0.217526 -7.41482e-05  0.0163169 -0.217876 -7.88569e-05  0.0101464 -0.217548 -6.35386e-05  0.00922847 -0.236442 2.98023e-06  0.0154369 -0.236758 1.96695e-06  0.015712 -0.230478 -2.83718e-05  0.00925374 -0.236437 1.19209e-06  0.00953412 -0.230158 -2.27094e-05  0.0157378 -0.230488 -2.5034e-05  0.00955582 -0.230165 -1.93119e-05  0.00862312 -0.248887 5.74589e-05  0.0148392 -0.24921 5.1558e-05  0.0151107 -0.242993 2.95639e-05  0.0086534 -0.248876 4.44651e-05  0.00892568 -0.242674 2.77758e-05  0.0151355 -0.242997 2.47359e-05  0.00895214 -0.242674 2.28286e-05  0.00294666 -0.00153285 -0.00428957  0 0 0  0.00296453 -0.00292027 -0.00398678  0.00157698 -0.000978112 -0.00343108  0 0 0  0.00230782 -0.00211596 -0.00339687  0.0012548 -0.000477076 -0.00286174  0 0 0  0.00101055 -0.00136715 -0.00237119  0.000770926 -0.000866473 -0.00200474  0.0059472 -0.0051201 -0.00517821  0.00710735 -0.00687718 -0.00530916  0.0056821 -0.00400305 -0.0057081  0.0056197 -0.00595337 -0.00450462  0.0044799 -0.00312251 -0.00482416  0.00509234 -0.00478548 -0.00482357  0.00397974 -0.00387365 -0.0040915  0.00879693 -0.0100627 -0.00534666  0.0107999 -0.0118498 -0.00557697  0.0092144 -0.00827742 -0.00631768  0.00871351 -0.0109857 -0.00469846  0.00738674 -0.00741023 -0.00532258  0.00900343 -0.00920606 -0.00551939  0.00720295 -0.00831193 -0.00466228  0.0114801 -0.0163125 -0.00516546  0.0141415 -0.0180487 -0.00542027  0.0125208 -0.0138463 -0.00630009  0.0115149 -0.0172324 -0.00454623  0.0101643 -0.0130208 -0.00528336  0.0125123 -0.0147983 -0.00553471  0.0101496 -0.0139576 -0.00465012  0.0139365 -0.0237362 -0.00482285  0.0171584 -0.0253806 -0.00506234  0.0156019 -0.0206649 -0.00598115  0.0140302 -0.0246068 -0.00423968  0.0127383 -0.0198773 -0.00500655  0.0156901 -0.021579 -0.00525665  0.0128086 -0.0207846 -0.00440544  0.0161382 -0.0321754 -0.00440842  0.0198492 -0.0337131 -0.00462246  0.0184095 -0.0285804 -0.00552064  0.0162573 -0.0329782 -0.00386858  0.0150725 -0.0278276 -0.00462025  0.0185453 -0.0294291 -0.00484878  0.0151795 -0.028674 -0.0040592  0.0180685 -0.0414921 -0.00397307  0.0222093 -0.0429143 -0.00415981  0.0209162 -0.0374395 -0.00500727  0.0181975 -0.042215 -0.00348216  0.0171393 -0.0367212 -0.00419164  0.0210705 -0.0382116 -0.00439203  0.0172631 -0.0374939 -0.00367635  0.0197233 -0.0515527 -0.00354195  0.0242413 -0.0528628 -0.0037027  0.0231075 -0.0471084 -0.00448537  0.0198514 -0.0521979 -0.00310028  0.0189303 -0.0464239 -0.00375742  0.023267 -0.0478007 -0.00392938  0.0190607 -0.0471181 -0.00329006  0.0211059 -0.0622473 -0.00312752  0.0259552 -0.0634491 -0.00326461  0.0249777 -0.057465 -0.00397652  0.0212314 -0.062817 -0.00273466  0.0204496 -0.0568161 -0.00333291  0.0251364 -0.0580802 -0.00348032  0.020576 -0.0574315 -0.00291616  0.0222276 -0.0734791 -0.00273407  0.0273639 -0.0745746 -0.00285029  0.0265449 -0.0684085 -0.00349128  0.0223485 -0.0739748 -0.00239056  0.0216995 -0.0677907 -0.00292856  0.0266956 -0.0689477 -0.00305426  0.0218225 -0.068332 -0.00256091  0.0231065 -0.0851531 -0.0023672  0.0284892 -0.0861504 -0.00246269  0.0278163 -0.0798411 -0.00303483  0.0232211 -0.0855808 -0.00206923  0.0226955 -0.0792536 -0.00254816  0.0279604 -0.0803097 -0.00265384  0.0228149 -0.079725 -0.00222725  0.0237573 -0.0971938 -0.00202405  0.029351 -0.0980971 -0.00210464  0.0288143 -0.091678 -0.002608  0.0238669 -0.097558 -0.00176883  0.02346 -0.0911207 -0.00219405  0.0289514 -0.0920803 -0.00228006  0.023572 -0.0915261 -0.00191683  0.0242038 -0.109522 -0.00170934  0.0299734 -0.110339 -0.00177395  0.0295593 -0.103842 -0.00221515  0.0243083 -0.109827 -0.00149268  0.0240077 -0.103315 -0.0018661  0.0296906 -0.104183 -0.00193572  0.0241123 -0.103658 -0.0016284  0.0244656 -0.122076 -0.00142062  0.0303777 -0.122811 -0.00147015  0.0300816 -0.116263 -0.00185406  0.0245618 -0.122326 -0.00124013  0.0243603 -0.115763 -0.00156176  0.0302019 -0.116548 -0.0016188  0.0244572 -0.116049 -0.00136352  0.0245613 -0.13479 -0.00115883  0.030586 -0.135449 -0.00119632  0.0303931 -0.12888 -0.0015229  0.0246514 -0.13499 -0.00101167  0.0245348 -0.128404 -0.00128675  0.0305039 -0.129112 -0.00133073  0.0246265 -0.128639 -0.0011223  0.0245123 -0.147611 -0.000921965  0.0306249 -0.148204 -0.000949979  0.0305228 -0.141629 -0.00122422  0.0245938 -0.147768 -0.000805199  0.0245534 -0.141178 -0.00103837  0.0306259 -0.141813 -0.00107074  0.0246409 -0.141366 -0.000904918  0.0243368 -0.160493 -0.000715792  0.0305138 -0.161025 -0.000732422  0.0304933 -0.154463 -0.00096029  0.0244117 -0.160611 -0.000622213  0.0244391 -0.154036 -0.000816524  0.0305865 -0.154607 -0.000837445  0.0245173 -0.154182 -0.000711441  0.0240562 -0.17339 -0.000535071  0.0302756 -0.17387 -0.000541866  0.0303278 -0.167337 -0.00072819  0.0241232 -0.173476 -0.000464857  0.0242095 -0.16693 -0.000621319  0.0304079 -0.167445 -0.000635505  0.0242796 -0.167041 -0.000540555  0.0236869 -0.186273 -0.000380576  0.0299304 -0.186703 -0.000382006  0.030046 -0.180213 -0.000526726  0.0237439 -0.186328 -0.000329912  0.0238838 -0.179828 -0.00045377  0.0301147 -0.180288 -0.000459313  0.0239439 -0.179904 -0.000393927  0.0232418 -0.199103 -0.000253022  0.0294974 -0.199495 -0.000251591  0.0296636 -0.193054 -0.000360608  0.0232897 -0.199136 -0.000219822  0.0234728 -0.192684 -0.00031358  0.0297241 -0.193103 -0.00031358  0.0235257 -0.192736 -0.000272334  0.0227406 -0.211862 -0.000151813  0.0289955 -0.212219 -0.000148952  0.0292056 -0.205836 -0.000225246  0.0227799 -0.211874 -0.000131428  0.0229986 -0.20548 -0.00019896  0.029254 -0.205866 -0.000197053  0.0230424 -0.205514 -0.000172019  0.0221927 -0.224525 -7.23004e-05  0.0284438 -0.224858 -6.93798e-05  0.0286894 -0.218532 -0.000121415  0.0222242 -0.224527 -6.13332e-05  0.0224721 -0.218191 -0.000109732  0.0287254 -0.218547 -0.000106692  0.0225084 -0.218209 -9.48906e-05  0.0216086 -0.237083 -2.80142e-06  0.0278533 -0.237405 -8.9407e-06  0.0281231 -0.231133 -4.02927e-05  0.0216374 -0.237082 -5.126e-06  0.0219045 -0.230804 -3.80278e-05  0.028151 -0.231141 -3.86238e-05  0.0219338 -0.230813 -3.26037e-05  0.0210032 -0.24955 6.7234e-05  0.0272503 -0.249879 5.13196e-05  0.0275254 -0.24364 2.20537e-05  0.0210388 -0.249545 5.46575e-05  0.0213065 -0.243315 2.8491e-05  0.0275526 -0.243648 1.80006e-05  0.0213375 -0.243322 2.38419e-05  0.0047932 -0.00338972 -0.00585514  0 0 0  0.0052601 -0.00568765 -0.00513572  0.00276761 -0.00312257 -0.00435126  0 0 0  0.00390297 -0.00412756 -0.00457239  0.00197858 -0.00176388 -0.00376201  0 0 0  0.00207212 -0.0034644 -0.00305802  0.00129829 -0.00214589 -0.00263554  0.00923651 -0.00699556 -0.00707769  0.0107401 -0.00910532 -0.00699198  0.00881626 -0.00616693 -0.00755554  0.00881994 -0.00794196 -0.00612682  0.007167 -0.00504738 -0.0066191  0.00815687 -0.00721365 -0.00633502  0.00650856 -0.00592422 -0.00556004  0.0131699 -0.0118577 -0.00740403  0.0155653 -0.0139483 -0.00739515  0.0134216 -0.0102986 -0.00842291  0.0130769 -0.0128383 -0.00647354  0.0112181 -0.00924593 -0.00734121  0.0131924 -0.0113696 -0.0073052  0.0109927 -0.010231 -0.00639242  0.0168976 -0.0180374 -0.00717819  0.0200164 -0.0200366 -0.0071888  0.0178456 -0.0158196 -0.00839621  0.0169626 -0.0189836 -0.0062992  0.015069 -0.014779 -0.00733382  0.0178421 -0.0168375 -0.00734317  0.0150651 -0.0157578 -0.00643021  0.0203437 -0.0253869 -0.00670564  0.0240562 -0.0272715 -0.00670671  0.0219791 -0.0225744 -0.00795114  0.0204858 -0.0262678 -0.0058859  0.0186592 -0.0215638 -0.00696129  0.0220885 -0.0235164 -0.00697041  0.0187703 -0.0224893 -0.00611132  0.023463 -0.0337552 -0.00612628  0.0276702 -0.0355081 -0.00611848  0.0257559 -0.0304167 -0.00732011  0.0236394 -0.0345572 -0.00537455  0.021947 -0.029443 -0.00642347  0.0259178 -0.031271 -0.00642169  0.02211 -0.0302942 -0.00563675  0.0262262 -0.0429921 -0.00551575  0.0308555 -0.0446119 -0.00549895  0.0291293 -0.0391871 -0.00662637  0.0264146 -0.0437141 -0.00483382  0.0248915 -0.0382615 -0.00582248  0.0293161 -0.0399557 -0.00581121  0.0250748 -0.0390322 -0.00510472  0.0286261 -0.0529767 -0.00491166  0.0336157 -0.0544636 -0.00488979  0.0320966 -0.048764 -0.00592667  0.0288152 -0.0536177 -0.0043003  0.027474 -0.0478871 -0.00521177  0.0322881 -0.0494488 -0.00519323  0.0276613 -0.0485774 -0.00456506  0.0306689 -0.0635992 -0.00432992  0.0359653 -0.0649559 -0.00430596  0.0346555 -0.0590294 -0.00524497  0.0308515 -0.0641606 -0.00378954  0.0296946 -0.0582045 -0.00461686  0.0348383 -0.0596339 -0.00459468  0.0298783 -0.0588145 -0.00404131  0.0323666 -0.0747567 -0.00377941  0.0379225 -0.0759896 -0.00375342  0.0368104 -0.0698786 -0.00459802  0.0325422 -0.0752459 -0.00330663  0.0315599 -0.0691028 -0.00405127  0.0369904 -0.070408 -0.00402761  0.0317395 -0.0696405 -0.00354475  0.0337437 -0.0863611 -0.00326455  0.0395172 -0.0874788 -0.00324124  0.0385907 -0.0812246 -0.00398946  0.0339088 -0.0867835 -0.00285578  0.0330958 -0.0804991 -0.00351888  0.0387628 -0.0816811 -0.0034951  0.0332654 -0.0809627 -0.0030784  0.0348181 -0.0983331 -0.00278765  0.040776 -0.0993394 -0.00276351  0.0400236 -0.0929724 -0.00342363  0.0349754 -0.0986908 -0.00243872  0.0343192 -0.0922939 -0.00302166  0.0401872 -0.0933656 -0.00299841  0.0344776 -0.092694 -0.00264275  0.0356231 -0.110598 -0.0023495  0.041723 -0.111501 -0.00232607  0.0411392 -0.105057 -0.00289935  0.035769 -0.110896 -0.00205433  0.0352554 -0.104423 -0.00256413  0.0412873 -0.105385 -0.00254017  0.0354052 -0.10476 -0.00224102  0.0361733 -0.123089 -0.00194407  0.0423902 -0.123896 -0.00191963  0.0419477 -0.117395 -0.00242019  0.0363108 -0.123334 -0.00170034  0.0359281 -0.116807 -0.00214267  0.0420915 -0.11767 -0.00212127  0.0360698 -0.117088 -0.00187373  0.0365031 -0.135747 -0.00157833  0.0428064 -0.136462 -0.00155634  0.0424974 -0.129937 -0.00198013  0.03663 -0.135941 -0.00138003  0.0363671 -0.129391 -0.00175768  0.0426284 -0.13016 -0.00173467  0.0364964 -0.129619 -0.00153524  0.0366356 -0.148515 -0.00125057  0.0429962 -0.149149 -0.00122833  0.0428092 -0.142618 -0.00158262  0.0367515 -0.148666 -0.00109303  0.0365947 -0.142109 -0.00141114  0.0429275 -0.142793 -0.00139046  0.0367128 -0.14229 -0.00123334  0.0365944 -0.161347 -0.000959873  0.0429912 -0.161907 -0.000943303  0.0429096 -0.155386 -0.00122929  0.0366995 -0.161458 -0.000839114  0.0366373 -0.154913 -0.00110149  0.0430148 -0.15552 -0.00107986  0.036746 -0.155054 -0.000962913  0.0364115 -0.174197 -0.000708699  0.0428157 -0.174697 -0.000688672  0.0428259 -0.168203 -0.000923455  0.0365007 -0.174277 -0.000621021  0.0365193 -0.167763 -0.00083077  0.042923 -0.168297 -0.000813067  0.0366173 -0.167864 -0.000725269  0.0360997 -0.187038 -0.000498831  0.0424991 -0.187475 -0.000478625  0.042588 -0.18102 -0.000661552  0.0361774 -0.187086 -0.000435948  0.0362685 -0.180612 -0.000599504  0.0426736 -0.181087 -0.000582159  0.0363524 -0.180684 -0.000523686  0.0356872 -0.199836 -0.000323951  0.0420666 -0.200222 -0.000308096  0.0422251 -0.193816 -0.000436842  0.0357506 -0.199858 -0.000283778  0.0359058 -0.193431 -0.00040561  0.0422974 -0.193855 -0.000388622  0.0359752 -0.193477 -0.000355542  0.0351961 -0.212557 -0.000186086  0.0415416 -0.212906 -0.000174522  0.0417578 -0.206554 -0.00026381  0.0352468 -0.212564 -0.000165164  0.0354524 -0.206195 -0.000251353  0.0418141 -0.206572 -0.000237882  0.0355091 -0.206219 -0.000219941  0.0346467 -0.225192 -8.55327e-05  0.0409544 -0.225517 -7.84397e-05  0.0412128 -0.219214 -0.000133395  0.0346849 -0.225189 -7.77841e-05  0.0349281 -0.218874 -0.000133574  0.0412557 -0.21922 -0.000123739  0.0349715 -0.218885 -0.000117838  0.0340567 -0.237734 -1.24574e-05  0.0403376 -0.238049 -1.51992e-05  0.0406137 -0.231786 -4.72665e-05  0.0340884 -0.237728 -1.43051e-05  0.0343595 -0.231462 -4.98295e-05  0.0406466 -0.231789 -4.64916e-05  0.0343902 -0.231467 -4.46439e-05  0.0334456 -0.250207 4.94719e-05  0.0397108 -0.250527 3.65973e-05  0.0399919 -0.244283 1.07288e-05  0.0334771 -0.250206 4.50611e-05  0.0337527 -0.243962 1.63317e-05  0.0400233 -0.24429 7.51019e-06  0.0337832 -0.243971 1.19209e-05  
SCALARS smooth_stress float 1
LOOKUP_TABLE default
75.5475 152.462 128.618 106.612 114.804 107.826 111.31 119.725 100.237 90.4002 88.0678 91.3317 105.124 100.994 94.061 91.2141 100.701 103.902 92.5887 92.8102 85.1195 80.1765 70.9943 76.753 47.0338 123.165 261.392 251.065 216.66 223.592 226.653 234.012 231.248 197.782 182.087 187.869 188.374 197.186 197.549 173.099 167.767 183.577 181.11 168.043 159.953 148.65 155.325 154.506 153.436 79.0077 97.1263 208.186 221.631 211.723 209.008 217.562 218.2 215.018 211.657 212.389 209.805 183.98 183.47 183.075 159.117 160.061 164.232 154.221 161.867 174.573 154.973 145.328 156.135 151.439 70.3333 91.903 198.168 198.892 197.397 206.941 219.111 206.291 193.64 204.376 215.516 205.869 186.454 182.434 174.487 182.01 171.923 156.868 164.57 161.683 173.306 174.007 152.264 159.611 168.254 84.2027 77.9254 176.625 198.261 206.838 202.283 215.403 213.499 168.741 164.786 188.569 214.873 226.881 192.773 180.982 187.931 174.252 162.194 166.166 165.49 166.009 184.705 177.439 161.655 160.591 82.1232 75.9596 172.566 200.382 214.111 206.882 204.849 186.138 151.581 162.652 174.971 204.357 218.941 182.999 181.313 179.015 169.888 181.9 172.444 176.092 182.419 175.48 171.152 164.726 153.995 71.6474 106.383 228.233 231.847 227.191 225.645 218.093 188.743 173.911 187.912 173.94 182.29 200.407 178.077 190.718 209.646 183.013 187.864 189.05 167.544 162.524 157.856 150.925 172.608 174.86 76.4511 118.829 247.264 258.615 256.051 246.491 232.466 216.454 206.851 208.321 201.188 193.594 220.786 217.485 223.957 222.653 182.875 190.264 179.07 146.849 166.239 172.892 146.608 156.669 176.493 90.7313 52.8744 113.884 128.598 131.854 132.165 124.196 111.143 105.924 108.538 108.464 96.6528 111.955 120.661 121.536 106.024 83.9139 97.6181 83.8538 65.1776 86.001 88.3765 71.4796 74.1194 88.5342 49.6477 139.964 283.581 258.071 225.787 241.512 246.513 229.369 224.25 216.502 201.48 189.228 201.129 207.945 201.539 197.125 184.73 196.941 188.685 171.666 178.492 167.908 163.469 161.029 170.678 93.0725 248.395 528.166 505.297 451.088 463.612 470.15 462.349 438.964 426.871 409.116 393.013 386.046 380.98 388.154 370.001 342.79 369.929 367.41 340.649 335.851 311.731 323.208 321.28 321.41 168.246 214.155 447.914 452.93 431.383 421.647 444.926 442.238 409.529 415.202 410.962 391.318 359.746 373.393 377.105 339.023 330.78 342.117 341.087 349.697 363.923 332.867 308.469 308.028 302.623 145.834 188.97 399.631 399.537 384.664 397.075 444.191 433.838 391.634 387.111 402.647 403.804 372.317 379.807 382.249 367.646 354.151 334.067 331.988 336.553 353.675 347.276 301.97 313.482 321.699 151.649 160.967 363.482 388.061 378.235 378.36 403.512 422.678 373.365 345.887 393.225 421.882 402.556 371.748 367.784 372.553 367.337 339.837 334.638 332.719 333.219 359.029 343.595 339.901 337.36 164.686 162.548 353.516 398.356 409.739 389.026 400.477 406.771 360.601 342.017 360.349 386.662 389.957 351.93 344.034 344.1 349.947 356.228 348.384 338.231 332.115 348.21 351.108 356.993 333.263 152.418 204.281 428.026 438.505 440.592 441.607 455.311 437.933 391.109 381.339 355.534 373.299 393.915 360.092 379.029 391.936 354.068 363.506 368.202 333.693 317.723 311.596 317.826 353.167 336.93 147.309 231.449 481.289 504.232 499.697 477.671 471.938 461.885 426.403 430.815 407.03 376.354 407.192 402.265 405.72 418.637 376.596 368.434 359.208 330.125 345.404 336.581 318.513 328.717 335.184 167.008 111.995 239.599 269.856 269.192 244.258 236.494 232.625 219.348 227.884 217.942 184.106 198.166 201.803 194.701 199.748 186.568 186.257 174.377 157.784 173.687 172.398 161.441 158.347 163.965 88.4204 128.597 266.332 263.638 256.652 269.587 268.62 233.935 213.702 238.649 234.72 199.308 205.435 209.667 203.348 203.99 176.239 180.266 168.346 155.517 160.709 150.486 160.43 164.79 160.829 76.9334 242.53 508.007 511.098 494.174 495.921 491.683 460.258 429.065 460.389 456.202 399.327 392.733 399.531 396.374 381.345 330.483 341.504 337.971 323.724 333.107 315.593 341.16 328.636 303.708 154.812 215.561 450.331 473.395 464.139 447.049 463.538 433.681 390.26 409.349 393.625 358.505 365.856 390.163 379.672 343.01 336.009 347.242 337.923 327.598 339.478 366.633 370.214 345.327 306.596 140.129 188.406 401.76 417.78 396.204 396.237 444.067 419.4 377.512 379.198 387.941 404.678 396.08 384.963 370.05 350.172 359.183 353.906 331.771 329.775 334.965 358.718 333.745 331.345 308.296 126.997 166.228 372.835 384.95 356.564 371.411 399.234 402.087 392.897 368.638 397.271 417.599 371.97 366.555 357.388 339.225 339.82 328.204 325.56 321.424 325.304 334.929 308.092 323.967 335.365 157.084 168.264 380.834 422.756 399.244 388.459 400.375 411.019 409.092 360.93 351.184 362.367 335.32 351.993 349.102 310.952 314.842 335.646 343.694 315.455 302.683 322.802 321.399 343.636 362.29 175.782 187.136 404.006 442.881 434.281 429.673 444.309 447.467 429.938 393.375 362.313 379.786 383.953 373.163 391.095 350.927 323.579 359.893 368.095 347.765 326.177 305.869 299.126 323.51 326.627 152.054 219.165 455.49 477.35 484.859 485.117 471.299 455.163 453.44 449.928 403.531 378.652 396.524 385.825 368.76 375.507 372.35 353.051 351.407 356.128 342.089 310.791 300.501 313.91 302.603 142.265 120.843 252.589 264.121 262.845 248.015 231.722 228.671 242.311 240.433 210.93 189.826 193.442 182.764 152.783 180.825 201.211 168.501 164.92 172.778 161.174 149.987 158.944 159.934 147.479 73.655 129.954 265.819 260.983 270.028 282.295 268.89 236.514 214.005 222.651 219.936 199.757 198.921 212.251 198.663 191.18 171.045 159.816 173.963 175.8 155.282 144.811 157.526 145.802 126.894 59.16 231.094 485.835 519.067 512.067 501.233 494.746 458.14 444.346 441.46 417.166 389.635 380.769 397.819 381.712 347.308 327.951 324.898 326.578 323.963 313.692 325.827 331.618 307.945 276.466 124.556 182.905 431.343 519.941 486.314 446.552 449.23 410.636 409.687 421.651 390.273 365.766 383.589 380.556 347.639 319.851 345.856 364.522 319.176 285.668 313.462 368.782 357.026 339.769 299.53 126.525 158.369 387.249 452.31 410.602 398.001 431.877 392.545 359.995 392.808 400.032 390.897 402.462 366.749 324.851 336.17 359.565 354.544 318.131 310.271 328.37 341.968 325.772 330.163 299.392 123.503 150.974 348.349 392.725 367.695 362.721 405.405 391.939 354.955 351.192 375.655 395.463 365.802 352.103 327.294 300.435 297.274 302.687 294.966 312.996 331.277 305.696 279.793 297.356 307.53 139.708 155.972 368.179 435.253 405.86 380.081 395.636 379.395 360.898 342.613 343.135 353.706 340.676 380.896 344.082 265.467 267.141 312.13 318.844 303.1 306.607 295.475 274.338 274.714 320.895 167.49 184.668 410.785 474.857 440.528 424.517 438.049 400.493 389.994 399.453 373.902 356.136 380.716 391.548 356.256 301.576 302.864 347.878 354.897 342.364 322.91 296.316 260.362 258.791 310.794 163.457 242.846 480.432 498.729 501.848 500.86 485.609 430.091 432.847 439.01 402.385 391.634 411.049 388.25 344.585 323.404 343.135 364.507 352.849 342.912 317.459 287 264.066 274.153 283.965 136.836 139.78 265.4 256.853 265.813 264.09 246.295 220.589 229.445 220.944 202.952 208.748 205.928 197.256 165.378 159.307 180.753 181.176 173.4 163.417 143.198 134.666 141.087 145.258 135.97 63.536 131.493 273.616 274.455 276.932 273.741 256.473 228.606 216.283 222.321 201.531 193.089 205.628 190.461 169.7 199.461 194.96 153.027 181.026 186.153 159.199 174.464 174.721 148.353 131.042 65.4869 230.762 485.019 504.719 506.183 514.698 487.923 431.779 437.123 435.826 392.686 380.133 379.89 359.192 335.089 354.894 358.777 338.263 363.847 342.934 313.691 344.828 311.35 282.149 275.952 127.352 182.057 415.271 477.05 464.877 450.132 427.528 407.047 431.081 413.007 373.447 363.392 369.115 356.157 357.841 355.234 349.119 367.761 346.619 292.677 293.056 341.496 320.26 287.619 283.988 138.574 158.733 386.166 433.182 399.073 386.553 399.78 415.421 400.734 389.495 364.642 342.516 354.676 350.124 365.231 375.729 372.195 349.304 313.608 301.816 313.79 337.257 336.932 310.816 284.026 139.909 161.269 352.261 380.536 361.084 340.487 373.633 393.426 361.638 342.701 348.245 360.835 336.725 332.227 342.201 321.728 322.949 311.578 298.613 320.898 336.147 317.663 290.619 300.346 302.139 142.56 167.247 361.632 412.22 400.039 355.412 373.78 384.268 353.109 341.558 364.957 373.564 361.622 383.553 359.843 304.512 283.704 293.836 310.112 306.883 306.671 309.872 296.672 287.361 303.054 154.91 189.747 412.41 469.629 441.666 427.054 451.065 425.954 387.578 384.859 379.255 364.745 400.141 410.045 359.493 337.977 343.909 350.875 351.136 329.938 309.741 301.977 297.551 275.885 289.193 154.453 241.577 483.127 520.61 523.884 501.393 501.229 468.024 426.937 410.494 390.432 392.792 401.177 365.452 350.777 355.802 373.302 405.595 386.255 336.787 303.819 283.759 295.475 303.906 287.594 137.815 133.753 262.386 269.059 284.619 266.643 254.014 244.459 221.323 214.486 210.239 206.943 185.756 169.431 181.706 176.536 177.041 203.758 196.427 158.754 139.827 140.116 157.278 172.029 144.263 58.9129 141.418 286.873 288.01 275.925 262.386 251.78 233.568 229.389 241.022 216.305 181.39 178.786 153.922 166.141 200.436 190.853 157.831 147.071 148.228 144.883 179.793 182.3 159.7 155.386 77.9863 249.997 497.473 498.911 513.222 515.454 482.794 446.474 443.255 446.251 418.88 380.016 369.597 336.525 333.203 357.962 347.558 327.933 317.657 303.905 299.427 338.017 333.216 306.641 300.396 148.593 196.368 405.843 424.358 461.964 456.066 406.086 420.928 432.592 387.958 369.213 381.249 379.234 368.511 374.101 353.545 322.084 326.79 329.414 311 293.886 338.102 349.606 296.629 296.975 159.496 182.043 402.718 418.222 389.64 365.475 363.486 408.044 417.643 379.116 348.681 343.841 333.131 347.136 385.825 364.857 337.559 330.848 337.161 324.189 315.528 357.253 348.57 292.516 289.169 155.572 184.753 379.367 399.084 377.323 348.061 355.827 368.151 373.44 368.377 355.358 342.456 325.105 336.215 346.649 325.606 327.538 331.266 344.723 332.133 321.442 311.631 292.639 305.99 298.259 143.946 187.301 384.198 415.926 428.447 403.511 369.932 373.868 377.257 371.581 390.018 386.225 364.17 361.042 378.326 364.551 342.298 327.471 333.678 340.266 322.746 310.308 314.007 317.298 300.82 146.547 191.967 405.206 445.093 453.433 452.709 430.815 411.559 401.469 380.957 384.111 387.887 393.257 384.4 388.57 392.931 387.286 366.319 350.191 361.691 355.635 348.182 339.627 297.116 270.311 139.101 216.176 450.485 494.11 500.449 477.184 475.425 451.821 417.601 404.637 389.359 393.753 393.079 355.582 362.459 379.575 387.56 401.043 371.194 332.657 318.804 313.586 332.534 345.917 298.194 131.099 121.011 257.584 270.624 263.113 242.401 247.127 246 218.866 223.271 221.951 210.853 183.594 157.237 184.351 194.427 187.214 205.089 188.29 147.964 140.658 141.455 164.155 202.937 167.647 61.2803 135.042 273.813 272.192 252.024 255.013 270.64 251.02 220.24 220.382 222.908 193.368 181.546 166.761 168.868 166.286 156.234 142.042 130.72 146.588 136.294 151.254 171.853 160.811 147.981 72.3614 236.979 495.884 523.987 508.116 473.828 473.005 469.876 439.977 423.445 416.372 392.873 379.785 365.311 337.837 322.219 316.428 285.494 271.627 296.735 310.814 329.286 343.785 317.667 292.239 148.168 191.012 435.912 481.896 471.116 418.211 382.804 405.742 409.677 377.74 375.457 397.794 384.036 386.885 369.868 339.409 326.378 295.913 294.377 315.389 342.215 364.638 358.056 322.74 298.914 151.439 200.065 423.1 420.861 371.288 358.362 358.349 373.661 385.044 365.043 369.134 371.574 339.104 351.68 393.132 367.892 324.623 317.329 341.225 338.255 328.427 340.457 332.461 309.777 292.779 143.709 201.876 385.808 392.041 364.399 343.372 350.363 352.447 371.331 386.028 373.352 342.833 331.575 341.827 357.911 352.519 341.056 347.685 366.322 344.934 308.446 290.45 298.083 293.336 272.73 132.031 193.469 392.61 419.404 415.408 396.551 373.374 366.99 374.89 376.355 383.094 368.664 360.762 355.178 360.716 376.16 383.58 384.848 368.207 357.032 331.975 309.952 306.754 299.383 280.367 127.749 204.381 410.18 437.491 452.492 442.436 424.928 404.872 401.416 392.612 402.807 390.227 370.139 375.986 390.325 391.457 381.96 366.785 357.249 376.635 371.663 357.515 320.865 290.605 283.03 136.053 234.44 455.683 476.861 490.684 472.117 482.662 445.137 411.342 421.538 421.851 396.547 378.706 385.432 370.306 353.944 358.108 354.928 352.605 361.16 349.948 343.03 324.349 310.019 301.07 142.162 132.643 261.563 257.494 245.464 241.828 258.655 241.584 208.59 209.619 215.926 205.437 191.061 186.143 175.02 170.545 177.113 190.174 184.996 169.636 162.547 158.867 158.492 169.355 163.801 69.9044 136.222 266.213 252.726 243.271 244.679 251.458 249.594 212.745 217.843 233.937 196.383 204.478 205.268 179.338 167.363 160.653 146.364 146.135 152.214 145.544 159.085 172.436 161.755 164.689 91.4006 235.53 496.983 515.236 490.437 458.372 456.634 464.457 425.449 425.269 425.263 387.013 392.974 390.114 348.722 334.259 325.9 295.638 305.755 311.583 305.981 322.729 331.62 300.524 296.812 161.805 188.506 462.295 503.79 443.038 413.045 396.126 394.825 404.756 388.636 381.822 395.865 366.487 359.837 365.67 369.221 342.793 310.337 323.967 301.646 298.575 335.337 344.125 302.775 270.109 135.943 192.609 424.735 418.751 365.447 375.62 372.891 366.588 387.209 369.037 365.101 381.501 362.807 364.167 394.257 392.319 350.425 334.082 338.155 320.899 305.537 330.768 352.589 313.503 280.023 139.333 176.536 361.901 364.831 338.236 344.665 372.371 369.134 381.171 381.742 344.361 337.838 354.448 356.628 361.855 368.669 341.003 330.267 340.328 348.339 332.084 312.612 310.035 285.615 289.692 150.61 174.425 390.003 407.529 352.227 354.296 388.215 374.222 380.952 385.408 346.143 336.046 357.191 363.268 349.412 371.014 364.842 363.935 373.424 348.555 325.556 328.96 319.664 302.337 306.502 144.137 196.45 410.744 431.162 412.281 405.264 430.7 427.473 420.819 408.096 372.786 365.889 381.122 401.514 392.763 394.247 391.826 386.456 379.489 359.442 332.246 333.565 331.631 324.033 336.735 159.55 227.914 437.436 456.239 481.193 478.449 503.025 481.247 454.028 436.678 412.436 401.01 390.219 403.024 382.971 368.666 362.963 353.341 347.811 350.596 345.941 330.408 316.859 321.707 345.45 171.051 132.765 248.004 245.246 252.478 259.084 270.11 245.488 228.147 220.075 216.038 209.596 196.656 197.325 175.735 166.758 167.856 173.572 175.225 169.991 174.565 172.266 162.504 163.894 167.562 78.8219 76.8781 136.262 120.887 122.791 117.728 115.084 124.175 110.438 116.429 122.1 92.9252 99.3742 107.372 102.771 92.3054 88.634 84.9169 71.8588 67.0623 75.1899 90.2747 88.5495 83.3386 101.043 59.8038 131.58 258.154 247.642 241.682 230.632 225.06 235.495 214.601 222.41 223.079 189.475 188.604 184.217 184.941 177.974 170.745 169.561 162.845 148.663 137.386 159.947 168.041 153.431 169.749 93.859 96.1778 237.696 247.047 210.843 212.912 204.936 203.957 210.53 201.693 197.353 204.702 186.068 165.621 174.059 184.87 169.946 168.617 180.504 150.48 120.524 147.348 165.369 135.38 128.3 67.3214 82.8846 205.14 218.105 186.391 188.078 191.137 186.241 199.55 189.959 179.228 195.406 194.403 188.657 184.281 185.189 173.775 176.135 174.261 160.382 152.622 166.825 173.498 138.114 136.927 75.2386 65.932 165.569 188.913 172.603 176.254 198.482 190.444 188.323 185.046 161.162 161.499 180.759 183.313 165.101 165.86 155.076 154.397 157.994 173.44 182.115 161.222 151.827 149.558 162.015 85.1499 75.3055 188.253 202.302 167.471 179.61 201.882 185.841 191.035 200.126 165.439 153.686 175.349 183.412 164.88 174.491 172.213 163.535 179.872 174.689 163.277 164.848 163.141 156.236 161.775 80.5036 89.719 199.933 207.767 191.202 199.289 216.479 210.422 210.547 211.089 168.016 166.163 194.37 200.285 184.988 190.682 203.584 198.742 187.248 175.309 158.408 166.443 180.981 170.498 181.061 90.4072 104.374 208.078 219.874 227.709 229.046 248.341 240.266 232.31 220.858 194.209 201.167 204.345 194.926 181.936 182.376 183.617 183.486 161.725 155.368 165.512 157.104 165.039 185.991 195.034 93.0196 65.4373 120.165 123.308 125.814 121.183 131.438 118.846 117.657 119.098 113.324 114.444 102.129 94.6211 89.1199 86.3118 83.1112 86.043 81.0973 72.8103 82.5594 83.4372 82.9935 94.9983 91.0667 39.9385 75.5475 152.462 139.964 75.5475 75.5475 152.462 283.581 139.964 123.165 261.392 248.395 123.165 75.5475 75.5475 152.462 139.964 75.5475 123.165 75.5475 76.9148 128.618 143.617 128.618 258.071 138.227 251.065 279.771 76.9148 76.9148 128.618 143.617 138.227 76.9148 51.7031 106.612 114.454 106.612 225.787 112.839 216.66 225.526 51.7031 51.7031 106.612 114.454 112.839 51.7031 54.909 114.804 111.333 114.804 241.512 103.822 223.592 225.562 54.909 54.909 114.804 111.333 103.822 54.909 59.895 107.826 130.179 107.826 246.513 119.77 226.653 238.05 59.895 59.895 107.826 130.179 119.77 59.895 47.9307 111.31 116.334 111.31 229.369 106.882 234.012 232.101 47.9307 47.9307 111.31 116.334 106.882 47.9307 63.3793 119.725 113.035 119.725 224.25 127.13 231.248 230.249 63.3793 63.3793 119.725 113.035 127.13 63.3793 56.3452 100.237 111.214 100.237 216.502 104.119 197.782 208.715 56.3452 56.3452 100.237 111.214 104.119 56.3452 43.8921 90.4002 105.288 90.4002 201.48 93.663 182.087 218.155 43.8921 43.8921 90.4002 105.288 93.663 43.8921 46.5081 88.0678 96.1927 88.0678 189.228 88.4244 187.869 190.96 46.5081 46.5081 88.0678 96.1927 88.4244 46.5081 41.5597 91.3317 93.0348 91.3317 201.129 99.4444 188.374 202.052 41.5597 41.5597 91.3317 93.0348 99.4444 41.5597 49.772 105.124 108.094 105.124 207.945 88.9295 197.186 183.994 49.772 49.772 105.124 108.094 88.9295 49.772 55.3519 100.994 99.8509 100.994 201.539 108.257 197.549 196.986 55.3519 55.3519 100.994 99.8509 108.257 55.3519 45.6419 94.061 101.688 94.061 197.125 89.2923 173.099 191.168 45.6419 45.6419 94.061 101.688 89.2923 45.6419 48.419 91.2141 95.4367 91.2141 184.73 83.8068 167.767 178.833 48.419 48.419 91.2141 95.4367 83.8068 48.419 42.7951 100.701 89.2932 100.701 196.941 83.96 183.577 163.957 42.7951 42.7951 100.701 89.2932 83.96 42.7951 57.9055 103.902 107.647 103.902 188.685 99.6173 181.11 205.973 57.9055 57.9055 103.902 107.647 99.6173 57.9055 45.9965 92.5887 81.0374 92.5887 171.666 81.4928 168.043 161.438 45.9965 45.9965 92.5887 81.0374 81.4928 45.9965 46.5922 92.8102 90.6287 92.8102 178.492 86.55 159.953 179.212 46.5922 46.5922 92.8102 90.6287 86.55 46.5922 46.218 85.1195 87.8635 85.1195 167.908 73.403 148.65 156.639 46.218 46.218 85.1195 87.8635 73.403 46.218 38.9015 80.1765 80.045 80.1765 163.469 75.2472 155.325 155.092 38.9015 38.9015 80.1765 80.045 75.2472 38.9015 41.275 70.9943 83.4235 70.9943 161.029 80.0776 154.506 168.116 41.275 41.275 70.9943 83.4235 80.0776 41.275 29.7192 76.753 77.6055 76.753 170.678 74.4284 153.436 153.164 29.7192 29.7192 76.753 77.6055 74.4284 29.7192 47.0338 47.0338 93.0725 47.0338 93.0725 79.0077 79.0077 168.246 47.0338 47.0338 47.0338 93.0725 79.0077 47.0338 47.6176 108.93 244.586 108.431 97.1263 208.186 214.155 97.1263 47.6176 108.93 108.431 47.6176 97.1263 47.6176 122.447 247.227 111.059 221.631 233.759 61.3121 122.447 136.155 111.059 61.3121 110.048 225.302 110.571 211.723 219.171 61.1354 110.048 111.072 110.571 61.1354 108.788 222.1 101.152 209.008 212.212 48.9126 108.788 114.229 101.152 48.9126 118.827 223.637 107.856 217.562 209.435 59.8754 118.827 107.87 107.856 59.8754 122.702 232.98 109.706 218.2 235.491 58.9517 122.702 115.767 109.706 58.9517 111.524 214.714 108.494 215.018 206.746 63.7504 111.524 117.213 108.494 63.7504 97.5445 210.369 106.524 211.657 202.783 47.7735 97.5445 97.501 106.524 47.7735 91.6872 207.636 105.134 212.389 212.419 49.7709 91.6872 112.868 105.134 49.7709 99.8009 203.785 107.255 209.805 198.543 41.9163 99.8009 94.7677 107.255 41.9163 97.0422 184.917 102.55 183.98 192.775 57.8847 97.0422 109.018 102.55 57.8847 92.0623 173.035 81.4295 183.47 166.971 39.1575 92.0623 75.8997 81.4295 39.1575 96.5552 186.615 102.041 183.075 206.423 52.9049 96.5552 97.1351 102.041 52.9049 79.0381 172.877 81.0347 159.117 170.683 43.6504 79.0381 89.4802 81.0347 43.6504 76.5527 158.06 78.0819 160.061 168.34 35.3877 76.5527 83.3967 78.0819 35.3877 82.8768 172.989 81.9794 164.232 162.44 41.1649 82.8768 74.6635 81.9794 41.1649 77.2081 178.725 82.2529 154.221 179.677 41.7118 77.2081 98.3251 82.2529 41.7118 75.4541 168.983 71.9681 161.867 161.41 35.4963 75.4541 80.4001 71.9681 35.4963 67.1429 157.358 89.8986 174.573 188.286 39.9578 67.1429 88.583 89.8986 39.9578 63.5307 143.822 84.6743 154.973 175.637 27.185 63.5307 68.7753 84.6743 27.185 75.1483 159.739 70.2984 145.328 157.23 36.3457 75.1483 75.0467 70.2984 36.3457 83.5117 160.251 75.0295 156.135 151.239 38.8026 83.5117 84.6924 75.0295 38.8026 76.6831 150.732 81.106 151.439 156.789 44.7092 76.6831 75.5585 81.106 44.7092 31.9739 75.1733 70.3333 70.3333 145.834 31.9739 31.9739 75.1733 70.3333 31.9739 49.5087 99.256 203.329 105.724 91.903 198.168 188.97 91.903 49.5087 99.256 105.724 49.5087 91.903 49.5087 99.1833 205.703 106.265 198.892 210.661 49.7473 99.1833 97.6045 106.265 49.7473 101.675 206.081 92.6271 197.397 188.876 49.436 101.675 108.098 92.6271 49.436 100.22 199.548 104.769 206.941 195.788 52.2392 100.22 97.983 104.769 52.2392 98.735 221.289 102.171 219.111 201.287 47.9805 98.735 101.565 102.171 47.9805 95.4981 209.257 116.94 206.291 242.904 50.7545 95.4981 119.724 116.94 50.7545 103.494 194.815 89.3513 193.64 190.934 44.7436 103.494 89.5331 89.3513 44.7436 114.113 204.833 104.288 204.376 200.7 58.7501 114.113 105.282 104.288 58.7501 120.702 203.326 100.087 215.516 186.411 55.3628 120.702 99.5512 100.087 55.3628 110.004 187.533 115.428 205.869 216.236 65.3388 110.004 103.775 115.428 65.3388 86.9373 174.828 90.4406 186.454 187.568 44.6653 86.9373 83.7576 90.4406 44.6653 91.4078 200.358 96.0129 182.434 184.748 42.272 91.4078 91.0708 96.0129 42.272 86.5201 190.49 86.4215 174.487 195.058 49.1358 86.5201 109.288 86.4215 49.1358 80.0785 166.146 88.0651 182.01 187.191 37.3843 80.0785 81.2025 88.0651 37.3843 83.5087 172.72 93.9454 171.923 180.456 42.6942 83.5087 84.9434 93.9454 42.6942 81.3555 169.128 77.9779 156.868 173.695 40.8144 81.3555 87.7766 77.9779 40.8144 77.0129 162.362 78.8897 164.57 160.372 40.541 77.0129 81.3515 78.8897 40.541 86.4126 180.713 85.68 161.683 171.616 36.4718 86.4126 81.0102 85.68 36.4718 107.43 206.565 76.0034 173.306 164.937 49.9407 107.43 99.7033 76.0034 49.9407 91.442 189.045 97.3031 174.007 188.738 57.4893 91.442 106.862 97.3031 57.4893 70.1796 148.729 76.7041 152.264 158.538 33.9527 70.1796 82.1832 76.7041 33.9527 72.6238 147.777 75.5599 159.611 143.432 36.2269 72.6238 66.5463 75.5599 36.2269 74.7562 151.891 84.0513 168.254 170.05 36.3968 74.7562 81.2307 84.0513 36.3968 38.3594 70.6602 84.2027 84.2027 151.649 38.3594 38.3594 70.6602 84.2027 38.3594 42.3943 98.912 196.302 83.2452 77.9254 176.625 160.967 77.9254 42.3943 98.912 83.2452 42.3943 77.9254 42.3943 99.7088 193.834 98.6996 198.261 202.515 56.5177 99.7088 113.057 98.6996 56.5177 95.7214 178.583 99.5614 206.838 185.547 43.1911 95.7214 80.7775 99.5614 43.1911 106.721 197.528 107.276 202.283 192.688 52.5303 106.721 97.8053 107.276 52.5303 120.376 222.902 95.0068 215.403 185.672 54.1907 120.376 99.7224 95.0068 54.1907 110.793 224.58 120.396 213.499 217.84 66.1856 110.793 123.179 120.396 66.1856 90.146 196.819 93.1026 168.741 204.838 44.6077 90.146 101.401 93.1026 44.6077 90.2628 182.278 75.6388 164.786 168.528 45.5383 90.2628 95.418 75.6388 45.5383 94.8141 199.321 89.1471 188.569 177.359 44.7245 94.8141 86.8599 89.1471 44.7245 95.8648 216.272 99.4218 214.873 215.866 50.0895 95.8648 112.461 99.4218 50.0895 99.5162 197.488 115.452 226.881 206.017 45.7753 99.5162 103.811 115.452 45.7753 91.0267 179.448 111.43 192.773 196.54 53.7409 91.0267 93.6774 111.43 53.7409 87.9665 191.759 81.3428 180.982 175.209 37.2858 87.9665 85.7708 81.3428 37.2858 101.932 201.501 99.6396 187.931 192.576 50.6808 101.932 105.988 99.6396 50.6808 88.4147 181.431 88.2909 174.252 179.978 51.2512 88.4147 95.5126 88.2909 51.2512 75.5122 164.939 85.9608 162.194 187.36 37.1635 75.5122 85.9187 85.9608 37.1635 87.5568 169.626 76.2333 166.166 152.478 38.3487 87.5568 79.0202 76.2333 38.3487 75.2708 155.839 89.9332 165.49 182.16 49.2081 75.2708 90.6057 89.9332 49.2081 65.8765 147.11 75.557 166.009 150.558 26.0627 65.8765 65.2337 75.557 26.0627 82.5653 158.231 90.4524 184.705 182.661 39.8139 82.5653 81.8763 90.4524 39.8139 82.0844 153.241 94.2527 177.439 176.368 42.7514 82.0844 76.3548 94.2527 42.7514 86.9875 165.705 83.1868 161.655 167.226 39.333 86.9875 76.8859 83.1868 39.333 93.4978 169.808 78.4682 160.591 172.675 47.6545 93.4978 88.8191 78.4682 47.6545 45.8433 80.9891 82.1232 82.1232 164.686 45.8433 45.8433 80.9891 82.1232 45.8433 35.5311 77.713 167.18 77.7218 75.9596 172.566 162.548 75.9596 35.5311 77.713 77.7218 35.5311 75.9596 35.5311 98.5522 194.227 96.6063 200.382 190.967 42.1819 98.5522 89.4579 96.6063 42.1819 111.116 199.652 103.776 214.111 207.389 56.3703 111.116 104.769 103.776 56.3703 95.5623 180.832 110.335 206.882 202.35 54.7461 95.5623 94.8828 110.335 54.7461 95.0266 180.61 96.5466 204.849 186.676 40.8161 95.0266 85.9494 96.5466 40.8161 102.705 198.098 108.303 186.138 213.801 54.2105 102.705 94.6611 108.303 54.2105 78.5955 176.546 77.835 151.581 192.97 48.4949 78.5955 103.437 77.835 48.4949 74.5231 163.609 73.7455 162.652 167.631 30.1005 74.5231 73.1099 73.7455 30.1005 93.7548 193.904 88.9062 174.971 174.387 44.4226 93.7548 90.4994 88.9062 44.4226 119.009 205.61 86.0649 204.357 185.962 49.3323 119.009 103.404 86.0649 49.3323 127.365 205.068 118.292 218.941 200.699 69.6764 127.365 102.206 118.292 69.6764 101.746 192.3 100.649 182.999 189.258 57.6889 101.746 102.862 100.649 57.6889 93.0158 176.025 82.3501 181.313 162.672 44.057 93.0158 89.4377 82.3501 44.057 85.9985 171.053 98.9628 179.015 181.362 48.9588 85.9985 86.5876 98.9628 48.9588 85.837 185.906 80.0527 169.888 162.738 37.0397 85.837 84.4651 80.0527 37.0397 86.6819 174.898 89.8357 181.9 187.209 48.7973 86.6819 101.441 89.8357 48.7973 78.6096 165.012 92.0643 172.444 169.019 37.8846 78.6096 73.4575 92.0643 37.8846 90.2194 176.879 80.3798 176.092 179.365 40.725 90.2194 91.5548 80.3798 40.725 100.133 186.109 95.7124 182.419 158.866 49.4943 100.133 85.3244 95.7124 49.4943 102.14 200.798 86.7065 175.48 173.249 50.6386 102.14 100.784 86.7065 50.6386 95.3551 190.354 88.7735 171.152 174.961 51.5013 95.3551 100.014 88.7735 51.5013 74.6675 174.196 82.3787 164.726 176.148 43.8538 74.6675 90.3402 82.3787 43.8538 67.0936 167.552 82.3472 153.995 180.845 30.8137 67.0936 83.8556 82.3472 30.8137 36.2799 83.6964 71.6474 71.6474 152.418 36.2799 36.2799 83.6964 71.6474 36.2799 40.4286 94.8529 186.336 84.8266 106.383 228.233 204.281 106.383 40.4286 94.8529 84.8266 40.4286 106.383 40.4286 101.83 204.129 121.85 231.847 223.745 54.4244 101.83 101.509 121.85 54.4244 102.995 210.087 109.997 227.191 214.76 47.4055 102.995 102.62 109.997 47.4055 111.32 208.194 117.194 225.645 225.832 55.5891 111.32 107.467 117.194 55.5891 109.823 219.867 108.451 218.093 215.775 55.7305 109.823 100.726 108.451 55.7305 83.4322 208.673 109.642 188.743 239.536 54.0921 83.4322 119.14 109.642 54.0921 72.9851 184.054 79.1008 173.911 198.398 29.3401 72.9851 89.5334 79.1008 29.3401 88.1286 178.408 94.8106 187.912 192.712 43.645 88.1286 94.5208 94.8106 43.645 81.2162 166.445 93.1014 173.94 188.628 44.4836 81.2162 83.8873 93.1014 44.4836 85.3485 181.052 80.8391 182.29 166.906 36.7326 85.3485 82.5578 80.8391 36.7326 91.5759 184.89 101.45 200.407 206.394 48.6159 91.5759 98.4937 101.45 48.6159 81.253 159.63 98.956 178.077 187.521 42.9599 81.253 86.3959 98.956 42.9599 88.2971 168.009 79.1205 190.718 172.571 38.2931 88.2971 73.2342 79.1205 38.2931 93.0169 173.048 111.597 209.646 206.458 50.004 93.0169 94.7749 111.597 50.004 84.0513 164.041 98.049 183.013 185.478 43.013 84.0513 78.2727 98.049 43.013 95.218 181.33 84.9639 187.864 168.591 41.0384 95.218 85.768 84.9639 41.0384 93.8344 183.372 102.9 189.05 194.915 54.1797 93.8344 95.5617 102.9 54.1797 85.8729 161.351 86.1501 167.544 173.286 39.6548 85.8729 87.81 86.1501 39.6548 82.2861 146.007 81.3941 162.524 160.407 46.2181 82.2861 73.5415 81.3941 46.2181 73.3402 147.412 81.1304 157.856 157.316 36.068 73.3402 72.4651 81.1304 36.068 75.7971 160.754 76.7254 150.925 154.28 37.2722 75.7971 74.9469 76.7254 37.2722 90.0583 182.797 74.1998 172.608 163.546 38.5249 90.0583 85.8074 74.1998 38.5249 86.9009 165.711 98.4085 174.86 189.621 51.5334 86.9009 96.9895 98.4085 51.5334 35.3675 68.7214 76.4511 76.4511 147.309 35.3675 35.3675 68.7214 76.4511 35.3675 65.9545 133.38 241.69 119.455 118.829 247.264 231.449 118.829 65.9545 133.38 119.455 65.9545 118.829 65.9545 130.017 234.375 128.435 258.615 249.84 67.4258 130.017 122.235 128.435 67.4258 124.197 230.505 130.179 256.051 254.392 62.5915 124.197 112.14 130.179 62.5915 114.326 233.413 125.871 246.491 245.304 61.6052 114.326 118.365 125.871 61.6052 108.271 235.444 120.62 232.466 232.367 52.7204 108.271 115.048 120.62 52.7204 105.311 229.26 111.847 216.454 239.572 55.5502 105.311 120.396 111.847 55.5502 100.926 207.055 104.607 206.851 222.314 49.7607 100.926 108.864 104.607 49.7607 99.7834 202.931 102.244 208.321 204.089 51.1657 99.7834 98.1907 102.244 51.1657 92.7242 189.088 106.078 201.188 226.726 48.6178 92.7242 104.74 106.078 48.6178 96.941 192.248 95.1104 193.594 180.305 44.1065 96.941 84.348 95.1104 44.1065 108.831 209.025 98.4834 220.786 196.049 52.8346 108.831 107.9 98.4834 52.8346 96.8235 200.462 122.302 217.485 211.143 55.9961 96.8235 101.126 122.302 55.9961 102.421 211.02 95.1825 223.957 191.122 40.8274 102.421 99.3364 95.1825 40.8274 116.629 218.888 128.774 222.653 214.599 61.5932 116.629 111.683 128.774 61.5932 98.9616 190.028 93.8791 182.875 204.038 55.0361 98.9616 107.205 93.8791 55.0361 92.646 182.177 88.9963 190.264 172.557 43.9255 92.646 82.8229 88.9963 43.9255 95.2158 184.83 101.268 179.07 195.876 48.7204 95.2158 99.3538 101.268 48.7204 81.6713 172.342 77.8019 146.849 163.331 46.4954 81.6713 85.4763 77.8019 46.4954 80.2384 171.716 69.047 166.239 166.794 35.176 80.2384 86.8656 69.047 35.176 84.5157 164.184 97.1923 172.892 178.61 45.0624 84.5157 84.8506 97.1923 45.0624 75.1282 157.072 75.6998 146.608 157.972 39.4532 75.1282 79.3331 75.6998 39.4532 82.55 170.37 70.9079 156.669 160.541 35.675 82.55 77.7391 70.9079 35.675 87.9586 171.219 85.7615 176.493 168.176 46.875 87.9586 92.6311 85.7615 46.875 41.0836 78.5877 90.7313 90.7313 167.008 41.0836 41.0836 78.5877 90.7313 41.0836 52.8744 113.884 239.599 111.995 52.8744 113.884 111.995 52.8744 52.8744 113.884 111.995 52.8744 52.8744 52.8744 128.598 269.856 61.0096 128.598 127.604 61.0096 128.598 127.604 61.0096 61.0096 131.854 269.192 67.5879 131.854 142.252 67.5879 131.854 142.252 67.5879 67.5879 132.165 244.258 64.266 132.165 126.94 64.266 132.165 126.94 64.266 64.266 124.196 236.494 67.8993 124.196 117.318 67.8993 124.196 117.318 67.8993 67.8993 111.143 232.625 56.2966 111.143 119.176 56.2966 111.143 119.176 56.2966 56.2966 105.924 219.348 54.8462 105.924 113.45 54.8462 105.924 113.45 54.8462 54.8462 108.538 227.884 51.0781 108.538 105.898 51.0781 108.538 105.898 51.0781 51.0781 108.464 217.942 57.4599 108.464 121.985 57.4599 108.464 121.985 57.4599 57.4599 96.6528 184.106 51.0039 96.6528 95.9566 51.0039 96.6528 95.9566 51.0039 51.0039 111.955 198.166 45.6489 111.955 88.1491 45.6489 111.955 88.1491 45.6489 45.6489 120.661 201.803 66.3062 120.661 110.017 66.3062 120.661 110.017 66.3062 66.3062 121.536 194.701 54.3552 121.536 91.7854 54.3552 121.536 91.7854 54.3552 54.3552 106.024 199.748 67.1809 106.024 102.915 67.1809 106.024 102.915 67.1809 67.1809 83.9139 186.568 38.8431 83.9139 96.8332 38.8431 83.9139 96.8332 38.8431 38.8431 97.6181 186.257 45.0708 97.6181 89.7346 45.0708 97.6181 89.7346 45.0708 45.0708 83.8538 174.377 52.5473 83.8538 96.5223 52.5473 83.8538 96.5223 52.5473 52.5473 65.1776 157.784 31.3065 65.1776 77.8551 31.3065 65.1776 77.8551 31.3065 31.3065 86.001 173.687 33.8711 86.001 79.9285 33.8711 86.001 79.9285 33.8711 33.8711 88.3765 172.398 52.1299 88.3765 93.759 52.1299 88.3765 93.759 52.1299 52.1299 71.4796 161.441 36.2466 71.4796 78.6387 36.2466 71.4796 78.6387 36.2466 36.2466 74.1194 158.347 35.233 74.1194 82.8022 35.233 74.1194 82.8022 35.233 35.233 88.5342 163.965 38.8864 88.5342 75.545 38.8864 88.5342 75.545 38.8864 38.8864 49.6477 88.4204 49.6477 49.6477 88.4204 49.6477 49.6477 88.4204 49.6477 49.6477 131.118 128.597 64.4166 266.332 128.597 266.774 242.53 125.23 64.4166 131.118 128.597 64.4166 125.23 64.4166 129.453 137.735 263.638 254.232 265.477 66.7018 129.453 137.735 141.544 66.7018 119.175 125.902 256.652 234.428 245.621 62.7508 119.175 125.902 112.688 62.7508 126.708 130.749 269.587 240.02 248.553 56.424 126.708 130.749 121.741 56.424 138.687 138.837 268.62 243.498 247.368 70.2843 138.687 138.837 118.279 70.2843 118.059 129.782 233.935 228.337 244.315 68.4032 118.059 129.782 125.218 68.4032 104.525 104.152 213.702 207.715 215.943 49.656 104.525 104.152 103.119 49.656 116.265 109.55 238.649 229.089 213.121 54.8691 116.265 109.55 104.597 54.8691 111.08 129.099 234.72 227.029 247.268 61.3956 111.08 129.099 124.492 61.3956 101.16 105.621 199.308 205.144 208.934 49.6846 101.16 105.621 102.536 49.6846 109.797 93.6876 205.435 197.672 190.392 51.4751 109.797 93.6876 102.608 51.4751 102.821 111.748 209.667 183.794 202.341 58.322 102.821 111.748 95.0643 58.322 100.545 97.9198 203.348 190.605 197.19 44.499 100.545 97.9198 88.7293 44.499 103.064 105.429 203.99 196.902 199.184 56.0459 103.064 105.429 101.876 56.0459 93.5158 98.5612 176.239 175.023 182.161 47.0176 93.5158 98.5612 95.0266 47.0176 96.2401 77.6779 180.266 186.352 148.323 46.4982 96.2401 77.6779 79.9967 46.4982 84.7829 102.588 168.346 186.3 193.181 49.742 84.7829 102.588 106.355 49.742 79.0774 65.758 155.517 172.606 144.79 35.0409 79.0774 65.758 79.9448 35.0409 85.682 89.7593 160.709 175.897 178.935 44.0365 85.682 89.7593 92.6617 44.0365 82.789 70.9498 150.486 163.08 154.172 41.6455 82.789 70.9498 83.2358 41.6455 83.292 79.5357 160.43 167.883 161.42 41.1435 83.292 79.5357 79.8446 41.1435 90.0347 80.8945 164.79 166.774 179.74 42.1485 90.0347 80.8945 88.0383 42.1485 93.925 83.8952 160.829 167.974 148.896 47.8863 93.925 83.8952 78.7356 47.8863 46.0387 76.9334 76.9334 89.2381 154.812 46.0387 46.0387 76.9334 89.2381 46.0387 241.675 113.933 239.729 215.561 117.029 135.656 113.933 60.8135 117.029 60.8135 247.461 231.299 234.769 124.779 127.742 122.7 74.8426 237.522 219.66 238.626 115.254 119.719 108.599 49.9368 226.334 212.64 225.514 113.312 117.803 111.06 65.3167 223.064 227.364 221.535 104.81 108.531 101.579 47.9949 226.324 224.037 242.003 110.278 114.533 125.785 56.8153 215.362 194.512 191.678 103.19 111.791 98.2523 53.4628 221.74 203.545 198.582 112.824 103.571 96.2593 49.7275 221.482 198.573 210.767 115.948 118.169 107.285 63.0969 200.018 181.513 182.857 103.984 103.313 91.2876 52.8514 187.298 175.766 175.647 87.8751 96.7047 90.2251 51.1328 189.864 189.923 190.209 80.9725 90.5931 85.541 36.7423 193.026 194.03 199.954 90.0602 99.2706 104.382 44.2303 177.355 179.906 179.718 93.8388 93.755 89.648 45.8299 154.244 170.719 163.291 81.5075 83.5997 90.2581 48.0089 161.238 177.885 172.718 90.1119 70.6446 80.4608 33.4986 169.625 186.866 174.525 101.517 90.593 97.4238 56.6133 168.207 187.83 163.398 93.529 79.0316 89.4422 44.9039 172.398 189.351 164.199 90.2155 89.1753 98.3877 48.6252 165.107 177.894 175.279 80.2914 83.2223 90.9629 41.5903 180.73 163.141 191.354 84.5909 81.8847 86.9315 38.701 163.846 151.892 178.86 76.7392 98.8455 76.2092 45.8899 142.88 151.184 166.467 74.0488 65.0005 75.6832 30.8493 77.879 75.5003 140.129 43.1994 77.879 75.5003 43.1994 208.656 101.628 201.463 188.406 97.0665 104.073 101.628 56.2156 97.0665 56.2156 225.934 200.645 213.355 106.52 107.027 104.396 47.8572 226.617 187.268 204.426 104.406 118.907 96.2489 58.6625 220.715 190.135 191.779 99.328 107.71 91.0188 45.7438 240.474 225.08 204.458 122.554 113.004 99.1159 53.5842 207.357 227.546 239.609 113.759 127.47 125.964 68.9699 174.898 197.994 179.791 91.3213 79.887 101.583 44.7895 187.61 182.735 197.721 90.7203 95.011 96.4116 46.5319 172.143 187.131 181.477 82.6246 92.5986 86.3238 44.1884 158.486 197.935 206.464 77.5284 79.5439 100.808 38.4361 178.559 185.863 198.214 87.8911 78.9426 97.1278 39.0923 200.3 197.372 197.866 108.951 99.6161 88.7353 48.7988 186.647 207.762 187.097 103.97 100.684 108.637 60.1518 165.655 185.636 182.953 86.0673 85.9631 99.1255 43.8182 181.765 182.228 167.219 89.2113 79.6917 86.5105 42.2491 186.005 177.199 191.964 87.7727 102.073 95.7175 46.9622 168.298 167.418 161.942 85.3488 83.9315 81.4819 40.8105 159.391 174.87 169.829 94.3009 84.3666 85.9359 44.5384 167.081 180.369 159.946 99.1351 75.0241 88.9336 49.7625 201.526 173.269 175.02 97.603 92.0567 91.435 49.3725 189.484 149.706 183.699 78.5498 109.469 81.8338 48.2304 181.481 153.871 150.046 75.1533 80.0142 67.8723 30.3194 163.717 153.445 181.299 77.1347 101.466 85.9985 44.8339 62.2504 67.4466 126.997 32.3008 62.2504 67.4466 32.3008 193.105 86.7774 186.857 166.228 83.0416 97.3901 86.7774 40.8509 83.0416 40.8509 191.846 189.8 206.608 94.1256 106.327 103.815 56.5392 169.587 171.397 178.342 82.8615 85.5186 85.9852 37.5864 175.522 176.077 178.222 90.8067 84.0687 85.4117 45.275 203.592 188.109 193.188 102.525 91.4536 90.6649 45.5317 212.043 209.179 206.045 113.787 112.138 97.4444 56.9937 202.614 204.624 196.041 106.673 99.9041 111.735 56.7933 191.589 181.101 196.856 92.0151 102.71 92.8891 49.8797 215.799 204.656 171.782 104.507 88.8783 88.2122 42.1354 246.192 207.009 225.489 120.407 126.92 116.444 62.3716 217.522 175.675 192.11 97.972 119.271 90.5648 58.0355 184.664 178.976 179.86 88.4216 98.2502 85.1098 39.9365 183.403 186.802 186.695 103.792 86.4134 93.8658 48.4851 184.517 184.623 170.693 99.5687 96.9899 92.936 55.3073 177.418 193.086 168.532 93.0166 87.5273 91.6868 44.2614 167.901 177.643 171.288 89.4267 89.8907 101.399 48.7553 163.473 168.472 156.916 82.069 78.0107 76.2443 40.6715 170.384 167.228 168.644 80.5686 85.4626 92.2273 41.3976 167.884 167.209 152.781 81.2335 84.9215 75.0011 39.171 157.192 174.324 172.524 75.6658 82.9629 92.2082 42.0625 144.262 166.155 162.405 71.1562 74.2293 82.1158 33.6033 149.865 178.246 145.687 78.7175 70.0323 84.0393 37.5529 144.579 176.769 178.28 76.3104 79.8325 94.2065 41.1646 64.7467 82.5623 157.084 35.1458 64.7467 82.5623 35.1458 179.731 79.4501 180.95 168.264 86.5888 89.4667 79.4501 42.1907 86.5888 42.1907 193.104 197.974 212.57 95.6747 100.28 94.3609 47.276 186.977 195.628 210.186 88.5353 92.8233 103.613 48.3987 195.888 182.144 189.058 85.2699 94.1535 92.0146 40.1366 195.642 195.628 199.4 85.5839 101.735 90.1292 45.1333 190.044 220.634 200.974 95.3923 93.9069 105.499 40.4507 190.283 209.02 210.044 97.9509 96.1371 115.135 54.9416 177.049 179.366 199.048 89.0861 94.146 93.8852 43.0093 181.472 185.378 161.882 100.149 82.9034 85.4805 46.0768 171.408 182.305 189.302 86.6016 98.5685 99.8975 54.0722 154.449 171.016 173.065 77.7027 72.839 82.4072 32.5294 181.891 168.931 162.255 90.554 81.6098 88.6092 45.1733 173.984 162.721 189.738 83.0094 100.282 80.3218 45.3807 154.708 165.085 159.364 85.0542 73.7028 82.3997 37.6287 162.402 180.058 151.588 100.069 81.005 82.6852 47.4255 160.303 174.328 163.254 88.2164 81.3974 97.3732 52.6436 162.087 175.94 172.392 86.4026 78.9056 76.9549 35.5729 151.04 162.138 171.302 86.6598 83.181 98.9849 50.8298 157.42 149.696 144.153 85.9758 67.859 63.1535 35.8301 177.736 172.73 158.53 98.6582 89.5609 86.5429 50.1457 163.83 179.956 164.271 94.9988 88.1756 86.1872 48.5124 174.102 192.267 157.128 99.5282 75.6545 93.7689 46.4864 190.785 179.268 186.508 100.458 98.4476 98.498 53.0419 92.3377 80.7704 175.782 47.4166 92.3377 80.7704 47.4166 201.104 88.8141 199.793 187.136 97.8984 91.483 88.8141 44.398 97.8984 44.398 229.652 206.657 216.869 102.299 112.29 101.895 47.0849 212.267 213.4 226.012 107.092 117.362 104.763 55.2144 192.571 215.962 208.269 96.8739 94.905 108.638 51.878 204.733 237.218 221.404 110.044 97.6656 107.324 44.9959 220.975 249.19 222.905 125.241 107.068 129.894 65.048 218.809 217.198 224.562 111.069 113.907 119.297 60.1933 183.88 193.427 205.376 90.2796 104.902 97.9009 50.8759 169.712 181.593 187.999 85.2289 78.9784 95.5263 39.4037 190.96 191.01 174.314 95.703 90.7337 86.0668 45.8252 180.872 193.508 205.471 93.3137 100.226 104.943 49.8778 170.102 182.015 178.482 78.377 80.6455 88.5654 43.4359 175.118 188.311 194.681 79.712 89.4563 93.45 34.9411 156.245 182.29 196.414 80.0306 85.6613 94.8612 44.7709 152.44 171.056 154.513 79.9893 70.5833 87.4286 35.2597 175.343 175.642 169.065 86.1117 81.8565 83.627 44.7297 181.608 179.152 190.828 89.5372 93.4863 92.0154 41.382 164.415 166.149 177.267 75.4786 88.1215 87.1361 48.1552 145.263 155.198 170.498 63.7206 76.2938 79.013 27.3234 145.065 153.74 155.679 74.0719 68.9691 76.1853 36.3972 157.569 166.901 150.19 84.9573 76.0959 77.5546 37.6747 169.534 180.559 148.936 92.7386 81.4734 89.3466 47.2825 171.504 162.07 174.574 78.81 88.0602 91.2122 45.4561 83.4441 70.858 152.054 33.3539 83.4441 70.858 33.3539 202.902 98.3221 234.025 219.165 112.621 108.31 98.3221 53.5003 112.621 53.5003 213.23 245.617 236.326 104.358 104.58 121.404 54.8096 222.014 243.646 241.025 106.308 108.65 124.213 49.5486 237.102 231.18 243.834 119.088 113.364 119.433 56.7596 239.576 239.472 241.283 127.174 123.738 111.747 62.3281 226.493 245.432 230.016 123.949 115.838 127.725 64.8455 211.129 219.552 225.148 106.128 110.655 117.707 59.1035 209.495 222.493 228.292 103.148 100.474 101.845 47.025 192.601 205.842 221.635 96.3641 109.021 120.648 56.1226 188.826 182.76 181.896 95.3068 83.5807 85.1943 40.2416 203.082 186.406 196.756 100.195 105.245 97.5655 55.0653 203.061 184.78 199.768 103.638 97.8363 88.8404 45.1295 215.977 181.764 186.057 108.599 105.225 95.9392 58.509 194.682 195.984 182.703 102.259 110.753 85.8245 50.0903 171.139 193.72 192.804 91.0662 83.9298 110.159 52.1689 184.551 178.17 179.546 89.5307 87.209 83.5612 38.8973 186.487 180.138 173.506 89.6143 97.3416 94.6084 50.6333 183.35 183.277 177.901 90.6706 89.1455 85.5296 38.981 180.914 179.164 178.226 91.4777 94.2041 97.747 51.6896 160.804 163.689 163.862 79.668 86.7099 81.4173 39.7881 141.557 171.905 146.929 81.9439 74.094 82.2719 39.8798 153.976 172.048 153.572 87.8202 67.4625 89.6333 42.0641 155.123 158.691 160.338 83.2603 86.5135 82.4147 45.7561 68.6095 76.2768 142.265 37.5041 68.6095 76.2768 37.5041 252.589 120.843 125.715 120.843 59.1202 125.715 120.843 59.1202 59.1202 59.1202 264.121 141.259 131.746 141.259 131.746 66.5948 66.5948 262.845 137.338 132.375 137.338 132.375 74.6641 74.6641 248.015 112.093 130.47 112.093 130.47 62.6737 62.6737 231.722 112.298 117.544 112.298 117.544 49.4188 49.4188 228.671 121.483 114.178 121.483 114.178 62.8792 62.8792 242.311 113.424 114.493 113.424 114.493 58.6034 58.6034 240.433 119.346 127.818 119.346 127.818 54.8203 54.8203 210.93 109.478 112.615 109.478 112.615 64.5254 64.5254 189.826 87.453 98.315 87.453 98.315 44.9527 44.9527 193.442 86.2112 91.5108 86.2112 91.5108 42.5003 42.5003 182.764 81.1412 101.931 81.1412 101.931 43.7109 43.7109 152.783 73.1645 80.8328 73.1645 80.8328 37.4303 37.4303 180.825 93.7244 71.9501 93.7244 71.9501 35.7343 35.7343 201.211 102.654 108.875 102.654 108.875 57.9901 57.9901 168.501 88.6389 92.3366 88.6389 92.3366 44.6638 44.6638 164.92 90.5237 76.164 90.5237 76.164 43.9751 43.9751 172.778 92.606 88.7557 92.606 88.7557 46.5486 46.5486 161.174 87.6865 84.0222 87.6865 84.0222 46.0574 46.0574 149.987 84.0212 77.1522 84.0212 77.1522 41.6291 41.6291 158.944 89.9613 72.8351 89.9613 72.8351 42.3921 42.3921 159.934 84.2278 86.1091 84.2278 86.1091 47.5692 47.5692 147.479 75.4312 73.8244 75.4312 73.8244 36.6586 36.6586 73.655 38.7727 73.655 38.7727 73.655 38.7727 38.7727 135.214 129.954 64.1803 265.819 129.954 241.233 231.094 117.3 64.1803 135.214 129.954 64.1803 117.3 64.1803 134.185 135.866 260.983 256.866 254.74 71.0337 134.185 135.866 123.933 71.0337 137.477 125.117 270.028 259.745 264.327 63.1513 137.477 125.117 132.933 63.1513 142.878 144.911 282.295 255.901 247.74 74.3254 142.878 144.911 126.812 74.3254 129.932 137.384 268.89 248.185 253.493 68.5531 129.932 137.384 129.089 68.5531 115.875 131.506 236.514 231.921 241.253 61.379 115.875 131.506 119.097 61.379 109.177 105.007 214.005 221.349 216.887 54.4964 109.177 105.007 112.824 54.4964 122.384 108.998 222.651 231.3 227.46 54.6809 122.384 108.998 108.525 54.6809 123.64 113.654 219.936 229.173 214.001 67.7034 123.64 113.654 122.775 67.7034 98.1487 106.283 199.757 194.183 203.166 55.9362 98.1487 106.283 106.398 55.9362 95.6379 93.4747 198.921 195.061 186.469 42.2125 95.6379 93.4747 87.7843 42.2125 106.846 105.446 212.251 215.737 194.3 53.4255 106.846 105.446 107.276 53.4255 102.803 106.805 198.663 205.769 203.519 53.4208 102.803 106.805 108.461 53.4208 100.926 91.8586 191.18 184.442 178.193 49.3827 100.926 91.8586 97.3078 49.3827 82.7233 99.3214 171.045 155.46 169.115 51.5436 82.7233 99.3214 87.1344 51.5436 84.0258 71.724 159.816 155.152 158.836 31.1798 84.0258 71.724 68.3258 31.1798 83.5632 88.0924 173.963 151.671 166.062 52.8461 83.5632 88.0924 86.8258 52.8461 76.4399 85.8705 175.8 151.118 160.515 30.7171 76.4399 85.8705 64.8448 30.7171 75.0271 89.9298 155.282 157.209 163.447 45.7228 75.0271 89.9298 86.2729 45.7228 67.6965 65.3519 144.811 152.512 150.244 29.3043 67.6965 65.3519 70.9364 29.3043 77.1382 79.4587 157.526 173.278 175.582 38.3921 77.1382 79.4587 81.5758 38.3921 74.755 78.0676 145.802 161.862 156.035 38.7461 74.755 78.0676 91.7017 38.7461 66.9036 67.7343 126.894 135.734 151.91 36.0089 66.9036 67.7343 70.1601 36.0089 30.8946 59.16 59.16 65.5742 124.556 30.8946 30.8946 59.16 65.5742 30.8946 220.016 101.141 210.602 182.905 98.5323 106.019 101.141 53.1197 98.5323 53.1197 258.085 242.096 248.437 122.681 118.875 112.069 52.8993 242.039 244.48 271.503 122.269 139.21 130.026 69.782 218.938 234.409 214.811 113.022 102.829 114.453 52.4868 225.856 236.174 231.741 118.253 116.11 119.956 60.5356 221.626 209.643 217.488 116.046 109.747 116.218 57.7176 230.341 195.749 193.147 112.172 111.879 93.4256 58.328 218.809 205.805 216.54 108.916 118.462 102.323 53.8438 197.23 195.052 205.111 105.534 100.347 103.482 55.0717 189.877 176.992 185.162 96.0338 96.883 91.5698 50.462 181.848 190.09 180.604 99.4227 92.9943 85.4221 45.5718 185.568 200.24 202.985 108.891 88.8541 104.668 53.8509 183.049 185.642 177.571 102.965 96.7142 95.5722 55.0403 156.128 163.103 170.068 83.5159 86.3344 90.0701 47.9251 156.906 165.29 149.783 72.7368 69.7937 73.0334 35.5908 165.082 169.358 196.073 71.1257 87.1124 92.2569 37.146 152.615 151.057 168.449 68.1075 77.9697 77.1008 33.9797 148.163 139.768 150.726 74.6779 74.645 73.956 34.1278 158.41 150.128 134.942 82.1821 73.5176 65.8117 40.5501 181.016 188.739 178.52 84.8157 84.8922 84.3162 41.632 174.091 207.073 190.262 96.1393 96.1238 104.423 43.1837 162.143 193.434 166.764 87.1069 77.9677 102.65 52.9557 149.572 155.413 173.005 68.8308 84.1758 90.7838 34.1512 65.3964 64.6292 126.525 34.6796 65.3964 64.6292 34.6796 211.327 81.7644 200.298 158.369 91.3392 104.583 81.7644 45.4126 91.3392 45.4126 261.856 217.135 228.881 119.415 129.563 108.958 59.1702 244.276 208.937 223.429 122.211 132.294 108.177 60.2445 227.614 206.102 187.173 121.387 111.982 100.76 61.9665 223.373 218.987 210.828 117.92 115.632 105.342 59.4202 189.01 191.853 221.049 93.5977 107.742 113.645 58.5001 179.346 179.518 171.496 83.5767 81.268 78.2083 35.0975 202.842 196.463 188.498 96.8893 98.0783 101.31 48.4792 193.043 200.81 204.31 89.5179 104.764 95.1531 48.4101 175.889 206.743 195.722 80.958 88.2791 105.657 41.1078 201.741 210.217 195.175 90.6675 87.6098 101.086 39.8502 194.987 187.591 207.287 91.3492 114.131 109.131 50.8173 164.59 162.288 159.462 82.6769 80.8566 78.4602 40.5319 163.723 164.536 165.389 79.5875 83.7336 83.8275 42.1449 188.95 176.955 170.781 92.5535 79.9892 80.7085 37.4426 199.44 176.707 188.784 98.2319 108.961 96.2464 55.1109 166.561 164.354 165.76 82.9493 90.4795 80.4603 43.121 137.505 154.905 152.371 65.0898 76.0815 83.8933 39.8283 155.052 154.597 157.899 67.9458 61.4239 71.0121 25.2616 187.766 185.449 170.471 103.923 93.6277 83.5846 42.6842 182.934 184.039 171.497 110.934 94.1384 101.865 61.2389 177.626 177.475 154.275 106.327 88.796 82.1742 49.6948 149.958 154.851 175.888 86.5822 88.8296 95.3005 56.6326 61.1284 59.5505 123.503 29.9496 61.1284 59.5505 29.9496 175.922 76.6043 185.979 150.974 83.1859 95.7148 76.6043 45.9265 83.1859 45.9265 190.454 195.149 197.375 97.7204 99.3182 102.793 49.7882 166.327 185.167 195.35 86.7258 91.1357 92.3567 47.9321 170.387 195.334 172.344 84.7155 75.1909 92.8105 38.7936 208.504 211.125 190.377 101.067 95.1965 102.523 45.9219 203.536 192.907 215.028 98.2555 113.307 108.601 55.1448 180.648 188.273 176.911 95.9412 90.2285 84.3063 43.1108 189.965 187.537 178.044 99.5734 90.4197 103.967 52.8304 206.989 192.615 173.147 111.292 99.5457 83.5695 46.743 215.008 210.591 202.508 125.785 107.443 109.045 64.5489 200.721 196.296 192.955 119.55 107.565 101.546 61.2359 171.762 187.579 172.846 96.242 93.1563 94.7502 58.3137 160.261 170.586 179.257 79.6108 78.6057 92.8291 37.9283 172.447 154.602 148.038 84.9485 81.6553 77.7566 41.6826 170.615 146.735 152.397 84.4014 90.7917 76.8455 43.266 155.104 150.561 144.876 78.4747 79.8231 69.8893 41.1355 151.57 157.088 157.811 81.4043 75.2808 80.672 37.3392 172.765 154.196 137.155 89.8156 76.2897 76.4163 44.0651 173.319 158.095 175.84 86.6509 96.4755 77.7794 45.7505 154.202 160.605 155.436 81.5263 76.843 80.3156 40.9004 142.837 141.937 150.259 73.1053 77.3587 80.2891 40.6259 152.537 145.721 129.534 71.1473 65.4787 61.6475 32.4794 149.434 158.596 167.822 68.2689 87.0586 84.0736 38.6679 62.375 74.5221 139.708 29.601 62.375 74.5221 29.601 172.426 74.3694 199.885 155.972 81.6754 90.2639 74.3694 37.2594 81.6754 37.2594 202.272 224.782 212.207 97.4291 98.0569 118.209 53.0045 201.368 203.616 223.045 98.4414 104.215 106.573 44.4245 192.334 206.315 182.815 110.618 97.1534 97.0439 54.0168 196.901 204.747 197.266 110.058 95.1802 109.271 56.6016 188.403 190.385 198.37 94.6518 101.721 95.4758 53.4563 174.307 200.072 181.025 92.3322 86.6823 94.9092 41.1955 161.226 181.564 179.873 87.9632 87.6248 105.163 51.1367 168.667 165.806 162.74 81.3228 73.6015 76.4013 36.8266 180.455 180.063 180.395 84.8059 95.065 89.4047 44.4963 165.081 164.304 173.31 76.7461 85.3904 90.6579 40.3096 180.341 183.062 167.365 91.3373 79.6901 73.646 36.4365 167.033 186.381 213.531 90.9749 100.651 109.416 54.9009 127.988 145.868 130.551 69.6536 66.3826 76.9644 36.0741 126.659 134.784 134.916 62.3334 61.6056 68.9031 33.5795 147.583 161.318 132.225 72.0866 65.0533 65.8807 28.7539 143.396 167.755 179.906 75.684 82.53 95.437 43.3327 140.231 153.317 138.939 64.3802 60.8657 72.3176 32.3513 157.958 152.986 164.162 71.4441 79.3648 80.9993 32.0289 151.494 150.071 142.446 79.0783 78.5934 71.9871 39.4152 136.956 141.443 153.029 68.8312 72.9004 78.0843 39.6631 144.819 151.369 121.309 74.5738 64.0551 63.359 29.1681 158.096 183.021 153.405 90.3268 80.7636 88.0098 45.4057 77.3325 95.0113 167.49 44.9211 77.3325 95.0113 44.9211 195.753 81.6021 204.213 184.668 89.2379 109.621 81.6021 44.4161 89.2379 44.4161 232.981 236.224 226.117 127.353 114.15 114.975 65.2047 204.492 220.881 248.74 105.175 118.831 121.249 62.148 187.747 213.711 191.787 95.6967 85.6615 99.6315 43.027 198.735 207.092 232.73 94.6892 102.086 114.08 52.6697 190.991 198.277 205.319 95.7332 96.6487 93.0118 42.0195 186.591 212.74 195.174 107.74 94.3425 105.265 53.7137 181.387 199.948 194.819 93.6006 92.2486 107.475 54.0259 174.469 180.72 204.634 84.4832 89.1385 92.4727 39.5747 173.25 188.776 169.268 95.2568 85.3301 88.2476 44.9085 175.595 190.445 186.868 87.5579 87.92 100.528 50.3483 200.555 191.147 193.848 91.7248 87.6752 89.9164 37.2096 177.048 202.784 197.7 95.4056 112.88 101.231 54.5153 137.479 168.637 158.556 76.2139 64.1686 101.553 40.8903 140.482 152.523 143.019 72.4504 73.3101 67.0845 35.3236 164.547 184.251 159.845 89.2311 67.1716 85.4385 37.1268 175.448 188.943 188.034 92.0706 97.3755 98.8125 52.1043 162.87 181.616 166.863 88.9367 78.073 90.1308 39.9663 148.649 170.979 175.502 81.5423 84.7967 91.485 48.9704 143.981 152.129 147.408 70.9931 63.8525 79.4937 32.5719 137.383 132.225 148.908 72.612 80.129 72.6354 38.4212 129.895 142.951 111.454 76.7949 57.2538 59.5892 34.1908 162.799 164.557 147.337 92.6943 72.6415 83.3615 42.6041 90.1578 81.1956 163.457 50.0902 90.1578 81.1956 50.0902 215.033 103.066 221.466 242.846 106.544 94.5919 103.066 44.8218 106.544 44.8218 241.876 231.733 237.587 108.871 111.966 114.921 49.7701 236.035 241.213 261.142 115.706 129.909 116.812 59.1013 236.77 253.937 240.706 118.015 106.126 124.401 56.6045 239.314 231.827 260.154 112.403 130.644 129.536 61.4102 209.502 209.732 225.456 102.544 108.67 102.291 50.9923 203.402 233.888 204.636 105.001 100.832 107.441 51.5514 218.066 227.435 228.211 106.347 102.571 126.447 53.4492 199.433 197.689 210.799 96.2372 115.495 100.987 52.898 182.886 195.892 191.587 93.5191 83.938 96.7014 43.3391 205.121 210.118 200.047 102.887 98.9479 99.1906 50.18 190.993 201.046 211.002 99.4226 106.173 110.927 52.7069 179.207 186.996 177.247 107.378 84.82 90.1183 46.7157 164.097 179.523 167.338 92.4232 94.3875 96.8781 60.6623 162.382 178.63 156.066 80.0726 69.7093 82.6454 31.7609 183.331 174.882 187.069 95.0199 92.6731 95.9844 48.3117 179.448 171.269 177.438 96.8727 90.6583 78.8972 46.7082 179.495 172.851 175.411 92.679 88.79 92.3716 50.1645 174.261 162.924 167.501 89.4363 90.7048 80.4794 42.5146 152.334 147.102 149.958 81.136 83.5557 82.4449 46.9218 122.979 128.595 137.042 59.6126 68.7788 64.6572 34.2142 128.895 141.861 127.024 66.1558 54.2002 63.9382 25.3984 147.995 143.911 147.129 71.8628 74.6951 77.9233 40.7574 73.2996 65.9878 136.836 31.1054 73.2996 65.9878 31.1054 265.4 139.78 126.874 139.78 61.7225 126.874 139.78 61.7225 61.7225 61.7225 256.853 122.862 125.62 122.862 125.62 65.151 65.151 265.813 125.507 131.233 125.507 131.233 57.7108 57.7108 264.09 135.922 134.58 135.922 134.58 67.7965 67.7965 246.295 119.424 129.51 119.424 129.51 68.1256 68.1256 220.589 107.188 116.785 107.188 116.785 51.2987 51.2987 229.445 128.887 103.804 128.887 103.804 55.8894 55.8894 220.944 121.087 125.641 121.087 125.641 72.9979 72.9979 202.952 101.452 95.3031 101.452 95.3031 48.0893 48.0893 208.748 102.373 107.649 102.373 107.649 53.3623 53.3623 205.928 107.231 101.099 107.231 101.099 49.0106 49.0106 197.256 101.623 104.829 101.623 104.829 58.2205 58.2205 165.378 79.6183 92.4273 79.6183 92.4273 43.4025 43.4025 159.307 87.1003 72.9505 87.1003 72.9505 36.2158 36.2158 180.753 98.5572 86.3563 98.5572 86.3563 50.8845 50.8845 181.176 79.8617 94.3962 79.8617 94.3962 47.6727 47.6727 173.4 74.3961 86.7795 74.3961 86.7795 32.189 32.189 163.417 80.1719 86.6208 80.1719 86.6208 42.2071 42.2071 143.198 73.488 76.796 73.488 76.796 37.9648 37.9648 134.666 65.9661 66.4025 65.9661 66.4025 35.5231 35.5231 141.087 68.9829 68.2634 68.9829 68.2634 30.443 30.443 145.258 75.7057 72.8235 75.7057 72.8235 38.5399 38.5399 135.97 72.0482 72.4341 72.0482 72.4341 37.1659 37.1659 63.536 34.8824 63.536 34.8824 63.536 34.8824 34.8824 130.605 131.493 65.7732 273.616 131.493 244.602 230.762 113.794 65.7732 130.605 131.493 65.7732 113.794 65.7732 126.798 142.122 274.455 262.201 254.257 64.832 126.798 142.122 130.808 64.832 132.551 132.332 276.932 252.321 250.462 61.9657 132.551 132.332 131.394 61.9657 139.416 144.6 273.741 245.332 255.721 70.5857 139.416 144.6 120.928 70.5857 138.958 129.141 256.473 246.561 258.977 68.8306 138.958 129.141 124.405 68.8306 120.638 127.332 228.606 226.218 228.946 70.1272 120.638 127.332 122.156 70.1272 104.828 101.274 216.283 222.997 202.833 50.5111 104.828 101.274 104.062 50.5111 100.267 115.009 222.321 210.161 234.29 54.3168 100.267 115.009 118.935 54.3168 96.2968 107.312 201.531 187.993 201.536 45.9504 96.2968 107.312 91.2257 45.9504 101.609 94.2186 193.089 195.452 191.149 50.3463 101.609 94.2186 96.7674 50.3463 103.283 98.8704 205.628 185.709 188.984 51.2623 103.283 98.8704 98.6848 51.2623 105.405 106.758 190.461 182.082 190.907 52.0208 105.405 106.758 87.024 52.0208 95.8597 83.7032 169.7 175.943 168.285 53.3837 95.8597 83.7032 95.0576 53.3837 90.2538 85.9963 199.461 162.866 166.804 42.476 90.2538 85.9963 80.8852 42.476 88.322 113.465 194.96 172.491 188.089 47.7778 88.322 113.465 81.9807 47.7778 75.7906 81.4951 153.027 169.747 170.687 40.5442 75.7906 81.4951 90.5106 40.5442 90.3998 71.5316 181.026 174.907 167.576 35.2464 90.3998 71.5316 79.2363 35.2464 99.3605 109.495 186.153 172.845 196.271 55.1535 99.3605 109.495 95.6707 55.1535 80.2546 76.6584 159.199 156.482 146.663 44.207 80.2546 76.6584 77.1745 44.207 77.1141 82.5402 174.464 173.314 167.028 36.0476 77.1141 82.5402 79.3078 36.0476 80.3881 91.9234 174.721 158.34 177.8 41.0665 80.3881 91.9234 94.0066 41.0665 71.047 82.7975 148.353 146.084 133.55 39.3216 71.047 82.7975 64.3336 39.3216 59.9907 65.5553 131.042 140.732 148.599 31.7254 59.9907 65.5553 81.75 31.7254 28.2653 65.4869 65.4869 58.9821 127.352 28.2653 28.2653 65.4869 58.9821 28.2653 211.403 99.2689 220.741 182.057 84.373 113.997 99.2689 48.0212 84.373 48.0212 230.264 277.845 233.215 135.404 112.135 136.368 65.9756 229.25 241.834 243.836 119.77 118.13 141.477 69.428 240.957 212.143 221.042 105.916 111.121 100.357 50.3419 231.451 213.056 229.09 107.603 129.836 111.785 55.5741 203.174 200.992 198.438 105.58 101.615 101.271 52.0291 220.84 213.939 208.609 118.169 101.559 99.7215 53.5511 213.505 215.846 222.472 109.893 119.281 114.217 64.6181 191.155 195.221 190.536 91.6963 94.2242 101.629 45.2753 187.044 188.774 182.911 93.8435 96.9309 93.5923 46.421 174.262 193.499 180.481 82.4257 90.1135 95.1821 47.4225 168.73 180.315 188.634 76.6771 84.1487 98.3167 35.0032 165.39 161.996 167.523 80.0832 84.5817 81.9986 41.6739 155.432 156.747 190.318 72.6122 80.808 79.9979 38.4093 163.817 180.566 164.917 84.1693 74.6243 76.7496 34.2029 185.237 195.165 184.203 93.9563 89.1923 103.816 49.9664 182.821 168.119 183.558 84.5072 96.0443 91.3484 43.99 156.781 145.9 163.062 73.4847 86.7765 76.7704 40.5172 154.492 163.334 129.615 76.2278 70.0046 69.1299 32.9675 170.364 180.043 163.441 96.2003 84.4875 94.2037 43.2602 136.629 149.953 178.055 77.9521 85.8769 85.8396 52.9401 133.796 146.335 142.205 75.0366 50.7521 64.1132 25.012 144.91 144.117 145.414 80.7414 83.0442 82.2216 50.0246 61.8655 61.8956 138.574 30.7168 61.8655 61.8956 30.7168 203.868 82.7877 186.952 158.733 67.0296 106.744 82.7877 36.3518 67.0296 36.3518 246.786 235.175 227.433 142.441 121.08 119.922 70.3924 235.627 201.665 205.749 122.065 125.706 115.253 72.049 209.174 191.899 193.324 106.227 109.921 86.4127 50.0155 196.077 212.89 193.229 105.453 99.2536 105.486 56.2114 203.873 200.692 206.551 95.412 96.8234 107.404 49.2415 210.241 180.477 208.87 95.7696 107.05 93.2881 46.1704 199.502 196.345 191.864 105.953 103.191 87.1885 49.5992 182.292 199.222 197.631 103.525 96.3113 109.157 56.3537 176.348 184.154 167.012 94.9309 85.9805 90.0654 47.1713 194.853 192.245 175.504 111.073 90.3674 94.0885 47.7596 187.427 179.158 179.172 103.638 104.485 98.1561 63.3134 192.451 162.564 170.952 81.9133 82.9415 81.0021 40.3247 199.802 171.634 194.28 84.1353 109.51 81.5614 41.5887 185.303 182.61 181.45 96.3965 90.2922 90.0724 42.5467 182.524 177.837 190.746 101.208 95.0104 92.5374 53.8498 163.799 153.778 158.558 83.6116 87.5135 85.3 47.3584 135.896 155.365 155.05 72.4155 76.2851 68.4778 36.2532 138.564 173.774 146.766 87.1059 59.6105 86.8873 36.1624 171.132 156.518 167.024 83.8429 78.9536 86.8862 50.9435 183.631 141.733 170.233 72.0007 92.1783 69.6322 32.8994 153.822 152.688 166.699 71.2982 91.4526 72.1005 39.1012 139.078 144.541 144.117 63.3758 62.3697 80.5877 32.197 76.7087 63.9529 139.909 31.1788 76.7087 63.9529 31.1788 182.298 75.9449 162.37 161.269 67.7879 80.2077 75.9449 30.6778 67.7879 30.6778 186.396 197.576 190.992 92.7335 106.353 94.5823 49.5299 163.446 182.528 189.544 79.6008 80.0428 102.994 43.2036 177.379 167.387 171.541 85.6718 83.4036 79.5338 36.3972 203.703 194.281 168.946 107.437 93.9755 87.8532 49.2746 211.548 199.032 204.687 105.28 109.728 106.427 58.1625 190.493 166.682 188.739 84.707 101.82 92.6045 47.1177 189.993 163.655 172.899 90.3921 88.6733 74.0774 37.5893 182.351 183.041 169.802 95.6969 101.319 89.5777 52.8028 166.168 184.873 178.443 89.2231 81.0312 93.4629 42.8941 159.824 169.506 182.392 81.1715 85.137 91.4097 46.3289 162.697 164.524 154.333 75.52 74.6868 78.0963 34.8426 172.78 156.709 177.894 80.6502 88.0103 86.4274 40.6774 175.927 145.833 164.307 87.4985 84.7698 70.2813 39.9728 186.893 150.539 157.421 86.2134 91.1574 75.5518 47.5257 166.78 152.126 165.528 76.6292 95.7355 74.9871 38.6876 149.809 137.878 146.051 70.1662 71.0446 77.1389 37.9416 165.92 158.8 152.563 82.9496 78.7647 60.739 32.2246 175.225 173.182 168.335 86.6677 87.1555 98.0609 50.725 166.125 145.091 167.811 72.6755 88.07 75.1209 35.9427 153.302 137.856 149.852 69.7321 78.0552 69.9701 36.7328 156.994 151.635 140.768 81.3899 75.2465 67.8862 32.9993 144.948 148.934 159.578 81.1647 81.7472 83.7486 48.3907 63.2005 65.1854 142.56 32.7741 63.2005 65.1854 32.7741 169.964 85.3241 168.294 167.247 74.2961 82.1625 85.3241 37.1101 74.2961 37.1101 194.14 210.471 194.385 104.843 84.6395 93.9981 45.0524 197.638 202.244 217.835 102.927 109.501 116.473 59.7901 163.108 173.766 182.204 81.7152 88.137 85.771 43.1366 169.93 190.889 173.207 86.8434 74.9705 87.9949 38.5786 181.879 189.01 200.573 93.7515 94.9592 102.894 48.2648 171.145 160.826 183.695 81.9749 86.9197 86.1156 45.4868 152.708 161.05 169.414 73.263 84.2256 74.7108 36.4881 165.894 177.329 172.144 87.3437 68.4823 86.3387 36.7749 194.667 173.643 192.813 95.6496 97.4118 90.9904 50.5688 176.902 176.372 180.751 88.3344 97.2552 82.6525 45.0808 169.53 197.834 180.871 89.0036 79.6463 93.7192 43.2536 169.421 157.701 202.682 76.0586 89.8836 104.115 45.75 145.801 119.599 157.161 58.3346 79.5376 53.5868 30.3085 136.056 132.357 147.351 64.3256 66.2637 66.0126 28.0261 144.798 150.813 136.353 75.4968 69.7921 66.3443 36.2995 148.804 151.09 157.483 67.7117 75.006 84.4685 39.1973 154.978 149.783 152.629 75.8503 73.798 66.6211 28.5144 160.921 153.621 154.254 86.5142 81.1798 83.1622 47.3359 151.538 145.404 152.417 72.4156 79.7413 70.4588 39.1782 137.318 132.895 157.455 68.1243 71.7965 74.9451 33.2373 143.352 123.345 139.217 70.2449 65.5211 57.9499 34.8869 157.191 137.874 148.144 67.7693 77.8312 65.3953 35.3579 79.36 72.4789 154.91 32.4113 79.36 72.4789 32.4113 191.668 81.9231 206.572 189.747 95.4305 86.1317 81.9231 37.186 95.4305 37.186 218.079 238.633 222.663 105.629 109.745 111.142 48.9457 202.401 219.647 246.967 99.3173 108.334 127.491 56.6828 192.304 210.806 194.699 92.0507 94.0672 92.156 42.6345 203.85 230.957 232.354 104.046 98.2368 118.65 49.4163 202.389 202.217 218.711 95.2581 105.614 112.307 54.6292 181.964 177.253 207.243 78.8516 96.7756 89.9091 40.6289 188.85 199.506 180.334 87.7865 85.1885 87.3443 38.2227 199.063 193.182 204.525 89.9855 103.662 112.161 49.5638 178.897 167.36 174.731 77.9934 95.4012 81.0206 40.4217 184.72 190.271 190.015 88.0373 83.4957 86.3396 37.5717 214.023 200.401 210.126 108.83 101.225 103.932 50.4656 190.422 153.472 199.918 81.6428 112.799 96.4688 58.3646 158.711 132.938 159.575 61.2647 77.6231 57.0034 23.2783 147.648 150.341 178.403 68.0312 81.0878 75.9349 37.9865 149.038 163.628 165.507 75.316 66.5605 74.4062 30.0448 161.308 165.953 185.368 83.3779 82.4772 89.2213 45.2712 151.905 160.749 165.768 73.933 78.8307 76.7322 38.1067 145.75 151.931 164.17 67.1069 73.0741 84.0166 35.8263 158.334 144.187 145.57 72.9884 72.6756 67.9145 31.2806 159.354 128.137 156.406 64.7708 85.6582 76.2724 41.7078 144.009 115.84 141.145 53.1003 73.6959 51.8648 23.063 145.863 146.237 134.74 70.105 70.3128 63.9751 30.0374 75.5501 82.2618 154.453 40.0676 75.5501 82.2618 40.0676 220.741 107.824 258.967 241.577 136.302 120.441 107.824 58.2445 136.302 58.2445 251.55 266.995 241.55 133.004 112.917 122.665 62.1961 239.265 260.635 279.06 120.33 138.633 144.33 70.8081 234.75 246.923 244.824 118.755 100.632 116.305 49.5215 247.215 253.782 256.569 126.912 134.118 130.618 69.2334 223.565 220.36 244.66 106.958 113.097 123.164 57.6782 205.613 198.96 223.364 98.4018 110.468 97.1952 49.2803 196.009 211.575 203.573 111.719 95.1457 101.764 49.1216 180.193 204.697 206.922 103.196 100.863 109.811 62.5974 185.849 195.742 183.51 89.3668 79.3296 94.8855 40.5989 215.421 200.931 209.281 102.234 106.519 100.856 48.7679 196.021 187.204 191.896 91.5705 108.902 100.075 53.4662 169.071 157.589 173.557 71.8294 87.1195 87.129 38.1042 179.266 143.88 177.22 71.6736 81.9514 70.4599 33.7252 196.261 164.505 178.582 82.3099 97.3149 73.4203 37.9484 201.837 189.625 194.721 88.3115 98.9462 91.0849 44.3614 189.828 181.58 210.875 82.5756 102.891 98.5406 43.9501 178.033 170.061 175.38 86.8158 86.9368 83.0392 38.6255 163.991 154.535 161.407 84.8242 91.0963 87.0214 48.1903 143.643 139.898 142.412 71.1985 72.8949 67.5133 36.6339 138.197 135.47 141.347 63.3664 70.7479 72.3849 34.5646 131.876 132.291 154.128 62.7395 67.4488 63.0854 28.8018 143.33 140.054 149.778 76.1319 64.4277 69.2059 33.9377 78.9026 70.8478 137.815 42.1942 78.9026 70.8478 42.1942 262.386 133.753 138.526 133.753 78.0571 138.526 133.753 78.0571 78.0571 78.0571 269.059 133.991 128.632 133.991 128.632 60.4692 60.4692 284.619 140.305 140.427 140.305 140.427 73.5219 73.5219 266.643 128.168 144.192 128.168 144.192 66.7835 66.7835 254.014 126.871 122.451 126.871 122.451 61.3843 61.3843 244.459 113.401 131.563 113.401 131.563 65.4863 65.4863 221.323 100.558 112.896 100.558 112.896 47.915 47.915 214.486 99.8565 108.427 99.8565 108.427 52.6427 52.6427 210.239 101.5 106.059 101.5 106.059 47.2138 47.2138 206.943 106.375 104.181 106.375 104.181 54.2865 54.2865 185.756 98.697 102.762 98.697 102.762 52.0883 52.0883 169.431 95.6334 82.9941 95.6334 82.9941 46.6087 46.6087 181.706 85.7595 86.437 85.7595 86.437 49.0248 49.0248 176.536 72.2066 95.2687 72.2066 95.2687 36.7348 36.7348 177.041 82.1953 81.2668 82.1953 81.2668 35.4719 35.4719 203.758 101.314 95.7744 101.314 95.7744 46.7235 46.7235 196.427 99.0042 107.984 99.0042 107.984 54.5905 54.5905 158.754 83.2449 88.4433 83.2449 88.4433 44.4137 44.4137 139.827 69.7105 70.3108 69.7105 70.3108 38.8311 38.8311 140.116 68.6997 69.5167 68.6997 69.5167 30.8793 30.8793 157.278 72.104 70.5992 72.104 70.5992 37.8203 37.8203 172.029 69.5518 86.6788 69.5518 86.6788 34.2836 34.2836 144.263 63.9218 85.3505 63.9218 85.3505 35.2682 35.2682 58.9129 28.6536 58.9129 28.6536 58.9129 28.6536 28.6536 143.011 141.418 65.7203 286.873 141.418 240.417 249.997 116.968 65.7203 143.011 141.418 65.7203 116.968 65.7203 147.657 145.455 288.01 242.518 247.475 77.2905 147.657 145.455 123.449 77.2905 144.381 142.555 275.925 253.861 251.436 70.3665 144.381 142.555 119.068 70.3665 134.324 133.37 262.386 269.366 261.786 74.0144 134.324 133.37 134.793 74.0144 117.515 129.016 251.78 241.363 253.668 60.3101 117.515 129.016 134.572 60.3101 107.968 122.764 233.568 205.561 229.126 57.2047 107.968 122.764 106.79 57.2047 111.456 110.805 229.389 214.126 217.348 50.7629 111.456 110.805 98.7708 50.7629 122.054 118.584 241.022 225.666 225.907 60.6927 122.054 118.584 115.355 60.6927 105.234 122.438 216.305 204.693 220.344 61.3616 105.234 122.438 110.31 61.3616 91.4803 93.8671 181.39 184.681 198.536 43.8722 91.4803 93.8671 94.3821 43.8722 102.345 87.5233 178.786 194.182 181.48 47.6081 102.345 87.5233 90.2991 47.6081 85.0565 91.2632 153.922 177.11 188.117 54.737 85.0565 91.2632 103.883 54.737 73.8399 62.6587 166.141 159.146 148.408 30.3195 73.8399 62.6587 73.2273 30.3195 109.208 103.482 200.436 192.028 184.795 43.5204 109.208 103.482 85.9191 43.5204 106.638 96.9538 190.853 186.286 173.168 65.6873 106.638 96.9538 106.109 65.6873 77.2361 93.899 157.831 168.516 174.391 40.9509 77.2361 93.899 80.1769 40.9509 90.6267 63.9323 147.071 188.94 153.542 36.2852 90.6267 63.9323 88.3396 36.2852 86.7928 83.1388 148.228 170.089 164.115 54.3414 86.7928 83.1388 100.601 54.3414 78.944 65.0895 144.883 157.208 139.79 32.4514 78.944 65.0895 69.4885 32.4514 97.3495 79.7937 179.793 171.514 159.638 46.4926 97.3495 79.7937 87.7199 46.4926 94.3329 99.9995 182.3 153.01 178.379 50.8569 94.3329 99.9995 83.7937 50.8569 77.3059 82.3001 159.7 136.066 154.837 43.4759 77.3059 82.3001 69.2161 43.4759 71.0515 77.4002 155.386 135.22 151.803 33.8299 71.0515 77.4002 66.8495 33.8299 37.2216 77.9863 77.9863 68.3703 148.593 37.2216 37.2216 77.9863 68.3703 37.2216 210.599 108.579 194.53 196.368 97.6836 97.4066 108.579 51.2477 97.6836 51.2477 210.901 199.205 209.475 94.8605 102.02 96.8467 46.159 237.298 223.043 214.883 109.48 108.881 102.359 48.7016 253.068 237.989 247.081 135.041 128.417 120.684 60.7789 231.014 214.472 208.986 123.848 124.652 117.305 74.2624 212.906 206.055 197.101 97.5934 106.362 97.1673 49.5855 213.866 217.142 223.827 102.67 106.543 108.888 48.008 205.229 197.161 208.765 103.611 107.323 108.254 54.6625 202.575 178.226 179.193 99.4588 97.9062 88.9065 48.9489 198.626 174.618 190.021 93.2009 104.669 89.3191 50.5099 190.81 175.616 191.228 91.8365 93.9568 85.2988 42.691 182.603 175.842 188.005 92.0534 96.8535 90.3173 49.1455 167.062 195.844 180.505 85.3065 85.7494 85.5247 42.9078 157.526 198.487 193.596 82.8201 81.3127 110.32 42.3987 156.706 168.553 159.949 79.6474 76.2137 88.1669 40.4214 170.102 172.596 162.134 91.2803 80.4919 80.3866 39.226 170.586 178.501 164.656 98.3137 89.6099 92.2095 52.0544 155.676 146.776 164.759 83.2964 80.9763 86.2912 46.2593 154.544 129.723 146.241 78.2644 74.7001 60.4853 37.0371 158.224 161.453 147.645 74.164 79.8439 69.2373 41.2273 150.917 170.307 190.456 58.6769 78.3797 92.2156 32.9367 146.94 141.284 159.15 58.7597 72.537 78.0915 25.7401 145.01 139.871 137.479 64.1683 74.4033 63.1923 33.0196 70.6064 76.6786 159.496 31.1487 70.6064 76.6786 31.1487 195.244 87.7884 199.214 182.043 91.703 97.1237 87.7884 46.4359 91.703 46.4359 213.457 198.007 220.676 104.345 107.455 107.511 50.6878 224.666 197.408 197.547 113.562 106.002 90.4964 53.6571 202.998 194.655 192.093 102.948 118.664 106.912 59.9053 175.072 186.89 173.381 90.6241 84.334 87.7431 43.0422 208.023 214.729 190.104 108.461 90.7385 99.1472 47.5818 218.726 220.257 217.939 114.471 117.284 115.582 60.8796 182.728 193.15 199.704 93.5495 101.442 104.676 53.5919 166.638 165.42 179.412 78.7667 81.2865 88.4742 39.9576 182.623 158.362 169.269 81.417 85.3519 76.9462 38.8092 188.423 162.432 174.572 83.7796 97.2715 81.4158 42.6078 185.908 170.966 158.56 83.7886 91.1519 81.0159 41.1717 207.039 202.668 188.576 110.538 94.756 89.9497 42.6169 196.019 204.095 197.249 115.667 112.283 112.718 67.9211 165.378 189.586 167.609 88.9061 83.7357 91.3772 47.7455 156.688 171.467 169.95 81.3157 81.6425 98.2085 41.1606 158.828 159.83 160.898 80.187 75.0457 73.2581 40.1551 155.324 146.451 176.263 63.4801 83.7825 86.572 40.0319 139.343 140.016 147.926 51.4583 71.541 59.8787 23.4482 179.878 180.739 167.602 87.2889 67.8015 80.1374 28.0101 198.689 195.2 189.651 111.63 112.077 100.601 59.2788 149.689 158.128 158.919 82.524 86.6127 94.5985 52.3513 151.966 139.486 133.597 75.7026 63.0761 63.5293 30.1727 88.8897 75.9563 155.572 45.5299 88.8897 75.9563 45.5299 207.475 94.2545 189.891 184.753 93.4812 102.09 94.2545 45.2671 93.4812 45.2671 204.765 182.96 194.614 93.6622 113.22 96.4101 56.8229 164.974 178.557 204.469 83.8456 91.5449 86.5499 36.8392 162.477 173.1 172.854 91.7072 73.4292 92.0068 47.0063 188.413 179.353 175.207 96.2662 89.0474 81.0927 44.7008 200.021 194.395 180.62 106.267 99.3658 98.2598 51.5654 198.917 194.956 187.531 105.786 100.655 96.1349 54.7019 196.387 179.046 185.909 99.6006 98.2617 98.8215 51.084 182.043 165.204 182.468 86.6536 98.1257 80.224 48.5166 161.217 175.963 172.889 76.9451 83.9172 84.98 38.137 144.708 167.219 169.567 78.6522 77.3001 90.9825 38.808 161.228 167.703 155.539 87.177 67.408 76.2369 39.8441 178.785 185.493 180.676 92.1299 93.8201 91.4665 47.3329 168.838 175.895 165.973 88.4287 84.9654 94.0261 44.797 172.18 172.41 159.633 100.679 83.8729 81.8692 43.6316 174.16 159.452 167.905 90.1508 88.3074 90.5405 57.0479 178.333 160.735 163.362 79.6431 85.8523 68.9117 33.103 168.865 162.098 181.361 82.9706 92.4804 91.8236 46.5401 176.185 162.965 150.772 88.5578 76.3846 70.2744 36.4305 177.375 172.572 170.67 93.4497 99.8004 92.6904 52.1273 149.88 152.763 140.961 83.5696 77.5743 79.8816 41.3224 142.827 148.711 151.677 75.6037 72.3062 72.8814 42.2472 137.203 153.205 154.313 63.7829 70.5213 75.8299 33.3566 66.6819 77.375 143.946 30.4264 66.6819 77.375 30.4264 171.893 90.4986 193.338 187.301 92.9511 87.8012 90.4986 48.2141 92.9511 48.2141 194.318 201.748 196.897 89.2978 81.3939 100.387 39.5872 212.349 197.795 219.029 94.7111 112.925 101.362 49.7107 185.585 181.646 209.418 81.3923 99.4247 96.4332 45.0005 167.414 182.891 194.093 83.0863 86.1601 85.2124 36.3919 168.13 195.259 175.839 88.1273 81.2542 97.6789 46.6944 174.523 192.283 198.029 89.1704 86.8759 97.5797 41.4329 171.99 180.508 179.228 79.4449 87.6472 94.7034 47.7375 173.315 187.628 192.353 78.5504 84.3425 85.8051 31.7074 181.239 199.921 197.664 99.0175 88.9721 101.823 46.843 180.397 185.25 188.561 88.5672 92.2667 98.0984 52.1745 174.987 185.72 175.609 80.5263 88.1306 87.1518 36.3927 167.864 202.142 185.433 93.3626 86.8564 98.5678 44.1336 156.767 184.913 192.893 87.4666 81.0073 103.574 49.229 155.357 151.347 171.658 71.7302 75.76 81.3389 38.2376 157.107 143.023 170.64 69.3013 79.5975 70.0083 33.4926 166.39 159.022 156.831 81.0922 77.5092 73.0147 35.8087 163.268 157.099 176.847 79.1274 88.8809 86.0076 45.2836 145.257 153.05 163.42 74.407 74.3871 71.0916 33.8439 134.257 164.468 159.327 79.1223 70.8696 81.9581 40.5631 142.758 163.777 150.981 69.1934 63.3871 82.5096 38.5592 163.163 164.016 163.026 73.1075 79.3713 81.2672 30.6342 161.056 165.18 154.273 89.422 83.7916 82.7487 42.4733 77.264 82.4311 146.547 46.9486 77.264 82.4311 46.9486 212.306 96.8024 205.838 191.967 94.3166 105.537 96.8024 44.7371 94.3166 44.7371 221.607 230.997 213.24 112.451 115.503 111.521 60.7996 216.097 222.019 231.853 103.084 106.104 119.476 51.651 217.926 216.248 221.58 100.253 109.993 102.543 51.4327 202.517 220.108 231.129 99.805 107.933 113.705 48.8205 205.738 223.738 199.686 107.131 94.5846 106.404 50.9845 202.733 210.324 211.873 103.113 111.153 117.334 56.1468 199.591 185.353 189.595 101.064 91.5805 92.9899 46.9658 216.703 186.073 191.362 109.077 108.011 92.3633 54.0977 204.986 197.385 192.749 100.903 108.692 93.7102 54.9795 183.772 209.869 195.138 96.683 96.2939 103.675 45.9239 186.055 209.644 198.119 105.193 87.4784 106.194 50.7591 210.462 206.021 186.281 108.779 98.5767 103.45 54.4342 207.783 205.039 202.289 97.4462 111.886 102.571 54.3448 186.94 193.568 190.642 79.6171 95.8977 102.468 43.1013 170.364 187.248 196.644 73.7217 91.0424 91.1005 36.5157 167.288 185.182 169.675 77.93 79.3219 96.1471 37.206 176.998 169.189 180.516 77.9718 87.9657 89.0354 40.724 177.489 157.81 181.175 78.6428 89.0324 80.1538 37.2478 176.051 157.79 174.46 85.3454 88.457 77.656 41.395 171.249 169.414 173.722 94.5834 87.5943 80.1337 43.9504 154.135 160.045 165.905 90.9084 83.6543 89.28 50.633 139.764 142.956 131.21 75.7579 70.4812 70.7653 40.2754 69.2828 72.1908 139.101 35.4825 69.2828 72.1908 35.4825 192.901 95.1642 224.16 216.176 105.276 100.301 95.1642 49.5795 105.276 49.5795 223.486 253.614 234.309 118.546 97.7367 118.885 50.7213 237.335 263.249 259.801 118.935 125.749 134.73 67.8246 234.783 254.47 240.648 115.995 111.586 128.519 51.1105 228.298 247.447 236.536 120.303 123.196 125.951 64.8842 205.822 247.664 238.889 116.607 105.101 121.496 55.4191 198.735 227.977 212.932 107.212 100.72 126.168 61.1875 181.366 198.919 204.668 84.2896 98.0147 101.809 46.0241 167.408 185.735 199.969 76.9963 83.3515 97.1104 38.2656 182.9 197.05 189.39 96.4819 84.0565 88.6249 38.7307 209.485 200.246 204.363 113.186 98.8438 108.425 57.7512 198.345 178.248 188.716 104.451 110.641 91.8207 55.4353 178.108 193.188 166.867 97.2416 87.7043 86.4275 49.0153 185.148 211.922 195.592 107.593 90.4036 106.76 48.2263 200.346 208.797 183.983 113.951 94.7443 105.161 59.3664 195.955 215.97 203.577 113.526 105.602 103.636 54.5847 182.903 204.675 197.466 107.252 90.3533 112.334 58.9411 184.693 166.727 173.728 91.2174 92.5502 92.3409 48.3113 178.146 149.284 158.93 79.1671 92.1427 74.3857 42.9061 172.131 143.86 159.874 72.4443 86.003 74.8984 36.261 168.379 160.004 153.712 74.8303 86.1277 68.9621 36.1833 142.98 171.614 178.822 69.137 82.251 91.0422 38.647 130.547 147.54 167.095 67.1983 60.7292 80.5723 30.4899 69.8183 66.9676 131.099 36.7084 69.8183 66.9676 36.7084 257.584 121.011 123.859 121.011 55.6962 123.859 121.011 55.6962 55.6962 55.6962 270.624 135.068 136.572 135.068 136.572 68.1632 68.1632 263.113 144.313 134.052 144.313 134.052 66.905 66.905 242.401 138.475 129.062 138.475 129.062 77.4084 77.4084 247.127 127.143 113.339 127.143 113.339 61.0667 61.0667 246 131.058 133.788 131.058 133.788 66.0766 66.0766 218.866 120.765 112.212 120.765 112.212 64.981 64.981 223.271 114.629 106.654 114.629 106.654 55.7844 55.7844 221.951 108.739 116.617 108.739 116.617 58.8448 58.8448 210.853 100.568 105.334 100.568 105.334 49.8942 49.8942 183.594 87.0594 105.519 87.0594 105.519 50.674 50.674 157.237 73.7976 78.0746 73.7976 78.0746 36.3854 36.3854 184.351 95.9461 79.1622 95.9461 79.1622 37.4122 37.4122 194.427 104.329 105.189 104.329 105.189 58.5339 58.5339 187.214 94.8459 89.2383 94.8459 89.2383 45.795 45.795 205.089 102.444 97.9756 102.444 97.9756 49.0509 49.0509 188.29 97.4227 107.113 97.4227 107.113 53.3931 53.3931 147.964 75.5092 81.1774 75.5092 81.1774 44.0296 44.0296 140.658 70.117 66.7871 70.117 66.7871 31.4796 31.4796 141.455 71.4162 73.871 71.4162 73.871 38.6374 38.6374 164.155 85.174 67.5843 85.174 67.5843 32.7788 32.7788 202.937 102.477 96.5708 102.477 96.5708 52.3951 52.3951 167.647 80.3416 106.366 80.3416 106.366 50.0823 50.0823 61.2803 30.2593 61.2803 30.2593 61.2803 30.2593 30.2593 143.862 135.042 75.6977 273.813 135.042 257.055 236.979 133.029 75.6977 143.862 135.042 75.6977 133.029 75.6977 140.353 138.771 272.192 256.394 258.904 68.1647 140.353 138.771 124.026 68.1647 131.544 133.422 252.024 259.361 265.083 72.1884 131.544 133.422 132.368 72.1884 128.061 118.602 255.013 246.088 243.033 59.3552 128.061 118.602 126.993 59.3552 134.265 136.411 270.64 241.431 230.795 68.7059 134.265 136.411 119.095 68.7059 125.601 134.229 251.02 240.913 242.21 65.5591 125.601 134.229 122.336 65.5591 117.933 116.791 220.24 229.129 227.666 60.0418 117.933 116.791 118.577 60.0418 118.968 103.449 220.382 220.586 212.311 57.8914 118.968 103.449 110.552 57.8914 111.071 116.933 222.908 214.188 211.134 61.0766 111.071 116.933 110.034 61.0766 89.91 105.975 193.368 195.335 205.238 49.9949 89.91 105.975 104.154 49.9949 76.4413 87.3926 181.546 175.415 187.635 39.9151 76.4413 87.3926 91.181 39.9151 68.8655 94.153 166.761 159.415 192.15 36.5262 68.8655 94.153 84.2342 36.5262 92.3007 72.6083 168.868 174.056 173.161 32.3393 92.3007 72.6083 75.1808 32.3393 91.2279 96.2597 166.286 165.934 164.676 59.9615 91.2279 96.2597 98.8754 59.9615 84.2146 70.0258 156.234 161.273 157.543 31.2665 84.2146 70.0258 67.0588 31.2665 80.5952 86.2077 142.042 159.417 158.885 52.9481 80.5952 86.2077 94.2141 52.9481 56.4445 55.8344 130.72 128.717 126.609 27.6471 56.4445 55.8344 65.2026 27.6471 61.4355 74.886 146.588 133.815 145.018 28.7974 61.4355 74.886 63.5144 28.7974 65.9392 71.7015 136.294 142.219 151.717 32.6381 65.9392 71.7015 70.301 32.6381 82.4437 64.5923 151.254 166.503 159.097 33.3011 82.4437 64.5923 71.9177 33.3011 87.9667 86.6617 171.853 180.207 170.188 49.1426 87.9667 86.6617 94.5856 49.1426 82.3944 85.1912 160.811 170.575 173.597 38.8241 82.3944 85.1912 85.6211 38.8241 84.3349 75.6193 147.981 165.176 144.071 43.5702 84.3349 75.6193 84.9539 43.5702 40.7647 72.3614 72.3614 80.2224 148.168 40.7647 40.7647 72.3614 80.2224 40.7647 222.071 101.938 211.313 191.012 98.684 113.193 101.938 57.3316 98.684 57.3316 251.795 225.153 244.9 116.04 120.134 112.629 55.8612 256.092 238.921 236.996 127.817 131.662 112.524 60.1793 218.816 218.078 234.12 118.027 124.431 126.397 67.638 202.365 191.614 184.091 107.166 94.3849 91.6809 50.3892 218.856 214.873 198.714 115.312 107.981 99.9335 56.7768 219.737 215.45 207.028 111.196 110.875 114.94 58.5353 203.063 190.797 202.649 101.618 108.862 100.51 52.6606 193.464 190.988 175.091 103.116 94.201 90.2862 48.9573 199.505 206.631 200.365 105.425 99.2628 100.701 54.1588 198.24 203.618 197.429 98.9739 100.242 105.93 51.2659 198.55 192.669 186.608 90.5496 97.9974 97.6881 47.708 168.969 178.257 200.278 81.7556 100.552 94.9807 42.8416 155.934 155.059 169.59 74.7063 68.4165 83.276 38.914 160.194 153.53 169.819 77.0583 87.5171 71.7825 35.7923 143.452 154.194 156.559 78.8215 72.6771 81.7479 41.266 140.907 150.914 139.354 72.2725 70.775 72.4461 37.5556 150.148 164.223 155.022 72.3799 70.1321 78.4676 34.717 174.521 164.164 160.367 76.2795 80.0158 85.7558 37.6629 178.032 176.649 181.848 84.0595 94.5049 78.408 38.6166 171.932 179.299 182.79 92.2399 83.5267 98.2407 45.4429 156.857 155.345 175.266 88.1806 88.4054 81.0583 46.7969 144.258 157.105 147.474 80.8414 68.4515 74.287 41.3837 75.8065 82.8175 151.439 39.4577 75.8065 82.8175 39.4577 213.841 89.0744 203.505 200.065 90.3398 98.12 89.0744 41.3524 90.3398 41.3524 230.101 220.215 223.035 109.112 124.766 113.165 56.7675 215.024 192.232 197.827 111.104 105.335 107.051 52.3448 199.395 170.82 173.461 100.05 109.689 85.1816 58.7587 180.439 176.595 184.901 84.4484 89.7058 85.6383 41.2917 186.886 193.315 173.448 99.5613 90.7332 90.9571 43.1567 189.94 197.385 200.213 104.255 96.1529 102.358 56.4046 174.677 185.966 184.831 89.1788 93.7869 95.0276 47.8499 181.993 183.261 180.212 87.8716 80.8904 90.9379 41.3289 198.289 185.479 188.922 101.206 101.103 92.3229 46.5427 185.797 170.7 182.652 104.644 97.1864 93.1557 54.6637 188.335 176.17 156.452 102.119 88.6104 77.544 49.9802 200.899 183.157 195.228 96.5012 99.725 98.6264 52.1392 183.475 160.762 197.904 80.3522 101.174 84.5304 44.362 166.183 147.973 169.988 76.4722 82.3017 76.2315 35.9902 152.461 159.381 154.635 75.3725 83.8817 71.7415 40.482 153.47 177.331 162.694 78.6412 68.5795 87.6399 34.8906 165.241 177.738 178.531 91.8435 84.8901 89.691 43.7506 167.695 175.511 159.723 87.8843 80.3513 88.0469 48.0928 186.606 176.514 168.703 92.5892 87.3432 87.4646 39.7914 186.124 153.37 171.753 87.0591 99.263 89.0496 52.7977 165.883 134.388 160.707 67.1647 86.8605 64.3204 34.2614 154.656 149.683 149.07 76.2632 79.0228 70.0681 32.9034 75.6328 79.6153 143.709 43.3598 75.6328 79.6153 43.3598 209.259 110.99 189.476 201.876 91.272 105.385 110.99 48.9874 91.272 48.9874 190.76 216.124 183.933 111.103 98.2686 98.2041 56.3973 156.264 198.767 208.108 81.1285 92.4918 117.92 54.7057 158.967 174.962 156.291 70.7694 63.772 80.8471 26.4229 177.91 176.475 187.081 92.1469 95.1953 94.1147 44.3465 186.775 173.756 163.282 93.7536 82.7151 82.3602 47.8004 195.105 178.483 189.164 93.1309 104.06 91.3961 45.9532 190.366 189.331 182.167 96.7868 91.0445 87.0874 47.1777 187.141 190.153 203.861 95.3892 99.3214 102.244 49.609 173.285 166.494 169.491 84.2722 87.8194 87.9093 45.7802 153.307 157.886 173.342 66.0558 85.4651 78.5843 38.492 163.345 168.512 158.234 74.051 67.842 79.3017 27.5638 192.234 161.157 183.593 86.6556 95.503 89.21 46.4872 184.417 149.71 174.318 80.4097 96.7305 71.9466 40.1684 158.44 155.128 178.201 71.5008 87.6865 77.7637 40.2413 164.868 171.814 162.854 84.0089 70.7536 77.3644 31.2595 187.755 183.988 184.831 98.6897 94.114 94.4499 52.7493 173.013 170.035 181.492 85.8944 93.6413 89.5377 45.9403 160.732 158.477 163.443 87.6272 79.3721 80.4973 39.9541 153.85 139.059 145.003 83.925 81.3601 77.9797 47.6731 146.337 139.876 145.447 66.3109 72.4903 61.0798 36.2519 143.894 157.279 152.637 67.2237 73.8468 78.7961 30.059 138.124 145.054 140.699 73.4202 70.0472 78.483 37.1647 68.0765 66.5708 132.031 36.2555 68.0765 66.5708 36.2555 176.55 90.8854 190.86 193.469 94.3499 84.0913 90.8854 42.2846 94.3499 42.2846 201.28 214.177 199.141 105.021 85.6642 96.5102 41.8068 208.136 230.652 220.264 117.638 115.616 117.667 63.2139 184.405 221.865 195.144 104.192 92.5193 112.985 54.4242 172.453 187.04 201.407 84.328 91.8856 108.88 49.7682 165.671 178.609 171.967 80.0027 80.5671 78.1599 34.5598 176.227 184.973 195.024 85.3526 85.1043 100.449 45.443 195.662 191.072 179.866 92.5447 91.1223 84.5243 39.9096 186.211 202.39 196.488 94.7642 104.539 106.548 52.6351 169.548 186.304 186.606 82.2213 81.6715 95.8419 42.1291 178.268 178.919 182.058 91.8302 87.8765 90.4622 40.0922 178.482 175.322 178.704 94.4607 90.3915 88.4572 51.7379 165.677 176.184 176.474 74.501 88.0901 86.8653 42.7228 168.102 179.638 184.242 69.3006 77.5873 89.3191 31.7782 182.616 190.95 191.918 83.6273 90.515 90.3188 37.5224 182.817 184.448 191.662 87.8055 92.1007 100.632 46.1049 178.567 174.655 193.187 85.2979 90.7166 83.8164 41.7005 171.921 183.167 175.02 84.1406 87.8503 90.839 43.5974 147.714 169.696 182.012 70.8498 84.0706 92.3279 40.5433 136.6 145.84 149.963 55.1344 63.6433 77.3685 30.3065 151.746 150.23 159.989 73.565 72.9563 68.4718 24.8279 149.442 153.283 146.765 90.0554 78.79 81.7584 48.7371 134.607 135.64 152.618 71.6336 70.6522 71.5241 41.3183 63.9545 64.1157 127.749 30.3153 63.9545 64.1157 30.3153 216.06 102.584 199.369 204.381 97.65 106.769 102.584 52.0654 97.65 52.0654 218.124 214.096 205.799 109.156 113.476 101.719 54.7035 207.272 231.414 231.692 113.014 104.647 112.377 54.453 212.146 236.461 220.801 117.673 102.625 119.037 58.5606 200.921 210.707 221.635 102.712 109.521 117.425 59.1123 201.319 187.822 203.293 98.6064 91.3995 93.2823 43.6002 198.663 191.144 201.58 99.6209 109.919 94.5392 55.0062 180.693 195.604 199.836 98.5276 88.7441 96.6052 44.6147 196.883 198.038 192.776 107.626 91.9488 98.999 53.913 199.116 190.501 210.032 104.083 104.934 99.0386 53.7128 182.494 183.388 180.195 87.0892 94.1819 91.4626 50.3699 176.696 174.757 189.944 80.8618 88.3122 91.9251 36.7193 195.039 182.55 186.042 101.683 88.384 82.8315 44.1425 208.058 187.892 204.283 110.337 106.655 99.7182 57.5409 200.964 193.718 187.174 107.323 101.403 88.1742 52.7964 202.031 179.072 194.786 96.6425 99.5611 105.543 54.5267 189.64 165.009 171.999 89.3575 102.47 73.5281 42.1159 185.111 192.502 185.25 99.0263 87.1701 91.4805 47.2416 184.261 197.825 191.385 98.8466 97.9413 101.021 51.7846 173.352 190.392 180.278 90.7059 86.3199 96.804 47.062 155.007 170.214 177.237 76.6652 87.0323 93.5883 43.6439 149.941 137.07 143.628 63.2271 67.9752 76.6253 33.0213 145.76 127.355 146.977 64.0061 81.9656 60.445 30.2058 63.7947 66.9102 136.053 33.8004 63.7947 66.9102 33.8004 194.12 101.797 226.324 234.44 110.9 92.6001 101.797 45.5847 110.9 45.5847 219.367 240.495 221.243 104.94 92.3227 115.424 47.0154 245.22 237.2 255.618 118.4 127.044 125.071 57.9244 230.29 222.714 235.066 118.788 118.176 112.129 60.4759 224.007 227.978 237.051 107.994 112.114 110.585 58.3122 203.554 204.157 245.611 89.2151 111.893 117.393 49.6821 202.752 189.624 199.526 91.5236 91.6604 86.764 39.533 211.919 205.718 211.816 97.0766 111.092 102.86 51.9906 205.924 203.624 209.722 90.4118 100.827 102.858 45.086 191.11 196.703 212.129 86.4185 105.097 100.765 45.3258 187.645 192.833 184.419 96.2984 86.0131 95.9381 41.0927 199.289 177.334 194.288 93.8948 101.632 96.8949 55.2058 195.286 169.271 191.144 80.8663 97.6575 80.439 38.689 183.399 167.653 179.161 77.5552 97.6283 88.8321 42.1773 180.995 178.763 174.782 86.3947 85.7707 78.8211 35.3778 164.754 185.074 183.326 82.429 95.2248 99.9415 51.0168 167.609 166.519 171.601 75.651 69.5291 85.132 31.4122 191.523 165.931 181.003 93.4756 98.0797 81.3867 44.2389 187.401 169.52 180.156 98.9787 93.4438 84.5442 49.2367 184.162 169.726 169.792 99.6864 93.9577 84.9757 49.742 165.857 172.53 173.238 93.5484 90.2047 84.7499 49.9444 140.664 174.303 151.111 73.8433 75.6524 87.7796 43.604 137.269 150.654 158.908 63.3491 65.0115 86.5232 30.2392 72.2579 64.1309 142.162 33.1099 72.2579 64.1309 33.1099 261.563 132.643 133.724 132.643 65.3153 133.724 132.643 65.3153 65.3153 65.3153 257.494 135.556 128.92 135.556 128.92 68.4091 68.4091 245.464 118.8 128.574 118.8 128.574 67.1465 67.1465 241.828 103.926 116.89 103.926 116.89 51.6533 51.6533 258.655 119.984 124.938 119.984 124.938 52.2727 52.2727 241.584 114.942 133.718 114.942 133.718 67.711 67.711 208.59 98.1001 107.866 98.1001 107.866 47.231 47.231 209.619 108.642 100.724 108.642 100.724 50.8691 50.8691 215.926 113.212 108.895 113.212 108.895 57.7725 57.7725 205.437 110.285 107.031 110.285 107.031 55.4394 55.4394 191.061 96.5346 98.4055 96.5346 98.4055 54.8455 54.8455 186.143 83.4391 92.6559 83.4391 92.6559 41.6891 41.6891 175.02 88.4048 93.4869 88.4048 93.4869 41.75 41.75 170.545 90.098 81.5331 90.098 81.5331 46.6548 46.6548 177.113 92.368 89.0115 92.368 89.0115 43.4433 43.4433 190.174 102.645 88.1015 102.645 88.1015 48.9247 48.9247 184.996 90.8677 102.072 90.8677 102.072 53.7199 53.7199 169.636 72.4553 82.9236 72.4553 82.9236 37.1478 37.1478 162.547 70.5411 86.7125 70.5411 86.7125 35.3075 35.3075 158.867 70.0391 75.8345 70.0391 75.8345 35.2337 35.2337 158.492 78.9811 83.0329 78.9811 83.0329 34.8055 34.8055 169.355 100.46 75.4589 100.46 75.4589 44.1756 44.1756 163.801 87.305 93.8963 87.305 93.8963 56.2839 56.2839 69.9044 31.0211 69.9044 31.0211 69.9044 31.0211 31.0211 129.95 136.222 59.3443 266.213 136.222 238.829 235.53 103.95 59.3443 129.95 136.222 59.3443 103.95 59.3443 131.839 129.99 252.726 267.594 261.453 70.6059 131.839 129.99 134.879 70.6059 120.48 122.735 243.271 248.755 253.783 61.2331 120.48 122.735 132.715 61.2331 126.952 120.536 244.679 227.74 236.654 59.2471 126.952 120.536 116.04 59.2471 136.375 124.144 251.458 231.574 221.718 67.7046 136.375 124.144 111.7 67.7046 125.419 127.315 249.594 228.963 234.915 68.6699 125.419 127.315 119.874 68.6699 102.307 122.279 212.745 210.848 229.542 56.7492 102.307 122.279 109.089 56.7492 101.414 90.4653 217.843 202.859 195.907 45.5575 101.414 90.4653 101.759 45.5575 111.837 127.378 233.937 202.185 229.362 55.8567 111.837 127.378 101.1 55.8567 103.458 106.56 196.383 197.538 195.901 55.9802 103.458 106.56 101.084 55.9802 105.104 89.8234 204.478 204.37 191.111 47.4775 105.104 89.8234 96.4539 47.4775 97.8959 114.655 205.268 205.896 201.863 57.6268 97.8959 114.655 107.916 57.6268 76.5674 90.6129 179.338 163.781 188.251 40.2691 76.5674 90.6129 97.98 40.2691 75.0576 88.725 167.363 156.285 160.47 36.2983 75.0576 88.725 65.8008 36.2983 72.0189 78.6379 160.653 155.155 173.789 38.7593 72.0189 78.6379 90.4841 38.7593 61.4469 82.015 146.364 126.077 152.111 33.2596 61.4469 82.015 64.6707 33.2596 74.2759 64.3488 146.135 142.91 143.527 28.1873 74.2759 64.3488 61.4067 28.1873 85.1521 81.786 152.214 162.92 162.228 46.0886 85.1521 81.786 81.5038 46.0886 70.3546 70.4285 145.544 168.596 149.355 39.0635 70.3546 70.4285 81.4163 39.0635 68.8102 75.116 159.085 162.782 156.627 31.2912 68.8102 75.116 87.1795 31.2912 83.8861 83.9689 172.436 163.578 166.103 37.5191 83.8861 83.9689 75.6029 37.5191 78.4162 88.4668 161.755 147.092 165.517 46.3671 78.4162 88.4668 87.9755 46.3671 63.6458 73.288 164.689 127.062 135.007 32.0491 63.6458 73.288 59.1169 32.0491 31.5967 91.4006 91.4006 67.9455 161.805 31.5967 31.5967 91.4006 67.9455 31.5967 230.77 99.3076 224.599 188.506 92.3279 108.879 99.3076 44.6059 92.3279 44.6059 262.51 256.743 273.79 135.755 131.463 132.271 64.2726 247.166 232.195 230.001 128.275 131.047 124.472 71.4822 213.693 200.133 213.037 100.788 116.119 107.723 56.7927 205.175 191.19 200.008 95.1994 97.5744 92.4098 43.9957 214.863 190.868 196.118 103.543 107.601 98.7802 51.2037 212.704 194.226 198.707 108.541 107.263 92.088 52.3397 207.426 186.943 206.049 101.445 105.442 102.138 56.2013 191.326 184.469 182.587 90.3476 101.984 84.8051 45.2436 190.63 191.163 199.235 94.0804 89.342 99.664 45.104 188.495 180.419 196.63 99.2658 101.288 91.4992 48.9764 184.846 194.216 169.856 108 87.2074 88.9196 50.2894 169.384 191.611 189.981 87.2134 97.6382 105.297 57.7109 166.896 184.35 175.689 81.2273 71.7454 86.3141 29.5025 165.247 172.847 193.532 83.1359 95.1509 98.0362 51.7248 149.274 141.719 149.261 64.6305 70.0961 74.8109 31.4111 159.62 143.463 161.076 68.6345 79.1783 66.9083 33.2194 159.368 151.166 162.891 77.7679 80.4419 76.5546 35.4151 160.437 178.051 138.755 98.2411 78.9264 74.6113 42.3528 163.645 187.989 159.82 93.9721 81.5105 103.44 55.8883 159.184 178.757 175.517 79.6923 82.1341 84.5491 38.0838 138.769 167.395 168.609 68.6763 77.0499 94.2075 41.6085 132.123 141.809 134.166 63.4166 61.7193 73.1872 27.0678 70.404 68.6218 135.943 36.3488 70.404 68.6218 36.3488 231.525 89.198 219.595 192.609 109.725 115.721 89.198 47.722 109.725 47.722 241.28 200.646 232.126 120.989 142.327 109.87 67.9987 195.872 179.056 186.625 103.921 98.9534 90.776 52.9899 199.353 187.543 178.822 99.3448 96.919 88.2798 50.9307 190.951 181.754 196.798 95.9906 102.434 99.2628 48.4141 179.962 180.346 176.093 87.3248 88.5176 82.4912 47.5765 192.052 187.659 190.495 85.6852 91.4446 97.8553 39.7483 181.21 179.078 196.714 85.4984 100.607 89.8037 45.9369 190.495 185.873 172.323 94.1215 80.6026 89.2739 39.5615 205.235 186.095 192.778 97.0828 109.893 96.5993 54.56 177.992 168.404 188.723 81.153 95.3426 89.4959 42.5228 174.992 175.51 174.085 86.2161 82.649 78.9084 38.6302 196.286 209.975 190.082 104.397 92.3428 96.6017 47.5859 202.324 207.13 204.174 103.123 103.943 113.374 56.8116 177.546 176.65 188.145 89.7112 98.3812 93.7566 46.3115 161.062 157.947 162.28 77.0887 79.1649 82.8938 43.3998 164.347 163.894 171.802 74.8284 81.8974 75.0536 33.6889 142.278 160.517 166.353 73.3979 82.4493 88.8404 41.1394 138.138 152.915 154.546 79.8103 59.8285 71.6765 32.2585 171.692 163.942 150.991 94.0171 78.31 81.2387 47.5518 184.941 179.091 179.776 99.0644 93.3825 82.7037 46.4653 164.005 175.389 172.813 98.7185 91.5588 96.3869 52.5991 137.986 143.096 140.69 78.3924 72.4466 79.0019 46.1194 65.5391 64.094 139.333 32.273 65.5391 64.094 32.273 193.21 103.411 196.332 176.536 110.604 103.874 103.411 62.0028 110.604 62.0028 177.47 175.917 185.365 79.6575 89.7989 85.7287 41.8713 169.575 165.633 179.465 75.1353 87.6714 90.1885 37.7861 176.268 168.41 158.771 88.1979 81.9034 75.4442 37.3491 181.94 173.888 185.894 85.7634 94.3644 92.9661 50.8487 186.626 178.69 186.477 93.0217 87.5755 80.922 34.9147 195.157 192.848 182.657 101.974 99.0501 97.7683 58.107 187.827 196.696 198.514 93.5792 96.1069 95.0795 43.8668 174.605 183.198 183.228 91.7517 91.7199 101.617 49.7124 176.265 176.339 161.132 89.0123 82.8854 81.5816 42.0393 184.816 173.689 176.706 87.2513 93.38 94.7574 46.9731 189.175 173.315 177.742 89.294 91.4357 78.9318 40.2782 197.971 196.754 178.885 105.578 97.7395 94.3831 49.0158 189.995 202.809 182.97 104.007 100.231 102.371 56.5622 172.879 185.928 185.699 86.9392 89.7639 100.438 47.4452 173.02 175.871 155.304 80.8587 83.1153 85.4898 39.494 173.808 182.335 174.963 89.0657 89.9044 90.3807 41.3647 178.621 174.899 165.365 87.119 83.9039 91.9539 47.701 167.399 149.969 182.973 73.105 94.7173 82.9454 39.418 159.075 151.391 149.111 69.9254 72.6814 67.0237 33.687 167.648 158.208 163.502 80.0262 86.3937 84.3669 36.2384 149.498 136.057 146.533 76.6704 81.2541 73.8407 43.7878 142.037 127.677 139.082 64.7036 68.2435 62.2164 32.8825 73.7935 65.4602 150.61 31.8211 73.7935 65.4602 31.8211 168.691 73.1243 201.75 174.425 99.1192 92.4582 73.1243 48.6008 99.1192 48.6008 187.36 205.227 215.578 96.2598 95.5666 102.63 43.8574 168.661 184.756 191.951 90.4975 91.7938 102.597 52.4024 168.397 174.686 160.276 80.2125 76.8672 82.1594 38.0951 190.431 186.333 194.02 88.1247 91.5296 92.5266 42.1174 182.508 188.381 194.195 85.6686 98.9011 93.8066 46.0073 186.014 189.917 180.028 90.874 83.6073 94.5745 39.6613 193.915 185.282 200.925 103.117 102.407 95.3421 51.2127 169.755 180.704 184.484 91.4465 91.5084 89.94 51.9042 161.572 182.36 161.659 87.3266 78.2467 90.764 39.5424 169.632 181.843 174.387 86.4379 83.3255 91.5963 47.7843 167.453 179.855 182.804 84.0209 86.3067 90.2465 38.6536 163.885 184.532 180.463 91.1764 81.1459 89.6088 45.3673 178.674 196.523 168.949 98.8017 82.7388 94.9233 45.8091 168.124 192.629 202.065 98.9884 95.9351 101.599 52.9926 157.247 200.4 162.777 95.0118 72.1888 91.0302 45.9958 166.52 193.552 201.157 93.2689 85.0585 109.37 49.016 169.718 173.865 172.266 87.7803 81.4616 84.1814 44.2529 164.685 162.279 176.288 76.8641 88.2562 89.684 43.5274 153.537 164.111 149.267 81.4651 76.4292 72.5947 33.3367 142.387 156.524 179.693 78.1813 77.108 91.5168 48.1284 136.117 146.1 139.972 59.3867 65.2791 65.0068 30.0528 147.655 144.727 162.365 62.973 70.8383 81.0937 29.3339 76.8166 63.6334 144.137 33.6391 76.8166 63.6334 33.6391 221.312 101.3 210.811 196.45 106.731 109.291 101.3 50.5184 106.731 50.5184 220.169 223.395 214.294 108.967 120.011 104.08 58.773 183.566 221.078 216.868 94.2587 100.157 119.314 50.1944 185.899 205.975 195.413 94.4735 83.4086 101.764 44.0643 197.784 214.221 209.851 98.2085 102.491 104.211 50.4092 191.714 217.051 220.849 102.712 95.2936 110.01 47.7993 194.938 210.271 206.624 99.0426 96.4202 107.041 54.9132 191.493 197.007 214.195 82.1653 98.5177 103.231 44.1294 176.388 204.77 193.901 89.2574 92.9755 93.7768 38.0358 174.474 199.726 178.885 95.0336 83.4126 110.993 51.2216 187.559 186.751 187.004 95.4049 91.0616 88.7324 43.812 195.815 201.229 194.118 95.8344 96.4976 98.0189 51.5929 185.527 207.775 207.397 93.3557 99.3174 103.21 44.2415 192.34 203.565 185.366 97.7209 86.2099 104.565 49.1142 196.718 188.242 208.881 93.6411 106.13 98.9996 48.6067 206.688 187.714 182.945 105.389 90.5887 89.2424 45.0344 206.903 192.24 203.511 100.283 116.099 98.4711 60.3542 178.837 184.133 175.978 86.0851 90.8046 93.7693 39.9285 160.87 173.837 183.465 85.4146 88.0323 90.3637 46.1566 175.422 167.122 148.781 82.6463 72.8379 83.4736 39.258 177.277 150.651 184.784 78.3423 102.585 83.6487 43.3884 166.219 153.534 146.847 86.7137 74.6926 67.0023 34.9539 158.847 155.674 177.185 81.7541 91.5267 86.532 51.7598 67.3204 69.1423 159.55 29.9943 67.3204 69.1423 29.9943 189.432 95.1492 229.358 227.914 123.54 101.52 95.1492 56.2122 123.54 56.2122 210.993 236.366 209.522 114.427 94.2828 105.818 45.3073 228.715 253.484 246.718 126.82 116.711 130.547 69.12 219.365 249.403 234.475 111.501 112.004 122.937 57.6998 232.915 254.684 243.974 116.013 107.36 126.466 53.8017 235.759 240.98 259.051 114.338 125.555 128.218 62.2109 225.881 221.718 222.195 111.229 110.204 112.762 52.1275 216.603 215.82 231.833 114.842 115.677 108.956 59.1013 196.398 218.227 204.845 115.512 100.926 106.864 55.741 191.415 199.844 207.591 104.692 95.4721 111.363 59.7715 193.563 185.873 193.419 91.3464 95.9426 88.4804 44.9204 205.699 208.098 196.799 105.395 97.6199 97.3928 46.426 207.236 201.035 206.225 114.42 108.079 110.705 58.9685 201.908 186.29 176.746 105.844 99.1564 90.3294 55.451 195.107 179.346 191.92 94.6008 102.751 95.961 50.3928 179.768 169.854 171.043 82.3249 92.3559 83.3848 44.208 172.585 186.086 182.297 91.9577 87.4123 86.4693 38.1169 180.605 195.229 165.514 98.0479 85.173 99.6166 53.8408 171.376 180.429 185.083 88.4228 95.4322 95.6121 44.2071 158.143 173.304 160.858 84.476 75.9434 84.8165 44.2157 154.354 151.819 169.55 72.3086 82.1995 88.4877 40.2603 157.814 135.716 147.308 66.8206 72.1548 63.3316 32.0483 177.888 150.416 174.399 73.9203 85.6587 72.3846 34.7723 92.2291 78.0314 171.051 39.148 92.2291 78.0314 39.148 248.004 132.765 127.839 132.765 67.3277 127.839 132.765 67.3277 67.3277 67.3277 245.246 121.938 115.239 121.938 115.239 60.5109 60.5109 252.478 126.664 130.007 126.664 130.007 61.4274 61.4274 259.084 137.902 122.471 137.902 122.471 65.2369 65.2369 270.11 138.672 136.614 138.672 136.614 72.6648 72.6648 245.488 126.642 133.496 126.642 133.496 66.0069 66.0069 228.147 110.49 111.991 110.49 111.991 60.635 60.635 220.075 100.977 116.156 100.977 116.156 49.8546 49.8546 216.038 102.715 103.919 102.715 103.919 51.1227 51.1227 209.596 95.1519 112.119 95.1519 112.119 51.5918 51.5918 196.656 94.5268 97.4768 94.5268 97.4768 43.56 43.56 197.325 102.704 99.1792 102.704 99.1792 50.9668 50.9668 175.735 86.6152 98.1456 86.6152 98.1456 51.7368 51.7368 166.758 80.4466 77.5896 80.4466 77.5896 34.8784 34.8784 167.856 84.7451 89.1688 84.7451 89.1688 45.5682 45.5682 173.572 87.5293 78.6874 87.5293 78.6874 39.1769 39.1769 175.225 94.1283 94.8849 94.1283 94.8849 48.3524 48.3524 169.991 97.1809 80.3406 97.1809 80.3406 45.7758 45.7758 174.565 92.0059 89.6506 92.0059 89.6506 51.405 51.405 172.266 88.8283 84.9147 88.8283 84.9147 40.6009 40.6009 162.504 79.5107 87.3508 79.5107 87.3508 48.2274 48.2274 163.894 68.8956 75.1534 68.8956 75.1534 31.2833 31.2833 167.562 76.4957 88.7406 76.4957 88.7406 37.6124 37.6124 78.8219 38.8834 78.8219 38.8834 78.8219 38.8834 38.8834 136.262 76.8781 76.8781 136.262 76.8781 258.154 131.58 131.58 76.8781 136.262 76.8781 76.8781 131.58 76.8781 120.887 59.3842 120.887 247.642 126.574 59.3842 120.887 59.3842 126.574 59.3842 122.791 61.5023 122.791 241.682 121.068 61.5023 122.791 61.5023 121.068 61.5023 117.728 61.2884 117.728 230.632 120.614 61.2884 117.728 61.2884 120.614 61.2884 115.084 56.4392 115.084 225.06 110.018 56.4392 115.084 56.4392 110.018 56.4392 124.175 58.6447 124.175 235.495 115.042 58.6447 124.175 58.6447 115.042 58.6447 110.438 65.5302 110.438 214.601 120.453 65.5302 110.438 65.5302 120.453 65.5302 116.429 44.9078 116.429 222.41 94.1483 44.9078 116.429 44.9078 94.1483 44.9078 122.1 71.5208 122.1 223.079 128.262 71.5208 122.1 71.5208 128.262 71.5208 92.9252 50.5793 92.9252 189.475 94.8173 50.5793 92.9252 50.5793 94.8173 50.5793 99.3742 42.3459 99.3742 188.604 94.6573 42.3459 99.3742 42.3459 94.6573 42.3459 107.372 57.0283 107.372 184.217 93.9464 57.0283 107.372 57.0283 93.9464 57.0283 102.771 50.3438 102.771 184.941 90.2711 50.3438 102.771 50.3438 90.2711 50.3438 92.3054 52.4268 92.3054 177.974 94.6697 52.4268 92.3054 52.4268 94.6697 52.4268 88.634 39.8786 88.634 170.745 83.3047 39.8786 88.634 39.8786 83.3047 39.8786 84.9169 48.7554 84.9169 169.561 87.4404 48.7554 84.9169 48.7554 87.4404 48.7554 71.8588 36.1615 71.8588 162.845 82.1204 36.1615 71.8588 36.1615 82.1204 36.1615 67.0623 35.6973 67.0623 148.663 80.7241 35.6973 67.0623 35.6973 80.7241 35.6973 75.1899 31.365 75.1899 137.386 67.9386 31.365 75.1899 31.365 67.9386 31.365 90.2747 43.8248 90.2747 159.947 69.447 43.8248 90.2747 43.8248 69.447 43.8248 88.5495 46.4499 88.5495 168.041 90.5001 46.4499 88.5495 46.4499 90.5001 46.4499 83.3386 42.0997 83.3386 153.431 77.5411 42.0997 83.3386 42.0997 77.5411 42.0997 101.043 41.2389 101.043 169.749 75.8904 41.2389 101.043 41.2389 75.8904 41.2389 59.8038 59.8038 59.8038 93.859 93.859 59.8038 59.8038 59.8038 93.859 59.8038 121.892 54.7017 237.696 96.1778 96.1778 121.892 54.7017 54.7017 96.1778 54.7017 126.755 247.047 141.518 126.755 67.1899 141.518 67.1899 118.891 210.843 105.529 118.891 59.5652 105.529 59.5652 112.904 212.912 105.314 112.904 59.3258 105.314 59.3258 109.976 204.936 107.598 109.976 53.5787 107.598 53.5787 111.32 203.957 97.3381 111.32 56.397 97.3381 56.397 104.163 210.53 106.619 104.163 54.9228 106.619 54.9228 105.981 201.693 103.911 105.981 49.2405 103.911 49.2405 100.979 197.353 97.7819 100.979 56.7408 97.7819 56.7408 96.5494 204.702 99.5707 96.5494 44.238 99.5707 44.238 89.2294 186.068 105.131 89.2294 52.3114 105.131 52.3114 76.8453 165.621 80.9368 76.8453 36.918 80.9368 36.918 82.1702 174.059 84.6843 82.1702 39.9273 84.6843 39.9273 85.669 184.87 89.3744 85.669 42.2429 89.3744 42.2429 82.1111 169.946 95.4959 82.1111 43.4261 95.4959 43.4261 84.6439 168.617 74.4501 84.6439 38.685 74.4501 38.685 90.9857 180.504 94.1673 90.9857 45.9589 94.1673 45.9589 81.6003 150.48 86.3367 81.6003 45.0268 86.3367 45.0268 62.1957 120.524 64.1436 62.1957 36.5735 64.1436 36.5735 69.6725 147.348 56.3804 69.6725 25.6222 56.3804 25.6222 79.4917 165.369 90.9674 79.4917 44.0503 90.9674 44.0503 70.0929 135.38 74.4012 70.0929 35.4414 74.4012 35.4414 68.7067 128.3 60.9787 68.7067 34.6514 60.9787 34.6514 34.0552 67.3214 67.3214 34.0552 34.0552 67.3214 34.0552 115.804 41.4761 205.14 82.8846 82.8846 115.804 41.4761 41.4761 82.8846 41.4761 120.292 218.105 122.256 120.292 74.3283 122.256 74.3283 91.9519 186.391 95.8488 91.9519 45.9636 95.8488 45.9636 100.008 188.078 90.5425 100.008 45.9883 90.5425 45.9883 94.9605 191.137 97.5351 94.9605 54.0195 97.5351 54.0195 92.6373 186.241 93.6019 92.6373 40.9411 93.6019 40.9411 106.366 199.55 92.6394 106.366 51.6963 92.6394 51.6963 95.7113 189.959 106.91 95.7113 54.6701 106.91 54.6701 96.3739 179.228 83.0487 96.3739 41.0412 83.0487 41.0412 108.152 195.406 96.1788 108.152 55.3327 96.1788 55.3327 96.8386 194.403 99.2267 96.8386 52.8198 99.2267 52.8198 88.7758 188.657 95.1763 88.7758 44.0188 95.1763 44.0188 91.8885 184.281 93.4806 91.8885 44.757 93.4806 44.757 99.2013 185.189 90.8005 99.2013 47.1315 90.8005 47.1315 87.8349 173.775 94.3885 87.8349 52.0698 94.3885 52.0698 83.9736 176.135 79.3865 83.9736 35.7652 79.3865 35.7652 89.5184 174.261 96.7482 89.5184 48.2085 96.7482 48.2085 68.8799 160.382 77.5128 68.8799 41.3099 77.5128 41.3099 58.3282 152.622 82.8693 58.3282 27.57 82.8693 27.57 77.6753 166.825 69.7527 77.6753 30.7582 69.7527 30.7582 85.8769 173.498 97.0725 85.8769 46.9172 97.0725 46.9172 65.287 138.114 76.426 65.287 38.9597 76.426 38.9597 59.5934 136.927 61.6882 59.5934 26.3272 61.6882 26.3272 33.2662 75.2386 75.2386 33.2662 33.2662 75.2386 33.2662 89.3361 41.4085 165.569 65.932 65.932 89.3361 41.4085 41.4085 65.932 41.4085 97.8128 188.913 99.6368 97.8128 47.9276 99.6368 47.9276 94.4395 172.603 89.2767 94.4395 49.8853 89.2767 49.8853 88.0699 176.254 83.3264 88.0699 44.5542 83.3264 44.5542 96.1764 198.482 92.9278 96.1764 43.5156 92.9278 43.5156 93.6039 190.444 105.555 93.6039 52.6608 105.555 52.6608 93.1833 188.323 84.8891 93.1833 40.9431 84.8891 40.9431 94.2477 185.046 103.434 94.2477 52.2402 103.434 52.2402 82.8537 161.162 81.6118 82.8537 42.0075 81.6118 42.0075 87.2531 161.499 79.5505 87.2531 40.8461 79.5505 40.8461 97.5644 180.759 81.9482 97.5644 46.4069 81.9482 46.4069 99.8811 183.313 98.8106 99.8811 51.1575 98.8106 51.1575 92.3927 165.101 84.5023 92.3927 48.7237 84.5023 48.7237 85.9877 165.86 80.5987 85.9877 43.669 80.5987 43.669 85.94 155.076 85.2612 85.94 42.3187 85.2612 42.3187 92.161 154.397 69.8143 92.161 43.6213 69.8143 43.6213 84.7426 157.994 84.5823 84.7426 48.5397 84.5823 48.5397 91.5022 173.44 73.4116 91.5022 36.2029 73.4116 36.2029 94.2937 182.115 100.028 94.2937 55.2992 100.028 55.2992 89.1498 161.222 82.087 89.1498 38.9945 82.087 38.9945 87.6215 151.827 79.1349 87.6215 50.1553 79.1349 50.1553 72.8272 149.558 72.6924 72.8272 37.4662 72.6924 37.4662 77.3334 162.015 76.8654 77.3334 35.361 76.8654 35.361 41.9725 85.1499 85.1499 41.9725 41.9725 85.1499 41.9725 76.2327 24.5235 188.253 75.3055 75.3055 76.2327 24.5235 24.5235 75.3055 24.5235 91.1006 202.302 112.947 91.1006 51.7092 112.947 51.7092 78.1636 167.471 89.3544 78.1636 39.3914 89.3544 39.3914 88.1843 179.61 78.1165 88.1843 38.7722 78.1165 38.7722 102.306 201.882 101.494 102.306 49.4122 101.494 49.4122 96.8398 185.841 100.388 96.8398 52.8938 100.388 52.8938 95.1402 191.035 85.4531 95.1402 43.946 85.4531 43.946 90.7984 200.126 105.582 90.7984 51.1942 105.582 51.1942 78.3086 165.439 94.5439 78.3086 39.6043 94.5439 39.6043 74.2457 153.686 70.8954 74.2457 38.7044 70.8954 38.7044 83.1944 175.349 82.7908 83.1944 35.5413 82.7908 35.5413 83.4317 183.412 92.5578 83.4317 47.6531 92.5578 47.6531 72.7083 164.88 90.8545 72.7083 35.7786 90.8545 35.7786 79.8722 174.491 74.0253 79.8722 36.9297 74.0253 36.9297 69.1355 172.213 100.466 69.1355 42.9425 100.466 42.9425 62.2355 163.535 71.7473 62.2355 26.193 71.7473 26.193 73.2512 179.872 91.7872 73.2512 36.0425 91.7872 36.0425 81.9375 174.689 88.0847 81.9375 37.2086 88.0847 37.2086 87.8213 163.277 86.6045 87.8213 44.7288 86.6045 44.7288 72.072 164.848 76.6724 72.072 43.0925 76.6724 43.0925 64.2058 163.141 88.1758 64.2058 28.9796 88.1758 28.9796 76.7306 156.236 74.9649 76.7306 35.2262 74.9649 35.2262 84.6819 161.775 81.2713 84.6819 41.5044 81.2713 41.5044 43.1775 80.5036 80.5036 43.1775 43.1775 80.5036 43.1775 112.02 50.782 199.933 89.719 89.719 112.02 50.782 50.782 89.719 50.782 111.201 207.767 110.214 111.201 61.2382 110.214 61.2382 89.3073 191.202 97.5536 89.3073 49.963 97.5536 49.963 91.4257 199.289 93.6488 91.4257 39.3443 93.6488 39.3443 99.5758 216.479 105.64 99.5758 52.0814 105.64 52.0814 89.0014 210.422 110.838 89.0014 47.4944 110.838 47.4944 95.8953 210.547 99.5832 95.8953 41.507 99.5832 41.507 109.328 211.089 110.964 109.328 54.3882 110.964 54.3882 87.1306 168.016 100.124 87.1306 54.9396 100.124 54.9396 79.4406 166.163 67.8915 79.4406 32.191 67.8915 32.191 92.1543 194.37 98.2718 92.1543 47.2496 98.2718 47.2496 99.9806 200.285 96.0986 99.9806 44.9047 96.0986 44.9047 92.1715 184.988 104.187 92.1715 55.0758 104.187 55.0758 94.6187 190.682 80.8011 94.6187 37.0957 80.8011 37.0957 103.077 203.584 109.881 103.077 57.523 109.881 57.523 101.299 198.742 93.7023 101.299 45.5543 93.7023 45.5543 106.621 187.248 105.04 106.621 55.7447 105.04 55.7447 92.7517 175.309 82.2083 92.7517 50.8761 82.2083 50.8761 75.4556 158.408 93.1008 75.4556 41.8756 93.1008 41.8756 92.7762 166.443 65.3077 92.7762 33.5799 65.3077 33.5799 98.9349 180.981 101.135 98.9349 59.1962 101.135 59.1962 79.5055 170.498 79.8452 79.5055 39.7386 79.8452 39.7386 77.093 181.061 90.6533 77.093 39.7669 90.6533 39.7669 37.3261 90.4072 90.4072 37.3261 37.3261 90.4072 37.3261 87.9125 38.937 208.078 104.374 104.374 87.9125 38.937 38.937 104.374 38.937 96.5661 219.874 103.703 96.5661 48.9755 103.703 48.9755 101.895 227.709 116.17 101.895 47.5906 116.17 47.5906 107.863 229.046 111.538 107.863 54.3045 111.538 54.3045 116.903 248.341 117.507 116.903 53.5587 117.507 53.5587 121.42 240.266 130.834 121.42 63.3441 130.834 63.3441 114.652 232.31 109.433 114.652 58.0762 109.433 58.0762 101.761 220.858 122.877 101.761 56.576 122.877 56.576 80.8852 194.209 97.9812 80.8852 45.1847 97.9812 45.1847 86.7227 201.167 96.2276 86.7227 35.7005 96.2276 35.7005 102.216 204.345 104.939 102.216 51.0222 104.939 51.0222 100.305 194.926 99.4063 100.305 51.1939 99.4063 51.1939 92.8161 181.936 95.5194 92.8161 49.1107 95.5194 49.1107 96.0637 182.376 86.4165 96.0637 43.7054 86.4165 43.7054 100.506 183.617 95.959 100.506 52.3584 95.959 52.3584 97.4433 183.486 87.6585 97.4433 48.148 87.6585 48.148 80.6276 161.725 95.8278 80.6276 49.2954 95.8278 49.2954 82.5573 155.368 65.897 82.5573 31.3322 65.897 31.3322 82.9529 165.512 89.4706 82.9529 51.2251 89.4706 51.2251 73.667 157.104 76.0416 73.667 31.7278 76.0416 31.7278 82.0457 165.039 81.0626 82.0457 41.9392 81.0626 41.9392 90.9929 185.991 83.9767 90.9929 40.1065 83.9767 40.1065 103.968 195.034 102.015 103.968 50.8864 102.015 50.8864 53.0811 93.0196 93.0196 53.0811 53.0811 93.0196 53.0811 120.165 65.4373 120.165 65.4373 65.4373 120.165 65.4373 65.4373 65.4373 65.4373 123.308 123.308 54.728 123.308 54.728 54.728 54.728 125.814 125.814 68.5797 125.814 68.5797 68.5797 68.5797 121.183 121.183 57.2339 121.183 57.2339 57.2339 57.2339 131.438 131.438 63.9488 131.438 63.9488 63.9488 63.9488 118.846 118.846 67.4895 118.846 67.4895 67.4895 67.4895 117.657 117.657 51.3563 117.657 51.3563 51.3563 51.3563 119.098 119.098 66.3012 119.098 66.3012 66.3012 66.3012 113.324 113.324 52.7966 113.324 52.7966 52.7966 52.7966 114.444 114.444 60.527 114.444 60.527 60.527 60.527 102.129 102.129 53.9168 102.129 53.9168 53.9168 53.9168 94.6211 94.6211 48.2124 94.6211 48.2124 48.2124 48.2124 89.1199 89.1199 46.4087 89.1199 46.4087 46.4087 46.4087 86.3118 86.3118 42.7112 86.3118 42.7112 42.7112 42.7112 83.1112 83.1112 43.6007 83.1112 43.6007 43.6007 43.6007 86.043 86.043 39.5105 86.043 39.5105 39.5105 39.5105 81.0973 81.0973 46.5325 81.0973 46.5325 46.5325 46.5325 72.8103 72.8103 34.5648 72.8103 34.5648 34.5648 34.5648 82.5594 82.5594 38.2455 82.5594 38.2455 38.2455 38.2455 83.4372 83.4372 44.3139 83.4372 44.3139 44.3139 44.3139 82.9935 82.9935 39.1234 82.9935 39.1234 39.1234 39.1234 94.9983 94.9983 43.8702 94.9983 43.8702 43.8702 43.8702 91.0667 91.0667 51.1282 91.0667 51.1282 51.1282 51.1282 39.9385 39.9385 39.9385 39.9385 39.9385 39.9385 39.9385 
CELL_DATA 1536
SCALARS stress float 1
LOOKUP_TABLE default
75.5475 76.9148 51.7031 54.909 59.895 47.9307 63.3793 56.3452 43.8921 46.5081 41.5597 49.772 55.3519 45.6419 48.419 42.7951 57.9055 45.9965 46.5922 46.218 38.9015 41.275 29.7192 47.0338 47.6176 61.3121 61.1354 48.9126 59.8754 58.9517 63.7504 47.7735 49.7709 41.9163 57.8847 39.1575 52.9049 43.6504 35.3877 41.1649 41.7118 35.4963 39.9578 27.185 36.3457 38.8026 44.7092 31.9739 49.5087 49.7473 49.436 52.2392 47.9805 50.7545 44.7436 58.7501 55.3628 65.3388 44.6653 42.272 49.1358 37.3843 42.6942 40.8144 40.541 36.4718 49.9407 57.4893 33.9527 36.2269 36.3968 38.3594 42.3943 56.5177 43.1911 52.5303 54.1907 66.1856 44.6077 45.5383 44.7245 50.0895 45.7753 53.7409 37.2858 50.6808 51.2512 37.1635 38.3487 49.2081 26.0627 39.8139 42.7514 39.333 47.6545 45.8433 35.5311 42.1819 56.3703 54.7461 40.8161 54.2105 48.4949 30.1005 44.4226 49.3323 69.6764 57.6889 44.057 48.9588 37.0397 48.7973 37.8846 40.725 49.4943 50.6386 51.5013 43.8538 30.8137 36.2799 40.4286 54.4244 47.4055 55.5891 55.7305 54.0921 29.3401 43.645 44.4836 36.7326 48.6159 42.9599 38.2931 50.004 43.013 41.0384 54.1797 39.6548 46.2181 36.068 37.2722 38.5249 51.5334 35.3675 65.9545 67.4258 62.5915 61.6052 52.7204 55.5502 49.7607 51.1657 48.6178 44.1065 52.8346 55.9961 40.8274 61.5932 55.0361 43.9255 48.7204 46.4954 35.176 45.0624 39.4532 35.675 46.875 41.0836 52.8744 61.0096 67.5879 64.266 67.8993 56.2966 54.8462 51.0781 57.4599 51.0039 45.6489 66.3062 54.3552 67.1809 38.8431 45.0708 52.5473 31.3065 33.8711 52.1299 36.2466 35.233 38.8864 49.6477 64.4166 66.7018 62.7508 56.424 70.2843 68.4032 49.656 54.8691 61.3956 49.6846 51.4751 58.322 44.499 56.0459 47.0176 46.4982 49.742 35.0409 44.0365 41.6455 41.1435 42.1485 47.8863 46.0387 60.8135 74.8426 49.9368 65.3167 47.9949 56.8153 53.4628 49.7275 63.0969 52.8514 51.1328 36.7423 44.2303 45.8299 48.0089 33.4986 56.6133 44.9039 48.6252 41.5903 38.701 45.8899 30.8493 43.1994 56.2156 47.8572 58.6625 45.7438 53.5842 68.9699 44.7895 46.5319 44.1884 38.4361 39.0923 48.7988 60.1518 43.8182 42.2491 46.9622 40.8105 44.5384 49.7625 49.3725 48.2304 30.3194 44.8339 32.3008 40.8509 56.5392 37.5864 45.275 45.5317 56.9937 56.7933 49.8797 42.1354 62.3716 58.0355 39.9365 48.4851 55.3073 44.2614 48.7553 40.6715 41.3976 39.171 42.0625 33.6033 37.5529 41.1646 35.1458 42.1907 47.276 48.3987 40.1366 45.1333 40.4507 54.9416 43.0093 46.0768 54.0722 32.5294 45.1733 45.3807 37.6287 47.4255 52.6436 35.5729 50.8298 35.8301 50.1457 48.5124 46.4864 53.0419 47.4166 44.398 47.0849 55.2144 51.878 44.9959 65.048 60.1933 50.8759 39.4037 45.8252 49.8778 43.4359 34.9411 44.7709 35.2597 44.7297 41.382 48.1552 27.3234 36.3972 37.6747 47.2825 45.4561 33.3539 53.5003 54.8096 49.5486 56.7596 62.3281 64.8455 59.1035 47.025 56.1226 40.2416 55.0653 45.1295 58.509 50.0903 52.1689 38.8973 50.6333 38.981 51.6896 39.7881 39.8798 42.0641 45.7561 37.5041 59.1202 66.5948 74.6641 62.6737 49.4188 62.8792 58.6034 54.8203 64.5254 44.9527 42.5003 43.7109 37.4303 35.7343 57.9901 44.6638 43.9751 46.5486 46.0574 41.6291 42.3921 47.5692 36.6586 38.7727 64.1803 71.0337 63.1513 74.3254 68.5531 61.379 54.4964 54.6809 67.7034 55.9362 42.2125 53.4255 53.4208 49.3827 51.5436 31.1798 52.8461 30.7171 45.7228 29.3043 38.3921 38.7461 36.0089 30.8946 53.1197 52.8993 69.782 52.4868 60.5356 57.7176 58.328 53.8438 55.0717 50.462 45.5718 53.8509 55.0403 47.9251 35.5908 37.146 33.9797 34.1278 40.5501 41.632 43.1837 52.9557 34.1512 34.6796 45.4126 59.1702 60.2445 61.9665 59.4202 58.5001 35.0975 48.4792 48.4101 41.1078 39.8502 50.8173 40.5319 42.1449 37.4426 55.1109 43.121 39.8283 25.2616 42.6842 61.2389 49.6948 56.6326 29.9496 45.9265 49.7882 47.9321 38.7936 45.9219 55.1448 43.1108 52.8304 46.743 64.5489 61.2359 58.3137 37.9283 41.6826 43.266 41.1355 37.3392 44.0651 45.7505 40.9004 40.6259 32.4794 38.6679 29.601 37.2594 53.0045 44.4245 54.0168 56.6016 53.4563 41.1955 51.1367 36.8266 44.4963 40.3096 36.4365 54.9009 36.0741 33.5795 28.7539 43.3327 32.3513 32.0289 39.4152 39.6631 29.1681 45.4057 44.9211 44.4161 65.2047 62.148 43.027 52.6697 42.0195 53.7137 54.0259 39.5747 44.9085 50.3483 37.2096 54.5153 40.8903 35.3236 37.1268 52.1043 39.9663 48.9704 32.5719 38.4212 34.1908 42.6041 50.0902 44.8218 49.7701 59.1013 56.6045 61.4102 50.9923 51.5514 53.4492 52.898 43.3391 50.18 52.7069 46.7157 60.6623 31.7609 48.3117 46.7082 50.1645 42.5146 46.9218 34.2142 25.3984 40.7574 31.1054 61.7225 65.151 57.7108 67.7965 68.1256 51.2987 55.8894 72.9979 48.0893 53.3623 49.0106 58.2205 43.4025 36.2158 50.8845 47.6727 32.189 42.2071 37.9648 35.5231 30.443 38.5399 37.1659 34.8824 65.7732 64.832 61.9657 70.5857 68.8306 70.1272 50.5111 54.3168 45.9504 50.3463 51.2623 52.0208 53.3837 42.476 47.7778 40.5442 35.2464 55.1535 44.207 36.0476 41.0665 39.3216 31.7254 28.2653 48.0212 65.9756 69.428 50.3419 55.5741 52.0291 53.5511 64.6181 45.2753 46.421 47.4225 35.0032 41.6739 38.4093 34.2029 49.9664 43.99 40.5172 32.9675 43.2602 52.9401 25.012 50.0246 30.7168 36.3518 70.3924 72.049 50.0155 56.2114 49.2415 46.1704 49.5992 56.3537 47.1713 47.7596 63.3134 40.3247 41.5887 42.5467 53.8498 47.3584 36.2532 36.1624 50.9435 32.8994 39.1012 32.197 31.1788 30.6778 49.5299 43.2036 36.3972 49.2746 58.1625 47.1177 37.5893 52.8028 42.8941 46.3289 34.8426 40.6774 39.9728 47.5257 38.6876 37.9416 32.2246 50.725 35.9427 36.7328 32.9993 48.3907 32.7741 37.1101 45.0524 59.7901 43.1366 38.5786 48.2648 45.4868 36.4881 36.7749 50.5688 45.0808 43.2536 45.75 30.3085 28.0261 36.2995 39.1973 28.5144 47.3359 39.1782 33.2373 34.8869 35.3579 32.4113 37.186 48.9457 56.6828 42.6345 49.4163 54.6292 40.6289 38.2227 49.5638 40.4217 37.5717 50.4656 58.3646 23.2783 37.9865 30.0448 45.2712 38.1067 35.8263 31.2806 41.7078 23.063 30.0374 40.0676 58.2445 62.1961 70.8081 49.5215 69.2334 57.6782 49.2803 49.1216 62.5974 40.5989 48.7679 53.4662 38.1042 33.7252 37.9484 44.3614 43.9501 38.6255 48.1903 36.6339 34.5646 28.8018 33.9377 42.1942 78.0571 60.4692 73.5219 66.7835 61.3843 65.4863 47.915 52.6427 47.2138 54.2865 52.0883 46.6087 49.0248 36.7348 35.4719 46.7235 54.5905 44.4137 38.8311 30.8793 37.8203 34.2836 35.2682 28.6536 65.7203 77.2905 70.3665 74.0144 60.3101 57.2047 50.7629 60.6927 61.3616 43.8722 47.6081 54.737 30.3195 43.5204 65.6873 40.9509 36.2852 54.3414 32.4514 46.4926 50.8569 43.4759 33.8299 37.2216 51.2477 46.159 48.7016 60.7789 74.2624 49.5855 48.008 54.6625 48.9489 50.5099 42.691 49.1455 42.9078 42.3987 40.4214 39.226 52.0544 46.2593 37.0371 41.2273 32.9367 25.7401 33.0196 31.1487 46.4359 50.6878 53.6571 59.9053 43.0422 47.5818 60.8796 53.5919 39.9576 38.8092 42.6078 41.1717 42.6169 67.9211 47.7455 41.1606 40.1551 40.0319 23.4482 28.0101 59.2788 52.3513 30.1727 45.5299 45.2671 56.8229 36.8392 47.0063 44.7008 51.5654 54.7019 51.084 48.5166 38.137 38.808 39.8441 47.3329 44.797 43.6316 57.0479 33.103 46.5401 36.4305 52.1273 41.3224 42.2472 33.3566 30.4264 48.2141 39.5872 49.7107 45.0005 36.3919 46.6944 41.4329 47.7375 31.7074 46.843 52.1745 36.3927 44.1336 49.229 38.2376 33.4926 35.8087 45.2836 33.8439 40.5631 38.5592 30.6342 42.4733 46.9486 44.7371 60.7996 51.651 51.4327 48.8205 50.9845 56.1468 46.9658 54.0977 54.9795 45.9239 50.7591 54.4342 54.3448 43.1013 36.5157 37.206 40.724 37.2478 41.395 43.9504 50.633 40.2754 35.4825 49.5795 50.7213 67.8246 51.1105 64.8842 55.4191 61.1875 46.0241 38.2656 38.7307 57.7512 55.4353 49.0153 48.2263 59.3664 54.5847 58.9411 48.3113 42.9061 36.261 36.1833 38.647 30.4899 36.7084 55.6962 68.1632 66.905 77.4084 61.0667 66.0766 64.981 55.7844 58.8448 49.8942 50.674 36.3854 37.4122 58.5339 45.795 49.0509 53.3931 44.0296 31.4796 38.6374 32.7788 52.3951 50.0823 30.2593 75.6977 68.1647 72.1884 59.3552 68.7059 65.5591 60.0418 57.8914 61.0766 49.9949 39.9151 36.5262 32.3393 59.9615 31.2665 52.9481 27.6471 28.7974 32.6381 33.3011 49.1426 38.8241 43.5702 40.7647 57.3316 55.8612 60.1793 67.638 50.3892 56.7768 58.5353 52.6606 48.9573 54.1588 51.2659 47.708 42.8416 38.914 35.7923 41.266 37.5556 34.717 37.6629 38.6166 45.4429 46.7969 41.3837 39.4577 41.3524 56.7675 52.3448 58.7587 41.2917 43.1567 56.4046 47.8499 41.3289 46.5427 54.6637 49.9802 52.1392 44.362 35.9902 40.482 34.8906 43.7506 48.0928 39.7914 52.7977 34.2614 32.9034 43.3598 48.9874 56.3973 54.7057 26.4229 44.3465 47.8004 45.9532 47.1777 49.609 45.7802 38.492 27.5638 46.4872 40.1684 40.2413 31.2595 52.7493 45.9403 39.9541 47.6731 36.2519 30.059 37.1647 36.2555 42.2846 41.8068 63.2139 54.4242 49.7682 34.5598 45.443 39.9096 52.6351 42.1291 40.0922 51.7379 42.7228 31.7782 37.5224 46.1049 41.7005 43.5974 40.5433 30.3065 24.8279 48.7371 41.3183 30.3153 52.0654 54.7035 54.453 58.5606 59.1123 43.6002 55.0062 44.6147 53.913 53.7128 50.3699 36.7193 44.1425 57.5409 52.7964 54.5267 42.1159 47.2416 51.7846 47.062 43.6439 33.0213 30.2058 33.8004 45.5847 47.0154 57.9244 60.4759 58.3122 49.6821 39.533 51.9906 45.086 45.3258 41.0927 55.2058 38.689 42.1773 35.3778 51.0168 31.4122 44.2389 49.2367 49.742 49.9444 43.604 30.2392 33.1099 65.3153 68.4091 67.1465 51.6533 52.2727 67.711 47.231 50.8691 57.7725 55.4394 54.8455 41.6891 41.75 46.6548 43.4433 48.9247 53.7199 37.1478 35.3075 35.2337 34.8055 44.1756 56.2839 31.0211 59.3443 70.6059 61.2331 59.2471 67.7046 68.6699 56.7492 45.5575 55.8567 55.9802 47.4775 57.6268 40.2691 36.2983 38.7593 33.2596 28.1873 46.0886 39.0635 31.2912 37.5191 46.3671 32.0491 31.5967 44.6059 64.2726 71.4822 56.7927 43.9957 51.2037 52.3397 56.2013 45.2436 45.104 48.9764 50.2894 57.7109 29.5025 51.7248 31.4111 33.2194 35.4151 42.3528 55.8883 38.0838 41.6085 27.0678 36.3488 47.722 67.9987 52.9899 50.9307 48.4141 47.5765 39.7483 45.9369 39.5615 54.56 42.5228 38.6302 47.5859 56.8116 46.3115 43.3998 33.6889 41.1394 32.2585 47.5518 46.4653 52.5991 46.1194 32.273 62.0028 41.8713 37.7861 37.3491 50.8487 34.9147 58.107 43.8668 49.7124 42.0393 46.9731 40.2782 49.0158 56.5622 47.4452 39.494 41.3647 47.701 39.418 33.687 36.2384 43.7878 32.8825 31.8211 48.6008 43.8574 52.4024 38.0951 42.1174 46.0073 39.6613 51.2127 51.9042 39.5424 47.7843 38.6536 45.3673 45.8091 52.9926 45.9958 49.016 44.2529 43.5274 33.3367 48.1284 30.0528 29.3339 33.6391 50.5184 58.773 50.1944 44.0643 50.4092 47.7993 54.9132 44.1294 38.0358 51.2216 43.812 51.5929 44.2415 49.1142 48.6067 45.0344 60.3542 39.9285 46.1566 39.258 43.3884 34.9539 51.7598 29.9943 56.2122 45.3073 69.12 57.6998 53.8017 62.2109 52.1275 59.1013 55.741 59.7715 44.9204 46.426 58.9685 55.451 50.3928 44.208 38.1169 53.8408 44.2071 44.2157 40.2603 32.0483 34.7723 39.148 67.3277 60.5109 61.4274 65.2369 72.6648 66.0069 60.635 49.8546 51.1227 51.5918 43.56 50.9668 51.7368 34.8784 45.5682 39.1769 48.3524 45.7758 51.405 40.6009 48.2274 31.2833 37.6124 38.8834 76.8781 59.3842 61.5023 61.2884 56.4392 58.6447 65.5302 44.9078 71.5208 50.5793 42.3459 57.0283 50.3438 52.4268 39.8786 48.7554 36.1615 35.6973 31.365 43.8248 46.4499 42.0997 41.2389 59.8038 54.7017 67.1899 59.5652 59.3258 53.5787 56.397 54.9228 49.2405 56.7408 44.238 52.3114 36.918 39.9273 42.2429 43.4261 38.685 45.9589 45.0268 36.5735 25.6222 44.0503 35.4414 34.6514 34.0552 41.4761 74.3283 45.9636 45.9883 54.0195 40.9411 51.6963 54.6701 41.0412 55.3327 52.8198 44.0188 44.757 47.1315 52.0698 35.7652 48.2085 41.3099 27.57 30.7582 46.9172 38.9597 26.3272 33.2662 41.4085 47.9276 49.8853 44.5542 43.5156 52.6608 40.9431 52.2402 42.0075 40.8461 46.4069 51.1575 48.7237 43.669 42.3187 43.6213 48.5397 36.2029 55.2992 38.9945 50.1553 37.4662 35.361 41.9725 24.5235 51.7092 39.3914 38.7722 49.4122 52.8938 43.946 51.1942 39.6043 38.7044 35.5413 47.6531 35.7786 36.9297 42.9425 26.193 36.0425 37.2086 44.7288 43.0925 28.9796 35.2262 41.5044 43.1775 50.782 61.2382 49.963 39.3443 52.0814 47.4944 41.507 54.3882 54.9396 32.191 47.2496 44.9047 55.0758 37.0957 57.523 45.5543 55.7447 50.8761 41.8756 33.5799 59.1962 39.7386 39.7669 37.3261 38.937 48.9755 47.5906 54.3045 53.5587 63.3441 58.0762 56.576 45.1847 35.7005 51.0222 51.1939 49.1107 43.7054 52.3584 48.148 49.2954 31.3322 51.2251 31.7278 41.9392 40.1065 50.8864 53.0811 65.4373 54.728 68.5797 57.2339 63.9488 67.4895 51.3563 66.3012 52.7966 60.527 53.9168 48.2124 46.4087 42.7112 43.6007 39.5105 46.5325 34.5648 38.2455 44.3139 39.1234 43.8702 51.1282 39.9385 
SCALARS volume float 1
LOOKUP_TABLE default
14.6849 14.7481 14.7472 14.7489 14.7506 14.7526 14.7546 14.7566 14.7585 14.7604 14.7621 14.7638 14.7653 14.7666 14.7679 14.769 14.77 14.771 14.7716 14.7722 14.7726 14.7729 14.7733 14.7735 14.7196 14.7513 14.7555 14.7566 14.7575 14.7586 14.7601 14.7613 14.7627 14.764 14.7653 14.7664 14.7675 14.7684 14.7693 14.7703 14.7708 14.7716 14.772 14.7725 14.7728 14.773 14.7733 14.7736 14.7424 14.7607 14.7626 14.7634 14.764 14.7645 14.7653 14.7661 14.7669 14.7677 14.7684 14.7692 14.7698 14.7704 14.771 14.7714 14.7718 14.7722 14.7726 14.7728 14.773 14.7731 14.7733 14.7734 14.7636 14.7692 14.7698 14.7701 14.7702 14.7704 14.7706 14.7709 14.7711 14.7715 14.7717 14.7719 14.7722 14.7724 14.7725 14.7727 14.7729 14.773 14.773 14.7732 14.7732 14.7733 14.7733 14.7734 14.7841 14.7774 14.7769 14.7765 14.7764 14.7761 14.776 14.7757 14.7755 14.7752 14.7751 14.7747 14.7747 14.7744 14.7742 14.7741 14.7738 14.7739 14.7737 14.7735 14.7734 14.7734 14.7733 14.7733 14.8048 14.7858 14.7839 14.7831 14.7825 14.7818 14.7812 14.7805 14.7798 14.779 14.7783 14.7776 14.7771 14.7764 14.7759 14.7753 14.7751 14.7746 14.7742 14.774 14.7738 14.7734 14.7734 14.7731 14.8271 14.7947 14.7908 14.7897 14.7888 14.7876 14.7865 14.7852 14.784 14.7826 14.7815 14.7804 14.7793 14.7784 14.7775 14.7767 14.776 14.7753 14.7747 14.7743 14.7739 14.7736 14.7733 14.7731 14.8608 14.7975 14.7985 14.7968 14.7954 14.7936 14.7919 14.7899 14.788 14.7863 14.7846 14.7831 14.7816 14.7802 14.7791 14.7778 14.7769 14.7759 14.7752 14.7746 14.7741 14.7736 14.7734 14.7733 14.6921 14.7365 14.7432 14.7467 14.7494 14.7521 14.7545 14.7566 14.7586 14.7606 14.7623 14.764 14.7654 14.7669 14.7681 14.7692 14.7702 14.7711 14.7718 14.7724 14.7729 14.7732 14.7734 14.7732 14.7256 14.739 14.7502 14.7541 14.7562 14.7581 14.7597 14.7613 14.7628 14.764 14.7654 14.7665 14.7676 14.7686 14.7695 14.7704 14.771 14.7717 14.7721 14.7725 14.7729 14.7732 14.7733 14.7735 14.746 14.7528 14.7587 14.7615 14.7631 14.7642 14.7651 14.766 14.7669 14.7677 14.7685 14.7693 14.7699 14.7704 14.7709 14.7716 14.7719 14.7723 14.7726 14.7728 14.7731 14.7732 14.7733 14.7736 14.7648 14.7666 14.7683 14.7693 14.7697 14.7702 14.7705 14.7708 14.7712 14.7714 14.7717 14.772 14.7723 14.7724 14.7726 14.7728 14.7728 14.7731 14.7731 14.7732 14.7733 14.7733 14.7733 14.7733 14.7829 14.7802 14.7781 14.777 14.7766 14.7762 14.7759 14.7756 14.7754 14.7752 14.7749 14.7748 14.7746 14.7745 14.7742 14.7741 14.7738 14.7738 14.7735 14.7736 14.7734 14.7734 14.7733 14.7732 14.8016 14.7936 14.7874 14.7846 14.7831 14.7821 14.7812 14.7803 14.7797 14.7789 14.7782 14.7775 14.7769 14.7764 14.7758 14.7752 14.7749 14.7745 14.7742 14.7739 14.7737 14.7735 14.7732 14.7731 14.8218 14.8065 14.7953 14.7918 14.7896 14.7881 14.7865 14.7851 14.7839 14.7826 14.7814 14.7802 14.7793 14.7782 14.7773 14.7765 14.7759 14.7753 14.7747 14.7742 14.7738 14.7735 14.7733 14.7731 14.8549 14.8079 14.8018 14.7987 14.7962 14.794 14.7918 14.7899 14.788 14.7861 14.7844 14.7829 14.7814 14.78 14.7787 14.7776 14.7767 14.7757 14.7749 14.7743 14.7739 14.7734 14.7732 14.7733 14.6874 14.7349 14.7407 14.745 14.7486 14.7516 14.7542 14.7566 14.7587 14.7607 14.7625 14.7642 14.7657 14.767 14.7683 14.7694 14.7704 14.7713 14.772 14.7724 14.773 14.7733 14.7734 14.7734 14.724 14.7366 14.7474 14.7524 14.7554 14.7576 14.7595 14.7613 14.7627 14.7641 14.7655 14.7666 14.7677 14.7688 14.7695 14.7704 14.7712 14.7717 14.7721 14.7727 14.773 14.7733 14.7734 14.7736 14.7448 14.7511 14.7566 14.7603 14.7623 14.7638 14.7649 14.766 14.7669 14.7678 14.7685 14.7693 14.77 14.7705 14.7711 14.7715 14.7719 14.7723 14.7726 14.7729 14.7731 14.7732 14.7735 14.7735 14.7643 14.766 14.7675 14.7688 14.7695 14.77 14.7704 14.7708 14.7711 14.7714 14.7717 14.772 14.7723 14.7724 14.7727 14.7727 14.7728 14.773 14.7731 14.7731 14.7733 14.7732 14.7733 14.7734 14.7833 14.7807 14.7787 14.7774 14.7766 14.7762 14.7759 14.7755 14.7754 14.7751 14.7749 14.7748 14.7745 14.7744 14.7742 14.7741 14.7738 14.7737 14.7736 14.7736 14.7735 14.7735 14.7734 14.7733 14.8028 14.7953 14.7893 14.7856 14.7836 14.7823 14.7813 14.7804 14.7796 14.7788 14.7781 14.7775 14.7769 14.7763 14.7757 14.7753 14.7748 14.7744 14.7741 14.7738 14.7736 14.7735 14.7732 14.7732 14.8234 14.8088 14.7979 14.7931 14.7905 14.7884 14.7867 14.7852 14.7838 14.7825 14.7812 14.7802 14.7791 14.7782 14.7772 14.7764 14.7758 14.7751 14.7746 14.774 14.7738 14.7735 14.7733 14.7731 14.8589 14.8097 14.8042 14.8 14.7969 14.7943 14.7919 14.7898 14.7878 14.786 14.7843 14.7828 14.7813 14.7798 14.7786 14.7775 14.7765 14.7756 14.7749 14.7742 14.7737 14.7734 14.7732 14.7732 14.685 14.7338 14.7397 14.7442 14.748 14.7512 14.7542 14.7566 14.7587 14.7607 14.7625 14.7643 14.7657 14.7671 14.7683 14.7695 14.7703 14.7713 14.772 14.7726 14.7731 14.7734 14.7733 14.7734 14.7233 14.7356 14.7465 14.7515 14.7549 14.7574 14.7594 14.7613 14.7627 14.7642 14.7654 14.7667 14.7678 14.7688 14.7696 14.7705 14.7712 14.7718 14.7722 14.7727 14.773 14.7732 14.7734 14.7736 14.7444 14.7504 14.7559 14.7596 14.762 14.7636 14.7649 14.766 14.7668 14.7678 14.7684 14.7693 14.77 14.7706 14.7711 14.7715 14.772 14.7724 14.7726 14.7729 14.7731 14.7733 14.7733 14.7736 14.7642 14.7658 14.7673 14.7685 14.7694 14.7699 14.7704 14.7707 14.7711 14.7715 14.7717 14.7719 14.7722 14.7724 14.7726 14.7727 14.7729 14.7731 14.7731 14.7732 14.7734 14.7733 14.7733 14.7735 14.7835 14.781 14.779 14.7775 14.7768 14.7762 14.7758 14.7757 14.7754 14.7751 14.7749 14.7747 14.7746 14.7743 14.7741 14.774 14.7739 14.7738 14.7736 14.7735 14.7735 14.7734 14.7733 14.7732 14.8031 14.7959 14.79 14.7861 14.7839 14.7824 14.7813 14.7804 14.7796 14.7788 14.7782 14.7774 14.7769 14.7763 14.7757 14.7753 14.7749 14.7745 14.7741 14.7739 14.7736 14.7734 14.7732 14.773 14.824 14.8098 14.7988 14.7938 14.7907 14.7885 14.7868 14.7852 14.7838 14.7825 14.7812 14.78 14.779 14.7781 14.7772 14.7764 14.7758 14.775 14.7746 14.774 14.7737 14.7734 14.7733 14.7729 14.8609 14.8109 14.8051 14.8007 14.7974 14.7945 14.7921 14.7899 14.7878 14.786 14.7842 14.7827 14.7812 14.7798 14.7785 14.7775 14.7765 14.7756 14.7748 14.7741 14.7737 14.7734 14.7731 14.7732 14.6851 14.7338 14.7397 14.7443 14.748 14.7513 14.7541 14.7565 14.7588 14.7607 14.7625 14.7642 14.7657 14.7671 14.7684 14.7695 14.7704 14.7713 14.772 14.7727 14.773 14.7734 14.7734 14.7734 14.7232 14.7356 14.7464 14.7516 14.7549 14.7574 14.7594 14.7611 14.7628 14.7642 14.7655 14.7666 14.7678 14.7687 14.7696 14.7704 14.7711 14.7717 14.7722 14.7726 14.773 14.7732 14.7735 14.7737 14.7444 14.7505 14.7558 14.7597 14.762 14.7636 14.7649 14.7659 14.7669 14.7677 14.7686 14.7693 14.7698 14.7705 14.7711 14.7714 14.772 14.7723 14.7726 14.773 14.773 14.7733 14.7734 14.7736 14.7642 14.7658 14.7672 14.7685 14.7693 14.7699 14.7704 14.7707 14.7711 14.7715 14.7717 14.772 14.7722 14.7724 14.7726 14.7727 14.7729 14.773 14.7732 14.7732 14.7733 14.7732 14.7733 14.7734 14.7834 14.781 14.7789 14.7775 14.7766 14.7762 14.7759 14.7756 14.7754 14.7752 14.7749 14.7747 14.7746 14.7743 14.7742 14.7741 14.7739 14.7736 14.7735 14.7736 14.7734 14.7734 14.7732 14.7733 14.8031 14.7959 14.79 14.7861 14.7839 14.7824 14.7813 14.7805 14.7796 14.7788 14.7781 14.7775 14.7769 14.7762 14.7758 14.7753 14.7747 14.7744 14.7741 14.7738 14.7737 14.7734 14.7733 14.7729 14.824 14.8097 14.7988 14.7938 14.7908 14.7886 14.7868 14.7852 14.7838 14.7825 14.7812 14.7801 14.7791 14.7781 14.7772 14.7763 14.7758 14.7751 14.7745 14.7741 14.7738 14.7734 14.7733 14.773 14.861 14.8109 14.8051 14.8007 14.7975 14.7946 14.7921 14.7899 14.7878 14.786 14.7842 14.7827 14.7812 14.7798 14.7785 14.7774 14.7764 14.7756 14.7748 14.7742 14.7737 14.7734 14.7731 14.7732 14.6874 14.735 14.7407 14.7451 14.7485 14.7516 14.7542 14.7566 14.7588 14.7607 14.7624 14.7641 14.7657 14.7671 14.7682 14.7694 14.7704 14.7712 14.7719 14.7726 14.773 14.7733 14.7735 14.7736 14.724 14.7365 14.7474 14.7524 14.7555 14.7576 14.7596 14.7612 14.7627 14.7642 14.7654 14.7667 14.7677 14.7687 14.7696 14.7704 14.7712 14.7717 14.7722 14.7727 14.7729 14.7733 14.7734 14.7735 14.7448 14.7511 14.7566 14.7602 14.7623 14.7638 14.765 14.766 14.767 14.7677 14.7685 14.7693 14.7699 14.7705 14.7711 14.7715 14.772 14.7723 14.7726 14.7729 14.7731 14.7733 14.7733 14.7735 14.7644 14.766 14.7676 14.7687 14.7694 14.77 14.7704 14.7708 14.7711 14.7714 14.7717 14.772 14.7723 14.7724 14.7726 14.7728 14.773 14.773 14.7732 14.7731 14.7733 14.7733 14.7734 14.7734 14.7833 14.7808 14.7788 14.7774 14.7766 14.7761 14.7759 14.7756 14.7753 14.7751 14.7749 14.7748 14.7745 14.7744 14.7742 14.7741 14.7739 14.7738 14.7736 14.7735 14.7734 14.7735 14.7732 14.7733 14.8028 14.7953 14.7893 14.7856 14.7836 14.7824 14.7813 14.7804 14.7796 14.7788 14.7782 14.7775 14.7768 14.7763 14.7757 14.7753 14.7748 14.7744 14.7742 14.7739 14.7736 14.7735 14.7732 14.7731 14.8234 14.8088 14.7979 14.7931 14.7905 14.7884 14.7867 14.7852 14.7837 14.7825 14.7813 14.7801 14.7792 14.7781 14.7773 14.7765 14.7757 14.7751 14.7745 14.7741 14.7738 14.7734 14.7733 14.773 14.859 14.8097 14.8042 14.8 14.7969 14.7944 14.792 14.7899 14.7879 14.786 14.7843 14.7827 14.7812 14.7799 14.7787 14.7776 14.7765 14.7757 14.7749 14.7742 14.7736 14.7735 14.7731 14.7732 14.6922 14.7364 14.7431 14.7467 14.7494 14.7521 14.7544 14.7567 14.7587 14.7605 14.7624 14.7641 14.7655 14.7669 14.7682 14.7691 14.7703 14.771 14.7718 14.7724 14.7729 14.7732 14.7734 14.7735 14.7256 14.739 14.7501 14.754 14.7563 14.7582 14.7598 14.7613 14.7627 14.7641 14.7654 14.7666 14.7676 14.7687 14.7695 14.7703 14.771 14.7716 14.7722 14.7725 14.7729 14.7732 14.7734 14.7736 14.7459 14.7528 14.7587 14.7615 14.7631 14.7642 14.7652 14.7661 14.7669 14.7677 14.7684 14.7693 14.77 14.7704 14.771 14.7714 14.772 14.7723 14.7726 14.7729 14.773 14.7732 14.7734 14.7736 14.7648 14.7666 14.7683 14.7693 14.7698 14.7701 14.7705 14.7708 14.7711 14.7713 14.7717 14.772 14.7721 14.7724 14.7725 14.7728 14.7729 14.773 14.7732 14.7732 14.7733 14.7732 14.7733 14.7733 14.7829 14.7802 14.7781 14.777 14.7765 14.7761 14.7759 14.7756 14.7754 14.7752 14.7749 14.7747 14.7746 14.7743 14.7743 14.774 14.7739 14.7737 14.7737 14.7735 14.7735 14.7733 14.7733 14.7732 14.8017 14.7937 14.7874 14.7845 14.7831 14.7822 14.7813 14.7804 14.7796 14.7789 14.7782 14.7776 14.777 14.7763 14.7758 14.7754 14.775 14.7745 14.7741 14.7738 14.7736 14.7735 14.7734 14.773 14.822 14.8065 14.7953 14.7917 14.7897 14.7881 14.7866 14.7852 14.7839 14.7826 14.7814 14.7802 14.7791 14.7783 14.7774 14.7766 14.7759 14.7751 14.7747 14.7741 14.7739 14.7735 14.7732 14.7731 14.8549 14.808 14.8019 14.7987 14.7962 14.794 14.7918 14.7899 14.7879 14.7861 14.7844 14.7828 14.7814 14.78 14.7788 14.7776 14.7766 14.7758 14.775 14.7743 14.7738 14.7735 14.7733 14.7733 14.6848 14.748 14.7472 14.7489 14.7506 14.7525 14.7545 14.7566 14.7586 14.7603 14.7622 14.7637 14.7652 14.7667 14.7678 14.7689 14.77 14.7709 14.7715 14.7722 14.7727 14.773 14.7732 14.7733 14.7195 14.7511 14.7555 14.7566 14.7575 14.7586 14.76 14.7613 14.7628 14.7639 14.7653 14.7664 14.7675 14.7685 14.7694 14.7702 14.7708 14.7715 14.772 14.7724 14.7728 14.7731 14.7732 14.7736 14.7423 14.7606 14.7625 14.7634 14.764 14.7646 14.7653 14.7661 14.7669 14.7677 14.7684 14.7692 14.7698 14.7703 14.7709 14.7715 14.7718 14.7722 14.7725 14.7728 14.773 14.7732 14.7733 14.7736 14.7635 14.7692 14.7698 14.77 14.7702 14.7704 14.7705 14.7708 14.7713 14.7714 14.7718 14.772 14.7722 14.7724 14.7726 14.7727 14.7728 14.7729 14.7731 14.7731 14.7733 14.7733 14.7733 14.7733 14.7841 14.7775 14.7769 14.7766 14.7764 14.7761 14.7759 14.7757 14.7755 14.7752 14.775 14.7748 14.7746 14.7744 14.7741 14.7741 14.7739 14.7738 14.7737 14.7735 14.7735 14.7734 14.7733 14.7732 14.8049 14.7858 14.7839 14.783 14.7825 14.7818 14.7812 14.7804 14.7797 14.779 14.7783 14.7776 14.777 14.7764 14.7759 14.7754 14.7749 14.7746 14.7741 14.774 14.7737 14.7735 14.7733 14.7731 14.8272 14.7948 14.7907 14.7897 14.7888 14.7877 14.7865 14.7851 14.784 14.7827 14.7815 14.7803 14.7793 14.7784 14.7773 14.7767 14.7759 14.7753 14.7747 14.7742 14.7739 14.7735 14.7734 14.7731 14.8608 14.7977 14.7985 14.7969 14.7954 14.7936 14.7918 14.7899 14.788 14.7863 14.7847 14.783 14.7817 14.7802 14.779 14.7779 14.7769 14.776 14.7752 14.7745 14.774 14.7736 14.7734 14.7732 
SCALARS volume_diff float 1
LOOKUP_TABLE default
14.6829 14.7461 14.7453 14.747 14.7486 14.7506 14.7526 14.7546 14.7565 14.7584 14.7602 14.7618 14.7633 14.7647 14.766 14.7671 14.768 14.769 14.7696 14.7703 14.7707 14.771 14.7713 14.7715 14.7177 14.7494 14.7536 14.7546 14.7555 14.7567 14.7581 14.7593 14.7608 14.7621 14.7633 14.7645 14.7656 14.7665 14.7673 14.7683 14.7689 14.7696 14.7701 14.7705 14.7709 14.7711 14.7714 14.7717 14.7405 14.7587 14.7607 14.7615 14.762 14.7626 14.7633 14.7641 14.765 14.7658 14.7664 14.7672 14.7679 14.7684 14.769 14.7695 14.7699 14.7702 14.7706 14.7708 14.7711 14.7712 14.7714 14.7715 14.7616 14.7672 14.7678 14.7681 14.7683 14.7684 14.7687 14.769 14.7692 14.7696 14.7697 14.77 14.7703 14.7705 14.7706 14.7708 14.7709 14.771 14.7711 14.7712 14.7713 14.7713 14.7714 14.7715 14.7821 14.7755 14.775 14.7746 14.7744 14.7741 14.774 14.7737 14.7735 14.7733 14.7731 14.7728 14.7727 14.7725 14.7723 14.7721 14.7719 14.7719 14.7718 14.7716 14.7715 14.7714 14.7713 14.7713 14.8028 14.7839 14.782 14.7811 14.7805 14.7798 14.7793 14.7785 14.7778 14.777 14.7764 14.7756 14.7751 14.7745 14.7739 14.7734 14.7731 14.7726 14.7723 14.7721 14.7718 14.7715 14.7714 14.7711 14.8251 14.7927 14.7888 14.7877 14.7868 14.7857 14.7845 14.7833 14.782 14.7807 14.7796 14.7784 14.7773 14.7765 14.7755 14.7747 14.774 14.7734 14.7728 14.7723 14.7719 14.7717 14.7714 14.7711 14.8588 14.7956 14.7965 14.7949 14.7934 14.7917 14.7899 14.788 14.7861 14.7843 14.7826 14.7811 14.7796 14.7783 14.7772 14.7758 14.7749 14.774 14.7732 14.7726 14.7721 14.7717 14.7714 14.7714 14.6902 14.7345 14.7413 14.7447 14.7475 14.7501 14.7525 14.7547 14.7567 14.7586 14.7604 14.7621 14.7635 14.7649 14.7662 14.7672 14.7683 14.7692 14.7699 14.7705 14.771 14.7712 14.7714 14.7713 14.7237 14.737 14.7483 14.7521 14.7543 14.7561 14.7577 14.7593 14.7608 14.7621 14.7634 14.7645 14.7657 14.7666 14.7676 14.7684 14.769 14.7697 14.7702 14.7706 14.7709 14.7713 14.7714 14.7716 14.744 14.7508 14.7567 14.7596 14.7611 14.7622 14.7632 14.764 14.7649 14.7658 14.7665 14.7673 14.7679 14.7685 14.7689 14.7696 14.7699 14.7703 14.7706 14.7708 14.7712 14.7712 14.7714 14.7716 14.7629 14.7646 14.7663 14.7673 14.7677 14.7683 14.7686 14.7688 14.7692 14.7694 14.7697 14.7701 14.7703 14.7704 14.7707 14.7708 14.7709 14.7711 14.7711 14.7712 14.7713 14.7713 14.7713 14.7714 14.7809 14.7783 14.7761 14.7751 14.7746 14.7742 14.7739 14.7737 14.7735 14.7732 14.7729 14.7728 14.7727 14.7725 14.7723 14.7721 14.7718 14.7718 14.7716 14.7717 14.7714 14.7715 14.7714 14.7713 14.7997 14.7917 14.7855 14.7826 14.7812 14.7802 14.7792 14.7784 14.7777 14.7769 14.7762 14.7756 14.7749 14.7744 14.7739 14.7732 14.7729 14.7725 14.7722 14.772 14.7717 14.7715 14.7713 14.7712 14.8199 14.8046 14.7934 14.7898 14.7877 14.7861 14.7846 14.7832 14.782 14.7806 14.7794 14.7783 14.7773 14.7763 14.7754 14.7745 14.7739 14.7733 14.7727 14.7722 14.7719 14.7716 14.7714 14.7711 14.8529 14.806 14.7999 14.7967 14.7942 14.7921 14.7899 14.7879 14.786 14.7842 14.7825 14.7809 14.7794 14.7781 14.7768 14.7757 14.7747 14.7738 14.7729 14.7724 14.7719 14.7714 14.7713 14.7713 14.6854 14.733 14.7387 14.7431 14.7466 14.7496 14.7523 14.7547 14.7568 14.7588 14.7605 14.7622 14.7638 14.765 14.7663 14.7674 14.7684 14.7693 14.77 14.7705 14.7711 14.7714 14.7715 14.7715 14.7221 14.7346 14.7455 14.7505 14.7534 14.7557 14.7576 14.7593 14.7608 14.7622 14.7635 14.7647 14.7658 14.7669 14.7676 14.7684 14.7692 14.7698 14.7701 14.7708 14.771 14.7713 14.7714 14.7717 14.7429 14.7492 14.7546 14.7583 14.7604 14.7618 14.763 14.764 14.7649 14.7659 14.7666 14.7673 14.768 14.7685 14.7691 14.7695 14.77 14.7703 14.7706 14.771 14.7711 14.7713 14.7715 14.7715 14.7624 14.764 14.7656 14.7668 14.7675 14.7681 14.7685 14.7689 14.7692 14.7694 14.7697 14.77 14.7704 14.7704 14.7708 14.7707 14.7709 14.771 14.7712 14.7712 14.7714 14.7712 14.7714 14.7714 14.7814 14.7788 14.7768 14.7754 14.7747 14.7742 14.7739 14.7736 14.7734 14.7732 14.773 14.7728 14.7726 14.7724 14.7723 14.7721 14.7718 14.7718 14.7716 14.7716 14.7716 14.7715 14.7714 14.7713 14.8008 14.7934 14.7874 14.7837 14.7817 14.7804 14.7794 14.7785 14.7777 14.7768 14.7762 14.7755 14.7749 14.7744 14.7738 14.7734 14.7728 14.7725 14.7721 14.7719 14.7717 14.7715 14.7712 14.7712 14.8214 14.8069 14.7959 14.7912 14.7885 14.7865 14.7847 14.7832 14.7819 14.7805 14.7793 14.7782 14.7772 14.7763 14.7753 14.7745 14.7738 14.7732 14.7726 14.7721 14.7718 14.7715 14.7713 14.7711 14.8569 14.8078 14.8022 14.7981 14.795 14.7924 14.7899 14.7879 14.7859 14.7841 14.7823 14.7808 14.7793 14.7779 14.7767 14.7755 14.7746 14.7736 14.773 14.7722 14.7717 14.7715 14.7712 14.7712 14.683 14.7319 14.7378 14.7423 14.7461 14.7492 14.7522 14.7546 14.7568 14.7587 14.7606 14.7623 14.7638 14.7651 14.7664 14.7675 14.7684 14.7694 14.77 14.7706 14.7712 14.7714 14.7713 14.7715 14.7213 14.7336 14.7445 14.7496 14.753 14.7555 14.7575 14.7593 14.7608 14.7622 14.7635 14.7647 14.7658 14.7668 14.7676 14.7685 14.7692 14.7698 14.7702 14.7707 14.7711 14.7712 14.7715 14.7716 14.7425 14.7485 14.754 14.7577 14.76 14.7616 14.7629 14.764 14.7649 14.7658 14.7665 14.7673 14.768 14.7686 14.7691 14.7696 14.7701 14.7705 14.7707 14.771 14.7712 14.7714 14.7714 14.7716 14.7623 14.7638 14.7653 14.7665 14.7674 14.7679 14.7684 14.7688 14.7692 14.7696 14.7697 14.77 14.7703 14.7704 14.7707 14.7707 14.7709 14.7711 14.7712 14.7713 14.7714 14.7713 14.7714 14.7715 14.7815 14.779 14.7771 14.7755 14.7748 14.7742 14.7739 14.7737 14.7734 14.7732 14.7729 14.7728 14.7726 14.7724 14.7722 14.772 14.772 14.7719 14.7716 14.7716 14.7716 14.7714 14.7713 14.7713 14.8012 14.794 14.788 14.7842 14.782 14.7805 14.7794 14.7785 14.7777 14.7769 14.7762 14.7755 14.7749 14.7743 14.7738 14.7733 14.7729 14.7725 14.7721 14.7719 14.7717 14.7714 14.7712 14.771 14.8221 14.8078 14.7969 14.7919 14.7888 14.7866 14.7848 14.7832 14.7818 14.7805 14.7793 14.7781 14.7771 14.7762 14.7753 14.7744 14.7738 14.7731 14.7726 14.772 14.7718 14.7714 14.7713 14.771 14.859 14.809 14.8031 14.7988 14.7954 14.7926 14.7901 14.7879 14.7858 14.7841 14.7822 14.7807 14.7792 14.7779 14.7766 14.7755 14.7745 14.7737 14.7729 14.7722 14.7717 14.7714 14.7711 14.7713 14.6831 14.7319 14.7377 14.7423 14.7461 14.7493 14.7521 14.7546 14.7568 14.7587 14.7606 14.7623 14.7638 14.7652 14.7664 14.7675 14.7685 14.7693 14.7701 14.7707 14.7711 14.7714 14.7714 14.7715 14.7213 14.7337 14.7445 14.7497 14.7529 14.7555 14.7575 14.7592 14.7609 14.7623 14.7635 14.7647 14.7658 14.7667 14.7677 14.7685 14.7692 14.7698 14.7703 14.7707 14.771 14.7712 14.7715 14.7717 14.7424 14.7486 14.7538 14.7577 14.7601 14.7616 14.7629 14.764 14.7649 14.7657 14.7666 14.7674 14.7679 14.7686 14.7692 14.7695 14.77 14.7704 14.7707 14.771 14.7711 14.7713 14.7715 14.7717 14.7622 14.7638 14.7653 14.7665 14.7673 14.7679 14.7684 14.7687 14.7692 14.7695 14.7697 14.77 14.7703 14.7704 14.7707 14.7708 14.771 14.771 14.7712 14.7712 14.7714 14.7713 14.7713 14.7714 14.7815 14.779 14.777 14.7756 14.7747 14.7742 14.774 14.7737 14.7734 14.7732 14.7729 14.7728 14.7726 14.7723 14.7723 14.7721 14.7719 14.7716 14.7716 14.7716 14.7715 14.7715 14.7713 14.7713 14.8011 14.794 14.7881 14.7842 14.7819 14.7804 14.7794 14.7785 14.7776 14.7769 14.7762 14.7755 14.7749 14.7743 14.7738 14.7733 14.7728 14.7725 14.7721 14.7719 14.7717 14.7714 14.7713 14.771 14.8221 14.8078 14.7969 14.7918 14.7889 14.7866 14.7848 14.7833 14.7818 14.7806 14.7792 14.7782 14.7771 14.7761 14.7753 14.7744 14.7738 14.7732 14.7726 14.7721 14.7718 14.7714 14.7713 14.7711 14.859 14.8089 14.8032 14.7987 14.7955 14.7926 14.7901 14.7879 14.7859 14.784 14.7823 14.7807 14.7793 14.7779 14.7766 14.7755 14.7744 14.7736 14.7728 14.7722 14.7717 14.7715 14.7711 14.7713 14.6854 14.733 14.7387 14.7432 14.7466 14.7497 14.7523 14.7546 14.7569 14.7587 14.7604 14.7622 14.7637 14.7651 14.7662 14.7674 14.7684 14.7692 14.77 14.7706 14.7711 14.7713 14.7716 14.7716 14.722 14.7346 14.7454 14.7504 14.7535 14.7557 14.7576 14.7593 14.7608 14.7622 14.7635 14.7647 14.7657 14.7668 14.7676 14.7684 14.7692 14.7697 14.7702 14.7707 14.771 14.7713 14.7714 14.7715 14.7429 14.7492 14.7546 14.7583 14.7603 14.7618 14.763 14.764 14.765 14.7657 14.7666 14.7673 14.768 14.7686 14.7692 14.7695 14.77 14.7704 14.7706 14.771 14.7711 14.7713 14.7714 14.7716 14.7624 14.764 14.7657 14.7667 14.7674 14.768 14.7685 14.7688 14.7692 14.7694 14.7697 14.77 14.7703 14.7705 14.7706 14.7709 14.7711 14.771 14.7712 14.7712 14.7713 14.7713 14.7715 14.7715 14.7814 14.7789 14.7769 14.7754 14.7747 14.7742 14.7739 14.7737 14.7734 14.7732 14.773 14.7729 14.7725 14.7724 14.7722 14.7721 14.772 14.7718 14.7716 14.7715 14.7714 14.7715 14.7712 14.7713 14.8008 14.7933 14.7873 14.7837 14.7817 14.7804 14.7793 14.7785 14.7776 14.7769 14.7762 14.7756 14.7749 14.7743 14.7738 14.7734 14.7729 14.7724 14.7722 14.7719 14.7716 14.7715 14.7713 14.7711 14.8215 14.8068 14.796 14.7911 14.7885 14.7864 14.7848 14.7833 14.7818 14.7805 14.7793 14.7782 14.7772 14.7762 14.7753 14.7745 14.7737 14.7731 14.7726 14.7721 14.7718 14.7715 14.7713 14.7711 14.8571 14.8078 14.8022 14.7981 14.7949 14.7924 14.79 14.7879 14.7859 14.7841 14.7824 14.7808 14.7792 14.7779 14.7767 14.7756 14.7745 14.7737 14.773 14.7722 14.7716 14.7715 14.7712 14.7713 14.6902 14.7345 14.7412 14.7448 14.7475 14.7501 14.7525 14.7547 14.7567 14.7585 14.7604 14.7621 14.7635 14.7649 14.7662 14.7672 14.7683 14.7691 14.7699 14.7705 14.7709 14.7712 14.7714 14.7716 14.7236 14.737 14.7482 14.752 14.7543 14.7562 14.7578 14.7594 14.7608 14.7622 14.7634 14.7646 14.7656 14.7667 14.7675 14.7684 14.7691 14.7696 14.7702 14.7706 14.7709 14.7713 14.7714 14.7717 14.744 14.7508 14.7567 14.7596 14.7611 14.7622 14.7632 14.7641 14.765 14.7658 14.7665 14.7673 14.768 14.7685 14.769 14.7694 14.77 14.7703 14.7706 14.7709 14.7711 14.7713 14.7714 14.7716 14.7628 14.7647 14.7664 14.7673 14.7678 14.7682 14.7685 14.7689 14.7692 14.7694 14.7698 14.77 14.7702 14.7704 14.7706 14.7708 14.7709 14.771 14.7713 14.7712 14.7714 14.7712 14.7714 14.7714 14.781 14.7782 14.7761 14.7751 14.7745 14.7742 14.774 14.7736 14.7735 14.7733 14.773 14.7728 14.7727 14.7724 14.7723 14.7721 14.772 14.7718 14.7717 14.7716 14.7716 14.7713 14.7713 14.7712 14.7998 14.7917 14.7855 14.7826 14.7812 14.7802 14.7793 14.7785 14.7777 14.777 14.7763 14.7756 14.775 14.7743 14.7738 14.7734 14.773 14.7725 14.7722 14.7719 14.7717 14.7715 14.7714 14.771 14.82 14.8046 14.7934 14.7897 14.7878 14.7861 14.7846 14.7833 14.7819 14.7806 14.7795 14.7783 14.7772 14.7763 14.7755 14.7746 14.7739 14.7732 14.7727 14.7721 14.772 14.7716 14.7713 14.7711 14.8529 14.806 14.7999 14.7967 14.7942 14.792 14.7899 14.788 14.786 14.7842 14.7824 14.7809 14.7795 14.7781 14.7768 14.7756 14.7746 14.7739 14.7731 14.7724 14.7718 14.7716 14.7713 14.7713 14.6829 14.746 14.7452 14.7469 14.7486 14.7506 14.7526 14.7547 14.7566 14.7584 14.7602 14.7618 14.7633 14.7647 14.7658 14.767 14.768 14.7689 14.7696 14.7702 14.7707 14.7711 14.7712 14.7713 14.7176 14.7492 14.7535 14.7546 14.7555 14.7567 14.7581 14.7594 14.7608 14.762 14.7633 14.7644 14.7656 14.7666 14.7674 14.7682 14.7689 14.7695 14.7701 14.7705 14.7708 14.7711 14.7713 14.7716 14.7404 14.7586 14.7605 14.7615 14.762 14.7626 14.7634 14.7642 14.765 14.7658 14.7664 14.7672 14.7679 14.7684 14.769 14.7695 14.7699 14.7702 14.7705 14.7708 14.7711 14.7712 14.7713 14.7716 14.7616 14.7673 14.7678 14.768 14.7682 14.7685 14.7686 14.7689 14.7693 14.7695 14.7698 14.77 14.7702 14.7704 14.7706 14.7707 14.7709 14.771 14.7711 14.7711 14.7713 14.7713 14.7713 14.7713 14.7821 14.7755 14.775 14.7746 14.7744 14.7742 14.774 14.7737 14.7735 14.7732 14.7731 14.7729 14.7726 14.7725 14.7722 14.7722 14.7719 14.7719 14.7717 14.7716 14.7715 14.7714 14.7713 14.7712 14.8029 14.7839 14.7819 14.7811 14.7805 14.7799 14.7792 14.7785 14.7778 14.7771 14.7764 14.7756 14.775 14.7745 14.7739 14.7735 14.773 14.7726 14.7722 14.7721 14.7718 14.7715 14.7713 14.7711 14.8253 14.7929 14.7887 14.7878 14.7869 14.7857 14.7846 14.7831 14.782 14.7807 14.7796 14.7783 14.7774 14.7764 14.7754 14.7747 14.774 14.7734 14.7727 14.7723 14.772 14.7716 14.7714 14.7711 14.8589 14.7957 14.7965 14.7949 14.7934 14.7917 14.7898 14.7879 14.7861 14.7843 14.7827 14.7811 14.7797 14.7782 14.7771 14.776 14.7749 14.7741 14.7732 14.7726 14.7721 14.7717 14.7715 14.7712 
