# vtk DataFile Version 5.1
vtk output
ASCII

DATASET UNSTRUCTURED_GRID
POINTS 81 float
0 0 1.1
0.5 0 1.1
1 0 1.1
1.5 0 1.1
2 0 1.1
2.5 0 1.1
3 0 1.1
3.5 0 1.1
4 0 1.1
0 0.5 1.1
0.5 0.5 1.1
1 0.5 1.1
1.5 0.5 1.1
2 0.5 1.1
2.5 0.5 1.1
3 0.5 1.1
3.5 0.5 1.1
4 0.5 1.1
0 1 1.1
0.5 1 1.1
1 1 1.1
1.5 1 1.1
2 1 1.1
2.5 1 1.1
3 1 1.1
3.5 1 1.1
4 1 1.1
0 0 1.6
0.5 0 1.6
1 0 1.6
1.5 0 1.6
2 0 1.6
2.5 0 1.6
3 0 1.6
3.5 0 1.6
4 0 1.6
0 0.5 1.6
0.5 0.5 1.6
1 0.5 1.6
1.5 0.5 1.6
2 0.5 1.6
2.5 0.5 1.6
3 0.5 1.6
3.5 0.5 1.6
4 0.5 1.6
0 1 1.6
0.5 1 1.6
1 1 1.6
1.5 1 1.6
2 1 1.6
2.5 1 1.6
3 1 1.6
3.5 1 1.6
4 1 1.6
0 0 2.1
0.5 0 2.1
1 0 2.1
1.5 0 2.1
2 0 2.1
2.5 0 2.1
3 0 2.1
3.5 0 2.1
4 0 2.1
0 0.5 2.1
0.5 0.5 2.1
1 0.5 2.1
1.5 0.5 2.1
2 0.5 2.1
2.5 0.5 2.1
3 0.5 2.1
3.5 0.5 2.1
4 0.5 2.1
0 1 2.1
0.5 1 2.1
1 1 2.1
1.5 1 2.1
2 1 2.1
2.5 1 2.1
3 1 2.1
3.5 1 2.1
4 1 2.1

CELLS 33 256
OFFSETS vtktypeint64
0 8 16 24 32 40 48 56 64 72 80 88 96 104 112 120 128 136 144 152 160 168 176 184 192 200 208 216 224 232 240 248 256 
CONNECTIVITY vtktypeint64
0 1 28 27 9 10 37 36 
1 2 29 28 10 11 38 37 
2 3 30 29 11 12 39 38 
3 4 31 30 12 13 40 39 
4 5 32 31 13 14 41 40 
5 6 33 32 14 15 42 41 
6 7 34 33 15 16 43 42 
7 8 35 34 16 17 44 43 
9 10 37 36 18 19 46 45 
10 11 38 37 19 20 47 46 
11 12 39 38 20 21 48 47 
12 13 40 39 21 22 49 48 
13 14 41 40 22 23 50 49 
14 15 42 41 23 24 51 50 
15 16 43 42 24 25 52 51 
16 17 44 43 25 26 53 52 
27 28 55 54 36 37 64 63 
28 29 56 55 37 38 65 64 
29 30 57 56 38 39 66 65 
30 31 58 57 39 40 67 66 
31 32 59 58 40 41 68 67 
32 33 60 59 41 42 69 68 
33 34 61 60 42 43 70 69 
34 35 62 61 43 44 71 70 
36 37 64 63 45 46 73 72 
37 38 65 64 46 47 74 73 
38 39 66 65 47 48 75 74 
39 40 67 66 48 49 76 75 
40 41 68 67 49 50 77 76 
41 42 69 68 50 51 78 77 
42 43 70 69 51 52 79 78 
43 44 71 70 52 53 80 79 
CELL_TYPES 32
12 12 12 12 12 12 12 12 12 12 12 12 12 12 12 12 12 12 12 12 12 12 12 12 12 12 12 12 12 12 12 12 

POINT_DATA 81
SCALARS weights float 1
LOOKUP_TABLE default
15.625 31.25 31.25 31.25 31.25 31.25 31.25 31.25 15.625 31.25 62.5 62.5 62.5 62.5 62.5 62.5 62.5 31.25 15.625 31.25 31.25 31.25 31.25 31.25 31.25 31.25 15.625 31.25 62.5 62.5 62.5 62.5 62.5 62.5 62.5 31.25 62.5 125 125 125 125 125 125 125 62.5 31.25 62.5 62.5 62.5 62.5 62.5 62.5 62.5 31.25 15.625 31.25 31.25 31.25 31.25 31.25 31.25 31.25 15.625 31.25 62.5 62.5 62.5 62.5 62.5 62.5 62.5 31.25 15.625 31.25 31.25 31.25 31.25 31.25 31.25 31.25 15.625 
VECTORS u float
0 0 0  -0.00465909 -0.0061182 -0.00661528  -0.0124418 -0.018587 -0.00741696  -0.0197716 -0.0382962 -0.0064218  -0.025768 -0.0638021 -0.00526738  -0.030293 -0.0931843 -0.00417495  -0.033577 -0.124869 -0.0035069  -0.0359049 -0.157494 -0.00312912  -0.0377064 -0.190101 -0.00341809  0 0 0  4.29153e-05 -0.00565234 -0.000111461  -2.65837e-05 -0.0183261 -8.27312e-05  -0.000349402 -0.0383174 -7.9155e-05  -0.00100589 -0.0640581 -0.000356555  -0.00193167 -0.0937673 -0.000759602  -0.00297356 -0.125643 -0.00107872  -0.00411582 -0.158407 -0.00165451  -0.00519371 -0.191058 -0.00228512  0 0 0  0.00461173 -0.00639707 0.00627351  0.01229 -0.0190231 0.0071938  0.0189818 -0.0391052 0.00624156  0.0236964 -0.0649263 0.00465775  0.0264487 -0.0947551 0.00276589  0.0275831 -0.126683 0.00115621  0.0276792 -0.159437 -0.000141025  0.027247 -0.192147 -0.00101185  0 0 0  -0.00451076 -0.0092584 -0.000428557  -0.0125049 -0.0225918 -0.000758171  -0.0200224 -0.0419066 -0.000983238  -0.0260313 -0.066722 -0.00143766  -0.0304804 -0.0953971 -0.00170171  -0.0335431 -0.126447 -0.00213456  -0.0356913 -0.158598 -0.00237679  -0.0374212 -0.191204 -0.00295413  0 0 0  -7.7188e-06 -0.00876027 -9.19104e-05  -0.000110984 -0.0221422 -0.000138998  -0.000424266 -0.0418535 -0.000114083  -0.00094521 -0.0670621 -0.000434399  -0.00165677 -0.0960984 -0.000769377  -0.00260115 -0.127355 -0.00106823  -0.00359607 -0.159604 -0.00166833  -0.00465417 -0.192183 -0.00232708  0 0 0  0.0044204 -0.00942844 0.000283003  0.0122919 -0.0229359 0.000522614  0.0193268 -0.0427722 0.000796795  0.0242488 -0.0680357 0.000800014  0.0270367 -0.0971651 0.000354052  0.02828 -0.128421 -0.00021565  0.0283892 -0.160666 -0.000864029  0.0279064 -0.193237 -0.0014565  0 0 0  -0.00462526 -0.00671962 0.00574231  -0.0123476 -0.0197703 0.00592709  -0.0195607 -0.039969 0.00443435  -0.0253563 -0.0657567 0.00240541  -0.0296681 -0.0951427 0.000755072  -0.0327983 -0.126678 -0.000751972  -0.035008 -0.159043 -0.00161767  -0.0366871 -0.19164 -0.00251222  0 0 0  5.63264e-05 -0.00628975 -5.26905e-05  5.29289e-05 -0.0196021 -0.000192642  -0.000145793 -0.0401058 -0.000149727  -0.000639081 -0.0662173 -0.000498295  -0.00134802 -0.0958766 -0.000789881  -0.00219321 -0.127566 -0.00108814  -0.0031383 -0.160071 -0.00171137  -0.00408244 -0.192696 -0.00238943  0 0 0  0.00469118 -0.00709164 -0.00574112  0.0124745 -0.020395 -0.00613165  0.0192996 -0.0410175 -0.00466275  0.0242128 -0.0672787 -0.00305724  0.0271714 -0.0970548 -0.00203967  0.0284963 -0.12868 -0.00164342  0.0286825 -0.161219 -0.00152802  0.0282879 -0.193837 -0.00189805  
SCALARS smooth_stress float 1
LOOKUP_TABLE default
4206.91 10084.6 11296.2 9581.68 7385.45 5179.65 3311.61 2166.56 812.253 7045.03 16412.4 17893.5 15213.8 12004.8 8697.22 5793.75 3844.8 1431.16 2838.12 6327.86 6597.27 5632.14 4619.36 3517.57 2482.14 1678.24 618.91 8516.3 20497.1 22986.7 19418.5 14573.8 10005 6345.52 4057.82 1556.19 14752.7 33934.4 36601.3 30742.8 23413.6 16658.1 10821.7 6877.1 2623.28 6236.38 13437.4 13614.6 11324.4 8839.81 6653.02 4476.14 2819.27 1067.08 4309.39 10412.5 11690.4 9836.81 7188.3 4825.39 3033.92 1891.27 743.939 7707.65 17522 18707.8 15529 11408.8 7960.84 5027.91 3032.3 1192.11 3398.26 7109.5 7017.33 5692.21 4220.45 3135.45 1993.99 1141.03 448.174 
CELL_DATA 32
SCALARS stress float 1
LOOKUP_TABLE default
4206.91 5877.65 5418.58 4163.1 3222.35 1957.3 1354.31 812.253 2838.12 3489.74 3107.53 2524.61 2094.75 1422.82 1059.33 618.91 4309.39 6103.14 5587.3 4249.51 2938.8 1886.59 1147.33 743.939 3398.26 3711.24 3306.08 2386.13 1834.32 1301.13 692.859 448.174 
SCALARS volume float 1
LOOKUP_TABLE default
20.228 20.2403 20.2449 20.2472 20.2486 20.2497 20.2503 20.2507 20.2633 20.2524 20.2497 20.2489 20.2489 20.249 20.2491 20.2491 20.2282 20.2402 20.245 20.2474 20.2489 20.2495 20.2504 20.2504 20.2631 20.2527 20.25 20.2491 20.2488 20.249 20.2492 20.2489 
SCALARS volume_diff float 1
LOOKUP_TABLE default
20.103 20.1153 20.1199 20.1222 20.1236 20.1247 20.1253 20.1257 20.1383 20.1274 20.1247 20.1239 20.1239 20.124 20.1241 20.1241 20.1032 20.1152 20.12 20.1224 20.1239 20.1245 20.1254 20.1254 20.1381 20.1277 20.125 20.1241 20.1238 20.124 20.1242 20.1239 
