# vtk DataFile Version 5.1
vtk output
ASCII

DATASET UNSTRUCTURED_GRID
POINTS 81 float
0 0 0
1 0 0
2 0 0
3 0 0
4 0 0
0 1 0
1 1 0
2 1 0
3 1 0
4 1 0
0 0 1
1 0 1
2 0 1
3 0 1
4 0 1
0 1 1
1 1 1
2 1 1
3 1 1
4 1 1
0.5 0 0
1 0 0.5
0.5 0 1
0 0 0.5
0 0.5 0
1 0.5 0
1 0.5 1
0 0.5 1
0.5 1 0
1 1 0.5
0.5 1 1
0 1 0.5
0.5 0 0.5
0.5 0.5 0
1 0.5 0.5
0.5 0.5 1
0 0.5 0.5
0.5 1 0.5
0.5 0.5 0.5
1.5 0 0
2 0 0.5
1.5 0 1
2 0.5 0
2 0.5 1
1.5 1 0
2 1 0.5
1.5 1 1
1.5 0 0.5
1.5 0.5 0
2 0.5 0.5
1.5 0.5 1
1.5 1 0.5
1.5 0.5 0.5
2.5 0 0
3 0 0.5
2.5 0 1
3 0.5 0
3 0.5 1
2.5 1 0
3 1 0.5
2.5 1 1
2.5 0 0.5
2.5 0.5 0
3 0.5 0.5
2.5 0.5 1
2.5 1 0.5
2.5 0.5 0.5
3.5 0 0
4 0 0.5
3.5 0 1
4 0.5 0
4 0.5 1
3.5 1 0
4 1 0.5
3.5 1 1
3.5 0 0.5
3.5 0.5 0
4 0.5 0.5
3.5 0.5 1
3.5 1 0.5
3.5 0.5 0.5

CELLS 5 108
OFFSETS vtktypeint64
0 27 54 81 108 
CONNECTIVITY vtktypeint64
0 1 11 10 5 6 16 15 20 21 22 23 28 29 30 31 24 25 26 27 36 34 33 35 32 37 38 
1 2 12 11 6 7 17 16 39 40 41 21 44 45 46 29 25 42 43 26 34 49 48 50 47 51 52 
2 3 13 12 7 8 18 17 53 54 55 40 58 59 60 45 42 56 57 43 49 63 62 64 61 65 66 
3 4 14 13 8 9 19 18 67 68 69 54 72 73 74 59 56 70 71 57 63 77 76 78 75 79 80 
CELL_TYPES 4
29 29 29 29 

POINT_DATA 81
SCALARS weights float 1
LOOKUP_TABLE default
37.037 74.0741 74.0741 74.0741 37.037 37.037 74.0741 74.0741 74.0741 37.037 37.037 74.0741 74.0741 74.0741 37.037 37.037 74.0741 74.0741 74.0741 37.037 37.037 74.0741 37.037 37.037 37.037 74.0741 74.0741 37.037 37.037 74.0741 37.037 37.037 37.037 37.037 74.0741 37.037 37.037 37.037 37.037 37.037 74.0741 37.037 74.0741 74.0741 37.037 74.0741 37.037 37.037 37.037 74.0741 37.037 37.037 37.037 37.037 74.0741 37.037 74.0741 74.0741 37.037 74.0741 37.037 37.037 37.037 74.0741 37.037 37.037 37.037 37.037 37.037 37.037 37.037 37.037 37.037 37.037 37.037 37.037 37.037 37.037 37.037 37.037 37.037 
VECTORS u float
0 0 0  -0.0224212 -0.0272864 -0.00784718  -0.0459331 -0.103254 -0.00203662  -0.0576634 -0.202246 2.15903e-05  -0.0644705 -0.306198 0.00117982  0 0 0  0.0222528 -0.0290096 0.00753964  0.0405743 -0.107179 0.00258526  0.0427876 -0.207381 0.00103213  0.0388923 -0.311575 0.000576497  0 0 0  -0.0225309 -0.0273456 0.00797153  -0.0461268 -0.103303 0.00248647  -0.0579453 -0.202298 0.000939488  -0.0647955 -0.306165 0.000552416  0 0 0  0.0221488 -0.0289945 -0.00735348  0.0403569 -0.107204 -0.0020209  0.0424929 -0.207345 6.79493e-06  0.0384898 -0.311551 0.00122571  -0.00760958 -0.00835679 -0.00572024  -0.0227599 -0.0311369 5.23329e-05  -0.00765026 -0.00839894 0.00575793  0 0 0  0 0 0  0.000111103 -0.0239176 0.000335354  1.3113e-06 -0.0239411 -0.000171244  0 0 0  0.00754535 -0.00904536 0.00517691  0.0220443 -0.0322796 8.24928e-05  0.00751162 -0.00904518 -0.00509411  0 0 0  -0.00731426 -0.0110202 1.00136e-05  6.2108e-05 -0.00560147 -1.07758e-05  -0.000118554 -0.0269723 7.21216e-05  2.49147e-05 -0.0056203 7.65324e-05  0 0 0  0.00706387 -0.0113947 3.28422e-05  -1.46627e-05 -0.0081546 2.37226e-05  -0.0363418 -0.0595796 -0.00509003  -0.0467634 -0.103885 0.000220716  -0.0365041 -0.0596405 0.00535512  -0.00256991 -0.103687 0.000309359  -0.00278461 -0.103722 0.000197768  0.0345896 -0.062445 0.00519935  0.0409768 -0.107916 0.000280142  0.0344105 -0.0624613 -0.00484174  -0.0374182 -0.0622059 0.0001266  -0.000702977 -0.0585097 0.000252838  -0.00278711 -0.104644 0.000247896  -0.000876069 -0.0585483 6.53267e-05  0.0350182 -0.0649557 0.000171363  -0.00100768 -0.0609414 0.000151753  -0.0525806 -0.150916 -0.00115078  -0.0580378 -0.202094 0.000470996  -0.0528109 -0.150978 0.00181937  -0.00740528 -0.204273 0.000538006  -0.00773001 -0.204284 0.000490308  0.0428398 -0.155599 0.00192098  0.0428267 -0.207236 0.000514746  0.0425997 -0.155595 -0.00114578  -0.0531034 -0.151539 0.000331521  -0.0047977 -0.152305 0.000415768  -0.00756145 -0.204185 0.000509679  -0.00505996 -0.15233 0.000327706  0.0429263 -0.156251 0.000386178  -0.00500798 -0.153032 0.000365496  -0.0613844 -0.253751 0.000491083  -0.0646203 -0.305613 0.000865042  -0.0617127 -0.253765 0.000859022  -0.0127857 -0.308706 0.00088438  -0.0131695 -0.308683 0.000882983  0.0412891 -0.259073 0.000911257  0.0387449 -0.310982 0.000898421  0.0409222 -0.259052 0.000502825  -0.0617256 -0.253734 0.000670433  -0.0100489 -0.25616 0.000704732  -0.0129349 -0.308241 0.000878751  -0.0104148 -0.256157 0.000675082  0.0412221 -0.259072 0.000699282  -0.0102355 -0.256198 0.000686705  
SCALARS smooth_stress float 1
LOOKUP_TABLE default
102111 232968 241969 232615 121503 102111 232968 241969 232615 121503 102111 232968 241969 232615 121503 102111 232968 241969 232615 121503 102111 232968 102111 102111 102111 232968 232968 102111 102111 232968 102111 102111 102111 102111 232968 102111 102111 102111 102111 130857 241969 130857 241969 241969 130857 241969 130857 130857 130857 241969 130857 130857 130857 111112 232615 111112 232615 232615 111112 232615 111112 111112 111112 232615 111112 111112 111112 121503 121503 121503 121503 121503 121503 121503 121503 121503 121503 121503 121503 121503 121503 
CELL_DATA 4
SCALARS stress float 1
LOOKUP_TABLE default
102111 130857 111112 121503 
SCALARS volume float 1
LOOKUP_TABLE default
7563.27 7563.16 7563.84 7563.9 
SCALARS volume_diff float 1
LOOKUP_TABLE default
7562.27 7562.16 7562.84 7562.9 
