# vtk DataFile Version 5.1
vtk output
ASCII

DATASET UNSTRUCTURED_GRID
POINTS 81 float
0 0 0
1 0 0
2 0 0
3 0 0
4 0 0
0 1 0
1 1 0
2 1 0
3 1 0
4 1 0
0 0 1
1 0 1
2 0 1
3 0 1
4 0 1
0 1 1
1 1 1
2 1 1
3 1 1
4 1 1
0 0.5 0
0.5 1 0.5
0.5 0.5 0.5
0.5 0.5 0
0.5 1 0
1 1 0.5
0.5 0.5 1
1 0.5 1
0.5 0 1
0 0 0.5
0.5 0 0.5
0 1 0.5
0 0.5 0.5
0.5 1 1
0 0.5 1
1 0 0.5
0.5 0 0
1 0.5 0.5
1 0.5 0
1.5 1 0.5
1.5 0.5 0.5
1.5 0.5 0
1.5 1 0
2 1 0.5
1.5 0.5 1
2 0.5 1
1.5 0 1
1.5 0 0.5
1.5 1 1
2 0 0.5
1.5 0 0
2 0.5 0.5
2 0.5 0
2.5 1 0.5
2.5 0.5 0.5
2.5 0.5 0
2.5 1 0
3 1 0.5
2.5 0.5 1
3 0.5 1
2.5 0 1
2.5 0 0.5
2.5 1 1
3 0 0.5
2.5 0 0
3 0.5 0.5
3 0.5 0
3.5 1 0.5
3.5 0.5 0.5
3.5 0.5 0
3.5 1 0
4 1 0.5
3.5 0.5 1
4 0.5 1
3.5 0 1
3.5 0 0.5
3.5 1 1
4 0 0.5
3.5 0 0
4 0.5 0.5
4 0.5 0

CELLS 25 240
OFFSETS vtktypeint64
0 10 20 30 40 50 60 70 80 90 100 110 120 130 140 150 160 170 180 190 200 210 220 230 240 
CONNECTIVITY vtktypeint64
0 5 16 6 20 21 22 23 24 25 
10 16 11 0 26 27 28 29 22 30 
0 5 15 16 20 31 32 22 21 33 
10 16 0 15 26 22 29 34 33 32 
11 0 16 1 30 22 27 35 36 37 
16 0 6 1 22 23 25 37 36 38 
1 6 17 7 38 39 40 41 42 43 
11 17 12 1 44 45 46 35 40 47 
1 6 16 17 38 25 37 40 39 48 
11 17 1 16 44 40 35 27 48 37 
12 1 17 2 47 40 45 49 50 51 
17 1 7 2 40 41 43 51 50 52 
2 7 18 8 52 53 54 55 56 57 
12 18 13 2 58 59 60 49 54 61 
2 7 17 18 52 43 51 54 53 62 
12 18 2 17 58 54 49 45 62 51 
13 2 18 3 61 54 59 63 64 65 
18 2 8 3 54 55 57 65 64 66 
3 8 19 9 66 67 68 69 70 71 
13 19 14 3 72 73 74 63 68 75 
3 8 18 19 66 57 65 68 67 76 
13 19 3 18 72 68 63 59 76 65 
14 3 19 4 75 68 73 77 78 79 
19 3 9 4 68 69 71 79 78 80 
CELL_TYPES 24
24 24 24 24 24 24 24 24 24 24 24 24 24 24 24 24 24 24 24 24 24 24 24 24 

POINT_DATA 81
SCALARS weights float 1
LOOKUP_TABLE default
100 133.333 133.333 133.333 33.3333 33.3333 66.6667 66.6667 66.6667 33.3333 33.3333 66.6667 66.6667 66.6667 33.3333 33.3333 133.333 133.333 133.333 100 33.3333 33.3333 100 33.3333 16.6667 50 33.3333 50 16.6667 33.3333 33.3333 16.6667 33.3333 33.3333 16.6667 50 33.3333 66.6667 50 33.3333 100 33.3333 16.6667 50 33.3333 50 16.6667 33.3333 33.3333 50 33.3333 66.6667 50 33.3333 100 33.3333 16.6667 50 33.3333 50 16.6667 33.3333 33.3333 50 33.3333 66.6667 50 33.3333 100 33.3333 16.6667 33.3333 33.3333 33.3333 16.6667 33.3333 33.3333 16.6667 33.3333 33.3333 16.6667 
VECTORS u float
0 0 0  -0.0251035 -0.0297819 -0.00655754  -0.041605 -0.102169 -0.000976849  -0.0526118 -0.19759 0.0045789  -0.0596325 -0.298061 0.00855741  0 0 0  0.0255167 -0.0317249 0.00754754  0.040889 -0.106647 0.00697009  0.0438948 -0.202391 0.00894773  0.0406361 -0.303926 0.0114751  0 0 0  -0.0244005 -0.0321059 0.00552917  -0.0451537 -0.104588 0.00451183  -0.0574815 -0.199582 0.00584328  -0.0643232 -0.301315 0.00833321  0 0 0  0.0196661 -0.0316229 -0.00543565  0.0359967 -0.108144 0.00122571  0.040112 -0.205402 0.00731456  0.0379257 -0.307899 0.0115908  0 0 0  0.00643039 -0.0142412 -0.0014534  0.00363946 -0.00804093 0.000834048  0.00138086 -0.0073095 -0.000399882  0.0124864 -0.0106737 0.00740754  0.0223955 -0.0340677 0.000735939  0.00388485 -0.00625631 -0.000375688  0.000843167 -0.0293745 0.000357151  -0.0110101 -0.0111781 0.00451064  0 0 0  -0.0112124 -0.0129923 0.000349522  0 0 0  0 0 0  0.00576705 -0.0130166 -0.00448543  0 0 0  -0.0240242 -0.0336354 -0.000552177  -0.0131747 -0.0093401 -0.00486746  0.00167739 -0.0315533 -0.000120014  0.00150466 -0.0280482 0.000419928  0.0328462 -0.0671654 0.00286078  -0.000123978 -0.0639746 0.00120372  0.00115895 -0.0610991 0.00143313  0.034808 -0.0640684 0.00693966  0.0388262 -0.108819 0.00390977  -0.00164878 -0.0628246 0.00151491  -0.00325155 -0.104695 0.00296056  -0.0355784 -0.0641336 0.00451171  -0.0352046 -0.0652048 -0.000193119  0.0285075 -0.0650939 -0.00276071  -0.043527 -0.104327 0.00168812  -0.0340503 -0.0626142 -0.00345247  -0.00198424 -0.105019 0.00290096  -0.000695467 -0.103103 0.00299027  0.0421066 -0.154126 0.00632918  -0.00425148 -0.151345 0.00460333  -0.00211358 -0.149183 0.00473324  0.0434349 -0.152148 0.0078492  0.0421207 -0.20414 0.00805783  -0.0063746 -0.151784 0.00485039  -0.00841832 -0.20162 0.00659788  -0.0520375 -0.150733 0.00498188  -0.0503628 -0.1503 0.00315738  0.0392528 -0.15415 0.00404811  -0.0553079 -0.198568 0.00522184  -0.0476713 -0.148909 0.00195567  -0.00676489 -0.200639 0.00656933  -0.0050149 -0.199336 0.00666365  0.0414395 -0.254031 0.0100831  -0.00939035 -0.25133 0.00825304  -0.0074985 -0.249614 0.00832135  0.0426683 -0.252383 0.0102346  0.0392933 -0.305638 0.0115517  -0.0111716 -0.252685 0.00842988  -0.0133476 -0.30419 0.0100044  -0.061255 -0.250291 0.00707567  -0.059176 -0.249039 0.00678039  0.039746 -0.255594 0.00961351  -0.062186 -0.299492 0.0084905  -0.0564494 -0.247886 0.00657141  -0.0118716 -0.302197 0.00993693  -0.0101421 -0.300629 0.00983629  
SCALARS smooth_stress float 1
LOOKUP_TABLE default
82388.7 77158.2 40656.9 17341.8 3157.82 33472.2 55826.4 29923.7 12800.3 2981.19 26893.3 37966.3 21337.3 9628.5 2666.71 29886.3 104993 65620.1 30423.9 9259.39 33472.2 33472.2 82388.7 28255 20278.2 43726.8 26893.3 31379.5 10200.9 26893.3 24247.4 13193.9 29886.3 29886.3 16692.4 27765.4 22023.2 44627.1 35548.2 27571.5 55134.9 17950.3 12099.7 24969.8 13718.9 18046.4 6586.81 14580.7 22603.9 14750.5 13844.6 24329.7 17824 11973.4 26812.4 9029.96 4953.92 11530.7 6756.65 8408.04 3290.92 7297.25 10485.2 6337.58 8082.37 11693.9 7846.36 3770.32 9259.39 2981.19 1269.62 2981.19 2331.25 2666.71 1220.46 2666.71 3611.49 1446.25 3157.82 3157.82 1711.57 
CELL_DATA 24
SCALARS stress float 1
LOOKUP_TABLE default
20278.2 10200.9 13193.9 16692.4 14046.5 7976.72 12099.7 6586.81 15471.8 7132.1 7993.88 5850.67 4953.92 3290.92 7019.45 3465.73 4006.33 4076.04 1269.62 1220.46 2500.7 1110.79 1446.25 1711.57 
SCALARS volume float 1
LOOKUP_TABLE default
4.16862 4.16482 4.17178 4.1654 4.16518 4.1666 4.1672 4.1659 4.16778 4.16671 4.16605 4.16672 4.16689 4.1664 4.16687 4.16675 4.16646 4.16669 4.16672 4.16658 4.1666 4.1667 4.16658 4.1666 
SCALARS volume_diff float 1
LOOKUP_TABLE default
4.00196 3.99815 4.00511 3.99873 3.99851 3.99994 4.00054 3.99923 4.00111 4.00004 3.99938 4.00005 4.00022 3.99973 4.0002 4.00008 3.99979 4.00002 4.00005 3.99992 3.99994 4.00004 3.99992 3.99993 
