# vtk DataFile Version 5.1
vtk output
ASCII

DATASET UNSTRUCTURED_GRID
POINTS 81 float
0 0 0
0.5 0 0
1 0 0
1.5 0 0
2 0 0
2.5 0 0
3 0 0
3.5 0 0
4 0 0
0 0.5 0
0.5 0.5 0
1 0.5 0
1.5 0.5 0
2 0.5 0
2.5 0.5 0
3 0.5 0
3.5 0.5 0
4 0.5 0
0 1 0
0.5 1 0
1 1 0
1.5 1 0
2 1 0
2.5 1 0
3 1 0
3.5 1 0
4 1 0
0 0 0.5
0.5 0 0.5
1 0 0.5
1.5 0 0.5
2 0 0.5
2.5 0 0.5
3 0 0.5
3.5 0 0.5
4 0 0.5
0 0.5 0.5
0.5 0.5 0.5
1 0.5 0.5
1.5 0.5 0.5
2 0.5 0.5
2.5 0.5 0.5
3 0.5 0.5
3.5 0.5 0.5
4 0.5 0.5
0 1 0.5
0.5 1 0.5
1 1 0.5
1.5 1 0.5
2 1 0.5
2.5 1 0.5
3 1 0.5
3.5 1 0.5
4 1 0.5
0 0 1
0.5 0 1
1 0 1
1.5 0 1
2 0 1
2.5 0 1
3 0 1
3.5 0 1
4 0 1
0 0.5 1
0.5 0.5 1
1 0.5 1
1.5 0.5 1
2 0.5 1
2.5 0.5 1
3 0.5 1
3.5 0.5 1
4 0.5 1
0 1 1
0.5 1 1
1 1 1
1.5 1 1
2 1 1
2.5 1 1
3 1 1
3.5 1 1
4 1 1

CELLS 193 768
OFFSETS vtktypeint64
0 4 8 12 16 20 24 28 32 36 40 44 48 52 56 60 64 68 72 76 80 84 88 92 96 100 104 108 112 116 120 124 128 132 136 140 144 148 152 156 160 164 168 172 176 180 184 188 192 196 200 204 208 212 216 220 224 228 232 236 240 244 248 252 256 260 264 268 272 276 280 284 288 292 296 300 304 308 312 316 320 324 328 332 336 340 344 348 352 356 360 364 368 372 376 380 384 388 392 396 400 404 408 412 416 420 424 428 432 436 440 444 448 452 456 460 464 468 472 476 480 484 488 492 496 500 504 508 512 516 520 524 528 532 536 540 544 548 552 556 560 564 568 572 576 580 584 588 592 596 600 604 608 612 616 620 624 628 632 636 640 644 648 652 656 660 664 668 672 676 680 684 688 692 696 700 704 708 712 716 720 724 728 732 736 740 744 748 752 756 760 764 768 
CONNECTIVITY vtktypeint64
0 9 37 10 
27 37 28 0 
0 9 36 37 
27 37 0 36 
28 0 37 1 
37 0 10 1 
1 10 38 11 
28 38 29 1 
1 10 37 38 
28 38 1 37 
29 1 38 2 
38 1 11 2 
2 11 39 12 
29 39 30 2 
2 11 38 39 
29 39 2 38 
30 2 39 3 
39 2 12 3 
3 12 40 13 
30 40 31 3 
3 12 39 40 
30 40 3 39 
31 3 40 4 
40 3 13 4 
4 13 41 14 
31 41 32 4 
4 13 40 41 
31 41 4 40 
32 4 41 5 
41 4 14 5 
5 14 42 15 
32 42 33 5 
5 14 41 42 
32 42 5 41 
33 5 42 6 
42 5 15 6 
6 15 43 16 
33 43 34 6 
6 15 42 43 
33 43 6 42 
34 6 43 7 
43 6 16 7 
7 16 44 17 
34 44 35 7 
7 16 43 44 
34 44 7 43 
35 7 44 8 
44 7 17 8 
9 18 46 19 
36 46 37 9 
9 18 45 46 
36 46 9 45 
37 9 46 10 
46 9 19 10 
10 19 47 20 
37 47 38 10 
10 19 46 47 
37 47 10 46 
38 10 47 11 
47 10 20 11 
11 20 48 21 
38 48 39 11 
11 20 47 48 
38 48 11 47 
39 11 48 12 
48 11 21 12 
12 21 49 22 
39 49 40 12 
12 21 48 49 
39 49 12 48 
40 12 49 13 
49 12 22 13 
13 22 50 23 
40 50 41 13 
13 22 49 50 
40 50 13 49 
41 13 50 14 
50 13 23 14 
14 23 51 24 
41 51 42 14 
14 23 50 51 
41 51 14 50 
42 14 51 15 
51 14 24 15 
15 24 52 25 
42 52 43 15 
15 24 51 52 
42 52 15 51 
43 15 52 16 
52 15 25 16 
16 25 53 26 
43 53 44 16 
16 25 52 53 
43 53 16 52 
44 16 53 17 
53 16 26 17 
27 36 64 37 
54 64 55 27 
27 36 63 64 
54 64 27 63 
55 27 64 28 
64 27 37 28 
28 37 65 38 
55 65 56 28 
28 37 64 65 
55 65 28 64 
56 28 65 29 
65 28 38 29 
29 38 66 39 
56 66 57 29 
29 38 65 66 
56 66 29 65 
57 29 66 30 
66 29 39 30 
30 39 67 40 
57 67 58 30 
30 39 66 67 
57 67 30 66 
58 30 67 31 
67 30 40 31 
31 40 68 41 
58 68 59 31 
31 40 67 68 
58 68 31 67 
59 31 68 32 
68 31 41 32 
32 41 69 42 
59 69 60 32 
32 41 68 69 
59 69 32 68 
60 32 69 33 
69 32 42 33 
33 42 70 43 
60 70 61 33 
33 42 69 70 
60 70 33 69 
61 33 70 34 
70 33 43 34 
34 43 71 44 
61 71 62 34 
34 43 70 71 
61 71 34 70 
62 34 71 35 
71 34 44 35 
36 45 73 46 
63 73 64 36 
36 45 72 73 
63 73 36 72 
64 36 73 37 
73 36 46 37 
37 46 74 47 
64 74 65 37 
37 46 73 74 
64 74 37 73 
65 37 74 38 
74 37 47 38 
38 47 75 48 
65 75 66 38 
38 47 74 75 
65 75 38 74 
66 38 75 39 
75 38 48 39 
39 48 76 49 
66 76 67 39 
39 48 75 76 
66 76 39 75 
67 39 76 40 
76 39 49 40 
40 49 77 50 
67 77 68 40 
40 49 76 77 
67 77 40 76 
68 40 77 41 
77 40 50 41 
41 50 78 51 
68 78 69 41 
41 50 77 78 
68 78 41 77 
69 41 78 42 
78 41 51 42 
42 51 79 52 
69 79 70 42 
42 51 78 79 
69 79 42 78 
70 42 79 43 
79 42 52 43 
43 52 80 53 
70 80 71 43 
43 52 79 80 
70 80 43 79 
71 43 80 44 
80 43 53 44 
CELL_TYPES 192
10 10 10 10 10 10 10 10 10 10 10 10 10 10 10 10 10 10 10 10 10 10 10 10 10 10 10 10 10 10 10 10 10 10 10 10 10 10 10 10 10 10 10 10 10 10 10 10 10 10 10 10 10 10 10 10 10 10 10 10 10 10 10 10 10 10 10 10 10 10 10 10 10 10 10 10 10 10 10 10 10 10 10 10 10 10 10 10 10 10 10 10 10 10 10 10 10 10 10 10 10 10 10 10 10 10 10 10 10 10 10 10 10 10 10 10 10 10 10 10 10 10 10 10 10 10 10 10 10 10 10 10 10 10 10 10 10 10 10 10 10 10 10 10 10 10 10 10 10 10 10 10 10 10 10 10 10 10 10 10 10 10 10 10 10 10 10 10 10 10 10 10 10 10 10 10 10 10 10 10 10 10 10 10 10 10 10 10 10 10 10 10 

POINT_DATA 81
SCALARS weights float 1
LOOKUP_TABLE default
31.25 41.6667 41.6667 41.6667 41.6667 41.6667 41.6667 41.6667 10.4167 41.6667 62.5 62.5 62.5 62.5 62.5 62.5 62.5 20.8333 10.4167 20.8333 20.8333 20.8333 20.8333 20.8333 20.8333 20.8333 10.4167 41.6667 62.5 62.5 62.5 62.5 62.5 62.5 62.5 20.8333 62.5 125 125 125 125 125 125 125 62.5 20.8333 62.5 62.5 62.5 62.5 62.5 62.5 62.5 41.6667 10.4167 20.8333 20.8333 20.8333 20.8333 20.8333 20.8333 20.8333 10.4167 20.8333 62.5 62.5 62.5 62.5 62.5 62.5 62.5 41.6667 10.4167 41.6667 41.6667 41.6667 41.6667 41.6667 41.6667 41.6667 31.25 
VECTORS u float
0 0 0  -0.0019567 -0.00745572 0.000280578  -0.00340968 -0.0156086 0.00156171  -0.00452232 -0.024216 0.0034397  -0.00534058 -0.0328568 0.00564938  -0.00590992 -0.0412089 0.00804021  -0.0062387 -0.0489984 0.0105087  -0.00641394 -0.0561066 0.0129832  -0.00649595 -0.0624497 0.0154997  0 0 0  0.00117451 -0.00610617 0.000620246  0.00108314 -0.0143271 0.00205469  0.000785351 -0.0231716 0.0038371  0.000435829 -0.032064 0.0059465  7.65324e-05 -0.0406561 0.00827231  -0.000247478 -0.0486859 0.0107008  -0.000467777 -0.0559472 0.0131814  -0.000595331 -0.0623694 0.0156999  0 0 0  0.00284773 -0.0063777 0.00184334  0.00510502 -0.0137674 0.00252324  0.00599599 -0.0225204 0.00418098  0.00632834 -0.0314579 0.00621084  0.0063169 -0.0401373 0.0084811  0.00608587 -0.0482966 0.0108746  0.00578761 -0.0557248 0.0133479  0.00556803 -0.0622652 0.0158521  0 0 0  -0.00300539 -0.00783925 0.000197589  -0.00515717 -0.0159752 0.00132048  -0.00669587 -0.0245089 0.00317079  -0.00776422 -0.0330783 0.00540239  -0.00845551 -0.0413858 0.00783938  -0.00882483 -0.0491601 0.0103578  -0.00899529 -0.0562818 0.0128788  -0.00906873 -0.0626915 0.0154219  0 0 0  0.000314176 -0.00602341 0.000253439  -0.000640035 -0.014484 0.00144333  -0.0013479 -0.0233179 0.00329709  -0.00192726 -0.0321873 0.00552052  -0.00238967 -0.0407693 0.00797063  -0.0027442 -0.0488101 0.0105039  -0.00295877 -0.0561075 0.0130587  -0.00308919 -0.0626164 0.0156021  0 0 0  0.000965059 -0.00696015 4.33922e-05  0.00314116 -0.0138972 0.00130886  0.00375748 -0.0225983 0.00325531  0.00392628 -0.0315286 0.00553852  0.0038569 -0.0402198 0.00803286  0.00364089 -0.0483938 0.0106155  0.0033741 -0.0558617 0.0132129  0.00317335 -0.0624793 0.0157732  0 0 0  -0.00350735 -0.00819649 0.000617862  -0.00656819 -0.0161341 0.0014385  -0.00873947 -0.0245739 0.0030973  -0.0101879 -0.0331376 0.00524449  -0.0110838 -0.0414571 0.00765634  -0.0115414 -0.049264 0.0101824  -0.0117061 -0.0564146 0.0127529  -0.0117486 -0.06289 0.0153463  0 0 0  0.000171185 -0.00575984 0.000601888  -0.00195485 -0.0143117 0.00126922  -0.00332522 -0.0231667 0.00298238  -0.00428057 -0.0321036 0.00519943  -0.00494194 -0.0407534 0.00768983  -0.00537348 -0.0488615 0.0102849  -0.00559759 -0.0562311 0.0129013  -0.00570774 -0.0628287 0.0154947  0 0 0  0.000655472 -0.00655013 -0.000143051  0.00188959 -0.0133444 0.000848055  0.00172567 -0.0222813 0.0026083  0.00155044 -0.0313395 0.00498986  0.00131249 -0.0401413 0.00761342  0.0010488 -0.0484093 0.0103275  0.000794172 -0.0559657 0.0130299  0.000621319 -0.0626827 0.0156564  
SCALARS smooth_stress float 1
LOOKUP_TABLE default
8768.69 10398.3 8780.01 7285.13 5789.61 4285.32 2789.36 1357.75 223.986 12440 16860.1 13736 11377.4 9003.26 6681.06 4372.98 2164.72 445.472 3631.04 6575.95 5311.18 4190.18 3256.57 2406.9 1623.72 871.635 230.223 12457.9 17597.3 14095.7 11401.8 8907.17 6531.82 4253.81 2173.13 444.894 17789.7 34885.5 29065.8 23944.4 19054.6 14285.6 9576.49 5125.44 1427.86 6724.5 19166.2 16433.8 12891.5 10168.7 7619.64 5226.83 2937.19 939.162 3224.44 6578.7 5193.46 4101.23 3149.45 2293.94 1504.86 814.639 227.138 5725.73 18320.6 16171.1 12992.3 10267.8 7700.44 5238.24 2952.94 1006.71 3193.13 12163.8 11318.7 8941.25 7095.96 5346.49 3686.85 2108.35 739.327 
CELL_DATA 192
SCALARS stress float 1
LOOKUP_TABLE default
1530.83 1610.52 1462.39 1462.39 1370.99 1331.57 1331.86 1247.42 1422.22 1424.36 1143.38 1126.5 1166.06 1018.98 1189.26 1189.71 975.109 971.005 962.643 818.187 977.041 970.827 802.506 807.813 754.704 632.829 766.291 754.881 629.147 641.435 547.519 450.198 558.106 542.935 449.425 466.555 337.939 280.834 350.174 332.401 276.549 295.479 141.453 116.836 160.483 142.967 103.174 120.812 1925.01 1341.66 1706.03 1706.03 1426.02 1342.06 1687.51 1198.77 1621.37 1724.64 1121.62 1121.66 1253.5 987.546 1248.51 1245.55 970.137 973.765 973.221 810.612 989.697 981.498 798.374 803.314 728.304 634.083 751.732 742.786 622.93 630.285 514.622 454.857 533.693 523.349 444.202 455.358 318.857 268.218 334.886 322.736 255.89 270.646 134.44 99.1829 147.692 138.308 87.425 95.7821 1461.69 1821.26 1403.18 1403.18 1672.81 1622.84 1426.14 1465.6 1597.78 1619.04 1292.13 1247.62 1193.31 1145.67 1266.35 1290.06 1041.05 1020.03 973.971 881.464 1024.93 1033.04 824.629 819.534 756.855 654.689 791.208 788.666 628.651 634.535 544.229 451.772 568.335 558.826 438.651 451.712 333.12 275.069 353.152 339.37 267.657 282.219 144.721 121.182 164.547 150.731 105.956 118.927 1715.87 1322.8 1596.57 1596.57 1382.02 1338.56 1728.37 1393.18 1590.61 1620.83 1214.98 1202.14 1245.92 1077.41 1287.74 1280.84 1004.69 990.486 980.9 865.608 1024.01 1030.15 816.544 811.962 741.078 664.933 783.494 783.292 631.845 633.82 521.11 470.34 556.466 551.557 446.932 454.02 320.589 275.916 347.413 339.008 256.214 266.86 137.711 107.391 154.794 147.555 93.2553 98.6206 
SCALARS volume float 1
LOOKUP_TABLE default
0.020867 0.0207855 0.0208464 0.0208464 0.0208258 0.0207945 0.0208626 0.0208053 0.0208367 0.0208681 0.020828 0.0208038 0.0208554 0.0208127 0.0208352 0.0208594 0.0208295 0.020812 0.0208488 0.0208192 0.0208345 0.0208519 0.0208307 0.0208191 0.0208434 0.0208246 0.0208339 0.0208455 0.0208316 0.0208247 0.0208392 0.0208286 0.0208335 0.0208405 0.0208324 0.0208288 0.0208362 0.0208313 0.0208334 0.0208369 0.0208331 0.0208316 0.0208343 0.0208328 0.0208332 0.0208346 0.0208335 0.0208328 0.0208769 0.0208077 0.0208735 0.0208735 0.0208282 0.0207968 0.0208664 0.0208055 0.0208386 0.02087 0.0208313 0.0208052 0.0208584 0.0208123 0.0208349 0.020861 0.0208325 0.0208136 0.0208506 0.0208188 0.0208332 0.020852 0.0208332 0.0208208 0.0208441 0.0208241 0.0208324 0.0208448 0.0208336 0.0208262 0.0208392 0.0208281 0.020832 0.0208394 0.0208337 0.02083 0.0208359 0.0208308 0.0208321 0.0208359 0.0208336 0.0208321 0.0208341 0.0208324 0.0208326 0.0208341 0.0208335 0.0208329 0.020861 0.0207905 0.0208405 0.0208405 0.0208289 0.0208 0.0208643 0.0208018 0.020837 0.020866 0.0208275 0.0208015 0.0208564 0.0208102 0.0208345 0.0208605 0.0208288 0.0208097 0.0208497 0.0208175 0.0208343 0.0208534 0.0208299 0.0208171 0.0208441 0.0208234 0.0208342 0.020847 0.020831 0.0208232 0.0208397 0.020828 0.020834 0.0208417 0.020832 0.0208279 0.0208367 0.020831 0.0208338 0.0208378 0.0208328 0.0208311 0.0208345 0.0208327 0.0208333 0.0208351 0.0208335 0.0208327 0.0208658 0.0208078 0.0208606 0.0208606 0.0208282 0.0208 0.0208661 0.0208021 0.0208383 0.0208666 0.0208294 0.0208016 0.0208595 0.0208097 0.0208347 0.0208626 0.0208316 0.0208109 0.0208517 0.0208169 0.0208333 0.020854 0.0208324 0.0208185 0.0208452 0.0208229 0.0208328 0.0208466 0.0208328 0.0208244 0.02084 0.0208274 0.0208326 0.020841 0.0208331 0.0208287 0.0208365 0.0208304 0.0208327 0.0208371 0.0208333 0.0208314 0.0208344 0.0208323 0.0208329 0.0208348 0.0208335 0.0208327 
SCALARS volume_diff float 1
LOOKUP_TABLE default
3.36617e-05 -4.78501e-05 1.30907e-05 1.30907e-05 -7.53378e-06 -3.882e-05 2.92311e-05 -2.80837e-05 3.35773e-06 3.47396e-05 -5.38304e-06 -2.95254e-05 2.20413e-05 -2.06108e-05 1.89741e-06 2.60845e-05 -3.87554e-06 -2.12938e-05 1.54997e-05 -1.40965e-05 1.12504e-06 1.85644e-05 -2.67228e-06 -1.42679e-05 1.00757e-05 -8.75195e-06 5.88596e-07 1.21966e-05 -1.70742e-06 -8.62405e-06 5.82139e-06 -4.70753e-06 2.01166e-07 7.12276e-06 -9.31323e-07 -4.48649e-06 2.86102e-06 -2.00048e-06 4.47035e-08 3.59863e-06 -2.76913e-07 -1.73723e-06 9.61125e-07 -5.352e-07 -1.49012e-07 1.30385e-06 1.73847e-07 -5.01672e-07 4.35188e-05 -2.56387e-05 4.02108e-05 4.02108e-05 -5.09992e-06 -3.6529e-05 3.30458e-05 -2.78751e-05 5.24769e-06 3.66171e-05 -2.06629e-06 -2.81446e-05 2.50464e-05 -2.10044e-05 1.54475e-06 2.76441e-05 -8.82894e-07 -1.97192e-05 1.72183e-05 -1.45125e-05 -1.5522e-07 1.86885e-05 -1.46528e-07 -1.25691e-05 1.08033e-05 -9.19898e-06 -9.21389e-07 1.15087e-05 2.85606e-07 -7.10537e-06 5.91328e-06 -5.21292e-06 -1.29888e-06 6.08961e-06 4.04815e-07 -3.35028e-06 2.5779e-06 -2.52823e-06 -1.23059e-06 2.52326e-06 2.90573e-07 -1.25542e-06 7.3264e-07 -9.07729e-07 -7.63685e-07 7.84795e-07 1.98682e-07 -4.58211e-07 2.76218e-05 -4.2811e-05 7.13269e-06 7.13269e-06 -4.40454e-06 -3.33649e-05 3.09596e-05 -3.1516e-05 3.63837e-06 3.26807e-05 -5.87975e-06 -3.1855e-05 2.30471e-05 -2.31788e-05 1.12752e-06 2.71524e-05 -4.55603e-06 -2.36395e-05 1.64161e-05 -1.58697e-05 9.48707e-07 2.00619e-05 -3.43596e-06 -1.6241e-05 1.08108e-05 -9.89561e-06 8.29498e-07 1.36445e-05 -2.36556e-06 -1.01365e-05 6.38515e-06 -5.3669e-06 6.25849e-07 8.40177e-06 -1.37215e-06 -5.44762e-06 3.34034e-06 -2.30968e-06 4.19716e-07 4.49518e-06 -5.12848e-07 -2.25877e-06 1.18713e-06 -6.12189e-07 7.45058e-09 1.75089e-06 1.41561e-07 -6.53168e-07 3.24274e-05 -2.55754e-05 2.73113e-05 2.73113e-05 -5.09123e-06 -3.33823e-05 3.27403e-05 -3.12105e-05 4.92235e-06 3.3247e-05 -3.94136e-06 -3.17444e-05 2.62111e-05 -2.3637e-05 1.40071e-06 2.9251e-05 -1.74716e-06 -2.24424e-05 1.83781e-05 -1.64298e-05 -5.96046e-08 2.0653e-05 -9.7851e-07 -1.48316e-05 1.18191e-05 -1.04693e-05 -5.52585e-07 1.33092e-05 -4.99189e-07 -8.88854e-06 6.68565e-06 -5.96543e-06 -7.14014e-07 7.67907e-06 -2.111e-07 -4.6206e-06 3.12676e-06 -2.91194e-06 -6.76761e-07 3.73026e-06 2.48353e-09 -1.92846e-06 1.0406e-06 -1.01576e-06 -4.79321e-07 1.45038e-06 1.61429e-07 -6.49442e-07 
