# vtk DataFile Version 5.1
vtk output
ASCII

DATASET UNSTRUCTURED_GRID
POINTS 425 float
0 0 2.2
0.25 0 2.2
0.5 0 2.2
0.75 0 2.2
1 0 2.2
1.25 0 2.2
1.5 0 2.2
1.75 0 2.2
2 0 2.2
2.25 0 2.2
2.5 0 2.2
2.75 0 2.2
3 0 2.2
3.25 0 2.2
3.5 0 2.2
3.75 0 2.2
4 0 2.2
0 0.25 2.2
0.25 0.25 2.2
0.5 0.25 2.2
0.75 0.25 2.2
1 0.25 2.2
1.25 0.25 2.2
1.5 0.25 2.2
1.75 0.25 2.2
2 0.25 2.2
2.25 0.25 2.2
2.5 0.25 2.2
2.75 0.25 2.2
3 0.25 2.2
3.25 0.25 2.2
3.5 0.25 2.2
3.75 0.25 2.2
4 0.25 2.2
0 0.5 2.2
0.25 0.5 2.2
0.5 0.5 2.2
0.75 0.5 2.2
1 0.5 2.2
1.25 0.5 2.2
1.5 0.5 2.2
1.75 0.5 2.2
2 0.5 2.2
2.25 0.5 2.2
2.5 0.5 2.2
2.75 0.5 2.2
3 0.5 2.2
3.25 0.5 2.2
3.5 0.5 2.2
3.75 0.5 2.2
4 0.5 2.2
0 0.75 2.2
0.25 0.75 2.2
0.5 0.75 2.2
0.75 0.75 2.2
1 0.75 2.2
1.25 0.75 2.2
1.5 0.75 2.2
1.75 0.75 2.2
2 0.75 2.2
2.25 0.75 2.2
2.5 0.75 2.2
2.75 0.75 2.2
3 0.75 2.2
3.25 0.75 2.2
3.5 0.75 2.2
3.75 0.75 2.2
4 0.75 2.2
0 1 2.2
0.25 1 2.2
0.5 1 2.2
0.75 1 2.2
1 1 2.2
1.25 1 2.2
1.5 1 2.2
1.75 1 2.2
2 1 2.2
2.25 1 2.2
2.5 1 2.2
2.75 1 2.2
3 1 2.2
3.25 1 2.2
3.5 1 2.2
3.75 1 2.2
4 1 2.2
0 0 2.45
0.25 0 2.45
0.5 0 2.45
0.75 0 2.45
1 0 2.45
1.25 0 2.45
1.5 0 2.45
1.75 0 2.45
2 0 2.45
2.25 0 2.45
2.5 0 2.45
2.75 0 2.45
3 0 2.45
3.25 0 2.45
3.5 0 2.45
3.75 0 2.45
4 0 2.45
0 0.25 2.45
0.25 0.25 2.45
0.5 0.25 2.45
0.75 0.25 2.45
1 0.25 2.45
1.25 0.25 2.45
1.5 0.25 2.45
1.75 0.25 2.45
2 0.25 2.45
2.25 0.25 2.45
2.5 0.25 2.45
2.75 0.25 2.45
3 0.25 2.45
3.25 0.25 2.45
3.5 0.25 2.45
3.75 0.25 2.45
4 0.25 2.45
0 0.5 2.45
0.25 0.5 2.45
0.5 0.5 2.45
0.75 0.5 2.45
1 0.5 2.45
1.25 0.5 2.45
1.5 0.5 2.45
1.75 0.5 2.45
2 0.5 2.45
2.25 0.5 2.45
2.5 0.5 2.45
2.75 0.5 2.45
3 0.5 2.45
3.25 0.5 2.45
3.5 0.5 2.45
3.75 0.5 2.45
4 0.5 2.45
0 0.75 2.45
0.25 0.75 2.45
0.5 0.75 2.45
0.75 0.75 2.45
1 0.75 2.45
1.25 0.75 2.45
1.5 0.75 2.45
1.75 0.75 2.45
2 0.75 2.45
2.25 0.75 2.45
2.5 0.75 2.45
2.75 0.75 2.45
3 0.75 2.45
3.25 0.75 2.45
3.5 0.75 2.45
3.75 0.75 2.45
4 0.75 2.45
0 1 2.45
0.25 1 2.45
0.5 1 2.45
0.75 1 2.45
1 1 2.45
1.25 1 2.45
1.5 1 2.45
1.75 1 2.45
2 1 2.45
2.25 1 2.45
2.5 1 2.45
2.75 1 2.45
3 1 2.45
3.25 1 2.45
3.5 1 2.45
3.75 1 2.45
4 1 2.45
0 0 2.7
0.25 0 2.7
0.5 0 2.7
0.75 0 2.7
1 0 2.7
1.25 0 2.7
1.5 0 2.7
1.75 0 2.7
2 0 2.7
2.25 0 2.7
2.5 0 2.7
2.75 0 2.7
3 0 2.7
3.25 0 2.7
3.5 0 2.7
3.75 0 2.7
4 0 2.7
0 0.25 2.7
0.25 0.25 2.7
0.5 0.25 2.7
0.75 0.25 2.7
1 0.25 2.7
1.25 0.25 2.7
1.5 0.25 2.7
1.75 0.25 2.7
2 0.25 2.7
2.25 0.25 2.7
2.5 0.25 2.7
2.75 0.25 2.7
3 0.25 2.7
3.25 0.25 2.7
3.5 0.25 2.7
3.75 0.25 2.7
4 0.25 2.7
0 0.5 2.7
0.25 0.5 2.7
0.5 0.5 2.7
0.75 0.5 2.7
1 0.5 2.7
1.25 0.5 2.7
1.5 0.5 2.7
1.75 0.5 2.7
2 0.5 2.7
2.25 0.5 2.7
2.5 0.5 2.7
2.75 0.5 2.7
3 0.5 2.7
3.25 0.5 2.7
3.5 0.5 2.7
3.75 0.5 2.7
4 0.5 2.7
0 0.75 2.7
0.25 0.75 2.7
0.5 0.75 2.7
0.75 0.75 2.7
1 0.75 2.7
1.25 0.75 2.7
1.5 0.75 2.7
1.75 0.75 2.7
2 0.75 2.7
2.25 0.75 2.7
2.5 0.75 2.7
2.75 0.75 2.7
3 0.75 2.7
3.25 0.75 2.7
3.5 0.75 2.7
3.75 0.75 2.7
4 0.75 2.7
0 1 2.7
0.25 1 2.7
0.5 1 2.7
0.75 1 2.7
1 1 2.7
1.25 1 2.7
1.5 1 2.7
1.75 1 2.7
2 1 2.7
2.25 1 2.7
2.5 1 2.7
2.75 1 2.7
3 1 2.7
3.25 1 2.7
3.5 1 2.7
3.75 1 2.7
4 1 2.7
0 0 2.95
0.25 0 2.95
0.5 0 2.95
0.75 0 2.95
1 0 2.95
1.25 0 2.95
1.5 0 2.95
1.75 0 2.95
2 0 2.95
2.25 0 2.95
2.5 0 2.95
2.75 0 2.95
3 0 2.95
3.25 0 2.95
3.5 0 2.95
3.75 0 2.95
4 0 2.95
0 0.25 2.95
0.25 0.25 2.95
0.5 0.25 2.95
0.75 0.25 2.95
1 0.25 2.95
1.25 0.25 2.95
1.5 0.25 2.95
1.75 0.25 2.95
2 0.25 2.95
2.25 0.25 2.95
2.5 0.25 2.95
2.75 0.25 2.95
3 0.25 2.95
3.25 0.25 2.95
3.5 0.25 2.95
3.75 0.25 2.95
4 0.25 2.95
0 0.5 2.95
0.25 0.5 2.95
0.5 0.5 2.95
0.75 0.5 2.95
1 0.5 2.95
1.25 0.5 2.95
1.5 0.5 2.95
1.75 0.5 2.95
2 0.5 2.95
2.25 0.5 2.95
2.5 0.5 2.95
2.75 0.5 2.95
3 0.5 2.95
3.25 0.5 2.95
3.5 0.5 2.95
3.75 0.5 2.95
4 0.5 2.95
0 0.75 2.95
0.25 0.75 2.95
0.5 0.75 2.95
0.75 0.75 2.95
1 0.75 2.95
1.25 0.75 2.95
1.5 0.75 2.95
1.75 0.75 2.95
2 0.75 2.95
2.25 0.75 2.95
2.5 0.75 2.95
2.75 0.75 2.95
3 0.75 2.95
3.25 0.75 2.95
3.5 0.75 2.95
3.75 0.75 2.95
4 0.75 2.95
0 1 2.95
0.25 1 2.95
0.5 1 2.95
0.75 1 2.95
1 1 2.95
1.25 1 2.95
1.5 1 2.95
1.75 1 2.95
2 1 2.95
2.25 1 2.95
2.5 1 2.95
2.75 1 2.95
3 1 2.95
3.25 1 2.95
3.5 1 2.95
3.75 1 2.95
4 1 2.95
0 0 3.2
0.25 0 3.2
0.5 0 3.2
0.75 0 3.2
1 0 3.2
1.25 0 3.2
1.5 0 3.2
1.75 0 3.2
2 0 3.2
2.25 0 3.2
2.5 0 3.2
2.75 0 3.2
3 0 3.2
3.25 0 3.2
3.5 0 3.2
3.75 0 3.2
4 0 3.2
0 0.25 3.2
0.25 0.25 3.2
0.5 0.25 3.2
0.75 0.25 3.2
1 0.25 3.2
1.25 0.25 3.2
1.5 0.25 3.2
1.75 0.25 3.2
2 0.25 3.2
2.25 0.25 3.2
2.5 0.25 3.2
2.75 0.25 3.2
3 0.25 3.2
3.25 0.25 3.2
3.5 0.25 3.2
3.75 0.25 3.2
4 0.25 3.2
0 0.5 3.2
0.25 0.5 3.2
0.5 0.5 3.2
0.75 0.5 3.2
1 0.5 3.2
1.25 0.5 3.2
1.5 0.5 3.2
1.75 0.5 3.2
2 0.5 3.2
2.25 0.5 3.2
2.5 0.5 3.2
2.75 0.5 3.2
3 0.5 3.2
3.25 0.5 3.2
3.5 0.5 3.2
3.75 0.5 3.2
4 0.5 3.2
0 0.75 3.2
0.25 0.75 3.2
0.5 0.75 3.2
0.75 0.75 3.2
1 0.75 3.2
1.25 0.75 3.2
1.5 0.75 3.2
1.75 0.75 3.2
2 0.75 3.2
2.25 0.75 3.2
2.5 0.75 3.2
2.75 0.75 3.2
3 0.75 3.2
3.25 0.75 3.2
3.5 0.75 3.2
3.75 0.75 3.2
4 0.75 3.2
0 1 3.2
0.25 1 3.2
0.5 1 3.2
0.75 1 3.2
1 1 3.2
1.25 1 3.2
1.5 1 3.2
1.75 1 3.2
2 1 3.2
2.25 1 3.2
2.5 1 3.2
2.75 1 3.2
3 1 3.2
3.25 1 3.2
3.5 1 3.2
3.75 1 3.2
4 1 3.2

CELLS 257 2048
OFFSETS vtktypeint64
0 8 16 24 32 40 48 56 64 72 80 88 96 104 112 120 128 136 144 152 160 168 176 184 192 200 208 216 224 232 240 248 256 264 272 280 288 296 304 312 320 328 336 344 352 360 368 376 384 392 400 408 416 424 432 440 448 456 464 472 480 488 496 504 512 520 528 536 544 552 560 568 576 584 592 600 608 616 624 632 640 648 656 664 672 680 688 696 704 712 720 728 736 744 752 760 768 776 784 792 800 808 816 824 832 840 848 856 864 872 880 888 896 904 912 920 928 936 944 952 960 968 976 984 992 1000 1008 1016 1024 1032 1040 1048 1056 1064 1072 1080 1088 1096 1104 1112 1120 1128 1136 1144 1152 1160 1168 1176 1184 1192 1200 1208 1216 1224 1232 1240 1248 1256 1264 1272 1280 1288 1296 1304 1312 1320 1328 1336 1344 1352 1360 1368 1376 1384 1392 1400 1408 1416 1424 1432 1440 1448 1456 1464 1472 1480 1488 1496 1504 1512 1520 1528 1536 1544 1552 1560 1568 1576 1584 1592 1600 1608 1616 1624 1632 1640 1648 1656 1664 1672 1680 1688 1696 1704 1712 1720 1728 1736 1744 1752 1760 1768 1776 1784 1792 1800 1808 1816 1824 1832 1840 1848 1856 1864 1872 1880 1888 1896 1904 1912 1920 1928 1936 1944 1952 1960 1968 1976 1984 1992 2000 2008 2016 2024 2032 2040 2048 
CONNECTIVITY vtktypeint64
0 1 86 85 17 18 103 102 
1 2 87 86 18 19 104 103 
2 3 88 87 19 20 105 104 
3 4 89 88 20 21 106 105 
4 5 90 89 21 22 107 106 
5 6 91 90 22 23 108 107 
6 7 92 91 23 24 109 108 
7 8 93 92 24 25 110 109 
8 9 94 93 25 26 111 110 
9 10 95 94 26 27 112 111 
10 11 96 95 27 28 113 112 
11 12 97 96 28 29 114 113 
12 13 98 97 29 30 115 114 
13 14 99 98 30 31 116 115 
14 15 100 99 31 32 117 116 
15 16 101 100 32 33 118 117 
17 18 103 102 34 35 120 119 
18 19 104 103 35 36 121 120 
19 20 105 104 36 37 122 121 
20 21 106 105 37 38 123 122 
21 22 107 106 38 39 124 123 
22 23 108 107 39 40 125 124 
23 24 109 108 40 41 126 125 
24 25 110 109 41 42 127 126 
25 26 111 110 42 43 128 127 
26 27 112 111 43 44 129 128 
27 28 113 112 44 45 130 129 
28 29 114 113 45 46 131 130 
29 30 115 114 46 47 132 131 
30 31 116 115 47 48 133 132 
31 32 117 116 48 49 134 133 
32 33 118 117 49 50 135 134 
34 35 120 119 51 52 137 136 
35 36 121 120 52 53 138 137 
36 37 122 121 53 54 139 138 
37 38 123 122 54 55 140 139 
38 39 124 123 55 56 141 140 
39 40 125 124 56 57 142 141 
40 41 126 125 57 58 143 142 
41 42 127 126 58 59 144 143 
42 43 128 127 59 60 145 144 
43 44 129 128 60 61 146 145 
44 45 130 129 61 62 147 146 
45 46 131 130 62 63 148 147 
46 47 132 131 63 64 149 148 
47 48 133 132 64 65 150 149 
48 49 134 133 65 66 151 150 
49 50 135 134 66 67 152 151 
51 52 137 136 68 69 154 153 
52 53 138 137 69 70 155 154 
53 54 139 138 70 71 156 155 
54 55 140 139 71 72 157 156 
55 56 141 140 72 73 158 157 
56 57 142 141 73 74 159 158 
57 58 143 142 74 75 160 159 
58 59 144 143 75 76 161 160 
59 60 145 144 76 77 162 161 
60 61 146 145 77 78 163 162 
61 62 147 146 78 79 164 163 
62 63 148 147 79 80 165 164 
63 64 149 148 80 81 166 165 
64 65 150 149 81 82 167 166 
65 66 151 150 82 83 168 167 
66 67 152 151 83 84 169 168 
85 86 171 170 102 103 188 187 
86 87 172 171 103 104 189 188 
87 88 173 172 104 105 190 189 
88 89 174 173 105 106 191 190 
89 90 175 174 106 107 192 191 
90 91 176 175 107 108 193 192 
91 92 177 176 108 109 194 193 
92 93 178 177 109 110 195 194 
93 94 179 178 110 111 196 195 
94 95 180 179 111 112 197 196 
95 96 181 180 112 113 198 197 
96 97 182 181 113 114 199 198 
97 98 183 182 114 115 200 199 
98 99 184 183 115 116 201 200 
99 100 185 184 116 117 202 201 
100 101 186 185 117 118 203 202 
102 103 188 187 119 120 205 204 
103 104 189 188 120 121 206 205 
104 105 190 189 121 122 207 206 
105 106 191 190 122 123 208 207 
106 107 192 191 123 124 209 208 
107 108 193 192 124 125 210 209 
108 109 194 193 125 126 211 210 
109 110 195 194 126 127 212 211 
110 111 196 195 127 128 213 212 
111 112 197 196 128 129 214 213 
112 113 198 197 129 130 215 214 
113 114 199 198 130 131 216 215 
114 115 200 199 131 132 217 216 
115 116 201 200 132 133 218 217 
116 117 202 201 133 134 219 218 
117 118 203 202 134 135 220 219 
119 120 205 204 136 137 222 221 
120 121 206 205 137 138 223 222 
121 122 207 206 138 139 224 223 
122 123 208 207 139 140 225 224 
123 124 209 208 140 141 226 225 
124 125 210 209 141 142 227 226 
125 126 211 210 142 143 228 227 
126 127 212 211 143 144 229 228 
127 128 213 212 144 145 230 229 
128 129 214 213 145 146 231 230 
129 130 215 214 146 147 232 231 
130 131 216 215 147 148 233 232 
131 132 217 216 148 149 234 233 
132 133 218 217 149 150 235 234 
133 134 219 218 150 151 236 235 
134 135 220 219 151 152 237 236 
136 137 222 221 153 154 239 238 
137 138 223 222 154 155 240 239 
138 139 224 223 155 156 241 240 
139 140 225 224 156 157 242 241 
140 141 226 225 157 158 243 242 
141 142 227 226 158 159 244 243 
142 143 228 227 159 160 245 244 
143 144 229 228 160 161 246 245 
144 145 230 229 161 162 247 246 
145 146 231 230 162 163 248 247 
146 147 232 231 163 164 249 248 
147 148 233 232 164 165 250 249 
148 149 234 233 165 166 251 250 
149 150 235 234 166 167 252 251 
150 151 236 235 167 168 253 252 
151 152 237 236 168 169 254 253 
170 171 256 255 187 188 273 272 
171 172 257 256 188 189 274 273 
172 173 258 257 189 190 275 274 
173 174 259 258 190 191 276 275 
174 175 260 259 191 192 277 276 
175 176 261 260 192 193 278 277 
176 177 262 261 193 194 279 278 
177 178 263 262 194 195 280 279 
178 179 264 263 195 196 281 280 
179 180 265 264 196 197 282 281 
180 181 266 265 197 198 283 282 
181 182 267 266 198 199 284 283 
182 183 268 267 199 200 285 284 
183 184 269 268 200 201 286 285 
184 185 270 269 201 202 287 286 
185 186 271 270 202 203 288 287 
187 188 273 272 204 205 290 289 
188 189 274 273 205 206 291 290 
189 190 275 274 206 207 292 291 
190 191 276 275 207 208 293 292 
191 192 277 276 208 209 294 293 
192 193 278 277 209 210 295 294 
193 194 279 278 210 211 296 295 
194 195 280 279 211 212 297 296 
195 196 281 280 212 213 298 297 
196 197 282 281 213 214 299 298 
197 198 283 282 214 215 300 299 
198 199 284 283 215 216 301 300 
199 200 285 284 216 217 302 301 
200 201 286 285 217 218 303 302 
201 202 287 286 218 219 304 303 
202 203 288 287 219 220 305 304 
204 205 290 289 221 222 307 306 
205 206 291 290 222 223 308 307 
206 207 292 291 223 224 309 308 
207 208 293 292 224 225 310 309 
208 209 294 293 225 226 311 310 
209 210 295 294 226 227 312 311 
210 211 296 295 227 228 313 312 
211 212 297 296 228 229 314 313 
212 213 298 297 229 230 315 314 
213 214 299 298 230 231 316 315 
214 215 300 299 231 232 317 316 
215 216 301 300 232 233 318 317 
216 217 302 301 233 234 319 318 
217 218 303 302 234 235 320 319 
218 219 304 303 235 236 321 320 
219 220 305 304 236 237 322 321 
221 222 307 306 238 239 324 323 
222 223 308 307 239 240 325 324 
223 224 309 308 240 241 326 325 
224 225 310 309 241 242 327 326 
225 226 311 310 242 243 328 327 
226 227 312 311 243 244 329 328 
227 228 313 312 244 245 330 329 
228 229 314 313 245 246 331 330 
229 230 315 314 246 247 332 331 
230 231 316 315 247 248 333 332 
231 232 317 316 248 249 334 333 
232 233 318 317 249 250 335 334 
233 234 319 318 250 251 336 335 
234 235 320 319 251 252 337 336 
235 236 321 320 252 253 338 337 
236 237 322 321 253 254 339 338 
255 256 341 340 272 273 358 357 
256 257 342 341 273 274 359 358 
257 258 343 342 274 275 360 359 
258 259 344 343 275 276 361 360 
259 260 345 344 276 277 362 361 
260 261 346 345 277 278 363 362 
261 262 347 346 278 279 364 363 
262 263 348 347 279 280 365 364 
263 264 349 348 280 281 366 365 
264 265 350 349 281 282 367 366 
265 266 351 350 282 283 368 367 
266 267 352 351 283 284 369 368 
267 268 353 352 284 285 370 369 
268 269 354 353 285 286 371 370 
269 270 355 354 286 287 372 371 
270 271 356 355 287 288 373 372 
272 273 358 357 289 290 375 374 
273 274 359 358 290 291 376 375 
274 275 360 359 291 292 377 376 
275 276 361 360 292 293 378 377 
276 277 362 361 293 294 379 378 
277 278 363 362 294 295 380 379 
278 279 364 363 295 296 381 380 
279 280 365 364 296 297 382 381 
280 281 366 365 297 298 383 382 
281 282 367 366 298 299 384 383 
282 283 368 367 299 300 385 384 
283 284 369 368 300 301 386 385 
284 285 370 369 301 302 387 386 
285 286 371 370 302 303 388 387 
286 287 372 371 303 304 389 388 
287 288 373 372 304 305 390 389 
289 290 375 374 306 307 392 391 
290 291 376 375 307 308 393 392 
291 292 377 376 308 309 394 393 
292 293 378 377 309 310 395 394 
293 294 379 378 310 311 396 395 
294 295 380 379 311 312 397 396 
295 296 381 380 312 313 398 397 
296 297 382 381 313 314 399 398 
297 298 383 382 314 315 400 399 
298 299 384 383 315 316 401 400 
299 300 385 384 316 317 402 401 
300 301 386 385 317 318 403 402 
301 302 387 386 318 319 404 403 
302 303 388 387 319 320 405 404 
303 304 389 388 320 321 406 405 
304 305 390 389 321 322 407 406 
306 307 392 391 323 324 409 408 
307 308 393 392 324 325 410 409 
308 309 394 393 325 326 411 410 
309 310 395 394 326 327 412 411 
310 311 396 395 327 328 413 412 
311 312 397 396 328 329 414 413 
312 313 398 397 329 330 415 414 
313 314 399 398 330 331 416 415 
314 315 400 399 331 332 417 416 
315 316 401 400 332 333 418 417 
316 317 402 401 333 334 419 418 
317 318 403 402 334 335 420 419 
318 319 404 403 335 336 421 420 
319 320 405 404 336 337 422 421 
320 321 406 405 337 338 423 422 
321 322 407 406 338 339 424 423 
CELL_TYPES 256
12 12 12 12 12 12 12 12 12 12 12 12 12 12 12 12 12 12 12 12 12 12 12 12 12 12 12 12 12 12 12 12 12 12 12 12 12 12 12 12 12 12 12 12 12 12 12 12 12 12 12 12 12 12 12 12 12 12 12 12 12 12 12 12 12 12 12 12 12 12 12 12 12 12 12 12 12 12 12 12 12 12 12 12 12 12 12 12 12 12 12 12 12 12 12 12 12 12 12 12 12 12 12 12 12 12 12 12 12 12 12 12 12 12 12 12 12 12 12 12 12 12 12 12 12 12 12 12 12 12 12 12 12 12 12 12 12 12 12 12 12 12 12 12 12 12 12 12 12 12 12 12 12 12 12 12 12 12 12 12 12 12 12 12 12 12 12 12 12 12 12 12 12 12 12 12 12 12 12 12 12 12 12 12 12 12 12 12 12 12 12 12 12 12 12 12 12 12 12 12 12 12 12 12 12 12 12 12 12 12 12 12 12 12 12 12 12 12 12 12 12 12 12 12 12 12 12 12 12 12 12 12 12 12 12 12 12 12 12 12 12 12 12 12 12 12 12 12 12 12 12 12 12 12 12 12 

POINT_DATA 425
SCALARS weights float 1
LOOKUP_TABLE default
1.95312 3.90625 3.90625 3.90625 3.90625 3.90625 3.90625 3.90625 3.90625 3.90625 3.90625 3.90625 3.90625 3.90625 3.90625 3.90625 1.95312 3.90625 7.8125 7.8125 7.8125 7.8125 7.8125 7.8125 7.8125 7.8125 7.8125 7.8125 7.8125 7.8125 7.8125 7.8125 7.8125 3.90625 3.90625 7.8125 7.8125 7.8125 7.8125 7.8125 7.8125 7.8125 7.8125 7.8125 7.8125 7.8125 7.8125 7.8125 7.8125 7.8125 3.90625 3.90625 7.8125 7.8125 7.8125 7.8125 7.8125 7.8125 7.8125 7.8125 7.8125 7.8125 7.8125 7.8125 7.8125 7.8125 7.8125 3.90625 1.95312 3.90625 3.90625 3.90625 3.90625 3.90625 3.90625 3.90625 3.90625 3.90625 3.90625 3.90625 3.90625 3.90625 3.90625 3.90625 1.95312 3.90625 7.8125 7.8125 7.8125 7.8125 7.8125 7.8125 7.8125 7.8125 7.8125 7.8125 7.8125 7.8125 7.8125 7.8125 7.8125 3.90625 7.8125 15.625 15.625 15.625 15.625 15.625 15.625 15.625 15.625 15.625 15.625 15.625 15.625 15.625 15.625 15.625 7.8125 7.8125 15.625 15.625 15.625 15.625 15.625 15.625 15.625 15.625 15.625 15.625 15.625 15.625 15.625 15.625 15.625 7.8125 7.8125 15.625 15.625 15.625 15.625 15.625 15.625 15.625 15.625 15.625 15.625 15.625 15.625 15.625 15.625 15.625 7.8125 3.90625 7.8125 7.8125 7.8125 7.8125 7.8125 7.8125 7.8125 7.8125 7.8125 7.8125 7.8125 7.8125 7.8125 7.8125 7.8125 3.90625 3.90625 7.8125 7.8125 7.8125 7.8125 7.8125 7.8125 7.8125 7.8125 7.8125 7.8125 7.8125 7.8125 7.8125 7.8125 7.8125 3.90625 7.8125 15.625 15.625 15.625 15.625 15.625 15.625 15.625 15.625 15.625 15.625 15.625 15.625 15.625 15.625 15.625 7.8125 7.8125 15.625 15.625 15.625 15.625 15.625 15.625 15.625 15.625 15.625 15.625 15.625 15.625 15.625 15.625 15.625 7.8125 7.8125 15.625 15.625 15.625 15.625 15.625 15.625 15.625 15.625 15.625 15.625 15.625 15.625 15.625 15.625 15.625 7.8125 3.90625 7.8125 7.8125 7.8125 7.8125 7.8125 7.8125 7.8125 7.8125 7.8125 7.8125 7.8125 7.8125 7.8125 7.8125 7.8125 3.90625 3.90625 7.8125 7.8125 7.8125 7.8125 7.8125 7.8125 7.8125 7.8125 7.8125 7.8125 7.8125 7.8125 7.8125 7.8125 7.8125 3.90625 7.8125 15.625 15.625 15.625 15.625 15.625 15.625 15.625 15.625 15.625 15.625 15.625 15.625 15.625 15.625 15.625 7.8125 7.8125 15.625 15.625 15.625 15.625 15.625 15.625 15.625 15.625 15.625 15.625 15.625 15.625 15.625 15.625 15.625 7.8125 7.8125 15.625 15.625 15.625 15.625 15.625 15.625 15.625 15.625 15.625 15.625 15.625 15.625 15.625 15.625 15.625 7.8125 3.90625 7.8125 7.8125 7.8125 7.8125 7.8125 7.8125 7.8125 7.8125 7.8125 7.8125 7.8125 7.8125 7.8125 7.8125 7.8125 3.90625 1.95313 3.90625 3.90625 3.90625 3.90625 3.90625 3.90625 3.90625 3.90625 3.90625 3.90625 3.90625 3.90625 3.90625 3.90625 3.90625 1.95313 3.90625 7.8125 7.8125 7.8125 7.8125 7.8125 7.8125 7.8125 7.8125 7.8125 7.8125 7.8125 7.8125 7.8125 7.8125 7.8125 3.90625 3.90625 7.8125 7.8125 7.8125 7.8125 7.8125 7.8125 7.8125 7.8125 7.8125 7.8125 7.8125 7.8125 7.8125 7.8125 7.8125 3.90625 3.90625 7.8125 7.8125 7.8125 7.8125 7.8125 7.8125 7.8125 7.8125 7.8125 7.8125 7.8125 7.8125 7.8125 7.8125 7.8125 3.90625 1.95313 3.90625 3.90625 3.90625 3.90625 3.90625 3.90625 3.90625 3.90625 3.90625 3.90625 3.90625 3.90625 3.90625 3.90625 3.90625 1.95313 
VECTORS u float
0 0 0  -0.00332552 -0.00285317 -0.00656891  -0.00904596 -0.00760225 -0.00842333  -0.0149753 -0.0157918 -0.00827193  -0.0206286 -0.0269932 -0.00745296  -0.0258284 -0.0407308 -0.00644922  -0.0304799 -0.0566129 -0.00533342  -0.0345613 -0.0742189 -0.00432253  -0.0381038 -0.0932063 -0.00342917  -0.0411556 -0.113291 -0.00268316  -0.0437365 -0.134179 -0.00201535  -0.0459206 -0.155622 -0.00144196  -0.0477495 -0.177398 -0.0010891  -0.0492697 -0.199375 -0.000742912  -0.0505679 -0.221374 -0.000500202  -0.0517118 -0.243321 -0.000422716  -0.0527494 -0.265155 -0.000282764  0 0 0  -0.00130203 -0.00162528 -0.00223017  -0.00382376 -0.00651671 -0.00344563  -0.00666058 -0.0148816 -0.0035944  -0.00952715 -0.0262501 -0.00325608  -0.0122801 -0.0401997 -0.00287485  -0.0148669 -0.0562955 -0.00242805  -0.0172663 -0.0741396 -0.00192761  -0.0194663 -0.0933378 -0.00152421  -0.0214686 -0.113607 -0.00127101  -0.0232899 -0.134663 -0.000975609  -0.0249114 -0.15625 -0.000709295  -0.0263512 -0.17815 -0.000566959  -0.0276563 -0.2002 -0.000412703  -0.0288432 -0.22226 -0.000308037  -0.0299344 -0.244234 -0.000283003  -0.0309753 -0.266068 -0.000239611  0 0 0  6.39856e-05 -0.00126716 2.14577e-05  0.000142455 -0.00621322 7.98702e-05  0.000146329 -0.0146574 0.000131369  3.29018e-05 -0.0261135 0.000169754  -0.000229597 -0.0401915 0.00017643  -0.000652194 -0.0564202 0.000139713  -0.00122082 -0.0744129 0.000138521  -0.00191605 -0.0937458 8.53539e-05  -0.00271249 -0.114136 5.96046e-05  -0.00358653 -0.135303 7.10487e-05  -0.00452781 -0.15698 2.98023e-05  -0.0054934 -0.178963 -1.88351e-05  -0.00644612 -0.201063 6.67572e-06  -0.00739551 -0.223159 -5.10216e-05  -0.00833583 -0.245153 -7.31945e-05  -0.00927281 -0.266987 -0.000109434  0 0 0  0.00140518 -0.00183892 0.00224972  0.0040912 -0.00687271 0.00355053  0.00694931 -0.0153289 0.00386977  0.00957417 -0.0268183 0.00355744  0.0117979 -0.0409399 0.00314307  0.0135469 -0.0572162 0.00263238  0.0147982 -0.0752426 0.0022006  0.0155983 -0.0946162 0.00174546  0.0160017 -0.115047 0.00137639  0.0160701 -0.136219 0.00107813  0.0158439 -0.157932 0.000792503  0.0153918 -0.17993 0.000540018  0.014787 -0.202049 0.000375748  0.0140791 -0.224136 0.000212908  0.0132771 -0.246118 0.000102282  0.0124269 -0.267945 1.04904e-05  0 0 0  0.00335485 -0.00329143 0.00640225  0.00922233 -0.00836867 0.00831151  0.0151731 -0.0167812 0.00830722  0.020586 -0.0282683 0.00753474  0.0252231 -0.0423596 0.00654316  0.0290172 -0.0586308 0.00549078  0.0319973 -0.0765944 0.00450826  0.034194 -0.09593 0.00364161  0.0356755 -0.11631 0.00283527  0.0365319 -0.137416 0.00212908  0.0368609 -0.159094 0.00153041  0.0367825 -0.181045 0.00102568  0.0363872 -0.203132 0.000576019  0.0357716 -0.225179 0.000354052  0.0350037 -0.247117 0.000230074  0.0341425 -0.268929 0.000144005  0 0 0  -0.00307059 -0.00496475 -0.00307751  -0.00886774 -0.0108563 -0.00407171  -0.0151061 -0.0191089 -0.00400472  -0.0210134 -0.0299658 -0.00359416  -0.026334 -0.0432458 -0.00311375  -0.0310078 -0.0586478 -0.0025692  -0.035058 -0.0758612 -0.00206804  -0.038548 -0.0945086 -0.00162768  -0.0415199 -0.114282 -0.00129652  -0.0440412 -0.134901 -0.000984192  -0.0461459 -0.156146 -0.000701189  -0.0479152 -0.17777 -0.000592947  -0.0494027 -0.199621 -0.000442743  -0.0506697 -0.221543 -0.000324726  -0.0517979 -0.24343 -0.000333071  -0.0528514 -0.265262 -0.000254631  0 0 0  -0.00110836 -0.00371666 -0.00104427  -0.00370538 -0.00944893 -0.0016818  -0.00679708 -0.0178776 -0.00172424  -0.00986266 -0.0290122 -0.00154853  -0.0127198 -0.0426061 -0.00137854  -0.0153313 -0.0582994 -0.00115824  -0.0177059 -0.0757751 -0.000874758  -0.0198535 -0.094658 -0.000679493  -0.0217919 -0.114642 -0.000606537  -0.0235271 -0.135446 -0.000458956  -0.0250883 -0.156816 -0.000353575  -0.026484 -0.178559 -0.000306845  -0.0277362 -0.200486 -0.00025034  -0.028878 -0.222453 -0.000208855  -0.0299315 -0.244369 -0.000229359  -0.030951 -0.266181 -0.000196695  0 0 0  2.5481e-05 -0.00333905 1.7643e-05  5.3525e-05 -0.00898468 7.67708e-05  2.28286e-05 -0.0174969 9.13143e-05  -0.000112057 -0.0287687 0.00011611  -0.000380039 -0.0425476 0.000126839  -0.000785708 -0.0584283 0.000104904  -0.00133574 -0.0760602 0.000107765  -0.00201046 -0.0950918 7.41482e-05  -0.00278974 -0.115202 4.64916e-05  -0.00364709 -0.136126 6.74725e-05  -0.00455976 -0.157578 4.3869e-05  -0.00550127 -0.179394 -2.00272e-05  -0.00645638 -0.201367 -2.38419e-07  -0.00740099 -0.223365 -6.69956e-05  -0.00833607 -0.245296 -9.44138e-05  -0.00925851 -0.267114 -0.000130177  0 0 0  0.00115278 -0.00385273 0.00105834  0.00380969 -0.00968552 0.00176215  0.00683618 -0.0182132 0.00195456  0.00962126 -0.0295114 0.00177789  0.0119389 -0.0433111 0.00156093  0.0137273 -0.0592452 0.0013144  0.015012 -0.0769039 0.00110698  0.0158167 -0.0959744 0.000880241  0.0161927 -0.116104 0.000707626  0.0162289 -0.13705 0.000542164  0.0159922 -0.15853 0.000427485  0.015516 -0.180349 0.000282049  0.0148871 -0.202321 0.000187635  0.0141408 -0.224334 9.70364e-05  0.0133257 -0.246259 2.38419e-05  0.0124731 -0.268088 -4.33922e-05  0 0 0  0.00302798 -0.00522488 0.00301528  0.00886047 -0.0113522 0.00406742  0.0150488 -0.0198429 0.00408649  0.0206825 -0.031077 0.00372386  0.0254552 -0.044781 0.00323129  0.0293047 -0.0606532 0.00272655  0.0322706 -0.0782404 0.00221658  0.0344439 -0.0972596 0.00182009  0.035919 -0.117334 0.00142312  0.0367601 -0.138221 0.00109553  0.0370665 -0.159658 0.00080204  0.0369737 -0.181439 0.000543118  0.0365529 -0.203366 0.000288725  0.035902 -0.225346 0.000193119  0.0351026 -0.247246 0.00015521  0.034245 -0.269081 0.000110149  0 0 0  -0.00318588 -0.00562891 0.000118971  -0.0089297 -0.0117191 0.00016284  -0.0151083 -0.0200415 0.000255346  -0.0210135 -0.0308548 0.00027132  -0.026359 -0.0440221 0.000220299  -0.0310566 -0.0592996 0.000192881  -0.0351167 -0.0763934 0.000174046  -0.0385901 -0.0949306 0.000148296  -0.0415578 -0.114619 9.70364e-05  -0.0440683 -0.135172 6.19888e-05  -0.0461802 -0.156359 2.26498e-05  -0.0479298 -0.177925 -9.01222e-05  -0.0494094 -0.199747 -0.000138044  -0.0506611 -0.22165 -0.000157356  -0.0517752 -0.243518 -0.000222445  -0.052829 -0.265349 -0.000211954  0 0 0  -0.00115088 -0.00421894 9.2268e-05  -0.00376159 -0.0103154 0.000121355  -0.00684589 -0.0188095 0.000186205  -0.00992358 -0.0298736 0.000196934  -0.0127984 -0.0433543 0.00014782  -0.0154196 -0.0589315 0.000137091  -0.0177907 -0.0762945 0.000169992  -0.0199189 -0.0950745 0.000158548  -0.021836 -0.114983 4.95911e-05  -0.0235679 -0.135717 5.91278e-05  -0.0251195 -0.157026 8.34465e-06  -0.0265179 -0.178717 -4.81606e-05  -0.0277779 -0.200608 -8.01086e-05  -0.0289273 -0.222552 -0.000126123  -0.0299821 -0.244467 -0.000174761  -0.0309858 -0.266273 -0.000165701  0 0 0  2.2769e-05 -0.00381681 3.09944e-05  4.30942e-05 -0.00985247 7.72476e-05  -9.53674e-07 -0.0184217 6.67572e-05  -0.000145018 -0.0296221 7.10487e-05  -0.000416994 -0.0432894 7.93934e-05  -0.000829339 -0.0590606 8.41618e-05  -0.00136793 -0.0765835 8.32081e-05  -0.00202465 -0.0955205 5.84126e-05  -0.0027833 -0.115553 2.81334e-05  -0.00363326 -0.136395 5.50747e-05  -0.00453782 -0.157797 5.05447e-05  -0.00546432 -0.179562 -2.40803e-05  -0.0063951 -0.201496 -1.97887e-05  -0.00733018 -0.223469 -8.24928e-05  -0.00827003 -0.245406 -0.000121593  -0.0092113 -0.267217 -0.000136137  0 0 0  0.00116995 -0.00433862 -4.673e-05  0.00380427 -0.0105193 -7.86781e-06  0.00681895 -0.0191147 1.57356e-05  0.00961804 -0.0303435 -1.4782e-05  0.0119425 -0.0440545 -1.16825e-05  0.0137477 -0.0598699 -1.21593e-05  0.0150377 -0.0774245 -2.38419e-07  0.0158491 -0.0964095 2.45571e-05  0.0162368 -0.116465 4.81606e-05  0.0162835 -0.137317 2.83718e-05  0.0160329 -0.158745 5.72205e-05  0.0155647 -0.180523 2.02656e-05  0.0149386 -0.202453 -2.86102e-06  0.0141828 -0.22443 -1.3113e-05  0.0133395 -0.246354 -3.91006e-05  0.0124478 -0.268173 -8.34465e-05  0 0 0  0.00312254 -0.00584346 -6.10352e-05  0.00887203 -0.012139 -4.8399e-05  0.0149658 -0.020719 -7.77245e-05  0.0205826 -0.0318928 -6.55651e-05  0.0253882 -0.0455325 -6.48499e-05  0.0292767 -0.0612779 -3.48091e-05  0.0322703 -0.0787614 -3.26633e-05  0.0344517 -0.0976838 -4.76837e-07  0.0359235 -0.117696 1.45435e-05  0.0367763 -0.138491 5.48363e-05  0.037117 -0.159871 6.77109e-05  0.0370162 -0.181599 6.79493e-05  0.0365767 -0.203486 7.15256e-06  0.0359073 -0.225427 3.26633e-05  0.0351148 -0.247335 6.24657e-05  0.0342708 -0.269158 5.76973e-05  0 0 0  -0.00305767 -0.00492318 0.00331616  -0.00884527 -0.0107752 0.00440669  -0.0150877 -0.0189896 0.00451851  -0.0209968 -0.0298198 0.00412607  -0.0263143 -0.0431006 0.0035646  -0.0309858 -0.0585279 0.00296545  -0.0350384 -0.0757632 0.0024128  -0.0385237 -0.0944458 0.00192428  -0.0415046 -0.114236 0.00149488  -0.0440388 -0.134907 0.00110793  -0.0461485 -0.156183 0.000737429  -0.0478914 -0.177813 0.000401974  -0.0493484 -0.199697 0.000161171  -0.0506063 -0.221651 4.76837e-06  -0.0517192 -0.243558 -0.000112772  -0.0527706 -0.265385 -0.000160694  0 0 0  -0.00111136 -0.00368419 0.00123215  -0.0037111 -0.00936893 0.00191474  -0.00679421 -0.0177536 0.00208664  -0.0098502 -0.0288706 0.00194907  -0.0127041 -0.0424641 0.00166535  -0.0153116 -0.0581927 0.00142813  -0.0176705 -0.0756796 0.00121021  -0.0198058 -0.094595 0.000985146  -0.0217283 -0.114602 0.000708342  -0.0234709 -0.135442 0.000568867  -0.0250423 -0.156859 0.000377655  -0.0264442 -0.178615 0.000221729  -0.0277069 -0.200566 8.74996e-05  -0.0288491 -0.222558 -3.50475e-05  -0.0299258 -0.244494 -0.000115156  -0.0309403 -0.266312 -0.00014329  0 0 0  3.16203e-05 -0.00330609 2.74181e-05  6.89626e-05 -0.00890368 7.84397e-05  3.98755e-05 -0.0173691 3.88622e-05  -9.02414e-05 -0.0286397 2.09808e-05  -0.000354528 -0.0424141 4.98295e-05  -0.00076592 -0.0583185 5.43594e-05  -0.00131714 -0.0759616 4.86374e-05  -0.00199234 -0.0950215 3.98159e-05  -0.00277233 -0.11517 1.69277e-05  -0.00361371 -0.136116 3.69549e-05  -0.00450087 -0.157627 4.31538e-05  -0.00542736 -0.179455 -4.07696e-05  -0.00636816 -0.201452 -4.00543e-05  -0.00732374 -0.223469 -9.87053e-05  -0.00827503 -0.245428 -0.000131607  -0.00923705 -0.267248 -0.000119686  0 0 0  0.00114378 -0.00381649 -0.00113869  0.00379384 -0.00959146 -0.00180054  0.00682545 -0.0180915 -0.00191498  0.00961828 -0.0293869 -0.0018127  0.0119463 -0.0431952 -0.00157619  0.0137384 -0.0591303 -0.00133967  0.0150164 -0.0767999 -0.00109625  0.0158215 -0.0959015 -0.000837564  0.0162318 -0.116086 -0.00063014  0.0162864 -0.137057 -0.000480652  0.0160391 -0.158575 -0.000310898  0.0155683 -0.180407 -0.000244617  0.014924 -0.202402 -0.00018096  0.0141532 -0.224421 -0.000108957  0.0132916 -0.246375 -9.01222e-05  0.0123982 -0.268208 -0.000113726  0 0 0  0.00302181 -0.00518179 -0.0031445  0.00884593 -0.0112436 -0.0041585  0.0150234 -0.0197377 -0.00422907  0.0206586 -0.0309455 -0.00386739  0.0254382 -0.0446767 -0.00336647  0.0293044 -0.0605406 -0.0028019  0.0322993 -0.0781492 -0.00229549  0.0344944 -0.0971926 -0.00183177  0.0359669 -0.117327 -0.0013752  0.0368071 -0.13824 -0.000990868  0.0371301 -0.159704 -0.00067091  0.0370374 -0.181488 -0.000419855  0.0366077 -0.203442 -0.000264883  0.0359402 -0.22542 -0.000140905  0.0351326 -0.247346 -3.02792e-05  0.0342507 -0.269191 6.19888e-06  0 0 0  -0.00333591 -0.00275592 0.0068047  -0.00905383 -0.00741243 0.00874662  -0.0149707 -0.0155082 0.00878835  -0.0206116 -0.0266745 0.00798607  -0.0257827 -0.0404438 0.00687528  -0.0304157 -0.0563574 0.00575519  -0.0345045 -0.074032 0.00466466  -0.0380454 -0.0930778 0.00370765  -0.0410743 -0.113191 0.00288987  -0.0436385 -0.134136 0.00214291  -0.0458109 -0.15567 0.00146174  -0.0476477 -0.177538 0.000887394  -0.049196 -0.199562 0.000461817  -0.0505168 -0.22161 0.000166416  -0.0516698 -0.243567 -2.95639e-05  -0.0527351 -0.265406 -0.000104666  0 0 0  -0.00131719 -0.00151706 0.00242782  -0.00385359 -0.00632933 0.00368762  -0.00667655 -0.0146042 0.00392532  -0.00950855 -0.0259557 0.00365329  -0.0122498 -0.0399229 0.00317049  -0.0148329 -0.056061 0.00269079  -0.0172141 -0.0739424 0.0022347  -0.0193933 -0.0932084 0.00181007  -0.0213733 -0.113538 0.00136518  -0.0231528 -0.134652 0.00106907  -0.0247462 -0.15631 0.000739813  -0.0261927 -0.178281 0.000486851  -0.0275087 -0.200377 0.000248432  -0.028718 -0.22248 6.77109e-05  -0.0298302 -0.244472 -5.07832e-05  -0.0308826 -0.266319 -0.000105858  0 0 0  5.20647e-05 -0.00115079 2.0504e-05  0.000126839 -0.0060221 5.50747e-05  0.000139952 -0.0143841 -4.52995e-06  2.52724e-05 -0.025834 -2.67029e-05  -0.000236154 -0.0399255 3.09944e-06  -0.000646472 -0.0561928 1.19209e-05  -0.00120306 -0.0742111 1.50204e-05  -0.00188744 -0.0936116 8.10623e-06  -0.0026741 -0.114084 6.67572e-06  -0.00353074 -0.135303 1.66893e-05  -0.00443864 -0.157051 2.7895e-05  -0.00536895 -0.179091 -5.45979e-05  -0.00633049 -0.201224 -4.07696e-05  -0.00730944 -0.223356 -0.000110149  -0.00828671 -0.245387 -0.000116348  -0.00925565 -0.267233 -9.94205e-05  0 0 0  0.00141039 -0.0017184 -0.00233388  0.00409156 -0.00667232 -0.0035944  0.00694036 -0.0150597 -0.00382304  0.00956821 -0.0265463 -0.0036037  0.0117898 -0.0406794 -0.00314903  0.0135382 -0.0570029 -0.0026536  0.014809 -0.0750539 -0.00219464  0.0156269 -0.0944765 -0.00171947  0.0160277 -0.114989 -0.00132751  0.0160985 -0.136247 -0.00098896  0.0158989 -0.158003 -0.000703096  0.0154631 -0.180058 -0.000508547  0.0148532 -0.202191 -0.000361204  0.0141156 -0.224311 -0.000203848  0.0132771 -0.246347 -0.000146866  0.0124097 -0.268209 -0.000138998  0 0 0  0.00333726 -0.00316459 -0.00652313  0.00919008 -0.00815696 -0.00841308  0.0151396 -0.016523 -0.00843143  0.0205535 -0.0279877 -0.0077033  0.0252059 -0.0421226 -0.00667214  0.0290225 -0.0584152 -0.0056026  0.032011 -0.0764208 -0.00458574  0.0342155 -0.0957841 -0.00366998  0.0357025 -0.116245 -0.00278854  0.0365725 -0.137486 -0.00202203  0.0369229 -0.159168 -0.001405  0.0368497 -0.18118 -0.000899553  0.0364523 -0.203263 -0.000550032  0.0358253 -0.22535 -0.000297785  0.0350564 -0.247347 -0.00012517  0.0342283 -0.269239 -2.74181e-05  
SCALARS smooth_stress float 1
LOOKUP_TABLE default
816.275 1927.75 2261.99 2242.54 2062.34 1834.69 1586.72 1277.93 978.995 797.164 664.475 494.235 364.154 273.371 194.488 119.911 38.1482 1154.66 2774.66 3382.93 3461.65 3236.32 2917.36 2553.23 2112.58 1693.84 1418.12 1199.43 923.581 705.125 541.962 390.287 262.515 96.6087 563.986 1480.55 2013.57 2180.49 2101.35 1960.4 1789.7 1571.39 1348.55 1159.97 1000.7 828.112 656.639 520.502 390.508 260.344 96.7538 762.231 2011.38 2617.93 2685 2497.22 2286.82 2050.39 1745.53 1471.51 1207.32 999.804 844.146 636.861 489.418 398.769 268.132 103.037 536.63 1377.75 1725.3 1723.62 1569.86 1409.09 1227.19 1008.79 837.805 668.311 534.063 445.38 321.193 237.507 204.06 150.392 64.7439 1539.01 3752.44 4528.36 4509.99 4156.67 3660.43 3111.45 2517.22 1965.59 1579.32 1253.18 907.833 673.79 498.587 352.213 240.555 86.1075 2337.32 5657.22 6871.85 6961.74 6481.17 5763.98 4971.43 4112.32 3311.26 2739.73 2233.54 1718.14 1360.62 1035.3 746.788 512.94 187.38 1421.92 3424.39 4223.7 4364.02 4110.11 3756.11 3369.16 2934.3 2526.19 2174.45 1836.89 1531.19 1279.92 1008.56 746.076 514.506 193.568 1731.63 4296.64 5308.81 5356.33 4943.01 4454.39 3925.97 3326.35 2781.93 2283.15 1889.03 1541.11 1177.66 899.956 710.306 520.627 210.227 1108.03 2777.03 3428.6 3444.05 3157.39 2801.82 2416.79 1987.15 1601.4 1269.11 1032.49 820.238 584.564 428.105 358.804 278.505 117.931 1457.18 3666.22 4569.9 4578.5 4210.06 3679.52 3069.86 2489.37 1979.46 1559.29 1191.31 871.231 633.745 451.795 320.175 259.483 123.705 2388.53 5798.1 7026.14 7039.52 6491.52 5690.2 4837.77 4007.13 3234.2 2631.19 2087.98 1631.08 1286 951.656 706.187 522.051 212.605 1761.88 3966.67 4457.78 4364.3 4002.66 3543.34 3131.93 2730.52 2324.36 1997.56 1676.04 1412.86 1210.78 965.966 735.772 524.521 204.536 1984.65 4645.48 5399.2 5344.54 4919.68 4342.64 3769.71 3190.86 2635.79 2169.74 1776.79 1399.23 1089.34 842.848 643.716 502.61 219.085 1154.12 2810.7 3397.66 3441.26 3198.48 2809.98 2405.68 1978.1 1566.17 1244.07 997.422 746.221 530.81 376.743 293.956 240.657 103.449 1520.43 3751.05 4584.68 4556.06 4175.03 3681.06 3095.7 2502.54 1995.79 1574.15 1220.2 926.524 679.986 492.806 350.921 263.679 125.122 2375.6 5779.36 7002.69 7000.4 6470.96 5718.54 4877.13 4055.03 3319.93 2703 2177.82 1729.67 1322.67 987.092 732.144 540.132 234.283 1614.47 3746.05 4341.71 4342.34 4065.41 3630.77 3226.99 2833.66 2434.44 2103.13 1793.11 1502.59 1239.59 1010.53 775.775 562.605 240.175 1911.91 4523.75 5334.65 5365.35 4975.43 4397.79 3865.1 3284.33 2722.11 2272.54 1854.8 1477.93 1163.93 911.399 691.173 517.223 231.199 1152.61 2806 3410.96 3467.35 3205.95 2804.51 2419.53 2003.15 1611.8 1298.27 1019.31 778.487 567.033 395.154 296.622 231.071 100.185 785.98 1909.52 2281.14 2245.01 2059.31 1827.29 1550.57 1252.46 1002.93 797.016 617.599 468.892 355.878 266.227 188.471 124.84 49.3768 1169.74 2863.82 3465.47 3460.96 3224.3 2874.96 2457.56 2047.64 1703.15 1393.42 1123.95 893.155 692.172 528.776 382.458 268.506 112.449 710.525 1723.22 2094.06 2161.57 2071.51 1883.14 1674.52 1466.05 1287.73 1120.05 953.259 792.799 652.093 532.628 395.571 292.247 132.453 896.656 2163.52 2626.34 2692.14 2501.53 2222.72 1970.98 1674.29 1396.74 1178.64 967.229 775.66 615.393 479.088 358.994 267.109 119.304 569.887 1394.59 1716.61 1746.52 1595.01 1387.25 1203.46 1003.42 809.231 654.993 520.318 407.124 299.594 209.009 157.41 118.527 49.9235 
CELL_DATA 256
SCALARS stress float 1
LOOKUP_TABLE default
816.275 1111.47 1150.52 1092.02 970.315 864.375 722.35 555.578 423.417 373.747 290.727 203.507 160.646 112.725 81.763 38.1482 338.384 508.531 612.406 606.702 567.283 515.392 451.114 383.536 331.309 289.649 245.308 184.037 156.934 111.656 84.1432 58.4605 225.602 408.034 484.597 476.784 450.583 427.141 396.054 340.686 293.015 245.994 219.748 179.018 136.649 115.262 79.4466 38.2933 536.63 841.117 884.18 839.443 730.414 678.681 548.511 460.275 377.53 290.781 243.282 202.099 119.095 118.412 85.6478 64.7439 722.731 1101.96 1164.4 1103.05 991.292 834.451 690.279 549.011 437.588 344.57 244.138 169.461 140.176 85.0401 72.6849 47.9593 459.934 597.932 624.63 608.01 542.499 478.37 415.104 345.346 285.473 253.976 191.421 189.545 156.317 111.807 86.9685 42.812 398 487.975 499.598 451.297 406.957 367.888 318.096 284.366 262.456 212.583 178.212 143.899 133.526 86.4133 70.3794 54.0026 571.4 827.881 875.427 845.004 742.526 650.201 539.4 438.965 324.632 276.164 222.267 152.591 110.78 79.8186 74.9256 53.1875 734.453 1107.08 1196.46 1114.59 1001.13 852.641 692.493 557.586 435.275 341.856 260.746 196.886 127.222 99.3567 63.0934 75.7456 471.409 602.601 631.077 597.307 533.64 456.173 418.257 339.052 284.865 247.584 203.691 175.194 131.199 100.538 86.6987 46.0885 432.534 516.28 497.686 454.697 408.252 349.559 328.487 281.809 240.992 209.637 178.938 151.965 129.136 117.03 75.9375 61.6334 582.72 828.695 865.654 855.176 755.77 661.485 554.59 445.148 357.425 285.852 213.14 158.224 109.215 76.9292 62.2827 50.2613 785.98 1123.54 1157.6 1087.41 971.904 855.382 695.184 557.279 445.651 351.366 266.233 202.658 153.219 113.007 75.4637 49.3768 383.756 570.539 613.793 602.164 562.821 484.852 422.144 373.034 327.184 269.224 237.124 187.139 149.155 113.394 80.593 63.0722 326.769 442.159 467.571 478.046 428.481 406.988 360.535 310.341 277.167 246.478 200.433 168.104 147.695 122.383 79.2009 69.3807 569.887 824.702 891.908 854.616 740.389 646.865 556.592 446.823 362.408 292.585 227.733 179.391 120.203 88.8066 68.6035 49.9235 
SCALARS volume float 1
LOOKUP_TABLE default
2.52673 2.52914 2.52981 2.53012 2.53035 2.53052 2.53068 2.5308 2.5309 2.53098 2.53109 2.53115 2.53121 2.53125 2.53127 2.53129 2.52993 2.52979 2.53005 2.53023 2.5304 2.53054 2.53066 2.53078 2.53089 2.53099 2.53105 2.53113 2.53117 2.5312 2.53126 2.53125 2.53181 2.53123 2.53095 2.53089 2.5309 2.53093 2.53096 2.53101 2.53105 2.53111 2.53113 2.53115 2.53118 2.53121 2.53121 2.5312 2.5345 2.53238 2.53185 2.53163 2.53151 2.53143 2.53138 2.53134 2.53131 2.53129 2.53126 2.53125 2.53123 2.53124 2.53123 2.5312 2.52704 2.52868 2.52957 2.53006 2.53035 2.53053 2.53068 2.53079 2.53091 2.53101 2.5311 2.53117 2.53122 2.53126 2.53129 2.5313 2.53028 2.52978 2.53005 2.53026 2.53045 2.53061 2.53072 2.53082 2.5309 2.531 2.53107 2.53113 2.53119 2.5312 2.53124 2.53126 2.53147 2.53118 2.53085 2.5308 2.5308 2.53088 2.53095 2.531 2.53103 2.53109 2.53113 2.53117 2.53121 2.53121 2.53122 2.53123 2.53401 2.53259 2.53194 2.53159 2.53145 2.53138 2.53133 2.53132 2.53129 2.53129 2.53126 2.53124 2.53124 2.53122 2.53123 2.5312 2.52705 2.52877 2.52959 2.53004 2.53034 2.53055 2.53068 2.53081 2.53092 2.53101 2.53108 2.53118 2.53122 2.53127 2.5313 2.53129 2.53026 2.52975 2.53003 2.53026 2.53044 2.53059 2.53072 2.53081 2.53093 2.531 2.53107 2.53113 2.5312 2.53122 2.53124 2.53126 2.53147 2.53115 2.53085 2.5308 2.53084 2.53089 2.53094 2.531 2.53104 2.53109 2.53113 2.53116 2.53121 2.53121 2.53124 2.53121 2.53403 2.53247 2.5319 2.5316 2.53146 2.53139 2.53133 2.53131 2.53132 2.53128 2.53125 2.53125 2.53125 2.53123 2.53123 2.53121 2.52689 2.52916 2.52982 2.53015 2.53037 2.53054 2.5307 2.53081 2.53091 2.53099 2.53108 2.53114 2.53121 2.53125 2.53127 2.53129 2.52994 2.52981 2.53008 2.53028 2.53043 2.53056 2.53069 2.53079 2.53088 2.53098 2.53105 2.53111 2.53117 2.5312 2.53123 2.53126 2.53166 2.53121 2.53099 2.53092 2.53091 2.53092 2.53097 2.531 2.53103 2.53109 2.53111 2.53115 2.53119 2.53119 2.53121 2.53119 2.53428 2.53233 2.53185 2.53163 2.53151 2.53142 2.53137 2.53132 2.53129 2.53127 2.53127 2.53126 2.53123 2.53123 2.53121 2.5312 
SCALARS volume_diff float 1
LOOKUP_TABLE default
2.51111 2.51351 2.51419 2.5145 2.51472 2.5149 2.51505 2.51517 2.51528 2.51536 2.51546 2.51552 2.51559 2.51563 2.51565 2.51567 2.5143 2.51416 2.51442 2.51461 2.51478 2.51492 2.51504 2.51516 2.51527 2.51537 2.51542 2.51551 2.51555 2.51558 2.51563 2.51562 2.51619 2.5156 2.51532 2.51526 2.51527 2.5153 2.51534 2.51539 2.51543 2.51548 2.5155 2.51552 2.51556 2.51558 2.51559 2.51558 2.51888 2.51675 2.51622 2.516 2.51588 2.51581 2.51576 2.51571 2.51569 2.51566 2.51563 2.51562 2.51561 2.51562 2.5156 2.51558 2.51141 2.51306 2.51395 2.51444 2.51472 2.51491 2.51505 2.51517 2.51528 2.51539 2.51548 2.51554 2.5156 2.51564 2.51566 2.51567 2.51466 2.51415 2.51443 2.51464 2.51482 2.51499 2.5151 2.51519 2.51528 2.51538 2.51545 2.51551 2.51557 2.51557 2.51562 2.51564 2.51585 2.51555 2.51523 2.51517 2.51518 2.51525 2.51533 2.51537 2.5154 2.51547 2.51551 2.51554 2.51558 2.51558 2.5156 2.5156 2.51838 2.51696 2.51631 2.51596 2.51582 2.51575 2.51571 2.5157 2.51567 2.51566 2.51563 2.51562 2.51562 2.5156 2.5156 2.51558 2.51143 2.51315 2.51396 2.51442 2.51472 2.51493 2.51506 2.51519 2.5153 2.51538 2.51546 2.51556 2.5156 2.51564 2.51567 2.51566 2.51463 2.51412 2.5144 2.51463 2.51482 2.51497 2.51509 2.51519 2.51531 2.51537 2.51545 2.51551 2.51557 2.51559 2.51562 2.51563 2.51584 2.51553 2.51523 2.51518 2.51521 2.51527 2.51531 2.51537 2.51542 2.51547 2.5155 2.51553 2.51559 2.51559 2.51561 2.51559 2.5184 2.51685 2.51628 2.51598 2.51584 2.51576 2.51571 2.51568 2.51569 2.51565 2.51563 2.51562 2.51562 2.51561 2.51561 2.51558 2.51126 2.51354 2.5142 2.51453 2.51474 2.51492 2.51507 2.51519 2.51529 2.51537 2.51546 2.51552 2.51559 2.51562 2.51564 2.51567 2.51432 2.51418 2.51446 2.51466 2.51481 2.51494 2.51506 2.51516 2.51526 2.51535 2.51543 2.51549 2.51555 2.51558 2.51561 2.51563 2.51604 2.51558 2.51536 2.5153 2.51528 2.5153 2.51534 2.51537 2.51541 2.51547 2.51549 2.51553 2.51557 2.51557 2.51558 2.51557 2.51866 2.5167 2.51623 2.51601 2.51588 2.5158 2.51575 2.5157 2.51566 2.51565 2.51564 2.51563 2.5156 2.51561 2.51558 2.51557 
