# vtk DataFile Version 5.1
vtk output
ASCII

DATASET UNSTRUCTURED_GRID
POINTS 425 float
0 0 1.1
0.5 0 1.1
1 0 1.1
1.5 0 1.1
2 0 1.1
2.5 0 1.1
3 0 1.1
3.5 0 1.1
4 0 1.1
0 0.5 1.1
0.5 0.5 1.1
1 0.5 1.1
1.5 0.5 1.1
2 0.5 1.1
2.5 0.5 1.1
3 0.5 1.1
3.5 0.5 1.1
4 0.5 1.1
0 1 1.1
0.5 1 1.1
1 1 1.1
1.5 1 1.1
2 1 1.1
2.5 1 1.1
3 1 1.1
3.5 1 1.1
4 1 1.1
0 0 1.6
0.5 0 1.6
1 0 1.6
1.5 0 1.6
2 0 1.6
2.5 0 1.6
3 0 1.6
3.5 0 1.6
4 0 1.6
0 0.5 1.6
0.5 0.5 1.6
1 0.5 1.6
1.5 0.5 1.6
2 0.5 1.6
2.5 0.5 1.6
3 0.5 1.6
3.5 0.5 1.6
4 0.5 1.6
0 1 1.6
0.5 1 1.6
1 1 1.6
1.5 1 1.6
2 1 1.6
2.5 1 1.6
3 1 1.6
3.5 1 1.6
4 1 1.6
0 0 2.1
0.5 0 2.1
1 0 2.1
1.5 0 2.1
2 0 2.1
2.5 0 2.1
3 0 2.1
3.5 0 2.1
4 0 2.1
0 0.5 2.1
0.5 0.5 2.1
1 0.5 2.1
1.5 0.5 2.1
2 0.5 2.1
2.5 0.5 2.1
3 0.5 2.1
3.5 0.5 2.1
4 0.5 2.1
0 1 2.1
0.5 1 2.1
1 1 2.1
1.5 1 2.1
2 1 2.1
2.5 1 2.1
3 1 2.1
3.5 1 2.1
4 1 2.1
0.25 0 1.1
0.5 0 1.35
0.25 0 1.6
0 0 1.35
0 0.25 1.1
0.5 0.25 1.1
0.5 0.25 1.6
0 0.25 1.6
0.25 0.5 1.1
0.5 0.5 1.35
0.25 0.5 1.6
0 0.5 1.35
0.25 0 1.35
0.25 0.25 1.1
0.5 0.25 1.35
0.25 0.25 1.6
0 0.25 1.35
0.25 0.5 1.35
0.25 0.25 1.35
0.75 0 1.1
1 0 1.35
0.75 0 1.6
1 0.25 1.1
1 0.25 1.6
0.75 0.5 1.1
1 0.5 1.35
0.75 0.5 1.6
0.75 0 1.35
0.75 0.25 1.1
1 0.25 1.35
0.75 0.25 1.6
0.75 0.5 1.35
0.75 0.25 1.35
1.25 0 1.1
1.5 0 1.35
1.25 0 1.6
1.5 0.25 1.1
1.5 0.25 1.6
1.25 0.5 1.1
1.5 0.5 1.35
1.25 0.5 1.6
1.25 0 1.35
1.25 0.25 1.1
1.5 0.25 1.35
1.25 0.25 1.6
1.25 0.5 1.35
1.25 0.25 1.35
1.75 0 1.1
2 0 1.35
1.75 0 1.6
2 0.25 1.1
2 0.25 1.6
1.75 0.5 1.1
2 0.5 1.35
1.75 0.5 1.6
1.75 0 1.35
1.75 0.25 1.1
2 0.25 1.35
1.75 0.25 1.6
1.75 0.5 1.35
1.75 0.25 1.35
2.25 0 1.1
2.5 0 1.35
2.25 0 1.6
2.5 0.25 1.1
2.5 0.25 1.6
2.25 0.5 1.1
2.5 0.5 1.35
2.25 0.5 1.6
2.25 0 1.35
2.25 0.25 1.1
2.5 0.25 1.35
2.25 0.25 1.6
2.25 0.5 1.35
2.25 0.25 1.35
2.75 0 1.1
3 0 1.35
2.75 0 1.6
3 0.25 1.1
3 0.25 1.6
2.75 0.5 1.1
3 0.5 1.35
2.75 0.5 1.6
2.75 0 1.35
2.75 0.25 1.1
3 0.25 1.35
2.75 0.25 1.6
2.75 0.5 1.35
2.75 0.25 1.35
3.25 0 1.1
3.5 0 1.35
3.25 0 1.6
3.5 0.25 1.1
3.5 0.25 1.6
3.25 0.5 1.1
3.5 0.5 1.35
3.25 0.5 1.6
3.25 0 1.35
3.25 0.25 1.1
3.5 0.25 1.35
3.25 0.25 1.6
3.25 0.5 1.35
3.25 0.25 1.35
3.75 0 1.1
4 0 1.35
3.75 0 1.6
4 0.25 1.1
4 0.25 1.6
3.75 0.5 1.1
4 0.5 1.35
3.75 0.5 1.6
3.75 0 1.35
3.75 0.25 1.1
4 0.25 1.35
3.75 0.25 1.6
3.75 0.5 1.35
3.75 0.25 1.35
0 0.75 1.1
0.5 0.75 1.1
0.5 0.75 1.6
0 0.75 1.6
0.25 1 1.1
0.5 1 1.35
0.25 1 1.6
0 1 1.35
0.25 0.75 1.1
0.5 0.75 1.35
0.25 0.75 1.6
0 0.75 1.35
0.25 1 1.35
0.25 0.75 1.35
1 0.75 1.1
1 0.75 1.6
0.75 1 1.1
1 1 1.35
0.75 1 1.6
0.75 0.75 1.1
1 0.75 1.35
0.75 0.75 1.6
0.75 1 1.35
0.75 0.75 1.35
1.5 0.75 1.1
1.5 0.75 1.6
1.25 1 1.1
1.5 1 1.35
1.25 1 1.6
1.25 0.75 1.1
1.5 0.75 1.35
1.25 0.75 1.6
1.25 1 1.35
1.25 0.75 1.35
2 0.75 1.1
2 0.75 1.6
1.75 1 1.1
2 1 1.35
1.75 1 1.6
1.75 0.75 1.1
2 0.75 1.35
1.75 0.75 1.6
1.75 1 1.35
1.75 0.75 1.35
2.5 0.75 1.1
2.5 0.75 1.6
2.25 1 1.1
2.5 1 1.35
2.25 1 1.6
2.25 0.75 1.1
2.5 0.75 1.35
2.25 0.75 1.6
2.25 1 1.35
2.25 0.75 1.35
3 0.75 1.1
3 0.75 1.6
2.75 1 1.1
3 1 1.35
2.75 1 1.6
2.75 0.75 1.1
3 0.75 1.35
2.75 0.75 1.6
2.75 1 1.35
2.75 0.75 1.35
3.5 0.75 1.1
3.5 0.75 1.6
3.25 1 1.1
3.5 1 1.35
3.25 1 1.6
3.25 0.75 1.1
3.5 0.75 1.35
3.25 0.75 1.6
3.25 1 1.35
3.25 0.75 1.35
4 0.75 1.1
4 0.75 1.6
3.75 1 1.1
4 1 1.35
3.75 1 1.6
3.75 0.75 1.1
4 0.75 1.35
3.75 0.75 1.6
3.75 1 1.35
3.75 0.75 1.35
0.5 0 1.85
0.25 0 2.1
0 0 1.85
0.5 0.25 2.1
0 0.25 2.1
0.5 0.5 1.85
0.25 0.5 2.1
0 0.5 1.85
0.25 0 1.85
0.5 0.25 1.85
0.25 0.25 2.1
0 0.25 1.85
0.25 0.5 1.85
0.25 0.25 1.85
1 0 1.85
0.75 0 2.1
1 0.25 2.1
1 0.5 1.85
0.75 0.5 2.1
0.75 0 1.85
1 0.25 1.85
0.75 0.25 2.1
0.75 0.5 1.85
0.75 0.25 1.85
1.5 0 1.85
1.25 0 2.1
1.5 0.25 2.1
1.5 0.5 1.85
1.25 0.5 2.1
1.25 0 1.85
1.5 0.25 1.85
1.25 0.25 2.1
1.25 0.5 1.85
1.25 0.25 1.85
2 0 1.85
1.75 0 2.1
2 0.25 2.1
2 0.5 1.85
1.75 0.5 2.1
1.75 0 1.85
2 0.25 1.85
1.75 0.25 2.1
1.75 0.5 1.85
1.75 0.25 1.85
2.5 0 1.85
2.25 0 2.1
2.5 0.25 2.1
2.5 0.5 1.85
2.25 0.5 2.1
2.25 0 1.85
2.5 0.25 1.85
2.25 0.25 2.1
2.25 0.5 1.85
2.25 0.25 1.85
3 0 1.85
2.75 0 2.1
3 0.25 2.1
3 0.5 1.85
2.75 0.5 2.1
2.75 0 1.85
3 0.25 1.85
2.75 0.25 2.1
2.75 0.5 1.85
2.75 0.25 1.85
3.5 0 1.85
3.25 0 2.1
3.5 0.25 2.1
3.5 0.5 1.85
3.25 0.5 2.1
3.25 0 1.85
3.5 0.25 1.85
3.25 0.25 2.1
3.25 0.5 1.85
3.25 0.25 1.85
4 0 1.85
3.75 0 2.1
4 0.25 2.1
4 0.5 1.85
3.75 0.5 2.1
3.75 0 1.85
4 0.25 1.85
3.75 0.25 2.1
3.75 0.5 1.85
3.75 0.25 1.85
0.5 0.75 2.1
0 0.75 2.1
0.5 1 1.85
0.25 1 2.1
0 1 1.85
0.5 0.75 1.85
0.25 0.75 2.1
0 0.75 1.85
0.25 1 1.85
0.25 0.75 1.85
1 0.75 2.1
1 1 1.85
0.75 1 2.1
1 0.75 1.85
0.75 0.75 2.1
0.75 1 1.85
0.75 0.75 1.85
1.5 0.75 2.1
1.5 1 1.85
1.25 1 2.1
1.5 0.75 1.85
1.25 0.75 2.1
1.25 1 1.85
1.25 0.75 1.85
2 0.75 2.1
2 1 1.85
1.75 1 2.1
2 0.75 1.85
1.75 0.75 2.1
1.75 1 1.85
1.75 0.75 1.85
2.5 0.75 2.1
2.5 1 1.85
2.25 1 2.1
2.5 0.75 1.85
2.25 0.75 2.1
2.25 1 1.85
2.25 0.75 1.85
3 0.75 2.1
3 1 1.85
2.75 1 2.1
3 0.75 1.85
2.75 0.75 2.1
2.75 1 1.85
2.75 0.75 1.85
3.5 0.75 2.1
3.5 1 1.85
3.25 1 2.1
3.5 0.75 1.85
3.25 0.75 2.1
3.25 1 1.85
3.25 0.75 1.85
4 0.75 2.1
4 1 1.85
3.75 1 2.1
4 0.75 1.85
3.75 0.75 2.1
3.75 1 1.85
3.75 0.75 1.85

CELLS 33 864
OFFSETS vtktypeint64
0 27 54 81 108 135 162 189 216 243 270 297 324 351 378 405 432 459 486 513 540 567 594 621 648 675 702 729 756 783 810 837 864 
CONNECTIVITY vtktypeint64
0 1 28 27 9 10 37 36 81 82 83 84 89 90 91 92 85 86 87 88 97 95 94 96 93 98 99 
1 2 29 28 10 11 38 37 100 101 102 82 105 106 107 90 86 103 104 87 95 110 109 111 108 112 113 
2 3 30 29 11 12 39 38 114 115 116 101 119 120 121 106 103 117 118 104 110 124 123 125 122 126 127 
3 4 31 30 12 13 40 39 128 129 130 115 133 134 135 120 117 131 132 118 124 138 137 139 136 140 141 
4 5 32 31 13 14 41 40 142 143 144 129 147 148 149 134 131 145 146 132 138 152 151 153 150 154 155 
5 6 33 32 14 15 42 41 156 157 158 143 161 162 163 148 145 159 160 146 152 166 165 167 164 168 169 
6 7 34 33 15 16 43 42 170 171 172 157 175 176 177 162 159 173 174 160 166 180 179 181 178 182 183 
7 8 35 34 16 17 44 43 184 185 186 171 189 190 191 176 173 187 188 174 180 194 193 195 192 196 197 
9 10 37 36 18 19 46 45 89 90 91 92 202 203 204 205 198 199 200 201 209 207 206 208 98 210 211 
10 11 38 37 19 20 47 46 105 106 107 90 214 215 216 203 199 212 213 200 207 218 217 219 112 220 221 
11 12 39 38 20 21 48 47 119 120 121 106 224 225 226 215 212 222 223 213 218 228 227 229 126 230 231 
12 13 40 39 21 22 49 48 133 134 135 120 234 235 236 225 222 232 233 223 228 238 237 239 140 240 241 
13 14 41 40 22 23 50 49 147 148 149 134 244 245 246 235 232 242 243 233 238 248 247 249 154 250 251 
14 15 42 41 23 24 51 50 161 162 163 148 254 255 256 245 242 252 253 243 248 258 257 259 168 260 261 
15 16 43 42 24 25 52 51 175 176 177 162 264 265 266 255 252 262 263 253 258 268 267 269 182 270 271 
16 17 44 43 25 26 53 52 189 190 191 176 274 275 276 265 262 272 273 263 268 278 277 279 196 280 281 
27 28 55 54 36 37 64 63 83 282 283 284 91 287 288 289 88 87 285 286 293 291 96 292 290 294 295 
28 29 56 55 37 38 65 64 102 296 297 282 107 299 300 287 87 104 298 285 291 302 111 303 301 304 305 
29 30 57 56 38 39 66 65 116 306 307 296 121 309 310 299 104 118 308 298 302 312 125 313 311 314 315 
30 31 58 57 39 40 67 66 130 316 317 306 135 319 320 309 118 132 318 308 312 322 139 323 321 324 325 
31 32 59 58 40 41 68 67 144 326 327 316 149 329 330 319 132 146 328 318 322 332 153 333 331 334 335 
32 33 60 59 41 42 69 68 158 336 337 326 163 339 340 329 146 160 338 328 332 342 167 343 341 344 345 
33 34 61 60 42 43 70 69 172 346 347 336 177 349 350 339 160 174 348 338 342 352 181 353 351 354 355 
34 35 62 61 43 44 71 70 186 356 357 346 191 359 360 349 174 188 358 348 352 362 195 363 361 364 365 
36 37 64 63 45 46 73 72 91 287 288 289 204 368 369 370 201 200 366 367 373 371 208 372 294 374 375 
37 38 65 64 46 47 74 73 107 299 300 287 216 377 378 368 200 213 376 366 371 379 219 380 304 381 382 
38 39 66 65 47 48 75 74 121 309 310 299 226 384 385 377 213 223 383 376 379 386 229 387 314 388 389 
39 40 67 66 48 49 76 75 135 319 320 309 236 391 392 384 223 233 390 383 386 393 239 394 324 395 396 
40 41 68 67 49 50 77 76 149 329 330 319 246 398 399 391 233 243 397 390 393 400 249 401 334 402 403 
41 42 69 68 50 51 78 77 163 339 340 329 256 405 406 398 243 253 404 397 400 407 259 408 344 409 410 
42 43 70 69 51 52 79 78 177 349 350 339 266 412 413 405 253 263 411 404 407 414 269 415 354 416 417 
43 44 71 70 52 53 80 79 191 359 360 349 276 419 420 412 263 273 418 411 414 421 279 422 364 423 424 
CELL_TYPES 32
29 29 29 29 29 29 29 29 29 29 29 29 29 29 29 29 29 29 29 29 29 29 29 29 29 29 29 29 29 29 29 29 

POINT_DATA 425
SCALARS weights float 1
LOOKUP_TABLE default
4.62963 9.25926 9.25926 9.25926 9.25926 9.25926 9.25926 9.25926 4.62963 9.25926 18.5185 18.5185 18.5185 18.5185 18.5185 18.5185 18.5185 9.25926 4.62963 9.25926 9.25926 9.25926 9.25926 9.25926 9.25926 9.25926 4.62963 9.25926 18.5185 18.5185 18.5185 18.5185 18.5185 18.5185 18.5185 9.25926 18.5185 37.037 37.037 37.037 37.037 37.037 37.037 37.037 18.5185 9.25926 18.5185 18.5185 18.5185 18.5185 18.5185 18.5185 18.5185 9.25926 4.62963 9.25926 9.25926 9.25926 9.25926 9.25926 9.25926 9.25926 4.62963 9.25926 18.5185 18.5185 18.5185 18.5185 18.5185 18.5185 18.5185 9.25926 4.62963 9.25926 9.25926 9.25926 9.25926 9.25926 9.25926 9.25926 4.62963 4.62963 9.25926 9.25926 4.62963 4.62963 9.25926 18.5185 9.25926 9.25926 18.5185 18.5185 9.25926 4.62963 4.62963 9.25926 9.25926 4.62963 9.25926 4.62963 4.62963 9.25926 9.25926 9.25926 18.5185 9.25926 18.5185 18.5185 4.62963 4.62963 9.25926 9.25926 9.25926 4.62963 4.62963 9.25926 9.25926 9.25926 18.5185 9.25926 18.5185 18.5185 4.62963 4.62963 9.25926 9.25926 9.25926 4.62963 4.62963 9.25926 9.25926 9.25926 18.5185 9.25926 18.5185 18.5185 4.62963 4.62963 9.25926 9.25926 9.25926 4.62963 4.62963 9.25926 9.25926 9.25926 18.5185 9.25926 18.5185 18.5185 4.62963 4.62963 9.25926 9.25926 9.25926 4.62963 4.62963 9.25926 9.25926 9.25926 18.5185 9.25926 18.5185 18.5185 4.62963 4.62963 9.25926 9.25926 9.25926 4.62963 4.62963 9.25926 9.25926 9.25926 18.5185 9.25926 18.5185 18.5185 4.62963 4.62963 9.25926 9.25926 9.25926 4.62963 4.62963 4.62963 9.25926 4.62963 9.25926 9.25926 9.25926 18.5185 4.62963 4.62963 4.62963 9.25926 9.25926 4.62963 4.62963 9.25926 18.5185 9.25926 4.62963 9.25926 9.25926 4.62963 4.62963 9.25926 9.25926 4.62963 4.62963 4.62963 9.25926 18.5185 4.62963 9.25926 9.25926 4.62963 9.25926 9.25926 4.62963 4.62963 9.25926 18.5185 4.62963 9.25926 9.25926 4.62963 9.25926 9.25926 4.62963 4.62963 9.25926 18.5185 4.62963 9.25926 9.25926 4.62963 9.25926 9.25926 4.62963 4.62963 9.25926 18.5185 4.62963 9.25926 9.25926 4.62963 9.25926 9.25926 4.62963 4.62963 9.25926 18.5185 4.62963 9.25926 9.25926 4.62963 9.25926 9.25926 4.62963 4.62963 9.25926 18.5185 4.62963 9.25926 9.25926 4.62963 9.25926 9.25926 4.62963 4.62963 4.62963 9.25926 4.62963 4.62963 9.25926 4.62963 4.62963 9.25926 4.62963 4.62963 9.25926 4.62963 4.62963 9.25926 4.62963 18.5185 9.25926 9.25926 4.62963 9.25926 4.62963 4.62963 9.25926 4.62963 9.25926 4.62963 9.25926 18.5185 9.25926 4.62963 9.25926 4.62963 9.25926 4.62963 9.25926 4.62963 9.25926 18.5185 9.25926 4.62963 9.25926 4.62963 9.25926 4.62963 9.25926 4.62963 9.25926 18.5185 9.25926 4.62963 9.25926 4.62963 9.25926 4.62963 9.25926 4.62963 9.25926 18.5185 9.25926 4.62963 9.25926 4.62963 9.25926 4.62963 9.25926 4.62963 9.25926 18.5185 9.25926 4.62963 9.25926 4.62963 9.25926 4.62963 9.25926 4.62963 9.25926 18.5185 9.25926 4.62963 9.25926 4.62963 9.25926 4.62963 4.62963 4.62963 4.62963 9.25926 9.25926 4.62963 4.62963 4.62963 9.25926 4.62963 9.25926 4.62963 9.25926 4.62963 4.62963 9.25926 4.62963 4.62963 4.62963 4.62963 9.25926 9.25926 4.62963 9.25926 4.62963 4.62963 4.62963 9.25926 9.25926 4.62963 9.25926 4.62963 4.62963 4.62963 9.25926 9.25926 4.62963 9.25926 4.62963 4.62963 4.62963 9.25926 9.25926 4.62963 9.25926 4.62963 4.62963 4.62963 9.25926 9.25926 4.62963 9.25926 4.62963 4.62963 4.62963 9.25926 9.25926 4.62963 9.25926 4.62963 4.62963 4.62963 4.62963 4.62963 4.62963 4.62963 4.62963 4.62963 4.62963 
VECTORS u float
0 0 0  -0.0145108 -0.0112021 -0.00974619  -0.0314898 -0.0386954 -0.00653255  -0.0443797 -0.079941 -0.00433874  -0.0545235 -0.129793 -0.00251174  -0.0622034 -0.185191 -0.00109386  -0.067971 -0.243443 -6.16312e-05  -0.0723488 -0.302607 0.000572562  -0.0759912 -0.361513 0.000844717  0 0 0  0.00032717 -0.00693002 8.53539e-05  -1.81198e-05 -0.0367297 0.000104189  -0.00150621 -0.0794509 0.000211716  -0.00394082 -0.130843 0.00031054  -0.00701046 -0.187334 0.000405788  -0.0104129 -0.246301 0.00050354  -0.0139253 -0.305841 0.000597477  -0.0173948 -0.364854 0.000714779  0 0 0  0.0147681 -0.0126089 0.00935566  0.030935 -0.0412647 0.00656879  0.0408387 -0.083899 0.00470412  0.0462587 -0.135065 0.00312006  0.0479338 -0.191374 0.00191474  0.0469992 -0.250124 0.00108206  0.0444217 -0.309464 0.000635028  0.0411429 -0.368413 0.000552893  0 0 0  -0.0143983 -0.0163649 1.57356e-05  -0.0321476 -0.0420731 8.11815e-05  -0.0451283 -0.0821357 0.000165462  -0.0550994 -0.131135 0.00027132  -0.0626469 -0.185861 0.000376225  -0.0682666 -0.243654 0.000488639  -0.0725486 -0.302567 0.000605345  -0.0761895 -0.361449 0.000714064  0 0 0  0.000157297 -0.0104836 2.21729e-05  -0.000314355 -0.0400627 8.69036e-05  -0.00181246 -0.081785 0.000165105  -0.00419796 -0.132316 0.000262499  -0.00720429 -0.188156 0.000370145  -0.0105629 -0.246656 0.000473142  -0.0140452 -0.305926 0.000586033  -0.017519 -0.364847 0.000696659  0 0 0  0.0142616 -0.0172678 1.16825e-05  0.0309938 -0.0444614 7.09295e-05  0.0409938 -0.0860918 0.000154734  0.0463369 -0.136442 0.000253439  0.0480108 -0.192104 0.000356793  0.0470519 -0.250385 0.000464201  0.0444298 -0.309455 0.000577331  0.0411263 -0.368359 0.000679851  0 0 0  -0.014574 -0.011231 0.00978971  -0.0316183 -0.0387086 0.00670433  -0.0445459 -0.0799392 0.00466466  -0.0547177 -0.129774 0.00305414  -0.0624187 -0.185153 0.00184202  -0.0681851 -0.243386 0.00105691  -0.0725582 -0.302555 0.000623703  -0.0761969 -0.361472 0.000571489  0 0 0  0.000269294 -0.00691617 -1.64509e-05  -0.000143468 -0.0367078 8.36849e-05  -0.00167143 -0.0794293 0.000133514  -0.00413275 -0.130807 0.000217676  -0.00720978 -0.187289 0.000331163  -0.0106246 -0.246251 0.000451326  -0.014142 -0.305795 0.000573635  -0.0176222 -0.364802 0.000700235  0 0 0  0.0147143 -0.0125543 -0.0093224  0.0308235 -0.0412084 -0.0064261  0.0406777 -0.0838581 -0.00438857  0.0460572 -0.135011 -0.00262022  0.0477376 -0.191324 -0.00121379  0.0467954 -0.25008 -0.000145912  0.0442207 -0.309423 0.000520229  0.0409188 -0.368359 0.000818729  -0.00505884 -0.0039699 -0.00691402  -0.0143765 -0.0152946 -0.00459945  -0.00488646 -0.00739913 2.98023e-06  0 0 0  0 0 0  -0.00634903 -0.00778182 -0.00461257  -0.00632855 -0.011796 2.16961e-05  0 0 0  0.000110537 -0.000888675 -9.72748e-05  0.000199199 -0.00957951 2.80142e-05  5.25117e-05 -0.00334913 6.91414e-06  0 0 0  -0.00468023 -0.00645909 -0.00314724  -0.0020728 -0.00147703 -0.00286829  -0.00628892 -0.0108396 -0.00222218  -0.00188182 -0.0041679 6.4373e-06  0 0 0  5.78165e-05 -0.00293854 -4.94719e-05  -0.00181325 -0.00365202 -0.00131071  -0.0238007 -0.0225926 -0.00831473  -0.0321546 -0.0410727 -0.00332928  -0.0240864 -0.0268939 4.72069e-05  -0.0148943 -0.0369079 -0.00317931  -0.0155943 -0.0402639 8.58307e-05  0.000326693 -0.0195622 5.24521e-05  -0.0002231 -0.0391344 9.01222e-05  6.07967e-05 -0.0233774 5.16176e-05  -0.0242445 -0.0259326 -0.0041697  -0.0109029 -0.0200812 -0.00402975  -0.0154583 -0.0393292 -0.00160575  -0.0113232 -0.0240512 4.98295e-05  0.000141978 -0.0224056 4.3273e-05  -0.0112907 -0.0230719 -0.00204301  -0.0382375 -0.0579112 -0.00544786  -0.0450041 -0.0814768 -0.002105  -0.0390511 -0.0607079 0.000120759  -0.0221815 -0.0791188 -0.0021466  -0.0229062 -0.0814066 0.000165701  -0.000623107 -0.0566652 0.000141025  -0.00171411 -0.0810853 0.000182748  -0.000928998 -0.0594603 0.000121713  -0.0389317 -0.059969 -0.00269365  -0.018595 -0.0566134 -0.00266409  -0.0227115 -0.0807289 -0.000987887  -0.0193796 -0.0594025 0.000122786  -0.000840664 -0.0587516 0.000126958  -0.0191804 -0.0586884 -0.00128484  -0.049793 -0.103864 -0.0034343  -0.0550028 -0.130678 -0.00115263  -0.0504402 -0.105651 0.000212908  -0.0286404 -0.129967 -0.00119138  -0.0292039 -0.131393 0.000266552  -0.00261104 -0.104189 0.000254393  -0.00411046 -0.131836 0.000286937  -0.00289822 -0.106061 0.000211835  -0.050347 -0.105175 -0.00162125  -0.0255311 -0.103584 -0.00165892  -0.0290482 -0.13093 -0.000470281  -0.0261617 -0.105418 0.000213146  -0.00281119 -0.105579 0.000231028  -0.0260028 -0.104939 -0.000721931  -0.0586166 -0.156866 -0.0018177  -0.0625572 -0.185578 -0.000386834  -0.0591376 -0.157888 0.000323415  -0.0341692 -0.186061 -0.000445843  -0.0345988 -0.186832 0.000373006  -0.00540662 -0.158514 0.000357509  -0.00713229 -0.187839 0.000386715  -0.00562882 -0.159629 0.000317216  -0.0590477 -0.157603 -0.000758886  -0.0314963 -0.157435 -0.000809669  -0.0344675 -0.186534 -3.98159e-05  -0.0319967 -0.158508 0.000319123  -0.00555897 -0.159338 0.000337601  -0.0318606 -0.158221 -0.000244617  -0.0652826 -0.213979 -0.000587821  -0.068197 -0.243487 0.000185728  -0.0656552 -0.214434 0.000433922  -0.038909 -0.244772 0.00011754  -0.039201 -0.245086 0.000480533  -0.00867271 -0.216527 0.000456333  -0.0104945 -0.246457 0.000489235  -0.00884295 -0.217083 0.000419497  -0.0655844 -0.214294 -8.69036e-05  -0.0366209 -0.215125 -0.000153661  -0.0391009 -0.244904 0.000294566  -0.036978 -0.215641 0.000425935  -0.0087831 -0.216932 0.000436902  -0.0368729 -0.215493 0.000138044  -0.0702829 -0.272881 0.000243187  -0.0724752 -0.302465 0.000560999  -0.0705264 -0.272985 0.00054419  -0.0429897 -0.304184 0.000497103  -0.04318 -0.304234 0.000593066  -0.0121539 -0.275971 0.000549793  -0.0139849 -0.305796 0.00059104  -0.0122848 -0.276156 0.000529885  -0.070467 -0.272935 0.000383019  -0.0410068 -0.274377 0.000315428  -0.0431004 -0.30412 0.000540257  -0.0412436 -0.274533 0.000536323  -0.0122318 -0.276098 0.000539422  -0.0411651 -0.274478 0.000427246  -0.0741987 -0.332004 0.000673294  -0.0760639 -0.361352 0.000759959  -0.074389 -0.331967 0.000657201  -0.0466127 -0.363155 0.000753164  -0.0467699 -0.363133 0.000705719  -0.0156631 -0.335345 0.000652909  -0.0174534 -0.364733 0.000701547  -0.015775 -0.335343 0.000644565  -0.0743072 -0.331955 0.000657439  -0.044832 -0.333661 0.000616074  -0.0466936 -0.363038 0.000721455  -0.0449922 -0.333647 0.000648856  -0.0157254 -0.335332 0.000647068  -0.0449278 -0.333638 0.00063324  0 0 0  0.00691193 -0.00853312 0.00486314  0.00654805 -0.0123395 1.78814e-05  0 0 0  0.00507084 -0.00473952 0.00660789  0.0143309 -0.0161929 0.00438559  0.00477412 -0.00785023 1.3113e-06  0 0 0  0.00223786 -0.0019356 0.0028193  0.00660312 -0.0114034 0.00229955  0.00196525 -0.00448006 4.52995e-06  0 0 0  0.00462675 -0.00696802 0.00298846  0.00191253 -0.00399238 0.00127459  0.0147372 -0.0381459 0.00344527  0.014797 -0.0414367 7.92742e-05  0.0239784 -0.0245076 0.00812793  0.0311586 -0.0435133 0.00339544  0.0237188 -0.0284235 3.67165e-05  0.0114586 -0.0210482 0.00421214  0.01486 -0.0405172 0.00180042  0.0113019 -0.0248594 4.39882e-05  0.0239899 -0.02754 0.00408983  0.0114355 -0.0239219 0.00214827  0.0190264 -0.0810017 0.00259304  0.0191214 -0.0833202 0.000160336  0.0364559 -0.0611476 0.00564182  0.0410446 -0.0854452 0.00244033  0.0366436 -0.0638531 0.000109911  0.0172178 -0.0581583 0.00300276  0.0191402 -0.0826352 0.00136602  0.0173496 -0.060934 0.000116825  0.0366845 -0.0631478 0.00289118  0.0173483 -0.0602236 0.00156093  0.0206373 -0.132492 0.00182378  0.0206854 -0.133965 0.000257254  0.0441031 -0.108517 0.00392139  0.0464072 -0.135992 0.00171494  0.0441933 -0.110316 0.000202417  0.0201699 -0.105807 0.00219333  0.0207255 -0.133497 0.0010457  0.0202231 -0.107678 0.00020647  0.0442622 -0.109854 0.0020659  0.0202541 -0.107195 0.00119388  0.0200655 -0.189063 0.00126517  0.0201035 -0.189884 0.000360489  0.0474997 -0.162649 0.00252998  0.0480685 -0.191819 0.00116169  0.0475776 -0.163716 0.000301719  0.020586 -0.160227 0.00153625  0.020144 -0.189579 0.000816345  0.0206327 -0.161349 0.000309229  0.0476291 -0.163437 0.00142646  0.0206621 -0.161054 0.000920296  0.0180206 -0.248049 0.000891328  0.0180345 -0.248399 0.000467062  0.0477431 -0.22046 0.00151038  0.0470941 -0.250213 0.000799298  0.0478055 -0.22097 0.000407338  0.0192008 -0.218286 0.00106895  0.018075 -0.248211 0.00068295  0.0192287 -0.218848 0.000413179  0.0478477 -0.220825 0.000968575  0.019259 -0.218693 0.000738978  0.0150969 -0.307576 0.000703335  0.0150678 -0.307652 0.000581861  0.0458701 -0.27969 0.000865459  0.0444617 -0.309352 0.00063324  0.0458972 -0.279826 0.000519872  0.0166471 -0.277732 0.000789404  0.0151143 -0.307533 0.000646353  0.0166416 -0.277916 0.000523925  0.0459247 -0.279772 0.000701904  0.0166748 -0.277854 0.000654697  0.0117655 -0.366577 0.000645995  0.0117245 -0.366568 0.000693202  0.0428231 -0.338884 0.000639915  0.0411301 -0.36825 0.000636458  0.0428078 -0.338871 0.000629663  0.0134685 -0.337078 0.000686049  0.0117688 -0.366466 0.00067997  0.0134246 -0.337079 0.000636458  0.0428252 -0.338852 0.000637174  0.013463 -0.337066 0.000660419  -0.014402 -0.0153078 0.00463474  -0.00508207 -0.00399579 0.00693393  0 0 0  -0.00640944 -0.00778484 0.0046823  0 0 0  0.000172675 -0.00957322 2.16961e-05  9.07481e-05 -0.000881851 0.000129223  0 0 0  -0.00468913 -0.00646759 0.00315666  -0.00631428 -0.0108417 0.00227213  -0.0020927 -0.00148371 0.00289536  0 0 0  4.91738e-05 -0.00293493 6.73532e-05  -0.00182037 -0.00365403 0.00132704  -0.0322147 -0.0410805 0.00349534  -0.0238985 -0.0226105 0.0084281  -0.0150223 -0.0368997 0.00336123  -0.00028342 -0.0391241 8.65459e-05  0.000231504 -0.0195452 6.48499e-05  -0.0242875 -0.0259431 0.00426793  -0.015519 -0.0393262 0.00178063  -0.0110027 -0.0200834 0.00414586  9.71556e-05 -0.022397 6.36578e-05  -0.011336 -0.0230729 0.00214684  -0.0450867 -0.0814744 0.00243533  -0.0383885 -0.0579137 0.00570107  -0.0223502 -0.0791028 0.00248432  -0.00179636 -0.0810743 0.000151038  -0.000769854 -0.0566451 0.000110388  -0.0390061 -0.0599709 0.00293767  -0.0227935 -0.0807208 0.00132108  -0.0187464 -0.0566061 0.00291872  -0.000913262 -0.0587409 0.000119448  -0.0192535 -0.058684 0.00153267  -0.055099 -0.130669 0.0016948  -0.0499717 -0.103854 0.0038681  -0.0288364 -0.129934 0.00172949  -0.00420427 -0.131817 0.000237346  -0.00279284 -0.104162 0.000174046  -0.0504348 -0.105168 0.00204849  -0.0291442 -0.130914 0.00100517  -0.025715 -0.103566 0.00209165  -0.00290084 -0.105564 0.000193834  -0.0260919 -0.104928 0.00115001  -0.0626583 -0.185557 0.00113893  -0.0588272 -0.156838 0.00246549  -0.0343788 -0.186018 0.00119185  -0.00723076 -0.187816 0.000351667  -0.00560355 -0.158472 0.000276566  -0.0591493 -0.157588 0.00140536  -0.0345714 -0.186513 0.000785828  -0.0317011 -0.157399 0.00144839  -0.00565553 -0.159316 0.000297427  -0.0319619 -0.158202 0.00088346  -0.0683069 -0.243464 0.00079596  -0.0654948 -0.213931 0.00145984  -0.0391212 -0.24472 0.000845194  -0.0105994 -0.246432 0.000458598  -0.00887775 -0.216481 0.000386953  -0.0656867 -0.214273 0.000955582  -0.0392082 -0.24488 0.000666738  -0.0368328 -0.21508 0.00100708  -0.00888348 -0.216909 0.000403523  -0.0369785 -0.21547 0.000714064  -0.0725842 -0.30244 0.000646114  -0.070502 -0.272832 0.000849485  -0.0432048 -0.304135 0.000688076  -0.0140908 -0.305772 0.000581264  -0.0123708 -0.275922 0.000509262  -0.07058 -0.272909 0.000706911  -0.0432069 -0.304095 0.000645399  -0.0412216 -0.27433 0.000757933  -0.0123389 -0.276074 0.000520349  -0.0412729 -0.274454 0.000645518  -0.0761709 -0.361332 0.000665903  -0.0744007 -0.331955 0.000644684  -0.0468237 -0.363103 0.000654221  -0.0175624 -0.364707 0.000699043  -0.0158806 -0.335298 0.000635624  -0.0744121 -0.331931 0.000656605  -0.0467992 -0.363012 0.000688791  -0.0450451 -0.333616 0.000681639  -0.015831 -0.335309 0.000640988  -0.0450337 -0.333615 0.000664949  0.00685745 -0.00850165 -0.00480556  0 0 0  0.0143042 -0.0161675 -0.00435901  0.005052 -0.00471085 -0.00659037  0 0 0  0.00657809 -0.0113888 -0.00225747  0.00222015 -0.0019179 -0.00279498  0 0 0  0.00461754 -0.00695425 -0.00298262  0.00190538 -0.00398403 -0.00126195  0.0146168 -0.0381101 -0.00327921  0.0311044 -0.0434886 -0.0032531  0.0238929 -0.0244584 -0.00804162  0.0148011 -0.0404996 -0.00163925  0.0113667 -0.0210128 -0.00410914  0.023947 -0.0275155 -0.00401354  0.0113914 -0.0239046 -0.00205636  0.0188587 -0.0809725 -0.00226521  0.0409665 -0.0854222 -0.00212836  0.0363173 -0.0611017 -0.00541091  0.0190582 -0.0826206 -0.00104344  0.0170721 -0.0581244 -0.00276017  0.0366201 -0.0631257 -0.0026685  0.0172774 -0.0602068 -0.00132513  0.0204477 -0.132451 -0.00130844  0.0463126 -0.135968 -0.00121021  0.0439192 -0.10848 -0.00349927  0.0206306 -0.133475 -0.000530005  0.0199883 -0.105774 -0.00177383  0.0441717 -0.109834 -0.00165737  0.0201643 -0.107176 -0.000779033  0.0198658 -0.189014 -0.000543594  0.0479696 -0.191791 -0.000452161  0.0472951 -0.162601 -0.00192189  0.0200446 -0.189554 -9.47714e-05  0.0203905 -0.160179 -0.000916243  0.0475316 -0.163412 -0.000820518  0.0205648 -0.16103 -0.000301719  0.0178149 -0.248003 4.673e-05  0.0469911 -0.250189 0.000129342  0.0475471 -0.220412 -0.000689268  0.0179732 -0.248187 0.000252366  0.0189977 -0.218238 -0.00024128  0.0477476 -0.220802 -0.000151992  0.0191579 -0.218669 8.76188e-05  0.0148852 -0.307532 0.000461578  0.044358 -0.309327 0.000522017  0.045666 -0.279644 0.000178814  0.0150092 -0.307509 0.000517368  0.0164385 -0.277682 0.000262022  0.0458217 -0.27975 0.00033927  0.016571 -0.27783 0.000394106  0.0115552 -0.36653 0.000737667  0.0410123 -0.368217 0.000727534  0.0426164 -0.338838 0.000633001  0.0116596 -0.36644 0.000705957  0.0132558 -0.33703 0.000588179  0.0427165 -0.338826 0.000624657  0.0133564 -0.337041 0.000613332  
SCALARS smooth_stress float 1
LOOKUP_TABLE default
15196.8 31516.9 33818.1 30607.4 27389.1 24379.1 22642.5 27332.2 14789.2 27676.3 58889.7 63531.8 62950.3 61992.7 58761.1 52621.3 53767.4 28546.5 12479.5 27372.8 29713.8 32343 34603.6 34382 29978.8 26435.2 13757.3 28860.9 59007.9 59788.8 56265.5 54793.1 48333 44863.6 50196 25495.8 57910 117939 119550 117332 114630 108054 105152 103390 49472.6 29049.1 58930.8 59761.4 61066.5 59836.9 59720.8 60288.2 53194.3 23976.8 13664.2 27491 25970.7 25658.2 27404 23953.8 22221.2 22863.8 10706.7 30233.7 59049 56018.3 54381.7 52637.4 49292.6 52530.5 49622.8 20926.1 16569.5 31558 30047.6 28723.5 25233.4 25338.8 30309.4 26759.1 10219.5 15196.8 31516.9 28860.9 15196.8 15196.8 31516.9 59007.9 28860.9 27676.3 58889.7 57910 27676.3 15196.8 15196.8 31516.9 28860.9 15196.8 27676.3 15196.8 16320.2 33818.1 30146.9 33818.1 59788.8 31213.4 63531.8 60028.7 16320.2 16320.2 33818.1 30146.9 31213.4 16320.2 17497.9 30607.4 29641.8 30607.4 56265.5 32318.4 62950.3 59521.5 17497.9 17497.9 30607.4 29641.8 32318.4 17497.9 13109.5 27389.1 26623.7 27389.1 54793.1 30631.9 61992.7 57810.5 13109.5 13109.5 27389.1 26623.7 30631.9 13109.5 14279.7 24379.1 28169.4 24379.1 48333 31360.8 58761.1 56819.6 14279.7 14279.7 24379.1 28169.4 31360.8 14279.7 10099.4 22642.5 20163.5 22642.5 44863.6 27400.4 52621.3 51234.2 10099.4 10099.4 22642.5 20163.5 27400.4 10099.4 12543 27332.2 24700.1 27332.2 50196 25220.9 53767.4 53917.6 12543 12543 27332.2 24700.1 25220.9 12543 14789.2 14789.2 25495.8 14789.2 25495.8 28546.5 28546.5 49472.6 14789.2 14789.2 14789.2 25495.8 28546.5 14789.2 12479.5 27372.8 58930.8 29049.1 12479.5 27372.8 29049.1 12479.5 12479.5 27372.8 29049.1 12479.5 12479.5 12479.5 29713.8 59761.4 14893.3 29713.8 29881.7 14893.3 29713.8 29881.7 14893.3 14893.3 32343 61066.5 14820.5 32343 29879.7 14820.5 32343 29879.7 14820.5 14820.5 34603.6 59836.9 17522.4 34603.6 31186.8 17522.4 34603.6 31186.8 17522.4 17522.4 34382 59720.8 17081.1 34382 28650.1 17081.1 34382 28650.1 17081.1 17081.1 29978.8 60288.2 17300.9 29978.8 31070.7 17300.9 29978.8 31070.7 17300.9 17300.9 26435.2 53194.3 12677.9 26435.2 29217.5 12677.9 26435.2 29217.5 12677.9 12677.9 13757.3 23976.8 13757.3 13757.3 23976.8 13757.3 13757.3 23976.8 13757.3 13757.3 27491 13664.2 13664.2 27491 13664.2 59049 30233.7 30233.7 13664.2 27491 13664.2 13664.2 30233.7 13664.2 25970.7 13826.8 25970.7 56018.3 28815.3 13826.8 25970.7 13826.8 28815.3 13826.8 25658.2 12143.9 25658.2 54381.7 27203.1 12143.9 25658.2 12143.9 27203.1 12143.9 27404 13514.2 27404 52637.4 27178.6 13514.2 27404 13514.2 27178.6 13514.2 23953.8 13889.8 23953.8 49292.6 25458.8 13889.8 23953.8 13889.8 25458.8 13889.8 22221.2 10064.1 22221.2 52530.5 23833.8 10064.1 22221.2 10064.1 23833.8 10064.1 22863.8 12157.1 22863.8 49622.8 28696.7 12157.1 22863.8 12157.1 28696.7 12157.1 10706.7 10706.7 10706.7 20926.1 20926.1 10706.7 10706.7 10706.7 20926.1 10706.7 31558 16569.5 31558 16569.5 16569.5 31558 16569.5 16569.5 16569.5 16569.5 30047.6 30047.6 14988.5 30047.6 14988.5 14988.5 14988.5 28723.5 28723.5 15059.1 28723.5 15059.1 15059.1 15059.1 25233.4 25233.4 13664.4 25233.4 13664.4 13664.4 13664.4 25338.8 25338.8 11569 25338.8 11569 11569 11569 30309.4 30309.4 13769.8 30309.4 13769.8 13769.8 13769.8 26759.1 26759.1 16539.6 26759.1 16539.6 16539.6 16539.6 10219.5 10219.5 10219.5 10219.5 10219.5 10219.5 10219.5 
CELL_DATA 32
SCALARS stress float 1
LOOKUP_TABLE default
15196.8 16320.2 17497.9 13109.5 14279.7 10099.4 12543 14789.2 12479.5 14893.3 14820.5 17522.4 17081.1 17300.9 12677.9 13757.3 13664.2 13826.8 12143.9 13514.2 13889.8 10064.1 12157.1 10706.7 16569.5 14988.5 15059.1 13664.4 11569 13769.8 16539.6 10219.5 
SCALARS volume float 1
LOOKUP_TABLE default
944.384 945.212 945.227 945.339 945.404 945.452 945.481 945.493 946.556 945.64 945.69 945.617 945.571 945.531 945.504 945.49 944.381 945.211 945.227 945.338 945.403 945.451 945.481 945.491 946.552 945.64 945.69 945.618 945.572 945.532 945.504 945.489 
SCALARS volume_diff float 1
LOOKUP_TABLE default
944.259 945.087 945.102 945.214 945.279 945.327 945.356 945.368 946.431 945.515 945.565 945.492 945.446 945.406 945.379 945.365 944.256 945.086 945.102 945.213 945.278 945.326 945.356 945.366 946.427 945.515 945.565 945.493 945.447 945.406 945.378 945.364 
