# vtk DataFile Version 5.1
vtk output
ASCII

DATASET UNSTRUCTURED_GRID
POINTS 425 float
0 0 1.1
0.5 0 1.1
1 0 1.1
1.5 0 1.1
2 0 1.1
2.5 0 1.1
3 0 1.1
3.5 0 1.1
4 0 1.1
0 0.5 1.1
0.5 0.5 1.1
1 0.5 1.1
1.5 0.5 1.1
2 0.5 1.1
2.5 0.5 1.1
3 0.5 1.1
3.5 0.5 1.1
4 0.5 1.1
0 1 1.1
0.5 1 1.1
1 1 1.1
1.5 1 1.1
2 1 1.1
2.5 1 1.1
3 1 1.1
3.5 1 1.1
4 1 1.1
0 0 1.6
0.5 0 1.6
1 0 1.6
1.5 0 1.6
2 0 1.6
2.5 0 1.6
3 0 1.6
3.5 0 1.6
4 0 1.6
0 0.5 1.6
0.5 0.5 1.6
1 0.5 1.6
1.5 0.5 1.6
2 0.5 1.6
2.5 0.5 1.6
3 0.5 1.6
3.5 0.5 1.6
4 0.5 1.6
0 1 1.6
0.5 1 1.6
1 1 1.6
1.5 1 1.6
2 1 1.6
2.5 1 1.6
3 1 1.6
3.5 1 1.6
4 1 1.6
0 0 2.1
0.5 0 2.1
1 0 2.1
1.5 0 2.1
2 0 2.1
2.5 0 2.1
3 0 2.1
3.5 0 2.1
4 0 2.1
0 0.5 2.1
0.5 0.5 2.1
1 0.5 2.1
1.5 0.5 2.1
2 0.5 2.1
2.5 0.5 2.1
3 0.5 2.1
3.5 0.5 2.1
4 0.5 2.1
0 1 2.1
0.5 1 2.1
1 1 2.1
1.5 1 2.1
2 1 2.1
2.5 1 2.1
3 1 2.1
3.5 1 2.1
4 1 2.1
0 0.25 1.1
0.25 0.5 1.35
0.25 0.25 1.35
0.25 0.25 1.1
0.25 0.5 1.1
0.5 0.5 1.35
0.25 0.25 1.6
0.5 0.25 1.6
0.25 0 1.6
0 0 1.35
0.25 0 1.35
0 0.5 1.35
0 0.25 1.35
0.25 0.5 1.6
0 0.25 1.6
0.5 0 1.35
0.25 0 1.1
0.5 0.25 1.35
0.5 0.25 1.1
0.75 0.5 1.35
0.75 0.25 1.35
0.75 0.25 1.1
0.75 0.5 1.1
1 0.5 1.35
0.75 0.25 1.6
1 0.25 1.6
0.75 0 1.6
0.75 0 1.35
0.75 0.5 1.6
1 0 1.35
0.75 0 1.1
1 0.25 1.35
1 0.25 1.1
1.25 0.5 1.35
1.25 0.25 1.35
1.25 0.25 1.1
1.25 0.5 1.1
1.5 0.5 1.35
1.25 0.25 1.6
1.5 0.25 1.6
1.25 0 1.6
1.25 0 1.35
1.25 0.5 1.6
1.5 0 1.35
1.25 0 1.1
1.5 0.25 1.35
1.5 0.25 1.1
1.75 0.5 1.35
1.75 0.25 1.35
1.75 0.25 1.1
1.75 0.5 1.1
2 0.5 1.35
1.75 0.25 1.6
2 0.25 1.6
1.75 0 1.6
1.75 0 1.35
1.75 0.5 1.6
2 0 1.35
1.75 0 1.1
2 0.25 1.35
2 0.25 1.1
2.25 0.5 1.35
2.25 0.25 1.35
2.25 0.25 1.1
2.25 0.5 1.1
2.5 0.5 1.35
2.25 0.25 1.6
2.5 0.25 1.6
2.25 0 1.6
2.25 0 1.35
2.25 0.5 1.6
2.5 0 1.35
2.25 0 1.1
2.5 0.25 1.35
2.5 0.25 1.1
2.75 0.5 1.35
2.75 0.25 1.35
2.75 0.25 1.1
2.75 0.5 1.1
3 0.5 1.35
2.75 0.25 1.6
3 0.25 1.6
2.75 0 1.6
2.75 0 1.35
2.75 0.5 1.6
3 0 1.35
2.75 0 1.1
3 0.25 1.35
3 0.25 1.1
3.25 0.5 1.35
3.25 0.25 1.35
3.25 0.25 1.1
3.25 0.5 1.1
3.5 0.5 1.35
3.25 0.25 1.6
3.5 0.25 1.6
3.25 0 1.6
3.25 0 1.35
3.25 0.5 1.6
3.5 0 1.35
3.25 0 1.1
3.5 0.25 1.35
3.5 0.25 1.1
3.75 0.5 1.35
3.75 0.25 1.35
3.75 0.25 1.1
3.75 0.5 1.1
4 0.5 1.35
3.75 0.25 1.6
4 0.25 1.6
3.75 0 1.6
3.75 0 1.35
3.75 0.5 1.6
4 0 1.35
3.75 0 1.1
4 0.25 1.35
4 0.25 1.1
0 0.75 1.1
0.25 1 1.35
0.25 0.75 1.35
0.25 0.75 1.1
0.25 1 1.1
0.5 1 1.35
0.25 0.75 1.6
0.5 0.75 1.6
0 1 1.35
0 0.75 1.35
0.25 1 1.6
0 0.75 1.6
0.5 0.75 1.35
0.5 0.75 1.1
0.75 1 1.35
0.75 0.75 1.35
0.75 0.75 1.1
0.75 1 1.1
1 1 1.35
0.75 0.75 1.6
1 0.75 1.6
0.75 1 1.6
1 0.75 1.35
1 0.75 1.1
1.25 1 1.35
1.25 0.75 1.35
1.25 0.75 1.1
1.25 1 1.1
1.5 1 1.35
1.25 0.75 1.6
1.5 0.75 1.6
1.25 1 1.6
1.5 0.75 1.35
1.5 0.75 1.1
1.75 1 1.35
1.75 0.75 1.35
1.75 0.75 1.1
1.75 1 1.1
2 1 1.35
1.75 0.75 1.6
2 0.75 1.6
1.75 1 1.6
2 0.75 1.35
2 0.75 1.1
2.25 1 1.35
2.25 0.75 1.35
2.25 0.75 1.1
2.25 1 1.1
2.5 1 1.35
2.25 0.75 1.6
2.5 0.75 1.6
2.25 1 1.6
2.5 0.75 1.35
2.5 0.75 1.1
2.75 1 1.35
2.75 0.75 1.35
2.75 0.75 1.1
2.75 1 1.1
3 1 1.35
2.75 0.75 1.6
3 0.75 1.6
2.75 1 1.6
3 0.75 1.35
3 0.75 1.1
3.25 1 1.35
3.25 0.75 1.35
3.25 0.75 1.1
3.25 1 1.1
3.5 1 1.35
3.25 0.75 1.6
3.5 0.75 1.6
3.25 1 1.6
3.5 0.75 1.35
3.5 0.75 1.1
3.75 1 1.35
3.75 0.75 1.35
3.75 0.75 1.1
3.75 1 1.1
4 1 1.35
3.75 0.75 1.6
4 0.75 1.6
3.75 1 1.6
4 0.75 1.35
4 0.75 1.1
0.25 0.5 1.85
0.25 0.25 1.85
0.5 0.5 1.85
0.25 0.25 2.1
0.5 0.25 2.1
0.25 0 2.1
0 0 1.85
0.25 0 1.85
0 0.5 1.85
0 0.25 1.85
0.25 0.5 2.1
0 0.25 2.1
0.5 0 1.85
0.5 0.25 1.85
0.75 0.5 1.85
0.75 0.25 1.85
1 0.5 1.85
0.75 0.25 2.1
1 0.25 2.1
0.75 0 2.1
0.75 0 1.85
0.75 0.5 2.1
1 0 1.85
1 0.25 1.85
1.25 0.5 1.85
1.25 0.25 1.85
1.5 0.5 1.85
1.25 0.25 2.1
1.5 0.25 2.1
1.25 0 2.1
1.25 0 1.85
1.25 0.5 2.1
1.5 0 1.85
1.5 0.25 1.85
1.75 0.5 1.85
1.75 0.25 1.85
2 0.5 1.85
1.75 0.25 2.1
2 0.25 2.1
1.75 0 2.1
1.75 0 1.85
1.75 0.5 2.1
2 0 1.85
2 0.25 1.85
2.25 0.5 1.85
2.25 0.25 1.85
2.5 0.5 1.85
2.25 0.25 2.1
2.5 0.25 2.1
2.25 0 2.1
2.25 0 1.85
2.25 0.5 2.1
2.5 0 1.85
2.5 0.25 1.85
2.75 0.5 1.85
2.75 0.25 1.85
3 0.5 1.85
2.75 0.25 2.1
3 0.25 2.1
2.75 0 2.1
2.75 0 1.85
2.75 0.5 2.1
3 0 1.85
3 0.25 1.85
3.25 0.5 1.85
3.25 0.25 1.85
3.5 0.5 1.85
3.25 0.25 2.1
3.5 0.25 2.1
3.25 0 2.1
3.25 0 1.85
3.25 0.5 2.1
3.5 0 1.85
3.5 0.25 1.85
3.75 0.5 1.85
3.75 0.25 1.85
4 0.5 1.85
3.75 0.25 2.1
4 0.25 2.1
3.75 0 2.1
3.75 0 1.85
3.75 0.5 2.1
4 0 1.85
4 0.25 1.85
0.25 1 1.85
0.25 0.75 1.85
0.5 1 1.85
0.25 0.75 2.1
0.5 0.75 2.1
0 1 1.85
0 0.75 1.85
0.25 1 2.1
0 0.75 2.1
0.5 0.75 1.85
0.75 1 1.85
0.75 0.75 1.85
1 1 1.85
0.75 0.75 2.1
1 0.75 2.1
0.75 1 2.1
1 0.75 1.85
1.25 1 1.85
1.25 0.75 1.85
1.5 1 1.85
1.25 0.75 2.1
1.5 0.75 2.1
1.25 1 2.1
1.5 0.75 1.85
1.75 1 1.85
1.75 0.75 1.85
2 1 1.85
1.75 0.75 2.1
2 0.75 2.1
1.75 1 2.1
2 0.75 1.85
2.25 1 1.85
2.25 0.75 1.85
2.5 1 1.85
2.25 0.75 2.1
2.5 0.75 2.1
2.25 1 2.1
2.5 0.75 1.85
2.75 1 1.85
2.75 0.75 1.85
3 1 1.85
2.75 0.75 2.1
3 0.75 2.1
2.75 1 2.1
3 0.75 1.85
3.25 1 1.85
3.25 0.75 1.85
3.5 1 1.85
3.25 0.75 2.1
3.5 0.75 2.1
3.25 1 2.1
3.5 0.75 1.85
3.75 1 1.85
3.75 0.75 1.85
4 1 1.85
3.75 0.75 2.1
4 0.75 2.1
3.75 1 2.1
4 0.75 1.85

CELLS 193 1920
OFFSETS vtktypeint64
0 10 20 30 40 50 60 70 80 90 100 110 120 130 140 150 160 170 180 190 200 210 220 230 240 250 260 270 280 290 300 310 320 330 340 350 360 370 380 390 400 410 420 430 440 450 460 470 480 490 500 510 520 530 540 550 560 570 580 590 600 610 620 630 640 650 660 670 680 690 700 710 720 730 740 750 760 770 780 790 800 810 820 830 840 850 860 870 880 890 900 910 920 930 940 950 960 970 980 990 1000 1010 1020 1030 1040 1050 1060 1070 1080 1090 1100 1110 1120 1130 1140 1150 1160 1170 1180 1190 1200 1210 1220 1230 1240 1250 1260 1270 1280 1290 1300 1310 1320 1330 1340 1350 1360 1370 1380 1390 1400 1410 1420 1430 1440 1450 1460 1470 1480 1490 1500 1510 1520 1530 1540 1550 1560 1570 1580 1590 1600 1610 1620 1630 1640 1650 1660 1670 1680 1690 1700 1710 1720 1730 1740 1750 1760 1770 1780 1790 1800 1810 1820 1830 1840 1850 1860 1870 1880 1890 1900 1910 1920 
CONNECTIVITY vtktypeint64
0 9 37 10 81 82 83 84 85 86 
27 37 28 0 87 88 89 90 83 91 
0 9 36 37 81 92 93 83 82 94 
27 37 0 36 87 83 90 95 94 93 
28 0 37 1 91 83 88 96 97 98 
37 0 10 1 83 84 86 98 97 99 
1 10 38 11 99 100 101 102 103 104 
28 38 29 1 105 106 107 96 101 108 
1 10 37 38 99 86 98 101 100 109 
28 38 1 37 105 101 96 88 109 98 
29 1 38 2 108 101 106 110 111 112 
38 1 11 2 101 102 104 112 111 113 
2 11 39 12 113 114 115 116 117 118 
29 39 30 2 119 120 121 110 115 122 
2 11 38 39 113 104 112 115 114 123 
29 39 2 38 119 115 110 106 123 112 
30 2 39 3 122 115 120 124 125 126 
39 2 12 3 115 116 118 126 125 127 
3 12 40 13 127 128 129 130 131 132 
30 40 31 3 133 134 135 124 129 136 
3 12 39 40 127 118 126 129 128 137 
30 40 3 39 133 129 124 120 137 126 
31 3 40 4 136 129 134 138 139 140 
40 3 13 4 129 130 132 140 139 141 
4 13 41 14 141 142 143 144 145 146 
31 41 32 4 147 148 149 138 143 150 
4 13 40 41 141 132 140 143 142 151 
31 41 4 40 147 143 138 134 151 140 
32 4 41 5 150 143 148 152 153 154 
41 4 14 5 143 144 146 154 153 155 
5 14 42 15 155 156 157 158 159 160 
32 42 33 5 161 162 163 152 157 164 
5 14 41 42 155 146 154 157 156 165 
32 42 5 41 161 157 152 148 165 154 
33 5 42 6 164 157 162 166 167 168 
42 5 15 6 157 158 160 168 167 169 
6 15 43 16 169 170 171 172 173 174 
33 43 34 6 175 176 177 166 171 178 
6 15 42 43 169 160 168 171 170 179 
33 43 6 42 175 171 166 162 179 168 
34 6 43 7 178 171 176 180 181 182 
43 6 16 7 171 172 174 182 181 183 
7 16 44 17 183 184 185 186 187 188 
34 44 35 7 189 190 191 180 185 192 
7 16 43 44 183 174 182 185 184 193 
34 44 7 43 189 185 180 176 193 182 
35 7 44 8 192 185 190 194 195 196 
44 7 17 8 185 186 188 196 195 197 
9 18 46 19 198 199 200 201 202 203 
36 46 37 9 204 205 94 92 200 82 
9 18 45 46 198 206 207 200 199 208 
36 46 9 45 204 200 92 209 208 207 
37 9 46 10 82 200 205 86 85 210 
46 9 19 10 200 201 203 210 85 211 
10 19 47 20 211 212 213 214 215 216 
37 47 38 10 217 218 109 86 213 100 
10 19 46 47 211 203 210 213 212 219 
37 47 10 46 217 213 86 205 219 210 
38 10 47 11 100 213 218 104 103 220 
47 10 20 11 213 214 216 220 103 221 
11 20 48 21 221 222 223 224 225 226 
38 48 39 11 227 228 123 104 223 114 
11 20 47 48 221 216 220 223 222 229 
38 48 11 47 227 223 104 218 229 220 
39 11 48 12 114 223 228 118 117 230 
48 11 21 12 223 224 226 230 117 231 
12 21 49 22 231 232 233 234 235 236 
39 49 40 12 237 238 137 118 233 128 
12 21 48 49 231 226 230 233 232 239 
39 49 12 48 237 233 118 228 239 230 
40 12 49 13 128 233 238 132 131 240 
49 12 22 13 233 234 236 240 131 241 
13 22 50 23 241 242 243 244 245 246 
40 50 41 13 247 248 151 132 243 142 
13 22 49 50 241 236 240 243 242 249 
40 50 13 49 247 243 132 238 249 240 
41 13 50 14 142 243 248 146 145 250 
50 13 23 14 243 244 246 250 145 251 
14 23 51 24 251 252 253 254 255 256 
41 51 42 14 257 258 165 146 253 156 
14 23 50 51 251 246 250 253 252 259 
41 51 14 50 257 253 146 248 259 250 
42 14 51 15 156 253 258 160 159 260 
51 14 24 15 253 254 256 260 159 261 
15 24 52 25 261 262 263 264 265 266 
42 52 43 15 267 268 179 160 263 170 
15 24 51 52 261 256 260 263 262 269 
42 52 15 51 267 263 160 258 269 260 
43 15 52 16 170 263 268 174 173 270 
52 15 25 16 263 264 266 270 173 271 
16 25 53 26 271 272 273 274 275 276 
43 53 44 16 277 278 193 174 273 184 
16 25 52 53 271 266 270 273 272 279 
43 53 16 52 277 273 174 268 279 270 
44 16 53 17 184 273 278 188 187 280 
53 16 26 17 273 274 276 280 187 281 
27 36 64 37 95 282 283 87 94 284 
54 64 55 27 285 286 287 288 283 289 
27 36 63 64 95 290 291 283 282 292 
54 64 27 63 285 283 288 293 292 291 
55 27 64 28 289 283 286 294 89 295 
64 27 37 28 283 87 284 295 89 88 
28 37 65 38 88 296 297 105 109 298 
55 65 56 28 299 300 301 294 297 302 
28 37 64 65 88 284 295 297 296 303 
55 65 28 64 299 297 294 286 303 295 
56 28 65 29 302 297 300 304 107 305 
65 28 38 29 297 105 298 305 107 106 
29 38 66 39 106 306 307 119 123 308 
56 66 57 29 309 310 311 304 307 312 
29 38 65 66 106 298 305 307 306 313 
56 66 29 65 309 307 304 300 313 305 
57 29 66 30 312 307 310 314 121 315 
66 29 39 30 307 119 308 315 121 120 
30 39 67 40 120 316 317 133 137 318 
57 67 58 30 319 320 321 314 317 322 
30 39 66 67 120 308 315 317 316 323 
57 67 30 66 319 317 314 310 323 315 
58 30 67 31 322 317 320 324 135 325 
67 30 40 31 317 133 318 325 135 134 
31 40 68 41 134 326 327 147 151 328 
58 68 59 31 329 330 331 324 327 332 
31 40 67 68 134 318 325 327 326 333 
58 68 31 67 329 327 324 320 333 325 
59 31 68 32 332 327 330 334 149 335 
68 31 41 32 327 147 328 335 149 148 
32 41 69 42 148 336 337 161 165 338 
59 69 60 32 339 340 341 334 337 342 
32 41 68 69 148 328 335 337 336 343 
59 69 32 68 339 337 334 330 343 335 
60 32 69 33 342 337 340 344 163 345 
69 32 42 33 337 161 338 345 163 162 
33 42 70 43 162 346 347 175 179 348 
60 70 61 33 349 350 351 344 347 352 
33 42 69 70 162 338 345 347 346 353 
60 70 33 69 349 347 344 340 353 345 
61 33 70 34 352 347 350 354 177 355 
70 33 43 34 347 175 348 355 177 176 
34 43 71 44 176 356 357 189 193 358 
61 71 62 34 359 360 361 354 357 362 
34 43 70 71 176 348 355 357 356 363 
61 71 34 70 359 357 354 350 363 355 
62 34 71 35 362 357 360 364 191 365 
71 34 44 35 357 189 358 365 191 190 
36 45 73 46 209 366 367 204 208 368 
63 73 64 36 369 370 292 290 367 282 
36 45 72 73 209 371 372 367 366 373 
63 73 36 72 369 367 290 374 373 372 
64 36 73 37 282 367 370 284 94 375 
73 36 46 37 367 204 368 375 94 205 
37 46 74 47 205 376 377 217 219 378 
64 74 65 37 379 380 303 284 377 296 
37 46 73 74 205 368 375 377 376 381 
64 74 37 73 379 377 284 370 381 375 
65 37 74 38 296 377 380 298 109 382 
74 37 47 38 377 217 378 382 109 218 
38 47 75 48 218 383 384 227 229 385 
65 75 66 38 386 387 313 298 384 306 
38 47 74 75 218 378 382 384 383 388 
65 75 38 74 386 384 298 380 388 382 
66 38 75 39 306 384 387 308 123 389 
75 38 48 39 384 227 385 389 123 228 
39 48 76 49 228 390 391 237 239 392 
66 76 67 39 393 394 323 308 391 316 
39 48 75 76 228 385 389 391 390 395 
66 76 39 75 393 391 308 387 395 389 
67 39 76 40 316 391 394 318 137 396 
76 39 49 40 391 237 392 396 137 238 
40 49 77 50 238 397 398 247 249 399 
67 77 68 40 400 401 333 318 398 326 
40 49 76 77 238 392 396 398 397 402 
67 77 40 76 400 398 318 394 402 396 
68 40 77 41 326 398 401 328 151 403 
77 40 50 41 398 247 399 403 151 248 
41 50 78 51 248 404 405 257 259 406 
68 78 69 41 407 408 343 328 405 336 
41 50 77 78 248 399 403 405 404 409 
68 78 41 77 407 405 328 401 409 403 
69 41 78 42 336 405 408 338 165 410 
78 41 51 42 405 257 406 410 165 258 
42 51 79 52 258 411 412 267 269 413 
69 79 70 42 414 415 353 338 412 346 
42 51 78 79 258 406 410 412 411 416 
69 79 42 78 414 412 338 408 416 410 
70 42 79 43 346 412 415 348 179 417 
79 42 52 43 412 267 413 417 179 268 
43 52 80 53 268 418 419 277 279 420 
70 80 71 43 421 422 363 348 419 356 
43 52 79 80 268 413 417 419 418 423 
70 80 43 79 421 419 348 415 423 417 
71 43 80 44 356 419 422 358 193 424 
80 43 53 44 419 277 420 424 193 278 
CELL_TYPES 192
24 24 24 24 24 24 24 24 24 24 24 24 24 24 24 24 24 24 24 24 24 24 24 24 24 24 24 24 24 24 24 24 24 24 24 24 24 24 24 24 24 24 24 24 24 24 24 24 24 24 24 24 24 24 24 24 24 24 24 24 24 24 24 24 24 24 24 24 24 24 24 24 24 24 24 24 24 24 24 24 24 24 24 24 24 24 24 24 24 24 24 24 24 24 24 24 24 24 24 24 24 24 24 24 24 24 24 24 24 24 24 24 24 24 24 24 24 24 24 24 24 24 24 24 24 24 24 24 24 24 24 24 24 24 24 24 24 24 24 24 24 24 24 24 24 24 24 24 24 24 24 24 24 24 24 24 24 24 24 24 24 24 24 24 24 24 24 24 24 24 24 24 24 24 24 24 24 24 24 24 24 24 24 24 24 24 24 24 24 24 24 24 

POINT_DATA 425
SCALARS weights float 1
LOOKUP_TABLE default
12.5 16.6667 16.6667 16.6667 16.6667 16.6667 16.6667 16.6667 4.16666 16.6667 25 25 25 25 25 25 25 8.33333 4.16667 8.33333 8.33333 8.33333 8.33333 8.33333 8.33333 8.33333 4.16667 16.6667 25 25 25 25 25 25 25 8.33333 25 50 50 50 50 50 50 50 25 8.33333 25 25 25 25 25 25 25 16.6667 4.16667 8.33333 8.33333 8.33333 8.33333 8.33334 8.33333 8.33333 4.16666 8.33333 25 25 25 25 25 25 25 16.6667 4.16667 16.6667 16.6667 16.6667 16.6667 16.6667 16.6667 16.6667 12.5 4.16667 8.33333 12.5 4.16667 6.25 12.5 8.33333 12.5 6.25 4.16667 4.16667 6.25 4.16667 12.5 6.25 6.25 4.16667 8.33333 6.25 8.33333 12.5 4.16667 6.25 12.5 8.33333 12.5 6.25 4.16667 12.5 6.25 4.16667 8.33333 6.25 8.33334 12.5 4.16667 6.25 12.5 8.33333 12.5 6.25 4.16667 12.5 6.25 4.16667 8.33333 6.25 8.33333 12.5 4.16667 6.25 12.5 8.33333 12.5 6.25 4.16667 12.5 6.25 4.16667 8.33333 6.25 8.33333 12.5 4.16667 6.25 12.5 8.33333 12.5 6.25 4.16667 12.5 6.25 4.16666 8.33333 6.25 8.33334 12.5 4.16667 6.25 12.5 8.33334 12.5 6.25 4.16667 12.5 6.25 4.16667 8.33333 6.25 8.33333 12.5 4.16667 6.25 12.5 8.33333 12.5 6.25 4.16667 12.5 6.25 4.16667 8.33333 6.25 8.33333 12.5 4.16667 6.25 6.25 8.33333 6.25 6.25 4.16667 12.5 2.08333 4.16666 4.16666 2.08333 4.16667 4.16667 12.5 4.16667 2.08333 6.25 8.33333 12.5 2.08333 4.16667 6.25 6.25 8.33334 6.25 4.16667 12.5 4.16667 2.08333 6.25 8.33333 12.5 6.25 8.33333 6.25 4.16667 12.5 4.16667 2.08333 6.25 8.33333 12.5 6.25 8.33333 6.25 4.16667 12.5 4.16667 2.08333 6.25 8.33333 12.5 6.25 8.33333 6.25 4.16667 12.5 4.16667 2.08333 6.25 8.33333 12.5 6.25 8.33333 6.25 4.16667 12.5 4.16667 2.08333 6.25 8.33334 12.5 6.25 8.33333 6.25 4.16667 12.5 4.16667 2.08333 6.25 8.33333 12.5 6.25 8.33333 6.25 4.16667 12.5 4.16667 2.08333 4.16667 8.33333 6.25 6.25 4.16667 2.08333 8.33333 12.5 12.5 4.16667 6.25 2.08333 4.16667 4.16667 6.25 4.16667 6.25 2.08333 6.25 8.33333 8.33333 12.5 12.5 4.16667 6.25 2.08333 4.16667 6.25 6.25 8.33333 8.33333 12.5 12.5 4.16667 6.25 2.08333 4.16667 6.25 6.25 8.33333 8.33333 12.5 12.5 4.16667 6.25 2.08333 4.16667 6.25 6.25 8.33333 8.33333 12.5 12.5 4.16667 6.25 2.08333 4.16667 6.25 6.25 8.33333 8.33333 12.5 12.5 4.16667 6.25 2.08333 4.16667 6.25 6.25 8.33333 8.33333 12.5 12.5 4.16667 6.25 2.08333 4.16667 6.25 6.25 8.33333 8.33333 12.5 6.25 4.16666 4.16666 2.08333 4.16666 6.25 2.08333 4.16667 4.16667 12.5 6.25 4.16667 6.25 2.08333 4.16667 4.16667 2.08333 8.33333 4.16667 12.5 6.25 4.16667 6.25 4.16667 8.33333 4.16667 12.5 6.25 4.16667 6.25 4.16667 8.33333 4.16667 12.5 6.25 4.16667 6.25 4.16667 8.33333 4.16667 12.5 6.25 4.16667 6.25 4.16667 8.33333 4.16667 12.5 6.25 4.16667 6.25 4.16667 8.33333 4.16666 12.5 6.25 4.16667 6.25 4.16667 8.33333 4.16667 12.5 4.16667 4.16666 4.16667 4.16666 4.16667 
VECTORS u float
0 0 0  -0.0195764 -0.0141869 -0.00936902  -0.0353339 -0.0475626 -0.00454938  -0.0492113 -0.0969137 0.0020746  -0.0608584 -0.156811 0.00898385  -0.070339 -0.223348 0.0158422  -0.0779297 -0.293327 0.0224001  -0.0840559 -0.364513 0.0285515  -0.0893102 -0.435213 0.0343373  0 0 0  0.0023877 -0.0103926 0.00203681  0.00359476 -0.0460822 0.00444734  0.00260997 -0.0974528 0.00855482  -0.000138283 -0.1591 0.0134403  -0.00414276 -0.226886 0.0187585  -0.00887156 -0.297687 0.0242606  -0.0139663 -0.369225 0.029793  -0.0190887 -0.440098 0.0352578  0 0 0  0.0218272 -0.0168903 0.0116495  0.0407182 -0.0527899 0.0127822  0.0531585 -0.103947 0.014698  0.05971 -0.16533 0.0177442  0.0614853 -0.232839 0.0216464  0.0598128 -0.30324 0.0261481  0.0559852 -0.374409 0.0311084  0.051209 -0.445308 0.0362748  0 0 0  -0.0199596 -0.0206602 0.000173092  -0.0387232 -0.0526771 0.00300181  -0.0542266 -0.100257 0.00717914  -0.0666081 -0.158896 0.0121044  -0.0763516 -0.224527 0.0174861  -0.0839424 -0.293933 0.0230297  -0.0899947 -0.364805 0.0286226  -0.0952215 -0.435588 0.0341575  0 0 0  0.000110507 -0.0147677 0.000743628  -0.000324011 -0.0500934 0.00403392  -0.00228512 -0.100443 0.00818872  -0.00555611 -0.161109 0.0131042  -0.00978589 -0.228138 0.0184855  -0.014581 -0.298402 0.0240771  -0.0196314 -0.369657 0.0296929  -0.0246942 -0.440568 0.0352272  0 0 0  0.0188426 -0.0208079 0.00117767  0.0373601 -0.0563095 0.00427926  0.0490022 -0.1066 0.00872493  0.0549335 -0.167183 0.0138274  0.0563419 -0.234035 0.0193822  0.054496 -0.304004 0.0250958  0.0506523 -0.374946 0.0308079  0.0459528 -0.445908 0.0363252  0 0 0  -0.0207881 -0.0163578 0.0109076  -0.0408598 -0.0495912 0.0115793  -0.0577731 -0.0981993 0.0128994  -0.0711493 -0.157634 0.0156102  -0.0814857 -0.223914 0.0193522  -0.0894241 -0.293789 0.0237904  -0.0956202 -0.364976 0.0287454  -0.100857 -0.435983 0.0340223  0 0 0  -0.0023528 -0.0109201 0.00162888  -0.00358135 -0.0462658 0.00426769  -0.00640011 -0.0978023 0.00817847  -0.010403 -0.159522 0.0130119  -0.0151196 -0.227343 0.0183718  -0.0201595 -0.298175 0.0239639  -0.0252845 -0.369823 0.029608  -0.030339 -0.44097 0.0352008  0 0 0  0.0176252 -0.0151427 -0.00869179  0.0341197 -0.0518267 -0.00381351  0.0445892 -0.103573 0.00293207  0.0498207 -0.165304 0.0100725  0.050838 -0.233097 0.0172331  0.0488551 -0.303784 0.0240963  0.0450153 -0.375195 0.0305028  0.0403376 -0.446355 0.0363796  0 0 0  0.000314415 -0.0036712 8.47578e-05  -0.000780731 -0.0037978 -0.000640869  -0.00267984 -0.00170624 -0.00328231  0.00119671 -0.00185716 0.000914097  0.000968575 -0.0136132 0.00118124  -0.0011187 -0.00423212 0.000386715  -0.00719821 -0.0163231 0.000682831  -0.00934659 -0.00950929 7.20024e-05  0 0 0  -0.00852661 -0.00859317 -0.00256336  0 0 0  0 0 0  0.000348181 -0.00427935 0.000211835  0 0 0  -0.0189462 -0.0186625 -0.00454986  -0.00983514 -0.00469463 -0.00662732  -0.00646639 -0.0149584 -0.00188673  -0.00674844 -0.0109229 -0.00386906  0.00153285 -0.0293104 0.00268722  -0.0117999 -0.0297781 -0.000394702  -0.010709 -0.0263225 -0.00185025  0.00314361 -0.026061 0.003057  0.00158858 -0.0490279 0.00411594  -0.0129728 -0.0313353 0.00196719  -0.0181444 -0.0504714 0.00361419  -0.0295249 -0.0342426 0.00143337  -0.0284538 -0.0324381 -0.00307143  -0.000195682 -0.0304709 0.00228322  -0.0368705 -0.0510134 -0.000807762  -0.0274551 -0.0286916 -0.00662327  -0.016372 -0.0491961 0.00165379  -0.0147191 -0.0459839 -2.87294e-05  0.000948906 -0.0728666 0.00609934  -0.0208991 -0.0724586 0.00378525  -0.0184937 -0.0698005 0.00253487  0.00320697 -0.0703218 0.00637114  9.70364e-05 -0.0995747 0.00830221  -0.0230039 -0.073659 0.00550044  -0.0274369 -0.0997193 0.00773382  -0.0468447 -0.0750374 0.00496924  -0.0449443 -0.0737167 0.00162423  -0.00129414 -0.0737852 0.00595009  -0.0518421 -0.0991366 0.00461507  -0.0425401 -0.0709792 -0.00110531  -0.0250703 -0.0988144 0.00644326  -0.0225297 -0.096641 0.00532174  -0.00133896 -0.129084 0.0106422  -0.0290892 -0.127945 0.00896823  -0.026171 -0.126145 0.00807858  0.001297 -0.127351 0.0108426  -0.00292826 -0.160459 0.0132384  -0.0316201 -0.128742 0.0100932  -0.035547 -0.159607 0.0126362  -0.0607785 -0.128784 0.00958014  -0.058375 -0.127897 0.00739074  -0.00383937 -0.129745 0.0105386  -0.0639361 -0.158147 0.0105416  -0.0553757 -0.126143 0.00550592  -0.0328982 -0.158977 0.0118748  -0.0300024 -0.15763 0.0112077  -0.00494051 -0.193557 0.0158266  -0.0364971 -0.191822 0.0146044  -0.0334136 -0.190722 0.0140649  -0.00212502 -0.192486 0.0159574  -0.00703621 -0.227668 0.0186087  -0.0392339 -0.192346 0.0152782  -0.0427198 -0.226106 0.018001  -0.0717742 -0.19131 0.0147659  -0.0691037 -0.190731 0.0134865  -0.00759959 -0.19402 0.0157424  -0.0735345 -0.224035 0.0166748  -0.065906 -0.18973 0.0123481  -0.0399332 -0.225684 0.0176141  -0.0369279 -0.224939 0.017289  -0.00939775 -0.262667 0.0213307  -0.0431609 -0.260541 0.0204381  -0.0400846 -0.259942 0.020164  -0.00650883 -0.262081 0.021419  -0.0117838 -0.298053 0.0241692  -0.0459816 -0.260879 0.0207775  -0.0490594 -0.296062 0.0235612  -0.0803549 -0.25908 0.0202643  -0.0775652 -0.25871 0.0196388  -0.0121379 -0.262989 0.0212624  -0.0810897 -0.29361 0.0227224  -0.0743682 -0.25822 0.0190665  -0.0462344 -0.295762 0.0234246  -0.0432377 -0.295422 0.0233203  -0.0143049 -0.333714 0.0269389  -0.0491335 -0.331377 0.0262444  -0.0461252 -0.331101 0.026158  -0.0114164 -0.333432 0.0269841  -0.016839 -0.369366 0.0297496  -0.0519621 -0.331604 0.026368  -0.0547285 -0.367196 0.0291617  -0.0870848 -0.329353 0.0258383  -0.0842502 -0.329109 0.025641  -0.0170798 -0.333958 0.0268854  -0.0871356 -0.364562 0.0285983  -0.0811217 -0.328927 0.0254544  -0.0519102 -0.366958 0.0291475  -0.0489659 -0.366842 0.0291587  -0.0194049 -0.404896 0.0324951  -0.0545509 -0.402456 0.0319355  -0.0516226 -0.402311 0.0319395  -0.0165565 -0.404745 0.0325068  -0.0219207 -0.440236 0.0352511  -0.0573556 -0.402663 0.031942  -0.0598958 -0.438049 0.0347109  -0.0926328 -0.400213 0.0313932  -0.0897748 -0.399988 0.031407  -0.0221691 -0.405131 0.032467  -0.0923388 -0.435299 0.0342585  -0.0867188 -0.399914 0.0314105  -0.0570903 -0.437748 0.0347583  -0.0541778 -0.437615 0.0348127  0 0 0  0.00562596 -0.0109155 0.0032016  0.0044086 -0.00521481 0.00280964  0.00528738 -0.00393236 0.00539768  0.0103135 -0.00718009 0.0103977  0.0197932 -0.0200203 0.00620282  0.00422558 -0.00605381 0.000364304  0.00951082 -0.016445 0.0011065  0 0 0  0 0 0  0.0054138 -0.0117192 3.38554e-05  0 0 0  0.010314 -0.0154854 0.00384355  0.0116253 -0.012336 0.00700176  0.0302816 -0.0353444 0.00722218  0.0155432 -0.0312292 0.00493801  0.0169063 -0.027993 0.00753593  0.0320386 -0.0321831 0.0119224  0.0389923 -0.0553796 0.00850523  0.0141988 -0.0320015 0.00247836  0.0180017 -0.0522826 0.00433028  0.0288249 -0.0359885 0.00250745  0.0196904 -0.0513313 0.00642967  0.0212438 -0.0485085 0.00877559  0.0459652 -0.0786431 0.00991654  0.0228726 -0.0748961 0.00793183  0.0248748 -0.0722536 0.0098778  0.0477053 -0.0762261 0.013379  0.0510932 -0.105911 0.0116541  0.020878 -0.0756943 0.00619638  0.0228626 -0.102809 0.0085237  0.0440373 -0.0792437 0.00633073  0.0249918 -0.102036 0.0100545  0.0270455 -0.100015 0.0116901  0.0550351 -0.13477 0.013599  0.0262748 -0.131318 0.0120523  0.0287132 -0.129446 0.0133976  0.0570941 -0.133104 0.0159595  0.0573356 -0.166663 0.0157442  0.0239233 -0.131942 0.0108783  0.0242558 -0.163624 0.013492  0.0527614 -0.135258 0.0111594  0.0266769 -0.163056 0.0145258  0.0290694 -0.161739 0.0156146  0.0587857 -0.19913 0.0180634  0.0264235 -0.195958 0.0168831  0.0290942 -0.19473 0.0177398  0.061106 -0.198069 0.0194975  0.0589168 -0.233636 0.0204889  0.0238512 -0.196409 0.0161666  0.0229082 -0.230743 0.0189432  0.0563018 -0.199509 0.0165585  0.0255077 -0.230329 0.0195606  0.0281034 -0.229565 0.0202029  0.0585184 -0.26806 0.0230309  0.0241492 -0.26515 0.0221242  0.0269332 -0.264421 0.0226034  0.0610037 -0.267456 0.0237528  0.0571527 -0.303674 0.0256131  0.0214603 -0.265468 0.0217479  0.0196598 -0.301 0.0245811  0.0559134 -0.268349 0.0222279  0.022352 -0.300686 0.0248853  0.0250509 -0.300294 0.0252059  0.0555277 -0.338889 0.0282898  0.0202951 -0.336212 0.0275646  0.0230975 -0.335799 0.02779  0.0580993 -0.338564 0.0285375  0.0533061 -0.374629 0.0309616  0.0175633 -0.336453 0.027422  0.0152762 -0.372182 0.0302408  0.052886 -0.339151 0.0279619  0.0179982 -0.371903 0.0303414  0.0207338 -0.371712 0.0304551  0.0510623 -0.409994 0.0336736  0.0155973 -0.407415 0.0330284  0.0183527 -0.407158 0.0330955  0.0536726 -0.409778 0.0336784  0.0485644 -0.445504 0.0363123  0.0128677 -0.40765 0.0330153  0.0104513 -0.443144 0.0357524  0.0484369 -0.410287 0.0335947  0.0131655 -0.442807 0.0357326  0.0158777 -0.442625 0.0357239  -0.000228718 -0.00387084 0.000131369  -0.00141691 -0.00425866 0.00151861  -0.000618219 -0.013663 0.00133014  -0.00141206 -0.00178713 0.00371504  -0.00931343 -0.0125941 0.00649524  -0.0098847 -0.00766384 0.00665259  0 0 0  -0.0092594 -0.00933264 0.00340497  0 0 0  0 0 0  -0.000377849 -0.00191596 0.0010736  0 0 0  -0.0197505 -0.0199251 0.00551045  -0.00753906 -0.0157339 0.00345707  -0.00134307 -0.0293886 0.00244927  -0.0138432 -0.0304042 0.00441086  -0.00188339 -0.0490887 0.00404668  -0.0150889 -0.0273702 0.00686812  -0.020613 -0.0470353 0.00796127  -0.0309363 -0.0303876 0.010884  -0.0301025 -0.0336132 0.0059185  -0.00332552 -0.0264906 0.00239897  -0.0397019 -0.0519901 0.00723565  -0.0193709 -0.0496343 0.00570631  -0.00299811 -0.072984 0.0060215  -0.0246216 -0.0729599 0.00734627  -0.00435781 -0.0997649 0.00808775  -0.0261768 -0.0708053 0.00926352  -0.0309474 -0.0973015 0.0106263  -0.0496644 -0.0723794 0.0120025  -0.048413 -0.074509 0.00831914  -0.00504577 -0.0705408 0.00599647  -0.0561171 -0.0997813 0.0100046  -0.0293369 -0.0991216 0.00910366  -0.00600743 -0.129229 0.0105618  -0.033811 -0.128323 0.0112872  -0.00799632 -0.160696 0.0130032  -0.0358 -0.126923 0.0125747  -0.039952 -0.15812 0.0144  -0.0648055 -0.127084 0.014189  -0.0630038 -0.128396 0.011791  -0.00829256 -0.127587 0.0105541  -0.0690254 -0.15858 0.0138412  -0.0378932 -0.159233 0.0134633  -0.0101132 -0.193727 0.0157329  -0.0417731 -0.19213 0.0159776  -0.0124633 -0.227916 0.0184066  -0.044111 -0.191337 0.0167606  -0.0477219 -0.225364 0.0189238  -0.0766029 -0.190354 0.0174689  -0.0743649 -0.191068 0.0160735  -0.0126455 -0.19278 0.0157166  -0.0790434 -0.224355 0.0184159  -0.0453315 -0.225911 0.0184313  -0.0148559 -0.26287 0.0212406  -0.0487099 -0.260803 0.0211114  -0.0173771 -0.298321 0.0240146  -0.0512743 -0.260461 0.0215213  -0.0544262 -0.295857 0.0239263  -0.0856731 -0.258688 0.0215824  -0.0831409 -0.258958 0.0209061  -0.0175643 -0.262449 0.0212047  -0.0867703 -0.293871 0.0234165  -0.0518184 -0.296 0.0237271  -0.0198894 -0.333979 0.026863  -0.0547788 -0.331644 0.0264758  -0.0224574 -0.36969 0.0296568  -0.0574746 -0.331614 0.0266402  -0.0602636 -0.367355 0.0292096  -0.0926633 -0.329368 0.0262601  -0.0899556 -0.329344 0.0260539  -0.0226886 -0.333925 0.0268147  -0.0928702 -0.364826 0.0286967  -0.0575452 -0.36724 0.0291754  -0.0249915 -0.40526 0.0324619  -0.0601962 -0.402798 0.0319355  -0.0275249 -0.440692 0.0352149  -0.0629404 -0.402954 0.0319564  -0.0654957 -0.438461 0.0346329  -0.0982838 -0.400495 0.0313857  -0.0955124 -0.400303 0.0314021  -0.027808 -0.405414 0.0324261  -0.0980716 -0.435697 0.03411  -0.062742 -0.438179 0.0346739  0.00532854 -0.0100935 -0.00316286  0.00407624 -0.00499755 -0.00176466  0.0180596 -0.0189703 -0.00379026  0.00418758 -0.00300348 -0.00414634  0.00794649 -0.0118799 -0.00359392  0 0 0  0 0 0  0.00483516 -0.00848573 -0.00653362  0 0 0  0.00884759 -0.0151019 -0.00128865  0.0276917 -0.0347046 -0.00194073  0.0128366 -0.0309415 0.000309467  0.0357649 -0.0550464 0.000161171  0.0115056 -0.0276291 -0.00158548  0.0147538 -0.0481894 0.000217199  0.0264403 -0.0309094 -0.00649333  0.016299 -0.0511715 0.00217998  0.0422738 -0.0783095 0.00297368  0.019004 -0.0748314 0.00466311  0.0468676 -0.105781 0.0057255  0.0169207 -0.0722835 0.00312614  0.0186148 -0.099906 0.00561023  0.0402372 -0.075436 -0.000426054  0.020697 -0.102017 0.00697339  0.0505818 -0.134649 0.00887823  0.0216308 -0.131402 0.00982833  0.052465 -0.166673 0.0118771  0.0190978 -0.129697 0.00872993  0.0193028 -0.161788 0.0116048  0.0480391 -0.132744 0.00652003  0.0217793 -0.163112 0.0124841  0.0538151 -0.19917 0.0151588  0.0212629 -0.196128 0.015511  0.0536635 -0.233781 0.0182678  0.0184519 -0.195136 0.014806  0.0175111 -0.229781 0.0178528  0.0510163 -0.198051 0.0136764  0.0202303 -0.230472 0.0183558  0.0532422 -0.268246 0.0215008  0.0187149 -0.265398 0.0213941  0.0517213 -0.303949 0.0245767  0.0157855 -0.264942 0.0210042  0.0140622 -0.300702 0.0240624  0.0503559 -0.267737 0.0206945  0.0168869 -0.300916 0.0242925  0.0501313 -0.339194 0.0276761  0.0147607 -0.336529 0.02727  0.0478494 -0.375026 0.030656  0.0118272 -0.336455 0.0270939  0.00963497 -0.37235 0.0300655  0.0472648 -0.339129 0.0273275  0.0124807 -0.372248 0.0301347  0.0456393 -0.410431 0.0335555  0.0100646 -0.407825 0.0329834  0.0431371 -0.446029 0.0363562  0.0071907 -0.407971 0.0329666  0.00481653 -0.443546 0.0358083  0.0428336 -0.410627 0.0334821  0.00764084 -0.443284 0.0357612  
SCALARS smooth_stress float 1
LOOKUP_TABLE default
11692.6 17693.3 13522.2 10116.7 7019.78 4427.12 2425.25 956.887 125.646 18994.6 26587.4 21479.2 16055.7 11232.8 7265.6 4141.8 1937.39 409.508 7797.01 15158.7 11860.2 8576.53 5724.47 3444.24 1770.72 746.196 196.648 18053.9 31298.7 23854.7 17044.7 11369.5 6915.46 3620.57 1385.3 200.879 25050.4 50055.4 42460.4 31423.7 22071.4 14455.4 8483.44 4118.33 1046 13352.6 38074.4 32606.7 23781.1 16260.4 10158.2 5602.36 2587.82 813.37 5129.48 11675 9173.5 6615.87 4409.25 2684.38 1424.34 562.586 106.953 7539.51 25121.7 23615.6 17481.6 12197.8 8008.3 4771.67 2334.31 696.385 6312.73 21378.8 19482.2 14688.6 10274.9 6630.24 3816.93 1838.37 646.078 1284.62 5235.7 11692.6 3306.37 4642.87 11399.3 8634.95 15188.1 9545.16 4261.05 6424.19 6554.69 1962.08 8764.42 3379.23 7657.29 6146.98 9542.01 5391.72 6409.8 11546.4 3295.26 4833.14 9590.72 8426.82 11333 7952.2 4856.07 10213.2 5589.03 4644.33 7161.71 4270.64 5031.9 8877.83 2736.2 3884.76 7369.31 6092.43 8281.3 5858.27 3624.25 7665.13 4068.09 3662.49 5516 3423.89 3826.76 6454.25 2096.58 2964.72 5333.94 4221.37 5731.05 3980.24 2504.17 5622.89 2755.42 2624.76 3952.2 2559.81 2762.49 4395.02 1478.73 2138.79 3591.75 2771.95 3671.42 2470.77 1588.85 3968.51 1679.14 1704.54 2603.16 1769.29 1876.39 2722.58 953.767 1442.83 2175.03 1652.37 2068.95 1334.32 870.191 2614.28 895.209 978.692 1501.54 1061.55 1085.21 1446.55 527.405 841.216 1106.58 838.208 881.455 573.353 396.306 1484.22 347.674 468.49 673.55 483.567 448.042 488.397 171.897 339.286 289.784 265.506 158.598 145.455 111.439 597.62 55.4239 125.646 125.646 70.2225 7797.01 7797.01 17710 7085.62 4803.73 11302.2 11798.3 16260.6 2993.28 6673.26 10511.6 10359.4 10982.3 10355 8073.07 16552.8 5888.89 3856.47 9005.38 10242.3 12907.3 10694 8727.84 8003.75 5971.33 12375.5 4424.23 2854.84 6612.09 7546.15 9387.47 7781.57 6383.33 5721.69 4152.3 8747.06 3109.43 1964.44 4511.24 5256.91 6391.75 5357.42 4371.43 3760.03 2615.04 5708.23 2002.26 1213.22 2799.07 3396.49 3977.98 3381.16 2755.84 2231.02 1441.99 3357.52 1154.64 645.171 1516.05 1964.39 2215.97 1870.34 1557 1125.55 616.089 1637.42 545.828 254.675 669.272 945.828 1089.99 828.561 765.29 491.522 200.368 612.603 196.648 76.9244 196.648 375.392 317.696 299.026 237.611 119.724 4977.24 13792.8 11889 5129.48 9164.91 3516.58 5129.48 7045.52 5926.61 2373.41 4067.79 1612.9 8158.41 10798.5 6867.2 14096.3 10341.6 4629.47 7340.77 2510.08 5649.24 5933.29 6663.41 8753.63 5146.95 10313.5 7535.51 3524.25 5374.3 1832.73 4152.55 4571.8 4783.14 6393.47 3766.64 7118.32 5256.84 2463.32 3634.59 1241.57 2805.59 3306.36 3167.68 4366.41 2696.85 4633.84 3468.07 1603.66 2238.3 774.657 1726.98 2301.93 1909.72 2735.12 1804.32 2765.55 2060.67 957.396 1220.15 446.075 939.123 1490.85 978.269 1519.2 1053.89 1391.04 984.174 485.221 497.914 204.193 392.976 852.218 358.393 616.538 437.335 464.277 239.909 169.61 106.953 64.6722 106.953 349.523 42.2809 89.4401 6679.38 15116.5 9670.49 5166.1 5395.54 2841.01 6312.73 6312.73 3471.72 9533.28 7496.76 14703.6 8272.34 4216.48 4947.55 6262.3 7768.95 5563.51 11323.4 6048.25 3365.3 3861.8 4778.59 5759.81 3880.31 8107.95 4132.19 2416.94 2777.55 3365.19 3977.69 2479.78 5383.48 2579.64 1601.43 1883.61 2166.99 2549.03 1390.83 3223.67 1416.28 972.673 1153.9 1246.76 1453.42 638.979 1625.17 651.372 490.749 593.742 593.259 708.644 260.611 646.078 200.768 178.658 232.108 213.202 206.809 
CELL_DATA 192
SCALARS stress float 1
LOOKUP_TABLE default
704.172 2879.41 580.445 1381.64 3544.78 2602.19 1257.18 2249.82 1532.34 1862.69 2606.25 2038.08 1073.77 1624.19 1158.79 1358.59 2000.06 1662.43 867.296 1108.69 894.167 959.342 1395.47 1229.28 657.175 705.859 673.349 654.093 882.988 821.556 460.553 384.713 487.177 411.442 485.478 493.214 270.427 184.795 297.907 224.937 211.511 256.978 101.675 56.0153 124.913 80.147 55.4239 70.2225 4803.73 2294.26 2993.28 3679.98 1656.81 2281.89 3856.47 2076.74 4216.61 2827.01 1543.54 2032.42 2854.84 1557.74 3116.49 2035.39 1241.6 1569.39 1964.44 1112.86 2187.86 1384.48 952.433 1144.99 1213.22 739.386 1401.81 872.189 692.583 789.033 645.171 455.846 796.815 477.411 472.813 509.465 254.675 237.236 361.414 213.307 279.635 291.154 76.9244 103.566 123.443 71.058 117.887 119.724 1237.08 3516.58 760.511 1612.9 3528.94 3136.82 1751.09 2510.08 2013.32 2119.39 3139.16 2563.22 1195.39 1832.73 1359.73 1691.52 2319.82 1914.25 845.812 1241.57 937.642 1221.75 1564.03 1307.52 599.415 774.657 665.858 829 952.325 812.584 399.655 446.075 458.892 511.321 493.048 456.561 228.701 204.193 288.561 281.027 188.782 199.776 82.1842 64.6722 123.042 104.938 42.2809 47.1592 3838.37 1694.38 2841.01 3471.72 1285.26 1985.72 3650.35 1800.58 3846.4 2415.89 1302.21 1688.15 2629.68 1520.55 2933.83 1844.75 1071.28 1323.34 1785.08 1146.97 2095.23 1269.96 836.214 974.489 1107.15 807.069 1372.63 794.364 624.508 677.763 596.113 520.637 794.72 452.036 425.141 435.024 253.84 282.63 385.139 208.119 253.997 241.446 104.524 121.543 156.087 57.1154 110.566 96.2431 
SCALARS volume float 1
LOOKUP_TABLE default
0.52082 0.520397 0.520816 0.520099 0.520378 0.520641 0.520755 0.520556 0.520817 0.520611 0.520566 0.520695 0.520763 0.520628 0.520793 0.520702 0.520654 0.520725 0.520779 0.520691 0.52079 0.52075 0.520719 0.520759 0.520798 0.520745 0.520801 0.520783 0.520769 0.520786 0.52081 0.520786 0.520813 0.520808 0.520804 0.520809 0.520822 0.520815 0.520822 0.520824 0.520825 0.520824 0.520829 0.520829 0.520825 0.52083 0.520831 0.520833 0.521388 0.520992 0.52213 0.521382 0.520927 0.521081 0.521131 0.520938 0.521207 0.521043 0.520947 0.521014 0.521041 0.520888 0.521054 0.520998 0.520921 0.520966 0.520975 0.520867 0.52097 0.520963 0.520896 0.520925 0.52092 0.520853 0.520912 0.520925 0.520873 0.520889 0.520877 0.520844 0.520866 0.520889 0.520857 0.520863 0.520849 0.520838 0.520838 0.520862 0.520845 0.520844 0.520836 0.520833 0.520827 0.520839 0.520831 0.52083 0.520843 0.520349 0.520716 0.520199 0.520381 0.520423 0.520751 0.520504 0.520839 0.520622 0.520544 0.520622 0.520737 0.520609 0.520788 0.520672 0.520632 0.520709 0.520755 0.520688 0.520769 0.520724 0.520702 0.52076 0.520779 0.520747 0.520781 0.520767 0.520758 0.520795 0.5208 0.52079 0.520802 0.520798 0.520799 0.520815 0.520816 0.520818 0.520816 0.520818 0.520824 0.520829 0.520827 0.520831 0.520825 0.520827 0.520833 0.520831 0.521406 0.520952 0.521889 0.521205 0.520806 0.521142 0.521104 0.520921 0.521173 0.521033 0.520941 0.521018 0.52101 0.520884 0.521021 0.520964 0.520909 0.520968 0.520947 0.520871 0.520946 0.520934 0.520882 0.520932 0.520901 0.520861 0.520894 0.520906 0.520864 0.520897 0.520864 0.520852 0.520857 0.520878 0.520851 0.52087 0.520842 0.520843 0.520832 0.520858 0.520843 0.520848 0.520835 0.520835 0.520826 0.52084 0.520832 0.52083 
SCALARS volume_diff float 1
LOOKUP_TABLE default
0.499986 0.499564 0.499983 0.499266 0.499545 0.499808 0.499922 0.499722 0.499983 0.499778 0.499733 0.499861 0.49993 0.499794 0.49996 0.499869 0.499821 0.499891 0.499946 0.499857 0.499957 0.499916 0.499885 0.499925 0.499964 0.499912 0.499967 0.49995 0.499935 0.499953 0.499977 0.499953 0.499979 0.499975 0.499971 0.499976 0.499989 0.499982 0.499989 0.49999 0.499992 0.499991 0.499996 0.499996 0.499992 0.499996 0.499998 0.5 0.500555 0.500159 0.501297 0.500549 0.500093 0.500248 0.500297 0.500105 0.500373 0.500209 0.500114 0.50018 0.500207 0.500055 0.50022 0.500165 0.500088 0.500133 0.500142 0.500034 0.500137 0.500129 0.500063 0.500091 0.500087 0.500019 0.500078 0.500092 0.50004 0.500056 0.500044 0.500011 0.500032 0.500055 0.500024 0.50003 0.500015 0.500005 0.500005 0.500029 0.500012 0.500011 0.500003 0.5 0.499994 0.500006 0.499998 0.499996 0.500009 0.499516 0.499882 0.499366 0.499548 0.49959 0.499918 0.499671 0.500006 0.499788 0.499711 0.499789 0.499903 0.499775 0.499955 0.499839 0.499799 0.499876 0.499922 0.499854 0.499936 0.49989 0.499869 0.499926 0.499946 0.499914 0.499948 0.499934 0.499924 0.499961 0.499967 0.499957 0.499968 0.499965 0.499966 0.499982 0.499983 0.499985 0.499983 0.499985 0.499991 0.499996 0.499993 0.499998 0.499992 0.499994 0.5 0.499998 0.500573 0.500118 0.501056 0.500371 0.499972 0.500309 0.500271 0.500087 0.50034 0.5002 0.500108 0.500185 0.500177 0.500051 0.500188 0.500131 0.500076 0.500135 0.500114 0.500037 0.500113 0.5001 0.500049 0.500099 0.500068 0.500028 0.500061 0.500072 0.500031 0.500063 0.500031 0.500019 0.500023 0.500044 0.500018 0.500037 0.500009 0.50001 0.499999 0.500024 0.50001 0.500015 0.500002 0.500001 0.499993 0.500006 0.499999 0.499996 
