# vtk DataFile Version 5.1
vtk output
ASCII

DATASET UNSTRUCTURED_GRID
POINTS 425 float
0 0 1.1
0.25 0 1.1
0.5 0 1.1
0.75 0 1.1
1 0 1.1
1.25 0 1.1
1.5 0 1.1
1.75 0 1.1
2 0 1.1
2.25 0 1.1
2.5 0 1.1
2.75 0 1.1
3 0 1.1
3.25 0 1.1
3.5 0 1.1
3.75 0 1.1
4 0 1.1
0 0.25 1.1
0.25 0.25 1.1
0.5 0.25 1.1
0.75 0.25 1.1
1 0.25 1.1
1.25 0.25 1.1
1.5 0.25 1.1
1.75 0.25 1.1
2 0.25 1.1
2.25 0.25 1.1
2.5 0.25 1.1
2.75 0.25 1.1
3 0.25 1.1
3.25 0.25 1.1
3.5 0.25 1.1
3.75 0.25 1.1
4 0.25 1.1
0 0.5 1.1
0.25 0.5 1.1
0.5 0.5 1.1
0.75 0.5 1.1
1 0.5 1.1
1.25 0.5 1.1
1.5 0.5 1.1
1.75 0.5 1.1
2 0.5 1.1
2.25 0.5 1.1
2.5 0.5 1.1
2.75 0.5 1.1
3 0.5 1.1
3.25 0.5 1.1
3.5 0.5 1.1
3.75 0.5 1.1
4 0.5 1.1
0 0.75 1.1
0.25 0.75 1.1
0.5 0.75 1.1
0.75 0.75 1.1
1 0.75 1.1
1.25 0.75 1.1
1.5 0.75 1.1
1.75 0.75 1.1
2 0.75 1.1
2.25 0.75 1.1
2.5 0.75 1.1
2.75 0.75 1.1
3 0.75 1.1
3.25 0.75 1.1
3.5 0.75 1.1
3.75 0.75 1.1
4 0.75 1.1
0 1 1.1
0.25 1 1.1
0.5 1 1.1
0.75 1 1.1
1 1 1.1
1.25 1 1.1
1.5 1 1.1
1.75 1 1.1
2 1 1.1
2.25 1 1.1
2.5 1 1.1
2.75 1 1.1
3 1 1.1
3.25 1 1.1
3.5 1 1.1
3.75 1 1.1
4 1 1.1
0 0 1.35
0.25 0 1.35
0.5 0 1.35
0.75 0 1.35
1 0 1.35
1.25 0 1.35
1.5 0 1.35
1.75 0 1.35
2 0 1.35
2.25 0 1.35
2.5 0 1.35
2.75 0 1.35
3 0 1.35
3.25 0 1.35
3.5 0 1.35
3.75 0 1.35
4 0 1.35
0 0.25 1.35
0.25 0.25 1.35
0.5 0.25 1.35
0.75 0.25 1.35
1 0.25 1.35
1.25 0.25 1.35
1.5 0.25 1.35
1.75 0.25 1.35
2 0.25 1.35
2.25 0.25 1.35
2.5 0.25 1.35
2.75 0.25 1.35
3 0.25 1.35
3.25 0.25 1.35
3.5 0.25 1.35
3.75 0.25 1.35
4 0.25 1.35
0 0.5 1.35
0.25 0.5 1.35
0.5 0.5 1.35
0.75 0.5 1.35
1 0.5 1.35
1.25 0.5 1.35
1.5 0.5 1.35
1.75 0.5 1.35
2 0.5 1.35
2.25 0.5 1.35
2.5 0.5 1.35
2.75 0.5 1.35
3 0.5 1.35
3.25 0.5 1.35
3.5 0.5 1.35
3.75 0.5 1.35
4 0.5 1.35
0 0.75 1.35
0.25 0.75 1.35
0.5 0.75 1.35
0.75 0.75 1.35
1 0.75 1.35
1.25 0.75 1.35
1.5 0.75 1.35
1.75 0.75 1.35
2 0.75 1.35
2.25 0.75 1.35
2.5 0.75 1.35
2.75 0.75 1.35
3 0.75 1.35
3.25 0.75 1.35
3.5 0.75 1.35
3.75 0.75 1.35
4 0.75 1.35
0 1 1.35
0.25 1 1.35
0.5 1 1.35
0.75 1 1.35
1 1 1.35
1.25 1 1.35
1.5 1 1.35
1.75 1 1.35
2 1 1.35
2.25 1 1.35
2.5 1 1.35
2.75 1 1.35
3 1 1.35
3.25 1 1.35
3.5 1 1.35
3.75 1 1.35
4 1 1.35
0 0 1.6
0.25 0 1.6
0.5 0 1.6
0.75 0 1.6
1 0 1.6
1.25 0 1.6
1.5 0 1.6
1.75 0 1.6
2 0 1.6
2.25 0 1.6
2.5 0 1.6
2.75 0 1.6
3 0 1.6
3.25 0 1.6
3.5 0 1.6
3.75 0 1.6
4 0 1.6
0 0.25 1.6
0.25 0.25 1.6
0.5 0.25 1.6
0.75 0.25 1.6
1 0.25 1.6
1.25 0.25 1.6
1.5 0.25 1.6
1.75 0.25 1.6
2 0.25 1.6
2.25 0.25 1.6
2.5 0.25 1.6
2.75 0.25 1.6
3 0.25 1.6
3.25 0.25 1.6
3.5 0.25 1.6
3.75 0.25 1.6
4 0.25 1.6
0 0.5 1.6
0.25 0.5 1.6
0.5 0.5 1.6
0.75 0.5 1.6
1 0.5 1.6
1.25 0.5 1.6
1.5 0.5 1.6
1.75 0.5 1.6
2 0.5 1.6
2.25 0.5 1.6
2.5 0.5 1.6
2.75 0.5 1.6
3 0.5 1.6
3.25 0.5 1.6
3.5 0.5 1.6
3.75 0.5 1.6
4 0.5 1.6
0 0.75 1.6
0.25 0.75 1.6
0.5 0.75 1.6
0.75 0.75 1.6
1 0.75 1.6
1.25 0.75 1.6
1.5 0.75 1.6
1.75 0.75 1.6
2 0.75 1.6
2.25 0.75 1.6
2.5 0.75 1.6
2.75 0.75 1.6
3 0.75 1.6
3.25 0.75 1.6
3.5 0.75 1.6
3.75 0.75 1.6
4 0.75 1.6
0 1 1.6
0.25 1 1.6
0.5 1 1.6
0.75 1 1.6
1 1 1.6
1.25 1 1.6
1.5 1 1.6
1.75 1 1.6
2 1 1.6
2.25 1 1.6
2.5 1 1.6
2.75 1 1.6
3 1 1.6
3.25 1 1.6
3.5 1 1.6
3.75 1 1.6
4 1 1.6
0 0 1.85
0.25 0 1.85
0.5 0 1.85
0.75 0 1.85
1 0 1.85
1.25 0 1.85
1.5 0 1.85
1.75 0 1.85
2 0 1.85
2.25 0 1.85
2.5 0 1.85
2.75 0 1.85
3 0 1.85
3.25 0 1.85
3.5 0 1.85
3.75 0 1.85
4 0 1.85
0 0.25 1.85
0.25 0.25 1.85
0.5 0.25 1.85
0.75 0.25 1.85
1 0.25 1.85
1.25 0.25 1.85
1.5 0.25 1.85
1.75 0.25 1.85
2 0.25 1.85
2.25 0.25 1.85
2.5 0.25 1.85
2.75 0.25 1.85
3 0.25 1.85
3.25 0.25 1.85
3.5 0.25 1.85
3.75 0.25 1.85
4 0.25 1.85
0 0.5 1.85
0.25 0.5 1.85
0.5 0.5 1.85
0.75 0.5 1.85
1 0.5 1.85
1.25 0.5 1.85
1.5 0.5 1.85
1.75 0.5 1.85
2 0.5 1.85
2.25 0.5 1.85
2.5 0.5 1.85
2.75 0.5 1.85
3 0.5 1.85
3.25 0.5 1.85
3.5 0.5 1.85
3.75 0.5 1.85
4 0.5 1.85
0 0.75 1.85
0.25 0.75 1.85
0.5 0.75 1.85
0.75 0.75 1.85
1 0.75 1.85
1.25 0.75 1.85
1.5 0.75 1.85
1.75 0.75 1.85
2 0.75 1.85
2.25 0.75 1.85
2.5 0.75 1.85
2.75 0.75 1.85
3 0.75 1.85
3.25 0.75 1.85
3.5 0.75 1.85
3.75 0.75 1.85
4 0.75 1.85
0 1 1.85
0.25 1 1.85
0.5 1 1.85
0.75 1 1.85
1 1 1.85
1.25 1 1.85
1.5 1 1.85
1.75 1 1.85
2 1 1.85
2.25 1 1.85
2.5 1 1.85
2.75 1 1.85
3 1 1.85
3.25 1 1.85
3.5 1 1.85
3.75 1 1.85
4 1 1.85
0 0 2.1
0.25 0 2.1
0.5 0 2.1
0.75 0 2.1
1 0 2.1
1.25 0 2.1
1.5 0 2.1
1.75 0 2.1
2 0 2.1
2.25 0 2.1
2.5 0 2.1
2.75 0 2.1
3 0 2.1
3.25 0 2.1
3.5 0 2.1
3.75 0 2.1
4 0 2.1
0 0.25 2.1
0.25 0.25 2.1
0.5 0.25 2.1
0.75 0.25 2.1
1 0.25 2.1
1.25 0.25 2.1
1.5 0.25 2.1
1.75 0.25 2.1
2 0.25 2.1
2.25 0.25 2.1
2.5 0.25 2.1
2.75 0.25 2.1
3 0.25 2.1
3.25 0.25 2.1
3.5 0.25 2.1
3.75 0.25 2.1
4 0.25 2.1
0 0.5 2.1
0.25 0.5 2.1
0.5 0.5 2.1
0.75 0.5 2.1
1 0.5 2.1
1.25 0.5 2.1
1.5 0.5 2.1
1.75 0.5 2.1
2 0.5 2.1
2.25 0.5 2.1
2.5 0.5 2.1
2.75 0.5 2.1
3 0.5 2.1
3.25 0.5 2.1
3.5 0.5 2.1
3.75 0.5 2.1
4 0.5 2.1
0 0.75 2.1
0.25 0.75 2.1
0.5 0.75 2.1
0.75 0.75 2.1
1 0.75 2.1
1.25 0.75 2.1
1.5 0.75 2.1
1.75 0.75 2.1
2 0.75 2.1
2.25 0.75 2.1
2.5 0.75 2.1
2.75 0.75 2.1
3 0.75 2.1
3.25 0.75 2.1
3.5 0.75 2.1
3.75 0.75 2.1
4 0.75 2.1
0 1 2.1
0.25 1 2.1
0.5 1 2.1
0.75 1 2.1
1 1 2.1
1.25 1 2.1
1.5 1 2.1
1.75 1 2.1
2 1 2.1
2.25 1 2.1
2.5 1 2.1
2.75 1 2.1
3 1 2.1
3.25 1 2.1
3.5 1 2.1
3.75 1 2.1
4 1 2.1

CELLS 1537 6144
OFFSETS vtktypeint64
0 4 8 12 16 20 24 28 32 36 40 44 48 52 56 60 64 68 72 76 80 84 88 92 96 100 104 108 112 116 120 124 128 132 136 140 144 148 152 156 160 164 168 172 176 180 184 188 192 196 200 204 208 212 216 220 224 228 232 236 240 244 248 252 256 260 264 268 272 276 280 284 288 292 296 300 304 308 312 316 320 324 328 332 336 340 344 348 352 356 360 364 368 372 376 380 384 388 392 396 400 404 408 412 416 420 424 428 432 436 440 444 448 452 456 460 464 468 472 476 480 484 488 492 496 500 504 508 512 516 520 524 528 532 536 540 544 548 552 556 560 564 568 572 576 580 584 588 592 596 600 604 608 612 616 620 624 628 632 636 640 644 648 652 656 660 664 668 672 676 680 684 688 692 696 700 704 708 712 716 720 724 728 732 736 740 744 748 752 756 760 764 768 772 776 780 784 788 792 796 800 804 808 812 816 820 824 828 832 836 840 844 848 852 856 860 864 868 872 876 880 884 888 892 896 900 904 908 912 916 920 924 928 932 936 940 944 948 952 956 960 964 968 972 976 980 984 988 992 996 1000 1004 1008 1012 1016 1020 1024 1028 1032 1036 1040 1044 1048 1052 1056 1060 1064 1068 1072 1076 1080 1084 1088 1092 1096 1100 1104 1108 1112 1116 1120 1124 1128 1132 1136 1140 1144 1148 1152 1156 1160 1164 1168 1172 1176 1180 1184 1188 1192 1196 1200 1204 1208 1212 1216 1220 1224 1228 1232 1236 1240 1244 1248 1252 1256 1260 1264 1268 1272 1276 1280 1284 1288 1292 1296 1300 1304 1308 1312 1316 1320 1324 1328 1332 1336 1340 1344 1348 1352 1356 1360 1364 1368 1372 1376 1380 1384 1388 1392 1396 1400 1404 1408 1412 1416 1420 1424 1428 1432 1436 1440 1444 1448 1452 1456 1460 1464 1468 1472 1476 1480 1484 1488 1492 1496 1500 1504 1508 1512 1516 1520 1524 1528 1532 1536 1540 1544 1548 1552 1556 1560 1564 1568 1572 1576 1580 1584 1588 1592 1596 1600 1604 1608 1612 1616 1620 1624 1628 1632 1636 1640 1644 1648 1652 1656 1660 1664 1668 1672 1676 1680 1684 1688 1692 1696 1700 1704 1708 1712 1716 1720 1724 1728 1732 1736 1740 1744 1748 1752 1756 1760 1764 1768 1772 1776 1780 1784 1788 1792 1796 1800 1804 1808 1812 1816 1820 1824 1828 1832 1836 1840 1844 1848 1852 1856 1860 1864 1868 1872 1876 1880 1884 1888 1892 1896 1900 1904 1908 1912 1916 1920 1924 1928 1932 1936 1940 1944 1948 1952 1956 1960 1964 1968 1972 1976 1980 1984 1988 1992 1996 2000 2004 2008 2012 2016 2020 2024 2028 2032 2036 2040 2044 2048 2052 2056 2060 2064 2068 2072 2076 2080 2084 2088 2092 2096 2100 2104 2108 2112 2116 2120 2124 2128 2132 2136 2140 2144 2148 2152 2156 2160 2164 2168 2172 2176 2180 2184 2188 2192 2196 2200 2204 2208 2212 2216 2220 2224 2228 2232 2236 2240 2244 2248 2252 2256 2260 2264 2268 2272 2276 2280 2284 2288 2292 2296 2300 2304 2308 2312 2316 2320 2324 2328 2332 2336 2340 2344 2348 2352 2356 2360 2364 2368 2372 2376 2380 2384 2388 2392 2396 2400 2404 2408 2412 2416 2420 2424 2428 2432 2436 2440 2444 2448 2452 2456 2460 2464 2468 2472 2476 2480 2484 2488 2492 2496 2500 2504 2508 2512 2516 2520 2524 2528 2532 2536 2540 2544 2548 2552 2556 2560 2564 2568 2572 2576 2580 2584 2588 2592 2596 2600 2604 2608 2612 2616 2620 2624 2628 2632 2636 2640 2644 2648 2652 2656 2660 2664 2668 2672 2676 2680 2684 2688 2692 2696 2700 2704 2708 2712 2716 2720 2724 2728 2732 2736 2740 2744 2748 2752 2756 2760 2764 2768 2772 2776 2780 2784 2788 2792 2796 2800 2804 2808 2812 2816 2820 2824 2828 2832 2836 2840 2844 2848 2852 2856 2860 2864 2868 2872 2876 2880 2884 2888 2892 2896 2900 2904 2908 2912 2916 2920 2924 2928 2932 2936 2940 2944 2948 2952 2956 2960 2964 2968 2972 2976 2980 2984 2988 2992 2996 3000 3004 3008 3012 3016 3020 3024 3028 3032 3036 3040 3044 3048 3052 3056 3060 3064 3068 3072 3076 3080 3084 3088 3092 3096 3100 3104 3108 3112 3116 3120 3124 3128 3132 3136 3140 3144 3148 3152 3156 3160 3164 3168 3172 3176 3180 3184 3188 3192 3196 3200 3204 3208 3212 3216 3220 3224 3228 3232 3236 3240 3244 3248 3252 3256 3260 3264 3268 3272 3276 3280 3284 3288 3292 3296 3300 3304 3308 3312 3316 3320 3324 3328 3332 3336 3340 3344 3348 3352 3356 3360 3364 3368 3372 3376 3380 3384 3388 3392 3396 3400 3404 3408 3412 3416 3420 3424 3428 3432 3436 3440 3444 3448 3452 3456 3460 3464 3468 3472 3476 3480 3484 3488 3492 3496 3500 3504 3508 3512 3516 3520 3524 3528 3532 3536 3540 3544 3548 3552 3556 3560 3564 3568 3572 3576 3580 3584 3588 3592 3596 3600 3604 3608 3612 3616 3620 3624 3628 3632 3636 3640 3644 3648 3652 3656 3660 3664 3668 3672 3676 3680 3684 3688 3692 3696 3700 3704 3708 3712 3716 3720 3724 3728 3732 3736 3740 3744 3748 3752 3756 3760 3764 3768 3772 3776 3780 3784 3788 3792 3796 3800 3804 3808 3812 3816 3820 3824 3828 3832 3836 3840 3844 3848 3852 3856 3860 3864 3868 3872 3876 3880 3884 3888 3892 3896 3900 3904 3908 3912 3916 3920 3924 3928 3932 3936 3940 3944 3948 3952 3956 3960 3964 3968 3972 3976 3980 3984 3988 3992 3996 4000 4004 4008 4012 4016 4020 4024 4028 4032 4036 4040 4044 4048 4052 4056 4060 4064 4068 4072 4076 4080 4084 4088 4092 4096 4100 4104 4108 4112 4116 4120 4124 4128 4132 4136 4140 4144 4148 4152 4156 4160 4164 4168 4172 4176 4180 4184 4188 4192 4196 4200 4204 4208 4212 4216 4220 4224 4228 4232 4236 4240 4244 4248 4252 4256 4260 4264 4268 4272 4276 4280 4284 4288 4292 4296 4300 4304 4308 4312 4316 4320 4324 4328 4332 4336 4340 4344 4348 4352 4356 4360 4364 4368 4372 4376 4380 4384 4388 4392 4396 4400 4404 4408 4412 4416 4420 4424 4428 4432 4436 4440 4444 4448 4452 4456 4460 4464 4468 4472 4476 4480 4484 4488 4492 4496 4500 4504 4508 4512 4516 4520 4524 4528 4532 4536 4540 4544 4548 4552 4556 4560 4564 4568 4572 4576 4580 4584 4588 4592 4596 4600 4604 4608 4612 4616 4620 4624 4628 4632 4636 4640 4644 4648 4652 4656 4660 4664 4668 4672 4676 4680 4684 4688 4692 4696 4700 4704 4708 4712 4716 4720 4724 4728 4732 4736 4740 4744 4748 4752 4756 4760 4764 4768 4772 4776 4780 4784 4788 4792 4796 4800 4804 4808 4812 4816 4820 4824 4828 4832 4836 4840 4844 4848 4852 4856 4860 4864 4868 4872 4876 4880 4884 4888 4892 4896 4900 4904 4908 4912 4916 4920 4924 4928 4932 4936 4940 4944 4948 4952 4956 4960 4964 4968 4972 4976 4980 4984 4988 4992 4996 5000 5004 5008 5012 5016 5020 5024 5028 5032 5036 5040 5044 5048 5052 5056 5060 5064 5068 5072 5076 5080 5084 5088 5092 5096 5100 5104 5108 5112 5116 5120 5124 5128 5132 5136 5140 5144 5148 5152 5156 5160 5164 5168 5172 5176 5180 5184 5188 5192 5196 5200 5204 5208 5212 5216 5220 5224 5228 5232 5236 5240 5244 5248 5252 5256 5260 5264 5268 5272 5276 5280 5284 5288 5292 5296 5300 5304 5308 5312 5316 5320 5324 5328 5332 5336 5340 5344 5348 5352 5356 5360 5364 5368 5372 5376 5380 5384 5388 5392 5396 5400 5404 5408 5412 5416 5420 5424 5428 5432 5436 5440 5444 5448 5452 5456 5460 5464 5468 5472 5476 5480 5484 5488 5492 5496 5500 5504 5508 5512 5516 5520 5524 5528 5532 5536 5540 5544 5548 5552 5556 5560 5564 5568 5572 5576 5580 5584 5588 5592 5596 5600 5604 5608 5612 5616 5620 5624 5628 5632 5636 5640 5644 5648 5652 5656 5660 5664 5668 5672 5676 5680 5684 5688 5692 5696 5700 5704 5708 5712 5716 5720 5724 5728 5732 5736 5740 5744 5748 5752 5756 5760 5764 5768 5772 5776 5780 5784 5788 5792 5796 5800 5804 5808 5812 5816 5820 5824 5828 5832 5836 5840 5844 5848 5852 5856 5860 5864 5868 5872 5876 5880 5884 5888 5892 5896 5900 5904 5908 5912 5916 5920 5924 5928 5932 5936 5940 5944 5948 5952 5956 5960 5964 5968 5972 5976 5980 5984 5988 5992 5996 6000 6004 6008 6012 6016 6020 6024 6028 6032 6036 6040 6044 6048 6052 6056 6060 6064 6068 6072 6076 6080 6084 6088 6092 6096 6100 6104 6108 6112 6116 6120 6124 6128 6132 6136 6140 6144 
CONNECTIVITY vtktypeint64
0 17 103 18 
85 103 86 0 
0 17 102 103 
85 103 0 102 
86 0 103 1 
103 0 18 1 
1 18 104 19 
86 104 87 1 
1 18 103 104 
86 104 1 103 
87 1 104 2 
104 1 19 2 
2 19 105 20 
87 105 88 2 
2 19 104 105 
87 105 2 104 
88 2 105 3 
105 2 20 3 
3 20 106 21 
88 106 89 3 
3 20 105 106 
88 106 3 105 
89 3 106 4 
106 3 21 4 
4 21 107 22 
89 107 90 4 
4 21 106 107 
89 107 4 106 
90 4 107 5 
107 4 22 5 
5 22 108 23 
90 108 91 5 
5 22 107 108 
90 108 5 107 
91 5 108 6 
108 5 23 6 
6 23 109 24 
91 109 92 6 
6 23 108 109 
91 109 6 108 
92 6 109 7 
109 6 24 7 
7 24 110 25 
92 110 93 7 
7 24 109 110 
92 110 7 109 
93 7 110 8 
110 7 25 8 
8 25 111 26 
93 111 94 8 
8 25 110 111 
93 111 8 110 
94 8 111 9 
111 8 26 9 
9 26 112 27 
94 112 95 9 
9 26 111 112 
94 112 9 111 
95 9 112 10 
112 9 27 10 
10 27 113 28 
95 113 96 10 
10 27 112 113 
95 113 10 112 
96 10 113 11 
113 10 28 11 
11 28 114 29 
96 114 97 11 
11 28 113 114 
96 114 11 113 
97 11 114 12 
114 11 29 12 
12 29 115 30 
97 115 98 12 
12 29 114 115 
97 115 12 114 
98 12 115 13 
115 12 30 13 
13 30 116 31 
98 116 99 13 
13 30 115 116 
98 116 13 115 
99 13 116 14 
116 13 31 14 
14 31 117 32 
99 117 100 14 
14 31 116 117 
99 117 14 116 
100 14 117 15 
117 14 32 15 
15 32 118 33 
100 118 101 15 
15 32 117 118 
100 118 15 117 
101 15 118 16 
118 15 33 16 
17 34 120 35 
102 120 103 17 
17 34 119 120 
102 120 17 119 
103 17 120 18 
120 17 35 18 
18 35 121 36 
103 121 104 18 
18 35 120 121 
103 121 18 120 
104 18 121 19 
121 18 36 19 
19 36 122 37 
104 122 105 19 
19 36 121 122 
104 122 19 121 
105 19 122 20 
122 19 37 20 
20 37 123 38 
105 123 106 20 
20 37 122 123 
105 123 20 122 
106 20 123 21 
123 20 38 21 
21 38 124 39 
106 124 107 21 
21 38 123 124 
106 124 21 123 
107 21 124 22 
124 21 39 22 
22 39 125 40 
107 125 108 22 
22 39 124 125 
107 125 22 124 
108 22 125 23 
125 22 40 23 
23 40 126 41 
108 126 109 23 
23 40 125 126 
108 126 23 125 
109 23 126 24 
126 23 41 24 
24 41 127 42 
109 127 110 24 
24 41 126 127 
109 127 24 126 
110 24 127 25 
127 24 42 25 
25 42 128 43 
110 128 111 25 
25 42 127 128 
110 128 25 127 
111 25 128 26 
128 25 43 26 
26 43 129 44 
111 129 112 26 
26 43 128 129 
111 129 26 128 
112 26 129 27 
129 26 44 27 
27 44 130 45 
112 130 113 27 
27 44 129 130 
112 130 27 129 
113 27 130 28 
130 27 45 28 
28 45 131 46 
113 131 114 28 
28 45 130 131 
113 131 28 130 
114 28 131 29 
131 28 46 29 
29 46 132 47 
114 132 115 29 
29 46 131 132 
114 132 29 131 
115 29 132 30 
132 29 47 30 
30 47 133 48 
115 133 116 30 
30 47 132 133 
115 133 30 132 
116 30 133 31 
133 30 48 31 
31 48 134 49 
116 134 117 31 
31 48 133 134 
116 134 31 133 
117 31 134 32 
134 31 49 32 
32 49 135 50 
117 135 118 32 
32 49 134 135 
117 135 32 134 
118 32 135 33 
135 32 50 33 
34 51 137 52 
119 137 120 34 
34 51 136 137 
119 137 34 136 
120 34 137 35 
137 34 52 35 
35 52 138 53 
120 138 121 35 
35 52 137 138 
120 138 35 137 
121 35 138 36 
138 35 53 36 
36 53 139 54 
121 139 122 36 
36 53 138 139 
121 139 36 138 
122 36 139 37 
139 36 54 37 
37 54 140 55 
122 140 123 37 
37 54 139 140 
122 140 37 139 
123 37 140 38 
140 37 55 38 
38 55 141 56 
123 141 124 38 
38 55 140 141 
123 141 38 140 
124 38 141 39 
141 38 56 39 
39 56 142 57 
124 142 125 39 
39 56 141 142 
124 142 39 141 
125 39 142 40 
142 39 57 40 
40 57 143 58 
125 143 126 40 
40 57 142 143 
125 143 40 142 
126 40 143 41 
143 40 58 41 
41 58 144 59 
126 144 127 41 
41 58 143 144 
126 144 41 143 
127 41 144 42 
144 41 59 42 
42 59 145 60 
127 145 128 42 
42 59 144 145 
127 145 42 144 
128 42 145 43 
145 42 60 43 
43 60 146 61 
128 146 129 43 
43 60 145 146 
128 146 43 145 
129 43 146 44 
146 43 61 44 
44 61 147 62 
129 147 130 44 
44 61 146 147 
129 147 44 146 
130 44 147 45 
147 44 62 45 
45 62 148 63 
130 148 131 45 
45 62 147 148 
130 148 45 147 
131 45 148 46 
148 45 63 46 
46 63 149 64 
131 149 132 46 
46 63 148 149 
131 149 46 148 
132 46 149 47 
149 46 64 47 
47 64 150 65 
132 150 133 47 
47 64 149 150 
132 150 47 149 
133 47 150 48 
150 47 65 48 
48 65 151 66 
133 151 134 48 
48 65 150 151 
133 151 48 150 
134 48 151 49 
151 48 66 49 
49 66 152 67 
134 152 135 49 
49 66 151 152 
134 152 49 151 
135 49 152 50 
152 49 67 50 
51 68 154 69 
136 154 137 51 
51 68 153 154 
136 154 51 153 
137 51 154 52 
154 51 69 52 
52 69 155 70 
137 155 138 52 
52 69 154 155 
137 155 52 154 
138 52 155 53 
155 52 70 53 
53 70 156 71 
138 156 139 53 
53 70 155 156 
138 156 53 155 
139 53 156 54 
156 53 71 54 
54 71 157 72 
139 157 140 54 
54 71 156 157 
139 157 54 156 
140 54 157 55 
157 54 72 55 
55 72 158 73 
140 158 141 55 
55 72 157 158 
140 158 55 157 
141 55 158 56 
158 55 73 56 
56 73 159 74 
141 159 142 56 
56 73 158 159 
141 159 56 158 
142 56 159 57 
159 56 74 57 
57 74 160 75 
142 160 143 57 
57 74 159 160 
142 160 57 159 
143 57 160 58 
160 57 75 58 
58 75 161 76 
143 161 144 58 
58 75 160 161 
143 161 58 160 
144 58 161 59 
161 58 76 59 
59 76 162 77 
144 162 145 59 
59 76 161 162 
144 162 59 161 
145 59 162 60 
162 59 77 60 
60 77 163 78 
145 163 146 60 
60 77 162 163 
145 163 60 162 
146 60 163 61 
163 60 78 61 
61 78 164 79 
146 164 147 61 
61 78 163 164 
146 164 61 163 
147 61 164 62 
164 61 79 62 
62 79 165 80 
147 165 148 62 
62 79 164 165 
147 165 62 164 
148 62 165 63 
165 62 80 63 
63 80 166 81 
148 166 149 63 
63 80 165 166 
148 166 63 165 
149 63 166 64 
166 63 81 64 
64 81 167 82 
149 167 150 64 
64 81 166 167 
149 167 64 166 
150 64 167 65 
167 64 82 65 
65 82 168 83 
150 168 151 65 
65 82 167 168 
150 168 65 167 
151 65 168 66 
168 65 83 66 
66 83 169 84 
151 169 152 66 
66 83 168 169 
151 169 66 168 
152 66 169 67 
169 66 84 67 
85 102 188 103 
170 188 171 85 
85 102 187 188 
170 188 85 187 
171 85 188 86 
188 85 103 86 
86 103 189 104 
171 189 172 86 
86 103 188 189 
171 189 86 188 
172 86 189 87 
189 86 104 87 
87 104 190 105 
172 190 173 87 
87 104 189 190 
172 190 87 189 
173 87 190 88 
190 87 105 88 
88 105 191 106 
173 191 174 88 
88 105 190 191 
173 191 88 190 
174 88 191 89 
191 88 106 89 
89 106 192 107 
174 192 175 89 
89 106 191 192 
174 192 89 191 
175 89 192 90 
192 89 107 90 
90 107 193 108 
175 193 176 90 
90 107 192 193 
175 193 90 192 
176 90 193 91 
193 90 108 91 
91 108 194 109 
176 194 177 91 
91 108 193 194 
176 194 91 193 
177 91 194 92 
194 91 109 92 
92 109 195 110 
177 195 178 92 
92 109 194 195 
177 195 92 194 
178 92 195 93 
195 92 110 93 
93 110 196 111 
178 196 179 93 
93 110 195 196 
178 196 93 195 
179 93 196 94 
196 93 111 94 
94 111 197 112 
179 197 180 94 
94 111 196 197 
179 197 94 196 
180 94 197 95 
197 94 112 95 
95 112 198 113 
180 198 181 95 
95 112 197 198 
180 198 95 197 
181 95 198 96 
198 95 113 96 
96 113 199 114 
181 199 182 96 
96 113 198 199 
181 199 96 198 
182 96 199 97 
199 96 114 97 
97 114 200 115 
182 200 183 97 
97 114 199 200 
182 200 97 199 
183 97 200 98 
200 97 115 98 
98 115 201 116 
183 201 184 98 
98 115 200 201 
183 201 98 200 
184 98 201 99 
201 98 116 99 
99 116 202 117 
184 202 185 99 
99 116 201 202 
184 202 99 201 
185 99 202 100 
202 99 117 100 
100 117 203 118 
185 203 186 100 
100 117 202 203 
185 203 100 202 
186 100 203 101 
203 100 118 101 
102 119 205 120 
187 205 188 102 
102 119 204 205 
187 205 102 204 
188 102 205 103 
205 102 120 103 
103 120 206 121 
188 206 189 103 
103 120 205 206 
188 206 103 205 
189 103 206 104 
206 103 121 104 
104 121 207 122 
189 207 190 104 
104 121 206 207 
189 207 104 206 
190 104 207 105 
207 104 122 105 
105 122 208 123 
190 208 191 105 
105 122 207 208 
190 208 105 207 
191 105 208 106 
208 105 123 106 
106 123 209 124 
191 209 192 106 
106 123 208 209 
191 209 106 208 
192 106 209 107 
209 106 124 107 
107 124 210 125 
192 210 193 107 
107 124 209 210 
192 210 107 209 
193 107 210 108 
210 107 125 108 
108 125 211 126 
193 211 194 108 
108 125 210 211 
193 211 108 210 
194 108 211 109 
211 108 126 109 
109 126 212 127 
194 212 195 109 
109 126 211 212 
194 212 109 211 
195 109 212 110 
212 109 127 110 
110 127 213 128 
195 213 196 110 
110 127 212 213 
195 213 110 212 
196 110 213 111 
213 110 128 111 
111 128 214 129 
196 214 197 111 
111 128 213 214 
196 214 111 213 
197 111 214 112 
214 111 129 112 
112 129 215 130 
197 215 198 112 
112 129 214 215 
197 215 112 214 
198 112 215 113 
215 112 130 113 
113 130 216 131 
198 216 199 113 
113 130 215 216 
198 216 113 215 
199 113 216 114 
216 113 131 114 
114 131 217 132 
199 217 200 114 
114 131 216 217 
199 217 114 216 
200 114 217 115 
217 114 132 115 
115 132 218 133 
200 218 201 115 
115 132 217 218 
200 218 115 217 
201 115 218 116 
218 115 133 116 
116 133 219 134 
201 219 202 116 
116 133 218 219 
201 219 116 218 
202 116 219 117 
219 116 134 117 
117 134 220 135 
202 220 203 117 
117 134 219 220 
202 220 117 219 
203 117 220 118 
220 117 135 118 
119 136 222 137 
204 222 205 119 
119 136 221 222 
204 222 119 221 
205 119 222 120 
222 119 137 120 
120 137 223 138 
205 223 206 120 
120 137 222 223 
205 223 120 222 
206 120 223 121 
223 120 138 121 
121 138 224 139 
206 224 207 121 
121 138 223 224 
206 224 121 223 
207 121 224 122 
224 121 139 122 
122 139 225 140 
207 225 208 122 
122 139 224 225 
207 225 122 224 
208 122 225 123 
225 122 140 123 
123 140 226 141 
208 226 209 123 
123 140 225 226 
208 226 123 225 
209 123 226 124 
226 123 141 124 
124 141 227 142 
209 227 210 124 
124 141 226 227 
209 227 124 226 
210 124 227 125 
227 124 142 125 
125 142 228 143 
210 228 211 125 
125 142 227 228 
210 228 125 227 
211 125 228 126 
228 125 143 126 
126 143 229 144 
211 229 212 126 
126 143 228 229 
211 229 126 228 
212 126 229 127 
229 126 144 127 
127 144 230 145 
212 230 213 127 
127 144 229 230 
212 230 127 229 
213 127 230 128 
230 127 145 128 
128 145 231 146 
213 231 214 128 
128 145 230 231 
213 231 128 230 
214 128 231 129 
231 128 146 129 
129 146 232 147 
214 232 215 129 
129 146 231 232 
214 232 129 231 
215 129 232 130 
232 129 147 130 
130 147 233 148 
215 233 216 130 
130 147 232 233 
215 233 130 232 
216 130 233 131 
233 130 148 131 
131 148 234 149 
216 234 217 131 
131 148 233 234 
216 234 131 233 
217 131 234 132 
234 131 149 132 
132 149 235 150 
217 235 218 132 
132 149 234 235 
217 235 132 234 
218 132 235 133 
235 132 150 133 
133 150 236 151 
218 236 219 133 
133 150 235 236 
218 236 133 235 
219 133 236 134 
236 133 151 134 
134 151 237 152 
219 237 220 134 
134 151 236 237 
219 237 134 236 
220 134 237 135 
237 134 152 135 
136 153 239 154 
221 239 222 136 
136 153 238 239 
221 239 136 238 
222 136 239 137 
239 136 154 137 
137 154 240 155 
222 240 223 137 
137 154 239 240 
222 240 137 239 
223 137 240 138 
240 137 155 138 
138 155 241 156 
223 241 224 138 
138 155 240 241 
223 241 138 240 
224 138 241 139 
241 138 156 139 
139 156 242 157 
224 242 225 139 
139 156 241 242 
224 242 139 241 
225 139 242 140 
242 139 157 140 
140 157 243 158 
225 243 226 140 
140 157 242 243 
225 243 140 242 
226 140 243 141 
243 140 158 141 
141 158 244 159 
226 244 227 141 
141 158 243 244 
226 244 141 243 
227 141 244 142 
244 141 159 142 
142 159 245 160 
227 245 228 142 
142 159 244 245 
227 245 142 244 
228 142 245 143 
245 142 160 143 
143 160 246 161 
228 246 229 143 
143 160 245 246 
228 246 143 245 
229 143 246 144 
246 143 161 144 
144 161 247 162 
229 247 230 144 
144 161 246 247 
229 247 144 246 
230 144 247 145 
247 144 162 145 
145 162 248 163 
230 248 231 145 
145 162 247 248 
230 248 145 247 
231 145 248 146 
248 145 163 146 
146 163 249 164 
231 249 232 146 
146 163 248 249 
231 249 146 248 
232 146 249 147 
249 146 164 147 
147 164 250 165 
232 250 233 147 
147 164 249 250 
232 250 147 249 
233 147 250 148 
250 147 165 148 
148 165 251 166 
233 251 234 148 
148 165 250 251 
233 251 148 250 
234 148 251 149 
251 148 166 149 
149 166 252 167 
234 252 235 149 
149 166 251 252 
234 252 149 251 
235 149 252 150 
252 149 167 150 
150 167 253 168 
235 253 236 150 
150 167 252 253 
235 253 150 252 
236 150 253 151 
253 150 168 151 
151 168 254 169 
236 254 237 151 
151 168 253 254 
236 254 151 253 
237 151 254 152 
254 151 169 152 
170 187 273 188 
255 273 256 170 
170 187 272 273 
255 273 170 272 
256 170 273 171 
273 170 188 171 
171 188 274 189 
256 274 257 171 
171 188 273 274 
256 274 171 273 
257 171 274 172 
274 171 189 172 
172 189 275 190 
257 275 258 172 
172 189 274 275 
257 275 172 274 
258 172 275 173 
275 172 190 173 
173 190 276 191 
258 276 259 173 
173 190 275 276 
258 276 173 275 
259 173 276 174 
276 173 191 174 
174 191 277 192 
259 277 260 174 
174 191 276 277 
259 277 174 276 
260 174 277 175 
277 174 192 175 
175 192 278 193 
260 278 261 175 
175 192 277 278 
260 278 175 277 
261 175 278 176 
278 175 193 176 
176 193 279 194 
261 279 262 176 
176 193 278 279 
261 279 176 278 
262 176 279 177 
279 176 194 177 
177 194 280 195 
262 280 263 177 
177 194 279 280 
262 280 177 279 
263 177 280 178 
280 177 195 178 
178 195 281 196 
263 281 264 178 
178 195 280 281 
263 281 178 280 
264 178 281 179 
281 178 196 179 
179 196 282 197 
264 282 265 179 
179 196 281 282 
264 282 179 281 
265 179 282 180 
282 179 197 180 
180 197 283 198 
265 283 266 180 
180 197 282 283 
265 283 180 282 
266 180 283 181 
283 180 198 181 
181 198 284 199 
266 284 267 181 
181 198 283 284 
266 284 181 283 
267 181 284 182 
284 181 199 182 
182 199 285 200 
267 285 268 182 
182 199 284 285 
267 285 182 284 
268 182 285 183 
285 182 200 183 
183 200 286 201 
268 286 269 183 
183 200 285 286 
268 286 183 285 
269 183 286 184 
286 183 201 184 
184 201 287 202 
269 287 270 184 
184 201 286 287 
269 287 184 286 
270 184 287 185 
287 184 202 185 
185 202 288 203 
270 288 271 185 
185 202 287 288 
270 288 185 287 
271 185 288 186 
288 185 203 186 
187 204 290 205 
272 290 273 187 
187 204 289 290 
272 290 187 289 
273 187 290 188 
290 187 205 188 
188 205 291 206 
273 291 274 188 
188 205 290 291 
273 291 188 290 
274 188 291 189 
291 188 206 189 
189 206 292 207 
274 292 275 189 
189 206 291 292 
274 292 189 291 
275 189 292 190 
292 189 207 190 
190 207 293 208 
275 293 276 190 
190 207 292 293 
275 293 190 292 
276 190 293 191 
293 190 208 191 
191 208 294 209 
276 294 277 191 
191 208 293 294 
276 294 191 293 
277 191 294 192 
294 191 209 192 
192 209 295 210 
277 295 278 192 
192 209 294 295 
277 295 192 294 
278 192 295 193 
295 192 210 193 
193 210 296 211 
278 296 279 193 
193 210 295 296 
278 296 193 295 
279 193 296 194 
296 193 211 194 
194 211 297 212 
279 297 280 194 
194 211 296 297 
279 297 194 296 
280 194 297 195 
297 194 212 195 
195 212 298 213 
280 298 281 195 
195 212 297 298 
280 298 195 297 
281 195 298 196 
298 195 213 196 
196 213 299 214 
281 299 282 196 
196 213 298 299 
281 299 196 298 
282 196 299 197 
299 196 214 197 
197 214 300 215 
282 300 283 197 
197 214 299 300 
282 300 197 299 
283 197 300 198 
300 197 215 198 
198 215 301 216 
283 301 284 198 
198 215 300 301 
283 301 198 300 
284 198 301 199 
301 198 216 199 
199 216 302 217 
284 302 285 199 
199 216 301 302 
284 302 199 301 
285 199 302 200 
302 199 217 200 
200 217 303 218 
285 303 286 200 
200 217 302 303 
285 303 200 302 
286 200 303 201 
303 200 218 201 
201 218 304 219 
286 304 287 201 
201 218 303 304 
286 304 201 303 
287 201 304 202 
304 201 219 202 
202 219 305 220 
287 305 288 202 
202 219 304 305 
287 305 202 304 
288 202 305 203 
305 202 220 203 
204 221 307 222 
289 307 290 204 
204 221 306 307 
289 307 204 306 
290 204 307 205 
307 204 222 205 
205 222 308 223 
290 308 291 205 
205 222 307 308 
290 308 205 307 
291 205 308 206 
308 205 223 206 
206 223 309 224 
291 309 292 206 
206 223 308 309 
291 309 206 308 
292 206 309 207 
309 206 224 207 
207 224 310 225 
292 310 293 207 
207 224 309 310 
292 310 207 309 
293 207 310 208 
310 207 225 208 
208 225 311 226 
293 311 294 208 
208 225 310 311 
293 311 208 310 
294 208 311 209 
311 208 226 209 
209 226 312 227 
294 312 295 209 
209 226 311 312 
294 312 209 311 
295 209 312 210 
312 209 227 210 
210 227 313 228 
295 313 296 210 
210 227 312 313 
295 313 210 312 
296 210 313 211 
313 210 228 211 
211 228 314 229 
296 314 297 211 
211 228 313 314 
296 314 211 313 
297 211 314 212 
314 211 229 212 
212 229 315 230 
297 315 298 212 
212 229 314 315 
297 315 212 314 
298 212 315 213 
315 212 230 213 
213 230 316 231 
298 316 299 213 
213 230 315 316 
298 316 213 315 
299 213 316 214 
316 213 231 214 
214 231 317 232 
299 317 300 214 
214 231 316 317 
299 317 214 316 
300 214 317 215 
317 214 232 215 
215 232 318 233 
300 318 301 215 
215 232 317 318 
300 318 215 317 
301 215 318 216 
318 215 233 216 
216 233 319 234 
301 319 302 216 
216 233 318 319 
301 319 216 318 
302 216 319 217 
319 216 234 217 
217 234 320 235 
302 320 303 217 
217 234 319 320 
302 320 217 319 
303 217 320 218 
320 217 235 218 
218 235 321 236 
303 321 304 218 
218 235 320 321 
303 321 218 320 
304 218 321 219 
321 218 236 219 
219 236 322 237 
304 322 305 219 
219 236 321 322 
304 322 219 321 
305 219 322 220 
322 219 237 220 
221 238 324 239 
306 324 307 221 
221 238 323 324 
306 324 221 323 
307 221 324 222 
324 221 239 222 
222 239 325 240 
307 325 308 222 
222 239 324 325 
307 325 222 324 
308 222 325 223 
325 222 240 223 
223 240 326 241 
308 326 309 223 
223 240 325 326 
308 326 223 325 
309 223 326 224 
326 223 241 224 
224 241 327 242 
309 327 310 224 
224 241 326 327 
309 327 224 326 
310 224 327 225 
327 224 242 225 
225 242 328 243 
310 328 311 225 
225 242 327 328 
310 328 225 327 
311 225 328 226 
328 225 243 226 
226 243 329 244 
311 329 312 226 
226 243 328 329 
311 329 226 328 
312 226 329 227 
329 226 244 227 
227 244 330 245 
312 330 313 227 
227 244 329 330 
312 330 227 329 
313 227 330 228 
330 227 245 228 
228 245 331 246 
313 331 314 228 
228 245 330 331 
313 331 228 330 
314 228 331 229 
331 228 246 229 
229 246 332 247 
314 332 315 229 
229 246 331 332 
314 332 229 331 
315 229 332 230 
332 229 247 230 
230 247 333 248 
315 333 316 230 
230 247 332 333 
315 333 230 332 
316 230 333 231 
333 230 248 231 
231 248 334 249 
316 334 317 231 
231 248 333 334 
316 334 231 333 
317 231 334 232 
334 231 249 232 
232 249 335 250 
317 335 318 232 
232 249 334 335 
317 335 232 334 
318 232 335 233 
335 232 250 233 
233 250 336 251 
318 336 319 233 
233 250 335 336 
318 336 233 335 
319 233 336 234 
336 233 251 234 
234 251 337 252 
319 337 320 234 
234 251 336 337 
319 337 234 336 
320 234 337 235 
337 234 252 235 
235 252 338 253 
320 338 321 235 
235 252 337 338 
320 338 235 337 
321 235 338 236 
338 235 253 236 
236 253 339 254 
321 339 322 236 
236 253 338 339 
321 339 236 338 
322 236 339 237 
339 236 254 237 
255 272 358 273 
340 358 341 255 
255 272 357 358 
340 358 255 357 
341 255 358 256 
358 255 273 256 
256 273 359 274 
341 359 342 256 
256 273 358 359 
341 359 256 358 
342 256 359 257 
359 256 274 257 
257 274 360 275 
342 360 343 257 
257 274 359 360 
342 360 257 359 
343 257 360 258 
360 257 275 258 
258 275 361 276 
343 361 344 258 
258 275 360 361 
343 361 258 360 
344 258 361 259 
361 258 276 259 
259 276 362 277 
344 362 345 259 
259 276 361 362 
344 362 259 361 
345 259 362 260 
362 259 277 260 
260 277 363 278 
345 363 346 260 
260 277 362 363 
345 363 260 362 
346 260 363 261 
363 260 278 261 
261 278 364 279 
346 364 347 261 
261 278 363 364 
346 364 261 363 
347 261 364 262 
364 261 279 262 
262 279 365 280 
347 365 348 262 
262 279 364 365 
347 365 262 364 
348 262 365 263 
365 262 280 263 
263 280 366 281 
348 366 349 263 
263 280 365 366 
348 366 263 365 
349 263 366 264 
366 263 281 264 
264 281 367 282 
349 367 350 264 
264 281 366 367 
349 367 264 366 
350 264 367 265 
367 264 282 265 
265 282 368 283 
350 368 351 265 
265 282 367 368 
350 368 265 367 
351 265 368 266 
368 265 283 266 
266 283 369 284 
351 369 352 266 
266 283 368 369 
351 369 266 368 
352 266 369 267 
369 266 284 267 
267 284 370 285 
352 370 353 267 
267 284 369 370 
352 370 267 369 
353 267 370 268 
370 267 285 268 
268 285 371 286 
353 371 354 268 
268 285 370 371 
353 371 268 370 
354 268 371 269 
371 268 286 269 
269 286 372 287 
354 372 355 269 
269 286 371 372 
354 372 269 371 
355 269 372 270 
372 269 287 270 
270 287 373 288 
355 373 356 270 
270 287 372 373 
355 373 270 372 
356 270 373 271 
373 270 288 271 
272 289 375 290 
357 375 358 272 
272 289 374 375 
357 375 272 374 
358 272 375 273 
375 272 290 273 
273 290 376 291 
358 376 359 273 
273 290 375 376 
358 376 273 375 
359 273 376 274 
376 273 291 274 
274 291 377 292 
359 377 360 274 
274 291 376 377 
359 377 274 376 
360 274 377 275 
377 274 292 275 
275 292 378 293 
360 378 361 275 
275 292 377 378 
360 378 275 377 
361 275 378 276 
378 275 293 276 
276 293 379 294 
361 379 362 276 
276 293 378 379 
361 379 276 378 
362 276 379 277 
379 276 294 277 
277 294 380 295 
362 380 363 277 
277 294 379 380 
362 380 277 379 
363 277 380 278 
380 277 295 278 
278 295 381 296 
363 381 364 278 
278 295 380 381 
363 381 278 380 
364 278 381 279 
381 278 296 279 
279 296 382 297 
364 382 365 279 
279 296 381 382 
364 382 279 381 
365 279 382 280 
382 279 297 280 
280 297 383 298 
365 383 366 280 
280 297 382 383 
365 383 280 382 
366 280 383 281 
383 280 298 281 
281 298 384 299 
366 384 367 281 
281 298 383 384 
366 384 281 383 
367 281 384 282 
384 281 299 282 
282 299 385 300 
367 385 368 282 
282 299 384 385 
367 385 282 384 
368 282 385 283 
385 282 300 283 
283 300 386 301 
368 386 369 283 
283 300 385 386 
368 386 283 385 
369 283 386 284 
386 283 301 284 
284 301 387 302 
369 387 370 284 
284 301 386 387 
369 387 284 386 
370 284 387 285 
387 284 302 285 
285 302 388 303 
370 388 371 285 
285 302 387 388 
370 388 285 387 
371 285 388 286 
388 285 303 286 
286 303 389 304 
371 389 372 286 
286 303 388 389 
371 389 286 388 
372 286 389 287 
389 286 304 287 
287 304 390 305 
372 390 373 287 
287 304 389 390 
372 390 287 389 
373 287 390 288 
390 287 305 288 
289 306 392 307 
374 392 375 289 
289 306 391 392 
374 392 289 391 
375 289 392 290 
392 289 307 290 
290 307 393 308 
375 393 376 290 
290 307 392 393 
375 393 290 392 
376 290 393 291 
393 290 308 291 
291 308 394 309 
376 394 377 291 
291 308 393 394 
376 394 291 393 
377 291 394 292 
394 291 309 292 
292 309 395 310 
377 395 378 292 
292 309 394 395 
377 395 292 394 
378 292 395 293 
395 292 310 293 
293 310 396 311 
378 396 379 293 
293 310 395 396 
378 396 293 395 
379 293 396 294 
396 293 311 294 
294 311 397 312 
379 397 380 294 
294 311 396 397 
379 397 294 396 
380 294 397 295 
397 294 312 295 
295 312 398 313 
380 398 381 295 
295 312 397 398 
380 398 295 397 
381 295 398 296 
398 295 313 296 
296 313 399 314 
381 399 382 296 
296 313 398 399 
381 399 296 398 
382 296 399 297 
399 296 314 297 
297 314 400 315 
382 400 383 297 
297 314 399 400 
382 400 297 399 
383 297 400 298 
400 297 315 298 
298 315 401 316 
383 401 384 298 
298 315 400 401 
383 401 298 400 
384 298 401 299 
401 298 316 299 
299 316 402 317 
384 402 385 299 
299 316 401 402 
384 402 299 401 
385 299 402 300 
402 299 317 300 
300 317 403 318 
385 403 386 300 
300 317 402 403 
385 403 300 402 
386 300 403 301 
403 300 318 301 
301 318 404 319 
386 404 387 301 
301 318 403 404 
386 404 301 403 
387 301 404 302 
404 301 319 302 
302 319 405 320 
387 405 388 302 
302 319 404 405 
387 405 302 404 
388 302 405 303 
405 302 320 303 
303 320 406 321 
388 406 389 303 
303 320 405 406 
388 406 303 405 
389 303 406 304 
406 303 321 304 
304 321 407 322 
389 407 390 304 
304 321 406 407 
389 407 304 406 
390 304 407 305 
407 304 322 305 
306 323 409 324 
391 409 392 306 
306 323 408 409 
391 409 306 408 
392 306 409 307 
409 306 324 307 
307 324 410 325 
392 410 393 307 
307 324 409 410 
392 410 307 409 
393 307 410 308 
410 307 325 308 
308 325 411 326 
393 411 394 308 
308 325 410 411 
393 411 308 410 
394 308 411 309 
411 308 326 309 
309 326 412 327 
394 412 395 309 
309 326 411 412 
394 412 309 411 
395 309 412 310 
412 309 327 310 
310 327 413 328 
395 413 396 310 
310 327 412 413 
395 413 310 412 
396 310 413 311 
413 310 328 311 
311 328 414 329 
396 414 397 311 
311 328 413 414 
396 414 311 413 
397 311 414 312 
414 311 329 312 
312 329 415 330 
397 415 398 312 
312 329 414 415 
397 415 312 414 
398 312 415 313 
415 312 330 313 
313 330 416 331 
398 416 399 313 
313 330 415 416 
398 416 313 415 
399 313 416 314 
416 313 331 314 
314 331 417 332 
399 417 400 314 
314 331 416 417 
399 417 314 416 
400 314 417 315 
417 314 332 315 
315 332 418 333 
400 418 401 315 
315 332 417 418 
400 418 315 417 
401 315 418 316 
418 315 333 316 
316 333 419 334 
401 419 402 316 
316 333 418 419 
401 419 316 418 
402 316 419 317 
419 316 334 317 
317 334 420 335 
402 420 403 317 
317 334 419 420 
402 420 317 419 
403 317 420 318 
420 317 335 318 
318 335 421 336 
403 421 404 318 
318 335 420 421 
403 421 318 420 
404 318 421 319 
421 318 336 319 
319 336 422 337 
404 422 405 319 
319 336 421 422 
404 422 319 421 
405 319 422 320 
422 319 337 320 
320 337 423 338 
405 423 406 320 
320 337 422 423 
405 423 320 422 
406 320 423 321 
423 320 338 321 
321 338 424 339 
406 424 407 321 
321 338 423 424 
406 424 321 423 
407 321 424 322 
424 321 339 322 
CELL_TYPES 1536
10 10 10 10 10 10 10 10 10 10 10 10 10 10 10 10 10 10 10 10 10 10 10 10 10 10 10 10 10 10 10 10 10 10 10 10 10 10 10 10 10 10 10 10 10 10 10 10 10 10 10 10 10 10 10 10 10 10 10 10 10 10 10 10 10 10 10 10 10 10 10 10 10 10 10 10 10 10 10 10 10 10 10 10 10 10 10 10 10 10 10 10 10 10 10 10 10 10 10 10 10 10 10 10 10 10 10 10 10 10 10 10 10 10 10 10 10 10 10 10 10 10 10 10 10 10 10 10 10 10 10 10 10 10 10 10 10 10 10 10 10 10 10 10 10 10 10 10 10 10 10 10 10 10 10 10 10 10 10 10 10 10 10 10 10 10 10 10 10 10 10 10 10 10 10 10 10 10 10 10 10 10 10 10 10 10 10 10 10 10 10 10 10 10 10 10 10 10 10 10 10 10 10 10 10 10 10 10 10 10 10 10 10 10 10 10 10 10 10 10 10 10 10 10 10 10 10 10 10 10 10 10 10 10 10 10 10 10 10 10 10 10 10 10 10 10 10 10 10 10 10 10 10 10 10 10 10 10 10 10 10 10 10 10 10 10 10 10 10 10 10 10 10 10 10 10 10 10 10 10 10 10 10 10 10 10 10 10 10 10 10 10 10 10 10 10 10 10 10 10 10 10 10 10 10 10 10 10 10 10 10 10 10 10 10 10 10 10 10 10 10 10 10 10 10 10 10 10 10 10 10 10 10 10 10 10 10 10 10 10 10 10 10 10 10 10 10 10 10 10 10 10 10 10 10 10 10 10 10 10 10 10 10 10 10 10 10 10 10 10 10 10 10 10 10 10 10 10 10 10 10 10 10 10 10 10 10 10 10 10 10 10 10 10 10 10 10 10 10 10 10 10 10 10 10 10 10 10 10 10 10 10 10 10 10 10 10 10 10 10 10 10 10 10 10 10 10 10 10 10 10 10 10 10 10 10 10 10 10 10 10 10 10 10 10 10 10 10 10 10 10 10 10 10 10 10 10 10 10 10 10 10 10 10 10 10 10 10 10 10 10 10 10 10 10 10 10 10 10 10 10 10 10 10 10 10 10 10 10 10 10 10 10 10 10 10 10 10 10 10 10 10 10 10 10 10 10 10 10 10 10 10 10 10 10 10 10 10 10 10 10 10 10 10 10 10 10 10 10 10 10 10 10 10 10 10 10 10 10 10 10 10 10 10 10 10 10 10 10 10 10 10 10 10 10 10 10 10 10 10 10 10 10 10 10 10 10 10 10 10 10 10 10 10 10 10 10 10 10 10 10 10 10 10 10 10 10 10 10 10 10 10 10 10 10 10 10 10 10 10 10 10 10 10 10 10 10 10 10 10 10 10 10 10 10 10 10 10 10 10 10 10 10 10 10 10 10 10 10 10 10 10 10 10 10 10 10 10 10 10 10 10 10 10 10 10 10 10 10 10 10 10 10 10 10 10 10 10 10 10 10 10 10 10 10 10 10 10 10 10 10 10 10 10 10 10 10 10 10 10 10 10 10 10 10 10 10 10 10 10 10 10 10 10 10 10 10 10 10 10 10 10 10 10 10 10 10 10 10 10 10 10 10 10 10 10 10 10 10 10 10 10 10 10 10 10 10 10 10 10 10 10 10 10 10 10 10 10 10 10 10 10 10 10 10 10 10 10 10 10 10 10 10 10 10 10 10 10 10 10 10 10 10 10 10 10 10 10 10 10 10 10 10 10 10 10 10 10 10 10 10 10 10 10 10 10 10 10 10 10 10 10 10 10 10 10 10 10 10 10 10 10 10 10 10 10 10 10 10 10 10 10 10 10 10 10 10 10 10 10 10 10 10 10 10 10 10 10 10 10 10 10 10 10 10 10 10 10 10 10 10 10 10 10 10 10 10 10 10 10 10 10 10 10 10 10 10 10 10 10 10 10 10 10 10 10 10 10 10 10 10 10 10 10 10 10 10 10 10 10 10 10 10 10 10 10 10 10 10 10 10 10 10 10 10 10 10 10 10 10 10 10 10 10 10 10 10 10 10 10 10 10 10 10 10 10 10 10 10 10 10 10 10 10 10 10 10 10 10 10 10 10 10 10 10 10 10 10 10 10 10 10 10 10 10 10 10 10 10 10 10 10 10 10 10 10 10 10 10 10 10 10 10 10 10 10 10 10 10 10 10 10 10 10 10 10 10 10 10 10 10 10 10 10 10 10 10 10 10 10 10 10 10 10 10 10 10 10 10 10 10 10 10 10 10 10 10 10 10 10 10 10 10 10 10 10 10 10 10 10 10 10 10 10 10 10 10 10 10 10 10 10 10 10 10 10 10 10 10 10 10 10 10 10 10 10 10 10 10 10 10 10 10 10 10 10 10 10 10 10 10 10 10 10 10 10 10 10 10 10 10 10 10 10 10 10 10 10 10 10 10 10 10 10 10 10 10 10 10 10 10 10 10 10 10 10 10 10 10 10 10 10 10 10 10 10 10 10 10 10 10 10 10 10 10 10 10 10 10 10 10 10 10 10 10 10 10 10 10 10 10 10 10 10 10 10 10 10 10 10 10 10 10 10 10 10 10 10 10 10 10 10 10 10 10 10 10 10 10 10 10 10 10 10 10 10 10 10 10 10 10 10 10 10 10 10 10 10 10 10 10 10 10 10 10 10 10 10 10 10 10 10 10 10 10 10 10 10 10 10 10 10 10 10 10 10 10 10 10 10 10 10 10 10 10 10 10 10 10 10 10 10 10 10 10 10 10 10 10 10 10 10 10 10 10 10 10 10 10 10 10 10 10 10 10 10 10 10 10 10 10 10 10 10 10 10 10 10 10 10 10 10 10 10 10 10 10 10 10 10 10 10 10 10 10 10 10 10 10 10 10 10 10 10 10 10 10 10 10 10 10 10 10 10 10 10 10 10 10 10 10 10 10 10 10 10 10 10 10 10 10 10 10 10 10 10 10 10 10 10 10 10 10 10 10 10 10 10 10 10 10 10 10 10 10 10 10 10 10 10 10 10 10 10 10 10 10 10 10 10 10 10 10 10 10 10 10 10 10 10 10 10 10 10 10 10 10 10 10 10 10 10 10 10 10 10 10 10 10 10 10 10 10 10 10 10 10 10 10 10 10 10 10 10 10 10 10 10 10 10 10 10 10 10 10 10 10 10 10 10 10 10 10 10 10 10 10 10 10 10 10 10 10 10 10 10 10 10 10 10 10 10 10 10 10 10 10 10 10 10 10 10 10 10 10 10 10 10 10 10 10 10 10 10 10 10 10 10 10 10 10 10 10 10 10 10 10 10 10 10 10 10 10 10 10 10 10 10 10 10 10 10 10 10 10 10 10 10 10 10 10 10 10 10 10 10 10 10 10 10 10 10 10 10 10 10 10 10 10 10 10 10 10 10 10 10 10 10 10 10 10 10 10 10 10 10 10 10 10 10 10 10 10 10 10 10 

POINT_DATA 425
SCALARS weights float 1
LOOKUP_TABLE default
3.90625 5.20833 5.20833 5.20833 5.20833 5.20833 5.20833 5.20833 5.20833 5.20833 5.20833 5.20833 5.20833 5.20833 5.20833 5.20833 1.30208 5.20833 7.8125 7.8125 7.8125 7.8125 7.8125 7.8125 7.8125 7.8125 7.8125 7.8125 7.8125 7.8125 7.8125 7.8125 7.8125 2.60417 5.20833 7.8125 7.8125 7.8125 7.8125 7.8125 7.8125 7.8125 7.8125 7.8125 7.8125 7.8125 7.8125 7.8125 7.8125 7.8125 2.60417 5.20833 7.8125 7.8125 7.8125 7.8125 7.8125 7.8125 7.8125 7.8125 7.8125 7.8125 7.8125 7.8125 7.8125 7.8125 7.8125 2.60417 1.30208 2.60417 2.60417 2.60417 2.60417 2.60417 2.60417 2.60417 2.60417 2.60417 2.60417 2.60417 2.60417 2.60417 2.60417 2.60417 1.30208 5.20833 7.8125 7.8125 7.8125 7.8125 7.8125 7.8125 7.8125 7.8125 7.8125 7.8125 7.8125 7.8125 7.8125 7.8125 7.8125 2.60417 7.8125 15.625 15.625 15.625 15.625 15.625 15.625 15.625 15.625 15.625 15.625 15.625 15.625 15.625 15.625 15.625 7.8125 7.8125 15.625 15.625 15.625 15.625 15.625 15.625 15.625 15.625 15.625 15.625 15.625 15.625 15.625 15.625 15.625 7.8125 7.8125 15.625 15.625 15.625 15.625 15.625 15.625 15.625 15.625 15.625 15.625 15.625 15.625 15.625 15.625 15.625 7.8125 2.60417 7.8125 7.8125 7.8125 7.8125 7.8125 7.8125 7.8125 7.8125 7.8125 7.8125 7.8125 7.8125 7.8125 7.8125 7.8125 5.20833 5.20833 7.8125 7.8125 7.8125 7.8125 7.8125 7.8125 7.8125 7.8125 7.8125 7.8125 7.8125 7.8125 7.8125 7.8125 7.8125 2.60417 7.8125 15.625 15.625 15.625 15.625 15.625 15.625 15.625 15.625 15.625 15.625 15.625 15.625 15.625 15.625 15.625 7.8125 7.8125 15.625 15.625 15.625 15.625 15.625 15.625 15.625 15.625 15.625 15.625 15.625 15.625 15.625 15.625 15.625 7.8125 7.8125 15.625 15.625 15.625 15.625 15.625 15.625 15.625 15.625 15.625 15.625 15.625 15.625 15.625 15.625 15.625 7.8125 2.60417 7.8125 7.8125 7.8125 7.8125 7.8125 7.8125 7.8125 7.8125 7.8125 7.8125 7.8125 7.8125 7.8125 7.8125 7.8125 5.20833 5.20833 7.8125 7.8125 7.8125 7.8125 7.8125 7.8125 7.8125 7.8125 7.8125 7.8125 7.8125 7.8125 7.8125 7.8125 7.8125 2.60417 7.8125 15.625 15.625 15.625 15.625 15.625 15.625 15.625 15.625 15.625 15.625 15.625 15.625 15.625 15.625 15.625 7.8125 7.8125 15.625 15.625 15.625 15.625 15.625 15.625 15.625 15.625 15.625 15.625 15.625 15.625 15.625 15.625 15.625 7.8125 7.8125 15.625 15.625 15.625 15.625 15.625 15.625 15.625 15.625 15.625 15.625 15.625 15.625 15.625 15.625 15.625 7.8125 2.60417 7.8125 7.8125 7.8125 7.8125 7.8125 7.8125 7.8125 7.8125 7.8125 7.8125 7.8125 7.8125 7.8125 7.8125 7.8125 5.20833 1.30208 2.60417 2.60417 2.60417 2.60417 2.60417 2.60417 2.60417 2.60417 2.60417 2.60417 2.60417 2.60417 2.60417 2.60417 2.60417 1.30208 2.60417 7.8125 7.8125 7.8125 7.8125 7.8125 7.8125 7.8125 7.8125 7.8125 7.8125 7.8125 7.8125 7.8125 7.8125 7.8125 5.20833 2.60417 7.8125 7.8125 7.8125 7.8125 7.8125 7.8125 7.8125 7.8125 7.8125 7.8125 7.8125 7.8125 7.8125 7.8125 7.8125 5.20833 2.60417 7.8125 7.8125 7.8125 7.8125 7.8125 7.8125 7.8125 7.8125 7.8125 7.8125 7.8125 7.8125 7.8125 7.8125 7.8125 5.20833 1.30208 5.20833 5.20833 5.20833 5.20833 5.20833 5.20833 5.20833 5.20833 5.20833 5.20833 5.20833 5.20833 5.20833 5.20833 5.20833 3.90625 
VECTORS u float
0 0 0  -0.00244208 -0.00381005 -0.00116265  -0.00444359 -0.00856697 -0.000762701  -0.00620741 -0.0144525 0.000321031  -0.00777429 -0.0213223 0.0018754  -0.00916445 -0.028995 0.00379872  -0.0103853 -0.0373114 0.00601923  -0.0114501 -0.0461282 0.00847471  -0.0123649 -0.0553141 0.0111206  -0.0131419 -0.0647497 0.0139163  -0.0137897 -0.0743303 0.016818  -0.0143204 -0.0839667 0.0197959  -0.0147493 -0.0935822 0.0228227  -0.0150895 -0.103112 0.0258721  -0.0153594 -0.112508 0.0289291  -0.0155783 -0.121739 0.0319916  -0.0157645 -0.13077 0.0350672  0 0 0  -6.1363e-05 -0.0025972 -0.000656009  -0.000761092 -0.0073515 0.000216603  -0.00145817 -0.0133507 0.00135493  -0.00211757 -0.0203611 0.00284898  -0.00273776 -0.0281781 0.00468659  -0.00331771 -0.0366362 0.00680876  -0.00385857 -0.045586 0.00917399  -0.0043577 -0.0548953 0.0117332  -0.00481582 -0.0644432 0.0144531  -0.00523424 -0.0741274 0.0172839  -0.00561023 -0.0838558 0.0202003  -0.00594378 -0.0935494 0.0231725  -0.00623727 -0.103146 0.0261848  -0.00649023 -0.112593 0.0292162  -0.00670934 -0.121858 0.0322658  -0.0068984 -0.130906 0.0353322  0 0 0  0.00128472 -0.00253859 0.000784397  0.00224262 -0.00682917 0.00117016  0.00272661 -0.0128007 0.00240588  0.00305057 -0.0198588 0.00385761  0.00326145 -0.0277434 0.00560534  0.00337708 -0.0362743 0.00762916  0.00341082 -0.0452945 0.00989485  0.00337362 -0.0546713 0.012363  0.00327659 -0.0642832 0.0149966  0.0031302 -0.0740261 0.0177555  0.00294805 -0.0838088 0.0206065  0.00274348 -0.0935525 0.0235237  0.00252581 -0.103196 0.026491  0.00231075 -0.112683 0.0294917  0.00210309 -0.121982 0.0325103  0.00191927 -0.131049 0.0355484  0 0 0  0.00244948 -0.00308233 0.00190341  0.00475723 -0.00722462 0.00263762  0.0066613 -0.0129001 0.0034672  0.00806868 -0.0198929 0.00482655  0.00917864 -0.0277569 0.00647759  0.0100415 -0.0362812 0.00840521  0.0106846 -0.0453045 0.010579  0.0111389 -0.0546848 0.0129611  0.011425 -0.0643041 0.0155165  0.0115678 -0.0740559 0.0182078  0.0115905 -0.0838523 0.020999  0.0115221 -0.0936121 0.0238649  0.011384 -0.103276 0.0267916  0.0112045 -0.11279 0.0297529  0.0110068 -0.122115 0.0327415  0.0108161 -0.131214 0.0357388  0 0 0  0.00322321 -0.00419599 0.0029546  0.00688815 -0.00844955 0.00396943  0.0102738 -0.0139021 0.00468719  0.0130813 -0.0205903 0.00571835  0.0152433 -0.0283119 0.00724268  0.0169504 -0.0367312 0.0090766  0.0182688 -0.0456673 0.0111693  0.0192494 -0.0549767 0.0134807  0.0199385 -0.0645344 0.0159748  0.0203738 -0.0742382 0.0186099  0.0205975 -0.0839981 0.0213529  0.0206521 -0.0937353 0.0241805  0.0205801 -0.103387 0.0270752  0.0204177 -0.112906 0.0300102  0.0202072 -0.122251 0.0329773  0.019989 -0.131384 0.0359509  0 0 0  -0.00278765 -0.00439799 -0.000692844  -0.00533217 -0.00944498 -0.000401974  -0.00755435 -0.015364 0.000587225  -0.00950718 -0.0221705 0.0020709  -0.0112174 -0.029756 0.00394392  -0.0127065 -0.0379801 0.00612068  -0.0139866 -0.0467057 0.00854266  -0.0150772 -0.0558072 0.0111561  -0.0159862 -0.0651654 0.0139297  -0.0167336 -0.0746789 0.0168114  -0.0173337 -0.0842569 0.0197753  -0.0178094 -0.0938242 0.0227911  -0.0181746 -0.103316 0.0258367  -0.0184584 -0.112688 0.0288918  -0.0186834 -0.121907 0.0319558  -0.0188768 -0.130954 0.0350301  0 0 0  -7.26283e-05 -0.00267276 -0.00027597  -0.00158587 -0.00805154 0.00020349  -0.00278455 -0.0141408 0.00124872  -0.0038349 -0.0211061 0.0027144  -0.0047735 -0.0288499 0.00454843  -0.00561738 -0.037228 0.00667393  -0.00637043 -0.0460992 0.00904882  -0.00704134 -0.0553346 0.011616  -0.00763154 -0.0648177 0.0143464  -0.00814724 -0.0744436 0.0171893  -0.00859141 -0.0841216 0.020118  -0.00896931 -0.0937725 0.0231026  -0.00928974 -0.103339 0.026126  -0.00955701 -0.112765 0.0291668  -0.00978422 -0.122023 0.0322238  -0.00998211 -0.131091 0.0352911  0 0 0  0.000486612 -0.00301328 0.000141621  0.00115556 -0.00748849 0.000614524  0.00123543 -0.0135324 0.00183499  0.00123084 -0.0205446 0.00332189  0.00116909 -0.0283611 0.00512528  0.00105762 -0.0368175 0.0072099  0.000904083 -0.0457675 0.00953555  0.000715256 -0.0550767 0.0120592  0.000500917 -0.0646289 0.0147461  0.000268459 -0.074318 0.0175552  2.40803e-05 -0.0840561 0.020449  -0.000222206 -0.0937617 0.023404  -0.000463247 -0.103376 0.0264052  -0.000691652 -0.112844 0.0294307  -0.000902891 -0.122133 0.0324707  -0.00109625 -0.131221 0.0355153  0 0 0  0.000938684 -0.00385302 0.0004071  0.00318819 -0.00801945 0.00142133  0.00491655 -0.0136163 0.00241041  0.00608838 -0.0205374 0.00388539  0.00698864 -0.0283287 0.00565755  0.00766993 -0.0367826 0.00770295  0.00816166 -0.0457402 0.0099895  0.00849056 -0.0550593 0.0124736  0.00867844 -0.0646247 0.0151229  0.00874782 -0.0743296 0.0178988  0.00872016 -0.0840843 0.0207652  0.00861859 -0.0938098 0.0236944  0.00846457 -0.103446 0.0266765  0.00827837 -0.112941 0.02968  0.00808406 -0.122255 0.0327028  0.00789261 -0.131368 0.0357178  0 0 0  0.00114712 -0.00520688 0.000645638  0.00495994 -0.0093115 0.00214064  0.00825447 -0.0146431 0.00311804  0.0109262 -0.0212002 0.00437164  0.0129312 -0.0288371 0.00609267  0.0144923 -0.0371873 0.00810611  0.0156846 -0.0460641 0.0103632  0.0165586 -0.0553203 0.0128211  0.0171647 -0.064832 0.0154473  0.0175402 -0.0744952 0.0182012  0.0177262 -0.084218 0.0210491  0.0177584 -0.0939245 0.0239646  0.017678 -0.103553 0.0269318  0.0175183 -0.113052 0.0299249  0.0173178 -0.122385 0.0329361  0.0171108 -0.131524 0.0359395  0 0 0  -0.00316404 -0.0049215 -6.09159e-05  -0.00613523 -0.0100165 0.000232339  -0.00878137 -0.0159241 0.00110841  -0.0111046 -0.0226967 0.00248826  -0.0131339 -0.0302396 0.00427186  -0.0148902 -0.0384177 0.00637388  -0.0163938 -0.0470954 0.00872874  -0.0176619 -0.05615 0.0112883  -0.0187159 -0.0654661 0.0140116  -0.0195692 -0.0749385 0.0168569  -0.0202518 -0.0844838 0.0197889  -0.0207827 -0.0940233 0.0227834  -0.0211887 -0.103497 0.0258114  -0.0214927 -0.112854 0.0288621  -0.0217295 -0.12207 0.0319269  -0.0219305 -0.131131 0.0350031  0 0 0  -0.000217885 -0.00295302 0.000105143  -0.00221786 -0.00840034 0.000517845  -0.00391614 -0.0145391 0.00143588  -0.00537664 -0.0215016 0.00282335  -0.00665629 -0.0292232 0.0046066  -0.0077796 -0.0375712 0.00670087  -0.00876439 -0.0464094 0.00904906  -0.00961864 -0.055612 0.0116  -0.0103574 -0.0650654 0.0143138  -0.0109825 -0.0746623 0.017149  -0.0115085 -0.0843164 0.0200716  -0.0119441 -0.0939496 0.023054  -0.0123034 -0.103502 0.0260775  -0.0125937 -0.112923 0.0291222  -0.0128348 -0.122183 0.0321842  -0.0130415 -0.131268 0.0352563  0 0 0  0.000290781 -0.0032053 0.000103474  0.000645101 -0.00748387 0.00062871  9.90033e-05 -0.0137571 0.00161386  -0.000332415 -0.0208131 0.00304854  -0.000728965 -0.0286293 0.00485325  -0.00111187 -0.037073 0.00695932  -0.00148821 -0.0460047 0.00931072  -0.00185394 -0.0552945 0.0118631  -0.00221014 -0.0648282 0.0145752  -0.0025506 -0.0745015 0.0174099  -0.00287271 -0.0842242 0.0203286  -0.00317287 -0.0939191 0.0233066  -0.00344849 -0.103524 0.026329  -0.00369978 -0.112992 0.0293703  -0.00392365 -0.122287 0.0324237  -0.00412655 -0.131397 0.0354769  0 0 0  0.00075832 -0.00388879 7.06911e-05  0.00222045 -0.0081988 0.000601172  0.00362641 -0.0137629 0.00166512  0.00442946 -0.0207217 0.00318062  0.00502658 -0.0285215 0.00502205  0.00545967 -0.0369741 0.00715065  0.00574815 -0.0459229 0.00951946  0.0059123 -0.0552344 0.0120811  0.00597 -0.0647896 0.0148002  0.00594068 -0.0744861 0.0176406  0.00584269 -0.0842319 0.0205647  0.00569081 -0.093953 0.0235429  0.0055058 -0.103585 0.026566  0.00530291 -0.11308 0.0296046  0.00509834 -0.122401 0.0326508  0.00490379 -0.131531 0.0356852  0 0 0  0.00111192 -0.00503284 7.92742e-05  0.00358605 -0.0097546 0.000469327  0.00675464 -0.0148684 0.00175726  0.00920379 -0.0213455 0.00321865  0.010942 -0.0289779 0.00509763  0.0122715 -0.0373287 0.00726259  0.0132688 -0.0462033 0.00965953  0.0139847 -0.0554581 0.0122461  0.0144627 -0.0649673 0.0149853  0.0147414 -0.0746286 0.0178398  0.0148566 -0.0843494 0.0207753  0.0148418 -0.0940549 0.0237653  0.0147319 -0.103683 0.026793  0.014559 -0.113183 0.0298361  0.0143533 -0.122522 0.0328819  0.0141487 -0.131675 0.0359117  0 0 0  -0.00346063 -0.00511249 0.000769258  -0.00682378 -0.0102778 0.00113547  -0.0098986 -0.0161548 0.0019002  -0.0126245 -0.0228942 0.00313938  -0.0149997 -0.0304262 0.00479829  -0.0170491 -0.0385992 0.00678885  -0.0187931 -0.0472721 0.00904667  -0.0202571 -0.0563225 0.0115201  -0.0214612 -0.0656321 0.0141739  -0.0224345 -0.0751004 0.0169557  -0.0232012 -0.0846393 0.0198406  -0.0237927 -0.0941748 0.0227968  -0.0242369 -0.103645 0.0258007  -0.0245643 -0.113002 0.0288376  -0.0248086 -0.122218 0.0319029  -0.0250084 -0.131285 0.0349903  0 0 0  -0.000270948 -0.00291021 0.000690579  -0.00276032 -0.00848413 0.00108659  -0.00493413 -0.0146208 0.00189829  -0.00682598 -0.0215725 0.00317276  -0.00847006 -0.0293019 0.00486839  -0.0098989 -0.0376611 0.00689209  -0.0111334 -0.0465094 0.00918305  -0.0121908 -0.0557211 0.0116851  -0.0130863 -0.0651806 0.0143623  -0.0138357 -0.074784 0.017163  -0.0144486 -0.0844394 0.0200651  -0.0149484 -0.0940765 0.0230294  -0.0153477 -0.103632 0.0260444  -0.015666 -0.113061 0.0290831  -0.015919 -0.122328 0.0321493  -0.0161326 -0.131428 0.0352281  0 0 0  0.000153989 -0.00318196 0.000215054  0.000221848 -0.00734913 0.000861406  -0.00086695 -0.0136562 0.00169265  -0.00176799 -0.0207462 0.00302637  -0.00254118 -0.0285979 0.00478649  -0.00323081 -0.0370721 0.00687301  -0.00385356 -0.0460284 0.00921905  -0.00441837 -0.0553412 0.0117686  -0.00492811 -0.0648932 0.0144845  -0.00538921 -0.0745827 0.0173218  -0.00579643 -0.084317 0.0202485  -0.00615692 -0.0940225 0.0232347  -0.00647259 -0.103638 0.026266  -0.0067482 -0.113117 0.029317  -0.00698757 -0.122426 0.03238  -0.00720072 -0.131555 0.0354418  0 0 0  0.000577956 -0.00374359 -0.000156999  0.00167727 -0.00797248 0.000306726  0.00268567 -0.0134097 0.0013715  0.00295067 -0.0205051 0.00276339  0.00316703 -0.0283799 0.00460303  0.00330412 -0.0368842 0.00676882  0.00335765 -0.0458747 0.00918663  0.00333333 -0.0552233 0.0117954  0.00324702 -0.0648093 0.0145617  0.00310564 -0.0745311 0.0174441  0.00292587 -0.0843002 0.0204053  0.00271988 -0.0940385 0.0234191  0.0024991 -0.103687 0.0264713  0.00227594 -0.113195 0.0295367  0.0020566 -0.122533 0.0325994  0.00185204 -0.131684 0.0356458  0 0 0  0.00101972 -0.00472814 -0.000451088  0.00317794 -0.00930232 -0.000188351  0.00560743 -0.0146025 0.00079596  0.00771272 -0.0210447 0.00237143  0.0090884 -0.0287511 0.00433326  0.0101237 -0.0371671 0.00659847  0.0108852 -0.0460973 0.00909877  0.0114131 -0.0554002 0.0117824  0.0117443 -0.0649526 0.0146095  0.0119109 -0.0746475 0.0175415  0.0119436 -0.0843989 0.0205454  0.0118725 -0.094128 0.0235943  0.0117252 -0.103776 0.0266687  0.0115306 -0.113295 0.0297502  0.0113139 -0.122649 0.0328246  0.0111027 -0.13182 0.0358721  0 0 0  -0.00339384 -0.00502431 0.00172544  -0.00710598 -0.0101831 0.00229955  -0.0106807 -0.0160567 0.00298572  -0.0139145 -0.0227966 0.0040555  -0.0167383 -0.0303396 0.00553918  -0.0191562 -0.0385418 0.00737643  -0.0211995 -0.0472503 0.00949931  -0.0229003 -0.0563324 0.0118563  -0.0242896 -0.0656714 0.0144093  -0.0253997 -0.0751651 0.0171094  -0.0262678 -0.0847243 0.0199254  -0.026926 -0.0942761 0.022831  -0.027411 -0.103758 0.0258005  -0.027761 -0.113124 0.0288165  -0.0280137 -0.122344 0.0318756  -0.0282083 -0.13142 0.0349748  0 0 0  -9.08673e-05 -0.00255261 0.00140977  -0.00301608 -0.00818039 0.00191164  -0.00568908 -0.0143318 0.00267816  -0.00808716 -0.0213033 0.00382233  -0.0101805 -0.0290662 0.00537968  -0.0119781 -0.0374773 0.00728703  -0.0135123 -0.0463827 0.00947785  -0.0148064 -0.0556456 0.0118964  -0.0158873 -0.0651519 0.0145013  -0.0167723 -0.0747949 0.017247  -0.0174882 -0.0844852 0.0200999  -0.0180545 -0.0941498 0.0230312  -0.0184979 -0.103728 0.026022  -0.0188401 -0.113172 0.0290496  -0.0191047 -0.122451 0.0321133  -0.0193186 -0.131565 0.035202  0 0 0  6.83963e-05 -0.00290182 0.000450134  5.00083e-05 -0.00671652 0.00146985  -0.00168127 -0.0131792 0.00211  -0.00311732 -0.0203431 0.00331426  -0.00433695 -0.0282562 0.00497413  -0.0053817 -0.0368023 0.0069921  -0.0062865 -0.0458317 0.00928712  -0.00707114 -0.0552094 0.0117977  -0.00775051 -0.0648192 0.0144825  -0.0083344 -0.0745586 0.0172997  -0.00883365 -0.0843358 0.0202079  -0.00925159 -0.0940744 0.0231872  -0.00960517 -0.103718 0.0262136  -0.00990009 -0.113217 0.0292668  -0.0101507 -0.122543 0.0323341  -0.0103667 -0.131692 0.0354071  0 0 0  0.000311852 -0.00338137 -0.000268459  0.00107574 -0.00743926 0.000238895  0.00175655 -0.0127357 0.00140548  0.00144958 -0.019981 0.00264382  0.00123012 -0.0279555 0.00441909  0.00103879 -0.0365528 0.00657201  0.000839353 -0.0456297 0.00899577  0.000623465 -0.055052 0.0116208  0.000390768 -0.0647036 0.0144031  0.000146389 -0.0744822 0.0173066  -0.000108242 -0.0842989 0.0202839  -0.000358582 -0.0940757 0.0233178  -0.000604391 -0.103754 0.0263882  -0.00083971 -0.113287 0.0294704  -0.00106192 -0.122642 0.0325489  -0.00126958 -0.131816 0.0356069  0 0 0  0.000733286 -0.00415891 -0.00086689  0.00245208 -0.0086202 -0.000699759  0.00443715 -0.0138926 0.000295639  0.00615442 -0.0203377 0.00193024  0.00705338 -0.0282274 0.00382209  0.00776899 -0.0367683 0.00611949  0.00829661 -0.0458018 0.00867915  0.00865054 -0.0551913 0.0114279  0.00885129 -0.0648194 0.0143142  0.0089283 -0.0745795 0.0173035  0.00889969 -0.0843835 0.0203562  0.00879216 -0.0941581 0.0234475  0.00862861 -0.10384 0.0265589  0.00842953 -0.113384 0.0296705  0.00821638 -0.122754 0.0327704  0.00800419 -0.13195 0.0358317  
SCALARS smooth_stress float 1
LOOKUP_TABLE default
1329 1922.59 1647.14 1490.22 1348.87 1211.82 1078.06 949.868 825.913 708.161 596.306 490.647 390.588 294.178 201.25 107.324 19.369 1305.07 2303.19 2120.6 2019.14 1896.19 1755.7 1606.18 1452.34 1295.91 1138.42 981.762 824.985 670.431 514.926 361.555 207.612 47.8961 1742.63 2595.8 2390.47 2165.62 2011.78 1841.69 1668.06 1494.37 1323.67 1155.23 990.973 829.007 670.5 512.38 355.145 200.177 51.1616 2559.2 3965.72 3595.65 3075.1 2590.86 2222.37 1894.45 1599.05 1334.71 1095.71 882.198 691.472 522.081 368.323 232.729 152.045 44.7255 757.352 1631.13 1530.89 1356.64 1119.28 926.375 769.522 631.809 511.465 405.298 312.905 233.566 166.731 110.465 65.0619 39.0765 17.6895 1942.19 3370.32 2878.17 2537.48 2255.85 1996.5 1751.42 1520.9 1304.55 1100.73 913.708 740.791 582.505 434.686 298.57 168.806 38.4805 1990.17 5224.38 5130.08 4508.35 4103.03 3728.81 3361.34 2998.86 2645.47 2297.19 1960.02 1631.5 1315.43 1007.06 707.945 420.759 130.816 2424.34 4846.69 4906.28 4271.06 3929.5 3603.08 3273.96 2943.8 2617.07 2293.18 1972.74 1655.28 1340.98 1029.13 716.44 415.381 140.13 3284.52 6839.53 6724.96 5667.99 4771.63 4139.58 3576.56 3065.55 2601.89 2179.42 1792.55 1437.82 1111.57 807.48 525.181 325.221 117.17 1303.44 4300.3 4511.89 3925.29 3225.52 2657.29 2211.17 1823.58 1484.95 1188.35 928.336 702.618 508.881 343.255 203.269 113.751 70.1163 2129.47 3815.39 3337.06 2933.79 2582.15 2260.26 1960.04 1680.1 1421.81 1182.23 965.099 771.284 597.484 441.433 302.271 178.82 43.3808 2127.89 5735.63 5995.64 5188.93 4615.1 4120.62 3657.35 3215.28 2796.03 2394.71 2011.74 1652.78 1313.12 992.924 690.05 412.747 133.656 2430.37 4730.16 5296.09 4598.39 4087.55 3696.04 3327.69 2970.95 2623.4 2284.62 1950.56 1623.89 1302.69 987.901 676.801 384.087 127.639 3130.92 6061.59 6339.62 5450.93 4456.08 3857.49 3340.35 2874.54 2450.79 2063.68 1706.25 1373.53 1061.95 766.798 487.511 290.63 99.7754 1246.04 3697.8 4147.07 3748.39 2997.3 2441.12 2028.47 1675.46 1368.56 1101.03 867.136 662.04 482.885 326.727 190.802 102.835 66.6882 2253.6 4262.48 3821.1 3404.72 2990.84 2597.15 2230.63 1891.62 1580.93 1298.46 1045.31 823.207 629.28 461.493 315.484 194.071 48.8765 2169.67 6306.06 6883.39 6010.71 5312.57 4690.71 4111.66 3567.88 3060.12 2586.03 2142.61 1735.45 1363.16 1021.53 708.042 433.236 146.974 2341.97 4774.68 5629.85 5097.24 4497.01 4022.13 3583.3 3166.98 2769.35 2388.02 2019.25 1662.46 1320.45 989.549 672.754 388.445 129.937 2888.22 5648.15 5797.07 5318.13 4301.53 3745.54 3263.56 2825.06 2423.99 2051.84 1704.02 1376.38 1065.49 767.597 485.798 288.297 96.9843 1159.22 3425.22 3612.31 3455.07 2763 2223.51 1857.38 1545.66 1274.66 1036.65 826.166 639.941 473.681 324.855 191.369 100.665 63.4835 563.249 1517.72 1410.58 1285.77 1136.5 983.865 840.335 707.874 587.704 478.583 382.366 298.042 225.734 164.471 112.816 70.9012 25.4418 710.927 3363.64 3948.2 3520.91 3127.69 2744.21 2381.24 2042.77 1731.31 1444.33 1183.5 947.405 738.098 551.465 386.667 244.888 107.82 735.057 2341.26 3106.69 2978.53 2611.79 2315.71 2043.85 1788.79 1549.49 1324.51 1112.38 910.408 721.631 543.43 377.116 229.73 97.349 870.699 2569.18 2778.93 2755.49 2284.38 2006.63 1762.56 1536.39 1326.88 1131.11 946.217 770.547 602.728 442.008 289.432 168.585 71.4841 524.042 2059.18 2186.38 2147.96 1765.01 1407.44 1191.96 1003.81 837.307 689.653 556.631 436.851 327.883 227.903 136.372 70.4245 49.3765 
CELL_DATA 1536
SCALARS stress float 1
LOOKUP_TABLE default
164.67 298.341 162.779 162.779 281.792 258.635 185.862 260.766 250.448 254.628 221.305 209.155 184.334 227.448 207.367 212.48 196.974 188.074 176.63 200.986 187.941 191.834 177.422 170.363 164.896 177.146 171.765 174.614 159.104 153.56 151.643 155.249 155.854 157.828 141.382 137.205 137.482 134.583 139.792 140.975 124.776 121.865 123.003 115.765 123.978 124.479 108.873 107.128 108.275 97.8845 108.387 108.243 93.9445 93.1768 93.8183 81.8183 93.1157 92.5148 79.859 79.914 79.4952 67.0822 78.3284 77.3272 66.7941 67.5063 65.4195 53.9055 63.9755 62.6806 54.5643 55.8013 51.6793 41.6946 50.5098 48.9741 42.9293 44.4355 38.1869 30.6201 37.2306 35.6272 31.7441 33.4039 25.0138 20.1383 24.7758 23.1258 20.7019 22.3465 11.4968 9.67383 12.6361 11.1002 8.95259 10.4164 196.51 133.366 185.662 185.662 138.48 137.943 210.56 214.019 214.843 247.108 144.988 135.633 196.508 167.919 197.17 205.691 144.628 141.347 190.807 151.644 186.236 188.221 140.122 139.161 179.374 139.724 174.654 173.842 132.712 132.952 165.746 128.412 161.349 159.139 124.124 125.313 150.924 117.06 147.224 144.117 114.736 116.559 135.716 105.747 132.409 128.887 104.784 107.176 120.224 94.3265 117.574 113.751 94.2516 97.0258 104.797 82.7333 102.544 98.6275 83.4721 86.5828 89.5837 71.1148 87.7517 83.7784 72.2974 75.6254 74.504 59.2984 72.9451 69.0255 60.7336 64.159 59.787 47.6739 58.6132 54.7986 48.8434 52.4123 45.0496 35.5558 44.3227 40.5565 36.4996 40.1541 30.7725 23.6541 30.5344 26.8065 23.8921 27.8611 15.8743 11.8413 17.2076 13.4595 11.0895 14.8934 309.679 176.075 243.278 243.278 191.063 197.081 295.069 175.066 300.786 308.177 178.173 190.532 278.52 149.979 268.561 268.642 154.983 161.214 240.465 138.552 229.306 225.894 146.845 153.461 214.507 128.916 205.334 200.238 136.148 142.332 189.958 118.885 182.525 176.894 124.938 130.591 166.515 108.724 160.811 155.123 113.487 118.661 144.63 98.2412 140.126 134.543 102.137 106.939 123.962 87.812 120.793 115.421 90.7188 95.1956 104.689 77.0863 102.543 97.4514 79.3629 83.5878 86.9147 66.2223 85.4412 80.6451 67.9697 72.1144 70.3831 54.9037 69.4018 64.7604 56.3109 60.5047 55.1317 43.5061 54.5977 49.9664 44.5079 48.9116 40.6752 31.5744 40.4016 35.685 32.1396 36.9129 26.8986 19.369 27.0152 21.9737 19.4306 24.8949 13.0057 7.74948 14.2612 8.72556 7.13167 13.2622 430.215 262.799 327.137 327.137 326.137 332.816 423.445 296.6 444.65 437.871 293.158 308.422 401.524 246.445 397.502 386.974 257.564 271.374 346.131 195.552 337.607 327.632 209.114 220.622 280.027 166.428 272.502 263.141 177.719 187.542 232.535 141.563 226.271 217.951 150.682 158.781 191.49 119.695 186.717 179.631 126.561 133.015 155.457 100.285 151.846 146.012 105.472 110.473 123.836 83.1191 121.7 117.032 86.4817 90.2717 96.0185 67.7601 95.1718 91.4813 69.6645 72.4704 72.1479 53.9394 72.2683 69.3813 54.7776 56.9158 51.89 41.3736 52.6122 50.2714 41.5184 43.2989 35.1277 30.0636 36.4143 34.3717 29.4852 31.1835 21.3547 19.1871 22.7987 20.8181 18.2281 20.1476 10.9252 9.98441 12.6344 10.6578 8.13061 10.5187 8.50332 9.23779 9.12934 9.0072 9.27145 9.18613 166.985 336.173 179.606 179.606 316.19 302.509 253.834 300.425 281.961 287.239 273.236 259.397 211.467 266.125 239.256 245.5 236.273 224.913 191.43 233.544 211.208 216.828 207.76 198.283 174.525 204.202 189.302 194.295 182.599 174.72 157.935 177.013 168.874 173.209 159.662 153.157 141.152 151.851 149.35 153.054 138.093 132.91 124.729 128.609 130.467 133.473 118.523 114.491 108.527 107.529 112.676 115.079 99.98 96.9759 92.8073 87.9326 95.2138 97.0387 83.3898 81.2297 77.5967 71.0913 79.023 80.3934 68.1522 66.7453 62.8877 55.9108 63.6701 64.5703 54.6592 53.7333 49.0941 42.6714 49.4034 50.0549 42.1129 41.6372 35.6475 30.7646 35.8963 36.2488 30.9236 30.5835 23.0687 20.4615 23.5519 23.8524 20.4081 20.0923 11.029 11.0102 12.2487 12.549 10.1181 9.73597 186.152 149.125 195.154 195.154 139.982 133.422 246.245 244.766 230.391 233.602 216.151 207.483 206.259 205.035 227.179 225.752 175.795 167.842 190.772 178.904 197.827 199.239 157.903 152.191 176.557 159.978 180.33 181.157 144.271 140.22 161.456 143.204 164.096 164.267 131.649 128.839 145.986 127.713 147.87 147.619 119.101 117.332 130.287 112.85 131.711 131.101 106.902 105.958 114.786 98.9203 115.868 115.017 94.6733 94.459 99.334 84.9792 100.201 99.1004 82.5766 82.8561 84.265 71.8447 84.7767 83.5964 70.4623 71.1937 69.3025 58.9593 69.7467 68.4217 58.2422 59.3418 54.9376 46.5173 55.2143 53.7362 46.2687 47.7205 40.6008 34.188 41.1872 39.5323 33.9916 35.5879 26.7945 22.4101 27.5445 25.8385 21.9785 23.7176 13.4903 11.4556 14.92 13.229 10.5825 12.2614 247.116 176.679 241.137 241.137 170.339 175.947 311.956 178.017 277.153 269.052 194.575 183.48 276.45 172.811 262.992 276.394 154.539 156.002 230.647 144.171 223.041 220.024 139.472 143.34 204.092 130.53 198.445 193.658 128.444 132.435 179.795 119.171 176.109 171.24 117.706 121.264 157.2 108.221 154.7 150.257 107.11 110.257 135.935 97.4277 134.648 130.627 96.4761 99.0968 116.265 86.71 115.648 112.246 85.8859 88.1925 97.8732 75.818 97.9986 95.0137 75.073 77.1528 80.8168 64.6837 81.2325 78.5895 64.1948 66.1571 64.7539 53.3836 65.5283 63.1229 52.92 54.734 49.8767 41.8465 50.6723 48.5182 41.5061 43.3453 35.5835 30.0841 36.5392 34.4608 29.4451 31.437 21.906 18.0649 23.0246 20.8996 17.2604 19.3394 8.93164 7.32097 10.4218 8.59076 6.71833 8.41303 335.117 243.601 314.048 314.048 248.015 264.95 442.719 257.723 368.753 350.661 299.216 302.496 392.159 224.118 385.896 384.254 241.349 252.404 332.143 171.406 321.963 313.41 185.629 199.257 265.392 145.259 256.425 244.128 156.171 168.518 219.079 124.285 212.724 201.318 132.009 142.493 179.972 105.78 175.494 165.631 111.198 119.726 145.735 89.5667 143.181 135.02 92.8981 99.6361 116.301 75.0696 115.005 108.411 76.8968 81.9925 90.4539 62.1768 90.5104 85.4058 62.5834 66.3315 68.1775 50.2158 69.1564 65.2832 49.7886 52.3856 49.0134 39.0385 50.7271 47.9515 37.9695 39.8604 33.0819 28.5423 35.1751 33.0686 27.1548 28.5254 19.464 18.275 21.921 20.3734 16.5126 17.6469 8.87828 9.05575 11.4532 10.3979 6.98256 7.8675 7.80416 8.77163 8.21387 8.87263 9.20382 7.97688 185.284 368.197 182.148 182.148 353.22 342.693 285.959 337.723 318.704 324.675 312.978 299.407 243.347 306.145 271.896 280.402 274.927 262.674 215.035 270.404 239.892 247.693 240.362 230.038 192.798 235.229 213.479 219.918 209.525 200.998 172.037 202.583 188.765 194.019 181.108 174.206 152.115 172.095 165.197 169.389 154.887 149.467 132.798 144.374 142.932 146.155 130.778 126.678 114.582 118.856 121.924 124.305 108.967 105.979 96.7359 96.3054 102.222 103.94 88.8263 86.7778 80.2201 76.2509 83.5909 84.7322 71.6081 70.2853 64.5121 59.1065 66.8817 67.6151 56.182 55.3687 50.0147 44.248 51.3457 51.8255 42.8219 42.3816 36.2566 31.6038 37.3769 37.6589 30.9164 30.6188 23.7843 20.8197 24.452 24.6948 20.6585 20.3247 12.3794 11.7862 13.3373 13.6525 11.4945 10.758 194.704 160.122 193.355 193.355 165.455 149.972 231.425 283.977 224.847 236.13 251.298 242.137 224.913 241.85 243.481 245.42 212.017 201.362 199.212 211.672 213.844 217.695 185.298 176.342 181.558 186.958 193.111 196.643 165.164 158.085 164.773 164.75 173.963 176.791 147.209 141.848 148.103 144.223 155.348 157.376 130.574 126.678 131.503 125.232 137.365 138.662 114.727 112.114 115.316 107.506 119.842 120.481 99.9646 98.3607 99.3166 90.9498 102.885 103.04 85.3595 84.6272 83.7651 75.0871 86.2637 85.9682 71.705 71.614 68.5239 60.7123 70.4067 69.8105 58.3623 58.8169 53.7536 46.9577 55.2302 54.331 45.6622 46.4205 39.5117 34.1407 40.6886 39.6796 33.0601 34.1057 25.7626 21.8932 26.9103 25.7657 21.2805 22.2637 13.1698 11.21 14.4034 13.4992 10.5202 11.2689 243.894 175.146 230.251 230.251 178.191 176.46 271.128 177.304 254.707 252.979 184.374 177.001 278.278 192.121 260.517 264.328 172.66 171.488 222.533 163.097 222.256 216.905 147.929 145.716 196.078 145.116 196.299 194.396 133.548 132.092 173.12 130.215 174.167 172.743 121.147 120.365 151.577 116.482 153.334 151.95 109.376 109.034 131.525 103.641 133.712 132.394 97.9101 97.8915 112.725 91.0508 115.124 113.875 86.6212 86.874 95.1655 78.7758 97.5068 96.2984 75.264 75.7817 78.5613 66.3733 80.883 79.657 63.9177 64.564 62.972 54.1692 64.9615 63.8246 52.3106 53.1689 48.2508 41.9955 50.066 48.8613 40.5288 41.5549 34.1453 29.7807 35.7028 34.4465 28.6108 29.7457 20.5359 17.6078 22.0703 20.8444 16.5033 17.6276 8.30897 6.92452 9.52485 8.70636 6.46158 6.76033 322.07 222.641 295.871 295.871 234.637 245.767 357.203 223.375 333.572 319.492 242.138 260.661 386.753 207.052 350.735 330.655 227.36 228.414 316.548 153.077 301.126 300.19 162.621 174.507 245.598 129.494 236.288 224.533 135.988 147.208 201.848 111.933 196.534 185.587 115.77 125.182 165.524 96.6657 162.888 153.72 98.3839 105.868 134.416 83.0766 133.648 126.322 83.313 89.0788 107.438 70.9288 108.17 102.439 69.9768 74.1323 84.1711 59.5326 85.7018 81.505 57.967 60.9158 63.9033 48.9082 66.244 63.1883 46.901 48.8202 46.5095 38.5627 49.1213 47.0686 36.5173 37.6494 31.6021 28.5397 34.3194 33.0614 26.4859 27.0649 18.7799 18.3753 21.4376 20.7555 16.4352 16.6991 8.48366 8.67377 10.7951 10.4127 6.92536 6.87372 8.0091 7.57288 7.74671 7.98048 8.49793 7.83616 194.635 386.56 176.689 176.689 390.829 377.85 324.508 375.108 353.427 365.219 354.058 337.664 278.008 355.406 311.471 326.006 318.076 303.158 245.251 319.717 279.705 292.568 279.951 267.122 217.825 278.144 248.028 258.687 242.913 232.261 192.311 237.394 216.886 225.415 208.625 199.991 168.065 199.916 187.749 194.4 176.744 169.968 145.257 165.883 160.337 165.33 147.836 142.754 123.767 135.157 135.296 138.827 121.29 117.693 103.764 107.905 111.93 114.232 97.9422 95.6336 84.8572 84.3596 90.8917 92.1592 77.2912 76.063 68.043 64.0766 71.8407 72.3146 59.6871 59.3106 52.4325 47.1333 54.9604 54.8369 44.6805 44.8762 38.5274 33.2568 39.8556 39.4008 32.0283 32.535 25.6656 21.7206 26.3982 25.8103 21.3576 21.9334 14.9128 12.8003 15.5317 15.0227 12.6415 12.9544 193.808 179.707 177.842 177.842 192.131 159.243 234.109 325.574 215.278 244.329 297.381 284.845 243.357 288.221 281.492 289.561 254.562 238.031 215.37 258.112 242.057 255.615 222.849 207.787 194.879 227.454 215.423 228.249 196.404 183.908 175.566 197.633 191.974 202.56 172.455 162.537 156.618 170.366 169.761 178.015 150.239 142.693 138.287 145.151 148.419 154.503 129.757 124.283 120.358 122.438 128.217 132.448 110.687 106.967 103.105 101.369 108.968 111.642 93.0849 90.8171 86.232 82.4621 90.6905 92.124 76.3412 75.2154 70.174 65.1877 73.1535 73.6366 61.3607 61.0758 54.7395 49.6946 56.9659 56.7851 47.1501 47.4386 40.1864 35.4666 41.5574 40.9778 34.1557 34.7916 26.4189 22.5181 27.4659 26.7146 21.8487 22.5643 14.6489 12.1249 15.4739 14.9562 11.8317 12.1375 233.479 172.932 206.441 206.441 186.049 172.874 252.768 196.682 235.234 245.422 211.367 170.291 260.981 242.337 248.236 283.735 203.254 189.005 217.005 202.807 227.708 237.234 175.166 160.879 194.45 176.744 200.847 211.612 155.445 144.055 172.828 155.015 178.802 187.65 138.277 129.833 152.081 135.705 157.789 164.351 122.444 116.482 132.586 117.905 137.616 142.123 107.749 103.837 114.002 101.45 118.556 121.32 93.6076 91.284 96.3373 85.9071 100.409 101.819 80.0923 79.0279 79.7359 71.114 83.1336 83.4644 66.7006 66.6544 63.8764 56.6548 66.6378 66.0831 53.7437 54.4294 48.8391 43.0538 51.0116 49.8393 40.8828 42.1596 34.4437 29.7125 36.1064 34.472 28.4232 29.9523 20.9481 17.231 22.0687 20.4337 16.3805 17.7474 9.46002 7.93044 10.3794 10.228 8.24542 7.4472 305.458 195.796 262.021 262.021 219.417 224.575 326.003 204.472 299.264 290.628 222.833 224.577 332.901 200.284 310.998 307.609 214.361 205.67 299.841 156.581 284.368 291.773 150.994 153.61 224.546 131.809 216.112 211.734 130.103 130.587 185.317 114.388 181.83 180.719 112.277 112.746 153.195 99.329 152.66 152.024 96.5673 97.1045 125.58 85.7383 126.76 126.165 82.7726 83.2972 101.541 73.4645 103.778 103.216 70.3034 70.8074 80.4529 61.9125 83.5617 82.9807 58.66 59.1065 62.1135 50.7646 65.2673 64.6893 47.8371 48.4142 45.997 39.9173 49.2612 48.5041 37.3596 38.003 32.029 29.177 34.8422 33.9984 27.0681 27.8428 19.7428 18.4267 21.9741 20.9714 16.8061 17.6535 9.43354 8.63788 10.8484 9.94904 7.81728 7.99572 8.07859 8.2357 7.26563 8.47697 9.55798 7.76167 
SCALARS volume float 1
LOOKUP_TABLE default
0.00260749 0.0025934 0.00260341 0.00260341 0.00260183 0.00259556 0.00260986 0.00259771 0.00260545 0.00261179 0.00260225 0.00259651 0.00260944 0.00259863 0.00260514 0.0026109 0.00260247 0.00259735 0.00260887 0.00259931 0.00260504 0.00261018 0.00260266 0.00259816 0.00260828 0.00259995 0.00260495 0.00260946 0.00260283 0.00259896 0.0026077 0.00260058 0.00260487 0.00260875 0.00260299 0.00259973 0.00260715 0.00260119 0.00260479 0.00260806 0.00260314 0.00260046 0.00260663 0.00260175 0.00260471 0.0026074 0.0026033 0.00260114 0.00260615 0.00260226 0.00260463 0.00260679 0.00260345 0.00260176 0.00260572 0.00260272 0.00260455 0.00260625 0.00260358 0.00260232 0.00260534 0.00260311 0.00260448 0.00260575 0.00260372 0.00260281 0.00260502 0.00260344 0.00260441 0.00260532 0.00260384 0.00260323 0.00260475 0.00260371 0.00260434 0.00260495 0.00260394 0.00260356 0.00260454 0.00260391 0.00260428 0.00260466 0.00260404 0.00260382 0.00260438 0.00260404 0.00260422 0.00260444 0.00260413 0.00260402 0.00260427 0.00260412 0.00260417 0.00260428 0.00260417 0.00260412 0.00261085 0.00259993 0.00260924 0.00260924 0.002604 0.0025976 0.00260924 0.00259879 0.00260533 0.00261165 0.00260318 0.00259718 0.00260954 0.00259892 0.00260548 0.00261147 0.00260321 0.00259782 0.00260905 0.00259952 0.00260523 0.00261062 0.00260334 0.00259859 0.00260846 0.00260013 0.00260501 0.00260976 0.00260345 0.00259936 0.00260787 0.00260073 0.00260484 0.00260894 0.00260356 0.0026001 0.00260731 0.00260129 0.0026047 0.00260816 0.00260365 0.00260079 0.00260677 0.00260182 0.00260458 0.00260744 0.00260373 0.00260143 0.00260629 0.00260229 0.00260448 0.00260679 0.00260381 0.00260199 0.00260584 0.0026027 0.0026044 0.00260622 0.00260387 0.0026025 0.00260545 0.00260307 0.00260433 0.00260571 0.00260393 0.00260293 0.00260512 0.00260338 0.00260427 0.00260528 0.00260399 0.00260329 0.00260484 0.00260362 0.00260423 0.00260493 0.00260403 0.00260358 0.00260461 0.00260382 0.00260421 0.00260466 0.00260408 0.00260381 0.00260444 0.00260396 0.00260418 0.00260445 0.00260412 0.00260397 0.00260433 0.00260406 0.00260417 0.00260432 0.00260415 0.00260407 0.00261406 0.00260053 0.00261394 0.00261394 0.00260213 0.00259643 0.00261002 0.0025993 0.00260649 0.00261216 0.0026032 0.00259783 0.00260947 0.00259933 0.00260598 0.00261133 0.00260339 0.00259824 0.00260921 0.00259977 0.00260555 0.00261069 0.00260358 0.00259899 0.00260861 0.00260032 0.00260515 0.00260974 0.00260377 0.00259979 0.00260798 0.00260089 0.00260484 0.00260882 0.00260392 0.00260056 0.00260738 0.00260142 0.00260461 0.00260797 0.00260403 0.00260125 0.00260682 0.00260192 0.00260443 0.00260721 0.00260411 0.00260187 0.00260631 0.00260237 0.00260429 0.00260653 0.00260417 0.00260241 0.00260585 0.00260277 0.00260419 0.00260595 0.00260421 0.00260287 0.00260544 0.00260312 0.00260412 0.00260546 0.00260423 0.00260325 0.00260509 0.0026034 0.00260408 0.00260506 0.00260424 0.00260356 0.0026048 0.00260362 0.00260405 0.00260474 0.00260423 0.00260379 0.00260458 0.0026038 0.00260406 0.00260451 0.00260421 0.00260394 0.00260441 0.00260392 0.00260409 0.00260436 0.00260419 0.00260403 0.00260432 0.002604 0.00260413 0.00260428 0.00260416 0.00260405 0.00261364 0.00259982 0.00261612 0.00261612 0.00259994 0.0025941 0.00261159 0.00259877 0.0026081 0.00261396 0.00260228 0.00259667 0.0026106 0.00259956 0.00260695 0.00261256 0.00260305 0.00259804 0.00260986 0.00259992 0.00260612 0.00261113 0.00260358 0.00259905 0.00260908 0.00260049 0.00260539 0.00260993 0.00260395 0.00260007 0.0026083 0.00260108 0.0026049 0.00260878 0.00260421 0.00260098 0.00260756 0.00260162 0.00260453 0.00260776 0.00260439 0.00260176 0.0026069 0.00260212 0.00260426 0.00260689 0.00260451 0.00260241 0.00260631 0.00260256 0.00260406 0.00260615 0.00260458 0.00260296 0.00260579 0.00260294 0.00260392 0.00260554 0.0026046 0.00260339 0.00260534 0.00260327 0.00260385 0.00260505 0.00260459 0.00260373 0.00260496 0.00260354 0.00260381 0.00260467 0.00260455 0.00260398 0.00260466 0.00260374 0.00260382 0.00260439 0.00260449 0.00260414 0.00260444 0.0026039 0.00260386 0.00260421 0.00260441 0.00260421 0.00260429 0.00260399 0.00260393 0.00260413 0.00260431 0.0026042 0.00260422 0.00260401 0.00260403 0.00260414 0.0026042 0.00260412 0.00260738 0.00259206 0.0026019 0.0026019 0.0026025 0.00259735 0.00261017 0.00259724 0.00260575 0.00261094 0.00260175 0.00259609 0.00260909 0.00259869 0.00260516 0.00261084 0.00260199 0.00259682 0.00260854 0.0025994 0.00260503 0.00261022 0.00260224 0.00259767 0.00260803 0.00260002 0.00260495 0.00260954 0.00260248 0.00259853 0.00260752 0.00260063 0.00260488 0.00260885 0.00260269 0.00259936 0.002607 0.00260122 0.00260482 0.00260817 0.0026029 0.00260014 0.00260653 0.00260176 0.00260475 0.00260752 0.0026031 0.00260088 0.00260608 0.00260226 0.00260468 0.0026069 0.00260329 0.00260155 0.00260568 0.00260271 0.0026046 0.00260634 0.00260347 0.00260215 0.00260533 0.0026031 0.00260452 0.00260584 0.00260365 0.00260269 0.00260502 0.00260342 0.00260443 0.00260539 0.0026038 0.00260314 0.00260477 0.00260369 0.00260435 0.00260501 0.00260394 0.00260352 0.00260456 0.00260388 0.00260428 0.0026047 0.00260405 0.00260381 0.00260441 0.00260402 0.00260421 0.00260446 0.00260415 0.00260401 0.00260429 0.0026041 0.00260415 0.00260429 0.00260419 0.00260412 0.00260884 0.00259933 0.0026072 0.0026072 0.0026048 0.00259953 0.00260784 0.00259741 0.00260402 0.00260929 0.00260182 0.00259501 0.00260931 0.00259888 0.00260522 0.00261206 0.00260281 0.00259676 0.00260888 0.00259956 0.00260495 0.00261101 0.00260306 0.00259778 0.00260833 0.00260015 0.0026048 0.0026101 0.00260322 0.0025987 0.00260777 0.00260072 0.00260469 0.00260922 0.00260335 0.00259956 0.00260722 0.00260128 0.00260461 0.00260841 0.00260346 0.00260036 0.0026067 0.0026018 0.00260454 0.00260764 0.00260358 0.00260108 0.00260623 0.00260227 0.00260447 0.00260697 0.00260368 0.00260173 0.00260581 0.00260268 0.00260441 0.00260636 0.00260377 0.0026023 0.00260544 0.00260305 0.00260436 0.00260583 0.00260386 0.0026028 0.00260512 0.00260335 0.00260431 0.00260537 0.00260394 0.00260321 0.00260485 0.00260359 0.00260427 0.00260499 0.00260401 0.00260355 0.00260464 0.00260379 0.00260423 0.00260469 0.00260407 0.0026038 0.00260447 0.00260393 0.0026042 0.00260448 0.00260413 0.00260397 0.00260435 0.00260403 0.00260417 0.00260432 0.00260416 0.00260409 0.00261043 0.00260013 0.00261207 0.00261207 0.00260176 0.00259703 0.0026103 0.00260029 0.00260717 0.00261193 0.00260412 0.00259744 0.00260933 0.00259951 0.0026052 0.00261186 0.00260358 0.00259736 0.00260929 0.00259979 0.00260502 0.00261125 0.00260371 0.00259838 0.0026087 0.0026003 0.00260481 0.00261015 0.00260383 0.00259928 0.00260807 0.00260085 0.00260461 0.00260916 0.00260393 0.00260014 0.00260744 0.00260139 0.00260446 0.00260825 0.00260401 0.0026009 0.00260687 0.0026019 0.00260433 0.00260745 0.00260407 0.00260158 0.00260634 0.00260236 0.00260425 0.00260673 0.00260412 0.00260218 0.00260587 0.00260274 0.00260417 0.00260611 0.00260415 0.00260269 0.00260546 0.00260309 0.00260412 0.00260558 0.00260417 0.00260312 0.00260512 0.00260338 0.00260408 0.00260514 0.00260418 0.00260346 0.00260483 0.0026036 0.00260408 0.0026048 0.00260419 0.00260372 0.00260461 0.00260378 0.00260408 0.00260455 0.00260418 0.00260391 0.00260445 0.00260391 0.00260411 0.00260437 0.00260418 0.00260402 0.00260435 0.00260398 0.00260413 0.00260429 0.00260416 0.00260407 0.00261019 0.00260017 0.00261575 0.00261575 0.00259854 0.00259393 0.00261211 0.00259984 0.00260981 0.00261445 0.00260296 0.00259692 0.00261102 0.00259944 0.00260647 0.0026125 0.00260357 0.00259803 0.0026101 0.00259971 0.00260562 0.00261117 0.00260396 0.0025989 0.00260935 0.00260032 0.00260493 0.00261 0.0026042 0.00259992 0.00260853 0.00260092 0.00260454 0.00260882 0.00260438 0.00260083 0.00260774 0.00260151 0.00260425 0.00260781 0.00260449 0.00260161 0.00260704 0.00260203 0.00260405 0.00260694 0.00260457 0.00260227 0.00260643 0.0026025 0.00260391 0.00260621 0.00260459 0.00260283 0.00260588 0.00260289 0.00260383 0.00260559 0.0026046 0.00260328 0.00260543 0.00260323 0.00260378 0.0026051 0.00260457 0.00260364 0.00260503 0.0026035 0.00260377 0.0026047 0.00260454 0.0026039 0.00260472 0.00260372 0.00260379 0.00260442 0.00260447 0.00260408 0.00260449 0.00260386 0.00260384 0.00260423 0.0026044 0.00260417 0.00260433 0.00260396 0.00260392 0.00260414 0.00260431 0.00260419 0.00260426 0.00260399 0.00260402 0.00260414 0.00260421 0.00260413 0.00260799 0.00259142 0.00260134 0.00260134 0.00260313 0.00259813 0.00261028 0.00259704 0.00260531 0.00261033 0.00260191 0.00259658 0.00260906 0.00259851 0.00260515 0.0026105 0.00260189 0.00259691 0.00260843 0.00259928 0.00260505 0.00261006 0.00260209 0.00259763 0.00260793 0.00259993 0.00260499 0.00260947 0.0026023 0.00259842 0.00260744 0.00260057 0.00260495 0.00260884 0.00260251 0.00259923 0.00260694 0.00260117 0.0026049 0.0026082 0.00260271 0.00259999 0.00260648 0.00260174 0.00260484 0.00260757 0.00260292 0.00260073 0.00260605 0.00260225 0.00260477 0.00260697 0.00260312 0.00260141 0.00260565 0.00260271 0.00260469 0.00260641 0.00260333 0.00260202 0.0026053 0.00260311 0.0026046 0.00260591 0.00260352 0.00260257 0.002605 0.00260344 0.00260451 0.00260546 0.00260369 0.00260304 0.00260475 0.0026037 0.00260442 0.00260507 0.00260386 0.00260343 0.00260456 0.0026039 0.00260433 0.00260475 0.002604 0.00260374 0.00260441 0.00260403 0.00260424 0.0026045 0.00260412 0.00260397 0.00260431 0.0026041 0.00260417 0.00260431 0.0026042 0.00260411 0.00260836 0.00259857 0.00260577 0.00260577 0.00260521 0.00260049 0.00260775 0.0025967 0.0026035 0.00260821 0.00260165 0.00259587 0.00260961 0.00259844 0.00260552 0.00261133 0.00260234 0.00259645 0.00260884 0.00259932 0.00260496 0.00261087 0.00260269 0.0025974 0.00260828 0.00259997 0.00260479 0.0026101 0.0026029 0.00259834 0.00260773 0.00260058 0.00260471 0.00260928 0.00260307 0.00259924 0.00260719 0.00260117 0.00260465 0.00260849 0.00260321 0.00260007 0.00260667 0.00260172 0.00260461 0.00260776 0.00260335 0.00260083 0.00260621 0.00260221 0.00260455 0.00260708 0.00260348 0.00260151 0.00260579 0.00260266 0.0026045 0.00260647 0.00260361 0.00260212 0.00260542 0.00260303 0.00260445 0.00260594 0.00260373 0.00260264 0.00260511 0.00260335 0.00260439 0.00260548 0.00260384 0.00260309 0.00260485 0.0026036 0.00260434 0.00260509 0.00260393 0.00260345 0.00260465 0.00260381 0.00260429 0.00260478 0.00260404 0.00260374 0.00260449 0.00260395 0.00260423 0.00260453 0.00260411 0.00260394 0.00260437 0.00260404 0.00260418 0.00260435 0.00260417 0.00260408 0.00260969 0.00259997 0.00261019 0.00261019 0.00260256 0.00259776 0.00260926 0.0025998 0.00260618 0.00261098 0.00260405 0.00259763 0.00260866 0.00259875 0.0026045 0.00261093 0.00260283 0.00259632 0.00260923 0.00259955 0.0026049 0.00261143 0.00260342 0.00259777 0.00260865 0.00260012 0.00260469 0.00261036 0.0026036 0.00259881 0.00260803 0.00260071 0.00260455 0.00260936 0.00260372 0.00259973 0.00260741 0.00260128 0.00260445 0.00260844 0.00260381 0.00260056 0.00260683 0.00260181 0.00260437 0.00260762 0.00260387 0.00260129 0.00260631 0.00260229 0.00260431 0.0026069 0.00260394 0.00260193 0.00260586 0.00260271 0.00260425 0.00260626 0.002604 0.00260249 0.00260545 0.00260307 0.00260421 0.00260572 0.00260404 0.00260296 0.00260512 0.00260337 0.00260418 0.00260527 0.00260408 0.00260335 0.00260484 0.0026036 0.00260417 0.0026049 0.00260411 0.00260364 0.00260464 0.00260378 0.00260415 0.00260462 0.00260413 0.00260387 0.00260447 0.0026039 0.00260415 0.00260442 0.00260416 0.002604 0.00260437 0.00260399 0.00260415 0.0026043 0.00260418 0.00260407 0.0026102 0.00259998 0.00261479 0.00261479 0.00259948 0.00259465 0.00261109 0.00259961 0.00260915 0.00261401 0.00260268 0.0025965 0.00261104 0.00259982 0.00260656 0.00261276 0.00260398 0.00259798 0.00261011 0.00259971 0.00260534 0.00261135 0.00260402 0.00259866 0.00260939 0.00260026 0.00260476 0.00261013 0.00260421 0.00259971 0.00260854 0.00260087 0.00260444 0.00260894 0.00260434 0.00260064 0.00260774 0.00260146 0.00260422 0.00260792 0.00260442 0.00260144 0.00260703 0.00260201 0.00260407 0.00260705 0.00260446 0.00260212 0.0026064 0.00260249 0.00260396 0.00260631 0.00260448 0.00260269 0.00260586 0.00260289 0.00260389 0.00260569 0.00260449 0.00260316 0.00260541 0.00260324 0.00260384 0.00260518 0.00260447 0.00260354 0.00260502 0.00260351 0.00260383 0.00260476 0.00260444 0.00260382 0.00260472 0.00260373 0.00260385 0.00260447 0.0026044 0.00260401 0.0026045 0.00260387 0.00260388 0.00260426 0.00260435 0.00260413 0.00260434 0.00260395 0.00260394 0.00260416 0.00260427 0.00260416 0.00260428 0.00260399 0.00260403 0.00260415 0.00260422 0.00260413 0.00260882 0.0025949 0.00260322 0.00260322 0.00260413 0.00259887 0.00261028 0.00259682 0.00260458 0.00260986 0.00260266 0.00259699 0.00260922 0.00259791 0.00260442 0.00261012 0.00260238 0.00259724 0.00260858 0.00259874 0.00260459 0.00260975 0.00260236 0.00259782 0.00260803 0.0025995 0.00260472 0.00260928 0.00260243 0.00259849 0.00260749 0.00260023 0.00260481 0.00260875 0.00260254 0.00259922 0.00260696 0.00260092 0.00260485 0.00260818 0.00260268 0.00259994 0.00260648 0.00260156 0.00260485 0.0026076 0.00260285 0.00260065 0.00260602 0.00260212 0.00260482 0.00260702 0.00260303 0.00260131 0.00260562 0.00260262 0.00260477 0.00260649 0.00260322 0.00260192 0.00260526 0.00260305 0.00260469 0.00260599 0.0026034 0.00260246 0.00260496 0.00260341 0.0026046 0.00260555 0.00260358 0.00260294 0.00260471 0.00260369 0.0026045 0.00260515 0.00260376 0.00260334 0.00260453 0.0026039 0.0026044 0.00260482 0.00260392 0.00260367 0.00260439 0.00260404 0.0026043 0.00260455 0.00260406 0.00260392 0.0026043 0.00260412 0.00260421 0.00260434 0.00260418 0.00260409 0.00260822 0.0025996 0.00260488 0.00260488 0.00260521 0.00260102 0.00260846 0.00259694 0.00260367 0.00260785 0.00260261 0.00259695 0.00260976 0.00259779 0.00260501 0.0026107 0.00260257 0.00259688 0.00260907 0.00259866 0.0026048 0.0026105 0.00260264 0.00259753 0.00260844 0.00259944 0.00260479 0.00260991 0.00260274 0.00259831 0.00260782 0.00260018 0.0026048 0.00260924 0.00260285 0.00259912 0.00260724 0.00260086 0.00260481 0.00260854 0.00260298 0.00259992 0.00260669 0.0026015 0.0026048 0.00260786 0.00260312 0.00260066 0.0026062 0.00260206 0.00260475 0.00260721 0.00260326 0.00260133 0.00260576 0.00260256 0.00260469 0.00260662 0.00260341 0.00260194 0.00260539 0.00260298 0.00260463 0.00260609 0.00260355 0.00260248 0.00260507 0.00260333 0.00260455 0.00260562 0.00260368 0.00260294 0.00260481 0.00260361 0.00260447 0.00260522 0.00260382 0.00260333 0.00260461 0.00260381 0.0026044 0.00260489 0.00260395 0.00260364 0.00260447 0.00260396 0.00260431 0.00260462 0.00260406 0.00260389 0.00260437 0.00260406 0.00260423 0.0026044 0.00260415 0.00260405 0.00260902 0.00259991 0.00260741 0.00260741 0.00260326 0.00259882 0.00260913 0.00259907 0.00260518 0.00260962 0.00260388 0.00259795 0.00260889 0.00259797 0.0026044 0.00261031 0.00260271 0.00259671 0.00260939 0.0025987 0.00260502 0.00261103 0.00260297 0.00259752 0.00260871 0.00259951 0.00260483 0.00261028 0.00260315 0.00259848 0.00260804 0.00260026 0.00260475 0.00260942 0.00260327 0.00259939 0.00260739 0.00260097 0.00260469 0.00260858 0.00260339 0.00260023 0.0026068 0.0026016 0.00260463 0.00260779 0.00260349 0.00260099 0.00260627 0.00260215 0.00260458 0.00260709 0.0026036 0.00260165 0.0026058 0.00260263 0.00260452 0.00260646 0.0026037 0.00260225 0.0026054 0.00260303 0.00260446 0.00260591 0.00260379 0.00260274 0.00260507 0.00260336 0.00260441 0.00260546 0.00260388 0.00260316 0.0026048 0.00260362 0.00260436 0.00260508 0.00260396 0.00260349 0.0026046 0.00260381 0.00260431 0.00260477 0.00260403 0.00260376 0.00260446 0.00260395 0.00260427 0.00260455 0.0026041 0.00260394 0.00260436 0.00260402 0.00260422 0.00260438 0.00260415 0.00260404 0.00261043 0.00259936 0.0026118 0.0026118 0.00260098 0.00259566 0.00261105 0.00259888 0.00260749 0.00261284 0.00260283 0.00259667 0.00261064 0.00259911 0.00260591 0.00261208 0.0026036 0.00259772 0.00260986 0.0025991 0.0026052 0.00261109 0.00260345 0.00259822 0.0026092 0.00259986 0.00260498 0.00261023 0.00260374 0.00259933 0.00260836 0.00260061 0.00260471 0.00260913 0.00260389 0.00260029 0.00260757 0.0026013 0.00260453 0.00260814 0.00260399 0.00260111 0.00260687 0.00260191 0.00260439 0.00260727 0.00260406 0.00260182 0.00260625 0.00260243 0.00260429 0.00260653 0.00260412 0.00260243 0.00260572 0.00260288 0.00260421 0.0026059 0.00260416 0.00260293 0.00260528 0.00260325 0.00260415 0.00260538 0.00260419 0.00260334 0.00260492 0.00260355 0.00260411 0.00260496 0.00260421 0.00260366 0.00260463 0.00260377 0.00260409 0.00260464 0.00260421 0.00260389 0.00260443 0.00260392 0.00260408 0.00260441 0.00260421 0.00260404 0.00260431 0.00260401 0.00260409 0.00260427 0.00260419 0.0026041 0.00260427 0.00260403 0.00260412 0.00260421 0.00260418 0.00260411 
SCALARS volume_diff float 1
LOOKUP_TABLE default
3.3183e-06 -1.07697e-05 -7.56544e-07 -7.56544e-07 -2.33777e-06 -8.60946e-06 5.68914e-06 -6.45903e-06 1.2846e-06 7.62412e-06 -1.92132e-06 -7.65299e-06 5.27222e-06 -5.53842e-06 9.76647e-07 6.73191e-06 -1.69765e-06 -6.82178e-06 4.70039e-06 -4.86057e-06 8.74822e-07 6.0151e-06 -1.51154e-06 -6.01029e-06 4.1121e-06 -4.21548e-06 7.82311e-07 5.29302e-06 -1.33971e-06 -5.21168e-06 3.53375e-06 -3.58233e-06 7.00355e-07 4.58149e-06 -1.17781e-06 -4.43775e-06 2.98054e-06 -2.97511e-06 6.23365e-07 3.89044e-06 -1.02213e-06 -3.70837e-06 2.46024e-06 -2.41725e-06 5.45134e-07 3.23666e-06 -8.69234e-07 -3.02897e-06 1.9862e-06 -1.9103e-06 4.6504e-07 2.62788e-06 -7.19292e-07 -2.40995e-06 1.55438e-06 -1.44991e-06 3.85568e-07 2.0784e-06 -5.82853e-07 -1.85038e-06 1.17347e-06 -1.05721e-06 3.0951e-07 1.57859e-06 -4.48432e-07 -1.35927e-06 8.49056e-07 -7.2519e-07 2.39039e-07 1.15018e-06 -3.28136e-07 -9.40946e-07 5.79283e-07 -4.61781e-07 1.70432e-07 7.83242e-07 -2.23673e-07 -6.06136e-07 3.69735e-07 -2.59373e-07 1.14553e-07 4.96705e-07 -1.23866e-07 -3.41951e-07 2.14825e-07 -1.26039e-07 5.09123e-08 2.68842e-07 -4.0823e-08 -1.5165e-07 1.01825e-07 -5.1378e-08 7.45058e-09 1.17968e-07 4.65661e-09 -4.54796e-08 6.67851e-06 -4.24031e-06 5.06888e-06 5.06888e-06 -1.71363e-07 -6.57172e-06 5.07788e-06 -5.3728e-06 1.16043e-06 7.48131e-06 -9.91548e-07 -6.98709e-06 5.37497e-06 -5.24241e-06 1.30975e-06 7.30654e-06 -9.60504e-07 -6.34339e-06 4.88137e-06 -4.6504e-06 1.0673e-06 6.45624e-06 -8.31361e-07 -5.57754e-06 4.2934e-06 -4.03853e-06 8.44089e-07 5.59725e-06 -7.12772e-07 -4.805e-06 3.7048e-06 -3.44062e-06 6.74278e-07 4.77303e-06 -6.09706e-07 -4.06274e-06 3.14104e-06 -2.87453e-06 5.3489e-07 3.99351e-06 -5.19212e-07 -3.37278e-06 2.60584e-06 -2.34942e-06 4.18164e-07 3.27608e-06 -4.35393e-07 -2.74057e-06 2.11876e-06 -1.87972e-06 3.17581e-07 2.62571e-06 -3.5918e-07 -2.17588e-06 1.6739e-06 -1.4628e-06 2.31899e-07 2.05077e-06 -2.94453e-07 -1.67141e-06 1.2784e-06 -1.09694e-06 1.67017e-07 1.54537e-06 -2.33296e-07 -1.23944e-06 9.49328e-07 -7.89762e-07 1.07413e-07 1.11448e-06 -1.7959e-07 -8.73425e-07 6.69621e-07 -5.47462e-07 6.45717e-08 7.58407e-07 -1.38767e-07 -5.89838e-07 4.46724e-07 -3.45676e-07 4.28408e-08 4.93911e-07 -9.04935e-08 -3.61664e-07 2.76292e-07 -2.10479e-07 1.58325e-08 2.86537e-07 -4.67214e-08 -2.00855e-07 1.61119e-07 -1.06326e-07 1.86265e-09 1.5522e-07 -1.1952e-08 -9.77889e-08 9.89592e-06 -3.63868e-06 9.77796e-06 9.77796e-06 -2.03804e-06 -7.73479e-06 5.85026e-06 -4.86663e-06 2.32675e-06 7.99075e-06 -9.68731e-07 -6.33191e-06 5.30761e-06 -4.83341e-06 1.81763e-06 7.1597e-06 -7.81535e-07 -5.92399e-06 5.04808e-06 -4.39414e-06 1.38053e-06 6.52485e-06 -5.86268e-07 -5.17908e-06 4.44086e-06 -3.84264e-06 9.80062e-07 5.57645e-06 -3.96743e-07 -4.37334e-06 3.81315e-06 -3.27748e-06 6.77382e-07 4.65817e-06 -2.48663e-07 -3.6067e-06 3.21462e-06 -2.74321e-06 4.44241e-07 3.80569e-06 -1.37991e-07 -2.91442e-06 2.65303e-06 -2.24278e-06 2.66358e-07 3.04574e-06 -5.51033e-08 -2.29447e-06 2.14453e-06 -1.79543e-06 1.26039e-07 2.36773e-06 5.89838e-09 -1.75911e-06 1.6798e-06 -1.39931e-06 1.92473e-08 1.78597e-06 4.34617e-08 -1.30059e-06 1.27063e-06 -1.04882e-06 -4.8584e-08 1.29609e-06 6.30195e-08 -9.17663e-07 9.22941e-07 -7.68186e-07 -9.03383e-08 8.90344e-07 7.38849e-08 -6.07378e-07 6.36404e-07 -5.41719e-07 -1.12845e-07 5.68728e-07 6.36404e-08 -3.79359e-07 4.09782e-07 -3.63216e-07 -1.0229e-07 3.40554e-07 4.12886e-08 -2.28329e-07 2.45559e-07 -2.42454e-07 -7.38849e-08 1.95267e-07 1.8316e-08 -1.35663e-07 1.49012e-07 -1.64534e-07 -3.63216e-08 1.16726e-07 -5.12227e-09 -1.12069e-07 9.46876e-06 -4.34431e-06 1.19492e-05 1.19492e-05 -4.22588e-06 -1.00699e-05 7.41985e-06 -5.40012e-06 3.93577e-06 9.79751e-06 -1.88795e-06 -7.49653e-06 6.4342e-06 -4.60772e-06 2.78217e-06 8.39153e-06 -1.12162e-06 -6.12841e-06 5.68852e-06 -4.24916e-06 1.95423e-06 6.96164e-06 -5.85181e-07 -5.11389e-06 4.91769e-06 -3.67624e-06 1.22624e-06 5.75868e-06 -2.17619e-07 -4.09549e-06 4.12886e-06 -3.09106e-06 7.28605e-07 4.60912e-06 4.4393e-08 -3.18637e-06 3.39746e-06 -2.54515e-06 3.61043e-07 3.59335e-06 2.2538e-07 -2.40918e-06 2.7356e-06 -2.04612e-06 8.87861e-08 2.72474e-06 3.41175e-07 -1.75182e-06 2.1439e-06 -1.60964e-06 -1.0555e-07 1.98806e-06 4.09472e-07 -1.21087e-06 1.62485e-06 -1.23059e-06 -2.44007e-07 1.37681e-06 4.30581e-07 -7.73929e-07 1.17347e-06 -9.00434e-07 -3.17581e-07 8.8693e-07 4.19095e-07 -4.35704e-07 7.97212e-07 -6.31282e-07 -3.553e-07 4.99499e-07 3.82463e-07 -1.84712e-07 4.96395e-07 -4.25459e-07 -3.46762e-07 2.20413e-07 3.24411e-07 -2.73188e-08 2.69152e-07 -2.70084e-07 -3.08268e-07 4.31513e-08 2.42144e-07 4.78079e-08 1.18899e-07 -1.79745e-07 -2.34072e-07 -3.97364e-08 1.40319e-07 3.44589e-08 5.43272e-08 -1.54134e-07 -1.32093e-07 -2.65427e-08 3.10441e-08 -4.20647e-08 3.21058e-06 -1.21091e-05 -2.26963e-06 -2.26963e-06 -1.66707e-06 -6.81542e-06 6.00455e-06 -6.92438e-06 1.58418e-06 6.76947e-06 -2.41709e-06 -8.07364e-06 4.92142e-06 -5.47866e-06 9.89065e-07 6.67727e-06 -2.17805e-06 -7.34255e-06 4.37349e-06 -4.76434e-06 8.63026e-07 6.04956e-06 -1.92241e-06 -6.49458e-06 3.86064e-06 -4.14206e-06 7.86657e-07 5.37404e-06 -1.68647e-06 -5.64164e-06 3.34842e-06 -3.53421e-06 7.17429e-07 4.68362e-06 -1.47227e-06 -4.80982e-06 2.83526e-06 -2.94919e-06 6.57203e-07 4.00251e-06 -1.26675e-06 -4.02673e-06 2.36059e-06 -2.40219e-06 5.83939e-07 3.34873e-06 -1.06807e-06 -3.29052e-06 1.91635e-06 -1.90424e-06 5.10365e-07 2.73623e-06 -8.77927e-07 -2.62028e-06 1.51433e-06 -1.45286e-06 4.29961e-07 2.17433e-06 -6.95853e-07 -2.01305e-06 1.15981e-06 -1.07024e-06 3.51419e-07 1.66924e-06 -5.17039e-07 -1.47537e-06 8.5216e-07 -7.42264e-07 2.61081e-07 1.22003e-06 -3.68338e-07 -1.02259e-06 6.00393e-07 -4.81183e-07 1.84402e-07 8.39122e-07 -2.24759e-07 -6.44786e-07 3.9457e-07 -2.8514e-07 1.08344e-07 5.2837e-07 -1.11759e-07 -3.61508e-07 2.39039e-07 -1.47459e-07 4.25304e-08 2.92435e-07 -1.56773e-08 -1.55997e-07 1.22003e-07 -6.89179e-08 -1.3349e-08 1.2666e-07 2.57666e-08 -4.7187e-08 4.67182e-06 -4.83263e-06 3.02897e-06 3.02897e-06 6.36093e-07 -4.63581e-06 3.67376e-06 -6.75581e-06 -1.5134e-07 5.12476e-06 -2.35066e-06 -9.16111e-06 5.14152e-06 -5.282e-06 1.04929e-06 7.89358e-06 -1.36113e-06 -7.40231e-06 4.71311e-06 -4.60663e-06 7.82932e-07 6.84274e-06 -1.10362e-06 -6.38686e-06 4.16394e-06 -4.01648e-06 6.32989e-07 5.92942e-06 -9.47776e-07 -5.46516e-06 3.60205e-06 -3.44279e-06 5.23093e-07 5.04994e-06 -8.15218e-07 -4.60694e-06 3.05629e-06 -2.88306e-06 4.40826e-07 4.23938e-06 -7.07805e-07 -3.80833e-06 2.53723e-06 -2.3654e-06 3.72219e-07 3.47787e-06 -5.90614e-07 -3.08594e-06 2.06567e-06 -1.89384e-06 3.04853e-07 2.80359e-06 -4.88944e-07 -2.4382e-06 1.64596e-06 -1.48236e-06 2.3966e-07 2.19078e-06 -3.98451e-07 -1.86715e-06 1.27312e-06 -1.11883e-06 1.92163e-07 1.6621e-06 -3.10751e-07 -1.36858e-06 9.51501e-07 -8.18012e-07 1.43113e-07 1.20172e-06 -2.26777e-07 -9.52122e-07 6.86695e-07 -5.75402e-07 1.00583e-07 8.26394e-07 -1.59722e-07 -6.19019e-07 4.70318e-07 -3.80601e-07 6.70552e-08 5.26508e-07 -9.42188e-08 -3.68959e-07 3.05474e-07 -2.3578e-07 3.57007e-08 3.10441e-07 -3.9426e-08 -1.91852e-07 1.86885e-07 -1.37525e-07 6.20882e-09 1.58014e-07 -2.01787e-09 -7.48162e-08 6.26345e-06 -4.03666e-06 7.89917e-06 7.89917e-06 -2.40219e-06 -7.13657e-06 6.13617e-06 -3.87865e-06 3.00445e-06 7.75885e-06 -4.73422e-08 -6.72213e-06 5.16574e-06 -4.65879e-06 1.02942e-06 7.69241e-06 -5.87509e-07 -6.81123e-06 5.12134e-06 -4.37628e-06 8.52781e-07 7.08705e-06 -4.56348e-07 -5.79096e-06 4.53244e-06 -3.86251e-06 6.42923e-07 5.98623e-06 -3.38536e-07 -4.88199e-06 3.90441e-06 -3.31209e-06 4.40516e-07 4.99096e-06 -2.37642e-07 -4.02797e-06 3.27763e-06 -2.77177e-06 2.91194e-07 4.08633e-06 -1.59256e-07 -3.2691e-06 2.70208e-06 -2.26296e-06 1.67328e-07 3.28043e-06 -9.98067e-08 -2.58458e-06 2.17215e-06 -1.8094e-06 8.00937e-08 2.56704e-06 -4.9981e-08 -1.99024e-06 1.70742e-06 -1.42182e-06 9.31323e-10 1.94243e-06 -1.62981e-08 -1.47692e-06 1.29361e-06 -1.07273e-06 -4.45483e-08 1.41716e-06 8.07146e-09 -1.05084e-06 9.52122e-07 -7.91314e-07 -8.39743e-08 9.75095e-07 1.70742e-08 -7.06563e-07 6.62791e-07 -5.64847e-07 -8.75443e-08 6.36404e-07 2.111e-08 -4.475e-07 4.46414e-07 -3.91e-07 -9.01831e-08 3.78427e-07 1.21072e-08 -2.57045e-07 2.86226e-07 -2.61236e-07 -6.14673e-08 2.07374e-07 8.69234e-09 -1.5134e-07 1.86575e-07 -1.84402e-07 -3.8029e-08 1.21382e-07 -3.72529e-09 -9.46845e-08 6.02348e-06 -3.99677e-06 1.15825e-05 1.15825e-05 -5.62565e-06 -1.02352e-05 7.9448e-06 -4.3246e-06 5.64381e-06 1.02868e-05 -1.21056e-06 -7.24585e-06 6.85453e-06 -4.72258e-06 2.30006e-06 8.33751e-06 -5.93718e-07 -6.13726e-06 5.9347e-06 -4.46072e-06 1.451e-06 6.99889e-06 -2.0396e-07 -5.26601e-06 5.18529e-06 -3.84621e-06 7.62443e-07 5.83318e-06 3.57007e-08 -4.24637e-06 4.3589e-06 -3.2424e-06 3.68804e-07 4.65723e-06 2.16067e-07 -3.33972e-06 3.57752e-06 -2.65598e-06 8.75443e-08 3.64768e-06 3.27205e-07 -2.56036e-06 2.87779e-06 -2.13288e-06 -1.1238e-07 2.77782e-06 3.99848e-07 -1.89214e-06 2.25908e-06 -1.66707e-06 -2.53165e-07 2.04115e-06 4.24062e-07 -1.33878e-06 1.71705e-06 -1.27514e-06 -3.38225e-07 1.42492e-06 4.30581e-07 -8.905e-07 1.25884e-06 -9.31943e-07 -3.90224e-07 9.31012e-07 4.06057e-07 -5.29146e-07 8.63647e-07 -6.67448e-07 -3.98917e-07 5.36131e-07 3.68804e-07 -2.67445e-07 5.55689e-07 -4.4719e-07 -3.79204e-07 2.56735e-07 3.0299e-07 -9.00279e-08 3.20996e-07 -3.02525e-07 -3.3062e-07 6.23986e-08 2.34072e-07 8.07146e-09 1.58635e-07 -2.0784e-07 -2.50371e-07 -2.42144e-08 1.39698e-07 1.89369e-08 9.28218e-08 -1.77727e-07 -1.49012e-07 -2.82501e-08 4.68766e-08 -3.49246e-08 3.8237e-06 -1.27459e-05 -2.82237e-06 -2.82237e-06 -1.0406e-06 -6.03963e-06 6.11134e-06 -7.12664e-06 1.14118e-06 6.16536e-06 -2.25209e-06 -7.58236e-06 4.88944e-06 -5.65546e-06 9.79131e-07 6.33517e-06 -2.27631e-06 -7.25919e-06 4.26639e-06 -4.88401e-06 8.85377e-07 5.88937e-06 -2.07623e-06 -6.5399e-06 3.76347e-06 -4.23395e-06 8.26083e-07 5.30606e-06 -1.86327e-06 -5.74611e-06 3.27205e-06 -3.60003e-06 7.79207e-07 4.674e-06 -1.65186e-06 -4.94144e-06 2.77472e-06 -2.99436e-06 7.3202e-07 4.02983e-06 -1.45271e-06 -4.17357e-06 2.31154e-06 -2.4278e-06 6.74278e-07 3.40057e-06 -1.24409e-06 -3.43705e-06 1.87848e-06 -1.91418e-06 6.03187e-07 2.79987e-06 -1.04293e-06 -2.76013e-06 1.4808e-06 -1.45426e-06 5.27129e-07 2.24666e-06 -8.39898e-07 -2.14577e-06 1.13808e-06 -1.05736e-06 4.33065e-07 1.74002e-06 -6.5146e-07 -1.60032e-06 8.32913e-07 -7.22862e-07 3.43037e-07 1.29299e-06 -4.77303e-07 -1.12923e-06 5.83318e-07 -4.66593e-07 2.50215e-07 9.02762e-07 -3.10907e-07 -7.37142e-07 3.91466e-07 -2.7117e-07 1.61429e-07 5.87975e-07 -1.67172e-07 -4.22044e-07 2.44007e-07 -1.38146e-07 7.79207e-08 3.32793e-07 -5.16884e-08 -1.95888e-07 1.41251e-07 -6.39508e-08 3.72529e-09 1.4808e-07 3.69425e-08 -5.44824e-08 4.19312e-06 -5.59865e-06 1.60405e-06 1.60405e-06 1.04184e-06 -3.67205e-06 3.58404e-06 -7.46533e-06 -6.68379e-07 4.04504e-06 -2.51426e-06 -8.2925e-06 5.44762e-06 -5.72763e-06 1.3529e-06 7.15846e-06 -1.82772e-06 -7.71787e-06 4.67338e-06 -4.84738e-06 7.91314e-07 6.70335e-06 -1.47351e-06 -6.76746e-06 4.11272e-06 -4.20042e-06 6.20261e-07 5.93004e-06 -1.26939e-06 -5.82682e-06 3.56014e-06 -3.58839e-06 5.41409e-07 5.10955e-06 -1.10005e-06 -4.92778e-06 3.01935e-06 -2.99995e-06 4.8615e-07 4.32165e-06 -9.60659e-07 -4.09937e-06 2.50557e-06 -2.44876e-06 4.44241e-07 3.5887e-06 -8.13821e-07 -3.33569e-06 2.03898e-06 -1.95609e-06 3.8712e-07 2.91256e-06 -6.81883e-07 -2.65737e-06 1.62392e-06 -1.51029e-06 3.30309e-07 2.30813e-06 -5.57397e-07 -2.04844e-06 1.25698e-06 -1.13947e-06 2.81259e-07 1.77386e-06 -4.34462e-07 -1.52333e-06 9.4343e-07 -8.16459e-07 2.26622e-07 1.31627e-06 -3.27049e-07 -1.07614e-06 6.82039e-07 -5.67331e-07 1.72605e-07 9.21699e-07 -2.34228e-07 -7.19912e-07 4.81183e-07 -3.61198e-07 1.27902e-07 6.13742e-07 -1.31472e-07 -4.25925e-07 3.22238e-07 -2.20723e-07 6.58135e-08 3.60732e-07 -5.46376e-08 -2.23828e-07 2.07064e-07 -1.29299e-07 1.76951e-08 1.86885e-07 8.07146e-09 -8.84756e-08 5.52088e-06 -4.19359e-06 6.02038e-06 6.02038e-06 -1.60948e-06 -6.40362e-06 5.08875e-06 -4.37132e-06 2.01042e-06 6.81759e-06 -1.18433e-07 -6.53664e-06 4.49643e-06 -5.41906e-06 3.36828e-07 6.7642e-06 -1.33753e-06 -7.84205e-06 5.05863e-06 -4.61641e-06 7.33882e-07 7.26028e-06 -7.44592e-07 -6.39834e-06 4.48463e-06 -4.04706e-06 5.27439e-07 6.19392e-06 -5.62984e-07 -5.35914e-06 3.86499e-06 -3.46157e-06 3.85568e-07 5.18995e-06 -4.48587e-07 -4.43449e-06 3.24783e-06 -2.88958e-06 2.83743e-07 4.2757e-06 -3.60732e-07 -3.60856e-06 2.66358e-06 -2.35345e-06 2.06133e-07 3.45769e-06 -2.95074e-07 -2.87887e-06 2.14049e-06 -1.8777e-06 1.4808e-07 2.73436e-06 -2.27864e-07 -2.23533e-06 1.68942e-06 -1.45985e-06 8.3819e-08 2.09299e-06 -1.67949e-07 -1.67483e-06 1.28212e-06 -1.09974e-06 4.65661e-08 1.555e-06 -1.24797e-07 -1.20808e-06 9.49018e-07 -8.01558e-07 1.80056e-08 1.10175e-06 -8.5216e-08 -8.1708e-07 6.70242e-07 -5.69504e-07 1.24176e-09 7.33572e-07 -6.06912e-08 -5.30699e-07 4.70628e-07 -3.86654e-07 -1.52116e-08 4.55106e-07 -3.38381e-08 -2.98799e-07 3.06095e-07 -2.64806e-07 -1.24176e-08 2.52388e-07 -8.53712e-09 -1.62671e-07 2.04891e-07 -1.78193e-07 -1.67638e-08 1.37215e-07 1.08654e-08 -1.00893e-07 6.03373e-06 -4.19018e-06 1.0622e-05 1.0622e-05 -4.68331e-06 -9.51284e-06 6.92594e-06 -4.561e-06 4.98289e-06 9.84222e-06 -1.48608e-06 -7.66246e-06 6.86944e-06 -4.34555e-06 2.38915e-06 8.59704e-06 -1.84247e-07 -6.18848e-06 5.94184e-06 -4.45498e-06 1.17471e-06 7.18391e-06 -1.49632e-07 -5.51141e-06 5.22441e-06 -3.90535e-06 5.94494e-07 5.9676e-06 3.9426e-08 -4.45358e-06 4.37411e-06 -3.30138e-06 2.72878e-07 4.77427e-06 1.6919e-07 -3.52521e-06 3.57566e-06 -2.70441e-06 5.02914e-08 3.74982e-06 2.5363e-07 -2.728e-06 2.8604e-06 -2.15725e-06 -1.00893e-07 2.88369e-06 2.9585e-07 -2.05093e-06 2.22928e-06 -1.67685e-06 -2.06754e-07 2.14204e-06 3.12924e-07 -1.47894e-06 1.69439e-06 -1.27607e-06 -2.73033e-07 1.51961e-06 3.27205e-07 -1.00691e-06 1.23835e-06 -9.26045e-07 -3.22859e-07 1.01142e-06 3.07957e-07 -6.24917e-07 8.54333e-07 -6.56582e-07 -3.35897e-07 5.97288e-07 2.73809e-07 -3.49401e-07 5.49791e-07 -4.36635e-07 -3.18047e-07 3.05163e-07 2.3252e-07 -1.54134e-07 3.28446e-07 -2.97713e-07 -2.89952e-07 9.65471e-08 1.87817e-07 -3.67872e-08 1.73847e-07 -2.12186e-07 -2.30192e-07 -5.58794e-09 1.06481e-07 -9.77889e-09 1.08654e-07 -1.72605e-07 -1.36904e-07 -2.06443e-08 4.90497e-08 -4.09782e-08 4.65591e-06 -9.26379e-06 -9.46612e-07 -9.46612e-07 -3.31396e-08 -5.29573e-06 6.11281e-06 -7.34294e-06 4.17155e-07 5.69279e-06 -1.50292e-06 -7.17918e-06 5.05669e-06 -6.25453e-06 2.57278e-07 5.95107e-06 -1.78325e-06 -6.92958e-06 4.4175e-06 -5.4241e-06 4.24606e-07 5.58662e-06 -1.80374e-06 -6.35046e-06 3.86367e-06 -4.66725e-06 5.55612e-07 5.11599e-06 -1.7356e-06 -5.67168e-06 3.32288e-06 -3.93476e-06 6.41604e-07 4.58855e-06 -1.62663e-06 -4.94788e-06 2.79886e-06 -3.24605e-06 6.83824e-07 4.01299e-06 -1.48461e-06 -4.22269e-06 2.31147e-06 -2.61026e-06 6.8848e-07 3.43216e-06 -1.31728e-06 -3.51504e-06 1.8545e-06 -2.04464e-06 6.56505e-07 2.85877e-06 -1.13567e-06 -2.858e-06 1.45279e-06 -1.54343e-06 6.01246e-07 2.32606e-06 -9.49095e-07 -2.24814e-06 1.09361e-06 -1.11549e-06 5.24567e-07 1.825e-06 -7.6221e-07 -1.70285e-06 7.91236e-07 -7.59882e-07 4.39196e-07 1.38107e-06 -5.81378e-07 -1.22368e-06 5.4723e-07 -4.75983e-07 3.39234e-07 9.82468e-07 -4.04892e-07 -8.21815e-07 3.66243e-07 -2.65505e-07 2.34616e-07 6.51538e-07 -2.4455e-07 -4.92592e-07 2.27786e-07 -1.27979e-07 1.34654e-07 3.82696e-07 -1.05162e-07 -2.43153e-07 1.3931e-07 -4.81959e-08 4.02797e-08 1.77805e-07 1.5134e-08 -7.25656e-08 4.0549e-06 -4.56589e-06 7.12384e-07 7.12384e-07 1.04549e-06 -3.14702e-06 4.29922e-06 -7.22978e-06 -4.99267e-07 3.68392e-06 -1.55135e-06 -7.21969e-06 5.59562e-06 -6.37824e-06 8.45253e-07 6.5347e-06 -1.5914e-06 -7.28364e-06 4.90706e-06 -5.50668e-06 6.3167e-07 6.33757e-06 -1.52357e-06 -6.63761e-06 4.27159e-06 -4.72514e-06 6.20804e-07 5.74401e-06 -1.42516e-06 -5.85391e-06 3.65288e-06 -3.98769e-06 6.37257e-07 5.07346e-06 -1.31231e-06 -5.04148e-06 3.06956e-06 -3.30068e-06 6.43466e-07 4.37776e-06 -1.19031e-06 -4.2497e-06 2.52567e-06 -2.66987e-06 6.29496e-07 3.69355e-06 -1.04999e-06 -3.51039e-06 2.03269e-06 -2.10533e-06 5.8293e-07 3.04628e-06 -9.09359e-07 -2.83471e-06 1.59683e-06 -1.60956e-06 5.2643e-07 2.45365e-06 -7.59416e-07 -2.22097e-06 1.22585e-06 -1.18845e-06 4.60306e-07 1.92341e-06 -6.20028e-07 -1.68717e-06 9.07962e-07 -8.34698e-07 3.8518e-07 1.4531e-06 -4.82813e-07 -1.22477e-06 6.48744e-07 -5.5825e-07 3.0819e-07 1.05045e-06 -3.5041e-07 -8.40596e-07 4.49441e-07 -3.50721e-07 2.31201e-07 7.21387e-07 -2.18783e-07 -5.25344e-07 3.0105e-07 -2.01709e-07 1.45209e-07 4.51924e-07 -1.08421e-07 -2.79785e-07 1.99536e-07 -1.09974e-07 6.13897e-08 2.33063e-07 -1.0943e-08 -1.16338e-07 4.85491e-06 -4.25482e-06 3.24838e-06 3.24838e-06 -9.07341e-07 -5.34494e-06 4.96139e-06 -5.0969e-06 1.00979e-06 5.44971e-06 -2.8677e-07 -6.21215e-06 4.72514e-06 -6.19089e-06 2.36478e-07 6.14727e-06 -1.45977e-06 -7.45811e-06 5.22588e-06 -5.46073e-06 8.49909e-07 6.86098e-06 -1.199e-06 -6.64351e-06 4.54757e-06 -4.6598e-06 6.61161e-07 6.1125e-06 -1.01894e-06 -5.68968e-06 3.87578e-06 -3.90185e-06 5.81068e-07 5.25631e-06 -8.94458e-07 -4.77373e-06 3.22633e-06 -3.20026e-06 5.28293e-07 4.41067e-06 -7.80371e-07 -3.9374e-06 2.63029e-06 -2.5682e-06 4.69309e-07 3.62929e-06 -6.76528e-07 -3.18008e-06 2.10037e-06 -2.01515e-06 4.14361e-07 2.92024e-06 -5.6865e-07 -2.51123e-06 1.63346e-06 -1.53567e-06 3.51652e-07 2.29594e-06 -4.66825e-07 -1.91938e-06 1.23206e-06 -1.13598e-06 2.92979e-07 1.74646e-06 -3.71831e-07 -1.42252e-06 8.9958e-07 -8.0443e-07 2.39893e-07 1.29136e-06 -2.82268e-07 -1.00373e-06 6.3167e-07 -5.44746e-07 1.91154e-07 9.13239e-07 -2.04813e-07 -6.71251e-07 4.32987e-07 -3.51186e-07 1.40552e-07 6.07455e-07 -1.33102e-07 -4.08773e-07 2.89874e-07 -2.20025e-07 1.04231e-07 3.79902e-07 -6.41837e-08 -2.27476e-07 1.93948e-07 -1.48934e-07 5.14556e-08 2.14437e-07 -1.07878e-08 -1.2115e-07 6.26772e-06 -4.80182e-06 7.63832e-06 7.63832e-06 -3.18505e-06 -8.50957e-06 6.88519e-06 -5.2889e-06 3.32474e-06 8.6724e-06 -1.33606e-06 -7.49257e-06 6.47851e-06 -5.05204e-06 1.74739e-06 7.91741e-06 -5.62596e-07 -6.44964e-06 5.68937e-06 -5.06787e-06 1.03462e-06 6.92306e-06 -7.12384e-07 -5.94999e-06 5.03589e-06 -4.30155e-06 8.17624e-07 6.06532e-06 -4.29573e-07 -4.83768e-06 4.19739e-06 -3.55897e-06 5.4754e-07 4.96015e-06 -2.74973e-07 -3.87935e-06 3.40235e-06 -2.86545e-06 3.65001e-07 3.9717e-06 -1.75477e-07 -3.05357e-06 2.69983e-06 -2.25807e-06 2.28407e-07 3.10775e-06 -1.02834e-07 -2.34235e-06 2.07957e-06 -1.73094e-06 1.23167e-07 2.36362e-06 -4.88168e-08 -1.73979e-06 1.55678e-06 -1.28623e-06 4.6799e-08 1.7387e-06 -6.90731e-09 -1.23998e-06 1.11347e-06 -9.13705e-07 -1.55997e-08 1.21778e-06 2.35159e-08 -8.24609e-07 7.49637e-07 -6.18321e-07 -5.456e-08 7.9403e-07 4.05901e-08 -5.04389e-07 4.66825e-07 -3.9263e-07 -7.19447e-08 4.73345e-07 4.71094e-08 -2.75283e-07 2.65039e-07 -2.4486e-07 -8.2034e-08 2.40514e-07 4.71094e-08 -1.29531e-07 1.44898e-07 -1.56385e-07 -7.39625e-08 1.02368e-07 2.91038e-08 -6.17001e-08 1.00505e-07 -1.32636e-07 -4.24528e-08 4.83512e-08 9.8565e-09 -5.14556e-08 
