# vtk DataFile Version 5.1
vtk output
ASCII

DATASET UNSTRUCTURED_GRID
POINTS 2673 float
0 0 2.2
0.25 0 2.2
0.5 0 2.2
0.75 0 2.2
1 0 2.2
1.25 0 2.2
1.5 0 2.2
1.75 0 2.2
2 0 2.2
2.25 0 2.2
2.5 0 2.2
2.75 0 2.2
3 0 2.2
3.25 0 2.2
3.5 0 2.2
3.75 0 2.2
4 0 2.2
0 0.25 2.2
0.25 0.25 2.2
0.5 0.25 2.2
0.75 0.25 2.2
1 0.25 2.2
1.25 0.25 2.2
1.5 0.25 2.2
1.75 0.25 2.2
2 0.25 2.2
2.25 0.25 2.2
2.5 0.25 2.2
2.75 0.25 2.2
3 0.25 2.2
3.25 0.25 2.2
3.5 0.25 2.2
3.75 0.25 2.2
4 0.25 2.2
0 0.5 2.2
0.25 0.5 2.2
0.5 0.5 2.2
0.75 0.5 2.2
1 0.5 2.2
1.25 0.5 2.2
1.5 0.5 2.2
1.75 0.5 2.2
2 0.5 2.2
2.25 0.5 2.2
2.5 0.5 2.2
2.75 0.5 2.2
3 0.5 2.2
3.25 0.5 2.2
3.5 0.5 2.2
3.75 0.5 2.2
4 0.5 2.2
0 0.75 2.2
0.25 0.75 2.2
0.5 0.75 2.2
0.75 0.75 2.2
1 0.75 2.2
1.25 0.75 2.2
1.5 0.75 2.2
1.75 0.75 2.2
2 0.75 2.2
2.25 0.75 2.2
2.5 0.75 2.2
2.75 0.75 2.2
3 0.75 2.2
3.25 0.75 2.2
3.5 0.75 2.2
3.75 0.75 2.2
4 0.75 2.2
0 1 2.2
0.25 1 2.2
0.5 1 2.2
0.75 1 2.2
1 1 2.2
1.25 1 2.2
1.5 1 2.2
1.75 1 2.2
2 1 2.2
2.25 1 2.2
2.5 1 2.2
2.75 1 2.2
3 1 2.2
3.25 1 2.2
3.5 1 2.2
3.75 1 2.2
4 1 2.2
0 0 2.45
0.25 0 2.45
0.5 0 2.45
0.75 0 2.45
1 0 2.45
1.25 0 2.45
1.5 0 2.45
1.75 0 2.45
2 0 2.45
2.25 0 2.45
2.5 0 2.45
2.75 0 2.45
3 0 2.45
3.25 0 2.45
3.5 0 2.45
3.75 0 2.45
4 0 2.45
0 0.25 2.45
0.25 0.25 2.45
0.5 0.25 2.45
0.75 0.25 2.45
1 0.25 2.45
1.25 0.25 2.45
1.5 0.25 2.45
1.75 0.25 2.45
2 0.25 2.45
2.25 0.25 2.45
2.5 0.25 2.45
2.75 0.25 2.45
3 0.25 2.45
3.25 0.25 2.45
3.5 0.25 2.45
3.75 0.25 2.45
4 0.25 2.45
0 0.5 2.45
0.25 0.5 2.45
0.5 0.5 2.45
0.75 0.5 2.45
1 0.5 2.45
1.25 0.5 2.45
1.5 0.5 2.45
1.75 0.5 2.45
2 0.5 2.45
2.25 0.5 2.45
2.5 0.5 2.45
2.75 0.5 2.45
3 0.5 2.45
3.25 0.5 2.45
3.5 0.5 2.45
3.75 0.5 2.45
4 0.5 2.45
0 0.75 2.45
0.25 0.75 2.45
0.5 0.75 2.45
0.75 0.75 2.45
1 0.75 2.45
1.25 0.75 2.45
1.5 0.75 2.45
1.75 0.75 2.45
2 0.75 2.45
2.25 0.75 2.45
2.5 0.75 2.45
2.75 0.75 2.45
3 0.75 2.45
3.25 0.75 2.45
3.5 0.75 2.45
3.75 0.75 2.45
4 0.75 2.45
0 1 2.45
0.25 1 2.45
0.5 1 2.45
0.75 1 2.45
1 1 2.45
1.25 1 2.45
1.5 1 2.45
1.75 1 2.45
2 1 2.45
2.25 1 2.45
2.5 1 2.45
2.75 1 2.45
3 1 2.45
3.25 1 2.45
3.5 1 2.45
3.75 1 2.45
4 1 2.45
0 0 2.7
0.25 0 2.7
0.5 0 2.7
0.75 0 2.7
1 0 2.7
1.25 0 2.7
1.5 0 2.7
1.75 0 2.7
2 0 2.7
2.25 0 2.7
2.5 0 2.7
2.75 0 2.7
3 0 2.7
3.25 0 2.7
3.5 0 2.7
3.75 0 2.7
4 0 2.7
0 0.25 2.7
0.25 0.25 2.7
0.5 0.25 2.7
0.75 0.25 2.7
1 0.25 2.7
1.25 0.25 2.7
1.5 0.25 2.7
1.75 0.25 2.7
2 0.25 2.7
2.25 0.25 2.7
2.5 0.25 2.7
2.75 0.25 2.7
3 0.25 2.7
3.25 0.25 2.7
3.5 0.25 2.7
3.75 0.25 2.7
4 0.25 2.7
0 0.5 2.7
0.25 0.5 2.7
0.5 0.5 2.7
0.75 0.5 2.7
1 0.5 2.7
1.25 0.5 2.7
1.5 0.5 2.7
1.75 0.5 2.7
2 0.5 2.7
2.25 0.5 2.7
2.5 0.5 2.7
2.75 0.5 2.7
3 0.5 2.7
3.25 0.5 2.7
3.5 0.5 2.7
3.75 0.5 2.7
4 0.5 2.7
0 0.75 2.7
0.25 0.75 2.7
0.5 0.75 2.7
0.75 0.75 2.7
1 0.75 2.7
1.25 0.75 2.7
1.5 0.75 2.7
1.75 0.75 2.7
2 0.75 2.7
2.25 0.75 2.7
2.5 0.75 2.7
2.75 0.75 2.7
3 0.75 2.7
3.25 0.75 2.7
3.5 0.75 2.7
3.75 0.75 2.7
4 0.75 2.7
0 1 2.7
0.25 1 2.7
0.5 1 2.7
0.75 1 2.7
1 1 2.7
1.25 1 2.7
1.5 1 2.7
1.75 1 2.7
2 1 2.7
2.25 1 2.7
2.5 1 2.7
2.75 1 2.7
3 1 2.7
3.25 1 2.7
3.5 1 2.7
3.75 1 2.7
4 1 2.7
0 0 2.95
0.25 0 2.95
0.5 0 2.95
0.75 0 2.95
1 0 2.95
1.25 0 2.95
1.5 0 2.95
1.75 0 2.95
2 0 2.95
2.25 0 2.95
2.5 0 2.95
2.75 0 2.95
3 0 2.95
3.25 0 2.95
3.5 0 2.95
3.75 0 2.95
4 0 2.95
0 0.25 2.95
0.25 0.25 2.95
0.5 0.25 2.95
0.75 0.25 2.95
1 0.25 2.95
1.25 0.25 2.95
1.5 0.25 2.95
1.75 0.25 2.95
2 0.25 2.95
2.25 0.25 2.95
2.5 0.25 2.95
2.75 0.25 2.95
3 0.25 2.95
3.25 0.25 2.95
3.5 0.25 2.95
3.75 0.25 2.95
4 0.25 2.95
0 0.5 2.95
0.25 0.5 2.95
0.5 0.5 2.95
0.75 0.5 2.95
1 0.5 2.95
1.25 0.5 2.95
1.5 0.5 2.95
1.75 0.5 2.95
2 0.5 2.95
2.25 0.5 2.95
2.5 0.5 2.95
2.75 0.5 2.95
3 0.5 2.95
3.25 0.5 2.95
3.5 0.5 2.95
3.75 0.5 2.95
4 0.5 2.95
0 0.75 2.95
0.25 0.75 2.95
0.5 0.75 2.95
0.75 0.75 2.95
1 0.75 2.95
1.25 0.75 2.95
1.5 0.75 2.95
1.75 0.75 2.95
2 0.75 2.95
2.25 0.75 2.95
2.5 0.75 2.95
2.75 0.75 2.95
3 0.75 2.95
3.25 0.75 2.95
3.5 0.75 2.95
3.75 0.75 2.95
4 0.75 2.95
0 1 2.95
0.25 1 2.95
0.5 1 2.95
0.75 1 2.95
1 1 2.95
1.25 1 2.95
1.5 1 2.95
1.75 1 2.95
2 1 2.95
2.25 1 2.95
2.5 1 2.95
2.75 1 2.95
3 1 2.95
3.25 1 2.95
3.5 1 2.95
3.75 1 2.95
4 1 2.95
0 0 3.2
0.25 0 3.2
0.5 0 3.2
0.75 0 3.2
1 0 3.2
1.25 0 3.2
1.5 0 3.2
1.75 0 3.2
2 0 3.2
2.25 0 3.2
2.5 0 3.2
2.75 0 3.2
3 0 3.2
3.25 0 3.2
3.5 0 3.2
3.75 0 3.2
4 0 3.2
0 0.25 3.2
0.25 0.25 3.2
0.5 0.25 3.2
0.75 0.25 3.2
1 0.25 3.2
1.25 0.25 3.2
1.5 0.25 3.2
1.75 0.25 3.2
2 0.25 3.2
2.25 0.25 3.2
2.5 0.25 3.2
2.75 0.25 3.2
3 0.25 3.2
3.25 0.25 3.2
3.5 0.25 3.2
3.75 0.25 3.2
4 0.25 3.2
0 0.5 3.2
0.25 0.5 3.2
0.5 0.5 3.2
0.75 0.5 3.2
1 0.5 3.2
1.25 0.5 3.2
1.5 0.5 3.2
1.75 0.5 3.2
2 0.5 3.2
2.25 0.5 3.2
2.5 0.5 3.2
2.75 0.5 3.2
3 0.5 3.2
3.25 0.5 3.2
3.5 0.5 3.2
3.75 0.5 3.2
4 0.5 3.2
0 0.75 3.2
0.25 0.75 3.2
0.5 0.75 3.2
0.75 0.75 3.2
1 0.75 3.2
1.25 0.75 3.2
1.5 0.75 3.2
1.75 0.75 3.2
2 0.75 3.2
2.25 0.75 3.2
2.5 0.75 3.2
2.75 0.75 3.2
3 0.75 3.2
3.25 0.75 3.2
3.5 0.75 3.2
3.75 0.75 3.2
4 0.75 3.2
0 1 3.2
0.25 1 3.2
0.5 1 3.2
0.75 1 3.2
1 1 3.2
1.25 1 3.2
1.5 1 3.2
1.75 1 3.2
2 1 3.2
2.25 1 3.2
2.5 1 3.2
2.75 1 3.2
3 1 3.2
3.25 1 3.2
3.5 1 3.2
3.75 1 3.2
4 1 3.2
0.125 0 2.2
0.25 0 2.325
0.125 0 2.45
0 0 2.325
0 0.125 2.2
0.25 0.125 2.2
0.25 0.125 2.45
0 0.125 2.45
0.125 0.25 2.2
0.25 0.25 2.325
0.125 0.25 2.45
0 0.25 2.325
0.125 0 2.325
0.125 0.125 2.2
0.25 0.125 2.325
0.125 0.125 2.45
0 0.125 2.325
0.125 0.25 2.325
0.125 0.125 2.325
0.375 0 2.2
0.5 0 2.325
0.375 0 2.45
0.5 0.125 2.2
0.5 0.125 2.45
0.375 0.25 2.2
0.5 0.25 2.325
0.375 0.25 2.45
0.375 0 2.325
0.375 0.125 2.2
0.5 0.125 2.325
0.375 0.125 2.45
0.375 0.25 2.325
0.375 0.125 2.325
0.625 0 2.2
0.75 0 2.325
0.625 0 2.45
0.75 0.125 2.2
0.75 0.125 2.45
0.625 0.25 2.2
0.75 0.25 2.325
0.625 0.25 2.45
0.625 0 2.325
0.625 0.125 2.2
0.75 0.125 2.325
0.625 0.125 2.45
0.625 0.25 2.325
0.625 0.125 2.325
0.875 0 2.2
1 0 2.325
0.875 0 2.45
1 0.125 2.2
1 0.125 2.45
0.875 0.25 2.2
1 0.25 2.325
0.875 0.25 2.45
0.875 0 2.325
0.875 0.125 2.2
1 0.125 2.325
0.875 0.125 2.45
0.875 0.25 2.325
0.875 0.125 2.325
1.125 0 2.2
1.25 0 2.325
1.125 0 2.45
1.25 0.125 2.2
1.25 0.125 2.45
1.125 0.25 2.2
1.25 0.25 2.325
1.125 0.25 2.45
1.125 0 2.325
1.125 0.125 2.2
1.25 0.125 2.325
1.125 0.125 2.45
1.125 0.25 2.325
1.125 0.125 2.325
1.375 0 2.2
1.5 0 2.325
1.375 0 2.45
1.5 0.125 2.2
1.5 0.125 2.45
1.375 0.25 2.2
1.5 0.25 2.325
1.375 0.25 2.45
1.375 0 2.325
1.375 0.125 2.2
1.5 0.125 2.325
1.375 0.125 2.45
1.375 0.25 2.325
1.375 0.125 2.325
1.625 0 2.2
1.75 0 2.325
1.625 0 2.45
1.75 0.125 2.2
1.75 0.125 2.45
1.625 0.25 2.2
1.75 0.25 2.325
1.625 0.25 2.45
1.625 0 2.325
1.625 0.125 2.2
1.75 0.125 2.325
1.625 0.125 2.45
1.625 0.25 2.325
1.625 0.125 2.325
1.875 0 2.2
2 0 2.325
1.875 0 2.45
2 0.125 2.2
2 0.125 2.45
1.875 0.25 2.2
2 0.25 2.325
1.875 0.25 2.45
1.875 0 2.325
1.875 0.125 2.2
2 0.125 2.325
1.875 0.125 2.45
1.875 0.25 2.325
1.875 0.125 2.325
2.125 0 2.2
2.25 0 2.325
2.125 0 2.45
2.25 0.125 2.2
2.25 0.125 2.45
2.125 0.25 2.2
2.25 0.25 2.325
2.125 0.25 2.45
2.125 0 2.325
2.125 0.125 2.2
2.25 0.125 2.325
2.125 0.125 2.45
2.125 0.25 2.325
2.125 0.125 2.325
2.375 0 2.2
2.5 0 2.325
2.375 0 2.45
2.5 0.125 2.2
2.5 0.125 2.45
2.375 0.25 2.2
2.5 0.25 2.325
2.375 0.25 2.45
2.375 0 2.325
2.375 0.125 2.2
2.5 0.125 2.325
2.375 0.125 2.45
2.375 0.25 2.325
2.375 0.125 2.325
2.625 0 2.2
2.75 0 2.325
2.625 0 2.45
2.75 0.125 2.2
2.75 0.125 2.45
2.625 0.25 2.2
2.75 0.25 2.325
2.625 0.25 2.45
2.625 0 2.325
2.625 0.125 2.2
2.75 0.125 2.325
2.625 0.125 2.45
2.625 0.25 2.325
2.625 0.125 2.325
2.875 0 2.2
3 0 2.325
2.875 0 2.45
3 0.125 2.2
3 0.125 2.45
2.875 0.25 2.2
3 0.25 2.325
2.875 0.25 2.45
2.875 0 2.325
2.875 0.125 2.2
3 0.125 2.325
2.875 0.125 2.45
2.875 0.25 2.325
2.875 0.125 2.325
3.125 0 2.2
3.25 0 2.325
3.125 0 2.45
3.25 0.125 2.2
3.25 0.125 2.45
3.125 0.25 2.2
3.25 0.25 2.325
3.125 0.25 2.45
3.125 0 2.325
3.125 0.125 2.2
3.25 0.125 2.325
3.125 0.125 2.45
3.125 0.25 2.325
3.125 0.125 2.325
3.375 0 2.2
3.5 0 2.325
3.375 0 2.45
3.5 0.125 2.2
3.5 0.125 2.45
3.375 0.25 2.2
3.5 0.25 2.325
3.375 0.25 2.45
3.375 0 2.325
3.375 0.125 2.2
3.5 0.125 2.325
3.375 0.125 2.45
3.375 0.25 2.325
3.375 0.125 2.325
3.625 0 2.2
3.75 0 2.325
3.625 0 2.45
3.75 0.125 2.2
3.75 0.125 2.45
3.625 0.25 2.2
3.75 0.25 2.325
3.625 0.25 2.45
3.625 0 2.325
3.625 0.125 2.2
3.75 0.125 2.325
3.625 0.125 2.45
3.625 0.25 2.325
3.625 0.125 2.325
3.875 0 2.2
4 0 2.325
3.875 0 2.45
4 0.125 2.2
4 0.125 2.45
3.875 0.25 2.2
4 0.25 2.325
3.875 0.25 2.45
3.875 0 2.325
3.875 0.125 2.2
4 0.125 2.325
3.875 0.125 2.45
3.875 0.25 2.325
3.875 0.125 2.325
0 0.375 2.2
0.25 0.375 2.2
0.25 0.375 2.45
0 0.375 2.45
0.125 0.5 2.2
0.25 0.5 2.325
0.125 0.5 2.45
0 0.5 2.325
0.125 0.375 2.2
0.25 0.375 2.325
0.125 0.375 2.45
0 0.375 2.325
0.125 0.5 2.325
0.125 0.375 2.325
0.5 0.375 2.2
0.5 0.375 2.45
0.375 0.5 2.2
0.5 0.5 2.325
0.375 0.5 2.45
0.375 0.375 2.2
0.5 0.375 2.325
0.375 0.375 2.45
0.375 0.5 2.325
0.375 0.375 2.325
0.75 0.375 2.2
0.75 0.375 2.45
0.625 0.5 2.2
0.75 0.5 2.325
0.625 0.5 2.45
0.625 0.375 2.2
0.75 0.375 2.325
0.625 0.375 2.45
0.625 0.5 2.325
0.625 0.375 2.325
1 0.375 2.2
1 0.375 2.45
0.875 0.5 2.2
1 0.5 2.325
0.875 0.5 2.45
0.875 0.375 2.2
1 0.375 2.325
0.875 0.375 2.45
0.875 0.5 2.325
0.875 0.375 2.325
1.25 0.375 2.2
1.25 0.375 2.45
1.125 0.5 2.2
1.25 0.5 2.325
1.125 0.5 2.45
1.125 0.375 2.2
1.25 0.375 2.325
1.125 0.375 2.45
1.125 0.5 2.325
1.125 0.375 2.325
1.5 0.375 2.2
1.5 0.375 2.45
1.375 0.5 2.2
1.5 0.5 2.325
1.375 0.5 2.45
1.375 0.375 2.2
1.5 0.375 2.325
1.375 0.375 2.45
1.375 0.5 2.325
1.375 0.375 2.325
1.75 0.375 2.2
1.75 0.375 2.45
1.625 0.5 2.2
1.75 0.5 2.325
1.625 0.5 2.45
1.625 0.375 2.2
1.75 0.375 2.325
1.625 0.375 2.45
1.625 0.5 2.325
1.625 0.375 2.325
2 0.375 2.2
2 0.375 2.45
1.875 0.5 2.2
2 0.5 2.325
1.875 0.5 2.45
1.875 0.375 2.2
2 0.375 2.325
1.875 0.375 2.45
1.875 0.5 2.325
1.875 0.375 2.325
2.25 0.375 2.2
2.25 0.375 2.45
2.125 0.5 2.2
2.25 0.5 2.325
2.125 0.5 2.45
2.125 0.375 2.2
2.25 0.375 2.325
2.125 0.375 2.45
2.125 0.5 2.325
2.125 0.375 2.325
2.5 0.375 2.2
2.5 0.375 2.45
2.375 0.5 2.2
2.5 0.5 2.325
2.375 0.5 2.45
2.375 0.375 2.2
2.5 0.375 2.325
2.375 0.375 2.45
2.375 0.5 2.325
2.375 0.375 2.325
2.75 0.375 2.2
2.75 0.375 2.45
2.625 0.5 2.2
2.75 0.5 2.325
2.625 0.5 2.45
2.625 0.375 2.2
2.75 0.375 2.325
2.625 0.375 2.45
2.625 0.5 2.325
2.625 0.375 2.325
3 0.375 2.2
3 0.375 2.45
2.875 0.5 2.2
3 0.5 2.325
2.875 0.5 2.45
2.875 0.375 2.2
3 0.375 2.325
2.875 0.375 2.45
2.875 0.5 2.325
2.875 0.375 2.325
3.25 0.375 2.2
3.25 0.375 2.45
3.125 0.5 2.2
3.25 0.5 2.325
3.125 0.5 2.45
3.125 0.375 2.2
3.25 0.375 2.325
3.125 0.375 2.45
3.125 0.5 2.325
3.125 0.375 2.325
3.5 0.375 2.2
3.5 0.375 2.45
3.375 0.5 2.2
3.5 0.5 2.325
3.375 0.5 2.45
3.375 0.375 2.2
3.5 0.375 2.325
3.375 0.375 2.45
3.375 0.5 2.325
3.375 0.375 2.325
3.75 0.375 2.2
3.75 0.375 2.45
3.625 0.5 2.2
3.75 0.5 2.325
3.625 0.5 2.45
3.625 0.375 2.2
3.75 0.375 2.325
3.625 0.375 2.45
3.625 0.5 2.325
3.625 0.375 2.325
4 0.375 2.2
4 0.375 2.45
3.875 0.5 2.2
4 0.5 2.325
3.875 0.5 2.45
3.875 0.375 2.2
4 0.375 2.325
3.875 0.375 2.45
3.875 0.5 2.325
3.875 0.375 2.325
0 0.625 2.2
0.25 0.625 2.2
0.25 0.625 2.45
0 0.625 2.45
0.125 0.75 2.2
0.25 0.75 2.325
0.125 0.75 2.45
0 0.75 2.325
0.125 0.625 2.2
0.25 0.625 2.325
0.125 0.625 2.45
0 0.625 2.325
0.125 0.75 2.325
0.125 0.625 2.325
0.5 0.625 2.2
0.5 0.625 2.45
0.375 0.75 2.2
0.5 0.75 2.325
0.375 0.75 2.45
0.375 0.625 2.2
0.5 0.625 2.325
0.375 0.625 2.45
0.375 0.75 2.325
0.375 0.625 2.325
0.75 0.625 2.2
0.75 0.625 2.45
0.625 0.75 2.2
0.75 0.75 2.325
0.625 0.75 2.45
0.625 0.625 2.2
0.75 0.625 2.325
0.625 0.625 2.45
0.625 0.75 2.325
0.625 0.625 2.325
1 0.625 2.2
1 0.625 2.45
0.875 0.75 2.2
1 0.75 2.325
0.875 0.75 2.45
0.875 0.625 2.2
1 0.625 2.325
0.875 0.625 2.45
0.875 0.75 2.325
0.875 0.625 2.325
1.25 0.625 2.2
1.25 0.625 2.45
1.125 0.75 2.2
1.25 0.75 2.325
1.125 0.75 2.45
1.125 0.625 2.2
1.25 0.625 2.325
1.125 0.625 2.45
1.125 0.75 2.325
1.125 0.625 2.325
1.5 0.625 2.2
1.5 0.625 2.45
1.375 0.75 2.2
1.5 0.75 2.325
1.375 0.75 2.45
1.375 0.625 2.2
1.5 0.625 2.325
1.375 0.625 2.45
1.375 0.75 2.325
1.375 0.625 2.325
1.75 0.625 2.2
1.75 0.625 2.45
1.625 0.75 2.2
1.75 0.75 2.325
1.625 0.75 2.45
1.625 0.625 2.2
1.75 0.625 2.325
1.625 0.625 2.45
1.625 0.75 2.325
1.625 0.625 2.325
2 0.625 2.2
2 0.625 2.45
1.875 0.75 2.2
2 0.75 2.325
1.875 0.75 2.45
1.875 0.625 2.2
2 0.625 2.325
1.875 0.625 2.45
1.875 0.75 2.325
1.875 0.625 2.325
2.25 0.625 2.2
2.25 0.625 2.45
2.125 0.75 2.2
2.25 0.75 2.325
2.125 0.75 2.45
2.125 0.625 2.2
2.25 0.625 2.325
2.125 0.625 2.45
2.125 0.75 2.325
2.125 0.625 2.325
2.5 0.625 2.2
2.5 0.625 2.45
2.375 0.75 2.2
2.5 0.75 2.325
2.375 0.75 2.45
2.375 0.625 2.2
2.5 0.625 2.325
2.375 0.625 2.45
2.375 0.75 2.325
2.375 0.625 2.325
2.75 0.625 2.2
2.75 0.625 2.45
2.625 0.75 2.2
2.75 0.75 2.325
2.625 0.75 2.45
2.625 0.625 2.2
2.75 0.625 2.325
2.625 0.625 2.45
2.625 0.75 2.325
2.625 0.625 2.325
3 0.625 2.2
3 0.625 2.45
2.875 0.75 2.2
3 0.75 2.325
2.875 0.75 2.45
2.875 0.625 2.2
3 0.625 2.325
2.875 0.625 2.45
2.875 0.75 2.325
2.875 0.625 2.325
3.25 0.625 2.2
3.25 0.625 2.45
3.125 0.75 2.2
3.25 0.75 2.325
3.125 0.75 2.45
3.125 0.625 2.2
3.25 0.625 2.325
3.125 0.625 2.45
3.125 0.75 2.325
3.125 0.625 2.325
3.5 0.625 2.2
3.5 0.625 2.45
3.375 0.75 2.2
3.5 0.75 2.325
3.375 0.75 2.45
3.375 0.625 2.2
3.5 0.625 2.325
3.375 0.625 2.45
3.375 0.75 2.325
3.375 0.625 2.325
3.75 0.625 2.2
3.75 0.625 2.45
3.625 0.75 2.2
3.75 0.75 2.325
3.625 0.75 2.45
3.625 0.625 2.2
3.75 0.625 2.325
3.625 0.625 2.45
3.625 0.75 2.325
3.625 0.625 2.325
4 0.625 2.2
4 0.625 2.45
3.875 0.75 2.2
4 0.75 2.325
3.875 0.75 2.45
3.875 0.625 2.2
4 0.625 2.325
3.875 0.625 2.45
3.875 0.75 2.325
3.875 0.625 2.325
0 0.875 2.2
0.25 0.875 2.2
0.25 0.875 2.45
0 0.875 2.45
0.125 1 2.2
0.25 1 2.325
0.125 1 2.45
0 1 2.325
0.125 0.875 2.2
0.25 0.875 2.325
0.125 0.875 2.45
0 0.875 2.325
0.125 1 2.325
0.125 0.875 2.325
0.5 0.875 2.2
0.5 0.875 2.45
0.375 1 2.2
0.5 1 2.325
0.375 1 2.45
0.375 0.875 2.2
0.5 0.875 2.325
0.375 0.875 2.45
0.375 1 2.325
0.375 0.875 2.325
0.75 0.875 2.2
0.75 0.875 2.45
0.625 1 2.2
0.75 1 2.325
0.625 1 2.45
0.625 0.875 2.2
0.75 0.875 2.325
0.625 0.875 2.45
0.625 1 2.325
0.625 0.875 2.325
1 0.875 2.2
1 0.875 2.45
0.875 1 2.2
1 1 2.325
0.875 1 2.45
0.875 0.875 2.2
1 0.875 2.325
0.875 0.875 2.45
0.875 1 2.325
0.875 0.875 2.325
1.25 0.875 2.2
1.25 0.875 2.45
1.125 1 2.2
1.25 1 2.325
1.125 1 2.45
1.125 0.875 2.2
1.25 0.875 2.325
1.125 0.875 2.45
1.125 1 2.325
1.125 0.875 2.325
1.5 0.875 2.2
1.5 0.875 2.45
1.375 1 2.2
1.5 1 2.325
1.375 1 2.45
1.375 0.875 2.2
1.5 0.875 2.325
1.375 0.875 2.45
1.375 1 2.325
1.375 0.875 2.325
1.75 0.875 2.2
1.75 0.875 2.45
1.625 1 2.2
1.75 1 2.325
1.625 1 2.45
1.625 0.875 2.2
1.75 0.875 2.325
1.625 0.875 2.45
1.625 1 2.325
1.625 0.875 2.325
2 0.875 2.2
2 0.875 2.45
1.875 1 2.2
2 1 2.325
1.875 1 2.45
1.875 0.875 2.2
2 0.875 2.325
1.875 0.875 2.45
1.875 1 2.325
1.875 0.875 2.325
2.25 0.875 2.2
2.25 0.875 2.45
2.125 1 2.2
2.25 1 2.325
2.125 1 2.45
2.125 0.875 2.2
2.25 0.875 2.325
2.125 0.875 2.45
2.125 1 2.325
2.125 0.875 2.325
2.5 0.875 2.2
2.5 0.875 2.45
2.375 1 2.2
2.5 1 2.325
2.375 1 2.45
2.375 0.875 2.2
2.5 0.875 2.325
2.375 0.875 2.45
2.375 1 2.325
2.375 0.875 2.325
2.75 0.875 2.2
2.75 0.875 2.45
2.625 1 2.2
2.75 1 2.325
2.625 1 2.45
2.625 0.875 2.2
2.75 0.875 2.325
2.625 0.875 2.45
2.625 1 2.325
2.625 0.875 2.325
3 0.875 2.2
3 0.875 2.45
2.875 1 2.2
3 1 2.325
2.875 1 2.45
2.875 0.875 2.2
3 0.875 2.325
2.875 0.875 2.45
2.875 1 2.325
2.875 0.875 2.325
3.25 0.875 2.2
3.25 0.875 2.45
3.125 1 2.2
3.25 1 2.325
3.125 1 2.45
3.125 0.875 2.2
3.25 0.875 2.325
3.125 0.875 2.45
3.125 1 2.325
3.125 0.875 2.325
3.5 0.875 2.2
3.5 0.875 2.45
3.375 1 2.2
3.5 1 2.325
3.375 1 2.45
3.375 0.875 2.2
3.5 0.875 2.325
3.375 0.875 2.45
3.375 1 2.325
3.375 0.875 2.325
3.75 0.875 2.2
3.75 0.875 2.45
3.625 1 2.2
3.75 1 2.325
3.625 1 2.45
3.625 0.875 2.2
3.75 0.875 2.325
3.625 0.875 2.45
3.625 1 2.325
3.625 0.875 2.325
4 0.875 2.2
4 0.875 2.45
3.875 1 2.2
4 1 2.325
3.875 1 2.45
3.875 0.875 2.2
4 0.875 2.325
3.875 0.875 2.45
3.875 1 2.325
3.875 0.875 2.325
0.25 0 2.575
0.125 0 2.7
0 0 2.575
0.25 0.125 2.7
0 0.125 2.7
0.25 0.25 2.575
0.125 0.25 2.7
0 0.25 2.575
0.125 0 2.575
0.25 0.125 2.575
0.125 0.125 2.7
0 0.125 2.575
0.125 0.25 2.575
0.125 0.125 2.575
0.5 0 2.575
0.375 0 2.7
0.5 0.125 2.7
0.5 0.25 2.575
0.375 0.25 2.7
0.375 0 2.575
0.5 0.125 2.575
0.375 0.125 2.7
0.375 0.25 2.575
0.375 0.125 2.575
0.75 0 2.575
0.625 0 2.7
0.75 0.125 2.7
0.75 0.25 2.575
0.625 0.25 2.7
0.625 0 2.575
0.75 0.125 2.575
0.625 0.125 2.7
0.625 0.25 2.575
0.625 0.125 2.575
1 0 2.575
0.875 0 2.7
1 0.125 2.7
1 0.25 2.575
0.875 0.25 2.7
0.875 0 2.575
1 0.125 2.575
0.875 0.125 2.7
0.875 0.25 2.575
0.875 0.125 2.575
1.25 0 2.575
1.125 0 2.7
1.25 0.125 2.7
1.25 0.25 2.575
1.125 0.25 2.7
1.125 0 2.575
1.25 0.125 2.575
1.125 0.125 2.7
1.125 0.25 2.575
1.125 0.125 2.575
1.5 0 2.575
1.375 0 2.7
1.5 0.125 2.7
1.5 0.25 2.575
1.375 0.25 2.7
1.375 0 2.575
1.5 0.125 2.575
1.375 0.125 2.7
1.375 0.25 2.575
1.375 0.125 2.575
1.75 0 2.575
1.625 0 2.7
1.75 0.125 2.7
1.75 0.25 2.575
1.625 0.25 2.7
1.625 0 2.575
1.75 0.125 2.575
1.625 0.125 2.7
1.625 0.25 2.575
1.625 0.125 2.575
2 0 2.575
1.875 0 2.7
2 0.125 2.7
2 0.25 2.575
1.875 0.25 2.7
1.875 0 2.575
2 0.125 2.575
1.875 0.125 2.7
1.875 0.25 2.575
1.875 0.125 2.575
2.25 0 2.575
2.125 0 2.7
2.25 0.125 2.7
2.25 0.25 2.575
2.125 0.25 2.7
2.125 0 2.575
2.25 0.125 2.575
2.125 0.125 2.7
2.125 0.25 2.575
2.125 0.125 2.575
2.5 0 2.575
2.375 0 2.7
2.5 0.125 2.7
2.5 0.25 2.575
2.375 0.25 2.7
2.375 0 2.575
2.5 0.125 2.575
2.375 0.125 2.7
2.375 0.25 2.575
2.375 0.125 2.575
2.75 0 2.575
2.625 0 2.7
2.75 0.125 2.7
2.75 0.25 2.575
2.625 0.25 2.7
2.625 0 2.575
2.75 0.125 2.575
2.625 0.125 2.7
2.625 0.25 2.575
2.625 0.125 2.575
3 0 2.575
2.875 0 2.7
3 0.125 2.7
3 0.25 2.575
2.875 0.25 2.7
2.875 0 2.575
3 0.125 2.575
2.875 0.125 2.7
2.875 0.25 2.575
2.875 0.125 2.575
3.25 0 2.575
3.125 0 2.7
3.25 0.125 2.7
3.25 0.25 2.575
3.125 0.25 2.7
3.125 0 2.575
3.25 0.125 2.575
3.125 0.125 2.7
3.125 0.25 2.575
3.125 0.125 2.575
3.5 0 2.575
3.375 0 2.7
3.5 0.125 2.7
3.5 0.25 2.575
3.375 0.25 2.7
3.375 0 2.575
3.5 0.125 2.575
3.375 0.125 2.7
3.375 0.25 2.575
3.375 0.125 2.575
3.75 0 2.575
3.625 0 2.7
3.75 0.125 2.7
3.75 0.25 2.575
3.625 0.25 2.7
3.625 0 2.575
3.75 0.125 2.575
3.625 0.125 2.7
3.625 0.25 2.575
3.625 0.125 2.575
4 0 2.575
3.875 0 2.7
4 0.125 2.7
4 0.25 2.575
3.875 0.25 2.7
3.875 0 2.575
4 0.125 2.575
3.875 0.125 2.7
3.875 0.25 2.575
3.875 0.125 2.575
0.25 0.375 2.7
0 0.375 2.7
0.25 0.5 2.575
0.125 0.5 2.7
0 0.5 2.575
0.25 0.375 2.575
0.125 0.375 2.7
0 0.375 2.575
0.125 0.5 2.575
0.125 0.375 2.575
0.5 0.375 2.7
0.5 0.5 2.575
0.375 0.5 2.7
0.5 0.375 2.575
0.375 0.375 2.7
0.375 0.5 2.575
0.375 0.375 2.575
0.75 0.375 2.7
0.75 0.5 2.575
0.625 0.5 2.7
0.75 0.375 2.575
0.625 0.375 2.7
0.625 0.5 2.575
0.625 0.375 2.575
1 0.375 2.7
1 0.5 2.575
0.875 0.5 2.7
1 0.375 2.575
0.875 0.375 2.7
0.875 0.5 2.575
0.875 0.375 2.575
1.25 0.375 2.7
1.25 0.5 2.575
1.125 0.5 2.7
1.25 0.375 2.575
1.125 0.375 2.7
1.125 0.5 2.575
1.125 0.375 2.575
1.5 0.375 2.7
1.5 0.5 2.575
1.375 0.5 2.7
1.5 0.375 2.575
1.375 0.375 2.7
1.375 0.5 2.575
1.375 0.375 2.575
1.75 0.375 2.7
1.75 0.5 2.575
1.625 0.5 2.7
1.75 0.375 2.575
1.625 0.375 2.7
1.625 0.5 2.575
1.625 0.375 2.575
2 0.375 2.7
2 0.5 2.575
1.875 0.5 2.7
2 0.375 2.575
1.875 0.375 2.7
1.875 0.5 2.575
1.875 0.375 2.575
2.25 0.375 2.7
2.25 0.5 2.575
2.125 0.5 2.7
2.25 0.375 2.575
2.125 0.375 2.7
2.125 0.5 2.575
2.125 0.375 2.575
2.5 0.375 2.7
2.5 0.5 2.575
2.375 0.5 2.7
2.5 0.375 2.575
2.375 0.375 2.7
2.375 0.5 2.575
2.375 0.375 2.575
2.75 0.375 2.7
2.75 0.5 2.575
2.625 0.5 2.7
2.75 0.375 2.575
2.625 0.375 2.7
2.625 0.5 2.575
2.625 0.375 2.575
3 0.375 2.7
3 0.5 2.575
2.875 0.5 2.7
3 0.375 2.575
2.875 0.375 2.7
2.875 0.5 2.575
2.875 0.375 2.575
3.25 0.375 2.7
3.25 0.5 2.575
3.125 0.5 2.7
3.25 0.375 2.575
3.125 0.375 2.7
3.125 0.5 2.575
3.125 0.375 2.575
3.5 0.375 2.7
3.5 0.5 2.575
3.375 0.5 2.7
3.5 0.375 2.575
3.375 0.375 2.7
3.375 0.5 2.575
3.375 0.375 2.575
3.75 0.375 2.7
3.75 0.5 2.575
3.625 0.5 2.7
3.75 0.375 2.575
3.625 0.375 2.7
3.625 0.5 2.575
3.625 0.375 2.575
4 0.375 2.7
4 0.5 2.575
3.875 0.5 2.7
4 0.375 2.575
3.875 0.375 2.7
3.875 0.5 2.575
3.875 0.375 2.575
0.25 0.625 2.7
0 0.625 2.7
0.25 0.75 2.575
0.125 0.75 2.7
0 0.75 2.575
0.25 0.625 2.575
0.125 0.625 2.7
0 0.625 2.575
0.125 0.75 2.575
0.125 0.625 2.575
0.5 0.625 2.7
0.5 0.75 2.575
0.375 0.75 2.7
0.5 0.625 2.575
0.375 0.625 2.7
0.375 0.75 2.575
0.375 0.625 2.575
0.75 0.625 2.7
0.75 0.75 2.575
0.625 0.75 2.7
0.75 0.625 2.575
0.625 0.625 2.7
0.625 0.75 2.575
0.625 0.625 2.575
1 0.625 2.7
1 0.75 2.575
0.875 0.75 2.7
1 0.625 2.575
0.875 0.625 2.7
0.875 0.75 2.575
0.875 0.625 2.575
1.25 0.625 2.7
1.25 0.75 2.575
1.125 0.75 2.7
1.25 0.625 2.575
1.125 0.625 2.7
1.125 0.75 2.575
1.125 0.625 2.575
1.5 0.625 2.7
1.5 0.75 2.575
1.375 0.75 2.7
1.5 0.625 2.575
1.375 0.625 2.7
1.375 0.75 2.575
1.375 0.625 2.575
1.75 0.625 2.7
1.75 0.75 2.575
1.625 0.75 2.7
1.75 0.625 2.575
1.625 0.625 2.7
1.625 0.75 2.575
1.625 0.625 2.575
2 0.625 2.7
2 0.75 2.575
1.875 0.75 2.7
2 0.625 2.575
1.875 0.625 2.7
1.875 0.75 2.575
1.875 0.625 2.575
2.25 0.625 2.7
2.25 0.75 2.575
2.125 0.75 2.7
2.25 0.625 2.575
2.125 0.625 2.7
2.125 0.75 2.575
2.125 0.625 2.575
2.5 0.625 2.7
2.5 0.75 2.575
2.375 0.75 2.7
2.5 0.625 2.575
2.375 0.625 2.7
2.375 0.75 2.575
2.375 0.625 2.575
2.75 0.625 2.7
2.75 0.75 2.575
2.625 0.75 2.7
2.75 0.625 2.575
2.625 0.625 2.7
2.625 0.75 2.575
2.625 0.625 2.575
3 0.625 2.7
3 0.75 2.575
2.875 0.75 2.7
3 0.625 2.575
2.875 0.625 2.7
2.875 0.75 2.575
2.875 0.625 2.575
3.25 0.625 2.7
3.25 0.75 2.575
3.125 0.75 2.7
3.25 0.625 2.575
3.125 0.625 2.7
3.125 0.75 2.575
3.125 0.625 2.575
3.5 0.625 2.7
3.5 0.75 2.575
3.375 0.75 2.7
3.5 0.625 2.575
3.375 0.625 2.7
3.375 0.75 2.575
3.375 0.625 2.575
3.75 0.625 2.7
3.75 0.75 2.575
3.625 0.75 2.7
3.75 0.625 2.575
3.625 0.625 2.7
3.625 0.75 2.575
3.625 0.625 2.575
4 0.625 2.7
4 0.75 2.575
3.875 0.75 2.7
4 0.625 2.575
3.875 0.625 2.7
3.875 0.75 2.575
3.875 0.625 2.575
0.25 0.875 2.7
0 0.875 2.7
0.25 1 2.575
0.125 1 2.7
0 1 2.575
0.25 0.875 2.575
0.125 0.875 2.7
0 0.875 2.575
0.125 1 2.575
0.125 0.875 2.575
0.5 0.875 2.7
0.5 1 2.575
0.375 1 2.7
0.5 0.875 2.575
0.375 0.875 2.7
0.375 1 2.575
0.375 0.875 2.575
0.75 0.875 2.7
0.75 1 2.575
0.625 1 2.7
0.75 0.875 2.575
0.625 0.875 2.7
0.625 1 2.575
0.625 0.875 2.575
1 0.875 2.7
1 1 2.575
0.875 1 2.7
1 0.875 2.575
0.875 0.875 2.7
0.875 1 2.575
0.875 0.875 2.575
1.25 0.875 2.7
1.25 1 2.575
1.125 1 2.7
1.25 0.875 2.575
1.125 0.875 2.7
1.125 1 2.575
1.125 0.875 2.575
1.5 0.875 2.7
1.5 1 2.575
1.375 1 2.7
1.5 0.875 2.575
1.375 0.875 2.7
1.375 1 2.575
1.375 0.875 2.575
1.75 0.875 2.7
1.75 1 2.575
1.625 1 2.7
1.75 0.875 2.575
1.625 0.875 2.7
1.625 1 2.575
1.625 0.875 2.575
2 0.875 2.7
2 1 2.575
1.875 1 2.7
2 0.875 2.575
1.875 0.875 2.7
1.875 1 2.575
1.875 0.875 2.575
2.25 0.875 2.7
2.25 1 2.575
2.125 1 2.7
2.25 0.875 2.575
2.125 0.875 2.7
2.125 1 2.575
2.125 0.875 2.575
2.5 0.875 2.7
2.5 1 2.575
2.375 1 2.7
2.5 0.875 2.575
2.375 0.875 2.7
2.375 1 2.575
2.375 0.875 2.575
2.75 0.875 2.7
2.75 1 2.575
2.625 1 2.7
2.75 0.875 2.575
2.625 0.875 2.7
2.625 1 2.575
2.625 0.875 2.575
3 0.875 2.7
3 1 2.575
2.875 1 2.7
3 0.875 2.575
2.875 0.875 2.7
2.875 1 2.575
2.875 0.875 2.575
3.25 0.875 2.7
3.25 1 2.575
3.125 1 2.7
3.25 0.875 2.575
3.125 0.875 2.7
3.125 1 2.575
3.125 0.875 2.575
3.5 0.875 2.7
3.5 1 2.575
3.375 1 2.7
3.5 0.875 2.575
3.375 0.875 2.7
3.375 1 2.575
3.375 0.875 2.575
3.75 0.875 2.7
3.75 1 2.575
3.625 1 2.7
3.75 0.875 2.575
3.625 0.875 2.7
3.625 1 2.575
3.625 0.875 2.575
4 0.875 2.7
4 1 2.575
3.875 1 2.7
4 0.875 2.575
3.875 0.875 2.7
3.875 1 2.575
3.875 0.875 2.575
0.25 0 2.825
0.125 0 2.95
0 0 2.825
0.25 0.125 2.95
0 0.125 2.95
0.25 0.25 2.825
0.125 0.25 2.95
0 0.25 2.825
0.125 0 2.825
0.25 0.125 2.825
0.125 0.125 2.95
0 0.125 2.825
0.125 0.25 2.825
0.125 0.125 2.825
0.5 0 2.825
0.375 0 2.95
0.5 0.125 2.95
0.5 0.25 2.825
0.375 0.25 2.95
0.375 0 2.825
0.5 0.125 2.825
0.375 0.125 2.95
0.375 0.25 2.825
0.375 0.125 2.825
0.75 0 2.825
0.625 0 2.95
0.75 0.125 2.95
0.75 0.25 2.825
0.625 0.25 2.95
0.625 0 2.825
0.75 0.125 2.825
0.625 0.125 2.95
0.625 0.25 2.825
0.625 0.125 2.825
1 0 2.825
0.875 0 2.95
1 0.125 2.95
1 0.25 2.825
0.875 0.25 2.95
0.875 0 2.825
1 0.125 2.825
0.875 0.125 2.95
0.875 0.25 2.825
0.875 0.125 2.825
1.25 0 2.825
1.125 0 2.95
1.25 0.125 2.95
1.25 0.25 2.825
1.125 0.25 2.95
1.125 0 2.825
1.25 0.125 2.825
1.125 0.125 2.95
1.125 0.25 2.825
1.125 0.125 2.825
1.5 0 2.825
1.375 0 2.95
1.5 0.125 2.95
1.5 0.25 2.825
1.375 0.25 2.95
1.375 0 2.825
1.5 0.125 2.825
1.375 0.125 2.95
1.375 0.25 2.825
1.375 0.125 2.825
1.75 0 2.825
1.625 0 2.95
1.75 0.125 2.95
1.75 0.25 2.825
1.625 0.25 2.95
1.625 0 2.825
1.75 0.125 2.825
1.625 0.125 2.95
1.625 0.25 2.825
1.625 0.125 2.825
2 0 2.825
1.875 0 2.95
2 0.125 2.95
2 0.25 2.825
1.875 0.25 2.95
1.875 0 2.825
2 0.125 2.825
1.875 0.125 2.95
1.875 0.25 2.825
1.875 0.125 2.825
2.25 0 2.825
2.125 0 2.95
2.25 0.125 2.95
2.25 0.25 2.825
2.125 0.25 2.95
2.125 0 2.825
2.25 0.125 2.825
2.125 0.125 2.95
2.125 0.25 2.825
2.125 0.125 2.825
2.5 0 2.825
2.375 0 2.95
2.5 0.125 2.95
2.5 0.25 2.825
2.375 0.25 2.95
2.375 0 2.825
2.5 0.125 2.825
2.375 0.125 2.95
2.375 0.25 2.825
2.375 0.125 2.825
2.75 0 2.825
2.625 0 2.95
2.75 0.125 2.95
2.75 0.25 2.825
2.625 0.25 2.95
2.625 0 2.825
2.75 0.125 2.825
2.625 0.125 2.95
2.625 0.25 2.825
2.625 0.125 2.825
3 0 2.825
2.875 0 2.95
3 0.125 2.95
3 0.25 2.825
2.875 0.25 2.95
2.875 0 2.825
3 0.125 2.825
2.875 0.125 2.95
2.875 0.25 2.825
2.875 0.125 2.825
3.25 0 2.825
3.125 0 2.95
3.25 0.125 2.95
3.25 0.25 2.825
3.125 0.25 2.95
3.125 0 2.825
3.25 0.125 2.825
3.125 0.125 2.95
3.125 0.25 2.825
3.125 0.125 2.825
3.5 0 2.825
3.375 0 2.95
3.5 0.125 2.95
3.5 0.25 2.825
3.375 0.25 2.95
3.375 0 2.825
3.5 0.125 2.825
3.375 0.125 2.95
3.375 0.25 2.825
3.375 0.125 2.825
3.75 0 2.825
3.625 0 2.95
3.75 0.125 2.95
3.75 0.25 2.825
3.625 0.25 2.95
3.625 0 2.825
3.75 0.125 2.825
3.625 0.125 2.95
3.625 0.25 2.825
3.625 0.125 2.825
4 0 2.825
3.875 0 2.95
4 0.125 2.95
4 0.25 2.825
3.875 0.25 2.95
3.875 0 2.825
4 0.125 2.825
3.875 0.125 2.95
3.875 0.25 2.825
3.875 0.125 2.825
0.25 0.375 2.95
0 0.375 2.95
0.25 0.5 2.825
0.125 0.5 2.95
0 0.5 2.825
0.25 0.375 2.825
0.125 0.375 2.95
0 0.375 2.825
0.125 0.5 2.825
0.125 0.375 2.825
0.5 0.375 2.95
0.5 0.5 2.825
0.375 0.5 2.95
0.5 0.375 2.825
0.375 0.375 2.95
0.375 0.5 2.825
0.375 0.375 2.825
0.75 0.375 2.95
0.75 0.5 2.825
0.625 0.5 2.95
0.75 0.375 2.825
0.625 0.375 2.95
0.625 0.5 2.825
0.625 0.375 2.825
1 0.375 2.95
1 0.5 2.825
0.875 0.5 2.95
1 0.375 2.825
0.875 0.375 2.95
0.875 0.5 2.825
0.875 0.375 2.825
1.25 0.375 2.95
1.25 0.5 2.825
1.125 0.5 2.95
1.25 0.375 2.825
1.125 0.375 2.95
1.125 0.5 2.825
1.125 0.375 2.825
1.5 0.375 2.95
1.5 0.5 2.825
1.375 0.5 2.95
1.5 0.375 2.825
1.375 0.375 2.95
1.375 0.5 2.825
1.375 0.375 2.825
1.75 0.375 2.95
1.75 0.5 2.825
1.625 0.5 2.95
1.75 0.375 2.825
1.625 0.375 2.95
1.625 0.5 2.825
1.625 0.375 2.825
2 0.375 2.95
2 0.5 2.825
1.875 0.5 2.95
2 0.375 2.825
1.875 0.375 2.95
1.875 0.5 2.825
1.875 0.375 2.825
2.25 0.375 2.95
2.25 0.5 2.825
2.125 0.5 2.95
2.25 0.375 2.825
2.125 0.375 2.95
2.125 0.5 2.825
2.125 0.375 2.825
2.5 0.375 2.95
2.5 0.5 2.825
2.375 0.5 2.95
2.5 0.375 2.825
2.375 0.375 2.95
2.375 0.5 2.825
2.375 0.375 2.825
2.75 0.375 2.95
2.75 0.5 2.825
2.625 0.5 2.95
2.75 0.375 2.825
2.625 0.375 2.95
2.625 0.5 2.825
2.625 0.375 2.825
3 0.375 2.95
3 0.5 2.825
2.875 0.5 2.95
3 0.375 2.825
2.875 0.375 2.95
2.875 0.5 2.825
2.875 0.375 2.825
3.25 0.375 2.95
3.25 0.5 2.825
3.125 0.5 2.95
3.25 0.375 2.825
3.125 0.375 2.95
3.125 0.5 2.825
3.125 0.375 2.825
3.5 0.375 2.95
3.5 0.5 2.825
3.375 0.5 2.95
3.5 0.375 2.825
3.375 0.375 2.95
3.375 0.5 2.825
3.375 0.375 2.825
3.75 0.375 2.95
3.75 0.5 2.825
3.625 0.5 2.95
3.75 0.375 2.825
3.625 0.375 2.95
3.625 0.5 2.825
3.625 0.375 2.825
4 0.375 2.95
4 0.5 2.825
3.875 0.5 2.95
4 0.375 2.825
3.875 0.375 2.95
3.875 0.5 2.825
3.875 0.375 2.825
0.25 0.625 2.95
0 0.625 2.95
0.25 0.75 2.825
0.125 0.75 2.95
0 0.75 2.825
0.25 0.625 2.825
0.125 0.625 2.95
0 0.625 2.825
0.125 0.75 2.825
0.125 0.625 2.825
0.5 0.625 2.95
0.5 0.75 2.825
0.375 0.75 2.95
0.5 0.625 2.825
0.375 0.625 2.95
0.375 0.75 2.825
0.375 0.625 2.825
0.75 0.625 2.95
0.75 0.75 2.825
0.625 0.75 2.95
0.75 0.625 2.825
0.625 0.625 2.95
0.625 0.75 2.825
0.625 0.625 2.825
1 0.625 2.95
1 0.75 2.825
0.875 0.75 2.95
1 0.625 2.825
0.875 0.625 2.95
0.875 0.75 2.825
0.875 0.625 2.825
1.25 0.625 2.95
1.25 0.75 2.825
1.125 0.75 2.95
1.25 0.625 2.825
1.125 0.625 2.95
1.125 0.75 2.825
1.125 0.625 2.825
1.5 0.625 2.95
1.5 0.75 2.825
1.375 0.75 2.95
1.5 0.625 2.825
1.375 0.625 2.95
1.375 0.75 2.825
1.375 0.625 2.825
1.75 0.625 2.95
1.75 0.75 2.825
1.625 0.75 2.95
1.75 0.625 2.825
1.625 0.625 2.95
1.625 0.75 2.825
1.625 0.625 2.825
2 0.625 2.95
2 0.75 2.825
1.875 0.75 2.95
2 0.625 2.825
1.875 0.625 2.95
1.875 0.75 2.825
1.875 0.625 2.825
2.25 0.625 2.95
2.25 0.75 2.825
2.125 0.75 2.95
2.25 0.625 2.825
2.125 0.625 2.95
2.125 0.75 2.825
2.125 0.625 2.825
2.5 0.625 2.95
2.5 0.75 2.825
2.375 0.75 2.95
2.5 0.625 2.825
2.375 0.625 2.95
2.375 0.75 2.825
2.375 0.625 2.825
2.75 0.625 2.95
2.75 0.75 2.825
2.625 0.75 2.95
2.75 0.625 2.825
2.625 0.625 2.95
2.625 0.75 2.825
2.625 0.625 2.825
3 0.625 2.95
3 0.75 2.825
2.875 0.75 2.95
3 0.625 2.825
2.875 0.625 2.95
2.875 0.75 2.825
2.875 0.625 2.825
3.25 0.625 2.95
3.25 0.75 2.825
3.125 0.75 2.95
3.25 0.625 2.825
3.125 0.625 2.95
3.125 0.75 2.825
3.125 0.625 2.825
3.5 0.625 2.95
3.5 0.75 2.825
3.375 0.75 2.95
3.5 0.625 2.825
3.375 0.625 2.95
3.375 0.75 2.825
3.375 0.625 2.825
3.75 0.625 2.95
3.75 0.75 2.825
3.625 0.75 2.95
3.75 0.625 2.825
3.625 0.625 2.95
3.625 0.75 2.825
3.625 0.625 2.825
4 0.625 2.95
4 0.75 2.825
3.875 0.75 2.95
4 0.625 2.825
3.875 0.625 2.95
3.875 0.75 2.825
3.875 0.625 2.825
0.25 0.875 2.95
0 0.875 2.95
0.25 1 2.825
0.125 1 2.95
0 1 2.825
0.25 0.875 2.825
0.125 0.875 2.95
0 0.875 2.825
0.125 1 2.825
0.125 0.875 2.825
0.5 0.875 2.95
0.5 1 2.825
0.375 1 2.95
0.5 0.875 2.825
0.375 0.875 2.95
0.375 1 2.825
0.375 0.875 2.825
0.75 0.875 2.95
0.75 1 2.825
0.625 1 2.95
0.75 0.875 2.825
0.625 0.875 2.95
0.625 1 2.825
0.625 0.875 2.825
1 0.875 2.95
1 1 2.825
0.875 1 2.95
1 0.875 2.825
0.875 0.875 2.95
0.875 1 2.825
0.875 0.875 2.825
1.25 0.875 2.95
1.25 1 2.825
1.125 1 2.95
1.25 0.875 2.825
1.125 0.875 2.95
1.125 1 2.825
1.125 0.875 2.825
1.5 0.875 2.95
1.5 1 2.825
1.375 1 2.95
1.5 0.875 2.825
1.375 0.875 2.95
1.375 1 2.825
1.375 0.875 2.825
1.75 0.875 2.95
1.75 1 2.825
1.625 1 2.95
1.75 0.875 2.825
1.625 0.875 2.95
1.625 1 2.825
1.625 0.875 2.825
2 0.875 2.95
2 1 2.825
1.875 1 2.95
2 0.875 2.825
1.875 0.875 2.95
1.875 1 2.825
1.875 0.875 2.825
2.25 0.875 2.95
2.25 1 2.825
2.125 1 2.95
2.25 0.875 2.825
2.125 0.875 2.95
2.125 1 2.825
2.125 0.875 2.825
2.5 0.875 2.95
2.5 1 2.825
2.375 1 2.95
2.5 0.875 2.825
2.375 0.875 2.95
2.375 1 2.825
2.375 0.875 2.825
2.75 0.875 2.95
2.75 1 2.825
2.625 1 2.95
2.75 0.875 2.825
2.625 0.875 2.95
2.625 1 2.825
2.625 0.875 2.825
3 0.875 2.95
3 1 2.825
2.875 1 2.95
3 0.875 2.825
2.875 0.875 2.95
2.875 1 2.825
2.875 0.875 2.825
3.25 0.875 2.95
3.25 1 2.825
3.125 1 2.95
3.25 0.875 2.825
3.125 0.875 2.95
3.125 1 2.825
3.125 0.875 2.825
3.5 0.875 2.95
3.5 1 2.825
3.375 1 2.95
3.5 0.875 2.825
3.375 0.875 2.95
3.375 1 2.825
3.375 0.875 2.825
3.75 0.875 2.95
3.75 1 2.825
3.625 1 2.95
3.75 0.875 2.825
3.625 0.875 2.95
3.625 1 2.825
3.625 0.875 2.825
4 0.875 2.95
4 1 2.825
3.875 1 2.95
4 0.875 2.825
3.875 0.875 2.95
3.875 1 2.825
3.875 0.875 2.825
0.25 0 3.075
0.125 0 3.2
0 0 3.075
0.25 0.125 3.2
0 0.125 3.2
0.25 0.25 3.075
0.125 0.25 3.2
0 0.25 3.075
0.125 0 3.075
0.25 0.125 3.075
0.125 0.125 3.2
0 0.125 3.075
0.125 0.25 3.075
0.125 0.125 3.075
0.5 0 3.075
0.375 0 3.2
0.5 0.125 3.2
0.5 0.25 3.075
0.375 0.25 3.2
0.375 0 3.075
0.5 0.125 3.075
0.375 0.125 3.2
0.375 0.25 3.075
0.375 0.125 3.075
0.75 0 3.075
0.625 0 3.2
0.75 0.125 3.2
0.75 0.25 3.075
0.625 0.25 3.2
0.625 0 3.075
0.75 0.125 3.075
0.625 0.125 3.2
0.625 0.25 3.075
0.625 0.125 3.075
1 0 3.075
0.875 0 3.2
1 0.125 3.2
1 0.25 3.075
0.875 0.25 3.2
0.875 0 3.075
1 0.125 3.075
0.875 0.125 3.2
0.875 0.25 3.075
0.875 0.125 3.075
1.25 0 3.075
1.125 0 3.2
1.25 0.125 3.2
1.25 0.25 3.075
1.125 0.25 3.2
1.125 0 3.075
1.25 0.125 3.075
1.125 0.125 3.2
1.125 0.25 3.075
1.125 0.125 3.075
1.5 0 3.075
1.375 0 3.2
1.5 0.125 3.2
1.5 0.25 3.075
1.375 0.25 3.2
1.375 0 3.075
1.5 0.125 3.075
1.375 0.125 3.2
1.375 0.25 3.075
1.375 0.125 3.075
1.75 0 3.075
1.625 0 3.2
1.75 0.125 3.2
1.75 0.25 3.075
1.625 0.25 3.2
1.625 0 3.075
1.75 0.125 3.075
1.625 0.125 3.2
1.625 0.25 3.075
1.625 0.125 3.075
2 0 3.075
1.875 0 3.2
2 0.125 3.2
2 0.25 3.075
1.875 0.25 3.2
1.875 0 3.075
2 0.125 3.075
1.875 0.125 3.2
1.875 0.25 3.075
1.875 0.125 3.075
2.25 0 3.075
2.125 0 3.2
2.25 0.125 3.2
2.25 0.25 3.075
2.125 0.25 3.2
2.125 0 3.075
2.25 0.125 3.075
2.125 0.125 3.2
2.125 0.25 3.075
2.125 0.125 3.075
2.5 0 3.075
2.375 0 3.2
2.5 0.125 3.2
2.5 0.25 3.075
2.375 0.25 3.2
2.375 0 3.075
2.5 0.125 3.075
2.375 0.125 3.2
2.375 0.25 3.075
2.375 0.125 3.075
2.75 0 3.075
2.625 0 3.2
2.75 0.125 3.2
2.75 0.25 3.075
2.625 0.25 3.2
2.625 0 3.075
2.75 0.125 3.075
2.625 0.125 3.2
2.625 0.25 3.075
2.625 0.125 3.075
3 0 3.075
2.875 0 3.2
3 0.125 3.2
3 0.25 3.075
2.875 0.25 3.2
2.875 0 3.075
3 0.125 3.075
2.875 0.125 3.2
2.875 0.25 3.075
2.875 0.125 3.075
3.25 0 3.075
3.125 0 3.2
3.25 0.125 3.2
3.25 0.25 3.075
3.125 0.25 3.2
3.125 0 3.075
3.25 0.125 3.075
3.125 0.125 3.2
3.125 0.25 3.075
3.125 0.125 3.075
3.5 0 3.075
3.375 0 3.2
3.5 0.125 3.2
3.5 0.25 3.075
3.375 0.25 3.2
3.375 0 3.075
3.5 0.125 3.075
3.375 0.125 3.2
3.375 0.25 3.075
3.375 0.125 3.075
3.75 0 3.075
3.625 0 3.2
3.75 0.125 3.2
3.75 0.25 3.075
3.625 0.25 3.2
3.625 0 3.075
3.75 0.125 3.075
3.625 0.125 3.2
3.625 0.25 3.075
3.625 0.125 3.075
4 0 3.075
3.875 0 3.2
4 0.125 3.2
4 0.25 3.075
3.875 0.25 3.2
3.875 0 3.075
4 0.125 3.075
3.875 0.125 3.2
3.875 0.25 3.075
3.875 0.125 3.075
0.25 0.375 3.2
0 0.375 3.2
0.25 0.5 3.075
0.125 0.5 3.2
0 0.5 3.075
0.25 0.375 3.075
0.125 0.375 3.2
0 0.375 3.075
0.125 0.5 3.075
0.125 0.375 3.075
0.5 0.375 3.2
0.5 0.5 3.075
0.375 0.5 3.2
0.5 0.375 3.075
0.375 0.375 3.2
0.375 0.5 3.075
0.375 0.375 3.075
0.75 0.375 3.2
0.75 0.5 3.075
0.625 0.5 3.2
0.75 0.375 3.075
0.625 0.375 3.2
0.625 0.5 3.075
0.625 0.375 3.075
1 0.375 3.2
1 0.5 3.075
0.875 0.5 3.2
1 0.375 3.075
0.875 0.375 3.2
0.875 0.5 3.075
0.875 0.375 3.075
1.25 0.375 3.2
1.25 0.5 3.075
1.125 0.5 3.2
1.25 0.375 3.075
1.125 0.375 3.2
1.125 0.5 3.075
1.125 0.375 3.075
1.5 0.375 3.2
1.5 0.5 3.075
1.375 0.5 3.2
1.5 0.375 3.075
1.375 0.375 3.2
1.375 0.5 3.075
1.375 0.375 3.075
1.75 0.375 3.2
1.75 0.5 3.075
1.625 0.5 3.2
1.75 0.375 3.075
1.625 0.375 3.2
1.625 0.5 3.075
1.625 0.375 3.075
2 0.375 3.2
2 0.5 3.075
1.875 0.5 3.2
2 0.375 3.075
1.875 0.375 3.2
1.875 0.5 3.075
1.875 0.375 3.075
2.25 0.375 3.2
2.25 0.5 3.075
2.125 0.5 3.2
2.25 0.375 3.075
2.125 0.375 3.2
2.125 0.5 3.075
2.125 0.375 3.075
2.5 0.375 3.2
2.5 0.5 3.075
2.375 0.5 3.2
2.5 0.375 3.075
2.375 0.375 3.2
2.375 0.5 3.075
2.375 0.375 3.075
2.75 0.375 3.2
2.75 0.5 3.075
2.625 0.5 3.2
2.75 0.375 3.075
2.625 0.375 3.2
2.625 0.5 3.075
2.625 0.375 3.075
3 0.375 3.2
3 0.5 3.075
2.875 0.5 3.2
3 0.375 3.075
2.875 0.375 3.2
2.875 0.5 3.075
2.875 0.375 3.075
3.25 0.375 3.2
3.25 0.5 3.075
3.125 0.5 3.2
3.25 0.375 3.075
3.125 0.375 3.2
3.125 0.5 3.075
3.125 0.375 3.075
3.5 0.375 3.2
3.5 0.5 3.075
3.375 0.5 3.2
3.5 0.375 3.075
3.375 0.375 3.2
3.375 0.5 3.075
3.375 0.375 3.075
3.75 0.375 3.2
3.75 0.5 3.075
3.625 0.5 3.2
3.75 0.375 3.075
3.625 0.375 3.2
3.625 0.5 3.075
3.625 0.375 3.075
4 0.375 3.2
4 0.5 3.075
3.875 0.5 3.2
4 0.375 3.075
3.875 0.375 3.2
3.875 0.5 3.075
3.875 0.375 3.075
0.25 0.625 3.2
0 0.625 3.2
0.25 0.75 3.075
0.125 0.75 3.2
0 0.75 3.075
0.25 0.625 3.075
0.125 0.625 3.2
0 0.625 3.075
0.125 0.75 3.075
0.125 0.625 3.075
0.5 0.625 3.2
0.5 0.75 3.075
0.375 0.75 3.2
0.5 0.625 3.075
0.375 0.625 3.2
0.375 0.75 3.075
0.375 0.625 3.075
0.75 0.625 3.2
0.75 0.75 3.075
0.625 0.75 3.2
0.75 0.625 3.075
0.625 0.625 3.2
0.625 0.75 3.075
0.625 0.625 3.075
1 0.625 3.2
1 0.75 3.075
0.875 0.75 3.2
1 0.625 3.075
0.875 0.625 3.2
0.875 0.75 3.075
0.875 0.625 3.075
1.25 0.625 3.2
1.25 0.75 3.075
1.125 0.75 3.2
1.25 0.625 3.075
1.125 0.625 3.2
1.125 0.75 3.075
1.125 0.625 3.075
1.5 0.625 3.2
1.5 0.75 3.075
1.375 0.75 3.2
1.5 0.625 3.075
1.375 0.625 3.2
1.375 0.75 3.075
1.375 0.625 3.075
1.75 0.625 3.2
1.75 0.75 3.075
1.625 0.75 3.2
1.75 0.625 3.075
1.625 0.625 3.2
1.625 0.75 3.075
1.625 0.625 3.075
2 0.625 3.2
2 0.75 3.075
1.875 0.75 3.2
2 0.625 3.075
1.875 0.625 3.2
1.875 0.75 3.075
1.875 0.625 3.075
2.25 0.625 3.2
2.25 0.75 3.075
2.125 0.75 3.2
2.25 0.625 3.075
2.125 0.625 3.2
2.125 0.75 3.075
2.125 0.625 3.075
2.5 0.625 3.2
2.5 0.75 3.075
2.375 0.75 3.2
2.5 0.625 3.075
2.375 0.625 3.2
2.375 0.75 3.075
2.375 0.625 3.075
2.75 0.625 3.2
2.75 0.75 3.075
2.625 0.75 3.2
2.75 0.625 3.075
2.625 0.625 3.2
2.625 0.75 3.075
2.625 0.625 3.075
3 0.625 3.2
3 0.75 3.075
2.875 0.75 3.2
3 0.625 3.075
2.875 0.625 3.2
2.875 0.75 3.075
2.875 0.625 3.075
3.25 0.625 3.2
3.25 0.75 3.075
3.125 0.75 3.2
3.25 0.625 3.075
3.125 0.625 3.2
3.125 0.75 3.075
3.125 0.625 3.075
3.5 0.625 3.2
3.5 0.75 3.075
3.375 0.75 3.2
3.5 0.625 3.075
3.375 0.625 3.2
3.375 0.75 3.075
3.375 0.625 3.075
3.75 0.625 3.2
3.75 0.75 3.075
3.625 0.75 3.2
3.75 0.625 3.075
3.625 0.625 3.2
3.625 0.75 3.075
3.625 0.625 3.075
4 0.625 3.2
4 0.75 3.075
3.875 0.75 3.2
4 0.625 3.075
3.875 0.625 3.2
3.875 0.75 3.075
3.875 0.625 3.075
0.25 0.875 3.2
0 0.875 3.2
0.25 1 3.075
0.125 1 3.2
0 1 3.075
0.25 0.875 3.075
0.125 0.875 3.2
0 0.875 3.075
0.125 1 3.075
0.125 0.875 3.075
0.5 0.875 3.2
0.5 1 3.075
0.375 1 3.2
0.5 0.875 3.075
0.375 0.875 3.2
0.375 1 3.075
0.375 0.875 3.075
0.75 0.875 3.2
0.75 1 3.075
0.625 1 3.2
0.75 0.875 3.075
0.625 0.875 3.2
0.625 1 3.075
0.625 0.875 3.075
1 0.875 3.2
1 1 3.075
0.875 1 3.2
1 0.875 3.075
0.875 0.875 3.2
0.875 1 3.075
0.875 0.875 3.075
1.25 0.875 3.2
1.25 1 3.075
1.125 1 3.2
1.25 0.875 3.075
1.125 0.875 3.2
1.125 1 3.075
1.125 0.875 3.075
1.5 0.875 3.2
1.5 1 3.075
1.375 1 3.2
1.5 0.875 3.075
1.375 0.875 3.2
1.375 1 3.075
1.375 0.875 3.075
1.75 0.875 3.2
1.75 1 3.075
1.625 1 3.2
1.75 0.875 3.075
1.625 0.875 3.2
1.625 1 3.075
1.625 0.875 3.075
2 0.875 3.2
2 1 3.075
1.875 1 3.2
2 0.875 3.075
1.875 0.875 3.2
1.875 1 3.075
1.875 0.875 3.075
2.25 0.875 3.2
2.25 1 3.075
2.125 1 3.2
2.25 0.875 3.075
2.125 0.875 3.2
2.125 1 3.075
2.125 0.875 3.075
2.5 0.875 3.2
2.5 1 3.075
2.375 1 3.2
2.5 0.875 3.075
2.375 0.875 3.2
2.375 1 3.075
2.375 0.875 3.075
2.75 0.875 3.2
2.75 1 3.075
2.625 1 3.2
2.75 0.875 3.075
2.625 0.875 3.2
2.625 1 3.075
2.625 0.875 3.075
3 0.875 3.2
3 1 3.075
2.875 1 3.2
3 0.875 3.075
2.875 0.875 3.2
2.875 1 3.075
2.875 0.875 3.075
3.25 0.875 3.2
3.25 1 3.075
3.125 1 3.2
3.25 0.875 3.075
3.125 0.875 3.2
3.125 1 3.075
3.125 0.875 3.075
3.5 0.875 3.2
3.5 1 3.075
3.375 1 3.2
3.5 0.875 3.075
3.375 0.875 3.2
3.375 1 3.075
3.375 0.875 3.075
3.75 0.875 3.2
3.75 1 3.075
3.625 1 3.2
3.75 0.875 3.075
3.625 0.875 3.2
3.625 1 3.075
3.625 0.875 3.075
4 0.875 3.2
4 1 3.075
3.875 1 3.2
4 0.875 3.075
3.875 0.875 3.2
3.875 1 3.075
3.875 0.875 3.075

CELLS 257 6912
OFFSETS vtktypeint64
0 27 54 81 108 135 162 189 216 243 270 297 324 351 378 405 432 459 486 513 540 567 594 621 648 675 702 729 756 783 810 837 864 891 918 945 972 999 1026 1053 1080 1107 1134 1161 1188 1215 1242 1269 1296 1323 1350 1377 1404 1431 1458 1485 1512 1539 1566 1593 1620 1647 1674 1701 1728 1755 1782 1809 1836 1863 1890 1917 1944 1971 1998 2025 2052 2079 2106 2133 2160 2187 2214 2241 2268 2295 2322 2349 2376 2403 2430 2457 2484 2511 2538 2565 2592 2619 2646 2673 2700 2727 2754 2781 2808 2835 2862 2889 2916 2943 2970 2997 3024 3051 3078 3105 3132 3159 3186 3213 3240 3267 3294 3321 3348 3375 3402 3429 3456 3483 3510 3537 3564 3591 3618 3645 3672 3699 3726 3753 3780 3807 3834 3861 3888 3915 3942 3969 3996 4023 4050 4077 4104 4131 4158 4185 4212 4239 4266 4293 4320 4347 4374 4401 4428 4455 4482 4509 4536 4563 4590 4617 4644 4671 4698 4725 4752 4779 4806 4833 4860 4887 4914 4941 4968 4995 5022 5049 5076 5103 5130 5157 5184 5211 5238 5265 5292 5319 5346 5373 5400 5427 5454 5481 5508 5535 5562 5589 5616 5643 5670 5697 5724 5751 5778 5805 5832 5859 5886 5913 5940 5967 5994 6021 6048 6075 6102 6129 6156 6183 6210 6237 6264 6291 6318 6345 6372 6399 6426 6453 6480 6507 6534 6561 6588 6615 6642 6669 6696 6723 6750 6777 6804 6831 6858 6885 6912 
CONNECTIVITY vtktypeint64
0 1 86 85 17 18 103 102 425 426 427 428 433 434 435 436 429 430 431 432 441 439 438 440 437 442 443 
1 2 87 86 18 19 104 103 444 445 446 426 449 450 451 434 430 447 448 431 439 454 453 455 452 456 457 
2 3 88 87 19 20 105 104 458 459 460 445 463 464 465 450 447 461 462 448 454 468 467 469 466 470 471 
3 4 89 88 20 21 106 105 472 473 474 459 477 478 479 464 461 475 476 462 468 482 481 483 480 484 485 
4 5 90 89 21 22 107 106 486 487 488 473 491 492 493 478 475 489 490 476 482 496 495 497 494 498 499 
5 6 91 90 22 23 108 107 500 501 502 487 505 506 507 492 489 503 504 490 496 510 509 511 508 512 513 
6 7 92 91 23 24 109 108 514 515 516 501 519 520 521 506 503 517 518 504 510 524 523 525 522 526 527 
7 8 93 92 24 25 110 109 528 529 530 515 533 534 535 520 517 531 532 518 524 538 537 539 536 540 541 
8 9 94 93 25 26 111 110 542 543 544 529 547 548 549 534 531 545 546 532 538 552 551 553 550 554 555 
9 10 95 94 26 27 112 111 556 557 558 543 561 562 563 548 545 559 560 546 552 566 565 567 564 568 569 
10 11 96 95 27 28 113 112 570 571 572 557 575 576 577 562 559 573 574 560 566 580 579 581 578 582 583 
11 12 97 96 28 29 114 113 584 585 586 571 589 590 591 576 573 587 588 574 580 594 593 595 592 596 597 
12 13 98 97 29 30 115 114 598 599 600 585 603 604 605 590 587 601 602 588 594 608 607 609 606 610 611 
13 14 99 98 30 31 116 115 612 613 614 599 617 618 619 604 601 615 616 602 608 622 621 623 620 624 625 
14 15 100 99 31 32 117 116 626 627 628 613 631 632 633 618 615 629 630 616 622 636 635 637 634 638 639 
15 16 101 100 32 33 118 117 640 641 642 627 645 646 647 632 629 643 644 630 636 650 649 651 648 652 653 
17 18 103 102 34 35 120 119 433 434 435 436 658 659 660 661 654 655 656 657 665 663 662 664 442 666 667 
18 19 104 103 35 36 121 120 449 450 451 434 670 671 672 659 655 668 669 656 663 674 673 675 456 676 677 
19 20 105 104 36 37 122 121 463 464 465 450 680 681 682 671 668 678 679 669 674 684 683 685 470 686 687 
20 21 106 105 37 38 123 122 477 478 479 464 690 691 692 681 678 688 689 679 684 694 693 695 484 696 697 
21 22 107 106 38 39 124 123 491 492 493 478 700 701 702 691 688 698 699 689 694 704 703 705 498 706 707 
22 23 108 107 39 40 125 124 505 506 507 492 710 711 712 701 698 708 709 699 704 714 713 715 512 716 717 
23 24 109 108 40 41 126 125 519 520 521 506 720 721 722 711 708 718 719 709 714 724 723 725 526 726 727 
24 25 110 109 41 42 127 126 533 534 535 520 730 731 732 721 718 728 729 719 724 734 733 735 540 736 737 
25 26 111 110 42 43 128 127 547 548 549 534 740 741 742 731 728 738 739 729 734 744 743 745 554 746 747 
26 27 112 111 43 44 129 128 561 562 563 548 750 751 752 741 738 748 749 739 744 754 753 755 568 756 757 
27 28 113 112 44 45 130 129 575 576 577 562 760 761 762 751 748 758 759 749 754 764 763 765 582 766 767 
28 29 114 113 45 46 131 130 589 590 591 576 770 771 772 761 758 768 769 759 764 774 773 775 596 776 777 
29 30 115 114 46 47 132 131 603 604 605 590 780 781 782 771 768 778 779 769 774 784 783 785 610 786 787 
30 31 116 115 47 48 133 132 617 618 619 604 790 791 792 781 778 788 789 779 784 794 793 795 624 796 797 
31 32 117 116 48 49 134 133 631 632 633 618 800 801 802 791 788 798 799 789 794 804 803 805 638 806 807 
32 33 118 117 49 50 135 134 645 646 647 632 810 811 812 801 798 808 809 799 804 814 813 815 652 816 817 
34 35 120 119 51 52 137 136 658 659 660 661 822 823 824 825 818 819 820 821 829 827 826 828 666 830 831 
35 36 121 120 52 53 138 137 670 671 672 659 834 835 836 823 819 832 833 820 827 838 837 839 676 840 841 
36 37 122 121 53 54 139 138 680 681 682 671 844 845 846 835 832 842 843 833 838 848 847 849 686 850 851 
37 38 123 122 54 55 140 139 690 691 692 681 854 855 856 845 842 852 853 843 848 858 857 859 696 860 861 
38 39 124 123 55 56 141 140 700 701 702 691 864 865 866 855 852 862 863 853 858 868 867 869 706 870 871 
39 40 125 124 56 57 142 141 710 711 712 701 874 875 876 865 862 872 873 863 868 878 877 879 716 880 881 
40 41 126 125 57 58 143 142 720 721 722 711 884 885 886 875 872 882 883 873 878 888 887 889 726 890 891 
41 42 127 126 58 59 144 143 730 731 732 721 894 895 896 885 882 892 893 883 888 898 897 899 736 900 901 
42 43 128 127 59 60 145 144 740 741 742 731 904 905 906 895 892 902 903 893 898 908 907 909 746 910 911 
43 44 129 128 60 61 146 145 750 751 752 741 914 915 916 905 902 912 913 903 908 918 917 919 756 920 921 
44 45 130 129 61 62 147 146 760 761 762 751 924 925 926 915 912 922 923 913 918 928 927 929 766 930 931 
45 46 131 130 62 63 148 147 770 771 772 761 934 935 936 925 922 932 933 923 928 938 937 939 776 940 941 
46 47 132 131 63 64 149 148 780 781 782 771 944 945 946 935 932 942 943 933 938 948 947 949 786 950 951 
47 48 133 132 64 65 150 149 790 791 792 781 954 955 956 945 942 952 953 943 948 958 957 959 796 960 961 
48 49 134 133 65 66 151 150 800 801 802 791 964 965 966 955 952 962 963 953 958 968 967 969 806 970 971 
49 50 135 134 66 67 152 151 810 811 812 801 974 975 976 965 962 972 973 963 968 978 977 979 816 980 981 
51 52 137 136 68 69 154 153 822 823 824 825 986 987 988 989 982 983 984 985 993 991 990 992 830 994 995 
52 53 138 137 69 70 155 154 834 835 836 823 998 999 1000 987 983 996 997 984 991 1002 1001 1003 840 1004 1005 
53 54 139 138 70 71 156 155 844 845 846 835 1008 1009 1010 999 996 1006 1007 997 1002 1012 1011 1013 850 1014 1015 
54 55 140 139 71 72 157 156 854 855 856 845 1018 1019 1020 1009 1006 1016 1017 1007 1012 1022 1021 1023 860 1024 1025 
55 56 141 140 72 73 158 157 864 865 866 855 1028 1029 1030 1019 1016 1026 1027 1017 1022 1032 1031 1033 870 1034 1035 
56 57 142 141 73 74 159 158 874 875 876 865 1038 1039 1040 1029 1026 1036 1037 1027 1032 1042 1041 1043 880 1044 1045 
57 58 143 142 74 75 160 159 884 885 886 875 1048 1049 1050 1039 1036 1046 1047 1037 1042 1052 1051 1053 890 1054 1055 
58 59 144 143 75 76 161 160 894 895 896 885 1058 1059 1060 1049 1046 1056 1057 1047 1052 1062 1061 1063 900 1064 1065 
59 60 145 144 76 77 162 161 904 905 906 895 1068 1069 1070 1059 1056 1066 1067 1057 1062 1072 1071 1073 910 1074 1075 
60 61 146 145 77 78 163 162 914 915 916 905 1078 1079 1080 1069 1066 1076 1077 1067 1072 1082 1081 1083 920 1084 1085 
61 62 147 146 78 79 164 163 924 925 926 915 1088 1089 1090 1079 1076 1086 1087 1077 1082 1092 1091 1093 930 1094 1095 
62 63 148 147 79 80 165 164 934 935 936 925 1098 1099 1100 1089 1086 1096 1097 1087 1092 1102 1101 1103 940 1104 1105 
63 64 149 148 80 81 166 165 944 945 946 935 1108 1109 1110 1099 1096 1106 1107 1097 1102 1112 1111 1113 950 1114 1115 
64 65 150 149 81 82 167 166 954 955 956 945 1118 1119 1120 1109 1106 1116 1117 1107 1112 1122 1121 1123 960 1124 1125 
65 66 151 150 82 83 168 167 964 965 966 955 1128 1129 1130 1119 1116 1126 1127 1117 1122 1132 1131 1133 970 1134 1135 
66 67 152 151 83 84 169 168 974 975 976 965 1138 1139 1140 1129 1126 1136 1137 1127 1132 1142 1141 1143 980 1144 1145 
85 86 171 170 102 103 188 187 427 1146 1147 1148 435 1151 1152 1153 432 431 1149 1150 1157 1155 440 1156 1154 1158 1159 
86 87 172 171 103 104 189 188 446 1160 1161 1146 451 1163 1164 1151 431 448 1162 1149 1155 1166 455 1167 1165 1168 1169 
87 88 173 172 104 105 190 189 460 1170 1171 1160 465 1173 1174 1163 448 462 1172 1162 1166 1176 469 1177 1175 1178 1179 
88 89 174 173 105 106 191 190 474 1180 1181 1170 479 1183 1184 1173 462 476 1182 1172 1176 1186 483 1187 1185 1188 1189 
89 90 175 174 106 107 192 191 488 1190 1191 1180 493 1193 1194 1183 476 490 1192 1182 1186 1196 497 1197 1195 1198 1199 
90 91 176 175 107 108 193 192 502 1200 1201 1190 507 1203 1204 1193 490 504 1202 1192 1196 1206 511 1207 1205 1208 1209 
91 92 177 176 108 109 194 193 516 1210 1211 1200 521 1213 1214 1203 504 518 1212 1202 1206 1216 525 1217 1215 1218 1219 
92 93 178 177 109 110 195 194 530 1220 1221 1210 535 1223 1224 1213 518 532 1222 1212 1216 1226 539 1227 1225 1228 1229 
93 94 179 178 110 111 196 195 544 1230 1231 1220 549 1233 1234 1223 532 546 1232 1222 1226 1236 553 1237 1235 1238 1239 
94 95 180 179 111 112 197 196 558 1240 1241 1230 563 1243 1244 1233 546 560 1242 1232 1236 1246 567 1247 1245 1248 1249 
95 96 181 180 112 113 198 197 572 1250 1251 1240 577 1253 1254 1243 560 574 1252 1242 1246 1256 581 1257 1255 1258 1259 
96 97 182 181 113 114 199 198 586 1260 1261 1250 591 1263 1264 1253 574 588 1262 1252 1256 1266 595 1267 1265 1268 1269 
97 98 183 182 114 115 200 199 600 1270 1271 1260 605 1273 1274 1263 588 602 1272 1262 1266 1276 609 1277 1275 1278 1279 
98 99 184 183 115 116 201 200 614 1280 1281 1270 619 1283 1284 1273 602 616 1282 1272 1276 1286 623 1287 1285 1288 1289 
99 100 185 184 116 117 202 201 628 1290 1291 1280 633 1293 1294 1283 616 630 1292 1282 1286 1296 637 1297 1295 1298 1299 
100 101 186 185 117 118 203 202 642 1300 1301 1290 647 1303 1304 1293 630 644 1302 1292 1296 1306 651 1307 1305 1308 1309 
102 103 188 187 119 120 205 204 435 1151 1152 1153 660 1312 1313 1314 657 656 1310 1311 1317 1315 664 1316 1158 1318 1319 
103 104 189 188 120 121 206 205 451 1163 1164 1151 672 1321 1322 1312 656 669 1320 1310 1315 1323 675 1324 1168 1325 1326 
104 105 190 189 121 122 207 206 465 1173 1174 1163 682 1328 1329 1321 669 679 1327 1320 1323 1330 685 1331 1178 1332 1333 
105 106 191 190 122 123 208 207 479 1183 1184 1173 692 1335 1336 1328 679 689 1334 1327 1330 1337 695 1338 1188 1339 1340 
106 107 192 191 123 124 209 208 493 1193 1194 1183 702 1342 1343 1335 689 699 1341 1334 1337 1344 705 1345 1198 1346 1347 
107 108 193 192 124 125 210 209 507 1203 1204 1193 712 1349 1350 1342 699 709 1348 1341 1344 1351 715 1352 1208 1353 1354 
108 109 194 193 125 126 211 210 521 1213 1214 1203 722 1356 1357 1349 709 719 1355 1348 1351 1358 725 1359 1218 1360 1361 
109 110 195 194 126 127 212 211 535 1223 1224 1213 732 1363 1364 1356 719 729 1362 1355 1358 1365 735 1366 1228 1367 1368 
110 111 196 195 127 128 213 212 549 1233 1234 1223 742 1370 1371 1363 729 739 1369 1362 1365 1372 745 1373 1238 1374 1375 
111 112 197 196 128 129 214 213 563 1243 1244 1233 752 1377 1378 1370 739 749 1376 1369 1372 1379 755 1380 1248 1381 1382 
112 113 198 197 129 130 215 214 577 1253 1254 1243 762 1384 1385 1377 749 759 1383 1376 1379 1386 765 1387 1258 1388 1389 
113 114 199 198 130 131 216 215 591 1263 1264 1253 772 1391 1392 1384 759 769 1390 1383 1386 1393 775 1394 1268 1395 1396 
114 115 200 199 131 132 217 216 605 1273 1274 1263 782 1398 1399 1391 769 779 1397 1390 1393 1400 785 1401 1278 1402 1403 
115 116 201 200 132 133 218 217 619 1283 1284 1273 792 1405 1406 1398 779 789 1404 1397 1400 1407 795 1408 1288 1409 1410 
116 117 202 201 133 134 219 218 633 1293 1294 1283 802 1412 1413 1405 789 799 1411 1404 1407 1414 805 1415 1298 1416 1417 
117 118 203 202 134 135 220 219 647 1303 1304 1293 812 1419 1420 1412 799 809 1418 1411 1414 1421 815 1422 1308 1423 1424 
119 120 205 204 136 137 222 221 660 1312 1313 1314 824 1427 1428 1429 821 820 1425 1426 1432 1430 828 1431 1318 1433 1434 
120 121 206 205 137 138 223 222 672 1321 1322 1312 836 1436 1437 1427 820 833 1435 1425 1430 1438 839 1439 1325 1440 1441 
121 122 207 206 138 139 224 223 682 1328 1329 1321 846 1443 1444 1436 833 843 1442 1435 1438 1445 849 1446 1332 1447 1448 
122 123 208 207 139 140 225 224 692 1335 1336 1328 856 1450 1451 1443 843 853 1449 1442 1445 1452 859 1453 1339 1454 1455 
123 124 209 208 140 141 226 225 702 1342 1343 1335 866 1457 1458 1450 853 863 1456 1449 1452 1459 869 1460 1346 1461 1462 
124 125 210 209 141 142 227 226 712 1349 1350 1342 876 1464 1465 1457 863 873 1463 1456 1459 1466 879 1467 1353 1468 1469 
125 126 211 210 142 143 228 227 722 1356 1357 1349 886 1471 1472 1464 873 883 1470 1463 1466 1473 889 1474 1360 1475 1476 
126 127 212 211 143 144 229 228 732 1363 1364 1356 896 1478 1479 1471 883 893 1477 1470 1473 1480 899 1481 1367 1482 1483 
127 128 213 212 144 145 230 229 742 1370 1371 1363 906 1485 1486 1478 893 903 1484 1477 1480 1487 909 1488 1374 1489 1490 
128 129 214 213 145 146 231 230 752 1377 1378 1370 916 1492 1493 1485 903 913 1491 1484 1487 1494 919 1495 1381 1496 1497 
129 130 215 214 146 147 232 231 762 1384 1385 1377 926 1499 1500 1492 913 923 1498 1491 1494 1501 929 1502 1388 1503 1504 
130 131 216 215 147 148 233 232 772 1391 1392 1384 936 1506 1507 1499 923 933 1505 1498 1501 1508 939 1509 1395 1510 1511 
131 132 217 216 148 149 234 233 782 1398 1399 1391 946 1513 1514 1506 933 943 1512 1505 1508 1515 949 1516 1402 1517 1518 
132 133 218 217 149 150 235 234 792 1405 1406 1398 956 1520 1521 1513 943 953 1519 1512 1515 1522 959 1523 1409 1524 1525 
133 134 219 218 150 151 236 235 802 1412 1413 1405 966 1527 1528 1520 953 963 1526 1519 1522 1529 969 1530 1416 1531 1532 
134 135 220 219 151 152 237 236 812 1419 1420 1412 976 1534 1535 1527 963 973 1533 1526 1529 1536 979 1537 1423 1538 1539 
136 137 222 221 153 154 239 238 824 1427 1428 1429 988 1542 1543 1544 985 984 1540 1541 1547 1545 992 1546 1433 1548 1549 
137 138 223 222 154 155 240 239 836 1436 1437 1427 1000 1551 1552 1542 984 997 1550 1540 1545 1553 1003 1554 1440 1555 1556 
138 139 224 223 155 156 241 240 846 1443 1444 1436 1010 1558 1559 1551 997 1007 1557 1550 1553 1560 1013 1561 1447 1562 1563 
139 140 225 224 156 157 242 241 856 1450 1451 1443 1020 1565 1566 1558 1007 1017 1564 1557 1560 1567 1023 1568 1454 1569 1570 
140 141 226 225 157 158 243 242 866 1457 1458 1450 1030 1572 1573 1565 1017 1027 1571 1564 1567 1574 1033 1575 1461 1576 1577 
141 142 227 226 158 159 244 243 876 1464 1465 1457 1040 1579 1580 1572 1027 1037 1578 1571 1574 1581 1043 1582 1468 1583 1584 
142 143 228 227 159 160 245 244 886 1471 1472 1464 1050 1586 1587 1579 1037 1047 1585 1578 1581 1588 1053 1589 1475 1590 1591 
143 144 229 228 160 161 246 245 896 1478 1479 1471 1060 1593 1594 1586 1047 1057 1592 1585 1588 1595 1063 1596 1482 1597 1598 
144 145 230 229 161 162 247 246 906 1485 1486 1478 1070 1600 1601 1593 1057 1067 1599 1592 1595 1602 1073 1603 1489 1604 1605 
145 146 231 230 162 163 248 247 916 1492 1493 1485 1080 1607 1608 1600 1067 1077 1606 1599 1602 1609 1083 1610 1496 1611 1612 
146 147 232 231 163 164 249 248 926 1499 1500 1492 1090 1614 1615 1607 1077 1087 1613 1606 1609 1616 1093 1617 1503 1618 1619 
147 148 233 232 164 165 250 249 936 1506 1507 1499 1100 1621 1622 1614 1087 1097 1620 1613 1616 1623 1103 1624 1510 1625 1626 
148 149 234 233 165 166 251 250 946 1513 1514 1506 1110 1628 1629 1621 1097 1107 1627 1620 1623 1630 1113 1631 1517 1632 1633 
149 150 235 234 166 167 252 251 956 1520 1521 1513 1120 1635 1636 1628 1107 1117 1634 1627 1630 1637 1123 1638 1524 1639 1640 
150 151 236 235 167 168 253 252 966 1527 1528 1520 1130 1642 1643 1635 1117 1127 1641 1634 1637 1644 1133 1645 1531 1646 1647 
151 152 237 236 168 169 254 253 976 1534 1535 1527 1140 1649 1650 1642 1127 1137 1648 1641 1644 1651 1143 1652 1538 1653 1654 
170 171 256 255 187 188 273 272 1147 1655 1656 1657 1152 1660 1661 1662 1150 1149 1658 1659 1666 1664 1156 1665 1663 1667 1668 
171 172 257 256 188 189 274 273 1161 1669 1670 1655 1164 1672 1673 1660 1149 1162 1671 1658 1664 1675 1167 1676 1674 1677 1678 
172 173 258 257 189 190 275 274 1171 1679 1680 1669 1174 1682 1683 1672 1162 1172 1681 1671 1675 1685 1177 1686 1684 1687 1688 
173 174 259 258 190 191 276 275 1181 1689 1690 1679 1184 1692 1693 1682 1172 1182 1691 1681 1685 1695 1187 1696 1694 1697 1698 
174 175 260 259 191 192 277 276 1191 1699 1700 1689 1194 1702 1703 1692 1182 1192 1701 1691 1695 1705 1197 1706 1704 1707 1708 
175 176 261 260 192 193 278 277 1201 1709 1710 1699 1204 1712 1713 1702 1192 1202 1711 1701 1705 1715 1207 1716 1714 1717 1718 
176 177 262 261 193 194 279 278 1211 1719 1720 1709 1214 1722 1723 1712 1202 1212 1721 1711 1715 1725 1217 1726 1724 1727 1728 
177 178 263 262 194 195 280 279 1221 1729 1730 1719 1224 1732 1733 1722 1212 1222 1731 1721 1725 1735 1227 1736 1734 1737 1738 
178 179 264 263 195 196 281 280 1231 1739 1740 1729 1234 1742 1743 1732 1222 1232 1741 1731 1735 1745 1237 1746 1744 1747 1748 
179 180 265 264 196 197 282 281 1241 1749 1750 1739 1244 1752 1753 1742 1232 1242 1751 1741 1745 1755 1247 1756 1754 1757 1758 
180 181 266 265 197 198 283 282 1251 1759 1760 1749 1254 1762 1763 1752 1242 1252 1761 1751 1755 1765 1257 1766 1764 1767 1768 
181 182 267 266 198 199 284 283 1261 1769 1770 1759 1264 1772 1773 1762 1252 1262 1771 1761 1765 1775 1267 1776 1774 1777 1778 
182 183 268 267 199 200 285 284 1271 1779 1780 1769 1274 1782 1783 1772 1262 1272 1781 1771 1775 1785 1277 1786 1784 1787 1788 
183 184 269 268 200 201 286 285 1281 1789 1790 1779 1284 1792 1793 1782 1272 1282 1791 1781 1785 1795 1287 1796 1794 1797 1798 
184 185 270 269 201 202 287 286 1291 1799 1800 1789 1294 1802 1803 1792 1282 1292 1801 1791 1795 1805 1297 1806 1804 1807 1808 
185 186 271 270 202 203 288 287 1301 1809 1810 1799 1304 1812 1813 1802 1292 1302 1811 1801 1805 1815 1307 1816 1814 1817 1818 
187 188 273 272 204 205 290 289 1152 1660 1661 1662 1313 1821 1822 1823 1311 1310 1819 1820 1826 1824 1316 1825 1667 1827 1828 
188 189 274 273 205 206 291 290 1164 1672 1673 1660 1322 1830 1831 1821 1310 1320 1829 1819 1824 1832 1324 1833 1677 1834 1835 
189 190 275 274 206 207 292 291 1174 1682 1683 1672 1329 1837 1838 1830 1320 1327 1836 1829 1832 1839 1331 1840 1687 1841 1842 
190 191 276 275 207 208 293 292 1184 1692 1693 1682 1336 1844 1845 1837 1327 1334 1843 1836 1839 1846 1338 1847 1697 1848 1849 
191 192 277 276 208 209 294 293 1194 1702 1703 1692 1343 1851 1852 1844 1334 1341 1850 1843 1846 1853 1345 1854 1707 1855 1856 
192 193 278 277 209 210 295 294 1204 1712 1713 1702 1350 1858 1859 1851 1341 1348 1857 1850 1853 1860 1352 1861 1717 1862 1863 
193 194 279 278 210 211 296 295 1214 1722 1723 1712 1357 1865 1866 1858 1348 1355 1864 1857 1860 1867 1359 1868 1727 1869 1870 
194 195 280 279 211 212 297 296 1224 1732 1733 1722 1364 1872 1873 1865 1355 1362 1871 1864 1867 1874 1366 1875 1737 1876 1877 
195 196 281 280 212 213 298 297 1234 1742 1743 1732 1371 1879 1880 1872 1362 1369 1878 1871 1874 1881 1373 1882 1747 1883 1884 
196 197 282 281 213 214 299 298 1244 1752 1753 1742 1378 1886 1887 1879 1369 1376 1885 1878 1881 1888 1380 1889 1757 1890 1891 
197 198 283 282 214 215 300 299 1254 1762 1763 1752 1385 1893 1894 1886 1376 1383 1892 1885 1888 1895 1387 1896 1767 1897 1898 
198 199 284 283 215 216 301 300 1264 1772 1773 1762 1392 1900 1901 1893 1383 1390 1899 1892 1895 1902 1394 1903 1777 1904 1905 
199 200 285 284 216 217 302 301 1274 1782 1783 1772 1399 1907 1908 1900 1390 1397 1906 1899 1902 1909 1401 1910 1787 1911 1912 
200 201 286 285 217 218 303 302 1284 1792 1793 1782 1406 1914 1915 1907 1397 1404 1913 1906 1909 1916 1408 1917 1797 1918 1919 
201 202 287 286 218 219 304 303 1294 1802 1803 1792 1413 1921 1922 1914 1404 1411 1920 1913 1916 1923 1415 1924 1807 1925 1926 
202 203 288 287 219 220 305 304 1304 1812 1813 1802 1420 1928 1929 1921 1411 1418 1927 1920 1923 1930 1422 1931 1817 1932 1933 
204 205 290 289 221 222 307 306 1313 1821 1822 1823 1428 1936 1937 1938 1426 1425 1934 1935 1941 1939 1431 1940 1827 1942 1943 
205 206 291 290 222 223 308 307 1322 1830 1831 1821 1437 1945 1946 1936 1425 1435 1944 1934 1939 1947 1439 1948 1834 1949 1950 
206 207 292 291 223 224 309 308 1329 1837 1838 1830 1444 1952 1953 1945 1435 1442 1951 1944 1947 1954 1446 1955 1841 1956 1957 
207 208 293 292 224 225 310 309 1336 1844 1845 1837 1451 1959 1960 1952 1442 1449 1958 1951 1954 1961 1453 1962 1848 1963 1964 
208 209 294 293 225 226 311 310 1343 1851 1852 1844 1458 1966 1967 1959 1449 1456 1965 1958 1961 1968 1460 1969 1855 1970 1971 
209 210 295 294 226 227 312 311 1350 1858 1859 1851 1465 1973 1974 1966 1456 1463 1972 1965 1968 1975 1467 1976 1862 1977 1978 
210 211 296 295 227 228 313 312 1357 1865 1866 1858 1472 1980 1981 1973 1463 1470 1979 1972 1975 1982 1474 1983 1869 1984 1985 
211 212 297 296 228 229 314 313 1364 1872 1873 1865 1479 1987 1988 1980 1470 1477 1986 1979 1982 1989 1481 1990 1876 1991 1992 
212 213 298 297 229 230 315 314 1371 1879 1880 1872 1486 1994 1995 1987 1477 1484 1993 1986 1989 1996 1488 1997 1883 1998 1999 
213 214 299 298 230 231 316 315 1378 1886 1887 1879 1493 2001 2002 1994 1484 1491 2000 1993 1996 2003 1495 2004 1890 2005 2006 
214 215 300 299 231 232 317 316 1385 1893 1894 1886 1500 2008 2009 2001 1491 1498 2007 2000 2003 2010 1502 2011 1897 2012 2013 
215 216 301 300 232 233 318 317 1392 1900 1901 1893 1507 2015 2016 2008 1498 1505 2014 2007 2010 2017 1509 2018 1904 2019 2020 
216 217 302 301 233 234 319 318 1399 1907 1908 1900 1514 2022 2023 2015 1505 1512 2021 2014 2017 2024 1516 2025 1911 2026 2027 
217 218 303 302 234 235 320 319 1406 1914 1915 1907 1521 2029 2030 2022 1512 1519 2028 2021 2024 2031 1523 2032 1918 2033 2034 
218 219 304 303 235 236 321 320 1413 1921 1922 1914 1528 2036 2037 2029 1519 1526 2035 2028 2031 2038 1530 2039 1925 2040 2041 
219 220 305 304 236 237 322 321 1420 1928 1929 1921 1535 2043 2044 2036 1526 1533 2042 2035 2038 2045 1537 2046 1932 2047 2048 
221 222 307 306 238 239 324 323 1428 1936 1937 1938 1543 2051 2052 2053 1541 1540 2049 2050 2056 2054 1546 2055 1942 2057 2058 
222 223 308 307 239 240 325 324 1437 1945 1946 1936 1552 2060 2061 2051 1540 1550 2059 2049 2054 2062 1554 2063 1949 2064 2065 
223 224 309 308 240 241 326 325 1444 1952 1953 1945 1559 2067 2068 2060 1550 1557 2066 2059 2062 2069 1561 2070 1956 2071 2072 
224 225 310 309 241 242 327 326 1451 1959 1960 1952 1566 2074 2075 2067 1557 1564 2073 2066 2069 2076 1568 2077 1963 2078 2079 
225 226 311 310 242 243 328 327 1458 1966 1967 1959 1573 2081 2082 2074 1564 1571 2080 2073 2076 2083 1575 2084 1970 2085 2086 
226 227 312 311 243 244 329 328 1465 1973 1974 1966 1580 2088 2089 2081 1571 1578 2087 2080 2083 2090 1582 2091 1977 2092 2093 
227 228 313 312 244 245 330 329 1472 1980 1981 1973 1587 2095 2096 2088 1578 1585 2094 2087 2090 2097 1589 2098 1984 2099 2100 
228 229 314 313 245 246 331 330 1479 1987 1988 1980 1594 2102 2103 2095 1585 1592 2101 2094 2097 2104 1596 2105 1991 2106 2107 
229 230 315 314 246 247 332 331 1486 1994 1995 1987 1601 2109 2110 2102 1592 1599 2108 2101 2104 2111 1603 2112 1998 2113 2114 
230 231 316 315 247 248 333 332 1493 2001 2002 1994 1608 2116 2117 2109 1599 1606 2115 2108 2111 2118 1610 2119 2005 2120 2121 
231 232 317 316 248 249 334 333 1500 2008 2009 2001 1615 2123 2124 2116 1606 1613 2122 2115 2118 2125 1617 2126 2012 2127 2128 
232 233 318 317 249 250 335 334 1507 2015 2016 2008 1622 2130 2131 2123 1613 1620 2129 2122 2125 2132 1624 2133 2019 2134 2135 
233 234 319 318 250 251 336 335 1514 2022 2023 2015 1629 2137 2138 2130 1620 1627 2136 2129 2132 2139 1631 2140 2026 2141 2142 
234 235 320 319 251 252 337 336 1521 2029 2030 2022 1636 2144 2145 2137 1627 1634 2143 2136 2139 2146 1638 2147 2033 2148 2149 
235 236 321 320 252 253 338 337 1528 2036 2037 2029 1643 2151 2152 2144 1634 1641 2150 2143 2146 2153 1645 2154 2040 2155 2156 
236 237 322 321 253 254 339 338 1535 2043 2044 2036 1650 2158 2159 2151 1641 1648 2157 2150 2153 2160 1652 2161 2047 2162 2163 
255 256 341 340 272 273 358 357 1656 2164 2165 2166 1661 2169 2170 2171 1659 1658 2167 2168 2175 2173 1665 2174 2172 2176 2177 
256 257 342 341 273 274 359 358 1670 2178 2179 2164 1673 2181 2182 2169 1658 1671 2180 2167 2173 2184 1676 2185 2183 2186 2187 
257 258 343 342 274 275 360 359 1680 2188 2189 2178 1683 2191 2192 2181 1671 1681 2190 2180 2184 2194 1686 2195 2193 2196 2197 
258 259 344 343 275 276 361 360 1690 2198 2199 2188 1693 2201 2202 2191 1681 1691 2200 2190 2194 2204 1696 2205 2203 2206 2207 
259 260 345 344 276 277 362 361 1700 2208 2209 2198 1703 2211 2212 2201 1691 1701 2210 2200 2204 2214 1706 2215 2213 2216 2217 
260 261 346 345 277 278 363 362 1710 2218 2219 2208 1713 2221 2222 2211 1701 1711 2220 2210 2214 2224 1716 2225 2223 2226 2227 
261 262 347 346 278 279 364 363 1720 2228 2229 2218 1723 2231 2232 2221 1711 1721 2230 2220 2224 2234 1726 2235 2233 2236 2237 
262 263 348 347 279 280 365 364 1730 2238 2239 2228 1733 2241 2242 2231 1721 1731 2240 2230 2234 2244 1736 2245 2243 2246 2247 
263 264 349 348 280 281 366 365 1740 2248 2249 2238 1743 2251 2252 2241 1731 1741 2250 2240 2244 2254 1746 2255 2253 2256 2257 
264 265 350 349 281 282 367 366 1750 2258 2259 2248 1753 2261 2262 2251 1741 1751 2260 2250 2254 2264 1756 2265 2263 2266 2267 
265 266 351 350 282 283 368 367 1760 2268 2269 2258 1763 2271 2272 2261 1751 1761 2270 2260 2264 2274 1766 2275 2273 2276 2277 
266 267 352 351 283 284 369 368 1770 2278 2279 2268 1773 2281 2282 2271 1761 1771 2280 2270 2274 2284 1776 2285 2283 2286 2287 
267 268 353 352 284 285 370 369 1780 2288 2289 2278 1783 2291 2292 2281 1771 1781 2290 2280 2284 2294 1786 2295 2293 2296 2297 
268 269 354 353 285 286 371 370 1790 2298 2299 2288 1793 2301 2302 2291 1781 1791 2300 2290 2294 2304 1796 2305 2303 2306 2307 
269 270 355 354 286 287 372 371 1800 2308 2309 2298 1803 2311 2312 2301 1791 1801 2310 2300 2304 2314 1806 2315 2313 2316 2317 
270 271 356 355 287 288 373 372 1810 2318 2319 2308 1813 2321 2322 2311 1801 1811 2320 2310 2314 2324 1816 2325 2323 2326 2327 
272 273 358 357 289 290 375 374 1661 2169 2170 2171 1822 2330 2331 2332 1820 1819 2328 2329 2335 2333 1825 2334 2176 2336 2337 
273 274 359 358 290 291 376 375 1673 2181 2182 2169 1831 2339 2340 2330 1819 1829 2338 2328 2333 2341 1833 2342 2186 2343 2344 
274 275 360 359 291 292 377 376 1683 2191 2192 2181 1838 2346 2347 2339 1829 1836 2345 2338 2341 2348 1840 2349 2196 2350 2351 
275 276 361 360 292 293 378 377 1693 2201 2202 2191 1845 2353 2354 2346 1836 1843 2352 2345 2348 2355 1847 2356 2206 2357 2358 
276 277 362 361 293 294 379 378 1703 2211 2212 2201 1852 2360 2361 2353 1843 1850 2359 2352 2355 2362 1854 2363 2216 2364 2365 
277 278 363 362 294 295 380 379 1713 2221 2222 2211 1859 2367 2368 2360 1850 1857 2366 2359 2362 2369 1861 2370 2226 2371 2372 
278 279 364 363 295 296 381 380 1723 2231 2232 2221 1866 2374 2375 2367 1857 1864 2373 2366 2369 2376 1868 2377 2236 2378 2379 
279 280 365 364 296 297 382 381 1733 2241 2242 2231 1873 2381 2382 2374 1864 1871 2380 2373 2376 2383 1875 2384 2246 2385 2386 
280 281 366 365 297 298 383 382 1743 2251 2252 2241 1880 2388 2389 2381 1871 1878 2387 2380 2383 2390 1882 2391 2256 2392 2393 
281 282 367 366 298 299 384 383 1753 2261 2262 2251 1887 2395 2396 2388 1878 1885 2394 2387 2390 2397 1889 2398 2266 2399 2400 
282 283 368 367 299 300 385 384 1763 2271 2272 2261 1894 2402 2403 2395 1885 1892 2401 2394 2397 2404 1896 2405 2276 2406 2407 
283 284 369 368 300 301 386 385 1773 2281 2282 2271 1901 2409 2410 2402 1892 1899 2408 2401 2404 2411 1903 2412 2286 2413 2414 
284 285 370 369 301 302 387 386 1783 2291 2292 2281 1908 2416 2417 2409 1899 1906 2415 2408 2411 2418 1910 2419 2296 2420 2421 
285 286 371 370 302 303 388 387 1793 2301 2302 2291 1915 2423 2424 2416 1906 1913 2422 2415 2418 2425 1917 2426 2306 2427 2428 
286 287 372 371 303 304 389 388 1803 2311 2312 2301 1922 2430 2431 2423 1913 1920 2429 2422 2425 2432 1924 2433 2316 2434 2435 
287 288 373 372 304 305 390 389 1813 2321 2322 2311 1929 2437 2438 2430 1920 1927 2436 2429 2432 2439 1931 2440 2326 2441 2442 
289 290 375 374 306 307 392 391 1822 2330 2331 2332 1937 2445 2446 2447 1935 1934 2443 2444 2450 2448 1940 2449 2336 2451 2452 
290 291 376 375 307 308 393 392 1831 2339 2340 2330 1946 2454 2455 2445 1934 1944 2453 2443 2448 2456 1948 2457 2343 2458 2459 
291 292 377 376 308 309 394 393 1838 2346 2347 2339 1953 2461 2462 2454 1944 1951 2460 2453 2456 2463 1955 2464 2350 2465 2466 
292 293 378 377 309 310 395 394 1845 2353 2354 2346 1960 2468 2469 2461 1951 1958 2467 2460 2463 2470 1962 2471 2357 2472 2473 
293 294 379 378 310 311 396 395 1852 2360 2361 2353 1967 2475 2476 2468 1958 1965 2474 2467 2470 2477 1969 2478 2364 2479 2480 
294 295 380 379 311 312 397 396 1859 2367 2368 2360 1974 2482 2483 2475 1965 1972 2481 2474 2477 2484 1976 2485 2371 2486 2487 
295 296 381 380 312 313 398 397 1866 2374 2375 2367 1981 2489 2490 2482 1972 1979 2488 2481 2484 2491 1983 2492 2378 2493 2494 
296 297 382 381 313 314 399 398 1873 2381 2382 2374 1988 2496 2497 2489 1979 1986 2495 2488 2491 2498 1990 2499 2385 2500 2501 
297 298 383 382 314 315 400 399 1880 2388 2389 2381 1995 2503 2504 2496 1986 1993 2502 2495 2498 2505 1997 2506 2392 2507 2508 
298 299 384 383 315 316 401 400 1887 2395 2396 2388 2002 2510 2511 2503 1993 2000 2509 2502 2505 2512 2004 2513 2399 2514 2515 
299 300 385 384 316 317 402 401 1894 2402 2403 2395 2009 2517 2518 2510 2000 2007 2516 2509 2512 2519 2011 2520 2406 2521 2522 
300 301 386 385 317 318 403 402 1901 2409 2410 2402 2016 2524 2525 2517 2007 2014 2523 2516 2519 2526 2018 2527 2413 2528 2529 
301 302 387 386 318 319 404 403 1908 2416 2417 2409 2023 2531 2532 2524 2014 2021 2530 2523 2526 2533 2025 2534 2420 2535 2536 
302 303 388 387 319 320 405 404 1915 2423 2424 2416 2030 2538 2539 2531 2021 2028 2537 2530 2533 2540 2032 2541 2427 2542 2543 
303 304 389 388 320 321 406 405 1922 2430 2431 2423 2037 2545 2546 2538 2028 2035 2544 2537 2540 2547 2039 2548 2434 2549 2550 
304 305 390 389 321 322 407 406 1929 2437 2438 2430 2044 2552 2553 2545 2035 2042 2551 2544 2547 2554 2046 2555 2441 2556 2557 
306 307 392 391 323 324 409 408 1937 2445 2446 2447 2052 2560 2561 2562 2050 2049 2558 2559 2565 2563 2055 2564 2451 2566 2567 
307 308 393 392 324 325 410 409 1946 2454 2455 2445 2061 2569 2570 2560 2049 2059 2568 2558 2563 2571 2063 2572 2458 2573 2574 
308 309 394 393 325 326 411 410 1953 2461 2462 2454 2068 2576 2577 2569 2059 2066 2575 2568 2571 2578 2070 2579 2465 2580 2581 
309 310 395 394 326 327 412 411 1960 2468 2469 2461 2075 2583 2584 2576 2066 2073 2582 2575 2578 2585 2077 2586 2472 2587 2588 
310 311 396 395 327 328 413 412 1967 2475 2476 2468 2082 2590 2591 2583 2073 2080 2589 2582 2585 2592 2084 2593 2479 2594 2595 
311 312 397 396 328 329 414 413 1974 2482 2483 2475 2089 2597 2598 2590 2080 2087 2596 2589 2592 2599 2091 2600 2486 2601 2602 
312 313 398 397 329 330 415 414 1981 2489 2490 2482 2096 2604 2605 2597 2087 2094 2603 2596 2599 2606 2098 2607 2493 2608 2609 
313 314 399 398 330 331 416 415 1988 2496 2497 2489 2103 2611 2612 2604 2094 2101 2610 2603 2606 2613 2105 2614 2500 2615 2616 
314 315 400 399 331 332 417 416 1995 2503 2504 2496 2110 2618 2619 2611 2101 2108 2617 2610 2613 2620 2112 2621 2507 2622 2623 
315 316 401 400 332 333 418 417 2002 2510 2511 2503 2117 2625 2626 2618 2108 2115 2624 2617 2620 2627 2119 2628 2514 2629 2630 
316 317 402 401 333 334 419 418 2009 2517 2518 2510 2124 2632 2633 2625 2115 2122 2631 2624 2627 2634 2126 2635 2521 2636 2637 
317 318 403 402 334 335 420 419 2016 2524 2525 2517 2131 2639 2640 2632 2122 2129 2638 2631 2634 2641 2133 2642 2528 2643 2644 
318 319 404 403 335 336 421 420 2023 2531 2532 2524 2138 2646 2647 2639 2129 2136 2645 2638 2641 2648 2140 2649 2535 2650 2651 
319 320 405 404 336 337 422 421 2030 2538 2539 2531 2145 2653 2654 2646 2136 2143 2652 2645 2648 2655 2147 2656 2542 2657 2658 
320 321 406 405 337 338 423 422 2037 2545 2546 2538 2152 2660 2661 2653 2143 2150 2659 2652 2655 2662 2154 2663 2549 2664 2665 
321 322 407 406 338 339 424 423 2044 2552 2553 2545 2159 2667 2668 2660 2150 2157 2666 2659 2662 2669 2161 2670 2556 2671 2672 
CELL_TYPES 256
29 29 29 29 29 29 29 29 29 29 29 29 29 29 29 29 29 29 29 29 29 29 29 29 29 29 29 29 29 29 29 29 29 29 29 29 29 29 29 29 29 29 29 29 29 29 29 29 29 29 29 29 29 29 29 29 29 29 29 29 29 29 29 29 29 29 29 29 29 29 29 29 29 29 29 29 29 29 29 29 29 29 29 29 29 29 29 29 29 29 29 29 29 29 29 29 29 29 29 29 29 29 29 29 29 29 29 29 29 29 29 29 29 29 29 29 29 29 29 29 29 29 29 29 29 29 29 29 29 29 29 29 29 29 29 29 29 29 29 29 29 29 29 29 29 29 29 29 29 29 29 29 29 29 29 29 29 29 29 29 29 29 29 29 29 29 29 29 29 29 29 29 29 29 29 29 29 29 29 29 29 29 29 29 29 29 29 29 29 29 29 29 29 29 29 29 29 29 29 29 29 29 29 29 29 29 29 29 29 29 29 29 29 29 29 29 29 29 29 29 29 29 29 29 29 29 29 29 29 29 29 29 29 29 29 29 29 29 29 29 29 29 29 29 29 29 29 29 29 29 29 29 29 29 29 29 

POINT_DATA 2673
SCALARS weights float 1
LOOKUP_TABLE default
0.578704 1.15741 1.15741 1.15741 1.15741 1.15741 1.15741 1.15741 1.15741 1.15741 1.15741 1.15741 1.15741 1.15741 1.15741 1.15741 0.578704 1.15741 2.31482 2.31482 2.31482 2.31482 2.31482 2.31482 2.31482 2.31482 2.31482 2.31481 2.31482 2.31482 2.31482 2.31482 2.31482 1.15741 1.15741 2.31482 2.31482 2.31482 2.31482 2.31482 2.31482 2.31482 2.31482 2.31482 2.31481 2.31482 2.31482 2.31482 2.31482 2.31482 1.15741 1.15741 2.31482 2.31482 2.31482 2.31481 2.31482 2.31482 2.31482 2.31482 2.31482 2.31481 2.31482 2.31482 2.31482 2.31482 2.31482 1.15741 0.578704 1.15741 1.15741 1.15741 1.15741 1.15741 1.15741 1.15741 1.15741 1.15741 1.15741 1.15741 1.15741 1.15741 1.15741 1.15741 0.578704 1.15741 2.31482 2.31482 2.31481 2.31481 2.31482 2.31482 2.31482 2.31482 2.31481 2.31481 2.31481 2.31482 2.31482 2.31481 2.31481 1.15741 2.31482 4.62963 4.62963 4.62963 4.62963 4.62963 4.62963 4.62963 4.62963 4.62963 4.62963 4.62963 4.62963 4.62963 4.62963 4.62963 2.31482 2.31482 4.62963 4.62963 4.62963 4.62963 4.62963 4.62963 4.62963 4.62963 4.62963 4.62963 4.62963 4.62963 4.62963 4.62963 4.62963 2.31482 2.31481 4.62963 4.62963 4.62963 4.62963 4.62963 4.62963 4.62963 4.62963 4.62963 4.62963 4.62963 4.62963 4.62963 4.62963 4.62963 2.31482 1.15741 2.31481 2.31481 2.31481 2.31481 2.31481 2.31481 2.31481 2.31481 2.31481 2.31481 2.31481 2.31481 2.31482 2.31481 2.31481 1.15741 1.15741 2.31481 2.31481 2.31481 2.31481 2.31481 2.31481 2.31481 2.31481 2.31481 2.31481 2.31481 2.31481 2.31481 2.31481 2.31481 1.15741 2.31481 4.62963 4.62963 4.62963 4.62963 4.62963 4.62963 4.62963 4.62963 4.62963 4.62963 4.62963 4.62963 4.62963 4.62963 4.62963 2.31481 2.31481 4.62963 4.62963 4.62963 4.62963 4.62963 4.62963 4.62963 4.62963 4.62963 4.62963 4.62963 4.62963 4.62963 4.62963 4.62963 2.31481 2.31481 4.62963 4.62963 4.62963 4.62963 4.62963 4.62963 4.62963 4.62963 4.62963 4.62963 4.62963 4.62963 4.62963 4.62963 4.62963 2.31481 1.15741 2.31481 2.31481 2.31481 2.31481 2.31481 2.31481 2.31481 2.31481 2.31481 2.31481 2.31481 2.31481 2.31481 2.31481 2.31481 1.15741 1.15741 2.31481 2.31481 2.31481 2.31481 2.31481 2.31481 2.31481 2.31481 2.31481 2.31481 2.31481 2.31481 2.31481 2.31481 2.31481 1.15741 2.31481 4.62963 4.62963 4.62963 4.62963 4.62963 4.62963 4.62963 4.62963 4.62963 4.62963 4.62963 4.62963 4.62963 4.62963 4.62963 2.31482 2.31481 4.62963 4.62963 4.62963 4.62963 4.62963 4.62963 4.62963 4.62963 4.62963 4.62963 4.62963 4.62963 4.62963 4.62963 4.62963 2.31481 2.31481 4.62963 4.62963 4.62963 4.62963 4.62963 4.62963 4.62963 4.62963 4.62963 4.62963 4.62963 4.62963 4.62963 4.62963 4.62963 2.31481 1.15741 2.31481 2.31481 2.31481 2.31481 2.31481 2.31481 2.31481 2.31481 2.31481 2.31481 2.31481 2.31481 2.31481 2.31481 2.31481 1.15741 0.578704 1.15741 1.15741 1.15741 1.15741 1.15741 1.15741 1.15741 1.15741 1.15741 1.15741 1.15741 1.15741 1.15741 1.15741 1.15741 0.578704 1.15741 2.31482 2.31482 2.31482 2.31482 2.31482 2.31482 2.31482 2.31482 2.31482 2.31481 2.31482 2.31482 2.31482 2.31482 2.31482 1.15741 1.15741 2.31482 2.31482 2.31482 2.31482 2.31482 2.31482 2.31482 2.31482 2.31482 2.31481 2.31482 2.31482 2.31482 2.31482 2.31482 1.15741 1.15741 2.31482 2.31482 2.31482 2.31481 2.31482 2.31482 2.31482 2.31482 2.31481 2.31481 2.31481 2.31482 2.31482 2.31482 2.31481 1.15741 0.578704 1.15741 1.15741 1.15741 1.15741 1.15741 1.15741 1.15741 1.15741 1.15741 1.15741 1.15741 1.15741 1.15741 1.15741 1.15741 0.578704 0.578704 1.15741 1.15741 0.578704 0.578704 1.15741 2.31482 1.15741 1.15741 2.31482 2.31482 1.15741 0.578704 0.578704 1.15741 1.15741 0.578704 1.15741 0.578704 0.578704 1.15741 1.15741 1.15741 2.31482 1.15741 2.31482 2.31482 0.578704 0.578704 1.15741 1.15741 1.15741 0.578704 0.578704 1.15741 1.15741 1.15741 2.31481 1.15741 2.31482 2.31482 0.578704 0.578704 1.15741 1.15741 1.15741 0.578704 0.578704 1.15741 1.15741 1.15741 2.31481 1.15741 2.31482 2.31481 0.578704 0.578704 1.15741 1.15741 1.15741 0.578704 0.578704 1.15741 1.15741 1.15741 2.31482 1.15741 2.31482 2.31481 0.578704 0.578704 1.15741 1.15741 1.15741 0.578704 0.578704 1.15741 1.15741 1.15741 2.31482 1.15741 2.31482 2.31481 0.578704 0.578704 1.15741 1.15741 1.15741 0.578704 0.578704 1.15741 1.15741 1.15741 2.31482 1.15741 2.31482 2.31482 0.578704 0.578704 1.15741 1.15741 1.15741 0.578704 0.578704 1.15741 1.15741 1.15741 2.31482 1.15741 2.31482 2.31481 0.578704 0.578704 1.15741 1.15741 1.15741 0.578704 0.578704 1.15741 1.15741 1.15741 2.31481 1.15741 2.31482 2.31482 0.578704 0.578704 1.15741 1.15741 1.15741 0.578704 0.578704 1.15741 1.15741 1.15741 2.31481 1.15741 2.31481 2.31481 0.578704 0.578704 1.15741 1.15741 1.15741 0.578704 0.578704 1.15741 1.15741 1.15741 2.31481 1.15741 2.31482 2.31481 0.578704 0.578704 1.15741 1.15741 1.15741 0.578704 0.578704 1.15741 1.15741 1.15741 2.31482 1.15741 2.31482 2.31482 0.578704 0.578704 1.15741 1.15741 1.15741 0.578704 0.578704 1.15741 1.15741 1.15741 2.31482 1.15741 2.31482 2.31482 0.578704 0.578704 1.15741 1.15741 1.15741 0.578704 0.578704 1.15741 1.15741 1.15741 2.31481 1.15741 2.31482 2.31482 0.578704 0.578704 1.15741 1.15741 1.15741 0.578704 0.578704 1.15741 1.15741 1.15741 2.31481 1.15741 2.31482 2.31481 0.578704 0.578704 1.15741 1.15741 1.15741 0.578704 0.578704 0.578704 1.15741 0.578704 1.15741 1.15741 1.15741 2.31482 0.578704 0.578704 0.578704 1.15741 1.15741 0.578704 0.578704 1.15741 2.31482 1.15741 1.15741 2.31482 2.31482 1.15741 0.578704 1.15741 1.15741 0.578704 1.15741 0.578704 1.15741 2.31482 1.15741 2.31482 2.31482 0.578704 1.15741 1.15741 1.15741 0.578704 1.15741 2.31481 1.15741 2.31482 2.31482 0.578704 1.15741 1.15741 1.15741 0.578704 1.15741 2.31481 1.15741 2.31482 2.31481 0.578704 1.15741 1.15741 1.15741 0.578704 1.15741 2.31481 1.15741 2.31482 2.31481 0.578704 1.15741 1.15741 1.15741 0.578704 1.15741 2.31481 1.15741 2.31482 2.31482 0.578704 1.15741 1.15741 1.15741 0.578704 1.15741 2.31481 1.15741 2.31482 2.31482 0.578704 1.15741 1.15741 1.15741 0.578704 1.15741 2.31481 1.15741 2.31482 2.31481 0.578704 1.15741 1.15741 1.15741 0.578704 1.15741 2.31481 1.15741 2.31482 2.31482 0.578704 1.15741 1.15741 1.15741 0.578704 1.15741 2.31481 1.15741 2.31481 2.31481 0.578704 1.15741 1.15741 1.15741 0.578704 1.15741 2.31481 1.15741 2.31482 2.31481 0.578704 1.15741 1.15741 1.15741 0.578704 1.15741 2.31482 1.15741 2.31482 2.31482 0.578704 1.15741 1.15741 1.15741 0.578704 1.15741 2.31482 1.15741 2.31482 2.31481 0.578704 1.15741 1.15741 1.15741 0.578704 1.15741 2.31481 1.15741 2.31482 2.31482 0.578704 1.15741 1.15741 1.15741 0.578704 1.15741 2.31481 1.15741 2.31482 2.31481 0.578704 1.15741 1.15741 1.15741 0.578704 0.578704 1.15741 1.15741 1.15741 2.31482 0.578704 0.578704 1.15741 1.15741 0.578704 0.578704 1.15741 2.31482 1.15741 1.15741 2.31482 2.31481 1.15741 0.578704 1.15741 1.15741 0.578704 1.15741 0.578704 1.15741 2.31482 1.15741 2.31482 2.31481 0.578704 1.15741 1.15741 1.15741 0.578704 1.15741 2.31482 1.15741 2.31482 2.31482 0.578704 1.15741 1.15741 1.15741 0.578704 1.15741 2.31481 1.15741 2.31481 2.31481 0.578704 1.15741 1.15741 1.15741 0.578704 1.15741 2.31482 1.15741 2.31482 2.31481 0.578704 1.15741 1.15741 1.15741 0.578704 1.15741 2.31482 1.15741 2.31482 2.31482 0.578704 1.15741 1.15741 1.15741 0.578704 1.15741 2.31481 1.15741 2.31482 2.31481 0.578704 1.15741 1.15741 1.15741 0.578704 1.15741 2.31481 1.15741 2.31482 2.31481 0.578704 1.15741 1.15741 1.15741 0.578704 1.15741 2.31481 1.15741 2.31482 2.31481 0.578704 1.15741 1.15741 1.15741 0.578704 1.15741 2.31481 1.15741 2.31481 2.31481 0.578704 1.15741 1.15741 1.15741 0.578704 1.15741 2.31481 1.15741 2.31482 2.31481 0.578704 1.15741 1.15741 1.15741 0.578704 1.15741 2.31482 1.15741 2.31482 2.31482 0.578704 1.15741 1.15741 1.15741 0.578704 1.15741 2.31482 1.15741 2.31482 2.31481 0.578704 1.15741 1.15741 1.15741 0.578704 1.15741 2.31481 1.15741 2.31482 2.31482 0.578704 1.15741 1.15741 1.15741 0.578704 1.15741 2.31481 1.15741 2.31482 2.31481 0.578704 1.15741 1.15741 1.15741 0.578704 0.578704 1.15741 1.15741 1.15741 2.31482 0.578704 0.578704 1.15741 1.15741 0.578704 0.578704 1.15741 2.31481 1.15741 0.578704 1.15741 1.15741 0.578704 0.578704 1.15741 1.15741 0.578704 0.578704 0.578704 1.15741 2.31481 0.578704 1.15741 1.15741 0.578704 1.15741 1.15741 0.578704 0.578704 1.15741 2.31481 0.578704 1.15741 1.15741 0.578704 1.15741 1.15741 0.578704 0.578704 1.15741 2.31481 0.578704 1.15741 1.15741 0.578704 1.15741 1.15741 0.578704 0.578704 1.15741 2.31481 0.578704 1.15741 1.15741 0.578704 1.15741 1.15741 0.578704 0.578704 1.15741 2.31481 0.578704 1.15741 1.15741 0.578704 1.15741 1.15741 0.578704 0.578704 1.15741 2.31481 0.578704 1.15741 1.15741 0.578704 1.15741 1.15741 0.578704 0.578704 1.15741 2.31481 0.578704 1.15741 1.15741 0.578704 1.15741 1.15741 0.578704 0.578704 1.15741 2.31481 0.578704 1.15741 1.15741 0.578704 1.15741 1.15741 0.578704 0.578704 1.15741 2.31481 0.578704 1.15741 1.15741 0.578704 1.15741 1.15741 0.578704 0.578704 1.15741 2.31481 0.578704 1.15741 1.15741 0.578704 1.15741 1.15741 0.578704 0.578704 1.15741 2.31481 0.578704 1.15741 1.15741 0.578704 1.15741 1.15741 0.578704 0.578704 1.15741 2.31482 0.578704 1.15741 1.15741 0.578704 1.15741 1.15741 0.578704 0.578704 1.15741 2.31481 0.578704 1.15741 1.15741 0.578704 1.15741 1.15741 0.578704 0.578704 1.15741 2.31481 0.578704 1.15741 1.15741 0.578704 1.15741 1.15741 0.578704 0.578704 0.578704 1.15741 0.578704 0.578704 1.15741 0.578704 0.578704 1.15741 0.578704 0.578704 1.15741 1.15741 0.578704 2.31481 1.15741 2.31481 2.31481 1.15741 0.578704 1.15741 1.15741 0.578704 1.15741 0.578704 1.15741 1.15741 2.31481 2.31481 2.31481 0.578704 1.15741 1.15741 1.15741 0.578704 1.15741 1.15741 2.31481 2.31481 2.31481 0.578704 1.15741 1.15741 1.15741 0.578704 1.15741 1.15741 2.31481 2.31481 2.31481 0.578704 1.15741 1.15741 1.15741 0.578704 1.15741 1.15741 2.31481 2.31481 2.31481 0.578704 1.15741 1.15741 1.15741 0.578704 1.15741 1.15741 2.31481 2.31481 2.31481 0.578704 1.15741 1.15741 1.15741 0.578704 1.15741 1.15741 2.31481 2.31481 2.31481 0.578704 1.15741 1.15741 1.15741 0.578704 1.15741 1.15741 2.31481 2.31481 2.31481 0.578704 1.15741 1.15741 1.15741 0.578704 1.15741 1.15741 2.31481 2.31481 2.31481 0.578704 1.15741 1.15741 1.15741 0.578704 1.15741 1.15741 2.31481 2.31481 2.31481 0.578704 1.15741 1.15741 1.15741 0.578704 1.15741 1.15741 2.31481 2.31481 2.31481 0.578704 1.15741 1.15741 1.15741 0.578704 1.15741 1.15741 2.31481 2.31481 2.31481 0.578704 1.15741 1.15741 1.15741 0.578704 1.15741 1.15741 2.31481 2.31482 2.31481 0.578704 1.15741 1.15741 1.15741 0.578704 1.15741 1.15741 2.31481 2.31481 2.31481 0.578704 1.15741 1.15741 1.15741 0.578704 1.15741 1.15741 2.31481 2.31481 2.31481 0.578703 1.15741 1.15741 1.15741 0.578703 0.578704 1.15741 1.15741 1.15741 2.31481 0.578704 0.578704 1.15741 1.15741 0.578704 2.31481 1.15741 2.31481 2.31481 1.15741 1.15741 1.15741 0.578704 1.15741 0.578704 2.31481 2.31482 2.31481 1.15741 1.15741 1.15741 0.578704 2.31481 2.31481 2.31481 1.15741 1.15741 1.15741 0.578704 2.31481 2.31481 2.31481 1.15741 1.15741 1.15741 0.578704 2.31481 2.31481 2.31481 1.15741 1.15741 1.15741 0.578704 2.31481 2.31481 2.31481 1.15741 1.15741 1.15741 0.578704 2.31481 2.31481 2.31481 1.15741 1.15741 1.15741 0.578704 2.31481 2.31481 2.31481 1.15741 1.15741 1.15741 0.578704 2.31481 2.31481 2.31481 1.15741 1.15741 1.15741 0.578704 2.31481 2.31481 2.31481 1.15741 1.15741 1.15741 0.578703 2.31481 2.31481 2.31481 1.15741 1.15741 1.15741 0.578703 2.31481 2.31481 2.31481 1.15741 1.15741 1.15741 0.578704 2.31481 2.31482 2.31481 1.15741 1.15741 1.15741 0.578704 2.31481 2.31481 2.31481 1.15741 1.15741 1.15741 0.578704 2.31481 2.31481 2.31481 1.15741 1.15741 1.15741 0.578703 1.15741 1.15741 2.31481 0.578704 1.15741 1.15741 0.578704 2.31481 1.15741 2.31481 2.31481 1.15741 1.15741 1.15741 0.578704 1.15741 0.578704 2.31481 2.31481 2.31481 1.15741 1.15741 1.15741 0.578704 2.31481 2.31481 2.31481 1.15741 1.15741 1.15741 0.578704 2.31481 2.31481 2.31481 1.15741 1.15741 1.15741 0.578704 2.31481 2.31481 2.31481 1.15741 1.15741 1.15741 0.578704 2.31481 2.31481 2.31481 1.15741 1.15741 1.15741 0.578704 2.31481 2.31481 2.31481 1.15741 1.15741 1.15741 0.578704 2.31481 2.31481 2.31481 1.15741 1.15741 1.15741 0.578704 2.31481 2.31481 2.31481 1.15741 1.15741 1.15741 0.578704 2.31481 2.31481 2.31481 1.15741 1.15741 1.15741 0.578704 2.31481 2.31481 2.31481 1.15741 1.15741 1.15741 0.578704 2.31481 2.31481 2.31481 1.15741 1.15741 1.15741 0.578704 2.31481 2.31482 2.31481 1.15741 1.15741 1.15741 0.578704 2.31481 2.31481 2.31481 1.15741 1.15741 1.15741 0.578704 2.31481 2.31481 2.31481 1.15741 1.15741 1.15741 0.578703 1.15741 1.15741 2.31481 0.578704 1.15741 1.15741 0.578704 2.31481 1.15741 1.15741 1.15741 0.578704 1.15741 1.15741 0.578704 0.578704 0.578704 2.31481 1.15741 1.15741 1.15741 1.15741 0.578704 0.578704 2.31481 1.15741 1.15741 1.15741 1.15741 0.578704 0.578704 2.31481 1.15741 1.15741 1.15741 1.15741 0.578704 0.578704 2.31481 1.15741 1.15741 1.15741 1.15741 0.578704 0.578704 2.31481 1.15741 1.15741 1.15741 1.15741 0.578704 0.578704 2.31481 1.15741 1.15741 1.15741 1.15741 0.578704 0.578704 2.31481 1.15741 1.15741 1.15741 1.15741 0.578704 0.578704 2.31481 1.15741 1.15741 1.15741 1.15741 0.578704 0.578704 2.31481 1.15741 1.15741 1.15741 1.15741 0.578704 0.578704 2.31481 1.15741 1.15741 1.15741 1.15741 0.578704 0.578704 2.31481 1.15741 1.15741 1.15741 1.15741 0.578704 0.578704 2.31481 1.15741 1.15741 1.15741 1.15741 0.578704 0.578704 2.31481 1.15741 1.15741 1.15741 1.15741 0.578704 0.578704 2.31481 1.15741 1.15741 1.15741 1.15741 0.578703 0.578703 1.15741 0.578704 1.15741 0.578704 1.15741 0.578704 0.578704 1.15741 1.15741 0.578703 2.31481 1.15741 2.31481 2.31481 1.15741 0.578703 1.15741 1.15741 0.578703 1.15741 0.578703 1.15741 1.15741 2.31481 2.31481 2.31481 0.578703 1.15741 1.15741 1.15741 0.578703 1.15741 1.15741 2.31481 2.31481 2.31481 0.578703 1.15741 1.15741 1.15741 0.578703 1.15741 1.15741 2.31481 2.31481 2.31481 0.578703 1.15741 1.15741 1.15741 0.578703 1.15741 1.15741 2.31481 2.31481 2.31481 0.578703 1.15741 1.15741 1.15741 0.578703 1.15741 1.15741 2.31481 2.31481 2.31481 0.578703 1.15741 1.15741 1.15741 0.578703 1.15741 1.15741 2.31481 2.31481 2.31481 0.578703 1.15741 1.15741 1.15741 0.578703 1.15741 1.15741 2.31481 2.31481 2.31481 0.578703 1.15741 1.15741 1.15741 0.578703 1.15741 1.15741 2.31481 2.31481 2.31481 0.578703 1.15741 1.15741 1.15741 0.578703 1.15741 1.15741 2.31481 2.31481 2.31481 0.578703 1.15741 1.15741 1.15741 0.578703 1.15741 1.15741 2.31481 2.31481 2.31481 0.578703 1.15741 1.15741 1.15741 0.578703 1.15741 1.15741 2.31481 2.31481 2.31481 0.578703 1.15741 1.15741 1.15741 0.578703 1.15741 1.15741 2.31481 2.31481 2.31481 0.578703 1.15741 1.15741 1.15741 0.578703 1.15741 1.15741 2.31481 2.31481 2.31482 0.578704 1.15741 1.15741 1.15741 0.578704 1.15741 1.15741 2.31481 2.31481 2.31481 0.578703 1.15741 1.15741 1.15741 0.578703 0.578704 1.15741 1.15741 1.15741 2.31482 0.578704 0.578704 1.15741 1.15741 0.578704 2.31481 1.15741 2.31481 2.31481 1.15741 1.15741 1.15741 0.578703 1.15741 0.578703 2.31481 2.31481 2.31481 1.15741 1.15741 1.15741 0.578703 2.31481 2.31481 2.31481 1.15741 1.15741 1.15741 0.578703 2.31481 2.31481 2.31481 1.15741 1.15741 1.15741 0.578703 2.31481 2.31481 2.31481 1.15741 1.15741 1.15741 0.578703 2.31481 2.31481 2.31481 1.15741 1.15741 1.15741 0.578703 2.31481 2.31481 2.31481 1.15741 1.15741 1.15741 0.578703 2.31481 2.31481 2.31481 1.15741 1.15741 1.15741 0.578703 2.31481 2.31481 2.31481 1.15741 1.15741 1.15741 0.578703 2.31481 2.31481 2.31481 1.15741 1.15741 1.15741 0.578703 2.31481 2.31481 2.31481 1.15741 1.15741 1.15741 0.578703 2.31481 2.31481 2.31481 1.15741 1.15741 1.15741 0.578703 2.31481 2.31481 2.31481 1.15741 1.15741 1.15741 0.578703 2.31481 2.31481 2.31482 1.15741 1.15741 1.15741 0.578704 2.31481 2.31481 2.31481 1.15741 1.15741 1.15741 0.578703 1.15741 1.15741 2.31481 0.578703 1.15741 1.15741 0.578703 2.31481 1.15741 2.31481 2.31481 1.15741 1.15741 1.15741 0.578703 1.15741 0.578703 2.31481 2.31481 2.31481 1.15741 1.15741 1.15741 0.578703 2.31481 2.31481 2.31481 1.15741 1.15741 1.15741 0.578703 2.31481 2.31481 2.31481 1.15741 1.15741 1.15741 0.578703 2.31481 2.31481 2.31481 1.15741 1.15741 1.15741 0.578703 2.31481 2.31481 2.31481 1.15741 1.15741 1.15741 0.578703 2.31481 2.31481 2.31481 1.15741 1.15741 1.15741 0.578703 2.31481 2.31481 2.31481 1.15741 1.15741 1.15741 0.578703 2.31481 2.31481 2.31481 1.15741 1.15741 1.15741 0.578703 2.31481 2.31481 2.31481 1.15741 1.15741 1.15741 0.578703 2.31481 2.31481 2.31481 1.15741 1.15741 1.15741 0.578703 2.31481 2.31481 2.31481 1.15741 1.15741 1.15741 0.578703 2.31481 2.31481 2.31481 1.15741 1.15741 1.15741 0.578703 2.31481 2.31481 2.31481 1.15741 1.15741 1.15741 0.578704 2.31481 2.31481 2.31481 1.15741 1.15741 1.15741 0.578703 1.15741 1.15741 2.31481 0.578703 1.15741 1.15741 0.578703 2.31481 1.15741 1.15741 1.15741 0.578703 1.15741 1.15741 0.578703 0.578703 0.578703 2.31481 1.15741 1.15741 1.15741 1.15741 0.578703 0.578703 2.31481 1.15741 1.15741 1.15741 1.15741 0.578703 0.578703 2.31481 1.15741 1.15741 1.15741 1.15741 0.578703 0.578703 2.31481 1.15741 1.15741 1.15741 1.15741 0.578703 0.578703 2.31481 1.15741 1.15741 1.15741 1.15741 0.578703 0.578703 2.31481 1.15741 1.15741 1.15741 1.15741 0.578703 0.578703 2.31481 1.15741 1.15741 1.15741 1.15741 0.578703 0.578703 2.31481 1.15741 1.15741 1.15741 1.15741 0.578703 0.578703 2.31481 1.15741 1.15741 1.15741 1.15741 0.578703 0.578703 2.31481 1.15741 1.15741 1.15741 1.15741 0.578703 0.578703 2.31481 1.15741 1.15741 1.15741 1.15741 0.578703 0.578703 2.31481 1.15741 1.15741 1.15741 1.15741 0.578703 0.578703 2.31481 1.15741 1.15741 1.15741 1.15741 0.578703 0.578703 2.31481 1.15741 1.15741 1.15741 1.15741 0.578703 0.578703 1.15741 0.578703 1.15741 0.578703 1.15741 0.578703 0.578703 1.15741 0.578704 0.578704 1.15741 0.578704 2.31482 1.15741 1.15741 0.578704 1.15741 0.578704 0.578704 1.15741 0.578704 1.15741 0.578704 1.15741 2.31482 1.15741 0.578704 1.15741 0.578704 1.15741 0.578704 1.15741 0.578704 1.15741 2.31482 1.15741 0.578704 1.15741 0.578704 1.15741 0.578704 1.15741 0.578704 1.15741 2.31482 1.15741 0.578704 1.15741 0.578704 1.15741 0.578704 1.15741 0.578704 1.15741 2.31482 1.15741 0.578704 1.15741 0.578704 1.15741 0.578704 1.15741 0.578704 1.15741 2.31482 1.15741 0.578704 1.15741 0.578704 1.15741 0.578704 1.15741 0.578704 1.15741 2.31482 1.15741 0.578704 1.15741 0.578704 1.15741 0.578704 1.15741 0.578704 1.15741 2.31482 1.15741 0.578704 1.15741 0.578704 1.15741 0.578704 1.15741 0.578704 1.15741 2.31482 1.15741 0.578704 1.15741 0.578704 1.15741 0.578704 1.15741 0.578704 1.15741 2.31481 1.15741 0.578704 1.15741 0.578704 1.15741 0.578704 1.15741 0.578704 1.15741 2.31482 1.15741 0.578704 1.15741 0.578704 1.15741 0.578704 1.15741 0.578704 1.15741 2.31482 1.15741 0.578704 1.15741 0.578704 1.15741 0.578704 1.15741 0.578704 1.15741 2.31482 1.15741 0.578704 1.15741 0.578704 1.15741 0.578704 1.15741 0.578704 1.15741 2.31482 1.15741 0.578704 1.15741 0.578704 1.15741 0.578704 1.15741 0.578704 1.15741 2.31482 1.15741 0.578704 1.15741 0.578704 1.15741 0.578704 0.578704 0.578704 0.578704 1.15741 1.15741 0.578704 0.578704 0.578704 1.15741 0.578704 1.15741 0.578704 2.31482 1.15741 1.15741 1.15741 0.578704 0.578704 1.15741 0.578704 1.15741 2.31482 1.15741 1.15741 0.578704 1.15741 0.578704 1.15741 2.31482 1.15741 1.15741 0.578704 1.15741 0.578704 1.15741 2.31482 1.15741 1.15741 0.578704 1.15741 0.578704 1.15741 2.31482 1.15741 1.15741 0.578704 1.15741 0.578704 1.15741 2.31482 1.15741 1.15741 0.578704 1.15741 0.578704 1.15741 2.31482 1.15741 1.15741 0.578704 1.15741 0.578704 1.15741 2.31482 1.15741 1.15741 0.578704 1.15741 0.578704 1.15741 2.31482 1.15741 1.15741 0.578704 1.15741 0.578704 1.15741 2.31481 1.15741 1.15741 0.578704 1.15741 0.578704 1.15741 2.31482 1.15741 1.15741 0.578704 1.15741 0.578704 1.15741 2.31482 1.15741 1.15741 0.578704 1.15741 0.578704 1.15741 2.31482 1.15741 1.15741 0.578704 1.15741 0.578704 1.15741 2.31482 1.15741 1.15741 0.578704 1.15741 0.578704 1.15741 2.31482 1.15741 1.15741 0.578704 1.15741 0.578704 0.578704 1.15741 1.15741 0.578704 0.578704 1.15741 0.578704 1.15741 0.578704 2.31482 1.15741 1.15741 1.15741 0.578704 0.578704 1.15741 0.578704 1.15741 2.31482 1.15741 1.15741 0.578704 1.15741 0.578704 1.15741 2.31482 1.15741 1.15741 0.578704 1.15741 0.578704 1.15741 2.31481 1.15741 1.15741 0.578704 1.15741 0.578704 1.15741 2.31482 1.15741 1.15741 0.578704 1.15741 0.578704 1.15741 2.31482 1.15741 1.15741 0.578704 1.15741 0.578704 1.15741 2.31482 1.15741 1.15741 0.578704 1.15741 0.578704 1.15741 2.31482 1.15741 1.15741 0.578704 1.15741 0.578704 1.15741 2.31481 1.15741 1.15741 0.578704 1.15741 0.578704 1.15741 2.31481 1.15741 1.15741 0.578704 1.15741 0.578704 1.15741 2.31481 1.15741 1.15741 0.578704 1.15741 0.578704 1.15741 2.31482 1.15741 1.15741 0.578704 1.15741 0.578704 1.15741 2.31482 1.15741 1.15741 0.578704 1.15741 0.578704 1.15741 2.31482 1.15741 1.15741 0.578704 1.15741 0.578704 1.15741 2.31481 1.15741 1.15741 0.578704 1.15741 0.578704 0.578704 1.15741 1.15741 0.578704 0.578704 1.15741 0.578704 1.15741 0.578704 1.15741 0.578704 0.578704 1.15741 0.578704 0.578704 0.578704 0.578704 1.15741 1.15741 0.578704 1.15741 0.578704 0.578704 0.578704 1.15741 1.15741 0.578704 1.15741 0.578704 0.578704 0.578704 1.15741 1.15741 0.578704 1.15741 0.578704 0.578704 0.578704 1.15741 1.15741 0.578704 1.15741 0.578704 0.578704 0.578704 1.15741 1.15741 0.578704 1.15741 0.578704 0.578704 0.578704 1.15741 1.15741 0.578704 1.15741 0.578704 0.578704 0.578704 1.15741 1.15741 0.578704 1.15741 0.578704 0.578704 0.578704 1.15741 1.15741 0.578704 1.15741 0.578704 0.578704 0.578704 1.15741 1.15741 0.578704 1.15741 0.578704 0.578704 0.578704 1.15741 1.15741 0.578704 1.15741 0.578704 0.578704 0.578704 1.15741 1.15741 0.578704 1.15741 0.578704 0.578704 0.578704 1.15741 1.15741 0.578704 1.15741 0.578704 0.578704 0.578704 1.15741 1.15741 0.578704 1.15741 0.578704 0.578704 0.578704 1.15741 1.15741 0.578704 1.15741 0.578704 0.578704 0.578704 0.578704 0.578704 0.578704 0.578704 0.578704 0.578704 0.578704 
VECTORS u float
0 0 0  -0.0107815 -0.00648545 -0.0112696  -0.022828 -0.0165075 -0.0113709  -0.0335534 -0.0336271 -0.0101418  -0.0436972 -0.0554841 -0.00853658  -0.0528928 -0.081453 -0.00703716  -0.0611954 -0.110804 -0.00569582  -0.0686572 -0.142969 -0.00449204  -0.0753434 -0.177386 -0.00343084  -0.0813227 -0.213571 -0.00248933  -0.0866492 -0.251058 -0.00167608  -0.0913985 -0.289474 -0.000974178  -0.0956368 -0.328443 -0.000407696  -0.0994422 -0.367715 4.48227e-05  -0.102896 -0.407041 0.000368118  -0.106095 -0.446248 0.000568867  -0.109167 -0.485271 0.000676155  0 0 0  -0.00429265 -0.00187176 -0.00563645  -0.00997522 -0.0131844 -0.00556374  -0.0153897 -0.0307286 -0.00498438  -0.0208046 -0.0534234 -0.00421  -0.0260795 -0.0802181 -0.00345588  -0.0311573 -0.110388 -0.00276852  -0.0360184 -0.143284 -0.00215054  -0.0406557 -0.178356 -0.00160408  -0.0450675 -0.215086 -0.00112104  -0.0492568 -0.253035 -0.000694036  -0.0532207 -0.291799 -0.000330925  -0.0569715 -0.331052 -2.95639e-05  -0.0605168 -0.370507 0.000209093  -0.0638895 -0.409962 0.000394344  -0.0671082 -0.449241 0.000518084  -0.0702069 -0.48827 0.000632763  0 0 0  0.00028944 -0.000930488 0.0001266  0.000543356 -0.0123773 6.55651e-05  0.000384629 -0.0303366 7.39098e-05  -0.000290513 -0.0534245 0.000115156  -0.00147581 -0.0806756 0.000159979  -0.00312066 -0.111308 0.000198841  -0.00516093 -0.144646 0.000235081  -0.00753176 -0.18011 0.000273705  -0.0101676 -0.21718 0.000309467  -0.0130057 -0.255405 0.0003438  -0.0159831 -0.294389 0.000376225  -0.0190473 -0.333807 0.000404358  -0.0221512 -0.373382 0.000432014  -0.0252597 -0.412906 0.000466347  -0.0283563 -0.452238 0.000498533  -0.0314102 -0.491261 0.000530958  0 0 0  0.00480846 -0.00276613 0.00573206  0.0109575 -0.0144892 0.00556707  0.0159993 -0.0324266 0.00506473  0.0200208 -0.0556187 0.00440788  0.0229118 -0.0830023 0.00376391  0.0247102 -0.113796 0.00316548  0.0255113 -0.14729 0.00262904  0.0254352 -0.182897 0.00215054  0.0246036 -0.220075 0.0017364  0.0231414 -0.258388 0.00137806  0.0211754 -0.297426 0.00108147  0.0188172 -0.336879 0.000838995  0.0161784 -0.376463 0.000662088  0.013344 -0.415986 0.00054574  0.0103886 -0.455295 0.000478506  0.00736904 -0.494325 0.000440359  0 0 0  0.0109795 -0.00803119 0.0107331  0.0233266 -0.0190043 0.0109665  0.0334549 -0.0370055 0.00997257  0.0421419 -0.060027 0.00859308  0.0489779 -0.0872804 0.00727224  0.0540735 -0.117951 0.00605035  0.0575655 -0.151342 0.00494146  0.0596323 -0.186831 0.00396228  0.060463 -0.223891 0.00310397  0.0602343 -0.262076 0.00236297  0.0591328 -0.300991 0.00173426  0.0573294 -0.34032 0.00121856  0.0549934 -0.379789 0.000824213  0.0522778 -0.4192 0.000566721  0.049329 -0.458424 0.000427485  0.0462923 -0.49744 0.000389338  0 0 0  -0.00982916 -0.0112394 -0.00474834  -0.0228366 -0.0211727 -0.00572228  -0.0343039 -0.0374867 -0.00511813  -0.0446002 -0.0586898 -0.004287  -0.0537889 -0.084067 -0.00349808  -0.0620133 -0.112923 -0.0027926  -0.0693816 -0.144643 -0.00216365  -0.0759709 -0.178678 -0.00160694  -0.0818505 -0.214521 -0.00111389  -0.0870931 -0.251726 -0.000683308  -0.091753 -0.289891 -0.000308037  -0.0959084 -0.328678 4.76837e-07  -0.0996387 -0.367794 0.000242233  -0.103033 -0.407022 0.000430822  -0.106199 -0.446184 0.000552893  -0.109274 -0.485224 0.000635147  0 0 0  -0.00357939 -0.00500804 -0.0023911  -0.0099819 -0.0171081 -0.00289369  -0.0160341 -0.0344336 -0.00254059  -0.0215858 -0.0566169 -0.00210452  -0.0268546 -0.0828833 -0.00169158  -0.0318667 -0.112561 -0.00131965  -0.0366473 -0.145024 -0.00098753  -0.0412006 -0.179709 -0.000697136  -0.0455284 -0.216105 -0.000429153  -0.0496373 -0.253765 -0.00019455  -0.0535274 -0.292289 1.12057e-05  -0.057205 -0.331347 0.000179768  -0.0606911 -0.370654 0.000324011  -0.0640137 -0.41 0.000436068  -0.0671992 -0.449222 0.000519276  -0.0703006 -0.488233 0.000587463  0 0 0  0.000189215 -0.00372604 1.66893e-05  0.000321627 -0.016021 1.00136e-05  7.11083e-05 -0.0339619 2.64645e-05  -0.000642717 -0.0566165 6.8903e-05  -0.0018239 -0.0833758 0.000114441  -0.00344169 -0.113531 0.000153065  -0.00544286 -0.146441 0.000189781  -0.00777197 -0.18152 0.000226974  -0.0103645 -0.218254 0.000268936  -0.0131612 -0.256185 0.000304699  -0.0161018 -0.294926 0.000342131  -0.0191345 -0.334142 0.000380516  -0.0222154 -0.373561 0.000413179  -0.0253074 -0.412973 0.000457764  -0.0283885 -0.452234 0.000491619  -0.0314431 -0.491236 0.000528812  0 0 0  0.00394347 -0.0056957 0.00236583  0.0105209 -0.0182329 0.00283885  0.0159857 -0.0360473 0.00255156  0.0200702 -0.0588012 0.00222254  0.0229747 -0.0857056 0.00190854  0.0247717 -0.11603 0.00162387  0.0255731 -0.149101 0.00137138  0.0254979 -0.184325 0.00114918  0.0246701 -0.22117 0.000961304  0.0232153 -0.259184 0.000805378  0.0212495 -0.297976 0.000680685  0.0188861 -0.33722 0.000577688  0.0162323 -0.376646 0.000504971  0.0133808 -0.416049 0.00047493  0.0104082 -0.455292 0.00046587  0.00739908 -0.494304 0.000475168  0 0 0  0.00987065 -0.012251 0.00448585  0.0228391 -0.0231737 0.00546861  0.033515 -0.0406425 0.00499249  0.0422989 -0.0631575 0.00431991  0.0491592 -0.0899157 0.00366592  0.0542483 -0.120123 0.00306535  0.0577343 -0.153091 0.00252604  0.0597935 -0.188205 0.00205421  0.0606132 -0.224936 0.0016439  0.06038 -0.262829 0.00129128  0.0592654 -0.301494 0.000998259  0.0574484 -0.34061 0.000763655  0.0550859 -0.379916 0.00058651  0.052345 -0.419214 0.000482559  0.0493755 -0.458383 0.000434399  0.0463247 -0.497398 0.000426292  0 0 0  -0.00987905 -0.0125316 1.04904e-05  -0.0227571 -0.0226506 3.48091e-05  -0.0343252 -0.0387871 6.22272e-05  -0.0447407 -0.0597738 9.67979e-05  -0.0539604 -0.0849565 0.000130892  -0.062189 -0.113645 0.000168562  -0.0695424 -0.145209 0.0002141  -0.0761162 -0.179117 0.000253201  -0.0819762 -0.21484 0.000295639  -0.0871968 -0.251953 0.000342607  -0.0918429 -0.290028 0.000388861  -0.0959859 -0.328753 0.000430822  -0.0997016 -0.367811 0.000475883  -0.10309 -0.407009 0.000524521  -0.106251 -0.446146 0.000571489  -0.109332 -0.485189 0.000611782  0 0 0  -0.00350682 -0.00575155 9.77516e-06  -0.00989741 -0.0182595 2.93255e-05  -0.0161312 -0.03561 5.14984e-05  -0.0217852 -0.0576632 7.82013e-05  -0.0270748 -0.0837629 0.000109673  -0.0320817 -0.113277 0.000143051  -0.0368418 -0.145592 0.000183582  -0.0413723 -0.180145 0.000218153  -0.045682 -0.216428 0.000261784  -0.049768 -0.253987 0.000306606  -0.0536351 -0.292432 0.00034976  -0.0572939 -0.331422 0.000390768  -0.0607653 -0.37068 0.000437975  -0.0640736 -0.409986 0.000481367  -0.0672531 -0.449186 0.000525713  -0.0703604 -0.488195 0.000568151  0 0 0  0.000160307 -0.00429669 5.48363e-06  0.000250518 -0.0170152 1.74046e-05  -3.05772e-05 -0.0350804 3.71933e-05  -0.000764549 -0.0576435 5.88894e-05  -0.0019505 -0.0842557 8.9407e-05  -0.00356209 -0.11425 0.000117064  -0.0055548 -0.147018 0.000151157  -0.00787258 -0.181963 0.000188828  -0.0104542 -0.218586 0.000227928  -0.0132358 -0.256416 0.000268936  -0.0161633 -0.295079 0.000311375  -0.0191848 -0.334222 0.000352144  -0.0222571 -0.373592 0.000395536  -0.0253465 -0.412962 0.000442266  -0.028425 -0.452204 0.000483513  -0.031481 -0.491201 0.000525713  0 0 0  0.00381279 -0.00638592 -7.15256e-07  0.0102925 -0.0193098 7.62939e-06  0.0158765 -0.0371727 2.31266e-05  0.0200218 -0.0598238 4.29153e-05  0.0229375 -0.0865812 6.67572e-05  0.0247396 -0.116749 8.89301e-05  0.0255431 -0.14968 0.000122309  0.0254707 -0.184771 0.000152588  0.0246453 -0.221507 0.000190973  0.0231936 -0.259421 0.000231981  0.0212317 -0.298132 0.000276089  0.0188713 -0.337303 0.000317097  0.0162172 -0.376675 0.00035429  0.0133603 -0.416039 0.000400543  0.0103893 -0.455263 0.000446558  0.00737667 -0.494269 0.000490189  0 0 0  0.00980788 -0.0134231 -1.00136e-05  0.0225907 -0.0244842 -5.00679e-06  0.0333359 -0.0418239 3.8147e-06  0.042205 -0.0641673 2.52724e-05  0.0490845 -0.0907739 4.36306e-05  0.0541836 -0.120822 6.46114e-05  0.0576749 -0.153651 9.32217e-05  0.0597425 -0.188635 0.000118494  0.0605705 -0.225264 0.000160217  0.060343 -0.263052 0.000194788  0.0592363 -0.301638 0.000236273  0.0574203 -0.340681 0.000277042  0.0550642 -0.379936 0.000316143  0.0523252 -0.419197 0.000360012  0.0493596 -0.45835 0.000403881  0.0463238 -0.497373 0.000449657  0 0 0  -0.00983456 -0.0112413 0.00477362  -0.0228511 -0.0211599 0.00580144  -0.0343325 -0.037463 0.00524855  -0.044637 -0.0586528 0.00448275  -0.0538306 -0.0840204 0.00376177  -0.0620625 -0.112865 0.0031364  -0.0694355 -0.144578 0.00259042  -0.0760287 -0.178605 0.00211549  -0.0819159 -0.214444 0.00170541  -0.0871558 -0.251643 0.001369  -0.0918188 -0.289806 0.00108385  -0.0959759 -0.328586 0.000868082  -0.099709 -0.367704 0.000712395  -0.103099 -0.406926 0.000620842  -0.106266 -0.446089 0.000589371  -0.109342 -0.485123 0.00059104  0 0 0  -0.00358835 -0.00500347 0.00241184  -0.0100029 -0.0170915 0.00295305  -0.0160668 -0.0344062 0.00264359  -0.0216267 -0.0565768 0.00226235  -0.0269024 -0.0828337 0.00191474  -0.0319211 -0.112505 0.00161076  -0.0367049 -0.144959 0.00135636  -0.0412613 -0.179637 0.00113535  -0.0455961 -0.216027 0.000955582  -0.0497069 -0.253681 0.000805855  -0.0535955 -0.292201 0.00069046  -0.057277 -0.331256 0.000603437  -0.0607643 -0.370563 0.00055027  -0.064086 -0.409906 0.000530243  -0.0672729 -0.449125 0.000535011  -0.0703731 -0.488134 0.000547647  0 0 0  0.000181794 -0.00371504 -4.76837e-06  0.00030154 -0.0159983 3.05176e-05  3.92795e-05 -0.0339322 5.29289e-05  -0.000682592 -0.056576 5.45979e-05  -0.0018698 -0.0833269 6.62804e-05  -0.00349057 -0.113472 8.32081e-05  -0.00549936 -0.146373 0.000115395  -0.00783432 -0.181446 0.000149965  -0.0104325 -0.218174 0.000191212  -0.0132301 -0.256102 0.000232935  -0.0161743 -0.294841 0.000284433  -0.0192077 -0.334051 0.000325441  -0.0222876 -0.37347 0.000377417  -0.0253775 -0.412878 0.0004282  -0.0284631 -0.452141 0.000478983  -0.0315151 -0.491138 0.000525713  0 0 0  0.00393549 -0.00567931 -0.0023644  0.0104997 -0.018207 -0.00281882  0.0159532 -0.0360132 -0.00250506  0.0200318 -0.0587589 -0.00213313  0.0229304 -0.0856547 -0.00177431  0.0247227 -0.115968 -0.00144005  0.0255188 -0.149031 -0.00112891  0.0254383 -0.184247 -0.000838995  0.0246034 -0.22109 -0.000576496  0.0231452 -0.259103 -0.000337601  0.0211763 -0.297891 -0.000131607  0.0188146 -0.33713 5.34058e-05  0.0161574 -0.376552 0.000204086  0.0133045 -0.415954 0.000330448  0.0103331 -0.455198 0.000423431  0.00732565 -0.494206 0.000505447  0 0 0  0.00985789 -0.0122309 -0.00449681  0.0228131 -0.0231433 -0.00547767  0.03348 -0.0406041 -0.0049839  0.0422591 -0.0631097 -0.00427032  0.0491101 -0.0898628 -0.00357699  0.0541927 -0.120058 -0.00293422  0.0576726 -0.153018 -0.00234628  0.0597296 -0.188126 -0.00181198  0.0605469 -0.224858 -0.00132489  0.0603089 -0.262747 -0.000897646  0.059196 -0.301409 -0.000528097  0.0573771 -0.340519 -0.000208378  0.0550139 -0.379821 4.52995e-05  0.0522685 -0.419122 0.00024128  0.0492976 -0.458289 0.000373363  0.0462489 -0.497304 0.000468969  0 0 0  -0.0108053 -0.00649671 0.0112927  -0.0228797 -0.0164871 0.0114608  -0.0336228 -0.0335826 0.0102715  -0.0437829 -0.0554196 0.00874162  -0.0529931 -0.0813663 0.00729752  -0.0613058 -0.110696 0.00605106  -0.0687755 -0.142845 0.00491405  -0.0754697 -0.17725 0.00394511  -0.0814552 -0.213427 0.00307345  -0.0867863 -0.250902 0.00236416  -0.0915358 -0.289306 0.00174046  -0.0957768 -0.328268 0.00127935  -0.0995865 -0.367536 0.000902653  -0.103039 -0.406852 0.000687838  -0.106233 -0.446059 0.000560045  -0.109297 -0.485075 0.000552654  0 0 0  -0.00431666 -0.0018613 0.00567341  -0.0100294 -0.0131481 0.00563049  -0.0154624 -0.0306741 0.00509834  -0.0208954 -0.0533463 0.0043776  -0.0261832 -0.0801241 0.00368476  -0.0312697 -0.110271 0.00306153  -0.0361369 -0.143155 0.00252485  -0.0407817 -0.17821 0.00204968  -0.045203 -0.214934 0.00164866  -0.0493929 -0.25287 0.00130558  -0.053359 -0.291628 0.00103569  -0.0571103 -0.330872 0.00081563  -0.0606625 -0.370328 0.00066781  -0.0640359 -0.409773 0.000573158  -0.0672507 -0.449053 0.000537634  -0.0703485 -0.488077 0.000506639  0 0 0  0.000268698 -0.000909299 -0.000102758  0.000495434 -0.0123295 -1.33514e-05  0.000316441 -0.0302777 1.26362e-05  -0.000373602 -0.0533395 1.50204e-05  -0.00157177 -0.0805776 2.43187e-05  -0.00322604 -0.111186 4.12464e-05  -0.00527608 -0.144514 7.08103e-05  -0.00765741 -0.179961 0.000107527  -0.0103018 -0.217026 0.000153542  -0.0131447 -0.255235 0.000202417  -0.016125 -0.294218 0.000252008  -0.0191908 -0.333623 0.000302792  -0.0222991 -0.373199 0.000359058  -0.0254059 -0.412718 0.00041604  -0.0284967 -0.452052 0.000470638  -0.0315475 -0.491064 0.000519753  0 0 0  0.00479186 -0.00273979 -0.00571394  0.0109161 -0.014434 -0.00553679  0.0159371 -0.0323603 -0.0050118  0.0199426 -0.055531 -0.0043118  0.0228229 -0.0829026 -0.00362539  0.0246111 -0.113671 -0.00297666  0.025401 -0.147152 -0.00238061  0.0253098 -0.182742 -0.00183749  0.0244682 -0.219922 -0.00134468  0.0230041 -0.258219 -0.000909805  0.0210338 -0.297257 -0.00053215  0.0186763 -0.336696 -0.000209808  0.0160294 -0.376281 5.34058e-05  0.0131922 -0.415797 0.000258923  0.0102351 -0.455111 0.000407696  0.00722551 -0.494131 0.00053668  0 0 0  0.0109609 -0.00799525 -0.0107365  0.0232826 -0.0189402 -0.0109663  0.0333902 -0.0369291 -0.0099597  0.0420604 -0.0599374 -0.00853777  0.0488852 -0.0871761 -0.00718379  0.0539718 -0.117821 -0.00591564  0.0574554 -0.151193 -0.00476575  0.0595126 -0.18667 -0.00371671  0.0603297 -0.22373 -0.00278759  0.060097 -0.261907 -0.00196314  0.0589893 -0.300823 -0.00125957  0.0571818 -0.340135 -0.000666857  0.0548441 -0.379603 -0.000192881  0.0521278 -0.41901 0.000156403  0.0491722 -0.458237 0.00038147  0.046134 -0.49724 0.000506163  -0.00397 -0.00336107 -0.00726652  -0.00990123 -0.00970235 -0.00772548  -0.00339384 -0.00602595 -0.00291252  0 0 0  0 0 0  -0.00721236 -0.00363969 -0.00842738  -0.00622009 -0.00735682 -0.00355172  0 0 0  -0.00151645 0.000182033 -0.00369453  -0.00381623 -0.00383255 -0.00391889  -0.0011171 -0.00176591 -0.00147796  0 0 0  -0.00324804 -0.00477417 -0.00475025  -0.00250117 -0.00105684 -0.00504041  -0.00642085 -0.00601847 -0.00578833  -0.00187763 -0.00323527 -0.00203609  0 0 0  -0.00117015 -0.00115582 -0.00241828  -0.00188009 -0.00242604 -0.00330734  -0.0172453 -0.0104528 -0.0117364  -0.0229461 -0.0193079 -0.0086329  -0.016618 -0.0152179 -0.00556612  -0.0159911 -0.0145788 -0.00834155  -0.0160008 -0.0188184 -0.00431442  -0.00722721 -0.00657047 -0.00567365  -0.0100222 -0.0155147 -0.00431633  -0.00673151 -0.0103502 -0.00278854  -0.0168773 -0.013538 -0.00862694  -0.0119124 -0.00816777 -0.00861788  -0.0160785 -0.0171022 -0.0064435  -0.0112485 -0.0123271 -0.00417233  -0.00696108 -0.00886784 -0.00427461  -0.0115363 -0.0107449 -0.00641894  -0.0281834 -0.0243695 -0.0108795  -0.0341311 -0.0358722 -0.00765777  -0.0287043 -0.0286576 -0.00549674  -0.0239685 -0.0318662 -0.00756145  -0.0247736 -0.0356365 -0.00383043  -0.0126701 -0.0212251 -0.00533795  -0.015804 -0.0328882 -0.00378799  -0.0131028 -0.0251009 -0.0027492  -0.0286217 -0.0269257 -0.00823927  -0.0199369 -0.0225023 -0.00804758  -0.0245214 -0.0340617 -0.00571871  -0.0205016 -0.0265507 -0.00412488  -0.0129648 -0.0235233 -0.00409627  -0.0203505 -0.0249026 -0.00614929  -0.0387503 -0.0439604 -0.00934792  -0.0443435 -0.0573106 -0.00643659  -0.039602 -0.0475074 -0.00470805  -0.0317754 -0.0542102 -0.00638413  -0.0327265 -0.0574055 -0.00319886  -0.0181057 -0.0414833 -0.00460911  -0.021291 -0.0552636 -0.00316954  -0.0188441 -0.0449418 -0.0023272  -0.0393826 -0.0460234 -0.00705171  -0.02794 -0.0424503 -0.0069778  -0.0323988 -0.0560462 -0.0048089  -0.0288401 -0.0459405 -0.00351954  -0.0185726 -0.0435079 -0.00348806  -0.028545 -0.0444876 -0.00527  -0.0484039 -0.0679751 -0.00778341  -0.0535102 -0.0829312 -0.00528312  -0.0493202 -0.0708914 -0.00388575  -0.0390507 -0.0806409 -0.00527263  -0.0399871 -0.0832786 -0.002599  -0.0234632 -0.0663307 -0.00383234  -0.0265538 -0.0817441 -0.00258088  -0.0242511 -0.0692552 -0.00189495  -0.0490454 -0.0696533 -0.0058496  -0.0354753 -0.0669388 -0.00582337  -0.0396483 -0.0821447 -0.00394249  -0.0364355 -0.0698507 -0.00289416  -0.0239515 -0.0680324 -0.00287318  -0.0360963 -0.068626 -0.00436902  -0.0571512 -0.0957139 -0.0063591  -0.0617517 -0.111994 -0.00425577  -0.0580124 -0.0980868 -0.00313711  -0.0457872 -0.110447 -0.00425768  -0.0466411 -0.112591 -0.00206208  -0.0286416 -0.0948973 -0.00310779  -0.0315883 -0.111625 -0.00204682  -0.0293881 -0.0973091 -0.00150251  -0.0577431 -0.0970741 -0.00475621  -0.0424858 -0.0951388 -0.00475717  -0.0463259 -0.111664 -0.00316334  -0.0433831 -0.097524 -0.0023241  -0.0290976 -0.0962968 -0.00230932  -0.0430571 -0.0965167 -0.00354433  -0.0650229 -0.126543 -0.00509  -0.0691473 -0.143902 -0.00333738  -0.0657967 -0.128446 -0.00247169  -0.0519913 -0.143016 -0.00335312  -0.0527477 -0.144719 -0.00158334  -0.0336131 -0.126505 -0.00245762  -0.0363986 -0.14427 -0.00157261  -0.0342816 -0.128454 -0.00115108  -0.0655491 -0.127631 -0.00378609  -0.0489497 -0.126399 -0.00379777  -0.0524662 -0.143976 -0.00247025  -0.0497568 -0.128317 -0.00181675  -0.0340217 -0.127634 -0.00180674  -0.0494598 -0.127505 -0.00280833  -0.072089 -0.159901 -0.00395703  -0.0757686 -0.178097 -0.00252557  -0.0727674 -0.161389 -0.00187874  -0.0576965 -0.177793 -0.00254893  -0.0583535 -0.179112 -0.00115871  -0.0383617 -0.160556 -0.00187588  -0.0409846 -0.179116 -0.00115156  -0.0389495 -0.162095 -0.000839233  -0.0725517 -0.160747 -0.00292158  -0.0549021 -0.160138 -0.00294328  -0.0581081 -0.178531 -0.00185466  -0.0556082 -0.161644 -0.00136495  -0.0387185 -0.161446 -0.00135946  -0.0553476 -0.161004 -0.00215435  -0.0784144 -0.195261 -0.00295377  -0.0816817 -0.214084 -0.00180912  -0.0789926 -0.196387 -0.00135398  -0.0629337 -0.214275 -0.00183725  -0.0634904 -0.215256 -0.000780344  -0.0428867 -0.196517 -0.00135803  -0.045347 -0.215652 -0.000777006  -0.0433886 -0.197696 -0.000558138  -0.0788083 -0.195898 -0.00215673  -0.0603671 -0.195826 -0.00218463  -0.0632818 -0.214816 -0.00130892  -0.0609753 -0.196972 -0.000962973  -0.0431931 -0.197197 -0.000959158  -0.0607507 -0.196483 -0.00157309  -0.0840602 -0.232151 -0.00207472  -0.0869486 -0.251407 -0.00118613  -0.0845463 -0.232963 -0.000891685  -0.0677326 -0.252014 -0.00121641  -0.0681946 -0.252712 -0.00044632  -0.0471866 -0.233909 -0.000904083  -0.0494862 -0.253432 -0.000443935  -0.0476072 -0.234775 -0.000308752  -0.084393 -0.232606 -0.00148702  -0.0653839 -0.232991 -0.00151896  -0.0680201 -0.25239 -0.000832081  -0.0658908 -0.233824 -0.000607967  -0.0474434 -0.234408 -0.000607491  -0.0657034 -0.233466 -0.00106263  -0.0890863 -0.270145 -0.00132132  -0.0916386 -0.289676 -0.000648499  -0.0894873 -0.270695 -0.000490189  -0.0721285 -0.290618 -0.000689507  -0.0725002 -0.291072 -0.000159025  -0.0512629 -0.272311 -0.000508785  -0.0534034 -0.292058 -0.000161886  -0.0516045 -0.272914 -8.89301e-05  -0.089361 -0.270449 -0.000907898  -0.0699735 -0.271207 -0.000945568  -0.0723586 -0.290852 -0.000424385  -0.0703917 -0.271779 -0.000297546  -0.0514717 -0.272656 -0.000299692  -0.070236 -0.271531 -0.000620365  -0.0935733 -0.308877 -0.000686884  -0.0958204 -0.328542 -0.00020957  -0.0938866 -0.309209 -0.000149965  -0.0761611 -0.329742 -0.000250578  -0.0764484 -0.330008 8.24928e-05  -0.0551178 -0.311359 -0.00017786  -0.0571101 -0.331196 7.58171e-05  -0.055388 -0.311742 9.82285e-05  -0.0937896 -0.309055 -0.000419617  -0.0741858 -0.310111 -0.000462055  -0.0763376 -0.329869 -8.41618e-05  -0.074513 -0.310465 -3.29018e-05  -0.0552809 -0.311577 -4.02927e-05  -0.0743904 -0.310309 -0.00024581  -0.0975852 -0.348031 -0.000178099  -0.0995734 -0.367724 0.000135422  -0.0978181 -0.348193 0.000125408  -0.0798743 -0.369111 9.10759e-05  -0.0800855 -0.369227 0.000273705  -0.0587652 -0.350744 9.27448e-05  -0.0606208 -0.370566 0.000263691  -0.0589654 -0.350957 0.000255823  -0.0977442 -0.348111 -2.88486e-05  -0.0780494 -0.349388 -7.24792e-05  -0.0800014 -0.36915 0.000181437  -0.0782986 -0.349575 0.000183344  -0.0588882 -0.350862 0.000173569  -0.0782049 -0.349489 5.65052e-05  -0.101203 -0.387353 0.000210762  -0.102982 -0.406992 0.000391245  -0.10137 -0.387389 0.000343084  -0.0833261 -0.408506 0.000346422  -0.0834713 -0.408521 0.0004251  -0.0622182 -0.390222 0.000303745  -0.0639608 -0.409958 0.000414848  -0.0623677 -0.390307 0.0003829  -0.101316 -0.387361 0.000274181  -0.0816255 -0.388795 0.000227451  -0.08341 -0.408487 0.000386  -0.0818031 -0.388855 0.000355482  -0.0623085 -0.390267 0.000342369  -0.0817342 -0.388823 0.000292301  -0.104516 -0.426637 0.00047183  -0.106153 -0.44618 0.000552654  -0.104634 -0.426601 0.000495911  -0.0865691 -0.447746 0.000516891  -0.0866687 -0.447711 0.000530005  -0.0655146 -0.429603 0.000455379  -0.0671587 -0.449204 0.000516176  -0.0656166 -0.429606 0.000479698  -0.104589 -0.426606 0.00048089  -0.0849669 -0.428128 0.000437498  -0.0866213 -0.4477 0.000521421  -0.0850854 -0.428112 0.000481129  -0.0655761 -0.429601 0.000466585  -0.0850351 -0.428114 0.000459909  -0.107633 -0.46575 0.000611544  -0.109216 -0.485219 0.00065136  -0.107736 -0.465703 0.00059104  -0.0896707 -0.486775 0.000645399  -0.0897636 -0.486734 0.000614166  -0.0686638 -0.468767 0.000561476  -0.0702605 -0.488217 0.000605822  -0.0687516 -0.468729 0.000554323  -0.10769 -0.465718 0.000599384  -0.0881279 -0.467263 0.000574112  -0.0897214 -0.486728 0.000627518  -0.0882196 -0.467222 0.000571489  -0.0687153 -0.46874 0.000556707  -0.0881782 -0.467236 0.000573158  0 0 0  -0.00191133 -0.00104111 -0.0027113  -0.00162144 -0.00394133 -0.00118351  0 0 0  8.99285e-05 0.000798225 2.55108e-05  0.000226647 -0.00267813 5.14984e-05  6.01858e-05 -0.000952899 1.19209e-06  0 0 0  -0.000666738 0.000715047 -0.00173116  -0.00171091 -0.00285742 -0.00191641  -0.000483662 -0.00108835 -0.000710726  0 0 0  6.62804e-05 -0.000475973 5.00679e-06  -0.000505619 -0.00058037 -0.00115514  -0.00457132 -0.0124102 -0.00271392  -0.0046865 -0.0161363 -0.00143576  0.000462204 -0.00561845 5.8651e-05  0.000412941 -0.0145536 2.21729e-05  0.000288546 -0.00911936 2.86102e-06  -0.00325468 -0.00571018 -0.00274515  -0.00465792 -0.014633 -0.00212908  -0.00310031 -0.00929502 -0.00137401  0.000360042 -0.00774917 1.66893e-05  -0.00317651 -0.0078904 -0.00209212  -0.00735754 -0.0302186 -0.00243545  -0.00784022 -0.0338736 -0.00125098  0.000526726 -0.020626 5.126e-05  0.000201344 -0.032453 3.8147e-05  0.000255227 -0.0243377 1.00136e-05  -0.0059256 -0.0205878 -0.00261855  -0.00765496 -0.0323538 -0.00186157  -0.0062812 -0.0243518 -0.00136304  0.000366747 -0.0228353 1.83582e-05  -0.00615066 -0.022825 -0.00202537  -0.0104031 -0.0531501 -0.00203657  -0.0109768 -0.0563427 -0.00101447  0.000115514 -0.0412762 8.51154e-05  -0.000495553 -0.0552686 8.53539e-05  -0.00022471 -0.044704 4.50611e-05  -0.0088504 -0.0410874 -0.00224638  -0.0107484 -0.0549954 -0.00153637  -0.00939405 -0.0445276 -0.00113702  -8.49366e-05 -0.0432884 5.67436e-05  -0.00918293 -0.0431044 -0.00170732  -0.0136395 -0.0802167 -0.00164652  -0.0142102 -0.0829034 -0.000788689  -0.000819802 -0.066554 0.000133276  -0.00167751 -0.0822271 0.000132322  -0.00117302 -0.0695011 9.05991e-05  -0.0119987 -0.0661931 -0.00184274  -0.0139781 -0.0817614 -0.00122213  -0.0125799 -0.0691314 -0.000901461  -0.00102675 -0.0682745 0.00010705  -0.012347 -0.0679066 -0.00138044  -0.0170128 -0.110658 -0.00128579  -0.0175369 -0.112861 -0.000584364  -0.00224137 -0.0955855 0.00017643  -0.00330508 -0.112578 0.000173569  -0.00257874 -0.0980426 0.000131369  -0.0153097 -0.0950343 -0.00146675  -0.0173213 -0.111917 -0.000937939  -0.0158592 -0.0974731 -0.000685215  -0.00243831 -0.0970163 0.000150681  -0.0156367 -0.0964526 -0.00108004  -0.0204762 -0.143812 -0.000963211  -0.020941 -0.145583 -0.00040102  -0.00409234 -0.127649 0.000218153  -0.00532377 -0.145666 0.000211  -0.00439394 -0.129652 0.0001719  -0.0187324 -0.126908 -0.00112438  -0.0207491 -0.144821 -0.000683069  -0.0192283 -0.128888 -0.000491381  -0.00426865 -0.128814 0.000193119  -0.0190258 -0.128059 -0.000810146  -0.0239947 -0.179112 -0.000671625  -0.0243949 -0.180497 -0.000236511  -0.00630653 -0.162118 0.000254869  -0.00766957 -0.180906 0.000248909  -0.006567 -0.163715 0.000209332  -0.0222279 -0.161203 -0.000817537  -0.0242282 -0.179895 -0.000455379  -0.02266 -0.162776 -0.000317574  -0.00645971 -0.163047 0.000231266  -0.0224838 -0.162115 -0.000568628  -0.0275331 -0.216039 -0.000413895  -0.027869 -0.21709 -8.32081e-05  -0.00881672 -0.198446 0.000291348  -0.0102789 -0.21778 0.000288725  -0.00903606 -0.199682 0.000246286  -0.0257592 -0.197377 -0.000541687  -0.0277276 -0.216628 -0.000247717  -0.0261285 -0.198589 -0.00015831  -0.00894356 -0.199164 0.000268221  -0.0259764 -0.198079 -0.000350475  -0.0310602 -0.254151 -0.000184536  -0.0313334 -0.254909 5.24521e-05  -0.0115614 -0.236146 0.000323296  -0.0130928 -0.255834 0.000324011  -0.0117371 -0.237068 0.000286818  -0.0292966 -0.234947 -0.000299692  -0.0312173 -0.254568 -6.65188e-05  -0.0295997 -0.235847 -1.52588e-05  -0.0116639 -0.236681 0.000304937  -0.0294752 -0.235468 -0.000157595  -0.0345442 -0.293043 1.07288e-05  -0.0347614 -0.293561 0.000173092  -0.014477 -0.274796 0.000357628  -0.0160484 -0.294677 0.000358582  -0.0146129 -0.275449 0.000323534  -0.0328052 -0.273495 -8.51154e-05  -0.034668 -0.293322 9.29832e-05  -0.033051 -0.274128 0.000114202  -0.0145557 -0.275174 0.000340462  -0.032948 -0.273861 1.4782e-05  -0.0379651 -0.332393 0.00017643  -0.0381279 -0.332712 0.000276327  -0.017503 -0.314034 0.000388622  -0.0190947 -0.333976 0.000392437  -0.0176058 -0.314466 0.000361443  -0.0362604 -0.312655 9.48906e-05  -0.0380566 -0.332555 0.000226974  -0.036449 -0.313068 0.000225782  -0.0175624 -0.314283 0.000375032  -0.0363708 -0.312892 0.000160694  -0.041302 -0.37192 0.000311136  -0.0414238 -0.372088 0.000366211  -0.0205932 -0.353561 0.000419378  -0.0221846 -0.373461 0.000422239  -0.0206668 -0.353813 0.000398159  -0.0396409 -0.352125 0.00024581  -0.041368 -0.371995 0.00033927  -0.039782 -0.352363 0.00032258  -0.0206358 -0.353705 0.000408888  -0.0397217 -0.35226 0.000284195  -0.0445535 -0.411417 0.000422239  -0.0446403 -0.411474 0.000442505  -0.0237017 -0.393133 0.00045085  -0.0252833 -0.41292 0.000462294  -0.0237577 -0.393251 0.000433207  -0.0429339 -0.39166 0.000367165  -0.0445993 -0.411427 0.00043273  -0.0430377 -0.391767 0.00040555  -0.0237331 -0.393199 0.00044179  -0.0429935 -0.391719 0.000386477  -0.0477171 -0.450731 0.000502348  -0.0477819 -0.450722 0.000504494  -0.0268078 -0.432576 0.000483513  -0.0283711 -0.45221 0.000494242  -0.0268459 -0.432603 0.000474453  -0.0461433 -0.43108 0.00046277  -0.047749 -0.450703 0.000504017  -0.0462174 -0.431099 0.000475168  -0.0268297 -0.432589 0.000479937  -0.0461831 -0.431088 0.000468731  -0.0507963 -0.489754 0.000582933  -0.0508614 -0.489724 0.000561476  -0.0298858 -0.471771 0.000513792  -0.0314236 -0.491212 0.000529766  -0.0299165 -0.471744 0.000509977  -0.049263 -0.470265 0.000534296  -0.0508294 -0.489706 0.000569582  -0.0493228 -0.470233 0.000531435  -0.0299022 -0.47175 0.000511646  -0.0492957 -0.470241 0.00053215  0 0 0  0.0024808 -0.00149769 0.00295591  0.0020116 -0.00429404 0.00121403  0 0 0  0.00164914 -0.000386715 0.0036509  0.00423896 -0.00459898 0.00391531  0.00122149 -0.00219542 0.00144529  0 0 0  0.000841022 0.000430763 0.00178242  0.00216848 -0.00325102 0.00201249  0.000610247 -0.00131023 0.00071311  0 0 0  0.00128318 -0.00163436 0.00237775  0.000640839 -0.000823855 0.00116801  0.00563419 -0.0130745 0.00285721  0.00530666 -0.0167242 0.00144744  0.0080775 -0.00766969 0.00566363  0.0107427 -0.0167181 0.00425434  0.00727198 -0.0112384 0.00273156  0.0041675 -0.00627029 0.0028758  0.00546271 -0.0152557 0.00217223  0.00368103 -0.00976121 0.00137901  0.00763044 -0.00984949 0.00421095  0.00389466 -0.00839961 0.00212812  0.00808448 -0.0310709 0.00260615  0.00792801 -0.0346864 0.00130653  0.013589 -0.0227194 0.00534558  0.0160221 -0.0345404 0.00380754  0.0134559 -0.0264593 0.0027163  0.00694525 -0.021342 0.0027442  0.00800991 -0.0331845 0.0019486  0.00674731 -0.0250459 0.00138664  0.0135443 -0.0249404 0.00405598  0.00684589 -0.023546 0.00207162  0.00976527 -0.0542425 0.00228691  0.0096252 -0.0574313 0.001158  0.0181527 -0.0434159 0.00473499  0.0200766 -0.0574592 0.00331426  0.0181788 -0.04683 0.00238967  0.00903112 -0.0420529 0.00244188  0.00969851 -0.0560888 0.00171852  0.00888234 -0.0454723 0.00123143  0.018196 -0.0454187 0.00356388  0.00895965 -0.0440606 0.00183201  0.0106276 -0.0815965 0.00198174  0.0104958 -0.0843024 0.00101781  0.0216095 -0.0688154 0.00407672  0.0229712 -0.0845582 0.00283265  0.0216706 -0.0717559 0.00206184  0.0102996 -0.0674255 0.00213099  0.0105634 -0.0831556 0.00149488  0.010165 -0.0703738 0.00108671  0.021668 -0.0705314 0.00306892  0.0102324 -0.0691471 0.00160456  0.010712 -0.112345 0.00169921  0.0105933 -0.11458 0.000893831  0.023946 -0.0979947 0.00345826  0.0247647 -0.115075 0.00239301  0.0240072 -0.100458 0.00176287  0.0107656 -0.0965669 0.00183797  0.0106546 -0.113625 0.00129414  0.0106381 -0.0990337 0.000954866  0.0239998 -0.0994293 0.00260925  0.0107018 -0.0980043 0.0013926  0.010101 -0.145795 0.00144839  0.0100002 -0.147604 0.000786543  0.0252306 -0.130219 0.00289297  0.0255651 -0.148323 0.00199866  0.0252934 -0.132235 0.00149488  0.010491 -0.128746 0.00157261  0.0100529 -0.146828 0.00111508  0.0103812 -0.130762 0.000839233  0.0252829 -0.131392 0.00219297  0.0104356 -0.129919 0.0012033  0.00888419 -0.181362 0.0012238  0.00880456 -0.182787 0.000693321  0.0255785 -0.16484 0.00238442  0.0254872 -0.183704 0.00164962  0.0256405 -0.166451 0.0012567  0.00956523 -0.163324 0.00133491  0.00884843 -0.18217 0.000957727  0.00947404 -0.164934 0.000737906  0.0256286 -0.165777 0.00181961  0.00952101 -0.164261 0.00103474  0.00715852 -0.218515 0.00103235  0.00710034 -0.219605 0.000617743  0.0251088 -0.201293 0.00193787  0.0246568 -0.22069 0.00134802  0.0251741 -0.202547 0.00105238  0.00808334 -0.199744 0.00112844  0.00713491 -0.219128 0.000823975  0.00801444 -0.200996 0.000654697  0.0251596 -0.202022 0.00149488  0.00804996 -0.200472 0.000890017  0.00501561 -0.256807 0.000869274  0.00498033 -0.257602 0.000559568  0.023947 -0.239092 0.00155497  0.0231967 -0.258828 0.00109339  0.0240169 -0.240031 0.000881672  0.00613642 -0.237521 0.000952482  0.0050056 -0.257248 0.000714302  0.00608945 -0.238457 0.000588417  0.0239983 -0.239636 0.0012188  0.00611734 -0.238065 0.000769854  0.00255108 -0.295841 0.000737667  0.00253248 -0.296389 0.000513554  0.0222175 -0.277812 0.00122666  0.0212297 -0.297723 0.000880718  0.0222933 -0.27848 0.000738621  0.00382137 -0.276229 0.000803471  0.00254965 -0.296139 0.000625134  0.00379586 -0.276895 0.000536203  0.0222704 -0.278198 0.000982761  0.00381351 -0.276615 0.000669241  -0.000152111 -0.335294 0.000631332  -0.00015831 -0.335637 0.000482559  0.0200424 -0.317095 0.000959635  0.018867 -0.337053 0.000709057  0.0201139 -0.317534 0.000627518  0.00122786 -0.315509 0.000685453  -0.000146151 -0.335471 0.000557184  0.0012157 -0.31595 0.000498056  0.0200915 -0.317348 0.000794172  0.00122762 -0.315764 0.000591755  -0.00301552 -0.374889 0.000556469  -0.00301886 -0.375074 0.000464678  0.01753 -0.356643 0.000747681  0.0162179 -0.376546 0.000582218  0.0175936 -0.356898 0.000539541  -0.0015645 -0.355063 0.000593424  -0.00300932 -0.374975 0.000509262  -0.00156713 -0.355321 0.000472784  0.0175729 -0.356788 0.00064373  -0.00156069 -0.355212 0.000532389  -0.00598097 -0.414423 0.00051403  -0.00598359 -0.414493 0.000467539  0.0147851 -0.396218 0.000597715  0.0133717 -0.415998 0.000510693  0.0148299 -0.396334 0.000488043  -0.00448442 -0.394649 0.000533819  -0.00597525 -0.414442 0.000491858  -0.00448871 -0.394772 0.000464439  0.0148156 -0.396282 0.000543594  -0.00448179 -0.394718 0.00049901  -0.00900126 -0.453753 0.000494003  -0.00900483 -0.453753 0.000479937  0.0118816 -0.435648 0.000511646  0.0104041 -0.455269 0.000472069  0.0119097 -0.435671 0.0004673  -0.00748348 -0.434096 0.000505686  -0.00899625 -0.453731 0.000486374  -0.00748539 -0.434126 0.000473738  0.0118995 -0.435658 0.00048995  -0.00748038 -0.434111 0.000489712  -0.0120332 -0.492778 0.000482798  -0.0120356 -0.492757 0.000501633  0.00888443 -0.474825 0.000470638  0.00739384 -0.494286 0.00046277  0.00890517 -0.474802 0.000470161  -0.0105157 -0.47329 0.000493765  -0.0120254 -0.492738 0.00049448  -0.0105197 -0.473266 0.000490904  0.0088985 -0.474807 0.00047183  -0.0105131 -0.473271 0.000492334  0 0 0  0.00758183 -0.00490564 0.00837684  0.00649559 -0.00829256 0.0034585  0 0 0  0.00390211 -0.00420225 0.00705934  0.0100435 -0.0107982 0.00730991  0.00333042 -0.00662816 0.00278211  0 0 0  0.00254686 -0.0018273 0.00499177  0.00676021 -0.00704616 0.00568247  0.00194687 -0.00381541 0.00198889  0 0 0  0.00325347 -0.00549263 0.00457907  0.0019654 -0.00307959 0.00325251  0.0167986 -0.0164967 0.00823975  0.0163348 -0.0204257 0.00418663  0.0177107 -0.0124878 0.0112686  0.0231375 -0.0214829 0.00826192  0.0167627 -0.0166894 0.00529981  0.0126112 -0.00977725 0.00849867  0.0166025 -0.018834 0.00628042  0.0116553 -0.0135763 0.00404501  0.0171506 -0.0151687 0.00822687  0.0120679 -0.0121281 0.00625587  0.0243288 -0.034398 0.00757289  0.0244332 -0.0380309 0.00379753  0.0284929 -0.0272715 0.0105679  0.0335932 -0.0391275 0.00748181  0.0283935 -0.0311939 0.0052948  0.0206459 -0.024707 0.00797439  0.0244567 -0.0365193 0.00568128  0.0205941 -0.0285273 0.00403333  0.0285317 -0.0296003 0.00794935  0.0206826 -0.0269735 0.00603127  0.030699 -0.0575415 0.00654674  0.0308913 -0.0607099 0.00329041  0.0380443 -0.0478952 0.00929523  0.0423313 -0.0618294 0.00646234  0.0381604 -0.0512905 0.00466371  0.0277087 -0.0453623 0.00705862  0.0308709 -0.0593738 0.00491953  0.027864 -0.0487723 0.00354791  0.0382143 -0.0498843 0.00698137  0.0278632 -0.047362 0.00530362  0.0355885 -0.0848891 0.0055604  0.0357963 -0.0875752 0.00280023  0.0457858 -0.0731498 0.00793242  0.0491667 -0.0887955 0.00547218  0.0459628 -0.0760389 0.00398755  0.0333265 -0.0707209 0.00604582  0.0357598 -0.0864361 0.00417757  0.0335339 -0.0736457 0.00303984  0.0459747 -0.0748328 0.00596046  0.0334998 -0.0724277 0.00454021  0.0390643 -0.115655 0.00465083  0.039263 -0.117875 0.00235677  0.0517408 -0.102205 0.00665784  0.0542505 -0.119194 0.0045619  0.0519164 -0.104614 0.00335789  0.0375004 -0.0998703 0.00509691  0.0392256 -0.116929 0.00350165  0.037704 -0.102318 0.0025723  0.0519208 -0.103608 0.00500679  0.0376642 -0.101297 0.00383091  0.0412431 -0.14913 0.00382566  0.0414294 -0.150927 0.00196099  0.0560123 -0.134315 0.00549746  0.0577327 -0.152338 0.00373864  0.0561836 -0.136285 0.00279021  0.0403097 -0.132071 0.00423002  0.041393 -0.150157 0.00289249  0.0405017 -0.134075 0.00215244  0.05618 -0.135463 0.00414324  0.0404632 -0.133239 0.00318742  0.0422697 -0.18471 0.00309443  0.0424452 -0.186128 0.0016129  0.058771 -0.168827 0.00445008  0.0597882 -0.187608 0.00301456  0.0589327 -0.170397 0.00228357  0.0418944 -0.166669 0.00345111  0.0424097 -0.185515 0.00235295  0.0420749 -0.168272 0.00177932  0.0589278 -0.169742 0.00336671  0.0420361 -0.167602 0.00261211  0.0422993 -0.221857 0.0024538  0.0424645 -0.222945 0.00131202  0.060194 -0.205163 0.00353289  0.0606053 -0.224478 0.0023787  0.0603492 -0.206383 0.00184202  0.0424027 -0.203095 0.00276685  0.0424302 -0.22247 0.00188303  0.0425723 -0.204343 0.0014565  0.0603387 -0.205873 0.00268722  0.0425348 -0.203821 0.00210881  0.0414858 -0.260137 0.00190425  0.041642 -0.260924 0.00105596  0.0604744 -0.242844 0.00272775  0.0603688 -0.262491 0.00183249  0.0606191 -0.243748 0.00146079  0.0419912 -0.240862 0.00216985  0.0416081 -0.260575 0.00147939  0.0421526 -0.241794 0.00117779  0.0606084 -0.24337 0.00209522  0.042115 -0.241404 0.00167179  0.039983 -0.299137 0.00144029  0.040127 -0.299676 0.000848293  0.0597847 -0.281438 0.00204539  0.059253 -0.30126 0.00137162  0.0599248 -0.28207 0.00113988  0.0408149 -0.279545 0.00166512  0.0400937 -0.29943 0.00114512  0.0409646 -0.280205 0.000946999  0.0599084 -0.281804 0.00159383  0.0409291 -0.279928 0.00130463  0.0379326 -0.338548 0.00106406  0.0380609 -0.338876 0.000678062  0.0583131 -0.320593 0.00147629  0.0574329 -0.340461 0.000997782  0.0584369 -0.320998 0.000874996  0.0390196 -0.318788 0.00124478  0.0380299 -0.338716 0.000870705  0.0391581 -0.319218 0.000757694  0.0584219 -0.320825 0.0011766  0.0391216 -0.319035 0.000999928  0.0354793 -0.378092 0.000776768  0.035578 -0.37826 0.000555515  0.056222 -0.36002 0.00102162  0.0550764 -0.379835 0.000711679  0.0563281 -0.360237 0.00066781  0.0367525 -0.358295 0.000912428  0.0355556 -0.378166 0.000666857  0.0368662 -0.358538 0.00061059  0.0563109 -0.360142 0.000845671  0.0368366 -0.358433 0.000759363  0.0327404 -0.417574 0.000588179  0.0328059 -0.417623 0.000484228  0.0536795 -0.399483 0.000694275  0.0523355 -0.419179 0.00053215  0.0537555 -0.39956 0.000528336  0.034142 -0.397831 0.000672579  0.0327916 -0.417579 0.000536203  0.0342247 -0.397933 0.0005126  0.0537453 -0.399521 0.000612974  0.0342023 -0.397886 0.00059104  0.0298185 -0.456849 0.00047946  0.0298562 -0.456836 0.000455618  0.0508287 -0.438811 0.000498772  0.0493634 -0.458372 0.000438929  0.0508828 -0.438804 0.000452518  0.0312996 -0.437221 0.000529289  0.0298488 -0.456818 0.000469685  0.0313487 -0.437233 0.000465393  0.050868 -0.438799 0.000477791  0.0313373 -0.437223 0.000496387  0.0268059 -0.495878 0.000418901  0.026834 -0.495849 0.000452757  0.047817 -0.477919 0.000420809  0.0463133 -0.497389 0.000411987  0.047852 -0.477893 0.000431776  0.0283206 -0.476369 0.000455141  0.0268302 -0.495838 0.00043869  0.0283508 -0.476346 0.000451565  0.0478389 -0.477898 0.000425577  0.0283427 -0.476352 0.00045228  -0.00983997 -0.0121641 -0.00225925  -0.00344042 -0.00666341 6.4373e-06  0 0 0  -0.00616707 -0.00832027 1.12057e-05  0 0 0  -0.00353348 -0.00556861 -0.001127  -0.00110374 -0.00219165 4.29153e-06  0 0 0  -0.003386 -0.00643706 -0.00140572  -0.00616895 -0.00806198 -0.00168443  -0.00185507 -0.00374059 5.72205e-06  0 0 0  -0.00109793 -0.00210075 -0.000703812  -0.00183422 -0.00360488 -0.000983477  -0.0227963 -0.0222361 -0.00279784  -0.0165893 -0.0166687 2.21729e-05  -0.0159077 -0.0201223 3.19481e-05  -0.00993583 -0.0179647 -0.00142097  -0.00660744 -0.0113555 1.7643e-05  -0.0166045 -0.0162612 -0.00268149  -0.0159474 -0.0197807 -0.00211477  -0.0111451 -0.0135178 1.95503e-05  -0.00665382 -0.0111262 -0.00134754  -0.0111817 -0.0132157 -0.00201416  -0.0343361 -0.0384471 -0.00254297  -0.0286466 -0.0300508 4.86374e-05  -0.0248505 -0.0368693 5.72205e-05  -0.0161145 -0.0352983 -0.00125718  -0.01311 -0.0263011 3.86238e-05  -0.0286838 -0.029704 -0.00271964  -0.0248406 -0.0365453 -0.00190306  -0.0204799 -0.027847 4.43459e-05  -0.013125 -0.0260064 -0.00135851  -0.0205029 -0.0275266 -0.00204277  -0.0447099 -0.059488 -0.00210285  -0.0396999 -0.0486977 8.03471e-05  -0.0329247 -0.0584668 8.74996e-05  -0.0217329 -0.0573819 -0.00101995  -0.0190077 -0.0460647 6.46114e-05  -0.0396854 -0.0484095 -0.00232816  -0.0328734 -0.058187 -0.00156212  -0.0289982 -0.0470971 7.1764e-05  -0.0189683 -0.0457862 -0.0011394  -0.0289614 -0.046812 -0.00173593  -0.053918 -0.0847179 -0.00169063  -0.0494825 -0.0718749 0.000112534  -0.0402124 -0.0841626 0.000119925  -0.0270153 -0.0835252 -0.00079298  -0.024467 -0.0702216 9.34601e-05  -0.0494466 -0.0716376 -0.00189638  -0.0401517 -0.0839256 -0.00124359  -0.0366532 -0.0708278 0.00010252  -0.0244122 -0.0699819 -0.000903606  -0.0365976 -0.0705871 -0.0014019  -0.0621432 -0.113446 -0.00131488  -0.0581881 -0.0988876 0.000149727  -0.0468607 -0.113307 0.000157833  -0.0320226 -0.11308 -0.000590324  -0.0296077 -0.0981082 0.000127077  -0.0581459 -0.0986934 -0.0015018  -0.0468004 -0.113113 -0.000953913  -0.0436081 -0.0983264 0.000138521  -0.0295494 -0.0979109 -0.000688553  -0.0435487 -0.0981284 -0.00109625  -0.0694997 -0.145051 -0.000978231  -0.0659668 -0.129084 0.00019145  -0.0529495 -0.145286 0.000196934  -0.0367876 -0.145434 -0.000401258  -0.0344888 -0.129097 0.000163317  -0.0659244 -0.12893 -0.00114584  -0.0528928 -0.145129 -0.000693798  -0.0499694 -0.12896 0.000176907  -0.0344338 -0.128939 -0.000493526  -0.0499127 -0.128802 -0.000822067  -0.0760761 -0.178988 -0.000678301  -0.0729183 -0.161887 0.000230789  -0.0585314 -0.179546 0.000236034  -0.0413245 -0.18002 -0.000240326  -0.0391315 -0.162597 0.000200272  -0.0728812 -0.161768 -0.000828743  -0.0584795 -0.179423 -0.00046134  -0.0557983 -0.162146 0.00021553  -0.0390829 -0.162476 -0.00031805  -0.0557462 -0.162024 -0.000575542  -0.0819397 -0.214742 -0.000411034  -0.0791297 -0.196759 0.000272274  -0.0636444 -0.215578 0.000278711  -0.0456367 -0.216332 -8.24928e-05  -0.0435522 -0.198075 0.00024128  -0.0790937 -0.196672 -0.000545263  -0.0635982 -0.215483 -0.000250816  -0.0611417 -0.197351 0.000257015  -0.0435083 -0.197984 -0.000157833  -0.0610955 -0.19726 -0.000353575  -0.0871644 -0.251876 -0.000171185  -0.0846574 -0.23323 0.000319481  -0.0683265 -0.252933 0.000324011  -0.0497265 -0.253916 5.53131e-05  -0.0477483 -0.235049 0.000283003  -0.0846274 -0.23317 -0.000289679  -0.0682847 -0.252863 -6.10352e-05  -0.0660334 -0.234097 0.000300407  -0.0477073 -0.234986 -1.12057e-05  -0.0659928 -0.234034 -0.000154257  -0.0918131 -0.289976 3.83854e-05  -0.0895855 -0.27087 0.000363827  -0.0726128 -0.291212 0.000369072  -0.0535991 -0.292381 0.000181913  -0.0517247 -0.273096 0.000327826  -0.0895586 -0.270831 -6.74725e-05  -0.0725744 -0.291164 0.000105619  -0.0705154 -0.27196 0.000346661  -0.0516899 -0.273056 0.000121355  -0.0704768 -0.27192 2.40803e-05  -0.095958 -0.328716 0.000215769  -0.0939679 -0.309308 0.000408888  -0.0765407 -0.33008 0.000411987  -0.0572646 -0.331388 0.000283957  -0.055485 -0.311851 0.000370979  -0.0939441 -0.309291 0.000125408  -0.0765069 -0.330049 0.000247955  -0.0746145 -0.310572 0.000390053  -0.0554552 -0.311831 0.000236273  -0.0745819 -0.310552 0.000178099  -0.0996773 -0.367792 0.000356436  -0.0978897 -0.348231 0.000454187  -0.0801599 -0.369252 0.000456333  -0.0607398 -0.370659 0.000383139  -0.0590494 -0.351007 0.00041461  -0.0978658 -0.34823 0.000285625  -0.0801306 -0.369232 0.000365973  -0.078383 -0.349624 0.000434637  -0.0590243 -0.351001 0.000336885  -0.0783539 -0.349618 0.000308752  -0.103066 -0.406995 0.000477076  -0.101426 -0.387385 0.000501871  -0.0835316 -0.408505 0.000502586  -0.0640512 -0.409975 0.000457764  -0.0624337 -0.390313 0.000459909  -0.101407 -0.387395 0.000418186  -0.0835071 -0.408497 0.000463724  -0.0818682 -0.38886 0.000480652  -0.062412 -0.390318 0.000422955  -0.0818455 -0.388866 0.000417709  -0.106229 -0.446141 0.000560284  -0.104688 -0.426568 0.000547171  -0.0867257 -0.447675 0.00054884  -0.0672326 -0.449183 0.00052309  -0.0656734 -0.429581 0.000504732  -0.104669 -0.426585 0.000517607  -0.0867 -0.447672 0.00053978  -0.0851452 -0.428088 0.000525713  -0.0656567 -0.429594 0.000493526  -0.0851216 -0.428101 0.000502348  -0.109301 -0.485182 0.000623226  -0.107789 -0.465661 0.000590563  -0.0898187 -0.486695 0.000591755  -0.0703328 -0.48819 0.000576258  -0.0688076 -0.468692 0.000549078  -0.107768 -0.46568 0.000587463  -0.0897949 -0.486694 0.000602484  -0.0882745 -0.467187 0.000569344  -0.0687857 -0.468709 0.000552416  -0.0882528 -0.467203 0.000570059  -0.00159577 -0.00456077 8.10623e-06  0 0 0  0.000166297 -0.00416768 6.4373e-06  5.21839e-05 -0.00128096 2.6226e-06  0 0 0  -0.00160541 -0.00442067 -0.000558138  -0.000477605 -0.0014466 3.8147e-06  0 0 0  5.22435e-05 -0.00123492 1.43051e-06  -0.000473648 -0.00138938 -0.000337839  -0.00467581 -0.0171779 2.31266e-05  0.000268936 -0.0167651 1.14441e-05  0.000234574 -0.00996557 1.26362e-05  -0.00468686 -0.0169165 -0.000703573  -0.00305855 -0.010187 1.40667e-05  0.000246972 -0.00979283 4.52995e-06  -0.00307837 -0.00999957 -0.000664234  -0.00794452 -0.0350111 4.3869e-05  -1.96695e-06 -0.0347816 2.81334e-05  0.0001688 -0.0254287 2.7895e-05  -0.00791913 -0.0347117 -0.000613451  -0.00632834 -0.0254768 3.31402e-05  0.000191152 -0.0251654 1.5974e-05  -0.00632304 -0.0252038 -0.000669003  -0.0111453 -0.0573786 6.8903e-05  -0.000728726 -0.0573664 6.1512e-05  -0.000338316 -0.0457864 4.76837e-05  -0.0110971 -0.057101 -0.00047636  -0.00954038 -0.0456236 5.55515e-05  -0.000307322 -0.0455184 4.33922e-05  -0.00950146 -0.0453525 -0.000546694  -0.0143921 -0.0837821 9.91821e-05  -0.00191259 -0.0840153 0.000100374  -0.00129938 -0.0704542 7.48634e-05  -0.0143391 -0.0835467 -0.000347137  -0.0127581 -0.0700888 8.36849e-05  -0.00126398 -0.0702189 8.08239e-05  -0.0127079 -0.0698525 -0.00041151  -0.0177115 -0.113579 0.000132322  -0.00352514 -0.114053 0.000133991  -0.00270212 -0.0988387 0.000103712  -0.0176593 -0.113384 -0.000226498  -0.016039 -0.0982694 0.000115395  -0.00266743 -0.0986443 0.000116587  -0.0159883 -0.0980743 -0.000285864  -0.0211002 -0.146156 0.000167131  -0.00551856 -0.146856 0.000169754  -0.00451064 -0.130296 0.000135422  -0.0210513 -0.145999 -0.000117302  -0.0193955 -0.129531 0.000149488  -0.00447667 -0.130141 0.000153065  -0.019347 -0.129376 -0.000170708  -0.0245377 -0.180937 0.000203848  -0.00783718 -0.181837 0.000208139  -0.00667298 -0.16422 0.000169277  -0.0244915 -0.180814 -1.5974e-05  -0.0228107 -0.163277 0.000185251  -0.00664008 -0.164102 0.000188351  -0.022766 -0.163159 -6.58035e-05  -0.0279944 -0.217417 0.000245333  -0.0104215 -0.218487 0.000247717  -0.00913048 -0.200065 0.000207186  -0.027952 -0.217324 8.08239e-05  -0.026262 -0.198968 0.000224113  -0.00909972 -0.199977 0.000226259  -0.0262206 -0.198881 3.3617e-05  -0.03144 -0.255136 0.000287294  -0.013207 -0.256345 0.000287771  -0.0118196 -0.237345 0.000248671  -0.0314021 -0.255067 0.000170708  -0.029716 -0.236121 0.00026536  -0.0117912 -0.237285 0.000267982  -0.0296791 -0.236061 0.000126123  -0.0348506 -0.293708 0.000330925  -0.0161405 -0.295025 0.000326157  -0.0146801 -0.275637 0.000291586  -0.034817 -0.29366 0.000252247  -0.0331478 -0.274311 0.000309467  -0.0146582 -0.275599 0.00030756  -0.0331147 -0.274274 0.000212669  -0.0382032 -0.332791 0.000371218  -0.0191636 -0.334188 0.000366449  -0.0176611 -0.314578 0.000332355  -0.0381727 -0.332759 0.000324726  -0.0365307 -0.313178 0.000351667  -0.0176427 -0.314558 0.000347137  -0.0365021 -0.313159 0.00028944  -0.0414851 -0.372116 0.000416756  -0.0222371 -0.37357 0.000404835  -0.0207126 -0.353864 0.000374794  -0.0414579 -0.372098 0.000392199  -0.0398495 -0.352412 0.000393629  -0.0206952 -0.353861 0.000386715  -0.0398238 -0.352409 0.000359297  -0.0446916 -0.411463 0.000461578  -0.025326 -0.412952 0.000450373  -0.023798 -0.393258 0.000417948  -0.044667 -0.411455 0.000452518  -0.043093 -0.391771 0.000438929  -0.0237808 -0.393265 0.000424862  -0.043071 -0.391779 0.000423193  -0.0478275 -0.450688 0.000506401  -0.0284069 -0.452197 0.000487566  -0.0268831 -0.432577 0.000463724  -0.0478041 -0.450688 0.000505209  -0.0462649 -0.431072 0.000484228  -0.0268676 -0.432593 0.000468969  -0.046243 -0.431089 0.000480413  -0.0509079 -0.48969 0.000549078  -0.0314612 -0.491197 0.000527859  -0.029952 -0.471705 0.000506401  -0.0508833 -0.489688 0.000555277  -0.0493679 -0.470193 0.000527859  -0.0299373 -0.471725 0.000507832  -0.0493479 -0.470214 0.000530005  0.00193131 -0.0048871 2.86102e-06  0 0 0  0.00385228 -0.00621384 0.00111246  0.00119032 -0.0025878 -7.15256e-07  0 0 0  0.00195348 -0.00475192 0.000570297  0.000589713 -0.00164741 2.38419e-07  0 0 0  0.00118552 -0.00250262 0.000684023  0.000586584 -0.00159478 0.000337839  0.00515497 -0.0177308 1.38283e-05  0.0103692 -0.0190322 0.00140643  0.00704265 -0.0121715 3.09944e-06  0.00520462 -0.017478 0.000720978  0.00353667 -0.0106193 7.62939e-06  0.00711623 -0.0119589 0.00132561  0.00358242 -0.0104398 0.000671387  0.00782412 -0.0358005 3.02792e-05  0.0159164 -0.0368753 0.00129342  0.0132852 -0.0275919 1.35899e-05  0.00785977 -0.0355066 0.000670433  0.00661761 -0.0261404 2.07424e-05  0.0133455 -0.0273148 0.0013628  0.00666052 -0.0258757 0.000700951  0.0095458 -0.0584552 5.19753e-05  0.0200419 -0.0595481 0.00113177  0.0181126 -0.0479142 3.29018e-05  0.00957334 -0.0581811 0.000602722  0.00879741 -0.0465513 4.14848e-05  0.0181355 -0.0476452 0.00121331  0.00882518 -0.0462841 0.000636101  0.0104213 -0.0851813 7.7486e-05  0.0229554 -0.0863453 0.00098753  0.021628 -0.072706 5.4121e-05  0.0104487 -0.0849453 0.000546932  0.0100873 -0.0713248 6.48499e-05  0.0216452 -0.0724704 0.00105691  0.0101132 -0.0710899 0.00057435  0.010524 -0.1153 0.000104666  0.024757 -0.116551 0.000854969  0.0239741 -0.101254 7.9155e-05  0.010551 -0.115105 0.000497818  0.0105673 -0.0998299 9.08375e-05  0.0239888 -0.101058 0.000919819  0.0105923 -0.0996356 0.000521421  0.00993562 -0.148184 0.000137568  0.0255609 -0.149521 0.000746727  0.0252615 -0.132882 0.000105619  0.00996161 -0.148026 0.000461817  0.0103137 -0.131409 0.000121117  0.0252774 -0.132725 0.000798941  0.0103381 -0.131253 0.000478745  0.00874686 -0.183233 0.000171661  0.0254881 -0.184644 0.000650644  0.0256124 -0.166963 0.000136852  0.00877118 -0.183109 0.000431061  0.00941384 -0.165444 0.00015378  0.0256265 -0.166841 0.000695467  0.00943685 -0.165324 0.000444412  0.00704885 -0.21994 0.000210285  0.0246625 -0.221409 0.000575304  0.0251482 -0.202938 0.000174999  0.00707269 -0.219845 0.000413656  0.00795913 -0.201384 0.000190973  0.0251622 -0.202847 0.000612259  0.00798059 -0.201294 0.000421762  0.00493574 -0.257837 0.000252008  0.0232096 -0.259348 0.000518084  0.0239937 -0.240316 0.000212431  0.00495815 -0.257767 0.000404835  0.00604248 -0.238739 0.000231504  0.024008 -0.240251 0.00054574  0.00606251 -0.238677 0.000408888  0.00249457 -0.296546 0.000293016  0.021246 -0.298081 0.000478983  0.0222726 -0.278674 0.000252962  0.00251603 -0.296495 0.000403404  0.00375438 -0.277087 0.000272751  0.022285 -0.278632 0.000495434  0.00377369 -0.277047 0.000403643  -0.00019002 -0.335719 0.000334978  0.0188844 -0.337269 0.000447035  0.0200977 -0.317652 0.000295639  -0.000169754 -0.335688 0.000408411  0.00118208 -0.316066 0.000314236  0.0201097 -0.31763 0.000460863  0.00119972 -0.316046 0.000405312  -0.00304794 -0.375105 0.000377655  0.0162275 -0.376657 0.000430107  0.0175786 -0.356953 0.000334978  -0.00302839 -0.375088 0.000421286  -0.0015974 -0.355375 0.000355721  0.0175872 -0.356947 0.000436544  -0.00158095 -0.355372 0.000413656  -0.00601268 -0.414483 0.000421762  0.0133748 -0.416028 0.000437975  0.0148113 -0.396343 0.00037837  -0.00599313 -0.414475 0.00044322  -0.0045166 -0.39478 0.000397682  0.0148213 -0.396348 0.000432014  -0.00450015 -0.394787 0.000430346  -0.00903487 -0.453723 0.00046587  0.0104034 -0.455258 0.000457287  0.0118892 -0.43565 0.00042367  -0.00901437 -0.453719 0.000473261  -0.00751615 -0.434101 0.000444174  0.0119002 -0.435662 0.000445127  -0.00749803 -0.434117 0.000458241  -0.0120623 -0.492724 0.000509262  0.00739241 -0.494265 0.000482798  0.00888586 -0.474768 0.000468016  -0.0120454 -0.492722 0.000505686  -0.0105467 -0.473228 0.000487089  0.00889826 -0.474784 0.000468493  -0.0105312 -0.473247 0.000488997  0.0063743 -0.00917643 -3.8147e-06  0 0 0  0.00981212 -0.0130635 0.00212741  0.00333668 -0.00723088 -5.24521e-06  0 0 0  0.00639859 -0.00893027 0.00163388  0.00190863 -0.00428647 -2.6226e-06  0 0 0  0.0033045 -0.00700855 0.00133252  0.00189459 -0.00415319 0.000953436  0.0160843 -0.0216143 1.43051e-06  0.0226766 -0.0241106 0.00269008  0.0165846 -0.0179903 -7.15256e-06  0.016168 -0.0212979 0.00206685  0.0114287 -0.014658 -1.90735e-06  0.0166452 -0.0176128 0.00255942  0.0115002 -0.0143809 0.0019567  0.0243036 -0.0391803 1.50204e-05  0.0333995 -0.0415071 0.00250316  0.0281533 -0.0324357 -4.76837e-07  0.0243524 -0.0388774 0.00191259  0.0203921 -0.0297148 6.91414e-06  0.0282359 -0.0321234 0.00263834  0.0204633 -0.0294216 0.00201631  0.0308433 -0.061729 3.43323e-05  0.0422412 -0.0638977 0.00217295  0.0380408 -0.052385 1.3113e-05  0.0308653 -0.0614574 0.00166202  0.0277914 -0.0498632 2.3365e-05  0.0380811 -0.052116 0.0023427  0.0278186 -0.0495938 0.00178909  0.0357653 -0.0884452 5.53131e-05  0.0491158 -0.0905392 0.00185561  0.0458794 -0.0769683 3.24249e-05  0.0357842 -0.0882118 0.00142717  0.0334961 -0.0745903 4.33922e-05  0.0459107 -0.0767411 0.00201249  0.0335152 -0.0743576 0.00154185  0.039239 -0.118587 7.82013e-05  0.054213 -0.120631 0.0015645  0.0518492 -0.105386 5.24521e-05  0.0392565 -0.118394 0.00121689  0.0376773 -0.103108 6.48499e-05  0.0518755 -0.105198 0.00170732  0.0376928 -0.102914 0.00131822  0.0414078 -0.1515 0.000105619  0.0577036 -0.153494 0.00131059  0.0561213 -0.136907 7.70092e-05  0.0414249 -0.151343 0.00103235  0.0404795 -0.134716 9.17912e-05  0.0561485 -0.136759 0.001436  0.0404947 -0.134561 0.00112176  0.0424261 -0.18657 0.000138998  0.0597692 -0.188513 0.00108743  0.0588779 -0.170886 0.000104904  0.042443 -0.186446 0.000875473  0.0420541 -0.168778 0.000121355  0.0589008 -0.170772 0.0011971  0.0420685 -0.168658 0.000950098  0.042448 -0.22328 0.000175714  0.0605934 -0.225166 0.000902653  0.060303 -0.206754 0.000139952  0.042465 -0.223184 0.000742912  0.0425546 -0.20473 0.000157118  0.0603247 -0.20667 0.000994205  0.0425689 -0.20464 0.000806808  0.0416281 -0.261158 0.000214338  0.0603638 -0.262984 0.000744343  0.0605807 -0.244015 0.000176668  0.0416448 -0.261088 0.000634909  0.0421376 -0.242077 0.000193596  0.0605984 -0.243957 0.000821829  0.0421512 -0.242013 0.000685453  0.0401134 -0.299829 0.000255585  0.0592551 -0.301588 0.000618935  0.0598912 -0.282248 0.000216246  0.0401306 -0.299781 0.000551462  0.0409515 -0.280396 0.000234604  0.0599084 -0.282213 0.0006814  0.0409656 -0.280357 0.00059104  0.0380478 -0.338957 0.000295639  0.0574393 -0.340651 0.000521421  0.0584092 -0.321099 0.000257254  0.038065 -0.338925 0.000486851  0.0391448 -0.319333 0.00027585  0.0584247 -0.321083 0.000568867  0.0391586 -0.319312 0.00051713  0.0355632 -0.378286 0.000335693  0.0550804 -0.379918 0.000453711  0.0563028 -0.360277 0.000295401  0.0355802 -0.37827 0.000444889  0.0368531 -0.35859 0.000315189  0.0563178 -0.360277 0.000485182  0.0368671 -0.358585 0.000463247  0.0327888 -0.417611 0.000380993  0.0523405 -0.419189 0.000422716  0.0537357 -0.399554 0.000338316  0.0328054 -0.417603 0.000432968  0.0342081 -0.397938 0.000356913  0.0537469 -0.399565 0.000436783  0.0342216 -0.397945 0.000435352  0.0298374 -0.456804 0.000425816  0.0493717 -0.458345 0.000421047  0.050864 -0.438772 0.000383139  0.029856 -0.456803 0.000440359  0.0313313 -0.437209 0.000402451  0.0508749 -0.438791 0.000421286  0.0313466 -0.437224 0.000434637  0.0268183 -0.495815 0.00047183  0.0463209 -0.497355 0.000439405  0.0478437 -0.477851 0.000427485  0.0268354 -0.495811 0.000462532  0.0283322 -0.47631 0.00044775  0.0478473 -0.47787 0.000434399  0.028348 -0.476328 0.00045085  -0.00984217 -0.0121649 0.00228167  -0.00339602 -0.00602923 0.00292492  0 0 0  -0.00622731 -0.00735609 0.00357652  0 0 0  -0.003537 -0.00556652 0.00114632  -0.00112034 -0.0017644 0.00148821  0 0 0  -0.00338651 -0.00643911 0.00141835  -0.00617224 -0.00806189 0.00170755  -0.00188017 -0.00323616 0.00204802  0 0 0  -0.00109891 -0.00209984 0.000712633  -0.00183529 -0.00360536 0.000994444  -0.0228033 -0.0222312 0.00287056  -0.0166274 -0.0152119 0.0056119  -0.0160208 -0.0188042 0.0043807  -0.00994566 -0.0179565 0.0014801  -0.00674707 -0.0103393 0.00282812  -0.0166087 -0.0162592 0.00272632  -0.0159566 -0.0197753 0.00217891  -0.0112619 -0.0123183 0.00421524  -0.00666028 -0.0111213 0.00138402  -0.0111879 -0.0132121 0.00205374  -0.0343491 -0.0384363 0.00266933  -0.0287268 -0.0286407 0.00559783  -0.0248046 -0.0356117 0.00394845  -0.0161307 -0.0352846 0.00135994  -0.0131295 -0.0250784 0.0028317  -0.0286942 -0.0296959 0.00281835  -0.0248552 -0.0365338 0.00201845  -0.020527 -0.02653 0.00421667  -0.0131383 -0.0259957 0.00143719  -0.0205145 -0.0275171 0.00213194  -0.0447268 -0.0594707 0.00229692  -0.0396349 -0.0474778 0.00486994  -0.0327665 -0.0573672 0.00337577  -0.0217534 -0.0573616 0.00117707  -0.0188816 -0.0449082 0.00245905  -0.0397006 -0.0483957 0.00248885  -0.032893 -0.0581682 0.00173736  -0.0288758 -0.0459084 0.00366569  -0.0189867 -0.0457696 0.0012691  -0.0289786 -0.0467966 0.00187969  -0.0539391 -0.0846949 0.00195336  -0.0493604 -0.0708508 0.00411224  -0.0400336 -0.0832306 0.002841  -0.0270393 -0.0835007 0.00101376  -0.0242951 -0.0692115 0.00208545  -0.0494657 -0.0716181 0.00212216  -0.0401752 -0.0839014 0.00148368  -0.0364789 -0.0698079 0.00310063  -0.0244344 -0.0699597 0.00109148  -0.0366194 -0.0705657 0.00160718  -0.0621685 -0.113418 0.00165462  -0.058058 -0.0980359 0.00344014  -0.0466937 -0.112534 0.00237918  -0.0320494 -0.113052 0.000879049  -0.0294402 -0.097256 0.00175905  -0.0581689 -0.0986686 0.00180221  -0.0468262 -0.113084 0.0012691  -0.0434326 -0.0974716 0.00260258  -0.0295745 -0.0978848 0.000943422  -0.0435736 -0.0981028 0.00137305  -0.0695263 -0.145019 0.00140572  -0.0658491 -0.128385 0.00285482  -0.0528045 -0.144654 0.00197768  -0.0368166 -0.145401 0.000768423  -0.0343372 -0.128392 0.00148058  -0.0659512 -0.1289 0.0015285  -0.0529199 -0.145097 0.00108767  -0.049812 -0.128256 0.00217247  -0.0344625 -0.128909 0.000820875  -0.0499393 -0.128772 0.00117612  -0.0761036 -0.178953 0.00118446  -0.0728223 -0.16132 0.00234365  -0.0584131 -0.17904 0.00163269  -0.0413548 -0.179984 0.000677824  -0.0390089 -0.162026 0.00124192  -0.0729077 -0.161733 0.00129199  -0.0585082 -0.179387 0.000933647  -0.0556663 -0.161575 0.00179791  -0.0391124 -0.162442 0.000719547  -0.0557741 -0.16199 0.0010066  -0.0819695 -0.214704 0.00100183  -0.0790551 -0.196312 0.00190187  -0.0635533 -0.21518 0.00133753  -0.0456681 -0.216293 0.000607252  -0.0434515 -0.19762 0.00104308  -0.0791225 -0.196635 0.001091  -0.0636282 -0.215444 0.000807524  -0.0610361 -0.196897 0.00147843  -0.043539 -0.197947 0.000640154  -0.061125 -0.197223 0.000867605  -0.0871959 -0.251837 0.000856161  -0.08461 -0.232883 0.00152993  -0.0682597 -0.252629 0.00109458  -0.0497603 -0.253875 0.000558138  -0.0476768 -0.234694 0.000877619  -0.0846581 -0.23313 0.00092864  -0.0683169 -0.252823 0.00070858  -0.0659552 -0.233744 0.0012095  -0.0477402 -0.234946 0.000578165  -0.0660236 -0.233994 0.000754833  -0.0918455 -0.289934 0.000738621  -0.0895524 -0.270611 0.00121951  -0.0725667 -0.290986 0.000897408  -0.0536349 -0.292337 0.000518084  -0.0516722 -0.272829 0.00074625  -0.0895903 -0.270791 0.00079608  -0.0726082 -0.29112 0.000632286  -0.0704572 -0.271694 0.000990391  -0.0517244 -0.273014 0.000534773  -0.0705099 -0.271878 0.000668764  -0.0959916 -0.32867 0.000649214  -0.0939529 -0.30912 0.000969887  -0.0765171 -0.329917 0.000742912  -0.0573008 -0.331343 0.000498295  -0.055459 -0.311654 0.000644922  -0.093976 -0.309247 0.000693083  -0.0765417 -0.330004 0.000576973  -0.0745809 -0.310376 0.000814676  -0.0554914 -0.311787 0.000505686  -0.0746164 -0.310508 0.000601768  -0.0997117 -0.367745 0.000596762  -0.097888 -0.348103 0.000783682  -0.0801561 -0.369138 0.000638485  -0.060775 -0.370614 0.000492573  -0.0590379 -0.350866 0.000573158  -0.0979011 -0.348184 0.000622749  -0.0801656 -0.369187 0.000546932  -0.0783679 -0.349484 0.000685453  -0.0590601 -0.350955 0.000491858  -0.0783889 -0.349572 0.000559807  -0.1031 -0.406947 0.00057292  -0.101438 -0.387296 0.000658274  -0.0835426 -0.408426 0.000582457  -0.0640862 -0.409929 0.000507116  -0.0624409 -0.390213 0.000537157  -0.101441 -0.387349 0.000584841  -0.0835419 -0.408449 0.000542164  -0.0818732 -0.388761 0.000605345  -0.0624468 -0.390272 0.000496864  -0.0818801 -0.388819 0.000542879  -0.106264 -0.446093 0.000582457  -0.1047 -0.426505 0.000599861  -0.0867386 -0.447615 0.000564814  -0.0672681 -0.449134 0.000530481  -0.0656893 -0.429511 0.000529766  -0.104704 -0.426538 0.000577211  -0.0867352 -0.447624 0.000556707  -0.0851564 -0.428016 0.000570536  -0.0656917 -0.429547 0.000515223  -0.0851572 -0.428054 0.00054884  -0.109334 -0.485134 0.000600338  -0.107804 -0.465604 0.000589132  -0.0898304 -0.486636 0.000566721  -0.0703676 -0.488141 0.000560999  -0.068825 -0.468631 0.000542879  -0.107802 -0.465631 0.000593185  -0.089829 -0.486645 0.000579834  -0.0882881 -0.467124 0.000566244  -0.068821 -0.46866 0.000545025  -0.0882874 -0.467154 0.000568151  -0.00162897 -0.00393358 0.00120187  0 0 0  0.000162542 -0.00416216 5.00679e-06  5.75781e-05 -0.000947535 5.96046e-06  0 0 0  -0.00160894 -0.00441685 0.000574827  -0.00048621 -0.00108486 0.000720501  0 0 0  5.10514e-05 -0.00123215 4.52995e-06  -0.000474781 -0.00138757 0.000345945  -0.00470674 -0.016117 0.00148487  0.000259578 -0.0167539 2.6226e-05  0.000274956 -0.00910303 2.38419e-05  -0.00469643 -0.0169062 0.000750065  -0.00311378 -0.00928199 0.00140524  0.000240833 -0.00978461 2.07424e-05  -0.0030849 -0.00999314 0.000692844  -0.00787294 -0.0338445 0.00134301  -1.71661e-05 -0.0347656 4.8399e-05  0.000228703 -0.0243103 4.76837e-05  -0.00793475 -0.0346962 0.000701904  -0.00630814 -0.024327 0.0014329  0.000178695 -0.0251522 4.00543e-05  -0.00633562 -0.0251921 0.000735998  -0.0110185 -0.0563021 0.0011549  -0.000749052 -0.057346 5.8651e-05  -0.00026077 -0.0446676 5.50747e-05  -0.0111169 -0.0570803 0.000614643  -0.0094316 -0.0444924 0.00125074  -0.000325143 -0.0455005 5.36442e-05  -0.0095197 -0.0453349 0.000658035  -0.0142578 -0.0828538 0.00098896  -0.00193524 -0.0839903 7.89165e-05  -0.00121677 -0.0694557 6.05583e-05  -0.0143622 -0.083522 0.000545979  -0.0126249 -0.0690871 0.00107145  -0.00128555 -0.0701961 6.93798e-05  -0.0127295 -0.0698301 0.000579357  -0.017589 -0.112803 0.000849485  -0.00354958 -0.114023 0.000101089  -0.00262535 -0.0979879 7.48634e-05  -0.0176852 -0.113354 0.000490904  -0.0159087 -0.0974197 0.000917196  -0.00269067 -0.098617 9.03606e-05  -0.016013 -0.0980479 0.000516415  -0.020998 -0.145518 0.000736475  -0.00554729 -0.146823 0.000133991  -0.00444674 -0.129588 9.89437e-05  -0.02108 -0.145966 0.000452042  -0.0192831 -0.128827 0.000791311  -0.00450289 -0.130109 0.000117779  -0.0193743 -0.129345 0.000469685  -0.0244565 -0.180425 0.000645161  -0.00786936 -0.181801 0.000169992  -0.00662673 -0.163644 0.000130653  -0.0245225 -0.180778 0.000423908  -0.0227193 -0.162706 0.00068903  -0.00667071 -0.164066 0.000150442  -0.0227959 -0.163124 0.000436306  -0.0279348 -0.217011 0.000575542  -0.0104566 -0.218448 0.000209808  -0.00910044 -0.199606 0.000169754  -0.0279856 -0.217285 0.000409842  -0.0261919 -0.198513 0.000608921  -0.00913286 -0.199939 0.000188351  -0.0262527 -0.198843 0.000415087  -0.0314031 -0.254825 0.000523567  -0.0132439 -0.256302 0.000250578  -0.0118058 -0.236986 0.000211477  -0.0314376 -0.255025 0.000404119  -0.0296679 -0.235766 0.000547647  -0.0118282 -0.237243 0.000230074  -0.0297136 -0.23602 0.000404835  -0.0348325 -0.293475 0.000490189  -0.016176 -0.294982 0.000298023  -0.0146832 -0.275364 0.000258684  -0.0348527 -0.293616 0.000409842  -0.0331216 -0.274043 0.000504494  -0.0146942 -0.275556 0.000275135  -0.0331507 -0.274231 0.000405788  -0.0382006 -0.332621 0.000467777  -0.0192001 -0.334144 0.000338316  -0.0176787 -0.314377 0.000304222  -0.0382092 -0.332714 0.000418425  -0.0365207 -0.31298 0.000477552  -0.0176787 -0.314514 0.000318289  -0.0365384 -0.313115 0.000413179  -0.0414958 -0.371996 0.000466108  -0.0222743 -0.373525 0.00038743  -0.0207403 -0.353722 0.000351429  -0.0414939 -0.372053 0.000441313  -0.0398552 -0.352271 0.000464678  -0.0207319 -0.353816 0.000363111  -0.0398602 -0.352363 0.000427723  -0.0447125 -0.41138 0.000481129  -0.0253627 -0.412906 0.000434875  -0.023828 -0.393158 0.000403166  -0.0447044 -0.411408 0.000470638  -0.0431092 -0.391673 0.000473261  -0.0238171 -0.393218 0.000411034  -0.0431073 -0.391732 0.000454903  -0.047853 -0.450627 0.000507355  -0.0284436 -0.45215 0.000482559  -0.0269189 -0.432509 0.000453949  -0.0478413 -0.45064 0.000506878  -0.0462899 -0.431004 0.000493288  -0.0269048 -0.432546 0.000458479  -0.0462806 -0.431041 0.000487804  -0.0509305 -0.489627 0.000535965  -0.0314963 -0.491148 0.000526905  -0.0299895 -0.471648 0.000502348  -0.0509181 -0.489638 0.000542164  -0.0493929 -0.470137 0.00052309  -0.029973 -0.471677 0.000504971  -0.0493839 -0.470165 0.000524759  0.00200412 -0.00428027 -0.00120592  0 0 0  0.00384843 -0.00620568 -0.00111198  0.0012185 -0.00218737 -0.00144434  0 0 0  0.00194976 -0.00474507 -0.000564098  0.000607848 -0.00130284 -0.000710011  0 0 0  0.00118443 -0.00249845 -0.000685215  0.000585288 -0.00159127 -0.000336885  0.00528669 -0.0166996 -0.00141668  0.0103589 -0.0190189 -0.00138974  0.00725749 -0.0112166 -0.00272202  0.00519538 -0.017466 -0.000693083  0.00366735 -0.00974184 -0.00136089  0.00710925 -0.011948 -0.00131869  0.00357595 -0.0104299 -0.00065589  0.00789696 -0.0346542 -0.0012424  0.0159009 -0.0368584 -0.00124741  0.0134283 -0.0264286 -0.00268555  0.00784439 -0.0354904 -0.000608921  0.00672174 -0.0250167 -0.00134063  0.0133321 -0.0272997 -0.00133443  0.00664818 -0.0258613 -0.000658512  0.00958598 -0.0573903 -0.00105119  0.0200219 -0.0595277 -0.00104499  0.0181431 -0.0467911 -0.00232315  0.00955403 -0.0581613 -0.000497818  0.00884664 -0.0454349 -0.00114655  0.0181185 -0.0476258 -0.00114703  0.0088076 -0.046266 -0.000553131  0.010451 -0.0842528 -0.000862122  0.0229323 -0.0863197 -0.000853539  0.0216283 -0.0717081 -0.00195169  0.0104263 -0.0849202 -0.00039196  0.0101229 -0.0703271 -0.000955582  0.0216234 -0.0724465 -0.000947952  0.0100921 -0.0710666 -0.000444412  0.0105441 -0.114518 -0.000683784  0.0247327 -0.116521 -0.000674486  0.0239612 -0.100401 -0.0016048  0.0105264 -0.115074 -0.000288248  0.010591 -0.0989774 -0.000771284  0.0239655 -0.10103 -0.000761747  0.0105689 -0.0996075 -0.00033927  0.00994527 -0.147535 -0.000510931  0.0255336 -0.149485 -0.000502825  0.025241 -0.132169 -0.00128031  0.00993454 -0.147991 -0.000186682  0.0103295 -0.130697 -0.000595808  0.0252509 -0.132691 -0.000586271  0.0103123 -0.13122 -0.00023675  0.00874329 -0.182711 -0.000349283  0.0254581 -0.184605 -0.000342369  0.0255843 -0.166378 -0.000982046  0.00874138 -0.183071 -8.79765e-05  0.00941598 -0.164862 -0.000428677  0.025599 -0.166804 -0.000421286  0.00940847 -0.165288 -0.000136852  0.00703359 -0.219525 -0.000196218  0.0246298 -0.221369 -0.00019145  0.02511 -0.202469 -0.00070405  0.00703859 -0.219804 6.67572e-06  0.00794983 -0.20092 -0.000270605  0.0251305 -0.202807 -0.000263453  0.0079484 -0.201256 -3.93391e-05  0.00490952 -0.257519 -5.50747e-05  0.0231736 -0.259306 -5.22137e-05  0.0239491 -0.239949 -0.000453472  0.00492287 -0.257725 9.87053e-05  0.00602055 -0.238375 -0.000124216  0.0239742 -0.24021 -0.000119925  0.0060277 -0.238636 5.38826e-05  0.00246024 -0.296304 7.31945e-05  0.0212088 -0.298038 7.22408e-05  0.0222206 -0.278395 -0.000231743  0.00247979 -0.296453 0.000182629  0.00372458 -0.27681 1.09673e-05  0.0222478 -0.27859 1.07288e-05  0.00373816 -0.277005 0.000141859  -0.000231504 -0.335547 0.000186443  0.0188479 -0.337223 0.00018549  0.0200419 -0.317446 -3.69549e-05  -0.00020647 -0.335644 0.000261545  0.0011425 -0.315862 0.000130653  0.0200729 -0.317586 0.000130415  0.00116348 -0.316002 0.000222683  -0.00309205 -0.374982 0.00028801  0.0161901 -0.37661 0.000280619  0.0175197 -0.356806 0.00013113  -0.00306487 -0.375042 0.000332594  -0.00163984 -0.355231 0.00023818  0.0175507 -0.356901 0.00023365  -0.00161791 -0.355326 0.000297308  -0.00605845 -0.414398 0.000377417  0.0133367 -0.41598 0.000365734  0.0147538 -0.39624 0.000268936  -0.00603127 -0.414428 0.000400066  -0.00456285 -0.394679 0.000333548  0.0147836 -0.396301 0.000324488  -0.00453687 -0.39474 0.000365973  -0.00907993 -0.453659 0.000450134  0.0103638 -0.455211 0.000435352  0.0118332 -0.435576 0.000379562  -0.00905395 -0.453673 0.000457525  -0.00756097 -0.43403 0.000415087  0.0118604 -0.435615 0.000401735  -0.0075376 -0.43407 0.000430107  -0.0121095 -0.492659 0.000515699  0.00735378 -0.494217 0.000498533  0.00883174 -0.474707 0.000465155  -0.0120828 -0.492674 0.000511885  -0.0105941 -0.473169 0.000483274  0.00885916 -0.474736 0.000467539  -0.0105696 -0.473199 0.000484705  0.00648662 -0.00827396 -0.00346279  0 0 0  0.00980532 -0.0130526 -0.00214338  0.00332518 -0.00661623 -0.00279069  0 0 0  0.00639409 -0.00892049 -0.00164127  0.00194415 -0.00380641 -0.00199175  0 0 0  0.00330254 -0.00700194 -0.00134254  0.00189312 -0.00414813 -0.000958443  0.0163121 -0.0203984 -0.00417972  0.0226639 -0.0240955 -0.00269961  0.0167435 -0.0166622 -0.00531101  0.0161569 -0.0212839 -0.00206327  0.0116394 -0.0135518 -0.00404549  0.0166346 -0.0175991 -0.00257325  0.0114924 -0.0143685 -0.0019598  0.0244005 -0.0379947 -0.00376725  0.0333815 -0.0414879 -0.0024941  0.0283618 -0.0311581 -0.00529337  0.0243362 -0.0388596 -0.00188255  0.0205656 -0.0284941 -0.00401711  0.028221 -0.0321058 -0.00263858  0.0204491 -0.0294054 -0.002002  0.0308517 -0.0606659 -0.00322199  0.0422192 -0.0638736 -0.00212264  0.0381237 -0.0512475 -0.00463605  0.0308458 -0.0614353 -0.00159359  0.0278282 -0.048731 -0.0035007  0.038061 -0.0520938 -0.00231576  0.0278009 -0.0495729 -0.0017426  0.0357502 -0.0875233 -0.00269008  0.0490898 -0.090511 -0.00176716  0.0459172 -0.0759868 -0.00392151  0.0357615 -0.0881854 -0.00131702  0.033491 -0.0735963 -0.00295186  0.0458872 -0.0767152 -0.00194716  0.0334939 -0.0743331 -0.00145507  0.0392107 -0.117812 -0.0021987  0.0541843 -0.120599 -0.00143528  0.0518661 -0.104554 -0.0032506  0.0392302 -0.118363 -0.00106025  0.0376554 -0.10226 -0.00243998  0.0518482 -0.105169 -0.0016017  0.0376683 -0.102885 -0.00118804  0.0413727 -0.150856 -0.00174904  0.057673 -0.153457 -0.00112653  0.0561224 -0.136215 -0.00263476  0.0413971 -0.151308 -0.000820637  0.0404465 -0.134007 -0.00196838  0.0561179 -0.136724 -0.0012815  0.0404677 -0.134527 -0.000938416  0.0423846 -0.186049 -0.00133371  0.0597377 -0.188473 -0.000847816  0.0588712 -0.17032 -0.002074  0.0424132 -0.186406 -0.000597715  0.0420165 -0.168196 -0.00153661  0.0588715 -0.170733 -0.00098753  0.0420398 -0.16862 -0.000707865  0.0423996 -0.222865 -0.000960112  0.0605612 -0.225124 -0.000582933  0.0602839 -0.206301 -0.00156045  0.042433 -0.223144 -0.000391722  0.0425093 -0.204262 -0.00114202  0.0602925 -0.206629 -0.000713348  0.0425382 -0.204599 -0.000492573  0.0415738 -0.260842 -0.000626802  0.0603292 -0.262941 -0.000353098  0.0605524 -0.243667 -0.00110483  0.0416112 -0.261046 -0.000206709  0.0420861 -0.241713 -0.00078845  0.0605655 -0.243916 -0.000468016  0.0421183 -0.241972 -0.000298023  0.040055 -0.29959 -0.000336647  0.0592184 -0.301544 -0.000146389  0.0598528 -0.281985 -0.000705719  0.0400941 -0.299737 -4.02927e-05  0.040894 -0.28012 -0.000476837  0.0598722 -0.28217 -0.000247955  0.0409305 -0.280314 -0.000121593  0.0379868 -0.338785 -8.74996e-05  0.0574036 -0.340604 3.24249e-05  0.058367 -0.320908 -0.000360489  0.0380275 -0.338879 0.000103951  0.0390854 -0.319129 -0.000206232  0.0583885 -0.321038 -5.45979e-05  0.0391214 -0.319267 3.40939e-05  0.0355024 -0.378164 0.000115156  0.0550427 -0.37987 0.000180006  0.0562544 -0.360144 -7.65324e-05  0.0355422 -0.378223 0.000225782  0.0367918 -0.358445 1.90735e-05  0.0562811 -0.36023 0.000105381  0.0368292 -0.358539 0.000166416  0.0327282 -0.41753 0.000277758  0.0523028 -0.419142 0.000299215  0.0536826 -0.399465 0.000148535  0.0327663 -0.417555 0.000328541  0.0341475 -0.397838 0.000201702  0.0537095 -0.399518 0.000239849  0.0341833 -0.397898 0.000278711  0.0297778 -0.456741 0.000394344  0.0493333 -0.458297 0.000387669  0.0508044 -0.438711 0.000314713  0.0298154 -0.456755 0.000410318  0.0312705 -0.437138 0.000341177  0.0508366 -0.438743 0.000344753  0.031307 -0.437177 0.000370741  0.0267591 -0.495752 0.000488997  0.0462842 -0.497308 0.000459433  0.0477755 -0.477796 0.000421524  0.0267954 -0.495763 0.000479698  0.0282736 -0.47625 0.000442266  0.0478089 -0.477822 0.000420332  0.0283077 -0.47628 0.000443935  -0.0099106 -0.00970571 0.00775003  -0.00397927 -0.00337252 0.00728488  0 0 0  -0.00723907 -0.00363697 0.00846457  0 0 0  -0.00383137 -0.00382483 0.00394464  -0.00152421 0.000185668 0.00371337  0 0 0  -0.00325193 -0.00477832 0.0047648  -0.00643438 -0.00601549 0.00581789  -0.0025106 -0.00105957 0.005059  0 0 0  -0.00117486 -0.00115275 0.00243187  -0.00188412 -0.00242689 0.00332117  -0.0229757 -0.019295 0.00871754  -0.0172831 -0.0104496 0.0117929  -0.0160467 -0.0145497 0.00841713  -0.0100577 -0.015489 0.0043788  -0.00726852 -0.00654921 0.00572395  -0.0168944 -0.0135338 0.00867629  -0.0161131 -0.0170811 0.00651455  -0.0119555 -0.00815663 0.00867081  -0.00698745 -0.00885147 0.00431919  -0.0115607 -0.0107343 0.00646663  -0.0341756 -0.035836 0.00778913  -0.0282466 -0.0243373 0.0109887  -0.0240422 -0.0318157 0.00768661  -0.0158549 -0.0328477 0.00389576  -0.0127335 -0.021181 0.00542831  -0.028662 -0.0269016 0.00834394  -0.0245713 -0.0340231 0.00584078  -0.0200028 -0.0224648 0.00814581  -0.0130083 -0.0234894 0.00418305  -0.0203941 -0.0248734 0.00624394  -0.044402 -0.057262 0.00663543  -0.0388245 -0.0439051 0.00951648  -0.0318641 -0.0541375 0.00656676  -0.0213544 -0.0552055 0.00333047  -0.0181873 -0.0414174 0.0047493  -0.0394315 -0.045982 0.00721598  -0.0324609 -0.0559906 0.00498915  -0.0280209 -0.0423901 0.00712991  -0.0186301 -0.0434585 0.00362349  -0.0286008 -0.0444415 0.00541902  -0.0535781 -0.082863 0.00554633  -0.0485004 -0.0679002 0.00801396  -0.0391541 -0.0805497 0.00552058  -0.0266274 -0.0816737 0.00280643  -0.0235604 -0.0662457 0.00402999  -0.0491124 -0.069595 0.00607729  -0.0397208 -0.0820756 0.00418758  -0.0355722 -0.0668591 0.00603509  -0.0240206 -0.0679679 0.00306749  -0.0361644 -0.0685641 0.00457788  -0.0618291 -0.111914 0.00460505  -0.0572541 -0.0956174 0.00666928  -0.0459006 -0.110334 0.00458169  -0.0316701 -0.111539 0.00233793  -0.0287496 -0.0947921 0.00337052  -0.0578126 -0.0970011 0.0050621  -0.0464066 -0.11158 0.00348496  -0.0425944 -0.0950389 0.00503969  -0.0291756 -0.0962182 0.00256968  -0.0431331 -0.0964405 0.00382495  -0.0692312 -0.143806 0.00376225  -0.0651397 -0.126426 0.00547838  -0.0521121 -0.142888 0.00375056  -0.036486 -0.144173 0.00194359  -0.0337278 -0.126383 0.00278997  -0.0656333 -0.127543 0.00417113  -0.0525535 -0.143879 0.00286674  -0.049068 -0.126281 0.00415659  -0.0341061 -0.127542 0.00213838  -0.0495452 -0.127415 0.00316572  -0.0758582 -0.177995 0.00303864  -0.07221 -0.15977 0.00442457  -0.0578228 -0.17765 0.00302577  -0.0410775 -0.179008 0.0015924  -0.0384836 -0.16042 0.00228262  -0.0726357 -0.160649 0.00338745  -0.0582002 -0.178423 0.00233126  -0.0550255 -0.160005 0.00337887  -0.0388085 -0.161344 0.00176406  -0.0554368 -0.160903 0.00258875  -0.0817752 -0.213971 0.00239801  -0.0785446 -0.195118 0.00350571  -0.0630667 -0.214125 0.00239611  -0.0454452 -0.215538 0.00130415  -0.0430179 -0.196368 0.00184751  -0.0789032 -0.195789 0.00270677  -0.0633783 -0.214702 0.00186872  -0.0604982 -0.195682 0.00270271  -0.0432892 -0.197086 0.00144696  -0.0608459 -0.196373 0.00208998  -0.0870469 -0.25129 0.00187445  -0.0841932 -0.231997 0.00271487  -0.067868 -0.251852 0.00186443  -0.0495865 -0.253308 0.00105476  -0.0473218 -0.233751 0.0014739  -0.084486 -0.232491 0.00212455  -0.0681205 -0.252269 0.00148082  -0.0655174 -0.232836 0.00212169  -0.0475423 -0.234289 0.00117755  -0.0658014 -0.233349 0.00166488  -0.0917375 -0.289549 0.00142074  -0.0892258 -0.269983 0.00204945  -0.0722666 -0.290448 0.00142598  -0.0535076 -0.291929 0.000864983  -0.0514002 -0.272144 0.00116777  -0.0894623 -0.270326 0.00163651  -0.0724604 -0.290724 0.00116253  -0.0701113 -0.271044 0.00163698  -0.0515742 -0.27253 0.000958443  -0.0703382 -0.271406 0.00131249  -0.0959241 -0.328412 0.0010798  -0.0937095 -0.308709 0.00150728  -0.0762999 -0.329563 0.00107789  -0.057215 -0.331062 0.000708103  -0.0552559 -0.311183 0.000923157  -0.0938878 -0.308927 0.00124073  -0.076441 -0.329735 0.000910521  -0.0743232 -0.309938 0.00124335  -0.0553856 -0.311445 0.000785351  -0.0744922 -0.310178 0.00102854  -0.0996778 -0.367589 0.000816822  -0.0977287 -0.347854 0.0010891  -0.0800178 -0.368932 0.000822306  -0.0607281 -0.370431 0.000610352  -0.0589063 -0.350564 0.000736952  -0.0978518 -0.347977 0.000937939  -0.0801084 -0.369015 0.00073123  -0.0781918 -0.349212 0.00094223  -0.0589941 -0.350727 0.00065589  -0.0783107 -0.349355 0.000812531  -0.103087 -0.406855 0.000661373  -0.101344 -0.387173 0.000787497  -0.0834675 -0.408316 0.000659943  -0.0640695 -0.409817 0.000550985  -0.062366 -0.390038 0.000616074  -0.101418 -0.387226 0.000725746  -0.083518 -0.408347 0.000622511  -0.0817699 -0.388614 0.00073266  -0.062417 -0.390128 0.000577927  -0.0818417 -0.388685 0.000668526  -0.106254 -0.446035 0.000585556  -0.104659 -0.426449 0.000620842  -0.0867074 -0.447557 0.00057745  -0.0672662 -0.449063 0.000538349  -0.0656581 -0.429415 0.000555515  -0.104695 -0.426464 0.000614405  -0.0867267 -0.447556 0.000573158  -0.0851073 -0.42794 0.000613213  -0.0656848 -0.429459 0.000544786  -0.0851424 -0.427971 0.000591516  -0.109313 -0.485072 0.000576496  -0.107767 -0.465561 0.000568151  -0.0898075 -0.48658 0.000537634  -0.0703647 -0.488072 0.000530243  -0.0688052 -0.468576 0.000535488  -0.107786 -0.465574 0.000581026  -0.0898225 -0.48658 0.000553846  -0.0882657 -0.467074 0.000561953  -0.068821 -0.468596 0.000540972  -0.0882814 -0.467092 0.00056386  -0.00193374 -0.00102514 0.00274181  0 0 0  0.000213981 -0.0026612 -3.57628e-05  8.32379e-05 0.000808656 -9.77516e-06  0 0 0  -0.00172417 -0.00284514 0.0019393  -0.000675015 0.000723302 0.00174999  0 0 0  6.24359e-05 -0.000467837 4.29153e-06  -0.000509627 -0.00057441 0.00116777  -0.00462189 -0.0123678 0.00277472  0.000380695 -0.0145199 2.26498e-05  0.000427723 -0.0055849 -2.09808e-05  -0.00469199 -0.0146029 0.00218368  -0.00329164 -0.00568122 0.00278807  0.000337511 -0.00772408 1.35899e-05  -0.00320032 -0.00786951 0.00212789  -0.00742882 -0.0301619 0.0025351  0.000152469 -0.0324075 4.3869e-05  0.000468433 -0.020572 1.69277e-05  -0.00770545 -0.0323112 0.00195789  -0.00598812 -0.0205376 0.00269794  0.000325263 -0.022795 4.3869e-05  -0.00619388 -0.0227875 0.00209951  -0.0104892 -0.0530701 0.00218558  -0.000556529 -0.0552071 4.22001e-05  3.95179e-05 -0.0412045 2.14577e-05  -0.0108114 -0.0549357 0.00168133  -0.00892842 -0.041018 0.00236797  -0.000139952 -0.0432343 4.60148e-05  -0.00923961 -0.0430528 0.00182438  -0.0137392 -0.0801208 0.00185061  -0.00174713 -0.0821531 4.86374e-05  -0.000908732 -0.0664639 2.28882e-05  -0.014051 -0.0816891 0.00142503  -0.0120929 -0.0661047 0.00201941  -0.00109291 -0.0682071 4.60148e-05  -0.0124156 -0.0678405 0.00155306  -0.0171208 -0.11054 0.00155473  -0.00338221 -0.112489 6.38962e-05  -0.00234151 -0.0954759 3.3617e-05  -0.0174005 -0.111829 0.00120521  -0.0154132 -0.0949263 0.00170207  -0.00251162 -0.0969347 5.67436e-05  -0.0157126 -0.0963726 0.00131321  -0.020594 -0.143682 0.00130248  -0.00540757 -0.145567 9.44138e-05  -0.00420272 -0.127521 5.57899e-05  -0.0208354 -0.144724 0.00102067  -0.0188458 -0.126783 0.00142789  -0.00434923 -0.128719 7.89165e-05  -0.0191087 -0.127965 0.00111151  -0.0241206 -0.178965 0.00108576  -0.00776148 -0.180795 0.000128508  -0.00642538 -0.161978 8.89301e-05  -0.0243214 -0.179786 0.000866175  -0.0223494 -0.161064 0.00119233  -0.00654709 -0.162941 0.000110626  -0.0225734 -0.162012 0.000941515  -0.0276661 -0.215886 0.000908375  -0.0103784 -0.217663 0.0001719  -0.00894713 -0.198294 0.000130415  -0.0278277 -0.216513 0.000742197  -0.0258899 -0.197226 0.000997066  -0.00904036 -0.19905 0.000150681  -0.0260735 -0.197967 0.000803232  -0.0311978 -0.253983 0.000763178  -0.0131974 -0.255708 0.000217199  -0.0116975 -0.235984 0.000176191  -0.0313213 -0.254443 0.000643969  -0.0294316 -0.234788 0.00083518  -0.0117657 -0.23656 0.000193596  -0.0295773 -0.235349 0.000691652  -0.0346859 -0.292872 0.000653028  -0.016156 -0.294548 0.000268698  -0.0146177 -0.274626 0.000226498  -0.0347743 -0.293194 0.000571251  -0.0329456 -0.273326 0.000706673  -0.0146625 -0.275047 0.000242472  -0.0330539 -0.273734 0.000605345  -0.0381052 -0.332213 0.000569105  -0.019202 -0.333841 0.00031352  -0.0176444 -0.313858 0.000278473  -0.0381639 -0.33242 0.000518799  -0.0364006 -0.312479 0.000611067  -0.0176699 -0.314151 0.000291109  -0.0364769 -0.31276 0.00054431  -0.0414469 -0.371739 0.000520229  -0.0222924 -0.373324 0.00036788  -0.0207388 -0.353378 0.000329733  -0.0414774 -0.37186 0.000492811  -0.0397832 -0.351943 0.000543118  -0.0207434 -0.353569 0.000339985  -0.03983 -0.352124 0.000503302  -0.0446992 -0.41123 0.000502348  -0.0253918 -0.41278 0.000422239  -0.0238495 -0.392948 0.000388861  -0.0447075 -0.411287 0.000492096  -0.0430801 -0.391475 0.000511885  -0.0238419 -0.393061 0.000395775  -0.043102 -0.39158 0.000492334  -0.0478599 -0.450545 0.000505924  -0.0284779 -0.45207 0.000475407  -0.0269508 -0.432389 0.000443697  -0.0478559 -0.450563 0.000507116  -0.046288 -0.430891 0.000504971  -0.0269375 -0.432449 0.000448942  -0.0462911 -0.430947 0.000499249  -0.0509348 -0.489561 0.000512362  -0.0315289 -0.491067 0.000523567  -0.0300243 -0.471582 0.000498295  -0.0509326 -0.489562 0.00052762  -0.0494027 -0.470074 0.000518799  -0.0300086 -0.471607 0.000500441  -0.0494003 -0.470098 0.000521421  0.00246149 -0.00147307 -0.00293326  0 0 0  0.00422725 -0.0045774 -0.00390792  0.00164455 -0.000370622 -0.00364041  0 0 0  0.00215599 -0.00323105 -0.0019989  0.000834286 0.000443935 -0.00177002  0 0 0  0.00127968 -0.00162309 -0.0023725  0.000637099 -0.000813782 -0.00116158  0.00559109 -0.0130239 -0.00281692  0.0107127 -0.0166765 -0.00422955  0.00804874 -0.00762755 -0.00564408  0.00543118 -0.015218 -0.00213695  0.0041354 -0.00623256 -0.00284672  0.00760946 -0.00981724 -0.00419736  0.00387225 -0.00837082 -0.00210547  0.00802106 -0.0310083 -0.00253415  0.0159762 -0.0344909 -0.00375891  0.0135374 -0.0226578 -0.00530624  0.00796235 -0.0331372 -0.00188088  0.00689191 -0.0212843 -0.00268936  0.0135053 -0.0248941 -0.00402117  0.00680584 -0.0235028 -0.00202179  0.00968671 -0.0541553 -0.00217581  0.0200183 -0.0573929 -0.00322342  0.0180829 -0.0433376 -0.00466156  0.00963938 -0.0560248 -0.00160956  0.008959 -0.0419776 -0.00235009  0.0181439 -0.0453599 -0.00349498  0.00890577 -0.0440039 -0.00174427  0.0105361 -0.0814973 -0.00181985  0.0229037 -0.0844828 -0.00269818  0.0215262 -0.0687202 -0.00396347  0.0104951 -0.0830808 -0.00133657  0.0102143 -0.0673331 -0.00199485  0.0216042 -0.0704601 -0.00295687  0.0101687 -0.069078 -0.00147152  0.0106121 -0.112222 -0.00148463  0.0246909 -0.114981 -0.00220752  0.023852 -0.0978822 -0.00329614  0.0105791 -0.113534 -0.00108194  0.0106695 -0.0964559 -0.00165057  0.0239298 -0.0993444 -0.00244927  0.0106299 -0.0979209 -0.00120783  0.00998831 -0.14566 -0.00116801  0.0254812 -0.148221 -0.00175452  0.0251274 -0.130087 -0.0026741  0.00996923 -0.146727 -0.000837088  0.0103848 -0.128616 -0.00132513  0.0252038 -0.131293 -0.00197625  0.0103559 -0.129823 -0.000958443  0.00876069 -0.181211 -0.000876188  0.0253959 -0.183588 -0.00133753  0.0254607 -0.164692 -0.00210643  0.00875616 -0.182057 -0.000611782  0.0094471 -0.16318 -0.00102162  0.0255413 -0.165666 -0.001544  0.00943315 -0.164153 -0.0007236  0.00702429 -0.218361 -0.000605345  0.0245566 -0.220573 -0.000961304  0.0249794 -0.201138 -0.0015862  0.00703549 -0.219011 -0.000399351  0.00795341 -0.199591 -0.000740528  0.0250628 -0.201905 -0.00114512  0.00795388 -0.200357 -0.000504732  0.00487757 -0.256639 -0.000362635  0.0230937 -0.258702 -0.000623703  0.0238094 -0.238929 -0.00112367  0.00490093 -0.257123 -0.000209093  0.00600076 -0.237359 -0.000483513  0.0238967 -0.239514 -0.000788689  0.00601506 -0.237942 -0.000303268  0.00240922 -0.295671 -0.00014782  0.0211229 -0.297597 -0.000332832  0.022079 -0.277642 -0.000717163  0.00244212 -0.296011 -3.67165e-05  0.00368142 -0.276059 -0.000253677  0.0221653 -0.278071 -0.000474453  0.00370741 -0.276488 -0.000120878  -0.000295639 -0.335111 3.8147e-05  0.018759 -0.336916 -7.93934e-05  0.0199008 -0.316919 -0.000368357  -0.000255108 -0.335336 0.00011158  0.00108576 -0.315333 -5.48363e-05  0.0199842 -0.317215 -0.000203848  0.00111961 -0.315632 3.79086e-05  -0.00316405 -0.374706 0.000199318  0.0161061 -0.376408 0.000127077  0.0173872 -0.35646 -7.41482e-05  -0.00312042 -0.374838 0.000244141  -0.00170994 -0.35488 0.000119209  0.0174637 -0.35665 2.76566e-05  -0.00167012 -0.355074 0.000178576  -0.00612974 -0.414236 0.000330687  0.0132575 -0.415856 0.000294924  0.0146327 -0.396032 0.000159025  -0.00608683 -0.414301 0.00035429  -0.00463438 -0.394464 0.000264406  0.0147018 -0.396142 0.000213385  -0.00459385 -0.39458 0.000299215  -0.00914907 -0.453568 0.00043726  0.0102894 -0.45513 0.000414371  0.0117295 -0.435461 0.000336409  -0.0091083 -0.453591 0.000443697  -0.00763106 -0.433909 0.000383854  0.011785 -0.435516 0.000357151  -0.0075922 -0.43397 0.000399351  -0.0121791 -0.492582 0.000534773  0.0072813 -0.494137 0.000517368  0.00873518 -0.474635 0.000464678  -0.0121355 -0.492591 0.00052309  -0.0106628 -0.473099 0.00047946  0.00878549 -0.474664 0.000464201  -0.0106237 -0.473128 0.000481129  0.00756693 -0.00487655 -0.00836873  0 0 0  0.0100256 -0.0107672 -0.00731707  0.00389762 -0.00418073 -0.00705957  0 0 0  0.00674757 -0.00702202 -0.0056808  0.00254227 -0.0018087 -0.00498819  0 0 0  0.00324737 -0.00547564 -0.00458407  0.00196195 -0.00306648 -0.00325251  0.01676 -0.016437 -0.00822306  0.0231016 -0.021436 -0.00826764  0.0176793 -0.0124382 -0.0112674  0.0165702 -0.0187886 -0.00626874  0.0125839 -0.00973094 -0.00848842  0.0171213 -0.0151291 -0.00823307  0.0120448 -0.0120919 -0.00625205  0.0242675 -0.0343272 -0.0075388  0.0335438 -0.0390689 -0.00747275  0.028439 -0.0272014 -0.0105591  0.0244089 -0.0364663 -0.00564957  0.0205957 -0.0246408 -0.00795007  0.0284901 -0.0295483 -0.00794482  0.020642 -0.0269243 -0.0060122  0.0306222 -0.0574527 -0.00647306  0.0422683 -0.0617597 -0.00641251  0.0379706 -0.0478121 -0.00925899  0.0308124 -0.0593053 -0.00484848  0.0276384 -0.0452811 -0.00700641  0.0381563 -0.0498205 -0.00695062  0.0278097 -0.0473007 -0.00525498  0.0354998 -0.0847884 -0.00544691  0.0490955 -0.0887139 -0.00538397  0.045699 -0.073052 -0.00785875  0.0356914 -0.0863593 -0.00406575  0.033244 -0.0706235 -0.0059526  0.0459083 -0.0747579 -0.00589204  0.0334363 -0.072354 -0.00445032  0.038968 -0.11553 -0.00448704  0.0541705 -0.119098 -0.00442886  0.0516441 -0.102089 -0.00654387  0.0391495 -0.116834 -0.00334001  0.037408 -0.0997556 -0.00496006  0.0518439 -0.10352 -0.00489712  0.0375922 -0.10121 -0.00369644  0.0411334 -0.148989 -0.00361204  0.0576445 -0.152227 -0.0035615  0.0559069 -0.134179 -0.00533485  0.0413077 -0.150052 -0.00267982  0.0402076 -0.131936 -0.00404048  0.0560971 -0.13536 -0.00398493  0.0403826 -0.133138 -0.00300193  0.0421474 -0.184552 -0.00281167  0.0596957 -0.187489 -0.00276971  0.0586549 -0.168673 -0.00423741  0.0423167 -0.185396 -0.00207114  0.0417774 -0.166518 -0.00320458  0.0588356 -0.169626 -0.00315595  0.0419469 -0.167489 -0.00236845  0.0421674 -0.221703 -0.00210023  0.0605068 -0.224358 -0.00206089  0.0600686 -0.205008 -0.00324321  0.0423295 -0.222354 -0.00152946  0.0422757 -0.202938 -0.00244927  0.0602448 -0.205754 -0.0024035  0.042438 -0.203703 -0.00179386  0.0413487 -0.259967 -0.00147009  0.0602636 -0.262366 -0.00143456  0.0603378 -0.24268 -0.00236654  0.0415039 -0.260448 -0.00104761  0.0418568 -0.240699 -0.0017767  0.0605052 -0.243246 -0.00173712  0.0420127 -0.241281 -0.00128078  0.0398407 -0.298969 -0.00092864  0.0591438 -0.301131 -0.000900745  0.0596466 -0.281268 -0.00160551  0.0399864 -0.299303 -0.000633478  0.0406749 -0.279375 -0.00119209  0.0598025 -0.281677 -0.00115824  0.040823 -0.279801 -0.000833273  0.0377903 -0.338366 -0.000469685  0.0573215 -0.340324 -0.000443459  0.0581653 -0.320419 -0.000953674  0.0379221 -0.338579 -0.000278473  0.0388787 -0.318612 -0.000691891  0.0583091 -0.320692 -0.000660181  0.0390146 -0.318903 -0.000447989  0.0353317 -0.377909 -0.000104189  0.0549624 -0.379694 -8.17776e-05  0.0560741 -0.359838 -0.000425339  0.0354431 -0.378028 5.24521e-06  0.0366077 -0.358112 -0.000279903  0.0562003 -0.360003 -0.000252962  0.0367265 -0.358295 -0.000129461  0.0325885 -0.417385 0.000175714  0.0522203 -0.419037 0.000191927  0.0535281 -0.399297 -1.38283e-05  0.0326762 -0.417437 0.000227213  0.0339918 -0.397643 4.36306e-05  0.0536287 -0.39938 6.46114e-05  0.0340884 -0.397745 0.000123501  0.0296643 -0.456665 0.000369549  0.049243 -0.458229 0.000369787  0.0506761 -0.438627 0.000277996  0.0297325 -0.456679 0.000380516  0.0311465 -0.437034 0.000280142  0.0507517 -0.438659 0.000292301  0.0312212 -0.437083 0.000311375  0.0266523 -0.495681 0.00051713  0.0461841 -0.497232 0.000484467  0.0476584 -0.477732 0.000439882  0.0267158 -0.495687 0.000501394  0.0281658 -0.47618 0.000439405  0.0477138 -0.477752 0.000429392  0.0282269 -0.476208 0.000440598  
SCALARS smooth_stress float 1
LOOKUP_TABLE default
2168.49 4526.88 4205.08 3904.81 4191.77 4103.62 3990.63 3914.51 4060.69 4167.5 4085.39 3240.07 2935.11 3103.46 2503.96 2251.06 1070.8 3552.06 7938.23 8749.92 7540.72 7085.91 7798.78 7470.67 8175.17 8583.27 8024.17 7631.85 6508.96 6088.07 6403.78 5642.51 5171.16 2756.7 3074.14 6816.77 8327.8 7392.43 6723.94 7196.25 6439.43 7855.87 8106.24 7042.6 6586.3 6760.21 6359.66 6095.56 6244.11 5459.37 2757.45 3349.07 7428.18 8220.65 7842.92 7793.32 7255.88 6597.57 7211.28 7145.4 6960.25 7027.71 7445.54 7163.35 6519.74 6558.3 6400.5 3208.93 1658.52 4022.75 4437.68 4086.4 3963.52 3754.78 3638.18 3616.06 3561.74 3774.32 3987.87 3954.22 3956.65 3724.5 3452.74 3861.23 2137.38 4155.98 8715.81 8420.39 8122.14 8272.48 8127.63 7740.18 6950.75 7274.12 7760.31 7518.04 6253.64 6185.47 6233.7 5691.78 6446.37 3351.89 7452.89 16003.5 16359.5 14993.9 14601.8 15165 14475 14213.7 14893.1 15473.9 14892.2 13066.8 12816.4 12629.7 12798.1 13476.5 6733.74 6682.57 14593 15319.9 13583.9 13378.5 13630.2 12431 13659.3 14504.2 14857.5 14413.6 13542.2 13177.8 12634.2 13433.8 12709.6 5868.53 6690.49 15014.1 15995.3 15590.7 15367.2 13842.8 12763.4 13601.9 14408.1 14949.5 14445.7 13698.5 13667.1 13061.8 12552 11932.4 5802.64 3304.82 7708.76 8614.52 8878.55 8318.13 7249.93 7067.12 7205.57 7522.86 7805.55 7406.3 6969.48 7120.17 6823.67 6224.5 6252.88 3315.96 3669.44 8336.14 8348.41 8643.59 8582.16 7558.9 7275.01 6432.14 7081.39 7435.15 6605.75 6396.36 6723.69 5830.65 6036.64 7987.31 4297.77 6917.24 15298.4 14918 15265.8 16155.8 14929.7 14140.2 13028.9 13938.6 15176.4 14487.3 13277.1 13071.5 12415.8 13502.6 15354.2 7615.17 6618.57 14006.5 13066.3 12740.1 13915.9 13516.6 12985.1 13022.9 13966.8 15192.4 15539.6 14439.9 13863.4 13821.8 14067.3 13716.1 6433.39 6635.89 14052.8 14890.5 15158.2 13879.8 12477 13016.1 13892.8 14446.7 14676.3 14381.8 14132.9 13708.7 12713.7 12577.3 11971.1 5538.14 3265.13 7008.59 8393.88 9040.32 7537.52 6331.19 6896.13 7466.66 7337.12 7225.14 6723.73 6573.7 6193.04 5477.04 5975.88 5621.94 2422.15 3598 7989.29 8104 8406.34 8055.49 6793.66 6478.62 6568 7533.37 7606.15 6574.91 6557.07 7449.14 6296.64 5544.34 6540.03 3419.33 6408.87 14660.7 15077.1 15278.5 15724.7 14347.9 13710.1 13973.2 14806.7 14890.3 14380.4 13737.7 14250 13371.7 12215.6 12990.4 6676.9 6618.46 14016 13524.1 13502.4 14548.3 14380.6 14230.9 14295.8 14552.5 13912 14152.6 14830.5 14199 13375.7 12518.4 12490.2 6458.86 7399.26 14581.7 15059.8 14755.8 13488.6 13173.8 13735.7 13814.2 13866.2 13451.1 12912.7 14514.8 13745.4 11817.8 12385.6 12218.1 5733.91 3591.67 7237.13 8508.84 8125.52 6609.6 6347.39 6736.27 6923.6 6587.01 6823.28 6565.6 6865.04 6347.31 5517.11 6538.49 6178.34 2532.62 1916.05 3842.07 3970.91 3980.08 3554.06 3258.77 2953.16 3172.1 3665.41 3763.79 3401.81 3174.28 3975.81 3596.23 2695.51 2748.03 1402.65 3392.45 7427.54 7768.71 7465.87 7084.91 6784.35 6574.24 6982.85 7177.92 7163.67 7153.54 7018.52 7906.94 7181.78 5868.64 5941.54 3038.77 3608.33 7785.74 7449.91 6953.76 7286.94 7297.98 7237.4 7076.28 6983.68 6534.54 6440.32 7172.55 7153.71 6092.42 5640.78 6024.34 3136.55 4104.78 8114.82 7943.91 7345.34 7182.78 7283.75 6885.41 6311.98 6682.18 6764.03 5948.89 6634.91 6540.37 5646.11 5802.04 5778.89 2789.48 1972.85 3914.55 4291.8 3877.36 3426.7 3511.35 3269.08 3046.45 3211.01 3629.37 3260.31 3306.6 3317.79 3139.24 3334.38 2948.06 1289.06 2168.49 4526.88 4155.98 2168.49 2168.49 4526.88 8715.81 4155.98 3552.06 7938.23 7452.89 3552.06 2168.49 2168.49 4526.88 4155.98 2168.49 3552.06 2168.49 2358.4 4205.08 4559.83 4205.08 8420.39 4386.17 8749.92 8550.6 2358.4 2358.4 4205.08 4559.83 4386.17 2358.4 1846.68 3904.81 3860.57 3904.81 8122.14 4363.75 7540.72 7808.91 1846.68 1846.68 3904.81 3860.57 4363.75 1846.68 2058.13 4191.77 4261.58 4191.77 8272.48 3176.97 7085.91 7184.99 2058.13 2058.13 4191.77 4261.58 3176.97 2058.13 2133.64 4103.62 4010.91 4103.62 8127.63 3908.94 7798.78 7416.86 2133.64 2133.64 4103.62 4010.91 3908.94 2133.64 1969.98 3990.63 4116.72 3990.63 7740.18 3889.84 7470.67 7748.09 1969.98 1969.98 3990.63 4116.72 3889.84 1969.98 2020.65 3914.51 3623.46 3914.51 6950.75 3580.83 8175.17 6726.89 2020.65 2020.65 3914.51 3623.46 3580.83 2020.65 1893.86 4060.69 3327.29 4060.69 7274.12 4594.33 8583.27 7486.79 1893.86 1893.86 4060.69 3327.29 4594.33 1893.86 2166.83 4167.5 3946.83 4167.5 7760.31 3988.93 8024.17 7406.33 2166.83 2166.83 4167.5 3946.83 3988.93 2166.83 2000.67 4085.39 3813.47 4085.39 7518.04 4035.23 7631.85 8067.54 2000.67 2000.67 4085.39 3813.47 4035.23 2000.67 2084.72 3240.07 3704.57 3240.07 6253.64 3596.61 6508.96 6824.7 2084.72 2084.72 3240.07 3704.57 3596.61 2084.72 1155.35 2935.11 2549.07 2935.11 6185.47 2912.34 6088.07 6242.12 1155.35 1155.35 2935.11 2549.07 2912.34 1155.35 1779.76 3103.46 3636.4 3103.46 6233.7 3175.73 6403.78 6574.3 1779.76 1779.76 3103.46 3636.4 3175.73 1779.76 1323.7 2503.96 2597.3 2503.96 5691.78 3228.05 5642.51 6055.38 1323.7 1323.7 2503.96 2597.3 3228.05 1323.7 1180.26 2251.06 3094.48 2251.06 6446.37 2414.46 5171.16 6742.76 1180.26 1180.26 2251.06 3094.48 2414.46 1180.26 1070.8 1070.8 3351.89 1070.8 3351.89 2756.7 2756.7 6733.74 1070.8 1070.8 1070.8 3351.89 2756.7 1070.8 1383.58 3411.35 7287.68 3296.91 3074.14 6816.77 6682.57 3074.14 1383.58 3411.35 3296.91 1383.58 3074.14 1383.58 4544.83 7939.12 3742.64 8327.8 7910.46 2027.77 4544.83 3990.77 3742.64 2027.77 3635.91 6871.76 4585.16 7392.43 7409.45 2517.07 3635.91 3948.34 4585.16 2517.07 2894.14 6329.37 2807.27 6723.94 6174.45 1118.85 2894.14 2923.42 2807.27 1118.85 3695.16 7037.32 3916.68 7196.25 7204.04 1775.3 3695.16 3405.95 3916.68 1775.3 3480.04 6734.8 3279.57 6439.43 6426.17 1919.86 3480.04 3631.37 3279.57 1919.86 4260.66 7262.93 3159.86 7855.87 6004.86 1560.18 4260.66 3103.43 3159.86 1560.18 4522.58 7619 4696.02 8106.24 7654.44 2700.48 4522.58 4159.5 4696.02 2700.48 3856.66 7713.56 3410.22 7042.6 6849.75 1822.1 3856.66 3459.49 3410.22 1822.1 3546.45 7374.21 3632.37 6586.3 8007.79 2034.56 3546.45 4254.07 3632.37 2034.56 3268.89 6813.18 2953.92 6760.21 6405.8 1511.89 3268.89 3120.13 2953.92 1511.89 3152.97 6630.95 3806.29 6359.66 7136.42 1757 3152.97 3693.05 3806.29 1757 3300.32 6395.98 2553.37 6095.56 6041.41 1395.97 3300.32 2937.9 2553.37 1395.97 3138.56 7106.36 3542.19 6244.11 6592.74 1904.35 3138.56 3458.08 3542.19 1904.35 2920.1 7030.13 2701.92 5459.37 6841.07 1234.21 2920.1 3648.28 2701.92 1234.21 1685.9 3381.85 2757.45 2757.45 5868.53 1685.9 1685.9 3381.85 2757.45 1685.9 1690.56 3405.43 7305.35 3385.66 3349.07 7428.18 6690.49 3349.07 1690.56 3405.43 3385.66 1690.56 3349.07 1690.56 3782.97 7380.8 4079.11 8220.65 8323.63 1714.87 3782.97 3919.69 4079.11 1714.87 3756.52 6712.14 4141.55 7842.92 7671.68 2068.1 3756.52 3461.11 4141.55 2068.1 3829.8 7049.12 3701.37 7793.32 7919.01 1688.42 3829.8 3251.03 3701.37 1688.42 3501.1 6592.88 4091.94 7255.88 7448.24 2141.38 3501.1 3798.08 4091.94 2141.38 2959.39 5696.23 3163.94 6597.57 6394.57 1359.72 2959.39 2794.8 3163.94 1359.72 3595.22 6396.37 3433.64 7211.28 6368.78 1599.68 3595.22 2901.43 3433.64 1599.68 3583.66 6885.19 3777.64 7145.4 7233.16 1995.54 3583.66 3494.94 3777.64 1995.54 3185.93 7143.97 3367.76 6960.25 7174.9 1588.12 3185.93 3390.25 3367.76 1588.12 3039.84 7039.39 3592.5 7027.71 7774.62 1597.81 3039.84 3753.72 3592.5 1597.81 3491.33 6729.04 3435.21 7445.54 6671.07 1442.03 3491.33 3285.67 3435.21 1442.03 3206.7 6546.88 4010.33 7163.35 7027.45 2049.3 3206.7 3443.37 4010.33 2049.3 2795.25 6238.17 3153.01 6519.74 6639.6 1157.4 2795.25 3103.51 3153.01 1157.4 3105.56 6327.45 3366.73 6558.3 6422.24 1637.84 3105.56 3134.66 3366.73 1637.84 2539.27 5679.47 3191.57 6400.5 6129.72 1467.71 2539.27 3192.79 3191.57 1467.71 1071.55 2486.68 3208.93 3208.93 5802.64 1071.55 1071.55 2486.68 3208.93 1071.55 1658.52 4022.75 7708.76 3304.82 1658.52 4022.75 3304.82 1658.52 1658.52 4022.75 3304.82 1658.52 1658.52 1658.52 4437.68 8614.52 2364.24 4437.68 4403.94 2364.24 4437.68 4403.94 2364.24 2364.24 4086.4 8878.55 2073.45 4086.4 4210.58 2073.45 4086.4 4210.58 2073.45 2073.45 3963.52 8318.13 2012.95 3963.52 4667.98 2012.95 3963.52 4667.98 2012.95 2012.95 3754.78 7249.93 1950.56 3754.78 3650.15 1950.56 3754.78 3650.15 1950.56 1950.56 3638.18 7067.12 1804.22 3638.18 3599.77 1804.22 3638.18 3599.77 1804.22 1804.22 3616.06 7205.57 1833.96 3616.06 3467.35 1833.96 3616.06 3467.35 1833.96 1833.96 3561.74 7522.86 1782.1 3561.74 3738.22 1782.1 3561.74 3738.22 1782.1 1782.1 3774.32 7805.55 1779.63 3774.32 3784.64 1779.63 3774.32 3784.64 1779.63 1779.63 3987.87 7406.3 1994.69 3987.87 4020.9 1994.69 3987.87 4020.9 1994.69 1994.69 3954.22 6969.48 1993.18 3954.22 3385.4 1993.18 3954.22 3385.4 1993.18 1993.18 3956.65 7120.17 1961.04 3956.65 3584.08 1961.04 3956.65 3584.08 1961.04 1961.04 3724.5 6823.67 1995.61 3724.5 3536.09 1995.61 3724.5 3536.09 1995.61 1995.61 3452.74 6224.5 1728.88 3452.74 3287.58 1728.88 3452.74 3287.58 1728.88 1728.88 3861.23 6252.88 1723.86 3861.23 2936.93 1723.86 3861.23 2936.93 1723.86 1723.86 2137.38 3315.96 2137.38 2137.38 3315.96 2137.38 2137.38 3315.96 2137.38 2137.38 4188.92 3669.44 1987.49 8336.14 3669.44 8065.26 6917.24 3900.82 1987.49 4188.92 3669.44 1987.49 3900.82 1987.49 4215.31 4666.7 8348.41 7609.59 8381.16 2201.43 4215.31 4666.7 4164.44 2201.43 4217.33 3681.71 8643.59 7453.18 6536.86 2013.88 4217.33 3681.71 3445.16 2013.88 4080.72 4961.88 8582.16 7515.94 8728.93 2203.45 4080.72 4961.88 4008.02 2203.45 4024.01 3620.27 7558.9 7366.18 7426.84 1877.27 4024.01 3620.27 3507.92 1877.27 3749.55 3938.63 7275.01 7004.31 7502.88 2146.74 3749.55 3938.63 3858.26 2146.74 3036.24 3336.37 6432.14 6038.51 6637.27 1602.81 3036.24 3336.37 3146.06 1602.81 3213.43 3095.77 7081.39 6309.85 6391.62 1433.43 3213.43 3095.77 2892.46 1433.43 3592.8 3985.62 7435.15 7449.7 7546.96 1780 3592.8 3985.62 3417.39 1780 3432.65 3449.53 6605.75 7260.4 7629.41 1812.8 3432.65 3449.53 4032.31 1812.8 3013.57 3156.22 6396.36 6557.87 6857.88 1619.85 3013.57 3156.22 3228.09 1619.85 3250.36 3240.14 6723.69 6728.34 6419.2 1393.72 3250.36 3240.14 3329.77 1393.72 3130.24 3483.55 5830.65 6225.9 6652.25 1856.64 3130.24 3483.55 3398.57 1856.64 3187.82 2347.1 6036.64 7155.63 5763.55 1273.6 3187.82 2347.1 2827.33 1273.6 4195.32 3689.54 7987.31 8305.34 7739.02 1914.22 4195.32 3689.54 4328.29 1914.22 2281.09 4297.77 4297.77 3977.05 7615.17 2281.09 2281.09 4297.77 3977.05 2281.09 6962.26 3247.81 7776.26 6618.57 3608.44 3876.34 3247.81 1913.33 3608.44 1913.33 6569.61 6992.11 7387.94 3394.28 3714.46 4167.82 1963.01 6622.2 6191.47 5678.31 3235.85 2855.15 2824.29 1431.28 7573.61 6654.54 7061.8 3435.22 3767.04 3367.18 1804.57 7370.81 6433.96 6854.08 3342.17 3806.57 3287.36 1630.65 6865.15 5991.6 6662.5 3254.76 3564.25 3146.6 1711.51 6596.76 5803.42 6322.62 3002.27 3300.9 2845 1543.25 6857.19 6397.95 6700.31 3096.42 3295.86 2958.42 1459.03 7741.21 7814.94 7266.48 3856.9 3561.33 3439.53 1637.39 7881.54 7827.3 7925.92 3827.75 4179.88 4375.42 2219.51 6880.72 6782.01 7613.68 3544.29 3701.66 3451.88 1608.24 6347.76 6818.17 6826.23 3477.98 3179.06 3330.12 1936.05 6585.14 6538.59 7037.2 3095.66 3168.7 3488.04 1541.93 7465.92 7189.7 6784.64 3967.81 3416.44 3050.55 1553.73 7366.88 7250.23 7282.66 4110.03 4049.48 4139.15 2414.07 3317.4 3111.08 6433.39 1695.95 3317.4 3111.08 1695.95 7044.24 3370.76 7585.94 6635.89 3341.41 3899.92 3370.76 1695.11 3341.41 1695.11 6496.64 7774.66 7416.95 3597.83 3673.48 4244.52 2204.82 6117.92 7747.77 7473.57 2955.62 2823.16 3530.14 1393.01 6342.28 7573.93 7684.66 3219.32 3294.76 4217.64 1562.61 6145.77 6586.93 6195.13 3091.79 3047.52 3356.29 1656.7 6119.97 6165.78 6281.83 2736.84 3098.25 3230.64 1435.08 6426.17 6390.66 6734.28 2801.15 3021.72 2935.14 1301.76 7109.6 7262.66 7158.56 3301.53 3404.45 3455.51 1499.4 7451.18 7989.27 7288.16 3958.04 3705.14 3807.14 1802.13 7658.06 7417.98 7388.16 3999.55 3746.04 4182.12 2155.91 7559.19 6252.98 6993.63 3237.71 3912.02 3235.86 1843.64 7515.67 6503.71 7139.27 3340.18 3647.17 3017.12 1394.07 7236.7 6542.1 6569.45 3442.93 3868.5 3486.59 1946.11 6601.38 5993.65 6144.29 3221.89 3368.2 3055.51 1496.81 6349.17 5531.85 6432.97 3140.2 3233.18 2938.15 1725.08 3116 2593.71 5538.14 1415.13 3116 2593.71 1415.13 7008.59 3265.13 3686.01 3265.13 1646.31 3686.01 3265.13 1646.31 1646.31 1646.31 8393.88 4176.83 3743.46 4176.83 3743.46 2039.71 2039.71 9040.32 4792.15 4650.41 4792.15 4650.41 2137.13 2137.13 7537.52 4354.61 4389.9 4354.61 4389.9 2655.02 2655.02 6331.19 3495.15 3147.61 3495.15 3147.61 1699.59 1699.59 6896.13 3428.94 3183.58 3428.94 3183.58 1795.55 1795.55 7466.66 3589.51 3712.55 3589.51 3712.55 1633.39 1633.39 7337.12 3961.13 3754.11 3961.13 3754.11 1956.12 1956.12 7225.14 4031.23 3583.01 4031.23 3583.01 2005.01 2005.01 6723.73 3418.43 3642.12 3418.43 3642.12 2026.22 2026.22 6573.7 3015.26 3081.61 3015.26 3081.61 1392.22 1392.22 6193.04 3163.52 3492.09 3163.52 3492.09 1623.05 1623.05 5477.04 3099.17 2700.95 3099.17 2700.95 1540.48 1540.48 5975.88 2771.76 2776.09 2771.76 2776.09 1558.69 1558.69 5621.94 2391.65 3199.79 2391.65 3199.79 1213.07 1213.07 2422.15 1178.58 2422.15 1178.58 2422.15 1178.58 1178.58 4147.21 3598 1681.94 7989.29 3598 7233.14 6408.87 3016.42 1681.94 4147.21 3598 1681.94 3016.42 1681.94 4133.09 4391.29 8104 7308.42 8251.81 2465.27 4133.09 4391.29 4216.72 2465.27 4426.26 3712.71 8406.34 7812.61 6825.32 1667.82 4426.26 3712.71 3091.7 1667.82 4501.44 4693.63 8055.49 8639.82 8453.15 2758.43 4501.44 4693.63 4720.91 2758.43 3534.9 3361.86 6793.66 7563.54 7271.58 1743.01 3534.9 3361.86 3918.92 1743.01 3525.46 3431.8 6478.62 7135.84 7076.3 1791.89 3525.46 3431.8 3644.62 1791.89 3395.9 3046.82 6568 6990.39 6633.78 1733.57 3395.9 3046.82 3491.22 1733.57 3867.96 3521.19 7533.37 7628.73 7339.46 1662.34 3867.96 3521.19 3499.17 1662.34 3842.35 4012.19 7606.15 7726.66 7467.19 2205.63 3842.35 4012.19 4129.57 2205.63 3173.1 3593.96 6574.91 7226.89 7423.14 1636.73 3173.1 3593.96 3597.1 1636.73 3382.79 2980.95 6557.07 6719.22 6957.29 1536.37 3382.79 2980.95 3629.79 1536.37 3473.33 3576.13 7449.14 6343.11 6780.45 1846.42 3473.33 3576.13 3089.42 1846.42 2700.42 3873.01 6296.64 6189.9 7469.6 1626.91 2700.42 3873.01 3253.68 1626.91 2848.82 2423.63 5544.34 6346.94 5902.08 1073.5 2848.82 2423.63 2936.21 1073.5 3792 3120.71 6540.03 7048.85 6313.5 1775.32 3792 3120.71 3410.73 1775.32 2016.68 3419.33 3419.33 3638.12 6676.9 2016.68 2016.68 3419.33 3638.12 2016.68 6671.39 2810.87 6230.24 6618.46 3010.13 3085.93 2810.87 1334.48 3010.13 1334.48 6973.13 6074.14 7397.52 3175.33 3860.52 3220.11 1751.45 6872.13 6548.65 6126.53 3386.35 3112.61 2854.03 1423.88 7669.24 7261.35 7375.88 4138.38 3759.52 3694.62 1962.47 7554.22 7082.62 7172.4 4028.64 3909.72 3566.72 2175.91 7231.46 6993.52 7208.2 3610.38 3644.5 3515.9 1852.73 7405.23 7219.5 7022.72 3594.48 3586.96 3477.62 1757.65 7273.28 7568.84 7273.06 3760.77 3818.27 3741.89 1836.83 7284.19 7377.45 7279.46 3884.31 3455.01 3826.95 1923.94 7805.52 7712.3 6632.54 4053.79 3829.18 3550.5 1960.37 7180.66 7657.91 7520.08 3336.43 3976.34 4161.8 2093.42 6800.91 7045.27 7310.38 2869.78 3204.32 3496.11 1243.01 7075.04 7283.25 6888.6 3489.48 3596.59 3549.16 1626.77 6671.24 6877.6 6487.08 3498.12 3478.45 3734.09 1862.71 6450.37 6465.83 6031.31 3256.86 3192.8 3143.51 1635.41 3257.57 3322.31 6458.86 1621.45 3257.57 3322.31 1621.45 7344.59 3807.59 6466.9 7399.26 3294.48 3144.32 3807.59 1675.65 3294.48 1675.65 6550.92 7115.86 7182.46 2898.81 3537 3172.42 1468.66 6630.28 7410.46 7877.3 3162.3 3013.92 3943.44 1430.15 6879.04 6305.86 6878.5 3122.96 3616.36 3467.03 1732.15 6826.38 5890.02 6610.14 3053.98 3262.68 2838.84 1390.81 6999.46 6850.32 6563.63 3383.13 3563.7 3051.19 1663.17 6890.55 7502.18 7172.1 3625.02 3435.76 3799.13 1719.97 7279.24 7184.06 6642.06 3808.07 3454.79 3703.05 1905.06 6627.81 6687.05 7224.19 3493.14 3824.45 3481.02 1903.01 6347.1 6963.81 6226.9 3658.51 2803.36 3206.04 1590.13 7649.79 7879.92 6685.8 4321.48 3543.74 3757.77 2068.38 7398.06 7205.01 7829.02 4175.49 4106.05 4122.15 2253.1 6300.64 6171.64 5916.35 3793.77 3292.01 3082.86 1922.39 5847.14 6583.6 5901.4 3379.49 3008.63 3088.78 1871.38 6039.8 6439.25 6484.23 3208.97 2838.51 3494.82 1508.1 3201.29 2944.44 5733.91 1700.87 3201.29 2944.44 1700.87 7237.13 3591.67 3322.58 3591.67 1618.82 3322.58 3591.67 1618.82 1618.82 1618.82 8508.84 4217.04 3645.46 4217.04 3645.46 1703.76 1703.76 8125.52 4248.17 4863.38 4248.17 4863.38 2513.29 2513.29 6609.6 3182.9 3262.14 3182.9 3262.14 1734.88 1734.88 6347.39 2836.05 3347.46 2836.05 3347.46 1448.02 1448.02 6736.27 3467.19 2999.93 3467.19 2999.93 1388.02 1388.02 6923.6 3877.16 3736.34 3877.16 3736.34 2079.16 2079.16 6587.01 3375.99 3187.27 3375.99 3187.27 1797.99 1797.99 6823.28 3193.91 3399.74 3193.91 3399.74 1578 1578 6565.6 3305.3 3423.54 3305.3 3423.54 1615.91 1615.91 6865.04 3558.44 3142.07 3558.44 3142.07 1689.39 1689.39 6347.31 3029.52 3722.97 3029.52 3722.97 1869.05 1869.05 5517.11 2377.87 2624.34 2377.87 2624.34 1160.47 1160.47 6538.49 3204.11 2892.77 3204.11 2892.77 1217.4 1217.4 6178.34 3230.28 3645.72 3230.28 3645.72 1986.72 1986.72 2532.62 1243.57 2532.62 1243.57 2532.62 1243.57 1243.57 3842.07 1916.05 1916.05 3842.07 1916.05 7427.54 3392.45 3392.45 1916.05 3842.07 1916.05 1916.05 3392.45 1916.05 3970.91 1926.02 3970.91 7768.71 4035.09 1926.02 3970.91 1926.02 4035.09 1926.02 3980.08 2044.89 3980.08 7465.87 3733.62 2044.89 3980.08 2044.89 3733.62 2044.89 3554.06 1935.2 3554.06 7084.91 3732.25 1935.2 3554.06 1935.2 3732.25 1935.2 3258.77 1618.86 3258.77 6784.35 3352.67 1618.86 3258.77 1618.86 3352.67 1618.86 2953.16 1639.91 2953.16 6574.24 3431.68 1639.91 2953.16 1639.91 3431.68 1639.91 3172.1 1313.25 3172.1 6982.85 3142.56 1313.25 3172.1 1313.25 3142.56 1313.25 3665.41 1858.85 3665.41 7177.92 3840.29 1858.85 3665.41 1858.85 3840.29 1858.85 3763.79 1806.56 3763.79 7163.67 3337.63 1806.56 3763.79 1806.56 3337.63 1806.56 3401.81 1957.23 3401.81 7153.54 3826.05 1957.23 3401.81 1957.23 3826.05 1957.23 3174.28 1444.57 3174.28 7018.52 3327.49 1444.57 3174.28 1444.57 3327.49 1444.57 3975.81 1729.71 3975.81 7906.94 3691.02 1729.71 3975.81 1729.71 3691.02 1729.71 3596.23 2246.1 3596.23 7181.78 4215.92 2246.1 3596.23 2246.1 4215.92 2246.1 2695.51 1350.13 2695.51 5868.64 2965.87 1350.13 2695.51 1350.13 2965.87 1350.13 2748.03 1345.38 2748.03 5941.54 2902.77 1345.38 2748.03 1345.38 2902.77 1345.38 1402.65 1402.65 1402.65 3038.77 3038.77 1402.65 1402.65 1402.65 3038.77 1402.65 3585.46 1476.39 7785.74 3608.33 3608.33 3585.46 1476.39 1476.39 3608.33 1476.39 3797.8 7449.91 4177.41 3797.8 2109.07 4177.41 2109.07 3485.78 6953.76 3272.5 3485.78 1688.73 3272.5 1688.73 3530.86 7286.94 3681.26 3530.86 1797.05 3681.26 1797.05 3525.58 7297.98 3605.68 3525.58 1733.81 3605.68 1733.81 3621.08 7237.4 3692.3 3621.08 1791.77 3692.3 1791.77 3810.75 7076.28 3545.1 3810.75 1829.31 3545.1 1829.31 3512.51 6983.68 3531.18 3512.51 1981.44 3531.18 1981.44 3399.88 6534.54 3452.51 3399.88 1531.07 3452.51 1531.07 3751.73 6440.32 3082.04 3751.73 1868.81 3082.04 1868.81 3844.24 7172.55 3358.28 3844.24 1882.92 3358.28 1882.92 3931.13 7153.71 3814.27 3931.13 1961.31 3814.27 1961.31 3585.56 6092.42 3339.44 3585.56 1969.82 3339.44 1969.82 3173.12 5640.78 2752.99 3173.12 1615.74 2752.99 1615.74 3193.51 6024.34 2887.8 3193.51 1557.39 2887.8 1557.39 1636.12 3136.55 3136.55 1636.12 1636.12 3136.55 1636.12 4200.27 2131.93 8114.82 4104.78 4104.78 4200.27 2131.93 2131.93 4104.78 2131.93 3652.11 7943.91 4010.04 3652.11 2068.34 4010.04 2068.34 3467.98 7345.34 3933.86 3467.98 1583.77 3933.86 1583.77 3756.08 7182.78 3411.48 3756.08 1884.21 3411.48 1884.21 3772.4 7283.75 3771.3 3772.4 1871.87 3771.3 1871.87 3616.33 6885.41 3512.44 3616.33 1900.53 3512.44 1900.53 3265.53 6311.98 3372.97 3265.53 1715.79 3372.97 1715.79 3471.17 6682.18 2939.01 3471.17 1549.73 2939.01 1549.73 3134.67 6764.03 3743.17 3134.67 1921.44 3743.17 1921.44 2688.58 5948.89 3020.86 2688.58 1213.23 3020.86 1213.23 3328.31 6634.91 2928.03 3328.31 1475.36 2928.03 1475.36 3222.57 6540.37 3706.88 3222.57 1852.95 3706.88 1852.95 2506.87 5646.11 2833.49 2506.87 1369.62 2833.49 1369.62 2467.66 5802.04 2812.62 2467.66 1137.25 2812.62 1137.25 2830.83 5778.89 2989.41 2830.83 1330.41 2989.41 1330.41 1500.42 2789.48 2789.48 1500.42 1500.42 2789.48 1500.42 3914.55 1972.85 3914.55 1972.85 1972.85 3914.55 1972.85 1972.85 1972.85 1972.85 4291.8 4291.8 1941.7 4291.8 1941.7 1941.7 1941.7 3877.36 3877.36 2350.09 3877.36 2350.09 2350.09 2350.09 3426.7 3426.7 1527.26 3426.7 1527.26 1527.26 1527.26 3511.35 3511.35 1899.44 3511.35 1899.44 1899.44 1899.44 3269.08 3269.08 1611.91 3269.08 1611.91 1611.91 1611.91 3046.45 3046.45 1657.17 3046.45 1657.17 1657.17 1657.17 3211.01 3211.01 1389.28 3211.01 1389.28 1389.28 1389.28 3629.37 3629.37 1821.73 3629.37 1821.73 1821.73 1821.73 3260.31 3260.31 1807.63 3260.31 1807.63 1807.63 1807.63 3306.6 3306.6 1452.67 3306.6 1452.67 1452.67 1452.67 3317.79 3317.79 1853.92 3317.79 1853.92 1853.92 1853.92 3139.24 3139.24 1463.87 3139.24 1463.87 1463.87 1463.87 3334.38 3334.38 1675.38 3334.38 1675.38 1675.38 1675.38 2948.06 2948.06 1659 2948.06 1659 1659 1659 1289.06 1289.06 1289.06 1289.06 1289.06 1289.06 1289.06 
CELL_DATA 256
SCALARS stress float 1
LOOKUP_TABLE default
2168.49 2358.4 1846.68 2058.13 2133.64 1969.98 2020.65 1893.86 2166.83 2000.67 2084.72 1155.35 1779.76 1323.7 1180.26 1070.8 1383.58 2027.77 2517.07 1118.85 1775.3 1919.86 1560.18 2700.48 1822.1 2034.56 1511.89 1757 1395.97 1904.35 1234.21 1685.9 1690.56 1714.87 2068.1 1688.42 2141.38 1359.72 1599.68 1995.54 1588.12 1597.81 1442.03 2049.3 1157.4 1637.84 1467.71 1071.55 1658.52 2364.24 2073.45 2012.95 1950.56 1804.22 1833.96 1782.1 1779.63 1994.69 1993.18 1961.04 1995.61 1728.88 1723.86 2137.38 1987.49 2201.43 2013.88 2203.45 1877.27 2146.74 1602.81 1433.43 1780 1812.8 1619.85 1393.72 1856.64 1273.6 1914.22 2281.09 1913.33 1963.01 1431.28 1804.57 1630.65 1711.51 1543.25 1459.03 1637.39 2219.51 1608.24 1936.05 1541.93 1553.73 2414.07 1695.95 1695.11 2204.82 1393.01 1562.61 1656.7 1435.08 1301.76 1499.4 1802.13 2155.91 1843.64 1394.07 1946.11 1496.81 1725.08 1415.13 1646.31 2039.71 2137.13 2655.02 1699.59 1795.55 1633.39 1956.12 2005.01 2026.22 1392.22 1623.05 1540.48 1558.69 1213.07 1178.58 1681.94 2465.27 1667.82 2758.43 1743.01 1791.89 1733.57 1662.34 2205.63 1636.73 1536.37 1846.42 1626.91 1073.5 1775.32 2016.68 1334.48 1751.45 1423.88 1962.47 2175.91 1852.73 1757.65 1836.83 1923.94 1960.37 2093.42 1243.01 1626.77 1862.71 1635.41 1621.45 1675.65 1468.66 1430.15 1732.15 1390.81 1663.17 1719.97 1905.06 1903.01 1590.13 2068.38 2253.1 1922.39 1871.38 1508.1 1700.87 1618.82 1703.76 2513.29 1734.88 1448.02 1388.02 2079.16 1797.99 1578 1615.91 1689.39 1869.05 1160.47 1217.4 1986.72 1243.57 1916.05 1926.02 2044.89 1935.2 1618.86 1639.91 1313.25 1858.85 1806.56 1957.23 1444.57 1729.71 2246.1 1350.13 1345.38 1402.65 1476.39 2109.07 1688.73 1797.05 1733.81 1791.77 1829.31 1981.44 1531.07 1868.81 1882.92 1961.31 1969.82 1615.74 1557.39 1636.12 2131.93 2068.34 1583.77 1884.21 1871.87 1900.53 1715.79 1549.73 1921.44 1213.23 1475.36 1852.95 1369.62 1137.25 1330.41 1500.42 1972.85 1941.7 2350.09 1527.26 1899.44 1611.91 1657.17 1389.28 1821.73 1807.63 1452.67 1853.92 1463.87 1675.38 1659 1289.06 
SCALARS volume float 1
LOOKUP_TABLE default
117.904 118.115 118.102 118.116 118.127 118.137 118.147 118.155 118.162 118.169 118.174 118.179 118.182 118.185 118.186 118.187 118.102 118.15 118.158 118.161 118.165 118.169 118.173 118.176 118.179 118.181 118.182 118.184 118.185 118.186 118.186 118.187 118.268 118.212 118.207 118.206 118.204 118.201 118.199 118.197 118.195 118.193 118.191 118.19 118.188 118.187 118.187 118.186 118.48 118.245 118.261 118.25 118.242 118.233 118.225 118.218 118.211 118.205 118.2 118.195 118.192 118.189 118.187 118.186 117.91 118.083 118.098 118.115 118.127 118.138 118.147 118.156 118.163 118.169 118.175 118.179 118.183 118.185 118.187 118.187 118.109 118.134 118.155 118.16 118.165 118.169 118.172 118.176 118.178 118.18 118.183 118.184 118.185 118.186 118.186 118.187 118.268 118.231 118.209 118.205 118.203 118.201 118.198 118.196 118.194 118.192 118.191 118.189 118.188 118.187 118.187 118.186 118.481 118.276 118.264 118.25 118.241 118.232 118.224 118.217 118.21 118.204 118.199 118.194 118.191 118.188 118.186 118.186 117.909 118.083 118.098 118.115 118.127 118.138 118.147 118.156 118.163 118.169 118.175 118.179 118.183 118.185 118.187 118.187 118.108 118.133 118.155 118.16 118.165 118.169 118.173 118.176 118.178 118.181 118.182 118.184 118.185 118.186 118.186 118.187 118.268 118.231 118.209 118.205 118.203 118.201 118.198 118.196 118.194 118.192 118.191 118.189 118.188 118.187 118.186 118.186 118.481 118.276 118.264 118.25 118.241 118.232 118.224 118.217 118.21 118.204 118.199 118.194 118.191 118.188 118.186 118.185 117.903 118.115 118.102 118.116 118.127 118.137 118.147 118.155 118.162 118.169 118.174 118.178 118.182 118.185 118.186 118.187 118.102 118.15 118.158 118.161 118.165 118.169 118.173 118.176 118.178 118.181 118.182 118.184 118.185 118.186 118.186 118.187 118.268 118.211 118.207 118.206 118.203 118.201 118.199 118.197 118.194 118.193 118.191 118.189 118.188 118.187 118.187 118.186 118.48 118.245 118.261 118.25 118.242 118.233 118.225 118.218 118.211 118.205 118.2 118.195 118.191 118.189 118.187 118.186 
SCALARS volume_diff float 1
LOOKUP_TABLE default
117.888 118.1 118.086 118.101 118.111 118.122 118.131 118.14 118.147 118.153 118.159 118.163 118.166 118.169 118.17 118.171 118.087 118.135 118.143 118.145 118.15 118.154 118.157 118.16 118.163 118.165 118.167 118.168 118.169 118.17 118.171 118.171 118.253 118.196 118.191 118.19 118.188 118.186 118.184 118.181 118.179 118.177 118.175 118.174 118.173 118.172 118.171 118.17 118.465 118.229 118.245 118.234 118.226 118.218 118.209 118.202 118.195 118.189 118.184 118.18 118.176 118.173 118.171 118.17 117.894 118.068 118.082 118.1 118.112 118.122 118.132 118.14 118.148 118.154 118.159 118.164 118.167 118.17 118.171 118.172 118.093 118.118 118.139 118.144 118.149 118.153 118.157 118.16 118.163 118.165 118.167 118.169 118.17 118.17 118.171 118.171 118.253 118.216 118.193 118.19 118.187 118.185 118.183 118.181 118.179 118.177 118.175 118.174 118.173 118.172 118.171 118.17 118.466 118.261 118.248 118.235 118.225 118.217 118.209 118.201 118.194 118.188 118.183 118.179 118.175 118.172 118.171 118.17 117.894 118.067 118.082 118.099 118.112 118.122 118.132 118.14 118.147 118.154 118.159 118.163 118.167 118.17 118.171 118.171 118.093 118.118 118.139 118.144 118.149 118.153 118.157 118.16 118.163 118.165 118.167 118.168 118.17 118.17 118.171 118.171 118.252 118.215 118.193 118.19 118.187 118.185 118.183 118.181 118.179 118.177 118.175 118.174 118.172 118.172 118.171 118.17 118.465 118.261 118.248 118.235 118.225 118.217 118.208 118.201 118.194 118.188 118.183 118.179 118.175 118.172 118.171 118.17 117.888 118.1 118.086 118.1 118.111 118.121 118.131 118.139 118.147 118.153 118.158 118.163 118.166 118.169 118.17 118.171 118.086 118.134 118.143 118.145 118.149 118.154 118.157 118.16 118.163 118.165 118.167 118.168 118.17 118.17 118.171 118.171 118.252 118.196 118.191 118.19 118.188 118.186 118.183 118.181 118.179 118.177 118.175 118.174 118.173 118.172 118.171 118.17 118.464 118.229 118.245 118.234 118.226 118.218 118.209 118.202 118.195 118.189 118.184 118.179 118.176 118.173 118.171 118.17 
