# vtk DataFile Version 5.1
vtk output
ASCII

DATASET UNSTRUCTURED_GRID
POINTS 2673 float
0 0 3.3
0.125 0 3.3
0.25 0 3.3
0.375 0 3.3
0.5 0 3.3
0.625 0 3.3
0.75 0 3.3
0.875 0 3.3
1 0 3.3
1.125 0 3.3
1.25 0 3.3
1.375 0 3.3
1.5 0 3.3
1.625 0 3.3
1.75 0 3.3
1.875 0 3.3
2 0 3.3
2.125 0 3.3
2.25 0 3.3
2.375 0 3.3
2.5 0 3.3
2.625 0 3.3
2.75 0 3.3
2.875 0 3.3
3 0 3.3
3.125 0 3.3
3.25 0 3.3
3.375 0 3.3
3.5 0 3.3
3.625 0 3.3
3.75 0 3.3
3.875 0 3.3
4 0 3.3
0 0.125 3.3
0.125 0.125 3.3
0.25 0.125 3.3
0.375 0.125 3.3
0.5 0.125 3.3
0.625 0.125 3.3
0.75 0.125 3.3
0.875 0.125 3.3
1 0.125 3.3
1.125 0.125 3.3
1.25 0.125 3.3
1.375 0.125 3.3
1.5 0.125 3.3
1.625 0.125 3.3
1.75 0.125 3.3
1.875 0.125 3.3
2 0.125 3.3
2.125 0.125 3.3
2.25 0.125 3.3
2.375 0.125 3.3
2.5 0.125 3.3
2.625 0.125 3.3
2.75 0.125 3.3
2.875 0.125 3.3
3 0.125 3.3
3.125 0.125 3.3
3.25 0.125 3.3
3.375 0.125 3.3
3.5 0.125 3.3
3.625 0.125 3.3
3.75 0.125 3.3
3.875 0.125 3.3
4 0.125 3.3
0 0.25 3.3
0.125 0.25 3.3
0.25 0.25 3.3
0.375 0.25 3.3
0.5 0.25 3.3
0.625 0.25 3.3
0.75 0.25 3.3
0.875 0.25 3.3
1 0.25 3.3
1.125 0.25 3.3
1.25 0.25 3.3
1.375 0.25 3.3
1.5 0.25 3.3
1.625 0.25 3.3
1.75 0.25 3.3
1.875 0.25 3.3
2 0.25 3.3
2.125 0.25 3.3
2.25 0.25 3.3
2.375 0.25 3.3
2.5 0.25 3.3
2.625 0.25 3.3
2.75 0.25 3.3
2.875 0.25 3.3
3 0.25 3.3
3.125 0.25 3.3
3.25 0.25 3.3
3.375 0.25 3.3
3.5 0.25 3.3
3.625 0.25 3.3
3.75 0.25 3.3
3.875 0.25 3.3
4 0.25 3.3
0 0.375 3.3
0.125 0.375 3.3
0.25 0.375 3.3
0.375 0.375 3.3
0.5 0.375 3.3
0.625 0.375 3.3
0.75 0.375 3.3
0.875 0.375 3.3
1 0.375 3.3
1.125 0.375 3.3
1.25 0.375 3.3
1.375 0.375 3.3
1.5 0.375 3.3
1.625 0.375 3.3
1.75 0.375 3.3
1.875 0.375 3.3
2 0.375 3.3
2.125 0.375 3.3
2.25 0.375 3.3
2.375 0.375 3.3
2.5 0.375 3.3
2.625 0.375 3.3
2.75 0.375 3.3
2.875 0.375 3.3
3 0.375 3.3
3.125 0.375 3.3
3.25 0.375 3.3
3.375 0.375 3.3
3.5 0.375 3.3
3.625 0.375 3.3
3.75 0.375 3.3
3.875 0.375 3.3
4 0.375 3.3
0 0.5 3.3
0.125 0.5 3.3
0.25 0.5 3.3
0.375 0.5 3.3
0.5 0.5 3.3
0.625 0.5 3.3
0.75 0.5 3.3
0.875 0.5 3.3
1 0.5 3.3
1.125 0.5 3.3
1.25 0.5 3.3
1.375 0.5 3.3
1.5 0.5 3.3
1.625 0.5 3.3
1.75 0.5 3.3
1.875 0.5 3.3
2 0.5 3.3
2.125 0.5 3.3
2.25 0.5 3.3
2.375 0.5 3.3
2.5 0.5 3.3
2.625 0.5 3.3
2.75 0.5 3.3
2.875 0.5 3.3
3 0.5 3.3
3.125 0.5 3.3
3.25 0.5 3.3
3.375 0.5 3.3
3.5 0.5 3.3
3.625 0.5 3.3
3.75 0.5 3.3
3.875 0.5 3.3
4 0.5 3.3
0 0.625 3.3
0.125 0.625 3.3
0.25 0.625 3.3
0.375 0.625 3.3
0.5 0.625 3.3
0.625 0.625 3.3
0.75 0.625 3.3
0.875 0.625 3.3
1 0.625 3.3
1.125 0.625 3.3
1.25 0.625 3.3
1.375 0.625 3.3
1.5 0.625 3.3
1.625 0.625 3.3
1.75 0.625 3.3
1.875 0.625 3.3
2 0.625 3.3
2.125 0.625 3.3
2.25 0.625 3.3
2.375 0.625 3.3
2.5 0.625 3.3
2.625 0.625 3.3
2.75 0.625 3.3
2.875 0.625 3.3
3 0.625 3.3
3.125 0.625 3.3
3.25 0.625 3.3
3.375 0.625 3.3
3.5 0.625 3.3
3.625 0.625 3.3
3.75 0.625 3.3
3.875 0.625 3.3
4 0.625 3.3
0 0.75 3.3
0.125 0.75 3.3
0.25 0.75 3.3
0.375 0.75 3.3
0.5 0.75 3.3
0.625 0.75 3.3
0.75 0.75 3.3
0.875 0.75 3.3
1 0.75 3.3
1.125 0.75 3.3
1.25 0.75 3.3
1.375 0.75 3.3
1.5 0.75 3.3
1.625 0.75 3.3
1.75 0.75 3.3
1.875 0.75 3.3
2 0.75 3.3
2.125 0.75 3.3
2.25 0.75 3.3
2.375 0.75 3.3
2.5 0.75 3.3
2.625 0.75 3.3
2.75 0.75 3.3
2.875 0.75 3.3
3 0.75 3.3
3.125 0.75 3.3
3.25 0.75 3.3
3.375 0.75 3.3
3.5 0.75 3.3
3.625 0.75 3.3
3.75 0.75 3.3
3.875 0.75 3.3
4 0.75 3.3
0 0.875 3.3
0.125 0.875 3.3
0.25 0.875 3.3
0.375 0.875 3.3
0.5 0.875 3.3
0.625 0.875 3.3
0.75 0.875 3.3
0.875 0.875 3.3
1 0.875 3.3
1.125 0.875 3.3
1.25 0.875 3.3
1.375 0.875 3.3
1.5 0.875 3.3
1.625 0.875 3.3
1.75 0.875 3.3
1.875 0.875 3.3
2 0.875 3.3
2.125 0.875 3.3
2.25 0.875 3.3
2.375 0.875 3.3
2.5 0.875 3.3
2.625 0.875 3.3
2.75 0.875 3.3
2.875 0.875 3.3
3 0.875 3.3
3.125 0.875 3.3
3.25 0.875 3.3
3.375 0.875 3.3
3.5 0.875 3.3
3.625 0.875 3.3
3.75 0.875 3.3
3.875 0.875 3.3
4 0.875 3.3
0 1 3.3
0.125 1 3.3
0.25 1 3.3
0.375 1 3.3
0.5 1 3.3
0.625 1 3.3
0.75 1 3.3
0.875 1 3.3
1 1 3.3
1.125 1 3.3
1.25 1 3.3
1.375 1 3.3
1.5 1 3.3
1.625 1 3.3
1.75 1 3.3
1.875 1 3.3
2 1 3.3
2.125 1 3.3
2.25 1 3.3
2.375 1 3.3
2.5 1 3.3
2.625 1 3.3
2.75 1 3.3
2.875 1 3.3
3 1 3.3
3.125 1 3.3
3.25 1 3.3
3.375 1 3.3
3.5 1 3.3
3.625 1 3.3
3.75 1 3.3
3.875 1 3.3
4 1 3.3
0 0 3.425
0.125 0 3.425
0.25 0 3.425
0.375 0 3.425
0.5 0 3.425
0.625 0 3.425
0.75 0 3.425
0.875 0 3.425
1 0 3.425
1.125 0 3.425
1.25 0 3.425
1.375 0 3.425
1.5 0 3.425
1.625 0 3.425
1.75 0 3.425
1.875 0 3.425
2 0 3.425
2.125 0 3.425
2.25 0 3.425
2.375 0 3.425
2.5 0 3.425
2.625 0 3.425
2.75 0 3.425
2.875 0 3.425
3 0 3.425
3.125 0 3.425
3.25 0 3.425
3.375 0 3.425
3.5 0 3.425
3.625 0 3.425
3.75 0 3.425
3.875 0 3.425
4 0 3.425
0 0.125 3.425
0.125 0.125 3.425
0.25 0.125 3.425
0.375 0.125 3.425
0.5 0.125 3.425
0.625 0.125 3.425
0.75 0.125 3.425
0.875 0.125 3.425
1 0.125 3.425
1.125 0.125 3.425
1.25 0.125 3.425
1.375 0.125 3.425
1.5 0.125 3.425
1.625 0.125 3.425
1.75 0.125 3.425
1.875 0.125 3.425
2 0.125 3.425
2.125 0.125 3.425
2.25 0.125 3.425
2.375 0.125 3.425
2.5 0.125 3.425
2.625 0.125 3.425
2.75 0.125 3.425
2.875 0.125 3.425
3 0.125 3.425
3.125 0.125 3.425
3.25 0.125 3.425
3.375 0.125 3.425
3.5 0.125 3.425
3.625 0.125 3.425
3.75 0.125 3.425
3.875 0.125 3.425
4 0.125 3.425
0 0.25 3.425
0.125 0.25 3.425
0.25 0.25 3.425
0.375 0.25 3.425
0.5 0.25 3.425
0.625 0.25 3.425
0.75 0.25 3.425
0.875 0.25 3.425
1 0.25 3.425
1.125 0.25 3.425
1.25 0.25 3.425
1.375 0.25 3.425
1.5 0.25 3.425
1.625 0.25 3.425
1.75 0.25 3.425
1.875 0.25 3.425
2 0.25 3.425
2.125 0.25 3.425
2.25 0.25 3.425
2.375 0.25 3.425
2.5 0.25 3.425
2.625 0.25 3.425
2.75 0.25 3.425
2.875 0.25 3.425
3 0.25 3.425
3.125 0.25 3.425
3.25 0.25 3.425
3.375 0.25 3.425
3.5 0.25 3.425
3.625 0.25 3.425
3.75 0.25 3.425
3.875 0.25 3.425
4 0.25 3.425
0 0.375 3.425
0.125 0.375 3.425
0.25 0.375 3.425
0.375 0.375 3.425
0.5 0.375 3.425
0.625 0.375 3.425
0.75 0.375 3.425
0.875 0.375 3.425
1 0.375 3.425
1.125 0.375 3.425
1.25 0.375 3.425
1.375 0.375 3.425
1.5 0.375 3.425
1.625 0.375 3.425
1.75 0.375 3.425
1.875 0.375 3.425
2 0.375 3.425
2.125 0.375 3.425
2.25 0.375 3.425
2.375 0.375 3.425
2.5 0.375 3.425
2.625 0.375 3.425
2.75 0.375 3.425
2.875 0.375 3.425
3 0.375 3.425
3.125 0.375 3.425
3.25 0.375 3.425
3.375 0.375 3.425
3.5 0.375 3.425
3.625 0.375 3.425
3.75 0.375 3.425
3.875 0.375 3.425
4 0.375 3.425
0 0.5 3.425
0.125 0.5 3.425
0.25 0.5 3.425
0.375 0.5 3.425
0.5 0.5 3.425
0.625 0.5 3.425
0.75 0.5 3.425
0.875 0.5 3.425
1 0.5 3.425
1.125 0.5 3.425
1.25 0.5 3.425
1.375 0.5 3.425
1.5 0.5 3.425
1.625 0.5 3.425
1.75 0.5 3.425
1.875 0.5 3.425
2 0.5 3.425
2.125 0.5 3.425
2.25 0.5 3.425
2.375 0.5 3.425
2.5 0.5 3.425
2.625 0.5 3.425
2.75 0.5 3.425
2.875 0.5 3.425
3 0.5 3.425
3.125 0.5 3.425
3.25 0.5 3.425
3.375 0.5 3.425
3.5 0.5 3.425
3.625 0.5 3.425
3.75 0.5 3.425
3.875 0.5 3.425
4 0.5 3.425
0 0.625 3.425
0.125 0.625 3.425
0.25 0.625 3.425
0.375 0.625 3.425
0.5 0.625 3.425
0.625 0.625 3.425
0.75 0.625 3.425
0.875 0.625 3.425
1 0.625 3.425
1.125 0.625 3.425
1.25 0.625 3.425
1.375 0.625 3.425
1.5 0.625 3.425
1.625 0.625 3.425
1.75 0.625 3.425
1.875 0.625 3.425
2 0.625 3.425
2.125 0.625 3.425
2.25 0.625 3.425
2.375 0.625 3.425
2.5 0.625 3.425
2.625 0.625 3.425
2.75 0.625 3.425
2.875 0.625 3.425
3 0.625 3.425
3.125 0.625 3.425
3.25 0.625 3.425
3.375 0.625 3.425
3.5 0.625 3.425
3.625 0.625 3.425
3.75 0.625 3.425
3.875 0.625 3.425
4 0.625 3.425
0 0.75 3.425
0.125 0.75 3.425
0.25 0.75 3.425
0.375 0.75 3.425
0.5 0.75 3.425
0.625 0.75 3.425
0.75 0.75 3.425
0.875 0.75 3.425
1 0.75 3.425
1.125 0.75 3.425
1.25 0.75 3.425
1.375 0.75 3.425
1.5 0.75 3.425
1.625 0.75 3.425
1.75 0.75 3.425
1.875 0.75 3.425
2 0.75 3.425
2.125 0.75 3.425
2.25 0.75 3.425
2.375 0.75 3.425
2.5 0.75 3.425
2.625 0.75 3.425
2.75 0.75 3.425
2.875 0.75 3.425
3 0.75 3.425
3.125 0.75 3.425
3.25 0.75 3.425
3.375 0.75 3.425
3.5 0.75 3.425
3.625 0.75 3.425
3.75 0.75 3.425
3.875 0.75 3.425
4 0.75 3.425
0 0.875 3.425
0.125 0.875 3.425
0.25 0.875 3.425
0.375 0.875 3.425
0.5 0.875 3.425
0.625 0.875 3.425
0.75 0.875 3.425
0.875 0.875 3.425
1 0.875 3.425
1.125 0.875 3.425
1.25 0.875 3.425
1.375 0.875 3.425
1.5 0.875 3.425
1.625 0.875 3.425
1.75 0.875 3.425
1.875 0.875 3.425
2 0.875 3.425
2.125 0.875 3.425
2.25 0.875 3.425
2.375 0.875 3.425
2.5 0.875 3.425
2.625 0.875 3.425
2.75 0.875 3.425
2.875 0.875 3.425
3 0.875 3.425
3.125 0.875 3.425
3.25 0.875 3.425
3.375 0.875 3.425
3.5 0.875 3.425
3.625 0.875 3.425
3.75 0.875 3.425
3.875 0.875 3.425
4 0.875 3.425
0 1 3.425
0.125 1 3.425
0.25 1 3.425
0.375 1 3.425
0.5 1 3.425
0.625 1 3.425
0.75 1 3.425
0.875 1 3.425
1 1 3.425
1.125 1 3.425
1.25 1 3.425
1.375 1 3.425
1.5 1 3.425
1.625 1 3.425
1.75 1 3.425
1.875 1 3.425
2 1 3.425
2.125 1 3.425
2.25 1 3.425
2.375 1 3.425
2.5 1 3.425
2.625 1 3.425
2.75 1 3.425
2.875 1 3.425
3 1 3.425
3.125 1 3.425
3.25 1 3.425
3.375 1 3.425
3.5 1 3.425
3.625 1 3.425
3.75 1 3.425
3.875 1 3.425
4 1 3.425
0 0 3.55
0.125 0 3.55
0.25 0 3.55
0.375 0 3.55
0.5 0 3.55
0.625 0 3.55
0.75 0 3.55
0.875 0 3.55
1 0 3.55
1.125 0 3.55
1.25 0 3.55
1.375 0 3.55
1.5 0 3.55
1.625 0 3.55
1.75 0 3.55
1.875 0 3.55
2 0 3.55
2.125 0 3.55
2.25 0 3.55
2.375 0 3.55
2.5 0 3.55
2.625 0 3.55
2.75 0 3.55
2.875 0 3.55
3 0 3.55
3.125 0 3.55
3.25 0 3.55
3.375 0 3.55
3.5 0 3.55
3.625 0 3.55
3.75 0 3.55
3.875 0 3.55
4 0 3.55
0 0.125 3.55
0.125 0.125 3.55
0.25 0.125 3.55
0.375 0.125 3.55
0.5 0.125 3.55
0.625 0.125 3.55
0.75 0.125 3.55
0.875 0.125 3.55
1 0.125 3.55
1.125 0.125 3.55
1.25 0.125 3.55
1.375 0.125 3.55
1.5 0.125 3.55
1.625 0.125 3.55
1.75 0.125 3.55
1.875 0.125 3.55
2 0.125 3.55
2.125 0.125 3.55
2.25 0.125 3.55
2.375 0.125 3.55
2.5 0.125 3.55
2.625 0.125 3.55
2.75 0.125 3.55
2.875 0.125 3.55
3 0.125 3.55
3.125 0.125 3.55
3.25 0.125 3.55
3.375 0.125 3.55
3.5 0.125 3.55
3.625 0.125 3.55
3.75 0.125 3.55
3.875 0.125 3.55
4 0.125 3.55
0 0.25 3.55
0.125 0.25 3.55
0.25 0.25 3.55
0.375 0.25 3.55
0.5 0.25 3.55
0.625 0.25 3.55
0.75 0.25 3.55
0.875 0.25 3.55
1 0.25 3.55
1.125 0.25 3.55
1.25 0.25 3.55
1.375 0.25 3.55
1.5 0.25 3.55
1.625 0.25 3.55
1.75 0.25 3.55
1.875 0.25 3.55
2 0.25 3.55
2.125 0.25 3.55
2.25 0.25 3.55
2.375 0.25 3.55
2.5 0.25 3.55
2.625 0.25 3.55
2.75 0.25 3.55
2.875 0.25 3.55
3 0.25 3.55
3.125 0.25 3.55
3.25 0.25 3.55
3.375 0.25 3.55
3.5 0.25 3.55
3.625 0.25 3.55
3.75 0.25 3.55
3.875 0.25 3.55
4 0.25 3.55
0 0.375 3.55
0.125 0.375 3.55
0.25 0.375 3.55
0.375 0.375 3.55
0.5 0.375 3.55
0.625 0.375 3.55
0.75 0.375 3.55
0.875 0.375 3.55
1 0.375 3.55
1.125 0.375 3.55
1.25 0.375 3.55
1.375 0.375 3.55
1.5 0.375 3.55
1.625 0.375 3.55
1.75 0.375 3.55
1.875 0.375 3.55
2 0.375 3.55
2.125 0.375 3.55
2.25 0.375 3.55
2.375 0.375 3.55
2.5 0.375 3.55
2.625 0.375 3.55
2.75 0.375 3.55
2.875 0.375 3.55
3 0.375 3.55
3.125 0.375 3.55
3.25 0.375 3.55
3.375 0.375 3.55
3.5 0.375 3.55
3.625 0.375 3.55
3.75 0.375 3.55
3.875 0.375 3.55
4 0.375 3.55
0 0.5 3.55
0.125 0.5 3.55
0.25 0.5 3.55
0.375 0.5 3.55
0.5 0.5 3.55
0.625 0.5 3.55
0.75 0.5 3.55
0.875 0.5 3.55
1 0.5 3.55
1.125 0.5 3.55
1.25 0.5 3.55
1.375 0.5 3.55
1.5 0.5 3.55
1.625 0.5 3.55
1.75 0.5 3.55
1.875 0.5 3.55
2 0.5 3.55
2.125 0.5 3.55
2.25 0.5 3.55
2.375 0.5 3.55
2.5 0.5 3.55
2.625 0.5 3.55
2.75 0.5 3.55
2.875 0.5 3.55
3 0.5 3.55
3.125 0.5 3.55
3.25 0.5 3.55
3.375 0.5 3.55
3.5 0.5 3.55
3.625 0.5 3.55
3.75 0.5 3.55
3.875 0.5 3.55
4 0.5 3.55
0 0.625 3.55
0.125 0.625 3.55
0.25 0.625 3.55
0.375 0.625 3.55
0.5 0.625 3.55
0.625 0.625 3.55
0.75 0.625 3.55
0.875 0.625 3.55
1 0.625 3.55
1.125 0.625 3.55
1.25 0.625 3.55
1.375 0.625 3.55
1.5 0.625 3.55
1.625 0.625 3.55
1.75 0.625 3.55
1.875 0.625 3.55
2 0.625 3.55
2.125 0.625 3.55
2.25 0.625 3.55
2.375 0.625 3.55
2.5 0.625 3.55
2.625 0.625 3.55
2.75 0.625 3.55
2.875 0.625 3.55
3 0.625 3.55
3.125 0.625 3.55
3.25 0.625 3.55
3.375 0.625 3.55
3.5 0.625 3.55
3.625 0.625 3.55
3.75 0.625 3.55
3.875 0.625 3.55
4 0.625 3.55
0 0.75 3.55
0.125 0.75 3.55
0.25 0.75 3.55
0.375 0.75 3.55
0.5 0.75 3.55
0.625 0.75 3.55
0.75 0.75 3.55
0.875 0.75 3.55
1 0.75 3.55
1.125 0.75 3.55
1.25 0.75 3.55
1.375 0.75 3.55
1.5 0.75 3.55
1.625 0.75 3.55
1.75 0.75 3.55
1.875 0.75 3.55
2 0.75 3.55
2.125 0.75 3.55
2.25 0.75 3.55
2.375 0.75 3.55
2.5 0.75 3.55
2.625 0.75 3.55
2.75 0.75 3.55
2.875 0.75 3.55
3 0.75 3.55
3.125 0.75 3.55
3.25 0.75 3.55
3.375 0.75 3.55
3.5 0.75 3.55
3.625 0.75 3.55
3.75 0.75 3.55
3.875 0.75 3.55
4 0.75 3.55
0 0.875 3.55
0.125 0.875 3.55
0.25 0.875 3.55
0.375 0.875 3.55
0.5 0.875 3.55
0.625 0.875 3.55
0.75 0.875 3.55
0.875 0.875 3.55
1 0.875 3.55
1.125 0.875 3.55
1.25 0.875 3.55
1.375 0.875 3.55
1.5 0.875 3.55
1.625 0.875 3.55
1.75 0.875 3.55
1.875 0.875 3.55
2 0.875 3.55
2.125 0.875 3.55
2.25 0.875 3.55
2.375 0.875 3.55
2.5 0.875 3.55
2.625 0.875 3.55
2.75 0.875 3.55
2.875 0.875 3.55
3 0.875 3.55
3.125 0.875 3.55
3.25 0.875 3.55
3.375 0.875 3.55
3.5 0.875 3.55
3.625 0.875 3.55
3.75 0.875 3.55
3.875 0.875 3.55
4 0.875 3.55
0 1 3.55
0.125 1 3.55
0.25 1 3.55
0.375 1 3.55
0.5 1 3.55
0.625 1 3.55
0.75 1 3.55
0.875 1 3.55
1 1 3.55
1.125 1 3.55
1.25 1 3.55
1.375 1 3.55
1.5 1 3.55
1.625 1 3.55
1.75 1 3.55
1.875 1 3.55
2 1 3.55
2.125 1 3.55
2.25 1 3.55
2.375 1 3.55
2.5 1 3.55
2.625 1 3.55
2.75 1 3.55
2.875 1 3.55
3 1 3.55
3.125 1 3.55
3.25 1 3.55
3.375 1 3.55
3.5 1 3.55
3.625 1 3.55
3.75 1 3.55
3.875 1 3.55
4 1 3.55
0 0 3.675
0.125 0 3.675
0.25 0 3.675
0.375 0 3.675
0.5 0 3.675
0.625 0 3.675
0.75 0 3.675
0.875 0 3.675
1 0 3.675
1.125 0 3.675
1.25 0 3.675
1.375 0 3.675
1.5 0 3.675
1.625 0 3.675
1.75 0 3.675
1.875 0 3.675
2 0 3.675
2.125 0 3.675
2.25 0 3.675
2.375 0 3.675
2.5 0 3.675
2.625 0 3.675
2.75 0 3.675
2.875 0 3.675
3 0 3.675
3.125 0 3.675
3.25 0 3.675
3.375 0 3.675
3.5 0 3.675
3.625 0 3.675
3.75 0 3.675
3.875 0 3.675
4 0 3.675
0 0.125 3.675
0.125 0.125 3.675
0.25 0.125 3.675
0.375 0.125 3.675
0.5 0.125 3.675
0.625 0.125 3.675
0.75 0.125 3.675
0.875 0.125 3.675
1 0.125 3.675
1.125 0.125 3.675
1.25 0.125 3.675
1.375 0.125 3.675
1.5 0.125 3.675
1.625 0.125 3.675
1.75 0.125 3.675
1.875 0.125 3.675
2 0.125 3.675
2.125 0.125 3.675
2.25 0.125 3.675
2.375 0.125 3.675
2.5 0.125 3.675
2.625 0.125 3.675
2.75 0.125 3.675
2.875 0.125 3.675
3 0.125 3.675
3.125 0.125 3.675
3.25 0.125 3.675
3.375 0.125 3.675
3.5 0.125 3.675
3.625 0.125 3.675
3.75 0.125 3.675
3.875 0.125 3.675
4 0.125 3.675
0 0.25 3.675
0.125 0.25 3.675
0.25 0.25 3.675
0.375 0.25 3.675
0.5 0.25 3.675
0.625 0.25 3.675
0.75 0.25 3.675
0.875 0.25 3.675
1 0.25 3.675
1.125 0.25 3.675
1.25 0.25 3.675
1.375 0.25 3.675
1.5 0.25 3.675
1.625 0.25 3.675
1.75 0.25 3.675
1.875 0.25 3.675
2 0.25 3.675
2.125 0.25 3.675
2.25 0.25 3.675
2.375 0.25 3.675
2.5 0.25 3.675
2.625 0.25 3.675
2.75 0.25 3.675
2.875 0.25 3.675
3 0.25 3.675
3.125 0.25 3.675
3.25 0.25 3.675
3.375 0.25 3.675
3.5 0.25 3.675
3.625 0.25 3.675
3.75 0.25 3.675
3.875 0.25 3.675
4 0.25 3.675
0 0.375 3.675
0.125 0.375 3.675
0.25 0.375 3.675
0.375 0.375 3.675
0.5 0.375 3.675
0.625 0.375 3.675
0.75 0.375 3.675
0.875 0.375 3.675
1 0.375 3.675
1.125 0.375 3.675
1.25 0.375 3.675
1.375 0.375 3.675
1.5 0.375 3.675
1.625 0.375 3.675
1.75 0.375 3.675
1.875 0.375 3.675
2 0.375 3.675
2.125 0.375 3.675
2.25 0.375 3.675
2.375 0.375 3.675
2.5 0.375 3.675
2.625 0.375 3.675
2.75 0.375 3.675
2.875 0.375 3.675
3 0.375 3.675
3.125 0.375 3.675
3.25 0.375 3.675
3.375 0.375 3.675
3.5 0.375 3.675
3.625 0.375 3.675
3.75 0.375 3.675
3.875 0.375 3.675
4 0.375 3.675
0 0.5 3.675
0.125 0.5 3.675
0.25 0.5 3.675
0.375 0.5 3.675
0.5 0.5 3.675
0.625 0.5 3.675
0.75 0.5 3.675
0.875 0.5 3.675
1 0.5 3.675
1.125 0.5 3.675
1.25 0.5 3.675
1.375 0.5 3.675
1.5 0.5 3.675
1.625 0.5 3.675
1.75 0.5 3.675
1.875 0.5 3.675
2 0.5 3.675
2.125 0.5 3.675
2.25 0.5 3.675
2.375 0.5 3.675
2.5 0.5 3.675
2.625 0.5 3.675
2.75 0.5 3.675
2.875 0.5 3.675
3 0.5 3.675
3.125 0.5 3.675
3.25 0.5 3.675
3.375 0.5 3.675
3.5 0.5 3.675
3.625 0.5 3.675
3.75 0.5 3.675
3.875 0.5 3.675
4 0.5 3.675
0 0.625 3.675
0.125 0.625 3.675
0.25 0.625 3.675
0.375 0.625 3.675
0.5 0.625 3.675
0.625 0.625 3.675
0.75 0.625 3.675
0.875 0.625 3.675
1 0.625 3.675
1.125 0.625 3.675
1.25 0.625 3.675
1.375 0.625 3.675
1.5 0.625 3.675
1.625 0.625 3.675
1.75 0.625 3.675
1.875 0.625 3.675
2 0.625 3.675
2.125 0.625 3.675
2.25 0.625 3.675
2.375 0.625 3.675
2.5 0.625 3.675
2.625 0.625 3.675
2.75 0.625 3.675
2.875 0.625 3.675
3 0.625 3.675
3.125 0.625 3.675
3.25 0.625 3.675
3.375 0.625 3.675
3.5 0.625 3.675
3.625 0.625 3.675
3.75 0.625 3.675
3.875 0.625 3.675
4 0.625 3.675
0 0.75 3.675
0.125 0.75 3.675
0.25 0.75 3.675
0.375 0.75 3.675
0.5 0.75 3.675
0.625 0.75 3.675
0.75 0.75 3.675
0.875 0.75 3.675
1 0.75 3.675
1.125 0.75 3.675
1.25 0.75 3.675
1.375 0.75 3.675
1.5 0.75 3.675
1.625 0.75 3.675
1.75 0.75 3.675
1.875 0.75 3.675
2 0.75 3.675
2.125 0.75 3.675
2.25 0.75 3.675
2.375 0.75 3.675
2.5 0.75 3.675
2.625 0.75 3.675
2.75 0.75 3.675
2.875 0.75 3.675
3 0.75 3.675
3.125 0.75 3.675
3.25 0.75 3.675
3.375 0.75 3.675
3.5 0.75 3.675
3.625 0.75 3.675
3.75 0.75 3.675
3.875 0.75 3.675
4 0.75 3.675
0 0.875 3.675
0.125 0.875 3.675
0.25 0.875 3.675
0.375 0.875 3.675
0.5 0.875 3.675
0.625 0.875 3.675
0.75 0.875 3.675
0.875 0.875 3.675
1 0.875 3.675
1.125 0.875 3.675
1.25 0.875 3.675
1.375 0.875 3.675
1.5 0.875 3.675
1.625 0.875 3.675
1.75 0.875 3.675
1.875 0.875 3.675
2 0.875 3.675
2.125 0.875 3.675
2.25 0.875 3.675
2.375 0.875 3.675
2.5 0.875 3.675
2.625 0.875 3.675
2.75 0.875 3.675
2.875 0.875 3.675
3 0.875 3.675
3.125 0.875 3.675
3.25 0.875 3.675
3.375 0.875 3.675
3.5 0.875 3.675
3.625 0.875 3.675
3.75 0.875 3.675
3.875 0.875 3.675
4 0.875 3.675
0 1 3.675
0.125 1 3.675
0.25 1 3.675
0.375 1 3.675
0.5 1 3.675
0.625 1 3.675
0.75 1 3.675
0.875 1 3.675
1 1 3.675
1.125 1 3.675
1.25 1 3.675
1.375 1 3.675
1.5 1 3.675
1.625 1 3.675
1.75 1 3.675
1.875 1 3.675
2 1 3.675
2.125 1 3.675
2.25 1 3.675
2.375 1 3.675
2.5 1 3.675
2.625 1 3.675
2.75 1 3.675
2.875 1 3.675
3 1 3.675
3.125 1 3.675
3.25 1 3.675
3.375 1 3.675
3.5 1 3.675
3.625 1 3.675
3.75 1 3.675
3.875 1 3.675
4 1 3.675
0 0 3.8
0.125 0 3.8
0.25 0 3.8
0.375 0 3.8
0.5 0 3.8
0.625 0 3.8
0.75 0 3.8
0.875 0 3.8
1 0 3.8
1.125 0 3.8
1.25 0 3.8
1.375 0 3.8
1.5 0 3.8
1.625 0 3.8
1.75 0 3.8
1.875 0 3.8
2 0 3.8
2.125 0 3.8
2.25 0 3.8
2.375 0 3.8
2.5 0 3.8
2.625 0 3.8
2.75 0 3.8
2.875 0 3.8
3 0 3.8
3.125 0 3.8
3.25 0 3.8
3.375 0 3.8
3.5 0 3.8
3.625 0 3.8
3.75 0 3.8
3.875 0 3.8
4 0 3.8
0 0.125 3.8
0.125 0.125 3.8
0.25 0.125 3.8
0.375 0.125 3.8
0.5 0.125 3.8
0.625 0.125 3.8
0.75 0.125 3.8
0.875 0.125 3.8
1 0.125 3.8
1.125 0.125 3.8
1.25 0.125 3.8
1.375 0.125 3.8
1.5 0.125 3.8
1.625 0.125 3.8
1.75 0.125 3.8
1.875 0.125 3.8
2 0.125 3.8
2.125 0.125 3.8
2.25 0.125 3.8
2.375 0.125 3.8
2.5 0.125 3.8
2.625 0.125 3.8
2.75 0.125 3.8
2.875 0.125 3.8
3 0.125 3.8
3.125 0.125 3.8
3.25 0.125 3.8
3.375 0.125 3.8
3.5 0.125 3.8
3.625 0.125 3.8
3.75 0.125 3.8
3.875 0.125 3.8
4 0.125 3.8
0 0.25 3.8
0.125 0.25 3.8
0.25 0.25 3.8
0.375 0.25 3.8
0.5 0.25 3.8
0.625 0.25 3.8
0.75 0.25 3.8
0.875 0.25 3.8
1 0.25 3.8
1.125 0.25 3.8
1.25 0.25 3.8
1.375 0.25 3.8
1.5 0.25 3.8
1.625 0.25 3.8
1.75 0.25 3.8
1.875 0.25 3.8
2 0.25 3.8
2.125 0.25 3.8
2.25 0.25 3.8
2.375 0.25 3.8
2.5 0.25 3.8
2.625 0.25 3.8
2.75 0.25 3.8
2.875 0.25 3.8
3 0.25 3.8
3.125 0.25 3.8
3.25 0.25 3.8
3.375 0.25 3.8
3.5 0.25 3.8
3.625 0.25 3.8
3.75 0.25 3.8
3.875 0.25 3.8
4 0.25 3.8
0 0.375 3.8
0.125 0.375 3.8
0.25 0.375 3.8
0.375 0.375 3.8
0.5 0.375 3.8
0.625 0.375 3.8
0.75 0.375 3.8
0.875 0.375 3.8
1 0.375 3.8
1.125 0.375 3.8
1.25 0.375 3.8
1.375 0.375 3.8
1.5 0.375 3.8
1.625 0.375 3.8
1.75 0.375 3.8
1.875 0.375 3.8
2 0.375 3.8
2.125 0.375 3.8
2.25 0.375 3.8
2.375 0.375 3.8
2.5 0.375 3.8
2.625 0.375 3.8
2.75 0.375 3.8
2.875 0.375 3.8
3 0.375 3.8
3.125 0.375 3.8
3.25 0.375 3.8
3.375 0.375 3.8
3.5 0.375 3.8
3.625 0.375 3.8
3.75 0.375 3.8
3.875 0.375 3.8
4 0.375 3.8
0 0.5 3.8
0.125 0.5 3.8
0.25 0.5 3.8
0.375 0.5 3.8
0.5 0.5 3.8
0.625 0.5 3.8
0.75 0.5 3.8
0.875 0.5 3.8
1 0.5 3.8
1.125 0.5 3.8
1.25 0.5 3.8
1.375 0.5 3.8
1.5 0.5 3.8
1.625 0.5 3.8
1.75 0.5 3.8
1.875 0.5 3.8
2 0.5 3.8
2.125 0.5 3.8
2.25 0.5 3.8
2.375 0.5 3.8
2.5 0.5 3.8
2.625 0.5 3.8
2.75 0.5 3.8
2.875 0.5 3.8
3 0.5 3.8
3.125 0.5 3.8
3.25 0.5 3.8
3.375 0.5 3.8
3.5 0.5 3.8
3.625 0.5 3.8
3.75 0.5 3.8
3.875 0.5 3.8
4 0.5 3.8
0 0.625 3.8
0.125 0.625 3.8
0.25 0.625 3.8
0.375 0.625 3.8
0.5 0.625 3.8
0.625 0.625 3.8
0.75 0.625 3.8
0.875 0.625 3.8
1 0.625 3.8
1.125 0.625 3.8
1.25 0.625 3.8
1.375 0.625 3.8
1.5 0.625 3.8
1.625 0.625 3.8
1.75 0.625 3.8
1.875 0.625 3.8
2 0.625 3.8
2.125 0.625 3.8
2.25 0.625 3.8
2.375 0.625 3.8
2.5 0.625 3.8
2.625 0.625 3.8
2.75 0.625 3.8
2.875 0.625 3.8
3 0.625 3.8
3.125 0.625 3.8
3.25 0.625 3.8
3.375 0.625 3.8
3.5 0.625 3.8
3.625 0.625 3.8
3.75 0.625 3.8
3.875 0.625 3.8
4 0.625 3.8
0 0.75 3.8
0.125 0.75 3.8
0.25 0.75 3.8
0.375 0.75 3.8
0.5 0.75 3.8
0.625 0.75 3.8
0.75 0.75 3.8
0.875 0.75 3.8
1 0.75 3.8
1.125 0.75 3.8
1.25 0.75 3.8
1.375 0.75 3.8
1.5 0.75 3.8
1.625 0.75 3.8
1.75 0.75 3.8
1.875 0.75 3.8
2 0.75 3.8
2.125 0.75 3.8
2.25 0.75 3.8
2.375 0.75 3.8
2.5 0.75 3.8
2.625 0.75 3.8
2.75 0.75 3.8
2.875 0.75 3.8
3 0.75 3.8
3.125 0.75 3.8
3.25 0.75 3.8
3.375 0.75 3.8
3.5 0.75 3.8
3.625 0.75 3.8
3.75 0.75 3.8
3.875 0.75 3.8
4 0.75 3.8
0 0.875 3.8
0.125 0.875 3.8
0.25 0.875 3.8
0.375 0.875 3.8
0.5 0.875 3.8
0.625 0.875 3.8
0.75 0.875 3.8
0.875 0.875 3.8
1 0.875 3.8
1.125 0.875 3.8
1.25 0.875 3.8
1.375 0.875 3.8
1.5 0.875 3.8
1.625 0.875 3.8
1.75 0.875 3.8
1.875 0.875 3.8
2 0.875 3.8
2.125 0.875 3.8
2.25 0.875 3.8
2.375 0.875 3.8
2.5 0.875 3.8
2.625 0.875 3.8
2.75 0.875 3.8
2.875 0.875 3.8
3 0.875 3.8
3.125 0.875 3.8
3.25 0.875 3.8
3.375 0.875 3.8
3.5 0.875 3.8
3.625 0.875 3.8
3.75 0.875 3.8
3.875 0.875 3.8
4 0.875 3.8
0 1 3.8
0.125 1 3.8
0.25 1 3.8
0.375 1 3.8
0.5 1 3.8
0.625 1 3.8
0.75 1 3.8
0.875 1 3.8
1 1 3.8
1.125 1 3.8
1.25 1 3.8
1.375 1 3.8
1.5 1 3.8
1.625 1 3.8
1.75 1 3.8
1.875 1 3.8
2 1 3.8
2.125 1 3.8
2.25 1 3.8
2.375 1 3.8
2.5 1 3.8
2.625 1 3.8
2.75 1 3.8
2.875 1 3.8
3 1 3.8
3.125 1 3.8
3.25 1 3.8
3.375 1 3.8
3.5 1 3.8
3.625 1 3.8
3.75 1 3.8
3.875 1 3.8
4 1 3.8
0 0 3.925
0.125 0 3.925
0.25 0 3.925
0.375 0 3.925
0.5 0 3.925
0.625 0 3.925
0.75 0 3.925
0.875 0 3.925
1 0 3.925
1.125 0 3.925
1.25 0 3.925
1.375 0 3.925
1.5 0 3.925
1.625 0 3.925
1.75 0 3.925
1.875 0 3.925
2 0 3.925
2.125 0 3.925
2.25 0 3.925
2.375 0 3.925
2.5 0 3.925
2.625 0 3.925
2.75 0 3.925
2.875 0 3.925
3 0 3.925
3.125 0 3.925
3.25 0 3.925
3.375 0 3.925
3.5 0 3.925
3.625 0 3.925
3.75 0 3.925
3.875 0 3.925
4 0 3.925
0 0.125 3.925
0.125 0.125 3.925
0.25 0.125 3.925
0.375 0.125 3.925
0.5 0.125 3.925
0.625 0.125 3.925
0.75 0.125 3.925
0.875 0.125 3.925
1 0.125 3.925
1.125 0.125 3.925
1.25 0.125 3.925
1.375 0.125 3.925
1.5 0.125 3.925
1.625 0.125 3.925
1.75 0.125 3.925
1.875 0.125 3.925
2 0.125 3.925
2.125 0.125 3.925
2.25 0.125 3.925
2.375 0.125 3.925
2.5 0.125 3.925
2.625 0.125 3.925
2.75 0.125 3.925
2.875 0.125 3.925
3 0.125 3.925
3.125 0.125 3.925
3.25 0.125 3.925
3.375 0.125 3.925
3.5 0.125 3.925
3.625 0.125 3.925
3.75 0.125 3.925
3.875 0.125 3.925
4 0.125 3.925
0 0.25 3.925
0.125 0.25 3.925
0.25 0.25 3.925
0.375 0.25 3.925
0.5 0.25 3.925
0.625 0.25 3.925
0.75 0.25 3.925
0.875 0.25 3.925
1 0.25 3.925
1.125 0.25 3.925
1.25 0.25 3.925
1.375 0.25 3.925
1.5 0.25 3.925
1.625 0.25 3.925
1.75 0.25 3.925
1.875 0.25 3.925
2 0.25 3.925
2.125 0.25 3.925
2.25 0.25 3.925
2.375 0.25 3.925
2.5 0.25 3.925
2.625 0.25 3.925
2.75 0.25 3.925
2.875 0.25 3.925
3 0.25 3.925
3.125 0.25 3.925
3.25 0.25 3.925
3.375 0.25 3.925
3.5 0.25 3.925
3.625 0.25 3.925
3.75 0.25 3.925
3.875 0.25 3.925
4 0.25 3.925
0 0.375 3.925
0.125 0.375 3.925
0.25 0.375 3.925
0.375 0.375 3.925
0.5 0.375 3.925
0.625 0.375 3.925
0.75 0.375 3.925
0.875 0.375 3.925
1 0.375 3.925
1.125 0.375 3.925
1.25 0.375 3.925
1.375 0.375 3.925
1.5 0.375 3.925
1.625 0.375 3.925
1.75 0.375 3.925
1.875 0.375 3.925
2 0.375 3.925
2.125 0.375 3.925
2.25 0.375 3.925
2.375 0.375 3.925
2.5 0.375 3.925
2.625 0.375 3.925
2.75 0.375 3.925
2.875 0.375 3.925
3 0.375 3.925
3.125 0.375 3.925
3.25 0.375 3.925
3.375 0.375 3.925
3.5 0.375 3.925
3.625 0.375 3.925
3.75 0.375 3.925
3.875 0.375 3.925
4 0.375 3.925
0 0.5 3.925
0.125 0.5 3.925
0.25 0.5 3.925
0.375 0.5 3.925
0.5 0.5 3.925
0.625 0.5 3.925
0.75 0.5 3.925
0.875 0.5 3.925
1 0.5 3.925
1.125 0.5 3.925
1.25 0.5 3.925
1.375 0.5 3.925
1.5 0.5 3.925
1.625 0.5 3.925
1.75 0.5 3.925
1.875 0.5 3.925
2 0.5 3.925
2.125 0.5 3.925
2.25 0.5 3.925
2.375 0.5 3.925
2.5 0.5 3.925
2.625 0.5 3.925
2.75 0.5 3.925
2.875 0.5 3.925
3 0.5 3.925
3.125 0.5 3.925
3.25 0.5 3.925
3.375 0.5 3.925
3.5 0.5 3.925
3.625 0.5 3.925
3.75 0.5 3.925
3.875 0.5 3.925
4 0.5 3.925
0 0.625 3.925
0.125 0.625 3.925
0.25 0.625 3.925
0.375 0.625 3.925
0.5 0.625 3.925
0.625 0.625 3.925
0.75 0.625 3.925
0.875 0.625 3.925
1 0.625 3.925
1.125 0.625 3.925
1.25 0.625 3.925
1.375 0.625 3.925
1.5 0.625 3.925
1.625 0.625 3.925
1.75 0.625 3.925
1.875 0.625 3.925
2 0.625 3.925
2.125 0.625 3.925
2.25 0.625 3.925
2.375 0.625 3.925
2.5 0.625 3.925
2.625 0.625 3.925
2.75 0.625 3.925
2.875 0.625 3.925
3 0.625 3.925
3.125 0.625 3.925
3.25 0.625 3.925
3.375 0.625 3.925
3.5 0.625 3.925
3.625 0.625 3.925
3.75 0.625 3.925
3.875 0.625 3.925
4 0.625 3.925
0 0.75 3.925
0.125 0.75 3.925
0.25 0.75 3.925
0.375 0.75 3.925
0.5 0.75 3.925
0.625 0.75 3.925
0.75 0.75 3.925
0.875 0.75 3.925
1 0.75 3.925
1.125 0.75 3.925
1.25 0.75 3.925
1.375 0.75 3.925
1.5 0.75 3.925
1.625 0.75 3.925
1.75 0.75 3.925
1.875 0.75 3.925
2 0.75 3.925
2.125 0.75 3.925
2.25 0.75 3.925
2.375 0.75 3.925
2.5 0.75 3.925
2.625 0.75 3.925
2.75 0.75 3.925
2.875 0.75 3.925
3 0.75 3.925
3.125 0.75 3.925
3.25 0.75 3.925
3.375 0.75 3.925
3.5 0.75 3.925
3.625 0.75 3.925
3.75 0.75 3.925
3.875 0.75 3.925
4 0.75 3.925
0 0.875 3.925
0.125 0.875 3.925
0.25 0.875 3.925
0.375 0.875 3.925
0.5 0.875 3.925
0.625 0.875 3.925
0.75 0.875 3.925
0.875 0.875 3.925
1 0.875 3.925
1.125 0.875 3.925
1.25 0.875 3.925
1.375 0.875 3.925
1.5 0.875 3.925
1.625 0.875 3.925
1.75 0.875 3.925
1.875 0.875 3.925
2 0.875 3.925
2.125 0.875 3.925
2.25 0.875 3.925
2.375 0.875 3.925
2.5 0.875 3.925
2.625 0.875 3.925
2.75 0.875 3.925
2.875 0.875 3.925
3 0.875 3.925
3.125 0.875 3.925
3.25 0.875 3.925
3.375 0.875 3.925
3.5 0.875 3.925
3.625 0.875 3.925
3.75 0.875 3.925
3.875 0.875 3.925
4 0.875 3.925
0 1 3.925
0.125 1 3.925
0.25 1 3.925
0.375 1 3.925
0.5 1 3.925
0.625 1 3.925
0.75 1 3.925
0.875 1 3.925
1 1 3.925
1.125 1 3.925
1.25 1 3.925
1.375 1 3.925
1.5 1 3.925
1.625 1 3.925
1.75 1 3.925
1.875 1 3.925
2 1 3.925
2.125 1 3.925
2.25 1 3.925
2.375 1 3.925
2.5 1 3.925
2.625 1 3.925
2.75 1 3.925
2.875 1 3.925
3 1 3.925
3.125 1 3.925
3.25 1 3.925
3.375 1 3.925
3.5 1 3.925
3.625 1 3.925
3.75 1 3.925
3.875 1 3.925
4 1 3.925
0 0 4.05
0.125 0 4.05
0.25 0 4.05
0.375 0 4.05
0.5 0 4.05
0.625 0 4.05
0.75 0 4.05
0.875 0 4.05
1 0 4.05
1.125 0 4.05
1.25 0 4.05
1.375 0 4.05
1.5 0 4.05
1.625 0 4.05
1.75 0 4.05
1.875 0 4.05
2 0 4.05
2.125 0 4.05
2.25 0 4.05
2.375 0 4.05
2.5 0 4.05
2.625 0 4.05
2.75 0 4.05
2.875 0 4.05
3 0 4.05
3.125 0 4.05
3.25 0 4.05
3.375 0 4.05
3.5 0 4.05
3.625 0 4.05
3.75 0 4.05
3.875 0 4.05
4 0 4.05
0 0.125 4.05
0.125 0.125 4.05
0.25 0.125 4.05
0.375 0.125 4.05
0.5 0.125 4.05
0.625 0.125 4.05
0.75 0.125 4.05
0.875 0.125 4.05
1 0.125 4.05
1.125 0.125 4.05
1.25 0.125 4.05
1.375 0.125 4.05
1.5 0.125 4.05
1.625 0.125 4.05
1.75 0.125 4.05
1.875 0.125 4.05
2 0.125 4.05
2.125 0.125 4.05
2.25 0.125 4.05
2.375 0.125 4.05
2.5 0.125 4.05
2.625 0.125 4.05
2.75 0.125 4.05
2.875 0.125 4.05
3 0.125 4.05
3.125 0.125 4.05
3.25 0.125 4.05
3.375 0.125 4.05
3.5 0.125 4.05
3.625 0.125 4.05
3.75 0.125 4.05
3.875 0.125 4.05
4 0.125 4.05
0 0.25 4.05
0.125 0.25 4.05
0.25 0.25 4.05
0.375 0.25 4.05
0.5 0.25 4.05
0.625 0.25 4.05
0.75 0.25 4.05
0.875 0.25 4.05
1 0.25 4.05
1.125 0.25 4.05
1.25 0.25 4.05
1.375 0.25 4.05
1.5 0.25 4.05
1.625 0.25 4.05
1.75 0.25 4.05
1.875 0.25 4.05
2 0.25 4.05
2.125 0.25 4.05
2.25 0.25 4.05
2.375 0.25 4.05
2.5 0.25 4.05
2.625 0.25 4.05
2.75 0.25 4.05
2.875 0.25 4.05
3 0.25 4.05
3.125 0.25 4.05
3.25 0.25 4.05
3.375 0.25 4.05
3.5 0.25 4.05
3.625 0.25 4.05
3.75 0.25 4.05
3.875 0.25 4.05
4 0.25 4.05
0 0.375 4.05
0.125 0.375 4.05
0.25 0.375 4.05
0.375 0.375 4.05
0.5 0.375 4.05
0.625 0.375 4.05
0.75 0.375 4.05
0.875 0.375 4.05
1 0.375 4.05
1.125 0.375 4.05
1.25 0.375 4.05
1.375 0.375 4.05
1.5 0.375 4.05
1.625 0.375 4.05
1.75 0.375 4.05
1.875 0.375 4.05
2 0.375 4.05
2.125 0.375 4.05
2.25 0.375 4.05
2.375 0.375 4.05
2.5 0.375 4.05
2.625 0.375 4.05
2.75 0.375 4.05
2.875 0.375 4.05
3 0.375 4.05
3.125 0.375 4.05
3.25 0.375 4.05
3.375 0.375 4.05
3.5 0.375 4.05
3.625 0.375 4.05
3.75 0.375 4.05
3.875 0.375 4.05
4 0.375 4.05
0 0.5 4.05
0.125 0.5 4.05
0.25 0.5 4.05
0.375 0.5 4.05
0.5 0.5 4.05
0.625 0.5 4.05
0.75 0.5 4.05
0.875 0.5 4.05
1 0.5 4.05
1.125 0.5 4.05
1.25 0.5 4.05
1.375 0.5 4.05
1.5 0.5 4.05
1.625 0.5 4.05
1.75 0.5 4.05
1.875 0.5 4.05
2 0.5 4.05
2.125 0.5 4.05
2.25 0.5 4.05
2.375 0.5 4.05
2.5 0.5 4.05
2.625 0.5 4.05
2.75 0.5 4.05
2.875 0.5 4.05
3 0.5 4.05
3.125 0.5 4.05
3.25 0.5 4.05
3.375 0.5 4.05
3.5 0.5 4.05
3.625 0.5 4.05
3.75 0.5 4.05
3.875 0.5 4.05
4 0.5 4.05
0 0.625 4.05
0.125 0.625 4.05
0.25 0.625 4.05
0.375 0.625 4.05
0.5 0.625 4.05
0.625 0.625 4.05
0.75 0.625 4.05
0.875 0.625 4.05
1 0.625 4.05
1.125 0.625 4.05
1.25 0.625 4.05
1.375 0.625 4.05
1.5 0.625 4.05
1.625 0.625 4.05
1.75 0.625 4.05
1.875 0.625 4.05
2 0.625 4.05
2.125 0.625 4.05
2.25 0.625 4.05
2.375 0.625 4.05
2.5 0.625 4.05
2.625 0.625 4.05
2.75 0.625 4.05
2.875 0.625 4.05
3 0.625 4.05
3.125 0.625 4.05
3.25 0.625 4.05
3.375 0.625 4.05
3.5 0.625 4.05
3.625 0.625 4.05
3.75 0.625 4.05
3.875 0.625 4.05
4 0.625 4.05
0 0.75 4.05
0.125 0.75 4.05
0.25 0.75 4.05
0.375 0.75 4.05
0.5 0.75 4.05
0.625 0.75 4.05
0.75 0.75 4.05
0.875 0.75 4.05
1 0.75 4.05
1.125 0.75 4.05
1.25 0.75 4.05
1.375 0.75 4.05
1.5 0.75 4.05
1.625 0.75 4.05
1.75 0.75 4.05
1.875 0.75 4.05
2 0.75 4.05
2.125 0.75 4.05
2.25 0.75 4.05
2.375 0.75 4.05
2.5 0.75 4.05
2.625 0.75 4.05
2.75 0.75 4.05
2.875 0.75 4.05
3 0.75 4.05
3.125 0.75 4.05
3.25 0.75 4.05
3.375 0.75 4.05
3.5 0.75 4.05
3.625 0.75 4.05
3.75 0.75 4.05
3.875 0.75 4.05
4 0.75 4.05
0 0.875 4.05
0.125 0.875 4.05
0.25 0.875 4.05
0.375 0.875 4.05
0.5 0.875 4.05
0.625 0.875 4.05
0.75 0.875 4.05
0.875 0.875 4.05
1 0.875 4.05
1.125 0.875 4.05
1.25 0.875 4.05
1.375 0.875 4.05
1.5 0.875 4.05
1.625 0.875 4.05
1.75 0.875 4.05
1.875 0.875 4.05
2 0.875 4.05
2.125 0.875 4.05
2.25 0.875 4.05
2.375 0.875 4.05
2.5 0.875 4.05
2.625 0.875 4.05
2.75 0.875 4.05
2.875 0.875 4.05
3 0.875 4.05
3.125 0.875 4.05
3.25 0.875 4.05
3.375 0.875 4.05
3.5 0.875 4.05
3.625 0.875 4.05
3.75 0.875 4.05
3.875 0.875 4.05
4 0.875 4.05
0 1 4.05
0.125 1 4.05
0.25 1 4.05
0.375 1 4.05
0.5 1 4.05
0.625 1 4.05
0.75 1 4.05
0.875 1 4.05
1 1 4.05
1.125 1 4.05
1.25 1 4.05
1.375 1 4.05
1.5 1 4.05
1.625 1 4.05
1.75 1 4.05
1.875 1 4.05
2 1 4.05
2.125 1 4.05
2.25 1 4.05
2.375 1 4.05
2.5 1 4.05
2.625 1 4.05
2.75 1 4.05
2.875 1 4.05
3 1 4.05
3.125 1 4.05
3.25 1 4.05
3.375 1 4.05
3.5 1 4.05
3.625 1 4.05
3.75 1 4.05
3.875 1 4.05
4 1 4.05
0 0 4.175
0.125 0 4.175
0.25 0 4.175
0.375 0 4.175
0.5 0 4.175
0.625 0 4.175
0.75 0 4.175
0.875 0 4.175
1 0 4.175
1.125 0 4.175
1.25 0 4.175
1.375 0 4.175
1.5 0 4.175
1.625 0 4.175
1.75 0 4.175
1.875 0 4.175
2 0 4.175
2.125 0 4.175
2.25 0 4.175
2.375 0 4.175
2.5 0 4.175
2.625 0 4.175
2.75 0 4.175
2.875 0 4.175
3 0 4.175
3.125 0 4.175
3.25 0 4.175
3.375 0 4.175
3.5 0 4.175
3.625 0 4.175
3.75 0 4.175
3.875 0 4.175
4 0 4.175
0 0.125 4.175
0.125 0.125 4.175
0.25 0.125 4.175
0.375 0.125 4.175
0.5 0.125 4.175
0.625 0.125 4.175
0.75 0.125 4.175
0.875 0.125 4.175
1 0.125 4.175
1.125 0.125 4.175
1.25 0.125 4.175
1.375 0.125 4.175
1.5 0.125 4.175
1.625 0.125 4.175
1.75 0.125 4.175
1.875 0.125 4.175
2 0.125 4.175
2.125 0.125 4.175
2.25 0.125 4.175
2.375 0.125 4.175
2.5 0.125 4.175
2.625 0.125 4.175
2.75 0.125 4.175
2.875 0.125 4.175
3 0.125 4.175
3.125 0.125 4.175
3.25 0.125 4.175
3.375 0.125 4.175
3.5 0.125 4.175
3.625 0.125 4.175
3.75 0.125 4.175
3.875 0.125 4.175
4 0.125 4.175
0 0.25 4.175
0.125 0.25 4.175
0.25 0.25 4.175
0.375 0.25 4.175
0.5 0.25 4.175
0.625 0.25 4.175
0.75 0.25 4.175
0.875 0.25 4.175
1 0.25 4.175
1.125 0.25 4.175
1.25 0.25 4.175
1.375 0.25 4.175
1.5 0.25 4.175
1.625 0.25 4.175
1.75 0.25 4.175
1.875 0.25 4.175
2 0.25 4.175
2.125 0.25 4.175
2.25 0.25 4.175
2.375 0.25 4.175
2.5 0.25 4.175
2.625 0.25 4.175
2.75 0.25 4.175
2.875 0.25 4.175
3 0.25 4.175
3.125 0.25 4.175
3.25 0.25 4.175
3.375 0.25 4.175
3.5 0.25 4.175
3.625 0.25 4.175
3.75 0.25 4.175
3.875 0.25 4.175
4 0.25 4.175
0 0.375 4.175
0.125 0.375 4.175
0.25 0.375 4.175
0.375 0.375 4.175
0.5 0.375 4.175
0.625 0.375 4.175
0.75 0.375 4.175
0.875 0.375 4.175
1 0.375 4.175
1.125 0.375 4.175
1.25 0.375 4.175
1.375 0.375 4.175
1.5 0.375 4.175
1.625 0.375 4.175
1.75 0.375 4.175
1.875 0.375 4.175
2 0.375 4.175
2.125 0.375 4.175
2.25 0.375 4.175
2.375 0.375 4.175
2.5 0.375 4.175
2.625 0.375 4.175
2.75 0.375 4.175
2.875 0.375 4.175
3 0.375 4.175
3.125 0.375 4.175
3.25 0.375 4.175
3.375 0.375 4.175
3.5 0.375 4.175
3.625 0.375 4.175
3.75 0.375 4.175
3.875 0.375 4.175
4 0.375 4.175
0 0.5 4.175
0.125 0.5 4.175
0.25 0.5 4.175
0.375 0.5 4.175
0.5 0.5 4.175
0.625 0.5 4.175
0.75 0.5 4.175
0.875 0.5 4.175
1 0.5 4.175
1.125 0.5 4.175
1.25 0.5 4.175
1.375 0.5 4.175
1.5 0.5 4.175
1.625 0.5 4.175
1.75 0.5 4.175
1.875 0.5 4.175
2 0.5 4.175
2.125 0.5 4.175
2.25 0.5 4.175
2.375 0.5 4.175
2.5 0.5 4.175
2.625 0.5 4.175
2.75 0.5 4.175
2.875 0.5 4.175
3 0.5 4.175
3.125 0.5 4.175
3.25 0.5 4.175
3.375 0.5 4.175
3.5 0.5 4.175
3.625 0.5 4.175
3.75 0.5 4.175
3.875 0.5 4.175
4 0.5 4.175
0 0.625 4.175
0.125 0.625 4.175
0.25 0.625 4.175
0.375 0.625 4.175
0.5 0.625 4.175
0.625 0.625 4.175
0.75 0.625 4.175
0.875 0.625 4.175
1 0.625 4.175
1.125 0.625 4.175
1.25 0.625 4.175
1.375 0.625 4.175
1.5 0.625 4.175
1.625 0.625 4.175
1.75 0.625 4.175
1.875 0.625 4.175
2 0.625 4.175
2.125 0.625 4.175
2.25 0.625 4.175
2.375 0.625 4.175
2.5 0.625 4.175
2.625 0.625 4.175
2.75 0.625 4.175
2.875 0.625 4.175
3 0.625 4.175
3.125 0.625 4.175
3.25 0.625 4.175
3.375 0.625 4.175
3.5 0.625 4.175
3.625 0.625 4.175
3.75 0.625 4.175
3.875 0.625 4.175
4 0.625 4.175
0 0.75 4.175
0.125 0.75 4.175
0.25 0.75 4.175
0.375 0.75 4.175
0.5 0.75 4.175
0.625 0.75 4.175
0.75 0.75 4.175
0.875 0.75 4.175
1 0.75 4.175
1.125 0.75 4.175
1.25 0.75 4.175
1.375 0.75 4.175
1.5 0.75 4.175
1.625 0.75 4.175
1.75 0.75 4.175
1.875 0.75 4.175
2 0.75 4.175
2.125 0.75 4.175
2.25 0.75 4.175
2.375 0.75 4.175
2.5 0.75 4.175
2.625 0.75 4.175
2.75 0.75 4.175
2.875 0.75 4.175
3 0.75 4.175
3.125 0.75 4.175
3.25 0.75 4.175
3.375 0.75 4.175
3.5 0.75 4.175
3.625 0.75 4.175
3.75 0.75 4.175
3.875 0.75 4.175
4 0.75 4.175
0 0.875 4.175
0.125 0.875 4.175
0.25 0.875 4.175
0.375 0.875 4.175
0.5 0.875 4.175
0.625 0.875 4.175
0.75 0.875 4.175
0.875 0.875 4.175
1 0.875 4.175
1.125 0.875 4.175
1.25 0.875 4.175
1.375 0.875 4.175
1.5 0.875 4.175
1.625 0.875 4.175
1.75 0.875 4.175
1.875 0.875 4.175
2 0.875 4.175
2.125 0.875 4.175
2.25 0.875 4.175
2.375 0.875 4.175
2.5 0.875 4.175
2.625 0.875 4.175
2.75 0.875 4.175
2.875 0.875 4.175
3 0.875 4.175
3.125 0.875 4.175
3.25 0.875 4.175
3.375 0.875 4.175
3.5 0.875 4.175
3.625 0.875 4.175
3.75 0.875 4.175
3.875 0.875 4.175
4 0.875 4.175
0 1 4.175
0.125 1 4.175
0.25 1 4.175
0.375 1 4.175
0.5 1 4.175
0.625 1 4.175
0.75 1 4.175
0.875 1 4.175
1 1 4.175
1.125 1 4.175
1.25 1 4.175
1.375 1 4.175
1.5 1 4.175
1.625 1 4.175
1.75 1 4.175
1.875 1 4.175
2 1 4.175
2.125 1 4.175
2.25 1 4.175
2.375 1 4.175
2.5 1 4.175
2.625 1 4.175
2.75 1 4.175
2.875 1 4.175
3 1 4.175
3.125 1 4.175
3.25 1 4.175
3.375 1 4.175
3.5 1 4.175
3.625 1 4.175
3.75 1 4.175
3.875 1 4.175
4 1 4.175
0 0 4.3
0.125 0 4.3
0.25 0 4.3
0.375 0 4.3
0.5 0 4.3
0.625 0 4.3
0.75 0 4.3
0.875 0 4.3
1 0 4.3
1.125 0 4.3
1.25 0 4.3
1.375 0 4.3
1.5 0 4.3
1.625 0 4.3
1.75 0 4.3
1.875 0 4.3
2 0 4.3
2.125 0 4.3
2.25 0 4.3
2.375 0 4.3
2.5 0 4.3
2.625 0 4.3
2.75 0 4.3
2.875 0 4.3
3 0 4.3
3.125 0 4.3
3.25 0 4.3
3.375 0 4.3
3.5 0 4.3
3.625 0 4.3
3.75 0 4.3
3.875 0 4.3
4 0 4.3
0 0.125 4.3
0.125 0.125 4.3
0.25 0.125 4.3
0.375 0.125 4.3
0.5 0.125 4.3
0.625 0.125 4.3
0.75 0.125 4.3
0.875 0.125 4.3
1 0.125 4.3
1.125 0.125 4.3
1.25 0.125 4.3
1.375 0.125 4.3
1.5 0.125 4.3
1.625 0.125 4.3
1.75 0.125 4.3
1.875 0.125 4.3
2 0.125 4.3
2.125 0.125 4.3
2.25 0.125 4.3
2.375 0.125 4.3
2.5 0.125 4.3
2.625 0.125 4.3
2.75 0.125 4.3
2.875 0.125 4.3
3 0.125 4.3
3.125 0.125 4.3
3.25 0.125 4.3
3.375 0.125 4.3
3.5 0.125 4.3
3.625 0.125 4.3
3.75 0.125 4.3
3.875 0.125 4.3
4 0.125 4.3
0 0.25 4.3
0.125 0.25 4.3
0.25 0.25 4.3
0.375 0.25 4.3
0.5 0.25 4.3
0.625 0.25 4.3
0.75 0.25 4.3
0.875 0.25 4.3
1 0.25 4.3
1.125 0.25 4.3
1.25 0.25 4.3
1.375 0.25 4.3
1.5 0.25 4.3
1.625 0.25 4.3
1.75 0.25 4.3
1.875 0.25 4.3
2 0.25 4.3
2.125 0.25 4.3
2.25 0.25 4.3
2.375 0.25 4.3
2.5 0.25 4.3
2.625 0.25 4.3
2.75 0.25 4.3
2.875 0.25 4.3
3 0.25 4.3
3.125 0.25 4.3
3.25 0.25 4.3
3.375 0.25 4.3
3.5 0.25 4.3
3.625 0.25 4.3
3.75 0.25 4.3
3.875 0.25 4.3
4 0.25 4.3
0 0.375 4.3
0.125 0.375 4.3
0.25 0.375 4.3
0.375 0.375 4.3
0.5 0.375 4.3
0.625 0.375 4.3
0.75 0.375 4.3
0.875 0.375 4.3
1 0.375 4.3
1.125 0.375 4.3
1.25 0.375 4.3
1.375 0.375 4.3
1.5 0.375 4.3
1.625 0.375 4.3
1.75 0.375 4.3
1.875 0.375 4.3
2 0.375 4.3
2.125 0.375 4.3
2.25 0.375 4.3
2.375 0.375 4.3
2.5 0.375 4.3
2.625 0.375 4.3
2.75 0.375 4.3
2.875 0.375 4.3
3 0.375 4.3
3.125 0.375 4.3
3.25 0.375 4.3
3.375 0.375 4.3
3.5 0.375 4.3
3.625 0.375 4.3
3.75 0.375 4.3
3.875 0.375 4.3
4 0.375 4.3
0 0.5 4.3
0.125 0.5 4.3
0.25 0.5 4.3
0.375 0.5 4.3
0.5 0.5 4.3
0.625 0.5 4.3
0.75 0.5 4.3
0.875 0.5 4.3
1 0.5 4.3
1.125 0.5 4.3
1.25 0.5 4.3
1.375 0.5 4.3
1.5 0.5 4.3
1.625 0.5 4.3
1.75 0.5 4.3
1.875 0.5 4.3
2 0.5 4.3
2.125 0.5 4.3
2.25 0.5 4.3
2.375 0.5 4.3
2.5 0.5 4.3
2.625 0.5 4.3
2.75 0.5 4.3
2.875 0.5 4.3
3 0.5 4.3
3.125 0.5 4.3
3.25 0.5 4.3
3.375 0.5 4.3
3.5 0.5 4.3
3.625 0.5 4.3
3.75 0.5 4.3
3.875 0.5 4.3
4 0.5 4.3
0 0.625 4.3
0.125 0.625 4.3
0.25 0.625 4.3
0.375 0.625 4.3
0.5 0.625 4.3
0.625 0.625 4.3
0.75 0.625 4.3
0.875 0.625 4.3
1 0.625 4.3
1.125 0.625 4.3
1.25 0.625 4.3
1.375 0.625 4.3
1.5 0.625 4.3
1.625 0.625 4.3
1.75 0.625 4.3
1.875 0.625 4.3
2 0.625 4.3
2.125 0.625 4.3
2.25 0.625 4.3
2.375 0.625 4.3
2.5 0.625 4.3
2.625 0.625 4.3
2.75 0.625 4.3
2.875 0.625 4.3
3 0.625 4.3
3.125 0.625 4.3
3.25 0.625 4.3
3.375 0.625 4.3
3.5 0.625 4.3
3.625 0.625 4.3
3.75 0.625 4.3
3.875 0.625 4.3
4 0.625 4.3
0 0.75 4.3
0.125 0.75 4.3
0.25 0.75 4.3
0.375 0.75 4.3
0.5 0.75 4.3
0.625 0.75 4.3
0.75 0.75 4.3
0.875 0.75 4.3
1 0.75 4.3
1.125 0.75 4.3
1.25 0.75 4.3
1.375 0.75 4.3
1.5 0.75 4.3
1.625 0.75 4.3
1.75 0.75 4.3
1.875 0.75 4.3
2 0.75 4.3
2.125 0.75 4.3
2.25 0.75 4.3
2.375 0.75 4.3
2.5 0.75 4.3
2.625 0.75 4.3
2.75 0.75 4.3
2.875 0.75 4.3
3 0.75 4.3
3.125 0.75 4.3
3.25 0.75 4.3
3.375 0.75 4.3
3.5 0.75 4.3
3.625 0.75 4.3
3.75 0.75 4.3
3.875 0.75 4.3
4 0.75 4.3
0 0.875 4.3
0.125 0.875 4.3
0.25 0.875 4.3
0.375 0.875 4.3
0.5 0.875 4.3
0.625 0.875 4.3
0.75 0.875 4.3
0.875 0.875 4.3
1 0.875 4.3
1.125 0.875 4.3
1.25 0.875 4.3
1.375 0.875 4.3
1.5 0.875 4.3
1.625 0.875 4.3
1.75 0.875 4.3
1.875 0.875 4.3
2 0.875 4.3
2.125 0.875 4.3
2.25 0.875 4.3
2.375 0.875 4.3
2.5 0.875 4.3
2.625 0.875 4.3
2.75 0.875 4.3
2.875 0.875 4.3
3 0.875 4.3
3.125 0.875 4.3
3.25 0.875 4.3
3.375 0.875 4.3
3.5 0.875 4.3
3.625 0.875 4.3
3.75 0.875 4.3
3.875 0.875 4.3
4 0.875 4.3
0 1 4.3
0.125 1 4.3
0.25 1 4.3
0.375 1 4.3
0.5 1 4.3
0.625 1 4.3
0.75 1 4.3
0.875 1 4.3
1 1 4.3
1.125 1 4.3
1.25 1 4.3
1.375 1 4.3
1.5 1 4.3
1.625 1 4.3
1.75 1 4.3
1.875 1 4.3
2 1 4.3
2.125 1 4.3
2.25 1 4.3
2.375 1 4.3
2.5 1 4.3
2.625 1 4.3
2.75 1 4.3
2.875 1 4.3
3 1 4.3
3.125 1 4.3
3.25 1 4.3
3.375 1 4.3
3.5 1 4.3
3.625 1 4.3
3.75 1 4.3
3.875 1 4.3
4 1 4.3

CELLS 2049 16384
OFFSETS vtktypeint64
0 8 16 24 32 40 48 56 64 72 80 88 96 104 112 120 128 136 144 152 160 168 176 184 192 200 208 216 224 232 240 248 256 264 272 280 288 296 304 312 320 328 336 344 352 360 368 376 384 392 400 408 416 424 432 440 448 456 464 472 480 488 496 504 512 520 528 536 544 552 560 568 576 584 592 600 608 616 624 632 640 648 656 664 672 680 688 696 704 712 720 728 736 744 752 760 768 776 784 792 800 808 816 824 832 840 848 856 864 872 880 888 896 904 912 920 928 936 944 952 960 968 976 984 992 1000 1008 1016 1024 1032 1040 1048 1056 1064 1072 1080 1088 1096 1104 1112 1120 1128 1136 1144 1152 1160 1168 1176 1184 1192 1200 1208 1216 1224 1232 1240 1248 1256 1264 1272 1280 1288 1296 1304 1312 1320 1328 1336 1344 1352 1360 1368 1376 1384 1392 1400 1408 1416 1424 1432 1440 1448 1456 1464 1472 1480 1488 1496 1504 1512 1520 1528 1536 1544 1552 1560 1568 1576 1584 1592 1600 1608 1616 1624 1632 1640 1648 1656 1664 1672 1680 1688 1696 1704 1712 1720 1728 1736 1744 1752 1760 1768 1776 1784 1792 1800 1808 1816 1824 1832 1840 1848 1856 1864 1872 1880 1888 1896 1904 1912 1920 1928 1936 1944 1952 1960 1968 1976 1984 1992 2000 2008 2016 2024 2032 2040 2048 2056 2064 2072 2080 2088 2096 2104 2112 2120 2128 2136 2144 2152 2160 2168 2176 2184 2192 2200 2208 2216 2224 2232 2240 2248 2256 2264 2272 2280 2288 2296 2304 2312 2320 2328 2336 2344 2352 2360 2368 2376 2384 2392 2400 2408 2416 2424 2432 2440 2448 2456 2464 2472 2480 2488 2496 2504 2512 2520 2528 2536 2544 2552 2560 2568 2576 2584 2592 2600 2608 2616 2624 2632 2640 2648 2656 2664 2672 2680 2688 2696 2704 2712 2720 2728 2736 2744 2752 2760 2768 2776 2784 2792 2800 2808 2816 2824 2832 2840 2848 2856 2864 2872 2880 2888 2896 2904 2912 2920 2928 2936 2944 2952 2960 2968 2976 2984 2992 3000 3008 3016 3024 3032 3040 3048 3056 3064 3072 3080 3088 3096 3104 3112 3120 3128 3136 3144 3152 3160 3168 3176 3184 3192 3200 3208 3216 3224 3232 3240 3248 3256 3264 3272 3280 3288 3296 3304 3312 3320 3328 3336 3344 3352 3360 3368 3376 3384 3392 3400 3408 3416 3424 3432 3440 3448 3456 3464 3472 3480 3488 3496 3504 3512 3520 3528 3536 3544 3552 3560 3568 3576 3584 3592 3600 3608 3616 3624 3632 3640 3648 3656 3664 3672 3680 3688 3696 3704 3712 3720 3728 3736 3744 3752 3760 3768 3776 3784 3792 3800 3808 3816 3824 3832 3840 3848 3856 3864 3872 3880 3888 3896 3904 3912 3920 3928 3936 3944 3952 3960 3968 3976 3984 3992 4000 4008 4016 4024 4032 4040 4048 4056 4064 4072 4080 4088 4096 4104 4112 4120 4128 4136 4144 4152 4160 4168 4176 4184 4192 4200 4208 4216 4224 4232 4240 4248 4256 4264 4272 4280 4288 4296 4304 4312 4320 4328 4336 4344 4352 4360 4368 4376 4384 4392 4400 4408 4416 4424 4432 4440 4448 4456 4464 4472 4480 4488 4496 4504 4512 4520 4528 4536 4544 4552 4560 4568 4576 4584 4592 4600 4608 4616 4624 4632 4640 4648 4656 4664 4672 4680 4688 4696 4704 4712 4720 4728 4736 4744 4752 4760 4768 4776 4784 4792 4800 4808 4816 4824 4832 4840 4848 4856 4864 4872 4880 4888 4896 4904 4912 4920 4928 4936 4944 4952 4960 4968 4976 4984 4992 5000 5008 5016 5024 5032 5040 5048 5056 5064 5072 5080 5088 5096 5104 5112 5120 5128 5136 5144 5152 5160 5168 5176 5184 5192 5200 5208 5216 5224 5232 5240 5248 5256 5264 5272 5280 5288 5296 5304 5312 5320 5328 5336 5344 5352 5360 5368 5376 5384 5392 5400 5408 5416 5424 5432 5440 5448 5456 5464 5472 5480 5488 5496 5504 5512 5520 5528 5536 5544 5552 5560 5568 5576 5584 5592 5600 5608 5616 5624 5632 5640 5648 5656 5664 5672 5680 5688 5696 5704 5712 5720 5728 5736 5744 5752 5760 5768 5776 5784 5792 5800 5808 5816 5824 5832 5840 5848 5856 5864 5872 5880 5888 5896 5904 5912 5920 5928 5936 5944 5952 5960 5968 5976 5984 5992 6000 6008 6016 6024 6032 6040 6048 6056 6064 6072 6080 6088 6096 6104 6112 6120 6128 6136 6144 6152 6160 6168 6176 6184 6192 6200 6208 6216 6224 6232 6240 6248 6256 6264 6272 6280 6288 6296 6304 6312 6320 6328 6336 6344 6352 6360 6368 6376 6384 6392 6400 6408 6416 6424 6432 6440 6448 6456 6464 6472 6480 6488 6496 6504 6512 6520 6528 6536 6544 6552 6560 6568 6576 6584 6592 6600 6608 6616 6624 6632 6640 6648 6656 6664 6672 6680 6688 6696 6704 6712 6720 6728 6736 6744 6752 6760 6768 6776 6784 6792 6800 6808 6816 6824 6832 6840 6848 6856 6864 6872 6880 6888 6896 6904 6912 6920 6928 6936 6944 6952 6960 6968 6976 6984 6992 7000 7008 7016 7024 7032 7040 7048 7056 7064 7072 7080 7088 7096 7104 7112 7120 7128 7136 7144 7152 7160 7168 7176 7184 7192 7200 7208 7216 7224 7232 7240 7248 7256 7264 7272 7280 7288 7296 7304 7312 7320 7328 7336 7344 7352 7360 7368 7376 7384 7392 7400 7408 7416 7424 7432 7440 7448 7456 7464 7472 7480 7488 7496 7504 7512 7520 7528 7536 7544 7552 7560 7568 7576 7584 7592 7600 7608 7616 7624 7632 7640 7648 7656 7664 7672 7680 7688 7696 7704 7712 7720 7728 7736 7744 7752 7760 7768 7776 7784 7792 7800 7808 7816 7824 7832 7840 7848 7856 7864 7872 7880 7888 7896 7904 7912 7920 7928 7936 7944 7952 7960 7968 7976 7984 7992 8000 8008 8016 8024 8032 8040 8048 8056 8064 8072 8080 8088 8096 8104 8112 8120 8128 8136 8144 8152 8160 8168 8176 8184 8192 8200 8208 8216 8224 8232 8240 8248 8256 8264 8272 8280 8288 8296 8304 8312 8320 8328 8336 8344 8352 8360 8368 8376 8384 8392 8400 8408 8416 8424 8432 8440 8448 8456 8464 8472 8480 8488 8496 8504 8512 8520 8528 8536 8544 8552 8560 8568 8576 8584 8592 8600 8608 8616 8624 8632 8640 8648 8656 8664 8672 8680 8688 8696 8704 8712 8720 8728 8736 8744 8752 8760 8768 8776 8784 8792 8800 8808 8816 8824 8832 8840 8848 8856 8864 8872 8880 8888 8896 8904 8912 8920 8928 8936 8944 8952 8960 8968 8976 8984 8992 9000 9008 9016 9024 9032 9040 9048 9056 9064 9072 9080 9088 9096 9104 9112 9120 9128 9136 9144 9152 9160 9168 9176 9184 9192 9200 9208 9216 9224 9232 9240 9248 9256 9264 9272 9280 9288 9296 9304 9312 9320 9328 9336 9344 9352 9360 9368 9376 9384 9392 9400 9408 9416 9424 9432 9440 9448 9456 9464 9472 9480 9488 9496 9504 9512 9520 9528 9536 9544 9552 9560 9568 9576 9584 9592 9600 9608 9616 9624 9632 9640 9648 9656 9664 9672 9680 9688 9696 9704 9712 9720 9728 9736 9744 9752 9760 9768 9776 9784 9792 9800 9808 9816 9824 9832 9840 9848 9856 9864 9872 9880 9888 9896 9904 9912 9920 9928 9936 9944 9952 9960 9968 9976 9984 9992 10000 10008 10016 10024 10032 10040 10048 10056 10064 10072 10080 10088 10096 10104 10112 10120 10128 10136 10144 10152 10160 10168 10176 10184 10192 10200 10208 10216 10224 10232 10240 10248 10256 10264 10272 10280 10288 10296 10304 10312 10320 10328 10336 10344 10352 10360 10368 10376 10384 10392 10400 10408 10416 10424 10432 10440 10448 10456 10464 10472 10480 10488 10496 10504 10512 10520 10528 10536 10544 10552 10560 10568 10576 10584 10592 10600 10608 10616 10624 10632 10640 10648 10656 10664 10672 10680 10688 10696 10704 10712 10720 10728 10736 10744 10752 10760 10768 10776 10784 10792 10800 10808 10816 10824 10832 10840 10848 10856 10864 10872 10880 10888 10896 10904 10912 10920 10928 10936 10944 10952 10960 10968 10976 10984 10992 11000 11008 11016 11024 11032 11040 11048 11056 11064 11072 11080 11088 11096 11104 11112 11120 11128 11136 11144 11152 11160 11168 11176 11184 11192 11200 11208 11216 11224 11232 11240 11248 11256 11264 11272 11280 11288 11296 11304 11312 11320 11328 11336 11344 11352 11360 11368 11376 11384 11392 11400 11408 11416 11424 11432 11440 11448 11456 11464 11472 11480 11488 11496 11504 11512 11520 11528 11536 11544 11552 11560 11568 11576 11584 11592 11600 11608 11616 11624 11632 11640 11648 11656 11664 11672 11680 11688 11696 11704 11712 11720 11728 11736 11744 11752 11760 11768 11776 11784 11792 11800 11808 11816 11824 11832 11840 11848 11856 11864 11872 11880 11888 11896 11904 11912 11920 11928 11936 11944 11952 11960 11968 11976 11984 11992 12000 12008 12016 12024 12032 12040 12048 12056 12064 12072 12080 12088 12096 12104 12112 12120 12128 12136 12144 12152 12160 12168 12176 12184 12192 12200 12208 12216 12224 12232 12240 12248 12256 12264 12272 12280 12288 12296 12304 12312 12320 12328 12336 12344 12352 12360 12368 12376 12384 12392 12400 12408 12416 12424 12432 12440 12448 12456 12464 12472 12480 12488 12496 12504 12512 12520 12528 12536 12544 12552 12560 12568 12576 12584 12592 12600 12608 12616 12624 12632 12640 12648 12656 12664 12672 12680 12688 12696 12704 12712 12720 12728 12736 12744 12752 12760 12768 12776 12784 12792 12800 12808 12816 12824 12832 12840 12848 12856 12864 12872 12880 12888 12896 12904 12912 12920 12928 12936 12944 12952 12960 12968 12976 12984 12992 13000 13008 13016 13024 13032 13040 13048 13056 13064 13072 13080 13088 13096 13104 13112 13120 13128 13136 13144 13152 13160 13168 13176 13184 13192 13200 13208 13216 13224 13232 13240 13248 13256 13264 13272 13280 13288 13296 13304 13312 13320 13328 13336 13344 13352 13360 13368 13376 13384 13392 13400 13408 13416 13424 13432 13440 13448 13456 13464 13472 13480 13488 13496 13504 13512 13520 13528 13536 13544 13552 13560 13568 13576 13584 13592 13600 13608 13616 13624 13632 13640 13648 13656 13664 13672 13680 13688 13696 13704 13712 13720 13728 13736 13744 13752 13760 13768 13776 13784 13792 13800 13808 13816 13824 13832 13840 13848 13856 13864 13872 13880 13888 13896 13904 13912 13920 13928 13936 13944 13952 13960 13968 13976 13984 13992 14000 14008 14016 14024 14032 14040 14048 14056 14064 14072 14080 14088 14096 14104 14112 14120 14128 14136 14144 14152 14160 14168 14176 14184 14192 14200 14208 14216 14224 14232 14240 14248 14256 14264 14272 14280 14288 14296 14304 14312 14320 14328 14336 14344 14352 14360 14368 14376 14384 14392 14400 14408 14416 14424 14432 14440 14448 14456 14464 14472 14480 14488 14496 14504 14512 14520 14528 14536 14544 14552 14560 14568 14576 14584 14592 14600 14608 14616 14624 14632 14640 14648 14656 14664 14672 14680 14688 14696 14704 14712 14720 14728 14736 14744 14752 14760 14768 14776 14784 14792 14800 14808 14816 14824 14832 14840 14848 14856 14864 14872 14880 14888 14896 14904 14912 14920 14928 14936 14944 14952 14960 14968 14976 14984 14992 15000 15008 15016 15024 15032 15040 15048 15056 15064 15072 15080 15088 15096 15104 15112 15120 15128 15136 15144 15152 15160 15168 15176 15184 15192 15200 15208 15216 15224 15232 15240 15248 15256 15264 15272 15280 15288 15296 15304 15312 15320 15328 15336 15344 15352 15360 15368 15376 15384 15392 15400 15408 15416 15424 15432 15440 15448 15456 15464 15472 15480 15488 15496 15504 15512 15520 15528 15536 15544 15552 15560 15568 15576 15584 15592 15600 15608 15616 15624 15632 15640 15648 15656 15664 15672 15680 15688 15696 15704 15712 15720 15728 15736 15744 15752 15760 15768 15776 15784 15792 15800 15808 15816 15824 15832 15840 15848 15856 15864 15872 15880 15888 15896 15904 15912 15920 15928 15936 15944 15952 15960 15968 15976 15984 15992 16000 16008 16016 16024 16032 16040 16048 16056 16064 16072 16080 16088 16096 16104 16112 16120 16128 16136 16144 16152 16160 16168 16176 16184 16192 16200 16208 16216 16224 16232 16240 16248 16256 16264 16272 16280 16288 16296 16304 16312 16320 16328 16336 16344 16352 16360 16368 16376 16384 
CONNECTIVITY vtktypeint64
0 1 298 297 33 34 331 330 
1 2 299 298 34 35 332 331 
2 3 300 299 35 36 333 332 
3 4 301 300 36 37 334 333 
4 5 302 301 37 38 335 334 
5 6 303 302 38 39 336 335 
6 7 304 303 39 40 337 336 
7 8 305 304 40 41 338 337 
8 9 306 305 41 42 339 338 
9 10 307 306 42 43 340 339 
10 11 308 307 43 44 341 340 
11 12 309 308 44 45 342 341 
12 13 310 309 45 46 343 342 
13 14 311 310 46 47 344 343 
14 15 312 311 47 48 345 344 
15 16 313 312 48 49 346 345 
16 17 314 313 49 50 347 346 
17 18 315 314 50 51 348 347 
18 19 316 315 51 52 349 348 
19 20 317 316 52 53 350 349 
20 21 318 317 53 54 351 350 
21 22 319 318 54 55 352 351 
22 23 320 319 55 56 353 352 
23 24 321 320 56 57 354 353 
24 25 322 321 57 58 355 354 
25 26 323 322 58 59 356 355 
26 27 324 323 59 60 357 356 
27 28 325 324 60 61 358 357 
28 29 326 325 61 62 359 358 
29 30 327 326 62 63 360 359 
30 31 328 327 63 64 361 360 
31 32 329 328 64 65 362 361 
33 34 331 330 66 67 364 363 
34 35 332 331 67 68 365 364 
35 36 333 332 68 69 366 365 
36 37 334 333 69 70 367 366 
37 38 335 334 70 71 368 367 
38 39 336 335 71 72 369 368 
39 40 337 336 72 73 370 369 
40 41 338 337 73 74 371 370 
41 42 339 338 74 75 372 371 
42 43 340 339 75 76 373 372 
43 44 341 340 76 77 374 373 
44 45 342 341 77 78 375 374 
45 46 343 342 78 79 376 375 
46 47 344 343 79 80 377 376 
47 48 345 344 80 81 378 377 
48 49 346 345 81 82 379 378 
49 50 347 346 82 83 380 379 
50 51 348 347 83 84 381 380 
51 52 349 348 84 85 382 381 
52 53 350 349 85 86 383 382 
53 54 351 350 86 87 384 383 
54 55 352 351 87 88 385 384 
55 56 353 352 88 89 386 385 
56 57 354 353 89 90 387 386 
57 58 355 354 90 91 388 387 
58 59 356 355 91 92 389 388 
59 60 357 356 92 93 390 389 
60 61 358 357 93 94 391 390 
61 62 359 358 94 95 392 391 
62 63 360 359 95 96 393 392 
63 64 361 360 96 97 394 393 
64 65 362 361 97 98 395 394 
66 67 364 363 99 100 397 396 
67 68 365 364 100 101 398 397 
68 69 366 365 101 102 399 398 
69 70 367 366 102 103 400 399 
70 71 368 367 103 104 401 400 
71 72 369 368 104 105 402 401 
72 73 370 369 105 106 403 402 
73 74 371 370 106 107 404 403 
74 75 372 371 107 108 405 404 
75 76 373 372 108 109 406 405 
76 77 374 373 109 110 407 406 
77 78 375 374 110 111 408 407 
78 79 376 375 111 112 409 408 
79 80 377 376 112 113 410 409 
80 81 378 377 113 114 411 410 
81 82 379 378 114 115 412 411 
82 83 380 379 115 116 413 412 
83 84 381 380 116 117 414 413 
84 85 382 381 117 118 415 414 
85 86 383 382 118 119 416 415 
86 87 384 383 119 120 417 416 
87 88 385 384 120 121 418 417 
88 89 386 385 121 122 419 418 
89 90 387 386 122 123 420 419 
90 91 388 387 123 124 421 420 
91 92 389 388 124 125 422 421 
92 93 390 389 125 126 423 422 
93 94 391 390 126 127 424 423 
94 95 392 391 127 128 425 424 
95 96 393 392 128 129 426 425 
96 97 394 393 129 130 427 426 
97 98 395 394 130 131 428 427 
99 100 397 396 132 133 430 429 
100 101 398 397 133 134 431 430 
101 102 399 398 134 135 432 431 
102 103 400 399 135 136 433 432 
103 104 401 400 136 137 434 433 
104 105 402 401 137 138 435 434 
105 106 403 402 138 139 436 435 
106 107 404 403 139 140 437 436 
107 108 405 404 140 141 438 437 
108 109 406 405 141 142 439 438 
109 110 407 406 142 143 440 439 
110 111 408 407 143 144 441 440 
111 112 409 408 144 145 442 441 
112 113 410 409 145 146 443 442 
113 114 411 410 146 147 444 443 
114 115 412 411 147 148 445 444 
115 116 413 412 148 149 446 445 
116 117 414 413 149 150 447 446 
117 118 415 414 150 151 448 447 
118 119 416 415 151 152 449 448 
119 120 417 416 152 153 450 449 
120 121 418 417 153 154 451 450 
121 122 419 418 154 155 452 451 
122 123 420 419 155 156 453 452 
123 124 421 420 156 157 454 453 
124 125 422 421 157 158 455 454 
125 126 423 422 158 159 456 455 
126 127 424 423 159 160 457 456 
127 128 425 424 160 161 458 457 
128 129 426 425 161 162 459 458 
129 130 427 426 162 163 460 459 
130 131 428 427 163 164 461 460 
132 133 430 429 165 166 463 462 
133 134 431 430 166 167 464 463 
134 135 432 431 167 168 465 464 
135 136 433 432 168 169 466 465 
136 137 434 433 169 170 467 466 
137 138 435 434 170 171 468 467 
138 139 436 435 171 172 469 468 
139 140 437 436 172 173 470 469 
140 141 438 437 173 174 471 470 
141 142 439 438 174 175 472 471 
142 143 440 439 175 176 473 472 
143 144 441 440 176 177 474 473 
144 145 442 441 177 178 475 474 
145 146 443 442 178 179 476 475 
146 147 444 443 179 180 477 476 
147 148 445 444 180 181 478 477 
148 149 446 445 181 182 479 478 
149 150 447 446 182 183 480 479 
150 151 448 447 183 184 481 480 
151 152 449 448 184 185 482 481 
152 153 450 449 185 186 483 482 
153 154 451 450 186 187 484 483 
154 155 452 451 187 188 485 484 
155 156 453 452 188 189 486 485 
156 157 454 453 189 190 487 486 
157 158 455 454 190 191 488 487 
158 159 456 455 191 192 489 488 
159 160 457 456 192 193 490 489 
160 161 458 457 193 194 491 490 
161 162 459 458 194 195 492 491 
162 163 460 459 195 196 493 492 
163 164 461 460 196 197 494 493 
165 166 463 462 198 199 496 495 
166 167 464 463 199 200 497 496 
167 168 465 464 200 201 498 497 
168 169 466 465 201 202 499 498 
169 170 467 466 202 203 500 499 
170 171 468 467 203 204 501 500 
171 172 469 468 204 205 502 501 
172 173 470 469 205 206 503 502 
173 174 471 470 206 207 504 503 
174 175 472 471 207 208 505 504 
175 176 473 472 208 209 506 505 
176 177 474 473 209 210 507 506 
177 178 475 474 210 211 508 507 
178 179 476 475 211 212 509 508 
179 180 477 476 212 213 510 509 
180 181 478 477 213 214 511 510 
181 182 479 478 214 215 512 511 
182 183 480 479 215 216 513 512 
183 184 481 480 216 217 514 513 
184 185 482 481 217 218 515 514 
185 186 483 482 218 219 516 515 
186 187 484 483 219 220 517 516 
187 188 485 484 220 221 518 517 
188 189 486 485 221 222 519 518 
189 190 487 486 222 223 520 519 
190 191 488 487 223 224 521 520 
191 192 489 488 224 225 522 521 
192 193 490 489 225 226 523 522 
193 194 491 490 226 227 524 523 
194 195 492 491 227 228 525 524 
195 196 493 492 228 229 526 525 
196 197 494 493 229 230 527 526 
198 199 496 495 231 232 529 528 
199 200 497 496 232 233 530 529 
200 201 498 497 233 234 531 530 
201 202 499 498 234 235 532 531 
202 203 500 499 235 236 533 532 
203 204 501 500 236 237 534 533 
204 205 502 501 237 238 535 534 
205 206 503 502 238 239 536 535 
206 207 504 503 239 240 537 536 
207 208 505 504 240 241 538 537 
208 209 506 505 241 242 539 538 
209 210 507 506 242 243 540 539 
210 211 508 507 243 244 541 540 
211 212 509 508 244 245 542 541 
212 213 510 509 245 246 543 542 
213 214 511 510 246 247 544 543 
214 215 512 511 247 248 545 544 
215 216 513 512 248 249 546 545 
216 217 514 513 249 250 547 546 
217 218 515 514 250 251 548 547 
218 219 516 515 251 252 549 548 
219 220 517 516 252 253 550 549 
220 221 518 517 253 254 551 550 
221 222 519 518 254 255 552 551 
222 223 520 519 255 256 553 552 
223 224 521 520 256 257 554 553 
224 225 522 521 257 258 555 554 
225 226 523 522 258 259 556 555 
226 227 524 523 259 260 557 556 
227 228 525 524 260 261 558 557 
228 229 526 525 261 262 559 558 
229 230 527 526 262 263 560 559 
231 232 529 528 264 265 562 561 
232 233 530 529 265 266 563 562 
233 234 531 530 266 267 564 563 
234 235 532 531 267 268 565 564 
235 236 533 532 268 269 566 565 
236 237 534 533 269 270 567 566 
237 238 535 534 270 271 568 567 
238 239 536 535 271 272 569 568 
239 240 537 536 272 273 570 569 
240 241 538 537 273 274 571 570 
241 242 539 538 274 275 572 571 
242 243 540 539 275 276 573 572 
243 244 541 540 276 277 574 573 
244 245 542 541 277 278 575 574 
245 246 543 542 278 279 576 575 
246 247 544 543 279 280 577 576 
247 248 545 544 280 281 578 577 
248 249 546 545 281 282 579 578 
249 250 547 546 282 283 580 579 
250 251 548 547 283 284 581 580 
251 252 549 548 284 285 582 581 
252 253 550 549 285 286 583 582 
253 254 551 550 286 287 584 583 
254 255 552 551 287 288 585 584 
255 256 553 552 288 289 586 585 
256 257 554 553 289 290 587 586 
257 258 555 554 290 291 588 587 
258 259 556 555 291 292 589 588 
259 260 557 556 292 293 590 589 
260 261 558 557 293 294 591 590 
261 262 559 558 294 295 592 591 
262 263 560 559 295 296 593 592 
297 298 595 594 330 331 628 627 
298 299 596 595 331 332 629 628 
299 300 597 596 332 333 630 629 
300 301 598 597 333 334 631 630 
301 302 599 598 334 335 632 631 
302 303 600 599 335 336 633 632 
303 304 601 600 336 337 634 633 
304 305 602 601 337 338 635 634 
305 306 603 602 338 339 636 635 
306 307 604 603 339 340 637 636 
307 308 605 604 340 341 638 637 
308 309 606 605 341 342 639 638 
309 310 607 606 342 343 640 639 
310 311 608 607 343 344 641 640 
311 312 609 608 344 345 642 641 
312 313 610 609 345 346 643 642 
313 314 611 610 346 347 644 643 
314 315 612 611 347 348 645 644 
315 316 613 612 348 349 646 645 
316 317 614 613 349 350 647 646 
317 318 615 614 350 351 648 647 
318 319 616 615 351 352 649 648 
319 320 617 616 352 353 650 649 
320 321 618 617 353 354 651 650 
321 322 619 618 354 355 652 651 
322 323 620 619 355 356 653 652 
323 324 621 620 356 357 654 653 
324 325 622 621 357 358 655 654 
325 326 623 622 358 359 656 655 
326 327 624 623 359 360 657 656 
327 328 625 624 360 361 658 657 
328 329 626 625 361 362 659 658 
330 331 628 627 363 364 661 660 
331 332 629 628 364 365 662 661 
332 333 630 629 365 366 663 662 
333 334 631 630 366 367 664 663 
334 335 632 631 367 368 665 664 
335 336 633 632 368 369 666 665 
336 337 634 633 369 370 667 666 
337 338 635 634 370 371 668 667 
338 339 636 635 371 372 669 668 
339 340 637 636 372 373 670 669 
340 341 638 637 373 374 671 670 
341 342 639 638 374 375 672 671 
342 343 640 639 375 376 673 672 
343 344 641 640 376 377 674 673 
344 345 642 641 377 378 675 674 
345 346 643 642 378 379 676 675 
346 347 644 643 379 380 677 676 
347 348 645 644 380 381 678 677 
348 349 646 645 381 382 679 678 
349 350 647 646 382 383 680 679 
350 351 648 647 383 384 681 680 
351 352 649 648 384 385 682 681 
352 353 650 649 385 386 683 682 
353 354 651 650 386 387 684 683 
354 355 652 651 387 388 685 684 
355 356 653 652 388 389 686 685 
356 357 654 653 389 390 687 686 
357 358 655 654 390 391 688 687 
358 359 656 655 391 392 689 688 
359 360 657 656 392 393 690 689 
360 361 658 657 393 394 691 690 
361 362 659 658 394 395 692 691 
363 364 661 660 396 397 694 693 
364 365 662 661 397 398 695 694 
365 366 663 662 398 399 696 695 
366 367 664 663 399 400 697 696 
367 368 665 664 400 401 698 697 
368 369 666 665 401 402 699 698 
369 370 667 666 402 403 700 699 
370 371 668 667 403 404 701 700 
371 372 669 668 404 405 702 701 
372 373 670 669 405 406 703 702 
373 374 671 670 406 407 704 703 
374 375 672 671 407 408 705 704 
375 376 673 672 408 409 706 705 
376 377 674 673 409 410 707 706 
377 378 675 674 410 411 708 707 
378 379 676 675 411 412 709 708 
379 380 677 676 412 413 710 709 
380 381 678 677 413 414 711 710 
381 382 679 678 414 415 712 711 
382 383 680 679 415 416 713 712 
383 384 681 680 416 417 714 713 
384 385 682 681 417 418 715 714 
385 386 683 682 418 419 716 715 
386 387 684 683 419 420 717 716 
387 388 685 684 420 421 718 717 
388 389 686 685 421 422 719 718 
389 390 687 686 422 423 720 719 
390 391 688 687 423 424 721 720 
391 392 689 688 424 425 722 721 
392 393 690 689 425 426 723 722 
393 394 691 690 426 427 724 723 
394 395 692 691 427 428 725 724 
396 397 694 693 429 430 727 726 
397 398 695 694 430 431 728 727 
398 399 696 695 431 432 729 728 
399 400 697 696 432 433 730 729 
400 401 698 697 433 434 731 730 
401 402 699 698 434 435 732 731 
402 403 700 699 435 436 733 732 
403 404 701 700 436 437 734 733 
404 405 702 701 437 438 735 734 
405 406 703 702 438 439 736 735 
406 407 704 703 439 440 737 736 
407 408 705 704 440 441 738 737 
408 409 706 705 441 442 739 738 
409 410 707 706 442 443 740 739 
410 411 708 707 443 444 741 740 
411 412 709 708 444 445 742 741 
412 413 710 709 445 446 743 742 
413 414 711 710 446 447 744 743 
414 415 712 711 447 448 745 744 
415 416 713 712 448 449 746 745 
416 417 714 713 449 450 747 746 
417 418 715 714 450 451 748 747 
418 419 716 715 451 452 749 748 
419 420 717 716 452 453 750 749 
420 421 718 717 453 454 751 750 
421 422 719 718 454 455 752 751 
422 423 720 719 455 456 753 752 
423 424 721 720 456 457 754 753 
424 425 722 721 457 458 755 754 
425 426 723 722 458 459 756 755 
426 427 724 723 459 460 757 756 
427 428 725 724 460 461 758 757 
429 430 727 726 462 463 760 759 
430 431 728 727 463 464 761 760 
431 432 729 728 464 465 762 761 
432 433 730 729 465 466 763 762 
433 434 731 730 466 467 764 763 
434 435 732 731 467 468 765 764 
435 436 733 732 468 469 766 765 
436 437 734 733 469 470 767 766 
437 438 735 734 470 471 768 767 
438 439 736 735 471 472 769 768 
439 440 737 736 472 473 770 769 
440 441 738 737 473 474 771 770 
441 442 739 738 474 475 772 771 
442 443 740 739 475 476 773 772 
443 444 741 740 476 477 774 773 
444 445 742 741 477 478 775 774 
445 446 743 742 478 479 776 775 
446 447 744 743 479 480 777 776 
447 448 745 744 480 481 778 777 
448 449 746 745 481 482 779 778 
449 450 747 746 482 483 780 779 
450 451 748 747 483 484 781 780 
451 452 749 748 484 485 782 781 
452 453 750 749 485 486 783 782 
453 454 751 750 486 487 784 783 
454 455 752 751 487 488 785 784 
455 456 753 752 488 489 786 785 
456 457 754 753 489 490 787 786 
457 458 755 754 490 491 788 787 
458 459 756 755 491 492 789 788 
459 460 757 756 492 493 790 789 
460 461 758 757 493 494 791 790 
462 463 760 759 495 496 793 792 
463 464 761 760 496 497 794 793 
464 465 762 761 497 498 795 794 
465 466 763 762 498 499 796 795 
466 467 764 763 499 500 797 796 
467 468 765 764 500 501 798 797 
468 469 766 765 501 502 799 798 
469 470 767 766 502 503 800 799 
470 471 768 767 503 504 801 800 
471 472 769 768 504 505 802 801 
472 473 770 769 505 506 803 802 
473 474 771 770 506 507 804 803 
474 475 772 771 507 508 805 804 
475 476 773 772 508 509 806 805 
476 477 774 773 509 510 807 806 
477 478 775 774 510 511 808 807 
478 479 776 775 511 512 809 808 
479 480 777 776 512 513 810 809 
480 481 778 777 513 514 811 810 
481 482 779 778 514 515 812 811 
482 483 780 779 515 516 813 812 
483 484 781 780 516 517 814 813 
484 485 782 781 517 518 815 814 
485 486 783 782 518 519 816 815 
486 487 784 783 519 520 817 816 
487 488 785 784 520 521 818 817 
488 489 786 785 521 522 819 818 
489 490 787 786 522 523 820 819 
490 491 788 787 523 524 821 820 
491 492 789 788 524 525 822 821 
492 493 790 789 525 526 823 822 
493 494 791 790 526 527 824 823 
495 496 793 792 528 529 826 825 
496 497 794 793 529 530 827 826 
497 498 795 794 530 531 828 827 
498 499 796 795 531 532 829 828 
499 500 797 796 532 533 830 829 
500 501 798 797 533 534 831 830 
501 502 799 798 534 535 832 831 
502 503 800 799 535 536 833 832 
503 504 801 800 536 537 834 833 
504 505 802 801 537 538 835 834 
505 506 803 802 538 539 836 835 
506 507 804 803 539 540 837 836 
507 508 805 804 540 541 838 837 
508 509 806 805 541 542 839 838 
509 510 807 806 542 543 840 839 
510 511 808 807 543 544 841 840 
511 512 809 808 544 545 842 841 
512 513 810 809 545 546 843 842 
513 514 811 810 546 547 844 843 
514 515 812 811 547 548 845 844 
515 516 813 812 548 549 846 845 
516 517 814 813 549 550 847 846 
517 518 815 814 550 551 848 847 
518 519 816 815 551 552 849 848 
519 520 817 816 552 553 850 849 
520 521 818 817 553 554 851 850 
521 522 819 818 554 555 852 851 
522 523 820 819 555 556 853 852 
523 524 821 820 556 557 854 853 
524 525 822 821 557 558 855 854 
525 526 823 822 558 559 856 855 
526 527 824 823 559 560 857 856 
528 529 826 825 561 562 859 858 
529 530 827 826 562 563 860 859 
530 531 828 827 563 564 861 860 
531 532 829 828 564 565 862 861 
532 533 830 829 565 566 863 862 
533 534 831 830 566 567 864 863 
534 535 832 831 567 568 865 864 
535 536 833 832 568 569 866 865 
536 537 834 833 569 570 867 866 
537 538 835 834 570 571 868 867 
538 539 836 835 571 572 869 868 
539 540 837 836 572 573 870 869 
540 541 838 837 573 574 871 870 
541 542 839 838 574 575 872 871 
542 543 840 839 575 576 873 872 
543 544 841 840 576 577 874 873 
544 545 842 841 577 578 875 874 
545 546 843 842 578 579 876 875 
546 547 844 843 579 580 877 876 
547 548 845 844 580 581 878 877 
548 549 846 845 581 582 879 878 
549 550 847 846 582 583 880 879 
550 551 848 847 583 584 881 880 
551 552 849 848 584 585 882 881 
552 553 850 849 585 586 883 882 
553 554 851 850 586 587 884 883 
554 555 852 851 587 588 885 884 
555 556 853 852 588 589 886 885 
556 557 854 853 589 590 887 886 
557 558 855 854 590 591 888 887 
558 559 856 855 591 592 889 888 
559 560 857 856 592 593 890 889 
594 595 892 891 627 628 925 924 
595 596 893 892 628 629 926 925 
596 597 894 893 629 630 927 926 
597 598 895 894 630 631 928 927 
598 599 896 895 631 632 929 928 
599 600 897 896 632 633 930 929 
600 601 898 897 633 634 931 930 
601 602 899 898 634 635 932 931 
602 603 900 899 635 636 933 932 
603 604 901 900 636 637 934 933 
604 605 902 901 637 638 935 934 
605 606 903 902 638 639 936 935 
606 607 904 903 639 640 937 936 
607 608 905 904 640 641 938 937 
608 609 906 905 641 642 939 938 
609 610 907 906 642 643 940 939 
610 611 908 907 643 644 941 940 
611 612 909 908 644 645 942 941 
612 613 910 909 645 646 943 942 
613 614 911 910 646 647 944 943 
614 615 912 911 647 648 945 944 
615 616 913 912 648 649 946 945 
616 617 914 913 649 650 947 946 
617 618 915 914 650 651 948 947 
618 619 916 915 651 652 949 948 
619 620 917 916 652 653 950 949 
620 621 918 917 653 654 951 950 
621 622 919 918 654 655 952 951 
622 623 920 919 655 656 953 952 
623 624 921 920 656 657 954 953 
624 625 922 921 657 658 955 954 
625 626 923 922 658 659 956 955 
627 628 925 924 660 661 958 957 
628 629 926 925 661 662 959 958 
629 630 927 926 662 663 960 959 
630 631 928 927 663 664 961 960 
631 632 929 928 664 665 962 961 
632 633 930 929 665 666 963 962 
633 634 931 930 666 667 964 963 
634 635 932 931 667 668 965 964 
635 636 933 932 668 669 966 965 
636 637 934 933 669 670 967 966 
637 638 935 934 670 671 968 967 
638 639 936 935 671 672 969 968 
639 640 937 936 672 673 970 969 
640 641 938 937 673 674 971 970 
641 642 939 938 674 675 972 971 
642 643 940 939 675 676 973 972 
643 644 941 940 676 677 974 973 
644 645 942 941 677 678 975 974 
645 646 943 942 678 679 976 975 
646 647 944 943 679 680 977 976 
647 648 945 944 680 681 978 977 
648 649 946 945 681 682 979 978 
649 650 947 946 682 683 980 979 
650 651 948 947 683 684 981 980 
651 652 949 948 684 685 982 981 
652 653 950 949 685 686 983 982 
653 654 951 950 686 687 984 983 
654 655 952 951 687 688 985 984 
655 656 953 952 688 689 986 985 
656 657 954 953 689 690 987 986 
657 658 955 954 690 691 988 987 
658 659 956 955 691 692 989 988 
660 661 958 957 693 694 991 990 
661 662 959 958 694 695 992 991 
662 663 960 959 695 696 993 992 
663 664 961 960 696 697 994 993 
664 665 962 961 697 698 995 994 
665 666 963 962 698 699 996 995 
666 667 964 963 699 700 997 996 
667 668 965 964 700 701 998 997 
668 669 966 965 701 702 999 998 
669 670 967 966 702 703 1000 999 
670 671 968 967 703 704 1001 1000 
671 672 969 968 704 705 1002 1001 
672 673 970 969 705 706 1003 1002 
673 674 971 970 706 707 1004 1003 
674 675 972 971 707 708 1005 1004 
675 676 973 972 708 709 1006 1005 
676 677 974 973 709 710 1007 1006 
677 678 975 974 710 711 1008 1007 
678 679 976 975 711 712 1009 1008 
679 680 977 976 712 713 1010 1009 
680 681 978 977 713 714 1011 1010 
681 682 979 978 714 715 1012 1011 
682 683 980 979 715 716 1013 1012 
683 684 981 980 716 717 1014 1013 
684 685 982 981 717 718 1015 1014 
685 686 983 982 718 719 1016 1015 
686 687 984 983 719 720 1017 1016 
687 688 985 984 720 721 1018 1017 
688 689 986 985 721 722 1019 1018 
689 690 987 986 722 723 1020 1019 
690 691 988 987 723 724 1021 1020 
691 692 989 988 724 725 1022 1021 
693 694 991 990 726 727 1024 1023 
694 695 992 991 727 728 1025 1024 
695 696 993 992 728 729 1026 1025 
696 697 994 993 729 730 1027 1026 
697 698 995 994 730 731 1028 1027 
698 699 996 995 731 732 1029 1028 
699 700 997 996 732 733 1030 1029 
700 701 998 997 733 734 1031 1030 
701 702 999 998 734 735 1032 1031 
702 703 1000 999 735 736 1033 1032 
703 704 1001 1000 736 737 1034 1033 
704 705 1002 1001 737 738 1035 1034 
705 706 1003 1002 738 739 1036 1035 
706 707 1004 1003 739 740 1037 1036 
707 708 1005 1004 740 741 1038 1037 
708 709 1006 1005 741 742 1039 1038 
709 710 1007 1006 742 743 1040 1039 
710 711 1008 1007 743 744 1041 1040 
711 712 1009 1008 744 745 1042 1041 
712 713 1010 1009 745 746 1043 1042 
713 714 1011 1010 746 747 1044 1043 
714 715 1012 1011 747 748 1045 1044 
715 716 1013 1012 748 749 1046 1045 
716 717 1014 1013 749 750 1047 1046 
717 718 1015 1014 750 751 1048 1047 
718 719 1016 1015 751 752 1049 1048 
719 720 1017 1016 752 753 1050 1049 
720 721 1018 1017 753 754 1051 1050 
721 722 1019 1018 754 755 1052 1051 
722 723 1020 1019 755 756 1053 1052 
723 724 1021 1020 756 757 1054 1053 
724 725 1022 1021 757 758 1055 1054 
726 727 1024 1023 759 760 1057 1056 
727 728 1025 1024 760 761 1058 1057 
728 729 1026 1025 761 762 1059 1058 
729 730 1027 1026 762 763 1060 1059 
730 731 1028 1027 763 764 1061 1060 
731 732 1029 1028 764 765 1062 1061 
732 733 1030 1029 765 766 1063 1062 
733 734 1031 1030 766 767 1064 1063 
734 735 1032 1031 767 768 1065 1064 
735 736 1033 1032 768 769 1066 1065 
736 737 1034 1033 769 770 1067 1066 
737 738 1035 1034 770 771 1068 1067 
738 739 1036 1035 771 772 1069 1068 
739 740 1037 1036 772 773 1070 1069 
740 741 1038 1037 773 774 1071 1070 
741 742 1039 1038 774 775 1072 1071 
742 743 1040 1039 775 776 1073 1072 
743 744 1041 1040 776 777 1074 1073 
744 745 1042 1041 777 778 1075 1074 
745 746 1043 1042 778 779 1076 1075 
746 747 1044 1043 779 780 1077 1076 
747 748 1045 1044 780 781 1078 1077 
748 749 1046 1045 781 782 1079 1078 
749 750 1047 1046 782 783 1080 1079 
750 751 1048 1047 783 784 1081 1080 
751 752 1049 1048 784 785 1082 1081 
752 753 1050 1049 785 786 1083 1082 
753 754 1051 1050 786 787 1084 1083 
754 755 1052 1051 787 788 1085 1084 
755 756 1053 1052 788 789 1086 1085 
756 757 1054 1053 789 790 1087 1086 
757 758 1055 1054 790 791 1088 1087 
759 760 1057 1056 792 793 1090 1089 
760 761 1058 1057 793 794 1091 1090 
761 762 1059 1058 794 795 1092 1091 
762 763 1060 1059 795 796 1093 1092 
763 764 1061 1060 796 797 1094 1093 
764 765 1062 1061 797 798 1095 1094 
765 766 1063 1062 798 799 1096 1095 
766 767 1064 1063 799 800 1097 1096 
767 768 1065 1064 800 801 1098 1097 
768 769 1066 1065 801 802 1099 1098 
769 770 1067 1066 802 803 1100 1099 
770 771 1068 1067 803 804 1101 1100 
771 772 1069 1068 804 805 1102 1101 
772 773 1070 1069 805 806 1103 1102 
773 774 1071 1070 806 807 1104 1103 
774 775 1072 1071 807 808 1105 1104 
775 776 1073 1072 808 809 1106 1105 
776 777 1074 1073 809 810 1107 1106 
777 778 1075 1074 810 811 1108 1107 
778 779 1076 1075 811 812 1109 1108 
779 780 1077 1076 812 813 1110 1109 
780 781 1078 1077 813 814 1111 1110 
781 782 1079 1078 814 815 1112 1111 
782 783 1080 1079 815 816 1113 1112 
783 784 1081 1080 816 817 1114 1113 
784 785 1082 1081 817 818 1115 1114 
785 786 1083 1082 818 819 1116 1115 
786 787 1084 1083 819 820 1117 1116 
787 788 1085 1084 820 821 1118 1117 
788 789 1086 1085 821 822 1119 1118 
789 790 1087 1086 822 823 1120 1119 
790 791 1088 1087 823 824 1121 1120 
792 793 1090 1089 825 826 1123 1122 
793 794 1091 1090 826 827 1124 1123 
794 795 1092 1091 827 828 1125 1124 
795 796 1093 1092 828 829 1126 1125 
796 797 1094 1093 829 830 1127 1126 
797 798 1095 1094 830 831 1128 1127 
798 799 1096 1095 831 832 1129 1128 
799 800 1097 1096 832 833 1130 1129 
800 801 1098 1097 833 834 1131 1130 
801 802 1099 1098 834 835 1132 1131 
802 803 1100 1099 835 836 1133 1132 
803 804 1101 1100 836 837 1134 1133 
804 805 1102 1101 837 838 1135 1134 
805 806 1103 1102 838 839 1136 1135 
806 807 1104 1103 839 840 1137 1136 
807 808 1105 1104 840 841 1138 1137 
808 809 1106 1105 841 842 1139 1138 
809 810 1107 1106 842 843 1140 1139 
810 811 1108 1107 843 844 1141 1140 
811 812 1109 1108 844 845 1142 1141 
812 813 1110 1109 845 846 1143 1142 
813 814 1111 1110 846 847 1144 1143 
814 815 1112 1111 847 848 1145 1144 
815 816 1113 1112 848 849 1146 1145 
816 817 1114 1113 849 850 1147 1146 
817 818 1115 1114 850 851 1148 1147 
818 819 1116 1115 851 852 1149 1148 
819 820 1117 1116 852 853 1150 1149 
820 821 1118 1117 853 854 1151 1150 
821 822 1119 1118 854 855 1152 1151 
822 823 1120 1119 855 856 1153 1152 
823 824 1121 1120 856 857 1154 1153 
825 826 1123 1122 858 859 1156 1155 
826 827 1124 1123 859 860 1157 1156 
827 828 1125 1124 860 861 1158 1157 
828 829 1126 1125 861 862 1159 1158 
829 830 1127 1126 862 863 1160 1159 
830 831 1128 1127 863 864 1161 1160 
831 832 1129 1128 864 865 1162 1161 
832 833 1130 1129 865 866 1163 1162 
833 834 1131 1130 866 867 1164 1163 
834 835 1132 1131 867 868 1165 1164 
835 836 1133 1132 868 869 1166 1165 
836 837 1134 1133 869 870 1167 1166 
837 838 1135 1134 870 871 1168 1167 
838 839 1136 1135 871 872 1169 1168 
839 840 1137 1136 872 873 1170 1169 
840 841 1138 1137 873 874 1171 1170 
841 842 1139 1138 874 875 1172 1171 
842 843 1140 1139 875 876 1173 1172 
843 844 1141 1140 876 877 1174 1173 
844 845 1142 1141 877 878 1175 1174 
845 846 1143 1142 878 879 1176 1175 
846 847 1144 1143 879 880 1177 1176 
847 848 1145 1144 880 881 1178 1177 
848 849 1146 1145 881 882 1179 1178 
849 850 1147 1146 882 883 1180 1179 
850 851 1148 1147 883 884 1181 1180 
851 852 1149 1148 884 885 1182 1181 
852 853 1150 1149 885 886 1183 1182 
853 854 1151 1150 886 887 1184 1183 
854 855 1152 1151 887 888 1185 1184 
855 856 1153 1152 888 889 1186 1185 
856 857 1154 1153 889 890 1187 1186 
891 892 1189 1188 924 925 1222 1221 
892 893 1190 1189 925 926 1223 1222 
893 894 1191 1190 926 927 1224 1223 
894 895 1192 1191 927 928 1225 1224 
895 896 1193 1192 928 929 1226 1225 
896 897 1194 1193 929 930 1227 1226 
897 898 1195 1194 930 931 1228 1227 
898 899 1196 1195 931 932 1229 1228 
899 900 1197 1196 932 933 1230 1229 
900 901 1198 1197 933 934 1231 1230 
901 902 1199 1198 934 935 1232 1231 
902 903 1200 1199 935 936 1233 1232 
903 904 1201 1200 936 937 1234 1233 
904 905 1202 1201 937 938 1235 1234 
905 906 1203 1202 938 939 1236 1235 
906 907 1204 1203 939 940 1237 1236 
907 908 1205 1204 940 941 1238 1237 
908 909 1206 1205 941 942 1239 1238 
909 910 1207 1206 942 943 1240 1239 
910 911 1208 1207 943 944 1241 1240 
911 912 1209 1208 944 945 1242 1241 
912 913 1210 1209 945 946 1243 1242 
913 914 1211 1210 946 947 1244 1243 
914 915 1212 1211 947 948 1245 1244 
915 916 1213 1212 948 949 1246 1245 
916 917 1214 1213 949 950 1247 1246 
917 918 1215 1214 950 951 1248 1247 
918 919 1216 1215 951 952 1249 1248 
919 920 1217 1216 952 953 1250 1249 
920 921 1218 1217 953 954 1251 1250 
921 922 1219 1218 954 955 1252 1251 
922 923 1220 1219 955 956 1253 1252 
924 925 1222 1221 957 958 1255 1254 
925 926 1223 1222 958 959 1256 1255 
926 927 1224 1223 959 960 1257 1256 
927 928 1225 1224 960 961 1258 1257 
928 929 1226 1225 961 962 1259 1258 
929 930 1227 1226 962 963 1260 1259 
930 931 1228 1227 963 964 1261 1260 
931 932 1229 1228 964 965 1262 1261 
932 933 1230 1229 965 966 1263 1262 
933 934 1231 1230 966 967 1264 1263 
934 935 1232 1231 967 968 1265 1264 
935 936 1233 1232 968 969 1266 1265 
936 937 1234 1233 969 970 1267 1266 
937 938 1235 1234 970 971 1268 1267 
938 939 1236 1235 971 972 1269 1268 
939 940 1237 1236 972 973 1270 1269 
940 941 1238 1237 973 974 1271 1270 
941 942 1239 1238 974 975 1272 1271 
942 943 1240 1239 975 976 1273 1272 
943 944 1241 1240 976 977 1274 1273 
944 945 1242 1241 977 978 1275 1274 
945 946 1243 1242 978 979 1276 1275 
946 947 1244 1243 979 980 1277 1276 
947 948 1245 1244 980 981 1278 1277 
948 949 1246 1245 981 982 1279 1278 
949 950 1247 1246 982 983 1280 1279 
950 951 1248 1247 983 984 1281 1280 
951 952 1249 1248 984 985 1282 1281 
952 953 1250 1249 985 986 1283 1282 
953 954 1251 1250 986 987 1284 1283 
954 955 1252 1251 987 988 1285 1284 
955 956 1253 1252 988 989 1286 1285 
957 958 1255 1254 990 991 1288 1287 
958 959 1256 1255 991 992 1289 1288 
959 960 1257 1256 992 993 1290 1289 
960 961 1258 1257 993 994 1291 1290 
961 962 1259 1258 994 995 1292 1291 
962 963 1260 1259 995 996 1293 1292 
963 964 1261 1260 996 997 1294 1293 
964 965 1262 1261 997 998 1295 1294 
965 966 1263 1262 998 999 1296 1295 
966 967 1264 1263 999 1000 1297 1296 
967 968 1265 1264 1000 1001 1298 1297 
968 969 1266 1265 1001 1002 1299 1298 
969 970 1267 1266 1002 1003 1300 1299 
970 971 1268 1267 1003 1004 1301 1300 
971 972 1269 1268 1004 1005 1302 1301 
972 973 1270 1269 1005 1006 1303 1302 
973 974 1271 1270 1006 1007 1304 1303 
974 975 1272 1271 1007 1008 1305 1304 
975 976 1273 1272 1008 1009 1306 1305 
976 977 1274 1273 1009 1010 1307 1306 
977 978 1275 1274 1010 1011 1308 1307 
978 979 1276 1275 1011 1012 1309 1308 
979 980 1277 1276 1012 1013 1310 1309 
980 981 1278 1277 1013 1014 1311 1310 
981 982 1279 1278 1014 1015 1312 1311 
982 983 1280 1279 1015 1016 1313 1312 
983 984 1281 1280 1016 1017 1314 1313 
984 985 1282 1281 1017 1018 1315 1314 
985 986 1283 1282 1018 1019 1316 1315 
986 987 1284 1283 1019 1020 1317 1316 
987 988 1285 1284 1020 1021 1318 1317 
988 989 1286 1285 1021 1022 1319 1318 
990 991 1288 1287 1023 1024 1321 1320 
991 992 1289 1288 1024 1025 1322 1321 
992 993 1290 1289 1025 1026 1323 1322 
993 994 1291 1290 1026 1027 1324 1323 
994 995 1292 1291 1027 1028 1325 1324 
995 996 1293 1292 1028 1029 1326 1325 
996 997 1294 1293 1029 1030 1327 1326 
997 998 1295 1294 1030 1031 1328 1327 
998 999 1296 1295 1031 1032 1329 1328 
999 1000 1297 1296 1032 1033 1330 1329 
1000 1001 1298 1297 1033 1034 1331 1330 
1001 1002 1299 1298 1034 1035 1332 1331 
1002 1003 1300 1299 1035 1036 1333 1332 
1003 1004 1301 1300 1036 1037 1334 1333 
1004 1005 1302 1301 1037 1038 1335 1334 
1005 1006 1303 1302 1038 1039 1336 1335 
1006 1007 1304 1303 1039 1040 1337 1336 
1007 1008 1305 1304 1040 1041 1338 1337 
1008 1009 1306 1305 1041 1042 1339 1338 
1009 1010 1307 1306 1042 1043 1340 1339 
1010 1011 1308 1307 1043 1044 1341 1340 
1011 1012 1309 1308 1044 1045 1342 1341 
1012 1013 1310 1309 1045 1046 1343 1342 
1013 1014 1311 1310 1046 1047 1344 1343 
1014 1015 1312 1311 1047 1048 1345 1344 
1015 1016 1313 1312 1048 1049 1346 1345 
1016 1017 1314 1313 1049 1050 1347 1346 
1017 1018 1315 1314 1050 1051 1348 1347 
1018 1019 1316 1315 1051 1052 1349 1348 
1019 1020 1317 1316 1052 1053 1350 1349 
1020 1021 1318 1317 1053 1054 1351 1350 
1021 1022 1319 1318 1054 1055 1352 1351 
1023 1024 1321 1320 1056 1057 1354 1353 
1024 1025 1322 1321 1057 1058 1355 1354 
1025 1026 1323 1322 1058 1059 1356 1355 
1026 1027 1324 1323 1059 1060 1357 1356 
1027 1028 1325 1324 1060 1061 1358 1357 
1028 1029 1326 1325 1061 1062 1359 1358 
1029 1030 1327 1326 1062 1063 1360 1359 
1030 1031 1328 1327 1063 1064 1361 1360 
1031 1032 1329 1328 1064 1065 1362 1361 
1032 1033 1330 1329 1065 1066 1363 1362 
1033 1034 1331 1330 1066 1067 1364 1363 
1034 1035 1332 1331 1067 1068 1365 1364 
1035 1036 1333 1332 1068 1069 1366 1365 
1036 1037 1334 1333 1069 1070 1367 1366 
1037 1038 1335 1334 1070 1071 1368 1367 
1038 1039 1336 1335 1071 1072 1369 1368 
1039 1040 1337 1336 1072 1073 1370 1369 
1040 1041 1338 1337 1073 1074 1371 1370 
1041 1042 1339 1338 1074 1075 1372 1371 
1042 1043 1340 1339 1075 1076 1373 1372 
1043 1044 1341 1340 1076 1077 1374 1373 
1044 1045 1342 1341 1077 1078 1375 1374 
1045 1046 1343 1342 1078 1079 1376 1375 
1046 1047 1344 1343 1079 1080 1377 1376 
1047 1048 1345 1344 1080 1081 1378 1377 
1048 1049 1346 1345 1081 1082 1379 1378 
1049 1050 1347 1346 1082 1083 1380 1379 
1050 1051 1348 1347 1083 1084 1381 1380 
1051 1052 1349 1348 1084 1085 1382 1381 
1052 1053 1350 1349 1085 1086 1383 1382 
1053 1054 1351 1350 1086 1087 1384 1383 
1054 1055 1352 1351 1087 1088 1385 1384 
1056 1057 1354 1353 1089 1090 1387 1386 
1057 1058 1355 1354 1090 1091 1388 1387 
1058 1059 1356 1355 1091 1092 1389 1388 
1059 1060 1357 1356 1092 1093 1390 1389 
1060 1061 1358 1357 1093 1094 1391 1390 
1061 1062 1359 1358 1094 1095 1392 1391 
1062 1063 1360 1359 1095 1096 1393 1392 
1063 1064 1361 1360 1096 1097 1394 1393 
1064 1065 1362 1361 1097 1098 1395 1394 
1065 1066 1363 1362 1098 1099 1396 1395 
1066 1067 1364 1363 1099 1100 1397 1396 
1067 1068 1365 1364 1100 1101 1398 1397 
1068 1069 1366 1365 1101 1102 1399 1398 
1069 1070 1367 1366 1102 1103 1400 1399 
1070 1071 1368 1367 1103 1104 1401 1400 
1071 1072 1369 1368 1104 1105 1402 1401 
1072 1073 1370 1369 1105 1106 1403 1402 
1073 1074 1371 1370 1106 1107 1404 1403 
1074 1075 1372 1371 1107 1108 1405 1404 
1075 1076 1373 1372 1108 1109 1406 1405 
1076 1077 1374 1373 1109 1110 1407 1406 
1077 1078 1375 1374 1110 1111 1408 1407 
1078 1079 1376 1375 1111 1112 1409 1408 
1079 1080 1377 1376 1112 1113 1410 1409 
1080 1081 1378 1377 1113 1114 1411 1410 
1081 1082 1379 1378 1114 1115 1412 1411 
1082 1083 1380 1379 1115 1116 1413 1412 
1083 1084 1381 1380 1116 1117 1414 1413 
1084 1085 1382 1381 1117 1118 1415 1414 
1085 1086 1383 1382 1118 1119 1416 1415 
1086 1087 1384 1383 1119 1120 1417 1416 
1087 1088 1385 1384 1120 1121 1418 1417 
1089 1090 1387 1386 1122 1123 1420 1419 
1090 1091 1388 1387 1123 1124 1421 1420 
1091 1092 1389 1388 1124 1125 1422 1421 
1092 1093 1390 1389 1125 1126 1423 1422 
1093 1094 1391 1390 1126 1127 1424 1423 
1094 1095 1392 1391 1127 1128 1425 1424 
1095 1096 1393 1392 1128 1129 1426 1425 
1096 1097 1394 1393 1129 1130 1427 1426 
1097 1098 1395 1394 1130 1131 1428 1427 
1098 1099 1396 1395 1131 1132 1429 1428 
1099 1100 1397 1396 1132 1133 1430 1429 
1100 1101 1398 1397 1133 1134 1431 1430 
1101 1102 1399 1398 1134 1135 1432 1431 
1102 1103 1400 1399 1135 1136 1433 1432 
1103 1104 1401 1400 1136 1137 1434 1433 
1104 1105 1402 1401 1137 1138 1435 1434 
1105 1106 1403 1402 1138 1139 1436 1435 
1106 1107 1404 1403 1139 1140 1437 1436 
1107 1108 1405 1404 1140 1141 1438 1437 
1108 1109 1406 1405 1141 1142 1439 1438 
1109 1110 1407 1406 1142 1143 1440 1439 
1110 1111 1408 1407 1143 1144 1441 1440 
1111 1112 1409 1408 1144 1145 1442 1441 
1112 1113 1410 1409 1145 1146 1443 1442 
1113 1114 1411 1410 1146 1147 1444 1443 
1114 1115 1412 1411 1147 1148 1445 1444 
1115 1116 1413 1412 1148 1149 1446 1445 
1116 1117 1414 1413 1149 1150 1447 1446 
1117 1118 1415 1414 1150 1151 1448 1447 
1118 1119 1416 1415 1151 1152 1449 1448 
1119 1120 1417 1416 1152 1153 1450 1449 
1120 1121 1418 1417 1153 1154 1451 1450 
1122 1123 1420 1419 1155 1156 1453 1452 
1123 1124 1421 1420 1156 1157 1454 1453 
1124 1125 1422 1421 1157 1158 1455 1454 
1125 1126 1423 1422 1158 1159 1456 1455 
1126 1127 1424 1423 1159 1160 1457 1456 
1127 1128 1425 1424 1160 1161 1458 1457 
1128 1129 1426 1425 1161 1162 1459 1458 
1129 1130 1427 1426 1162 1163 1460 1459 
1130 1131 1428 1427 1163 1164 1461 1460 
1131 1132 1429 1428 1164 1165 1462 1461 
1132 1133 1430 1429 1165 1166 1463 1462 
1133 1134 1431 1430 1166 1167 1464 1463 
1134 1135 1432 1431 1167 1168 1465 1464 
1135 1136 1433 1432 1168 1169 1466 1465 
1136 1137 1434 1433 1169 1170 1467 1466 
1137 1138 1435 1434 1170 1171 1468 1467 
1138 1139 1436 1435 1171 1172 1469 1468 
1139 1140 1437 1436 1172 1173 1470 1469 
1140 1141 1438 1437 1173 1174 1471 1470 
1141 1142 1439 1438 1174 1175 1472 1471 
1142 1143 1440 1439 1175 1176 1473 1472 
1143 1144 1441 1440 1176 1177 1474 1473 
1144 1145 1442 1441 1177 1178 1475 1474 
1145 1146 1443 1442 1178 1179 1476 1475 
1146 1147 1444 1443 1179 1180 1477 1476 
1147 1148 1445 1444 1180 1181 1478 1477 
1148 1149 1446 1445 1181 1182 1479 1478 
1149 1150 1447 1446 1182 1183 1480 1479 
1150 1151 1448 1447 1183 1184 1481 1480 
1151 1152 1449 1448 1184 1185 1482 1481 
1152 1153 1450 1449 1185 1186 1483 1482 
1153 1154 1451 1450 1186 1187 1484 1483 
1188 1189 1486 1485 1221 1222 1519 1518 
1189 1190 1487 1486 1222 1223 1520 1519 
1190 1191 1488 1487 1223 1224 1521 1520 
1191 1192 1489 1488 1224 1225 1522 1521 
1192 1193 1490 1489 1225 1226 1523 1522 
1193 1194 1491 1490 1226 1227 1524 1523 
1194 1195 1492 1491 1227 1228 1525 1524 
1195 1196 1493 1492 1228 1229 1526 1525 
1196 1197 1494 1493 1229 1230 1527 1526 
1197 1198 1495 1494 1230 1231 1528 1527 
1198 1199 1496 1495 1231 1232 1529 1528 
1199 1200 1497 1496 1232 1233 1530 1529 
1200 1201 1498 1497 1233 1234 1531 1530 
1201 1202 1499 1498 1234 1235 1532 1531 
1202 1203 1500 1499 1235 1236 1533 1532 
1203 1204 1501 1500 1236 1237 1534 1533 
1204 1205 1502 1501 1237 1238 1535 1534 
1205 1206 1503 1502 1238 1239 1536 1535 
1206 1207 1504 1503 1239 1240 1537 1536 
1207 1208 1505 1504 1240 1241 1538 1537 
1208 1209 1506 1505 1241 1242 1539 1538 
1209 1210 1507 1506 1242 1243 1540 1539 
1210 1211 1508 1507 1243 1244 1541 1540 
1211 1212 1509 1508 1244 1245 1542 1541 
1212 1213 1510 1509 1245 1246 1543 1542 
1213 1214 1511 1510 1246 1247 1544 1543 
1214 1215 1512 1511 1247 1248 1545 1544 
1215 1216 1513 1512 1248 1249 1546 1545 
1216 1217 1514 1513 1249 1250 1547 1546 
1217 1218 1515 1514 1250 1251 1548 1547 
1218 1219 1516 1515 1251 1252 1549 1548 
1219 1220 1517 1516 1252 1253 1550 1549 
1221 1222 1519 1518 1254 1255 1552 1551 
1222 1223 1520 1519 1255 1256 1553 1552 
1223 1224 1521 1520 1256 1257 1554 1553 
1224 1225 1522 1521 1257 1258 1555 1554 
1225 1226 1523 1522 1258 1259 1556 1555 
1226 1227 1524 1523 1259 1260 1557 1556 
1227 1228 1525 1524 1260 1261 1558 1557 
1228 1229 1526 1525 1261 1262 1559 1558 
1229 1230 1527 1526 1262 1263 1560 1559 
1230 1231 1528 1527 1263 1264 1561 1560 
1231 1232 1529 1528 1264 1265 1562 1561 
1232 1233 1530 1529 1265 1266 1563 1562 
1233 1234 1531 1530 1266 1267 1564 1563 
1234 1235 1532 1531 1267 1268 1565 1564 
1235 1236 1533 1532 1268 1269 1566 1565 
1236 1237 1534 1533 1269 1270 1567 1566 
1237 1238 1535 1534 1270 1271 1568 1567 
1238 1239 1536 1535 1271 1272 1569 1568 
1239 1240 1537 1536 1272 1273 1570 1569 
1240 1241 1538 1537 1273 1274 1571 1570 
1241 1242 1539 1538 1274 1275 1572 1571 
1242 1243 1540 1539 1275 1276 1573 1572 
1243 1244 1541 1540 1276 1277 1574 1573 
1244 1245 1542 1541 1277 1278 1575 1574 
1245 1246 1543 1542 1278 1279 1576 1575 
1246 1247 1544 1543 1279 1280 1577 1576 
1247 1248 1545 1544 1280 1281 1578 1577 
1248 1249 1546 1545 1281 1282 1579 1578 
1249 1250 1547 1546 1282 1283 1580 1579 
1250 1251 1548 1547 1283 1284 1581 1580 
1251 1252 1549 1548 1284 1285 1582 1581 
1252 1253 1550 1549 1285 1286 1583 1582 
1254 1255 1552 1551 1287 1288 1585 1584 
1255 1256 1553 1552 1288 1289 1586 1585 
1256 1257 1554 1553 1289 1290 1587 1586 
1257 1258 1555 1554 1290 1291 1588 1587 
1258 1259 1556 1555 1291 1292 1589 1588 
1259 1260 1557 1556 1292 1293 1590 1589 
1260 1261 1558 1557 1293 1294 1591 1590 
1261 1262 1559 1558 1294 1295 1592 1591 
1262 1263 1560 1559 1295 1296 1593 1592 
1263 1264 1561 1560 1296 1297 1594 1593 
1264 1265 1562 1561 1297 1298 1595 1594 
1265 1266 1563 1562 1298 1299 1596 1595 
1266 1267 1564 1563 1299 1300 1597 1596 
1267 1268 1565 1564 1300 1301 1598 1597 
1268 1269 1566 1565 1301 1302 1599 1598 
1269 1270 1567 1566 1302 1303 1600 1599 
1270 1271 1568 1567 1303 1304 1601 1600 
1271 1272 1569 1568 1304 1305 1602 1601 
1272 1273 1570 1569 1305 1306 1603 1602 
1273 1274 1571 1570 1306 1307 1604 1603 
1274 1275 1572 1571 1307 1308 1605 1604 
1275 1276 1573 1572 1308 1309 1606 1605 
1276 1277 1574 1573 1309 1310 1607 1606 
1277 1278 1575 1574 1310 1311 1608 1607 
1278 1279 1576 1575 1311 1312 1609 1608 
1279 1280 1577 1576 1312 1313 1610 1609 
1280 1281 1578 1577 1313 1314 1611 1610 
1281 1282 1579 1578 1314 1315 1612 1611 
1282 1283 1580 1579 1315 1316 1613 1612 
1283 1284 1581 1580 1316 1317 1614 1613 
1284 1285 1582 1581 1317 1318 1615 1614 
1285 1286 1583 1582 1318 1319 1616 1615 
1287 1288 1585 1584 1320 1321 1618 1617 
1288 1289 1586 1585 1321 1322 1619 1618 
1289 1290 1587 1586 1322 1323 1620 1619 
1290 1291 1588 1587 1323 1324 1621 1620 
1291 1292 1589 1588 1324 1325 1622 1621 
1292 1293 1590 1589 1325 1326 1623 1622 
1293 1294 1591 1590 1326 1327 1624 1623 
1294 1295 1592 1591 1327 1328 1625 1624 
1295 1296 1593 1592 1328 1329 1626 1625 
1296 1297 1594 1593 1329 1330 1627 1626 
1297 1298 1595 1594 1330 1331 1628 1627 
1298 1299 1596 1595 1331 1332 1629 1628 
1299 1300 1597 1596 1332 1333 1630 1629 
1300 1301 1598 1597 1333 1334 1631 1630 
1301 1302 1599 1598 1334 1335 1632 1631 
1302 1303 1600 1599 1335 1336 1633 1632 
1303 1304 1601 1600 1336 1337 1634 1633 
1304 1305 1602 1601 1337 1338 1635 1634 
1305 1306 1603 1602 1338 1339 1636 1635 
1306 1307 1604 1603 1339 1340 1637 1636 
1307 1308 1605 1604 1340 1341 1638 1637 
1308 1309 1606 1605 1341 1342 1639 1638 
1309 1310 1607 1606 1342 1343 1640 1639 
1310 1311 1608 1607 1343 1344 1641 1640 
1311 1312 1609 1608 1344 1345 1642 1641 
1312 1313 1610 1609 1345 1346 1643 1642 
1313 1314 1611 1610 1346 1347 1644 1643 
1314 1315 1612 1611 1347 1348 1645 1644 
1315 1316 1613 1612 1348 1349 1646 1645 
1316 1317 1614 1613 1349 1350 1647 1646 
1317 1318 1615 1614 1350 1351 1648 1647 
1318 1319 1616 1615 1351 1352 1649 1648 
1320 1321 1618 1617 1353 1354 1651 1650 
1321 1322 1619 1618 1354 1355 1652 1651 
1322 1323 1620 1619 1355 1356 1653 1652 
1323 1324 1621 1620 1356 1357 1654 1653 
1324 1325 1622 1621 1357 1358 1655 1654 
1325 1326 1623 1622 1358 1359 1656 1655 
1326 1327 1624 1623 1359 1360 1657 1656 
1327 1328 1625 1624 1360 1361 1658 1657 
1328 1329 1626 1625 1361 1362 1659 1658 
1329 1330 1627 1626 1362 1363 1660 1659 
1330 1331 1628 1627 1363 1364 1661 1660 
1331 1332 1629 1628 1364 1365 1662 1661 
1332 1333 1630 1629 1365 1366 1663 1662 
1333 1334 1631 1630 1366 1367 1664 1663 
1334 1335 1632 1631 1367 1368 1665 1664 
1335 1336 1633 1632 1368 1369 1666 1665 
1336 1337 1634 1633 1369 1370 1667 1666 
1337 1338 1635 1634 1370 1371 1668 1667 
1338 1339 1636 1635 1371 1372 1669 1668 
1339 1340 1637 1636 1372 1373 1670 1669 
1340 1341 1638 1637 1373 1374 1671 1670 
1341 1342 1639 1638 1374 1375 1672 1671 
1342 1343 1640 1639 1375 1376 1673 1672 
1343 1344 1641 1640 1376 1377 1674 1673 
1344 1345 1642 1641 1377 1378 1675 1674 
1345 1346 1643 1642 1378 1379 1676 1675 
1346 1347 1644 1643 1379 1380 1677 1676 
1347 1348 1645 1644 1380 1381 1678 1677 
1348 1349 1646 1645 1381 1382 1679 1678 
1349 1350 1647 1646 1382 1383 1680 1679 
1350 1351 1648 1647 1383 1384 1681 1680 
1351 1352 1649 1648 1384 1385 1682 1681 
1353 1354 1651 1650 1386 1387 1684 1683 
1354 1355 1652 1651 1387 1388 1685 1684 
1355 1356 1653 1652 1388 1389 1686 1685 
1356 1357 1654 1653 1389 1390 1687 1686 
1357 1358 1655 1654 1390 1391 1688 1687 
1358 1359 1656 1655 1391 1392 1689 1688 
1359 1360 1657 1656 1392 1393 1690 1689 
1360 1361 1658 1657 1393 1394 1691 1690 
1361 1362 1659 1658 1394 1395 1692 1691 
1362 1363 1660 1659 1395 1396 1693 1692 
1363 1364 1661 1660 1396 1397 1694 1693 
1364 1365 1662 1661 1397 1398 1695 1694 
1365 1366 1663 1662 1398 1399 1696 1695 
1366 1367 1664 1663 1399 1400 1697 1696 
1367 1368 1665 1664 1400 1401 1698 1697 
1368 1369 1666 1665 1401 1402 1699 1698 
1369 1370 1667 1666 1402 1403 1700 1699 
1370 1371 1668 1667 1403 1404 1701 1700 
1371 1372 1669 1668 1404 1405 1702 1701 
1372 1373 1670 1669 1405 1406 1703 1702 
1373 1374 1671 1670 1406 1407 1704 1703 
1374 1375 1672 1671 1407 1408 1705 1704 
1375 1376 1673 1672 1408 1409 1706 1705 
1376 1377 1674 1673 1409 1410 1707 1706 
1377 1378 1675 1674 1410 1411 1708 1707 
1378 1379 1676 1675 1411 1412 1709 1708 
1379 1380 1677 1676 1412 1413 1710 1709 
1380 1381 1678 1677 1413 1414 1711 1710 
1381 1382 1679 1678 1414 1415 1712 1711 
1382 1383 1680 1679 1415 1416 1713 1712 
1383 1384 1681 1680 1416 1417 1714 1713 
1384 1385 1682 1681 1417 1418 1715 1714 
1386 1387 1684 1683 1419 1420 1717 1716 
1387 1388 1685 1684 1420 1421 1718 1717 
1388 1389 1686 1685 1421 1422 1719 1718 
1389 1390 1687 1686 1422 1423 1720 1719 
1390 1391 1688 1687 1423 1424 1721 1720 
1391 1392 1689 1688 1424 1425 1722 1721 
1392 1393 1690 1689 1425 1426 1723 1722 
1393 1394 1691 1690 1426 1427 1724 1723 
1394 1395 1692 1691 1427 1428 1725 1724 
1395 1396 1693 1692 1428 1429 1726 1725 
1396 1397 1694 1693 1429 1430 1727 1726 
1397 1398 1695 1694 1430 1431 1728 1727 
1398 1399 1696 1695 1431 1432 1729 1728 
1399 1400 1697 1696 1432 1433 1730 1729 
1400 1401 1698 1697 1433 1434 1731 1730 
1401 1402 1699 1698 1434 1435 1732 1731 
1402 1403 1700 1699 1435 1436 1733 1732 
1403 1404 1701 1700 1436 1437 1734 1733 
1404 1405 1702 1701 1437 1438 1735 1734 
1405 1406 1703 1702 1438 1439 1736 1735 
1406 1407 1704 1703 1439 1440 1737 1736 
1407 1408 1705 1704 1440 1441 1738 1737 
1408 1409 1706 1705 1441 1442 1739 1738 
1409 1410 1707 1706 1442 1443 1740 1739 
1410 1411 1708 1707 1443 1444 1741 1740 
1411 1412 1709 1708 1444 1445 1742 1741 
1412 1413 1710 1709 1445 1446 1743 1742 
1413 1414 1711 1710 1446 1447 1744 1743 
1414 1415 1712 1711 1447 1448 1745 1744 
1415 1416 1713 1712 1448 1449 1746 1745 
1416 1417 1714 1713 1449 1450 1747 1746 
1417 1418 1715 1714 1450 1451 1748 1747 
1419 1420 1717 1716 1452 1453 1750 1749 
1420 1421 1718 1717 1453 1454 1751 1750 
1421 1422 1719 1718 1454 1455 1752 1751 
1422 1423 1720 1719 1455 1456 1753 1752 
1423 1424 1721 1720 1456 1457 1754 1753 
1424 1425 1722 1721 1457 1458 1755 1754 
1425 1426 1723 1722 1458 1459 1756 1755 
1426 1427 1724 1723 1459 1460 1757 1756 
1427 1428 1725 1724 1460 1461 1758 1757 
1428 1429 1726 1725 1461 1462 1759 1758 
1429 1430 1727 1726 1462 1463 1760 1759 
1430 1431 1728 1727 1463 1464 1761 1760 
1431 1432 1729 1728 1464 1465 1762 1761 
1432 1433 1730 1729 1465 1466 1763 1762 
1433 1434 1731 1730 1466 1467 1764 1763 
1434 1435 1732 1731 1467 1468 1765 1764 
1435 1436 1733 1732 1468 1469 1766 1765 
1436 1437 1734 1733 1469 1470 1767 1766 
1437 1438 1735 1734 1470 1471 1768 1767 
1438 1439 1736 1735 1471 1472 1769 1768 
1439 1440 1737 1736 1472 1473 1770 1769 
1440 1441 1738 1737 1473 1474 1771 1770 
1441 1442 1739 1738 1474 1475 1772 1771 
1442 1443 1740 1739 1475 1476 1773 1772 
1443 1444 1741 1740 1476 1477 1774 1773 
1444 1445 1742 1741 1477 1478 1775 1774 
1445 1446 1743 1742 1478 1479 1776 1775 
1446 1447 1744 1743 1479 1480 1777 1776 
1447 1448 1745 1744 1480 1481 1778 1777 
1448 1449 1746 1745 1481 1482 1779 1778 
1449 1450 1747 1746 1482 1483 1780 1779 
1450 1451 1748 1747 1483 1484 1781 1780 
1485 1486 1783 1782 1518 1519 1816 1815 
1486 1487 1784 1783 1519 1520 1817 1816 
1487 1488 1785 1784 1520 1521 1818 1817 
1488 1489 1786 1785 1521 1522 1819 1818 
1489 1490 1787 1786 1522 1523 1820 1819 
1490 1491 1788 1787 1523 1524 1821 1820 
1491 1492 1789 1788 1524 1525 1822 1821 
1492 1493 1790 1789 1525 1526 1823 1822 
1493 1494 1791 1790 1526 1527 1824 1823 
1494 1495 1792 1791 1527 1528 1825 1824 
1495 1496 1793 1792 1528 1529 1826 1825 
1496 1497 1794 1793 1529 1530 1827 1826 
1497 1498 1795 1794 1530 1531 1828 1827 
1498 1499 1796 1795 1531 1532 1829 1828 
1499 1500 1797 1796 1532 1533 1830 1829 
1500 1501 1798 1797 1533 1534 1831 1830 
1501 1502 1799 1798 1534 1535 1832 1831 
1502 1503 1800 1799 1535 1536 1833 1832 
1503 1504 1801 1800 1536 1537 1834 1833 
1504 1505 1802 1801 1537 1538 1835 1834 
1505 1506 1803 1802 1538 1539 1836 1835 
1506 1507 1804 1803 1539 1540 1837 1836 
1507 1508 1805 1804 1540 1541 1838 1837 
1508 1509 1806 1805 1541 1542 1839 1838 
1509 1510 1807 1806 1542 1543 1840 1839 
1510 1511 1808 1807 1543 1544 1841 1840 
1511 1512 1809 1808 1544 1545 1842 1841 
1512 1513 1810 1809 1545 1546 1843 1842 
1513 1514 1811 1810 1546 1547 1844 1843 
1514 1515 1812 1811 1547 1548 1845 1844 
1515 1516 1813 1812 1548 1549 1846 1845 
1516 1517 1814 1813 1549 1550 1847 1846 
1518 1519 1816 1815 1551 1552 1849 1848 
1519 1520 1817 1816 1552 1553 1850 1849 
1520 1521 1818 1817 1553 1554 1851 1850 
1521 1522 1819 1818 1554 1555 1852 1851 
1522 1523 1820 1819 1555 1556 1853 1852 
1523 1524 1821 1820 1556 1557 1854 1853 
1524 1525 1822 1821 1557 1558 1855 1854 
1525 1526 1823 1822 1558 1559 1856 1855 
1526 1527 1824 1823 1559 1560 1857 1856 
1527 1528 1825 1824 1560 1561 1858 1857 
1528 1529 1826 1825 1561 1562 1859 1858 
1529 1530 1827 1826 1562 1563 1860 1859 
1530 1531 1828 1827 1563 1564 1861 1860 
1531 1532 1829 1828 1564 1565 1862 1861 
1532 1533 1830 1829 1565 1566 1863 1862 
1533 1534 1831 1830 1566 1567 1864 1863 
1534 1535 1832 1831 1567 1568 1865 1864 
1535 1536 1833 1832 1568 1569 1866 1865 
1536 1537 1834 1833 1569 1570 1867 1866 
1537 1538 1835 1834 1570 1571 1868 1867 
1538 1539 1836 1835 1571 1572 1869 1868 
1539 1540 1837 1836 1572 1573 1870 1869 
1540 1541 1838 1837 1573 1574 1871 1870 
1541 1542 1839 1838 1574 1575 1872 1871 
1542 1543 1840 1839 1575 1576 1873 1872 
1543 1544 1841 1840 1576 1577 1874 1873 
1544 1545 1842 1841 1577 1578 1875 1874 
1545 1546 1843 1842 1578 1579 1876 1875 
1546 1547 1844 1843 1579 1580 1877 1876 
1547 1548 1845 1844 1580 1581 1878 1877 
1548 1549 1846 1845 1581 1582 1879 1878 
1549 1550 1847 1846 1582 1583 1880 1879 
1551 1552 1849 1848 1584 1585 1882 1881 
1552 1553 1850 1849 1585 1586 1883 1882 
1553 1554 1851 1850 1586 1587 1884 1883 
1554 1555 1852 1851 1587 1588 1885 1884 
1555 1556 1853 1852 1588 1589 1886 1885 
1556 1557 1854 1853 1589 1590 1887 1886 
1557 1558 1855 1854 1590 1591 1888 1887 
1558 1559 1856 1855 1591 1592 1889 1888 
1559 1560 1857 1856 1592 1593 1890 1889 
1560 1561 1858 1857 1593 1594 1891 1890 
1561 1562 1859 1858 1594 1595 1892 1891 
1562 1563 1860 1859 1595 1596 1893 1892 
1563 1564 1861 1860 1596 1597 1894 1893 
1564 1565 1862 1861 1597 1598 1895 1894 
1565 1566 1863 1862 1598 1599 1896 1895 
1566 1567 1864 1863 1599 1600 1897 1896 
1567 1568 1865 1864 1600 1601 1898 1897 
1568 1569 1866 1865 1601 1602 1899 1898 
1569 1570 1867 1866 1602 1603 1900 1899 
1570 1571 1868 1867 1603 1604 1901 1900 
1571 1572 1869 1868 1604 1605 1902 1901 
1572 1573 1870 1869 1605 1606 1903 1902 
1573 1574 1871 1870 1606 1607 1904 1903 
1574 1575 1872 1871 1607 1608 1905 1904 
1575 1576 1873 1872 1608 1609 1906 1905 
1576 1577 1874 1873 1609 1610 1907 1906 
1577 1578 1875 1874 1610 1611 1908 1907 
1578 1579 1876 1875 1611 1612 1909 1908 
1579 1580 1877 1876 1612 1613 1910 1909 
1580 1581 1878 1877 1613 1614 1911 1910 
1581 1582 1879 1878 1614 1615 1912 1911 
1582 1583 1880 1879 1615 1616 1913 1912 
1584 1585 1882 1881 1617 1618 1915 1914 
1585 1586 1883 1882 1618 1619 1916 1915 
1586 1587 1884 1883 1619 1620 1917 1916 
1587 1588 1885 1884 1620 1621 1918 1917 
1588 1589 1886 1885 1621 1622 1919 1918 
1589 1590 1887 1886 1622 1623 1920 1919 
1590 1591 1888 1887 1623 1624 1921 1920 
1591 1592 1889 1888 1624 1625 1922 1921 
1592 1593 1890 1889 1625 1626 1923 1922 
1593 1594 1891 1890 1626 1627 1924 1923 
1594 1595 1892 1891 1627 1628 1925 1924 
1595 1596 1893 1892 1628 1629 1926 1925 
1596 1597 1894 1893 1629 1630 1927 1926 
1597 1598 1895 1894 1630 1631 1928 1927 
1598 1599 1896 1895 1631 1632 1929 1928 
1599 1600 1897 1896 1632 1633 1930 1929 
1600 1601 1898 1897 1633 1634 1931 1930 
1601 1602 1899 1898 1634 1635 1932 1931 
1602 1603 1900 1899 1635 1636 1933 1932 
1603 1604 1901 1900 1636 1637 1934 1933 
1604 1605 1902 1901 1637 1638 1935 1934 
1605 1606 1903 1902 1638 1639 1936 1935 
1606 1607 1904 1903 1639 1640 1937 1936 
1607 1608 1905 1904 1640 1641 1938 1937 
1608 1609 1906 1905 1641 1642 1939 1938 
1609 1610 1907 1906 1642 1643 1940 1939 
1610 1611 1908 1907 1643 1644 1941 1940 
1611 1612 1909 1908 1644 1645 1942 1941 
1612 1613 1910 1909 1645 1646 1943 1942 
1613 1614 1911 1910 1646 1647 1944 1943 
1614 1615 1912 1911 1647 1648 1945 1944 
1615 1616 1913 1912 1648 1649 1946 1945 
1617 1618 1915 1914 1650 1651 1948 1947 
1618 1619 1916 1915 1651 1652 1949 1948 
1619 1620 1917 1916 1652 1653 1950 1949 
1620 1621 1918 1917 1653 1654 1951 1950 
1621 1622 1919 1918 1654 1655 1952 1951 
1622 1623 1920 1919 1655 1656 1953 1952 
1623 1624 1921 1920 1656 1657 1954 1953 
1624 1625 1922 1921 1657 1658 1955 1954 
1625 1626 1923 1922 1658 1659 1956 1955 
1626 1627 1924 1923 1659 1660 1957 1956 
1627 1628 1925 1924 1660 1661 1958 1957 
1628 1629 1926 1925 1661 1662 1959 1958 
1629 1630 1927 1926 1662 1663 1960 1959 
1630 1631 1928 1927 1663 1664 1961 1960 
1631 1632 1929 1928 1664 1665 1962 1961 
1632 1633 1930 1929 1665 1666 1963 1962 
1633 1634 1931 1930 1666 1667 1964 1963 
1634 1635 1932 1931 1667 1668 1965 1964 
1635 1636 1933 1932 1668 1669 1966 1965 
1636 1637 1934 1933 1669 1670 1967 1966 
1637 1638 1935 1934 1670 1671 1968 1967 
1638 1639 1936 1935 1671 1672 1969 1968 
1639 1640 1937 1936 1672 1673 1970 1969 
1640 1641 1938 1937 1673 1674 1971 1970 
1641 1642 1939 1938 1674 1675 1972 1971 
1642 1643 1940 1939 1675 1676 1973 1972 
1643 1644 1941 1940 1676 1677 1974 1973 
1644 1645 1942 1941 1677 1678 1975 1974 
1645 1646 1943 1942 1678 1679 1976 1975 
1646 1647 1944 1943 1679 1680 1977 1976 
1647 1648 1945 1944 1680 1681 1978 1977 
1648 1649 1946 1945 1681 1682 1979 1978 
1650 1651 1948 1947 1683 1684 1981 1980 
1651 1652 1949 1948 1684 1685 1982 1981 
1652 1653 1950 1949 1685 1686 1983 1982 
1653 1654 1951 1950 1686 1687 1984 1983 
1654 1655 1952 1951 1687 1688 1985 1984 
1655 1656 1953 1952 1688 1689 1986 1985 
1656 1657 1954 1953 1689 1690 1987 1986 
1657 1658 1955 1954 1690 1691 1988 1987 
1658 1659 1956 1955 1691 1692 1989 1988 
1659 1660 1957 1956 1692 1693 1990 1989 
1660 1661 1958 1957 1693 1694 1991 1990 
1661 1662 1959 1958 1694 1695 1992 1991 
1662 1663 1960 1959 1695 1696 1993 1992 
1663 1664 1961 1960 1696 1697 1994 1993 
1664 1665 1962 1961 1697 1698 1995 1994 
1665 1666 1963 1962 1698 1699 1996 1995 
1666 1667 1964 1963 1699 1700 1997 1996 
1667 1668 1965 1964 1700 1701 1998 1997 
1668 1669 1966 1965 1701 1702 1999 1998 
1669 1670 1967 1966 1702 1703 2000 1999 
1670 1671 1968 1967 1703 1704 2001 2000 
1671 1672 1969 1968 1704 1705 2002 2001 
1672 1673 1970 1969 1705 1706 2003 2002 
1673 1674 1971 1970 1706 1707 2004 2003 
1674 1675 1972 1971 1707 1708 2005 2004 
1675 1676 1973 1972 1708 1709 2006 2005 
1676 1677 1974 1973 1709 1710 2007 2006 
1677 1678 1975 1974 1710 1711 2008 2007 
1678 1679 1976 1975 1711 1712 2009 2008 
1679 1680 1977 1976 1712 1713 2010 2009 
1680 1681 1978 1977 1713 1714 2011 2010 
1681 1682 1979 1978 1714 1715 2012 2011 
1683 1684 1981 1980 1716 1717 2014 2013 
1684 1685 1982 1981 1717 1718 2015 2014 
1685 1686 1983 1982 1718 1719 2016 2015 
1686 1687 1984 1983 1719 1720 2017 2016 
1687 1688 1985 1984 1720 1721 2018 2017 
1688 1689 1986 1985 1721 1722 2019 2018 
1689 1690 1987 1986 1722 1723 2020 2019 
1690 1691 1988 1987 1723 1724 2021 2020 
1691 1692 1989 1988 1724 1725 2022 2021 
1692 1693 1990 1989 1725 1726 2023 2022 
1693 1694 1991 1990 1726 1727 2024 2023 
1694 1695 1992 1991 1727 1728 2025 2024 
1695 1696 1993 1992 1728 1729 2026 2025 
1696 1697 1994 1993 1729 1730 2027 2026 
1697 1698 1995 1994 1730 1731 2028 2027 
1698 1699 1996 1995 1731 1732 2029 2028 
1699 1700 1997 1996 1732 1733 2030 2029 
1700 1701 1998 1997 1733 1734 2031 2030 
1701 1702 1999 1998 1734 1735 2032 2031 
1702 1703 2000 1999 1735 1736 2033 2032 
1703 1704 2001 2000 1736 1737 2034 2033 
1704 1705 2002 2001 1737 1738 2035 2034 
1705 1706 2003 2002 1738 1739 2036 2035 
1706 1707 2004 2003 1739 1740 2037 2036 
1707 1708 2005 2004 1740 1741 2038 2037 
1708 1709 2006 2005 1741 1742 2039 2038 
1709 1710 2007 2006 1742 1743 2040 2039 
1710 1711 2008 2007 1743 1744 2041 2040 
1711 1712 2009 2008 1744 1745 2042 2041 
1712 1713 2010 2009 1745 1746 2043 2042 
1713 1714 2011 2010 1746 1747 2044 2043 
1714 1715 2012 2011 1747 1748 2045 2044 
1716 1717 2014 2013 1749 1750 2047 2046 
1717 1718 2015 2014 1750 1751 2048 2047 
1718 1719 2016 2015 1751 1752 2049 2048 
1719 1720 2017 2016 1752 1753 2050 2049 
1720 1721 2018 2017 1753 1754 2051 2050 
1721 1722 2019 2018 1754 1755 2052 2051 
1722 1723 2020 2019 1755 1756 2053 2052 
1723 1724 2021 2020 1756 1757 2054 2053 
1724 1725 2022 2021 1757 1758 2055 2054 
1725 1726 2023 2022 1758 1759 2056 2055 
1726 1727 2024 2023 1759 1760 2057 2056 
1727 1728 2025 2024 1760 1761 2058 2057 
1728 1729 2026 2025 1761 1762 2059 2058 
1729 1730 2027 2026 1762 1763 2060 2059 
1730 1731 2028 2027 1763 1764 2061 2060 
1731 1732 2029 2028 1764 1765 2062 2061 
1732 1733 2030 2029 1765 1766 2063 2062 
1733 1734 2031 2030 1766 1767 2064 2063 
1734 1735 2032 2031 1767 1768 2065 2064 
1735 1736 2033 2032 1768 1769 2066 2065 
1736 1737 2034 2033 1769 1770 2067 2066 
1737 1738 2035 2034 1770 1771 2068 2067 
1738 1739 2036 2035 1771 1772 2069 2068 
1739 1740 2037 2036 1772 1773 2070 2069 
1740 1741 2038 2037 1773 1774 2071 2070 
1741 1742 2039 2038 1774 1775 2072 2071 
1742 1743 2040 2039 1775 1776 2073 2072 
1743 1744 2041 2040 1776 1777 2074 2073 
1744 1745 2042 2041 1777 1778 2075 2074 
1745 1746 2043 2042 1778 1779 2076 2075 
1746 1747 2044 2043 1779 1780 2077 2076 
1747 1748 2045 2044 1780 1781 2078 2077 
1782 1783 2080 2079 1815 1816 2113 2112 
1783 1784 2081 2080 1816 1817 2114 2113 
1784 1785 2082 2081 1817 1818 2115 2114 
1785 1786 2083 2082 1818 1819 2116 2115 
1786 1787 2084 2083 1819 1820 2117 2116 
1787 1788 2085 2084 1820 1821 2118 2117 
1788 1789 2086 2085 1821 1822 2119 2118 
1789 1790 2087 2086 1822 1823 2120 2119 
1790 1791 2088 2087 1823 1824 2121 2120 
1791 1792 2089 2088 1824 1825 2122 2121 
1792 1793 2090 2089 1825 1826 2123 2122 
1793 1794 2091 2090 1826 1827 2124 2123 
1794 1795 2092 2091 1827 1828 2125 2124 
1795 1796 2093 2092 1828 1829 2126 2125 
1796 1797 2094 2093 1829 1830 2127 2126 
1797 1798 2095 2094 1830 1831 2128 2127 
1798 1799 2096 2095 1831 1832 2129 2128 
1799 1800 2097 2096 1832 1833 2130 2129 
1800 1801 2098 2097 1833 1834 2131 2130 
1801 1802 2099 2098 1834 1835 2132 2131 
1802 1803 2100 2099 1835 1836 2133 2132 
1803 1804 2101 2100 1836 1837 2134 2133 
1804 1805 2102 2101 1837 1838 2135 2134 
1805 1806 2103 2102 1838 1839 2136 2135 
1806 1807 2104 2103 1839 1840 2137 2136 
1807 1808 2105 2104 1840 1841 2138 2137 
1808 1809 2106 2105 1841 1842 2139 2138 
1809 1810 2107 2106 1842 1843 2140 2139 
1810 1811 2108 2107 1843 1844 2141 2140 
1811 1812 2109 2108 1844 1845 2142 2141 
1812 1813 2110 2109 1845 1846 2143 2142 
1813 1814 2111 2110 1846 1847 2144 2143 
1815 1816 2113 2112 1848 1849 2146 2145 
1816 1817 2114 2113 1849 1850 2147 2146 
1817 1818 2115 2114 1850 1851 2148 2147 
1818 1819 2116 2115 1851 1852 2149 2148 
1819 1820 2117 2116 1852 1853 2150 2149 
1820 1821 2118 2117 1853 1854 2151 2150 
1821 1822 2119 2118 1854 1855 2152 2151 
1822 1823 2120 2119 1855 1856 2153 2152 
1823 1824 2121 2120 1856 1857 2154 2153 
1824 1825 2122 2121 1857 1858 2155 2154 
1825 1826 2123 2122 1858 1859 2156 2155 
1826 1827 2124 2123 1859 1860 2157 2156 
1827 1828 2125 2124 1860 1861 2158 2157 
1828 1829 2126 2125 1861 1862 2159 2158 
1829 1830 2127 2126 1862 1863 2160 2159 
1830 1831 2128 2127 1863 1864 2161 2160 
1831 1832 2129 2128 1864 1865 2162 2161 
1832 1833 2130 2129 1865 1866 2163 2162 
1833 1834 2131 2130 1866 1867 2164 2163 
1834 1835 2132 2131 1867 1868 2165 2164 
1835 1836 2133 2132 1868 1869 2166 2165 
1836 1837 2134 2133 1869 1870 2167 2166 
1837 1838 2135 2134 1870 1871 2168 2167 
1838 1839 2136 2135 1871 1872 2169 2168 
1839 1840 2137 2136 1872 1873 2170 2169 
1840 1841 2138 2137 1873 1874 2171 2170 
1841 1842 2139 2138 1874 1875 2172 2171 
1842 1843 2140 2139 1875 1876 2173 2172 
1843 1844 2141 2140 1876 1877 2174 2173 
1844 1845 2142 2141 1877 1878 2175 2174 
1845 1846 2143 2142 1878 1879 2176 2175 
1846 1847 2144 2143 1879 1880 2177 2176 
1848 1849 2146 2145 1881 1882 2179 2178 
1849 1850 2147 2146 1882 1883 2180 2179 
1850 1851 2148 2147 1883 1884 2181 2180 
1851 1852 2149 2148 1884 1885 2182 2181 
1852 1853 2150 2149 1885 1886 2183 2182 
1853 1854 2151 2150 1886 1887 2184 2183 
1854 1855 2152 2151 1887 1888 2185 2184 
1855 1856 2153 2152 1888 1889 2186 2185 
1856 1857 2154 2153 1889 1890 2187 2186 
1857 1858 2155 2154 1890 1891 2188 2187 
1858 1859 2156 2155 1891 1892 2189 2188 
1859 1860 2157 2156 1892 1893 2190 2189 
1860 1861 2158 2157 1893 1894 2191 2190 
1861 1862 2159 2158 1894 1895 2192 2191 
1862 1863 2160 2159 1895 1896 2193 2192 
1863 1864 2161 2160 1896 1897 2194 2193 
1864 1865 2162 2161 1897 1898 2195 2194 
1865 1866 2163 2162 1898 1899 2196 2195 
1866 1867 2164 2163 1899 1900 2197 2196 
1867 1868 2165 2164 1900 1901 2198 2197 
1868 1869 2166 2165 1901 1902 2199 2198 
1869 1870 2167 2166 1902 1903 2200 2199 
1870 1871 2168 2167 1903 1904 2201 2200 
1871 1872 2169 2168 1904 1905 2202 2201 
1872 1873 2170 2169 1905 1906 2203 2202 
1873 1874 2171 2170 1906 1907 2204 2203 
1874 1875 2172 2171 1907 1908 2205 2204 
1875 1876 2173 2172 1908 1909 2206 2205 
1876 1877 2174 2173 1909 1910 2207 2206 
1877 1878 2175 2174 1910 1911 2208 2207 
1878 1879 2176 2175 1911 1912 2209 2208 
1879 1880 2177 2176 1912 1913 2210 2209 
1881 1882 2179 2178 1914 1915 2212 2211 
1882 1883 2180 2179 1915 1916 2213 2212 
1883 1884 2181 2180 1916 1917 2214 2213 
1884 1885 2182 2181 1917 1918 2215 2214 
1885 1886 2183 2182 1918 1919 2216 2215 
1886 1887 2184 2183 1919 1920 2217 2216 
1887 1888 2185 2184 1920 1921 2218 2217 
1888 1889 2186 2185 1921 1922 2219 2218 
1889 1890 2187 2186 1922 1923 2220 2219 
1890 1891 2188 2187 1923 1924 2221 2220 
1891 1892 2189 2188 1924 1925 2222 2221 
1892 1893 2190 2189 1925 1926 2223 2222 
1893 1894 2191 2190 1926 1927 2224 2223 
1894 1895 2192 2191 1927 1928 2225 2224 
1895 1896 2193 2192 1928 1929 2226 2225 
1896 1897 2194 2193 1929 1930 2227 2226 
1897 1898 2195 2194 1930 1931 2228 2227 
1898 1899 2196 2195 1931 1932 2229 2228 
1899 1900 2197 2196 1932 1933 2230 2229 
1900 1901 2198 2197 1933 1934 2231 2230 
1901 1902 2199 2198 1934 1935 2232 2231 
1902 1903 2200 2199 1935 1936 2233 2232 
1903 1904 2201 2200 1936 1937 2234 2233 
1904 1905 2202 2201 1937 1938 2235 2234 
1905 1906 2203 2202 1938 1939 2236 2235 
1906 1907 2204 2203 1939 1940 2237 2236 
1907 1908 2205 2204 1940 1941 2238 2237 
1908 1909 2206 2205 1941 1942 2239 2238 
1909 1910 2207 2206 1942 1943 2240 2239 
1910 1911 2208 2207 1943 1944 2241 2240 
1911 1912 2209 2208 1944 1945 2242 2241 
1912 1913 2210 2209 1945 1946 2243 2242 
1914 1915 2212 2211 1947 1948 2245 2244 
1915 1916 2213 2212 1948 1949 2246 2245 
1916 1917 2214 2213 1949 1950 2247 2246 
1917 1918 2215 2214 1950 1951 2248 2247 
1918 1919 2216 2215 1951 1952 2249 2248 
1919 1920 2217 2216 1952 1953 2250 2249 
1920 1921 2218 2217 1953 1954 2251 2250 
1921 1922 2219 2218 1954 1955 2252 2251 
1922 1923 2220 2219 1955 1956 2253 2252 
1923 1924 2221 2220 1956 1957 2254 2253 
1924 1925 2222 2221 1957 1958 2255 2254 
1925 1926 2223 2222 1958 1959 2256 2255 
1926 1927 2224 2223 1959 1960 2257 2256 
1927 1928 2225 2224 1960 1961 2258 2257 
1928 1929 2226 2225 1961 1962 2259 2258 
1929 1930 2227 2226 1962 1963 2260 2259 
1930 1931 2228 2227 1963 1964 2261 2260 
1931 1932 2229 2228 1964 1965 2262 2261 
1932 1933 2230 2229 1965 1966 2263 2262 
1933 1934 2231 2230 1966 1967 2264 2263 
1934 1935 2232 2231 1967 1968 2265 2264 
1935 1936 2233 2232 1968 1969 2266 2265 
1936 1937 2234 2233 1969 1970 2267 2266 
1937 1938 2235 2234 1970 1971 2268 2267 
1938 1939 2236 2235 1971 1972 2269 2268 
1939 1940 2237 2236 1972 1973 2270 2269 
1940 1941 2238 2237 1973 1974 2271 2270 
1941 1942 2239 2238 1974 1975 2272 2271 
1942 1943 2240 2239 1975 1976 2273 2272 
1943 1944 2241 2240 1976 1977 2274 2273 
1944 1945 2242 2241 1977 1978 2275 2274 
1945 1946 2243 2242 1978 1979 2276 2275 
1947 1948 2245 2244 1980 1981 2278 2277 
1948 1949 2246 2245 1981 1982 2279 2278 
1949 1950 2247 2246 1982 1983 2280 2279 
1950 1951 2248 2247 1983 1984 2281 2280 
1951 1952 2249 2248 1984 1985 2282 2281 
1952 1953 2250 2249 1985 1986 2283 2282 
1953 1954 2251 2250 1986 1987 2284 2283 
1954 1955 2252 2251 1987 1988 2285 2284 
1955 1956 2253 2252 1988 1989 2286 2285 
1956 1957 2254 2253 1989 1990 2287 2286 
1957 1958 2255 2254 1990 1991 2288 2287 
1958 1959 2256 2255 1991 1992 2289 2288 
1959 1960 2257 2256 1992 1993 2290 2289 
1960 1961 2258 2257 1993 1994 2291 2290 
1961 1962 2259 2258 1994 1995 2292 2291 
1962 1963 2260 2259 1995 1996 2293 2292 
1963 1964 2261 2260 1996 1997 2294 2293 
1964 1965 2262 2261 1997 1998 2295 2294 
1965 1966 2263 2262 1998 1999 2296 2295 
1966 1967 2264 2263 1999 2000 2297 2296 
1967 1968 2265 2264 2000 2001 2298 2297 
1968 1969 2266 2265 2001 2002 2299 2298 
1969 1970 2267 2266 2002 2003 2300 2299 
1970 1971 2268 2267 2003 2004 2301 2300 
1971 1972 2269 2268 2004 2005 2302 2301 
1972 1973 2270 2269 2005 2006 2303 2302 
1973 1974 2271 2270 2006 2007 2304 2303 
1974 1975 2272 2271 2007 2008 2305 2304 
1975 1976 2273 2272 2008 2009 2306 2305 
1976 1977 2274 2273 2009 2010 2307 2306 
1977 1978 2275 2274 2010 2011 2308 2307 
1978 1979 2276 2275 2011 2012 2309 2308 
1980 1981 2278 2277 2013 2014 2311 2310 
1981 1982 2279 2278 2014 2015 2312 2311 
1982 1983 2280 2279 2015 2016 2313 2312 
1983 1984 2281 2280 2016 2017 2314 2313 
1984 1985 2282 2281 2017 2018 2315 2314 
1985 1986 2283 2282 2018 2019 2316 2315 
1986 1987 2284 2283 2019 2020 2317 2316 
1987 1988 2285 2284 2020 2021 2318 2317 
1988 1989 2286 2285 2021 2022 2319 2318 
1989 1990 2287 2286 2022 2023 2320 2319 
1990 1991 2288 2287 2023 2024 2321 2320 
1991 1992 2289 2288 2024 2025 2322 2321 
1992 1993 2290 2289 2025 2026 2323 2322 
1993 1994 2291 2290 2026 2027 2324 2323 
1994 1995 2292 2291 2027 2028 2325 2324 
1995 1996 2293 2292 2028 2029 2326 2325 
1996 1997 2294 2293 2029 2030 2327 2326 
1997 1998 2295 2294 2030 2031 2328 2327 
1998 1999 2296 2295 2031 2032 2329 2328 
1999 2000 2297 2296 2032 2033 2330 2329 
2000 2001 2298 2297 2033 2034 2331 2330 
2001 2002 2299 2298 2034 2035 2332 2331 
2002 2003 2300 2299 2035 2036 2333 2332 
2003 2004 2301 2300 2036 2037 2334 2333 
2004 2005 2302 2301 2037 2038 2335 2334 
2005 2006 2303 2302 2038 2039 2336 2335 
2006 2007 2304 2303 2039 2040 2337 2336 
2007 2008 2305 2304 2040 2041 2338 2337 
2008 2009 2306 2305 2041 2042 2339 2338 
2009 2010 2307 2306 2042 2043 2340 2339 
2010 2011 2308 2307 2043 2044 2341 2340 
2011 2012 2309 2308 2044 2045 2342 2341 
2013 2014 2311 2310 2046 2047 2344 2343 
2014 2015 2312 2311 2047 2048 2345 2344 
2015 2016 2313 2312 2048 2049 2346 2345 
2016 2017 2314 2313 2049 2050 2347 2346 
2017 2018 2315 2314 2050 2051 2348 2347 
2018 2019 2316 2315 2051 2052 2349 2348 
2019 2020 2317 2316 2052 2053 2350 2349 
2020 2021 2318 2317 2053 2054 2351 2350 
2021 2022 2319 2318 2054 2055 2352 2351 
2022 2023 2320 2319 2055 2056 2353 2352 
2023 2024 2321 2320 2056 2057 2354 2353 
2024 2025 2322 2321 2057 2058 2355 2354 
2025 2026 2323 2322 2058 2059 2356 2355 
2026 2027 2324 2323 2059 2060 2357 2356 
2027 2028 2325 2324 2060 2061 2358 2357 
2028 2029 2326 2325 2061 2062 2359 2358 
2029 2030 2327 2326 2062 2063 2360 2359 
2030 2031 2328 2327 2063 2064 2361 2360 
2031 2032 2329 2328 2064 2065 2362 2361 
2032 2033 2330 2329 2065 2066 2363 2362 
2033 2034 2331 2330 2066 2067 2364 2363 
2034 2035 2332 2331 2067 2068 2365 2364 
2035 2036 2333 2332 2068 2069 2366 2365 
2036 2037 2334 2333 2069 2070 2367 2366 
2037 2038 2335 2334 2070 2071 2368 2367 
2038 2039 2336 2335 2071 2072 2369 2368 
2039 2040 2337 2336 2072 2073 2370 2369 
2040 2041 2338 2337 2073 2074 2371 2370 
2041 2042 2339 2338 2074 2075 2372 2371 
2042 2043 2340 2339 2075 2076 2373 2372 
2043 2044 2341 2340 2076 2077 2374 2373 
2044 2045 2342 2341 2077 2078 2375 2374 
2079 2080 2377 2376 2112 2113 2410 2409 
2080 2081 2378 2377 2113 2114 2411 2410 
2081 2082 2379 2378 2114 2115 2412 2411 
2082 2083 2380 2379 2115 2116 2413 2412 
2083 2084 2381 2380 2116 2117 2414 2413 
2084 2085 2382 2381 2117 2118 2415 2414 
2085 2086 2383 2382 2118 2119 2416 2415 
2086 2087 2384 2383 2119 2120 2417 2416 
2087 2088 2385 2384 2120 2121 2418 2417 
2088 2089 2386 2385 2121 2122 2419 2418 
2089 2090 2387 2386 2122 2123 2420 2419 
2090 2091 2388 2387 2123 2124 2421 2420 
2091 2092 2389 2388 2124 2125 2422 2421 
2092 2093 2390 2389 2125 2126 2423 2422 
2093 2094 2391 2390 2126 2127 2424 2423 
2094 2095 2392 2391 2127 2128 2425 2424 
2095 2096 2393 2392 2128 2129 2426 2425 
2096 2097 2394 2393 2129 2130 2427 2426 
2097 2098 2395 2394 2130 2131 2428 2427 
2098 2099 2396 2395 2131 2132 2429 2428 
2099 2100 2397 2396 2132 2133 2430 2429 
2100 2101 2398 2397 2133 2134 2431 2430 
2101 2102 2399 2398 2134 2135 2432 2431 
2102 2103 2400 2399 2135 2136 2433 2432 
2103 2104 2401 2400 2136 2137 2434 2433 
2104 2105 2402 2401 2137 2138 2435 2434 
2105 2106 2403 2402 2138 2139 2436 2435 
2106 2107 2404 2403 2139 2140 2437 2436 
2107 2108 2405 2404 2140 2141 2438 2437 
2108 2109 2406 2405 2141 2142 2439 2438 
2109 2110 2407 2406 2142 2143 2440 2439 
2110 2111 2408 2407 2143 2144 2441 2440 
2112 2113 2410 2409 2145 2146 2443 2442 
2113 2114 2411 2410 2146 2147 2444 2443 
2114 2115 2412 2411 2147 2148 2445 2444 
2115 2116 2413 2412 2148 2149 2446 2445 
2116 2117 2414 2413 2149 2150 2447 2446 
2117 2118 2415 2414 2150 2151 2448 2447 
2118 2119 2416 2415 2151 2152 2449 2448 
2119 2120 2417 2416 2152 2153 2450 2449 
2120 2121 2418 2417 2153 2154 2451 2450 
2121 2122 2419 2418 2154 2155 2452 2451 
2122 2123 2420 2419 2155 2156 2453 2452 
2123 2124 2421 2420 2156 2157 2454 2453 
2124 2125 2422 2421 2157 2158 2455 2454 
2125 2126 2423 2422 2158 2159 2456 2455 
2126 2127 2424 2423 2159 2160 2457 2456 
2127 2128 2425 2424 2160 2161 2458 2457 
2128 2129 2426 2425 2161 2162 2459 2458 
2129 2130 2427 2426 2162 2163 2460 2459 
2130 2131 2428 2427 2163 2164 2461 2460 
2131 2132 2429 2428 2164 2165 2462 2461 
2132 2133 2430 2429 2165 2166 2463 2462 
2133 2134 2431 2430 2166 2167 2464 2463 
2134 2135 2432 2431 2167 2168 2465 2464 
2135 2136 2433 2432 2168 2169 2466 2465 
2136 2137 2434 2433 2169 2170 2467 2466 
2137 2138 2435 2434 2170 2171 2468 2467 
2138 2139 2436 2435 2171 2172 2469 2468 
2139 2140 2437 2436 2172 2173 2470 2469 
2140 2141 2438 2437 2173 2174 2471 2470 
2141 2142 2439 2438 2174 2175 2472 2471 
2142 2143 2440 2439 2175 2176 2473 2472 
2143 2144 2441 2440 2176 2177 2474 2473 
2145 2146 2443 2442 2178 2179 2476 2475 
2146 2147 2444 2443 2179 2180 2477 2476 
2147 2148 2445 2444 2180 2181 2478 2477 
2148 2149 2446 2445 2181 2182 2479 2478 
2149 2150 2447 2446 2182 2183 2480 2479 
2150 2151 2448 2447 2183 2184 2481 2480 
2151 2152 2449 2448 2184 2185 2482 2481 
2152 2153 2450 2449 2185 2186 2483 2482 
2153 2154 2451 2450 2186 2187 2484 2483 
2154 2155 2452 2451 2187 2188 2485 2484 
2155 2156 2453 2452 2188 2189 2486 2485 
2156 2157 2454 2453 2189 2190 2487 2486 
2157 2158 2455 2454 2190 2191 2488 2487 
2158 2159 2456 2455 2191 2192 2489 2488 
2159 2160 2457 2456 2192 2193 2490 2489 
2160 2161 2458 2457 2193 2194 2491 2490 
2161 2162 2459 2458 2194 2195 2492 2491 
2162 2163 2460 2459 2195 2196 2493 2492 
2163 2164 2461 2460 2196 2197 2494 2493 
2164 2165 2462 2461 2197 2198 2495 2494 
2165 2166 2463 2462 2198 2199 2496 2495 
2166 2167 2464 2463 2199 2200 2497 2496 
2167 2168 2465 2464 2200 2201 2498 2497 
2168 2169 2466 2465 2201 2202 2499 2498 
2169 2170 2467 2466 2202 2203 2500 2499 
2170 2171 2468 2467 2203 2204 2501 2500 
2171 2172 2469 2468 2204 2205 2502 2501 
2172 2173 2470 2469 2205 2206 2503 2502 
2173 2174 2471 2470 2206 2207 2504 2503 
2174 2175 2472 2471 2207 2208 2505 2504 
2175 2176 2473 2472 2208 2209 2506 2505 
2176 2177 2474 2473 2209 2210 2507 2506 
2178 2179 2476 2475 2211 2212 2509 2508 
2179 2180 2477 2476 2212 2213 2510 2509 
2180 2181 2478 2477 2213 2214 2511 2510 
2181 2182 2479 2478 2214 2215 2512 2511 
2182 2183 2480 2479 2215 2216 2513 2512 
2183 2184 2481 2480 2216 2217 2514 2513 
2184 2185 2482 2481 2217 2218 2515 2514 
2185 2186 2483 2482 2218 2219 2516 2515 
2186 2187 2484 2483 2219 2220 2517 2516 
2187 2188 2485 2484 2220 2221 2518 2517 
2188 2189 2486 2485 2221 2222 2519 2518 
2189 2190 2487 2486 2222 2223 2520 2519 
2190 2191 2488 2487 2223 2224 2521 2520 
2191 2192 2489 2488 2224 2225 2522 2521 
2192 2193 2490 2489 2225 2226 2523 2522 
2193 2194 2491 2490 2226 2227 2524 2523 
2194 2195 2492 2491 2227 2228 2525 2524 
2195 2196 2493 2492 2228 2229 2526 2525 
2196 2197 2494 2493 2229 2230 2527 2526 
2197 2198 2495 2494 2230 2231 2528 2527 
2198 2199 2496 2495 2231 2232 2529 2528 
2199 2200 2497 2496 2232 2233 2530 2529 
2200 2201 2498 2497 2233 2234 2531 2530 
2201 2202 2499 2498 2234 2235 2532 2531 
2202 2203 2500 2499 2235 2236 2533 2532 
2203 2204 2501 2500 2236 2237 2534 2533 
2204 2205 2502 2501 2237 2238 2535 2534 
2205 2206 2503 2502 2238 2239 2536 2535 
2206 2207 2504 2503 2239 2240 2537 2536 
2207 2208 2505 2504 2240 2241 2538 2537 
2208 2209 2506 2505 2241 2242 2539 2538 
2209 2210 2507 2506 2242 2243 2540 2539 
2211 2212 2509 2508 2244 2245 2542 2541 
2212 2213 2510 2509 2245 2246 2543 2542 
2213 2214 2511 2510 2246 2247 2544 2543 
2214 2215 2512 2511 2247 2248 2545 2544 
2215 2216 2513 2512 2248 2249 2546 2545 
2216 2217 2514 2513 2249 2250 2547 2546 
2217 2218 2515 2514 2250 2251 2548 2547 
2218 2219 2516 2515 2251 2252 2549 2548 
2219 2220 2517 2516 2252 2253 2550 2549 
2220 2221 2518 2517 2253 2254 2551 2550 
2221 2222 2519 2518 2254 2255 2552 2551 
2222 2223 2520 2519 2255 2256 2553 2552 
2223 2224 2521 2520 2256 2257 2554 2553 
2224 2225 2522 2521 2257 2258 2555 2554 
2225 2226 2523 2522 2258 2259 2556 2555 
2226 2227 2524 2523 2259 2260 2557 2556 
2227 2228 2525 2524 2260 2261 2558 2557 
2228 2229 2526 2525 2261 2262 2559 2558 
2229 2230 2527 2526 2262 2263 2560 2559 
2230 2231 2528 2527 2263 2264 2561 2560 
2231 2232 2529 2528 2264 2265 2562 2561 
2232 2233 2530 2529 2265 2266 2563 2562 
2233 2234 2531 2530 2266 2267 2564 2563 
2234 2235 2532 2531 2267 2268 2565 2564 
2235 2236 2533 2532 2268 2269 2566 2565 
2236 2237 2534 2533 2269 2270 2567 2566 
2237 2238 2535 2534 2270 2271 2568 2567 
2238 2239 2536 2535 2271 2272 2569 2568 
2239 2240 2537 2536 2272 2273 2570 2569 
2240 2241 2538 2537 2273 2274 2571 2570 
2241 2242 2539 2538 2274 2275 2572 2571 
2242 2243 2540 2539 2275 2276 2573 2572 
2244 2245 2542 2541 2277 2278 2575 2574 
2245 2246 2543 2542 2278 2279 2576 2575 
2246 2247 2544 2543 2279 2280 2577 2576 
2247 2248 2545 2544 2280 2281 2578 2577 
2248 2249 2546 2545 2281 2282 2579 2578 
2249 2250 2547 2546 2282 2283 2580 2579 
2250 2251 2548 2547 2283 2284 2581 2580 
2251 2252 2549 2548 2284 2285 2582 2581 
2252 2253 2550 2549 2285 2286 2583 2582 
2253 2254 2551 2550 2286 2287 2584 2583 
2254 2255 2552 2551 2287 2288 2585 2584 
2255 2256 2553 2552 2288 2289 2586 2585 
2256 2257 2554 2553 2289 2290 2587 2586 
2257 2258 2555 2554 2290 2291 2588 2587 
2258 2259 2556 2555 2291 2292 2589 2588 
2259 2260 2557 2556 2292 2293 2590 2589 
2260 2261 2558 2557 2293 2294 2591 2590 
2261 2262 2559 2558 2294 2295 2592 2591 
2262 2263 2560 2559 2295 2296 2593 2592 
2263 2264 2561 2560 2296 2297 2594 2593 
2264 2265 2562 2561 2297 2298 2595 2594 
2265 2266 2563 2562 2298 2299 2596 2595 
2266 2267 2564 2563 2299 2300 2597 2596 
2267 2268 2565 2564 2300 2301 2598 2597 
2268 2269 2566 2565 2301 2302 2599 2598 
2269 2270 2567 2566 2302 2303 2600 2599 
2270 2271 2568 2567 2303 2304 2601 2600 
2271 2272 2569 2568 2304 2305 2602 2601 
2272 2273 2570 2569 2305 2306 2603 2602 
2273 2274 2571 2570 2306 2307 2604 2603 
2274 2275 2572 2571 2307 2308 2605 2604 
2275 2276 2573 2572 2308 2309 2606 2605 
2277 2278 2575 2574 2310 2311 2608 2607 
2278 2279 2576 2575 2311 2312 2609 2608 
2279 2280 2577 2576 2312 2313 2610 2609 
2280 2281 2578 2577 2313 2314 2611 2610 
2281 2282 2579 2578 2314 2315 2612 2611 
2282 2283 2580 2579 2315 2316 2613 2612 
2283 2284 2581 2580 2316 2317 2614 2613 
2284 2285 2582 2581 2317 2318 2615 2614 
2285 2286 2583 2582 2318 2319 2616 2615 
2286 2287 2584 2583 2319 2320 2617 2616 
2287 2288 2585 2584 2320 2321 2618 2617 
2288 2289 2586 2585 2321 2322 2619 2618 
2289 2290 2587 2586 2322 2323 2620 2619 
2290 2291 2588 2587 2323 2324 2621 2620 
2291 2292 2589 2588 2324 2325 2622 2621 
2292 2293 2590 2589 2325 2326 2623 2622 
2293 2294 2591 2590 2326 2327 2624 2623 
2294 2295 2592 2591 2327 2328 2625 2624 
2295 2296 2593 2592 2328 2329 2626 2625 
2296 2297 2594 2593 2329 2330 2627 2626 
2297 2298 2595 2594 2330 2331 2628 2627 
2298 2299 2596 2595 2331 2332 2629 2628 
2299 2300 2597 2596 2332 2333 2630 2629 
2300 2301 2598 2597 2333 2334 2631 2630 
2301 2302 2599 2598 2334 2335 2632 2631 
2302 2303 2600 2599 2335 2336 2633 2632 
2303 2304 2601 2600 2336 2337 2634 2633 
2304 2305 2602 2601 2337 2338 2635 2634 
2305 2306 2603 2602 2338 2339 2636 2635 
2306 2307 2604 2603 2339 2340 2637 2636 
2307 2308 2605 2604 2340 2341 2638 2637 
2308 2309 2606 2605 2341 2342 2639 2638 
2310 2311 2608 2607 2343 2344 2641 2640 
2311 2312 2609 2608 2344 2345 2642 2641 
2312 2313 2610 2609 2345 2346 2643 2642 
2313 2314 2611 2610 2346 2347 2644 2643 
2314 2315 2612 2611 2347 2348 2645 2644 
2315 2316 2613 2612 2348 2349 2646 2645 
2316 2317 2614 2613 2349 2350 2647 2646 
2317 2318 2615 2614 2350 2351 2648 2647 
2318 2319 2616 2615 2351 2352 2649 2648 
2319 2320 2617 2616 2352 2353 2650 2649 
2320 2321 2618 2617 2353 2354 2651 2650 
2321 2322 2619 2618 2354 2355 2652 2651 
2322 2323 2620 2619 2355 2356 2653 2652 
2323 2324 2621 2620 2356 2357 2654 2653 
2324 2325 2622 2621 2357 2358 2655 2654 
2325 2326 2623 2622 2358 2359 2656 2655 
2326 2327 2624 2623 2359 2360 2657 2656 
2327 2328 2625 2624 2360 2361 2658 2657 
2328 2329 2626 2625 2361 2362 2659 2658 
2329 2330 2627 2626 2362 2363 2660 2659 
2330 2331 2628 2627 2363 2364 2661 2660 
2331 2332 2629 2628 2364 2365 2662 2661 
2332 2333 2630 2629 2365 2366 2663 2662 
2333 2334 2631 2630 2366 2367 2664 2663 
2334 2335 2632 2631 2367 2368 2665 2664 
2335 2336 2633 2632 2368 2369 2666 2665 
2336 2337 2634 2633 2369 2370 2667 2666 
2337 2338 2635 2634 2370 2371 2668 2667 
2338 2339 2636 2635 2371 2372 2669 2668 
2339 2340 2637 2636 2372 2373 2670 2669 
2340 2341 2638 2637 2373 2374 2671 2670 
2341 2342 2639 2638 2374 2375 2672 2671 
CELL_TYPES 2048
12 12 12 12 12 12 12 12 12 12 12 12 12 12 12 12 12 12 12 12 12 12 12 12 12 12 12 12 12 12 12 12 12 12 12 12 12 12 12 12 12 12 12 12 12 12 12 12 12 12 12 12 12 12 12 12 12 12 12 12 12 12 12 12 12 12 12 12 12 12 12 12 12 12 12 12 12 12 12 12 12 12 12 12 12 12 12 12 12 12 12 12 12 12 12 12 12 12 12 12 12 12 12 12 12 12 12 12 12 12 12 12 12 12 12 12 12 12 12 12 12 12 12 12 12 12 12 12 12 12 12 12 12 12 12 12 12 12 12 12 12 12 12 12 12 12 12 12 12 12 12 12 12 12 12 12 12 12 12 12 12 12 12 12 12 12 12 12 12 12 12 12 12 12 12 12 12 12 12 12 12 12 12 12 12 12 12 12 12 12 12 12 12 12 12 12 12 12 12 12 12 12 12 12 12 12 12 12 12 12 12 12 12 12 12 12 12 12 12 12 12 12 12 12 12 12 12 12 12 12 12 12 12 12 12 12 12 12 12 12 12 12 12 12 12 12 12 12 12 12 12 12 12 12 12 12 12 12 12 12 12 12 12 12 12 12 12 12 12 12 12 12 12 12 12 12 12 12 12 12 12 12 12 12 12 12 12 12 12 12 12 12 12 12 12 12 12 12 12 12 12 12 12 12 12 12 12 12 12 12 12 12 12 12 12 12 12 12 12 12 12 12 12 12 12 12 12 12 12 12 12 12 12 12 12 12 12 12 12 12 12 12 12 12 12 12 12 12 12 12 12 12 12 12 12 12 12 12 12 12 12 12 12 12 12 12 12 12 12 12 12 12 12 12 12 12 12 12 12 12 12 12 12 12 12 12 12 12 12 12 12 12 12 12 12 12 12 12 12 12 12 12 12 12 12 12 12 12 12 12 12 12 12 12 12 12 12 12 12 12 12 12 12 12 12 12 12 12 12 12 12 12 12 12 12 12 12 12 12 12 12 12 12 12 12 12 12 12 12 12 12 12 12 12 12 12 12 12 12 12 12 12 12 12 12 12 12 12 12 12 12 12 12 12 12 12 12 12 12 12 12 12 12 12 12 12 12 12 12 12 12 12 12 12 12 12 12 12 12 12 12 12 12 12 12 12 12 12 12 12 12 12 12 12 12 12 12 12 12 12 12 12 12 12 12 12 12 12 12 12 12 12 12 12 12 12 12 12 12 12 12 12 12 12 12 12 12 12 12 12 12 12 12 12 12 12 12 12 12 12 12 12 12 12 12 12 12 12 12 12 12 12 12 12 12 12 12 12 12 12 12 12 12 12 12 12 12 12 12 12 12 12 12 12 12 12 12 12 12 12 12 12 12 12 12 12 12 12 12 12 12 12 12 12 12 12 12 12 12 12 12 12 12 12 12 12 12 12 12 12 12 12 12 12 12 12 12 12 12 12 12 12 12 12 12 12 12 12 12 12 12 12 12 12 12 12 12 12 12 12 12 12 12 12 12 12 12 12 12 12 12 12 12 12 12 12 12 12 12 12 12 12 12 12 12 12 12 12 12 12 12 12 12 12 12 12 12 12 12 12 12 12 12 12 12 12 12 12 12 12 12 12 12 12 12 12 12 12 12 12 12 12 12 12 12 12 12 12 12 12 12 12 12 12 12 12 12 12 12 12 12 12 12 12 12 12 12 12 12 12 12 12 12 12 12 12 12 12 12 12 12 12 12 12 12 12 12 12 12 12 12 12 12 12 12 12 12 12 12 12 12 12 12 12 12 12 12 12 12 12 12 12 12 12 12 12 12 12 12 12 12 12 12 12 12 12 12 12 12 12 12 12 12 12 12 12 12 12 12 12 12 12 12 12 12 12 12 12 12 12 12 12 12 12 12 12 12 12 12 12 12 12 12 12 12 12 12 12 12 12 12 12 12 12 12 12 12 12 12 12 12 12 12 12 12 12 12 12 12 12 12 12 12 12 12 12 12 12 12 12 12 12 12 12 12 12 12 12 12 12 12 12 12 12 12 12 12 12 12 12 12 12 12 12 12 12 12 12 12 12 12 12 12 12 12 12 12 12 12 12 12 12 12 12 12 12 12 12 12 12 12 12 12 12 12 12 12 12 12 12 12 12 12 12 12 12 12 12 12 12 12 12 12 12 12 12 12 12 12 12 12 12 12 12 12 12 12 12 12 12 12 12 12 12 12 12 12 12 12 12 12 12 12 12 12 12 12 12 12 12 12 12 12 12 12 12 12 12 12 12 12 12 12 12 12 12 12 12 12 12 12 12 12 12 12 12 12 12 12 12 12 12 12 12 12 12 12 12 12 12 12 12 12 12 12 12 12 12 12 12 12 12 12 12 12 12 12 12 12 12 12 12 12 12 12 12 12 12 12 12 12 12 12 12 12 12 12 12 12 12 12 12 12 12 12 12 12 12 12 12 12 12 12 12 12 12 12 12 12 12 12 12 12 12 12 12 12 12 12 12 12 12 12 12 12 12 12 12 12 12 12 12 12 12 12 12 12 12 12 12 12 12 12 12 12 12 12 12 12 12 12 12 12 12 12 12 12 12 12 12 12 12 12 12 12 12 12 12 12 12 12 12 12 12 12 12 12 12 12 12 12 12 12 12 12 12 12 12 12 12 12 12 12 12 12 12 12 12 12 12 12 12 12 12 12 12 12 12 12 12 12 12 12 12 12 12 12 12 12 12 12 12 12 12 12 12 12 12 12 12 12 12 12 12 12 12 12 12 12 12 12 12 12 12 12 12 12 12 12 12 12 12 12 12 12 12 12 12 12 12 12 12 12 12 12 12 12 12 12 12 12 12 12 12 12 12 12 12 12 12 12 12 12 12 12 12 12 12 12 12 12 12 12 12 12 12 12 12 12 12 12 12 12 12 12 12 12 12 12 12 12 12 12 12 12 12 12 12 12 12 12 12 12 12 12 12 12 12 12 12 12 12 12 12 12 12 12 12 12 12 12 12 12 12 12 12 12 12 12 12 12 12 12 12 12 12 12 12 12 12 12 12 12 12 12 12 12 12 12 12 12 12 12 12 12 12 12 12 12 12 12 12 12 12 12 12 12 12 12 12 12 12 12 12 12 12 12 12 12 12 12 12 12 12 12 12 12 12 12 12 12 12 12 12 12 12 12 12 12 12 12 12 12 12 12 12 12 12 12 12 12 12 12 12 12 12 12 12 12 12 12 12 12 12 12 12 12 12 12 12 12 12 12 12 12 12 12 12 12 12 12 12 12 12 12 12 12 12 12 12 12 12 12 12 12 12 12 12 12 12 12 12 12 12 12 12 12 12 12 12 12 12 12 12 12 12 12 12 12 12 12 12 12 12 12 12 12 12 12 12 12 12 12 12 12 12 12 12 12 12 12 12 12 12 12 12 12 12 12 12 12 12 12 12 12 12 12 12 12 12 12 12 12 12 12 12 12 12 12 12 12 12 12 12 12 12 12 12 12 12 12 12 12 12 12 12 12 12 12 12 12 12 12 12 12 12 12 12 12 12 12 12 12 12 12 12 12 12 12 12 12 12 12 12 12 12 12 12 12 12 12 12 12 12 12 12 12 12 12 12 12 12 12 12 12 12 12 12 12 12 12 12 12 12 12 12 12 12 12 12 12 12 12 12 12 12 12 12 12 12 12 12 12 12 12 12 12 12 12 12 12 12 12 12 12 12 12 12 12 12 12 12 12 12 12 12 12 12 12 12 12 12 12 12 12 12 12 12 12 12 12 12 12 12 12 12 12 12 12 12 12 12 12 12 12 12 12 12 12 12 12 12 12 12 12 12 12 12 12 12 12 12 12 12 12 12 12 12 12 12 12 12 12 12 12 12 12 12 12 12 12 12 12 12 12 12 12 12 12 12 12 12 12 12 12 12 12 12 12 12 12 12 12 12 12 12 12 12 12 12 12 12 12 12 12 12 12 12 12 12 12 12 12 12 12 12 12 12 12 12 12 12 12 12 12 12 12 12 12 12 12 12 12 12 12 12 12 12 12 12 12 12 12 12 12 12 12 12 12 12 12 12 12 12 12 12 12 12 12 12 12 12 12 12 12 12 12 12 12 12 12 12 12 12 12 12 12 12 12 12 12 12 12 12 12 12 12 12 12 12 12 12 12 12 12 12 12 12 12 12 12 12 12 12 12 12 12 12 12 12 12 12 12 12 12 12 12 12 12 12 12 12 12 12 12 12 12 12 12 12 12 12 12 12 12 12 12 12 12 12 12 12 12 12 12 12 12 12 12 12 12 12 12 12 12 12 12 12 12 12 12 12 12 12 12 12 12 12 12 12 12 12 12 12 12 12 12 12 12 12 12 12 12 12 12 12 12 12 12 12 12 12 12 12 12 12 12 12 12 12 12 12 12 12 12 12 12 12 12 12 12 12 12 12 12 12 12 12 12 12 12 12 12 12 12 12 12 12 12 12 12 12 12 12 12 12 12 12 12 12 12 12 12 12 12 12 12 12 12 12 12 12 12 12 12 12 12 12 12 12 12 12 12 12 12 12 12 12 12 12 12 12 12 12 12 12 12 12 12 12 12 12 12 12 12 12 12 12 12 12 12 12 12 12 12 12 12 12 12 12 12 12 12 12 12 12 12 12 

POINT_DATA 2673
SCALARS weights float 1
LOOKUP_TABLE default
0.244141 0.488282 0.488282 0.488282 0.488282 0.488282 0.488282 0.488282 0.488282 0.488282 0.488282 0.488282 0.488282 0.488282 0.488282 0.488282 0.488282 0.488282 0.488282 0.488282 0.488282 0.488282 0.488282 0.488282 0.488282 0.488282 0.488281 0.488282 0.488282 0.488281 0.488282 0.488282 0.244141 0.488282 0.976563 0.976563 0.976563 0.976563 0.976563 0.976564 0.976564 0.976563 0.976563 0.976564 0.976563 0.976563 0.976564 0.976563 0.976563 0.976563 0.976563 0.976563 0.976563 0.976564 0.976564 0.976563 0.976563 0.976564 0.976564 0.976563 0.976563 0.976563 0.976563 0.976563 0.976563 0.488282 0.488282 0.976563 0.976563 0.976563 0.976563 0.976563 0.976564 0.976563 0.976563 0.976563 0.976563 0.976563 0.976563 0.976564 0.976563 0.976563 0.976563 0.976563 0.976563 0.976563 0.976564 0.976564 0.976563 0.976563 0.976564 0.976564 0.976563 0.976563 0.976563 0.976563 0.976563 0.976563 0.488282 0.488282 0.976563 0.976563 0.976563 0.976563 0.976563 0.976564 0.976563 0.976563 0.976563 0.976563 0.976563 0.976563 0.976564 0.976563 0.976563 0.976563 0.976563 0.976563 0.976563 0.976564 0.976564 0.976563 0.976563 0.976564 0.976564 0.976563 0.976563 0.976563 0.976563 0.976563 0.976563 0.488282 0.488282 0.976563 0.976563 0.976563 0.976563 0.976563 0.976564 0.976563 0.976563 0.976563 0.976563 0.976563 0.976563 0.976564 0.976563 0.976563 0.976563 0.976563 0.976563 0.976563 0.976564 0.976564 0.976563 0.976563 0.976564 0.976564 0.976563 0.976563 0.976563 0.976563 0.976563 0.976563 0.488282 0.488282 0.976563 0.976563 0.976563 0.976563 0.976563 0.976563 0.976563 0.976563 0.976563 0.976563 0.976563 0.976563 0.976564 0.976563 0.976563 0.976563 0.976563 0.976563 0.976563 0.976563 0.976564 0.976563 0.976563 0.976564 0.976564 0.976563 0.976563 0.976563 0.976563 0.976563 0.976563 0.488282 0.488282 0.976563 0.976563 0.976563 0.976563 0.976563 0.976564 0.976563 0.976563 0.976563 0.976564 0.976563 0.976564 0.976564 0.976563 0.976563 0.976563 0.976563 0.976563 0.976563 0.976564 0.976564 0.976563 0.976563 0.976564 0.976564 0.976563 0.976563 0.976563 0.976563 0.976563 0.976563 0.488282 0.488282 0.976563 0.976563 0.976563 0.976563 0.976563 0.976564 0.976563 0.976563 0.976563 0.976564 0.976563 0.976564 0.976564 0.976563 0.976563 0.976563 0.976563 0.976563 0.976563 0.976564 0.976564 0.976563 0.976563 0.976564 0.976564 0.976563 0.976563 0.976563 0.976563 0.976563 0.976563 0.488282 0.244141 0.488282 0.488282 0.488282 0.488282 0.488282 0.488282 0.488282 0.488282 0.488282 0.488282 0.488282 0.488282 0.488282 0.488282 0.488282 0.488282 0.488281 0.488281 0.488282 0.488282 0.488282 0.488282 0.488282 0.488282 0.488282 0.488281 0.488282 0.488282 0.488281 0.488282 0.488282 0.244141 0.488281 0.976563 0.976563 0.976563 0.976563 0.976563 0.976563 0.976563 0.976562 0.976562 0.976563 0.976562 0.976563 0.976563 0.976562 0.976562 0.976563 0.976562 0.976562 0.976563 0.976563 0.976563 0.976563 0.976562 0.976563 0.976563 0.976562 0.976563 0.976563 0.976562 0.976563 0.976563 0.488281 0.976563 1.95312 1.95312 1.95312 1.95312 1.95312 1.95313 1.95313 1.95312 1.95312 1.95313 1.95313 1.95313 1.95313 1.95312 1.95312 1.95312 1.95312 1.95312 1.95312 1.95313 1.95313 1.95313 1.95312 1.95313 1.95313 1.95312 1.95313 1.95313 1.95312 1.95313 1.95313 0.976563 0.976563 1.95312 1.95312 1.95312 1.95312 1.95312 1.95313 1.95313 1.95312 1.95312 1.95313 1.95313 1.95313 1.95313 1.95312 1.95312 1.95312 1.95312 1.95312 1.95312 1.95313 1.95313 1.95313 1.95312 1.95313 1.95313 1.95312 1.95313 1.95313 1.95312 1.95313 1.95313 0.976563 0.976563 1.95312 1.95312 1.95312 1.95312 1.95312 1.95313 1.95313 1.95312 1.95312 1.95313 1.95312 1.95313 1.95313 1.95312 1.95312 1.95312 1.95312 1.95312 1.95312 1.95313 1.95313 1.95313 1.95312 1.95313 1.95313 1.95312 1.95313 1.95313 1.95312 1.95313 1.95313 0.976563 0.976563 1.95312 1.95312 1.95312 1.95312 1.95312 1.95313 1.95313 1.95312 1.95312 1.95313 1.95313 1.95313 1.95313 1.95312 1.95312 1.95312 1.95312 1.95312 1.95312 1.95313 1.95313 1.95313 1.95312 1.95313 1.95313 1.95312 1.95313 1.95313 1.95312 1.95313 1.95313 0.976563 0.976562 1.95312 1.95312 1.95312 1.95312 1.95312 1.95313 1.95313 1.95312 1.95312 1.95313 1.95312 1.95313 1.95313 1.95312 1.95312 1.95312 1.95312 1.95312 1.95312 1.95313 1.95313 1.95312 1.95312 1.95313 1.95313 1.95312 1.95313 1.95313 1.95312 1.95313 1.95313 0.976563 0.976563 1.95313 1.95312 1.95313 1.95313 1.95313 1.95313 1.95313 1.95312 1.95312 1.95313 1.95312 1.95313 1.95313 1.95312 1.95312 1.95313 1.95312 1.95312 1.95313 1.95313 1.95313 1.95313 1.95312 1.95313 1.95313 1.95312 1.95313 1.95313 1.95312 1.95313 1.95313 0.976563 0.976563 1.95313 1.95312 1.95313 1.95312 1.95313 1.95313 1.95313 1.95312 1.95312 1.95313 1.95312 1.95313 1.95313 1.95312 1.95312 1.95313 1.95312 1.95312 1.95313 1.95313 1.95313 1.95313 1.95312 1.95313 1.95313 1.95312 1.95313 1.95313 1.95312 1.95313 1.95313 0.976563 0.488281 0.976562 0.976562 0.976562 0.976562 0.976562 0.976563 0.976562 0.976562 0.976562 0.976563 0.976562 0.976563 0.976563 0.976562 0.976562 0.976562 0.976562 0.976562 0.976562 0.976563 0.976563 0.976562 0.976562 0.976563 0.976563 0.976562 0.976562 0.976562 0.976562 0.976562 0.976562 0.488281 0.488281 0.976562 0.976562 0.976562 0.976562 0.976562 0.976562 0.976562 0.976562 0.976562 0.976562 0.976562 0.976562 0.976563 0.976562 0.976562 0.976562 0.976562 0.976562 0.976562 0.976562 0.976562 0.976562 0.976562 0.976562 0.976563 0.976562 0.976562 0.976562 0.976562 0.976562 0.976562 0.488281 0.976562 1.95312 1.95312 1.95312 1.95312 1.95312 1.95312 1.95312 1.95312 1.95312 1.95312 1.95312 1.95312 1.95312 1.95312 1.95312 1.95312 1.95312 1.95312 1.95312 1.95312 1.95312 1.95312 1.95312 1.95312 1.95313 1.95312 1.95312 1.95312 1.95312 1.95312 1.95312 0.976562 0.976562 1.95312 1.95312 1.95312 1.95312 1.95312 1.95312 1.95312 1.95312 1.95312 1.95312 1.95312 1.95312 1.95312 1.95312 1.95312 1.95312 1.95312 1.95312 1.95312 1.95312 1.95312 1.95312 1.95312 1.95312 1.95313 1.95312 1.95312 1.95312 1.95312 1.95312 1.95312 0.976562 0.976562 1.95312 1.95312 1.95312 1.95312 1.95312 1.95312 1.95312 1.95312 1.95312 1.95312 1.95312 1.95312 1.95312 1.95312 1.95312 1.95312 1.95312 1.95312 1.95312 1.95312 1.95312 1.95312 1.95312 1.95312 1.95313 1.95312 1.95312 1.95312 1.95312 1.95312 1.95312 0.976562 0.976562 1.95312 1.95312 1.95312 1.95312 1.95312 1.95312 1.95312 1.95312 1.95312 1.95312 1.95312 1.95312 1.95312 1.95312 1.95312 1.95312 1.95312 1.95312 1.95312 1.95312 1.95312 1.95312 1.95312 1.95312 1.95313 1.95312 1.95312 1.95312 1.95312 1.95312 1.95312 0.976562 0.976562 1.95312 1.95312 1.95312 1.95312 1.95312 1.95312 1.95312 1.95312 1.95312 1.95312 1.95312 1.95312 1.95312 1.95312 1.95312 1.95312 1.95312 1.95312 1.95312 1.95312 1.95312 1.95312 1.95312 1.95312 1.95313 1.95312 1.95312 1.95312 1.95312 1.95312 1.95312 0.976562 0.976562 1.95312 1.95312 1.95312 1.95312 1.95312 1.95312 1.95312 1.95312 1.95312 1.95312 1.95312 1.95312 1.95312 1.95312 1.95312 1.95312 1.95312 1.95312 1.95312 1.95312 1.95312 1.95312 1.95312 1.95312 1.95313 1.95312 1.95312 1.95312 1.95312 1.95312 1.95312 0.976562 0.976562 1.95312 1.95312 1.95312 1.95312 1.95312 1.95312 1.95312 1.95312 1.95312 1.95312 1.95312 1.95312 1.95312 1.95312 1.95312 1.95312 1.95312 1.95312 1.95312 1.95312 1.95312 1.95312 1.95312 1.95312 1.95313 1.95312 1.95312 1.95312 1.95312 1.95312 1.95312 0.976562 0.488281 0.976562 0.976562 0.976562 0.976562 0.976562 0.976562 0.976562 0.976562 0.976562 0.976562 0.976562 0.976562 0.976562 0.976562 0.976562 0.976562 0.976562 0.976562 0.976562 0.976562 0.976562 0.976562 0.976562 0.976562 0.976563 0.976561 0.976562 0.976562 0.976561 0.976562 0.976562 0.488281 0.488281 0.976562 0.976562 0.976562 0.976562 0.976562 0.976562 0.976562 0.976562 0.976562 0.976562 0.976562 0.976562 0.976562 0.976562 0.976562 0.976562 0.976562 0.976562 0.976562 0.976562 0.976562 0.976562 0.976562 0.976562 0.976563 0.976561 0.976562 0.976562 0.976561 0.976562 0.976562 0.488281 0.976562 1.95312 1.95312 1.95312 1.95312 1.95312 1.95312 1.95312 1.95312 1.95312 1.95312 1.95312 1.95312 1.95312 1.95312 1.95312 1.95312 1.95312 1.95312 1.95312 1.95312 1.95312 1.95312 1.95312 1.95312 1.95313 1.95312 1.95312 1.95312 1.95312 1.95312 1.95312 0.976562 0.976562 1.95312 1.95312 1.95312 1.95312 1.95312 1.95312 1.95312 1.95312 1.95312 1.95312 1.95312 1.95312 1.95312 1.95312 1.95312 1.95312 1.95312 1.95312 1.95312 1.95312 1.95312 1.95312 1.95312 1.95312 1.95313 1.95312 1.95312 1.95312 1.95312 1.95312 1.95312 0.976562 0.976562 1.95312 1.95312 1.95312 1.95312 1.95312 1.95312 1.95312 1.95312 1.95312 1.95312 1.95312 1.95312 1.95312 1.95312 1.95312 1.95312 1.95312 1.95312 1.95312 1.95312 1.95312 1.95312 1.95312 1.95312 1.95313 1.95312 1.95312 1.95312 1.95312 1.95312 1.95312 0.976562 0.976562 1.95312 1.95312 1.95312 1.95312 1.95312 1.95312 1.95312 1.95312 1.95312 1.95312 1.95312 1.95312 1.95312 1.95312 1.95312 1.95312 1.95312 1.95312 1.95312 1.95312 1.95312 1.95312 1.95312 1.95312 1.95313 1.95312 1.95312 1.95312 1.95312 1.95312 1.95312 0.976562 0.976562 1.95312 1.95312 1.95312 1.95312 1.95312 1.95312 1.95312 1.95312 1.95312 1.95312 1.95312 1.95312 1.95312 1.95312 1.95312 1.95312 1.95312 1.95312 1.95312 1.95312 1.95312 1.95312 1.95312 1.95312 1.95313 1.95312 1.95312 1.95312 1.95312 1.95312 1.95312 0.976562 0.976562 1.95312 1.95312 1.95312 1.95312 1.95312 1.95312 1.95312 1.95312 1.95312 1.95312 1.95312 1.95312 1.95312 1.95312 1.95312 1.95312 1.95312 1.95312 1.95312 1.95312 1.95312 1.95312 1.95312 1.95312 1.95313 1.95312 1.95312 1.95312 1.95312 1.95312 1.95312 0.976562 0.976562 1.95312 1.95312 1.95312 1.95312 1.95312 1.95312 1.95312 1.95312 1.95312 1.95312 1.95312 1.95312 1.95312 1.95312 1.95312 1.95312 1.95312 1.95312 1.95312 1.95312 1.95312 1.95312 1.95312 1.95312 1.95313 1.95312 1.95312 1.95312 1.95312 1.95312 1.95312 0.976562 0.488281 0.976562 0.976562 0.976562 0.976562 0.976562 0.976562 0.976562 0.976562 0.976562 0.976562 0.976562 0.976562 0.976562 0.976562 0.976562 0.976562 0.976562 0.976562 0.976562 0.976562 0.976562 0.976562 0.976562 0.976562 0.976562 0.976561 0.976562 0.976562 0.976561 0.976562 0.976562 0.488281 0.488281 0.976563 0.976563 0.976563 0.976563 0.976563 0.976563 0.976563 0.976562 0.976562 0.976563 0.976563 0.976563 0.976563 0.976562 0.976562 0.976563 0.976562 0.976562 0.976563 0.976563 0.976563 0.976563 0.976562 0.976563 0.976563 0.976562 0.976563 0.976563 0.976562 0.976563 0.976563 0.488281 0.976563 1.95312 1.95312 1.95312 1.95312 1.95312 1.95313 1.95313 1.95312 1.95313 1.95313 1.95313 1.95313 1.95313 1.95313 1.95313 1.95313 1.95312 1.95312 1.95313 1.95313 1.95313 1.95313 1.95313 1.95313 1.95313 1.95312 1.95313 1.95313 1.95312 1.95313 1.95313 0.976563 0.976563 1.95312 1.95312 1.95312 1.95312 1.95312 1.95313 1.95313 1.95312 1.95312 1.95313 1.95313 1.95313 1.95313 1.95312 1.95312 1.95313 1.95312 1.95312 1.95313 1.95313 1.95313 1.95313 1.95312 1.95313 1.95313 1.95312 1.95313 1.95313 1.95312 1.95313 1.95313 0.976563 0.976563 1.95312 1.95312 1.95312 1.95312 1.95312 1.95313 1.95313 1.95312 1.95312 1.95313 1.95312 1.95313 1.95313 1.95312 1.95312 1.95312 1.95312 1.95312 1.95312 1.95313 1.95313 1.95312 1.95312 1.95313 1.95313 1.95312 1.95313 1.95313 1.95312 1.95313 1.95313 0.976563 0.976563 1.95312 1.95312 1.95312 1.95312 1.95312 1.95313 1.95313 1.95312 1.95312 1.95313 1.95312 1.95313 1.95313 1.95312 1.95312 1.95312 1.95312 1.95312 1.95312 1.95313 1.95313 1.95312 1.95312 1.95313 1.95313 1.95312 1.95313 1.95313 1.95312 1.95313 1.95313 0.976563 0.976563 1.95312 1.95312 1.95312 1.95312 1.95312 1.95313 1.95313 1.95312 1.95312 1.95313 1.95312 1.95313 1.95313 1.95312 1.95312 1.95312 1.95312 1.95312 1.95312 1.95313 1.95313 1.95312 1.95312 1.95313 1.95313 1.95312 1.95313 1.95313 1.95312 1.95313 1.95313 0.976563 0.976563 1.95313 1.95313 1.95313 1.95313 1.95313 1.95313 1.95313 1.95312 1.95313 1.95313 1.95313 1.95313 1.95313 1.95312 1.95312 1.95313 1.95312 1.95312 1.95313 1.95313 1.95313 1.95313 1.95312 1.95313 1.95313 1.95312 1.95313 1.95313 1.95312 1.95313 1.95313 0.976563 0.976563 1.95313 1.95313 1.95313 1.95313 1.95313 1.95313 1.95313 1.95312 1.95313 1.95313 1.95313 1.95313 1.95313 1.95312 1.95312 1.95313 1.95312 1.95312 1.95313 1.95313 1.95313 1.95313 1.95312 1.95313 1.95313 1.95312 1.95313 1.95313 1.95312 1.95313 1.95312 0.976563 0.488281 0.976562 0.976562 0.976562 0.976562 0.976562 0.976563 0.976562 0.976562 0.976562 0.976563 0.976562 0.976563 0.976563 0.976562 0.976562 0.976562 0.976562 0.976562 0.976562 0.976563 0.976563 0.976562 0.976562 0.976563 0.976563 0.976562 0.976562 0.976562 0.976562 0.976562 0.976562 0.488281 0.488282 0.976564 0.976564 0.976564 0.976564 0.976564 0.976564 0.976564 0.976564 0.976564 0.976564 0.976564 0.976564 0.976564 0.976564 0.976564 0.976564 0.976563 0.976563 0.976564 0.976564 0.976564 0.976564 0.976564 0.976564 0.976564 0.976563 0.976564 0.976564 0.976563 0.976564 0.976564 0.488282 0.976564 1.95313 1.95313 1.95313 1.95313 1.95313 1.95313 1.95313 1.95313 1.95313 1.95313 1.95313 1.95313 1.95313 1.95313 1.95313 1.95313 1.95313 1.95313 1.95313 1.95313 1.95313 1.95313 1.95313 1.95313 1.95313 1.95313 1.95313 1.95313 1.95313 1.95313 1.95313 0.976564 0.976564 1.95313 1.95313 1.95313 1.95313 1.95313 1.95313 1.95313 1.95313 1.95313 1.95313 1.95313 1.95313 1.95313 1.95313 1.95313 1.95313 1.95313 1.95313 1.95313 1.95313 1.95313 1.95313 1.95313 1.95313 1.95313 1.95313 1.95313 1.95313 1.95313 1.95313 1.95313 0.976564 0.976564 1.95313 1.95313 1.95313 1.95313 1.95313 1.95313 1.95313 1.95313 1.95313 1.95313 1.95313 1.95313 1.95313 1.95313 1.95313 1.95313 1.95313 1.95313 1.95313 1.95313 1.95313 1.95313 1.95313 1.95313 1.95313 1.95313 1.95313 1.95313 1.95313 1.95313 1.95313 0.976564 0.976564 1.95313 1.95313 1.95313 1.95313 1.95313 1.95313 1.95313 1.95313 1.95313 1.95313 1.95313 1.95313 1.95313 1.95313 1.95313 1.95313 1.95313 1.95313 1.95313 1.95313 1.95313 1.95313 1.95313 1.95313 1.95313 1.95313 1.95313 1.95313 1.95313 1.95313 1.95313 0.976564 0.976564 1.95313 1.95313 1.95313 1.95313 1.95313 1.95313 1.95313 1.95313 1.95313 1.95313 1.95313 1.95313 1.95313 1.95313 1.95313 1.95313 1.95313 1.95313 1.95313 1.95313 1.95313 1.95313 1.95313 1.95313 1.95313 1.95313 1.95313 1.95313 1.95313 1.95313 1.95313 0.976564 0.976564 1.95313 1.95313 1.95313 1.95313 1.95313 1.95313 1.95313 1.95313 1.95313 1.95313 1.95313 1.95313 1.95313 1.95313 1.95313 1.95313 1.95313 1.95313 1.95313 1.95313 1.95313 1.95313 1.95313 1.95313 1.95313 1.95313 1.95313 1.95313 1.95313 1.95313 1.95313 0.976564 0.976564 1.95313 1.95313 1.95313 1.95313 1.95313 1.95313 1.95313 1.95313 1.95313 1.95313 1.95313 1.95313 1.95313 1.95313 1.95313 1.95313 1.95313 1.95313 1.95313 1.95313 1.95313 1.95313 1.95313 1.95313 1.95313 1.95313 1.95313 1.95313 1.95313 1.95313 1.95313 0.976564 0.488282 0.976564 0.976564 0.976564 0.976564 0.976564 0.976564 0.976564 0.976563 0.976564 0.976564 0.976564 0.976564 0.976564 0.976564 0.976564 0.976564 0.976563 0.976563 0.976564 0.976564 0.976564 0.976564 0.976564 0.976564 0.976564 0.976563 0.976564 0.976564 0.976563 0.976564 0.976564 0.488282 0.488282 0.976564 0.976563 0.976563 0.976563 0.976564 0.976564 0.976564 0.976563 0.976563 0.976564 0.976563 0.976564 0.976564 0.976563 0.976563 0.976564 0.976563 0.976563 0.976563 0.976564 0.976564 0.976564 0.976563 0.976564 0.976564 0.976563 0.976564 0.976564 0.976563 0.976563 0.976563 0.488282 0.976564 1.95313 1.95313 1.95313 1.95313 1.95313 1.95313 1.95313 1.95313 1.95313 1.95313 1.95313 1.95313 1.95313 1.95313 1.95313 1.95313 1.95313 1.95313 1.95313 1.95313 1.95313 1.95313 1.95313 1.95313 1.95313 1.95313 1.95313 1.95313 1.95313 1.95313 1.95313 0.976564 0.976563 1.95313 1.95313 1.95313 1.95313 1.95313 1.95313 1.95313 1.95313 1.95313 1.95313 1.95313 1.95313 1.95313 1.95313 1.95313 1.95313 1.95313 1.95313 1.95313 1.95313 1.95313 1.95313 1.95313 1.95313 1.95313 1.95313 1.95313 1.95313 1.95313 1.95313 1.95313 0.976564 0.976563 1.95313 1.95313 1.95313 1.95313 1.95313 1.95313 1.95313 1.95313 1.95313 1.95313 1.95313 1.95313 1.95313 1.95313 1.95313 1.95313 1.95313 1.95313 1.95313 1.95313 1.95313 1.95313 1.95313 1.95313 1.95313 1.95313 1.95313 1.95313 1.95313 1.95313 1.95313 0.976564 0.976563 1.95313 1.95313 1.95313 1.95313 1.95313 1.95313 1.95313 1.95313 1.95313 1.95313 1.95313 1.95313 1.95313 1.95313 1.95313 1.95313 1.95313 1.95313 1.95313 1.95313 1.95313 1.95313 1.95313 1.95313 1.95313 1.95313 1.95313 1.95313 1.95313 1.95313 1.95313 0.976564 0.976563 1.95313 1.95313 1.95313 1.95313 1.95313 1.95313 1.95313 1.95313 1.95313 1.95313 1.95313 1.95313 1.95313 1.95313 1.95313 1.95313 1.95313 1.95313 1.95313 1.95313 1.95313 1.95313 1.95313 1.95313 1.95313 1.95313 1.95313 1.95313 1.95313 1.95313 1.95313 0.976564 0.976564 1.95313 1.95313 1.95313 1.95313 1.95313 1.95313 1.95313 1.95313 1.95313 1.95313 1.95313 1.95313 1.95313 1.95313 1.95313 1.95313 1.95313 1.95313 1.95313 1.95313 1.95313 1.95313 1.95313 1.95313 1.95313 1.95313 1.95313 1.95313 1.95313 1.95313 1.95313 0.976564 0.976563 1.95313 1.95313 1.95313 1.95313 1.95313 1.95313 1.95313 1.95313 1.95313 1.95313 1.95313 1.95313 1.95313 1.95313 1.95313 1.95313 1.95313 1.95313 1.95313 1.95313 1.95313 1.95313 1.95313 1.95313 1.95313 1.95313 1.95313 1.95313 1.95313 1.95313 1.95313 0.976564 0.488282 0.976563 0.976563 0.976563 0.976563 0.976563 0.976563 0.976563 0.976563 0.976563 0.976563 0.976563 0.976563 0.976564 0.976563 0.976563 0.976563 0.976563 0.976563 0.976563 0.976563 0.976563 0.976563 0.976563 0.976564 0.976564 0.976563 0.976563 0.976563 0.976563 0.976563 0.976563 0.488282 0.488281 0.976562 0.976562 0.976562 0.976562 0.976562 0.976562 0.976562 0.976562 0.976562 0.976562 0.976562 0.976562 0.976562 0.976562 0.976562 0.976562 0.976562 0.976561 0.976562 0.976562 0.976562 0.976562 0.976562 0.976562 0.976562 0.976561 0.976562 0.976562 0.976561 0.976562 0.976562 0.488281 0.976562 1.95312 1.95312 1.95312 1.95312 1.95312 1.95312 1.95312 1.95312 1.95312 1.95312 1.95312 1.95312 1.95312 1.95312 1.95312 1.95312 1.95312 1.95312 1.95312 1.95312 1.95312 1.95312 1.95312 1.95312 1.95312 1.95312 1.95312 1.95312 1.95312 1.95312 1.95312 0.976562 0.976562 1.95312 1.95312 1.95312 1.95312 1.95312 1.95312 1.95312 1.95312 1.95312 1.95312 1.95312 1.95312 1.95312 1.95312 1.95312 1.95312 1.95312 1.95312 1.95312 1.95312 1.95312 1.95312 1.95312 1.95312 1.95312 1.95312 1.95312 1.95312 1.95312 1.95312 1.95312 0.976562 0.976562 1.95312 1.95312 1.95312 1.95312 1.95312 1.95312 1.95312 1.95312 1.95312 1.95312 1.95312 1.95312 1.95312 1.95312 1.95312 1.95312 1.95312 1.95312 1.95312 1.95312 1.95312 1.95312 1.95312 1.95312 1.95312 1.95312 1.95312 1.95312 1.95312 1.95312 1.95312 0.976562 0.976562 1.95312 1.95312 1.95312 1.95312 1.95312 1.95312 1.95312 1.95312 1.95312 1.95312 1.95312 1.95312 1.95312 1.95312 1.95312 1.95312 1.95312 1.95312 1.95312 1.95312 1.95312 1.95312 1.95312 1.95312 1.95312 1.95312 1.95312 1.95312 1.95312 1.95312 1.95312 0.976562 0.976562 1.95312 1.95312 1.95312 1.95312 1.95312 1.95312 1.95312 1.95312 1.95312 1.95312 1.95312 1.95312 1.95312 1.95312 1.95312 1.95312 1.95312 1.95312 1.95312 1.95312 1.95312 1.95312 1.95312 1.95312 1.95312 1.95312 1.95312 1.95312 1.95312 1.95312 1.95312 0.976562 0.976562 1.95312 1.95312 1.95312 1.95312 1.95312 1.95312 1.95312 1.95312 1.95312 1.95312 1.95312 1.95312 1.95312 1.95312 1.95312 1.95312 1.95312 1.95312 1.95312 1.95312 1.95312 1.95312 1.95312 1.95312 1.95312 1.95312 1.95312 1.95312 1.95312 1.95312 1.95312 0.976562 0.976562 1.95312 1.95312 1.95312 1.95312 1.95312 1.95312 1.95312 1.95312 1.95312 1.95312 1.95312 1.95312 1.95312 1.95312 1.95312 1.95312 1.95312 1.95312 1.95312 1.95312 1.95312 1.95312 1.95312 1.95312 1.95312 1.95312 1.95312 1.95312 1.95312 1.95312 1.95312 0.976562 0.488281 0.976562 0.976562 0.976562 0.976562 0.976562 0.976562 0.976562 0.976561 0.976562 0.976562 0.976562 0.976562 0.976562 0.976562 0.976562 0.976562 0.976561 0.976561 0.976562 0.976562 0.976562 0.976562 0.976562 0.976562 0.976562 0.976561 0.976562 0.976562 0.976561 0.976562 0.976562 0.488281 0.24414 0.48828 0.48828 0.48828 0.48828 0.48828 0.48828 0.48828 0.48828 0.48828 0.48828 0.48828 0.48828 0.48828 0.48828 0.48828 0.48828 0.48828 0.48828 0.48828 0.48828 0.48828 0.48828 0.48828 0.48828 0.488281 0.48828 0.48828 0.48828 0.48828 0.48828 0.48828 0.24414 0.48828 0.976561 0.976561 0.976561 0.976561 0.976561 0.976561 0.976561 0.97656 0.97656 0.976561 0.97656 0.976561 0.976561 0.97656 0.97656 0.976561 0.97656 0.97656 0.976561 0.976561 0.976561 0.976561 0.97656 0.976561 0.976561 0.97656 0.976561 0.976561 0.97656 0.976561 0.976561 0.48828 0.48828 0.976561 0.976561 0.976561 0.976561 0.976561 0.976561 0.976561 0.97656 0.97656 0.976561 0.97656 0.976561 0.976561 0.97656 0.97656 0.97656 0.97656 0.97656 0.97656 0.976561 0.976561 0.976561 0.97656 0.976561 0.976561 0.97656 0.976561 0.976561 0.97656 0.976561 0.976561 0.48828 0.48828 0.976561 0.976561 0.976561 0.976561 0.976561 0.976561 0.976561 0.97656 0.97656 0.976561 0.97656 0.976561 0.976561 0.97656 0.97656 0.976561 0.97656 0.97656 0.976561 0.976561 0.976561 0.976561 0.97656 0.976561 0.976561 0.97656 0.976561 0.976561 0.97656 0.976561 0.976561 0.48828 0.48828 0.976561 0.976561 0.976561 0.976561 0.976561 0.976561 0.976561 0.97656 0.97656 0.976561 0.97656 0.976561 0.976561 0.97656 0.97656 0.976561 0.97656 0.97656 0.976561 0.976561 0.976561 0.976561 0.97656 0.976561 0.976561 0.97656 0.976561 0.976561 0.97656 0.976561 0.976561 0.48828 0.48828 0.97656 0.97656 0.97656 0.97656 0.976561 0.976561 0.976561 0.97656 0.97656 0.976561 0.97656 0.976561 0.976561 0.97656 0.97656 0.97656 0.97656 0.97656 0.97656 0.976561 0.976561 0.976561 0.97656 0.976561 0.976561 0.97656 0.97656 0.97656 0.97656 0.97656 0.97656 0.48828 0.48828 0.976561 0.976561 0.976561 0.976561 0.976561 0.976561 0.976561 0.97656 0.97656 0.976561 0.97656 0.976561 0.976561 0.97656 0.97656 0.976561 0.97656 0.97656 0.976561 0.976561 0.976561 0.976561 0.97656 0.976561 0.976561 0.97656 0.976561 0.976561 0.97656 0.976561 0.976561 0.48828 0.48828 0.976561 0.976561 0.976561 0.976561 0.976561 0.976561 0.976561 0.97656 0.97656 0.976561 0.976561 0.976561 0.976561 0.97656 0.97656 0.976561 0.97656 0.97656 0.976561 0.976561 0.976561 0.976561 0.97656 0.976561 0.976561 0.97656 0.97656 0.97656 0.97656 0.976561 0.976561 0.48828 0.24414 0.48828 0.48828 0.48828 0.48828 0.48828 0.48828 0.48828 0.48828 0.48828 0.48828 0.48828 0.48828 0.48828 0.48828 0.48828 0.48828 0.48828 0.48828 0.48828 0.48828 0.48828 0.48828 0.48828 0.48828 0.48828 0.48828 0.48828 0.48828 0.48828 0.48828 0.48828 0.24414 
VECTORS u float
0 0 0  -0.00220118 -0.00209482 -0.00540709  -0.00584413 -0.00359976 -0.00779319  -0.00962806 -0.00615664 -0.00880051  -0.0133816 -0.00991153 -0.00905037  -0.0170564 -0.0147811 -0.00885034  -0.0206184 -0.0206209 -0.00841784  -0.0240443 -0.0273371 -0.00787115  -0.0273175 -0.0348365 -0.00728893  -0.030425 -0.0430515 -0.00669694  -0.0333608 -0.0519185 -0.00610948  -0.0361223 -0.0613745 -0.00556207  -0.0387145 -0.0713686 -0.00502658  -0.0411441 -0.0818565 -0.00449753  -0.0434148 -0.0927856 -0.00397468  -0.0455348 -0.104093 -0.00350046  -0.0475096 -0.115742 -0.0030489  -0.0493467 -0.127681 -0.00264549  -0.0510509 -0.139874 -0.00226021  -0.0526309 -0.152299 -0.00190854  -0.0540926 -0.164912 -0.00155354  -0.055444 -0.177667 -0.00125074  -0.0566914 -0.19054 -0.000978947  -0.0578423 -0.203521 -0.000723124  -0.0589087 -0.216576 -0.000472784  -0.0598967 -0.229663 -0.000268698  -0.0608106 -0.242778 -8.65459e-05  -0.0616682 -0.255893 7.58171e-05  -0.0624762 -0.269012 0.000221729  -0.0632365 -0.282099 0.000332355  -0.0639541 -0.295137 0.000417471  -0.0646534 -0.308153 0.000472069  -0.0653417 -0.321144 0.000524282  0 0 0  -0.0013896 -0.00080131 -0.0031867  -0.00390251 -0.00231868 -0.00513268  -0.00661084 -0.00499077 -0.00598383  -0.00933254 -0.00883719 -0.00625396  -0.0120302 -0.0137767 -0.00615835  -0.0146827 -0.0196912 -0.00588226  -0.0172682 -0.0264935 -0.0055213  -0.0197657 -0.0340892 -0.00514102  -0.022162 -0.0424066 -0.0047431  -0.0244532 -0.0513822 -0.00433207  -0.0266315 -0.0609475 -0.00394058  -0.0286957 -0.0710521 -0.0035696  -0.0306519 -0.0816405 -0.00319433  -0.0325041 -0.0926656 -0.00284243  -0.0342532 -0.104067 -0.0025003  -0.0359017 -0.1158 -0.00217843  -0.0374515 -0.127825 -0.00187945  -0.0389063 -0.140098 -0.00160384  -0.0402727 -0.152589 -0.00134635  -0.041559 -0.165261 -0.00109434  -0.0427661 -0.178072 -0.000892162  -0.0438995 -0.190996 -0.00068593  -0.0449677 -0.204023 -0.000486374  -0.0459647 -0.21711 -0.000318766  -0.0469017 -0.230228 -0.000174046  -0.0477908 -0.243371 -2.88486e-05  -0.0486336 -0.256509 9.87053e-05  -0.049438 -0.269642 0.000207424  -0.0502059 -0.282744 0.000295162  -0.0509415 -0.295799 0.000378847  -0.0516462 -0.308821 0.000436783  -0.0523355 -0.321805 0.000521421  0 0 0  -0.000853404 -8.03173e-06 -0.00205803  -0.00239071 -0.00141487 -0.00312376  -0.00410563 -0.00412968 -0.00372219  -0.00587395 -0.00803457 -0.00394058  -0.00765359 -0.0130253 -0.00391412  -0.00942457 -0.0190016 -0.0037601  -0.0111752 -0.0258701 -0.00354004  -0.0128936 -0.0335433 -0.00330186  -0.0145693 -0.0419461 -0.00305557  -0.0161903 -0.0510083 -0.0027976  -0.0177535 -0.0606674 -0.0025444  -0.0192591 -0.0708611 -0.00230026  -0.0207088 -0.0815335 -0.00206256  -0.0221056 -0.0926422 -0.00183916  -0.023448 -0.10412 -0.00160956  -0.024739 -0.115929 -0.00140285  -0.0259793 -0.128022 -0.00120997  -0.0271621 -0.140366 -0.00101399  -0.0282903 -0.152913 -0.000845671  -0.0293703 -0.165635 -0.000692606  -0.0303991 -0.178497 -0.00054431  -0.0313814 -0.191465 -0.000399113  -0.0323253 -0.20453 -0.000270128  -0.0332334 -0.217646 -0.000147343  -0.0341005 -0.230794 -5.19753e-05  -0.0349276 -0.24396 5.4121e-05  -0.0357256 -0.257123 0.000142336  -0.0364983 -0.270266 0.000227928  -0.0372491 -0.283382 0.000306368  -0.0379746 -0.296456 0.000367641  -0.0386803 -0.309483 0.000423908  -0.0393691 -0.322461 0.000482082  0 0 0  -0.000386246 0.000363201 -0.00101185  -0.00108996 -0.000939161 -0.00151062  -0.00189444 -0.00365707 -0.00177169  -0.00274929 -0.00759405 -0.00189424  -0.00363362 -0.0126207 -0.00190496  -0.00453812 -0.0186421 -0.00183606  -0.00545937 -0.02556 -0.00173092  -0.0063957 -0.0332908 -0.00161076  -0.00733709 -0.0417577 -0.00149584  -0.00827825 -0.0508839 -0.00138116  -0.00921655 -0.0606147 -0.00124431  -0.01015 -0.0708731 -0.00112033  -0.0110803 -0.0816109 -0.00101209  -0.0120059 -0.0927787 -0.000896454  -0.0129268 -0.104316 -0.000781536  -0.0138396 -0.116182 -0.000672579  -0.0147414 -0.128331 -0.00056076  -0.0156336 -0.140724 -0.000478268  -0.0165069 -0.153319 -0.000372648  -0.0173631 -0.166078 -0.000278711  -0.0182049 -0.178979 -0.000194788  -0.0190251 -0.191981 -0.000110865  -0.0198298 -0.205073 -4.14848e-05  -0.0206211 -0.218214 2.21729e-05  -0.0213983 -0.231388 8.96454e-05  -0.0221624 -0.244568 0.000144005  -0.0229094 -0.257749 0.000212431  -0.0236363 -0.2709 0.000271797  -0.0243509 -0.284025 0.000322819  -0.0250552 -0.297111 0.000366688  -0.0257497 -0.310144 0.000398397  -0.026438 -0.323115 0.000443697  0 0 0  3.52412e-05 0.000435174 1.50204e-05  0.000101477 -0.000848681 1.90735e-05  0.000166297 -0.00357616 3.09944e-05  0.000207603 -0.00753421 2.59876e-05  0.000212729 -0.0125851 1.78814e-05  0.000168562 -0.0186363 1.74046e-05  7.17044e-05 -0.0255893 1.69277e-05  -7.77245e-05 -0.033358 1.43051e-05  -0.000283241 -0.0418664 6.91414e-06  -0.000539064 -0.0510369 -4.05312e-06  -0.000845313 -0.0608116 6.19888e-06  -0.00120151 -0.0711166 4.29153e-06  -0.00160527 -0.0818989 7.62939e-06  -0.00205648 -0.0931031 2.6226e-05  -0.00254786 -0.104683 3.3617e-05  -0.0030762 -0.116585 4.43459e-05  -0.00363684 -0.128771 5.57899e-05  -0.00422215 -0.141197 7.27177e-05  -0.00483012 -0.153823 0.000102758  -0.00545573 -0.166609 0.000110865  -0.00609851 -0.179536 0.000130415  -0.00675654 -0.192562 0.000151634  -0.00742054 -0.205673 0.000181198  -0.00808716 -0.218829 0.000203609  -0.00876141 -0.232016 0.000223398  -0.00943875 -0.24521 0.000257254  -0.0101192 -0.258399 0.000276804  -0.0108008 -0.27156 0.00031662  -0.0114846 -0.284684 0.000340939  -0.0121689 -0.297773 0.000364542  -0.0128481 -0.310809 0.000383854  -0.0135171 -0.323777 0.000411272  0 0 0  0.000454262 0.000247002 0.00103521  0.00129238 -0.00112218 0.00155139  0.00222647 -0.00388515 0.00182724  0.00315928 -0.0078578 0.00192428  0.0040462 -0.0129239 0.00193763  0.00486267 -0.0189914 0.00187445  0.00559205 -0.0259647 0.00176001  0.00622404 -0.0337532 0.00163841  0.00675666 -0.0422817 0.00150299  0.00718582 -0.0514794 0.00136805  0.00751066 -0.061273 0.00124598  0.00773132 -0.0716051 0.0011332  0.00785291 -0.082409 0.00103021  0.00788188 -0.0936318 0.000923872  0.00782347 -0.105233 0.000846863  0.00768542 -0.117156 0.000760794  0.00746918 -0.129357 0.000678778  0.00718737 -0.141802 0.000610352  0.00684333 -0.154441 0.000558138  0.00644636 -0.167241 0.000507832  0.006001 -0.180179 0.000461102  0.00551581 -0.193218 0.000420809  0.00499058 -0.206334 0.000385284  0.00443554 -0.219497 0.000356674  0.00385857 -0.232687 0.000351667  0.00325942 -0.245887 0.000349045  0.00264287 -0.259078 0.000350714  0.00201106 -0.272239 0.000350952  0.00136352 -0.28536 0.000357866  0.000707626 -0.298446 0.000355721  4.45843e-05 -0.311481 0.000362158  -0.000619888 -0.324453 0.000371695  0 0 0  0.000901073 -0.000232756 0.00205445  0.00255686 -0.00177306 0.00313091  0.00439623 -0.0045836 0.00372052  0.00624675 -0.00856435 0.00392938  0.00803179 -0.0136357 0.00391722  0.0097124 -0.0197055 0.00377631  0.011267 -0.0266834 0.00354743  0.012681 -0.0344751 0.00329065  0.0139421 -0.0430071 0.00303769  0.0150471 -0.0522101 0.00276804  0.0159941 -0.0620051 0.0025053  0.0167863 -0.0723394 0.00228667  0.0174303 -0.0831446 0.00206327  0.0179317 -0.0943692 0.00186157  0.0182976 -0.105969 0.00166988  0.018537 -0.117894 0.00148058  0.0186663 -0.130096 0.00132966  0.0186841 -0.14254 0.00117111  0.0186005 -0.15518 0.00102425  0.0184257 -0.167976 0.000908613  0.0181732 -0.180912 0.000787258  0.0178463 -0.193949 0.000690222  0.0174599 -0.207059 0.000587702  0.017019 -0.220221 0.000528574  0.0165334 -0.233408 0.0004673  0.0160072 -0.246601 0.000430822  0.0154419 -0.259787 0.00040102  0.0148511 -0.272942 0.000369072  0.0142398 -0.286056 0.000350714  0.0136108 -0.299137 0.000348568  0.0129662 -0.312167 0.00034523  0.0123172 -0.325146 0.000354767  0 0 0  0.00140406 -0.00110531 0.00313163  0.00401524 -0.00284207 0.00505304  0.00684258 -0.00566304 0.00590229  0.00964361 -0.00964028 0.00615263  0.0123414 -0.0147035 0.00607419  0.0148949 -0.0207644 0.0058198  0.0172765 -0.0277328 0.00546312  0.0194664 -0.0355149 0.00505495  0.0214493 -0.0440352 0.00465369  0.0232213 -0.0532204 0.00424552  0.0247847 -0.0630023 0.00385904  0.0261401 -0.0733153 0.00349426  0.0272896 -0.0841026 0.00317264  0.0282457 -0.0953092 0.0028317  0.0290203 -0.106893 0.00253606  0.029624 -0.118797 0.00225592  0.0300627 -0.130984 0.00198436  0.0303595 -0.143409 0.00174308  0.0305252 -0.156032 0.00151563  0.0305703 -0.168812 0.00131798  0.0304971 -0.181733 0.00113654  0.0303237 -0.194757 0.00095439  0.0300655 -0.207851 0.000816107  0.0297279 -0.220999 0.00067997  0.0293157 -0.23417 0.00057745  0.0288429 -0.24735 0.000495434  0.0283256 -0.260522 0.000435114  0.0277679 -0.273666 0.00039053  0.0271742 -0.28677 0.000340939  0.0265546 -0.299841 0.000322819  0.0259266 -0.312867 0.000316858  0.0252914 -0.325848 0.000339746  0 0 0  0.00217016 -0.00245458 0.00521803  0.00589693 -0.00428337 0.00751305  0.0097788 -0.00705475 0.00849557  0.013585 -0.0110109 0.0087328  0.017239 -0.0160608 0.00857592  0.0206894 -0.0221044 0.00817728  0.0239023 -0.0290578 0.00765371  0.0268596 -0.0368234 0.00706983  0.0295509 -0.0453182 0.00649524  0.0319707 -0.0544706 0.00593543  0.0341177 -0.064222 0.00538254  0.0360013 -0.0744993 0.00488091  0.0376303 -0.0852513 0.00440574  0.0390183 -0.0964216 0.00395465  0.0401763 -0.107977 0.00351334  0.0411181 -0.119841 0.00311899  0.0418603 -0.132003 0.0027256  0.042417 -0.144399 0.00237894  0.0428014 -0.156988 0.00205946  0.0430231 -0.169741 0.00176191  0.0431075 -0.182632 0.00149059  0.0430644 -0.195633 0.00124216  0.042907 -0.208703 0.00101686  0.0426409 -0.22182 0.000828743  0.0422845 -0.234968 0.00067091  0.0418496 -0.248131 0.000534773  0.0413435 -0.26128 0.000433922  0.0407813 -0.274403 0.000350952  0.0401812 -0.287493 0.000313759  0.039556 -0.300551 0.000270605  0.0389078 -0.313572 0.000269651  0.0382481 -0.326545 0.000277519  0 0 0  -0.00179524 -0.00288228 -0.00365376  -0.00529754 -0.00543312 -0.00555968  -0.00927913 -0.0084257 -0.00643301  -0.0132999 -0.0122345 -0.00669432  -0.0171942 -0.0169883 -0.00659037  -0.0209051 -0.0226632 -0.00628901  -0.0244185 -0.0291911 -0.00588298  -0.0277351 -0.0365158 -0.00544858  -0.0308592 -0.0445681 -0.00500631  -0.0337934 -0.053282 -0.00456476  -0.0365478 -0.0626046 -0.00415659  -0.0391284 -0.0724716 -0.00375152  -0.0415434 -0.0828374 -0.00335121  -0.0437958 -0.093643 -0.00295472  -0.0458901 -0.104845 -0.00258946  -0.0478388 -0.116395 -0.00224805  -0.0496483 -0.128245 -0.00194001  -0.0513277 -0.140363 -0.00164747  -0.0528851 -0.152709 -0.00138092  -0.0543275 -0.165247 -0.00110984  -0.0556562 -0.177937 -0.000882149  -0.0568848 -0.190761 -0.000673532  -0.0580208 -0.203682 -0.000476599  -0.0590675 -0.216685 -0.000284672  -0.0600326 -0.229735 -0.000131369  -0.0609324 -0.242819 1.43051e-05  -0.0617712 -0.255907 0.000147343  -0.0625606 -0.268999 0.000265121  -0.0633051 -0.282073 0.000348091  -0.064018 -0.295115 0.000424147  -0.0647125 -0.308128 0.000475883  -0.0654004 -0.321124 0.000517607  0 0 0  -0.00101785 -0.0017499 -0.00217319  -0.0033965 -0.00396662 -0.00371361  -0.00627935 -0.0069549 -0.00444198  -0.00925079 -0.0108849 -0.00469589  -0.0121602 -0.0157769 -0.00464559  -0.0149565 -0.0215892 -0.00444102  -0.0176265 -0.028251 -0.00416589  -0.0201706 -0.0357049 -0.00387907  -0.0225879 -0.0438821 -0.00357819  -0.0248779 -0.0527194 -0.00326133  -0.0270458 -0.0621586 -0.00296736  -0.0290987 -0.0721405 -0.00268221  -0.0310395 -0.082612 -0.00239611  -0.0328707 -0.0935203 -0.00212216  -0.0345979 -0.104821 -0.00185871  -0.0362196 -0.116459 -0.00161433  -0.0377452 -0.128395 -0.00138211  -0.0391839 -0.140589 -0.00116444  -0.0405331 -0.153005 -0.000971079  -0.0417933 -0.165605 -0.000777006  -0.0429778 -0.178352 -0.000620842  -0.0440924 -0.191227 -0.000458717  -0.0451355 -0.204195 -0.000300169  -0.0461156 -0.217233 -0.000179291  -0.0470352 -0.230315 -6.31809e-05  -0.047905 -0.243425 5.38826e-05  -0.0487325 -0.256537 0.000163555  -0.0495176 -0.269645 0.000247717  -0.050272 -0.282729 0.000323296  -0.0510001 -0.295779 0.000399113  -0.0517085 -0.308797 0.000443697  -0.0523999 -0.321782 0.000513077  0 0 0  -0.000636399 -0.00103542 -0.00138235  -0.0020929 -0.0029227 -0.00225425  -0.0039058 -0.0058714 -0.00276542  -0.00582612 -0.00987431 -0.00296259  -0.00774384 -0.0148649 -0.00296021  -0.00961745 -0.0207805 -0.00284457  -0.0114328 -0.0275476 -0.00267577  -0.0131855 -0.0351061 -0.0024929  -0.0148767 -0.0433849 -0.00230312  -0.0165045 -0.0523241 -0.00211191  -0.0180669 -0.0618603 -0.0019145  -0.0195664 -0.0719375 -0.00173306  -0.0210046 -0.0824985 -0.00154829  -0.0223871 -0.0934965 -0.00137544  -0.0237112 -0.104878 -0.00119877  -0.024984 -0.116593 -0.00102997  -0.0262055 -0.128599 -0.000882626  -0.0273726 -0.140859 -0.000731707  -0.0284882 -0.153337 -0.000598669  -0.0295541 -0.165989 -0.000485659  -0.0305707 -0.178786 -0.000372171  -0.0315409 -0.191707 -0.000255346  -0.0324667 -0.204716 -0.000153065  -0.0333514 -0.217784 -5.126e-05  -0.034204 -0.230897 2.36034e-05  -0.0350235 -0.244026 0.000106812  -0.0358133 -0.257161 0.000187159  -0.0365779 -0.270282 0.000256538  -0.0373142 -0.283378 0.000321627  -0.0380299 -0.296439 0.000380754  -0.038729 -0.30946 0.000426292  -0.0394197 -0.322435 0.000478268  0 0 0  -0.000290297 -0.000667304 -0.000674963  -0.000969231 -0.00235695 -0.00109267  -0.00182247 -0.00527042 -0.00131583  -0.00274995 -0.00930715 -0.00142646  -0.00370544 -0.0143571 -0.00144649  -0.00466597 -0.020339 -0.00139928  -0.00562507 -0.0271795 -0.0013144  -0.00658274 -0.0348116 -0.0012188  -0.0075345 -0.0431653 -0.00113606  -0.00847983 -0.0521795 -0.00105047  -0.0094173 -0.0617897 -0.00094533  -0.0103461 -0.0719376 -0.00084877  -0.0112711 -0.0825684 -0.000762939  -0.0121905 -0.0936315 -0.000676394  -0.0131035 -0.105074 -0.000579596  -0.0140072 -0.116847 -0.000496626  -0.0148995 -0.128909 -0.000402689  -0.0157776 -0.141221 -0.000341892  -0.0166397 -0.153745 -0.000257492  -0.017483 -0.16644 -0.000185013  -0.0183084 -0.179275 -0.000114202  -0.0191228 -0.192229 -4.52995e-05  -0.0199242 -0.20527 1.40667e-05  -0.0207071 -0.218362 6.69956e-05  -0.0214775 -0.231496 0.000129223  -0.0222328 -0.244643 0.000174284  -0.0229719 -0.257795 0.000233173  -0.023694 -0.270926 0.000282049  -0.0244036 -0.284029 0.000328064  -0.0251026 -0.297097 0.000370264  -0.0257962 -0.31012 0.000405788  -0.0264826 -0.323089 0.000442505  0 0 0  2.57194e-05 -0.000583202 8.34465e-06  7.80225e-05 -0.00222582 8.58307e-06  0.000127614 -0.00513965 1.45435e-05  0.00015521 -0.00919658 5.72205e-06  0.000146031 -0.014278 -6.91414e-06  9.197e-05 -0.0202992 -2.38419e-06  -1.19209e-05 -0.0271815 -4.05312e-06  -0.000166774 -0.0348583 -6.67572e-06  -0.000374675 -0.0432593 -1.23978e-05  -0.000633597 -0.052323 -2.57492e-05  -0.000938773 -0.0619808 -1.69277e-05  -0.0012939 -0.0721767 -1.33514e-05  -0.0016973 -0.0828536 -5.96046e-06  -0.00214422 -0.0939575 1.14441e-05  -0.00263095 -0.105443 2.12193e-05  -0.00315249 -0.117254 3.31402e-05  -0.0037055 -0.129354 4.3869e-05  -0.00428391 -0.141702 6.12736e-05  -0.004884 -0.154255 8.84533e-05  -0.00550652 -0.166978 0.000100136  -0.00614572 -0.179838 0.000119686  -0.00679421 -0.192812 0.00014472  -0.00745773 -0.20587 0.000169277  -0.00812864 -0.218979 0.000193119  -0.00880194 -0.232128 0.000211954  -0.0094769 -0.245288 0.000251293  -0.0101573 -0.258449 0.00027132  -0.0108407 -0.271583 0.000317574  -0.0115237 -0.28469 0.000339985  -0.0122039 -0.29776 0.000363111  -0.0128779 -0.310787 0.000380754  -0.0135469 -0.323754 0.000406981  0 0 0  0.000335634 -0.000757396 0.000689268  0.00111574 -0.00250649 0.00110817  0.00206786 -0.00546432 0.00134349  0.00304508 -0.00953871 0.00142217  0.00397724 -0.0146296 0.00143909  0.00482899 -0.0206648 0.0013895  0.00558209 -0.027563 0.0013032  0.00622785 -0.0352564 0.00120711  0.00676525 -0.0436794 0.00109839  0.00719202 -0.0527671 0.0010004  0.00751221 -0.062447 0.00090456  0.00773096 -0.0726684 0.000826836  0.00785208 -0.0833668 0.00075078  0.0078789 -0.0944918 0.000672579  0.00781929 -0.105996 0.000616074  0.00768209 -0.117828 0.000558138  0.00747228 -0.129949 0.000499249  0.00719285 -0.142313 0.000452757  0.00684953 -0.154877 0.000423431  0.00644922 -0.167613 0.000390053  0.00600553 -0.180484 0.000356913  0.00551891 -0.193468 0.000334978  0.00499654 -0.20653 0.000312805  0.00444221 -0.219646 0.000296354  0.00385833 -0.2328 0.000302792  0.00325584 -0.245963 0.000308275  0.00263429 -0.259124 0.000319719  0.00200057 -0.272261 0.000329018  0.00135612 -0.285366 0.000341892  0.000701189 -0.298438 0.000347376  3.74317e-05 -0.311462 0.000360489  -0.000625372 -0.324434 0.000377655  0 0 0  0.000672534 -0.00120825 0.00137711  0.00221738 -0.00320894 0.00224805  0.00411782 -0.00624508 0.00273728  0.00608057 -0.0103294 0.0029223  0.00797051 -0.0154086 0.00292635  0.0097298 -0.0214283 0.00282264  0.0113335 -0.0283192 0.00264287  0.0127751 -0.0360042 0.00244188  0.0140501 -0.0444237 0.00225186  0.0151575 -0.053511 0.00204229  0.0161027 -0.0631922 0.00184512  0.0168914 -0.0734132 0.00168037  0.0175298 -0.0841128 0.00151563  0.0180246 -0.0952398 0.00136948  0.0183854 -0.106741 0.00122809  0.0186226 -0.118575 0.00108457  0.0187438 -0.130695 0.000977993  0.0187554 -0.143056 0.000864506  0.0186651 -0.155617 0.000761747  0.0184884 -0.16835 0.000677347  0.0182328 -0.18122 0.00059247  0.0179064 -0.194198 0.000526905  0.0175116 -0.207256 0.000452757  0.0170622 -0.220367 0.000416756  0.0165679 -0.233513 0.000375986  0.0160322 -0.246671 0.000358105  0.0154643 -0.259827 0.000348091  0.0148649 -0.272957 0.000330448  0.0142426 -0.286056 0.000325441  0.0136013 -0.299122 0.000332117  0.0129511 -0.312145 0.000338078  0.0122962 -0.325124 0.00035429  0 0 0  0.00103021 -0.00198537 0.00212312  0.00347602 -0.00436676 0.00363588  0.00643176 -0.00748539 0.00434518  0.00943422 -0.0115503 0.00458193  0.0123028 -0.0165899 0.00454593  0.0149754 -0.0225652 0.00435472  0.0174295 -0.0294226 0.00408053  0.0196556 -0.0370789 0.00376797  0.0216535 -0.0454723 0.00346184  0.0234252 -0.0545375 0.00314903  0.0249791 -0.0641978 0.00285268  0.0263219 -0.0743979 0.00258064  0.0274628 -0.0850791 0.00234628  0.0284116 -0.0961872 0.00208783  0.0291787 -0.107668 0.00187278  0.0297737 -0.119484 0.00166368  0.030211 -0.131583 0.00146508  0.0304987 -0.143924 0.0012846  0.0306516 -0.15647 0.00111651  0.0306823 -0.169183 0.000974417  0.0306029 -0.18204 0.00084734  0.0304203 -0.194997 0.000710726  0.0301499 -0.208043 0.00061202  0.029803 -0.221137 0.000514746  0.0293851 -0.234267 0.000449419  0.0289016 -0.247409 0.000400782  0.0283637 -0.260548 0.000358582  0.0277927 -0.273668 0.000335455  0.0271926 -0.286762 0.000308752  0.0265677 -0.299815 0.000300407  0.0259223 -0.312838 0.000303984  0.0252738 -0.325817 0.000329256  0 0 0  0.00177383 -0.0031665 0.00351501  0.00531587 -0.00593007 0.00534034  0.00934088 -0.00909913 0.00618362  0.0133625 -0.0131099 0.00643349  0.0171941 -0.0180824 0.00635457  0.0207708 -0.0239929 0.00606704  0.024063 -0.0307993 0.00568032  0.0270594 -0.0384125 0.00524187  0.0297624 -0.0467641 0.00480914  0.03218 -0.0557916 0.00438523  0.0343226 -0.0654127 0.00397062  0.0361968 -0.0755795 0.00359941  0.0378177 -0.0862244 0.00324655  0.0391986 -0.0972984 0.00290847  0.0403519 -0.108748 0.00258493  0.04129 -0.120526 0.00228858  0.0420249 -0.132595 0.00200105  0.0425673 -0.144902 0.00175071  0.0429373 -0.157419 0.00151467  0.0431542 -0.170102 0.0013001  0.0432272 -0.182928 0.00109363  0.0431724 -0.195861 0.000917912  0.0429943 -0.208878 0.000756264  0.0427165 -0.221949 0.000621557  0.0423501 -0.235052 0.000509739  0.0419047 -0.248172 0.000420332  0.0413888 -0.261287 0.00036025  0.0408142 -0.274393 0.000305176  0.0402038 -0.287476 0.000286579  0.0395689 -0.300513 0.00025773  0.0389102 -0.31353 0.00027585  0.0382452 -0.326506 0.000282288  0 0 0  -0.0018942 -0.00366633 -0.00224805  -0.00534157 -0.00646123 -0.0035212  -0.00925016 -0.00967506 -0.00416541  -0.013257 -0.0136041 -0.00438523  -0.0171835 -0.0183803 -0.00435472  -0.0209433 -0.0240121 -0.00417781  -0.0245031 -0.0304597 -0.00391483  -0.0278561 -0.0376837 -0.00362754  -0.0310029 -0.0456338 -0.00333428  -0.0339524 -0.0542524 -0.00303841  -0.0367146 -0.0634786 -0.00276446  -0.0392956 -0.0732524 -0.00249505  -0.0417042 -0.0835338 -0.00221944  -0.0439475 -0.0942594 -0.00195217  -0.046037 -0.105389 -0.00169182  -0.0479784 -0.116867 -0.00146222  -0.0497789 -0.128657 -0.00124645  -0.0514526 -0.140713 -0.00104046  -0.053005 -0.153002 -0.000860691  -0.0544384 -0.165492 -0.000672817  -0.0557561 -0.178137 -0.000516176  -0.0569732 -0.190925 -0.000373602  -0.0581014 -0.203811 -0.000228167  -0.0591443 -0.216779 -9.91821e-05  -0.0601063 -0.229797 5.24521e-06  -0.0609984 -0.24285 0.00012064  -0.061831 -0.25592 0.000218391  -0.0626116 -0.269 0.00030756  -0.0633485 -0.282056 0.000366211  -0.0640559 -0.295087 0.000433207  -0.064749 -0.308101 0.000480652  -0.0654426 -0.321102 0.000512123  0 0 0  -0.00102413 -0.00229153 -0.00134826  -0.00335737 -0.00489504 -0.00238776  -0.00621179 -0.00812948 -0.00291872  -0.00921285 -0.0121739 -0.0031178  -0.0121846 -0.0170868 -0.00310588  -0.0150471 -0.0228643 -0.00298023  -0.0177707 -0.0294569 -0.00279641  -0.0203508 -0.0368259 -0.00260401  -0.0227913 -0.0449114 -0.00240636  -0.0250952 -0.0536581 -0.00219035  -0.027269 -0.0630117 -0.00199366  -0.0293198 -0.0729048 -0.00179291  -0.0312531 -0.0832944 -0.00160289  -0.0330756 -0.094125 -0.00140476  -0.0347893 -0.105354 -0.00122571  -0.0364022 -0.116923 -0.00105166  -0.0379212 -0.128799 -0.000885963  -0.039345 -0.140934 -0.000731468  -0.0406809 -0.153296 -0.000597954  -0.0419314 -0.165847 -0.000465631  -0.0431046 -0.178554 -0.000353575  -0.0442078 -0.191389 -0.000236034  -0.0452428 -0.204321 -0.000121355  -0.0462143 -0.217327 -3.79086e-05  -0.0471292 -0.230378 4.79221e-05  -0.0479918 -0.243462 0.00013423  -0.0488064 -0.256555 0.000223875  -0.0495825 -0.269649 0.000286102  -0.0503266 -0.282719 0.000350475  -0.0510433 -0.295758 0.000415564  -0.0517416 -0.308772 0.000450373  -0.0524294 -0.32176 0.00050211  0 0 0  -0.000632584 -0.00149304 -0.000864029  -0.00204074 -0.00380191 -0.00145078  -0.00384837 -0.00699572 -0.00182629  -0.005806 -0.0111047 -0.00198007  -0.00778121 -0.0161186 -0.0019908  -0.00970924 -0.0220082 -0.00192237  -0.0115678 -0.02872 -0.00180626  -0.0133508 -0.0362039 -0.00168443  -0.0150578 -0.0444012 -0.0015552  -0.0166945 -0.0532535 -0.00142503  -0.0182617 -0.0627088 -0.00129151  -0.0197604 -0.0727028 -0.00117183  -0.0211943 -0.083183 -0.00103998  -0.0225666 -0.0941039 -0.000921249  -0.0238839 -0.105414 -0.000791788  -0.0251489 -0.117059 -0.000665665  -0.0263579 -0.12901 -0.000564098  -0.0275085 -0.141212 -0.000457764  -0.0286078 -0.153637 -0.000359774  -0.0296586 -0.166239 -0.000280142  -0.030664 -0.178997 -0.000202179  -0.0316269 -0.191872 -0.000116348  -0.0325506 -0.204841 -3.69549e-05  -0.0334337 -0.217882 3.93391e-05  -0.0342796 -0.230964 9.91821e-05  -0.0350928 -0.244072 0.00016427  -0.0358784 -0.257184 0.000231028  -0.0366352 -0.270291 0.000286102  -0.0373676 -0.283373 0.000335217  -0.0380764 -0.29642 0.000389338  -0.0387704 -0.309436 0.000426292  -0.0394592 -0.322413 0.000473976  0 0 0  -0.00028751 -0.00108135 -0.000414848  -0.000945091 -0.00320509 -0.000707865  -0.0018031 -0.00634876 -0.000869513  -0.00275907 -0.010488 -0.000957489  -0.00375015 -0.015567 -0.000979424  -0.00474578 -0.0215309 -0.000955105  -0.00573134 -0.0283256 -0.000894308  -0.00670487 -0.0358903 -0.000828743  -0.00766778 -0.04417 -0.000775814  -0.00861752 -0.053103 -0.000721693  -0.00955403 -0.0626336 -0.000652075  -0.0104818 -0.0727033 -0.000580549  -0.0114026 -0.0832564 -0.000517368  -0.0123167 -0.0942432 -0.000456333  -0.013221 -0.105615 -0.000384808  -0.0141133 -0.117321 -0.000321865  -0.0149963 -0.129326 -0.000251532  -0.015867 -0.141581 -0.000208378  -0.0167208 -0.154051 -0.000147581  -0.0175583 -0.166696 -9.48906e-05  -0.0183811 -0.17949 -3.83854e-05  -0.0191889 -0.192396 2.02656e-05  -0.0199826 -0.205397 6.77109e-05  -0.0207593 -0.218464 0.000109196  -0.0215194 -0.231568 0.000161886  -0.0222678 -0.244695 0.000201702  -0.0230064 -0.25782 0.000257969  -0.023736 -0.270937 0.000294209  -0.0244465 -0.284026 0.000332832  -0.0251393 -0.297081 0.000370264  -0.0258241 -0.310099 0.000406981  -0.0265036 -0.323072 0.000441551  0 0 0  2.19941e-05 -0.00097838 3.33786e-06  6.36876e-05 -0.00305584 5.96046e-06  0.000100255 -0.00619182 7.62939e-06  0.000115395 -0.0103498 -5.24521e-06  9.4533e-05 -0.0154662 -1.97887e-05  3.26037e-05 -0.0214707 -1.78814e-05  -7.56383e-05 -0.0283126 -2.02656e-05  -0.000234842 -0.0359263 -2.47955e-05  -0.000443578 -0.0442581 -2.98023e-05  -0.000702143 -0.0532424 -4.43459e-05  -0.00101137 -0.0628213 -3.43323e-05  -0.00136709 -0.072941 -2.81334e-05  -0.00176942 -0.0835418 -1.7643e-05  -0.00221384 -0.0945711 -5.72205e-06  -0.00269413 -0.105986 5.48363e-06  -0.00320923 -0.117733 1.88351e-05  -0.00375772 -0.129772 3.09944e-05  -0.00433397 -0.142063 4.76837e-05  -0.00493455 -0.154561 7.43866e-05  -0.00555444 -0.167236 9.15527e-05  -0.00618625 -0.180053 0.000105858  -0.00683165 -0.192983 0.000133514  -0.0074873 -0.206003 0.000158787  -0.00815463 -0.219083 0.000182152  -0.00883365 -0.232199 0.000205994  -0.00951767 -0.245335 0.000244141  -0.0102031 -0.258472 0.000268221  -0.0108838 -0.271591 0.000312567  -0.0115633 -0.284686 0.000334978  -0.0122404 -0.297747 0.00036025  -0.0129154 -0.310767 0.000378847  -0.013588 -0.323739 0.000407457  0 0 0  0.000323728 -0.00115663 0.00043273  0.0010598 -0.00333327 0.000712156  0.00199082 -0.00651443 0.000883818  0.00297266 -0.0106925 0.000935555  0.00392044 -0.0158202 0.000946999  0.00478995 -0.0218351 0.000910759  0.00555825 -0.0286932 0.000853777  0.00621569 -0.0363239 0.000782251  0.0067575 -0.0446776 0.000708342  0.00718486 -0.0536833 0.000641584  0.00750601 -0.0632873 0.000574827  0.00772452 -0.0734306 0.000525236  0.00784492 -0.0840535 0.000475883  0.00787246 -0.0951056 0.000429392  0.00781214 -0.10654 0.000391483  0.00767446 -0.118307 0.000354767  0.00746441 -0.130367 0.000325441  0.00718188 -0.142673 0.000300884  0.00684071 -0.155182 0.000288248  0.00644708 -0.167875 0.000272274  0.00600743 -0.180699 0.000251055  0.00552607 -0.193642 0.000248194  0.00500274 -0.206667 0.000239849  0.00444269 -0.219749 0.000240564  0.0038538 -0.23287 0.000255585  0.00324392 -0.246005 0.000267982  0.00261736 -0.259148 0.000289202  0.00197673 -0.272265 0.000308037  0.00132871 -0.285359 0.000319958  0.000669956 -0.298423 0.000342846  4.76837e-07 -0.311442 0.000358343  -0.000666857 -0.324418 0.000382185  0 0 0  0.000660032 -0.00163776 0.000862122  0.00213292 -0.00404406 0.00145054  0.00400051 -0.0073148 0.00179315  0.00597632 -0.0115079 0.00193453  0.00790143 -0.0166185 0.00194335  0.00970006 -0.0226144 0.00187302  0.011337 -0.0294577 0.0017488  0.012799 -0.0370765 0.0016048  0.0140866 -0.0454221 0.00147271  0.0152025 -0.0544258 0.00132918  0.0161486 -0.0640306 0.00119662  0.0169352 -0.0741713 0.00108409  0.0175714 -0.0847983 0.000981092  0.0180658 -0.0958515 0.000887156  0.0184257 -0.107283 0.000793219  0.0186584 -0.11905 0.000698805  0.0187733 -0.131111 0.000632048  0.018784 -0.143415 0.000563145  0.0186961 -0.155923 0.000502825  0.0185182 -0.168611 0.000446796  0.0182614 -0.181432 0.000401974  0.0179279 -0.194367 0.000361204  0.0175302 -0.207389 0.000322819  0.0170791 -0.220466 0.000306129  0.0165801 -0.233581 0.000286818  0.0160415 -0.246709 0.000287771  0.0154662 -0.259847 0.000293016  0.0148683 -0.272961 0.000288963  0.0142438 -0.28605 0.000305653  0.0136023 -0.299107 0.000312567  0.0129471 -0.312123 0.000334024  0.0122848 -0.325103 0.000353336  0 0 0  0.00102732 -0.0024842 0.00131679  0.00340727 -0.00522852 0.0023334  0.00630733 -0.0085817 0.00284147  0.00931203 -0.0127624 0.003021  0.0122234 -0.0178285 0.00301695  0.0149458 -0.0237733 0.00288749  0.0174419 -0.0305745 0.00270081  0.0196989 -0.0381595 0.00248694  0.0217156 -0.0464695 0.00227737  0.0234975 -0.0554493 0.00206327  0.0250556 -0.0650318 0.0018568  0.0263977 -0.0751495 0.00167871  0.0275352 -0.0857591 0.00152659  0.0284812 -0.0967952 0.00135279  0.029247 -0.108205 0.00121379  0.0298424 -0.119953 0.00107455  0.0302742 -0.131995 0.000948429  0.0305574 -0.144279 0.000828505  0.0307043 -0.156774 0.000726938  0.0307312 -0.169439 0.000630856  0.0306511 -0.182245 0.000555992  0.0304661 -0.195161 0.000472307  0.0301843 -0.208169 0.000412464  0.0298252 -0.221228 0.000352383  0.0293982 -0.23433 0.000318766  0.028914 -0.247447 0.00030756  0.0283816 -0.260568 0.000282288  0.0278053 -0.273668 0.000282049  0.0271938 -0.286751 0.000274181  0.0265591 -0.299796 0.00027895  0.0259106 -0.312812 0.000295877  0.0252566 -0.325791 0.000319242  0 0 0  0.00185351 -0.00388193 0.0021596  0.00531512 -0.00686628 0.00338125  0.00924215 -0.0102447 0.00399375  0.0132322 -0.0143719 0.00420618  0.0170819 -0.0193654 0.00417829  0.0206949 -0.0252392 0.00399303  0.0240216 -0.031977 0.00373816  0.0270466 -0.0395125 0.00344706  0.029772 -0.0477711 0.00315356  0.0322047 -0.0567076 0.00286651  0.0343529 -0.0662472 0.00258183  0.036232 -0.0763279 0.00234151  0.037853 -0.0868996 0.00210643  0.0392329 -0.0979021 0.00188208  0.0403836 -0.109278 0.00167227  0.0413172 -0.120989 0.0014751  0.0420468 -0.132998 0.00128841  0.042588 -0.145248 0.00113392  0.0429568 -0.157718 0.000980377  0.0431745 -0.170348 0.000840187  0.043247 -0.183125 0.000701904  0.0431867 -0.196018 0.000601768  0.0430117 -0.208994 0.00049448  0.0427272 -0.222029 0.000418663  0.0423532 -0.235107 0.000350952  0.0419016 -0.248204 0.000301361  0.0413828 -0.261302 0.000281811  0.040812 -0.274382 0.000253916  0.0401981 -0.287451 0.000256777  0.0395555 -0.300489 0.000243902  0.0388989 -0.313502 0.000273943  0.0382366 -0.326479 0.00028491  0 0 0  -0.00191936 -0.00405181 -0.00106454  -0.00536753 -0.00706753 -0.00169301  -0.00925514 -0.0103809 -0.00203919  -0.0132454 -0.0143654 -0.00215697  -0.0171708 -0.0191581 -0.00216246  -0.0209435 -0.024775 -0.00208831  -0.0245205 -0.0311904 -0.00196028  -0.027889 -0.0383657 -0.00181413  -0.0310514 -0.0462624 -0.00166988  -0.034012 -0.0548204 -0.00152183  -0.0367821 -0.0639914 -0.0013783  -0.0393686 -0.0737162 -0.00124598  -0.0417781 -0.0839442 -0.00110149  -0.0440201 -0.0946201 -0.000953913  -0.0461068 -0.105706 -0.000803471  -0.0480454 -0.117144 -0.000682116  -0.0498462 -0.128895 -0.000559568  -0.0515156 -0.140916 -0.000440836  -0.0530574 -0.153167 -0.000343323  -0.0544817 -0.165628 -0.000236034  -0.0557995 -0.17825 -0.000153065  -0.0570164 -0.191006 -7.08103e-05  -0.0581393 -0.203877 1.66893e-05  -0.0591764 -0.216824 8.72612e-05  -0.0601358 -0.229823 0.000148058  -0.0610273 -0.24286 0.00022769  -0.0618579 -0.255924 0.000293732  -0.0626402 -0.268988 0.000352144  -0.0633817 -0.282037 0.00039196  -0.0640945 -0.295069 0.000447035  -0.0647929 -0.308082 0.000484943  -0.0654809 -0.321076 0.000507832  0 0 0  -0.001008 -0.00256246 -0.000644684  -0.00334115 -0.00539007 -0.00115991  -0.00619763 -0.00876473 -0.00143695  -0.00920463 -0.0128858 -0.00154734  -0.012191 -0.0178259 -0.00155449  -0.0150749 -0.0235946 -0.00149941  -0.0178225 -0.0301605 -0.00140858  -0.0204242 -0.0374831 -0.00131464  -0.0228802 -0.0455214 -0.00121927  -0.0251948 -0.0542111 -0.00110602  -0.0273751 -0.0635124 -0.00100875  -0.0294273 -0.0733568 -0.000901461  -0.0313573 -0.0836969 -0.000804424  -0.033174 -0.0944821 -0.000688553  -0.034884 -0.105666 -0.000590324  -0.0364931 -0.117195 -0.000486135  -0.0380061 -0.129032 -0.000390053  -0.039423 -0.141135 -0.000300884  -0.0407522 -0.153465 -0.000221252  -0.041997 -0.165985 -0.000155687  -0.043165 -0.178665 -8.36849e-05  -0.0442626 -0.191475 -1.81198e-05  -0.0452895 -0.204387 5.38826e-05  -0.0462577 -0.217372 0.000103235  -0.0471716 -0.230407 0.000160694  -0.0480313 -0.243473 0.000216246  -0.0488465 -0.256559 0.000282288  -0.0496194 -0.269636 0.00032115  -0.0503612 -0.282702 0.000374794  -0.0510769 -0.295738 0.000428915  -0.0517766 -0.30875 0.000452995  -0.0524676 -0.321738 0.000494242  0 0 0  -0.000624664 -0.00171654 -0.000410557  -0.00202563 -0.00423959 -0.000704527  -0.00383118 -0.007597 -0.000910282  -0.00579965 -0.0117924 -0.000990629  -0.00779629 -0.0168373 -0.00100565  -0.00974977 -0.0227215 -0.000980139  -0.011632 -0.0294091 -0.000915051  -0.013434 -0.0368495 -0.000861406  -0.015154 -0.0450037 -0.000796318  -0.0167938 -0.053807 -0.000730038  -0.0183594 -0.0632102 -0.00066328  -0.0198573 -0.0731547 -0.00060153  -0.0212921 -0.0835876 -0.000527382  -0.0226637 -0.0944624 -0.000463247  -0.0239762 -0.105729 -0.000381708  -0.025231 -0.117335 -0.000302792  -0.0264328 -0.129243 -0.000247478  -0.0275812 -0.141414 -0.000185251  -0.0286758 -0.153808 -0.000124216  -0.0297239 -0.16638 -7.41482e-05  -0.0307307 -0.179108 -3.00407e-05  -0.0316925 -0.19196 2.6226e-05  -0.0326097 -0.204909 7.65324e-05  -0.0334835 -0.217926 0.000127792  -0.0343223 -0.230995 0.000171185  -0.0351324 -0.244085 0.000224352  -0.0359123 -0.257189 0.000270605  -0.0366642 -0.270278 0.000314236  -0.0373964 -0.283357 0.000351191  -0.0381067 -0.296399 0.000392914  -0.0388005 -0.309414 0.000427246  -0.0394876 -0.322393 0.000467539  0 0 0  -0.000280283 -0.00128266 -0.000195026  -0.00093545 -0.00361785 -0.000346899  -0.00179929 -0.00693074 -0.00042963  -0.00276595 -0.0111608 -0.000483513  -0.00377113 -0.0162698 -0.000501633  -0.00478196 -0.0222342 -0.000495672  -0.0057829 -0.0290041 -0.000468254  -0.00676727 -0.0365302 -0.000431061  -0.00773585 -0.0447693 -0.00041151  -0.00869 -0.0536563 -0.000388384  -0.00963116 -0.0631359 -0.000354528  -0.0105599 -0.073156 -0.000310421  -0.0114805 -0.0836616 -0.000269413  -0.0123936 -0.0946026 -0.000235796  -0.0132936 -0.105932 -0.000192642  -0.0141838 -0.117598 -0.000148773  -0.0150609 -0.129561 -0.000102758  -0.0159273 -0.141781 -7.77245e-05  -0.0167828 -0.154223 -3.67165e-05  -0.0176191 -0.166838 -2.86102e-06  -0.0184386 -0.179605 4.05312e-05  -0.019242 -0.19249 8.2016e-05  -0.0200288 -0.205466 0.000121117  -0.0208035 -0.218509 0.000148773  -0.0215628 -0.231598 0.000189304  -0.0223103 -0.24471 0.00022912  -0.0230472 -0.257826 0.000281334  -0.0237679 -0.270926 0.000313282  -0.0244806 -0.284009 0.000335932  -0.0251796 -0.297058 0.000373602  -0.025867 -0.310074 0.000401735  -0.0265474 -0.323047 0.000438452  0 0 0  1.71512e-05 -0.00116846 7.15256e-07  5.15282e-05 -0.00345796 8.10623e-06  8.16584e-05 -0.00676164 2.6226e-06  9.01818e-05 -0.011013 -1.21593e-05  6.36578e-05 -0.0161591 -2.36034e-05  -4.05312e-06 -0.022167 -3.09944e-05  -0.00011611 -0.0289837 -3.17097e-05  -0.000278533 -0.0365614 -3.69549e-05  -0.000491858 -0.0448532 -4.41074e-05  -0.000752807 -0.053792 -5.91278e-05  -0.00106072 -0.0633234 -5.07832e-05  -0.00141621 -0.073393 -4.24385e-05  -0.00181556 -0.0839461 -3.29018e-05  -0.00225496 -0.0949326 -2.21729e-05  -0.00273526 -0.106301 -1.23978e-05  -0.00325108 -0.118009 4.29153e-06  -0.00379801 -0.13001 1.90735e-05  -0.00437212 -0.142263 3.60012e-05  -0.00496697 -0.154736 5.6982e-05  -0.00557923 -0.167381 8.05855e-05  -0.00620866 -0.180172 8.70228e-05  -0.00685334 -0.193078 0.000122547  -0.00750995 -0.206073 0.000147343  -0.00817752 -0.219131 0.000175953  -0.00885296 -0.23223 0.000201941  -0.00953341 -0.245353 0.000237942  -0.0102184 -0.258479 0.000268698  -0.0109029 -0.271586 0.000304222  -0.0115781 -0.284669 0.000325203  -0.0122535 -0.297724 0.000355959  -0.012934 -0.310739 0.000381947  -0.0136139 -0.323711 0.000410318  0 0 0  0.000315517 -0.00134909 0.000213623  0.00103897 -0.00373548 0.000352621  0.00195736 -0.00708061 0.00044179  0.00293428 -0.0113522 0.000457525  0.00388473 -0.016512 0.000459909  0.00476009 -0.0225277 0.000433922  0.00553507 -0.0293603 0.000399828  0.00619769 -0.0369579 0.000359297  0.00674534 -0.0452699 0.000317812  0.00717795 -0.0542324 0.000283957  0.0074991 -0.0637864 0.00024581  0.00771427 -0.0738807 0.000226021  0.0078336 -0.0844569 0.000201941  0.00786221 -0.0954667 0.000183582  0.00780594 -0.106855 0.000168085  0.00766921 -0.118583 0.000154734  0.0074563 -0.130604 0.000150919  0.00717831 -0.142877 0.000148535  0.00683928 -0.155359 0.00014925  0.00644541 -0.168017 0.000149727  0.00600243 -0.180817 0.000146389  0.00551486 -0.193729 0.000157595  0.00498652 -0.206734 0.000169992  0.00442672 -0.219798 0.000185013  0.00383949 -0.232901 0.000211239  0.003232 -0.246022 0.000227213  0.00260186 -0.259152 0.000259399  0.00196195 -0.27226 0.000287294  0.00130725 -0.285343 0.000303745  0.000646353 -0.298397 0.000336409  -1.62125e-05 -0.311414 0.000359774  -0.000682592 -0.324387 0.000386715  0 0 0  0.00064525 -0.00184739 0.000421286  0.00210008 -0.00446063 0.000713825  0.00395435 -0.00788766 0.000884056  0.00592637 -0.0121683 0.000955105  0.00785917 -0.0173138 0.000957727  0.0096733 -0.0233065 0.000914335  0.0113279 -0.0301241 0.000844717  0.0128042 -0.0377128 0.0007658  0.0141006 -0.0460121 0.00068903  0.0152196 -0.0549701 0.000612736  0.016167 -0.0645238 0.000546694  0.016955 -0.0746155 0.000487804  0.0175885 -0.0851961 0.000447989  0.0180777 -0.0962054 0.000403643  0.0184356 -0.107595 0.000357389  0.018667 -0.119325 0.000314951  0.0187809 -0.131346 0.000291824  0.0187886 -0.143616 0.000258684  0.0186987 -0.156095 0.000243664  0.0185194 -0.168747 0.000219107  0.0182605 -0.181546 0.000207663  0.0179291 -0.194451 0.00020051  0.0175309 -0.207453 0.000189543  0.0170784 -0.220515 0.00019455  0.0165811 -0.233611 0.000197887  0.0160372 -0.246725 0.000221014  0.0154588 -0.259845 0.000237465  0.0148473 -0.272952 0.000254154  0.0142143 -0.286028 0.000284195  0.0135663 -0.29908 0.000297546  0.0129116 -0.3121 0.000328064  0.0122609 -0.325076 0.000349283  0 0 0  0.0010075 -0.00273818 0.000629425  0.00337556 -0.00568837 0.00113463  0.00626183 -0.00917709 0.00139737  0.0092575 -0.0134334 0.00148749  0.0121729 -0.0185277 0.00148654  0.0149111 -0.0244694 0.00141716  0.0174239 -0.0312429 0.00131631  0.019694 -0.0387961 0.00120449  0.0217243 -0.0470573 0.00108767  0.0235174 -0.0559867 0.000972748  0.0250785 -0.0655189 0.000864029  0.0264195 -0.075586 0.00077796  0.0275578 -0.0861471 0.000705957  0.0285021 -0.0971398 0.000620842  0.0292645 -0.10851 0.000553608  0.0298541 -0.120224 0.000491142  0.030282 -0.132227 0.000433207  0.0305662 -0.144477 0.000375748  0.030715 -0.15694 0.000339508  0.0307386 -0.169572 0.00028944  0.0306537 -0.182354 0.000262022  0.0304694 -0.195248 0.000237226  0.03019 -0.20823 0.00021863  0.0298266 -0.221276 0.000194788  0.0293965 -0.234356 0.000192881  0.0289092 -0.247456 0.000210285  0.0283694 -0.260559 0.000210762  0.0277867 -0.273656 0.000230074  0.0271728 -0.286724 0.000241756  0.0265355 -0.29977 0.00026083  0.0258796 -0.312788 0.000289202  0.0252194 -0.325767 0.000314713  0 0 0  0.00186752 -0.00424314 0.00102663  0.00531662 -0.00742239 0.00162768  0.00921148 -0.0108948 0.0019424  0.0131763 -0.0150753 0.00205851  0.0170171 -0.0200812 0.00204802  0.0206307 -0.0259495 0.0019536  0.0239662 -0.0326585 0.00182223  0.0270048 -0.0401528 0.00166798  0.029741 -0.0483604 0.00151396  0.0321813 -0.0572408 0.00136089  0.0343361 -0.0667342 0.00121045  0.0362201 -0.0767583 0.00109124  0.0378439 -0.0872836 0.000982046  0.0392238 -0.0982397 0.000864506  0.0403742 -0.109574 0.000769138  0.041306 -0.121258 0.00067234  0.0420365 -0.133226 0.000584126  0.0425792 -0.145446 0.000519514  0.0429544 -0.157877 0.00044632  0.0431724 -0.170476 0.000378609  0.0432413 -0.183229 0.00031662  0.0431781 -0.1961 0.000284433  0.0429995 -0.209052 0.000232697  0.0427179 -0.222072 0.000212193  0.0423415 -0.235129 0.00019145  0.0418866 -0.248206 0.000184536  0.0413659 -0.261288 0.000196695  0.0407934 -0.274368 0.000197411  0.0401816 -0.287423 0.000220537  0.0395417 -0.300462 0.000226498  0.0388887 -0.313475 0.000263691  0.0382309 -0.326459 0.000279903  0 0 0  -0.00193298 -0.00417042 1.81198e-05  -0.00537594 -0.00724873 2.59876e-05  -0.0092555 -0.0106041 1.0252e-05  -0.0132413 -0.0146113 1.85966e-05  -0.0171642 -0.0194071 1.66893e-06  -0.0209388 -0.0250181 -1.14441e-05  -0.0245203 -0.0314257 -1.33514e-05  -0.0278928 -0.0385857 -7.62939e-06  -0.0310599 -0.0464645 -5.72205e-06  -0.0340244 -0.0550016 -5.72205e-06  -0.0367948 -0.0641545 2.38419e-06  -0.0393833 -0.0738594 7.15256e-07  -0.0417976 -0.0840717 1.40667e-05  -0.0440431 -0.0947283 4.50611e-05  -0.0461291 -0.105798 7.96318e-05  -0.0480675 -0.117222 9.67979e-05  -0.0498683 -0.128958 0.000127316  -0.0515378 -0.140973 0.000149488  -0.053081 -0.153211 0.000177383  -0.0545096 -0.165653 0.000203133  -0.0558238 -0.178264 0.000213623  -0.057039 -0.191015 0.000232697  -0.0581641 -0.203881 0.000256538  -0.0592015 -0.216818 0.000276089  -0.0601618 -0.229812 0.000296116  -0.0610518 -0.242841 0.00033617  -0.0618842 -0.255902 0.000370026  -0.0626657 -0.268963 0.000401735  -0.0634131 -0.28201 0.000422001  -0.0641313 -0.295045 0.000463247  -0.064831 -0.308057 0.000487089  -0.0655243 -0.321055 0.000503778  0 0 0  -0.00100812 -0.00264252 7.62939e-06  -0.00333932 -0.00553805 1.57356e-05  -0.0061948 -0.00896469 1.16825e-05  -0.00920254 -0.0131113 7.62939e-06  -0.0121934 -0.0180623 -3.33786e-06  -0.0150836 -0.0238275 -1.3113e-05  -0.0178385 -0.0303871 -8.58307e-06  -0.0204474 -0.0376948 -1.45435e-05  -0.022909 -0.0457173 -2.24113e-05  -0.0252287 -0.05439 -1.04904e-05  -0.0274132 -0.063669 -1.64509e-05  -0.0294663 -0.0734942 -1.00136e-05  -0.031396 -0.083819 -5.72205e-06  -0.0332121 -0.0945872 3.0756e-05  -0.0349219 -0.105754 4.79221e-05  -0.0365289 -0.117271 7.77245e-05  -0.0380363 -0.129094 0.000101328  -0.0394547 -0.141185 0.000129938  -0.0407836 -0.153504 0.000150919  -0.0420299 -0.166013 0.000162125  -0.0431995 -0.17868 0.000183105  -0.0442944 -0.191481 0.000203848  -0.0453234 -0.204387 0.000228405  -0.0462916 -0.217367 0.000245333  -0.047199 -0.230399 0.000271559  -0.0480528 -0.243456 0.000299454  -0.0488648 -0.256537 0.000341415  -0.0496414 -0.269612 0.000357628  -0.0503862 -0.282668 0.000398874  -0.0511088 -0.295712 0.00044179  -0.0518141 -0.308722 0.000457287  -0.0525091 -0.321712 0.000486612  0 0 0  -0.00062345 -0.00178175 1.45435e-05  -0.00202034 -0.0043717 1.3113e-05  -0.00382808 -0.00778301 -3.8147e-06  -0.00580123 -0.0120081 0  -0.00780261 -0.0170685 -1.0252e-05  -0.00976253 -0.0229512 -2.3365e-05  -0.0116499 -0.0296304 -1.74046e-05  -0.013456 -0.0370601 -2.5034e-05  -0.0151808 -0.045196 -3.31402e-05  -0.0168259 -0.0539841 -2.69413e-05  -0.0183932 -0.0633646 -3.43323e-05  -0.0198921 -0.0732918 -2.52724e-05  -0.0213267 -0.0837084 -1.16825e-05  -0.0226984 -0.0945676 -2.38419e-06  -0.0240091 -0.105817 2.67029e-05  -0.0252614 -0.117411 5.72205e-05  -0.0264609 -0.129305 7.03335e-05  -0.0276122 -0.141461 8.89301e-05  -0.0287139 -0.153843 0.000115633  -0.0297666 -0.166409 0.000133514  -0.0307693 -0.179126 0.000145912  -0.0317249 -0.191972 0.000169516  -0.0326347 -0.20491 0.000187397  -0.0335059 -0.217923 0.000210047  -0.0343468 -0.230987 0.000244617  -0.035157 -0.244069 0.00028491  -0.0359371 -0.257166 0.00030899  -0.0366883 -0.270253 0.000339031  -0.0374179 -0.283322 0.000370264  -0.0381303 -0.296368 0.00039649  -0.0388291 -0.30938 0.000427961  -0.0395231 -0.322362 0.000459433  0 0 0  -0.000280239 -0.00133958 6.91414e-06  -0.000933975 -0.00374344 7.15256e-06  -0.00179893 -0.00711021 7.15256e-06  -0.00276732 -0.0113708 -7.62939e-06  -0.00377667 -0.0164982 -2.07424e-05  -0.00479388 -0.0224613 -2.71797e-05  -0.00580072 -0.0292229 -3.05176e-05  -0.00678897 -0.0367383 -3.14713e-05  -0.00775957 -0.0449601 -3.95775e-05  -0.00871587 -0.0538324 -5.31673e-05  -0.00965869 -0.0632911 -4.72069e-05  -0.0105902 -0.073293 -3.95775e-05  -0.011511 -0.0837824 -1.97887e-05  -0.0124209 -0.094707 -1.81198e-05  -0.0133185 -0.106021 -3.09944e-06  -0.014205 -0.117672 2.07424e-05  -0.0150802 -0.129623 4.31538e-05  -0.0159435 -0.14183 5.48363e-05  -0.0167975 -0.154258 7.39098e-05  -0.0176349 -0.166867 9.01222e-05  -0.0184577 -0.179626 0.00012064  -0.0192671 -0.192503 0.00014472  -0.0200558 -0.205469 0.000169992  -0.0208254 -0.218506 0.000189781  -0.0215821 -0.23159 0.000215054  -0.0223296 -0.244694 0.000259638  -0.023067 -0.257803 0.000302792  -0.0237896 -0.270901 0.000329256  -0.0244946 -0.28398 0.000341892  -0.025188 -0.297028 0.000375986  -0.0258727 -0.310042 0.000397205  -0.0265515 -0.323014 0.000429153  0 0 0  1.68681e-05 -0.00122476 1.90735e-06  5.05745e-05 -0.00358 9.29832e-06  7.98404e-05 -0.00693941 -9.53674e-07  8.57115e-05 -0.0112205 -1.43051e-05  5.78165e-05 -0.0163835 -2.67029e-05  -1.13845e-05 -0.0223928 -3.76701e-05  -0.000126004 -0.0292002 -4.36306e-05  -0.000290751 -0.0367687 -4.3869e-05  -0.000505328 -0.0450439 -5.65052e-05  -0.000766516 -0.0539674 -7.34329e-05  -0.00107646 -0.06348 -6.50883e-05  -0.00143242 -0.0735307 -5.38826e-05  -0.00182974 -0.0840678 -5.17368e-05  -0.00227165 -0.0950366 -3.38554e-05  -0.00275266 -0.10639 -2.98023e-05  -0.00326514 -0.118082 -1.21593e-05  -0.00381041 -0.130072 7.39098e-06  -0.00438404 -0.142314 2.45571e-05  -0.0049789 -0.154771 4.1008e-05  -0.00559664 -0.167407 6.67572e-05  -0.0062294 -0.18019 6.98566e-05  -0.00687528 -0.193087 0.000107288  -0.00753927 -0.206074 0.000141144  -0.00821185 -0.219126 0.000167608  -0.00888705 -0.232219 0.000195026  -0.0095675 -0.245336 0.000230551  -0.0102487 -0.258455 0.000266552  -0.0109267 -0.271559 0.000297785  -0.0116067 -0.284643 0.000317812  -0.012285 -0.297694 0.000351191  -0.012958 -0.31071 0.000382423  -0.0136299 -0.323677 0.00041461  0 0 0  0.000314385 -0.00140852 8.34465e-06  0.00103319 -0.00385761 6.19888e-06  0.00194722 -0.00725883 9.77516e-06  0.00292355 -0.0115598 -1.90735e-05  0.00387466 -0.0167335 -2.55108e-05  0.00475144 -0.0227531 -4.79221e-05  0.00552791 -0.0295742 -5.55515e-05  0.00619137 -0.0371661 -6.38962e-05  0.00674033 -0.0454577 -7.86781e-05  0.00717366 -0.0544063 -7.60555e-05  0.00749505 -0.063942 -8.17776e-05  0.00771153 -0.0740184 -7.53403e-05  0.00783074 -0.0845771 -7.1764e-05  0.00785911 -0.0955696 -6.58035e-05  0.00780022 -0.106945 -5.36442e-05  0.00766206 -0.118657 -4.31538e-05  0.00745034 -0.130666 -2.52724e-05  0.00716972 -0.142926 -4.76837e-06  0.00682974 -0.155395 9.29832e-06  0.0064373 -0.168039 2.31266e-05  0.00599217 -0.180833 4.3869e-05  0.00550056 -0.193735 6.67572e-05  0.0049727 -0.206734 9.58443e-05  0.00441551 -0.219792 0.000126362  0.00382876 -0.232887 0.00016284  0.00321531 -0.246007 0.00019002  0.00258589 -0.259127 0.000227928  0.00194216 -0.272232 0.000266552  0.00128722 -0.285316 0.000292301  0.000622511 -0.298366 0.000329971  -4.81606e-05 -0.311383 0.000359297  -0.000713825 -0.324355 0.000389099  0 0 0  0.000643045 -0.0019123 1.38283e-05  0.00209084 -0.00458789 5.48363e-06  0.00394076 -0.00806868 -9.77516e-06  0.00591153 -0.0123751 -1.95503e-05  0.00784642 -0.0175346 -3.17097e-05  0.00966376 -0.0235307 -4.98295e-05  0.011324 -0.0303374 -6.67572e-05  0.0128047 -0.0379186 -7.62939e-05  0.0141011 -0.046198 -9.44138e-05  0.0152198 -0.0551426 -0.000104904  0.0161691 -0.0646757 -0.000108719  0.016959 -0.0747513 -0.000112534  0.0175947 -0.0853136 -8.84533e-05  0.0180851 -0.096306 -8.29697e-05  0.0184447 -0.107684 -8.13007e-05  0.0186744 -0.1194 -6.53267e-05  0.0187831 -0.131406 -4.52995e-05  0.0187883 -0.143664 -4.26769e-05  0.0186973 -0.15613 -1.83582e-05  0.0185194 -0.168768 -9.29832e-06  0.0182588 -0.181557 1.19209e-05  0.0179262 -0.194457 3.8147e-05  0.0175264 -0.207452 5.6982e-05  0.0170681 -0.220502 8.36849e-05  0.0165622 -0.233593 0.000109911  0.0160167 -0.246708 0.000154734  0.0154371 -0.259818 0.00018239  0.0148311 -0.272922 0.000221252  0.0141997 -0.286001 0.000261307  0.0135508 -0.299049 0.000286102  0.0128903 -0.312062 0.000321865  0.012229 -0.325044 0.000349045  0 0 0  0.00100616 -0.00281817 2.38419e-07  0.0033659 -0.00583106 -7.15256e-06  0.00624633 -0.00936502 -1.19209e-05  0.00924069 -0.0136438 -2.81334e-05  0.0121564 -0.0187483 -4.12464e-05  0.0148975 -0.0246927 -5.81741e-05  0.0174152 -0.0314577 -6.77109e-05  0.0196912 -0.038997 -8.65459e-05  0.0217236 -0.0472414 -0.000106096  0.0235157 -0.0561547 -0.000122786  0.0250756 -0.0656658 -0.000127077  0.0264156 -0.0757183 -0.000125408  0.0275533 -0.0862607 -0.000116587  0.0284997 -0.0972356 -0.000115633  0.029259 -0.108592 -0.000106335  0.0298469 -0.120297 -9.25064e-05  0.0302789 -0.132285 -7.96318e-05  0.0305593 -0.144523 -7.67708e-05  0.0307112 -0.156972 -5.48363e-05  0.0307412 -0.169595 -4.91142e-05  0.0306575 -0.182364 -2.88486e-05  0.0304694 -0.195249 4.76837e-07  0.0301886 -0.208223 2.09808e-05  0.0298228 -0.221258 4.14848e-05  0.0293844 -0.234334 6.96182e-05  0.0288913 -0.247438 0.000112534  0.028352 -0.260533 0.000142097  0.0277686 -0.273627 0.00018096  0.0271516 -0.286694 0.000212431  0.0265083 -0.299737 0.000243664  0.0258553 -0.312748 0.000281572  0.0251999 -0.325739 0.000311375  0 0 0  0.00187892 -0.00436246 -5.72205e-06  0.00532365 -0.00759387 -2.26498e-05  0.00920686 -0.0111024 -3.09944e-05  0.0131608 -0.0152959 -3.86238e-05  0.0169945 -0.0203084 -5.34058e-05  0.020606 -0.0261756 -6.48499e-05  0.023943 -0.0328768 -8.01086e-05  0.0269824 -0.0403515 -0.000103712  0.0297235 -0.0485414 -0.000123739  0.0321656 -0.0574061 -0.000139713  0.0343204 -0.0668762 -0.000157118  0.0362046 -0.0768908 -0.000153065  0.0378289 -0.0873919 -0.000139952  0.0392066 -0.0983326 -0.000147581  0.0403594 -0.109653 -0.000137091  0.0412912 -0.121328 -0.000122547  0.0420187 -0.133283 -0.000119209  0.0425627 -0.145489 -9.36985e-05  0.0429344 -0.157905 -8.98838e-05  0.0431533 -0.170499 -8.32081e-05  0.0432255 -0.18324 -6.74725e-05  0.0431674 -0.196098 -3.40939e-05  0.0429897 -0.20904 -2.71797e-05  0.0427067 -0.222049 -4.76837e-07  0.0423319 -0.235102 3.29018e-05  0.0418735 -0.248189 6.77109e-05  0.0413525 -0.261262 0.000110865  0.0407789 -0.27434 0.000139713  0.0401678 -0.287392 0.000179291  0.039531 -0.300428 0.000203133  0.0388768 -0.313437 0.000247478  0.0382195 -0.326439 0.000277758  0 0 0  -0.00191569 -0.00404381 0.00109744  -0.00535999 -0.00705701 0.00174356  -0.00924751 -0.0103635 0.00206351  -0.0132399 -0.0143583 0.00219274  -0.0171661 -0.0191465 0.00216293  -0.0209371 -0.0247589 0.00206423  -0.0245165 -0.0311791 0.00193548  -0.0278891 -0.0383525 0.00179958  -0.031055 -0.0462456 0.00166273  -0.034019 -0.0548014 0.00151634  -0.0367912 -0.0639715 0.0013833  -0.0393769 -0.0736832 0.00124907  -0.0417887 -0.0839099 0.00113249  -0.0440369 -0.0945863 0.0010438  -0.0461266 -0.105662 0.000962257  -0.0480642 -0.117097 0.00087595  -0.0498641 -0.128852 0.000812054  -0.0515339 -0.140867 0.000741005  -0.0530856 -0.153117 0.000698328  -0.0545211 -0.165566 0.00064683  -0.0558422 -0.178187 0.000577688  -0.057056 -0.19094 0.00053215  -0.0581775 -0.203817 0.000498772  -0.0592175 -0.216762 0.0004704  -0.0601797 -0.229758 0.000445604  -0.061075 -0.242796 0.000448227  -0.0619104 -0.255858 0.000443697  -0.0626898 -0.268923 0.000449896  -0.0634267 -0.281971 0.000448942  -0.0641422 -0.295004 0.000480175  -0.0648437 -0.308014 0.000495195  -0.0655353 -0.321015 0.000493288  0 0 0  -0.00100741 -0.00255463 0.000661135  -0.00333993 -0.00537968 0.00119162  -0.00619796 -0.00875188 0.00146508  -0.00920415 -0.0128734 0.00155735  -0.0121888 -0.0178128 0.00155091  -0.0150774 -0.0235768 0.001477  -0.0178289 -0.0301457 0.00138903  -0.0204307 -0.0374676 0.00128484  -0.0228868 -0.0455033 0.0011723  -0.0252057 -0.054196 0.0010879  -0.02739 -0.0634861 0.000972748  -0.0294453 -0.0733247 0.000884295  -0.0313773 -0.0836598 0.000791788  -0.0331933 -0.0944436 0.000746965  -0.0349026 -0.105622 0.000685692  -0.0365119 -0.117148 0.000640631  -0.0380263 -0.128984 0.000591755  -0.039449 -0.141077 0.000559807  -0.0407848 -0.153404 0.000522375  -0.0420365 -0.165924 0.000485659  -0.0432093 -0.178602 0.000452995  -0.0443065 -0.191408 0.000427008  -0.0453367 -0.204327 0.000403881  -0.046303 -0.21731 0.000383139  -0.0472131 -0.230342 0.000382662  -0.0480726 -0.243408 0.000380754  -0.0488861 -0.25649 0.000399113  -0.0496609 -0.269575 0.000395298  -0.0504034 -0.282632 0.000420094  -0.0511203 -0.295671 0.000454187  -0.0518186 -0.308684 0.000458717  -0.052511 -0.32167 0.00048089  0 0 0  -0.000622988 -0.0017086 0.000437498  -0.0020245 -0.00423166 0.000736475  -0.00383198 -0.00758684 0.000903368  -0.00580108 -0.0117776 0.000991106  -0.00779814 -0.0168231 0.00098443  -0.00975072 -0.0227035 0.000932693  -0.0116305 -0.0293903 0.000878334  -0.0134324 -0.0368338 0.000811338  -0.0151557 -0.0449838 0.000734329  -0.0167994 -0.053788 0.00067234  -0.0183707 -0.0631784 0.000599146  -0.0198725 -0.0731225 0.000549793  -0.0213072 -0.0835482 0.000503778  -0.0226817 -0.0944189 0.000458241  -0.0239983 -0.105682 0.000436306  -0.0252563 -0.117283 0.000415564  -0.026459 -0.12919 0.000388145  -0.0276072 -0.141354 0.000367641  -0.028707 -0.153743 0.000356913  -0.0297587 -0.16632 0.000339031  -0.0307634 -0.179047 0.000322104  -0.0317273 -0.191897 0.000316143  -0.0326481 -0.204848 0.000295877  -0.0335259 -0.217865 0.000297546  -0.0343654 -0.230929 0.00031352  -0.0351713 -0.244019 0.000342607  -0.035955 -0.25712 0.000353813  -0.0367131 -0.270214 0.000364065  -0.0374441 -0.283286 0.00039053  -0.0381546 -0.296327 0.00039959  -0.0388517 -0.309346 0.000427723  -0.0395398 -0.322321 0.000450611  0 0 0  -0.000282146 -0.00127453 0.000211716  -0.000937566 -0.00361121 0.000358105  -0.00179911 -0.00691998 0.000442743  -0.00276265 -0.0111468 0.000464201  -0.00376594 -0.0162548 0.000462294  -0.0047797 -0.022215 0.000443459  -0.0057829 -0.0289835 0.000405788  -0.0067662 -0.0365125 0.00036788  -0.00773418 -0.0447484 0.000329971  -0.00869346 -0.0536305 0.000286341  -0.00964284 -0.0631022 0.000262737  -0.0105805 -0.0731215 0.00023675  -0.0115054 -0.0836207 0.000229836  -0.0124158 -0.0945546 0.000196695  -0.0133117 -0.105883 0.000184298  -0.0141989 -0.117545 0.000189543  -0.0150764 -0.129507 0.000189066  -0.0159438 -0.141723 0.000185728  -0.0167999 -0.154161 0.000187874  -0.0176361 -0.166778 0.000181198  -0.0184608 -0.179543 0.000204563  -0.0192728 -0.192426 0.000209332  -0.0200663 -0.205401 0.000217438  -0.020839 -0.218447 0.000224113  -0.0215988 -0.231533 0.00024724  -0.022351 -0.244638 0.000288725  -0.0230911 -0.257756 0.000324726  -0.0238163 -0.270857 0.000343323  -0.0245278 -0.28394 0.000348091  -0.025224 -0.296984 0.000379324  -0.0259123 -0.310004 0.000393152  -0.0265901 -0.322974 0.000418186  0 0 0  1.86265e-05 -0.00116372 6.4373e-06  5.4419e-05 -0.00344905 8.58307e-06  8.443e-05 -0.00675255 -1.19209e-06  9.30429e-05 -0.0109981 -1.5974e-05  6.90818e-05 -0.0161415 -3.45707e-05  4.52995e-06 -0.0221488 -4.36306e-05  -0.000107765 -0.0289644 -5.4121e-05  -0.00027442 -0.036544 -4.60148e-05  -0.000492096 -0.0448311 -6.79493e-05  -0.00075376 -0.0537639 -8.74996e-05  -0.00106478 -0.063289 -7.53403e-05  -0.00142539 -0.0733571 -6.69956e-05  -0.00182784 -0.0839039 -6.91414e-05  -0.00227153 -0.0948839 -4.33922e-05  -0.00275505 -0.106251 -4.62532e-05  -0.00327086 -0.117956 -2.86102e-05  -0.00381684 -0.129954 -4.05312e-06  -0.00439072 -0.142203 1.21593e-05  -0.00498676 -0.154675 2.74181e-05  -0.00560498 -0.167317 5.50747e-05  -0.00623679 -0.180108 5.17368e-05  -0.00688291 -0.193012 9.41753e-05  -0.00754523 -0.206002 0.000135899  -0.00822234 -0.219063 0.000161171  -0.00889826 -0.232163 0.000182152  -0.00957656 -0.245281 0.000227928  -0.0102627 -0.258405 0.000259876  -0.0109429 -0.271513 0.000290394  -0.0116241 -0.284601 0.000314236  -0.012301 -0.297653 0.000347853  -0.0129747 -0.310669 0.000379801  -0.0136502 -0.323637 0.000417471  0 0 0  0.000315815 -0.00134701 -0.000197411  0.00103894 -0.00372541 -0.000337124  0.00195727 -0.00707418 -0.000422001  0.00293618 -0.0113368 -0.000497818  0.00388736 -0.0164928 -0.000510454  0.0047608 -0.0225118 -0.000525951  0.0055325 -0.0293415 -0.000508547  0.00619388 -0.0369397 -0.000488997  0.00674248 -0.0452478 -0.000473976  0.00717449 -0.0542036 -0.000435114  0.00749576 -0.0637517 -0.000411749  0.00771368 -0.0738415 -0.000379086  0.00783443 -0.0844123 -0.000346422  0.00785887 -0.0954182 -0.000312328  0.00779414 -0.106804 -0.000272512  0.00764894 -0.118528 -0.000239372  0.00743389 -0.130545 -0.000204563  0.00715518 -0.142814 -0.000157356  0.00681305 -0.155296 -0.000127792  0.00641775 -0.167948 -0.000105858  0.00597453 -0.180751 -5.98431e-05  0.0054853 -0.193663 -2.21729e-05  0.00495696 -0.20666 2.26498e-05  0.0043962 -0.219725 6.27041e-05  0.00380421 -0.232829 0.00011754  0.00319099 -0.245953 0.000152588  0.00256515 -0.259077 0.000196218  0.00192237 -0.272184 0.00024581  0.00126553 -0.285272 0.000278711  0.000598669 -0.298326 0.00032711  -7.27177e-05 -0.311339 0.000356913  -0.000738621 -0.324312 0.000390291  0 0 0  0.000645652 -0.00184381 -0.00039506  0.00210062 -0.00445116 -0.000701666  0.00395352 -0.00788081 -0.00090313  0.00592792 -0.0121514 -0.000998735  0.00786394 -0.0172923 -0.00102282  0.00967622 -0.0232912 -0.00101352  0.0113285 -0.0301034 -0.000979662  0.0128022 -0.0376896 -0.000920773  0.0140926 -0.0459898 -0.000873089  0.0152085 -0.0549399 -0.000825167  0.0161585 -0.0644871 -0.000766993  0.0169483 -0.0745726 -0.000713587  0.0175819 -0.0851483 -0.000627756  0.0180743 -0.0961533 -0.00057292  0.0184317 -0.107541 -0.000521183  0.0186591 -0.119267 -0.000443935  0.0187697 -0.131284 -0.000381708  0.0187728 -0.143556 -0.000342607  0.0186849 -0.15603 -0.000283718  0.0185032 -0.168678 -0.000231266  0.0182381 -0.181472 -0.000187874  0.0179002 -0.194383 -0.000123501  0.0174992 -0.207376 -7.70092e-05  0.0170438 -0.220435 -2.69413e-05  0.0165408 -0.233533 2.12193e-05  0.0159907 -0.246652 8.96454e-05  0.0154095 -0.25977 0.0001266  0.014806 -0.272874 0.000182629  0.0141788 -0.285958 0.000236988  0.0135324 -0.299007 0.000276804  0.0128744 -0.312019 0.000316381  0.0122123 -0.325001 0.000355721  0 0 0  0.00100844 -0.00273407 -0.000628948  0.00337595 -0.00567985 -0.00114632  0.00626379 -0.0091663 -0.00142741  0.00926101 -0.0134152 -0.00154209  0.0121759 -0.0185043 -0.00156927  0.014914 -0.0244533 -0.0015316  0.0174257 -0.0312206 -0.00145173  0.0196967 -0.0387676 -0.00137997  0.0217254 -0.0470334 -0.00129986  0.0235155 -0.0559521 -0.00122046  0.0250732 -0.0654786 -0.00111961  0.0264096 -0.0755412 -0.00102448  0.0275445 -0.0860937 -0.000942945  0.0284878 -0.097082 -0.000852346  0.0292516 -0.10845 -0.000771284  0.0298443 -0.120162 -0.000678539  0.0302713 -0.132165 -0.00059104  0.0305507 -0.144416 -0.000526428  0.0306954 -0.156867 -0.000453949  0.0307193 -0.169502 -0.000389814  0.0306289 -0.182275 -0.000313282  0.0304351 -0.195172 -0.000238895  0.0301549 -0.20815 -0.000178814  0.0297961 -0.221194 -0.000115871  0.0293672 -0.234277 -5.24521e-05  0.0288739 -0.247382 2.02656e-05  0.0283272 -0.260485 7.4625e-05  0.027741 -0.273579 0.000133038  0.0271254 -0.286654 0.000182867  0.0264897 -0.299696 0.000226259  0.0258389 -0.312706 0.000272989  0.0251799 -0.325696 0.00031209  0 0 0  0.00186753 -0.00424081 -0.00103688  0.00532004 -0.00741225 -0.00167871  0.00921759 -0.0108809 -0.00200319  0.0131842 -0.0150538 -0.00214124  0.0170246 -0.0200624 -0.0021472  0.0206352 -0.0259309 -0.00208616  0.0239699 -0.0326372 -0.00197983  0.0270065 -0.0401211 -0.00187659  0.0297409 -0.0483288 -0.00176477  0.0321765 -0.0572027 -0.00163603  0.0343249 -0.0666863 -0.00152659  0.0362047 -0.0767137 -0.00139523  0.0378274 -0.0872216 -0.00126481  0.0392046 -0.098179 -0.00115848  0.0403498 -0.109508 -0.00104237  0.0412767 -0.12119 -0.000918865  0.0420055 -0.13316 -0.000823021  0.0425472 -0.14538 -0.000707865  0.0429173 -0.157796 -0.00062418  0.0431297 -0.170402 -0.000543118  0.0432038 -0.18315 -0.000454903  0.0431449 -0.19602 -0.000350714  0.0429659 -0.208971 -0.000286341  0.0426853 -0.221989 -0.000212431  0.0423114 -0.235051 -0.000128269  0.0418565 -0.24813 -4.76837e-05  0.041333 -0.261214 2.55108e-05  0.0407588 -0.274293 8.60691e-05  0.0401425 -0.287351 0.000137329  0.0394967 -0.300388 0.000182867  0.0388424 -0.313397 0.000234604  0.0381875 -0.326396 0.000279665  0 0 0  -0.00188963 -0.00365474 0.00227213  -0.00533161 -0.00644384 0.00357103  -0.00923699 -0.00964378 0.00419426  -0.0132458 -0.0135829 0.00442028  -0.0171765 -0.0183605 0.004354  -0.0209386 -0.0239735 0.00415277  -0.0245034 -0.0304313 0.00389338  -0.0278608 -0.0376552 0.00361395  -0.0310133 -0.0456024 0.00333357  -0.033968 -0.054209 0.00304413  -0.0367347 -0.063431 0.00276756  -0.0393221 -0.0731938 0.00250101  -0.041737 -0.0834653 0.00225639  -0.0439891 -0.0941849 0.00204706  -0.0460837 -0.105302 0.00185251  -0.0480283 -0.116775 0.00165558  -0.0498309 -0.128559 0.00149536  -0.0515044 -0.140608 0.00133371  -0.0530565 -0.152883 0.0012207  -0.0544932 -0.165368 0.001091  -0.0558207 -0.178011 0.000944614  -0.0570467 -0.190793 0.000833511  -0.0581806 -0.203688 0.000744343  -0.0592241 -0.21665 0.000665665  -0.0601876 -0.229672 0.000589848  -0.061079 -0.242722 0.000555992  -0.0619133 -0.255794 0.0005126  -0.0626938 -0.268862 0.000491619  -0.0634322 -0.281917 0.000472069  -0.0641382 -0.294956 0.000488758  -0.0648255 -0.307968 0.000501633  -0.0655129 -0.32097 0.000479221  0 0 0  -0.00102372 -0.00227872 0.00136471  -0.00335667 -0.00487977 0.0024209  -0.00621265 -0.00810354 0.00295591  -0.00921085 -0.0121476 0.0031147  -0.0121775 -0.0170612 0.00309706  -0.0150416 -0.0228249 0.0029645  -0.017771 -0.0294247 0.00277376  -0.0203583 -0.036795 0.0025754  -0.0228059 -0.0448757 0.00235796  -0.0251178 -0.0536166 0.00218153  -0.0272999 -0.0629564 0.0019536  -0.0293576 -0.0728425 0.00178194  -0.031297 -0.0832222 0.00158644  -0.0331197 -0.0940461 0.00145721  -0.0348355 -0.105265 0.00132132  -0.0364504 -0.116828 0.00120354  -0.0379679 -0.128696 0.00108147  -0.0393927 -0.140821 0.000987053  -0.0407321 -0.153178 0.000898361  -0.0419927 -0.165724 0.000807285  -0.0431752 -0.178423 0.000722408  -0.0442822 -0.191258 0.000650406  -0.0453196 -0.204197 0.000581264  -0.046293 -0.217199 0.000520706  -0.047209 -0.230253 0.000494957  -0.0480781 -0.243333 0.000466347  -0.0488968 -0.256422 0.000453472  -0.0496693 -0.269509 0.00042963  -0.0504076 -0.282582 0.000442028  -0.0511224 -0.295625 0.000466347  -0.0518241 -0.308638 0.000463009  -0.0525155 -0.321621 0.000469685  0 0 0  -0.000631958 -0.00148249 0.000890255  -0.00203702 -0.00378665 0.00148392  -0.00384209 -0.0069747 0.00182199  -0.00580168 -0.011075 0.00198412  -0.00777984 -0.0160863 0.00196886  -0.00971228 -0.0219715 0.00187826  -0.0115731 -0.0286796 0.00175953  -0.013357 -0.0361684 0.00163507  -0.0150684 -0.04436 0.00149393  -0.0167085 -0.0532093 0.00136232  -0.0182793 -0.062651 0.0012331  -0.0197874 -0.0726372 0.00112104  -0.0212295 -0.0831079 0.00101948  -0.022609 -0.094019 0.000915051  -0.0239282 -0.105322 0.000844002  -0.0251908 -0.116963 0.000775814  -0.0263977 -0.128899 0.00069952  -0.027554 -0.141094 0.000648499  -0.0286648 -0.153513 0.000599384  -0.0297239 -0.166114 0.000545502  -0.0307341 -0.178863 0.000496864  -0.031703 -0.19174 0.000463963  -0.0326312 -0.204714 0.000407219  -0.0335181 -0.217753 0.000388145  -0.0343642 -0.230834 0.000382423  -0.0351801 -0.243938 0.000396729  -0.0359683 -0.257049 0.000405312  -0.0367284 -0.270153 0.00039053  -0.037457 -0.283235 0.000405788  -0.0381627 -0.296285 0.000399113  -0.0388544 -0.3093 0.000427246  -0.0395408 -0.322268 0.000440121  0 0 0  -0.000285596 -0.00107172 0.000432968  -0.000941828 -0.00318936 0.00071764  -0.00180095 -0.00632697 0.000879288  -0.00275543 -0.0104598 0.000935555  -0.00374168 -0.0155284 0.000931263  -0.0047335 -0.0214957 0.000903606  -0.00572157 -0.0282832 0.000835419  -0.00669974 -0.0358509 0.000761509  -0.00766587 -0.0441264 0.000695229  -0.00862277 -0.0530519 0.000620365  -0.00957167 -0.0625735 0.000570297  -0.0105108 -0.0726321 0.0005126  -0.0114419 -0.0831751 0.000478745  -0.012361 -0.0941504 0.000409603  -0.013268 -0.105519 0.000371933  -0.014165 -0.117218 0.000360012  -0.0150523 -0.12921 0.000340462  -0.0159249 -0.141458 0.000313759  -0.0167792 -0.153925 0.000302792  -0.0176191 -0.166568 0.000270844  -0.0184441 -0.179358 0.00028801  -0.0192597 -0.192265 0.000279427  -0.0200598 -0.205262 0.000262737  -0.0208457 -0.218331 0.000263691  -0.02162 -0.231431 0.000279427  -0.0223751 -0.244553 0.000315666  -0.0231135 -0.257685 0.000342846  -0.0238335 -0.270801 0.000356674  -0.0245404 -0.283888 0.000350475  -0.0252371 -0.296944 0.000384331  -0.0259199 -0.30996 0.000383854  -0.0265958 -0.32292 0.000406265  0 0 0  2.01166e-05 -0.000969708 7.15256e-06  6.1512e-05 -0.0030387 7.15256e-06  9.951e-05 -0.00616956 -2.38419e-06  0.000116467 -0.0103214 -2.76566e-05  0.000100732 -0.0154253 -4.3869e-05  3.93391e-05 -0.0214351 -5.34058e-05  -7.08699e-05 -0.0282728 -6.1512e-05  -0.00023371 -0.0358857 -5.05447e-05  -0.000450134 -0.0442109 -7.72476e-05  -0.000714064 -0.0531859 -0.000103474  -0.00102735 -0.0627576 -8.7738e-05  -0.00139213 -0.0728648 -7.62939e-05  -0.00179875 -0.0834541 -8.7738e-05  -0.00224531 -0.0944752 -5.34058e-05  -0.00273311 -0.105882 -6.29425e-05  -0.00325787 -0.117624 -3.91006e-05  -0.00381136 -0.129654 -2.0504e-05  -0.00438714 -0.141939 0  -0.00498629 -0.154436 1.00136e-05  -0.00560427 -0.167105 4.29153e-05  -0.00624132 -0.179922 3.57628e-05  -0.00689006 -0.192848 8.2016e-05  -0.00755525 -0.205861 0.000129223  -0.00823236 -0.218943 0.000152111  -0.00891399 -0.232057 0.0001688  -0.00960112 -0.245196 0.000230789  -0.0102875 -0.258335 0.000253201  -0.0109694 -0.271459 0.000283718  -0.0116465 -0.284548 0.000305176  -0.012326 -0.297607 0.000346184  -0.0130062 -0.310621 0.000374317  -0.0136783 -0.323581 0.00042057  0 0 0  0.000324011 -0.00115132 -0.000414848  0.00106212 -0.0033136 -0.000699997  0.00199506 -0.0064941 -0.000862122  0.00297892 -0.010662 -0.000979424  0.00392824 -0.0157824 -0.000996113  0.00479674 -0.0218009 -0.000999451  0.0055626 -0.0286559 -0.000958443  0.0062176 -0.036283 -0.000916004  0.00675595 -0.0446272 -0.000864983  0.00717843 -0.0536254 -0.00079155  0.00749457 -0.0632189 -0.000741959  0.0077132 -0.073349 -0.00068903  0.00782847 -0.0839627 -0.000616074  0.0078454 -0.0950067 -0.000555038  0.00777793 -0.10643 -0.000490665  0.00763321 -0.118195 -0.000440598  0.00741911 -0.130244 -0.000384808  0.00713468 -0.142546 -0.000310898  0.00679016 -0.155056 -0.000267029  0.00639558 -0.167737 -0.000231743  0.00595164 -0.180564 -0.000169754  0.00546288 -0.193501 -0.000108719  0.00493455 -0.206518 -4.95911e-05  0.00437307 -0.219602 9.53674e-07  0.00378156 -0.232722 7.39098e-05  0.00316501 -0.245866 0.000110626  0.00253272 -0.259007 0.000168324  0.00188899 -0.272129 0.000220776  0.00123572 -0.285221 0.000266552  0.000570774 -0.298275 0.000321865  -9.67979e-05 -0.311292 0.000356674  -0.000761509 -0.324258 0.000391483  0 0 0  0.00066112 -0.00163192 -0.000841141  0.00213468 -0.00402349 -0.00143623  0.00400141 -0.00729471 -0.00181627  0.00597888 -0.011473 -0.0019865  0.00790906 -0.0165806 -0.0020175  0.00971001 -0.0225807 -0.00197077  0.0113453 -0.0294197 -0.00188494  0.012805 -0.0370323 -0.00176191  0.0140861 -0.0453705 -0.00164843  0.0151948 -0.0543647 -0.00154305  0.0161377 -0.0639558 -0.00142288  0.0169203 -0.0740825 -0.00131273  0.0175538 -0.0846995 -0.0011692  0.0180433 -0.0957427 -0.00106335  0.0183988 -0.107167 -0.000959396  0.0186248 -0.118932 -0.000825882  0.0187314 -0.130983 -0.000718594  0.018733 -0.143285 -0.000639439  0.0186393 -0.155789 -0.000551224  0.018456 -0.168468 -0.000452995  0.0181937 -0.181289 -0.000384808  0.0178642 -0.194223 -0.000290871  0.0174696 -0.207239 -0.000210285  0.0170135 -0.220313 -0.000136852  0.0165105 -0.233433 -6.77109e-05  0.0159659 -0.246562 2.47955e-05  0.0153804 -0.259699 7.00951e-05  0.0147676 -0.272814 0.000146866  0.0141337 -0.285905 0.000212669  0.0134871 -0.298957 0.000265121  0.0128336 -0.311975 0.000306606  0.0121827 -0.324949 0.000358582  0 0 0  0.00102696 -0.00247544 -0.00131559  0.00340813 -0.00520682 -0.00234747  0.00631335 -0.00855637 -0.00288105  0.00932223 -0.0127246 -0.00307751  0.0122335 -0.017786 -0.0031004  0.0149549 -0.02374 -0.00300169  0.0174463 -0.030533 -0.00283241  0.019696 -0.0381108 -0.00266695  0.0217094 -0.0464163 -0.00249434  0.0234925 -0.0553834 -0.00231552  0.0250489 -0.0649494 -0.00211334  0.0263879 -0.0750558 -0.00192451  0.0275193 -0.0856491 -0.00176668  0.0284582 -0.096672 -0.00159216  0.0292153 -0.108078 -0.00143957  0.0298021 -0.119827 -0.00126743  0.0302279 -0.131864 -0.00110149  0.0305092 -0.144149 -0.000978947  0.0306599 -0.156632 -0.000851631  0.0306859 -0.169296 -0.000731468  0.030596 -0.182098 -0.000598907  0.0304015 -0.195015 -0.00047493  0.030117 -0.208018 -0.000374317  0.0297594 -0.221073 -0.00028038  0.0293298 -0.234179 -0.000174522  0.0288374 -0.247292 -7.05719e-05  0.0282931 -0.260409 6.19888e-06  0.0277054 -0.273519 8.82149e-05  0.027086 -0.286598 0.000149727  0.0264471 -0.299648 0.000208378  0.0257928 -0.31266 0.000268459  0.0251279 -0.325645 0.000320911  0 0 0  0.00185201 -0.00387073 -0.00217056  0.00531369 -0.00684237 -0.00343895  0.0092425 -0.0102115 -0.00406313  0.0132383 -0.0143313 -0.00429916  0.0170931 -0.0193233 -0.00427008  0.0207034 -0.0252039 -0.0041275  0.0240245 -0.0319346 -0.00389099  0.0270455 -0.0394581 -0.00365639  0.0297655 -0.0477114 -0.00341034  0.0321916 -0.0566325 -0.00313997  0.0343348 -0.0661602 -0.00290012  0.0362084 -0.0762244 -0.00264454  0.0378284 -0.0867825 -0.00239706  0.0392045 -0.0977677 -0.00217295  0.0403497 -0.109141 -0.00194836  0.04128 -0.120856 -0.00172472  0.0420148 -0.132865 -0.00153637  0.0425563 -0.14512 -0.00132132  0.0429208 -0.157569 -0.00115395  0.0431268 -0.1702 -0.00100231  0.0431914 -0.182971 -0.000844955  0.0431268 -0.195869 -0.000667572  0.0429504 -0.208841 -0.000552177  0.0426655 -0.221872 -0.000420094  0.042289 -0.234953 -0.00028944  0.041837 -0.248044 -0.000169277  0.0413151 -0.26114 -5.34058e-05  0.0407312 -0.274235 3.57628e-05  0.040107 -0.2873 0.000105858  0.0394599 -0.300342 0.000167847  0.0388024 -0.313346 0.000222206  0.0381408 -0.326343 0.00028038  0 0 0  -0.0017929 -0.00286371 0.00367165  -0.0052893 -0.005405 0.0056057  -0.00926498 -0.0083829 0.00646353  -0.0132837 -0.0121964 0.00672913  -0.0171776 -0.0169503 0.00658512  -0.0208918 -0.0226142 0.00626612  -0.0244146 -0.0291463 0.00586939  -0.0277401 -0.0364681 0.00544024  -0.0308725 -0.0445109 0.00501156  -0.0338193 -0.0532203 0.00457668  -0.0365816 -0.062527 0.00415897  -0.0391706 -0.0723826 0.00376654  -0.0415939 -0.0827285 0.0033927  -0.0438564 -0.0935288 0.00305843  -0.0459628 -0.104714 0.00275421  -0.0479174 -0.116251 0.00244188  -0.0497284 -0.128091 0.00218439  -0.051409 -0.140195 0.00193024  -0.0529714 -0.15253 0.00174952  -0.0544214 -0.165057 0.00153112  -0.0557604 -0.177744 0.00131655  -0.0569992 -0.190577 0.00114441  -0.0581417 -0.203499 0.000985146  -0.0591977 -0.216501 0.000855446  -0.0601699 -0.229548 0.000729084  -0.0610693 -0.242622 0.000665188  -0.061908 -0.255714 0.00057888  -0.0626864 -0.268796 0.000525951  -0.0634215 -0.281873 0.000493526  -0.0641267 -0.294917 0.000492573  -0.0648136 -0.307929 0.000496864  -0.0654929 -0.320911 0.000468254  0 0 0  -0.00101528 -0.00173328 0.00218916  -0.00339097 -0.00394118 0.00374889  -0.00627249 -0.00691567 0.00448608  -0.00924093 -0.0108443 0.00468016  -0.0121482 -0.0157336 0.00462914  -0.014946 -0.0215355 0.00442934  -0.0176213 -0.0282036 0.00414228  -0.0201755 -0.0356537 0.00385761  -0.0226022 -0.04382 0.0035305  -0.0249022 -0.0526494 0.00326061  -0.0270847 -0.0620779 0.00293589  -0.0291501 -0.0720449 0.00267076  -0.0310986 -0.0825003 0.00238609  -0.032938 -0.0933985 0.00216722  -0.0346705 -0.104683 0.00195408  -0.036299 -0.11631 0.00176382  -0.0378275 -0.128235 0.00156975  -0.0392621 -0.140415 0.00141764  -0.0406144 -0.152824 0.00127411  -0.0418844 -0.165411 0.00113344  -0.0430756 -0.178162 0.000996113  -0.0441937 -0.191036 0.000867844  -0.0452485 -0.204005 0.000768185  -0.0462418 -0.217042 0.000664234  -0.0471737 -0.230123 0.000605106  -0.048049 -0.243232 0.000552177  -0.0488725 -0.25634 0.000505447  -0.0496545 -0.269445 0.000466824  -0.0504043 -0.282533 0.00046587  -0.051127 -0.29558 0.000477791  -0.0518279 -0.308592 0.000468731  -0.0525153 -0.321568 0.000452995  0 0 0  -0.000636689 -0.00102168 0.00141239  -0.00208928 -0.00289719 0.00227737  -0.0038963 -0.00583728 0.00276327  -0.00581563 -0.00983132 0.00296831  -0.00773418 -0.0148155 0.00293207  -0.00961339 -0.0207251 0.00281286  -0.0114371 -0.0274941 0.00262594  -0.0131928 -0.0350486 0.00243568  -0.0148876 -0.0433185 0.0022459  -0.0165228 -0.0522469 0.00204563  -0.018098 -0.061775 0.00186348  -0.0196134 -0.0718365 0.00169373  -0.021066 -0.0823825 0.00153208  -0.0224553 -0.093365 0.00136995  -0.0237859 -0.104733 0.00125265  -0.0250583 -0.116438 0.00113297  -0.0262773 -0.128433 0.00101089  -0.0274494 -0.140682 0.000929356  -0.0285683 -0.153151 0.000840187  -0.029634 -0.165797 0.000750542  -0.0306568 -0.178597 0.000674725  -0.0316403 -0.191506 0.000613213  -0.0325806 -0.204516 0.000520706  -0.0334792 -0.217585 0.000486851  -0.0343423 -0.230696 0.000452995  -0.0351655 -0.243832 0.000449657  -0.0359554 -0.25696 0.000451088  -0.0367181 -0.270084 0.000424385  -0.0374551 -0.283182 0.000414371  -0.0381656 -0.296238 0.000403404  -0.0388575 -0.309253 0.000423908  -0.0395396 -0.32222 0.000426769  0 0 0  -0.000287183 -0.000651598 0.000682354  -0.000964001 -0.00233069 0.00110388  -0.00182062 -0.00523639 0.00132751  -0.00274795 -0.00926286 0.00140095  -0.00369895 -0.0143023 0.00138664  -0.00465631 -0.0202844 0.0013442  -0.0056172 -0.0271225 0.00126076  -0.00658017 -0.0347469 0.00115252  -0.00753975 -0.0430947 0.00105762  -0.00849664 -0.0520952 0.000953197  -0.00944674 -0.0616959 0.000871181  -0.0103893 -0.0718303 0.00078392  -0.0113243 -0.0824464 0.0007267  -0.0122502 -0.093493 0.000624657  -0.0131677 -0.104926 0.000564575  -0.0140741 -0.116687 0.000528336  -0.0149653 -0.128737 0.000492096  -0.0158436 -0.141042 0.000445366  -0.0167081 -0.153555 0.000410557  -0.0175583 -0.166248 0.000365734  -0.0183964 -0.179081 0.000371456  -0.0192175 -0.192026 0.000351429  -0.0200274 -0.20506 0.000317097  -0.0208261 -0.218158 0.000312805  -0.021606 -0.231286 0.000314713  -0.0223691 -0.244441 0.000341415  -0.0231135 -0.25759 0.000362873  -0.02384 -0.270726 0.000365734  -0.0245485 -0.283831 0.00035429  -0.025244 -0.296896 0.0003829  -0.0259299 -0.309913 0.000379086  -0.0266116 -0.322871 0.000397682  0 0 0  2.42591e-05 -0.000566959 1.23978e-05  7.73966e-05 -0.00219896 -1.90735e-06  0.000132352 -0.00510451 -1.04904e-05  0.000163913 -0.00915053 -4.3869e-05  0.000155807 -0.0142228 -5.57899e-05  0.000100017 -0.0202426 -6.67572e-05  -6.4373e-06 -0.0271227 -7.24792e-05  -0.00016427 -0.0347898 -6.4373e-05  -0.000375867 -0.0431853 -8.96454e-05  -0.000642538 -0.052233 -0.000119209  -0.000960708 -0.0618795 -0.000101566  -0.00132835 -0.0720596 -8.96454e-05  -0.00174201 -0.0827225 -0.000103951  -0.00219965 -0.0938117 -6.48499e-05  -0.00269449 -0.105287 -8.15392e-05  -0.00322282 -0.117089 -4.81606e-05  -0.00378036 -0.129177 -3.67165e-05  -0.00435972 -0.141518 -1.38283e-05  -0.00496221 -0.15406 -2.38419e-06  -0.00558829 -0.166779 2.76566e-05  -0.00623488 -0.179635 2.28882e-05  -0.00689721 -0.192603 7.15256e-05  -0.00756812 -0.205654 0.00012207  -0.00824666 -0.218767 0.00014019  -0.00893021 -0.231912 0.000162601  -0.00961804 -0.245075 0.000227928  -0.0103066 -0.258235 0.000244617  -0.0109906 -0.27138 0.000275612  -0.0116765 -0.284487 0.000297546  -0.0123577 -0.297556 0.000339985  -0.0130343 -0.310577 0.000370026  -0.0137033 -0.323531 0.000417709  0 0 0  0.000336543 -0.000744164 -0.00067234  0.00111821 -0.00247926 -0.00109816  0.00207293 -0.00542814 -0.00132418  0.00305498 -0.00949121 -0.001472  0.0039919 -0.0145764 -0.00148582  0.00484496 -0.0206087 -0.0014739  0.00559622 -0.0275013 -0.00140762  0.00623512 -0.0351886 -0.00133514  0.00676405 -0.0436029 -0.00125504  0.00718534 -0.0526716 -0.00114727  0.00750089 -0.0623399 -0.00107527  0.00771296 -0.07254 -0.000996113  0.00782287 -0.0832266 -0.000882626  0.00783694 -0.0943375 -0.000798702  0.00776672 -0.105831 -0.000715733  0.00762153 -0.117658 -0.00064373  0.00740409 -0.129766 -0.00055933  0.00711703 -0.142121 -0.000469208  0.00676918 -0.154679 -0.000401974  0.00636601 -0.167404 -0.000355721  0.00591874 -0.180274 -0.000276566  0.00542688 -0.19325 -0.000193119  0.00489736 -0.206309 -0.000123501  0.00433326 -0.219427 -6.05583e-05  0.00374436 -0.232579 2.86102e-05  0.00313306 -0.245745 7.39098e-05  0.00250149 -0.258903 0.00013876  0.00185728 -0.272048 0.000191689  0.00120139 -0.285158 0.000257969  0.000537395 -0.298225 0.000312328  -0.000131369 -0.311247 0.000354767  -0.000797033 -0.324207 0.000399113  0 0 0  0.000673056 -0.00119668 -0.00135612  0.00222087 -0.00318199 -0.00223684  0.004123 -0.00620764 -0.00275898  0.00608861 -0.0102786 -0.00298405  0.00798339 -0.0153546 -0.00301123  0.00974637 -0.0213725 -0.00292253  0.0113487 -0.0282561 -0.00277758  0.0127856 -0.0359337 -0.00260115  0.0140538 -0.044345 -0.00241756  0.0151542 -0.0534101 -0.00225496  0.0160904 -0.0630756 -0.00207424  0.0168678 -0.0732749 -0.00190496  0.0174952 -0.0839598 -0.00171423  0.0179821 -0.0950736 -0.00155163  0.0183351 -0.106565 -0.00140047  0.018559 -0.118394 -0.00120926  0.0186682 -0.130506 -0.00105953  0.018677 -0.142858 -0.000936985  0.0185847 -0.155415 -0.000813007  0.0184026 -0.168135 -0.000676155  0.0181408 -0.181003 -0.000579357  0.0178096 -0.193973 -0.000461578  0.0174131 -0.207032 -0.000339031  0.0169625 -0.220139 -0.000248432  0.0164578 -0.233289 -0.000151157  0.0159113 -0.246444 -4.95911e-05  0.0153339 -0.2596 1.85966e-05  0.0147252 -0.272735 0.00011158  0.014096 -0.285842 0.000184059  0.0134494 -0.298904 0.000255585  0.0127873 -0.311924 0.000300884  0.0121241 -0.324894 0.000360966  0 0 0  0.00103056 -0.00197297 -0.00212765  0.0034807 -0.00433868 -0.00365639  0.00644335 -0.00744337 -0.00440216  0.0094505 -0.0114962 -0.00464249  0.0123226 -0.0165299 -0.00463629  0.0149924 -0.0225094 -0.0044632  0.0174403 -0.0293586 -0.00420904  0.0196594 -0.0370042 -0.00394011  0.0216495 -0.0453876 -0.00368261  0.0234157 -0.0544306 -0.00340509  0.0249639 -0.0640694 -0.00311565  0.0263023 -0.0742518 -0.00283051  0.0274359 -0.0849143 -0.00258493  0.0283773 -0.096011 -0.00233412  0.0291402 -0.107483 -0.0021019  0.0297287 -0.119294 -0.00185442  0.0301557 -0.131389 -0.00161839  0.0304346 -0.143725 -0.00143051  0.0305805 -0.156264 -0.00124931  0.0306084 -0.168967 -0.0010705  0.0305226 -0.181816 -0.000891209  0.0303333 -0.194771 -0.000709534  0.0300558 -0.207816 -0.000573158  0.0296965 -0.220904 -0.000436306  0.029269 -0.234033 -0.00030756  0.0287783 -0.247174 -0.000160217  0.0282359 -0.260318 -6.81877e-05  0.0276554 -0.273442 4.52995e-05  0.0270379 -0.286536 0.00012207  0.0263972 -0.299594 0.000191212  0.0257516 -0.31261 0.000257969  0.0251002 -0.32559 0.000326157  0 0 0  0.00177284 -0.00315058 -0.00352669  0.00531495 -0.00590032 -0.00540018  0.00934261 -0.00905329 -0.00625944  0.0133719 -0.0130522 -0.00653982  0.0172104 -0.0180154 -0.00645065  0.020785 -0.0239369 -0.00619984  0.0240704 -0.0307312 -0.00582743  0.0270596 -0.0383341 -0.00545549  0.0297557 -0.0466726 -0.00506449  0.032167 -0.0556763 -0.00466585  0.0343025 -0.0652775 -0.00428152  0.0361716 -0.0754197 -0.00391531  0.0377856 -0.0860536 -0.00353432  0.039157 -0.0971105 -0.00320196  0.0402991 -0.108554 -0.00286055  0.0412297 -0.120325 -0.00254822  0.04196 -0.13239 -0.00225782  0.0425024 -0.144699 -0.00194168  0.0428667 -0.157208 -0.00168419  0.0430717 -0.169879 -0.00145864  0.0431342 -0.182698 -0.00123119  0.0430725 -0.195628 -0.000988483  0.0428927 -0.208647 -0.000815392  0.0426121 -0.221709 -0.000626087  0.0422325 -0.234808 -0.000446796  0.0417781 -0.247929 -0.000294685  0.0412562 -0.261052 -0.000130653  0.0406733 -0.274162 -6.19888e-06  0.0400493 -0.287239 8.2016e-05  0.0394003 -0.300287 0.000156879  0.0387335 -0.313294 0.000213623  0.0380635 -0.326283 0.000287056  0 0 0  -0.00219602 -0.0020694 0.00542259  -0.00583221 -0.00355626 0.00783539  -0.00960934 -0.00610148 0.0088253  -0.013357 -0.00985398 0.00907898  -0.0170292 -0.0147237 0.00884056  -0.0206 -0.0205757 0.00839949  -0.0240403 -0.0272735 0.00786734  -0.0273254 -0.0347717 0.00728273  -0.0304426 -0.0429644 0.00670958  -0.0333892 -0.0518292 0.00612259  -0.0361639 -0.0612653 0.0055728  -0.0387706 -0.0712568 0.00504303  -0.0412159 -0.0817186 0.00454998  -0.043503 -0.0926232 0.00408649  -0.0456343 -0.103915 0.00366926  -0.0476221 -0.115558 0.00324106  -0.0494664 -0.12748 0.00288153  -0.051177 -0.139656 0.00254011  -0.0527577 -0.152047 0.00228071  -0.0542188 -0.164648 0.00197554  -0.0555768 -0.1774 0.00170088  -0.0568395 -0.190295 0.00144958  -0.0580015 -0.203268 0.00123358  -0.0590782 -0.216323 0.00104713  -0.0600724 -0.229417 0.000864983  -0.060991 -0.242522 0.000770569  -0.0618429 -0.255641 0.000639439  -0.062639 -0.268749 0.000564575  -0.0633905 -0.281835 0.000508308  -0.0641065 -0.294885 0.000495911  -0.0647981 -0.307898 0.000484943  -0.0654776 -0.320866 0.000457287  0 0 0  -0.00138933 -0.000781104 0.00320292  -0.00389655 -0.00227828 0.00516462  -0.00659716 -0.00493909 0.00603008  -0.00931409 -0.00877883 0.00623226  -0.0120135 -0.013716 0.00614023  -0.0146704 -0.0196326 0.00586224  -0.0172635 -0.0264284 0.00550508  -0.0197738 -0.0340154 0.00512552  -0.0221828 -0.042318 0.00470161  -0.0244843 -0.0512803 0.00433064  -0.0266767 -0.0608366 0.00392628  -0.0287621 -0.0709266 0.00356579  -0.0307362 -0.0814952 0.00319099  -0.032599 -0.0924981 0.00288868  -0.0343555 -0.103882 0.00259447  -0.0360137 -0.115604 0.0023303  -0.0375767 -0.127609 0.00206566  -0.039041 -0.139865 0.00184822  -0.0404124 -0.152338 0.00165415  -0.0416987 -0.164995 0.00145292  -0.0429068 -0.177809 0.0012722  -0.0440447 -0.19074 0.00108814  -0.0451202 -0.203764 0.00095892  -0.0461328 -0.216851 0.000809193  -0.047086 -0.229976 0.000721931  -0.0479827 -0.243116 0.000639439  -0.0488226 -0.256255 0.00056076  -0.0496187 -0.269385 0.000509262  -0.0503836 -0.282481 0.000491619  -0.0511103 -0.295543 0.000485897  -0.0518069 -0.308556 0.000463486  -0.0524907 -0.32153 0.000445843  0 0 0  -0.000850938 1.12653e-05 0.00208473  -0.0023818 -0.00137661 0.0031395  -0.0040901 -0.00408278 0.00371647  -0.00585455 -0.00797574 0.00394487  -0.00763422 -0.0129614 0.00388241  -0.00941157 -0.0189314 0.00373411  -0.0111714 -0.0258017 0.00349045  -0.0128965 -0.0334634 0.00324059  -0.014577 -0.0418532 0.00299692  -0.0162103 -0.0508997 0.00274086  -0.0177925 -0.0605499 0.00249815  -0.0193188 -0.0707263 0.00227499  -0.02079 -0.0813774 0.00205088  -0.0222026 -0.0924659 0.00183201  -0.0235534 -0.103926 0.00166082  -0.0248461 -0.11572 0.0014925  -0.0260868 -0.1278 0.00133181  -0.0272732 -0.140125 0.00121641  -0.0284033 -0.15266 0.00107813  -0.0294831 -0.165373 0.000962257  -0.0305223 -0.178232 0.000854015  -0.031522 -0.191202 0.000768185  -0.0324786 -0.204265 0.000641823  -0.0333991 -0.217379 0.000588894  -0.0342796 -0.230535 0.000526428  -0.0351195 -0.243701 0.000499725  -0.0359228 -0.256866 0.000494003  -0.0366976 -0.270009 0.000448704  -0.0374436 -0.283123 0.000432014  -0.0381658 -0.296194 0.000406742  -0.0388618 -0.309213 0.00042057  -0.0395443 -0.322185 0.000413418  0 0 0  -0.000383355 0.00038448 0.00101042  -0.00108391 -0.000902534 0.00152302  -0.00188485 -0.00361133 0.00178194  -0.0027329 -0.00753495 0.00186014  -0.00361371 -0.0125532 0.00183821  -0.00452071 -0.0185681 0.00178099  -0.00544769 -0.0254846 0.00167656  -0.00638789 -0.0332043 0.00154066  -0.00733912 -0.0416582 0.00142479  -0.00829387 -0.05077 0.00128937  -0.00924981 -0.0604837 0.00117636  -0.0102012 -0.0707284 0.0010581  -0.0111444 -0.0814426 0.000976562  -0.0120857 -0.0925918 0.000846863  -0.0130227 -0.104114 0.000768185  -0.0139477 -0.115965 0.000705242  -0.0148525 -0.128099 0.000638485  -0.0157406 -0.140481 0.00057745  -0.0166163 -0.153055 0.000522137  -0.0174854 -0.165817 0.000470161  -0.0183339 -0.178705 0.000451565  -0.0191634 -0.191713 0.000421524  -0.0199871 -0.2048 0.000380039  -0.0207977 -0.217938 0.000363827  -0.0215878 -0.231114 0.000349045  -0.0223572 -0.244298 0.000365257  -0.0231106 -0.257483 0.000380993  -0.0238428 -0.270635 0.000372887  -0.0245597 -0.283765 0.000352383  -0.0252585 -0.296846 0.00038147  -0.0259504 -0.309873 0.00038147  -0.0266335 -0.322839 0.000392914  0 0 0  3.7387e-05 0.000457048 6.67572e-06  0.00011 -0.000813425 -1.85966e-05  0.000183195 -0.00353098 -3.52859e-05  0.000228703 -0.0074724 -6.81877e-05  0.000232697 -0.012519 -7.53403e-05  0.000188708 -0.0185593 -8.86917e-05  8.98838e-05 -0.0255066 -9.53674e-05  -6.38366e-05 -0.0332643 -8.58307e-05  -0.000274301 -0.0417609 -0.000108719  -0.000544786 -0.0509173 -0.00013113  -0.00086987 -0.0606706 -0.000116825  -0.001243 -0.0709578 -0.000107288  -0.00166333 -0.081718 -0.000119209  -0.00212693 -0.0929047 -7.82013e-05  -0.00263059 -0.104472 -9.72748e-05  -0.00316775 -0.116361 -6.00815e-05  -0.00373554 -0.128533 -4.673e-05  -0.00432467 -0.140949 -3.24249e-05  -0.00493336 -0.153553 -1.38283e-05  -0.00556517 -0.166345 1.14441e-05  -0.00621581 -0.179259 1.90735e-05  -0.00688481 -0.192284 6.19888e-05  -0.00755739 -0.205385 0.000108242  -0.00823975 -0.218544 0.000133514  -0.00893521 -0.231731 0.000160694  -0.00963545 -0.244924 0.000222683  -0.0103285 -0.258118 0.000230312  -0.0110185 -0.271284 0.000273705  -0.0117061 -0.284417 0.000292301  -0.0123892 -0.297505 0.000335693  -0.0130689 -0.310535 0.000368118  -0.0137446 -0.323499 0.000416279  0 0 0  0.000455827 0.000267029 -0.00101805  0.00129721 -0.00108731 -0.00154257  0.00223675 -0.00383586 -0.00181627  0.00317842 -0.00779426 -0.00198412  0.00407374 -0.0128592 -0.00199175  0.0048942 -0.018914 -0.00195885  0.00562346 -0.0258774 -0.00186634  0.00625062 -0.033658 -0.00175714  0.00676978 -0.0421722 -0.00165033  0.00718558 -0.0513484 -0.00151777  0.0074929 -0.0611236 -0.00141144  0.00769603 -0.0714287 -0.00130701  0.0078032 -0.0822144 -0.00116014  0.00781798 -0.0934227 -0.00104904  0.00774539 -0.10501 -0.000945568  0.00759268 -0.116918 -0.000850201  0.00736809 -0.129117 -0.000738621  0.00708222 -0.141546 -0.000630379  0.00673652 -0.154171 -0.000535488  0.00633216 -0.166966 -0.000477314  0.00587463 -0.179896 -0.000380993  0.00538373 -0.192927 -0.000287056  0.00485253 -0.206034 -0.000192642  0.00428224 -0.219201 -0.000119209  0.00369191 -0.232389 -2.38419e-05  0.00308132 -0.245587 3.67165e-05  0.00244856 -0.258781 0.000110626  0.00180364 -0.271954 0.000164509  0.00114918 -0.285084 0.000242233  0.00048542 -0.298175 0.000302792  -0.000176668 -0.311203 0.000346661  -0.000837326 -0.324171 0.000398636  0 0 0  0.00090766 -0.000213206 -0.00203848  0.00257277 -0.00173897 -0.00312567  0.00442082 -0.00452858 -0.00375319  0.00627679 -0.00849867 -0.00400019  0.00806248 -0.013567 -0.00400925  0.00974405 -0.0196281 -0.00387907  0.0112952 -0.0265965 -0.00367308  0.0127026 -0.0343801 -0.00344896  0.0139611 -0.0428928 -0.00320482  0.0150567 -0.0520678 -0.00297785  0.0159889 -0.0618418 -0.00273848  0.0167613 -0.0721491 -0.0025034  0.0173867 -0.0829383 -0.00226307  0.0178746 -0.0941491 -0.00204563  0.0182278 -0.105734 -0.00184631  0.0184557 -0.117646 -0.00160074  0.0185685 -0.129846 -0.00140858  0.0185733 -0.142277 -0.00124598  0.0184872 -0.154907 -0.00107861  0.0183108 -0.167693 -0.00090456  0.0180495 -0.18062 -0.000775337  0.0177119 -0.193649 -0.000621319  0.0173137 -0.206751 -0.000473976  0.0168648 -0.219913 -0.000365734  0.0163667 -0.233099 -0.000234604  0.0158288 -0.246291 -0.000124931  0.0152576 -0.259482 -3.29018e-05  0.0146589 -0.272646 7.29561e-05  0.0140357 -0.285769 0.000157356  0.013391 -0.298852 0.000240803  0.0127268 -0.31188 0.000303745  0.0120559 -0.32485 0.000371456  0 0 0  0.00141053 -0.00108939 -0.00313997  0.00403202 -0.00280577 -0.00508595  0.00686562 -0.00560653 -0.00596428  0.00966984 -0.00956619 -0.00622511  0.0123736 -0.0146301 -0.00617647  0.0149314 -0.0206895 -0.00592327  0.0173146 -0.0276504 -0.00558805  0.0195031 -0.0354177 -0.00522566  0.0214802 -0.0439141 -0.00487423  0.0232377 -0.0530703 -0.00449514  0.0247785 -0.0628204 -0.00411892  0.0261142 -0.0731105 -0.00374937  0.0272515 -0.0838872 -0.00340939  0.0281973 -0.0950772 -0.00308275  0.028959 -0.106643 -0.00276852  0.0295498 -0.11854 -0.00244904  0.0299857 -0.13072 -0.00214624  0.0302775 -0.143143 -0.00188351  0.030431 -0.15576 -0.00164032  0.0304618 -0.168521 -0.00141478  0.0303769 -0.181434 -0.00117779  0.0301981 -0.194448 -0.000957489  0.0299294 -0.207537 -0.000767708  0.0295718 -0.220677 -0.000592709  0.0291436 -0.233851 -0.00043869  0.0286603 -0.247026 -0.000256062  0.0281255 -0.26021 -0.000140667  0.0275569 -0.27336 -5.72205e-06  0.0269554 -0.286474 9.48906e-05  0.0263267 -0.299538 0.000169277  0.025682 -0.312565 0.000238419  0.025033 -0.325542 0.000321388  0 0 0  0.00217429 -0.00244242 -0.00523424  0.00590676 -0.00424397 -0.00757837  0.0097948 -0.00700045 -0.00857782  0.0136088 -0.010929 -0.00885296  0.0172667 -0.0159819 -0.0086813  0.0207202 -0.022037 -0.0083065  0.0239349 -0.0289762 -0.00780058  0.0268865 -0.0367209 -0.0072794  0.0295634 -0.045185 -0.00674963  0.0319698 -0.0543112 -0.0062151  0.0341091 -0.0640232 -0.00569916  0.0359831 -0.0742775 -0.00520611  0.0376 -0.0850292 -0.00468969  0.0389762 -0.0961792 -0.00424576  0.0401236 -0.107714 -0.0037899  0.0410571 -0.119577 -0.00338173  0.0417883 -0.131723 -0.00298882  0.0423279 -0.144124 -0.00257397  0.0427022 -0.156717 -0.00222206  0.0429196 -0.169442 -0.00191689  0.0429952 -0.182328 -0.00162458  0.0429389 -0.195313 -0.00131035  0.0427639 -0.208378 -0.00107861  0.0424898 -0.221489 -0.000837326  0.0421224 -0.23464 -0.000603199  0.0416727 -0.247791 -0.000414848  0.0411572 -0.260959 -0.000210285  0.0405896 -0.274097 -4.76837e-05  0.0399823 -0.287193 5.57899e-05  0.0393431 -0.300239 0.000152588  0.0386777 -0.313255 0.000219345  0.0380044 -0.326232 0.000298977  
SCALARS smooth_stress float 1
LOOKUP_TABLE default
164.413 347.06 371.034 376.885 373.593 358.711 343.006 322.461 301.091 282.056 253.742 232.014 212.59 189.946 170.862 157.39 137.759 116.178 101.121 90.2562 79.6486 67.9418 60.1436 51.2707 41.3411 32.507 25.9356 21.4193 16.2116 15.4969 16.2406 13.4757 6.33638 258.885 566.531 631.265 647.338 642.631 622.63 597.598 565.862 530.424 494.193 452.823 417.162 382.293 344.659 311.745 281.724 246.322 216.621 190.757 169.652 150.743 130.118 115.114 99.9723 83.6684 67.7323 57.9082 49.3615 38.5723 35.5511 32.8007 27.6602 13.2151 151.414 350.248 419.112 445.188 451.017 446.724 432.691 414.009 392.73 369.129 348.062 324.084 297.992 276.47 254.498 228.205 206.017 189.025 169.87 154.318 139.2 122.968 108.826 95.0778 82.4102 74.4824 66.7403 55.2469 48.1032 40.9623 30.938 26.944 13.4604 84.5924 194.838 246.386 284.656 303.343 309.625 307.892 300.831 291.963 281.481 266.697 249.909 233.535 223.573 208.78 193.382 182.557 168.666 155.2 141.909 129.052 118.543 108.669 95.2132 82.873 77.596 68.3427 54.954 50.0915 43.1679 32.5184 28.8206 14.6723 44.0023 110.442 163.846 210.582 233.704 245.487 252.637 252.696 248.92 245.167 234.869 221.029 208.395 198.366 189.135 179.116 166.215 156.684 147.542 137.604 128.362 114.784 104.691 96.1407 87.5349 81.1113 70.276 56.9826 49.1872 45.1643 38.0246 30.6543 14.6683 60.1061 153.037 214.903 261.566 281.194 286.036 286.689 282.527 278.377 272.428 257.377 238.057 224.672 211.366 199.015 187.649 171.998 160.354 150.53 141.158 131.571 116.539 103.083 92.6253 86.1297 82.5293 71.0427 58.6953 47.5299 41.8171 39.183 28.669 11.6542 124.073 295.51 364.728 401.388 413.783 406.134 393.973 382.977 370.421 351.685 323.84 294.274 276.775 259.838 236.336 212.816 194.922 181.99 165.248 145.371 133.075 121.651 107.606 94.2828 81.8213 73.231 66.4688 57.9758 43.8564 36.819 37.2595 30.0961 11.851 208.92 476.029 555.125 586.136 586.824 567.61 543.277 512.33 481.388 450.898 418.122 382.548 351.798 323.621 292.283 261.523 235.841 213.267 190.951 166.709 145.178 130.758 113.365 96.3702 83.5925 68.3727 59.7464 52.1765 40.836 36.3707 30.9065 25.2826 11.8489 128.601 287.176 328.959 345.653 341.895 328.845 313.148 289.407 268.989 250.964 234.506 216.276 196.546 178.599 160.992 146.753 131.806 115.031 103.658 91.8809 76.2602 68.6135 58.9641 47.409 43.1561 34.8986 27.6193 23.5627 19.6712 18.4642 12.946 9.26234 5.07446 303.292 666.427 747.203 765.755 756.937 733.061 697.14 651.246 603.957 558.24 509.776 461.872 417.987 383.804 347.999 317.442 275.938 233.495 204.35 177.416 154.412 134.731 117.922 98.015 82.5796 67.5222 51.8349 41.486 32.1235 27.9436 24.8953 23.232 13.3404 483.574 1094.48 1274.05 1328.63 1317.79 1277.29 1219.21 1142.07 1062.18 986.625 907.801 831.178 754.376 685.03 623.256 564.975 491.37 428.876 381.087 333.673 290.584 251.356 220.227 188.282 161.123 135.402 112.99 94.3803 73.3007 63.3875 54.924 49.024 26.8177 290.283 692.9 858.263 927.999 936.699 914.112 879.072 830.241 783.234 739.565 688.93 640.93 588.484 534.394 493.043 449.02 402.916 365.441 330.912 298.556 262.622 229.531 203.434 178.117 155.773 139.508 123.964 103.621 88.2918 75.0326 57.8283 51.0109 26.2294 167.117 406.663 527.8 599.304 625.461 625.396 612.396 591.87 572.776 548.751 515.322 483.845 457.394 431.274 400.117 371 348.891 321.366 293.824 270.276 242.719 222.49 203.162 178.899 159.864 145.661 129.055 105.495 92.2246 80.4841 63.6837 57.1978 28.1665 95.8576 253.034 370.338 450.694 484.203 494.803 496.059 491.563 481.814 468.654 447.273 421.777 402.638 384.496 359.976 336.181 315.964 297.29 276.307 259.379 240.543 218.546 198.156 179.578 164.992 150.761 133.98 111.153 93.3373 82.4643 70.4075 59.6014 28.1289 125.464 328.353 462.797 549.2 582.104 580.793 565.67 551.263 539.74 523.772 494.869 458.548 432.027 406.181 378.878 355.209 330.83 308.228 285.211 264.605 244.949 220.87 196.977 177.366 163.096 151.042 131.734 112.76 96.9826 81.743 68.8619 53.9629 23.7054 242.759 589.39 746.654 826.661 848.108 825.223 786.298 755.381 726.575 683.534 631.997 582.214 543.936 501.68 453.608 415.812 384.634 351.15 317.952 284.147 256.599 231.506 205.403 181.593 157.948 140.563 125.564 110.247 91.7183 78.2819 68.9287 55.1194 23.8199 397.704 928.335 1121.58 1201.66 1200.43 1153.8 1095.17 1029.28 962.986 891.065 824.052 763.899 700.996 635.031 572.067 517.87 467.524 416.914 372.96 329.562 289.415 255.682 220.698 189.079 161.925 135.899 116.924 98.9665 79.8211 71.8751 59.6139 45.0954 20.1476 241.667 556.081 663.761 707.688 699.839 670.082 633.881 586.049 542.103 500.22 464.067 430.676 391.748 353.142 319.692 290.599 259.162 228.008 203.561 178.62 153.491 136.084 116.15 96.3212 84.7147 69.6505 55.3608 45.095 36.858 33.7673 25.0237 16.3164 7.31851 272.722 627.043 744.714 779.195 770.858 747.693 711.586 664.21 610.212 555.004 508.745 462.776 416.423 386.341 354.76 317.182 274.475 236.037 204.193 174.986 151.85 132.908 115.679 95.373 79.7934 66.2842 50.0346 36.8528 30.7882 26.7104 19.6784 19.9173 12.0011 441.564 1043.2 1276.79 1359.51 1356.15 1311.26 1245.07 1157.1 1066.42 985.593 904.799 826.32 744.943 678.064 619.892 557.238 484.407 424.614 376.062 323.525 279.659 244.483 213.714 178.852 151.057 130.188 104.072 81.5685 67.9102 57.3627 46.7652 42.717 22.3276 274.045 683.535 884.783 969.731 978.103 945.208 900.269 836.647 778.557 733.994 677.411 626.441 570.816 512.247 468.633 427.04 381.561 345.943 315.771 279.398 242.957 213.116 190.408 164.761 143.369 127.933 109.25 90.7468 77.0565 63.9795 53.4006 48.6966 23.0257 171.229 437.534 581.535 645.664 658.697 644.187 617.417 584.587 554.955 523.025 488.053 461.117 433.832 401.654 371.596 343.667 316.882 291.868 267.098 248.021 225.752 202.649 183.659 163.052 148.743 133.702 117.307 96.9146 80.7353 74.0071 65.417 58.5278 27.2709 122.267 320.813 440.195 498.128 515.759 505.982 485.218 469.123 452.014 431.439 408.387 388.254 370.987 351.864 329.706 305.459 286.116 266.729 246.698 235.512 219.278 199.72 179.741 162.353 150.763 135.764 121.597 104.253 88.3004 78.5728 70.3396 59.0118 25.6123 145.478 380.658 522.275 592.362 607.893 594.565 567.148 540.171 514.534 487.702 458.054 427.855 402.336 379.138 352.005 322.881 305.527 286.659 261.975 240.639 221.426 201.568 181.099 167.039 152.656 132.914 115.507 103.281 95.4641 77.8221 63.5305 55.6046 23.9529 238.769 597.894 780.302 859.614 870.369 848.464 800.466 749.931 706.512 657.421 607.425 564.698 526.458 481.933 436.661 397.45 367.038 332.456 298.144 269.749 244.267 216.157 190.944 171.373 150.864 131.316 110.415 94.4773 86.0345 75.0453 62.3804 53.5021 24.4316 371.532 898.832 1131.85 1227.57 1232.21 1187.28 1113.74 1032.65 956.992 882.07 814.956 757.885 691.878 622.375 565.234 510.892 453.998 402.925 359.328 318.863 284.323 247.508 211.352 178.347 149.715 129.188 107.911 87.0513 72.4145 67.7829 61.3424 46.2289 18.6672 221.999 530.935 662.46 718.436 719.865 689.954 645.836 594.603 545.608 500.533 463.892 431.006 388.303 348.847 318.967 287.546 251.625 224.902 199.654 171.404 152.81 134.307 113.052 93.4306 77.382 64.6949 53.5002 42.4861 34.3444 32.6668 31.2561 21.9505 7.14796 265.042 607.381 727.745 776.4 774.401 749.779 711.817 662.623 611.934 560.024 509.313 466.143 428.688 391.993 349.478 312.031 275.351 236.129 205.409 179.528 154.507 132.397 117.062 97.6365 74.6397 60.6133 49.248 38.4718 33.0425 29.014 24.0958 22.9417 11.3313 430.183 1020.52 1260.16 1357.64 1364.41 1317.85 1248.53 1157.13 1068.05 989.463 904.264 827.515 752.742 679.956 610.339 546.51 481.155 422.594 376.275 326.04 281.098 243.715 213.689 184.177 147.515 119.616 98.621 80.7653 70.1974 58.695 50.3935 45.8856 20.4423 271.876 683.768 892.983 979.475 989.406 957.699 909.77 843.629 777.607 724.153 668.215 616.675 559.778 505.488 461.164 416.275 368.038 336.037 310.439 271.046 236.355 207.881 185.622 164.945 141.538 120.906 103.807 88.6311 76.1269 62.1389 52.8864 49.9942 23.1313 181.604 461.119 610.176 671.542 677.601 658.521 624.977 586.538 546.719 506.513 471.062 444.157 414.831 385.804 360.798 333.265 300.642 276.168 256.763 235.048 215.278 191.838 173.613 155.3 140.437 127.985 113.369 95.9059 79.6335 71.7716 63.2269 55.5571 26.302 146.318 370.569 484.151 528.736 534.992 515.137 484.253 460.018 436.243 411.246 386.962 367.448 346.979 328.257 313.123 292.154 271.206 251.642 233.773 220.471 204.758 186.738 169.121 156.4 146.389 131.497 117.277 101.693 84.9351 76.6552 69.0531 55.923 25.052 166.94 423.412 558.862 614.898 617.319 598.081 570.986 540.192 501.842 464.79 434.062 407.967 383.777 363.786 341.703 311.1 291.716 274.952 249.73 226.123 208.362 190.761 173.28 163.607 148.946 126.495 112.209 99.7568 85.743 75.2332 66.5615 58.4667 27.5818 241.761 609.839 799.678 873.291 876.9 857.663 813.543 758.538 700.243 647.49 595.846 550.971 516.751 473.097 432.107 388.71 352.754 324.825 290.396 257.597 235.133 208.538 183.255 166.158 144.95 121.375 103.357 89.0251 75.214 65.6853 59.33 55.3422 26.9276 360.741 888.526 1133.86 1224.39 1232.91 1201.77 1122.7 1034.69 959.999 889.931 817.784 749.666 688.702 620.082 563.046 508.822 450.401 401.185 355.448 314.55 278.786 241.915 205.179 171.06 144.694 119.741 96.6459 80.2067 66.6077 61.0875 57.0308 49.0663 22.1423 214.472 522.016 658.5 710.56 716.539 695.941 647.809 593.734 550.582 507.783 466.836 428.069 387.856 350.793 320.014 290.527 256.564 226.265 198.2 173.119 152.772 132.675 110.701 89.0048 74.0763 59.4454 47.1562 38.814 32.8632 33.2939 31.8474 24.7745 10.0262 260.132 599.414 720.968 774.255 775.351 752.778 711.69 660.366 611.082 564.486 514.737 461.394 424.2 389.285 349.213 317.322 281.082 239.592 207.734 177.322 151.733 129.391 109.677 92.3047 76.2799 64.2146 50.2954 40.0098 38.0578 31.1143 21.8854 23.8594 12.9909 426.77 1015.26 1254.16 1354.24 1363.85 1324.93 1255.4 1158.08 1067.08 991.868 907.955 822.284 749.143 677.227 609.961 548.685 483.729 423.287 375.662 325.568 279.052 238.708 203.135 178.285 150.794 123.269 99.2075 81.6773 74.1166 59.7325 44.6282 44.9105 23.374 275.462 690.872 895.545 979.724 989.664 963.545 919.251 845.329 774.478 720.822 663.437 611.904 559.253 505.761 460.701 412.273 362.854 329.581 304.747 268.997 232.147 203.481 181.991 165.219 140.337 118.402 102.204 89.496 79.7843 63.0885 48.9001 47.2103 24.9483 185.81 472.981 621.902 680.23 680.86 660.332 628.82 584.992 541.438 504.422 466.844 434.248 408.973 382.806 355.418 325.882 295.454 270.583 252.292 228.101 203.357 183.958 170.184 155.602 135.531 125.189 115.291 99.8553 86.5855 71.1124 55.777 50.5303 26.2869 150.839 386.061 502.476 539.492 538.082 517.534 484.663 456.635 430.559 406.441 382.648 356.597 337.992 321.916 303.989 282.255 264.636 246.973 229.358 212.272 193.463 179.979 166.869 156.063 142.096 128.657 121.009 104.886 85.9353 73.0942 60.6053 53.3133 26.9475 170.13 436.999 574.113 620.006 619.763 597.033 562.47 531.018 496.433 460.689 428.358 398.269 374.269 354.434 333.532 308.335 288.231 266.909 243.043 220.965 201.639 187.894 172.445 161.573 143.277 122.09 115.166 102.43 83.6706 71.8336 57.4543 52.1992 28.6827 241.271 611.422 804.708 880.193 881.79 853.489 808.448 756.293 703.902 649.82 590.91 544.13 508.035 462.439 420.063 383.398 348.842 318.032 288.155 256.393 230.193 206.802 182.445 163.969 140.589 118.25 106.747 90.7522 77.484 66.5978 52.1298 48.269 24.541 358.836 882.103 1130.18 1227.47 1231.02 1198.66 1126.75 1040.01 968.61 897.209 815.824 743.908 685.994 616.021 552.27 502.593 448.567 399.609 356.821 313.814 277.224 241.128 204.073 170.807 144.548 120.471 99.2201 80.3994 68.9981 60.2942 53.2556 51.3253 23.6328 213.842 519.578 656.653 708.276 710.605 693.607 649.382 595.482 553.544 512.618 467.248 424.683 388.9 351.087 317.216 290.246 258.566 226.209 197.825 173.465 153.736 132.035 108.854 88.7111 74.8474 61.4958 48.6306 39.2184 32.1093 29.078 27.5945 26.3133 12.5488 261.417 604.907 727.905 777.478 775.475 751.44 711.443 662.673 613.896 564.579 519.566 468.328 420.292 382.088 353.846 324.4 281.852 240.966 206.817 177.403 152.367 127.666 106.102 92.0239 83.2177 68.8429 49.6126 37.2685 33.8999 26.584 17.5465 23.2157 14.6083 429.655 1022.64 1259.78 1350.34 1354.01 1317.41 1250.41 1158.63 1069.24 991.898 914.02 826.28 743.193 670.587 613.756 555.45 489.56 426.986 371.346 325.037 280.602 238.8 203.783 179.54 159.155 131.784 99.2288 77.209 70.3983 60.0405 41.2666 42.6204 25.8427 275.323 690.92 891.655 967.449 980.896 960.504 914.469 839.301 770.208 724.031 668.623 608.422 555.29 506.375 458.468 410.366 369.78 331.945 297.63 268.202 235.741 206.852 186.286 171.965 144.898 120.365 101.371 87.2132 79.3603 64.3723 48.0304 44.1994 24.4513 180.817 466.055 613.779 670.189 679.382 660.881 627.451 580.468 537.496 507.269 472.983 435.406 406.487 381.273 354.203 325.104 296.71 271.092 248.04 227.613 205.821 185.991 171.071 160.966 137.982 123.821 115.913 97.7902 84.408 68.8235 55.407 51.2083 26.0029 145.566 377.81 494.295 532.367 533.94 515.473 487.583 457.756 429.306 407.553 384.894 357.875 337.45 319.415 304.422 283.939 265.495 248.272 229.305 213.192 197.097 183.033 167.686 155.201 139.051 129.327 123.035 102.175 87.0726 78.2034 63.6015 55.9387 27.7283 166.709 434.722 572.421 616.663 617.651 596.664 564.977 529.257 499.067 469.19 433.453 402.43 375.828 351.121 329.274 308.158 291.971 269.851 246.136 223.863 204.914 190.492 173.351 159.057 142.491 124.821 113.216 101.856 87.039 72.9761 56.584 50.478 26.5187 239.617 613.815 806.163 878.937 881.914 852.917 810.34 755.552 707.227 653.396 592.305 544.927 505.568 461.68 417.865 385.298 357.132 324.853 293.598 259.793 230.64 210.54 187.957 162.374 138.797 119.934 105.659 89.5633 77.37 65.4345 51.3431 45.3765 20.8955 360.698 882.449 1126.4 1226.72 1232.39 1194.93 1127.81 1043.28 961.867 885.699 810.292 741.21 682.198 620.045 552.902 499.363 449.932 403.701 361.278 315.604 279.535 243.162 206.19 171.52 142.927 122.62 103.947 80.0242 68.1464 59.4672 52.4697 51.09 21.8898 215.957 518.418 652.36 707.686 711.211 689.548 646.82 596.347 547.038 504.497 465.359 425.774 389.105 353.468 315.534 284.071 253.914 225.593 199.45 173.528 155.027 130.353 106.364 89.5197 76.5907 64.577 52.6259 40.6601 32.2889 26.713 25.2059 26.6664 12.5709 270.114 615.647 731.174 779.606 778.645 753.031 710.442 658.846 610.981 559.636 515.729 470.084 422.715 388.271 352.047 314.355 274.241 235.005 203.174 179.121 157.237 131.763 111.476 96.7873 78.9468 61.448 48.0674 39.4059 31.9673 24.892 20.1385 19.6218 10.4256 436.676 1031.88 1262.07 1353.31 1359.67 1310.69 1239.48 1153.58 1067.73 989.698 914.279 832.754 747.591 680.783 615.075 547.35 486.319 426.986 370.266 326.24 289.82 246.62 210.494 184.692 156.225 125.164 96.5721 82.2203 70.7112 59.3806 50.8806 44.0843 21.5657 271.65 683.564 880.459 958.993 976.637 944.544 895.646 834.677 772.585 729.27 678.681 618.86 563.138 515.03 466.032 416.468 378.848 344.261 305.894 273.83 245.874 214.998 189.963 172.968 151.255 124.48 101.761 90.3252 79.3117 66.6503 56.526 50.1996 24.8552 171.27 442.52 585.987 648.716 664.798 650.577 621.497 580.986 544.727 519.58 488.531 449.493 418.478 391.587 364.363 334.691 307.927 283.916 261.16 240.219 218.203 198.652 179.062 165.794 146.196 125.373 115.1 99.872 81.9637 69.0744 57.2679 49.9042 24.4242 127.577 338.277 456.513 508.397 520.062 507.671 491.575 468.136 442.901 423.217 401.674 377.308 352.258 331.729 317.613 297.748 279.727 262.197 244.823 226.041 207.584 193.846 179.126 164.156 143.82 131.739 123.604 102.615 85.2759 80.0542 65.8142 50.0911 23.2768 154.156 404.822 541.966 600.117 608.176 589.597 568.603 540.656 506.822 472.077 442.077 417.498 389.424 363.86 343.55 321 304.717 282.813 257.415 233.072 209.848 193.457 181.918 165.585 144.701 131.837 117.499 101.314 88.8477 78.5191 62.0567 48.7982 23.2468 236.351 604.215 792.294 869.147 879.423 854.013 809.064 758.331 707.469 652.344 600.592 554.663 512.784 468.369 427.923 394.518 369.028 335.652 299.805 265.814 232.629 211.062 191.414 165.858 142.049 125.21 106.489 90.6763 81.0702 66.3113 52.5001 45.7124 21.014 363.049 885.45 1126.99 1229.54 1240.52 1194.65 1112.8 1035.19 958.967 882.983 813.58 745.342 684.059 618.87 553.68 504.586 457.818 408.972 366.18 320.085 276.482 240.823 208.7 176.282 151.412 126.881 98.3153 80.06 72.2739 57.6141 47.6461 45.9894 20.8428 219.458 522.966 656.574 715.536 718.397 686.26 635.66 590.422 544.31 499.87 461.79 424.171 388.656 351.7 313.054 284.538 254.937 225.571 201.325 174.81 151.028 127.883 108.196 92.584 82.4632 66.3777 47.5645 40.4437 36.1715 26.6804 22.8724 23.1513 10.5079 291.254 645.142 740.155 776.429 769.733 742.982 701.185 652.658 605.271 555.779 513.767 471.267 429.498 395.92 351.985 306.547 268.755 232.874 202.059 176.489 155 132.741 112.447 98.6376 80.4749 61.0253 48.1782 40.9724 36.0497 27.8989 23.9558 20.0128 7.60678 463.013 1066.61 1266.74 1344.2 1346.68 1293.89 1220.28 1143.74 1062.58 982.847 909.844 838.574 767.595 703.08 625.227 544.381 480.894 425.212 374.676 328.506 291.904 252.209 216.225 189.826 161.236 129.237 98.722 87.2385 77.1932 57.8576 53.4515 49.2092 20.355 277.351 680.335 859.607 937.574 955.731 925.394 878.991 832.335 781.213 733.324 684.785 633.755 583.34 535.06 482.025 430.36 389.934 355.141 320.505 283.839 256.212 229.366 203.402 179.832 159.4 136.405 108.48 98.8494 85.9608 69.735 63.2147 57.8062 28.9566 162.899 407.989 538.763 612.724 637.625 634.154 618.339 592.866 566.801 539.885 509.811 474.304 440.295 415.69 385.652 353.547 330.195 307.166 282.119 255.959 235.579 217.516 197.752 180.445 160.044 138.17 121.913 109.268 90.4468 80.753 69.1045 58.473 31.5708 96.105 270.247 392.772 467.832 498.964 498.207 495.113 486.865 471.31 451.564 430.244 408.774 384.808 366.539 345.734 320.577 303.245 286.605 268.625 247.405 227.073 209.277 195.242 180.023 158.046 141.211 129.238 110.157 91.1544 81.7739 66.6501 55.1098 27.8433 125.026 344.907 488.55 561.126 583.404 582.89 573.091 554.484 524.196 490.139 464.776 442.135 419.56 394.966 368.933 342.914 323.661 299.339 274.152 251.739 226.735 206.864 192.918 174.485 154.601 141.368 127.604 108.907 94.0101 79.5057 63.4377 52.7842 23.8987 234.729 587.927 763.105 839.155 852.792 837.486 803.649 761.697 712.942 664.223 615.05 567.144 531.495 490.556 446.435 405.793 377.626 343.694 307.012 276.487 243.036 216.701 195.623 173.792 154.168 138.65 121.536 104.671 91.7081 72.5247 57.8982 50.6683 22.3651 380.007 907.517 1128.3 1220.15 1222 1169.72 1100.54 1031.99 959.4 895.017 825.204 752.548 690.926 628.139 563.512 511.734 464.476 412.382 369.731 322.361 276.251 243.439 213.794 182.864 157.131 134.373 107.739 92.0781 81.4044 60.6344 49.3646 49.3611 24.5289 231.506 543.373 666.712 717.214 712.486 676.583 633.319 589.528 542.245 502.998 465.788 426.62 389.236 353.799 317.145 289.3 259.664 225.786 202.477 174.345 149.148 131.942 113.974 95.334 80.9238 65.8583 48.5452 42.8417 38.1814 26.8183 23.6396 26.2305 13.5816 153.624 334.693 375.119 386.121 378.099 365.05 344.861 323.317 301.693 277.44 259.468 241.341 220.538 199.962 176.427 154.172 134.339 116.651 102.414 89.1505 75.816 65.5322 56.5589 50.5773 44.5508 33.5499 24.5408 20.5109 18.0909 13.2268 12.5505 12.5281 5.1328 242.531 547.382 636.428 666.416 660.592 636.92 600.898 566.942 530.401 489.482 456.073 425.028 393.936 357.92 315.905 276.318 242.202 212.161 190.637 168.271 144.915 126.151 111.467 100.024 87.2846 69.6871 51.8015 44.7655 39.7794 27.9536 24.9609 27.3671 12.9753 142.262 339.705 422.609 458.862 467.31 457.688 434.444 414.844 393.91 367.857 342.962 318.493 295.692 271.808 244.837 222.035 201.388 179.754 163.204 145.101 130.753 119.066 107.556 96.8343 84.2381 71.8859 57.668 52.4996 45.4841 36.5982 32.1951 29.9602 16.4789 79.5365 193.953 254.708 294.493 312.37 314.23 307.536 300.346 290.71 273.912 259.053 242.945 224.189 214.42 200.613 185.294 173.617 160.76 144.995 130.645 123.031 114.033 104.024 95.9481 84.9837 73.7765 64.2102 56.8638 47.337 44.4704 40.4419 34.6532 19.3878 39.1603 116.066 178.525 223.03 244.492 246.946 248.915 249.611 244.28 232.753 221.794 212.686 202.242 194.832 182.811 168.274 159.218 151.225 139.588 129.018 120.783 109.264 99.7794 92.4896 84.2639 75.5248 67.0438 56.4417 47.8006 42.2113 34.9286 33.5025 18.2475 54.2693 155.877 229.373 267.836 283.452 291.197 289.813 280.823 268.679 254.995 241.294 229.401 220.491 207.257 190.687 177.517 167.705 155.633 142.267 130.496 120.475 109.529 97.9824 87.6924 82.3701 74.3557 65.5479 57.5592 48.2623 39.4662 33.2207 30.4209 14.1679 118.403 291.93 373.568 407.702 414.349 411.19 401.879 383.636 358.683 337.374 312.431 287.49 273.698 254.433 229.032 207.43 192.316 176.392 157.606 140.697 125.246 111.615 99.83 88.4344 80.5398 72.5151 65.9963 59.6249 47.5653 37.153 33.2301 28.9267 12.1705 196.814 464.413 566.001 602.217 597.149 572.016 549.655 519.04 478.294 448.552 414.849 377.639 349.093 322.409 288.059 258.194 236.107 209.409 186.138 162.605 140.78 123.98 108.372 92.7167 77.411 67.7206 60.0625 51.5883 41.4573 31.0022 25.3283 25.7865 13.7169 119.702 279.232 336.687 355.247 349.313 333.489 317.803 295.744 269.517 251.514 234.614 215.004 195.538 180.97 162.156 145.413 132.37 113.94 101.226 88.0516 76.6044 68.2163 58.1215 48.0451 38.4569 32.0642 26.3733 21.6998 17.8951 13.7031 11.0474 13.3103 8.21821 
CELL_DATA 2048
SCALARS stress float 1
LOOKUP_TABLE default
164.413 182.648 188.387 188.498 185.095 173.616 169.39 153.071 148.02 134.036 119.706 112.307 100.283 89.6633 81.1986 76.1913 61.568 54.6103 46.5103 43.746 35.9026 32.0391 28.1044 23.1663 18.1747 14.3323 11.6033 9.81596 6.39566 9.10128 7.1393 6.33638 94.4719 124.999 135.232 135.221 133.817 130.102 124.49 118.911 110.422 101.715 97.3668 87.7816 81.9214 72.7912 68.0924 56.242 52.3209 48.1213 41.5154 37.8806 33.2143 28.9621 26.0082 22.6933 19.634 15.5913 16.3813 11.5609 10.7997 9.25437 7.30576 6.87876 56.9419 73.835 85.0454 89.6894 92.2889 90.5163 87.5829 83.025 80.3727 76.6193 72.3612 66.5746 61.7145 60.0425 53.5722 50.2982 47.1554 41.4274 38.8059 36.1158 31.9889 28.8028 25.0532 21.3231 18.7598 20.4974 14.2704 13.0343 12.7082 8.20001 6.17782 6.58167 27.6505 36.4107 51.0947 58.8264 62.5382 64.2816 65.5108 64.7124 63.8528 60.6363 57.0797 53.8931 51.353 50.4631 44.7021 44.8094 40.2943 39.7887 35.1784 31.8094 29.1381 28.6127 26.2007 22.6363 20.1538 18.1851 15.3899 12.2594 12.0896 10.1701 7.97043 8.09067 16.3518 30.0292 46.3117 54.3488 57.9907 60.6767 62.1682 60.3051 60.0499 60.628 56.5248 53.5309 49.6181 46.9318 47.0378 42.5667 38.5444 38.0564 34.5186 36.0973 31.3173 25.7158 24.1615 23.1422 21.6025 21.1699 15.5311 13.8022 11.036 11.8686 8.0155 6.57765 43.7543 62.9021 75.6601 85.2451 83.6093 83.7592 80.0853 79.9687 78.0531 73.6973 66.5273 61.474 60.0492 54.767 50.278 47.7666 43.1204 40.6333 37.3213 33.2213 30.9356 28.5704 24.6349 20.6866 20.6984 19.0585 15.2832 14.0788 8.61282 10.2997 8.99927 5.07654 80.3189 108.534 117.632 122.851 122.078 116.688 113.441 109.482 102.917 97.0176 86.5982 79.6743 75.5775 69.4447 61.8464 52.9245 51.1108 47.1256 40.1673 34.661 34.2567 27.8878 26.5126 22.4486 17.9878 15.4863 16.6407 11.973 9.19174 8.71471 9.24579 6.77448 128.601 158.575 170.384 175.269 166.627 162.218 150.93 138.476 130.513 120.451 114.055 102.221 94.3256 84.273 76.7193 70.0333 61.7724 53.2581 50.3998 41.481 34.7792 33.8343 25.1298 22.2792 20.8769 14.0217 13.5976 9.96513 9.70609 8.75816 4.18788 5.07446 138.88 180.487 195.683 193.188 190.156 184.195 169.94 158.845 144.02 132.163 123.871 105.988 99.4089 94.4493 82.6883 77.3636 60.8152 56.5018 46.7279 40.4321 34.3313 32.4581 25.3208 21.4235 19.815 15.2002 10.699 9.36765 6.54426 5.90243 2.75225 7.00403 85.8102 122.772 143.84 148.58 143.235 137.077 130.402 117.022 111.87 104.378 94.5651 89.5926 77.0931 69.4197 64.9536 58.2451 48.624 46.3144 40.7861 36.0748 29.0026 25.4459 21.8882 19.6775 16.5382 16.1167 13.0657 11.8864 6.93011 8.45961 5.00899 6.59852 53.0592 81.0111 91.5281 98.8631 95.0044 92.0715 86.8303 81.9783 79.6327 74.5544 67.3702 65.3183 58.4873 52.9239 51.2478 46.3689 43.6618 37.816 36.1258 31.2514 27.0941 25.0202 22.253 19.2208 17.9261 14.4444 13.5972 9.82443 11.5477 7.13279 6.2889 6.1705 29.4651 48.2899 60.5847 63.6725 64.5777 64.1171 61.4861 60.7439 58.4579 54.6251 52.0757 49.1723 50.8809 45.4088 41.7566 38.2452 38.0577 33.1647 31.5173 29.4725 25.8489 25.9839 21.2359 20.9757 18.8679 16.8263 15.8449 11.2747 9.4863 9.14941 8.59419 7.32362 22.3901 42.4461 55.1712 60.684 61.5644 59.057 58.7617 57.8747 55.8173 54.5871 51.116 48.3843 45.805 44.0351 39.6405 37.423 36.0237 33.36 30.7233 30.0618 26.7974 25.1318 21.1138 20.1121 17.5015 16.4535 14.5792 12.4718 10.9173 7.74697 6.89239 6.13696 42.9679 67.5117 82.7648 89.0143 89.6476 84.4877 76.674 75.4257 72.2453 68.6936 63.0946 57.8957 55.2696 49.7054 46.4825 44.0142 41.3709 37.119 33.4793 29.1826 27.3358 25.0663 22.5825 20.9322 18.4205 16.1367 13.5223 13.4911 12.5725 8.68915 6.35041 5.91422 75.718 107.683 123.966 129.527 126.136 118.818 112.346 107.959 100.525 90.3853 85.9835 80.9662 73.03 63.8372 57.247 55.2533 49.073 41.5968 40.5092 35.6049 31.4014 26.0522 24.0958 19.7002 17.074 15.7007 13.7351 11.5227 10.2757 9.92565 6.70404 6.05465 113.066 155.838 178.964 183.072 174.873 166.365 154.368 142.274 130.84 118.417 111.144 103.256 91.9454 82.5976 76.1018 67.7448 59.6118 53.3658 46.5375 40.2013 37.0298 30.4406 26.745 22.1673 19.3913 15.3606 12.3809 9.15136 8.03544 7.26763 4.80999 2.24405 133.842 173.835 194.71 195.615 191.899 181.443 176.009 159.416 147.93 130.891 121.821 111.097 99.9296 92.5533 85.0692 72.0611 64.2353 54.4846 46.4791 41.3473 35.7396 30.379 27.5213 21.1074 17.4474 13.8215 10.3138 6.47228 8.40396 5.85974 5.16397 4.99705 83.0319 124.538 140.93 146.966 146.51 136.75 129.25 116.22 111.098 103.243 93.8668 85.519 76.3153 68.8953 61.863 54.9943 48.0687 45.5703 39.1975 32.48 30.2517 26.875 23.8258 18.0878 16.9599 14.2887 10.5667 9.19688 9.10863 6.15398 7.46421 3.72799 52.1439 81.1683 98.9955 100.029 98.9164 95.6443 92.2441 82.7001 78.0353 71.182 68.2518 61.9571 56.5336 52.5792 46.7505 42.6172 38.9813 36.906 33.0553 30.4269 26.3751 23.0516 22.0482 17.7592 17.1991 14.4602 12.7105 9.899 8.66336 5.98332 6.90878 6.52872 36.5603 55.8365 64.1206 67.8712 69.7633 64.0926 60.9316 57.6723 55.7342 50.8032 49.1907 47.781 43.701 41.1396 39.7893 36.8914 32.0585 31.2218 27.2908 28.8814 26.402 22.873 21.1932 18.3656 18.4289 15.5492 13.8739 9.89011 10.1497 11.8945 9.46506 7.24808 33.8517 51.9729 61.7731 64.2506 63.3754 59.4342 57.3372 54.3159 51.3978 50.0167 45.9727 44.5615 40.7014 40.1924 37.7433 33.97 33.4462 29.3964 30.0239 27.5411 24.2729 22.4103 19.7989 19.5576 16.9538 15.183 13.2871 13.0311 11.0794 8.14918 8.44785 4.90364 46.2683 73.2498 87.3855 91.3182 88.0381 88.9601 82.4359 77.3462 70.1111 64.8329 59.7401 57.0896 52.6286 50.8007 43.4054 40.2024 39.077 36.8663 31.0064 28.6212 27.6139 22.9398 22.0553 20.8868 18.2911 13.9737 12.3719 10.5268 11.3741 7.29353 9.96101 6.9981 73.8147 110.681 127.06 128.578 128.109 124.268 112.477 105.268 97.6324 92.9947 81.7006 78.2281 71.3507 65.3106 59.8722 50.9734 47.0733 40.2796 37.2879 34.0572 30.4499 25.2976 22.854 18.2661 17.2929 14.426 10.549 8.75845 7.51325 7.40149 6.05508 5.46459 108.933 153.097 174.56 181.84 180.08 168.636 156.466 141.494 131 120.276 114.056 102.55 90.5512 83.7529 76.5148 67.1851 57.0833 54.8409 44.9098 39.7552 35.8233 31.0135 24.8532 19.6651 16.1582 13.7847 11.974 8.9798 8.17782 9.18595 9.99254 4.9039 131.199 168.505 190.696 195.38 191.508 184.93 169.436 157.762 146.826 134.378 122.224 111.002 106.66 92.8497 79.0061 75.8947 63.1603 54.249 50.1964 41.505 35.9151 30.3635 28.7987 20.2091 15.8759 13.4685 11.6442 10.0416 8.12465 6.62566 6.44646 6.33427 82.109 123.456 143.488 149.852 146.678 138.133 132.582 116.451 112.346 102.751 95.09 86.8967 75.3231 67.4296 62.6726 54.9486 47.7923 45.0334 41.0651 33.7701 30.0894 24.1017 21.824 22.8033 15.0242 12.7297 11.7879 10.742 8.10746 6.31093 6.36858 5.38304 54.5909 82.7302 97.6778 101.538 98.917 96.1507 89.0151 85.1664 75.5894 69.9078 63.9228 61.1704 56.0629 52.3489 48.6251 43.8041 36.8316 36.853 32.7581 28.2934 24.6688 22.4678 21.4279 17.1691 16.5352 13.7091 13.5544 10.1737 10.2359 7.57529 6.1213 7.49159 38.3092 59.7799 69.8675 71.4427 69.1236 65.9133 60.985 57.8232 53.9982 51.2634 46.5402 45.343 42.2815 41.1568 38.4089 36.3784 33.0791 30.2367 28.441 25.9009 24.3294 21.6706 18.8811 18.4556 16.5244 15.5784 13.9333 11.871 8.75074 8.51877 6.7599 5.03364 37.5968 56.6616 64.1388 65.2712 63.8937 59.5413 56.0175 54.9359 50.3661 47.6668 45.5079 42.5505 40.0586 39.0254 35.6671 33.3056 32.0772 30.126 27.0363 25.3555 22.0742 22.7054 19.5886 20.5594 17.5436 15.7353 14.1364 11.6697 8.49324 9.61961 6.19826 7.8666 49.2235 74.5876 89.0929 91.6676 89.5043 85.334 81.9262 75.8772 67.4913 62.9075 57.4176 55.1266 51.0603 49.3191 45.5494 41.2572 38.3808 35.582 29.6927 26.8461 26.0371 22.7071 21.0742 20.0866 15.0673 13.7467 13.775 10.9587 8.60988 10.6143 6.27781 7.81343 72.4541 109.56 128.061 130.128 129.557 123.893 114.25 108.958 97.5587 93.9618 82.2908 79.3774 71.8896 60.7373 57.112 50.3375 45.4527 42.1136 37.5673 32.5182 28.9891 24.5037 21.8232 19.1116 15.9473 12.6295 11.8852 10.2001 7.27273 5.60606 6.1207 6.65145 105.539 154.446 176.396 177.763 176.855 170.369 152.337 143.436 134.652 121.855 110.649 100.814 93.941 82.5484 77.198 69.6287 62.6667 51.6745 46.7747 41.6796 35.5137 30.324 24.5099 19.9765 18.2765 11.226 10.1715 7.68869 8.01691 7.91324 4.75569 5.12234 128.932 170.778 190.99 197.19 191.274 185.067 172.258 160.91 145.583 137.699 120.437 107.732 98.806 90.9692 86.388 76.0333 65.9938 56.1892 47.0992 38.5215 35.7917 27.3202 23.1947 20.1022 20.0928 14.7775 10.4052 7.91885 11.9727 4.39128 4.422 6.65665 84.5295 125.756 140.487 146.155 145.811 141.528 131.464 117.217 109.988 102.296 93.0807 85.8222 76.9014 68.2879 62.3579 51.3837 48.5221 42.3465 39.4834 33.9276 29.5311 25.5946 21.9372 19.4159 17.2703 14.0304 10.3642 8.77335 8.43598 5.76386 4.29942 5.00006 54.2321 83.4684 98.4816 102.044 98.6685 97.6583 92.7204 80.7134 77.006 70.9368 65.452 60.4696 56.6064 52.8006 46.1781 42.303 37.2688 34.9329 32.2751 27.4238 24.4431 22.5841 22.054 18.5879 13.5309 15.5724 10.4555 13.6449 9.67101 6.98802 5.47271 7.07361 38.6773 61.1928 68.7041 70.4744 68.6516 65.2495 61.1277 57.441 53.7 52.0199 46.8014 44.5485 42.4905 39.0581 36.8418 33.3425 32.4465 28.9343 27.8614 25.1472 23.1508 20.6433 20.4551 18.5715 16.1563 17.5828 14.9055 11.317 10.9211 8.45152 5.88952 6.68805 36.2559 57.5872 64.5444 65.0491 64.1752 60.9862 54.8425 53.4621 48.8323 48.5939 44.2548 41.0507 39.6682 38.1772 35.6541 32.6561 31.3506 28.7227 27.9995 24.5301 22.9753 22.4301 20.4947 19.0569 15.2283 14.3076 14.8297 12.2228 10.6896 7.64957 7.51815 7.3592 47.0534 78.0333 89.4673 90.7746 89.4279 84.1702 79.6518 74.3048 71.1634 63.6675 58.3417 54.0193 50.7347 46.3908 43.7486 40.4965 38.7068 31.9632 31.9205 27.5843 26.2368 22.7277 20.7171 19.9958 15.7394 14.7215 13.9139 10.9236 10.1031 6.05435 3.52226 5.64351 72.5397 107.971 127.935 133.067 127.664 123.94 115.284 106.041 102.508 90.5624 81.7607 75.7965 70.0305 62.2768 54.9287 49.9685 44.2422 41.5908 37.7248 32.5395 29.4413 26.1588 22.7333 18.4274 16.2138 14.1847 11.8901 7.20572 12.2102 6.12712 7.80727 4.43259 108.303 151.29 174.521 179.596 176.391 169.992 156.684 143.024 132.432 123.679 111.064 102.156 91.9903 82.6073 74.8618 68.5579 57.7132 54.1549 45.2205 39.7898 36.7529 29.444 24.5761 19.6485 16.9459 15.0475 12.1857 9.17255 7.23115 5.91672 9.00885 7.42644 132.484 172.713 193.425 195.873 191.138 183.961 170.157 159.348 148.055 133.242 128.188 111.97 101.784 90.5288 85.9596 76.0196 63.8049 54.9776 48.5511 43.2312 34.8222 29.732 25.8553 22.8717 20.1509 13.8217 10.6082 8.33619 5.67221 4.54779 4.18542 7.95165 83.7094 123.741 141.886 144.337 142.231 136.397 129.582 117.69 110.454 104.582 94.4958 84.5534 75.6233 67.6864 61.5781 55.7293 52.073 43.0793 39.62 34.6026 30.1745 25.8335 24.3154 21.8472 17.4037 14.2369 10.9847 9.81834 9.47071 9.78594 3.87089 6.23436 52.8515 82.6313 95.2029 98.8558 102.794 95.4167 89.7033 80.211 76.9286 71.8397 65.9409 58.6078 56.7062 51.7629 47.8163 43.0194 39.4807 34.242 31.6511 29.2179 26.4201 22.2707 21.697 22.1103 14.7323 13.5883 12.1388 11.0335 8.51243 5.7444 6.10513 6.14324 35.0556 57.9462 66.1512 70.2757 67.6179 64.8243 60.7505 57.8006 53.6955 51.1423 48.8499 44.7356 42.322 39.5264 40.2183 35.3844 33.4646 30.3217 27.8214 26.2154 23.8025 22.6765 18.6902 18.7999 15.4929 17.1652 14.5044 9.79069 9.51723 9.01775 7.73801 6.09804 35.5771 55.5174 62.652 64.516 63.1804 60.7876 59.0147 53.3165 51.058 48.5106 44.7213 42.9125 39.7217 38.4513 36.4947 33.347 33.5032 29.5281 28.1158 25.5015 25.7741 21.5802 20.716 18.4163 17.3291 16.0648 13.675 10.9297 11.6844 10.2722 7.0648 7.58298 47.8225 76.8752 87.7443 91.9151 88.6124 85.3242 80.1993 74.4654 72.4648 64.8991 60.4636 56.6665 51.0543 46.923 43.4345 42.3267 39.5845 36.4918 31.3947 26.8171 25.4945 23.2732 21.4125 18.2478 18.4771 12.953 12.7503 12.6115 7.87433 8.64854 5.8541 5.93306 72.2016 111.319 126.818 131.215 129.238 124.541 117.229 108.376 97.9036 90.2279 82.3818 75.4967 71.7698 62.5 57.6625 52.7321 49.0749 43.1993 39.3133 32.4988 30.0279 27.1801 23.7546 17.0851 14.6103 13.0344 12.2116 8.05675 8.38483 6.03204 7.2974 4.88631 107.654 151.171 175.378 178.191 177.033 166.133 154.011 142.627 128.955 119.431 111.185 101.37 93.5892 85.2814 72.7834 67.8677 59.775 53.9502 46.1239 42.3935 36.0909 28.0656 24.2778 21.0172 18.979 13.6046 11.7881 7.51373 8.37146 5.19363 5.08667 5.14445 137.63 172.82 192.216 198.092 193.542 184.39 171.934 157.407 146.171 132.168 122.132 107.795 101.166 94.7925 80.7658 71.6095 62.8072 53.4157 46.2295 41.1092 38.0749 29.1342 26.7541 21.3062 14.618 12.8574 10.7801 9.68142 8.27744 6.39459 5.01073 2.47397 82.8526 125.927 139.347 148.131 146.322 132.712 130.351 117.111 111.494 103.534 95.9381 87.6818 77.0174 72.1849 61.5789 54.1091 50.1662 46.6618 37.7313 35.165 32.64 26.2083 22.6608 19.0809 18.9467 13.1283 10.1549 11.8566 7.59828 7.63365 9.4516 4.90572 52.2369 79.6139 92.1104 99.123 94.8433 93.828 87.6557 82.3726 76.3251 74.1141 68.237 63.4051 59.5432 54.5061 48.9181 43.7191 40.5514 38.0068 34.9019 30.9396 26.7145 24.7366 22.2401 19.016 18.1184 14.3254 13.2039 11.1345 9.88728 8.01761 5.91674 7.5719 31.1255 51.0595 61.272 65.7255 65.5631 65.6896 63.6287 58.8631 58.5308 57.0036 51.4032 48.3133 44.8445 42.3756 39.2389 36.3764 35.931 31.9176 32.2975 27.1741 27.719 24.3125 22.4386 20.8018 17.1241 14.8261 15.3478 12.7185 9.36954 9.00818 5.7201 4.61105 25.8192 46.177 55.7383 62.0664 61.1173 58.8906 57.9885 56.7735 52.8628 50.4138 49.6294 46.7423 42.6662 41.8216 39.4862 37.2017 34.5183 33.0129 31.8081 27.1077 24.2898 23.692 25.0196 19.2736 16.5821 17.1543 14.8664 10.7828 10.483 10.7018 6.29142 4.98476 44.9373 72.0964 85.1654 90.3201 86.4481 85.2364 81.1618 77.7366 68.1441 63.7233 59.7159 56.6462 53.0144 50.2071 46.7318 41.978 42.2581 33.9164 33.1474 29.18 25.6832 23.6703 22.5538 19.9455 16.4297 16.8467 13.1883 12.51 11.972 6.88275 6.34108 4.74605 71.3894 107.574 124.701 131.267 130.407 124.205 111.166 107.997 100.381 94.6003 84.5804 78.712 69.4235 63.4773 56.9865 52.6665 48.4075 42.7196 39.6227 33.8402 29.087 26.6455 22.9238 19.9344 17.3191 15.5393 9.96551 9.38245 10.2784 6.23846 5.20578 5.4486 111.803 152.337 177.688 184.279 178.894 164.2 151.315 142.469 130.259 121.224 109.949 101.667 92.0306 80.7986 74.1902 69.6967 57.5977 54.248 47.0026 39.2903 33.2532 30.4728 25.3799 21.909 20.5579 13.2363 8.93558 12.2063 8.07995 5.03534 7.55679 5.36344 153.624 181.069 194.051 192.07 186.029 179.021 165.84 157.477 144.216 133.224 126.244 115.097 105.441 94.5212 81.9056 72.2663 62.0723 54.579 47.8351 41.3155 34.5005 31.0316 25.5273 25.05 19.5007 14.0492 10.4916 10.0193 8.0716 5.15522 7.39527 5.1328 88.907 123.783 137.526 142.769 139.724 132.146 123.891 119.734 108.974 103.067 93.538 90.1497 83.248 74.7093 64.7689 57.3773 50.4857 45.0236 43.1998 35.9204 33.1787 27.4405 27.468 21.9783 20.7555 15.3817 11.879 12.3756 9.3129 5.41391 6.99652 7.84254 53.3548 73.6609 87.6396 90.9279 93.8894 91.9285 86.4789 84.7407 80.4617 75.3546 71.0028 63.8021 58.4923 55.3582 50.0006 49.8877 43.6373 40.6077 34.3727 31.6081 30.0453 28.4014 24.246 23.142 18.3622 17.3865 13.0208 15.2241 8.57144 13.2999 6.48472 8.6364 26.1817 40.7559 52.6513 63.2743 64.2782 64.1337 64.9954 64.1311 61.3761 56.7193 55.9767 52.1636 49.7312 50.8383 44.4156 40.9905 39.1009 37.4136 32.6013 32.0633 29.3146 26.2715 25.1053 23.4547 20.0247 18.0031 15.7999 12.819 10.7225 11.8766 8.78066 10.7514 12.9787 36.1494 48.9689 58.1357 58.8037 59.7303 60.056 60.4282 58.3449 56.3132 52.785 51.7609 48.5863 45.6757 41.8816 40.9861 38.1405 36.5697 33.0037 31.3492 28.0555 25.6224 22.7802 21.1494 19.6351 17.8619 15.3789 12.444 11.8152 7.79708 6.47427 7.49611 41.2906 65.4583 78.7959 81.9356 84.5773 88.0859 81.9411 78.3981 71.5077 68.8291 63.3663 61.4888 58.6551 54.3395 48.7898 45.8593 42.7193 38.204 34.4897 31.6533 29.4166 26.4345 23.1453 20.6175 20.9681 15.8906 16.4165 13.3198 10.6833 9.17057 9.77875 6.67176 77.1119 108.069 121.245 125.725 122.112 116.415 115.437 107.859 100.918 96.1195 84.1157 78.5191 75.0355 66.4035 59.4993 53.2821 50.4556 45.0135 39.8985 34.6551 29.5205 26.2432 24.007 20.6646 18.2895 17.3669 16.3223 13.5662 9.99591 7.30329 6.97754 5.49869 119.702 159.53 177.157 178.09 171.223 162.266 155.537 140.207 129.31 122.204 112.41 102.594 92.9443 88.026 74.1302 71.2828 61.087 52.8529 48.3733 39.6782 36.9262 31.2901 26.8314 21.2136 17.2432 14.8209 11.5524 10.1474 7.74773 5.95532 5.09211 8.21821 
SCALARS volume float 1
LOOKUP_TABLE default
0.315587 0.316053 0.316164 0.3162 0.316216 0.316229 0.316241 0.316252 0.316264 0.316276 0.316288 0.316299 0.316309 0.31632 0.316329 0.316339 0.316346 0.316353 0.316361 0.316368 0.316374 0.31638 0.316385 0.31639 0.316395 0.316398 0.3164 0.316404 0.316405 0.316407 0.316408 0.316408 0.315924 0.316055 0.316148 0.316188 0.316208 0.316222 0.316234 0.316247 0.316259 0.316272 0.316284 0.316295 0.316306 0.316316 0.316327 0.316336 0.316344 0.316352 0.316361 0.316367 0.316374 0.31638 0.316384 0.316389 0.316395 0.316398 0.316399 0.316403 0.316404 0.316407 0.316408 0.31641 0.316112 0.316188 0.316214 0.316238 0.316251 0.316262 0.316271 0.316279 0.316289 0.316298 0.316308 0.316317 0.316325 0.316334 0.316342 0.316349 0.316355 0.316362 0.316369 0.316373 0.316378 0.316384 0.316388 0.316391 0.316395 0.316398 0.316399 0.316401 0.316402 0.316406 0.316407 0.316408 0.316298 0.316298 0.316297 0.3163 0.316306 0.316311 0.316317 0.316322 0.316328 0.316334 0.316341 0.316346 0.316351 0.316357 0.316362 0.316367 0.316372 0.316375 0.316381 0.316383 0.316386 0.31639 0.316392 0.316396 0.316397 0.316399 0.3164 0.316402 0.316402 0.316403 0.316405 0.316406 0.316465 0.316402 0.316374 0.316364 0.316363 0.316364 0.316366 0.316368 0.316371 0.316373 0.316376 0.316377 0.316381 0.316382 0.316385 0.316388 0.316388 0.316392 0.316392 0.316394 0.316396 0.316399 0.316398 0.3164 0.3164 0.316402 0.316401 0.316403 0.316402 0.316403 0.316404 0.316404 0.316631 0.316495 0.316446 0.316425 0.316418 0.316416 0.316415 0.316413 0.316413 0.316413 0.316411 0.316411 0.316411 0.316409 0.316408 0.316409 0.316408 0.316408 0.316407 0.316408 0.316408 0.316407 0.316407 0.316406 0.316406 0.316406 0.316404 0.316405 0.316404 0.316405 0.316404 0.316403 0.316787 0.31659 0.316506 0.31648 0.316471 0.316467 0.316463 0.31646 0.316455 0.316451 0.316448 0.316444 0.31644 0.316436 0.316433 0.31643 0.316428 0.316425 0.316422 0.316421 0.316419 0.316415 0.316414 0.316413 0.316413 0.31641 0.316408 0.316408 0.316406 0.316405 0.316406 0.316403 0.317043 0.316638 0.316555 0.316532 0.316523 0.316516 0.316509 0.316501 0.316494 0.316486 0.316481 0.316474 0.316467 0.316462 0.316456 0.316451 0.316446 0.31644 0.316436 0.316432 0.316429 0.316425 0.316422 0.31642 0.316417 0.316415 0.316412 0.31641 0.316409 0.316409 0.316407 0.316405 0.315721 0.315949 0.316084 0.316154 0.316193 0.316215 0.316231 0.316245 0.316258 0.316271 0.316283 0.316295 0.316306 0.316315 0.316325 0.316334 0.316344 0.316352 0.316358 0.316366 0.316374 0.316378 0.316385 0.31639 0.316394 0.316397 0.3164 0.316404 0.316405 0.316407 0.316408 0.316408 0.3161 0.316033 0.316118 0.316171 0.316207 0.316229 0.316245 0.31626 0.316272 0.316283 0.316295 0.316305 0.316315 0.316323 0.316332 0.316341 0.316349 0.316355 0.316362 0.31637 0.316375 0.316379 0.316385 0.31639 0.316394 0.316398 0.316399 0.316404 0.316404 0.316406 0.316407 0.316409 0.316201 0.316174 0.316195 0.31622 0.316242 0.316259 0.316272 0.316284 0.316294 0.316304 0.316314 0.316321 0.31633 0.316337 0.316344 0.316351 0.316357 0.316363 0.316369 0.316375 0.31638 0.316383 0.316387 0.316392 0.316394 0.316399 0.3164 0.316402 0.316403 0.316405 0.316405 0.316406 0.316327 0.316287 0.316285 0.316288 0.316296 0.316304 0.316313 0.31632 0.316327 0.316335 0.316341 0.316348 0.316353 0.316358 0.316362 0.316368 0.316371 0.316375 0.31638 0.316384 0.316387 0.31639 0.316393 0.316396 0.316398 0.3164 0.316401 0.316402 0.316403 0.316405 0.316403 0.316405 0.316434 0.316399 0.316369 0.316359 0.316354 0.316355 0.316358 0.316361 0.316365 0.316368 0.316373 0.316376 0.316378 0.31638 0.316382 0.316385 0.316387 0.316388 0.316392 0.316394 0.316396 0.316397 0.316399 0.3164 0.316399 0.316403 0.316402 0.316404 0.316403 0.316405 0.316404 0.316404 0.316542 0.316499 0.316451 0.316425 0.316412 0.316405 0.316405 0.316404 0.316405 0.316405 0.316405 0.316405 0.316404 0.316405 0.316405 0.316405 0.316406 0.316406 0.316405 0.316405 0.316406 0.316406 0.316405 0.316406 0.316405 0.316405 0.316405 0.316405 0.316405 0.316405 0.316405 0.316403 0.316626 0.316606 0.316525 0.316486 0.316467 0.316455 0.316451 0.316447 0.316443 0.316441 0.316439 0.316435 0.316433 0.31643 0.316428 0.316425 0.316422 0.31642 0.316418 0.316416 0.316417 0.316414 0.316412 0.316413 0.316411 0.316409 0.316408 0.316408 0.316407 0.316405 0.316405 0.316404 0.316875 0.316697 0.316607 0.316556 0.31653 0.316514 0.316504 0.316496 0.31649 0.316484 0.316478 0.316471 0.316465 0.31646 0.316454 0.316448 0.316444 0.316437 0.316434 0.316432 0.316427 0.316425 0.316421 0.316418 0.316416 0.316413 0.316411 0.31641 0.316409 0.316407 0.316406 0.316406 0.315643 0.315951 0.316058 0.316125 0.316168 0.316199 0.316222 0.31624 0.316255 0.316268 0.316281 0.316293 0.316305 0.316314 0.316325 0.316335 0.316343 0.316351 0.316359 0.316368 0.316374 0.316379 0.316386 0.31639 0.316394 0.316399 0.316402 0.316405 0.316406 0.316408 0.316407 0.316407 0.316075 0.316026 0.316108 0.316161 0.316198 0.316225 0.316244 0.316259 0.316273 0.316285 0.316297 0.316307 0.316317 0.316326 0.316335 0.316343 0.316349 0.316358 0.316365 0.316371 0.316377 0.316381 0.316386 0.316391 0.316393 0.316398 0.3164 0.316403 0.316403 0.316406 0.316406 0.316408 0.316188 0.316182 0.316189 0.316218 0.316241 0.316259 0.316274 0.316287 0.316297 0.316307 0.316317 0.316325 0.316333 0.316341 0.316348 0.316354 0.316359 0.316365 0.316371 0.316377 0.316381 0.316385 0.316389 0.316393 0.316395 0.316398 0.316399 0.316404 0.316404 0.316405 0.316406 0.316407 0.316321 0.316288 0.316281 0.316285 0.316295 0.316304 0.316312 0.31632 0.316328 0.316336 0.316342 0.316347 0.316353 0.316358 0.316364 0.316368 0.316373 0.316376 0.316379 0.316384 0.316389 0.31639 0.316395 0.316396 0.316398 0.3164 0.316401 0.316403 0.316403 0.316405 0.316406 0.316405 0.316435 0.316394 0.316367 0.316355 0.316352 0.316354 0.316356 0.316359 0.316364 0.316368 0.316371 0.316373 0.316377 0.316379 0.316381 0.316386 0.316388 0.316388 0.31639 0.316394 0.316396 0.316398 0.3164 0.316402 0.316401 0.316402 0.316402 0.316404 0.316404 0.316405 0.316405 0.316404 0.316551 0.316485 0.316451 0.316423 0.316411 0.316405 0.316401 0.316399 0.316401 0.316401 0.316402 0.316403 0.316404 0.316403 0.316403 0.316404 0.316404 0.316404 0.316404 0.316404 0.316405 0.316406 0.316405 0.316405 0.316405 0.316405 0.316404 0.316408 0.316405 0.316406 0.316405 0.316403 0.316642 0.316594 0.316525 0.316492 0.316471 0.316458 0.31645 0.316445 0.316441 0.316437 0.316434 0.316433 0.316432 0.316429 0.316426 0.316425 0.316422 0.316421 0.316419 0.316417 0.316416 0.316414 0.316413 0.316411 0.316411 0.316408 0.316407 0.316409 0.316406 0.316406 0.316406 0.316404 0.316918 0.316661 0.316608 0.316567 0.316539 0.316519 0.316505 0.316494 0.316486 0.316478 0.316472 0.316466 0.316461 0.316457 0.316452 0.316447 0.316441 0.316437 0.316433 0.316429 0.316427 0.316423 0.316422 0.316418 0.316416 0.316414 0.316411 0.316409 0.316407 0.316407 0.316407 0.316404 0.315625 0.315943 0.316052 0.316117 0.31616 0.316191 0.316216 0.316236 0.316251 0.316267 0.316279 0.31629 0.316302 0.316314 0.316325 0.316333 0.316342 0.316349 0.316359 0.316368 0.316375 0.31638 0.316386 0.316389 0.316394 0.316399 0.316402 0.316407 0.316408 0.316409 0.316407 0.316408 0.31608 0.316016 0.316102 0.316155 0.316192 0.31622 0.316241 0.316258 0.316273 0.316285 0.316297 0.316306 0.316315 0.316326 0.316334 0.316342 0.316349 0.316356 0.316366 0.316372 0.316376 0.316381 0.316387 0.31639 0.316394 0.316399 0.316401 0.316403 0.316404 0.316406 0.316407 0.316409 0.316189 0.316179 0.316187 0.316216 0.316239 0.316258 0.316273 0.316286 0.316297 0.316307 0.316317 0.316324 0.316332 0.31634 0.316348 0.316353 0.31636 0.316365 0.316372 0.316378 0.316382 0.316385 0.31639 0.316391 0.316395 0.316399 0.316401 0.316402 0.316402 0.316404 0.316405 0.316406 0.316321 0.316286 0.316281 0.316284 0.316293 0.316302 0.316313 0.31632 0.316328 0.316336 0.316342 0.316348 0.316353 0.316358 0.316363 0.316368 0.316372 0.316376 0.31638 0.316384 0.316388 0.31639 0.316394 0.316396 0.316399 0.3164 0.3164 0.316403 0.316404 0.316404 0.316404 0.316404 0.316432 0.316391 0.316364 0.316354 0.316351 0.316352 0.316355 0.316358 0.316362 0.316366 0.31637 0.316374 0.316377 0.31638 0.316381 0.316385 0.316387 0.316389 0.316392 0.316393 0.316396 0.316397 0.316397 0.3164 0.3164 0.316402 0.316403 0.316405 0.316405 0.316404 0.316404 0.316403 0.316548 0.316483 0.316447 0.316423 0.316411 0.316403 0.3164 0.3164 0.3164 0.3164 0.316401 0.316402 0.316402 0.316402 0.316403 0.316404 0.316403 0.316406 0.316404 0.316403 0.316404 0.316403 0.316403 0.316405 0.316405 0.316404 0.316405 0.316407 0.316405 0.316405 0.316404 0.316403 0.316634 0.316594 0.316521 0.316491 0.316471 0.316458 0.31645 0.316445 0.31644 0.316438 0.316434 0.31643 0.31643 0.316427 0.316425 0.316424 0.316422 0.31642 0.316418 0.316415 0.316415 0.316413 0.316411 0.31641 0.316411 0.316409 0.316408 0.316408 0.316407 0.316406 0.316404 0.316404 0.31692 0.316653 0.3166 0.316564 0.316537 0.316517 0.316504 0.316492 0.316483 0.316475 0.31647 0.316463 0.316459 0.316453 0.316448 0.316444 0.316441 0.316435 0.316432 0.316429 0.316426 0.316423 0.316419 0.316416 0.316415 0.316413 0.316411 0.31641 0.316407 0.316406 0.316404 0.316404 0.315628 0.31595 0.316059 0.316122 0.316163 0.316193 0.316217 0.316236 0.316253 0.316267 0.31628 0.316292 0.316304 0.316314 0.316324 0.316334 0.316344 0.316351 0.31636 0.316367 0.316375 0.31638 0.316385 0.31639 0.316396 0.3164 0.316402 0.316406 0.316406 0.316408 0.316409 0.316409 0.316083 0.316021 0.316107 0.316156 0.316194 0.316221 0.316241 0.316257 0.316273 0.316285 0.316296 0.316306 0.316316 0.316326 0.316335 0.316343 0.316351 0.316356 0.316364 0.316371 0.316378 0.316384 0.316386 0.31639 0.316395 0.316398 0.3164 0.316403 0.316405 0.316406 0.316407 0.316409 0.31619 0.316182 0.316189 0.316216 0.316239 0.316259 0.316273 0.316286 0.316298 0.316308 0.316317 0.316326 0.316333 0.31634 0.316348 0.316354 0.31636 0.316367 0.316371 0.316377 0.316383 0.316386 0.316389 0.316392 0.316395 0.3164 0.316401 0.316403 0.316405 0.316406 0.316405 0.316408 0.316322 0.316287 0.316281 0.316284 0.316294 0.316303 0.316311 0.31632 0.316328 0.316336 0.316343 0.316348 0.316355 0.316359 0.316364 0.316368 0.316373 0.316376 0.316381 0.316386 0.316389 0.316391 0.316393 0.316395 0.316399 0.3164 0.316401 0.316404 0.316405 0.316406 0.316406 0.316405 0.316434 0.316392 0.316365 0.316355 0.316351 0.316352 0.316356 0.316359 0.316363 0.316367 0.316371 0.316374 0.316378 0.316381 0.316382 0.316386 0.316389 0.316389 0.316394 0.316395 0.316398 0.316398 0.316398 0.316399 0.316401 0.316403 0.316403 0.316405 0.316405 0.316406 0.316406 0.316403 0.316547 0.316483 0.316449 0.316422 0.316411 0.316405 0.316403 0.316401 0.316401 0.316401 0.3164 0.316403 0.316402 0.316403 0.316404 0.316405 0.316404 0.316404 0.316406 0.316406 0.316405 0.316404 0.316405 0.316405 0.316405 0.316406 0.316407 0.316406 0.316403 0.316405 0.316404 0.316404 0.316633 0.316591 0.316519 0.316489 0.316471 0.316459 0.31645 0.316445 0.316441 0.316438 0.316434 0.316432 0.316429 0.316428 0.316426 0.316424 0.316423 0.316419 0.316419 0.316418 0.316415 0.316412 0.316412 0.31641 0.316409 0.316409 0.316408 0.316408 0.316405 0.316406 0.316405 0.316404 0.316919 0.316646 0.316594 0.316559 0.316536 0.316518 0.316504 0.316492 0.316485 0.316476 0.316469 0.316464 0.316459 0.316454 0.316449 0.316445 0.316441 0.316437 0.316431 0.316429 0.316426 0.316422 0.316419 0.316418 0.316415 0.316414 0.316411 0.31641 0.316408 0.316407 0.316406 0.316406 0.315652 0.315973 0.316078 0.316137 0.316175 0.316202 0.316222 0.316239 0.316256 0.316271 0.316283 0.316294 0.316306 0.316316 0.316326 0.316336 0.316345 0.316352 0.316359 0.316368 0.316374 0.316381 0.316387 0.316392 0.316397 0.316399 0.3164 0.316405 0.316406 0.316407 0.316409 0.316408 0.316081 0.316037 0.316119 0.316166 0.316198 0.316222 0.316242 0.316257 0.316271 0.316285 0.316296 0.316306 0.316317 0.316325 0.316334 0.316343 0.316351 0.316357 0.316365 0.316372 0.316376 0.316383 0.316388 0.316389 0.316395 0.316399 0.316402 0.316402 0.316405 0.316407 0.316408 0.316409 0.316193 0.31619 0.316195 0.316221 0.316242 0.316258 0.316271 0.316285 0.316296 0.316305 0.316315 0.316325 0.316333 0.31634 0.316347 0.316354 0.316361 0.316366 0.316372 0.316379 0.316383 0.316385 0.316389 0.316392 0.316396 0.316398 0.316401 0.316403 0.316404 0.316405 0.316406 0.316407 0.316322 0.316291 0.316283 0.316285 0.316294 0.316303 0.316312 0.316319 0.316327 0.316334 0.31634 0.316349 0.316355 0.316359 0.316364 0.316369 0.316374 0.316376 0.316382 0.316386 0.316389 0.316392 0.316393 0.316394 0.316396 0.316399 0.316401 0.316406 0.316403 0.316406 0.316407 0.316405 0.316433 0.316391 0.316366 0.316355 0.316352 0.316354 0.316358 0.31636 0.316364 0.316368 0.31637 0.316374 0.316379 0.316381 0.316383 0.316386 0.316387 0.31639 0.316391 0.316394 0.316398 0.316398 0.316398 0.316399 0.3164 0.316402 0.316404 0.316407 0.316404 0.316405 0.316405 0.316405 0.316549 0.31648 0.316446 0.316422 0.316412 0.316407 0.316404 0.316402 0.316401 0.316401 0.316402 0.316403 0.316402 0.316404 0.316406 0.316403 0.316403 0.316404 0.316405 0.316404 0.316404 0.316404 0.316405 0.316406 0.316405 0.316404 0.316406 0.316407 0.316406 0.316404 0.316404 0.316402 0.316637 0.316584 0.316516 0.316487 0.316468 0.316459 0.316452 0.316446 0.31644 0.316438 0.316437 0.316433 0.316431 0.316429 0.316426 0.316424 0.316422 0.31642 0.316419 0.316417 0.316415 0.316414 0.316413 0.316411 0.316411 0.31641 0.316407 0.316409 0.316406 0.316406 0.316406 0.316405 0.316913 0.31664 0.316588 0.316554 0.316532 0.316516 0.316504 0.316493 0.316484 0.316478 0.316472 0.316466 0.31646 0.316454 0.316448 0.316444 0.316441 0.316437 0.316433 0.31643 0.316426 0.316422 0.316421 0.316418 0.316416 0.316414 0.316412 0.316411 0.316407 0.316408 0.316409 0.316407 0.315733 0.315994 0.316108 0.316166 0.316196 0.316216 0.316233 0.316248 0.316261 0.316272 0.316284 0.316295 0.316309 0.316318 0.316326 0.316336 0.316345 0.316353 0.316361 0.316367 0.316373 0.316382 0.316385 0.316389 0.316394 0.316398 0.316401 0.316404 0.316406 0.316409 0.316409 0.316407 0.316107 0.316056 0.31613 0.316173 0.316203 0.316226 0.316245 0.316258 0.316271 0.316284 0.316295 0.316303 0.316315 0.316324 0.316332 0.316341 0.316348 0.316357 0.316364 0.316371 0.316379 0.316381 0.316386 0.316393 0.316395 0.316395 0.316399 0.316403 0.316406 0.316406 0.316409 0.316407 0.316205 0.316185 0.316202 0.316225 0.316241 0.316258 0.316273 0.316284 0.316294 0.316304 0.316313 0.316321 0.316331 0.316339 0.316347 0.316352 0.316358 0.316363 0.31637 0.316375 0.316382 0.316386 0.316389 0.316394 0.316396 0.316398 0.3164 0.316404 0.316405 0.316404 0.316408 0.316407 0.316327 0.316289 0.316287 0.316291 0.316297 0.316304 0.316314 0.316322 0.316328 0.316334 0.31634 0.316344 0.316353 0.316359 0.316362 0.316365 0.31637 0.316378 0.316381 0.316384 0.316388 0.316393 0.316395 0.316395 0.316398 0.316399 0.316401 0.316404 0.316404 0.316404 0.316404 0.316405 0.316432 0.316394 0.316367 0.316359 0.316356 0.316357 0.316361 0.316363 0.316365 0.316368 0.316371 0.316374 0.316379 0.31638 0.316381 0.316383 0.316388 0.316391 0.316393 0.316396 0.316395 0.316399 0.3164 0.316398 0.3164 0.316402 0.316402 0.316403 0.316404 0.316404 0.316402 0.316405 0.316539 0.316484 0.316444 0.316424 0.316414 0.316409 0.316406 0.316405 0.316404 0.316406 0.316406 0.316405 0.316406 0.316404 0.316402 0.316403 0.316405 0.316404 0.316405 0.316406 0.316405 0.316406 0.316405 0.316404 0.316406 0.316406 0.316405 0.316404 0.316406 0.316405 0.316404 0.316406 0.316621 0.316584 0.316512 0.316482 0.316466 0.316458 0.316452 0.316448 0.316446 0.316443 0.316438 0.316434 0.316432 0.316428 0.316426 0.316425 0.316421 0.316422 0.316419 0.316419 0.316416 0.316412 0.316413 0.316413 0.316412 0.316407 0.316406 0.316408 0.316406 0.316407 0.316407 0.316403 0.31687 0.316652 0.316578 0.316541 0.316523 0.316511 0.316503 0.316496 0.31649 0.316481 0.316473 0.316467 0.316463 0.316457 0.316452 0.316448 0.316442 0.316437 0.316432 0.316432 0.316427 0.316423 0.316421 0.31642 0.316416 0.316412 0.316411 0.316411 0.31641 0.316409 0.316407 0.316406 0.315649 0.316072 0.316168 0.316201 0.316219 0.316231 0.316244 0.316255 0.316267 0.316278 0.31629 0.316301 0.316311 0.316322 0.316331 0.316339 0.316346 0.316355 0.316361 0.316367 0.316374 0.31638 0.316385 0.316389 0.316394 0.316396 0.316399 0.316405 0.316405 0.316406 0.316406 0.316406 0.315966 0.316072 0.316155 0.316192 0.316212 0.316223 0.316237 0.316251 0.316262 0.316274 0.316287 0.316298 0.316309 0.316319 0.316328 0.316338 0.316345 0.316352 0.31636 0.316367 0.316374 0.31638 0.316384 0.316388 0.316393 0.316398 0.316401 0.316403 0.316404 0.316406 0.316406 0.316408 0.316135 0.316202 0.31622 0.31624 0.316255 0.316264 0.316273 0.316283 0.316291 0.316301 0.31631 0.316318 0.316326 0.316335 0.316341 0.316349 0.316356 0.316362 0.316369 0.316375 0.316378 0.316383 0.316388 0.31639 0.316393 0.316397 0.316399 0.3164 0.316402 0.316405 0.316406 0.316406 0.316301 0.316301 0.316299 0.316302 0.316306 0.316313 0.316318 0.316322 0.316329 0.316334 0.316341 0.316346 0.316352 0.316357 0.316362 0.316367 0.31637 0.316374 0.316378 0.316382 0.316386 0.31639 0.316392 0.316395 0.316397 0.316398 0.316401 0.316404 0.316401 0.316405 0.316405 0.316405 0.316449 0.316395 0.316373 0.316363 0.316362 0.316363 0.316364 0.316366 0.316368 0.316371 0.316374 0.316376 0.316378 0.316379 0.316383 0.316386 0.316387 0.316389 0.316391 0.316393 0.316396 0.316395 0.316398 0.316399 0.316401 0.316401 0.316401 0.316406 0.316404 0.316405 0.316405 0.316403 0.316597 0.316478 0.316441 0.316424 0.316417 0.316415 0.316412 0.31641 0.316409 0.316407 0.316407 0.316406 0.316406 0.316406 0.316405 0.316405 0.316405 0.316404 0.316405 0.316404 0.316404 0.316405 0.316405 0.316404 0.316404 0.316405 0.316404 0.316404 0.316404 0.316405 0.316404 0.316403 0.316732 0.316568 0.316503 0.31648 0.316471 0.316465 0.31646 0.316455 0.31645 0.316446 0.316443 0.316438 0.316435 0.316433 0.316429 0.316425 0.316425 0.31642 0.316419 0.316419 0.316416 0.316415 0.316415 0.316411 0.31641 0.316409 0.316407 0.316406 0.316405 0.316404 0.316403 0.316403 0.316984 0.316617 0.316549 0.316528 0.316519 0.316512 0.316506 0.316498 0.316488 0.316483 0.316476 0.316469 0.316463 0.316457 0.316452 0.316446 0.316443 0.316438 0.316435 0.31643 0.316426 0.316424 0.316421 0.316418 0.316415 0.316414 0.31641 0.316409 0.316406 0.316406 0.316405 0.316405 
SCALARS volume_diff float 1
LOOKUP_TABLE default
0.313634 0.3141 0.314211 0.314247 0.314263 0.314275 0.314288 0.314299 0.314311 0.314323 0.314335 0.314346 0.314356 0.314367 0.314376 0.314385 0.314393 0.3144 0.314408 0.314415 0.314421 0.314427 0.314432 0.314437 0.314442 0.314445 0.314447 0.31445 0.314452 0.314454 0.314454 0.314455 0.313971 0.314102 0.314195 0.314235 0.314255 0.314269 0.314281 0.314294 0.314306 0.314318 0.314331 0.314342 0.314353 0.314363 0.314374 0.314383 0.31439 0.314399 0.314408 0.314414 0.314421 0.314427 0.314431 0.314436 0.314441 0.314445 0.314446 0.31445 0.314451 0.314453 0.314455 0.314457 0.314158 0.314235 0.314261 0.314284 0.314298 0.314309 0.314318 0.314326 0.314335 0.314345 0.314355 0.314364 0.314372 0.31438 0.314389 0.314396 0.314402 0.314408 0.314416 0.31442 0.314425 0.314431 0.314435 0.314438 0.314442 0.314445 0.314446 0.314448 0.314449 0.314453 0.314454 0.314455 0.314345 0.314345 0.314343 0.314347 0.314353 0.314358 0.314363 0.314369 0.314375 0.314381 0.314388 0.314393 0.314398 0.314404 0.314409 0.314414 0.314419 0.314422 0.314427 0.31443 0.314432 0.314437 0.314439 0.314442 0.314444 0.314446 0.314447 0.314449 0.314449 0.31445 0.314452 0.314453 0.314512 0.314449 0.31442 0.314411 0.31441 0.314411 0.314412 0.314415 0.314418 0.31442 0.314423 0.314424 0.314428 0.314429 0.314432 0.314435 0.314435 0.314439 0.314439 0.314441 0.314443 0.314446 0.314445 0.314447 0.314447 0.314449 0.314448 0.31445 0.314449 0.31445 0.314451 0.31445 0.314677 0.314542 0.314493 0.314472 0.314465 0.314463 0.314462 0.31446 0.31446 0.31446 0.314458 0.314458 0.314458 0.314456 0.314455 0.314455 0.314455 0.314455 0.314454 0.314454 0.314454 0.314454 0.314454 0.314453 0.314453 0.314453 0.314451 0.314452 0.314451 0.314452 0.314451 0.31445 0.314834 0.314637 0.314553 0.314527 0.314518 0.314514 0.31451 0.314507 0.314502 0.314498 0.314495 0.314491 0.314487 0.314483 0.31448 0.314476 0.314475 0.314471 0.314469 0.314468 0.314466 0.314462 0.314461 0.31446 0.314459 0.314457 0.314455 0.314455 0.314453 0.314452 0.314453 0.31445 0.31509 0.314685 0.314602 0.314579 0.31457 0.314563 0.314556 0.314548 0.314541 0.314533 0.314528 0.314521 0.314514 0.314508 0.314503 0.314497 0.314493 0.314487 0.314483 0.314479 0.314476 0.314472 0.314469 0.314467 0.314464 0.314462 0.314459 0.314457 0.314456 0.314456 0.314454 0.314452 0.313768 0.313996 0.31413 0.314201 0.31424 0.314262 0.314278 0.314291 0.314305 0.314318 0.31433 0.314342 0.314353 0.314362 0.314372 0.314381 0.314391 0.314399 0.314405 0.314413 0.314421 0.314425 0.314431 0.314437 0.314441 0.314444 0.314447 0.31445 0.314452 0.314453 0.314455 0.314454 0.314147 0.31408 0.314165 0.314218 0.314254 0.314276 0.314291 0.314307 0.314319 0.31433 0.314342 0.314352 0.314362 0.314369 0.314379 0.314388 0.314395 0.314402 0.314408 0.314417 0.314422 0.314426 0.314432 0.314437 0.314441 0.314445 0.314446 0.31445 0.314451 0.314453 0.314453 0.314455 0.314248 0.314221 0.314242 0.314267 0.314289 0.314306 0.314319 0.314331 0.314341 0.314351 0.31436 0.314368 0.314377 0.314384 0.314391 0.314398 0.314404 0.31441 0.314416 0.314422 0.314427 0.31443 0.314434 0.314439 0.314441 0.314445 0.314447 0.314449 0.31445 0.314452 0.314451 0.314453 0.314374 0.314334 0.314332 0.314335 0.314343 0.314351 0.31436 0.314367 0.314374 0.314382 0.314388 0.314395 0.3144 0.314405 0.314409 0.314414 0.314418 0.314421 0.314427 0.31443 0.314434 0.314437 0.314439 0.314443 0.314444 0.314447 0.314448 0.314449 0.31445 0.314451 0.31445 0.314452 0.31448 0.314446 0.314416 0.314406 0.314401 0.314401 0.314404 0.314408 0.314412 0.314415 0.31442 0.314423 0.314425 0.314427 0.314429 0.314431 0.314434 0.314435 0.314439 0.314441 0.314443 0.314444 0.314445 0.314446 0.314446 0.31445 0.314449 0.314451 0.31445 0.314451 0.314451 0.314451 0.314589 0.314546 0.314498 0.314471 0.314459 0.314452 0.314451 0.314451 0.314452 0.314452 0.314452 0.314452 0.314451 0.314452 0.314452 0.314452 0.314453 0.314453 0.314452 0.314452 0.314453 0.314453 0.314452 0.314453 0.314452 0.314452 0.314452 0.314452 0.314452 0.314452 0.314452 0.31445 0.314673 0.314653 0.314571 0.314533 0.314514 0.314502 0.314498 0.314494 0.31449 0.314488 0.314486 0.314482 0.31448 0.314477 0.314474 0.314472 0.314469 0.314467 0.314465 0.314463 0.314464 0.314461 0.314459 0.31446 0.314458 0.314456 0.314454 0.314455 0.314454 0.314452 0.314452 0.314451 0.314922 0.314744 0.314654 0.314603 0.314576 0.314561 0.314551 0.314543 0.314537 0.314531 0.314525 0.314518 0.314512 0.314506 0.314501 0.314495 0.314491 0.314484 0.314481 0.314478 0.314474 0.314471 0.314467 0.314465 0.314463 0.31446 0.314458 0.314456 0.314456 0.314454 0.314453 0.314452 0.31369 0.313998 0.314105 0.314172 0.314215 0.314246 0.314269 0.314287 0.314301 0.314315 0.314328 0.31434 0.314351 0.314361 0.314371 0.314382 0.31439 0.314398 0.314406 0.314415 0.314421 0.314426 0.314433 0.314437 0.314441 0.314446 0.314449 0.314452 0.314453 0.314455 0.314454 0.314454 0.314122 0.314073 0.314155 0.314208 0.314245 0.314271 0.314291 0.314306 0.314319 0.314332 0.314344 0.314354 0.314364 0.314373 0.314381 0.314389 0.314396 0.314405 0.314412 0.314418 0.314424 0.314428 0.314433 0.314438 0.31444 0.314445 0.314447 0.31445 0.31445 0.314453 0.314453 0.314455 0.314235 0.314229 0.314236 0.314264 0.314288 0.314305 0.314321 0.314334 0.314344 0.314354 0.314364 0.314372 0.31438 0.314387 0.314395 0.314401 0.314406 0.314412 0.314418 0.314424 0.314428 0.314432 0.314436 0.31444 0.314442 0.314445 0.314446 0.31445 0.31445 0.314452 0.314453 0.314454 0.314368 0.314335 0.314328 0.314332 0.314342 0.314351 0.314358 0.314367 0.314375 0.314383 0.314389 0.314394 0.3144 0.314405 0.31441 0.314415 0.31442 0.314423 0.314426 0.314431 0.314436 0.314437 0.314441 0.314443 0.314445 0.314447 0.314448 0.31445 0.31445 0.314451 0.314453 0.314452 0.314481 0.314441 0.314414 0.314401 0.314399 0.3144 0.314403 0.314406 0.314411 0.314415 0.314418 0.31442 0.314424 0.314426 0.314428 0.314432 0.314435 0.314435 0.314437 0.314441 0.314443 0.314444 0.314447 0.314449 0.314448 0.314449 0.314449 0.314451 0.314451 0.314451 0.314452 0.314451 0.314598 0.314532 0.314498 0.31447 0.314458 0.314452 0.314448 0.314446 0.314448 0.314448 0.314448 0.31445 0.314451 0.31445 0.31445 0.314451 0.314451 0.314451 0.31445 0.314451 0.314452 0.314453 0.314452 0.314452 0.314452 0.314452 0.314451 0.314454 0.314452 0.314452 0.314452 0.31445 0.314689 0.314641 0.314572 0.314539 0.314518 0.314505 0.314497 0.314491 0.314488 0.314484 0.314481 0.31448 0.314479 0.314476 0.314473 0.314472 0.314469 0.314468 0.314465 0.314464 0.314463 0.314461 0.31446 0.314458 0.314458 0.314455 0.314454 0.314456 0.314453 0.314453 0.314452 0.31445 0.314965 0.314708 0.314655 0.314614 0.314585 0.314566 0.314551 0.314541 0.314533 0.314525 0.314519 0.314513 0.314508 0.314504 0.314499 0.314494 0.314488 0.314484 0.31448 0.314476 0.314473 0.31447 0.314469 0.314465 0.314462 0.314461 0.314458 0.314456 0.314454 0.314453 0.314453 0.314451 0.313672 0.313989 0.314099 0.314164 0.314207 0.314238 0.314263 0.314283 0.314298 0.314313 0.314326 0.314337 0.314349 0.314361 0.314372 0.31438 0.314389 0.314396 0.314406 0.314415 0.314422 0.314427 0.314433 0.314436 0.314441 0.314446 0.314449 0.314454 0.314455 0.314456 0.314453 0.314455 0.314127 0.314063 0.314149 0.314201 0.314239 0.314267 0.314288 0.314305 0.31432 0.314332 0.314344 0.314353 0.314362 0.314373 0.314381 0.314389 0.314396 0.314403 0.314413 0.314419 0.314423 0.314428 0.314434 0.314436 0.314441 0.314446 0.314448 0.31445 0.314451 0.314453 0.314454 0.314456 0.314236 0.314225 0.314234 0.314263 0.314286 0.314305 0.31432 0.314333 0.314344 0.314354 0.314364 0.314371 0.314379 0.314387 0.314394 0.3144 0.314406 0.314412 0.314418 0.314425 0.314429 0.314432 0.314437 0.314438 0.314442 0.314446 0.314447 0.314449 0.314449 0.314451 0.314452 0.314453 0.314368 0.314333 0.314328 0.314331 0.31434 0.314349 0.314359 0.314367 0.314375 0.314382 0.314389 0.314395 0.3144 0.314405 0.31441 0.314415 0.314419 0.314423 0.314427 0.314431 0.314435 0.314437 0.314441 0.314443 0.314445 0.314447 0.314447 0.31445 0.314451 0.314451 0.314451 0.314451 0.314479 0.314437 0.314411 0.314401 0.314398 0.314399 0.314402 0.314405 0.314409 0.314412 0.314417 0.314421 0.314424 0.314427 0.314428 0.314432 0.314434 0.314436 0.314439 0.31444 0.314443 0.314444 0.314444 0.314447 0.314447 0.314449 0.314449 0.314452 0.314452 0.314451 0.314451 0.31445 0.314595 0.31453 0.314494 0.31447 0.314458 0.31445 0.314447 0.314447 0.314447 0.314447 0.314448 0.314449 0.314449 0.314449 0.31445 0.314451 0.31445 0.314452 0.314451 0.31445 0.314451 0.31445 0.31445 0.314452 0.314452 0.314451 0.314452 0.314454 0.314452 0.314452 0.314451 0.31445 0.314681 0.314641 0.314568 0.314537 0.314518 0.314505 0.314497 0.314492 0.314487 0.314485 0.314481 0.314477 0.314477 0.314473 0.314472 0.314471 0.314469 0.314467 0.314465 0.314462 0.314462 0.31446 0.314458 0.314457 0.314458 0.314456 0.314455 0.314455 0.314454 0.314452 0.314451 0.314451 0.314967 0.3147 0.314647 0.314611 0.314584 0.314564 0.31455 0.314539 0.31453 0.314522 0.314517 0.31451 0.314506 0.3145 0.314495 0.314491 0.314488 0.314482 0.314479 0.314475 0.314473 0.31447 0.314466 0.314463 0.314462 0.31446 0.314458 0.314456 0.314454 0.314452 0.314451 0.314451 0.313675 0.313997 0.314106 0.314169 0.31421 0.31424 0.314264 0.314283 0.314299 0.314314 0.314327 0.314339 0.314351 0.314361 0.31437 0.314381 0.31439 0.314398 0.314407 0.314414 0.314422 0.314427 0.314432 0.314437 0.314443 0.314447 0.314449 0.314453 0.314453 0.314455 0.314455 0.314455 0.314129 0.314068 0.314154 0.314203 0.314241 0.314268 0.314288 0.314304 0.31432 0.314332 0.314343 0.314353 0.314363 0.314373 0.314382 0.31439 0.314398 0.314403 0.314411 0.314418 0.314425 0.314431 0.314433 0.314436 0.314441 0.314445 0.314447 0.31445 0.314452 0.314452 0.314454 0.314455 0.314237 0.314229 0.314236 0.314263 0.314286 0.314306 0.31432 0.314333 0.314345 0.314355 0.314364 0.314373 0.31438 0.314387 0.314395 0.314401 0.314407 0.314414 0.314418 0.314424 0.31443 0.314433 0.314436 0.314439 0.314442 0.314447 0.314448 0.31445 0.314452 0.314453 0.314452 0.314454 0.314369 0.314334 0.314328 0.314331 0.31434 0.31435 0.314358 0.314367 0.314374 0.314383 0.31439 0.314395 0.314402 0.314406 0.314411 0.314415 0.314419 0.314423 0.314428 0.314432 0.314436 0.314438 0.31444 0.314442 0.314446 0.314447 0.314447 0.314451 0.314451 0.314453 0.314453 0.314452 0.31448 0.314439 0.314412 0.314402 0.314397 0.314399 0.314403 0.314406 0.31441 0.314414 0.314418 0.314421 0.314425 0.314428 0.314429 0.314433 0.314436 0.314436 0.314441 0.314441 0.314445 0.314445 0.314445 0.314446 0.314448 0.31445 0.31445 0.314452 0.314452 0.314453 0.314453 0.31445 0.314594 0.314529 0.314496 0.314469 0.314458 0.314452 0.31445 0.314448 0.314448 0.314448 0.314447 0.31445 0.314449 0.314449 0.314451 0.314451 0.314451 0.314451 0.314452 0.314453 0.314452 0.314451 0.314452 0.314452 0.314451 0.314452 0.314454 0.314453 0.31445 0.314452 0.314451 0.314451 0.31468 0.314637 0.314566 0.314536 0.314518 0.314506 0.314497 0.314492 0.314488 0.314485 0.314481 0.314479 0.314476 0.314475 0.314472 0.314471 0.31447 0.314465 0.314466 0.314465 0.314462 0.314459 0.314459 0.314457 0.314456 0.314456 0.314455 0.314454 0.314452 0.314453 0.314452 0.314451 0.314966 0.314693 0.314641 0.314606 0.314583 0.314565 0.314551 0.314539 0.314532 0.314523 0.314516 0.314511 0.314506 0.314501 0.314496 0.314492 0.314488 0.314484 0.314478 0.314476 0.314473 0.314469 0.314466 0.314464 0.314461 0.314461 0.314458 0.314457 0.314455 0.314454 0.314453 0.314453 0.313699 0.31402 0.314125 0.314184 0.314221 0.314249 0.314269 0.314286 0.314303 0.314318 0.31433 0.314341 0.314353 0.314362 0.314373 0.314383 0.314392 0.314398 0.314406 0.314415 0.31442 0.314428 0.314434 0.314439 0.314444 0.314446 0.314447 0.314452 0.314453 0.314454 0.314456 0.314455 0.314128 0.314084 0.314166 0.314213 0.314245 0.314269 0.314289 0.314304 0.314318 0.314332 0.314342 0.314353 0.314364 0.314372 0.314381 0.31439 0.314398 0.314404 0.314411 0.314419 0.314422 0.31443 0.314435 0.314436 0.314442 0.314446 0.314449 0.314449 0.314452 0.314454 0.314455 0.314456 0.31424 0.314237 0.314242 0.314268 0.314288 0.314305 0.314318 0.314332 0.314343 0.314352 0.314362 0.314372 0.31438 0.314387 0.314394 0.314401 0.314408 0.314413 0.314418 0.314426 0.31443 0.314432 0.314436 0.314439 0.314443 0.314445 0.314448 0.31445 0.314451 0.314452 0.314453 0.314454 0.314369 0.314338 0.31433 0.314332 0.314341 0.31435 0.314358 0.314366 0.314374 0.314381 0.314387 0.314396 0.314401 0.314406 0.31441 0.314416 0.314421 0.314423 0.314428 0.314433 0.314436 0.314439 0.314439 0.314441 0.314443 0.314446 0.314448 0.314453 0.31445 0.314453 0.314454 0.314452 0.31448 0.314438 0.314413 0.314402 0.314399 0.314401 0.314405 0.314407 0.314411 0.314415 0.314417 0.314421 0.314426 0.314428 0.31443 0.314433 0.314434 0.314437 0.314438 0.314441 0.314444 0.314445 0.314445 0.314446 0.314447 0.314449 0.314451 0.314454 0.314451 0.314452 0.314452 0.314451 0.314596 0.314526 0.314493 0.314469 0.314459 0.314454 0.314451 0.314449 0.314448 0.314448 0.314449 0.314449 0.314449 0.314451 0.314453 0.31445 0.31445 0.314451 0.314452 0.314451 0.314451 0.314451 0.314452 0.314453 0.314452 0.314451 0.314453 0.314454 0.314453 0.314451 0.314451 0.314449 0.314683 0.314631 0.314563 0.314534 0.314515 0.314506 0.314499 0.314493 0.314487 0.314485 0.314484 0.31448 0.314477 0.314476 0.314473 0.314471 0.314469 0.314467 0.314466 0.314464 0.314462 0.314461 0.31446 0.314458 0.314458 0.314457 0.314454 0.314456 0.314453 0.314453 0.314453 0.314452 0.31496 0.314687 0.314635 0.314601 0.314579 0.314563 0.31455 0.31454 0.314531 0.314525 0.314519 0.314513 0.314507 0.314501 0.314495 0.314491 0.314487 0.314484 0.31448 0.314477 0.314473 0.314469 0.314468 0.314465 0.314463 0.314461 0.314458 0.314458 0.314454 0.314455 0.314456 0.314454 0.31378 0.314041 0.314155 0.314212 0.314243 0.314263 0.314279 0.314295 0.314307 0.314319 0.314331 0.314342 0.314355 0.314365 0.314373 0.314383 0.314391 0.3144 0.314408 0.314414 0.31442 0.314429 0.314432 0.314435 0.314441 0.314445 0.314448 0.314451 0.314453 0.314456 0.314456 0.314454 0.314154 0.314103 0.314177 0.31422 0.31425 0.314273 0.314291 0.314305 0.314318 0.314331 0.314342 0.31435 0.314362 0.314371 0.314379 0.314387 0.314395 0.314404 0.314411 0.314418 0.314426 0.314428 0.314433 0.314439 0.314441 0.314442 0.314446 0.31445 0.314453 0.314453 0.314455 0.314454 0.314252 0.314232 0.314249 0.314272 0.314287 0.314305 0.31432 0.31433 0.314341 0.314351 0.31436 0.314368 0.314378 0.314385 0.314394 0.314399 0.314405 0.31441 0.314416 0.314422 0.314429 0.314433 0.314436 0.314441 0.314443 0.314445 0.314447 0.314451 0.314452 0.314451 0.314455 0.314453 0.314374 0.314336 0.314334 0.314338 0.314344 0.314351 0.314361 0.314368 0.314375 0.314381 0.314387 0.314391 0.314399 0.314406 0.314409 0.314412 0.314417 0.314425 0.314428 0.314431 0.314435 0.31444 0.314442 0.314442 0.314445 0.314446 0.314448 0.314451 0.314451 0.314451 0.314451 0.314452 0.314479 0.314441 0.314414 0.314406 0.314403 0.314404 0.314408 0.31441 0.314412 0.314415 0.314418 0.314421 0.314426 0.314427 0.314428 0.31443 0.314435 0.314438 0.31444 0.314443 0.314441 0.314445 0.314446 0.314445 0.314447 0.314449 0.314449 0.31445 0.314451 0.31445 0.314449 0.314452 0.314586 0.314531 0.314491 0.314471 0.314461 0.314456 0.314453 0.314452 0.314451 0.314453 0.314452 0.314452 0.314453 0.314451 0.314449 0.314449 0.314452 0.314451 0.314452 0.314452 0.314452 0.314453 0.314452 0.314451 0.314453 0.314453 0.314452 0.314451 0.314452 0.314452 0.314451 0.314453 0.314668 0.314631 0.314559 0.314529 0.314513 0.314505 0.314499 0.314495 0.314493 0.31449 0.314484 0.314481 0.314478 0.314475 0.314473 0.314472 0.314468 0.314469 0.314466 0.314466 0.314463 0.314459 0.31446 0.314459 0.314459 0.314454 0.314453 0.314455 0.314453 0.314453 0.314454 0.31445 0.314917 0.314699 0.314625 0.314588 0.31457 0.314558 0.31455 0.314543 0.314537 0.314528 0.31452 0.314514 0.31451 0.314504 0.314499 0.314494 0.314489 0.314484 0.314479 0.314479 0.314474 0.31447 0.314468 0.314467 0.314463 0.314459 0.314458 0.314458 0.314457 0.314455 0.314454 0.314453 0.313696 0.314119 0.314215 0.314248 0.314266 0.314278 0.31429 0.314302 0.314313 0.314325 0.314337 0.314348 0.314358 0.314368 0.314378 0.314386 0.314393 0.314401 0.314408 0.314414 0.314421 0.314427 0.314431 0.314436 0.314441 0.314443 0.314446 0.314452 0.314452 0.314453 0.314453 0.314453 0.314013 0.314119 0.314202 0.314239 0.314258 0.31427 0.314284 0.314298 0.314309 0.314321 0.314333 0.314344 0.314355 0.314366 0.314375 0.314384 0.314392 0.314399 0.314407 0.314414 0.314421 0.314426 0.314431 0.314435 0.31444 0.314444 0.314448 0.31445 0.31445 0.314453 0.314452 0.314455 0.314182 0.314249 0.314267 0.314287 0.314301 0.314311 0.31432 0.31433 0.314338 0.314348 0.314357 0.314365 0.314373 0.314382 0.314388 0.314396 0.314403 0.314409 0.314416 0.314422 0.314425 0.314429 0.314435 0.314437 0.31444 0.314443 0.314446 0.314447 0.314449 0.314452 0.314453 0.314453 0.314348 0.314348 0.314345 0.314349 0.314353 0.31436 0.314365 0.314368 0.314376 0.314381 0.314387 0.314393 0.314398 0.314404 0.314408 0.314414 0.314417 0.314421 0.314425 0.314429 0.314433 0.314437 0.314439 0.314442 0.314444 0.314445 0.314448 0.314451 0.314448 0.314452 0.314452 0.314452 0.314496 0.314442 0.31442 0.31441 0.314409 0.31441 0.314411 0.314413 0.314415 0.314417 0.314421 0.314423 0.314425 0.314426 0.31443 0.314433 0.314434 0.314436 0.314438 0.31444 0.314442 0.314441 0.314445 0.314446 0.314448 0.314448 0.314448 0.314452 0.31445 0.314452 0.314452 0.31445 0.314644 0.314525 0.314488 0.31447 0.314464 0.314462 0.314459 0.314457 0.314456 0.314454 0.314454 0.314453 0.314453 0.314453 0.314452 0.314452 0.314452 0.314451 0.314452 0.314451 0.314451 0.314452 0.314452 0.314451 0.314451 0.314451 0.314451 0.314451 0.314451 0.314452 0.314451 0.31445 0.314779 0.314615 0.31455 0.314527 0.314518 0.314512 0.314507 0.314502 0.314497 0.314492 0.31449 0.314485 0.314482 0.31448 0.314476 0.314472 0.314471 0.314467 0.314466 0.314465 0.314463 0.314462 0.314462 0.314458 0.314457 0.314456 0.314453 0.314453 0.314451 0.314451 0.314449 0.31445 0.31503 0.314664 0.314596 0.314575 0.314566 0.314559 0.314553 0.314545 0.314535 0.31453 0.314523 0.314516 0.31451 0.314504 0.314499 0.314493 0.31449 0.314485 0.314482 0.314477 0.314473 0.314471 0.314468 0.314465 0.314462 0.314461 0.314457 0.314456 0.314453 0.314453 0.314452 0.314452 
