# vtk DataFile Version 5.1
vtk output
ASCII

DATASET UNSTRUCTURED_GRID
POINTS 2673 float
0 0 2.2
0.25 0 2.2
0.5 0 2.2
0.75 0 2.2
1 0 2.2
1.25 0 2.2
1.5 0 2.2
1.75 0 2.2
2 0 2.2
2.25 0 2.2
2.5 0 2.2
2.75 0 2.2
3 0 2.2
3.25 0 2.2
3.5 0 2.2
3.75 0 2.2
4 0 2.2
0 0.25 2.2
0.25 0.25 2.2
0.5 0.25 2.2
0.75 0.25 2.2
1 0.25 2.2
1.25 0.25 2.2
1.5 0.25 2.2
1.75 0.25 2.2
2 0.25 2.2
2.25 0.25 2.2
2.5 0.25 2.2
2.75 0.25 2.2
3 0.25 2.2
3.25 0.25 2.2
3.5 0.25 2.2
3.75 0.25 2.2
4 0.25 2.2
0 0.5 2.2
0.25 0.5 2.2
0.5 0.5 2.2
0.75 0.5 2.2
1 0.5 2.2
1.25 0.5 2.2
1.5 0.5 2.2
1.75 0.5 2.2
2 0.5 2.2
2.25 0.5 2.2
2.5 0.5 2.2
2.75 0.5 2.2
3 0.5 2.2
3.25 0.5 2.2
3.5 0.5 2.2
3.75 0.5 2.2
4 0.5 2.2
0 0.75 2.2
0.25 0.75 2.2
0.5 0.75 2.2
0.75 0.75 2.2
1 0.75 2.2
1.25 0.75 2.2
1.5 0.75 2.2
1.75 0.75 2.2
2 0.75 2.2
2.25 0.75 2.2
2.5 0.75 2.2
2.75 0.75 2.2
3 0.75 2.2
3.25 0.75 2.2
3.5 0.75 2.2
3.75 0.75 2.2
4 0.75 2.2
0 1 2.2
0.25 1 2.2
0.5 1 2.2
0.75 1 2.2
1 1 2.2
1.25 1 2.2
1.5 1 2.2
1.75 1 2.2
2 1 2.2
2.25 1 2.2
2.5 1 2.2
2.75 1 2.2
3 1 2.2
3.25 1 2.2
3.5 1 2.2
3.75 1 2.2
4 1 2.2
0 0 2.45
0.25 0 2.45
0.5 0 2.45
0.75 0 2.45
1 0 2.45
1.25 0 2.45
1.5 0 2.45
1.75 0 2.45
2 0 2.45
2.25 0 2.45
2.5 0 2.45
2.75 0 2.45
3 0 2.45
3.25 0 2.45
3.5 0 2.45
3.75 0 2.45
4 0 2.45
0 0.25 2.45
0.25 0.25 2.45
0.5 0.25 2.45
0.75 0.25 2.45
1 0.25 2.45
1.25 0.25 2.45
1.5 0.25 2.45
1.75 0.25 2.45
2 0.25 2.45
2.25 0.25 2.45
2.5 0.25 2.45
2.75 0.25 2.45
3 0.25 2.45
3.25 0.25 2.45
3.5 0.25 2.45
3.75 0.25 2.45
4 0.25 2.45
0 0.5 2.45
0.25 0.5 2.45
0.5 0.5 2.45
0.75 0.5 2.45
1 0.5 2.45
1.25 0.5 2.45
1.5 0.5 2.45
1.75 0.5 2.45
2 0.5 2.45
2.25 0.5 2.45
2.5 0.5 2.45
2.75 0.5 2.45
3 0.5 2.45
3.25 0.5 2.45
3.5 0.5 2.45
3.75 0.5 2.45
4 0.5 2.45
0 0.75 2.45
0.25 0.75 2.45
0.5 0.75 2.45
0.75 0.75 2.45
1 0.75 2.45
1.25 0.75 2.45
1.5 0.75 2.45
1.75 0.75 2.45
2 0.75 2.45
2.25 0.75 2.45
2.5 0.75 2.45
2.75 0.75 2.45
3 0.75 2.45
3.25 0.75 2.45
3.5 0.75 2.45
3.75 0.75 2.45
4 0.75 2.45
0 1 2.45
0.25 1 2.45
0.5 1 2.45
0.75 1 2.45
1 1 2.45
1.25 1 2.45
1.5 1 2.45
1.75 1 2.45
2 1 2.45
2.25 1 2.45
2.5 1 2.45
2.75 1 2.45
3 1 2.45
3.25 1 2.45
3.5 1 2.45
3.75 1 2.45
4 1 2.45
0 0 2.7
0.25 0 2.7
0.5 0 2.7
0.75 0 2.7
1 0 2.7
1.25 0 2.7
1.5 0 2.7
1.75 0 2.7
2 0 2.7
2.25 0 2.7
2.5 0 2.7
2.75 0 2.7
3 0 2.7
3.25 0 2.7
3.5 0 2.7
3.75 0 2.7
4 0 2.7
0 0.25 2.7
0.25 0.25 2.7
0.5 0.25 2.7
0.75 0.25 2.7
1 0.25 2.7
1.25 0.25 2.7
1.5 0.25 2.7
1.75 0.25 2.7
2 0.25 2.7
2.25 0.25 2.7
2.5 0.25 2.7
2.75 0.25 2.7
3 0.25 2.7
3.25 0.25 2.7
3.5 0.25 2.7
3.75 0.25 2.7
4 0.25 2.7
0 0.5 2.7
0.25 0.5 2.7
0.5 0.5 2.7
0.75 0.5 2.7
1 0.5 2.7
1.25 0.5 2.7
1.5 0.5 2.7
1.75 0.5 2.7
2 0.5 2.7
2.25 0.5 2.7
2.5 0.5 2.7
2.75 0.5 2.7
3 0.5 2.7
3.25 0.5 2.7
3.5 0.5 2.7
3.75 0.5 2.7
4 0.5 2.7
0 0.75 2.7
0.25 0.75 2.7
0.5 0.75 2.7
0.75 0.75 2.7
1 0.75 2.7
1.25 0.75 2.7
1.5 0.75 2.7
1.75 0.75 2.7
2 0.75 2.7
2.25 0.75 2.7
2.5 0.75 2.7
2.75 0.75 2.7
3 0.75 2.7
3.25 0.75 2.7
3.5 0.75 2.7
3.75 0.75 2.7
4 0.75 2.7
0 1 2.7
0.25 1 2.7
0.5 1 2.7
0.75 1 2.7
1 1 2.7
1.25 1 2.7
1.5 1 2.7
1.75 1 2.7
2 1 2.7
2.25 1 2.7
2.5 1 2.7
2.75 1 2.7
3 1 2.7
3.25 1 2.7
3.5 1 2.7
3.75 1 2.7
4 1 2.7
0 0 2.95
0.25 0 2.95
0.5 0 2.95
0.75 0 2.95
1 0 2.95
1.25 0 2.95
1.5 0 2.95
1.75 0 2.95
2 0 2.95
2.25 0 2.95
2.5 0 2.95
2.75 0 2.95
3 0 2.95
3.25 0 2.95
3.5 0 2.95
3.75 0 2.95
4 0 2.95
0 0.25 2.95
0.25 0.25 2.95
0.5 0.25 2.95
0.75 0.25 2.95
1 0.25 2.95
1.25 0.25 2.95
1.5 0.25 2.95
1.75 0.25 2.95
2 0.25 2.95
2.25 0.25 2.95
2.5 0.25 2.95
2.75 0.25 2.95
3 0.25 2.95
3.25 0.25 2.95
3.5 0.25 2.95
3.75 0.25 2.95
4 0.25 2.95
0 0.5 2.95
0.25 0.5 2.95
0.5 0.5 2.95
0.75 0.5 2.95
1 0.5 2.95
1.25 0.5 2.95
1.5 0.5 2.95
1.75 0.5 2.95
2 0.5 2.95
2.25 0.5 2.95
2.5 0.5 2.95
2.75 0.5 2.95
3 0.5 2.95
3.25 0.5 2.95
3.5 0.5 2.95
3.75 0.5 2.95
4 0.5 2.95
0 0.75 2.95
0.25 0.75 2.95
0.5 0.75 2.95
0.75 0.75 2.95
1 0.75 2.95
1.25 0.75 2.95
1.5 0.75 2.95
1.75 0.75 2.95
2 0.75 2.95
2.25 0.75 2.95
2.5 0.75 2.95
2.75 0.75 2.95
3 0.75 2.95
3.25 0.75 2.95
3.5 0.75 2.95
3.75 0.75 2.95
4 0.75 2.95
0 1 2.95
0.25 1 2.95
0.5 1 2.95
0.75 1 2.95
1 1 2.95
1.25 1 2.95
1.5 1 2.95
1.75 1 2.95
2 1 2.95
2.25 1 2.95
2.5 1 2.95
2.75 1 2.95
3 1 2.95
3.25 1 2.95
3.5 1 2.95
3.75 1 2.95
4 1 2.95
0 0 3.2
0.25 0 3.2
0.5 0 3.2
0.75 0 3.2
1 0 3.2
1.25 0 3.2
1.5 0 3.2
1.75 0 3.2
2 0 3.2
2.25 0 3.2
2.5 0 3.2
2.75 0 3.2
3 0 3.2
3.25 0 3.2
3.5 0 3.2
3.75 0 3.2
4 0 3.2
0 0.25 3.2
0.25 0.25 3.2
0.5 0.25 3.2
0.75 0.25 3.2
1 0.25 3.2
1.25 0.25 3.2
1.5 0.25 3.2
1.75 0.25 3.2
2 0.25 3.2
2.25 0.25 3.2
2.5 0.25 3.2
2.75 0.25 3.2
3 0.25 3.2
3.25 0.25 3.2
3.5 0.25 3.2
3.75 0.25 3.2
4 0.25 3.2
0 0.5 3.2
0.25 0.5 3.2
0.5 0.5 3.2
0.75 0.5 3.2
1 0.5 3.2
1.25 0.5 3.2
1.5 0.5 3.2
1.75 0.5 3.2
2 0.5 3.2
2.25 0.5 3.2
2.5 0.5 3.2
2.75 0.5 3.2
3 0.5 3.2
3.25 0.5 3.2
3.5 0.5 3.2
3.75 0.5 3.2
4 0.5 3.2
0 0.75 3.2
0.25 0.75 3.2
0.5 0.75 3.2
0.75 0.75 3.2
1 0.75 3.2
1.25 0.75 3.2
1.5 0.75 3.2
1.75 0.75 3.2
2 0.75 3.2
2.25 0.75 3.2
2.5 0.75 3.2
2.75 0.75 3.2
3 0.75 3.2
3.25 0.75 3.2
3.5 0.75 3.2
3.75 0.75 3.2
4 0.75 3.2
0 1 3.2
0.25 1 3.2
0.5 1 3.2
0.75 1 3.2
1 1 3.2
1.25 1 3.2
1.5 1 3.2
1.75 1 3.2
2 1 3.2
2.25 1 3.2
2.5 1 3.2
2.75 1 3.2
3 1 3.2
3.25 1 3.2
3.5 1 3.2
3.75 1 3.2
4 1 3.2
0 0.125 2.2
0.125 0.25 2.325
0.125 0.125 2.325
0.125 0.125 2.2
0.125 0.25 2.2
0.25 0.25 2.325
0.125 0.125 2.45
0.25 0.125 2.45
0.125 0 2.45
0 0 2.325
0.125 0 2.325
0 0.25 2.325
0 0.125 2.325
0.125 0.25 2.45
0 0.125 2.45
0.25 0 2.325
0.125 0 2.2
0.25 0.125 2.325
0.25 0.125 2.2
0.375 0.25 2.325
0.375 0.125 2.325
0.375 0.125 2.2
0.375 0.25 2.2
0.5 0.25 2.325
0.375 0.125 2.45
0.5 0.125 2.45
0.375 0 2.45
0.375 0 2.325
0.375 0.25 2.45
0.5 0 2.325
0.375 0 2.2
0.5 0.125 2.325
0.5 0.125 2.2
0.625 0.25 2.325
0.625 0.125 2.325
0.625 0.125 2.2
0.625 0.25 2.2
0.75 0.25 2.325
0.625 0.125 2.45
0.75 0.125 2.45
0.625 0 2.45
0.625 0 2.325
0.625 0.25 2.45
0.75 0 2.325
0.625 0 2.2
0.75 0.125 2.325
0.75 0.125 2.2
0.875 0.25 2.325
0.875 0.125 2.325
0.875 0.125 2.2
0.875 0.25 2.2
1 0.25 2.325
0.875 0.125 2.45
1 0.125 2.45
0.875 0 2.45
0.875 0 2.325
0.875 0.25 2.45
1 0 2.325
0.875 0 2.2
1 0.125 2.325
1 0.125 2.2
1.125 0.25 2.325
1.125 0.125 2.325
1.125 0.125 2.2
1.125 0.25 2.2
1.25 0.25 2.325
1.125 0.125 2.45
1.25 0.125 2.45
1.125 0 2.45
1.125 0 2.325
1.125 0.25 2.45
1.25 0 2.325
1.125 0 2.2
1.25 0.125 2.325
1.25 0.125 2.2
1.375 0.25 2.325
1.375 0.125 2.325
1.375 0.125 2.2
1.375 0.25 2.2
1.5 0.25 2.325
1.375 0.125 2.45
1.5 0.125 2.45
1.375 0 2.45
1.375 0 2.325
1.375 0.25 2.45
1.5 0 2.325
1.375 0 2.2
1.5 0.125 2.325
1.5 0.125 2.2
1.625 0.25 2.325
1.625 0.125 2.325
1.625 0.125 2.2
1.625 0.25 2.2
1.75 0.25 2.325
1.625 0.125 2.45
1.75 0.125 2.45
1.625 0 2.45
1.625 0 2.325
1.625 0.25 2.45
1.75 0 2.325
1.625 0 2.2
1.75 0.125 2.325
1.75 0.125 2.2
1.875 0.25 2.325
1.875 0.125 2.325
1.875 0.125 2.2
1.875 0.25 2.2
2 0.25 2.325
1.875 0.125 2.45
2 0.125 2.45
1.875 0 2.45
1.875 0 2.325
1.875 0.25 2.45
2 0 2.325
1.875 0 2.2
2 0.125 2.325
2 0.125 2.2
2.125 0.25 2.325
2.125 0.125 2.325
2.125 0.125 2.2
2.125 0.25 2.2
2.25 0.25 2.325
2.125 0.125 2.45
2.25 0.125 2.45
2.125 0 2.45
2.125 0 2.325
2.125 0.25 2.45
2.25 0 2.325
2.125 0 2.2
2.25 0.125 2.325
2.25 0.125 2.2
2.375 0.25 2.325
2.375 0.125 2.325
2.375 0.125 2.2
2.375 0.25 2.2
2.5 0.25 2.325
2.375 0.125 2.45
2.5 0.125 2.45
2.375 0 2.45
2.375 0 2.325
2.375 0.25 2.45
2.5 0 2.325
2.375 0 2.2
2.5 0.125 2.325
2.5 0.125 2.2
2.625 0.25 2.325
2.625 0.125 2.325
2.625 0.125 2.2
2.625 0.25 2.2
2.75 0.25 2.325
2.625 0.125 2.45
2.75 0.125 2.45
2.625 0 2.45
2.625 0 2.325
2.625 0.25 2.45
2.75 0 2.325
2.625 0 2.2
2.75 0.125 2.325
2.75 0.125 2.2
2.875 0.25 2.325
2.875 0.125 2.325
2.875 0.125 2.2
2.875 0.25 2.2
3 0.25 2.325
2.875 0.125 2.45
3 0.125 2.45
2.875 0 2.45
2.875 0 2.325
2.875 0.25 2.45
3 0 2.325
2.875 0 2.2
3 0.125 2.325
3 0.125 2.2
3.125 0.25 2.325
3.125 0.125 2.325
3.125 0.125 2.2
3.125 0.25 2.2
3.25 0.25 2.325
3.125 0.125 2.45
3.25 0.125 2.45
3.125 0 2.45
3.125 0 2.325
3.125 0.25 2.45
3.25 0 2.325
3.125 0 2.2
3.25 0.125 2.325
3.25 0.125 2.2
3.375 0.25 2.325
3.375 0.125 2.325
3.375 0.125 2.2
3.375 0.25 2.2
3.5 0.25 2.325
3.375 0.125 2.45
3.5 0.125 2.45
3.375 0 2.45
3.375 0 2.325
3.375 0.25 2.45
3.5 0 2.325
3.375 0 2.2
3.5 0.125 2.325
3.5 0.125 2.2
3.625 0.25 2.325
3.625 0.125 2.325
3.625 0.125 2.2
3.625 0.25 2.2
3.75 0.25 2.325
3.625 0.125 2.45
3.75 0.125 2.45
3.625 0 2.45
3.625 0 2.325
3.625 0.25 2.45
3.75 0 2.325
3.625 0 2.2
3.75 0.125 2.325
3.75 0.125 2.2
3.875 0.25 2.325
3.875 0.125 2.325
3.875 0.125 2.2
3.875 0.25 2.2
4 0.25 2.325
3.875 0.125 2.45
4 0.125 2.45
3.875 0 2.45
3.875 0 2.325
3.875 0.25 2.45
4 0 2.325
3.875 0 2.2
4 0.125 2.325
4 0.125 2.2
0 0.375 2.2
0.125 0.5 2.325
0.125 0.375 2.325
0.125 0.375 2.2
0.125 0.5 2.2
0.25 0.5 2.325
0.125 0.375 2.45
0.25 0.375 2.45
0 0.5 2.325
0 0.375 2.325
0.125 0.5 2.45
0 0.375 2.45
0.25 0.375 2.325
0.25 0.375 2.2
0.375 0.5 2.325
0.375 0.375 2.325
0.375 0.375 2.2
0.375 0.5 2.2
0.5 0.5 2.325
0.375 0.375 2.45
0.5 0.375 2.45
0.375 0.5 2.45
0.5 0.375 2.325
0.5 0.375 2.2
0.625 0.5 2.325
0.625 0.375 2.325
0.625 0.375 2.2
0.625 0.5 2.2
0.75 0.5 2.325
0.625 0.375 2.45
0.75 0.375 2.45
0.625 0.5 2.45
0.75 0.375 2.325
0.75 0.375 2.2
0.875 0.5 2.325
0.875 0.375 2.325
0.875 0.375 2.2
0.875 0.5 2.2
1 0.5 2.325
0.875 0.375 2.45
1 0.375 2.45
0.875 0.5 2.45
1 0.375 2.325
1 0.375 2.2
1.125 0.5 2.325
1.125 0.375 2.325
1.125 0.375 2.2
1.125 0.5 2.2
1.25 0.5 2.325
1.125 0.375 2.45
1.25 0.375 2.45
1.125 0.5 2.45
1.25 0.375 2.325
1.25 0.375 2.2
1.375 0.5 2.325
1.375 0.375 2.325
1.375 0.375 2.2
1.375 0.5 2.2
1.5 0.5 2.325
1.375 0.375 2.45
1.5 0.375 2.45
1.375 0.5 2.45
1.5 0.375 2.325
1.5 0.375 2.2
1.625 0.5 2.325
1.625 0.375 2.325
1.625 0.375 2.2
1.625 0.5 2.2
1.75 0.5 2.325
1.625 0.375 2.45
1.75 0.375 2.45
1.625 0.5 2.45
1.75 0.375 2.325
1.75 0.375 2.2
1.875 0.5 2.325
1.875 0.375 2.325
1.875 0.375 2.2
1.875 0.5 2.2
2 0.5 2.325
1.875 0.375 2.45
2 0.375 2.45
1.875 0.5 2.45
2 0.375 2.325
2 0.375 2.2
2.125 0.5 2.325
2.125 0.375 2.325
2.125 0.375 2.2
2.125 0.5 2.2
2.25 0.5 2.325
2.125 0.375 2.45
2.25 0.375 2.45
2.125 0.5 2.45
2.25 0.375 2.325
2.25 0.375 2.2
2.375 0.5 2.325
2.375 0.375 2.325
2.375 0.375 2.2
2.375 0.5 2.2
2.5 0.5 2.325
2.375 0.375 2.45
2.5 0.375 2.45
2.375 0.5 2.45
2.5 0.375 2.325
2.5 0.375 2.2
2.625 0.5 2.325
2.625 0.375 2.325
2.625 0.375 2.2
2.625 0.5 2.2
2.75 0.5 2.325
2.625 0.375 2.45
2.75 0.375 2.45
2.625 0.5 2.45
2.75 0.375 2.325
2.75 0.375 2.2
2.875 0.5 2.325
2.875 0.375 2.325
2.875 0.375 2.2
2.875 0.5 2.2
3 0.5 2.325
2.875 0.375 2.45
3 0.375 2.45
2.875 0.5 2.45
3 0.375 2.325
3 0.375 2.2
3.125 0.5 2.325
3.125 0.375 2.325
3.125 0.375 2.2
3.125 0.5 2.2
3.25 0.5 2.325
3.125 0.375 2.45
3.25 0.375 2.45
3.125 0.5 2.45
3.25 0.375 2.325
3.25 0.375 2.2
3.375 0.5 2.325
3.375 0.375 2.325
3.375 0.375 2.2
3.375 0.5 2.2
3.5 0.5 2.325
3.375 0.375 2.45
3.5 0.375 2.45
3.375 0.5 2.45
3.5 0.375 2.325
3.5 0.375 2.2
3.625 0.5 2.325
3.625 0.375 2.325
3.625 0.375 2.2
3.625 0.5 2.2
3.75 0.5 2.325
3.625 0.375 2.45
3.75 0.375 2.45
3.625 0.5 2.45
3.75 0.375 2.325
3.75 0.375 2.2
3.875 0.5 2.325
3.875 0.375 2.325
3.875 0.375 2.2
3.875 0.5 2.2
4 0.5 2.325
3.875 0.375 2.45
4 0.375 2.45
3.875 0.5 2.45
4 0.375 2.325
4 0.375 2.2
0 0.625 2.2
0.125 0.75 2.325
0.125 0.625 2.325
0.125 0.625 2.2
0.125 0.75 2.2
0.25 0.75 2.325
0.125 0.625 2.45
0.25 0.625 2.45
0 0.75 2.325
0 0.625 2.325
0.125 0.75 2.45
0 0.625 2.45
0.25 0.625 2.325
0.25 0.625 2.2
0.375 0.75 2.325
0.375 0.625 2.325
0.375 0.625 2.2
0.375 0.75 2.2
0.5 0.75 2.325
0.375 0.625 2.45
0.5 0.625 2.45
0.375 0.75 2.45
0.5 0.625 2.325
0.5 0.625 2.2
0.625 0.75 2.325
0.625 0.625 2.325
0.625 0.625 2.2
0.625 0.75 2.2
0.75 0.75 2.325
0.625 0.625 2.45
0.75 0.625 2.45
0.625 0.75 2.45
0.75 0.625 2.325
0.75 0.625 2.2
0.875 0.75 2.325
0.875 0.625 2.325
0.875 0.625 2.2
0.875 0.75 2.2
1 0.75 2.325
0.875 0.625 2.45
1 0.625 2.45
0.875 0.75 2.45
1 0.625 2.325
1 0.625 2.2
1.125 0.75 2.325
1.125 0.625 2.325
1.125 0.625 2.2
1.125 0.75 2.2
1.25 0.75 2.325
1.125 0.625 2.45
1.25 0.625 2.45
1.125 0.75 2.45
1.25 0.625 2.325
1.25 0.625 2.2
1.375 0.75 2.325
1.375 0.625 2.325
1.375 0.625 2.2
1.375 0.75 2.2
1.5 0.75 2.325
1.375 0.625 2.45
1.5 0.625 2.45
1.375 0.75 2.45
1.5 0.625 2.325
1.5 0.625 2.2
1.625 0.75 2.325
1.625 0.625 2.325
1.625 0.625 2.2
1.625 0.75 2.2
1.75 0.75 2.325
1.625 0.625 2.45
1.75 0.625 2.45
1.625 0.75 2.45
1.75 0.625 2.325
1.75 0.625 2.2
1.875 0.75 2.325
1.875 0.625 2.325
1.875 0.625 2.2
1.875 0.75 2.2
2 0.75 2.325
1.875 0.625 2.45
2 0.625 2.45
1.875 0.75 2.45
2 0.625 2.325
2 0.625 2.2
2.125 0.75 2.325
2.125 0.625 2.325
2.125 0.625 2.2
2.125 0.75 2.2
2.25 0.75 2.325
2.125 0.625 2.45
2.25 0.625 2.45
2.125 0.75 2.45
2.25 0.625 2.325
2.25 0.625 2.2
2.375 0.75 2.325
2.375 0.625 2.325
2.375 0.625 2.2
2.375 0.75 2.2
2.5 0.75 2.325
2.375 0.625 2.45
2.5 0.625 2.45
2.375 0.75 2.45
2.5 0.625 2.325
2.5 0.625 2.2
2.625 0.75 2.325
2.625 0.625 2.325
2.625 0.625 2.2
2.625 0.75 2.2
2.75 0.75 2.325
2.625 0.625 2.45
2.75 0.625 2.45
2.625 0.75 2.45
2.75 0.625 2.325
2.75 0.625 2.2
2.875 0.75 2.325
2.875 0.625 2.325
2.875 0.625 2.2
2.875 0.75 2.2
3 0.75 2.325
2.875 0.625 2.45
3 0.625 2.45
2.875 0.75 2.45
3 0.625 2.325
3 0.625 2.2
3.125 0.75 2.325
3.125 0.625 2.325
3.125 0.625 2.2
3.125 0.75 2.2
3.25 0.75 2.325
3.125 0.625 2.45
3.25 0.625 2.45
3.125 0.75 2.45
3.25 0.625 2.325
3.25 0.625 2.2
3.375 0.75 2.325
3.375 0.625 2.325
3.375 0.625 2.2
3.375 0.75 2.2
3.5 0.75 2.325
3.375 0.625 2.45
3.5 0.625 2.45
3.375 0.75 2.45
3.5 0.625 2.325
3.5 0.625 2.2
3.625 0.75 2.325
3.625 0.625 2.325
3.625 0.625 2.2
3.625 0.75 2.2
3.75 0.75 2.325
3.625 0.625 2.45
3.75 0.625 2.45
3.625 0.75 2.45
3.75 0.625 2.325
3.75 0.625 2.2
3.875 0.75 2.325
3.875 0.625 2.325
3.875 0.625 2.2
3.875 0.75 2.2
4 0.75 2.325
3.875 0.625 2.45
4 0.625 2.45
3.875 0.75 2.45
4 0.625 2.325
4 0.625 2.2
0 0.875 2.2
0.125 1 2.325
0.125 0.875 2.325
0.125 0.875 2.2
0.125 1 2.2
0.25 1 2.325
0.125 0.875 2.45
0.25 0.875 2.45
0 1 2.325
0 0.875 2.325
0.125 1 2.45
0 0.875 2.45
0.25 0.875 2.325
0.25 0.875 2.2
0.375 1 2.325
0.375 0.875 2.325
0.375 0.875 2.2
0.375 1 2.2
0.5 1 2.325
0.375 0.875 2.45
0.5 0.875 2.45
0.375 1 2.45
0.5 0.875 2.325
0.5 0.875 2.2
0.625 1 2.325
0.625 0.875 2.325
0.625 0.875 2.2
0.625 1 2.2
0.75 1 2.325
0.625 0.875 2.45
0.75 0.875 2.45
0.625 1 2.45
0.75 0.875 2.325
0.75 0.875 2.2
0.875 1 2.325
0.875 0.875 2.325
0.875 0.875 2.2
0.875 1 2.2
1 1 2.325
0.875 0.875 2.45
1 0.875 2.45
0.875 1 2.45
1 0.875 2.325
1 0.875 2.2
1.125 1 2.325
1.125 0.875 2.325
1.125 0.875 2.2
1.125 1 2.2
1.25 1 2.325
1.125 0.875 2.45
1.25 0.875 2.45
1.125 1 2.45
1.25 0.875 2.325
1.25 0.875 2.2
1.375 1 2.325
1.375 0.875 2.325
1.375 0.875 2.2
1.375 1 2.2
1.5 1 2.325
1.375 0.875 2.45
1.5 0.875 2.45
1.375 1 2.45
1.5 0.875 2.325
1.5 0.875 2.2
1.625 1 2.325
1.625 0.875 2.325
1.625 0.875 2.2
1.625 1 2.2
1.75 1 2.325
1.625 0.875 2.45
1.75 0.875 2.45
1.625 1 2.45
1.75 0.875 2.325
1.75 0.875 2.2
1.875 1 2.325
1.875 0.875 2.325
1.875 0.875 2.2
1.875 1 2.2
2 1 2.325
1.875 0.875 2.45
2 0.875 2.45
1.875 1 2.45
2 0.875 2.325
2 0.875 2.2
2.125 1 2.325
2.125 0.875 2.325
2.125 0.875 2.2
2.125 1 2.2
2.25 1 2.325
2.125 0.875 2.45
2.25 0.875 2.45
2.125 1 2.45
2.25 0.875 2.325
2.25 0.875 2.2
2.375 1 2.325
2.375 0.875 2.325
2.375 0.875 2.2
2.375 1 2.2
2.5 1 2.325
2.375 0.875 2.45
2.5 0.875 2.45
2.375 1 2.45
2.5 0.875 2.325
2.5 0.875 2.2
2.625 1 2.325
2.625 0.875 2.325
2.625 0.875 2.2
2.625 1 2.2
2.75 1 2.325
2.625 0.875 2.45
2.75 0.875 2.45
2.625 1 2.45
2.75 0.875 2.325
2.75 0.875 2.2
2.875 1 2.325
2.875 0.875 2.325
2.875 0.875 2.2
2.875 1 2.2
3 1 2.325
2.875 0.875 2.45
3 0.875 2.45
2.875 1 2.45
3 0.875 2.325
3 0.875 2.2
3.125 1 2.325
3.125 0.875 2.325
3.125 0.875 2.2
3.125 1 2.2
3.25 1 2.325
3.125 0.875 2.45
3.25 0.875 2.45
3.125 1 2.45
3.25 0.875 2.325
3.25 0.875 2.2
3.375 1 2.325
3.375 0.875 2.325
3.375 0.875 2.2
3.375 1 2.2
3.5 1 2.325
3.375 0.875 2.45
3.5 0.875 2.45
3.375 1 2.45
3.5 0.875 2.325
3.5 0.875 2.2
3.625 1 2.325
3.625 0.875 2.325
3.625 0.875 2.2
3.625 1 2.2
3.75 1 2.325
3.625 0.875 2.45
3.75 0.875 2.45
3.625 1 2.45
3.75 0.875 2.325
3.75 0.875 2.2
3.875 1 2.325
3.875 0.875 2.325
3.875 0.875 2.2
3.875 1 2.2
4 1 2.325
3.875 0.875 2.45
4 0.875 2.45
3.875 1 2.45
4 0.875 2.325
4 0.875 2.2
0.125 0.25 2.575
0.125 0.125 2.575
0.25 0.25 2.575
0.125 0.125 2.7
0.25 0.125 2.7
0.125 0 2.7
0 0 2.575
0.125 0 2.575
0 0.25 2.575
0 0.125 2.575
0.125 0.25 2.7
0 0.125 2.7
0.25 0 2.575
0.25 0.125 2.575
0.375 0.25 2.575
0.375 0.125 2.575
0.5 0.25 2.575
0.375 0.125 2.7
0.5 0.125 2.7
0.375 0 2.7
0.375 0 2.575
0.375 0.25 2.7
0.5 0 2.575
0.5 0.125 2.575
0.625 0.25 2.575
0.625 0.125 2.575
0.75 0.25 2.575
0.625 0.125 2.7
0.75 0.125 2.7
0.625 0 2.7
0.625 0 2.575
0.625 0.25 2.7
0.75 0 2.575
0.75 0.125 2.575
0.875 0.25 2.575
0.875 0.125 2.575
1 0.25 2.575
0.875 0.125 2.7
1 0.125 2.7
0.875 0 2.7
0.875 0 2.575
0.875 0.25 2.7
1 0 2.575
1 0.125 2.575
1.125 0.25 2.575
1.125 0.125 2.575
1.25 0.25 2.575
1.125 0.125 2.7
1.25 0.125 2.7
1.125 0 2.7
1.125 0 2.575
1.125 0.25 2.7
1.25 0 2.575
1.25 0.125 2.575
1.375 0.25 2.575
1.375 0.125 2.575
1.5 0.25 2.575
1.375 0.125 2.7
1.5 0.125 2.7
1.375 0 2.7
1.375 0 2.575
1.375 0.25 2.7
1.5 0 2.575
1.5 0.125 2.575
1.625 0.25 2.575
1.625 0.125 2.575
1.75 0.25 2.575
1.625 0.125 2.7
1.75 0.125 2.7
1.625 0 2.7
1.625 0 2.575
1.625 0.25 2.7
1.75 0 2.575
1.75 0.125 2.575
1.875 0.25 2.575
1.875 0.125 2.575
2 0.25 2.575
1.875 0.125 2.7
2 0.125 2.7
1.875 0 2.7
1.875 0 2.575
1.875 0.25 2.7
2 0 2.575
2 0.125 2.575
2.125 0.25 2.575
2.125 0.125 2.575
2.25 0.25 2.575
2.125 0.125 2.7
2.25 0.125 2.7
2.125 0 2.7
2.125 0 2.575
2.125 0.25 2.7
2.25 0 2.575
2.25 0.125 2.575
2.375 0.25 2.575
2.375 0.125 2.575
2.5 0.25 2.575
2.375 0.125 2.7
2.5 0.125 2.7
2.375 0 2.7
2.375 0 2.575
2.375 0.25 2.7
2.5 0 2.575
2.5 0.125 2.575
2.625 0.25 2.575
2.625 0.125 2.575
2.75 0.25 2.575
2.625 0.125 2.7
2.75 0.125 2.7
2.625 0 2.7
2.625 0 2.575
2.625 0.25 2.7
2.75 0 2.575
2.75 0.125 2.575
2.875 0.25 2.575
2.875 0.125 2.575
3 0.25 2.575
2.875 0.125 2.7
3 0.125 2.7
2.875 0 2.7
2.875 0 2.575
2.875 0.25 2.7
3 0 2.575
3 0.125 2.575
3.125 0.25 2.575
3.125 0.125 2.575
3.25 0.25 2.575
3.125 0.125 2.7
3.25 0.125 2.7
3.125 0 2.7
3.125 0 2.575
3.125 0.25 2.7
3.25 0 2.575
3.25 0.125 2.575
3.375 0.25 2.575
3.375 0.125 2.575
3.5 0.25 2.575
3.375 0.125 2.7
3.5 0.125 2.7
3.375 0 2.7
3.375 0 2.575
3.375 0.25 2.7
3.5 0 2.575
3.5 0.125 2.575
3.625 0.25 2.575
3.625 0.125 2.575
3.75 0.25 2.575
3.625 0.125 2.7
3.75 0.125 2.7
3.625 0 2.7
3.625 0 2.575
3.625 0.25 2.7
3.75 0 2.575
3.75 0.125 2.575
3.875 0.25 2.575
3.875 0.125 2.575
4 0.25 2.575
3.875 0.125 2.7
4 0.125 2.7
3.875 0 2.7
3.875 0 2.575
3.875 0.25 2.7
4 0 2.575
4 0.125 2.575
0.125 0.5 2.575
0.125 0.375 2.575
0.25 0.5 2.575
0.125 0.375 2.7
0.25 0.375 2.7
0 0.5 2.575
0 0.375 2.575
0.125 0.5 2.7
0 0.375 2.7
0.25 0.375 2.575
0.375 0.5 2.575
0.375 0.375 2.575
0.5 0.5 2.575
0.375 0.375 2.7
0.5 0.375 2.7
0.375 0.5 2.7
0.5 0.375 2.575
0.625 0.5 2.575
0.625 0.375 2.575
0.75 0.5 2.575
0.625 0.375 2.7
0.75 0.375 2.7
0.625 0.5 2.7
0.75 0.375 2.575
0.875 0.5 2.575
0.875 0.375 2.575
1 0.5 2.575
0.875 0.375 2.7
1 0.375 2.7
0.875 0.5 2.7
1 0.375 2.575
1.125 0.5 2.575
1.125 0.375 2.575
1.25 0.5 2.575
1.125 0.375 2.7
1.25 0.375 2.7
1.125 0.5 2.7
1.25 0.375 2.575
1.375 0.5 2.575
1.375 0.375 2.575
1.5 0.5 2.575
1.375 0.375 2.7
1.5 0.375 2.7
1.375 0.5 2.7
1.5 0.375 2.575
1.625 0.5 2.575
1.625 0.375 2.575
1.75 0.5 2.575
1.625 0.375 2.7
1.75 0.375 2.7
1.625 0.5 2.7
1.75 0.375 2.575
1.875 0.5 2.575
1.875 0.375 2.575
2 0.5 2.575
1.875 0.375 2.7
2 0.375 2.7
1.875 0.5 2.7
2 0.375 2.575
2.125 0.5 2.575
2.125 0.375 2.575
2.25 0.5 2.575
2.125 0.375 2.7
2.25 0.375 2.7
2.125 0.5 2.7
2.25 0.375 2.575
2.375 0.5 2.575
2.375 0.375 2.575
2.5 0.5 2.575
2.375 0.375 2.7
2.5 0.375 2.7
2.375 0.5 2.7
2.5 0.375 2.575
2.625 0.5 2.575
2.625 0.375 2.575
2.75 0.5 2.575
2.625 0.375 2.7
2.75 0.375 2.7
2.625 0.5 2.7
2.75 0.375 2.575
2.875 0.5 2.575
2.875 0.375 2.575
3 0.5 2.575
2.875 0.375 2.7
3 0.375 2.7
2.875 0.5 2.7
3 0.375 2.575
3.125 0.5 2.575
3.125 0.375 2.575
3.25 0.5 2.575
3.125 0.375 2.7
3.25 0.375 2.7
3.125 0.5 2.7
3.25 0.375 2.575
3.375 0.5 2.575
3.375 0.375 2.575
3.5 0.5 2.575
3.375 0.375 2.7
3.5 0.375 2.7
3.375 0.5 2.7
3.5 0.375 2.575
3.625 0.5 2.575
3.625 0.375 2.575
3.75 0.5 2.575
3.625 0.375 2.7
3.75 0.375 2.7
3.625 0.5 2.7
3.75 0.375 2.575
3.875 0.5 2.575
3.875 0.375 2.575
4 0.5 2.575
3.875 0.375 2.7
4 0.375 2.7
3.875 0.5 2.7
4 0.375 2.575
0.125 0.75 2.575
0.125 0.625 2.575
0.25 0.75 2.575
0.125 0.625 2.7
0.25 0.625 2.7
0 0.75 2.575
0 0.625 2.575
0.125 0.75 2.7
0 0.625 2.7
0.25 0.625 2.575
0.375 0.75 2.575
0.375 0.625 2.575
0.5 0.75 2.575
0.375 0.625 2.7
0.5 0.625 2.7
0.375 0.75 2.7
0.5 0.625 2.575
0.625 0.75 2.575
0.625 0.625 2.575
0.75 0.75 2.575
0.625 0.625 2.7
0.75 0.625 2.7
0.625 0.75 2.7
0.75 0.625 2.575
0.875 0.75 2.575
0.875 0.625 2.575
1 0.75 2.575
0.875 0.625 2.7
1 0.625 2.7
0.875 0.75 2.7
1 0.625 2.575
1.125 0.75 2.575
1.125 0.625 2.575
1.25 0.75 2.575
1.125 0.625 2.7
1.25 0.625 2.7
1.125 0.75 2.7
1.25 0.625 2.575
1.375 0.75 2.575
1.375 0.625 2.575
1.5 0.75 2.575
1.375 0.625 2.7
1.5 0.625 2.7
1.375 0.75 2.7
1.5 0.625 2.575
1.625 0.75 2.575
1.625 0.625 2.575
1.75 0.75 2.575
1.625 0.625 2.7
1.75 0.625 2.7
1.625 0.75 2.7
1.75 0.625 2.575
1.875 0.75 2.575
1.875 0.625 2.575
2 0.75 2.575
1.875 0.625 2.7
2 0.625 2.7
1.875 0.75 2.7
2 0.625 2.575
2.125 0.75 2.575
2.125 0.625 2.575
2.25 0.75 2.575
2.125 0.625 2.7
2.25 0.625 2.7
2.125 0.75 2.7
2.25 0.625 2.575
2.375 0.75 2.575
2.375 0.625 2.575
2.5 0.75 2.575
2.375 0.625 2.7
2.5 0.625 2.7
2.375 0.75 2.7
2.5 0.625 2.575
2.625 0.75 2.575
2.625 0.625 2.575
2.75 0.75 2.575
2.625 0.625 2.7
2.75 0.625 2.7
2.625 0.75 2.7
2.75 0.625 2.575
2.875 0.75 2.575
2.875 0.625 2.575
3 0.75 2.575
2.875 0.625 2.7
3 0.625 2.7
2.875 0.75 2.7
3 0.625 2.575
3.125 0.75 2.575
3.125 0.625 2.575
3.25 0.75 2.575
3.125 0.625 2.7
3.25 0.625 2.7
3.125 0.75 2.7
3.25 0.625 2.575
3.375 0.75 2.575
3.375 0.625 2.575
3.5 0.75 2.575
3.375 0.625 2.7
3.5 0.625 2.7
3.375 0.75 2.7
3.5 0.625 2.575
3.625 0.75 2.575
3.625 0.625 2.575
3.75 0.75 2.575
3.625 0.625 2.7
3.75 0.625 2.7
3.625 0.75 2.7
3.75 0.625 2.575
3.875 0.75 2.575
3.875 0.625 2.575
4 0.75 2.575
3.875 0.625 2.7
4 0.625 2.7
3.875 0.75 2.7
4 0.625 2.575
0.125 1 2.575
0.125 0.875 2.575
0.25 1 2.575
0.125 0.875 2.7
0.25 0.875 2.7
0 1 2.575
0 0.875 2.575
0.125 1 2.7
0 0.875 2.7
0.25 0.875 2.575
0.375 1 2.575
0.375 0.875 2.575
0.5 1 2.575
0.375 0.875 2.7
0.5 0.875 2.7
0.375 1 2.7
0.5 0.875 2.575
0.625 1 2.575
0.625 0.875 2.575
0.75 1 2.575
0.625 0.875 2.7
0.75 0.875 2.7
0.625 1 2.7
0.75 0.875 2.575
0.875 1 2.575
0.875 0.875 2.575
1 1 2.575
0.875 0.875 2.7
1 0.875 2.7
0.875 1 2.7
1 0.875 2.575
1.125 1 2.575
1.125 0.875 2.575
1.25 1 2.575
1.125 0.875 2.7
1.25 0.875 2.7
1.125 1 2.7
1.25 0.875 2.575
1.375 1 2.575
1.375 0.875 2.575
1.5 1 2.575
1.375 0.875 2.7
1.5 0.875 2.7
1.375 1 2.7
1.5 0.875 2.575
1.625 1 2.575
1.625 0.875 2.575
1.75 1 2.575
1.625 0.875 2.7
1.75 0.875 2.7
1.625 1 2.7
1.75 0.875 2.575
1.875 1 2.575
1.875 0.875 2.575
2 1 2.575
1.875 0.875 2.7
2 0.875 2.7
1.875 1 2.7
2 0.875 2.575
2.125 1 2.575
2.125 0.875 2.575
2.25 1 2.575
2.125 0.875 2.7
2.25 0.875 2.7
2.125 1 2.7
2.25 0.875 2.575
2.375 1 2.575
2.375 0.875 2.575
2.5 1 2.575
2.375 0.875 2.7
2.5 0.875 2.7
2.375 1 2.7
2.5 0.875 2.575
2.625 1 2.575
2.625 0.875 2.575
2.75 1 2.575
2.625 0.875 2.7
2.75 0.875 2.7
2.625 1 2.7
2.75 0.875 2.575
2.875 1 2.575
2.875 0.875 2.575
3 1 2.575
2.875 0.875 2.7
3 0.875 2.7
2.875 1 2.7
3 0.875 2.575
3.125 1 2.575
3.125 0.875 2.575
3.25 1 2.575
3.125 0.875 2.7
3.25 0.875 2.7
3.125 1 2.7
3.25 0.875 2.575
3.375 1 2.575
3.375 0.875 2.575
3.5 1 2.575
3.375 0.875 2.7
3.5 0.875 2.7
3.375 1 2.7
3.5 0.875 2.575
3.625 1 2.575
3.625 0.875 2.575
3.75 1 2.575
3.625 0.875 2.7
3.75 0.875 2.7
3.625 1 2.7
3.75 0.875 2.575
3.875 1 2.575
3.875 0.875 2.575
4 1 2.575
3.875 0.875 2.7
4 0.875 2.7
3.875 1 2.7
4 0.875 2.575
0.125 0.25 2.825
0.125 0.125 2.825
0.25 0.25 2.825
0.125 0.125 2.95
0.25 0.125 2.95
0.125 0 2.95
0 0 2.825
0.125 0 2.825
0 0.25 2.825
0 0.125 2.825
0.125 0.25 2.95
0 0.125 2.95
0.25 0 2.825
0.25 0.125 2.825
0.375 0.25 2.825
0.375 0.125 2.825
0.5 0.25 2.825
0.375 0.125 2.95
0.5 0.125 2.95
0.375 0 2.95
0.375 0 2.825
0.375 0.25 2.95
0.5 0 2.825
0.5 0.125 2.825
0.625 0.25 2.825
0.625 0.125 2.825
0.75 0.25 2.825
0.625 0.125 2.95
0.75 0.125 2.95
0.625 0 2.95
0.625 0 2.825
0.625 0.25 2.95
0.75 0 2.825
0.75 0.125 2.825
0.875 0.25 2.825
0.875 0.125 2.825
1 0.25 2.825
0.875 0.125 2.95
1 0.125 2.95
0.875 0 2.95
0.875 0 2.825
0.875 0.25 2.95
1 0 2.825
1 0.125 2.825
1.125 0.25 2.825
1.125 0.125 2.825
1.25 0.25 2.825
1.125 0.125 2.95
1.25 0.125 2.95
1.125 0 2.95
1.125 0 2.825
1.125 0.25 2.95
1.25 0 2.825
1.25 0.125 2.825
1.375 0.25 2.825
1.375 0.125 2.825
1.5 0.25 2.825
1.375 0.125 2.95
1.5 0.125 2.95
1.375 0 2.95
1.375 0 2.825
1.375 0.25 2.95
1.5 0 2.825
1.5 0.125 2.825
1.625 0.25 2.825
1.625 0.125 2.825
1.75 0.25 2.825
1.625 0.125 2.95
1.75 0.125 2.95
1.625 0 2.95
1.625 0 2.825
1.625 0.25 2.95
1.75 0 2.825
1.75 0.125 2.825
1.875 0.25 2.825
1.875 0.125 2.825
2 0.25 2.825
1.875 0.125 2.95
2 0.125 2.95
1.875 0 2.95
1.875 0 2.825
1.875 0.25 2.95
2 0 2.825
2 0.125 2.825
2.125 0.25 2.825
2.125 0.125 2.825
2.25 0.25 2.825
2.125 0.125 2.95
2.25 0.125 2.95
2.125 0 2.95
2.125 0 2.825
2.125 0.25 2.95
2.25 0 2.825
2.25 0.125 2.825
2.375 0.25 2.825
2.375 0.125 2.825
2.5 0.25 2.825
2.375 0.125 2.95
2.5 0.125 2.95
2.375 0 2.95
2.375 0 2.825
2.375 0.25 2.95
2.5 0 2.825
2.5 0.125 2.825
2.625 0.25 2.825
2.625 0.125 2.825
2.75 0.25 2.825
2.625 0.125 2.95
2.75 0.125 2.95
2.625 0 2.95
2.625 0 2.825
2.625 0.25 2.95
2.75 0 2.825
2.75 0.125 2.825
2.875 0.25 2.825
2.875 0.125 2.825
3 0.25 2.825
2.875 0.125 2.95
3 0.125 2.95
2.875 0 2.95
2.875 0 2.825
2.875 0.25 2.95
3 0 2.825
3 0.125 2.825
3.125 0.25 2.825
3.125 0.125 2.825
3.25 0.25 2.825
3.125 0.125 2.95
3.25 0.125 2.95
3.125 0 2.95
3.125 0 2.825
3.125 0.25 2.95
3.25 0 2.825
3.25 0.125 2.825
3.375 0.25 2.825
3.375 0.125 2.825
3.5 0.25 2.825
3.375 0.125 2.95
3.5 0.125 2.95
3.375 0 2.95
3.375 0 2.825
3.375 0.25 2.95
3.5 0 2.825
3.5 0.125 2.825
3.625 0.25 2.825
3.625 0.125 2.825
3.75 0.25 2.825
3.625 0.125 2.95
3.75 0.125 2.95
3.625 0 2.95
3.625 0 2.825
3.625 0.25 2.95
3.75 0 2.825
3.75 0.125 2.825
3.875 0.25 2.825
3.875 0.125 2.825
4 0.25 2.825
3.875 0.125 2.95
4 0.125 2.95
3.875 0 2.95
3.875 0 2.825
3.875 0.25 2.95
4 0 2.825
4 0.125 2.825
0.125 0.5 2.825
0.125 0.375 2.825
0.25 0.5 2.825
0.125 0.375 2.95
0.25 0.375 2.95
0 0.5 2.825
0 0.375 2.825
0.125 0.5 2.95
0 0.375 2.95
0.25 0.375 2.825
0.375 0.5 2.825
0.375 0.375 2.825
0.5 0.5 2.825
0.375 0.375 2.95
0.5 0.375 2.95
0.375 0.5 2.95
0.5 0.375 2.825
0.625 0.5 2.825
0.625 0.375 2.825
0.75 0.5 2.825
0.625 0.375 2.95
0.75 0.375 2.95
0.625 0.5 2.95
0.75 0.375 2.825
0.875 0.5 2.825
0.875 0.375 2.825
1 0.5 2.825
0.875 0.375 2.95
1 0.375 2.95
0.875 0.5 2.95
1 0.375 2.825
1.125 0.5 2.825
1.125 0.375 2.825
1.25 0.5 2.825
1.125 0.375 2.95
1.25 0.375 2.95
1.125 0.5 2.95
1.25 0.375 2.825
1.375 0.5 2.825
1.375 0.375 2.825
1.5 0.5 2.825
1.375 0.375 2.95
1.5 0.375 2.95
1.375 0.5 2.95
1.5 0.375 2.825
1.625 0.5 2.825
1.625 0.375 2.825
1.75 0.5 2.825
1.625 0.375 2.95
1.75 0.375 2.95
1.625 0.5 2.95
1.75 0.375 2.825
1.875 0.5 2.825
1.875 0.375 2.825
2 0.5 2.825
1.875 0.375 2.95
2 0.375 2.95
1.875 0.5 2.95
2 0.375 2.825
2.125 0.5 2.825
2.125 0.375 2.825
2.25 0.5 2.825
2.125 0.375 2.95
2.25 0.375 2.95
2.125 0.5 2.95
2.25 0.375 2.825
2.375 0.5 2.825
2.375 0.375 2.825
2.5 0.5 2.825
2.375 0.375 2.95
2.5 0.375 2.95
2.375 0.5 2.95
2.5 0.375 2.825
2.625 0.5 2.825
2.625 0.375 2.825
2.75 0.5 2.825
2.625 0.375 2.95
2.75 0.375 2.95
2.625 0.5 2.95
2.75 0.375 2.825
2.875 0.5 2.825
2.875 0.375 2.825
3 0.5 2.825
2.875 0.375 2.95
3 0.375 2.95
2.875 0.5 2.95
3 0.375 2.825
3.125 0.5 2.825
3.125 0.375 2.825
3.25 0.5 2.825
3.125 0.375 2.95
3.25 0.375 2.95
3.125 0.5 2.95
3.25 0.375 2.825
3.375 0.5 2.825
3.375 0.375 2.825
3.5 0.5 2.825
3.375 0.375 2.95
3.5 0.375 2.95
3.375 0.5 2.95
3.5 0.375 2.825
3.625 0.5 2.825
3.625 0.375 2.825
3.75 0.5 2.825
3.625 0.375 2.95
3.75 0.375 2.95
3.625 0.5 2.95
3.75 0.375 2.825
3.875 0.5 2.825
3.875 0.375 2.825
4 0.5 2.825
3.875 0.375 2.95
4 0.375 2.95
3.875 0.5 2.95
4 0.375 2.825
0.125 0.75 2.825
0.125 0.625 2.825
0.25 0.75 2.825
0.125 0.625 2.95
0.25 0.625 2.95
0 0.75 2.825
0 0.625 2.825
0.125 0.75 2.95
0 0.625 2.95
0.25 0.625 2.825
0.375 0.75 2.825
0.375 0.625 2.825
0.5 0.75 2.825
0.375 0.625 2.95
0.5 0.625 2.95
0.375 0.75 2.95
0.5 0.625 2.825
0.625 0.75 2.825
0.625 0.625 2.825
0.75 0.75 2.825
0.625 0.625 2.95
0.75 0.625 2.95
0.625 0.75 2.95
0.75 0.625 2.825
0.875 0.75 2.825
0.875 0.625 2.825
1 0.75 2.825
0.875 0.625 2.95
1 0.625 2.95
0.875 0.75 2.95
1 0.625 2.825
1.125 0.75 2.825
1.125 0.625 2.825
1.25 0.75 2.825
1.125 0.625 2.95
1.25 0.625 2.95
1.125 0.75 2.95
1.25 0.625 2.825
1.375 0.75 2.825
1.375 0.625 2.825
1.5 0.75 2.825
1.375 0.625 2.95
1.5 0.625 2.95
1.375 0.75 2.95
1.5 0.625 2.825
1.625 0.75 2.825
1.625 0.625 2.825
1.75 0.75 2.825
1.625 0.625 2.95
1.75 0.625 2.95
1.625 0.75 2.95
1.75 0.625 2.825
1.875 0.75 2.825
1.875 0.625 2.825
2 0.75 2.825
1.875 0.625 2.95
2 0.625 2.95
1.875 0.75 2.95
2 0.625 2.825
2.125 0.75 2.825
2.125 0.625 2.825
2.25 0.75 2.825
2.125 0.625 2.95
2.25 0.625 2.95
2.125 0.75 2.95
2.25 0.625 2.825
2.375 0.75 2.825
2.375 0.625 2.825
2.5 0.75 2.825
2.375 0.625 2.95
2.5 0.625 2.95
2.375 0.75 2.95
2.5 0.625 2.825
2.625 0.75 2.825
2.625 0.625 2.825
2.75 0.75 2.825
2.625 0.625 2.95
2.75 0.625 2.95
2.625 0.75 2.95
2.75 0.625 2.825
2.875 0.75 2.825
2.875 0.625 2.825
3 0.75 2.825
2.875 0.625 2.95
3 0.625 2.95
2.875 0.75 2.95
3 0.625 2.825
3.125 0.75 2.825
3.125 0.625 2.825
3.25 0.75 2.825
3.125 0.625 2.95
3.25 0.625 2.95
3.125 0.75 2.95
3.25 0.625 2.825
3.375 0.75 2.825
3.375 0.625 2.825
3.5 0.75 2.825
3.375 0.625 2.95
3.5 0.625 2.95
3.375 0.75 2.95
3.5 0.625 2.825
3.625 0.75 2.825
3.625 0.625 2.825
3.75 0.75 2.825
3.625 0.625 2.95
3.75 0.625 2.95
3.625 0.75 2.95
3.75 0.625 2.825
3.875 0.75 2.825
3.875 0.625 2.825
4 0.75 2.825
3.875 0.625 2.95
4 0.625 2.95
3.875 0.75 2.95
4 0.625 2.825
0.125 1 2.825
0.125 0.875 2.825
0.25 1 2.825
0.125 0.875 2.95
0.25 0.875 2.95
0 1 2.825
0 0.875 2.825
0.125 1 2.95
0 0.875 2.95
0.25 0.875 2.825
0.375 1 2.825
0.375 0.875 2.825
0.5 1 2.825
0.375 0.875 2.95
0.5 0.875 2.95
0.375 1 2.95
0.5 0.875 2.825
0.625 1 2.825
0.625 0.875 2.825
0.75 1 2.825
0.625 0.875 2.95
0.75 0.875 2.95
0.625 1 2.95
0.75 0.875 2.825
0.875 1 2.825
0.875 0.875 2.825
1 1 2.825
0.875 0.875 2.95
1 0.875 2.95
0.875 1 2.95
1 0.875 2.825
1.125 1 2.825
1.125 0.875 2.825
1.25 1 2.825
1.125 0.875 2.95
1.25 0.875 2.95
1.125 1 2.95
1.25 0.875 2.825
1.375 1 2.825
1.375 0.875 2.825
1.5 1 2.825
1.375 0.875 2.95
1.5 0.875 2.95
1.375 1 2.95
1.5 0.875 2.825
1.625 1 2.825
1.625 0.875 2.825
1.75 1 2.825
1.625 0.875 2.95
1.75 0.875 2.95
1.625 1 2.95
1.75 0.875 2.825
1.875 1 2.825
1.875 0.875 2.825
2 1 2.825
1.875 0.875 2.95
2 0.875 2.95
1.875 1 2.95
2 0.875 2.825
2.125 1 2.825
2.125 0.875 2.825
2.25 1 2.825
2.125 0.875 2.95
2.25 0.875 2.95
2.125 1 2.95
2.25 0.875 2.825
2.375 1 2.825
2.375 0.875 2.825
2.5 1 2.825
2.375 0.875 2.95
2.5 0.875 2.95
2.375 1 2.95
2.5 0.875 2.825
2.625 1 2.825
2.625 0.875 2.825
2.75 1 2.825
2.625 0.875 2.95
2.75 0.875 2.95
2.625 1 2.95
2.75 0.875 2.825
2.875 1 2.825
2.875 0.875 2.825
3 1 2.825
2.875 0.875 2.95
3 0.875 2.95
2.875 1 2.95
3 0.875 2.825
3.125 1 2.825
3.125 0.875 2.825
3.25 1 2.825
3.125 0.875 2.95
3.25 0.875 2.95
3.125 1 2.95
3.25 0.875 2.825
3.375 1 2.825
3.375 0.875 2.825
3.5 1 2.825
3.375 0.875 2.95
3.5 0.875 2.95
3.375 1 2.95
3.5 0.875 2.825
3.625 1 2.825
3.625 0.875 2.825
3.75 1 2.825
3.625 0.875 2.95
3.75 0.875 2.95
3.625 1 2.95
3.75 0.875 2.825
3.875 1 2.825
3.875 0.875 2.825
4 1 2.825
3.875 0.875 2.95
4 0.875 2.95
3.875 1 2.95
4 0.875 2.825
0.125 0.25 3.075
0.125 0.125 3.075
0.25 0.25 3.075
0.125 0.125 3.2
0.25 0.125 3.2
0.125 0 3.2
0 0 3.075
0.125 0 3.075
0 0.25 3.075
0 0.125 3.075
0.125 0.25 3.2
0 0.125 3.2
0.25 0 3.075
0.25 0.125 3.075
0.375 0.25 3.075
0.375 0.125 3.075
0.5 0.25 3.075
0.375 0.125 3.2
0.5 0.125 3.2
0.375 0 3.2
0.375 0 3.075
0.375 0.25 3.2
0.5 0 3.075
0.5 0.125 3.075
0.625 0.25 3.075
0.625 0.125 3.075
0.75 0.25 3.075
0.625 0.125 3.2
0.75 0.125 3.2
0.625 0 3.2
0.625 0 3.075
0.625 0.25 3.2
0.75 0 3.075
0.75 0.125 3.075
0.875 0.25 3.075
0.875 0.125 3.075
1 0.25 3.075
0.875 0.125 3.2
1 0.125 3.2
0.875 0 3.2
0.875 0 3.075
0.875 0.25 3.2
1 0 3.075
1 0.125 3.075
1.125 0.25 3.075
1.125 0.125 3.075
1.25 0.25 3.075
1.125 0.125 3.2
1.25 0.125 3.2
1.125 0 3.2
1.125 0 3.075
1.125 0.25 3.2
1.25 0 3.075
1.25 0.125 3.075
1.375 0.25 3.075
1.375 0.125 3.075
1.5 0.25 3.075
1.375 0.125 3.2
1.5 0.125 3.2
1.375 0 3.2
1.375 0 3.075
1.375 0.25 3.2
1.5 0 3.075
1.5 0.125 3.075
1.625 0.25 3.075
1.625 0.125 3.075
1.75 0.25 3.075
1.625 0.125 3.2
1.75 0.125 3.2
1.625 0 3.2
1.625 0 3.075
1.625 0.25 3.2
1.75 0 3.075
1.75 0.125 3.075
1.875 0.25 3.075
1.875 0.125 3.075
2 0.25 3.075
1.875 0.125 3.2
2 0.125 3.2
1.875 0 3.2
1.875 0 3.075
1.875 0.25 3.2
2 0 3.075
2 0.125 3.075
2.125 0.25 3.075
2.125 0.125 3.075
2.25 0.25 3.075
2.125 0.125 3.2
2.25 0.125 3.2
2.125 0 3.2
2.125 0 3.075
2.125 0.25 3.2
2.25 0 3.075
2.25 0.125 3.075
2.375 0.25 3.075
2.375 0.125 3.075
2.5 0.25 3.075
2.375 0.125 3.2
2.5 0.125 3.2
2.375 0 3.2
2.375 0 3.075
2.375 0.25 3.2
2.5 0 3.075
2.5 0.125 3.075
2.625 0.25 3.075
2.625 0.125 3.075
2.75 0.25 3.075
2.625 0.125 3.2
2.75 0.125 3.2
2.625 0 3.2
2.625 0 3.075
2.625 0.25 3.2
2.75 0 3.075
2.75 0.125 3.075
2.875 0.25 3.075
2.875 0.125 3.075
3 0.25 3.075
2.875 0.125 3.2
3 0.125 3.2
2.875 0 3.2
2.875 0 3.075
2.875 0.25 3.2
3 0 3.075
3 0.125 3.075
3.125 0.25 3.075
3.125 0.125 3.075
3.25 0.25 3.075
3.125 0.125 3.2
3.25 0.125 3.2
3.125 0 3.2
3.125 0 3.075
3.125 0.25 3.2
3.25 0 3.075
3.25 0.125 3.075
3.375 0.25 3.075
3.375 0.125 3.075
3.5 0.25 3.075
3.375 0.125 3.2
3.5 0.125 3.2
3.375 0 3.2
3.375 0 3.075
3.375 0.25 3.2
3.5 0 3.075
3.5 0.125 3.075
3.625 0.25 3.075
3.625 0.125 3.075
3.75 0.25 3.075
3.625 0.125 3.2
3.75 0.125 3.2
3.625 0 3.2
3.625 0 3.075
3.625 0.25 3.2
3.75 0 3.075
3.75 0.125 3.075
3.875 0.25 3.075
3.875 0.125 3.075
4 0.25 3.075
3.875 0.125 3.2
4 0.125 3.2
3.875 0 3.2
3.875 0 3.075
3.875 0.25 3.2
4 0 3.075
4 0.125 3.075
0.125 0.5 3.075
0.125 0.375 3.075
0.25 0.5 3.075
0.125 0.375 3.2
0.25 0.375 3.2
0 0.5 3.075
0 0.375 3.075
0.125 0.5 3.2
0 0.375 3.2
0.25 0.375 3.075
0.375 0.5 3.075
0.375 0.375 3.075
0.5 0.5 3.075
0.375 0.375 3.2
0.5 0.375 3.2
0.375 0.5 3.2
0.5 0.375 3.075
0.625 0.5 3.075
0.625 0.375 3.075
0.75 0.5 3.075
0.625 0.375 3.2
0.75 0.375 3.2
0.625 0.5 3.2
0.75 0.375 3.075
0.875 0.5 3.075
0.875 0.375 3.075
1 0.5 3.075
0.875 0.375 3.2
1 0.375 3.2
0.875 0.5 3.2
1 0.375 3.075
1.125 0.5 3.075
1.125 0.375 3.075
1.25 0.5 3.075
1.125 0.375 3.2
1.25 0.375 3.2
1.125 0.5 3.2
1.25 0.375 3.075
1.375 0.5 3.075
1.375 0.375 3.075
1.5 0.5 3.075
1.375 0.375 3.2
1.5 0.375 3.2
1.375 0.5 3.2
1.5 0.375 3.075
1.625 0.5 3.075
1.625 0.375 3.075
1.75 0.5 3.075
1.625 0.375 3.2
1.75 0.375 3.2
1.625 0.5 3.2
1.75 0.375 3.075
1.875 0.5 3.075
1.875 0.375 3.075
2 0.5 3.075
1.875 0.375 3.2
2 0.375 3.2
1.875 0.5 3.2
2 0.375 3.075
2.125 0.5 3.075
2.125 0.375 3.075
2.25 0.5 3.075
2.125 0.375 3.2
2.25 0.375 3.2
2.125 0.5 3.2
2.25 0.375 3.075
2.375 0.5 3.075
2.375 0.375 3.075
2.5 0.5 3.075
2.375 0.375 3.2
2.5 0.375 3.2
2.375 0.5 3.2
2.5 0.375 3.075
2.625 0.5 3.075
2.625 0.375 3.075
2.75 0.5 3.075
2.625 0.375 3.2
2.75 0.375 3.2
2.625 0.5 3.2
2.75 0.375 3.075
2.875 0.5 3.075
2.875 0.375 3.075
3 0.5 3.075
2.875 0.375 3.2
3 0.375 3.2
2.875 0.5 3.2
3 0.375 3.075
3.125 0.5 3.075
3.125 0.375 3.075
3.25 0.5 3.075
3.125 0.375 3.2
3.25 0.375 3.2
3.125 0.5 3.2
3.25 0.375 3.075
3.375 0.5 3.075
3.375 0.375 3.075
3.5 0.5 3.075
3.375 0.375 3.2
3.5 0.375 3.2
3.375 0.5 3.2
3.5 0.375 3.075
3.625 0.5 3.075
3.625 0.375 3.075
3.75 0.5 3.075
3.625 0.375 3.2
3.75 0.375 3.2
3.625 0.5 3.2
3.75 0.375 3.075
3.875 0.5 3.075
3.875 0.375 3.075
4 0.5 3.075
3.875 0.375 3.2
4 0.375 3.2
3.875 0.5 3.2
4 0.375 3.075
0.125 0.75 3.075
0.125 0.625 3.075
0.25 0.75 3.075
0.125 0.625 3.2
0.25 0.625 3.2
0 0.75 3.075
0 0.625 3.075
0.125 0.75 3.2
0 0.625 3.2
0.25 0.625 3.075
0.375 0.75 3.075
0.375 0.625 3.075
0.5 0.75 3.075
0.375 0.625 3.2
0.5 0.625 3.2
0.375 0.75 3.2
0.5 0.625 3.075
0.625 0.75 3.075
0.625 0.625 3.075
0.75 0.75 3.075
0.625 0.625 3.2
0.75 0.625 3.2
0.625 0.75 3.2
0.75 0.625 3.075
0.875 0.75 3.075
0.875 0.625 3.075
1 0.75 3.075
0.875 0.625 3.2
1 0.625 3.2
0.875 0.75 3.2
1 0.625 3.075
1.125 0.75 3.075
1.125 0.625 3.075
1.25 0.75 3.075
1.125 0.625 3.2
1.25 0.625 3.2
1.125 0.75 3.2
1.25 0.625 3.075
1.375 0.75 3.075
1.375 0.625 3.075
1.5 0.75 3.075
1.375 0.625 3.2
1.5 0.625 3.2
1.375 0.75 3.2
1.5 0.625 3.075
1.625 0.75 3.075
1.625 0.625 3.075
1.75 0.75 3.075
1.625 0.625 3.2
1.75 0.625 3.2
1.625 0.75 3.2
1.75 0.625 3.075
1.875 0.75 3.075
1.875 0.625 3.075
2 0.75 3.075
1.875 0.625 3.2
2 0.625 3.2
1.875 0.75 3.2
2 0.625 3.075
2.125 0.75 3.075
2.125 0.625 3.075
2.25 0.75 3.075
2.125 0.625 3.2
2.25 0.625 3.2
2.125 0.75 3.2
2.25 0.625 3.075
2.375 0.75 3.075
2.375 0.625 3.075
2.5 0.75 3.075
2.375 0.625 3.2
2.5 0.625 3.2
2.375 0.75 3.2
2.5 0.625 3.075
2.625 0.75 3.075
2.625 0.625 3.075
2.75 0.75 3.075
2.625 0.625 3.2
2.75 0.625 3.2
2.625 0.75 3.2
2.75 0.625 3.075
2.875 0.75 3.075
2.875 0.625 3.075
3 0.75 3.075
2.875 0.625 3.2
3 0.625 3.2
2.875 0.75 3.2
3 0.625 3.075
3.125 0.75 3.075
3.125 0.625 3.075
3.25 0.75 3.075
3.125 0.625 3.2
3.25 0.625 3.2
3.125 0.75 3.2
3.25 0.625 3.075
3.375 0.75 3.075
3.375 0.625 3.075
3.5 0.75 3.075
3.375 0.625 3.2
3.5 0.625 3.2
3.375 0.75 3.2
3.5 0.625 3.075
3.625 0.75 3.075
3.625 0.625 3.075
3.75 0.75 3.075
3.625 0.625 3.2
3.75 0.625 3.2
3.625 0.75 3.2
3.75 0.625 3.075
3.875 0.75 3.075
3.875 0.625 3.075
4 0.75 3.075
3.875 0.625 3.2
4 0.625 3.2
3.875 0.75 3.2
4 0.625 3.075
0.125 1 3.075
0.125 0.875 3.075
0.25 1 3.075
0.125 0.875 3.2
0.25 0.875 3.2
0 1 3.075
0 0.875 3.075
0.125 1 3.2
0 0.875 3.2
0.25 0.875 3.075
0.375 1 3.075
0.375 0.875 3.075
0.5 1 3.075
0.375 0.875 3.2
0.5 0.875 3.2
0.375 1 3.2
0.5 0.875 3.075
0.625 1 3.075
0.625 0.875 3.075
0.75 1 3.075
0.625 0.875 3.2
0.75 0.875 3.2
0.625 1 3.2
0.75 0.875 3.075
0.875 1 3.075
0.875 0.875 3.075
1 1 3.075
0.875 0.875 3.2
1 0.875 3.2
0.875 1 3.2
1 0.875 3.075
1.125 1 3.075
1.125 0.875 3.075
1.25 1 3.075
1.125 0.875 3.2
1.25 0.875 3.2
1.125 1 3.2
1.25 0.875 3.075
1.375 1 3.075
1.375 0.875 3.075
1.5 1 3.075
1.375 0.875 3.2
1.5 0.875 3.2
1.375 1 3.2
1.5 0.875 3.075
1.625 1 3.075
1.625 0.875 3.075
1.75 1 3.075
1.625 0.875 3.2
1.75 0.875 3.2
1.625 1 3.2
1.75 0.875 3.075
1.875 1 3.075
1.875 0.875 3.075
2 1 3.075
1.875 0.875 3.2
2 0.875 3.2
1.875 1 3.2
2 0.875 3.075
2.125 1 3.075
2.125 0.875 3.075
2.25 1 3.075
2.125 0.875 3.2
2.25 0.875 3.2
2.125 1 3.2
2.25 0.875 3.075
2.375 1 3.075
2.375 0.875 3.075
2.5 1 3.075
2.375 0.875 3.2
2.5 0.875 3.2
2.375 1 3.2
2.5 0.875 3.075
2.625 1 3.075
2.625 0.875 3.075
2.75 1 3.075
2.625 0.875 3.2
2.75 0.875 3.2
2.625 1 3.2
2.75 0.875 3.075
2.875 1 3.075
2.875 0.875 3.075
3 1 3.075
2.875 0.875 3.2
3 0.875 3.2
2.875 1 3.2
3 0.875 3.075
3.125 1 3.075
3.125 0.875 3.075
3.25 1 3.075
3.125 0.875 3.2
3.25 0.875 3.2
3.125 1 3.2
3.25 0.875 3.075
3.375 1 3.075
3.375 0.875 3.075
3.5 1 3.075
3.375 0.875 3.2
3.5 0.875 3.2
3.375 1 3.2
3.5 0.875 3.075
3.625 1 3.075
3.625 0.875 3.075
3.75 1 3.075
3.625 0.875 3.2
3.75 0.875 3.2
3.625 1 3.2
3.75 0.875 3.075
3.875 1 3.075
3.875 0.875 3.075
4 1 3.075
3.875 0.875 3.2
4 0.875 3.2
3.875 1 3.2
4 0.875 3.075

CELLS 1537 15360
OFFSETS vtktypeint64
0 10 20 30 40 50 60 70 80 90 100 110 120 130 140 150 160 170 180 190 200 210 220 230 240 250 260 270 280 290 300 310 320 330 340 350 360 370 380 390 400 410 420 430 440 450 460 470 480 490 500 510 520 530 540 550 560 570 580 590 600 610 620 630 640 650 660 670 680 690 700 710 720 730 740 750 760 770 780 790 800 810 820 830 840 850 860 870 880 890 900 910 920 930 940 950 960 970 980 990 1000 1010 1020 1030 1040 1050 1060 1070 1080 1090 1100 1110 1120 1130 1140 1150 1160 1170 1180 1190 1200 1210 1220 1230 1240 1250 1260 1270 1280 1290 1300 1310 1320 1330 1340 1350 1360 1370 1380 1390 1400 1410 1420 1430 1440 1450 1460 1470 1480 1490 1500 1510 1520 1530 1540 1550 1560 1570 1580 1590 1600 1610 1620 1630 1640 1650 1660 1670 1680 1690 1700 1710 1720 1730 1740 1750 1760 1770 1780 1790 1800 1810 1820 1830 1840 1850 1860 1870 1880 1890 1900 1910 1920 1930 1940 1950 1960 1970 1980 1990 2000 2010 2020 2030 2040 2050 2060 2070 2080 2090 2100 2110 2120 2130 2140 2150 2160 2170 2180 2190 2200 2210 2220 2230 2240 2250 2260 2270 2280 2290 2300 2310 2320 2330 2340 2350 2360 2370 2380 2390 2400 2410 2420 2430 2440 2450 2460 2470 2480 2490 2500 2510 2520 2530 2540 2550 2560 2570 2580 2590 2600 2610 2620 2630 2640 2650 2660 2670 2680 2690 2700 2710 2720 2730 2740 2750 2760 2770 2780 2790 2800 2810 2820 2830 2840 2850 2860 2870 2880 2890 2900 2910 2920 2930 2940 2950 2960 2970 2980 2990 3000 3010 3020 3030 3040 3050 3060 3070 3080 3090 3100 3110 3120 3130 3140 3150 3160 3170 3180 3190 3200 3210 3220 3230 3240 3250 3260 3270 3280 3290 3300 3310 3320 3330 3340 3350 3360 3370 3380 3390 3400 3410 3420 3430 3440 3450 3460 3470 3480 3490 3500 3510 3520 3530 3540 3550 3560 3570 3580 3590 3600 3610 3620 3630 3640 3650 3660 3670 3680 3690 3700 3710 3720 3730 3740 3750 3760 3770 3780 3790 3800 3810 3820 3830 3840 3850 3860 3870 3880 3890 3900 3910 3920 3930 3940 3950 3960 3970 3980 3990 4000 4010 4020 4030 4040 4050 4060 4070 4080 4090 4100 4110 4120 4130 4140 4150 4160 4170 4180 4190 4200 4210 4220 4230 4240 4250 4260 4270 4280 4290 4300 4310 4320 4330 4340 4350 4360 4370 4380 4390 4400 4410 4420 4430 4440 4450 4460 4470 4480 4490 4500 4510 4520 4530 4540 4550 4560 4570 4580 4590 4600 4610 4620 4630 4640 4650 4660 4670 4680 4690 4700 4710 4720 4730 4740 4750 4760 4770 4780 4790 4800 4810 4820 4830 4840 4850 4860 4870 4880 4890 4900 4910 4920 4930 4940 4950 4960 4970 4980 4990 5000 5010 5020 5030 5040 5050 5060 5070 5080 5090 5100 5110 5120 5130 5140 5150 5160 5170 5180 5190 5200 5210 5220 5230 5240 5250 5260 5270 5280 5290 5300 5310 5320 5330 5340 5350 5360 5370 5380 5390 5400 5410 5420 5430 5440 5450 5460 5470 5480 5490 5500 5510 5520 5530 5540 5550 5560 5570 5580 5590 5600 5610 5620 5630 5640 5650 5660 5670 5680 5690 5700 5710 5720 5730 5740 5750 5760 5770 5780 5790 5800 5810 5820 5830 5840 5850 5860 5870 5880 5890 5900 5910 5920 5930 5940 5950 5960 5970 5980 5990 6000 6010 6020 6030 6040 6050 6060 6070 6080 6090 6100 6110 6120 6130 6140 6150 6160 6170 6180 6190 6200 6210 6220 6230 6240 6250 6260 6270 6280 6290 6300 6310 6320 6330 6340 6350 6360 6370 6380 6390 6400 6410 6420 6430 6440 6450 6460 6470 6480 6490 6500 6510 6520 6530 6540 6550 6560 6570 6580 6590 6600 6610 6620 6630 6640 6650 6660 6670 6680 6690 6700 6710 6720 6730 6740 6750 6760 6770 6780 6790 6800 6810 6820 6830 6840 6850 6860 6870 6880 6890 6900 6910 6920 6930 6940 6950 6960 6970 6980 6990 7000 7010 7020 7030 7040 7050 7060 7070 7080 7090 7100 7110 7120 7130 7140 7150 7160 7170 7180 7190 7200 7210 7220 7230 7240 7250 7260 7270 7280 7290 7300 7310 7320 7330 7340 7350 7360 7370 7380 7390 7400 7410 7420 7430 7440 7450 7460 7470 7480 7490 7500 7510 7520 7530 7540 7550 7560 7570 7580 7590 7600 7610 7620 7630 7640 7650 7660 7670 7680 7690 7700 7710 7720 7730 7740 7750 7760 7770 7780 7790 7800 7810 7820 7830 7840 7850 7860 7870 7880 7890 7900 7910 7920 7930 7940 7950 7960 7970 7980 7990 8000 8010 8020 8030 8040 8050 8060 8070 8080 8090 8100 8110 8120 8130 8140 8150 8160 8170 8180 8190 8200 8210 8220 8230 8240 8250 8260 8270 8280 8290 8300 8310 8320 8330 8340 8350 8360 8370 8380 8390 8400 8410 8420 8430 8440 8450 8460 8470 8480 8490 8500 8510 8520 8530 8540 8550 8560 8570 8580 8590 8600 8610 8620 8630 8640 8650 8660 8670 8680 8690 8700 8710 8720 8730 8740 8750 8760 8770 8780 8790 8800 8810 8820 8830 8840 8850 8860 8870 8880 8890 8900 8910 8920 8930 8940 8950 8960 8970 8980 8990 9000 9010 9020 9030 9040 9050 9060 9070 9080 9090 9100 9110 9120 9130 9140 9150 9160 9170 9180 9190 9200 9210 9220 9230 9240 9250 9260 9270 9280 9290 9300 9310 9320 9330 9340 9350 9360 9370 9380 9390 9400 9410 9420 9430 9440 9450 9460 9470 9480 9490 9500 9510 9520 9530 9540 9550 9560 9570 9580 9590 9600 9610 9620 9630 9640 9650 9660 9670 9680 9690 9700 9710 9720 9730 9740 9750 9760 9770 9780 9790 9800 9810 9820 9830 9840 9850 9860 9870 9880 9890 9900 9910 9920 9930 9940 9950 9960 9970 9980 9990 10000 10010 10020 10030 10040 10050 10060 10070 10080 10090 10100 10110 10120 10130 10140 10150 10160 10170 10180 10190 10200 10210 10220 10230 10240 10250 10260 10270 10280 10290 10300 10310 10320 10330 10340 10350 10360 10370 10380 10390 10400 10410 10420 10430 10440 10450 10460 10470 10480 10490 10500 10510 10520 10530 10540 10550 10560 10570 10580 10590 10600 10610 10620 10630 10640 10650 10660 10670 10680 10690 10700 10710 10720 10730 10740 10750 10760 10770 10780 10790 10800 10810 10820 10830 10840 10850 10860 10870 10880 10890 10900 10910 10920 10930 10940 10950 10960 10970 10980 10990 11000 11010 11020 11030 11040 11050 11060 11070 11080 11090 11100 11110 11120 11130 11140 11150 11160 11170 11180 11190 11200 11210 11220 11230 11240 11250 11260 11270 11280 11290 11300 11310 11320 11330 11340 11350 11360 11370 11380 11390 11400 11410 11420 11430 11440 11450 11460 11470 11480 11490 11500 11510 11520 11530 11540 11550 11560 11570 11580 11590 11600 11610 11620 11630 11640 11650 11660 11670 11680 11690 11700 11710 11720 11730 11740 11750 11760 11770 11780 11790 11800 11810 11820 11830 11840 11850 11860 11870 11880 11890 11900 11910 11920 11930 11940 11950 11960 11970 11980 11990 12000 12010 12020 12030 12040 12050 12060 12070 12080 12090 12100 12110 12120 12130 12140 12150 12160 12170 12180 12190 12200 12210 12220 12230 12240 12250 12260 12270 12280 12290 12300 12310 12320 12330 12340 12350 12360 12370 12380 12390 12400 12410 12420 12430 12440 12450 12460 12470 12480 12490 12500 12510 12520 12530 12540 12550 12560 12570 12580 12590 12600 12610 12620 12630 12640 12650 12660 12670 12680 12690 12700 12710 12720 12730 12740 12750 12760 12770 12780 12790 12800 12810 12820 12830 12840 12850 12860 12870 12880 12890 12900 12910 12920 12930 12940 12950 12960 12970 12980 12990 13000 13010 13020 13030 13040 13050 13060 13070 13080 13090 13100 13110 13120 13130 13140 13150 13160 13170 13180 13190 13200 13210 13220 13230 13240 13250 13260 13270 13280 13290 13300 13310 13320 13330 13340 13350 13360 13370 13380 13390 13400 13410 13420 13430 13440 13450 13460 13470 13480 13490 13500 13510 13520 13530 13540 13550 13560 13570 13580 13590 13600 13610 13620 13630 13640 13650 13660 13670 13680 13690 13700 13710 13720 13730 13740 13750 13760 13770 13780 13790 13800 13810 13820 13830 13840 13850 13860 13870 13880 13890 13900 13910 13920 13930 13940 13950 13960 13970 13980 13990 14000 14010 14020 14030 14040 14050 14060 14070 14080 14090 14100 14110 14120 14130 14140 14150 14160 14170 14180 14190 14200 14210 14220 14230 14240 14250 14260 14270 14280 14290 14300 14310 14320 14330 14340 14350 14360 14370 14380 14390 14400 14410 14420 14430 14440 14450 14460 14470 14480 14490 14500 14510 14520 14530 14540 14550 14560 14570 14580 14590 14600 14610 14620 14630 14640 14650 14660 14670 14680 14690 14700 14710 14720 14730 14740 14750 14760 14770 14780 14790 14800 14810 14820 14830 14840 14850 14860 14870 14880 14890 14900 14910 14920 14930 14940 14950 14960 14970 14980 14990 15000 15010 15020 15030 15040 15050 15060 15070 15080 15090 15100 15110 15120 15130 15140 15150 15160 15170 15180 15190 15200 15210 15220 15230 15240 15250 15260 15270 15280 15290 15300 15310 15320 15330 15340 15350 15360 
CONNECTIVITY vtktypeint64
0 17 103 18 425 426 427 428 429 430 
85 103 86 0 431 432 433 434 427 435 
0 17 102 103 425 436 437 427 426 438 
85 103 0 102 431 427 434 439 438 437 
86 0 103 1 435 427 432 440 441 442 
103 0 18 1 427 428 430 442 441 443 
1 18 104 19 443 444 445 446 447 448 
86 104 87 1 449 450 451 440 445 452 
1 18 103 104 443 430 442 445 444 453 
86 104 1 103 449 445 440 432 453 442 
87 1 104 2 452 445 450 454 455 456 
104 1 19 2 445 446 448 456 455 457 
2 19 105 20 457 458 459 460 461 462 
87 105 88 2 463 464 465 454 459 466 
2 19 104 105 457 448 456 459 458 467 
87 105 2 104 463 459 454 450 467 456 
88 2 105 3 466 459 464 468 469 470 
105 2 20 3 459 460 462 470 469 471 
3 20 106 21 471 472 473 474 475 476 
88 106 89 3 477 478 479 468 473 480 
3 20 105 106 471 462 470 473 472 481 
88 106 3 105 477 473 468 464 481 470 
89 3 106 4 480 473 478 482 483 484 
106 3 21 4 473 474 476 484 483 485 
4 21 107 22 485 486 487 488 489 490 
89 107 90 4 491 492 493 482 487 494 
4 21 106 107 485 476 484 487 486 495 
89 107 4 106 491 487 482 478 495 484 
90 4 107 5 494 487 492 496 497 498 
107 4 22 5 487 488 490 498 497 499 
5 22 108 23 499 500 501 502 503 504 
90 108 91 5 505 506 507 496 501 508 
5 22 107 108 499 490 498 501 500 509 
90 108 5 107 505 501 496 492 509 498 
91 5 108 6 508 501 506 510 511 512 
108 5 23 6 501 502 504 512 511 513 
6 23 109 24 513 514 515 516 517 518 
91 109 92 6 519 520 521 510 515 522 
6 23 108 109 513 504 512 515 514 523 
91 109 6 108 519 515 510 506 523 512 
92 6 109 7 522 515 520 524 525 526 
109 6 24 7 515 516 518 526 525 527 
7 24 110 25 527 528 529 530 531 532 
92 110 93 7 533 534 535 524 529 536 
7 24 109 110 527 518 526 529 528 537 
92 110 7 109 533 529 524 520 537 526 
93 7 110 8 536 529 534 538 539 540 
110 7 25 8 529 530 532 540 539 541 
8 25 111 26 541 542 543 544 545 546 
93 111 94 8 547 548 549 538 543 550 
8 25 110 111 541 532 540 543 542 551 
93 111 8 110 547 543 538 534 551 540 
94 8 111 9 550 543 548 552 553 554 
111 8 26 9 543 544 546 554 553 555 
9 26 112 27 555 556 557 558 559 560 
94 112 95 9 561 562 563 552 557 564 
9 26 111 112 555 546 554 557 556 565 
94 112 9 111 561 557 552 548 565 554 
95 9 112 10 564 557 562 566 567 568 
112 9 27 10 557 558 560 568 567 569 
10 27 113 28 569 570 571 572 573 574 
95 113 96 10 575 576 577 566 571 578 
10 27 112 113 569 560 568 571 570 579 
95 113 10 112 575 571 566 562 579 568 
96 10 113 11 578 571 576 580 581 582 
113 10 28 11 571 572 574 582 581 583 
11 28 114 29 583 584 585 586 587 588 
96 114 97 11 589 590 591 580 585 592 
11 28 113 114 583 574 582 585 584 593 
96 114 11 113 589 585 580 576 593 582 
97 11 114 12 592 585 590 594 595 596 
114 11 29 12 585 586 588 596 595 597 
12 29 115 30 597 598 599 600 601 602 
97 115 98 12 603 604 605 594 599 606 
12 29 114 115 597 588 596 599 598 607 
97 115 12 114 603 599 594 590 607 596 
98 12 115 13 606 599 604 608 609 610 
115 12 30 13 599 600 602 610 609 611 
13 30 116 31 611 612 613 614 615 616 
98 116 99 13 617 618 619 608 613 620 
13 30 115 116 611 602 610 613 612 621 
98 116 13 115 617 613 608 604 621 610 
99 13 116 14 620 613 618 622 623 624 
116 13 31 14 613 614 616 624 623 625 
14 31 117 32 625 626 627 628 629 630 
99 117 100 14 631 632 633 622 627 634 
14 31 116 117 625 616 624 627 626 635 
99 117 14 116 631 627 622 618 635 624 
100 14 117 15 634 627 632 636 637 638 
117 14 32 15 627 628 630 638 637 639 
15 32 118 33 639 640 641 642 643 644 
100 118 101 15 645 646 647 636 641 648 
15 32 117 118 639 630 638 641 640 649 
100 118 15 117 645 641 636 632 649 638 
101 15 118 16 648 641 646 650 651 652 
118 15 33 16 641 642 644 652 651 653 
17 34 120 35 654 655 656 657 658 659 
102 120 103 17 660 661 438 436 656 426 
17 34 119 120 654 662 663 656 655 664 
102 120 17 119 660 656 436 665 664 663 
103 17 120 18 426 656 661 430 429 666 
120 17 35 18 656 657 659 666 429 667 
18 35 121 36 667 668 669 670 671 672 
103 121 104 18 673 674 453 430 669 444 
18 35 120 121 667 659 666 669 668 675 
103 121 18 120 673 669 430 661 675 666 
104 18 121 19 444 669 674 448 447 676 
121 18 36 19 669 670 672 676 447 677 
19 36 122 37 677 678 679 680 681 682 
104 122 105 19 683 684 467 448 679 458 
19 36 121 122 677 672 676 679 678 685 
104 122 19 121 683 679 448 674 685 676 
105 19 122 20 458 679 684 462 461 686 
122 19 37 20 679 680 682 686 461 687 
20 37 123 38 687 688 689 690 691 692 
105 123 106 20 693 694 481 462 689 472 
20 37 122 123 687 682 686 689 688 695 
105 123 20 122 693 689 462 684 695 686 
106 20 123 21 472 689 694 476 475 696 
123 20 38 21 689 690 692 696 475 697 
21 38 124 39 697 698 699 700 701 702 
106 124 107 21 703 704 495 476 699 486 
21 38 123 124 697 692 696 699 698 705 
106 124 21 123 703 699 476 694 705 696 
107 21 124 22 486 699 704 490 489 706 
124 21 39 22 699 700 702 706 489 707 
22 39 125 40 707 708 709 710 711 712 
107 125 108 22 713 714 509 490 709 500 
22 39 124 125 707 702 706 709 708 715 
107 125 22 124 713 709 490 704 715 706 
108 22 125 23 500 709 714 504 503 716 
125 22 40 23 709 710 712 716 503 717 
23 40 126 41 717 718 719 720 721 722 
108 126 109 23 723 724 523 504 719 514 
23 40 125 126 717 712 716 719 718 725 
108 126 23 125 723 719 504 714 725 716 
109 23 126 24 514 719 724 518 517 726 
126 23 41 24 719 720 722 726 517 727 
24 41 127 42 727 728 729 730 731 732 
109 127 110 24 733 734 537 518 729 528 
24 41 126 127 727 722 726 729 728 735 
109 127 24 126 733 729 518 724 735 726 
110 24 127 25 528 729 734 532 531 736 
127 24 42 25 729 730 732 736 531 737 
25 42 128 43 737 738 739 740 741 742 
110 128 111 25 743 744 551 532 739 542 
25 42 127 128 737 732 736 739 738 745 
110 128 25 127 743 739 532 734 745 736 
111 25 128 26 542 739 744 546 545 746 
128 25 43 26 739 740 742 746 545 747 
26 43 129 44 747 748 749 750 751 752 
111 129 112 26 753 754 565 546 749 556 
26 43 128 129 747 742 746 749 748 755 
111 129 26 128 753 749 546 744 755 746 
112 26 129 27 556 749 754 560 559 756 
129 26 44 27 749 750 752 756 559 757 
27 44 130 45 757 758 759 760 761 762 
112 130 113 27 763 764 579 560 759 570 
27 44 129 130 757 752 756 759 758 765 
112 130 27 129 763 759 560 754 765 756 
113 27 130 28 570 759 764 574 573 766 
130 27 45 28 759 760 762 766 573 767 
28 45 131 46 767 768 769 770 771 772 
113 131 114 28 773 774 593 574 769 584 
28 45 130 131 767 762 766 769 768 775 
113 131 28 130 773 769 574 764 775 766 
114 28 131 29 584 769 774 588 587 776 
131 28 46 29 769 770 772 776 587 777 
29 46 132 47 777 778 779 780 781 782 
114 132 115 29 783 784 607 588 779 598 
29 46 131 132 777 772 776 779 778 785 
114 132 29 131 783 779 588 774 785 776 
115 29 132 30 598 779 784 602 601 786 
132 29 47 30 779 780 782 786 601 787 
30 47 133 48 787 788 789 790 791 792 
115 133 116 30 793 794 621 602 789 612 
30 47 132 133 787 782 786 789 788 795 
115 133 30 132 793 789 602 784 795 786 
116 30 133 31 612 789 794 616 615 796 
133 30 48 31 789 790 792 796 615 797 
31 48 134 49 797 798 799 800 801 802 
116 134 117 31 803 804 635 616 799 626 
31 48 133 134 797 792 796 799 798 805 
116 134 31 133 803 799 616 794 805 796 
117 31 134 32 626 799 804 630 629 806 
134 31 49 32 799 800 802 806 629 807 
32 49 135 50 807 808 809 810 811 812 
117 135 118 32 813 814 649 630 809 640 
32 49 134 135 807 802 806 809 808 815 
117 135 32 134 813 809 630 804 815 806 
118 32 135 33 640 809 814 644 643 816 
135 32 50 33 809 810 812 816 643 817 
34 51 137 52 818 819 820 821 822 823 
119 137 120 34 824 825 664 662 820 655 
34 51 136 137 818 826 827 820 819 828 
119 137 34 136 824 820 662 829 828 827 
120 34 137 35 655 820 825 659 658 830 
137 34 52 35 820 821 823 830 658 831 
35 52 138 53 831 832 833 834 835 836 
120 138 121 35 837 838 675 659 833 668 
35 52 137 138 831 823 830 833 832 839 
120 138 35 137 837 833 659 825 839 830 
121 35 138 36 668 833 838 672 671 840 
138 35 53 36 833 834 836 840 671 841 
36 53 139 54 841 842 843 844 845 846 
121 139 122 36 847 848 685 672 843 678 
36 53 138 139 841 836 840 843 842 849 
121 139 36 138 847 843 672 838 849 840 
122 36 139 37 678 843 848 682 681 850 
139 36 54 37 843 844 846 850 681 851 
37 54 140 55 851 852 853 854 855 856 
122 140 123 37 857 858 695 682 853 688 
37 54 139 140 851 846 850 853 852 859 
122 140 37 139 857 853 682 848 859 850 
123 37 140 38 688 853 858 692 691 860 
140 37 55 38 853 854 856 860 691 861 
38 55 141 56 861 862 863 864 865 866 
123 141 124 38 867 868 705 692 863 698 
38 55 140 141 861 856 860 863 862 869 
123 141 38 140 867 863 692 858 869 860 
124 38 141 39 698 863 868 702 701 870 
141 38 56 39 863 864 866 870 701 871 
39 56 142 57 871 872 873 874 875 876 
124 142 125 39 877 878 715 702 873 708 
39 56 141 142 871 866 870 873 872 879 
124 142 39 141 877 873 702 868 879 870 
125 39 142 40 708 873 878 712 711 880 
142 39 57 40 873 874 876 880 711 881 
40 57 143 58 881 882 883 884 885 886 
125 143 126 40 887 888 725 712 883 718 
40 57 142 143 881 876 880 883 882 889 
125 143 40 142 887 883 712 878 889 880 
126 40 143 41 718 883 888 722 721 890 
143 40 58 41 883 884 886 890 721 891 
41 58 144 59 891 892 893 894 895 896 
126 144 127 41 897 898 735 722 893 728 
41 58 143 144 891 886 890 893 892 899 
126 144 41 143 897 893 722 888 899 890 
127 41 144 42 728 893 898 732 731 900 
144 41 59 42 893 894 896 900 731 901 
42 59 145 60 901 902 903 904 905 906 
127 145 128 42 907 908 745 732 903 738 
42 59 144 145 901 896 900 903 902 909 
127 145 42 144 907 903 732 898 909 900 
128 42 145 43 738 903 908 742 741 910 
145 42 60 43 903 904 906 910 741 911 
43 60 146 61 911 912 913 914 915 916 
128 146 129 43 917 918 755 742 913 748 
43 60 145 146 911 906 910 913 912 919 
128 146 43 145 917 913 742 908 919 910 
129 43 146 44 748 913 918 752 751 920 
146 43 61 44 913 914 916 920 751 921 
44 61 147 62 921 922 923 924 925 926 
129 147 130 44 927 928 765 752 923 758 
44 61 146 147 921 916 920 923 922 929 
129 147 44 146 927 923 752 918 929 920 
130 44 147 45 758 923 928 762 761 930 
147 44 62 45 923 924 926 930 761 931 
45 62 148 63 931 932 933 934 935 936 
130 148 131 45 937 938 775 762 933 768 
45 62 147 148 931 926 930 933 932 939 
130 148 45 147 937 933 762 928 939 930 
131 45 148 46 768 933 938 772 771 940 
148 45 63 46 933 934 936 940 771 941 
46 63 149 64 941 942 943 944 945 946 
131 149 132 46 947 948 785 772 943 778 
46 63 148 149 941 936 940 943 942 949 
131 149 46 148 947 943 772 938 949 940 
132 46 149 47 778 943 948 782 781 950 
149 46 64 47 943 944 946 950 781 951 
47 64 150 65 951 952 953 954 955 956 
132 150 133 47 957 958 795 782 953 788 
47 64 149 150 951 946 950 953 952 959 
132 150 47 149 957 953 782 948 959 950 
133 47 150 48 788 953 958 792 791 960 
150 47 65 48 953 954 956 960 791 961 
48 65 151 66 961 962 963 964 965 966 
133 151 134 48 967 968 805 792 963 798 
48 65 150 151 961 956 960 963 962 969 
133 151 48 150 967 963 792 958 969 960 
134 48 151 49 798 963 968 802 801 970 
151 48 66 49 963 964 966 970 801 971 
49 66 152 67 971 972 973 974 975 976 
134 152 135 49 977 978 815 802 973 808 
49 66 151 152 971 966 970 973 972 979 
134 152 49 151 977 973 802 968 979 970 
135 49 152 50 808 973 978 812 811 980 
152 49 67 50 973 974 976 980 811 981 
51 68 154 69 982 983 984 985 986 987 
136 154 137 51 988 989 828 826 984 819 
51 68 153 154 982 990 991 984 983 992 
136 154 51 153 988 984 826 993 992 991 
137 51 154 52 819 984 989 823 822 994 
154 51 69 52 984 985 987 994 822 995 
52 69 155 70 995 996 997 998 999 1000 
137 155 138 52 1001 1002 839 823 997 832 
52 69 154 155 995 987 994 997 996 1003 
137 155 52 154 1001 997 823 989 1003 994 
138 52 155 53 832 997 1002 836 835 1004 
155 52 70 53 997 998 1000 1004 835 1005 
53 70 156 71 1005 1006 1007 1008 1009 1010 
138 156 139 53 1011 1012 849 836 1007 842 
53 70 155 156 1005 1000 1004 1007 1006 1013 
138 156 53 155 1011 1007 836 1002 1013 1004 
139 53 156 54 842 1007 1012 846 845 1014 
156 53 71 54 1007 1008 1010 1014 845 1015 
54 71 157 72 1015 1016 1017 1018 1019 1020 
139 157 140 54 1021 1022 859 846 1017 852 
54 71 156 157 1015 1010 1014 1017 1016 1023 
139 157 54 156 1021 1017 846 1012 1023 1014 
140 54 157 55 852 1017 1022 856 855 1024 
157 54 72 55 1017 1018 1020 1024 855 1025 
55 72 158 73 1025 1026 1027 1028 1029 1030 
140 158 141 55 1031 1032 869 856 1027 862 
55 72 157 158 1025 1020 1024 1027 1026 1033 
140 158 55 157 1031 1027 856 1022 1033 1024 
141 55 158 56 862 1027 1032 866 865 1034 
158 55 73 56 1027 1028 1030 1034 865 1035 
56 73 159 74 1035 1036 1037 1038 1039 1040 
141 159 142 56 1041 1042 879 866 1037 872 
56 73 158 159 1035 1030 1034 1037 1036 1043 
141 159 56 158 1041 1037 866 1032 1043 1034 
142 56 159 57 872 1037 1042 876 875 1044 
159 56 74 57 1037 1038 1040 1044 875 1045 
57 74 160 75 1045 1046 1047 1048 1049 1050 
142 160 143 57 1051 1052 889 876 1047 882 
57 74 159 160 1045 1040 1044 1047 1046 1053 
142 160 57 159 1051 1047 876 1042 1053 1044 
143 57 160 58 882 1047 1052 886 885 1054 
160 57 75 58 1047 1048 1050 1054 885 1055 
58 75 161 76 1055 1056 1057 1058 1059 1060 
143 161 144 58 1061 1062 899 886 1057 892 
58 75 160 161 1055 1050 1054 1057 1056 1063 
143 161 58 160 1061 1057 886 1052 1063 1054 
144 58 161 59 892 1057 1062 896 895 1064 
161 58 76 59 1057 1058 1060 1064 895 1065 
59 76 162 77 1065 1066 1067 1068 1069 1070 
144 162 145 59 1071 1072 909 896 1067 902 
59 76 161 162 1065 1060 1064 1067 1066 1073 
144 162 59 161 1071 1067 896 1062 1073 1064 
145 59 162 60 902 1067 1072 906 905 1074 
162 59 77 60 1067 1068 1070 1074 905 1075 
60 77 163 78 1075 1076 1077 1078 1079 1080 
145 163 146 60 1081 1082 919 906 1077 912 
60 77 162 163 1075 1070 1074 1077 1076 1083 
145 163 60 162 1081 1077 906 1072 1083 1074 
146 60 163 61 912 1077 1082 916 915 1084 
163 60 78 61 1077 1078 1080 1084 915 1085 
61 78 164 79 1085 1086 1087 1088 1089 1090 
146 164 147 61 1091 1092 929 916 1087 922 
61 78 163 164 1085 1080 1084 1087 1086 1093 
146 164 61 163 1091 1087 916 1082 1093 1084 
147 61 164 62 922 1087 1092 926 925 1094 
164 61 79 62 1087 1088 1090 1094 925 1095 
62 79 165 80 1095 1096 1097 1098 1099 1100 
147 165 148 62 1101 1102 939 926 1097 932 
62 79 164 165 1095 1090 1094 1097 1096 1103 
147 165 62 164 1101 1097 926 1092 1103 1094 
148 62 165 63 932 1097 1102 936 935 1104 
165 62 80 63 1097 1098 1100 1104 935 1105 
63 80 166 81 1105 1106 1107 1108 1109 1110 
148 166 149 63 1111 1112 949 936 1107 942 
63 80 165 166 1105 1100 1104 1107 1106 1113 
148 166 63 165 1111 1107 936 1102 1113 1104 
149 63 166 64 942 1107 1112 946 945 1114 
166 63 81 64 1107 1108 1110 1114 945 1115 
64 81 167 82 1115 1116 1117 1118 1119 1120 
149 167 150 64 1121 1122 959 946 1117 952 
64 81 166 167 1115 1110 1114 1117 1116 1123 
149 167 64 166 1121 1117 946 1112 1123 1114 
150 64 167 65 952 1117 1122 956 955 1124 
167 64 82 65 1117 1118 1120 1124 955 1125 
65 82 168 83 1125 1126 1127 1128 1129 1130 
150 168 151 65 1131 1132 969 956 1127 962 
65 82 167 168 1125 1120 1124 1127 1126 1133 
150 168 65 167 1131 1127 956 1122 1133 1124 
151 65 168 66 962 1127 1132 966 965 1134 
168 65 83 66 1127 1128 1130 1134 965 1135 
66 83 169 84 1135 1136 1137 1138 1139 1140 
151 169 152 66 1141 1142 979 966 1137 972 
66 83 168 169 1135 1130 1134 1137 1136 1143 
151 169 66 168 1141 1137 966 1132 1143 1134 
152 66 169 67 972 1137 1142 976 975 1144 
169 66 84 67 1137 1138 1140 1144 975 1145 
85 102 188 103 439 1146 1147 431 438 1148 
170 188 171 85 1149 1150 1151 1152 1147 1153 
85 102 187 188 439 1154 1155 1147 1146 1156 
170 188 85 187 1149 1147 1152 1157 1156 1155 
171 85 188 86 1153 1147 1150 1158 433 1159 
188 85 103 86 1147 431 1148 1159 433 432 
86 103 189 104 432 1160 1161 449 453 1162 
171 189 172 86 1163 1164 1165 1158 1161 1166 
86 103 188 189 432 1148 1159 1161 1160 1167 
171 189 86 188 1163 1161 1158 1150 1167 1159 
172 86 189 87 1166 1161 1164 1168 451 1169 
189 86 104 87 1161 449 1162 1169 451 450 
87 104 190 105 450 1170 1171 463 467 1172 
172 190 173 87 1173 1174 1175 1168 1171 1176 
87 104 189 190 450 1162 1169 1171 1170 1177 
172 190 87 189 1173 1171 1168 1164 1177 1169 
173 87 190 88 1176 1171 1174 1178 465 1179 
190 87 105 88 1171 463 1172 1179 465 464 
88 105 191 106 464 1180 1181 477 481 1182 
173 191 174 88 1183 1184 1185 1178 1181 1186 
88 105 190 191 464 1172 1179 1181 1180 1187 
173 191 88 190 1183 1181 1178 1174 1187 1179 
174 88 191 89 1186 1181 1184 1188 479 1189 
191 88 106 89 1181 477 1182 1189 479 478 
89 106 192 107 478 1190 1191 491 495 1192 
174 192 175 89 1193 1194 1195 1188 1191 1196 
89 106 191 192 478 1182 1189 1191 1190 1197 
174 192 89 191 1193 1191 1188 1184 1197 1189 
175 89 192 90 1196 1191 1194 1198 493 1199 
192 89 107 90 1191 491 1192 1199 493 492 
90 107 193 108 492 1200 1201 505 509 1202 
175 193 176 90 1203 1204 1205 1198 1201 1206 
90 107 192 193 492 1192 1199 1201 1200 1207 
175 193 90 192 1203 1201 1198 1194 1207 1199 
176 90 193 91 1206 1201 1204 1208 507 1209 
193 90 108 91 1201 505 1202 1209 507 506 
91 108 194 109 506 1210 1211 519 523 1212 
176 194 177 91 1213 1214 1215 1208 1211 1216 
91 108 193 194 506 1202 1209 1211 1210 1217 
176 194 91 193 1213 1211 1208 1204 1217 1209 
177 91 194 92 1216 1211 1214 1218 521 1219 
194 91 109 92 1211 519 1212 1219 521 520 
92 109 195 110 520 1220 1221 533 537 1222 
177 195 178 92 1223 1224 1225 1218 1221 1226 
92 109 194 195 520 1212 1219 1221 1220 1227 
177 195 92 194 1223 1221 1218 1214 1227 1219 
178 92 195 93 1226 1221 1224 1228 535 1229 
195 92 110 93 1221 533 1222 1229 535 534 
93 110 196 111 534 1230 1231 547 551 1232 
178 196 179 93 1233 1234 1235 1228 1231 1236 
93 110 195 196 534 1222 1229 1231 1230 1237 
178 196 93 195 1233 1231 1228 1224 1237 1229 
179 93 196 94 1236 1231 1234 1238 549 1239 
196 93 111 94 1231 547 1232 1239 549 548 
94 111 197 112 548 1240 1241 561 565 1242 
179 197 180 94 1243 1244 1245 1238 1241 1246 
94 111 196 197 548 1232 1239 1241 1240 1247 
179 197 94 196 1243 1241 1238 1234 1247 1239 
180 94 197 95 1246 1241 1244 1248 563 1249 
197 94 112 95 1241 561 1242 1249 563 562 
95 112 198 113 562 1250 1251 575 579 1252 
180 198 181 95 1253 1254 1255 1248 1251 1256 
95 112 197 198 562 1242 1249 1251 1250 1257 
180 198 95 197 1253 1251 1248 1244 1257 1249 
181 95 198 96 1256 1251 1254 1258 577 1259 
198 95 113 96 1251 575 1252 1259 577 576 
96 113 199 114 576 1260 1261 589 593 1262 
181 199 182 96 1263 1264 1265 1258 1261 1266 
96 113 198 199 576 1252 1259 1261 1260 1267 
181 199 96 198 1263 1261 1258 1254 1267 1259 
182 96 199 97 1266 1261 1264 1268 591 1269 
199 96 114 97 1261 589 1262 1269 591 590 
97 114 200 115 590 1270 1271 603 607 1272 
182 200 183 97 1273 1274 1275 1268 1271 1276 
97 114 199 200 590 1262 1269 1271 1270 1277 
182 200 97 199 1273 1271 1268 1264 1277 1269 
183 97 200 98 1276 1271 1274 1278 605 1279 
200 97 115 98 1271 603 1272 1279 605 604 
98 115 201 116 604 1280 1281 617 621 1282 
183 201 184 98 1283 1284 1285 1278 1281 1286 
98 115 200 201 604 1272 1279 1281 1280 1287 
183 201 98 200 1283 1281 1278 1274 1287 1279 
184 98 201 99 1286 1281 1284 1288 619 1289 
201 98 116 99 1281 617 1282 1289 619 618 
99 116 202 117 618 1290 1291 631 635 1292 
184 202 185 99 1293 1294 1295 1288 1291 1296 
99 116 201 202 618 1282 1289 1291 1290 1297 
184 202 99 201 1293 1291 1288 1284 1297 1289 
185 99 202 100 1296 1291 1294 1298 633 1299 
202 99 117 100 1291 631 1292 1299 633 632 
100 117 203 118 632 1300 1301 645 649 1302 
185 203 186 100 1303 1304 1305 1298 1301 1306 
100 117 202 203 632 1292 1299 1301 1300 1307 
185 203 100 202 1303 1301 1298 1294 1307 1299 
186 100 203 101 1306 1301 1304 1308 647 1309 
203 100 118 101 1301 645 1302 1309 647 646 
102 119 205 120 665 1310 1311 660 664 1312 
187 205 188 102 1313 1314 1156 1154 1311 1146 
102 119 204 205 665 1315 1316 1311 1310 1317 
187 205 102 204 1313 1311 1154 1318 1317 1316 
188 102 205 103 1146 1311 1314 1148 438 1319 
205 102 120 103 1311 660 1312 1319 438 661 
103 120 206 121 661 1320 1321 673 675 1322 
188 206 189 103 1323 1324 1167 1148 1321 1160 
103 120 205 206 661 1312 1319 1321 1320 1325 
188 206 103 205 1323 1321 1148 1314 1325 1319 
189 103 206 104 1160 1321 1324 1162 453 1326 
206 103 121 104 1321 673 1322 1326 453 674 
104 121 207 122 674 1327 1328 683 685 1329 
189 207 190 104 1330 1331 1177 1162 1328 1170 
104 121 206 207 674 1322 1326 1328 1327 1332 
189 207 104 206 1330 1328 1162 1324 1332 1326 
190 104 207 105 1170 1328 1331 1172 467 1333 
207 104 122 105 1328 683 1329 1333 467 684 
105 122 208 123 684 1334 1335 693 695 1336 
190 208 191 105 1337 1338 1187 1172 1335 1180 
105 122 207 208 684 1329 1333 1335 1334 1339 
190 208 105 207 1337 1335 1172 1331 1339 1333 
191 105 208 106 1180 1335 1338 1182 481 1340 
208 105 123 106 1335 693 1336 1340 481 694 
106 123 209 124 694 1341 1342 703 705 1343 
191 209 192 106 1344 1345 1197 1182 1342 1190 
106 123 208 209 694 1336 1340 1342 1341 1346 
191 209 106 208 1344 1342 1182 1338 1346 1340 
192 106 209 107 1190 1342 1345 1192 495 1347 
209 106 124 107 1342 703 1343 1347 495 704 
107 124 210 125 704 1348 1349 713 715 1350 
192 210 193 107 1351 1352 1207 1192 1349 1200 
107 124 209 210 704 1343 1347 1349 1348 1353 
192 210 107 209 1351 1349 1192 1345 1353 1347 
193 107 210 108 1200 1349 1352 1202 509 1354 
210 107 125 108 1349 713 1350 1354 509 714 
108 125 211 126 714 1355 1356 723 725 1357 
193 211 194 108 1358 1359 1217 1202 1356 1210 
108 125 210 211 714 1350 1354 1356 1355 1360 
193 211 108 210 1358 1356 1202 1352 1360 1354 
194 108 211 109 1210 1356 1359 1212 523 1361 
211 108 126 109 1356 723 1357 1361 523 724 
109 126 212 127 724 1362 1363 733 735 1364 
194 212 195 109 1365 1366 1227 1212 1363 1220 
109 126 211 212 724 1357 1361 1363 1362 1367 
194 212 109 211 1365 1363 1212 1359 1367 1361 
195 109 212 110 1220 1363 1366 1222 537 1368 
212 109 127 110 1363 733 1364 1368 537 734 
110 127 213 128 734 1369 1370 743 745 1371 
195 213 196 110 1372 1373 1237 1222 1370 1230 
110 127 212 213 734 1364 1368 1370 1369 1374 
195 213 110 212 1372 1370 1222 1366 1374 1368 
196 110 213 111 1230 1370 1373 1232 551 1375 
213 110 128 111 1370 743 1371 1375 551 744 
111 128 214 129 744 1376 1377 753 755 1378 
196 214 197 111 1379 1380 1247 1232 1377 1240 
111 128 213 214 744 1371 1375 1377 1376 1381 
196 214 111 213 1379 1377 1232 1373 1381 1375 
197 111 214 112 1240 1377 1380 1242 565 1382 
214 111 129 112 1377 753 1378 1382 565 754 
112 129 215 130 754 1383 1384 763 765 1385 
197 215 198 112 1386 1387 1257 1242 1384 1250 
112 129 214 215 754 1378 1382 1384 1383 1388 
197 215 112 214 1386 1384 1242 1380 1388 1382 
198 112 215 113 1250 1384 1387 1252 579 1389 
215 112 130 113 1384 763 1385 1389 579 764 
113 130 216 131 764 1390 1391 773 775 1392 
198 216 199 113 1393 1394 1267 1252 1391 1260 
113 130 215 216 764 1385 1389 1391 1390 1395 
198 216 113 215 1393 1391 1252 1387 1395 1389 
199 113 216 114 1260 1391 1394 1262 593 1396 
216 113 131 114 1391 773 1392 1396 593 774 
114 131 217 132 774 1397 1398 783 785 1399 
199 217 200 114 1400 1401 1277 1262 1398 1270 
114 131 216 217 774 1392 1396 1398 1397 1402 
199 217 114 216 1400 1398 1262 1394 1402 1396 
200 114 217 115 1270 1398 1401 1272 607 1403 
217 114 132 115 1398 783 1399 1403 607 784 
115 132 218 133 784 1404 1405 793 795 1406 
200 218 201 115 1407 1408 1287 1272 1405 1280 
115 132 217 218 784 1399 1403 1405 1404 1409 
200 218 115 217 1407 1405 1272 1401 1409 1403 
201 115 218 116 1280 1405 1408 1282 621 1410 
218 115 133 116 1405 793 1406 1410 621 794 
116 133 219 134 794 1411 1412 803 805 1413 
201 219 202 116 1414 1415 1297 1282 1412 1290 
116 133 218 219 794 1406 1410 1412 1411 1416 
201 219 116 218 1414 1412 1282 1408 1416 1410 
202 116 219 117 1290 1412 1415 1292 635 1417 
219 116 134 117 1412 803 1413 1417 635 804 
117 134 220 135 804 1418 1419 813 815 1420 
202 220 203 117 1421 1422 1307 1292 1419 1300 
117 134 219 220 804 1413 1417 1419 1418 1423 
202 220 117 219 1421 1419 1292 1415 1423 1417 
203 117 220 118 1300 1419 1422 1302 649 1424 
220 117 135 118 1419 813 1420 1424 649 814 
119 136 222 137 829 1425 1426 824 828 1427 
204 222 205 119 1428 1429 1317 1315 1426 1310 
119 136 221 222 829 1430 1431 1426 1425 1432 
204 222 119 221 1428 1426 1315 1433 1432 1431 
205 119 222 120 1310 1426 1429 1312 664 1434 
222 119 137 120 1426 824 1427 1434 664 825 
120 137 223 138 825 1435 1436 837 839 1437 
205 223 206 120 1438 1439 1325 1312 1436 1320 
120 137 222 223 825 1427 1434 1436 1435 1440 
205 223 120 222 1438 1436 1312 1429 1440 1434 
206 120 223 121 1320 1436 1439 1322 675 1441 
223 120 138 121 1436 837 1437 1441 675 838 
121 138 224 139 838 1442 1443 847 849 1444 
206 224 207 121 1445 1446 1332 1322 1443 1327 
121 138 223 224 838 1437 1441 1443 1442 1447 
206 224 121 223 1445 1443 1322 1439 1447 1441 
207 121 224 122 1327 1443 1446 1329 685 1448 
224 121 139 122 1443 847 1444 1448 685 848 
122 139 225 140 848 1449 1450 857 859 1451 
207 225 208 122 1452 1453 1339 1329 1450 1334 
122 139 224 225 848 1444 1448 1450 1449 1454 
207 225 122 224 1452 1450 1329 1446 1454 1448 
208 122 225 123 1334 1450 1453 1336 695 1455 
225 122 140 123 1450 857 1451 1455 695 858 
123 140 226 141 858 1456 1457 867 869 1458 
208 226 209 123 1459 1460 1346 1336 1457 1341 
123 140 225 226 858 1451 1455 1457 1456 1461 
208 226 123 225 1459 1457 1336 1453 1461 1455 
209 123 226 124 1341 1457 1460 1343 705 1462 
226 123 141 124 1457 867 1458 1462 705 868 
124 141 227 142 868 1463 1464 877 879 1465 
209 227 210 124 1466 1467 1353 1343 1464 1348 
124 141 226 227 868 1458 1462 1464 1463 1468 
209 227 124 226 1466 1464 1343 1460 1468 1462 
210 124 227 125 1348 1464 1467 1350 715 1469 
227 124 142 125 1464 877 1465 1469 715 878 
125 142 228 143 878 1470 1471 887 889 1472 
210 228 211 125 1473 1474 1360 1350 1471 1355 
125 142 227 228 878 1465 1469 1471 1470 1475 
210 228 125 227 1473 1471 1350 1467 1475 1469 
211 125 228 126 1355 1471 1474 1357 725 1476 
228 125 143 126 1471 887 1472 1476 725 888 
126 143 229 144 888 1477 1478 897 899 1479 
211 229 212 126 1480 1481 1367 1357 1478 1362 
126 143 228 229 888 1472 1476 1478 1477 1482 
211 229 126 228 1480 1478 1357 1474 1482 1476 
212 126 229 127 1362 1478 1481 1364 735 1483 
229 126 144 127 1478 897 1479 1483 735 898 
127 144 230 145 898 1484 1485 907 909 1486 
212 230 213 127 1487 1488 1374 1364 1485 1369 
127 144 229 230 898 1479 1483 1485 1484 1489 
212 230 127 229 1487 1485 1364 1481 1489 1483 
213 127 230 128 1369 1485 1488 1371 745 1490 
230 127 145 128 1485 907 1486 1490 745 908 
128 145 231 146 908 1491 1492 917 919 1493 
213 231 214 128 1494 1495 1381 1371 1492 1376 
128 145 230 231 908 1486 1490 1492 1491 1496 
213 231 128 230 1494 1492 1371 1488 1496 1490 
214 128 231 129 1376 1492 1495 1378 755 1497 
231 128 146 129 1492 917 1493 1497 755 918 
129 146 232 147 918 1498 1499 927 929 1500 
214 232 215 129 1501 1502 1388 1378 1499 1383 
129 146 231 232 918 1493 1497 1499 1498 1503 
214 232 129 231 1501 1499 1378 1495 1503 1497 
215 129 232 130 1383 1499 1502 1385 765 1504 
232 129 147 130 1499 927 1500 1504 765 928 
130 147 233 148 928 1505 1506 937 939 1507 
215 233 216 130 1508 1509 1395 1385 1506 1390 
130 147 232 233 928 1500 1504 1506 1505 1510 
215 233 130 232 1508 1506 1385 1502 1510 1504 
216 130 233 131 1390 1506 1509 1392 775 1511 
233 130 148 131 1506 937 1507 1511 775 938 
131 148 234 149 938 1512 1513 947 949 1514 
216 234 217 131 1515 1516 1402 1392 1513 1397 
131 148 233 234 938 1507 1511 1513 1512 1517 
216 234 131 233 1515 1513 1392 1509 1517 1511 
217 131 234 132 1397 1513 1516 1399 785 1518 
234 131 149 132 1513 947 1514 1518 785 948 
132 149 235 150 948 1519 1520 957 959 1521 
217 235 218 132 1522 1523 1409 1399 1520 1404 
132 149 234 235 948 1514 1518 1520 1519 1524 
217 235 132 234 1522 1520 1399 1516 1524 1518 
218 132 235 133 1404 1520 1523 1406 795 1525 
235 132 150 133 1520 957 1521 1525 795 958 
133 150 236 151 958 1526 1527 967 969 1528 
218 236 219 133 1529 1530 1416 1406 1527 1411 
133 150 235 236 958 1521 1525 1527 1526 1531 
218 236 133 235 1529 1527 1406 1523 1531 1525 
219 133 236 134 1411 1527 1530 1413 805 1532 
236 133 151 134 1527 967 1528 1532 805 968 
134 151 237 152 968 1533 1534 977 979 1535 
219 237 220 134 1536 1537 1423 1413 1534 1418 
134 151 236 237 968 1528 1532 1534 1533 1538 
219 237 134 236 1536 1534 1413 1530 1538 1532 
220 134 237 135 1418 1534 1537 1420 815 1539 
237 134 152 135 1534 977 1535 1539 815 978 
136 153 239 154 993 1540 1541 988 992 1542 
221 239 222 136 1543 1544 1432 1430 1541 1425 
136 153 238 239 993 1545 1546 1541 1540 1547 
221 239 136 238 1543 1541 1430 1548 1547 1546 
222 136 239 137 1425 1541 1544 1427 828 1549 
239 136 154 137 1541 988 1542 1549 828 989 
137 154 240 155 989 1550 1551 1001 1003 1552 
222 240 223 137 1553 1554 1440 1427 1551 1435 
137 154 239 240 989 1542 1549 1551 1550 1555 
222 240 137 239 1553 1551 1427 1544 1555 1549 
223 137 240 138 1435 1551 1554 1437 839 1556 
240 137 155 138 1551 1001 1552 1556 839 1002 
138 155 241 156 1002 1557 1558 1011 1013 1559 
223 241 224 138 1560 1561 1447 1437 1558 1442 
138 155 240 241 1002 1552 1556 1558 1557 1562 
223 241 138 240 1560 1558 1437 1554 1562 1556 
224 138 241 139 1442 1558 1561 1444 849 1563 
241 138 156 139 1558 1011 1559 1563 849 1012 
139 156 242 157 1012 1564 1565 1021 1023 1566 
224 242 225 139 1567 1568 1454 1444 1565 1449 
139 156 241 242 1012 1559 1563 1565 1564 1569 
224 242 139 241 1567 1565 1444 1561 1569 1563 
225 139 242 140 1449 1565 1568 1451 859 1570 
242 139 157 140 1565 1021 1566 1570 859 1022 
140 157 243 158 1022 1571 1572 1031 1033 1573 
225 243 226 140 1574 1575 1461 1451 1572 1456 
140 157 242 243 1022 1566 1570 1572 1571 1576 
225 243 140 242 1574 1572 1451 1568 1576 1570 
226 140 243 141 1456 1572 1575 1458 869 1577 
243 140 158 141 1572 1031 1573 1577 869 1032 
141 158 244 159 1032 1578 1579 1041 1043 1580 
226 244 227 141 1581 1582 1468 1458 1579 1463 
141 158 243 244 1032 1573 1577 1579 1578 1583 
226 244 141 243 1581 1579 1458 1575 1583 1577 
227 141 244 142 1463 1579 1582 1465 879 1584 
244 141 159 142 1579 1041 1580 1584 879 1042 
142 159 245 160 1042 1585 1586 1051 1053 1587 
227 245 228 142 1588 1589 1475 1465 1586 1470 
142 159 244 245 1042 1580 1584 1586 1585 1590 
227 245 142 244 1588 1586 1465 1582 1590 1584 
228 142 245 143 1470 1586 1589 1472 889 1591 
245 142 160 143 1586 1051 1587 1591 889 1052 
143 160 246 161 1052 1592 1593 1061 1063 1594 
228 246 229 143 1595 1596 1482 1472 1593 1477 
143 160 245 246 1052 1587 1591 1593 1592 1597 
228 246 143 245 1595 1593 1472 1589 1597 1591 
229 143 246 144 1477 1593 1596 1479 899 1598 
246 143 161 144 1593 1061 1594 1598 899 1062 
144 161 247 162 1062 1599 1600 1071 1073 1601 
229 247 230 144 1602 1603 1489 1479 1600 1484 
144 161 246 247 1062 1594 1598 1600 1599 1604 
229 247 144 246 1602 1600 1479 1596 1604 1598 
230 144 247 145 1484 1600 1603 1486 909 1605 
247 144 162 145 1600 1071 1601 1605 909 1072 
145 162 248 163 1072 1606 1607 1081 1083 1608 
230 248 231 145 1609 1610 1496 1486 1607 1491 
145 162 247 248 1072 1601 1605 1607 1606 1611 
230 248 145 247 1609 1607 1486 1603 1611 1605 
231 145 248 146 1491 1607 1610 1493 919 1612 
248 145 163 146 1607 1081 1608 1612 919 1082 
146 163 249 164 1082 1613 1614 1091 1093 1615 
231 249 232 146 1616 1617 1503 1493 1614 1498 
146 163 248 249 1082 1608 1612 1614 1613 1618 
231 249 146 248 1616 1614 1493 1610 1618 1612 
232 146 249 147 1498 1614 1617 1500 929 1619 
249 146 164 147 1614 1091 1615 1619 929 1092 
147 164 250 165 1092 1620 1621 1101 1103 1622 
232 250 233 147 1623 1624 1510 1500 1621 1505 
147 164 249 250 1092 1615 1619 1621 1620 1625 
232 250 147 249 1623 1621 1500 1617 1625 1619 
233 147 250 148 1505 1621 1624 1507 939 1626 
250 147 165 148 1621 1101 1622 1626 939 1102 
148 165 251 166 1102 1627 1628 1111 1113 1629 
233 251 234 148 1630 1631 1517 1507 1628 1512 
148 165 250 251 1102 1622 1626 1628 1627 1632 
233 251 148 250 1630 1628 1507 1624 1632 1626 
234 148 251 149 1512 1628 1631 1514 949 1633 
251 148 166 149 1628 1111 1629 1633 949 1112 
149 166 252 167 1112 1634 1635 1121 1123 1636 
234 252 235 149 1637 1638 1524 1514 1635 1519 
149 166 251 252 1112 1629 1633 1635 1634 1639 
234 252 149 251 1637 1635 1514 1631 1639 1633 
235 149 252 150 1519 1635 1638 1521 959 1640 
252 149 167 150 1635 1121 1636 1640 959 1122 
150 167 253 168 1122 1641 1642 1131 1133 1643 
235 253 236 150 1644 1645 1531 1521 1642 1526 
150 167 252 253 1122 1636 1640 1642 1641 1646 
235 253 150 252 1644 1642 1521 1638 1646 1640 
236 150 253 151 1526 1642 1645 1528 969 1647 
253 150 168 151 1642 1131 1643 1647 969 1132 
151 168 254 169 1132 1648 1649 1141 1143 1650 
236 254 237 151 1651 1652 1538 1528 1649 1533 
151 168 253 254 1132 1643 1647 1649 1648 1653 
236 254 151 253 1651 1649 1528 1645 1653 1647 
237 151 254 152 1533 1649 1652 1535 979 1654 
254 151 169 152 1649 1141 1650 1654 979 1142 
170 187 273 188 1157 1655 1656 1149 1156 1657 
255 273 256 170 1658 1659 1660 1661 1656 1662 
170 187 272 273 1157 1663 1664 1656 1655 1665 
255 273 170 272 1658 1656 1661 1666 1665 1664 
256 170 273 171 1662 1656 1659 1667 1151 1668 
273 170 188 171 1656 1149 1657 1668 1151 1150 
171 188 274 189 1150 1669 1670 1163 1167 1671 
256 274 257 171 1672 1673 1674 1667 1670 1675 
171 188 273 274 1150 1657 1668 1670 1669 1676 
256 274 171 273 1672 1670 1667 1659 1676 1668 
257 171 274 172 1675 1670 1673 1677 1165 1678 
274 171 189 172 1670 1163 1671 1678 1165 1164 
172 189 275 190 1164 1679 1680 1173 1177 1681 
257 275 258 172 1682 1683 1684 1677 1680 1685 
172 189 274 275 1164 1671 1678 1680 1679 1686 
257 275 172 274 1682 1680 1677 1673 1686 1678 
258 172 275 173 1685 1680 1683 1687 1175 1688 
275 172 190 173 1680 1173 1681 1688 1175 1174 
173 190 276 191 1174 1689 1690 1183 1187 1691 
258 276 259 173 1692 1693 1694 1687 1690 1695 
173 190 275 276 1174 1681 1688 1690 1689 1696 
258 276 173 275 1692 1690 1687 1683 1696 1688 
259 173 276 174 1695 1690 1693 1697 1185 1698 
276 173 191 174 1690 1183 1691 1698 1185 1184 
174 191 277 192 1184 1699 1700 1193 1197 1701 
259 277 260 174 1702 1703 1704 1697 1700 1705 
174 191 276 277 1184 1691 1698 1700 1699 1706 
259 277 174 276 1702 1700 1697 1693 1706 1698 
260 174 277 175 1705 1700 1703 1707 1195 1708 
277 174 192 175 1700 1193 1701 1708 1195 1194 
175 192 278 193 1194 1709 1710 1203 1207 1711 
260 278 261 175 1712 1713 1714 1707 1710 1715 
175 192 277 278 1194 1701 1708 1710 1709 1716 
260 278 175 277 1712 1710 1707 1703 1716 1708 
261 175 278 176 1715 1710 1713 1717 1205 1718 
278 175 193 176 1710 1203 1711 1718 1205 1204 
176 193 279 194 1204 1719 1720 1213 1217 1721 
261 279 262 176 1722 1723 1724 1717 1720 1725 
176 193 278 279 1204 1711 1718 1720 1719 1726 
261 279 176 278 1722 1720 1717 1713 1726 1718 
262 176 279 177 1725 1720 1723 1727 1215 1728 
279 176 194 177 1720 1213 1721 1728 1215 1214 
177 194 280 195 1214 1729 1730 1223 1227 1731 
262 280 263 177 1732 1733 1734 1727 1730 1735 
177 194 279 280 1214 1721 1728 1730 1729 1736 
262 280 177 279 1732 1730 1727 1723 1736 1728 
263 177 280 178 1735 1730 1733 1737 1225 1738 
280 177 195 178 1730 1223 1731 1738 1225 1224 
178 195 281 196 1224 1739 1740 1233 1237 1741 
263 281 264 178 1742 1743 1744 1737 1740 1745 
178 195 280 281 1224 1731 1738 1740 1739 1746 
263 281 178 280 1742 1740 1737 1733 1746 1738 
264 178 281 179 1745 1740 1743 1747 1235 1748 
281 178 196 179 1740 1233 1741 1748 1235 1234 
179 196 282 197 1234 1749 1750 1243 1247 1751 
264 282 265 179 1752 1753 1754 1747 1750 1755 
179 196 281 282 1234 1741 1748 1750 1749 1756 
264 282 179 281 1752 1750 1747 1743 1756 1748 
265 179 282 180 1755 1750 1753 1757 1245 1758 
282 179 197 180 1750 1243 1751 1758 1245 1244 
180 197 283 198 1244 1759 1760 1253 1257 1761 
265 283 266 180 1762 1763 1764 1757 1760 1765 
180 197 282 283 1244 1751 1758 1760 1759 1766 
265 283 180 282 1762 1760 1757 1753 1766 1758 
266 180 283 181 1765 1760 1763 1767 1255 1768 
283 180 198 181 1760 1253 1761 1768 1255 1254 
181 198 284 199 1254 1769 1770 1263 1267 1771 
266 284 267 181 1772 1773 1774 1767 1770 1775 
181 198 283 284 1254 1761 1768 1770 1769 1776 
266 284 181 283 1772 1770 1767 1763 1776 1768 
267 181 284 182 1775 1770 1773 1777 1265 1778 
284 181 199 182 1770 1263 1771 1778 1265 1264 
182 199 285 200 1264 1779 1780 1273 1277 1781 
267 285 268 182 1782 1783 1784 1777 1780 1785 
182 199 284 285 1264 1771 1778 1780 1779 1786 
267 285 182 284 1782 1780 1777 1773 1786 1778 
268 182 285 183 1785 1780 1783 1787 1275 1788 
285 182 200 183 1780 1273 1781 1788 1275 1274 
183 200 286 201 1274 1789 1790 1283 1287 1791 
268 286 269 183 1792 1793 1794 1787 1790 1795 
183 200 285 286 1274 1781 1788 1790 1789 1796 
268 286 183 285 1792 1790 1787 1783 1796 1788 
269 183 286 184 1795 1790 1793 1797 1285 1798 
286 183 201 184 1790 1283 1791 1798 1285 1284 
184 201 287 202 1284 1799 1800 1293 1297 1801 
269 287 270 184 1802 1803 1804 1797 1800 1805 
184 201 286 287 1284 1791 1798 1800 1799 1806 
269 287 184 286 1802 1800 1797 1793 1806 1798 
270 184 287 185 1805 1800 1803 1807 1295 1808 
287 184 202 185 1800 1293 1801 1808 1295 1294 
185 202 288 203 1294 1809 1810 1303 1307 1811 
270 288 271 185 1812 1813 1814 1807 1810 1815 
185 202 287 288 1294 1801 1808 1810 1809 1816 
270 288 185 287 1812 1810 1807 1803 1816 1808 
271 185 288 186 1815 1810 1813 1817 1305 1818 
288 185 203 186 1810 1303 1811 1818 1305 1304 
187 204 290 205 1318 1819 1820 1313 1317 1821 
272 290 273 187 1822 1823 1665 1663 1820 1655 
187 204 289 290 1318 1824 1825 1820 1819 1826 
272 290 187 289 1822 1820 1663 1827 1826 1825 
273 187 290 188 1655 1820 1823 1657 1156 1828 
290 187 205 188 1820 1313 1821 1828 1156 1314 
188 205 291 206 1314 1829 1830 1323 1325 1831 
273 291 274 188 1832 1833 1676 1657 1830 1669 
188 205 290 291 1314 1821 1828 1830 1829 1834 
273 291 188 290 1832 1830 1657 1823 1834 1828 
274 188 291 189 1669 1830 1833 1671 1167 1835 
291 188 206 189 1830 1323 1831 1835 1167 1324 
189 206 292 207 1324 1836 1837 1330 1332 1838 
274 292 275 189 1839 1840 1686 1671 1837 1679 
189 206 291 292 1324 1831 1835 1837 1836 1841 
274 292 189 291 1839 1837 1671 1833 1841 1835 
275 189 292 190 1679 1837 1840 1681 1177 1842 
292 189 207 190 1837 1330 1838 1842 1177 1331 
190 207 293 208 1331 1843 1844 1337 1339 1845 
275 293 276 190 1846 1847 1696 1681 1844 1689 
190 207 292 293 1331 1838 1842 1844 1843 1848 
275 293 190 292 1846 1844 1681 1840 1848 1842 
276 190 293 191 1689 1844 1847 1691 1187 1849 
293 190 208 191 1844 1337 1845 1849 1187 1338 
191 208 294 209 1338 1850 1851 1344 1346 1852 
276 294 277 191 1853 1854 1706 1691 1851 1699 
191 208 293 294 1338 1845 1849 1851 1850 1855 
276 294 191 293 1853 1851 1691 1847 1855 1849 
277 191 294 192 1699 1851 1854 1701 1197 1856 
294 191 209 192 1851 1344 1852 1856 1197 1345 
192 209 295 210 1345 1857 1858 1351 1353 1859 
277 295 278 192 1860 1861 1716 1701 1858 1709 
192 209 294 295 1345 1852 1856 1858 1857 1862 
277 295 192 294 1860 1858 1701 1854 1862 1856 
278 192 295 193 1709 1858 1861 1711 1207 1863 
295 192 210 193 1858 1351 1859 1863 1207 1352 
193 210 296 211 1352 1864 1865 1358 1360 1866 
278 296 279 193 1867 1868 1726 1711 1865 1719 
193 210 295 296 1352 1859 1863 1865 1864 1869 
278 296 193 295 1867 1865 1711 1861 1869 1863 
279 193 296 194 1719 1865 1868 1721 1217 1870 
296 193 211 194 1865 1358 1866 1870 1217 1359 
194 211 297 212 1359 1871 1872 1365 1367 1873 
279 297 280 194 1874 1875 1736 1721 1872 1729 
194 211 296 297 1359 1866 1870 1872 1871 1876 
279 297 194 296 1874 1872 1721 1868 1876 1870 
280 194 297 195 1729 1872 1875 1731 1227 1877 
297 194 212 195 1872 1365 1873 1877 1227 1366 
195 212 298 213 1366 1878 1879 1372 1374 1880 
280 298 281 195 1881 1882 1746 1731 1879 1739 
195 212 297 298 1366 1873 1877 1879 1878 1883 
280 298 195 297 1881 1879 1731 1875 1883 1877 
281 195 298 196 1739 1879 1882 1741 1237 1884 
298 195 213 196 1879 1372 1880 1884 1237 1373 
196 213 299 214 1373 1885 1886 1379 1381 1887 
281 299 282 196 1888 1889 1756 1741 1886 1749 
196 213 298 299 1373 1880 1884 1886 1885 1890 
281 299 196 298 1888 1886 1741 1882 1890 1884 
282 196 299 197 1749 1886 1889 1751 1247 1891 
299 196 214 197 1886 1379 1887 1891 1247 1380 
197 214 300 215 1380 1892 1893 1386 1388 1894 
282 300 283 197 1895 1896 1766 1751 1893 1759 
197 214 299 300 1380 1887 1891 1893 1892 1897 
282 300 197 299 1895 1893 1751 1889 1897 1891 
283 197 300 198 1759 1893 1896 1761 1257 1898 
300 197 215 198 1893 1386 1894 1898 1257 1387 
198 215 301 216 1387 1899 1900 1393 1395 1901 
283 301 284 198 1902 1903 1776 1761 1900 1769 
198 215 300 301 1387 1894 1898 1900 1899 1904 
283 301 198 300 1902 1900 1761 1896 1904 1898 
284 198 301 199 1769 1900 1903 1771 1267 1905 
301 198 216 199 1900 1393 1901 1905 1267 1394 
199 216 302 217 1394 1906 1907 1400 1402 1908 
284 302 285 199 1909 1910 1786 1771 1907 1779 
199 216 301 302 1394 1901 1905 1907 1906 1911 
284 302 199 301 1909 1907 1771 1903 1911 1905 
285 199 302 200 1779 1907 1910 1781 1277 1912 
302 199 217 200 1907 1400 1908 1912 1277 1401 
200 217 303 218 1401 1913 1914 1407 1409 1915 
285 303 286 200 1916 1917 1796 1781 1914 1789 
200 217 302 303 1401 1908 1912 1914 1913 1918 
285 303 200 302 1916 1914 1781 1910 1918 1912 
286 200 303 201 1789 1914 1917 1791 1287 1919 
303 200 218 201 1914 1407 1915 1919 1287 1408 
201 218 304 219 1408 1920 1921 1414 1416 1922 
286 304 287 201 1923 1924 1806 1791 1921 1799 
201 218 303 304 1408 1915 1919 1921 1920 1925 
286 304 201 303 1923 1921 1791 1917 1925 1919 
287 201 304 202 1799 1921 1924 1801 1297 1926 
304 201 219 202 1921 1414 1922 1926 1297 1415 
202 219 305 220 1415 1927 1928 1421 1423 1929 
287 305 288 202 1930 1931 1816 1801 1928 1809 
202 219 304 305 1415 1922 1926 1928 1927 1932 
287 305 202 304 1930 1928 1801 1924 1932 1926 
288 202 305 203 1809 1928 1931 1811 1307 1933 
305 202 220 203 1928 1421 1929 1933 1307 1422 
204 221 307 222 1433 1934 1935 1428 1432 1936 
289 307 290 204 1937 1938 1826 1824 1935 1819 
204 221 306 307 1433 1939 1940 1935 1934 1941 
289 307 204 306 1937 1935 1824 1942 1941 1940 
290 204 307 205 1819 1935 1938 1821 1317 1943 
307 204 222 205 1935 1428 1936 1943 1317 1429 
205 222 308 223 1429 1944 1945 1438 1440 1946 
290 308 291 205 1947 1948 1834 1821 1945 1829 
205 222 307 308 1429 1936 1943 1945 1944 1949 
290 308 205 307 1947 1945 1821 1938 1949 1943 
291 205 308 206 1829 1945 1948 1831 1325 1950 
308 205 223 206 1945 1438 1946 1950 1325 1439 
206 223 309 224 1439 1951 1952 1445 1447 1953 
291 309 292 206 1954 1955 1841 1831 1952 1836 
206 223 308 309 1439 1946 1950 1952 1951 1956 
291 309 206 308 1954 1952 1831 1948 1956 1950 
292 206 309 207 1836 1952 1955 1838 1332 1957 
309 206 224 207 1952 1445 1953 1957 1332 1446 
207 224 310 225 1446 1958 1959 1452 1454 1960 
292 310 293 207 1961 1962 1848 1838 1959 1843 
207 224 309 310 1446 1953 1957 1959 1958 1963 
292 310 207 309 1961 1959 1838 1955 1963 1957 
293 207 310 208 1843 1959 1962 1845 1339 1964 
310 207 225 208 1959 1452 1960 1964 1339 1453 
208 225 311 226 1453 1965 1966 1459 1461 1967 
293 311 294 208 1968 1969 1855 1845 1966 1850 
208 225 310 311 1453 1960 1964 1966 1965 1970 
293 311 208 310 1968 1966 1845 1962 1970 1964 
294 208 311 209 1850 1966 1969 1852 1346 1971 
311 208 226 209 1966 1459 1967 1971 1346 1460 
209 226 312 227 1460 1972 1973 1466 1468 1974 
294 312 295 209 1975 1976 1862 1852 1973 1857 
209 226 311 312 1460 1967 1971 1973 1972 1977 
294 312 209 311 1975 1973 1852 1969 1977 1971 
295 209 312 210 1857 1973 1976 1859 1353 1978 
312 209 227 210 1973 1466 1974 1978 1353 1467 
210 227 313 228 1467 1979 1980 1473 1475 1981 
295 313 296 210 1982 1983 1869 1859 1980 1864 
210 227 312 313 1467 1974 1978 1980 1979 1984 
295 313 210 312 1982 1980 1859 1976 1984 1978 
296 210 313 211 1864 1980 1983 1866 1360 1985 
313 210 228 211 1980 1473 1981 1985 1360 1474 
211 228 314 229 1474 1986 1987 1480 1482 1988 
296 314 297 211 1989 1990 1876 1866 1987 1871 
211 228 313 314 1474 1981 1985 1987 1986 1991 
296 314 211 313 1989 1987 1866 1983 1991 1985 
297 211 314 212 1871 1987 1990 1873 1367 1992 
314 211 229 212 1987 1480 1988 1992 1367 1481 
212 229 315 230 1481 1993 1994 1487 1489 1995 
297 315 298 212 1996 1997 1883 1873 1994 1878 
212 229 314 315 1481 1988 1992 1994 1993 1998 
297 315 212 314 1996 1994 1873 1990 1998 1992 
298 212 315 213 1878 1994 1997 1880 1374 1999 
315 212 230 213 1994 1487 1995 1999 1374 1488 
213 230 316 231 1488 2000 2001 1494 1496 2002 
298 316 299 213 2003 2004 1890 1880 2001 1885 
213 230 315 316 1488 1995 1999 2001 2000 2005 
298 316 213 315 2003 2001 1880 1997 2005 1999 
299 213 316 214 1885 2001 2004 1887 1381 2006 
316 213 231 214 2001 1494 2002 2006 1381 1495 
214 231 317 232 1495 2007 2008 1501 1503 2009 
299 317 300 214 2010 2011 1897 1887 2008 1892 
214 231 316 317 1495 2002 2006 2008 2007 2012 
299 317 214 316 2010 2008 1887 2004 2012 2006 
300 214 317 215 1892 2008 2011 1894 1388 2013 
317 214 232 215 2008 1501 2009 2013 1388 1502 
215 232 318 233 1502 2014 2015 1508 1510 2016 
300 318 301 215 2017 2018 1904 1894 2015 1899 
215 232 317 318 1502 2009 2013 2015 2014 2019 
300 318 215 317 2017 2015 1894 2011 2019 2013 
301 215 318 216 1899 2015 2018 1901 1395 2020 
318 215 233 216 2015 1508 2016 2020 1395 1509 
216 233 319 234 1509 2021 2022 1515 1517 2023 
301 319 302 216 2024 2025 1911 1901 2022 1906 
216 233 318 319 1509 2016 2020 2022 2021 2026 
301 319 216 318 2024 2022 1901 2018 2026 2020 
302 216 319 217 1906 2022 2025 1908 1402 2027 
319 216 234 217 2022 1515 2023 2027 1402 1516 
217 234 320 235 1516 2028 2029 1522 1524 2030 
302 320 303 217 2031 2032 1918 1908 2029 1913 
217 234 319 320 1516 2023 2027 2029 2028 2033 
302 320 217 319 2031 2029 1908 2025 2033 2027 
303 217 320 218 1913 2029 2032 1915 1409 2034 
320 217 235 218 2029 1522 2030 2034 1409 1523 
218 235 321 236 1523 2035 2036 1529 1531 2037 
303 321 304 218 2038 2039 1925 1915 2036 1920 
218 235 320 321 1523 2030 2034 2036 2035 2040 
303 321 218 320 2038 2036 1915 2032 2040 2034 
304 218 321 219 1920 2036 2039 1922 1416 2041 
321 218 236 219 2036 1529 2037 2041 1416 1530 
219 236 322 237 1530 2042 2043 1536 1538 2044 
304 322 305 219 2045 2046 1932 1922 2043 1927 
219 236 321 322 1530 2037 2041 2043 2042 2047 
304 322 219 321 2045 2043 1922 2039 2047 2041 
305 219 322 220 1927 2043 2046 1929 1423 2048 
322 219 237 220 2043 1536 2044 2048 1423 1537 
221 238 324 239 1548 2049 2050 1543 1547 2051 
306 324 307 221 2052 2053 1941 1939 2050 1934 
221 238 323 324 1548 2054 2055 2050 2049 2056 
306 324 221 323 2052 2050 1939 2057 2056 2055 
307 221 324 222 1934 2050 2053 1936 1432 2058 
324 221 239 222 2050 1543 2051 2058 1432 1544 
222 239 325 240 1544 2059 2060 1553 1555 2061 
307 325 308 222 2062 2063 1949 1936 2060 1944 
222 239 324 325 1544 2051 2058 2060 2059 2064 
307 325 222 324 2062 2060 1936 2053 2064 2058 
308 222 325 223 1944 2060 2063 1946 1440 2065 
325 222 240 223 2060 1553 2061 2065 1440 1554 
223 240 326 241 1554 2066 2067 1560 1562 2068 
308 326 309 223 2069 2070 1956 1946 2067 1951 
223 240 325 326 1554 2061 2065 2067 2066 2071 
308 326 223 325 2069 2067 1946 2063 2071 2065 
309 223 326 224 1951 2067 2070 1953 1447 2072 
326 223 241 224 2067 1560 2068 2072 1447 1561 
224 241 327 242 1561 2073 2074 1567 1569 2075 
309 327 310 224 2076 2077 1963 1953 2074 1958 
224 241 326 327 1561 2068 2072 2074 2073 2078 
309 327 224 326 2076 2074 1953 2070 2078 2072 
310 224 327 225 1958 2074 2077 1960 1454 2079 
327 224 242 225 2074 1567 2075 2079 1454 1568 
225 242 328 243 1568 2080 2081 1574 1576 2082 
310 328 311 225 2083 2084 1970 1960 2081 1965 
225 242 327 328 1568 2075 2079 2081 2080 2085 
310 328 225 327 2083 2081 1960 2077 2085 2079 
311 225 328 226 1965 2081 2084 1967 1461 2086 
328 225 243 226 2081 1574 2082 2086 1461 1575 
226 243 329 244 1575 2087 2088 1581 1583 2089 
311 329 312 226 2090 2091 1977 1967 2088 1972 
226 243 328 329 1575 2082 2086 2088 2087 2092 
311 329 226 328 2090 2088 1967 2084 2092 2086 
312 226 329 227 1972 2088 2091 1974 1468 2093 
329 226 244 227 2088 1581 2089 2093 1468 1582 
227 244 330 245 1582 2094 2095 1588 1590 2096 
312 330 313 227 2097 2098 1984 1974 2095 1979 
227 244 329 330 1582 2089 2093 2095 2094 2099 
312 330 227 329 2097 2095 1974 2091 2099 2093 
313 227 330 228 1979 2095 2098 1981 1475 2100 
330 227 245 228 2095 1588 2096 2100 1475 1589 
228 245 331 246 1589 2101 2102 1595 1597 2103 
313 331 314 228 2104 2105 1991 1981 2102 1986 
228 245 330 331 1589 2096 2100 2102 2101 2106 
313 331 228 330 2104 2102 1981 2098 2106 2100 
314 228 331 229 1986 2102 2105 1988 1482 2107 
331 228 246 229 2102 1595 2103 2107 1482 1596 
229 246 332 247 1596 2108 2109 1602 1604 2110 
314 332 315 229 2111 2112 1998 1988 2109 1993 
229 246 331 332 1596 2103 2107 2109 2108 2113 
314 332 229 331 2111 2109 1988 2105 2113 2107 
315 229 332 230 1993 2109 2112 1995 1489 2114 
332 229 247 230 2109 1602 2110 2114 1489 1603 
230 247 333 248 1603 2115 2116 1609 1611 2117 
315 333 316 230 2118 2119 2005 1995 2116 2000 
230 247 332 333 1603 2110 2114 2116 2115 2120 
315 333 230 332 2118 2116 1995 2112 2120 2114 
316 230 333 231 2000 2116 2119 2002 1496 2121 
333 230 248 231 2116 1609 2117 2121 1496 1610 
231 248 334 249 1610 2122 2123 1616 1618 2124 
316 334 317 231 2125 2126 2012 2002 2123 2007 
231 248 333 334 1610 2117 2121 2123 2122 2127 
316 334 231 333 2125 2123 2002 2119 2127 2121 
317 231 334 232 2007 2123 2126 2009 1503 2128 
334 231 249 232 2123 1616 2124 2128 1503 1617 
232 249 335 250 1617 2129 2130 1623 1625 2131 
317 335 318 232 2132 2133 2019 2009 2130 2014 
232 249 334 335 1617 2124 2128 2130 2129 2134 
317 335 232 334 2132 2130 2009 2126 2134 2128 
318 232 335 233 2014 2130 2133 2016 1510 2135 
335 232 250 233 2130 1623 2131 2135 1510 1624 
233 250 336 251 1624 2136 2137 1630 1632 2138 
318 336 319 233 2139 2140 2026 2016 2137 2021 
233 250 335 336 1624 2131 2135 2137 2136 2141 
318 336 233 335 2139 2137 2016 2133 2141 2135 
319 233 336 234 2021 2137 2140 2023 1517 2142 
336 233 251 234 2137 1630 2138 2142 1517 1631 
234 251 337 252 1631 2143 2144 1637 1639 2145 
319 337 320 234 2146 2147 2033 2023 2144 2028 
234 251 336 337 1631 2138 2142 2144 2143 2148 
319 337 234 336 2146 2144 2023 2140 2148 2142 
320 234 337 235 2028 2144 2147 2030 1524 2149 
337 234 252 235 2144 1637 2145 2149 1524 1638 
235 252 338 253 1638 2150 2151 1644 1646 2152 
320 338 321 235 2153 2154 2040 2030 2151 2035 
235 252 337 338 1638 2145 2149 2151 2150 2155 
320 338 235 337 2153 2151 2030 2147 2155 2149 
321 235 338 236 2035 2151 2154 2037 1531 2156 
338 235 253 236 2151 1644 2152 2156 1531 1645 
236 253 339 254 1645 2157 2158 1651 1653 2159 
321 339 322 236 2160 2161 2047 2037 2158 2042 
236 253 338 339 1645 2152 2156 2158 2157 2162 
321 339 236 338 2160 2158 2037 2154 2162 2156 
322 236 339 237 2042 2158 2161 2044 1538 2163 
339 236 254 237 2158 1651 2159 2163 1538 1652 
255 272 358 273 1666 2164 2165 1658 1665 2166 
340 358 341 255 2167 2168 2169 2170 2165 2171 
255 272 357 358 1666 2172 2173 2165 2164 2174 
340 358 255 357 2167 2165 2170 2175 2174 2173 
341 255 358 256 2171 2165 2168 2176 1660 2177 
358 255 273 256 2165 1658 2166 2177 1660 1659 
256 273 359 274 1659 2178 2179 1672 1676 2180 
341 359 342 256 2181 2182 2183 2176 2179 2184 
256 273 358 359 1659 2166 2177 2179 2178 2185 
341 359 256 358 2181 2179 2176 2168 2185 2177 
342 256 359 257 2184 2179 2182 2186 1674 2187 
359 256 274 257 2179 1672 2180 2187 1674 1673 
257 274 360 275 1673 2188 2189 1682 1686 2190 
342 360 343 257 2191 2192 2193 2186 2189 2194 
257 274 359 360 1673 2180 2187 2189 2188 2195 
342 360 257 359 2191 2189 2186 2182 2195 2187 
343 257 360 258 2194 2189 2192 2196 1684 2197 
360 257 275 258 2189 1682 2190 2197 1684 1683 
258 275 361 276 1683 2198 2199 1692 1696 2200 
343 361 344 258 2201 2202 2203 2196 2199 2204 
258 275 360 361 1683 2190 2197 2199 2198 2205 
343 361 258 360 2201 2199 2196 2192 2205 2197 
344 258 361 259 2204 2199 2202 2206 1694 2207 
361 258 276 259 2199 1692 2200 2207 1694 1693 
259 276 362 277 1693 2208 2209 1702 1706 2210 
344 362 345 259 2211 2212 2213 2206 2209 2214 
259 276 361 362 1693 2200 2207 2209 2208 2215 
344 362 259 361 2211 2209 2206 2202 2215 2207 
345 259 362 260 2214 2209 2212 2216 1704 2217 
362 259 277 260 2209 1702 2210 2217 1704 1703 
260 277 363 278 1703 2218 2219 1712 1716 2220 
345 363 346 260 2221 2222 2223 2216 2219 2224 
260 277 362 363 1703 2210 2217 2219 2218 2225 
345 363 260 362 2221 2219 2216 2212 2225 2217 
346 260 363 261 2224 2219 2222 2226 1714 2227 
363 260 278 261 2219 1712 2220 2227 1714 1713 
261 278 364 279 1713 2228 2229 1722 1726 2230 
346 364 347 261 2231 2232 2233 2226 2229 2234 
261 278 363 364 1713 2220 2227 2229 2228 2235 
346 364 261 363 2231 2229 2226 2222 2235 2227 
347 261 364 262 2234 2229 2232 2236 1724 2237 
364 261 279 262 2229 1722 2230 2237 1724 1723 
262 279 365 280 1723 2238 2239 1732 1736 2240 
347 365 348 262 2241 2242 2243 2236 2239 2244 
262 279 364 365 1723 2230 2237 2239 2238 2245 
347 365 262 364 2241 2239 2236 2232 2245 2237 
348 262 365 263 2244 2239 2242 2246 1734 2247 
365 262 280 263 2239 1732 2240 2247 1734 1733 
263 280 366 281 1733 2248 2249 1742 1746 2250 
348 366 349 263 2251 2252 2253 2246 2249 2254 
263 280 365 366 1733 2240 2247 2249 2248 2255 
348 366 263 365 2251 2249 2246 2242 2255 2247 
349 263 366 264 2254 2249 2252 2256 1744 2257 
366 263 281 264 2249 1742 2250 2257 1744 1743 
264 281 367 282 1743 2258 2259 1752 1756 2260 
349 367 350 264 2261 2262 2263 2256 2259 2264 
264 281 366 367 1743 2250 2257 2259 2258 2265 
349 367 264 366 2261 2259 2256 2252 2265 2257 
350 264 367 265 2264 2259 2262 2266 1754 2267 
367 264 282 265 2259 1752 2260 2267 1754 1753 
265 282 368 283 1753 2268 2269 1762 1766 2270 
350 368 351 265 2271 2272 2273 2266 2269 2274 
265 282 367 368 1753 2260 2267 2269 2268 2275 
350 368 265 367 2271 2269 2266 2262 2275 2267 
351 265 368 266 2274 2269 2272 2276 1764 2277 
368 265 283 266 2269 1762 2270 2277 1764 1763 
266 283 369 284 1763 2278 2279 1772 1776 2280 
351 369 352 266 2281 2282 2283 2276 2279 2284 
266 283 368 369 1763 2270 2277 2279 2278 2285 
351 369 266 368 2281 2279 2276 2272 2285 2277 
352 266 369 267 2284 2279 2282 2286 1774 2287 
369 266 284 267 2279 1772 2280 2287 1774 1773 
267 284 370 285 1773 2288 2289 1782 1786 2290 
352 370 353 267 2291 2292 2293 2286 2289 2294 
267 284 369 370 1773 2280 2287 2289 2288 2295 
352 370 267 369 2291 2289 2286 2282 2295 2287 
353 267 370 268 2294 2289 2292 2296 1784 2297 
370 267 285 268 2289 1782 2290 2297 1784 1783 
268 285 371 286 1783 2298 2299 1792 1796 2300 
353 371 354 268 2301 2302 2303 2296 2299 2304 
268 285 370 371 1783 2290 2297 2299 2298 2305 
353 371 268 370 2301 2299 2296 2292 2305 2297 
354 268 371 269 2304 2299 2302 2306 1794 2307 
371 268 286 269 2299 1792 2300 2307 1794 1793 
269 286 372 287 1793 2308 2309 1802 1806 2310 
354 372 355 269 2311 2312 2313 2306 2309 2314 
269 286 371 372 1793 2300 2307 2309 2308 2315 
354 372 269 371 2311 2309 2306 2302 2315 2307 
355 269 372 270 2314 2309 2312 2316 1804 2317 
372 269 287 270 2309 1802 2310 2317 1804 1803 
270 287 373 288 1803 2318 2319 1812 1816 2320 
355 373 356 270 2321 2322 2323 2316 2319 2324 
270 287 372 373 1803 2310 2317 2319 2318 2325 
355 373 270 372 2321 2319 2316 2312 2325 2317 
356 270 373 271 2324 2319 2322 2326 1814 2327 
373 270 288 271 2319 1812 2320 2327 1814 1813 
272 289 375 290 1827 2328 2329 1822 1826 2330 
357 375 358 272 2331 2332 2174 2172 2329 2164 
272 289 374 375 1827 2333 2334 2329 2328 2335 
357 375 272 374 2331 2329 2172 2336 2335 2334 
358 272 375 273 2164 2329 2332 2166 1665 2337 
375 272 290 273 2329 1822 2330 2337 1665 1823 
273 290 376 291 1823 2338 2339 1832 1834 2340 
358 376 359 273 2341 2342 2185 2166 2339 2178 
273 290 375 376 1823 2330 2337 2339 2338 2343 
358 376 273 375 2341 2339 2166 2332 2343 2337 
359 273 376 274 2178 2339 2342 2180 1676 2344 
376 273 291 274 2339 1832 2340 2344 1676 1833 
274 291 377 292 1833 2345 2346 1839 1841 2347 
359 377 360 274 2348 2349 2195 2180 2346 2188 
274 291 376 377 1833 2340 2344 2346 2345 2350 
359 377 274 376 2348 2346 2180 2342 2350 2344 
360 274 377 275 2188 2346 2349 2190 1686 2351 
377 274 292 275 2346 1839 2347 2351 1686 1840 
275 292 378 293 1840 2352 2353 1846 1848 2354 
360 378 361 275 2355 2356 2205 2190 2353 2198 
275 292 377 378 1840 2347 2351 2353 2352 2357 
360 378 275 377 2355 2353 2190 2349 2357 2351 
361 275 378 276 2198 2353 2356 2200 1696 2358 
378 275 293 276 2353 1846 2354 2358 1696 1847 
276 293 379 294 1847 2359 2360 1853 1855 2361 
361 379 362 276 2362 2363 2215 2200 2360 2208 
276 293 378 379 1847 2354 2358 2360 2359 2364 
361 379 276 378 2362 2360 2200 2356 2364 2358 
362 276 379 277 2208 2360 2363 2210 1706 2365 
379 276 294 277 2360 1853 2361 2365 1706 1854 
277 294 380 295 1854 2366 2367 1860 1862 2368 
362 380 363 277 2369 2370 2225 2210 2367 2218 
277 294 379 380 1854 2361 2365 2367 2366 2371 
362 380 277 379 2369 2367 2210 2363 2371 2365 
363 277 380 278 2218 2367 2370 2220 1716 2372 
380 277 295 278 2367 1860 2368 2372 1716 1861 
278 295 381 296 1861 2373 2374 1867 1869 2375 
363 381 364 278 2376 2377 2235 2220 2374 2228 
278 295 380 381 1861 2368 2372 2374 2373 2378 
363 381 278 380 2376 2374 2220 2370 2378 2372 
364 278 381 279 2228 2374 2377 2230 1726 2379 
381 278 296 279 2374 1867 2375 2379 1726 1868 
279 296 382 297 1868 2380 2381 1874 1876 2382 
364 382 365 279 2383 2384 2245 2230 2381 2238 
279 296 381 382 1868 2375 2379 2381 2380 2385 
364 382 279 381 2383 2381 2230 2377 2385 2379 
365 279 382 280 2238 2381 2384 2240 1736 2386 
382 279 297 280 2381 1874 2382 2386 1736 1875 
280 297 383 298 1875 2387 2388 1881 1883 2389 
365 383 366 280 2390 2391 2255 2240 2388 2248 
280 297 382 383 1875 2382 2386 2388 2387 2392 
365 383 280 382 2390 2388 2240 2384 2392 2386 
366 280 383 281 2248 2388 2391 2250 1746 2393 
383 280 298 281 2388 1881 2389 2393 1746 1882 
281 298 384 299 1882 2394 2395 1888 1890 2396 
366 384 367 281 2397 2398 2265 2250 2395 2258 
281 298 383 384 1882 2389 2393 2395 2394 2399 
366 384 281 383 2397 2395 2250 2391 2399 2393 
367 281 384 282 2258 2395 2398 2260 1756 2400 
384 281 299 282 2395 1888 2396 2400 1756 1889 
282 299 385 300 1889 2401 2402 1895 1897 2403 
367 385 368 282 2404 2405 2275 2260 2402 2268 
282 299 384 385 1889 2396 2400 2402 2401 2406 
367 385 282 384 2404 2402 2260 2398 2406 2400 
368 282 385 283 2268 2402 2405 2270 1766 2407 
385 282 300 283 2402 1895 2403 2407 1766 1896 
283 300 386 301 1896 2408 2409 1902 1904 2410 
368 386 369 283 2411 2412 2285 2270 2409 2278 
283 300 385 386 1896 2403 2407 2409 2408 2413 
368 386 283 385 2411 2409 2270 2405 2413 2407 
369 283 386 284 2278 2409 2412 2280 1776 2414 
386 283 301 284 2409 1902 2410 2414 1776 1903 
284 301 387 302 1903 2415 2416 1909 1911 2417 
369 387 370 284 2418 2419 2295 2280 2416 2288 
284 301 386 387 1903 2410 2414 2416 2415 2420 
369 387 284 386 2418 2416 2280 2412 2420 2414 
370 284 387 285 2288 2416 2419 2290 1786 2421 
387 284 302 285 2416 1909 2417 2421 1786 1910 
285 302 388 303 1910 2422 2423 1916 1918 2424 
370 388 371 285 2425 2426 2305 2290 2423 2298 
285 302 387 388 1910 2417 2421 2423 2422 2427 
370 388 285 387 2425 2423 2290 2419 2427 2421 
371 285 388 286 2298 2423 2426 2300 1796 2428 
388 285 303 286 2423 1916 2424 2428 1796 1917 
286 303 389 304 1917 2429 2430 1923 1925 2431 
371 389 372 286 2432 2433 2315 2300 2430 2308 
286 303 388 389 1917 2424 2428 2430 2429 2434 
371 389 286 388 2432 2430 2300 2426 2434 2428 
372 286 389 287 2308 2430 2433 2310 1806 2435 
389 286 304 287 2430 1923 2431 2435 1806 1924 
287 304 390 305 1924 2436 2437 1930 1932 2438 
372 390 373 287 2439 2440 2325 2310 2437 2318 
287 304 389 390 1924 2431 2435 2437 2436 2441 
372 390 287 389 2439 2437 2310 2433 2441 2435 
373 287 390 288 2318 2437 2440 2320 1816 2442 
390 287 305 288 2437 1930 2438 2442 1816 1931 
289 306 392 307 1942 2443 2444 1937 1941 2445 
374 392 375 289 2446 2447 2335 2333 2444 2328 
289 306 391 392 1942 2448 2449 2444 2443 2450 
374 392 289 391 2446 2444 2333 2451 2450 2449 
375 289 392 290 2328 2444 2447 2330 1826 2452 
392 289 307 290 2444 1937 2445 2452 1826 1938 
290 307 393 308 1938 2453 2454 1947 1949 2455 
375 393 376 290 2456 2457 2343 2330 2454 2338 
290 307 392 393 1938 2445 2452 2454 2453 2458 
375 393 290 392 2456 2454 2330 2447 2458 2452 
376 290 393 291 2338 2454 2457 2340 1834 2459 
393 290 308 291 2454 1947 2455 2459 1834 1948 
291 308 394 309 1948 2460 2461 1954 1956 2462 
376 394 377 291 2463 2464 2350 2340 2461 2345 
291 308 393 394 1948 2455 2459 2461 2460 2465 
376 394 291 393 2463 2461 2340 2457 2465 2459 
377 291 394 292 2345 2461 2464 2347 1841 2466 
394 291 309 292 2461 1954 2462 2466 1841 1955 
292 309 395 310 1955 2467 2468 1961 1963 2469 
377 395 378 292 2470 2471 2357 2347 2468 2352 
292 309 394 395 1955 2462 2466 2468 2467 2472 
377 395 292 394 2470 2468 2347 2464 2472 2466 
378 292 395 293 2352 2468 2471 2354 1848 2473 
395 292 310 293 2468 1961 2469 2473 1848 1962 
293 310 396 311 1962 2474 2475 1968 1970 2476 
378 396 379 293 2477 2478 2364 2354 2475 2359 
293 310 395 396 1962 2469 2473 2475 2474 2479 
378 396 293 395 2477 2475 2354 2471 2479 2473 
379 293 396 294 2359 2475 2478 2361 1855 2480 
396 293 311 294 2475 1968 2476 2480 1855 1969 
294 311 397 312 1969 2481 2482 1975 1977 2483 
379 397 380 294 2484 2485 2371 2361 2482 2366 
294 311 396 397 1969 2476 2480 2482 2481 2486 
379 397 294 396 2484 2482 2361 2478 2486 2480 
380 294 397 295 2366 2482 2485 2368 1862 2487 
397 294 312 295 2482 1975 2483 2487 1862 1976 
295 312 398 313 1976 2488 2489 1982 1984 2490 
380 398 381 295 2491 2492 2378 2368 2489 2373 
295 312 397 398 1976 2483 2487 2489 2488 2493 
380 398 295 397 2491 2489 2368 2485 2493 2487 
381 295 398 296 2373 2489 2492 2375 1869 2494 
398 295 313 296 2489 1982 2490 2494 1869 1983 
296 313 399 314 1983 2495 2496 1989 1991 2497 
381 399 382 296 2498 2499 2385 2375 2496 2380 
296 313 398 399 1983 2490 2494 2496 2495 2500 
381 399 296 398 2498 2496 2375 2492 2500 2494 
382 296 399 297 2380 2496 2499 2382 1876 2501 
399 296 314 297 2496 1989 2497 2501 1876 1990 
297 314 400 315 1990 2502 2503 1996 1998 2504 
382 400 383 297 2505 2506 2392 2382 2503 2387 
297 314 399 400 1990 2497 2501 2503 2502 2507 
382 400 297 399 2505 2503 2382 2499 2507 2501 
383 297 400 298 2387 2503 2506 2389 1883 2508 
400 297 315 298 2503 1996 2504 2508 1883 1997 
298 315 401 316 1997 2509 2510 2003 2005 2511 
383 401 384 298 2512 2513 2399 2389 2510 2394 
298 315 400 401 1997 2504 2508 2510 2509 2514 
383 401 298 400 2512 2510 2389 2506 2514 2508 
384 298 401 299 2394 2510 2513 2396 1890 2515 
401 298 316 299 2510 2003 2511 2515 1890 2004 
299 316 402 317 2004 2516 2517 2010 2012 2518 
384 402 385 299 2519 2520 2406 2396 2517 2401 
299 316 401 402 2004 2511 2515 2517 2516 2521 
384 402 299 401 2519 2517 2396 2513 2521 2515 
385 299 402 300 2401 2517 2520 2403 1897 2522 
402 299 317 300 2517 2010 2518 2522 1897 2011 
300 317 403 318 2011 2523 2524 2017 2019 2525 
385 403 386 300 2526 2527 2413 2403 2524 2408 
300 317 402 403 2011 2518 2522 2524 2523 2528 
385 403 300 402 2526 2524 2403 2520 2528 2522 
386 300 403 301 2408 2524 2527 2410 1904 2529 
403 300 318 301 2524 2017 2525 2529 1904 2018 
301 318 404 319 2018 2530 2531 2024 2026 2532 
386 404 387 301 2533 2534 2420 2410 2531 2415 
301 318 403 404 2018 2525 2529 2531 2530 2535 
386 404 301 403 2533 2531 2410 2527 2535 2529 
387 301 404 302 2415 2531 2534 2417 1911 2536 
404 301 319 302 2531 2024 2532 2536 1911 2025 
302 319 405 320 2025 2537 2538 2031 2033 2539 
387 405 388 302 2540 2541 2427 2417 2538 2422 
302 319 404 405 2025 2532 2536 2538 2537 2542 
387 405 302 404 2540 2538 2417 2534 2542 2536 
388 302 405 303 2422 2538 2541 2424 1918 2543 
405 302 320 303 2538 2031 2539 2543 1918 2032 
303 320 406 321 2032 2544 2545 2038 2040 2546 
388 406 389 303 2547 2548 2434 2424 2545 2429 
303 320 405 406 2032 2539 2543 2545 2544 2549 
388 406 303 405 2547 2545 2424 2541 2549 2543 
389 303 406 304 2429 2545 2548 2431 1925 2550 
406 303 321 304 2545 2038 2546 2550 1925 2039 
304 321 407 322 2039 2551 2552 2045 2047 2553 
389 407 390 304 2554 2555 2441 2431 2552 2436 
304 321 406 407 2039 2546 2550 2552 2551 2556 
389 407 304 406 2554 2552 2431 2548 2556 2550 
390 304 407 305 2436 2552 2555 2438 1932 2557 
407 304 322 305 2552 2045 2553 2557 1932 2046 
306 323 409 324 2057 2558 2559 2052 2056 2560 
391 409 392 306 2561 2562 2450 2448 2559 2443 
306 323 408 409 2057 2563 2564 2559 2558 2565 
391 409 306 408 2561 2559 2448 2566 2565 2564 
392 306 409 307 2443 2559 2562 2445 1941 2567 
409 306 324 307 2559 2052 2560 2567 1941 2053 
307 324 410 325 2053 2568 2569 2062 2064 2570 
392 410 393 307 2571 2572 2458 2445 2569 2453 
307 324 409 410 2053 2560 2567 2569 2568 2573 
392 410 307 409 2571 2569 2445 2562 2573 2567 
393 307 410 308 2453 2569 2572 2455 1949 2574 
410 307 325 308 2569 2062 2570 2574 1949 2063 
308 325 411 326 2063 2575 2576 2069 2071 2577 
393 411 394 308 2578 2579 2465 2455 2576 2460 
308 325 410 411 2063 2570 2574 2576 2575 2580 
393 411 308 410 2578 2576 2455 2572 2580 2574 
394 308 411 309 2460 2576 2579 2462 1956 2581 
411 308 326 309 2576 2069 2577 2581 1956 2070 
309 326 412 327 2070 2582 2583 2076 2078 2584 
394 412 395 309 2585 2586 2472 2462 2583 2467 
309 326 411 412 2070 2577 2581 2583 2582 2587 
394 412 309 411 2585 2583 2462 2579 2587 2581 
395 309 412 310 2467 2583 2586 2469 1963 2588 
412 309 327 310 2583 2076 2584 2588 1963 2077 
310 327 413 328 2077 2589 2590 2083 2085 2591 
395 413 396 310 2592 2593 2479 2469 2590 2474 
310 327 412 413 2077 2584 2588 2590 2589 2594 
395 413 310 412 2592 2590 2469 2586 2594 2588 
396 310 413 311 2474 2590 2593 2476 1970 2595 
413 310 328 311 2590 2083 2591 2595 1970 2084 
311 328 414 329 2084 2596 2597 2090 2092 2598 
396 414 397 311 2599 2600 2486 2476 2597 2481 
311 328 413 414 2084 2591 2595 2597 2596 2601 
396 414 311 413 2599 2597 2476 2593 2601 2595 
397 311 414 312 2481 2597 2600 2483 1977 2602 
414 311 329 312 2597 2090 2598 2602 1977 2091 
312 329 415 330 2091 2603 2604 2097 2099 2605 
397 415 398 312 2606 2607 2493 2483 2604 2488 
312 329 414 415 2091 2598 2602 2604 2603 2608 
397 415 312 414 2606 2604 2483 2600 2608 2602 
398 312 415 313 2488 2604 2607 2490 1984 2609 
415 312 330 313 2604 2097 2605 2609 1984 2098 
313 330 416 331 2098 2610 2611 2104 2106 2612 
398 416 399 313 2613 2614 2500 2490 2611 2495 
313 330 415 416 2098 2605 2609 2611 2610 2615 
398 416 313 415 2613 2611 2490 2607 2615 2609 
399 313 416 314 2495 2611 2614 2497 1991 2616 
416 313 331 314 2611 2104 2612 2616 1991 2105 
314 331 417 332 2105 2617 2618 2111 2113 2619 
399 417 400 314 2620 2621 2507 2497 2618 2502 
314 331 416 417 2105 2612 2616 2618 2617 2622 
399 417 314 416 2620 2618 2497 2614 2622 2616 
400 314 417 315 2502 2618 2621 2504 1998 2623 
417 314 332 315 2618 2111 2619 2623 1998 2112 
315 332 418 333 2112 2624 2625 2118 2120 2626 
400 418 401 315 2627 2628 2514 2504 2625 2509 
315 332 417 418 2112 2619 2623 2625 2624 2629 
400 418 315 417 2627 2625 2504 2621 2629 2623 
401 315 418 316 2509 2625 2628 2511 2005 2630 
418 315 333 316 2625 2118 2626 2630 2005 2119 
316 333 419 334 2119 2631 2632 2125 2127 2633 
401 419 402 316 2634 2635 2521 2511 2632 2516 
316 333 418 419 2119 2626 2630 2632 2631 2636 
401 419 316 418 2634 2632 2511 2628 2636 2630 
402 316 419 317 2516 2632 2635 2518 2012 2637 
419 316 334 317 2632 2125 2633 2637 2012 2126 
317 334 420 335 2126 2638 2639 2132 2134 2640 
402 420 403 317 2641 2642 2528 2518 2639 2523 
317 334 419 420 2126 2633 2637 2639 2638 2643 
402 420 317 419 2641 2639 2518 2635 2643 2637 
403 317 420 318 2523 2639 2642 2525 2019 2644 
420 317 335 318 2639 2132 2640 2644 2019 2133 
318 335 421 336 2133 2645 2646 2139 2141 2647 
403 421 404 318 2648 2649 2535 2525 2646 2530 
318 335 420 421 2133 2640 2644 2646 2645 2650 
403 421 318 420 2648 2646 2525 2642 2650 2644 
404 318 421 319 2530 2646 2649 2532 2026 2651 
421 318 336 319 2646 2139 2647 2651 2026 2140 
319 336 422 337 2140 2652 2653 2146 2148 2654 
404 422 405 319 2655 2656 2542 2532 2653 2537 
319 336 421 422 2140 2647 2651 2653 2652 2657 
404 422 319 421 2655 2653 2532 2649 2657 2651 
405 319 422 320 2537 2653 2656 2539 2033 2658 
422 319 337 320 2653 2146 2654 2658 2033 2147 
320 337 423 338 2147 2659 2660 2153 2155 2661 
405 423 406 320 2662 2663 2549 2539 2660 2544 
320 337 422 423 2147 2654 2658 2660 2659 2664 
405 423 320 422 2662 2660 2539 2656 2664 2658 
406 320 423 321 2544 2660 2663 2546 2040 2665 
423 320 338 321 2660 2153 2661 2665 2040 2154 
321 338 424 339 2154 2666 2667 2160 2162 2668 
406 424 407 321 2669 2670 2556 2546 2667 2551 
321 338 423 424 2154 2661 2665 2667 2666 2671 
406 424 321 423 2669 2667 2546 2663 2671 2665 
407 321 424 322 2551 2667 2670 2553 2047 2672 
424 321 339 322 2667 2160 2668 2672 2047 2161 
CELL_TYPES 1536
24 24 24 24 24 24 24 24 24 24 24 24 24 24 24 24 24 24 24 24 24 24 24 24 24 24 24 24 24 24 24 24 24 24 24 24 24 24 24 24 24 24 24 24 24 24 24 24 24 24 24 24 24 24 24 24 24 24 24 24 24 24 24 24 24 24 24 24 24 24 24 24 24 24 24 24 24 24 24 24 24 24 24 24 24 24 24 24 24 24 24 24 24 24 24 24 24 24 24 24 24 24 24 24 24 24 24 24 24 24 24 24 24 24 24 24 24 24 24 24 24 24 24 24 24 24 24 24 24 24 24 24 24 24 24 24 24 24 24 24 24 24 24 24 24 24 24 24 24 24 24 24 24 24 24 24 24 24 24 24 24 24 24 24 24 24 24 24 24 24 24 24 24 24 24 24 24 24 24 24 24 24 24 24 24 24 24 24 24 24 24 24 24 24 24 24 24 24 24 24 24 24 24 24 24 24 24 24 24 24 24 24 24 24 24 24 24 24 24 24 24 24 24 24 24 24 24 24 24 24 24 24 24 24 24 24 24 24 24 24 24 24 24 24 24 24 24 24 24 24 24 24 24 24 24 24 24 24 24 24 24 24 24 24 24 24 24 24 24 24 24 24 24 24 24 24 24 24 24 24 24 24 24 24 24 24 24 24 24 24 24 24 24 24 24 24 24 24 24 24 24 24 24 24 24 24 24 24 24 24 24 24 24 24 24 24 24 24 24 24 24 24 24 24 24 24 24 24 24 24 24 24 24 24 24 24 24 24 24 24 24 24 24 24 24 24 24 24 24 24 24 24 24 24 24 24 24 24 24 24 24 24 24 24 24 24 24 24 24 24 24 24 24 24 24 24 24 24 24 24 24 24 24 24 24 24 24 24 24 24 24 24 24 24 24 24 24 24 24 24 24 24 24 24 24 24 24 24 24 24 24 24 24 24 24 24 24 24 24 24 24 24 24 24 24 24 24 24 24 24 24 24 24 24 24 24 24 24 24 24 24 24 24 24 24 24 24 24 24 24 24 24 24 24 24 24 24 24 24 24 24 24 24 24 24 24 24 24 24 24 24 24 24 24 24 24 24 24 24 24 24 24 24 24 24 24 24 24 24 24 24 24 24 24 24 24 24 24 24 24 24 24 24 24 24 24 24 24 24 24 24 24 24 24 24 24 24 24 24 24 24 24 24 24 24 24 24 24 24 24 24 24 24 24 24 24 24 24 24 24 24 24 24 24 24 24 24 24 24 24 24 24 24 24 24 24 24 24 24 24 24 24 24 24 24 24 24 24 24 24 24 24 24 24 24 24 24 24 24 24 24 24 24 24 24 24 24 24 24 24 24 24 24 24 24 24 24 24 24 24 24 24 24 24 24 24 24 24 24 24 24 24 24 24 24 24 24 24 24 24 24 24 24 24 24 24 24 24 24 24 24 24 24 24 24 24 24 24 24 24 24 24 24 24 24 24 24 24 24 24 24 24 24 24 24 24 24 24 24 24 24 24 24 24 24 24 24 24 24 24 24 24 24 24 24 24 24 24 24 24 24 24 24 24 24 24 24 24 24 24 24 24 24 24 24 24 24 24 24 24 24 24 24 24 24 24 24 24 24 24 24 24 24 24 24 24 24 24 24 24 24 24 24 24 24 24 24 24 24 24 24 24 24 24 24 24 24 24 24 24 24 24 24 24 24 24 24 24 24 24 24 24 24 24 24 24 24 24 24 24 24 24 24 24 24 24 24 24 24 24 24 24 24 24 24 24 24 24 24 24 24 24 24 24 24 24 24 24 24 24 24 24 24 24 24 24 24 24 24 24 24 24 24 24 24 24 24 24 24 24 24 24 24 24 24 24 24 24 24 24 24 24 24 24 24 24 24 24 24 24 24 24 24 24 24 24 24 24 24 24 24 24 24 24 24 24 24 24 24 24 24 24 24 24 24 24 24 24 24 24 24 24 24 24 24 24 24 24 24 24 24 24 24 24 24 24 24 24 24 24 24 24 24 24 24 24 24 24 24 24 24 24 24 24 24 24 24 24 24 24 24 24 24 24 24 24 24 24 24 24 24 24 24 24 24 24 24 24 24 24 24 24 24 24 24 24 24 24 24 24 24 24 24 24 24 24 24 24 24 24 24 24 24 24 24 24 24 24 24 24 24 24 24 24 24 24 24 24 24 24 24 24 24 24 24 24 24 24 24 24 24 24 24 24 24 24 24 24 24 24 24 24 24 24 24 24 24 24 24 24 24 24 24 24 24 24 24 24 24 24 24 24 24 24 24 24 24 24 24 24 24 24 24 24 24 24 24 24 24 24 24 24 24 24 24 24 24 24 24 24 24 24 24 24 24 24 24 24 24 24 24 24 24 24 24 24 24 24 24 24 24 24 24 24 24 24 24 24 24 24 24 24 24 24 24 24 24 24 24 24 24 24 24 24 24 24 24 24 24 24 24 24 24 24 24 24 24 24 24 24 24 24 24 24 24 24 24 24 24 24 24 24 24 24 24 24 24 24 24 24 24 24 24 24 24 24 24 24 24 24 24 24 24 24 24 24 24 24 24 24 24 24 24 24 24 24 24 24 24 24 24 24 24 24 24 24 24 24 24 24 24 24 24 24 24 24 24 24 24 24 24 24 24 24 24 24 24 24 24 24 24 24 24 24 24 24 24 24 24 24 24 24 24 24 24 24 24 24 24 24 24 24 24 24 24 24 24 24 24 24 24 24 24 24 24 24 24 24 24 24 24 24 24 24 24 24 24 24 24 24 24 24 24 24 24 24 24 24 24 24 24 24 24 24 24 24 24 24 24 24 24 24 24 24 24 24 24 24 24 24 24 24 24 24 24 24 24 24 24 24 24 24 24 24 24 24 24 24 24 24 24 24 24 24 24 24 24 24 24 24 24 24 24 24 24 24 24 24 24 24 24 24 24 24 24 24 24 24 24 24 24 24 24 24 24 24 24 24 24 24 24 24 24 24 24 24 24 24 24 24 24 24 24 24 24 24 24 24 24 24 24 24 24 24 24 24 24 24 24 24 24 24 24 24 24 24 24 24 24 24 24 24 24 24 24 24 24 24 24 24 24 24 24 24 24 24 24 24 24 24 24 24 24 24 24 24 24 24 24 24 24 24 24 24 24 24 24 24 24 24 24 24 24 24 24 24 24 24 24 24 24 24 24 24 24 24 24 24 24 24 24 24 24 24 24 24 24 24 24 24 24 24 24 24 24 24 24 24 24 24 24 24 24 24 24 24 24 24 24 24 24 24 24 24 24 24 24 24 24 24 24 24 24 24 24 24 24 24 24 24 24 24 24 24 24 24 24 24 24 24 24 24 24 24 24 24 24 24 24 24 24 24 24 24 24 24 24 24 24 24 24 24 24 24 24 24 24 24 24 24 24 24 24 24 24 24 24 24 24 24 24 24 24 24 24 24 24 24 24 24 24 24 24 24 24 24 24 24 24 24 24 24 24 24 24 24 

POINT_DATA 2673
SCALARS weights float 1
LOOKUP_TABLE default
1.5625 2.08333 2.08333 2.08333 2.08333 2.08333 2.08333 2.08333 2.08333 2.08333 2.08333 2.08333 2.08333 2.08333 2.08333 2.08333 0.520833 2.08333 3.125 3.125 3.125 3.125 3.125 3.125 3.125 3.125 3.125 3.125 3.125 3.125 3.125 3.125 3.125 1.04167 2.08333 3.125 3.125 3.125 3.125 3.125 3.125 3.125 3.125 3.125 3.125 3.125 3.125 3.125 3.125 3.125 1.04167 2.08333 3.125 3.125 3.125 3.125 3.125 3.125 3.125 3.125 3.125 3.125 3.125 3.125 3.125 3.125 3.125 1.04167 0.520833 1.04167 1.04167 1.04167 1.04167 1.04167 1.04167 1.04167 1.04167 1.04167 1.04167 1.04167 1.04167 1.04167 1.04166 1.04167 0.520833 2.08333 3.125 3.125 3.125 3.125 3.125 3.125 3.125 3.125 3.125 3.125 3.125 3.125 3.125 3.125 3.125 1.04167 3.125 6.25 6.25 6.25 6.25 6.25 6.25 6.25 6.25 6.25 6.25 6.25 6.25 6.25 6.25 6.25 3.125 3.125 6.25 6.25 6.25 6.25 6.25 6.25 6.25 6.25 6.25 6.25 6.25 6.25 6.25 6.25 6.25 3.125 3.125 6.25 6.25 6.25 6.25 6.25 6.25 6.25 6.25 6.25 6.25 6.25 6.25 6.25 6.25 6.25 3.125 1.04167 3.125 3.125 3.125 3.125 3.125 3.125 3.125 3.125 3.125 3.125 3.125 3.125 3.125 3.125 3.125 2.08333 2.08333 3.125 3.125 3.125 3.125 3.125 3.125 3.125 3.125 3.125 3.125 3.125 3.125 3.125 3.125 3.125 1.04167 3.125 6.25 6.25 6.25 6.25 6.25 6.25 6.25 6.25 6.25 6.25 6.25 6.25 6.25 6.25 6.25 3.125 3.125 6.25 6.25 6.25 6.25 6.25 6.25 6.25 6.25 6.25 6.25 6.25 6.25 6.25 6.25 6.25 3.125 3.125 6.25 6.25 6.25 6.25 6.25 6.25 6.25 6.25 6.25 6.25 6.25 6.25 6.25 6.25 6.25 3.125 1.04167 3.125 3.125 3.125 3.125 3.125 3.125 3.125 3.125 3.125 3.125 3.125 3.125 3.125 3.125 3.125 2.08333 2.08333 3.125 3.125 3.125 3.125 3.125 3.125 3.125 3.125 3.125 3.125 3.125 3.125 3.125 3.125 3.125 1.04167 3.125 6.25 6.25 6.25 6.25 6.25 6.25 6.25 6.25 6.25 6.25 6.25001 6.25 6.25 6.25 6.25 3.125 3.125 6.25 6.25 6.25 6.25 6.25 6.25 6.25 6.25 6.25 6.25 6.25001 6.25 6.25 6.25 6.25 3.125 3.125 6.25 6.25 6.25 6.25 6.25 6.25 6.25 6.25 6.25 6.25 6.25001 6.25 6.25 6.25 6.25 3.125 1.04167 3.125 3.125 3.125 3.125 3.125 3.125 3.125 3.125 3.125 3.125 3.125 3.125 3.125 3.125 3.125 2.08333 0.520833 1.04167 1.04167 1.04167 1.04167 1.04167 1.04167 1.04167 1.04167 1.04167 1.04167 1.04167 1.04167 1.04167 1.04167 1.04167 0.520833 1.04167 3.125 3.125 3.125 3.125 3.125 3.125 3.125 3.125 3.125 3.125 3.125 3.125 3.125 3.125 3.125 2.08334 1.04167 3.125 3.125 3.125 3.125 3.125 3.125 3.125 3.125 3.125 3.125 3.125 3.125 3.125 3.125 3.125 2.08334 1.04167 3.125 3.125 3.125 3.125 3.125 3.125 3.125 3.125 3.125 3.125 3.125 3.125 3.125 3.125 3.125 2.08334 0.520833 2.08333 2.08333 2.08333 2.08333 2.08333 2.08333 2.08333 2.08333 2.08333 2.08333 2.08334 2.08333 2.08333 2.08333 2.08333 1.5625 0.520833 1.04167 1.5625 0.520833 0.781249 1.5625 1.04167 1.5625 0.78125 0.520833 0.520833 0.78125 0.520833 1.5625 0.78125 0.78125 0.520833 1.04167 0.781249 1.04167 1.5625 0.520833 0.781249 1.5625 1.04167 1.5625 0.78125 0.520833 1.5625 0.78125 0.520833 1.04167 0.781249 1.04167 1.5625 0.520833 0.781249 1.5625 1.04167 1.5625 0.78125 0.520833 1.5625 0.78125 0.520833 1.04167 0.781249 1.04167 1.5625 0.520833 0.781249 1.5625 1.04167 1.5625 0.78125 0.520833 1.5625 0.78125 0.520833 1.04167 0.781249 1.04167 1.5625 0.520833 0.781249 1.5625 1.04167 1.5625 0.78125 0.520833 1.5625 0.78125 0.520833 1.04167 0.781249 1.04167 1.5625 0.520833 0.781249 1.5625 1.04167 1.5625 0.78125 0.520833 1.5625 0.78125 0.520833 1.04167 0.781249 1.04167 1.5625 0.520833 0.781249 1.5625 1.04167 1.5625 0.78125 0.520833 1.5625 0.781249 0.520833 1.04167 0.781249 1.04167 1.5625 0.520833 0.781249 1.5625 1.04167 1.5625 0.78125 0.520833 1.5625 0.78125 0.520833 1.04167 0.781249 1.04167 1.5625 0.520832 0.781249 1.5625 1.04167 1.5625 0.781249 0.520833 1.5625 0.78125 0.520832 1.04167 0.781249 1.04167 1.5625 0.520833 0.781249 1.5625 1.04167 1.5625 0.78125 0.520833 1.5625 0.78125 0.520832 1.04167 0.781249 1.04167 1.5625 0.520833 0.78125 1.5625 1.04167 1.5625 0.781251 0.520833 1.5625 0.78125 0.520833 1.04167 0.78125 1.04167 1.5625 0.520833 0.78125 1.5625 1.04167 1.5625 0.78125 0.520833 1.5625 0.78125 0.520833 1.04167 0.781249 1.04167 1.5625 0.520833 0.781249 1.5625 1.04167 1.5625 0.78125 0.520833 1.5625 0.78125 0.520833 1.04167 0.781249 1.04167 1.5625 0.520833 0.781249 1.5625 1.04167 1.5625 0.781251 0.520833 1.5625 0.78125 0.520833 1.04167 0.781249 1.04167 1.5625 0.520832 0.781249 1.5625 1.04167 1.5625 0.78125 0.520833 1.5625 0.78125 0.520833 1.04167 0.78125 1.04167 1.5625 0.520833 0.78125 0.78125 1.04167 0.78125 0.78125 0.520833 1.5625 0.260416 0.520833 0.520833 0.260416 0.520833 1.04167 1.5625 0.520833 0.781249 1.5625 1.04167 1.5625 0.78125 0.520833 1.5625 0.78125 1.04167 0.781249 1.04167 1.5625 0.520833 0.781249 1.5625 1.04167 1.5625 1.5625 1.04167 0.78125 1.04167 1.5625 0.520833 0.781249 1.5625 1.04167 1.5625 1.5625 1.04167 0.781249 1.04167 1.5625 0.520833 0.781249 1.5625 1.04167 1.5625 1.5625 1.04167 0.781249 1.04167 1.5625 0.520833 0.781249 1.5625 1.04167 1.5625 1.5625 1.04167 0.781249 1.04167 1.5625 0.520833 0.781249 1.5625 1.04167 1.5625 1.5625 1.04167 0.781249 1.04167 1.5625 0.520833 0.781249 1.5625 1.04167 1.5625 1.5625 1.04167 0.781249 1.04167 1.5625 0.520833 0.781249 1.5625 1.04167 1.5625 1.5625 1.04167 0.78125 1.04167 1.5625 0.520833 0.781249 1.5625 1.04167 1.5625 1.5625 1.04167 0.781249 1.04167 1.5625 0.520833 0.781249 1.5625 1.04167 1.5625 1.5625 1.04167 0.78125 1.04167 1.5625 0.520833 0.78125 1.5625 1.04167 1.5625 1.5625 1.04167 0.78125 1.04167 1.5625 0.520833 0.781249 1.5625 1.04167 1.5625 1.5625 1.04167 0.781249 1.04167 1.5625 0.520833 0.781249 1.5625 1.04167 1.5625 1.5625 1.04167 0.781249 1.04167 1.5625 0.520833 0.781249 1.5625 1.04167 1.5625 1.5625 1.04167 0.781249 1.04167 1.5625 0.520833 0.781249 1.5625 1.04167 1.5625 1.5625 1.04167 0.78125 1.04167 1.5625 0.520833 0.78125 0.78125 1.04167 0.78125 1.5625 0.520833 0.260416 0.520833 1.04167 1.5625 0.520833 0.781249 1.5625 1.04167 1.5625 0.78125 0.520833 1.5625 0.781251 1.04167 0.78125 1.04167 1.5625 0.520833 0.781249 1.5625 1.04167 1.5625 1.5625 1.04167 0.78125 1.04167 1.5625 0.520833 0.781249 1.5625 1.04167 1.5625 1.5625 1.04167 0.781249 1.04167 1.5625 0.520833 0.781249 1.5625 1.04167 1.5625 1.5625 1.04167 0.78125 1.04167 1.5625 0.520833 0.781249 1.5625 1.04167 1.5625 1.5625 1.04167 0.781249 1.04167 1.5625 0.520833 0.781249 1.5625 1.04167 1.5625 1.5625 1.04167 0.781249 1.04167 1.5625 0.520833 0.781249 1.5625 1.04167 1.5625 1.5625 1.04167 0.781249 1.04167 1.5625 0.520833 0.781249 1.5625 1.04167 1.5625 1.5625 1.04167 0.78125 1.04167 1.5625 0.520833 0.781248 1.5625 1.04167 1.5625 1.5625 1.04167 0.781249 1.04167 1.5625 0.520833 0.781249 1.5625 1.04167 1.5625 1.5625 1.04167 0.78125 1.04167 1.5625 0.520833 0.78125 1.5625 1.04167 1.5625 1.5625 1.04167 0.78125 1.04167 1.5625 0.520833 0.781249 1.5625 1.04167 1.5625 1.5625 1.04167 0.781249 1.04167 1.5625 0.520833 0.781249 1.5625 1.04167 1.5625 1.5625 1.04167 0.78125 1.04167 1.5625 0.520833 0.781249 1.5625 1.04167 1.5625 1.5625 1.04167 0.781249 1.04167 1.5625 0.520833 0.781249 1.5625 1.04167 1.5625 1.5625 1.04167 0.78125 1.04167 1.5625 0.520833 0.78125 0.78125 1.04167 0.78125 1.5625 0.520833 0.260416 0.520833 0.520833 1.5625 0.520833 0.260416 0.781249 1.04167 1.5625 0.260417 0.520833 0.78125 0.78125 1.04167 0.781249 0.520833 1.5625 0.520833 0.260416 0.781249 1.04167 1.5625 0.78125 1.04167 0.781249 0.520833 1.5625 0.520833 0.260416 0.781249 1.04167 1.5625 0.78125 1.04167 0.781249 0.520833 1.5625 0.520833 0.260416 0.781249 1.04167 1.5625 0.78125 1.04167 0.781249 0.520833 1.5625 0.520833 0.260416 0.781249 1.04167 1.5625 0.78125 1.04167 0.781249 0.520833 1.5625 0.520833 0.260416 0.781249 1.04167 1.5625 0.78125 1.04167 0.781249 0.520833 1.5625 0.520833 0.260416 0.781249 1.04167 1.5625 0.78125 1.04167 0.781249 0.520833 1.5625 0.520833 0.260416 0.781249 1.04167 1.5625 0.78125 1.04167 0.781249 0.520833 1.5625 0.520832 0.260416 0.781249 1.04167 1.5625 0.78125 1.04167 0.781249 0.520833 1.5625 0.520832 0.260416 0.781249 1.04167 1.5625 0.78125 1.04167 0.781249 0.520833 1.5625 0.520833 0.260417 0.78125 1.04167 1.5625 0.781251 1.04167 0.78125 0.520834 1.5625 0.520833 0.260417 0.781249 1.04167 1.5625 0.781251 1.04167 0.781249 0.520833 1.5625 0.520833 0.260416 0.781249 1.04167 1.5625 0.78125 1.04167 0.781249 0.520833 1.5625 0.520833 0.260416 0.781249 1.04167 1.5625 0.78125 1.04167 0.781249 0.520832 1.5625 0.520832 0.260416 0.781249 1.04167 1.5625 0.78125 1.04167 0.78125 0.520834 1.5625 0.520833 0.260417 0.520833 1.04167 0.78125 0.781251 0.520832 0.260416 1.04167 1.5625 1.5625 1.04167 1.5625 0.78125 0.520833 0.520833 0.78125 0.520833 1.5625 0.78125 0.781249 1.04167 1.04167 1.5625 1.5625 1.04167 1.5625 0.78125 0.520833 1.5625 0.781249 1.04167 1.04167 1.5625 1.5625 1.04167 1.5625 0.78125 0.520833 1.5625 0.781249 1.04167 1.04167 1.5625 1.5625 1.04167 1.5625 0.78125 0.520833 1.5625 0.781249 1.04167 1.04167 1.5625 1.5625 1.04167 1.5625 0.78125 0.520833 1.5625 0.78125 1.04167 1.04167 1.5625 1.5625 1.04167 1.5625 0.78125 0.520833 1.5625 0.781249 1.04167 1.04167 1.5625 1.5625 1.04167 1.5625 0.78125 0.520833 1.5625 0.781249 1.04167 1.04167 1.5625 1.5625 1.04167 1.5625 0.781249 0.520833 1.5625 0.781249 1.04167 1.04167 1.5625 1.5625 1.04167 1.5625 0.781249 0.520833 1.5625 0.781249 1.04167 1.04167 1.5625 1.5625 1.04167 1.5625 0.78125 0.520833 1.5625 0.78125 1.04167 1.04167 1.5625 1.5625 1.04167 1.5625 0.78125 0.520833 1.5625 0.78125 1.04167 1.04167 1.5625 1.5625 1.04167 1.5625 0.78125 0.520833 1.5625 0.781249 1.04167 1.04167 1.5625 1.5625 1.04167 1.5625 0.78125 0.520833 1.5625 0.78125 1.04167 1.04167 1.5625 1.5625 1.04167 1.5625 0.78125 0.520833 1.5625 0.781249 1.04167 1.04167 1.5625 1.5625 1.04167 1.5625 0.781249 0.520833 1.5625 0.781249 1.04167 1.04167 1.5625 0.781251 1.04167 0.78125 0.78125 0.520833 1.5625 0.260417 0.520833 1.04167 1.5625 1.5625 1.04167 1.5625 0.78125 0.520833 1.5625 0.78125 1.04167 1.04167 1.5625 1.5625 1.04167 1.5625 1.5625 1.04167 1.04167 1.5625 1.5625 1.04167 1.5625 1.5625 1.04167 1.04167 1.5625 1.5625 1.04167 1.5625 1.5625 1.04167 1.04167 1.5625 1.5625 1.04167 1.5625 1.5625 1.04167 1.04167 1.5625 1.5625 1.04167 1.5625 1.5625 1.04167 1.04167 1.5625 1.5625 1.04167 1.5625 1.5625 1.04167 1.04167 1.5625 1.5625 1.04167 1.5625 1.5625 1.04167 1.04167 1.5625 1.5625 1.04167 1.5625 1.5625 1.04167 1.04167 1.5625 1.5625 1.04167 1.5625 1.5625 1.04167 1.04167 1.5625 1.5625 1.04167 1.5625 1.5625 1.04167 1.04167 1.5625 1.5625 1.04167 1.5625 1.5625 1.04167 1.04167 1.5625 1.5625 1.04167 1.5625 1.5625 1.04167 1.04167 1.5625 1.5625 1.04167 1.5625 1.5625 1.04167 1.04167 1.5625 1.5625 1.04167 1.5625 1.5625 1.04167 1.04167 1.5625 0.781251 1.04167 0.78125 1.5625 0.520833 1.04167 1.5625 1.5625 1.04167 1.5625 0.78125 0.520833 1.5625 0.78125 1.04167 1.04167 1.5625 1.5625 1.04167 1.5625 1.5625 1.04167 1.04167 1.5625 1.5625 1.04167 1.5625 1.5625 1.04167 1.04167 1.5625 1.5625 1.04167 1.5625 1.5625 1.04167 1.04167 1.5625 1.5625 1.04167 1.5625 1.5625 1.04167 1.04167 1.5625 1.5625 1.04167 1.5625 1.5625 1.04167 1.04167 1.5625 1.5625 1.04167 1.5625 1.5625 1.04167 1.04167 1.5625 1.5625 1.04167 1.5625 1.5625 1.04167 1.04167 1.5625 1.5625 1.04167 1.5625 1.5625 1.04167 1.04167 1.5625 1.5625 1.04167 1.5625 1.5625 1.04167 1.04167 1.5625 1.5625 1.04167 1.5625 1.5625 1.04167 1.04167 1.5625 1.5625 1.04167 1.5625 1.5625 1.04167 1.04167 1.5625 1.5625 1.04167 1.5625 1.5625 1.04167 1.04167 1.5625 1.5625 1.04167 1.5625 1.5625 1.04167 1.04167 1.5625 1.5625 1.04167 1.5625 1.5625 1.04167 1.04167 1.5625 0.781251 1.04167 0.78125 1.5625 0.520833 0.520834 1.5625 0.78125 1.04167 1.5625 0.260417 0.520833 0.78125 0.781249 1.04167 0.520834 1.5625 0.78125 1.04167 1.5625 0.78125 1.04167 0.520834 1.5625 0.78125 1.04167 1.5625 0.78125 1.04167 0.520834 1.5625 0.78125 1.04167 1.5625 0.78125 1.04167 0.520834 1.5625 0.78125 1.04167 1.5625 0.78125 1.04167 0.520834 1.5625 0.78125 1.04167 1.5625 0.78125 1.04167 0.520833 1.5625 0.78125 1.04167 1.5625 0.781249 1.04167 0.520834 1.5625 0.781251 1.04167 1.5625 0.781249 1.04167 0.520834 1.5625 0.78125 1.04167 1.5625 0.78125 1.04167 0.520834 1.5625 0.78125 1.04167 1.5625 0.78125 1.04167 0.520834 1.5625 0.781251 1.04167 1.5625 0.78125 1.04167 0.520834 1.5625 0.78125 1.04167 1.5625 0.78125 1.04167 0.520833 1.5625 0.78125 1.04167 1.5625 0.781249 1.04167 0.520834 1.5625 0.78125 1.04167 1.5625 0.781249 1.04167 0.520833 1.5625 0.78125 1.04167 1.5625 0.781249 1.04167 0.520835 1.5625 0.520834 1.04167 0.78125 0.781251 0.520833 1.04167 1.5625 1.5625 1.04167 1.5625 0.78125 0.520833 0.520833 0.78125 0.520833 1.5625 0.78125 0.78125 1.04167 1.04167 1.5625 1.5625 1.04167 1.5625 0.78125 0.520833 1.5625 0.781249 1.04167 1.04167 1.5625 1.5625 1.04167 1.5625 0.78125 0.520833 1.5625 0.781249 1.04167 1.04167 1.5625 1.5625 1.04167 1.5625 0.78125 0.520833 1.5625 0.781249 1.04167 1.04167 1.5625 1.5625 1.04167 1.5625 0.78125 0.520833 1.5625 0.78125 1.04167 1.04167 1.5625 1.5625 1.04167 1.5625 0.781251 0.520833 1.5625 0.781249 1.04167 1.04167 1.5625 1.5625 1.04167 1.5625 0.78125 0.520833 1.5625 0.781249 1.04167 1.04167 1.5625 1.5625 1.04167 1.5625 0.78125 0.520833 1.5625 0.781249 1.04167 1.04167 1.5625 1.5625 1.04167 1.5625 0.78125 0.520833 1.5625 0.781249 1.04167 1.04167 1.5625 1.5625 1.04167 1.5625 0.78125 0.520833 1.5625 0.78125 1.04167 1.04167 1.5625 1.5625 1.04167 1.5625 0.781251 0.520833 1.5625 0.78125 1.04167 1.04167 1.5625 1.5625 1.04167 1.5625 0.78125 0.520833 1.5625 0.781249 1.04167 1.04167 1.5625 1.5625 1.04167 1.5625 0.781251 0.520833 1.5625 0.78125 1.04167 1.04167 1.5625 1.5625 1.04167 1.5625 0.781251 0.520833 1.5625 0.781249 1.04167 1.04167 1.5625 1.5625 1.04167 1.5625 0.78125 0.520833 1.5625 0.781249 1.04167 1.04167 1.5625 0.78125 1.04167 0.78125 0.78125 0.520833 1.5625 0.260416 0.520833 1.04167 1.5625 1.5625 1.04167 1.5625 0.78125 0.520833 1.5625 0.78125 1.04167 1.04167 1.5625 1.5625 1.04167 1.5625 1.5625 1.04167 1.04167 1.5625 1.5625 1.04167 1.5625 1.5625 1.04167 1.04167 1.5625 1.5625 1.04167 1.5625 1.5625 1.04167 1.04167 1.5625 1.5625 1.04167 1.5625 1.5625 1.04167 1.04167 1.5625 1.5625 1.04167 1.5625 1.5625 1.04167 1.04167 1.5625 1.5625 1.04167 1.5625 1.5625 1.04167 1.04167 1.5625 1.5625 1.04167 1.5625 1.5625 1.04167 1.04167 1.5625 1.5625 1.04167 1.5625 1.5625 1.04167 1.04167 1.5625 1.5625 1.04167 1.5625 1.5625 1.04167 1.04167 1.5625 1.5625 1.04167 1.5625 1.5625 1.04167 1.04167 1.5625 1.5625 1.04167 1.5625 1.5625 1.04167 1.04167 1.5625 1.5625 1.04167 1.5625 1.5625 1.04167 1.04167 1.5625 1.5625 1.04167 1.5625 1.5625 1.04167 1.04167 1.5625 1.5625 1.04167 1.5625 1.5625 1.04167 1.04167 1.5625 0.78125 1.04167 0.78125 1.5625 0.520833 1.04167 1.5625 1.5625 1.04167 1.5625 0.78125 0.520833 1.5625 0.781251 1.04167 1.04167 1.5625 1.5625 1.04167 1.5625 1.5625 1.04167 1.04167 1.5625 1.5625 1.04167 1.5625 1.5625 1.04167 1.04167 1.5625 1.5625 1.04167 1.5625 1.5625 1.04167 1.04167 1.5625 1.5625 1.04167 1.5625 1.5625 1.04167 1.04167 1.5625 1.5625 1.04167 1.5625 1.5625 1.04167 1.04167 1.5625 1.5625 1.04167 1.5625 1.5625 1.04167 1.04167 1.5625 1.5625 1.04167 1.5625 1.5625 1.04167 1.04167 1.5625 1.5625 1.04167 1.5625 1.5625 1.04167 1.04167 1.5625 1.5625 1.04167 1.5625 1.5625 1.04167 1.04167 1.5625 1.5625 1.04167 1.5625 1.5625 1.04167 1.04167 1.5625 1.5625 1.04167 1.5625 1.5625 1.04167 1.04167 1.5625 1.5625 1.04167 1.5625 1.5625 1.04167 1.04167 1.5625 1.5625 1.04167 1.5625 1.5625 1.04167 1.04167 1.5625 1.5625 1.04167 1.5625 1.5625 1.04167 1.04167 1.5625 0.78125 1.04167 0.78125 1.5625 0.520833 0.520833 1.5625 0.78125 1.04167 1.5625 0.260417 0.520833 0.78125 0.78125 1.04167 0.520833 1.5625 0.78125 1.04167 1.5625 0.78125 1.04167 0.520833 1.5625 0.78125 1.04167 1.5625 0.78125 1.04167 0.520833 1.5625 0.78125 1.04167 1.5625 0.78125 1.04167 0.520833 1.5625 0.78125 1.04167 1.5625 0.78125 1.04167 0.520833 1.5625 0.78125 1.04167 1.5625 0.78125 1.04167 0.520833 1.5625 0.78125 1.04167 1.5625 0.78125 1.04167 0.520833 1.5625 0.78125 1.04167 1.5625 0.78125 1.04167 0.520833 1.5625 0.78125 1.04167 1.5625 0.78125 1.04167 0.520833 1.5625 0.78125 1.04167 1.5625 0.78125 1.04167 0.520833 1.5625 0.78125 1.04167 1.5625 0.781251 1.04167 0.520834 1.5625 0.78125 1.04167 1.5625 0.781251 1.04167 0.520833 1.5625 0.78125 1.04167 1.5625 0.78125 1.04167 0.520833 1.5625 0.78125 1.04167 1.5625 0.78125 1.04167 0.520833 1.5625 0.78125 1.04167 1.5625 0.78125 1.04167 0.520834 1.5625 0.520834 1.04167 0.78125 0.781251 0.520833 1.04167 1.5625 1.5625 0.520833 0.78125 0.260417 0.520833 0.520833 0.78125 0.520834 0.78125 0.260417 0.78125 1.04167 1.04167 1.5625 1.5625 0.520833 0.78125 0.260417 0.520833 0.78125 0.78125 1.04167 1.04167 1.5625 1.5625 0.520833 0.78125 0.260417 0.520833 0.78125 0.78125 1.04167 1.04167 1.5625 1.5625 0.520833 0.78125 0.260417 0.520833 0.78125 0.78125 1.04167 1.04167 1.5625 1.5625 0.520833 0.78125 0.260417 0.520833 0.78125 0.78125 1.04167 1.04167 1.5625 1.5625 0.520834 0.78125 0.260417 0.520834 0.78125 0.78125 1.04167 1.04167 1.5625 1.5625 0.520833 0.78125 0.260417 0.520833 0.78125 0.78125 1.04167 1.04167 1.5625 1.5625 0.520833 0.78125 0.260416 0.520833 0.781249 0.78125 1.04167 1.04167 1.5625 1.5625 0.520833 0.78125 0.260416 0.520833 0.78125 0.78125 1.04167 1.04167 1.5625 1.5625 0.520833 0.78125 0.260417 0.520833 0.78125 0.78125 1.04167 1.04167 1.5625 1.5625 0.520834 0.781251 0.260417 0.520834 0.781251 0.781251 1.04167 1.04167 1.5625 1.5625 0.520834 0.78125 0.260417 0.520833 0.781251 0.78125 1.04167 1.04167 1.5625 1.5625 0.520833 0.78125 0.260417 0.520834 0.78125 0.781251 1.04167 1.04167 1.5625 1.5625 0.520834 0.78125 0.260417 0.520834 0.78125 0.78125 1.04167 1.04167 1.5625 1.5625 0.520833 0.78125 0.260416 0.520833 0.78125 0.78125 1.04167 1.04167 1.5625 0.781252 0.520833 0.520833 0.260417 0.520833 0.781251 0.260417 0.520834 1.04167 1.5625 1.5625 0.520833 0.78125 0.78125 0.520834 0.78125 0.260417 1.04167 1.04167 1.5625 1.5625 0.520833 0.78125 0.78125 1.04167 1.04167 1.5625 1.5625 0.520833 0.78125 0.78125 1.04167 1.04167 1.5625 1.5625 0.520833 0.78125 0.78125 1.04167 1.04167 1.5625 1.5625 0.520833 0.78125 0.78125 1.04167 1.04167 1.5625 1.5625 0.520834 0.78125 0.78125 1.04167 1.04167 1.5625 1.5625 0.520833 0.78125 0.78125 1.04167 1.04167 1.5625 1.5625 0.520833 0.78125 0.78125 1.04167 1.04167 1.5625 1.5625 0.520833 0.78125 0.78125 1.04167 1.04167 1.5625 1.5625 0.520833 0.78125 0.78125 1.04167 1.04167 1.5625 1.5625 0.520834 0.781251 0.781251 1.04167 1.04167 1.5625 1.5625 0.520834 0.78125 0.781251 1.04167 1.04167 1.5625 1.5625 0.520833 0.78125 0.78125 1.04167 1.04167 1.5625 1.5625 0.520834 0.781251 0.78125 1.04167 1.04167 1.5625 1.5625 0.520833 0.78125 0.78125 1.04167 1.04167 1.5625 0.781252 0.520833 0.520833 0.78125 0.520834 1.04167 1.5625 1.5625 0.520833 0.78125 0.78125 0.520834 0.78125 0.260417 1.04167 1.04167 1.5625 1.5625 0.520833 0.78125 0.78125 1.04167 1.04167 1.5625 1.5625 0.520833 0.78125 0.78125 1.04167 1.04167 1.5625 1.5625 0.520833 0.78125 0.78125 1.04167 1.04167 1.5625 1.5625 0.520833 0.78125 0.78125 1.04167 1.04167 1.5625 1.5625 0.520834 0.78125 0.78125 1.04167 1.04167 1.5625 1.5625 0.520833 0.78125 0.78125 1.04167 1.04167 1.5625 1.5625 0.520833 0.78125 0.78125 1.04167 1.04167 1.5625 1.5625 0.520833 0.78125 0.78125 1.04167 1.04167 1.5625 1.5625 0.520833 0.78125 0.78125 1.04167 1.04167 1.5625 1.5625 0.520834 0.781251 0.781251 1.04167 1.04167 1.5625 1.5625 0.520834 0.78125 0.781251 1.04167 1.04167 1.5625 1.5625 0.520833 0.78125 0.78125 1.04167 1.04167 1.5625 1.5625 0.520834 0.781251 0.78125 1.04167 1.04167 1.5625 1.5625 0.520833 0.78125 0.78125 1.04167 1.04167 1.5625 0.781252 0.520833 0.520833 0.781251 0.520834 0.520834 1.5625 0.781251 0.520833 0.78125 0.260417 0.520833 0.520833 0.260417 1.04167 0.520834 1.5625 0.781251 0.520833 0.78125 0.520833 1.04167 0.520834 1.5625 0.781251 0.520833 0.78125 0.520833 1.04167 0.520834 1.5625 0.781251 0.520833 0.78125 0.520833 1.04167 0.520834 1.5625 0.781251 0.520833 0.78125 0.520833 1.04167 0.520834 1.5625 0.781251 0.520833 0.78125 0.520833 1.04167 0.520834 1.5625 0.781251 0.520833 0.78125 0.520833 1.04167 0.520834 1.5625 0.781251 0.520833 0.78125 0.520833 1.04167 0.520834 1.5625 0.781251 0.520833 0.78125 0.520834 1.04167 0.520834 1.5625 0.781251 0.520833 0.78125 0.520833 1.04167 0.520834 1.5625 0.781252 0.520834 0.78125 0.520834 1.04167 0.520835 1.5625 0.781251 0.520833 0.78125 0.520834 1.04167 0.520834 1.5625 0.781251 0.520833 0.78125 0.520833 1.04167 0.520834 1.5625 0.781251 0.520834 0.78125 0.520833 1.04167 0.520833 1.5625 0.781251 0.520833 0.78125 0.520833 1.04167 0.520835 1.5625 0.520835 0.520833 0.520833 0.520834 0.520834 
VECTORS u float
0 0 0  -0.020518 -0.00939489 -0.0180581  -0.0368362 -0.0286862 -0.0166678  -0.0538262 -0.060532 -0.00983071  -0.0708752 -0.1017 -0.00109291  -0.0875717 -0.15033 0.00844288  -0.103741 -0.205061 0.018434  -0.119363 -0.264869 0.0287893  -0.134392 -0.328739 0.039391  -0.148833 -0.39582 0.0501666  -0.162647 -0.465267 0.0610051  -0.175857 -0.536425 0.0718458  -0.188449 -0.608628 0.082587  -0.200478 -0.681398 0.0931871  -0.211985 -0.754267 0.103559  -0.22309 -0.826963 0.113712  -0.233955 -0.899301 0.123725  0 0 0  -0.005744 -0.00342748 -0.00632024  -0.0116673 -0.0247382 -0.00425887  -0.0188808 -0.0583354 0.00134754  -0.0274017 -0.101391 0.00852299  -0.0369909 -0.151917 0.01665  -0.0473577 -0.208509 0.0254347  -0.0583204 -0.269966 0.034724  -0.0697019 -0.335304 0.0443981  -0.081373 -0.403572 0.054352  -0.0931766 -0.474009 0.0644875  -0.105005 -0.545878 0.0747139  -0.116746 -0.618623 0.0849636  -0.128335 -0.691707 0.0951655  -0.139713 -0.764792 0.105277  -0.150872 -0.83756 0.115274  -0.161792 -0.909825 0.125235  0 0 0  0.00417629 -0.00327289 0.00424814  0.0084008 -0.0257705 0.00717592  0.0108056 -0.0604248 0.0116694  0.0109653 -0.1045 0.0174901  0.00891113 -0.156187 0.0243564  0.00485265 -0.21395 0.0320184  -0.00094223 -0.276551 0.0403452  -0.00819051 -0.342885 0.0491552  -0.0166187 -0.412025 0.0583661  -0.0259693 -0.48314 0.0678458  -0.035996 -0.555551 0.0775306  -0.046484 -0.62866 0.0873144  -0.0572557 -0.702006 0.0971644  -0.068157 -0.775227 0.107011  -0.0790875 -0.848082 0.116847  -0.0899401 -0.920316 0.126649  0 0 0  0.0140775 -0.00836772 0.0142035  0.0280738 -0.0320188 0.0175521  0.0398922 -0.0670344 0.0211012  0.0486308 -0.111574 0.0257742  0.0540607 -0.163797 0.0315306  0.056349 -0.222195 0.038219  0.055787 -0.285399 0.0456522  0.0527701 -0.352302 0.0536962  0.0476682 -0.421886 0.0622134  0.0408721 -0.493361 0.0711036  0.0327172 -0.565997 0.0802631  0.0235574 -0.639257 0.0896306  0.0136576 -0.712651 0.0991459  0.00329065 -0.785879 0.108757  -0.0073719 -0.858673 0.118424  -0.0181146 -0.930955 0.128083  0 0 0  0.0264101 -0.019372 0.0219638  0.0505345 -0.0432372 0.0266488  0.0718799 -0.0781311 0.0295725  0.0890906 -0.122683 0.0332949  0.101793 -0.175067 0.0381477  0.110167 -0.233624 0.0439682  0.114606 -0.297016 0.0506394  0.115595 -0.364013 0.0579712  0.113609 -0.43365 0.0658758  0.109148 -0.505061 0.0742016  0.102655 -0.577595 0.0828922  0.0945868 -0.650654 0.0918503  0.0853236 -0.723858 0.101056  0.0752423 -0.796834 0.110438  0.0646546 -0.86944 0.119993  0.0538802 -0.94165 0.12961  0 0 0  -0.019792 -0.0191939 -0.00855708  -0.0405064 -0.0390126 -0.0074017  -0.0605145 -0.0690067 -0.00183511  -0.0792933 -0.108324 0.00554633  -0.0969623 -0.155366 0.0138636  -0.113718 -0.208788 0.0227697  -0.129671 -0.267457 0.0321817  -0.144894 -0.330378 0.0419524  -0.159398 -0.396641 0.0520177  -0.173211 -0.465435 0.0622456  -0.186337 -0.536038 0.0725904  -0.198827 -0.607832 0.0829265  -0.210717 -0.680289 0.0932319  -0.222107 -0.752982 0.103408  -0.233116 -0.825589 0.113475  -0.243967 -0.897935 0.123421  0 0 0  -0.00598982 -0.00999954 -0.00324011  -0.0156447 -0.0325508 -0.000557423  -0.025489 -0.0654841 0.00462842  -0.0355453 -0.107276 0.0112374  -0.0460373 -0.156524 0.018815  -0.0569884 -0.211939 0.0271184  -0.0683179 -0.27238 0.0359921  -0.079936 -0.336823 0.045311  -0.0917177 -0.404353 0.0549569  -0.10356 -0.474154 0.0648403  -0.115348 -0.545527 0.0748639  -0.127019 -0.617865 0.0849526  -0.138499 -0.69067 0.0950441  -0.149781 -0.763552 0.105086  -0.160853 -0.836221 0.115057  -0.171767 -0.908476 0.124953  0 0 0  0.00150374 -0.00840163 0.00197291  0.00418931 -0.0324747 0.00551629  0.00498873 -0.0668055 0.0103199  0.00388074 -0.109916 0.0162737  0.000896335 -0.160488 0.0232387  -0.00383806 -0.217208 0.0310032  -0.0101217 -0.278865 0.0394297  -0.0177113 -0.344379 0.0483479  -0.0263698 -0.412809 0.0576584  -0.0358558 -0.483333 0.0672362  -0.0459473 -0.555252 0.0770073  -0.0564506 -0.627974 0.0868752  -0.0672042 -0.701028 0.0968008  -0.0780699 -0.774049 0.106715  -0.0889568 -0.846774 0.116604  -0.0997801 -0.919028 0.126436  0 0 0  0.00942233 -0.0130756 0.00681829  0.0236229 -0.0380087 0.0108266  0.0347866 -0.0728116 0.0152047  0.0425105 -0.116495 0.020658  0.0470111 -0.167754 0.0271375  0.0485375 -0.225207 0.0344956  0.0473884 -0.287568 0.0425458  0.0439253 -0.353697 0.0511525  0.0384974 -0.422634 0.0601737  0.0314696 -0.493536 0.0695126  0.0231655 -0.565716 0.0790548  0.0139027 -0.638587 0.0887516  0.00394464 -0.711709 0.0985267  -0.00645518 -0.784728 0.108342  -0.0171165 -0.857419 0.118152  -0.0278537 -0.929687 0.127917  0 0 0  0.0221486 -0.025098 0.0103216  0.0466421 -0.0490751 0.0148063  0.0673303 -0.0833371 0.0191483  0.0834841 -0.127051 0.0243323  0.0951917 -0.178534 0.0305274  0.102773 -0.236266 0.0375903  0.106577 -0.298877 0.0453854  0.107072 -0.36519 0.0537417  0.104715 -0.434219 0.0625505  0.0999758 -0.50512 0.071682  0.0932882 -0.577212 0.0810509  0.0850823 -0.649932 0.0905838  0.0757272 -0.722857 0.10024  0.0655921 -0.795668 0.109961  0.0549896 -0.868188 0.119728  0.044219 -0.940419 0.129462  0 0 0  -0.0216736 -0.0229101 -0.000244379  -0.0436337 -0.0431834 0.00263047  -0.0651631 -0.0726238 0.00730467  -0.0853297 -0.111112 0.013217  -0.104097 -0.157387 0.0201046  -0.121668 -0.210125 0.0277555  -0.138234 -0.268222 0.0360773  -0.153902 -0.330635 0.0449166  -0.168735 -0.396483 0.0541747  -0.182768 -0.464916 0.063735  -0.196049 -0.535244 0.073513  -0.208621 -0.606808 0.0834093  -0.220566 -0.67911 0.0933797  -0.231981 -0.751684 0.103343  -0.243025 -0.824242 0.113292  -0.253882 -0.896573 0.123169  0 0 0  -0.00692569 -0.0121311 0.000798225  -0.0184908 -0.0353029 0.00401235  -0.0301409 -0.0679804 0.00880122  -0.0416204 -0.109287 0.0147359  -0.0531838 -0.157979 0.0216258  -0.0649427 -0.212857 0.0293133  -0.0768842 -0.272822 0.0376563  -0.0889567 -0.336844 0.0465217  -0.10107 -0.40402 0.0557911  -0.113143 -0.47352 0.0653555  -0.125085 -0.544655 0.0751224  -0.136843 -0.616808 0.0850117  -0.148371 -0.689483 0.09496  -0.159664 -0.76227 0.104911  -0.170742 -0.834898 0.114839  -0.181659 -0.907154 0.124712  0 0 0  0.000306189 -0.00933176 0.0011816  0.00124955 -0.0341572 0.00478649  0.000472128 -0.0685381 0.00970554  -0.00193506 -0.111334 0.0157156  -0.00595021 -0.161492 0.022682  -0.0115 -0.217775 0.0304432  -0.0184151 -0.279045 0.0388796  -0.0265015 -0.344202 0.0478203  -0.0355251 -0.41234 0.0571644  -0.0452797 -0.482603 0.0667794  -0.0555546 -0.554327 0.0765924  -0.0661809 -0.626886 0.0865057  -0.0770011 -0.699834 0.0964744  -0.0879073 -0.772768 0.106431  -0.0988014 -0.845468 0.116365  -0.109639 -0.917712 0.126225  0 0 0  0.00800124 -0.0134605 0.00140285  0.0204718 -0.0390181 0.00505114  0.0303777 -0.0739416 0.00999522  0.0369923 -0.117425 0.016119  0.040518 -0.16835 0.0232437  0.041219 -0.225462 0.0311897  0.0394112 -0.287493 0.039783  0.0354104 -0.353343 0.0488808  0.0295777 -0.422022 0.0583458  0.0222354 -0.492722 0.068074  0.0137138 -0.564723 0.0779645  0.00428987 -0.637471 0.087945  -0.0057621 -0.710491 0.0979569  -0.0162227 -0.783455 0.107943  -0.026907 -0.856112 0.117884  -0.0376751 -0.928409 0.127743  0 0 0  0.020534 -0.0257645 0.000879765  0.0434362 -0.049908 0.00449419  0.0630269 -0.0840316 0.00959444  0.0781503 -0.127492 0.0159471  0.0889169 -0.178721 0.0233519  0.0956539 -0.236163 0.0315707  0.0987626 -0.298522 0.0404272  0.0987008 -0.364595 0.0497367  0.0959027 -0.433429 0.0593975  0.0908306 -0.504153 0.0692708  0.0838988 -0.576121 0.0792878  0.0755157 -0.648731 0.0893524  0.0660474 -0.721594 0.0994303  0.0558484 -0.794355 0.109458  0.0452251 -0.86688 0.119426  0.0344458 -0.939142 0.129282  0 0 0  -0.0232932 -0.022244 0.00868773  -0.0466383 -0.0419091 0.013552  -0.0693272 -0.0711993 0.017309  -0.0905948 -0.109712 0.0216064  -0.110373 -0.155999 0.026916  -0.128803 -0.208754 0.0331881  -0.146085 -0.266831 0.0403345  -0.162319 -0.329243 0.0481603  -0.177602 -0.395069 0.0565591  -0.191968 -0.463507 0.0653796  -0.205501 -0.533828 0.0745578  -0.218242 -0.605417 0.0839686  -0.230308 -0.677719 0.0935864  -0.241791 -0.75032 0.103302  -0.252875 -0.822871 0.113127  -0.263742 -0.895209 0.122943  0 0 0  -0.00834151 -0.0114054 0.00552344  -0.0214124 -0.0336506 0.00966978  -0.0342226 -0.0660324 0.01387  -0.0467582 -0.10733 0.0189278  -0.0593035 -0.156105 0.024977  -0.0719209 -0.211072 0.0319445  -0.0845934 -0.271096 0.0396693  -0.0972549 -0.335177 0.0480165  -0.109842 -0.402394 0.0568395  -0.12227 -0.471944 0.0660388  -0.134486 -0.543117 0.0754979  -0.146432 -0.615317 0.0851598  -0.15809 -0.688026 0.0949273  -0.169461 -0.760851 0.104776  -0.180589 -0.833498 0.114637  -0.191516 -0.90577 0.124491  0 0 0  -0.000626728 -0.0080865 0.00143933  -0.00136268 -0.0320272 0.00509048  -0.00355089 -0.0660936 0.0098846  -0.00709707 -0.108915 0.0157509  -0.0121053 -0.159183 0.022584  -0.0185072 -0.215618 0.0302708  -0.0261426 -0.277001 0.0386345  -0.0348198 -0.342288 0.047545  -0.0443127 -0.410514 0.0568583  -0.0544329 -0.480884 0.0664711  -0.064975 -0.552677 0.0762768  -0.075794 -0.625334 0.0862052  -0.0867374 -0.698333 0.0961871  -0.0977209 -0.77134 0.106174  -0.108656 -0.844063 0.116128  -0.119517 -0.916342 0.126034  0 0 0  0.0073733 -0.0114046 -0.00280309  0.018194 -0.0361229 5.72205e-05  0.0265186 -0.0709249 0.00539041  0.0318838 -0.11452 0.0120804  0.0343746 -0.165651 0.0197747  0.034216 -0.22295 0.0282373  0.0316737 -0.285169 0.0373149  0.027087 -0.351181 0.0468452  0.020771 -0.420023 0.0567036  0.0130692 -0.49085 0.0667744  0.00426435 -0.562986 0.0769734  -0.00534368 -0.63584 0.0872054  -0.0155299 -0.708965 0.0974245  -0.0260563 -0.781995 0.107566  -0.0367846 -0.854717 0.117626  -0.04756 -0.92703 0.127582  0 0 0  0.0195481 -0.0224959 -0.00699949  0.0414136 -0.0461463 -0.00538826  0.059558 -0.0804323 0.000403881  0.0734173 -0.12418 0.00798464  0.0831205 -0.175698 0.0165935  0.0889674 -0.233415 0.0259063  0.091331 -0.296011 0.0357678  0.0906262 -0.362314 0.0459845  0.0873187 -0.431329 0.0564401  0.0818372 -0.502236 0.0670149  0.0745988 -0.574346 0.0776341  0.0659862 -0.647106 0.0882018  0.0563674 -0.720076 0.0986733  0.0460665 -0.792934 0.108987  0.0353918 -0.865501 0.119138  0.0245862 -0.937818 0.129128  0 0 0  -0.0256641 -0.0155031 0.0211735  -0.0490181 -0.0348493 0.0258689  -0.0723907 -0.0648499 0.0278778  -0.094709 -0.104264 0.0303512  -0.115551 -0.151373 0.0340395  -0.134968 -0.204764 0.0389264  -0.153093 -0.263388 0.0448444  -0.170041 -0.326229 0.0516212  -0.185902 -0.392461 0.0590942  -0.200737 -0.461214 0.067152  -0.214624 -0.531832 0.075676  -0.227649 -0.603637 0.0845816  -0.239913 -0.67614 0.0937965  -0.251535 -0.748851 0.103263  -0.262671 -0.821488 0.112932  -0.273551 -0.893855 0.122689  0 0 0  -0.0125887 -0.00625823 0.0126276  -0.0249659 -0.0266742 0.0163054  -0.0377718 -0.0593655 0.0194197  -0.0510198 -0.101459 0.0235045  -0.0645243 -0.151031 0.0286973  -0.0780936 -0.206674 0.0349066  -0.0916101 -0.267289 0.041975  -0.104987 -0.331866 0.0497406  -0.118157 -0.39953 0.0580769  -0.131058 -0.469454 0.0668535  -0.143637 -0.540958 0.0759795  -0.155855 -0.613421 0.0853643  -0.167711 -0.686348 0.0949371  -0.179216 -0.759324 0.104649  -0.190407 -0.832079 0.114448  -0.201352 -0.904405 0.124241  0 0 0  -0.00267401 -0.00274077 0.00294971  -0.00432405 -0.0250198 0.00619721  -0.00743455 -0.05912 0.0105071  -0.0119653 -0.102552 0.0161421  -0.0179359 -0.153578 0.0228379  -0.0252329 -0.210712 0.0303938  -0.0336506 -0.272756 0.0386605  -0.042978 -0.338591 0.0474768  -0.0530064 -0.407336 0.0567243  -0.0635424 -0.478125 0.0662768  -0.0744078 -0.550317 0.0760536  -0.0854445 -0.623271 0.0859566  -0.0965364 -0.696547 0.0959361  -0.107596 -0.769728 0.105925  -0.118575 -0.842602 0.115905  -0.129439 -0.91493 0.12584  0 0 0  0.00716311 -0.00539368 -0.00725293  0.0158229 -0.0284675 -0.00436568  0.0224097 -0.0633743 0.00126982  0.0264957 -0.107639 0.00841618  0.0279666 -0.159553 0.0166149  0.0269505 -0.217611 0.0255396  0.0236794 -0.280537 0.0350442  0.0184817 -0.347172 0.0449708  0.0116875 -0.416573 0.0551813  0.00360799 -0.487892 0.0655627  -0.00546241 -0.560464 0.0760303  -0.0152509 -0.633688 0.0864952  -0.0255225 -0.70711 0.0968983  -0.0360875 -0.780368 0.107187  -0.0468054 -0.853233 0.117357  -0.0575898 -0.9256 0.127441  0 0 0  0.0208179 -0.0143398 -0.0165186  0.039762 -0.0371836 -0.0154669  0.0556806 -0.0721927 -0.00848627  0.0680854 -0.116893 0.000350237  0.0767168 -0.169292 0.0100982  0.0816939 -0.227807 0.0204797  0.0833263 -0.291149 0.031307  0.0820229 -0.358138 0.0423887  0.0782137 -0.427754 0.0536113  0.0723517 -0.499187 0.0648441  0.0648367 -0.571774 0.0760489  0.0560491 -0.644941 0.0870941  0.0463357 -0.718238 0.0979519  0.036011 -0.791345 0.108541  0.0253475 -0.864051 0.118873  0.0145397 -0.936387 0.128972  0 0 0  -0.00161695 -0.00128409 -0.00338244  -0.00219469 -0.0030655 -0.00513363  -0.00536274 -0.000274912 -0.00927997  -0.00269322 0.000862658 -0.00528359  -0.00572036 -0.00748858 -0.00505996  -0.00247106 -0.00431729 -0.00349426  -0.0104608 -0.0137316 -0.00576949  -0.0094453 -0.0106168 -0.00520229  0 0 0  -0.0084729 -0.00861524 -0.00745702  0 0 0  0 0 0  -0.00156892 -0.00240661 -0.00204301  0 0 0  -0.0191525 -0.0151431 -0.0132518  -0.0106042 -0.0038735 -0.012037  -0.0103725 -0.0105398 -0.00928879  -0.0116911 -0.00552833 -0.0123761  -0.00960129 -0.0169694 -0.0040617  -0.0179296 -0.0193268 -0.00888324  -0.0172899 -0.0142923 -0.0112729  -0.00845376 -0.0124398 -0.00536513  -0.0137227 -0.029439 -0.0026691  -0.0186927 -0.0230372 -0.0053432  -0.0266051 -0.0351383 -0.00386906  -0.029963 -0.0272229 -0.00860095  -0.0289341 -0.022889 -0.0134568  -0.0109052 -0.020014 -0.00226903  -0.0384965 -0.0345259 -0.0121632  -0.028278 -0.0172508 -0.0173674  -0.02486 -0.0313484 -0.00730944  -0.0230767 -0.0261026 -0.0103397  -0.0180313 -0.0447829 -3.67165e-05  -0.0319852 -0.0460699 -0.00471377  -0.028973 -0.0412992 -0.00713611  -0.0150785 -0.0403109 -0.00136471  -0.0223721 -0.0625364 0.00282383  -0.0344638 -0.0497876 -0.00149822  -0.0419695 -0.0667144 0.0014832  -0.0505621 -0.0526603 -0.00486946  -0.0481942 -0.0485878 -0.00942254  -0.0206798 -0.0479554 0.00179124  -0.0573752 -0.0653081 -0.00593591  -0.0451961 -0.0434314 -0.0130761  -0.0388508 -0.0634308 -0.00147486  -0.0352699 -0.0589592 -0.00412631  -0.0270098 -0.0826828 0.00616717  -0.0458397 -0.083068 0.00207973  -0.0415998 -0.0791025 -0.0001719  -0.0230047 -0.078894 0.00492001  -0.0317214 -0.104803 0.0097754  -0.0493567 -0.0861153 0.00480151  -0.0565996 -0.107396 0.00846457  -0.0700223 -0.0877207 0.00175238  -0.0666485 -0.0844145 -0.00211358  -0.0305202 -0.0854284 0.00776005  -0.0754349 -0.105423 0.00214386  -0.0623707 -0.0802369 -0.00539303  -0.052701 -0.104748 0.00603151  -0.0481957 -0.101198 0.00380921  -0.03671 -0.128899 0.0135844  -0.0596085 -0.128369 0.0100696  -0.0547464 -0.125257 0.0081203  -0.0321152 -0.125883 0.0124986  -0.041774 -0.154578 0.0176587  -0.0637345 -0.130751 0.0123112  -0.0708084 -0.155643 0.016402  -0.0882486 -0.13112 0.00963068  -0.0842339 -0.128553 0.00645781  -0.0407565 -0.131102 0.0149002  -0.0926464 -0.153148 0.0110941  -0.0793023 -0.125326 0.0036521  -0.0664471 -0.153604 0.0144315  -0.0614641 -0.150875 0.0126207  -0.0470688 -0.181899 0.0218143  -0.0733012 -0.180479 0.0187979  -0.0681113 -0.178113 0.0171807  -0.0421228 -0.179592 0.0209336  -0.0524215 -0.210487 0.0262225  -0.0778013 -0.182274 0.0206065  -0.0847553 -0.210148 0.025002  -0.105457 -0.181508 0.0182583  -0.101031 -0.179564 0.0156915  -0.0514696 -0.183576 0.0228653  -0.109093 -0.207142 0.0205522  -0.09576 -0.177137 0.013366  -0.0800962 -0.208633 0.023442  -0.0748531 -0.206615 0.0219984  -0.0579623 -0.240431 0.0306618  -0.0868813 -0.238168 0.0280564  -0.0815123 -0.236458 0.0267653  -0.0528116 -0.238748 0.0299683  -0.0635422 -0.271368 0.0353167  -0.0916395 -0.23946 0.0294857  -0.0984777 -0.269767 0.0341356  -0.121801 -0.237665 0.0274191  -0.117104 -0.236263 0.0253911  -0.0626199 -0.241638 0.0314748  -0.124844 -0.266309 0.0304515  -0.111658 -0.234524 0.023531  -0.0936174 -0.268722 0.0329239  -0.088236 -0.267306 0.0318079  -0.0692705 -0.303399 0.0399756  -0.100332 -0.300398 0.0377414  -0.0948758 -0.299239 0.0367439  -0.0639964 -0.302255 0.039463  -0.0750145 -0.336194 0.0448244  -0.105253 -0.301251 0.0388358  -0.111969 -0.333504 0.0436707  -0.137385 -0.298565 0.037024  -0.132511 -0.29762 0.0354548  -0.0741032 -0.304193 0.0405824  -0.139931 -0.329651 0.0406425  -0.126984 -0.296454 0.0340092  -0.106979 -0.332853 0.0427678  -0.101535 -0.331957 0.0419343  -0.0808656 -0.369843 0.0496545  -0.113583 -0.366202 0.0477314  -0.108102 -0.365522 0.046998  -0.0755413 -0.369159 0.0492883  -0.0867105 -0.404048 0.0546327  -0.118613 -0.366682 0.0485387  -0.125181 -0.40044 0.0535181  -0.15224 -0.363238 0.0469475  -0.147255 -0.362693 0.0457864  -0.085819 -0.370283 0.0500813  -0.154361 -0.396277 0.0510745  -0.141713 -0.362022 0.0447123  -0.120114 -0.400134 0.0528741  -0.114664 -0.399667 0.0522888  -0.0926239 -0.438894 0.059581  -0.12659 -0.434737 0.0579453  -0.121132 -0.434445 0.0574327  -0.0872877 -0.438594 0.0593526  -0.098505 -0.474122 0.0646501  -0.131671 -0.434902 0.0585041  -0.138072 -0.469771 0.0635684  -0.166394 -0.430847 0.0571113  -0.161349 -0.430629 0.0562892  -0.0976415 -0.439036 0.0598576  -0.168135 -0.465364 0.0616107  -0.155837 -0.430354 0.0555284  -0.13297 -0.46974 0.0631506  -0.127554 -0.469636 0.0627697  -0.104419 -0.509805 0.0696762  -0.139277 -0.505234 0.0682747  -0.133875 -0.505269 0.0679507  -0.0991166 -0.509822 0.0695479  -0.110286 -0.545713 0.0747802  -0.144382 -0.505141 0.0686276  -0.150592 -0.540779 0.0737445  -0.179852 -0.500603 0.0674033  -0.174785 -0.500661 0.0668747  -0.109469 -0.5097 0.0698259  -0.181262 -0.536213 0.072212  -0.169338 -0.500722 0.0663843  -0.145488 -0.540983 0.0735044  -0.140135 -0.541165 0.073298  -0.116157 -0.581916 0.0798373  -0.151622 -0.57705 0.0786486  -0.146299 -0.577335 0.0784774  -0.110904 -0.582186 0.0798008  -0.121966 -0.618225 0.0849552  -0.15671 -0.576749 0.0788331  -0.162726 -0.612862 0.083952  -0.192652 -0.57186 0.0777569  -0.187589 -0.572133 0.0774591  -0.121204 -0.581616 0.0798895  -0.193767 -0.608194 0.0827513  -0.182228 -0.572449 0.0771832  -0.157644 -0.613239 0.0838604  -0.152373 -0.613649 0.0837867  -0.127755 -0.65469 0.0900164  -0.163582 -0.649611 0.088985  -0.158351 -0.650092 0.0889325  -0.122575 -0.655151 0.0900383  -0.133478 -0.691156 0.0951049  -0.168646 -0.649152 0.0890408  -0.174467 -0.685499 0.0941436  -0.204821 -0.644018 0.0880809  -0.199783 -0.644464 0.0879714  -0.132785 -0.654239 0.0899913  -0.205692 -0.680792 0.0932097  -0.194521 -0.644979 0.0878675  -0.169421 -0.686011 0.0941548  -0.164238 -0.686577 0.0941849  -0.139167 -0.727671 0.100135  -0.175183 -0.72247 0.0992396  -0.170046 -0.723076 0.0992689  -0.134053 -0.728265 0.100208  -0.14479 -0.764122 0.105185  -0.180203 -0.721902 0.0992014  -0.185852 -0.758291 0.104252  -0.216446 -0.716626 0.0983326  -0.211438 -0.717183 0.0983489  -0.144165 -0.727115 0.100061  -0.217113 -0.75357 0.103482  -0.206273 -0.717818 0.0983596  -0.180845 -0.758878 0.104334  -0.175748 -0.759551 0.104424  -0.150369 -0.800536 0.110179  -0.186438 -0.795263 0.109357  -0.181376 -0.795951 0.109441  -0.14532 -0.801214 0.110269  -0.155893 -0.836837 0.115169  -0.191425 -0.79463 0.109267  -0.196935 -0.830922 0.114271  -0.227623 -0.789286 0.10845  -0.222642 -0.789917 0.108551  -0.155341 -0.799916 0.110075  -0.228151 -0.826218 0.113594  -0.217557 -0.790625 0.108635  -0.191959 -0.831554 0.11438  -0.186918 -0.832278 0.114498  -0.161372 -0.873028 0.120124  -0.197433 -0.867751 0.119359  -0.192414 -0.868468 0.119472  -0.156349 -0.873747 0.120248  -0.166801 -0.909096 0.125099  -0.202395 -0.867096 0.119237  -0.207843 -0.90322 0.124194  -0.238532 -0.861769 0.118455  -0.23357 -0.862419 0.118584  -0.166322 -0.872383 0.120005  -0.238995 -0.898564 0.123574  -0.228522 -0.863144 0.118706  -0.202874 -0.903854 0.124336  -0.197858 -0.904572 0.124488  0 0 0  0.000652209 -0.00102696 0.00124693  7.14064e-05 -0.000721574 -0.000350952  -0.000160053 0.00123286 -0.000829458  0.00200744 0.000786841 0.00269008  0.00244853 -0.00663206 0.00289297  -7.11828e-05 -0.00189972 -0.000322104  -0.00113311 -0.00827116 -0.000758886  0 0 0  0 0 0  0.000530094 -0.00217441 0.000869989  0 0 0  -0.000748694 -0.0061585 -0.00122786  -0.000139818 -0.00249714 -0.00120568  0.004585 -0.0168248 0.00450468  -0.00195092 -0.0162263 0.000171661  -0.000617653 -0.0120463 0.000242472  0.00649211 -0.0129074 0.00553584  0.00607836 -0.0298684 0.00619054  -0.00310886 -0.0187707 0.000719786  -0.00516742 -0.0318473 0.00256443  0.00304067 -0.019095 0.00365019  -0.00325462 -0.0290454 0.00181699  -0.00120229 -0.0245898 0.00159454  0.00714332 -0.0458529 0.00836658  -0.00495398 -0.0447093 0.00414777  -0.00221401 -0.0404593 0.00403857  0.00986511 -0.0418319 0.00926089  0.00772214 -0.0642096 0.0108805  -0.00743687 -0.0475845 0.00475168  -0.00987178 -0.0656075 0.00756526  0.00473559 -0.0485041 0.00769019  -0.00690222 -0.0628654 0.00693655  -0.00370812 -0.0588438 0.00662541  0.00771821 -0.0849378 0.0136564  -0.00923121 -0.0832819 0.00992727  -0.00553858 -0.0796121 0.00972223  0.0111408 -0.0814307 0.0144148  0.00725782 -0.107682 0.016798  -0.0125517 -0.0858622 0.0104566  -0.0155098 -0.108137 0.0138364  0.00462127 -0.087351 0.0130949  -0.0118842 -0.105809 0.0133641  -0.00794101 -0.102497 0.0131016  0.00621724 -0.132359 0.0200922  -0.0148861 -0.130185 0.0168662  -0.0106062 -0.127222 0.0166662  0.0101732 -0.129501 0.0207584  0.00474477 -0.158712 0.0237319  -0.0187484 -0.132288 0.0172856  -0.0222902 -0.158127 0.0210922  0.002599 -0.134344 0.0195978  -0.0182233 -0.15628 0.0207636  -0.0138047 -0.153687 0.0205724  0.00274587 -0.186617 0.0274491  -0.0218468 -0.18389 0.0246539  -0.0171918 -0.181601 0.0245008  0.00707948 -0.184392 0.0280316  0.00036025 -0.21587 0.0314598  -0.0260853 -0.185502 0.024965  -0.0301678 -0.214264 0.0291142  -0.0012691 -0.188141 0.026998  -0.025781 -0.212885 0.0288944  -0.0210515 -0.210932 0.0287845  -0.00248623 -0.246369 0.035526  -0.029952 -0.243106 0.033112  -0.0250597 -0.241418 0.0330162  0.00212371 -0.244716 0.0360429  -0.00566328 -0.27793 0.0398469  -0.0344664 -0.244271 0.0333233  -0.0390114 -0.27538 0.0377522  -0.00680184 -0.247472 0.0351183  -0.0343919 -0.274417 0.0376256  -0.0294628 -0.273026 0.0375779  -0.00922811 -0.31046 0.0441813  -0.0390137 -0.306697 0.0420861  -0.0339684 -0.305531 0.0420449  -0.00443566 -0.30931 0.0446284  -0.0130637 -0.343793 0.0487211  -0.0437258 -0.307463 0.0422156  -0.0486466 -0.340412 0.0468614  -0.0137678 -0.311183 0.0438108  -0.0438594 -0.339818 0.0468047  -0.0388054 -0.33891 0.0468156  -0.0172207 -0.377867 0.0532708  -0.0488443 -0.373679 0.0514657  -0.0437138 -0.372961 0.0514715  -0.0123005 -0.377153 0.0536609  -0.0215895 -0.412526 0.0579894  -0.0536954 -0.374104 0.0515254  -0.0589011 -0.40844 0.056334  -0.0219226 -0.378268 0.0529425  -0.054004 -0.408155 0.0563388  -0.0488834 -0.407662 0.0563874  -0.0262127 -0.447718 0.0626936  -0.0592525 -0.443173 0.0611346  -0.0540829 -0.442836 0.0611775  -0.0212235 -0.447376 0.0630221  -0.0309892 -0.483303 0.0675261  -0.064189 -0.443308 0.0611384  -0.0695918 -0.47864 0.0660577  -0.031024 -0.447838 0.062402  -0.0646281 -0.478621 0.0661049  -0.0594833 -0.478471 0.0661919  -0.0359585 -0.519249 0.0723419  -0.0700564 -0.514433 0.0710027  -0.0648901 -0.514408 0.0710745  -0.0309336 -0.519214 0.0726213  -0.0410328 -0.555432 0.0772579  -0.0750406 -0.514329 0.0709612  -0.0805619 -0.550319 0.075948  -0.0408387 -0.519142 0.0720892  -0.0755687 -0.55051 0.0760319  -0.0704348 -0.550644 0.0761375  -0.0462422 -0.591823 0.0821407  -0.0810962 -0.586805 0.080977  -0.0759542 -0.587033 0.081069  -0.0412157 -0.592039 0.0823705  -0.0515139 -0.628318 0.0870883  -0.0860951 -0.586506 0.0809042  -0.0916708 -0.622871 0.0859227  -0.0511577 -0.591526 0.0819206  -0.0866725 -0.623233 0.0860274  -0.0815678 -0.62359 0.0861528  -0.056874 -0.664904 0.0920117  -0.0922418 -0.659757 0.0910025  -0.0871441 -0.660179 0.0911069  -0.0518577 -0.665315 0.0922024  -0.0622649 -0.701498 0.0969796  -0.097235 -0.659312 0.0909064  -0.102813 -0.695821 0.0959258  -0.0618038 -0.664468 0.0918255  -0.0978281 -0.696304 0.0960455  -0.0927663 -0.696824 0.096173  -0.0676994 -0.738082 0.101912  -0.103385 -0.732852 0.101011  -0.0983353 -0.733413 0.101121  -0.0627077 -0.738633 0.102065  -0.0731397 -0.774601 0.106863  -0.108358 -0.732301 0.100904  -0.113903 -0.768782 0.105904  -0.0726264 -0.73754 0.101754  -0.10894 -0.769351 0.106023  -0.103922 -0.769985 0.106153  -0.0785937 -0.811043 0.111791  -0.114458 -0.805779 0.110975  -0.109457 -0.806431 0.111086  -0.0736244 -0.811688 0.111917  -0.0840392 -0.847379 0.116727  -0.119407 -0.805162 0.110865  -0.1249 -0.841488 0.115832  -0.0835114 -0.810439 0.111661  -0.119959 -0.842102 0.115947  -0.114981 -0.842809 0.11606  -0.0894673 -0.88357 0.121641  -0.125409 -0.878293 0.12087  -0.120434 -0.878989 0.120983  -0.0845363 -0.884258 0.121735  -0.094871 -0.919617 0.126544  -0.130339 -0.877647 0.120763  -0.135763 -0.913737 0.125698  -0.0943744 -0.882936 0.121524  -0.13083 -0.91435 0.125815  -0.125853 -0.915052 0.125946  0 0 0  0.00296293 -0.0046283 0.00550604  0.00224939 -0.00223362 0.00409913  0.00418161 -0.000613332 0.00663662  0.00649084 -0.00273228 0.0100999  0.0108326 -0.0114911 0.0103421  0.00210662 -0.00335741 0.00255156  0.0058935 -0.0100259 0.00442648  0 0 0  0 0 0  0.00281546 -0.00572443 0.00355577  0 0 0  0.00693604 -0.00833553 0.00668097  0.00919929 -0.00506347 0.00931835  0.0185266 -0.0224422 0.0123043  0.0115185 -0.0189958 0.00850677  0.013541 -0.0153106 0.0107598  0.0211301 -0.0187919 0.0155571  0.0255563 -0.0356966 0.0141473  0.0100314 -0.0211351 0.00639105  0.0138495 -0.0346204 0.00829148  0.0167023 -0.0244644 0.00888348  0.0157538 -0.0321851 0.0102825  0.0180219 -0.0282769 0.012507  0.0317961 -0.0518833 0.0159431  0.0193892 -0.0482728 0.0121956  0.0218944 -0.0444196 0.0142484  0.0342767 -0.0482151 0.0189838  0.0371847 -0.0704786 0.0180843  0.0171308 -0.0507181 0.0103695  0.0197424 -0.0692568 0.012871  0.0295935 -0.0541943 0.0128763  0.0223415 -0.0668342 0.0145648  0.0251315 -0.063194 0.0164895  0.0417403 -0.0914183 0.0204129  0.0246445 -0.0876458 0.0170701  0.0277843 -0.0842444 0.0188675  0.044637 -0.0881899 0.0231724  0.0454667 -0.114493 0.0231495  0.0217441 -0.089897 0.0154886  0.023061 -0.112716 0.0185604  0.0390451 -0.0935409 0.0177424  0.0262353 -0.110628 0.02005  0.0295932 -0.10757 0.0217104  0.0483516 -0.139432 0.0260329  0.027204 -0.135421 0.0230963  0.0308775 -0.132628 0.0246406  0.0517242 -0.136771 0.0284433  0.0504545 -0.166151 0.0292773  0.0237786 -0.137291 0.0217192  0.0238396 -0.163694 0.0252547  0.0451475 -0.141184 0.0237308  0.0274777 -0.162023 0.026561  0.0313016 -0.159581 0.0280008  0.0517679 -0.194351 0.0326378  0.0271809 -0.190068 0.0300677  0.0312599 -0.187876 0.0313914  0.0555573 -0.192253 0.0347018  0.0523732 -0.224001 0.0363102  0.0233449 -0.191518 0.0288806  0.0222439 -0.220839 0.0328043  0.0481352 -0.19571 0.0306811  0.0262438 -0.219583 0.0339329  0.0304233 -0.21772 0.0351665  0.0522655 -0.254789 0.0400574  0.0248175 -0.250225 0.0378077  0.0291984 -0.24858 0.0389304  0.0563738 -0.253209 0.041784  0.0515301 -0.286716 0.0440614  0.0206563 -0.251276 0.0367949  0.0185347 -0.282908 0.0410278  0.0482857 -0.255771 0.0384114  0.0228204 -0.282027 0.0419879  0.0272621 -0.280678 0.043031  0.0501817 -0.319508 0.0481219  0.0204074 -0.314687 0.0461605  0.0250037 -0.313533 0.0470979  0.0545424 -0.318398 0.049551  0.0483 -0.353174 0.0523958  0.0160038 -0.315379 0.0453079  0.0130095 -0.348784 0.0497832  0.0459355 -0.320152 0.0467622  0.0175052 -0.348242 0.0505877  0.0221345 -0.347349 0.0514565  0.0458956 -0.38746 0.056699  0.014272 -0.382422 0.0549877  0.0190203 -0.38169 0.0557604  0.0504327 -0.386756 0.0578463  0.0430458 -0.422383 0.0611708  0.00968266 -0.382801 0.0542824  0.00597286 -0.417517 0.058939  0.0414448 -0.387805 0.0555961  0.010627 -0.417261 0.0595984  0.0153866 -0.416759 0.0603089  0.0397725 -0.457733 0.0656626  0.0067184 -0.452532 0.064178  0.011565 -0.452167 0.0647991  0.0444448 -0.457386 0.0665731  0.0361428 -0.493527 0.0702929  0.00200224 -0.452643 0.0636051  -0.00228047 -0.488276 0.0683932  0.0351734 -0.457823 0.0647902  0.00247788 -0.488266 0.0689256  0.00731897 -0.488097 0.069494  0.0321708 -0.529576 0.0749168  -0.00195193 -0.524265 0.073626  0.00295115 -0.524201 0.0741165  0.0369229 -0.529524 0.0756063  0.0279222 -0.565897 0.079648  -0.00675607 -0.524152 0.0731716  -0.0114708 -0.560364 0.0780423  0.027467 -0.529451 0.074244  -0.00664115 -0.560554 0.0784605  -0.00175238 -0.560657 0.078907  0.0234201 -0.602343 0.0843768  -0.0114648 -0.596972 0.0832543  -0.00653315 -0.59716 0.083631  0.0282352 -0.60254 0.084893  0.0187161 -0.638932 0.0891848  -0.0163195 -0.596678 0.0829012  -0.0213473 -0.633193 0.0878224  0.0186465 -0.602045 0.0838761  -0.0164802 -0.633546 0.0881436  -0.0115685 -0.633872 0.088484  0.013824 -0.675532 0.0939801  -0.0215738 -0.670141 0.092989  -0.0166323 -0.670522 0.0932741  0.0186713 -0.675919 0.0943418  0.00879169 -0.712168 0.0988328  -0.0264604 -0.669705 0.0927227  -0.0316925 -0.706307 0.0976677  0.0090034 -0.675097 0.0936196  -0.0268016 -0.706779 0.0979061  -0.0218825 -0.707267 0.0981593  0.00364327 -0.748739 0.103672  -0.0320728 -0.743358 0.102785  -0.0271361 -0.743883 0.102993  0.00851798 -0.749269 0.103924  -0.00159192 -0.785273 0.108549  -0.0369682 -0.74282 0.102587  -0.0423195 -0.779346 0.107531  -0.00120139 -0.748206 0.103422  -0.0374262 -0.779902 0.107706  -0.0325091 -0.780509 0.107892  -0.00689435 -0.821683 0.113412  -0.0427883 -0.816332 0.112592  -0.0378666 -0.816949 0.112743  -0.00201726 -0.822301 0.113572  -0.012249 -0.858004 0.118289  -0.0476851 -0.815728 0.112448  -0.053087 -0.852067 0.117373  -0.0117533 -0.821088 0.113242  -0.0481946 -0.85267 0.117497  -0.0432913 -0.853345 0.117631  -0.0176165 -0.89419 0.123148  -0.0535853 -0.88886 0.122378  -0.0486829 -0.889519 0.122483  -0.0127442 -0.894853 0.123248  -0.0229867 -0.930272 0.128003  -0.0584688 -0.88823 0.122271  -0.0638418 -0.924326 0.127168  -0.0224755 -0.893572 0.123036  -0.0589569 -0.924917 0.127267  -0.0540659 -0.925601 0.127363  0 0 0  0.00643009 -0.0143449 0.00944924  0.00563605 -0.00789899 0.00810122  0.00901154 -0.00605589 0.0134175  0.0126412 -0.00993448 0.0183525  0.0233319 -0.0231897 0.0159233  0.00541462 -0.00909626 0.00494528  0.0147848 -0.0184179 0.00875306  0 0 0  0 0 0  0.00605148 -0.0156258 0.00563383  0 0 0  0.0161635 -0.0166228 0.0134406  0.0192444 -0.0132845 0.018317  0.0362788 -0.0331329 0.0184026  0.0266242 -0.0272617 0.0155644  0.0290806 -0.0236096 0.0201192  0.0388165 -0.029584 0.0242062  0.048391 -0.0466622 0.0208533  0.0250543 -0.0292786 0.0110438  0.0343966 -0.0429667 0.0130055  0.0350732 -0.0353913 0.012805  0.0362407 -0.0407012 0.0175669  0.0384875 -0.0370741 0.0222223  0.0595356 -0.0624939 0.0223136  0.0450278 -0.056667 0.0192003  0.0473257 -0.0530719 0.0234504  0.0617219 -0.0591197 0.0276873  0.0695422 -0.0812371 0.0243506  0.04304 -0.0588319 0.0150735  0.0505084 -0.0775221 0.0173104  0.0577989 -0.0645764 0.0169725  0.0527712 -0.0753596 0.0212872  0.0551874 -0.0720566 0.0254216  0.0785335 -0.102055 0.0263267  0.0595791 -0.0962362 0.0234179  0.0622789 -0.093084 0.0272152  0.0810655 -0.0991126 0.0311244  0.0862625 -0.125328 0.0287554  0.0570215 -0.0981863 0.019769  0.062517 -0.121265 0.0225894  0.0761013 -0.103841 0.0215948  0.0653317 -0.119433 0.0260124  0.0682189 -0.116634 0.0296001  0.0929917 -0.15023 0.0313468  0.0701593 -0.144368 0.0287228  0.0733496 -0.141764 0.0320199  0.096011 -0.147806 0.0354934  0.0984825 -0.177194 0.0342743  0.067063 -0.145972 0.0255659  0.0706723 -0.172686 0.0288949  0.0899581 -0.151676 0.0272675  0.0739837 -0.171225 0.0318234  0.0773377 -0.16898 0.0348778  0.103061 -0.205388 0.0373831  0.0769433 -0.199449 0.0350266  0.080564 -0.197385 0.0378253  0.106511 -0.203469 0.0408847  0.106469 -0.23527 0.0407245  0.0733987 -0.200687 0.0323439  0.0752577 -0.23033 0.0360882  0.0995494 -0.206489 0.033921  0.0789741 -0.229236 0.0385525  0.0827148 -0.227504 0.0411232  0.10906 -0.266046 0.0442538  0.0802301 -0.260049 0.0421627  0.0841941 -0.258483 0.0445025  0.112865 -0.2646 0.0471604  0.110594 -0.298202 0.0479665  0.0763295 -0.260939 0.0399234  0.0766242 -0.292868 0.043997  0.105189 -0.266828 0.0413785  0.0806582 -0.292109 0.0460384  0.0847071 -0.290855 0.0481598  0.111441 -0.330954 0.0518234  0.0804182 -0.324916 0.0499706  0.0846525 -0.323807 0.0518856  0.115524 -0.329946 0.0541842  0.111341 -0.364799 0.0558217  0.0762359 -0.325486 0.048136  0.0751712 -0.359143 0.0524685  0.107285 -0.331436 0.0494733  0.0794551 -0.358692 0.0541224  0.08374 -0.357856 0.0558419  0.110665 -0.399012 0.0599484  0.0779269 -0.392975 0.0583169  0.0823581 -0.392261 0.0598519  0.114965 -0.39838 0.0618207  0.109173 -0.434076 0.0641854  0.0735312 -0.393265 0.0568471  0.0713153 -0.428179 0.0613744  0.106294 -0.399235 0.0580795  0.0757859 -0.427986 0.0626845  0.0802474 -0.42752 0.064043  0.107224 -0.469315 0.0685127  0.0731847 -0.463314 0.0670781  0.077765 -0.462951 0.0682747  0.111685 -0.46902 0.0699525  0.104578 -0.505186 0.0729227  0.0686264 -0.463361 0.0659313  0.0654628 -0.49913 0.070605  0.102689 -0.469309 0.0670609  0.0700743 -0.499165 0.071609  0.0746639 -0.499012 0.0726507  0.10157 -0.541091 0.0774097  0.0665951 -0.535173 0.076153  0.0712793 -0.5351 0.0770593  0.106151 -0.541074 0.0784748  0.0979877 -0.577458 0.0819571  0.061924 -0.535018 0.0752876  0.058007 -0.571313 0.0800557  0.0969169 -0.540899 0.076328  0.0627139 -0.57153 0.0808022  0.0673947 -0.571646 0.0815706  0.0941539 -0.613734 0.0865641  0.0585539 -0.607925 0.0854573  0.0633113 -0.608099 0.0861149  0.0988178 -0.613957 0.0873137  0.0898507 -0.650315 0.0912089  0.0538018 -0.6076 0.084831  0.0493059 -0.64415 0.0896676  0.0894177 -0.613384 0.0857875  0.0540831 -0.644522 0.0901911  0.0588295 -0.644846 0.0907359  0.0853729 -0.686736 0.0959132  0.049407 -0.68106 0.0949347  0.054215 -0.681424 0.0953934  0.0901027 -0.687143 0.0964074  0.0805366 -0.72335 0.100643  0.0446012 -0.680609 0.0945034  0.0396891 -0.717209 0.0993798  0.0805836 -0.686272 0.0953937  0.0445094 -0.71769 0.0997324  0.0493035 -0.718184 0.100091  0.0756125 -0.759746 0.105416  0.0394788 -0.754202 0.104532  0.0443227 -0.754712 0.104832  0.0803845 -0.760292 0.105711  0.0704219 -0.796225 0.110199  0.0346386 -0.753653 0.10425  0.029453 -0.790151 0.109149  0.0707901 -0.759193 0.105083  0.0343015 -0.790712 0.109368  0.0391304 -0.791313 0.109595  0.0652013 -0.832497 0.115034  0.029047 -0.827074 0.114213  0.0339072 -0.827667 0.114403  0.0700052 -0.833116 0.115194  0.0598211 -0.868775 0.119863  0.0241899 -0.826469 0.114038  0.0188596 -0.862772 0.118932  0.0603688 -0.831902 0.11484  0.0237193 -0.863369 0.119066  0.0285637 -0.86403 0.119203  0.0544693 -0.904899 0.124711  0.0183611 -0.89954 0.123913  0.0232155 -0.900177 0.124027  0.0592899 -0.905546 0.124795  0.0490456 -0.940989 0.129537  0.0134966 -0.898915 0.123809  0.00812149 -0.935028 0.128676  0.0496402 -0.904296 0.124596  0.01299 -0.935624 0.12875  0.0178366 -0.936285 0.128835  -0.00177317 -0.00338474 -0.00109553  -0.00247288 -0.00562901 -0.00186658  -0.00625487 -0.0113268 -0.00110149  -0.00279806 -0.00576168 -0.000164032  -0.0116283 -0.0166387 0.000482798  -0.0105812 -0.0130036 -0.000589848  0 0 0  -0.00977754 -0.0122047 -0.0026598  0 0 0  0 0 0  -0.00188062 -0.00344674 0.000123262  0 0 0  -0.0205657 -0.0216841 -0.0044446  -0.0107416 -0.0156561 -0.00262547  -0.0117163 -0.0217645 -3.74317e-05  -0.0194091 -0.0252581 -0.00176191  -0.0170176 -0.0344148 0.00165486  -0.0205936 -0.0263884 0.00188518  -0.0294953 -0.0386103 0.00346088  -0.0323277 -0.0312709 0.00107431  -0.0308298 -0.0298046 -0.00365996  -0.0126702 -0.0226273 0.00233364  -0.0418315 -0.041684 -0.00241733  -0.0278666 -0.0374368 -0.000279903  -0.0225539 -0.0498923 0.0039413  -0.0362774 -0.05199 0.00198865  -0.0278456 -0.0672852 0.00659275  -0.0382076 -0.0531464 0.00571299  -0.046596 -0.0697557 0.00813723  -0.0544043 -0.0566022 0.00488067  -0.0523973 -0.0552116 -0.00011754  -0.0244428 -0.0507272 0.00632048  -0.0627465 -0.0713645 0.00268412  -0.0442682 -0.0687935 0.00471544  -0.0332647 -0.0871144 0.0095973  -0.0521404 -0.087983 0.00775099  -0.0386664 -0.108772 0.0128791  -0.0547759 -0.0888732 0.0109711  -0.0626895 -0.10977 0.0140362  -0.0753856 -0.0909259 0.010164  -0.0727807 -0.0898354 0.0057857  -0.0359247 -0.0877395 0.0116405  -0.0823352 -0.110176 0.00933194  -0.0597215 -0.109064 0.0111623  -0.0441736 -0.132421 0.0163884  -0.0672171 -0.132206 0.0147243  -0.0497252 -0.157648 0.0201414  -0.0704319 -0.132812 0.0173619  -0.0780029 -0.157361 0.0209124  -0.0948716 -0.133528 0.0165644  -0.0917017 -0.13274 0.012949  -0.0473987 -0.132837 0.0180547  -0.100613 -0.156748 0.0169394  -0.0745219 -0.156896 0.0185828  -0.0553803 -0.184525 0.024044  -0.0817765 -0.183321 0.0225375  -0.0610904 -0.212712 0.0281563  -0.0854508 -0.183687 0.024652  -0.092765 -0.211256 0.0285809  -0.11303 -0.183178 0.0238469  -0.109401 -0.182669 0.0209363  -0.0590461 -0.184751 0.0253634  -0.117795 -0.209745 0.0252321  -0.0888852 -0.211015 0.0267334  -0.0668898 -0.242253 0.0323806  -0.0959599 -0.240152 0.0310061  -0.072721 -0.272838 0.036782  -0.0999832 -0.240305 0.0326698  -0.107093 -0.270357 0.0369055  -0.130083 -0.238716 0.0318487  -0.126093 -0.238435 0.0295436  -0.0708973 -0.2423 0.0334015  -0.134058 -0.268061 0.034102  -0.102905 -0.270304 0.0354731  -0.0786284 -0.304516 0.0412605  -0.109818 -0.301628 0.0399945  -0.0845537 -0.337011 0.0458837  -0.11412 -0.301602 0.0412731  -0.121031 -0.333629 0.0457542  -0.14619 -0.299067 0.0404439  -0.141922 -0.298997 0.0386634  -0.0829111 -0.30441 0.0420246  -0.14949 -0.330667 0.0434184  -0.116604 -0.333748 0.0446756  -0.0905244 -0.370358 0.0505612  -0.123349 -0.366799 0.0493937  -0.0964854 -0.404308 0.0553515  -0.127855 -0.366613 0.0503407  -0.134565 -0.400185 0.0550094  -0.161428 -0.363288 0.0495064  -0.156951 -0.363388 0.0481701  -0.0950148 -0.370112 0.0511079  -0.164148 -0.396674 0.0530813  -0.129962 -0.400442 0.0542333  -0.10247 -0.4389 0.0601742  -0.136521 -0.434792 0.059093  -0.108427 -0.473919 0.0650806  -0.141184 -0.434474 0.0597599  -0.147677 -0.469184 0.0645683  -0.175853 -0.430499 0.0589268  -0.171218 -0.430757 0.057976  -0.107118 -0.438539 0.0605381  -0.178052 -0.465242 0.0629854  -0.142943 -0.469566 0.0640447  -0.114376 -0.509391 0.0700026  -0.149302 -0.504853 0.0690007  -0.120275 -0.545134 0.0749826  -0.15407 -0.504423 0.0694315  -0.160343 -0.539942 0.074333  -0.189498 -0.499947 0.0686066  -0.184752 -0.500321 0.067971  -0.119134 -0.508933 0.0702147  -0.191245 -0.535677 0.0730457  -0.155521 -0.540413 0.0740206  -0.126152 -0.581172 0.0799611  -0.161669 -0.576314 0.0790267  -0.131974 -0.617354 0.0849752  -0.166513 -0.575799 0.0792682  -0.172559 -0.611817 0.0842233  -0.202411 -0.570942 0.078454  -0.19759 -0.571422 0.0780811  -0.13099 -0.58064 0.0800509  -0.203759 -0.607328 0.0831676  -0.167681 -0.612365 0.0840738  -0.137753 -0.653692 0.0899773  -0.17362 -0.648613 0.0891006  -0.143467 -0.69007 0.0949993  -0.178505 -0.648032 0.0891953  -0.184344 -0.684315 0.0941744  -0.21465 -0.642918 0.0883908  -0.20978 -0.643468 0.0882168  -0.142634 -0.653105 0.0899768  -0.21567 -0.67969 0.0933027  -0.179433 -0.684911 0.0941465  -0.149135 -0.726497 0.0999947  -0.185179 -0.721284 0.0991619  -0.154747 -0.762891 0.104996  -0.190092 -0.720656 0.0991528  -0.195744 -0.757 0.104132  -0.226312 -0.71538 0.0983627  -0.221413 -0.715993 0.0983353  -0.154045 -0.725873 0.0999293  -0.227064 -0.752308 0.103376  -0.190818 -0.757635 0.104181  -0.160309 -0.799253 0.109974  -0.196398 -0.79397 0.109173  -0.165814 -0.835528 0.11495  -0.201321 -0.793313 0.1091  -0.206837 -0.829592 0.114064  -0.23752 -0.787966 0.108319  -0.232596 -0.788606 0.108378  -0.165228 -0.798604 0.109872  -0.238088 -0.824883 0.11338  -0.2019 -0.830238 0.114157  -0.171286 -0.871706 0.119894  -0.207362 -0.866417 0.119116  -0.176732 -0.907786 0.12483  -0.212301 -0.865756 0.119011  -0.21775 -0.90188 0.123942  -0.248446 -0.86041 0.118236  -0.243506 -0.86107 0.118343  -0.176213 -0.871057 0.119777  -0.248937 -0.897226 0.123291  -0.212804 -0.902528 0.124063  0.00027664 -0.00256944 0.000466824  -0.000264958 -0.00253308 -0.000154972  0.000951588 -0.00904101 0.00156307  -0.000429086 -0.00260797 0.000298977  -0.00222705 -0.00963336 0.001091  0 0 0  0 0 0  0.000167474 -0.00268659 0.000362635  0 0 0  -0.00139652 -0.00912365 0.000244617  0.00195202 -0.02022 0.00313067  -0.00407663 -0.0202049 0.00164318  0.00261998 -0.0337712 0.00505042  -0.00500974 -0.020636 0.00278974  -0.00809219 -0.0339933 0.0045259  0.00103572 -0.0204732 0.00291324  -0.00665215 -0.0334483 0.00339508  0.00280416 -0.0499014 0.0073185  -0.00929064 -0.049194 0.00572252  0.00261378 -0.0681746 0.00988865  -0.0111493 -0.0497445 0.00682545  -0.0144767 -0.067702 0.00935483  0.00100935 -0.0502453 0.00711632  -0.0122454 -0.0672097 0.00831056  0.00195462 -0.0886552 0.0127568  -0.0152494 -0.0873248 0.0112398  0.000868678 -0.111085 0.0158966  -0.0178462 -0.0877775 0.0121675  -0.0214664 -0.109839 0.0153005  -0.000576079 -0.088942 0.0125577  -0.0185862 -0.109473 0.0144563  -0.000663996 -0.135391 0.0192671  -0.0220991 -0.133453 0.0178807  -0.0026288 -0.161378 0.0228853  -0.0252764 -0.133752 0.0186126  -0.0292975 -0.159339 0.0222156  -0.00376678 -0.135552 0.0190575  -0.0259038 -0.159132 0.0215702  -0.00500309 -0.188894 0.0266681  -0.0299213 -0.186348 0.0254009  -0.00776601 -0.217804 0.030668  -0.0335444 -0.186472 0.0259576  -0.0379869 -0.214991 0.0299292  -0.00855207 -0.188915 0.0264471  -0.0341873 -0.214946 0.0294607  -0.0108945 -0.247951 0.0348029  -0.0386596 -0.244813 0.0336277  -0.0143578 -0.279199 0.0391121  -0.0426384 -0.244778 0.0340321  -0.0474538 -0.275675 0.0383105  -0.0148008 -0.247832 0.034574  -0.0433348 -0.275775 0.0379837  -0.0181341 -0.311407 0.0435107  -0.0481833 -0.307739 0.0424137  -0.0221846 -0.344473 0.0480518  -0.0524385 -0.307561 0.0426931  -0.0575624 -0.340321 0.0472047  -0.0223252 -0.31117 0.043283  -0.053195 -0.340552 0.0469975  -0.0264919 -0.378278 0.0526671  -0.0583427 -0.374147 0.0516348  -0.0310144 -0.412707 0.0573869  -0.0628142 -0.373847 0.0518069  -0.0681651 -0.408027 0.0565052  -0.0309072 -0.37793 0.0524437  -0.0636094 -0.408369 0.0563903  -0.0357389 -0.44766 0.0621488  -0.0689681 -0.443156 0.0611758  -0.0406213 -0.483055 0.0669911  -0.0735998 -0.44275 0.0612638  -0.0791044 -0.477949 0.0660884  -0.0403225 -0.447225 0.0619366  -0.0744092 -0.478386 0.0660517  -0.0456531 -0.518812 0.0718646  -0.0799062 -0.514013 0.0709412  -0.0507929 -0.55484 0.0767879  -0.0846567 -0.513523 0.0709586  -0.0902429 -0.549411 0.0758731  -0.0503612 -0.518302 0.0716641  -0.0854487 -0.549921 0.0758932  -0.0560367 -0.591072 0.0817192  -0.0910122 -0.586064 0.080843  -0.061347 -0.627451 0.0866828  -0.0958419 -0.585507 0.0808082  -0.101456 -0.621792 0.0857697  -0.0608318 -0.590508 0.0815353  -0.0965981 -0.622358 0.0858343  -0.0667195 -0.663924 0.0916517  -0.10218 -0.65877 0.0908139  -0.0721252 -0.70043 0.0966332  -0.10706 -0.658167 0.09074  -0.112655 -0.694623 0.0957246  -0.0715723 -0.663316 0.0914836  -0.107758 -0.695227 0.0958147  -0.0775602 -0.736926 0.101601  -0.113312 -0.731692 0.100795  -0.0830045 -0.77339 0.106571  -0.11822 -0.731054 0.100698  -0.123769 -0.767497 0.105676  -0.0824461 -0.736294 0.101451  -0.118853 -0.768128 0.105783  -0.0884502 -0.809787 0.111534  -0.12436 -0.804509 0.110749  -0.0938916 -0.846093 0.116484  -0.129282 -0.803852 0.110641  -0.134773 -0.840169 0.115607  -0.093354 -0.809136 0.1114  -0.129848 -0.840809 0.115713  -0.0993171 -0.882265 0.121411  -0.13529 -0.876982 0.120651  -0.104723 -0.918338 0.126329  -0.140213 -0.876323 0.120539  -0.145642 -0.912421 0.125468  -0.104225 -0.881617 0.121295  -0.140717 -0.913054 0.125578  0.00245064 -0.00589877 0.0018115  0.00180957 -0.00357538 0.00140214  0.0084728 -0.0135064 0.00388575  0.00170349 -0.00368613 0.000529528  0.00453892 -0.0105719 0.00144172  0 0 0  0 0 0  0.0024472 -0.00595057 0.000504494  0 0 0  0.00514624 -0.0105319 0.00275946  0.0152664 -0.0253738 0.0057466  0.00872427 -0.0220805 0.00461888  0.0218999 -0.0390089 0.00782347  0.00777814 -0.0221428 0.00310946  0.0108195 -0.0358907 0.00504375  0.0142488 -0.0252957 0.0030086  0.012212 -0.035732 0.0065484  0.0275528 -0.0552876 0.0100133  0.0151489 -0.0519465 0.00877428  0.0324496 -0.0738539 0.0125144  0.0133594 -0.0520836 0.00732541  0.0152823 -0.0706617 0.00994682  0.025772 -0.0552798 0.00734043  0.0174038 -0.0704633 0.0112925  0.0364637 -0.0945529 0.0152698  0.0191352 -0.0910549 0.0140848  0.0396426 -0.11739 0.018316  0.0166523 -0.0911854 0.0128043  0.0173963 -0.113877 0.0160015  0.0340647 -0.0945652 0.012897  0.0201417 -0.113763 0.0171804  0.0420552 -0.142002 0.0215926  0.0206138 -0.138228 0.0204835  0.0436746 -0.168423 0.0251274  0.0175781 -0.138263 0.0193667  0.0171742 -0.164483 0.0230255  0.0391232 -0.141934 0.0195425  0.0204253 -0.16448 0.0240633  0.044601 -0.196286 0.0288529  0.0197145 -0.192191 0.0278034  0.0448031 -0.225636 0.0327938  0.01623 -0.192109 0.0268328  0.0147654 -0.221242 0.0308678  0.0412089 -0.19612 0.0271008  0.0184298 -0.22136 0.0317755  0.0443879 -0.256114 0.0368712  0.0166676 -0.251696 0.0358689  0.0433347 -0.28777 0.0411243  0.0128194 -0.251495 0.0350335  0.0104054 -0.282953 0.0393713  0.0406221 -0.255849 0.0353963  0.014401 -0.283181 0.0401533  0.0417476 -0.320279 0.0454869  0.0117279 -0.315564 0.0445228  0.0396154 -0.3537 0.0499864  0.00758553 -0.315258 0.043812  0.00437117 -0.348511 0.048383  0.0376749 -0.319922 0.0442626  0.00863242 -0.348839 0.0490448  0.0370312 -0.387743 0.054559  0.00519753 -0.382785 0.053628  0.0339932 -0.42246 0.0592358  0.000821829 -0.382386 0.0530331  -0.00305963 -0.416972 0.0577781  0.0327172 -0.387311 0.0535626  0.00140762 -0.417386 0.0583296  0.0305893 -0.4576 0.0639682  -0.00264525 -0.452451 0.0630689  0.0268199 -0.493216 0.0687764  -0.00719976 -0.451974 0.0625784  -0.0115995 -0.487497 0.0674448  0.0260866 -0.457097 0.0631735  -0.00697732 -0.487984 0.0678949  0.0227604 -0.529092 0.0736091  -0.0115111 -0.523816 0.0727413  0.018414 -0.565271 0.0784967  -0.0161963 -0.523274 0.0723464  -0.0209982 -0.559401 0.0772898  0.0181184 -0.528537 0.0729942  -0.0162637 -0.559941 0.0776494  0.0138516 -0.601576 0.0834024  -0.0211544 -0.596224 0.0825632  0.00907922 -0.638049 0.0883408  -0.0259335 -0.595635 0.0822504  -0.0310121 -0.632086 0.0872345  0.00910711 -0.600979 0.0829391  -0.0262003 -0.632669 0.0875144  0.00415254 -0.674545 0.0932789  -0.0313389 -0.669164 0.0924637  -0.000921726 -0.711098 0.0982368  -0.0361805 -0.668542 0.0922225  -0.0414457 -0.705097 0.0972202  -0.000659943 -0.673924 0.0929427  -0.0365839 -0.705708 0.0974355  -0.0060873 -0.747593 0.103185  -0.0418754 -0.742213 0.10239  -0.0113466 -0.784072 0.108141  -0.0467544 -0.741567 0.102204  -0.0521164 -0.778064 0.107192  -0.0109434 -0.746951 0.102946  -0.0472262 -0.778696 0.107353  -0.0166533 -0.820438 0.11308  -0.052599 -0.815085 0.1123  -0.0220172 -0.856738 0.118018  -0.0574987 -0.814426 0.11216  -0.0629086 -0.850758 0.117123  -0.0215321 -0.819791 0.112914  -0.0580034 -0.851392 0.117244  -0.0273862 -0.892913 0.12293  -0.063396 -0.887573 0.12216  -0.0327728 -0.929016 0.127828  -0.0683043 -0.886916 0.122056  -0.0736759 -0.923024 0.126986  -0.0322793 -0.892267 0.122814  -0.0687695 -0.923654 0.127067  0.00593485 -0.0158629 0.00278425  0.00507756 -0.00915444 0.00260997  0.020855 -0.0260931 0.00499797  0.00499742 -0.0093677 0.000452042  0.0132084 -0.0188261 0.00135803  0 0 0  0 0 0  0.00572227 -0.0160084 0.000142574  0 0 0  0.0134951 -0.019025 0.00464487  0.0335763 -0.0361662 0.00741959  0.0234919 -0.0301593 0.00678945  0.0448624 -0.0499986 0.00956178  0.0224577 -0.0300307 0.00287557  0.0312071 -0.0438606 0.00492835  0.0323493 -0.0362673 0.00234675  0.0326323 -0.043929 0.0088408  0.0555782 -0.0655328 0.0117571  0.040972 -0.0598626 0.0110409  0.0649889 -0.0841557 0.0143147  0.0392 -0.0597483 0.00718355  0.0461725 -0.0784386 0.0098896  0.0538759 -0.0653877 0.00678706  0.0482138 -0.0784782 0.0135107  0.0734695 -0.104669 0.0170324  0.0544846 -0.099119 0.016243  0.080659 -0.127698 0.0200725  0.0521359 -0.0989811 0.0128295  0.0571326 -0.121955 0.0161102  0.0712231 -0.104412 0.0125916  0.0597245 -0.122055 0.0192711  0.0869263 -0.152309 0.0233622  0.0640453 -0.146716 0.0225315  0.0919296 -0.178991 0.02687  0.0611711 -0.146508 0.0195978  0.0643293 -0.173079 0.0233579  0.0841278 -0.151985 0.0195096  0.0674202 -0.173264 0.0260534  0.0961138 -0.206893 0.0306165  0.069941 -0.2012 0.029768  0.0991135 -0.23652 0.0345185  0.0666068 -0.200914 0.0272815  0.0680834 -0.230408 0.0314276  0.0928401 -0.20651 0.0273492  0.0716039 -0.230684 0.0336995  0.10139 -0.267032 0.0386343  0.0725001 -0.261236 0.0377734  0.102587 -0.298942 0.0428536  0.0687779 -0.260871 0.0356953  0.0687718 -0.292656 0.0401361  0.0977123 -0.266583 0.0359111  0.0726432 -0.293013 0.0420177  0.103186 -0.331441 0.0472355  0.0721126 -0.325578 0.0463698  0.102815 -0.365073 0.0516984  0.0680822 -0.325137 0.0446672  0.0667663 -0.358674 0.0493314  0.0991862 -0.330944 0.0450077  0.0709245 -0.359099 0.0508621  0.10195 -0.399083 0.056298  0.069169 -0.393179 0.0554292  0.100252 -0.433954 0.0609419  0.0648847 -0.392682 0.0540614  0.0624845 -0.427483 0.0588849  0.0976925 -0.398534 0.0545173  0.0668654 -0.427972 0.0600982  0.0981648 -0.469003 0.0656807  0.0640883 -0.46312 0.0648205  0.0953579 -0.504719 0.0704548  0.0596132 -0.462563 0.0637486  0.056304 -0.498246 0.0686803  0.0937068 -0.468416 0.0642924  0.0608582 -0.498784 0.0696206  0.0922523 -0.540485 0.0753007  0.0572529 -0.534651 0.0744462  0.0885596 -0.576713 0.0801528  0.0526271 -0.534058 0.0736341  0.0486124 -0.570276 0.078629  0.0876431 -0.539866 0.0742574  0.053293 -0.570853 0.0793233  0.0846598 -0.612861 0.0850537  0.049037 -0.607126 0.0842164  0.0802739 -0.649343 0.0899603  0.0443077 -0.606498 0.0836263  0.0397375 -0.642998 0.088649  0.0799384 -0.612227 0.0843012  0.0445113 -0.643599 0.0891469  0.0757535 -0.685687 0.0949023  0.039772 -0.680056 0.0940764  0.0708709 -0.722215 0.0998316  0.0349655 -0.679415 0.0936656  0.030014 -0.715972 0.0986884  0.070955 -0.685038 0.0943882  0.0348477 -0.716596 0.0990241  0.0659246 -0.758547 0.104773  0.0297749 -0.753043 0.103964  0.0607078 -0.794982 0.109712  0.0249236 -0.752385 0.103692  0.0197101 -0.788864 0.108697  0.061079 -0.757897 0.104438  0.0245826 -0.789494 0.108919  0.05548 -0.83124 0.114656  0.019309 -0.825828 0.113853  0.050102 -0.867498 0.119582  0.0144286 -0.825171 0.113678  0.00909209 -0.861466 0.118649  0.0506108 -0.830591 0.114447  0.0139832 -0.862101 0.118785  0.0447536 -0.90362 0.124489  0.00861454 -0.898267 0.123691  0.0393305 -0.939734 0.129381  0.00372124 -0.897613 0.123585  -0.00166678 -0.93375 0.128509  0.0398765 -0.902993 0.124357  0.0032382 -0.934369 0.128586  -0.00217595 -0.00372171 0.00127029  -0.00288148 -0.00616479 0.00169921  -0.0073757 -0.0120476 0.00312257  -0.00321976 -0.00546896 0.00411749  -0.0131688 -0.0159696 0.00735044  -0.011091 -0.0128097 0.00501776  0 0 0  -0.0107664 -0.0132804 0.00214982  0 0 0  0 0 0  -0.00227331 -0.00312327 0.00302315  0 0 0  -0.0223209 -0.0232766 0.00395989  -0.0120808 -0.0168745 0.00367594  -0.0135884 -0.0224472 0.00484705  -0.0214465 -0.0264224 0.0056076  -0.0196807 -0.034994 0.0068109  -0.0228284 -0.0252108 0.00971746  -0.0324787 -0.0371705 0.0117359  -0.034634 -0.0301912 0.0113819  -0.0331376 -0.0313373 0.00616241  -0.0148685 -0.0213522 0.00768638  -0.0447494 -0.0432114 0.00803709  -0.0306061 -0.0385214 0.00752044  -0.0260879 -0.0503622 0.00887203  -0.0397989 -0.0528995 0.00955296  -0.0320838 -0.0675635 0.0112665  -0.0417516 -0.0515153 0.013628  -0.050682 -0.0680695 0.0156572  -0.0580146 -0.0552076 0.0153568  -0.0560037 -0.0565325 0.00999093  -0.0280006 -0.0488805 0.0116625  -0.0670306 -0.0724884 0.0122893  -0.0484811 -0.0694981 0.0118403  -0.038216 -0.0872913 0.013859  -0.057066 -0.088535 0.0143282  -0.0442064 -0.108796 0.016757  -0.059418 -0.087171 0.0178616  -0.0678334 -0.108082 0.0203233  -0.08013 -0.0895052 0.0193057  -0.0777217 -0.0907653 0.0146141  -0.0405725 -0.0857724 0.016242  -0.0879098 -0.110883 0.0173895  -0.0652599 -0.109411 0.0171254  -0.050266 -0.132331 0.0198708  -0.0733339 -0.132407 0.0201249  -0.056313 -0.15744 0.0232353  -0.0761151 -0.131153 0.0230415  -0.0841416 -0.15572 0.0259948  -0.100673 -0.132132 0.0241168  -0.0978347 -0.133262 0.0202386  -0.0530516 -0.130918 0.0218165  -0.107264 -0.15706 0.0234892  -0.0811366 -0.156931 0.0234022  -0.0624056 -0.184204 0.0268061  -0.0888455 -0.183228 0.0268729  -0.0685177 -0.212279 0.0305741  -0.0920596 -0.182086 0.0292208  -0.0997708 -0.209674 0.0326164  -0.119758 -0.181798 0.0299468  -0.116493 -0.182822 0.0268145  -0.0656108 -0.182919 0.0283577  -0.125299 -0.20973 0.0304494  -0.0963534 -0.210772 0.0305555  -0.074663 -0.241709 0.0345194  -0.103784 -0.239786 0.0344114  -0.0808216 -0.272205 0.0386207  -0.107388 -0.238736 0.0362692  -0.114825 -0.268794 0.0400476  -0.137594 -0.237324 0.0366769  -0.133939 -0.238267 0.0341985  -0.0782562 -0.24054 0.0357301  -0.142224 -0.267744 0.0381925  -0.111041 -0.269817 0.03844  -0.087002 -0.303785 0.0428672  -0.118233 -0.301036 0.0426154  -0.0931799 -0.336194 0.047236  -0.122174 -0.300061 0.0440466  -0.129349 -0.3321 0.0481293  -0.154335 -0.297668 0.0441897  -0.150355 -0.298553 0.0422657  -0.0909274 -0.30271 0.0437844  -0.158172 -0.330103 0.0465262  -0.125262 -0.333044 0.0469141  -0.0993605 -0.369452 0.0517163  -0.132219 -0.365997 0.0513301  -0.105517 -0.40334 0.0562909  -0.136433 -0.365085 0.0524004  -0.143348 -0.398662 0.0567338  -0.170081 -0.36187 0.052309  -0.165831 -0.362706 0.0508695  -0.103562 -0.368461 0.0523849  -0.173216 -0.395884 0.0553648  -0.139014 -0.399556 0.0558493  -0.111658 -0.43786 0.060951  -0.145734 -0.433829 0.0604606  -0.117756 -0.47282 0.0656791  -0.150166 -0.43297 0.0612185  -0.156813 -0.467694 0.0657387  -0.184893 -0.42908 0.0609388  -0.180437 -0.429876 0.0599027  -0.116077 -0.436936 0.0614069  -0.187408 -0.464284 0.0645549  -0.152291 -0.468526 0.0651381  -0.123819 -0.508232 0.0704637  -0.158762 -0.503747 0.0698807  -0.129823 -0.543939 0.0752974  -0.163358 -0.502936 0.0703824  -0.169743 -0.538462 0.0750513  -0.19883 -0.498523 0.0699425  -0.194211 -0.499281 0.0692554  -0.128407 -0.507373 0.0707467  -0.200801 -0.534568 0.0740411  -0.165074 -0.539256 0.0746801  -0.135777 -0.579934 0.0801721  -0.171301 -0.57511 0.0795245  -0.141666 -0.616085 0.0850766  -0.176022 -0.57434 0.079812  -0.182146 -0.610377 0.0845828  -0.21195 -0.569531 0.079253  -0.207219 -0.570258 0.0788398  -0.14049 -0.579124 0.080313  -0.213453 -0.606121 0.0836923  -0.177377 -0.611117 0.0843973  -0.147492 -0.65239 0.0899978  -0.183364 -0.647329 0.0892942  -0.15325 -0.688755 0.094939  -0.188168 -0.646595 0.0894213  -0.194057 -0.682888 0.0942686  -0.224336 -0.641517 0.0887618  -0.21952 -0.642214 0.0885708  -0.152295 -0.651629 0.0900319  -0.225449 -0.678398 0.0934927  -0.189216 -0.683605 0.0942156  -0.158946 -0.725163 0.0998843  -0.19499 -0.719956 0.0991495  -0.164579 -0.761544 0.104839  -0.199854 -0.71925 0.0991583  -0.205539 -0.755608 0.104049  -0.236088 -0.714 0.0984418  -0.231222 -0.714677 0.0983996  -0.163807 -0.724436 0.0998421  -0.236899 -0.750977 0.103327  -0.200656 -0.756287 0.104088  -0.170155 -0.797893 0.109786  -0.206251 -0.792606 0.109025  -0.175676 -0.834173 0.114737  -0.211145 -0.791921 0.108964  -0.216675 -0.8282 0.113886  -0.24735 -0.786591 0.108206  -0.24245 -0.787255 0.108266  -0.175054 -0.797196 0.1097  -0.247962 -0.823519 0.113215  -0.211767 -0.828872 0.113971  -0.181151 -0.87035 0.119672  -0.217238 -0.865052 0.11891  -0.1866 -0.906431 0.124599  -0.222154 -0.864377 0.118805  -0.227606 -0.900507 0.123717  -0.258302 -0.859043 0.118035  -0.253391 -0.859704 0.118139  -0.186066 -0.869665 0.119561  -0.258826 -0.895851 0.12306  -0.22269 -0.901163 0.123827  1.56313e-05 -0.00255162 0.000248909  -0.000548936 -0.00268275 0.000807047  2.53916e-05 -0.0088658 0.00135541  -0.000694707 -0.00211287 0.00157094  -0.00331719 -0.00865608 0.00356865  0 0 0  0 0 0  -0.000108361 -0.00204733 0.000409365  0 0 0  -0.00231944 -0.00938791 0.0022893  0.000164479 -0.019953 0.00288939  -0.0057945 -0.0204133 0.00392628  -5.81145e-06 -0.0335027 0.0048871  -0.0069547 -0.0191413 0.0055089  -0.0108658 -0.0321406 0.00750685  -0.000719666 -0.0186766 0.00318384  -0.00921699 -0.0335964 0.00591087  -0.000652075 -0.0495487 0.00716019  -0.0127718 -0.0492359 0.00809979  -0.00155187 -0.0677995 0.00972199  -0.0145913 -0.0476511 0.00962019  -0.0185318 -0.0655234 0.0119662  -0.00233889 -0.0478764 0.00736856  -0.0164527 -0.0671461 0.0105772  -0.00288814 -0.0881998 0.0125761  -0.0201616 -0.0871695 0.0132935  -0.00456816 -0.110577 0.0156598  -0.0224732 -0.0855631 0.0145552  -0.0266084 -0.107652 0.0174003  -0.00518215 -0.0864671 0.012692  -0.0240911 -0.109219 0.0162702  -0.00664008 -0.134793 0.0190134  -0.0281575 -0.133106 0.0195103  -0.00909209 -0.160719 0.0225706  -0.0309314 -0.1316 0.020519  -0.0354147 -0.157243 0.0238388  -0.00943398 -0.133167 0.0190582  -0.0324423 -0.158686 0.0229568  -0.0118978 -0.188163 0.0263622  -0.0369042 -0.185819 0.0266416  -0.0150687 -0.217006 0.0303056  -0.040123 -0.18444 0.0274229  -0.0449597 -0.213013 0.0311532  -0.0151422 -0.186675 0.0263462  -0.0415616 -0.214322 0.0304813  -0.0185472 -0.247073 0.0344491  -0.046391 -0.244103 0.0345337  -0.0223377 -0.278267 0.0387173  -0.0500023 -0.242846 0.0351253  -0.0551534 -0.273784 0.0391974  -0.0221795 -0.245725 0.0343912  -0.0513823 -0.274985 0.0387046  -0.0263935 -0.310417 0.0431423  -0.056517 -0.306878 0.0430436  -0.0307093 -0.34343 0.0476525  -0.0604664 -0.305725 0.0434713  -0.0658545 -0.338525 0.0478139  -0.0303611 -0.309189 0.0430477  -0.0617746 -0.339618 0.0474694  -0.0352359 -0.377172 0.0522859  -0.0671444 -0.373144 0.0520337  -0.0399594 -0.411561 0.056988  -0.0713651 -0.372086 0.0523264  -0.0769293 -0.406298 0.0568812  -0.0394704 -0.376057 0.0521715  -0.0726018 -0.407307 0.0566607  -0.0448503 -0.446474 0.0617795  -0.0781305 -0.442043 0.0613892  -0.0498877 -0.481833 0.0666087  -0.0825706 -0.441066 0.0615664  -0.0882308 -0.476299 0.0662761  -0.049304 -0.445452 0.0616465  -0.0837109 -0.477224 0.0661566  -0.0550411 -0.517548 0.0715034  -0.0893304 -0.512803 0.0710027  -0.0602882 -0.553556 0.0764236  -0.0939341 -0.511902 0.0710888  -0.0996397 -0.547818 0.0759084  -0.0596564 -0.516615 0.0713649  -0.0949738 -0.548678 0.0758715  -0.0656166 -0.589769 0.0813851  -0.100624 -0.584793 0.0807886  -0.0710027 -0.626132 0.0863492  -0.105353 -0.583953 0.0808005  -0.111045 -0.620271 0.0856941  -0.0703568 -0.588908 0.0812399  -0.106275 -0.621067 0.0857151  -0.076431 -0.662584 0.0913382  -0.111909 -0.657451 0.0906754  -0.0818801 -0.699085 0.0963264  -0.116723 -0.656669 0.0906358  -0.122371 -0.693146 0.0955701  -0.0812523 -0.66179 0.0911989  -0.117529 -0.693896 0.0956354  -0.0873477 -0.735578 0.101322  -0.123117 -0.730351 0.100605  -0.0928209 -0.772037 0.106301  -0.127987 -0.72961 0.100528  -0.133564 -0.766075 0.10548  -0.0922275 -0.734833 0.101186  -0.128679 -0.766781 0.105566  -0.0982838 -0.808424 0.111279  -0.1342 -0.80315 0.110533  -0.103734 -0.84474 0.116246  -0.139102 -0.802443 0.11044  -0.144613 -0.838771 0.115393  -0.103192 -0.807721 0.111156  -0.139702 -0.839456 0.11549  -0.109166 -0.880922 0.121196  -0.145149 -0.875629 0.120429  -0.114585 -0.917004 0.126124  -0.15007 -0.874941 0.120328  -0.155502 -0.911044 0.125261  -0.114096 -0.880237 0.121086  -0.150583 -0.911712 0.125357  0.00229111 -0.0054121 -0.000920773  0.0016159 -0.00333029 -0.000229597  0.0076004 -0.0126344 -0.000690699  0.00149842 -0.0028038 -0.00111914  0.00381964 -0.00898916 -0.000640869  0 0 0  0 0 0  0.00225043 -0.00475156 -0.00223446  0 0 0  0.00430423 -0.0100135 0.000341654  0.0134131 -0.0244221 0.000571012  0.0069814 -0.0214928 0.001755  0.0192086 -0.0380133 0.00247121  0.00627628 -0.0199727 0.000685215  0.00842494 -0.0334078 0.00263309  0.0128244 -0.0226906 -0.00170636  0.0096339 -0.0351004 0.00373602  0.0241404 -0.0543031 0.00488067  0.0117247 -0.0512774 0.00606751  0.0283656 -0.0729101 0.00761271  0.0101483 -0.0494213 0.00503278  0.0113567 -0.0679297 0.00770688  0.022676 -0.0522734 0.00255871  0.0132833 -0.0697906 0.00873637  0.0317723 -0.0935678 0.0107133  0.0143408 -0.0903274 0.0117092  0.0343802 -0.116408 0.0140347  0.0120782 -0.0884623 0.010746  0.0122555 -0.111204 0.0139809  0.0295693 -0.0915731 0.00861835  0.0147702 -0.112997 0.0149117  0.0362784 -0.140966 0.0176578  0.0147071 -0.137404 0.0183976  0.0374042 -0.167374 0.0214529  0.0118885 -0.135663 0.0175319  0.0110128 -0.161962 0.0212328  0.0334874 -0.139119 0.0158355  0.0140413 -0.163612 0.0220602  0.0378964 -0.195187 0.0254872  0.0128933 -0.191272 0.0259783  0.0376842 -0.224512 0.0296681  0.00961149 -0.189676 0.0252054  0.00774324 -0.218893 0.0292969  0.0346267 -0.193507 0.0239267  0.0112062 -0.220387 0.0300241  0.0369117 -0.254945 0.0340345  0.00908363 -0.250672 0.0342875  0.0355181 -0.286577 0.0385134  0.00540257 -0.249225 0.0336142  0.00266266 -0.280753 0.0380125  0.0332388 -0.253424 0.0327158  0.00649559 -0.282112 0.0386441  0.0336366 -0.31905 0.0431318  0.00353241 -0.314454 0.0431705  0.0312304 -0.352447 0.0478349  -0.000475764 -0.313138 0.042588  -0.00396466 -0.346462 0.0472233  0.0296319 -0.317677 0.0420351  0.000172853 -0.347683 0.0477645  0.0284178 -0.386461 0.0526435  -0.00349665 -0.381591 0.0524902  0.0251637 -0.42116 0.0575042  -0.0077765 -0.380403 0.0519984  -0.0118639 -0.415047 0.056803  0.0241392 -0.385227 0.0517454  -0.00748372 -0.416159 0.0572591  0.021579 -0.456275 0.062439  -0.0117137 -0.451197 0.0621262  0.0176451 -0.491877 0.0674093  -0.0162032 -0.450112 0.061712  -0.0207713 -0.485694 0.066637  0.0170906 -0.45516 0.0617206  -0.0162008 -0.486698 0.0670156  0.0134552 -0.527738 0.0724277  -0.0208683 -0.522509 0.0719767  0.00898814 -0.563913 0.0774596  -0.0255253 -0.521526 0.0716383  -0.0304394 -0.557699 0.0766344  0.00879884 -0.526732 0.0718658  -0.0257263 -0.558619 0.0769429  0.00433016 -0.600207 0.0825129  -0.0307086 -0.594889 0.0819538  -0.000526667 -0.63668 0.087569  -0.0354798 -0.593987 0.0816779  -0.0406468 -0.630489 0.0867121  -0.000441313 -0.599295 0.082088  -0.0358336 -0.631321 0.0869591  -0.00551414 -0.673173 0.0926342  -0.0410352 -0.66781 0.0919895  -0.0106421 -0.709731 0.0976889  -0.0458899 -0.666987 0.0917714  -0.0512018 -0.703578 0.0968089  -0.0103686 -0.672344 0.0923197  -0.0463231 -0.704353 0.0970027  -0.0158465 -0.746224 0.102727  -0.0516481 -0.740855 0.102021  -0.0211372 -0.782707 0.107754  -0.0565505 -0.740087 0.101847  -0.0619488 -0.776618 0.106872  -0.0207484 -0.74546 0.102501  -0.0570307 -0.777335 0.107023  -0.0264597 -0.81908 0.112765  -0.0624239 -0.813725 0.112018  -0.0318418 -0.855392 0.117756  -0.0673568 -0.813005 0.111884  -0.0727766 -0.849355 0.116879  -0.0313935 -0.818364 0.112601  -0.0678389 -0.850044 0.116993  -0.0372229 -0.891574 0.122713  -0.0732367 -0.886231 0.12195  -0.0426171 -0.927692 0.127661  -0.078177 -0.885531 0.121847  -0.0835683 -0.921653 0.126813  -0.0421631 -0.890884 0.122604  -0.0786252 -0.92232 0.126891  0.00568269 -0.014795 -0.00237155  0.00481194 -0.00838941 -0.00142121  0.0198878 -0.0246104 -0.00318646  0.00474913 -0.00780547 -0.0036881  0.0125614 -0.0161946 -0.00481701  0 0 0  0 0 0  0.00545026 -0.0139343 -0.00491023  0 0 0  0.0125971 -0.0177721 -0.00175571  0.0316277 -0.0347668 -0.00216246  0.0216469 -0.0289543 -0.000741243  0.042171 -0.0484518 -0.000492811  0.0211262 -0.0269278 -0.00431967  0.0290871 -0.0405474 -0.00255299  0.0308161 -0.032698 -0.00695896  0.0299532 -0.0426774 0.00107098  0.05233 -0.0641012 0.00202274  0.0376538 -0.0586454 0.00352025  0.0611033 -0.0826927 0.00491929  0.0362681 -0.0564063 -3.31402e-05  0.0424852 -0.0751308 0.00297594  0.0510855 -0.0617048 -0.00277972  0.0442281 -0.0772759 0.00633621  0.0690565 -0.103259 0.00831318  0.0499139 -0.0979056 0.00957823  0.0756757 -0.126297 0.0118797  0.0477684 -0.0957668 0.00642228  0.0521654 -0.118833 0.0100884  0.0670799 -0.100975 0.00405955  0.054592 -0.120848 0.013026  0.0814455 -0.150895 0.0158305  0.0583905 -0.145484 0.0168025  0.0859449 -0.177604 0.0198956  0.0556428 -0.143513 0.0140836  0.0583042 -0.170201 0.0182269  0.0788422 -0.148825 0.012182  0.061282 -0.172026 0.0207326  0.0896933 -0.205477 0.0242493  0.0633545 -0.199938 0.0249135  0.0922532 -0.235112 0.0286727  0.0601145 -0.19816 0.0226092  0.061184 -0.227757 0.0271082  0.0865823 -0.203632 0.0211656  0.0646073 -0.229407 0.0292115  0.0941615 -0.265606 0.0333347  0.0651304 -0.259938 0.0337148  0.0949972 -0.297527 0.038039  0.0614884 -0.258327 0.0317936  0.0611303 -0.290218 0.0365646  0.0906364 -0.263957 0.0307686  0.0649337 -0.291699 0.0383027  0.0952919 -0.330022 0.0429118  0.0640919 -0.324248 0.0430446  0.09463 -0.363655 0.0478127  0.0601091 -0.322803 0.0414703  0.0585206 -0.356433 0.0464306  0.0914203 -0.328543 0.0408261  0.0626333 -0.357756 0.0478408  0.093519 -0.397644 0.0528431  0.0606294 -0.391823 0.0527539  0.0915811 -0.432526 0.0578809  0.0563769 -0.390525 0.0514922  0.0537477 -0.425414 0.0565796  0.0893555 -0.396339 0.0511732  0.0581117 -0.426601 0.0576994  0.0893016 -0.467577 0.0629992  0.0551403 -0.461741 0.0627244  0.0863159 -0.503297 0.0681119  0.0506632 -0.460578 0.0617344  0.0471902 -0.496335 0.0668995  0.084908 -0.466404 0.0617061  0.0517476 -0.497399 0.0677626  0.0830667 -0.539049 0.0732853  0.0479946 -0.533262 0.072855  0.0792315 -0.575295 0.0784385  0.0433552 -0.532214 0.0721052  0.0392072 -0.568505 0.0773032  0.078491 -0.538015 0.0723076  0.0439141 -0.569462 0.0779459  0.0752249 -0.611458 0.0836134  0.0395515 -0.605736 0.0830593  0.0707452 -0.647948 0.0887611  0.0347838 -0.604797 0.0825129  0.0301318 -0.641357 0.0877023  0.0705159 -0.610525 0.0829179  0.0349422 -0.642216 0.0881586  0.0661538 -0.684289 0.0939183  0.0301304 -0.678677 0.0932677  0.0612009 -0.720837 0.0990417  0.0252836 -0.677824 0.0928888  0.0202701 -0.714438 0.098043  0.0613472 -0.683463 0.0934393  0.0251513 -0.71522 0.0983534  0.0562084 -0.757186 0.104142  0.0200319 -0.751674 0.103426  0.0509586 -0.793631 0.109216  0.0151291 -0.750897 0.103174  0.00988936 -0.787413 0.108273  0.0513437 -0.756425 0.103842  0.0148103 -0.788136 0.108474  0.0457075 -0.829885 0.114261  0.00951242 -0.824475 0.113501  0.0403078 -0.866165 0.119281  0.00458312 -0.823746 0.11334  -0.000777245 -0.860071 0.118377  0.0408044 -0.829188 0.11407  0.00416923 -0.860757 0.118506  0.0349481 -0.902316 0.124252  -0.0012126 -0.896939 0.123476  0.0295181 -0.938453 0.129205  -0.00616312 -0.896242 0.123374  -0.0115473 -0.932394 0.128354  0.0300267 -0.901637 0.124138  -0.00659394 -0.933061 0.128422  -0.003258 -0.00231132 0.004807  -0.00397395 -0.00487357 0.00664282  -0.00948641 -0.00946192 0.00917172  -0.00438444 -0.00242398 0.0114341  -0.017167 -0.0103998 0.0170562  -0.013088 -0.0110128 0.0125775  0 0 0  -0.011407 -0.0115986 0.00884509  0 0 0  0 0 0  -0.00332756 -1.33663e-05 0.00875282  0 0 0  -0.0233205 -0.0199405 0.0149796  -0.0140054 -0.0141814 0.0120826  -0.016263 -0.0189092 0.0108271  -0.0240233 -0.0226906 0.0140817  -0.0227936 -0.0309191 0.0129955  -0.0262605 -0.0184252 0.0184157  -0.0355896 -0.0303264 0.0209532  -0.0371392 -0.0230527 0.02316  -0.0353634 -0.0277428 0.0170894  -0.0192026 -0.0150916 0.013737  -0.0474395 -0.0391078 0.0197277  -0.0336822 -0.0344674 0.0163655  -0.0295624 -0.0461358 0.014569  -0.0432092 -0.0487354 0.0178277  -0.0359887 -0.063322 0.016567  -0.0448845 -0.04465 0.0219665  -0.0538774 -0.0615824 0.0236428  -0.0607177 -0.0483274 0.0265186  -0.0593807 -0.0525837 0.0207953  -0.0317355 -0.0420163 0.0173371  -0.0709315 -0.0685815 0.0225625  -0.0523493 -0.065403 0.0196087  -0.042517 -0.0831908 0.0187342  -0.0613469 -0.0846404 0.0214925  -0.0489922 -0.104873 0.021136  -0.0630492 -0.081075 0.0251548  -0.0718245 -0.102415 0.0269861  -0.0836945 -0.0835591 0.0289073  -0.0821328 -0.0870938 0.0240095  -0.0445148 -0.0794763 0.0212133  -0.0928641 -0.10741 0.025934  -0.0700162 -0.105697 0.0235956  -0.0554957 -0.128612 0.0238731  -0.0785619 -0.128942 0.0260491  -0.0620344 -0.153941 0.0267723  -0.0806667 -0.125925 0.0291424  -0.0891407 -0.150866 0.0314374  -0.105299 -0.127087 0.0320692  -0.103238 -0.130007 0.0280247  -0.0577818 -0.125428 0.0259855  -0.113191 -0.154015 0.0304334  -0.0868351 -0.153648 0.0286601  -0.0685558 -0.180887 0.0300109  -0.0950041 -0.180153 0.0316479  -0.0751207 -0.209164 0.0333719  -0.0976111 -0.177595 0.0341825  -0.10576 -0.205486 0.036993  -0.125423 -0.177486 0.0364037  -0.122822 -0.179929 0.0331168  -0.0712935 -0.17817 0.0317359  -0.132087 -0.207012 0.0360208  -0.102935 -0.20786 0.0347548  -0.0816518 -0.238754 0.0370293  -0.110775 -0.237041 0.0381949  -0.0881988 -0.269418 0.040781  -0.113868 -0.234863 0.0402229  -0.121682 -0.265179 0.0434759  -0.144175 -0.233602 0.0418191  -0.141087 -0.235677 0.0391989  -0.0848472 -0.236435 0.0383954  -0.149764 -0.265299 0.0425601  -0.118397 -0.267203 0.0417206  -0.0947021 -0.301133 0.0447748  -0.125935 -0.298561 0.0455294  -0.101203 -0.333689 0.0488443  -0.129447 -0.296694 0.0471072  -0.136944 -0.328951 0.0507443  -0.161703 -0.294431 0.048188  -0.15819 -0.2962 0.0461471  -0.0983007 -0.299146 0.0458221  -0.166323 -0.327874 0.0498691  -0.133263 -0.330688 0.0494027  -0.107649 -0.36707 0.0531125  -0.140503 -0.363759 0.0535111  -0.114065 -0.40108 0.0574334  -0.144368 -0.362164 0.0546973  -0.151542 -0.395941 0.0586345  -0.178092 -0.359051 0.0553153  -0.174228 -0.360567 0.0537808  -0.111591 -0.365374 0.0538812  -0.181871 -0.393854 0.0578108  -0.147539 -0.397416 0.0576584  -0.120414 -0.435704 0.061909  -0.154483 -0.431791 0.0620019  -0.126716 -0.470775 0.0664258  -0.158635 -0.430426 0.0628536  -0.165497 -0.465317 0.0670478  -0.193434 -0.426622 0.0630956  -0.189277 -0.427912 0.0619931  -0.124632 -0.434257 0.0624437  -0.196445 -0.462413 0.0662556  -0.161227 -0.466579 0.0663722  -0.13294 -0.506282 0.0710645  -0.167871 -0.501887 0.0709009  -0.139098 -0.542078 0.0757263  -0.172257 -0.500721 0.071471  -0.178803 -0.536399 0.0758595  -0.207782 -0.49637 0.0713835  -0.203395 -0.497479 0.0706475  -0.137385 -0.505051 0.0713997  -0.210138 -0.532849 0.0751097  -0.174327 -0.537469 0.0754414  -0.14517 -0.578149 0.0804801  -0.180682 -0.573397 0.0801058  -0.151172 -0.61438 0.0852513  -0.185245 -0.572392 0.0804465  -0.191504 -0.608551 0.0850043  -0.22123 -0.567638 0.0801096  -0.216657 -0.568587 0.0796716  -0.149785 -0.577097 0.0806575  -0.222999 -0.604521 0.0842731  -0.186863 -0.609475 0.0847824  -0.157084 -0.650753 0.0900838  -0.192941 -0.645745 0.0895507  -0.162918 -0.687177 0.0949275  -0.197643 -0.644874 0.0897114  -0.203627 -0.68127 0.0943842  -0.233853 -0.639835 0.089165  -0.229142 -0.640663 0.0889609  -0.161829 -0.649848 0.0901365  -0.23515 -0.676905 0.0936916  -0.198867 -0.682069 0.0943205  -0.168669 -0.723634 0.099813  -0.204701 -0.718464 0.0991609  -0.174351 -0.760063 0.104709  -0.209502 -0.717689 0.0991917  -0.215261 -0.754118 0.103974  -0.245782 -0.712475 0.0985148  -0.240964 -0.713209 0.09848  -0.173502 -0.722837 0.099781  -0.246682 -0.749551 0.103287  -0.210411 -0.75484 0.104008  -0.17996 -0.796451 0.109625  -0.21604 -0.791188 0.108898  -0.185504 -0.832753 0.114543  -0.220906 -0.790478 0.108844  -0.22647 -0.826805 0.113694  -0.257136 -0.785169 0.108076  -0.252258 -0.785852 0.108148  -0.184852 -0.79573 0.109536  -0.257785 -0.822139 0.113034  -0.221578 -0.827471 0.11379  -0.190989 -0.868952 0.119456  -0.227063 -0.863669 0.118694  -0.196437 -0.905042 0.124366  -0.231953 -0.862996 0.11859  -0.237421 -0.899151 0.12347  -0.26811 -0.857674 0.117814  -0.263216 -0.858329 0.11793  -0.195901 -0.86828 0.119338  -0.268646 -0.894488 0.122823  -0.232517 -0.89979 0.123592  -0.000520974 -0.000995487 0.000637531  -0.00108606 -0.00118771 0.00238848  -0.00118876 -0.00606936 0.0022223  -0.00120047 0.00110012 0.00401616  -0.00600518 -0.00338453 0.0080142  0 0 0  0 0 0  -0.000657864 0.00126439 0.00175691  0 0 0  -0.00372635 -0.00678825 0.00570917  -0.00175074 -0.0161839 0.00360441  -0.00813428 -0.0168393 0.00716877  -0.00267079 -0.0292059 0.00563455  -0.0102922 -0.013017 0.0089817  -0.0140868 -0.0253774 0.0111747  -0.00343367 -0.0123083 0.00406408  -0.0121767 -0.0294543 0.00935292  -0.00395846 -0.0449547 0.00773263  -0.0162626 -0.0448489 0.0112381  -0.0054788 -0.0631897 0.0101478  -0.0181049 -0.0407728 0.0129125  -0.022192 -0.0587989 0.0149171  -0.00583029 -0.040794 0.00809741  -0.0204211 -0.0627145 0.0134127  -0.00734472 -0.0836369 0.0129392  -0.0245817 -0.0828497 0.0159495  -0.00957018 -0.106205 0.0158873  -0.0265946 -0.0791082 0.0173838  -0.0311099 -0.10155 0.0198328  -0.00954682 -0.0797501 0.0132155  -0.0289851 -0.105051 0.0185621  -0.01211 -0.130604 0.0192313  -0.033512 -0.129156 0.021657  -0.0150625 -0.15676 0.0226567  -0.0359672 -0.12588 0.02284  -0.0408788 -0.151887 0.0258148  -0.0147671 -0.127161 0.0194349  -0.0382613 -0.154936 0.0247684  -0.0182934 -0.184395 0.0264452  -0.0431758 -0.182287 0.0283155  -0.021906 -0.213461 0.0302868  -0.0461103 -0.179447 0.0292647  -0.0513488 -0.208339 0.0327036  -0.0214095 -0.181404 0.0265777  -0.0482484 -0.210973 0.0318739  -0.0257517 -0.243724 0.0344348  -0.0534832 -0.240959 0.0358086  -0.0299258 -0.275113 0.0386105  -0.0568687 -0.238515 0.0365438  -0.062362 -0.269739 0.0403733  -0.0292928 -0.241143 0.0345016  -0.0588329 -0.272001 0.0397382  -0.0342926 -0.307427 0.0430396  -0.0643111 -0.304066 0.0439706  -0.0389202 -0.340613 0.0474823  -0.0680751 -0.301962 0.0445206  -0.0737514 -0.335006 0.0486536  -0.0381933 -0.30521 0.043052  -0.0698625 -0.336943 0.0481961  -0.0436945 -0.374512 0.0521264  -0.0755136 -0.370628 0.0526743  -0.0486746 -0.409052 0.0567694  -0.0796001 -0.36883 0.0530615  -0.0853944 -0.403265 0.0574419  -0.0479004 -0.372618 0.0520899  -0.0812087 -0.404914 0.0571308  -0.0537632 -0.444093 0.0615697  -0.0869603 -0.439781 0.0617833  -0.0589957 -0.479585 0.0663586  -0.0913002 -0.438245 0.0620346  -0.0971451 -0.473665 0.0665956  -0.0582085 -0.442481 0.0614974  -0.0927231 -0.475067 0.0664124  -0.0642953 -0.515425 0.071269  -0.0985141 -0.510769 0.0712039  -0.0696957 -0.551545 0.076154  -0.103063 -0.509465 0.0713408  -0.108905 -0.54555 0.0760448  -0.0689337 -0.514058 0.0711663  -0.104297 -0.546737 0.0759587  -0.0751312 -0.587856 0.0811284  -0.110073 -0.582948 0.0808311  -0.0806191 -0.624315 0.0860751  -0.114769 -0.581835 0.0808783  -0.120562 -0.618286 0.0856791  -0.0799053 -0.586699 0.081008  -0.11582 -0.619295 0.0856752  -0.0861154 -0.660858 0.091084  -0.121542 -0.655769 0.0906081  -0.0916359 -0.697434 0.0960584  -0.126353 -0.654818 0.0905855  -0.132068 -0.691408 0.0954554  -0.0909867 -0.659873 0.0909505  -0.12723 -0.692277 0.0955031  -0.0971472 -0.733991 0.101069  -0.132871 -0.728794 0.100455  -0.102656 -0.770507 0.10605  -0.13775 -0.727959 0.100386  -0.14337 -0.764501 0.105298  -0.102072 -0.733139 0.100934  -0.138472 -0.765267 0.105383  -0.10814 -0.80695 0.111049  -0.144026 -0.801689 0.110348  -0.113615 -0.8433 0.116017  -0.148953 -0.800944 0.110251  -0.154477 -0.837327 0.115189  -0.113097 -0.806193 0.110918  -0.149547 -0.838024 0.115286  -0.119057 -0.879505 0.12099  -0.155009 -0.874224 0.120228  -0.124474 -0.915587 0.125938  -0.159947 -0.873533 0.120125  -0.165382 -0.909655 0.125043  -0.12402 -0.878809 0.120877  -0.160442 -0.910303 0.125152  0.00223845 -0.00337577 -0.00369906  0.00155343 -0.00155222 -0.00192881  0.00712627 -0.00904113 -0.00505257  0.0016059 0.000789762 -0.00295019  0.00289759 -0.00349718 -0.00220633  0 0 0  0 0 0  0.00206891 -0.00120217 -0.00529599  0 0 0  0.00360611 -0.00697958 -0.00153828  0.012199 -0.0198538 -0.00392795  0.00539234 -0.0174147 -0.000327587  0.0170338 -0.0330159 -0.0022161  0.00444648 -0.0133997 -0.000936031  0.00581807 -0.0261633 0.000859022  0.0115492 -0.0156929 -0.00610542  0.00721693 -0.0304883 0.00169659  0.0211005 -0.0490707 0.000371695  0.00848079 -0.0464087 0.00411415  0.0245278 -0.067742 0.00328064  0.00674105 -0.0421209 0.00335598  0.00740767 -0.0606825 0.00589681  0.019406 -0.0445786 -0.00171781  0.00937843 -0.0648837 0.00675607  0.0272747 -0.0884888 0.0066638  0.00980657 -0.0855202 0.00990391  0.0292538 -0.111557 0.0102043  0.0074628 -0.0815257 0.00912023  0.00717807 -0.104566 0.012321  0.0248206 -0.0843104 0.00475883  0.00969481 -0.108359 0.0130951  0.0306252 -0.136323 0.0141401  0.00909889 -0.132997 0.0167792  0.0312294 -0.16299 0.0181558  0.00622654 -0.129434 0.0160489  0.00494301 -0.15609 0.0197706  0.0275995 -0.132597 0.0124638  0.00796247 -0.159412 0.0204506  0.0312922 -0.191023 0.0224788  0.00635087 -0.18731 0.0245297  0.0306388 -0.220594 0.0268548  0.00301898 -0.184195 0.023885  0.000800133 -0.213742 0.0280101  0.0278004 -0.187767 0.0210342  0.0042665 -0.21663 0.0286052  0.0295017 -0.251242 0.0314922  0.00174117 -0.247152 0.0330193  0.0277315 -0.2831 0.0361531  -0.00200069 -0.244447 0.0324538  -0.00504601 -0.276293 0.0368941  0.0256257 -0.248418 0.0302713  -0.00118887 -0.278778 0.0374088  0.0255555 -0.315768 0.0410202  -0.00448895 -0.311323 0.0420685  0.0228381 -0.349368 0.0458865  -0.00857913 -0.308997 0.0415781  -0.0123041 -0.342585 0.0462568  0.0213435 -0.31334 0.0399969  -0.00812399 -0.344721 0.0467024  0.0197845 -0.38356 0.0509145  -0.0120654 -0.378816 0.0515532  0.0162828 -0.418437 0.0559273  -0.0164363 -0.376822 0.0511293  -0.0207186 -0.411716 0.0559809  0.0153053 -0.381486 0.0500751  -0.0162766 -0.413528 0.0563612  0.0125172 -0.453708 0.0610564  -0.0207238 -0.448727 0.0613334  0.00838757 -0.489467 0.0661578  -0.0253196 -0.447031 0.0609708  -0.0300221 -0.482817 0.0659401  0.00782418 -0.451947 0.060374  -0.0253787 -0.484359 0.0662634  0.00405765 -0.525468 0.0713453  -0.0302103 -0.520316 0.0713227  -0.000552654 -0.561781 0.0764964  -0.0349743 -0.518878 0.0710139  -0.0399914 -0.555245 0.0760581  -0.00078845 -0.523984 0.070806  -0.0351946 -0.556537 0.0763271  -0.00530076 -0.598199 0.0816939  -0.0402951 -0.592931 0.0814159  -0.0102577 -0.634789 0.0868478  -0.0451825 -0.59172 0.0811574  -0.0503988 -0.628368 0.086237  -0.0102568 -0.596955 0.0812726  -0.0455005 -0.629463 0.0864592  -0.0153039 -0.671384 0.0920281  -0.050777 -0.666056 0.0915589  -0.0204923 -0.708034 0.0971622  -0.0557358 -0.665027 0.0913441  -0.0610795 -0.70175 0.0964262  -0.0203159 -0.670341 0.0917118  -0.0561187 -0.702673 0.096607  -0.025723 -0.744609 0.102292  -0.0614901 -0.739256 0.101676  -0.0310469 -0.781161 0.107378  -0.0664878 -0.738373 0.1015  -0.0718834 -0.77499 0.106562  -0.030761 -0.743721 0.102055  -0.0668962 -0.775797 0.106707  -0.0363841 -0.817589 0.112454  -0.0723095 -0.812245 0.111748  -0.0417769 -0.853944 0.117494  -0.0773141 -0.81146 0.111609  -0.0827382 -0.847879 0.116639  -0.0414166 -0.816813 0.112284  -0.0777397 -0.848599 0.116752  -0.0471587 -0.890154 0.122513  -0.0831504 -0.884811 0.121749  -0.0525646 -0.926278 0.127506  -0.0881598 -0.884097 0.121649  -0.0935431 -0.920228 0.12665  -0.0521853 -0.889438 0.122405  -0.0885403 -0.920904 0.126729  0.00590074 -0.0113704 -0.00785637  0.00510387 -0.00580919 -0.00599337  0.0195922 -0.0190068 -0.011627  0.00533147 -0.00355351 -0.00954437  0.013357 -0.00945026 -0.0122166  0 0 0  0 0 0  0.00558499 -0.00936007 -0.0119288  0 0 0  0.0124739 -0.0133537 -0.00842524  0.0304179 -0.0289559 -0.0116065  0.0206324 -0.023766 -0.00791264  0.0404244 -0.0422409 -0.0103922  0.0207448 -0.0192291 -0.011111  0.0271316 -0.0322838 -0.00982404  0.030948 -0.0240175 -0.0162632  0.0280319 -0.0371403 -0.00628328  0.0496644 -0.058129 -0.00738645  0.034761 -0.0530297 -0.00344229  0.0576999 -0.0768917 -0.00408983  0.0331236 -0.0483294 -0.00667381  0.0384268 -0.0672033 -0.00351453  0.0483347 -0.0530841 -0.0120049  0.0405388 -0.071779 -0.000340939  0.0649279 -0.0977352 -2.52724e-05  0.0454878 -0.0925992 0.00341105  0.0709051 -0.121057 0.00410438  0.0428888 -0.0882729 0.000444889  0.046726 -0.111692 0.00444508  0.0624421 -0.0932088 -0.00412846  0.0495591 -0.115767 0.00721216  0.0761151 -0.145926 0.00867248  0.0527766 -0.140667 0.0114832  0.0800778 -0.172927 0.0132902  0.0495758 -0.13682 0.00888944  0.0518231 -0.163891 0.0134053  0.0729692 -0.141954 0.00514555  0.0551709 -0.167461 0.0157666  0.0833666 -0.201072 0.0182102  0.0567663 -0.195636 0.0204072  0.0854796 -0.230977 0.0231438  0.0531123 -0.19227 0.0181966  0.0538448 -0.22223 0.0230441  0.0797446 -0.197603 0.0152285  0.0576134 -0.225333 0.0250368  0.0870103 -0.261704 0.0283267  0.0577358 -0.256113 0.0299544  0.0874634 -0.293871 0.033498  0.0537009 -0.253195 0.028106  0.053066 -0.285419 0.0332015  0.0830073 -0.258707 0.0258484  0.0571927 -0.288091 0.0348485  0.0874363 -0.32659 0.0388417  0.0560189 -0.320876 0.0399609  0.0864475 -0.360455 0.0441537  0.0516692 -0.318361 0.0384398  0.0498641 -0.352289 0.043704  0.08312 -0.324014 0.0368173  0.0542812 -0.35458 0.0450351  0.0850866 -0.394625 0.0495954  0.052006 -0.388848 0.0502782  0.0828762 -0.42971 0.0550029  0.047401 -0.386705 0.0490499  0.0446091 -0.421861 0.0544057  0.0805147 -0.392443 0.0479746  0.0492616 -0.423801 0.0554667  0.0803924 -0.464925 0.060483  0.0460749 -0.459123 0.0607784  0.0771925 -0.500833 0.0659122  0.0412772 -0.457304 0.0598118  0.0376828 -0.493293 0.0652156  0.0756199 -0.463081 0.0592217  0.0425129 -0.494934 0.066036  0.0738006 -0.536734 0.0713978  0.0385993 -0.530955 0.071378  0.0698025 -0.573136 0.0768297  0.0336502 -0.529427 0.0706303  0.0294321 -0.565927 0.0760419  0.0688751 -0.535191 0.0704377  0.0343897 -0.567293 0.0766573  0.0656884 -0.609429 0.0822694  0.0299118 -0.603713 0.0819793  0.0610864 -0.646065 0.0876403  0.024874 -0.602436 0.0814238  0.02019 -0.639171 0.0868003  0.0606675 -0.60815 0.0815754  0.0252204 -0.640308 0.0872393  0.056437 -0.682505 0.0930059  0.0203371 -0.676881 0.0925152  0.0514026 -0.719162 0.09831  0.0152497 -0.67582 0.0921144  0.0102437 -0.712573 0.09742  0.0513666 -0.681453 0.0925226  0.0153062 -0.713518 0.0977235  0.0463758 -0.755586 0.103569  0.0101466 -0.750067 0.10292  0.0410693 -0.792122 0.108764  0.00505924 -0.749168 0.102646  -0.000156164 -0.785789 0.107866  0.0413013 -0.754708 0.103256  0.00490308 -0.786596 0.108063  0.0358133 -0.828414 0.113908  -0.000411034 -0.82299 0.113173  0.0303826 -0.864741 0.119008  -0.00548029 -0.822212 0.11299  -0.0108113 -0.8586 0.118109  0.030761 -0.827664 0.113712  -0.0057683 -0.859317 0.118238  0.0250125 -0.900896 0.124039  -0.0111601 -0.895523 0.123265  0.0195642 -0.937058 0.129052  -0.0161979 -0.894804 0.123159  -0.0215809 -0.930964 0.128208  0.0199883 -0.900203 0.123929  -0.0165451 -0.931653 0.128273  
SCALARS smooth_stress float 1
LOOKUP_TABLE default
4214.99 5984.27 5144.86 4639.64 4046.82 3437.21 2853.63 2319.78 1838.45 1418.08 1055.1 747.78 497.162 306.086 163.374 69.3136 9.26426 2026.04 4843.57 4530.88 4371.89 4043.81 3614.39 3160.95 2723.21 2308.03 1929.14 1577.52 1256.09 960.126 688.794 442.147 210.7 39.6505 3313.33 5813.88 5842.06 5408.63 4836.83 4245.18 3677.82 3156.06 2676.39 2238.5 1836.9 1469.23 1128.54 816.894 527.186 265.168 57.641 8394.51 11982.2 11156.1 9947.41 8612.59 7307.52 6088.8 4992.34 4014.97 3154.11 2405.05 1770.19 1232.43 800.232 454.381 213.446 49.5959 2807.26 5440.07 4830.76 4346.72 3776.74 3203 2661.2 2169.38 1732.7 1345.18 1008.89 723.35 485.383 299.031 157.115 67.4003 17.2519 5683.93 10656.9 9375.39 8101.53 6840.74 5694.08 4667.62 3753.68 2943.97 2244.35 1640.63 1134.67 733.681 426.547 214.379 87.2003 17.0874 3373.94 12740.7 12267.6 10862.7 9489.12 8188.26 6974.86 5858.38 4843.72 3926.88 3119.28 2401.96 1773.94 1237.47 775.956 379.414 99.1365 3921.71 9749.47 10401.9 9235.8 8180.54 7213.78 6303.03 5462.14 4682.16 3960.17 3290.24 2665.94 2083.48 1536.03 1021.47 549.066 154.728 10006.7 19920.3 20083.2 17562.9 15106.9 12841.7 10769.9 8898.36 7230.58 5750.75 4456.17 3341.09 2394.85 1609.02 975.431 494.22 146.643 4668.18 14531 14093.4 12517.6 10816.9 9177.36 7650.9 6261.22 5023.95 3927.1 2970.28 2156.04 1474.25 928.706 516.019 235.838 75.0688 6291.21 11569.2 10488.7 9110.88 7650.2 6322.81 5154.18 4120.47 3221.87 2441.63 1775.38 1219.37 777.265 445.872 215.514 78.5633 11.1981 3775.88 14028.9 14716.5 12721.4 10746.1 9043.69 7568.93 6257.53 5102.12 4077.04 3185.86 2401.93 1736.1 1177.4 715.066 332.747 79.7828 3590.34 9491.2 10665.7 8930 7605.14 6600.38 5736.03 4958.39 4250.88 3592.93 2986.04 2421.87 1891.77 1390.22 921.845 485.686 129.511 9064.48 17660.2 18865 16209.1 13735.7 11605.9 9727.36 8039.44 6535.38 5203.83 4039.45 3028.84 2172.49 1460.16 883.284 447.003 128.133 4318.05 12821.1 13545.2 11889.5 10132.5 8543.42 7109.42 5822.53 4666.71 3652.33 2759.77 2001.84 1364.81 860.605 478.335 224.164 72.4463 7293.71 12306 11147.1 9785.83 8314.17 6919.22 5660.31 4538.94 3554.53 2703.02 1971.79 1366.85 877.436 506.448 246.997 94.5358 14.1876 4382.44 15143.4 15976.5 14106.4 12078 10217 8557.38 7063.86 5737.28 4571.35 3552.3 2672.66 1920.32 1295.92 783.72 367.377 82.9484 3021.26 8565.63 10189.4 8844.1 7704.46 6763.72 5913.31 5130.77 4406.01 3737.23 3114.74 2534.41 1983.97 1463.61 971.963 513.575 132.34 8592.89 15707.9 16872.1 14711.7 12590.9 10705.6 9011.17 7489.64 6121.04 4910.25 3844.59 2918.66 2124.51 1448.85 887.617 459.298 134.406 4066.36 11903.5 12504.3 11069.3 9448.85 7969.22 6633.85 5434.38 4358 3410.73 2583.41 1876.94 1288.92 815.711 456.823 217.565 75.0865 2201.03 4448.32 3872.25 3470.37 2994.39 2512.9 2065.92 1665.45 1309.63 1000.95 735.72 514.558 333.63 196.78 97.6146 36.4553 7.86848 2142.53 9194.13 9303.39 8409.41 7313.1 6226.85 5214.22 4292.17 3467.23 2741.16 2106.71 1565.87 1113.03 739.071 444.381 219.632 64.8692 902.938 3792.35 5019.56 4603.98 4163.33 3726.75 3291.16 2867.05 2466.72 2094.52 1750.43 1429.38 1129.89 844.772 577.885 326.984 105.102 2598.4 5820.86 6742.5 6182.19 5488.14 4784.19 4108.05 3482.2 2911.92 2397.61 1937.01 1527.71 1162.69 837.988 548.87 301.539 103.054 2049.01 7371.29 7523.55 6769.96 5879.66 5007.68 4193.15 3446.72 2781.75 2189.61 1676.4 1235.28 867.177 567.375 330.691 160.172 60.5099 827.13 1415 4214.99 1393.87 1033.57 2912.8 2807.36 5152.41 2916.64 1424.31 1992.39 749.937 828.726 2057.59 1199.75 2645.17 1963.55 3249.56 1876.78 1632.59 4020.72 1111.99 1006.58 2526.04 3142.97 4410.4 2695.03 1622.73 3168.1 2161.82 1462.33 2614.45 1609.18 1567.75 3682.53 1076.07 1053.21 2394.7 2752.66 3836.3 2399.32 1454.33 2817.76 1898.88 1373.86 2379.12 1506.31 1456.78 3265.78 995.057 1024.2 2200.04 2335.82 3272.13 2043.37 1265.46 2438.54 1631.7 1234.45 2096.99 1351.07 1310.38 2812.37 877.506 943.457 1955.68 1958.01 2747.01 1707.62 1072.33 2103.3 1373.83 1064.06 1795.85 1169.32 1148.1 2373.15 748.84 836.497 1692.82 1627.19 2273.23 1409.52 892.518 1799.58 1132 894.055 1501.73 988.934 989.293 1959.58 624.503 730.529 1443.7 1327.71 1848.16 1140.94 727.398 1518.14 915.572 732.698 1231.4 818.439 839.075 1587.08 509.859 625.377 1205.35 1065.83 1466.62 903.843 578.526 1271.23 718.039 585.769 983.336 663.816 700.088 1252.68 408.515 529.244 995.104 828.89 1134.36 694.568 446.599 1038.35 548.498 456.595 768.448 529.389 576.043 961.484 316.8 439.632 799.79 631.709 849.122 519.108 332.832 838.659 400.871 340.193 578.604 409.195 464.696 714.906 241.049 358.751 627.845 458.085 604.887 362.489 235.446 659.879 278.651 245.033 420.213 306.757 362.603 502.747 172.017 283.711 472.234 314.291 406.651 238.586 155.549 503.912 180.483 162.372 285.479 217.239 272.788 334.79 117.798 214.712 336.083 203.859 252.195 141.466 93.8845 369.725 105.732 99.4399 181.431 145.972 190.686 206.646 75.5204 150.098 214.971 118.787 135.998 71.1108 49.1339 253.632 53.1766 54.3813 100.355 86.3599 115.422 108.993 40.7501 92.0082 108.172 59.7213 58.4123 29.5978 22.2687 149.102 22.7667 23.8377 44.5918 37.2827 45.0407 45.476 14.6453 34.6219 26.3192 26.0111 14.6839 12.8518 10.0766 58.1334 4.23561 9.26426 9.26426 5.02865 242.537 1090.73 1198.91 374.718 1035.93 2377.49 882.793 2080.31 1043.76 236.326 1572.9 470.201 1238.22 924.187 1744.69 1933.22 578.884 1348.47 2494.65 1477.68 2020.36 2672.49 1205.64 951.633 1648.44 1915.12 645.503 1319.33 2366.69 1282.63 1807.28 2321.42 1206.38 952.99 1496.99 1812.36 632.645 1206.53 2156.39 1127.97 1631.44 2037.2 1150.62 900.311 1337.1 1668.54 587.744 1075.78 1919.61 1011.71 1470.12 1805.06 1058.37 822.214 1179.41 1501.61 530.415 945.435 1685.76 902.33 1309.98 1591.36 950.777 737.6 1033.18 1335.52 472.036 823.694 1463.88 798.963 1155.43 1395.27 843.788 654.133 896.763 1174.24 415.842 711.278 1258.09 701.921 1008.49 1213.86 736.225 573.431 770.18 1018.84 361.856 608.172 1067.77 607.693 864.673 1043.81 635.026 494.405 651.196 870.508 309.557 510.574 890.329 517.737 730.83 883.861 537.09 418.979 540.04 728.693 258.935 421.865 723.531 433.746 600.091 733.125 442.189 344.532 433.767 590.58 210.247 336.542 567.542 350.165 475.974 589.507 352.626 273.18 332.796 459.177 162.696 257.438 420.37 271.44 354.803 453.013 263.827 202.613 236.73 328.11 116.484 181.731 281.506 194.072 238.667 321.419 178.785 135.167 147.331 205.689 72.4202 112.87 154.786 119.491 126.063 197.96 97.3283 67.9061 60.7514 81.4092 27.581 44.3096 42.086 43.7794 31.4537 81.1879 25.0052 13.3314 1233.65 3280.5 3070.8 1249.54 2876.56 5408.59 1881.01 3512.51 2710.69 973.073 4118.18 1410.26 2379.23 2087.93 3679.86 3853.77 1315.25 2793.35 5069.72 2544.44 3532.55 5408.58 2365.2 2028.08 3318.09 3541.96 1249.53 2570.99 4540.98 2230 3083.44 4748.82 2144.02 1835.4 2910.03 3136.3 1122.11 2271.12 3951.95 1923 2678.88 4077.41 1889.27 1604.67 2497.33 2729.99 977.821 1952.99 3370.69 1663.34 2309.82 3482.25 1638.23 1380.13 2109.72 2347.19 839.788 1648.33 2829.3 1425.73 1972.37 2936.77 1403.84 1168.37 1752.57 1994.79 710.383 1364.16 2335.74 1211.47 1668.82 2444.93 1190.34 980.903 1437.08 1678.24 596.924 1116.37 1898.16 1017.82 1394.21 2002.78 997.938 810.122 1152.04 1391.68 492.43 891.016 1508.99 842.778 1149.33 1608.91 825.183 660.155 905.775 1135.92 400.26 697.904 1170.16 688.475 929.216 1264.07 668.953 524.705 690.164 907.347 318.349 528.249 880.232 548.219 731.57 964.14 530.929 409.155 507.644 702.83 245.597 386.323 631.826 423.269 556.929 707.164 405.201 303.56 351.816 518.819 180.296 265.335 426.127 311.846 398.445 492.038 294.261 214.792 227.387 356.843 123.207 169.862 260.226 212.481 257.451 315.629 191.792 132.809 122.787 210.288 71.5798 89.4282 132.554 123.021 134.174 172.488 104.33 66.0714 49.0343 84.3911 27.666 34.0409 39.438 48.563 40.3827 66.8228 30.06 15.555 2807.26 2807.26 7160.86 2737.17 1659.84 4124.7 4345.75 6787.82 1147.42 2376.84 3618.47 3520.76 4690.65 3780.23 2702.9 7017.69 2362.13 1315.37 3619.35 4651.45 6569.03 3904.99 4348.77 3515.39 2468.63 6334.67 2173.98 1211.41 3277.64 4121.85 5733.74 3506.18 3871.74 3135.32 2172.74 5541.02 1916.11 1069.08 2862.23 3546.68 4915.56 3039.08 3352.47 2707.66 1860.62 4736.81 1640.68 914.509 2437.15 3010.69 4152.67 2587.54 2844.3 2288.5 1562.32 3974.39 1375.68 765.855 2032.06 2519.15 3448.65 2170.19 2365.86 1895.35 1285.52 3272.1 1130.59 629.144 1662.47 2073.65 2812.96 1785.8 1930.86 1540.23 1038.79 2647.28 914.012 506.908 1334.73 1671.93 2248.56 1440.66 1546.33 1225.79 818.685 2088.47 719.67 397.97 1042.93 1317.85 1748.67 1135.5 1205.11 947.21 625.511 1602.94 550.789 302.247 789.172 1006.13 1313.77 867.347 909.761 706.642 458.1 1182.44 404.866 219.717 573.233 738.352 949.025 633.788 661.456 503.633 318.484 832.784 282.739 150.117 390.595 514.711 642.246 441.405 451.538 335.266 202.644 542.544 183.475 94.7878 246.644 333.297 400.773 281.29 285.521 204.243 115.556 320.105 107.029 52.3874 136.565 192.175 220.14 159.314 159.721 104.727 50.0859 151.71 48.6673 20.5492 60.3063 90.496 104.385 71.1469 75.5799 46.8511 18.733 57.9463 17.2519 7.09397 17.2519 34.406 30.6926 27.1243 21.9299 10.1579 1319.44 4259.62 3277.26 3116.57 5580.24 3216.43 1567.53 2040.62 846.151 835.951 2287.77 1332.81 2809.46 3611.35 2350.18 5095.1 3408.74 3515.05 5068.18 2939.52 1910.2 3837.1 2565.68 3291.14 2042.07 4518.54 2934.37 3135.43 4414.68 2659.96 1708.86 3372.19 2221.87 2861.64 1701.92 3803.34 2488.6 2654.96 3714.37 2274.81 1449.74 2821.54 1860.99 2412.54 1437.35 3165.68 2106.19 2203.58 3078.28 1890.57 1204.73 2369.39 1537.55 2005.74 1212.35 2612.62 1773.58 1813.67 2525.15 1553.12 988.816 1983.99 1253.45 1649.86 1016.54 2126.1 1472.14 1471.66 2033.17 1250.94 797.529 1652.24 1001.67 1330.02 842.796 1697.17 1209.8 1170.18 1605.1 987.855 630.427 1352.77 782.776 1052.57 685.777 1322.08 970.863 908.461 1232.15 758.792 483.98 1093.38 590.875 808.396 551.591 1001.28 767.083 681.535 911.178 560.138 357.643 866.308 429.017 600.933 430.131 720.648 583.056 489.962 642.565 394.732 248.778 666.244 291.195 422.134 327.546 493.528 425.491 330.722 423.977 254.549 162.797 497.012 185.564 279.642 239.186 314.612 294.242 210.089 255.874 151.129 94.6304 354.587 103.241 167.865 162.563 179.348 181.541 117.995 131.149 76.3066 46.0099 233.971 48.7834 86.6392 96.5395 90.0916 86.2252 56.7378 50.7892 30.1799 18.8847 135.687 15.9362 32.8028 37.2045 34.8357 22.2068 18.1579 9.03831 8.79463 6.11773 48.5377 2.40349 7.01081 997.734 1424.26 2365.56 1086.93 2285.43 938.539 342.983 1524.63 560.659 1440.88 1875.04 2617.85 2614.73 1778.32 2423.52 2747.19 1552.87 1526.89 2163.05 2200.05 1463.04 2045.16 2236.49 1333.31 1284.34 1813.96 1884.24 1214.13 1743.37 1869.63 1150.47 1119.83 1578.41 1644.05 1047.6 1515.96 1624.15 1009.34 984.05 1382.28 1433.78 912.543 1319.2 1425.26 882.333 864.029 1209.22 1243.94 795.403 1142.07 1251.23 765.265 753.332 1048.38 1069.89 685.571 982.782 1088.64 662.012 650.419 900.519 908.136 586.421 829.484 940.616 560.124 551.836 759.056 757.388 493.752 694.148 795.974 469.044 460.342 631.705 616.174 409.445 563.504 664.926 381.26 370.67 509.354 482.961 328.034 442.977 534.97 300.936 285.801 391.14 356.985 251.383 326.104 410.894 222.754 203.037 279.463 237.953 176.106 217.465 291.314 150.097 124.882 171.354 128.016 106.933 109.683 179.618 78.6959 50.1449 63.7284 32.9358 37.2535 26.6863 69.8889 18.8205 2528.69 2407.75 4653.05 1622.74 3094.28 2367.72 806.639 3600.98 1229.36 2118.25 3608.21 3718.77 4911.56 2342.02 3252.23 5030.59 2217.01 3134.6 3214.42 4209.84 2017.66 2752.48 4407.92 1891 2656.37 2740.42 3572.77 1703.03 2343.74 3727.85 1621.79 2253.79 2355.51 3022.26 1456.78 2011.41 3153.99 1396.82 1895.91 2018.99 2529.16 1248.68 1722.82 2653.44 1195.01 1575.11 1715.93 2087.83 1064.55 1461.32 2211.07 1015.05 1288.55 1447.55 1694.87 898.507 1230.4 1808.59 854.053 1032.71 1201.72 1346.33 749.111 1017.34 1457.81 706.956 810.704 983.912 1042.35 614.966 828.784 1145.94 575.653 616.31 785.217 777.551 492.814 654.996 877.453 456.029 450.49 609.196 557.74 382.61 501.741 643.154 349.277 313.475 450.461 373.796 283.053 360.072 449.612 252.444 198.693 307.84 225.961 193.828 233.33 286.558 163.984 108.019 179.882 112.724 112.519 121.763 157.808 86.2085 40.3176 70.2567 31.5598 43.8437 36.2527 60.3205 25.1916 2291.34 5885.71 3465.15 3943.36 6016.97 1049.71 2159.15 3338.98 3268.34 4119.87 2687.34 6880.96 3569.5 4361.07 6242.37 3733.35 4237.22 2390.25 6072.32 3143.81 3893.23 5409.21 3336.49 3667.79 2055.34 5189.72 2688.31 3316.58 4583.32 2860.87 3120.1 1744.99 4398.65 2270.36 2800.23 3848.96 2424.1 2627.73 1461.74 3678.94 1890.71 2336.75 3193.09 2025.62 2181.88 1203.57 3031.5 1548.47 1923.43 2607.58 1666.49 1783.5 971.192 2448.87 1241.17 1549.72 2079.89 1345.64 1427.17 766.898 1935.42 971.275 1221.36 1620.32 1060.74 1113.92 585.443 1483.52 733.561 933.66 1216.57 809.637 838.309 428.888 1092.72 532.199 686.611 877.183 592.46 606.574 298.137 765.146 360.172 476.641 592.879 411.757 411.967 189.512 498.934 226.848 309.225 372.12 261.637 260.225 107.245 292.406 124.767 178.813 204.543 149.025 145.256 48.5684 142.125 57.0035 86.2937 98.259 68.9013 69.359 19.6764 55.0043 17.1226 33.7838 27.7355 27.5882 18.9861 1491.18 4723.67 3646.75 3441.68 6049.1 3471.76 1741.97 2246.64 927.449 927.996 2592.35 1620.91 3049.4 3963.01 2630.86 5543.27 3825.7 3781.92 5446.4 3150.22 2050.48 4164.59 2760.51 3595.56 2341.2 4983.45 3336.21 3376 4780.25 2835.92 1847.47 3730.79 2421.39 3166.21 1960 4229.05 2830.01 2892.33 4063.1 2441.67 1580.86 3178.99 2045.26 2678.18 1640.87 3514.4 2378.06 2421.79 3392.06 2048.42 1318.69 2685.18 1691.4 2222.92 1372.07 2894.68 1984.87 2002.38 2787.25 1686.35 1081.49 2258.69 1378.09 1822.73 1139.6 2347.61 1636.6 1626.33 2249.01 1364.14 870.973 1875.58 1099.44 1466.05 932.689 1867.85 1328.79 1296.37 1774.44 1077.06 686.708 1533.09 857.982 1155.06 753.23 1451.24 1059.16 1006.89 1364.62 830.406 527.919 1233.28 649.351 886.189 595.829 1091.97 824.192 758.334 1010.09 614.894 389.931 971.111 469.465 654.543 458.546 786.22 620.768 545.43 715.99 433.468 273.228 743.72 322.261 461.357 341.921 533.448 445.006 372.767 474.348 284.936 178.518 550.827 202.159 300.334 245.27 337.152 302.711 233.595 286.768 168.872 104.045 388.642 113.691 181.475 162.467 191.501 182.565 131.501 149.418 83.3558 51.7715 256.323 54.1845 92.1406 93.8404 90.4238 84.4354 63.1289 60.3243 33.0525 20.6255 144.639 18.9794 35.0116 34.7225 32.4472 18.2608 23.1885 11.4767 12.0278 6.50915 53.2109 2.15981 5.08039 910.793 1596.92 2225.47 1154.13 2374.7 836.348 361.813 1281.01 506.965 1572.36 1777.71 2883.64 2559.15 1871.91 2618.78 2501.8 1755.89 1444.9 2402.48 2144.84 1600.1 2292.19 2134.08 1508.18 1206.72 2000.2 1823.28 1372.82 1995.05 1855.59 1288.22 1051.9 1721.59 1585.31 1200.5 1742.92 1648.21 1112.4 926.669 1489.83 1379.71 1047.8 1511.52 1464.71 958.052 817.2 1286.2 1199.2 906.795 1300.77 1291.38 821.051 714.64 1099.98 1031.48 775.104 1104.27 1128.52 696.921 621.054 934.458 879.099 655.868 926.081 976.589 584.821 528.541 780.649 733.271 546.84 765.5 830.734 483.816 443.029 641.296 600.201 447.833 616.848 693.419 389.751 359.232 510.069 469.783 356.119 478.012 561.954 301.536 277.365 389.618 347.696 270.704 350.735 432.274 221.684 195.866 272.695 229.434 190.218 232.278 308.749 147.096 122.394 168.404 122.681 115.693 118.866 191.089 74.6912 46.6314 60.0462 29.5299 41.6997 27.7128 75.097 17.4096 2299.26 2091.14 4204.92 1381.29 2615.54 2195.15 713.825 3257.57 1107.06 1845.91 3264.61 3315.58 4495.97 1988.93 2799.23 4460.98 1996.93 2866.4 2880.29 3857.6 1755.89 2441.21 3950.24 1697.02 2422.23 2448.3 3258.01 1530.35 2129.38 3385.96 1447.51 2050.66 2107.9 2747.95 1337.89 1857.27 2891 1248.27 1724.63 1816.22 2304.21 1164.09 1610.23 2445.15 1075.36 1439.76 1557.8 1907.34 1004.1 1384.86 2044.57 920.551 1178.63 1321.15 1550.13 858.124 1176.79 1687.52 779.802 950.634 1109.56 1235.85 724.196 990.064 1366.03 652.459 747.38 914.694 961.517 602.455 815.078 1084.53 535.562 572.839 738.527 723.29 489.977 656.467 837.878 428.981 420.475 577.267 520.803 387.418 508.966 625.552 331.713 295.041 430.863 351.021 290.529 371.629 443.055 240.59 188.05 296.24 213.094 201.779 243.411 288.958 157.692 103.69 175.112 108.542 119.343 130.162 160.084 84.7 40.5783 68.3695 30.1408 48.5172 37.5741 66.6907 23.2921 2158.9 5467.39 3202.03 3675.89 5584.85 979.069 2015.22 3116.6 3087.29 3764.86 2466.53 6311.91 3327.77 4017.24 5713.19 3463.35 3938.15 2259.59 5670.63 2956.32 3581.46 4987.14 3125.8 3426.99 1938.25 4838.83 2518.69 3071.84 4250.29 2679.87 2903.66 1640.48 4091.39 2119.15 2603.7 3578.91 2271.16 2437.1 1370.47 3418.21 1763.99 2176.49 2973.44 1896.42 2024.57 1129.05 2821.93 1445.39 1792.37 2427.3 1561.68 1656.36 912.032 2279.22 1157.11 1447.84 1941.56 1259.34 1322.28 718.629 1801.51 907.276 1141.05 1512.04 991.415 1034.01 550.153 1382.35 683.79 874.237 1141.25 758.368 778.682 402.358 1022.38 497.362 644.597 824.715 554.859 566.575 279.77 718.843 338.025 452.711 565.375 385.517 385.848 178.064 469.856 212.647 296.23 356.156 246.908 244.325 101.643 276.68 117.028 172.769 199.256 140.54 136.795 47.0212 137.436 54.451 84.3322 97.8863 65.2276 65.895 19.9427 54.7086 17.442 36.3639 31.3212 26.3233 18.7799 1936.18 5551.74 3880.47 2201.03 3440.89 1341.63 2201.03 2532.71 1283.13 1319.32 1872.77 859.402 3106.69 4150.76 2750.43 5784.84 4083.61 1915.61 2965.8 1007.43 2126.68 2253.99 2864.82 3790.97 2512.43 5236.41 3651.8 1745.57 2678.64 906.455 1929.69 2078.96 2563.92 3368.77 2172.61 4528.52 3168.71 1540.69 2322.31 791.731 1677.25 1822.08 2202.66 2895.28 1860.26 3827.25 2701 1317.14 1955.9 672.085 1416.24 1569.96 1840.81 2427.32 1575.23 3179.4 2275.6 1096.66 1613.34 556.998 1170.84 1325.28 1508.92 2002.88 1316.58 2595.87 1882.39 895.081 1305.5 452.576 949.609 1104.28 1212.87 1619.81 1082.58 2075.36 1531.87 715.838 1032.18 359.944 751.791 903.178 949.682 1281.01 874.116 1619.49 1222.92 557.835 793.458 277.443 579.922 724.782 723.502 986.737 692.054 1223.26 951.112 421.023 587.088 207.488 430.027 568.511 528.233 731.245 532.437 887.428 718.761 305.694 415.144 148.633 305.181 431.96 365.925 519.553 400.235 611.123 520.217 209.377 273.174 99.4137 201.303 319.64 234.217 344.941 285.873 390.341 351.71 132.327 163.693 60.4561 120.382 223.668 136.324 209.49 191.699 223.886 215.302 76.3983 83.3429 33.0875 61.4124 145.737 64.5271 108.502 111.819 109.457 104.876 36.2022 31.2977 14.2717 23.595 83.4584 22.1836 42.8532 44.3304 42.5037 22.7884 12.8603 7.86848 5.15764 7.86848 34.2123 2.71084 7.67844 609.001 1834.08 1851.38 823.213 1388.41 633.183 364.132 552.57 269.755 1625.24 1503.65 2855.25 2372.46 906.156 1439.58 1207.52 1855.59 1364.72 2539.76 2144.82 846.389 1350.92 1108.24 1677.59 1241.39 2259.18 1926.68 782.633 1214.62 1022.03 1486.71 1132.17 2005.9 1720.15 704.519 1074.32 932.284 1308.38 1020.28 1761.71 1521.87 622.136 930.543 838.743 1136.84 908.501 1526.57 1331.18 539.446 793.122 742.748 974.2 799.372 1302.68 1152.65 460.711 667.087 646.986 823.169 696.628 1100.95 981.971 387.803 553.164 559.384 686.151 594.614 914.29 825.592 322.473 451.491 473.345 563.325 499.894 746.911 674.688 262.388 358.798 395.898 450.969 406.367 592.178 532.66 208.182 278.241 318.989 348.721 314.79 450.138 393.61 158.478 202.993 248.169 253.663 224.672 317.798 264.768 111.381 137.037 176.079 170.1 140.78 195.414 139.912 67.7819 75.9631 111.109 89.3661 56.3876 77.9785 34.7194 28.7579 22.3654 48.0177 19.957 2154.16 1677.95 3570.96 538.805 750.758 2248.03 669.156 1499.14 350.367 1435.77 2773.32 2684.44 3893.05 734.905 1056.07 1793.38 1663.26 2512.53 2509.67 3458.29 754.164 1042.19 1681.71 1519.18 2203.96 2273 3001.31 715.274 971.866 1514.96 1366.65 1904.98 2030.54 2573.66 652.588 882.114 1328.41 1214.54 1621.99 1787.29 2176.94 581.679 786.704 1144.41 1068.19 1361.58 1557.38 1817.01 511.906 693.492 971.691 928.223 1129.18 1339.42 1492.3 444.899 604.661 814.961 798.522 918.757 1141.74 1204.11 383.469 520.219 673.277 678.414 734.297 955.456 950.767 323.936 440.24 546 565.67 572.201 785.234 729.87 270.017 363.484 434.357 460.007 432.31 623.938 538.815 216.133 289.543 334.328 361.763 310.39 474.221 372.874 166.62 218.555 246.559 267.402 205.616 332.902 232.037 117.841 148.977 167.856 178.661 115.74 201.502 119.609 71.7315 83.5525 98.378 95.8921 47.3978 80.9398 34.7148 29.0568 27.1239 41.2148 26.599 2051.14 5290.68 2972.74 1929.24 2349.54 949.756 2049.01 2049.01 1099.26 3390.91 2303.82 5629.9 3066.59 1692.13 2376.35 2080.61 3527.6 2082.39 5115.88 2718.76 1571.01 2157.55 1893.65 3116.56 1801.22 4462.63 2338.86 1396.31 1886.72 1654.07 2682.14 1535.11 3817.57 1981.41 1202.25 1609.24 1417.03 2270.32 1287.94 3209.4 1653.96 1012.09 1349.08 1190.11 1893.13 1062.32 2651.57 1353.11 836.193 1109.86 983.755 1548.21 856.592 2152.87 1087.37 680.486 899.23 795.148 1244.67 675.857 1706.6 850.849 539.325 709.875 628.884 974.427 517.034 1318.3 646.196 416.969 547.193 483.007 742.393 380.336 983.461 469.04 313.103 408.148 358.095 541.845 263.405 701.028 323.166 225.486 292.189 251.822 378.286 170.588 469.19 205.315 152.48 195.911 166.149 244.307 97.0919 283.147 114.915 93.576 117.591 98.1854 140.023 45.616 142.154 53.8057 46.7525 58.8221 47.544 67.8033 20.3166 60.5099 20.3779 18.1754 22.1138 18.0181 22.0179 
CELL_DATA 1536
SCALARS stress float 1
LOOKUP_TABLE default
513.215 909.499 313.915 514.811 1082.89 880.657 452.33 820.06 543.791 742.217 802.668 659.657 440.754 715.791 508.77 643.359 738.539 635.319 415.866 610.206 455.126 550.133 655.258 579.19 374.009 511.767 397.866 464.672 560.561 503.497 323.513 423.79 342.308 389.483 468.728 425.328 275.211 343.992 288.395 319.281 383.406 349.292 229.244 273.372 239.904 258.794 305.153 280.615 187.732 210.787 195.468 202.099 235.812 220.783 150.882 158.556 157.724 154.129 174.275 165.918 119.6 111.862 123.678 114.734 123.583 121.449 90.6579 74.5366 94.6494 80.5313 81.0128 81.359 66.2503 45.992 69.6292 53.4784 47.8925 51.5475 45.2285 25.0445 49.1962 32.7953 24.0894 30.2919 26.5756 12.6054 29.4924 16.4818 9.66325 14.1744 9.61667 5.84096 13.4916 7.26251 4.23561 5.02865 167.063 275.17 75.4733 160.852 312.698 207.654 333.995 327.111 382.538 335.33 309.358 244.89 351.458 299.815 355.286 296.107 318.411 294.045 333.288 276.816 325.657 268.271 308.975 299.357 304.775 252.031 296.179 246.109 286.479 282.969 273.225 226.484 266.02 222.899 255.794 257.19 242.542 199.864 237.868 199.925 225.823 229.494 213.938 175.698 210.7 177.77 194.23 201.904 187.069 150.163 184.459 155.633 166.724 174.788 160.033 128.212 159.584 133.93 139.225 149.524 134.189 107.013 135.266 113.075 114.406 124.746 108.956 85.5338 110.83 92.2069 91.762 101.291 84.4041 66.7378 87.4854 72.0876 70.1704 78.2917 60.5051 47.3697 63.816 51.5489 48.8915 55.9784 37.573 28.7682 41.6157 32.2991 30.5854 34.8472 14.2496 10.2586 18.8093 13.0864 11.6738 13.3314 774.178 454.682 459.472 513.601 393.508 475.358 769.247 559.686 843.323 667.037 468.473 546.001 726.913 496.439 755.163 595.567 445.261 522.615 651.721 435.194 661.067 515.08 402.849 470.392 564.417 378.552 569.862 446.162 357.597 413.403 481.348 326.396 485.384 381.851 313.77 358.44 402.289 279.712 407.637 323.996 273.058 308.094 334.655 237.054 338.154 271.034 235.071 262.269 271.592 198.386 276.261 224.337 200.266 220.838 217.58 163.717 221.737 182.342 167.862 182.679 169.009 132.249 173.017 145.395 138.337 149.339 128.262 103.731 131.554 111.699 110.25 117.336 91.2765 76.8918 94.9483 82.6678 84.015 89.0193 61.1612 53.2284 64.6118 56.6151 59.1805 62.0455 33.1012 31.3232 37.6623 32.9034 36.8188 38.4785 12.111 13.1874 15.4819 13.5507 14.505 15.555 1659.84 1021.8 1147.42 1229.42 1025.05 1077.33 1315.37 1089.94 1387.53 1200.74 977.343 1046.76 1211.41 954.517 1257.22 1067.45 881.495 962.578 1069.08 824.881 1103.66 924.009 772.363 847.031 914.509 700.649 946.115 786.96 662.402 726.17 765.855 585.825 796.469 659.258 557.164 609.823 629.144 482.214 656.38 542.494 460.428 501.444 506.908 389.663 531.882 437.109 374.613 407.104 397.97 306.463 420.715 343.9 297.725 321.699 302.247 234.676 323.264 262.425 231.781 248.542 219.717 174.047 238.383 191.054 174.09 185.15 150.117 122.389 168.367 133.85 125.439 132.622 94.7878 80.2206 107.856 85.621 85.3707 88.6875 52.3874 47.5547 63.1683 48.2942 54.0593 54.6412 20.5492 23.8142 29.5368 21.4833 28.2088 28.1182 7.09397 9.66947 11.639 7.61393 11.7719 10.1579 414.132 1002.39 270.806 565.145 1038.23 968.915 697.662 918.26 751.228 852.973 991.94 883.035 601.635 817.207 659.639 756.53 891.648 791.877 499.865 692.198 540.096 638.019 757.546 675.614 417.094 573.348 449.284 530.094 631.381 564.477 347.507 469.5 373.212 436.673 519.316 466.411 286.392 378.631 308.629 355.501 418.898 378.048 233.968 299.652 249.952 283.124 330.775 299.696 185.918 230.286 200.384 221.715 253.695 230.086 146.59 169.526 156.961 167.655 188.117 172.434 109.9 119.74 119.222 121.16 129.038 121.589 79.7963 78.1741 87.5252 83.9826 84.6227 79.4268 56.5362 47.0089 61.6603 53.9324 47.6215 47.8525 36.5039 24.3869 41.1589 31.2324 21.623 24.4433 20.998 11.5283 24.9408 15.632 7.35632 9.63607 8.30028 3.71425 10.9448 4.86563 2.40349 4.60733 196.548 345.162 112.801 230.183 289.342 250.222 423.545 435.674 483.346 417.968 465.62 391.698 335.893 367.424 360.192 335.36 413.368 350.817 280.577 307.66 289.385 279.737 354.297 302.305 246.801 266.102 250.432 243.44 304.87 266.766 219.932 230.846 222.01 215.692 260.784 233.016 196.078 200.401 198.685 189.849 221.114 203.096 173.362 171.101 175.518 165.536 187.775 175.091 152.448 144.22 155.388 143.758 155.255 149.449 130.814 120.816 133.592 121.828 127.225 124.781 111.011 99.1004 114.526 102.512 101.908 102.647 89.9084 79.3394 93.9104 82.7948 80.8847 82.5163 70.0231 60.2382 74.0509 63.4844 60.7517 62.592 50.223 42.063 53.5308 45.8792 42.8367 44.9305 30.542 25.121 34.6345 27.6952 25.4797 27.8817 10.9131 8.66024 14.8281 10.5064 9.29916 9.52133 525.796 389.966 370.866 435.773 298.42 386.929 800.049 514.428 810.31 622.593 453.719 517.667 687.508 443.594 703.645 541.978 387.207 450.483 579.707 379.897 596.466 456.846 334.477 393.024 495.376 328.429 506.274 388.017 294.163 343.255 419.658 283.819 428.908 330.494 258.289 297.827 351.515 243.826 358.865 280.03 225.439 256.25 290.702 208.514 298.065 235.298 195.938 219.033 234.763 174.987 243.954 195.128 167.596 185.291 188.534 145.495 194.513 159.555 141.934 153.881 145.916 117.939 152.445 127.393 116.866 124.658 109.115 92.7462 115.512 98.9933 94.105 98.7255 77.9965 69.4926 83.5588 72.8881 72.2348 74.29 50.7374 48.5811 55.8958 50.0231 50.7024 51.8998 27.6544 28.6648 32.584 28.798 31.0408 31.1395 9.13453 11.9023 12.2072 11.8209 12.5013 12.6903 1241.64 887.412 1049.71 1109.44 744.62 852.892 1316.72 1033.66 1370.62 1151.73 964.188 1044.04 1181.51 905.763 1208.74 1020.25 837.687 918.376 1011.41 769.899 1043.93 867.797 710.304 786.375 854.461 650.565 890.524 732.895 601.58 668.624 714.462 542.892 747.275 610.254 504.456 559.601 586.925 447.178 616.645 501.18 417.555 462.014 471.666 360.041 499.527 404.401 339.741 373.49 370.881 283.52 396.017 317.918 270.473 296.609 281.658 218.238 303.785 243.054 209.419 227.366 204.35 161.085 224.537 176.987 156.864 168.9 139.188 112.74 158.949 121.861 113.124 119.284 87.8124 75.3577 101.7 77.859 76.5622 79.6429 47.8517 44.4237 59.393 44.6273 47.6365 48.4739 20.1268 22.3988 28.4416 20.7042 25.3815 25.0717 7.87139 9.24092 11.805 7.10083 9.73497 9.25118 467.974 1113.67 299.692 628.304 1132.98 1081.06 779.81 993.223 825.77 923.202 1057.26 964.004 686.461 879.944 750.987 823.305 967.528 875.228 573.487 749.501 619.086 704.363 831.361 751.252 474.817 626.79 508.467 587.105 691.897 625.322 392.323 513.04 419.237 486.465 568.45 515.169 322.202 413.991 343.462 395.645 456.982 415.328 259.423 326.489 277.767 315.971 360.22 327.983 204.284 251.589 220.686 246.174 276.33 252.176 157.049 186.624 171.285 186.397 203.307 187.306 116.355 130.942 128.714 135.216 142.285 132.707 83.5639 87.1438 93.5334 92.8315 91.3743 85.0009 57.3858 51.687 64.8607 59.0979 52.3583 51.7622 36.1711 26.0564 42.0776 35.2766 25.7151 26.2046 19.9529 11.5985 23.3499 16.8709 9.02708 9.62446 6.65747 4.34934 10.757 5.60303 2.15981 2.92057 209.508 386.912 120.968 240.845 336.602 302.081 444.62 487.918 486.26 447.42 537.358 480.061 341.475 420.394 365.329 373.146 483.361 418.778 276.613 355.271 289.24 316.804 412.153 350.123 239.22 307.338 248.63 277.313 350.252 298.836 210.568 265.008 219.887 243.426 295.503 255.436 187.123 226.46 195.164 211.949 247.477 218.029 164.72 190.548 172.27 183.275 204.952 184.214 144.408 159.52 151.526 156.229 168.741 154.034 123.315 131.46 130.833 131.213 136.035 127.794 104.732 106.171 111.07 108.917 107.305 103.101 84.7815 83.3407 91.8183 87.527 81.4834 81.1179 66.3513 62.9615 71.799 67.1357 60.0616 61.3091 45.8092 43.2271 52.1163 48.1967 40.9916 42.3543 28.5866 26.028 33.9295 29.8203 24.5096 25.5302 9.35994 8.62528 13.6853 10.9661 8.68272 8.72688 465.055 330.087 328.532 385.293 250.229 331.944 727.17 437.839 724.187 539.553 408.996 477.831 626.201 388.113 638.075 472.031 349.982 405.892 522.072 341.086 536.872 404.278 299.778 344.217 441.502 300.252 455.632 347.886 263.802 298.829 373.848 263.561 385.642 300 232.652 260.514 314.472 229.39 325.695 256.496 205.522 226.223 260.032 197.958 270.507 218.299 179.692 194.663 213.385 168.656 222.774 182.673 156.464 165.611 170.577 141.988 179.012 151.372 132.405 139.339 133.099 116.393 141.524 122.293 110.834 114.383 99.5522 93.214 107.262 96.5017 89.4184 91.3185 71.8269 70.5462 78.8564 72.1195 68.669 68.8454 46.3898 49.2611 53.0861 49.9894 48.6794 48.8343 25.6132 29.2838 30.8009 29.3774 30.5942 29.4429 8.27146 12.143 12.5216 12.1413 11.4431 11.849 1179.83 830.469 979.069 1036.15 675.202 766.675 1211 941.068 1255.53 1067.46 872.184 964.673 1107.5 831.509 1152.09 949.202 770.615 859.716 949.141 710.465 989.107 807.556 652.822 729.743 800.682 601.974 839.802 681.291 551.55 616.087 668.092 503.348 702.381 567.082 461.793 515.509 548.661 415.48 580.387 466.88 384.11 426.412 441.717 336.5 470.315 375.527 311.596 343.562 346.803 265.773 371.826 295.292 248.703 273.118 262.798 204.304 287.355 224.838 193.488 209.57 190.936 152.387 211.422 164.202 145.829 157.603 130.948 108.395 148.822 114.321 105.265 111.092 82.0781 72.3065 95.9856 73.5048 72.0508 73.9298 45.0043 43.5069 56.6388 41.7051 45.0675 44.7577 19.7555 22.2972 27.2657 19.704 24.9785 23.4352 8.6824 9.76491 11.2603 6.221 10.0203 8.75963 532.693 1341.63 459.915 859.402 1191.08 1167.01 827.745 1007.43 884.493 908.173 1119.25 1037.75 740.008 906.455 794.858 839.112 1023.23 932.741 631.826 791.731 663.844 748.954 885.521 806.644 530.422 672.085 558.062 645.055 744.152 677.475 443.398 556.998 466.031 539.661 613.841 559.472 363.579 452.576 387.068 442.504 497.032 453.114 295.188 359.944 313.765 355.894 391.847 358.725 232.788 277.443 250.047 280.392 302.479 276.338 179.581 207.488 194.384 213.536 222.539 205.732 133.294 148.633 145.914 157.061 156.548 145.977 96.8891 99.4137 107.065 109.963 101.89 95.9024 65.5515 60.4561 75.2781 71.8712 59.926 57.2586 41.1931 33.0875 48.9948 43.3108 28.3249 28.9745 22.5288 14.2717 29.2718 21.9305 9.32329 12.1308 8.26855 5.15764 13.6964 7.7027 2.71084 4.96759 171.743 553.458 94.3773 269.755 390.114 354.632 413.485 461.32 435.654 444.836 576.868 523.087 343.028 444.994 354.244 401.395 532.571 463.529 299.961 409.279 308.141 373.354 467.661 400.781 268.934 366.841 280.595 337.678 404.934 346.913 241 319.591 253.989 302.545 346.211 298.371 213.177 274.705 227.514 264.741 291.225 255.208 187.775 233.519 200.575 227.192 240.108 213.506 162.942 194.343 176.094 193.46 196.938 177.178 139.278 160.591 150.152 161.883 157.498 144.889 116.664 128.985 127.535 133.403 124.243 116.081 94.6887 102.612 105.075 105.57 93.6698 90.5627 72.9603 76.5185 82.529 81.9592 68.5245 67.6463 52.326 53.431 59.5426 57.95 48.0805 46.4681 31.7457 32.2561 40.0254 35.5258 27.7623 28.099 11.7036 12.8132 17.5601 15.9447 9.55222 10.4048 402.98 188.438 318.789 350.367 154.443 262.928 622.222 327.028 610.518 407.877 327.481 389.315 546.136 352.606 544.911 401.558 314.846 349.614 469.238 340.538 479.988 374.737 292.751 315.748 405.306 314.011 419.571 338.577 268.633 284.446 346.781 282.209 361.991 299.471 243.083 253.751 293.832 250.494 309.942 261.412 217.317 224.381 246.426 219.218 260.844 225.681 191.804 195.442 203.393 189.83 217.637 193.639 167.763 169.474 165.547 161.31 178.551 162.626 143.874 143.548 131.652 134.96 143.191 135.057 120.735 119.64 101.256 108.344 111.843 107.789 98.2598 96.4461 73.6507 83.6808 84.1177 82.9392 75.6196 74.2131 49.8965 58.5865 58.315 59.2546 54.2172 52.6319 27.8235 35.5579 35.6379 36.1736 33.4507 32.8586 10.245 14.5129 15.039 14.5439 12.611 13.988 1101.38 829.987 949.756 1099.26 602.4 707.893 1140.36 774.982 1163.46 917.149 765.598 868.351 1024.51 735.237 1057.88 835.771 686.248 776.24 883.211 660.24 918.006 736.068 594.495 670.609 750.063 570.267 785.044 631.987 509.835 570.37 626.957 482.951 660.979 529.135 430.27 479.107 514.417 400.336 547.899 435.857 357.471 395.595 413.495 328.436 443.098 352.05 293.471 322.318 324.296 262.001 351.561 277.323 235.726 255.693 246.174 204.822 270.86 212.147 185.377 198.921 179.235 156.109 201.101 156.994 141.249 148.773 122.374 114.695 141.032 110.791 104.515 107.621 77.4172 79.5017 93.171 72.9782 73.1196 73.002 42.1957 50.2868 54.8962 43.2892 47.1179 45.3615 18.2579 26.5665 27.3581 20.1859 25.7121 24.0731 8.84194 11.6319 11.4747 6.54349 10.4819 11.536 
SCALARS volume float 1
LOOKUP_TABLE default
0.0650254 0.064968 0.0649447 0.0648478 0.0649599 0.0650219 0.0650562 0.0650094 0.0650416 0.0650044 0.0650073 0.0650471 0.0650562 0.0650236 0.0650535 0.0650323 0.0650249 0.0650486 0.0650591 0.0650348 0.0650582 0.0650448 0.0650381 0.0650534 0.0650651 0.0650457 0.0650648 0.0650546 0.0650496 0.0650598 0.0650712 0.0650556 0.0650719 0.0650632 0.0650597 0.0650673 0.0650774 0.0650649 0.0650783 0.0650711 0.0650688 0.065074 0.0650827 0.065073 0.0650842 0.065078 0.0650766 0.0650805 0.0650877 0.0650802 0.0650891 0.0650843 0.0650835 0.0650856 0.0650916 0.0650866 0.0650935 0.0650894 0.0650893 0.0650909 0.0650953 0.065092 0.065097 0.065094 0.0650942 0.0650946 0.065098 0.065096 0.0650999 0.0650974 0.065098 0.0650981 0.0651005 0.0650996 0.0651021 0.0651004 0.0651012 0.0651004 0.0651019 0.0651022 0.0651037 0.0651024 0.0651032 0.0651025 0.0651032 0.0651037 0.0651045 0.0651036 0.0651041 0.0651036 0.0651039 0.0651043 0.0651048 0.0651041 0.0651038 0.0651047 0.0651278 0.0650716 0.0651399 0.0650652 0.0650308 0.0651007 0.0651139 0.065083 0.065111 0.0650746 0.0650695 0.065101 0.065106 0.0650796 0.0651079 0.0650857 0.0650771 0.0650965 0.0651028 0.0650793 0.0651047 0.0650916 0.0650824 0.0650952 0.0651021 0.0650812 0.0651042 0.065095 0.0650867 0.0650957 0.0651022 0.0650849 0.0651039 0.0650974 0.065091 0.0650972 0.0651027 0.0650882 0.065105 0.0650995 0.0650942 0.0650984 0.0651029 0.0650919 0.065105 0.0651009 0.0650972 0.0651 0.0651032 0.0650944 0.0651059 0.0651024 0.0650993 0.0651009 0.0651034 0.0650972 0.0651056 0.0651033 0.0651014 0.0651018 0.0651036 0.0650989 0.0651061 0.0651042 0.0651028 0.0651026 0.0651037 0.0651011 0.0651054 0.0651045 0.0651039 0.0651031 0.0651038 0.0651019 0.0651056 0.0651049 0.0651045 0.0651036 0.0651037 0.0651034 0.065105 0.0651048 0.065105 0.0651038 0.0651038 0.0651035 0.065105 0.0651048 0.0651047 0.0651039 0.0651041 0.0651043 0.065104 0.0651043 0.0651046 0.065104 0.0652132 0.0651529 0.0653464 0.0652257 0.0651442 0.0651526 0.0651587 0.0651391 0.0651917 0.0651505 0.0651297 0.0651444 0.0651512 0.0651283 0.0651594 0.0651378 0.0651269 0.0651406 0.0651453 0.0651222 0.0651489 0.0651358 0.0651255 0.065136 0.0651396 0.0651184 0.0651421 0.0651334 0.0651234 0.0651318 0.0651339 0.0651161 0.0651363 0.0651305 0.0651214 0.0651278 0.0651291 0.0651141 0.0651309 0.0651269 0.0651191 0.0651238 0.0651241 0.0651121 0.0651261 0.0651236 0.0651169 0.0651203 0.06512 0.0651106 0.0651217 0.0651203 0.0651145 0.0651169 0.0651158 0.065109 0.0651176 0.0651172 0.0651126 0.0651142 0.0651128 0.0651077 0.0651141 0.0651143 0.0651106 0.0651115 0.0651096 0.0651064 0.0651109 0.0651119 0.0651089 0.0651095 0.0651075 0.0651055 0.0651082 0.0651095 0.0651074 0.0651073 0.0651054 0.0651049 0.0651061 0.0651077 0.0651062 0.0651061 0.0651045 0.0651043 0.0651046 0.0651059 0.0651049 0.0651048 0.0651037 0.0651038 0.0651036 0.0651045 0.0651037 0.065104 0.0652651 0.0652257 0.0655229 0.0653953 0.0652314 0.0652052 0.0652111 0.0651869 0.0652166 0.0652172 0.0651915 0.0651894 0.0652005 0.0651737 0.0652017 0.0651883 0.0651776 0.0651844 0.0651901 0.0651647 0.0651913 0.0651789 0.0651681 0.0651764 0.0651788 0.065156 0.06518 0.0651711 0.0651594 0.065167 0.0651676 0.0651483 0.0651685 0.0651619 0.0651515 0.0651576 0.0651569 0.0651406 0.0651578 0.0651535 0.0651434 0.0651484 0.065147 0.0651339 0.0651473 0.0651446 0.0651364 0.0651401 0.0651381 0.0651274 0.0651388 0.0651371 0.0651295 0.0651324 0.0651299 0.0651222 0.06513 0.0651294 0.0651237 0.0651255 0.065123 0.0651169 0.0651233 0.0651236 0.0651182 0.0651198 0.0651168 0.0651129 0.0651169 0.0651176 0.0651141 0.0651148 0.0651119 0.0651094 0.0651121 0.0651134 0.0651101 0.0651108 0.0651081 0.0651073 0.0651077 0.0651092 0.0651074 0.0651077 0.0651056 0.0651051 0.0651053 0.0651067 0.0651053 0.0651054 0.0651045 0.0651044 0.065104 0.0651044 0.0651037 0.0651037 0.0650476 0.0649396 0.0649214 0.0648163 0.0649521 0.0649287 0.0650406 0.0649974 0.0650311 0.0649683 0.0649889 0.0650006 0.0650419 0.065011 0.0650501 0.0650111 0.0650129 0.0650295 0.0650475 0.0650248 0.0650513 0.0650332 0.0650305 0.0650451 0.0650557 0.0650379 0.0650571 0.0650473 0.0650442 0.0650563 0.0650642 0.0650499 0.0650656 0.065058 0.065056 0.0650647 0.0650716 0.0650601 0.0650734 0.065067 0.065066 0.0650728 0.0650785 0.0650697 0.0650806 0.0650748 0.0650748 0.0650792 0.0650842 0.0650776 0.0650865 0.0650817 0.0650822 0.0650856 0.0650894 0.0650848 0.0650916 0.0650875 0.0650887 0.0650903 0.0650935 0.0650906 0.0650958 0.0650924 0.0650939 0.0650952 0.0650972 0.0650955 0.0650995 0.0650963 0.0650982 0.0650982 0.0650997 0.0650991 0.0651018 0.0650996 0.0651014 0.0651014 0.065102 0.0651023 0.0651038 0.065102 0.0651037 0.0651027 0.0651034 0.0651038 0.0651046 0.0651033 0.0651047 0.0651043 0.0651045 0.0651046 0.0651052 0.065104 0.0651048 0.0651042 0.0651355 0.0650728 0.0650944 0.0650497 0.0649864 0.0650522 0.0651045 0.0650705 0.0650979 0.0650636 0.0650574 0.0650792 0.0650925 0.0650655 0.0650991 0.0650718 0.0650714 0.0650859 0.0650909 0.0650668 0.0650968 0.0650817 0.0650772 0.0650907 0.0650924 0.0650719 0.0650968 0.065089 0.0650825 0.0650934 0.0650945 0.0650778 0.0650985 0.0650924 0.0650873 0.0650962 0.0650962 0.0650827 0.0651 0.0650961 0.0650917 0.065098 0.0650979 0.0650872 0.0651016 0.0650976 0.0650953 0.0651001 0.0650991 0.0650911 0.0651028 0.0651005 0.0650982 0.0651011 0.0651004 0.0650945 0.0651038 0.0651011 0.0651007 0.0651026 0.0651012 0.0650971 0.0651043 0.0651032 0.0651027 0.0651034 0.0651022 0.0650995 0.0651049 0.065103 0.0651039 0.0651042 0.0651025 0.0651012 0.065105 0.0651045 0.0651048 0.0651043 0.0651032 0.0651029 0.0651051 0.065104 0.0651052 0.0651049 0.0651038 0.0651036 0.0651048 0.0651049 0.0651052 0.0651045 0.0651042 0.0651044 0.0651046 0.0651038 0.0651047 0.0651044 0.0652198 0.0651571 0.0652882 0.0652158 0.0651162 0.0651833 0.0651664 0.065131 0.0651954 0.0651581 0.0651231 0.0651441 0.0651457 0.0651167 0.0651564 0.0651353 0.0651231 0.0651362 0.0651373 0.0651124 0.0651428 0.0651295 0.0651209 0.0651321 0.0651315 0.0651104 0.0651355 0.0651279 0.0651193 0.0651293 0.0651273 0.0651092 0.0651305 0.0651253 0.0651174 0.065126 0.065123 0.0651087 0.0651259 0.0651232 0.0651163 0.0651232 0.0651194 0.0651077 0.0651222 0.0651199 0.0651143 0.06512 0.0651158 0.0651071 0.0651184 0.0651178 0.0651132 0.0651173 0.065113 0.0651064 0.0651151 0.0651148 0.0651111 0.0651144 0.0651099 0.0651058 0.0651121 0.0651127 0.0651103 0.0651123 0.065108 0.0651053 0.0651095 0.0651103 0.0651082 0.0651098 0.0651058 0.0651049 0.0651071 0.0651087 0.0651075 0.0651083 0.065105 0.0651045 0.0651055 0.0651066 0.0651058 0.0651065 0.0651039 0.0651043 0.0651044 0.0651054 0.0651052 0.0651053 0.065104 0.0651038 0.0651035 0.0651037 0.0651038 0.0651035 0.0653211 0.0652336 0.0655024 0.0653838 0.0652424 0.0653073 0.0652109 0.0651863 0.0652139 0.0652348 0.0651879 0.0652066 0.0651983 0.065168 0.0651996 0.065192 0.0651736 0.0651825 0.065185 0.0651571 0.0651867 0.0651758 0.0651636 0.0651719 0.0651732 0.065149 0.0651741 0.0651666 0.0651554 0.0651627 0.0651624 0.0651423 0.065163 0.0651574 0.0651478 0.0651543 0.0651523 0.0651357 0.0651525 0.0651497 0.0651407 0.0651458 0.0651432 0.0651296 0.0651435 0.0651414 0.0651339 0.0651383 0.0651347 0.0651239 0.0651348 0.0651348 0.0651279 0.065131 0.0651271 0.0651193 0.0651274 0.0651275 0.065122 0.0651249 0.0651207 0.0651149 0.0651206 0.0651223 0.0651175 0.0651193 0.0651149 0.0651116 0.065115 0.0651164 0.065113 0.0651147 0.0651105 0.0651083 0.0651101 0.0651128 0.0651099 0.0651106 0.065107 0.0651066 0.0651068 0.0651088 0.0651069 0.0651078 0.0651049 0.0651049 0.0651043 0.0651067 0.0651052 0.0651052 0.0651043 0.0651043 0.0651039 0.0651043 0.0651037 0.0651037 0.0650335 0.0649262 0.0648977 0.0647952 0.0649369 0.0649096 0.0650325 0.0649919 0.0650143 0.0649623 0.0649794 0.0649816 0.0650349 0.0650029 0.0650451 0.0650059 0.0650045 0.0650159 0.0650401 0.0650166 0.0650475 0.0650267 0.0650232 0.0650358 0.0650491 0.0650314 0.0650524 0.0650414 0.0650386 0.0650496 0.0650587 0.0650447 0.0650607 0.0650528 0.0650514 0.0650597 0.0650675 0.0650565 0.0650692 0.0650628 0.0650623 0.065069 0.0650752 0.0650666 0.0650769 0.0650715 0.065072 0.0650762 0.0650819 0.0650756 0.0650837 0.0650792 0.06508 0.0650835 0.0650875 0.0650832 0.0650894 0.0650855 0.0650872 0.0650887 0.0650923 0.0650896 0.0650943 0.0650912 0.0650931 0.065094 0.0650964 0.0650946 0.0650982 0.0650956 0.0650977 0.0650974 0.0650993 0.0650989 0.065101 0.0650992 0.0651012 0.0651009 0.0651016 0.0651019 0.0651034 0.0651017 0.0651037 0.0651025 0.0651033 0.0651036 0.0651044 0.0651033 0.0651048 0.0651041 0.0651043 0.0651042 0.065105 0.0651039 0.0651042 0.0651046 0.0651255 0.0650624 0.065066 0.0650261 0.0649641 0.0650294 0.0650966 0.0650664 0.0650802 0.0650519 0.0650437 0.0650646 0.0650837 0.0650574 0.0650916 0.0650673 0.0650635 0.0650767 0.065083 0.0650599 0.0650918 0.0650762 0.0650723 0.0650835 0.0650856 0.065066 0.0650912 0.0650833 0.0650777 0.0650887 0.0650885 0.0650731 0.0650932 0.0650874 0.0650832 0.0650925 0.0650918 0.0650792 0.0650956 0.0650917 0.0650881 0.0650954 0.0650939 0.0650848 0.0650977 0.0650943 0.0650924 0.0650979 0.0650965 0.0650892 0.0650998 0.0650973 0.065096 0.0650999 0.065098 0.0650931 0.0651011 0.0650991 0.0650988 0.0651017 0.0650998 0.0650962 0.0651025 0.0651012 0.0651013 0.0651031 0.0651008 0.0650989 0.0651033 0.0651022 0.0651029 0.0651039 0.065102 0.0651009 0.0651039 0.0651035 0.0651043 0.0651046 0.0651024 0.0651026 0.0651041 0.0651036 0.0651048 0.0651049 0.0651034 0.0651034 0.0651042 0.0651043 0.0651051 0.0651048 0.0651035 0.0651043 0.0651038 0.0651037 0.0651048 0.0651045 0.0652118 0.065146 0.0652602 0.0651938 0.0650923 0.0651672 0.0651595 0.0651239 0.0651811 0.065145 0.0651122 0.0651398 0.0651387 0.0651087 0.0651491 0.0651286 0.0651166 0.065131 0.0651296 0.0651052 0.065136 0.0651252 0.0651163 0.0651279 0.0651257 0.0651052 0.0651299 0.0651233 0.0651156 0.0651251 0.0651218 0.0651055 0.0651254 0.0651218 0.0651144 0.0651231 0.0651188 0.0651053 0.0651215 0.0651199 0.065113 0.065121 0.0651157 0.0651055 0.0651186 0.0651177 0.0651125 0.0651182 0.0651131 0.0651051 0.0651154 0.065116 0.0651109 0.0651161 0.0651103 0.0651051 0.0651128 0.0651136 0.0651102 0.0651138 0.0651084 0.0651046 0.0651102 0.065112 0.0651088 0.065112 0.0651066 0.0651047 0.0651082 0.06511 0.065108 0.0651099 0.0651053 0.0651041 0.0651062 0.0651086 0.0651068 0.0651086 0.065104 0.0651044 0.065105 0.065107 0.0651063 0.0651066 0.0651037 0.0651036 0.0651039 0.0651059 0.0651052 0.0651057 0.0651033 0.0651039 0.0651031 0.0651044 0.0651045 0.0651038 0.0653121 0.0652254 0.0654788 0.0653613 0.0652232 0.0652976 0.0652085 0.0651772 0.065213 0.0652231 0.0651807 0.0652099 0.0651918 0.0651602 0.0651937 0.0651837 0.0651675 0.0651806 0.0651792 0.0651513 0.0651807 0.0651701 0.065159 0.065168 0.065168 0.0651445 0.0651687 0.0651618 0.0651511 0.0651591 0.0651583 0.0651384 0.0651587 0.0651539 0.065144 0.0651511 0.065149 0.0651325 0.0651491 0.0651461 0.0651374 0.0651431 0.06514 0.0651269 0.0651398 0.065139 0.0651315 0.0651364 0.0651327 0.0651221 0.0651324 0.0651322 0.0651257 0.0651291 0.0651251 0.0651178 0.0651249 0.0651261 0.0651209 0.065124 0.0651195 0.0651139 0.0651191 0.0651205 0.0651161 0.0651182 0.0651139 0.0651107 0.0651137 0.0651159 0.0651126 0.0651144 0.0651099 0.0651081 0.0651096 0.0651117 0.0651091 0.0651101 0.0651064 0.0651063 0.065106 0.0651088 0.0651072 0.0651078 0.065105 0.0651049 0.0651042 0.0651062 0.065105 0.065105 0.0651042 0.0651041 0.0651035 0.0651045 0.0651041 0.065104 0.0650306 0.0649364 0.0649159 0.0648319 0.0649385 0.0649205 0.0650293 0.0649796 0.0650198 0.0650045 0.064984 0.0649837 0.0650309 0.0649966 0.0650419 0.0650158 0.0650011 0.0650111 0.0650356 0.0650125 0.0650412 0.0650239 0.0650173 0.0650294 0.0650449 0.0650281 0.0650464 0.0650352 0.0650321 0.0650438 0.0650554 0.0650418 0.0650553 0.0650466 0.0650455 0.0650549 0.0650649 0.0650544 0.0650646 0.0650577 0.0650573 0.065065 0.0650736 0.065065 0.0650733 0.0650671 0.0650678 0.0650734 0.0650807 0.0650746 0.0650806 0.0650758 0.0650767 0.0650812 0.065087 0.0650823 0.0650871 0.0650829 0.0650845 0.0650872 0.065092 0.0650892 0.0650923 0.0650891 0.0650909 0.065093 0.0650964 0.0650943 0.0650968 0.0650938 0.0650961 0.0650968 0.0650995 0.0650987 0.0651 0.065098 0.0650999 0.0651005 0.065102 0.0651015 0.0651026 0.0651007 0.0651027 0.0651023 0.0651036 0.0651035 0.065104 0.0651026 0.0651043 0.0651041 0.0651046 0.0651043 0.065105 0.0651035 0.0651046 0.0651041 0.0651086 0.065043 0.0650523 0.0650036 0.0649573 0.0650167 0.0650854 0.06506 0.0650722 0.065067 0.0650442 0.0650574 0.0650776 0.0650552 0.0650848 0.0650702 0.0650603 0.0650716 0.0650786 0.0650588 0.0650853 0.0650719 0.065066 0.0650783 0.0650824 0.0650663 0.0650863 0.0650765 0.0650718 0.0650835 0.0650862 0.0650737 0.065089 0.0650813 0.0650779 0.0650878 0.06509 0.0650804 0.0650914 0.0650863 0.0650834 0.0650917 0.065093 0.0650858 0.0650946 0.06509 0.0650885 0.0650948 0.0650957 0.0650905 0.0650969 0.0650939 0.0650927 0.0650975 0.0650977 0.0650945 0.0650993 0.0650964 0.0650964 0.0650997 0.0650998 0.0650977 0.0651006 0.0650993 0.0650993 0.0651017 0.0651012 0.0651003 0.0651022 0.0651007 0.0651016 0.0651029 0.0651024 0.0651022 0.0651027 0.0651025 0.0651033 0.065104 0.065103 0.0651037 0.0651037 0.0651031 0.0651043 0.0651042 0.0651038 0.0651043 0.0651036 0.065104 0.0651048 0.0651045 0.0651044 0.0651046 0.0651039 0.065104 0.0651052 0.0651044 0.065187 0.0651094 0.0652222 0.0651508 0.0650739 0.0651342 0.0651446 0.0651092 0.0651591 0.0651218 0.0651062 0.0651244 0.0651302 0.0651052 0.0651383 0.0651202 0.0651109 0.0651246 0.0651254 0.0651053 0.0651297 0.0651187 0.0651104 0.0651229 0.0651222 0.0651063 0.0651252 0.0651179 0.0651093 0.0651217 0.0651199 0.0651071 0.0651222 0.0651163 0.0651095 0.0651196 0.0651172 0.0651074 0.0651189 0.0651149 0.0651091 0.0651177 0.0651149 0.0651074 0.0651165 0.0651133 0.0651087 0.065116 0.0651121 0.0651074 0.0651142 0.0651117 0.0651082 0.0651141 0.0651104 0.0651071 0.0651118 0.0651105 0.0651077 0.0651126 0.0651082 0.0651068 0.0651098 0.065109 0.0651072 0.0651109 0.065107 0.0651064 0.0651081 0.0651081 0.0651065 0.0651095 0.0651056 0.0651061 0.0651065 0.0651066 0.065106 0.0651081 0.0651049 0.0651056 0.0651052 0.0651059 0.0651055 0.065107 0.065104 0.065105 0.0651042 0.065105 0.065105 0.0651055 0.0651041 0.0651042 0.0651037 0.0651044 0.0651042 0.0651041 0.0652824 0.065192 0.0654142 0.0653112 0.0651936 0.0652575 0.0651939 0.0651585 0.0651973 0.065178 0.0651676 0.0651926 0.065182 0.0651544 0.0651829 0.0651665 0.0651599 0.0651728 0.065173 0.0651496 0.065174 0.0651632 0.0651524 0.0651634 0.065164 0.0651448 0.0651647 0.0651566 0.065146 0.0651553 0.0651551 0.0651391 0.0651554 0.0651497 0.0651399 0.0651476 0.0651459 0.0651342 0.0651462 0.0651427 0.0651341 0.0651408 0.0651377 0.0651284 0.0651378 0.0651361 0.0651285 0.0651343 0.0651306 0.0651237 0.065131 0.0651295 0.0651236 0.065128 0.0651243 0.0651194 0.0651244 0.0651243 0.0651191 0.0651228 0.0651185 0.0651157 0.0651189 0.0651191 0.0651153 0.0651179 0.0651139 0.0651123 0.0651141 0.0651152 0.0651118 0.065114 0.0651098 0.0651097 0.0651098 0.0651112 0.0651092 0.0651105 0.0651069 0.0651075 0.0651068 0.0651086 0.0651069 0.0651079 0.065105 0.0651058 0.0651048 0.0651061 0.0651054 0.0651054 0.0651047 0.0651043 0.0651042 0.0651049 0.0651036 0.065104 
SCALARS volume_diff float 1
LOOKUP_TABLE default
0.0624212 0.0623638 0.0623406 0.0622436 0.0623557 0.0624177 0.0624521 0.0624052 0.0624375 0.0624002 0.0624032 0.062443 0.0624521 0.0624194 0.0624493 0.0624281 0.0624208 0.0624444 0.0624549 0.0624306 0.062454 0.0624406 0.062434 0.0624493 0.0624609 0.0624415 0.0624607 0.0624504 0.0624455 0.0624557 0.0624671 0.0624514 0.0624677 0.062459 0.0624555 0.0624631 0.0624733 0.0624608 0.0624742 0.0624669 0.0624646 0.0624698 0.0624785 0.0624688 0.06248 0.0624738 0.0624724 0.0624764 0.0624835 0.0624761 0.062485 0.0624801 0.0624793 0.0624814 0.0624875 0.0624824 0.0624893 0.0624852 0.0624851 0.0624867 0.0624912 0.0624878 0.0624928 0.0624898 0.06249 0.0624904 0.0624938 0.0624919 0.0624958 0.0624932 0.0624939 0.0624939 0.0624963 0.0624954 0.0624979 0.0624963 0.062497 0.0624963 0.0624977 0.0624981 0.0624996 0.0624982 0.0624991 0.0624983 0.062499 0.0624996 0.0625003 0.0624995 0.0624999 0.0624994 0.0624998 0.0625001 0.0625006 0.0625 0.0624997 0.0625006 0.0625236 0.0624674 0.0625357 0.062461 0.0624266 0.0624965 0.0625098 0.0624788 0.0625068 0.0624704 0.0624654 0.0624969 0.0625018 0.0624755 0.0625037 0.0624815 0.0624729 0.0624923 0.0624986 0.0624751 0.0625005 0.0624874 0.0624782 0.062491 0.0624979 0.0624771 0.0625 0.0624908 0.0624825 0.0624915 0.062498 0.0624808 0.0624998 0.0624932 0.0624868 0.062493 0.0624985 0.0624841 0.0625008 0.0624954 0.0624901 0.0624942 0.0624988 0.0624877 0.0625009 0.0624968 0.0624931 0.0624958 0.062499 0.0624902 0.0625017 0.0624983 0.0624951 0.0624967 0.0624992 0.062493 0.0625014 0.0624991 0.0624972 0.0624977 0.0624995 0.0624948 0.0625019 0.0625 0.0624986 0.0624984 0.0624995 0.0624969 0.0625012 0.0625004 0.0624997 0.062499 0.0624997 0.0624977 0.0625014 0.0625007 0.0625003 0.0624994 0.0624995 0.0624993 0.0625008 0.0625006 0.0625008 0.0624996 0.0624996 0.0624994 0.0625008 0.0625006 0.0625005 0.0624998 0.0625 0.0625002 0.0624998 0.0625001 0.0625004 0.0624998 0.0626091 0.0625487 0.0627423 0.0626215 0.0625401 0.0625484 0.0625545 0.062535 0.0625875 0.0625463 0.0625256 0.0625403 0.062547 0.0625242 0.0625552 0.0625336 0.0625227 0.0625364 0.0625411 0.062518 0.0625447 0.0625316 0.0625213 0.0625319 0.0625354 0.0625143 0.0625379 0.0625292 0.0625192 0.0625276 0.0625298 0.0625119 0.0625321 0.0625263 0.0625172 0.0625237 0.062525 0.0625099 0.0625267 0.0625227 0.0625149 0.0625197 0.06252 0.062508 0.0625219 0.0625195 0.0625127 0.0625162 0.0625159 0.0625065 0.0625175 0.0625161 0.0625103 0.0625127 0.0625117 0.0625049 0.0625134 0.062513 0.0625084 0.06251 0.0625086 0.0625036 0.06251 0.0625102 0.0625064 0.0625073 0.0625055 0.0625022 0.0625068 0.0625077 0.0625047 0.0625054 0.0625033 0.0625014 0.062504 0.0625054 0.0625032 0.0625032 0.0625013 0.0625007 0.062502 0.0625035 0.0625021 0.0625019 0.0625003 0.0625001 0.0625005 0.0625018 0.0625008 0.0625006 0.0624996 0.0624996 0.0624994 0.0625004 0.0624995 0.0624998 0.062661 0.0626215 0.0629188 0.0627911 0.0626273 0.062601 0.062607 0.0625827 0.0626125 0.0626131 0.0625873 0.0625853 0.0625964 0.0625695 0.0625975 0.0625842 0.0625734 0.0625802 0.0625859 0.0625606 0.0625872 0.0625748 0.062564 0.0625723 0.0625746 0.0625519 0.0625758 0.062567 0.0625552 0.0625629 0.0625634 0.0625441 0.0625643 0.0625578 0.0625473 0.0625535 0.0625528 0.0625364 0.0625537 0.0625493 0.0625392 0.0625442 0.0625428 0.0625297 0.0625432 0.0625404 0.0625323 0.0625359 0.062534 0.0625232 0.0625346 0.0625329 0.0625253 0.0625283 0.0625258 0.062518 0.0625259 0.0625253 0.0625196 0.0625213 0.0625188 0.0625128 0.0625191 0.0625195 0.0625141 0.0625156 0.0625126 0.0625088 0.0625127 0.0625135 0.0625099 0.0625106 0.0625078 0.0625053 0.0625079 0.0625092 0.0625059 0.0625066 0.062504 0.0625031 0.0625035 0.0625051 0.0625032 0.0625035 0.0625014 0.062501 0.0625011 0.0625025 0.0625011 0.0625013 0.0625003 0.0625002 0.0624998 0.0625003 0.0624996 0.0624995 0.0624435 0.0623355 0.0623173 0.0622122 0.0623479 0.0623246 0.0624364 0.0623933 0.0624269 0.0623641 0.0623847 0.0623964 0.0624378 0.0624068 0.0624459 0.062407 0.0624088 0.0624253 0.0624433 0.0624207 0.0624471 0.0624291 0.0624263 0.0624409 0.0624515 0.0624338 0.062453 0.0624431 0.0624401 0.0624521 0.06246 0.0624457 0.0624614 0.0624539 0.0624519 0.0624605 0.0624674 0.0624559 0.0624692 0.0624628 0.0624618 0.0624686 0.0624743 0.0624655 0.0624764 0.0624706 0.0624706 0.062475 0.06248 0.0624734 0.0624824 0.0624775 0.062478 0.0624815 0.0624852 0.0624807 0.0624874 0.0624834 0.0624845 0.0624862 0.0624894 0.0624864 0.0624916 0.0624883 0.0624897 0.062491 0.062493 0.0624914 0.0624953 0.0624922 0.062494 0.062494 0.0624955 0.0624949 0.0624976 0.0624954 0.0624972 0.0624972 0.0624978 0.0624982 0.0624996 0.0624978 0.0624996 0.0624985 0.0624992 0.0624997 0.0625005 0.0624991 0.0625005 0.0625002 0.0625004 0.0625005 0.062501 0.0624998 0.0625006 0.0625 0.0625313 0.0624686 0.0624902 0.0624455 0.0623822 0.0624481 0.0625004 0.0624664 0.0624938 0.0624594 0.0624532 0.0624751 0.0624884 0.0624613 0.062495 0.0624676 0.0624673 0.0624817 0.0624867 0.0624626 0.0624927 0.0624776 0.0624731 0.0624865 0.0624883 0.0624678 0.0624926 0.0624848 0.0624784 0.0624893 0.0624903 0.0624737 0.0624944 0.0624883 0.0624832 0.062492 0.062492 0.0624785 0.0624958 0.0624919 0.0624875 0.0624938 0.0624937 0.0624831 0.0624975 0.0624934 0.0624911 0.062496 0.062495 0.0624869 0.0624987 0.0624963 0.0624941 0.062497 0.0624962 0.0624903 0.0624996 0.0624969 0.0624965 0.0624985 0.062497 0.062493 0.0625001 0.0624991 0.0624985 0.0624992 0.062498 0.0624953 0.0625007 0.0624989 0.0624997 0.0625 0.0624984 0.0624971 0.0625008 0.0625004 0.0625006 0.0625001 0.062499 0.0624987 0.0625009 0.0624998 0.062501 0.0625007 0.0624996 0.0624994 0.0625006 0.0625007 0.062501 0.0625003 0.0625 0.0625002 0.0625004 0.0624997 0.0625006 0.0625003 0.0626156 0.0625529 0.062684 0.0626117 0.062512 0.0625792 0.0625622 0.0625268 0.0625912 0.062554 0.0625189 0.06254 0.0625415 0.0625125 0.0625522 0.0625312 0.0625189 0.0625321 0.0625331 0.0625082 0.0625386 0.0625253 0.0625167 0.0625279 0.0625274 0.0625063 0.0625313 0.0625237 0.0625151 0.0625252 0.0625231 0.0625051 0.0625264 0.0625211 0.0625132 0.0625219 0.0625188 0.0625045 0.0625217 0.062519 0.0625122 0.062519 0.0625152 0.0625035 0.062518 0.0625158 0.0625102 0.0625158 0.0625117 0.062503 0.0625142 0.0625136 0.062509 0.0625132 0.0625089 0.0625022 0.062511 0.0625107 0.0625069 0.0625103 0.0625057 0.0625017 0.0625079 0.0625085 0.0625061 0.0625081 0.0625039 0.0625011 0.0625053 0.0625062 0.062504 0.0625057 0.0625016 0.0625008 0.062503 0.0625046 0.0625033 0.0625041 0.0625008 0.0625003 0.0625013 0.0625025 0.0625016 0.0625023 0.0624997 0.0625001 0.0625002 0.0625012 0.062501 0.0625011 0.0624998 0.0624996 0.0624993 0.0624996 0.0624996 0.0624993 0.0627169 0.0626294 0.0628982 0.0627796 0.0626383 0.0627032 0.0626068 0.0625821 0.0626098 0.0626306 0.0625837 0.0626025 0.0625942 0.0625639 0.0625954 0.0625879 0.0625694 0.0625783 0.0625808 0.0625529 0.0625825 0.0625716 0.0625594 0.0625677 0.0625691 0.0625449 0.06257 0.0625625 0.0625512 0.0625585 0.0625582 0.0625382 0.0625589 0.0625532 0.0625437 0.0625501 0.0625481 0.0625315 0.0625484 0.0625456 0.0625366 0.0625417 0.062539 0.0625254 0.0625393 0.0625373 0.0625297 0.0625341 0.0625306 0.0625197 0.0625306 0.0625307 0.0625237 0.0625268 0.0625229 0.0625152 0.0625232 0.0625233 0.0625178 0.0625207 0.0625165 0.0625107 0.0625164 0.0625181 0.0625133 0.0625151 0.0625107 0.0625074 0.0625109 0.0625123 0.0625089 0.0625105 0.0625063 0.0625042 0.062506 0.0625086 0.0625057 0.0625064 0.0625028 0.0625024 0.0625026 0.0625046 0.0625027 0.0625036 0.0625007 0.0625008 0.0625001 0.0625025 0.062501 0.062501 0.0625001 0.0625001 0.0624997 0.0625001 0.0624995 0.0624995 0.0624293 0.062322 0.0622935 0.0621911 0.0623328 0.0623054 0.0624284 0.0623877 0.0624102 0.0623581 0.0623753 0.0623774 0.0624307 0.0623987 0.062441 0.0624018 0.0624003 0.0624118 0.0624359 0.0624125 0.0624433 0.0624226 0.0624191 0.0624316 0.0624449 0.0624272 0.0624483 0.0624372 0.0624344 0.0624454 0.0624545 0.0624405 0.0624566 0.0624487 0.0624472 0.0624555 0.0624633 0.0624523 0.062465 0.0624586 0.0624582 0.0624649 0.062471 0.0624624 0.0624728 0.0624674 0.0624678 0.0624721 0.0624777 0.0624714 0.0624796 0.062475 0.0624759 0.0624793 0.0624833 0.062479 0.0624852 0.0624813 0.062483 0.0624845 0.0624881 0.0624855 0.0624901 0.0624871 0.0624889 0.0624899 0.0624922 0.0624904 0.062494 0.0624914 0.0624936 0.0624932 0.0624951 0.0624947 0.0624968 0.062495 0.062497 0.0624967 0.0624974 0.0624978 0.0624992 0.0624975 0.0624995 0.0624983 0.0624991 0.0624994 0.0625002 0.0624991 0.0625006 0.0624999 0.0625001 0.0625 0.0625008 0.0624997 0.0625001 0.0625004 0.0625214 0.0624583 0.0624618 0.0624219 0.06236 0.0624253 0.0624924 0.0624622 0.062476 0.0624478 0.0624395 0.0624604 0.0624796 0.0624533 0.0624874 0.0624631 0.0624593 0.0624726 0.0624788 0.0624557 0.0624876 0.062472 0.0624681 0.0624793 0.0624814 0.0624619 0.062487 0.0624791 0.0624736 0.0624846 0.0624843 0.062469 0.062489 0.0624833 0.0624791 0.0624883 0.0624877 0.0624751 0.0624915 0.0624875 0.062484 0.0624913 0.0624898 0.0624806 0.0624936 0.0624902 0.0624882 0.0624937 0.0624923 0.062485 0.0624956 0.0624932 0.0624918 0.0624958 0.0624938 0.0624889 0.0624969 0.062495 0.0624946 0.0624975 0.0624957 0.062492 0.0624983 0.0624971 0.0624972 0.062499 0.0624967 0.0624947 0.0624991 0.062498 0.0624988 0.0624997 0.0624979 0.0624967 0.0624997 0.0624994 0.0625001 0.0625004 0.0624982 0.0624984 0.0624999 0.0624994 0.0625007 0.0625007 0.0624992 0.0624993 0.0625 0.0625001 0.0625009 0.0625007 0.0624994 0.0625001 0.0624996 0.0624995 0.0625007 0.0625003 0.0626076 0.0625418 0.062656 0.0625897 0.0624882 0.0625631 0.0625553 0.0625197 0.062577 0.0625408 0.062508 0.0625356 0.0625345 0.0625045 0.0625449 0.0625244 0.0625124 0.0625268 0.0625254 0.062501 0.0625318 0.062521 0.0625122 0.0625238 0.0625215 0.062501 0.0625257 0.0625191 0.0625115 0.062521 0.0625177 0.0625013 0.0625212 0.0625176 0.0625102 0.0625189 0.0625146 0.0625011 0.0625174 0.0625158 0.0625089 0.0625169 0.0625115 0.0625014 0.0625145 0.0625135 0.0625084 0.0625141 0.0625089 0.0625009 0.0625113 0.0625118 0.0625068 0.062512 0.0625062 0.062501 0.0625087 0.0625094 0.0625061 0.0625096 0.0625043 0.0625004 0.0625061 0.0625078 0.0625047 0.0625078 0.0625024 0.0625006 0.062504 0.0625058 0.0625039 0.0625058 0.0625011 0.0625 0.062502 0.0625044 0.0625027 0.0625044 0.0624999 0.0625002 0.0625008 0.0625029 0.0625021 0.0625024 0.0624996 0.0624995 0.0624997 0.0625018 0.0625011 0.0625015 0.0624991 0.0624997 0.062499 0.0625003 0.0625004 0.0624996 0.0627079 0.0626213 0.0628746 0.0627571 0.0626191 0.0626934 0.0626044 0.062573 0.0626089 0.062619 0.0625765 0.0626058 0.0625877 0.062556 0.0625895 0.0625795 0.0625633 0.0625764 0.062575 0.0625471 0.0625766 0.0625659 0.0625548 0.0625638 0.0625639 0.0625403 0.0625646 0.0625576 0.0625469 0.062555 0.0625541 0.0625342 0.0625545 0.0625498 0.0625398 0.0625469 0.0625448 0.0625283 0.062545 0.0625419 0.0625332 0.0625389 0.0625358 0.0625228 0.0625356 0.0625348 0.0625273 0.0625323 0.0625285 0.0625179 0.0625283 0.062528 0.0625215 0.062525 0.062521 0.0625137 0.0625207 0.062522 0.0625167 0.0625198 0.0625153 0.0625097 0.062515 0.0625164 0.0625119 0.062514 0.0625098 0.0625066 0.0625095 0.0625117 0.0625084 0.0625102 0.0625058 0.0625039 0.0625055 0.0625075 0.0625049 0.0625059 0.0625022 0.0625022 0.0625019 0.0625046 0.0625031 0.0625036 0.0625008 0.0625007 0.0625 0.062502 0.0625009 0.0625009 0.0625 0.0624999 0.0624994 0.0625003 0.0624999 0.0624998 0.0624264 0.0623323 0.0623117 0.0622278 0.0623343 0.0623163 0.0624251 0.0623755 0.0624156 0.0624004 0.0623798 0.0623795 0.0624268 0.0623924 0.0624378 0.0624116 0.0623969 0.0624069 0.0624314 0.0624083 0.062437 0.0624198 0.0624132 0.0624252 0.0624407 0.0624239 0.0624422 0.0624311 0.0624279 0.0624396 0.0624512 0.0624376 0.0624511 0.0624425 0.0624413 0.0624507 0.0624607 0.0624503 0.0624604 0.0624535 0.0624531 0.0624608 0.0624694 0.0624608 0.0624691 0.0624629 0.0624637 0.0624692 0.0624766 0.0624704 0.0624764 0.0624717 0.0624725 0.0624771 0.0624828 0.0624781 0.062483 0.0624787 0.0624803 0.062483 0.0624879 0.0624851 0.0624881 0.062485 0.0624867 0.0624889 0.0624922 0.0624901 0.0624926 0.0624897 0.0624919 0.0624926 0.0624953 0.0624945 0.0624958 0.0624939 0.0624957 0.0624963 0.0624979 0.0624973 0.0624984 0.0624965 0.0624985 0.0624981 0.0624994 0.0624994 0.0624998 0.0624985 0.0625001 0.0624999 0.0625004 0.0625001 0.0625008 0.0624993 0.0625005 0.0625 0.0625044 0.0624389 0.0624481 0.0623994 0.0623531 0.0624125 0.0624813 0.0624558 0.0624681 0.0624628 0.06244 0.0624532 0.0624734 0.0624511 0.0624806 0.062466 0.0624561 0.0624675 0.0624745 0.0624547 0.0624812 0.0624677 0.0624618 0.0624742 0.0624782 0.0624621 0.0624821 0.0624723 0.0624676 0.0624793 0.062482 0.0624695 0.0624849 0.0624771 0.0624737 0.0624836 0.0624858 0.0624762 0.0624872 0.0624822 0.0624793 0.0624875 0.0624888 0.0624816 0.0624905 0.0624858 0.0624843 0.0624906 0.0624916 0.0624863 0.0624927 0.0624898 0.0624886 0.0624933 0.0624935 0.0624904 0.0624951 0.0624922 0.0624922 0.0624955 0.0624956 0.0624935 0.0624964 0.0624952 0.0624951 0.0624975 0.062497 0.0624961 0.062498 0.0624965 0.0624975 0.0624987 0.0624982 0.062498 0.0624986 0.0624983 0.0624991 0.0624998 0.0624988 0.0624995 0.0624996 0.0624989 0.0625001 0.0625001 0.0624996 0.0625001 0.0624994 0.0624999 0.0625006 0.0625003 0.0625002 0.0625004 0.0624997 0.0624998 0.062501 0.0625002 0.0625828 0.0625052 0.062618 0.0625467 0.0624697 0.06253 0.0625404 0.0625051 0.0625549 0.0625176 0.062502 0.0625202 0.062526 0.062501 0.0625341 0.062516 0.0625068 0.0625205 0.0625212 0.0625011 0.0625256 0.0625145 0.0625062 0.0625187 0.062518 0.0625021 0.062521 0.0625137 0.0625052 0.0625175 0.0625157 0.0625029 0.062518 0.0625121 0.0625054 0.0625154 0.062513 0.0625033 0.0625148 0.0625107 0.0625049 0.0625135 0.0625108 0.0625032 0.0625123 0.0625091 0.0625045 0.0625118 0.0625079 0.0625032 0.06251 0.0625075 0.062504 0.0625099 0.0625062 0.0625029 0.0625076 0.0625063 0.0625035 0.0625085 0.0625041 0.0625027 0.0625056 0.0625048 0.062503 0.0625068 0.0625028 0.0625023 0.0625039 0.0625039 0.0625024 0.0625053 0.0625014 0.0625019 0.0625024 0.0625024 0.0625018 0.0625039 0.0625007 0.0625014 0.0625011 0.0625018 0.0625014 0.0625028 0.0624999 0.0625008 0.0625 0.0625008 0.0625008 0.0625013 0.0624999 0.0625 0.0624995 0.0625003 0.0625 0.0624999 0.0626782 0.0625878 0.06281 0.062707 0.0625894 0.0626533 0.0625897 0.0625543 0.0625932 0.0625738 0.0625634 0.0625885 0.0625778 0.0625502 0.0625787 0.0625624 0.0625557 0.0625686 0.0625688 0.0625454 0.0625698 0.062559 0.0625482 0.0625593 0.0625598 0.0625407 0.0625605 0.0625524 0.0625419 0.0625511 0.0625509 0.062535 0.0625512 0.0625455 0.0625357 0.0625434 0.0625417 0.06253 0.062542 0.0625385 0.06253 0.0625366 0.0625336 0.0625242 0.0625337 0.0625319 0.0625243 0.0625301 0.0625264 0.0625196 0.0625268 0.0625253 0.0625195 0.0625238 0.0625202 0.0625152 0.0625203 0.0625202 0.0625149 0.0625186 0.0625143 0.0625115 0.0625147 0.0625149 0.0625111 0.0625137 0.0625097 0.0625081 0.0625099 0.062511 0.0625077 0.0625098 0.0625056 0.0625056 0.0625057 0.0625071 0.062505 0.0625063 0.0625028 0.0625033 0.0625027 0.0625045 0.0625028 0.0625038 0.0625009 0.0625017 0.0625006 0.0625019 0.0625013 0.0625012 0.0625005 0.0625001 0.0625001 0.0625008 0.0624995 0.0624998 
